##TITLE=1,2-Ethanediamine, N,N-diethyl-
##JCAMP-DX=4.24
##DATA TYPE=INFRARED SPECTRUM
##ORIGIN=Sadtler Research Labs Under US-EPA Contract
##OWNER=NIST Standard Reference Data Program
##CAS REGISTRY NO=100-36-7
##MOLFORM=C 6 H 16 N 2
##XUNITS=1/CM
##YUNITS=ABSORBANCE
##XFACTOR=1.0
##YFACTOR=0.000114771
##DELTAX=4.0
##FIRSTX=450.0
##LASTX=3966.0
##FIRSTY=0.000000
##MAXX=3966
##MINX=450
##MAXY=1.14771
##MINY=0
##NPOINTS=880
##XYDATA=(X++(Y..Y))
450.0 0 205 293 163 253 395 429 478 282 297
490.0 418 389 329 364 464 344 389 476 380 392
530.0 435 470 387 441 429 366 296 360 321 297
570.0 217 263 261 256 302 200 238 262 260 206
610.0 220 243 263 237 230 229 246 260 276 257
650.0 266 256 283 249 292 268 313 372 380 365
690.0 414 469 549 559 631 730 859 997 1155 1296
730.0 1416 1561 1624 1703 1740 1875 2088 2167 2305 2325
770.0 2238 2200 2186 2198 2300 2350 2490 2590 2682 2734
810.0 2627 2472 2351 2165 1943 1574 1308 1075 829 709
850.0 632 560 544 537 535 517 509 578 604 556
890.0 557 592 545 493 511 480 495 489 463 414
930.0 377 324 305 289 299 259 265 278 311 337
970.0 348 405 433 480 524 571 594 617 663 706
1010.0 769 820 913 1001 1119 1236 1359 1535 1718 1961
1050.0 2223 2488 2716 2839 2899 2828 2729 2607 2497 2410
1090.0 2354 2274 2155 1952 1735 1509 1329 1186 1064 975
1130.0 876 796 725 675 647 614 607 625 655 709
1170.0 747 792 814 838 875 981 1180 1457 1730 1937
1210.0 2008 1897 1625 1304 1028 837 709 626 563 561
1250.0 584 611 655 694 740 757 797 883 987 1151
1290.0 1310 1444 1521 1500 1436 1320 1186 1088 1012 1022
1330.0 1060 1147 1314 1472 1619 1750 1819 1847 1878 2019
1370.0 2137 2354 2597 2662 2716 2395 2030 1604 1136 837
1410.0 584 500 433 438 405 441 531 677 812 974
1450.0 1166 1413 1535 1684 1628 1652 1589 1441 1216 980
1490.0 802 627 514 446 418 461 314 379 357 347
1530.0 306 311 335 338 327 293 317 337 384 296
1570.0 324 345 349 370 363 391 476 454 592 639
1610.0 714 846 889 950 867 862 738 656 555 413
1650.0 440 368 356 216 279 252 263 238 248 246
1690.0 208 195 228 285 219 244 293 406 436 393
1730.0 465 344 315 223 182 194 163 161 157 145
1770.0 169 168 148 151 164 166 164 177 151 179
1810.0 154 160 171 162 180 181 159 174 152 193
1850.0 158 166 165 145 174 151 170 153 159 162
1890.0 160 160 160 164 163 169 158 178 158 169
1930.0 164 164 169 162 174 160 166 161 159 164
1970.0 161 168 166 165 168 163 177 165 173 171
2010.0 167 173 170 172 165 167 171 169 174 171
2050.0 172 174 173 175 175 179 178 179 181 182
2090.0 182 183 183 180 181 178 178 179 177 172
2130.0 171 169 169 167 169 167 167 167 169 169
2170.0 173 176 176 176 174 175 172 169 169 165
2210.0 162 164 164 163 167 166 166 167 171 173
2250.0 177 180 180 178 181 182 183 181 185 184
2290.0 189 191 196 198 204 206 203 200 203 196
2330.0 193 187 188 183 199 212 203 204 194 190
2370.0 203 199 205 210 198 190 187 189 190 192
2410.0 195 197 194 198 201 203 206 200 205 205
2450.0 200 199 196 195 194 192 193 195 199 199
2490.0 200 203 204 207 208 209 215 220 224 230
2530.0 234 235 239 247 252 259 267 276 293 304
2570.0 313 320 329 338 343 343 345 343 348 348
2610.0 354 356 366 376 393 408 425 454 481 509
2650.0 537 559 582 607 628 651 684 711 743 775
2690.0 810 845 881 935 989 1037 1093 1142 1184 1221
2730.0 1267 1295 1328 1373 1428 1492 1589 1696 1815 1933
2770.0 2057 2210 2418 2720 3146 3715 4408 5165 5895 6406
2810.0 6638 6584 6287 5798 5214 4677 4178 3790 3514 3342
2850.0 3253 3209 3206 3260 3353 3544 3821 4094 4315 4383
2890.0 4349 4277 4208 4210 4277 4421 4581 4769 5054 5465
2930.0 6060 6760 7316 7652 7632 7321 6932 6566 6736 7484
2970.0 8705 9825 10000 9404 7791 5753 3944 2597 1777 1319
3010.0 1062 917 812 737 686 647 608 581 557 537
3050.0 513 491 475 450 445 430 414 399 393 380
3090.0 365 356 354 342 335 328 319 316 306 307
3130.0 301 300 292 295 292 283 290 290 287 292
3170.0 288 288 280 272 275 266 261 256 250 252
3210.0 240 237 238 235 231 223 226 224 215 219
3250.0 212 218 217 215 207 209 208 210 204 207
3290.0 208 214 206 206 215 211 219 231 236 269
3330.0 309 344 361 362 349 315 287 257 239 227
3370.0 219 217 214 220 235 248 260 280 291 301
3410.0 289 292 279 262 263 241 233 223 217 218
3450.0 203 210 215 206 203 200 199 196 186 190
3490.0 199 193 194 184 196 172 205 186 199 189
3530.0 190 191 191 179 210 178 207 162 218 170
3570.0 225 178 187 180 202 216 198 183 194 199
3610.0 218 200 203 204 189 249 210 201 177 203
3650.0 194 228 198 201 209 186 249 193 216 190
3690.0 206 232 171 233 198 197 221 187 216 198
3730.0 224 227 203 255 228 271 194 221 185 195
3770.0 205 192 189 202 199 201 190 207 199 208
3810.0 198 211 197 222 184 202 217 219 202 209
3850.0 178 285 213 197 197 243 210 194 222 222
3890.0 226 205 216 246 235 240 176 256 218 226
3930.0 202 223 225 217 260 238 247 222 238 260
##END=
