##TITLE=Morpholine, 4-ethyl-
##JCAMP-DX=4.24
##DATA TYPE=INFRARED SPECTRUM
##ORIGIN=Sadtler Research Labs Under US-EPA Contract
##OWNER=NIST Standard Reference Data Program
##CAS REGISTRY NO=100-74-3
##MOLFORM=C 6 H 13 N O
##XUNITS=1/CM
##YUNITS=ABSORBANCE
##XFACTOR=1.0
##YFACTOR=0.000125177
##DELTAX=4.0
##FIRSTX=450.0
##LASTX=3966.0
##FIRSTY=0.000000
##MAXX=3966
##MINX=450
##MAXY=1.25177
##MINY=0
##NPOINTS=880
##XYDATA=(X++(Y..Y))
450.0 0 57 137 107 133 129 185 140 184 194
490.0 182 164 202 216 148 154 93 111 81 112
530.0 126 87 48 85 71 95 85 57 144 41
570.0 96 82 108 114 122 116 195 290 522 640
610.0 680 737 702 542 293 217 137 117 85 90
650.0 76 74 76 61 69 91 86 66 71 70
690.0 90 76 102 86 96 91 95 104 125 135
730.0 136 123 203 211 280 353 448 554 654 773
770.0 885 970 787 616 536 423 301 246 182 177
810.0 168 175 157 160 143 133 139 169 269 412
850.0 681 1055 1400 1649 1726 1496 1222 739 437 322
890.0 292 320 396 568 792 985 961 1046 1190 1099
930.0 1074 1382 1706 1888 1855 1699 1426 904 516 337
970.0 236 216 182 198 195 250 291 377 471 576
1010.0 732 1022 1384 1594 1748 1858 1805 1483 910 667
1050.0 539 469 489 594 694 783 792 824 876 893
1090.0 941 1050 1317 1774 2451 3437 4828 6633 8072 8878
1130.0 9228 9281 7971 6540 5425 4643 4166 3608 3007 2287
1170.0 1625 1147 871 707 637 616 624 646 670 618
1210.0 509 487 429 341 304 307 379 519 747 1045
1250.0 1402 1603 1630 1886 1965 1768 1613 1508 1419 1365
1290.0 1408 1549 1746 1926 2035 1918 1816 1607 1440 1348
1330.0 1266 1246 1300 1468 1657 1694 1685 1664 1643 1481
1370.0 1379 1423 1394 1439 1456 1461 1264 1176 1055 931
1410.0 725 527 439 387 369 400 507 722 1054 1319
1450.0 1597 1819 1777 1686 1489 1247 1081 923 677 523
1490.0 371 261 193 142 133 109 102 97 104 99
1530.0 96 100 94 95 86 99 79 84 80 67
1570.0 64 67 63 66 65 72 69 77 69 71
1610.0 68 72 71 73 64 68 63 66 60 59
1650.0 48 76 56 53 60 54 63 65 57 76
1690.0 68 72 89 112 128 141 151 136 146 120
1730.0 90 68 71 50 47 53 59 62 69 79
1770.0 68 80 64 72 54 73 52 57 58 62
1810.0 47 52 54 39 52 37 53 37 52 50
1850.0 52 50 56 55 52 63 60 67 65 69
1890.0 74 80 87 91 92 95 96 102 99 109
1930.0 116 114 113 111 107 101 98 99 105 119
1970.0 137 155 168 177 173 162 144 119 95 73
2010.0 64 49 46 40 43 42 46 50 57 65
2050.0 71 80 80 81 82 91 93 92 89 82
2090.0 74 64 55 50 51 52 52 52 55 58
2130.0 56 57 60 62 58 65 62 62 55 55
2170.0 53 48 47 43 43 41 46 41 41 43
2210.0 47 48 49 53 53 58 60 66 72 77
2250.0 76 76 75 75 74 71 73 74 79 79
2290.0 86 92 96 98 95 101 90 86 78 75
2330.0 71 75 63 61 68 53 41 43 69 82
2370.0 99 93 91 86 88 86 86 87 88 90
2410.0 86 86 82 79 74 72 66 62 60 60
2450.0 61 61 63 62 66 68 71 71 72 75
2490.0 74 72 71 74 73 75 80 80 79 84
2530.0 88 91 98 105 116 121 126 129 135 140
2570.0 138 138 136 134 130 130 129 140 143 150
2610.0 157 168 175 186 204 230 266 299 339 383
2650.0 428 469 523 573 598 630 683 741 808 871
2690.0 929 967 967 962 960 956 969 989 1032 1079
2730.0 1151 1218 1307 1429 1583 1777 1964 2190 2440 2726
2770.0 2955 3091 3229 3503 3886 4379 4983 5662 6296 6717
2810.0 6939 6939 6590 5874 5050 4231 3565 3116 2935 3128
2850.0 3616 4497 5296 6167 6693 5753 5063 4567 4055 3640
2890.0 3410 3415 3550 3676 3627 3698 3902 4075 4303 4671
2930.0 5022 5246 5532 5774 6022 6149 6355 6870 8078 9341
2970.0 9084 9403 10000 8342 6471 4435 2882 1826 1173 764
3010.0 524 395 322 284 256 243 230 225 223 223
3050.0 227 230 230 228 224 215 207 192 187 171
3090.0 167 166 165 170 174 180 179 184 175 161
3130.0 155 147 134 127 131 126 124 123 123 122
3170.0 122 125 128 122 127 130 123 130 124 125
3210.0 121 127 128 129 129 123 119 118 118 107
3250.0 103 98 98 97 100 103 94 94 84 79
3290.0 76 74 69 67 67 64 60 63 54 58
3330.0 56 57 58 51 56 47 56 45 49 54
3370.0 46 44 45 52 43 57 49 52 41 46
3410.0 50 48 41 47 52 45 46 56 61 57
3450.0 49 60 57 61 61 62 55 48 59 56
3490.0 61 55 55 64 58 59 50 46 58 50
3530.0 56 54 53 56 57 54 54 54 64 67
3570.0 76 56 55 70 61 76 66 45 49 46
3610.0 65 54 61 60 43 77 40 55 43 56
3650.0 79 58 65 58 47 63 55 91 45 68
3690.0 68 63 68 68 60 76 80 79 75 101
3730.0 92 107 91 99 133 95 123 73 82 68
3770.0 62 88 73 74 56 83 80 77 70 83
3810.0 52 72 60 84 64 67 97 87 79 68
3850.0 61 84 75 59 82 67 76 72 87 102
3890.0 83 105 45 95 81 84 69 104 74 90
3930.0 97 104 94 103 94 100 94 99 90 75
##END=
