##TITLE=Benzene, 1-methoxy-3-methyl-
##JCAMP-DX=4.24
##DATA TYPE=INFRARED SPECTRUM
##ORIGIN=Sadtler Research Labs Under US-EPA Contract
##OWNER=NIST Standard Reference Data Program
##CAS REGISTRY NO=100-84-5
##MOLFORM=C 8 H 10 O
##XUNITS=1/CM
##YUNITS=ABSORBANCE
##XFACTOR=1.0
##YFACTOR=0.000114685
##DELTAX=4.0
##FIRSTX=450.0
##LASTX=3966.0
##FIRSTY=0.000000
##MAXX=3966
##MINX=450
##MAXY=1.14685
##MINY=0
##NPOINTS=880
##XYDATA=(X++(Y..Y))
450.0 0 247 282 199 147 156 126 135 160 124
490.0 152 155 165 183 215 255 253 255 295 300
530.0 278 289 276 355 443 483 523 529 562 540
570.0 470 427 410 335 273 221 215 182 155 179
610.0 159 162 161 172 175 163 188 167 187 171
650.0 182 167 173 229 254 537 788 1136 1283 1969
690.0 2551 1867 1451 1180 868 683 651 763 827 828
730.0 810 644 460 403 531 771 1114 1523 2135 2982
770.0 3056 3193 3647 2833 1991 1554 1067 678 432 319
810.0 268 254 302 326 381 439 519 695 754 678
850.0 699 771 766 745 781 862 882 818 762 737
890.0 772 833 895 1014 1131 1103 976 847 685 474
930.0 322 269 234 235 234 242 251 266 285 303
970.0 337 387 444 495 549 588 611 605 599 584
1010.0 544 554 576 679 858 1188 1706 2405 3262 4036
1050.0 4553 4780 4750 4337 3526 2831 2234 1710 1298 1065
1090.0 962 855 726 622 521 475 454 460 496 552
1130.0 636 777 1120 1916 3440 5423 6444 7225 7615 6348
1170.0 4436 3459 2713 1964 1567 1359 1233 1143 997 789
1210.0 707 691 684 685 777 986 1333 1767 2405 3420
1250.0 4872 6639 8303 9214 10000 9456 8278 7079 6722 6625
1290.0 6505 6311 5850 5001 3829 2875 2340 2061 1731 1516
1330.0 1361 1222 1006 787 614 545 454 411 386 382
1370.0 397 426 483 473 561 597 664 665 710 746
1410.0 771 886 1078 1489 1912 2537 2948 3172 3154 3030
1450.0 2974 2900 3120 3689 3895 3536 3538 3961 4562 5661
1490.0 5962 6409 5900 5212 4105 2932 2581 2308 2195 1907
1530.0 1791 1678 1569 1465 1333 1221 1178 1185 1286 1445
1570.0 1820 2300 3091 4337 4882 6166 6829 8955 8309 8821
1610.0 8257 6709 5505 3906 3047 1933 1448 977 737 601
1650.0 507 460 372 352 315 302 288 265 278 260
1690.0 251 246 262 271 289 323 368 411 405 404
1730.0 394 373 326 296 277 257 242 215 209 186
1770.0 188 171 159 158 153 162 171 192 208 227
1810.0 235 242 241 244 249 260 270 263 258 238
1850.0 223 199 190 190 198 222 236 258 261 270
1890.0 267 254 250 264 282 294 312 327 311 273
1930.0 256 225 194 181 175 182 183 192 193 198
1970.0 193 196 198 197 203 205 201 192 196 192
2010.0 198 200 205 208 207 209 207 215 223 236
2050.0 240 240 234 226 217 209 213 213 219 221
2090.0 226 224 225 222 217 211 202 197 188 187
2130.0 182 178 176 180 188 195 208 210 214 211
2170.0 206 204 208 211 214 213 209 208 205 210
2210.0 208 211 202 192 178 160 148 140 135 128
2250.0 128 126 126 124 126 125 126 130 128 133
2290.0 135 140 141 152 163 170 182 184 192 182
2330.0 178 169 166 163 158 162 159 160 156 148
2370.0 141 141 142 147 152 159 163 166 176 181
2410.0 188 191 196 194 190 190 190 192 192 193
2450.0 188 186 178 173 169 170 172 175 178 175
2490.0 176 174 169 167 167 169 168 171 174 181
2530.0 188 197 208 227 244 250 250 243 235 220
2570.0 209 201 201 201 201 199 198 196 193 192
2610.0 189 188 184 179 173 170 171 174 173 172
2650.0 176 174 169 166 163 161 155 156 155 155
2690.0 159 159 160 165 167 173 178 183 194 206
2730.0 226 249 274 281 298 294 271 253 243 239
2770.0 243 247 252 259 269 278 287 302 318 341
2810.0 373 418 488 588 760 1045 1486 1964 2259 2383
2850.0 2397 2160 1776 1548 1517 1588 1681 1755 1800 1815
2890.0 1806 1827 1899 2042 2255 2527 2886 3293 3613 3849
2930.0 4010 4130 4382 4581 4643 4523 4416 4322 3629 2869
2970.0 2442 2094 1849 1742 1740 1891 2201 2765 3361 3554
3010.0 3459 3263 2808 2284 2118 2210 2330 2422 2485 2511
3050.0 2535 2574 2516 2383 2244 2067 1838 1680 1585 1471
3090.0 1293 1121 978 863 763 686 614 540 456 381
3130.0 324 285 258 234 217 212 198 190 186 184
3170.0 179 177 171 167 164 161 160 158 156 156
3210.0 153 152 155 150 146 147 149 137 139 146
3250.0 138 140 144 141 141 144 143 143 141 137
3290.0 141 143 135 134 137 134 138 139 138 141
3330.0 142 146 138 143 140 148 143 138 140 141
3370.0 143 138 136 134 140 137 139 138 140 136
3410.0 139 143 139 142 143 139 139 136 138 140
3450.0 143 142 140 139 142 145 147 141 144 139
3490.0 145 145 150 144 140 147 137 138 139 139
3530.0 137 136 136 138 134 137 138 136 137 135
3570.0 139 139 141 143 138 141 131 139 143 140
3610.0 133 135 142 130 137 137 133 138 133 134
3650.0 134 135 139 134 134 134 132 125 124 138
3690.0 129 129 134 137 124 128 130 140 133 132
3730.0 138 143 141 148 143 149 147 148 153 151
3770.0 152 149 145 146 139 140 155 142 141 136
3810.0 149 141 141 146 141 144 142 147 143 140
3850.0 148 150 132 147 156 141 148 146 148 151
3890.0 159 159 168 162 162 157 154 157 149 153
3930.0 157 167 148 144 145 155 151 153 149 151
##END=
