##TITLE=Benzene, 1-ethoxy-4-nitro-
##JCAMP-DX=4.24
##DATA TYPE=INFRARED SPECTRUM
##ORIGIN=Sadtler Research Labs Under US-EPA Contract
##OWNER=NIST Standard Reference Data Program
##CAS REGISTRY NO=100-29-8
##MOLFORM=C 8 H 9 N O 3
##XUNITS=1/CM
##YUNITS=ABSORBANCE
##XFACTOR=1.0
##YFACTOR=0.000135657
##DELTAX=4.0
##FIRSTX=450.0
##LASTX=3966.0
##FIRSTY=0.005426
##MAXX=3966
##MINX=450
##MAXY=1.35657
##MINY=0
##NPOINTS=880
##XYDATA=(X++(Y..Y))
450.0 40 46 68 0 159 63 143 121 160 108
490.0 170 204 176 223 221 266 205 234 194 172
530.0 119 100 86 55 50 22 24 19 41 15
570.0 16 38 33 34 41 56 39 61 85 171
610.0 257 371 414 417 369 372 380 416 493 623
650.0 800 779 710 377 210 134 115 274 314 343
690.0 314 279 235 181 131 87 63 32 34 33
730.0 85 136 254 392 514 675 658 507 395 250
770.0 143 71 35 33 16 22 34 44 48 45
810.0 57 70 155 282 467 690 939 1185 1465 1865
850.0 2385 2725 2653 2169 1241 570 346 255 231 220
890.0 239 292 396 487 545 568 561 577 574 527
930.0 429 322 227 178 144 124 101 86 89 82
970.0 86 86 95 97 112 119 139 169 214 272
1010.0 345 409 440 607 888 1276 1706 2049 2225 2129
1050.0 1857 1488 1155 889 706 584 544 585 720 942
1090.0 1078 1141 1264 1562 2061 2512 2668 2314 1624 974
1130.0 563 352 272 247 271 329 477 791 1408 2097
1170.0 2406 2246 1615 999 692 548 470 455 481 553
1210.0 670 816 1002 1255 1650 2280 3235 4591 6115 7710
1250.0 8890 9880 10000 8489 6142 3479 2009 1479 1302 1404
1290.0 1792 2236 2401 2223 1796 1533 1640 1953 2235 2369
1330.0 2452 2762 3844 5938 8376 9211 8846 5847 3504 2293
1370.0 1762 1451 1210 1061 1053 1131 1269 1377 1252 1031
1410.0 785 558 565 461 448 464 517 550 531 570
1450.0 596 635 769 749 862 1028 1648 2185 2364 2849
1490.0 3555 4754 5143 4778 3796 2319 2188 2541 3491 4291
1530.0 5529 6062 6278 5796 4960 3756 2495 2053 1343 1162
1570.0 1144 1354 1659 2516 3285 4997 5562 7322 5750 4810
1610.0 3679 2804 2263 1509 1115 614 506 384 293 288
1650.0 315 322 218 190 169 175 195 102 183 174
1690.0 119 82 189 161 133 81 116 187 95 72
1730.0 104 183 104 113 129 166 150 167 190 154
1770.0 185 149 89 81 71 77 94 80 92 52
1810.0 48 53 26 43 48 64 42 27 53 73
1850.0 49 23 38 41 65 95 63 67 83 104
1890.0 126 134 129 134 132 132 125 118 116 79
1930.0 69 60 58 71 67 53 51 55 54 67
1970.0 56 49 39 32 25 41 39 30 32 38
2010.0 48 57 72 60 53 51 49 58 69 75
2050.0 73 77 65 59 53 41 36 30 33 32
2090.0 37 32 37 35 37 39 41 39 37 30
2130.0 19 18 13 17 11 13 10 8 7 5
2170.0 5 0 5 3 2 1 5 7 8 13
2210.0 13 16 19 23 18 18 15 14 12 11
2250.0 14 15 21 23 30 34 39 39 39 35
2290.0 32 28 17 16 8 5 0 4 4 8
2330.0 10 8 15 10 18 12 7 18 25 38
2370.0 44 53 46 45 46 51 49 50 49 47
2410.0 46 46 49 47 51 51 57 61 71 80
2450.0 92 107 114 113 106 99 87 83 81 80
2490.0 77 80 85 84 86 81 78 69 61 57
2530.0 54 57 62 73 80 93 97 97 92 89
2570.0 91 89 91 84 83 74 71 67 72 78
2610.0 77 78 72 67 58 58 57 60 57 54
2650.0 54 49 44 40 42 37 37 36 38 38
2690.0 43 46 49 54 56 57 56 58 58 60
2730.0 61 63 65 65 71 71 71 70 70 69
2770.0 67 73 73 75 75 78 73 75 74 76
2810.0 79 85 95 102 116 126 138 146 167 184
2850.0 204 225 251 279 314 367 422 486 546 598
2890.0 628 640 652 667 687 702 715 710 711 719
2930.0 740 796 872 946 998 966 845 696 573 547
2970.0 583 675 833 1054 1291 1433 1480 1360 1065 786
3010.0 561 404 301 233 196 170 151 138 124 116
3050.0 107 105 110 118 131 138 156 191 241 310
3090.0 370 367 306 199 108 78 66 66 58 54
3130.0 45 41 39 35 33 33 33 19 23 18
3170.0 22 21 19 20 22 28 28 33 37 40
3210.0 44 45 44 39 37 34 32 18 20 21
3250.0 17 14 16 12 11 15 16 15 13 12
3290.0 9 13 11 12 14 13 12 9 13 14
3330.0 14 13 15 13 14 14 15 17 14 17
3370.0 16 12 15 15 13 16 19 13 15 14
3410.0 17 13 13 10 10 15 11 15 6 14
3450.0 9 16 9 14 12 9 10 14 17 14
3490.0 7 11 11 3 6 7 9 12 10 8
3530.0 4 7 9 8 9 9 12 3 9 7
3570.0 14 18 21 20 18 23 11 5 6 5
3610.0 4 9 14 9 7 21 10 12 13 10
3650.0 28 9 18 15 13 10 14 36 15 18
3690.0 16 27 18 18 23 22 39 20 15 22
3730.0 22 28 26 38 22 40 43 31 28 31
3770.0 24 21 17 30 15 16 15 9 32 14
3810.0 33 13 15 38 16 20 23 18 20 33
3850.0 13 33 28 17 24 33 28 25 32 13
3890.0 27 23 25 23 22 25 27 28 22 21
3930.0 9 20 16 28 16 22 16 20 8 21
##END=
