##TITLE=Aniline, N-methyl-
##JCAMP-DX=4.24
##DATA TYPE=INFRARED SPECTRUM
##ORIGIN=Sadtler Research Labs Under US-EPA Contract
##OWNER=NIST Standard Reference Data Program
##CAS REGISTRY NO=100-61-8
##MOLFORM=C 7 H 9 N
##XUNITS=1/CM
##YUNITS=ABSORBANCE
##XFACTOR=1.0
##YFACTOR=0.000069727
##DELTAX=4.0
##FIRSTX=450.0
##LASTX=3966.0
##FIRSTY=0.047275
##MAXX=3966
##MINX=450
##MAXY=0.69727
##MINY=0
##NPOINTS=880
##XYDATA=(X++(Y..Y))
450.0 678 694 740 781 780 713 723 790 858 857
490.0 939 1083 1189 1016 1218 1294 1291 1066 1040 857
530.0 766 768 694 560 429 435 475 466 382 285
570.0 338 394 449 486 434 487 439 524 555 519
610.0 623 572 551 647 716 655 567 638 616 634
650.0 689 743 722 930 1026 1334 1661 1975 2213 2742
690.0 3538 2695 2214 1913 1759 1522 1189 1118 1257 1591
730.0 2091 2548 3055 3940 4533 4472 3246 2731 2219 1752
770.0 1125 852 739 561 575 426 370 302 276 231
810.0 168 143 107 107 105 89 65 55 88 135
850.0 185 228 277 330 459 492 371 276 238 216
890.0 178 138 55 51 47 22 73 51 26 50
930.0 39 48 42 34 57 46 64 58 57 68
970.0 70 75 138 214 303 316 330 331 316 209
1010.0 105 109 136 183 168 156 150 154 168 219
1050.0 307 414 579 706 799 839 862 826 739 635
1090.0 511 435 359 308 251 242 234 214 234 307
1130.0 359 500 644 811 945 1023 1017 1054 1020 987
1170.0 1104 1215 1132 1141 1109 1035 707 480 362 325
1210.0 295 265 259 277 317 371 515 786 1229 1892
1250.0 2551 3079 3397 3531 3442 2875 2163 1678 1417 1239
1290.0 1248 1521 2021 2714 3526 4197 4488 4342 3910 3241
1330.0 2307 1404 881 679 572 452 373 317 279 262
1370.0 248 233 236 226 217 205 198 211 262 320
1410.0 435 591 738 865 921 906 881 712 672 611
1450.0 607 730 682 812 904 1137 1314 1580 1824 2199
1490.0 2859 4147 6151 8526 9746 10000 9524 8289 5798 3260
1530.0 1793 1071 793 568 641 667 620 521 555 652
1570.0 653 775 897 1286 1863 2835 4461 6587 8344 9079
1610.0 9104 8411 6805 4784 3050 1947 1152 619 461 313
1650.0 268 82 246 241 254 202 208 209 218 103
1690.0 195 176 93 45 143 161 150 65 132 131
1730.0 117 36 95 115 152 140 182 183 166 174
1770.0 116 58 115 107 113 112 71 116 120 142
1810.0 150 158 174 194 171 156 155 132 109 48
1850.0 69 62 46 46 47 18 54 57 70 81
1890.0 86 122 165 193 234 220 214 235 264 224
1930.0 180 157 131 96 54 49 49 47 45 47
1970.0 47 54 61 54 50 48 44 40 51 41
2010.0 37 42 42 44 30 44 42 45 45 47
2050.0 48 53 66 54 48 53 39 48 47 48
2090.0 55 56 58 62 71 71 70 65 74 59
2130.0 57 58 43 43 31 31 20 25 12 13
2170.0 18 24 17 26 18 19 26 18 19 13
2210.0 27 27 28 21 21 27 29 27 20 20
2250.0 22 14 14 14 14 24 20 20 13 30
2290.0 38 37 45 38 51 23 15 11 11 11
2330.0 11 11 11 11 11 11 11 11 11 11
2370.0 11 11 12 26 50 62 59 79 80 74
2410.0 81 82 61 66 45 43 40 35 36 39
2450.0 41 49 49 56 55 56 53 50 50 47
2490.0 49 52 50 45 39 45 47 47 54 59
2530.0 55 57 64 79 100 102 126 155 176 199
2570.0 208 215 206 188 169 149 131 109 99 81
2610.0 82 81 90 83 76 84 82 100 90 91
2650.0 92 97 92 92 93 80 78 94 94 95
2690.0 99 102 87 89 97 89 102 111 117 140
2730.0 148 155 177 195 207 220 231 229 248 256
2770.0 257 269 284 307 344 388 458 523 636 808
2810.0 1036 1309 1598 1767 1812 1792 1664 1423 1152 959
2850.0 872 852 869 893 944 1010 1121 1244 1412 1621
2890.0 1843 2027 2188 2279 2319 2379 2397 2325 2212 2099
2930.0 1958 1833 1779 1753 1702 1651 1613 1577 1537 1532
2970.0 1574 1669 1832 1963 1951 1845 1725 1532 1276 1126
3010.0 1174 1375 1611 1766 1827 1871 1932 1853 1759 1843
3050.0 2112 2482 2709 2724 2787 2702 2362 1925 1655 1524
3090.0 1442 1360 1264 1119 949 830 734 624 496 419
3130.0 329 257 201 170 136 125 110 100 101 93
3170.0 95 92 89 75 72 72 62 75 64 98
3210.0 74 84 76 77 77 71 74 57 73 68
3250.0 67 70 64 61 73 73 67 65 67 65
3290.0 74 60 82 54 57 76 62 66 86 69
3330.0 70 77 78 80 68 78 66 82 78 72
3370.0 65 74 95 82 90 95 86 93 102 108
3410.0 121 140 167 176 232 274 333 430 541 655
3450.0 745 808 810 785 720 596 485 366 300 232
3490.0 190 174 175 137 160 140 139 118 128 134
3530.0 124 136 144 114 128 121 125 128 111 83
3570.0 83 119 110 103 101 73 89 89 75 95
3610.0 62 76 80 69 109 34 79 100 101 102
3650.0 37 80 54 96 94 44 44 25 82 86
3690.0 46 66 83 70 77 48 30 63 62 54
3730.0 56 20 14 24 11 11 14 44 53 59
3770.0 52 60 60 72 59 66 58 35 13 55
3810.0 55 56 49 36 66 70 62 27 41 43
3850.0 43 11 38 66 66 52 68 68 69 70
3890.0 73 72 84 85 86 93 92 93 92 99
3930.0 114 109 117 122 130 151 0 11 11 11
##END=
