##TITLE=Nicotinyl Alcohol
##JCAMP-DX=4.24
##DATA TYPE=INFRARED SPECTRUM
##ORIGIN=Sadtler Research Labs Under US-EPA Contract
##OWNER=NIST Standard Reference Data Program
##CAS REGISTRY NO=100-55-0
##MOLFORM=C 6 H 7 N O
##XUNITS=1/CM
##YUNITS=ABSORBANCE
##XFACTOR=1.0
##YFACTOR=0.000054340
##DELTAX=4.0
##FIRSTX=450.0
##LASTX=3966.0
##FIRSTY=0.000109
##MAXX=3966
##MINX=450
##MAXY=0.5434
##MINY=0
##NPOINTS=880
##XYDATA=(X++(Y..Y))
450.0 2 106 183 57 114 82 160 48 73 124
490.0 141 188 91 98 207 176 83 152 86 135
530.0 171 131 176 154 221 142 213 128 157 106
570.0 158 192 266 282 299 497 608 675 671 799
610.0 813 916 966 1273 1218 1165 1199 1188 984 782
650.0 512 316 295 256 277 285 295 341 563 982
690.0 1538 2137 2791 3537 4538 5815 5115 3672 3201 2583
730.0 2015 1420 945 713 565 574 571 790 1018 1399
770.0 1770 2235 2689 3239 3593 3489 3296 2861 2506 2107
810.0 1837 1657 1495 1339 1198 1077 853 696 508 424
850.0 324 290 230 186 197 175 188 144 180 177
890.0 169 200 252 285 352 445 507 652 764 879
930.0 964 1087 1192 1299 1399 1428 1496 1495 1593 1689
970.0 1816 1966 2221 2501 2799 3275 3913 4764 5791 7124
1010.0 8545 9573 9939 10000 9892 9399 8668 7668 7058 6263
1050.0 5584 4862 3856 3157 2694 2383 2106 1940 1783 1677
1090.0 1609 1541 1477 1430 1428 1273 1329 1315 1307 1307
1130.0 1292 1217 1132 1104 1066 1068 1088 1207 1252 1338
1170.0 1415 1531 1627 1700 1774 1828 1834 1811 1852 1900
1210.0 2002 2089 2120 2072 1951 1775 1490 1223 1067 1011
1250.0 979 997 990 950 906 855 830 795 798 809
1290.0 847 902 1016 1166 1394 1700 2051 2406 2673 2790
1330.0 2789 2812 2876 2800 2644 2462 2330 2245 2355 2523
1370.0 2844 3132 3346 3416 3451 3431 3380 3343 3343 3438
1410.0 3696 4004 4447 4680 4633 4347 4071 3390 2364 1565
1450.0 1095 927 912 1085 1338 1778 2067 2260 2011 1681
1490.0 1190 642 316 193 164 154 103 67 94 79
1530.0 117 109 196 237 359 477 733 989 1433 1823
1570.0 2268 2564 2884 3166 3158 2725 2174 1660 1172 785
1610.0 489 342 278 226 213 187 206 185 178 188
1650.0 152 155 164 70 97 95 49 86 52 87
1690.0 48 71 69 123 110 135 197 258 265 263
1730.0 291 264 246 137 116 93 159 88 135 114
1770.0 130 88 66 78 41 64 45 40 34 64
1810.0 20 44 54 45 71 63 94 68 98 109
1850.0 107 111 133 136 145 163 162 192 193 236
1890.0 285 339 382 413 423 421 388 350 283 255
1930.0 217 184 154 154 143 158 176 161 164 149
1970.0 130 103 83 76 64 58 70 63 71 67
2010.0 85 97 112 113 120 122 111 114 113 109
2050.0 104 121 105 102 92 82 77 66 64 64
2090.0 49 41 39 30 28 29 19 19 10 13
2130.0 10 15 8 13 15 15 9 0 8 14
2170.0 12 10 11 15 8 18 16 20 27 35
2210.0 31 43 50 48 58 61 70 71 83 76
2250.0 79 80 80 74 58 53 63 78 86 107
2290.0 128 160 178 192 229 258 222 209 212 157
2330.0 156 132 97 165 118 215 228 202 152 135
2370.0 89 99 111 150 133 94 88 85 75 70
2410.0 70 65 75 65 61 64 60 60 65 66
2450.0 59 74 71 84 82 84 79 78 82 72
2490.0 84 76 76 82 72 80 76 91 79 68
2530.0 69 64 65 70 71 57 65 72 70 74
2570.0 76 68 66 73 78 82 89 91 98 97
2610.0 107 111 105 101 107 88 95 81 84 84
2650.0 96 87 90 96 91 96 100 108 120 137
2690.0 134 134 140 138 140 142 154 161 176 172
2730.0 189 199 208 205 212 223 221 235 253 265
2770.0 286 305 327 332 361 395 422 442 480 497
2810.0 529 549 587 614 653 723 809 911 993 1101
2850.0 1228 1370 1562 1758 1997 2258 2581 2867 3115 3274
2890.0 3359 3287 3151 2992 2829 2707 2629 2611 2609 2676
2930.0 2667 2653 2637 2606 2543 2448 2318 2180 2064 1914
2970.0 1757 1605 1546 1532 1553 1686 1845 1981 2073 2153
3010.0 2241 2305 2372 2549 2855 3235 3406 3489 3560 3630
3050.0 3641 3565 3423 3211 2972 2700 2241 1836 1758 1751
3090.0 1680 1564 1418 1137 800 507 339 246 223 159
3130.0 160 149 181 179 158 174 181 173 164 108
3170.0 83 107 97 96 93 97 79 71 98 46
3210.0 74 64 47 67 74 72 62 69 71 66
3250.0 56 88 63 31 39 67 75 77 82 54
3290.0 79 80 62 77 72 66 80 92 83 76
3330.0 95 44 86 75 62 83 95 82 103 86
3370.0 75 93 94 105 92 116 108 130 107 103
3410.0 110 129 118 128 130 132 168 135 124 114
3450.0 103 101 112 131 138 118 111 110 108 98
3490.0 93 102 93 84 92 95 99 97 76 70
3530.0 77 56 38 87 86 75 51 42 36 18
3570.0 104 52 54 60 135 103 106 120 126 137
3610.0 225 225 290 367 424 651 802 966 1222 1460
3650.0 1943 2131 2109 2166 2062 1983 1727 1464 1085 900
3690.0 684 636 472 359 298 208 190 191 119 109
3730.0 77 115 76 104 160 18 124 1 11 64
3770.0 58 6 29 73 41 60 89 83 50 79
3810.0 51 65 41 128 82 32 90 99 73 174
3850.0 124 177 168 100 126 95 86 160 129 179
3890.0 164 134 173 150 209 100 120 107 120 99
3930.0 84 77 38 128 96 61 58 72 108 58
##END=
