##TITLE=Benzene, methoxy-
##JCAMP-DX=4.24
##DATA TYPE=INFRARED SPECTRUM
##ORIGIN=Sadtler Research Labs Under US-EPA Contract
##OWNER=NIST Standard Reference Data Program
##CAS REGISTRY NO=100-66-3
##MOLFORM=C 7 H 8 O
##XUNITS=1/CM
##YUNITS=ABSORBANCE
##XFACTOR=1.0
##YFACTOR=0.000156885
##DELTAX=4.0
##FIRSTX=450.0
##LASTX=3966.0
##FIRSTY=0.000000
##MAXX=3966
##MINX=450
##MAXY=1.56885
##MINY=0
##NPOINTS=880
##XYDATA=(X++(Y..Y))
450.0 0 28 54 29 89 91 97 114 168 160
490.0 203 259 286 363 428 403 381 400 396 401
530.0 350 352 359 368 369 325 312 278 246 198
570.0 177 134 133 103 107 63 34 134 68 81
610.0 51 46 63 51 69 40 65 28 58 52
650.0 68 101 123 254 308 608 781 1023 1039 1492
690.0 2229 1653 1252 1067 862 648 431 321 299 388
730.0 595 897 1245 1638 2027 2812 3263 2622 2321 2125
770.0 1959 1858 1646 1413 1172 1069 775 407 234 177
810.0 156 138 134 113 104 82 67 50 42 43
850.0 44 67 73 119 148 200 236 331 379 306
890.0 270 229 185 138 105 72 52 48 41 46
930.0 41 53 50 61 65 80 84 90 101 109
970.0 139 157 181 203 243 276 287 296 330 357
1010.0 371 423 499 650 907 1291 1743 2235 2744 3053
1050.0 3044 2803 2515 2124 1535 1086 844 740 723 634
1090.0 468 348 260 216 166 160 145 130 116 113
1130.0 120 124 160 213 295 345 458 694 1032 1316
1170.0 1451 1678 1758 1646 1348 1125 936 703 606 629
1210.0 739 900 1091 1357 1808 2639 4061 6353 8642 9945
1250.0 10000 9632 9206 5657 2907 1887 1753 1757 1835 1926
1290.0 2171 2354 2239 2012 1846 1683 1217 779 647 658
1330.0 673 665 622 573 452 327 225 181 155 136
1370.0 134 130 137 116 135 121 131 115 119 119
1410.0 112 128 139 185 204 341 494 699 849 958
1450.0 1153 1284 1376 1576 1939 1713 1759 1982 2420 3496
1490.0 4572 6266 5757 6306 5457 4234 2486 1020 497 299
1530.0 231 241 222 262 257 293 350 399 492 554
1570.0 709 856 1133 1585 2009 2971 3855 5401 4780 4565
1610.0 3935 2955 1878 976 583 354 270 204 151 124
1650.0 112 103 90 83 91 95 119 117 151 164
1690.0 164 172 183 176 141 133 114 113 83 73
1730.0 66 68 58 56 66 81 110 122 142 145
1770.0 154 147 120 105 90 91 82 83 75 74
1810.0 74 80 88 103 121 127 139 150 161 153
1850.0 139 123 108 91 69 59 42 40 35 36
1890.0 40 46 55 67 91 114 144 151 150 161
1930.0 186 188 168 153 139 132 104 83 68 62
1970.0 49 42 41 38 40 44 51 54 64 73
2010.0 90 113 145 181 207 225 225 219 196 162
2050.0 134 127 126 128 132 136 143 144 144 143
2090.0 138 127 113 97 82 68 52 43 34 33
2130.0 28 27 23 22 21 19 20 19 20 19
2170.0 21 21 23 23 23 23 22 25 23 24
2210.0 22 24 27 28 30 30 32 33 36 32
2250.0 37 38 40 45 54 65 73 84 86 86
2290.0 83 80 71 66 65 61 59 55 56 54
2330.0 55 51 54 56 51 51 50 58 60 57
2370.0 60 67 68 71 70 65 60 52 47 41
2410.0 42 40 42 41 42 42 39 39 38 42
2450.0 41 42 46 49 50 50 54 58 67 76
2490.0 83 85 85 80 74 64 58 63 66 74
2530.0 83 93 104 117 127 127 123 114 101 74
2570.0 57 49 48 48 50 55 55 57 58 60
2610.0 59 61 60 59 60 59 60 58 56 53
2650.0 51 48 46 42 37 32 30 30 29 31
2690.0 33 35 34 36 38 39 42 41 42 42
2730.0 47 49 55 55 59 60 62 63 64 66
2770.0 70 76 81 86 91 95 99 107 115 127
2810.0 143 166 202 258 353 518 806 1106 1228 1230
2850.0 1282 1218 912 616 451 372 348 349 370 406
2890.0 458 529 623 750 901 1047 1165 1257 1286 1272
2930.0 1250 1260 1389 1553 1689 1757 1774 1939 1900 1430
2970.0 1158 970 808 704 648 698 848 1168 1476 1571
3010.0 1554 1535 1426 1158 934 912 990 1080 1184 1272
3050.0 1306 1308 1291 1279 1296 1338 1385 1412 1372 1289
3090.0 1204 1087 917 810 770 708 595 471 373 275
3130.0 194 133 104 84 69 66 63 59 55 56
3170.0 52 47 46 45 44 41 43 43 43 43
3210.0 41 38 38 34 32 32 32 31 31 37
3250.0 33 33 33 32 31 31 33 32 32 29
3290.0 31 27 29 32 31 29 30 30 25 32
3330.0 32 30 32 33 29 32 31 28 28 28
3370.0 29 27 28 25 24 24 23 23 27 29
3410.0 25 30 27 25 30 27 28 28 27 30
3450.0 33 28 34 31 31 31 30 32 31 33
3490.0 32 25 27 25 25 30 32 28 34 27
3530.0 29 31 31 29 30 30 31 30 25 29
3570.0 27 31 27 30 22 29 31 28 32 24
3610.0 32 25 33 32 36 38 35 34 30 37
3650.0 36 38 36 36 35 34 34 37 33 30
3690.0 34 32 34 34 32 37 37 33 23 29
3730.0 31 40 28 33 30 29 32 23 30 27
3770.0 27 25 30 34 24 33 32 33 38 36
3810.0 33 29 31 39 37 38 34 37 38 33
3850.0 40 37 45 36 42 38 42 34 34 43
3890.0 37 41 37 40 46 33 23 30 32 29
3930.0 25 29 30 31 30 25 34 29 39 40
##END=
