##TITLE=Benzenemethanethiol
##JCAMP-DX=4.24
##DATA TYPE=INFRARED SPECTRUM
##ORIGIN=Sadtler Research Labs Under US-EPA Contract
##OWNER=NIST Standard Reference Data Program
##CAS REGISTRY NO=100-53-8
##MOLFORM=C 7 H 8 S
##XUNITS=1/CM
##YUNITS=ABSORBANCE
##XFACTOR=1.0
##YFACTOR=0.000067160
##DELTAX=4.0
##FIRSTX=450.0
##LASTX=3966.0
##FIRSTY=0.017126
##MAXX=3966
##MINX=450
##MAXY=0.6716
##MINY=0
##NPOINTS=880
##XYDATA=(X++(Y..Y))
450.0 255 389 686 972 1471 941 579 852 587 202
490.0 327 236 243 122 109 70 93 5 108 179
530.0 259 532 685 776 804 903 1244 1268 909 832
570.0 649 419 451 427 298 268 178 285 223 234
610.0 226 176 229 86 155 171 142 253 279 323
650.0 462 549 690 938 1305 2122 2931 4038 5350 6716
690.0 8153 10000 9945 8687 7114 5935 4479 3395 2481 2138
730.0 2026 1787 1907 2115 2455 2292 2434 2548 2248 1996
770.0 1627 1278 1003 741 642 512 454 452 418 412
810.0 394 348 343 269 200 152 137 123 87 105
850.0 108 111 125 119 181 177 159 212 179 185
890.0 186 198 247 263 272 267 223 210 169 151
930.0 144 163 177 164 184 203 203 221 232 288
970.0 325 355 381 397 371 355 332 316 319 343
1010.0 387 419 504 734 950 912 764 692 449 262
1050.0 302 392 572 750 899 975 933 898 785 618
1090.0 504 394 348 283 260 191 131 120 91 77
1130.0 80 80 100 96 126 137 148 202 232 275
1170.0 305 306 321 338 341 384 417 445 473 450
1210.0 391 363 357 401 520 696 872 1122 1438 1751
1250.0 2010 2035 1892 1572 1105 708 455 366 323 310
1290.0 296 261 243 223 221 253 248 269 277 283
1330.0 283 235 233 222 190 158 120 115 119 108
1370.0 121 120 120 120 102 108 80 90 88 77
1410.0 128 141 244 325 450 647 847 1137 1408 1620
1450.0 1787 1662 1557 1482 1178 829 641 514 614 1116
1490.0 1997 2584 2630 2517 2050 945 394 224 202 197
1530.0 175 168 197 152 149 117 120 139 116 112
1570.0 122 142 203 266 375 548 791 976 1176 1165
1610.0 1001 866 592 382 250 148 123 94 83 104
1650.0 133 151 132 119 118 87 77 52 62 55
1690.0 30 25 49 44 25 24 49 86 92 100
1730.0 150 177 170 152 159 155 118 104 97 88
1770.0 116 126 132 173 264 357 428 425 414 334
1810.0 229 157 121 103 83 72 52 56 68 86
1850.0 102 164 198 231 252 284 311 319 288 258
1890.0 213 155 98 77 71 79 93 119 160 212
1930.0 271 344 374 397 440 491 475 414 340 264
1970.0 154 72 48 51 41 42 38 31 25 19
2010.0 18 13 12 11 6 9 6 3 4 1
2050.0 1 2 16 18 24 20 18 14 14 16
2090.0 12 18 19 22 19 19 20 19 18 20
2130.0 18 23 19 22 17 10 9 10 4 5
2170.0 10 14 13 20 17 17 18 20 26 26
2210.0 26 36 41 42 37 43 44 50 53 59
2250.0 62 60 64 63 56 52 47 42 49 51
2290.0 48 54 63 75 88 101 109 124 124 108
2330.0 104 80 70 47 81 88 118 95 83 55
2370.0 14 27 18 25 27 28 34 36 37 35
2410.0 35 37 30 25 27 29 36 26 33 28
2450.0 18 18 8 10 4 11 13 9 16 7
2490.0 9 6 10 17 14 27 24 31 35 28
2530.0 30 30 35 39 46 49 63 65 73 84
2570.0 102 135 209 303 358 393 389 326 250 186
2610.0 142 124 107 97 93 91 89 78 71 68
2650.0 54 47 48 52 59 64 78 84 94 112
2690.0 112 115 111 92 85 79 64 60 61 59
2730.0 59 62 59 63 63 52 51 41 38 39
2770.0 43 43 65 71 78 77 80 80 85 85
2810.0 92 111 113 125 133 142 168 198 237 285
2850.0 331 386 414 431 437 418 395 368 341 330
2890.0 316 322 357 397 441 510 611 724 875 1033
2930.0 1247 1487 1664 1787 1827 1784 1672 1536 1420 1339
2970.0 1270 1178 1095 977 845 699 596 553 588 706
3010.0 889 1155 1548 2092 2863 3837 4593 4895 4884 4497
3050.0 3564 2772 2552 2879 3622 4434 4791 4834 4543 3781
3090.0 2935 2465 2231 1984 1658 1331 1077 826 609 406
3130.0 247 154 102 82 81 73 90 89 85 108
3170.0 113 108 100 97 80 68 58 53 41 34
3210.0 27 27 29 25 30 29 25 27 18 12
3250.0 8 17 17 26 19 25 23 17 19 16
3290.0 21 35 55 52 60 56 41 53 44 42
3330.0 41 49 53 49 52 40 41 46 41 35
3370.0 40 49 40 42 28 16 14 0 7 11
3410.0 23 23 14 4 23 24 16 22 27 26
3450.0 30 35 38 44 28 34 38 35 60 56
3490.0 81 60 50 55 38 33 30 41 42 41
3530.0 30 41 35 36 28 30 37 56 57 42
3570.0 42 38 14 17 3 21 23 30 35 29
3610.0 38 41 66 34 67 72 60 85 83 75
3650.0 79 55 95 55 90 70 80 75 58 50
3690.0 34 38 23 26 14 32 34 38 23 37
3730.0 47 9 10 11 32 28 30 16 11 22
3770.0 12 14 23 41 40 42 61 89 69 89
3810.0 94 79 90 63 86 77 78 82 72 75
3850.0 70 70 57 83 88 107 62 60 46 25
3890.0 2 6 0 43 14 93 49 41 75 56
3930.0 62 92 124 128 126 123 130 110 73 116
##END=
