##TITLE=Acetophenone, 4'-nitro-
##JCAMP-DX=4.24
##DATA TYPE=INFRARED SPECTRUM
##ORIGIN=Sadtler Research Labs Under US-EPA Contract
##OWNER=NIST Standard Reference Data Program
##CAS REGISTRY NO=100-19-6
##MOLFORM=C 8 H 7 N O 3
##XUNITS=1/CM
##YUNITS=ABSORBANCE
##XFACTOR=1.0
##YFACTOR=0.000079175
##DELTAX=4.0
##FIRSTX=450.0
##LASTX=3966.0
##FIRSTY=0.000000
##MAXX=3966
##MINX=450
##MAXY=0.79175
##MINY=0
##NPOINTS=880
##XYDATA=(X++(Y..Y))
450.0 0 127 285 425 392 257 344 282 251 158
490.0 174 171 230 305 474 517 367 221 66 83
530.0 79 125 93 81 59 30 27 71 131 130
570.0 275 373 426 453 535 512 547 660 920 1264
610.0 1313 1240 798 441 262 191 127 113 114 67
650.0 85 89 109 97 132 391 516 603 781 903
690.0 1019 971 876 728 575 416 312 232 227 303
730.0 600 1377 2153 2461 2462 2060 1308 934 744 475
770.0 306 235 184 171 139 191 143 188 268 278
810.0 323 353 424 463 528 614 751 1079 1730 2979
850.0 4609 5433 5392 3884 2199 1283 740 446 279 212
890.0 183 171 178 178 190 160 161 149 160 149
930.0 169 208 290 482 805 1227 1443 1455 1187 779
970.0 502 376 299 244 235 227 232 260 356 640
1010.0 1177 1340 1282 963 404 254 213 194 178 180
1050.0 187 203 264 329 454 526 560 505 416 352
1090.0 333 344 360 416 428 444 427 359 262 213
1130.0 155 125 121 109 113 112 127 126 143 146
1170.0 166 167 178 192 190 215 245 318 383 482
1210.0 612 845 1261 1918 2758 3549 4196 4769 5306 6066
1250.0 7244 8513 8977 8247 6161 3757 2293 1679 1380 1364
1290.0 1490 1574 1564 1471 1267 1138 1148 1168 1240 1402
1330.0 1954 2997 4809 7212 9200 10000 9218 7423 5829 4777
1370.0 3860 3030 2442 2126 1944 1818 1665 1536 1478 1398
1410.0 1317 1202 1028 821 747 715 662 635 558 517
1450.0 419 393 360 376 369 386 439 472 575 647
1490.0 790 895 1043 1158 1272 1429 1576 1842 2364 3267
1530.0 4623 6276 8397 9447 9878 9454 7541 5567 3440 2497
1570.0 1787 1670 1622 1735 1896 2168 2435 2832 2921 2944
1610.0 2607 2241 1627 1111 769 555 448 409 391 374
1650.0 388 382 436 456 578 618 757 841 876 1025
1690.0 1271 1868 2651 4585 6969 8802 9220 8395 5354 3229
1730.0 1694 1135 706 701 541 579 513 425 341 262
1770.0 248 150 199 166 200 163 199 204 190 206
1810.0 169 161 100 126 88 100 97 107 91 80
1850.0 107 89 108 91 107 80 89 79 68 62
1890.0 49 73 64 96 97 120 118 140 135 122
1930.0 132 114 120 97 111 99 95 93 95 92
1970.0 83 91 69 69 46 56 36 44 44 41
2010.0 38 38 50 34 50 38 44 28 32 35
2050.0 25 32 25 34 19 32 27 28 22 28
2090.0 28 21 28 21 31 22 37 33 37 40
2130.0 38 38 32 40 32 37 31 33 31 37
2170.0 37 38 40 34 39 31 39 35 39 40
2210.0 46 51 42 50 41 43 33 36 23 25
2250.0 27 23 26 23 33 34 46 49 56 53
2290.0 55 52 40 46 30 32 34 43 45 55
2330.0 57 70 64 67 71 24 71 63 133 98
2370.0 93 81 74 70 61 75 67 69 60 60
2410.0 52 48 48 47 55 53 60 58 65 66
2450.0 75 73 73 72 61 66 57 57 49 57
2490.0 53 48 51 44 45 40 42 34 36 29
2530.0 32 28 32 35 28 31 30 34 31 41
2570.0 43 48 51 50 53 51 60 62 70 68
2610.0 77 74 72 67 62 60 47 59 54 61
2650.0 65 73 79 80 88 92 99 97 107 103
2690.0 112 114 114 109 108 110 100 95 85 82
2730.0 65 67 61 60 57 48 51 47 63 61
2770.0 65 73 76 73 70 75 67 72 69 71
2810.0 69 79 83 92 100 108 123 126 143 152
2850.0 167 176 192 199 215 233 248 263 266 273
2890.0 253 239 220 206 189 183 189 188 206 223
2930.0 240 248 262 261 252 243 233 233 232 254
2970.0 263 275 276 255 233 218 207 207 228 262
3010.0 331 399 437 415 360 281 221 199 189 188
3050.0 192 210 224 267 327 395 448 460 433 365
3090.0 308 261 236 199 200 191 180 174 147 132
3130.0 122 126 118 114 110 108 108 98 104 96
3170.0 106 95 102 97 99 96 95 93 99 103
3210.0 92 99 92 100 93 95 102 97 101 101
3250.0 99 96 107 96 99 97 99 95 99 104
3290.0 100 107 95 108 108 104 112 110 103 108
3330.0 111 97 111 108 108 109 116 116 112 120
3370.0 119 123 116 130 140 169 190 223 255 254
3410.0 251 209 167 125 116 109 97 92 86 87
3450.0 71 90 93 86 73 81 81 80 79 62
3490.0 66 63 76 54 62 71 62 70 76 49
3530.0 50 72 59 70 46 59 67 61 56 34
3570.0 42 63 62 58 47 41 45 30 48 48
3610.0 24 25 22 39 43 44 33 32 33 35
3650.0 29 19 29 33 43 31 38 27 23 22
3690.0 36 36 35 28 19 30 22 28 22 37
3730.0 57 49 35 29 69 34 31 19 19 19
3770.0 19 19 19 19 19 19 19 19 19 19
3810.0 19 19 31 19 29 19 19 22 26 19
3850.0 40 106 33 19 19 20 19 25 19 30
3890.0 19 24 24 23 19 25 18 20 24 19
3930.0 37 19 19 19 32 33 36 26 31 46
##END=
