##TITLE=3-Cyclohexene-1-carboxaldehyde
##JCAMP-DX=4.24
##DATA TYPE=INFRARED SPECTRUM
##ORIGIN=Sadtler Research Labs Under US-EPA Contract
##OWNER=NIST Standard Reference Data Program
##CAS REGISTRY NO=100-50-5
##MOLFORM=C 7 H 10 O
##XUNITS=1/CM
##YUNITS=ABSORBANCE
##XFACTOR=1.0
##YFACTOR=0.000051855
##DELTAX=4.0
##FIRSTX=450.0
##LASTX=3966.0
##FIRSTY=0.000000
##MAXX=3966
##MINX=450
##MAXY=0.51855
##MINY=0
##NPOINTS=880
##XYDATA=(X++(Y..Y))
450.0 0 867 729 737 980 873 955 887 897 1070
490.0 944 955 934 1166 694 1233 969 945 809 936
530.0 1246 870 766 878 968 1045 972 1127 976 1086
570.0 1257 1016 898 840 998 911 950 969 826 972
610.0 1013 987 1042 1171 1345 1343 1646 1873 1953 2184
650.0 2381 2630 2482 2327 2350 2098 1871 1745 1422 1398
690.0 1169 984 984 997 915 848 789 848 915 965
730.0 1111 1098 1148 1113 1118 994 1069 948 785 883
770.0 846 906 934 896 887 851 878 837 853 829
810.0 715 809 789 764 752 838 779 831 815 861
850.0 924 855 992 843 933 1059 916 844 894 911
890.0 920 829 994 989 1097 1139 1216 1362 1403 1486
930.0 1715 1615 1616 1420 1416 1258 1166 1207 1217 1168
970.0 1185 1188 1147 1099 1075 1040 1017 996 939 897
1010.0 803 890 861 965 950 1001 1098 1200 1149 1177
1050.0 1203 1138 1103 1061 1079 1059 1108 1121 1208 1209
1090.0 1267 1273 1345 1298 1287 1199 1138 1115 1128 1108
1130.0 1093 1077 1173 1165 1109 1053 1075 1018 984 1021
1170.0 1001 1058 1045 1063 1115 1076 1052 1013 1003 1037
1210.0 996 970 979 937 909 834 875 887 887 920
1250.0 961 969 958 985 1015 981 1002 1042 1025 965
1290.0 972 894 971 971 921 948 983 982 990 983
1330.0 1001 1001 1001 981 1029 1039 1065 1033 1017 1030
1370.0 1012 1025 1052 1002 1092 1052 1054 1016 961 967
1410.0 878 953 853 1044 1047 1231 1487 1681 1834 1838
1450.0 1862 1851 1605 1424 1187 1044 882 813 795 740
1490.0 737 803 738 795 763 833 699 794 758 802
1530.0 724 803 793 807 779 754 838 795 946 780
1570.0 816 869 807 856 775 777 873 740 867 824
1610.0 847 907 907 968 881 1035 951 1056 1120 1136
1650.0 1340 1328 1387 1200 1267 1178 1127 1190 1213 1371
1690.0 1401 1471 1517 1643 1599 1711 1859 2210 2869 3931
1730.0 5963 7822 9448 10000 9687 9416 6950 4508 3098 2364
1770.0 2036 1807 1676 1554 1436 1404 1246 1234 1089 1073
1810.0 1013 940 946 891 903 890 858 886 832 890
1850.0 834 856 859 814 843 801 836 798 818 804
1890.0 812 805 802 802 799 800 793 822 785 802
1930.0 807 803 797 790 795 796 803 789 802 786
1970.0 800 800 789 797 784 773 794 781 790 777
2010.0 786 780 768 785 775 779 779 759 762 761
2050.0 768 759 762 765 759 772 765 767 769 773
2090.0 771 771 778 785 782 778 786 776 769 772
2130.0 773 769 776 773 767 771 765 765 773 761
2170.0 763 763 761 765 759 761 758 761 758 761
2210.0 759 756 752 751 746 747 752 740 746 741
2250.0 744 753 752 747 747 750 741 741 740 722
2290.0 725 717 711 721 716 711 713 706 724 718
2330.0 719 719 719 730 697 724 700 712 708 732
2370.0 720 728 728 727 734 750 758 760 762 774
2410.0 774 765 754 746 733 729 716 700 702 692
2450.0 692 693 700 702 706 698 701 701 718 718
2490.0 724 725 724 733 730 726 727 730 731 735
2530.0 723 740 734 727 738 734 733 729 733 733
2570.0 741 759 760 761 769 771 791 790 791 793
2610.0 798 811 827 849 868 897 934 972 1030 1073
2650.0 1115 1185 1241 1309 1377 1446 1561 1714 1928 2214
2690.0 2552 2968 3337 3394 3374 3293 3027 2638 2320 2063
2730.0 1874 1766 1682 1620 1572 1530 1506 1503 1486 1472
2770.0 1474 1488 1516 1593 1697 1845 2037 2238 2330 2340
2810.0 2270 2167 2002 1802 1730 1745 1891 2174 2565 2974
2850.0 3269 3434 3526 3483 3351 3156 2998 2889 2870 2910
2890.0 3000 3147 3218 3360 3675 4029 4306 4941 5566 5971
2930.0 6405 6690 6485 5641 4821 4062 3424 2804 2310 2013
2970.0 1823 1683 1531 1381 1327 1257 1173 1108 1041 1058
3010.0 1038 1089 1287 1560 2252 3159 3650 3991 3584 3556
3050.0 2870 1893 1306 1162 1084 1061 1057 1021 1015 969
3090.0 924 921 880 895 877 857 865 874 877 866
3130.0 864 868 846 850 844 829 838 833 825 827
3170.0 813 814 827 822 818 811 826 814 804 813
3210.0 814 825 813 813 825 815 822 827 812 826
3250.0 809 826 823 818 821 822 834 827 840 835
3290.0 853 846 839 835 837 830 832 810 813 811
3330.0 801 802 812 791 796 786 792 790 790 800
3370.0 785 791 787 771 800 784 797 799 800 806
3410.0 782 795 791 784 797 788 818 824 816 853
3450.0 859 900 907 907 943 923 904 864 830 808
3490.0 779 785 762 769 777 754 773 761 759 738
3530.0 761 747 759 760 761 752 783 729 789 763
3570.0 814 779 810 759 797 782 800 735 759 750
3610.0 786 774 757 788 745 855 771 748 716 809
3650.0 778 864 711 796 735 771 854 780 794 730
3690.0 821 751 719 767 750 775 796 725 773 722
3730.0 790 819 752 863 817 920 763 813 721 771
3770.0 759 780 733 770 753 746 755 830 760 844
3810.0 739 837 754 864 776 786 816 857 804 782
3850.0 773 915 872 763 830 878 787 809 803 808
3890.0 811 809 817 803 878 829 786 848 787 783
3930.0 825 867 845 783 866 789 833 831 852 808
##END=
