##TITLE=Cyclohexene, 4-ethenyl-
##JCAMP-DX=4.24
##DATA TYPE=INFRARED SPECTRUM
##ORIGIN=Sadtler Research Labs Under US-EPA Contract
##OWNER=NIST Standard Reference Data Program
##CAS REGISTRY NO=100-40-3
##MOLFORM=C 8 H 12
##XUNITS=1/CM
##YUNITS=ABSORBANCE
##XFACTOR=1.0
##YFACTOR=0.000101236
##DELTAX=4.0
##FIRSTX=450.0
##LASTX=3966.0
##FIRSTY=0.000000
##MAXX=3966
##MINX=450
##MAXY=1.01236
##MINY=0
##NPOINTS=880
##XYDATA=(X++(Y..Y))
450.0 0 147 123 166 237 132 278 191 265 196
490.0 237 235 201 226 205 267 193 220 206 220
530.0 200 201 230 188 211 201 230 174 206 205
570.0 183 220 183 215 185 236 259 245 228 246
610.0 270 282 336 385 502 648 915 1217 1565 1934
650.0 2442 2667 2497 2543 2521 1956 1620 1344 1105 922
690.0 731 665 552 518 478 529 558 617 700 802
730.0 817 700 611 507 445 371 350 298 272 257
770.0 244 232 196 209 220 202 217 236 227 245
810.0 240 234 227 218 225 227 254 280 311 341
850.0 375 413 456 500 515 525 558 584 612 685
890.0 851 1141 1567 2173 2836 3481 3433 3604 3416 2693
930.0 2033 1487 1124 877 757 719 693 662 636 643
970.0 675 767 911 1126 1318 1386 1358 1437 1273 1056
1010.0 889 744 681 641 636 636 664 660 636 607
1050.0 565 498 414 363 324 303 289 277 270 255
1090.0 248 236 236 238 258 271 297 333 369 404
1130.0 447 491 513 594 520 446 397 335 296 277
1170.0 280 290 316 338 341 329 314 291 264 244
1210.0 234 235 231 238 242 254 272 308 353 392
1250.0 394 392 389 362 330 309 304 307 320 327
1290.0 334 337 345 362 348 360 359 372 385 402
1330.0 415 413 432 425 420 390 369 335 310 281
1370.0 268 257 268 279 295 290 307 318 345 379
1410.0 457 569 666 758 897 1021 1190 1246 1308 1325
1450.0 1234 1120 896 724 556 435 325 255 217 185
1490.0 182 161 168 148 160 138 157 138 159 156
1530.0 159 161 166 181 162 199 189 221 205 227
1570.0 235 223 245 221 238 224 263 239 303 331
1610.0 372 416 501 616 756 1057 1344 1582 1768 1822
1650.0 1780 1485 1082 866 630 488 302 319 277 280
1690.0 270 289 276 259 274 239 237 214 206 176
1730.0 174 174 160 167 148 162 147 145 144 146
1770.0 146 145 149 140 151 136 156 136 158 159
1810.0 178 204 267 348 409 458 451 443 381 307
1850.0 224 196 179 176 175 178 179 172 178 161
1890.0 158 144 148 147 147 151 147 154 143 147
1930.0 141 138 136 134 130 128 134 131 136 135
1970.0 147 147 152 156 150 147 141 136 130 130
2010.0 123 122 118 115 116 114 118 115 117 114
2050.0 118 115 116 116 119 119 119 122 124 129
2090.0 130 137 138 138 137 135 131 125 120 115
2130.0 116 114 114 113 113 112 108 112 106 110
2170.0 104 106 104 107 107 110 113 113 120 122
2210.0 123 121 126 124 124 125 127 128 128 131
2250.0 125 126 122 119 115 116 114 111 112 110
2290.0 111 107 110 108 107 103 107 107 105 103
2330.0 102 102 102 103 102 114 102 110 102 102
2370.0 102 105 109 117 121 125 124 122 118 118
2410.0 116 116 115 118 118 116 114 114 111 106
2450.0 108 104 104 106 111 112 115 121 119 120
2490.0 122 123 117 116 114 115 112 113 116 117
2530.0 117 119 120 119 123 121 121 122 121 121
2570.0 126 129 131 132 132 137 137 136 136 139
2610.0 144 149 155 153 156 153 152 156 162 170
2650.0 181 199 211 224 225 228 222 213 196 186
2690.0 176 171 170 168 171 171 172 173 177 179
2730.0 179 178 179 178 172 176 179 190 206 230
2770.0 244 255 259 261 250 240 239 241 251 262
2810.0 284 310 356 457 632 935 1421 2113 2848 3442
2850.0 3772 3948 3924 3647 3267 2930 2760 2753 2900 3218
2890.0 3693 4060 4386 4846 5331 6087 7060 8153 8735 9353
2930.0 10000 9163 7968 6558 5295 4394 3367 2370 1809 1584
2970.0 1602 1665 1766 1932 2009 1888 1827 1814 1777 1753
3010.0 1673 1754 2011 2950 4450 5319 5250 5160 4787 3692
3050.0 1789 1070 870 915 989 1136 1383 1697 1999 2146
3090.0 2098 1810 1560 1141 685 417 306 267 223 214
3130.0 192 184 167 164 153 141 138 131 130 117
3170.0 120 110 115 109 111 111 105 110 109 110
3210.0 106 111 108 108 114 110 115 117 122 116
3250.0 121 117 122 123 128 137 139 141 151 158
3290.0 163 172 165 166 167 158 139 135 126 127
3330.0 121 115 121 111 116 120 111 115 111 117
3370.0 113 113 108 110 110 115 112 114 113 114
3410.0 125 117 118 115 121 117 113 113 109 107
3450.0 102 103 103 111 107 108 110 113 111 110
3490.0 113 105 107 106 113 110 111 112 111 114
3530.0 115 116 119 123 123 125 130 125 125 126
3570.0 116 122 116 120 120 117 124 106 127 117
3610.0 128 113 122 123 112 143 109 130 114 126
3650.0 145 104 143 108 133 121 130 129 119 145
3690.0 118 137 123 131 130 124 133 136 125 139
3730.0 136 138 128 162 97 145 127 113 128 121
3770.0 132 121 125 118 118 118 134 109 136 107
3810.0 133 118 121 132 110 117 127 117 122 132
3850.0 117 144 110 112 127 119 115 113 132 104
3890.0 156 110 141 124 142 126 132 121 114 134
3930.0 124 129 127 130 121 131 120 135 120 124
##END=
