##TITLE=Cyclohexanamine, N-methyl-
##JCAMP-DX=4.24
##DATA TYPE=INFRARED SPECTRUM
##ORIGIN=Sadtler Research Labs Under US-EPA Contract
##OWNER=NIST Standard Reference Data Program
##CAS REGISTRY NO=100-60-7
##MOLFORM=C 7 H 15 N
##XUNITS=1/CM
##YUNITS=ABSORBANCE
##XFACTOR=1.0
##YFACTOR=0.000159137
##DELTAX=4.0
##FIRSTX=450.0
##LASTX=3966.0
##FIRSTY=0.050446
##MAXX=3966
##MINX=450
##MAXY=1.59137
##MINY=0
##NPOINTS=880
##XYDATA=(X++(Y..Y))
450.0 317 242 293 139 265 222 185 277 174 130
490.0 173 28 166 84 56 135 97 165 130 160
530.0 197 207 238 242 199 263 190 201 224 195
570.0 184 193 208 210 118 107 155 179 140 179
610.0 223 174 221 235 272 239 221 233 211 244
650.0 220 248 249 284 336 411 405 469 481 516
690.0 544 510 560 541 567 543 528 559 518 552
730.0 559 446 395 346 314 185 198 213 148 169
770.0 173 143 185 176 178 144 158 177 122 124
810.0 91 116 139 85 76 111 117 114 120 158
850.0 81 66 62 31 50 106 149 246 277 349
890.0 347 305 297 221 173 129 165 199 171 217
930.0 244 269 242 280 216 122 107 71 51 31
970.0 30 40 53 76 50 56 62 60 70 35
1010.0 53 61 90 95 134 159 154 133 146 158
1050.0 154 160 158 193 217 227 259 278 278 312
1090.0 387 451 502 522 503 479 447 408 399 429
1130.0 462 519 601 652 718 743 737 704 623 533
1170.0 433 333 261 228 197 179 161 155 156 162
1210.0 162 169 170 172 183 187 200 217 215 233
1250.0 248 275 262 242 238 230 182 142 120 120
1290.0 108 115 139 144 178 198 211 239 239 246
1330.0 254 246 273 324 361 384 441 478 513 528
1370.0 533 495 455 333 260 176 163 157 157 179
1410.0 183 210 220 249 257 325 427 575 781 970
1450.0 1103 1303 1284 1167 1009 924 848 731 627 520
1490.0 433 283 168 100 80 70 42 34 26 28
1530.0 22 36 18 27 37 45 53 36 44 41
1570.0 47 46 41 41 35 30 32 24 35 26
1610.0 33 24 16 34 21 29 14 26 29 31
1650.0 43 40 69 59 81 85 77 93 107 139
1690.0 228 349 570 784 864 836 685 407 224 156
1730.0 117 97 84 65 57 59 45 48 40 35
1770.0 39 31 33 35 35 32 27 34 26 34
1810.0 24 24 31 24 31 24 22 23 19 28
1850.0 21 22 22 11 23 12 18 13 15 15
1890.0 15 16 15 15 12 13 8 13 10 10
1930.0 6 10 9 6 8 1 3 4 1 4
1970.0 2 1 0 0 2 0 5 0 0 3
2010.0 1 2 2 2 2 4 5 4 6 5
2050.0 5 5 4 6 5 5 7 7 10 12
2090.0 8 9 10 9 11 8 10 10 10 10
2130.0 12 15 16 15 17 17 17 17 14 13
2170.0 13 14 18 19 21 19 20 18 15 16
2210.0 14 12 17 16 17 21 24 26 24 24
2250.0 24 25 23 24 25 25 24 28 28 33
2290.0 35 38 41 40 44 49 44 45 39 37
2330.0 33 34 36 41 47 49 54 49 42 52
2370.0 49 53 58 60 60 53 53 56 58 63
2410.0 67 66 69 66 58 55 53 49 46 44
2450.0 41 40 42 38 40 43 43 43 45 45
2490.0 43 44 39 38 38 39 40 41 42 45
2530.0 47 51 54 56 60 61 67 71 75 81
2570.0 85 88 96 105 112 123 134 144 153 157
2610.0 159 160 161 162 164 172 184 198 212 228
2650.0 243 258 276 292 297 293 286 271 255 242
2690.0 230 227 226 226 225 224 227 233 238 241
2730.0 249 254 258 273 291 316 351 394 451 521
2770.0 612 724 866 1019 1187 1371 1536 1607 1572 1471
2810.0 1339 1179 1008 880 807 789 840 973 1230 1638
2850.0 2221 2934 3565 3921 3912 3594 3046 2457 1985 1705
2890.0 1618 1657 1826 2093 2466 2958 3543 4277 5266 6516
2930.0 8091 9736 10000 9446 8435 7112 5381 3708 2585 1913
2970.0 1545 1305 1069 872 715 565 421 310 242 200
3010.0 171 152 139 127 119 111 103 98 88 85
3050.0 80 77 73 72 69 65 58 54 49 49
3090.0 47 44 41 43 38 36 31 30 32 29
3130.0 28 32 35 33 37 41 45 40 44 41
3170.0 38 35 33 32 29 32 28 27 25 28
3210.0 27 27 24 28 34 29 28 29 28 27
3250.0 23 29 26 27 29 28 29 27 30 29
3290.0 29 28 28 25 27 20 25 23 26 25
3330.0 28 29 23 27 28 31 32 34 32 31
3370.0 29 28 25 23 19 27 27 24 26 24
3410.0 19 21 18 17 17 21 21 24 26 27
3450.0 23 29 30 27 31 33 34 35 33 28
3490.0 32 33 28 23 32 26 33 25 29 32
3530.0 29 31 34 29 37 38 45 26 38 34
3570.0 52 33 37 35 42 39 41 22 42 38
3610.0 40 36 38 42 38 68 75 111 169 204
3650.0 208 217 185 153 92 38 32 23 27 15
3690.0 15 19 19 32 17 29 28 24 26 26
3730.0 25 24 21 35 28 35 20 29 18 22
3770.0 23 22 36 22 24 23 24 30 26 32
3810.0 32 24 19 36 15 19 31 32 28 31
3850.0 24 37 33 17 34 35 21 35 51 38
3890.0 30 30 43 62 41 27 38 61 30 31
3930.0 42 25 37 49 57 63 46 31 53 74
##END=
