##TITLE=Benzene, 1-chloro-4-nitro-
##JCAMP-DX=4.24
##DATA TYPE=INFRARED SPECTRUM
##ORIGIN=Sadtler Research Labs Under US-EPA Contract
##OWNER=NIST Standard Reference Data Program
##CAS REGISTRY NO=100-00-5
##MOLFORM=C 6 H 4 Cl N O 2
##XUNITS=1/CM
##YUNITS=ABSORBANCE
##XFACTOR=1.0
##YFACTOR=0.000126587
##DELTAX=4.0
##FIRSTX=450.0
##LASTX=3966.0
##FIRSTY=0.025064
##MAXX=3966
##MINX=450
##MAXY=1.26587
##MINY=0
##NPOINTS=880
##XYDATA=(X++(Y..Y))
450.0 198 306 312 155 277 272 266 306 362 330
490.0 297 291 191 221 293 461 598 1165 1496 1758
530.0 1886 1588 1273 1000 594 359 230 150 86 47
570.0 83 100 107 154 132 123 101 138 141 92
610.0 124 54 68 82 41 63 31 7 53 62
650.0 110 100 147 227 270 427 468 419 332 307
690.0 224 121 91 33 9 38 62 182 361 657
730.0 1021 1257 1758 1955 1530 1211 1049 631 372 227
770.0 113 55 32 12 46 61 51 79 84 159
810.0 178 289 431 678 1052 1400 1902 2427 3189 5287
850.0 7559 6886 6552 4173 1478 619 344 198 176 107
890.0 112 109 97 108 100 91 87 70 70 78
930.0 123 147 160 163 131 110 88 73 63 37
970.0 38 22 28 31 22 31 32 79 188 598
1010.0 1319 1625 1532 1220 445 24 77 91 148 176
1050.0 180 224 257 303 337 376 432 530 853 1602
1090.0 3022 4318 4997 5346 3979 2763 2082 1206 578 306
1130.0 163 109 60 37 31 23 52 58 159 389
1170.0 490 524 472 298 148 144 158 142 159 157
1210.0 176 203 246 307 310 306 268 198 186 197
1250.0 238 312 368 450 513 568 610 572 539 475
1290.0 412 386 365 406 421 460 608 866 1442 2453
1330.0 3938 5760 7310 8406 9198 9420 9334 8327 6635 4380
1370.0 2725 1963 1699 1597 1391 1045 825 690 658 702
1410.0 829 1018 1100 1134 980 701 436 251 220 206
1450.0 206 270 336 564 946 1871 3432 4624 4635 4033
1490.0 2461 1190 873 976 1012 1482 2026 2772 4211 5248
1530.0 6904 8209 8759 10000 9220 8678 7438 5913 4460 3407
1570.0 2913 2914 3280 3765 3674 3484 3319 3436 3900 3581
1610.0 3253 2820 2106 1493 980 710 503 437 395 374
1650.0 402 376 416 378 363 329 258 211 135 112
1690.0 93 59 61 57 33 43 34 45 55 48
1730.0 66 33 53 43 24 38 38 43 61 88
1770.0 126 168 197 190 162 124 66 62 42 49
1810.0 43 33 52 58 67 76 76 82 61 64
1850.0 49 34 38 28 28 29 34 40 56 65
1890.0 82 103 136 169 198 228 232 225 193 161
1930.0 115 70 46 20 11 21 12 17 23 17
1970.0 21 16 10 10 7 5 3 7 8 6
2010.0 11 5 8 11 10 17 14 11 9 8
2050.0 9 4 10 9 6 10 10 12 13 10
2090.0 11 14 13 14 14 16 15 17 21 18
2130.0 16 13 16 13 10 14 12 9 12 9
2170.0 9 6 8 15 14 14 17 21 22 25
2210.0 29 30 31 35 27 24 21 16 19 16
2250.0 17 20 21 28 36 45 50 48 47 41
2290.0 31 21 13 17 8 8 15 0 1 0
2330.0 0 0 0 0 12 0 0 34 1 0
2370.0 1 3 21 39 50 61 67 61 60 55
2410.0 50 42 37 40 37 42 47 52 62 68
2450.0 73 76 73 74 68 60 50 42 39 39
2490.0 42 42 43 41 37 36 36 36 37 39
2530.0 40 42 44 48 53 58 63 60 58 53
2570.0 50 53 59 73 76 76 71 58 48 37
2610.0 32 30 27 27 27 26 27 26 30 35
2650.0 41 46 49 55 59 70 80 84 94 99
2690.0 105 108 101 94 86 79 72 62 57 50
2730.0 46 51 46 50 50 51 59 53 52 56
2770.0 51 48 41 39 34 36 38 36 35 37
2810.0 38 44 50 51 55 63 74 82 94 109
2850.0 122 143 159 175 186 193 200 199 196 192
2890.0 188 178 167 157 152 140 128 116 114 106
2930.0 102 105 99 95 90 80 83 68 64 52
2970.0 42 35 35 33 32 30 34 33 34 37
3010.0 34 41 33 36 37 37 43 47 49 46
3050.0 44 41 40 51 70 84 117 156 217 286
3090.0 316 313 265 191 126 93 71 56 46 34
3130.0 32 32 28 28 27 28 25 25 25 28
3170.0 28 28 26 33 32 32 33 41 44 44
3210.0 43 47 43 33 23 19 19 13 14 15
3250.0 11 8 14 15 20 15 10 19 12 16
3290.0 13 21 12 19 19 15 15 19 22 20
3330.0 17 21 18 16 21 20 25 22 20 30
3370.0 24 23 22 28 28 30 29 34 28 36
3410.0 36 34 38 33 41 31 30 32 32 33
3450.0 28 35 29 21 32 32 34 32 27 29
3490.0 24 23 31 22 25 24 27 29 27 13
3530.0 15 18 24 19 16 14 22 13 20 1
3570.0 13 13 27 22 9 6 17 19 22 6
3610.0 18 11 22 31 5 15 10 22 24 31
3650.0 3 35 6 39 27 13 24 10 35 14
3690.0 45 26 7 50 38 30 36 33 47 57
3730.0 49 61 44 54 23 57 12 45 28 48
3770.0 51 40 44 36 46 44 45 57 22 54
3810.0 37 55 50 44 49 54 82 72 59 59
3850.0 30 61 45 49 58 51 25 39 53 52
3890.0 38 31 42 43 30 32 38 87 31 49
3930.0 50 35 36 43 35 34 28 61 36 56
##END=
