##TITLE=1,3-Dioxolane-4-methanol, 2,2-dimethyl-
##JCAMP-DX=4.24
##DATA TYPE=INFRARED SPECTRUM
##ORIGIN=Sadtler Research Labs Under US-EPA Contract
##OWNER=NIST Standard Reference Data Program
##CAS REGISTRY NO=100-79-8
##MOLFORM=C 6 H 12 O 3
##XUNITS=1/CM
##YUNITS=ABSORBANCE
##XFACTOR=1.0
##YFACTOR=0.000096011
##DELTAX=4.0
##FIRSTX=450.0
##LASTX=3966.0
##FIRSTY=0.008257
##MAXX=3966
##MINX=450
##MAXY=0.96011
##MINY=0
##NPOINTS=880
##XYDATA=(X++(Y..Y))
450.0 86 142 219 163 174 216 116 163 120 175
490.0 181 245 325 554 721 867 927 987 819 682
530.0 480 340 212 140 136 104 90 72 57 72
570.0 72 69 75 106 129 138 152 161 154 123
610.0 122 118 104 92 96 94 73 97 111 140
650.0 167 185 170 176 159 164 109 95 56 37
690.0 19 23 24 39 6 27 21 36 29 31
730.0 42 37 39 43 44 52 35 55 57 59
770.0 60 80 125 183 272 336 384 429 423 424
810.0 479 577 761 1001 1276 1552 1815 2092 2331 2571
850.0 2702 2728 2536 2204 1814 1452 1177 1039 947 901
890.0 862 847 847 867 887 911 897 843 763 678
930.0 589 527 486 464 468 522 612 769 976 1194
970.0 1371 1454 1480 1422 1347 1270 1236 1235 1252 1300
1010.0 1408 1590 1884 2345 2960 3745 4599 5392 6128 6861
1050.0 7450 7988 8707 9507 9972 10000 9749 8893 7685 6216
1090.0 4930 3987 3437 3172 3043 2935 2792 2602 2353 2086
1130.0 1827 1637 1550 1634 1885 2266 2703 3059 3238 3155
1170.0 2894 2540 2252 2112 2156 2368 2721 3234 3855 4576
1210.0 5249 5871 6281 6529 6613 6622 6589 6497 6380 6183
1250.0 6000 5667 5221 4593 3922 3243 2601 2060 1635 1320
1290.0 1079 923 808 739 689 685 695 725 770 812
1330.0 843 857 885 878 888 931 1090 1404 1905 2592
1370.0 3421 4608 5406 5391 4932 4161 3105 2191 1675 1360
1410.0 1096 873 663 516 414 367 351 364 390 450
1450.0 554 697 821 855 840 748 626 501 421 358
1490.0 287 228 169 125 94 62 45 34 30 19
1530.0 13 10 15 22 14 23 14 26 27 18
1570.0 21 27 24 24 22 23 18 25 16 14
1610.0 11 9 12 6 6 6 8 11 8 9
1650.0 12 23 17 20 22 18 23 16 21 36
1690.0 39 50 72 83 90 100 116 117 121 120
1730.0 120 135 154 164 183 191 187 176 144 125
1770.0 96 94 65 54 56 66 59 56 58 55
1810.0 56 56 57 53 55 44 44 30 30 24
1850.0 18 15 18 21 24 24 23 23 19 19
1890.0 20 21 22 20 18 12 11 9 1 2
1930.0 3 2 3 6 7 8 7 11 11 12
1970.0 14 14 13 14 15 15 16 17 22 25
2010.0 29 32 34 36 35 38 35 36 32 31
2050.0 28 31 28 32 32 30 30 31 30 27
2090.0 24 21 22 25 26 31 29 31 36 37
2130.0 37 42 40 38 39 36 37 36 32 35
2170.0 31 32 33 30 24 16 17 15 17 13
2210.0 12 16 15 10 10 9 9 6 7 6
2250.0 6 4 2 4 5 9 9 14 15 16
2290.0 18 21 17 17 12 12 11 6 4 9
2330.0 12 14 18 25 34 25 19 13 10 20
2370.0 26 28 25 26 16 15 12 12 12 13
2410.0 12 14 14 11 10 10 8 8 7 10
2450.0 11 8 10 10 8 6 7 4 5 1
2490.0 6 6 6 7 9 8 8 10 9 11
2530.0 14 16 18 18 23 25 29 32 29 35
2570.0 38 40 45 46 54 60 63 66 70 68
2610.0 72 71 69 68 69 69 73 73 70 70
2650.0 78 81 84 79 86 90 97 97 102 99
2690.0 100 98 96 93 90 94 100 107 114 124
2730.0 131 134 145 149 154 160 174 183 194 203
2770.0 209 215 222 223 222 228 233 241 255 266
2810.0 272 286 299 320 341 373 415 467 538 634
2850.0 750 905 1130 1422 1790 2242 2780 3369 3932 4414
2890.0 4731 4780 4485 4065 3573 3144 2878 2839 2969 3225
2930.0 3580 3954 4314 4649 4879 4840 4583 4086 3490 2918
2970.0 2510 2372 2589 3236 4286 5573 6473 6571 5756 4462
3010.0 2794 1470 778 464 316 250 209 180 161 145
3050.0 130 120 108 98 87 75 71 65 65 59
3090.0 59 58 54 54 54 49 46 47 48 46
3130.0 45 38 36 37 33 30 29 32 33 41
3170.0 45 48 55 55 55 60 54 54 48 46
3210.0 45 46 41 38 37 28 24 23 21 13
3250.0 9 5 4 3 6 0 5 5 6 7
3290.0 6 2 7 8 6 4 7 9 11 14
3330.0 18 17 18 18 16 7 8 6 9 15
3370.0 9 8 11 7 4 11 8 11 6 5
3410.0 7 3 0 9 9 5 2 7 1 0
3450.0 10 10 3 11 12 11 19 15 13 23
3490.0 29 33 27 31 33 32 35 25 32 28
3530.0 33 27 33 35 29 33 31 31 41 40
3570.0 53 65 66 73 82 94 108 132 190 286
3610.0 472 716 951 1145 1267 1241 1090 894 697 525
3650.0 413 358 353 381 416 447 478 486 438 369
3690.0 288 206 129 71 46 29 38 32 23 35
3730.0 36 35 38 43 50 36 31 12 23 9
3770.0 0 0 0 0 0 0 0 0 0 0
3810.0 0 0 0 0 0 0 0 0 0 0
3850.0 0 0 0 0 0 0 0 0 0 0
3890.0 0 0 0 0 0 0 0 0 0 0
3930.0 0 0 0 0 1 7 4 0 0 0
##END=
