##TITLE=Benzeneethanol, 4-nitro-
##JCAMP-DX=4.24
##DATA TYPE=INFRARED SPECTRUM
##ORIGIN=Sadtler Research Labs Under US-EPA Contract
##OWNER=NIST Standard Reference Data Program
##CAS REGISTRY NO=100-27-6
##MOLFORM=C 8 H 9 N O 3
##XUNITS=1/CM
##YUNITS=ABSORBANCE
##XFACTOR=1.0
##YFACTOR=0.000060892
##DELTAX=4.0
##FIRSTX=450.0
##LASTX=3966.0
##FIRSTY=0.000000
##MAXX=3966
##MINX=450
##MAXY=0.60892
##MINY=0
##NPOINTS=880
##XYDATA=(X++(Y..Y))
450.0 0 846 1253 1261 1236 1259 1092 1191 1285 1112
490.0 1191 1221 1128 1146 1218 1316 1148 1236 1397 1399
530.0 1419 1420 1338 1280 1207 1242 1164 1290 1194 1216
570.0 1228 1138 1136 1186 1170 1206 1100 1144 1173 1178
610.0 1333 1368 1320 1245 1133 1145 1125 1115 1189 1121
650.0 1139 1128 1153 1192 1189 1218 1193 1266 1386 1491
690.0 1518 1679 1791 1708 1583 1529 1368 1315 1325 1438
730.0 1549 1587 1792 1851 1889 1719 1731 1605 1656 1663
770.0 1622 1559 1410 1322 1317 1360 1370 1457 1565 1637
810.0 1842 1800 1816 1895 1949 2065 2301 2403 2517 2835
850.0 3277 3616 3378 2757 1910 1499 1318 1218 1192 1132
890.0 1142 1105 1060 1076 1061 1064 1050 1050 1095 1088
930.0 1097 1141 1129 1149 1194 1242 1250 1303 1340 1301
970.0 1318 1329 1345 1332 1355 1436 1466 1614 1743 1856
1010.0 2063 2326 2396 2532 2521 2613 2938 3497 3925 4273
1050.0 4222 3868 3308 2901 2648 2425 2124 1886 1763 1661
1090.0 1671 1737 1774 1877 2046 2078 1984 1722 1586 1415
1130.0 1322 1253 1099 1084 1098 1150 1204 1225 1271 1287
1170.0 1321 1425 1523 1578 1562 1529 1462 1427 1418 1369
1210.0 1339 1334 1314 1293 1300 1292 1340 1299 1292 1277
1250.0 1298 1341 1384 1405 1438 1433 1421 1368 1416 1412
1290.0 1448 1474 1490 1557 1629 1692 1815 1894 2000 2214
1330.0 2615 3395 4740 6773 9046 10000 9641 7575 5118 3456
1370.0 2645 2318 2120 2034 1988 1871 1754 1693 1550 1481
1410.0 1432 1384 1389 1319 1312 1314 1333 1358 1382 1392
1450.0 1358 1388 1402 1402 1430 1511 1596 1701 1710 1775
1490.0 2098 2260 2387 2508 2550 2945 3422 4050 4714 5279
1530.0 6166 6810 7193 7060 6374 5209 4075 3147 2429 2133
1570.0 1947 1840 1845 1854 1980 2200 2497 2916 3158 3000
1610.0 2602 2161 1815 1489 1323 1173 1115 1089 1040 1062
1650.0 1080 1009 1089 1043 1037 1020 1031 984 990 1002
1690.0 989 954 950 964 957 952 974 978 944 954
1730.0 959 961 944 944 984 960 928 930 916 962
1770.0 945 946 964 999 1003 1022 1003 1020 1002 932
1810.0 914 900 932 886 900 902 894 905 902 912
1850.0 916 876 871 903 909 899 883 902 906 943
1890.0 896 916 929 937 960 976 981 1013 1013 988
1930.0 968 951 924 903 886 905 895 902 899 890
1970.0 897 892 893 871 871 884 882 879 872 869
2010.0 874 875 878 873 876 876 878 888 878 887
2050.0 885 878 882 887 883 893 893 896 891 889
2090.0 886 890 874 878 881 882 884 878 874 881
2130.0 875 862 873 866 862 871 867 873 870 864
2170.0 871 874 874 875 874 874 870 874 880 885
2210.0 890 887 888 891 882 871 884 872 878 883
2250.0 880 879 872 874 874 883 878 883 893 901
2290.0 907 903 907 896 887 886 878 874 871 865
2330.0 862 862 862 864 863 894 861 868 861 862
2370.0 886 885 895 903 898 900 898 899 899 892
2410.0 901 895 900 895 895 900 899 900 910 922
2450.0 925 936 937 933 920 910 910 905 895 890
2490.0 889 885 892 896 893 892 891 893 896 896
2530.0 897 897 892 892 892 895 894 891 895 897
2570.0 895 888 897 897 901 903 905 915 914 917
2610.0 925 931 923 919 920 915 912 917 917 912
2650.0 911 920 923 922 918 927 923 927 929 938
2690.0 944 949 958 960 963 978 969 967 970 961
2730.0 958 966 967 965 961 966 965 969 977 976
2770.0 977 982 983 986 993 997 987 992 1005 1000
2810.0 1011 1014 1025 1039 1048 1071 1098 1116 1137 1166
2850.0 1214 1252 1304 1368 1432 1531 1637 1773 1904 1987
2890.0 2001 1931 1829 1745 1708 1714 1787 1867 1969 2085
2930.0 2189 2247 2272 2248 2218 2212 2182 2125 2057 1942
2970.0 1793 1614 1460 1315 1193 1131 1092 1058 1041 1026
3010.0 1015 1006 1017 1012 1011 1018 1044 1096 1139 1172
3050.0 1211 1229 1225 1212 1187 1161 1140 1152 1155 1131
3090.0 1086 1029 969 959 941 939 936 925 936 908
3130.0 913 917 905 903 904 905 900 905 911 897
3170.0 898 896 907 904 905 902 903 901 921 903
3210.0 910 909 911 900 896 903 904 912 892 880
3250.0 904 907 896 903 906 900 891 897 904 910
3290.0 899 912 912 930 905 908 895 908 905 935
3330.0 916 926 917 914 916 907 918 912 909 923
3370.0 935 916 933 941 923 933 938 938 908 918
3410.0 917 919 935 945 926 916 930 931 926 918
3450.0 917 916 924 927 910 913 898 923 893 899
3490.0 891 895 888 908 893 896 897 901 904 908
3530.0 884 892 898 888 905 936 911 915 886 912
3570.0 914 909 900 904 912 943 938 939 937 928
3610.0 948 941 944 950 957 964 1019 1015 1098 1112
3650.0 1162 1181 1286 1422 1477 1530 1403 1370 1213 1134
3690.0 1005 984 970 966 977 957 920 954 909 937
3730.0 938 931 945 883 958 865 934 907 945 917
3770.0 917 922 914 916 919 927 935 891 905 898
3810.0 919 897 923 918 912 931 880 874 929 910
3850.0 977 882 915 905 952 934 938 928 949 928
3890.0 877 923 914 919 985 917 907 942 911 881
3930.0 860 912 889 937 945 941 865 874 938 934
##END=
