##TITLE=Benzyl chloride
##JCAMP-DX=4.24
##DATA TYPE=INFRARED SPECTRUM
##ORIGIN=Sadtler Research Labs Under US-EPA Contract
##OWNER=NIST Standard Reference Data Program
##CAS REGISTRY NO=100-44-7
##MOLFORM=C 7 H 7 Cl
##XUNITS=1/CM
##YUNITS=ABSORBANCE
##XFACTOR=1.0
##YFACTOR=0.000096350
##DELTAX=4.0
##FIRSTX=450.0
##LASTX=3966.0
##FIRSTY=0.027942
##MAXX=3966
##MINX=450
##MAXY=0.9635
##MINY=0
##NPOINTS=880
##XYDATA=(X++(Y..Y))
450.0 290 202 310 303 307 296 262 203 140 106
490.0 71 53 53 61 12 56 47 58 63 67
530.0 84 81 128 185 311 628 1064 1155 1209 1165
570.0 741 357 199 177 114 138 120 103 88 102
610.0 94 95 112 113 131 126 165 174 212 262
650.0 313 412 473 630 708 1067 1565 2416 3483 4811
690.0 6941 7986 10000 9372 9457 7286 5995 4667 3631 2812
730.0 2184 1781 1443 1195 1020 902 850 861 879 859
770.0 792 667 548 457 401 452 475 531 713 1067
810.0 1372 1405 1333 1178 694 328 193 130 94 57
850.0 29 16 7 17 15 32 57 71 76 81
890.0 84 70 59 49 59 81 81 75 73 75
930.0 76 90 89 85 71 72 57 43 33 19
970.0 12 8 0 3 5 11 27 50 44 48
1010.0 65 84 150 276 371 374 336 285 171 108
1050.0 127 182 264 347 419 428 414 409 363 283
1090.0 237 205 179 152 131 113 91 76 66 68
1130.0 68 68 64 60 56 55 58 68 78 101
1170.0 133 164 197 226 233 233 235 245 274 299
1210.0 302 273 237 185 175 207 248 317 410 549
1250.0 781 1205 1934 2844 3322 3212 3069 2336 1355 895
1290.0 791 712 633 523 442 347 269 235 216 217
1330.0 210 203 191 189 172 145 123 104 101 95
1370.0 114 114 124 118 122 106 102 89 77 76
1410.0 76 82 107 148 190 268 401 557 781 982
1450.0 1202 1193 1085 1050 835 590 460 321 327 430
1490.0 706 998 1016 1021 912 499 227 123 112 115
1530.0 111 122 119 119 95 95 94 94 85 88
1570.0 91 79 95 104 115 141 184 242 272 296
1610.0 279 241 196 126 94 53 54 39 46 43
1650.0 66 41 64 51 57 62 70 71 81 66
1690.0 60 51 40 48 50 67 95 127 134 138
1730.0 155 160 140 131 133 142 164 164 158 152
1770.0 165 147 124 128 164 215 266 270 259 221
1810.0 157 105 89 86 85 73 61 64 60 67
1850.0 70 84 96 116 127 138 135 144 154 155
1890.0 155 140 123 93 73 65 67 74 83 101
1930.0 129 161 182 195 201 232 252 246 213 173
1970.0 123 65 28 19 20 16 17 13 12 12
2010.0 11 12 14 16 13 11 8 11 10 13
2050.0 15 21 21 19 19 15 16 13 10 8
2090.0 6 5 3 5 2 0 0 1 0 0
2130.0 2 2 2 0 3 2 4 4 6 6
2170.0 4 5 3 8 4 2 3 3 5 4
2210.0 5 5 9 7 8 7 8 10 10 12
2250.0 15 16 15 16 14 18 13 15 12 10
2290.0 10 11 10 14 14 21 40 47 50 52
2330.0 44 45 44 49 32 49 32 31 22 20
2370.0 10 10 15 12 9 13 14 13 16 15
2410.0 17 16 15 13 13 12 10 9 8 9
2450.0 9 6 6 9 7 11 11 11 11 9
2490.0 9 5 4 5 4 4 2 4 3 6
2530.0 4 1 0 1 4 5 2 4 6 5
2570.0 3 4 7 6 9 11 15 19 20 23
2610.0 22 20 20 19 18 19 22 20 21 22
2650.0 19 17 16 12 13 14 12 13 15 17
2690.0 18 22 26 34 46 50 60 59 60 51
2730.0 41 36 38 33 28 23 18 14 11 14
2770.0 15 20 22 25 34 38 39 43 47 50
2810.0 51 49 47 47 41 41 44 54 64 72
2850.0 84 98 114 131 154 178 207 220 227 230
2890.0 207 187 178 161 148 141 140 144 159 182
2930.0 219 258 305 358 436 517 615 728 876 1006
2970.0 1033 1014 955 824 724 627 567 557 571 594
3010.0 634 721 815 957 1201 1577 2061 2412 2539 2514
3050.0 2316 1840 1523 1530 1809 2216 2481 2549 2485 2191
3090.0 1722 1397 1224 1134 997 826 679 538 417 298
3130.0 196 116 68 51 41 35 31 32 35 43
3170.0 44 45 46 41 30 25 19 12 13 11
3210.0 12 11 14 7 8 6 5 12 9 9
3250.0 9 10 4 5 6 10 9 14 9 6
3290.0 9 8 5 7 8 7 6 9 8 11
3330.0 9 8 9 6 6 8 6 6 7 0
3370.0 6 3 7 2 6 9 4 8 8 9
3410.0 9 3 5 11 8 7 4 11 11 14
3450.0 11 8 10 7 12 6 12 10 6 2
3490.0 10 11 8 12 8 4 7 1 12 9
3530.0 9 6 7 6 15 12 10 13 10 26
3570.0 15 24 19 34 29 34 37 22 23 18
3610.0 34 18 27 30 28 44 31 34 39 34
3650.0 44 37 41 38 37 39 34 31 17 23
3690.0 17 29 24 27 24 20 35 25 20 34
3730.0 20 33 16 36 20 22 24 6 17 24
3770.0 20 17 14 7 16 13 15 14 25 11
3810.0 17 10 16 25 21 23 10 22 14 25
3850.0 9 20 34 26 43 27 34 37 42 27
3890.0 32 29 29 19 37 14 20 31 23 24
3930.0 30 20 22 20 26 34 21 24 5 17
##END=
