##TITLE=Benzene, 1-methoxy-4-nitro-
##JCAMP-DX=4.24
##DATA TYPE=INFRARED SPECTRUM
##ORIGIN=Sadtler Research Labs Under US-EPA Contract
##OWNER=NIST Standard Reference Data Program
##CAS REGISTRY NO=100-17-4
##MOLFORM=C 7 H 7 N O 3
##XUNITS=1/CM
##YUNITS=ABSORBANCE
##XFACTOR=1.0
##YFACTOR=0.000070676
##DELTAX=4.0
##FIRSTX=450.0
##LASTX=3966.0
##FIRSTY=0.032723
##MAXX=3966
##MINX=450
##MAXY=0.70676
##MINY=0
##NPOINTS=880
##XYDATA=(X++(Y..Y))
450.0 463 246 209 305 395 299 328 309 345 294
490.0 322 336 334 375 296 351 298 299 244 201
530.0 128 148 109 72 115 51 97 18 79 20
570.0 51 25 63 25 90 144 112 124 251 513
610.0 882 1161 1198 1200 911 735 673 580 500 304
650.0 230 187 231 241 286 385 393 472 528 552
690.0 509 491 420 365 292 254 235 193 193 199
730.0 252 296 421 535 638 791 829 644 554 443
770.0 313 251 195 186 167 180 171 189 196 190
810.0 225 218 294 377 584 797 1079 1363 1668 2292
850.0 2621 3064 3076 2732 2043 908 407 255 199 184
890.0 171 185 178 168 178 176 165 157 144 137
930.0 133 142 147 159 171 182 170 189 195 204
970.0 218 221 242 248 260 268 286 306 353 415
1010.0 509 656 872 1200 1612 2046 2363 2350 2063 1585
1050.0 1032 652 504 406 362 329 327 338 378 444
1090.0 528 646 834 1188 1675 2010 2040 1843 1233 621
1130.0 363 260 232 225 254 296 440 709 1259 1889
1170.0 2090 2214 1974 1434 1145 970 720 560 477 447
1210.0 464 499 577 690 858 1054 1337 1771 2470 3562
1250.0 5169 7344 9422 10000 9257 6952 3921 2139 1524 1442
1290.0 1707 1866 1895 1762 1437 1207 1270 1566 2015 2476
1330.0 3091 3869 4826 6156 7304 7739 7339 6085 4420 2942
1370.0 2120 1540 1158 872 709 581 515 462 397 383
1410.0 379 389 428 469 474 549 667 873 1033 1144
1450.0 1226 1245 1290 1297 1433 1360 1424 1369 1410 1713
1490.0 2711 4342 5349 5513 5139 3615 2728 2732 3593 4189
1530.0 5108 5523 5890 5437 4930 4154 2958 2359 1515 1252
1570.0 1104 1275 1662 2611 3607 5107 5498 6434 5194 4400
1610.0 3569 3074 2576 1931 1513 867 651 448 390 348
1650.0 348 334 259 233 195 192 196 131 183 166
1690.0 147 118 169 129 125 90 107 135 98 85
1730.0 105 143 100 121 126 143 148 155 163 140
1770.0 156 123 105 98 116 110 131 118 110 86
1810.0 81 76 60 64 60 70 47 56 54 72
1850.0 58 53 66 77 98 124 126 130 143 151
1890.0 159 155 152 146 138 135 124 117 117 92
1930.0 88 71 69 66 67 60 65 68 67 68
1970.0 60 54 47 41 31 39 38 33 37 42
2010.0 47 58 71 76 90 113 137 160 181 192
2050.0 180 163 145 133 121 110 99 85 69 53
2090.0 47 37 39 40 50 57 59 57 48 39
2130.0 28 19 11 9 4 9 2 4 4 0
2170.0 0 1 0 2 5 5 10 13 14 18
2210.0 17 25 26 33 26 25 18 17 18 17
2250.0 14 15 20 22 28 35 50 54 65 64
2290.0 63 59 50 43 42 37 34 26 31 32
2330.0 37 30 32 47 41 46 42 47 63 69
2370.0 69 85 82 75 61 51 44 40 40 40
2410.0 35 33 32 32 39 44 50 57 64 73
2450.0 85 94 90 89 76 71 58 49 46 43
2490.0 40 45 48 57 68 65 72 74 72 69
2530.0 62 60 56 66 80 90 105 105 105 97
2570.0 90 87 96 101 108 104 97 84 76 71
2610.0 72 74 72 73 70 64 59 63 57 60
2650.0 59 51 48 44 39 35 41 37 36 35
2690.0 39 40 48 50 54 55 52 52 53 47
2730.0 40 42 43 43 46 49 55 52 52 51
2770.0 49 51 52 59 62 69 69 78 77 84
2810.0 88 96 112 128 153 193 243 323 460 617
2850.0 720 743 698 573 431 351 305 278 270 276
2890.0 286 304 320 353 397 448 501 528 549 548
2930.0 555 580 639 736 870 986 1032 1035 987 884
2970.0 819 714 596 504 415 352 317 306 324 391
3010.0 548 742 779 730 598 362 225 173 149 129
3050.0 114 108 101 105 123 134 153 191 236 303
3090.0 372 363 337 247 151 95 82 71 63 58
3130.0 51 49 53 50 42 41 42 35 29 29
3170.0 32 27 27 28 32 33 34 35 40 44
3210.0 45 48 44 44 35 42 37 24 25 23
3250.0 23 24 20 20 23 22 25 22 29 27
3290.0 22 26 31 25 31 21 21 23 19 20
3330.0 19 21 21 25 28 25 16 23 25 26
3370.0 25 27 23 23 11 20 23 27 25 18
3410.0 24 27 20 23 29 23 24 20 19 23
3450.0 32 26 18 21 19 27 31 27 20 22
3490.0 27 26 24 25 27 26 38 31 22 33
3530.0 34 28 23 35 36 37 34 38 28 57
3570.0 41 32 42 27 56 34 59 31 44 37
3610.0 48 40 45 46 32 65 56 30 48 21
3650.0 69 67 37 64 20 70 17 86 22 57
3690.0 44 66 56 44 50 48 61 55 53 45
3730.0 60 73 73 51 106 45 106 64 52 56
3770.0 47 56 35 61 38 37 19 50 57 89
3810.0 29 60 41 66 44 31 54 71 74 54
3850.0 40 88 57 64 69 68 59 66 74 67
3890.0 50 76 42 71 72 49 31 52 55 49
3930.0 38 51 70 54 60 41 46 42 70 59
##END=
