##TITLE=Benzaldehyde
##JCAMP-DX=4.24
##DATA TYPE=INFRARED SPECTRUM
##ORIGIN=Sadtler Research Labs Under US-EPA Contract
##OWNER=NIST Standard Reference Data Program
##CAS REGISTRY NO=100-52-7
##MOLFORM=C 7 H 6 O
##XUNITS=1/CM
##YUNITS=ABSORBANCE
##XFACTOR=1.0
##YFACTOR=0.000055081
##DELTAX=4.0
##FIRSTX=450.0
##LASTX=3966.0
##FIRSTY=0.018397
##MAXX=3966
##MINX=450
##MAXY=0.55081
##MINY=0
##NPOINTS=880
##XYDATA=(X++(Y..Y))
450.0 334 625 525 542 565 410 285 221 256 273
490.0 275 263 254 263 277 243 223 300 249 235
530.0 212 265 254 274 293 263 276 250 320 268
570.0 279 342 303 290 240 336 59 174 223 269
610.0 265 308 322 407 475 513 600 779 980 962
650.0 1000 986 1069 869 751 849 823 984 835 1504
690.0 1472 1176 1052 1075 934 1055 1034 1172 1258 1446
730.0 1497 1700 2706 2415 1642 1533 1351 1113 917 613
770.0 502 380 325 294 251 316 293 319 357 493
810.0 676 1107 1451 1499 1569 1610 1586 1043 645 465
850.0 395 303 236 209 173 175 170 174 151 167
890.0 166 172 161 172 177 175 178 168 152 130
930.0 133 142 116 129 118 126 126 131 120 125
970.0 115 116 124 130 144 152 169 179 207 210
1010.0 211 293 331 322 304 300 264 204 161 185
1050.0 208 273 344 385 386 391 433 440 420 380
1090.0 361 346 290 240 212 201 180 172 171 175
1130.0 183 184 203 216 269 356 580 912 1132 1275
1170.0 1328 1337 1310 1237 1477 1951 2297 2323 2348 2372
1210.0 1771 894 492 396 321 296 255 231 228 223
1250.0 233 238 256 273 296 320 361 364 351 345
1290.0 337 375 530 807 910 922 891 871 709 412
1330.0 278 251 237 292 319 294 281 245 176 169
1370.0 210 268 403 448 412 418 424 302 232 168
1410.0 144 163 78 136 126 173 140 208 300 416
1450.0 512 519 415 485 514 361 181 133 177 106
1490.0 82 120 105 108 51 18 44 47 0 80
1530.0 43 78 51 21 32 80 84 15 98 135
1570.0 209 271 434 596 703 865 964 1096 981 936
1610.0 812 724 589 418 265 273 264 265 339 322
1650.0 335 281 328 281 221 204 160 300 203 318
1690.0 355 545 517 1042 1842 3561 6446 8796 9618 9312
1730.0 10000 8425 4677 1940 1044 824 915 864 809 746
1770.0 807 510 307 194 134 113 94 129 103 201
1810.0 203 231 243 256 237 204 196 176 138 87
1850.0 114 102 100 95 80 68 106 132 127 140
1890.0 131 157 157 154 135 125 121 105 95 105
1930.0 123 123 141 132 156 173 179 171 173 182
1970.0 186 182 157 153 144 108 100 104 110 105
2010.0 116 115 115 117 127 121 104 87 76 77
2050.0 71 74 68 64 59 67 68 61 66 61
2090.0 59 60 62 61 64 61 58 60 59 65
2130.0 57 63 58 66 68 72 73 73 76 73
2170.0 72 63 61 57 58 57 58 60 56 60
2210.0 59 59 62 66 63 68 67 66 67 67
2250.0 69 61 67 67 66 59 63 61 55 53
2290.0 51 49 38 48 54 54 68 68 73 79
2330.0 84 66 68 61 59 55 59 59 54 64
2370.0 56 61 58 56 60 68 72 71 66 68
2410.0 68 60 64 59 61 63 62 61 60 62
2450.0 54 56 55 57 57 63 62 62 63 62
2490.0 62 61 67 65 76 70 72 67 65 66
2530.0 59 58 55 60 57 63 63 64 64 68
2570.0 75 74 79 79 93 87 92 90 90 90
2610.0 86 93 93 93 97 94 88 92 92 90
2650.0 92 91 96 104 116 141 187 251 336 411
2690.0 419 440 500 544 590 710 971 1408 1852 1827
2730.0 1631 1805 1746 1194 739 468 325 237 205 201
2770.0 219 261 342 480 672 929 1210 1509 1782 1926
2810.0 1834 1689 1582 1304 938 673 538 473 410 354
2850.0 342 329 287 231 190 162 142 134 114 115
2890.0 112 116 124 126 135 136 141 137 142 131
2930.0 131 130 127 127 127 130 124 115 107 101
2970.0 90 84 91 85 81 86 91 97 119 134
3010.0 163 196 266 357 463 570 607 621 683 681
3050.0 594 550 535 599 742 871 984 1047 1083 1031
3090.0 858 675 630 612 506 395 314 258 189 129
3130.0 97 79 74 66 68 68 74 69 83 78
3170.0 82 92 89 86 75 68 61 66 68 67
3210.0 62 65 59 62 61 52 62 55 61 57
3250.0 58 56 58 58 60 62 59 61 55 59
3290.0 56 55 57 55 64 65 70 66 70 65
3330.0 65 64 59 68 66 73 60 63 64 70
3370.0 68 66 72 69 72 70 69 71 76 68
3410.0 86 99 130 159 181 200 201 190 131 97
3450.0 59 42 49 47 51 50 40 49 67 57
3490.0 52 55 53 61 50 43 47 56 57 46
3530.0 52 59 56 58 49 46 62 50 56 68
3570.0 86 123 192 238 249 235 211 164 94 48
3610.0 64 69 62 62 61 56 64 57 60 51
3650.0 74 67 63 61 63 69 61 54 60 56
3690.0 46 53 72 68 58 53 70 60 59 56
3730.0 56 58 73 66 37 58 45 53 45 54
3770.0 48 51 38 48 50 50 48 55 50 48
3810.0 47 45 37 59 43 60 70 72 65 47
3850.0 49 66 62 61 47 70 85 49 50 42
3890.0 75 64 66 69 88 67 70 88 53 61
3930.0 70 53 46 52 44 43 52 68 80 46
##END=
