##TITLE=Ethanol, 2-(diethylamino)-
##JCAMP-DX=4.24
##DATA TYPE=INFRARED SPECTRUM
##ORIGIN=Sadtler Research Labs Under US-EPA Contract
##OWNER=NIST Standard Reference Data Program
##CAS REGISTRY NO=100-37-8
##MOLFORM=C 6 H 15 N O
##XUNITS=1/CM
##YUNITS=ABSORBANCE
##XFACTOR=1.0
##YFACTOR=0.000113553
##DELTAX=4.0
##FIRSTX=450.0
##LASTX=3966.0
##FIRSTY=0.003293
##MAXX=3966
##MINX=450
##MAXY=1.13553
##MINY=0
##NPOINTS=880
##XYDATA=(X++(Y..Y))
450.0 29 166 90 154 51 114 40 136 85 156
490.0 122 111 59 70 131 13 97 73 114 83
530.0 155 158 177 231 261 289 253 333 261 255
570.0 260 226 172 111 164 117 133 100 174 131
610.0 154 165 151 164 141 136 88 137 111 146
650.0 123 116 138 141 158 263 148 122 209 182
690.0 154 128 151 188 199 290 313 426 557 670
730.0 707 724 713 628 552 447 384 293 286 249
770.0 280 290 313 336 340 448 459 482 471 464
810.0 403 361 318 256 220 190 196 202 227 217
850.0 273 332 421 531 640 737 783 747 623 538
890.0 463 422 424 434 474 476 475 442 409 358
930.0 341 316 309 322 311 325 318 341 335 354
970.0 376 417 446 495 565 623 694 760 846 945
1010.0 1076 1217 1402 1673 2059 2536 3047 3557 4064 4514
1050.0 4879 5186 5372 5491 5561 5377 5153 4955 4571 4026
1090.0 3496 2900 2347 1862 1506 1277 1117 1045 967 897
1130.0 803 743 694 647 642 666 736 844 1022 1194
1170.0 1368 1476 1530 1535 1567 1744 2014 2336 2603 2761
1210.0 2683 2444 2090 1715 1399 1152 975 822 750 716
1250.0 758 820 905 998 1029 1041 1026 1022 1044 1130
1290.0 1245 1365 1442 1454 1401 1306 1223 1165 1157 1185
1330.0 1245 1322 1429 1555 1675 1805 1919 1993 2026 2121
1370.0 2260 2458 2709 2961 3155 3222 3196 3076 2926 2670
1410.0 2279 1842 1447 1083 852 749 738 807 913 1057
1450.0 1223 1362 1476 1559 1604 1557 1497 1401 1157 941
1490.0 723 524 393 298 256 226 194 187 178 163
1530.0 149 140 139 132 125 111 111 96 105 87
1570.0 84 79 84 73 68 71 69 67 62 65
1610.0 57 59 58 55 53 56 63 54 56 59
1650.0 54 65 58 46 38 47 38 44 28 43
1690.0 29 32 37 37 36 27 41 35 34 20
1730.0 26 33 35 28 26 34 31 34 29 33
1770.0 32 39 34 34 37 39 40 40 41 40
1810.0 41 42 38 36 34 28 28 27 28 24
1850.0 21 24 26 19 24 25 22 20 26 27
1890.0 28 32 33 41 38 43 44 49 46 49
1930.0 54 52 54 48 53 43 42 34 35 32
1970.0 26 26 23 27 18 24 15 18 14 10
2010.0 10 6 5 2 0 0 5 6 8 7
2050.0 8 12 11 10 13 23 26 32 37 44
2090.0 47 48 50 49 51 47 52 51 47 44
2130.0 39 36 32 32 27 32 27 29 26 27
2170.0 30 25 30 28 29 25 30 29 26 26
2210.0 27 23 21 27 22 22 21 23 23 26
2250.0 28 29 32 35 39 35 42 32 34 35
2290.0 35 32 26 33 36 40 41 49 60 56
2330.0 61 61 56 57 45 47 86 79 67 30
2370.0 17 21 15 27 35 41 39 41 32 28
2410.0 30 28 28 19 26 27 28 24 26 28
2450.0 26 25 21 22 19 22 18 21 20 18
2490.0 15 17 18 20 20 22 23 24 29 35
2530.0 31 39 41 47 48 59 61 65 73 79
2570.0 80 84 99 98 105 112 110 111 113 121
2610.0 116 122 128 146 151 166 179 195 212 236
2650.0 267 296 327 347 357 371 369 382 398 421
2690.0 442 468 504 539 579 615 656 689 721 743
2730.0 771 786 801 811 840 867 920 994 1076 1156
2770.0 1235 1316 1422 1573 1776 2058 2457 2962 3588 4223
2810.0 4889 5421 5754 5849 5589 5177 4685 4132 3566 3101
2850.0 2771 2559 2481 2591 2868 3291 3758 4184 4452 4501
2890.0 4378 4144 3878 3614 3478 3430 3506 3733 4084 4565
2930.0 5126 5782 6359 6637 6596 6380 6238 6085 6335 7179
2970.0 8310 9481 10000 9381 8081 6066 4153 2640 1685 1150
3010.0 846 672 558 479 429 385 363 335 320 288
3050.0 276 264 235 221 207 199 181 160 158 142
3090.0 134 127 116 114 102 107 102 91 93 92
3130.0 84 89 78 80 76 69 64 75 68 76
3170.0 82 76 82 76 71 59 62 52 46 44
3210.0 36 38 26 23 29 17 27 25 37 29
3250.0 34 33 25 24 31 34 19 46 50 31
3290.0 53 43 28 18 34 36 45 34 32 33
3330.0 40 48 31 42 44 48 51 33 58 59
3370.0 66 71 82 73 89 99 107 127 153 173
3410.0 206 206 228 231 230 212 190 183 192 164
3450.0 167 176 173 177 175 178 195 198 172 169
3490.0 173 198 194 214 284 389 520 657 825 979
3530.0 1089 1084 1018 939 808 727 625 553 451 421
3570.0 364 336 335 305 272 233 249 199 167 130
3610.0 105 117 104 112 114 109 107 118 124 148
3650.0 179 204 237 275 307 320 319 280 247 212
3690.0 162 128 94 91 74 89 93 77 86 67
3730.0 94 89 73 65 83 97 78 65 86 89
3770.0 78 92 75 70 81 109 44 54 103 101
3810.0 43 90 94 111 93 89 136 118 114 91
3850.0 98 128 123 85 109 152 132 118 97 153
3890.0 117 114 86 94 102 134 130 129 115 131
3930.0 122 123 119 122 121 100 98 85 78 129
##END=
