##TITLE=Pentadecanoic acid
##JCAMP-DX=4.24
##DATA TYPE=INFRARED SPECTRUM
##ORIGIN=Sadtler Research Labs Under US-EPA Contract
##OWNER=NIST Standard Reference Data Program
##CAS REGISTRY NO=1002-84-2
##MOLFORM=C 15 H 30 O 2
##XUNITS=1/CM
##YUNITS=ABSORBANCE
##XFACTOR=1.0
##YFACTOR=0.000099213
##DELTAX=4.0
##FIRSTX=450.0
##LASTX=3966.0
##FIRSTY=0.082049
##MAXX=3966
##MINX=450
##MAXY=0.99213
##MINY=0
##NPOINTS=880
##XYDATA=(X++(Y..Y))
450.0 827 458 293 377 260 259 383 373 216 70
490.0 107 174 243 153 114 162 245 171 329 320
530.0 140 163 281 112 219 344 299 119 312 362
570.0 267 176 150 163 247 206 309 252 292 282
610.0 268 259 298 192 259 266 231 200 138 127
650.0 167 164 197 79 91 83 104 122 28 59
690.0 105 53 99 56 90 133 191 202 156 135
730.0 109 115 83 42 45 68 120 135 126 79
770.0 51 84 84 79 94 27 25 5 21 75
810.0 124 150 138 137 182 194 144 162 143 150
850.0 144 152 89 97 98 74 89 125 68 78
890.0 97 84 117 114 127 157 186 207 247 258
930.0 206 176 156 145 140 135 135 108 93 99
970.0 117 107 80 79 61 47 39 11 27 20
1010.0 26 65 148 217 277 315 282 254 251 265
1050.0 275 335 385 464 559 599 734 832 934 1046
1090.0 1203 1274 1403 1467 1570 1588 1546 1525 1473 1487
1130.0 1509 1491 1448 1344 1244 1148 1053 1028 1024 1023
1170.0 975 887 846 794 774 708 692 675 645 605
1210.0 616 569 564 538 522 527 513 532 543 566
1250.0 559 570 628 691 792 821 824 767 719 657
1290.0 648 625 618 635 641 651 629 618 577 555
1330.0 564 576 618 635 681 725 748 782 793 789
1370.0 781 794 825 805 803 749 667 674 633 629
1410.0 634 630 631 639 685 741 771 852 917 1039
1450.0 1187 1355 1531 1697 1691 1608 1369 1119 919 750
1490.0 646 541 483 444 413 337 282 291 289 273
1530.0 280 296 368 384 427 439 476 569 592 661
1570.0 737 765 799 783 805 777 804 776 822 796
1610.0 715 720 642 631 633 661 696 676 628 569
1650.0 525 493 433 383 369 326 323 301 299 287
1690.0 283 291 322 366 387 446 528 609 636 679
1730.0 728 768 870 942 1082 1217 1366 1587 1845 2151
1770.0 2562 2927 3097 2917 2504 2041 1649 1357 1126 899
1810.0 705 552 415 343 268 231 186 167 147 132
1850.0 123 109 105 94 90 88 91 80 72 76
1890.0 75 80 74 74 65 67 58 66 71 70
1930.0 63 56 61 62 58 45 59 65 50 49
1970.0 49 55 51 50 51 44 47 48 41 44
2010.0 45 55 56 52 47 47 48 44 49 50
2050.0 43 42 49 44 42 38 40 43 41 38
2090.0 38 31 38 32 38 38 31 29 31 35
2130.0 34 36 30 33 42 36 42 45 50 49
2170.0 46 42 46 55 46 56 55 54 48 33
2210.0 32 32 33 33 29 26 32 30 27 27
2250.0 27 23 21 26 27 28 25 20 18 28
2290.0 29 30 30 48 44 55 61 70 79 78
2330.0 98 56 67 71 73 66 109 88 88 51
2370.0 22 14 6 13 18 10 21 21 14 11
2410.0 14 20 22 11 14 16 14 15 16 17
2450.0 9 9 11 11 9 0 4 5 7 8
2490.0 3 2 5 3 0 1 9 9 14 11
2530.0 11 8 6 7 14 20 27 24 26 31
2570.0 33 31 37 36 37 38 42 42 46 49
2610.0 46 47 53 50 57 53 64 63 64 68
2650.0 73 77 87 89 99 102 102 108 110 105
2690.0 104 97 95 96 93 99 97 98 102 106
2730.0 111 107 114 116 125 113 111 112 128 126
2770.0 128 134 145 157 175 200 213 235 256 284
2810.0 314 351 393 448 505 579 683 835 1078 1468
2850.0 2073 2829 3521 3914 3821 3353 2811 2385 2142 2031
2890.0 1986 2077 2268 2597 3048 3630 4401 5411 6777 8390
2930.0 9711 10000 8970 7424 5886 4594 3708 3145 2839 2630
2970.0 2382 1983 1501 1123 871 699 585 483 402 357
3010.0 316 276 247 225 215 195 184 159 137 130
3050.0 117 114 101 92 94 86 85 84 71 76
3090.0 69 62 50 48 48 45 42 38 29 42
3130.0 34 34 39 36 33 34 33 38 31 35
3170.0 36 39 40 38 36 30 30 29 29 39
3210.0 25 27 30 26 24 35 36 35 27 31
3250.0 31 38 41 40 39 37 41 44 42 51
3290.0 48 47 47 51 46 48 43 53 55 52
3330.0 48 49 56 52 48 49 54 56 46 53
3370.0 62 63 55 57 65 69 72 76 50 47
3410.0 39 39 42 42 39 30 53 43 33 27
3450.0 31 42 48 23 10 15 11 12 17 24
3490.0 8 10 17 0 13 20 17 8 22 51
3530.0 32 56 59 65 85 105 132 172 236 398
3570.0 667 1072 1240 938 493 287 148 117 68 54
3610.0 37 36 45 21 44 31 34 8 33 26
3650.0 81 18 42 21 18 37 44 56 8 44
3690.0 43 41 20 35 44 44 40 32 41 61
3730.0 61 74 101 51 136 74 85 5 22 11
3770.0 30 41 27 37 30 41 61 62 86 50
3810.0 64 74 91 54 48 41 102 65 71 29
3850.0 80 72 79 49 78 85 28 52 59 46
3890.0 25 86 50 46 39 3 25 24 52 0
3930.0 27 0 4 50 73 65 25 73 39 28
##END=
