##TITLE=Decane, 1-chloro-
##JCAMP-DX=4.24
##DATA TYPE=INFRARED SPECTRUM
##ORIGIN=Sadtler Research Labs Under US-EPA Contract
##OWNER=NIST Standard Reference Data Program
##CAS REGISTRY NO=1002-69-3
##MOLFORM=C 10 H 21 Cl
##XUNITS=1/CM
##YUNITS=ABSORBANCE
##XFACTOR=1.0
##YFACTOR=0.000126376
##DELTAX=4.0
##FIRSTX=450.0
##LASTX=3966.0
##FIRSTY=0.000000
##MAXX=3966
##MINX=450
##MAXY=1.26376
##MINY=0
##NPOINTS=880
##XYDATA=(X++(Y..Y))
450.0 0 160 172 298 266 241 363 262 301 331
490.0 246 186 271 225 268 197 281 245 228 191
530.0 244 250 222 255 197 252 230 212 174 259
570.0 218 184 233 258 221 178 236 220 194 220
610.0 219 232 247 244 221 254 264 269 297 335
650.0 360 473 565 618 628 523 429 333 320 282
690.0 297 294 315 334 369 429 460 539 612 656
730.0 667 732 771 814 753 688 608 560 517 466
770.0 461 360 325 354 292 332 312 315 322 338
810.0 342 298 290 268 265 294 272 278 289 294
850.0 288 283 288 263 276 281 273 275 282 288
890.0 289 297 291 296 277 277 284 270 276 271
930.0 265 264 263 258 263 270 257 261 232 287
970.0 285 262 258 282 273 286 283 266 293 301
1010.0 254 251 259 263 268 263 276 270 277 263
1050.0 288 280 278 272 272 263 256 256 245 241
1090.0 235 235 229 229 234 238 236 235 238 227
1130.0 228 221 225 217 221 221 223 227 227 228
1170.0 226 228 227 229 225 230 231 243 229 234
1210.0 237 238 252 258 263 274 288 290 302 317
1250.0 341 368 404 429 439 458 477 521 576 650
1290.0 694 725 726 718 708 684 654 611 570 522
1330.0 477 440 436 454 478 493 494 490 464 441
1370.0 435 426 423 438 432 384 333 300 282 273
1410.0 275 274 288 293 326 354 426 493 599 731
1450.0 895 1032 1083 1134 1108 1018 841 645 498 392
1490.0 334 282 272 255 242 231 236 219 211 210
1530.0 210 205 194 198 194 201 189 188 174 189
1570.0 187 188 177 189 187 186 187 185 185 185
1610.0 186 182 173 176 172 182 177 179 182 175
1650.0 169 170 169 178 173 173 170 175 174 169
1690.0 176 176 168 162 172 171 173 165 168 174
1730.0 173 164 162 165 173 174 166 169 167 165
1770.0 163 162 165 165 164 165 162 164 163 164
1810.0 161 161 157 162 161 159 160 163 158 157
1850.0 156 160 158 160 161 159 158 161 159 159
1890.0 158 156 156 159 161 162 160 161 160 164
1930.0 161 162 161 160 161 161 160 157 158 158
1970.0 160 162 163 160 159 159 157 155 156 158
2010.0 155 160 163 164 166 167 168 164 167 168
2050.0 168 163 169 164 163 159 159 159 158 159
2090.0 160 159 157 155 153 153 155 155 155 156
2130.0 158 157 157 155 158 157 158 158 160 157
2170.0 159 162 160 160 157 157 155 154 154 158
2210.0 157 157 156 155 157 156 158 157 157 157
2250.0 159 157 158 158 158 159 157 162 165 166
2290.0 167 164 166 167 170 171 171 166 173 166
2330.0 164 169 171 174 179 178 169 168 166 188
2370.0 194 194 188 185 180 172 171 169 172 168
2410.0 170 168 172 169 172 171 169 170 169 169
2450.0 170 171 168 169 170 174 173 173 174 176
2490.0 177 178 178 175 177 181 179 178 181 184
2530.0 186 185 187 188 184 189 188 192 191 192
2570.0 191 200 201 202 203 204 206 203 207 210
2610.0 208 209 212 213 216 220 220 218 220 229
2650.0 233 236 242 243 250 252 254 258 258 262
2690.0 263 259 254 254 247 241 238 240 241 245
2730.0 252 258 260 267 264 263 259 256 261 261
2770.0 265 267 273 281 291 302 318 335 353 369
2810.0 387 413 440 473 516 568 632 715 857 1083
2850.0 1479 2111 2949 3757 4175 4015 3544 3067 2752 2526
2890.0 2282 2104 2130 2340 2677 3114 3648 4465 5688 7371
2930.0 9116 10000 9801 8772 7370 5891 4755 4248 4335 4605
2970.0 4569 3872 2800 1926 1461 1267 1234 1247 1139 929
3010.0 707 574 503 454 428 402 380 360 339 321
3050.0 307 295 284 272 270 262 258 253 248 242
3090.0 231 236 227 231 225 219 218 219 215 215
3130.0 210 201 207 195 203 209 204 205 202 199
3170.0 198 198 200 199 204 195 193 193 195 186
3210.0 188 180 178 174 174 175 174 173 172 167
3250.0 167 169 171 166 172 167 169 170 170 164
3290.0 161 166 169 163 165 160 164 164 169 166
3330.0 154 158 159 167 176 175 168 156 159 153
3370.0 170 166 168 160 170 166 173 174 169 162
3410.0 172 172 173 181 173 178 181 168 168 177
3450.0 175 163 175 170 167 173 172 166 160 172
3490.0 178 171 189 173 166 172 175 168 163 177
3530.0 175 173 177 175 187 172 190 163 173 187
3570.0 180 180 180 178 190 184 170 182 200 199
3610.0 188 200 174 183 186 188 192 197 205 221
3650.0 197 198 199 192 198 202 184 194 203 195
3690.0 204 198 198 200 190 200 213 207 220 214
3730.0 225 191 224 194 198 173 211 197 222 202
3770.0 210 192 180 193 194 202 213 203 182 196
3810.0 193 188 201 203 195 196 211 203 204 180
3850.0 188 210 206 198 194 215 216 201 202 188
3890.0 171 220 197 200 214 232 183 189 208 232
3930.0 210 212 199 213 214 237 197 219 177 192
##END=
