##TITLE=Acetophenone, 4'-methoxy-3'-methyl-
##JCAMP-DX=4.24
##DATA TYPE=INFRARED SPECTRUM
##ORIGIN=Sadtler Research Labs Under US-EPA Contract
##OWNER=NIST Standard Reference Data Program
##CAS REGISTRY NO=10024-90-5
##MOLFORM=C 10 H 12 O 2
##XUNITS=1/CM
##YUNITS=ABSORBANCE
##XFACTOR=1.0
##YFACTOR=0.000091785
##DELTAX=4.0
##FIRSTX=450.0
##LASTX=3966.0
##FIRSTY=0.080587
##MAXX=3966
##MINX=450
##MAXY=0.91785
##MINY=0
##NPOINTS=880
##XYDATA=(X++(Y..Y))
450.0 878 304 217 67 236 104 334 48 334 68
490.0 347 213 396 299 199 329 214 332 193 442
530.0 359 520 622 323 298 236 380 164 347 256
570.0 366 282 487 594 730 1029 997 963 651 593
610.0 418 467 456 432 380 293 327 209 218 154
650.0 242 143 185 191 189 228 170 228 118 196
690.0 152 195 146 161 182 139 183 133 168 133
730.0 241 181 257 340 420 463 405 399 248 239
770.0 165 209 188 186 222 309 386 446 650 690
810.0 776 737 791 656 548 474 327 320 238 247
850.0 163 212 190 195 205 244 322 328 433 373
890.0 346 291 313 298 314 335 292 284 238 262
930.0 217 251 257 310 375 487 613 664 725 655
970.0 605 494 437 361 334 346 352 370 335 384
1010.0 380 456 548 725 917 1127 1309 1330 1246 1012
1050.0 787 533 424 348 312 318 347 411 419 446
1090.0 405 376 315 334 351 382 501 692 1077 1636
1130.0 2317 2773 3056 2895 2390 1838 1240 941 984 1402
1170.0 1859 2051 1889 1412 883 630 545 497 517 483
1210.0 497 460 470 491 582 729 948 1339 1938 3034
1250.0 4887 7531 9472 10000 8380 5529 3295 2090 1799 1880
1290.0 2079 2110 2026 1834 1680 1544 1305 1026 759 605
1330.0 493 501 535 616 756 1042 1443 1775 1892 1660
1370.0 1220 783 584 479 453 486 512 583 678 839
1410.0 909 929 849 744 658 636 674 724 841 856
1450.0 886 835 824 906 1003 1025 986 892 784 835
1490.0 1061 1496 1980 2322 2231 1784 1214 706 459 375
1530.0 357 314 295 274 317 318 343 354 391 495
1570.0 581 736 895 1109 1292 1517 1887 2410 2871 2930
1610.0 2563 1825 1157 748 516 430 343 329 308 312
1650.0 301 336 343 382 358 356 375 496 715 1208
1690.0 2234 3765 4800 4948 4316 2645 1290 671 381 292
1730.0 232 241 251 270 289 285 257 229 215 178
1770.0 163 133 145 140 129 134 106 112 94 102
1810.0 84 96 86 91 83 82 92 85 99 86
1850.0 105 89 95 88 80 72 65 75 61 77
1890.0 67 76 64 80 82 79 95 83 90 75
1930.0 80 69 68 67 60 59 57 69 55 65
1970.0 60 63 54 64 71 65 77 81 96 93
2010.0 111 103 101 101 103 106 102 109 91 106
2050.0 100 111 107 110 121 106 98 73 69 43
2090.0 42 29 27 23 29 32 21 34 27 35
2130.0 30 36 37 34 30 30 34 28 39 33
2170.0 35 29 34 29 23 31 24 28 27 38
2210.0 24 31 30 29 26 24 36 31 44 39
2250.0 42 39 47 40 33 32 28 30 24 31
2290.0 27 29 24 33 23 15 22 1 3 3
2330.0 17 1 1 23 28 29 1 5 0 42
2370.0 37 65 65 59 44 32 38 29 34 27
2410.0 34 26 29 36 28 37 36 47 36 42
2450.0 38 42 36 38 48 39 51 54 61 55
2490.0 64 65 71 74 73 81 76 83 73 74
2530.0 64 74 70 69 86 82 94 96 109 105
2570.0 105 102 90 83 79 84 76 82 78 84
2610.0 71 62 58 52 47 42 49 45 53 36
2650.0 33 18 22 14 6 19 17 28 32 59
2690.0 58 62 64 61 59 52 60 48 67 56
2730.0 65 62 78 90 86 92 87 79 71 77
2770.0 69 68 69 75 86 78 96 93 94 97
2810.0 106 116 132 149 158 212 267 389 509 624
2850.0 668 624 529 461 404 353 350 324 323 315
2890.0 337 354 375 429 480 546 614 703 734 781
2930.0 850 949 1010 1091 1155 1160 1165 1132 1097 1036
2970.0 921 826 713 624 559 536 517 555 651 858
3010.0 974 950 804 559 422 373 373 365 364 349
3050.0 339 329 335 349 346 341 316 306 295 284
3090.0 255 237 231 212 199 169 180 160 135 126
3130.0 103 100 81 86 77 77 58 65 61 54
3170.0 48 55 58 54 51 52 60 45 42 50
3210.0 31 33 35 42 39 56 33 28 40 46
3250.0 30 29 59 28 44 23 30 25 47 51
3290.0 43 31 43 50 49 74 41 34 25 35
3330.0 43 55 64 48 49 44 60 38 56 57
3370.0 74 95 113 133 116 105 68 75 38 39
3410.0 30 32 48 38 58 49 55 60 68 37
3450.0 27 30 28 45 52 48 39 39 45 31
3490.0 28 23 38 18 52 33 12 35 40 39
3530.0 24 56 39 31 18 28 29 57 65 42
3570.0 27 2 17 38 31 31 39 4 16 28
3610.0 29 47 44 24 13 14 10 34 21 54
3650.0 32 22 18 18 41 36 49 30 32 22
3690.0 14 45 35 41 31 29 23 16 51 41
3730.0 43 42 38 41 24 28 30 49 64 59
3770.0 28 47 45 42 42 53 57 54 43 2
3810.0 76 28 32 18 56 43 46 84 48 61
3850.0 46 38 68 52 52 84 43 69 60 57
3890.0 48 20 100 17 66 21 51 36 48 66
3930.0 61 63 26 36 51 63 44 54 63 46
##END=
