##TITLE=Nitrous Oxide
##JCAMP-DX=4.24
##DATA TYPE=INFRARED SPECTRUM
##ORIGIN=Sadtler Research Labs Under US-EPA Contract
##OWNER=NIST Standard Reference Data Program
##CAS REGISTRY NO=10024-97-2
##MOLFORM=N 2 O
##XUNITS=1/CM
##YUNITS=ABSORBANCE
##XFACTOR=1.0
##YFACTOR=0.000063803
##DELTAX=4.0
##FIRSTX=450.0
##LASTX=3966.0
##FIRSTY=0.011166
##MAXX=3966
##MINX=450
##MAXY=0.63803
##MINY=0
##NPOINTS=880
##XYDATA=(X++(Y..Y))
450.0 175 143 222 44 138 28 122 130 115 94
490.0 117 19 108 112 79 102 105 174 69 137
530.0 102 127 121 123 149 83 261 138 292 92
570.0 421 205 351 325 447 1435 735 32 453 313
610.0 346 260 354 154 231 131 100 145 26 154
650.0 84 113 133 98 98 112 66 125 80 94
690.0 128 38 108 97 112 112 119 89 113 94
730.0 103 94 88 101 98 105 87 86 100 79
770.0 107 94 104 96 99 95 90 92 87 96
810.0 101 93 86 96 98 95 89 97 85 87
850.0 93 86 101 88 75 83 83 92 93 94
890.0 84 87 89 81 87 87 82 95 93 94
930.0 84 91 84 89 94 78 92 91 84 83
970.0 81 81 82 75 80 82 70 77 80 84
1010.0 78 83 71 83 69 82 74 77 80 79
1050.0 75 75 78 75 77 68 73 77 69 75
1090.0 80 75 70 74 79 78 77 87 95 96
1130.0 117 127 151 168 177 185 173 162 143 118
1170.0 125 150 172 188 184 167 151 138 124 111
1210.0 94 93 96 103 125 155 213 303 450 643
1250.0 905 1211 1524 1847 2173 2445 2425 2149 1468 906
1290.0 1271 1955 2539 2991 2897 2519 2176 1635 1051 647
1330.0 363 204 116 85 68 59 62 63 62 51
1370.0 64 57 58 57 60 58 61 56 63 58
1410.0 56 59 60 67 58 58 57 53 61 52
1450.0 58 57 55 52 56 56 59 56 49 50
1490.0 51 52 51 48 58 57 52 58 50 62
1530.0 49 53 57 53 55 51 49 52 43 50
1570.0 49 46 46 39 41 40 47 48 46 40
1610.0 42 46 48 48 46 44 51 47 45 43
1650.0 49 49 44 44 46 42 45 42 44 46
1690.0 42 41 45 41 39 42 40 49 46 40
1730.0 39 39 39 47 40 43 39 40 39 37
1770.0 35 41 34 38 33 34 37 35 34 36
1810.0 31 33 26 34 35 32 34 30 36 30
1850.0 37 28 36 33 36 41 21 47 56 31
1890.0 34 28 26 30 25 31 23 24 24 25
1930.0 21 22 20 22 25 19 24 18 21 21
1970.0 21 22 17 19 14 18 18 18 14 20
2010.0 22 16 23 17 24 16 17 16 15 21
2050.0 22 16 19 20 18 22 16 21 16 20
2090.0 23 22 24 23 29 25 41 37 58 66
2130.0 94 132 179 264 344 496 677 972 1284 1718
2170.0 2368 3065 3644 4140 5851 5684 6158 7585 7175 7559
2210.0 7800 7325 7903 6056 5403 8308 9653 10000 9725 8467
2250.0 6842 4778 2734 1074 256 28 5 12 1 21
2290.0 12 19 12 27 29 27 32 31 35 16
2330.0 40 6 21 17 35 11 24 38 1 24
2370.0 2 11 0 8 4 12 8 7 8 7
2410.0 14 19 29 31 52 64 82 101 109 112
2450.0 95 83 51 39 60 104 122 132 123 104
2490.0 81 58 43 28 31 30 41 58 85 113
2530.0 150 202 245 291 319 338 328 274 175 165
2570.0 296 384 432 451 434 355 272 188 125 88
2610.0 48 32 14 12 7 10 10 9 10 7
2650.0 10 9 13 11 17 15 13 9 17 16
2690.0 14 11 12 13 10 13 17 15 15 12
2730.0 15 21 18 17 15 19 19 14 21 25
2770.0 29 43 33 41 53 19 53 136 29 26
2810.0 22 31 32 23 17 15 17 11 14 10
2850.0 14 12 10 12 9 15 8 8 16 13
2890.0 15 14 19 14 10 15 12 11 17 16
2930.0 18 10 13 13 12 13 15 16 16 12
2970.0 12 20 13 18 16 16 16 14 21 11
3010.0 15 10 17 17 19 14 12 17 23 24
3050.0 15 13 19 19 16 14 20 15 17 14
3090.0 19 10 18 19 21 21 19 17 13 19
3130.0 24 17 15 21 19 25 14 15 19 20
3170.0 19 17 23 11 19 22 18 26 18 20
3210.0 20 19 23 20 16 18 12 13 16 17
3250.0 20 16 25 20 21 20 23 16 17 22
3290.0 20 24 22 24 26 21 30 34 30 36
3330.0 37 46 48 39 57 56 54 43 36 34
3370.0 39 38 45 58 58 51 35 44 41 40
3410.0 55 56 61 85 100 120 152 193 251 295
3450.0 351 409 466 508 493 449 368 274 216 420
3490.0 653 772 798 667 463 218 57 6 31 24
3530.0 28 20 24 21 11 24 22 27 21 16
3570.0 23 19 27 40 32 16 21 19 27 28
3610.0 27 22 26 20 8 25 35 36 12 26
3650.0 9 11 10 29 30 34 32 11 18 20
3690.0 36 25 16 11 33 44 36 31 23 33
3730.0 35 32 44 49 24 18 29 36 42 37
3770.0 39 49 44 23 35 23 32 34 49 40
3810.0 44 51 38 44 52 50 49 27 51 53
3850.0 60 66 60 38 49 53 41 27 48 36
3890.0 46 38 4 5 32 26 32 14 12 27
3930.0 46 27 12 20 18 29 49 19 17 34
##END=
