##TITLE=2-Thiophenecarbonitrile
##JCAMP-DX=4.24
##DATA TYPE=INFRARED SPECTRUM
##ORIGIN=Sadtler Research Labs Under US-EPA Contract
##OWNER=NIST Standard Reference Data Program
##CAS REGISTRY NO=1003-31-2
##MOLFORM=C 5 H 3 N S
##XUNITS=1/CM
##YUNITS=ABSORBANCE
##XFACTOR=1.0
##YFACTOR=0.000123138
##DELTAX=4.0
##FIRSTX=450.0
##LASTX=3966.0
##FIRSTY=0.002832
##MAXX=3966
##MINX=450
##MAXY=1.23138
##MINY=0
##NPOINTS=880
##XYDATA=(X++(Y..Y))
450.0 23 29 1 21 76 123 160 207 117 215
490.0 292 314 304 395 510 558 540 721 784 540
530.0 344 298 225 198 176 226 217 251 244 441
570.0 404 266 166 195 122 105 47 16 24 8
610.0 22 8 31 10 31 34 58 83 93 142
650.0 155 175 167 246 187 306 405 582 1050 1686
690.0 2959 3758 4927 4962 7084 10000 6106 5348 5462 4260
730.0 2908 1599 803 350 202 133 111 111 98 105
770.0 82 90 73 75 74 59 65 42 75 98
810.0 182 268 377 578 774 941 1010 2203 2111 1995
850.0 2505 2405 1779 1840 1944 1350 701 402 204 145
890.0 74 68 50 72 103 87 93 123 146 134
930.0 134 120 101 73 41 32 25 41 43 59
970.0 79 95 105 123 134 137 141 133 138 131
1010.0 127 133 171 250 380 522 572 644 716 657
1050.0 606 512 345 272 228 264 258 273 293 291
1090.0 253 217 189 151 138 160 189 246 332 403
1130.0 401 430 579 756 908 1009 804 761 1023 865
1170.0 578 399 283 191 122 92 64 52 47 67
1210.0 94 177 403 870 1416 1545 1668 1682 1674 1344
1250.0 805 439 319 261 243 234 231 228 222 226
1290.0 188 156 144 144 134 125 108 102 95 85
1330.0 85 94 122 169 234 253 242 217 207 195
1370.0 171 162 149 158 166 211 277 399 622 1023
1410.0 1600 1946 1915 1785 1946 1869 1133 624 381 269
1450.0 176 126 115 111 124 127 130 124 122 115
1490.0 105 111 119 134 176 232 244 272 309 372
1530.0 462 557 645 601 488 461 491 397 225 151
1570.0 118 110 104 93 102 117 139 175 218 249
1610.0 241 207 239 205 153 102 87 73 66 67
1650.0 76 86 101 116 170 204 198 175 224 218
1690.0 155 131 151 163 169 174 219 225 256 310
1730.0 331 353 327 298 271 255 189 116 95 81
1770.0 86 75 75 71 87 105 153 202 251 258
1810.0 225 231 237 160 89 57 34 27 23 20
1850.0 17 12 10 7 9 8 12 9 15 16
1890.0 23 27 29 31 30 30 24 21 13 9
1930.0 10 7 7 7 8 5 2 2 2 0
1970.0 1 1 2 3 0 3 1 1 1 2
2010.0 3 2 5 3 6 6 5 6 8 8
2050.0 8 10 13 17 23 32 41 51 56 57
2090.0 57 53 49 46 39 36 35 32 28 19
2130.0 15 14 13 15 16 28 36 46 57 66
2170.0 67 66 59 60 61 70 83 107 146 210
2210.0 348 605 1017 1500 1894 2148 2198 2126 1733 1128
2250.0 462 130 64 57 59 71 70 74 68 63
2290.0 54 51 47 47 51 53 47 47 43 36
2330.0 41 32 36 23 35 34 51 47 47 52
2370.0 51 46 52 61 60 45 34 22 19 15
2410.0 16 22 24 23 25 25 29 31 31 36
2450.0 43 47 49 46 41 35 24 19 19 14
2490.0 12 15 17 20 20 17 16 14 9 7
2530.0 6 5 6 10 10 14 17 27 34 39
2570.0 43 43 42 37 25 15 6 2 1 2
2610.0 0 0 1 3 6 10 16 21 21 23
2650.0 23 22 30 36 39 42 41 39 38 27
2690.0 14 19 27 36 46 52 57 58 60 56
2730.0 46 46 47 44 41 42 38 32 28 22
2770.0 23 21 19 16 15 14 14 14 15 19
2810.0 23 32 41 50 60 60 66 65 58 50
2850.0 43 37 34 36 41 38 38 38 42 42
2890.0 42 45 46 50 53 63 67 72 79 78
2930.0 73 70 68 68 70 65 61 56 58 57
2970.0 59 63 65 57 49 38 38 38 41 46
3010.0 49 49 46 44 42 44 43 41 36 28
3050.0 24 24 19 25 27 35 46 79 139 221
3090.0 284 275 319 304 288 197 146 141 100 82
3130.0 96 76 50 28 22 21 14 8 9 7
3170.0 6 8 7 7 3 3 3 1 2 6
3210.0 6 3 8 5 1 0 1 1 6 5
3250.0 8 8 10 16 12 13 19 17 10 12
3290.0 8 9 6 8 8 10 7 5 10 7
3330.0 8 0 2 5 3 12 9 13 12 25
3370.0 29 34 36 46 47 42 37 29 22 19
3410.0 17 16 14 17 19 22 19 14 12 19
3450.0 15 12 15 13 10 16 13 16 21 17
3490.0 16 17 19 17 28 27 20 17 22 21
3530.0 22 24 23 29 27 25 24 27 29 36
3570.0 39 44 50 54 59 54 56 46 50 43
3610.0 46 46 42 34 31 49 52 64 85 85
3650.0 100 94 87 80 56 57 37 44 21 42
3690.0 38 36 28 35 29 28 29 30 28 31
3730.0 32 34 39 45 65 47 57 46 42 46
3770.0 42 38 38 52 44 52 44 52 51 56
3810.0 31 46 46 45 45 44 64 74 75 81
3850.0 96 111 89 82 59 61 41 25 25 31
3890.0 27 35 20 25 24 32 23 24 17 23
3930.0 31 41 60 52 61 71 80 85 82 78
##END=
