##TITLE=1H-Pyrrole-2-carboxaldehyde
##JCAMP-DX=4.24
##DATA TYPE=INFRARED SPECTRUM
##ORIGIN=Sadtler Research Labs Under US-EPA Contract
##OWNER=NIST Standard Reference Data Program
##CAS REGISTRY NO=1003-29-8
##MOLFORM=C 5 H 5 N O
##XUNITS=1/CM
##YUNITS=ABSORBANCE
##XFACTOR=1.0
##YFACTOR=0.000124210
##DELTAX=4.0
##FIRSTX=450.0
##LASTX=3966.0
##FIRSTY=0.000000
##MAXX=3966
##MINX=450
##MAXY=1.2421
##MINY=0
##NPOINTS=880
##XYDATA=(X++(Y..Y))
450.0 0 49 64 104 89 77 103 120 90 129
490.0 121 139 122 144 138 116 140 153 183 180
530.0 268 333 446 528 670 741 899 1145 1358 1366
570.0 1122 873 790 698 601 453 326 268 191 169
610.0 175 178 179 182 227 273 340 334 310 300
650.0 344 401 384 288 264 280 245 226 189 193
690.0 140 175 181 231 315 459 662 843 1166 1312
730.0 1529 1481 3139 3867 3065 3298 3288 3103 2978 2474
770.0 2097 1117 597 286 277 241 277 298 338 318
810.0 417 673 440 342 319 312 266 210 193 149
850.0 138 110 145 115 177 226 349 317 324 347
890.0 366 370 256 167 111 104 102 91 97 95
930.0 110 102 131 143 174 173 195 194 198 177
970.0 190 195 170 157 131 140 132 176 183 228
1010.0 264 366 649 1180 1632 1290 1478 1184 1359 1234
1050.0 672 394 342 460 758 1188 1420 1258 1266 1364
1090.0 1563 1261 859 636 551 529 474 395 444 556
1130.0 517 450 386 340 304 275 255 243 244 249
1170.0 256 251 249 258 269 267 253 240 228 217
1210.0 201 183 172 164 160 157 169 175 178 188
1250.0 188 219 241 303 408 629 934 1339 1715 1655
1290.0 1567 1543 1573 1283 640 270 138 113 107 104
1330.0 107 118 155 214 314 356 348 353 375 385
1370.0 392 327 343 415 529 671 895 1320 1890 2358
1410.0 2371 2424 2394 2437 2265 1463 945 755 625 578
1450.0 559 559 470 439 486 533 472 389 323 280
1490.0 247 195 157 130 127 110 124 127 145 185
1530.0 234 335 468 622 716 728 708 714 726 596
1570.0 366 218 162 145 150 148 160 172 204 218
1610.0 231 249 285 296 289 321 355 386 390 419
1650.0 482 615 876 1314 2542 4737 8186 8313 8666 8468
1690.0 8049 10000 6408 2991 1402 1038 966 939 845 807
1730.0 736 667 530 333 219 167 165 151 138 131
1770.0 136 135 151 155 155 154 150 142 121 108
1810.0 93 89 87 89 89 83 81 82 77 71
1850.0 71 67 63 62 70 77 96 102 96 105
1890.0 110 106 97 85 78 75 75 74 67 67
1930.0 63 58 59 53 52 54 52 51 54 55
1970.0 55 55 55 54 52 52 52 53 53 52
2010.0 55 53 55 54 60 68 76 82 82 86
2050.0 86 88 86 75 62 61 62 62 58 56
2090.0 54 58 58 60 66 68 66 69 68 66
2130.0 61 55 54 54 57 62 69 77 86 87
2170.0 92 90 89 86 81 69 65 65 63 63
2210.0 63 62 63 62 65 66 64 65 70 75
2250.0 74 75 74 71 69 68 69 68 76 82
2290.0 88 95 102 110 113 114 109 96 90 87
2330.0 70 63 60 72 71 99 83 87 85 89
2370.0 89 91 99 107 90 70 56 50 52 50
2410.0 49 50 51 53 61 68 80 85 88 89
2450.0 89 87 82 74 68 65 66 68 71 75
2490.0 78 82 83 84 88 88 88 90 93 97
2530.0 100 98 96 92 89 89 85 77 76 74
2570.0 77 73 71 74 75 78 76 75 73 76
2610.0 79 78 71 70 71 69 76 78 80 82
2650.0 85 87 95 99 104 109 113 126 143 166
2690.0 208 249 274 268 267 279 289 275 237 205
2730.0 180 170 164 173 179 193 210 235 259 270
2770.0 292 340 415 502 616 757 877 945 999 1102
2810.0 1249 1368 1388 1317 1192 1120 1126 1099 958 753
2850.0 595 479 390 316 263 221 191 174 159 150
2890.0 143 142 139 140 141 152 161 167 170 173
2930.0 165 155 155 150 146 149 147 148 150 148
2970.0 140 132 125 112 104 98 93 88 85 84
3010.0 85 88 89 90 93 100 110 106 107 108
3050.0 115 110 104 98 96 95 99 102 101 105
3090.0 107 111 125 136 154 170 179 185 191 191
3130.0 194 196 181 163 147 136 125 107 88 77
3170.0 69 69 69 66 68 69 71 71 69 72
3210.0 71 71 71 74 74 81 79 78 80 80
3250.0 75 72 72 69 69 66 71 76 79 79
3290.0 73 76 81 81 77 78 75 74 85 83
3330.0 91 101 121 141 148 150 149 142 152 128
3370.0 89 69 61 52 63 62 58 68 65 71
3410.0 77 77 66 74 79 89 96 114 148 183
3450.0 244 329 437 599 822 1051 1339 1811 2262 2206
3490.0 1769 1726 2108 1852 1209 744 478 324 230 152
3530.0 116 91 81 75 63 58 71 62 59 65
3570.0 60 59 66 63 73 58 66 61 63 57
3610.0 58 53 52 65 61 51 69 62 65 56
3650.0 49 56 60 67 65 61 53 69 65 67
3690.0 71 71 64 64 65 57 61 58 51 60
3730.0 62 50 57 56 69 48 57 54 60 65
3770.0 62 58 60 65 60 66 63 54 59 56
3810.0 58 59 58 53 70 65 55 56 62 68
3850.0 58 53 61 63 60 68 72 70 59 70
3890.0 69 61 58 58 78 79 63 72 72 63
3930.0 50 62 67 76 56 76 80 69 64 70
##END=
