##TITLE=Acetic acid, 2-ethylbutyl ester
##JCAMP-DX=4.24
##DATA TYPE=INFRARED SPECTRUM
##ORIGIN=Sadtler Research Labs Under US-EPA Contract
##OWNER=NIST Standard Reference Data Program
##CAS REGISTRY NO=10031-87-5
##MOLFORM=C 8 H 16 O 2
##XUNITS=1/CM
##YUNITS=ABSORBANCE
##XFACTOR=1.0
##YFACTOR=0.000174918
##DELTAX=4.0
##FIRSTX=450.0
##LASTX=3966.0
##FIRSTY=0.017317
##MAXX=3966
##MINX=450
##MAXY=1.74918
##MINY=0
##NPOINTS=880
##XYDATA=(X++(Y..Y))
450.0 99 107 90 112 76 110 112 132 123 146
490.0 121 142 120 75 105 67 96 83 86 99
530.0 71 133 132 75 116 83 46 98 100 95
570.0 99 87 107 99 96 107 174 191 214 244
610.0 231 241 196 228 192 170 200 243 255 187
650.0 120 169 101 73 60 5 76 27 61 45
690.0 34 31 37 27 33 35 20 30 20 40
730.0 36 39 28 52 67 77 91 87 109 123
770.0 148 165 175 167 115 98 90 84 87 97
810.0 107 118 124 128 130 135 143 140 153 165
850.0 184 180 179 176 173 174 182 190 201 217
890.0 219 215 218 222 228 231 230 213 197 176
930.0 179 201 229 251 267 281 290 301 306 299
970.0 280 264 262 263 269 291 323 374 462 587
1010.0 764 979 1233 1485 1725 1919 2051 2121 2102 1996
1050.0 1814 1580 1323 1096 904 786 722 673 628 571
1090.0 521 476 441 426 421 420 405 387 358 334
1130.0 302 281 271 270 277 290 302 310 324 326
1170.0 337 342 361 393 427 475 560 689 879 1151
1210.0 1559 2212 3273 4878 6866 8828 9895 10000 8533 6641
1250.0 4899 3548 2688 2197 1870 1593 1348 1130 940 780
1290.0 645 552 483 431 388 358 322 289 255 236
1330.0 229 221 231 244 264 327 460 746 1178 1576
1370.0 1799 1803 1593 1418 1400 1380 1243 1018 737 500
1410.0 361 298 274 258 261 270 294 319 355 415
1450.0 505 624 771 883 955 955 868 722 555 424
1490.0 327 253 213 186 179 174 160 154 153 140
1530.0 130 124 123 118 112 99 99 103 92 86
1570.0 82 79 75 69 65 66 66 67 61 63
1610.0 60 63 68 64 68 66 70 80 79 85
1650.0 91 96 92 92 98 98 106 108 118 131
1690.0 136 147 174 199 236 282 348 438 512 616
1730.0 741 917 1148 1496 2106 3069 4457 5761 6363 5947
1770.0 4753 3276 2174 1518 1123 856 710 596 495 409
1810.0 345 271 214 169 139 119 103 93 85 79
1850.0 68 66 60 59 58 56 54 50 53 48
1890.0 48 46 45 43 40 42 37 43 38 38
1930.0 34 37 36 35 34 29 30 29 29 25
1970.0 26 26 25 27 27 30 28 31 32 32
2010.0 32 30 28 27 25 23 26 20 24 30
2050.0 35 31 26 27 22 22 23 26 31 35
2090.0 35 36 38 38 39 38 42 38 38 38
2130.0 37 36 35 34 34 33 31 30 26 27
2170.0 23 20 23 19 19 17 18 17 20 20
2210.0 19 18 17 18 14 14 14 16 14 15
2250.0 15 15 15 15 16 15 18 17 15 14
2290.0 15 15 12 14 10 11 10 9 13 14
2330.0 11 9 14 13 19 9 13 9 8 6
2370.0 14 13 9 12 14 15 18 16 19 19
2410.0 21 17 20 17 19 17 17 17 19 19
2450.0 20 23 23 24 26 26 24 26 24 21
2490.0 17 16 17 11 13 13 8 7 5 4
2530.0 3 3 4 4 6 6 6 8 11 9
2570.0 12 9 12 13 16 20 23 30 34 34
2610.0 34 37 36 39 37 35 33 33 33 31
2650.0 28 30 42 48 43 42 32 21 20 22
2690.0 23 28 38 46 47 46 48 52 50 54
2730.0 59 60 68 72 83 83 85 80 79 72
2770.0 69 74 72 71 78 81 81 88 93 99
2810.0 109 114 128 135 152 169 184 214 249 294
2850.0 351 439 560 744 969 1204 1409 1582 1735 1813
2890.0 1824 1745 1586 1453 1403 1443 1541 1706 1905 2149
2930.0 2422 2682 2905 3058 3015 2913 2787 2811 3132 3768
2970.0 4433 4496 4011 3122 2153 1441 992 722 540 416
3010.0 350 310 283 258 244 233 229 213 200 195
3050.0 185 182 174 166 152 148 146 129 127 110
3090.0 114 95 94 89 83 74 68 72 71 65
3130.0 63 58 50 50 50 53 57 49 48 51
3170.0 53 49 43 48 51 40 32 31 29 24
3210.0 22 25 26 30 27 25 23 12 23 20
3250.0 10 19 15 9 20 16 29 17 14 12
3290.0 14 9 10 11 15 10 18 12 12 3
3330.0 14 11 11 18 9 12 15 13 23 11
3370.0 4 15 22 14 19 20 17 20 11 17
3410.0 14 19 24 26 23 7 12 23 17 22
3450.0 14 5 27 21 28 14 27 25 23 36
3490.0 40 45 50 57 54 54 56 37 28 35
3530.0 12 8 10 5 12 18 8 19 27 34
3570.0 35 28 39 51 42 27 44 39 28 27
3610.0 26 26 17 17 21 26 25 18 27 14
3650.0 34 24 30 52 34 48 50 34 38 26
3690.0 35 26 28 32 13 31 37 24 15 15
3730.0 10 32 30 24 13 22 22 26 35 26
3770.0 21 26 30 27 37 31 19 31 17 27
3810.0 28 30 31 25 27 26 21 16 15 20
3850.0 30 4 15 27 23 34 30 46 14 26
3890.0 40 28 34 29 45 39 32 26 20 21
3930.0 43 37 18 27 51 25 0 49 24 49
##END=
