##TITLE=Pyridine, 3-methyl-, 1-oxide
##JCAMP-DX=4.24
##DATA TYPE=INFRARED SPECTRUM
##ORIGIN=Sadtler Research Labs Under US-EPA Contract
##OWNER=NIST Standard Reference Data Program
##CAS REGISTRY NO=1003-73-2
##MOLFORM=C 6 H 7 N O
##XUNITS=1/CM
##YUNITS=ABSORBANCE
##XFACTOR=1.0
##YFACTOR=0.000110123
##DELTAX=4.0
##FIRSTX=450.0
##LASTX=3966.0
##FIRSTY=0.018831
##MAXX=3966
##MINX=450
##MAXY=1.10123
##MINY=0
##NPOINTS=880
##XYDATA=(X++(Y..Y))
450.0 171 229 300 233 107 261 187 209 317 478
490.0 548 445 483 621 562 388 294 209 191 218
530.0 207 210 329 505 755 731 717 712 766 582
570.0 348 236 163 140 122 124 125 102 119 122
610.0 139 149 189 191 187 201 242 287 338 465
650.0 628 841 996 1082 1180 2626 1847 1262 1084 944
690.0 749 593 401 382 418 504 331 289 351 339
730.0 400 457 689 694 873 1049 1336 1648 1850 2052
770.0 2287 3679 2920 1955 1922 1287 932 481 194 32
810.0 9 38 53 133 212 283 358 450 610 802
850.0 656 628 715 712 736 953 1048 605 581 520
890.0 417 319 222 194 159 174 168 190 195 242
930.0 300 387 451 475 479 450 430 359 296 283
970.0 296 330 370 455 567 807 1213 1926 2828 3541
1010.0 3764 3925 3788 3503 2425 1421 738 389 267 199
1050.0 184 182 176 176 155 152 141 141 119 126
1090.0 111 109 91 113 178 225 280 304 336 344
1130.0 368 445 713 1284 1988 2598 3023 3460 4239 4611
1170.0 4343 3762 3161 3129 2560 1469 827 636 569 570
1210.0 593 599 567 577 630 658 582 504 464 437
1250.0 408 376 355 349 513 798 1217 1830 2657 3482
1290.0 4092 4855 5994 7911 9512 10000 9627 9345 8885 8038
1330.0 5398 2690 1328 836 640 545 455 402 383 390
1370.0 408 464 526 579 601 634 728 873 1082 1455
1410.0 2036 2803 3607 4225 4496 4629 4635 4292 3679 3076
1450.0 2836 2883 2901 3021 3246 3654 3622 3303 2865 2652
1490.0 2406 1911 1465 1302 1317 1321 1269 1244 1255 1254
1530.0 1252 1217 1287 1364 1460 1514 1552 1577 1691 1705
1570.0 1608 1501 1603 1912 2456 3201 3842 4269 4292 4080
1610.0 3616 2893 2014 1202 745 539 461 396 367 343
1650.0 330 306 305 265 273 263 272 268 287 296
1690.0 301 323 377 419 448 457 451 449 425 387
1730.0 330 290 229 202 196 197 223 205 218 210
1770.0 226 196 197 193 207 190 213 215 218 228
1810.0 217 208 197 186 163 148 124 104 78 81
1850.0 70 73 71 79 79 86 103 116 148 168
1890.0 200 218 229 225 226 217 180 146 113 87
1930.0 76 65 58 51 56 50 53 47 47 35
1970.0 27 20 15 10 8 5 4 3 0 2
2010.0 0 1 2 6 8 11 12 15 15 20
2050.0 24 31 33 35 31 33 30 24 11 9
2090.0 12 11 13 15 16 14 12 12 7 4
2130.0 7 3 5 2 4 4 4 4 11 11
2170.0 10 14 12 16 14 13 12 12 10 10
2210.0 7 9 14 19 19 24 30 35 38 47
2250.0 50 51 53 56 53 50 50 54 60 69
2290.0 80 91 106 118 123 131 124 118 122 111
2330.0 97 99 102 106 127 136 139 128 122 121
2370.0 135 139 154 159 139 113 105 103 109 114
2410.0 118 123 127 127 127 126 122 113 101 100
2450.0 103 110 116 126 134 150 163 177 181 172
2490.0 156 140 123 94 62 45 35 32 30 29
2530.0 30 32 36 36 38 41 44 50 55 64
2570.0 71 80 90 95 106 122 137 148 154 159
2610.0 163 170 167 158 141 129 117 101 83 61
2650.0 44 38 35 37 35 38 37 35 33 35
2690.0 42 40 40 42 46 48 54 59 65 73
2730.0 84 94 110 125 134 148 152 150 149 133
2770.0 113 100 88 81 74 67 63 61 61 63
2810.0 66 66 69 73 76 80 89 97 110 129
2850.0 155 189 233 303 379 451 500 534 547 539
2890.0 509 472 452 446 471 520 585 681 815 990
2930.0 1136 1222 1246 1237 1178 1051 876 702 583 529
2970.0 546 549 527 535 534 539 550 559 574 587
3010.0 616 654 698 738 780 804 841 871 921 935
3050.0 919 870 796 739 691 653 598 547 524 481
3090.0 449 454 444 388 327 271 239 209 176 150
3130.0 125 104 80 71 58 55 53 49 50 43
3170.0 40 35 41 33 30 32 33 31 29 29
3210.0 29 28 28 29 24 29 28 28 28 31
3250.0 34 29 30 27 27 29 25 29 27 22
3290.0 26 24 25 22 24 24 21 24 26 23
3330.0 22 18 21 20 21 17 19 20 22 17
3370.0 19 21 9 15 20 14 17 17 17 15
3410.0 12 18 16 17 18 16 18 18 17 18
3450.0 15 9 14 13 12 14 22 18 19 12
3490.0 12 19 11 21 20 12 21 10 16 18
3530.0 15 11 16 19 32 25 34 28 26 50
3570.0 40 33 35 46 50 46 60 25 43 26
3610.0 55 24 23 23 20 50 26 13 29 19
3650.0 40 19 24 34 6 48 15 42 4 31
3690.0 26 24 20 24 18 15 17 20 21 27
3730.0 23 35 33 12 70 10 42 17 8 22
3770.0 19 26 13 28 9 23 15 28 13 42
3810.0 3 28 18 29 23 15 20 40 31 26
3850.0 41 53 37 29 36 34 33 22 27 42
3890.0 9 38 25 53 33 38 29 37 31 21
3930.0 33 25 37 32 31 18 31 19 38 28
##END=
