##TITLE=1H-Imidazole-2-carboxaldehyde, 1-(phenylmethyl)-
##JCAMP-DX=4.24
##DATA TYPE=INFRARED SPECTRUM
##ORIGIN=Sadtler Research Labs Under US-EPA Contract
##OWNER=NIST Standard Reference Data Program
##CAS REGISTRY NO=10045-65-5
##MOLFORM=C 11 H 10 N 2 O
##XUNITS=1/CM
##YUNITS=ABSORBANCE
##XFACTOR=1.0
##YFACTOR=0.000039655
##DELTAX=4.0
##FIRSTX=450.0
##LASTX=3966.0
##FIRSTY=0.008605
##MAXX=3966
##MINX=450
##MAXY=0.39655
##MINY=0
##NPOINTS=880
##XYDATA=(X++(Y..Y))
450.0 217 272 273 359 353 130 207 231 148 97
490.0 149 148 132 145 162 218 193 123 98 97
530.0 131 113 104 138 99 100 114 137 132 110
570.0 185 268 265 246 164 141 123 100 133 138
610.0 203 245 327 318 291 261 243 182 176 276
650.0 404 584 677 695 560 679 616 821 1102 1475
690.0 1890 2267 2712 3217 3756 4228 4515 4423 3964 3300
730.0 2520 1787 1354 1157 1204 1684 2593 4133 5783 6369
770.0 6084 4901 3027 1869 1237 889 781 855 1005 1045
810.0 1024 888 683 533 405 313 207 149 133 117
850.0 135 191 253 256 154 92 26 40 46 72
890.0 152 296 429 463 490 403 339 286 171 69
930.0 33 8 19 32 47 51 62 58 55 53
970.0 36 19 25 27 36 57 61 107 128 142
1010.0 186 269 514 914 1195 1196 944 492 211 135
1050.0 145 198 317 580 1110 1631 1697 1534 1013 501
1090.0 331 317 364 421 490 505 447 356 266 202
1130.0 180 235 314 359 381 374 375 388 394 368
1170.0 306 258 253 283 296 320 335 325 313 322
1210.0 356 461 688 1093 1590 1960 2052 1846 1450 1083
1250.0 868 791 821 921 1090 1384 1808 2223 2423 2366
1290.0 1992 1505 1086 787 574 445 362 344 412 590
1330.0 878 1220 1385 1476 1475 1436 1468 1454 1317 1136
1370.0 945 826 749 726 749 857 1067 1454 2139 2999
1410.0 3704 3866 3488 2627 1753 1285 1260 1505 1895 2232
1450.0 2334 2291 2097 1973 2041 2277 2405 2283 2003 1823
1490.0 2038 2599 2977 3052 2620 1864 1368 924 676 536
1530.0 449 361 320 256 199 175 167 162 206 268
1570.0 316 338 323 252 215 216 245 314 407 492
1610.0 533 529 476 359 262 175 123 109 107 122
1650.0 148 199 245 305 391 509 690 885 1170 1770
1690.0 2948 5098 8114 9976 10000 8308 4836 2422 1284 870
1730.0 729 655 568 487 394 326 300 259 229 216
1770.0 206 174 124 103 92 122 163 190 177 159
1810.0 110 76 47 29 8 6 0 0 3 6
1850.0 19 29 37 46 53 55 72 71 67 56
1890.0 41 21 17 16 14 24 33 37 54 60
1930.0 68 86 100 117 128 137 140 139 128 103
1970.0 68 45 31 31 28 24 29 31 34 32
2010.0 25 19 19 16 11 10 12 12 4 8
2050.0 14 10 12 7 11 13 18 15 13 18
2090.0 12 18 17 18 14 20 19 22 23 25
2130.0 23 22 27 31 32 31 35 33 41 42
2170.0 54 56 59 68 62 57 55 51 54 47
2210.0 50 40 41 31 30 29 29 30 32 33
2250.0 41 40 47 49 42 46 56 62 62 78
2290.0 88 105 123 139 147 166 177 146 161 138
2330.0 123 95 112 119 161 167 185 138 142 107
2370.0 100 112 131 136 88 45 43 39 38 32
2410.0 30 29 33 33 28 27 18 16 13 12
2450.0 12 20 24 24 19 24 25 26 21 22
2490.0 27 25 22 20 27 25 28 33 32 35
2530.0 40 43 44 51 47 54 69 76 83 85
2570.0 94 87 79 72 65 59 47 39 51 46
2610.0 48 48 47 48 48 48 57 65 60 66
2650.0 71 78 74 78 90 89 91 84 80 83
2690.0 86 94 89 86 85 93 97 109 120 136
2730.0 150 160 170 185 184 188 179 163 140 134
2770.0 130 138 149 162 179 200 227 251 274 291
2810.0 309 320 343 410 531 733 1029 1405 1772 2041
2850.0 2065 1826 1487 1161 919 754 631 529 467 414
2890.0 368 335 323 320 332 358 385 431 491 575
2930.0 687 804 888 966 1001 1001 938 825 688 554
2970.0 444 350 293 258 236 235 239 260 272 298
3010.0 325 390 477 624 823 1083 1346 1524 1536 1372
3050.0 1119 899 801 869 1101 1447 1671 1667 1484 1164
3090.0 943 847 785 725 695 689 696 697 654 560
3130.0 457 348 294 260 234 206 160 120 94 82
3170.0 68 69 69 64 56 45 44 37 31 30
3210.0 28 26 22 17 21 24 31 23 24 18
3250.0 28 21 19 18 20 19 20 29 17 24
3290.0 21 34 26 26 30 24 22 26 27 10
3330.0 14 27 29 19 34 40 27 28 33 37
3370.0 42 44 73 103 117 112 82 58 39 28
3410.0 27 31 36 24 19 48 50 40 40 23
3450.0 27 45 42 33 33 35 30 45 24 23
3490.0 27 40 46 40 28 31 28 35 45 31
3530.0 43 44 53 28 37 36 34 53 39 37
3570.0 45 56 58 63 55 63 69 63 51 39
3610.0 33 36 40 43 66 36 62 57 55 56
3650.0 49 61 45 56 56 43 64 60 45 36
3690.0 50 81 46 36 65 57 49 62 72 73
3730.0 55 48 27 39 42 54 40 51 21 34
3770.0 43 73 55 31 22 45 40 54 37 44
3810.0 49 37 56 68 33 34 75 54 38 44
3850.0 44 65 67 59 60 57 45 66 63 24
3890.0 53 51 44 45 45 45 60 58 74 14
3930.0 54 35 55 57 52 63 71 18 28 67
##END=
