##TITLE=Nicotinamide, N,N-dipropyl-,
##JCAMP-DX=4.24
##DATA TYPE=INFRARED SPECTRUM
##ORIGIN=Sadtler Research Labs Under US-EPA Contract
##OWNER=NIST Standard Reference Data Program
##CAS REGISTRY NO=10052-09-2
##MOLFORM=C 12 H 18 N 2 O
##XUNITS=1/CM
##YUNITS=ABSORBANCE
##XFACTOR=1.0
##YFACTOR=0.000117886
##DELTAX=4.0
##FIRSTX=450.0
##LASTX=3966.0
##FIRSTY=0.000000
##MAXX=3966
##MINX=450
##MAXY=1.17886
##MINY=0
##NPOINTS=880
##XYDATA=(X++(Y..Y))
450.0 0 68 291 203 197 308 184 167 135 81
490.0 295 95 256 35 329 133 250 182 246 250
530.0 192 76 165 160 198 167 133 118 84 244
570.0 260 213 227 217 227 258 217 243 218 198
610.0 218 252 289 265 230 198 215 224 244 266
650.0 262 242 213 221 286 395 397 366 290 266
690.0 268 295 411 673 978 1197 1160 1046 861 744
730.0 657 659 703 1049 1193 763 557 468 381 320
770.0 397 288 358 363 336 316 287 289 378 460
810.0 662 766 771 568 399 317 225 210 252 271
850.0 192 244 217 264 207 181 280 331 330 325
890.0 461 462 480 423 372 307 258 274 242 268
930.0 257 274 301 307 321 308 288 274 242 202
970.0 164 164 172 144 165 168 170 176 172 221
1010.0 290 499 870 1141 1114 825 495 345 304 289
1050.0 295 292 322 376 459 565 726 904 1116 1403
1090.0 1763 2294 2802 3002 2733 2115 1548 1108 833 635
1130.0 466 341 283 242 251 230 231 236 230 275
1170.0 328 442 520 568 556 562 606 702 809 808
1210.0 726 625 512 411 389 412 452 496 632 834
1250.0 1172 1547 1856 1975 1846 1650 1557 1609 1615 1633
1290.0 1642 1740 1880 2001 1973 1822 1646 1530 1425 1272
1330.0 1114 1030 1103 1197 1231 1221 1206 1225 1328 1365
1370.0 1409 1511 1538 1597 1683 1681 1809 2140 2762 3710
1410.0 4373 4497 4225 3469 2850 2218 1772 1575 1407 1396
1450.0 1466 1579 1844 1960 1895 1833 1733 1518 1223 1043
1490.0 905 723 680 585 639 649 487 539 573 435
1530.0 438 379 473 517 473 402 412 619 584 580
1570.0 635 647 755 914 1183 1264 1144 754 476 447
1610.0 440 477 563 600 687 738 819 1005 1145 1632
1650.0 2596 4084 6947 8917 10000 9765 6326 3681 2335 1509
1690.0 1087 857 826 757 637 511 484 505 349 272
1730.0 308 348 285 248 279 282 240 222 228 189
1770.0 232 241 166 168 161 154 186 140 165 118
1810.0 108 127 80 110 121 137 114 88 128 154
1850.0 118 86 99 98 116 153 109 106 105 113
1890.0 110 117 114 133 148 151 138 129 128 112
1930.0 108 110 104 109 97 73 80 89 80 93
1970.0 75 64 56 54 56 69 70 54 52 51
2010.0 52 54 63 60 57 52 55 57 59 62
2050.0 54 58 56 56 63 52 51 49 48 49
2090.0 47 46 42 43 44 44 46 48 47 50
2130.0 49 51 50 49 51 50 52 52 53 54
2170.0 53 52 55 53 56 54 57 56 56 57
2210.0 54 53 53 52 49 47 47 47 42 43
2250.0 41 44 42 43 38 38 39 38 36 36
2290.0 38 40 41 37 40 41 35 35 35 36
2330.0 35 35 35 35 41 45 53 50 38 57
2370.0 54 62 64 62 66 64 64 64 66 71
2410.0 72 68 63 59 60 58 56 54 56 52
2450.0 51 52 50 50 50 49 51 50 51 52
2490.0 52 53 56 55 59 60 54 58 59 55
2530.0 53 52 55 52 51 54 52 54 53 54
2570.0 54 51 56 54 55 57 58 62 62 64
2610.0 69 65 61 61 58 60 58 60 60 60
2650.0 65 67 71 70 72 71 73 78 79 78
2690.0 78 73 74 77 82 82 87 101 97 105
2730.0 112 115 123 127 131 127 125 126 121 118
2770.0 118 116 122 121 128 132 143 144 153 163
2810.0 175 181 195 202 215 237 255 278 295 322
2850.0 357 399 465 568 719 932 1193 1511 1858 2063
2890.0 1988 1712 1420 1243 1209 1247 1340 1465 1621 1838
2930.0 2074 2305 2519 2691 2694 2493 2216 2108 2406 3110
2970.0 3961 4621 4614 3874 2843 1961 1379 1020 799 662
3010.0 589 560 528 516 536 619 741 866 912 883
3050.0 853 845 793 650 480 372 350 407 513 585
3090.0 557 432 294 199 163 151 142 145 140 134
3130.0 137 136 130 126 116 103 97 93 84 93
3170.0 88 95 90 83 80 79 74 71 66 70
3210.0 71 69 65 57 56 60 58 55 59 58
3250.0 60 61 61 54 62 55 60 57 60 65
3290.0 70 78 84 100 118 121 128 121 104 95
3330.0 78 72 72 59 56 57 50 50 52 56
3370.0 53 47 44 43 48 52 50 53 50 43
3410.0 48 49 45 50 52 51 50 65 46 50
3450.0 52 53 45 52 45 55 61 64 53 57
3490.0 54 50 53 59 48 53 46 50 54 56
3530.0 54 50 43 60 49 56 56 59 53 75
3570.0 57 52 51 51 54 71 63 48 65 35
3610.0 59 59 67 56 64 57 65 47 53 60
3650.0 84 74 59 61 44 90 66 107 53 57
3690.0 71 76 47 44 59 61 79 60 60 69
3730.0 54 89 84 82 102 58 88 38 73 67
3770.0 55 61 42 79 63 45 45 62 76 77
3810.0 69 72 47 108 61 55 81 80 81 68
3850.0 80 68 74 64 70 82 55 79 46 103
3890.0 61 87 59 82 92 64 66 74 80 70
3930.0 80 64 77 65 94 97 47 55 82 93
##END=
