##TITLE=Morpholine, 2,6-dimethyl-4-isopentyl-,
##JCAMP-DX=4.24
##DATA TYPE=INFRARED SPECTRUM
##ORIGIN=Sadtler Research Labs Under US-EPA Contract
##OWNER=NIST Standard Reference Data Program
##CAS REGISTRY NO=10056-30-1
##MOLFORM=C 11 H 23 N O
##XUNITS=1/CM
##YUNITS=ABSORBANCE
##XFACTOR=1.0
##YFACTOR=0.000064087
##DELTAX=4.0
##FIRSTX=450.0
##LASTX=3966.0
##FIRSTY=0.018777
##MAXX=3966
##MINX=450
##MAXY=0.64087
##MINY=0
##NPOINTS=880
##XYDATA=(X++(Y..Y))
450.0 293 140 0 454 356 190 93 146 229 183
490.0 335 569 543 377 223 219 234 308 311 306
530.0 397 337 311 215 162 176 195 258 308 269
570.0 212 221 208 200 214 214 196 236 219 170
610.0 99 270 183 102 150 119 80 73 119 31
650.0 79 190 120 139 135 231 155 116 59 125
690.0 175 145 108 66 41 114 66 67 124 148
730.0 55 60 119 211 210 196 238 115 138 113
770.0 119 241 191 165 213 239 408 479 417 359
810.0 497 546 451 492 508 481 581 604 738 714
850.0 637 608 574 460 490 578 647 774 778 804
890.0 738 574 458 443 398 386 411 446 496 456
930.0 426 445 395 436 411 376 414 443 576 650
970.0 736 721 651 576 546 529 493 497 526 649
1010.0 760 808 781 818 1003 1328 1693 1878 1847 1624
1050.0 1255 1026 956 1154 1622 2461 3644 4829 5339 4778
1090.0 3567 2547 1963 1752 1670 1604 1794 1952 2253 2677
1130.0 3141 3348 3596 4128 4989 5820 6087 5623 4762 3719
1170.0 2792 2077 1547 1190 904 735 579 492 472 461
1210.0 505 654 911 1248 1465 1497 1360 1150 994 913
1250.0 892 880 845 807 769 796 890 985 1032 1012
1290.0 911 831 797 843 946 1107 1379 1799 2350 2483
1330.0 2065 1636 1394 1270 1243 1260 1334 1507 1794 2214
1370.0 2676 3181 3318 3007 2577 2076 1703 1491 1336 1116
1410.0 794 563 437 412 384 408 504 679 922 1207
1450.0 1534 1812 1966 2172 2178 2040 1666 1183 750 471
1490.0 360 295 244 216 196 200 117 149 139 132
1530.0 107 99 142 130 106 79 105 129 147 88
1570.0 95 98 97 91 74 69 102 66 93 81
1610.0 68 101 92 106 66 98 88 103 91 82
1650.0 136 133 139 65 113 104 110 91 101 117
1690.0 93 92 136 162 141 142 142 154 124 79
1730.0 116 103 129 77 90 97 90 96 99 95
1770.0 98 110 82 73 79 76 83 78 57 76
1810.0 73 67 64 56 60 64 52 66 48 66
1850.0 40 47 49 43 58 44 55 45 48 51
1890.0 54 46 52 55 57 63 59 73 63 67
1930.0 68 59 58 49 59 52 52 49 50 47
1970.0 50 51 49 48 54 51 62 61 55 57
2010.0 54 49 40 45 44 43 41 40 39 35
2050.0 40 38 43 40 39 35 38 28 33 34
2090.0 28 36 35 33 33 29 24 24 23 23
2130.0 24 22 26 22 31 28 25 28 25 30
2170.0 30 34 33 26 25 25 30 41 32 30
2210.0 33 37 35 31 33 34 34 32 29 35
2250.0 43 44 47 49 47 42 41 39 35 33
2290.0 28 27 29 28 25 22 16 20 40 48
2330.0 31 26 27 37 35 20 28 33 36 18
2370.0 47 31 26 36 36 35 32 32 37 41
2410.0 40 46 37 34 32 32 28 31 33 37
2450.0 44 45 40 48 51 52 50 50 51 52
2490.0 53 60 54 56 61 65 67 64 69 68
2530.0 70 78 84 82 79 89 90 91 100 104
2570.0 117 121 135 145 148 163 167 182 191 209
2610.0 237 264 288 321 346 361 375 378 370 371
2650.0 367 360 356 357 363 381 403 427 465 488
2690.0 512 547 591 635 691 752 809 891 972 1065
2730.0 1153 1233 1317 1390 1479 1553 1637 1760 1940 2200
2770.0 2526 2849 3114 3254 3299 3368 3511 3694 3903 4095
2810.0 4238 4147 3779 3196 2593 2090 1741 1549 1484 1542
2850.0 1733 2075 2583 3246 4013 4826 5459 5692 5596 5200
2890.0 4615 4054 3667 3530 3677 4029 4462 4936 5496 6289
2930.0 7366 8456 9126 9247 8831 8307 7979 8277 9278 10000
2970.0 9751 8654 7575 6951 6529 5583 4000 2210 1160 708
3010.0 502 412 357 301 277 245 236 215 213 200
3050.0 190 193 169 171 177 174 176 181 188 180
3090.0 181 187 181 171 175 170 166 178 170 169
3130.0 170 178 178 178 178 169 167 166 170 165
3170.0 176 182 176 175 178 171 163 163 138 130
3210.0 123 102 104 81 82 80 76 63 67 71
3250.0 53 62 60 51 52 70 61 58 64 54
3290.0 66 65 55 61 61 61 69 67 67 66
3330.0 64 76 61 59 63 79 74 63 66 60
3370.0 70 65 64 59 66 57 55 51 59 49
3410.0 46 48 45 48 54 49 55 57 55 36
3450.0 42 52 39 39 54 59 71 51 51 49
3490.0 36 52 56 43 40 42 56 47 43 38
3530.0 31 42 50 41 40 32 54 28 54 39
3570.0 47 52 40 45 28 29 35 36 36 42
3610.0 41 46 67 34 43 54 40 52 43 34
3650.0 54 57 59 32 61 55 88 49 44 63
3690.0 67 82 32 72 77 58 55 32 38 32
3730.0 45 65 42 60 76 85 85 52 60 82
3770.0 81 42 66 68 52 62 61 49 97 69
3810.0 75 56 90 87 76 65 86 76 65 87
3850.0 42 109 41 50 39 81 76 91 57 52
3890.0 70 93 46 94 80 96 59 84 48 71
3930.0 46 102 38 23 95 95 116 93 110 100
##END=
