##TITLE=Benzothiazole, 5-chloro-2-methyl-
##JCAMP-DX=4.24
##DATA TYPE=INFRARED SPECTRUM
##ORIGIN=Sadtler Research Labs Under US-EPA Contract
##OWNER=NIST Standard Reference Data Program
##CAS REGISTRY NO=1006-99-1
##MOLFORM=C 8 H 6 Cl N S
##XUNITS=1/CM
##YUNITS=ABSORBANCE
##XFACTOR=1.0
##YFACTOR=0.000051840
##DELTAX=4.0
##FIRSTX=450.0
##LASTX=3966.0
##FIRSTY=0.000000
##MAXX=3966
##MINX=450
##MAXY=0.5184
##MINY=0
##NPOINTS=880
##XYDATA=(X++(Y..Y))
450.0 0 32 105 130 77 117 92 231 316 485
490.0 428 414 183 128 139 201 297 290 439 582
530.0 522 408 288 192 133 112 25 134 145 294
570.0 418 923 1152 1186 948 337 214 280 436 546
610.0 901 1087 895 907 899 1058 1410 2005 2018 1927
650.0 1785 1034 492 314 192 629 1319 1359 1365 830
690.0 124 167 207 230 236 183 168 179 248 394
730.0 729 861 840 709 321 120 45 44 50 67
770.0 85 173 370 789 1541 2242 3089 4245 3094 2314
810.0 1659 833 428 240 178 140 91 139 61 127
850.0 132 297 509 958 1488 1932 2576 2433 1661 1374
890.0 1013 1267 2800 4780 5515 5292 3200 1543 917 471
930.0 321 234 212 227 259 332 365 440 456 504
970.0 575 680 780 935 1142 1368 1435 1336 1091 789
1010.0 568 457 380 371 362 428 538 623 729 861
1050.0 1037 1285 1690 2693 5346 7820 8226 6957 3105 974
1090.0 538 365 389 444 548 562 498 400 373 482
1130.0 692 1076 1746 2390 2632 2917 2742 2628 3132 3818
1170.0 4491 4428 4258 3553 2232 1264 684 358 236 186
1210.0 204 256 323 405 430 447 448 622 973 1208
1250.0 1260 1016 639 407 316 318 388 567 841 1148
1290.0 1321 1338 1277 951 602 405 304 295 278 280
1330.0 263 255 261 267 260 264 285 333 393 457
1370.0 547 662 728 822 919 1075 1389 1667 1740 1702
1410.0 1604 1585 1649 1826 2546 4663 8062 10000 9262 6548
1450.0 2724 1156 953 912 933 905 837 746 681 704
1490.0 801 911 1080 1253 1515 1978 2672 3773 4958 5944
1530.0 6393 6006 5309 4505 3729 3197 2362 1420 759 553
1570.0 511 593 776 1007 1245 1386 1417 1365 1192 975
1610.0 764 551 434 304 255 208 237 247 251 253
1650.0 259 231 182 123 101 90 90 53 78 77
1690.0 75 90 149 162 187 214 276 372 435 517
1730.0 548 580 505 473 453 414 359 272 212 166
1770.0 176 158 151 148 158 149 154 146 157 149
1810.0 139 133 105 91 78 79 80 79 96 129
1850.0 142 180 243 308 362 348 305 234 149 92
1890.0 62 50 44 37 39 38 38 44 50 42
1930.0 44 44 45 41 48 49 52 53 56 60
1970.0 59 55 46 45 37 46 41 39 39 49
2010.0 47 63 69 61 62 57 57 52 53 50
2050.0 59 61 56 61 49 50 47 46 37 42
2090.0 37 30 31 30 36 35 51 52 56 55
2130.0 56 63 61 55 59 57 55 61 66 71
2170.0 73 67 63 53 51 43 39 39 47 44
2210.0 49 43 42 44 54 49 46 44 41 44
2250.0 39 40 31 37 37 43 44 39 53 58
2290.0 61 62 69 65 71 71 76 84 87 88
2330.0 84 85 72 85 66 84 109 93 83 77
2370.0 75 84 87 71 75 83 86 81 75 84
2410.0 77 79 83 91 93 99 102 100 99 93
2450.0 96 90 97 100 96 90 95 93 89 88
2490.0 86 83 78 84 77 86 89 96 97 96
2530.0 99 96 96 104 104 110 117 103 84 78
2570.0 67 80 74 82 75 72 68 66 70 76
2610.0 78 74 68 66 55 45 49 54 61 70
2650.0 65 73 68 84 90 86 93 93 100 106
2690.0 108 108 106 99 102 90 91 79 75 78
2730.0 82 76 83 81 82 76 77 86 82 89
2770.0 78 84 83 73 70 71 78 77 81 86
2810.0 105 109 129 147 167 174 177 171 173 184
2850.0 209 265 329 402 414 384 329 272 244 232
2890.0 228 219 231 236 241 243 254 279 329 456
2930.0 716 1185 1496 1503 1213 741 466 398 372 386
2970.0 382 378 359 332 303 278 269 254 253 260
3010.0 273 276 296 305 307 322 330 334 325 308
3050.0 300 313 354 422 509 582 617 593 544 491
3090.0 415 351 306 244 201 173 139 141 129 117
3130.0 98 95 86 78 70 72 62 54 59 60
3170.0 44 60 57 63 55 59 59 57 57 59
3210.0 56 56 66 61 48 65 52 46 44 48
3250.0 46 49 42 46 43 43 43 44 50 39
3290.0 38 49 41 44 53 41 44 46 42 47
3330.0 44 49 44 47 59 41 39 34 63 41
3370.0 43 32 56 39 50 37 51 36 53 50
3410.0 51 60 50 67 48 49 48 63 64 49
3450.0 67 53 52 63 56 50 60 68 61 51
3490.0 48 56 46 55 71 68 59 55 86 66
3530.0 46 59 64 66 75 77 59 51 59 83
3570.0 74 65 67 84 99 79 71 50 52 64
3610.0 77 62 64 61 78 67 60 53 86 64
3650.0 68 39 58 61 68 87 45 66 68 58
3690.0 55 57 46 68 73 86 62 76 63 61
3730.0 66 99 72 66 91 75 58 68 52 72
3770.0 85 77 55 77 51 46 60 65 35 72
3810.0 59 91 53 76 90 49 66 94 64 54
3850.0 73 99 76 53 73 64 61 55 33 65
3890.0 30 74 52 85 56 45 47 64 39 36
3930.0 65 71 72 44 57 48 71 91 83 86
##END=
