##TITLE=1-Phenyl-2-butanone
##JCAMP-DX=4.24
##DATA TYPE=INFRARED SPECTRUM
##ORIGIN=Sadtler Research Labs Under US-EPA Contract
##OWNER=NIST Standard Reference Data Program
##CAS REGISTRY NO=1007-32-5
##MOLFORM=C 10 H 12 O
##XUNITS=1/CM
##YUNITS=ABSORBANCE
##XFACTOR=1.0
##YFACTOR=0.000053745
##DELTAX=4.0
##FIRSTX=450.0
##LASTX=3966.0
##FIRSTY=0.014887
##MAXX=3966
##MINX=450
##MAXY=0.53745
##MINY=0
##NPOINTS=880
##XYDATA=(X++(Y..Y))
450.0 277 140 279 254 227 364 317 258 173 127
490.0 138 102 131 175 210 272 350 380 402 376
530.0 301 262 270 245 255 249 246 230 253 298
570.0 313 340 315 311 334 307 274 237 268 354
610.0 424 462 479 438 378 349 323 266 243 231
650.0 212 199 191 243 230 346 462 611 941 1465
690.0 2335 3091 3760 3580 3088 2383 1997 1809 1829 1987
730.0 2102 2125 1914 1629 1259 977 748 585 430 303
770.0 205 164 106 97 85 91 79 79 91 87
810.0 83 74 81 67 77 87 110 98 92 69
850.0 45 29 13 0 33 36 51 52 49 60
890.0 73 102 142 208 272 307 295 259 201 141
930.0 130 112 105 110 131 153 182 217 261 285
970.0 313 359 410 474 520 527 498 452 368 313
1010.0 296 319 408 604 991 1291 1407 1432 1182 950
1050.0 795 675 624 611 618 633 642 648 661 687
1090.0 740 848 1041 1322 1653 1950 2101 2059 1879 1595
1130.0 1318 1101 940 839 777 759 736 702 664 624
1170.0 614 665 766 931 1142 1333 1463 1526 1479 1357
1210.0 1160 921 721 563 453 365 309 272 257 262
1250.0 268 290 310 338 381 432 483 529 569 594
1290.0 593 578 562 566 584 629 695 784 882 1002
1330.0 1152 1343 1581 1800 1943 1942 1778 1502 1189 925
1370.0 757 705 713 713 705 629 535 487 467 508
1410.0 608 729 905 1020 1129 1183 1214 1189 1154 1187
1450.0 1279 1377 1471 1475 1348 1155 952 703 593 712
1490.0 1201 1841 2008 1879 1353 604 282 214 206 169
1530.0 161 159 166 182 153 124 119 152 138 123
1570.0 156 183 234 280 332 429 540 712 869 966
1610.0 885 697 470 252 172 97 95 73 71 90
1650.0 153 168 165 159 198 219 297 341 461 590
1690.0 691 855 1079 1399 1843 2576 3726 5442 7469 9194
1730.0 10000 9423 7650 5564 3949 2866 2065 1480 1058 770
1770.0 626 487 383 320 298 299 340 354 345 304
1810.0 260 220 178 165 137 122 101 79 80 78
1850.0 73 70 89 101 131 151 151 147 146 145
1890.0 133 111 74 52 37 33 32 40 56 61
1930.0 86 117 155 183 196 191 187 168 142 107
1970.0 61 31 16 17 11 13 11 7 0 6
2010.0 5 7 7 7 9 7 3 4 2 1
2050.0 0 0 0 2 2 4 3 2 7 1
2090.0 6 8 5 8 11 8 9 12 14 10
2130.0 8 7 3 4 4 1 4 6 5 7
2170.0 3 5 6 8 8 5 0 2 0 2
2210.0 4 3 1 4 5 2 2 3 5 6
2250.0 3 6 6 8 6 8 6 7 3 6
2290.0 8 7 7 2 3 12 17 19 8 1
2330.0 6 5 14 4 7 2 0 0 0 0
2370.0 0 6 8 4 10 13 13 11 7 9
2410.0 12 17 12 13 13 15 15 9 9 11
2450.0 13 12 15 15 19 20 15 14 13 12
2490.0 13 11 10 14 9 13 12 13 15 16
2530.0 14 16 9 11 13 11 7 9 13 13
2570.0 13 13 22 18 21 22 28 27 27 29
2610.0 32 34 31 28 30 33 32 31 27 25
2650.0 21 21 23 22 15 19 22 28 35 33
2690.0 31 33 33 35 40 40 48 50 53 63
2730.0 59 64 65 67 72 70 70 69 61 72
2770.0 72 70 78 90 101 114 126 141 155 166
2810.0 183 196 212 229 244 265 280 301 325 347
2850.0 355 372 402 437 490 550 629 746 919 1158
2890.0 1387 1567 1698 1781 1843 1928 2033 2159 2270 2350
2930.0 2345 2241 2168 2249 2516 2676 2688 2522 2215 2018
2970.0 2006 2150 2426 2778 2984 2895 2521 1976 1535 1248
3010.0 1101 1065 1101 1254 1577 2060 2541 2750 2611 2153
3050.0 1557 1165 1073 1204 1622 2163 2388 2387 2095 1614
3090.0 1385 1248 1090 916 738 611 512 430 332 238
3130.0 171 127 103 92 85 82 77 80 85 86
3170.0 94 91 81 66 58 50 40 37 32 33
3210.0 30 24 22 30 23 29 27 24 24 25
3250.0 17 26 21 13 18 15 17 25 18 14
3290.0 18 20 12 11 14 21 14 22 23 16
3330.0 13 19 21 22 22 23 22 22 25 27
3370.0 23 19 24 30 28 34 31 38 33 38
3410.0 49 53 65 77 115 135 147 164 170 159
3450.0 124 102 81 64 56 45 36 39 23 25
3490.0 25 19 20 13 15 13 14 9 17 17
3530.0 12 16 9 8 17 18 12 17 23 29
3570.0 34 43 50 45 42 45 36 24 11 13
3610.0 9 9 9 19 16 21 16 9 19 14
3650.0 23 31 31 22 30 10 14 12 12 2
3690.0 11 10 13 9 15 17 12 10 14 17
3730.0 16 19 14 6 26 3 24 23 21 33
3770.0 22 26 23 11 15 22 17 21 26 26
3810.0 29 37 21 6 17 19 33 25 16 15
3850.0 19 32 32 17 30 29 25 20 26 27
3890.0 16 23 25 25 29 26 31 14 22 24
3930.0 21 25 17 21 36 24 34 33 26 54
##END=
