##TITLE=Ethanethiol, 2-benzylamino-,
##JCAMP-DX=4.24
##DATA TYPE=INFRARED SPECTRUM
##ORIGIN=Sadtler Research Labs Under US-EPA Contract
##OWNER=NIST Standard Reference Data Program
##CAS REGISTRY NO=1007-54-1
##MOLFORM=C 9 H 13 N S
##XUNITS=1/CM
##YUNITS=ABSORBANCE
##XFACTOR=1.0
##YFACTOR=0.000040344
##DELTAX=4.0
##FIRSTX=450.0
##LASTX=3966.0
##FIRSTY=0.008956
##MAXX=3966
##MINX=450
##MAXY=0.40344
##MINY=0
##NPOINTS=880
##XYDATA=(X++(Y..Y))
450.0 222 898 2037 1262 1536 704 639 1051 1001 122
490.0 278 423 738 675 513 652 1035 906 511 534
530.0 785 1101 1325 1247 956 756 809 992 914 743
570.0 617 639 719 752 925 742 749 789 1000 1113
610.0 1086 1149 1123 1171 885 854 874 850 872 843
650.0 894 783 818 851 889 1007 1201 1036 1134 1174
690.0 1307 1441 1548 1714 1840 1966 2059 2310 2659 3082
730.0 3436 3685 3966 3853 3803 3625 3511 3276 3337 3702
770.0 3833 4335 4681 5440 5985 6756 7514 8007 8757 10000
810.0 9431 7834 6999 5838 4775 4112 3412 2819 2331 2011
850.0 1550 1506 1430 1345 1310 1462 1436 1629 1632 1552
890.0 1284 1079 1037 919 927 919 790 871 816 952
930.0 895 845 876 854 788 808 804 845 868 910
970.0 936 918 977 995 1001 936 932 908 903 856
1010.0 863 963 955 1131 1320 1492 1577 1604 1668 1577
1050.0 1497 1370 1133 940 828 668 608 521 476 291
1090.0 297 314 341 318 247 342 237 315 327 401
1130.0 322 389 639 758 848 1022 1144 1191 1093 992
1170.0 717 494 353 320 229 226 172 243 290 331
1210.0 390 404 373 315 365 397 446 502 484 550
1250.0 563 566 448 405 463 458 457 420 491 498
1290.0 468 466 409 370 373 410 457 505 573 673
1330.0 768 849 966 1030 1061 1064 1094 1189 1281 1417
1370.0 1558 1745 1888 1932 1961 1838 1604 1408 1261 1161
1410.0 1164 1151 1225 1216 1286 1313 1346 1463 1598 1689
1450.0 1937 1946 2115 2111 2176 2156 2131 2173 2257 2503
1490.0 3022 3603 4406 4766 4702 4123 3321 2256 1397 1200
1530.0 880 903 750 762 761 790 769 646 692 785
1570.0 737 812 811 886 960 1024 1140 1388 1654 2025
1610.0 2372 2617 2618 2563 2285 1910 1625 1239 1248 1030
1650.0 785 724 422 520 342 305 273 276 221 220
1690.0 198 242 146 107 161 176 231 146 250 324
1730.0 279 408 327 457 466 473 449 425 364 349
1770.0 285 214 247 244 241 210 191 223 245 251
1810.0 233 271 283 275 302 255 320 277 294 275
1850.0 293 293 255 300 312 347 349 412 433 426
1890.0 396 357 288 206 181 160 169 120 141 141
1930.0 131 129 113 128 120 109 115 111 94 110
1970.0 103 96 92 96 95 102 98 91 78 76
2010.0 65 71 75 68 57 51 49 64 54 60
2050.0 58 57 60 54 58 51 46 50 51 63
2090.0 65 59 65 52 57 51 46 47 41 50
2130.0 44 37 34 33 31 33 33 27 16 25
2170.0 25 17 25 6 12 21 15 22 13 12
2210.0 4 11 17 20 27 16 31 18 12 19
2250.0 34 21 24 24 29 28 38 40 47 52
2290.0 52 54 75 77 94 77 79 77 62 50
2330.0 17 37 29 25 21 76 15 42 0 37
2370.0 55 27 55 62 61 47 39 41 46 50
2410.0 52 54 53 61 59 44 53 64 58 59
2450.0 63 56 49 57 56 51 57 56 57 56
2490.0 58 51 64 51 53 69 47 62 61 57
2530.0 66 59 56 59 64 60 56 59 56 57
2570.0 57 69 78 76 71 82 77 83 98 92
2610.0 102 100 102 96 90 113 105 110 114 106
2650.0 123 126 126 121 142 136 138 155 157 165
2690.0 167 166 178 188 207 226 241 244 285 325
2730.0 403 486 577 631 639 613 531 459 421 405
2770.0 402 405 427 452 476 523 553 598 639 684
2810.0 760 811 899 999 1129 1285 1481 1715 2006 2341
2850.0 2770 3284 3887 4604 5357 6050 6573 6808 6807 6561
2890.0 6217 5864 5599 5454 5472 5696 6129 6806 7761 8734
2930.0 9476 9718 9432 8689 7613 6663 5927 5404 4990 4638
2970.0 4328 4115 4010 3997 4051 4165 4402 4781 5226 5597
3010.0 5793 5851 5649 5307 4879 4432 4097 3922 3968 4121
3050.0 4178 4046 3670 3038 2419 1926 1579 1336 1122 969
3090.0 846 724 653 581 545 528 509 518 498 458
3130.0 420 366 304 249 195 174 140 128 126 102
3170.0 109 89 86 87 84 75 71 71 84 78
3210.0 72 67 55 67 58 84 63 57 81 67
3250.0 63 51 48 40 58 61 52 39 54 58
3290.0 47 59 54 64 39 66 59 65 93 111
3330.0 127 177 210 224 217 236 184 155 127 110
3370.0 105 83 58 56 74 55 61 79 109 87
3410.0 102 107 99 110 91 107 77 75 73 64
3450.0 57 48 55 92 83 52 52 43 84 62
3490.0 45 52 46 75 81 42 63 21 75 125
3530.0 71 39 74 74 119 91 58 59 76 125
3570.0 127 65 68 61 117 87 122 71 120 58
3610.0 118 146 64 100 48 61 118 92 110 126
3650.0 77 136 26 150 77 96 13 97 62 69
3690.0 84 24 122 86 115 66 130 130 142 153
3730.0 101 83 109 144 96 135 107 132 92 82
3770.0 81 89 48 33 111 97 105 77 22 103
3810.0 20 108 8 100 51 111 51 79 87 104
3850.0 121 45 136 77 129 95 122 92 116 111
3890.0 103 109 112 140 189 79 125 169 131 148
3930.0 77 148 86 141 96 101 20 58 199 48
##END=
