##TITLE=1-Butanone, 1-(4-hydroxyphenyl)-
##JCAMP-DX=4.24
##DATA TYPE=INFRARED SPECTRUM
##ORIGIN=Sadtler Research Labs Under US-EPA Contract
##OWNER=NIST Standard Reference Data Program
##CAS REGISTRY NO=1009-11-6
##MOLFORM=C 10 H 12 O 2
##XUNITS=1/CM
##YUNITS=ABSORBANCE
##XFACTOR=1.0
##YFACTOR=0.000093973
##DELTAX=4.0
##FIRSTX=450.0
##LASTX=3966.0
##FIRSTY=0.016727
##MAXX=3966
##MINX=450
##MAXY=0.93973
##MINY=0
##NPOINTS=880
##XYDATA=(X++(Y..Y))
450.0 178 94 70 69 84 108 171 183 250 247
490.0 271 322 328 309 274 218 209 204 169 168
530.0 158 184 181 235 296 403 518 605 686 688
570.0 726 776 819 792 731 652 590 546 514 484
610.0 419 377 290 233 203 197 243 243 227 189
650.0 177 161 131 131 114 76 51 26 50 35
690.0 29 20 14 51 46 42 34 22 11 16
730.0 26 66 70 89 147 184 223 237 244 248
770.0 234 221 217 247 321 418 545 678 785 866
810.0 968 1066 1171 1313 1544 1890 2118 2139 1844 1382
850.0 938 641 462 368 306 265 248 219 234 290
890.0 372 439 438 357 239 149 102 79 84 72
930.0 80 84 95 98 106 119 144 168 203 273
970.0 390 588 872 1214 1506 1594 1525 1304 1059 801
1010.0 535 359 267 241 235 257 298 342 382 414
1050.0 417 398 367 339 344 356 374 394 430 494
1090.0 594 745 931 1069 1088 1006 866 767 737 776
1130.0 873 1013 1188 1419 1770 2337 3263 4838 7540 9769
1170.0 10000 9032 7623 7320 7263 6173 4356 3114 2775 2951
1210.0 3319 3566 3570 3255 2756 2300 2002 1869 1902 2109
1250.0 2569 3432 4743 6053 6449 5823 4289 2896 2187 1789
1290.0 1546 1427 1417 1475 1569 1654 1725 1807 1903 1924
1330.0 1814 1597 1374 1310 1420 1590 1728 1775 1702 1518
1370.0 1272 1022 821 669 566 499 457 434 462 533
1410.0 661 833 1011 1274 1530 1663 1602 1364 1078 938
1450.0 886 856 811 785 745 693 607 538 503 470
1490.0 490 584 779 1141 1629 1951 1856 1384 810 479
1530.0 370 317 303 283 315 342 386 421 531 671
1570.0 878 1197 1683 2360 3166 4011 4707 5501 6213 6826
1610.0 6515 5202 3438 2021 1245 868 680 583 572 581
1650.0 624 670 748 781 840 941 1140 1560 2219 3283
1690.0 4678 5913 6450 5929 4669 2999 1717 984 601 465
1730.0 369 329 296 277 231 218 220 211 210 202
1770.0 174 124 117 90 90 69 64 60 51 54
1810.0 44 39 34 33 24 24 23 29 23 24
1850.0 33 38 44 51 52 44 55 55 62 63
1890.0 68 74 78 80 71 68 56 53 45 44
1930.0 46 41 40 29 26 25 21 18 17 20
1970.0 25 26 30 29 28 30 31 44 49 50
2010.0 46 41 35 35 35 32 27 19 19 18
2050.0 20 18 24 28 33 40 42 44 41 45
2090.0 44 48 55 53 45 33 23 14 10 7
2130.0 7 2 2 6 4 2 4 7 6 7
2170.0 7 6 6 6 3 4 5 7 8 7
2210.0 10 9 11 9 8 7 10 11 13 12
2250.0 12 15 21 20 24 29 35 39 37 34
2290.0 32 29 25 25 26 21 18 14 17 14
2330.0 2 3 10 0 28 26 0 6 2 2
2370.0 10 29 45 48 52 51 57 60 70 74
2410.0 75 83 92 103 114 132 140 151 152 150
2450.0 135 117 95 77 73 65 61 58 56 58
2490.0 57 55 57 57 60 65 69 81 87 92
2530.0 85 78 67 61 57 52 53 51 52 54
2570.0 56 59 60 64 68 73 73 75 72 70
2610.0 68 70 66 67 64 62 63 63 67 71
2650.0 79 80 85 86 85 84 83 80 80 85
2690.0 88 87 85 84 80 78 83 86 89 90
2730.0 94 90 94 101 106 107 115 112 117 127
2770.0 129 133 133 132 133 134 136 141 146 155
2810.0 168 176 188 194 195 202 207 215 230 243
2850.0 268 297 339 403 494 631 801 1008 1175 1245
2890.0 1218 1120 1052 1060 1085 1113 1134 1148 1190 1272
2930.0 1408 1566 1729 1829 1835 1800 1784 1891 2175 2660
2970.0 3097 3198 2913 2310 1719 1278 958 761 647 597
3010.0 579 561 540 526 537 592 697 780 777 681
3050.0 527 420 404 442 500 567 600 581 501 402
3090.0 321 282 269 263 258 252 238 224 206 189
3130.0 180 168 153 146 141 140 137 136 141 141
3170.0 144 151 155 155 152 150 145 139 144 143
3210.0 134 134 132 134 134 133 139 135 138 142
3250.0 145 142 148 149 147 150 152 155 157 158
3290.0 162 163 171 177 182 192 199 197 200 199
3330.0 196 199 201 204 214 215 221 235 244 255
3370.0 264 269 273 261 254 238 212 196 187 179
3410.0 182 178 169 159 159 156 150 150 147 142
3450.0 141 140 132 126 126 121 118 113 105 100
3490.0 103 95 95 82 71 73 84 78 76 57
3530.0 70 72 67 70 54 44 67 61 61 23
3570.0 14 59 58 76 54 32 65 42 68 52
3610.0 48 51 68 119 201 303 763 1592 2981 4275
3650.0 4268 3477 1888 705 317 126 52 37 51 73
3690.0 10 21 24 13 17 2 2 17 1 2
3730.0 2 2 2 2 2 2 2 2 3 4
3770.0 9 18 3 8 2 2 2 2 2 2
3810.0 2 13 2 2 2 3 2 2 2 1
3850.0 7 2 2 2 2 2 2 24 1 2
3890.0 2 2 2 2 2 18 7 2 2 2
3930.0 8 2 19 11 8 0 22 11 5 13
##END=
