##TITLE=2-Butenedioic acid (Z)-, bis(1-methylethyl) ester
##JCAMP-DX=4.24
##DATA TYPE=INFRARED SPECTRUM
##ORIGIN=Sadtler Research Labs Under US-EPA Contract
##OWNER=NIST Standard Reference Data Program
##CAS REGISTRY NO=10099-70-4
##MOLFORM=C 10 H 16 O 4
##XUNITS=1/CM
##YUNITS=ABSORBANCE
##XFACTOR=1.0
##YFACTOR=0.000061923
##DELTAX=4.0
##FIRSTX=450.0
##LASTX=3966.0
##FIRSTY=0.008298
##MAXX=3966
##MINX=450
##MAXY=0.61923
##MINY=0
##NPOINTS=880
##XYDATA=(X++(Y..Y))
450.0 134 113 104 94 105 145 148 147 137 138
490.0 85 8 279 174 170 137 86 109 97 146
530.0 115 119 151 132 117 103 6 100 65 64
570.0 114 142 115 178 268 194 185 209 207 119
610.0 125 106 113 91 76 88 79 92 102 109
650.0 119 103 104 118 96 150 111 101 98 96
690.0 107 111 101 117 130 142 164 151 133 148
730.0 126 116 136 131 126 155 160 185 186 202
770.0 211 219 218 260 319 328 353 407 442 475
810.0 524 583 657 777 837 880 895 857 771 687
850.0 644 595 508 405 357 355 389 444 478 471
890.0 428 365 308 291 284 303 340 395 460 533
930.0 639 759 868 924 878 750 625 547 549 646
970.0 838 1141 1663 2066 2150 1794 1219 748 492 361
1010.0 276 242 216 208 209 220 234 252 269 276
1050.0 285 301 319 318 354 379 442 520 661 856
1090.0 1199 1798 2860 4479 6273 7183 6697 5367 4147 3360
1130.0 2946 2787 2792 2855 2881 2968 3360 4210 5259 5884
1170.0 5961 5596 5055 4558 4188 4056 4263 4824 5703 6677
1210.0 7386 7396 6598 5404 4311 3592 3207 3065 3076 3186
1250.0 3359 3554 3720 3624 3351 3064 2919 2859 2901 3000
1290.0 3065 2952 2571 2028 1539 1170 939 792 724 697
1330.0 706 768 812 867 918 910 902 884 887 959
1370.0 1161 1498 1918 2408 2929 3058 2949 2703 2441 2061
1410.0 1475 943 608 473 410 387 372 401 415 459
1450.0 512 571 620 656 709 770 766 697 554 400
1490.0 291 238 196 169 145 129 131 121 119 125
1530.0 122 129 127 118 113 133 127 110 122 121
1570.0 121 126 141 138 148 150 169 173 187 211
1610.0 223 244 263 321 380 502 653 840 993 1046
1650.0 957 805 643 514 431 376 338 359 347 384
1690.0 432 495 543 621 680 772 901 1119 1544 2298
1730.0 3586 5574 7975 9694 10000 8920 7038 5032 3396 2243
1770.0 1508 1087 846 679 569 475 414 367 327 307
1810.0 289 262 251 215 196 175 154 144 124 103
1850.0 105 109 99 107 102 93 95 98 89 73
1890.0 67 65 58 58 50 64 55 62 75 71
1930.0 75 71 70 61 52 52 48 47 48 45
1970.0 47 56 55 63 63 58 59 61 62 67
2010.0 62 68 65 76 84 85 84 91 89 90
2050.0 86 86 91 88 81 75 74 65 56 56
2090.0 49 48 51 55 52 47 42 40 38 38
2130.0 38 39 37 39 36 49 44 40 45 36
2170.0 36 36 35 28 27 27 27 34 34 34
2210.0 39 39 33 33 33 33 33 33 32 31
2250.0 31 31 37 40 40 42 42 40 47 47
2290.0 42 44 46 47 50 51 54 47 54 64
2330.0 54 45 47 47 55 51 29 45 44 50
2370.0 62 88 93 86 77 73 70 61 53 52
2410.0 52 50 44 46 47 60 59 49 50 50
2450.0 41 41 41 40 32 40 40 43 42 52
2490.0 50 54 54 47 46 46 46 44 43 44
2530.0 47 51 51 55 52 59 51 51 50 50
2570.0 49 49 41 54 48 47 51 60 62 56
2610.0 61 46 37 29 21 4 10 22 20 25
2650.0 24 18 14 20 20 19 35 44 69 76
2690.0 75 82 83 79 78 82 82 75 83 82
2730.0 75 83 91 97 104 98 89 89 90 95
2770.0 97 90 90 82 81 74 81 80 76 80
2810.0 90 98 103 112 127 137 144 129 128 128
2850.0 136 135 150 165 198 254 316 400 493 579
2890.0 598 581 524 490 477 478 498 525 567 644
2930.0 774 943 1108 1259 1327 1294 1140 936 745 707
2970.0 825 1151 1794 2848 3789 4015 3352 2385 1624 1067
3010.0 715 495 357 281 223 201 169 156 146 156
3050.0 163 163 173 195 179 166 150 126 129 119
3090.0 114 114 115 115 129 115 113 106 95 90
3130.0 82 77 77 81 86 96 105 112 104 112
3170.0 112 113 87 97 78 85 80 80 81 77
3210.0 94 72 79 79 80 70 65 35 36 32
3250.0 23 25 30 46 45 46 37 37 29 14
3290.0 0 0 11 15 16 24 35 41 43 43
3330.0 51 67 69 60 41 37 28 22 20 25
3370.0 33 41 43 58 66 49 48 39 39 29
3410.0 26 29 14 24 25 49 56 56 56 49
3450.0 80 66 89 94 90 96 79 86 78 70
3490.0 77 78 53 68 49 35 28 12 17 8
3530.0 8 19 34 36 42 35 50 50 57 54
3570.0 52 58 63 59 62 55 48 47 57 52
3610.0 75 73 58 50 45 42 44 37 40 68
3650.0 65 68 87 87 100 109 99 102 96 84
3690.0 74 71 92 90 95 104 114 120 107 113
3730.0 110 106 107 85 73 63 78 66 60 56
3770.0 64 80 66 75 78 67 64 59 62 50
3810.0 61 49 65 77 72 85 96 111 94 92
3850.0 92 76 70 49 48 52 80 92 101 98
3890.0 109 107 101 88 78 66 62 46 41 52
3930.0 64 82 109 125 128 131 132 129 124 127
##END=
