##TITLE=Pyridazine, 3-butylamino-6-chloro-,
##JCAMP-DX=4.24
##DATA TYPE=INFRARED SPECTRUM
##ORIGIN=Sadtler Research Labs Under US-EPA Contract
##OWNER=NIST Standard Reference Data Program
##CAS REGISTRY NO=1009-84-3
##MOLFORM=C 8 H 12 Cl N 3
##XUNITS=1/CM
##YUNITS=ABSORBANCE
##XFACTOR=1.0
##YFACTOR=0.000042679
##DELTAX=4.0
##FIRSTX=450.0
##LASTX=3966.0
##FIRSTY=0.004353
##MAXX=3966
##MINX=450
##MAXY=0.42679
##MINY=0
##NPOINTS=880
##XYDATA=(X++(Y..Y))
450.0 102 224 197 168 126 108 31 28 14 52
490.0 98 81 16 135 153 104 73 95 124 92
530.0 98 43 35 31 107 193 146 171 200 281
570.0 217 269 193 235 271 247 333 322 394 437
610.0 480 522 545 562 523 578 629 687 715 753
650.0 816 846 887 862 855 873 809 801 745 690
690.0 588 511 371 299 214 180 103 82 79 61
730.0 44 84 95 115 144 145 144 145 118 134
770.0 125 136 157 196 236 313 369 455 650 933
810.0 1325 1791 2111 2211 1947 1564 1166 864 646 510
850.0 389 297 256 206 208 190 169 148 130 125
890.0 116 81 69 61 65 57 40 28 37 35
930.0 50 53 58 48 69 92 101 133 152 143
970.0 151 166 176 185 191 210 229 258 329 454
1010.0 702 1049 1355 1503 1469 1378 1223 1037 935 915
1050.0 997 1087 1220 1396 1609 1751 1754 1614 1420 1226
1090.0 1078 991 933 901 888 893 919 971 1059 1151
1130.0 1301 1444 1700 2144 3317 4974 5671 4984 3132 1814
1170.0 1308 958 744 585 494 427 406 406 422 465
1210.0 524 588 632 655 667 679 727 843 985 1121
1250.0 1246 1338 1406 1450 1440 1307 1135 1016 1006 1106
1290.0 1321 1678 2015 2087 1800 1339 958 802 760 769
1330.0 802 882 1006 1129 1268 1460 1709 2013 2418 2875
1370.0 3220 3267 2954 2557 2448 2603 2812 2848 2628 2360
1410.0 2385 2909 4272 6484 8836 10000 9356 7443 5599 4574
1450.0 4243 4265 4649 5342 6308 7492 8612 9285 9127 8362
1490.0 6896 5300 3859 2786 2103 1596 1234 1026 916 816
1530.0 808 847 1050 1452 2009 2534 2662 2371 1815 1520
1570.0 1728 2466 3826 5458 6469 6588 5594 4160 2618 1471
1610.0 941 720 615 518 456 384 364 351 321 296
1650.0 284 275 217 184 176 166 171 138 166 162
1690.0 128 124 176 186 177 157 164 161 112 90
1730.0 97 131 98 90 95 100 88 83 86 78
1770.0 92 92 69 68 56 54 47 44 52 36
1810.0 37 43 35 35 35 35 35 26 44 59
1850.0 44 34 38 34 42 40 26 30 32 39
1890.0 44 47 66 78 87 104 103 89 67 45
1930.0 29 19 13 21 18 13 11 17 10 20
1970.0 18 9 18 10 5 10 10 6 3 2
2010.0 0 3 7 5 6 15 11 15 18 14
2050.0 14 14 10 15 12 14 17 16 17 17
2090.0 14 16 16 14 16 14 17 20 21 23
2130.0 22 29 31 28 25 24 22 29 27 25
2170.0 28 38 47 49 51 41 32 20 13 15
2210.0 9 12 20 19 28 34 33 32 35 43
2250.0 46 42 44 46 45 55 56 62 66 75
2290.0 80 93 119 124 130 138 123 119 124 127
2330.0 116 106 89 135 116 123 156 134 123 105
2370.0 111 101 97 91 65 42 22 20 23 17
2410.0 19 18 12 7 9 3 4 1 0 6
2450.0 1 8 7 9 5 6 7 13 3 9
2490.0 7 15 16 23 26 31 28 34 33 32
2530.0 31 28 27 34 29 32 38 32 35 39
2570.0 47 51 51 60 68 75 86 89 86 72
2610.0 76 69 62 57 69 67 56 63 64 65
2650.0 68 70 63 71 70 81 87 97 94 93
2690.0 100 106 116 129 128 123 133 133 132 135
2730.0 139 116 122 137 136 145 156 130 127 112
2770.0 116 140 150 135 151 156 172 186 207 195
2810.0 220 231 256 305 312 348 397 456 552 673
2850.0 811 1009 1203 1427 1640 1830 1984 2097 2229 2268
2890.0 2175 1984 1816 1756 1787 1892 2067 2309 2651 3053
2930.0 3467 3847 4128 4238 4121 3783 3471 3364 3546 3824
2970.0 4014 3849 3250 2417 1636 1166 883 699 588 492
3010.0 452 419 381 331 327 316 300 300 311 320
3050.0 326 319 323 329 343 359 350 302 247 208
3090.0 178 146 134 117 104 102 93 86 74 82
3130.0 69 75 61 57 58 49 35 38 51 36
3170.0 26 37 35 42 36 33 36 41 36 30
3210.0 32 32 33 23 31 35 24 33 29 26
3250.0 38 32 35 33 39 46 42 50 47 48
3290.0 41 39 53 45 51 53 59 65 65 66
3330.0 63 59 65 63 65 69 74 61 69 69
3370.0 74 87 87 99 108 127 141 170 209 249
3410.0 287 334 388 435 464 479 476 490 514 549
3450.0 589 624 647 632 587 534 429 339 272 206
3490.0 134 102 78 63 56 56 56 37 28 37
3530.0 36 39 28 16 25 39 34 8 31 19
3570.0 32 25 7 30 32 23 21 31 22 19
3610.0 24 4 19 40 41 29 4 17 33 33
3650.0 33 25 44 30 30 20 18 43 40 37
3690.0 34 37 27 37 45 45 43 39 19 42
3730.0 40 24 34 44 39 32 45 30 59 43
3770.0 29 27 35 27 37 49 46 26 55 35
3810.0 39 36 45 60 50 40 27 38 35 49
3850.0 31 65 57 41 47 73 43 35 55 63
3890.0 55 39 6 50 36 24 39 52 59 74
3930.0 63 25 46 38 22 40 58 78 74 51
##END=
