##TITLE=Benzeneacetic acid, ethyl ester
##JCAMP-DX=4.24
##DATA TYPE=INFRARED SPECTRUM
##ORIGIN=Sadtler Research Labs Under US-EPA Contract
##OWNER=NIST Standard Reference Data Program
##CAS REGISTRY NO=101-97-3
##MOLFORM=C 10 H 12 O 2
##XUNITS=1/CM
##YUNITS=ABSORBANCE
##XFACTOR=1.0
##YFACTOR=0.000082565
##DELTAX=4.0
##FIRSTX=450.0
##LASTX=3966.0
##FIRSTY=0.019485
##MAXX=3966
##MINX=450
##MAXY=0.82565
##MINY=0
##NPOINTS=880
##XYDATA=(X++(Y..Y))
450.0 236 209 241 281 273 245 215 164 131 38
490.0 14 27 33 50 39 54 76 154 193 261
530.0 296 248 194 158 96 109 77 37 36 47
570.0 55 91 73 84 46 20 77 76 82 94
610.0 106 156 202 279 341 391 370 306 243 186
650.0 140 106 94 106 155 312 363 523 768 1106
690.0 1539 1930 2095 2167 2178 2193 2159 2051 1756 1393
730.0 1045 816 664 580 508 496 482 419 359 279
770.0 208 177 147 123 99 188 161 141 122 134
810.0 121 125 120 141 127 150 162 183 215 243
850.0 247 224 180 198 163 141 122 117 111 105
890.0 106 132 186 228 259 264 271 293 328 354
930.0 367 380 386 355 301 266 210 169 134 111
970.0 99 100 102 85 100 120 145 177 204 286
1010.0 395 563 856 1363 2161 2851 3413 3508 3041 2424
1050.0 1702 1174 867 721 671 664 677 681 708 770
1090.0 919 1124 1325 1449 1491 1518 1661 1970 2449 3157
1130.0 4066 5086 6081 6837 7194 7170 6806 6125 5277 4361
1170.0 3559 2991 2616 2347 2118 1944 1824 1792 1828 1992
1210.0 2236 2538 2844 3148 3477 3906 4463 5141 5793 6347
1250.0 6591 6370 5720 4846 3956 3195 2649 2297 2155 2125
1290.0 2155 2181 2195 2208 2184 2130 2064 2027 1990 1943
1330.0 1879 1792 1656 1425 1160 896 706 656 790 1135
1370.0 1345 1364 1153 802 636 560 552 518 484 452
1410.0 451 468 507 551 631 716 795 855 886 932
1450.0 971 975 957 911 886 826 741 612 544 571
1490.0 738 1099 1279 1179 901 388 209 159 149 127
1530.0 113 141 130 159 125 116 132 147 147 118
1570.0 133 121 154 159 195 239 300 375 470 531
1610.0 508 404 284 175 126 118 89 110 92 93
1650.0 112 124 100 104 119 141 146 177 178 243
1690.0 242 257 336 411 437 505 585 709 872 1095
1730.0 1468 2083 3141 4689 6595 8490 9749 10000 9093 7266
1770.0 5432 3776 2543 1695 1172 856 695 559 455 369
1810.0 295 248 212 180 173 152 144 131 126 140
1850.0 124 130 131 137 144 156 150 142 150 137
1890.0 131 109 100 97 91 96 80 86 103 118
1930.0 134 146 163 173 168 164 165 157 140 104
1970.0 74 68 57 62 62 53 52 49 41 33
2010.0 39 39 39 27 33 33 34 34 27 27
2050.0 31 28 31 29 34 39 39 34 51 51
2090.0 46 46 43 37 31 33 28 24 23 16
2130.0 16 16 16 23 15 6 3 19 18 10
2170.0 10 11 13 6 0 4 5 5 5 5
2210.0 12 9 14 5 7 14 12 13 13 14
2250.0 25 21 21 20 22 23 20 23 25 28
2290.0 29 28 32 29 32 39 37 28 27 20
2330.0 26 26 33 37 60 38 20 32 42 52
2370.0 79 95 93 77 62 54 41 42 41 30
2410.0 36 36 36 36 41 33 37 33 31 38
2450.0 43 31 31 31 31 38 31 29 30 34
2490.0 37 32 32 33 38 32 26 32 34 28
2530.0 33 31 28 28 32 23 28 33 29 22
2570.0 28 22 29 23 35 35 37 37 37 42
2610.0 36 47 36 48 41 41 43 37 41 39
2650.0 34 28 35 36 43 42 42 37 42 48
2690.0 50 42 43 43 55 53 55 58 61 67
2730.0 56 56 67 56 63 58 57 61 56 60
2770.0 57 69 80 74 74 68 67 70 58 74
2810.0 81 94 105 115 124 128 139 145 157 170
2850.0 176 184 190 209 221 238 276 324 380 436
2890.0 467 474 491 544 599 663 726 778 790 824
2930.0 871 997 1171 1357 1439 1414 1313 1206 1172 1211
2970.0 1314 1493 1805 2238 2591 2639 2390 1962 1604 1366
3010.0 1177 1022 914 875 936 1122 1373 1616 1682 1553
3050.0 1256 969 816 835 1022 1321 1480 1447 1260 964
3090.0 830 755 685 605 519 427 372 314 256 198
3130.0 155 125 108 96 79 65 85 72 65 67
3170.0 71 75 80 62 59 58 52 50 55 39
3210.0 44 60 54 35 37 46 32 19 26 34
3250.0 32 32 35 29 32 36 18 8 32 23
3290.0 19 25 33 27 36 3 27 39 24 24
3330.0 18 12 35 33 8 25 14 23 11 13
3370.0 25 33 29 6 7 32 38 26 22 30
3410.0 27 23 25 22 35 23 24 24 10 30
3450.0 30 23 30 39 40 55 62 51 71 92
3490.0 82 100 102 88 93 77 49 52 32 37
3530.0 14 24 28 11 22 21 24 23 19 10
3570.0 29 22 49 34 21 45 28 39 41 8
3610.0 26 36 27 37 23 48 52 52 50 40
3650.0 51 66 60 39 62 43 41 70 51 44
3690.0 62 61 49 55 37 35 50 48 33 50
3730.0 39 59 71 40 83 38 78 64 40 45
3770.0 44 65 47 51 39 24 44 33 34 49
3810.0 76 44 45 46 35 35 52 50 44 59
3850.0 58 59 69 73 70 64 44 49 54 59
3890.0 40 32 35 52 50 44 49 45 45 37
3930.0 35 32 26 30 36 23 20 28 28 37
##END=
