##TITLE=3-Hydroxydiphenylamine
##JCAMP-DX=4.24
##DATA TYPE=INFRARED SPECTRUM
##ORIGIN=Sadtler Research Labs Under US-EPA Contract
##OWNER=NIST Standard Reference Data Program
##CAS REGISTRY NO=101-18-8
##MOLFORM=C 12 H 11 N O
##XUNITS=1/CM
##YUNITS=ABSORBANCE
##XFACTOR=1.0
##YFACTOR=0.000035703
##DELTAX=4.0
##FIRSTX=450.0
##LASTX=3966.0
##FIRSTY=0.031240
##MAXX=3966
##MINX=450
##MAXY=0.35703
##MINY=0
##NPOINTS=880
##XYDATA=(X++(Y..Y))
450.0 875 702 511 412 389 340 415 370 413 414
490.0 389 409 256 218 119 161 111 138 153 162
530.0 95 160 101 143 45 7 9 101 108 180
570.0 178 202 170 161 91 71 72 111 109 83
610.0 62 58 53 38 39 49 60 101 94 126
650.0 191 210 259 348 410 677 877 1084 1507 1758
690.0 1824 1636 1413 1089 842 655 551 552 591 759
730.0 1023 1340 1607 1804 1812 1775 1789 1699 1562 1347
770.0 1088 868 674 532 436 420 390 413 451 537
810.0 550 614 593 582 537 504 489 505 525 503
850.0 486 460 408 389 311 287 272 227 205 188
890.0 193 189 157 134 104 78 87 72 76 62
930.0 71 86 99 134 188 310 490 810 1112 1291
970.0 1238 1015 774 544 354 263 270 301 315 325
1010.0 354 434 574 767 893 862 694 507 380 312
1050.0 314 337 387 468 574 678 756 804 804 740
1090.0 641 562 494 448 415 401 388 412 462 564
1130.0 697 958 1434 2329 3670 4745 4893 4077 2894 2134
1170.0 1948 2045 2290 2429 2317 1954 1545 1288 1148 1045
1210.0 937 855 862 932 1102 1321 1654 1989 2173 2114
1250.0 1896 1748 1853 2104 2389 2508 2388 2123 1801 1584
1290.0 1521 1608 1816 2134 2465 2731 2847 2819 2680 2445
1330.0 2145 1741 1349 986 702 560 461 434 393 363
1370.0 316 327 307 297 330 375 507 669 862 1054
1410.0 1196 1150 1121 894 710 572 566 628 629 717
1450.0 857 1016 1221 1271 1300 1408 1634 2074 3027 4589
1490.0 6331 7777 8031 7421 6333 5144 4143 3144 2493 1839
1530.0 1536 1252 1217 1150 1081 1016 1037 1128 1273 1432
1570.0 1733 2063 2625 3412 4887 6917 8839 10000 9480 7941
1610.0 6039 4798 3995 3475 2929 2267 1665 1146 791 624
1650.0 455 460 314 225 238 251 217 238 202 283
1690.0 181 196 235 277 199 174 198 218 165 125
1730.0 155 159 158 98 112 133 137 109 130 129
1770.0 154 171 107 135 84 133 102 103 108 100
1810.0 72 90 85 68 99 74 98 49 100 93
1850.0 82 56 70 50 67 85 51 64 60 85
1890.0 98 101 103 108 125 127 136 136 132 127
1930.0 114 111 106 108 80 62 44 51 34 41
1970.0 32 23 18 16 13 24 22 8 15 17
2010.0 9 8 13 12 7 12 4 8 6 16
2050.0 8 11 16 17 18 15 13 11 11 14
2090.0 13 8 16 12 18 17 18 21 17 18
2130.0 15 17 4 6 7 7 11 8 13 16
2170.0 12 21 19 15 11 8 5 15 4 7
2210.0 5 6 7 9 11 10 6 15 14 15
2250.0 14 11 20 25 24 37 44 43 54 69
2290.0 68 89 102 118 141 147 138 106 122 81
2330.0 82 66 71 102 118 151 138 126 113 126
2370.0 111 111 120 119 96 69 56 51 57 54
2410.0 55 46 46 41 37 44 39 44 51 60
2450.0 62 61 68 72 70 67 70 72 75 71
2490.0 71 71 72 71 75 73 65 59 55 58
2530.0 54 51 48 44 47 47 43 37 33 37
2570.0 39 36 48 46 40 43 43 37 32 36
2610.0 30 44 47 42 36 36 31 38 33 34
2650.0 26 29 29 23 27 27 22 27 26 30
2690.0 25 29 31 27 22 26 33 27 31 31
2730.0 38 38 44 40 41 44 44 46 46 45
2770.0 40 43 45 40 45 51 47 51 50 46
2810.0 54 49 46 54 54 47 45 60 45 48
2850.0 47 58 57 57 69 64 57 66 75 81
2890.0 77 77 82 89 101 97 91 99 96 97
2930.0 101 92 100 100 94 94 107 136 166 192
2970.0 203 195 168 138 127 133 140 164 199 259
3010.0 331 431 543 643 732 848 951 1057 1215 1337
3050.0 1405 1405 1365 1279 1196 1160 1112 1063 986 904
3090.0 808 728 643 552 461 376 303 242 188 143
3130.0 116 86 74 62 46 49 50 38 42 39
3170.0 35 34 36 34 41 41 49 55 50 58
3210.0 58 56 51 58 41 55 43 41 46 31
3250.0 26 41 34 37 43 35 40 45 42 40
3290.0 52 44 62 52 49 48 60 60 55 51
3330.0 44 66 71 61 74 64 69 64 56 58
3370.0 61 57 86 81 89 93 95 121 130 160
3410.0 161 189 210 227 264 289 325 337 337 328
3450.0 283 250 213 172 155 123 106 73 84 86
3490.0 71 62 55 63 40 40 73 61 64 19
3530.0 40 46 46 38 38 35 33 30 28 24
3570.0 31 56 42 39 25 42 67 12 55 42
3610.0 60 30 44 75 97 207 296 537 898 1490
3650.0 2161 2277 1862 1092 448 212 96 124 47 100
3690.0 37 42 22 18 26 4 4 4 4 12
3730.0 17 9 3 7 9 10 21 4 4 8
3770.0 4 22 18 30 0 34 4 4 16 10
3810.0 20 20 4 8 4 8 6 4 4 4
3850.0 4 4 4 4 4 4 4 5 12 34
3890.0 32 23 1 42 3 56 28 29 4 4
3930.0 4 4 4 4 4 5 4 4 4 5
##END=
