##TITLE=2-Propenoic acid, 2-methyl-, cyclohexyl ester
##JCAMP-DX=4.24
##DATA TYPE=INFRARED SPECTRUM
##ORIGIN=Sadtler Research Labs Under US-EPA Contract
##OWNER=NIST Standard Reference Data Program
##CAS REGISTRY NO=101-43-9
##MOLFORM=C 10 H 16 O 2
##XUNITS=1/CM
##YUNITS=ABSORBANCE
##XFACTOR=1.0
##YFACTOR=0.000185690
##DELTAX=4.0
##FIRSTX=450.0
##LASTX=3966.0
##FIRSTY=0.014298
##MAXX=3966
##MINX=450
##MAXY=1.8569
##MINY=0
##NPOINTS=880
##XYDATA=(X++(Y..Y))
450.0 77 91 102 118 115 117 104 113 93 96
490.0 99 111 102 83 74 78 79 80 73 74
530.0 66 97 88 57 81 81 78 103 83 94
570.0 105 131 140 137 112 117 143 119 143 142
610.0 138 135 106 101 81 82 84 96 109 124
650.0 103 120 106 104 95 95 54 41 23 15
690.0 22 11 12 14 14 6 9 16 16 10
730.0 18 10 8 9 12 7 17 10 17 18
770.0 29 25 39 34 54 61 68 116 167 254
810.0 308 326 293 246 210 198 210 229 233 207
850.0 165 123 101 100 109 105 99 104 115 150
890.0 187 225 256 278 292 335 440 617 829 1041
930.0 1229 1296 1223 996 726 526 434 420 434 428
970.0 365 288 209 158 140 143 176 235 368 564
1010.0 776 966 1136 1108 1050 922 896 1272 1518 1494
1050.0 1063 454 211 175 155 157 160 180 196 212
1090.0 227 252 254 320 404 489 672 909 1221 1345
1130.0 1322 1151 1082 1305 1822 2593 3504 4879 6845 8847
1170.0 10000 9256 7693 5669 3890 2513 1726 1372 1187 1025
1210.0 831 663 526 439 373 317 285 264 262 262
1250.0 270 288 366 462 556 618 630 711 945 1418
1290.0 2118 2626 2704 2383 1996 1966 2115 2158 2080 1987
1330.0 1818 1574 1239 854 672 566 446 372 313 285
1370.0 280 298 337 371 377 365 367 430 549 646
1410.0 659 577 454 372 350 372 414 468 559 691
1450.0 907 1120 1240 1176 978 720 520 367 272 195
1490.0 159 129 111 96 89 88 81 79 71 65
1530.0 56 58 55 60 61 57 57 60 65 65
1570.0 71 78 82 83 82 85 88 98 108 125
1610.0 147 178 210 243 282 340 425 518 558 508
1650.0 402 269 174 141 123 129 138 153 171 189
1690.0 212 220 238 266 330 470 780 1377 2382 3685
1730.0 4983 5440 5045 3829 2500 1436 800 493 316 237
1770.0 177 152 135 140 146 143 139 123 110 93
1810.0 88 76 68 58 52 47 38 41 38 40
1850.0 40 45 47 57 69 76 85 87 88 78
1890.0 67 55 48 38 36 36 31 31 32 30
1930.0 25 25 22 22 17 16 18 19 24 21
1970.0 25 24 28 25 25 28 30 35 41 50
2010.0 52 52 46 41 30 23 18 11 12 8
2050.0 8 4 6 10 12 10 6 4 1 4
2090.0 3 9 15 21 23 19 21 21 21 19
2130.0 20 20 22 21 20 22 24 26 24 25
2170.0 24 21 21 22 23 21 21 19 20 17
2210.0 17 17 18 18 18 18 20 21 19 24
2250.0 20 22 20 18 19 19 18 18 17 13
2290.0 12 10 4 4 1 0 0 2 0 19
2330.0 20 37 41 39 53 18 0 1 39 61
2370.0 79 73 64 46 31 27 21 21 19 17
2410.0 15 16 17 17 15 15 15 13 17 16
2450.0 18 14 14 18 21 22 25 26 26 26
2490.0 24 22 22 18 17 16 11 12 18 19
2530.0 17 16 15 16 12 15 14 16 18 19
2570.0 17 16 18 18 22 22 30 32 38 39
2610.0 43 40 39 41 37 34 35 36 46 49
2650.0 41 43 40 45 46 41 45 42 39 40
2690.0 44 40 41 46 46 44 40 37 33 34
2730.0 30 28 31 32 35 35 38 34 33 33
2770.0 36 33 39 47 53 60 64 70 74 78
2810.0 79 82 85 85 91 94 107 117 146 195
2850.0 293 497 887 1378 1821 1993 1808 1418 1040 743
2890.0 561 488 488 529 608 709 849 1054 1373 1830
2930.0 2496 3425 4680 6146 6787 6351 4975 3417 2358 1678
2970.0 1198 863 695 669 669 628 535 421 369 333
3010.0 289 247 216 196 182 164 145 122 107 110
3050.0 110 109 92 71 58 42 44 39 40 40
3090.0 44 61 71 108 161 184 165 119 52 34
3130.0 30 26 23 31 29 30 36 36 28 18
3170.0 17 20 9 14 8 16 19 15 9 15
3210.0 21 15 22 19 24 30 31 22 23 16
3250.0 19 23 19 12 10 20 14 19 11 16
3290.0 23 16 16 12 15 14 16 16 17 28
3330.0 14 17 16 14 20 15 17 20 25 25
3370.0 19 22 26 24 19 26 25 14 24 14
3410.0 23 19 24 27 18 29 46 51 53 58
3450.0 72 57 47 44 43 25 3 17 5 16
3490.0 22 8 14 16 11 14 9 18 15 16
3530.0 12 6 20 19 20 18 5 9 0 9
3570.0 9 11 14 9 16 12 10 5 14 8
3610.0 17 8 12 1 14 20 24 15 17 0
3650.0 13 11 14 18 12 10 0 8 19 7
3690.0 20 6 2 12 19 0 16 17 19 16
3730.0 24 3 23 8 12 10 27 33 26 7
3770.0 28 10 25 13 46 11 1 8 10 24
3810.0 20 16 0 0 8 7 9 6 7 9
3850.0 5 0 12 20 0 0 7 1 6 0
3890.0 7 44 7 5 11 13 14 7 20 16
3930.0 0 16 3 0 0 0 17 9 18 31
##END=
