##TITLE=Diphenyl ether
##JCAMP-DX=4.24
##DATA TYPE=INFRARED SPECTRUM
##ORIGIN=Sadtler Research Labs Under US-EPA Contract
##OWNER=NIST Standard Reference Data Program
##CAS REGISTRY NO=101-84-8
##MOLFORM=C 12 H 10 O
##XUNITS=1/CM
##YUNITS=ABSORBANCE
##XFACTOR=1.0
##YFACTOR=0.000193738
##DELTAX=4.0
##FIRSTX=450.0
##LASTX=3966.0
##FIRSTY=0.000000
##MAXX=3966
##MINX=450
##MAXY=1.93738
##MINY=0
##NPOINTS=880
##XYDATA=(X++(Y..Y))
450.0 0 50 93 163 186 204 285 306 350 328
490.0 365 361 363 293 215 213 172 180 150 130
530.0 122 142 110 125 130 108 114 109 110 103
570.0 117 79 132 125 121 79 60 153 113 84
610.0 83 80 80 80 83 86 76 79 82 91
650.0 113 122 150 164 179 250 351 524 783 1067
690.0 1304 1217 1061 779 540 357 255 201 198 250
730.0 376 595 904 1266 1489 1570 1339 1023 711 498
770.0 392 371 377 424 473 504 497 456 400 329
810.0 273 240 203 171 146 122 124 115 119 143
850.0 187 284 620 1124 1301 1220 827 419 300 231
890.0 236 249 264 255 232 193 158 131 104 89
930.0 72 77 69 68 65 63 67 70 84 87
970.0 94 96 97 87 82 79 79 83 90 98
1010.0 120 177 324 431 407 321 157 74 71 64
1050.0 84 111 173 233 296 318 298 248 188 137
1090.0 97 84 77 87 79 79 75 71 67 66
1130.0 74 74 96 113 159 226 398 662 820 854
1170.0 729 539 468 425 382 362 344 350 367 422
1210.0 510 681 1010 1577 2339 3352 4996 7535 10000 9586
1250.0 8146 4050 1905 1154 965 862 789 688 604 523
1290.0 473 426 384 351 348 364 391 411 403 394
1330.0 377 370 356 310 240 190 155 150 156 150
1370.0 147 143 147 136 145 130 124 112 97 92
1410.0 89 85 105 100 94 105 132 157 203 260
1450.0 362 439 565 598 658 723 1004 1726 3167 6469
1490.0 6382 6838 3359 1458 736 453 339 279 245 215
1530.0 205 207 227 253 284 295 368 407 549 686
1570.0 962 1292 1841 2608 2887 3381 2896 2414 1516 849
1610.0 500 339 265 210 184 158 150 145 125 127
1650.0 126 117 104 94 97 95 104 81 103 108
1690.0 100 103 125 138 131 131 140 155 127 114
1730.0 112 115 97 92 95 96 94 91 101 108
1770.0 140 154 147 140 113 102 95 92 88 74
1810.0 69 67 63 68 76 82 87 91 109 123
1850.0 123 120 121 120 123 125 105 94 80 75
1890.0 73 71 70 74 87 101 118 137 156 162
1930.0 164 161 154 154 147 133 111 93 79 80
1970.0 74 79 82 91 101 112 116 108 97 83
2010.0 77 76 86 96 111 125 134 144 147 140
2050.0 121 109 103 104 103 95 81 70 66 61
2090.0 61 57 58 56 55 53 52 53 51 54
2130.0 51 54 51 52 52 51 52 52 52 53
2170.0 54 51 52 52 50 50 50 50 50 51
2210.0 51 51 52 53 55 58 62 62 62 60
2250.0 57 53 51 51 50 54 53 56 56 61
2290.0 58 58 53 55 59 62 65 65 70 64
2330.0 65 58 62 59 62 65 62 64 61 62
2370.0 57 57 63 66 75 82 92 99 107 112
2410.0 111 109 109 113 123 135 146 153 149 134
2450.0 112 96 87 85 85 85 82 80 76 73
2490.0 70 67 65 63 64 64 64 64 62 64
2530.0 64 66 66 69 69 69 74 73 77 74
2570.0 72 70 69 66 63 58 58 59 59 62
2610.0 63 66 64 63 61 60 59 57 57 56
2650.0 58 56 57 55 52 53 53 55 55 57
2690.0 56 57 55 56 54 55 55 53 58 56
2730.0 58 61 63 62 62 60 58 57 56 57
2770.0 54 56 56 56 58 57 55 56 54 54
2810.0 53 56 57 56 56 58 59 60 63 61
2850.0 61 63 65 67 67 69 66 66 67 65
2890.0 68 68 69 72 71 72 73 70 66 68
2930.0 69 70 72 74 72 68 67 63 63 62
2970.0 65 64 65 63 64 67 69 75 82 97
3010.0 123 162 205 256 300 351 429 539 679 794
3050.0 828 773 664 598 606 681 826 980 1029 966
3090.0 801 637 551 497 422 334 244 173 125 100
3130.0 86 76 69 67 64 63 62 58 57 60
3170.0 60 62 62 65 64 62 62 61 61 60
3210.0 60 58 59 58 56 59 59 61 59 56
3250.0 57 58 56 58 56 59 60 59 55 58
3290.0 57 57 58 59 58 59 58 59 58 60
3330.0 62 58 58 60 58 59 62 59 59 61
3370.0 61 59 59 59 59 61 61 58 56 59
3410.0 59 61 58 58 58 57 59 60 58 56
3450.0 58 58 57 56 58 58 60 59 57 55
3490.0 58 54 50 53 50 56 54 57 55 53
3530.0 54 59 61 57 56 56 59 59 57 51
3570.0 53 56 60 59 56 59 56 60 59 58
3610.0 58 59 57 60 63 58 68 69 66 71
3650.0 64 65 69 68 73 63 69 65 66 68
3690.0 70 66 71 73 72 68 68 70 68 65
3730.0 69 69 63 69 57 66 62 66 68 68
3770.0 73 71 67 67 72 65 69 68 67 62
3810.0 69 70 66 60 62 67 64 71 67 61
3850.0 65 64 63 64 69 69 66 63 66 64
3890.0 64 68 67 64 62 69 70 65 63 69
3930.0 68 69 70 68 70 65 64 67 68 65
##END=
