##TITLE=Octanal, 2-(phenylmethylene)-
##JCAMP-DX=4.24
##DATA TYPE=INFRARED SPECTRUM
##ORIGIN=Sadtler Research Labs Under US-EPA Contract
##OWNER=NIST Standard Reference Data Program
##CAS REGISTRY NO=101-86-0
##MOLFORM=C 15 H 20 O
##XUNITS=1/CM
##YUNITS=ABSORBANCE
##XFACTOR=1.0
##YFACTOR=0.000074951
##DELTAX=4.0
##FIRSTX=450.0
##LASTX=3966.0
##FIRSTY=0.002773
##MAXX=3966
##MINX=450
##MAXY=0.74951
##MINY=0
##NPOINTS=880
##XYDATA=(X++(Y..Y))
450.0 37 17 40 53 72 100 62 70 124 151
490.0 101 131 88 83 50 123 75 75 200 125
530.0 186 46 99 6 71 257 290 212 296 358
570.0 148 152 152 79 44 100 152 148 131 295
610.0 304 248 152 134 117 116 30 147 55 151
650.0 91 153 170 319 377 411 477 638 629 897
690.0 1204 1490 1548 1297 1010 720 635 584 652 689
730.0 629 716 773 919 902 908 825 692 629 506
770.0 405 343 309 323 293 270 314 274 292 242
810.0 261 265 282 268 299 333 363 362 352 414
850.0 467 537 590 711 693 725 697 550 462 466
890.0 366 382 330 316 340 342 402 457 419 391
930.0 304 263 231 181 181 169 205 186 239 211
970.0 238 265 250 268 305 304 364 399 409 437
1010.0 469 395 387 416 451 437 385 288 221 229
1050.0 229 289 301 360 411 462 540 591 689 858
1090.0 1053 1116 971 735 571 498 471 366 327 294
1130.0 308 342 417 515 654 805 883 868 818 735
1170.0 622 576 519 491 490 517 557 587 577 529
1210.0 425 331 267 225 215 201 210 183 171 170
1250.0 195 200 191 209 230 261 290 306 314 339
1290.0 351 370 352 369 371 423 409 443 416 363
1330.0 382 388 423 425 459 494 560 610 713 818
1370.0 793 649 525 439 428 413 424 479 477 411
1410.0 314 254 227 214 233 255 312 398 528 655
1450.0 764 839 874 893 861 757 605 464 387 347
1490.0 435 512 504 348 221 148 117 115 138 118
1530.0 116 111 98 90 95 100 101 121 96 127
1570.0 158 184 203 211 210 244 279 318 341 343
1610.0 361 433 548 687 831 887 820 629 453 335
1650.0 282 253 277 345 415 476 491 571 744 1067
1690.0 1656 2680 4631 7678 10000 9449 6396 3505 1972 1262
1730.0 890 685 547 464 449 435 421 413 383 361
1770.0 367 353 313 287 251 239 229 221 207 166
1810.0 138 111 98 93 87 82 74 83 78 69
1850.0 72 64 65 65 77 72 76 90 99 95
1890.0 96 96 96 87 71 70 55 55 56 65
1930.0 63 78 91 114 115 112 107 115 122 95
1970.0 68 54 54 48 42 56 47 40 40 35
2010.0 36 41 40 47 41 47 41 38 41 33
2050.0 29 38 35 37 26 25 33 32 18 33
2090.0 25 24 22 25 30 18 20 24 25 18
2130.0 26 17 17 17 24 20 22 26 16 21
2170.0 24 14 16 26 24 24 23 23 17 22
2210.0 22 23 20 22 23 25 24 23 30 22
2250.0 17 29 27 22 17 27 23 22 15 22
2290.0 22 22 29 29 28 42 43 47 34 36
2330.0 34 48 41 26 27 34 40 57 24 37
2370.0 16 25 12 17 20 22 12 20 18 20
2410.0 18 27 18 13 10 16 12 12 16 13
2450.0 17 11 17 11 10 20 10 13 18 5
2490.0 20 12 24 17 18 25 25 18 17 20
2530.0 34 31 24 29 26 26 32 25 33 33
2570.0 40 39 39 38 43 42 42 46 50 44
2610.0 40 52 39 53 61 66 67 68 70 73
2650.0 73 72 90 93 107 120 127 155 191 247
2690.0 354 531 826 1173 1375 1294 1020 733 566 459
2730.0 417 397 390 385 377 372 366 354 373 382
2770.0 399 435 458 491 526 561 636 769 968 1203
2810.0 1347 1288 1078 835 673 584 547 559 615 708
2850.0 863 1112 1474 1851 2111 2173 2077 1909 1805 1696
2890.0 1530 1363 1333 1404 1584 1839 2135 2527 3070 3803
2930.0 4559 5041 5033 4623 3999 3404 3064 3079 3374 3722
2970.0 3736 3103 2195 1471 1068 848 711 617 549 501
3010.0 454 436 427 480 558 686 746 711 619 517
3050.0 459 442 511 641 840 1030 1029 879 679 625
3090.0 569 528 438 366 306 256 201 173 122 99
3130.0 81 83 68 64 66 74 64 63 63 42
3170.0 35 42 29 33 43 43 38 36 32 37
3210.0 28 30 23 31 21 34 20 12 25 29
3250.0 22 9 15 10 31 25 11 31 24 23
3290.0 7 21 16 8 24 35 27 11 10 18
3330.0 38 18 24 28 28 27 17 37 42 57
3370.0 45 45 79 100 127 168 170 128 99 74
3410.0 63 43 37 35 18 13 34 41 18 29
3450.0 26 21 18 25 22 26 24 25 25 14
3490.0 8 13 14 4 0 26 10 24 29 21
3530.0 15 3 14 35 35 22 22 32 32 56
3570.0 63 82 81 95 74 42 30 29 3 35
3610.0 30 18 35 31 29 26 18 23 36 31
3650.0 17 17 30 30 39 32 32 1 14 30
3690.0 14 16 31 25 24 17 18 16 24 25
3730.0 11 18 23 17 14 27 12 11 5 12
3770.0 20 13 8 10 11 27 21 27 22 13
3810.0 6 26 6 13 20 21 10 6 26 25
3850.0 12 8 6 14 13 14 29 21 6 11
3890.0 22 37 28 9 16 24 14 8 22 15
3930.0 14 14 20 10 23 32 0 2 2 2
##END=
