##TITLE=Benzene, 1,1'-methylenebis[4-chloro-
##JCAMP-DX=4.24
##DATA TYPE=INFRARED SPECTRUM
##ORIGIN=Sadtler Research Labs Under US-EPA Contract
##OWNER=NIST Standard Reference Data Program
##CAS REGISTRY NO=101-76-8
##MOLFORM=C 13 H 10 Cl 2
##XUNITS=1/CM
##YUNITS=ABSORBANCE
##XFACTOR=1.0
##YFACTOR=0.000080026
##DELTAX=4.0
##FIRSTX=450.0
##LASTX=3966.0
##FIRSTY=0.016886
##MAXX=3966
##MINX=450
##MAXY=0.80026
##MINY=0
##NPOINTS=880
##XYDATA=(X++(Y..Y))
450.0 211 152 109 295 310 381 559 745 920 1088
490.0 981 779 688 746 930 1248 1539 1524 1174 794
530.0 426 249 131 100 78 78 33 49 15 46
570.0 21 24 24 21 27 6 23 41 45 56
610.0 61 43 63 85 116 144 159 168 171 207
650.0 255 415 670 987 1118 686 344 261 190 184
690.0 73 70 70 75 53 46 42 63 72 100
730.0 141 157 206 280 415 477 455 399 386 450
770.0 629 976 1559 2270 2833 2960 2882 2832 2988 3226
810.0 3075 2434 1751 1339 1191 1131 1031 886 831 826
850.0 798 660 492 343 252 195 146 125 115 117
890.0 115 118 129 150 174 211 251 270 316 329
930.0 276 172 126 109 105 92 104 99 86 89
970.0 73 79 68 82 80 85 94 117 253 506
1010.0 1791 4749 5195 2641 594 310 223 198 221 237
1050.0 270 265 302 311 381 487 712 1108 2028 3951
1090.0 6535 7741 6588 4779 3286 2179 1379 933 687 525
1130.0 381 277 221 186 185 164 159 157 175 207
1170.0 263 330 379 377 357 342 345 365 332 282
1210.0 225 221 276 371 437 379 257 168 138 127
1250.0 145 160 171 188 188 199 219 260 288 292
1290.0 277 254 222 217 215 187 161 153 148 138
1330.0 135 130 138 129 114 104 98 103 105 107
1370.0 104 123 140 178 228 299 403 521 628 686
1410.0 692 603 547 476 475 522 629 778 856 845
1450.0 730 622 563 542 564 696 1008 1638 2918 5369
1490.0 8398 10000 7774 4291 1958 955 582 387 311 221
1530.0 195 139 131 120 106 98 109 136 140 155
1570.0 178 209 238 292 367 518 632 652 553 451
1610.0 363 294 267 230 225 191 170 140 115 100
1650.0 105 102 93 91 109 125 156 178 220 211
1690.0 163 113 103 68 51 36 45 65 57 64
1730.0 81 108 100 105 114 123 130 149 179 212
1770.0 289 323 269 168 95 64 53 41 41 36
1810.0 31 32 31 29 28 32 26 26 32 41
1850.0 38 40 51 65 84 107 130 155 202 247
1890.0 300 325 315 273 204 154 108 84 64 43
1930.0 33 30 24 24 19 18 20 18 16 12
1970.0 17 11 11 12 9 9 6 11 14 9
2010.0 6 8 7 7 5 10 14 14 12 12
2050.0 9 14 8 12 13 9 12 16 20 14
2090.0 18 16 12 13 14 12 13 10 15 11
2130.0 8 11 6 7 6 5 4 5 6 4
2170.0 1 2 7 4 5 6 10 9 7 8
2210.0 10 8 13 10 10 14 14 13 18 16
2250.0 17 17 25 30 34 39 46 53 57 58
2290.0 59 51 45 43 38 39 30 25 16 30
2330.0 16 13 23 32 50 43 23 26 38 27
2370.0 18 41 37 37 25 20 20 22 28 24
2410.0 16 15 12 12 9 13 14 13 16 12
2450.0 11 13 20 17 13 14 20 13 15 25
2490.0 23 21 24 22 23 22 15 20 25 23
2530.0 23 24 23 28 28 29 29 29 32 29
2570.0 36 38 45 50 55 50 45 39 39 40
2610.0 40 37 29 30 25 29 28 29 26 31
2650.0 28 28 23 30 30 33 27 28 31 31
2690.0 38 37 35 31 32 27 29 30 29 36
2730.0 38 37 39 39 40 44 37 43 40 41
2770.0 39 41 40 38 38 35 34 36 37 45
2810.0 44 49 48 66 65 80 91 119 152 216
2850.0 294 350 364 342 290 231 181 140 123 118
2890.0 117 130 158 209 288 417 623 848 1027 1089
2930.0 1046 888 695 512 370 273 218 177 158 154
2970.0 162 176 202 224 218 210 208 191 184 188
3010.0 209 258 350 502 746 1074 1291 1232 1037 900
3050.0 791 674 537 447 407 415 445 506 595 691
3090.0 742 722 637 537 425 300 201 130 91 70
3130.0 58 60 38 38 35 40 33 29 32 22
3170.0 22 31 28 24 20 16 18 24 20 22
3210.0 19 26 24 16 20 24 15 13 9 9
3250.0 9 24 18 15 26 26 21 19 17 29
3290.0 24 27 14 23 19 22 14 16 22 24
3330.0 28 24 19 18 20 18 25 18 23 12
3370.0 17 18 19 14 12 28 17 15 26 17
3410.0 30 19 26 9 15 18 25 19 15 24
3450.0 22 10 28 24 18 25 30 20 27 27
3490.0 6 27 22 28 13 13 8 12 24 15
3530.0 26 13 16 19 13 22 13 15 14 12
3570.0 18 23 29 33 35 23 40 17 39 17
3610.0 27 16 14 23 12 20 31 27 10 23
3650.0 36 41 36 44 24 32 26 17 23 26
3690.0 37 24 24 38 30 34 33 22 29 25
3730.0 49 31 33 31 29 35 41 7 1 25
3770.0 24 1 4 23 17 13 1 4 26 7
3810.0 2 5 17 6 7 16 16 12 7 17
3850.0 14 21 25 15 28 1 6 9 2 8
3890.0 23 26 28 8 23 32 34 15 1 1
3930.0 4 14 0 3 16 28 1 1 1 4
##END=
