##TITLE=Benzene, 1-bromo-4-phenoxy-
##JCAMP-DX=4.24
##DATA TYPE=INFRARED SPECTRUM
##ORIGIN=Sadtler Research Labs Under US-EPA Contract
##OWNER=NIST Standard Reference Data Program
##CAS REGISTRY NO=101-55-3
##MOLFORM=C 12 H 9 Br O
##XUNITS=1/CM
##YUNITS=ABSORBANCE
##XFACTOR=1.0
##YFACTOR=0.000249762
##DELTAX=4.0
##FIRSTX=450.0
##LASTX=3966.0
##FIRSTY=0.013487
##MAXX=3966
##MINX=450
##MAXY=2.49762
##MINY=0
##NPOINTS=880
##XYDATA=(X++(Y..Y))
450.0 54 51 10 77 122 118 242 282 382 419
490.0 503 444 397 283 215 157 105 95 70 81
530.0 72 79 42 44 47 47 43 43 42 44
570.0 56 17 40 80 137 122 91 63 43 56
610.0 54 66 60 63 74 79 87 94 109 80
650.0 73 50 63 58 64 90 112 157 242 353
690.0 455 446 386 291 205 150 118 94 87 95
730.0 126 174 267 379 520 674 709 611 447 332
770.0 237 186 166 157 162 169 172 169 168 169
810.0 188 228 284 350 416 467 476 453 385 310
850.0 253 237 275 469 713 674 381 159 96 65
890.0 61 60 64 65 68 58 40 28 12 7
930.0 3 5 3 6 1 1 2 0 8 7
970.0 14 13 24 21 23 29 37 71 167 461
1010.0 805 758 347 224 187 104 37 33 26 38
1050.0 50 78 125 251 605 1118 1174 662 241 156
1090.0 138 138 132 126 111 92 78 60 49 39
1130.0 39 36 42 52 68 95 130 255 517 685
1170.0 500 233 169 173 185 210 239 280 333 406
1210.0 521 706 969 1357 1965 2924 4153 5559 6225 5823
1250.0 4441 2974 2005 1543 1367 1194 951 720 590 534
1290.0 508 470 408 325 251 196 162 150 144 141
1330.0 131 125 117 110 97 87 68 56 51 47
1370.0 48 47 55 57 74 78 80 71 68 68
1410.0 74 104 161 203 183 127 98 90 106 121
1450.0 167 210 339 456 588 761 1282 2736 4411 10000
1490.0 5166 3302 1688 941 605 403 295 216 172 137
1530.0 116 103 96 91 90 87 112 121 184 274
1570.0 494 800 1198 1502 1235 982 839 809 668 514
1610.0 345 219 158 130 109 99 87 80 72 70
1650.0 65 53 43 33 29 23 22 18 22 23
1690.0 21 24 31 36 37 38 41 43 40 40
1730.0 39 41 33 28 39 46 55 50 44 40
1770.0 47 52 48 45 31 26 22 21 17 12
1810.0 9 8 6 7 8 10 14 15 21 26
1850.0 30 34 40 51 60 74 82 83 76 64
1890.0 49 35 24 17 17 17 24 29 36 40
1930.0 42 42 40 41 41 39 30 20 12 12
1970.0 11 12 14 16 19 23 28 30 34 34
2010.0 36 39 44 51 56 57 52 44 35 30
2050.0 30 30 36 41 44 38 29 21 18 15
2090.0 13 11 9 8 6 4 4 3 3 3
2130.0 2 2 3 2 2 0 0 0 0 2
2170.0 2 0 1 0 0 0 0 0 0 0
2210.0 0 0 0 1 3 2 5 4 7 7
2250.0 8 8 8 10 12 13 11 9 6 6
2290.0 4 3 1 3 3 5 5 5 6 8
2330.0 8 8 4 5 6 12 8 13 15 10
2370.0 7 8 10 13 18 23 30 35 41 43
2410.0 43 41 42 46 51 58 61 61 55 48
2450.0 38 35 31 28 27 26 24 20 18 14
2490.0 16 14 13 11 11 9 10 10 8 10
2530.0 8 10 11 12 13 16 15 15 15 14
2570.0 13 10 8 7 6 6 4 5 3 5
2610.0 5 5 7 5 6 6 6 8 7 9
2650.0 9 7 4 4 2 2 2 5 6 6
2690.0 5 5 2 3 1 1 2 0 3 2
2730.0 5 5 4 4 3 2 2 0 0 3
2770.0 3 5 5 5 6 6 6 6 6 7
2810.0 10 12 14 17 17 19 17 17 18 16
2850.0 13 14 12 12 12 12 14 12 12 11
2890.0 9 8 8 9 9 9 9 8 7 8
2930.0 7 8 8 10 9 8 6 6 8 8
2970.0 8 9 9 10 10 11 12 13 16 19
3010.0 28 40 57 72 89 109 146 193 252 295
3050.0 296 254 212 200 210 236 282 354 401 374
3090.0 305 260 238 207 167 121 77 47 30 19
3130.0 14 11 9 7 5 6 4 5 4 5
3170.0 5 5 5 7 7 7 5 3 5 4
3210.0 5 4 2 3 4 6 5 5 2 3
3250.0 3 3 3 5 2 2 3 2 4 5
3290.0 4 2 4 3 4 3 5 3 3 3
3330.0 4 1 3 6 4 5 4 2 4 3
3370.0 4 4 4 4 4 3 4 4 1 5
3410.0 4 4 2 4 3 3 3 2 3 4
3450.0 4 4 2 2 3 3 2 2 2 3
3490.0 3 1 0 2 0 0 2 3 3 0
3530.0 5 4 3 3 0 2 1 2 2 4
3570.0 3 7 6 8 5 4 2 0 4 1
3610.0 3 3 0 0 3 2 7 5 2 6
3650.0 0 3 8 7 9 7 8 4 9 7
3690.0 8 8 8 9 6 10 7 14 8 10
3730.0 9 9 9 6 7 11 8 12 3 12
3770.0 9 9 9 8 9 7 8 6 10 6
3810.0 7 6 3 3 9 8 2 12 7 7
3850.0 11 8 10 5 11 9 6 8 5 7
3890.0 10 9 5 11 10 10 10 10 7 3
3930.0 5 1 10 6 6 4 7 7 5 7
##END=
