##TITLE=Benzene, (2,2-dimethoxyethyl)-
##JCAMP-DX=4.24
##DATA TYPE=INFRARED SPECTRUM
##ORIGIN=Sadtler Research Labs Under US-EPA Contract
##OWNER=NIST Standard Reference Data Program
##CAS REGISTRY NO=101-48-4
##MOLFORM=C 10 H 14 O 2
##XUNITS=1/CM
##YUNITS=ABSORBANCE
##XFACTOR=1.0
##YFACTOR=0.000077588
##DELTAX=4.0
##FIRSTX=450.0
##LASTX=3966.0
##FIRSTY=0.010319
##MAXX=3966
##MINX=450
##MAXY=0.77588
##MINY=0
##NPOINTS=880
##XYDATA=(X++(Y..Y))
450.0 133 142 126 168 109 102 105 57 8 32
490.0 35 5 104 74 61 19 78 62 124 123
530.0 117 191 313 339 525 608 772 914 893 889
570.0 709 557 400 332 257 448 376 287 343 240
610.0 152 118 140 108 143 109 110 151 134 158
650.0 94 168 173 231 273 371 472 687 976 1427
690.0 2050 2735 2968 2626 1944 1455 1158 953 900 989
730.0 980 1324 1612 1782 1836 1835 1143 626 407 347
770.0 304 292 220 228 205 159 206 222 162 238
810.0 301 463 546 640 738 804 933 942 761 623
850.0 406 304 251 269 279 209 182 164 182 247
890.0 307 430 528 593 613 492 366 326 435 443
930.0 562 560 556 464 421 428 517 643 807 1115
970.0 1391 1767 1941 1977 1864 1679 1643 1627 1570 1493
1010.0 1292 1183 1157 1236 1486 1757 2125 1972 2115 2398
1050.0 2880 3512 4201 5234 6195 7204 7985 8321 8715 8766
1090.0 8454 7866 6782 5813 5171 5237 5935 7250 8782 10000
1130.0 9668 8351 6155 4397 3266 2525 2228 1961 1821 1818
1170.0 1921 2098 2321 2518 2738 2765 2690 2560 2320 2328
1210.0 2065 1894 1675 1589 1534 1466 1424 1400 1217 1143
1250.0 966 866 795 744 685 702 651 631 539 530
1290.0 537 548 512 578 584 520 511 501 514 515
1330.0 524 551 632 657 771 940 1255 1700 2197 2549
1370.0 2636 2357 1956 1562 1166 879 674 570 490 429
1410.0 376 326 333 360 450 600 766 966 1100 1204
1450.0 1314 1366 1335 1156 1022 904 859 763 664 693
1490.0 908 1311 1538 1422 1128 512 274 210 229 208
1530.0 203 203 198 244 219 185 179 208 209 199
1570.0 198 200 260 267 272 323 428 492 606 669
1610.0 652 570 433 247 180 196 186 237 263 361
1650.0 385 439 325 297 252 194 135 136 163 164
1690.0 136 179 193 225 216 267 338 349 292 316
1730.0 369 498 550 605 615 655 624 558 493 455
1770.0 462 406 298 248 241 226 265 261 251 213
1810.0 160 128 111 102 96 90 71 68 72 78
1850.0 80 96 110 123 131 168 151 157 161 136
1890.0 117 99 77 78 78 72 79 85 104 117
1930.0 144 172 194 215 218 222 217 195 156 130
1970.0 103 84 76 78 78 80 85 73 77 83
2010.0 91 78 83 89 83 84 89 91 101 95
2050.0 104 98 109 104 103 102 96 109 96 108
2090.0 101 96 89 92 89 82 85 90 83 76
2130.0 76 69 69 70 69 57 67 62 66 74
2170.0 63 61 70 64 51 51 44 45 37 35
2210.0 32 29 26 25 28 18 19 19 18 25
2250.0 32 32 29 26 35 27 31 31 24 19
2290.0 24 25 31 43 45 51 57 64 63 64
2330.0 63 61 64 79 82 61 76 87 121 83
2370.0 73 42 40 29 29 17 17 17 23 23
2410.0 29 24 16 19 23 27 23 22 18 21
2450.0 17 17 16 17 10 9 9 15 10 6
2490.0 14 9 9 4 10 16 16 23 25 16
2530.0 14 13 17 24 28 35 32 37 31 38
2570.0 44 52 51 58 67 74 72 81 83 76
2610.0 85 96 85 92 98 105 107 126 132 144
2650.0 143 151 150 145 157 149 157 171 176 184
2690.0 191 194 192 189 191 186 180 173 184 178
2730.0 186 174 165 167 172 166 162 161 169 180
2770.0 189 199 223 251 289 333 397 463 523 613
2810.0 685 784 933 1215 1679 2310 2983 3391 3359 2896
2850.0 2270 1764 1450 1245 1128 1068 1042 1101 1194 1370
2890.0 1618 1931 2295 2687 2983 3102 3071 3073 3177 3386
2930.0 3621 3907 4138 4188 4114 3976 3910 3869 3771 3432
2970.0 2915 2393 2005 1867 1921 2166 2467 2590 2488 2176
3010.0 1804 1494 1371 1429 1675 2083 2459 2621 2476 2103
3050.0 1694 1400 1264 1353 1694 2144 2266 2110 1686 1326
3090.0 1182 1097 975 822 658 546 487 409 323 221
3130.0 168 130 111 100 85 67 75 68 69 62
3170.0 64 68 58 39 39 39 39 29 35 43
3210.0 28 26 27 20 28 26 30 28 29 29
3250.0 27 19 30 17 28 11 29 11 24 7
3290.0 9 23 23 19 20 25 21 0 32 20
3330.0 21 20 22 10 14 24 19 16 17 22
3370.0 17 17 16 16 17 11 6 8 25 21
3410.0 21 21 14 21 19 26 25 19 21 26
3450.0 25 17 29 26 16 17 9 22 28 15
3490.0 21 10 13 13 18 23 32 9 21 28
3530.0 12 13 17 25 19 24 40 22 30 37
3570.0 45 40 70 83 93 84 77 59 47 26
3610.0 47 48 59 62 48 78 65 58 58 87
3650.0 105 86 93 79 79 83 87 95 84 75
3690.0 92 83 77 87 90 96 113 85 84 93
3730.0 87 96 111 90 108 103 106 104 91 93
3770.0 92 85 97 91 91 90 105 107 117 107
3810.0 114 120 126 127 120 116 131 142 137 141
3850.0 149 159 138 141 141 149 135 134 138 144
3890.0 141 154 152 160 156 160 164 164 151 150
3930.0 132 139 140 136 133 151 16 26 26 27
##END=
