##TITLE=1,4-Benzenediamine, N-(1-methylethyl)-N'-phenyl-
##JCAMP-DX=4.24
##DATA TYPE=INFRARED SPECTRUM
##ORIGIN=Sadtler Research Labs Under US-EPA Contract
##OWNER=NIST Standard Reference Data Program
##CAS REGISTRY NO=101-72-4
##MOLFORM=C 15 H 18 N 2
##XUNITS=1/CM
##YUNITS=ABSORBANCE
##XFACTOR=1.0
##YFACTOR=0.000043826
##DELTAX=4.0
##FIRSTX=450.0
##LASTX=3966.0
##FIRSTY=0.000000
##MAXX=3966
##MINX=450
##MAXY=0.43826
##MINY=0
##NPOINTS=880
##XYDATA=(X++(Y..Y))
450.0 0 87 222 121 91 184 275 204 279 234
490.0 301 332 363 358 298 359 294 281 216 170
530.0 135 135 116 109 100 118 113 149 149 119
570.0 160 75 57 76 64 47 27 110 78 87
610.0 107 115 157 157 150 146 170 154 201 190
650.0 184 196 261 290 273 293 324 372 476 608
690.0 722 716 618 499 397 328 312 287 292 311
730.0 396 575 823 1005 1086 888 630 410 293 230
770.0 222 213 224 259 299 352 410 469 531 552
810.0 587 593 593 539 477 438 361 328 314 353
850.0 347 291 197 159 159 242 231 170 91 64
890.0 36 38 38 29 12 15 17 19 29 24
930.0 26 27 41 23 28 15 23 31 32 62
970.0 70 79 82 73 72 76 100 113 63 72
1010.0 53 61 54 117 196 218 116 45 42 35
1050.0 48 50 60 87 108 131 135 130 127 128
1090.0 125 162 204 285 356 401 398 417 421 406
1130.0 407 399 398 447 484 545 615 696 821 1000
1170.0 1175 1336 1362 1108 758 530 424 387 394 430
1210.0 471 542 624 746 947 1195 1467 1738 1964 2134
1250.0 2226 2232 2142 2015 1932 1906 1938 2062 2259 2492
1290.0 2741 2969 3114 3066 2764 2275 1775 1376 1115 961
1330.0 882 853 815 745 672 623 592 600 625 666
1370.0 700 709 731 844 984 933 742 625 603 570
1410.0 568 567 591 613 603 593 589 606 602 643
1450.0 691 774 850 882 918 950 1023 1132 1366 1876
1490.0 2902 4606 5956 6148 6494 8270 10000 8999 6105 3498
1530.0 2231 1567 1221 1020 879 799 717 691 649 632
1570.0 628 658 722 864 1085 1472 1949 2465 2720 2557
1610.0 2101 1667 1360 1082 827 622 489 396 342 300
1650.0 272 273 246 240 236 224 214 196 184 194
1690.0 177 171 196 189 188 190 209 214 228 239
1730.0 256 285 287 264 248 250 231 224 214 207
1770.0 195 184 161 153 139 128 115 109 117 105
1810.0 102 109 108 111 118 105 122 115 128 124
1850.0 124 122 119 118 111 107 97 96 89 83
1890.0 79 75 79 79 88 88 98 109 97 93
1930.0 87 82 78 67 55 48 42 44 39 37
1970.0 35 33 33 32 28 27 28 30 28 17
2010.0 23 21 24 25 24 29 27 26 27 24
2050.0 25 33 37 33 34 32 31 30 38 36
2090.0 40 38 38 35 35 29 28 26 26 24
2130.0 24 23 21 19 23 20 18 16 16 16
2170.0 14 17 14 12 13 11 10 17 13 11
2210.0 10 13 16 13 14 19 17 21 17 21
2250.0 30 32 32 34 40 39 43 47 49 54
2290.0 58 55 59 66 76 75 79 66 86 75
2330.0 80 80 73 87 77 94 103 83 73 62
2370.0 72 67 69 67 43 33 30 27 28 29
2410.0 24 21 21 22 25 21 26 27 27 32
2450.0 30 33 39 36 42 45 51 49 51 50
2490.0 49 48 50 51 50 55 62 69 65 70
2530.0 73 71 69 68 64 65 55 54 51 52
2570.0 45 45 44 40 41 38 37 43 37 43
2610.0 44 45 52 53 49 51 50 52 46 48
2650.0 43 45 44 44 46 43 42 44 43 44
2690.0 48 42 48 48 55 59 62 63 66 72
2730.0 72 64 61 63 64 62 61 61 60 62
2770.0 69 75 72 71 77 77 82 88 97 102
2810.0 116 122 124 131 137 137 144 150 160 180
2850.0 197 223 252 288 327 378 456 538 580 559
2890.0 508 463 441 454 465 505 540 591 640 696
2930.0 765 816 873 888 846 780 774 864 1029 1240
2970.0 1459 1610 1768 1796 1468 955 641 516 456 457
3010.0 504 588 718 878 1005 1026 937 831 801 830
3050.0 910 970 968 877 757 679 622 600 582 552
3090.0 502 445 398 342 301 251 210 166 139 112
3130.0 99 85 73 62 59 59 48 53 45 42
3170.0 38 43 40 33 29 36 41 37 35 36
3210.0 31 39 40 27 30 28 25 19 26 22
3250.0 21 23 20 24 21 22 16 9 24 26
3290.0 19 22 19 24 25 29 25 31 26 27
3330.0 29 30 40 38 35 39 38 48 44 51
3370.0 58 54 58 75 91 93 95 127 137 153
3410.0 169 191 220 229 247 247 237 234 199 176
3450.0 143 123 106 89 81 67 57 60 46 54
3490.0 57 41 40 55 66 58 52 56 52 30
3530.0 22 33 34 21 15 20 23 15 20 22
3570.0 42 23 55 31 31 37 24 37 27 17
3610.0 34 19 25 19 26 34 15 33 36 35
3650.0 29 36 43 42 42 36 37 31 31 39
3690.0 36 33 29 34 41 34 25 16 19 35
3730.0 41 41 36 49 41 37 33 24 27 34
3770.0 10 26 31 39 14 29 13 9 36 33
3810.0 20 11 21 24 31 26 40 38 34 44
3850.0 42 51 50 25 23 46 50 44 37 55
3890.0 40 35 25 42 32 28 30 58 40 58
3930.0 55 48 38 33 25 37 50 43 20 34
##END=
