##TITLE=2,4,6-Triallyloxy-1,3,5-triazine
##JCAMP-DX=4.24
##DATA TYPE=INFRARED SPECTRUM
##ORIGIN=Sadtler Research Labs Under US-EPA Contract
##OWNER=NIST Standard Reference Data Program
##CAS REGISTRY NO=101-37-1
##MOLFORM=C 12 H 15 N 3 O 3
##XUNITS=1/CM
##YUNITS=ABSORBANCE
##XFACTOR=1.0
##YFACTOR=0.000084473
##DELTAX=4.0
##FIRSTX=450.0
##LASTX=3966.0
##FIRSTY=0.005575
##MAXX=3966
##MINX=450
##MAXY=0.84473
##MINY=0
##NPOINTS=880
##XYDATA=(X++(Y..Y))
450.0 66 75 68 80 68 64 59 66 71 77
490.0 127 122 95 108 68 92 91 104 103 83
530.0 131 80 135 117 96 130 90 98 112 85
570.0 105 86 101 88 77 128 102 154 113 119
610.0 90 74 122 105 97 133 140 162 112 130
650.0 141 136 135 144 110 131 133 157 113 144
690.0 164 149 114 98 142 128 115 102 126 131
730.0 115 137 109 76 122 124 82 99 95 130
770.0 86 82 70 102 117 91 101 106 99 118
810.0 146 187 298 521 709 485 323 151 147 119
850.0 108 151 133 156 145 165 171 166 186 215
890.0 261 309 329 401 424 477 560 678 899 1136
930.0 1291 1190 951 773 700 752 790 823 843 821
970.0 821 766 732 709 690 713 660 581 493 410
1010.0 398 377 363 326 282 279 249 252 228 221
1050.0 216 228 238 240 244 275 301 340 376 486
1090.0 595 738 944 1195 1515 1884 2343 2737 3104 3395
1130.0 3578 3786 3798 3578 3320 2758 2226 1735 1387 1147
1170.0 897 683 499 384 322 276 264 238 223 221
1210.0 211 209 200 208 229 225 255 267 285 281
1250.0 263 263 255 291 363 460 584 640 710 911
1290.0 1192 1227 989 777 744 896 1239 1914 3264 5638
1330.0 8627 10000 8304 5859 4124 2987 2283 1816 1409 1077
1370.0 892 842 880 1051 1405 2179 3573 5819 7711 8318
1410.0 6783 4856 3394 2531 2272 2240 2086 1825 1610 1609
1450.0 1784 1964 2170 1959 1546 1035 710 528 460 425
1490.0 452 443 496 524 610 649 653 684 740 796
1530.0 926 1163 1525 2191 3053 4260 5572 6608 7356 8082
1570.0 8742 8073 6792 5828 5297 4581 3695 2717 1931 1438
1610.0 1104 899 778 646 580 504 472 466 421 457
1650.0 430 451 319 294 273 280 258 249 241 272
1690.0 224 235 259 274 244 235 251 274 217 199
1730.0 189 211 164 174 193 236 224 224 223 202
1770.0 233 257 239 263 266 254 254 209 181 128
1810.0 122 115 110 122 128 136 132 132 146 163
1850.0 155 160 167 180 174 183 148 137 134 124
1890.0 126 113 114 115 110 110 105 111 105 103
1930.0 104 93 98 95 98 93 89 95 93 93
1970.0 88 87 93 88 88 87 85 82 76 76
2010.0 76 76 76 71 76 76 76 76 74 78
2050.0 73 76 76 76 76 71 77 77 76 83
2090.0 77 81 79 76 80 76 76 76 78 77
2130.0 77 76 76 75 77 77 77 77 78 70
2170.0 74 77 66 72 71 71 72 66 70 65
2210.0 70 69 61 66 65 67 71 65 71 65
2250.0 71 66 65 73 64 73 72 68 72 72
2290.0 77 77 78 77 77 91 84 96 105 96
2330.0 110 98 108 101 96 95 108 130 126 124
2370.0 110 94 94 78 78 78 73 73 73 78
2410.0 79 73 79 71 77 75 74 79 79 79
2450.0 79 79 84 78 78 78 78 78 79 79
2490.0 79 79 83 85 90 84 90 91 95 106
2530.0 97 106 105 104 108 108 113 102 103 102
2570.0 102 103 96 95 88 78 79 80 80 78
2610.0 80 79 74 79 79 80 81 80 86 81
2650.0 82 80 80 81 68 74 73 68 68 63
2690.0 61 60 63 64 56 61 56 52 57 52
2730.0 56 52 52 53 51 57 50 54 55 57
2770.0 57 57 64 63 69 75 71 75 75 83
2810.0 82 79 85 78 78 83 78 84 61 47
2850.0 19 0 0 6 34 45 59 72 84 102
2890.0 113 125 138 125 104 85 59 39 12 27
2930.0 53 114 195 292 376 418 441 440 412 386
2970.0 337 298 250 242 265 282 330 344 326 273
3010.0 224 211 206 234 276 288 262 184 148 125
3050.0 127 126 121 126 128 138 155 172 204 231
3090.0 305 384 414 366 281 220 162 131 118 95
3130.0 108 103 100 96 93 97 88 84 84 73
3170.0 84 73 73 73 68 72 61 72 67 57
3210.0 69 51 64 64 63 66 63 66 53 65
3250.0 59 59 64 52 60 60 59 65 55 58
3290.0 56 58 61 53 63 57 51 54 49 56
3330.0 51 61 62 54 60 50 64 62 50 62
3370.0 45 58 57 47 58 53 58 61 48 63
3410.0 48 66 49 57 54 48 71 54 60 56
3450.0 73 78 79 92 92 80 84 63 73 62
3490.0 56 57 50 67 52 61 63 53 59 62
3530.0 61 62 59 58 65 64 54 63 65 70
3570.0 88 61 68 65 60 80 54 61 67 60
3610.0 83 69 76 80 71 95 55 67 66 68
3650.0 91 68 75 53 63 84 75 107 61 63
3690.0 89 67 70 64 71 71 81 66 66 84
3730.0 69 87 99 78 115 92 87 66 66 73
3770.0 63 64 65 54 65 60 68 73 85 74
3810.0 69 69 81 87 76 69 82 79 81 76
3850.0 75 98 72 77 77 76 83 72 83 85
3890.0 73 79 72 79 77 68 65 61 68 68
3930.0 67 68 61 68 59 62 38 39 40 40
##END=
