##TITLE=Phenol, 4-(phenylmethyl)-
##JCAMP-DX=4.24
##DATA TYPE=INFRARED SPECTRUM
##ORIGIN=Sadtler Research Labs Under US-EPA Contract
##OWNER=NIST Standard Reference Data Program
##CAS REGISTRY NO=101-53-1
##MOLFORM=C 13 H 12 O
##XUNITS=1/CM
##YUNITS=ABSORBANCE
##XFACTOR=1.0
##YFACTOR=0.000050281
##DELTAX=4.0
##FIRSTX=450.0
##LASTX=3966.0
##FIRSTY=0.003620
##MAXX=3966
##MINX=450
##MAXY=0.50281
##MINY=0
##NPOINTS=880
##XYDATA=(X++(Y..Y))
450.0 72 356 0 72 455 245 471 449 700 803
490.0 940 1156 1645 1648 1761 1565 1504 1431 1001 640
530.0 409 312 267 280 268 295 292 387 365 468
570.0 460 496 549 646 823 1059 1183 1174 929 676
610.0 496 308 220 248 221 201 191 243 213 226
650.0 351 269 325 375 420 434 664 746 1031 1337
690.0 1769 2165 2471 2430 2156 2004 2025 2157 2342 2248
730.0 1928 1618 1266 973 702 625 620 614 735 905
770.0 1339 2060 2531 2530 1988 1542 1482 1526 1576 1524
810.0 1285 1167 1168 1268 1409 1515 1734 1798 1769 1648
850.0 1445 1053 700 511 451 425 360 328 289 290
890.0 282 304 353 359 334 323 301 295 294 284
930.0 282 251 245 203 198 201 196 188 179 174
970.0 162 173 183 201 193 206 213 229 262 312
1010.0 420 481 468 559 685 741 641 440 281 268
1050.0 284 317 366 426 488 565 619 652 711 818
1090.0 1002 1182 1251 1186 1014 850 746 675 689 746
1130.0 838 927 974 1021 1158 1472 2125 3345 5406 8129
1170.0 9953 10000 8615 6990 5864 5028 4177 3438 2730 2109
1210.0 1648 1350 1220 1131 1076 1140 1190 1403 1833 2830
1250.0 4808 6773 7295 5733 3038 1402 902 740 663 641
1290.0 606 618 632 626 672 722 826 1003 1252 1660
1330.0 1944 1947 1590 1139 825 599 472 430 354 329
1370.0 287 220 231 233 207 228 214 185 230 250
1410.0 313 420 478 808 1065 1426 1607 1626 1510 1257
1450.0 1106 915 844 675 606 481 418 496 669 974
1490.0 1579 2260 2990 3768 5465 8558 9040 8269 4798 2408
1530.0 1248 844 590 447 382 436 478 421 613 662
1570.0 636 668 661 834 1009 1291 1627 1827 2149 2249
1610.0 2506 2624 2334 1898 1223 823 538 357 356 267
1650.0 207 188 160 205 162 168 108 185 84 96
1690.0 95 124 71 69 81 95 101 39 122 178
1730.0 132 135 144 193 165 162 216 215 173 173
1770.0 130 108 158 144 162 191 183 217 148 161
1810.0 130 104 127 91 98 62 110 120 127 137
1850.0 164 208 217 219 232 222 258 252 232 218
1890.0 195 178 181 156 147 109 107 92 97 134
1930.0 154 163 189 184 197 221 208 177 137 98
1970.0 86 79 78 74 73 58 50 47 54 56
2010.0 59 65 75 79 85 98 94 87 68 69
2050.0 55 56 52 52 53 56 53 50 42 49
2090.0 50 64 75 72 65 59 46 34 30 40
2130.0 30 28 21 19 19 14 17 24 17 15
2170.0 10 6 18 17 14 18 17 8 10 16
2210.0 24 27 18 12 15 15 17 34 39 32
2250.0 29 30 32 30 36 44 49 44 41 49
2290.0 61 58 63 65 68 49 59 61 73 82
2330.0 61 73 44 87 29 100 11 63 4 5
2370.0 23 18 64 69 64 51 48 56 64 75
2410.0 95 118 145 150 163 154 135 121 103 96
2450.0 84 72 64 65 64 65 55 47 50 48
2490.0 62 71 86 98 100 101 93 80 65 58
2530.0 55 46 41 40 39 43 35 39 42 41
2570.0 40 33 44 53 59 64 72 66 73 78
2610.0 85 78 71 65 61 52 50 60 66 63
2650.0 58 52 51 42 38 50 59 55 57 61
2690.0 52 53 48 53 56 57 47 39 53 58
2730.0 56 57 57 55 51 73 87 98 89 93
2770.0 83 79 82 86 87 73 63 66 66 70
2810.0 76 71 84 94 98 129 181 233 315 400
2850.0 479 499 495 445 384 335 300 279 280 290
2890.0 315 387 475 573 726 944 1168 1371 1486 1473
2930.0 1337 1115 879 671 512 399 309 262 229 195
2970.0 159 153 167 185 203 239 308 418 603 908
3010.0 1287 1669 1987 2219 2489 2872 3175 3143 2779 2209
3050.0 1760 1567 1594 1800 2205 2546 2538 2198 1732 1411
3090.0 1237 1074 916 788 676 584 492 399 322 248
3130.0 195 179 153 104 90 81 85 73 71 72
3170.0 68 61 53 64 56 42 48 40 38 42
3210.0 39 48 40 44 30 52 42 47 46 46
3250.0 48 35 21 40 64 57 47 40 46 32
3290.0 33 33 42 61 32 45 29 39 55 60
3330.0 62 49 48 75 66 97 91 94 93 71
3370.0 79 67 94 86 73 91 77 62 41 63
3410.0 79 74 72 82 66 85 78 82 73 44
3450.0 56 42 46 43 36 63 68 35 43 27
3490.0 46 55 59 42 29 44 44 51 66 16
3530.0 46 73 36 33 15 31 61 53 38 19
3570.0 44 53 39 81 53 42 53 24 99 74
3610.0 98 123 90 171 214 283 506 842 1599 2672
3650.0 4187 5156 4196 2558 1225 558 295 275 118 99
3690.0 61 79 122 49 79 71 44 67 3 53
3730.0 54 21 9 21 41 18 40 70 44 69
3770.0 43 71 74 77 94 82 114 105 23 122
3810.0 58 138 46 102 63 81 12 59 104 86
3850.0 148 13 100 61 91 109 119 149 74 78
3890.0 56 101 110 91 133 134 118 69 91 73
3930.0 66 157 115 38 54 81 248 186 160 117
##END=
