##TITLE=1,2-Benzenediol, 3-(1,1-dimethylethyl)-5-methyl-
##JCAMP-DX=4.24
##DATA TYPE=INFRARED SPECTRUM
##ORIGIN=Sadtler Research Labs Under US-EPA Contract
##OWNER=NIST Standard Reference Data Program
##CAS REGISTRY NO=1010-99-7
##MOLFORM=C 11 H 16 O 2
##XUNITS=1/CM
##YUNITS=ABSORBANCE
##XFACTOR=1.0
##YFACTOR=0.000076978
##DELTAX=4.0
##FIRSTX=450.0
##LASTX=3966.0
##FIRSTY=0.057656
##MAXX=3966
##MINX=450
##MAXY=0.76978
##MINY=0
##NPOINTS=880
##XYDATA=(X++(Y..Y))
450.0 749 766 672 644 579 530 452 401 425 399
490.0 396 334 300 239 229 198 182 170 191 225
530.0 248 238 234 222 151 148 176 169 206 257
570.0 275 248 220 200 212 290 450 653 751 726
610.0 581 393 285 219 179 147 175 219 302 411
650.0 501 427 349 208 148 88 44 26 10 21
690.0 6 16 25 47 67 101 197 312 481 631
730.0 687 752 918 1172 1305 1228 902 515 237 113
770.0 69 59 53 45 48 41 56 64 149 359
810.0 684 924 960 785 522 424 500 643 742 809
850.0 917 976 913 849 753 566 373 219 104 54
890.0 31 21 23 33 50 63 104 163 282 418
930.0 498 508 451 393 424 571 826 1106 1352 1459
970.0 1400 1213 967 778 705 725 803 904 1003 1130
1010.0 1283 1490 1697 1815 1747 1503 1159 837 601 459
1050.0 374 327 308 287 273 253 241 240 253 285
1090.0 345 452 650 931 1194 1281 1156 904 634 444
1130.0 379 403 477 622 862 1219 1756 2441 3225 4138
1170.0 5307 6725 7957 8406 7759 6252 4698 3707 3144 2770
1210.0 2610 2759 3208 3847 4566 4859 4562 3794 2841 2327
1250.0 2352 2581 2801 2832 2772 2732 2930 3531 4372 5238
1290.0 6032 6799 7549 8171 8209 7324 5670 3847 2460 1631
1330.0 1254 1125 1114 1149 1227 1331 1458 1605 1771 1886
1370.0 1784 1557 1249 963 787 776 880 941 1029 1158
1410.0 1360 1704 1983 2066 1969 1784 1629 1521 1446 1412
1450.0 1435 1511 1595 1640 1619 1591 1597 1765 2160 2823
1490.0 3643 4322 4570 4552 4410 4277 4310 4254 3983 3409
1530.0 2711 1912 1338 996 816 718 639 603 566 539
1570.0 519 527 546 604 714 889 1095 1340 1585 1796
1610.0 1916 1891 1722 1430 1127 830 590 376 227 131
1650.0 78 60 56 57 64 63 65 44 32 19
1690.0 14 18 26 13 3 11 22 46 83 109
1730.0 112 111 84 59 34 25 24 17 21 24
1770.0 22 15 15 20 33 38 40 40 37 36
1810.0 33 30 32 33 33 32 37 37 37 36
1850.0 37 39 38 37 39 39 50 53 51 53
1890.0 50 53 53 57 56 58 59 65 61 63
1930.0 58 59 57 48 45 45 45 44 41 39
1970.0 34 35 31 30 33 31 31 36 40 35
2010.0 35 31 25 21 21 20 23 23 28 29
2050.0 30 28 28 30 32 28 29 26 25 21
2090.0 12 14 9 5 6 7 9 7 8 6
2130.0 7 3 4 5 10 9 7 13 16 12
2170.0 18 23 25 26 23 25 21 17 15 13
2210.0 10 5 7 6 6 6 8 12 8 14
2250.0 17 17 20 15 16 19 18 16 15 20
2290.0 21 26 31 34 45 46 54 41 55 51
2330.0 57 55 55 62 53 59 58 62 59 57
2370.0 66 75 79 79 68 58 51 45 43 34
2410.0 30 24 26 25 21 25 24 29 27 34
2450.0 27 27 26 23 22 21 22 27 26 26
2490.0 25 31 29 28 26 34 33 32 32 35
2530.0 27 33 29 32 33 32 28 27 30 25
2570.0 22 20 20 12 13 14 13 13 8 8
2610.0 9 11 14 20 19 17 25 31 30 33
2650.0 37 36 36 40 35 38 37 36 29 39
2690.0 41 37 39 41 47 57 59 73 80 88
2730.0 91 98 103 105 118 111 103 85 75 63
2770.0 58 61 63 71 87 95 99 104 107 124
2810.0 140 154 176 192 208 221 246 280 333 405
2850.0 535 715 973 1309 1682 2044 2327 2457 2431 2349
2890.0 2235 2183 2233 2424 2697 2989 3181 3247 3253 3262
2930.0 3335 3408 3454 3520 3747 4382 5606 7222 8729 9903
2970.0 10000 8972 7041 4883 3245 2203 1501 1032 727 550
3010.0 448 388 384 391 412 451 506 563 638 713
3050.0 769 802 800 764 699 600 494 398 316 249
3090.0 204 161 145 119 116 106 105 107 99 89
3130.0 84 80 86 76 78 67 67 63 58 71
3170.0 69 72 78 86 93 98 94 94 90 98
3210.0 90 97 92 88 92 100 95 86 92 92
3250.0 82 75 72 86 90 89 101 101 108 111
3290.0 100 100 83 78 68 67 59 62 68 77
3330.0 53 73 77 69 71 70 65 65 57 60
3370.0 74 74 75 68 66 81 82 85 84 78
3410.0 76 90 91 95 90 102 91 114 120 138
3450.0 143 139 147 155 152 160 162 168 183 179
3490.0 162 159 145 155 147 132 132 133 122 131
3530.0 98 111 99 101 130 124 120 139 139 194
3570.0 220 291 455 750 1381 2508 4011 5526 6293 5805
3610.0 4463 2811 1476 760 535 509 566 671 854 1138
3650.0 1552 1973 2407 2603 2379 1932 1308 653 293 133
3690.0 70 23 3 7 3 18 4 3 5 15
3730.0 3 7 21 1 8 18 3 3 3 3
3770.0 3 3 3 3 3 3 3 3 11 4
3810.0 3 3 13 3 10 6 3 6 6 3
3850.0 0 63 3 3 31 8 12 2 29 10
3890.0 27 22 38 27 46 4 6 30 23 22
3930.0 3 3 3 3 6 10 3 3 3 3
##END=
