##TITLE=Cyclohexanamine, N-butyl-
##JCAMP-DX=4.24
##DATA TYPE=INFRARED SPECTRUM
##ORIGIN=Sadtler Research Labs Under US-EPA Contract
##OWNER=NIST Standard Reference Data Program
##CAS REGISTRY NO=10108-56-2
##MOLFORM=C 10 H 21 N
##XUNITS=1/CM
##YUNITS=ABSORBANCE
##XFACTOR=1.0
##YFACTOR=0.000180399
##DELTAX=4.0
##FIRSTX=450.0
##LASTX=3966.0
##FIRSTY=0.000000
##MAXX=3966
##MINX=450
##MAXY=1.80399
##MINY=0
##NPOINTS=880
##XYDATA=(X++(Y..Y))
450.0 0 84 197 191 133 125 172 109 188 109
490.0 127 120 138 156 140 166 133 120 139 165
530.0 155 119 150 155 119 126 148 116 159 165
570.0 143 123 119 187 138 133 168 157 152 136
610.0 157 138 152 196 162 161 178 173 185 198
650.0 207 196 221 234 240 347 340 356 414 417
690.0 409 409 374 352 331 324 338 315 322 290
730.0 301 223 251 259 331 186 211 170 154 156
770.0 122 119 131 150 139 149 144 143 130 137
810.0 125 122 116 116 110 111 123 138 141 141
850.0 135 129 139 129 128 130 149 168 194 244
890.0 261 245 208 176 143 128 128 132 135 141
930.0 133 129 122 121 126 129 142 142 148 155
970.0 155 158 158 161 155 141 131 122 111 112
1010.0 121 128 144 161 162 165 158 156 162 161
1050.0 158 163 163 170 178 196 214 234 253 270
1090.0 313 360 406 446 478 519 584 657 730 849
1130.0 1012 1178 1273 1249 1102 919 735 566 433 343
1170.0 285 247 221 206 197 186 175 163 159 163
1210.0 171 189 208 222 230 228 232 239 245 259
1250.0 272 305 338 352 342 306 270 243 219 219
1290.0 229 239 255 284 300 311 315 322 334 345
1330.0 353 368 392 441 522 564 561 555 584 629
1370.0 619 552 485 430 375 316 258 231 214 199
1410.0 204 199 219 232 264 330 409 548 709 886
1450.0 1093 1287 1421 1494 1413 1257 1046 807 597 441
1490.0 330 266 247 245 240 217 199 167 150 143
1530.0 141 132 131 118 128 124 116 120 109 122
1570.0 116 115 125 115 127 126 138 153 165 178
1610.0 165 160 139 131 126 117 117 114 111 118
1650.0 107 113 115 115 117 112 118 115 118 113
1690.0 118 114 116 118 120 121 119 118 118 122
1730.0 119 116 120 117 121 117 118 119 117 119
1770.0 117 115 118 117 121 117 121 114 121 119
1810.0 119 121 117 121 116 120 117 115 116 111
1850.0 106 111 117 114 110 111 109 111 109 110
1890.0 108 109 110 109 107 109 107 109 108 112
1930.0 110 108 109 107 110 109 110 109 108 107
1970.0 107 105 105 104 104 104 106 107 105 103
2010.0 106 106 107 106 108 109 110 111 111 111
2050.0 110 110 112 110 109 110 110 113 110 112
2090.0 112 108 111 112 110 112 110 111 110 112
2130.0 111 109 112 108 112 112 111 113 111 113
2170.0 114 114 114 114 115 116 114 116 115 114
2210.0 110 111 110 108 111 114 113 114 111 112
2250.0 113 110 112 111 111 111 109 107 103 100
2290.0 96 90 88 87 84 84 90 96 97 107
2330.0 115 125 131 123 135 100 128 117 146 148
2370.0 142 136 127 115 109 113 118 118 116 117
2410.0 117 118 117 118 118 118 116 115 114 115
2450.0 114 114 113 112 114 113 115 118 119 122
2490.0 122 119 117 118 119 121 120 122 122 124
2530.0 124 126 128 128 128 130 134 137 140 144
2570.0 147 149 158 164 174 181 190 194 197 198
2610.0 195 191 192 188 190 196 199 205 215 226
2650.0 238 249 265 281 292 298 292 283 271 263
2690.0 258 257 259 260 264 264 268 267 266 266
2730.0 269 280 293 309 323 336 342 350 358 373
2770.0 396 427 466 519 581 655 740 828 915 993
2810.0 1050 1091 1109 1109 1096 1081 1077 1105 1209 1432
2850.0 1810 2379 3095 3666 3757 3359 2780 2361 2159 2029
2890.0 1927 1879 1952 2206 2588 3090 3693 4373 5242 6383
2930.0 7751 9304 10000 9432 7915 5651 3922 2998 2759 2831
2970.0 2788 2435 1820 1206 812 603 486 413 361 323
3010.0 299 279 261 254 239 233 221 205 195 186
3050.0 180 175 172 172 166 161 155 150 151 149
3090.0 146 144 143 139 135 133 131 128 128 127
3130.0 126 130 129 130 128 127 129 130 129 126
3170.0 122 121 115 114 114 114 116 111 111 112
3210.0 105 107 104 106 104 103 104 105 106 104
3250.0 108 105 102 102 104 102 103 104 102 100
3290.0 100 100 100 104 102 107 105 103 109 113
3330.0 112 106 108 108 111 115 113 108 108 110
3370.0 110 107 110 108 109 108 107 103 105 108
3410.0 105 109 104 105 107 109 106 107 104 102
3450.0 103 104 104 101 101 99 104 99 100 99
3490.0 101 102 100 100 102 100 100 99 100 98
3530.0 98 101 97 100 99 96 98 99 95 96
3570.0 101 107 102 106 96 106 103 107 99 99
3610.0 96 101 97 96 105 99 102 106 105 103
3650.0 112 95 116 95 110 91 95 97 97 109
3690.0 93 111 108 114 117 107 108 109 106 112
3730.0 110 104 107 105 106 92 119 105 112 100
3770.0 103 111 109 109 105 110 104 94 101 91
3810.0 113 99 109 98 104 97 108 103 97 101
3850.0 96 106 99 104 105 105 95 103 102 104
3890.0 101 106 95 106 104 120 104 98 111 109
3930.0 116 109 100 100 117 109 120 111 107 101
##END=
