##TITLE=Benzo[b]thiophene-5-carboxaldehyde
##JCAMP-DX=4.24
##DATA TYPE=INFRARED SPECTRUM
##ORIGIN=Sadtler Research Labs Under US-EPA Contract
##OWNER=NIST Standard Reference Data Program
##CAS REGISTRY NO=10133-30-9
##MOLFORM=C 9 H 6 O S
##XUNITS=1/CM
##YUNITS=ABSORBANCE
##XFACTOR=1.0
##YFACTOR=0.000110800
##DELTAX=4.0
##FIRSTX=450.0
##LASTX=3966.0
##FIRSTY=0.000554
##MAXX=3966
##MINX=450
##MAXY=1.108
##MINY=0
##NPOINTS=880
##XYDATA=(X++(Y..Y))
450.0 5 33 95 201 258 369 498 341 242 225
490.0 120 114 82 70 46 34 59 46 97 124
530.0 149 160 185 208 220 225 215 159 72 118
570.0 57 85 59 66 70 61 70 27 41 33
610.0 55 20 45 30 18 25 23 37 4 64
650.0 69 185 242 412 502 530 666 743 1096 1090
690.0 1966 2160 1784 1585 1361 977 655 296 180 101
730.0 126 146 245 352 443 584 757 697 735 949
770.0 1089 1228 1393 1483 1379 1365 1173 1011 1033 854
810.0 946 828 581 471 389 301 253 209 151 111
850.0 82 70 56 69 72 96 139 174 243 282
890.0 426 426 382 395 366 264 223 216 264 315
930.0 313 312 253 237 341 446 451 399 241 91
970.0 49 44 50 63 83 89 99 114 109 99
1010.0 95 100 100 121 133 172 247 462 828 1362
1050.0 1683 1593 1270 665 253 162 186 239 495 912
1090.0 1024 1058 922 496 339 263 238 228 334 661
1130.0 968 1196 1298 1105 902 700 545 420 278 185
1170.0 132 98 69 55 49 51 77 139 283 547
1210.0 868 1256 1531 1551 1548 1250 881 641 310 197
1250.0 206 214 224 185 139 84 66 51 49 41
1290.0 51 72 104 156 235 415 741 1302 1740 1841
1330.0 1590 978 454 203 133 131 156 169 188 192
1370.0 218 303 382 422 491 510 453 398 322 223
1410.0 202 226 334 402 486 557 582 559 482 374
1450.0 300 242 192 138 87 77 76 58 32 74
1490.0 86 106 150 179 241 253 192 161 144 78
1530.0 90 105 222 349 478 536 601 626 556 473
1570.0 469 442 510 576 756 984 1152 1202 1155 1010
1610.0 779 648 561 460 441 396 373 309 221 194
1650.0 166 206 161 135 177 210 272 309 386 485
1690.0 543 755 1256 2163 3765 5957 8398 9877 10000 7903
1730.0 5576 2875 1324 661 421 419 456 489 481 415
1770.0 303 232 153 151 154 168 179 163 161 123
1810.0 109 84 65 51 55 53 50 45 56 62
1850.0 42 39 40 40 54 70 70 79 95 95
1890.0 103 98 89 80 78 74 60 56 45 38
1930.0 21 20 15 19 18 17 20 20 27 27
1970.0 32 30 26 20 17 20 20 21 22 23
2010.0 20 21 16 14 13 13 11 11 16 14
2050.0 18 16 19 25 28 32 33 32 26 25
2090.0 20 18 13 13 10 8 8 3 5 4
2130.0 5 8 14 15 18 21 24 24 21 19
2170.0 13 14 16 18 16 16 15 13 11 11
2210.0 9 8 5 4 3 5 3 4 6 8
2250.0 10 16 18 23 23 23 26 32 35 40
2290.0 43 50 61 59 63 72 57 51 45 43
2330.0 37 33 30 36 61 67 73 63 71 55
2370.0 61 56 56 53 40 25 16 13 14 18
2410.0 14 15 13 14 13 13 13 12 12 11
2450.0 14 12 18 15 16 15 13 13 10 13
2490.0 9 7 11 14 14 16 21 28 34 36
2530.0 40 43 45 45 44 40 38 39 32 32
2570.0 32 35 33 36 36 34 35 34 34 39
2610.0 40 45 52 64 78 95 111 127 136 142
2650.0 137 128 113 103 103 108 128 161 207 266
2690.0 335 407 463 503 545 614 732 889 1041 1227
2730.0 1371 1318 1175 950 654 431 314 273 279 316
2770.0 382 462 526 556 564 551 555 643 830 1063
2810.0 1225 1308 1271 1092 883 687 498 354 252 189
2850.0 153 130 120 114 114 114 109 109 105 104
2890.0 99 104 103 103 103 99 99 99 101 106
2930.0 106 107 104 100 100 100 101 108 112 112
2970.0 106 98 92 88 82 80 81 92 106 114
3010.0 122 127 130 126 132 140 157 175 172 170
3050.0 159 145 136 141 168 204 247 283 321 319
3090.0 286 258 202 157 133 115 102 84 79 67
3130.0 48 37 35 34 36 35 35 27 29 23
3170.0 25 23 21 25 29 28 25 26 27 24
3210.0 23 19 20 22 20 18 15 14 18 20
3250.0 17 17 19 14 17 20 14 16 17 17
3290.0 19 18 17 23 19 24 24 27 23 22
3330.0 25 20 24 25 25 27 20 22 25 23
3370.0 28 26 28 28 28 35 47 56 72 97
3410.0 136 165 173 151 118 81 52 36 30 23
3450.0 26 17 13 19 16 17 19 23 22 16
3490.0 23 19 16 15 16 16 19 24 16 9
3530.0 14 21 23 17 14 14 18 21 18 12
3570.0 11 27 42 65 73 62 46 19 19 10
3610.0 21 23 22 22 12 26 22 11 14 19
3650.0 42 26 21 24 2 34 16 40 4 18
3690.0 30 19 16 17 12 15 15 16 10 0
3730.0 9 16 13 14 61 26 50 14 22 25
3770.0 20 25 16 29 12 13 14 15 24 44
3810.0 5 24 19 30 19 9 25 36 21 18
3850.0 27 45 33 20 24 29 14 13 23 19
3890.0 17 38 26 41 26 37 35 41 18 27
3930.0 27 28 30 25 38 37 34 29 35 28
##END=
