##TITLE=Bicyclo[2.2.1]hept-5-ene-2-carboxylic acid, ethyl ester
##JCAMP-DX=4.24
##DATA TYPE=INFRARED SPECTRUM
##ORIGIN=Sadtler Research Labs Under US-EPA Contract
##OWNER=NIST Standard Reference Data Program
##CAS REGISTRY NO=10138-32-6
##MOLFORM=C 10 H 14 O 2
##XUNITS=1/CM
##YUNITS=ABSORBANCE
##XFACTOR=1.0
##YFACTOR=0.000076871
##DELTAX=4.0
##FIRSTX=450.0
##LASTX=3966.0
##FIRSTY=0.003767
##MAXX=3966
##MINX=450
##MAXY=0.76871
##MINY=0
##NPOINTS=880
##XYDATA=(X++(Y..Y))
450.0 49 117 122 172 167 118 114 104 78 138
490.0 121 105 94 114 98 92 62 69 43 49
530.0 40 20 32 40 34 38 39 45 54 30
570.0 25 1 22 38 37 30 30 61 75 63
610.0 45 47 64 46 54 50 54 44 41 45
650.0 49 63 54 71 58 132 129 178 226 268
690.0 304 407 672 1249 2047 2594 2829 2321 1583 989
730.0 586 387 304 265 258 252 221 215 213 239
770.0 285 314 310 287 221 178 168 162 179 202
810.0 238 245 241 251 286 355 431 491 540 602
850.0 644 669 657 605 565 494 390 284 194 151
890.0 137 158 207 284 377 437 435 388 297 226
930.0 168 136 113 115 150 186 202 213 201 186
970.0 183 190 205 213 215 223 233 245 267 297
1010.0 349 421 513 651 869 1237 1837 2569 3148 3356
1050.0 3051 2440 1976 1787 1705 1577 1305 989 854 900
1090.0 1069 1329 1596 2020 2699 2861 2730 2270 1528 1339
1130.0 1489 1727 2004 2304 2710 3371 4230 5090 5865 6641
1170.0 7471 8454 9414 10000 9815 8866 7320 5650 4411 3599
1210.0 3067 2723 2511 2412 2475 2668 2786 2773 2577 2320
1250.0 2150 2038 1975 2060 2349 2571 2466 2126 1527 1083
1290.0 930 899 889 877 854 817 819 903 1154 1631
1330.0 2333 2896 3024 2776 2145 1551 1125 856 858 1196
1370.0 1584 1711 1619 1204 819 646 567 515 476 431
1410.0 371 339 288 298 290 322 344 435 527 658
1450.0 768 818 837 826 844 815 731 600 473 340
1490.0 249 194 147 107 80 47 39 27 11 17
1530.0 1 16 6 1 3 19 21 15 54 82
1570.0 114 123 133 92 86 64 68 61 69 78
1610.0 99 126 139 152 128 129 89 80 80 87
1650.0 60 93 90 105 106 123 117 152 141 163
1690.0 187 224 252 325 400 514 645 841 1143 1585
1730.0 2209 3155 4540 6227 7796 8695 8424 6982 4984 3156
1770.0 1885 1155 788 570 437 328 250 190 152 145
1810.0 139 134 134 112 96 63 45 42 26 21
1850.0 24 29 23 26 18 16 20 22 24 24
1890.0 29 32 43 50 50 46 38 35 22 27
1930.0 26 22 20 14 11 13 12 10 13 9
1970.0 11 15 8 8 9 4 9 12 19 22
2010.0 25 26 30 36 41 42 47 49 51 53
2050.0 57 52 49 40 36 35 33 32 32 31
2090.0 34 34 34 35 30 28 25 22 19 16
2130.0 17 21 22 23 25 26 29 30 27 28
2170.0 27 25 24 25 22 24 22 22 26 26
2210.0 25 26 22 21 20 18 19 17 17 14
2250.0 16 16 14 12 10 13 7 12 14 13
2290.0 14 14 15 15 15 14 17 19 19 21
2330.0 22 22 21 22 26 32 31 31 24 22
2370.0 22 27 21 16 14 12 12 8 13 8
2410.0 10 11 10 10 10 7 6 4 2 4
2450.0 2 5 7 6 5 10 6 9 8 4
2490.0 6 6 6 6 6 8 9 8 8 7
2530.0 5 6 2 0 2 7 4 6 5 5
2570.0 8 7 4 6 5 4 8 8 10 11
2610.0 10 9 10 9 8 10 8 8 5 5
2650.0 6 5 5 6 6 7 9 15 15 19
2690.0 15 21 23 23 24 28 28 34 39 41
2730.0 45 46 48 50 52 51 55 58 57 65
2770.0 76 78 81 86 88 92 102 103 107 114
2810.0 123 131 137 145 152 157 160 170 179 199
2850.0 220 258 321 424 592 844 1120 1376 1541 1572
2890.0 1492 1360 1229 1166 1180 1252 1354 1427 1472 1501
2930.0 1559 1726 2068 2533 2951 3257 3370 3356 3401 3704
2970.0 4259 4869 6040 7583 7972 7539 6192 4183 3054 2317
3010.0 1707 1205 855 613 464 384 342 322 319 315
3050.0 324 367 470 655 921 1119 1147 1010 733 498
3090.0 337 234 171 136 123 109 100 97 98 108
3130.0 117 133 155 170 176 163 140 112 88 78
3170.0 66 60 59 59 57 54 56 55 55 52
3210.0 48 47 43 42 44 40 39 40 36 37
3250.0 36 27 32 36 29 31 29 30 34 31
3290.0 31 29 33 32 34 34 31 32 34 31
3330.0 36 37 30 33 43 35 32 27 26 26
3370.0 24 27 31 28 28 25 24 27 27 22
3410.0 34 22 31 32 36 25 34 35 37 46
3450.0 44 45 48 54 54 70 69 64 71 62
3490.0 55 38 25 10 2 0 5 1 1 5
3530.0 8 15 12 8 13 14 26 17 21 12
3570.0 21 20 17 28 23 31 22 14 15 8
3610.0 20 15 20 25 21 34 23 23 30 30
3650.0 40 29 34 37 36 32 34 34 24 28
3690.0 35 34 41 35 30 38 34 32 37 45
3730.0 38 46 54 41 68 52 58 55 58 62
3770.0 55 52 46 47 45 47 43 42 47 44
3810.0 46 43 40 52 50 51 42 52 45 55
3850.0 59 59 44 52 49 44 32 47 48 59
3890.0 54 52 44 53 46 64 44 37 36 46
3930.0 41 49 55 53 74 51 51 58 51 60
##END=
