##TITLE=Aniline, N-(2-ethylhexyl)-
##JCAMP-DX=4.24
##DATA TYPE=INFRARED SPECTRUM
##ORIGIN=Sadtler Research Labs Under US-EPA Contract
##OWNER=NIST Standard Reference Data Program
##CAS REGISTRY NO=10137-80-1
##MOLFORM=C 14 H 23 N
##XUNITS=1/CM
##YUNITS=ABSORBANCE
##XFACTOR=1.0
##YFACTOR=0.000073947
##DELTAX=4.0
##FIRSTX=450.0
##LASTX=3966.0
##FIRSTY=0.000000
##MAXX=3966
##MINX=450
##MAXY=0.73947
##MINY=0
##NPOINTS=880
##XYDATA=(X++(Y..Y))
450.0 0 414 687 540 370 548 496 355 565 612
490.0 660 614 906 724 789 707 433 420 533 331
530.0 384 382 301 463 388 427 361 636 816 641
570.0 483 556 487 458 485 520 526 391 493 384
610.0 364 528 458 522 439 467 531 588 600 585
650.0 587 728 717 933 866 1231 1064 1406 1898 2315
690.0 2599 2503 1933 1624 1428 1200 1116 1095 1121 1234
730.0 1424 1754 2438 3371 3852 3579 2676 1886 1474 1262
770.0 1131 999 1013 925 825 704 615 547 464 410
810.0 420 410 410 392 431 368 473 366 381 439
850.0 466 397 446 514 635 673 500 411 407 420
890.0 439 391 378 445 465 372 381 388 350 341
930.0 355 355 338 320 322 341 340 346 359 338
970.0 363 354 385 377 446 540 640 588 489 332
1010.0 295 302 319 374 405 423 430 395 415 379
1050.0 438 544 635 737 856 825 727 776 799 812
1090.0 815 738 621 577 516 445 546 415 437 511
1130.0 577 670 684 733 714 716 762 694 571 514
1170.0 525 681 842 837 767 647 615 626 611 648
1210.0 649 671 691 765 854 1063 1395 1728 2394 2947
1250.0 3556 3669 3572 3131 2821 2544 2426 2217 2036 2041
1290.0 2036 2277 2532 2904 3252 3478 3561 3316 2753 2208
1330.0 1713 1388 1178 1022 966 874 805 834 848 851
1370.0 822 837 885 938 1004 869 675 537 452 492
1410.0 514 641 729 1071 1336 1551 1505 1238 1034 999
1450.0 1157 1543 1854 2372 2568 2890 2948 2893 2947 3012
1490.0 3602 4842 7139 9120 9510 7632 4862 3247 2086 1593
1530.0 1203 993 961 930 896 837 971 898 954 807
1570.0 903 1046 1259 1845 2413 3599 5315 6861 8746 8153
1610.0 6682 4862 3391 2469 1635 1315 997 824 691 498
1650.0 614 486 545 364 442 425 446 399 383 466
1690.0 415 511 709 988 1116 1139 1027 857 660 498
1730.0 583 485 535 449 431 463 450 418 436 391
1770.0 377 423 381 381 374 413 402 447 374 445
1810.0 452 428 469 413 459 445 413 409 349 407
1850.0 339 380 376 327 370 332 387 352 380 385
1890.0 393 404 428 459 500 511 499 474 446 463
1930.0 450 427 379 344 342 332 332 357 326 350
1970.0 325 330 330 326 341 327 348 346 340 352
2010.0 343 335 335 338 341 339 347 356 348 337
2050.0 345 334 339 334 337 333 329 335 341 338
2090.0 323 329 332 317 336 343 324 321 327 340
2130.0 337 312 326 319 336 329 330 333 338 326
2170.0 335 337 337 331 325 325 327 340 325 328
2210.0 326 330 328 322 319 318 330 322 322 324
2250.0 315 327 326 319 330 323 331 327 329 328
2290.0 326 313 320 307 311 302 309 306 292 303
2330.0 293 287 332 282 358 293 358 309 289 293
2370.0 314 299 336 339 346 373 377 382 393 382
2410.0 387 380 371 378 376 372 368 370 361 366
2450.0 368 358 373 372 367 375 372 383 380 381
2490.0 381 388 387 391 384 394 397 406 408 406
2530.0 412 419 423 440 443 460 471 479 485 494
2570.0 500 498 502 499 489 488 485 480 477 473
2610.0 469 467 460 460 462 461 456 461 463 468
2650.0 478 479 482 486 492 503 514 517 516 523
2690.0 536 528 537 541 539 546 547 561 557 567
2730.0 576 586 606 618 621 623 613 617 617 621
2770.0 631 636 651 678 703 746 773 810 854 898
2810.0 951 1014 1094 1182 1275 1398 1535 1697 1882 2113
2850.0 2432 2880 3485 4190 4892 5369 5520 5553 5585 5469
2890.0 5124 4658 4369 4367 4615 5092 5768 6632 7606 8628
2930.0 9513 10000 9869 9118 7971 6794 6055 6154 7150 8632
2970.0 9421 8532 6452 4393 3086 2366 1971 1743 1622 1596
3010.0 1641 1739 1889 2070 2139 2049 1855 1700 1662 1748
3050.0 1978 2296 2597 2650 2396 2036 1765 1671 1679 1672
3090.0 1613 1473 1307 1170 1041 943 844 753 678 606
3130.0 566 531 489 479 458 468 453 445 439 433
3170.0 444 437 435 439 436 430 429 426 427 420
3210.0 416 408 406 408 394 398 389 382 389 381
3250.0 380 371 382 384 387 394 395 396 396 401
3290.0 406 404 399 398 397 408 402 397 395 394
3330.0 390 398 407 398 406 404 390 411 413 414
3370.0 431 429 438 453 447 462 471 490 507 513
3410.0 531 568 615 647 684 717 760 764 748 746
3450.0 718 695 645 630 582 554 544 509 506 492
3490.0 462 475 462 443 456 431 436 422 436 404
3530.0 417 399 408 422 411 397 423 386 425 433
3570.0 443 399 416 378 479 386 476 372 458 370
3610.0 454 450 405 460 391 492 429 368 380 480
3650.0 393 590 295 501 325 483 473 497 460 358
3690.0 572 362 436 384 414 459 474 394 444 378
3730.0 445 478 435 503 468 630 439 491 383 475
3770.0 425 443 408 436 454 425 406 526 426 583
3810.0 305 548 372 581 394 441 427 496 446 371
3850.0 441 493 546 357 473 493 435 483 447 449
3890.0 444 443 480 416 529 416 465 465 438 506
3930.0 401 486 465 424 514 421 495 451 466 448
##END=
