##TITLE=Benzo[b]thiophene, 4-nitro-
##JCAMP-DX=4.24
##DATA TYPE=INFRARED SPECTRUM
##ORIGIN=Sadtler Research Labs Under US-EPA Contract
##OWNER=NIST Standard Reference Data Program
##CAS REGISTRY NO=10133-34-3
##MOLFORM=C 8 H 5 N O 2 S
##XUNITS=1/CM
##YUNITS=ABSORBANCE
##XFACTOR=1.0
##YFACTOR=0.000077536
##DELTAX=4.0
##FIRSTX=450.0
##LASTX=3966.0
##FIRSTY=0.024191
##MAXX=3966
##MINX=450
##MAXY=0.77536
##MINY=0
##NPOINTS=880
##XYDATA=(X++(Y..Y))
450.0 312 177 53 97 67 96 77 180 153 256
490.0 337 280 168 175 97 56 88 67 93 89
530.0 60 69 113 171 220 341 384 277 167 121
570.0 75 74 76 101 135 176 183 172 177 116
610.0 83 18 28 25 44 52 63 64 72 88
650.0 71 80 64 63 29 107 215 338 602 785
690.0 1452 1461 994 742 500 290 216 225 312 407
730.0 615 921 1354 2272 3502 5021 6785 6013 4150 2831
770.0 1565 792 511 433 460 637 1256 2367 3180 3159
810.0 2674 1426 425 161 100 91 100 101 120 142
850.0 243 476 958 1414 1575 1394 991 417 279 382
890.0 600 823 878 872 728 429 256 169 104 75
930.0 57 63 54 50 65 64 73 75 88 95
970.0 82 70 70 68 63 63 64 74 77 89
1010.0 94 99 99 99 84 81 70 64 71 83
1050.0 126 188 315 413 401 422 369 283 333 338
1090.0 337 342 285 267 292 372 497 652 769 789
1130.0 713 532 336 215 162 162 208 252 281 283
1170.0 245 195 170 189 247 361 579 923 1281 1490
1210.0 1480 1226 848 549 392 285 214 183 195 221
1250.0 265 305 330 335 316 300 294 312 333 360
1290.0 382 451 640 1107 2072 3372 4231 4380 3916 2754
1330.0 2200 2537 3687 5787 8230 9830 10000 8358 5022 2564
1370.0 1345 775 502 367 324 296 296 300 334 416
1410.0 511 544 541 473 366 342 398 511 583 628
1450.0 619 543 473 400 378 385 495 692 1052 1499
1490.0 1825 1961 1956 1774 1580 1602 1631 1828 2243 3189
1530.0 4766 6979 8877 9295 9064 7515 5552 4304 3448 2774
1570.0 2211 1924 1793 1631 1452 1292 1163 1096 1085 1003
1610.0 874 672 468 317 270 255 278 314 331 346
1650.0 330 284 215 164 135 120 114 97 107 103
1690.0 94 93 123 140 158 177 188 186 142 105
1730.0 86 90 76 85 92 101 94 90 99 92
1770.0 104 105 112 118 126 127 125 114 104 93
1810.0 86 89 78 78 59 51 32 23 27 36
1850.0 39 43 65 85 109 122 117 95 70 48
1890.0 35 31 30 42 49 67 87 114 133 136
1930.0 127 104 76 44 26 16 10 12 9 10
1970.0 3 5 4 7 8 14 16 12 17 18
2010.0 19 19 15 12 7 4 3 2 5 3
2050.0 5 6 5 10 10 12 13 12 10 10
2090.0 12 10 11 14 11 8 8 6 6 5
2130.0 2 2 3 0 1 2 3 6 6 12
2170.0 18 24 31 30 28 24 16 13 9 15
2210.0 16 19 17 18 15 18 15 19 20 23
2250.0 23 20 20 20 20 23 25 23 24 30
2290.0 37 44 46 48 45 48 42 48 49 55
2330.0 39 42 29 25 44 41 36 30 32 25
2370.0 21 27 27 27 17 15 17 25 28 33
2410.0 38 38 35 36 30 35 37 40 43 42
2450.0 36 40 40 40 43 45 50 46 44 36
2490.0 30 25 23 23 23 26 29 27 30 30
2530.0 32 29 30 31 27 27 27 23 24 19
2570.0 18 19 21 21 18 17 21 19 20 22
2610.0 23 23 30 28 37 35 35 35 34 33
2650.0 29 31 33 34 35 36 41 51 56 61
2690.0 65 63 61 52 44 35 30 30 36 38
2730.0 37 39 38 41 38 42 42 46 49 45
2770.0 47 44 39 41 40 41 44 49 53 56
2810.0 57 55 55 53 57 63 77 86 91 106
2850.0 122 135 156 179 196 213 223 239 234 223
2890.0 210 192 186 178 172 159 138 127 125 124
2930.0 129 129 117 106 100 90 81 77 77 72
2970.0 78 73 67 61 67 71 63 65 58 57
3010.0 56 62 62 69 83 94 104 97 97 86
3050.0 87 81 99 129 198 282 395 479 484 457
3090.0 374 271 224 215 235 221 185 136 85 85
3130.0 95 115 129 122 98 61 44 44 41 36
3170.0 32 30 29 29 23 26 25 21 28 27
3210.0 24 25 23 17 22 16 17 20 17 19
3250.0 16 20 16 15 15 14 16 13 18 19
3290.0 17 14 16 14 12 11 16 18 17 15
3330.0 18 24 20 24 20 22 17 21 20 18
3370.0 15 16 25 15 10 15 15 19 22 23
3410.0 17 11 13 13 17 16 20 17 19 19
3450.0 15 18 17 24 17 18 19 12 21 15
3490.0 14 13 15 24 14 26 15 18 17 25
3530.0 16 17 13 14 18 22 26 10 20 18
3570.0 25 14 19 18 11 18 19 21 12 18
3610.0 23 29 29 21 19 22 27 12 17 27
3650.0 29 29 36 27 33 15 26 39 21 26
3690.0 20 21 13 11 15 24 25 24 24 16
3730.0 20 26 16 14 14 21 19 20 27 17
3770.0 7 29 27 37 39 38 24 32 38 31
3810.0 18 18 16 31 18 33 33 17 9 18
3850.0 21 37 19 22 40 25 17 13 20 15
3890.0 27 32 23 32 29 29 12 24 33 32
3930.0 25 35 20 26 22 17 17 22 28 37
##END=
