##TITLE=Carbamic acid, ethylphenyl-, ethyl ester
##JCAMP-DX=4.24
##DATA TYPE=INFRARED SPECTRUM
##ORIGIN=Sadtler Research Labs Under US-EPA Contract
##OWNER=NIST Standard Reference Data Program
##CAS REGISTRY NO=1013-75-8
##MOLFORM=C 11 H 15 N O 2
##XUNITS=1/CM
##YUNITS=ABSORBANCE
##XFACTOR=1.0
##YFACTOR=0.000051196
##DELTAX=4.0
##FIRSTX=450.0
##LASTX=3966.0
##FIRSTY=0.001536
##MAXX=3966
##MINX=450
##MAXY=0.51196
##MINY=0
##NPOINTS=880
##XYDATA=(X++(Y..Y))
450.0 30 44 35 28 35 49 71 66 28 8
490.0 36 96 39 82 132 104 65 56 57 40
530.0 35 41 13 37 48 28 1 17 77 147
570.0 250 305 371 377 330 260 141 122 108 67
610.0 72 44 25 43 38 64 58 65 108 126
650.0 156 212 224 246 217 196 146 174 339 656
690.0 1074 1297 1213 830 421 214 170 158 148 187
730.0 194 193 222 194 113 333 472 704 850 912
770.0 896 721 561 449 326 270 221 206 182 165
810.0 180 149 128 118 98 98 88 99 98 72
850.0 47 50 119 105 133 119 106 145 80 69
890.0 84 56 82 78 57 100 89 64 55 69
930.0 96 135 125 124 106 97 85 101 108 155
970.0 185 208 215 215 186 192 183 164 183 226
1010.0 275 384 559 805 1049 1266 1459 1539 1564 1430
1050.0 1218 1043 904 818 744 781 839 851 886 849
1090.0 788 792 782 654 622 586 635 785 930 999
1130.0 994 1056 1281 1786 2457 3218 3644 3513 2998 2337
1170.0 1801 1445 1183 959 735 578 486 424 392 380
1210.0 381 399 443 494 584 675 821 969 1172 1410
1250.0 1722 2115 2635 3334 4090 4421 4591 4601 4688 4783
1290.0 4637 4353 3784 3075 2538 2118 1744 1383 1078 916
1330.0 827 802 819 821 878 1013 1158 1295 1329 1378
1370.0 1646 2297 2999 3325 3113 2504 2102 2082 2279 2372
1410.0 2299 1929 1596 1181 994 849 830 783 803 865
1450.0 963 1063 1099 1080 1083 1125 1156 1091 997 1068
1490.0 1268 1694 2042 1965 1573 837 443 329 320 254
1530.0 278 251 296 293 273 228 237 254 204 200
1570.0 212 248 269 386 516 753 972 1116 1066 884
1610.0 645 439 312 230 219 166 215 195 201 202
1650.0 255 209 215 210 240 246 316 315 433 466
1690.0 505 539 697 851 1114 1635 2665 4546 7204 9392
1730.0 10000 9101 5985 3741 2278 1414 897 628 481 371
1770.0 333 304 265 269 247 245 227 209 204 179
1810.0 163 148 123 129 102 100 83 64 87 91
1850.0 77 61 75 85 97 98 76 71 72 76
1890.0 72 70 64 62 71 67 78 71 91 73
1930.0 81 100 99 102 87 78 79 71 56 57
1970.0 42 38 38 37 37 49 47 39 37 38
2010.0 36 40 44 50 46 37 37 38 40 37
2050.0 32 28 25 27 32 27 26 26 27 17
2090.0 17 27 25 26 25 26 26 26 16 25
2130.0 24 26 15 25 16 16 20 14 15 15
2170.0 15 15 15 14 6 14 14 14 14 14
2210.0 14 14 14 20 23 23 23 23 22 22
2250.0 22 34 25 20 32 32 19 24 21 21
2290.0 19 18 7 15 14 15 15 24 24 26
2330.0 19 30 29 19 18 19 28 21 24 33
2370.0 25 25 24 15 17 19 11 20 10 10
2410.0 11 10 16 21 20 19 14 10 10 10
2450.0 10 10 8 8 8 6 10 9 8 8
2490.0 10 10 10 10 10 9 10 10 10 10
2530.0 13 19 21 15 19 19 20 20 11 11
2570.0 10 10 10 10 10 10 12 12 11 11
2610.0 10 13 12 21 12 12 12 11 11 13
2650.0 13 13 12 12 12 12 23 23 22 21
2690.0 25 23 23 22 21 33 26 23 33 23
2730.0 24 24 25 33 33 34 34 39 33 33
2770.0 33 34 34 34 35 35 43 43 43 55
2810.0 54 58 64 65 72 73 85 84 85 94
2850.0 103 114 126 145 177 211 273 354 435 487
2890.0 510 480 450 432 445 464 480 503 506 532
2930.0 583 723 911 1076 1130 1048 918 814 807 890
2970.0 1056 1297 1572 1757 1795 1661 1435 1185 954 755
3010.0 597 481 395 363 347 362 405 454 509 540
3050.0 523 465 417 398 452 536 605 590 509 409
3090.0 336 314 293 265 216 186 155 125 94 79
3130.0 60 62 44 40 40 44 42 41 41 32
3170.0 41 32 32 33 25 32 26 28 20 23
3210.0 21 14 23 14 14 22 15 15 14 14
3250.0 8 5 5 13 14 15 15 14 16 16
3290.0 16 16 16 17 12 12 15 8 15 15
3330.0 16 18 16 5 14 12 10 16 17 18
3370.0 15 16 8 7 18 19 17 21 16 27
3410.0 22 23 27 35 45 45 56 66 57 46
3450.0 36 36 35 23 17 18 11 20 18 10
3490.0 19 19 10 18 9 15 20 20 21 12
3530.0 11 11 11 20 12 12 10 19 18 11
3570.0 3 11 23 11 14 4 13 13 12 13
3610.0 13 6 5 9 14 6 11 12 12 5
3650.0 1 7 13 15 12 4 8 0 15 8
3690.0 8 13 14 6 15 5 8 14 16 14
3730.0 5 5 6 7 2 12 6 7 6 6
3770.0 8 5 5 7 10 10 7 7 9 7
3810.0 8 6 10 9 8 6 9 0 11 7
3850.0 8 13 9 8 10 10 9 7 11 9
3890.0 10 8 10 12 12 8 9 10 11 9
3930.0 19 21 18 18 29 29 30 18 19 19
##END=
