##TITLE=1,2-Cyclohexanedicarboxylic acid, diethyl ester
##JCAMP-DX=4.24
##DATA TYPE=INFRARED SPECTRUM
##ORIGIN=Sadtler Research Labs Under US-EPA Contract
##OWNER=NIST Standard Reference Data Program
##CAS REGISTRY NO=10138-59-7
##MOLFORM=C 12 H 20 O 4
##XUNITS=1/CM
##YUNITS=ABSORBANCE
##XFACTOR=1.0
##YFACTOR=0.000152341
##DELTAX=4.0
##FIRSTX=450.0
##LASTX=3966.0
##FIRSTY=0.061546
##MAXX=3966
##MINX=450
##MAXY=1.52341
##MINY=0
##NPOINTS=880
##XYDATA=(X++(Y..Y))
450.0 404 205 166 166 181 97 0 88 179 102
490.0 97 163 96 130 139 138 223 213 165 162
530.0 128 99 148 181 204 99 117 112 71 126
570.0 63 112 109 107 107 85 84 115 117 127
610.0 125 110 81 113 98 95 98 107 156 128
650.0 130 128 141 141 137 160 135 115 128 159
690.0 133 145 131 138 143 146 139 123 131 124
730.0 127 136 172 207 196 217 267 282 280 269
770.0 242 213 225 201 199 184 196 164 154 139
810.0 143 145 142 137 146 156 205 253 236 260
850.0 329 388 409 432 419 380 318 279 259 251
890.0 258 266 263 229 212 193 188 183 223 237
930.0 228 242 243 240 228 231 216 201 173 169
970.0 146 168 167 179 203 222 248 293 375 457
1010.0 560 699 886 1163 1510 1920 2334 2718 3045 2972
1050.0 2577 1989 1454 1170 1053 1025 991 937 924 975
1090.0 1111 1256 1395 1486 1474 1514 1601 1684 1788 1966
1130.0 2033 2060 2024 2093 2329 2715 3351 4175 5210 6076
1170.0 6715 7035 6794 6667 6095 5559 5062 4415 4082 3781
1210.0 3563 3416 3237 3179 3142 3166 3247 3307 3484 3597
1250.0 3634 3470 2958 2418 1877 1503 1297 1193 1182 1195
1290.0 1238 1334 1489 1689 1818 1832 1769 1613 1440 1227
1330.0 1038 929 855 833 809 742 698 684 723 926
1370.0 1181 1375 1414 1312 1074 872 740 637 611 543
1410.0 482 454 357 383 369 410 423 488 620 788
1450.0 1028 1206 1157 1051 963 817 714 581 505 404
1490.0 257 244 186 166 116 68 105 75 46 92
1530.0 73 97 54 30 54 86 85 19 62 95
1570.0 80 87 86 94 110 101 104 100 111 102
1610.0 110 97 84 98 85 106 83 79 103 95
1650.0 60 57 108 132 125 126 118 173 146 169
1690.0 237 289 295 381 477 589 671 788 1065 1410
1730.0 1903 2689 4364 6265 7787 10000 7372 7031 4986 3173
1770.0 2142 1246 945 698 527 441 339 321 274 273
1810.0 248 212 210 169 140 121 117 125 95 79
1850.0 92 98 88 88 76 66 83 94 89 88
1890.0 85 83 95 89 86 82 70 65 56 62
1930.0 65 60 60 49 51 59 57 59 58 54
1970.0 56 56 58 56 53 47 47 55 57 55
2010.0 59 58 57 61 67 67 67 69 64 66
2050.0 66 59 61 59 53 57 58 54 56 52
2090.0 53 49 50 46 44 43 42 40 38 33
2130.0 34 33 33 32 29 29 27 30 29 29
2170.0 27 26 27 26 24 26 25 27 26 25
2210.0 24 25 23 26 24 25 21 24 23 24
2250.0 24 23 26 24 23 24 22 22 24 24
2290.0 23 22 23 24 25 25 20 17 22 17
2330.0 17 12 14 15 20 21 10 12 21 12
2370.0 18 16 17 24 20 22 19 17 17 17
2410.0 19 18 17 16 11 10 9 8 6 5
2450.0 7 3 3 5 6 9 6 4 4 5
2490.0 8 6 4 5 2 5 4 3 4 3
2530.0 4 3 4 5 5 6 7 7 6 7
2570.0 9 11 9 9 11 10 12 14 19 12
2610.0 13 13 14 15 15 17 16 15 17 20
2650.0 25 31 37 45 49 51 52 53 45 37
2690.0 34 34 32 30 27 29 26 28 30 32
2730.0 34 34 36 33 34 36 38 39 43 45
2770.0 50 57 61 63 69 77 79 84 89 95
2810.0 97 105 114 122 128 139 150 165 191 238
2850.0 326 511 851 1290 1653 1766 1605 1342 1125 971
2890.0 864 798 802 872 982 1091 1185 1287 1475 1800
2930.0 2292 2976 3968 4896 5120 4545 3679 3005 2578 2272
2970.0 2027 1879 1905 2114 2268 2141 1802 1433 1158 940
3010.0 755 605 477 383 313 255 217 184 158 141
3050.0 123 115 103 94 89 79 84 78 77 70
3090.0 67 69 65 63 63 59 59 56 53 51
3130.0 50 49 49 44 38 38 43 41 34 42
3170.0 38 37 34 32 33 36 34 31 33 28
3210.0 27 31 28 26 24 23 25 21 21 23
3250.0 15 20 21 25 21 19 19 19 16 18
3290.0 14 19 20 21 15 19 20 22 16 16
3330.0 18 20 19 15 21 19 24 23 17 24
3370.0 21 21 18 25 26 29 23 31 25 24
3410.0 22 20 27 29 23 26 26 36 33 41
3450.0 41 50 54 57 70 83 89 89 87 73
3490.0 66 58 57 44 28 23 29 32 19 24
3530.0 20 22 17 25 28 27 25 25 19 25
3570.0 28 29 29 27 19 20 11 27 14 26
3610.0 12 23 20 12 7 14 17 28 23 14
3650.0 11 9 24 10 25 9 13 15 23 21
3690.0 6 16 20 38 28 19 24 31 30 21
3730.0 12 28 22 22 10 6 28 23 21 21
3770.0 25 24 24 21 26 32 32 34 31 10
3810.0 42 16 37 14 21 24 29 27 22 31
3850.0 33 20 27 27 26 23 41 45 27 22
3890.0 26 25 30 6 14 23 27 33 22 11
3930.0 32 11 51 37 34 43 43 23 41 21
##END=
