##TITLE=Heptane, 3,3'-[oxybis(methylene)]bis-
##JCAMP-DX=4.24
##DATA TYPE=INFRARED SPECTRUM
##ORIGIN=Sadtler Research Labs Under US-EPA Contract
##OWNER=NIST Standard Reference Data Program
##CAS REGISTRY NO=10143-60-9
##MOLFORM=C 16 H 34 O
##XUNITS=1/CM
##YUNITS=ABSORBANCE
##XFACTOR=1.0
##YFACTOR=0.000056494
##DELTAX=4.0
##FIRSTX=450.0
##LASTX=3966.0
##FIRSTY=0.005536
##MAXX=3966
##MINX=450
##MAXY=0.56494
##MINY=0
##NPOINTS=880
##XYDATA=(X++(Y..Y))
450.0 98 85 73 18 51 93 85 32 74 113
490.0 22 24 62 76 40 15 68 122 39 46
530.0 110 78 22 28 122 92 38 22 156 100
570.0 59 88 153 87 23 106 119 44 49 115
610.0 82 55 77 118 92 66 48 108 75 48
650.0 79 97 68 61 72 202 88 69 92 120
690.0 86 70 90 123 72 105 167 160 151 207
730.0 241 236 190 192 206 161 142 203 252 265
770.0 289 343 359 272 258 250 218 162 147 165
810.0 150 137 135 176 158 104 149 155 132 110
850.0 120 137 114 116 154 165 132 144 172 181
890.0 166 200 246 245 214 248 277 276 283 289
930.0 321 303 294 313 329 288 306 310 326 315
970.0 329 362 357 347 362 382 372 390 385 426
1010.0 410 395 401 390 359 352 378 399 399 406
1050.0 487 526 591 694 809 936 1069 1242 1474 1759
1090.0 2146 2717 3261 3628 3698 3621 3507 3229 2882 2570
1130.0 2189 1850 1607 1471 1411 1333 1305 1212 1037 825
1170.0 659 519 415 339 328 303 281 270 287 304
1210.0 287 279 288 283 286 284 320 349 356 388
1250.0 415 419 402 400 409 399 383 384 372 367
1290.0 360 389 399 401 388 407 400 355 364 384
1330.0 371 373 410 468 515 544 621 721 742 793
1370.0 821 848 896 967 949 720 482 362 321 300
1410.0 277 271 259 255 246 282 328 346 467 630
1450.0 810 1023 1251 1596 1766 1697 1389 1066 781 590
1490.0 419 334 250 205 156 152 144 125 98 130
1530.0 129 83 111 85 92 91 89 75 52 83
1570.0 93 108 55 92 109 91 83 75 92 88
1610.0 69 71 68 72 72 76 77 55 81 63
1650.0 73 19 67 81 92 69 80 88 96 39
1690.0 88 99 63 45 81 97 84 57 97 97
1730.0 74 28 64 62 71 44 53 60 41 43
1770.0 54 35 42 47 52 43 40 42 42 41
1810.0 42 42 51 39 36 41 41 36 39 38
1850.0 40 40 40 41 47 23 31 50 39 28
1890.0 39 50 39 39 39 39 39 38 38 38
1930.0 36 28 39 48 38 38 52 39 27 37
1970.0 37 45 37 45 37 29 36 56 48 47
2010.0 35 44 62 53 44 64 60 51 57 72
2050.0 56 52 62 62 62 43 69 61 60 45
2090.0 70 68 51 48 47 51 45 42 58 52
2130.0 33 51 51 31 31 32 36 37 31 40
2170.0 51 32 31 31 31 40 31 31 31 31
2210.0 31 29 29 30 30 38 30 30 30 38
2250.0 27 30 31 39 24 24 39 38 28 29
2290.0 27 38 27 28 38 54 39 49 63 61
2330.0 29 46 82 39 37 63 96 58 39 115
2370.0 82 74 27 48 44 24 25 43 25 16
2410.0 25 37 31 25 25 29 18 25 23 22
2450.0 25 15 23 23 15 14 24 22 19 15
2490.0 13 24 7 12 23 23 16 24 24 22
2530.0 27 24 42 31 28 33 54 31 38 56
2570.0 56 50 58 88 84 67 82 95 90 77
2610.0 84 97 88 71 89 97 80 82 84 96
2650.0 87 86 111 120 113 128 146 155 139 150
2690.0 168 173 165 191 204 205 207 221 249 250
2730.0 260 304 324 301 317 313 311 292 277 303
2770.0 317 324 366 421 477 542 605 637 602 569
2810.0 584 613 639 698 794 940 1083 1302 1633 2020
2850.0 2492 3157 4054 5000 5847 6459 6516 6165 5908 5775
2890.0 5256 4435 3956 3853 4117 4546 5120 5953 6751 7420
2930.0 8347 8952 9323 8854 7635 6454 5508 5686 7185 9216
2970.0 10000 8168 5416 3391 2217 1599 1275 1034 842 734
3010.0 655 571 507 450 437 395 343 326 314 287
3050.0 250 239 239 222 195 207 206 201 172 170
3090.0 189 165 152 173 157 130 123 134 134 114
3130.0 109 126 118 87 90 114 104 91 91 100
3170.0 93 75 93 114 74 77 92 80 73 70
3210.0 79 81 37 46 74 44 44 41 53 46
3250.0 19 48 58 24 24 42 32 31 17 39
3290.0 25 3 13 41 40 4 14 48 39 13
3330.0 22 39 18 17 28 38 20 9 26 47
3370.0 26 16 44 44 8 5 40 32 0 29
3410.0 50 29 15 24 52 44 5 24 33 13
3450.0 7 32 55 11 10 32 42 1 10 38
3490.0 20 12 14 41 8 4 16 50 17 11
3530.0 11 25 17 16 17 36 0 3 25 23
3570.0 12 23 40 38 7 4 29 23 14 35
3610.0 33 31 15 29 52 2 20 39 37 29
3650.0 3 39 29 39 28 38 32 8 28 50
3690.0 39 37 50 70 44 25 39 54 42 28
3730.0 50 46 22 37 44 49 40 66 84 84
3770.0 58 60 90 95 67 84 105 88 63 77
3810.0 98 81 63 91 111 78 79 90 98 79
3850.0 66 80 85 71 67 95 94 87 78 99
3890.0 82 60 86 105 113 98 118 127 111 101
3930.0 113 109 99 90 117 125 26 33 35 35
##END=
