##TITLE=Morpholine, 4-(2-benzothiazolylthio)-
##JCAMP-DX=4.24
##DATA TYPE=INFRARED SPECTRUM
##ORIGIN=Sadtler Research Labs Under US-EPA Contract
##OWNER=NIST Standard Reference Data Program
##CAS REGISTRY NO=102-77-2
##MOLFORM=C 11 H 12 N 2 O S 2
##XUNITS=1/CM
##YUNITS=ABSORBANCE
##XFACTOR=1.0
##YFACTOR=0.000101694
##DELTAX=4.0
##FIRSTX=450.0
##LASTX=3966.0
##FIRSTY=0.000000
##MAXX=3966
##MINX=450
##MAXY=1.01694
##MINY=0
##NPOINTS=880
##XYDATA=(X++(Y..Y))
450.0 0 161 236 169 205 184 152 154 119 134
490.0 168 185 164 190 168 179 151 168 135 133
530.0 118 143 157 133 148 141 142 150 147 169
570.0 168 171 192 204 237 282 276 248 212 175
610.0 173 191 192 191 176 177 190 201 247 283
650.0 351 448 576 565 502 363 303 301 287 335
690.0 355 366 325 269 240 286 419 521 730 748
730.0 545 491 557 806 1074 1373 1171 847 570 343
770.0 235 177 170 149 132 132 127 129 124 128
810.0 133 137 154 186 210 215 211 198 217 253
850.0 290 345 454 629 750 688 481 294 212 203
890.0 192 203 225 253 293 321 324 303 296 315
930.0 347 387 440 473 482 421 324 240 204 184
970.0 168 167 157 161 165 182 203 235 290 374
1010.0 607 854 900 935 1079 1261 1162 825 504 318
1050.0 260 265 304 387 510 599 598 516 439 399
1090.0 391 410 456 554 744 1086 1561 2039 2212 2076
1130.0 1742 1303 903 640 481 407 383 378 387 419
1170.0 501 636 787 912 978 955 876 817 854 978
1210.0 1125 1281 1564 2022 2376 2335 1931 1530 1442 1482
1250.0 1433 1196 887 801 927 1066 1114 1152 1402 1888
1290.0 2151 1902 1302 899 744 614 518 439 451 506
1330.0 567 641 687 755 793 795 777 788 797 832
1370.0 944 1046 1105 1057 928 760 603 456 408 378
1410.0 352 352 316 378 405 569 850 1638 2842 3574
1450.0 3361 2606 1861 1410 911 622 477 417 426 384
1490.0 396 456 511 572 645 748 953 1264 1860 3069
1530.0 4954 7547 9781 10000 7834 4872 2829 1961 1621 1442
1570.0 1230 1057 921 875 951 1110 1294 1364 1205 872
1610.0 568 408 319 284 233 245 205 194 203 200
1650.0 164 190 194 192 188 181 167 187 147 146
1690.0 167 191 188 237 290 322 318 265 290 256
1730.0 176 132 159 158 141 137 154 155 155 186
1770.0 166 160 164 154 146 143 129 146 153 178
1810.0 159 145 140 119 118 96 117 119 122 121
1850.0 146 151 139 128 118 107 130 146 154 163
1890.0 150 143 134 122 115 114 121 139 148 169
1930.0 161 137 123 112 111 117 115 114 113 110
1970.0 114 117 116 121 121 113 113 114 113 109
2010.0 113 110 111 116 126 133 142 150 154 157
2050.0 154 146 140 132 141 163 168 156 135 117
2090.0 107 106 105 104 107 106 109 109 107 108
2130.0 110 114 116 113 111 112 112 111 110 109
2170.0 105 107 107 109 111 112 115 117 113 111
2210.0 109 107 109 113 114 118 124 121 121 116
2250.0 114 110 111 108 109 109 111 113 116 121
2290.0 123 124 126 132 133 135 133 124 123 112
2330.0 106 104 105 101 117 121 119 115 104 109
2370.0 106 111 118 126 121 113 112 112 112 115
2410.0 113 111 112 112 111 112 113 113 115 116
2450.0 119 121 122 123 126 123 126 122 124 120
2490.0 118 118 118 116 115 115 114 113 113 111
2530.0 113 112 115 116 114 116 122 126 125 131
2570.0 134 136 135 135 132 132 136 137 139 134
2610.0 136 132 134 130 130 129 129 130 129 135
2650.0 138 145 149 150 153 153 158 165 172 178
2690.0 180 181 181 181 187 190 199 203 208 210
2730.0 211 210 209 209 212 213 216 219 224 226
2770.0 223 219 211 204 199 198 203 214 230 245
2810.0 266 286 309 339 376 439 488 566 675 788
2850.0 949 1174 1443 1655 1696 1466 1145 923 777 710
2890.0 690 689 711 756 798 829 860 887 902 897
2930.0 842 752 659 591 565 590 624 686 834 1066
2970.0 1480 1845 1843 1489 928 609 482 395 326 262
3010.0 230 208 205 199 202 209 214 228 245 253
3050.0 247 254 287 364 489 643 722 688 557 425
3090.0 344 262 207 178 168 159 156 160 159 159
3130.0 156 152 145 141 135 130 126 124 122 122
3170.0 121 122 119 119 121 122 122 123 123 125
3210.0 125 125 120 125 124 119 121 123 120 127
3250.0 124 120 121 121 122 124 119 125 121 114
3290.0 119 123 123 120 119 121 119 119 120 121
3330.0 123 117 121 121 121 123 120 120 119 119
3370.0 126 123 120 122 116 121 122 122 122 125
3410.0 123 122 124 126 124 124 118 120 120 118
3450.0 120 120 121 130 125 123 121 123 124 117
3490.0 117 115 120 121 117 118 116 121 124 125
3530.0 122 127 132 124 126 131 128 122 122 115
3570.0 127 110 116 116 119 132 120 114 109 114
3610.0 132 116 112 110 117 130 109 116 107 119
3650.0 118 114 126 112 125 114 123 115 118 119
3690.0 116 117 116 123 115 117 121 123 111 126
3730.0 117 119 119 136 127 122 119 115 112 122
3770.0 111 124 120 128 120 118 122 112 111 119
3810.0 118 116 118 121 115 114 120 116 112 122
3850.0 110 128 119 122 116 118 110 114 121 130
3890.0 130 127 121 131 131 121 124 129 118 126
3930.0 127 131 129 123 123 116 122 130 119 122
##END=
