##TITLE=Ethanol, 2,2'-(butylimino)bis-
##JCAMP-DX=4.24
##DATA TYPE=INFRARED SPECTRUM
##ORIGIN=Sadtler Research Labs Under US-EPA Contract
##OWNER=NIST Standard Reference Data Program
##CAS REGISTRY NO=102-79-4
##MOLFORM=C 8 H 19 N O 2
##XUNITS=1/CM
##YUNITS=ABSORBANCE
##XFACTOR=1.0
##YFACTOR=0.000074829
##DELTAX=4.0
##FIRSTX=450.0
##LASTX=3966.0
##FIRSTY=0.000000
##MAXX=3966
##MINX=450
##MAXY=0.74829
##MINY=0
##NPOINTS=880
##XYDATA=(X++(Y..Y))
450.0 0 359 645 357 528 431 520 420 505 529
490.0 468 535 478 508 563 627 618 687 673 695
530.0 698 745 850 706 699 682 757 679 703 679
570.0 688 718 688 681 608 653 583 568 574 540
610.0 537 546 519 523 492 516 538 515 537 475
650.0 530 500 516 539 524 507 513 521 510 536
690.0 518 557 555 575 620 642 678 687 701 712
730.0 737 765 769 777 788 808 797 849 853 843
770.0 858 836 842 868 892 775 842 800 797 759
810.0 721 697 656 638 628 644 629 671 703 730
850.0 777 875 966 1107 1301 1455 1535 1477 1399 1300
890.0 1237 1220 1230 1255 1246 1235 1197 1160 1113 1095
930.0 1070 1071 1091 1108 1132 1164 1192 1214 1238 1251
970.0 1251 1263 1279 1339 1373 1450 1545 1669 1809 2040
1010.0 2298 2632 3087 3672 4397 5178 6013 6490 6661 6364
1050.0 5948 5569 5540 5839 6212 6555 6463 5949 5046 4168
1090.0 3454 2961 2665 2428 2280 2154 2133 2131 2168 2165
1130.0 2174 2153 2092 2039 1991 1997 2019 2066 2078 2086
1170.0 2049 1977 1881 1770 1707 1683 1705 1754 1802 1810
1210.0 1788 1738 1670 1615 1563 1541 1523 1516 1512 1521
1250.0 1519 1552 1586 1623 1687 1745 1792 1797 1773 1717
1290.0 1682 1667 1675 1713 1727 1742 1721 1705 1696 1716
1330.0 1748 1787 1847 1897 1999 2132 2295 2438 2542 2527
1370.0 2445 2326 2242 2208 2249 2324 2407 2477 2474 2340
1410.0 2087 1779 1525 1334 1220 1165 1194 1263 1371 1497
1450.0 1689 1871 2067 2195 2208 2135 1932 1665 1364 1122
1490.0 903 769 685 626 602 576 538 517 520 488
1530.0 477 460 469 454 443 442 444 433 441 416
1570.0 415 405 415 402 404 401 402 396 399 396
1610.0 389 393 386 397 384 386 384 385 374 392
1650.0 375 406 389 361 376 384 372 394 374 403
1690.0 383 401 408 428 414 412 416 402 395 385
1730.0 400 400 413 385 393 398 404 388 396 394
1770.0 391 400 387 412 398 407 387 387 377 381
1810.0 371 377 374 370 379 365 379 370 376 373
1850.0 376 373 377 372 377 378 375 388 380 383
1890.0 391 390 392 396 397 401 406 408 409 414
1930.0 411 409 407 406 399 401 396 388 384 383
1970.0 376 376 375 373 376 364 363 358 353 353
2010.0 358 353 352 353 349 358 358 367 366 370
2050.0 379 387 387 387 393 401 399 404 416 414
2090.0 413 409 409 408 399 403 410 407 395 396
2130.0 400 394 390 395 388 383 386 383 380 381
2170.0 378 374 374 373 370 373 370 376 370 366
2210.0 364 368 364 365 368 367 367 369 369 372
2250.0 375 368 372 367 365 372 367 381 377 383
2290.0 385 399 407 413 429 448 443 442 455 432
2330.0 419 395 379 380 351 400 489 465 383 346
2370.0 346 346 346 346 346 357 356 372 369 373
2410.0 371 378 375 374 365 360 361 364 360 362
2450.0 359 359 364 364 360 358 354 357 356 358
2490.0 353 355 346 350 358 356 358 362 360 370
2530.0 379 378 380 377 384 377 383 384 387 392
2570.0 387 394 397 403 400 406 415 418 428 431
2610.0 441 456 460 467 486 495 507 516 522 552
2650.0 569 597 624 641 674 700 723 737 763 792
2690.0 804 836 858 887 901 927 958 982 1010 1039
2730.0 1070 1091 1129 1173 1203 1240 1265 1314 1368 1428
2770.0 1498 1581 1688 1781 1955 2152 2421 2789 3238 3779
2810.0 4365 4857 5182 5298 5168 4818 4398 4035 3694 3450
2850.0 3340 3368 3607 4047 4706 5421 6083 6584 6849 6819
2890.0 6476 5974 5484 5182 5097 5229 5487 5917 6530 7258
2930.0 8134 8960 9647 10000 9911 9608 9326 9259 9476 9648
2970.0 9209 7833 5898 4109 2838 2105 1694 1430 1239 1108
3010.0 997 903 828 762 717 689 667 612 589 550
3050.0 524 501 479 476 466 449 438 431 434 426
3090.0 423 402 411 401 386 378 410 396 407 403
3130.0 370 381 402 373 365 361 386 384 353 371
3170.0 379 390 394 387 365 381 380 389 363 364
3210.0 362 369 369 350 370 358 349 361 356 358
3250.0 346 363 377 377 376 380 374 373 361 381
3290.0 370 367 349 358 376 373 378 359 369 374
3330.0 398 379 393 385 381 398 410 394 400 416
3370.0 411 417 435 440 460 449 469 475 475 470
3410.0 480 470 498 524 513 549 526 550 541 554
3450.0 562 556 553 574 587 609 600 613 607 640
3490.0 669 642 672 697 722 741 779 818 892 958
3530.0 1046 1120 1185 1253 1289 1296 1288 1287 1257 1237
3570.0 1183 1173 1129 1080 1029 988 945 900 851 782
3610.0 761 704 712 696 649 657 633 606 664 712
3650.0 775 863 1007 1123 1246 1247 1198 1122 955 836
3690.0 708 602 565 473 469 442 456 438 407 410
3730.0 444 358 376 358 390 383 403 376 354 360
3770.0 348 357 362 358 366 382 357 347 356 347
3810.0 350 346 372 346 373 344 358 367 368 357
3850.0 410 406 364 351 346 370 372 362 369 346
3890.0 346 350 348 384 363 355 362 393 346 346
3930.0 402 390 344 388 343 345 352 355 375 391
##END=
