##TITLE=Tributylamine
##JCAMP-DX=4.24
##DATA TYPE=INFRARED SPECTRUM
##ORIGIN=Sadtler Research Labs Under US-EPA Contract
##OWNER=NIST Standard Reference Data Program
##CAS REGISTRY NO=102-82-9
##MOLFORM=C 12 H 27 N
##XUNITS=1/CM
##YUNITS=ABSORBANCE
##XFACTOR=1.0
##YFACTOR=0.000063232
##DELTAX=4.0
##FIRSTX=450.0
##LASTX=3966.0
##FIRSTY=0.012204
##MAXX=3966
##MINX=450
##MAXY=0.63232
##MINY=0
##NPOINTS=880
##XYDATA=(X++(Y..Y))
450.0 193 190 183 152 90 128 135 181 215 254
490.0 290 197 199 175 184 131 137 162 126 153
530.0 84 184 188 163 154 147 106 79 166 81
570.0 116 96 49 109 105 116 76 130 46 85
610.0 73 0 63 83 59 51 78 36 103 66
650.0 89 85 94 96 86 91 52 99 59 47
690.0 100 94 114 73 136 117 156 161 184 224
730.0 208 261 228 272 236 279 242 185 174 153
770.0 146 184 201 205 224 173 179 193 195 184
810.0 156 157 134 157 122 113 133 74 103 78
850.0 124 113 133 129 133 148 160 211 199 233
890.0 248 273 296 274 276 218 191 160 155 208
930.0 262 296 368 381 363 386 308 301 233 240
970.0 198 230 202 212 252 177 193 194 170 156
1010.0 163 165 145 139 172 220 268 331 353 401
1050.0 416 382 470 467 590 707 968 1255 1558 1651
1090.0 1568 1364 1071 881 742 670 568 493 430 406
1130.0 355 356 325 295 243 269 282 405 514 688
1170.0 838 1009 1059 1018 849 638 445 312 254 218
1210.0 202 172 222 239 274 308 368 413 470 487
1250.0 478 483 500 490 522 498 518 451 402 340
1290.0 366 406 483 571 644 656 573 499 443 442
1330.0 446 493 526 558 571 578 650 737 838 941
1370.0 962 1035 1059 1081 926 698 492 381 296 281
1410.0 261 248 277 236 259 268 355 400 488 590
1450.0 722 930 1202 1387 1571 1532 1323 902 594 381
1490.0 326 252 242 207 249 172 152 179 136 146
1530.0 108 157 134 145 81 92 109 169 91 92
1570.0 97 99 98 97 77 85 68 73 76 78
1610.0 81 69 109 65 83 53 129 65 85 110
1650.0 89 123 64 67 60 95 85 63 100 84
1690.0 62 92 117 107 95 93 90 110 57 60
1730.0 48 107 37 71 31 85 30 65 67 51
1770.0 64 67 47 46 47 44 53 45 39 31
1810.0 46 31 37 43 46 29 40 32 52 28
1850.0 45 14 30 23 32 42 32 31 33 31
1890.0 30 39 27 34 29 40 31 39 32 32
1930.0 24 38 23 41 18 39 24 30 4 39
1970.0 31 32 29 33 37 26 33 30 34 29
2010.0 35 31 38 30 39 30 44 29 49 27
2050.0 44 18 49 10 34 31 29 30 31 28
2090.0 25 29 16 36 19 33 30 37 10 30
2130.0 30 29 13 36 15 31 27 42 22 33
2170.0 34 35 30 27 29 29 33 14 42 14
2210.0 40 19 38 26 27 27 28 28 35 28
2250.0 30 25 45 25 33 36 28 34 23 27
2290.0 25 59 27 65 78 113 105 164 155 166
2330.0 167 173 187 170 139 194 257 281 220 194
2370.0 116 88 47 45 52 37 51 39 41 25
2410.0 48 16 52 23 33 4 36 23 23 18
2450.0 17 9 15 15 25 21 26 22 19 21
2490.0 16 30 21 25 6 31 0 40 9 31
2530.0 25 43 36 40 47 51 63 60 70 69
2570.0 70 78 90 96 96 96 113 117 130 117
2610.0 138 122 155 124 144 130 154 146 168 176
2650.0 175 205 200 209 229 274 282 322 325 329
2690.0 332 360 346 375 404 434 458 517 518 582
2730.0 608 659 681 747 759 768 793 802 849 899
2770.0 982 1030 1115 1211 1385 1664 2056 2513 2932 3024
2810.0 2880 2552 2236 1910 1705 1472 1359 1269 1270 1295
2850.0 1417 1644 1999 2567 3246 3892 4085 4159 4168 4021
2890.0 3587 3108 2876 2992 3233 3523 3818 4171 4532 5168
2930.0 6080 7321 8419 8854 8355 7589 7028 7297 8612 10000
2970.0 9784 7466 4768 2812 1869 1412 1173 981 857 724
3010.0 629 558 504 467 431 359 357 307 284 232
3050.0 232 201 186 176 162 164 151 163 133 152
3090.0 118 146 127 136 103 105 94 97 91 96
3130.0 94 100 98 99 81 102 87 102 103 103
3170.0 100 97 108 66 100 84 105 91 103 76
3210.0 83 76 60 67 53 53 53 53 49 39
3250.0 58 39 57 30 48 59 52 43 45 45
3290.0 26 42 28 55 37 45 37 31 35 35
3330.0 59 36 17 44 23 49 41 56 46 54
3370.0 65 45 40 42 56 27 58 33 62 27
3410.0 52 32 42 41 43 74 40 48 30 57
3450.0 39 36 45 34 48 38 28 52 36 30
3490.0 38 39 1 40 29 37 21 26 29 23
3530.0 56 26 52 29 62 37 40 35 48 60
3570.0 29 52 55 51 57 65 76 51 68 44
3610.0 87 58 73 69 70 77 67 79 66 80
3650.0 82 58 57 77 68 82 85 53 83 79
3690.0 84 71 70 80 55 89 71 91 72 83
3730.0 79 87 102 99 95 103 102 87 86 87
3770.0 78 78 69 67 75 74 86 93 94 84
3810.0 102 100 94 76 91 92 81 94 80 83
3850.0 78 76 74 83 76 76 69 70 69 53
3890.0 52 34 49 39 38 49 50 57 43 59
3930.0 50 52 42 38 32 38 30 31 32 32
##END=
