##TITLE=Benzene, 1,3,5-triethyl-
##JCAMP-DX=4.24
##DATA TYPE=INFRARED SPECTRUM
##ORIGIN=Sadtler Research Labs Under US-EPA Contract
##OWNER=NIST Standard Reference Data Program
##CAS REGISTRY NO=102-25-0
##MOLFORM=C 12 H 18
##XUNITS=1/CM
##YUNITS=ABSORBANCE
##XFACTOR=1.0
##YFACTOR=0.000108817
##DELTAX=4.0
##FIRSTX=450.0
##LASTX=3966.0
##FIRSTY=0.000000
##MAXX=3966
##MINX=450
##MAXY=1.08817
##MINY=0
##NPOINTS=880
##XYDATA=(X++(Y..Y))
450.0 0 84 63 249 204 185 28 156 48 210
490.0 196 163 123 89 112 81 142 164 140 74
530.0 153 134 144 30 140 139 82 218 115 167
570.0 131 169 147 106 123 103 100 94 51 127
610.0 137 131 104 144 141 93 70 104 98 145
650.0 100 122 127 118 106 54 133 120 125 174
690.0 237 343 503 725 897 797 557 331 183 148
730.0 154 206 193 201 193 114 105 155 161 148
770.0 122 127 155 158 186 162 145 124 158 137
810.0 132 194 164 168 161 143 169 185 184 206
850.0 225 414 645 1033 1549 1458 1195 1100 843 715
890.0 593 390 292 232 168 159 107 85 155 95
930.0 95 117 120 129 144 200 147 177 214 251
970.0 259 186 185 183 173 143 149 140 152 165
1010.0 162 169 160 192 190 221 232 257 275 311
1050.0 391 467 562 620 678 670 636 546 430 329
1090.0 253 219 199 194 201 164 180 188 180 151
1130.0 173 153 158 141 147 154 153 171 185 190
1170.0 187 172 167 149 141 153 153 170 169 172
1210.0 164 167 185 177 191 199 197 202 202 209
1250.0 216 215 215 215 224 234 230 239 241 250
1290.0 258 268 297 330 387 478 591 695 723 657
1330.0 543 410 337 279 256 253 243 254 255 289
1370.0 351 424 541 575 509 412 338 303 303 305
1410.0 319 311 327 337 376 436 496 589 709 851
1450.0 1063 1305 1569 1724 1725 1547 1238 918 675 542
1490.0 466 427 419 403 375 314 270 210 185 161
1530.0 150 144 121 118 123 133 127 136 139 171
1570.0 203 244 292 370 472 637 903 1322 1853 2083
1610.0 1765 1127 613 374 273 204 171 145 135 125
1650.0 103 100 95 112 91 95 94 87 90 82
1690.0 91 97 99 112 125 118 107 84 79 85
1730.0 83 104 121 180 224 247 239 218 200 206
1770.0 210 182 156 108 76 65 63 60 63 53
1810.0 53 56 51 53 57 53 58 55 60 57
1850.0 56 56 57 61 53 59 57 57 59 55
1890.0 54 53 57 53 54 53 56 51 56 56
1930.0 57 55 53 56 54 55 53 56 49 49
1970.0 48 43 44 48 46 46 49 45 46 49
2010.0 50 51 53 56 52 53 57 60 61 55
2050.0 57 55 53 48 47 47 46 44 44 42
2090.0 43 45 42 42 42 40 41 39 40 40
2130.0 42 43 45 42 43 43 43 45 47 45
2170.0 42 42 42 40 41 39 39 40 42 42
2210.0 40 40 38 39 42 44 44 45 43 47
2250.0 46 49 43 46 43 41 38 38 38 39
2290.0 35 33 33 36 37 36 36 33 45 43
2330.0 45 47 42 49 33 42 51 40 41 38
2370.0 33 41 34 38 36 36 40 38 39 40
2410.0 40 41 40 44 45 49 51 53 51 47
2450.0 45 46 45 39 42 37 39 36 37 38
2490.0 37 40 44 41 46 46 46 45 46 44
2530.0 49 51 48 48 50 43 40 42 39 40
2570.0 39 39 39 43 40 40 49 50 55 61
2610.0 56 56 55 58 65 67 65 69 71 75
2650.0 71 70 70 71 73 66 66 68 66 69
2690.0 68 69 71 73 81 84 88 92 98 108
2730.0 119 131 142 144 135 126 119 125 135 140
2770.0 150 154 163 171 186 191 198 205 206 207
2810.0 210 222 235 255 292 339 391 456 534 626
2850.0 751 934 1199 1531 1895 2240 2555 2868 3146 3277
2890.0 3124 2826 2577 2462 2502 2567 2567 2564 2638 2983
2930.0 3673 4626 5631 6118 5774 4968 4136 3618 4029 6013
2970.0 8883 10000 8918 5901 3312 2121 1689 1518 1486 1504
3010.0 1583 1751 1898 1885 1658 1279 928 691 567 513
3050.0 482 464 433 402 347 295 252 214 184 167
3090.0 154 145 143 137 131 125 125 126 133 130
3130.0 131 126 127 132 136 143 147 146 140 126
3170.0 111 95 86 76 69 64 60 59 51 48
3210.0 51 54 46 50 50 45 38 46 49 49
3250.0 47 50 46 50 43 46 45 35 37 42
3290.0 40 45 43 40 43 39 42 44 45 47
3330.0 47 42 40 47 51 43 43 44 37 45
3370.0 45 42 45 45 46 51 42 50 44 40
3410.0 49 47 44 46 51 39 41 44 49 40
3450.0 45 38 40 50 49 50 47 50 48 55
3490.0 44 36 48 44 50 48 48 48 50 47
3530.0 48 47 47 48 49 59 42 45 38 42
3570.0 44 49 42 45 37 44 43 41 44 50
3610.0 48 37 46 45 47 38 53 56 70 69
3650.0 76 67 80 57 49 61 55 51 45 43
3690.0 37 41 54 49 40 43 45 54 53 62
3730.0 44 45 60 54 48 38 40 44 59 56
3770.0 58 41 46 40 42 55 45 44 37 55
3810.0 58 48 33 38 37 48 38 38 49 54
3850.0 38 33 35 48 42 33 62 60 45 32
3890.0 45 48 36 51 57 36 50 44 40 38
3930.0 65 69 71 70 49 41 59 46 45 52
##END=
