##TITLE=Benzenemethanamine, N-(1-methylethyl)-
##JCAMP-DX=4.24
##DATA TYPE=INFRARED SPECTRUM
##ORIGIN=Sadtler Research Labs Under US-EPA Contract
##OWNER=NIST Standard Reference Data Program
##CAS REGISTRY NO=102-97-6
##MOLFORM=C 10 H 15 N
##XUNITS=1/CM
##YUNITS=ABSORBANCE
##XFACTOR=1.0
##YFACTOR=0.000069345
##DELTAX=4.0
##FIRSTX=450.0
##LASTX=3966.0
##FIRSTY=0.072119
##MAXX=3966
##MINX=450
##MAXY=0.69345
##MINY=0
##NPOINTS=880
##XYDATA=(X++(Y..Y))
450.0 1040 615 508 692 584 485 568 247 404 311
490.0 311 0 360 240 220 364 279 359 213 323
530.0 168 199 119 342 227 299 365 342 413 449
570.0 622 493 722 719 675 674 609 740 511 593
610.0 432 492 374 488 446 278 521 524 607 608
650.0 762 734 901 1018 1205 1360 1633 1983 2372 3022
690.0 3789 4608 4928 4912 4469 4087 3638 3459 3213 2990
730.0 3157 3338 3391 3186 2895 2484 1999 1568 1119 859
770.0 593 585 426 461 442 483 448 395 455 384
810.0 415 393 393 340 345 325 302 319 317 326
850.0 265 306 250 273 201 235 228 223 261 244
890.0 280 281 379 391 437 411 399 400 375 404
930.0 355 357 324 379 383 421 423 390 353 306
970.0 324 295 340 329 371 342 340 367 347 396
1010.0 417 522 585 937 1274 1291 1185 759 437 433
1050.0 498 586 776 988 1257 1396 1505 1501 1390 1290
1090.0 1127 1027 900 860 843 903 1011 1162 1300 1388
1130.0 1442 1398 1352 1299 1390 1504 1713 2003 2432 2962
1170.0 3397 3615 3372 2810 2146 1638 1305 1174 1097 979
1210.0 883 786 742 639 599 527 487 459 463 462
1250.0 434 426 389 389 367 403 401 438 485 547
1290.0 652 754 935 1066 1172 1236 1379 1563 1751 1929
1330.0 2049 2240 2340 2239 1898 1595 1472 1582 1791 2045
1370.0 2315 2577 3021 3238 2983 2392 1574 950 685 569
1410.0 508 501 522 605 687 879 1168 1641 2105 2501
1450.0 2774 2833 2885 2900 2982 3039 2883 2432 1830 1415
1490.0 1420 1548 1493 1296 859 479 290 251 232 216
1530.0 198 200 206 200 196 169 176 182 180 164
1570.0 185 207 236 294 336 402 435 523 596 635
1610.0 594 491 363 241 214 184 206 236 301 431
1650.0 553 645 573 409 250 192 151 144 136 151
1690.0 128 138 175 169 182 165 190 189 189 184
1730.0 199 222 202 204 196 213 195 191 174 182
1770.0 183 177 168 172 192 219 290 333 351 322
1810.0 259 203 168 172 147 134 121 128 126 148
1850.0 143 152 188 199 225 232 241 228 223 200
1890.0 179 152 121 120 100 101 102 123 123 144
1930.0 176 209 242 249 284 281 289 257 207 141
1970.0 104 83 74 80 74 72 58 64 55 54
2010.0 53 51 59 44 57 47 42 31 47 39
2050.0 41 56 39 38 41 49 37 41 40 47
2090.0 50 50 51 40 57 42 57 43 64 60
2130.0 58 54 68 65 55 65 64 69 55 67
2170.0 70 63 69 62 73 71 79 60 54 59
2210.0 54 61 53 66 56 67 67 71 67 66
2250.0 68 63 64 68 75 53 65 65 78 93
2290.0 104 116 122 147 174 219 213 233 229 187
2330.0 192 156 133 109 79 131 280 200 106 16
2370.0 19 19 19 19 19 24 33 40 41 47
2410.0 38 47 45 34 49 29 40 31 36 31
2450.0 29 24 30 31 20 28 22 40 37 37
2490.0 48 28 42 30 47 42 57 58 63 56
2530.0 68 59 58 70 45 70 65 69 71 79
2570.0 100 103 122 127 154 165 201 217 244 280
2610.0 299 301 285 282 261 271 248 265 249 233
2650.0 224 231 240 248 242 218 217 210 224 219
2690.0 219 222 232 255 267 275 291 319 332 346
2730.0 353 364 375 364 389 398 434 453 496 566
2770.0 646 733 842 965 1106 1251 1405 1575 1759 1892
2810.0 2063 2198 2367 2523 2658 2761 2783 2752 2641 2535
2850.0 2395 2282 2201 2177 2255 2471 2701 2912 3005 3001
2890.0 2948 2903 2892 2904 2946 2993 3060 3127 3244 3386
2930.0 3538 3706 3856 3895 3847 3856 4113 4897 6298 7997
2970.0 9489 10000 9071 7188 4807 2959 1887 1262 1028 967
3010.0 972 1092 1282 1631 2150 2725 3016 3030 2660 2147
3050.0 1769 1542 1547 1796 2465 3056 3210 2954 2308 1783
3090.0 1595 1421 1250 1039 860 707 597 478 353 279
3130.0 201 153 155 111 125 132 135 135 146 147
3170.0 183 173 169 162 143 128 114 118 123 104
3210.0 110 97 86 75 97 56 51 51 49 40
3250.0 29 32 37 51 33 37 28 29 43 21
3290.0 32 36 41 38 69 52 50 32 53 44
3330.0 23 55 81 50 53 101 76 85 61 79
3370.0 79 45 67 44 49 88 77 62 61 55
3410.0 68 65 62 73 55 52 46 67 52 65
3450.0 50 54 62 61 73 39 60 37 56 49
3490.0 46 50 42 83 48 73 45 64 51 57
3530.0 79 39 50 67 50 63 80 43 53 99
3570.0 89 44 26 61 55 66 49 63 68 57
3610.0 32 75 59 72 134 73 65 119 118 115
3650.0 123 133 128 146 148 125 95 130 126 80
3690.0 84 57 77 37 69 82 87 91 100 102
3730.0 123 76 40 50 43 65 46 78 50 85
3770.0 76 71 63 49 90 101 95 65 50 19
3810.0 70 100 74 73 80 85 70 97 57 45
3850.0 65 85 63 59 59 80 119 67 89 85
3890.0 88 76 70 90 53 121 78 52 95 115
3930.0 125 117 90 103 81 67 72 73 35 88
##END=
