##TITLE=1-Propanamine, N,N-dipropyl-
##JCAMP-DX=4.24
##DATA TYPE=INFRARED SPECTRUM
##ORIGIN=Sadtler Research Labs Under US-EPA Contract
##OWNER=NIST Standard Reference Data Program
##CAS REGISTRY NO=102-69-2
##MOLFORM=C 9 H 21 N
##XUNITS=1/CM
##YUNITS=ABSORBANCE
##XFACTOR=1.0
##YFACTOR=0.000074707
##DELTAX=4.0
##FIRSTX=450.0
##LASTX=3966.0
##FIRSTY=0.004034
##MAXX=3966
##MINX=450
##MAXY=0.74707
##MINY=0
##NPOINTS=880
##XYDATA=(X++(Y..Y))
450.0 54 44 52 74 69 103 37 104 88 102
490.0 119 114 149 97 103 165 95 173 90 108
530.0 94 81 165 100 94 145 63 142 52 67
570.0 164 43 133 70 51 29 45 109 11 39
610.0 108 9 109 70 66 70 40 59 65 55
650.0 101 46 117 47 61 128 74 87 114 75
690.0 92 72 124 106 127 128 111 127 145 145
730.0 191 186 210 247 241 258 240 213 211 201
770.0 168 183 143 145 106 93 122 87 117 122
810.0 101 148 150 214 213 247 309 318 344 343
850.0 292 299 229 261 241 262 311 301 357 416
890.0 392 419 332 326 260 240 229 217 191 179
930.0 142 178 124 142 139 111 129 100 131 160
970.0 119 191 149 202 270 290 407 548 659 737
1010.0 783 825 784 737 657 574 530 477 464 472
1050.0 492 561 671 940 1302 1698 2031 2056 1987 1672
1090.0 1437 1226 1079 967 792 663 592 460 427 336
1130.0 353 306 299 281 227 213 209 173 209 192
1170.0 252 323 476 747 1073 1349 1431 1205 911 581
1210.0 404 308 232 230 209 214 226 207 258 270
1250.0 320 375 405 502 509 557 591 601 608 607
1290.0 646 665 628 635 563 508 463 421 434 433
1330.0 469 577 631 728 747 726 708 715 768 839
1370.0 888 1024 1109 1269 1236 1130 881 626 458 368
1410.0 284 286 244 243 244 278 310 348 445 558
1450.0 713 955 1203 1500 1671 1660 1518 1156 798 537
1490.0 330 262 218 195 166 145 147 132 116 113
1530.0 128 101 105 62 92 88 81 51 53 65
1570.0 70 59 66 65 85 65 72 64 65 68
1610.0 75 57 61 51 69 63 63 63 75 56
1650.0 67 23 77 52 67 47 52 54 50 37
1690.0 63 55 60 55 76 85 84 66 69 77
1730.0 59 43 53 39 58 47 53 58 51 78
1770.0 61 59 70 64 66 58 46 59 36 56
1810.0 29 51 34 36 40 28 32 44 23 45
1850.0 23 47 35 27 34 20 29 36 21 47
1890.0 24 40 33 32 46 33 38 46 25 48
1930.0 32 42 40 26 47 22 31 30 25 36
1970.0 23 24 33 17 36 17 33 27 24 33
2010.0 31 26 36 27 40 27 34 27 29 34
2050.0 23 19 31 12 28 14 25 20 13 25
2090.0 19 18 27 13 25 20 24 27 23 25
2130.0 23 16 29 17 25 21 18 28 22 24
2170.0 23 27 28 28 28 34 29 33 29 34
2210.0 26 35 26 33 23 28 19 27 20 26
2250.0 19 26 17 34 17 25 25 24 24 24
2290.0 25 30 17 37 23 29 21 27 23 20
2330.0 19 22 3 29 35 21 15 13 49 12
2370.0 23 36 34 37 30 32 35 26 34 27
2410.0 26 25 21 16 17 15 16 8 23 9
2450.0 24 12 17 17 17 18 18 16 24 9
2490.0 25 9 15 19 17 24 24 18 37 25
2530.0 45 39 51 57 58 72 69 67 81 62
2570.0 89 73 86 92 84 107 99 112 121 113
2610.0 135 128 138 151 146 174 171 197 202 198
2650.0 222 223 233 267 259 300 289 309 309 303
2690.0 327 334 364 422 433 526 555 637 686 735
2730.0 804 845 894 940 921 957 947 982 1044 1101
2770.0 1221 1308 1432 1594 1747 2076 2449 2880 3321 3495
2810.0 3464 3170 2785 2399 2002 1732 1504 1323 1232 1137
2850.0 1143 1167 1285 1527 1871 2368 3045 3735 4348 4275
2890.0 3988 3431 3010 2883 2956 3069 3259 3355 3641 3886
2930.0 4390 5066 5867 6542 6764 6427 6468 6881 8575 9689
2970.0 10000 9197 6760 4907 3359 2191 1476 1056 847 731
3010.0 643 593 549 497 471 434 409 376 330 307
3050.0 262 249 223 208 197 188 180 177 156 171
3090.0 144 154 146 139 133 134 120 132 108 133
3130.0 105 118 117 109 110 115 108 125 89 116
3170.0 96 118 99 99 95 95 80 82 60 89
3210.0 55 66 49 50 60 43 49 47 50 51
3250.0 38 45 38 39 53 37 59 30 46 47
3290.0 33 49 42 34 52 25 53 30 47 43
3330.0 35 45 37 27 50 16 58 26 42 45
3370.0 26 50 32 26 59 18 65 18 42 46
3410.0 18 49 29 30 54 17 56 28 39 48
3450.0 19 53 36 25 49 14 49 25 29 55
3490.0 20 48 15 28 48 23 48 28 21 62
3530.0 0 52 29 36 44 30 46 44 19 51
3570.0 14 57 34 42 45 25 34 40 42 60
3610.0 26 42 26 37 52 35 53 51 43 52
3650.0 38 59 58 61 54 44 47 51 49 62
3690.0 59 53 64 53 62 63 50 62 59 56
3730.0 55 40 61 50 53 52 57 65 79 59
3770.0 74 59 81 76 80 84 88 77 87 67
3810.0 89 70 89 77 78 82 79 74 83 69
3850.0 92 55 76 87 66 86 75 85 88 77
3890.0 92 81 77 86 69 97 89 96 97 84
3930.0 77 78 75 97 90 109 26 32 32 34
##END=
