##TITLE=Benzeneacetic acid, phenylmethyl ester
##JCAMP-DX=4.24
##DATA TYPE=INFRARED SPECTRUM
##ORIGIN=Sadtler Research Labs Under US-EPA Contract
##OWNER=NIST Standard Reference Data Program
##CAS REGISTRY NO=102-16-9
##MOLFORM=C 15 H 14 O 2
##XUNITS=1/CM
##YUNITS=ABSORBANCE
##XFACTOR=1.0
##YFACTOR=0.000087402
##DELTAX=4.0
##FIRSTX=450.0
##LASTX=3966.0
##FIRSTY=0.017917
##MAXX=3966
##MINX=450
##MAXY=0.87402
##MINY=0
##NPOINTS=880
##XYDATA=(X++(Y..Y))
450.0 205 180 208 183 315 425 449 507 565 610
490.0 515 514 478 328 246 371 244 147 184 175
530.0 259 58 241 196 5 153 332 489 244 628
570.0 484 521 867 940 938 981 872 846 769 822
610.0 696 497 625 540 578 485 435 487 506 491
650.0 477 520 331 518 777 829 1125 1457 1810 2424
690.0 3483 4081 4101 3803 3645 3536 3358 3183 2939 2788
730.0 2641 2666 2702 2700 2583 2323 1811 1301 888 605
770.0 442 432 393 354 269 325 337 247 289 242
810.0 339 456 415 447 466 476 428 481 380 325
850.0 428 424 399 395 265 400 427 411 474 429
890.0 376 500 565 618 673 674 729 696 605 605
930.0 554 522 589 528 581 567 654 647 827 955
970.0 1180 1483 1782 2183 2528 2841 3071 3212 3187 3066
1010.0 2790 2159 1745 1458 1372 1253 1108 858 620 543
1050.0 521 552 622 671 702 850 963 976 1020 1100
1090.0 1251 1400 1637 1878 2214 2677 3319 3835 4607 5742
1130.0 7185 8602 9432 9127 8066 6620 5444 4455 3665 3006
1170.0 2553 2319 2158 2041 1991 1919 1916 2059 2326 2708
1210.0 3079 3409 3716 4144 4848 5645 6246 6736 6686 6396
1250.0 5933 5497 5097 4601 4002 3444 2904 2604 2420 2278
1290.0 2184 2092 1973 1914 1874 1820 1790 1830 1831 1811
1330.0 1840 1804 1677 1539 1431 1268 1157 1084 1060 1155
1370.0 1286 1341 1337 1123 877 681 543 453 422 422
1410.0 482 498 485 560 698 801 923 869 1024 1126
1450.0 1227 1405 1260 1319 1066 882 603 573 603 631
1490.0 858 1471 1793 1749 1067 481 364 215 154 213
1530.0 251 194 206 30 197 239 209 81 108 287
1570.0 230 314 274 413 459 512 570 649 762 824
1610.0 752 607 358 344 281 265 230 147 259 171
1650.0 191 0 263 264 282 200 239 263 257 149
1690.0 346 427 319 288 572 711 810 805 1122 1340
1730.0 1599 1879 2611 3636 5195 7110 9141 10000 9467 7828
1770.0 5875 4367 3521 2880 2453 2124 1805 1655 1376 1154
1810.0 896 721 614 517 420 335 329 329 323 253
1850.0 308 317 318 318 326 279 318 328 332 311
1890.0 281 262 236 238 230 218 211 182 223 272
1930.0 288 329 358 358 377 401 411 400 362 297
1970.0 245 227 213 205 196 191 200 188 190 180
2010.0 174 188 182 176 159 170 165 161 144 141
2050.0 138 159 148 135 127 127 148 149 131 136
2090.0 130 119 128 127 125 108 115 113 137 111
2130.0 119 114 107 124 123 97 107 114 116 110
2170.0 112 101 107 109 113 108 105 95 91 106
2210.0 104 109 96 96 111 117 101 98 97 102
2250.0 101 105 100 98 89 107 109 96 84 98
2290.0 97 84 90 76 61 90 85 84 25 5
2330.0 5 37 7 9 6 34 15 37 6 5
2370.0 5 26 38 54 59 60 62 78 79 67
2410.0 60 72 60 68 63 67 46 55 71 70
2450.0 51 44 60 65 58 54 42 57 53 47
2490.0 50 51 52 50 59 55 37 32 38 54
2530.0 51 51 27 28 40 40 42 26 33 31
2570.0 43 52 41 36 39 38 45 46 35 39
2610.0 44 56 37 42 26 46 47 38 35 24
2650.0 33 18 31 23 14 21 16 39 35 23
2690.0 29 33 40 45 45 33 43 53 58 49
2730.0 61 51 63 57 65 56 60 61 61 54
2770.0 37 53 48 82 82 73 78 71 88 114
2810.0 115 95 120 117 139 139 155 154 150 169
2850.0 193 186 188 219 222 235 246 263 288 328
2890.0 383 447 460 453 436 449 443 464 490 537
2930.0 602 682 737 827 883 954 1069 1162 1214 1157
2970.0 1025 861 769 692 613 575 515 476 438 450
3010.0 499 567 705 889 1189 1622 2117 2596 2738 2500
3050.0 2000 1582 1420 1555 1912 2478 2841 2696 2178 1700
3090.0 1429 1285 1131 999 890 740 635 519 402 297
3130.0 229 182 135 134 103 130 122 114 103 110
3170.0 140 128 115 91 108 102 101 103 76 95
3210.0 99 126 98 97 101 101 109 113 108 96
3250.0 98 118 123 99 107 106 108 148 120 120
3290.0 91 110 130 106 111 113 113 103 122 118
3330.0 117 94 113 136 126 113 96 119 123 124
3370.0 128 81 128 134 135 123 113 95 124 142
3410.0 141 136 128 135 132 133 137 111 127 141
3450.0 141 158 149 137 148 169 155 186 151 165
3490.0 171 205 196 145 146 166 182 184 158 129
3530.0 138 156 151 181 147 140 170 245 265 317
3570.0 449 587 609 596 423 242 206 192 169 167
3610.0 112 104 122 100 140 31 114 158 191 166
3650.0 33 113 138 201 184 111 86 27 125 183
3690.0 94 138 152 145 149 136 104 124 138 124
3730.0 136 88 55 107 29 71 73 132 143 143
3770.0 172 205 193 168 200 208 204 181 142 155
3810.0 166 204 132 145 175 191 163 156 183 173
3850.0 155 70 169 195 179 169 193 212 189 195
3890.0 196 197 220 205 217 250 227 230 252 231
3930.0 220 216 233 233 251 264 44 61 62 64
##END=
