##TITLE=Resorcinol Monoacetate
##JCAMP-DX=4.24
##DATA TYPE=INFRARED SPECTRUM
##ORIGIN=Sadtler Research Labs Under US-EPA Contract
##OWNER=NIST Standard Reference Data Program
##CAS REGISTRY NO=102-29-4
##MOLFORM=C 8 H 8 O 3
##XUNITS=1/CM
##YUNITS=ABSORBANCE
##XFACTOR=1.0
##YFACTOR=0.000137094
##DELTAX=4.0
##FIRSTX=450.0
##LASTX=3966.0
##FIRSTY=0.014121
##MAXX=3966
##MINX=450
##MAXY=1.37094
##MINY=0
##NPOINTS=880
##XYDATA=(X++(Y..Y))
450.0 103 17 310 268 154 121 220 72 181 139
490.0 65 172 211 57 92 275 298 160 272 361
530.0 322 410 376 250 314 436 591 691 835 973
570.0 838 501 333 282 129 279 245 297 328 364
610.0 544 624 559 433 309 145 97 127 214 185
650.0 206 263 250 324 335 506 477 451 540 830
690.0 1077 810 506 334 205 152 144 151 237 410
730.0 467 243 177 298 359 593 741 437 271 265
770.0 263 252 273 235 166 160 161 7 66 71
810.0 116 113 75 76 51 101 139 121 177 154
850.0 159 214 152 203 198 233 289 294 282 307
890.0 384 476 412 402 417 359 318 291 226 188
930.0 169 178 182 191 230 323 465 581 754 772
970.0 654 494 420 426 465 507 614 779 806 918
1010.0 1055 1239 1194 863 514 380 381 410 396 334
1050.0 249 243 253 297 359 381 382 368 335 301
1090.0 274 291 317 371 442 671 863 1352 2192 2916
1130.0 3132 2806 2226 1695 1360 1239 1235 1441 1670 1854
1170.0 2091 2548 3210 4149 5545 7121 8881 10000 9523 9629
1210.0 8091 7039 5772 4392 3235 2559 2052 1777 1553 1401
1250.0 1234 1049 905 789 742 769 764 727 685 601
1290.0 567 583 554 545 491 414 370 322 293 233
1330.0 196 185 194 187 167 197 257 354 550 846
1370.0 1131 1315 1210 915 607 413 308 286 256 233
1410.0 240 222 258 252 266 309 350 469 691 733
1450.0 499 440 447 418 413 446 512 693 997 1211
1490.0 1169 927 656 480 402 304 240 202 198 190
1530.0 199 178 202 175 194 168 149 178 145 185
1570.0 206 240 330 425 599 809 1079 1229 1402 1359
1610.0 1166 1000 717 563 429 308 273 204 166 166
1650.0 141 162 145 159 150 126 129 103 123 107
1690.0 116 120 137 151 165 178 200 239 241 285
1730.0 319 366 410 435 525 601 695 852 1017 1210
1770.0 1400 1580 1814 2096 2452 2692 2679 2434 2026 1560
1810.0 1170 825 557 393 268 209 161 127 122 102
1850.0 98 80 86 83 80 89 75 81 84 85
1890.0 84 89 86 86 83 86 84 85 78 69
1930.0 64 59 56 60 62 59 67 63 61 59
1970.0 58 53 49 46 45 48 48 43 43 46
2010.0 45 51 53 57 60 61 65 65 68 63
2050.0 64 60 58 55 53 50 49 49 50 54
2090.0 55 53 54 56 53 50 47 42 41 39
2130.0 40 35 40 39 39 39 35 36 34 36
2170.0 35 35 34 35 36 37 38 39 40 47
2210.0 50 47 53 54 56 55 57 59 56 50
2250.0 51 47 47 46 42 39 40 38 41 45
2290.0 42 45 52 46 49 57 38 49 47 39
2330.0 41 40 64 44 75 60 87 73 110 133
2370.0 133 127 103 93 81 63 56 57 57 58
2410.0 54 49 50 45 40 39 40 37 35 34
2450.0 29 27 30 30 27 25 24 23 25 26
2490.0 26 23 23 23 20 22 21 22 19 20
2530.0 19 24 23 22 24 27 31 30 29 32
2570.0 33 36 34 37 30 28 30 32 32 28
2610.0 28 28 28 29 30 27 27 26 26 25
2650.0 27 24 22 25 28 26 28 27 23 28
2690.0 29 31 30 32 31 30 33 36 34 34
2730.0 35 36 35 32 31 39 35 35 35 36
2770.0 36 37 37 35 36 35 32 36 37 30
2810.0 34 31 31 34 31 35 39 45 51 67
2850.0 88 99 93 80 65 56 50 41 49 49
2890.0 53 64 68 77 89 103 128 158 180 207
2930.0 203 194 171 155 150 148 137 132 121 102
2970.0 86 85 93 97 100 101 109 118 120 117
3010.0 129 143 145 157 175 197 212 217 230 248
3050.0 264 272 260 240 226 214 207 211 204 189
3090.0 182 175 161 143 137 117 109 97 95 88
3130.0 83 81 84 83 80 82 79 74 74 74
3170.0 74 72 78 72 72 68 63 63 68 62
3210.0 61 62 66 68 62 59 55 65 62 65
3250.0 66 64 63 56 56 51 58 60 55 49
3290.0 53 57 57 49 44 47 50 49 49 50
3330.0 38 53 47 51 52 54 48 48 48 43
3370.0 44 51 47 44 46 48 40 42 36 38
3410.0 43 36 38 40 40 45 42 38 43 41
3450.0 35 33 38 41 41 40 29 34 38 36
3490.0 37 41 43 40 32 37 43 42 51 45
3530.0 46 56 53 64 67 83 90 109 110 124
3570.0 111 106 114 137 93 97 92 98 76 80
3610.0 62 58 63 44 64 49 94 133 213 277
3650.0 391 387 405 293 219 96 58 59 34 68
3690.0 21 61 50 38 56 38 40 61 39 58
3730.0 39 28 53 29 64 0 56 26 64 47
3770.0 40 58 52 44 55 48 60 38 57 21
3810.0 86 35 59 35 60 59 52 56 58 52
3850.0 63 54 27 64 53 62 64 66 64 64
3890.0 62 65 54 66 40 67 78 73 78 81
3930.0 61 37 67 60 49 77 62 70 69 63
##END=
