##TITLE=Benzene, 4-(chloromethyl)-1,2-dimethyl-
##JCAMP-DX=4.24
##DATA TYPE=INFRARED SPECTRUM
##ORIGIN=Sadtler Research Labs Under US-EPA Contract
##OWNER=NIST Standard Reference Data Program
##CAS REGISTRY NO=102-46-5
##MOLFORM=C 9 H 11 Cl
##XUNITS=1/CM
##YUNITS=ABSORBANCE
##XFACTOR=1.0
##YFACTOR=0.000073950
##DELTAX=4.0
##FIRSTX=450.0
##LASTX=3966.0
##FIRSTY=0.000000
##MAXX=3966
##MINX=450
##MAXY=0.7395
##MINY=0
##NPOINTS=880
##XYDATA=(X++(Y..Y))
450.0 0 203 261 220 213 325 422 513 555 523
490.0 366 308 312 298 334 309 324 341 404 389
530.0 384 424 409 465 585 572 631 935 1132 1425
570.0 1713 1749 1458 1098 721 420 360 288 277 242
610.0 220 167 248 258 220 232 238 247 241 322
650.0 303 350 436 485 590 869 1153 1825 2748 3659
690.0 4340 4301 3758 3055 2585 2618 3501 5100 7059 9276
730.0 10000 8864 7465 6177 4992 4394 3682 2875 2330 1991
770.0 1764 1653 1588 1646 1648 1385 1315 1358 1518 1877
810.0 2328 2538 2394 2016 1383 910 579 367 283 247
850.0 242 216 244 303 409 556 729 828 876 844
890.0 718 634 554 531 510 486 490 465 419 364
930.0 369 391 460 538 555 531 414 308 241 234
970.0 229 245 268 331 409 562 754 913 982 944
1010.0 820 696 683 681 656 566 464 380 328 271
1050.0 241 227 223 220 233 258 287 321 330 370
1090.0 453 471 474 461 461 555 621 827 999 1199
1130.0 1227 1176 1075 922 834 820 878 864 826 771
1170.0 680 624 566 518 469 435 427 424 434 453
1210.0 456 457 469 492 552 664 847 1078 1392 1804
1250.0 2354 3228 4253 5338 6329 6736 6435 5464 4124 2901
1290.0 2259 1974 1754 1394 938 707 596 520 490 465
1330.0 441 421 395 401 419 427 431 441 438 487
1370.0 552 661 787 961 1152 1196 1189 1108 996 1017
1410.0 1096 1182 1243 1337 1391 1520 1719 2045 2553 3134
1450.0 3784 4259 4371 4191 3979 3608 3154 2733 2394 2080
1490.0 1879 1959 2449 3267 3713 3563 2913 1857 1188 918
1530.0 776 698 669 626 610 604 596 581 603 623
1570.0 659 700 773 802 842 844 822 799 788 810
1610.0 849 892 882 837 740 610 477 390 336 301
1650.0 258 247 234 225 228 236 245 277 270 279
1690.0 266 257 229 240 260 313 366 407 436 434
1730.0 409 353 372 388 428 468 506 501 456 416
1770.0 345 312 289 276 265 259 248 246 231 220
1810.0 212 199 201 198 195 191 200 200 208 214
1850.0 243 279 296 312 312 314 337 381 419 432
1890.0 423 393 342 298 273 268 282 301 301 295
1930.0 283 251 215 194 184 180 181 173 181 171
1970.0 181 180 175 173 175 163 162 168 164 167
2010.0 172 170 165 170 167 169 174 176 187 198
2050.0 203 203 213 204 187 184 171 171 168 180
2090.0 181 197 200 192 191 190 192 197 200 202
2130.0 204 194 197 197 191 188 190 188 188 182
2170.0 182 181 175 176 186 186 191 188 184 182
2210.0 177 176 177 183 186 182 184 186 187 191
2250.0 191 194 190 187 192 191 199 203 205 214
2290.0 229 223 225 230 237 247 245 256 274 285
2330.0 274 285 272 294 271 254 286 278 287 173
2370.0 189 179 178 179 190 198 215 224 233 242
2410.0 241 242 235 226 227 216 215 211 215 216
2450.0 216 213 219 213 215 217 210 218 217 213
2490.0 209 210 215 204 213 208 212 212 214 212
2530.0 208 201 211 204 199 197 207 207 206 210
2570.0 212 213 210 204 210 201 210 204 200 193
2610.0 197 202 195 199 201 198 191 183 168 185
2650.0 194 199 203 204 198 180 188 184 197 218
2690.0 237 258 270 308 326 327 354 354 362 380
2730.0 394 439 517 565 580 538 449 381 349 358
2770.0 365 373 376 361 352 359 356 388 388 409
2810.0 441 469 511 548 598 643 703 774 857 970
2850.0 1138 1366 1695 2161 2685 3239 3666 3930 3975 3906
2890.0 3784 3669 3613 3565 3556 3578 3705 3967 4499 5392
2930.0 6548 7550 7947 7799 7111 6584 6474 6415 6362 6456
2970.0 6572 6755 6836 6443 5860 5010 4210 3749 3735 3996
3010.0 4456 4917 5238 5403 5241 4851 4358 3915 3662 3588
3050.0 3580 3544 3470 3364 3137 2888 2673 2433 2175 1871
3090.0 1559 1299 1045 888 765 717 689 704 675 658
3130.0 632 590 508 437 393 368 340 318 304 299
3170.0 298 279 283 286 282 270 250 244 250 236
3210.0 226 243 211 241 246 238 259 264 230 214
3250.0 230 221 211 202 231 224 228 244 246 231
3290.0 226 213 215 212 202 222 225 223 245 223
3330.0 204 208 217 219 232 228 231 213 217 206
3370.0 258 221 217 229 206 196 217 210 235 206
3410.0 195 222 228 229 233 219 211 230 176 179
3450.0 196 243 228 214 218 217 217 243 219 231
3490.0 200 225 229 253 236 218 201 220 227 207
3530.0 204 243 235 209 226 223 270 216 237 272
3570.0 234 199 258 256 253 234 240 257 240 265
3610.0 285 269 247 261 234 250 238 226 270 238
3650.0 245 255 236 256 275 266 229 210 249 265
3690.0 305 285 228 275 287 267 290 288 295 275
3730.0 251 261 218 248 241 275 308 268 285 270
3770.0 273 299 301 278 272 292 282 291 257 243
3810.0 280 264 276 296 288 240 239 292 303 246
3850.0 269 304 296 299 259 281 309 313 318 245
3890.0 270 306 270 334 346 266 304 301 260 262
3930.0 235 315 280 308 320 242 267 242 309 272
##END=
