##TITLE=1,2-Ethanediamine, N,N'-dimethyl-N,N'-bis(phenylmethyl)-
##JCAMP-DX=4.24
##DATA TYPE=INFRARED SPECTRUM
##ORIGIN=Sadtler Research Labs Under US-EPA Contract
##OWNER=NIST Standard Reference Data Program
##CAS REGISTRY NO=102-18-1
##MOLFORM=C 18 H 24 N 2
##XUNITS=1/CM
##YUNITS=ABSORBANCE
##XFACTOR=1.0
##YFACTOR=0.000058643
##DELTAX=4.0
##FIRSTX=450.0
##LASTX=3966.0
##FIRSTY=0.113063
##MAXX=3966
##MINX=450
##MAXY=0.58643
##MINY=0
##NPOINTS=880
##XYDATA=(X++(Y..Y))
450.0 1928 1715 1544 1281 1160 1194 1193 1207 1439 1252
490.0 1287 922 702 784 655 428 485 636 653 280
530.0 523 214 52 185 440 515 273 543 272 173
570.0 178 202 407 511 469 602 468 503 327 774
610.0 529 418 702 608 379 128 332 160 125 265
650.0 327 388 519 556 963 498 945 1149 1974 2559
690.0 4206 6432 6707 5361 3724 3156 2557 2845 3756 4923
730.0 6478 7209 6485 5051 3510 2565 1765 1536 892 877
770.0 717 617 599 612 827 620 577 568 593 547
810.0 618 807 907 698 777 582 606 505 619 678
850.0 776 788 679 749 480 494 569 482 494 598
890.0 663 666 860 1178 1170 1188 980 807 738 721
930.0 767 764 792 734 837 911 845 881 1055 1173
970.0 1191 1285 1284 1101 998 1017 975 1146 1331 1805
1010.0 2399 3418 4623 6130 6404 5387 4264 3681 3076 2488
1050.0 2135 1865 1688 1608 1711 1672 1687 1505 1337 946
1090.0 964 832 1025 1170 1412 1756 2114 2425 2503 2522
1130.0 2223 1941 1745 1615 1376 1391 1288 1371 1195 1240
1170.0 1268 1324 1285 1320 1287 1275 1301 1237 1239 1171
1210.0 1024 944 955 780 854 762 882 806 1114 1190
1250.0 1247 1269 1382 1311 1267 1333 1393 1480 1618 1623
1290.0 1674 1627 1556 1592 1583 1653 1613 1814 1758 1788
1330.0 1821 1860 1912 2086 2436 2676 2828 3133 3384 3471
1370.0 3003 2305 1747 1312 1024 767 758 623 545 590
1410.0 638 659 775 925 1048 1069 1331 1559 2105 2786
1450.0 3669 4218 3947 3393 2774 2263 1737 1390 1309 1462
1490.0 1961 2586 2537 1639 861 473 356 314 194 223
1530.0 264 264 288 217 221 238 216 309 155 297
1570.0 299 450 377 528 615 642 764 901 1004 908
1610.0 684 521 323 264 224 154 302 175 352 388
1650.0 485 288 325 290 267 202 280 211 269 142
1690.0 268 294 286 329 442 535 460 415 305 341
1730.0 280 322 266 285 211 321 184 221 160 233
1770.0 179 179 195 201 188 218 331 400 463 386
1810.0 376 242 192 149 137 47 108 103 201 60
1850.0 185 165 198 217 281 323 296 332 312 248
1890.0 179 169 108 149 105 159 105 173 92 167
1930.0 216 324 389 502 484 413 380 325 186 174
1970.0 123 135 132 124 120 76 81 48 111 114
2010.0 101 78 107 64 47 60 104 62 114 72
2050.0 96 36 79 33 45 84 75 78 88 46
2090.0 55 46 45 58 68 113 67 91 35 57
2130.0 40 74 55 98 73 99 60 88 22 78
2170.0 84 84 67 90 87 45 48 42 87 33
2210.0 105 70 70 53 70 44 90 49 134 71
2250.0 105 50 99 62 43 81 97 93 71 95
2290.0 87 62 47 111 96 165 124 220 43 55
2330.0 12 70 21 42 16 160 41 3 8 23
2370.0 3 28 39 35 97 78 110 37 105 63
2410.0 122 54 117 60 79 0 87 76 91 36
2450.0 87 48 38 63 85 97 63 141 85 116
2490.0 71 120 102 115 76 135 77 149 63 146
2530.0 97 135 134 177 172 128 173 143 132 172
2570.0 195 193 218 219 231 169 247 221 282 275
2610.0 285 299 302 261 257 306 331 316 392 398
2650.0 381 417 436 430 483 577 601 686 701 745
2690.0 824 934 988 1069 1197 1211 1170 1227 1161 1166
2730.0 1229 1347 1396 1558 1749 1945 2200 2647 3233 4092
2770.0 4983 5909 6787 7917 8888 9662 10000 9413 8575 7680
2810.0 6994 6217 5677 5240 4903 4552 4527 4598 4849 4817
2850.0 4660 4038 3460 2939 2664 2639 2588 2710 2835 3027
2890.0 2986 2977 2970 2962 2981 3173 3265 3517 3693 4143
2930.0 4337 4599 4809 5017 5286 5373 5258 4761 4142 3574
2970.0 3288 3310 3358 3467 3374 2673 1998 1441 1376 1208
3010.0 1332 1448 1797 2402 3266 4220 4775 4545 3844 3012
3050.0 2524 2357 2641 3534 4588 5573 5387 4433 3286 2935
3090.0 2681 2278 1789 1467 1191 1030 807 675 448 383
3130.0 274 272 310 236 203 199 232 149 234 253
3170.0 261 216 223 154 105 101 156 144 196 163
3210.0 151 173 103 110 92 156 101 138 190 98
3250.0 97 110 130 74 113 202 133 109 128 81
3290.0 101 61 115 120 148 86 74 110 9 69
3330.0 120 125 57 144 134 62 79 121 90 133
3370.0 144 169 115 133 82 71 130 77 143 123
3410.0 132 40 108 65 51 126 145 103 125 125
3450.0 134 41 79 62 109 151 91 163 81 72
3490.0 31 95 80 85 137 184 68 91 67 107
3530.0 85 131 129 87 145 94 107 71 90 79
3570.0 124 130 110 105 141 38 89 123 148 76
3610.0 131 121 83 82 123 75 125 176 163 136
3650.0 105 103 124 176 118 149 157 125 78 112
3690.0 92 76 103 116 98 89 68 101 23 22
3730.0 29 53 106 96 46 56 61 35 95 95
3770.0 49 116 113 61 37 66 73 73 83 110
3810.0 97 107 3 29 43 49 45 96 88 19
3850.0 46 7 8 4 64 85 54 79 78 1
3890.0 13 20 75 56 107 109 82 50 3 24
3930.0 47 62 92 118 91 6 3 3 3 3
##END=
