##TITLE=(Hydroxymethyl)ethylene acetate
##JCAMP-DX=4.24
##DATA TYPE=INFRARED SPECTRUM
##ORIGIN=Sadtler Research Labs Under US-EPA Contract
##OWNER=NIST Standard Reference Data Program
##CAS REGISTRY NO=102-62-5
##MOLFORM=C 7 H 12 O 5
##XUNITS=1/CM
##YUNITS=ABSORBANCE
##XFACTOR=1.0
##YFACTOR=0.000173145
##DELTAX=4.0
##FIRSTX=450.0
##LASTX=3966.0
##FIRSTY=0.020604
##MAXX=3966
##MINX=450
##MAXY=1.73145
##MINY=0
##NPOINTS=880
##XYDATA=(X++(Y..Y))
450.0 119 158 221 40 116 219 122 147 127 130
490.0 161 181 178 206 153 101 124 163 31 157
530.0 208 127 178 141 97 93 134 237 175 84
570.0 96 89 116 101 104 127 192 273 262 328
610.0 240 163 267 213 200 168 220 250 222 211
650.0 215 177 162 133 151 140 92 116 63 125
690.0 112 57 60 56 65 77 58 40 26 40
730.0 26 27 56 58 25 13 22 37 61 81
770.0 67 53 77 115 103 68 56 57 94 134
810.0 159 168 201 179 203 229 236 256 270 278
850.0 277 318 332 330 318 313 302 299 285 286
890.0 299 285 296 290 277 282 287 287 292 324
930.0 318 337 369 377 397 434 465 467 464 471
970.0 454 447 457 449 461 506 513 565 646 789
1010.0 881 1007 1124 1269 1455 1608 1821 2016 2252 2491
1050.0 2632 2705 2554 2310 2081 1873 1678 1517 1362 1274
1090.0 1189 1130 1105 1055 1008 932 816 739 651 571
1130.0 516 459 414 392 365 346 342 360 388 433
1170.0 490 566 683 832 1047 1330 1676 2108 2810 4018
1210.0 5772 7782 9485 10000 9264 7783 6339 5313 4561 3859
1250.0 3226 2667 2220 1899 1630 1415 1238 1092 958 836
1290.0 721 619 545 486 447 420 403 389 376 359
1330.0 355 354 366 382 419 474 572 740 1029 1461
1370.0 1872 2148 2112 1847 1524 1224 1001 834 717 605
1410.0 523 458 407 388 372 374 375 393 410 417
1450.0 435 438 427 422 388 355 311 268 233 193
1490.0 165 157 146 140 129 122 121 113 109 109
1530.0 105 104 88 86 84 87 80 71 75 73
1570.0 71 69 66 64 67 60 58 58 60 56
1610.0 56 56 55 62 60 71 71 73 77 73
1650.0 72 79 85 84 83 86 81 89 90 96
1690.0 113 127 141 173 208 252 296 363 454 563
1730.0 675 818 1044 1291 1606 2042 2604 3591 4859 6104
1770.0 6836 5786 4476 3061 2087 1503 1082 854 662 529
1810.0 441 353 298 251 207 181 152 131 116 96
1850.0 91 79 76 66 64 63 59 60 57 53
1890.0 54 52 47 47 42 42 40 39 34 34
1930.0 34 31 31 29 29 29 29 26 28 26
1970.0 25 23 20 20 22 22 24 23 29 24
2010.0 31 32 33 38 38 42 43 43 46 44
2050.0 46 44 45 45 45 44 43 43 45 44
2090.0 46 45 43 43 39 39 38 34 34 31
2130.0 28 24 24 23 20 18 18 14 15 14
2170.0 15 15 13 12 10 11 13 10 11 10
2210.0 9 11 9 12 7 6 9 11 8 7
2250.0 7 10 10 9 7 5 8 7 7 6
2290.0 4 7 5 4 3 4 7 6 7 9
2330.0 7 12 5 11 12 15 13 10 21 17
2370.0 15 15 7 9 5 5 7 6 5 8
2410.0 7 12 11 11 13 12 15 13 14 15
2450.0 13 17 16 15 15 13 12 9 9 9
2490.0 9 7 7 6 6 3 3 0 2 0
2530.0 1 0 1 1 2 0 2 2 1 3
2570.0 3 5 6 6 10 8 9 7 6 9
2610.0 9 8 5 4 9 6 6 5 4 7
2650.0 7 10 7 9 5 9 9 10 8 8
2690.0 10 14 15 12 14 16 17 18 21 19
2730.0 24 24 26 24 27 26 26 26 25 29
2770.0 26 29 30 30 29 30 33 35 33 36
2810.0 37 41 42 40 46 47 53 58 63 72
2850.0 80 91 105 116 136 156 180 208 239 268
2890.0 287 307 314 314 306 295 290 286 285 300
2930.0 320 347 390 442 509 576 646 695 702 679
2970.0 611 537 464 393 345 311 284 254 224 195
3010.0 166 139 119 107 107 105 102 100 87 84
3050.0 80 74 70 67 64 67 63 58 54 53
3090.0 47 47 41 33 32 26 22 26 20 18
3130.0 20 17 17 12 13 14 12 8 5 6
3170.0 7 2 8 8 5 3 1 5 3 4
3210.0 3 3 4 4 5 2 5 4 1 4
3250.0 0 2 5 7 4 1 1 3 4 4
3290.0 1 0 3 3 1 0 2 3 2 2
3330.0 4 5 3 6 7 3 1 10 6 9
3370.0 7 3 8 4 2 9 7 2 9 13
3410.0 12 4 12 10 9 12 15 13 13 16
3450.0 11 16 21 22 22 23 23 32 37 39
3490.0 37 43 59 68 73 94 99 109 119 116
3530.0 109 113 112 112 115 114 112 118 115 126
3570.0 132 134 135 132 135 134 134 136 138 143
3610.0 155 155 163 178 190 183 182 181 190 193
3650.0 194 196 183 165 141 121 102 111 94 83
3690.0 68 56 45 42 30 27 20 17 7 8
3730.0 16 6 11 4 16 7 11 5 4 7
3770.0 7 16 8 16 5 11 8 3 10 7
3810.0 17 7 5 13 0 13 11 8 22 8
3850.0 11 6 9 20 15 18 19 7 24 21
3890.0 26 32 20 17 21 7 24 11 40 6
3930.0 21 21 31 29 20 18 36 23 22 9
##END=
