##TITLE=Benzenamine, N-ethyl-3-methyl-
##JCAMP-DX=4.24
##DATA TYPE=INFRARED SPECTRUM
##ORIGIN=Sadtler Research Labs Under US-EPA Contract
##OWNER=NIST Standard Reference Data Program
##CAS REGISTRY NO=102-27-2
##MOLFORM=C 9 H 13 N
##XUNITS=1/CM
##YUNITS=ABSORBANCE
##XFACTOR=1.0
##YFACTOR=0.000074750
##DELTAX=4.0
##FIRSTX=450.0
##LASTX=3966.0
##FIRSTY=0.035431
##MAXX=3966
##MINX=450
##MAXY=0.7475
##MINY=0
##NPOINTS=880
##XYDATA=(X++(Y..Y))
450.0 474 403 238 389 499 329 447 423 602 423
490.0 643 502 573 585 568 561 599 719 605 714
530.0 626 672 557 574 571 554 530 523 542 491
570.0 527 462 487 405 414 395 385 405 375 393
610.0 320 390 384 390 381 396 418 400 444 413
650.0 451 431 432 408 423 548 705 990 1202 1640
690.0 2002 1671 1400 1140 821 634 485 428 392 377
730.0 342 312 328 360 534 847 1388 1958 2638 3370
770.0 3189 2436 1833 1207 685 406 285 251 249 264
810.0 252 230 230 226 279 344 471 566 754 748
850.0 610 577 485 413 303 221 146 122 79 48
890.0 46 28 22 23 36 28 33 37 44 79
930.0 106 130 142 171 174 169 130 90 33 0
970.0 3 12 47 89 220 408 497 526 495 313
1010.0 164 117 64 45 37 67 88 130 190 267
1050.0 364 447 517 510 463 378 319 287 303 338
1090.0 381 448 513 539 513 478 405 360 364 423
1130.0 532 688 918 1148 1296 1322 1259 1205 1344 1693
1170.0 2254 2984 3319 3094 2589 1747 991 639 506 428
1210.0 358 289 257 226 238 256 306 400 558 817
1250.0 1186 1564 1796 1916 1898 1817 1955 2302 2653 2836
1290.0 2900 2892 2908 2942 2966 3100 3336 3547 3590 3380
1330.0 2803 2089 1483 1128 962 880 828 777 742 717
1370.0 776 943 1202 1353 1446 1336 1156 1002 999 1024
1410.0 1088 1233 1354 1627 1801 1937 1891 1744 1543 1355
1450.0 1293 1288 1381 1504 1731 2030 2589 3573 4328 5048
1490.0 5087 5063 4652 4929 5144 5251 5230 4600 3851 2933
1530.0 2429 1911 1582 1319 1114 989 838 766 810 905
1570.0 1124 1409 1960 2872 3739 5030 5861 7779 8510 9863
1610.0 10000 8976 7269 5070 3807 2573 2040 1354 959 606
1650.0 427 366 287 286 226 215 154 194 162 164
1690.0 206 226 200 195 213 226 199 150 167 167
1730.0 122 90 102 104 76 57 72 55 49 58
1770.0 44 28 43 36 45 44 52 73 79 115
1810.0 120 120 115 97 69 46 38 37 24 11
1850.0 24 30 25 24 20 8 27 36 43 50
1890.0 64 97 138 179 193 188 171 137 80 66
1930.0 57 47 45 33 34 35 30 27 22 16
1970.0 13 16 17 13 16 9 13 15 17 16
2010.0 15 6 8 6 11 9 8 12 8 11
2050.0 11 8 9 9 5 9 5 4 5 1
2090.0 3 3 2 4 6 2 2 4 3 5
2130.0 6 7 6 6 5 7 6 9 6 6
2170.0 10 10 13 10 10 10 13 16 18 15
2210.0 15 16 13 12 8 10 9 11 12 11
2250.0 10 13 15 13 11 11 8 11 10 7
2290.0 2 4 3 3 1 7 10 16 20 33
2330.0 37 34 39 32 37 30 9 15 28 33
2370.0 45 50 38 28 23 27 29 32 36 39
2410.0 44 48 47 47 49 44 46 45 40 38
2450.0 37 37 40 40 38 39 41 39 41 39
2490.0 40 41 43 48 48 54 53 51 50 43
2530.0 39 38 37 43 47 52 62 72 80 87
2570.0 92 93 93 103 102 107 102 94 88 88
2610.0 75 67 63 56 57 56 59 63 57 62
2650.0 61 59 64 67 68 73 84 91 100 112
2690.0 125 131 134 138 133 126 126 124 130 144
2730.0 162 180 204 213 222 211 196 185 178 182
2770.0 190 200 209 227 251 274 294 328 363 403
2810.0 451 497 543 592 636 699 763 847 937 1052
2850.0 1180 1334 1523 1740 2006 2296 2604 2911 3156 3234
2890.0 3174 2977 2719 2485 2330 2266 2286 2428 2696 3041
2930.0 3345 3602 3692 3583 3362 3069 2802 2667 2746 2988
2970.0 3443 4091 4611 4564 4131 3476 2611 1981 1727 1692
3010.0 1784 1891 1979 2069 2070 2015 2028 2135 2371 2640
3050.0 2829 2803 2510 2087 1655 1341 1209 1118 1026 925
3090.0 822 714 617 518 443 378 330 291 249 217
3130.0 192 165 135 112 94 86 76 65 61 57
3170.0 52 49 44 39 43 46 44 36 43 39
3210.0 44 41 34 33 33 37 36 24 26 31
3250.0 27 30 22 18 24 29 25 24 25 27
3290.0 24 22 20 23 24 25 22 28 25 21
3330.0 24 29 31 17 23 24 19 17 28 22
3370.0 30 30 35 32 35 37 49 60 87 98
3410.0 139 177 234 310 381 422 443 430 375 322
3450.0 293 256 228 195 168 144 126 107 94 78
3490.0 64 66 51 49 53 46 39 32 31 28
3530.0 29 24 30 30 28 20 28 29 13 22
3570.0 28 26 20 16 11 10 21 7 11 9
3610.0 18 11 16 18 15 19 27 16 16 3
3650.0 25 33 22 20 13 12 6 32 20 13
3690.0 28 30 8 19 26 22 21 17 19 18
3730.0 24 20 13 33 17 25 34 33 35 29
3770.0 24 44 22 31 12 9 24 12 19 25
3810.0 24 4 22 47 29 27 8 37 17 25
3850.0 3 27 31 2 13 29 35 20 17 11
3890.0 31 23 10 26 33 5 19 13 13 20
3930.0 13 15 18 24 11 8 12 10 12 6
##END=
