##TITLE=Phosphorous acid, tributyl ester
##JCAMP-DX=4.24
##DATA TYPE=INFRARED SPECTRUM
##ORIGIN=Sadtler Research Labs Under US-EPA Contract
##OWNER=NIST Standard Reference Data Program
##CAS REGISTRY NO=102-85-2
##MOLFORM=C 12 H 27 O 3 P
##XUNITS=1/CM
##YUNITS=ABSORBANCE
##XFACTOR=1.0
##YFACTOR=0.000060361
##DELTAX=4.0
##FIRSTX=450.0
##LASTX=3966.0
##FIRSTY=0.007364
##MAXX=3966
##MINX=450
##MAXY=0.60361
##MINY=0
##NPOINTS=880
##XYDATA=(X++(Y..Y))
450.0 122 113 144 130 164 225 221 185 174 196
490.0 231 269 274 223 242 185 272 283 303 329
530.0 304 294 314 358 362 288 335 292 282 234
570.0 181 318 219 102 116 176 188 79 61 75
610.0 100 101 92 84 97 83 88 125 172 133
650.0 185 199 193 180 184 262 321 363 444 539
690.0 701 897 1192 1539 1942 2354 2676 2811 2758 2622
730.0 2444 2286 2153 2161 2160 2231 2311 2498 2773 3040
770.0 3201 3290 3072 2872 2511 2206 2004 1833 1724 1648
810.0 1533 1384 1260 1087 948 810 759 695 709 733
850.0 792 965 1235 1562 2111 2597 2971 3077 2913 2549
890.0 2108 1750 1531 1447 1342 1238 1134 1036 1022 1025
930.0 1101 1278 1635 2163 2948 3864 4708 5650 6392 7066
970.0 7086 6498 5564 4886 4619 4863 5185 5597 6090 6902
1010.0 7892 8915 9739 10000 9452 8282 6966 5902 5185 4780
1050.0 4657 4669 4925 5244 5311 4911 4302 3518 2992 2445
1090.0 2062 1703 1474 1270 1149 1080 1087 1050 1013 941
1130.0 875 817 786 742 709 682 591 524 461 407
1170.0 355 338 309 296 271 270 263 267 260 278
1210.0 294 318 328 361 408 459 495 520 529 521
1250.0 542 580 639 714 782 841 851 858 825 778
1290.0 724 675 681 661 628 565 489 415 345 302
1330.0 293 282 302 304 297 264 267 300 337 396
1370.0 513 710 1008 1319 1400 1204 900 645 452 359
1410.0 306 277 270 295 329 376 465 521 559 593
1450.0 661 763 871 1006 1106 1153 1082 947 761 589
1490.0 463 364 302 255 229 196 189 169 174 148
1530.0 150 121 116 92 118 111 98 67 65 90
1570.0 85 68 80 90 87 88 86 72 81 82
1610.0 68 77 57 69 67 59 53 57 71 64
1650.0 70 47 69 74 64 74 78 65 64 69
1690.0 87 69 71 69 83 93 90 79 99 104
1730.0 108 100 94 94 105 99 101 101 94 90
1770.0 83 84 95 97 94 93 90 90 101 95
1810.0 86 87 83 78 68 68 66 55 53 40
1850.0 52 50 49 49 36 36 42 31 29 27
1890.0 39 29 34 34 32 39 31 33 34 23
1930.0 20 22 25 23 27 30 21 21 27 22
1970.0 21 37 28 33 37 31 30 34 45 31
2010.0 34 41 51 42 58 49 49 48 42 37
2050.0 31 28 24 24 22 22 15 23 15 15
2090.0 16 19 22 24 18 16 13 20 12 13
2130.0 11 12 13 4 5 3 7 5 5 12
2170.0 12 8 3 3 1 9 9 12 9 9
2210.0 9 9 9 8 2 9 9 10 2 10
2250.0 9 11 5 8 14 5 17 18 21 26
2290.0 33 43 53 57 67 77 53 58 51 43
2330.0 53 53 42 64 94 112 81 56 0 38
2370.0 68 77 89 110 98 76 59 61 52 60
2410.0 53 62 68 77 86 85 92 77 72 60
2450.0 54 45 29 21 20 20 19 29 19 15
2490.0 10 14 20 13 13 6 13 13 21 14
2530.0 14 14 14 14 14 14 14 23 23 23
2570.0 24 23 16 23 32 37 37 31 38 36
2610.0 41 48 48 41 49 32 39 44 46 46
2650.0 29 50 54 55 58 65 81 82 82 80
2690.0 92 98 89 109 113 105 131 132 132 148
2730.0 165 175 205 214 223 215 215 199 180 182
2770.0 168 165 159 158 166 176 191 215 226 252
2810.0 258 292 305 349 392 448 506 599 712 899
2850.0 1088 1273 1420 1630 1958 2501 3189 3864 4329 4357
2890.0 4025 3510 3218 3132 3295 3620 3995 4193 4354 4517
2930.0 4911 5451 6197 6835 7218 7139 6946 7015 7594 8260
2970.0 8557 7634 5917 4183 2945 2162 1643 1257 1010 816
3010.0 694 585 517 444 428 358 343 297 290 243
3050.0 236 220 203 181 169 164 139 140 137 137
3090.0 133 131 124 108 115 99 81 99 89 98
3130.0 81 77 82 80 77 92 66 75 66 74
3170.0 68 80 78 73 74 66 67 57 63 51
3210.0 62 44 52 52 46 27 43 30 35 33
3250.0 35 29 29 39 31 9 23 18 31 31
3290.0 12 23 28 14 28 29 27 35 21 19
3330.0 11 35 20 39 22 14 22 18 20 21
3370.0 36 31 37 39 30 39 38 48 29 36
3410.0 29 34 22 22 23 30 14 14 26 9
3450.0 24 1 41 39 50 38 20 32 40 33
3490.0 39 39 34 47 40 37 35 47 33 41
3530.0 51 36 17 40 40 51 48 37 38 41
3570.0 32 44 44 48 39 56 39 64 48 52
3610.0 53 60 60 77 48 56 69 61 58 62
3650.0 72 96 93 100 84 76 83 78 105 77
3690.0 84 74 66 64 57 57 60 54 58 58
3730.0 39 31 45 51 64 47 54 64 53 52
3770.0 43 42 45 34 50 36 39 52 32 41
3810.0 45 47 25 23 41 39 46 42 65 47
3850.0 43 21 49 34 43 43 58 47 50 29
3890.0 36 51 50 46 52 51 51 43 42 42
3930.0 31 24 31 40 42 49 56 52 51 51
##END=
