##TITLE=Geranyl phenylacetate
##JCAMP-DX=4.24
##DATA TYPE=INFRARED SPECTRUM
##ORIGIN=Sadtler Research Labs Under US-EPA Contract
##OWNER=NIST Standard Reference Data Program
##CAS REGISTRY NO=102-22-7
##MOLFORM=C 18 H 24 O 2
##XUNITS=1/CM
##YUNITS=ABSORBANCE
##XFACTOR=1.0
##YFACTOR=0.000037811
##DELTAX=4.0
##FIRSTX=450.0
##LASTX=3966.0
##FIRSTY=0.039513
##MAXX=3966
##MINX=450
##MAXY=0.37811
##MINY=0
##NPOINTS=880
##XYDATA=(X++(Y..Y))
450.0 1045 502 237 776 408 676 568 833 546 297
490.0 23 277 645 44 325 205 444 366 491 435
530.0 477 475 367 425 396 478 312 444 418 424
570.0 487 537 542 428 719 476 367 357 416 353
610.0 323 278 215 377 369 695 418 447 399 462
650.0 402 391 388 368 454 505 606 614 850 940
690.0 1459 1893 2105 2077 2075 2201 2227 2172 1905 1601
730.0 1277 1099 945 860 777 736 746 631 653 540
770.0 517 458 590 434 367 301 411 423 460 495
810.0 528 571 611 806 753 658 675 639 657 603
850.0 580 549 534 553 490 551 512 565 540 594
890.0 593 603 627 644 712 682 747 695 687 681
930.0 728 782 845 925 1011 1111 1232 1478 1742 2138
970.0 2544 2976 3283 3328 3223 2914 2583 2214 1986 1767
1010.0 1488 1221 1020 981 960 1043 988 948 858 868
1050.0 862 818 790 777 807 842 922 905 947 965
1090.0 1077 1241 1430 1711 1944 2295 2375 2915 3383 4170
1130.0 5138 6336 7249 7568 7292 6563 5706 4841 4029 3279
1170.0 2773 2450 2221 2100 1991 1976 1966 2031 2106 2299
1210.0 2502 2713 3022 3392 3922 4640 5450 6083 6452 6278
1250.0 5744 5040 4363 3766 3326 3123 2987 2867 2656 2461
1290.0 2285 2100 1945 1808 1757 1742 1755 1771 1756 1755
1330.0 1707 1671 1699 1717 1640 1537 1373 1282 1223 1205
1370.0 1269 1411 1632 1785 1729 1509 1235 970 810 710
1410.0 677 706 754 841 961 1117 1292 1450 1539 1626
1450.0 1736 1778 1717 1574 1355 1112 948 798 695 670
1490.0 832 1115 1349 1224 795 514 416 334 295 310
1530.0 298 299 257 259 281 286 267 240 233 253
1570.0 227 225 229 294 309 353 419 486 570 617
1610.0 578 458 343 287 268 264 261 264 291 309
1650.0 335 349 454 565 658 694 622 496 426 375
1690.0 418 458 486 583 687 827 935 1075 1254 1531
1730.0 1935 2491 3414 4750 7004 9003 10000 8704 6397 4430
1770.0 3185 2318 1848 1472 1264 1054 918 796 672 560
1810.0 449 382 300 284 221 198 171 160 147 138
1850.0 142 123 135 125 137 129 132 124 109 102
1890.0 103 100 70 84 53 60 71 72 91 80
1930.0 109 103 125 129 156 136 152 145 126 96
1970.0 69 71 56 61 59 68 59 66 54 51
2010.0 58 47 66 47 67 62 67 73 75 78
2050.0 83 76 54 65 31 67 72 88 100 104
2090.0 91 65 55 33 35 24 25 22 11 22
2130.0 20 33 31 45 20 29 21 30 32 22
2170.0 37 17 27 27 23 22 30 18 18 23
2210.0 13 17 6 12 7 23 2 9 9 14
2250.0 31 8 40 23 26 24 31 44 45 54
2290.0 57 66 61 59 60 74 70 44 40 18
2330.0 45 14 52 44 140 58 0 7 52 114
2370.0 177 203 179 166 116 73 51 46 44 43
2410.0 54 50 57 52 53 44 43 59 55 64
2450.0 44 54 51 52 51 64 69 56 57 63
2490.0 63 56 67 55 69 69 46 55 43 62
2530.0 55 62 63 59 65 60 63 50 71 71
2570.0 86 63 85 76 73 79 65 66 57 59
2610.0 49 47 47 59 55 67 93 72 49 36
2650.0 48 80 105 115 131 159 143 129 124 141
2690.0 134 128 130 147 139 152 174 175 201 215
2730.0 249 271 274 292 281 266 256 250 230 251
2770.0 236 242 229 247 259 276 292 292 316 323
2810.0 330 365 396 437 484 548 631 749 864 1043
2850.0 1283 1561 1868 2153 2329 2402 2394 2335 2348 2372
2890.0 2482 2575 2719 2860 3097 3407 3781 4239 4604 4893
2930.0 4942 4841 4670 4366 4032 3655 3434 3381 3482 3595
2970.0 3706 3659 3476 3154 2876 2638 2366 2121 1840 1631
3010.0 1491 1397 1382 1406 1534 1691 1898 2044 2003 1723
3050.0 1423 1228 1182 1207 1350 1599 1702 1561 1244 1039
3090.0 963 892 775 659 560 475 436 351 308 232
3130.0 196 152 150 123 121 129 138 114 113 95
3170.0 95 87 117 88 92 71 68 65 67 82
3210.0 58 78 78 61 36 55 47 35 47 65
3250.0 29 33 40 51 66 45 42 17 71 68
3290.0 54 62 28 28 45 32 46 64 51 10
3330.0 75 44 65 83 60 94 77 62 78 66
3370.0 95 49 51 86 64 75 80 50 72 81
3410.0 65 84 88 51 57 50 66 55 53 69
3450.0 62 81 77 108 68 84 97 108 100 110
3490.0 107 86 81 39 58 50 57 33 63 77
3530.0 39 55 36 17 94 82 71 60 12 100
3570.0 128 104 131 163 178 135 72 65 47 37
3610.0 77 91 7 61 43 42 91 46 48 110
3650.0 47 88 138 84 42 10 92 53 95 71
3690.0 79 82 89 86 82 47 84 88 57 96
3730.0 88 20 75 94 63 119 132 113 120 25
3770.0 71 67 35 44 91 67 153 58 5 61
3810.0 140 108 103 79 84 33 24 80 60 57
3850.0 48 121 130 192 116 5 153 110 118 117
3890.0 155 83 84 163 100 84 21 57 156 195
3930.0 106 39 54 87 154 149 73 80 45 91
##END=
