##TITLE=Acetic acid, phenyl-, isopentyl ester
##JCAMP-DX=4.24
##DATA TYPE=INFRARED SPECTRUM
##ORIGIN=Sadtler Research Labs Under US-EPA Contract
##OWNER=NIST Standard Reference Data Program
##CAS REGISTRY NO=102-19-2
##MOLFORM=C 13 H 18 O 2
##XUNITS=1/CM
##YUNITS=ABSORBANCE
##XFACTOR=1.0
##YFACTOR=0.000047003
##DELTAX=4.0
##FIRSTX=450.0
##LASTX=3966.0
##FIRSTY=0.029189
##MAXX=3966
##MINX=450
##MAXY=0.47003
##MINY=0
##NPOINTS=880
##XYDATA=(X++(Y..Y))
450.0 621 234 158 80 156 225 242 165 143 105
490.0 71 56 69 0 13 55 107 117 135 184
530.0 152 274 199 179 83 119 91 177 62 100
570.0 106 118 139 115 130 120 134 98 105 121
610.0 120 140 151 192 231 279 312 312 258 235
650.0 184 171 147 140 146 191 319 332 462 687
690.0 1162 1544 1778 1756 1848 1915 2029 1925 1645 1298
730.0 955 727 577 512 484 382 274 370 273 203
770.0 159 119 90 58 68 62 83 61 88 129
810.0 101 138 117 121 85 87 77 81 87 72
850.0 92 97 99 87 88 90 89 115 126 137
890.0 137 157 156 187 187 235 251 255 249 235
930.0 242 237 263 283 322 329 383 410 511 679
970.0 893 1115 1195 1210 1183 1223 1275 1391 1513 1487
1010.0 1289 988 853 796 857 915 959 947 986 1158
1050.0 1275 1253 1117 964 852 796 731 653 578 537
1090.0 565 627 725 840 999 1201 1460 1818 2300 2990
1130.0 3904 4977 5882 6472 6499 6175 5680 5022 4324 3612
1170.0 3010 2539 2197 1928 1721 1588 1553 1512 1536 1646
1210.0 1851 2119 2377 2717 3139 3731 4410 5071 5633 5919
1250.0 6037 5732 5195 4407 3709 3136 2771 2539 2395 2303
1290.0 2205 2098 1951 1826 1735 1695 1652 1624 1587 1561
1330.0 1545 1540 1564 1534 1458 1295 1097 948 879 874
1370.0 908 970 971 985 1009 1010 901 701 503 382
1410.0 312 325 352 417 481 616 729 764 788 769
1450.0 899 997 1195 1269 1280 1274 1166 977 763 657
1490.0 681 935 1145 1071 745 306 185 134 126 106
1530.0 91 87 97 100 83 69 88 92 99 65
1570.0 91 66 111 112 129 184 226 316 372 468
1610.0 427 326 217 133 117 65 108 82 86 58
1650.0 147 81 125 90 124 120 139 144 156 194
1690.0 179 261 259 409 464 542 609 749 882 960
1730.0 1337 1658 2510 3599 6230 8051 10000 9654 7968 5462
1770.0 3878 2581 1884 1423 1139 927 788 691 522 439
1810.0 319 289 187 196 145 144 99 105 106 90
1850.0 106 79 98 81 120 96 97 95 90 84
1890.0 69 77 53 55 45 59 41 57 72 70
1930.0 83 100 129 124 141 124 137 119 112 75
1970.0 48 48 30 34 26 41 27 33 28 42
2010.0 38 39 43 36 41 37 46 32 43 42
2050.0 48 39 39 45 33 43 38 39 27 33
2090.0 28 23 25 22 25 21 22 17 18 10
2130.0 12 13 14 10 14 13 8 13 5 14
2170.0 6 9 2 3 6 1 8 2 14 9
2210.0 14 11 13 5 11 16 5 13 9 18
2250.0 11 20 19 22 24 24 20 17 23 18
2290.0 18 16 16 7 13 10 1 7 5 2
2330.0 0 10 8 12 6 3 0 3 25 11
2370.0 24 23 32 24 34 29 39 32 30 29
2410.0 33 33 36 33 32 29 23 26 27 23
2450.0 27 20 27 14 23 16 21 28 30 26
2490.0 32 31 32 38 35 40 34 40 33 36
2530.0 31 31 31 26 40 36 31 28 29 28
2570.0 21 29 29 35 36 46 40 48 49 48
2610.0 52 53 58 48 53 50 59 56 58 46
2650.0 56 52 58 60 58 55 53 58 57 66
2690.0 64 69 70 74 83 82 85 92 104 113
2730.0 133 130 130 126 124 120 112 112 103 109
2770.0 115 115 116 116 124 120 129 136 145 146
2810.0 155 170 192 208 228 254 273 317 372 443
2850.0 516 576 605 660 791 1015 1349 1728 1998 2056
2890.0 1961 1849 1778 1822 1968 2188 2426 2571 2651 2766
2930.0 2978 3163 3336 3405 3408 3412 3647 4348 5465 6662
2970.0 7054 6176 4536 3166 2302 1744 1333 1011 787 638
3010.0 551 510 494 543 647 852 1129 1389 1460 1270
3050.0 964 727 650 693 857 1146 1344 1298 1028 808
3090.0 724 671 600 515 426 360 310 283 221 168
3130.0 134 114 93 90 85 79 84 88 93 89
3170.0 99 99 90 88 85 84 75 69 58 59
3210.0 56 59 53 38 38 28 37 37 30 33
3250.0 34 29 28 31 26 24 28 31 19 20
3290.0 19 29 28 32 24 25 34 24 24 31
3330.0 18 35 27 42 33 40 41 34 21 32
3370.0 30 23 37 30 33 35 46 33 33 39
3410.0 33 27 30 28 23 36 33 24 28 27
3450.0 25 39 33 30 32 39 54 61 83 79
3490.0 85 69 67 49 51 18 36 13 13 16
3530.0 8 22 0 20 18 10 22 34 36 38
3570.0 83 136 149 138 125 84 87 40 47 22
3610.0 5 21 25 25 10 14 56 33 29 34
3650.0 47 76 59 93 55 91 56 75 79 47
3690.0 48 38 29 53 57 74 50 52 32 32
3730.0 53 31 51 20 70 37 35 60 64 43
3770.0 49 52 43 41 46 67 49 69 29 63
3810.0 63 36 56 50 83 37 62 41 67 48
3850.0 45 35 36 47 56 49 69 63 25 53
3890.0 68 55 66 27 29 46 47 37 49 56
3930.0 60 34 42 35 31 37 47 46 50 54
##END=
