##TITLE=Triacetin
##JCAMP-DX=4.24
##DATA TYPE=INFRARED SPECTRUM
##ORIGIN=Sadtler Research Labs Under US-EPA Contract
##OWNER=NIST Standard Reference Data Program
##CAS REGISTRY NO=102-76-1
##MOLFORM=C 9 H 14 O 6
##XUNITS=1/CM
##YUNITS=ABSORBANCE
##XFACTOR=1.0
##YFACTOR=0.000053714
##DELTAX=4.0
##FIRSTX=450.0
##LASTX=3966.0
##FIRSTY=0.010689
##MAXX=3966
##MINX=450
##MAXY=0.53714
##MINY=0
##NPOINTS=880
##XYDATA=(X++(Y..Y))
450.0 199 247 178 151 114 98 103 93 107 95
490.0 83 98 88 86 101 82 93 41 86 72
530.0 64 72 70 56 48 60 58 54 50 132
570.0 61 74 99 102 122 131 157 227 258 258
610.0 219 179 142 144 187 144 162 155 151 157
650.0 111 88 84 63 43 54 54 55 52 41
690.0 45 55 34 24 24 25 17 16 9 8
730.0 17 16 27 19 6 15 0 23 13 36
770.0 23 10 16 18 76 17 19 44 56 93
810.0 89 117 114 78 124 155 164 165 195 189
850.0 214 224 236 185 185 192 183 192 191 183
890.0 182 173 162 144 132 118 108 109 114 126
930.0 135 163 191 229 248 285 323 328 325 306
970.0 276 257 248 253 261 282 329 379 452 533
1010.0 614 660 709 756 813 908 1030 1170 1332 1457
1050.0 1580 1605 1561 1472 1356 1256 1157 1035 935 846
1090.0 766 744 723 705 665 568 473 383 318 275
1130.0 240 228 225 218 218 219 227 228 238 255
1170.0 288 327 396 474 603 796 1106 1599 2457 3840
1210.0 5907 8334 10000 9717 7853 5663 4033 3109 2607 2262
1250.0 1949 1650 1405 1203 1060 938 834 739 655 586
1290.0 504 427 355 308 285 264 244 225 207 189
1330.0 182 181 187 197 227 274 366 519 764 1130
1370.0 1513 1703 1621 1329 1017 732 562 440 371 318
1410.0 278 237 212 197 205 227 233 260 276 295
1450.0 299 303 283 270 255 237 195 168 152 139
1490.0 119 113 102 100 89 94 93 85 81 75
1530.0 84 85 65 69 64 66 58 51 64 62
1570.0 50 57 60 51 54 51 52 49 55 42
1610.0 41 49 40 48 49 54 49 58 69 50
1650.0 64 59 60 66 67 66 55 70 70 77
1690.0 85 88 110 139 151 182 226 270 327 389
1730.0 449 497 602 734 925 1213 1775 2720 4138 5684
1770.0 6320 5399 3911 2571 1724 1227 914 716 560 466
1810.0 380 322 269 220 197 157 143 121 101 86
1850.0 71 63 62 54 51 41 51 50 43 42
1890.0 42 42 37 35 35 34 33 34 23 25
1930.0 25 24 21 20 24 26 26 25 25 16
1970.0 25 16 16 16 16 16 16 16 16 17
2010.0 16 25 24 35 34 34 34 34 34 34
2050.0 35 34 35 34 34 27 34 34 25 33
2090.0 33 34 34 30 30 34 35 24 27 26
2130.0 26 25 17 17 17 6 18 7 6 7
2170.0 0 7 0 8 6 7 9 8 17 6
2210.0 14 8 7 7 18 7 7 7 8 8
2250.0 8 7 7 7 7 7 7 6 9 9
2290.0 9 9 18 8 17 10 7 0 1 1
2330.0 0 0 0 0 11 1 0 0 0 3
2370.0 5 9 25 17 11 9 9 9 9 17
2410.0 19 10 16 13 8 19 18 12 19 19
2450.0 19 18 18 19 9 18 10 10 9 9
2490.0 20 8 12 18 11 19 11 10 19 13
2530.0 17 11 11 11 10 10 9 12 11 10
2570.0 11 3 9 10 1 13 12 12 19 19
2610.0 11 11 11 12 12 12 14 7 13 12
2650.0 12 12 12 13 10 3 11 3 12 13
2690.0 5 12 9 3 12 16 13 13 21 21
2730.0 22 22 14 20 24 23 23 23 22 22
2770.0 21 25 22 23 32 23 31 16 23 19
2810.0 24 30 20 23 23 23 24 23 23 32
2850.0 43 43 36 41 54 40 45 61 50 62
2890.0 70 70 80 89 90 92 99 87 93 99
2930.0 98 108 132 161 208 257 312 369 388 389
2970.0 353 319 287 248 223 210 192 192 164 143
3010.0 126 108 97 90 86 98 88 95 82 75
3050.0 82 64 64 74 66 63 64 61 61 47
3090.0 50 41 40 45 28 37 19 27 27 24
3130.0 26 12 25 26 17 22 19 10 9 10
3170.0 9 11 8 21 8 16 11 11 18 9
3210.0 20 10 10 11 11 18 11 11 11 11
3250.0 11 11 4 13 10 12 11 12 12 14
3290.0 10 11 12 12 11 16 13 12 13 13
3330.0 12 12 12 20 13 12 19 8 11 23
3370.0 14 13 13 12 13 12 11 6 9 15
3410.0 14 13 13 6 14 14 13 13 13 13
3450.0 13 22 14 14 20 12 18 23 14 23
3490.0 14 23 27 14 51 41 49 59 43 58
3530.0 43 26 42 15 32 17 15 15 16 14
3570.0 24 25 25 14 8 24 16 25 17 14
3610.0 16 16 16 24 21 18 15 16 16 0
3650.0 16 26 15 9 6 11 0 12 18 11
3690.0 8 0 10 17 9 8 1 17 12 14
3730.0 7 0 10 1 5 10 18 9 19 11
3770.0 19 19 16 21 10 16 8 14 20 12
3810.0 21 21 11 11 22 10 24 4 22 19
3850.0 0 1 6 13 22 21 22 0 4 12
3890.0 3 3 1 15 19 24 23 24 24 25
3930.0 14 15 17 24 21 16 16 16 6 6
##END=
