##TITLE=2-Propanone, 1,3-diphenyl-
##JCAMP-DX=4.24
##DATA TYPE=INFRARED SPECTRUM
##ORIGIN=Sadtler Research Labs Under US-EPA Contract
##OWNER=NIST Standard Reference Data Program
##CAS REGISTRY NO=102-04-5
##MOLFORM=C 15 H 14 O
##XUNITS=1/CM
##YUNITS=ABSORBANCE
##XFACTOR=1.0
##YFACTOR=0.000080585
##DELTAX=4.0
##FIRSTX=450.0
##LASTX=3966.0
##FIRSTY=0.048351
##MAXX=3966
##MINX=450
##MAXY=0.80585
##MINY=0
##NPOINTS=880
##XYDATA=(X++(Y..Y))
450.0 600 279 769 608 830 1294 1570 1859 1198 579
490.0 372 201 227 178 199 453 699 814 1334 1993
530.0 2733 2716 2196 1855 1671 1553 1089 633 458 488
570.0 312 201 252 70 161 264 259 328 371 262
610.0 170 176 321 202 192 354 478 616 640 699
650.0 719 711 791 937 1096 1306 1477 1681 2093 2972
690.0 4828 8335 10000 8892 6576 4671 3463 3127 3382 3896
730.0 3986 3513 3053 3424 4069 4363 3319 2034 1138 626
770.0 411 283 262 218 284 284 205 208 129 128
810.0 152 156 184 185 134 146 200 184 193 136
850.0 113 30 14 41 10 17 45 20 76 160
890.0 143 150 218 193 265 258 160 186 178 165
930.0 198 178 207 212 127 243 215 189 178 141
970.0 182 136 107 141 105 153 136 346 503 522
1010.0 333 294 419 558 1194 1809 1669 1172 1266 1663
1050.0 2182 2595 2561 2433 2254 2272 2414 2427 2489 2703
1090.0 2810 2722 2387 2114 1858 1687 1422 1149 964 828
1130.0 775 736 739 804 864 967 1060 1084 1088 1115
1170.0 1192 1293 1459 1652 1750 1699 1603 1540 1549 1654
1210.0 1788 1821 1823 1819 1858 1798 1691 1555 1367 1195
1250.0 1120 1070 1091 1092 1184 1241 1333 1393 1559 1703
1290.0 1816 1935 1979 1992 2026 2076 2187 2316 2473 2578
1330.0 2530 2393 2274 2042 1642 1298 965 798 691 612
1370.0 561 536 604 563 580 636 752 813 1070 1274
1410.0 1422 1516 1538 1681 1718 1742 1590 1396 1369 1472
1450.0 2570 3220 2186 1092 862 596 592 604 781 1318
1490.0 2755 5102 4905 2633 1463 652 371 407 279 322
1530.0 249 310 377 416 335 263 321 385 435 351
1570.0 458 551 680 1020 1041 1193 1587 1833 2185 1799
1610.0 1338 980 711 531 449 432 400 474 416 456
1650.0 641 559 673 591 744 875 940 1088 1270 1479
1690.0 1732 2102 2961 3962 5235 6689 7605 9333 9077 8710
1730.0 7938 6154 4928 3686 2731 2132 1566 1241 1013 838
1770.0 762 696 586 538 499 534 564 620 556 531
1810.0 430 332 276 222 222 180 137 130 115 185
1850.0 126 167 217 228 331 331 344 318 297 277
1890.0 269 215 192 160 137 128 127 145 159 196
1930.0 237 325 409 483 507 465 436 405 328 271
1970.0 190 133 115 100 89 74 54 29 26 29
2010.0 27 29 20 17 19 17 18 20 11 15
2050.0 8 14 13 10 21 14 20 27 20 22
2090.0 21 22 27 23 25 30 28 26 24 25
2130.0 22 29 26 27 23 24 29 26 21 32
2170.0 20 23 32 24 29 35 32 26 27 20
2210.0 28 29 24 20 18 21 20 19 28 26
2250.0 25 34 33 34 32 25 23 24 22 22
2290.0 17 6 16 7 12 18 31 45 45 47
2330.0 54 87 91 92 8 52 26 6 35 116
2370.0 133 104 95 66 54 48 31 40 30 30
2410.0 43 34 36 40 35 35 28 23 24 21
2450.0 19 20 18 21 21 18 19 27 18 26
2490.0 25 23 30 26 30 35 34 43 33 40
2530.0 37 29 30 34 29 30 34 30 35 35
2570.0 31 45 46 54 58 55 52 66 64 73
2610.0 75 66 68 68 70 72 67 62 64 42
2650.0 45 45 27 42 44 43 44 43 44 56
2690.0 49 51 56 50 61 58 53 63 61 59
2730.0 62 62 66 62 53 66 62 55 67 77
2770.0 78 104 112 124 134 139 150 158 164 181
2810.0 185 190 209 229 245 262 282 313 333 344
2850.0 371 385 412 446 476 524 585 661 759 875
2890.0 982 1111 1194 1266 1318 1377 1443 1503 1543 1569
2930.0 1527 1438 1322 1216 1146 1128 1150 1188 1229 1172
2970.0 1050 897 770 708 690 695 758 852 990 1150
3010.0 1302 1547 1951 2560 3363 4014 4150 3803 3253 2660
3050.0 2286 2226 2448 2834 3162 3338 3348 3094 2777 2462
3090.0 2132 1752 1412 1176 998 839 698 546 409 314
3130.0 246 197 183 157 135 150 133 136 149 133
3170.0 129 107 86 84 69 53 62 53 61 56
3210.0 37 45 42 35 48 45 43 46 34 37
3250.0 46 33 38 34 33 50 48 44 52 29
3290.0 32 50 34 35 44 34 49 38 38 49
3330.0 46 46 62 54 60 60 48 59 60 65
3370.0 62 67 77 96 93 111 131 138 153 157
3410.0 162 173 188 187 189 177 179 158 131 135
3450.0 109 97 90 77 69 72 43 54 58 41
3490.0 54 49 41 40 47 40 53 41 46 51
3530.0 48 36 42 32 47 34 45 16 71 38
3570.0 63 50 64 55 72 43 75 33 49 35
3610.0 61 84 44 86 71 114 63 66 46 129
3650.0 113 160 43 71 31 80 125 61 75 33
3690.0 101 20 22 50 31 48 57 6 59 0
3730.0 25 57 8 65 64 150 1 65 6 9
3770.0 6 6 6 10 6 6 6 38 18 63
3810.0 6 89 13 101 22 25 55 42 10 70
3850.0 84 117 79 36 106 101 34 48 61 65
3890.0 68 39 41 59 63 52 59 27 39 56
3930.0 10 80 40 9 71 2 12 10 2 106
##END=
