##TITLE=Benzene, 1,2-dichloro-4-(chloromethyl)-
##JCAMP-DX=4.24
##DATA TYPE=INFRARED SPECTRUM
##ORIGIN=Sadtler Research Labs Under US-EPA Contract
##OWNER=NIST Standard Reference Data Program
##CAS REGISTRY NO=102-47-6
##MOLFORM=C 7 H 5 Cl 3
##XUNITS=1/CM
##YUNITS=ABSORBANCE
##XFACTOR=1.0
##YFACTOR=0.000096216
##DELTAX=4.0
##FIRSTX=450.0
##LASTX=3966.0
##FIRSTY=0.098140
##MAXX=3966
##MINX=450
##MAXY=0.96216
##MINY=0
##NPOINTS=880
##XYDATA=(X++(Y..Y))
450.0 1020 994 1124 1112 946 749 496 264 205 167
490.0 115 5 65 83 1 85 78 48 59 92
530.0 143 115 218 341 398 509 772 880 897 865
570.0 510 218 135 122 67 20 56 72 23 36
610.0 50 8 6 55 69 100 155 253 332 614
650.0 1047 1205 1083 777 581 657 918 1414 1837 2088
690.0 2285 2428 2515 2475 2270 1876 1915 2434 3300 4392
730.0 5385 5527 4878 4060 3281 2522 1879 1448 1242 1068
770.0 953 879 800 713 701 683 665 836 1155 1582
810.0 2108 2544 2436 1998 1388 915 523 372 350 329
850.0 323 395 539 766 1125 1703 2306 2771 2974 2630
890.0 2095 1593 1274 1092 1036 1098 1150 1157 1102 996
930.0 776 553 436 342 263 210 163 100 72 75
970.0 57 44 67 77 56 65 102 101 94 135
1010.0 197 317 604 1156 2082 3682 5308 5253 4351 2263
1050.0 1030 536 331 245 173 132 134 145 151 176
1090.0 222 275 347 447 535 606 761 1062 1541 2460
1130.0 4108 5752 6008 5051 3393 2508 1942 1318 762 559
1170.0 569 637 641 668 759 902 1106 1430 1773 2108
1210.0 2318 2135 1668 1092 737 652 682 814 1010 1255
1250.0 1604 2032 2379 2684 3300 4291 4943 4653 3492 2336
1290.0 1652 1256 929 635 446 336 258 196 186 168
1330.0 150 158 155 165 219 271 302 337 427 576
1370.0 801 1122 1607 2126 2694 3343 3610 3367 2804 1956
1410.0 1151 743 551 562 608 710 778 881 1069 1304
1450.0 1495 1642 1966 2900 4816 7808 10000 8871 5793 2373
1490.0 942 586 481 474 438 298 282 199 112 113
1530.0 101 125 134 169 271 460 712 961 1121 1170
1570.0 1040 804 605 541 583 657 762 765 680 501
1610.0 331 242 149 161 147 169 165 151 161 138
1650.0 74 73 43 55 60 61 33 69 57 29
1690.0 56 88 33 22 62 133 201 344 485 505
1730.0 421 241 165 151 159 200 251 299 335 314
1770.0 264 218 218 177 165 162 128 104 86 105
1810.0 81 80 99 86 63 54 43 37 22 10
1850.0 17 16 28 29 21 23 62 91 133 196
1890.0 250 264 263 223 153 100 73 50 24 35
1930.0 36 26 25 19 8 9 18 19 8 7
1970.0 16 8 5 19 19 3 7 13 7 2
2010.0 15 7 3 16 23 7 22 26 15 12
2050.0 22 25 19 28 37 37 36 46 40 35
2090.0 35 43 34 27 31 22 17 28 41 28
2130.0 33 43 33 17 29 33 28 27 26 18
2170.0 7 11 11 11 10 16 10 1 10 10
2210.0 1 6 12 5 6 14 16 5 16 26
2250.0 11 17 24 25 21 35 38 38 46 64
2290.0 61 64 77 88 79 80 87 77 77 88
2330.0 93 65 84 97 76 93 96 77 52 52
2370.0 46 45 48 68 58 53 57 59 42 37
2410.0 42 36 23 29 30 25 25 28 18 17
2450.0 27 23 12 23 32 22 25 38 30 25
2490.0 32 34 23 33 43 34 34 59 55 54
2530.0 67 80 74 73 85 81 71 55 49 34
2570.0 24 33 33 24 33 40 34 33 45 41
2610.0 35 48 50 39 40 49 42 34 41 49
2650.0 33 43 48 38 35 39 45 34 36 45
2690.0 34 39 56 67 81 104 131 127 131 132
2730.0 110 90 86 78 67 58 63 53 42 47
2770.0 51 41 55 70 61 76 81 82 67 73
2810.0 82 82 89 120 119 102 97 91 80 86
2850.0 110 115 113 134 148 145 174 204 219 220
2890.0 230 182 136 115 100 78 67 79 81 84
2930.0 119 171 219 301 386 428 478 585 764 955
2970.0 1116 1137 964 743 577 473 400 386 418 422
3010.0 413 405 352 293 275 287 287 316 351 338
3050.0 306 341 389 462 513 543 463 363 307 265
3090.0 243 230 223 172 113 82 64 35 43 49
3130.0 32 23 30 32 21 31 51 27 30 50
3170.0 40 14 24 38 10 17 40 29 19 38
3210.0 41 22 15 41 24 11 30 40 16 27
3250.0 42 23 23 31 37 0 41 50 13 12
3290.0 44 35 5 32 30 11 11 50 42 0
3330.0 21 39 9 15 33 18 3 35 48 5
3370.0 25 45 16 20 46 42 8 36 49 18
3410.0 15 61 27 11 28 50 10 24 45 11
3450.0 6 32 40 9 12 47 7 18 41 49
3490.0 13 26 56 15 10 51 49 26 24 29
3530.0 12 30 42 59 5 35 61 27 31 50
3570.0 43 22 66 56 45 51 68 39 33 41
3610.0 48 31 48 51 36 43 63 54 32 47
3650.0 74 32 32 58 33 18 54 44 28 47
3690.0 76 49 44 64 58 62 62 102 73 82
3730.0 111 99 70 76 131 106 80 110 108 95
3770.0 117 108 84 88 111 101 76 91 89 78
3810.0 81 85 78 61 79 80 53 61 71 68
3850.0 67 81 91 76 86 103 77 83 104 101
3890.0 91 105 98 98 81 100 100 98 97 97
3930.0 92 85 93 83 73 81 83 67 70 77
##END=
