##TITLE=Diethyl isobutylmalonate
##JCAMP-DX=4.24
##DATA TYPE=INFRARED SPECTRUM
##ORIGIN=Sadtler Research Labs Under US-EPA Contract
##OWNER=NIST Standard Reference Data Program
##CAS REGISTRY NO=10203-58-4
##MOLFORM=C 11 H 20 O 4
##XUNITS=1/CM
##YUNITS=ABSORBANCE
##XFACTOR=1.0
##YFACTOR=0.000097168
##DELTAX=4.0
##FIRSTX=450.0
##LASTX=3966.0
##FIRSTY=0.000000
##MAXX=3966
##MINX=450
##MAXY=0.97168
##MINY=0
##NPOINTS=880
##XYDATA=(X++(Y..Y))
450.0 0 103 115 120 88 34 58 47 49 50
490.0 28 47 38 56 48 52 84 101 99 108
530.0 95 86 74 66 57 56 52 46 46 72
570.0 68 61 65 79 79 106 116 120 135 129
610.0 113 119 119 102 93 84 74 61 58 60
650.0 60 67 72 68 69 106 96 114 121 127
690.0 140 137 121 123 99 82 70 62 68 67
730.0 62 54 55 48 45 53 57 48 66 73
770.0 79 89 106 124 134 131 133 128 120 117
810.0 115 114 116 112 122 128 142 158 179 239
850.0 328 416 466 465 443 413 366 280 196 125
890.0 91 78 77 70 72 78 89 118 161 209
930.0 275 325 339 322 284 259 253 257 260 246
970.0 230 210 191 180 177 183 205 249 322 439
1010.0 613 853 1128 1395 1663 1972 2306 2509 2474 2243
1050.0 1987 1814 1728 1644 1518 1330 1137 1002 957 1021
1090.0 1193 1468 1775 2033 2220 2445 2794 3256 3657 3839
1130.0 3841 3890 4159 4602 5028 5237 5188 4999 4842 4813
1170.0 4865 4939 4964 4912 4791 4629 4441 4200 3932 3704
1210.0 3599 3613 3656 3693 3768 3960 4296 4664 4883 4834
1250.0 4581 4279 4078 3992 3953 3897 3767 3533 3221 2860
1290.0 2494 2188 2012 1955 1961 2012 2172 2430 2661 2648
1330.0 2354 1940 1556 1340 1227 1095 937 809 884 1341
1370.0 1906 2150 1822 1329 1053 999 943 798 662 559
1410.0 483 449 371 384 375 409 431 534 661 773
1450.0 847 881 894 1007 1165 1309 1283 1096 836 566
1490.0 380 297 218 178 127 87 98 82 55 79
1530.0 69 78 58 34 44 70 63 32 49 67
1570.0 62 62 67 62 76 68 73 64 72 67
1610.0 66 71 54 74 56 86 66 68 85 85
1650.0 61 75 105 117 122 127 119 166 144 162
1690.0 207 245 252 320 410 531 626 712 888 1123
1730.0 1485 2106 3262 5106 7522 9700 10000 8621 7425 6983
1770.0 6462 4901 3213 1998 1358 1000 769 619 506 445
1810.0 381 327 290 245 207 174 160 150 123 101
1850.0 104 107 97 94 82 73 89 95 95 97
1890.0 94 94 98 98 93 89 81 77 68 70
1930.0 69 65 62 55 54 61 60 60 62 62
1970.0 64 67 68 70 68 62 65 67 70 67
2010.0 68 63 63 62 66 62 68 65 63 62
2050.0 64 63 62 60 57 62 62 63 63 61
2090.0 62 60 61 58 54 53 51 49 49 50
2130.0 47 45 44 44 45 44 43 39 41 38
2170.0 36 34 35 32 29 29 31 31 29 29
2210.0 32 31 31 33 33 32 32 32 33 34
2250.0 37 36 38 37 38 39 40 39 40 42
2290.0 43 46 52 53 55 55 60 58 65 63
2330.0 65 63 67 68 77 69 70 62 72 59
2370.0 62 68 69 62 53 46 48 46 45 49
2410.0 52 50 50 49 50 50 48 49 44 45
2450.0 44 42 46 43 44 44 44 44 44 44
2490.0 44 41 42 41 39 37 38 41 37 38
2530.0 38 37 41 41 38 40 41 39 40 41
2570.0 41 41 46 50 47 45 47 50 53 52
2610.0 52 52 53 59 56 55 55 51 53 50
2650.0 53 52 54 53 53 53 58 57 57 55
2690.0 56 55 62 62 64 66 69 73 77 88
2730.0 104 109 109 105 101 97 96 93 99 105
2770.0 111 121 122 119 119 118 117 119 125 129
2810.0 137 155 168 182 197 206 212 218 230 246
2850.0 273 311 361 430 527 678 958 1329 1612 1591
2890.0 1398 1226 1165 1203 1314 1443 1549 1588 1599 1658
2930.0 1790 2029 2361 2668 2800 2720 2665 2991 3972 5252
2970.0 5768 4926 3771 3367 3486 3374 2824 2207 1796 1495
3010.0 1208 958 744 588 474 390 332 292 255 225
3050.0 201 187 175 160 156 147 139 135 129 125
3090.0 119 113 116 113 110 110 105 106 105 108
3130.0 109 102 103 105 105 105 104 106 108 106
3170.0 108 108 106 103 103 102 98 98 89 87
3210.0 88 84 77 73 67 63 62 64 60 64
3250.0 60 55 50 54 55 52 59 50 56 51
3290.0 52 50 51 56 53 51 52 54 57 53
3330.0 59 61 59 61 57 57 61 60 63 58
3370.0 58 63 65 59 68 67 61 57 59 54
3410.0 54 57 50 57 53 52 53 49 46 50
3450.0 51 50 50 56 66 62 63 69 75 85
3490.0 98 106 88 96 77 61 58 49 45 39
3530.0 29 39 32 29 34 34 35 39 43 48
3570.0 69 75 74 70 61 47 44 45 41 41
3610.0 51 47 45 50 45 59 47 55 53 56
3650.0 46 54 57 50 50 58 60 50 40 48
3690.0 64 60 55 55 54 48 61 56 37 53
3730.0 65 53 55 57 63 52 60 43 59 56
3770.0 58 58 55 58 51 51 56 42 63 60
3810.0 55 65 53 55 57 57 62 67 70 63
3850.0 61 56 53 57 58 56 40 38 60 49
3890.0 53 52 44 56 51 55 62 59 43 60
3930.0 58 41 42 39 50 47 52 56 42 62
##END=
