##TITLE=2-Butenedioic acid (Z)-, bis(2-methoxyethyl) ester
##JCAMP-DX=4.24
##DATA TYPE=INFRARED SPECTRUM
##ORIGIN=Sadtler Research Labs Under US-EPA Contract
##OWNER=NIST Standard Reference Data Program
##CAS REGISTRY NO=10232-93-6
##MOLFORM=C 10 H 16 O 6
##XUNITS=1/CM
##YUNITS=ABSORBANCE
##XFACTOR=1.0
##YFACTOR=0.000090283
##DELTAX=4.0
##FIRSTX=450.0
##LASTX=3966.0
##FIRSTY=0.016251
##MAXX=3966
##MINX=450
##MAXY=0.90283
##MINY=0
##NPOINTS=880
##XYDATA=(X++(Y..Y))
450.0 180 170 178 145 169 141 110 87 67 76
490.0 10 42 95 76 204 194 232 311 232 317
530.0 267 239 226 141 163 139 70 93 19 50
570.0 61 9 132 72 110 155 100 190 189 242
610.0 251 167 249 147 115 165 68 106 78 80
650.0 112 68 104 139 110 281 178 208 228 213
690.0 284 178 200 200 151 238 158 129 157 124
730.0 207 173 186 233 157 212 184 169 212 151
770.0 163 196 184 249 256 329 428 477 604 665
810.0 720 786 746 781 784 791 875 913 1009 951
850.0 967 1035 1034 1087 1083 1064 1054 941 931 880
890.0 831 837 767 752 689 654 650 596 630 645
930.0 641 702 709 711 786 801 908 948 1024 1059
970.0 989 940 856 820 848 865 961 1043 1129 1269
1010.0 1366 1491 1570 1637 1822 2037 2368 2672 2871 2855
1050.0 2579 2236 1935 1684 1586 1474 1480 1504 1510 1600
1090.0 1723 1889 2120 2274 2463 2639 2950 3490 4207 5291
1130.0 6436 7481 8026 7625 7193 6769 6983 7802 8324 8401
1170.0 7637 6505 5791 5282 5307 5598 6123 6809 7142 7256
1210.0 6928 6222 5647 4997 4514 4156 3825 3731 3646 3572
1250.0 3559 3485 3429 3346 3266 3365 3436 3637 3844 3935
1290.0 3899 3521 2987 2407 1823 1421 1120 930 821 737
1330.0 737 719 699 702 678 718 807 964 1093 1081
1370.0 994 942 970 1178 1408 1695 1902 2038 2192 2223
1410.0 2018 1630 1176 895 744 700 729 764 873 936
1450.0 1014 1127 1149 1168 1076 944 825 685 586 506
1490.0 421 390 331 307 293 242 249 221 195 199
1530.0 173 178 171 150 183 165 178 173 167 183
1570.0 163 183 166 175 187 181 188 203 205 240
1610.0 253 290 322 381 483 591 729 868 926 924
1650.0 826 695 599 457 414 372 344 352 356 377
1690.0 419 438 505 563 674 789 873 1063 1245 1566
1730.0 2094 2897 4270 6194 8265 9923 10000 8981 6982 4978
1770.0 3475 2389 1827 1512 1431 1444 1493 1385 1325 1257
1810.0 1175 1099 742 405 281 266 228 247 249 227
1850.0 226 188 186 198 174 168 151 145 154 129
1890.0 135 145 127 143 132 149 161 145 167 142
1930.0 130 135 115 129 120 107 123 116 131 127
1970.0 144 165 142 159 151 126 159 140 145 123
2010.0 117 130 129 151 140 130 152 113 145 156
2050.0 128 140 139 128 145 122 133 106 106 122
2090.0 107 135 120 110 121 97 129 122 118 130
2130.0 94 104 95 72 97 80 66 89 71 80
2170.0 80 79 75 58 62 84 68 71 42 69
2210.0 64 53 63 45 41 51 32 71 48 43
2250.0 54 63 70 67 53 58 56 63 56 52
2290.0 52 53 64 56 53 91 77 103 104 86
2330.0 129 93 102 121 87 111 113 99 113 32
2370.0 32 30 32 46 51 64 72 69 70 41
2410.0 60 68 59 53 30 31 36 28 29 23
2450.0 33 35 17 44 32 30 32 32 55 18
2490.0 4 34 1 17 13 0 27 28 34 34
2530.0 22 45 42 45 26 29 45 29 25 42
2570.0 20 38 26 31 42 30 55 60 58 71
2610.0 58 75 70 54 75 46 58 58 38 60
2650.0 43 55 61 50 69 58 64 80 59 90
2690.0 69 77 89 76 96 101 113 146 139 160
2730.0 173 186 220 187 206 198 183 218 190 207
2770.0 230 227 258 261 290 335 359 456 532 626
2810.0 776 929 1193 1438 1653 1791 1735 1674 1604 1551
2850.0 1572 1567 1634 1697 1698 1775 1853 2023 2225 2404
2890.0 2538 2501 2441 2383 2267 2216 2096 2029 2069 2113
2930.0 2261 2327 2306 2291 2189 2217 2255 2262 2290 2099
2970.0 1930 1794 1688 1660 1676 1785 1906 1834 1646 1297
3010.0 971 744 570 486 395 339 324 265 267 238
3050.0 203 232 209 220 240 200 216 178 176 162
3090.0 149 165 144 141 149 120 133 93 94 95
3130.0 85 97 86 74 77 75 92 77 71 82
3170.0 77 80 77 77 93 52 55 50 54 71
3210.0 44 59 66 48 95 64 77 83 53 85
3250.0 54 55 66 15 36 38 0 55 23 43
3290.0 53 35 77 77 79 86 59 84 77 59
3330.0 70 14 40 28 21 66 35 77 74 54
3370.0 97 75 80 97 42 80 56 65 44 51
3410.0 66 40 66 69 75 106 81 109 103 80
3450.0 113 81 84 105 60 84 93 80 130 107
3490.0 113 149 106 150 98 117 118 103 115 92
3530.0 65 79 55 84 56 52 68 53 65 89
3570.0 78 100 80 89 97 91 94 96 109 127
3610.0 86 116 104 123 142 115 152 169 151 193
3650.0 171 178 142 133 149 112 128 109 89 103
3690.0 79 83 91 56 88 89 126 134 122 131
3730.0 120 115 115 105 104 96 69 93 72 90
3770.0 87 97 116 113 125 136 136 159 148 149
3810.0 144 110 121 96 87 81 77 107 100 117
3850.0 141 123 147 139 130 148 125 133 116 94
3890.0 85 60 79 88 100 122 125 150 187 176
3930.0 198 191 187 176 149 153 20 29 30 30
##END=
