##TITLE=Acetic acid, (6-acetyl-4-chloro-m-tolyloxy)-,  ethyl ester
##JCAMP-DX=4.24
##DATA TYPE=INFRARED SPECTRUM
##ORIGIN=Sadtler Research Labs Under US-EPA Contract
##OWNER=NIST Standard Reference Data Program
##CAS REGISTRY NO=1026-32-0
##MOLFORM=C 13 H 15 Cl O 4
##XUNITS=1/CM
##YUNITS=ABSORBANCE
##XFACTOR=1.0
##YFACTOR=0.000084201
##DELTAX=4.0
##FIRSTX=450.0
##LASTX=3966.0
##FIRSTY=0.011704
##MAXX=3966
##MINX=450
##MAXY=0.84201
##MINY=0
##NPOINTS=880
##XYDATA=(X++(Y..Y))
450.0 139 82 45 20 30 45 31 38 28 51
490.0 3 30 19 39 28 17 22 36 22 50
530.0 51 82 143 190 229 311 435 519 464 401
570.0 332 275 236 210 230 236 308 380 540 811
610.0 1063 1197 1054 851 666 543 462 386 332 304
650.0 269 217 171 145 147 114 125 130 151 138
690.0 145 165 183 185 212 275 458 691 805 698
730.0 516 432 377 356 343 329 317 319 316 315
770.0 337 341 348 336 335 298 273 253 238 224
810.0 211 208 197 191 206 252 338 441 517 596
850.0 647 668 625 520 422 346 318 336 377 411
890.0 478 540 603 645 609 539 476 450 447 459
930.0 471 476 481 470 455 450 437 394 368 366
970.0 406 470 570 656 681 661 649 679 760 896
1010.0 1049 1234 1492 1797 2123 2397 2591 2670 2594 2422
1050.0 2277 2231 2292 2442 2684 2999 3371 3760 3948 3756
1090.0 3198 2636 2181 1803 1450 1172 972 845 765 747
1130.0 781 873 1026 1255 1594 2158 3186 4872 7157 9252
1170.0 10000 8883 6879 5354 4940 5486 6334 6821 6737 6732
1210.0 7266 8066 8097 7000 5530 4498 4027 3881 3914 3982
1250.0 4076 4135 4203 4276 4355 4424 4482 4531 4466 4210
1290.0 3749 3226 2736 2342 2035 1772 1528 1303 1112 976
1330.0 914 931 1035 1227 1466 1700 1972 2364 2805 3221
1370.0 3771 4724 5658 5698 4938 4491 4186 3304 2364 1800
1410.0 1485 1317 1258 1253 1272 1313 1372 1470 1615 1785
1450.0 1895 1830 1705 1678 1872 2329 2947 3553 3816 3655
1490.0 2903 2017 1328 921 729 605 529 483 480 464
1530.0 473 485 519 539 568 587 622 635 630 583
1570.0 537 501 524 594 748 1030 1426 1921 2227 2160
1610.0 1696 1170 821 623 522 438 408 379 403 445
1650.0 563 691 841 889 914 877 874 960 1129 1432
1690.0 1902 2767 4014 5124 5237 4381 3379 2662 2178 1930
1730.0 1847 1893 1989 2225 2806 3916 5426 6071 5275 4119
1770.0 3833 4236 4423 3844 2819 1926 1307 948 712 561
1810.0 451 384 319 280 236 197 163 141 124 108
1850.0 96 81 80 73 77 70 75 76 80 76
1890.0 75 73 63 57 49 44 33 33 30 18
1930.0 22 20 21 14 17 14 15 9 11 8
1970.0 10 8 9 10 11 13 12 11 12 12
2010.0 11 12 12 11 10 11 11 10 13 13
2050.0 12 16 19 21 21 22 20 23 20 24
2090.0 22 22 22 28 28 29 32 30 28 28
2130.0 25 21 19 14 13 15 15 12 11 10
2170.0 10 8 7 5 8 6 11 10 11 11
2210.0 9 6 8 6 6 6 6 8 7 7
2250.0 4 2 4 2 3 2 7 5 6 6
2290.0 9 8 13 18 14 6 7 2 14 6
2330.0 2 3 7 0 22 19 7 2 2 2
2370.0 2 3 15 20 18 12 12 11 17 16
2410.0 18 17 18 19 15 15 14 19 20 19
2450.0 18 15 14 15 14 13 14 10 7 8
2490.0 7 10 8 7 6 10 10 12 9 11
2530.0 18 20 19 18 21 25 27 22 24 20
2570.0 15 13 12 8 7 7 6 8 10 9
2610.0 7 11 12 11 9 11 16 16 17 17
2650.0 17 21 19 20 20 20 19 22 24 24
2690.0 21 19 20 22 24 26 32 34 31 34
2730.0 38 38 41 46 50 57 59 60 58 56
2770.0 59 62 64 64 62 65 66 73 78 79
2810.0 88 93 99 112 122 125 137 145 161 179
2850.0 204 229 267 315 376 433 466 479 491 501
2890.0 501 494 500 524 574 635 712 787 867 981
2930.0 1159 1396 1610 1719 1664 1495 1296 1166 1140 1195
2970.0 1281 1379 1502 1725 2035 2146 1913 1555 1315 1165
3010.0 1044 927 790 651 550 480 427 395 367 345
3050.0 323 302 293 293 310 326 329 303 253 208
3090.0 186 177 173 172 165 148 142 128 117 106
3130.0 102 96 92 82 76 80 74 67 69 65
3170.0 60 58 54 49 45 44 43 46 46 43
3210.0 41 40 39 42 38 36 38 35 33 34
3250.0 29 29 30 35 27 31 27 34 33 30
3290.0 25 28 25 27 27 28 28 29 22 23
3330.0 34 35 36 28 33 27 33 37 42 45
3370.0 50 53 64 75 77 78 65 60 52 42
3410.0 39 35 35 32 25 32 28 23 21 21
3450.0 14 18 20 20 20 26 24 21 25 35
3490.0 38 44 42 38 31 23 29 24 20 24
3530.0 32 40 25 25 24 16 15 12 6 17
3570.0 18 14 28 14 31 30 25 21 18 25
3610.0 20 15 20 18 25 22 22 12 16 12
3650.0 18 17 15 27 16 17 13 19 16 20
3690.0 17 13 27 12 21 19 24 16 18 14
3730.0 15 22 26 11 44 11 5 11 11 12
3770.0 14 15 7 22 18 9 4 6 2 25
3810.0 14 21 4 3 11 11 8 11 4 2
3850.0 11 12 6 14 5 5 2 23 7 18
3890.0 3 15 7 22 13 13 13 16 26 24
3930.0 17 14 30 22 27 35 33 27 24 25
##END=
