##TITLE=1,4-Benzenedicarboxylic acid, di-2-propenyl ester
##JCAMP-DX=4.24
##DATA TYPE=INFRARED SPECTRUM
##ORIGIN=Sadtler Research Labs Under US-EPA Contract
##OWNER=NIST Standard Reference Data Program
##CAS REGISTRY NO=1026-92-2
##MOLFORM=C 14 H 14 O 4
##XUNITS=1/CM
##YUNITS=ABSORBANCE
##XFACTOR=1.0
##YFACTOR=0.000188171
##DELTAX=4.0
##FIRSTX=450.0
##LASTX=3966.0
##FIRSTY=0.022581
##MAXX=3966
##MINX=450
##MAXY=1.88171
##MINY=0
##NPOINTS=880
##XYDATA=(X++(Y..Y))
450.0 120 59 29 64 67 85 68 81 90 97
490.0 87 23 227 138 138 72 74 89 75 69
530.0 60 73 64 63 65 41 57 17 54 15
570.0 38 45 46 40 42 30 24 16 1 7
610.0 28 29 25 34 50 67 74 78 70 70
650.0 64 63 45 52 47 65 57 45 57 43
690.0 62 58 62 67 78 101 139 226 400 656
730.0 961 1087 954 669 398 235 155 116 111 102
770.0 99 88 83 86 91 99 125 163 208 247
810.0 245 214 184 161 139 130 129 127 129 123
850.0 127 137 159 203 265 317 325 284 231 193
890.0 180 188 214 242 289 357 443 541 649 777
930.0 926 999 885 700 564 501 500 559 688 875
970.0 1085 1191 1107 909 758 696 685 620 525 466
1010.0 496 890 1867 1975 978 342 274 237 240 243
1050.0 265 290 328 396 494 652 868 1169 1530 2086
1090.0 2989 4325 5652 6039 5277 4227 3691 3351 2722 1942
1130.0 1328 928 688 541 454 399 366 349 331 326
1170.0 320 322 299 289 274 276 286 304 332 361
1210.0 411 482 608 835 1263 1984 3056 4131 4587 4310
1250.0 4282 5406 7749 10000 9862 7767 5286 3511 2359 1704
1290.0 1437 1358 1228 985 794 645 522 441 395 362
1330.0 339 318 304 299 315 355 445 602 753 759
1370.0 637 506 413 345 294 255 257 318 474 683
1410.0 763 606 416 324 286 275 280 300 322 353
1450.0 387 412 403 354 290 236 192 165 149 135
1490.0 128 132 150 195 246 255 208 160 133 125
1530.0 107 95 81 79 77 78 81 83 97 115
1570.0 147 182 199 155 107 85 79 77 80 84
1610.0 83 85 85 92 91 102 112 130 158 191
1650.0 203 192 171 155 148 144 141 147 156 168
1690.0 191 231 280 330 357 390 440 551 736 1106
1730.0 1797 3032 4914 6575 6691 4878 2999 1713 998 657
1770.0 476 374 309 269 235 208 189 176 169 163
1810.0 157 150 148 137 120 101 91 88 85 85
1850.0 88 86 87 94 98 97 92 86 78 72
1890.0 67 61 60 56 53 53 52 51 53 58
1930.0 65 70 75 77 79 74 67 58 51 47
1970.0 41 38 33 33 30 27 25 25 24 27
2010.0 30 33 35 39 40 42 46 46 48 46
2050.0 46 57 68 75 78 78 74 65 55 47
2090.0 41 39 36 33 29 27 24 21 17 17
2130.0 16 13 14 13 14 14 17 17 17 19
2170.0 19 20 21 21 21 21 25 24 21 23
2210.0 23 23 20 21 19 19 20 18 21 24
2250.0 23 24 24 23 24 24 26 25 24 20
2290.0 21 20 17 14 10 6 4 1 0 4
2330.0 8 16 21 28 43 19 0 1 20 44
2370.0 54 56 56 47 37 29 26 25 23 24
2410.0 21 23 21 24 23 27 25 29 30 31
2450.0 33 34 35 32 33 30 28 27 28 27
2490.0 27 27 26 26 28 27 27 30 31 36
2530.0 38 38 38 39 39 39 40 41 40 42
2570.0 40 40 37 37 37 32 31 30 25 24
2610.0 24 19 16 13 11 10 10 10 15 17
2650.0 21 12 6 4 6 9 16 27 33 36
2690.0 36 40 34 35 35 37 41 39 41 43
2730.0 39 41 43 46 46 50 49 51 50 50
2770.0 51 54 52 52 51 51 47 47 50 47
2810.0 52 53 55 58 62 65 68 67 69 82
2850.0 83 91 97 105 107 119 131 136 144 162
2890.0 177 188 194 183 168 155 156 152 165 177
2930.0 205 233 276 332 403 468 530 575 547 460
2970.0 363 300 274 259 250 259 262 263 252 232
3010.0 218 205 205 212 222 221 192 162 140 128
3050.0 125 122 126 137 140 152 165 176 195 220
3090.0 249 297 334 324 286 209 148 106 90 76
3130.0 69 62 64 58 56 52 56 54 42 51
3170.0 47 41 41 35 31 36 25 28 26 31
3210.0 28 24 20 30 27 25 33 33 34 25
3250.0 28 35 36 30 29 25 32 36 27 28
3290.0 19 15 20 21 13 17 16 23 27 27
3330.0 25 31 27 28 39 40 28 23 28 27
3370.0 28 32 25 23 24 19 17 14 6 4
3410.0 11 16 20 25 18 19 26 28 24 31
3450.0 42 52 51 64 68 71 61 58 45 29
3490.0 28 2 4 7 15 9 0 9 4 16
3530.0 15 25 19 25 17 14 30 19 21 23
3570.0 30 24 21 14 8 9 7 9 12 11
3610.0 10 9 8 13 9 16 13 24 23 20
3650.0 31 32 31 33 36 37 25 23 24 28
3690.0 25 31 28 32 30 28 31 35 20 35
3730.0 41 49 44 51 57 43 45 44 43 52
3770.0 53 46 32 49 43 37 33 42 36 34
3810.0 57 50 45 51 46 43 61 33 32 36
3850.0 49 44 58 47 59 72 79 67 44 54
3890.0 36 24 37 36 37 40 23 13 29 31
3930.0 34 55 48 43 56 70 50 52 85 75
##END=
