##TITLE=Butanoic acid, phenylmethyl ester
##JCAMP-DX=4.24
##DATA TYPE=INFRARED SPECTRUM
##ORIGIN=Sadtler Research Labs Under US-EPA Contract
##OWNER=NIST Standard Reference Data Program
##CAS REGISTRY NO=103-37-7
##MOLFORM=C 11 H 14 O 2
##XUNITS=1/CM
##YUNITS=ABSORBANCE
##XFACTOR=1.0
##YFACTOR=0.000072495
##DELTAX=4.0
##FIRSTX=450.0
##LASTX=3966.0
##FIRSTY=0.000000
##MAXX=3966
##MINX=450
##MAXY=0.72495
##MINY=0
##NPOINTS=880
##XYDATA=(X++(Y..Y))
450.0 0 170 269 227 294 307 283 391 323 323
490.0 518 585 612 569 460 426 306 267 262 273
530.0 197 196 140 115 183 197 222 237 248 328
570.0 329 478 515 481 343 410 447 423 404 413
610.0 395 382 365 360 374 290 240 263 239 195
650.0 287 211 243 271 268 503 531 724 868 1146
690.0 1482 1836 1941 1712 1479 1245 1161 1138 1155 1182
730.0 1254 1317 1489 1679 1783 1700 1405 1073 759 590
770.0 495 441 397 465 436 440 441 400 383 326
810.0 330 353 399 426 443 456 414 414 407 400
850.0 376 380 404 392 426 423 414 422 428 433
890.0 471 472 501 517 549 592 641 660 630 605
930.0 560 549 520 506 490 500 536 607 769 989
970.0 1315 1631 1933 2089 2111 2124 2056 1923 1743 1510
1010.0 1239 1009 875 860 945 1021 1082 1158 1287 1383
1050.0 1369 1261 1162 1143 1190 1309 1472 1714 2023 2395
1090.0 2722 2897 2880 2710 2460 2157 1829 1554 1391 1321
1130.0 1342 1422 1590 1837 2191 2720 3527 4817 6635 8662
1170.0 10000 9798 8413 6782 5777 5210 4819 4453 4105 3855
1210.0 3640 3353 2939 2571 2449 2505 2640 2802 3011 3244
1250.0 3441 3580 3569 3383 3083 2713 2342 2042 1878 1859
1290.0 1922 1992 2012 1906 1684 1428 1190 1040 958 918
1330.0 948 1051 1228 1439 1646 1786 1796 1665 1485 1287
1370.0 1184 1250 1408 1489 1429 1214 974 786 650 575
1410.0 528 525 572 606 668 744 825 864 911 988
1450.0 1149 1318 1446 1458 1366 1195 978 776 621 561
1490.0 569 658 797 781 662 453 324 291 277 253
1530.0 255 252 248 254 240 223 221 238 224 221
1570.0 223 232 236 252 256 262 273 278 285 304
1610.0 306 291 266 236 226 213 217 230 215 227
1650.0 232 244 236 232 238 246 257 242 276 291
1690.0 302 326 377 443 503 589 679 817 926 1105
1730.0 1358 1775 2405 3402 4972 6853 8672 9313 8589 6707
1770.0 4670 3113 2108 1492 1127 900 784 699 638 539
1810.0 455 388 333 302 279 258 242 226 230 230
1850.0 219 217 225 223 230 237 237 233 240 225
1890.0 218 206 196 184 176 178 176 184 194 202
1930.0 208 218 236 240 255 267 282 279 261 235
1970.0 202 178 168 165 165 161 161 161 162 161
2010.0 164 170 181 181 183 187 190 188 181 169
2050.0 163 159 161 171 180 184 175 164 155 146
2090.0 140 137 146 147 149 151 149 145 146 146
2130.0 147 141 144 145 135 133 135 134 134 136
2170.0 133 131 130 129 133 132 130 137 133 135
2210.0 127 129 126 129 136 134 134 134 135 145
2250.0 144 139 141 138 141 141 143 143 143 142
2290.0 139 139 132 125 118 115 120 114 112 112
2330.0 114 125 126 125 149 124 112 112 114 177
2370.0 213 208 197 180 166 146 142 140 142 138
2410.0 140 137 142 147 144 148 148 149 147 148
2450.0 144 149 146 150 147 145 145 143 146 153
2490.0 149 146 142 142 150 152 142 148 146 142
2530.0 144 143 149 147 140 139 144 150 139 145
2570.0 144 143 145 145 153 150 155 152 150 156
2610.0 151 142 151 141 136 135 137 143 155 161
2650.0 157 138 129 127 136 146 164 176 177 184
2690.0 182 164 174 164 169 171 172 176 165 165
2730.0 169 168 178 183 194 200 196 198 191 181
2770.0 184 180 180 183 197 203 208 202 217 216
2810.0 230 241 247 270 270 288 286 309 310 343
2850.0 355 366 375 435 493 575 739 938 1212 1419
2890.0 1478 1406 1259 1123 1038 1020 1044 1083 1151 1252
2930.0 1395 1598 1877 2222 2488 2613 2649 2686 2832 3023
2970.0 3268 3480 3512 3183 2645 2086 1588 1220 948 771
3010.0 672 606 611 650 758 912 1129 1366 1480 1433
3050.0 1244 1020 897 873 970 1240 1455 1421 1212 916
3090.0 791 723 669 617 564 485 447 410 359 301
3130.0 248 217 211 164 173 176 149 149 166 178
3170.0 173 177 175 170 148 155 170 170 159 149
3210.0 149 144 159 141 146 149 142 133 140 136
3250.0 142 137 142 130 137 129 125 119 125 157
3290.0 140 148 150 127 125 158 157 159 138 140
3330.0 142 140 147 131 127 134 138 153 151 141
3370.0 135 128 135 134 144 150 136 133 132 143
3410.0 129 151 147 110 147 116 149 142 155 157
3450.0 164 143 156 142 155 146 145 166 182 199
3490.0 204 206 203 204 194 180 145 154 140 129
3530.0 141 140 126 147 141 147 113 118 128 142
3570.0 149 141 137 127 136 127 135 128 136 136
3610.0 153 140 133 136 133 138 161 135 137 166
3650.0 173 169 155 154 168 153 147 163 147 133
3690.0 136 150 124 143 170 148 167 125 195 144
3730.0 125 156 159 172 128 144 134 130 180 161
3770.0 151 173 171 154 177 156 156 135 142 173
3810.0 161 175 166 172 139 150 166 168 206 172
3850.0 176 115 122 155 136 153 127 132 128 181
3890.0 150 151 141 145 132 128 157 126 151 142
3930.0 121 115 144 155 141 121 153 205 131 148
##END=
