##TITLE=Bibenzyl
##JCAMP-DX=4.24
##DATA TYPE=INFRARED SPECTRUM
##ORIGIN=Sadtler Research Labs Under US-EPA Contract
##OWNER=NIST Standard Reference Data Program
##CAS REGISTRY NO=103-29-7
##MOLFORM=C 14 H 14
##XUNITS=1/CM
##YUNITS=ABSORBANCE
##XFACTOR=1.0
##YFACTOR=0.000077112
##DELTAX=4.0
##FIRSTX=450.0
##LASTX=3966.0
##FIRSTY=0.000000
##MAXX=3966
##MINX=450
##MAXY=0.77112
##MINY=0
##NPOINTS=880
##XYDATA=(X++(Y..Y))
450.0 0 302 229 368 221 426 340 479 462 544
490.0 679 983 1506 1716 1780 1568 1486 1490 1522 1377
530.0 1130 875 642 572 439 376 329 355 379 523
570.0 692 906 1014 993 733 442 346 305 256 267
610.0 271 267 264 237 254 234 266 295 321 346
650.0 422 513 608 832 948 1383 1678 2176 2876 4166
690.0 6507 8419 10000 8715 7361 5429 4363 3577 3229 3150
730.0 3301 3699 4241 5124 5685 5864 5063 4071 3238 2604
770.0 1992 1420 997 744 587 514 439 395 349 324
810.0 291 266 249 220 227 206 210 203 206 202
850.0 203 215 209 236 253 288 289 307 309 323
890.0 342 339 366 366 376 355 341 316 334 394
930.0 503 599 606 543 439 348 312 314 312 311
970.0 317 329 336 327 310 298 285 305 320 344
1010.0 345 387 486 829 1429 1724 1571 936 475 396
1050.0 430 556 740 922 1067 1079 984 798 633 486
1090.0 388 335 307 307 289 290 259 259 249 257
1130.0 270 279 299 304 313 300 305 313 318 326
1170.0 335 354 395 432 465 498 512 521 479 413
1210.0 362 328 326 314 319 331 355 354 331 298
1250.0 270 262 261 262 250 267 257 275 275 278
1290.0 290 296 315 322 350 367 396 419 438 462
1330.0 508 613 770 875 821 725 559 443 407 386
1370.0 380 401 403 355 358 323 332 334 306 320
1410.0 341 359 445 481 514 623 839 1195 1644 2194
1450.0 2534 2552 2279 1745 1298 975 1008 920 1162 1707
1490.0 2855 4122 4512 3848 2619 1174 777 550 623 571
1530.0 561 561 529 536 436 407 399 454 441 438
1570.0 519 552 690 832 1047 1445 1886 2739 2892 2860
1610.0 2065 1376 819 580 477 388 393 394 351 379
1650.0 397 402 347 326 327 306 323 285 316 334
1690.0 292 310 354 400 386 421 498 598 561 557
1730.0 611 638 521 456 430 426 369 356 360 350
1770.0 396 437 442 525 624 806 880 848 712 527
1810.0 448 407 371 344 344 340 341 337 390 425
1850.0 441 471 510 526 542 573 540 529 467 404
1890.0 336 307 290 285 296 310 343 385 453 511
1930.0 600 679 716 737 728 735 690 583 417 309
1970.0 254 233 235 233 224 226 218 200 199 199
2010.0 198 203 213 209 207 209 201 211 199 197
2050.0 191 194 192 194 202 197 201 197 202 200
2090.0 199 192 196 199 197 194 190 195 197 202
2130.0 202 203 205 201 200 196 195 190 195 190
2170.0 195 196 202 198 199 202 202 205 202 204
2210.0 200 206 200 199 198 199 198 194 201 200
2250.0 204 203 207 205 204 208 214 220 223 235
2290.0 236 250 266 282 297 323 335 314 312 284
2330.0 279 275 272 282 294 284 282 260 241 236
2370.0 231 233 252 267 245 220 214 206 208 205
2410.0 206 203 203 199 201 200 199 203 200 200
2450.0 201 202 197 202 201 200 202 198 197 194
2490.0 192 194 190 196 199 194 191 199 197 208
2530.0 205 209 213 213 217 223 216 218 218 218
2570.0 224 225 235 240 253 253 261 265 266 275
2610.0 261 261 251 250 250 260 259 262 259 248
2650.0 249 238 245 243 250 248 249 254 251 251
2690.0 242 243 232 235 227 228 232 237 244 235
2730.0 232 237 241 233 227 223 220 223 227 235
2770.0 253 275 303 334 355 377 382 383 384 383
2810.0 382 380 392 398 404 425 456 503 568 702
2850.0 914 1242 1666 2102 2351 2322 2039 1668 1366 1179
2890.0 1114 1129 1205 1326 1498 1746 2135 2696 3395 4171
2930.0 4792 5208 5347 5367 5167 4642 3734 2741 1949 1429
2970.0 1105 909 788 712 690 705 774 921 1192 1532
3010.0 1872 2269 2897 4012 5591 7364 8443 8064 6474 4631
3050.0 3584 3294 3666 4687 6384 7782 7798 6534 4936 4186
3090.0 3789 3346 2866 2418 2051 1741 1439 1120 825 600
3130.0 471 396 354 329 314 303 308 301 306 308
3170.0 293 278 247 222 210 209 217 209 211 211
3210.0 214 210 212 214 222 222 218 221 215 217
3250.0 215 217 218 229 226 222 226 222 228 224
3290.0 225 225 221 221 216 202 199 202 196 196
3330.0 192 194 190 198 202 206 214 200 215 221
3370.0 221 208 211 222 213 222 224 215 206 213
3410.0 213 211 210 203 204 206 217 215 226 226
3450.0 219 205 210 205 201 204 202 207 204 211
3490.0 216 214 198 215 214 230 223 229 230 228
3530.0 225 208 217 225 219 221 223 224 231 227
3570.0 223 211 220 225 210 226 212 219 226 222
3610.0 213 218 214 221 235 226 232 227 241 254
3650.0 247 259 264 241 242 214 221 224 241 245
3690.0 235 226 235 232 237 226 228 229 218 209
3730.0 199 204 193 226 189 221 188 214 215 202
3770.0 211 205 227 204 222 227 245 222 223 212
3810.0 254 230 245 226 222 240 236 226 228 242
3850.0 221 241 223 225 220 227 217 221 213 216
3890.0 214 190 220 195 190 221 253 248 229 236
3930.0 233 234 239 222 221 200 219 232 201 238
##END=
