##TITLE=Benzyl methyl ketone
##JCAMP-DX=4.24
##DATA TYPE=INFRARED SPECTRUM
##ORIGIN=Sadtler Research Labs Under US-EPA Contract
##OWNER=NIST Standard Reference Data Program
##CAS REGISTRY NO=103-79-7
##MOLFORM=C 9 H 10 O
##XUNITS=1/CM
##YUNITS=ABSORBANCE
##XFACTOR=1.0
##YFACTOR=0.000054428
##DELTAX=4.0
##FIRSTX=450.0
##LASTX=3966.0
##FIRSTY=0.037991
##MAXX=3966
##MINX=450
##MAXY=0.54428
##MINY=0
##NPOINTS=880
##XYDATA=(X++(Y..Y))
450.0 698 259 394 0 71 285 117 482 626 337
490.0 246 205 143 175 53 162 216 401 700 1099
530.0 1492 1908 2100 1873 1537 1118 713 493 275 300
570.0 232 158 130 205 152 208 210 123 128 188
610.0 277 296 367 428 443 473 373 337 270 210
650.0 218 211 251 234 345 317 526 785 1163 1707
690.0 2328 3006 3471 3330 2709 2343 2007 1922 2090 2415
730.0 2716 2582 2098 1660 1380 791 645 524 407 282
770.0 227 242 304 323 316 274 186 170 201 183
810.0 151 143 206 236 164 116 94 116 79 75
850.0 40 141 110 136 185 174 156 195 140 181
890.0 140 107 131 154 147 130 107 101 103 109
930.0 76 73 80 87 84 89 110 157 211 261
970.0 299 328 334 317 301 318 322 368 385 387
1010.0 357 346 399 535 699 734 724 653 462 308
1050.0 309 291 324 374 424 522 558 573 553 516
1090.0 459 415 362 328 337 385 397 464 541 627
1130.0 787 990 1324 1782 2224 2527 2609 2491 2162 1825
1170.0 1627 1481 1463 1465 1492 1470 1495 1573 1675 1890
1210.0 2293 2776 3214 3484 3411 3050 2494 1948 1495 1168
1250.0 956 806 741 746 782 851 923 986 1021 1038
1290.0 1008 942 882 846 842 867 905 939 940 927
1330.0 934 974 1093 1285 1615 2112 2729 3228 3450 3247
1370.0 2710 2045 1494 1161 931 839 762 735 733 749
1410.0 797 849 991 1074 1152 1204 1219 1239 1197 1208
1450.0 1240 1219 1146 1055 838 707 579 520 542 685
1490.0 1295 1786 1894 1803 1604 947 603 532 472 400
1530.0 353 323 341 318 313 266 256 311 274 276
1570.0 289 317 368 394 457 547 716 883 1016 1048
1610.0 903 766 541 382 308 260 259 254 241 247
1650.0 257 300 275 275 333 373 446 539 671 839
1690.0 977 1131 1384 1655 2037 2707 3776 5408 7378 9088
1730.0 10000 9792 8645 6736 5246 4381 3719 3258 2845 2451
1770.0 2200 1826 1429 1180 961 841 856 876 833 741
1810.0 621 488 346 280 220 190 156 131 138 131
1850.0 135 123 151 166 184 210 202 208 207 191
1890.0 166 151 115 85 78 73 75 86 102 110
1930.0 132 159 190 212 229 238 244 213 185 153
1970.0 114 81 68 61 60 62 61 62 57 59
2010.0 57 57 55 51 48 50 45 36 41 44
2050.0 41 41 37 32 40 41 38 39 42 44
2090.0 45 47 38 40 37 37 35 34 40 39
2130.0 34 43 45 43 44 46 49 49 43 43
2170.0 41 41 44 30 37 33 31 33 30 30
2210.0 23 31 29 29 20 28 31 23 22 24
2250.0 16 26 25 23 25 24 24 29 27 28
2290.0 29 31 26 30 38 39 53 43 36 38
2330.0 35 24 25 28 43 38 24 30 19 20
2370.0 27 33 31 37 42 30 21 26 26 24
2410.0 27 29 34 31 32 29 31 29 30 26
2450.0 25 29 22 25 28 20 29 36 26 27
2490.0 30 34 33 29 31 37 33 34 35 34
2530.0 28 35 30 26 29 27 33 40 36 35
2570.0 45 39 42 52 49 52 47 47 47 43
2610.0 50 49 50 46 55 49 49 50 41 40
2650.0 38 37 36 29 31 35 38 47 50 60
2690.0 58 62 70 72 74 84 85 112 132 121
2730.0 111 131 126 105 81 74 60 58 63 65
2770.0 65 73 79 83 103 127 135 142 165 179
2810.0 179 183 196 198 211 228 264 290 302 308
2850.0 297 295 288 296 314 332 355 388 427 474
2890.0 533 585 658 727 789 888 1006 1152 1283 1376
2930.0 1396 1318 1192 1059 988 961 980 1043 1090 1094
2970.0 1035 943 836 717 617 561 538 591 681 833
3010.0 978 1108 1243 1388 1647 2044 2401 2547 2483 2188
3050.0 1709 1310 1210 1336 1724 2156 2334 2347 2188 1775
3090.0 1443 1260 1146 996 812 666 537 440 341 249
3130.0 182 143 102 103 85 83 68 74 83 87
3170.0 81 77 65 72 49 58 39 51 34 31
3210.0 44 40 39 37 35 48 51 45 41 35
3250.0 38 34 36 35 43 41 44 38 52 35
3290.0 36 45 28 34 43 41 45 41 43 43
3330.0 47 47 42 35 30 31 48 40 23 44
3370.0 59 35 36 43 48 54 56 67 69 44
3410.0 67 75 99 100 118 146 165 199 206 210
3450.0 185 169 138 130 121 116 100 84 79 60
3490.0 63 61 64 80 64 52 47 62 61 49
3530.0 55 38 39 36 49 44 81 85 102 127
3570.0 127 125 152 198 187 167 184 129 119 46
3610.0 47 47 20 43 35 56 44 39 31 31
3650.0 28 61 47 56 40 32 74 66 52 30
3690.0 43 31 16 35 26 18 44 34 48 77
3730.0 27 72 44 67 69 48 17 39 18 20
3770.0 64 44 51 22 27 27 40 17 40 71
3810.0 41 31 27 40 20 25 76 72 48 76
3850.0 78 98 68 48 16 101 74 37 17 53
3890.0 50 69 90 73 72 13 43 60 56 19
3930.0 92 49 18 37 18 55 42 44 13 41
##END=
