##TITLE=Benzenamine, N-ethyl-
##JCAMP-DX=4.24
##DATA TYPE=INFRARED SPECTRUM
##ORIGIN=Sadtler Research Labs Under US-EPA Contract
##OWNER=NIST Standard Reference Data Program
##CAS REGISTRY NO=103-69-5
##MOLFORM=C 8 H 11 N
##XUNITS=1/CM
##YUNITS=ABSORBANCE
##XFACTOR=1.0
##YFACTOR=0.000128424
##DELTAX=4.0
##FIRSTX=450.0
##LASTX=3966.0
##FIRSTY=0.028767
##MAXX=3966
##MINX=450
##MAXY=1.28424
##MINY=0
##NPOINTS=880
##XYDATA=(X++(Y..Y))
450.0 224 180 217 269 382 350 457 428 534 525
490.0 686 681 776 849 837 807 693 652 578 507
530.0 447 451 426 412 406 403 414 402 411 400
570.0 368 325 302 253 191 195 120 158 123 153
610.0 146 208 224 246 251 209 234 197 215 181
650.0 207 207 214 300 350 645 875 1241 1453 1936
690.0 2537 2125 1836 1500 1147 842 590 517 580 824
730.0 1223 1780 2353 2926 3707 3786 2958 2607 2003 1388
770.0 891 544 313 208 164 136 131 135 145 128
810.0 142 137 156 156 156 134 112 91 81 96
850.0 118 171 208 257 327 348 276 236 185 130
890.0 91 61 56 42 49 41 49 60 66 84
930.0 83 83 65 47 18 12 0 3 6 10
970.0 14 28 53 81 195 299 317 334 316 191
1010.0 72 68 96 175 232 244 259 257 241 268
1050.0 356 435 505 548 571 530 470 434 410 390
1090.0 413 482 527 554 527 473 390 360 382 469
1130.0 620 827 1085 1309 1485 1544 1454 1281 1092 903
1170.0 875 986 1007 979 950 759 547 449 413 394
1210.0 385 378 388 406 454 543 720 1056 1683 2595
1250.0 3389 3757 3950 3755 3096 2755 2773 2659 2454 2201
1290.0 1988 1952 2185 2594 3108 3708 4017 3945 3504 2820
1330.0 2010 1390 962 765 676 658 643 633 630 635
1370.0 693 797 950 993 1020 943 787 626 583 566
1410.0 587 685 828 1146 1397 1585 1546 1415 1143 861
1450.0 750 737 858 950 1075 1142 1280 1569 1953 2506
1490.0 3252 5011 6745 9997 10000 9511 8313 5188 2904 1498
1530.0 1020 751 591 535 491 530 500 512 520 514
1570.0 541 623 833 1197 1721 2784 4148 6902 7590 9061
1610.0 8722 7380 5330 3371 2388 1315 825 532 427 362
1650.0 311 314 280 280 259 247 230 231 219 209
1690.0 208 191 178 152 140 130 107 87 92 90
1730.0 79 72 87 100 116 135 157 156 146 122
1770.0 90 68 69 58 55 51 58 69 77 104
1810.0 118 130 143 156 164 157 146 128 103 74
1850.0 65 59 52 47 45 40 48 52 53 61
1890.0 79 104 130 166 193 197 195 213 216 197
1930.0 173 148 123 82 56 50 45 42 40 36
1970.0 35 34 34 36 37 36 37 36 36 34
2010.0 35 34 30 29 23 21 18 16 13 16
2050.0 15 15 16 16 16 18 21 21 24 23
2090.0 21 21 22 20 19 18 17 17 15 17
2130.0 16 18 18 16 15 12 9 4 4 2
2170.0 5 5 5 6 7 13 8 8 8 6
2210.0 6 7 4 3 1 1 1 0 2 3
2250.0 8 5 10 13 16 17 17 17 17 14
2290.0 13 12 6 8 13 9 15 18 16 22
2330.0 24 28 28 32 24 17 6 8 22 42
2370.0 41 30 30 20 20 20 25 30 36 43
2410.0 46 47 45 43 42 42 43 43 39 35
2450.0 28 26 23 19 20 20 18 18 18 20
2490.0 22 22 25 26 28 35 39 44 48 52
2530.0 55 61 64 68 72 87 96 115 131 142
2570.0 144 135 124 107 95 85 83 81 78 75
2610.0 70 67 65 59 56 56 55 58 59 62
2650.0 66 65 66 65 72 74 78 84 89 95
2690.0 104 110 113 120 120 117 111 107 103 104
2730.0 109 114 120 130 139 144 152 157 158 162
2770.0 166 175 183 195 214 230 246 272 302 335
2810.0 372 408 450 494 543 591 642 694 744 810
2850.0 878 956 1049 1162 1303 1465 1676 1914 2136 2242
2890.0 2255 2156 1950 1744 1566 1437 1343 1294 1294 1345
2930.0 1468 1645 1794 1887 1967 1973 1940 1958 2099 2340
2970.0 2715 3292 3729 3638 3284 2815 2079 1420 1082 977
3010.0 1022 1179 1397 1611 1718 1734 1721 1619 1492 1510
3050.0 1729 2096 2429 2532 2476 2257 1839 1509 1378 1328
3090.0 1274 1195 1077 910 768 673 582 492 397 306
3130.0 232 173 131 104 86 75 68 56 53 47
3170.0 45 42 42 39 37 38 36 40 43 41
3210.0 41 39 41 35 34 32 31 23 20 21
3250.0 17 18 19 18 22 24 19 16 15 15
3290.0 15 15 16 14 20 18 18 19 21 21
3330.0 18 20 19 14 17 16 10 15 13 18
3370.0 25 24 23 29 31 36 48 55 78 101
3410.0 138 180 234 305 363 402 412 407 369 326
3450.0 284 250 214 183 155 137 121 100 88 73
3490.0 65 53 44 36 31 27 32 24 21 16
3530.0 20 18 17 13 8 9 17 10 10 6
3570.0 17 17 14 6 0 9 13 3 8 7
3610.0 8 10 9 19 6 8 21 15 19 9
3650.0 21 34 24 19 7 19 10 25 20 10
3690.0 19 27 15 18 17 16 22 17 19 16
3730.0 6 2 16 5 14 12 22 17 16 13
3770.0 10 18 12 18 14 14 12 5 8 22
3810.0 15 16 13 27 20 10 16 23 12 23
3850.0 10 24 25 15 14 24 26 24 21 25
3890.0 9 16 7 24 25 26 22 9 16 15
3930.0 16 6 13 14 17 5 17 10 13 15
##END=
