##TITLE=Nonanedioic acid, bis(2-ethylhexyl) ester
##JCAMP-DX=4.24
##DATA TYPE=INFRARED SPECTRUM
##ORIGIN=Sadtler Research Labs Under US-EPA Contract
##OWNER=NIST Standard Reference Data Program
##CAS REGISTRY NO=103-24-2
##MOLFORM=C 25 H 48 O 4
##XUNITS=1/CM
##YUNITS=ABSORBANCE
##XFACTOR=1.0
##YFACTOR=0.000085086
##DELTAX=4.0
##FIRSTX=450.0
##LASTX=3966.0
##FIRSTY=0.000000
##MAXX=3966
##MINX=450
##MAXY=0.85086
##MINY=0
##NPOINTS=880
##XYDATA=(X++(Y..Y))
450.0 0 35 91 123 139 153 132 99 179 120
490.0 105 75 172 109 88 102 118 137 62 122
530.0 105 87 125 96 63 29 48 49 109 71
570.0 126 156 36 109 159 103 174 133 147 192
610.0 140 141 152 150 141 111 137 138 112 119
650.0 105 111 70 63 45 83 96 70 74 93
690.0 103 83 158 114 132 181 226 270 315 359
730.0 288 292 264 272 230 247 239 247 275 324
770.0 349 367 390 358 292 262 271 231 229 206
810.0 214 230 239 230 230 261 254 210 167 207
850.0 232 240 261 234 245 276 314 287 298 318
890.0 318 351 379 402 419 427 442 430 447 460
930.0 496 510 541 542 572 650 681 769 842 895
970.0 905 964 996 1068 1115 1165 1225 1274 1365 1416
1010.0 1469 1497 1519 1503 1523 1492 1393 1265 1165 1111
1050.0 1098 1079 1125 1169 1256 1382 1536 1677 1807 1862
1090.0 1821 1719 1589 1485 1433 1494 1666 1866 2200 2578
1130.0 2970 3375 3753 4066 4395 4734 5068 5398 5655 5808
1170.0 5771 5566 5277 4889 4559 4246 3969 3789 3661 3556
1210.0 3513 3515 3578 3637 3763 3860 3947 3990 3937 3784
1250.0 3569 3315 3036 2823 2612 2427 2269 2144 2046 1932
1290.0 1807 1735 1667 1626 1588 1560 1526 1452 1385 1338
1330.0 1327 1397 1479 1547 1645 1654 1625 1556 1458 1326
1370.0 1262 1257 1438 1673 1709 1535 1234 904 699 614
1410.0 592 632 694 750 840 915 967 1003 1141 1344
1450.0 1603 1919 2225 2412 2346 1979 1440 1001 717 519
1490.0 384 316 276 241 229 160 176 172 141 141
1530.0 134 141 153 98 120 127 135 118 97 112
1570.0 77 103 83 93 77 74 93 92 101 102
1610.0 101 112 99 122 107 126 137 107 126 147
1650.0 131 126 162 184 202 226 254 303 351 380
1690.0 473 578 667 760 895 1098 1325 1661 2184 2993
1730.0 4170 5722 7378 8341 8630 8549 7515 5563 3721 2529
1770.0 1824 1364 1096 876 729 616 502 459 386 366
1810.0 328 301 266 252 222 187 186 175 166 128
1850.0 140 141 143 144 131 118 129 136 134 137
1890.0 122 137 128 128 128 125 128 129 126 133
1930.0 127 116 119 121 117 114 115 122 109 133
1970.0 116 131 130 121 131 137 126 122 131 124
2010.0 126 134 136 137 139 158 169 157 167 179
2050.0 168 176 165 156 142 172 176 178 171 162
2090.0 168 148 135 136 125 122 117 124 131 155
2130.0 152 153 158 142 154 154 132 139 151 160
2170.0 162 172 155 155 138 114 110 99 100 102
2210.0 100 95 93 93 92 99 87 99 101 96
2250.0 103 105 117 108 115 107 117 115 122 135
2290.0 155 178 181 199 198 220 224 205 207 198
2330.0 174 141 173 160 141 167 228 182 154 95
2370.0 68 70 70 99 114 111 119 123 121 116
2410.0 118 107 130 119 125 101 109 106 105 118
2450.0 111 109 102 98 104 100 102 94 89 94
2490.0 100 91 82 80 69 65 59 42 31 27
2530.0 43 48 50 60 60 30 26 31 44 51
2570.0 81 85 103 97 108 100 96 84 82 69
2610.0 97 88 64 78 79 78 107 109 98 97
2650.0 95 119 130 172 203 217 225 208 194 218
2690.0 222 217 240 243 245 243 232 251 271 278
2730.0 286 304 316 329 319 305 320 313 299 314
2770.0 329 332 344 351 370 370 402 429 432 478
2810.0 513 567 637 672 756 846 971 1098 1298 1636
2850.0 2105 2746 3520 4190 4580 4690 4594 4384 4187 3994
2890.0 3857 3761 3862 4071 4462 4945 5654 6399 7297 8245
2930.0 9152 9837 10000 9573 8839 7946 7388 7365 7600 7792
2970.0 7577 6475 4981 3689 2740 2089 1630 1322 1064 904
3010.0 788 710 639 591 548 477 461 443 375 368
3050.0 348 303 279 262 228 263 261 220 240 233
3090.0 223 206 203 189 160 143 168 176 151 140
3130.0 150 178 181 187 194 168 196 192 191 174
3170.0 202 201 216 191 201 207 204 212 184 193
3210.0 208 190 199 201 211 201 220 206 194 229
3250.0 206 196 192 179 176 157 157 134 142 114
3290.0 101 140 107 134 80 104 100 107 83 73
3330.0 93 100 92 59 107 107 79 26 49 118
3370.0 60 54 63 47 129 95 113 79 69 78
3410.0 69 102 112 84 134 135 130 142 151 107
3450.0 117 95 129 199 164 125 137 115 153 140
3490.0 28 95 102 102 65 56 74 93 98 63
3530.0 118 89 37 89 71 58 85 75 90 99
3570.0 107 66 98 59 48 68 39 50 81 79
3610.0 86 85 87 76 76 69 68 60 68 97
3650.0 54 47 45 72 79 77 113 83 77 107
3690.0 96 72 82 62 50 58 69 30 73 60
3730.0 44 58 91 76 81 71 38 43 40 53
3770.0 48 80 70 32 30 26 35 27 68 101
3810.0 121 140 103 90 114 150 128 93 73 64
3850.0 91 81 100 114 107 120 105 143 151 137
3890.0 120 138 135 153 121 140 148 141 132 143
3930.0 153 145 165 165 163 185 165 156 174 206
##END=
