##TITLE=2-Nonanol, 5-ethyl-
##JCAMP-DX=4.24
##DATA TYPE=INFRARED SPECTRUM
##ORIGIN=Sadtler Research Labs Under US-EPA Contract
##OWNER=NIST Standard Reference Data Program
##CAS REGISTRY NO=103-08-2
##MOLFORM=C 11 H 24 O
##XUNITS=1/CM
##YUNITS=ABSORBANCE
##XFACTOR=1.0
##YFACTOR=0.000105338
##DELTAX=4.0
##FIRSTX=450.0
##LASTX=3966.0
##FIRSTY=0.008111
##MAXX=3966
##MINX=450
##MAXY=1.05338
##MINY=0
##NPOINTS=880
##XYDATA=(X++(Y..Y))
450.0 77 97 153 35 372 171 99 248 241 187
490.0 292 214 176 128 220 173 166 134 107 174
530.0 188 179 187 149 213 240 142 123 95 152
570.0 148 93 152 135 71 103 94 131 111 68
610.0 102 154 71 134 129 120 112 52 94 146
650.0 144 124 127 84 85 103 74 175 144 136
690.0 75 103 125 72 168 95 191 127 106 145
730.0 213 107 252 314 298 180 294 168 164 254
770.0 260 223 274 271 299 169 160 208 244 202
810.0 161 171 223 201 190 153 254 267 271 299
850.0 332 325 237 240 259 254 223 258 276 261
890.0 274 288 323 356 331 346 362 397 463 534
930.0 610 692 700 739 722 684 658 628 588 576
970.0 545 515 501 478 422 424 438 415 411 414
1010.0 421 449 503 528 567 594 672 754 783 805
1050.0 866 905 921 958 985 948 968 959 998 1055
1090.0 1162 1211 1240 1173 1151 972 886 866 877 874
1130.0 898 923 946 907 837 766 690 612 545 489
1170.0 459 442 439 437 453 478 486 518 521 537
1210.0 553 576 593 610 656 707 772 831 903 925
1250.0 907 837 756 701 636 610 574 539 517 492
1290.0 478 475 470 456 457 470 471 474 492 506
1330.0 537 580 640 709 789 851 897 945 967 1033
1370.0 1132 1347 1618 1796 1836 1577 1267 1030 848 737
1410.0 631 571 520 497 479 479 494 569 660 769
1450.0 994 1224 1492 1715 1698 1554 1254 880 612 444
1490.0 336 298 251 240 240 234 206 215 206 209
1530.0 191 195 190 188 173 161 164 160 171 142
1570.0 144 145 140 149 137 136 154 140 167 154
1610.0 164 184 199 216 216 241 241 254 250 210
1650.0 226 190 182 166 181 182 186 181 178 181
1690.0 162 160 167 177 155 163 164 168 165 137
1730.0 137 114 113 99 77 46 10 1 19 42
1770.0 69 83 81 82 79 79 72 68 55 62
1810.0 56 56 56 46 49 48 45 41 41 48
1850.0 37 41 46 34 42 37 43 39 43 40
1890.0 42 37 41 41 38 38 40 41 38 37
1930.0 37 39 36 36 37 36 35 34 33 34
1970.0 36 33 30 33 32 27 28 29 31 31
2010.0 28 29 30 29 30 33 28 27 29 31
2050.0 31 26 30 28 30 25 27 26 25 24
2090.0 23 24 26 22 25 24 25 26 25 24
2130.0 26 23 23 24 27 24 26 28 28 27
2170.0 24 26 28 26 27 23 24 27 26 24
2210.0 25 26 25 27 28 21 25 26 22 26
2250.0 21 25 22 21 22 20 21 18 19 17
2290.0 12 11 8 8 7 1 10 7 14 17
2330.0 20 32 28 28 18 30 27 31 43 51
2370.0 52 34 39 36 39 49 51 50 52 50
2410.0 52 55 54 53 51 51 49 43 45 46
2450.0 43 41 41 47 42 41 42 45 40 40
2490.0 43 49 48 47 49 51 48 52 56 57
2530.0 57 59 61 64 64 67 69 74 77 80
2570.0 81 85 92 94 102 103 104 102 110 109
2610.0 110 106 114 116 119 120 120 124 125 131
2650.0 134 135 141 143 146 149 155 155 158 156
2690.0 153 147 149 148 147 146 147 159 162 170
2730.0 177 187 197 210 210 204 197 191 189 191
2770.0 197 202 210 220 237 261 276 300 326 348
2810.0 378 412 445 494 539 599 673 780 918 1132
2850.0 1455 1939 2624 3481 4331 4893 5041 4987 4903 4671
2890.0 4179 3616 3286 3314 3696 4353 5233 6221 7310 8355
2930.0 9350 10000 9991 9226 7923 6463 5529 5563 6734 8634
2970.0 9670 9068 7001 4833 3252 2195 1498 1091 865 721
3010.0 625 549 485 436 393 361 331 303 284 262
3050.0 247 236 222 211 203 200 197 194 189 182
3090.0 175 174 168 165 166 159 149 145 142 135
3130.0 139 136 130 131 122 123 127 122 121 123
3170.0 121 124 118 119 120 114 115 114 105 103
3210.0 99 91 89 78 74 70 65 61 52 50
3250.0 53 43 46 45 47 41 47 40 35 36
3290.0 32 36 37 34 26 43 34 36 29 29
3330.0 27 26 24 24 21 26 23 22 19 22
3370.0 30 24 22 24 23 23 23 19 17 23
3410.0 28 24 17 23 26 24 34 22 22 22
3450.0 20 20 14 18 20 21 17 15 15 11
3490.0 16 20 7 6 4 12 13 14 12 6
3530.0 19 15 13 1 5 3 8 5 11 9
3570.0 19 19 17 23 14 17 17 12 27 30
3610.0 36 54 52 79 94 136 161 186 215 282
3650.0 387 527 532 458 324 195 134 90 72 43
3690.0 56 41 33 28 18 17 17 1 2 4
3730.0 29 29 21 21 7 31 2 16 8 1
3770.0 2 1 1 1 3 2 3 23 14 23
3810.0 1 25 26 21 18 24 24 35 19 25
3850.0 18 62 36 19 33 48 17 22 24 29
3890.0 24 31 23 21 17 32 1 24 10 15
3930.0 26 9 1 1 35 18 12 0 20 42
##END=
