##TITLE=Hexanedioic acid, bis(2-ethylhexyl) ester
##JCAMP-DX=4.24
##DATA TYPE=INFRARED SPECTRUM
##ORIGIN=Sadtler Research Labs Under US-EPA Contract
##OWNER=NIST Standard Reference Data Program
##CAS REGISTRY NO=103-23-1
##MOLFORM=C 22 H 42 O 4
##XUNITS=1/CM
##YUNITS=ABSORBANCE
##XFACTOR=1.0
##YFACTOR=0.000035062
##DELTAX=4.0
##FIRSTX=450.0
##LASTX=3966.0
##FIRSTY=0.026892
##MAXX=3966
##MINX=450
##MAXY=0.35062
##MINY=0
##NPOINTS=880
##XYDATA=(X++(Y..Y))
450.0 767 580 562 644 598 567 779 555 1161 329
490.0 0 626 673 641 760 596 711 567 654 553
530.0 597 555 604 734 673 683 480 622 566 568
570.0 577 566 713 749 682 623 584 519 642 564
610.0 580 628 628 666 529 797 728 677 606 512
650.0 534 656 543 610 589 543 643 502 659 657
690.0 635 626 639 647 623 677 552 619 769 1085
730.0 843 706 769 813 702 733 773 755 818 805
770.0 883 864 878 874 828 831 747 734 670 686
810.0 665 659 642 668 653 682 712 666 686 687
850.0 732 717 711 759 781 800 766 818 820 815
890.0 785 826 789 827 837 832 856 861 903 906
930.0 946 960 970 983 1006 1048 1125 1218 1320 1411
970.0 1437 1469 1416 1468 1472 1491 1532 1555 1616 1697
1010.0 1808 1870 1830 1776 1757 1747 1698 1670 1640 1651
1050.0 1674 1744 1798 1794 1816 1807 1769 1727 1630 1506
1090.0 1427 1353 1340 1388 1482 1641 1855 2148 2533 3012
1130.0 3554 4186 4800 5312 5578 5642 5571 5531 5517 5469
1170.0 5381 5188 4956 4642 4388 4150 3969 3855 3763 3735
1210.0 3728 3796 3891 3990 4086 4198 4243 4236 4163 4005
1250.0 3773 3529 3319 3104 2911 2758 2641 2524 2457 2361
1290.0 2214 2088 1942 1857 1777 1710 1656 1566 1511 1458
1330.0 1499 1574 1640 1745 1816 1840 1843 1778 1666 1560
1370.0 1462 1404 1464 1670 1819 1798 1554 1238 1026 895
1410.0 822 834 791 901 981 1090 1122 1159 1222 1299
1450.0 1444 1640 1863 2075 2134 1978 1675 1341 1104 908
1490.0 781 706 626 578 537 476 480 467 430 455
1530.0 437 459 444 404 395 441 422 406 421 436
1570.0 424 417 461 446 486 472 458 439 439 453
1610.0 447 449 427 403 397 397 396 376 409 407
1650.0 378 392 426 409 414 431 428 452 465 478
1690.0 532 580 626 697 795 907 994 1113 1340 1641
1730.0 2009 2589 3525 5062 7408 9730 10000 7722 5023 3372
1770.0 2385 1843 1443 1200 987 829 736 629 577 516
1810.0 476 424 411 387 374 334 337 361 320 314
1850.0 287 323 305 310 290 271 287 291 292 277
1890.0 282 273 288 278 272 267 262 277 265 278
1930.0 277 276 273 247 270 263 274 274 279 257
1970.0 255 253 253 247 237 221 218 235 215 222
2010.0 218 225 201 221 214 208 204 188 213 243
2050.0 267 269 270 266 253 279 295 295 303 289
2090.0 261 257 213 203 208 193 191 191 200 185
2130.0 196 173 177 181 158 165 157 165 161 161
2170.0 156 166 159 139 163 149 148 146 140 135
2210.0 142 142 144 154 144 135 149 154 146 141
2250.0 151 153 137 142 157 140 133 158 179 191
2290.0 202 230 256 265 275 286 260 247 291 213
2330.0 186 163 99 128 192 219 200 147 118 80
2370.0 47 100 124 143 145 110 93 92 91 79
2410.0 74 84 75 64 75 63 70 62 65 85
2450.0 58 66 55 55 50 54 55 57 63 72
2490.0 55 48 50 54 57 65 98 54 65 48
2530.0 69 45 35 55 39 74 45 52 37 43
2570.0 81 61 75 78 94 77 64 62 70 37
2610.0 32 8 17 17 43 78 63 90 80 99
2650.0 112 144 149 171 175 174 197 184 230 226
2690.0 224 201 216 178 141 132 110 134 108 133
2730.0 132 154 158 154 175 162 175 189 138 179
2770.0 165 163 183 185 194 224 257 234 259 277
2810.0 332 324 373 421 463 497 540 630 689 825
2850.0 963 1225 1629 2179 2762 3218 3373 3349 3343 3314
2890.0 3139 2934 2813 2829 2926 3197 3608 4143 4891 5651
2930.0 6436 7157 7597 7544 7043 6269 5801 5774 6418 7309
2970.0 7800 7061 5355 3737 2628 1983 1528 1202 960 786
3010.0 687 612 508 492 435 405 362 354 332 330
3050.0 302 285 263 267 246 236 237 211 247 229
3090.0 219 181 161 157 162 149 144 165 161 150
3130.0 135 135 165 143 116 80 110 104 102 85
3170.0 106 117 111 106 91 112 95 52 61 49
3210.0 43 55 22 51 57 48 52 26 57 42
3250.0 42 26 32 53 59 98 120 134 108 122
3290.0 90 125 120 89 131 106 102 93 127 113
3330.0 92 115 117 152 115 112 109 131 95 80
3370.0 99 91 131 123 128 122 110 128 143 118
3410.0 119 84 101 130 116 111 137 119 120 106
3450.0 107 108 108 132 164 179 183 137 177 167
3490.0 152 175 102 97 57 102 132 113 96 53
3530.0 120 97 104 136 92 88 63 83 122 111
3570.0 120 143 96 90 192 12 157 148 92 55
3610.0 175 93 119 59 76 88 40 105 93 71
3650.0 35 110 79 70 93 85 60 113 99 90
3690.0 107 30 122 117 98 76 83 33 37 129
3730.0 105 6 56 95 185 56 66 116 101 106
3770.0 88 29 26 89 101 49 131 89 93 107
3810.0 127 62 44 92 94 36 112 131 126 90
3850.0 88 172 177 56 126 164 127 157 203 218
3890.0 82 65 136 175 195 145 135 141 65 133
3930.0 162 224 94 102 95 184 224 158 235 87
##END=
