##TITLE=Benzeneacetic acid
##JCAMP-DX=4.24
##DATA TYPE=INFRARED SPECTRUM
##ORIGIN=Sadtler Research Labs Under US-EPA Contract
##OWNER=NIST Standard Reference Data Program
##CAS REGISTRY NO=103-82-2
##MOLFORM=C 8 H 8 O 2
##XUNITS=1/CM
##YUNITS=ABSORBANCE
##XFACTOR=1.0
##YFACTOR=0.000096545
##DELTAX=4.0
##FIRSTX=450.0
##LASTX=3966.0
##FIRSTY=0.035722
##MAXX=3966
##MINX=450
##MAXY=0.96545
##MINY=0
##NPOINTS=880
##XYDATA=(X++(Y..Y))
450.0 370 307 361 360 350 392 392 414 455 512
490.0 519 508 512 458 423 386 337 353 358 300
530.0 335 283 277 239 390 480 684 838 1164 1698
570.0 2335 3260 4039 4343 4300 3973 3754 3127 2981 2819
610.0 2620 2355 2252 1960 1823 1623 1471 1352 1234 1072
650.0 982 947 896 925 984 1175 1187 1515 1801 2137
690.0 2518 2863 2813 2747 2533 2435 2201 1967 1755 1607
730.0 1582 1592 1573 1474 1198 933 692 512 307 192
770.0 163 51 82 101 49 55 7 2 50 79
810.0 122 114 158 169 185 212 195 219 215 178
850.0 195 205 202 212 209 199 202 207 207 226
890.0 246 242 213 199 227 248 251 242 271 289
930.0 299 275 270 255 203 225 198 190 169 155
970.0 148 118 120 108 99 92 98 84 129 138
1010.0 143 138 179 276 379 398 414 401 337 282
1050.0 320 409 502 620 789 1015 1286 1614 2079 2649
1090.0 3336 4211 5273 6450 7790 8715 9195 8816 7948 6434
1130.0 5112 4176 3521 3035 2605 2230 1923 1679 1514 1388
1170.0 1296 1266 1257 1286 1336 1426 1527 1673 1824 1970
1210.0 2000 1979 1812 1639 1424 1209 1039 901 788 718
1250.0 679 665 673 673 699 723 737 766 815 848
1290.0 901 935 966 957 937 909 885 862 823 818
1330.0 847 879 949 1050 1197 1384 1578 1725 1777 1687
1370.0 1561 1395 1165 969 808 621 527 443 381 360
1410.0 364 401 404 447 476 537 576 604 653 684
1450.0 690 652 600 524 433 338 243 183 254 388
1490.0 708 1017 1082 1039 968 489 220 159 113 97
1530.0 82 82 81 82 60 80 72 72 65 81
1570.0 96 112 161 166 206 245 316 378 447 466
1610.0 444 363 277 179 118 96 92 77 81 80
1650.0 46 125 85 110 87 106 105 124 154 189
1690.0 196 219 269 336 417 529 664 836 954 1113
1730.0 1334 1566 1840 2197 2671 3272 4032 4847 5790 6886
1770.0 8073 9064 9704 10000 9771 9033 7839 6754 5590 4440
1810.0 3369 2428 1733 1242 887 665 484 393 321 271
1850.0 220 207 195 189 151 158 126 129 116 119
1890.0 119 113 95 80 74 71 74 85 99 100
1930.0 113 132 146 169 168 179 178 148 138 110
1970.0 90 62 60 57 67 50 51 45 42 37
2010.0 45 42 38 23 29 25 13 34 32 27
2050.0 18 13 25 16 5 8 13 18 13 13
2090.0 10 1 3 6 1 16 25 18 7 8
2130.0 16 17 27 11 16 16 19 24 18 21
2170.0 23 16 24 14 24 35 36 40 36 32
2210.0 50 42 37 34 42 45 38 42 25 46
2250.0 35 37 37 43 37 53 53 63 64 53
2290.0 85 89 116 128 161 175 186 151 137 132
2330.0 85 76 71 96 141 134 157 122 107 70
2370.0 71 55 99 103 72 60 19 37 31 31
2410.0 33 11 26 27 21 24 11 20 37 27
2450.0 22 30 9 24 15 29 19 30 19 28
2490.0 26 25 19 17 15 22 22 13 17 14
2530.0 16 20 16 12 15 11 5 4 0 11
2570.0 15 11 9 15 22 4 23 33 36 26
2610.0 23 14 19 20 35 43 39 25 16 28
2650.0 31 29 26 32 20 36 24 25 25 18
2690.0 20 35 22 40 29 34 55 59 63 75
2730.0 50 54 76 43 46 34 18 21 24 22
2770.0 28 22 23 24 29 51 62 67 62 70
2810.0 75 77 74 76 69 54 58 60 81 84
2850.0 90 96 74 80 90 91 76 89 90 91
2890.0 94 100 112 140 157 185 220 264 298 325
2930.0 386 404 407 417 398 402 376 341 304 309
2970.0 280 265 246 247 257 254 249 253 259 281
3010.0 339 406 476 623 801 1041 1288 1477 1503 1454
3050.0 1279 1066 930 1001 1192 1416 1522 1531 1435 1186
3090.0 970 827 753 678 568 478 392 308 241 180
3130.0 133 89 59 63 62 60 64 65 72 56
3170.0 66 55 50 51 44 44 30 31 22 30
3210.0 34 49 34 44 63 35 55 63 45 36
3250.0 44 52 60 3 35 48 57 35 47 38
3290.0 20 56 61 27 44 31 39 58 39 40
3330.0 33 39 48 56 44 35 50 68 29 43
3370.0 47 55 60 34 2 68 59 67 50 54
3410.0 75 75 28 57 37 65 60 75 34 60
3450.0 53 69 78 81 82 70 53 90 76 63
3490.0 81 81 88 90 107 109 104 113 136 173
3530.0 178 199 244 308 369 470 618 851 1392 2322
3570.0 3629 4170 4288 3822 2854 1585 996 639 452 309
3610.0 214 218 138 134 107 174 121 132 126 138
3650.0 130 99 101 128 118 109 123 96 114 109
3690.0 135 111 130 88 77 105 105 85 100 83
3730.0 62 116 57 53 50 55 30 22 30 23
3770.0 17 38 46 40 72 75 86 108 130 114
3810.0 101 120 113 93 74 108 100 93 89 80
3850.0 86 129 104 105 120 147 139 120 104 117
3890.0 122 114 103 120 104 106 99 94 95 97
3930.0 93 93 104 115 122 123 128 134 139 140
##END=
