##TITLE=Benzene, 1,1'-[oxybis(methylene)]bis-
##JCAMP-DX=4.24
##DATA TYPE=INFRARED SPECTRUM
##ORIGIN=Sadtler Research Labs Under US-EPA Contract
##OWNER=NIST Standard Reference Data Program
##CAS REGISTRY NO=103-50-4
##MOLFORM=C 14 H 14 O
##XUNITS=1/CM
##YUNITS=ABSORBANCE
##XFACTOR=1.0
##YFACTOR=0.000067838
##DELTAX=4.0
##FIRSTX=450.0
##LASTX=3966.0
##FIRSTY=0.000000
##MAXX=3966
##MINX=450
##MAXY=0.67838
##MINY=0
##NPOINTS=880
##XYDATA=(X++(Y..Y))
450.0 0 174 199 311 557 474 692 623 669 488
490.0 481 432 361 317 212 197 124 187 108 95
530.0 81 101 101 50 106 61 102 77 170 142
570.0 219 297 364 422 409 573 620 596 667 688
610.0 638 637 561 565 536 494 436 332 283 243
650.0 251 295 315 476 578 974 1320 1735 2224 2947
690.0 4090 4943 5561 4977 4331 3564 3269 3114 3275 3651
730.0 4269 5144 5782 6102 5242 4198 3167 2332 1658 1142
770.0 786 585 432 232 377 383 392 373 407 448
810.0 498 507 489 411 365 318 302 284 235 226
850.0 204 196 185 201 217 220 261 298 346 411
890.0 475 555 686 851 921 851 711 639 626 636
930.0 626 638 625 627 637 657 662 662 684 697
970.0 720 748 805 824 863 891 948 1020 1126 1215
1010.0 1272 1391 1580 2189 2913 2922 2191 1345 1108 1235
1050.0 1464 1817 2220 2790 3448 4283 5174 6243 7297 8432
1090.0 9400 9910 10000 9456 8755 7611 6564 5425 4382 3403
1130.0 2604 1976 1518 1186 964 807 710 652 623 638
1170.0 686 756 796 805 860 1057 1462 1933 2298 2342
1210.0 2060 1633 1212 953 874 878 939 1032 1110 1175
1250.0 1190 1168 1071 939 814 707 618 563 553 563
1290.0 582 608 651 695 742 791 812 816 806 824
1330.0 858 895 947 1066 1359 1985 3027 3952 4052 3078
1370.0 1970 1306 1114 1077 1068 1009 862 691 560 508
1410.0 446 420 402 413 426 497 603 736 971 1246
1450.0 1586 1726 1737 1491 1207 941 762 595 590 678
1490.0 993 1496 1709 1479 981 451 304 235 224 205
1530.0 190 212 200 218 197 193 194 208 214 222
1570.0 256 266 307 345 378 421 455 513 528 552
1610.0 485 379 270 210 181 174 168 172 165 152
1650.0 145 136 117 108 105 102 105 100 104 113
1690.0 110 124 143 162 173 202 244 279 286 289
1730.0 319 335 336 330 333 311 269 238 211 195
1770.0 198 208 204 214 238 296 388 468 489 410
1810.0 318 242 195 168 152 136 128 122 141 157
1850.0 178 205 233 266 285 302 302 297 273 225
1890.0 176 136 107 95 95 98 112 130 165 189
1930.0 231 279 328 377 407 429 426 388 312 231
1970.0 162 128 112 105 106 106 103 97 97 97
2010.0 96 103 100 101 99 99 98 96 96 92
2050.0 89 87 84 85 86 87 89 86 89 85
2090.0 87 90 87 86 83 81 78 77 65 66
2130.0 65 61 59 56 54 47 46 46 49 46
2170.0 47 46 51 48 47 55 50 50 52 54
2210.0 52 50 52 48 51 47 50 47 48 44
2250.0 50 51 55 53 52 52 53 56 55 54
2290.0 54 58 58 61 70 90 105 102 86 70
2330.0 74 77 77 86 78 72 68 59 64 60
2370.0 62 56 52 49 47 46 45 42 42 48
2410.0 51 49 50 50 54 52 54 55 55 59
2450.0 60 58 63 61 58 55 59 52 52 47
2490.0 49 49 50 49 50 48 49 44 48 50
2530.0 51 47 51 51 49 53 58 50 53 52
2570.0 61 59 68 69 78 81 83 95 95 102
2610.0 103 105 99 104 108 104 107 107 107 104
2650.0 103 105 104 109 111 117 122 126 133 145
2690.0 151 166 178 193 205 218 219 221 212 205
2730.0 198 203 215 220 228 240 246 258 257 270
2770.0 285 309 343 381 421 454 477 485 511 547
2810.0 600 667 742 824 926 1085 1286 1538 1837 2208
2850.0 2669 3173 3647 3932 3987 3779 3414 2963 2545 2214
2890.0 1980 1809 1711 1669 1650 1651 1652 1655 1650 1646
2930.0 1644 1713 1877 2080 2165 2000 1652 1260 957 737
2970.0 604 499 439 399 384 381 397 439 521 649
3010.0 825 1066 1404 1894 2552 3275 3874 4092 3863 3338
3050.0 2852 2576 2602 2943 3700 4595 4871 4309 3328 2702
3090.0 2389 2119 1848 1560 1303 1096 910 720 532 367
3130.0 262 194 158 134 117 115 120 122 126 131
3170.0 140 131 122 104 96 78 75 75 72 75
3210.0 75 71 71 69 72 72 72 69 63 59
3250.0 59 60 59 56 61 59 57 53 59 63
3290.0 66 63 66 66 66 62 61 66 65 62
3330.0 62 69 68 70 66 63 69 60 67 70
3370.0 65 69 78 74 72 76 74 75 77 72
3410.0 72 69 63 61 59 61 56 62 59 62
3450.0 65 65 59 63 55 51 48 48 55 63
3490.0 55 63 61 67 68 66 68 79 72 69
3530.0 74 70 70 80 80 77 60 77 70 75
3570.0 82 79 86 83 76 84 84 86 80 77
3610.0 81 80 91 94 98 93 98 100 117 115
3650.0 130 142 129 128 118 109 115 108 109 110
3690.0 114 102 94 94 107 101 95 90 88 92
3730.0 85 85 89 81 91 79 85 92 85 80
3770.0 81 85 82 78 85 77 87 104 82 100
3810.0 81 100 89 86 93 97 104 112 103 112
3850.0 92 86 110 98 103 102 96 93 105 105
3890.0 99 115 103 114 98 88 82 101 94 112
3930.0 90 85 94 81 107 96 104 86 91 85
##END=
