##TITLE=Propanoic acid, 2-methyl-, 4-methylphenyl ester
##JCAMP-DX=4.24
##DATA TYPE=INFRARED SPECTRUM
##ORIGIN=Sadtler Research Labs Under US-EPA Contract
##OWNER=NIST Standard Reference Data Program
##CAS REGISTRY NO=103-93-5
##MOLFORM=C 11 H 14 O 2
##XUNITS=1/CM
##YUNITS=ABSORBANCE
##XFACTOR=1.0
##YFACTOR=0.000116925
##DELTAX=4.0
##FIRSTX=450.0
##LASTX=3966.0
##FIRSTY=0.016019
##MAXX=3966
##MINX=450
##MAXY=1.16925
##MINY=0
##NPOINTS=880
##XYDATA=(X++(Y..Y))
450.0 137 98 38 87 78 64 93 90 168 246
490.0 273 457 584 622 651 506 363 273 199 200
530.0 195 156 143 4 47 40 29 26 45 35
570.0 56 0 75 45 53 48 48 83 90 101
610.0 93 59 32 61 59 54 74 68 89 69
650.0 89 53 84 53 79 31 30 41 34 62
690.0 59 87 70 89 83 80 70 49 74 82
730.0 96 80 128 186 223 218 223 194 174 153
770.0 158 175 203 273 365 492 600 675 694 654
810.0 594 517 459 405 391 396 480 539 581 572
850.0 575 660 721 746 675 558 422 302 236 192
890.0 190 195 241 300 400 483 512 468 390 350
930.0 347 357 343 314 251 207 173 161 157 156
970.0 167 169 176 165 165 161 182 173 174 204
1010.0 286 600 922 972 746 558 693 1062 1541 1983
1050.0 2058 1862 1510 1258 1114 1079 1136 1269 1523 1938
1090.0 2631 3545 4491 5094 5472 5735 6031 6200 6331 6747
1130.0 6802 6439 5377 4261 3273 2698 2552 2961 4513 5986
1170.0 5938 4563 3744 4201 4612 4636 5175 6734 9038 10000
1210.0 9167 6739 4606 3392 2948 2762 2534 2347 2121 1790
1250.0 1406 1114 886 737 616 516 453 400 388 371
1290.0 395 417 446 437 419 393 392 405 450 517
1330.0 599 727 859 1080 1240 1227 1054 827 661 605
1370.0 617 609 637 700 870 1094 1120 898 625 468
1410.0 402 394 327 371 390 437 431 449 482 472
1450.0 473 500 523 664 910 1396 1638 1585 1172 712
1490.0 636 843 1266 2255 4225 6043 5768 3423 1133 432
1530.0 302 234 187 104 128 147 137 80 117 142
1570.0 132 140 149 171 214 243 289 332 395 445
1610.0 494 501 389 290 169 158 100 71 86 77
1650.0 37 46 90 101 93 84 60 102 49 40
1690.0 73 84 41 57 88 136 135 119 211 283
1730.0 337 388 552 689 864 1087 1507 2124 3107 4323
1770.0 5465 6253 5859 4665 3221 1999 1191 782 544 445
1810.0 355 295 258 225 193 165 160 160 134 110
1850.0 130 148 140 140 143 132 166 183 191 182
1890.0 163 144 125 117 107 104 94 92 82 88
1930.0 92 85 92 84 101 110 118 122 118 99
1970.0 93 95 90 95 89 79 79 93 96 96
2010.0 90 79 71 70 78 82 97 101 105 99
2050.0 89 72 63 59 61 68 68 63 62 59
2090.0 52 50 55 50 48 46 48 43 49 49
2130.0 47 47 44 46 43 39 35 34 28 31
2170.0 29 31 29 29 29 30 37 34 35 41
2210.0 41 44 45 47 44 51 48 50 49 53
2250.0 49 49 55 48 52 47 50 47 45 45
2290.0 45 51 53 59 65 70 78 84 87 82
2330.0 85 70 57 45 40 63 136 106 63 4
2370.0 0 0 0 0 8 29 39 49 58 59
2410.0 59 51 40 34 34 27 24 24 25 18
2450.0 18 20 23 21 17 21 17 18 13 17
2490.0 17 16 16 14 16 14 15 12 13 8
2530.0 9 8 5 8 5 8 3 5 7 11
2570.0 14 11 14 21 19 18 13 9 4 0
2610.0 0 1 3 4 7 11 11 15 18 11
2650.0 12 9 7 6 14 19 28 29 23 21
2690.0 8 6 2 4 0 2 5 1 5 4
2730.0 11 19 39 48 56 54 37 24 15 12
2770.0 22 22 15 22 9 10 20 25 18 24
2810.0 29 30 36 48 58 61 63 69 89 110
2850.0 121 151 197 262 346 477 642 835 1015 1121
2890.0 1081 958 825 748 718 749 810 917 1054 1201
2930.0 1422 1652 1791 1788 1679 1587 1446 1282 1137 1142
2970.0 1354 1831 2567 3146 3190 2655 1961 1470 1131 935
3010.0 797 689 612 586 590 671 871 1074 1098 946
3050.0 679 510 450 396 372 349 325 296 241 197
3090.0 166 146 137 146 142 146 146 136 120 108
3130.0 107 86 58 45 45 37 24 25 32 34
3170.0 37 28 40 38 28 26 35 35 42 36
3210.0 23 20 23 19 26 16 12 7 15 9
3250.0 6 10 2 18 13 21 19 15 7 7
3290.0 1 7 18 10 13 16 14 15 17 10
3330.0 22 10 9 13 22 22 20 17 18 18
3370.0 15 18 29 19 9 17 23 11 32 23
3410.0 21 25 22 21 21 33 29 27 13 11
3450.0 15 15 25 15 22 16 36 36 28 29
3490.0 33 34 42 49 49 55 57 62 82 85
3530.0 84 76 70 50 40 31 29 34 28 37
3570.0 26 25 31 43 43 38 28 36 32 34
3610.0 37 38 46 27 44 30 27 29 22 36
3650.0 40 48 41 52 53 52 44 31 41 45
3690.0 43 26 41 49 20 35 22 36 45 35
3730.0 18 27 18 25 21 13 31 39 20 26
3770.0 28 41 37 19 6 20 32 37 26 26
3810.0 44 43 37 25 42 19 23 49 30 43
3850.0 63 52 39 43 43 58 42 20 22 40
3890.0 37 55 64 55 52 29 37 42 37 63
3930.0 28 62 62 82 58 42 24 18 60 73
##END=
