##TITLE=Benzene, (2-bromoethenyl)-
##JCAMP-DX=4.24
##DATA TYPE=INFRARED SPECTRUM
##ORIGIN=Sadtler Research Labs Under US-EPA Contract
##OWNER=NIST Standard Reference Data Program
##CAS REGISTRY NO=103-64-0
##MOLFORM=C 8 H 7 Br
##XUNITS=1/CM
##YUNITS=ABSORBANCE
##XFACTOR=1.0
##YFACTOR=0.000059375
##DELTAX=4.0
##FIRSTX=450.0
##LASTX=3966.0
##FIRSTY=0.042334
##MAXX=3966
##MINX=450
##MAXY=0.59375
##MINY=0
##NPOINTS=880
##XYDATA=(X++(Y..Y))
450.0 713 514 552 482 593 761 613 771 998 1176
490.0 1369 1230 1089 982 708 768 458 439 554 416
530.0 391 215 333 419 188 755 1598 2709 5052 4499
570.0 3659 907 516 639 541 533 617 199 324 115
610.0 229 67 104 285 292 79 185 195 226 200
650.0 320 453 407 696 1135 1758 2322 3287 4137 4534
690.0 5121 4933 4366 4001 3639 3540 3698 4675 6122 6827
730.0 8061 9451 8929 10000 9242 7431 4184 1807 1242 1045
770.0 722 926 694 635 744 708 662 508 342 375
810.0 181 311 475 564 679 818 880 555 356 453
850.0 299 216 380 265 358 381 523 561 564 692
890.0 758 617 716 668 693 704 1101 1504 2142 2967
930.0 3889 4513 5100 4801 3890 3044 2230 1497 905 639
970.0 580 529 562 566 615 598 545 627 455 387
1010.0 288 214 231 265 640 777 619 522 246 237
1050.0 302 337 401 485 515 642 490 520 392 319
1090.0 255 276 261 193 187 261 96 103 156 202
1130.0 122 114 214 123 131 233 258 235 325 416
1170.0 602 695 946 1067 1026 983 881 779 737 838
1210.0 1352 2173 3140 3333 2646 1400 838 583 426 250
1250.0 281 233 195 276 352 397 603 639 602 442
1290.0 388 434 381 430 419 476 525 693 780 879
1330.0 835 778 514 407 298 249 169 161 173 202
1370.0 146 229 199 228 195 247 193 189 199 195
1410.0 127 197 225 258 308 404 563 723 966 1164
1450.0 1072 995 827 574 564 483 496 303 273 432
1490.0 868 1686 2199 1968 1242 386 292 312 354 378
1530.0 419 402 394 391 346 287 350 489 623 776
1570.0 1212 1561 1662 1486 1118 977 1276 1873 2885 4348
1610.0 5575 5397 3839 1890 927 642 414 386 250 298
1650.0 273 402 385 476 646 796 650 584 450 481
1690.0 451 535 665 680 596 624 525 562 533 524
1730.0 566 631 576 525 451 457 398 317 334 300
1770.0 318 332 320 305 312 391 543 480 409 274
1810.0 256 168 178 169 155 146 159 150 176 180
1850.0 207 165 202 271 270 311 311 339 370 335
1890.0 353 267 153 149 117 113 143 186 224 245
1930.0 250 331 325 369 386 396 417 492 453 336
1970.0 148 130 79 73 78 96 86 86 88 89
2010.0 64 84 92 71 80 91 84 70 78 95
2050.0 66 65 94 80 78 70 103 53 77 88
2090.0 70 64 84 69 85 46 93 64 48 76
2130.0 83 41 84 64 83 53 68 96 64 71
2170.0 91 63 69 64 80 55 49 84 49 55
2210.0 79 65 50 64 62 78 42 77 69 62
2250.0 60 92 62 69 70 84 57 82 74 84
2290.0 68 84 92 91 109 196 209 253 311 301
2330.0 328 331 414 363 324 273 330 419 551 487
2370.0 475 263 242 145 64 66 89 50 89 74
2410.0 105 80 83 119 88 71 113 89 98 89
2450.0 95 84 80 105 101 71 91 94 78 82
2490.0 91 105 83 111 113 103 87 117 98 89
2530.0 82 120 74 85 84 102 76 87 92 86
2570.0 60 123 70 95 99 108 104 89 121 142
2610.0 86 141 118 68 92 96 118 84 88 116
2650.0 74 71 112 47 96 65 90 74 59 98
2690.0 88 46 110 72 90 65 99 100 78 88
2730.0 114 74 99 100 98 69 106 118 66 101
2770.0 119 109 109 130 155 126 117 171 120 135
2810.0 131 167 159 160 167 183 112 185 127 136
2850.0 128 143 152 146 147 204 115 178 204 197
2890.0 218 218 213 192 162 221 192 166 216 188
2930.0 174 204 220 185 175 185 199 133 187 174
2970.0 180 138 196 186 182 211 266 271 356 448
3010.0 626 761 1065 1509 2107 2883 3470 3508 3167 2727
3050.0 2632 2532 2466 2795 3610 4875 5733 6126 6060 5545
3090.0 4697 3333 2177 1825 1586 1408 1165 854 448 274
3130.0 181 247 147 185 224 220 196 218 202 200
3170.0 120 182 159 135 168 174 137 131 149 156
3210.0 104 138 151 105 106 139 155 71 135 135
3250.0 102 104 145 98 129 91 165 80 96 143
3290.0 99 85 158 89 124 82 143 126 64 106
3330.0 131 71 131 105 125 66 100 150 61 112
3370.0 119 66 105 113 105 119 71 146 73 55
3410.0 112 121 65 107 123 116 54 130 87 111
3450.0 79 107 119 80 108 149 53 126 136 112
3490.0 93 103 125 102 106 183 106 82 140 113
3530.0 125 68 152 125 108 152 132 91 174 100
3570.0 175 110 162 179 114 175 239 133 173 147
3610.0 212 157 161 193 137 202 170 137 161 173
3650.0 244 169 126 173 150 151 150 178 117 142
3690.0 168 183 96 151 146 164 129 136 148 146
3730.0 146 205 145 143 170 154 123 87 129 113
3770.0 89 151 112 99 133 125 136 106 139 153
3810.0 111 133 190 111 177 150 190 133 160 178
3850.0 128 149 212 126 141 142 175 143 124 190
3890.0 198 152 209 214 187 188 203 213 181 208
3930.0 238 199 178 211 191 185 0 12 12 12
##END=
