##TITLE=2-Propenoic acid, 3-phenyl-, ethyl ester
##JCAMP-DX=4.24
##DATA TYPE=INFRARED SPECTRUM
##ORIGIN=Sadtler Research Labs Under US-EPA Contract
##OWNER=NIST Standard Reference Data Program
##CAS REGISTRY NO=103-36-6
##MOLFORM=C 11 H 12 O 2
##XUNITS=1/CM
##YUNITS=ABSORBANCE
##XFACTOR=1.0
##YFACTOR=0.000080078
##DELTAX=4.0
##FIRSTX=450.0
##LASTX=3966.0
##FIRSTY=0.000000
##MAXX=3966
##MINX=450
##MAXY=0.80078
##MINY=0
##NPOINTS=880
##XYDATA=(X++(Y..Y))
450.0 0 11 31 69 97 93 117 159 155 95
490.0 124 132 159 163 157 150 142 108 107 97
530.0 93 71 43 45 13 56 102 108 234 348
570.0 473 464 371 239 199 131 94 69 59 37
610.0 23 60 28 25 26 15 23 28 67 83
650.0 75 86 147 170 250 389 421 558 649 765
690.0 777 785 766 723 695 632 504 433 350 287
730.0 295 312 309 355 440 581 752 908 990 987
770.0 860 674 489 349 270 219 208 198 211 191
810.0 189 184 203 191 215 235 228 265 242 251
850.0 270 299 363 410 437 420 437 436 438 419
890.0 367 324 279 269 273 266 260 257 280 288
930.0 307 333 357 365 372 387 443 511 624 765
970.0 906 1027 1054 981 867 684 542 461 404 398
1010.0 393 475 619 840 1092 1349 1576 1769 1946 1927
1050.0 1766 1504 1240 1024 882 792 734 691 719 773
1090.0 871 940 970 920 830 727 662 608 595 600
1130.0 658 758 925 1170 1615 2257 3359 5128 7447 10000
1170.0 9154 7088 5196 3835 3151 2741 2897 3243 3068 2323
1210.0 1469 1151 1093 1135 1247 1391 1576 1869 2293 2984
1250.0 3681 4177 4515 4536 4251 3648 2903 2402 2151 2060
1290.0 2213 2513 2787 3141 3732 4056 3773 2873 2080 1576
1330.0 1189 883 639 491 395 356 349 415 583 919
1370.0 1101 1024 709 487 408 407 429 441 430 405
1410.0 378 355 304 281 282 276 303 324 443 604
1450.0 691 698 538 476 459 481 438 407 350 345
1490.0 421 573 578 486 253 136 132 109 97 116
1530.0 128 111 128 80 107 129 127 87 103 165
1570.0 194 259 306 335 273 209 197 205 223 231
1610.0 249 301 335 450 620 922 1383 2007 2396 2192
1650.0 1483 777 521 423 396 371 367 365 363 350
1690.0 411 455 493 540 674 863 1130 1565 2341 3536
1730.0 5216 6773 7508 6644 5002 3357 2222 1488 1038 779
1770.0 611 492 432 353 315 282 249 244 212 180
1810.0 161 143 129 137 116 106 103 100 96 82
1850.0 83 82 75 75 89 83 114 112 122 121
1890.0 122 113 91 89 89 70 69 64 69 70
1930.0 79 82 91 100 108 114 102 102 89 71
1970.0 58 52 50 46 46 38 46 42 43 45
2010.0 47 34 34 39 28 28 27 27 28 30
2050.0 34 27 27 27 27 27 27 27 28 28
2090.0 28 30 34 34 34 41 41 41 40 40
2130.0 40 34 34 35 28 27 23 22 19 17
2170.0 16 16 11 17 17 16 16 16 16 15
2210.0 13 13 17 17 15 16 16 17 16 22
2250.0 23 22 27 23 22 29 29 29 29 29
2290.0 22 22 23 23 23 23 23 16 17 11
2330.0 11 11 11 11 11 11 11 11 11 11
2370.0 11 11 11 17 16 11 17 17 11 11
2410.0 16 16 16 16 21 20 19 18 24 22
2450.0 22 16 23 22 22 23 23 23 16 19
2490.0 19 17 17 21 17 17 16 16 17 17
2530.0 17 17 10 17 17 17 17 17 17 17
2570.0 16 16 23 23 23 23 25 28 28 29
2610.0 29 29 22 22 17 17 16 16 17 17
2650.0 13 16 18 18 18 18 18 20 25 26
2690.0 26 28 30 27 28 29 28 34 42 42
2730.0 36 43 38 43 39 39 41 41 42 52
2770.0 52 53 61 61 67 62 67 73 76 76
2810.0 79 82 82 91 83 89 91 96 97 103
2850.0 99 106 118 121 127 144 164 193 239 274
2890.0 286 287 294 309 341 369 395 399 385 387
2930.0 403 455 560 670 718 685 596 552 562 615
2970.0 692 791 955 1189 1349 1299 1090 864 729 634
3010.0 552 490 459 448 485 571 648 669 622 520
3050.0 451 439 477 564 764 971 993 851 628 552
3090.0 516 471 408 336 298 253 203 158 109 99
3130.0 76 78 71 71 73 78 74 80 75 61
3170.0 55 56 53 50 56 50 47 52 47 47
3210.0 47 43 49 43 49 44 44 44 42 39
3250.0 47 40 40 36 28 41 43 36 38 36
3290.0 38 41 34 39 42 43 35 35 40 40
3330.0 35 42 43 42 41 39 47 44 52 52
3370.0 51 53 52 46 48 48 41 47 40 36
3410.0 44 43 45 44 45 51 65 65 65 66
3450.0 73 75 93 78 76 70 58 56 44 44
3490.0 39 33 28 34 34 34 36 36 32 28
3530.0 34 37 32 32 32 33 25 34 30 25
3570.0 34 51 57 73 69 55 50 38 37 33
3610.0 25 29 39 26 35 14 24 41 48 44
3650.0 24 37 44 58 55 35 31 32 44 56
3690.0 47 56 66 67 72 66 63 85 86 81
3730.0 82 72 72 90 76 86 88 109 110 115
3770.0 116 123 129 129 136 143 143 139 133 138
3810.0 144 151 139 140 153 162 157 151 157 166
3850.0 172 155 165 174 175 170 176 177 176 176
3890.0 184 191 198 190 196 197 198 198 198 199
3930.0 199 200 195 195 197 215 27 41 44 43
##END=
