##TITLE=Monobenzone
##JCAMP-DX=4.24
##DATA TYPE=INFRARED SPECTRUM
##ORIGIN=Sadtler Research Labs Under US-EPA Contract
##OWNER=NIST Standard Reference Data Program
##CAS REGISTRY NO=103-16-2
##MOLFORM=C 13 H 12 O 2
##XUNITS=1/CM
##YUNITS=ABSORBANCE
##XFACTOR=1.0
##YFACTOR=0.000095355
##DELTAX=4.0
##FIRSTX=450.0
##LASTX=3966.0
##FIRSTY=0.016878
##MAXX=3966
##MINX=450
##MAXY=0.95355
##MINY=0
##NPOINTS=880
##XYDATA=(X++(Y..Y))
450.0 177 159 402 163 267 155 108 173 33 176
490.0 288 184 279 359 439 443 438 407 428 410
530.0 258 295 392 194 261 262 108 0 85 76
570.0 114 112 33 85 39 110 197 190 125 145
610.0 119 172 97 114 39 89 144 73 113 152
650.0 54 146 267 220 92 301 284 368 462 617
690.0 848 1097 1086 827 716 656 609 708 807 934
730.0 1127 1269 1616 1663 1552 1335 1102 982 903 970
770.0 969 808 543 372 328 360 424 508 505 599
810.0 782 1023 1351 1518 1568 1384 1164 900 695 532
850.0 443 360 295 250 242 249 219 233 207 215
890.0 195 225 259 299 319 301 273 243 241 242
930.0 243 250 261 249 255 267 286 304 316 361
970.0 432 496 589 660 723 839 963 1052 1154 1236
1010.0 1334 1426 1570 1713 1681 1547 1357 1209 1110 917
1050.0 746 638 575 562 551 527 530 556 603 624
1090.0 688 766 808 741 609 583 529 507 507 546
1130.0 565 619 657 702 791 968 1236 1669 2454 3569
1170.0 4654 5080 4847 4155 3441 3041 2891 2944 3013 3190
1210.0 3558 4051 4539 4816 4886 4746 4378 3886 3255 2714
1250.0 2357 2013 1649 1261 966 790 651 603 613 657
1290.0 728 740 766 760 776 803 829 870 929 924
1330.0 913 822 643 515 429 381 356 370 415 529
1370.0 671 721 811 801 595 428 261 188 236 232
1410.0 275 336 301 464 588 833 904 951 886 758
1450.0 759 684 588 655 688 732 539 517 630 702
1490.0 1062 1660 3167 5338 8070 10000 6586 3839 1544 987
1530.0 578 369 210 16 71 142 129 50 99 197
1570.0 170 183 197 206 295 293 371 406 445 449
1610.0 420 434 335 332 234 219 141 82 116 117
1650.0 1 4 70 112 130 139 120 232 151 137
1690.0 209 240 124 126 205 295 285 225 299 361
1730.0 305 191 161 111 66 18 60 63 64 133
1770.0 152 175 249 213 166 98 79 94 74 108
1810.0 74 81 96 88 75 65 105 132 114 82
1850.0 125 156 146 141 123 84 125 138 127 113
1890.0 84 78 80 74 75 68 63 66 57 86
1930.0 99 112 123 105 118 132 134 128 115 96
1970.0 88 84 85 84 89 76 79 91 91 95
2010.0 97 92 90 87 93 91 92 88 76 81
2050.0 86 89 83 72 64 73 67 69 67 63
2090.0 61 64 63 52 43 36 31 23 21 21
2130.0 16 11 12 12 12 12 12 7 3 4
2170.0 1 2 7 3 3 6 6 9 1 5
2210.0 3 4 7 5 6 11 16 18 17 17
2250.0 20 20 23 17 18 16 14 18 18 23
2290.0 30 31 38 38 47 58 65 71 78 72
2330.0 84 79 107 95 114 127 176 138 116 89
2370.0 57 41 39 47 53 47 48 49 47 43
2410.0 43 51 56 62 67 68 59 54 53 50
2450.0 50 47 49 42 40 39 46 46 51 56
2490.0 55 50 50 45 48 43 38 37 33 33
2530.0 30 33 29 27 28 23 25 19 19 18
2570.0 20 23 23 25 28 27 31 32 29 24
2610.0 21 19 22 23 21 25 23 25 24 29
2650.0 22 25 24 20 22 34 36 34 33 36
2690.0 41 45 39 38 45 48 56 65 71 73
2730.0 77 74 72 64 50 43 33 35 37 39
2770.0 43 48 51 55 58 68 72 78 80 86
2810.0 92 95 100 104 103 102 103 111 119 133
2850.0 146 171 200 232 268 310 344 375 386 380
2890.0 364 329 306 289 271 267 256 258 278 276
2930.0 287 307 312 319 318 309 285 250 215 183
2970.0 161 136 114 98 91 94 96 121 144 194
3010.0 263 345 459 575 694 791 871 924 931 836
3050.0 706 597 550 584 658 766 834 755 602 489
3090.0 422 375 320 291 248 206 188 159 137 99
3130.0 76 61 46 34 25 22 12 18 11 8
3170.0 14 23 7 24 19 18 14 10 18 3
3210.0 7 17 8 17 15 14 14 24 23 19
3250.0 15 7 13 18 22 23 22 32 42 34
3290.0 40 32 42 33 26 31 37 33 37 42
3330.0 40 54 41 43 22 29 23 22 19 19
3370.0 27 39 46 45 46 43 35 41 43 34
3410.0 29 38 44 44 38 53 37 39 25 23
3450.0 38 23 39 40 23 23 31 24 35 35
3490.0 40 24 23 34 32 36 37 44 56 80
3530.0 66 62 62 66 72 60 66 66 74 87
3570.0 76 83 66 75 70 80 66 55 49 54
3610.0 48 64 82 76 110 129 166 253 441 673
3650.0 1072 1471 1732 1441 969 468 231 182 58 90
3690.0 74 33 44 37 36 40 53 47 48 72
3730.0 68 49 71 45 60 33 56 51 23 60
3770.0 63 58 27 30 41 17 39 41 56 4
3810.0 56 41 81 59 61 69 78 71 59 55
3850.0 84 40 50 61 49 60 84 115 73 66
3890.0 39 41 47 64 94 63 107 75 102 103
3930.0 104 36 17 27 54 62 72 29 47 92
##END=
