##TITLE=Benzenepropanol, .alpha.,.alpha.-dimethyl-
##JCAMP-DX=4.24
##DATA TYPE=INFRARED SPECTRUM
##ORIGIN=Sadtler Research Labs Under US-EPA Contract
##OWNER=NIST Standard Reference Data Program
##CAS REGISTRY NO=103-05-9
##MOLFORM=C 11 H 16 O
##XUNITS=1/CM
##YUNITS=ABSORBANCE
##XFACTOR=1.0
##YFACTOR=0.000065521
##DELTAX=4.0
##FIRSTX=450.0
##LASTX=3966.0
##FIRSTY=0.046258
##MAXX=3966
##MINX=450
##MAXY=0.65521
##MINY=0
##NPOINTS=880
##XYDATA=(X++(Y..Y))
450.0 706 319 251 297 321 340 380 334 427 437
490.0 591 607 655 706 677 675 717 750 636 463
530.0 238 124 59 82 138 62 81 15 185 141
570.0 308 282 214 138 217 278 218 170 133 116
610.0 92 62 82 76 91 62 87 143 94 60
650.0 166 157 190 265 340 441 588 744 1074 1678
690.0 2665 3621 4427 4044 3419 2588 2088 1797 1753 1944
730.0 2324 2659 2910 2840 2436 1961 1517 1261 1142 1054
770.0 920 729 540 381 295 226 208 192 185 167
810.0 176 182 218 238 285 323 292 276 230 196
850.0 198 217 226 233 273 283 302 360 458 573
890.0 704 858 1017 1215 1481 1833 2147 2374 2435 2387
930.0 2216 1919 1546 1161 881 693 580 508 478 484
970.0 504 542 573 584 537 496 432 425 404 417
1010.0 418 430 484 584 873 1126 1133 931 635 510
1050.0 513 598 745 931 1121 1247 1254 1188 1106 1062
1090.0 1108 1252 1466 1693 1924 2144 2345 2533 2655 2668
1130.0 2590 2501 2449 2450 2494 2565 2611 2569 2394 2167
1170.0 1967 1832 1756 1723 1738 1786 1894 2042 2204 2389
1210.0 2558 2669 2649 2511 2299 2085 1908 1785 1669 1594
1250.0 1556 1537 1559 1570 1580 1546 1494 1429 1362 1292
1290.0 1236 1215 1203 1214 1243 1292 1342 1398 1422 1445
1330.0 1444 1432 1412 1367 1337 1369 1506 1781 2217 2739
1370.0 3210 3500 3474 3402 3165 2697 1998 1290 846 650
1410.0 555 514 522 509 524 588 688 840 1017 1223
1450.0 1508 1691 1857 1833 1756 1680 1497 1258 1073 1134
1490.0 1467 2041 2360 2138 1559 752 351 256 236 214
1530.0 200 194 196 201 167 149 140 156 174 142
1570.0 162 204 265 335 457 565 662 877 1206 1460
1610.0 1323 974 497 277 195 152 127 137 100 111
1650.0 96 156 90 89 97 83 110 103 116 157
1690.0 123 127 162 167 147 151 181 224 244 264
1730.0 307 355 315 263 226 198 159 137 108 91
1770.0 98 111 95 118 158 239 323 329 284 180
1810.0 128 105 93 87 75 73 69 70 89 106
1850.0 114 127 140 147 168 178 175 151 122 94
1890.0 83 69 60 44 43 41 39 56 80 111
1930.0 145 191 213 228 228 234 226 185 111 53
1970.0 23 14 16 12 9 13 11 2 7 10
2010.0 12 11 11 12 18 17 14 18 16 19
2050.0 23 15 9 10 11 1 7 11 9 5
2090.0 8 7 7 7 1 4 7 10 13 13
2130.0 15 10 11 11 12 6 8 5 3 6
2170.0 0 4 2 6 3 13 11 5 6 7
2210.0 8 7 1 3 6 5 5 6 9 16
2250.0 10 13 12 14 15 21 25 31 40 47
2290.0 57 64 68 69 76 96 82 72 60 15
2330.0 25 32 27 20 104 37 23 3 20 79
2370.0 101 114 99 90 73 46 23 21 23 25
2410.0 20 25 19 24 25 23 30 28 25 32
2450.0 26 25 27 27 27 28 27 28 27 27
2490.0 27 21 24 26 23 23 19 18 27 21
2530.0 30 23 28 32 31 28 25 34 26 27
2570.0 34 46 43 45 55 61 60 56 69 71
2610.0 76 74 70 68 72 77 68 66 63 59
2650.0 44 47 47 51 54 43 48 50 47 55
2690.0 59 58 61 63 69 84 92 115 119 131
2730.0 138 138 146 132 110 116 102 111 111 114
2770.0 124 114 130 140 146 160 181 201 213 226
2810.0 249 283 308 336 359 398 440 508 618 770
2850.0 933 1124 1334 1548 1761 1954 2097 2161 2157 2118
2890.0 2080 2094 2175 2300 2492 2754 3131 3583 4098 4565
2930.0 4967 5313 5590 5810 5885 5788 5555 5431 5700 6531
2970.0 7744 9138 10000 9562 7912 5531 3550 2264 1613 1342
3010.0 1240 1244 1351 1752 2479 3451 4169 4186 3470 2352
3050.0 1624 1391 1440 1766 2509 3310 3536 3220 2359 1845
3090.0 1695 1530 1343 1113 920 776 663 541 389 271
3130.0 177 138 107 116 104 95 101 100 106 127
3170.0 136 125 111 96 110 98 99 105 117 112
3210.0 97 108 104 98 82 88 74 69 56 47
3250.0 42 47 53 51 45 53 33 38 44 45
3290.0 47 40 33 35 28 25 47 46 39 39
3330.0 37 42 42 34 37 53 45 50 49 53
3370.0 29 32 54 54 64 50 69 85 92 73
3410.0 78 58 53 40 51 42 75 83 75 68
3450.0 65 67 48 50 69 41 16 55 49 56
3490.0 35 25 45 26 19 30 44 32 28 45
3530.0 22 23 10 20 11 31 8 36 44 49
3570.0 78 34 40 17 43 33 63 67 62 125
3610.0 228 347 494 612 704 766 882 1002 1142 1053
3650.0 900 651 417 293 163 183 76 115 83 67
3690.0 74 51 35 59 23 33 16 44 3 28
3730.0 14 50 25 57 80 19 52 61 33 0
3770.0 55 13 2 46 29 21 51 47 54 49
3810.0 72 30 42 48 39 59 95 61 52 106
3850.0 48 59 55 44 83 69 76 50 86 146
3890.0 65 77 56 68 48 38 73 45 73 121
3930.0 17 37 60 96 62 16 15 85 31 32
##END=
