##TITLE=2-Propenoic acid, 3-phenyl-, methyl ester
##JCAMP-DX=4.24
##DATA TYPE=INFRARED SPECTRUM
##ORIGIN=Sadtler Research Labs Under US-EPA Contract
##OWNER=NIST Standard Reference Data Program
##CAS REGISTRY NO=103-26-4
##MOLFORM=C 10 H 10 O 2
##XUNITS=1/CM
##YUNITS=ABSORBANCE
##XFACTOR=1.0
##YFACTOR=0.000053516
##DELTAX=4.0
##FIRSTX=450.0
##LASTX=3966.0
##FIRSTY=0.002997
##MAXX=3966
##MINX=450
##MAXY=0.53516
##MINY=0
##NPOINTS=880
##XYDATA=(X++(Y..Y))
450.0 56 42 44 59 55 79 113 129 153 165
490.0 150 135 113 82 82 80 92 92 68 40
530.0 41 43 22 17 32 41 69 121 171 320
570.0 441 470 458 308 250 171 110 57 53 82
610.0 61 61 41 41 56 52 44 55 60 84
650.0 93 121 146 178 249 382 452 576 665 784
690.0 796 798 810 756 799 701 597 480 387 345
730.0 287 290 302 372 450 575 705 832 964 1046
770.0 893 688 502 299 141 87 36 12 28 42
810.0 35 55 124 130 236 270 288 288 286 311
850.0 329 364 377 391 374 313 291 279 249 189
890.0 161 159 159 143 124 120 135 170 217 244
930.0 270 258 278 268 267 267 293 348 472 608
970.0 760 922 964 911 831 618 484 391 336 388
1010.0 531 697 779 753 633 591 688 802 924 968
1050.0 874 687 510 402 334 299 252 205 168 140
1090.0 147 149 156 177 178 196 199 208 230 265
1130.0 312 361 447 569 794 1171 1870 3178 5561 10000
1170.0 9534 7795 5330 3500 2985 2949 3404 3932 3779 3026
1210.0 1874 1269 1056 1003 1057 1157 1251 1410 1644 2031
1250.0 2517 2964 3502 4046 4589 4939 4357 3318 2399 2017
1290.0 2043 2167 2258 2389 2915 3756 4266 4027 3215 2398
1330.0 1847 1363 866 626 478 398 376 355 343 343
1370.0 323 302 303 291 270 232 211 189 194 218
1410.0 230 251 236 250 342 537 974 1324 1512 1383
1450.0 1144 980 730 490 367 345 293 292 283 313
1490.0 414 604 632 556 320 165 148 134 123 141
1530.0 152 144 142 115 155 174 170 129 148 196
1570.0 233 321 366 391 342 271 242 243 251 249
1610.0 247 290 346 482 679 1014 1507 2041 2324 2139
1650.0 1606 1135 955 807 674 510 403 328 315 284
1690.0 328 387 427 501 611 739 884 1071 1430 1994
1730.0 2921 4381 6552 8121 7947 6441 4235 2721 1795 1214
1770.0 872 676 567 460 361 300 240 222 180 151
1810.0 130 121 132 139 132 129 130 120 105 89
1850.0 102 91 92 81 91 81 100 112 114 120
1890.0 121 109 102 94 81 70 70 71 71 80
1930.0 83 93 98 111 115 118 122 112 91 80
1970.0 59 50 49 52 51 54 64 68 73 81
2010.0 69 78 79 79 89 79 78 68 60 49
2050.0 49 49 50 50 50 57 58 59 69 70
2090.0 78 89 92 97 93 89 79 69 58 59
2130.0 47 47 39 39 39 28 28 28 28 28
2170.0 28 28 28 28 18 27 26 28 28 28
2210.0 28 28 28 28 28 28 28 28 27 27
2250.0 27 27 27 27 27 27 27 27 27 27
2290.0 27 27 38 38 39 46 51 50 51 53
2330.0 36 37 44 37 56 45 56 58 45 45
2370.0 46 35 30 38 26 27 27 15 16 15
2410.0 25 16 16 16 16 15 15 15 15 15
2450.0 27 25 25 15 26 24 16 16 16 16
2490.0 16 16 16 16 24 14 14 14 14 14
2530.0 14 14 14 14 14 14 14 14 14 14
2570.0 15 15 25 16 24 24 24 24 24 24
2610.0 23 14 13 13 13 24 13 13 20 19
2650.0 17 23 23 23 23 23 14 13 13 14
2690.0 14 5 10 10 2 3 3 14 2 2
2730.0 3 3 2 2 2 2 13 14 14 14
2770.0 14 15 24 24 25 25 26 17 25 25
2810.0 27 27 26 25 37 46 67 86 139 221
2850.0 267 263 192 118 83 69 70 78 87 108
2890.0 129 151 170 192 201 235 243 260 265 254
2930.0 244 240 260 300 370 535 863 1320 1458 1273
2970.0 781 399 274 244 252 280 312 334 354 355
3010.0 356 366 401 458 561 667 762 776 706 583
3050.0 488 457 478 564 788 1020 1046 934 702 577
3090.0 527 494 439 364 303 252 192 140 92 66
3130.0 44 46 46 47 47 47 49 49 49 39
3170.0 30 30 20 27 20 20 20 15 18 23
3210.0 13 12 12 13 14 14 5 14 14 15
3250.0 16 13 5 5 16 5 6 16 8 6
3290.0 16 9 9 8 9 20 9 10 10 11
3330.0 10 12 20 11 11 12 12 19 12 12
3370.0 31 23 23 23 23 25 25 17 12 22
3410.0 16 16 15 15 16 27 16 16 28 27
3450.0 38 37 53 56 68 70 58 60 39 40
3490.0 30 20 20 19 0 12 12 12 12 12
3530.0 6 12 14 3 14 4 15 15 15 6
3570.0 0 11 14 27 19 16 6 6 9 16
3610.0 9 9 5 11 9 2 18 19 20 20
3650.0 2 22 12 33 24 6 14 5 29 33
3690.0 16 22 31 35 33 24 25 35 35 36
3730.0 36 37 29 42 15 28 36 46 47 47
3770.0 50 59 68 69 63 68 63 58 70 70
3810.0 69 70 60 70 69 72 59 69 67 72
3850.0 73 55 71 72 74 74 74 75 73 85
3890.0 81 79 91 86 86 94 97 96 96 97
3930.0 86 87 88 78 82 96 14 19 22 22
##END=
