##TITLE=Benzene, (2-bromoethyl)-
##JCAMP-DX=4.24
##DATA TYPE=INFRARED SPECTRUM
##ORIGIN=Sadtler Research Labs Under US-EPA Contract
##OWNER=NIST Standard Reference Data Program
##CAS REGISTRY NO=103-63-9
##MOLFORM=C 8 H 9 Br
##XUNITS=1/CM
##YUNITS=ABSORBANCE
##XFACTOR=1.0
##YFACTOR=0.000058496
##DELTAX=4.0
##FIRSTX=450.0
##LASTX=3966.0
##FIRSTY=0.003042
##MAXX=3966
##MINX=450
##MAXY=0.58496
##MINY=0
##NPOINTS=880
##XYDATA=(X++(Y..Y))
450.0 52 115 274 585 868 1128 1294 1353 1379 1376
490.0 1042 684 545 198 111 123 156 334 508 558
530.0 940 1548 2866 3965 3878 2817 1600 1145 909 942
570.0 1173 1053 955 664 264 310 172 362 387 535
610.0 447 283 173 248 588 617 795 1064 1379 2264
650.0 3329 4040 3773 2898 1891 1538 1827 2464 3629 5324
690.0 7575 9347 10000 8793 6716 5053 3612 2929 2535 2522
730.0 3012 3848 4736 5289 5017 4509 3646 2667 2079 1526
770.0 1104 663 505 392 423 462 429 339 278 252
810.0 376 393 382 396 314 265 245 129 220 212
850.0 221 220 197 254 306 571 646 471 490 279
890.0 223 334 415 483 671 800 941 931 957 826
930.0 782 586 468 475 527 550 552 551 424 472
970.0 435 423 528 496 486 492 591 761 885 932
1010.0 880 758 721 954 1519 2038 2024 1639 851 484
1050.0 442 467 673 779 859 901 812 633 376 183
1090.0 318 340 405 322 373 464 548 524 674 687
1130.0 662 657 538 568 534 453 492 655 656 827
1170.0 851 926 1130 1300 1408 1830 2114 2102 1875 1834
1210.0 2732 3865 4514 3834 2444 1665 1219 1088 1031 1090
1250.0 1259 1694 2393 3296 3745 4075 3403 2476 1665 1087
1290.0 886 858 829 851 973 1233 1639 1945 1897 1650
1330.0 1198 921 757 711 623 543 510 462 364 385
1370.0 405 390 401 511 498 493 366 337 355 389
1410.0 461 521 535 650 931 1232 1681 2155 2599 2762
1450.0 2742 2655 2289 2249 1778 1421 875 706 698 969
1490.0 1513 3136 3893 3699 2342 892 507 371 235 377
1530.0 448 347 351 160 384 414 352 99 195 407
1570.0 358 492 507 702 749 855 1074 1430 1919 2032
1610.0 1796 1256 622 425 325 354 294 241 324 172
1650.0 267 30 396 369 351 187 178 217 219 149
1690.0 364 417 347 320 491 553 449 290 456 458
1730.0 448 284 469 485 544 503 597 568 482 511
1770.0 424 321 380 365 425 532 610 756 710 578
1810.0 406 385 368 341 279 227 274 285 266 233
1850.0 330 340 358 392 407 401 498 505 507 476
1890.0 402 360 324 291 265 241 241 224 279 344
1930.0 447 515 556 557 570 607 643 647 570 446
1970.0 274 202 221 214 206 206 177 172 183 199
2010.0 199 216 187 186 194 195 209 216 186 170
2050.0 173 160 166 165 146 161 157 139 137 149
2090.0 157 163 159 134 137 138 134 154 152 131
2130.0 137 128 127 151 155 149 140 123 120 145
2170.0 157 157 163 161 152 150 160 166 184 148
2210.0 142 129 115 130 149 141 144 114 97 112
2250.0 123 120 143 119 112 118 105 121 134 119
2290.0 105 95 86 93 127 151 179 181 163 164
2330.0 195 228 252 302 299 152 156 243 389 437
2370.0 334 263 246 169 140 129 101 109 107 81
2410.0 105 115 116 127 112 79 92 94 104 110
2450.0 113 79 79 78 77 87 86 63 57 58
2490.0 38 66 71 66 75 58 50 59 78 83
2530.0 86 70 57 55 66 73 86 83 66 75
2570.0 68 83 104 105 109 109 99 94 133 147
2610.0 135 162 125 117 136 139 179 193 178 171
2650.0 163 141 166 194 170 162 126 108 127 132
2690.0 130 144 132 134 131 143 149 168 150 133
2730.0 144 135 143 153 150 156 155 147 154 204
2770.0 232 245 256 230 213 223 225 238 246 231
2810.0 220 237 225 283 326 355 427 515 607 740
2850.0 843 901 922 911 916 1008 1095 1136 1115 1063
2890.0 1070 1167 1325 1529 1682 1679 1599 1405 1211 1125
2930.0 1166 1295 1514 1820 2057 2288 2366 2295 2300 2507
2970.0 2835 3181 3425 3141 2436 1700 1211 995 1028 1308
3010.0 1868 2542 3001 3435 4055 5074 6416 7084 6804 5311
3050.0 3772 2856 2542 2744 3616 5159 6123 6085 5001 3699
3090.0 3145 2912 2678 2363 2009 1676 1405 1147 846 580
3130.0 435 297 240 230 219 238 242 208 185 185
3170.0 204 236 224 178 161 136 123 120 155 154
3210.0 151 122 105 104 126 128 163 148 124 114
3250.0 117 121 161 161 141 122 106 80 134 148
3290.0 147 155 120 112 133 120 150 167 148 114
3330.0 132 115 138 169 132 128 120 103 122 158
3370.0 142 174 156 121 148 145 164 170 147 131
3410.0 131 144 134 152 195 156 139 132 138 156
3450.0 184 151 160 134 110 149 154 172 174 138
3490.0 130 138 136 156 186 158 134 135 120 146
3530.0 167 179 157 146 112 141 176 186 194 135
3570.0 121 167 193 190 211 191 217 191 192 228
3610.0 213 200 158 157 155 41 195 214 211 187
3650.0 68 164 167 194 171 120 93 61 137 114
3690.0 70 157 170 140 155 76 73 132 121 107
3730.0 95 14 18 23 19 19 44 60 94 86
3770.0 96 168 166 155 157 124 100 102 68 94
3810.0 108 102 42 59 100 123 115 74 83 91
3850.0 65 16 138 143 136 101 85 137 133 145
3890.0 199 204 160 128 175 208 233 221 215 206
3930.0 189 202 250 254 244 250 0 18 19 19
##END=
