##TITLE=Benzene, isocyanato-
##JCAMP-DX=4.24
##DATA TYPE=INFRARED SPECTRUM
##ORIGIN=Sadtler Research Labs Under US-EPA Contract
##OWNER=NIST Standard Reference Data Program
##CAS REGISTRY NO=103-71-9
##MOLFORM=C 7 H 5 N O
##XUNITS=1/CM
##YUNITS=ABSORBANCE
##XFACTOR=1.0
##YFACTOR=0.000231470
##DELTAX=4.0
##FIRSTX=450.0
##LASTX=3966.0
##FIRSTY=0.007870
##MAXX=3966
##MINX=450
##MAXY=2.3147
##MINY=0
##NPOINTS=880
##XYDATA=(X++(Y..Y))
450.0 34 122 158 142 151 149 166 177 149 164
490.0 208 175 197 166 166 150 137 121 132 130
530.0 120 131 142 139 141 148 148 156 176 168
570.0 229 232 228 223 209 222 219 247 246 275
610.0 251 282 300 249 192 223 219 246 267 291
650.0 329 288 289 190 246 509 395 372 430 529
690.0 503 420 374 294 239 194 120 168 172 144
730.0 202 324 423 554 614 921 943 755 674 586
770.0 413 271 144 80 64 53 41 45 50 46
810.0 43 43 29 14 20 21 4 16 19 14
850.0 12 19 18 20 22 25 24 27 35 38
890.0 44 52 60 82 59 50 45 35 25 13
930.0 11 6 1 1 2 2 0 4 4 4
970.0 9 14 17 17 21 17 13 12 7 9
1010.0 16 35 76 120 112 105 93 48 18 21
1050.0 36 51 63 89 105 100 97 101 87 71
1090.0 75 96 139 219 334 428 463 449 391 271
1130.0 161 122 110 114 120 131 144 146 136 125
1170.0 108 86 75 67 54 42 41 43 44 49
1210.0 55 56 54 61 60 56 59 61 51 48
1250.0 46 38 37 43 52 63 72 68 65 56
1290.0 43 36 37 39 41 43 40 38 34 35
1330.0 34 27 22 26 25 23 26 23 22 24
1370.0 24 19 24 27 27 29 29 26 27 28
1410.0 26 32 25 31 26 32 37 43 64 74
1450.0 67 58 67 83 88 87 83 85 93 116
1490.0 156 249 379 557 746 898 887 801 653 437
1530.0 280 221 191 157 123 97 74 58 63 71
1570.0 80 111 163 241 355 574 919 1229 1214 1079
1610.0 847 477 184 96 66 60 46 40 45 44
1650.0 47 60 70 65 60 47 25 22 17 15
1690.0 19 26 26 33 43 55 61 66 73 74
1730.0 70 64 60 47 38 28 22 20 18 20
1770.0 21 27 35 33 35 32 27 26 24 23
1810.0 23 21 18 18 20 18 19 23 24 24
1850.0 32 38 36 38 44 45 49 48 46 41
1890.0 35 29 25 23 26 26 28 32 34 38
1930.0 41 39 36 38 42 42 40 36 31 22
1970.0 13 13 9 12 14 10 10 13 14 12
2010.0 12 12 10 14 16 14 17 18 17 19
2050.0 24 25 28 34 36 35 41 51 59 69
2090.0 83 92 92 93 85 75 76 75 74 80
2130.0 85 90 99 109 122 139 170 207 253 304
2170.0 357 405 450 499 557 627 709 800 896 974
2210.0 1019 1044 1022 989 1031 1125 1259 1475 1829 2385
2250.0 3195 4304 5764 7354 8340 8830 10000 9342 9988 9367
2290.0 8898 7415 5653 4088 3266 2819 2299 1945 1763 1620
2330.0 1560 1513 1454 1512 1496 1379 1525 1947 1910 1933
2370.0 1697 1500 1292 1065 790 533 352 237 164 123
2410.0 96 80 70 62 58 58 53 49 50 46
2450.0 46 45 47 46 45 44 40 37 34 32
2490.0 24 25 21 17 16 17 17 15 16 16
2530.0 16 20 19 19 25 29 26 25 28 23
2570.0 20 21 21 18 19 18 15 15 19 16
2610.0 17 19 19 18 20 17 11 11 11 10
2650.0 16 12 18 18 16 16 13 12 8 7
2690.0 7 6 9 7 10 10 10 16 15 13
2730.0 20 22 23 24 25 19 19 16 14 8
2770.0 10 5 4 5 7 3 0 2 0 0
2810.0 6 3 0 1 8 5 8 10 3 7
2850.0 10 10 11 12 12 8 12 12 13 13
2890.0 15 15 18 24 19 21 25 27 20 24
2930.0 23 20 17 20 13 13 19 20 20 15
2970.0 18 17 21 23 22 20 27 26 33 42
3010.0 53 55 72 87 103 126 138 149 150 149
3050.0 149 151 171 204 245 286 326 334 312 282
3090.0 209 167 125 95 92 83 71 53 43 38
3130.0 23 11 17 14 9 10 16 9 13 10
3170.0 8 4 6 12 8 9 7 5 6 8
3210.0 2 5 12 6 2 7 10 3 7 8
3250.0 10 10 7 8 15 13 14 8 18 16
3290.0 16 18 14 17 16 15 17 13 15 18
3330.0 21 16 17 2 20 25 18 27 34 39
3370.0 38 55 52 44 60 69 57 66 70 82
3410.0 69 74 72 48 46 42 32 35 35 39
3450.0 25 24 13 18 16 17 16 15 15 8
3490.0 12 2 0 6 13 7 0 15 9 0
3530.0 7 8 12 12 17 17 16 12 4 7
3570.0 10 13 4 16 16 5 13 19 22 18
3610.0 15 6 5 25 22 13 19 13 12 11
3650.0 21 25 12 35 18 24 27 34 38 37
3690.0 65 54 69 48 69 61 72 63 54 69
3730.0 68 50 33 51 26 26 40 32 32 35
3770.0 43 42 49 49 48 58 62 39 51 57
3810.0 61 48 55 71 55 61 76 58 59 59
3850.0 61 62 72 53 56 60 69 57 64 68
3890.0 44 49 45 33 48 38 60 45 46 50
3930.0 55 28 46 42 58 58 53 52 36 33
##END=
