##TITLE=Benzene, isothiocyanato-
##JCAMP-DX=4.24
##DATA TYPE=INFRARED SPECTRUM
##ORIGIN=Sadtler Research Labs Under US-EPA Contract
##OWNER=NIST Standard Reference Data Program
##CAS REGISTRY NO=103-72-0
##MOLFORM=C 7 H 5 N S
##XUNITS=1/CM
##YUNITS=ABSORBANCE
##XFACTOR=1.0
##YFACTOR=0.000056171
##DELTAX=4.0
##FIRSTX=450.0
##LASTX=3966.0
##FIRSTY=0.000337
##MAXX=3966
##MINX=450
##MAXY=0.56171
##MINY=0
##NPOINTS=880
##XYDATA=(X++(Y..Y))
450.0 6 52 45 50 61 48 59 69 58 81
490.0 65 94 36 58 159 96 197 297 274 186
530.0 302 255 277 256 283 322 303 251 204 170
570.0 109 120 82 59 48 54 69 42 32 52
610.0 49 61 56 55 64 64 74 64 72 74
650.0 103 84 110 122 155 259 280 336 411 529
690.0 514 560 517 469 317 163 88 92 100 152
730.0 246 372 509 642 763 1038 806 616 498 347
770.0 198 105 51 33 56 51 63 70 93 68
810.0 46 28 26 16 16 16 16 16 18 20
850.0 16 11 15 27 22 26 24 32 43 61
890.0 79 106 134 157 182 180 192 227 304 416
930.0 513 536 500 399 283 223 159 133 98 91
970.0 86 95 104 99 79 61 43 43 52 53
1010.0 53 38 35 40 34 35 18 17 16 34
1050.0 34 54 61 86 88 78 79 70 62 53
1090.0 43 35 35 35 27 17 18 5 10 9
1130.0 9 8 8 2 8 9 9 10 10 11
1170.0 18 17 3 8 14 16 18 18 18 18
1210.0 19 19 19 19 20 37 49 71 108 153
1250.0 181 189 170 133 106 88 88 89 80 68
1290.0 54 50 51 48 45 37 28 19 27 20
1330.0 20 20 18 18 20 11 11 11 10 10
1370.0 11 18 10 21 19 23 21 27 14 18
1410.0 10 20 8 19 19 20 28 38 40 49
1450.0 65 67 93 112 126 125 140 140 234 519
1490.0 919 968 939 668 249 125 110 111 128 133
1530.0 125 126 134 156 126 75 46 54 67 69
1570.0 102 153 250 377 603 910 1214 1177 972 628
1610.0 267 126 106 92 90 104 98 118 102 93
1650.0 80 90 63 49 39 39 38 41 36 57
1690.0 48 49 64 72 66 59 57 79 65 68
1730.0 67 70 68 60 58 65 67 67 67 60
1770.0 60 67 68 67 68 61 68 75 75 87
1810.0 87 87 78 69 69 68 70 69 68 84
1850.0 86 96 104 105 105 112 121 112 106 105
1890.0 101 97 97 105 122 132 159 177 194 234
1930.0 269 308 358 411 487 550 616 674 736 781
1970.0 854 954 1076 1224 1405 1636 1888 2165 2457 2743
2010.0 3012 3241 3460 3705 3997 4421 5073 6069 7519 9289
2050.0 10000 9747 8385 6528 4865 3578 2709 2210 1985 1985
2090.0 2133 2399 2724 3112 3578 4027 4240 4039 3500 2822
2130.0 2162 1650 1336 1141 1031 982 958 936 913 906
2170.0 916 918 918 911 874 801 700 590 474 379
2210.0 309 259 223 203 175 157 138 129 102 94
2250.0 85 76 67 58 53 53 55 57 48 45
2290.0 50 47 44 48 39 41 29 17 5 3
2330.0 1 1 1 1 6 1 1 1 0 40
2370.0 75 78 87 74 43 30 16 17 16 8
2410.0 8 1 1 8 11 16 15 25 33 43
2450.0 50 51 51 60 51 44 48 53 56 55
2490.0 66 70 66 68 78 69 69 69 78 78
2530.0 78 78 77 77 77 87 87 94 96 104
2570.0 122 132 156 156 156 135 117 99 81 70
2610.0 61 52 44 43 43 43 25 25 22 17
2650.0 16 33 18 17 17 7 7 8 8 17
2690.0 35 34 40 45 44 44 50 59 53 60
2730.0 61 79 87 98 116 131 141 131 121 100
2770.0 90 70 61 51 52 44 44 44 44 48
2810.0 47 42 37 45 41 43 44 44 35 34
2850.0 45 37 36 39 35 34 43 44 33 44
2890.0 43 35 35 34 37 33 44 44 44 44
2930.0 43 43 43 43 53 52 52 52 52 52
2970.0 52 62 62 67 70 77 70 62 61 61
3010.0 60 62 71 72 92 97 107 139 166 176
3050.0 175 167 140 152 170 216 274 319 302 292
3090.0 228 195 185 194 169 139 103 59 53 43
3130.0 37 33 30 27 27 34 18 27 27 26
3170.0 18 25 18 18 17 17 29 24 17 17
3210.0 18 26 17 18 18 17 17 18 17 16
3250.0 22 18 18 18 18 18 17 17 17 17
3290.0 17 17 17 17 17 17 28 17 17 18
3330.0 17 18 16 19 18 18 18 17 17 17
3370.0 17 11 9 10 1 19 7 18 14 19
3410.0 7 18 19 8 19 19 18 19 19 10
3450.0 16 16 15 19 18 18 9 9 18 18
3490.0 18 18 19 16 18 18 18 18 17 21
3530.0 18 20 19 18 17 18 26 13 11 11
3570.0 22 19 18 17 20 25 19 18 19 18
3610.0 18 18 18 18 23 30 29 27 27 35
3650.0 26 35 44 26 34 29 44 41 27 22
3690.0 52 45 44 35 54 36 36 46 35 33
3730.0 42 43 33 49 48 49 57 51 52 53
3770.0 43 52 44 50 39 42 37 53 54 45
3810.0 48 41 41 43 45 46 47 49 50 53
3850.0 48 47 57 60 54 39 41 50 44 55
3890.0 51 43 35 39 40 48 30 32 35 46
3930.0 32 34 43 47 47 51 36 24 38 50
##END=
