##TITLE=Butanoic acid, 3-phenyl-2-propenyl ester
##JCAMP-DX=4.24
##DATA TYPE=INFRARED SPECTRUM
##ORIGIN=Sadtler Research Labs Under US-EPA Contract
##OWNER=NIST Standard Reference Data Program
##CAS REGISTRY NO=103-61-7
##MOLFORM=C 13 H 16 O 2
##XUNITS=1/CM
##YUNITS=ABSORBANCE
##XFACTOR=1.0
##YFACTOR=0.000083398
##DELTAX=4.0
##FIRSTX=450.0
##LASTX=3966.0
##FIRSTY=0.001168
##MAXX=3966
##MINX=450
##MAXY=0.83398
##MINY=0
##NPOINTS=880
##XYDATA=(X++(Y..Y))
450.0 14 79 55 23 20 45 10 58 25 166
490.0 165 232 198 241 193 275 108 241 306 231
530.0 301 254 290 133 132 204 335 256 204 314
570.0 120 203 312 114 135 385 190 359 362 340
610.0 231 313 395 356 293 201 164 307 240 274
650.0 347 259 400 579 528 518 698 1024 1114 1448
690.0 1635 1645 1434 1270 1198 930 954 928 1118 1214
730.0 1389 1590 1706 1755 1644 1223 1008 798 724 525
770.0 484 444 518 481 458 485 496 464 508 422
810.0 483 415 506 483 475 526 505 465 366 425
850.0 488 423 422 466 390 456 489 512 443 502
890.0 461 592 480 536 566 499 509 559 578 574
930.0 595 660 803 829 986 1334 1737 2316 2984 3297
970.0 3277 3217 3057 2816 2448 2126 1769 1489 1216 1062
1010.0 962 876 852 948 1066 1214 1335 1350 1463 1448
1050.0 1381 1391 1475 1548 1583 1673 1870 2029 2297 2584
1090.0 2849 3114 3087 3019 2864 2715 2354 1932 1670 1533
1130.0 1558 1663 1806 2028 2373 2982 3816 5025 6660 8595
1170.0 10000 9958 8737 7004 5997 5318 4936 4505 4027 3545
1210.0 3109 2815 2648 2628 2755 2828 2964 3073 3215 3427
1250.0 3601 3661 3507 3243 2881 2558 2310 2068 1924 1928
1290.0 1947 2042 2096 2054 1928 1598 1338 1201 1087 1024
1330.0 1093 1188 1393 1543 1739 1885 1861 1731 1552 1442
1370.0 1336 1273 1280 1272 1251 1149 942 757 633 556
1410.0 523 528 570 608 652 774 907 972 1068 1175
1450.0 1289 1347 1255 1176 1053 907 757 637 592 577
1490.0 747 1044 1063 829 501 348 291 244 271 239
1530.0 221 232 212 159 189 193 204 206 166 225
1570.0 246 274 296 321 315 365 428 492 511 444
1610.0 348 273 221 229 214 224 225 220 267 268
1650.0 300 282 324 335 317 285 263 257 275 264
1690.0 331 399 424 500 636 775 933 1069 1212 1398
1730.0 1658 2010 2615 3610 5098 6979 8811 9090 7820 5723
1770.0 3964 2749 2043 1618 1333 1149 1010 854 671 540
1810.0 451 383 335 277 253 231 198 196 192 169
1850.0 180 190 195 178 194 195 204 204 207 193
1890.0 194 173 143 148 136 140 124 147 152 178
1930.0 177 202 222 243 220 222 220 223 192 155
1970.0 135 116 120 117 108 99 106 97 111 96
2010.0 91 95 100 105 99 99 96 91 93 99
2050.0 95 101 90 98 80 87 95 81 75 86
2090.0 85 70 65 68 72 58 65 69 76 39
2130.0 58 56 56 62 55 47 52 50 54 49
2170.0 54 44 58 46 51 51 50 47 38 46
2210.0 41 34 49 37 38 49 44 46 39 45
2250.0 30 43 47 35 32 50 29 26 27 46
2290.0 35 14 26 24 2 14 17 0 1 1
2330.0 1 1 1 1 1 1 1 1 1 1
2370.0 1 1 1 3 17 24 29 24 32 19
2410.0 24 45 34 35 27 42 35 15 32 10
2450.0 13 19 24 13 12 19 9 15 20 9
2490.0 20 26 21 20 25 8 13 20 14 13
2530.0 25 21 17 35 17 13 15 22 20 19
2570.0 15 18 14 27 28 26 13 27 26 26
2610.0 16 27 8 20 15 21 22 17 12 19
2650.0 38 22 27 23 17 33 39 34 57 39
2690.0 39 35 55 59 51 55 72 75 87 82
2730.0 81 89 91 82 91 79 77 68 71 73
2770.0 61 81 83 81 101 90 102 121 128 152
2810.0 161 150 154 144 159 157 185 202 203 230
2850.0 264 278 286 355 427 505 661 858 1078 1274
2890.0 1307 1220 1065 939 879 881 915 994 1096 1190
2930.0 1356 1600 1863 2243 2526 2630 2583 2511 2502 2592
2970.0 2780 2968 3060 2861 2404 1931 1477 1155 938 854
3010.0 805 803 774 870 1002 1267 1505 1600 1484 1261
3050.0 1056 887 825 916 1190 1631 1672 1326 980 896
3090.0 848 784 669 569 489 403 328 252 146 112
3130.0 110 91 80 63 58 63 75 79 74 74
3170.0 36 54 37 42 40 28 46 47 29 53
3210.0 44 40 26 46 32 17 27 39 39 41
3250.0 33 30 14 2 46 39 21 56 48 51
3290.0 21 34 22 22 41 54 20 32 33 27
3330.0 40 32 41 45 48 34 22 44 19 34
3370.0 36 26 45 45 29 30 37 26 37 35
3410.0 66 34 32 61 41 35 46 41 44 50
3450.0 58 45 44 57 80 51 68 88 110 96
3490.0 83 93 118 73 62 77 48 61 46 40
3530.0 43 52 60 70 53 29 38 44 44 71
3570.0 76 98 78 105 61 71 59 77 28 54
3610.0 54 49 38 80 53 25 38 66 74 55
3650.0 30 43 43 50 41 14 39 1 12 30
3690.0 13 20 21 18 1 1 1 1 11 1
3730.0 1 1 1 1 1 1 1 1 1 1
3770.0 1 1 1 1 7 1 1 1 1 1
3810.0 1 1 1 1 1 1 1 1 1 1
3850.0 1 1 1 1 1 1 1 1 1 1
3890.0 1 1 1 1 1 1 1 1 1 1
3930.0 1 1 1 1 1 1 1 1 1 1
##END=
