##TITLE=Benzene, ethoxy-
##JCAMP-DX=4.24
##DATA TYPE=INFRARED SPECTRUM
##ORIGIN=Sadtler Research Labs Under US-EPA Contract
##OWNER=NIST Standard Reference Data Program
##CAS REGISTRY NO=103-73-1
##MOLFORM=C 8 H 10 O
##XUNITS=1/CM
##YUNITS=ABSORBANCE
##XFACTOR=1.0
##YFACTOR=0.000089026
##DELTAX=4.0
##FIRSTX=450.0
##LASTX=3966.0
##FIRSTY=0.004184
##MAXX=3966
##MINX=450
##MAXY=0.89026
##MINY=0
##NPOINTS=880
##XYDATA=(X++(Y..Y))
450.0 47 35 24 12 15 28 64 79 96 140
490.0 191 238 281 312 340 334 248 207 150 96
530.0 56 46 32 25 37 39 54 59 77 76
570.0 78 94 90 96 114 106 98 55 91 31
610.0 17 12 16 28 17 3 0 27 16 29
650.0 43 70 108 169 276 485 624 839 1032 1236
690.0 1581 1191 973 749 541 359 234 194 244 354
730.0 572 863 1234 1585 1948 2365 2336 1931 1683 1383
770.0 1046 765 559 451 449 467 476 434 386 276
810.0 176 142 126 98 86 68 46 40 29 36
850.0 36 39 63 89 129 172 207 263 321 339
890.0 396 463 505 516 523 533 539 547 525 488
930.0 422 304 195 138 105 77 57 49 46 52
970.0 55 57 66 77 95 112 140 157 179 209
1010.0 239 291 386 532 717 1000 1400 1863 2300 2617
1050.0 2711 2540 2149 1722 1325 1020 858 800 825 867
1090.0 892 895 889 860 833 842 885 869 816 759
1130.0 600 457 401 414 480 539 627 833 1075 1219
1170.0 1216 1139 937 644 437 385 412 497 643 899
1210.0 1312 1867 2523 3394 4590 5911 7272 8849 10000 9386
1250.0 8067 6470 4029 2306 1636 1367 1307 1360 1413 1499
1290.0 1656 1782 1765 1722 1590 1211 892 672 516 471
1330.0 463 441 426 362 273 222 205 224 276 306
1370.0 342 425 529 678 863 1009 1134 1155 1018 850
1410.0 694 489 356 235 220 227 267 294 319 365
1450.0 425 469 518 578 795 1188 1767 2238 2542 3163
1490.0 4220 4955 4919 4530 3820 2029 922 451 296 209
1530.0 192 180 196 188 174 193 231 312 312 402
1570.0 542 738 1055 1472 1989 2643 3564 4331 4239 3644
1610.0 2896 1886 952 518 338 231 207 155 132 142
1650.0 127 114 74 83 80 94 110 89 132 122
1690.0 110 127 152 127 113 94 109 108 71 62
1730.0 68 87 44 49 61 84 78 100 117 110
1770.0 123 95 72 66 59 63 59 53 54 35
1810.0 43 51 53 71 90 102 100 108 121 126
1850.0 105 87 79 67 59 51 29 27 23 28
1890.0 38 39 48 64 81 100 123 135 145 151
1930.0 166 164 162 156 133 111 85 72 66 73
1970.0 66 72 65 66 65 70 69 66 65 61
2010.0 56 56 57 55 60 72 88 105 111 109
2050.0 96 78 63 57 52 49 48 44 43 43
2090.0 39 34 27 25 19 17 10 11 6 10
2130.0 11 16 16 21 17 17 16 16 16 23
2170.0 21 18 17 16 12 11 6 6 7 7
2210.0 7 0 3 4 2 6 6 6 7 6
2250.0 12 11 18 18 20 26 28 28 29 29
2290.0 29 34 35 35 34 36 29 32 30 21
2330.0 19 16 14 15 15 25 25 25 22 10
2370.0 7 18 13 16 28 29 36 40 40 41
2410.0 40 40 47 40 43 46 43 47 51 52
2450.0 58 63 63 64 63 63 68 63 69 68
2490.0 66 64 54 48 36 37 41 48 47 54
2530.0 61 66 69 69 72 65 60 48 37 37
2570.0 32 32 31 30 26 25 27 27 30 31
2610.0 32 37 37 37 37 37 32 28 26 24
2650.0 21 17 16 16 16 16 16 15 11 10
2690.0 10 15 16 16 19 25 29 37 48 54
2730.0 66 72 77 71 71 69 70 66 66 66
2770.0 72 72 72 77 71 71 67 66 72 74
2810.0 79 91 102 110 127 138 143 160 177 194
2850.0 218 248 297 357 427 516 629 755 867 938
2890.0 995 1041 1069 1104 1141 1157 1187 1187 1092 1025
2930.0 1016 1070 1160 1215 1238 1204 1092 957 862 859
2970.0 959 1171 1465 1768 1974 1996 2091 1681 1314 990
3010.0 763 616 546 535 581 649 737 870 1025 1121
3050.0 1114 1070 1007 901 905 1007 1109 1146 1097 1029
3090.0 944 799 696 649 609 530 428 327 229 154
3130.0 107 73 56 48 41 36 43 38 31 32
3170.0 32 36 32 33 35 31 35 26 27 25
3210.0 26 32 27 27 27 27 28 26 27 23
3250.0 20 20 11 11 16 10 15 21 17 16
3290.0 15 8 14 16 13 10 17 17 5 11
3330.0 5 11 11 4 10 10 5 12 8 6
3370.0 4 8 1 6 7 7 10 7 8 9
3410.0 1 10 4 8 1 1 7 1 13 1
3450.0 3 8 7 11 2 12 9 10 13 6
3490.0 8 1 2 1 10 2 7 10 7 2
3530.0 6 1 13 8 12 6 8 6 14 5
3570.0 6 7 4 12 18 13 13 18 14 25
3610.0 23 17 24 22 27 17 12 19 26 23
3650.0 27 24 31 29 31 38 26 30 25 28
3690.0 35 26 25 35 31 41 28 37 37 33
3730.0 33 45 38 40 44 41 27 27 27 27
3770.0 33 35 34 39 32 36 38 43 41 36
3810.0 31 36 38 39 34 34 44 42 39 44
3850.0 38 49 39 39 30 36 30 35 34 38
3890.0 34 41 34 36 33 29 31 35 34 38
3930.0 38 35 30 27 32 32 37 42 42 47
##END=
