##TITLE=Acetamide, N-phenyl-
##JCAMP-DX=4.24
##DATA TYPE=INFRARED SPECTRUM
##ORIGIN=Sadtler Research Labs Under US-EPA Contract
##OWNER=NIST Standard Reference Data Program
##CAS REGISTRY NO=103-84-4
##MOLFORM=C 8 H 9 N O
##XUNITS=1/CM
##YUNITS=ABSORBANCE
##XFACTOR=1.0
##YFACTOR=0.000071503
##DELTAX=4.0
##FIRSTX=450.0
##LASTX=3966.0
##FIRSTY=0.000000
##MAXX=3966
##MINX=450
##MAXY=0.71503
##MINY=0
##NPOINTS=880
##XYDATA=(X++(Y..Y))
450.0 0 110 70 181 363 288 500 612 816 847
490.0 1070 1111 1192 1055 956 892 743 865 834 1237
530.0 1488 1481 1426 1198 778 408 381 291 315 188
570.0 222 200 176 244 199 205 177 269 200 270
610.0 243 284 259 249 257 227 251 203 251 206
650.0 237 272 339 414 473 688 767 909 1046 1330
690.0 1404 1343 1278 1126 883 703 551 445 484 550
730.0 768 1014 1352 1711 2009 2200 1869 1441 1148 864
770.0 550 405 280 237 194 204 201 184 184 146
810.0 157 107 162 168 171 150 158 148 98 124
850.0 89 125 78 128 115 111 141 155 193 180
890.0 272 268 305 269 301 259 237 239 205 216
930.0 193 232 181 210 205 216 219 258 321 338
970.0 443 505 620 664 747 773 766 724 650 605
1010.0 498 477 438 506 582 622 610 615 580 504
1050.0 525 519 574 568 602 584 555 508 451 418
1090.0 341 344 300 288 226 234 192 155 151 130
1130.0 141 110 156 126 157 157 185 196 215 289
1170.0 328 421 457 560 600 684 764 911 1114 1354
1210.0 1635 1911 2293 2591 2872 3343 3905 3946 3722 3400
1250.0 2494 1543 1069 987 989 1165 1390 1711 2000 2278
1290.0 2597 3048 3613 4049 4300 4390 3883 3031 2284 1591
1330.0 1015 741 545 563 546 700 873 1281 1701 2062
1370.0 2340 2293 2064 1618 1406 1063 996 953 1014 1081
1410.0 1090 1435 1642 2547 3606 5113 5739 5931 5181 4072
1450.0 2233 1673 1097 1176 1242 1319 1503 1529 1948 2354
1490.0 3471 5275 6598 8427 9267 9176 10000 7844 7403 4489
1530.0 3609 2034 1298 1297 797 856 623 926 580 756
1570.0 749 835 896 1073 1488 2031 2869 3745 4091 3810
1610.0 2980 1994 1113 645 438 425 305 418 353 399
1650.0 337 445 383 360 420 383 490 500 714 743
1690.0 973 1141 1433 1827 2393 3633 5108 7131 8776 8722
1730.0 8793 7267 5885 4142 3082 2342 1887 1672 1319 1257
1770.0 992 863 637 590 440 363 321 271 257 195
1810.0 232 171 201 184 207 183 200 219 216 235
1850.0 216 234 198 218 190 188 167 160 147 124
1890.0 133 113 124 107 128 122 132 137 153 162
1930.0 160 183 170 188 155 158 128 125 110 86
1970.0 78 71 80 57 72 66 69 61 68 67
2010.0 63 80 67 78 67 82 71 81 81 76
2050.0 76 74 86 75 82 73 79 66 66 66
2090.0 58 63 61 70 63 78 75 78 75 82
2130.0 86 81 89 79 83 72 85 75 76 76
2170.0 78 80 69 76 62 71 66 70 62 67
2210.0 65 61 64 57 68 60 65 60 60 64
2250.0 67 68 66 73 66 73 64 68 61 63
2290.0 64 65 71 72 86 75 88 76 84 75
2330.0 82 92 81 103 92 86 74 67 62 56
2370.0 58 61 73 65 71 62 64 59 63 61
2410.0 61 68 65 74 70 75 69 79 78 80
2450.0 81 83 86 74 79 67 71 62 71 63
2490.0 67 70 68 72 68 85 82 88 88 88
2530.0 88 83 86 79 76 64 69 58 62 61
2570.0 62 57 56 63 57 67 58 61 51 59
2610.0 58 56 60 57 63 60 64 64 72 73
2650.0 79 80 81 86 84 85 80 82 72 72
2690.0 72 72 68 67 75 72 75 74 79 79
2730.0 83 84 81 86 79 75 70 80 71 70
2770.0 67 68 69 65 67 68 71 74 74 68
2810.0 80 78 76 79 83 89 80 95 87 94
2850.0 98 102 112 112 113 110 125 107 119 119
2890.0 134 138 151 161 168 193 200 213 237 275
2930.0 302 335 350 360 349 319 292 256 242 229
2970.0 228 225 225 220 209 222 231 251 271 314
3010.0 385 481 585 708 816 883 918 911 883 833
3050.0 835 904 1036 1180 1258 1277 1228 1094 915 791
3090.0 710 649 600 552 505 433 377 301 254 200
3130.0 169 146 132 119 107 107 96 94 84 86
3170.0 79 83 78 76 73 72 72 70 75 59
3210.0 63 69 65 58 65 72 68 68 78 78
3250.0 65 74 75 73 75 64 71 70 68 69
3290.0 80 69 79 81 79 76 73 81 73 73
3330.0 72 81 86 82 84 78 86 72 83 76
3370.0 93 86 94 104 103 125 140 150 162 197
3410.0 223 245 260 299 315 345 361 363 370 404
3450.0 446 500 576 605 635 578 517 477 349 266
3490.0 193 151 138 124 114 96 93 75 86 68
3530.0 73 78 72 84 74 68 66 85 75 80
3570.0 64 83 86 100 98 87 97 73 86 59
3610.0 78 63 84 64 71 91 67 78 88 64
3650.0 78 71 57 78 65 94 87 88 76 71
3690.0 51 68 79 76 88 72 68 85 69 84
3730.0 79 90 92 93 87 52 84 71 88 74
3770.0 87 69 89 94 96 86 79 84 86 94
3810.0 64 109 100 105 85 68 101 87 115 75
3850.0 75 101 112 111 103 74 100 107 102 105
3890.0 78 95 79 73 62 108 97 89 111 110
3930.0 89 82 94 66 69 93 83 80 73 86
##END=
