##TITLE=Benzene, propyl-
##JCAMP-DX=4.24
##DATA TYPE=INFRARED SPECTRUM
##ORIGIN=Sadtler Research Labs Under US-EPA Contract
##OWNER=NIST Standard Reference Data Program
##CAS REGISTRY NO=103-65-1
##MOLFORM=C 9 H 12
##XUNITS=1/CM
##YUNITS=ABSORBANCE
##XFACTOR=1.0
##YFACTOR=0.000053445
##DELTAX=4.0
##FIRSTX=450.0
##LASTX=3966.0
##FIRSTY=0.000000
##MAXX=3966
##MINX=450
##MAXY=0.53445
##MINY=0
##NPOINTS=880
##XYDATA=(X++(Y..Y))
450.0 0 106 165 180 291 396 471 705 811 870
490.0 867 757 539 457 304 171 120 119 128 82
530.0 112 102 90 103 115 236 315 340 485 504
570.0 444 404 355 324 317 290 226 202 146 126
610.0 90 79 67 74 75 108 111 124 149 159
650.0 157 169 206 218 256 472 701 1193 1940 2919
690.0 3961 5034 5817 5003 4356 3505 2753 2323 2319 2716
730.0 3395 4245 5002 5181 4609 3632 2610 1747 1152 762
770.0 520 373 306 257 217 207 198 197 195 205
810.0 247 316 347 341 327 248 176 152 141 131
850.0 139 148 162 174 188 210 223 259 297 308
890.0 306 329 348 340 332 308 255 216 171 143
930.0 133 122 125 120 122 125 121 117 118 119
970.0 124 127 129 113 113 124 121 119 134 140
1010.0 170 219 318 506 709 774 763 729 596 497
1050.0 453 451 442 397 359 346 371 420 493 580
1090.0 645 682 686 652 564 465 399 337 262 205
1130.0 162 144 128 125 116 112 109 110 109 107
1170.0 107 114 121 129 141 161 183 211 220 227
1210.0 211 188 169 168 169 181 199 205 206 202
1250.0 195 193 198 201 216 234 242 260 268 285
1290.0 273 253 222 219 215 240 255 276 279 307
1330.0 369 512 699 717 658 610 459 327 292 308
1370.0 367 502 652 758 818 800 687 528 389 313
1410.0 329 284 365 340 444 483 691 820 1176 1544
1450.0 1901 2085 2146 2278 1987 1775 1486 1299 1153 1395
1490.0 2010 2510 2512 2410 1953 1103 589 412 335 317
1530.0 356 265 284 198 284 243 215 157 154 254
1570.0 247 324 290 467 509 652 839 1125 1369 1456
1610.0 1350 1099 694 407 298 199 204 174 237 164
1650.0 269 69 220 166 171 103 172 103 179 76
1690.0 163 125 120 74 174 167 185 151 192 183
1730.0 224 181 226 221 268 245 217 194 161 160
1770.0 161 139 187 220 284 385 410 463 451 363
1810.0 273 228 191 194 165 161 165 144 174 171
1850.0 202 208 246 275 302 300 307 312 302 281
1890.0 240 210 157 123 118 119 146 152 217 253
1930.0 312 357 372 408 439 417 372 314 253 181
1970.0 111 93 95 94 91 102 93 87 84 80
2010.0 81 83 86 88 87 85 83 89 84 80
2050.0 74 76 71 76 87 78 80 83 86 82
2090.0 83 79 75 70 68 69 65 65 70 68
2130.0 69 71 70 71 76 75 78 81 86 83
2170.0 85 80 78 77 76 78 78 78 76 78
2210.0 80 77 75 74 75 72 83 83 81 81
2250.0 81 74 76 75 68 68 71 73 79 84
2290.0 83 90 97 104 116 124 119 121 116 100
2330.0 103 110 103 109 117 142 98 118 98 89
2370.0 94 108 104 115 112 109 106 100 106 111
2410.0 119 118 119 113 108 100 99 95 93 93
2450.0 90 90 92 88 88 83 83 89 84 87
2490.0 93 93 94 97 98 99 98 103 99 113
2530.0 106 110 118 119 122 124 123 121 128 127
2570.0 129 126 126 129 131 133 138 141 143 152
2610.0 156 157 162 166 166 169 167 163 161 168
2650.0 159 155 157 162 171 178 193 203 196 181
2690.0 164 154 149 144 143 151 159 175 174 187
2730.0 199 210 231 236 244 242 232 219 203 200
2770.0 205 213 236 258 292 325 343 349 353 358
2810.0 365 380 412 447 489 553 626 742 901 1110
2850.0 1404 1759 2161 2652 3231 3758 4326 5066 5340 5049
2890.0 4643 3895 3199 2945 3038 3387 3936 4680 5661 6840
2930.0 8123 9214 9927 9946 9389 8482 7673 7341 7709 8698
2970.0 10000 9680 8680 7000 4904 2985 2075 1700 1578 1572
3010.0 1649 1863 2249 2902 3936 5014 5528 5660 5262 4223
3050.0 3029 2421 2395 2875 3666 4185 4399 4329 3852 3055
3090.0 2569 2271 2059 1762 1474 1243 1033 852 665 493
3130.0 374 295 261 227 222 200 200 203 213 213
3170.0 204 201 191 180 173 173 156 157 154 148
3210.0 143 136 128 123 122 115 106 109 105 101
3250.0 103 104 104 107 110 113 118 124 123 121
3290.0 117 116 109 111 105 106 98 99 100 97
3330.0 102 108 106 114 103 112 109 104 102 115
3370.0 114 118 110 97 111 124 112 105 113 105
3410.0 109 119 113 121 110 104 107 123 120 125
3450.0 129 106 111 115 123 113 115 117 125 132
3490.0 123 120 128 143 138 124 116 121 121 155
3530.0 131 123 137 131 161 157 108 156 114 164
3570.0 141 111 112 103 144 144 122 165 115 149
3610.0 154 157 153 136 177 90 172 157 172 182
3650.0 132 196 158 188 181 115 169 78 176 168
3690.0 116 150 152 153 170 151 144 159 177 194
3730.0 156 134 132 183 49 155 74 181 155 147
3770.0 171 145 161 168 173 149 158 160 92 134
3810.0 145 147 126 94 166 148 137 87 157 138
3850.0 175 65 150 161 167 119 148 122 174 107
3890.0 161 123 183 105 139 132 165 163 178 146
3930.0 145 165 159 166 184 182 199 184 181 163
##END=
