##TITLE=Acetic acid, 2-ethylhexyl ester
##JCAMP-DX=4.24
##DATA TYPE=INFRARED SPECTRUM
##ORIGIN=Sadtler Research Labs Under US-EPA Contract
##OWNER=NIST Standard Reference Data Program
##CAS REGISTRY NO=103-09-3
##MOLFORM=C 10 H 20 O 2
##XUNITS=1/CM
##YUNITS=ABSORBANCE
##XFACTOR=1.0
##YFACTOR=0.000155429
##DELTAX=4.0
##FIRSTX=450.0
##LASTX=3966.0
##FIRSTY=0.070720
##MAXX=3966
##MINX=450
##MAXY=1.55429
##MINY=0
##NPOINTS=880
##XYDATA=(X++(Y..Y))
450.0 455 251 219 231 265 257 300 206 300 172
490.0 190 172 152 160 185 218 176 189 162 210
530.0 188 225 185 130 138 113 151 134 141 150
570.0 133 138 155 201 169 194 167 211 200 252
610.0 247 232 199 208 211 242 269 260 259 183
650.0 166 138 124 99 99 0 43 99 66 78
690.0 55 36 39 41 49 25 51 72 190 108
730.0 127 120 121 94 86 90 69 89 94 138
770.0 165 191 176 205 125 124 119 107 108 96
810.0 100 117 123 136 138 159 158 175 179 178
850.0 176 164 164 155 154 161 173 170 193 201
890.0 221 240 250 239 223 215 186 181 169 184
930.0 192 204 220 229 257 277 313 323 332 322
970.0 322 318 324 324 330 355 374 422 476 568
1010.0 660 817 1007 1240 1518 1814 2129 2301 2293 2050
1050.0 1700 1358 1094 924 818 765 727 708 659 616
1090.0 552 482 419 378 357 333 331 311 290 262
1130.0 244 230 232 247 253 259 267 274 267 275
1170.0 279 291 316 347 396 457 559 696 903 1180
1210.0 1598 2227 3272 4924 7084 9176 10000 9582 7736 5883
1250.0 4297 3186 2492 2057 1758 1499 1281 1091 928 781
1290.0 663 568 503 458 416 387 348 323 285 268
1330.0 255 256 280 293 318 368 489 732 1175 1600
1370.0 1797 1687 1428 1348 1416 1439 1273 983 671 475
1410.0 375 319 320 296 297 295 321 335 375 436
1450.0 540 667 843 983 1063 1069 966 775 563 426
1490.0 332 260 240 218 221 218 206 203 210 188
1530.0 182 166 162 165 144 128 125 144 127 119
1570.0 122 117 113 105 101 96 95 90 90 90
1610.0 95 100 105 100 111 101 112 117 105 111
1650.0 124 129 120 119 129 130 150 141 166 174
1690.0 170 179 205 227 249 294 356 453 514 603
1730.0 726 903 1122 1418 1929 2771 4194 5783 6686 5950
1770.0 4303 2784 1877 1387 1052 822 679 567 476 396
1810.0 331 271 223 188 168 152 139 126 123 120
1850.0 107 95 93 90 91 93 85 84 88 91
1890.0 88 89 85 82 77 75 74 70 73 74
1930.0 74 76 76 81 79 74 72 66 61 58
1970.0 56 55 57 60 62 65 67 64 65 63
2010.0 60 58 53 49 46 48 43 47 51 57
2050.0 58 58 61 61 60 48 51 55 58 61
2090.0 70 79 80 80 79 78 74 75 72 71
2130.0 72 72 73 71 70 71 71 66 64 61
2170.0 57 53 50 48 46 49 50 51 53 54
2210.0 56 53 51 50 50 46 43 42 46 45
2250.0 49 49 51 51 51 52 49 44 41 41
2290.0 42 46 47 52 59 66 76 75 80 77
2330.0 69 57 36 45 10 29 72 62 46 20
2370.0 2 2 2 2 10 19 24 30 34 35
2410.0 39 40 40 41 41 35 31 27 30 27
2450.0 29 29 33 34 40 42 40 38 33 28
2490.0 23 21 17 13 14 14 16 18 21 20
2530.0 24 17 18 10 9 3 3 2 2 4
2570.0 10 13 16 21 20 22 24 25 26 26
2610.0 27 32 34 41 41 47 47 40 44 48
2650.0 46 41 45 46 45 38 35 37 39 42
2690.0 45 46 48 42 46 38 36 39 43 51
2730.0 56 67 79 85 89 89 80 74 70 64
2770.0 61 55 63 74 78 90 99 105 114 121
2810.0 131 139 155 164 183 204 235 275 322 397
2850.0 498 659 911 1252 1628 1918 2020 2026 2043 2052
2890.0 1973 1798 1638 1588 1643 1797 2019 2321 2713 3164
2930.0 3670 4127 4374 4361 4037 3537 3150 3119 3588 4412
2970.0 4982 4684 3656 2434 1558 1088 817 634 513 433
3010.0 368 329 299 280 260 243 223 212 192 190
3050.0 181 167 162 156 153 146 136 113 118 96
3090.0 94 94 82 96 90 80 76 75 66 70
3130.0 53 50 46 45 40 39 51 60 69 67
3170.0 76 66 66 63 51 42 39 47 45 44
3210.0 49 53 61 60 57 59 51 45 35 37
3250.0 48 41 40 53 60 64 59 61 45 40
3290.0 25 25 14 21 18 25 23 37 41 30
3330.0 34 28 31 19 19 19 22 3 27 38
3370.0 30 57 45 27 20 14 40 21 19 13
3410.0 17 20 21 35 32 42 35 26 30 26
3450.0 24 23 15 25 34 36 41 61 60 74
3490.0 84 75 81 83 81 64 56 41 49 43
3530.0 48 41 51 53 56 49 38 42 39 41
3570.0 43 48 45 61 69 74 71 66 59 56
3610.0 37 37 36 48 33 39 49 52 58 75
3650.0 56 57 62 56 56 44 47 48 37 51
3690.0 52 68 66 61 64 59 39 26 22 47
3730.0 23 13 18 35 48 64 50 34 66 47
3770.0 41 27 47 26 39 46 49 54 54 51
3810.0 68 49 56 41 29 28 30 33 41 42
3850.0 43 69 75 50 48 49 44 55 30 31
3890.0 47 52 60 72 69 74 81 74 73 65
3930.0 42 57 101 60 61 90 48 70 75 107
##END=
