##TITLE=2-Propen-1-ol, 3-phenyl-, acetate
##JCAMP-DX=4.24
##DATA TYPE=INFRARED SPECTRUM
##ORIGIN=Sadtler Research Labs Under US-EPA Contract
##OWNER=NIST Standard Reference Data Program
##CAS REGISTRY NO=103-54-8
##MOLFORM=C 11 H 12 O 2
##XUNITS=1/CM
##YUNITS=ABSORBANCE
##XFACTOR=1.0
##YFACTOR=0.000088525
##DELTAX=4.0
##FIRSTX=450.0
##LASTX=3966.0
##FIRSTY=0.019299
##MAXX=3966
##MINX=450
##MAXY=0.88525
##MINY=0
##NPOINTS=880
##XYDATA=(X++(Y..Y))
450.0 218 200 218 162 124 132 62 23 76 173
490.0 207 125 139 106 128 54 15 79 101 163
530.0 89 98 128 35 3 69 70 56 139 153
570.0 59 45 126 121 34 103 225 293 250 214
610.0 244 196 166 137 127 232 231 189 210 242
650.0 212 176 193 198 182 347 376 364 491 730
690.0 813 700 622 597 484 372 393 362 419 514
730.0 603 660 797 882 768 584 420 304 234 200
770.0 144 150 185 162 119 84 182 180 122 183
810.0 223 213 171 178 193 170 239 243 207 204
850.0 234 237 216 183 176 189 193 192 184 240
890.0 252 215 211 253 255 223 199 222 195 193
930.0 249 244 288 370 479 568 806 1129 1444 1473
970.0 1273 994 767 659 573 566 611 703 796 913
1010.0 1099 1295 1487 1704 1825 1752 1563 1266 949 770
1050.0 731 722 673 678 744 730 708 701 715 706
1090.0 651 615 540 510 524 512 471 391 315 239
1130.0 217 180 161 180 199 175 197 242 235 216
1170.0 238 286 327 366 447 518 633 822 1064 1401
1210.0 1913 2863 4387 6388 8848 10000 8218 6357 4615 3292
1250.0 2667 2379 2062 1640 1275 1017 804 698 633 549
1290.0 518 512 495 447 417 369 289 252 257 269
1330.0 243 246 233 247 247 295 439 723 1201 1408
1370.0 1300 1051 963 963 907 792 618 475 378 296
1410.0 252 236 253 223 231 267 310 364 395 484
1450.0 518 503 469 375 331 285 267 219 214 254
1490.0 351 475 520 435 323 242 171 140 166 163
1530.0 140 115 155 176 132 127 125 134 126 132
1570.0 138 136 173 175 164 153 189 232 245 222
1610.0 182 154 144 119 99 116 131 136 145 168
1650.0 200 216 193 201 167 173 169 153 130 174
1690.0 176 160 182 250 292 305 347 371 389 457
1730.0 532 677 848 1125 1460 1929 2642 3500 4399 4678
1770.0 4053 2956 2073 1482 1058 789 649 556 429 341
1810.0 318 299 270 217 191 158 137 130 107 116
1850.0 113 115 115 104 110 121 119 116 115 117
1890.0 142 109 78 79 81 81 68 91 98 89
1930.0 108 101 101 106 111 109 96 110 112 95
1970.0 61 59 61 66 67 59 71 73 71 53
2010.0 53 65 54 65 65 70 65 69 74 51
2050.0 54 76 77 57 67 79 69 51 51 62
2090.0 57 61 52 52 67 54 47 48 50 59
2130.0 55 66 53 48 55 50 35 36 57 56
2170.0 41 40 52 42 36 42 36 47 48 50
2210.0 42 39 47 39 35 39 46 50 55 43
2250.0 39 46 44 34 32 53 55 35 42 38
2290.0 39 26 37 37 26 62 70 44 23 47
2330.0 69 48 50 89 114 57 28 12 109 149
2370.0 73 86 76 61 32 21 29 12 22 34
2410.0 26 22 30 43 22 18 32 39 33 37
2450.0 47 43 47 31 36 31 41 37 29 36
2490.0 35 32 28 20 19 23 40 28 17 31
2530.0 33 12 7 21 24 23 22 39 27 22
2570.0 27 21 16 26 37 32 25 32 31 27
2610.0 26 15 30 42 30 12 27 29 16 3
2650.0 26 35 19 29 25 20 13 18 17 7
2690.0 22 38 30 25 21 30 31 18 18 40
2730.0 47 46 25 25 37 21 26 26 34 34
2770.0 35 37 14 18 41 28 18 34 59 41
2810.0 26 34 39 34 37 45 46 57 51 50
2850.0 44 46 65 65 91 87 109 137 142 131
2890.0 141 175 162 129 136 157 127 119 134 149
2930.0 187 217 268 322 386 467 477 461 431 388
2970.0 350 305 283 267 261 240 210 197 231 242
3010.0 237 275 314 350 412 549 716 779 789 665
3050.0 532 460 419 434 520 747 825 696 497 426
3090.0 416 385 339 263 237 220 184 132 87 75
3130.0 37 48 51 29 37 54 67 25 14 47
3170.0 34 6 18 33 32 31 14 17 15 20
3210.0 24 7 40 30 22 27 8 19 13 34
3250.0 20 10 46 44 9 3 25 23 13 18
3290.0 46 34 17 29 7 9 30 38 29 18
3330.0 40 36 20 15 4 36 35 19 22 44
3370.0 42 9 3 30 41 13 41 39 28 24
3410.0 27 16 0 35 50 32 24 25 44 12
3450.0 7 18 41 51 28 23 36 47 14 24
3490.0 36 57 66 69 76 43 53 58 34 26
3530.0 44 61 31 14 36 29 23 7 23 32
3570.0 57 41 22 16 15 40 18 41 36 35
3610.0 55 36 16 19 39 37 12 38 51 31
3650.0 18 41 34 24 15 38 47 44 55 20
3690.0 26 21 25 40 18 35 52 34 30 1
3730.0 17 55 40 23 58 74 50 25 13 24
3770.0 3 26 42 23 28 28 31 3 20 45
3810.0 31 29 36 52 27 14 3 12 33 35
3850.0 37 54 66 37 25 25 6 20 39 64
3890.0 32 23 45 36 7 5 44 58 41 40
3930.0 36 29 11 8 3 27 1 3 3 3
##END=
