##TITLE=Phenoxy ethyl isobutyrate
##JCAMP-DX=4.24
##DATA TYPE=INFRARED SPECTRUM
##ORIGIN=Sadtler Research Labs Under US-EPA Contract
##OWNER=NIST Standard Reference Data Program
##CAS REGISTRY NO=103-60-6
##MOLFORM=C 12 H 16 O 3
##XUNITS=1/CM
##YUNITS=ABSORBANCE
##XFACTOR=1.0
##YFACTOR=0.000099152
##DELTAX=4.0
##FIRSTX=450.0
##LASTX=3966.0
##FIRSTY=0.040652
##MAXX=3966
##MINX=450
##MAXY=0.99152
##MINY=0
##NPOINTS=880
##XYDATA=(X++(Y..Y))
450.0 410 338 77 107 251 170 329 228 122 203
490.0 0 729 389 687 396 411 573 458 313 242
530.0 239 259 242 185 168 245 99 298 199 208
570.0 153 180 208 254 189 216 239 310 278 252
610.0 218 210 169 194 165 167 140 133 185 175
650.0 191 222 225 256 293 410 517 777 959 1208
690.0 1456 1266 1030 753 565 463 351 347 343 402
730.0 531 618 928 1311 1804 2327 2504 2079 1635 1341
770.0 1094 950 779 687 642 555 477 432 449 440
810.0 424 468 477 521 523 447 364 427 399 429
850.0 437 423 409 471 536 437 468 624 561 603
890.0 660 708 621 642 719 675 731 650 736 834
930.0 964 1036 1175 1125 1070 875 771 681 557 543
970.0 486 472 473 485 536 595 672 777 791 804
1010.0 743 686 695 764 882 1002 1156 1356 1642 1943
1050.0 2181 2399 2593 2826 3050 3159 3287 3351 3411 3322
1090.0 3253 3035 2781 2561 2429 2422 2564 2738 2998 3277
1130.0 3673 4174 4911 5996 7318 8912 10000 9753 8498 6803
1170.0 5513 4739 4656 5187 6040 6382 5779 4694 3985 3811
1210.0 4065 4649 5246 5736 6062 6580 7235 7704 8331 8021
1250.0 7212 5944 4705 3971 3222 2798 2531 2461 2466 2394
1290.0 2364 2316 2299 2048 1709 1419 1182 1095 1031 1102
1330.0 1248 1389 1556 1602 1509 1397 1209 1074 964 900
1370.0 898 922 938 946 1058 1270 1416 1434 1228 1005
1410.0 864 638 622 514 495 540 621 710 793 903
1450.0 1175 1347 1880 2164 2295 2494 2687 2745 2695 2823
1490.0 3863 5425 5835 4932 3052 1444 978 629 528 490
1530.0 328 366 283 315 345 275 348 356 376 507
1570.0 580 803 988 1418 1983 2642 3618 3730 3846 3111
1610.0 1779 1119 692 414 404 250 282 215 218 184
1650.0 186 209 166 226 159 178 230 212 275 272
1690.0 304 325 443 424 515 572 695 854 946 1186
1730.0 1476 2013 2705 3632 4985 6933 7553 8342 6869 5034
1770.0 3759 2504 1849 1361 1025 821 613 518 415 322
1810.0 291 238 234 211 211 217 210 203 201 203
1850.0 188 165 166 142 152 152 114 107 107 106
1890.0 118 110 124 119 141 153 174 186 218 200
1930.0 189 191 188 206 189 158 140 132 132 140
1970.0 142 135 158 146 151 186 172 174 159 160
2010.0 161 160 171 165 170 154 152 152 141 136
2050.0 131 125 128 131 137 125 125 124 111 111
2090.0 106 96 101 92 90 84 81 80 73 71
2130.0 74 70 73 68 67 63 61 62 58 58
2170.0 55 52 55 52 50 50 48 49 51 50
2210.0 52 49 50 46 45 51 53 55 50 55
2250.0 57 56 66 65 67 73 73 78 79 79
2290.0 83 81 84 84 89 87 85 80 85 74
2330.0 70 74 69 75 68 84 59 79 69 59
2370.0 80 70 76 81 79 81 82 81 78 83
2410.0 81 81 85 85 86 83 88 88 85 85
2450.0 86 88 87 89 86 93 89 94 95 96
2490.0 102 96 95 97 91 95 95 99 100 101
2530.0 103 104 108 110 105 109 102 101 100 95
2570.0 98 93 89 90 83 83 80 80 82 81
2610.0 85 75 71 76 77 80 76 77 74 72
2650.0 70 69 72 69 69 71 74 68 70 69
2690.0 77 70 82 83 85 89 97 101 110 119
2730.0 129 141 147 153 143 140 137 139 137 136
2770.0 145 147 150 149 152 153 159 158 158 160
2810.0 167 170 183 200 210 219 228 238 266 291
2850.0 340 395 456 538 640 780 967 1170 1381 1537
2890.0 1574 1510 1420 1356 1320 1327 1390 1498 1648 1785
2930.0 1910 2023 2127 2272 2459 2641 2757 2761 2718 2737
2970.0 2884 3252 3730 4056 3895 3277 2550 1960 1518 1198
3010.0 945 770 652 595 580 621 700 801 921 1021
3050.0 1014 910 802 774 852 949 1061 1130 1107 966
3090.0 780 687 662 638 578 496 395 303 230 184
3130.0 163 142 135 123 119 119 115 114 113 109
3170.0 117 115 109 117 118 120 117 112 106 107
3210.0 101 101 93 90 97 96 94 84 79 79
3250.0 86 86 87 82 73 82 77 78 82 74
3290.0 88 87 80 86 90 92 85 93 98 86
3330.0 88 94 85 88 76 84 94 101 96 88
3370.0 87 96 88 96 84 90 95 97 99 96
3410.0 96 98 94 91 90 99 99 94 96 108
3450.0 94 109 108 119 125 126 123 139 163 152
3490.0 161 176 159 148 139 129 126 112 116 114
3530.0 115 107 110 102 121 88 99 112 109 100
3570.0 113 92 112 104 110 92 107 110 106 108
3610.0 85 106 83 119 99 107 100 119 117 124
3650.0 73 113 87 114 127 95 117 46 130 98
3690.0 121 90 114 113 117 121 96 106 133 96
3730.0 117 80 86 127 48 126 67 130 109 117
3770.0 112 99 124 101 116 130 89 110 81 119
3810.0 140 101 119 67 133 117 103 110 84 140
3850.0 91 112 103 106 116 61 112 102 97 118
3890.0 128 73 120 109 108 123 122 146 107 157
3930.0 102 76 119 96 83 106 104 114 116 118
##END=
