##TITLE=N,N-Bis(2-hydroxypropyl)ethanolamine
##JCAMP-DX=4.24
##DATA TYPE=INFRARED SPECTRUM
##ORIGIN=Sadtler Research Labs Under US-EPA Contract
##OWNER=NIST Standard Reference Data Program
##CAS REGISTRY NO=10353-86-3
##MOLFORM=C 8 H 19 N O 3
##XUNITS=1/CM
##YUNITS=ABSORBANCE
##XFACTOR=1.0
##YFACTOR=0.000046649
##DELTAX=4.0
##FIRSTX=450.0
##LASTX=3966.0
##FIRSTY=0.000000
##MAXX=3966
##MINX=450
##MAXY=0.46649
##MINY=0
##NPOINTS=880
##XYDATA=(X++(Y..Y))
450.0 0 335 308 376 392 390 283 40 458 113
490.0 168 304 345 486 193 309 224 128 401 283
530.0 375 448 352 459 421 299 328 197 294 230
570.0 267 342 343 296 252 282 232 125 255 215
610.0 218 169 77 120 179 184 177 196 206 253
650.0 224 251 249 239 170 337 218 235 328 281
690.0 268 358 356 347 349 373 388 438 437 416
730.0 420 413 405 452 235 424 513 635 505 596
770.0 629 667 726 735 811 867 877 935 962 913
810.0 884 888 963 1061 1239 1448 1596 1705 1800 1649
850.0 1563 1522 1453 1568 1596 1537 1416 1320 1188 1146
890.0 1151 1179 1219 1322 1388 1471 1526 1655 1818 1980
930.0 2136 2297 2346 2310 2199 2060 1932 1870 1899 1935
970.0 1975 2025 1979 1859 1790 1782 1805 1924 2119 2418
1010.0 2780 3278 3884 4510 5348 6337 7429 8526 9347 9923
1050.0 10000 9737 9179 8535 7960 7680 7511 7469 7424 7203
1090.0 6749 6273 5674 5216 4847 4527 4359 4197 4121 4023
1130.0 4052 4040 3944 3735 3454 3163 2916 2719 2590 2519
1170.0 2389 2287 2247 2143 2071 1996 1947 1929 1963 2044
1210.0 2092 2133 2168 2257 2367 2461 2584 2721 2878 2991
1250.0 3169 3317 3490 3699 3911 3996 4011 3971 3889 3781
1290.0 3550 3377 3186 3109 3066 3013 3070 3177 3253 3423
1330.0 3394 3385 3336 3214 3180 3131 3152 3200 3339 3626
1370.0 3867 4264 4663 4768 4613 4277 3980 3764 3436 3201
1410.0 2854 2544 2293 1955 1731 1628 1593 1730 1789 2057
1450.0 2338 2580 2615 2644 2274 1969 1598 1314 1055 860
1490.0 732 619 570 496 513 513 428 442 361 370
1530.0 397 309 395 260 331 283 263 308 224 289
1570.0 240 239 250 193 248 197 228 196 212 226
1610.0 187 246 199 234 241 218 216 218 199 224
1650.0 238 168 281 187 271 171 271 205 268 217
1690.0 246 252 237 256 288 299 235 245 236 232
1730.0 245 165 241 174 209 198 162 170 194 236
1770.0 223 237 194 226 205 170 88 82 127 141
1810.0 138 177 190 169 158 188 175 213 164 200
1850.0 143 174 172 175 187 181 177 171 170 171
1890.0 177 167 167 179 190 171 163 172 177 177
1930.0 155 161 189 169 173 159 151 145 161 171
1970.0 172 177 138 129 149 143 152 135 143 142
2010.0 142 142 128 126 129 134 132 133 109 103
2050.0 106 129 138 125 118 128 121 86 71 102
2090.0 108 129 87 85 118 102 105 85 81 108
2130.0 102 91 101 88 86 91 110 79 74 94
2170.0 74 88 103 116 98 74 110 102 96 100
2210.0 107 79 96 76 92 92 74 83 106 81
2250.0 101 94 93 101 112 98 92 94 104 117
2290.0 89 84 100 94 82 110 88 129 95 140
2330.0 116 121 179 80 202 95 192 130 147 74
2370.0 120 108 114 108 109 114 123 124 120 109
2410.0 124 120 136 143 133 132 126 131 114 120
2450.0 128 118 121 120 135 114 113 132 123 120
2490.0 111 115 115 112 116 116 126 133 132 146
2530.0 137 143 137 149 156 153 167 176 167 173
2570.0 182 175 188 204 199 203 235 236 252 251
2610.0 275 285 303 316 347 346 350 367 386 403
2650.0 427 430 460 467 484 499 490 516 517 539
2690.0 568 586 615 648 674 698 743 785 807 851
2730.0 883 916 954 982 1045 1089 1166 1221 1305 1394
2770.0 1474 1566 1687 1821 1974 2170 2401 2701 3068 3496
2810.0 4047 4576 5089 5506 5741 5749 5553 5237 4870 4511
2850.0 4203 3993 3910 3974 4242 4691 5308 5995 6568 6930
2890.0 7004 6821 6575 6249 6030 5943 5897 5976 6114 6388
2930.0 6834 7316 7683 7774 7560 7191 6787 6571 6642 7198
2970.0 8009 8619 8631 7866 6559 5045 3542 2331 1467 1009
3010.0 805 669 567 497 446 402 348 317 294 254
3050.0 238 215 223 202 183 180 174 179 158 161
3090.0 158 166 164 159 152 143 139 142 136 118
3130.0 128 124 113 120 112 110 123 130 124 130
3170.0 141 129 124 155 146 141 154 126 123 116
3210.0 122 117 110 100 93 75 89 101 84 76
3250.0 92 91 89 93 103 92 93 93 116 110
3290.0 105 115 109 126 137 134 143 156 151 164
3330.0 173 177 166 189 206 241 210 216 243 268
3370.0 251 276 275 299 321 314 348 343 378 407
3410.0 414 426 447 476 483 516 536 561 591 643
3450.0 628 691 722 742 768 809 803 856 924 956
3490.0 1008 1044 1144 1209 1326 1422 1541 1672 1833 1987
3530.0 2147 2298 2446 2497 2592 2611 2631 2530 2478 2348
3570.0 2255 2015 1923 1714 1662 1440 1300 1179 1076 968
3610.0 911 817 735 778 657 768 741 871 953 1181
3650.0 1240 1557 1441 1562 1400 1214 1180 794 808 494
3690.0 448 300 271 211 149 133 149 89 167 82
3730.0 141 99 54 168 52 231 60 107 64 85
3770.0 72 64 75 64 61 88 61 136 66 83
3810.0 67 117 63 69 88 64 78 141 51 105
3850.0 49 107 96 135 110 75 138 81 89 71
3890.0 152 56 127 65 86 107 63 98 64 107
3930.0 62 149 61 64 62 97 74 65 75 70
##END=
