##TITLE=Oxadiazole, 1,2,4-, 5-ethyl-3-phenyl-,
##JCAMP-DX=4.24
##DATA TYPE=INFRARED SPECTRUM
##ORIGIN=Sadtler Research Labs Under US-EPA Contract
##OWNER=NIST Standard Reference Data Program
##CAS REGISTRY NO=10364-68-8
##MOLFORM=C 10 H 10 N 2 O
##XUNITS=1/CM
##YUNITS=ABSORBANCE
##XFACTOR=1.0
##YFACTOR=0.000072458
##DELTAX=4.0
##FIRSTX=450.0
##LASTX=3966.0
##FIRSTY=0.028766
##MAXX=3966
##MINX=450
##MAXY=0.72458
##MINY=0
##NPOINTS=880
##XYDATA=(X++(Y..Y))
450.0 397 227 151 0 176 159 210 231 206 289
490.0 309 273 313 330 294 290 322 298 278 285
530.0 250 214 169 146 130 147 108 138 136 153
570.0 127 106 125 100 99 109 128 114 120 112
610.0 142 100 135 146 150 174 203 256 296 360
650.0 412 503 530 688 707 1030 1422 1942 2925 3899
690.0 5461 5841 6119 6023 5904 5660 5475 5078 4466 3826
730.0 3156 2616 2216 1921 1668 1428 1318 1208 1193 1211
770.0 1308 1396 1452 1391 1147 897 675 523 418 388
810.0 367 355 335 310 286 253 226 206 190 176
850.0 194 204 245 321 418 524 619 730 857 1100
890.0 1447 2005 2968 4486 5497 5149 3690 1909 1026 771
930.0 616 511 442 402 393 451 589 875 1183 1376
970.0 1332 1106 920 780 714 702 781 923 1171 1442
1010.0 1563 1567 1443 1497 1696 1650 1338 849 545 569
1050.0 716 983 1326 1600 1715 1617 1402 1157 941 805
1090.0 755 805 884 981 1185 1711 2579 3128 2901 1892
1130.0 881 510 376 334 308 298 325 321 371 443
1170.0 795 1197 1409 1355 1030 824 815 883 1063 1300
1210.0 1546 1722 1788 1766 1648 1528 1437 1365 1225 1055
1250.0 890 765 736 735 790 869 994 1190 1391 1539
1290.0 1614 1755 2175 3116 4005 4219 3791 3357 3613 4303
1330.0 4750 4868 4992 5495 6380 7252 8072 8706 9413 10000
1370.0 9806 8796 7199 5648 4405 3356 2457 1895 1487 1320
1410.0 1243 1160 1292 1210 1293 1390 1856 2643 4669 6978
1450.0 7421 6242 3676 2417 2579 2740 3000 2927 2687 2408
1490.0 2042 1488 1120 831 757 782 719 917 1302 1668
1530.0 1936 1880 1605 1291 1165 1094 1211 1500 2075 3501
1570.0 6023 8534 9926 9456 7966 7889 8999 9769 8121 4674
1610.0 2120 1175 928 682 625 424 450 417 369 376
1650.0 459 436 353 312 330 342 389 307 400 413
1690.0 335 314 431 436 406 347 385 455 327 284
1730.0 330 422 323 323 362 392 364 381 409 383
1770.0 436 418 323 287 243 231 267 281 390 438
1810.0 509 475 345 243 184 187 135 119 142 184
1850.0 148 127 137 139 157 187 148 149 172 217
1890.0 277 304 329 365 383 349 282 198 161 122
1930.0 117 123 145 211 252 286 309 331 345 335
1970.0 281 195 104 70 62 80 67 56 55 55
2010.0 51 59 62 59 53 50 47 45 43 39
2050.0 32 35 42 46 53 51 57 70 65 56
2090.0 46 35 27 25 23 23 22 26 26 30
2130.0 25 24 25 17 22 21 21 21 24 24
2170.0 23 27 29 30 29 34 35 41 46 45
2210.0 48 56 63 77 86 90 94 87 86 73
2250.0 70 59 46 44 37 42 40 41 40 37
2290.0 31 27 17 17 10 14 43 60 62 48
2330.0 32 33 31 6 36 6 18 7 6 6
2370.0 6 7 15 17 26 28 40 38 39 39
2410.0 42 46 43 49 50 52 53 51 57 52
2450.0 48 53 50 50 49 45 47 43 42 40
2490.0 35 35 39 39 39 44 38 37 31 27
2530.0 22 23 25 28 26 27 29 26 32 28
2570.0 32 30 38 42 49 53 59 65 72 79
2610.0 83 81 72 67 65 64 68 74 78 80
2650.0 81 78 68 54 51 47 50 50 45 45
2690.0 50 49 48 53 45 54 52 63 74 85
2730.0 89 83 76 71 73 82 86 92 95 89
2770.0 78 72 76 74 73 74 74 77 85 87
2810.0 94 99 110 118 132 147 163 184 205 236
2850.0 270 305 340 380 423 465 490 526 598 713
2890.0 903 1102 1218 1221 1141 1052 989 951 953 1015
2930.0 1103 1232 1372 1594 1896 2361 2722 2733 2419 1962
2970.0 1733 1709 1857 2148 3022 4376 4861 4434 3061 1945
3010.0 1568 1304 1147 1015 971 1002 1129 1344 1538 1698
3050.0 1773 1834 1907 2071 2282 2650 3188 3426 3204 2485
3090.0 1702 1322 1073 842 686 543 436 361 338 316
3130.0 320 323 317 300 268 239 221 210 208 212
3170.0 200 173 158 135 113 98 94 77 74 70
3210.0 67 59 59 50 45 39 31 36 35 36
3250.0 33 29 31 21 22 25 30 18 23 20
3290.0 26 25 25 26 13 22 20 21 20 21
3330.0 22 16 20 22 23 12 26 20 20 26
3370.0 29 24 23 23 23 18 24 34 26 33
3410.0 30 34 27 20 30 35 33 31 26 26
3450.0 31 37 26 29 25 27 25 23 15 23
3490.0 16 12 11 24 25 17 30 18 17 12
3530.0 21 17 17 12 18 21 23 25 9 31
3570.0 28 36 23 28 19 8 33 10 31 9
3610.0 24 17 24 13 19 37 33 22 42 34
3650.0 53 47 43 38 27 52 28 43 20 36
3690.0 52 33 39 53 52 59 44 46 45 49
3730.0 52 51 61 56 70 28 43 27 29 43
3770.0 21 36 23 35 34 39 22 44 15 31
3810.0 22 23 10 15 20 11 25 30 11 18
3850.0 40 45 34 29 46 30 17 6 14 27
3890.0 9 13 7 23 27 39 26 24 31 6
3930.0 14 32 9 30 17 6 27 33 34 21
##END=
