##TITLE=1-Hexanol, 2-ethyl-
##JCAMP-DX=4.24
##DATA TYPE=INFRARED SPECTRUM
##ORIGIN=Sadtler Research Labs Under US-EPA Contract
##OWNER=NIST Standard Reference Data Program
##CAS REGISTRY NO=104-76-7
##MOLFORM=C 8 H 18 O
##XUNITS=1/CM
##YUNITS=ABSORBANCE
##XFACTOR=1.0
##YFACTOR=0.000128418
##DELTAX=4.0
##FIRSTX=450.0
##LASTX=3966.0
##FIRSTY=0.004495
##MAXX=3966
##MINX=450
##MAXY=1.28418
##MINY=0
##NPOINTS=880
##XYDATA=(X++(Y..Y))
450.0 35 56 147 86 231 201 220 316 228 189
490.0 198 280 272 304 112 84 85 167 211 113
530.0 179 301 273 83 143 177 161 77 140 177
570.0 114 167 141 214 108 185 133 167 136 155
610.0 157 112 177 0 133 199 151 146 152 124
650.0 158 137 144 145 146 141 139 159 125 157
690.0 148 153 146 163 174 169 215 230 270 257
730.0 305 289 281 255 270 233 254 283 303 266
770.0 223 438 447 329 318 286 253 200 204 214
810.0 209 206 226 220 226 227 214 220 203 204
850.0 195 203 202 213 216 222 238 247 267 291
890.0 325 344 370 373 372 367 374 387 396 419
930.0 429 455 470 517 568 634 685 718 721 709
970.0 699 680 689 695 729 748 795 853 948 1059
1010.0 1191 1326 1463 1687 2028 2548 3084 3538 3697 3536
1050.0 3041 2473 1944 1503 1184 970 839 752 704 660
1090.0 634 608 600 590 590 596 588 573 546 531
1130.0 499 489 486 492 490 488 479 457 444 430
1170.0 433 433 453 471 495 509 525 538 538 551
1210.0 549 562 555 559 546 541 533 529 524 517
1250.0 519 511 513 506 520 518 522 517 517 512
1290.0 508 514 508 511 505 511 496 496 496 500
1330.0 516 537 571 591 615 617 625 612 625 645
1370.0 697 808 965 1102 1148 1102 914 721 563 473
1410.0 404 373 341 334 321 324 359 391 493 606
1450.0 824 1019 1300 1506 1623 1622 1481 1266 992 738
1490.0 533 383 298 239 220 192 174 164 155 154
1530.0 142 144 134 132 116 120 114 114 105 100
1570.0 101 99 98 91 94 90 92 90 88 84
1610.0 84 81 82 75 75 77 69 70 70 72
1650.0 65 65 69 67 67 65 69 65 56 62
1690.0 57 59 60 56 56 56 58 53 59 59
1730.0 60 60 70 65 67 67 62 57 58 65
1770.0 66 68 56 56 48 48 39 38 38 35
1810.0 37 36 35 29 32 32 31 26 27 25
1850.0 27 28 27 24 25 25 24 23 20 23
1890.0 27 23 28 20 25 25 25 22 24 23
1930.0 24 25 28 24 28 28 29 29 24 27
1970.0 30 26 30 31 31 31 31 31 30 28
2010.0 28 29 30 35 35 38 41 43 40 41
2050.0 39 44 35 36 36 35 36 35 32 27
2090.0 31 27 21 20 19 17 15 17 17 16
2130.0 14 12 16 11 12 14 16 14 17 16
2170.0 15 16 15 12 11 12 13 15 13 15
2210.0 15 14 14 18 12 16 12 12 12 10
2250.0 11 15 15 14 12 12 10 14 11 9
2290.0 9 6 5 7 3 4 7 5 7 7
2330.0 3 5 11 5 18 8 3 3 3 18
2370.0 36 43 42 37 34 32 32 29 31 28
2410.0 30 28 29 29 31 29 32 28 27 24
2450.0 23 26 25 21 21 21 22 24 24 27
2490.0 21 25 28 27 26 28 31 31 36 38
2530.0 37 39 41 40 45 47 46 49 54 61
2570.0 59 69 71 73 76 80 84 83 86 88
2610.0 89 86 87 93 94 100 101 102 104 103
2650.0 107 108 117 126 132 137 144 149 152 150
2690.0 155 156 161 164 168 171 177 183 193 202
2730.0 220 238 257 276 289 292 290 290 289 295
2770.0 306 316 325 340 355 370 388 404 425 440
2810.0 461 489 514 556 603 666 741 852 1001 1227
2850.0 1566 2068 2742 3551 4386 5109 5619 6043 6233 6126
2890.0 5741 5222 4723 4535 4723 5217 5951 6804 7755 8681
2930.0 9537 10000 9922 9321 8306 7308 6659 6772 7728 9165
2970.0 9759 8848 7090 4823 3004 1957 1402 1084 891 757
3010.0 655 568 510 469 430 404 377 353 327 297
3050.0 269 249 241 219 213 199 183 182 174 164
3090.0 159 156 152 149 137 134 124 120 114 109
3130.0 108 98 100 93 96 93 87 90 85 88
3170.0 88 85 78 82 79 72 67 65 59 51
3210.0 41 44 32 32 27 27 26 18 20 23
3250.0 18 22 13 12 17 16 15 13 19 17
3290.0 19 8 10 20 14 6 6 18 30 15
3330.0 14 14 24 16 16 14 17 12 26 21
3370.0 19 21 17 21 20 22 27 30 21 28
3410.0 30 26 30 27 25 22 18 31 26 33
3450.0 41 40 40 42 41 36 33 32 27 36
3490.0 43 33 42 33 35 27 26 34 30 21
3530.0 28 31 24 21 38 33 30 33 35 25
3570.0 38 37 35 43 28 39 43 48 56 44
3610.0 55 55 61 77 79 91 118 133 181 231
3650.0 328 440 563 706 821 863 863 775 611 446
3690.0 317 224 149 133 90 71 70 63 59 41
3730.0 51 62 57 76 81 105 74 73 86 68
3770.0 46 46 44 65 74 71 59 72 44 76
3810.0 96 95 104 78 103 89 97 97 88 77
3850.0 75 69 128 107 96 109 77 97 75 83
3890.0 86 98 70 95 77 97 79 50 53 64
3930.0 80 70 88 47 83 95 79 48 23 70
##END=
