##TITLE=Benzenemethanol, 4-methoxy-, acetate
##JCAMP-DX=4.24
##DATA TYPE=INFRARED SPECTRUM
##ORIGIN=Sadtler Research Labs Under US-EPA Contract
##OWNER=NIST Standard Reference Data Program
##CAS REGISTRY NO=104-21-2
##MOLFORM=C 10 H 12 O 3
##XUNITS=1/CM
##YUNITS=ABSORBANCE
##XFACTOR=1.0
##YFACTOR=0.000098779
##DELTAX=4.0
##FIRSTX=450.0
##LASTX=3966.0
##FIRSTY=0.009384
##MAXX=3966
##MINX=450
##MAXY=0.98779
##MINY=0
##NPOINTS=880
##XYDATA=(X++(Y..Y))
450.0 95 144 125 79 109 80 28 94 54 111
490.0 86 226 188 265 214 215 335 314 350 249
530.0 227 231 165 242 269 255 438 402 432 281
570.0 227 148 150 179 197 320 160 437 313 389
610.0 288 321 340 161 347 167 317 206 230 207
650.0 144 344 138 167 210 341 177 176 115 155
690.0 220 184 256 165 234 221 181 226 182 193
730.0 178 207 213 187 258 240 249 256 196 240
770.0 202 194 245 232 268 271 370 436 553 588
810.0 707 824 887 1013 934 999 865 848 831 747
850.0 736 518 466 331 345 313 264 294 221 297
890.0 231 276 227 313 308 276 337 281 336 272
930.0 356 353 314 355 357 411 499 571 683 710
970.0 657 621 563 542 551 622 735 863 1085 1285
1010.0 1458 1564 1822 2039 2299 2391 2420 2273 2118 1910
1050.0 1548 1297 1009 874 785 690 686 610 657 547
1090.0 572 476 492 437 453 470 421 416 359 360
1130.0 316 285 320 296 346 350 425 514 687 1137
1170.0 1923 2435 2416 1745 1160 969 987 1164 1431 1947
1210.0 2648 3819 5737 7905 9931 10000 8828 7470 6282 5574
1250.0 5092 4477 3845 3167 2647 2175 1736 1464 1230 1154
1290.0 1102 1169 1220 1148 969 725 613 511 510 441
1330.0 436 392 378 407 358 458 582 898 1224 1279
1370.0 1213 1073 1076 1073 1019 860 695 541 462 414
1410.0 343 348 386 373 375 386 430 542 551 667
1450.0 682 715 820 777 877 842 894 658 543 469
1490.0 536 527 673 911 1488 2556 3417 3636 2868 1559
1530.0 729 503 408 433 345 256 292 366 344 276
1570.0 290 295 396 406 472 530 576 635 776 968
1610.0 1173 1268 1325 1063 817 565 419 393 268 299
1650.0 289 396 229 223 205 274 219 254 221 340
1690.0 233 241 355 389 339 297 366 460 447 482
1730.0 580 780 879 1175 1517 2119 2841 3713 4265 4104
1770.0 3412 2467 1782 1325 1002 769 657 518 456 376
1810.0 344 299 272 241 249 238 199 184 174 208
1850.0 167 164 154 164 163 196 171 145 161 143
1890.0 165 149 131 137 114 133 115 131 126 115
1930.0 123 107 118 110 124 96 114 107 107 122
1970.0 99 129 107 124 123 115 141 122 140 126
2010.0 128 125 126 117 121 123 123 122 124 134
2050.0 128 130 133 140 133 142 140 151 136 139
2090.0 129 111 118 86 107 82 93 88 87 90
2130.0 78 87 78 88 76 89 80 81 81 63
2170.0 75 56 81 66 76 76 55 71 65 71
2210.0 71 69 77 73 74 73 67 61 60 63
2250.0 63 66 67 73 72 76 74 72 84 72
2290.0 82 82 72 86 73 90 82 90 133 101
2330.0 154 116 171 144 179 109 132 219 193 282
2370.0 186 188 118 97 69 40 67 44 72 53
2410.0 58 57 49 64 57 65 62 63 70 65
2450.0 60 66 60 69 68 68 69 68 63 64
2490.0 63 62 72 54 74 55 64 68 42 73
2530.0 46 74 52 70 71 72 75 60 67 47
2570.0 57 44 62 52 58 61 40 59 37 60
2610.0 59 46 59 33 50 37 41 52 34 47
2650.0 37 40 41 31 42 35 37 41 33 33
2690.0 39 36 23 39 29 46 36 41 62 37
2730.0 58 38 46 52 42 60 37 65 41 65
2770.0 51 54 60 55 71 54 73 69 84 71
2810.0 93 105 102 145 137 198 232 333 477 537
2850.0 529 402 300 249 210 197 204 210 237 250
2890.0 291 306 337 360 389 434 479 518 501 521
2930.0 481 565 623 755 864 921 954 918 942 855
2970.0 768 663 541 478 429 429 424 499 577 737
3010.0 817 725 549 366 350 324 363 404 414 415
3050.0 342 298 252 224 240 250 265 278 263 232
3090.0 192 172 176 156 151 146 127 131 116 92
3130.0 103 80 84 82 53 87 36 80 37 63
3170.0 54 28 78 30 66 32 47 39 35 35
3210.0 40 55 30 62 17 56 25 37 50 30
3250.0 74 21 36 39 37 38 33 34 40 29
3290.0 52 38 29 40 20 51 31 50 33 56
3330.0 29 57 22 34 44 21 61 17 62 26
3370.0 35 62 12 52 19 51 39 42 41 33
3410.0 29 14 41 26 50 25 51 36 12 59
3450.0 24 57 27 25 53 20 47 16 36 35
3490.0 28 57 57 68 75 56 50 49 47 40
3530.0 38 24 27 25 41 48 25 41 25 73
3570.0 96 22 55 20 59 64 41 63 33 62
3610.0 53 86 43 75 21 115 52 28 40 27
3650.0 122 49 71 29 22 80 58 112 39 22
3690.0 77 30 26 46 28 68 58 43 42 57
3730.0 43 85 112 46 147 103 119 51 55 50
3770.0 41 43 24 61 27 53 40 58 100 52
3810.0 85 41 92 102 78 90 84 93 88 85
3850.0 74 129 105 99 108 104 106 81 115 111
3890.0 90 109 99 121 114 84 84 81 103 93
3930.0 87 108 91 111 97 113 0 8 8 8
##END=
