##TITLE=1-Hexanamine, 2-ethyl-
##JCAMP-DX=4.24
##DATA TYPE=INFRARED SPECTRUM
##ORIGIN=Sadtler Research Labs Under US-EPA Contract
##OWNER=NIST Standard Reference Data Program
##CAS REGISTRY NO=104-75-6
##MOLFORM=C 8 H 19 N
##XUNITS=1/CM
##YUNITS=ABSORBANCE
##XFACTOR=1.0
##YFACTOR=0.000114297
##DELTAX=4.0
##FIRSTX=450.0
##LASTX=3966.0
##FIRSTY=0.000000
##MAXX=3966
##MINX=450
##MAXY=1.14297
##MINY=0
##NPOINTS=880
##XYDATA=(X++(Y..Y))
450.0 0 50 137 236 178 185 185 229 192 140
490.0 210 219 153 119 141 169 160 184 128 130
530.0 118 149 99 162 133 93 135 156 166 168
570.0 196 150 158 185 179 204 157 165 175 125
610.0 118 144 114 119 115 125 145 140 107 130
650.0 199 183 136 150 193 201 252 256 239 269
690.0 268 300 380 442 457 513 618 732 909 1066
730.0 1181 1209 1472 1518 1481 1719 1930 1918 2039 2062
770.0 2161 2202 2062 1977 1757 1466 1257 1041 903 739
810.0 631 537 473 456 354 325 309 274 208 207
850.0 173 201 145 135 131 109 102 109 115 131
890.0 131 134 143 155 152 126 124 135 151 137
930.0 129 138 152 151 161 156 169 159 141 139
970.0 120 120 111 95 94 91 90 101 100 110
1010.0 112 121 134 154 156 176 212 250 304 376
1050.0 439 515 593 664 695 677 620 529 430 344
1090.0 272 229 179 146 141 125 144 149 144 141
1130.0 152 149 146 146 148 146 150 127 128 113
1170.0 119 111 115 115 122 111 126 131 139 135
1210.0 147 151 136 138 133 131 129 132 130 127
1250.0 130 130 128 132 136 140 147 147 147 151
1290.0 162 167 163 171 168 165 156 140 129 134
1330.0 150 170 198 225 244 262 270 269 303 332
1370.0 400 513 664 781 827 769 588 401 265 184
1410.0 142 119 125 132 134 159 190 295 365 512
1450.0 715 973 1243 1487 1547 1549 1365 1080 791 531
1490.0 342 249 204 153 154 141 100 115 110 93
1530.0 91 74 102 93 96 76 76 119 103 104
1570.0 104 112 144 128 160 179 224 263 328 420
1610.0 510 658 738 819 789 716 607 463 344 270
1650.0 197 199 138 103 115 105 100 88 71 77
1690.0 59 52 69 77 58 46 56 68 60 59
1730.0 69 67 81 48 57 53 59 56 54 53
1770.0 59 58 51 54 64 55 71 57 63 64
1810.0 57 70 63 68 71 68 66 61 67 60
1850.0 62 55 61 52 55 64 58 59 54 58
1890.0 54 61 58 56 60 57 59 65 61 62
1930.0 64 62 63 61 66 63 62 60 58 59
1970.0 59 58 58 56 60 57 61 59 57 59
2010.0 59 60 63 61 65 63 65 65 64 68
2050.0 65 63 65 59 61 65 61 60 57 61
2090.0 61 60 59 58 60 59 59 59 62 63
2130.0 59 58 58 60 60 60 59 57 57 60
2170.0 56 57 59 54 56 55 55 57 55 55
2210.0 56 53 57 59 57 60 59 60 59 64
2250.0 61 58 61 61 59 61 61 62 61 61
2290.0 66 66 71 77 79 80 82 76 78 79
2330.0 77 76 70 88 83 96 87 96 87 79
2370.0 93 95 94 91 88 81 76 80 81 82
2410.0 79 80 81 81 77 78 77 74 76 73
2450.0 72 74 69 71 69 71 69 71 69 70
2490.0 74 72 73 72 80 80 82 82 88 88
2530.0 90 91 97 95 95 99 99 104 109 111
2570.0 117 118 122 130 133 138 137 141 142 146
2610.0 151 149 150 154 158 161 162 167 171 174
2650.0 181 184 192 195 203 211 217 226 229 229
2690.0 231 233 235 238 242 251 254 264 275 290
2730.0 312 335 361 384 397 400 393 381 373 362
2770.0 360 355 354 359 375 395 416 444 477 515
2810.0 556 609 678 747 843 964 1116 1304 1543 1860
2850.0 2297 2873 3628 4458 5205 5740 5966 6031 5879 5518
2890.0 5081 4604 4290 4330 4750 5447 6304 7214 8161 9065
2930.0 9719 10000 9896 9274 8277 7278 6653 6810 7794 9161
2970.0 9514 8550 6707 4453 2777 1841 1354 1066 903 783
3010.0 691 623 571 522 482 460 435 404 375 347
3050.0 324 311 294 280 262 255 252 240 235 226
3090.0 220 217 212 206 200 192 191 187 182 180
3130.0 169 170 165 166 164 157 160 156 158 157
3170.0 152 151 147 153 139 138 134 139 131 122
3210.0 118 116 112 104 102 101 102 99 95 95
3250.0 96 93 87 91 87 85 92 93 89 86
3290.0 84 83 77 85 90 91 93 92 89 96
3330.0 98 106 120 129 142 139 149 139 120 116
3370.0 107 94 90 96 93 85 97 85 86 95
3410.0 98 107 107 103 101 95 87 87 80 85
3450.0 78 80 85 77 84 84 78 78 72 74
3490.0 71 79 77 75 73 74 74 80 73 74
3530.0 68 77 74 71 67 70 80 71 67 76
3570.0 77 72 63 65 83 69 78 52 75 58
3610.0 77 76 79 80 76 86 95 74 64 94
3650.0 70 97 71 89 68 88 94 96 75 67
3690.0 87 79 71 89 74 67 78 66 91 89
3730.0 79 111 104 94 84 92 81 66 56 76
3770.0 70 65 66 65 63 58 76 77 76 105
3810.0 55 95 75 102 77 79 104 99 96 89
3850.0 86 115 108 68 83 122 83 87 80 109
3890.0 69 74 107 94 98 58 80 100 89 87
3930.0 87 68 63 72 74 76 76 107 73 91
##END=
