##TITLE=Phenol, 4-dodecyl-
##JCAMP-DX=4.24
##DATA TYPE=INFRARED SPECTRUM
##ORIGIN=Sadtler Research Labs Under US-EPA Contract
##OWNER=NIST Standard Reference Data Program
##CAS REGISTRY NO=104-43-8
##MOLFORM=C 18 H 30 O
##XUNITS=1/CM
##YUNITS=ABSORBANCE
##XFACTOR=1.0
##YFACTOR=0.000039673
##DELTAX=4.0
##FIRSTX=450.0
##LASTX=3966.0
##FIRSTY=0.000000
##MAXX=3966
##MINX=450
##MAXY=0.39673
##MINY=0
##NPOINTS=880
##XYDATA=(X++(Y..Y))
450.0 0 782 1892 1967 1648 1130 1748 1522 1446 1560
490.0 1912 1458 2095 1627 1673 1537 1783 2053 1497 1685
530.0 1905 1501 1936 1284 1624 1374 1569 1711 1445 1504
570.0 1419 1655 1655 1567 1537 1417 1468 1309 1289 1372
610.0 1198 1108 1328 1263 1467 1348 1210 1512 1209 1448
650.0 1335 1507 1452 1612 1760 1596 1552 1363 1375 1519
690.0 1356 1380 1432 1510 1465 1354 1296 1388 1436 1470
730.0 1570 1470 1574 1279 1764 1744 1593 1422 1371 1494
770.0 1571 1599 1715 1620 1603 1605 1773 1851 1967 2011
810.0 2114 2209 2377 2802 3489 3512 2898 2250 1911 1780
850.0 1684 1570 1531 1503 1503 1470 1497 1489 1294 1425
890.0 1408 1344 1485 1397 1522 1408 1422 1320 1378 1393
930.0 1492 1423 1414 1464 1456 1485 1425 1473 1428 1428
970.0 1406 1432 1408 1441 1386 1422 1459 1459 1462 1548
1010.0 1683 1678 1611 1484 1469 1449 1471 1455 1433 1392
1050.0 1461 1489 1461 1434 1422 1469 1488 1547 1550 1537
1090.0 1617 1727 1773 1773 1809 1974 1924 1793 1817 1789
1130.0 1845 1861 1809 1818 1872 1958 2107 2360 2857 4036
1170.0 6048 7945 7976 5956 4163 3358 2966 2693 2454 2295
1210.0 2185 2135 2103 2092 2099 2139 2125 2161 2205 2336
1250.0 2655 3290 4304 4806 4177 2923 2133 1871 1779 1781
1290.0 1765 1716 1636 1601 1600 1614 1653 1758 1922 2084
1330.0 2137 2086 1999 1906 1846 1802 1786 1816 1886 2095
1370.0 2241 2350 2479 2581 2550 2328 1960 1673 1535 1472
1410.0 1484 1545 1634 1810 1902 1899 1808 1782 1835 1899
1450.0 2090 2196 2464 2656 2744 2735 2558 2355 2180 1960
1490.0 1870 1901 2136 2508 3379 5241 5796 5090 3137 2045
1530.0 1568 1442 1307 1282 1258 1256 1267 1214 1268 1246
1570.0 1256 1329 1342 1476 1585 1768 1901 1925 1989 2065
1610.0 2298 2364 2146 1802 1473 1319 1215 1159 1174 1122
1650.0 1131 1099 1082 1080 1022 1012 996 1073 1069 1102
1690.0 1105 1122 1094 1065 1079 1087 1095 1072 1144 1172
1730.0 1139 1147 1133 1181 1160 1171 1171 1157 1145 1138
1770.0 1129 1122 1127 1121 1105 1111 1093 1122 1092 1113
1810.0 1105 1104 1118 1094 1101 1084 1122 1104 1102 1119
1850.0 1099 1119 1128 1128 1139 1142 1155 1147 1162 1147
1890.0 1128 1118 1116 1117 1110 1090 1092 1084 1084 1083
1930.0 1082 1084 1078 1066 1067 1068 1061 1060 1053 1063
1970.0 1065 1057 1055 1066 1062 1064 1066 1073 1065 1060
2010.0 1059 1059 1064 1069 1053 1052 1059 1058 1046 1041
2050.0 1047 1049 1048 1057 1061 1065 1069 1064 1067 1053
2090.0 1055 1052 1051 1051 1058 1051 1044 1042 1044 1040
2130.0 1040 1034 1032 1034 1033 1032 1035 1027 1030 1034
2170.0 1023 1028 1033 1021 1017 1020 1020 1010 1007 1004
2210.0 1021 1008 996 993 1010 1005 1009 1000 1008 1002
2250.0 997 999 997 1001 998 994 998 994 970 946
2290.0 939 913 881 868 841 814 848 839 838 865
2330.0 872 893 855 883 896 876 869 901 963 965
2370.0 1002 948 959 952 959 981 996 1009 1015 1001
2410.0 1006 1019 1028 1023 1039 1050 1058 1051 1037 1029
2450.0 1020 1006 998 993 999 998 983 992 987 983
2490.0 984 982 987 979 970 971 985 986 979 972
2530.0 969 971 976 977 975 980 977 971 984 978
2570.0 987 985 979 981 997 996 998 992 996 988
2610.0 988 980 984 989 985 973 976 978 981 971
2650.0 976 978 969 960 964 976 975 976 966 977
2690.0 989 968 962 973 974 982 981 962 976 984
2730.0 987 991 995 993 981 972 973 970 970 960
2770.0 968 970 991 982 979 999 1002 1017 1021 1046
2810.0 1067 1091 1108 1147 1186 1220 1255 1346 1484 1618
2850.0 1837 2106 2402 2731 3046 3391 3741 4054 4288 4321
2890.0 4099 3831 3695 3743 3949 4253 4582 4961 5306 5662
2930.0 6034 6383 6598 6631 6406 6168 6308 7169 8578 9839
2970.0 10000 8839 6990 5332 3995 2942 2272 1905 1712 1609
3010.0 1570 1535 1496 1456 1496 1571 1653 1657 1545 1392
3050.0 1305 1292 1329 1355 1414 1426 1415 1370 1296 1210
3090.0 1182 1169 1169 1176 1174 1153 1172 1158 1128 1119
3130.0 1117 1123 1096 1089 1109 1107 1102 1115 1106 1114
3170.0 1122 1120 1118 1108 1129 1132 1125 1119 1117 1110
3210.0 1118 1123 1126 1122 1105 1121 1118 1146 1131 1107
3250.0 1119 1132 1113 1103 1108 1126 1133 1109 1123 1126
3290.0 1117 1097 1112 1099 1119 1112 1092 1107 1113 1102
3330.0 1116 1112 1103 1086 1072 1079 1092 1090 1071 1059
3370.0 1034 1056 1061 1064 1059 1048 1034 1021 1022 1009
3410.0 998 1025 990 989 983 994 980 980 983 931
3450.0 944 943 938 925 896 913 913 896 914 904
3490.0 909 926 919 875 877 883 906 876 895 858
3530.0 903 874 872 880 866 856 874 846 881 851
3570.0 861 824 863 845 874 864 881 836 882 888
3610.0 886 899 844 930 909 976 1046 1147 1453 1986
3650.0 2888 3632 2865 1714 1084 920 880 856 913 830
3690.0 870 828 829 818 864 823 815 839 845 819
3730.0 885 847 840 834 812 896 812 846 815 846
3770.0 879 845 842 837 865 871 814 821 815 854
3810.0 817 889 814 878 846 855 821 847 822 876
3850.0 816 825 851 841 837 897 860 896 871 854
3890.0 861 824 862 847 915 988 888 834 902 848
3930.0 882 854 860 862 891 921 955 946 873 867
##END=
