##TITLE=Benzene, 1-(chloromethyl)-4-methyl-
##JCAMP-DX=4.24
##DATA TYPE=INFRARED SPECTRUM
##ORIGIN=Sadtler Research Labs Under US-EPA Contract
##OWNER=NIST Standard Reference Data Program
##CAS REGISTRY NO=104-82-5
##MOLFORM=C 8 H 9 Cl
##XUNITS=1/CM
##YUNITS=ABSORBANCE
##XFACTOR=1.0
##YFACTOR=0.000077103
##DELTAX=4.0
##FIRSTX=450.0
##LASTX=3966.0
##FIRSTY=0.130920
##MAXX=3966
##MINX=450
##MAXY=0.77103
##MINY=0
##NPOINTS=880
##XYDATA=(X++(Y..Y))
450.0 1698 1493 1657 1731 1537 1237 1046 831 823 854
490.0 877 1125 1322 1552 1975 2264 2777 2858 2430 1804
530.0 1065 611 406 252 250 332 327 322 360 282
570.0 333 279 296 303 237 300 290 285 356 310
610.0 326 370 322 364 359 365 468 487 603 793
650.0 975 1421 1966 2602 3460 4256 4829 5470 5409 4994
690.0 3869 2754 2200 2045 2365 3120 4159 5855 7879 9168
730.0 9833 9219 9092 9403 8885 8168 6510 4751 3367 2326
770.0 1820 1643 1600 1803 2071 2694 3298 3878 4547 5072
810.0 4920 4743 4294 3712 3351 3453 3495 3200 2586 1572
850.0 740 362 230 141 170 187 146 192 164 138
890.0 171 158 181 183 135 126 68 39 49 28
930.0 48 52 33 67 72 56 65 35 40 53
970.0 29 42 51 29 56 14 14 33 10 64
1010.0 194 560 1049 1025 1009 771 366 346 414 474
1050.0 520 459 417 374 294 284 317 340 400 398
1090.0 415 524 681 944 1194 1335 1394 1345 1202 983
1130.0 731 539 368 242 194 148 160 221 337 496
1170.0 667 975 1381 1402 1283 1143 891 1023 1380 1672
1210.0 1750 1561 1184 992 1035 1228 1318 1339 1392 1432
1250.0 1852 2762 4376 7038 9486 10000 9213 6583 3887 2404
1290.0 1779 1560 1407 1249 1057 844 754 661 552 527
1330.0 479 418 396 392 431 460 447 443 421 400
1370.0 474 515 641 823 872 921 861 815 940 1092
1410.0 1256 1484 1593 1757 1839 1894 1870 1855 1917 2071
1450.0 2119 2151 1913 1654 1598 1519 1370 1239 1225 1263
1490.0 1341 1467 1684 2004 2859 4511 6292 6662 5991 4427
1530.0 2102 1117 832 675 580 610 598 563 452 474
1570.0 475 461 419 409 444 416 486 556 733 970
1610.0 1305 1747 1912 1822 1534 1085 766 604 554 577
1650.0 429 401 289 252 178 177 95 127 118 84
1690.0 125 184 146 211 293 534 952 1363 1363 1344
1730.0 1341 749 254 178 173 171 195 201 193 213
1770.0 212 269 385 497 597 557 458 312 140 83
1810.0 53 12 37 11 12 20 0 32 36 30
1850.0 58 90 96 124 135 180 253 337 453 548
1890.0 630 690 701 678 608 501 401 300 184 144
1930.0 86 71 65 43 51 51 49 59 29 46
1970.0 44 37 45 36 35 37 27 34 46 40
2010.0 63 57 45 57 40 35 37 32 51 63
2050.0 70 85 72 75 71 49 50 45 25 40
2090.0 23 24 31 16 35 35 29 51 48 59
2130.0 74 61 68 55 32 45 21 18 23 8
2170.0 19 23 12 20 19 18 23 8 17 25
2210.0 18 37 29 39 48 38 44 39 39 45
2250.0 37 43 60 44 63 60 58 71 75 97
2290.0 132 139 167 168 177 189 165 170 181 139
2330.0 166 171 163 185 133 174 206 121 116 66
2370.0 36 59 43 54 77 63 81 82 75 89
2410.0 88 91 103 93 103 102 93 100 81 89
2450.0 98 86 98 91 80 93 92 84 99 66
2490.0 72 67 50 63 52 50 63 50 59 62
2530.0 63 73 60 52 67 47 52 60 47 72
2570.0 79 81 109 117 145 162 150 152 135 112
2610.0 114 83 87 94 82 96 100 104 111 98
2650.0 89 86 71 95 85 89 97 96 105 121
2690.0 119 149 167 193 255 296 391 463 474 493
2730.0 480 449 498 500 501 480 363 270 214 180
2770.0 197 183 201 215 216 263 279 300 343 371
2810.0 417 453 463 502 517 533 585 605 666 764
2850.0 867 1060 1321 1661 2165 2693 3273 3746 3889 3808
2890.0 3536 3146 2898 2709 2626 2703 2874 3273 3951 4905
2930.0 6115 7014 7288 6977 6089 5195 4637 4514 4697 4819
2970.0 4819 4657 4390 4263 4212 4272 4535 4883 5240 5663
3010.0 5889 6115 6359 6829 7807 8515 8541 8069 6829 5678
3050.0 5300 5299 5357 5131 4687 4059 3297 2676 2191 1835
3090.0 1661 1527 1434 1374 1219 1093 931 743 640 542
3130.0 524 592 582 561 483 334 246 152 98 124
3170.0 71 69 77 43 65 55 38 62 23 44
3210.0 54 41 53 46 35 55 54 60 62 26
3250.0 61 39 40 52 48 59 84 46 49 65
3290.0 46 69 53 60 62 59 44 68 45 70
3330.0 37 41 64 61 75 44 45 77 59 85
3370.0 80 31 75 69 52 75 57 56 67 40
3410.0 82 67 36 69 49 72 93 55 87 50
3450.0 27 61 22 32 63 25 57 44 41 65
3490.0 39 42 43 25 52 44 30 53 52 34
3530.0 54 19 41 58 15 47 18 35 70 48
3570.0 46 42 10 51 45 11 58 24 61 64
3610.0 49 58 41 27 62 74 38 42 22 107
3650.0 125 78 105 97 110 133 112 98 82 103
3690.0 146 67 97 80 77 116 71 77 105 80
3730.0 86 111 65 88 106 70 50 36 36 60
3770.0 33 58 43 51 58 46 69 77 77 64
3810.0 49 48 64 64 52 77 79 89 66 60
3850.0 107 98 61 82 103 116 96 84 90 100
3890.0 106 118 115 126 110 101 109 103 83 77
3930.0 80 92 94 75 85 80 84 99 111 119
##END=
