##TITLE=2(3H)-Furanone, dihydro-5-pentyl-
##JCAMP-DX=4.24
##DATA TYPE=INFRARED SPECTRUM
##ORIGIN=Sadtler Research Labs Under US-EPA Contract
##OWNER=NIST Standard Reference Data Program
##CAS REGISTRY NO=104-61-0
##MOLFORM=C 9 H 16 O 2
##XUNITS=1/CM
##YUNITS=ABSORBANCE
##XFACTOR=1.0
##YFACTOR=0.000065918
##DELTAX=4.0
##FIRSTX=450.0
##LASTX=3966.0
##FIRSTY=0.000659
##MAXX=3966
##MINX=450
##MAXY=0.65918
##MINY=0
##NPOINTS=880
##XYDATA=(X++(Y..Y))
450.0 10 5 20 32 75 127 116 97 98 94
490.0 101 75 87 64 95 98 91 133 95 98
530.0 160 154 157 118 75 136 159 99 99 107
570.0 72 69 64 66 52 40 92 110 91 75
610.0 113 119 100 135 138 131 147 157 178 125
650.0 135 150 136 166 126 117 116 162 117 125
690.0 136 92 94 129 93 87 75 100 132 140
730.0 170 168 177 172 120 127 148 155 130 123
770.0 85 105 120 134 144 148 146 155 152 174
810.0 200 174 148 157 164 164 181 165 152 172
850.0 162 191 219 222 259 284 316 381 426 558
890.0 636 715 743 759 723 671 599 518 426 395
930.0 410 403 411 426 450 484 516 526 492 463
970.0 410 385 359 383 400 422 455 463 512 582
1010.0 646 735 858 1034 1203 1347 1363 1282 1113 915
1050.0 767 690 645 624 583 558 529 519 518 508
1090.0 486 496 523 594 712 834 1037 1186 1345 1427
1130.0 1427 1473 1619 1929 2373 2857 3254 3472 3493 3406
1170.0 3295 3085 2739 2203 1647 1207 921 745 663 628
1210.0 628 628 628 621 644 663 679 634 543 439
1250.0 369 326 308 299 315 353 371 409 426 401
1290.0 374 337 319 319 307 297 298 305 320 345
1330.0 377 433 501 585 645 673 632 554 475 420
1370.0 394 394 425 472 466 433 337 261 208 185
1410.0 172 178 191 216 270 331 362 359 344 330
1450.0 370 435 530 623 663 617 496 371 267 197
1490.0 151 128 108 100 92 85 85 79 86 84
1530.0 69 69 68 77 66 67 61 63 64 61
1570.0 60 60 61 60 59 60 74 60 68 73
1610.0 71 65 74 75 72 70 72 72 65 72
1650.0 79 73 70 80 82 86 86 86 94 94
1690.0 100 100 107 124 124 130 132 140 144 165
1730.0 176 193 218 254 302 347 409 521 706 936
1770.0 1164 1326 1417 1447 1508 1743 2315 3350 5062 7446
1810.0 9660 10000 8306 5487 3266 1977 1264 884 671 542
1850.0 451 372 316 260 221 188 159 144 128 115
1890.0 102 95 93 84 84 84 77 70 69 68
1930.0 68 66 61 61 62 58 52 46 53 53
1970.0 59 53 52 52 43 52 51 47 48 46
2010.0 49 50 50 51 50 49 48 43 43 40
2050.0 42 42 47 47 40 40 48 39 39 33
2090.0 31 29 24 24 23 23 23 23 30 22
2130.0 31 30 23 22 24 20 21 21 21 24
2170.0 21 28 20 29 27 35 34 28 27 27
2210.0 32 32 31 27 24 26 34 33 33 33
2250.0 33 34 42 44 37 45 40 46 38 42
2290.0 47 47 46 39 40 40 39 43 39 29
2330.0 34 31 29 23 21 14 21 12 13 3
2370.0 14 18 13 12 21 21 19 19 19 12
2410.0 11 11 11 11 10 16 11 10 20 16
2450.0 17 17 17 10 17 25 22 14 12 16
2490.0 17 18 13 15 8 16 15 16 14 15
2530.0 9 15 6 6 6 7 7 5 6 6
2570.0 14 6 13 16 12 18 22 12 21 21
2610.0 21 28 21 22 22 27 22 23 27 34
2650.0 34 33 36 36 38 45 37 45 45 39
2690.0 44 31 37 37 37 48 44 47 45 47
2730.0 54 54 54 61 61 61 59 58 57 55
2770.0 54 54 55 63 69 63 78 85 85 93
2810.0 96 104 113 120 144 152 182 229 277 356
2850.0 438 560 721 903 1081 1218 1292 1324 1352 1324
2890.0 1263 1168 1124 1153 1234 1363 1495 1673 1904 2215
2930.0 2592 2960 3195 3313 3226 3012 2745 2545 2529 2647
2970.0 2770 2621 2234 1692 1238 945 741 606 504 411
3010.0 318 248 213 173 153 142 125 112 97 89
3050.0 82 82 67 65 60 54 54 56 52 48
3090.0 50 52 46 45 45 37 37 37 30 34
3130.0 30 29 26 27 24 24 22 30 22 23
3170.0 29 30 28 32 31 22 23 24 24 24
3210.0 23 15 16 16 16 16 19 16 16 12
3250.0 17 17 17 15 16 10 9 10 14 11
3290.0 10 9 9 23 22 17 18 18 17 11
3330.0 10 10 9 11 11 10 6 10 19 25
3370.0 18 11 26 19 17 19 19 19 19 20
3410.0 6 10 5 11 10 18 20 28 27 30
3450.0 25 20 12 12 13 18 18 6 12 21
3490.0 13 20 21 22 17 21 20 25 36 25
3530.0 28 28 21 29 28 21 24 20 30 40
3570.0 45 52 65 76 76 89 90 97 113 105
3610.0 98 84 76 56 54 46 47 31 22 32
3650.0 31 31 37 32 23 31 31 30 30 26
3690.0 32 37 32 32 32 31 39 30 24 25
3730.0 25 25 25 28 36 30 40 39 32 32
3770.0 43 40 42 43 23 28 36 33 25 26
3810.0 33 33 34 40 42 45 42 43 36 47
3850.0 33 39 42 34 27 26 27 34 36 33
3890.0 43 43 47 56 51 44 28 28 28 27
3930.0 27 28 28 28 28 35 0 3 3 3
##END=
