##TITLE=Benzene, 1,1'-[1,2-ethanediylbis(oxy)]bis-
##JCAMP-DX=4.24
##DATA TYPE=INFRARED SPECTRUM
##ORIGIN=Sadtler Research Labs Under US-EPA Contract
##OWNER=NIST Standard Reference Data Program
##CAS REGISTRY NO=104-66-5
##MOLFORM=C 14 H 14 O 2
##XUNITS=1/CM
##YUNITS=ABSORBANCE
##XFACTOR=1.0
##YFACTOR=0.000089893
##DELTAX=4.0
##FIRSTX=450.0
##LASTX=3966.0
##FIRSTY=0.000449
##MAXX=3966
##MINX=450
##MAXY=0.89893
##MINY=0
##NPOINTS=880
##XYDATA=(X++(Y..Y))
450.0 5 6 29 22 16 34 88 76 96 180
490.0 279 323 275 309 298 332 281 267 267 219
530.0 160 166 55 33 146 98 210 182 248 183
570.0 90 192 151 118 175 274 182 162 164 144
610.0 187 212 138 116 230 113 78 99 61 106
650.0 141 157 174 335 417 616 679 930 1310 1646
690.0 1840 1560 1207 817 635 542 375 421 406 480
730.0 706 845 1266 1992 2401 2853 2828 2342 1748 1327
770.0 1034 903 800 741 700 633 709 694 658 566
810.0 430 413 305 286 262 191 192 191 151 155
850.0 149 148 162 144 177 297 386 423 439 555
890.0 506 553 485 479 510 575 608 676 779 852
930.0 873 926 865 758 564 456 389 332 263 291
970.0 286 318 299 310 326 375 420 452 442 462
1010.0 518 614 730 920 1100 1337 1587 1835 2053 2128
1050.0 2141 2124 2093 1974 1870 1755 1658 1533 1369 1133
1090.0 901 707 578 487 459 418 387 349 312 281
1130.0 249 246 270 306 383 543 680 844 1179 1725
1170.0 2001 1742 1185 854 816 931 1212 1663 2435 3666
1210.0 5176 6444 7029 6997 7233 7961 9077 10000 9470 7609
1250.0 5551 4136 3217 2563 2160 1939 1869 1934 2061 2068
1290.0 2068 2107 2115 1908 1533 1191 932 776 685 659
1330.0 680 701 659 570 468 393 372 371 414 489
1370.0 576 548 458 354 300 285 269 253 227 226
1410.0 213 193 183 182 171 192 214 264 341 466
1450.0 702 1096 1459 1528 1398 1380 1648 2088 2776 3810
1490.0 5545 7494 7519 5419 3007 1550 903 578 421 324
1530.0 278 238 222 210 234 272 314 356 468 597
1570.0 801 1092 1498 2103 2954 3873 4731 5175 4701 3391
1610.0 2054 1184 716 488 346 274 226 197 165 152
1650.0 135 131 118 117 107 116 117 118 128 134
1690.0 152 162 157 140 141 127 124 111 109 106
1730.0 100 101 85 88 94 99 111 151 179 181
1770.0 161 136 126 113 99 88 76 84 82 76
1810.0 76 76 88 101 118 126 143 145 141 135
1850.0 140 131 130 112 107 81 73 68 64 59
1890.0 61 75 77 93 109 127 149 177 189 192
1930.0 184 176 184 185 165 132 102 88 89 93
1970.0 88 99 103 108 113 122 119 120 112 119
2010.0 126 113 119 118 124 135 141 140 143 136
2050.0 133 116 117 117 108 112 106 101 90 89
2090.0 89 87 81 75 73 71 59 60 60 56
2130.0 56 55 50 48 44 33 29 32 32 32
2170.0 36 33 36 32 25 31 25 27 24 29
2210.0 22 26 19 28 27 28 24 35 30 35
2250.0 24 36 37 50 56 65 64 77 80 77
2290.0 82 76 82 82 95 88 86 67 70 50
2330.0 53 49 34 15 54 65 69 47 46 70
2370.0 56 57 68 88 67 60 62 58 52 57
2410.0 57 61 57 52 55 69 60 59 66 67
2450.0 66 66 67 66 65 65 66 69 76 73
2490.0 68 66 54 65 53 59 64 65 75 69
2530.0 75 80 71 74 71 67 73 69 52 52
2570.0 46 34 33 25 30 23 16 24 34 27
2610.0 22 18 18 23 27 28 16 17 18 19
2650.0 6 20 10 17 12 17 11 17 12 14
2690.0 17 17 24 31 41 36 49 51 58 62
2730.0 69 69 69 67 56 57 62 53 45 48
2770.0 54 54 48 59 66 55 52 62 54 55
2810.0 54 57 61 70 83 84 83 94 101 118
2850.0 144 178 214 275 358 453 536 613 640 680
2890.0 676 648 603 564 572 583 620 698 779 869
2930.0 926 964 973 959 897 841 779 715 678 643
2970.0 633 641 644 631 576 473 378 283 220 205
3010.0 221 268 310 378 454 571 718 890 1072 1207
3050.0 1185 1050 921 916 1019 1141 1287 1408 1371 1146
3090.0 909 787 752 699 621 509 390 271 186 122
3130.0 87 57 45 47 47 31 31 25 35 24
3170.0 20 25 21 22 18 27 25 17 18 23
3210.0 23 20 21 10 14 16 9 38 37 20
3250.0 28 21 25 14 9 12 29 23 8 18
3290.0 9 14 23 30 35 19 22 30 20 31
3330.0 31 27 26 20 20 17 28 24 20 38
3370.0 6 22 38 22 17 33 30 33 34 36
3410.0 27 36 39 34 25 41 24 24 24 29
3450.0 39 32 32 48 28 37 28 38 37 37
3490.0 20 27 37 37 40 29 45 24 38 35
3530.0 37 44 41 34 40 56 22 27 35 23
3570.0 41 35 30 30 37 35 53 53 36 48
3610.0 26 46 39 40 41 38 20 38 59 58
3650.0 55 54 44 61 54 51 33 37 34 37
3690.0 46 41 38 45 46 34 53 45 38 42
3730.0 33 40 34 22 32 14 36 31 48 42
3770.0 38 34 37 26 32 38 33 30 28 28
3810.0 38 61 45 49 36 32 23 45 45 33
3850.0 56 52 67 59 68 63 62 62 56 50
3890.0 38 47 55 73 75 79 72 70 64 65
3930.0 59 61 68 76 76 78 0 6 6 6
##END=
