##TITLE=Benzenamine, 4-butyl-
##JCAMP-DX=4.24
##DATA TYPE=INFRARED SPECTRUM
##ORIGIN=Sadtler Research Labs Under US-EPA Contract
##OWNER=NIST Standard Reference Data Program
##CAS REGISTRY NO=104-13-2
##MOLFORM=C 10 H 15 N
##XUNITS=1/CM
##YUNITS=ABSORBANCE
##XFACTOR=1.0
##YFACTOR=0.000109421
##DELTAX=4.0
##FIRSTX=450.0
##LASTX=3966.0
##FIRSTY=0.000000
##MAXX=3966
##MINX=450
##MAXY=1.09421
##MINY=0
##NPOINTS=880
##XYDATA=(X++(Y..Y))
450.0 0 155 127 113 211 314 305 411 491 544
490.0 493 481 441 389 244 172 125 114 123 174
530.0 269 401 525 668 731 718 588 446 283 147
570.0 111 81 64 97 109 98 92 88 84 115
610.0 145 161 222 335 476 670 992 1455 2103 2808
650.0 3408 3539 3273 2701 2185 1737 1603 1491 1422 1324
690.0 1183 1037 891 786 709 645 578 519 498 458
730.0 430 435 448 473 492 487 502 514 519 546
770.0 544 584 634 725 860 1048 1260 1497 1734 1973
810.0 2179 2335 2426 2388 2193 1892 1542 1183 865 633
850.0 442 302 228 187 157 132 131 120 117 105
890.0 92 71 60 40 31 19 12 8 15 28
930.0 34 36 31 23 9 0 7 31 53 86
970.0 87 87 74 64 60 56 40 18 3 5
1010.0 37 69 68 60 38 46 68 103 141 181
1050.0 225 275 323 391 484 583 660 681 639 561
1090.0 477 420 400 395 398 413 450 517 593 611
1130.0 569 459 321 201 121 75 58 59 73 120
1170.0 273 737 1192 1193 1022 471 200 148 127 104
1210.0 82 75 76 93 123 165 230 341 519 781
1250.0 1180 1767 2683 4020 5357 6050 5779 4435 2935 1841
1290.0 1127 763 603 526 486 454 433 404 383 373
1330.0 372 392 419 454 463 443 403 362 342 303
1370.0 289 296 363 410 399 357 260 200 186 191
1410.0 188 222 206 266 295 367 404 530 639 777
1450.0 912 1029 1129 1185 1214 1133 988 827 711 602
1490.0 590 715 1001 1640 2985 5670 8904 10000 8824 5644
1530.0 2681 1418 851 546 392 324 277 235 274 303
1570.0 351 403 496 564 669 763 899 1041 1263 1624
1610.0 2213 3018 4068 5324 6375 6681 5902 4318 2696 1592
1650.0 933 670 503 424 352 313 251 268 217 214
1690.0 217 229 206 237 246 268 234 184 162 147
1730.0 116 108 131 139 131 131 130 99 67 50
1770.0 28 10 20 14 21 8 8 6 7 18
1810.0 15 14 30 23 32 29 47 67 68 85
1850.0 116 161 192 229 240 240 235 205 161 120
1890.0 86 65 59 58 60 68 75 89 84 92
1930.0 84 72 62 48 43 47 43 35 35 24
1970.0 23 21 21 17 19 12 17 18 23 27
2010.0 33 35 42 53 61 61 62 55 48 47
2050.0 51 52 57 62 68 71 69 63 51 45
2090.0 42 42 43 44 42 39 35 28 20 15
2130.0 12 10 11 11 10 9 12 12 15 15
2170.0 18 19 17 13 10 5 7 3 3 1
2210.0 0 0 3 5 6 4 4 3 4 2
2250.0 5 10 12 12 14 18 20 20 24 25
2290.0 23 24 28 32 32 32 35 37 39 40
2330.0 42 42 43 45 49 48 55 42 34 33
2370.0 28 30 29 25 24 24 25 26 22 20
2410.0 23 22 21 24 25 25 24 25 25 27
2450.0 27 26 28 27 22 19 16 15 7 5
2490.0 4 5 4 8 11 15 23 30 38 50
2530.0 60 64 64 60 54 48 44 41 38 37
2570.0 37 38 43 47 53 58 62 66 72 72
2610.0 75 74 70 66 68 69 74 77 78 83
2650.0 86 90 94 92 92 94 90 88 87 85
2690.0 80 75 77 79 78 84 85 82 81 84
2730.0 93 104 115 131 139 138 137 134 134 140
2770.0 146 156 165 175 185 195 202 215 223 237
2810.0 253 272 298 333 377 436 510 624 798 1059
2850.0 1444 1960 2564 3145 3553 3678 3605 3553 3453 3243
2890.0 2962 2575 2388 2493 2803 3305 3998 4858 5843 6853
2930.0 7710 8231 8284 7739 6829 5832 5122 5130 5725 6513
2970.0 6608 5669 4176 2734 1937 1581 1491 1643 1966 2309
3010.0 2502 2509 2442 2553 2850 3144 3178 2894 2349 1743
3050.0 1424 1305 1229 1134 1019 886 766 656 563 499
3090.0 463 444 432 422 398 363 319 284 251 234
3130.0 223 207 191 174 152 133 121 109 106 97
3170.0 89 91 90 81 85 90 91 101 114 123
3210.0 120 113 102 102 101 110 114 106 94 84
3250.0 65 53 40 35 37 31 25 23 28 28
3290.0 29 35 34 37 37 38 42 45 43 39
3330.0 47 44 47 49 51 58 62 61 71 79
3370.0 88 101 109 134 172 232 346 503 626 699
3410.0 727 618 500 359 226 172 156 143 128 125
3450.0 132 144 159 180 222 268 331 392 445 478
3490.0 487 469 426 365 294 233 171 127 90 69
3530.0 51 42 37 33 28 21 22 18 19 16
3570.0 21 9 12 11 11 15 7 2 7 5
3610.0 7 4 4 8 9 28 16 18 17 27
3650.0 40 37 40 32 26 31 18 33 25 21
3690.0 21 11 20 23 18 11 16 21 24 26
3730.0 22 21 18 12 33 9 21 8 13 10
3770.0 5 1 6 13 12 8 9 6 15 17
3810.0 20 25 6 4 7 10 23 36 28 33
3850.0 34 70 59 62 75 76 48 45 35 40
3890.0 28 35 30 54 38 37 21 32 28 30
3930.0 31 36 31 36 31 40 53 37 43 35
##END=
