##TITLE=Benzene, 1-chloro-4-(chloromethyl)-
##JCAMP-DX=4.24
##DATA TYPE=INFRARED SPECTRUM
##ORIGIN=Sadtler Research Labs Under US-EPA Contract
##OWNER=NIST Standard Reference Data Program
##CAS REGISTRY NO=104-83-6
##MOLFORM=C 7 H 6 Cl 2
##XUNITS=1/CM
##YUNITS=ABSORBANCE
##XFACTOR=1.0
##YFACTOR=0.000070276
##DELTAX=4.0
##FIRSTX=450.0
##LASTX=3966.0
##FIRSTY=0.017218
##MAXX=3966
##MINX=450
##MAXY=0.70276
##MINY=0
##NPOINTS=880
##XYDATA=(X++(Y..Y))
450.0 245 250 301 337 391 535 673 791 980 1183
490.0 1350 1502 1659 1530 1303 922 543 353 160 144
530.0 114 97 103 113 117 152 124 28 184 75
570.0 171 154 138 153 41 93 195 234 246 274
610.0 306 329 365 402 479 635 1002 1636 1894 1739
650.0 1230 637 497 453 508 644 781 1004 1322 1682
690.0 1944 1893 1660 1350 1152 1148 1320 1625 2177 2830
730.0 3557 3994 3926 3368 2652 2011 1460 1079 861 725
770.0 678 697 735 834 1016 1365 1928 2460 2793 3136
810.0 3760 4629 5156 5384 4913 4197 3355 2472 1610 1042
850.0 685 488 405 349 324 304 306 314 321 321
890.0 327 314 314 301 295 284 283 252 242 229
930.0 221 213 192 191 187 175 165 158 153 141
970.0 146 154 156 185 189 211 226 263 381 689
1010.0 1620 3210 3305 3076 1530 378 208 208 271 343
1050.0 387 401 397 384 406 481 627 887 1356 2456
1090.0 5010 8599 10000 9011 5203 2204 1179 798 616 496
1130.0 430 387 349 301 285 276 269 255 240 234
1170.0 275 340 392 389 373 343 337 355 391 436
1210.0 473 516 568 606 597 554 530 552 616 699
1250.0 839 1072 1522 2445 3642 3889 3604 2467 1536 1218
1290.0 1024 852 681 555 457 371 333 306 280 265
1330.0 272 275 295 269 239 232 217 204 221 205
1370.0 208 257 255 310 396 487 640 804 924 959
1410.0 944 888 812 641 559 545 566 680 761 895
1450.0 923 848 755 554 554 567 699 924 1586 3201
1490.0 6074 7912 7590 5531 2801 1324 889 670 529 385
1530.0 298 269 241 290 238 218 214 295 224 222
1570.0 269 261 327 398 537 780 1199 1728 1938 1693
1610.0 1150 564 348 279 284 268 317 337 313 367
1650.0 326 380 256 254 193 194 159 127 149 156
1690.0 112 113 140 142 146 113 124 179 118 132
1730.0 154 208 178 216 213 230 180 195 217 244
1770.0 333 359 294 248 157 110 115 91 96 59
1810.0 60 67 63 53 70 78 57 51 52 73
1850.0 63 68 63 70 94 148 134 180 231 283
1890.0 337 369 359 345 304 259 195 160 126 85
1930.0 70 58 52 62 60 50 44 45 50 51
1970.0 43 42 42 34 34 45 61 40 41 46
2010.0 46 50 49 48 55 53 40 40 57 40
2050.0 33 49 68 54 49 33 18 17 16 16
2090.0 25 23 31 31 27 23 20 22 30 22
2130.0 36 35 36 35 21 23 28 28 26 27
2170.0 31 20 28 20 27 27 14 26 25 25
2210.0 33 32 35 32 32 32 30 25 31 31
2250.0 24 23 26 32 35 45 55 64 76 71
2290.0 77 81 66 65 64 49 33 25 42 19
2330.0 29 47 43 71 87 59 43 25 46 82
2370.0 96 102 98 85 67 59 60 54 53 53
2410.0 59 60 58 53 44 37 38 30 25 31
2450.0 31 29 23 37 36 35 36 42 36 32
2490.0 29 34 27 28 26 21 35 28 20 28
2530.0 33 41 40 36 46 53 46 52 46 47
2570.0 53 52 62 61 69 65 70 61 60 68
2610.0 68 71 73 65 57 36 40 30 23 31
2650.0 43 46 35 36 27 22 0 0 14 21
2690.0 45 52 56 58 57 64 75 88 80 73
2730.0 72 44 37 38 30 29 37 26 35 31
2770.0 29 42 39 39 54 70 55 73 55 59
2810.0 48 49 52 50 48 55 65 71 72 80
2850.0 101 123 130 140 174 177 210 218 220 222
2890.0 209 187 151 122 102 100 84 90 101 126
2930.0 137 178 233 294 366 448 559 685 818 957
2970.0 1014 1044 969 868 766 661 578 540 526 510
3010.0 492 483 452 450 479 596 762 914 983 946
3050.0 838 712 632 537 444 372 332 346 383 450
3090.0 497 528 556 547 512 432 330 228 135 86
3130.0 63 64 51 57 47 60 47 47 32 34
3170.0 48 32 40 34 29 24 28 32 30 28
3210.0 36 36 21 22 31 35 37 36 30 35
3250.0 38 30 35 51 39 38 31 26 39 28
3290.0 36 44 37 36 45 36 35 33 35 28
3330.0 36 49 29 35 47 47 36 27 41 53
3370.0 59 42 37 29 32 42 31 34 33 42
3410.0 35 37 33 33 33 46 54 47 48 33
3450.0 42 29 16 26 29 34 34 35 61 32
3490.0 64 41 51 42 42 34 36 49 53 39
3530.0 48 43 66 45 29 53 54 41 16 26
3570.0 48 45 56 53 27 44 42 59 68 35
3610.0 49 44 57 99 40 112 61 62 73 43
3650.0 83 109 112 89 71 73 59 116 104 84
3690.0 94 111 92 69 68 71 128 85 98 102
3730.0 87 91 117 74 100 89 165 111 123 85
3770.0 88 94 92 80 81 77 70 53 56 77
3810.0 89 61 60 69 66 68 53 54 76 97
3850.0 78 99 133 131 111 86 96 117 130 128
3890.0 118 118 106 108 120 132 94 89 98 87
3930.0 77 75 98 102 96 83 102 106 117 123
##END=
