##TITLE=Benzonitrile, 4-methyl-
##JCAMP-DX=4.24
##DATA TYPE=INFRARED SPECTRUM
##ORIGIN=Sadtler Research Labs Under US-EPA Contract
##OWNER=NIST Standard Reference Data Program
##CAS REGISTRY NO=104-85-8
##MOLFORM=C 8 H 7 N
##XUNITS=1/CM
##YUNITS=ABSORBANCE
##XFACTOR=1.0
##YFACTOR=0.000075928
##DELTAX=4.0
##FIRSTX=450.0
##LASTX=3966.0
##FIRSTY=0.000000
##MAXX=3966
##MINX=450
##MAXY=0.75928
##MINY=0
##NPOINTS=880
##XYDATA=(X++(Y..Y))
450.0 0 90 92 141 145 195 143 246 165 229
490.0 164 249 239 338 363 461 586 688 1032 1298
530.0 2010 2575 4465 5036 3793 2921 1928 1253 907 690
570.0 666 471 390 259 282 262 229 222 223 206
610.0 193 185 131 102 87 94 109 120 147 163
650.0 200 220 258 238 254 197 226 207 218 227
690.0 241 265 286 341 454 457 358 373 293 265
730.0 171 145 118 94 126 121 150 149 191 207
770.0 270 325 415 482 657 993 1564 2525 3649 4953
810.0 5266 6989 10000 6221 5454 4845 3359 2187 1183 662
850.0 381 293 240 228 224 201 186 161 161 135
890.0 146 142 152 164 208 248 246 257 259 239
930.0 235 288 343 412 511 559 501 467 435 384
970.0 352 329 307 280 254 228 208 189 181 190
1010.0 273 554 914 925 962 971 727 497 552 608
1050.0 632 604 590 549 498 449 425 434 428 446
1090.0 466 487 492 547 619 726 794 624 591 642
1130.0 484 348 278 217 194 177 180 191 249 414
1170.0 749 1027 1108 1166 1034 695 419 327 323 357
1210.0 356 362 379 371 386 441 497 541 583 618
1250.0 717 945 1217 1365 1417 1283 940 696 574 486
1290.0 439 369 305 276 277 242 226 205 211 210
1330.0 219 238 214 258 322 412 528 608 640 683
1370.0 653 578 616 669 688 713 707 693 806 904
1410.0 966 1018 978 1079 1059 1027 886 807 752 682
1450.0 640 646 613 686 778 828 773 784 879 865
1490.0 903 1127 1573 2936 4121 4572 4510 4367 2990 1159
1530.0 833 584 431 320 316 387 358 344 389 457
1570.0 461 461 468 483 576 651 844 1112 1527 2097
1610.0 2523 2590 2583 2298 1795 1354 1194 921 864 719
1650.0 529 517 512 461 331 283 161 253 176 253
1690.0 417 691 899 1034 1081 1079 779 432 334 284
1730.0 180 115 147 166 168 203 286 323 344 334
1770.0 279 210 217 220 286 358 395 395 347 324
1810.0 211 135 125 110 92 72 85 94 74 52
1850.0 90 112 121 131 124 107 142 164 188 230
1890.0 281 367 467 572 634 616 590 598 482 366
1930.0 274 202 159 114 101 97 90 87 89 79
1970.0 84 88 88 88 89 75 80 85 88 86
2010.0 85 80 78 83 87 87 92 88 80 84
2050.0 78 79 76 73 68 78 80 83 83 82
2090.0 80 78 76 68 67 63 57 53 53 52
2130.0 52 48 47 48 48 48 51 50 53 56
2170.0 65 71 83 86 89 90 93 91 104 125
2210.0 155 220 381 746 1428 2328 2973 3065 2884 2188
2250.0 940 221 110 97 99 90 94 93 93 101
2290.0 113 123 125 140 144 136 129 129 118 116
2330.0 117 93 94 85 94 100 119 121 104 111
2370.0 113 124 122 130 126 127 122 122 109 102
2410.0 102 107 113 118 128 121 119 107 90 82
2450.0 76 76 71 68 66 73 73 74 72 72
2490.0 75 75 71 72 74 72 77 83 86 97
2530.0 105 112 110 114 105 105 101 101 102 110
2570.0 113 109 111 110 117 121 126 118 111 97
2610.0 85 85 77 84 84 96 109 120 130 127
2650.0 117 106 80 58 55 48 48 52 54 55
2690.0 50 55 60 65 74 78 80 78 76 78
2730.0 89 102 131 162 184 191 192 167 141 131
2770.0 135 141 141 135 125 127 120 123 128 140
2810.0 154 162 170 173 184 187 199 215 244 279
2850.0 325 397 495 642 840 1052 1230 1374 1446 1436
2890.0 1372 1301 1230 1177 1147 1164 1232 1364 1619 2012
2930.0 2536 2982 3167 3105 2808 2327 1795 1419 1210 1094
2970.0 1020 956 950 998 1057 1148 1254 1373 1529 1653
3010.0 1762 1807 1722 1633 1638 1848 2409 3054 3264 3222
3050.0 3133 2441 1922 1721 1537 1388 1313 1271 1241 1241
3090.0 1245 1198 1118 1060 951 762 587 477 410 376
3130.0 357 337 302 262 218 161 119 91 77 73
3170.0 65 61 60 61 64 64 62 68 62 65
3210.0 60 64 66 64 62 63 68 52 51 50
3250.0 52 52 53 51 48 57 50 54 51 55
3290.0 58 59 55 54 59 54 59 60 64 67
3330.0 73 69 71 74 75 74 75 78 73 73
3370.0 73 71 78 81 91 89 104 109 126 141
3410.0 165 172 174 180 172 149 149 134 115 95
3450.0 84 79 82 75 80 71 69 73 76 63
3490.0 64 65 66 64 52 59 55 51 50 60
3530.0 63 58 56 63 58 55 57 55 59 52
3570.0 63 67 84 100 88 94 85 81 68 71
3610.0 68 73 88 74 78 85 73 83 93 85
3650.0 83 76 75 68 84 82 93 83 103 123
3690.0 115 112 122 125 113 100 106 100 103 87
3730.0 112 105 100 132 123 131 134 120 99 95
3770.0 91 82 76 77 81 82 72 69 83 68
3810.0 80 75 87 88 91 92 106 118 120 120
3850.0 133 141 128 124 117 138 121 100 113 120
3890.0 136 122 117 121 106 125 124 142 123 130
3930.0 119 128 121 128 122 105 107 106 104 116
##END=
