##TITLE=Benzaldehyde, 4-methyl-
##JCAMP-DX=4.24
##DATA TYPE=INFRARED SPECTRUM
##ORIGIN=Sadtler Research Labs Under US-EPA Contract
##OWNER=NIST Standard Reference Data Program
##CAS REGISTRY NO=104-87-0
##MOLFORM=C 8 H 8 O
##XUNITS=1/CM
##YUNITS=ABSORBANCE
##XFACTOR=1.0
##YFACTOR=0.000118604
##DELTAX=4.0
##FIRSTX=450.0
##LASTX=3966.0
##FIRSTY=0.167350
##MAXX=3966
##MINX=450
##MAXY=1.18604
##MINY=0
##NPOINTS=880
##XYDATA=(X++(Y..Y))
450.0 1411 714 492 344 102 599 538 967 488 415
490.0 874 975 1164 463 247 469 90 216 209 179
530.0 112 32 161 100 115 17 111 155 103 184
570.0 159 144 208 268 265 320 347 350 354 338
610.0 292 250 200 172 137 99 94 84 98 97
650.0 96 80 85 94 84 95 63 92 59 78
690.0 81 81 87 77 86 61 90 65 96 87
730.0 110 146 272 499 874 1242 1290 1327 1152 806
770.0 329 331 453 546 615 852 1097 1316 1611 2236
810.0 1731 1350 1160 867 724 583 818 1238 1374 1322
850.0 1338 872 375 175 103 83 64 64 65 88
890.0 97 100 88 82 62 49 50 48 66 49
930.0 55 61 54 51 59 54 68 63 62 60
970.0 84 69 77 98 100 109 114 126 132 129
1010.0 161 214 202 194 189 154 117 112 121 139
1050.0 144 144 132 129 121 115 115 121 129 138
1090.0 161 184 204 223 254 273 262 212 193 160
1130.0 120 105 99 102 120 190 320 673 1376 2018
1170.0 1857 1862 1645 853 490 575 875 1296 1616 1832
1210.0 1871 1574 1029 627 305 132 92 83 85 76
1250.0 79 70 77 70 90 117 175 243 330 396
1290.0 414 431 517 659 614 593 650 454 237 156
1330.0 122 90 68 89 114 114 117 117 107 130
1370.0 192 295 428 498 513 531 447 319 277 253
1410.0 242 254 243 261 258 253 228 208 190 168
1450.0 155 145 128 144 155 154 131 125 131 118
1490.0 106 114 113 128 114 110 130 122 102 106
1530.0 87 90 71 62 67 88 92 98 145 221
1570.0 324 441 541 623 731 865 1071 1432 1811 2085
1610.0 2205 2167 1815 1475 1142 824 584 430 348 264
1650.0 206 181 182 179 199 248 335 514 644 749
1690.0 828 925 961 1222 1813 3302 6399 9952 10000 9529
1730.0 9595 4417 1478 632 374 238 182 133 116 105
1770.0 92 74 80 72 68 72 86 106 130 154
1810.0 157 149 119 80 53 33 29 28 30 27
1850.0 33 38 37 39 38 33 49 63 68 79
1890.0 79 89 99 107 122 136 138 134 126 107
1930.0 81 71 63 61 60 66 69 76 77 74
1970.0 79 70 66 60 50 44 38 43 47 54
2010.0 56 57 51 47 37 23 28 35 42 49
2050.0 53 54 55 45 34 36 36 40 35 36
2090.0 38 38 42 38 36 40 44 45 44 51
2130.0 54 53 51 45 40 36 37 34 33 30
2170.0 26 27 23 24 24 27 32 30 28 26
2210.0 30 29 31 30 29 31 27 29 24 28
2250.0 24 27 27 34 34 33 33 34 31 29
2290.0 26 19 13 11 6 2 12 16 18 29
2330.0 30 28 28 17 1 12 12 20 6 1
2370.0 1 1 1 1 9 16 26 32 38 39
2410.0 46 46 45 44 40 36 34 32 29 35
2450.0 35 30 33 28 27 22 20 15 15 18
2490.0 15 16 18 24 27 28 30 30 27 31
2530.0 31 30 27 23 22 30 35 35 38 43
2570.0 47 46 48 52 51 52 51 47 46 44
2610.0 38 39 43 46 56 65 69 71 71 73
2650.0 83 90 103 111 129 162 188 232 281 305
2690.0 344 388 445 528 659 856 1129 1413 1579 1640
2730.0 1605 1415 1144 866 643 493 398 343 334 361
2770.0 400 447 514 596 676 775 869 969 1072 1184
2810.0 1268 1315 1283 1214 1074 892 694 527 394 310
2850.0 248 227 223 236 267 318 365 408 418 412
2890.0 398 380 358 334 333 341 358 407 487 581
2930.0 693 753 760 731 643 519 405 349 316 295
2970.0 282 275 294 308 327 361 388 420 453 484
3010.0 533 573 625 694 786 842 868 863 813 720
3050.0 691 683 663 662 648 545 458 399 343 291
3090.0 279 269 255 238 208 185 166 135 123 107
3130.0 97 90 82 81 71 57 63 48 50 44
3170.0 46 36 28 27 30 31 32 34 47 42
3210.0 28 36 34 42 47 51 46 33 28 33
3250.0 44 36 42 45 48 42 51 37 51 31
3290.0 26 33 35 35 43 34 44 44 52 51
3330.0 61 49 64 42 57 39 52 43 47 57
3370.0 50 44 51 45 62 72 89 87 106 122
3410.0 146 147 170 180 167 172 155 121 94 67
3450.0 49 66 55 57 60 42 46 50 50 55
3490.0 42 48 48 44 65 55 45 46 61 49
3530.0 37 28 23 21 33 55 37 28 47 42
3570.0 34 51 33 61 61 47 55 38 56 53
3610.0 36 15 36 43 32 11 33 47 44 36
3650.0 22 27 37 45 48 62 18 50 40 28
3690.0 26 28 2 1 15 27 29 22 36 9
3730.0 27 15 20 31 24 45 13 28 1 13
3770.0 4 32 32 30 22 42 36 63 31 2
3810.0 1 6 33 40 43 28 11 10 1 15
3850.0 15 55 35 33 14 53 21 2 35 35
3890.0 19 59 49 11 50 10 40 80 54 78
3930.0 5 26 17 14 89 26 80 81 27 0
##END=
