##TITLE=Benzene, butyl-
##JCAMP-DX=4.24
##DATA TYPE=INFRARED SPECTRUM
##ORIGIN=Sadtler Research Labs Under US-EPA Contract
##OWNER=NIST Standard Reference Data Program
##CAS REGISTRY NO=104-51-8
##MOLFORM=C 10 H 14
##XUNITS=1/CM
##YUNITS=ABSORBANCE
##XFACTOR=1.0
##YFACTOR=0.000076788
##DELTAX=4.0
##FIRSTX=450.0
##LASTX=3966.0
##FIRSTY=0.036244
##MAXX=3966
##MINX=450
##MAXY=0.76788
##MINY=0
##NPOINTS=880
##XYDATA=(X++(Y..Y))
450.0 472 537 249 304 579 124 672 474 854 472
490.0 887 717 787 823 743 720 430 612 347 474
530.0 327 452 342 321 417 390 470 456 666 631
570.0 708 653 631 540 485 511 398 425 335 409
610.0 318 358 331 344 351 340 380 319 395 361
650.0 424 422 468 504 489 603 755 1030 1475 2199
690.0 3168 3861 4482 3959 3448 2614 2210 1972 2039 2304
730.0 2797 3285 3542 3506 3044 2467 1845 1396 1030 833
770.0 710 664 607 576 525 472 440 419 385 385
810.0 395 380 381 370 363 338 325 308 294 302
850.0 289 310 285 298 301 295 311 326 344 338
890.0 380 388 408 420 449 449 434 426 405 404
930.0 393 409 391 373 361 348 347 361 385 380
970.0 395 386 386 382 374 373 364 365 348 357
1010.0 350 376 440 579 822 888 856 749 548 496
1050.0 538 580 624 606 581 526 489 448 434 447
1090.0 449 478 509 555 551 530 473 412 360 318
1130.0 300 274 276 266 263 261 271 282 277 284
1170.0 298 317 334 357 373 399 424 443 451 444
1210.0 425 393 369 338 328 326 346 356 352 353
1250.0 344 344 340 344 342 356 360 364 372 371
1290.0 385 395 416 415 423 428 424 435 439 458
1330.0 476 518 571 607 615 609 581 547 555 540
1370.0 559 588 687 737 757 725 612 491 437 405
1410.0 383 368 383 403 419 474 597 747 1016 1285
1450.0 1602 1758 1905 1905 1807 1601 1418 1190 1035 1052
1490.0 1350 1835 1976 1937 1577 818 469 345 324 323
1530.0 311 316 307 315 277 272 257 248 264 273
1570.0 313 320 392 449 489 576 698 940 1135 1262
1610.0 1166 909 610 377 316 235 255 220 230 210
1650.0 247 190 238 195 196 197 188 190 203 219
1690.0 248 297 328 389 397 391 387 397 353 343
1730.0 356 340 279 257 238 227 221 195 195 182
1770.0 193 191 202 211 260 307 377 371 357 279
1810.0 218 190 179 165 155 158 152 159 157 187
1850.0 185 201 209 223 232 246 233 225 217 197
1890.0 185 161 138 124 118 123 130 150 178 212
1930.0 253 290 306 318 325 321 305 258 202 143
1970.0 107 94 88 82 78 77 74 71 71 69
2010.0 69 70 74 73 76 72 75 70 73 67
2050.0 63 56 59 61 62 63 62 59 54 52
2090.0 53 48 43 43 46 48 51 44 43 49
2130.0 50 43 45 50 44 43 46 48 46 47
2170.0 45 45 47 46 46 41 41 41 39 40
2210.0 43 41 38 37 35 34 34 34 32 35
2250.0 34 35 30 31 32 31 27 29 28 26
2290.0 22 19 13 15 9 16 12 4 4 4
2330.0 4 6 17 14 5 23 4 4 4 19
2370.0 35 44 38 40 40 39 35 32 32 28
2410.0 28 27 30 31 33 33 34 32 29 30
2450.0 25 26 28 26 21 21 23 23 20 16
2490.0 17 21 24 24 32 34 40 39 40 44
2530.0 41 41 42 46 45 45 48 51 53 57
2570.0 54 53 54 55 61 62 65 67 74 75
2610.0 73 70 69 71 73 78 81 86 90 96
2650.0 100 102 105 107 110 112 113 115 113 111
2690.0 113 108 101 99 91 87 89 90 101 102
2730.0 106 120 136 142 150 156 141 128 118 126
2770.0 131 144 170 201 227 254 273 289 309 323
2810.0 335 350 371 398 433 483 549 644 782 1000
2850.0 1326 1811 2441 3136 3796 4182 4283 4367 4297 4014
2890.0 3693 3243 2830 2757 2936 3345 3955 4776 5799 6989
2930.0 8232 9305 10000 9952 9151 8025 6981 6584 6974 7952
2970.0 8463 7683 6130 4064 2564 1815 1373 1163 1079 1098
3010.0 1156 1293 1527 1945 2665 3523 4074 4114 3721 2794
3050.0 1999 1627 1609 1932 2579 3142 3263 3160 2607 2053
3090.0 1794 1592 1408 1185 976 820 691 564 435 317
3130.0 229 181 151 134 130 125 122 125 130 133
3170.0 132 125 115 106 98 92 93 87 86 81
3210.0 71 63 57 53 51 50 43 45 45 44
3250.0 49 41 39 26 34 33 26 19 18 20
3290.0 24 23 20 25 24 22 22 26 25 16
3330.0 11 5 8 5 8 10 10 17 21 18
3370.0 12 8 10 19 13 18 22 34 27 23
3410.0 29 26 30 28 30 21 16 19 14 14
3450.0 15 24 14 12 21 18 13 13 16 17
3490.0 12 16 18 16 19 20 30 19 28 16
3530.0 19 23 25 25 17 23 25 19 22 33
3570.0 29 27 18 24 22 27 43 17 41 21
3610.0 44 29 44 45 25 79 45 60 46 37
3650.0 75 60 86 43 53 43 50 70 21 41
3690.0 21 50 29 42 37 23 63 40 17 44
3730.0 30 55 9 66 12 43 40 11 23 21
3770.0 20 8 26 32 22 31 26 0 47 11
3810.0 43 14 23 57 34 47 25 40 26 40
3850.0 8 50 54 17 34 20 17 4 46 4
3890.0 35 2 18 7 25 2 16 15 18 31
3930.0 15 26 28 21 5 29 20 28 34 31
##END=
