##TITLE=Benzaldehyde, 4-chloro-
##JCAMP-DX=4.24
##DATA TYPE=INFRARED SPECTRUM
##ORIGIN=Sadtler Research Labs Under US-EPA Contract
##OWNER=NIST Standard Reference Data Program
##CAS REGISTRY NO=104-88-1
##MOLFORM=C 7 H 5 Cl O
##XUNITS=1/CM
##YUNITS=ABSORBANCE
##XFACTOR=1.0
##YFACTOR=0.000080957
##DELTAX=4.0
##FIRSTX=450.0
##LASTX=3966.0
##FIRSTY=0.019025
##MAXX=3966
##MINX=450
##MAXY=0.80957
##MINY=0
##NPOINTS=880
##XYDATA=(X++(Y..Y))
450.0 235 209 276 382 483 605 632 627 673 567
490.0 492 438 369 295 251 237 295 370 509 667
530.0 838 852 774 668 449 295 262 250 245 247
570.0 211 190 184 175 191 174 168 152 181 214
610.0 195 214 222 190 214 210 186 150 158 155
650.0 210 186 161 194 194 313 236 204 190 243
690.0 265 322 319 330 307 232 202 189 158 175
730.0 173 182 190 186 223 209 244 240 298 350
770.0 440 490 469 425 296 241 321 525 922 1297
810.0 1594 2046 2909 2973 4000 4405 4111 3373 2089 1079
850.0 636 425 316 262 223 186 181 195 194 188
890.0 196 205 208 220 205 203 183 191 180 182
930.0 181 183 189 189 220 214 223 268 290 276
970.0 261 220 190 181 166 170 183 184 255 499
1010.0 891 872 832 703 241 31 4 4 44 108
1050.0 165 183 236 320 428 596 789 1091 1649 2637
1090.0 3443 3622 3450 2461 1237 691 495 411 365 325
1130.0 304 261 231 216 213 249 389 752 1142 1237
1170.0 1230 1108 806 757 978 1427 1958 2362 2463 2200
1210.0 1625 878 432 327 315 312 295 274 273 252
1250.0 245 232 201 217 312 431 494 491 456 449
1290.0 589 724 735 767 654 445 362 342 328 283
1330.0 267 262 262 296 330 356 389 423 456 512
1370.0 587 668 804 924 883 830 740 534 438 399
1410.0 368 342 308 278 260 214 189 135 175 169
1450.0 176 184 118 181 190 261 363 620 924 1160
1490.0 1133 1000 724 387 129 107 144 129 110 140
1530.0 157 134 138 82 171 239 312 395 663 994
1570.0 1308 1654 1769 2053 2410 2739 3183 3357 2969 2296
1610.0 1466 773 390 324 303 323 337 327 406 367
1650.0 363 290 421 431 434 392 406 405 424 396
1690.0 494 590 688 917 1418 2482 4855 8404 10000 9961
1730.0 8899 4606 2130 1317 947 726 691 787 819 774
1770.0 704 437 319 261 246 255 235 259 239 226
1810.0 175 146 139 131 113 102 112 103 102 71
1850.0 94 93 100 100 105 92 119 126 136 135
1890.0 138 166 191 198 199 187 168 143 136 124
1930.0 117 109 105 102 98 94 92 91 84 91
1970.0 84 83 83 88 83 85 89 100 96 88
2010.0 87 86 91 98 104 103 101 96 81 68
2050.0 57 54 55 51 49 56 61 62 61 61
2090.0 53 48 47 51 47 46 42 40 39 38
2130.0 39 38 37 38 31 36 36 37 35 36
2170.0 36 34 35 40 33 34 32 32 33 31
2210.0 31 32 30 30 30 37 35 36 35 34
2250.0 41 34 39 46 45 45 44 44 43 44
2290.0 55 55 61 67 67 71 70 67 70 71
2330.0 63 53 51 62 69 69 68 76 78 81
2370.0 63 61 56 56 48 40 41 46 46 46
2410.0 32 26 25 25 22 22 19 14 12 5
2450.0 5 5 4 4 9 8 3 2 7 2
2490.0 2 2 5 6 7 5 0 6 6 13
2530.0 15 25 38 44 51 57 59 60 55 56
2570.0 55 51 57 57 57 51 42 36 29 31
2610.0 31 26 27 33 27 34 35 35 42 49
2650.0 55 61 76 81 95 108 121 140 154 180
2690.0 207 248 306 375 475 602 774 1000 1163 1212
2730.0 1219 1110 919 738 611 522 468 438 436 448
2770.0 471 495 519 546 561 587 621 684 786 908
2810.0 1054 1180 1284 1299 1217 1062 870 648 439 279
2850.0 181 123 96 76 78 71 74 69 71 72
2890.0 67 67 61 61 50 54 48 47 47 44
2930.0 48 40 43 49 45 44 38 20 8 13
2970.0 28 48 67 65 68 68 64 70 71 71
3010.0 82 91 94 117 133 146 160 166 170 159
3050.0 152 141 134 135 124 119 127 133 153 171
3090.0 170 175 189 179 149 118 93 74 58 57
3130.0 49 50 43 45 48 45 50 46 34 34
3170.0 29 35 38 30 40 39 33 30 32 35
3210.0 30 28 29 25 30 31 27 39 30 27
3250.0 39 30 23 25 31 31 26 33 26 27
3290.0 34 36 28 29 31 31 25 31 27 33
3330.0 27 36 35 30 32 32 28 34 36 40
3370.0 46 53 53 53 54 55 62 64 68 72
3410.0 78 99 126 153 182 190 172 148 111 72
3450.0 53 33 35 24 30 38 23 32 20 27
3490.0 21 39 34 34 18 30 31 34 46 25
3530.0 21 38 34 34 35 29 37 39 48 38
3570.0 46 100 160 215 228 197 156 68 55 49
3610.0 25 32 26 27 39 4 35 48 51 51
3650.0 8 39 46 65 65 44 39 20 62 84
3690.0 47 77 94 90 95 90 87 111 115 110
3730.0 106 97 90 113 75 93 101 122 129 142
3770.0 154 163 160 171 168 173 176 177 166 172
3810.0 177 180 167 161 181 180 169 164 174 184
3850.0 182 145 166 180 174 168 177 183 182 190
3890.0 197 199 201 188 190 204 205 207 213 207
3930.0 208 209 214 201 202 220 32 46 47 49
##END=
