##TITLE=Pyridine, 5-ethyl-2-methyl-
##JCAMP-DX=4.24
##DATA TYPE=INFRARED SPECTRUM
##ORIGIN=Sadtler Research Labs Under US-EPA Contract
##OWNER=NIST Standard Reference Data Program
##CAS REGISTRY NO=104-90-5
##MOLFORM=C 8 H 11 N
##XUNITS=1/CM
##YUNITS=ABSORBANCE
##XFACTOR=1.0
##YFACTOR=0.000060202
##DELTAX=4.0
##FIRSTX=450.0
##LASTX=3966.0
##FIRSTY=0.100778
##MAXX=3966
##MINX=450
##MAXY=0.60202
##MINY=0
##NPOINTS=880
##XYDATA=(X++(Y..Y))
450.0 1674 793 254 1151 876 970 841 0 105 559
490.0 350 414 372 508 312 308 354 355 389 388
530.0 350 415 520 697 816 954 589 487 381 375
570.0 338 366 108 355 364 323 271 331 263 239
610.0 239 275 240 273 413 424 584 576 634 602
650.0 619 601 505 356 314 316 286 319 312 312
690.0 272 306 351 406 453 485 572 721 864 943
730.0 1049 1199 1184 1008 955 806 718 663 499 451
770.0 476 466 415 522 601 591 696 791 995 1265
810.0 1320 1666 2443 2447 2538 2437 2027 1614 1347 1041
850.0 760 612 484 375 364 319 323 308 292 284
890.0 294 255 286 316 346 358 415 467 474 549
930.0 518 463 466 462 522 578 645 835 957 942
970.0 941 892 764 584 497 476 427 415 487 555
1010.0 656 861 1228 1571 1643 1635 1723 1505 1203 1057
1050.0 985 1002 1045 1087 1027 984 832 654 553 490
1090.0 472 442 442 433 452 495 547 638 781 960
1130.0 1085 1135 1131 1080 895 692 523 451 402 375
1170.0 361 355 363 362 358 344 365 354 390 411
1210.0 407 441 478 502 551 679 966 1360 1585 1621
1250.0 1644 1305 837 605 521 476 472 484 550 674
1290.0 951 1215 1293 1317 1309 1159 1095 1240 1284 1278
1330.0 1203 1017 841 710 663 694 747 808 920 948
1370.0 1033 1238 1536 2034 2712 3198 3340 3332 2899 2240
1410.0 1715 1444 1405 1342 1340 1391 1550 1704 1844 2015
1450.0 2263 2400 2653 2697 2990 3202 3713 4690 6255 8251
1490.0 8567 8564 7334 5015 2989 1908 1467 1256 1125 1009
1530.0 950 941 925 995 1072 1115 1298 1528 1786 1927
1570.0 1974 1935 1834 1608 1537 1835 2404 3231 3471 3424
1610.0 2876 2207 1279 703 500 373 367 362 331 355
1650.0 354 375 311 292 288 287 306 285 314 349
1690.0 318 327 400 481 484 496 521 540 512 504
1730.0 527 521 435 388 385 418 393 379 360 321
1770.0 330 298 271 270 233 242 198 186 188 166
1810.0 130 150 144 150 170 196 196 213 266 316
1850.0 287 257 254 224 220 223 200 197 203 204
1890.0 216 208 210 220 238 281 276 282 289 261
1930.0 215 168 153 152 134 110 124 117 122 122
1970.0 112 105 107 105 100 117 113 102 84 94
2010.0 82 78 72 72 63 71 77 82 93 91
2050.0 77 65 60 54 65 62 73 88 96 97
2090.0 104 102 93 79 61 68 65 70 67 70
2130.0 73 69 73 67 63 58 71 73 75 73
2170.0 69 76 72 75 72 76 74 75 83 88
2210.0 90 91 94 92 98 91 91 89 89 87
2250.0 86 86 87 87 87 91 88 81 75 80
2290.0 68 71 68 57 68 68 73 75 71 65
2330.0 58 55 66 70 65 49 43 38 50 65
2370.0 28 45 51 48 53 47 54 51 55 60
2410.0 64 67 70 84 78 93 93 100 87 83
2450.0 77 73 67 53 44 41 40 43 41 46
2490.0 49 40 41 41 41 43 50 56 47 46
2530.0 45 37 31 24 27 18 13 6 9 11
2570.0 14 18 31 35 39 45 45 46 53 54
2610.0 70 76 93 103 116 118 122 110 96 75
2650.0 69 71 68 79 90 91 86 90 75 76
2690.0 63 53 52 48 48 52 59 75 91 111
2730.0 139 164 188 189 180 170 155 148 169 187
2770.0 207 215 233 231 227 219 209 212 225 223
2810.0 231 263 283 320 364 424 502 581 706 825
2850.0 985 1195 1468 1806 2197 2579 2941 3245 3491 3609
2890.0 3527 3360 3230 3142 3143 3192 3297 3495 3816 4398
2930.0 5235 6147 6865 7192 6952 6292 5610 5131 5211 6379
2970.0 8669 10000 9906 9652 7886 5368 4184 3892 4118 4746
3010.0 5149 5081 4926 4350 3502 2982 2765 2630 2558 2388
3050.0 2174 2001 1840 1702 1590 1483 1390 1289 1174 1119
3090.0 1082 1058 1040 971 861 714 563 435 352 294
3130.0 267 232 211 218 202 207 205 209 210 208
3170.0 229 239 232 226 208 196 160 144 122 113
3210.0 112 114 110 91 92 70 81 75 82 93
3250.0 65 55 63 57 60 76 77 78 54 69
3290.0 61 68 51 50 63 69 49 57 68 67
3330.0 63 57 56 69 69 67 80 66 61 63
3370.0 67 59 79 46 53 66 93 56 77 52
3410.0 71 84 103 82 98 58 64 92 77 87
3450.0 67 61 74 101 101 89 68 85 86 86
3490.0 77 49 51 57 79 75 62 60 71 84
3530.0 70 58 53 101 92 71 48 93 62 62
3570.0 105 47 78 63 87 65 60 41 12 54
3610.0 72 68 15 31 55 85 76 79 60 58
3650.0 67 39 33 42 38 24 60 95 46 65
3690.0 4 70 36 55 29 59 64 41 47 94
3730.0 42 69 73 25 57 46 26 74 36 52
3770.0 34 57 52 32 102 56 7 75 77 21
3810.0 10 41 41 70 36 140 114 56 62 79
3850.0 61 40 85 56 31 64 44 127 96 75
3890.0 123 151 88 111 66 84 24 108 173 119
3930.0 130 122 154 116 160 95 103 143 124 159
##END=
