##TITLE=Formic acid, phenylmethyl ester
##JCAMP-DX=4.24
##DATA TYPE=INFRARED SPECTRUM
##ORIGIN=Sadtler Research Labs Under US-EPA Contract
##OWNER=NIST Standard Reference Data Program
##CAS REGISTRY NO=104-57-4
##MOLFORM=C 8 H 8 O 2
##XUNITS=1/CM
##YUNITS=ABSORBANCE
##XFACTOR=1.0
##YFACTOR=0.000101770
##DELTAX=4.0
##FIRSTX=450.0
##LASTX=3966.0
##FIRSTY=0.023407
##MAXX=3966
##MINX=450
##MAXY=1.0177
##MINY=0
##NPOINTS=880
##XYDATA=(X++(Y..Y))
450.0 230 113 79 151 193 180 186 229 211 213
490.0 179 164 121 52 48 26 11 23 33 19
530.0 1 44 13 31 33 29 16 65 65 92
570.0 141 194 251 287 311 344 370 343 298 244
610.0 180 134 124 96 84 69 75 81 85 69
650.0 54 65 80 105 136 238 306 445 605 753
690.0 957 1161 1189 1012 936 798 730 701 731 813
730.0 939 1129 1264 1365 1280 1142 976 799 629 473
770.0 347 245 190 136 111 90 85 88 93 89
810.0 76 90 107 130 145 158 149 142 132 126
850.0 143 152 157 160 169 177 180 209 267 326
890.0 386 428 441 420 374 325 293 284 269 266
930.0 258 252 250 236 237 220 224 214 203 194
970.0 189 190 191 200 213 244 277 328 359 379
1010.0 395 419 429 479 547 550 521 450 337 280
1050.0 265 254 253 258 276 292 313 328 341 358
1090.0 361 371 380 406 475 497 595 737 936 1210
1130.0 1576 2094 2826 3950 5634 7670 9337 10000 9968 8979
1170.0 7673 6361 5129 3863 2696 1898 1436 1188 1100 1099
1210.0 1092 1019 886 683 495 406 375 376 379 391
1250.0 423 491 540 559 551 490 415 358 319 279
1290.0 252 230 213 195 184 175 168 162 161 159
1330.0 158 160 162 163 172 182 203 246 310 405
1370.0 499 526 489 407 288 202 165 127 106 93
1410.0 87 89 76 78 85 105 121 156 208 271
1450.0 336 376 407 439 423 355 284 200 152 133
1490.0 165 251 308 306 290 194 86 58 48 54
1530.0 45 44 44 46 38 35 40 37 41 39
1570.0 48 49 61 69 72 79 82 85 80 92
1610.0 91 85 80 72 57 50 55 50 49 45
1650.0 61 54 61 58 67 67 72 89 92 126
1690.0 136 184 223 319 418 536 676 867 1090 1367
1730.0 1837 2466 3757 5970 8740 8974 9190 7212 4109 2566
1770.0 1938 1534 1204 966 806 671 574 452 322 253
1810.0 183 132 83 71 52 50 44 43 44 42
1850.0 55 58 71 72 83 83 86 85 78 70
1890.0 63 64 55 59 53 58 49 48 45 45
1930.0 49 52 63 60 71 71 80 78 74 60
1970.0 47 31 22 18 12 14 12 12 11 16
2010.0 17 17 21 19 25 28 34 34 40 38
2050.0 39 41 38 38 37 40 40 41 37 39
2090.0 37 37 35 34 28 30 35 26 25 20
2130.0 23 18 15 17 13 13 8 9 6 2
2170.0 4 5 5 5 3 1 3 2 4 4
2210.0 1 0 4 2 3 7 4 8 8 12
2250.0 10 13 13 15 18 23 25 29 33 34
2290.0 42 40 43 42 39 38 38 31 20 31
2330.0 17 27 35 26 26 14 1 2 13 25
2370.0 42 28 31 20 12 9 9 8 6 6
2410.0 8 9 7 5 2 3 1 4 6 6
2450.0 4 4 3 3 4 0 2 1 2 2
2490.0 5 6 7 9 7 10 9 7 8 6
2530.0 6 9 9 3 4 5 2 4 3 5
2570.0 4 8 5 4 6 7 9 12 16 17
2610.0 15 17 14 13 14 10 12 11 13 9
2650.0 11 13 9 12 11 11 12 11 11 13
2690.0 11 15 15 15 22 27 36 40 43 37
2730.0 34 30 27 24 21 18 17 15 16 17
2770.0 17 20 18 22 22 24 29 28 33 33
2810.0 38 40 46 50 55 54 58 57 65 67
2850.0 74 83 95 110 133 164 206 253 299 325
2890.0 363 405 440 488 541 602 694 820 1072 1387
2930.0 1535 1505 1363 1006 744 612 554 533 521 495
2970.0 469 433 384 337 291 255 225 198 176 159
3010.0 154 162 194 248 328 439 576 727 820 818
3050.0 777 641 520 487 549 675 773 779 750 619
3090.0 473 405 361 333 311 269 234 202 171 130
3130.0 91 48 33 20 20 10 15 12 16 18
3170.0 20 17 16 14 13 11 12 9 16 10
3210.0 9 12 10 9 11 8 12 1 7 9
3250.0 8 8 8 6 10 7 7 9 7 8
3290.0 8 7 5 10 5 10 3 6 10 11
3330.0 10 11 11 10 11 7 10 9 6 9
3370.0 8 11 8 8 13 11 8 6 9 14
3410.0 14 1 4 10 13 8 11 7 18 17
3450.0 9 21 21 31 38 51 73 85 85 80
3490.0 61 39 24 16 17 14 4 7 6 10
3530.0 8 12 1 10 5 0 15 13 14 13
3570.0 15 20 20 16 9 9 13 17 19 10
3610.0 16 19 11 25 31 28 32 44 38 42
3650.0 57 59 55 59 63 53 47 34 31 29
3690.0 30 24 21 25 26 20 19 6 18 19
3730.0 20 12 5 17 24 22 24 8 18 16
3770.0 14 6 7 5 8 6 3 8 13 9
3810.0 8 16 25 10 14 13 12 14 18 14
3850.0 7 8 17 22 30 8 3 12 21 21
3890.0 18 24 12 6 8 19 21 12 14 22
3930.0 24 10 16 20 17 15 0 5 0 4
##END=
