##TITLE=Benzene, 1-methoxy-4-(1-propenyl)-
##JCAMP-DX=4.24
##DATA TYPE=INFRARED SPECTRUM
##ORIGIN=Sadtler Research Labs Under US-EPA Contract
##OWNER=NIST Standard Reference Data Program
##CAS REGISTRY NO=104-46-1
##MOLFORM=C 10 H 12 O
##XUNITS=1/CM
##YUNITS=ABSORBANCE
##XFACTOR=1.0
##YFACTOR=0.000180203
##DELTAX=4.0
##FIRSTX=450.0
##LASTX=3966.0
##FIRSTY=0.000000
##MAXX=3966
##MINX=450
##MAXY=1.80203
##MINY=0
##NPOINTS=880
##XYDATA=(X++(Y..Y))
450.0 0 56 80 63 46 74 67 80 76 103
490.0 115 138 190 232 305 358 421 432 422 412
530.0 386 371 370 386 410 458 478 498 503 517
570.0 553 552 526 440 318 226 167 147 137 132
610.0 124 115 112 113 110 115 131 149 147 135
650.0 125 110 105 106 110 115 114 103 102 106
690.0 109 105 116 120 136 138 134 121 116 116
730.0 116 124 154 212 284 370 445 498 484 462
770.0 460 503 606 716 813 791 725 629 538 445
810.0 397 392 436 545 713 957 1180 1481 1565 1369
850.0 1137 844 596 423 319 294 279 294 287 275
890.0 262 241 233 226 233 240 258 272 302 343
930.0 419 541 712 899 1076 1254 1369 1536 1651 1379
970.0 1122 886 638 489 396 370 368 386 394 412
1010.0 432 458 524 627 813 1076 1472 1911 2331 2549
1050.0 2395 1971 1381 893 611 472 382 346 324 322
1090.0 330 342 364 390 429 436 450 433 391 344
1130.0 303 281 264 273 283 329 378 495 701 1317
1170.0 2451 3020 3037 2184 1268 874 656 592 604 641
1210.0 720 783 891 1054 1348 1839 2689 4246 6522 9205
1250.0 10000 8935 6467 3648 2388 2158 2514 3102 3442 3202
1290.0 2537 1826 1636 1627 1553 1328 1034 813 759 737
1330.0 672 600 423 374 370 340 315 279 240 251
1370.0 275 229 280 294 275 281 252 209 279 324
1410.0 333 447 304 446 418 518 536 730 1013 1129
1450.0 1118 1033 949 1226 1547 1643 1396 1170 924 692
1490.0 685 984 1468 3056 4787 7928 8622 6263 3237 1419
1530.0 956 665 467 290 287 359 302 186 296 413
1570.0 480 576 676 734 787 808 977 1375 1927 2672
1610.0 3061 2859 2106 1307 773 567 398 318 344 309
1650.0 199 202 287 297 265 228 146 232 108 79
1690.0 157 186 48 61 115 196 156 71 215 270
1730.0 219 114 231 252 226 187 244 221 197 208
1770.0 139 109 165 143 152 135 121 145 114 186
1810.0 170 166 194 182 163 135 164 188 148 120
1850.0 174 215 206 210 190 167 231 244 240 216
1890.0 184 172 170 164 152 139 130 126 108 144
1930.0 159 154 153 113 113 125 119 114 121 103
1970.0 114 125 133 139 156 150 175 208 223 219
2010.0 215 195 174 170 165 157 160 152 148 154
2050.0 158 159 166 166 162 182 188 196 204 206
2090.0 193 177 155 126 107 92 86 82 78 76
2130.0 71 68 64 64 63 60 60 58 57 55
2170.0 55 54 53 52 52 50 49 50 48 49
2210.0 50 51 52 54 53 52 52 52 52 52
2250.0 55 59 65 71 77 81 80 82 80 80
2290.0 80 79 73 68 61 54 53 50 50 48
2330.0 48 48 49 50 59 67 60 63 61 64
2370.0 59 60 55 54 54 56 57 56 59 60
2410.0 63 65 71 74 73 70 63 60 61 67
2450.0 70 74 74 75 73 77 80 84 89 91
2490.0 96 95 98 96 93 94 96 103 113 121
2530.0 128 125 122 119 119 122 125 119 107 93
2570.0 83 82 81 82 82 82 82 82 82 82
2610.0 79 75 70 69 67 65 67 65 68 69
2650.0 65 64 62 58 57 59 58 59 60 61
2690.0 61 64 63 65 67 70 72 76 81 86
2730.0 97 111 145 172 183 166 129 109 105 103
2770.0 103 107 113 120 128 132 140 149 159 172
2810.0 191 212 244 282 341 437 611 945 1250 1365
2850.0 1280 1016 880 942 1055 1111 1052 932 843 830
2890.0 891 994 1078 1124 1177 1277 1443 1625 1944 2332
2930.0 2447 2381 2144 2044 2153 2171 2094 2002 1906 1758
2970.0 1580 1402 1250 1109 1001 965 1009 1179 1565 1967
3010.0 2031 1865 1519 1391 1518 1639 1774 1705 1533 1302
3050.0 1014 831 720 641 616 639 664 663 613 546
3090.0 500 485 476 456 427 380 335 299 272 248
3130.0 224 196 171 151 133 125 115 106 98 92
3170.0 86 80 79 77 76 73 73 71 68 64
3210.0 63 63 61 59 62 60 59 57 58 60
3250.0 59 59 58 59 58 57 57 56 55 53
3290.0 56 55 54 54 57 54 54 54 54 51
3330.0 51 53 56 55 56 54 53 54 52 54
3370.0 52 52 52 52 54 53 52 53 53 54
3410.0 54 49 52 52 52 52 52 52 53 52
3450.0 53 51 54 52 53 50 51 52 51 54
3490.0 52 50 51 48 50 50 52 49 49 49
3530.0 49 51 50 53 48 51 53 50 50 50
3570.0 51 55 48 54 49 49 56 50 52 50
3610.0 50 49 51 51 52 58 49 56 51 51
3650.0 54 55 58 54 53 59 56 62 57 58
3690.0 56 60 53 52 56 52 56 56 51 59
3730.0 54 59 51 57 48 63 58 55 60 53
3770.0 56 53 56 61 52 56 55 57 59 61
3810.0 59 52 53 71 58 56 60 60 58 57
3850.0 50 70 59 55 60 58 57 63 63 62
3890.0 70 70 60 60 62 59 63 60 62 61
3930.0 62 60 52 56 58 60 59 61 61 64
##END=
