##TITLE=Benzene, 1-methoxy-4-methyl-
##JCAMP-DX=4.24
##DATA TYPE=INFRARED SPECTRUM
##ORIGIN=Sadtler Research Labs Under US-EPA Contract
##OWNER=NIST Standard Reference Data Program
##CAS REGISTRY NO=104-93-8
##MOLFORM=C 8 H 10 O
##XUNITS=1/CM
##YUNITS=ABSORBANCE
##XFACTOR=1.0
##YFACTOR=0.000273917
##DELTAX=4.0
##FIRSTX=450.0
##LASTX=3966.0
##FIRSTY=0.010957
##MAXX=3966
##MINX=450
##MAXY=2.73917
##MINY=0
##NPOINTS=880
##XYDATA=(X++(Y..Y))
450.0 40 71 99 126 110 117 132 132 173 208
490.0 281 351 450 547 692 830 759 703 648 558
530.0 434 332 278 249 231 226 223 219 231 218
570.0 219 210 189 180 180 163 161 153 140 148
610.0 140 149 138 145 141 146 152 155 157 157
650.0 163 159 168 161 171 173 181 181 187 212
690.0 228 246 270 332 453 660 856 875 881 837
730.0 539 336 278 253 240 232 238 235 243 253
770.0 261 283 314 391 497 644 812 1060 1436 1700
810.0 1833 1962 2402 2334 1837 1663 1331 1022 747 533
850.0 422 356 328 304 301 293 293 289 282 285
890.0 283 288 288 290 290 296 300 302 306 309
930.0 308 312 314 322 329 337 343 347 357 367
970.0 382 399 423 445 465 482 500 512 531 579
1010.0 631 688 775 914 1122 1419 1823 2221 2582 2758
1050.0 2659 2400 1997 1497 1082 836 683 603 563 556
1090.0 579 625 687 754 791 820 840 789 747 699
1130.0 629 580 552 544 547 566 614 707 899 1288
1170.0 1739 2014 2163 2065 1692 1309 947 755 726 756
1210.0 834 977 1200 1532 1984 2696 3715 5400 7411 9166
1250.0 9201 8403 7345 4252 2566 1979 2005 2178 2588 2976
1290.0 3222 3086 2776 2236 1522 1010 794 687 738 748
1330.0 723 704 469 488 603 590 588 527 442 484
1370.0 535 427 511 601 536 566 502 402 558 615
1410.0 576 742 395 699 707 876 762 896 1130 1139
1450.0 1154 1153 1009 1530 1815 1659 1297 1321 1297 918
1490.0 771 1182 1610 3148 4522 6888 10000 7627 8208 3853
1530.0 2353 1280 748 322 390 595 502 208 434 630
1570.0 614 673 809 936 1139 1170 1295 1322 1408 1569
1610.0 1837 1979 1772 1712 1377 1172 801 619 699 583
1650.0 298 273 480 509 447 394 211 446 155 91
1690.0 298 372 35 67 191 371 238 0 320 431
1730.0 292 32 288 317 224 148 316 321 317 388
1770.0 232 172 325 267 294 245 202 245 176 343
1810.0 314 298 363 321 282 232 313 382 277 208
1850.0 328 426 411 426 368 277 421 438 416 382
1890.0 337 336 352 349 321 294 267 257 203 282
1930.0 304 297 309 240 270 318 326 331 359 320
1970.0 339 345 328 304 293 226 236 279 293 289
2010.0 296 263 230 239 246 236 247 230 223 243
2050.0 259 269 285 282 265 298 302 305 301 297
2090.0 275 269 255 230 211 189 177 168 160 153
2130.0 146 140 133 129 125 121 117 116 113 110
2170.0 107 105 103 101 98 95 94 91 93 93
2210.0 95 97 102 107 112 112 112 109 101 95
2250.0 95 93 95 97 101 102 107 110 116 120
2290.0 122 124 122 121 116 113 113 116 116 124
2330.0 125 125 126 121 113 114 97 98 94 89
2370.0 90 90 89 90 89 93 93 97 98 102
2410.0 107 113 117 120 120 120 116 112 109 107
2450.0 107 109 110 114 117 122 125 129 133 138
2490.0 140 142 141 138 134 129 126 132 138 149
2530.0 159 168 172 175 169 160 146 132 121 117
2570.0 113 114 117 120 122 125 129 129 130 128
2610.0 124 120 116 112 112 113 110 113 113 113
2650.0 113 110 107 102 101 103 101 103 106 107
2690.0 110 110 113 112 114 117 118 120 120 124
2730.0 129 141 160 177 185 191 181 161 149 146
2770.0 145 146 150 157 164 173 183 195 210 226
2810.0 246 271 304 357 446 605 860 1133 1247 1295
2850.0 1280 1095 887 798 817 904 1021 1111 1153 1147
2890.0 1111 1072 1082 1154 1282 1462 1651 1818 1881 1987
2930.0 2189 2374 2543 2582 2471 2265 2103 1923 1616 1411
2970.0 1252 1103 1006 977 1018 1135 1352 1700 2069 2209
3010.0 2148 2027 1726 1443 1400 1513 1606 1604 1514 1319
3050.0 1053 845 730 685 680 680 674 672 640 574
3090.0 507 455 431 419 406 388 367 335 301 266
3130.0 243 224 208 191 175 160 149 138 136 129
3170.0 128 122 124 121 122 118 114 116 112 113
3210.0 110 110 107 107 112 109 112 106 106 106
3250.0 103 101 103 101 101 101 99 102 99 102
3290.0 99 101 98 101 102 99 99 98 102 101
3330.0 102 102 101 101 103 105 102 105 101 103
3370.0 99 102 101 101 101 99 99 98 98 97
3410.0 101 99 102 101 101 103 99 99 102 102
3450.0 98 101 101 103 101 101 99 101 103 99
3490.0 102 101 101 99 102 102 101 99 101 98
3530.0 99 101 102 102 98 101 106 99 105 98
3570.0 101 103 95 105 95 101 103 99 106 98
3610.0 101 98 106 102 99 112 99 110 103 101
3650.0 110 99 116 99 110 107 114 114 109 117
3690.0 105 112 103 109 107 103 110 106 98 112
3730.0 105 114 105 122 90 121 106 105 110 107
3770.0 109 109 110 112 109 103 110 99 113 95
3810.0 118 102 107 113 102 110 116 109 110 116
3850.0 107 121 112 109 118 121 118 110 126 120
3890.0 129 109 125 116 121 110 117 112 113 114
3930.0 107 109 107 109 110 113 116 121 112 114
##END=
