##TITLE=Benzeneacetonitrile, 4-methoxy-
##JCAMP-DX=4.24
##DATA TYPE=INFRARED SPECTRUM
##ORIGIN=Sadtler Research Labs Under US-EPA Contract
##OWNER=NIST Standard Reference Data Program
##CAS REGISTRY NO=104-47-2
##MOLFORM=C 9 H 9 N O
##XUNITS=1/CM
##YUNITS=ABSORBANCE
##XFACTOR=1.0
##YFACTOR=0.000050055
##DELTAX=4.0
##FIRSTX=450.0
##LASTX=3966.0
##FIRSTY=0.000000
##MAXX=3966
##MINX=450
##MAXY=0.50055
##MINY=0
##NPOINTS=880
##XYDATA=(X++(Y..Y))
450.0 0 387 702 624 335 468 502 658 622 646
490.0 765 429 448 445 448 715 882 1056 768 764
530.0 731 486 678 685 560 558 521 597 651 725
570.0 655 362 452 530 428 428 412 411 374 494
610.0 601 459 469 520 493 587 475 759 880 1246
650.0 2376 3633 4017 3659 3636 2744 2718 3607 4078 3376
690.0 2626 2181 1613 1055 787 629 583 569 491 617
730.0 535 688 933 1179 1797 2682 4482 6026 7290 10000
770.0 9080 7469 5804 4337 2727 1765 1220 1231 1493 1843
810.0 2821 4385 5422 6238 5728 3861 2298 1459 1006 789
850.0 863 803 914 1037 1172 1428 1445 1277 1115 1006
890.0 845 655 592 570 565 659 594 537 593 608
930.0 606 491 538 561 554 578 563 617 679 698
970.0 800 973 1230 1953 2589 2844 2704 2246 1763 1701
1010.0 1744 1618 1364 983 730 728 747 866 992 1236
1050.0 1749 2578 3685 4234 4243 3607 2172 1637 1508 1300
1090.0 1206 998 873 828 718 728 675 615 628 561
1130.0 534 492 500 499 449 552 523 669 787 780
1170.0 775 736 614 657 625 660 767 1075 1809 2404
1210.0 2527 2330 1562 745 601 580 512 552 580 573
1250.0 597 584 572 570 551 533 545 552 610 669
1290.0 766 832 866 883 822 837 801 811 909 827
1330.0 785 690 664 648 614 681 660 730 840 883
1370.0 1061 1262 1379 1501 1478 1554 1577 1492 1603 1652
1410.0 1807 2090 2479 2626 2676 2486 2125 1934 1765 1574
1450.0 1695 1971 2655 3674 4376 5764 6959 6922 6367 5233
1490.0 3474 2400 1979 1916 1762 1880 1862 1788 2137 1989
1530.0 2135 2163 1974 2234 2226 2776 3557 4740 7139 7567
1570.0 8171 7517 5490 4837 5222 6463 7276 6298 5566 3381
1610.0 1745 1000 904 670 733 630 680 712 625 745
1650.0 699 753 833 774 748 666 529 524 492 499
1690.0 474 450 494 447 501 466 487 567 531 624
1730.0 682 767 786 783 781 767 687 702 698 682
1770.0 688 673 674 648 655 640 592 582 545 502
1810.0 513 505 518 517 527 568 594 617 640 673
1850.0 719 778 869 829 770 685 532 490 446 433
1890.0 441 418 438 447 470 511 546 596 662 716
1930.0 762 745 715 655 561 507 445 430 403 395
1970.0 408 399 409 404 395 404 391 395 388 391
2010.0 398 390 404 399 395 402 391 401 395 394
2050.0 393 379 381 378 386 381 368 382 377 361
2090.0 379 362 374 376 366 377 368 373 375 367
2130.0 375 362 375 381 381 390 376 392 393 385
2170.0 396 394 402 406 400 395 397 410 414 409
2210.0 419 408 414 402 401 411 407 404 399 398
2250.0 399 398 396 397 404 410 401 403 405 389
2290.0 385 374 364 371 362 370 362 349 369 377
2330.0 382 396 392 410 405 430 415 440 444 403
2370.0 448 421 425 435 444 456 456 448 456 457
2410.0 467 459 451 444 420 419 407 403 411 408
2450.0 406 411 399 407 410 410 410 415 414 409
2490.0 411 416 425 432 422 420 418 407 411 409
2530.0 408 403 406 408 408 409 406 408 408 401
2570.0 411 414 421 440 452 454 451 434 426 404
2610.0 404 413 422 426 435 436 426 414 414 396
2650.0 402 394 393 402 397 395 403 396 392 390
2690.0 390 380 386 389 392 396 405 405 417 425
2730.0 445 465 490 536 564 579 557 519 487 453
2770.0 447 440 439 445 440 443 470 463 479 481
2810.0 492 513 509 525 530 548 583 628 694 771
2850.0 870 997 1160 1389 1610 1815 1960 2005 1998 1950
2890.0 1914 1919 1945 2028 2146 2279 2500 2810 3255 3754
2930.0 4213 4503 4432 4133 3664 3126 2617 2229 1912 1718
2970.0 1547 1400 1312 1338 1475 1666 1867 2037 2176 2228
3010.0 2304 2400 2463 2568 2750 2957 3133 3177 3114 3007
3050.0 3044 3424 4092 4574 4692 4376 3794 3199 2885 2581
3090.0 2256 1935 1470 1080 827 667 596 537 508 466
3130.0 442 441 426 416 404 405 412 388 385 408
3170.0 401 393 388 386 397 377 377 370 375 373
3210.0 374 389 372 355 376 364 375 372 384 368
3250.0 361 363 366 368 362 360 363 358 371 361
3290.0 368 374 361 354 370 374 372 364 362 359
3330.0 373 373 359 364 375 373 380 367 377 389
3370.0 385 361 374 377 388 364 387 379 370 365
3410.0 389 390 348 385 386 382 369 378 384 383
3450.0 373 373 382 379 384 377 370 373 371 387
3490.0 381 368 371 357 372 359 365 372 366 384
3530.0 366 366 358 361 353 394 365 379 362 382
3570.0 385 384 380 375 395 401 398 379 369 370
3610.0 385 371 379 362 375 371 399 369 371 369
3650.0 381 386 387 404 377 382 384 421 372 399
3690.0 385 383 411 396 375 363 384 404 391 404
3730.0 396 395 415 400 410 409 384 352 381 389
3770.0 353 358 369 365 376 374 360 361 346 393
3810.0 352 371 387 349 381 368 389 376 373 355
3850.0 407 353 417 380 417 446 406 410 389 422
3890.0 419 395 421 429 394 394 390 390 360 349
3930.0 395 374 368 376 366 354 348 371 395 347
##END=
