##TITLE=Ethanol, 2-[(phenylmethyl)amino]-
##JCAMP-DX=4.24
##DATA TYPE=INFRARED SPECTRUM
##ORIGIN=Sadtler Research Labs Under US-EPA Contract
##OWNER=NIST Standard Reference Data Program
##CAS REGISTRY NO=104-63-2
##MOLFORM=C 9 H 13 N O
##XUNITS=1/CM
##YUNITS=ABSORBANCE
##XFACTOR=1.0
##YFACTOR=0.000055231
##DELTAX=4.0
##FIRSTX=450.0
##LASTX=3966.0
##FIRSTY=0.000000
##MAXX=3966
##MINX=450
##MAXY=0.55231
##MINY=0
##NPOINTS=880
##XYDATA=(X++(Y..Y))
450.0 0 910 1938 961 791 1033 1131 1197 897 941
490.0 437 282 464 733 791 433 451 893 503 385
530.0 429 691 558 860 239 778 508 158 292 411
570.0 684 949 1153 885 1092 1249 1260 1269 1286 1333
610.0 1141 1111 897 902 716 737 887 1129 1136 1104
650.0 1438 1548 1754 1985 2059 2637 3049 3376 4171 5906
690.0 7319 8189 8738 8902 7995 7874 7028 6835 7030 7438
730.0 7993 7788 8052 7588 6540 5169 4265 3168 2545 2044
770.0 1772 1318 1161 1194 1163 959 939 1067 1131 1290
810.0 1042 1041 1051 1106 886 886 846 835 756 735
850.0 942 858 1120 1077 1420 1354 1433 1480 1685 1725
890.0 1655 1481 1722 1579 1633 1448 1344 1247 1144 1090
930.0 971 1024 956 913 973 985 1009 1108 1142 1288
970.0 1434 1442 1629 1653 1756 1860 2122 2343 2511 2829
1010.0 3247 3619 4226 5374 6364 6882 7371 7738 8232 8675
1050.0 8864 9061 9098 9202 8974 8077 6968 5744 4555 3770
1090.0 3247 3078 3187 3483 3994 4223 4823 5302 5713 5921
1130.0 5700 5159 4458 3714 2919 2493 2100 2024 1811 1831
1170.0 1908 1935 2098 2237 2300 2670 2729 2873 2648 2471
1210.0 2367 2303 2202 2097 2013 2028 1922 1876 1798 1783
1250.0 1803 1747 1772 1710 1673 1611 1592 1541 1539 1585
1290.0 1659 1687 1709 1762 1904 1982 2149 2266 2468 2714
1330.0 3061 3324 3575 3716 3828 3967 3999 3903 3553 3101
1370.0 2720 2445 2393 2354 2448 2619 2750 2952 2972 2884
1410.0 2695 2389 2189 2030 2019 2191 2433 3002 3692 4513
1450.0 5751 6657 7114 7019 6080 4850 3785 2941 2396 2376
1490.0 2614 2833 2683 2196 1536 876 680 518 445 465
1530.0 410 423 385 352 374 341 329 340 322 366
1570.0 386 433 481 534 628 725 884 956 1062 1038
1610.0 873 720 497 385 325 280 300 289 269 309
1650.0 276 300 258 230 214 177 185 162 187 180
1690.0 207 219 244 278 284 276 266 243 208 219
1730.0 224 234 250 233 244 238 213 213 200 205
1770.0 241 245 284 340 406 471 586 641 651 572
1810.0 462 401 344 324 307 300 288 288 300 323
1850.0 347 372 409 444 467 492 494 490 457 428
1890.0 370 324 299 289 278 289 301 331 367 418
1930.0 480 540 605 631 659 658 631 555 456 359
1970.0 276 233 217 207 199 196 196 175 173 169
2010.0 169 163 163 164 163 164 168 166 167 167
2050.0 167 180 174 172 179 174 176 180 181 186
2090.0 185 180 184 185 185 181 182 181 176 175
2130.0 173 174 166 160 159 158 151 156 152 153
2170.0 150 152 158 154 155 150 154 158 154 157
2210.0 163 157 164 166 162 162 160 167 168 167
2250.0 174 174 175 174 171 178 175 178 176 190
2290.0 198 207 213 224 244 275 261 264 239 218
2330.0 216 203 214 199 241 216 230 217 191 215
2370.0 182 198 200 216 206 199 189 195 198 203
2410.0 203 204 210 209 205 212 213 209 213 215
2450.0 207 210 215 209 207 207 206 209 203 203
2490.0 210 212 210 210 221 216 225 232 232 240
2530.0 243 245 247 256 253 257 272 279 279 282
2570.0 280 291 300 310 332 327 324 326 355 352
2610.0 354 364 380 396 403 425 443 455 471 489
2650.0 517 551 572 603 633 670 704 733 770 823
2690.0 868 896 930 948 967 979 991 1005 1030 1053
2730.0 1093 1137 1196 1235 1265 1308 1364 1421 1497 1602
2770.0 1723 1889 2092 2338 2640 2975 3361 3769 4250 4740
2810.0 5239 5773 6292 6779 7233 7592 7840 7902 7829 7603
2850.0 7339 7106 6930 6826 6793 6844 6974 7169 7412 7580
2890.0 7662 7608 7474 7377 7324 7391 7622 7978 8459 8962
2930.0 9462 9827 10000 9944 9531 8860 7952 6845 5805 4894
2970.0 4092 3345 2713 2165 1809 1578 1445 1405 1447 1582
3010.0 1804 2174 2663 3370 4252 5085 5520 5460 4913 4127
3050.0 3475 3215 3338 3953 5010 5837 5971 5471 4489 3594
3090.0 3145 2777 2388 2035 1684 1409 1145 907 698 534
3130.0 412 351 311 298 287 276 277 291 288 298
3170.0 299 274 265 249 233 230 224 219 216 219
3210.0 224 219 195 207 185 196 183 172 187 192
3250.0 192 170 171 166 167 176 174 162 160 158
3290.0 177 156 172 162 154 160 166 168 179 176
3330.0 188 229 224 224 222 254 248 293 287 306
3370.0 305 310 287 303 271 272 271 267 251 259
3410.0 244 256 261 255 239 233 250 254 267 276
3450.0 279 275 283 277 285 282 271 287 290 271
3490.0 290 287 304 283 308 293 311 297 343 392
3530.0 417 449 502 603 693 777 813 861 982 1142
3570.0 1302 1308 1277 1201 1074 987 870 793 720 674
3610.0 648 590 574 524 536 501 531 521 584 624
3650.0 776 892 1065 1142 1267 1321 1320 1290 1181 1025
3690.0 751 585 437 349 300 262 210 161 150 150
3730.0 150 150 150 150 150 150 150 150 150 150
3770.0 150 150 150 150 150 150 150 150 150 150
3810.0 150 150 150 150 150 150 150 150 150 150
3850.0 150 150 150 150 150 150 150 150 150 150
3890.0 150 150 150 150 150 150 150 150 150 150
3930.0 150 150 150 150 150 150 150 150 150 150
##END=
