##TITLE=1,3-Propanediamine, N,N-diethyl-
##JCAMP-DX=4.24
##DATA TYPE=INFRARED SPECTRUM
##ORIGIN=Sadtler Research Labs Under US-EPA Contract
##OWNER=NIST Standard Reference Data Program
##CAS REGISTRY NO=104-78-9
##MOLFORM=C 7 H 18 N 2
##XUNITS=1/CM
##YUNITS=ABSORBANCE
##XFACTOR=1.0
##YFACTOR=0.000061328
##DELTAX=4.0
##FIRSTX=450.0
##LASTX=3966.0
##FIRSTY=0.002453
##MAXX=3966
##MINX=450
##MAXY=0.61328
##MINY=0
##NPOINTS=880
##XYDATA=(X++(Y..Y))
450.0 40 164 47 9 5 43 64 154 242 380
490.0 338 342 362 367 411 227 51 158 224 316
530.0 370 388 408 274 412 359 314 79 534 349
570.0 331 385 219 269 387 239 338 198 153 323
610.0 273 253 328 233 428 358 324 315 314 412
650.0 408 348 375 436 412 507 453 482 547 534
690.0 612 619 718 718 775 952 974 1212 1357 1398
730.0 1622 1667 1836 1939 2093 2273 2449 2698 2791 2922
770.0 3030 3166 3151 2978 2862 2530 2194 1977 1808 1622
810.0 1423 1235 1200 933 789 852 790 707 696 668
850.0 715 700 748 722 608 641 544 557 457 539
890.0 558 483 459 495 454 458 595 458 399 464
930.0 529 348 390 454 436 377 424 507 428 400
970.0 521 520 508 520 549 598 564 555 654 585
1010.0 668 706 660 686 657 773 755 851 955 1066
1050.0 1322 1534 1871 2164 2537 2777 2987 3003 2939 2883
1090.0 2727 2545 2311 2066 1803 1604 1474 1354 1247 1196
1130.0 1082 1055 967 925 893 836 853 885 885 886
1170.0 918 936 928 1025 1170 1320 1598 1936 2203 2327
1210.0 2239 1818 1461 1133 931 825 707 707 676 644
1250.0 654 650 650 678 647 645 674 816 961 1118
1290.0 1235 1329 1381 1401 1356 1218 1132 1070 1004 998
1330.0 1053 1105 1229 1410 1501 1633 1686 1721 1766 1920
1370.0 2272 2589 2932 3056 3024 2707 2174 1613 1146 817
1410.0 621 501 496 463 462 505 556 721 789 944
1450.0 1105 1254 1459 1522 1634 1631 1607 1430 1132 836
1490.0 670 485 420 351 391 356 280 319 320 275
1530.0 240 280 265 310 249 233 240 307 291 232
1570.0 262 231 276 260 275 318 334 377 429 515
1610.0 611 744 898 914 933 854 737 605 462 411
1650.0 335 367 231 214 184 192 172 169 150 204
1690.0 126 117 152 188 128 111 123 171 111 110
1730.0 104 157 120 110 116 124 99 117 109 85
1770.0 102 129 84 96 99 94 117 89 98 90
1810.0 90 80 84 89 103 102 75 94 79 99
1850.0 83 61 87 70 70 78 61 45 48 49
1890.0 59 47 39 37 43 45 35 43 44 35
1930.0 35 34 30 41 36 26 25 27 26 33
1970.0 34 25 32 17 22 29 23 23 23 24
2010.0 24 23 14 23 22 22 20 22 21 31
2050.0 21 11 20 22 23 28 27 27 27 27
2090.0 26 28 27 30 26 19 22 28 25 18
2130.0 17 33 25 25 16 17 9 20 26 20
2170.0 17 24 29 30 23 22 21 21 14 14
2210.0 18 13 12 13 14 11 12 12 13 13
2250.0 14 11 20 23 22 23 23 23 31 28
2290.0 29 30 23 23 23 21 29 16 27 12
2330.0 6 5 5 5 5 16 8 32 29 5
2370.0 7 16 15 30 32 33 31 32 32 24
2410.0 40 41 41 35 42 32 38 34 39 35
2450.0 34 41 33 26 26 36 28 34 34 34
2490.0 43 37 35 42 43 51 59 59 68 68
2530.0 70 78 92 93 91 110 108 117 124 140
2570.0 158 158 165 174 182 181 191 194 198 195
2610.0 205 214 214 239 247 264 280 297 318 338
2650.0 369 395 413 438 471 482 513 538 572 604
2690.0 621 653 694 734 788 861 920 985 1041 1114
2730.0 1149 1190 1225 1257 1304 1398 1493 1584 1679 1788
2770.0 1885 1998 2166 2414 2771 3296 3938 4688 5395 5905
2810.0 6055 5885 5494 5038 4542 4074 3685 3449 3260 3199
2850.0 3193 3232 3330 3417 3523 3675 3883 4106 4201 4170
2890.0 4047 3906 3843 3966 4197 4491 4825 5180 5684 6353
2930.0 7138 8041 8632 8853 8561 7942 7131 6581 6507 7167
2970.0 8408 9623 10000 9235 7312 5175 3373 2119 1441 1080
3010.0 868 735 637 572 522 472 439 416 398 371
3050.0 333 306 305 281 280 266 243 234 229 212
3090.0 208 190 188 187 164 163 161 147 136 137
3130.0 140 126 137 121 110 123 123 114 107 107
3170.0 116 96 109 108 111 106 92 84 91 78
3210.0 84 78 60 62 54 68 58 43 45 32
3250.0 37 56 51 54 55 30 46 47 47 36
3290.0 32 54 47 35 63 60 77 103 127 151
3330.0 159 160 163 167 166 145 135 89 83 65
3370.0 41 55 57 66 58 60 85 130 112 124
3410.0 100 99 74 78 50 59 50 35 42 53
3450.0 46 37 39 32 9 39 21 41 37 27
3490.0 27 29 36 28 42 36 21 13 26 19
3530.0 29 22 20 20 37 26 39 28 34 44
3570.0 60 46 21 38 36 48 37 55 39 31
3610.0 58 64 39 54 42 77 53 42 32 47
3650.0 79 55 48 33 49 68 77 87 42 33
3690.0 66 55 41 48 25 34 72 42 57 46
3730.0 41 53 76 68 94 74 67 42 51 42
3770.0 51 40 34 41 39 34 25 34 66 44
3810.0 36 43 59 52 53 58 59 59 68 50
3850.0 56 93 63 52 53 45 45 52 57 55
3890.0 61 66 60 77 61 47 53 54 55 54
3930.0 63 63 64 70 71 72 0 5 5 5
##END=
