##TITLE=Benzene, decyl-
##JCAMP-DX=4.24
##DATA TYPE=INFRARED SPECTRUM
##ORIGIN=Sadtler Research Labs Under US-EPA Contract
##OWNER=NIST Standard Reference Data Program
##CAS REGISTRY NO=104-72-3
##MOLFORM=C 16 H 26
##XUNITS=1/CM
##YUNITS=ABSORBANCE
##XFACTOR=1.0
##YFACTOR=0.000077933
##DELTAX=4.0
##FIRSTX=450.0
##LASTX=3966.0
##FIRSTY=0.002494
##MAXX=3966
##MINX=450
##MAXY=0.77933
##MINY=0
##NPOINTS=880
##XYDATA=(X++(Y..Y))
450.0 32 41 25 58 20 64 109 96 126 141
490.0 141 148 116 91 76 57 55 58 38 46
530.0 31 12 25 25 22 41 39 58 84 110
570.0 139 128 86 74 81 49 50 55 29 34
610.0 21 30 40 39 23 20 25 34 28 21
650.0 36 43 50 54 60 109 169 200 265 381
690.0 638 1187 1575 1225 810 643 593 595 597 611
730.0 686 788 916 973 864 654 446 333 260 207
770.0 173 135 117 100 102 102 101 101 112 104
810.0 100 84 79 77 72 68 59 51 51 45
850.0 47 35 45 41 37 46 48 52 51 60
890.0 66 68 74 86 97 91 77 58 50 45
930.0 38 31 30 29 29 30 30 32 37 36
970.0 45 43 42 48 49 49 55 60 64 76
1010.0 80 90 98 120 177 262 242 147 101 91
1050.0 92 91 99 111 122 137 149 144 132 116
1090.0 101 92 86 83 85 88 87 74 57 47
1130.0 33 22 17 17 14 14 17 27 26 25
1170.0 31 35 43 44 43 41 43 53 55 53
1210.0 46 42 44 39 42 46 48 52 53 57
1250.0 51 62 82 97 88 79 81 85 92 100
1290.0 109 113 124 136 147 148 145 142 132 131
1330.0 137 156 183 215 244 276 297 282 260 250
1370.0 244 234 227 228 214 163 128 113 98 91
1410.0 92 92 109 109 126 150 197 273 387 540
1450.0 706 852 916 920 867 744 575 409 301 284
1490.0 363 557 713 568 300 166 111 89 83 71
1530.0 69 68 65 62 56 48 49 54 51 53
1570.0 58 67 80 99 120 147 177 228 297 366
1610.0 321 197 109 73 60 46 46 45 41 45
1650.0 45 42 40 37 36 34 37 32 38 40
1690.0 46 46 56 57 53 48 48 49 42 39
1730.0 43 50 38 27 17 5 0 4 1 1
1770.0 12 18 26 33 43 61 93 98 81 52
1810.0 44 38 32 29 27 25 24 26 28 31
1850.0 34 39 44 50 55 58 55 55 50 42
1890.0 37 29 23 24 21 22 24 25 34 37
1930.0 51 67 77 72 67 65 72 60 34 20
1970.0 15 15 15 15 15 19 18 14 14 17
2010.0 14 16 18 18 19 16 15 14 14 14
2050.0 15 13 13 13 10 10 10 11 11 11
2090.0 10 10 9 8 11 9 9 5 5 8
2130.0 8 8 7 9 9 9 8 8 9 10
2170.0 10 8 10 10 10 10 11 8 9 11
2210.0 11 8 10 11 8 7 7 8 9 7
2250.0 11 10 9 11 10 13 13 18 22 23
2290.0 31 37 43 45 51 62 49 38 28 10
2330.0 12 0 0 0 2 11 0 0 0 0
2370.0 0 7 18 27 22 13 8 6 6 2
2410.0 4 4 5 3 5 5 4 4 4 3
2450.0 7 3 3 0 1 0 2 1 1 3
2490.0 3 2 4 6 4 3 8 10 8 10
2530.0 12 14 12 12 18 15 13 16 16 16
2570.0 17 19 21 23 25 26 26 29 33 36
2610.0 39 40 40 41 43 47 48 49 50 50
2650.0 53 53 61 60 67 68 70 72 72 74
2690.0 74 72 67 63 59 58 58 62 61 61
2730.0 68 69 73 76 80 80 76 77 78 76
2770.0 77 85 92 103 120 128 138 150 167 184
2810.0 198 221 244 273 313 361 422 514 645 872
2850.0 1297 2014 2998 3858 4023 3509 2775 2188 1918 1803
2890.0 1663 1593 1702 1967 2334 2781 3327 4113 5369 7190
2930.0 9117 10000 9424 7858 5961 4269 3147 2666 2666 2836
2970.0 2815 2299 1530 997 729 580 496 447 422 428
3010.0 435 437 481 588 790 1059 1277 1210 884 598
3050.0 467 429 446 533 680 903 974 764 573 516
3090.0 497 437 352 284 240 221 192 154 114 84
3130.0 72 57 51 49 44 45 43 43 44 44
3170.0 40 39 34 30 36 31 24 29 24 22
3210.0 17 22 22 16 11 14 12 8 13 12
3250.0 11 13 14 14 9 5 6 9 12 14
3290.0 8 14 12 10 11 3 2 5 9 5
3330.0 4 4 12 13 8 10 0 5 7 14
3370.0 12 19 18 8 9 8 13 15 13 8
3410.0 17 17 7 8 3 9 8 4 14 17
3450.0 11 8 11 5 6 2 2 1 11 13
3490.0 6 13 11 9 14 7 11 14 7 8
3530.0 7 10 11 4 6 9 13 7 10 9
3570.0 6 5 3 7 10 8 9 16 9 0
3610.0 8 16 17 12 19 21 13 14 18 15
3650.0 12 22 24 24 22 15 18 20 20 12
3690.0 12 12 0 13 15 19 15 12 15 15
3730.0 4 6 16 2 11 3 9 17 12 18
3770.0 20 9 16 17 22 23 19 23 16 17
3810.0 10 13 4 22 22 23 18 21 22 16
3850.0 11 9 17 17 4 9 16 17 12 29
3890.0 26 11 10 10 2 26 32 31 7 23
3930.0 12 13 1 12 20 11 12 10 7 13
##END=
