##TITLE=1-Piperidinepropanol
##JCAMP-DX=4.24
##DATA TYPE=INFRARED SPECTRUM
##ORIGIN=Sadtler Research Labs Under US-EPA Contract
##OWNER=NIST Standard Reference Data Program
##CAS REGISTRY NO=104-58-5
##MOLFORM=C 8 H 17 N O
##XUNITS=1/CM
##YUNITS=ABSORBANCE
##XFACTOR=1.0
##YFACTOR=0.000087674
##DELTAX=4.0
##FIRSTX=450.0
##LASTX=3966.0
##FIRSTY=0.017885
##MAXX=3966
##MINX=450
##MAXY=0.87674
##MINY=0
##NPOINTS=880
##XYDATA=(X++(Y..Y))
450.0 204 160 231 233 140 202 147 144 128 3
490.0 321 171 153 137 218 250 277 188 180 208
530.0 175 144 76 165 211 209 200 159 199 147
570.0 128 172 213 225 204 176 237 303 210 260
610.0 216 174 185 180 161 137 125 134 145 127
650.0 96 88 92 87 49 96 72 102 47 106
690.0 102 94 86 98 83 101 97 122 112 132
730.0 143 170 230 284 314 348 357 331 286 224
770.0 200 192 176 158 124 132 237 174 154 150
810.0 159 152 149 139 148 160 147 163 186 240
850.0 300 378 430 433 395 347 288 224 211 188
890.0 184 192 211 236 257 288 322 342 353 366
930.0 372 388 388 425 474 513 537 522 489 454
970.0 431 430 449 470 486 484 464 475 491 562
1010.0 656 807 930 1066 1193 1315 1429 1518 1556 1534
1050.0 1514 1508 1492 1462 1440 1449 1480 1498 1476 1401
1090.0 1260 1119 1031 1032 1157 1382 1653 1850 1892 1708
1130.0 1383 1047 826 738 814 985 1154 1214 1134 862
1170.0 641 523 457 424 402 402 394 405 412 416
1210.0 442 454 473 473 477 469 475 486 530 576
1250.0 643 711 744 751 734 715 688 671 653 636
1290.0 648 692 768 813 828 776 700 632 584 564
1330.0 556 595 681 821 929 1038 1043 977 873 810
1370.0 788 847 841 826 734 686 604 595 521 519
1410.0 468 503 515 590 594 700 756 920 926 1003
1450.0 1059 1054 1095 938 806 770 644 549 420 348
1490.0 228 208 147 117 142 188 66 123 105 102
1530.0 45 80 78 89 77 71 68 80 121 32
1570.0 44 56 63 30 46 44 33 46 39 49
1610.0 18 65 39 61 21 50 31 69 19 75
1650.0 16 145 37 39 66 79 91 118 92 164
1690.0 91 88 125 137 91 74 108 98 89 53
1730.0 64 85 82 35 43 71 62 58 53 67
1770.0 52 77 31 66 41 69 37 46 46 35
1810.0 25 37 34 18 44 22 34 8 38 35
1850.0 34 21 26 27 32 39 26 25 25 29
1890.0 30 29 27 26 26 24 31 32 29 17
1930.0 24 18 17 15 17 15 10 15 10 11
1970.0 14 12 13 15 12 15 26 21 17 26
2010.0 25 28 27 34 38 39 37 54 51 56
2050.0 55 51 43 40 42 55 54 58 50 44
2090.0 36 27 15 14 13 17 11 18 13 14
2130.0 14 13 14 12 18 19 18 23 23 21
2170.0 22 21 15 15 10 14 17 14 13 16
2210.0 18 16 15 19 25 23 28 25 29 29
2250.0 27 23 22 24 26 29 26 30 36 44
2290.0 47 56 75 73 78 88 66 57 42 35
2330.0 19 8 7 15 7 74 7 8 7 14
2370.0 28 54 71 78 68 45 44 43 44 36
2410.0 46 47 44 48 46 44 40 42 43 39
2450.0 41 48 44 47 50 56 57 61 65 67
2490.0 74 68 78 75 76 72 75 78 74 72
2530.0 69 68 70 73 73 73 76 74 80 79
2570.0 91 105 112 122 132 147 156 164 168 177
2610.0 171 162 167 169 167 175 178 202 212 231
2650.0 255 287 318 364 419 477 514 548 580 595
2690.0 614 629 636 636 637 637 669 697 751 820
2730.0 900 983 1070 1152 1228 1320 1453 1605 1764 1909
2770.0 2023 2092 2145 2196 2241 2304 2340 2360 2348 2334
2810.0 2307 2253 2154 2027 1857 1694 1560 1497 1499 1559
2850.0 1680 1881 2141 2402 2523 2483 2298 2056 1855 1746
2890.0 1733 1752 1784 1836 1945 2128 2487 3041 3802 4763
2930.0 5834 7141 8664 9949 10000 8884 7103 5144 3684 2783
2970.0 2098 1539 1118 819 607 496 399 337 289 260
3010.0 225 213 193 178 189 170 162 151 148 143
3050.0 154 130 124 124 130 116 110 118 124 142
3090.0 133 125 127 127 117 119 128 127 117 114
3130.0 121 113 111 106 109 114 108 147 148 128
3170.0 137 148 143 151 153 138 149 139 149 146
3210.0 136 132 152 152 153 172 180 184 186 195
3250.0 205 215 201 192 201 186 200 199 199 205
3290.0 218 225 223 223 213 210 230 247 257 248
3330.0 266 286 339 338 349 368 380 407 396 374
3370.0 381 366 375 384 436 492 565 637 704 705
3410.0 699 672 643 574 570 488 460 449 436 420
3450.0 410 426 406 409 394 389 387 377 379 350
3490.0 336 330 309 298 260 260 266 255 257 228
3530.0 227 202 207 170 182 166 159 132 155 129
3570.0 159 139 147 116 72 119 73 54 56 52
3610.0 87 48 54 23 40 52 29 51 58 85
3650.0 132 132 197 204 237 233 246 188 150 86
3690.0 70 41 36 13 7 11 7 7 7 8
3730.0 7 7 7 2 59 4 13 7 7 7
3770.0 7 8 7 7 11 16 7 11 7 22
3810.0 13 7 7 7 7 7 7 16 12 7
3850.0 12 7 35 8 7 47 23 6 35 47
3890.0 0 55 5 22 6 27 11 7 7 7
3930.0 7 7 44 3 7 5 54 23 25 31
##END=
