##TITLE=2-Butanone, 4-(4-methoxyphenyl)-
##JCAMP-DX=4.24
##DATA TYPE=INFRARED SPECTRUM
##ORIGIN=Sadtler Research Labs Under US-EPA Contract
##OWNER=NIST Standard Reference Data Program
##CAS REGISTRY NO=104-20-1
##MOLFORM=C 11 H 14 O 2
##XUNITS=1/CM
##YUNITS=ABSORBANCE
##XFACTOR=1.0
##YFACTOR=0.000083389
##DELTAX=4.0
##FIRSTX=450.0
##LASTX=3966.0
##FIRSTY=0.000000
##MAXX=3966
##MINX=450
##MAXY=0.83389
##MINY=0
##NPOINTS=880
##XYDATA=(X++(Y..Y))
450.0 0 912 1512 1154 1250 1141 1156 1343 1132 1389
490.0 1165 1216 1267 1517 1429 1598 1778 1782 1857 1735
530.0 1816 1639 1743 1723 1720 1638 1538 1517 1351 1340
570.0 1240 1328 1243 1273 1182 1172 1170 1143 1175 1125
610.0 1143 1096 1074 1065 1089 1094 1052 1078 1070 1076
650.0 1032 1078 1063 1027 1053 1093 1064 1050 1108 1093
690.0 1206 1262 1356 1311 1257 1202 1153 1167 1152 1172
730.0 1180 1259 1335 1368 1294 1220 1174 1118 1137 1122
770.0 1128 1135 1139 1231 1255 1346 1439 1606 1773 1959
810.0 2012 2157 2296 2439 2417 2245 2013 1761 1587 1460
850.0 1421 1388 1373 1417 1356 1297 1251 1213 1180 1185
890.0 1173 1177 1168 1175 1163 1156 1180 1175 1187 1202
930.0 1239 1243 1248 1268 1268 1271 1264 1288 1268 1267
970.0 1241 1240 1228 1228 1222 1236 1264 1283 1320 1393
1010.0 1489 1545 1592 1643 1776 2030 2357 2794 3149 3345
1050.0 3177 2761 2262 1898 1677 1535 1452 1403 1388 1356
1090.0 1373 1385 1447 1506 1567 1585 1563 1521 1477 1461
1130.0 1479 1557 1663 1857 2144 2494 2806 2934 2909 2822
1170.0 3204 3891 4162 3773 2985 2395 2105 1997 1975 2025
1210.0 2084 2173 2283 2420 2587 2856 3348 4288 5988 8252
1250.0 10000 9733 7861 5657 4245 3539 3153 2945 2813 2805
1290.0 2894 3109 3204 2992 2522 2046 1822 1721 1701 1701
1330.0 1745 1804 1849 1938 2035 2192 2433 2753 2996 3020
1370.0 2774 2390 2033 1778 1624 1526 1471 1428 1446 1466
1410.0 1511 1581 1622 1701 1704 1726 1724 1856 2052 2190
1450.0 2211 2110 2028 2076 2267 2386 2259 1949 1687 1548
1490.0 1554 1665 1931 2564 4070 7234 9553 9162 5710 2813
1530.0 1861 1536 1384 1307 1240 1237 1209 1200 1220 1219
1570.0 1238 1277 1393 1471 1589 1584 1576 1603 1785 2060
1610.0 2413 2700 2644 2313 1828 1531 1350 1280 1220 1203
1650.0 1138 1178 1156 1136 1167 1166 1176 1238 1242 1309
1690.0 1366 1457 1511 1627 1740 1956 2183 2594 3179 3960
1730.0 4771 5225 5030 4218 3285 2623 2148 1868 1644 1511
1770.0 1370 1277 1217 1168 1139 1104 1089 1073 1050 1046
1810.0 1038 1028 1027 1031 1021 1021 1026 1030 1024 1023
1850.0 1043 1045 1038 1045 1056 1050 1085 1088 1085 1067
1890.0 1056 1038 1030 1023 1015 1003 1004 1004 987 984
1930.0 985 993 1003 1005 1025 1034 1033 1025 1021 1016
1970.0 1021 1025 1030 1033 1038 1034 1035 1035 1029 1028
2010.0 1020 1020 1013 1012 1013 1010 1011 1012 1017 1029
2050.0 1044 1052 1057 1067 1054 1067 1061 1068 1069 1075
2090.0 1061 1052 1031 1017 1019 1003 1000 1001 1000 991
2130.0 984 983 980 980 971 979 973 976 974 980
2170.0 979 974 970 973 971 975 973 975 978 975
2210.0 971 974 975 978 972 977 976 969 969 968
2250.0 972 970 970 970 975 968 977 978 987 986
2290.0 984 980 977 976 968 961 962 965 954 960
2330.0 964 961 957 947 968 953 937 937 944 957
2370.0 972 976 968 970 963 960 961 953 954 960
2410.0 960 961 967 968 975 971 968 962 957 950
2450.0 957 956 957 957 966 965 969 975 976 978
2490.0 986 984 985 983 980 979 978 974 974 976
2530.0 979 984 994 1000 1002 1009 1003 984 974 962
2570.0 956 952 956 962 968 975 986 980 984 984
2610.0 987 983 981 980 975 979 982 976 975 987
2650.0 981 973 969 953 949 946 946 941 939 947
2690.0 948 946 948 956 961 961 958 950 960 961
2730.0 963 960 966 966 972 984 993 1003 1009 1012
2770.0 1017 1023 1016 1025 1034 1044 1045 1062 1073 1093
2810.0 1120 1125 1145 1185 1229 1314 1459 1731 2030 2146
2850.0 2008 1756 1607 1567 1557 1564 1556 1536 1535 1560
2890.0 1641 1730 1849 1979 2133 2303 2495 2607 2662 2713
2930.0 2768 2834 2922 3020 3051 3000 2938 2872 2781 2594
2970.0 2357 2102 1905 1767 1713 1712 1806 2004 2369 2756
3010.0 2873 2588 2119 1844 1770 1816 1935 1955 1865 1662
3050.0 1494 1395 1353 1362 1395 1444 1481 1477 1402 1322
3090.0 1266 1253 1243 1256 1242 1204 1176 1143 1118 1099
3130.0 1085 1071 1056 1043 1025 1010 1010 1011 1002 1008
3170.0 994 1001 997 1012 995 981 990 983 990 987
3210.0 986 975 979 970 968 979 974 972 973 963
3250.0 960 966 955 958 955 967 979 974 981 971
3290.0 975 966 963 956 961 954 940 939 964 968
3330.0 967 967 953 967 960 968 983 968 962 977
3370.0 976 977 966 971 972 970 985 983 979 981
3410.0 986 984 987 990 994 1007 1006 1020 1036 1040
3450.0 1028 1017 1023 1010 1006 1001 991 998 989 977
3490.0 961 975 975 976 968 964 977 967 981 956
3530.0 985 971 971 990 965 968 957 968 972 972
3570.0 986 980 987 972 990 994 982 990 985 968
3610.0 976 981 980 988 1002 1013 982 985 977 986
3650.0 978 1002 1008 994 995 973 1001 977 988 977
3690.0 987 997 986 1002 945 953 980 969 974 966
3730.0 995 986 997 972 997 990 981 984 975 967
3770.0 999 994 974 982 976 966 966 999 982 1018
3810.0 1001 994 979 986 992 982 990 1007 1002 992
3850.0 981 989 1019 1006 1002 994 1021 1020 991 1058
3890.0 996 1042 1011 1045 983 1011 982 996 975 977
3930.0 1016 957 986 1015 1009 1009 984 966 1014 1023
##END=
