##TITLE=Benzene, 1-bromo-4-(methylthio)-
##JCAMP-DX=4.24
##DATA TYPE=INFRARED SPECTRUM
##ORIGIN=Sadtler Research Labs Under US-EPA Contract
##OWNER=NIST Standard Reference Data Program
##CAS REGISTRY NO=104-95-0
##MOLFORM=C 7 H 7 Br S
##XUNITS=1/CM
##YUNITS=ABSORBANCE
##XFACTOR=1.0
##YFACTOR=0.000068268
##DELTAX=4.0
##FIRSTX=450.0
##LASTX=3966.0
##FIRSTY=0.023552
##MAXX=3966
##MINX=450
##MAXY=0.68268
##MINY=0
##NPOINTS=880
##XYDATA=(X++(Y..Y))
450.0 345 266 688 643 1025 1109 1695 2109 2383 2661
490.0 2654 2299 1687 1333 1235 1020 773 582 387 394
530.0 317 322 293 232 290 232 132 253 163 212
570.0 145 138 241 171 277 172 226 290 221 295
610.0 262 313 392 309 300 292 302 294 234 241
650.0 201 240 263 202 277 187 257 216 198 283
690.0 286 344 330 347 393 409 436 465 525 722
730.0 846 853 655 502 435 409 359 428 450 523
770.0 597 607 670 700 946 1309 1875 2456 3170 3792
810.0 4154 4233 3865 3177 2574 1943 1384 910 620 473
850.0 341 338 344 289 299 276 294 294 300 335
890.0 267 278 283 272 299 298 299 321 318 369
930.0 404 397 435 478 539 617 768 938 1258 1661
970.0 1786 1612 1159 813 670 649 779 1291 2831 5312
1010.0 6943 6559 4000 1640 742 650 545 554 528 498
1050.0 542 621 916 1641 3025 4198 4318 3431 2556 3586
1090.0 5917 7147 6963 4359 1986 1090 880 733 618 565
1130.0 518 494 444 417 371 366 365 324 321 337
1170.0 313 317 274 229 197 109 22 29 113 204
1210.0 306 318 392 354 303 251 242 237 221 272
1250.0 293 310 353 301 315 356 322 326 323 336
1290.0 411 375 413 393 409 531 579 734 803 811
1330.0 705 521 418 412 413 433 416 455 517 570
1370.0 715 814 947 1066 1105 1119 1079 1018 963 914
1410.0 930 956 1044 1193 1291 1466 1621 1976 2137 2115
1450.0 1916 1707 1931 2654 4399 7505 10000 9871 6655 3063
1490.0 1194 834 610 527 504 387 398 347 347 301
1530.0 305 351 311 355 368 433 470 510 584 649
1570.0 659 656 594 493 454 396 401 385 399 423
1610.0 424 477 485 526 518 483 448 400 366 330
1650.0 242 260 214 243 196 176 145 190 129 146
1690.0 167 148 119 137 180 135 135 159 168 165
1730.0 167 164 171 194 183 180 190 222 253 292
1770.0 261 201 186 139 135 130 100 116 102 117
1810.0 115 122 121 115 112 118 110 132 111 105
1850.0 124 147 159 191 222 239 280 332 344 373
1890.0 354 338 313 248 195 170 137 124 114 99
1930.0 111 102 100 86 79 97 92 94 71 81
1970.0 57 70 91 72 80 35 57 84 75 71
2010.0 70 79 73 81 82 95 92 69 90 103
2050.0 71 52 52 76 84 84 72 87 73 61
2090.0 67 60 62 57 54 64 47 47 63 49
2130.0 52 59 51 47 65 53 36 59 55 46
2170.0 40 38 33 46 55 45 46 50 46 45
2210.0 49 44 41 40 42 42 42 36 41 44
2250.0 52 51 59 70 75 82 98 96 102 117
2290.0 122 112 115 106 100 101 95 87 89 98
2330.0 82 53 105 81 76 74 93 97 120 111
2370.0 106 76 78 78 62 53 49 42 59 42
2410.0 36 24 15 18 8 11 9 7 3 2
2450.0 19 10 7 11 14 22 7 17 11 15
2490.0 10 10 10 28 19 9 17 21 25 21
2530.0 28 31 42 47 43 43 44 50 46 43
2570.0 54 54 47 45 43 37 29 14 17 22
2610.0 26 20 22 31 25 39 36 33 44 40
2650.0 46 45 37 43 38 23 22 31 23 26
2690.0 14 16 18 22 14 12 20 21 23 19
2730.0 19 23 25 25 28 33 35 39 36 41
2770.0 46 50 60 61 73 92 93 111 119 121
2810.0 110 113 125 142 172 204 250 290 354 390
2850.0 436 433 393 353 318 303 290 276 253 248
2890.0 255 278 324 377 457 569 688 855 1037 1336
2930.0 1927 2217 2150 1697 1123 849 729 595 564 495
2970.0 461 483 472 541 636 713 914 1024 1030 894
3010.0 699 572 507 453 393 340 309 269 253 256
3050.0 257 288 319 366 453 553 678 799 922 952
3090.0 897 751 542 393 286 206 161 135 122 105
3130.0 86 97 89 83 90 76 82 89 80 65
3170.0 71 67 43 55 53 46 61 51 46 41
3210.0 39 56 39 36 46 39 44 31 30 24
3250.0 41 49 43 43 31 27 31 16 30 43
3290.0 37 39 30 31 42 41 31 37 46 54
3330.0 22 34 39 42 33 44 45 34 34 39
3370.0 31 41 33 40 41 56 30 32 18 36
3410.0 27 38 33 31 30 35 30 32 42 32
3450.0 35 43 54 37 22 25 45 40 40 46
3490.0 46 26 24 51 30 20 35 34 34 44
3530.0 19 19 44 51 50 22 42 27 42 25
3570.0 52 49 49 42 31 46 37 53 34 36
3610.0 16 34 47 52 65 43 32 33 38 52
3650.0 45 58 52 31 40 3 65 27 55 22
3690.0 29 53 56 64 86 87 104 60 71 23
3730.0 59 71 20 45 4 75 10 52 6 43
3770.0 55 5 36 26 24 35 55 56 20 81
3810.0 54 52 33 58 13 29 30 51 35 63
3850.0 13 53 0 19 6 41 73 39 43 68
3890.0 44 45 75 23 81 53 29 97 10 57
3930.0 92 21 29 11 103 23 23 72 80 2
##END=
