##TITLE=.beta.-Phenylethylmethylethylcarbinol
##JCAMP-DX=4.24
##DATA TYPE=INFRARED SPECTRUM
##ORIGIN=Sadtler Research Labs Under US-EPA Contract
##OWNER=NIST Standard Reference Data Program
##CAS REGISTRY NO=10415-87-9
##MOLFORM=C 12 H 18 O
##XUNITS=1/CM
##YUNITS=ABSORBANCE
##XFACTOR=1.0
##YFACTOR=0.000062482
##DELTAX=4.0
##FIRSTX=450.0
##LASTX=3966.0
##FIRSTY=0.004499
##MAXX=3966
##MINX=450
##MAXY=0.62482
##MINY=0
##NPOINTS=880
##XYDATA=(X++(Y..Y))
450.0 72 55 109 150 186 214 231 276 268 332
490.0 426 459 493 563 576 515 574 447 408 327
530.0 293 106 156 53 87 10 57 4 113 48
570.0 93 189 210 142 39 109 131 48 77 59
610.0 73 34 66 46 53 49 58 68 85 68
650.0 81 119 169 239 329 550 631 870 1135 1787
690.0 2720 3657 4103 3631 2766 2114 1771 1805 1873 2042
730.0 2091 2116 2067 2034 1911 1772 1544 1326 1013 796
770.0 564 444 364 324 318 303 254 206 180 158
810.0 156 157 201 209 237 225 219 190 164 124
850.0 144 119 149 225 266 300 421 503 695 820
890.0 1050 1260 1438 1494 1441 1243 1111 992 1037 1162
930.0 1395 1537 1590 1460 1253 1081 945 840 783 761
970.0 742 708 728 707 758 851 941 1024 1004 1013
1010.0 947 975 1044 1219 1500 1737 1685 1505 1284 1289
1050.0 1279 1246 1135 1090 1064 1079 1031 995 882 888
1090.0 918 1034 1176 1363 1512 1671 1805 1926 1988 1994
1130.0 1945 1882 1841 1845 1914 1944 1969 1897 1776 1660
1170.0 1610 1614 1659 1704 1763 1800 1845 1813 1751 1617
1210.0 1477 1316 1218 1103 1078 1034 1069 1085 1140 1175
1250.0 1268 1322 1394 1393 1385 1345 1293 1262 1257 1257
1290.0 1283 1281 1280 1239 1200 1153 1116 1105 1097 1109
1330.0 1098 1125 1143 1185 1215 1287 1344 1443 1539 1731
1370.0 2002 2400 2672 2765 2505 2009 1478 1078 800 684
1410.0 570 551 535 522 544 618 727 942 1136 1480
1450.0 1868 2219 2487 2519 2379 2038 1613 1191 987 1001
1490.0 1331 1889 2304 2071 1434 574 322 236 250 209
1530.0 235 243 235 229 212 168 185 202 190 165
1570.0 207 211 302 324 431 544 716 952 1289 1447
1610.0 1290 876 511 291 201 171 152 148 122 131
1650.0 131 156 102 125 106 165 128 152 155 212
1690.0 193 200 242 288 253 277 313 350 288 316
1730.0 318 340 255 255 234 220 172 179 137 131
1770.0 139 154 127 154 191 243 337 328 287 191
1810.0 158 140 129 99 111 87 89 85 97 115
1850.0 118 128 160 169 193 200 184 174 169 131
1890.0 120 71 83 64 76 59 68 84 109 132
1930.0 164 203 235 241 240 237 249 206 140 78
1970.0 53 47 45 40 36 36 27 24 26 29
2010.0 25 31 16 31 16 33 24 31 18 34
2050.0 28 38 16 37 31 41 25 41 34 56
2090.0 51 53 35 48 36 51 44 53 48 52
2130.0 50 58 58 56 52 63 50 49 64 67
2170.0 63 63 59 45 50 35 44 26 46 35
2210.0 35 31 37 27 37 34 43 36 51 44
2250.0 65 45 50 50 57 31 56 37 48 45
2290.0 59 37 49 48 58 57 74 74 58 61
2330.0 48 37 29 38 52 24 49 50 0 4
2370.0 4 13 1 37 27 57 48 64 47 63
2410.0 48 63 48 62 48 70 50 51 50 58
2450.0 46 56 47 55 56 55 44 45 44 43
2490.0 49 43 46 35 47 49 33 16 33 15
2530.0 28 5 10 23 38 5 18 4 25 4
2570.0 34 26 66 51 66 68 79 60 81 69
2610.0 84 88 82 82 80 74 91 73 88 76
2650.0 94 103 105 106 113 105 98 98 105 99
2690.0 96 90 80 106 93 110 107 142 138 168
2730.0 161 194 184 186 162 173 153 168 150 172
2770.0 166 194 178 209 202 225 221 256 251 287
2810.0 307 328 342 393 420 466 519 594 694 840
2850.0 1054 1332 1671 1986 2219 2344 2396 2412 2522 2745
2890.0 3038 3154 3116 2954 2943 3097 3484 3989 4696 5383
2930.0 6132 6714 7082 7230 7244 7030 6628 6149 5979 6512
2970.0 7852 9366 10000 9074 7178 5238 3627 2464 1753 1444
3010.0 1315 1261 1353 1689 2356 3266 3923 3906 3136 2151
3050.0 1573 1373 1391 1704 2318 3124 3320 2983 2169 1794
3090.0 1634 1495 1286 1080 882 783 661 561 391 287
3130.0 195 168 130 121 114 125 110 111 123 125
3170.0 125 130 116 98 112 107 110 99 109 96
3210.0 99 95 108 99 96 66 87 43 74 59
3250.0 79 52 71 76 87 31 78 37 45 23
3290.0 47 16 52 44 59 41 64 45 62 45
3330.0 60 49 45 31 59 64 44 43 32 54
3370.0 47 61 39 54 51 73 65 66 50 72
3410.0 50 65 62 77 61 100 53 108 54 77
3450.0 36 81 37 67 34 49 35 55 49 45
3490.0 14 45 38 47 8 19 23 34 16 25
3530.0 17 43 49 44 57 46 66 64 73 54
3570.0 66 15 58 57 84 56 63 47 123 107
3610.0 221 296 427 551 638 685 779 861 959 876
3650.0 760 514 417 244 180 135 94 67 50 29
3690.0 46 16 35 30 42 48 28 13 36 45
3730.0 20 10 22 4 9 4 4 7 14 17
3770.0 5 24 24 41 21 18 13 35 24 25
3810.0 4 33 23 40 7 12 35 59 27 30
3850.0 24 47 49 48 25 40 34 55 57 57
3890.0 62 71 64 72 62 54 58 54 49 55
3930.0 46 23 6 3 19 25 51 54 67 74
##END=
