##TITLE=1,2-Propanediol, 3-decyloxy-,
##JCAMP-DX=4.24
##DATA TYPE=INFRARED SPECTRUM
##ORIGIN=Sadtler Research Labs Under US-EPA Contract
##OWNER=NIST Standard Reference Data Program
##CAS REGISTRY NO=10430-97-4
##MOLFORM=C 13 H 28 O 3
##XUNITS=1/CM
##YUNITS=ABSORBANCE
##XFACTOR=1.0
##YFACTOR=0.000099875
##DELTAX=4.0
##FIRSTX=450.0
##LASTX=3966.0
##FIRSTY=0.013383
##MAXX=3966
##MINX=450
##MAXY=0.99875
##MINY=0
##NPOINTS=880
##XYDATA=(X++(Y..Y))
450.0 134 86 90 122 159 138 74 173 178 195
490.0 131 172 46 96 113 72 125 146 106 77
530.0 86 70 90 55 117 155 99 60 49 111
570.0 143 158 105 58 107 71 29 104 92 100
610.0 73 55 64 37 102 60 58 95 140 178
650.0 155 164 140 138 222 199 127 127 51 48
690.0 102 155 85 90 136 159 205 204 210 204
730.0 114 162 154 164 152 198 206 116 117 109
770.0 155 134 168 180 209 209 247 343 362 357
810.0 285 269 279 224 240 283 235 303 316 369
850.0 399 409 484 493 491 474 437 441 397 462
890.0 498 523 552 527 493 474 476 481 494 539
930.0 547 558 564 535 497 489 488 494 520 537
970.0 572 568 593 611 654 704 738 783 860 939
1010.0 1039 1133 1315 1434 1599 1751 1830 2011 2077 2279
1050.0 2384 2448 2540 2547 2540 2380 2257 2195 2150 2203
1090.0 2247 2385 2591 2824 3067 3333 3595 3779 3824 3752
1130.0 3467 3085 2473 2001 1654 1317 1121 1006 870 779
1170.0 715 718 745 715 688 652 648 665 633 651
1210.0 628 618 650 685 673 678 712 736 741 764
1250.0 761 784 839 832 794 719 642 592 563 582
1290.0 578 589 609 612 615 607 627 653 658 707
1330.0 709 722 780 810 853 895 906 941 915 911
1370.0 880 874 901 879 860 779 738 713 670 640
1410.0 576 558 507 446 452 449 469 529 576 659
1450.0 750 877 993 1129 1070 981 794 669 526 429
1490.0 334 244 228 183 152 176 148 124 111 100
1530.0 107 79 86 69 104 78 75 67 60 44
1570.0 59 46 48 38 41 44 52 36 42 49
1610.0 45 55 34 54 38 42 42 49 28 31
1650.0 44 18 60 22 57 32 49 35 67 41
1690.0 53 46 41 74 39 56 64 73 74 54
1730.0 116 81 119 97 125 128 95 117 90 90
1770.0 86 79 68 77 80 98 112 105 107 104
1810.0 96 83 71 68 54 53 56 68 33 55
1850.0 36 38 21 35 44 46 39 43 41 30
1890.0 35 45 29 24 24 46 41 33 32 51
1930.0 52 42 36 42 38 37 48 26 34 53
1970.0 52 51 49 37 44 43 59 44 50 35
2010.0 51 49 68 56 50 57 60 60 55 56
2050.0 64 61 61 60 63 59 52 61 60 58
2090.0 59 55 60 46 50 58 58 46 43 49
2130.0 46 41 45 48 42 45 41 43 46 42
2170.0 43 40 47 44 39 40 39 41 42 36
2210.0 38 35 32 36 34 32 41 37 29 37
2250.0 41 27 34 39 42 42 39 45 42 50
2290.0 59 65 79 82 84 90 68 73 56 53
2330.0 69 62 66 31 93 47 88 50 64 40
2370.0 40 44 60 66 57 50 49 47 48 45
2410.0 45 43 44 47 48 47 42 45 44 45
2450.0 47 43 38 43 43 45 50 48 49 42
2490.0 47 46 50 52 52 50 56 58 54 60
2530.0 63 63 60 60 61 66 66 72 75 74
2570.0 70 78 75 77 77 89 93 93 92 92
2610.0 92 93 103 102 106 113 113 120 120 127
2650.0 127 136 142 145 154 164 167 173 179 183
2690.0 189 189 191 192 198 204 209 218 223 232
2730.0 242 253 254 263 267 280 283 282 290 296
2770.0 310 323 346 369 390 422 445 474 502 521
2810.0 555 589 632 686 752 840 957 1125 1362 1716
2850.0 2239 2953 3810 4590 5004 4943 4649 4308 4056 3831
2890.0 3585 3420 3417 3582 3909 4356 4928 5666 6679 7990
2930.0 9344 10000 9761 8854 7578 6257 5153 4407 4004 3786
2970.0 3467 2859 2110 1525 1144 883 719 594 508 437
3010.0 385 339 304 281 254 225 214 198 177 167
3050.0 153 138 131 125 115 111 102 96 96 90
3090.0 85 80 72 66 66 64 51 55 63 58
3130.0 52 60 52 50 47 43 51 47 49 46
3170.0 49 46 39 42 47 39 47 42 47 25
3210.0 30 38 31 40 31 28 33 30 35 32
3250.0 39 37 27 26 33 36 41 39 29 33
3290.0 36 37 37 31 29 26 36 33 38 32
3330.0 25 33 38 44 31 32 35 35 33 36
3370.0 32 38 47 50 32 30 35 33 37 39
3410.0 42 45 40 41 52 38 48 40 46 46
3450.0 45 46 47 52 41 50 44 43 54 51
3490.0 42 57 49 63 61 50 63 64 78 78
3530.0 84 79 85 97 122 130 157 177 240 274
3570.0 335 298 332 332 384 387 448 446 507 541
3610.0 604 638 651 708 649 662 537 473 374 360
3650.0 278 324 239 275 237 219 258 180 238 150
3690.0 178 111 116 75 74 78 82 49 66 52
3730.0 77 85 50 117 0 149 11 105 42 59
3770.0 71 45 60 55 44 74 26 76 30 81
3810.0 21 70 44 68 61 54 63 64 46 93
3850.0 37 74 51 82 70 59 79 53 66 50
3890.0 60 49 94 48 40 64 57 104 72 49
3930.0 41 63 50 21 71 55 97 50 63 85
##END=
