##TITLE=Benzoic acid, 3,5-dinitro-, isobutyl ester
##JCAMP-DX=4.24
##DATA TYPE=INFRARED SPECTRUM
##ORIGIN=Sadtler Research Labs Under US-EPA Contract
##OWNER=NIST Standard Reference Data Program
##CAS REGISTRY NO=10478-01-0
##MOLFORM=C 11 H 12 N 2 O 6
##XUNITS=1/CM
##YUNITS=ABSORBANCE
##XFACTOR=1.0
##YFACTOR=0.000104239
##DELTAX=4.0
##FIRSTX=450.0
##LASTX=3966.0
##FIRSTY=0.004482
##MAXX=3966
##MINX=450
##MAXY=1.04239
##MINY=0
##NPOINTS=880
##XYDATA=(X++(Y..Y))
450.0 43 15 0 48 60 64 107 122 131 176
490.0 188 154 147 169 155 176 185 212 231 235
530.0 238 248 241 239 232 228 216 209 225 215
570.0 209 206 216 199 206 231 215 225 201 198
610.0 200 209 204 201 203 209 199 196 219 201
650.0 233 240 263 249 232 282 272 257 267 272
690.0 263 258 282 333 467 694 1268 2213 3322 3768
730.0 3438 2520 1339 646 433 323 311 274 272 302
770.0 374 439 371 285 245 228 235 230 255 344
810.0 403 364 308 289 282 278 267 256 242 236
850.0 220 224 229 250 269 290 320 334 333 322
890.0 321 321 339 379 466 631 840 1011 1083 1038
930.0 890 742 651 613 572 518 476 455 491 537
970.0 625 794 1123 1622 2066 2059 1493 875 561 420
1010.0 343 317 298 291 277 259 260 248 243 250
1050.0 268 291 349 461 705 1044 1289 1254 1028 820
1090.0 711 651 598 532 471 436 423 439 486 549
1130.0 650 785 961 1225 1677 2468 3622 4765 5110 4464
1170.0 3460 2491 1743 1249 918 689 552 480 451 441
1210.0 449 459 479 508 559 635 745 876 1054 1327
1250.0 1760 2432 3477 5001 6979 8562 8843 7589 5843 4293
1290.0 3106 2279 1797 1646 1664 1657 1637 1542 1373 1227
1330.0 1383 2034 3379 5616 7198 6447 4212 2471 1617 1211
1370.0 1018 931 989 994 803 644 532 482 519 520
1410.0 486 530 356 403 367 402 323 319 381 419
1450.0 524 640 780 955 945 846 643 599 623 490
1490.0 392 465 442 510 524 709 987 1029 805 738
1530.0 616 654 756 1001 1876 3411 6595 8871 10000 5369
1570.0 2344 1162 874 766 903 979 1200 1332 1338 1040
1610.0 732 612 577 843 1079 1251 947 554 378 297
1650.0 111 100 140 156 149 129 59 145 42 19
1690.0 124 176 92 154 231 337 272 221 361 493
1730.0 482 607 1098 2052 3947 5660 5570 3472 1550 816
1770.0 425 309 301 296 296 265 231 220 169 183
1810.0 155 110 125 94 83 59 97 132 100 78
1850.0 120 156 132 130 101 59 107 111 99 76
1890.0 58 50 56 50 46 35 25 27 0 34
1930.0 36 38 34 7 12 32 32 27 37 18
1970.0 29 34 35 32 34 9 9 25 29 28
2010.0 26 20 11 21 24 24 31 24 19 24
2050.0 27 25 31 24 21 34 37 38 36 38
2090.0 25 31 29 29 27 23 22 18 18 18
2130.0 19 16 19 20 20 22 22 22 24 27
2170.0 23 23 21 24 21 21 16 15 14 12
2210.0 13 8 7 3 4 5 7 6 7 6
2250.0 3 9 8 7 7 11 12 14 16 18
2290.0 22 26 34 37 39 46 45 46 43 35
2330.0 33 37 25 38 44 37 56 50 48 36
2370.0 46 39 43 39 33 18 13 8 9 8
2410.0 9 12 12 19 19 20 20 20 18 17
2450.0 16 15 18 18 26 25 29 25 21 19
2490.0 14 14 14 15 14 14 16 14 12 11
2530.0 12 12 15 13 13 13 12 15 11 16
2570.0 18 20 17 22 18 21 19 23 21 19
2610.0 24 19 23 22 25 25 24 23 23 24
2650.0 23 23 19 19 20 24 29 41 47 54
2690.0 59 56 53 50 47 39 40 37 39 40
2730.0 45 50 54 56 57 59 56 54 52 54
2770.0 54 54 54 55 54 54 56 58 54 56
2810.0 56 62 71 77 82 93 94 99 103 113
2850.0 124 131 145 158 180 212 264 355 498 647
2890.0 704 697 690 677 636 598 572 555 552 554
2930.0 557 589 654 736 791 839 923 1051 1208 1419
2970.0 1682 2028 2314 2067 1339 788 524 367 268 206
3010.0 172 151 133 118 109 94 80 70 59 59
3050.0 61 65 62 65 74 79 90 104 122 142
3090.0 196 287 434 603 798 941 868 535 231 107
3130.0 73 57 60 53 51 54 54 44 46 41
3170.0 42 42 46 44 47 41 41 38 32 26
3210.0 32 29 25 24 21 24 21 17 15 15
3250.0 16 16 16 16 16 16 21 15 12 11
3290.0 14 12 12 14 14 16 17 19 18 15
3330.0 13 19 14 16 21 22 22 18 20 15
3370.0 23 22 18 18 18 19 18 18 18 17
3410.0 21 18 17 25 23 26 25 19 15 20
3450.0 25 16 18 22 27 29 31 42 46 41
3490.0 25 11 9 4 11 4 14 18 19 24
3530.0 20 16 16 13 23 15 12 9 12 15
3570.0 7 11 17 6 12 12 13 13 18 21
3610.0 21 17 15 20 12 26 21 13 12 5
3650.0 21 22 16 29 7 28 8 29 11 28
3690.0 22 19 19 19 15 16 27 20 13 19
3730.0 11 22 19 13 37 16 33 12 16 15
3770.0 17 17 11 23 18 15 14 16 24 31
3810.0 9 33 19 32 15 20 35 23 23 22
3850.0 29 24 27 18 24 24 21 14 24 32
3890.0 22 35 25 26 31 24 17 32 22 20
3930.0 20 28 22 15 24 26 23 32 33 29
##END=
