##TITLE=Benzoic acid, 3,5-dinitro-, octyl ester
##JCAMP-DX=4.24
##DATA TYPE=INFRARED SPECTRUM
##ORIGIN=Sadtler Research Labs Under US-EPA Contract
##OWNER=NIST Standard Reference Data Program
##CAS REGISTRY NO=10478-06-5
##MOLFORM=C 15 H 20 N 2 O 6
##XUNITS=1/CM
##YUNITS=ABSORBANCE
##XFACTOR=1.0
##YFACTOR=0.000039795
##DELTAX=4.0
##FIRSTX=450.0
##LASTX=3966.0
##FIRSTY=0.003542
##MAXX=3966
##MINX=450
##MAXY=0.39795
##MINY=0
##NPOINTS=880
##XYDATA=(X++(Y..Y))
450.0 89 148 77 119 115 58 131 159 147 197
490.0 239 194 177 193 189 161 203 191 205 191
530.0 208 255 189 171 181 135 110 87 198 123
570.0 80 96 58 61 92 101 69 110 63 86
610.0 66 49 59 71 43 55 71 69 94 112
650.0 146 146 168 111 133 173 192 150 191 183
690.0 190 194 259 352 498 811 1420 2499 3754 4135
730.0 3703 2395 1128 552 308 187 170 125 122 180
770.0 354 465 282 152 107 85 102 90 67 82
810.0 96 136 212 275 261 229 178 136 129 134
850.0 126 164 198 237 242 207 208 203 203 198
890.0 206 196 209 247 343 535 847 1093 1031 885
930.0 675 476 377 342 371 461 531 566 587 579
970.0 548 502 478 457 441 390 378 371 414 440
1010.0 482 562 648 679 643 544 442 367 332 314
1050.0 318 343 415 549 817 1186 1455 1376 1109 873
1090.0 762 696 654 585 502 445 422 440 478 532
1130.0 601 699 818 1015 1370 2013 3120 4620 5695 5315
1170.0 3829 2419 1545 1067 781 621 515 460 424 414
1210.0 421 434 468 513 566 633 739 853 1034 1301
1250.0 1721 2348 3298 4711 6739 8895 10000 9014 6794 4758
1290.0 3337 2450 1895 1599 1496 1470 1545 1603 1594 1541
1330.0 1737 2486 4082 6535 7690 6356 4185 2591 1693 1217
1370.0 935 752 653 636 580 574 484 389 390 393
1410.0 375 424 311 347 367 439 423 459 583 639
1450.0 815 964 1199 1356 1217 1078 786 655 649 524
1490.0 438 539 552 610 630 829 1015 1159 1018 1071
1530.0 1086 1456 2034 2742 4055 5127 7081 8513 8404 4790
1570.0 2172 1126 900 754 917 939 1143 1236 1229 956
1610.0 699 683 666 1055 1247 1331 833 529 329 331
1650.0 49 175 95 150 145 143 52 209 61 105
1690.0 185 260 178 270 316 483 493 592 943 1462
1730.0 1883 2234 2609 2971 4157 5240 4715 2923 1362 784
1770.0 399 327 279 309 248 264 166 174 112 127
1810.0 105 75 103 74 88 43 106 98 108 49
1850.0 105 128 114 111 96 56 91 97 72 65
1890.0 35 37 37 34 40 25 21 20 0 31
1930.0 34 40 35 16 22 49 41 44 48 41
1970.0 45 54 51 48 52 41 41 51 57 58
2010.0 54 52 45 56 52 58 58 57 53 60
2050.0 58 56 68 61 60 67 69 72 71 70
2090.0 55 57 60 60 54 51 50 46 45 51
2130.0 47 42 49 47 50 47 45 45 52 50
2170.0 53 45 48 52 50 54 45 49 42 45
2210.0 41 38 38 32 35 33 42 36 43 43
2250.0 42 48 48 44 50 59 59 72 82 97
2290.0 119 153 172 192 211 256 238 250 262 217
2330.0 268 257 212 246 315 210 376 272 364 282
2370.0 271 210 197 172 125 73 54 47 43 46
2410.0 44 50 53 55 49 53 60 60 59 47
2450.0 54 57 62 59 69 63 73 64 65 56
2490.0 54 50 53 57 56 51 57 55 53 50
2530.0 57 58 62 55 50 61 58 66 59 64
2570.0 71 77 70 73 71 78 76 80 82 82
2610.0 82 79 89 87 92 91 90 92 90 105
2650.0 97 102 101 102 96 101 114 121 124 136
2690.0 141 147 140 148 142 130 130 127 132 128
2730.0 132 140 145 144 147 151 151 153 155 161
2770.0 161 165 168 179 187 181 199 210 205 216
2810.0 234 247 275 305 320 357 396 458 537 680
2850.0 850 1057 1274 1443 1499 1454 1347 1237 1172 1161
2890.0 1152 1169 1235 1313 1426 1575 1787 2036 2376 2779
2930.0 3151 3404 3406 3170 2787 2375 2071 1938 1968 2019
2970.0 1955 1695 1323 1043 901 823 736 620 507 424
3010.0 360 306 277 253 235 212 203 190 172 174
3050.0 172 181 176 178 196 206 219 252 300 347
3090.0 437 571 736 895 1024 1051 900 558 288 181
3130.0 147 120 123 112 103 101 108 96 94 86
3170.0 91 81 81 85 82 75 82 76 71 61
3210.0 68 75 56 63 68 70 56 58 54 53
3250.0 65 54 56 61 56 57 69 53 58 54
3290.0 63 53 44 51 53 65 61 60 64 53
3330.0 54 62 51 51 66 62 65 55 55 56
3370.0 75 69 62 74 70 68 71 72 66 70
3410.0 76 65 90 82 82 77 77 73 62 68
3450.0 75 58 77 69 78 71 70 86 93 101
3490.0 55 53 55 60 88 46 80 59 82 106
3530.0 83 56 74 50 103 79 65 91 46 151
3570.0 95 74 67 51 132 95 128 88 93 86
3610.0 132 102 112 132 79 158 120 54 101 72
3650.0 192 104 77 126 34 205 53 208 8 153
3690.0 73 111 92 103 93 93 128 99 96 109
3730.0 96 163 117 146 189 95 205 52 99 87
3770.0 74 82 54 118 81 62 71 66 131 102
3810.0 52 140 64 164 58 73 134 131 95 117
3850.0 96 134 142 74 122 141 105 84 152 108
3890.0 125 125 110 169 152 81 100 144 105 109
3930.0 90 116 107 88 89 131 83 93 94 74
##END=
