##TITLE=Benzoic acid, 3,5-dinitro-, pentyl ester
##JCAMP-DX=4.24
##DATA TYPE=INFRARED SPECTRUM
##ORIGIN=Sadtler Research Labs Under US-EPA Contract
##OWNER=NIST Standard Reference Data Program
##CAS REGISTRY NO=10478-03-2
##MOLFORM=C 12 H 14 N 2 O 6
##XUNITS=1/CM
##YUNITS=ABSORBANCE
##XFACTOR=1.0
##YFACTOR=0.000076315
##DELTAX=4.0
##FIRSTX=450.0
##LASTX=3966.0
##FIRSTY=0.010074
##MAXX=3966
##MINX=450
##MAXY=0.76315
##MINY=0
##NPOINTS=880
##XYDATA=(X++(Y..Y))
450.0 132 77 118 181 255 219 257 253 295 263
490.0 310 268 315 301 333 325 338 354 355 384
530.0 333 367 332 320 305 266 261 250 309 249
570.0 278 243 269 252 255 279 274 277 270 293
610.0 263 297 297 289 275 288 314 321 375 396
650.0 469 463 475 421 452 457 447 437 448 479
690.0 496 536 609 739 979 1393 2138 3231 4336 4618
730.0 4251 2846 1414 770 511 394 374 351 378 458
770.0 718 916 646 446 346 298 283 276 299 330
810.0 405 472 544 594 583 505 434 408 391 397
850.0 426 479 519 566 573 587 583 562 548 509
890.0 522 534 578 638 771 1034 1457 1759 1654 1426
930.0 1149 856 697 655 658 710 823 991 1218 1432
970.0 1557 1527 1309 1036 821 709 655 650 675 696
1010.0 720 810 874 901 866 829 794 768 748 695
1050.0 668 660 729 891 1232 1703 2048 1974 1609 1334
1090.0 1180 1126 1064 969 862 804 792 824 883 956
1130.0 1058 1185 1367 1618 2019 2665 3656 4906 5890 5826
1170.0 4666 3198 2088 1429 1054 859 756 714 697 705
1210.0 733 765 820 862 941 1035 1176 1346 1574 1890
1250.0 2345 2969 3869 5173 7018 8953 10000 9108 7099 5209
1290.0 3892 3033 2478 2147 1969 1920 2017 2135 2210 2170
1330.0 2335 3051 4450 6504 7662 6579 4584 2992 2076 1535
1370.0 1226 997 923 935 918 911 820 684 656 620
1410.0 582 624 492 547 564 669 667 700 834 923
1450.0 1130 1328 1566 1730 1633 1434 1140 970 985 842
1490.0 783 874 896 975 956 1161 1381 1495 1338 1510
1530.0 1631 2036 2560 3021 3957 4964 7093 8500 8655 5078
1570.0 2386 1327 1072 921 1100 1136 1376 1455 1439 1145
1610.0 914 884 965 1383 1731 1638 1097 610 398 283
1650.0 0 9 96 175 211 226 160 302 219 238
1690.0 385 493 421 534 658 866 955 1123 1584 2109
1730.0 2443 2576 2885 3348 4467 5394 4880 2980 1432 850
1770.0 516 415 388 384 320 303 216 213 139 165
1810.0 138 121 150 128 136 100 154 162 151 114
1850.0 168 199 178 182 150 112 136 148 116 99
1890.0 70 64 65 57 58 41 40 35 18 48
1930.0 54 58 56 42 44 70 61 66 65 57
1970.0 62 72 75 69 77 55 62 72 82 77
2010.0 77 71 67 75 78 84 84 85 78 82
2050.0 82 85 90 87 83 95 107 100 104 98
2090.0 93 94 93 91 87 86 81 78 73 80
2130.0 80 78 79 80 84 85 88 87 88 90
2170.0 93 90 90 92 92 91 87 87 82 83
2210.0 77 77 73 73 74 71 75 73 77 71
2250.0 77 76 79 81 85 91 90 99 97 107
2290.0 121 133 145 159 168 180 173 167 178 147
2330.0 143 144 140 114 176 156 203 156 151 123
2370.0 133 125 146 149 126 101 92 86 87 89
2410.0 93 93 94 100 101 109 107 107 110 107
2450.0 106 110 114 116 116 114 114 107 103 97
2490.0 92 98 99 101 104 106 106 104 97 98
2530.0 93 97 93 95 96 95 97 95 99 97
2570.0 103 101 104 106 108 114 115 116 114 116
2610.0 117 119 120 125 123 119 121 119 121 119
2650.0 121 122 123 129 136 140 148 159 170 180
2690.0 183 183 179 175 171 164 161 164 168 164
2730.0 173 178 186 193 196 199 197 197 197 202
2770.0 207 213 215 219 222 226 228 237 245 252
2810.0 269 285 306 327 350 377 404 437 488 556
2850.0 644 754 873 985 1082 1164 1231 1249 1228 1209
2890.0 1194 1178 1184 1203 1226 1270 1343 1434 1546 1687
2930.0 1840 2004 2141 2187 2124 1997 1911 1960 2117 2285
2970.0 2329 2198 1867 1486 1217 1044 905 762 639 544
3010.0 469 414 369 333 306 285 274 261 264 263
3050.0 260 262 272 293 320 347 400 461 532 633
3090.0 769 945 1147 1326 1448 1434 1192 783 443 294
3130.0 246 209 201 188 179 176 166 156 154 151
3170.0 146 148 140 141 135 135 133 127 120 118
3210.0 115 110 114 108 103 106 104 98 99 101
3250.0 104 104 99 109 110 99 106 96 105 96
3290.0 100 102 105 104 101 98 98 101 105 105
3330.0 103 106 111 100 104 107 105 104 112 113
3370.0 115 102 104 110 110 116 115 112 118 121
3410.0 118 116 110 120 119 129 138 133 126 138
3450.0 142 135 141 136 132 128 125 144 135 133
3490.0 115 100 106 105 91 102 99 105 107 122
3530.0 115 112 108 107 129 111 103 116 101 123
3570.0 126 103 124 126 150 128 112 134 99 117
3610.0 106 113 110 105 126 98 130 104 122 117
3650.0 106 131 87 122 102 136 97 113 121 105
3690.0 137 93 133 123 123 137 115 106 153 121
3730.0 134 116 161 91 181 89 124 134 106 130
3770.0 128 118 118 115 123 118 107 147 79 163
3810.0 96 148 114 125 135 123 131 136 133 103
3850.0 154 98 114 140 114 134 134 136 115 144
3890.0 104 158 110 163 113 124 121 151 148 136
3930.0 148 130 133 142 149 127 127 127 143 131
##END=
