##TITLE=Benzoic acid, 3,5-dinitro-, hexyl ester
##JCAMP-DX=4.24
##DATA TYPE=INFRARED SPECTRUM
##ORIGIN=Sadtler Research Labs Under US-EPA Contract
##OWNER=NIST Standard Reference Data Program
##CAS REGISTRY NO=10478-04-3
##MOLFORM=C 13 H 16 N 2 O 6
##XUNITS=1/CM
##YUNITS=ABSORBANCE
##XFACTOR=1.0
##YFACTOR=0.000051019
##DELTAX=4.0
##FIRSTX=450.0
##LASTX=3966.0
##FIRSTY=0.006581
##MAXX=3966
##MINX=450
##MAXY=0.51019
##MINY=0
##NPOINTS=880
##XYDATA=(X++(Y..Y))
450.0 129 130 60 97 135 42 97 160 122 172
490.0 177 146 157 144 126 177 159 145 161 172
530.0 168 188 171 154 127 132 119 103 168 104
570.0 134 97 107 85 104 115 103 107 64 63
610.0 75 90 91 98 65 81 89 83 110 105
650.0 144 147 155 125 136 168 199 125 173 175
690.0 175 181 209 277 425 704 1203 2119 3230 3725
730.0 3446 2428 1261 623 374 255 243 198 183 246
770.0 349 422 334 224 161 145 145 145 121 135
810.0 156 202 255 312 306 269 233 194 163 175
850.0 162 179 183 205 208 210 237 257 271 285
890.0 284 286 322 366 433 577 801 974 999 907
930.0 762 608 491 402 367 373 400 425 466 495
970.0 545 614 671 691 689 662 648 608 565 513
1010.0 463 451 444 440 429 389 386 378 377 374
1050.0 390 410 466 572 810 1153 1416 1355 1109 879
1090.0 754 686 643 586 515 486 478 508 562 621
1130.0 696 780 893 1065 1387 1990 3035 4480 5644 5450
1170.0 3997 2453 1492 1007 752 633 569 546 523 503
1210.0 488 486 502 536 582 652 772 902 1089 1336
1250.0 1723 2308 3220 4643 6694 8896 10000 8983 6710 4653
1290.0 3243 2392 1892 1612 1508 1482 1546 1555 1471 1372
1330.0 1544 2179 3547 5822 7287 6322 4137 2519 1647 1178
1370.0 891 703 623 645 608 607 511 410 419 435
1410.0 413 474 332 372 374 436 389 410 508 535
1450.0 654 744 917 1106 1017 920 663 588 613 482
1490.0 374 471 464 516 521 730 960 1072 864 833
1530.0 748 911 1153 1477 2500 3839 6606 9002 9504 5287
1570.0 2314 1172 906 761 923 956 1180 1314 1326 1018
1610.0 703 645 567 926 1090 1291 857 543 346 333
1650.0 40 151 96 172 159 143 43 199 28 51
1690.0 135 192 82 166 240 398 356 335 551 799
1730.0 890 1059 1543 2418 4351 5902 5341 3203 1465 871
1770.0 457 364 328 355 300 301 199 206 135 150
1810.0 132 99 126 92 98 58 118 118 120 58
1850.0 126 147 127 127 108 55 105 117 94 76
1890.0 49 51 50 50 50 30 31 25 7 37
1930.0 43 43 39 18 24 52 42 44 48 29
1970.0 38 50 46 47 47 28 24 40 45 45
2010.0 44 41 32 43 43 48 50 49 38 48
2050.0 49 49 57 50 47 58 61 62 58 61
2090.0 48 52 50 50 47 49 42 40 39 40
2130.0 43 35 42 42 43 43 43 44 47 50
2170.0 48 46 39 47 46 49 44 44 39 39
2210.0 41 39 39 34 36 37 39 39 39 41
2250.0 42 44 48 51 47 57 58 71 86 102
2290.0 127 165 187 207 225 270 240 248 251 193
2330.0 218 203 154 201 280 188 330 231 318 261
2370.0 234 192 192 171 131 70 40 35 29 34
2410.0 27 32 36 37 35 33 36 36 40 28
2450.0 37 32 39 31 40 37 44 42 40 33
2490.0 28 31 29 32 30 26 28 25 20 14
2530.0 24 23 25 27 21 29 28 31 28 36
2570.0 40 37 38 41 38 45 41 44 44 43
2610.0 47 44 48 43 45 52 48 48 50 53
2650.0 49 58 49 49 49 57 60 74 79 85
2690.0 95 92 96 96 89 78 79 74 75 77
2730.0 78 86 86 89 92 96 97 93 95 95
2770.0 100 96 99 102 108 105 113 117 122 129
2810.0 128 138 155 168 186 204 218 243 277 330
2850.0 400 490 618 763 877 939 953 920 902 907
2890.0 895 872 874 890 919 988 1082 1192 1357 1582
2930.0 1841 2107 2301 2337 2190 1904 1638 1558 1692 1915
2970.0 2042 1925 1532 1118 873 741 644 534 447 358
3010.0 295 248 217 187 170 157 147 136 130 122
3050.0 120 124 114 114 125 127 143 160 184 206
3090.0 266 359 509 662 839 965 884 537 247 129
3130.0 105 78 80 75 73 73 67 60 62 52
3170.0 49 53 55 54 56 47 52 52 45 42
3210.0 42 44 35 41 35 39 31 32 33 28
3250.0 38 28 37 26 28 34 34 27 34 28
3290.0 32 35 28 29 28 30 35 34 32 28
3330.0 25 27 38 33 37 31 41 36 35 44
3370.0 58 44 41 47 43 47 39 47 41 38
3410.0 52 51 53 55 48 54 55 42 42 57
3450.0 59 46 55 49 58 56 55 77 82 84
3490.0 35 34 36 40 69 34 75 44 62 89
3530.0 64 52 54 50 91 65 43 68 31 136
3570.0 77 59 53 38 87 70 99 52 63 66
3610.0 101 82 87 93 50 121 79 35 77 44
3650.0 145 85 60 102 15 168 2 160 0 128
3690.0 49 81 53 71 62 67 95 85 59 104
3730.0 60 117 66 102 135 52 147 29 69 65
3770.0 52 56 44 73 47 55 58 49 109 74
3810.0 33 94 38 119 42 55 89 95 93 103
3850.0 60 97 99 52 98 115 78 39 124 49
3890.0 97 80 89 104 111 31 53 102 69 92
3930.0 81 78 49 59 59 100 49 70 76 72
##END=
