##TITLE=Propionic acid, 2-benzoyl-, ethyl ester
##JCAMP-DX=4.24
##DATA TYPE=INFRARED SPECTRUM
##ORIGIN=Sadtler Research Labs Under US-EPA Contract
##OWNER=NIST Standard Reference Data Program
##CAS REGISTRY NO=10488-87-6
##MOLFORM=C 12 H 14 O 3
##XUNITS=1/CM
##YUNITS=ABSORBANCE
##XFACTOR=1.0
##YFACTOR=0.000046661
##DELTAX=4.0
##FIRSTX=450.0
##LASTX=3966.0
##FIRSTY=0.000327
##MAXX=3966
##MINX=450
##MAXY=0.46661
##MINY=0
##NPOINTS=880
##XYDATA=(X++(Y..Y))
450.0 7 75 187 169 132 154 166 130 150 133
490.0 156 117 129 124 93 40 30 12 14 7
530.0 67 95 71 74 59 77 95 133 150 206
570.0 192 258 314 422 450 469 405 321 249 243
610.0 235 255 280 251 256 283 319 306 342 398
650.0 549 791 1071 1180 1078 984 870 1035 1569 2545
690.0 3291 3148 2800 2432 1946 1598 1435 1298 1225 1129
730.0 980 791 637 522 505 514 582 746 910 1030
770.0 1029 942 819 730 642 521 401 318 277 240
810.0 250 245 236 229 225 232 237 264 283 328
850.0 415 539 656 727 656 501 372 316 331 409
890.0 479 512 472 412 350 331 346 406 500 597
930.0 698 843 1077 1516 2188 3037 3863 4157 3833 3394
970.0 2931 2198 1444 953 731 651 708 955 1157 1104
1010.0 1054 1073 1263 1552 1937 2260 2459 2455 2327 2154
1050.0 1968 1839 1892 2239 2840 3421 3724 3799 3781 3669
1090.0 3557 3548 3599 3543 3264 2863 2548 2339 2206 2171
1130.0 2235 2468 2921 3603 4458 5292 5832 5900 5680 5485
1170.0 5558 5950 6582 7218 7346 6963 6411 6079 6145 6679
1210.0 7581 8466 8775 8457 7976 7633 7394 7208 6897 6339
1250.0 5662 5123 4888 4823 4767 4664 4459 4194 3898 3674
1290.0 3614 3730 3947 4194 4345 4324 4196 4154 4191 4110
1330.0 3796 3386 2995 2571 2041 1509 1175 1052 1133 1439
1370.0 1672 1884 2093 1968 1800 1430 1033 787 657 558
1410.0 482 452 447 468 507 605 757 1037 1496 2310
1450.0 2891 2868 2667 2263 1971 1574 1202 927 703 538
1490.0 453 386 319 246 219 183 171 169 186 197
1530.0 190 211 211 223 228 248 262 300 345 387
1570.0 493 638 844 976 1035 1104 1285 1401 1247 1054
1610.0 837 701 685 693 734 760 760 751 750 800
1650.0 831 935 1007 1124 1253 1433 1679 2116 2686 3387
1690.0 4180 5249 6728 8390 9845 10000 8335 6071 4420 3880
1730.0 3967 4341 4923 5914 7388 8944 9703 9258 8405 7381
1770.0 6010 4213 2705 1744 1212 899 687 535 446 398
1810.0 361 297 226 158 110 71 43 32 14 5
1850.0 0 6 3 3 6 11 13 16 35 56
1890.0 83 106 123 128 129 133 126 113 87 71
1930.0 65 62 65 69 81 108 145 167 171 146
1970.0 140 130 100 76 49 29 26 22 23 21
2010.0 22 23 30 29 34 31 35 35 37 35
2050.0 37 33 31 34 27 29 26 28 25 33
2090.0 33 32 35 29 24 20 20 16 14 13
2130.0 6 10 4 5 5 7 8 7 11 7
2170.0 6 9 9 11 9 7 7 5 1 3
2210.0 5 1 8 10 14 10 20 21 22 25
2250.0 35 37 39 38 37 40 43 44 39 49
2290.0 54 64 63 67 76 95 111 133 139 122
2330.0 124 122 107 116 111 125 144 93 120 95
2370.0 79 67 73 76 62 55 59 60 61 60
2410.0 55 53 54 58 56 58 53 51 59 50
2450.0 60 55 58 61 61 65 58 53 56 50
2490.0 50 54 46 44 41 42 52 54 50 46
2530.0 48 53 57 57 57 60 58 59 61 55
2570.0 53 58 59 59 65 66 78 82 81 79
2610.0 81 73 66 71 72 69 64 67 66 65
2650.0 66 69 68 64 69 67 64 64 64 62
2690.0 65 66 78 79 75 78 79 86 88 93
2730.0 94 99 105 113 116 121 116 114 121 120
2770.0 126 132 140 143 151 159 152 152 175 183
2810.0 187 196 212 233 238 244 252 264 294 321
2850.0 337 356 371 398 443 504 584 711 868 998
2890.0 1056 1032 973 958 986 1040 1091 1104 1100 1131
2930.0 1247 1472 1852 2343 2749 2843 2599 2192 1892 1809
2970.0 1853 1981 2288 2873 3512 3884 3770 3296 2741 2220
3010.0 1749 1337 1020 854 802 814 857 886 892 863
3050.0 810 763 811 985 1248 1565 1788 1659 1339 961
3090.0 907 920 858 686 532 430 352 272 195 151
3130.0 137 119 106 104 116 118 119 119 124 131
3170.0 111 117 96 83 76 76 83 74 73 64
3210.0 64 62 61 53 54 44 50 58 53 47
3250.0 39 43 44 38 39 43 45 38 38 41
3290.0 41 49 54 47 44 41 37 39 34 40
3330.0 35 47 51 51 53 54 33 54 60 67
3370.0 77 73 67 95 96 103 123 115 99 92
3410.0 71 63 45 43 33 40 42 37 37 49
3450.0 59 58 60 74 64 31 51 54 63 53
3490.0 64 55 43 45 38 32 44 32 25 14
3530.0 12 13 21 24 5 8 23 33 30 28
3570.0 31 51 47 69 65 70 84 44 32 29
3610.0 55 38 37 42 29 65 46 46 56 61
3650.0 78 44 70 60 50 64 67 67 71 77
3690.0 65 54 55 62 69 75 85 63 40 67
3730.0 69 89 52 73 61 66 68 81 73 54
3770.0 67 57 46 44 62 77 63 48 74 69
3810.0 61 86 61 81 41 53 62 76 55 73
3850.0 69 72 56 84 73 71 70 68 72 69
3890.0 43 20 71 53 65 100 79 68 95 62
3930.0 81 57 73 82 75 94 61 68 53 65
##END=
