##TITLE=Benzoic acid, 2-hydroxy-, 2-propenyl ester
##JCAMP-DX=4.24
##DATA TYPE=INFRARED SPECTRUM
##ORIGIN=Sadtler Research Labs Under US-EPA Contract
##OWNER=NIST Standard Reference Data Program
##CAS REGISTRY NO=10484-09-0
##MOLFORM=C 10 H 10 O 3
##XUNITS=1/CM
##YUNITS=ABSORBANCE
##XFACTOR=1.0
##YFACTOR=0.000135260
##DELTAX=4.0
##FIRSTX=450.0
##LASTX=3966.0
##FIRSTY=0.007169
##MAXX=3966
##MINX=450
##MAXY=1.3526
##MINY=0
##NPOINTS=880
##XYDATA=(X++(Y..Y))
450.0 53 44 0 14 27 55 66 64 67 124
490.0 133 155 181 203 232 216 300 398 477 607
530.0 659 520 375 282 207 219 214 260 222 225
570.0 163 132 131 131 124 105 143 140 161 174
610.0 222 223 267 273 269 290 299 350 365 412
650.0 429 466 525 652 743 799 795 716 744 835
690.0 1088 1383 1734 2087 1979 1729 1443 1099 769 537
730.0 388 372 478 842 1451 2111 2884 2788 1868 1296
770.0 685 355 203 156 142 155 179 229 252 234
810.0 220 177 146 118 120 143 199 286 416 507
850.0 563 598 571 560 469 377 292 219 165 142
890.0 140 151 168 213 264 340 441 555 697 873
930.0 1074 1207 1189 1008 787 677 683 793 998 1259
970.0 1459 1499 1347 1100 878 775 720 641 541 437
1010.0 388 378 428 526 734 888 881 800 582 418
1050.0 370 386 463 618 879 1309 1995 3005 4064 4534
1090.0 4157 3080 2006 1375 1146 1074 1085 1177 1469 2055
1130.0 2839 3493 3453 2902 2256 3154 5857 7010 6918 4386
1170.0 2500 2267 2345 2316 2166 2090 2309 3015 4329 6043
1210.0 7235 7262 6232 4733 3851 3488 3383 3480 3980 5310
1250.0 6691 6807 5858 4014 2782 2378 2326 2567 3041 3792
1290.0 4739 6171 8558 10000 9903 7697 5319 4177 3735 3345
1330.0 2797 2212 1774 1397 1120 1005 1020 1209 1568 2067
1370.0 2395 2417 2164 1864 1803 1875 1960 2037 2088 2087
1410.0 2027 1885 1710 1489 1283 1110 1028 1046 1118 1236
1450.0 1388 1474 1580 1766 1933 2158 2499 2925 3360 3332
1490.0 3045 2526 1739 1284 1037 870 712 522 395 308
1530.0 263 232 220 220 225 240 280 331 391 473
1570.0 627 871 1221 1548 1678 1703 1523 1324 1280 1513
1610.0 1995 2508 2673 2273 1591 954 654 590 635 730
1650.0 836 900 957 1009 1130 1375 1846 2702 4106 6063
1690.0 8075 8938 8974 7430 5208 3391 2054 1297 841 641
1730.0 522 510 545 669 804 852 825 673 476 319
1770.0 244 184 157 134 120 110 109 114 133 162
1810.0 176 166 129 97 78 80 83 83 83 79
1850.0 75 72 80 87 101 110 108 102 93 88
1890.0 82 82 72 66 60 56 69 102 136 140
1930.0 128 97 80 89 108 109 92 69 40 29
1970.0 24 23 23 23 22 23 20 20 22 21
2010.0 20 18 17 15 12 14 15 19 26 28
2050.0 33 37 38 37 31 27 20 17 13 13
2090.0 13 15 21 23 22 22 23 20 19 17
2130.0 18 17 19 20 21 24 23 24 21 20
2170.0 16 14 13 8 6 2 0 0 1 0
2210.0 2 4 6 9 7 4 5 3 5 4
2250.0 5 3 4 5 9 9 12 16 18 18
2290.0 17 20 17 14 15 14 12 14 15 13
2330.0 14 13 18 16 22 19 13 18 29 23
2370.0 25 32 34 31 29 28 23 22 22 20
2410.0 22 23 23 24 26 29 28 29 28 27
2450.0 26 26 28 28 28 21 19 20 17 22
2490.0 24 29 29 33 35 34 30 24 25 28
2530.0 32 35 39 38 44 43 46 43 41 43
2570.0 39 37 38 40 40 38 37 41 42 46
2610.0 51 56 60 63 66 60 61 59 52 48
2650.0 42 41 41 36 37 40 36 40 41 49
2690.0 56 61 62 64 62 63 62 65 65 65
2730.0 67 67 67 70 71 72 76 85 88 90
2770.0 93 90 90 88 93 89 89 86 82 80
2810.0 79 80 80 82 86 90 91 95 93 97
2850.0 103 114 121 132 136 144 155 164 179 207
2890.0 238 268 283 286 271 251 236 226 225 236
2930.0 255 282 329 398 481 575 680 797 853 819
2970.0 707 564 444 390 382 405 437 460 457 437
3010.0 417 408 421 462 509 534 520 480 444 441
3050.0 483 548 623 699 779 851 899 901 862 820
3090.0 814 849 868 835 719 569 442 352 306 277
3130.0 258 251 244 242 244 244 247 256 268 280
3170.0 297 318 342 360 385 400 430 469 511 561
3210.0 618 692 781 892 1029 1187 1358 1530 1691 1824
3250.0 1920 1980 2008 1978 1910 1804 1688 1570 1473 1393
3290.0 1321 1259 1197 1141 1085 1033 982 937 896 862
3330.0 831 799 779 755 732 701 684 649 615 585
3370.0 563 541 521 499 476 445 423 403 385 367
3410.0 347 334 323 308 297 288 278 265 253 239
3450.0 239 237 238 251 275 322 410 504 564 558
3490.0 506 439 371 323 285 264 240 224 202 176
3530.0 157 141 124 110 95 91 87 76 76 67
3570.0 66 68 66 63 55 56 54 46 37 38
3610.0 39 42 32 36 33 28 24 23 27 14
3650.0 17 13 12 13 0 8 13 4 3 5
3690.0 6 2 0 1 0 4 1 0 0 3
3730.0 1 3 0 1 7 0 0 4 4 2
3770.0 2 0 3 0 4 0 0 0 0 4
3810.0 0 0 0 0 0 0 0 1 1 13
3850.0 0 0 0 0 1 11 5 2 4 7
3890.0 2 9 7 0 10 21 12 8 10 17
3930.0 16 13 22 18 3 5 0 5 7 10
##END=
