##TITLE=Tetradecanoic acid, pentyl ester
##JCAMP-DX=4.24
##DATA TYPE=INFRARED SPECTRUM
##ORIGIN=Sadtler Research Labs Under US-EPA Contract
##OWNER=NIST Standard Reference Data Program
##CAS REGISTRY NO=10484-35-2
##MOLFORM=C 19 H 38 O 2
##XUNITS=1/CM
##YUNITS=ABSORBANCE
##XFACTOR=1.0
##YFACTOR=0.000042169
##DELTAX=4.0
##FIRSTX=450.0
##LASTX=3966.0
##FIRSTY=0.000000
##MAXX=3966
##MINX=450
##MAXY=0.42169
##MINY=0
##NPOINTS=880
##XYDATA=(X++(Y..Y))
450.0 0 268 497 475 582 474 523 475 368 392
490.0 359 359 325 450 352 341 364 322 398 338
530.0 361 311 346 302 363 337 340 266 314 288
570.0 210 292 273 304 286 316 320 326 313 300
610.0 315 298 308 265 317 266 292 251 274 267
650.0 256 305 240 320 267 209 283 248 324 303
690.0 284 300 323 321 332 322 508 370 368 483
730.0 377 409 488 410 427 447 427 397 403 422
770.0 423 417 407 388 373 393 375 384 366 345
810.0 372 376 399 398 375 374 373 408 388 375
850.0 367 381 373 394 377 381 390 383 387 382
890.0 402 386 400 398 393 397 379 372 384 390
930.0 374 377 389 379 379 385 396 401 434 472
970.0 512 566 628 668 693 702 699 676 653 641
1010.0 617 624 624 632 654 691 704 739 766 810
1050.0 822 825 806 796 814 823 869 888 902 880
1090.0 866 879 894 964 1058 1152 1213 1221 1190 1157
1130.0 1152 1213 1338 1524 1779 2000 2210 2333 2436 2498
1170.0 2547 2523 2445 2313 2136 1971 1841 1762 1695 1666
1210.0 1640 1649 1664 1692 1716 1743 1781 1792 1797 1758
1250.0 1708 1624 1517 1386 1274 1189 1128 1085 1055 1037
1290.0 1014 994 985 979 970 941 916 877 864 841
1330.0 842 864 872 939 1019 1074 1080 1042 953 921
1370.0 841 768 732 784 790 780 707 594 558 514
1410.0 512 489 485 521 581 627 697 709 823 846
1450.0 976 1049 1144 1332 1273 1199 991 791 658 564
1490.0 456 439 416 396 335 317 342 287 318 317
1530.0 335 295 332 278 278 320 303 290 293 331
1570.0 332 302 345 334 319 326 342 318 330 318
1610.0 345 294 363 287 353 292 355 285 358 278
1650.0 369 224 392 315 343 317 365 297 370 306
1690.0 391 406 427 428 518 567 579 629 761 855
1730.0 973 1189 1505 2066 2981 3890 4393 3810 2734 1876
1770.0 1386 1078 954 786 733 594 556 497 451 443
1810.0 430 403 389 386 357 358 338 369 338 321
1850.0 344 348 344 337 336 306 343 335 336 332
1890.0 331 333 342 336 333 333 333 327 325 334
1930.0 338 333 333 321 319 329 322 318 322 310
1970.0 314 317 322 321 314 310 304 318 321 326
2010.0 329 332 329 337 338 341 341 346 336 342
2050.0 345 344 349 342 337 336 338 338 335 335
2090.0 334 339 335 339 343 345 342 346 339 342
2130.0 340 338 333 330 331 331 331 335 334 334
2170.0 333 335 330 333 327 328 325 329 337 338
2210.0 339 345 340 342 336 344 341 340 346 341
2250.0 342 338 338 336 335 340 335 331 323 316
2290.0 299 279 259 254 228 194 210 173 176 176
2330.0 176 176 176 170 182 282 177 176 176 176
2370.0 175 225 260 299 321 332 338 329 338 330
2410.0 332 328 329 327 328 334 334 332 327 335
2450.0 335 343 332 343 337 336 340 340 343 340
2490.0 347 341 354 344 351 346 347 347 349 363
2530.0 358 360 354 365 348 348 346 339 335 337
2570.0 343 337 355 351 357 355 365 363 356 363
2610.0 367 368 369 375 374 384 380 387 386 391
2650.0 392 395 402 401 412 412 423 419 431 425
2690.0 430 433 425 431 420 428 417 415 416 428
2730.0 424 433 439 438 439 433 429 416 427 427
2770.0 434 438 448 457 460 476 492 509 522 548
2810.0 567 592 626 656 700 742 804 883 1000 1188
2850.0 1519 2095 3002 3874 4108 3781 3289 2883 2659 2537
2890.0 2350 2246 2305 2528 2886 3340 3885 4639 5751 7369
2930.0 9158 10000 9554 8359 6982 5653 4730 4323 4401 4617
2970.0 4566 3977 3054 2289 1784 1447 1201 1017 902 794
3010.0 731 679 640 602 576 556 531 519 496 490
3050.0 470 460 449 449 433 431 420 424 421 415
3090.0 411 409 406 403 402 394 390 386 384 383
3130.0 371 377 374 383 374 372 368 366 362 366
3170.0 369 362 365 363 362 355 367 360 356 355
3210.0 351 355 362 355 357 368 362 356 354 346
3250.0 348 351 351 349 354 345 365 351 347 360
3290.0 364 369 365 366 367 362 364 359 356 348
3330.0 356 353 360 351 342 338 353 339 339 332
3370.0 346 345 331 336 333 350 337 343 337 344
3410.0 343 342 338 333 344 344 335 327 324 308
3450.0 312 335 345 337 334 342 340 346 335 345
3490.0 354 345 335 303 297 309 312 337 316 271
3530.0 306 323 333 323 283 282 329 334 331 235
3570.0 302 369 394 372 289 274 274 305 305 333
3610.0 259 277 274 280 327 215 319 330 326 337
3650.0 176 310 324 306 380 196 333 171 397 251
3690.0 313 269 355 305 323 267 283 289 279 244
3730.0 277 252 227 301 212 339 183 331 295 300
3770.0 274 317 348 292 343 342 356 268 360 215
3810.0 418 263 301 270 268 370 302 241 286 350
3850.0 252 286 283 315 326 286 291 343 305 267
3890.0 358 286 342 244 279 326 348 308 318 348
3930.0 305 298 335 339 292 309 340 358 338 338
##END=
