##TITLE=Decyl disulfide
##JCAMP-DX=4.24
##DATA TYPE=INFRARED SPECTRUM
##ORIGIN=Sadtler Research Labs Under US-EPA Contract
##OWNER=NIST Standard Reference Data Program
##CAS REGISTRY NO=10496-18-1
##MOLFORM=C 20 H 42 S 2
##XUNITS=1/CM
##YUNITS=ABSORBANCE
##XFACTOR=1.0
##YFACTOR=0.000057303
##DELTAX=4.0
##FIRSTX=450.0
##LASTX=3966.0
##FIRSTY=0.000000
##MAXX=3966
##MINX=450
##MAXY=0.57303
##MINY=0
##NPOINTS=880
##XYDATA=(X++(Y..Y))
450.0 0 68 348 171 196 316 193 209 183 221
490.0 203 74 126 161 299 191 251 179 210 253
530.0 250 227 188 217 163 204 254 200 128 210
570.0 191 184 209 193 121 135 190 167 224 174
610.0 168 168 213 210 280 198 159 162 240 178
650.0 193 159 244 214 192 193 210 198 243 157
690.0 141 246 267 251 275 309 349 294 309 302
730.0 315 343 299 306 269 327 262 251 218 304
770.0 284 270 265 210 216 247 241 224 257 257
810.0 217 241 238 245 204 168 195 217 217 188
850.0 195 215 227 221 191 197 180 207 222 202
890.0 218 221 211 220 225 214 196 164 202 205
930.0 202 199 192 199 190 186 200 194 210 190
970.0 199 198 176 199 208 194 188 205 221 187
1010.0 161 185 171 167 242 208 193 171 232 217
1050.0 169 197 189 194 178 198 197 231 209 211
1090.0 205 159 188 184 200 214 174 222 151 191
1130.0 192 221 200 180 182 224 192 201 215 207
1170.0 240 201 192 197 221 208 242 278 233 287
1210.0 287 296 311 329 397 371 376 379 374 381
1250.0 392 374 400 384 415 410 437 443 435 421
1290.0 393 432 457 424 404 370 347 318 324 317
1330.0 323 332 368 427 466 479 478 453 436 433
1370.0 401 378 393 370 381 320 291 277 282 276
1410.0 264 337 330 360 337 400 460 533 600 650
1450.0 761 827 913 951 898 790 660 497 392 309
1490.0 265 277 209 229 208 186 192 183 191 177
1530.0 150 200 149 208 153 124 187 155 188 135
1570.0 126 164 140 156 129 140 143 129 139 119
1610.0 147 132 159 147 120 159 122 132 143 136
1650.0 171 149 112 123 117 149 124 156 117 179
1690.0 133 136 148 187 162 160 167 171 173 179
1730.0 171 191 188 204 190 207 171 170 161 155
1770.0 130 163 130 146 125 138 101 128 103 117
1810.0 112 114 123 99 80 108 112 97 98 100
1850.0 97 113 113 100 106 87 117 101 98 99
1890.0 95 100 103 86 104 91 91 82 116 92
1930.0 109 76 72 97 101 80 91 110 95 111
1970.0 110 111 97 98 102 99 88 92 88 108
2010.0 95 111 100 95 103 98 112 105 109 104
2050.0 100 103 104 108 88 95 93 99 104 102
2090.0 108 100 90 98 99 95 99 92 96 93
2130.0 96 95 92 87 82 91 94 97 91 91
2170.0 93 91 87 83 86 93 89 98 91 91
2210.0 90 88 85 89 95 87 71 91 86 73
2250.0 86 82 86 80 86 92 91 91 84 91
2290.0 95 100 83 91 87 94 89 78 87 82
2330.0 100 73 68 99 73 111 74 95 71 75
2370.0 69 70 84 90 91 85 84 85 84 89
2410.0 85 92 90 84 99 91 96 89 84 86
2450.0 94 93 83 94 99 90 97 87 90 97
2490.0 96 92 91 88 90 89 92 98 103 101
2530.0 99 98 102 100 96 109 105 108 99 104
2570.0 109 106 114 110 118 110 122 114 119 126
2610.0 126 129 129 124 134 135 130 130 132 143
2650.0 151 146 159 163 157 170 171 175 182 170
2690.0 174 166 162 152 160 159 155 157 161 168
2730.0 169 169 170 176 184 186 185 191 188 192
2770.0 198 201 217 220 232 251 270 289 312 329
2810.0 361 393 426 467 507 559 633 733 880 1128
2850.0 1532 2143 2915 3547 3645 3286 2808 2442 2247 2112
2890.0 2003 1973 2113 2422 2861 3381 3984 4806 5978 7575
2930.0 9251 10000 9338 7840 6232 4905 4040 3616 3509 3489
2970.0 3276 2723 1998 1445 1099 882 739 635 550 492
3010.0 449 407 371 338 321 304 281 267 250 241
3050.0 229 215 205 199 196 192 182 173 178 168
3090.0 164 163 160 167 154 140 152 147 164 154
3130.0 145 139 143 134 144 141 138 134 140 133
3170.0 129 126 130 120 134 134 120 122 125 122
3210.0 114 113 115 118 98 113 113 110 111 101
3250.0 105 101 105 101 108 92 86 95 111 89
3290.0 91 94 105 113 103 99 101 100 102 97
3330.0 100 92 96 116 115 94 103 112 94 103
3370.0 96 90 90 94 104 114 86 90 103 95
3410.0 102 93 98 106 108 87 92 104 84 94
3450.0 93 102 96 95 99 90 95 91 87 101
3490.0 85 95 84 80 85 88 79 96 86 89
3530.0 97 95 88 95 98 93 88 99 91 110
3570.0 93 99 103 107 78 101 100 82 126 93
3610.0 116 89 103 99 111 111 136 82 103 115
3650.0 136 111 106 113 76 146 79 159 100 107
3690.0 122 117 118 110 98 98 112 118 102 114
3730.0 75 111 152 87 190 80 138 69 86 122
3770.0 76 109 70 109 90 77 92 111 139 105
3810.0 83 114 95 149 67 118 110 95 95 69
3850.0 112 97 136 71 89 125 70 139 98 94
3890.0 93 93 122 100 123 100 109 90 104 74
3930.0 139 127 102 116 147 122 126 127 86 137
##END=
