##TITLE=1-Pentanol, 2-methyl-
##JCAMP-DX=4.24
##DATA TYPE=INFRARED SPECTRUM
##ORIGIN=Sadtler Research Labs Under US-EPA Contract
##OWNER=NIST Standard Reference Data Program
##CAS REGISTRY NO=105-30-6
##MOLFORM=C 6 H 14 O
##XUNITS=1/CM
##YUNITS=ABSORBANCE
##XFACTOR=1.0
##YFACTOR=0.000061630
##DELTAX=4.0
##FIRSTX=450.0
##LASTX=3966.0
##FIRSTY=0.011710
##MAXX=3966
##MINX=450
##MAXY=0.6163
##MINY=0
##NPOINTS=880
##XYDATA=(X++(Y..Y))
450.0 190 218 185 161 126 132 148 143 155 161
490.0 170 42 240 197 165 167 144 157 103 128
530.0 106 154 136 155 139 119 121 91 40 73
570.0 6 40 48 65 103 96 121 123 129 101
610.0 132 126 93 86 65 54 51 52 65 68
650.0 68 95 87 79 65 138 85 80 65 68
690.0 70 88 83 96 111 102 116 135 152 190
730.0 206 211 239 239 246 222 198 170 159 135
770.0 119 109 92 87 107 109 94 111 109 120
810.0 142 157 167 173 188 198 181 182 172 159
850.0 157 145 154 171 178 201 218 251 268 293
890.0 307 307 309 314 330 351 381 414 455 503
930.0 537 579 611 627 618 594 577 562 588 662
970.0 776 881 948 1015 1035 1034 1042 1093 1224 1434
1010.0 1712 2087 2578 3131 3695 4125 4458 4641 4455 3963
1050.0 3535 3161 2654 2132 1733 1442 1240 1089 959 846
1090.0 768 732 740 748 748 738 722 695 665 627
1130.0 596 573 555 550 564 564 572 580 581 571
1170.0 552 536 523 522 529 551 576 616 650 674
1210.0 683 691 684 684 686 694 698 705 687 664
1250.0 640 621 596 588 587 577 571 563 546 528
1290.0 505 491 475 480 475 465 480 485 498 516
1330.0 534 561 582 604 628 656 691 750 840 935
1370.0 1052 1178 1294 1364 1377 1326 1206 1027 839 685
1410.0 548 453 384 360 340 364 397 498 597 779
1450.0 1002 1197 1390 1514 1617 1568 1484 1288 1080 831
1490.0 623 444 326 237 194 162 132 118 116 102
1530.0 93 106 90 99 92 91 89 79 91 64
1570.0 63 47 68 50 58 53 56 52 63 60
1610.0 60 57 62 51 37 50 33 44 43 55
1650.0 39 74 51 50 48 55 36 46 32 45
1690.0 36 40 45 80 71 83 91 102 85 81
1730.0 79 86 81 86 81 83 92 94 94 83
1770.0 80 71 55 40 44 27 31 25 27 22
1810.0 20 18 23 15 28 19 18 24 17 21
1850.0 15 17 9 16 12 13 14 22 20 28
1890.0 26 16 18 11 11 15 7 14 10 14
1930.0 17 14 17 21 27 19 14 16 19 6
1970.0 8 9 9 15 14 18 27 28 28 28
2010.0 28 26 24 16 17 23 24 33 45 57
2050.0 57 55 57 38 25 19 10 1 9 16
2090.0 14 15 17 20 26 21 21 12 10 3
2130.0 3 2 0 0 0 2 6 14 12 13
2170.0 10 14 19 18 9 1 8 8 14 6
2210.0 14 19 20 21 22 26 16 17 17 9
2250.0 17 20 19 21 27 27 37 37 38 41
2290.0 36 40 26 28 24 24 13 16 19 33
2330.0 41 63 68 80 97 44 0 5 55 113
2370.0 155 173 160 137 115 91 88 80 71 73
2410.0 73 66 74 67 69 74 82 82 83 83
2450.0 81 82 84 76 76 67 77 77 77 77
2490.0 77 82 85 85 86 86 86 86 86 86
2530.0 86 96 95 103 112 120 128 137 145 145
2570.0 153 154 154 156 162 162 175 177 186 195
2610.0 194 203 212 211 204 204 205 196 197 200
2650.0 205 205 219 230 230 231 222 222 215 214
2690.0 215 224 226 239 248 251 278 293 320 336
2730.0 362 377 396 409 410 410 401 402 402 411
2770.0 416 440 458 466 475 484 507 527 543 560
2810.0 579 612 655 697 781 867 982 1147 1347 1615
2850.0 1948 2355 2814 3328 3916 4566 5302 5956 6286 6439
2890.0 6334 6119 5847 5692 5759 6033 6450 6866 7291 7642
2930.0 7834 7891 7865 7698 7505 7468 7671 8238 9169 9906
2970.0 10000 9349 8023 6245 4457 3002 1981 1351 970 767
3010.0 646 567 511 477 448 424 403 382 358 330
3050.0 306 298 273 265 251 248 232 216 204 196
3090.0 188 173 181 174 182 173 182 180 173 167
3130.0 158 156 139 137 119 117 120 120 121 120
3170.0 113 107 103 105 99 91 76 69 67 52
3210.0 45 35 43 43 43 43 37 37 37 32
3250.0 24 17 21 15 12 9 7 12 26 30
3290.0 59 52 45 51 60 56 43 45 31 42
3330.0 56 48 68 63 70 78 73 65 55 56
3370.0 40 38 43 40 56 61 74 53 57 60
3410.0 53 52 34 41 37 28 35 40 36 41
3450.0 55 56 68 64 59 54 45 34 36 35
3490.0 51 32 40 77 69 63 77 70 72 67
3530.0 58 43 40 38 47 59 74 71 78 83
3570.0 109 109 99 96 81 84 82 82 88 108
3610.0 125 128 128 161 163 209 211 240 295 339
3650.0 465 569 743 853 977 1069 1069 1020 888 747
3690.0 564 398 291 208 165 131 102 81 89 89
3730.0 96 103 114 118 130 98 105 79 64 63
3770.0 57 48 55 60 76 83 87 84 85 76
3810.0 62 67 51 43 46 40 49 46 71 81
3850.0 89 89 97 99 86 74 60 64 48 75
3890.0 76 99 112 122 141 144 130 121 101 81
3930.0 63 49 48 55 54 56 72 90 87 86
##END=
