##TITLE=Acetic acid, 1-methylpropyl ester
##JCAMP-DX=4.24
##DATA TYPE=INFRARED SPECTRUM
##ORIGIN=Sadtler Research Labs Under US-EPA Contract
##OWNER=NIST Standard Reference Data Program
##CAS REGISTRY NO=105-46-4
##MOLFORM=C 6 H 12 O 2
##XUNITS=1/CM
##YUNITS=ABSORBANCE
##XFACTOR=1.0
##YFACTOR=0.000049121
##DELTAX=4.0
##FIRSTX=450.0
##LASTX=3966.0
##FIRSTY=0.002014
##MAXX=3966
##MINX=450
##MAXY=0.49121
##MINY=0
##NPOINTS=880
##XYDATA=(X++(Y..Y))
450.0 41 44 56 87 72 65 65 54 36 46
490.0 59 66 75 75 54 34 25 45 36 17
530.0 47 27 37 32 21 46 13 5 25 36
570.0 66 48 48 32 29 78 92 179 194 215
610.0 246 247 299 272 276 244 216 181 138 122
650.0 101 63 76 83 31 84 59 51 75 61
690.0 82 51 77 41 39 51 51 59 69 70
730.0 55 43 50 94 18 45 70 63 64 105
770.0 70 109 89 81 89 123 66 87 111 104
810.0 102 92 85 107 119 117 129 172 158 215
850.0 225 265 305 350 343 320 243 200 178 157
890.0 198 209 244 269 283 288 292 325 357 411
930.0 477 558 664 695 700 620 523 416 390 446
970.0 497 567 639 695 789 864 1010 1115 1233 1374
1010.0 1443 1522 1599 1690 1732 1654 1553 1379 1171 938
1050.0 727 638 616 593 622 638 639 682 741 864
1090.0 1077 1303 1420 1524 1557 1515 1452 1532 1668 1730
1130.0 1648 1461 1216 946 753 621 557 535 503 496
1170.0 494 493 486 463 453 426 437 482 599 721
1210.0 922 1221 1694 2427 3672 5352 7317 9394 10000 9553
1250.0 8387 6553 4406 3024 2179 1563 1164 919 772 643
1290.0 543 463 405 374 350 329 308 297 286 276
1330.0 285 277 314 355 427 545 715 996 1365 1764
1370.0 2139 2352 2442 2320 2002 1596 1267 962 709 533
1410.0 428 361 343 335 324 355 378 449 486 560
1450.0 647 713 781 762 773 742 697 580 474 389
1490.0 319 277 238 191 218 201 154 170 178 156
1530.0 139 148 149 177 142 131 125 160 162 135
1570.0 148 133 143 115 106 104 95 85 83 77
1610.0 85 77 96 84 84 85 90 105 93 114
1650.0 125 166 117 124 117 141 149 146 158 186
1690.0 173 192 234 295 306 340 384 461 499 587
1730.0 764 1089 1598 2404 3378 4342 5249 6161 5261 4326
1770.0 3322 2211 1336 827 588 462 411 368 334 282
1810.0 241 198 167 134 126 113 97 93 93 102
1850.0 88 77 77 77 87 106 97 97 97 98
1890.0 87 75 68 58 55 55 44 45 44 43
1930.0 37 44 45 43 43 44 45 33 33 33
1970.0 34 32 32 32 32 32 40 39 31 32
2010.0 31 43 31 31 31 31 21 21 20 20
2050.0 20 19 19 19 19 31 31 30 40 39
2090.0 50 50 53 55 56 48 42 40 28 28
2130.0 28 17 17 17 16 16 25 21 27 27
2170.0 28 28 35 36 36 26 26 26 26 26
2210.0 21 15 15 15 22 25 25 15 26 14
2250.0 25 15 12 13 13 14 14 14 12 12
2290.0 13 13 12 23 20 22 15 20 29 22
2330.0 22 21 21 33 33 20 11 31 54 54
2370.0 57 47 43 31 19 20 9 19 19 20
2410.0 20 20 7 19 19 19 19 7 19 19
2450.0 18 18 28 29 28 37 40 39 40 26
2490.0 27 27 19 17 17 17 17 15 6 6
2530.0 6 6 6 6 6 6 4 4 4 4
2570.0 5 5 14 14 14 14 13 26 27 27
2610.0 27 27 27 26 26 26 26 26 28 27
2650.0 27 19 28 28 28 28 28 27 29 30
2690.0 38 38 38 39 39 39 46 48 50 59
2730.0 60 60 69 69 70 70 76 68 69 70
2770.0 60 60 60 60 61 70 70 80 83 85
2810.0 91 108 111 122 141 152 174 194 226 260
2850.0 301 366 429 492 572 662 767 885 991 1086
2890.0 1131 1141 1099 1036 961 935 957 1033 1165 1351
2930.0 1552 1753 1896 2006 2059 2080 2046 2008 2076 2294
2970.0 2684 3196 3468 3619 3469 2986 2409 1731 1192 785
3010.0 507 359 270 225 203 194 191 179 180 170
3050.0 158 158 159 148 149 138 139 135 130 124
3090.0 121 108 110 99 90 79 80 68 67 61
3130.0 52 54 54 62 49 49 49 49 49 50
3170.0 60 51 51 51 50 50 45 41 40 42
3210.0 31 31 32 31 22 29 21 20 16 25
3250.0 16 14 12 12 11 11 12 12 12 12
3290.0 12 12 12 12 12 12 14 14 4 4
3330.0 13 14 14 4 7 14 9 14 8 12
3370.0 14 15 15 25 15 16 14 15 16 16
3410.0 22 13 27 27 27 15 26 16 17 27
3450.0 27 27 21 22 29 28 34 47 58 68
3490.0 69 69 68 68 66 48 33 30 23 29
3530.0 29 20 19 18 30 18 20 20 20 27
3570.0 47 31 19 19 18 42 30 30 31 21
3610.0 42 44 51 52 56 86 81 81 92 111
3650.0 143 133 134 122 113 130 111 106 73 56
3690.0 62 46 33 33 34 34 43 32 27 34
3730.0 34 50 48 37 54 43 46 34 25 25
3770.0 25 22 15 14 27 26 26 26 37 26
3810.0 26 27 37 37 37 36 36 48 48 35
3850.0 37 57 48 46 47 48 48 38 47 47
3890.0 49 49 49 49 49 48 48 48 48 49
3930.0 50 39 42 49 50 54 0 4 4 4
##END=
