##TITLE=Phenol, 2,4-dimethyl-
##JCAMP-DX=4.24
##DATA TYPE=INFRARED SPECTRUM
##ORIGIN=Sadtler Research Labs Under US-EPA Contract
##OWNER=NIST Standard Reference Data Program
##CAS REGISTRY NO=105-67-9
##MOLFORM=C 8 H 10 O
##XUNITS=1/CM
##YUNITS=ABSORBANCE
##XFACTOR=1.0
##YFACTOR=0.000083026
##DELTAX=4.0
##FIRSTX=450.0
##LASTX=3966.0
##FIRSTY=0.075471
##MAXX=3966
##MINX=450
##MAXY=0.83026
##MINY=0
##NPOINTS=880
##XYDATA=(X++(Y..Y))
450.0 909 572 38 246 0 38 309 120 421 365
490.0 422 385 178 161 169 243 100 116 119 117
530.0 245 433 372 468 753 1038 968 879 846 824
570.0 709 596 481 485 313 278 300 164 142 134
610.0 107 117 118 142 144 141 121 121 157 153
650.0 140 125 114 151 90 151 107 105 176 120
690.0 123 150 146 214 282 330 371 382 352 330
730.0 252 169 156 210 294 432 780 1191 1504 1604
770.0 1672 1708 1463 1288 1502 1726 2299 3167 3151 2664
810.0 2832 2783 2256 1484 1129 867 592 426 347 303
850.0 331 401 463 513 631 826 816 607 523 480
890.0 360 316 260 243 250 276 358 428 484 556
930.0 590 544 479 408 300 269 250 255 278 299
970.0 334 385 424 466 502 532 598 661 714 737
1010.0 723 657 571 484 403 376 373 398 478 512
1050.0 529 562 568 570 583 617 672 785 977 1279
1090.0 1650 2022 2365 2887 3605 4013 3950 3628 3420 2685
1130.0 1857 1454 1474 1557 1620 1644 1717 1875 2299 3423
1170.0 5425 7651 8974 9542 9214 8037 5614 3719 2719 2316
1210.0 2162 2122 2397 2968 3550 3794 3909 3978 3695 3478
1250.0 3887 4816 5603 5957 5943 5276 4195 2852 1873 1423
1290.0 1204 1031 1085 1284 1693 2297 2809 3053 2848 2598
1330.0 2057 1332 783 553 472 454 460 466 465 468
1370.0 498 525 591 637 652 690 673 636 716 853
1410.0 1002 1158 1211 1275 1226 1152 1019 993 937 931
1450.0 952 988 1009 1122 1169 1375 1449 1666 1966 2290
1490.0 3070 4277 6197 8082 9316 10000 9026 7815 5424 3261
1530.0 1866 1162 878 667 616 579 495 426 412 413
1570.0 408 433 505 592 734 803 909 893 931 898
1610.0 840 887 799 794 693 629 469 320 238 172
1650.0 89 86 109 82 105 77 70 111 61 62
1690.0 78 85 43 72 89 131 128 113 174 206
1730.0 198 164 226 220 217 184 175 154 121 111
1770.0 86 60 83 85 112 102 106 116 104 121
1810.0 78 80 76 73 78 89 124 152 146 148
1850.0 161 159 148 148 153 145 161 154 140 126
1890.0 93 78 69 62 56 58 41 47 31 43
1930.0 42 45 52 47 58 51 52 43 43 43
1970.0 42 42 41 42 49 41 43 48 52 57
2010.0 57 63 67 80 97 102 102 89 74 56
2050.0 47 33 22 10 5 7 6 10 12 17
2090.0 16 21 25 26 22 13 9 9 5 5
2130.0 8 9 10 13 14 15 16 18 17 21
2170.0 17 18 24 18 23 19 15 11 14 14
2210.0 8 10 13 10 12 10 14 16 17 24
2250.0 31 38 47 49 59 69 71 76 72 70
2290.0 67 59 53 49 49 38 31 31 27 31
2330.0 39 40 50 63 77 79 57 80 92 98
2370.0 99 100 103 93 86 81 81 82 85 88
2410.0 90 94 99 100 100 97 97 96 91 92
2450.0 96 96 98 99 94 94 94 96 96 103
2490.0 108 109 112 110 108 109 100 98 95 92
2530.0 91 83 76 68 55 55 51 53 55 53
2570.0 54 47 45 46 47 53 52 58 63 64
2610.0 65 65 68 70 70 69 72 73 66 65
2650.0 65 60 55 53 49 47 44 52 50 48
2690.0 53 53 55 57 63 65 64 76 86 98
2730.0 127 173 222 265 279 275 245 193 145 111
2770.0 104 100 99 101 113 120 127 136 147 159
2810.0 176 189 205 231 255 290 333 388 465 561
2850.0 705 900 1157 1468 1818 2158 2406 2531 2518 2405
2890.0 2244 2093 2023 2043 2137 2306 2565 2963 3523 4123
2930.0 4564 4702 4539 4112 3498 2839 2293 2002 1861 1733
2970.0 1642 1706 1750 1753 1753 1785 1845 1952 2175 2518
3010.0 2970 3378 3463 3422 3398 3166 2784 2473 2293 2183
3050.0 2041 1854 1675 1510 1305 1078 895 724 579 472
3090.0 398 354 309 280 261 248 233 218 211 208
3130.0 195 180 168 142 123 100 81 62 55 45
3170.0 44 45 40 38 39 39 32 33 31 36
3210.0 35 36 37 43 29 31 25 25 29 23
3250.0 21 25 27 25 26 23 28 27 27 28
3290.0 23 24 27 34 24 29 29 20 26 32
3330.0 34 43 34 47 59 59 58 66 67 64
3370.0 69 69 70 70 65 70 66 72 69 56
3410.0 58 68 60 58 65 70 61 56 50 36
3450.0 52 62 47 58 49 44 49 38 37 34
3490.0 35 43 45 42 40 44 44 44 29 23
3530.0 17 27 11 23 12 18 23 8 9 16
3570.0 16 38 23 44 17 52 40 28 62 64
3610.0 78 106 137 198 300 488 912 1441 2429 3759
3650.0 5039 5040 4822 4653 3489 1850 814 421 152 86
3690.0 16 9 18 6 5 5 5 26 5 5
3730.0 5 5 21 5 20 5 5 5 9 10
3770.0 8 19 12 7 21 29 16 6 5 5
3810.0 5 16 5 5 5 8 5 5 17 19
3850.0 25 3 39 35 5 27 15 37 17 41
3890.0 1 37 6 42 39 81 79 85 86 62
3930.0 58 10 70 57 87 71 65 88 78 85
##END=
