##TITLE=2-Butenedioic acid (Z)-, dibutyl ester
##JCAMP-DX=4.24
##DATA TYPE=INFRARED SPECTRUM
##ORIGIN=Sadtler Research Labs Under US-EPA Contract
##OWNER=NIST Standard Reference Data Program
##CAS REGISTRY NO=105-76-0
##MOLFORM=C 12 H 20 O 4
##XUNITS=1/CM
##YUNITS=ABSORBANCE
##XFACTOR=1.0
##YFACTOR=0.000061368
##DELTAX=4.0
##FIRSTX=450.0
##LASTX=3966.0
##FIRSTY=0.002823
##MAXX=3966
##MINX=450
##MAXY=0.61368
##MINY=0
##NPOINTS=880
##XYDATA=(X++(Y..Y))
450.0 46 100 84 83 70 80 77 78 102 95
490.0 93 105 106 123 130 115 94 98 80 49
530.0 95 63 45 20 6 3 0 40 39 39
570.0 48 69 81 89 132 41 98 133 131 148
610.0 124 132 115 105 88 81 64 74 73 82
650.0 82 88 80 95 57 116 88 80 72 69
690.0 82 95 104 107 102 102 110 111 127 135
730.0 134 167 177 197 201 200 209 207 203 199
770.0 211 213 238 256 240 285 347 419 485 538
810.0 571 575 559 456 682 669 668 694 688 644
850.0 585 512 470 395 358 326 307 299 291 299
890.0 282 291 298 288 284 278 269 263 256 271
930.0 296 343 408 493 609 713 793 847 893 962
970.0 998 1018 1005 942 891 864 872 948 1077 1227
1010.0 1369 1438 1478 1416 1279 1082 862 677 563 526
1050.0 593 738 921 1068 1103 1021 858 679 549 483
1090.0 469 469 468 486 519 596 696 807 910 1024
1130.0 1186 1430 1818 2391 3220 4368 5845 7372 8142 7837
1170.0 6812 5770 5010 4622 4544 4773 5200 5751 6160 6218
1210.0 5858 5260 4638 4124 3719 3441 3269 3197 3152 3119
1250.0 3059 2980 2905 2805 2746 2738 2797 2905 3018 3042
1290.0 2918 2600 2170 1753 1438 1189 986 832 721 642
1330.0 583 519 465 436 437 446 455 494 590 764
1370.0 1003 1212 1286 1204 1110 1092 1227 1540 1913 2006
1410.0 1675 1187 783 561 465 441 428 455 493 539
1450.0 613 707 800 878 939 925 825 677 554 417
1490.0 315 250 216 189 166 128 126 121 115 106
1530.0 98 120 94 93 80 99 94 80 88 88
1570.0 100 93 107 95 115 116 128 139 154 166
1610.0 194 218 262 315 395 506 621 762 840 860
1650.0 756 662 518 430 351 314 284 313 295 328
1690.0 358 404 452 547 626 745 855 1029 1309 1739
1730.0 2397 3431 5214 7457 9421 10000 8899 6879 4853 3241
1770.0 2183 1519 1135 879 724 608 519 446 390 353
1810.0 309 281 236 193 165 139 127 125 104 94
1850.0 92 90 88 86 76 75 70 73 73 66
1890.0 67 64 73 63 62 63 61 67 58 61
1930.0 64 64 54 55 51 55 58 54 56 53
1970.0 54 55 55 55 55 49 56 54 54 54
2010.0 61 61 58 60 62 62 54 55 51 62
2050.0 53 53 54 53 51 53 44 44 43 43
2090.0 43 44 43 49 44 42 47 43 53 43
2130.0 43 42 42 42 42 42 42 39 39 33
2170.0 34 34 35 35 33 34 34 25 26 28
2210.0 30 26 26 25 15 18 17 17 16 16
2250.0 16 16 16 17 17 17 17 17 24 23
2290.0 25 27 36 36 37 38 48 41 44 46
2330.0 44 41 33 33 40 39 32 37 43 27
2370.0 24 30 40 41 39 38 37 37 36 37
2410.0 37 28 28 28 25 24 24 20 21 18
2450.0 19 20 12 19 12 12 12 12 10 10
2490.0 10 10 4 11 3 3 2 2 3 2
2530.0 2 2 7 3 2 2 12 9 11 10
2570.0 11 11 12 16 20 22 22 19 19 19
2610.0 19 19 19 20 20 20 22 18 19 21
2650.0 26 20 26 28 28 29 21 29 28 30
2690.0 37 37 37 36 42 38 38 44 46 53
2730.0 53 55 63 70 79 81 83 79 79 79
2770.0 80 77 80 71 72 88 87 96 98 103
2810.0 111 120 133 142 160 174 199 224 258 325
2850.0 394 477 558 627 722 866 1078 1317 1525 1626
2890.0 1574 1426 1296 1276 1301 1381 1522 1651 1746 1830
2930.0 1940 2155 2438 2732 2910 2944 2938 3136 3616 4239
2970.0 4652 4501 3753 2790 2026 1517 1161 892 692 536
3010.0 428 359 309 271 244 219 205 191 175 158
3050.0 149 149 157 164 173 154 131 114 97 90
3090.0 76 81 64 63 63 47 54 54 47 46
3130.0 43 49 42 42 39 39 39 39 32 31
3170.0 31 31 31 31 31 31 37 38 32 38
3210.0 34 25 33 17 18 15 25 26 17 21
3250.0 20 12 10 9 18 18 2 17 10 10
3290.0 13 9 19 19 20 15 20 18 11 12
3330.0 12 11 13 11 3 2 7 13 17 19
3370.0 14 13 13 12 21 5 13 25 14 3
3410.0 13 17 15 13 27 29 20 29 29 23
3450.0 31 45 41 45 64 75 78 86 87 77
3490.0 79 70 53 38 33 29 32 20 10 12
3530.0 21 15 14 8 21 11 17 5 8 2
3570.0 22 7 13 16 3 12 6 5 17 16
3610.0 19 20 12 20 16 36 20 32 34 14
3650.0 32 12 17 26 26 35 20 36 23 35
3690.0 28 27 25 40 34 31 42 30 26 27
3730.0 34 17 40 27 45 17 26 15 24 17
3770.0 16 26 26 28 23 23 32 30 30 29
3810.0 43 38 38 33 34 26 24 40 37 37
3850.0 33 37 38 31 27 20 28 32 33 31
3890.0 30 39 30 32 24 31 30 28 28 37
3930.0 38 42 47 50 44 43 42 28 28 29
##END=
