##TITLE=6-Octen-1-ol, 3,7-dimethyl-, formate
##JCAMP-DX=4.24
##DATA TYPE=INFRARED SPECTRUM
##ORIGIN=Sadtler Research Labs Under US-EPA Contract
##OWNER=NIST Standard Reference Data Program
##CAS REGISTRY NO=105-85-1
##MOLFORM=C 11 H 20 O 2
##XUNITS=1/CM
##YUNITS=ABSORBANCE
##XFACTOR=1.0
##YFACTOR=0.000129007
##DELTAX=4.0
##FIRSTX=450.0
##LASTX=3966.0
##FIRSTY=0.012127
##MAXX=3966
##MINX=450
##MAXY=1.29007
##MINY=0
##NPOINTS=880
##XYDATA=(X++(Y..Y))
450.0 94 41 89 22 62 52 32 28 75 9
490.0 71 43 13 53 65 68 81 70 58 88
530.0 118 33 5 53 49 60 63 69 85 53
570.0 56 40 62 51 10 54 49 44 39 43
610.0 31 31 30 46 57 34 23 42 39 29
650.0 21 20 22 20 22 0 23 14 13 17
690.0 21 19 19 38 25 37 39 50 67 65
730.0 90 106 123 157 149 138 132 133 113 116
770.0 108 127 107 132 171 172 160 180 197 217
810.0 216 230 259 288 313 331 310 279 245 212
850.0 189 171 176 164 166 165 176 183 204 240
890.0 279 312 336 355 374 417 454 507 532 533
930.0 498 451 414 367 331 297 269 248 239 235
970.0 234 233 237 241 241 247 237 240 237 242
1010.0 238 237 239 243 253 262 275 285 298 305
1050.0 311 307 304 298 288 295 302 334 358 399
1090.0 415 443 462 509 578 632 705 800 886 970
1130.0 1080 1281 1594 2058 2678 3544 4731 6309 7946 9139
1170.0 9566 9150 8284 6927 5485 3981 2813 2034 1552 1241
1210.0 1037 910 819 756 705 672 636 608 586 571
1250.0 563 550 542 528 524 526 531 508 475 422
1290.0 382 353 342 339 347 347 332 308 294 284
1330.0 275 278 266 280 317 341 363 369 393 460
1370.0 566 693 875 1034 1040 909 659 453 348 295
1410.0 253 270 213 260 296 372 429 522 646 719
1450.0 786 837 879 976 1006 950 785 659 539 365
1490.0 260 211 152 143 91 54 106 81 36 81
1530.0 72 98 44 25 48 103 74 30 34 101
1570.0 80 86 66 95 108 92 105 91 105 91
1610.0 98 84 59 93 76 115 88 95 138 107
1650.0 92 43 124 157 172 173 176 191 163 116
1690.0 204 260 247 349 502 684 779 948 1259 1690
1730.0 2187 2945 4286 6678 10000 9908 7722 4532 2950 2151
1770.0 1559 1185 1008 858 796 597 411 289 221 182
1810.0 146 111 98 87 61 53 48 71 38 30
1850.0 41 49 45 46 34 12 35 39 41 33
1890.0 30 36 35 42 40 44 34 38 25 38
1930.0 41 41 44 35 43 47 52 53 57 53
1970.0 51 56 55 49 49 42 37 40 38 36
2010.0 36 34 32 33 38 38 44 43 45 48
2050.0 48 49 58 57 58 71 74 75 71 66
2090.0 61 52 47 37 37 34 32 29 27 29
2130.0 23 23 19 20 14 19 12 10 12 12
2170.0 13 13 11 13 9 7 11 8 8 7
2210.0 4 4 1 5 1 3 0 3 8 5
2250.0 7 10 10 8 13 13 18 20 23 31
2290.0 36 42 49 59 63 74 75 79 80 73
2330.0 70 55 62 54 63 60 60 43 19 16
2370.0 19 15 23 31 28 31 29 33 35 37
2410.0 36 37 36 35 35 35 34 34 36 35
2450.0 37 38 39 39 40 44 43 44 43 42
2490.0 43 46 48 47 47 49 50 51 47 47
2530.0 48 50 50 54 54 57 59 63 64 69
2570.0 73 71 76 71 72 72 72 66 64 60
2610.0 58 59 59 63 59 62 69 70 64 67
2650.0 61 60 66 73 93 101 109 114 116 119
2690.0 118 119 121 116 125 133 142 155 173 188
2730.0 201 201 210 210 203 183 168 158 155 151
2770.0 147 143 142 147 150 161 172 185 201 217
2810.0 236 256 278 308 332 375 427 510 630 796
2850.0 1031 1317 1600 1848 2027 2144 2248 2337 2403 2413
2890.0 2411 2446 2561 2767 3128 3626 4201 4805 5427 5904
2930.0 5996 5629 5002 4351 3737 3278 3102 3273 3767 4312
2970.0 4598 4350 3675 2925 2343 1955 1656 1378 1123 911
3010.0 756 652 584 534 499 469 443 413 386 361
3050.0 330 315 302 290 268 255 250 243 228 219
3090.0 200 188 169 164 162 166 183 181 170 143
3130.0 118 110 108 91 93 88 79 79 74 76
3170.0 66 65 65 62 59 63 62 57 55 43
3210.0 34 31 29 20 22 20 17 22 18 17
3250.0 18 9 7 14 0 8 10 9 13 16
3290.0 25 22 19 25 27 28 24 23 30 39
3330.0 28 30 21 22 32 35 28 35 33 24
3370.0 16 20 21 28 27 30 25 13 23 20
3410.0 33 31 25 23 28 24 28 34 32 34
3450.0 39 38 51 64 83 92 122 119 107 80
3490.0 61 55 41 40 34 44 45 39 35 38
3530.0 31 29 37 52 58 56 46 59 46 55
3570.0 71 44 43 67 83 65 72 90 69 66
3610.0 61 68 80 72 63 75 92 70 80 89
3650.0 88 91 74 103 99 94 79 98 92 88
3690.0 85 78 87 79 78 83 78 67 68 86
3730.0 84 67 66 78 85 55 66 71 83 78
3770.0 88 66 85 87 91 72 79 65 88 78
3810.0 67 87 82 82 83 84 74 70 76 88
3850.0 80 53 84 88 71 92 81 84 70 63
3890.0 72 54 59 92 64 38 58 69 45 67
3930.0 79 82 73 101 75 104 76 69 80 87
##END=
