##TITLE=2-Butenedioic acid (E)-, dibutyl ester
##JCAMP-DX=4.24
##DATA TYPE=INFRARED SPECTRUM
##ORIGIN=Sadtler Research Labs Under US-EPA Contract
##OWNER=NIST Standard Reference Data Program
##CAS REGISTRY NO=105-75-9
##MOLFORM=C 12 H 20 O 4
##XUNITS=1/CM
##YUNITS=ABSORBANCE
##XFACTOR=1.0
##YFACTOR=0.000096191
##DELTAX=4.0
##FIRSTX=450.0
##LASTX=3966.0
##FIRSTY=0.000000
##MAXX=3966
##MINX=450
##MAXY=0.96191
##MINY=0
##NPOINTS=880
##XYDATA=(X++(Y..Y))
450.0 0 8 42 56 53 43 60 85 97 4
490.0 26 38 87 94 85 101 112 81 102 104
530.0 126 95 82 108 43 71 80 32 62 48
570.0 44 20 20 17 41 25 42 66 71 57
610.0 73 98 77 74 67 69 79 91 162 228
650.0 297 381 435 478 480 452 305 179 159 133
690.0 127 118 106 99 102 105 114 112 108 118
730.0 150 153 176 193 202 237 259 293 320 347
770.0 369 402 380 335 310 290 248 238 237 223
810.0 230 226 248 247 254 287 298 322 318 318
850.0 295 283 285 292 312 300 317 316 321 322
890.0 348 360 354 361 372 371 382 386 392 399
930.0 395 414 449 488 553 658 791 918 1104 1323
970.0 1578 1801 1932 1835 1596 1328 1176 1132 1203 1379
1010.0 1635 1977 2272 2399 2288 1984 1639 1307 1068 920
1050.0 931 1088 1326 1587 1630 1508 1313 1093 959 890
1090.0 845 793 733 690 696 731 815 896 958 1014
1130.0 1120 1356 1827 2675 4347 6483 7756 6110 4894 4828
1170.0 4912 4407 3262 2219 1694 1419 1326 1329 1437 1682
1210.0 2054 2598 3413 4052 4046 3473 3281 3751 4665 5942
1250.0 7512 8320 8933 7110 5566 4649 4104 4123 4593 5886
1290.0 8081 9178 7505 5607 4094 3009 2208 1666 1358 1227
1330.0 1085 917 783 714 674 633 602 590 557 542
1370.0 542 569 651 766 937 1000 895 692 540 429
1410.0 398 359 334 312 319 324 348 364 434 472
1450.0 526 610 654 781 805 814 712 616 494 371
1490.0 287 242 192 195 131 135 157 135 109 131
1530.0 132 112 110 55 99 109 98 39 48 96
1570.0 76 89 68 101 95 95 100 102 116 115
1610.0 120 132 105 157 177 221 274 348 485 528
1650.0 510 357 340 291 271 243 247 259 284 274
1690.0 363 433 501 583 719 848 993 1195 1621 2264
1730.0 3434 5309 7929 10000 9426 6767 4325 2706 1846 1377
1770.0 1054 845 725 607 527 441 356 309 248 217
1810.0 189 157 142 130 105 91 92 88 90 67
1850.0 87 91 86 81 86 64 76 74 73 69
1890.0 63 64 58 63 69 59 58 48 48 48
1930.0 49 49 47 45 43 46 42 42 38 38
1970.0 33 38 42 32 39 31 31 29 27 29
2010.0 32 32 31 37 36 36 36 41 37 38
2050.0 42 36 36 36 37 37 37 40 40 46
2090.0 46 46 46 46 46 46 46 44 41 40
2130.0 36 40 35 35 34 34 30 30 30 24
2170.0 30 25 24 23 23 23 23 24 18 22
2210.0 19 19 19 19 19 19 19 19 18 18
2250.0 18 17 21 23 20 23 23 20 24 23
2290.0 22 22 27 28 27 26 27 18 24 23
2330.0 28 34 19 27 31 27 26 27 19 13
2370.0 11 11 11 16 12 11 11 10 10 11
2410.0 15 6 10 10 10 10 10 11 11 11
2450.0 11 9 9 10 10 9 9 9 9 9
2490.0 15 14 11 14 9 9 9 9 8 8
2530.0 9 9 3 3 3 3 9 9 8 8
2570.0 9 9 8 8 8 8 8 8 8 8
2610.0 8 8 8 8 8 8 8 3 8 8
2650.0 8 9 14 21 21 21 26 28 28 22
2690.0 30 25 29 31 34 31 36 33 42 43
2730.0 44 44 51 55 63 73 73 73 75 74
2770.0 75 71 71 71 78 82 84 93 96 106
2810.0 114 119 130 142 149 167 185 212 245 294
2850.0 356 432 511 579 643 769 944 1139 1297 1374
2890.0 1347 1230 1146 1135 1175 1235 1342 1482 1585 1676
2930.0 1797 1997 2271 2567 2745 2708 2621 2741 3143 3740
2970.0 4103 3969 3350 2535 1864 1423 1106 877 695 562
3010.0 458 387 335 294 269 245 221 198 177 161
3050.0 150 130 119 109 106 104 100 95 92 93
3090.0 84 78 74 74 75 69 63 69 65 64
3130.0 55 64 61 56 54 52 54 54 53 54
3170.0 54 56 51 51 57 50 50 50 49 50
3210.0 44 39 40 35 41 40 34 32 24 35
3250.0 34 28 35 32 25 30 32 27 31 33
3290.0 30 31 25 33 34 36 32 36 31 37
3330.0 32 33 29 31 28 36 35 34 35 32
3370.0 38 38 38 33 40 46 35 37 34 28
3410.0 38 41 38 38 40 39 45 45 47 47
3450.0 54 60 85 92 112 123 120 104 84 68
3490.0 57 47 38 37 34 34 28 29 29 24
3530.0 25 26 26 28 22 23 22 25 28 23
3570.0 27 52 75 92 84 48 35 28 29 29
3610.0 18 16 25 18 29 4 25 34 39 35
3650.0 10 25 31 48 46 33 26 23 43 53
3690.0 35 53 60 57 61 51 49 74 77 75
3730.0 77 59 57 77 50 59 72 94 101 105
3770.0 102 113 112 119 124 130 130 121 112 126
3810.0 131 132 128 128 139 141 139 138 143 146
3850.0 144 126 142 148 148 144 150 155 151 156
3890.0 156 162 162 160 165 174 175 181 170 176
3930.0 182 177 170 172 169 187 28 40 42 42
##END=
