##TITLE=1-Butanol, 3-methyl-, propanoate
##JCAMP-DX=4.24
##DATA TYPE=INFRARED SPECTRUM
##ORIGIN=Sadtler Research Labs Under US-EPA Contract
##OWNER=NIST Standard Reference Data Program
##CAS REGISTRY NO=105-68-0
##MOLFORM=C 8 H 16 O 2
##XUNITS=1/CM
##YUNITS=ABSORBANCE
##XFACTOR=1.0
##YFACTOR=0.000052734
##DELTAX=4.0
##FIRSTX=450.0
##LASTX=3966.0
##FIRSTY=0.004588
##MAXX=3966
##MINX=450
##MAXY=0.52734
##MINY=0
##NPOINTS=880
##XYDATA=(X++(Y..Y))
450.0 87 106 103 79 85 112 82 61 80 20
490.0 71 73 5 20 124 85 72 101 113 109
530.0 55 40 95 40 87 62 149 74 57 62
570.0 75 132 90 158 192 215 206 147 212 178
610.0 208 153 134 200 195 202 156 120 148 137
650.0 132 164 115 141 102 165 147 152 204 156
690.0 179 128 156 155 158 180 118 144 154 138
730.0 137 163 133 193 174 204 179 233 231 273
770.0 307 317 307 298 297 284 305 320 322 343
810.0 391 398 416 398 407 405 369 352 356 363
850.0 345 325 318 331 313 320 308 318 291 299
890.0 327 288 274 311 342 356 377 384 384 377
930.0 373 389 417 445 502 520 566 578 627 673
970.0 663 675 650 635 663 690 794 930 1111 1291
1010.0 1507 1710 1833 1825 1736 1585 1419 1270 1253 1290
1050.0 1396 1572 1806 2099 2320 2497 2625 2687 2704 2617
1090.0 2392 2079 1738 1517 1430 1359 1360 1349 1340 1327
1130.0 1315 1345 1396 1508 1675 1936 2306 2806 3530 4535
1170.0 5705 7084 8474 9433 10000 9594 8686 7525 6543 5787
1210.0 5146 4590 4069 3614 3242 2945 2712 2549 2431 2328
1250.0 2231 2143 2084 2053 2063 2110 2131 2118 2015 1832
1290.0 1592 1342 1107 960 859 827 850 955 1137 1369
1330.0 1595 1776 1959 2132 2266 2345 2277 2059 1751 1473
1370.0 1343 1341 1438 1549 1593 1539 1392 1149 900 710
1410.0 597 543 530 546 604 681 766 821 888 937
1450.0 1031 1207 1445 1812 2120 2213 2039 1653 1200 866
1490.0 621 484 382 332 275 235 231 212 181 181
1530.0 177 160 159 132 144 151 136 126 116 129
1570.0 124 121 120 120 130 129 119 119 129 128
1610.0 127 127 121 134 125 143 137 124 153 143
1650.0 145 121 167 162 173 165 187 202 215 220
1690.0 258 297 315 364 451 547 645 762 934 1158
1730.0 1457 1935 2707 3904 5593 7610 9342 9844 9170 7275
1770.0 5052 3342 2240 1548 1129 862 661 539 432 355
1810.0 307 259 220 199 172 154 139 133 124 110
1850.0 110 109 119 100 109 91 99 98 100 93
1890.0 87 88 87 90 88 88 77 77 77 87
1930.0 83 87 86 84 85 86 73 84 76 84
1970.0 83 83 82 82 82 81 81 93 85 89
2010.0 90 98 88 88 89 87 86 78 88 82
2050.0 83 89 83 76 76 76 65 65 66 65
2090.0 54 65 64 64 64 53 57 61 53 53
2130.0 53 52 52 52 52 51 51 51 52 46
2170.0 49 50 39 40 40 49 48 39 39 37
2210.0 37 38 38 26 31 35 35 36 36 35
2250.0 35 35 26 33 33 33 43 34 34 41
2290.0 42 59 49 68 78 92 104 107 127 124
2330.0 142 147 149 158 150 130 176 203 172 154
2370.0 121 97 67 53 44 33 41 34 34 33
2410.0 41 40 40 35 30 31 30 23 24 21
2450.0 29 21 29 20 20 18 18 15 13 7
2490.0 9 8 14 17 6 16 7 7 7 4
2530.0 5 5 10 9 4 10 5 11 12 12
2570.0 13 22 23 25 28 34 26 32 38 41
2610.0 33 41 41 33 42 32 34 41 41 42
2650.0 36 45 32 41 32 34 42 34 34 42
2690.0 42 54 42 53 50 62 62 69 81 90
2730.0 100 110 110 128 128 127 126 133 127 139
2770.0 127 128 128 128 128 129 130 140 149 165
2810.0 169 190 197 228 246 276 305 342 390 458
2850.0 517 593 700 840 1037 1299 1622 1975 2317 2605
2890.0 2736 2708 2620 2517 2497 2537 2644 2791 2976 3186
2930.0 3421 3681 3953 4167 4387 4579 4825 5191 5819 6612
2970.0 7211 7221 6655 5757 4660 3762 2935 2190 1641 1270
3010.0 1023 839 705 583 492 404 348 295 267 237
3050.0 218 207 188 177 178 162 151 145 134 129
3090.0 116 112 108 107 106 97 98 87 97 89
3130.0 85 83 89 84 87 84 87 89 88 89
3170.0 89 91 88 90 94 85 76 81 71 63
3210.0 62 44 53 43 43 33 28 39 23 25
3250.0 27 23 15 26 18 25 17 16 8 19
3290.0 15 17 22 23 23 16 20 25 27 17
3330.0 17 27 34 31 30 22 27 27 27 27
3370.0 27 27 28 27 18 28 19 18 17 26
3410.0 26 19 21 16 28 20 20 28 21 10
3450.0 29 36 44 37 39 44 46 64 76 95
3490.0 105 105 105 94 83 57 42 38 40 25
3530.0 19 29 22 22 21 14 10 10 24 19
3570.0 6 23 23 23 23 12 14 22 22 21
3610.0 13 20 21 18 23 17 32 23 30 25
3650.0 24 24 24 45 41 40 35 25 54 42
3690.0 37 30 44 34 33 25 25 34 37 30
3730.0 25 26 12 30 18 18 15 25 35 25
3770.0 26 28 35 35 35 35 35 35 28 37
3810.0 35 35 17 26 37 37 37 37 41 45
3850.0 46 29 28 27 36 47 37 46 46 44
3890.0 39 36 36 37 37 48 38 28 29 38
3930.0 48 38 38 38 38 53 0 4 4 4
##END=
