##TITLE=Propanoic acid, ethenyl ester
##JCAMP-DX=4.24
##DATA TYPE=INFRARED SPECTRUM
##ORIGIN=Sadtler Research Labs Under US-EPA Contract
##OWNER=NIST Standard Reference Data Program
##CAS REGISTRY NO=105-38-4
##MOLFORM=C 5 H 8 O 2
##XUNITS=1/CM
##YUNITS=ABSORBANCE
##XFACTOR=1.0
##YFACTOR=0.000077969
##DELTAX=4.0
##FIRSTX=450.0
##LASTX=3966.0
##FIRSTY=0.006160
##MAXX=3966
##MINX=450
##MAXY=0.77969
##MINY=0
##NPOINTS=880
##XYDATA=(X++(Y..Y))
450.0 79 88 91 91 85 85 83 79 63 74
490.0 70 58 64 88 83 66 101 63 114 107
530.0 118 0 150 110 122 140 96 124 144 156
570.0 178 187 181 184 101 250 252 252 248 232
610.0 223 210 181 167 148 129 126 138 111 118
650.0 111 107 104 87 97 135 124 129 137 147
690.0 155 154 154 158 148 128 120 108 102 96
730.0 89 94 102 101 107 115 120 134 134 132
770.0 139 145 145 166 164 171 186 196 219 241
810.0 253 253 257 284 291 323 329 403 478 583
850.0 706 827 927 1020 1158 1396 1333 1156 1010 892
890.0 774 618 483 379 305 284 299 336 410 497
930.0 589 655 720 803 861 876 827 705 603 535
970.0 462 411 375 375 409 492 610 771 940 1065
1010.0 1146 1161 1117 985 829 705 627 595 643 745
1050.0 895 1065 1212 1319 1399 1400 1326 1190 1083 1031
1090.0 967 913 890 911 957 1065 1213 1445 1765 2233
1130.0 2946 3971 5208 6405 7407 8380 9232 9689 10000 9996
1170.0 9818 9316 8582 7433 6185 5396 4939 4516 4065 3530
1210.0 2945 2432 2029 1741 1546 1402 1284 1182 1099 1033
1250.0 991 979 999 1050 1108 1134 1119 1078 1055 1046
1290.0 987 914 859 811 756 686 670 730 850 998
1330.0 1147 1275 1425 1572 1748 1870 1868 1788 1678 1438
1370.0 1105 849 700 621 571 502 472 391 322 291
1410.0 290 294 347 352 386 400 438 444 450 457
1450.0 459 496 557 651 676 663 652 601 499 383
1490.0 289 227 191 180 168 147 147 138 140 130
1530.0 136 139 157 150 157 171 184 202 212 224
1570.0 235 238 221 210 183 180 172 181 192 215
1610.0 244 288 350 435 580 796 1166 1733 2380 2832
1650.0 2928 2788 2643 2056 1081 533 335 238 221 188
1690.0 193 195 206 198 217 234 252 277 305 352
1730.0 409 496 627 855 1184 1630 2290 3125 4152 5306
1770.0 6118 6321 6103 6286 6314 5165 3694 2595 1745 1131
1810.0 730 489 348 272 222 201 180 166 166 147
1850.0 153 149 158 164 167 158 165 163 159 156
1890.0 156 153 137 133 125 113 114 100 97 101
1930.0 99 100 98 99 95 88 86 86 78 80
1970.0 79 79 79 86 90 108 108 116 126 139
2010.0 146 154 162 166 159 159 152 139 133 122
2050.0 114 108 109 109 109 108 115 115 115 108
2090.0 108 93 80 74 67 64 64 55 58 57
2130.0 57 57 50 57 57 56 64 58 63 60
2170.0 62 55 55 55 55 55 55 55 55 60
2210.0 55 55 55 55 54 54 54 54 61 61
2250.0 60 62 62 67 67 74 85 87 94 103
2290.0 110 113 115 111 108 105 105 96 89 88
2330.0 67 62 53 44 43 52 61 55 39 33
2370.0 19 17 21 31 38 39 44 43 42 49
2410.0 49 49 43 42 50 42 46 41 42 47
2450.0 42 41 42 41 42 35 39 35 34 34
2490.0 34 34 34 34 34 32 33 32 32 32
2530.0 32 37 33 24 28 33 30 31 32 32
2570.0 38 38 38 36 36 36 33 30 30 23
2610.0 23 22 17 22 23 23 28 29 24 28
2650.0 32 29 33 34 34 34 34 35 34 30
2690.0 34 40 43 45 45 41 41 41 40 41
2730.0 41 41 48 54 47 55 46 54 53 53
2770.0 61 59 53 59 65 65 66 66 66 61
2810.0 65 69 71 72 75 78 85 90 90 97
2850.0 97 96 106 109 113 124 132 148 187 243
2890.0 301 341 354 378 372 355 324 312 312 343
2930.0 377 423 474 556 686 781 785 779 779 755
2970.0 680 648 709 838 969 1027 1047 1088 972 796
3010.0 644 526 432 352 296 250 215 195 189 177
3050.0 183 183 175 169 162 141 131 133 152 199
3090.0 252 296 300 288 280 250 192 181 203 202
3130.0 190 185 193 147 103 80 75 73 55 54
3170.0 60 55 54 54 47 47 54 54 48 46
3210.0 41 41 40 40 34 41 36 32 40 30
3250.0 26 35 26 28 26 34 39 26 26 38
3290.0 31 33 30 29 40 32 32 30 32 25
3330.0 25 32 36 31 38 38 38 29 21 30
3370.0 30 30 30 24 30 26 36 25 26 35
3410.0 40 32 39 27 41 23 28 23 34 23
3450.0 29 39 34 41 41 33 34 32 33 39
3490.0 40 40 39 39 47 39 57 70 81 84
3530.0 90 103 108 101 95 75 81 72 69 78
3570.0 83 82 86 95 95 81 74 75 48 36
3610.0 30 37 25 29 34 23 30 20 29 35
3650.0 18 17 29 41 40 36 39 28 26 34
3690.0 33 33 33 32 31 30 27 43 36 42
3730.0 48 30 34 30 26 30 29 33 31 38
3770.0 37 37 38 39 35 41 45 41 38 46
3810.0 41 33 39 38 32 36 48 48 48 42
3850.0 43 45 49 42 42 47 40 38 45 42
3890.0 51 57 49 54 45 37 30 36 35 27
3930.0 33 33 36 38 41 39 29 42 62 62
##END=
