##TITLE=Carbonic acid, diethyl ester
##JCAMP-DX=4.24
##DATA TYPE=INFRARED SPECTRUM
##ORIGIN=Sadtler Research Labs Under US-EPA Contract
##OWNER=NIST Standard Reference Data Program
##CAS REGISTRY NO=105-58-8
##MOLFORM=C 5 H 10 O 3
##XUNITS=1/CM
##YUNITS=ABSORBANCE
##XFACTOR=1.0
##YFACTOR=0.000091922
##DELTAX=4.0
##FIRSTX=450.0
##LASTX=3966.0
##FIRSTY=0.003861
##MAXX=3966
##MINX=450
##MAXY=0.91922
##MINY=0
##NPOINTS=880
##XYDATA=(X++(Y..Y))
450.0 42 44 49 50 44 49 53 43 49 46
490.0 36 48 39 44 34 48 48 50 38 48
530.0 45 55 53 37 37 0 35 42 57 59
570.0 46 49 44 41 48 43 48 47 37 46
610.0 47 47 46 47 60 40 49 46 47 44
650.0 46 46 46 46 35 48 47 45 50 52
690.0 45 45 51 50 51 50 54 50 49 48
730.0 49 60 48 50 53 53 54 56 70 79
770.0 101 117 151 185 206 242 270 261 242 216
810.0 188 163 137 112 95 95 89 107 132 191
850.0 253 333 368 382 357 258 177 122 105 103
890.0 110 110 120 116 120 115 106 91 84 80
930.0 71 64 69 70 75 88 88 101 115 127
970.0 138 155 153 160 166 171 188 211 264 359
1010.0 509 740 1024 1300 1462 1486 1380 1130 814 580
1050.0 423 334 268 228 216 210 217 243 282 342
1090.0 393 428 446 412 360 299 252 221 198 177
1130.0 160 143 131 132 135 136 140 152 157 168
1170.0 175 180 189 189 191 197 208 231 245 285
1210.0 335 402 494 609 747 910 1099 1336 1681 2220
1250.0 3073 4388 6216 8328 9839 10000 8763 6767 4412 2476
1290.0 1401 992 883 894 880 815 721 569 407 292
1330.0 223 181 151 147 150 156 190 233 340 545
1370.0 871 1054 1048 1066 895 542 407 402 434 464
1410.0 458 437 391 314 256 231 216 227 232 251
1450.0 265 288 319 334 391 426 435 410 377 305
1490.0 239 179 144 112 109 77 66 65 72 55
1530.0 49 61 60 60 52 59 61 65 62 58
1570.0 63 66 70 68 70 75 77 75 76 76
1610.0 75 78 84 78 77 82 76 78 63 78
1650.0 66 78 61 66 65 75 67 79 80 90
1690.0 86 93 102 108 112 124 137 161 185 235
1730.0 314 441 643 928 1308 1780 2296 2677 2698 2726
1770.0 2631 2150 1656 1250 907 666 532 401 263 169
1810.0 125 90 76 70 69 68 63 62 58 54
1850.0 47 44 39 39 37 40 33 33 33 32
1890.0 32 26 27 27 27 27 31 37 30 37
1930.0 33 33 33 31 31 31 32 37 32 30
1970.0 37 42 47 44 42 39 33 29 27 23
2010.0 19 20 13 14 13 13 13 13 13 14
2050.0 13 20 13 17 17 18 18 19 23 23
2090.0 18 18 18 23 23 20 18 26 22 18
2130.0 24 24 23 28 35 35 34 40 39 39
2170.0 45 41 40 34 28 28 23 21 20 23
2210.0 18 21 21 23 28 27 27 33 33 33
2250.0 32 27 27 28 28 24 28 21 18 17
2290.0 17 12 13 14 14 21 21 14 22 22
2330.0 16 17 16 16 16 28 34 35 19 19
2370.0 19 19 26 27 27 24 26 20 19 18
2410.0 13 14 14 14 14 7 11 13 8 8
2450.0 13 12 12 8 7 7 7 7 7 7
2490.0 7 7 7 7 7 7 6 6 6 7
2530.0 7 7 7 7 7 1 1 2 1 1
2570.0 1 7 1 5 5 6 6 1 4 2
2610.0 1 1 6 1 1 7 7 7 7 7
2650.0 7 7 7 7 7 7 7 6 6 6
2690.0 6 5 7 7 8 1 4 8 8 8
2730.0 7 7 7 7 7 7 7 7 14 13
2770.0 13 14 14 18 19 19 14 18 18 19
2810.0 19 19 19 19 19 26 31 31 24 32
2850.0 37 36 36 48 56 64 87 102 133 138
2890.0 155 161 162 171 186 208 217 228 233 239
2930.0 256 277 337 399 423 435 423 386 368 380
2970.0 436 514 637 792 890 927 935 893 758 626
3010.0 525 439 349 264 200 159 124 97 73 57
3050.0 51 45 39 28 34 34 30 22 27 16
3090.0 14 23 13 13 13 12 19 19 17 13
3130.0 12 19 15 19 15 13 19 18 13 14
3170.0 14 14 14 14 14 14 14 14 14 14
3210.0 14 14 14 15 10 9 15 11 12 10
3250.0 13 11 9 10 10 11 11 4 5 10
3290.0 11 6 10 10 17 17 11 5 5 17
3330.0 11 12 13 11 4 12 17 14 16 12
3370.0 6 3 6 6 13 12 18 14 11 18
3410.0 17 14 19 12 12 13 13 3 3 3
3450.0 11 15 7 7 5 3 5 12 8 8
3490.0 14 20 14 14 18 12 20 17 11 7
3530.0 9 8 9 5 8 3 10 7 11 10
3570.0 16 1 4 15 12 8 9 4 11 10
3610.0 19 19 11 17 17 19 15 15 17 21
3650.0 12 14 11 5 11 18 19 20 19 21
3690.0 13 7 11 16 18 17 9 6 19 14
3730.0 9 10 14 16 18 12 17 12 23 13
3770.0 18 17 8 14 12 23 20 15 12 13
3810.0 20 20 22 19 19 15 18 17 21 17
3850.0 20 22 20 9 13 13 14 10 12 16
3890.0 14 18 20 15 12 18 23 27 16 16
3930.0 23 15 16 11 11 11 13 13 13 13
##END=
