##TITLE=Acetic acid, chloro-, ethyl ester
##JCAMP-DX=4.24
##DATA TYPE=INFRARED SPECTRUM
##ORIGIN=Sadtler Research Labs Under US-EPA Contract
##OWNER=NIST Standard Reference Data Program
##CAS REGISTRY NO=105-39-5
##MOLFORM=C 4 H 7 Cl O 2
##XUNITS=1/CM
##YUNITS=ABSORBANCE
##XFACTOR=1.0
##YFACTOR=0.000165720
##DELTAX=4.0
##FIRSTX=450.0
##LASTX=3966.0
##FIRSTY=0.035795
##MAXX=3966
##MINX=450
##MAXY=1.6572
##MINY=0
##NPOINTS=880
##XYDATA=(X++(Y..Y))
450.0 216 102 21 66 42 10 71 34 68 23
490.0 58 54 56 55 59 72 66 106 50 74
530.0 60 82 75 85 112 133 170 181 257 287
570.0 372 421 486 518 536 529 486 459 416 373
610.0 317 321 272 231 197 169 144 110 110 93
650.0 117 116 152 167 191 247 279 338 403 505
690.0 590 635 662 641 595 525 473 407 366 326
730.0 297 267 267 248 259 279 308 344 384 453
770.0 513 608 731 885 1067 1154 1167 1115 972 722
810.0 547 398 309 231 194 162 147 140 135 156
850.0 178 221 247 284 291 274 234 181 130 83
890.0 75 60 73 88 144 221 352 519 658 771
930.0 838 857 800 691 572 461 334 209 129 85
970.0 72 55 63 62 89 118 158 212 304 442
1010.0 634 954 1418 2078 2910 3720 4300 4364 4098 3388
1050.0 2348 1511 1058 807 677 595 575 586 647 780
1090.0 975 1223 1437 1618 1733 1843 1983 2257 2650 3055
1130.0 3547 3955 4202 4342 4362 4489 4778 5498 6260 6980
1170.0 7332 7377 6668 5609 4682 3774 3116 2680 2448 2291
1210.0 2219 2175 2172 2210 2304 2490 2745 3181 3764 4591
1250.0 5345 5875 5954 5631 5277 4942 5173 5805 6887 7495
1290.0 7825 7682 7290 6782 5980 5326 4486 3663 2634 1887
1330.0 1374 1034 814 675 582 546 526 613 828 1104
1370.0 1212 1242 1252 1044 766 616 598 581 584 598
1410.0 613 686 835 1042 1200 1278 1241 1166 996 806
1450.0 743 720 713 726 749 763 738 699 586 479
1490.0 394 308 244 182 165 140 106 100 87 81
1530.0 63 64 56 63 48 38 39 40 31 14
1570.0 21 8 11 12 3 10 4 18 3 21
1610.0 16 22 29 28 37 19 40 31 38 25
1650.0 60 42 46 43 46 57 52 84 82 132
1690.0 132 182 207 294 364 412 517 625 828 971
1730.0 1399 1828 2760 3715 5434 6477 7727 9083 9055 10000
1770.0 8702 8940 6913 6552 5327 4905 4060 3364 2516 1874
1810.0 1376 1023 840 684 573 421 352 266 243 185
1850.0 172 145 125 119 106 111 86 99 85 91
1890.0 82 84 71 57 53 38 37 27 39 21
1930.0 29 28 30 34 38 43 38 48 45 51
1970.0 42 47 42 41 41 41 42 31 36 28
2010.0 29 21 29 28 27 35 33 39 36 43
2050.0 33 36 33 31 27 27 31 25 32 30
2090.0 35 33 37 35 33 33 29 31 23 30
2130.0 25 32 29 30 28 23 24 19 20 15
2170.0 19 15 14 14 12 10 10 14 10 15
2210.0 15 19 17 21 23 21 21 19 17 11
2250.0 12 6 6 4 4 3 3 6 3 5
2290.0 2 4 0 4 4 3 8 7 16 14
2330.0 20 22 27 16 19 20 8 11 6 18
2370.0 13 17 13 11 10 8 10 8 13 13
2410.0 16 17 21 20 22 22 21 20 17 18
2450.0 15 18 19 20 18 20 21 19 21 19
2490.0 20 18 19 16 18 18 18 18 16 19
2530.0 16 17 17 19 18 20 17 17 17 16
2570.0 17 12 15 13 13 11 7 10 10 11
2610.0 8 12 10 14 10 11 8 8 11 7
2650.0 13 10 12 12 17 18 21 23 27 31
2690.0 30 30 29 28 27 25 25 25 29 29
2730.0 32 33 37 34 37 33 37 38 40 45
2770.0 47 56 56 59 62 63 60 59 60 63
2810.0 68 70 84 92 102 108 118 123 129 137
2850.0 143 155 168 189 206 238 278 334 403 446
2890.0 478 507 529 549 580 624 667 688 691 714
2930.0 740 817 963 1134 1246 1319 1376 1391 1403 1460
2970.0 1602 1781 2082 2508 2806 2862 2839 2747 2302 1835
3010.0 1532 1292 1071 843 648 496 382 302 243 204
3050.0 173 149 130 115 103 91 85 77 74 70
3090.0 69 65 63 62 59 60 59 59 57 58
3130.0 56 56 54 51 50 49 48 46 46 45
3170.0 42 45 41 40 40 40 38 39 36 35
3210.0 31 31 30 25 29 22 25 18 19 19
3250.0 19 16 15 15 10 10 10 11 10 10
3290.0 11 12 12 7 10 11 8 6 8 7
3330.0 8 6 5 11 6 6 5 7 5 10
3370.0 8 6 6 4 5 5 7 4 7 6
3410.0 7 6 8 8 8 7 7 7 0 3
3450.0 3 6 10 12 21 21 23 33 41 50
3490.0 56 65 70 76 73 67 67 62 62 59
3530.0 59 66 67 68 72 62 74 76 109 163
3570.0 238 274 270 283 261 265 224 136 65 29
3610.0 14 10 7 11 0 7 6 5 11 2
3650.0 10 11 17 15 12 10 11 25 12 17
3690.0 12 17 11 8 4 1 4 0 0 3
3730.0 1 3 6 6 2 13 13 7 2 2
3770.0 10 12 11 14 13 8 13 3 10 8
3810.0 8 3 3 14 8 11 8 10 11 15
3850.0 4 15 18 7 13 11 7 8 15 6
3890.0 11 12 6 0 12 5 7 6 4 7
3930.0 4 11 10 10 4 7 10 0 3 5
##END=
