##TITLE=Acetic acid, bromo-, ethyl ester
##JCAMP-DX=4.24
##DATA TYPE=INFRARED SPECTRUM
##ORIGIN=Sadtler Research Labs Under US-EPA Contract
##OWNER=NIST Standard Reference Data Program
##CAS REGISTRY NO=105-36-2
##MOLFORM=C 4 H 7 Br O 2
##XUNITS=1/CM
##YUNITS=ABSORBANCE
##XFACTOR=1.0
##YFACTOR=0.000110956
##DELTAX=4.0
##FIRSTX=450.0
##LASTX=3966.0
##FIRSTY=0.000000
##MAXX=3966
##MINX=450
##MAXY=1.10956
##MINY=0
##NPOINTS=880
##XYDATA=(X++(Y..Y))
450.0 0 259 304 321 286 288 270 334 250 290
490.0 322 309 233 280 260 244 278 238 302 225
530.0 306 314 348 466 530 529 546 579 485 489
570.0 397 429 384 368 346 357 370 355 406 354
610.0 377 399 403 382 419 379 351 343 293 304
650.0 281 383 511 655 726 767 728 621 530 466
690.0 399 352 347 327 336 348 337 319 289 264
730.0 235 222 190 171 144 126 132 120 126 117
770.0 151 145 167 168 159 135 189 193 160 164
810.0 142 150 136 165 161 162 197 216 256 259
850.0 297 275 273 256 251 235 228 221 216 222
890.0 227 232 233 256 277 305 346 388 444 456
930.0 480 467 438 395 351 301 248 197 173 163
970.0 142 152 139 152 163 192 211 240 298 369
1010.0 477 647 924 1331 1880 2437 2759 2769 2458 1844
1050.0 1241 916 750 685 663 686 740 852 1003 1216
1090.0 1510 1886 2338 2885 3477 3936 4149 4104 3802 3343
1130.0 2924 2701 2695 2841 3017 3138 3138 3029 2790 2507
1170.0 2288 2105 1981 1859 1776 1720 1729 1799 1942 2194
1210.0 2458 2557 2413 2116 1688 1315 1162 1202 1384 1679
1250.0 2140 2832 3864 5328 7139 8953 10000 9904 8713 6799
1290.0 4883 3467 2685 2353 2166 2002 1792 1527 1251 1025
1330.0 862 728 635 549 503 467 450 489 616 832
1370.0 928 933 898 688 535 514 502 516 527 563
1410.0 630 753 933 1100 1134 1083 949 779 665 614
1450.0 596 592 591 600 629 661 647 604 523 428
1490.0 354 297 256 214 195 176 161 157 153 157
1530.0 146 150 145 157 140 145 142 150 146 146
1570.0 150 145 151 143 150 142 143 144 140 141
1610.0 136 142 137 145 134 139 138 144 140 145
1650.0 148 158 153 152 166 158 173 177 191 220
1690.0 239 273 312 373 425 489 557 657 765 922
1730.0 1187 1605 2282 3173 4394 5597 6724 7324 7577 7353
1770.0 6400 5269 4295 3502 2883 2425 2002 1625 1238 929
1810.0 750 631 524 435 368 317 284 257 243 230
1850.0 219 210 204 200 195 199 197 202 197 194
1890.0 187 184 178 173 165 165 167 162 164 162
1930.0 163 171 176 176 177 180 179 181 178 176
1970.0 173 168 165 163 157 153 150 147 148 149
2010.0 146 148 143 148 151 153 147 152 148 148
2050.0 148 145 145 140 137 134 138 136 138 140
2090.0 143 147 153 157 159 159 159 163 164 164
2130.0 159 156 154 150 149 144 144 139 144 139
2170.0 142 147 143 144 148 152 154 154 155 154
2210.0 150 153 157 147 152 147 144 142 139 140
2250.0 138 139 132 139 138 140 141 148 146 145
2290.0 139 136 139 133 134 121 132 119 116 126
2330.0 132 129 130 143 138 130 116 116 130 159
2370.0 168 183 177 164 155 154 155 153 151 150
2410.0 154 158 163 164 165 163 157 159 152 154
2450.0 153 152 155 149 156 153 151 153 152 156
2490.0 151 150 148 152 142 143 142 144 145 150
2530.0 156 148 151 148 156 149 154 155 148 148
2570.0 149 151 149 151 147 150 149 148 155 155
2610.0 155 162 163 161 163 165 170 164 165 165
2650.0 165 168 160 162 155 159 152 154 150 152
2690.0 150 148 150 151 146 153 152 148 154 156
2730.0 160 156 160 160 156 160 164 168 166 167
2770.0 162 173 184 185 184 177 178 180 180 180
2810.0 182 187 198 197 203 217 211 213 219 223
2850.0 226 231 243 249 267 288 314 364 405 441
2890.0 457 467 468 491 511 546 581 599 599 592
2930.0 613 655 746 861 943 967 959 903 879 920
2970.0 1033 1191 1409 1772 2069 2175 2162 1932 1560 1292
3010.0 1106 936 783 641 526 431 376 329 298 277
3050.0 240 228 226 221 198 204 201 193 187 190
3090.0 195 184 184 170 172 174 175 169 181 172
3130.0 162 178 182 179 173 163 170 157 162 174
3170.0 172 169 185 176 175 169 170 159 164 155
3210.0 154 154 161 164 154 160 152 150 147 141
3250.0 153 141 152 145 151 145 150 139 141 142
3290.0 141 136 137 143 138 152 133 132 137 143
3330.0 140 140 141 139 140 142 139 146 144 134
3370.0 140 144 125 139 140 162 121 136 126 118
3410.0 134 129 131 163 143 134 147 187 152 147
3450.0 114 135 150 152 150 157 159 173 180 177
3490.0 179 195 202 200 216 206 194 173 177 168
3530.0 170 172 157 169 164 166 165 170 195 231
3570.0 315 369 405 405 421 383 295 234 187 160
3610.0 165 157 152 151 149 156 159 156 160 136
3650.0 150 163 140 144 155 165 174 143 154 152
3690.0 139 168 151 140 146 137 134 170 152 150
3730.0 173 148 182 155 169 143 150 165 150 135
3770.0 151 153 153 160 144 156 159 157 165 165
3810.0 142 132 160 157 139 146 164 149 130 146
3850.0 114 158 143 132 137 116 158 134 133 154
3890.0 113 154 160 158 165 140 129 160 148 129
3930.0 141 116 129 146 120 130 133 167 117 116
##END=
