##TITLE=Propanoic acid, ethyl ester
##JCAMP-DX=4.24
##DATA TYPE=INFRARED SPECTRUM
##ORIGIN=Sadtler Research Labs Under US-EPA Contract
##OWNER=NIST Standard Reference Data Program
##CAS REGISTRY NO=105-37-3
##MOLFORM=C 5 H 10 O 2
##XUNITS=1/CM
##YUNITS=ABSORBANCE
##XFACTOR=1.0
##YFACTOR=0.000202420
##DELTAX=4.0
##FIRSTX=450.0
##LASTX=3966.0
##FIRSTY=0.045342
##MAXX=3966
##MINX=450
##MAXY=2.0242
##MINY=0
##NPOINTS=880
##XYDATA=(X++(Y..Y))
450.0 224 170 86 154 81 174 127 141 99 70
490.0 119 91 101 57 40 60 48 69 64 50
530.0 18 33 29 54 73 19 71 23 60 97
570.0 56 68 92 101 101 120 120 154 152 161
610.0 157 128 144 120 109 96 71 65 74 52
650.0 39 55 59 57 67 64 52 50 54 61
690.0 35 64 49 33 0 8 44 49 47 34
730.0 8 40 4 18 93 81 86 79 101 109
770.0 148 133 167 211 237 265 254 279 296 313
810.0 325 280 285 267 242 240 230 261 275 319
850.0 370 402 445 434 417 383 342 298 265 235
890.0 217 205 172 145 105 83 53 43 33 27
930.0 31 22 32 29 36 43 50 62 87 113
970.0 145 189 225 261 272 286 292 290 293 304
1010.0 347 440 611 870 1209 1564 1833 1998 2110 2135
1050.0 2017 1909 1954 2115 2299 2505 2646 2691 2676 2619
1090.0 2676 2711 2611 2493 2352 2236 1993 1738 1547 1406
1130.0 1272 1185 1151 1167 1246 1400 1699 2163 2878 3889
1170.0 5200 6749 8239 9455 9724 9795 10000 8493 7543 6541
1210.0 5764 5186 4601 4106 3600 3218 2928 2697 2523 2351
1250.0 2226 2105 1994 1939 1930 1960 1984 1920 1797 1637
1290.0 1452 1274 1142 1052 992 980 1015 1087 1214 1380
1330.0 1567 1793 2024 2212 2179 2021 1888 1761 1619 1606
1370.0 1663 1694 1751 1735 1381 1018 816 665 588 540
1410.0 503 501 491 542 592 654 700 772 828 862
1450.0 907 966 1055 1221 1294 1282 1242 1161 974 744
1490.0 539 430 321 257 188 141 124 89 60 65
1530.0 51 55 33 17 33 47 42 13 24 31
1570.0 22 20 20 19 23 16 20 14 19 16
1610.0 13 16 8 17 13 30 20 22 34 37
1650.0 28 33 55 67 67 74 72 102 91 111
1690.0 146 179 204 264 340 435 540 700 987 1398
1730.0 1969 2771 3961 5327 6728 8521 8178 8676 8776 7963
1770.0 7082 4999 3583 2438 1582 1040 693 503 371 293
1810.0 228 178 149 117 90 73 60 58 40 27
1850.0 33 27 25 24 18 13 21 24 28 30
1890.0 34 34 36 39 37 42 42 45 48 52
1930.0 54 53 51 43 42 42 39 35 32 27
1970.0 25 22 21 20 18 13 13 15 14 14
2010.0 16 15 18 21 30 36 44 50 55 60
2050.0 61 60 55 50 43 39 34 30 27 23
2090.0 20 17 14 10 8 6 4 2 2 2
2130.0 0 2 2 1 0 0 0 0 0 0
2170.0 1 3 4 6 7 5 7 5 5 5
2210.0 3 4 5 8 10 12 8 9 11 10
2250.0 8 7 5 6 8 8 8 9 9 10
2290.0 11 7 7 7 6 3 3 0 0 2
2330.0 0 1 5 5 14 17 12 19 20 25
2370.0 24 31 34 29 29 27 22 19 18 16
2410.0 14 15 16 16 14 15 12 11 11 10
2450.0 9 8 10 11 12 12 12 12 10 9
2490.0 7 6 5 3 4 3 0 2 1 1
2530.0 0 2 4 4 5 4 4 4 2 2
2570.0 3 1 3 3 2 2 5 6 9 7
2610.0 8 11 13 12 12 14 12 11 13 13
2650.0 11 10 9 9 8 8 5 6 7 7
2690.0 7 6 8 9 11 13 17 21 23 28
2730.0 33 36 39 43 51 53 56 60 62 67
2770.0 65 70 71 72 78 76 75 79 82 90
2810.0 94 102 109 120 131 143 155 169 185 199
2850.0 214 230 251 276 312 363 437 544 663 789
2890.0 919 1002 1055 1096 1113 1110 1091 1084 1118 1196
2930.0 1316 1495 1716 1968 2237 2394 2421 2423 2414 2398
2970.0 2440 2721 3241 3695 3911 3956 4031 3715 2998 2381
3010.0 1956 1600 1275 997 778 607 480 382 308 255
3050.0 212 182 158 140 127 117 112 106 102 101
3090.0 95 97 94 93 90 92 90 86 82 80
3130.0 76 72 69 72 67 62 65 65 62 63
3170.0 63 61 57 57 57 54 54 50 45 43
3210.0 40 38 35 32 29 25 27 27 21 18
3250.0 16 16 12 13 9 9 9 12 7 3
3290.0 10 10 10 7 6 8 8 9 8 12
3330.0 7 8 10 11 11 6 11 14 9 9
3370.0 9 11 9 8 10 9 6 9 7 8
3410.0 8 10 13 13 14 9 13 14 13 18
3450.0 15 21 19 25 32 37 48 68 78 86
3490.0 96 104 105 103 96 82 60 43 33 24
3530.0 19 18 12 7 10 11 5 10 11 12
3570.0 13 14 11 6 7 11 14 11 8 0
3610.0 7 12 4 7 8 10 8 4 4 6
3650.0 12 15 6 3 12 8 9 13 11 5
3690.0 6 7 12 8 7 8 10 10 12 11
3730.0 7 12 12 12 7 14 3 19 14 16
3770.0 7 8 7 19 16 20 14 8 9 6
3810.0 11 10 5 4 13 17 6 3 1 6
3850.0 4 3 7 8 6 0 8 6 5 14
3890.0 4 11 10 8 8 2 18 7 9 13
3930.0 2 8 10 7 16 14 1 8 13 15
##END=
