##TITLE=1,3-Propanediamine, N-(3-aminopropyl)-N-methyl-
##JCAMP-DX=4.24
##DATA TYPE=INFRARED SPECTRUM
##ORIGIN=Sadtler Research Labs Under US-EPA Contract
##OWNER=NIST Standard Reference Data Program
##CAS REGISTRY NO=105-83-9
##MOLFORM=C 7 H 19 N 3
##XUNITS=1/CM
##YUNITS=ABSORBANCE
##XFACTOR=1.0
##YFACTOR=0.000087646
##DELTAX=4.0
##FIRSTX=450.0
##LASTX=3966.0
##FIRSTY=0.037513
##MAXX=3966
##MINX=450
##MAXY=0.87646
##MINY=0
##NPOINTS=880
##XYDATA=(X++(Y..Y))
450.0 428 406 549 140 186 384 203 77 215 118
490.0 267 241 205 263 232 242 262 287 241 259
530.0 197 174 148 31 38 227 256 226 104 167
570.0 130 178 213 251 253 201 208 151 137 255
610.0 254 188 131 176 210 233 247 217 266 226
650.0 325 361 382 277 252 441 551 601 573 622
690.0 627 671 620 766 916 1056 1316 1436 1668 1963
730.0 2084 2410 2873 3006 3089 3727 3802 4179 4363 4452
770.0 4579 4807 5049 4880 4790 4298 3745 3293 2827 2404
810.0 2194 2164 1948 1705 1753 1618 1457 1376 1335 1242
850.0 1224 1232 1232 1142 1152 1116 1094 1048 937 890
890.0 850 789 774 741 761 763 695 692 767 778
930.0 777 775 692 657 623 631 650 621 667 738
970.0 690 596 605 555 530 525 560 597 624 637
1010.0 694 670 730 751 841 888 968 1066 1015 1351
1050.0 1402 1467 1565 1709 2019 1984 2217 2367 2239 2136
1090.0 1899 1666 1451 1311 1249 1370 1298 1353 1350 1292
1130.0 1205 1181 1152 1030 898 826 786 728 722 656
1170.0 686 702 755 790 795 782 793 820 883 875
1210.0 889 902 920 892 810 753 701 666 636 675
1250.0 717 729 749 748 738 727 679 692 690 705
1290.0 711 755 788 811 855 844 815 786 724 687
1330.0 681 697 792 942 1112 1210 1273 1319 1321 1413
1370.0 1427 1455 1478 1381 1351 1188 1004 828 591 450
1410.0 333 284 307 350 404 472 564 781 926 1064
1450.0 1310 1600 1853 2135 2140 2023 1693 1264 869 582
1490.0 420 297 225 189 168 205 138 156 155 143
1530.0 140 133 150 139 178 153 159 194 244 220
1570.0 234 264 302 332 377 425 516 548 683 781
1610.0 929 1184 1341 1557 1519 1417 1192 904 742 498
1650.0 422 330 250 198 179 144 167 121 127 108
1690.0 74 71 71 111 68 78 78 95 91 50
1730.0 72 48 64 55 43 51 42 37 45 47
1770.0 58 54 38 46 46 51 55 52 57 66
1810.0 60 67 69 73 80 89 83 83 72 93
1850.0 75 74 83 65 73 63 65 47 52 50
1890.0 52 53 47 52 45 48 39 57 48 45
1930.0 42 41 39 45 49 35 41 38 41 42
1970.0 33 37 36 33 45 43 52 53 54 56
2010.0 53 58 55 60 62 63 69 66 67 69
2050.0 65 69 68 67 70 71 69 71 75 71
2090.0 70 75 77 70 71 69 80 73 76 74
2130.0 75 67 66 60 59 57 50 42 42 43
2170.0 35 35 33 30 30 27 17 17 19 21
2210.0 12 18 9 6 5 1 4 9 5 6
2250.0 6 12 12 18 14 20 27 31 33 38
2290.0 45 53 54 59 70 78 77 75 66 62
2330.0 61 77 57 67 93 57 45 25 44 59
2370.0 54 70 67 63 58 53 54 56 55 58
2410.0 57 63 61 57 51 67 61 69 65 66
2450.0 67 70 58 64 62 64 64 71 80 78
2490.0 79 87 101 95 95 94 110 114 108 106
2530.0 109 114 112 111 114 116 115 121 130 128
2570.0 134 142 151 169 175 179 195 215 223 223
2610.0 242 247 266 277 288 300 312 318 339 369
2650.0 396 421 450 491 523 562 606 652 707 753
2690.0 791 851 897 952 1013 1081 1154 1227 1308 1382
2730.0 1463 1534 1620 1718 1828 1981 2234 2592 3082 3644
2770.0 4194 4623 4915 5164 5419 5826 6288 6541 6529 6119
2810.0 5451 4734 4087 3648 3437 3458 3678 4086 4581 5089
2850.0 5459 5672 5622 5532 5327 5140 4895 4635 4413 4205
2890.0 4061 4076 4192 4448 4792 5170 5649 6162 6824 7558
2930.0 8392 9155 9722 10000 9774 9263 8576 7562 6513 5482
2970.0 4588 4025 3671 3372 2933 2372 1736 1195 861 645
3010.0 527 438 375 338 303 258 240 216 196 183
3050.0 190 171 172 157 148 139 143 133 132 131
3090.0 117 115 108 109 104 91 99 103 101 99
3130.0 90 99 107 106 104 108 108 117 116 125
3170.0 118 124 119 122 123 113 119 115 113 114
3210.0 106 110 116 110 113 112 126 126 119 125
3250.0 134 135 138 146 139 151 151 169 159 170
3290.0 153 161 157 164 163 179 204 226 273 320
3330.0 333 372 370 356 356 331 291 238 209 193
3370.0 166 153 150 144 150 153 175 215 230 237
3410.0 214 182 148 124 108 82 72 77 65 68
3450.0 64 64 66 55 51 56 44 48 42 50
3490.0 44 40 39 31 34 37 45 27 36 23
3530.0 32 41 37 30 16 37 43 10 32 30
3570.0 53 21 17 25 16 35 18 37 26 19
3610.0 17 13 24 31 19 35 41 34 17 21
3650.0 51 39 35 30 37 17 41 25 41 6
3690.0 18 50 1 16 8 11 12 11 11 1
3730.0 17 1 16 17 35 28 26 33 7 20
3770.0 21 17 24 14 24 13 16 11 14 0
3810.0 13 3 3 25 6 14 31 40 34 22
3850.0 3 51 36 60 1 33 41 35 69 56
3890.0 12 10 50 23 21 21 1 31 29 64
3930.0 31 23 41 47 29 18 79 22 34 46
##END=
