##TITLE=Butanoic acid, ethyl ester
##JCAMP-DX=4.24
##DATA TYPE=INFRARED SPECTRUM
##ORIGIN=Sadtler Research Labs Under US-EPA Contract
##OWNER=NIST Standard Reference Data Program
##CAS REGISTRY NO=105-54-4
##MOLFORM=C 6 H 12 O 2
##XUNITS=1/CM
##YUNITS=ABSORBANCE
##XFACTOR=1.0
##YFACTOR=0.000075937
##DELTAX=4.0
##FIRSTX=450.0
##LASTX=3966.0
##FIRSTY=0.008961
##MAXX=3966
##MINX=450
##MAXY=0.75937
##MINY=0
##NPOINTS=880
##XYDATA=(X++(Y..Y))
450.0 118 93 102 121 95 98 82 76 79 33
490.0 67 22 27 17 10 40 24 14 20 36
530.0 48 18 54 24 23 27 23 49 36 97
570.0 106 67 137 116 150 148 171 161 125 156
610.0 126 144 132 120 125 152 121 98 79 82
650.0 54 57 41 43 31 52 74 35 52 55
690.0 43 69 53 79 63 72 82 79 93 86
730.0 95 112 110 129 124 160 162 175 202 218
770.0 246 252 266 278 273 279 283 292 270 269
810.0 255 229 230 194 193 212 213 246 255 308
850.0 307 314 321 295 281 247 213 188 172 166
890.0 140 160 166 173 210 243 315 378 438 502
930.0 513 501 448 387 300 236 184 131 124 98
970.0 109 105 98 111 99 136 163 191 251 329
1010.0 465 662 950 1294 1592 1803 1919 1942 1868 1785
1050.0 1779 1736 1689 1605 1509 1484 1544 1713 1920 2204
1090.0 2548 2869 3129 3245 3219 3017 2688 2287 1884 1582
1130.0 1348 1245 1261 1366 1585 1922 2474 3237 4332 5682
1170.0 7205 8663 9670 10000 9528 8629 7544 6339 5346 4593
1210.0 3925 3352 2943 2738 2651 2671 2738 2864 3060 3314
1250.0 3573 3731 3717 3550 3217 2771 2333 2039 1887 1858
1290.0 1949 2071 2201 2227 2106 1907 1625 1369 1169 1077
1330.0 1066 1108 1253 1378 1541 1625 1603 1580 1649 1816
1370.0 1957 2042 2087 1938 1582 1199 1025 870 753 686
1410.0 638 617 669 661 752 812 905 889 949 998
1450.0 1038 1143 1165 1241 1247 1218 1094 952 794 652
1490.0 516 428 328 294 238 190 180 142 137 103
1530.0 122 96 120 60 81 97 88 83 44 70
1570.0 64 75 51 74 68 76 58 72 64 72
1610.0 69 68 70 62 86 61 82 64 86 78
1650.0 94 43 97 96 120 95 141 128 172 179
1690.0 215 255 301 348 444 535 654 814 1056 1410
1730.0 2001 2886 4188 5787 7490 8930 9703 9674 9040 7527
1770.0 5525 3722 2408 1504 957 678 472 379 307 243
1810.0 211 180 162 149 130 122 102 100 101 79
1850.0 84 75 78 66 78 74 68 77 70 80
1890.0 73 68 68 57 58 47 54 48 55 53
1930.0 56 65 64 64 66 60 65 64 62 62
1970.0 52 56 49 45 40 44 35 31 34 33
2010.0 35 40 41 44 50 51 55 65 66 56
2050.0 60 53 54 45 41 44 38 44 44 31
2090.0 44 31 33 32 28 31 24 31 19 25
2130.0 25 19 19 11 13 14 5 14 5 10
2170.0 1 0 6 0 5 0 0 5 1 13
2210.0 6 10 2 7 7 7 13 7 14 14
2250.0 13 20 14 16 18 18 21 13 21 21
2290.0 19 21 15 22 14 22 20 15 23 15
2330.0 15 11 20 29 17 29 10 20 28 5
2370.0 26 16 24 19 17 16 10 24 23 18
2410.0 23 23 29 24 23 25 23 18 15 17
2450.0 12 11 18 12 18 17 13 16 12 20
2490.0 12 17 14 19 19 7 20 13 8 14
2530.0 6 14 13 22 13 13 21 8 20 8
2570.0 15 14 2 16 8 8 14 9 18 16
2610.0 21 18 16 16 9 23 15 19 20 20
2650.0 27 23 28 25 29 36 31 43 36 39
2690.0 37 31 43 31 35 38 37 45 44 58
2730.0 58 58 70 73 77 77 89 77 81 88
2770.0 82 92 91 91 104 99 105 111 115 124
2810.0 126 152 161 180 187 207 228 241 268 282
2850.0 309 347 382 455 543 696 908 1192 1503 1654
2890.0 1730 1710 1589 1478 1435 1475 1521 1601 1704 1839
2930.0 2048 2358 2778 3156 3398 3524 3546 3516 3610 3924
2970.0 4412 4902 5278 5428 5149 4641 3999 3230 2522 1998
3010.0 1576 1236 962 734 586 458 380 323 271 252
3050.0 211 198 178 172 159 146 140 130 142 131
3090.0 120 130 105 115 104 97 103 98 97 82
3130.0 88 90 85 93 77 91 82 85 87 68
3170.0 80 73 81 77 70 79 68 73 64 55
3210.0 63 44 51 43 45 42 33 41 26 31
3250.0 36 25 34 26 33 21 21 37 22 28
3290.0 27 30 28 24 26 17 28 21 23 29
3330.0 17 23 16 25 26 22 31 16 31 26
3370.0 24 32 19 32 19 20 31 14 26 16
3410.0 20 17 11 22 21 26 22 22 29 22
3450.0 30 20 40 43 49 79 59 98 102 114
3490.0 126 120 122 107 91 68 53 60 28 42
3530.0 29 25 34 27 32 27 16 41 19 29
3570.0 26 32 32 28 36 11 31 35 24 26
3610.0 18 27 14 22 30 9 37 27 33 38
3650.0 0 27 16 34 26 19 22 12 38 37
3690.0 27 37 34 38 37 42 38 39 43 38
3730.0 35 24 27 25 13 35 21 43 41 40
3770.0 49 43 52 40 50 61 49 41 38 39
3810.0 39 40 44 33 39 35 30 34 38 41
3850.0 38 38 37 25 25 23 34 34 34 30
3890.0 31 26 28 31 30 26 34 29 41 45
3930.0 38 46 34 41 40 41 35 35 33 32
##END=
