##TITLE=2-Pentanone, 4-methyl-, oxime
##JCAMP-DX=4.24
##DATA TYPE=INFRARED SPECTRUM
##ORIGIN=Sadtler Research Labs Under US-EPA Contract
##OWNER=NIST Standard Reference Data Program
##CAS REGISTRY NO=105-44-2
##MOLFORM=C 6 H 13 N O
##XUNITS=1/CM
##YUNITS=ABSORBANCE
##XFACTOR=1.0
##YFACTOR=0.000115750
##DELTAX=4.0
##FIRSTX=450.0
##LASTX=3966.0
##FIRSTY=0.012733
##MAXX=3966
##MINX=450
##MAXY=1.1575
##MINY=0
##NPOINTS=880
##XYDATA=(X++(Y..Y))
450.0 110 121 289 260 163 40 85 143 259 54
490.0 58 58 125 170 190 242 208 257 178 300
530.0 273 177 113 78 114 39 141 74 114 189
570.0 150 184 185 277 302 320 281 278 210 228
610.0 160 182 242 304 461 751 1097 1356 1478 1466
650.0 1231 885 581 413 389 330 320 305 307 302
690.0 367 398 384 416 428 470 458 336 437 399
730.0 361 292 178 88 161 107 62 117 72 63
770.0 77 86 174 146 134 133 127 116 122 114
810.0 102 201 233 241 184 154 151 120 158 182
850.0 285 439 722 1048 1339 1435 1431 1249 929 661
890.0 523 545 677 975 1465 2220 3118 3896 4362 4655
930.0 4186 3315 2551 2039 1821 1846 1922 1975 1879 1646
970.0 1368 1064 821 714 668 696 767 822 893 927
1010.0 903 808 681 543 389 264 169 117 89 77
1050.0 60 58 43 37 51 40 61 103 119 185
1090.0 297 471 695 994 1322 1397 1381 1289 952 611
1130.0 421 295 207 123 129 157 185 262 360 410
1170.0 415 386 332 258 256 278 405 648 936 1186
1210.0 1340 1431 1282 1047 835 704 618 710 914 1190
1250.0 1312 1340 1247 992 706 520 482 609 805 922
1290.0 986 945 779 551 469 463 549 775 1170 1728
1330.0 2306 2679 2851 2706 2344 2027 1861 1830 1926 2116
1370.0 2197 2248 2227 2030 1779 1449 1183 978 726 547
1410.0 436 406 401 447 498 604 697 816 907 989
1450.0 1102 1223 1330 1434 1461 1477 1354 1126 911 669
1490.0 466 331 236 198 168 156 125 141 119 111
1530.0 98 92 95 85 80 53 58 64 73 40
1570.0 35 27 31 12 13 9 14 0 8 14
1610.0 6 21 23 33 41 72 83 127 153 206
1650.0 271 305 333 301 292 227 180 122 93 76
1690.0 56 39 38 51 23 30 29 46 54 45
1730.0 62 48 65 42 29 26 15 14 12 8
1770.0 10 17 14 15 15 22 25 25 17 23
1810.0 19 19 24 26 30 34 29 33 29 33
1850.0 23 23 25 18 21 18 29 23 22 23
1890.0 21 20 19 19 21 15 15 19 16 17
1930.0 17 15 15 12 15 10 15 10 12 13
1970.0 15 15 15 16 14 12 14 14 15 14
2010.0 11 9 10 10 14 16 16 14 14 10
2050.0 8 8 9 10 9 9 8 10 10 12
2090.0 10 12 11 7 7 8 10 9 9 8
2130.0 13 13 15 19 21 23 25 25 24 27
2170.0 29 32 36 39 34 32 32 33 30 28
2210.0 27 23 23 20 22 15 17 18 18 18
2250.0 20 25 23 23 24 24 22 21 19 19
2290.0 19 20 18 18 19 12 20 27 26 33
2330.0 37 40 41 40 36 27 32 40 61 36
2370.0 31 35 28 29 26 26 33 32 34 37
2410.0 35 36 37 39 38 41 45 43 46 48
2450.0 46 47 46 44 45 42 40 37 38 42
2490.0 41 43 46 45 44 46 46 43 42 46
2530.0 50 57 58 67 72 76 79 85 94 97
2570.0 106 106 104 99 98 97 99 100 101 105
2610.0 108 112 114 118 119 121 124 128 133 137
2650.0 140 136 138 141 139 137 133 130 128 124
2690.0 123 123 123 117 117 123 127 137 153 168
2730.0 180 189 189 186 174 158 151 141 140 146
2770.0 143 149 145 153 157 161 164 173 185 197
2810.0 221 252 290 333 379 440 508 591 692 791
2850.0 883 956 1030 1137 1359 1801 2363 2834 3159 3372
2890.0 3360 3293 3261 3357 3483 3547 3572 3599 3657 3819
2930.0 4114 4509 4852 5067 5249 5624 6332 7389 8846 9978
2970.0 10000 8826 7115 5150 3294 2120 1494 1150 944 810
3010.0 702 605 521 456 417 380 353 344 328 312
3050.0 307 290 275 260 249 231 217 201 190 182
3090.0 172 168 160 152 145 137 136 130 121 124
3130.0 123 124 124 121 120 126 123 118 127 121
3170.0 129 134 137 141 142 142 139 138 128 121
3210.0 114 109 103 97 89 81 83 79 71 71
3250.0 82 77 80 90 95 101 116 123 136 143
3290.0 137 130 122 115 106 101 88 91 83 80
3330.0 80 79 70 74 79 78 76 82 81 77
3370.0 75 69 70 72 74 72 73 76 67 60
3410.0 56 48 51 51 52 50 44 38 39 39
3450.0 39 35 36 35 31 38 33 33 29 32
3490.0 41 32 33 27 19 26 33 33 35 11
3530.0 28 41 25 43 26 26 39 25 51 20
3570.0 35 54 46 75 61 71 82 88 105 121
3610.0 136 202 257 415 650 1049 1762 2868 4489 5909
3650.0 6115 5985 5226 3548 1935 880 433 246 114 99
3690.0 79 63 58 57 47 36 33 44 21 27
3730.0 39 39 44 33 33 24 30 33 31 29
3770.0 38 26 37 31 43 39 30 44 51 61
3810.0 53 33 39 51 47 56 54 66 54 36
3850.0 44 59 57 43 33 48 39 68 40 56
3890.0 59 50 48 36 38 60 62 44 52 26
3930.0 46 36 54 72 52 48 42 51 46 52
##END=
