##TITLE=Benzene, 1,4-diethyl-
##JCAMP-DX=4.24
##DATA TYPE=INFRARED SPECTRUM
##ORIGIN=Sadtler Research Labs Under US-EPA Contract
##OWNER=NIST Standard Reference Data Program
##CAS REGISTRY NO=105-05-5
##MOLFORM=C 10 H 14
##XUNITS=1/CM
##YUNITS=ABSORBANCE
##XFACTOR=1.0
##YFACTOR=0.000117343
##DELTAX=4.0
##FIRSTX=450.0
##LASTX=3966.0
##FIRSTY=0.019010
##MAXX=3966
##MINX=450
##MAXY=1.17343
##MINY=0
##NPOINTS=880
##XYDATA=(X++(Y..Y))
450.0 162 121 115 95 127 108 90 100 87 93
490.0 94 73 86 94 115 155 170 207 254 303
530.0 389 475 556 633 685 699 686 646 609 537
570.0 481 406 305 237 168 120 80 52 39 34
610.0 15 24 14 7 6 8 4 12 15 13
650.0 18 7 20 18 12 17 30 34 43 67
690.0 86 107 120 123 109 102 100 86 77 70
730.0 68 74 74 84 85 99 98 103 106 106
770.0 124 144 178 210 265 317 368 439 544 674
810.0 840 1048 1306 1561 1762 1915 1850 1552 1212 869
850.0 567 358 226 150 93 63 48 35 29 24
890.0 17 11 15 6 5 6 4 10 11 12
930.0 10 8 11 19 20 30 55 104 176 258
970.0 307 310 270 203 150 120 103 99 99 109
1010.0 160 269 366 376 378 308 239 219 224 240
1050.0 292 411 564 639 604 493 306 178 122 95
1090.0 86 93 106 134 180 234 293 324 325 301
1130.0 256 195 136 92 62 44 33 28 26 22
1170.0 21 18 23 24 28 33 41 55 73 95
1210.0 106 106 100 94 101 125 140 136 117 91
1250.0 71 66 67 69 74 77 86 95 111 127
1290.0 145 159 172 185 212 257 347 510 688 766
1330.0 742 609 415 283 211 172 152 150 160 187
1370.0 226 274 335 377 386 371 336 306 304 320
1410.0 359 428 475 517 538 551 544 570 629 725
1450.0 835 942 1004 1069 1074 987 861 706 582 501
1490.0 459 456 495 634 943 1536 2084 2122 1883 1230
1530.0 510 226 133 88 70 62 47 32 38 38
1570.0 36 36 33 33 42 43 45 45 53 58
1610.0 61 65 57 62 54 67 68 78 90 103
1650.0 108 126 136 133 118 102 74 61 33 25
1690.0 22 21 11 11 11 16 10 3 11 14
1730.0 10 3 10 12 11 13 29 38 49 62
1770.0 68 78 111 138 140 122 80 33 13 10
1810.0 6 5 6 5 3 1 6 10 8 8
1850.0 12 16 21 26 32 44 71 103 147 192
1890.0 221 231 220 192 140 89 53 32 18 13
1930.0 11 9 7 4 5 4 6 5 6 4
1970.0 5 4 6 5 2 1 2 4 7 9
2010.0 11 12 16 20 22 23 25 21 14 11
2050.0 8 6 4 1 1 1 0 2 0 1
2090.0 0 1 1 2 3 3 4 1 1 1
2130.0 1 3 4 4 7 7 7 11 9 9
2170.0 9 6 4 3 2 2 2 1 3 6
2210.0 5 6 8 9 11 13 13 13 15 16
2250.0 17 15 15 12 14 11 15 16 24 25
2290.0 28 34 41 47 48 52 44 41 36 30
2330.0 29 18 29 23 24 33 12 14 3 8
2370.0 1 9 10 14 14 9 8 8 7 11
2410.0 14 17 22 21 25 28 31 32 31 27
2450.0 21 16 12 11 9 10 10 12 12 15
2490.0 14 17 17 16 18 20 20 24 25 27
2530.0 30 28 27 25 24 23 21 22 23 19
2570.0 20 21 21 25 27 31 31 34 34 35
2610.0 36 36 40 47 55 66 75 80 74 66
2650.0 50 39 34 31 28 28 28 30 31 32
2690.0 33 40 43 45 46 47 51 53 57 66
2730.0 80 97 110 119 117 109 103 106 116 130
2770.0 146 165 169 170 167 163 161 159 162 166
2810.0 177 189 214 244 276 318 371 440 516 598
2850.0 705 858 1091 1434 1851 2255 2596 2915 3210 3302
2890.0 3161 2908 2575 2454 2510 2538 2530 2493 2592 2903
2930.0 3388 3992 4709 5294 5305 4952 4376 3974 4410 6443
2970.0 9494 10000 9772 7259 4332 3076 2511 2171 1975 1903
3010.0 1944 2092 2408 2777 2864 2699 2289 1680 1344 1278
3050.0 1299 1320 1296 1221 1094 933 781 671 603 572
3090.0 558 541 504 458 397 329 269 228 206 201
3130.0 201 206 209 206 192 172 157 155 152 150
3170.0 145 135 125 110 98 91 75 69 61 53
3210.0 49 43 42 40 37 32 31 32 27 28
3250.0 25 27 28 26 23 22 17 15 17 18
3290.0 21 20 19 20 14 16 20 17 20 18
3330.0 18 18 20 22 19 17 14 17 19 17
3370.0 16 10 14 14 11 18 19 19 19 16
3410.0 16 17 16 20 16 16 22 22 18 18
3450.0 17 13 13 17 15 16 15 13 18 16
3490.0 13 15 17 13 14 8 9 11 14 12
3530.0 13 14 10 7 16 8 14 7 7 11
3570.0 13 10 11 9 8 6 6 12 13 18
3610.0 13 13 15 16 18 11 8 14 15 18
3650.0 24 27 32 29 31 36 33 29 29 23
3690.0 29 24 21 20 30 32 28 17 26 23
3730.0 21 15 20 16 25 7 23 18 13 17
3770.0 14 19 13 8 1 2 6 6 4 19
3810.0 16 8 0 4 12 13 5 23 8 11
3850.0 15 21 10 2 5 10 10 10 4 5
3890.0 9 5 10 10 7 11 4 13 15 15
3930.0 17 35 32 26 22 18 20 22 20 8
##END=
