##TITLE=Acetic acid, cyano-, ethyl ester
##JCAMP-DX=4.24
##DATA TYPE=INFRARED SPECTRUM
##ORIGIN=Sadtler Research Labs Under US-EPA Contract
##OWNER=NIST Standard Reference Data Program
##CAS REGISTRY NO=105-56-6
##MOLFORM=C 5 H 7 N O 2
##XUNITS=1/CM
##YUNITS=ABSORBANCE
##XFACTOR=1.0
##YFACTOR=0.000063232
##DELTAX=4.0
##FIRSTX=450.0
##LASTX=3966.0
##FIRSTY=0.004110
##MAXX=3966
##MINX=450
##MAXY=0.63232
##MINY=0
##NPOINTS=880
##XYDATA=(X++(Y..Y))
450.0 65 65 106 110 113 117 49 106 76 65
490.0 55 51 91 9 33 24 35 78 12 66
530.0 23 46 79 68 41 94 41 93 68 92
570.0 181 143 216 192 191 251 272 321 218 275
610.0 281 209 281 180 223 147 132 160 112 167
650.0 85 162 189 138 207 216 217 274 261 313
690.0 228 232 251 240 257 211 231 234 250 250
730.0 220 228 216 204 224 239 223 243 199 257
770.0 233 271 296 269 291 252 268 279 247 284
810.0 214 241 236 234 295 254 359 385 501 587
850.0 599 640 578 494 383 280 272 205 205 196
890.0 176 215 227 241 277 321 354 422 429 456
930.0 453 453 422 390 388 317 304 283 301 311
970.0 258 288 249 251 274 245 302 334 403 491
1010.0 652 961 1276 1890 2543 3032 3361 3233 2946 2202
1050.0 1530 1081 793 675 593 536 490 477 529 567
1090.0 675 801 867 884 850 760 722 606 586 611
1130.0 645 778 933 1243 1688 2289 3104 3795 4431 4823
1170.0 4991 5043 4958 4900 4853 4737 4532 4151 3677 3146
1210.0 2729 2399 2226 2132 2138 2247 2403 2781 3293 4040
1250.0 4952 5938 6832 7214 7233 6877 6020 5061 4060 3317
1290.0 2836 2677 2652 2674 2669 2549 2417 2271 2247 2257
1330.0 2303 2199 1930 1664 1216 822 623 623 805 1069
1370.0 1277 1310 1298 1213 911 754 679 716 738 793
1410.0 840 817 805 739 691 633 587 541 539 549
1450.0 553 576 514 584 611 664 619 610 546 449
1490.0 369 311 237 219 152 153 143 134 113 119
1530.0 152 114 128 82 110 135 111 96 73 117
1570.0 117 121 117 121 142 126 119 133 111 128
1610.0 131 127 106 123 120 124 113 106 125 108
1650.0 116 61 137 136 137 132 135 154 152 136
1690.0 186 185 200 193 250 305 331 382 467 568
1730.0 672 784 1037 1354 1966 2860 4236 5958 7725 9028
1770.0 9286 10000 9383 7699 6035 4457 3111 2155 1481 1046
1810.0 754 570 452 374 319 280 245 230 200 177
1850.0 172 171 171 153 163 144 157 171 165 170
1890.0 152 149 142 121 129 99 112 104 89 104
1930.0 88 91 93 91 101 84 93 89 87 87
1970.0 79 87 78 78 79 79 82 85 85 85
2010.0 85 91 85 85 93 83 84 91 86 92
2050.0 79 79 81 81 83 67 82 75 75 89
2090.0 74 91 81 87 88 80 90 74 86 82
2130.0 73 80 63 65 63 55 56 49 55 50
2170.0 52 45 45 45 46 45 45 43 45 56
2210.0 34 49 48 48 56 43 59 51 60 73
2250.0 61 83 80 89 91 76 86 68 72 60
2290.0 56 73 65 89 86 101 106 89 116 92
2330.0 100 86 84 96 123 132 132 132 114 83
2370.0 65 82 85 82 65 46 44 38 36 36
2410.0 29 43 26 45 37 30 39 26 35 28
2450.0 34 34 26 42 25 41 37 31 45 30
2490.0 41 35 32 41 24 39 31 32 37 23
2530.0 31 34 29 30 30 30 29 29 29 22
2570.0 22 28 22 29 20 23 33 19 29 19
2610.0 32 21 19 34 19 21 15 19 25 13
2650.0 22 11 17 20 19 19 19 27 19 21
2690.0 28 18 29 20 20 20 20 22 21 21
2730.0 29 29 30 31 31 30 28 27 31 31
2770.0 45 34 39 48 40 57 40 51 55 42
2810.0 63 54 60 55 63 83 60 90 67 71
2850.0 89 85 111 109 131 146 174 212 247 287
2890.0 304 321 337 344 364 395 420 435 444 443
2930.0 476 505 590 689 746 786 768 754 708 686
2970.0 745 833 1050 1324 1627 1769 1799 1793 1624 1301
3010.0 1062 886 767 596 488 359 280 224 161 159
3050.0 111 103 94 78 73 72 63 62 47 59
3090.0 48 49 59 51 49 51 43 51 42 47
3130.0 54 42 64 44 56 47 42 55 38 55
3170.0 44 57 59 39 64 46 42 46 42 65
3210.0 40 56 49 41 48 34 50 47 45 46
3250.0 39 43 34 35 43 27 35 29 28 39
3290.0 33 37 43 24 44 32 28 40 22 46
3330.0 29 34 36 19 48 13 41 35 31 54
3370.0 10 42 19 27 40 20 48 18 30 42
3410.0 22 38 25 33 38 37 36 29 38 38
3450.0 29 29 39 28 43 39 38 33 31 47
3490.0 24 49 46 60 78 80 110 95 112 126
3530.0 85 116 76 90 74 52 66 40 48 26
3570.0 23 56 27 48 29 19 47 22 55 29
3610.0 25 27 15 37 37 13 41 41 47 33
3650.0 10 49 41 50 48 24 47 29 43 56
3690.0 26 52 36 59 44 36 45 34 46 35
3730.0 36 42 29 40 10 21 31 38 55 39
3770.0 58 62 59 65 55 70 60 48 49 57
3810.0 59 50 43 43 42 42 52 39 49 47
3850.0 52 31 49 60 45 54 69 54 62 48
3890.0 62 64 50 64 56 74 74 55 73 47
3930.0 65 57 59 72 66 85 0 7 7 7
##END=
