##TITLE=Propanedioic acid, diethyl ester
##JCAMP-DX=4.24
##DATA TYPE=INFRARED SPECTRUM
##ORIGIN=Sadtler Research Labs Under US-EPA Contract
##OWNER=NIST Standard Reference Data Program
##CAS REGISTRY NO=105-53-3
##MOLFORM=C 7 H 12 O 4
##XUNITS=1/CM
##YUNITS=ABSORBANCE
##XFACTOR=1.0
##YFACTOR=0.000160132
##DELTAX=4.0
##FIRSTX=450.0
##LASTX=3966.0
##FIRSTY=0.002882
##MAXX=3966
##MINX=450
##MAXY=1.60132
##MINY=0
##NPOINTS=880
##XYDATA=(X++(Y..Y))
450.0 18 207 259 228 219 191 176 222 167 202
490.0 154 215 209 191 225 254 237 217 246 221
530.0 233 252 242 234 236 243 272 312 302 347
570.0 323 410 392 433 421 479 540 468 345 390
610.0 341 327 322 316 312 341 297 334 318 285
650.0 243 190 162 140 156 226 288 290 288 212
690.0 132 66 37 31 15 15 11 11 12 29
730.0 20 2 26 47 51 69 82 103 116 132
770.0 148 148 166 165 166 164 157 145 145 137
810.0 133 136 135 132 131 154 185 218 259 300
850.0 329 341 331 316 291 258 232 197 156 132
890.0 112 113 106 114 112 125 145 180 225 268
930.0 313 348 376 380 381 363 333 295 247 216
970.0 179 170 159 157 154 155 172 220 245 305
1010.0 393 531 734 1030 1500 2161 3019 3842 4236 4030
1050.0 3223 2254 1577 1181 950 816 742 736 782 895
1090.0 1092 1359 1635 1816 1912 1922 1963 2088 2295 2571
1130.0 2925 3419 4007 4683 5212 5413 5275 4935 4541 4253
1170.0 4101 4030 4037 4061 4048 3938 3762 3572 3423 3383
1210.0 3383 3402 3407 3384 3330 3302 3267 3295 3354 3452
1250.0 3559 3666 3730 3741 3711 3600 3439 3280 3109 2956
1290.0 2850 2814 2827 2915 3029 3163 3330 3546 3841 4089
1330.0 4011 3526 2773 1929 1336 1016 879 881 1062 1460
1370.0 1796 1893 1774 1377 1027 849 783 774 776 800
1410.0 827 843 849 790 732 644 581 524 508 516
1450.0 537 555 561 593 644 681 686 626 517 420
1490.0 342 254 208 170 146 135 129 112 106 97
1530.0 97 88 79 82 78 76 64 69 49 64
1570.0 57 53 48 58 55 53 59 57 57 59
1610.0 65 53 53 49 56 48 54 54 62 57
1650.0 78 53 81 81 92 96 117 121 157 158
1690.0 197 231 264 332 405 515 629 792 929 1108
1730.0 1349 1719 2320 3217 4685 6265 8057 9105 10000 9559
1770.0 8934 7960 6563 5144 3784 2794 2160 1771 1474 1215
1810.0 991 798 628 507 412 342 282 241 203 185
1850.0 161 140 132 121 119 114 107 107 106 105
1890.0 101 100 91 86 76 72 65 60 58 49
1930.0 44 44 43 43 45 46 48 47 51 56
1970.0 56 53 56 56 52 60 59 55 51 53
2010.0 50 47 47 45 40 35 37 37 36 38
2050.0 38 33 36 37 39 35 38 38 38 42
2090.0 48 41 41 39 39 37 35 35 32 32
2130.0 31 30 27 26 27 24 21 19 17 12
2170.0 12 9 7 7 10 8 8 8 11 11
2210.0 12 12 14 15 13 15 18 17 17 19
2250.0 18 19 22 20 20 23 15 17 15 17
2290.0 24 27 31 41 44 49 54 54 58 54
2330.0 55 60 50 49 53 53 51 46 66 43
2370.0 49 51 51 43 22 13 13 13 14 13
2410.0 14 17 17 18 16 16 19 15 15 17
2450.0 16 20 17 17 18 21 18 18 15 18
2490.0 18 10 13 14 15 11 13 12 12 12
2530.0 13 10 11 15 11 7 10 7 10 11
2570.0 9 9 5 8 9 7 5 14 11 9
2610.0 11 8 18 12 2 7 7 0 4 0
2650.0 2 11 5 10 8 9 14 15 13 22
2690.0 9 16 16 20 22 28 29 31 28 28
2730.0 34 30 35 35 34 31 39 38 33 38
2770.0 40 49 48 50 51 49 46 48 50 52
2810.0 55 55 59 70 75 83 89 88 89 99
2850.0 114 120 138 157 170 199 245 297 359 414
2890.0 428 443 454 470 511 563 608 630 619 620
2930.0 634 713 835 1011 1095 1133 1078 1001 990 1032
2970.0 1154 1333 1604 2030 2393 2531 2392 2029 1659 1380
3010.0 1141 931 734 565 438 335 269 227 190 156
3050.0 131 114 105 96 92 83 68 63 58 63
3090.0 60 60 60 59 55 55 54 54 54 48
3130.0 53 53 53 51 51 50 43 44 40 48
3170.0 44 47 46 45 40 42 41 35 33 38
3210.0 33 26 32 19 22 43 28 24 34 20
3250.0 20 1 12 27 42 33 32 26 38 33
3290.0 37 43 35 47 57 58 60 65 49 70
3330.0 62 50 59 45 60 61 52 46 47 45
3370.0 44 44 43 41 35 43 38 34 37 37
3410.0 38 43 36 31 39 39 40 33 36 34
3450.0 35 25 29 36 33 44 40 51 41 67
3490.0 81 87 100 116 125 129 124 96 78 80
3530.0 65 57 45 59 47 51 43 51 74 104
3570.0 171 223 245 250 241 176 102 70 54 50
3610.0 41 30 34 35 21 23 29 27 42 33
3650.0 35 42 28 44 37 35 28 31 32 44
3690.0 37 39 49 28 29 32 32 24 33 37
3730.0 28 35 42 42 14 20 42 31 27 31
3770.0 24 29 26 31 39 38 39 31 25 33
3810.0 35 28 31 20 22 27 30 27 8 51
3850.0 29 35 24 33 45 42 34 26 46 26
3890.0 26 47 43 32 42 30 41 36 31 52
3930.0 36 38 56 38 8 39 41 40 29 48
##END=
