##TITLE=Caprolactam
##JCAMP-DX=4.24
##DATA TYPE=INFRARED SPECTRUM
##ORIGIN=Sadtler Research Labs Under US-EPA Contract
##OWNER=NIST Standard Reference Data Program
##CAS REGISTRY NO=105-60-2
##MOLFORM=C 6 H 11 N O
##XUNITS=1/CM
##YUNITS=ABSORBANCE
##XFACTOR=1.0
##YFACTOR=0.000078391
##DELTAX=4.0
##FIRSTX=450.0
##LASTX=3966.0
##FIRSTY=0.006271
##MAXX=3966
##MINX=450
##MAXY=0.78391
##MINY=0
##NPOINTS=880
##XYDATA=(X++(Y..Y))
450.0 80 66 138 233 376 466 549 618 660 697
490.0 691 725 726 726 708 657 576 542 476 459
530.0 381 319 299 273 243 307 301 310 385 398
570.0 453 499 430 458 349 352 276 195 173 191
610.0 203 108 135 126 116 84 90 81 67 42
650.0 77 72 93 117 81 161 153 186 219 242
690.0 288 321 320 300 271 259 244 215 190 165
730.0 168 147 141 127 112 85 81 63 37 47
770.0 9 20 21 49 66 59 39 52 60 55
810.0 73 70 49 80 83 107 119 137 128 154
850.0 166 166 198 231 220 226 238 212 171 150
890.0 126 107 100 73 83 66 50 62 69 72
930.0 118 149 200 238 278 306 313 324 304 264
970.0 254 238 225 225 219 212 206 208 234 254
1010.0 257 273 267 244 227 182 160 126 125 126
1050.0 138 152 172 201 232 274 286 322 341 310
1090.0 288 227 213 182 222 308 423 497 540 518
1130.0 502 424 278 190 176 191 231 244 281 299
1170.0 330 351 404 477 578 674 676 665 641 591
1210.0 513 470 496 549 551 562 567 558 510 468
1250.0 472 494 499 493 486 446 388 355 360 412
1290.0 512 668 834 915 927 931 948 890 762 717
1330.0 719 744 823 1006 1141 1238 1335 1364 1329 1228
1370.0 1101 961 801 710 645 626 628 597 532 525
1410.0 568 695 837 1052 1216 1375 1468 1536 1499 1418
1450.0 1434 1383 1355 1283 1276 1225 1114 920 728 528
1490.0 380 231 193 122 161 105 96 111 135 101
1530.0 81 101 86 137 95 80 85 108 75 54
1570.0 64 46 61 38 62 65 80 84 99 105
1610.0 125 143 165 170 180 181 185 218 213 231
1650.0 256 320 332 409 494 661 850 1176 1536 2063
1690.0 2654 3511 5124 7110 8622 9406 10000 9305 8440 6624
1730.0 4066 2292 1320 917 693 543 433 346 310 256
1770.0 248 244 221 208 210 207 210 185 152 126
1810.0 119 103 76 82 77 77 52 39 23 37
1850.0 23 34 27 33 37 38 19 28 30 28
1890.0 28 18 15 10 12 14 6 18 11 13
1930.0 9 8 7 4 17 7 7 7 7 7
1970.0 6 2 7 7 13 6 10 7 8 8
2010.0 7 7 6 6 7 7 8 8 5 7
2050.0 8 0 4 5 6 7 1 8 6 6
2090.0 6 7 7 7 7 7 7 6 6 6
2130.0 6 7 6 5 7 6 6 6 12 11
2170.0 7 19 5 13 24 18 18 11 16 11
2210.0 10 8 5 3 13 16 16 10 10 9
2250.0 10 17 4 13 15 12 9 11 12 10
2290.0 7 9 20 24 27 28 32 33 49 42
2330.0 71 30 46 55 43 54 69 60 49 33
2370.0 35 22 37 35 19 9 12 7 13 12
2410.0 7 13 5 11 7 6 9 14 6 19
2450.0 7 8 14 8 8 8 8 8 8 8
2490.0 9 13 14 15 20 14 15 14 13 16
2530.0 18 23 18 23 14 13 17 20 16 15
2570.0 9 16 11 18 10 8 24 12 21 28
2610.0 11 22 29 17 23 29 30 24 23 40
2650.0 36 35 35 43 42 37 49 55 56 58
2690.0 60 66 61 62 59 72 51 58 61 61
2730.0 42 56 50 54 55 45 50 54 52 58
2770.0 63 68 61 69 82 89 98 102 111 119
2810.0 118 123 129 131 137 155 186 238 298 397
2850.0 546 760 933 1077 1257 1236 1276 1201 1105 973
2890.0 877 801 784 797 867 977 1196 1597 2176 2833
2930.0 3422 3963 4984 4958 3856 3370 2813 2152 1669 1359
2970.0 1137 1134 1094 900 686 518 377 262 177 139
3010.0 113 99 109 84 84 57 64 52 43 23
3050.0 36 35 41 30 39 25 30 31 18 41
3090.0 43 34 29 33 31 43 35 50 46 62
3130.0 51 52 52 55 42 46 44 42 36 44
3170.0 30 31 31 18 31 32 18 23 21 20
3210.0 25 18 19 18 19 17 23 18 27 23
3250.0 18 22 21 12 26 12 24 31 18 26
3290.0 13 10 13 14 15 18 21 12 13 18
3330.0 1 13 18 19 9 6 11 2 21 35
3370.0 23 25 24 32 20 75 82 77 115 102
3410.0 125 122 139 187 241 342 380 469 497 518
3450.0 513 465 402 313 236 144 85 45 48 22
3490.0 30 38 21 26 27 15 14 18 46 17
3530.0 29 31 17 42 23 33 22 32 34 24
3570.0 16 23 12 40 24 45 33 29 42 29
3610.0 29 58 30 21 57 52 30 18 26 28
3650.0 80 7 19 18 40 41 49 16 56 28
3690.0 39 16 29 31 47 61 20 36 41 61
3730.0 63 54 60 67 68 67 24 41 31 34
3770.0 12 18 32 25 42 37 45 43 57 51
3810.0 27 44 24 42 38 53 47 46 33 35
3850.0 33 41 52 44 56 63 33 35 29 53
3890.0 47 67 45 37 31 43 48 44 37 43
3930.0 39 22 30 28 28 37 42 45 47 37
##END=
