##TITLE=2,6-Octadien-1-ol, 3,7-dimethyl-, propanoate, (Z)-
##JCAMP-DX=4.24
##DATA TYPE=INFRARED SPECTRUM
##ORIGIN=Sadtler Research Labs Under US-EPA Contract
##OWNER=NIST Standard Reference Data Program
##CAS REGISTRY NO=105-91-9
##MOLFORM=C 13 H 22 O 2
##XUNITS=1/CM
##YUNITS=ABSORBANCE
##XFACTOR=1.0
##YFACTOR=0.000052148
##DELTAX=4.0
##FIRSTX=450.0
##LASTX=3966.0
##FIRSTY=0.009230
##MAXX=3966
##MINX=450
##MAXY=0.52148
##MINY=0
##NPOINTS=880
##XYDATA=(X++(Y..Y))
450.0 177 166 225 261 203 260 314 250 134 169
490.0 208 163 289 213 134 339 272 127 99 221
530.0 183 233 107 163 275 260 291 153 447 429
570.0 213 461 338 403 574 498 239 561 427 297
610.0 332 229 347 313 238 209 180 332 208 125
650.0 154 259 122 191 155 14 340 217 156 243
690.0 291 251 347 214 253 265 299 216 304 352
730.0 445 251 538 257 414 447 355 257 445 415
770.0 380 415 425 434 556 433 505 539 700 651
810.0 664 779 816 809 883 894 836 913 779 665
850.0 669 628 562 539 488 536 519 562 512 639
890.0 677 706 537 583 528 572 600 605 603 777
930.0 796 959 1174 1344 1380 1387 1201 1144 1063 1036
970.0 950 932 1003 1060 1126 1273 1414 1654 1976 2067
1010.0 2143 2169 1925 1710 1455 1269 1227 1211 1247 1329
1050.0 1491 1729 1914 2131 2393 2486 2509 2670 2586 2548
1090.0 2399 2039 1916 1839 1767 1751 1690 1595 1563 1550
1130.0 1503 1485 1501 1665 1821 2006 2400 2766 3583 4782
1170.0 6257 8035 10000 9708 9587 8398 7277 6484 6022 5456
1210.0 5013 4413 3994 3472 3202 2931 2716 2508 2422 2206
1250.0 2187 2136 2052 2072 2192 2237 2428 2445 2294 1979
1290.0 1654 1327 1128 1020 997 971 998 1156 1308 1633
1330.0 1850 1880 1952 2084 2144 2315 2331 2150 1904 1726
1370.0 1580 1755 1941 2275 2249 2027 1642 1309 1053 928
1410.0 804 847 859 859 969 1189 1311 1552 1669 1758
1450.0 1825 1912 1864 1970 2067 2074 1713 1306 1013 794
1490.0 675 615 488 529 535 453 470 410 356 363
1530.0 359 280 338 267 282 280 264 261 219 257
1570.0 249 226 260 254 235 246 284 243 295 269
1610.0 265 315 276 277 271 318 345 319 375 375
1650.0 397 378 457 499 667 715 634 534 443 338
1690.0 409 410 408 472 598 674 806 872 1102 1301
1730.0 1653 2107 2859 4030 5702 7690 9900 9737 7528 5318
1770.0 3624 2520 1948 1485 1171 961 770 651 510 438
1810.0 387 336 308 269 220 237 221 183 193 173
1850.0 172 206 152 161 159 178 128 157 139 166
1890.0 130 138 119 135 135 138 86 145 122 125
1930.0 126 128 113 162 125 129 137 141 141 130
1970.0 130 149 127 148 126 110 146 142 111 127
2010.0 132 117 152 107 115 132 133 114 109 110
2050.0 122 112 115 95 105 122 110 70 121 105
2090.0 109 108 92 97 118 95 76 107 93 97
2130.0 84 74 94 82 94 67 76 102 84 66
2170.0 87 81 70 99 69 69 108 76 86 71
2210.0 93 83 91 67 71 70 85 54 45 63
2250.0 72 43 72 40 57 65 60 42 70 69
2290.0 69 59 48 69 46 43 18 13 58 22
2330.0 8 58 13 8 8 26 8 75 8 8
2370.0 9 46 47 68 55 75 57 75 48 57
2410.0 76 93 56 101 58 88 101 77 69 97
2450.0 87 76 86 77 85 98 82 78 68 93
2490.0 71 49 81 73 74 77 67 59 98 60
2530.0 62 71 81 82 72 63 80 80 94 58
2570.0 69 86 95 58 93 60 76 104 63 73
2610.0 93 88 86 77 79 97 110 86 105 104
2650.0 133 117 99 130 120 115 127 97 128 146
2690.0 129 105 148 127 147 132 141 147 178 174
2730.0 194 217 276 268 263 252 242 216 253 187
2770.0 213 240 218 214 234 235 256 278 280 306
2810.0 345 385 393 418 509 578 647 827 917 1188
2850.0 1468 1788 2136 2565 2734 2897 2884 2867 2880 2996
2890.0 3099 3276 3391 3631 3732 4093 4566 4985 5375 5879
2930.0 5770 5843 5793 5462 5150 4991 4773 4791 4736 4858
2970.0 4975 4966 4780 4590 4472 4402 3880 3215 2729 2229
3010.0 1981 1766 1505 1344 1276 1141 1054 953 850 789
3050.0 752 646 604 555 566 463 441 420 376 374
3090.0 360 275 267 281 207 197 209 186 210 170
3130.0 156 145 171 154 122 114 151 131 101 121
3170.0 80 106 144 42 94 92 91 78 79 63
3210.0 104 80 63 44 82 93 61 29 94 41
3250.0 97 64 42 60 98 34 44 63 31 74
3290.0 39 30 48 68 46 21 51 80 37 53
3330.0 52 63 70 126 12 97 97 92 73 91
3370.0 50 121 75 64 43 88 66 65 10 91
3410.0 35 69 39 16 56 85 15 38 70 37
3450.0 72 74 40 89 102 103 78 111 175 144
3490.0 172 150 142 130 154 45 94 110 65 71
3530.0 59 48 100 66 47 52 80 68 55 54
3570.0 70 69 74 79 43 80 95 46 48 71
3610.0 46 62 66 14 74 42 34 36 48 74
3650.0 28 27 54 46 81 46 8 24 97 27
3690.0 52 31 49 73 76 37 37 66 67 26
3730.0 34 29 43 39 34 8 44 46 8 20
3770.0 43 8 18 14 8 28 50 19 11 24
3810.0 56 48 18 67 57 106 84 59 69 132
3850.0 69 85 75 84 107 95 37 74 59 71
3890.0 16 24 10 31 7 39 8 54 78 28
3930.0 61 87 86 105 98 101 0 8 8 8
##END=
