##TITLE=Ethane, 1,1-diethoxy-
##JCAMP-DX=4.24
##DATA TYPE=INFRARED SPECTRUM
##ORIGIN=Sadtler Research Labs Under US-EPA Contract
##OWNER=NIST Standard Reference Data Program
##CAS REGISTRY NO=105-57-7
##MOLFORM=C 6 H 14 O 2
##XUNITS=1/CM
##YUNITS=ABSORBANCE
##XFACTOR=1.0
##YFACTOR=0.000129807
##DELTAX=4.0
##FIRSTX=450.0
##LASTX=3966.0
##FIRSTY=0.005322
##MAXX=3966
##MINX=450
##MAXY=1.29807
##MINY=0
##NPOINTS=880
##XYDATA=(X++(Y..Y))
450.0 41 80 61 38 48 52 28 27 32 19
490.0 25 28 23 51 51 71 111 171 229 238
530.0 259 251 216 158 111 100 75 56 61 61
570.0 41 39 34 34 23 22 12 11 6 7
610.0 6 0 5 3 8 1 0 10 17 23
650.0 37 33 40 28 21 22 8 5 4 11
690.0 8 9 7 9 12 6 8 0 1 7
730.0 13 19 22 28 36 38 36 50 60 76
770.0 90 113 140 167 172 195 210 233 257 277
810.0 298 315 316 325 360 413 503 634 779 936
850.0 1069 1123 1060 923 741 542 375 278 234 204
890.0 198 220 264 328 423 526 620 708 791 902
930.0 1079 1343 1693 2095 2513 2825 2930 2779 2435 1923
970.0 1364 901 599 444 372 345 338 352 388 452
1010.0 563 732 971 1261 1565 1852 2144 2496 2944 3584
1050.0 4376 5206 5865 6175 6145 5929 5896 6164 6726 7622
1090.0 8621 9547 9889 10000 9903 9618 8966 8202 7649 7551
1130.0 7870 8496 9176 9643 9654 9138 8126 6916 5747 4776
1170.0 4053 3560 3179 2877 2609 2355 2089 1818 1556 1323
1210.0 1116 951 826 733 652 577 515 471 444 418
1250.0 400 379 370 369 381 400 417 427 438 456
1290.0 477 503 534 563 585 606 619 631 673 791
1330.0 1035 1426 1869 2185 2273 2105 1605 1180 1098 1407
1370.0 2054 2848 3483 3846 3795 3456 2928 2383 1934 1545
1410.0 1244 983 815 667 600 563 619 689 809 900
1450.0 946 926 836 760 660 579 516 479 434 427
1490.0 375 309 250 215 150 150 126 103 86 75
1530.0 81 56 58 35 58 47 35 19 13 27
1570.0 16 26 3 26 21 33 33 48 51 61
1610.0 65 62 56 71 84 69 71 63 76 56
1650.0 84 22 64 44 44 25 41 21 39 12
1690.0 31 19 19 10 34 36 46 48 64 67
1730.0 81 75 85 90 122 122 134 150 153 153
1770.0 153 133 123 107 90 82 75 88 85 70
1810.0 63 53 39 34 26 24 24 16 24 20
1850.0 22 17 23 24 31 33 36 40 44 52
1890.0 58 68 74 79 87 90 96 93 103 97
1930.0 96 96 97 100 102 99 99 100 98 101
1970.0 98 97 97 95 94 97 92 85 78 68
2010.0 58 49 40 33 23 16 13 12 12 11
2050.0 10 10 8 10 12 9 10 10 12 11
2090.0 13 14 12 13 11 9 8 9 9 8
2130.0 10 11 14 17 17 19 20 20 22 19
2170.0 22 22 22 24 25 28 30 28 29 28
2210.0 26 25 23 23 21 20 21 18 20 16
2250.0 15 14 14 14 14 15 16 17 19 21
2290.0 19 22 22 22 18 15 11 9 6 9
2330.0 8 5 3 6 9 7 0 3 5 2
2370.0 4 10 7 5 1 1 1 1 4 8
2410.0 13 16 17 20 23 23 23 20 20 17
2450.0 13 11 11 8 7 3 3 5 1 2
2490.0 1 0 0 2 2 2 1 4 5 5
2530.0 4 7 7 7 6 9 10 8 9 9
2570.0 10 12 14 14 19 25 34 43 54 66
2610.0 75 83 93 104 118 138 159 182 203 219
2650.0 218 213 204 199 191 177 166 155 143 136
2690.0 134 141 151 160 173 189 201 218 231 244
2730.0 256 269 287 300 316 334 361 390 415 437
2770.0 451 461 474 487 505 525 543 560 575 589
2810.0 605 626 659 704 760 833 917 1035 1175 1337
2850.0 1528 1743 1990 2273 2593 2938 3312 3663 3898 3988
2890.0 4049 4082 4076 4159 4359 4472 4333 4090 3819 3588
2930.0 3541 3704 3901 4022 3990 3792 3393 2998 2805 2929
2970.0 3463 4372 5532 6867 7677 7642 6963 6024 4808 3290
3010.0 2209 1552 1139 873 703 595 509 439 378 325
3050.0 277 238 212 189 174 162 153 144 133 126
3090.0 119 112 109 104 102 102 96 100 94 91
3130.0 89 83 78 74 69 66 63 64 68 68
3170.0 69 73 72 76 78 80 72 75 75 72
3210.0 70 65 61 57 49 40 31 26 22 16
3250.0 15 11 9 7 7 7 10 6 6 2
3290.0 2 4 0 2 1 4 6 6 8 8
3330.0 9 10 10 14 5 8 9 4 3 8
3370.0 9 9 5 3 7 7 5 5 8 6
3410.0 10 10 9 9 7 7 9 12 12 12
3450.0 11 8 12 5 10 8 8 9 9 12
3490.0 5 4 7 14 11 3 3 6 10 16
3530.0 14 6 12 5 14 15 3 24 13 27
3570.0 20 10 9 11 23 23 13 25 12 13
3610.0 21 17 17 14 23 6 27 25 28 29
3650.0 17 32 32 33 34 24 42 16 41 42
3690.0 32 40 37 35 40 35 35 34 38 45
3730.0 35 23 31 46 10 32 10 32 23 25
3770.0 33 24 25 35 32 24 30 28 7 27
3810.0 36 29 17 16 31 32 19 13 43 32
3850.0 43 2 37 34 36 23 30 34 34 19
3890.0 42 22 34 16 20 26 40 26 28 29
3930.0 24 23 24 23 37 36 38 34 33 22
##END=
