##TITLE=Hexanoic acid, 2-methylpropyl ester
##JCAMP-DX=4.24
##DATA TYPE=INFRARED SPECTRUM
##ORIGIN=Sadtler Research Labs Under US-EPA Contract
##OWNER=NIST Standard Reference Data Program
##CAS REGISTRY NO=105-79-3
##MOLFORM=C 10 H 20 O 2
##XUNITS=1/CM
##YUNITS=ABSORBANCE
##XFACTOR=1.0
##YFACTOR=0.000069931
##DELTAX=4.0
##FIRSTX=450.0
##LASTX=3966.0
##FIRSTY=0.007203
##MAXX=3966
##MINX=450
##MAXY=0.69931
##MINY=0
##NPOINTS=880
##XYDATA=(X++(Y..Y))
450.0 103 100 105 125 113 100 99 82 84 91
490.0 101 87 89 108 112 106 84 88 43 81
530.0 73 14 115 103 47 116 102 55 100 59
570.0 97 195 39 74 95 91 126 121 112 127
610.0 116 129 163 164 170 147 126 127 93 78
650.0 66 84 72 33 0 81 58 43 58 74
690.0 75 84 100 79 90 115 139 147 103 174
730.0 168 246 223 218 193 163 149 102 92 106
770.0 106 92 99 118 88 112 114 119 115 125
810.0 139 142 153 153 162 163 170 185 190 187
850.0 214 210 189 214 221 223 211 219 233 241
890.0 256 282 323 345 361 390 391 406 406 419
930.0 403 396 410 431 453 445 432 426 440 434
970.0 433 459 513 626 767 964 1237 1561 1884 2161
1010.0 2311 2344 2218 1990 1784 1594 1383 1171 984 837
1050.0 727 685 698 746 815 886 967 1065 1226 1459
1090.0 1786 2159 2465 2666 2708 2676 2533 2266 1979 1767
1130.0 1702 1765 1935 2247 2750 3518 4613 6018 7414 8372
1170.0 8465 7825 6754 5698 4776 4035 3458 3127 3045 3144
1210.0 3325 3509 3638 3767 3931 4086 4252 4352 4320 4113
1250.0 3706 3181 2697 2323 2110 1988 1924 1890 1910 1951
1290.0 1984 1942 1802 1660 1579 1565 1549 1493 1357 1246
1330.0 1204 1243 1377 1523 1650 1726 1706 1619 1503 1441
1370.0 1555 1853 2283 2456 2215 1652 1225 996 842 709
1410.0 594 541 574 610 692 773 826 851 895 962
1450.0 1101 1294 1497 1701 1841 1854 1711 1437 1114 823
1490.0 584 417 311 260 220 184 181 148 138 124
1530.0 123 105 104 87 96 95 72 55 71 68
1570.0 63 65 68 77 71 82 72 81 80 80
1610.0 78 70 82 78 84 77 78 86 98 78
1650.0 90 95 107 102 127 113 138 146 159 195
1690.0 221 252 297 370 459 548 635 762 914 1102
1730.0 1422 1942 2879 4356 6380 8540 10000 9806 8232 5872
1770.0 3809 2448 1716 1270 975 767 600 475 396 321
1810.0 263 228 188 170 137 122 112 98 84 73
1850.0 78 68 64 63 58 64 63 55 52 41
1890.0 42 50 49 46 46 41 42 42 59 58
1930.0 54 56 44 50 52 48 45 40 40 47
1970.0 39 39 30 39 36 37 31 44 43 45
2010.0 44 54 48 52 51 61 58 52 59 52
2050.0 60 60 51 51 46 60 52 43 45 39
2090.0 45 50 50 54 40 38 39 31 37 30
2130.0 29 30 36 29 29 27 30 28 28 15
2170.0 17 28 21 21 22 29 21 29 21 24
2210.0 25 21 25 22 22 14 14 22 21 15
2250.0 28 14 23 15 15 15 24 25 26 28
2290.0 38 36 40 41 38 38 21 19 15 17
2330.0 9 18 25 27 36 0 0 0 0 0
2370.0 26 29 31 37 30 19 24 26 33 26
2410.0 25 24 24 18 18 10 18 18 18 10
2450.0 18 10 11 17 11 11 5 10 9 9
2490.0 14 7 9 10 2 4 17 11 10 18
2530.0 20 23 22 24 29 31 25 32 26 27
2570.0 27 32 28 33 36 37 42 43 39 33
2610.0 35 42 41 43 36 44 44 63 57 63
2650.0 62 69 71 73 79 79 79 87 87 94
2690.0 85 87 84 84 93 88 89 94 109 116
2730.0 131 161 168 167 159 159 153 142 144 132
2770.0 139 138 147 153 163 183 192 192 209 234
2810.0 253 272 305 351 374 430 458 518 599 689
2850.0 841 1044 1335 1711 2140 2545 2897 3275 3664 3812
2890.0 3684 3339 3102 3007 3018 3143 3391 3760 4223 4755
2930.0 5353 6013 6641 7128 7291 7166 6986 7131 7868 8950
2970.0 9936 9894 8899 6897 4768 3027 1926 1337 982 764
3010.0 611 507 450 392 357 313 296 262 233 216
3050.0 193 192 177 163 163 140 147 136 130 134
3090.0 138 122 120 116 100 108 101 110 86 94
3130.0 100 91 100 98 107 96 86 109 109 110
3170.0 116 107 109 100 110 97 89 85 77 97
3210.0 67 48 55 55 47 32 31 37 26 28
3250.0 32 32 31 17 14 7 21 28 27 21
3290.0 19 18 28 23 41 25 22 15 9 16
3330.0 16 15 5 22 28 22 28 16 26 35
3370.0 34 37 24 17 30 46 20 12 16 30
3410.0 35 24 16 34 26 37 24 39 23 6
3450.0 24 18 29 46 31 54 37 46 68 90
3490.0 96 97 88 62 26 24 22 30 29 10
3530.0 11 12 27 35 35 6 16 25 17 29
3570.0 68 97 99 83 76 58 29 36 28 29
3610.0 19 6 8 19 26 27 34 43 31 30
3650.0 30 38 44 29 24 30 29 50 43 41
3690.0 38 36 38 30 38 30 47 58 48 29
3730.0 27 33 24 33 33 39 40 40 32 37
3770.0 59 45 61 42 38 30 52 33 38 44
3810.0 65 47 40 35 38 52 56 43 58 60
3850.0 78 92 85 83 75 79 64 63 62 68
3890.0 68 74 71 84 84 73 55 65 80 78
3930.0 67 51 54 79 81 67 33 43 57 69
##END=
