##TITLE=2,6-Octadien-1-ol, 3,7-dimethyl-, formate, (E)-
##JCAMP-DX=4.24
##DATA TYPE=INFRARED SPECTRUM
##ORIGIN=Sadtler Research Labs Under US-EPA Contract
##OWNER=NIST Standard Reference Data Program
##CAS REGISTRY NO=105-86-2
##MOLFORM=C 11 H 18 O 2
##XUNITS=1/CM
##YUNITS=ABSORBANCE
##XFACTOR=1.0
##YFACTOR=0.000120273
##DELTAX=4.0
##FIRSTX=450.0
##LASTX=3966.0
##FIRSTY=0.012989
##MAXX=3966
##MINX=450
##MAXY=1.20273
##MINY=0
##NPOINTS=880
##XYDATA=(X++(Y..Y))
450.0 108 75 38 59 40 73 4 16 18 17
490.0 19 29 36 58 41 28 61 49 63 42
530.0 49 38 22 30 21 29 32 76 47 39
570.0 46 50 60 50 29 50 52 39 42 27
610.0 28 31 35 24 19 36 49 82 69 55
650.0 24 21 31 16 6 38 26 32 25 17
690.0 31 20 21 13 14 15 7 16 37 46
730.0 67 85 103 113 123 126 118 112 105 119
770.0 112 120 129 143 153 168 179 197 210 210
810.0 228 239 262 292 323 337 316 276 234 197
850.0 173 156 149 140 146 144 159 181 209 254
890.0 321 398 490 575 632 660 667 663 656 629
930.0 575 512 453 406 368 332 307 284 270 268
970.0 272 278 288 293 293 293 286 282 270 265
1010.0 256 255 243 243 240 244 253 258 266 268
1050.0 262 257 255 257 268 286 317 358 400 442
1090.0 483 515 550 603 764 759 846 933 1006 1090
1130.0 1214 1428 1780 2317 3138 4341 5963 7709 8907 9274
1170.0 8856 8121 7148 5905 4555 3360 2459 1862 1475 1212
1210.0 1024 881 777 699 643 598 558 524 503 492
1250.0 488 491 491 502 527 563 609 612 559 469
1290.0 393 344 321 316 320 314 305 284 289 285
1330.0 287 296 266 279 311 327 346 363 397 483
1370.0 601 728 911 1063 1074 941 703 483 371 303
1410.0 255 269 203 270 298 385 439 569 688 769
1450.0 811 828 829 851 835 758 604 487 412 279
1490.0 186 177 136 117 74 27 57 44 21 61
1530.0 49 70 46 17 26 67 60 19 59 72
1570.0 67 64 81 67 88 74 83 67 85 75
1610.0 77 83 62 84 57 104 79 89 108 120
1650.0 76 126 166 231 298 354 320 307 189 173
1690.0 206 263 276 383 503 654 762 907 1230 1645
1730.0 2167 2959 4427 7081 9900 10000 7249 4308 2903 2094
1770.0 1541 1207 993 815 762 646 484 376 275 227
1810.0 163 116 97 67 52 34 41 49 27 13
1850.0 26 40 32 27 15 0 19 25 21 18
1890.0 14 15 19 24 22 21 18 18 8 21
1930.0 25 22 27 14 21 29 30 29 35 28
1970.0 33 35 33 33 31 19 19 26 26 24
2010.0 21 17 13 17 21 25 27 25 24 26
2050.0 27 27 31 31 28 33 34 35 33 31
2090.0 32 33 33 29 26 27 25 21 18 18
2130.0 15 13 11 10 9 9 8 7 9 8
2170.0 9 9 9 10 10 9 7 8 9 8
2210.0 8 8 7 7 5 4 3 3 4 5
2250.0 6 6 8 10 10 11 14 17 21 24
2290.0 28 33 39 46 52 51 51 51 53 48
2330.0 48 44 45 44 46 41 30 26 20 21
2370.0 20 27 25 21 18 18 15 17 16 17
2410.0 16 16 14 17 16 16 17 17 15 14
2450.0 12 12 13 15 14 15 13 14 15 15
2490.0 15 15 16 16 19 14 18 18 18 20
2530.0 19 20 20 17 16 17 15 13 17 17
2570.0 16 17 17 16 18 18 19 19 19 20
2610.0 22 22 25 24 24 27 25 25 28 29
2650.0 29 30 34 34 32 34 37 40 44 43
2690.0 46 49 54 56 63 72 85 102 119 132
2730.0 140 147 158 165 154 137 119 111 105 102
2770.0 100 97 96 97 103 110 119 130 145 161
2810.0 180 197 220 246 280 330 398 494 610 747
2850.0 937 1157 1405 1646 1837 1942 1982 1990 2011 2061
2890.0 2148 2253 2390 2573 2838 3191 3650 4225 4881 5319
2930.0 5298 4826 4261 3745 3274 2889 2674 2673 2875 3185
2970.0 3442 3478 3228 2810 2384 2047 1761 1483 1228 1022
3010.0 881 785 717 669 620 578 531 486 441 405
3050.0 370 345 322 299 271 242 217 198 183 171
3090.0 164 149 142 131 128 133 139 140 126 100
3130.0 82 73 65 60 56 50 48 43 41 38
3170.0 37 36 36 33 34 33 31 30 29 28
3210.0 27 25 26 22 24 21 19 18 20 19
3250.0 17 15 15 15 17 13 15 16 13 14
3290.0 11 13 16 13 12 13 12 12 14 15
3330.0 13 14 14 13 15 17 12 9 13 15
3370.0 13 15 13 13 15 15 13 11 13 12
3410.0 11 12 11 6 8 8 10 15 14 14
3450.0 19 28 34 38 54 71 81 83 67 48
3490.0 32 24 14 9 3 11 12 15 10 4
3530.0 10 15 14 17 14 15 21 15 16 8
3570.0 11 16 21 25 27 27 22 25 24 17
3610.0 19 16 14 21 21 35 40 51 54 54
3650.0 61 42 42 28 32 34 26 27 13 14
3690.0 20 14 11 11 14 8 9 7 10 8
3730.0 9 13 14 9 19 14 17 8 12 5
3770.0 8 12 9 13 13 7 9 11 20 22
3810.0 15 17 16 27 14 16 17 26 17 12
3850.0 20 33 22 11 9 27 12 12 20 22
3890.0 18 24 17 9 19 20 20 21 7 16
3930.0 18 17 10 15 17 13 15 22 18 26
##END=
