##TITLE=Pentanedioic acid, 3-oxo-, diethyl ester
##JCAMP-DX=4.24
##DATA TYPE=INFRARED SPECTRUM
##ORIGIN=Sadtler Research Labs Under US-EPA Contract
##OWNER=NIST Standard Reference Data Program
##CAS REGISTRY NO=105-50-0
##MOLFORM=C 9 H 14 O 5
##XUNITS=1/CM
##YUNITS=ABSORBANCE
##XFACTOR=1.0
##YFACTOR=0.000042950
##DELTAX=4.0
##FIRSTX=450.0
##LASTX=3966.0
##FIRSTY=0.014904
##MAXX=3966
##MINX=450
##MAXY=0.4295
##MINY=0
##NPOINTS=880
##XYDATA=(X++(Y..Y))
450.0 347 158 85 100 90 30 121 134 123 135
490.0 182 192 186 183 243 234 234 259 281 333
530.0 357 313 374 399 364 376 327 245 218 178
570.0 187 142 147 157 156 157 158 156 115 143
610.0 137 139 131 170 147 146 165 120 111 83
650.0 93 45 58 15 47 51 16 30 26 26
690.0 30 0 22 15 28 38 28 62 125 154
730.0 193 237 240 214 148 147 123 117 106 121
770.0 135 166 201 246 272 329 377 440 513 521
810.0 560 584 594 588 577 547 528 530 538 523
850.0 513 504 493 488 458 414 367 343 317 277
890.0 259 266 264 251 257 254 266 290 342 397
930.0 454 469 470 455 393 341 299 245 225 216
970.0 217 227 237 268 316 360 416 465 536 652
1010.0 818 1022 1308 1698 2322 3062 3832 4479 4753 4764
1050.0 4543 4186 3722 3160 2729 2318 2078 2007 1921 1937
1090.0 2048 2290 2512 2615 2544 2465 2484 2582 2727 3070
1130.0 3767 4848 6264 7720 8604 8447 7753 7267 7039 6803
1170.0 6648 6551 6475 6372 6163 5805 5388 4970 4613 4377
1210.0 4293 4498 4846 5395 6330 7563 8736 9476 9446 8718
1250.0 7547 6334 5447 4874 4500 4264 4060 3887 3739 3650
1290.0 3635 3715 3882 4154 4467 4780 5094 5361 5382 4954
1330.0 4163 3257 2525 2055 1834 1796 1862 2004 2211 2630
1370.0 3039 3217 3058 2595 2199 1989 1963 1838 1813 1868
1410.0 1950 2043 2128 2117 2029 1843 1616 1404 1271 1258
1450.0 1292 1284 1217 1143 1135 1145 1125 1011 841 660
1490.0 496 356 262 206 180 145 113 105 112 94
1530.0 92 97 96 123 109 112 112 137 135 124
1570.0 132 138 154 176 194 241 288 341 408 503
1610.0 612 764 985 1355 1940 2808 3832 4599 4695 4066
1650.0 3214 2514 2102 1986 1992 2002 1959 1830 1643 1480
1690.0 1317 1264 1295 1411 1613 1949 2446 3207 4367 5910
1730.0 7300 8015 8363 8555 8988 9500 9907 10000 9791 8889
1770.0 7471 5859 4301 3068 2142 1519 1081 792 600 460
1810.0 361 294 235 192 158 130 107 82 71 57
1850.0 45 26 31 24 30 30 27 31 34 38
1890.0 34 34 29 37 31 34 27 29 22 18
1930.0 18 20 15 15 12 12 10 5 6 7
1970.0 8 7 8 9 2 8 7 2 3 5
2010.0 5 8 7 12 11 13 17 14 14 11
2050.0 14 15 10 11 16 18 21 27 33 38
2090.0 38 41 40 37 34 36 32 30 31 31
2130.0 28 25 24 18 19 17 18 12 11 16
2170.0 10 8 8 8 3 3 5 10 9 5
2210.0 1 10 8 4 8 9 15 12 13 17
2250.0 18 18 19 18 17 17 17 19 18 19
2290.0 24 28 42 51 63 76 90 101 140 139
2330.0 154 151 127 201 156 136 205 166 216 185
2370.0 179 173 144 117 76 62 61 65 68 69
2410.0 67 69 72 74 72 76 76 75 72 67
2450.0 67 68 73 69 73 77 78 81 78 81
2490.0 78 78 74 79 82 84 81 84 78 85
2530.0 84 77 87 85 82 86 88 87 90 93
2570.0 92 94 92 91 88 91 87 85 86 86
2610.0 83 83 86 92 90 81 89 87 83 79
2650.0 82 87 93 97 92 97 100 102 97 100
2690.0 100 100 104 109 106 106 107 120 126 128
2730.0 135 139 144 148 154 156 165 173 175 189
2770.0 198 211 217 225 230 231 230 230 238 242
2810.0 255 272 278 303 325 340 357 381 410 441
2850.0 483 530 579 634 702 763 836 935 1092 1193
2890.0 1240 1250 1277 1345 1398 1479 1568 1589 1592 1562
2930.0 1613 1761 2007 2277 2441 2423 2269 2114 2058 2167
2970.0 2366 2553 2838 3435 4078 4354 4056 3507 2923 2442
3010.0 2072 1723 1406 1144 930 766 638 536 455 392
3050.0 351 311 283 270 257 252 251 243 230 224
3090.0 222 216 208 203 199 191 181 164 156 164
3130.0 157 143 136 136 133 125 119 122 111 108
3170.0 108 106 110 97 89 90 84 78 72 71
3210.0 68 61 55 57 50 35 45 40 32 25
3250.0 17 10 8 3 1 14 10 11 20 17
3290.0 24 25 34 27 28 40 45 41 36 39
3330.0 43 38 49 40 45 40 42 44 53 52
3370.0 55 43 38 52 50 50 58 54 51 47
3410.0 63 67 62 52 50 64 60 76 81 95
3450.0 96 105 119 106 114 123 119 116 110 110
3490.0 97 105 98 89 75 65 76 64 57 60
3530.0 55 51 57 50 53 44 42 56 52 54
3570.0 64 50 51 49 62 53 50 54 64 62
3610.0 73 85 99 101 101 107 119 138 149 174
3650.0 199 197 223 223 222 222 270 244 208 237
3690.0 221 224 208 203 173 124 125 119 112 103
3730.0 100 123 112 119 111 116 105 101 101 96
3770.0 108 98 109 113 101 94 106 91 104 114
3810.0 109 125 105 105 91 111 117 120 121 120
3850.0 111 109 123 101 101 100 90 119 132 112
3890.0 102 122 111 112 107 79 95 89 82 82
3930.0 108 109 89 115 110 118 121 96 95 94
##END=
