##TITLE=Pyrazole-3,4-dicarboxylic acid, 1-methyl-, diethyl ester
##JCAMP-DX=4.24
##DATA TYPE=INFRARED SPECTRUM
##ORIGIN=Sadtler Research Labs Under US-EPA Contract
##OWNER=NIST Standard Reference Data Program
##CAS REGISTRY NO=10514-60-0
##MOLFORM=C 10 H 14 N 2 O 4
##XUNITS=1/CM
##YUNITS=ABSORBANCE
##XFACTOR=1.0
##YFACTOR=0.000160263
##DELTAX=4.0
##FIRSTX=450.0
##LASTX=3966.0
##FIRSTY=0.027405
##MAXX=3966
##MINX=450
##MAXY=1.60263
##MINY=0
##NPOINTS=880
##XYDATA=(X++(Y..Y))
450.0 171 141 106 102 105 92 52 58 29 26
490.0 31 25 29 28 7 9 13 22 19 14
530.0 27 18 27 46 57 69 67 74 77 79
570.0 72 60 46 33 20 18 16 8 15 16
610.0 25 32 36 23 8 8 4 1 7 7
650.0 17 19 28 42 48 67 53 44 40 42
690.0 44 47 54 56 68 75 79 80 72 66
730.0 66 75 81 107 142 194 297 465 711 987
770.0 1134 1055 894 727 604 517 445 389 357 344
810.0 365 405 459 511 577 604 581 518 447 403
850.0 406 425 422 391 337 279 226 186 146 121
890.0 89 64 57 52 49 48 48 52 55 59
930.0 58 61 68 77 79 86 89 98 103 112
970.0 124 134 153 175 208 252 317 404 519 648
1010.0 777 932 1112 1284 1374 1344 1212 1082 1001 1006
1050.0 1108 1331 1738 2450 3578 5102 6523 7005 6344 5002
1090.0 3846 3139 2658 2213 1775 1441 1243 1156 1162 1295
1130.0 1597 2024 2331 2312 1996 1642 1449 1392 1426 1559
1170.0 1801 2152 2615 3223 3998 4852 5621 6255 6954 8009
1210.0 9290 10000 9500 7842 5823 4255 3238 2633 2318 2225
1250.0 2337 2673 3270 4137 5138 5944 6137 5582 4507 3404
1290.0 2613 2186 2009 1946 1846 1616 1293 981 754 600
1330.0 493 419 369 350 359 392 472 617 849 1099
1370.0 1199 1080 860 729 707 724 723 696 667 654
1410.0 653 673 676 683 669 680 717 825 947 1078
1450.0 1184 1266 1354 1455 1567 1640 1644 1580 1448 1236
1490.0 1014 814 652 550 492 479 506 567 680 885
1530.0 1180 1581 2034 2444 2617 2399 1847 1218 781 552
1570.0 413 326 279 241 230 224 230 234 241 228
1610.0 213 194 172 163 145 151 141 147 160 183
1650.0 200 246 267 266 247 237 231 266 294 353
1690.0 425 509 591 710 855 1059 1331 1736 2397 3433
1730.0 4808 6045 6670 6576 6490 6767 6999 6741 5976 4878
1770.0 3699 2693 1965 1457 1108 855 673 542 441 364
1810.0 297 246 208 172 149 126 115 104 94 83
1850.0 79 76 69 64 57 53 54 52 49 48
1890.0 44 42 41 39 37 36 35 34 32 37
1930.0 40 44 45 43 42 40 36 29 26 20
1970.0 17 16 14 13 14 11 13 15 16 17
2010.0 18 19 16 15 14 14 15 14 15 18
2050.0 21 23 27 31 32 32 33 32 31 27
2090.0 24 22 19 16 13 13 12 12 12 12
2130.0 12 14 12 12 12 9 7 6 5 4
2170.0 1 1 0 0 0 2 0 0 2 1
2210.0 3 3 3 3 3 3 4 4 5 6
2250.0 6 8 9 11 14 15 17 20 21 23
2290.0 22 26 30 31 32 33 28 23 25 19
2330.0 17 20 17 21 26 31 25 21 24 21
2370.0 24 27 31 32 24 17 12 13 15 15
2410.0 18 18 19 19 17 16 13 14 11 10
2450.0 10 10 10 11 10 11 10 10 8 8
2490.0 7 7 7 6 8 8 6 8 6 9
2530.0 7 9 8 10 11 10 12 14 15 16
2570.0 19 16 19 20 21 22 23 25 24 24
2610.0 24 21 22 18 18 16 14 13 13 13
2650.0 13 13 13 14 17 19 20 21 16 18
2690.0 19 18 19 23 25 29 36 41 45 47
2730.0 48 46 47 45 48 49 53 56 57 63
2770.0 68 68 70 68 70 72 77 86 94 107
2810.0 122 140 153 163 165 162 163 164 176 191
2850.0 207 223 237 248 263 290 335 396 474 528
2890.0 552 556 570 609 663 713 745 755 765 799
2930.0 874 1021 1253 1499 1647 1652 1576 1536 1555 1569
2970.0 1558 1581 1740 2052 2282 2217 1876 1513 1261 1064
3010.0 887 729 588 476 388 321 269 232 205 185
3050.0 170 161 153 147 140 137 130 121 113 105
3090.0 96 87 82 77 72 71 69 66 62 63
3130.0 63 65 68 70 68 57 47 43 41 34
3170.0 34 34 32 32 31 29 27 28 24 22
3210.0 23 22 21 18 17 14 16 13 13 12
3250.0 11 8 8 10 10 13 12 14 17 17
3290.0 16 15 14 11 8 6 8 8 9 6
3330.0 10 7 7 6 7 8 7 9 8 10
3370.0 9 10 5 10 9 13 12 8 13 12
3410.0 12 14 15 15 15 18 22 28 26 31
3450.0 31 30 37 39 40 40 47 49 53 50
3490.0 46 43 45 48 37 34 26 20 17 13
3530.0 7 7 10 7 4 4 6 4 3 6
3570.0 7 1 4 6 6 5 5 3 7 6
3610.0 6 5 3 8 3 15 6 5 8 8
3650.0 13 9 11 7 10 11 6 9 7 11
3690.0 11 7 4 9 7 8 10 10 7 12
3730.0 11 12 18 13 14 9 13 5 8 14
3770.0 14 8 9 10 12 10 8 12 7 13
3810.0 13 10 9 15 11 5 8 8 11 17
3850.0 12 13 10 11 6 10 12 7 5 14
3890.0 8 5 8 9 15 20 11 5 6 7
3930.0 5 13 12 7 7 15 9 17 8 19
##END=
