##TITLE=4-Acetoxy-meta-anisic acid
##JCAMP-DX=4.24
##DATA TYPE=INFRARED SPECTRUM
##ORIGIN=Sadtler Research Labs Under US-EPA Contract
##OWNER=NIST Standard Reference Data Program
##CAS REGISTRY NO=10543-12-1
##MOLFORM=C 10 H 10 O 5
##XUNITS=1/CM
##YUNITS=ABSORBANCE
##XFACTOR=1.0
##YFACTOR=0.000041449
##DELTAX=4.0
##FIRSTX=450.0
##LASTX=3966.0
##FIRSTY=0.037097
##MAXX=3966
##MINX=450
##MAXY=0.41449
##MINY=0
##NPOINTS=880
##XYDATA=(X++(Y..Y))
450.0 895 593 460 505 422 552 509 575 556 550
490.0 481 470 561 610 690 829 796 885 858 1014
530.0 1249 1588 1589 907 783 732 858 839 969 958
570.0 956 793 809 1181 934 1051 1352 1440 1474 1442
610.0 1266 1133 969 970 842 810 584 745 1141 1235
650.0 1657 2118 2030 1122 712 589 382 383 307 178
690.0 29 5 56 280 637 845 900 713 511 410
730.0 363 273 212 165 198 318 490 679 760 694
770.0 559 412 343 226 231 239 208 105 78 4
810.0 9 23 54 74 157 258 285 279 225 144
850.0 145 142 170 183 217 227 321 484 693 924
890.0 1049 968 698 377 223 217 306 355 332 263
930.0 184 161 172 198 223 252 283 297 306 296
970.0 369 528 699 798 864 947 1020 1112 1301 1467
1010.0 1461 1336 1148 1097 1172 1314 1474 1520 1412 1216
1050.0 1026 861 840 895 1049 1352 1751 2091 2230 2200
1090.0 2032 1791 1510 1394 1497 1767 2203 2593 2864 2788
1130.0 2488 2188 2211 2790 4016 5868 7558 8255 7735 6601
1170.0 5798 5541 5662 6049 6824 7739 8437 8435 7469 5864
1210.0 4268 3036 2199 1704 1455 1379 1373 1391 1422 1484
1250.0 1651 2052 2656 3371 3874 3908 3579 3051 2639 2410
1290.0 2222 2056 1839 1607 1413 1239 1109 1023 968 931
1330.0 936 1023 1196 1407 1589 1683 1692 1618 1781 2050
1370.0 2112 1991 1714 1443 1287 1136 1133 1250 1433 1609
1410.0 1812 1967 2012 1775 1402 961 621 442 436 481
1450.0 535 620 746 826 863 786 672 480 325 307
1490.0 554 848 1209 1652 2019 2079 1841 1313 860 518
1530.0 328 223 191 157 97 107 113 192 177 207
1570.0 216 247 294 367 471 615 795 957 1042 1018
1610.0 895 711 509 344 244 174 145 148 127 135
1650.0 151 168 147 157 173 152 193 151 210 197
1690.0 244 255 349 403 462 528 535 605 574 620
1730.0 643 860 1152 1668 2774 4358 6881 8906 10000 8815
1770.0 6914 5678 5409 5295 5329 5500 6225 6367 5757 5192
1810.0 4326 3196 2191 1420 944 659 472 375 277 250
1850.0 214 195 147 133 116 86 82 78 82 79
1890.0 99 91 91 87 82 82 66 57 52 53
1930.0 48 45 38 37 37 33 35 31 40 23
1970.0 41 44 45 50 52 55 57 62 60 55
2010.0 51 52 51 52 56 63 62 71 71 68
2050.0 76 72 72 65 64 63 56 63 52 51
2090.0 36 33 29 27 28 27 35 27 34 36
2130.0 47 34 33 35 40 40 43 36 44 55
2170.0 45 42 38 32 17 23 27 24 26 27
2210.0 24 14 23 19 22 18 28 23 21 21
2250.0 18 23 20 25 24 28 24 23 29 36
2290.0 44 55 72 67 65 77 75 58 58 64
2330.0 64 54 41 84 75 75 78 63 81 54
2370.0 62 74 81 72 54 29 19 28 17 18
2410.0 16 12 18 15 18 27 23 19 21 8
2450.0 18 19 23 17 14 17 18 11 8 14
2490.0 15 15 16 22 16 23 16 20 23 29
2530.0 26 23 27 20 17 9 14 9 12 20
2570.0 20 20 18 15 14 22 17 24 18 21
2610.0 30 26 29 28 29 30 31 34 24 24
2650.0 23 19 23 24 15 12 14 12 12 9
2690.0 16 12 9 9 6 0 5 15 7 1
2730.0 0 15 13 16 16 13 10 23 12 20
2770.0 20 19 19 19 31 27 32 19 30 34
2810.0 32 43 51 50 74 88 126 152 180 202
2850.0 226 209 210 188 174 178 171 175 165 167
2890.0 159 155 146 139 142 149 184 197 234 232
2930.0 254 285 341 424 514 586 583 542 472 419
2970.0 416 392 334 285 265 253 247 285 295 349
3010.0 406 439 413 326 237 167 128 116 115 129
3050.0 125 118 99 76 64 19 0 31 92 141
3090.0 131 117 100 93 91 93 89 86 87 80
3130.0 91 84 85 81 72 80 66 65 77 65
3170.0 55 70 61 59 53 57 64 61 62 59
3210.0 55 61 68 68 57 64 60 69 58 42
3250.0 69 70 68 78 82 68 61 63 64 63
3290.0 58 60 59 67 71 78 60 56 62 64
3330.0 68 60 69 65 76 73 71 65 80 82
3370.0 75 64 54 68 66 52 74 63 77 72
3410.0 77 66 54 56 74 71 65 93 80 72
3450.0 79 78 88 79 63 76 95 82 88 80
3490.0 76 95 112 92 86 97 106 104 103 100
3530.0 111 130 167 231 302 418 609 732 940 1008
3570.0 1142 1403 2348 3690 3692 2967 1937 1123 805 602
3610.0 404 269 183 152 134 101 111 129 93 135
3650.0 103 111 107 83 114 72 108 76 91 71
3690.0 97 107 103 129 99 86 85 91 77 110
3730.0 95 96 80 92 73 107 114 129 171 115
3770.0 108 133 137 125 127 116 129 119 119 143
3810.0 149 150 161 119 133 150 154 155 172 144
3850.0 139 141 153 137 161 167 136 121 135 163
3890.0 155 170 140 67 123 138 146 141 110 134
3930.0 136 106 126 135 118 156 139 124 158 114
##END=
