##TITLE=5-Acetoxymethyl-2-furaldehyde
##JCAMP-DX=4.24
##DATA TYPE=INFRARED SPECTRUM
##ORIGIN=Sadtler Research Labs Under US-EPA Contract
##OWNER=NIST Standard Reference Data Program
##CAS REGISTRY NO=10551-58-3
##MOLFORM=C 8 H 8 O 4
##XUNITS=1/CM
##YUNITS=ABSORBANCE
##XFACTOR=1.0
##YFACTOR=0.000163895
##DELTAX=4.0
##FIRSTX=450.0
##LASTX=3966.0
##FIRSTY=0.032943
##MAXX=3966
##MINX=450
##MAXY=1.63895
##MINY=0
##NPOINTS=880
##XYDATA=(X++(Y..Y))
450.0 201 189 206 220 180 149 131 98 88 93
490.0 89 71 79 68 46 52 32 24 18 24
530.0 49 37 37 28 25 27 15 48 23 14
570.0 16 31 24 47 58 72 100 134 165 195
610.0 205 211 211 212 195 157 130 97 70 72
650.0 66 55 33 21 14 26 6 3 22 20
690.0 39 20 35 46 60 83 133 185 228 291
730.0 350 434 553 765 1039 1406 1608 1637 1459 1227
770.0 1112 1013 941 859 845 927 1074 1192 1266 1203
810.0 1016 803 579 438 362 324 295 259 222 177
850.0 148 124 104 88 92 90 108 115 128 150
890.0 166 183 195 204 201 196 173 150 128 112
930.0 120 153 221 318 449 574 671 713 712 698
970.0 691 700 735 784 835 918 1051 1248 1492 1780
1010.0 2058 2313 2485 2530 2527 2443 2258 1981 1673 1403
1050.0 1202 1066 959 886 830 778 721 668 614 555
1090.0 492 427 362 306 255 207 163 128 101 84
1130.0 77 72 72 80 87 103 123 154 190 245
1170.0 313 415 573 841 1268 1785 2416 3174 4028 5171
1210.0 6594 8211 9452 10000 9802 8716 7119 5332 3783 2637
1250.0 1886 1443 1211 1096 1032 972 903 805 664 508
1290.0 367 251 182 142 115 99 87 82 81 98
1330.0 128 176 231 296 382 543 801 1098 1332 1433
1370.0 1414 1355 1266 1131 950 772 648 590 563 521
1410.0 459 371 299 258 246 262 301 354 387 393
1450.0 368 324 279 229 196 161 150 140 150 169
1490.0 204 251 319 422 586 902 1356 1978 2479 2560
1530.0 2209 1493 892 501 287 185 137 117 102 107
1570.0 126 167 233 342 462 562 566 494 349 227
1610.0 152 93 68 45 36 21 30 23 30 34
1650.0 53 65 89 132 184 247 297 390 508 769
1690.0 1191 1999 3315 5098 6517 7152 6539 5246 3797 2660
1730.0 1896 1499 1313 1297 1419 1707 2215 2968 3990 4914
1770.0 5361 5119 4128 3155 2381 1800 1308 955 675 508
1810.0 390 308 245 208 187 166 153 130 111 88
1850.0 73 59 52 44 37 31 21 17 12 10
1890.0 5 7 2 2 3 4 3 5 10 9
1930.0 12 12 18 19 26 27 30 28 26 27
1970.0 25 27 26 27 26 29 30 30 30 32
2010.0 29 30 35 36 38 40 43 45 43 43
2050.0 36 32 26 21 15 14 9 8 8 9
2090.0 8 5 10 10 15 13 12 13 14 14
2130.0 14 14 12 13 11 14 11 11 13 13
2170.0 15 13 14 16 19 16 21 25 28 29
2210.0 30 30 25 23 18 16 10 10 8 8
2250.0 9 7 10 10 12 11 13 13 12 9
2290.0 8 9 10 11 11 15 10 9 12 10
2330.0 7 9 8 14 13 19 19 17 15 11
2370.0 13 15 19 18 11 10 8 9 11 15
2410.0 14 16 17 19 19 17 19 17 15 14
2450.0 15 12 11 14 13 8 10 8 8 7
2490.0 5 6 3 3 1 1 0 0 0 1
2530.0 0 2 4 4 3 5 8 8 7 7
2570.0 8 10 11 10 12 16 14 14 15 15
2610.0 16 13 13 12 11 12 12 14 16 17
2650.0 17 19 23 25 29 36 39 42 50 57
2690.0 69 89 127 190 247 275 277 250 228 226
2730.0 232 242 256 266 277 280 273 256 237 222
2770.0 221 230 249 280 324 384 468 590 754 936
2810.0 1007 945 799 659 637 687 708 681 596 472
2850.0 353 256 194 161 142 132 134 131 131 131
2890.0 130 121 115 107 99 96 92 96 99 109
2930.0 121 141 169 208 255 299 340 367 378 373
2970.0 355 324 289 252 219 191 170 153 137 122
3010.0 113 103 95 88 85 85 86 86 84 79
3050.0 77 79 77 78 76 76 77 78 70 64
3090.0 58 56 56 50 47 46 44 46 49 54
3130.0 60 51 45 37 27 23 19 19 17 16
3170.0 15 15 18 18 13 15 11 11 12 15
3210.0 14 12 14 16 19 20 20 22 18 18
3250.0 16 11 11 11 12 9 12 9 5 8
3290.0 13 11 13 8 13 13 10 12 8 12
3330.0 6 7 7 10 6 14 15 10 12 17
3370.0 19 24 33 51 66 90 108 119 106 86
3410.0 73 56 42 33 25 20 22 17 17 12
3450.0 8 11 10 14 16 9 11 15 16 16
3490.0 19 18 20 28 35 41 48 53 52 48
3530.0 43 37 29 23 22 17 16 17 18 23
3570.0 17 19 18 22 22 21 24 16 10 20
3610.0 19 9 5 5 7 17 12 9 11 1
3650.0 13 14 13 5 0 9 3 8 6 8
3690.0 8 14 3 18 8 9 8 9 12 8
3730.0 11 17 11 7 21 10 11 9 11 12
3770.0 9 13 9 8 13 8 5 9 7 7
3810.0 10 11 7 13 11 6 14 8 11 8
3850.0 8 9 15 17 13 9 0 7 10 17
3890.0 18 22 17 17 18 14 6 19 20 5
3930.0 12 7 12 12 24 11 11 11 14 7
##END=
