##TITLE=(Z)-2,5-Dimethyl-3-hexene
##JCAMP-DX=4.24
##DATA TYPE=INFRARED SPECTRUM
##ORIGIN=Sadtler Research Labs Under US-EPA Contract
##OWNER=NIST Standard Reference Data Program
##CAS REGISTRY NO=10557-44-5
##MOLFORM=C 8 H 16
##XUNITS=1/CM
##YUNITS=ABSORBANCE
##XFACTOR=1.0
##YFACTOR=0.000067221
##DELTAX=4.0
##FIRSTX=450.0
##LASTX=3966.0
##FIRSTY=0.000538
##MAXX=3966
##MINX=450
##MAXY=0.67221
##MINY=0
##NPOINTS=880
##XYDATA=(X++(Y..Y))
450.0 8 29 30 29 30 39 25 32 33 51
490.0 46 64 42 48 78 77 77 83 84 69
530.0 76 91 15 11 41 31 82 62 78 90
570.0 84 79 85 62 74 89 89 86 88 88
610.0 86 88 93 128 134 156 129 107 115 83
650.0 88 85 81 70 57 72 90 77 81 71
690.0 72 75 80 78 78 83 82 112 142 240
730.0 356 497 745 1029 1224 1315 1304 1166 943 664
770.0 455 294 202 159 130 124 138 130 126 121
810.0 104 102 94 77 77 78 70 77 93 117
850.0 129 132 123 110 77 76 75 75 90 83
890.0 103 97 110 121 124 131 142 169 194 229
930.0 293 368 466 565 599 584 520 416 290 211
970.0 172 140 126 121 123 106 105 106 104 107
1010.0 89 91 82 82 83 88 89 90 103 103
1050.0 112 119 135 149 166 194 217 265 329 393
1090.0 453 523 539 532 530 477 433 401 371 363
1130.0 356 361 368 389 410 448 486 508 515 498
1170.0 464 428 382 336 294 256 224 201 193 178
1210.0 171 169 178 177 183 182 169 170 154 145
1250.0 148 153 169 184 198 208 245 300 399 495
1290.0 558 587 570 470 383 341 296 233 190 158
1330.0 151 144 163 181 209 266 363 502 652 747
1370.0 821 942 854 729 610 472 371 338 323 321
1410.0 317 290 276 230 232 223 260 269 347 471
1450.0 644 803 926 1070 1139 1182 967 819 634 480
1490.0 328 233 155 143 103 119 95 84 71 70
1530.0 71 50 65 25 59 52 53 31 12 39
1570.0 41 47 16 46 44 49 46 51 45 49
1610.0 50 50 38 51 63 49 61 50 80 68
1650.0 102 48 108 97 92 74 81 56 88 59
1690.0 90 95 118 125 174 200 229 223 251 252
1730.0 253 239 255 254 279 270 250 242 239 222
1770.0 216 210 224 199 180 186 168 176 157 131
1810.0 110 87 67 59 44 41 39 39 34 34
1850.0 42 37 38 38 36 28 25 30 31 22
1890.0 29 29 28 29 30 22 32 25 27 22
1930.0 29 22 28 32 26 29 19 21 19 22
1970.0 12 18 12 18 18 23 18 14 13 16
2010.0 12 11 20 19 25 25 23 34 27 31
2050.0 30 31 30 31 32 37 38 45 46 36
2090.0 39 29 27 22 17 19 14 9 17 14
2130.0 14 14 14 14 14 23 16 12 14 19
2170.0 12 21 14 14 20 14 14 14 13 16
2210.0 20 20 20 20 20 20 20 20 21 21
2250.0 21 21 21 21 21 21 21 21 30 30
2290.0 31 38 38 37 47 53 49 46 47 48
2330.0 37 27 26 33 19 33 47 40 11 2
2370.0 0 1 2 10 21 31 31 30 30 37
2410.0 31 31 31 30 30 32 32 32 31 31
2450.0 31 31 38 45 46 47 48 54 46 42
2490.0 43 39 42 40 32 32 32 32 40 42
2530.0 41 40 37 38 40 41 41 47 49 55
2570.0 63 71 70 78 80 81 83 78 70 65
2610.0 64 70 64 63 63 63 62 63 49 50
2650.0 53 51 65 72 79 93 102 102 102 94
2690.0 97 86 87 95 94 106 122 145 161 161
2730.0 161 146 139 131 125 136 140 141 137 136
2770.0 126 120 119 120 127 133 134 137 149 171
2810.0 181 197 204 212 221 235 258 295 318 351
2850.0 403 477 604 835 1244 1834 2431 2691 2725 2599
2890.0 2242 1886 1765 1834 1985 2160 2300 2433 2556 2730
2930.0 2944 3183 3446 3615 3826 4266 4890 5917 7898 10000
2970.0 9417 8660 7177 5096 3308 2446 2191 2169 2265 2020
3010.0 1654 1296 946 630 417 292 227 196 179 176
3050.0 169 170 169 162 170 171 175 163 155 143
3090.0 135 146 127 134 134 135 128 133 135 125
3130.0 125 129 129 126 120 113 107 113 121 115
3170.0 107 131 130 136 136 141 134 123 115 110
3210.0 91 77 77 61 53 44 34 41 16 22
3250.0 22 22 21 18 27 43 35 41 49 41
3290.0 53 46 47 52 58 55 59 64 67 51
3330.0 66 66 72 50 67 65 54 50 42 48
3370.0 45 33 47 32 33 41 54 51 52 41
3410.0 46 43 42 47 38 35 37 52 50 39
3450.0 45 44 47 51 33 57 56 57 66 73
3490.0 78 70 58 87 82 57 76 71 69 66
3530.0 72 72 64 55 83 67 70 73 79 93
3570.0 83 79 92 93 97 85 86 76 63 63
3610.0 43 54 70 46 58 50 45 47 45 54
3650.0 41 55 42 48 63 50 44 31 54 68
3690.0 44 49 60 65 60 63 63 77 74 79
3730.0 75 66 67 75 53 63 42 55 72 76
3770.0 82 75 76 81 83 87 89 85 79 79
3810.0 74 75 77 78 87 85 93 78 91 76
3850.0 79 68 63 74 76 78 89 78 80 70
3890.0 72 74 82 83 84 67 86 86 89 91
3930.0 83 84 88 90 94 99 91 95 91 93
##END=
