##TITLE=Piperazine, 1-(3-chloropropyl)-4-phenyl-,
##JCAMP-DX=4.24
##DATA TYPE=INFRARED SPECTRUM
##ORIGIN=Sadtler Research Labs Under US-EPA Contract
##OWNER=NIST Standard Reference Data Program
##CAS REGISTRY NO=10599-17-4
##MOLFORM=C 13 H 19 Cl N 2
##XUNITS=1/CM
##YUNITS=ABSORBANCE
##XFACTOR=1.0
##YFACTOR=0.000062369
##DELTAX=4.0
##FIRSTX=450.0
##LASTX=3966.0
##FIRSTY=0.000000
##MAXX=3966
##MINX=450
##MAXY=0.62369
##MINY=0
##NPOINTS=880
##XYDATA=(X++(Y..Y))
450.0 0 400 431 431 563 382 442 603 378 505
490.0 493 533 520 563 578 668 848 919 1150 1084
530.0 1043 892 766 635 574 528 425 413 385 352
570.0 292 320 295 285 257 300 308 237 284 295
610.0 317 304 367 344 355 405 491 547 602 749
650.0 825 1032 1228 1488 1526 1573 1506 1605 1988 2623
690.0 3204 2971 2380 1840 1437 1244 1126 1123 1186 1286
730.0 1431 1646 2044 2578 3129 3790 4333 4493 3890 2974
770.0 2146 1543 1216 1009 876 784 733 736 737 733
810.0 722 710 685 655 603 541 493 453 442 429
850.0 444 480 484 548 617 680 722 707 661 608
890.0 561 520 550 619 730 958 1340 1788 2110 2132
930.0 1739 1258 1025 1019 1139 1379 1565 1586 1580 1512
970.0 1329 1114 991 993 1110 1478 2046 2365 2544 3006
1010.0 3708 4032 3742 3111 2383 1846 1443 1125 975 961
1050.0 994 1005 995 965 937 904 848 769 689 644
1090.0 627 666 759 920 1098 1258 1418 1679 2082 2665
1130.0 3414 4205 4796 4855 4367 3679 3124 2750 2492 2289
1170.0 2104 1915 1773 1688 1633 1610 1645 1809 2123 2577
1210.0 3182 4079 5303 6918 8756 10000 9711 8099 6226 4575
1250.0 3475 2966 2889 2996 3030 2915 2683 2516 2498 2661
1290.0 2981 3416 3800 3900 3605 3103 2661 2461 2474 2653
1330.0 2926 3114 3079 2841 2715 2869 3170 3314 3165 3087
1370.0 3416 4132 4572 4337 3555 2650 1968 1577 1341 1167
1410.0 1033 930 958 944 1016 1176 1455 1844 2396 3193
1450.0 4110 4623 4612 4023 3161 2387 2066 2037 2482 3537
1490.0 5240 7148 8634 8868 7224 4631 2834 1878 1435 1107
1530.0 960 843 815 814 797 769 825 923 991 1109
1570.0 1344 1634 1955 2331 3006 4264 6177 8356 8921 6998
1610.0 4033 2109 1315 918 751 613 579 537 468 444
1650.0 431 408 354 330 331 335 355 337 378 397
1690.0 359 343 386 384 365 339 358 397 339 324
1730.0 352 384 330 315 328 352 341 331 347 330
1770.0 348 323 272 260 249 244 252 237 252 235
1810.0 236 253 249 272 282 299 290 284 298 312
1850.0 284 259 253 241 246 260 235 233 237 248
1890.0 270 274 295 316 348 376 405 425 434 417
1930.0 410 411 409 392 351 307 296 294 300 309
1970.0 308 310 300 292 282 282 271 262 247 246
2010.0 247 246 253 253 251 248 243 241 244 239
2050.0 245 250 255 268 281 282 290 291 280 281
2090.0 276 273 272 275 271 268 263 261 262 259
2130.0 255 250 249 244 243 244 244 236 235 231
2170.0 231 230 233 237 235 236 238 242 240 244
2210.0 243 251 256 261 269 281 282 285 282 286
2250.0 281 280 274 279 272 272 280 289 295 317
2290.0 334 350 374 382 401 427 417 416 425 394
2330.0 410 391 375 370 440 389 449 389 399 392
2370.0 384 359 379 380 361 326 314 314 312 313
2410.0 319 322 318 319 321 320 322 331 331 333
2450.0 342 342 348 350 347 341 344 339 337 343
2490.0 345 361 359 377 376 377 371 370 372 376
2530.0 380 377 384 395 420 433 451 460 467 472
2570.0 468 463 458 447 445 449 444 444 442 447
2610.0 453 457 469 471 490 492 513 527 551 580
2650.0 614 646 685 733 792 856 938 1003 1055 1095
2690.0 1128 1151 1166 1175 1172 1168 1179 1181 1205 1261
2730.0 1331 1409 1513 1624 1737 1875 2010 2155 2325 2508
2770.0 2683 2868 2989 3087 3202 3419 3797 4357 5054 5892
2810.0 6780 7597 8308 8831 8995 8548 7433 5980 4657 3642
2850.0 2966 2546 2305 2186 2165 2221 2372 2601 2840 2991
2890.0 3023 2947 2861 2849 2935 3098 3298 3482 3634 3790
2930.0 3962 4248 4774 5536 6206 6490 6521 6230 5687 5171
2970.0 4632 3920 3191 2604 2208 1944 1762 1653 1578 1535
3010.0 1537 1418 1272 1282 1397 1562 1758 1986 2198 2207
3050.0 1919 1610 1556 1731 2067 2494 2660 2266 1688 1416
3090.0 1402 1417 1385 1263 1126 974 824 678 548 461
3130.0 413 369 353 330 326 313 311 307 297 289
3170.0 282 277 276 280 277 273 269 276 277 269
3210.0 280 276 279 276 274 274 266 264 261 263
3250.0 259 258 258 261 255 257 260 257 252 250
3290.0 258 253 255 253 253 252 256 262 260 257
3330.0 256 254 258 265 259 250 251 245 253 248
3370.0 244 261 245 253 251 254 253 255 255 257
3410.0 253 259 252 259 261 257 264 269 269 263
3450.0 264 258 261 263 273 262 256 262 268 252
3490.0 262 259 261 266 266 261 246 254 253 272
3530.0 253 259 258 258 258 267 267 261 262 263
3570.0 273 261 262 263 265 272 248 263 254 268
3610.0 256 274 265 260 272 272 245 273 257 272
3650.0 290 272 297 275 282 270 273 276 262 267
3690.0 251 248 247 267 259 256 289 278 255 261
3730.0 259 278 255 282 264 268 259 246 280 245
3770.0 253 252 247 271 262 255 268 254 262 272
3810.0 273 262 267 269 257 259 265 271 258 271
3850.0 249 267 279 279 262 271 257 266 287 266
3890.0 260 247 265 261 285 247 250 283 276 281
3930.0 251 266 253 258 267 290 296 280 286 276
##END=
