##TITLE=2,6-Octadien-1-ol, 3,7-dimethyl-, (E)-
##JCAMP-DX=4.24
##DATA TYPE=INFRARED SPECTRUM
##ORIGIN=Sadtler Research Labs Under US-EPA Contract
##OWNER=NIST Standard Reference Data Program
##CAS REGISTRY NO=106-24-1
##MOLFORM=C 10 H 18 O
##XUNITS=1/CM
##YUNITS=ABSORBANCE
##XFACTOR=1.0
##YFACTOR=0.000072519
##DELTAX=4.0
##FIRSTX=450.0
##LASTX=3966.0
##FIRSTY=0.013489
##MAXX=3966
##MINX=450
##MAXY=0.72519
##MINY=0
##NPOINTS=880
##XYDATA=(X++(Y..Y))
450.0 186 312 297 215 220 110 189 136 208 72
490.0 0 75 212 188 184 143 227 223 174 130
530.0 126 151 152 194 133 236 246 253 340 301
570.0 262 210 196 184 209 189 160 254 220 183
610.0 216 191 152 99 109 104 174 173 147 133
650.0 155 183 159 146 135 160 163 134 162 154
690.0 163 183 163 165 165 160 176 216 208 177
730.0 258 269 326 340 346 373 335 350 348 371
770.0 387 410 465 464 493 486 514 607 622 654
810.0 696 775 852 993 1071 1142 1119 1008 889 776
850.0 688 621 590 545 531 515 506 536 568 594
890.0 632 627 619 608 612 643 686 736 766 821
930.0 886 996 1146 1331 1548 1753 1939 2062 2193 2321
970.0 2546 2787 3096 3427 3859 4369 4788 5049 5464 5458
1010.0 5255 4783 4224 3648 3194 2843 2556 2291 2058 1834
1050.0 1593 1412 1259 1146 1047 1008 1004 1022 1077 1142
1090.0 1217 1273 1342 1401 1466 1463 1349 1152 953 812
1130.0 727 699 678 696 716 753 793 840 869 888
1170.0 906 913 939 965 1007 1046 1092 1153 1204 1249
1210.0 1287 1309 1312 1297 1257 1234 1185 1145 1099 1057
1250.0 1012 963 922 896 870 835 818 797 784 778
1290.0 768 769 772 790 800 814 831 865 905 972
1330.0 1065 1164 1255 1334 1390 1424 1467 1510 1592 1759
1370.0 2059 2529 3096 3676 4035 3978 3551 2966 2394 1966
1410.0 1657 1453 1340 1283 1313 1417 1608 1823 2039 2173
1450.0 2208 2129 1975 1756 1514 1332 1180 1040 900 768
1490.0 654 574 522 475 454 447 414 415 408 408
1530.0 399 395 385 392 388 380 370 362 360 339
1570.0 331 324 306 301 284 278 271 273 277 271
1610.0 274 274 281 296 305 322 345 373 410 470
1650.0 535 675 873 1110 1289 1295 1091 784 534 385
1690.0 297 276 255 244 212 177 167 155 153 149
1730.0 155 164 165 171 178 177 160 150 140 134
1770.0 123 125 116 121 119 125 119 124 122 115
1810.0 108 106 98 94 98 99 104 87 90 93
1850.0 87 85 86 88 87 83 72 74 78 79
1890.0 83 72 71 74 75 75 79 73 83 84
1930.0 87 82 83 80 82 79 88 93 94 98
1970.0 107 105 103 103 105 107 112 117 127 124
2010.0 119 126 118 127 126 116 116 117 130 127
2050.0 117 96 78 71 68 80 79 80 80 75
2090.0 69 64 64 65 61 62 59 54 58 64
2130.0 59 58 63 57 62 57 60 53 56 50
2170.0 61 58 55 67 56 64 58 56 55 61
2210.0 58 57 62 58 54 48 56 57 54 61
2250.0 59 56 55 58 66 69 64 64 57 55
2290.0 53 54 51 43 32 11 6 4 2 5
2330.0 4 30 42 52 79 57 2 2 66 165
2370.0 211 218 201 171 139 112 111 98 87 97
2410.0 100 97 104 110 106 104 102 108 112 99
2450.0 104 103 104 108 94 105 107 112 110 115
2490.0 102 106 109 98 101 103 100 101 110 111
2530.0 103 102 107 106 93 89 88 85 96 103
2570.0 94 95 101 111 100 96 100 104 106 103
2610.0 100 99 100 97 100 101 90 101 110 97
2650.0 102 101 97 124 134 146 141 128 136 134
2690.0 141 154 180 185 203 221 226 251 269 304
2730.0 342 393 436 482 472 455 410 393 378 383
2770.0 385 389 397 408 408 448 485 509 547 590
2810.0 655 722 795 881 1010 1171 1376 1610 1952 2388
2850.0 2956 3607 4356 5020 5560 5880 5940 5847 5856 5995
2890.0 6198 6350 6460 6540 6734 7118 7639 8354 9093 9724
2930.0 10000 9876 9381 8678 7828 6906 6152 5649 5433 5475
2970.0 5744 5988 6024 5869 5535 5157 4718 4192 3603 3117
3010.0 2687 2427 2209 2056 1933 1814 1688 1597 1460 1329
3050.0 1219 1155 1050 978 866 782 707 631 577 525
3090.0 441 435 395 348 322 301 295 255 245 225
3130.0 193 196 160 153 150 150 145 134 110 101
3170.0 94 86 89 81 83 75 73 74 75 75
3210.0 62 62 58 66 65 75 77 58 67 61
3250.0 65 51 45 45 48 54 68 55 62 53
3290.0 52 58 47 33 38 46 35 36 38 32
3330.0 48 20 35 51 37 34 6 37 36 30
3370.0 14 56 50 38 32 68 54 40 55 51
3410.0 49 45 46 55 58 30 45 9 46 31
3450.0 36 26 12 9 52 53 72 53 40 39
3490.0 40 30 21 14 20 41 34 41 41 24
3530.0 16 26 22 15 20 13 13 22 13 17
3570.0 13 22 22 24 31 12 27 23 38 41
3610.0 88 81 80 90 151 215 313 402 547 677
3650.0 805 861 847 809 739 644 496 356 289 181
3690.0 144 113 72 99 94 48 3 2 2 2
3730.0 40 6 26 2 21 2 11 2 3 2
3770.0 14 2 2 6 1 2 2 2 2 2
3810.0 4 3 2 18 22 7 2 2 15 42
3850.0 10 9 5 36 15 2 8 14 24 1
3890.0 7 32 1 47 0 2 2 2 5 2
3930.0 2 8 3 28 0 2 11 9 2 12
##END=
