##TITLE=Propanoic acid, propyl ester
##JCAMP-DX=4.24
##DATA TYPE=INFRARED SPECTRUM
##ORIGIN=Sadtler Research Labs Under US-EPA Contract
##OWNER=NIST Standard Reference Data Program
##CAS REGISTRY NO=106-36-5
##MOLFORM=C 6 H 12 O 2
##XUNITS=1/CM
##YUNITS=ABSORBANCE
##XFACTOR=1.0
##YFACTOR=0.000104800
##DELTAX=4.0
##FIRSTX=450.0
##LASTX=3966.0
##FIRSTY=0.000000
##MAXX=3966
##MINX=450
##MAXY=1.048
##MINY=0
##NPOINTS=880
##XYDATA=(X++(Y..Y))
450.0 0 437 416 563 562 543 517 569 484 618
490.0 564 618 540 520 513 454 426 475 520 474
530.0 449 463 432 532 472 441 510 458 441 493
570.0 476 489 476 456 520 541 555 537 553 530
610.0 553 537 545 540 525 509 477 504 548 496
650.0 454 439 476 471 482 501 517 458 458 487
690.0 465 510 489 429 431 432 467 486 490 462
730.0 423 457 412 394 481 577 511 553 573 540
770.0 591 558 525 540 539 579 536 559 576 630
810.0 640 666 662 687 654 660 651 693 683 655
850.0 667 662 648 653 623 635 634 656 674 666
890.0 696 750 781 814 820 815 799 791 781 763
930.0 791 853 949 1006 1011 980 925 821 775 767
970.0 756 751 748 756 801 907 1080 1254 1419 1560
1010.0 1639 1650 1575 1469 1352 1243 1185 1228 1291 1382
1050.0 1508 1690 1927 2236 2549 2837 3099 3265 3270 3146
1090.0 2965 2709 2374 2089 1890 1753 1684 1586 1541 1507
1130.0 1476 1467 1494 1561 1708 1916 2239 2706 3368 4253
1170.0 5400 6804 8205 9389 10000 9905 9317 8146 7091 6251
1210.0 5618 5077 4533 4038 3589 3243 2964 2769 2628 2507
1250.0 2418 2349 2302 2313 2351 2425 2459 2430 2324 2161
1290.0 1928 1691 1486 1331 1231 1194 1220 1328 1495 1717
1330.0 1949 2167 2370 2484 2564 2616 2501 2282 2039 1696
1370.0 1427 1334 1347 1381 1417 1429 1366 1239 1145 1027
1410.0 929 876 857 872 923 978 1046 1100 1165 1228
1450.0 1320 1411 1581 1786 1942 1902 1852 1662 1379 1137
1490.0 976 852 742 697 626 615 611 563 535 541
1530.0 529 536 482 485 492 505 495 432 460 468
1570.0 469 468 453 483 472 483 473 480 479 471
1610.0 494 456 474 458 482 476 467 473 481 477
1650.0 484 439 495 519 510 523 530 555 556 566
1690.0 602 640 651 709 800 887 978 1091 1284 1571
1730.0 1956 2578 3489 4714 6186 7805 8601 9110 8915 8052
1770.0 6561 4678 3318 2312 1618 1231 965 847 753 687
1810.0 638 597 583 554 533 526 508 516 496 491
1850.0 490 484 489 480 479 475 476 473 473 468
1890.0 465 461 462 453 454 460 459 460 462 463
1930.0 461 469 465 467 464 464 463 464 457 459
1970.0 454 454 451 453 448 452 457 459 458 459
2010.0 464 464 467 466 467 467 465 465 462 457
2050.0 456 458 453 453 451 448 445 442 447 446
2090.0 447 446 446 442 442 443 440 438 435 432
2130.0 429 427 431 428 422 424 424 426 424 421
2170.0 421 422 422 424 423 422 424 424 423 421
2210.0 422 422 421 422 422 423 416 419 421 421
2250.0 421 421 420 421 420 421 420 421 422 423
2290.0 427 427 432 431 433 430 430 423 420 424
2330.0 419 421 431 420 439 439 433 434 440 439
2370.0 434 445 442 439 435 432 424 421 422 424
2410.0 424 421 422 422 421 420 417 419 415 419
2450.0 416 414 416 415 415 412 412 414 413 412
2490.0 411 406 409 409 411 409 409 408 408 405
2530.0 406 407 407 406 409 409 410 407 406 406
2570.0 412 415 414 413 418 415 417 419 419 421
2610.0 422 421 425 426 421 423 419 418 422 423
2650.0 419 420 414 421 422 421 421 427 433 432
2690.0 431 430 436 435 432 434 441 441 440 448
2730.0 454 459 463 473 483 487 496 499 502 502
2770.0 494 495 499 498 498 494 493 498 501 508
2810.0 514 524 535 546 555 573 594 611 636 665
2850.0 697 743 797 870 946 1023 1119 1264 1480 1737
2890.0 1941 2067 2120 2070 1952 1865 1814 1805 1879 2018
2930.0 2224 2452 2702 3005 3330 3601 3798 3962 4096 4188
2970.0 4398 4806 5186 5211 5004 4527 3821 3035 2369 1898
3010.0 1585 1355 1174 1036 923 843 770 709 666 645
3050.0 614 594 589 571 558 551 545 533 529 525
3090.0 514 516 513 506 505 504 498 494 493 484
3130.0 486 479 476 483 476 472 475 478 475 476
3170.0 467 468 469 469 467 467 463 457 459 456
3210.0 448 448 449 438 431 430 436 436 426 428
3250.0 429 428 429 430 422 419 426 425 421 420
3290.0 421 427 428 422 417 423 424 423 421 423
3330.0 418 430 425 429 426 417 425 422 425 422
3370.0 421 426 422 427 425 424 425 424 423 425
3410.0 430 432 423 434 433 421 423 423 429 429
3450.0 432 430 435 439 438 443 453 474 486 493
3490.0 504 512 516 509 509 487 473 456 448 448
3530.0 437 431 431 428 440 435 425 442 433 443
3570.0 434 433 429 430 436 447 431 447 437 431
3610.0 429 443 437 435 424 421 436 438 440 430
3650.0 443 430 433 418 455 424 426 419 445 443
3690.0 421 441 447 446 441 440 434 448 451 455
3730.0 441 420 443 439 425 410 419 438 449 445
3770.0 438 439 446 443 450 454 449 441 429 409
3810.0 458 421 442 423 449 448 433 417 419 459
3850.0 433 411 423 450 425 419 432 442 455 453
3890.0 437 445 462 450 455 443 463 443 441 448
3930.0 449 461 453 437 428 469 448 455 463 448
##END=
