##TITLE=1-Butene
##JCAMP-DX=4.24
##DATA TYPE=INFRARED SPECTRUM
##ORIGIN=Sadtler Research Labs Under US-EPA Contract
##OWNER=NIST Standard Reference Data Program
##CAS REGISTRY NO=106-98-9
##MOLFORM=C 4 H 8
##XUNITS=1/CM
##YUNITS=ABSORBANCE
##XFACTOR=1.0
##YFACTOR=0.000063171
##DELTAX=4.0
##FIRSTX=450.0
##LASTX=3966.0
##FIRSTY=0.000948
##MAXX=3966
##MINX=450
##MAXY=0.63171
##MINY=0
##NPOINTS=880
##XYDATA=(X++(Y..Y))
450.0 15 123 146 86 13 22 5 43 64 35
490.0 30 68 55 41 84 52 112 123 170 184
530.0 222 232 279 293 333 448 322 226 213 219
570.0 176 205 203 220 215 230 291 334 402 455
610.0 509 577 631 690 701 712 702 701 689 630
650.0 586 519 464 389 380 298 257 231 191 169
690.0 179 122 125 126 88 96 103 99 80 92
730.0 89 83 58 63 69 65 71 75 97 88
770.0 117 133 170 181 207 230 212 231 266 279
810.0 270 263 239 272 277 329 357 403 465 437
850.0 456 496 570 603 748 817 977 1146 1421 1746
890.0 2008 2436 2733 3246 3131 4371 4410 3690 3794 3714
930.0 3404 3107 2625 2340 1978 1735 1453 1333 1243 1244
970.0 1279 1367 1500 1654 1798 1811 1939 1881 1852 1632
1010.0 1400 1267 1114 962 807 714 592 522 460 430
1050.0 403 381 382 373 377 376 389 383 394 373
1090.0 363 341 327 311 301 298 292 285 239 212
1130.0 214 187 177 171 156 128 131 128 141 143
1170.0 153 141 133 133 128 126 117 103 80 75
1210.0 64 70 65 74 70 76 82 82 89 81
1250.0 89 84 92 96 115 116 139 184 221 253
1290.0 238 278 306 347 397 393 366 335 307 311
1330.0 326 296 259 222 204 200 202 235 272 319
1370.0 351 371 406 427 458 567 637 676 714 764
1410.0 809 827 848 906 1042 1161 1296 1307 1316 1294
1450.0 1399 1436 1452 1619 1422 1167 1091 980 905 835
1490.0 736 631 532 442 372 308 261 231 203 180
1530.0 169 169 162 159 138 134 125 125 110 93
1570.0 86 75 83 78 91 97 123 149 196 254
1610.0 336 471 652 888 1159 1400 1512 1510 1527 1457
1650.0 1500 1580 1508 1115 675 406 278 233 201 192
1690.0 154 136 123 98 97 88 90 80 71 55
1730.0 50 45 41 30 35 31 24 29 23 24
1770.0 25 33 33 34 41 48 70 82 119 167
1810.0 231 304 364 381 392 372 355 393 422 362
1850.0 271 184 130 100 81 66 54 51 47 41
1890.0 34 27 23 23 21 21 20 18 19 14
1930.0 18 15 22 22 26 33 34 39 48 49
1970.0 56 52 53 55 52 43 37 27 25 23
2010.0 19 17 18 12 18 15 15 20 20 21
2050.0 22 24 24 24 22 24 25 17 12 8
2090.0 6 10 7 8 3 0 3 4 0 2
2130.0 3 4 4 2 5 7 6 10 9 6
2170.0 9 9 2 7 6 5 5 7 5 2
2210.0 3 3 3 7 8 14 10 11 12 20
2250.0 20 17 20 21 21 20 19 17 20 17
2290.0 12 11 8 11 9 9 7 9 18 25
2330.0 21 6 11 17 0 13 14 19 13 8
2370.0 7 13 9 16 17 25 16 21 26 27
2410.0 24 20 17 17 20 23 24 24 23 29
2450.0 27 33 28 29 27 25 31 24 25 23
2490.0 20 15 15 12 14 16 8 10 13 13
2530.0 9 8 17 23 21 23 24 24 33 29
2570.0 36 36 31 36 36 31 37 37 31 34
2610.0 34 33 39 35 36 30 27 30 33 32
2650.0 29 37 38 39 43 39 46 43 46 45
2690.0 48 47 56 54 58 64 78 85 97 115
2730.0 131 143 154 158 170 182 191 182 174 167
2770.0 163 164 158 155 163 168 175 192 211 246
2810.0 283 325 388 468 569 685 823 970 1131 1277
2850.0 1419 1574 1750 1974 2272 2721 3237 3583 3596 3702
2890.0 3945 4144 4504 4856 4747 4606 4610 4705 4855 5136
2930.0 5531 5889 6079 6178 6352 6804 7382 8305 9147 9719
2970.0 9818 10000 9665 9368 9203 8938 7842 6755 5707 4843
3010.0 4075 3405 2944 2478 2073 1818 1580 1375 1248 1186
3050.0 1194 1225 1337 1471 1683 1976 2323 2605 2517 2481
3090.0 2564 2309 2507 2258 2019 1637 1227 925 698 566
3130.0 444 381 314 276 232 212 204 190 181 178
3170.0 178 172 182 171 169 167 161 157 138 131
3210.0 116 101 93 88 70 59 55 45 41 37
3250.0 43 36 30 24 37 35 36 41 33 34
3290.0 37 35 37 34 24 32 26 27 22 24
3330.0 22 20 28 16 21 29 25 24 32 36
3370.0 22 20 25 37 26 27 32 31 32 39
3410.0 29 25 21 27 23 19 29 14 23 25
3450.0 30 29 20 26 17 24 23 17 24 17
3490.0 13 20 18 11 12 11 13 13 22 18
3530.0 13 18 27 36 15 20 19 26 8 9
3570.0 15 7 9 7 15 4 6 16 15 27
3610.0 5 12 12 11 13 10 7 3 4 11
3650.0 3 17 6 11 9 14 19 24 25 28
3690.0 26 15 35 25 20 15 36 41 44 27
3730.0 32 45 30 35 27 27 17 27 18 35
3770.0 27 22 19 15 15 32 15 30 2 13
3810.0 14 22 30 27 0 13 43 13 5 5
3850.0 37 19 5 19 10 9 10 28 24 29
3890.0 14 3 40 30 34 39 32 17 8 18
3930.0 40 8 45 28 35 47 64 41 23 37
##END=
