##TITLE=Benzene, 1,4-dichloro-
##JCAMP-DX=4.24
##DATA TYPE=INFRARED SPECTRUM
##ORIGIN=Sadtler Research Labs Under US-EPA Contract
##OWNER=NIST Standard Reference Data Program
##CAS REGISTRY NO=106-46-7
##MOLFORM=C 6 H 4 Cl 2
##XUNITS=1/CM
##YUNITS=ABSORBANCE
##XFACTOR=1.0
##YFACTOR=0.000116473
##DELTAX=4.0
##FIRSTX=450.0
##LASTX=3966.0
##FIRSTY=0.016423
##MAXX=3966
##MINX=450
##MAXY=1.16473
##MINY=0
##NPOINTS=880
##XYDATA=(X++(Y..Y))
450.0 141 165 232 349 489 785 940 995 1641 1373
490.0 1032 932 819 504 337 211 152 158 245 417
530.0 705 1118 1627 2407 2666 2468 2196 1189 566 398
570.0 168 47 126 104 156 157 168 182 83 55
610.0 47 14 39 55 48 41 37 47 36 49
650.0 42 17 48 32 34 49 54 39 22 39
690.0 66 47 32 19 35 32 27 47 33 37
730.0 22 67 59 24 4 54 26 82 106 192
770.0 305 261 331 347 361 449 609 930 1275 1850
810.0 2295 2499 3770 3716 2865 2358 2156 1390 903 526
850.0 262 148 79 74 52 47 65 47 55 52
890.0 39 52 53 46 39 27 31 35 27 27
930.0 31 28 34 29 43 36 37 50 32 38
970.0 36 35 45 31 44 51 61 188 605 1884
1010.0 3519 3663 3694 2991 1083 165 205 120 105 119
1050.0 63 99 136 274 465 578 920 1950 4306 8091
1090.0 9145 10000 8464 4656 2908 2276 2036 1390 656 231
1130.0 139 109 74 69 52 66 64 53 67 60
1170.0 76 89 76 82 61 49 52 50 83 128
1210.0 221 314 315 288 214 107 68 62 74 83
1250.0 89 90 88 85 75 61 58 56 70 75
1290.0 84 94 79 81 74 47 42 34 34 46
1330.0 42 53 39 45 66 69 68 66 80 103
1370.0 134 194 257 338 415 406 405 416 413 458
1410.0 546 632 564 502 351 152 112 122 143 228
1450.0 365 611 791 1247 2413 4973 8461 9222 8618 6982
1490.0 2425 419 174 177 181 247 186 191 123 52
1530.0 41 23 22 17 1 15 17 11 25 20
1570.0 34 28 32 43 54 69 89 104 136 150
1610.0 173 209 220 267 268 278 251 248 221 155
1650.0 142 121 119 121 121 107 91 78 55 33
1690.0 31 32 15 21 12 30 28 18 40 39
1730.0 45 25 54 60 73 101 129 143 135 108
1770.0 74 40 23 21 16 10 11 14 11 22
1810.0 22 20 27 31 37 50 63 73 67 58
1850.0 57 67 77 99 127 165 216 257 273 257
1890.0 257 236 180 124 83 53 38 27 16 23
1930.0 21 21 21 19 17 21 26 22 20 16
1970.0 18 16 20 19 14 13 11 13 13 9
2010.0 12 14 10 16 15 13 14 10 10 14
2050.0 17 16 12 15 13 13 14 9 12 9
2090.0 11 12 15 12 14 14 14 14 17 18
2130.0 15 13 12 14 11 14 12 10 11 14
2170.0 8 14 12 13 16 12 19 13 14 14
2210.0 17 21 25 26 29 27 24 20 21 21
2250.0 25 28 37 42 48 56 56 53 57 60
2290.0 50 43 39 40 39 37 32 34 27 27
2330.0 25 34 38 40 44 47 52 56 63 65
2370.0 62 61 55 44 42 37 34 31 25 18
2410.0 11 10 11 10 10 6 9 11 11 13
2450.0 12 14 13 16 13 13 11 10 5 11
2490.0 11 11 11 12 16 9 10 14 19 18
2530.0 24 23 27 31 30 33 30 31 32 30
2570.0 32 34 29 27 28 29 25 20 16 16
2610.0 16 17 17 14 16 15 21 24 25 27
2650.0 32 36 44 47 44 40 30 22 22 18
2690.0 16 11 16 17 21 16 17 16 20 17
2730.0 20 12 17 18 20 20 25 28 29 29
2770.0 29 30 25 22 31 31 34 43 52 58
2810.0 64 70 77 63 61 50 39 28 22 16
2850.0 20 21 23 25 30 24 27 16 17 23
2890.0 13 19 20 19 16 20 17 14 20 13
2930.0 20 23 20 23 21 23 14 16 21 12
2970.0 21 24 18 25 24 30 28 19 27 21
3010.0 29 31 40 48 61 62 68 66 64 54
3050.0 56 53 47 46 54 66 102 142 183 234
3090.0 273 264 244 224 179 117 86 57 38 31
3130.0 21 21 26 21 26 22 17 14 16 14
3170.0 22 27 30 19 22 26 22 28 21 26
3210.0 25 22 16 23 29 30 26 17 19 30
3250.0 34 26 22 23 19 13 33 21 25 35
3290.0 29 28 30 29 23 31 29 28 27 29
3330.0 25 26 42 25 29 31 28 33 38 29
3370.0 25 25 15 16 33 30 36 22 21 30
3410.0 27 26 20 20 24 28 26 24 28 35
3450.0 37 35 15 17 24 35 34 27 19 34
3490.0 30 19 24 18 29 15 30 18 31 7
3530.0 18 16 16 28 31 24 24 27 30 31
3570.0 10 33 35 44 21 34 18 18 33 37
3610.0 22 18 49 43 41 29 21 21 26 36
3650.0 30 17 35 38 20 49 43 22 27 18
3690.0 50 28 34 42 46 36 20 36 64 65
3730.0 54 39 52 45 35 29 70 25 24 49
3770.0 52 34 39 63 44 24 17 8 57 66
3810.0 63 53 42 32 73 35 49 57 67 73
3850.0 81 84 69 40 47 49 32 32 62 102
3890.0 62 43 15 75 85 46 28 0 37 65
3930.0 69 80 33 19 14 42 85 3 61 74
##END=
