##TITLE=3-Heptanone
##JCAMP-DX=4.24
##DATA TYPE=INFRARED SPECTRUM
##ORIGIN=Sadtler Research Labs Under US-EPA Contract
##OWNER=NIST Standard Reference Data Program
##CAS REGISTRY NO=106-35-4
##MOLFORM=C 7 H 14 O
##XUNITS=1/CM
##YUNITS=ABSORBANCE
##XFACTOR=1.0
##YFACTOR=0.000061475
##DELTAX=4.0
##FIRSTX=450.0
##LASTX=3966.0
##FIRSTY=0.018996
##MAXX=3966
##MINX=450
##MAXY=0.61475
##MINY=0
##NPOINTS=880
##XYDATA=(X++(Y..Y))
450.0 309 315 341 228 107 72 29 59 66 135
490.0 13 45 119 104 150 137 129 190 225 208
530.0 159 230 156 183 144 120 178 190 147 222
570.0 151 88 164 227 210 195 186 86 192 279
610.0 258 155 242 193 244 264 220 207 193 109
650.0 57 81 117 128 118 187 98 77 86 151
690.0 92 139 97 208 170 192 217 259 251 245
730.0 228 275 343 245 344 388 342 379 339 361
770.0 335 354 320 337 340 330 307 328 328 353
810.0 333 332 383 319 303 252 196 251 151 141
850.0 218 184 184 222 159 221 293 303 322 329
890.0 347 315 324 329 318 333 336 412 436 441
930.0 477 587 662 720 799 823 829 818 800 822
970.0 772 754 680 631 606 588 580 603 641 680
1010.0 785 909 1059 1272 1399 1424 1377 1243 1052 851
1050.0 751 667 625 614 580 579 573 629 670 798
1090.0 941 1191 1416 1647 1783 1836 1850 1872 1948 2036
1130.0 2071 2029 1946 1822 1735 1692 1730 1771 1752 1690
1170.0 1551 1355 1133 956 797 721 697 678 686 718
1210.0 768 784 768 753 751 751 784 800 821 841
1250.0 839 836 822 790 748 696 648 610 562 582
1290.0 600 618 639 661 700 750 806 905 1020 1145
1330.0 1304 1481 1722 1977 2200 2401 2499 2505 2394 2210
1370.0 2027 1876 1771 1678 1608 1515 1365 1201 1123 1164
1410.0 1229 1319 1437 1482 1499 1499 1491 1522 1521 1620
1450.0 1763 1919 2159 2300 2271 2134 1925 1555 1173 919
1490.0 739 589 501 410 391 352 300 282 283 237
1530.0 223 221 214 250 208 179 181 213 200 167
1570.0 151 152 178 146 138 154 147 146 153 156
1610.0 165 149 194 162 180 176 196 218 191 223
1650.0 245 311 236 247 283 325 367 441 519 667
1690.0 761 969 1291 1772 2401 3334 4536 6022 7446 8526
1730.0 9080 8887 7897 6448 4828 3405 2293 1593 1133 863
1770.0 714 605 492 422 375 332 324 265 248 206
1810.0 182 158 155 133 131 122 104 107 89 103
1850.0 77 77 84 84 75 81 73 75 62 68
1890.0 66 64 69 49 63 65 57 64 64 55
1930.0 48 61 55 58 62 57 55 51 55 62
1970.0 62 60 53 43 54 44 52 49 43 44
2010.0 47 42 41 42 50 50 54 51 52 51
2050.0 47 42 50 47 48 48 48 38 54 47
2090.0 46 46 46 46 46 36 42 37 45 43
2130.0 44 51 44 51 51 48 52 46 31 40
2170.0 48 47 42 40 40 40 42 38 49 39
2210.0 40 34 38 34 28 31 37 37 38 29
2250.0 30 43 37 28 27 37 27 33 36 33
2290.0 27 35 34 26 17 11 11 13 9 9
2330.0 9 9 9 9 9 25 9 9 9 9
2370.0 9 22 29 41 52 42 49 50 43 42
2410.0 50 43 42 42 47 48 44 39 30 34
2450.0 37 43 35 35 35 35 42 36 36 35
2490.0 35 34 38 28 36 35 36 28 37 35
2530.0 32 30 32 38 41 38 29 37 45 45
2570.0 45 46 53 50 54 59 53 59 51 54
2610.0 52 53 53 54 54 54 68 62 65 73
2650.0 77 87 85 110 101 96 110 111 111 117
2690.0 123 99 111 111 116 120 132 120 136 150
2730.0 152 176 185 201 215 229 224 214 207 207
2770.0 207 200 222 231 240 272 306 332 370 415
2810.0 450 505 556 599 635 693 766 832 917 1047
2850.0 1243 1474 1791 2176 2645 3086 3548 4072 4548 4779
2890.0 4965 4975 4835 4768 4859 5068 5358 5648 5943 6300
2930.0 6692 7196 7818 8454 8909 9046 8981 9052 9205 9647
2970.0 10000 9761 9186 8041 6542 5370 4350 3299 2533 1957
3010.0 1525 1248 1039 893 781 687 624 571 524 480
3050.0 425 373 339 313 291 288 268 253 245 227
3090.0 216 225 203 214 190 182 181 171 149 147
3130.0 140 163 138 138 135 123 131 127 135 142
3170.0 135 142 128 125 136 117 112 105 110 81
3210.0 89 79 70 62 53 49 52 45 39 51
3250.0 35 38 42 33 32 39 39 23 24 40
3290.0 35 27 29 8 19 34 27 30 40 25
3330.0 16 16 29 33 38 33 14 30 48 39
3370.0 57 24 26 49 51 35 54 75 50 61
3410.0 62 74 107 105 136 147 162 187 195 179
3450.0 149 148 132 116 83 42 40 18 19 50
3490.0 26 42 26 32 30 36 36 28 35 40
3530.0 21 30 43 36 36 27 42 21 61 50
3570.0 72 54 46 60 65 52 46 29 29 22
3610.0 60 62 51 47 23 84 38 51 37 51
3650.0 62 53 61 52 40 62 65 54 56 39
3690.0 66 48 47 37 38 47 64 44 40 55
3730.0 63 79 82 65 70 47 64 63 55 48
3770.0 36 32 38 16 31 54 51 43 64 63
3810.0 63 55 64 72 65 70 65 67 83 61
3850.0 76 100 76 46 73 80 82 69 90 99
3890.0 92 84 104 111 100 83 88 82 82 65
3930.0 58 68 77 103 114 124 0 9 9 9
##END=
