##TITLE=1-Propyne, 3-bromo-
##JCAMP-DX=4.24
##DATA TYPE=INFRARED SPECTRUM
##ORIGIN=Sadtler Research Labs Under US-EPA Contract
##OWNER=NIST Standard Reference Data Program
##CAS REGISTRY NO=106-96-7
##MOLFORM=C 3 H 3 Br
##XUNITS=1/CM
##YUNITS=ABSORBANCE
##XFACTOR=1.0
##YFACTOR=0.000094019
##DELTAX=4.0
##FIRSTX=450.0
##LASTX=3966.0
##FIRSTY=0.001222
##MAXX=3966
##MINX=450
##MAXY=0.94019
##MINY=0
##NPOINTS=880
##XYDATA=(X++(Y..Y))
450.0 13 19 20 13 10 2 0 0 0 5
490.0 11 15 16 20 11 17 17 26 28 38
530.0 44 51 63 72 61 92 99 105 115 107
570.0 124 142 167 151 212 296 366 441 615 861
610.0 1236 1832 2555 3065 3271 3768 4911 7444 6629 7523
650.0 10000 8984 5887 4552 3625 2482 1883 1232 818 489
690.0 325 207 132 90 76 69 71 56 56 59
730.0 52 49 33 25 31 31 41 45 48 62
770.0 62 79 79 68 80 77 72 64 63 73
810.0 63 48 50 49 49 48 60 43 43 47
850.0 51 70 77 83 80 86 102 93 93 93
890.0 93 99 107 118 122 140 152 180 211 250
930.0 311 380 444 562 776 1079 1198 1057 896 959
970.0 1023 713 336 146 86 74 65 70 69 71
1010.0 79 82 102 109 119 134 146 148 163 173
1050.0 189 201 202 215 224 239 262 315 399 521
1090.0 670 786 857 921 900 835 677 551 454 344
1130.0 264 212 185 173 171 185 203 214 244 239
1170.0 217 240 255 209 218 321 616 1216 2242 3423
1210.0 3768 3195 2597 3577 3261 1867 865 505 481 568
1250.0 692 838 1012 1154 1213 1193 1245 1392 1326 1160
1290.0 962 811 633 456 365 347 348 298 296 299
1330.0 283 279 276 284 280 292 297 294 263 230
1370.0 196 172 170 152 130 114 109 98 96 103
1410.0 105 126 139 170 188 185 138 198 225 237
1450.0 214 182 172 125 125 90 81 46 50 31
1490.0 30 26 32 16 37 4 7 16 26 15
1530.0 8 29 17 32 6 17 20 31 30 20
1570.0 29 17 37 23 31 26 29 25 30 26
1610.0 26 22 34 26 16 31 14 24 15 32
1650.0 5 58 13 16 18 27 13 25 5 37
1690.0 20 22 30 46 26 37 36 53 44 44
1730.0 50 67 50 50 32 32 37 43 44 48
1770.0 49 56 48 38 37 28 34 25 21 26
1810.0 24 17 24 20 27 20 19 24 20 24
1850.0 20 19 18 12 14 20 17 20 20 19
1890.0 19 19 20 24 20 19 24 23 19 25
1930.0 27 24 27 22 24 28 26 27 32 31
1970.0 37 38 34 32 33 30 30 32 33 36
2010.0 35 39 31 38 39 39 40 40 38 39
2050.0 43 44 42 43 48 50 50 50 44 44
2090.0 40 41 41 41 49 53 69 76 80 88
2130.0 88 82 77 72 59 45 43 37 38 41
2170.0 37 38 32 37 37 32 33 28 28 22
2210.0 28 28 28 25 27 27 28 28 27 33
2250.0 32 37 41 41 41 43 43 46 45 43
2290.0 45 26 18 20 11 3 7 1 8 7
2330.0 8 8 10 14 20 0 0 13 23 25
2370.0 32 38 37 31 39 41 46 51 51 52
2410.0 62 73 73 67 72 76 66 46 38 38
2450.0 38 38 38 37 37 37 36 33 33 36
2490.0 38 38 38 38 38 38 43 48 43 47
2530.0 48 48 44 45 40 39 43 40 43 39
2570.0 43 39 41 39 41 43 44 40 34 35
2610.0 29 34 25 30 36 36 46 51 55 59
2650.0 53 59 61 56 55 60 81 88 87 81
2690.0 77 77 69 58 62 58 55 56 56 52
2730.0 51 57 57 57 57 57 59 59 61 56
2770.0 61 62 58 63 58 64 63 66 62 69
2810.0 67 76 79 82 90 88 100 115 121 131
2850.0 146 161 186 203 214 219 212 195 188 178
2890.0 162 156 157 157 168 162 168 174 167 164
2930.0 163 167 161 168 188 205 227 255 308 350
2970.0 380 361 291 307 340 313 254 212 179 163
3010.0 143 127 117 106 99 97 87 79 78 82
3050.0 78 72 67 63 73 71 67 71 68 68
3090.0 68 62 67 63 62 63 58 58 58 50
3130.0 57 55 54 59 54 45 59 53 53 58
3170.0 59 59 58 58 56 56 60 54 48 53
3210.0 50 48 50 54 55 48 49 57 59 56
3250.0 60 65 81 100 122 142 174 239 309 390
3290.0 478 628 870 1167 1379 1580 2160 3138 4207 4140
3330.0 3373 3196 4035 3451 1909 945 552 413 335 273
3370.0 214 162 139 119 103 88 86 81 68 62
3410.0 48 49 53 43 47 52 52 47 47 41
3450.0 42 46 50 43 53 42 42 42 46 31
3490.0 53 48 48 40 39 42 36 39 38 43
3530.0 40 38 38 39 33 35 29 30 26 29
3570.0 35 28 31 36 16 27 11 8 29 16
3610.0 17 10 8 17 0 13 4 19 29 34
3650.0 36 38 47 39 35 49 49 55 37 33
3690.0 45 41 34 32 30 37 41 35 32 39
3730.0 34 41 49 41 58 35 61 47 48 41
3770.0 39 47 47 42 51 49 50 49 58 61
3810.0 61 64 58 62 63 66 69 74 71 74
3850.0 76 85 95 96 91 99 99 99 103 107
3890.0 105 107 100 103 101 107 105 112 123 124
3930.0 140 149 169 178 186 193 202 204 204 195
##END=
