##TITLE=Benzenethiol, 4-methyl-
##JCAMP-DX=4.24
##DATA TYPE=INFRARED SPECTRUM
##ORIGIN=Sadtler Research Labs Under US-EPA Contract
##OWNER=NIST Standard Reference Data Program
##CAS REGISTRY NO=106-45-6
##MOLFORM=C 7 H 8 S
##XUNITS=1/CM
##YUNITS=ABSORBANCE
##XFACTOR=1.0
##YFACTOR=0.000083008
##DELTAX=4.0
##FIRSTX=450.0
##LASTX=3966.0
##FIRSTY=0.128911
##MAXX=3966
##MINX=450
##MAXY=0.83008
##MINY=0
##NPOINTS=880
##XYDATA=(X++(Y..Y))
450.0 1553 1423 1853 2290 2761 3095 3378 3579 2997 2774
490.0 2262 1663 1314 781 503 433 303 355 207 335
530.0 360 152 224 208 206 24 166 148 51 111
570.0 201 416 335 263 422 410 247 226 242 201
610.0 259 330 588 628 451 497 561 350 289 149
650.0 241 305 270 312 256 228 205 288 213 216
690.0 377 271 307 183 244 244 277 208 266 235
730.0 307 327 416 326 392 429 487 717 982 1304
770.0 1780 2518 3428 4486 5606 6515 8569 9420 7169 6358
810.0 5291 3987 2699 1779 1200 887 693 528 458 480
850.0 418 366 451 378 407 340 305 259 349 288
890.0 387 418 423 517 536 633 684 684 698 764
930.0 679 587 476 498 455 379 401 424 440 466
970.0 437 520 491 533 519 568 524 599 678 859
1010.0 1532 2308 2346 2240 2252 1368 793 669 690 723
1050.0 698 605 598 518 522 509 526 545 634 967
1090.0 1834 3380 4487 4821 5069 4339 2130 1207 1190 1009
1130.0 748 584 479 385 348 320 331 318 339 340
1170.0 352 379 431 485 414 449 464 592 815 999
1210.0 1100 1197 1223 1041 943 899 795 698 568 459
1250.0 400 378 385 375 368 329 328 359 368 371
1290.0 428 487 573 587 545 559 575 538 489 486
1330.0 443 435 429 439 413 406 422 420 437 448
1370.0 460 559 657 741 860 1058 1213 1334 1422 1498
1410.0 1570 1613 1562 1407 1268 1155 1020 967 850 794
1450.0 829 913 999 1033 1339 1602 1985 2610 3538 5126
1490.0 7496 9758 10000 9114 8042 4850 2152 1081 800 648
1530.0 586 591 568 601 507 486 534 566 531 465
1570.0 482 455 498 434 431 447 468 517 561 615
1610.0 657 698 738 668 672 639 575 507 415 402
1650.0 330 407 254 276 253 295 256 267 256 272
1690.0 231 249 282 309 272 255 305 355 326 337
1730.0 351 401 329 301 279 290 289 276 299 324
1770.0 385 484 488 496 443 375 283 209 191 164
1810.0 164 157 171 171 183 191 188 214 225 230
1850.0 219 215 231 286 324 413 490 572 635 687
1890.0 695 651 593 497 388 286 228 190 147 131
1930.0 133 119 113 124 116 112 115 118 104 107
1970.0 107 112 121 94 97 111 98 119 119 121
2010.0 125 125 104 92 91 92 77 63 66 68
2050.0 72 71 77 68 81 80 64 75 57 76
2090.0 79 71 77 65 81 73 69 72 67 71
2130.0 59 52 59 43 44 62 61 60 67 82
2170.0 76 83 90 90 95 83 81 82 84 78
2210.0 75 62 65 77 70 66 62 61 66 66
2250.0 66 60 57 59 65 64 54 76 78 103
2290.0 126 145 168 181 201 210 195 209 225 218
2330.0 215 243 205 214 209 207 300 365 323 290
2370.0 206 144 104 91 89 86 90 106 95 94
2410.0 100 106 106 105 97 69 66 65 55 49
2450.0 45 53 46 52 57 57 57 45 53 46
2490.0 54 54 43 42 42 42 41 55 54 51
2530.0 44 52 37 27 32 47 52 70 79 102
2570.0 116 152 216 273 301 319 300 240 179 141
2610.0 105 98 102 97 78 71 63 59 60 78
2650.0 59 63 55 66 68 66 79 80 68 75
2690.0 84 99 89 96 115 99 94 83 90 108
2730.0 133 173 217 284 297 289 257 146 112 100
2770.0 78 95 127 92 104 123 143 160 168 164
2810.0 181 192 184 214 235 258 299 331 409 481
2850.0 533 691 840 1109 1490 1860 2148 2385 2497 2427
2890.0 2281 2132 2012 1846 1822 1824 1974 2268 2772 3555
2930.0 4368 4871 4941 4593 3929 2852 2109 1724 1633 1593
2970.0 1529 1597 1678 1834 1909 2011 2080 2267 2296 2417
3010.0 2434 2641 3127 4010 4877 5181 5243 4893 3932 3249
3050.0 3006 2891 2829 2685 2614 2615 2630 2575 2403 2304
3090.0 2133 1746 1374 1126 933 753 603 456 320 221
3130.0 156 135 122 107 95 115 78 74 93 76
3170.0 75 76 74 75 71 65 70 50 61 58
3210.0 63 68 70 70 70 71 76 81 67 43
3250.0 58 47 37 20 37 83 40 76 51 45
3290.0 67 52 54 67 89 59 87 58 83 64
3330.0 78 69 86 48 58 81 45 80 79 60
3370.0 87 77 58 59 93 64 35 65 77 46
3410.0 70 82 67 80 81 52 70 64 51 50
3450.0 70 72 72 41 43 69 74 53 59 62
3490.0 52 84 104 110 107 109 101 88 70 52
3530.0 52 39 66 58 88 48 61 53 66 90
3570.0 54 50 70 90 101 91 93 100 101 96
3610.0 87 115 106 119 109 125 118 125 96 123
3650.0 165 137 158 155 173 185 195 197 202 163
3690.0 188 161 177 174 155 155 154 170 181 176
3730.0 166 191 225 204 229 252 188 191 166 194
3770.0 207 208 196 188 209 198 191 206 232 226
3810.0 247 245 257 268 291 252 268 287 271 263
3850.0 271 277 249 242 257 276 282 269 265 268
3890.0 254 276 260 256 246 215 226 250 246 252
3930.0 253 265 272 289 291 287 0 20 21 21
##END=
