##TITLE=Oxacyclohexadecan-2-one
##JCAMP-DX=4.24
##DATA TYPE=INFRARED SPECTRUM
##ORIGIN=Sadtler Research Labs Under US-EPA Contract
##OWNER=NIST Standard Reference Data Program
##CAS REGISTRY NO=106-02-5
##MOLFORM=C 15 H 28 O 2
##XUNITS=1/CM
##YUNITS=ABSORBANCE
##XFACTOR=1.0
##YFACTOR=0.000110635
##DELTAX=4.0
##FIRSTX=450.0
##LASTX=3966.0
##FIRSTY=0.000000
##MAXX=3966
##MINX=450
##MAXY=1.10635
##MINY=0
##NPOINTS=880
##XYDATA=(X++(Y..Y))
450.0 0 118 158 112 162 143 148 116 112 116
490.0 114 102 104 127 116 98 107 120 95 89
530.0 93 89 93 83 73 80 78 90 69 77
570.0 80 107 76 113 95 108 117 112 111 112
610.0 113 114 106 104 95 79 84 90 77 88
650.0 78 78 84 84 79 89 95 87 90 107
690.0 111 122 158 174 195 223 242 252 226 227
730.0 215 204 194 195 173 162 149 147 143 137
770.0 145 146 146 159 172 178 196 212 212 207
810.0 192 175 173 168 159 155 149 145 147 140
850.0 133 138 138 146 157 164 172 169 174 177
890.0 171 173 169 176 179 179 181 185 183 191
930.0 200 213 226 234 253 271 284 299 314 319
970.0 319 320 319 325 323 331 356 394 446 497
1010.0 538 561 565 562 563 566 569 571 587 609
1050.0 650 680 697 703 706 709 708 706 697 690
1090.0 689 713 765 839 902 914 875 811 767 784
1130.0 892 1070 1276 1454 1583 1677 1753 1854 1939 1966
1170.0 1905 1769 1617 1491 1410 1372 1362 1381 1422 1481
1210.0 1552 1623 1691 1745 1796 1837 1852 1823 1754 1653
1250.0 1541 1427 1331 1254 1166 1069 983 914 868 832
1290.0 786 729 671 625 587 551 520 492 476 487
1330.0 528 591 653 717 762 774 767 715 637 565
1370.0 507 458 442 456 457 429 357 292 260 251
1410.0 243 260 258 302 358 451 536 616 710 809
1450.0 931 1034 1127 1197 1125 903 645 465 358 265
1490.0 208 165 123 118 121 117 123 126 112 114
1530.0 92 83 76 80 103 120 129 121 135 141
1570.0 139 136 137 128 122 98 76 69 84 105
1610.0 115 125 128 145 144 153 146 150 156 157
1650.0 151 153 170 172 174 179 183 201 199 213
1690.0 233 260 275 324 387 457 517 580 688 804
1730.0 963 1167 1584 2356 3727 5202 5677 4512 2851 1707
1770.0 1174 911 752 627 521 434 358 311 262 242
1810.0 218 202 189 177 168 159 157 152 146 135
1850.0 142 138 139 133 130 125 127 130 127 123
1890.0 117 120 118 118 117 116 112 112 113 114
1930.0 114 113 114 109 109 111 109 108 109 105
1970.0 103 102 102 102 102 99 100 99 99 97
2010.0 98 95 97 97 100 98 100 98 97 95
2050.0 98 98 97 94 94 92 92 90 92 90
2090.0 90 91 89 88 87 86 86 87 87 87
2130.0 84 83 85 84 82 84 84 85 83 83
2170.0 85 87 84 83 83 81 82 80 79 81
2210.0 82 81 80 83 82 82 81 81 82 81
2250.0 82 82 83 81 81 82 85 84 86 86
2290.0 87 91 93 93 97 97 95 93 91 87
2330.0 84 86 82 77 97 91 91 87 84 85
2370.0 91 86 91 92 86 77 76 76 76 76
2410.0 74 73 71 71 74 74 74 71 70 70
2450.0 71 70 72 72 69 70 73 72 69 71
2490.0 73 74 73 74 75 77 80 79 82 84
2530.0 83 83 83 84 83 85 85 85 86 85
2570.0 85 89 88 88 91 90 91 98 100 99
2610.0 102 100 106 107 106 110 116 116 122 125
2650.0 129 133 138 141 142 148 152 159 166 170
2690.0 172 169 166 160 152 147 143 140 139 140
2730.0 140 144 142 142 146 145 150 150 154 158
2770.0 158 162 166 175 181 194 212 220 238 248
2810.0 261 285 312 340 369 399 432 478 563 724
2850.0 1051 1708 2677 3589 3998 3756 3069 2324 1766 1471
2890.0 1381 1456 1673 2072 2666 3364 4025 4667 5556 6857
2930.0 8569 9841 10000 8789 7052 5482 4305 3522 2971 2530
2970.0 2094 1708 1387 1141 926 735 584 467 391 336
3010.0 294 264 242 221 208 193 182 175 166 161
3050.0 152 149 140 137 132 130 126 121 118 118
3090.0 112 109 110 108 108 103 104 103 102 100
3130.0 98 99 97 97 95 97 98 97 94 89
3170.0 89 90 93 89 90 87 86 86 87 89
3210.0 85 86 82 88 84 83 82 81 80 86
3250.0 80 84 81 81 82 84 84 79 78 79
3290.0 76 81 82 84 78 79 86 85 84 83
3330.0 85 84 82 80 78 80 87 85 83 88
3370.0 83 85 86 85 87 90 88 90 86 89
3410.0 85 88 86 90 89 86 94 85 83 84
3450.0 87 86 87 85 91 93 92 103 110 104
3490.0 95 91 82 86 78 71 72 75 69 73
3530.0 79 78 74 79 76 75 72 75 76 82
3570.0 78 79 84 82 78 86 80 87 81 82
3610.0 89 86 84 91 83 85 82 85 86 86
3650.0 89 91 88 86 93 90 90 89 89 90
3690.0 87 95 90 85 85 86 87 91 81 86
3730.0 83 89 90 85 74 93 97 94 95 84
3770.0 85 85 87 98 98 89 94 85 86 88
3810.0 82 92 80 90 83 88 93 93 95 83
3850.0 84 82 87 87 78 88 76 86 78 93
3890.0 93 93 86 91 84 82 80 85 88 77
3930.0 81 94 98 84 83 91 87 85 84 88
##END=
