##TITLE=Hexanoic acid, methyl ester
##JCAMP-DX=4.24
##DATA TYPE=INFRARED SPECTRUM
##ORIGIN=Sadtler Research Labs Under US-EPA Contract
##OWNER=NIST Standard Reference Data Program
##CAS REGISTRY NO=106-70-7
##MOLFORM=C 7 H 14 O 2
##XUNITS=1/CM
##YUNITS=ABSORBANCE
##XFACTOR=1.0
##YFACTOR=0.000074902
##DELTAX=4.0
##FIRSTX=450.0
##LASTX=3966.0
##FIRSTY=0.002846
##MAXX=3966
##MINX=450
##MAXY=0.74902
##MINY=0
##NPOINTS=880
##XYDATA=(X++(Y..Y))
450.0 38 40 83 100 134 94 77 62 75 90
490.0 49 31 21 39 118 177 58 45 78 129
530.0 131 170 108 128 86 133 125 244 158 129
570.0 132 197 237 312 271 257 209 279 318 260
610.0 313 251 239 351 314 284 234 290 245 307
650.0 294 289 260 282 251 226 295 228 259 314
690.0 310 340 299 283 354 388 386 340 368 363
730.0 508 441 392 573 513 492 423 423 379 352
770.0 347 341 387 382 432 386 356 383 377 423
810.0 417 432 463 481 509 508 514 530 580 614
850.0 644 678 702 742 710 645 592 513 480 480
890.0 461 450 456 402 387 373 346 348 322 323
930.0 311 322 302 294 293 305 300 304 358 380
970.0 385 443 470 530 585 605 666 744 850 983
1010.0 1107 1245 1323 1354 1309 1266 1160 1044 922 805
1050.0 736 683 666 693 741 781 847 934 1007 1151
1090.0 1306 1543 1810 2031 2146 2271 2239 2080 1938 1795
1130.0 1671 1658 1727 1874 2166 2614 3303 4272 5410 6693
1170.0 7483 7714 7344 6518 5693 5073 4694 4442 4236 4100
1210.0 4077 4154 4245 4266 4257 4205 4235 4372 4445 4488
1250.0 4345 4080 3663 3204 2812 2533 2321 2141 2010 1924
1290.0 1871 1842 1800 1752 1715 1705 1704 1678 1614 1539
1330.0 1472 1486 1549 1638 1733 1830 1913 1971 1932 1823
1370.0 1675 1495 1321 1166 1019 883 745 631 587 563
1410.0 589 618 676 786 1005 1351 1930 2325 2543 2451
1450.0 1960 1716 1577 1623 1565 1463 1235 1065 866 709
1490.0 565 499 394 388 297 299 314 287 225 258
1530.0 284 252 243 154 233 265 237 180 173 245
1570.0 233 239 206 247 252 244 231 230 230 223
1610.0 216 207 148 195 188 195 180 148 198 157
1650.0 172 62 203 196 210 176 199 216 234 185
1690.0 283 313 296 320 454 567 665 755 1015 1309
1730.0 1696 2191 3012 4063 5393 6872 8477 9619 10000 9380
1770.0 7961 6195 4621 3257 2281 1581 1064 767 561 436
1810.0 346 294 259 228 201 180 181 175 167 133
1850.0 161 158 150 149 149 129 148 149 141 133
1890.0 133 133 138 132 130 137 131 116 131 128
1930.0 136 141 146 140 149 142 144 138 144 149
1970.0 143 148 156 153 156 151 155 162 160 160
2010.0 165 169 183 190 183 193 188 195 188 183
2050.0 180 178 178 168 164 157 157 149 142 133
2090.0 126 128 124 120 111 116 109 104 111 98
2130.0 97 88 88 87 82 89 85 85 82 78
2170.0 78 83 76 76 75 68 74 68 67 59
2210.0 62 65 65 57 56 63 70 63 56 55
2250.0 54 53 51 53 59 60 59 57 56 57
2290.0 62 55 54 47 54 34 32 33 21 18
2330.0 9 8 16 7 9 14 8 8 14 8
2370.0 8 9 25 32 45 48 49 49 48 41
2410.0 40 40 33 45 41 50 37 37 41 29
2450.0 36 35 27 27 26 32 28 23 29 23
2490.0 27 23 29 16 21 8 15 20 16 14
2530.0 17 19 19 21 26 27 24 31 23 37
2570.0 38 38 32 34 43 51 48 51 54 51
2610.0 53 55 60 55 55 56 60 63 63 67
2650.0 65 74 76 71 77 79 77 78 87 79
2690.0 92 76 80 80 77 82 77 79 75 89
2730.0 89 96 104 110 113 114 118 105 111 116
2770.0 105 110 118 132 139 146 167 174 189 194
2810.0 217 229 256 301 341 391 463 579 725 920
2850.0 1146 1378 1611 1855 2121 2362 2545 2667 2715 2594
2890.0 2434 2230 2041 2027 2144 2386 2726 3158 3655 4230
2930.0 4788 5314 5770 6034 6119 6168 6383 6721 6959 7198
2970.0 6934 5930 4875 3696 2704 2111 1767 1523 1377 1228
3010.0 1103 996 927 886 834 799 720 651 561 502
3050.0 418 376 341 308 290 261 252 254 248 241
3090.0 243 220 227 208 194 187 173 174 155 153
3130.0 137 135 128 123 116 113 109 111 104 105
3170.0 105 104 108 86 95 93 90 92 87 96
3210.0 87 82 76 63 70 68 67 64 75 58
3250.0 59 54 56 59 59 59 66 64 66 59
3290.0 66 57 64 53 65 62 57 67 69 62
3330.0 70 70 71 70 77 71 51 62 63 58
3370.0 83 66 79 74 67 78 59 71 82 71
3410.0 71 81 85 83 82 91 83 84 92 88
3450.0 79 83 88 87 93 89 95 105 129 134
3490.0 134 154 165 172 184 166 153 123 120 117
3530.0 98 105 100 77 103 76 80 78 82 70
3570.0 64 89 75 81 63 61 54 61 62 68
3610.0 53 54 70 56 75 33 58 63 77 74
3650.0 25 46 46 61 64 31 24 21 58 59
3690.0 41 46 60 49 56 42 39 56 60 51
3730.0 49 19 13 20 8 8 16 40 46 53
3770.0 44 41 49 59 60 57 53 37 24 43
3810.0 35 30 17 24 51 46 31 8 19 29
3850.0 24 8 29 33 39 20 27 41 41 42
3890.0 45 45 48 56 60 52 50 56 50 57
3930.0 64 58 70 74 86 97 0 8 8 8
##END=
