##TITLE=1,4-Benzenediamine
##JCAMP-DX=4.24
##DATA TYPE=INFRARED SPECTRUM
##ORIGIN=Sadtler Research Labs Under US-EPA Contract
##OWNER=NIST Standard Reference Data Program
##CAS REGISTRY NO=106-50-3
##MOLFORM=C 6 H 8 N 2
##XUNITS=1/CM
##YUNITS=ABSORBANCE
##XFACTOR=1.0
##YFACTOR=0.000072656
##DELTAX=4.0
##FIRSTX=450.0
##LASTX=3966.0
##FIRSTY=0.104116
##MAXX=3966
##MINX=450
##MAXY=0.72656
##MINY=0
##NPOINTS=880
##XYDATA=(X++(Y..Y))
450.0 1433 1775 1829 2880 2413 2866 3042 2826 2999 2995
490.0 2839 2530 2498 2608 1819 1686 1317 1320 1178 923
530.0 975 1096 720 484 552 1090 1252 1104 910 1056
570.0 763 646 774 925 903 850 1047 1034 1053 1014
610.0 958 1057 1023 1103 1175 1411 1755 2306 2590 2900
650.0 3045 3200 2824 2522 2351 2078 2264 2354 2299 2303
690.0 2064 2047 1880 1674 1601 1411 1274 747 1089 1087
730.0 1073 863 865 865 759 595 610 481 386 300
770.0 226 232 296 416 597 855 1181 1458 1864 2311
810.0 2813 3126 2863 2440 2113 1724 1399 1040 828 652
850.0 300 392 305 267 214 134 183 130 122 133
890.0 73 139 108 87 115 14 78 90 117 15
930.0 77 66 47 94 58 46 63 46 106 110
970.0 99 82 52 88 99 126 132 150 164 157
1010.0 195 222 221 227 194 219 206 200 207 243
1050.0 292 338 397 466 537 583 691 742 708 682
1090.0 610 539 499 447 504 580 725 768 771 639
1130.0 653 651 511 344 224 162 141 99 100 86
1170.0 82 113 103 104 87 48 42 57 68 86
1210.0 125 186 243 328 386 483 633 876 1329 2133
1250.0 3307 4436 4980 5084 4939 4310 2904 1564 858 581
1290.0 508 480 494 497 519 529 540 494 457 413
1330.0 361 268 211 160 129 86 56 27 18 33
1370.0 31 16 39 64 61 68 90 110 113 143
1410.0 158 166 157 144 152 160 125 115 146 179
1450.0 185 192 163 256 263 325 309 393 427 508
1490.0 701 1042 1781 3010 4819 7571 9147 10000 9164 8351
1530.0 6667 3765 1707 641 374 274 182 159 107 216
1570.0 209 241 312 369 505 619 806 1030 1399 1959
1610.0 2647 3216 3470 3613 3296 2886 2184 1406 1001 671
1650.0 468 347 281 271 191 136 124 96 53 24
1690.0 66 43 0 11 44 75 105 84 133 188
1730.0 209 221 195 134 92 67 82 66 85 70
1770.0 70 54 85 111 98 92 101 115 134 120
1810.0 127 144 147 169 177 189 193 217 196 172
1850.0 175 145 114 98 72 55 38 20 8 16
1890.0 25 17 17 45 51 72 73 83 77 89
1930.0 91 93 88 64 77 83 81 80 78 73
1970.0 90 70 66 67 62 48 47 53 45 58
2010.0 44 42 42 60 53 56 52 42 25 28
2050.0 31 31 27 37 21 14 37 29 35 38
2090.0 43 51 57 44 53 51 54 49 36 50
2130.0 29 30 35 39 27 42 49 37 38 36
2170.0 35 37 43 46 34 35 21 20 13 20
2210.0 19 21 29 15 23 23 34 27 21 30
2250.0 33 32 31 32 25 28 44 44 50 53
2290.0 57 73 80 74 65 79 60 53 46 37
2330.0 55 61 97 35 126 94 77 33 99 135
2370.0 132 119 112 101 77 60 51 38 37 37
2410.0 30 31 28 29 35 31 33 30 30 29
2450.0 29 37 34 39 38 35 30 32 30 37
2490.0 45 45 48 46 45 59 62 71 69 67
2530.0 71 61 42 41 28 27 28 25 32 36
2570.0 46 48 49 52 54 55 66 59 65 65
2610.0 66 58 66 60 60 67 62 67 64 69
2650.0 68 68 80 73 67 72 74 75 71 59
2690.0 61 61 56 54 68 60 70 73 77 69
2730.0 66 61 51 55 48 43 54 55 55 58
2770.0 60 63 59 48 47 50 36 45 40 53
2810.0 55 51 44 54 49 43 47 46 49 54
2850.0 64 65 72 79 81 103 106 108 123 114
2890.0 119 135 111 122 135 131 113 121 106 102
2930.0 114 115 108 100 86 89 82 88 73 76
2970.0 92 80 86 77 96 127 187 303 506 828
3010.0 1229 1562 1828 2008 2061 1858 1586 1481 1464 1320
3050.0 1164 1000 832 668 498 409 333 296 274 230
3090.0 218 203 206 180 177 178 158 162 149 123
3130.0 110 90 88 59 50 59 38 37 35 24
3170.0 26 28 31 24 14 24 30 54 56 55
3210.0 63 71 74 80 76 72 58 64 55 65
3250.0 85 69 100 81 89 99 96 84 83 75
3290.0 67 55 47 49 44 35 37 49 51 49
3330.0 65 60 54 52 52 61 77 70 97 112
3370.0 130 148 182 240 276 346 412 427 429 378
3410.0 337 248 193 148 125 144 151 154 181 203
3450.0 251 282 323 361 404 452 445 440 439 414
3490.0 383 322 255 203 169 123 121 106 96 93
3530.0 90 91 79 74 77 61 77 62 57 61
3570.0 99 57 77 75 97 95 86 53 41 61
3610.0 38 60 42 62 35 63 56 62 66 71
3650.0 48 79 48 71 77 16 82 28 82 58
3690.0 43 46 55 88 68 66 53 23 32 20
3730.0 53 55 47 68 6 67 12 69 49 47
3770.0 44 40 61 53 35 67 45 54 58 59
3810.0 16 29 16 43 62 44 48 32 22 71
3850.0 2 37 19 70 20 59 80 38 66 111
3890.0 78 63 58 52 70 80 46 67 77 22
3930.0 24 52 55 37 110 94 75 85 31 58
##END=
