##TITLE=p-Chloroaniline
##JCAMP-DX=4.24
##DATA TYPE=INFRARED SPECTRUM
##ORIGIN=Sadtler Research Labs Under US-EPA Contract
##OWNER=NIST Standard Reference Data Program
##CAS REGISTRY NO=106-47-8
##MOLFORM=C 6 H 6 Cl N
##XUNITS=1/CM
##YUNITS=ABSORBANCE
##XFACTOR=1.0
##YFACTOR=0.000109845
##DELTAX=4.0
##FIRSTX=450.0
##LASTX=3966.0
##FIRSTY=0.045256
##MAXX=3966
##MINX=450
##MAXY=1.09845
##MINY=0
##NPOINTS=880
##XYDATA=(X++(Y..Y))
450.0 412 530 617 769 688 753 892 908 1093 1277
490.0 1417 1474 1357 1232 1218 825 802 543 528 239
530.0 396 272 428 325 285 402 432 202 380 421
570.0 385 492 438 478 474 487 478 519 529 702
610.0 828 1183 1698 2508 3286 3864 4236 4363 3649 2701
650.0 2100 1531 915 884 1153 1475 1571 1644 1585 1424
690.0 1294 1205 1080 945 807 699 565 543 470 419
730.0 371 354 357 377 379 353 345 308 307 373
770.0 395 449 474 593 751 912 1256 1679 2117 2540
810.0 2799 3300 3616 3198 2616 2269 1857 1443 1052 736
850.0 542 440 329 285 242 211 163 150 98 120
890.0 81 95 76 53 63 47 48 43 49 58
930.0 54 55 51 67 71 97 93 96 107 123
970.0 122 118 110 98 101 131 216 329 476 624
1010.0 689 683 575 448 296 221 181 161 187 220
1050.0 258 299 300 334 345 358 385 481 847 1695
1090.0 2978 3748 3710 4036 3212 1641 880 804 659 560
1130.0 551 453 331 197 128 90 74 123 319 780
1170.0 1050 973 1038 909 459 122 44 30 32 41
1210.0 42 49 52 62 83 120 181 296 468 742
1250.0 1164 1754 2418 3053 3762 4339 4453 4049 3556 2838
1290.0 1745 881 510 321 230 196 158 150 117 75
1330.0 57 30 60 42 13 6 0 13 22 16
1370.0 22 34 42 38 41 62 67 107 136 191
1410.0 306 329 453 416 398 333 294 249 181 190
1450.0 223 237 339 419 550 827 1223 1937 3307 5800
1490.0 8937 9889 10000 9188 7183 3474 1792 1172 938 760
1530.0 621 523 462 353 287 244 261 384 411 466
1570.0 480 523 534 476 563 698 890 1116 1280 1591
1610.0 2105 3051 3927 4596 4823 4813 3877 2595 1931 1080
1650.0 729 582 350 365 295 267 319 253 306 300
1690.0 272 265 284 283 263 221 239 234 200 189
1730.0 197 257 199 199 193 162 120 88 72 52
1770.0 62 65 39 51 46 49 69 51 82 56
1810.0 61 76 61 81 91 105 123 141 196 239
1850.0 272 300 307 306 316 318 256 213 171 153
1890.0 138 124 109 100 96 98 103 101 107 92
1930.0 84 81 76 85 80 73 74 71 59 64
1970.0 58 51 50 49 49 57 61 55 54 60
2010.0 59 71 73 69 73 69 75 78 80 82
2050.0 85 91 97 101 107 98 94 89 83 78
2090.0 78 77 79 79 78 76 66 61 55 49
2130.0 43 50 44 45 44 43 45 45 48 51
2170.0 57 61 61 58 54 50 46 42 44 46
2210.0 48 52 57 57 57 58 59 66 66 71
2250.0 71 74 77 82 84 81 83 83 85 95
2290.0 100 105 118 119 125 130 121 115 107 99
2330.0 93 90 91 74 96 73 91 76 85 76
2370.0 59 72 68 71 65 60 63 67 68 71
2410.0 71 69 65 69 67 71 70 71 69 67
2450.0 65 63 60 53 49 48 43 45 43 46
2490.0 45 44 46 48 52 52 54 59 66 72
2530.0 74 84 89 94 94 89 87 81 76 73
2570.0 71 75 77 80 88 88 84 80 76 72
2610.0 67 60 60 58 57 57 61 61 61 65
2650.0 63 64 67 71 74 69 68 66 66 72
2690.0 72 76 75 75 75 74 68 67 63 62
2730.0 64 61 64 65 62 71 67 68 66 62
2770.0 64 62 60 60 61 61 57 58 56 57
2810.0 60 63 63 73 74 85 92 107 117 127
2850.0 142 151 162 168 175 183 197 209 212 213
2890.0 218 221 220 215 212 211 218 226 236 250
2930.0 265 269 275 279 275 280 291 300 307 310
2970.0 300 293 297 303 307 325 363 405 437 447
3010.0 428 395 397 445 575 799 1060 1202 1234 1208
3050.0 1047 750 600 543 488 452 424 409 402 409
3090.0 422 425 445 438 406 345 283 220 165 114
3130.0 90 77 61 57 57 64 58 59 59 59
3170.0 60 62 54 59 54 61 66 72 87 97
3210.0 112 119 129 127 129 134 131 130 130 124
3250.0 108 102 96 89 83 76 71 74 63 68
3290.0 70 65 65 67 69 62 63 60 64 65
3330.0 63 68 59 65 74 71 72 80 93 94
3370.0 102 121 138 161 194 265 358 477 637 772
3410.0 817 865 918 754 638 557 434 267 219 183
3450.0 159 169 168 192 231 258 312 368 420 474
3490.0 509 501 537 548 510 436 392 365 307 243
3530.0 197 171 141 114 98 94 82 85 79 68
3570.0 64 66 64 74 53 69 69 72 67 64
3610.0 58 52 60 51 63 42 50 63 69 53
3650.0 68 57 76 74 77 67 58 52 61 68
3690.0 58 72 58 71 75 66 65 76 75 92
3730.0 68 64 73 60 63 39 73 50 49 55
3770.0 62 55 67 70 56 58 63 41 54 41
3810.0 64 51 51 39 66 50 42 51 70 104
3850.0 121 124 126 142 111 98 118 72 77 64
3890.0 73 82 59 65 44 65 80 65 44 56
3930.0 54 77 62 92 78 71 79 86 74 10
##END=
