##TITLE=Oxirane, ethyl-
##JCAMP-DX=4.24
##DATA TYPE=INFRARED SPECTRUM
##ORIGIN=Sadtler Research Labs Under US-EPA Contract
##OWNER=NIST Standard Reference Data Program
##CAS REGISTRY NO=106-88-7
##MOLFORM=C 4 H 8 O
##XUNITS=1/CM
##YUNITS=ABSORBANCE
##XFACTOR=1.0
##YFACTOR=0.000103265
##DELTAX=4.0
##FIRSTX=450.0
##LASTX=3966.0
##FIRSTY=0.078688
##MAXX=3966
##MINX=450
##MAXY=1.03265
##MINY=0
##NPOINTS=880
##XYDATA=(X++(Y..Y))
450.0 762 617 600 643 585 438 327 349 314 259
490.0 164 148 114 102 60 64 67 72 83 87
530.0 63 32 57 96 69 74 83 71 56 72
570.0 3 45 37 64 42 47 65 66 62 64
610.0 78 74 74 67 73 53 53 55 62 50
650.0 62 61 66 60 61 59 50 51 55 66
690.0 55 72 77 74 106 115 162 205 274 324
730.0 354 416 456 494 597 627 586 548 522 518
770.0 569 618 607 613 630 705 785 858 965 1120
810.0 1351 1611 2013 2438 2880 3146 3306 3464 3400 3494
850.0 3268 2729 2041 1481 1150 1073 1126 1248 1475 1772
890.0 2175 2573 2999 3271 3249 3078 3012 2991 2850 2486
930.0 2107 1760 1467 1254 1094 920 817 729 618 530
970.0 502 437 393 353 377 385 424 457 512 566
1010.0 611 645 648 667 678 717 735 713 672 622
1050.0 553 480 422 380 332 298 295 295 325 363
1090.0 418 465 488 526 503 535 592 552 503 467
1130.0 464 445 435 427 408 387 363 350 320 263
1170.0 231 195 173 156 144 132 116 119 119 126
1210.0 127 149 169 210 269 345 431 508 578 643
1250.0 716 769 793 723 687 655 597 529 459 406
1290.0 377 396 433 491 510 530 534 508 534 493
1330.0 436 356 263 208 191 190 201 229 256 296
1370.0 341 398 445 508 579 727 916 1075 1164 1187
1410.0 1287 1229 1236 1315 1255 1125 1009 924 963 1021
1450.0 1165 1301 1410 1578 1567 1594 1713 1622 1535 1423
1490.0 1286 1074 953 814 599 422 311 251 200 171
1530.0 146 136 131 128 121 126 143 154 158 153
1570.0 155 165 162 153 143 124 108 100 90 85
1610.0 77 88 87 84 80 88 93 93 93 98
1650.0 103 118 111 113 113 110 104 99 98 94
1690.0 83 80 74 63 61 57 63 65 64 65
1730.0 79 78 84 81 79 81 78 69 61 53
1770.0 41 38 30 31 26 31 29 30 30 26
1810.0 29 26 29 26 26 24 24 22 26 21
1850.0 21 25 20 22 19 19 17 20 14 14
1890.0 16 17 15 17 19 16 17 22 18 17
1930.0 22 22 21 23 20 27 23 25 22 28
1970.0 30 31 31 31 31 28 30 31 29 27
2010.0 29 28 30 35 40 42 41 47 51 53
2050.0 53 47 44 43 45 49 55 55 47 40
2090.0 35 28 19 12 10 6 6 5 10 12
2130.0 12 16 19 23 24 29 35 35 36 36
2170.0 40 40 42 42 43 43 47 49 48 54
2210.0 51 54 53 59 60 67 75 87 97 103
2250.0 108 107 109 105 103 99 89 78 72 64
2290.0 65 66 65 69 65 65 63 69 63 68
2330.0 69 52 53 46 19 43 58 52 54 26
2370.0 12 16 7 10 16 20 27 27 33 39
2410.0 34 33 30 23 21 23 20 20 20 14
2450.0 11 10 11 14 13 12 11 9 9 12
2490.0 10 12 11 10 6 7 7 2 0 3
2530.0 3 7 7 7 12 13 14 17 14 23
2570.0 25 27 30 29 34 31 33 38 41 38
2610.0 35 36 41 40 28 26 30 25 19 12
2650.0 8 12 17 32 38 56 63 69 72 73
2690.0 77 82 82 82 87 87 97 105 115 118
2730.0 126 142 150 159 170 179 185 191 197 198
2770.0 199 208 212 211 210 219 224 237 248 260
2810.0 275 290 312 348 384 422 487 555 617 692
2850.0 777 898 1022 1165 1317 1519 1810 2162 2471 2633
2890.0 2779 2933 3095 3339 3511 3656 3798 4027 4293 4638
2930.0 4978 5328 5716 5939 6064 6306 6567 6955 7601 8227
2970.0 8897 9592 9987 9989 10000 9389 8583 7529 6358 5341
3010.0 4551 3973 3466 3094 2841 2847 2945 3189 3121 3374
3050.0 3692 2933 2796 2594 2105 1672 1242 953 699 538
3090.0 412 325 251 203 195 166 156 144 139 134
3130.0 137 137 138 127 128 139 130 142 144 139
3170.0 138 144 141 138 123 122 112 111 104 92
3210.0 90 80 75 76 66 69 51 42 37 49
3250.0 38 34 32 37 42 53 32 62 78 34
3290.0 63 64 65 61 61 58 62 48 66 69
3330.0 52 65 59 59 52 61 79 85 60 67
3370.0 64 66 80 73 79 61 71 70 67 64
3410.0 72 55 68 71 61 74 85 89 74 77
3450.0 85 86 76 86 72 56 74 66 78 89
3490.0 70 71 65 60 55 71 66 66 65 50
3530.0 55 33 44 56 44 46 37 32 46 48
3570.0 42 52 27 1 73 43 20 44 61 48
3610.0 51 54 51 50 63 72 59 28 43 42
3650.0 51 65 45 64 40 42 72 57 65 67
3690.0 75 64 68 48 55 54 27 56 75 52
3730.0 81 71 67 87 83 84 81 63 48 62
3770.0 63 52 64 75 90 74 86 68 73 67
3810.0 68 80 86 84 92 91 78 92 88 110
3850.0 116 109 85 84 71 72 64 101 61 100
3890.0 92 108 58 77 90 48 61 28 65 80
3930.0 94 59 87 79 76 120 99 114 88 123
##END=
