##TITLE=1,3-Butadiene
##JCAMP-DX=4.24
##DATA TYPE=INFRARED SPECTRUM
##ORIGIN=Sadtler Research Labs Under US-EPA Contract
##OWNER=NIST Standard Reference Data Program
##CAS REGISTRY NO=106-99-0
##MOLFORM=C 4 H 6
##XUNITS=1/CM
##YUNITS=ABSORBANCE
##XFACTOR=1.0
##YFACTOR=0.000034586
##DELTAX=4.0
##FIRSTX=450.0
##LASTX=3966.0
##FIRSTY=0.000000
##MAXX=3966
##MINX=450
##MAXY=0.34586
##MINY=0
##NPOINTS=880
##XYDATA=(X++(Y..Y))
450.0 0 301 680 443 430 416 689 569 650 615
490.0 807 803 725 1042 885 1029 1061 1293 1413 1311
530.0 968 874 923 923 983 735 814 650 621 483
570.0 542 444 374 403 311 369 263 366 243 309
610.0 253 256 254 197 254 215 257 179 236 166
650.0 199 225 266 260 231 272 245 241 208 277
690.0 179 214 214 174 191 192 221 147 218 184
730.0 234 171 236 192 198 206 202 240 147 248
770.0 193 242 177 269 192 199 230 203 214 180
810.0 337 236 347 319 428 431 472 672 644 904
850.0 964 1361 1340 1864 2108 2539 2897 3356 3955 3830
890.0 4594 4199 4892 3640 8461 10000 6371 5463 5584 5400
930.0 5917 5182 5167 4488 4068 3411 3051 2635 2262 2135
970.0 1965 2071 2055 2441 2651 2683 3397 3825 3506 3651
1010.0 4183 4400 3050 2586 2754 2606 2590 2421 2313 2112
1050.0 1944 1658 1377 1225 1057 950 815 733 620 512
1090.0 441 368 305 261 246 204 198 175 194 172
1130.0 186 168 172 170 155 160 155 156 145 160
1170.0 151 152 151 156 151 154 167 148 159 161
1210.0 188 176 183 195 196 214 227 253 259 285
1250.0 293 319 324 337 337 341 368 408 425 382
1290.0 335 295 320 355 385 352 319 300 287 289
1330.0 278 283 272 283 298 313 363 450 596 750
1370.0 826 713 545 640 631 786 739 588 499 453
1410.0 435 434 438 417 395 372 392 399 397 390
1450.0 369 352 342 343 341 356 375 364 343 342
1490.0 329 342 351 323 292 277 246 251 256 224
1530.0 212 204 230 231 227 245 300 404 538 768
1570.0 1155 1698 2407 3057 3323 3026 2550 2827 3053 3668
1610.0 3132 1981 1093 592 429 361 364 339 343 335
1650.0 318 283 250 228 230 221 214 195 200 200
1690.0 183 193 205 206 197 194 209 219 226 237
1730.0 259 289 294 298 316 335 352 334 324 313
1770.0 323 318 302 316 332 398 510 741 1126 1615
1810.0 1903 1832 1607 1346 1572 2145 1995 1497 944 626
1850.0 425 334 295 284 264 242 242 240 255 245
1890.0 247 224 218 214 211 220 209 229 213 224
1930.0 224 226 226 238 257 262 287 287 292 270
1970.0 267 257 261 245 225 208 196 189 177 180
2010.0 173 164 164 162 162 164 164 159 165 164
2050.0 164 158 161 162 159 170 168 163 165 164
2090.0 166 176 170 164 164 166 164 170 170 166
2130.0 165 158 165 159 164 160 173 174 170 165
2170.0 158 162 163 162 162 166 165 167 173 164
2210.0 163 163 164 165 167 174 172 176 180 183
2250.0 182 189 193 189 177 182 188 187 172 173
2290.0 163 163 148 157 151 151 151 145 150 165
2330.0 148 155 147 162 177 173 176 147 159 199
2370.0 155 159 155 146 145 149 162 165 170 171
2410.0 162 168 162 164 167 165 166 172 175 167
2450.0 175 183 181 174 184 184 193 200 212 211
2490.0 194 189 188 204 202 199 184 177 177 177
2530.0 175 175 164 161 168 170 165 167 179 174
2570.0 184 177 175 180 174 171 166 162 161 156
2610.0 156 150 159 158 163 159 157 160 159 156
2650.0 155 149 158 164 167 167 161 164 164 161
2690.0 164 170 172 165 166 170 168 173 166 171
2730.0 175 165 167 162 177 177 172 170 165 167
2770.0 165 172 163 176 174 176 167 166 168 171
2810.0 164 158 171 173 168 174 166 172 183 194
2850.0 196 198 191 205 206 200 212 222 222 229
2890.0 240 253 263 283 300 333 345 350 365 377
2930.0 440 484 516 536 576 647 697 834 1008 1171
2970.0 1392 1542 1534 1524 1644 1982 2309 2478 2483 2314
3010.0 2157 2185 2256 2282 2281 2181 2188 2263 2305 2242
3050.0 2089 2051 2214 2524 2704 2764 2815 3064 3333 3581
3090.0 3447 2968 2537 2546 3054 3445 3037 2456 1881 1541
3130.0 1295 1126 986 849 751 629 574 475 418 356
3170.0 323 286 266 250 229 216 204 203 186 186
3210.0 187 192 186 190 199 204 213 209 212 193
3250.0 196 188 166 183 181 176 168 170 152 160
3290.0 158 165 173 178 175 172 163 154 162 182
3330.0 168 176 172 175 166 166 176 172 174 171
3370.0 174 168 166 176 181 190 187 186 191 173
3410.0 197 184 177 177 189 186 192 182 164 166
3450.0 170 192 162 189 177 190 175 171 177 166
3490.0 189 184 199 170 174 156 173 181 192 164
3530.0 170 173 179 197 174 170 168 158 172 198
3570.0 180 171 173 171 178 187 200 164 181 166
3610.0 188 183 182 196 186 182 180 179 171 164
3650.0 163 170 172 154 166 150 156 173 168 170
3690.0 171 181 174 173 166 180 168 146 155 164
3730.0 151 171 179 172 209 166 188 174 162 173
3770.0 193 189 156 164 188 170 146 159 154 173
3810.0 161 186 182 151 162 194 182 179 168 158
3850.0 162 177 195 204 170 177 143 172 196 213
3890.0 193 148 155 173 177 199 161 180 156 184
3930.0 158 184 150 193 225 177 175 166 186 178
##END=
