##TITLE=Hexanedioic acid, dipropyl ester
##JCAMP-DX=4.24
##DATA TYPE=INFRARED SPECTRUM
##ORIGIN=Sadtler Research Labs Under US-EPA Contract
##OWNER=NIST Standard Reference Data Program
##CAS REGISTRY NO=106-19-4
##MOLFORM=C 12 H 22 O 4
##XUNITS=1/CM
##YUNITS=ABSORBANCE
##XFACTOR=1.0
##YFACTOR=0.000121420
##DELTAX=4.0
##FIRSTX=450.0
##LASTX=3966.0
##FIRSTY=0.032662
##MAXX=3966
##MINX=450
##MAXY=1.2142
##MINY=0
##NPOINTS=880
##XYDATA=(X++(Y..Y))
450.0 269 138 80 60 106 91 66 143 119 99
490.0 80 112 28 66 77 113 63 66 24 23
530.0 41 18 23 28 41 18 27 21 75 49
570.0 76 86 55 55 106 69 84 89 85 100
610.0 84 78 77 105 115 125 87 87 96 87
650.0 70 57 54 51 54 14 57 53 54 53
690.0 62 69 74 74 74 85 90 85 93 95
730.0 117 136 137 151 178 195 223 245 249 247
770.0 229 210 181 182 184 147 131 140 125 123
810.0 126 125 139 144 149 162 152 159 164 164
850.0 175 183 187 200 213 220 225 229 244 268
890.0 293 315 335 358 379 408 428 437 447 452
930.0 456 465 486 523 572 633 696 741 809 886
970.0 964 1037 1081 1070 1012 954 912 919 917 901
1010.0 831 748 673 613 599 625 704 808 914 1010
1050.0 1115 1300 1545 1797 1922 1924 1808 1651 1459 1280
1090.0 1114 970 909 919 1039 1104 1314 1535 1832 2212
1130.0 2688 3281 3945 4572 5020 5281 5381 5460 5510 5542
1170.0 5567 5492 5345 5073 4803 4491 4237 4016 3846 3737
1210.0 3661 3658 3671 3740 3798 3856 3869 3860 3795 3665
1250.0 3487 3272 3046 2812 2628 2440 2275 2160 2086 2022
1290.0 1934 1802 1640 1511 1435 1430 1408 1335 1203 1097
1330.0 1049 1098 1220 1323 1406 1480 1555 1566 1489 1324
1370.0 1149 1046 1028 1059 1028 1015 1004 926 716 553
1410.0 439 425 439 506 602 686 743 739 758 794
1450.0 863 965 1091 1173 1142 1027 841 683 552 423
1490.0 359 273 225 192 165 139 162 128 97 108
1530.0 97 108 52 78 73 99 65 69 23 85
1570.0 62 78 41 85 78 68 82 77 83 70
1610.0 96 67 68 81 81 85 70 80 105 60
1650.0 111 44 109 120 123 102 150 135 195 154
1690.0 239 278 300 388 501 646 706 892 1063 1333
1730.0 1692 2295 3265 4553 6884 8457 10000 9192 7661 5339
1770.0 3614 2354 1692 1214 965 704 587 460 382 306
1810.0 259 225 182 178 139 141 112 133 97 98
1850.0 99 86 86 81 80 69 75 71 72 68
1890.0 66 75 65 74 66 76 66 73 76 73
1930.0 68 71 70 67 69 66 63 63 63 65
1970.0 60 60 56 65 62 68 62 69 72 72
2010.0 73 75 86 83 91 87 92 90 93 90
2050.0 83 82 72 76 80 81 74 71 66 61
2090.0 55 55 57 50 54 53 56 55 51 54
2130.0 48 47 41 47 41 45 47 43 39 39
2170.0 42 37 42 39 43 42 46 45 45 47
2210.0 45 47 44 45 43 49 49 48 45 47
2250.0 45 44 47 43 47 43 47 44 45 44
2290.0 39 33 30 26 21 14 17 10 12 12
2330.0 9 14 32 17 57 14 3 3 4 35
2370.0 61 82 80 75 64 58 55 53 56 52
2410.0 52 53 51 54 53 51 50 50 50 50
2450.0 46 52 47 46 46 47 49 45 51 46
2490.0 45 46 51 50 50 52 50 52 48 51
2530.0 45 51 45 48 44 49 46 49 48 48
2570.0 54 51 54 51 54 57 55 56 56 57
2610.0 53 52 49 52 49 49 45 54 56 51
2650.0 45 34 34 32 33 45 53 63 63 65
2690.0 66 72 64 72 71 69 72 72 78 79
2730.0 88 90 95 101 101 110 112 115 114 114
2770.0 112 116 106 110 111 109 110 113 122 125
2810.0 139 150 161 174 184 204 221 249 269 298
2850.0 333 383 461 565 699 850 965 1058 1176 1346
2890.0 1506 1546 1470 1390 1335 1300 1308 1402 1593 1853
2930.0 2170 2470 2680 2880 3122 3301 3382 3436 3568 3733
2970.0 3962 4150 4282 4186 3583 2644 1833 1303 958 731
3010.0 573 470 382 321 280 255 230 210 188 180
3050.0 167 146 150 134 131 125 113 115 114 104
3090.0 93 96 91 83 84 75 69 73 73 68
3130.0 62 62 68 56 55 51 48 57 45 51
3170.0 51 45 52 47 48 30 30 26 32 37
3210.0 25 31 33 30 34 35 21 33 24 30
3250.0 22 29 24 28 34 35 20 10 19 12
3290.0 15 16 11 22 30 20 31 34 32 17
3330.0 21 26 31 26 23 32 27 24 34 17
3370.0 18 35 37 26 22 22 22 29 34 28
3410.0 32 38 29 36 44 35 45 42 36 33
3450.0 54 51 45 60 60 61 79 90 117 117
3490.0 119 109 97 85 87 62 36 26 44 56
3530.0 37 39 30 28 47 38 28 47 33 63
3570.0 55 47 46 31 47 32 43 37 22 37
3610.0 51 53 43 30 47 18 43 38 56 22
3650.0 12 51 25 60 20 47 3 45 32 44
3690.0 37 38 25 55 53 49 51 69 24 52
3730.0 44 0 51 35 48 30 33 41 29 31
3770.0 48 33 29 21 17 42 41 36 23 14
3810.0 49 52 8 26 34 32 22 24 44 46
3850.0 45 18 23 12 53 35 35 32 59 18
3890.0 27 21 68 4 56 14 39 30 16 29
3930.0 15 36 1 28 59 13 6 7 27 48
##END=
