##TITLE=2-Propenoic acid, 2-methylpropyl ester
##JCAMP-DX=4.24
##DATA TYPE=INFRARED SPECTRUM
##ORIGIN=Sadtler Research Labs Under US-EPA Contract
##OWNER=NIST Standard Reference Data Program
##CAS REGISTRY NO=106-63-8
##MOLFORM=C 7 H 12 O 2
##SOURCE REFERENCE=No.245678 (NIST/EPA/NIH MS Database)
##XUNITS=1/CM
##YUNITS=ABSORBANCE
##XFACTOR=1.0
##YFACTOR=0.000169452
##DELTAX=4.0
##FIRSTX=450.0
##LASTX=3966.0
##FIRSTY=0.031179
##MAXX=3966
##MINX=450
##MAXY=1.69452
##MINY=0
##NPOINTS=880
##XYDATA=(X++(Y..Y))
450.0 184 100 76 54 59 78 79 16 67 36
490.0 134 24 47 45 26 47 70 60 59 89
530.0 57 80 59 83 31 43 33 57 48 52
570.0 80 35 55 29 19 8 35 90 43 76
610.0 65 67 32 75 69 69 74 60 70 51
650.0 101 83 114 132 151 161 125 108 68 51
690.0 26 44 22 32 19 24 16 18 43 9
730.0 27 12 23 18 31 23 28 41 31 45
770.0 43 81 83 114 148 226 324 427 565 676
810.0 773 728 676 571 481 401 331 285 251 228
850.0 197 195 172 169 161 169 164 161 173 174
890.0 195 201 226 233 256 267 273 280 288 310
930.0 330 371 421 501 583 703 839 1000 1184 1179
970.0 1196 1194 1230 1308 1478 1535 1615 1696 1798 1784
1010.0 1611 1344 867 498 363 346 394 532 799 1185
1050.0 1742 2402 2922 3028 2882 2286 1498 935 654 496
1090.0 411 360 328 323 318 320 314 312 311 315
1130.0 336 365 406 461 567 716 945 1286 1775 2498
1170.0 3481 4776 6307 8137 9300 10000 9849 8652 6606 4519
1210.0 2699 1630 1184 969 874 837 864 974 1211 1642
1250.0 2301 3160 3961 4507 4608 4267 3525 2846 2365 2223
1290.0 2378 2483 2463 2205 1721 1254 903 636 477 398
1330.0 362 356 354 360 357 354 350 351 380 435
1370.0 521 589 656 719 870 1091 1261 1600 2264 2775
1410.0 2876 2823 2311 1436 825 559 445 401 398 428
1450.0 485 572 674 779 868 923 919 826 710 564
1490.0 428 320 251 208 172 153 140 123 111 103
1530.0 101 99 91 83 81 78 71 62 55 64
1570.0 61 67 64 77 83 97 112 132 163 200
1610.0 253 302 360 422 489 567 653 656 618 516
1650.0 348 193 157 129 126 122 132 143 164 174
1690.0 208 256 290 356 429 534 649 846 1140 1608
1730.0 2342 3376 4742 5978 6773 6742 6296 4986 3470 2272
1770.0 1453 909 625 440 341 260 227 194 181 165
1810.0 150 137 113 106 85 84 74 79 72 73
1850.0 75 70 70 61 66 57 59 57 63 59
1890.0 58 64 61 70 72 87 98 119 132 150
1930.0 160 149 135 113 93 73 69 63 58 54
1970.0 47 47 44 45 42 48 50 56 60 61
2010.0 64 63 62 59 63 62 63 58 59 55
2050.0 56 52 49 43 38 43 43 51 51 56
2090.0 58 57 60 55 53 49 49 42 41 37
2130.0 36 32 31 33 27 30 27 27 26 28
2170.0 27 25 23 22 21 19 20 18 16 12
2210.0 14 12 11 14 12 12 10 16 14 12
2250.0 14 12 14 14 13 10 12 14 16 14
2290.0 18 21 24 27 25 27 24 25 19 18
2330.0 14 12 17 14 22 28 31 27 29 26
2370.0 27 34 41 43 33 35 27 26 16 14
2410.0 10 10 7 5 9 6 9 4 4 5
2450.0 9 9 8 9 9 17 13 16 15 14
2490.0 13 11 10 12 14 13 12 11 9 10
2530.0 10 10 8 9 9 10 8 10 10 14
2570.0 14 13 14 14 13 14 16 13 17 14
2610.0 10 13 12 8 11 20 18 22 13 20
2650.0 21 19 21 28 30 24 20 17 17 22
2690.0 27 23 29 34 28 28 30 35 39 44
2730.0 56 56 67 67 64 55 52 50 42 44
2770.0 43 38 39 48 44 51 53 57 54 56
2810.0 67 73 78 85 94 101 108 109 122 133
2850.0 144 157 181 224 289 405 583 838 1058 1200
2890.0 1282 1255 1200 1142 1108 1083 1062 1046 1062 1113
2930.0 1181 1308 1477 1667 1869 2072 2290 2557 2879 3385
2970.0 3976 4107 3929 3392 2492 1645 985 618 439 337
3010.0 241 195 168 163 159 178 184 216 242 242
3050.0 225 193 141 105 95 100 100 106 111 101
3090.0 101 90 100 131 200 228 218 204 141 74
3130.0 56 36 33 34 34 29 35 32 37 33
3170.0 34 34 39 39 38 32 26 31 25 22
3210.0 16 15 15 9 9 9 8 7 6 5
3250.0 7 7 7 7 11 16 14 6 12 13
3290.0 10 4 7 8 11 24 19 24 33 22
3330.0 21 25 26 26 30 38 30 36 34 32
3370.0 44 40 53 36 48 44 49 43 35 43
3410.0 39 41 34 31 33 43 40 34 33 41
3450.0 45 41 60 64 88 88 95 94 85 79
3490.0 72 62 44 39 33 30 26 28 26 24
3530.0 33 36 31 20 30 19 35 29 26 40
3570.0 19 28 21 35 21 1 20 12 12 20
3610.0 39 34 25 12 17 9 8 17 15 8
3650.0 32 17 23 14 25 27 5 11 9 28
3690.0 10 6 17 1 13 23 10 4 16 10
3730.0 8 9 12 12 14 7 8 18 9 1
3770.0 2 1 16 11 18 7 9 1 8 12
3810.0 3 1 28 20 11 12 4 21 20 20
3850.0 5 9 15 12 1 13 19 12 17 5
3890.0 28 12 1 1 15 34 0 29 26 18
3930.0 8 10 30 29 5 25 17 18 11 22
##END=
