##TITLE=Hexanedioic acid, bis(2-methoxyethyl) ester
##JCAMP-DX=4.24
##DATA TYPE=INFRARED SPECTRUM
##ORIGIN=Sadtler Research Labs Under US-EPA Contract
##OWNER=NIST Standard Reference Data Program
##CAS REGISTRY NO=106-00-3
##MOLFORM=C 12 H 22 O 6
##XUNITS=1/CM
##YUNITS=ABSORBANCE
##XFACTOR=1.0
##YFACTOR=0.000064142
##DELTAX=4.0
##FIRSTX=450.0
##LASTX=3966.0
##FIRSTY=0.080947
##MAXX=3966
##MINX=450
##MAXY=0.64142
##MINY=0
##NPOINTS=880
##XYDATA=(X++(Y..Y))
450.0 1262 1084 153 205 526 46 634 360 809 651
490.0 368 590 465 688 783 701 956 702 810 663
530.0 748 728 521 734 441 131 520 570 371 517
570.0 297 341 402 440 508 436 495 391 453 373
610.0 229 461 391 383 373 339 418 374 291 401
650.0 325 325 288 315 336 313 397 320 328 388
690.0 397 398 403 416 448 486 499 402 435 479
730.0 496 533 534 562 666 677 932 937 875 769
770.0 593 489 497 464 437 414 461 503 560 588
810.0 636 746 684 667 672 691 852 796 866 942
850.0 923 1005 972 965 942 923 877 851 892 848
890.0 838 900 887 968 1044 1089 1223 1265 1295 1355
930.0 1356 1381 1432 1438 1445 1478 1496 1485 1452 1404
970.0 1283 1297 1302 1279 1348 1353 1369 1376 1414 1459
1010.0 1526 1643 1721 1847 1984 2127 2242 2261 2352 2360
1050.0 2295 2370 2414 2498 2633 2688 2782 2850 2884 2945
1090.0 2965 3047 3138 3302 3602 3867 4356 4863 5690 6774
1130.0 7916 8694 8912 8630 8071 7641 7271 7104 6965 6851
1170.0 6844 6787 6437 6037 5703 5518 5384 5259 5134 5009
1210.0 4771 4598 4633 4747 4770 4698 4701 4676 4572 4503
1250.0 4316 4116 3858 3585 3356 3215 3078 2935 2882 2846
1290.0 2695 2518 2337 2133 2016 1866 1703 1540 1432 1346
1330.0 1354 1428 1539 1654 1687 1753 1701 1622 1531 1524
1370.0 1556 1582 1481 1343 1246 1197 1166 1185 1165 1074
1410.0 959 883 841 860 943 1065 1160 1253 1335 1401
1450.0 1484 1627 1711 1672 1465 1253 1088 926 884 939
1490.0 953 843 657 527 484 405 371 362 327 323
1530.0 293 315 296 300 268 260 306 312 265 279
1570.0 288 299 312 346 334 301 305 281 270 277
1610.0 265 253 260 242 236 251 245 232 244 279
1650.0 259 255 241 254 288 274 292 310 330 360
1690.0 369 437 505 551 662 751 922 1074 1215 1527
1730.0 1881 2374 3209 4288 6064 8113 9624 10000 8699 6600
1770.0 4655 3203 2331 1743 1344 1090 840 690 587 470
1810.0 428 360 317 294 255 250 225 218 207 193
1850.0 184 176 166 172 173 171 164 161 165 172
1890.0 165 158 158 172 168 157 165 166 158 146
1930.0 153 162 164 159 157 164 173 177 181 190
1970.0 188 199 199 173 174 189 193 206 205 210
2010.0 200 183 177 162 166 168 172 163 155 149
2050.0 151 142 143 142 132 123 129 140 132 122
2090.0 117 123 120 108 103 104 100 103 96 97
2130.0 97 101 97 99 98 101 98 96 90 89
2170.0 88 76 80 77 69 71 68 70 65 74
2210.0 65 60 63 66 62 62 56 56 57 55
2250.0 63 59 61 56 55 56 52 55 47 51
2290.0 59 61 68 72 70 77 78 95 93 70
2330.0 75 50 27 9 3 66 170 143 35 2
2370.0 3 3 3 3 6 27 34 35 34 33
2410.0 33 26 23 23 19 14 11 11 5 4
2450.0 10 10 8 11 10 8 7 9 7 10
2490.0 11 13 12 12 16 15 11 15 6 14
2530.0 11 11 13 13 11 18 18 25 26 26
2570.0 23 22 33 42 42 45 51 55 57 52
2610.0 55 49 53 46 47 47 49 50 41 43
2650.0 43 34 34 31 28 26 25 25 22 23
2690.0 26 33 38 57 77 83 106 115 111 108
2730.0 145 147 169 181 192 201 191 179 177 190
2770.0 208 221 241 261 296 333 374 430 505 593
2810.0 718 861 1055 1273 1464 1579 1589 1532 1488 1483
2850.0 1512 1570 1660 1750 1838 1939 2061 2229 2373 2467
2890.0 2465 2406 2330 2270 2220 2202 2203 2283 2449 2659
2930.0 2863 3007 3093 3150 3195 3262 3342 3349 3185 2897
2970.0 2629 2451 2319 2184 2095 2041 1994 1844 1557 1204
3010.0 924 716 580 482 417 382 345 304 272 252
3050.0 241 244 219 220 207 193 187 173 165 147
3090.0 133 114 108 102 83 91 83 76 80 64
3130.0 58 57 56 59 54 43 46 58 32 37
3170.0 43 41 38 42 45 32 34 39 55 37
3210.0 33 43 40 54 47 66 55 54 59 61
3250.0 66 51 60 79 76 73 66 51 81 65
3290.0 70 57 66 62 71 74 57 53 63 62
3330.0 48 66 38 59 59 53 54 32 36 56
3370.0 59 51 61 76 56 43 28 31 45 42
3410.0 44 47 52 35 39 43 65 55 68 52
3450.0 60 66 71 57 66 80 91 90 97 144
3490.0 139 136 122 110 88 86 78 78 74 48
3530.0 44 73 62 42 59 27 57 51 48 51
3570.0 16 59 52 60 59 35 39 21 40 66
3610.0 54 35 38 50 53 45 8 54 63 95
3650.0 55 32 53 65 91 97 63 13 37 70
3690.0 56 16 42 45 47 35 12 9 46 19
3730.0 26 55 0 14 3 3 3 3 3 3
3770.0 3 3 3 3 3 3 3 8 5 3
3810.0 3 3 3 3 3 3 16 22 2 2
3850.0 43 51 3 3 15 12 32 1 1 47
3890.0 23 6 43 87 14 3 9 22 7 14
3930.0 9 5 6 61 18 3 3 1 8 6
##END=
