##TITLE=Benzene, 1,4-dibromo-
##JCAMP-DX=4.24
##DATA TYPE=INFRARED SPECTRUM
##ORIGIN=Sadtler Research Labs Under US-EPA Contract
##OWNER=NIST Standard Reference Data Program
##CAS REGISTRY NO=106-37-6
##MOLFORM=C 6 H 4 Br 2
##XUNITS=1/CM
##YUNITS=ABSORBANCE
##XFACTOR=1.0
##YFACTOR=0.000077304
##DELTAX=4.0
##FIRSTX=450.0
##LASTX=3966.0
##FIRSTY=0.000000
##MAXX=3966
##MINX=450
##MAXY=0.77304
##MINY=0
##NPOINTS=880
##XYDATA=(X++(Y..Y))
450.0 0 478 1319 1440 1407 1906 1844 1779 1532 1248
490.0 1054 855 730 590 650 546 597 728 588 622
530.0 735 721 621 626 649 604 609 630 590 660
570.0 677 542 585 607 592 609 521 671 578 690
610.0 679 687 647 551 528 577 539 601 465 503
650.0 533 555 575 502 592 586 557 601 500 554
690.0 565 547 549 537 593 566 548 581 566 625
730.0 738 689 772 616 568 594 598 706 722 640
770.0 627 609 702 749 945 1214 1534 2044 2488 2889
810.0 3300 3310 2936 2550 2023 1555 1074 828 671 605
850.0 595 538 575 565 605 575 558 563 527 529
890.0 560 528 554 526 528 548 532 529 541 533
930.0 544 519 545 535 548 557 545 538 534 502
970.0 545 554 575 599 609 736 1063 2464 5656 9541
1010.0 10000 6494 2371 796 643 585 558 588 551 582
1050.0 651 856 1645 3141 4756 6259 7541 6749 4209 1729
1090.0 698 765 720 708 742 669 674 633 610 644
1130.0 668 773 859 879 777 609 563 555 567 571
1170.0 537 536 537 520 527 525 538 539 545 592
1210.0 671 775 738 665 579 555 587 591 598 605
1250.0 585 588 587 566 554 532 537 535 529 530
1290.0 528 540 525 526 528 523 535 527 529 541
1330.0 540 547 539 535 551 550 582 611 674 762
1370.0 849 971 1058 1102 1131 1087 1047 998 1049 1120
1410.0 1014 868 652 556 534 522 540 529 560 645
1450.0 760 1106 1749 3381 5775 7903 6946 3301 1113 759
1490.0 1030 1224 1646 1752 1485 930 592 548 530 505
1530.0 527 494 486 483 479 519 508 495 490 503
1570.0 505 482 502 493 507 527 516 554 572 595
1610.0 633 651 674 695 692 692 655 604 587 550
1650.0 523 494 493 509 482 483 473 486 484 470
1690.0 488 494 470 463 477 500 493 484 503 520
1730.0 529 503 506 526 523 519 524 562 602 613
1770.0 584 528 513 509 512 504 486 483 494 488
1810.0 483 482 483 485 478 475 480 483 486 479
1850.0 501 507 519 539 554 585 620 656 681 691
1890.0 681 661 627 581 544 518 498 491 483 478
1930.0 482 483 482 480 476 485 483 483 483 475
1970.0 479 475 472 473 474 473 468 475 480 478
2010.0 478 474 476 475 474 474 474 476 478 476
2050.0 474 473 472 473 474 485 481 479 474 469
2090.0 472 473 466 474 472 470 473 472 473 472
2130.0 477 477 475 472 470 467 469 465 474 468
2170.0 468 475 473 477 470 466 465 462 466 465
2210.0 460 466 463 466 457 461 467 466 473 473
2250.0 474 480 482 491 495 500 510 511 520 521
2290.0 525 528 536 541 547 552 539 523 526 511
2330.0 498 491 483 495 500 526 549 530 508 483
2370.0 461 471 481 499 493 487 487 485 481 475
2410.0 477 475 472 476 474 474 474 469 473 474
2450.0 472 473 470 472 470 471 470 470 471 464
2490.0 467 468 472 474 472 468 473 470 475 477
2530.0 486 490 495 491 484 483 490 491 496 493
2570.0 491 495 498 491 481 472 469 465 467 475
2610.0 473 479 483 482 483 488 492 501 492 491
2650.0 483 479 469 469 475 466 469 471 470 473
2690.0 467 470 473 473 474 472 469 470 471 476
2730.0 476 474 476 473 477 476 480 482 482 483
2770.0 481 483 479 483 486 489 497 506 511 519
2810.0 525 518 503 487 476 470 475 469 473 476
2850.0 474 474 477 471 470 467 471 473 479 479
2890.0 468 480 475 462 472 474 475 472 469 475
2930.0 476 473 468 470 474 472 472 479 477 481
2970.0 482 483 480 481 478 481 476 477 484 489
3010.0 483 495 497 498 504 500 502 496 495 491
3050.0 486 489 489 506 515 520 557 578 620 673
3090.0 683 662 615 580 545 525 507 491 481 489
3130.0 482 483 482 484 480 478 484 485 483 479
3170.0 477 485 479 483 483 489 483 483 487 475
3210.0 479 481 483 486 481 487 481 478 484 482
3250.0 479 479 475 478 482 485 473 476 472 474
3290.0 470 471 477 471 474 466 472 478 471 469
3330.0 475 471 463 478 471 465 466 470 472 468
3370.0 476 474 478 474 469 479 472 462 467 462
3410.0 471 469 473 483 477 466 467 467 472 483
3450.0 483 469 483 477 474 463 471 487 474 475
3490.0 477 475 478 484 478 480 472 491 478 483
3530.0 479 470 484 477 488 487 475 479 469 485
3570.0 492 479 476 461 483 483 478 483 457 470
3610.0 477 491 494 477 473 483 489 491 497 488
3650.0 479 483 483 483 502 508 498 490 498 511
3690.0 497 490 525 517 521 519 502 510 520 508
3730.0 505 477 502 501 507 485 486 488 494 489
3770.0 493 499 501 499 533 500 508 513 516 509
3810.0 497 479 489 487 469 473 449 454 483 473
3850.0 472 450 462 484 471 468 483 488 488 447
3890.0 484 470 479 489 485 449 508 450 502 463
3930.0 455 476 462 476 506 465 452 449 503 479
##END=
