##TITLE=Phenol, 4-methyl-
##JCAMP-DX=4.24
##DATA TYPE=INFRARED SPECTRUM
##ORIGIN=Sadtler Research Labs Under US-EPA Contract
##OWNER=NIST Standard Reference Data Program
##CAS REGISTRY NO=106-44-5
##MOLFORM=C 7 H 8 O
##XUNITS=1/CM
##YUNITS=ABSORBANCE
##XFACTOR=1.0
##YFACTOR=0.000142218
##DELTAX=4.0
##FIRSTX=450.0
##LASTX=3966.0
##FIRSTY=0.065705
##MAXX=3966
##MINX=450
##MAXY=1.42218
##MINY=0
##NPOINTS=880
##XYDATA=(X++(Y..Y))
450.0 462 201 147 185 242 222 192 212 438 597
490.0 829 998 1211 1708 1493 921 842 743 456 327
530.0 163 134 131 189 173 288 264 239 248 203
570.0 169 66 41 88 70 133 0 10 48 56
610.0 20 69 46 72 18 45 114 107 101 84
650.0 126 96 77 72 74 89 68 81 111 128
690.0 154 174 180 228 174 162 167 204 333 527
730.0 776 801 833 738 682 379 181 149 145 161
770.0 187 255 337 553 780 1098 1306 1878 2521 2540
810.0 2483 2537 2939 2616 1782 1902 1575 1372 1155 926
850.0 646 393 256 151 122 95 117 101 103 91
890.0 96 89 89 94 98 109 116 131 120 123
930.0 112 103 108 111 125 121 138 134 146 145
970.0 152 161 175 186 194 190 173 173 170 196
1010.0 197 208 207 210 206 198 213 211 238 259
1050.0 290 307 326 336 341 353 367 397 463 623
1090.0 791 900 986 1070 1143 970 826 797 697 530
1130.0 454 450 506 550 630 835 1351 2752 5528 8644
1170.0 9155 9991 10000 9189 5617 3483 2526 1900 1408 1145
1210.0 1004 944 909 870 827 826 915 1270 2162 3783
1250.0 5295 5768 5785 5687 4868 2191 700 438 429 404
1290.0 420 425 426 398 421 482 650 845 1118 1488
1330.0 1663 1641 1329 1243 939 497 320 260 211 212
1370.0 205 187 216 261 266 285 281 254 274 322
1410.0 417 598 664 853 955 1011 923 810 712 578
1450.0 450 375 299 336 363 393 363 400 468 494
1490.0 600 892 1419 2600 4458 6509 7552 7489 7097 5937
1530.0 3818 1740 710 355 266 273 224 144 169 207
1570.0 223 295 408 558 760 931 1130 1249 1366 1523
1610.0 1710 1756 1608 1501 1356 1167 833 578 467 353
1650.0 205 134 125 110 88 73 40 81 20 5
1690.0 50 66 8 21 57 109 88 45 112 143
1730.0 120 80 144 158 141 128 159 154 132 129
1770.0 84 58 71 43 45 34 23 37 19 56
1810.0 51 48 68 66 65 64 91 117 114 120
1850.0 170 215 234 236 211 200 226 205 168 141
1890.0 117 105 106 112 108 96 88 80 54 57
1930.0 60 53 55 42 47 54 57 56 57 51
1970.0 61 75 87 99 110 102 103 106 102 83
2010.0 70 65 61 61 61 53 54 47 39 42
2050.0 49 53 63 67 64 75 80 83 85 88
2090.0 91 96 94 85 75 63 57 49 48 45
2130.0 40 37 32 27 29 30 30 29 32 31
2170.0 27 30 34 36 32 31 30 28 25 25
2210.0 25 27 26 24 24 25 25 26 30 35
2250.0 34 36 39 39 45 47 49 50 49 46
2290.0 47 46 45 47 46 54 67 76 87 96
2330.0 99 96 106 93 82 105 130 106 34 1
2370.0 2 2 2 2 10 26 35 47 50 56
2410.0 70 90 122 155 168 174 169 153 104 70
2450.0 60 57 52 46 48 48 44 45 49 52
2490.0 57 65 70 80 81 80 72 62 44 25
2530.0 19 21 19 17 21 15 15 12 17 20
2570.0 20 17 22 26 29 32 33 39 35 32
2610.0 28 21 18 15 10 6 7 4 3 7
2650.0 9 7 13 13 12 17 16 28 42 40
2690.0 44 36 34 26 20 20 19 16 23 28
2730.0 43 51 72 90 97 105 101 77 59 49
2770.0 46 44 45 42 36 35 36 41 36 40
2810.0 47 52 56 65 73 82 93 109 134 161
2850.0 195 246 318 427 556 731 907 1022 1048 1017
2890.0 951 826 729 684 697 756 846 999 1216 1469
2930.0 1670 1745 1752 1642 1401 1117 870 737 669 608
2970.0 568 556 537 540 559 602 681 812 1017 1234
3010.0 1445 1636 1796 1922 1990 1974 1949 1905 1786 1622
3050.0 1473 1262 1053 889 808 741 651 531 459 415
3090.0 345 278 247 215 199 194 177 164 156 143
3130.0 129 122 98 86 78 63 41 33 23 24
3170.0 11 11 18 10 8 6 13 17 6 11
3210.0 2 8 2 3 10 9 10 20 13 4
3250.0 11 10 16 16 15 15 12 8 6 18
3290.0 22 7 9 21 21 27 20 14 5 12
3330.0 23 16 20 39 45 51 59 63 85 75
3370.0 66 60 66 67 71 74 73 81 55 42
3410.0 65 51 51 63 59 52 64 53 64 42
3450.0 37 39 42 40 41 39 39 32 31 36
3490.0 36 39 36 35 34 42 34 23 20 21
3530.0 21 32 23 27 20 21 24 30 29 5
3570.0 3 31 12 31 29 32 36 35 55 62
3610.0 53 61 103 141 181 307 512 949 1702 2844
3650.0 3663 3567 3311 3329 2544 1321 582 287 175 109
3690.0 42 51 20 36 30 32 18 27 28 5
3730.0 29 20 2 3 3 2 2 12 23 31
3770.0 21 13 28 39 26 40 41 42 28 26
3810.0 22 13 14 4 4 53 16 7 14 34
3850.0 44 25 35 43 35 24 39 34 5 43
3890.0 34 34 22 1 42 30 39 54 41 56
3930.0 35 17 83 75 24 72 45 65 46 19
##END=
