##TITLE=Phenol, 4-bromo-
##JCAMP-DX=4.24
##DATA TYPE=INFRARED SPECTRUM
##ORIGIN=Sadtler Research Labs Under US-EPA Contract
##OWNER=NIST Standard Reference Data Program
##CAS REGISTRY NO=106-41-2
##MOLFORM=C 6 H 5 Br O
##XUNITS=1/CM
##YUNITS=ABSORBANCE
##XFACTOR=1.0
##YFACTOR=0.000067172
##DELTAX=4.0
##FIRSTX=450.0
##LASTX=3966.0
##FIRSTY=0.003157
##MAXX=3966
##MINX=450
##MAXY=0.67172
##MINY=0
##NPOINTS=880
##XYDATA=(X++(Y..Y))
450.0 47 140 212 432 264 21 331 690 882 1020
490.0 1122 1306 1628 1084 1080 996 768 455 757 328
530.0 41 142 177 132 180 204 196 316 358 432
570.0 549 568 622 479 404 398 666 1367 1588 1694
610.0 1686 1200 674 377 299 273 252 219 218 202
650.0 181 123 196 217 269 359 313 364 357 541
690.0 469 393 410 338 240 244 257 290 324 335
730.0 338 370 381 411 608 522 378 471 409 403
770.0 364 351 319 423 577 786 965 1321 1414 1776
810.0 2089 2122 2537 2725 2248 1772 1534 1138 711 507
850.0 323 264 256 244 263 227 260 186 208 168
890.0 169 211 173 193 132 146 185 161 148 223
930.0 233 244 167 199 203 208 179 193 173 241
970.0 174 192 184 221 271 281 354 435 619 1014
1010.0 1158 1118 1036 748 462 444 418 384 401 400
1050.0 409 444 592 1026 1663 1981 2151 2152 1473 1163
1090.0 1198 1120 999 811 674 666 705 742 739 728
1130.0 672 591 592 561 584 696 982 1890 3889 7327
1170.0 9677 10000 9956 6894 4109 3034 2283 1667 1390 1160
1210.0 993 893 869 957 999 1087 1183 1345 1911 2891
1250.0 4467 6145 6592 6124 4578 2141 900 637 521 415
1290.0 376 379 429 511 664 973 1190 1295 1316 1150
1330.0 927 709 621 517 406 351 324 282 278 228
1370.0 263 264 289 322 301 340 349 364 392 463
1410.0 689 1027 1488 1560 1538 1217 735 489 357 387
1450.0 421 454 544 671 794 1270 1886 3175 5186 7461
1490.0 8163 7608 5632 3134 1515 925 725 591 477 376
1530.0 401 348 416 388 390 315 270 354 261 333
1570.0 433 579 901 1299 1688 1956 2163 1835 1498 1133
1610.0 835 683 415 347 280 191 228 205 182 212
1650.0 179 227 150 150 158 136 185 122 194 154
1690.0 149 116 141 145 114 111 127 153 103 94
1730.0 112 134 152 120 141 123 104 103 94 76
1770.0 100 95 80 78 76 61 102 55 107 72
1810.0 78 105 80 103 91 122 126 116 153 151
1850.0 169 161 193 216 203 223 187 185 148 134
1890.0 111 103 87 78 69 68 51 59 59 57
1930.0 52 52 56 55 59 42 51 36 52 52
1970.0 59 56 59 61 59 75 74 70 65 57
2010.0 53 51 54 41 48 40 47 44 55 57
2050.0 61 78 81 100 103 101 104 100 97 84
2090.0 74 58 48 36 37 39 37 37 34 29
2130.0 36 37 34 36 32 35 28 33 40 35
2170.0 37 36 39 40 39 41 35 34 36 42
2210.0 34 37 37 33 37 43 43 45 50 53
2250.0 60 61 73 73 71 75 77 87 93 108
2290.0 120 140 160 170 184 219 189 168 163 154
2330.0 151 141 125 120 186 150 164 126 164 153
2370.0 112 146 115 126 104 66 64 70 69 81
2410.0 88 111 128 145 172 170 155 128 93 62
2450.0 47 52 43 51 51 45 58 57 58 62
2490.0 63 75 76 81 85 92 96 89 61 53
2530.0 45 47 41 37 39 38 41 41 49 52
2570.0 35 44 45 53 55 61 60 49 50 47
2610.0 38 40 38 38 36 29 30 29 30 39
2650.0 38 49 49 50 47 40 35 33 34 34
2690.0 31 31 28 25 20 23 16 21 22 23
2730.0 29 28 31 29 42 39 43 53 49 46
2770.0 45 42 35 32 36 38 30 34 33 30
2810.0 33 26 36 26 35 44 42 40 44 50
2850.0 65 54 60 58 68 55 57 58 52 53
2890.0 51 57 56 49 58 54 66 58 64 51
2930.0 59 66 60 56 54 59 49 59 78 91
2970.0 85 80 77 74 79 87 117 136 145 181
3010.0 204 217 233 290 364 485 613 644 628 539
3050.0 400 323 328 354 361 390 394 399 387 356
3090.0 331 320 320 273 254 234 181 146 117 110
3130.0 85 73 71 66 71 70 65 75 91 73
3170.0 73 63 77 75 82 88 87 76 89 76
3210.0 67 78 71 75 67 82 73 83 77 82
3250.0 75 83 76 72 75 78 83 78 80 77
3290.0 80 69 60 69 71 76 80 83 99 100
3330.0 96 93 108 108 126 125 126 144 134 120
3370.0 129 125 130 118 121 117 109 105 110 95
3410.0 118 97 106 118 92 129 119 125 116 93
3450.0 107 99 110 90 108 114 104 101 110 96
3490.0 114 112 127 106 78 119 97 111 119 94
3530.0 101 104 110 153 125 230 307 391 399 332
3570.0 209 198 103 143 56 132 63 91 83 124
3610.0 113 109 172 162 305 316 635 974 1751 2649
3650.0 3631 3632 3544 2638 1624 702 327 342 90 193
3690.0 35 103 93 77 101 96 49 127 38 147
3730.0 73 84 126 20 200 0 189 52 159 100
3770.0 121 176 124 102 132 113 144 59 150 77
3810.0 177 65 197 98 107 119 125 132 156 97
3850.0 194 16 153 133 98 186 146 174 106 180
3890.0 123 202 80 126 105 214 215 128 154 128
3930.0 141 127 171 211 214 188 87 185 169 135
##END=
