##TITLE=2-Propenoic acid, 2-methyl-, oxiranylmethyl ester
##JCAMP-DX=4.24
##DATA TYPE=INFRARED SPECTRUM
##ORIGIN=Sadtler Research Labs Under US-EPA Contract
##OWNER=NIST Standard Reference Data Program
##CAS REGISTRY NO=106-91-2
##MOLFORM=C 7 H 10 O 3
##XUNITS=1/CM
##YUNITS=ABSORBANCE
##XFACTOR=1.0
##YFACTOR=0.000101843
##DELTAX=4.0
##FIRSTX=450.0
##LASTX=3966.0
##FIRSTY=0.065383
##MAXX=3966
##MINX=450
##MAXY=1.01843
##MINY=0
##NPOINTS=880
##XYDATA=(X++(Y..Y))
450.0 642 462 351 430 344 344 448 535 261 392
490.0 304 426 496 220 355 360 424 240 277 386
530.0 0 334 283 402 412 333 377 418 349 297
570.0 299 332 431 417 459 420 440 420 417 392
610.0 394 375 358 281 300 356 314 371 381 417
650.0 417 422 439 367 360 310 303 184 236 241
690.0 270 269 267 199 192 217 187 213 194 215
730.0 206 223 222 274 260 298 349 355 443 344
770.0 365 551 469 419 366 406 462 534 635 760
810.0 922 1092 967 916 854 846 838 916 999 1093
850.0 1139 1090 991 851 731 624 545 501 474 458
890.0 458 489 544 625 714 837 910 983 1058 1155
930.0 1277 1424 1565 1573 1414 1158 945 774 678 609
970.0 576 567 558 582 645 722 796 874 940 1025
1010.0 1207 1488 1615 1571 1322 1011 758 592 541 520
1050.0 506 480 493 509 530 566 602 637 660 696
1090.0 712 759 801 859 903 958 1054 1202 1479 1886
1130.0 2407 2898 3546 4542 5959 7541 8894 9804 10000 9389
1170.0 8493 7118 5541 4142 3188 2534 2059 1688 1401 1152
1210.0 969 822 724 646 601 564 543 538 566 605
1250.0 648 672 672 682 685 722 800 949 1266 1841
1290.0 2570 3076 3186 3035 2743 2722 2972 3001 2718 2097
1330.0 1435 1028 865 857 891 896 864 783 666 623
1370.0 584 576 605 626 645 645 657 715 835 922
1410.0 963 921 831 781 740 737 747 802 847 905
1450.0 982 1090 1143 1139 1046 902 742 620 561 495
1490.0 450 417 373 321 305 259 242 227 200 211
1530.0 187 209 188 194 173 195 176 174 193 187
1570.0 198 204 225 215 232 226 244 248 254 278
1610.0 301 350 361 434 451 554 625 739 740 697
1650.0 588 465 350 276 262 236 241 264 265 304
1690.0 335 386 410 486 548 710 874 1224 1686 2401
1730.0 3327 4561 5671 6234 6297 5431 4159 2821 1761 1105
1770.0 695 499 387 335 307 297 302 287 275 258
1810.0 234 214 197 169 163 152 148 149 144 149
1850.0 143 156 157 165 171 178 194 203 210 214
1890.0 211 195 182 168 157 152 145 144 136 145
1930.0 144 143 148 139 144 146 143 142 147 143
1970.0 147 151 150 149 152 149 150 144 146 148
2010.0 149 142 140 136 137 133 131 126 127 128
2050.0 125 125 126 123 115 120 119 127 121 123
2090.0 124 127 127 125 122 122 120 121 120 117
2130.0 114 112 119 112 112 109 109 115 108 107
2170.0 107 102 102 98 98 101 97 101 97 96
2210.0 98 97 97 101 104 101 103 103 104 107
2250.0 108 114 114 113 108 109 105 104 113 109
2290.0 112 115 119 125 121 121 122 114 115 120
2330.0 111 111 107 114 112 110 95 78 112 125
2370.0 123 122 115 98 90 82 75 73 74 75
2410.0 75 74 70 69 69 71 71 67 63 71
2450.0 66 69 68 74 68 65 66 66 65 64
2490.0 65 64 68 62 64 59 65 65 61 60
2530.0 61 58 60 58 58 61 64 58 58 57
2570.0 61 59 58 55 61 57 58 58 52 60
2610.0 57 62 55 52 49 46 42 42 44 44
2650.0 37 37 38 40 41 37 36 40 41 43
2690.0 46 49 50 49 45 42 46 45 47 48
2730.0 51 56 57 55 71 71 69 67 67 66
2770.0 57 64 63 66 69 72 75 81 81 83
2810.0 92 93 102 101 113 116 125 137 150 162
2850.0 172 196 218 247 265 285 305 316 325 344
2890.0 361 382 398 415 422 419 425 444 471 545
2930.0 652 801 949 1025 1058 1040 1000 1008 1013 995
2970.0 982 948 918 996 1102 1165 1185 1160 1084 1030
3010.0 983 872 752 648 559 478 413 392 400 455
3050.0 536 629 674 662 577 464 342 245 174 135
3090.0 125 118 124 141 181 213 212 178 130 82
3130.0 62 56 58 57 54 50 48 48 46 40
3170.0 42 39 44 40 39 45 45 42 44 43
3210.0 52 52 54 51 43 50 53 49 49 43
3250.0 52 52 53 70 66 58 53 52 60 71
3290.0 58 64 70 75 68 69 70 68 66 68
3330.0 66 77 74 76 76 68 76 80 82 83
3370.0 79 73 63 73 83 75 75 86 69 75
3410.0 79 72 75 79 86 91 74 74 89 73
3450.0 98 99 104 106 107 120 118 111 93 91
3490.0 79 82 64 63 68 66 75 54 54 63
3530.0 58 65 74 65 47 62 59 73 57 59
3570.0 58 64 69 46 42 60 53 53 64 69
3610.0 76 75 67 73 76 80 89 63 83 76
3650.0 50 64 80 68 66 52 63 82 44 35
3690.0 68 57 38 47 44 36 92 91 76 53
3730.0 47 66 83 49 51 108 61 64 66 76
3770.0 51 78 58 85 45 68 67 77 53 79
3810.0 47 68 60 56 55 85 98 58 49 78
3850.0 67 85 64 103 86 81 66 95 37 50
3890.0 50 46 47 79 79 63 92 78 36 104
3930.0 62 85 59 61 42 34 54 42 72 39
##END=
