##TITLE=Decanedioic acid, dimethyl ester
##JCAMP-DX=4.24
##DATA TYPE=INFRARED SPECTRUM
##ORIGIN=Sadtler Research Labs Under US-EPA Contract
##OWNER=NIST Standard Reference Data Program
##CAS REGISTRY NO=106-79-6
##MOLFORM=C 12 H 22 O 4
##XUNITS=1/CM
##YUNITS=ABSORBANCE
##XFACTOR=1.0
##YFACTOR=0.000084250
##DELTAX=4.0
##FIRSTX=450.0
##LASTX=3966.0
##FIRSTY=0.009773
##MAXX=3966
##MINX=450
##MAXY=0.8425
##MINY=0
##NPOINTS=880
##XYDATA=(X++(Y..Y))
450.0 116 162 142 109 101 100 128 115 108 146
490.0 115 118 120 88 39 108 43 52 12 16
530.0 117 71 137 98 78 37 72 92 97 126
570.0 80 100 82 125 118 184 126 151 161 159
610.0 151 155 158 142 144 157 141 146 141 127
650.0 121 119 98 94 90 145 125 117 122 129
690.0 145 163 173 178 180 204 226 235 253 245
730.0 225 239 217 208 203 205 220 228 215 236
770.0 238 233 226 222 256 259 259 280 292 316
810.0 350 365 383 419 425 420 449 421 427 442
850.0 443 455 483 428 439 449 426 390 371 330
890.0 286 274 244 215 192 177 168 166 157 147
930.0 152 152 151 157 169 178 175 204 222 249
970.0 275 309 344 426 477 565 639 724 817 909
1010.0 996 1092 1156 1194 1179 1142 1072 992 905 838
1050.0 801 778 801 829 842 879 930 1010 1096 1193
1090.0 1309 1401 1492 1554 1604 1664 1726 1835 1971 2174
1130.0 2445 2744 3069 3440 3827 4263 4720 5190 5596 5939
1170.0 6213 6105 5686 5010 4565 4592 4729 4740 4686 4595
1210.0 4489 4367 4241 4190 4182 4154 4166 4177 4167 4069
1250.0 3935 3745 3496 3192 2886 2600 2365 2168 2011 1882
1290.0 1789 1715 1670 1645 1621 1601 1579 1558 1538 1504
1330.0 1486 1497 1544 1622 1733 1847 1931 1922 1839 1680
1370.0 1476 1256 1046 861 705 584 515 462 451 474
1410.0 508 575 656 805 1019 1376 1858 2354 2331 1934
1450.0 1614 1462 1450 1333 1215 1014 827 631 517 416
1490.0 369 325 313 265 292 226 202 214 218 199
1530.0 180 201 202 231 182 176 188 222 215 183
1570.0 201 172 203 162 164 152 156 144 144 137
1610.0 133 133 162 139 129 133 143 150 125 158
1650.0 129 232 139 157 152 186 180 206 203 281
1690.0 267 319 396 493 550 673 846 1096 1369 1771
1730.0 2296 3003 3809 4790 5940 7356 8925 10000 9815 8327
1770.0 6655 5250 4076 3075 2221 1556 1103 755 545 412
1810.0 320 252 214 180 161 140 121 118 101 101
1850.0 90 89 87 87 78 83 74 77 74 71
1890.0 72 66 69 74 69 73 73 77 76 80
1930.0 76 80 83 89 84 84 79 90 88 88
1970.0 90 97 96 96 105 103 109 107 113 120
2010.0 123 123 128 137 138 137 135 135 135 133
2050.0 123 124 118 118 116 112 106 100 87 75
2090.0 69 64 58 58 52 52 52 52 53 51
2130.0 47 46 38 38 38 36 39 39 38 35
2170.0 37 37 37 32 32 31 26 30 33 25
2210.0 25 25 28 32 29 25 25 25 19 24
2250.0 25 23 18 25 20 23 23 30 24 34
2290.0 36 36 49 54 57 56 59 57 63 50
2330.0 44 56 42 43 37 50 49 43 46 25
2370.0 25 19 26 24 21 21 20 9 13 19
2410.0 13 10 12 21 8 10 14 7 12 7
2450.0 7 7 7 6 1 6 5 3 7 0
2490.0 8 5 1 1 2 7 1 13 13 7
2530.0 10 6 21 20 13 14 7 13 13 8
2570.0 20 20 24 26 32 37 33 42 43 43
2610.0 44 44 44 38 43 43 43 42 48 48
2650.0 44 39 31 47 38 44 44 51 64 64
2690.0 64 68 64 66 67 60 54 64 69 57
2730.0 70 65 59 61 59 66 67 71 70 71
2770.0 83 89 98 100 105 119 128 140 160 178
2810.0 190 213 242 275 310 363 429 525 648 846
2850.0 1083 1363 1723 2111 2340 2303 2072 1761 1489 1316
2890.0 1210 1209 1291 1446 1692 2034 2461 2975 3565 4254
2930.0 4939 5562 5911 5933 5718 5322 4968 4788 4472 3729
2970.0 2844 2226 1818 1563 1378 1232 1112 1024 958 883
3010.0 818 747 698 662 633 586 538 470 413 356
3050.0 324 282 252 234 209 192 188 174 164 162
3090.0 150 152 148 148 135 122 117 113 103 99
3130.0 90 87 77 74 67 66 54 60 41 54
3170.0 59 48 51 42 40 46 41 53 48 47
3210.0 48 43 42 37 33 32 20 41 37 38
3250.0 28 27 30 21 14 20 26 20 26 24
3290.0 26 26 26 31 24 26 29 20 33 15
3330.0 15 15 18 17 18 24 18 30 33 19
3370.0 16 17 21 17 17 16 16 15 25 17
3410.0 18 24 16 21 16 18 28 17 17 16
3450.0 29 25 26 16 43 46 42 50 67 69
3490.0 88 94 106 90 63 65 43 65 41 30
3530.0 23 10 17 18 1 2 13 8 19 7
3570.0 4 14 18 11 18 15 34 11 19 38
3610.0 23 13 33 18 23 30 26 19 18 15
3650.0 44 24 23 24 27 42 23 51 33 25
3690.0 48 17 19 23 21 22 39 31 29 25
3730.0 40 46 46 29 69 46 54 28 29 18
3770.0 21 20 14 25 18 21 22 14 34 20
3810.0 21 27 29 31 14 23 17 42 30 26
3850.0 29 36 40 21 10 31 10 16 19 21
3890.0 10 15 16 19 14 30 24 15 16 12
3930.0 9 13 19 13 18 22 46 53 60 50
##END=
