##TITLE=1-Pentanol, 2-ethyl-4-methyl-
##JCAMP-DX=4.24
##DATA TYPE=INFRARED SPECTRUM
##ORIGIN=Sadtler Research Labs Under US-EPA Contract
##OWNER=NIST Standard Reference Data Program
##CAS REGISTRY NO=106-67-2
##MOLFORM=C 8 H 18 O
##XUNITS=1/CM
##YUNITS=ABSORBANCE
##XFACTOR=1.0
##YFACTOR=0.000160916
##DELTAX=4.0
##FIRSTX=450.0
##LASTX=3966.0
##FIRSTY=0.054711
##MAXX=3966
##MINX=450
##MAXY=1.60916
##MINY=0
##NPOINTS=880
##XYDATA=(X++(Y..Y))
450.0 340 192 84 156 63 102 180 33 171 225
490.0 130 169 242 121 168 96 162 124 126 139
530.0 160 171 90 174 121 144 87 144 104 120
570.0 82 35 83 52 113 58 103 98 120 95
610.0 103 125 91 112 92 97 70 89 77 80
650.0 69 87 74 82 98 57 88 52 86 60
690.0 73 68 77 73 59 83 85 97 83 75
730.0 55 82 89 90 98 113 150 168 224 240
770.0 260 240 227 182 174 164 160 170 142 156
810.0 134 143 120 157 149 142 145 146 147 139
850.0 151 146 159 153 188 188 223 243 270 274
890.0 280 282 267 275 261 275 275 299 315 330
930.0 349 374 407 434 484 488 516 510 527 530
970.0 546 541 539 526 503 518 546 614 713 834
1010.0 935 1046 1176 1375 1721 2228 2780 3209 3382 3209
1050.0 2743 2154 1654 1258 980 810 712 658 601 567
1090.0 525 496 465 452 445 436 433 425 422 402
1130.0 398 385 387 391 409 425 454 492 533 569
1170.0 566 554 506 460 428 435 427 442 446 446
1210.0 448 431 433 409 412 406 407 402 407 408
1250.0 403 405 402 413 404 408 402 401 397 397
1290.0 395 385 384 380 378 375 379 386 408 432
1330.0 462 490 508 516 517 527 555 627 739 865
1370.0 1024 1175 1214 1297 1319 1225 1052 819 589 423
1410.0 347 300 278 259 247 254 281 339 404 520
1450.0 674 879 1119 1333 1498 1583 1518 1316 1047 755
1490.0 518 351 257 190 167 137 115 109 95 91
1530.0 76 81 71 77 63 72 64 67 66 56
1570.0 57 55 59 50 57 50 54 52 47 46
1610.0 43 52 41 50 36 46 37 45 35 40
1650.0 33 50 35 31 41 36 35 37 33 41
1690.0 34 39 34 37 30 33 31 32 27 27
1730.0 28 27 32 24 28 29 37 21 29 21
1770.0 22 17 18 19 16 19 16 17 13 22
1810.0 12 16 15 15 16 13 15 12 15 12
1850.0 12 7 12 9 10 8 10 11 11 10
1890.0 10 12 8 11 10 11 8 10 10 7
1930.0 8 6 9 5 10 6 11 10 8 7
1970.0 6 11 5 8 7 10 7 8 7 11
2010.0 11 10 14 11 15 14 17 15 20 20
2050.0 23 27 28 29 20 22 18 18 19 23
2090.0 21 18 17 11 11 5 7 4 6 5
2130.0 7 6 8 8 7 10 7 8 6 8
2170.0 5 5 3 3 6 4 4 1 3 2
2210.0 6 2 4 0 1 1 0 4 3 4
2250.0 4 9 3 7 5 6 8 9 13 12
2290.0 16 20 28 22 28 32 30 35 37 31
2330.0 24 26 20 28 9 32 51 42 19 0
2370.0 0 0 0 1 13 17 24 24 26 28
2410.0 29 26 24 27 24 24 21 22 22 23
2450.0 22 22 21 17 21 17 20 16 18 14
2490.0 16 17 17 17 16 20 13 14 12 16
2530.0 16 19 21 20 25 25 29 30 37 35
2570.0 44 43 48 49 54 59 59 62 61 64
2610.0 63 67 69 71 73 77 79 69 77 81
2650.0 85 90 98 101 101 97 102 104 107 115
2690.0 115 129 130 136 139 146 160 172 189 202
2730.0 218 228 242 244 248 248 248 248 250 258
2770.0 262 275 280 292 294 308 318 329 342 358
2810.0 378 400 431 457 500 549 626 728 877 1065
2850.0 1299 1570 1875 2235 2693 3293 3899 4463 4804 4865
2890.0 4730 4564 4448 4556 4870 5347 5759 6075 6222 6333
2930.0 6318 6222 6071 5817 5598 5654 6233 7508 9092 10000
2970.0 9569 8144 5962 3851 2336 1494 1048 796 648 531
3010.0 450 383 334 294 271 249 227 221 203 190
3050.0 181 172 157 151 144 142 134 132 127 125
3090.0 119 122 113 106 109 105 104 105 98 98
3130.0 94 95 88 92 92 93 89 89 91 87
3170.0 91 100 101 90 90 87 86 79 78 63
3210.0 56 54 46 45 43 37 34 34 22 26
3250.0 29 19 23 24 20 21 27 28 22 23
3290.0 27 32 24 25 28 31 21 35 17 30
3330.0 18 28 23 26 31 19 24 25 33 20
3370.0 21 29 27 31 33 37 33 38 22 34
3410.0 26 36 30 29 35 31 34 22 26 33
3450.0 27 24 30 30 31 29 29 28 30 22
3490.0 32 31 30 28 19 29 28 20 18 15
3530.0 30 27 22 14 14 21 18 25 19 7
3570.0 8 13 4 16 15 0 11 19 17 21
3610.0 39 33 39 31 52 44 74 90 129 180
3650.0 243 343 466 597 689 732 699 608 470 355
3690.0 234 147 107 70 66 41 42 30 43 27
3730.0 20 48 25 19 22 25 26 32 16 20
3770.0 24 26 29 21 8 30 28 27 27 26
3810.0 33 43 19 30 45 54 56 79 36 48
3850.0 55 58 37 51 53 54 42 51 30 21
3890.0 40 32 44 57 36 74 51 33 26 52
3930.0 46 59 45 46 15 55 55 44 64 55
##END=
