##TITLE=Acetic acid, 3,4-epoxy-6-methylcyclohexyl methyl ester
##JCAMP-DX=4.24
##DATA TYPE=INFRARED SPECTRUM
##ORIGIN=Sadtler Research Labs Under US-EPA Contract
##OWNER=NIST Standard Reference Data Program
##CAS REGISTRY NO=106-85-4
##MOLFORM=C 10 H 16 O 3
##XUNITS=1/CM
##YUNITS=ABSORBANCE
##XFACTOR=1.0
##YFACTOR=0.000052881
##DELTAX=4.0
##FIRSTX=450.0
##LASTX=3966.0
##FIRSTY=0.015811
##MAXX=3966
##MINX=450
##MAXY=0.52881
##MINY=0
##NPOINTS=880
##XYDATA=(X++(Y..Y))
450.0 299 202 328 285 256 317 422 301 205 106
490.0 287 288 255 111 186 202 240 107 22 117
530.0 196 154 58 1 338 213 292 91 214 310
570.0 282 225 99 288 269 380 217 299 384 387
610.0 403 298 295 278 306 339 279 356 345 351
650.0 190 257 181 219 172 155 247 212 178 194
690.0 281 252 224 262 301 325 215 221 296 307
730.0 302 184 324 236 314 251 274 307 401 453
770.0 327 318 347 421 419 305 447 566 796 751
810.0 742 760 741 614 398 413 407 432 397 345
850.0 316 380 386 353 281 342 338 377 288 334
890.0 400 522 488 487 500 531 487 450 439 434
930.0 486 510 505 516 550 543 564 540 529 518
970.0 566 643 707 707 742 702 767 748 778 857
1010.0 1010 1235 1385 1486 1587 1729 1878 1828 1805 1621
1050.0 1552 1468 1363 1273 1151 1066 924 844 754 763
1090.0 786 717 654 578 565 507 363 320 304 357
1130.0 303 301 289 382 438 428 413 413 433 440
1170.0 388 378 397 471 484 553 664 881 1134 1439
1210.0 1880 2605 3956 5898 8181 9713 10000 8990 7143 5197
1250.0 3671 2640 2153 1869 1647 1485 1400 1293 1169 956
1290.0 822 677 607 521 468 448 394 395 347 346
1330.0 333 342 393 408 411 413 551 804 1158 1569
1370.0 1812 1859 1569 1356 1179 1175 1097 947 732 535
1410.0 434 439 434 463 541 694 813 850 810 752
1450.0 725 716 678 690 725 707 611 509 450 413
1490.0 367 315 247 250 246 237 235 188 200 214
1530.0 232 165 183 138 175 159 140 121 122 162
1570.0 129 141 135 142 157 139 149 139 156 158
1610.0 148 178 141 179 148 174 147 127 152 152
1650.0 162 113 143 162 179 167 147 166 179 188
1690.0 213 212 220 250 305 333 375 425 529 600
1730.0 672 776 999 1240 1605 2198 3408 5086 6265 6093
1770.0 4767 3036 2012 1380 1022 781 625 516 407 339
1810.0 292 288 259 218 184 179 209 181 152 127
1850.0 147 156 128 127 118 145 127 119 106 116
1890.0 114 102 107 101 95 112 94 93 82 103
1930.0 90 101 99 94 100 98 109 96 99 87
1970.0 105 106 104 89 93 93 104 88 78 85
2010.0 108 91 83 62 90 81 96 69 76 83
2050.0 105 96 80 87 112 115 93 75 112 119
2090.0 110 79 90 116 107 99 68 96 103 109
2130.0 87 77 89 94 93 66 58 78 82 87
2170.0 52 79 72 80 63 61 80 80 80 57
2210.0 65 74 73 64 59 57 67 65 56 45
2250.0 56 51 59 51 60 41 64 50 53 58
2290.0 49 50 59 75 66 72 76 107 132 85
2330.0 98 119 148 102 64 100 111 190 78 76
2370.0 63 98 72 36 23 36 49 37 19 28
2410.0 37 66 39 38 39 71 74 52 53 61
2450.0 83 74 55 46 80 85 68 44 48 64
2490.0 64 33 37 44 62 35 43 36 55 44
2530.0 48 35 42 58 59 57 39 55 60 53
2570.0 53 41 62 56 54 57 47 60 39 65
2610.0 49 62 32 41 61 61 48 44 62 69
2650.0 57 63 50 82 71 71 60 60 89 93
2690.0 88 59 87 101 91 63 63 92 107 77
2730.0 58 87 107 102 93 72 99 102 102 76
2770.0 91 93 116 95 76 85 116 116 98 95
2810.0 114 133 127 106 129 164 194 233 291 418
2850.0 507 600 583 591 551 558 554 608 682 759
2890.0 828 886 944 1086 1229 1464 1656 1918 2154 2345
2930.0 2422 2339 2120 1861 1677 1562 1547 1647 1831 1972
2970.0 1964 1822 1711 1748 1926 2084 2372 2596 2529 2065
3010.0 1322 700 386 257 264 250 206 172 177 194
3050.0 183 137 118 128 165 137 113 99 113 138
3090.0 95 81 73 136 97 88 62 98 108 84
3130.0 66 63 96 99 60 77 49 95 69 77
3170.0 40 62 81 58 56 24 56 62 45 44
3210.0 62 56 49 30 58 49 66 41 99 55
3250.0 75 54 86 72 77 48 66 87 68 64
3290.0 31 59 68 68 50 19 71 84 59 19
3330.0 28 102 77 72 11 78 92 105 62 44
3370.0 88 100 95 55 46 90 75 88 22 71
3410.0 70 91 37 13 72 90 82 26 60 80
3450.0 94 68 55 73 117 110 93 72 114 118
3490.0 136 81 120 110 160 116 115 92 111 77
3530.0 58 64 69 71 62 76 73 63 62 73
3570.0 69 71 68 92 67 87 61 88 71 107
3610.0 95 70 62 70 105 60 40 55 68 87
3650.0 23 31 31 79 87 38 34 25 91 61
3690.0 37 31 76 85 77 39 41 87 95 45
3730.0 44 41 88 69 34 12 53 66 47 27
3770.0 40 40 47 27 14 27 47 53 17 17
3810.0 46 66 55 47 36 81 54 65 39 74
3850.0 50 48 55 63 64 36 36 48 23 28
3890.0 14 27 10 23 10 22 40 46 45 26
3930.0 56 84 106 84 91 120 0 10 10 10
##END=
