##TITLE=Octanoic acid, ethyl ester
##JCAMP-DX=4.24
##DATA TYPE=INFRARED SPECTRUM
##ORIGIN=Sadtler Research Labs Under US-EPA Contract
##OWNER=NIST Standard Reference Data Program
##CAS REGISTRY NO=106-32-1
##MOLFORM=C 10 H 20 O 2
##XUNITS=1/CM
##YUNITS=ABSORBANCE
##XFACTOR=1.0
##YFACTOR=0.000084277
##DELTAX=4.0
##FIRSTX=450.0
##LASTX=3966.0
##FIRSTY=0.017445
##MAXX=3966
##MINX=450
##MAXY=0.84277
##MINY=0
##NPOINTS=880
##XYDATA=(X++(Y..Y))
450.0 207 213 376 516 555 402 154 46 4 37
490.0 76 204 310 383 330 435 453 479 393 272
530.0 326 335 421 475 484 447 368 210 159 316
570.0 319 535 310 459 345 426 533 492 437 468
610.0 405 308 504 602 644 535 507 463 294 461
650.0 452 488 421 383 399 464 374 403 488 412
690.0 390 392 596 522 638 699 638 617 528 654
730.0 648 564 595 588 543 500 588 617 542 469
770.0 563 548 588 699 729 720 509 561 574 476
810.0 550 678 624 582 493 545 546 456 587 588
850.0 583 566 633 747 649 644 599 552 436 520
890.0 563 582 563 595 654 556 634 636 679 640
930.0 595 646 618 575 593 607 487 450 424 454
970.0 463 490 577 551 531 493 567 604 621 687
1010.0 823 908 1056 1372 1563 1848 2086 2416 2538 2461
1050.0 2330 2124 1890 1655 1493 1398 1316 1299 1412 1527
1090.0 1700 2047 2438 2903 3094 3200 3124 2885 2583 2315
1130.0 2156 2152 2292 2596 3112 3782 4807 5907 6834 7261
1170.0 7138 6732 6177 5680 5291 5016 4834 4641 4458 4291
1210.0 4093 4001 4014 3958 3957 3926 3879 3840 3792 3878
1250.0 3838 3691 3450 3162 2841 2556 2299 2094 1918 1821
1290.0 1846 1881 1995 2037 2042 1990 1900 1819 1718 1632
1330.0 1573 1574 1630 1756 1823 1877 1796 1604 1568 1684
1370.0 2122 2414 2374 2019 1628 1316 1112 999 913 868
1410.0 806 836 876 970 1031 1093 1188 1259 1247 1324
1450.0 1469 1632 1913 1902 1945 1781 1622 1301 1010 856
1490.0 753 637 606 494 557 511 448 443 483 401
1530.0 373 430 451 563 420 355 345 451 427 361
1570.0 410 344 398 302 299 279 286 280 282 259
1610.0 308 308 407 346 353 345 289 361 318 373
1650.0 380 537 335 326 313 368 390 360 368 494
1690.0 419 453 606 785 703 740 851 1084 1171 1448
1730.0 1882 2633 3594 5062 6958 8846 10000 9691 8073 6006
1770.0 4153 2876 1943 1396 1044 828 697 555 501 459
1810.0 435 367 361 315 317 297 278 277 239 269
1850.0 231 224 224 229 246 260 177 188 212 220
1890.0 252 251 267 224 199 221 227 214 219 213
1930.0 205 192 192 232 201 186 190 174 178 181
1970.0 217 210 202 184 186 177 179 190 189 190
2010.0 157 197 196 197 197 195 174 151 156 171
2050.0 181 175 203 172 153 145 153 175 157 182
2090.0 183 173 161 162 169 152 133 129 130 120
2130.0 136 137 147 123 112 114 104 119 123 130
2170.0 125 124 124 142 127 126 121 99 99 92
2210.0 125 129 121 117 92 95 89 94 112 118
2250.0 112 117 106 113 123 117 124 107 113 111
2290.0 122 140 141 131 124 116 118 134 147 207
2330.0 163 193 186 194 243 124 149 132 157 187
2370.0 218 196 183 125 71 54 28 51 51 68
2410.0 75 70 55 50 58 66 57 53 58 37
2450.0 66 78 84 82 52 68 40 47 52 68
2490.0 63 49 47 46 35 28 51 26 17 12
2530.0 43 73 57 70 58 39 28 39 69 76
2570.0 71 83 75 47 58 58 77 49 54 65
2610.0 60 69 88 106 89 72 72 87 71 108
2650.0 130 129 125 109 132 112 101 131 124 106
2690.0 117 141 137 126 105 120 87 94 112 155
2730.0 185 156 186 179 160 172 192 180 172 168
2770.0 186 198 185 232 221 218 202 222 265 267
2810.0 329 377 396 394 456 513 588 648 785 991
2850.0 1282 1794 2479 3168 3608 3733 3584 3348 3192 3047
2890.0 2835 2510 2427 2542 2915 3370 4030 4875 5823 7024
2930.0 8225 9130 9432 9170 8321 7287 6233 5702 5825 6265
2970.0 6530 6022 5188 4456 4025 3556 2955 2359 1940 1637
3010.0 1363 1099 881 764 621 516 421 378 349 297
3050.0 334 285 242 203 171 173 166 164 178 192
3090.0 143 168 156 174 165 149 156 104 128 137
3130.0 151 162 151 136 109 66 72 115 95 131
3170.0 91 133 111 96 140 97 104 95 95 110
3210.0 135 131 131 84 65 59 35 85 57 85
3250.0 75 43 52 39 71 66 54 34 40 44
3290.0 105 115 117 113 47 56 24 59 68 90
3330.0 101 66 41 59 50 38 56 24 65 42
3370.0 85 120 96 89 56 61 59 73 94 108
3410.0 87 86 80 69 75 41 84 43 32 49
3450.0 70 115 107 119 104 58 46 138 145 198
3490.0 221 206 181 90 127 101 99 67 62 87
3530.0 55 84 119 101 53 60 51 65 76 131
3570.0 201 102 112 113 118 138 105 125 113 73
3610.0 135 171 145 161 82 191 46 53 110 135
3650.0 219 161 166 104 104 153 205 204 138 137
3690.0 203 173 133 180 137 118 124 92 115 128
3730.0 161 217 217 124 247 191 193 134 161 169
3770.0 138 169 185 187 150 126 110 120 141 159
3810.0 209 150 185 147 111 78 120 196 169 165
3850.0 179 280 209 200 221 220 136 117 153 155
3890.0 172 158 176 129 59 37 41 36 35 60
3930.0 84 98 116 171 147 123 0 8 8 8
##END=
