##TITLE=Butanedioic acid, dimethyl ester
##JCAMP-DX=4.24
##DATA TYPE=INFRARED SPECTRUM
##ORIGIN=Sadtler Research Labs Under US-EPA Contract
##OWNER=NIST Standard Reference Data Program
##CAS REGISTRY NO=106-65-0
##MOLFORM=C 6 H 10 O 4
##XUNITS=1/CM
##YUNITS=ABSORBANCE
##XFACTOR=1.0
##YFACTOR=0.000089481
##DELTAX=4.0
##FIRSTX=450.0
##LASTX=3966.0
##FIRSTY=0.028365
##MAXX=3966
##MINX=450
##MAXY=0.89481
##MINY=0
##NPOINTS=880
##XYDATA=(X++(Y..Y))
450.0 317 193 155 199 214 223 247 268 207 137
490.0 1 107 194 123 181 164 214 183 259 154
530.0 176 135 210 245 189 198 186 255 224 207
570.0 225 197 201 219 208 191 239 175 227 178
610.0 192 149 202 175 202 210 202 265 320 328
650.0 308 225 179 159 135 102 128 72 110 52
690.0 102 55 67 53 72 69 67 42 13 44
730.0 106 40 70 83 65 70 74 63 75 68
770.0 84 66 88 96 110 89 111 130 140 170
810.0 159 185 200 254 279 364 469 566 664 682
850.0 663 593 503 422 356 302 249 222 183 161
890.0 160 158 151 153 145 143 133 140 141 130
930.0 124 107 111 104 118 130 151 168 174 180
970.0 177 197 207 265 324 443 603 787 1009 1175
1010.0 1245 1227 1146 1039 1001 1029 1070 1097 1086 1029
1050.0 919 824 735 667 596 537 477 403 374 339
1090.0 327 331 353 374 417 480 573 702 854 1038
1130.0 1237 1467 1729 2109 2657 3500 4744 6367 7796 8335
1170.0 8105 6920 5616 4638 4068 3765 3675 3706 3756 3843
1210.0 3990 4107 4093 3966 3674 3421 3311 3283 3270 3207
1250.0 3133 3022 2930 2821 2722 2601 2506 2403 2302 2210
1290.0 2088 1941 1742 1590 1480 1456 1504 1640 1767 1816
1330.0 1751 1574 1435 1373 1459 1640 1862 1995 1999 1844
1370.0 1541 1273 1017 800 643 543 475 453 439 459
1410.0 510 582 689 751 880 1101 1600 2183 2454 2398
1450.0 1781 1155 886 715 630 567 511 438 369 330
1490.0 301 266 249 225 236 231 208 218 215 200
1530.0 191 190 185 206 185 176 177 194 182 156
1570.0 169 157 157 147 147 139 130 139 125 126
1610.0 112 120 123 119 117 113 120 136 117 120
1650.0 136 144 125 120 133 136 156 148 169 204
1690.0 201 226 274 319 355 422 511 644 766 933
1730.0 1214 1594 2142 2858 4009 5401 7174 8821 9969 10000
1770.0 8940 7237 5253 3707 2623 1937 1423 1048 761 554
1810.0 430 341 278 244 213 191 166 144 142 131
1850.0 122 111 106 105 108 107 93 90 85 85
1890.0 86 85 78 76 78 77 78 82 88 75
1930.0 75 69 70 73 77 77 81 93 93 94
1970.0 99 97 96 100 106 106 112 110 110 112
2010.0 113 111 111 108 104 106 103 107 111 117
2050.0 116 119 124 132 140 137 139 146 146 135
2090.0 129 122 110 99 91 87 77 73 73 67
2130.0 70 64 64 61 59 55 58 62 61 60
2170.0 54 58 58 58 57 60 62 66 66 60
2210.0 59 58 56 54 52 49 55 53 55 47
2250.0 42 38 40 39 42 40 42 44 45 44
2290.0 39 37 37 37 34 32 33 37 45 39
2330.0 39 37 35 23 8 20 23 38 24 1
2370.0 1 1 1 11 18 26 38 37 37 35
2410.0 34 33 34 33 28 29 22 21 22 19
2450.0 22 23 25 19 21 17 22 16 23 22
2490.0 14 14 13 16 16 13 20 18 18 13
2530.0 13 6 3 10 9 10 12 13 8 16
2570.0 12 10 12 13 15 17 18 20 25 23
2610.0 23 28 25 19 29 24 23 20 22 26
2650.0 25 17 22 28 34 37 31 31 30 22
2690.0 17 13 14 7 13 5 9 8 10 10
2730.0 6 5 17 17 18 22 23 18 21 26
2770.0 22 30 25 35 37 33 40 46 38 41
2810.0 32 51 46 60 65 85 97 129 174 242
2850.0 339 383 378 317 223 174 151 128 135 145
2890.0 170 195 236 280 314 344 374 402 437 469
2930.0 527 601 683 754 847 1011 1358 1913 2164 2093
2970.0 1766 1128 743 634 588 597 633 694 719 712
3010.0 677 621 586 567 555 543 507 453 383 312
3050.0 260 230 196 177 157 144 152 130 124 131
3090.0 136 128 121 109 130 93 90 79 89 98
3130.0 77 74 68 71 48 59 47 71 54 72
3170.0 64 46 53 49 50 57 49 49 49 43
3210.0 50 50 29 39 35 38 28 36 24 21
3250.0 49 45 33 36 36 34 52 40 38 29
3290.0 28 32 26 28 36 40 20 25 35 41
3330.0 38 32 42 26 44 32 32 45 49 33
3370.0 38 42 14 16 36 26 53 49 39 41
3410.0 6 8 18 44 20 48 44 34 38 48
3450.0 38 30 39 47 39 40 40 53 61 78
3490.0 73 89 122 129 129 135 131 114 96 93
3530.0 59 57 64 42 60 35 51 65 52 46
3570.0 78 116 120 127 124 102 79 62 63 50
3610.0 63 59 49 76 42 62 48 59 71 48
3650.0 66 49 62 47 65 84 77 77 48 71
3690.0 68 30 65 99 67 64 54 65 73 89
3730.0 78 62 34 58 72 84 69 29 59 54
3770.0 72 77 56 71 66 72 55 67 56 83
3810.0 70 64 64 69 50 74 61 50 85 69
3850.0 65 55 85 63 66 62 75 61 47 62
3890.0 57 78 91 54 62 42 73 107 22 66
3930.0 121 63 79 55 88 73 0 79 65 76
##END=
