##TITLE=Dodecanoic acid, ethyl ester
##JCAMP-DX=4.24
##DATA TYPE=INFRARED SPECTRUM
##ORIGIN=Sadtler Research Labs Under US-EPA Contract
##OWNER=NIST Standard Reference Data Program
##CAS REGISTRY NO=106-33-2
##MOLFORM=C 14 H 28 O 2
##XUNITS=1/CM
##YUNITS=ABSORBANCE
##XFACTOR=1.0
##YFACTOR=0.000071991
##DELTAX=4.0
##FIRSTX=450.0
##LASTX=3966.0
##FIRSTY=0.010799
##MAXX=3966
##MINX=450
##MAXY=0.71991
##MINY=0
##NPOINTS=880
##XYDATA=(X++(Y..Y))
450.0 150 231 153 384 98 120 299 99 232 235
490.0 299 173 92 180 118 254 184 229 236 150
530.0 185 124 126 190 241 201 340 230 23 36
570.0 221 30 165 135 225 186 184 126 134 264
610.0 122 164 147 124 155 42 159 147 139 129
650.0 175 131 104 105 54 261 120 132 123 77
690.0 143 209 158 228 202 222 253 288 183 223
730.0 284 188 182 353 400 244 255 231 208 119
770.0 205 201 208 222 162 186 132 174 192 145
810.0 240 224 103 92 104 148 176 161 237 249
850.0 162 218 194 235 183 133 168 193 204 152
890.0 60 124 111 106 101 226 232 187 176 257
930.0 190 157 147 117 254 182 123 165 108 82
970.0 51 83 131 56 131 176 187 147 161 171
1010.0 245 329 449 513 702 862 1063 1088 1155 1089
1050.0 1003 973 890 854 825 747 785 746 740 732
1090.0 800 932 1090 1226 1306 1367 1310 1400 1357 1277
1130.0 1217 1256 1359 1590 1929 2343 2683 2928 3105 3200
1170.0 3223 3240 3209 3156 3019 2803 2625 2410 2284 2177
1210.0 2044 2000 1970 1996 1998 2029 2119 2139 2156 2096
1250.0 2030 1940 1761 1567 1433 1282 1141 1058 1016 958
1290.0 962 991 971 1004 1042 1003 966 907 857 806
1330.0 758 762 809 882 931 976 946 887 844 896
1370.0 1078 1202 1141 929 735 591 517 449 382 330
1410.0 321 313 361 360 416 500 557 597 641 718
1450.0 833 938 1041 1143 1129 1076 863 654 481 408
1490.0 279 216 178 134 121 111 128 103 72 66
1530.0 90 53 78 20 70 66 49 55 8 56
1570.0 60 36 58 40 66 35 58 67 45 62
1610.0 44 60 29 49 60 41 52 40 38 63
1650.0 32 19 55 59 80 50 84 63 114 88
1690.0 145 168 177 228 301 352 416 482 597 809
1730.0 1055 1426 2024 2756 3745 4780 5443 5117 4085 3018
1770.0 2184 1497 1061 774 554 436 331 257 243 172
1810.0 160 122 106 103 70 73 56 68 52 44
1850.0 44 42 57 56 41 50 47 40 50 44
1890.0 42 40 44 46 36 46 33 38 36 39
1930.0 36 36 37 37 40 41 40 46 33 38
1970.0 36 38 36 38 44 36 35 35 37 40
2010.0 37 40 43 46 42 45 50 47 44 45
2050.0 42 37 40 40 41 38 33 34 35 35
2090.0 35 30 26 29 29 29 20 21 24 20
2130.0 23 25 19 20 24 25 26 26 24 22
2170.0 23 25 26 23 17 26 23 23 19 23
2210.0 26 19 24 20 19 30 30 27 29 34
2250.0 30 30 25 26 25 22 19 21 19 21
2290.0 23 14 16 18 18 24 22 34 28 35
2330.0 39 22 63 0 68 22 103 61 61 39
2370.0 26 20 23 33 29 38 41 45 42 32
2410.0 35 31 27 34 28 26 27 22 26 26
2450.0 29 27 29 28 28 28 31 27 31 35
2490.0 32 27 29 22 25 28 32 33 28 26
2530.0 36 36 33 41 38 39 41 40 40 49
2570.0 45 49 49 54 54 56 52 48 51 58
2610.0 64 60 61 71 67 64 61 67 75 73
2650.0 79 84 87 90 99 96 98 102 111 103
2690.0 111 100 97 96 88 91 90 91 99 93
2730.0 98 104 110 115 120 118 120 125 122 125
2770.0 135 133 146 154 165 175 190 204 222 234
2810.0 254 277 304 343 395 439 510 591 719 911
2850.0 1273 1880 2767 3618 3912 3615 3073 2604 2338 2173
2890.0 2015 1917 1994 2242 2645 3148 3782 4608 5797 7451
2930.0 9192 10000 9633 8446 7052 5684 4596 3985 3861 3943
2970.0 3917 3507 2901 2531 2365 2079 1697 1375 1152 960
3010.0 799 653 551 461 386 331 292 256 231 201
3050.0 186 161 158 142 139 128 124 122 115 100
3090.0 103 88 87 85 84 73 72 65 71 69
3130.0 75 59 63 68 59 58 64 56 56 53
3170.0 51 59 53 45 58 52 49 50 48 38
3210.0 35 47 40 38 38 33 36 30 26 39
3250.0 41 34 38 29 37 41 37 39 35 37
3290.0 34 32 27 31 36 47 50 40 43 49
3330.0 46 41 41 44 49 58 60 55 52 56
3370.0 74 67 50 58 56 55 55 55 61 51
3410.0 63 65 63 64 67 63 69 60 58 62
3450.0 61 67 57 57 70 75 80 76 92 86
3490.0 93 96 86 69 69 49 51 48 58 51
3530.0 51 53 57 58 48 57 42 38 73 60
3570.0 71 80 103 93 85 67 64 67 62 85
3610.0 60 73 48 75 45 69 23 55 45 81
3650.0 32 64 47 67 64 17 69 9 92 52
3690.0 54 45 57 60 69 62 61 60 102 36
3730.0 70 55 41 105 5 91 11 120 42 65
3770.0 90 54 78 68 74 89 40 75 41 79
3810.0 63 92 66 54 92 64 70 74 67 101
3850.0 44 101 49 59 78 83 89 62 74 25
3890.0 99 57 88 43 58 63 32 109 46 44
3930.0 38 65 102 100 91 54 47 31 93 26
##END=
