##TITLE=Parachlorophenol
##JCAMP-DX=4.24
##DATA TYPE=INFRARED SPECTRUM
##ORIGIN=Sadtler Research Labs Under US-EPA Contract
##OWNER=NIST Standard Reference Data Program
##CAS REGISTRY NO=106-48-9
##MOLFORM=C 6 H 5 Cl O
##XUNITS=1/CM
##YUNITS=ABSORBANCE
##XFACTOR=1.0
##YFACTOR=0.000036810
##DELTAX=4.0
##FIRSTX=450.0
##LASTX=3966.0
##FIRSTY=0.021571
##MAXX=3966
##MINX=450
##MAXY=0.3681
##MINY=0
##NPOINTS=880
##XYDATA=(X++(Y..Y))
450.0 586 299 245 213 260 192 374 511 680 874
490.0 987 1257 1406 1207 1271 932 671 631 433 324
530.0 189 184 83 131 150 113 199 218 283 234
570.0 275 254 303 171 48 47 109 99 104 110
610.0 85 181 202 327 514 1029 1742 2377 2646 2571
650.0 2095 1369 595 123 76 43 91 98 51 115
690.0 96 113 100 89 70 84 88 52 86 78
730.0 104 46 79 64 88 130 100 107 97 154
770.0 150 165 147 225 377 495 681 924 1161 1461
810.0 1848 2094 2366 3139 3271 2147 1935 1667 1182 780
850.0 449 293 139 144 70 68 80 91 87 30
890.0 73 38 87 61 94 76 51 72 70 76
930.0 59 89 59 89 58 84 66 78 87 85
970.0 101 66 99 76 123 125 185 292 435 512
1010.0 501 559 463 344 223 183 124 133 152 153
1050.0 174 154 204 199 253 281 409 609 1105 2078
1090.0 3177 3575 3568 3669 2597 1186 790 760 701 627
1130.0 570 434 401 391 470 647 1240 2540 4820 8022
1170.0 9625 9673 10000 8305 4824 2878 1966 1344 1014 800
1210.0 724 691 736 784 890 971 1126 1464 2177 3401
1250.0 4708 5477 5471 5122 3979 1992 735 479 435 429
1290.0 425 415 443 469 727 992 1135 1170 1185 1077
1330.0 794 655 592 542 394 348 252 247 208 166
1370.0 101 127 128 70 124 105 179 197 256 421
1410.0 699 1097 1500 1529 1516 1365 967 591 328 266
1450.0 238 211 450 338 517 645 1320 2037 3533 6576
1490.0 8534 9259 8262 7712 5684 1753 1024 707 854 586
1530.0 460 453 336 455 280 270 192 333 283 283
1570.0 439 543 693 906 1039 1229 1253 1487 1404 1262
1610.0 966 838 644 416 266 219 177 233 122 177
1650.0 166 259 86 101 123 82 200 80 180 221
1690.0 125 106 226 225 174 126 180 269 172 147
1730.0 199 330 232 191 264 248 149 147 122 96
1770.0 132 164 81 125 85 140 100 125 139 75
1810.0 92 114 89 114 141 133 147 102 200 185
1850.0 191 170 193 197 224 252 193 196 156 162
1890.0 138 132 104 92 87 45 87 40 85 39
1930.0 39 41 36 60 37 47 24 44 32 65
1970.0 27 46 41 49 46 71 66 49 54 46
2010.0 42 47 48 42 29 36 26 35 44 47
2050.0 42 56 64 75 94 78 95 83 86 74
2090.0 79 63 57 48 35 39 29 28 22 31
2130.0 25 28 21 20 19 26 26 19 24 22
2170.0 28 27 28 23 23 32 22 28 18 21
2210.0 24 27 23 24 30 34 48 46 54 45
2250.0 61 55 61 64 65 66 57 68 59 59
2290.0 66 74 89 84 84 85 78 65 60 55
2330.0 71 55 52 79 97 56 66 69 23 61
2370.0 47 68 61 63 61 63 62 60 78 84
2410.0 93 110 139 165 180 176 172 134 87 77
2450.0 54 49 42 42 46 41 55 55 65 60
2490.0 60 59 72 71 78 81 65 66 55 47
2530.0 40 42 46 37 29 24 28 15 36 31
2570.0 45 34 46 51 64 57 51 48 40 40
2610.0 28 27 23 25 28 25 24 23 35 18
2650.0 38 38 37 42 39 40 31 43 41 37
2690.0 34 33 25 25 36 34 35 19 25 15
2730.0 31 27 28 20 33 37 25 40 43 41
2770.0 37 43 32 31 35 38 29 30 24 32
2810.0 36 38 35 30 25 33 34 46 33 47
2850.0 39 48 57 62 59 62 70 55 54 52
2890.0 55 57 52 54 55 53 48 58 57 55
2930.0 65 68 48 43 49 44 39 36 32 33
2970.0 38 40 57 57 54 87 97 114 140 169
3010.0 214 246 237 267 320 424 536 586 600 564
3050.0 493 350 269 251 269 266 277 297 287 284
3090.0 264 260 248 258 238 237 203 164 135 101
3130.0 85 61 66 58 50 61 64 54 55 68
3170.0 46 55 38 63 54 58 47 38 55 59
3210.0 55 52 55 65 65 60 57 73 65 72
3250.0 77 68 58 76 69 77 75 78 67 59
3290.0 92 59 65 65 84 77 75 76 78 93
3330.0 80 112 87 105 112 112 127 127 139 121
3370.0 141 130 137 115 141 141 133 127 129 123
3410.0 116 142 104 125 105 121 110 123 106 92
3450.0 103 92 120 86 110 102 81 109 75 78
3490.0 86 107 116 90 78 111 64 108 74 56
3530.0 68 88 90 89 69 99 96 108 100 52
3570.0 66 86 97 106 71 96 69 114 84 151
3610.0 101 129 164 193 326 312 806 1042 1949 2889
3650.0 3727 3744 3448 3299 2218 1088 465 205 231 145
3690.0 136 131 123 84 89 129 23 85 131 58
3730.0 128 80 132 0 195 1 71 121 80 104
3770.0 118 148 133 131 157 147 97 128 51 128
3810.0 61 125 62 36 146 89 129 81 112 98
3850.0 163 85 118 152 77 107 98 120 84 194
3890.0 88 175 123 204 99 178 165 180 113 142
3930.0 179 125 170 113 130 153 159 127 103 96
##END=
