##TITLE=1-Propene, 3-bromo-
##JCAMP-DX=4.24
##DATA TYPE=INFRARED SPECTRUM
##ORIGIN=Sadtler Research Labs Under US-EPA Contract
##OWNER=NIST Standard Reference Data Program
##CAS REGISTRY NO=106-95-6
##MOLFORM=C 3 H 5 Br
##XUNITS=1/CM
##YUNITS=ABSORBANCE
##XFACTOR=1.0
##YFACTOR=0.000057031
##DELTAX=4.0
##FIRSTX=450.0
##LASTX=3966.0
##FIRSTY=0.001027
##MAXX=3966
##MINX=450
##MAXY=0.57031
##MINY=0
##NPOINTS=880
##XYDATA=(X++(Y..Y))
450.0 18 67 9 13 35 123 171 187 175 106
490.0 134 175 157 184 266 390 617 788 1119 1375
530.0 1641 1715 1686 1587 1540 1342 1001 464 314 268
570.0 246 273 207 219 232 359 372 231 425 382
610.0 317 219 193 346 349 450 471 432 562 662
650.0 738 946 1072 1353 1891 2840 3563 4670 5829 6669
690.0 7262 6699 6694 6487 5026 3045 1503 1072 895 777
730.0 728 528 364 491 343 349 202 355 303 249
770.0 250 231 225 188 234 159 150 166 126 128
810.0 132 146 235 224 213 317 266 326 299 409
850.0 494 542 721 812 833 881 1069 1153 1101 1068
890.0 1351 1617 2037 2636 3466 4680 6327 7806 8391 7450
930.0 9177 9256 7517 5864 4866 4283 3819 3389 3047 2942
970.0 3016 3278 3519 3325 3107 2895 3083 2691 2186 1805
1010.0 1516 1309 1133 912 797 656 571 514 438 404
1050.0 413 417 485 528 558 537 542 550 544 493
1090.0 457 432 415 355 365 362 294 310 304 287
1130.0 294 300 302 330 327 395 454 484 528 615
1170.0 728 868 1025 1227 1508 1913 2763 4470 7238 9801
1210.0 9696 8392 8429 10000 7917 4868 2943 2025 1677 1466
1250.0 1301 1139 1083 949 751 626 532 490 475 497
1290.0 506 511 509 491 458 461 415 364 328 302
1330.0 285 268 260 257 279 283 296 294 303 335
1370.0 401 447 514 615 684 814 986 1238 1639 1894
1410.0 1905 1921 1925 2084 1935 1575 1362 1251 1326 1323
1450.0 1303 1174 1011 1023 889 815 617 595 524 443
1490.0 327 324 239 284 175 196 266 257 203 256
1530.0 272 213 210 86 169 190 158 73 72 168
1570.0 127 159 128 170 199 208 225 261 307 325
1610.0 374 435 422 572 719 947 1093 1132 1245 1209
1650.0 1204 863 819 655 525 359 309 273 274 162
1690.0 234 229 145 69 151 176 153 86 176 189
1730.0 161 103 170 164 184 169 202 209 190 215
1770.0 174 129 192 163 164 167 122 166 151 170
1810.0 180 179 197 226 237 281 419 578 810 951
1850.0 1001 981 1110 1087 900 653 549 468 405 356
1890.0 289 245 224 198 172 172 162 142 151 165
1930.0 179 200 211 212 215 235 227 228 210 193
1970.0 174 173 164 163 157 126 131 131 120 121
2010.0 125 115 117 117 115 106 124 114 125 126
2050.0 126 131 130 140 128 138 121 119 110 121
2090.0 99 108 105 104 98 94 94 98 97 90
2130.0 98 97 97 96 104 115 110 114 118 112
2170.0 111 120 105 94 85 92 84 74 78 63
2210.0 74 74 72 67 71 71 71 71 79 79
2250.0 80 87 77 83 88 91 100 92 101 102
2290.0 120 109 110 108 125 132 123 124 148 144
2330.0 153 162 149 160 167 123 159 212 179 189
2370.0 192 165 157 139 130 121 118 118 126 135
2410.0 153 151 147 127 119 117 87 70 54 46
2450.0 53 53 52 42 43 42 58 46 45 50
2490.0 48 41 57 47 37 38 29 29 29 26
2530.0 24 25 17 29 6 26 20 34 26 19
2570.0 27 27 31 37 34 37 29 44 37 42
2610.0 48 56 50 60 60 50 65 71 70 97
2650.0 106 120 119 124 114 108 82 73 64 53
2690.0 55 59 41 52 57 52 60 48 59 69
2730.0 50 68 43 50 59 39 53 60 54 54
2770.0 54 55 55 55 55 57 58 64 63 76
2810.0 84 89 111 125 156 171 182 200 219 245
2850.0 272 285 296 311 320 328 346 330 317 308
2890.0 302 292 265 250 248 231 257 272 304 347
2930.0 390 487 605 728 894 1057 1227 1398 1633 1931
2970.0 2117 2122 2128 2430 2514 2430 2253 2140 2127 2143
3010.0 2027 1900 1799 1738 1652 1496 1302 1124 1013 915
3050.0 878 877 949 1040 1150 1272 1372 1526 1729 2046
3090.0 2412 2561 2480 2397 2361 2188 1698 1293 985 748
3130.0 578 446 358 276 212 191 168 115 132 107
3170.0 88 83 80 74 81 84 67 58 72 74
3210.0 66 68 76 59 67 60 63 84 65 60
3250.0 67 64 63 54 73 63 72 64 54 74
3290.0 72 55 68 69 73 59 63 66 84 67
3330.0 84 76 88 70 79 63 64 85 94 78
3370.0 79 63 73 64 81 64 66 66 71 84
3410.0 90 70 81 80 88 85 76 78 96 74
3450.0 89 85 86 77 91 94 90 114 92 91
3490.0 100 90 93 73 95 79 74 95 89 83
3530.0 76 82 80 87 77 79 67 80 89 68
3570.0 50 87 93 90 85 64 83 82 83 83
3610.0 37 80 68 76 93 31 86 87 93 81
3650.0 9 63 53 89 90 52 39 21 84 96
3690.0 36 67 84 57 91 65 32 84 86 65
3730.0 69 33 13 43 8 9 23 52 71 72
3770.0 69 86 99 85 95 80 93 49 24 41
3810.0 56 76 40 47 69 67 42 56 68 97
3850.0 70 31 46 68 70 80 90 103 92 92
3890.0 98 99 90 80 78 102 99 93 101 110
3930.0 111 112 112 112 119 123 0 9 9 9
##END=
