##TITLE=p-Xylene
##JCAMP-DX=4.24
##DATA TYPE=INFRARED SPECTRUM
##ORIGIN=Sadtler Research Labs Under US-EPA Contract
##OWNER=NIST Standard Reference Data Program
##CAS REGISTRY NO=106-42-3
##MOLFORM=C 8 H 10
##XUNITS=1/CM
##YUNITS=ABSORBANCE
##XFACTOR=1.0
##YFACTOR=0.000060361
##DELTAX=4.0
##FIRSTX=450.0
##LASTX=3966.0
##FIRSTY=0.024627
##MAXX=3966
##MINX=450
##MAXY=0.60361
##MINY=0
##NPOINTS=880
##XYDATA=(X++(Y..Y))
450.0 408 375 426 1011 1317 2016 2193 2498 4241 3881
490.0 2037 2352 1804 1332 742 467 198 105 115 54
530.0 67 0 71 36 61 73 49 90 115 120
570.0 100 147 91 87 84 109 78 68 70 67
610.0 61 33 38 29 43 36 51 37 56 48
650.0 70 44 32 45 17 69 66 57 53 85
690.0 75 89 99 103 91 69 99 77 82 69
730.0 110 66 79 103 88 120 128 267 359 762
770.0 1258 2085 3014 4011 4757 5192 10000 6358 4622 4744
810.0 3518 2553 1549 893 533 319 298 189 194 105
850.0 109 84 88 100 80 104 81 107 84 116
890.0 99 99 102 113 119 117 141 146 159 149
930.0 152 145 137 152 161 177 172 190 189 201
970.0 205 201 194 190 202 189 204 195 203 221
1010.0 341 569 687 704 766 779 720 579 628 680
1050.0 689 679 629 584 533 490 455 432 433 485
1090.0 552 613 635 710 869 1024 1177 1012 823 965
1130.0 895 635 441 311 240 188 163 141 145 146
1170.0 141 145 152 147 136 136 128 139 163 237
1210.0 333 392 424 496 574 588 514 477 461 418
1250.0 325 235 198 180 166 155 154 155 142 149
1290.0 153 163 181 197 230 238 256 249 298 328
1330.0 347 363 350 392 416 412 406 401 363 393
1370.0 421 494 629 725 769 825 785 655 680 716
1410.0 771 860 867 1033 1099 1129 1073 1066 1045 966
1450.0 930 977 937 1016 1157 1252 1198 1129 1253 1282
1490.0 1315 1484 1811 2470 3289 5366 6447 6142 6302 5357
1530.0 4359 2049 1153 749 668 630 525 498 435 478
1570.0 401 421 362 344 361 329 356 347 410 412
1610.0 478 544 575 577 522 532 469 367 303 224
1650.0 115 118 118 126 105 82 50 84 34 14
1690.0 54 60 16 6 35 72 69 43 108 124
1730.0 103 90 111 117 106 108 148 146 148 173
1770.0 174 218 312 347 338 322 285 235 136 104
1810.0 75 61 73 74 83 96 129 153 142 125
1850.0 146 157 166 201 243 307 445 552 598 548
1890.0 539 589 507 366 272 205 165 126 102 96
1930.0 89 77 67 46 47 60 55 56 54 49
1970.0 55 64 65 66 64 56 52 57 52 50
2010.0 54 38 37 32 32 33 30 30 29 31
2050.0 24 21 16 15 10 23 20 19 25 30
2090.0 38 52 63 60 62 53 39 29 16 12
2130.0 7 8 6 10 7 8 11 9 11 10
2170.0 16 12 14 14 9 7 14 20 26 29
2210.0 22 30 24 15 9 8 8 6 4 2
2250.0 3 4 10 8 14 21 24 23 28 36
2290.0 41 60 72 81 70 88 89 88 80 68
2330.0 81 74 71 64 71 63 46 42 47 40
2370.0 42 39 42 41 37 38 36 39 45 43
2410.0 51 54 55 57 62 60 53 52 50 45
2450.0 40 38 35 37 37 37 37 38 38 38
2490.0 36 36 36 29 27 30 29 23 25 24
2530.0 22 24 25 24 19 21 20 18 23 28
2570.0 39 56 77 92 108 117 116 103 82 71
2610.0 63 49 40 35 38 36 38 35 37 30
2650.0 30 24 20 19 20 24 25 22 23 26
2690.0 33 39 46 60 71 84 97 105 123 156
2730.0 216 307 389 431 453 436 339 212 139 107
2770.0 100 102 99 108 112 127 140 163 189 208
2810.0 236 273 316 354 411 466 534 600 696 825
2850.0 995 1246 1632 2190 2913 3644 4252 4673 4861 4786
2890.0 4531 4229 3953 3768 3685 3744 4043 4725 5827 7169
2930.0 8295 8790 8702 8044 6863 5332 3988 3168 2815 2558
2970.0 2442 2553 2790 3163 3512 3879 4446 5028 5560 5863
3010.0 6000 6591 7323 7662 7651 7468 7360 6741 5778 5327
3050.0 5172 4997 4826 4531 3914 3125 2460 1961 1627 1405
3090.0 1281 1210 1123 1042 954 852 719 580 469 398
3130.0 369 357 352 334 304 257 185 119 88 68
3170.0 53 47 38 38 31 31 24 23 21 19
3210.0 21 23 25 16 21 30 31 18 27 32
3250.0 32 31 31 36 37 40 40 43 43 52
3290.0 48 43 41 44 46 48 45 40 44 45
3330.0 41 46 50 45 39 38 34 43 35 37
3370.0 33 42 46 48 44 52 56 51 50 40
3410.0 44 40 31 37 38 45 44 53 38 36
3450.0 40 45 37 34 28 23 28 20 19 26
3490.0 31 24 25 20 24 14 11 31 20 21
3530.0 13 21 15 20 24 2 4 10 12 7
3570.0 4 15 12 8 14 12 15 19 7 14
3610.0 18 25 23 17 19 24 28 27 42 31
3650.0 49 50 55 59 53 63 52 63 57 46
3690.0 48 42 37 39 33 39 37 22 28 19
3730.0 20 2 23 25 38 23 39 54 42 38
3770.0 32 27 30 20 14 19 31 19 20 44
3810.0 37 27 28 30 30 34 41 37 38 55
3850.0 45 57 71 68 37 48 54 60 70 73
3890.0 71 65 66 75 61 70 59 70 56 62
3930.0 59 53 55 38 64 46 49 58 58 42
##END=
