##TITLE=Ethane, 1,2-dibromo-
##JCAMP-DX=4.24
##DATA TYPE=INFRARED SPECTRUM
##ORIGIN=Sadtler Research Labs Under US-EPA Contract
##OWNER=NIST Standard Reference Data Program
##CAS REGISTRY NO=106-93-4
##MOLFORM=C 2 H 4 Br 2
##XUNITS=1/CM
##YUNITS=ABSORBANCE
##XFACTOR=1.0
##YFACTOR=0.000081696
##DELTAX=4.0
##FIRSTX=450.0
##LASTX=3966.0
##FIRSTY=0.001797
##MAXX=3966
##MINX=450
##MAXY=0.81696
##MINY=0
##NPOINTS=880
##XYDATA=(X++(Y..Y))
450.0 22 0 93 79 151 66 221 89 119 120
490.0 115 160 47 105 133 163 114 123 132 139
530.0 176 112 177 182 207 282 300 302 330 408
570.0 528 684 1234 2132 4135 6235 8497 10000 8951 6045
610.0 1773 13 131 113 165 109 177 157 180 170
650.0 142 158 105 146 100 130 106 102 114 109
690.0 130 115 115 130 150 150 146 166 198 157
730.0 196 194 234 218 218 235 228 258 230 260
770.0 270 273 319 274 321 393 342 311 277 243
810.0 209 189 203 171 209 305 545 673 664 650
850.0 551 388 259 257 194 211 197 184 205 208
890.0 237 218 230 223 208 196 152 155 132 116
930.0 113 99 106 87 96 104 92 100 86 108
970.0 94 90 86 74 91 87 98 99 108 114
1010.0 103 120 114 126 120 118 126 112 128 121
1050.0 142 147 157 172 178 198 200 215 233 234
1090.0 228 221 223 219 203 208 187 189 173 171
1130.0 190 176 198 185 234 224 260 295 332 420
1170.0 545 1044 2395 5634 7158 6804 6431 2370 688 532
1210.0 414 420 316 348 271 302 336 519 999 1875
1250.0 2426 2017 2065 1612 808 453 475 439 402 466
1290.0 392 302 251 191 157 135 108 115 108 129
1330.0 123 124 113 106 132 121 131 115 119 120
1370.0 104 116 114 113 105 111 126 131 169 195
1410.0 246 301 375 501 597 655 683 638 724 766
1450.0 724 692 653 442 383 325 284 271 207 182
1490.0 165 134 128 91 93 75 70 62 72 84
1530.0 62 77 68 102 72 64 74 82 87 64
1570.0 61 82 59 77 54 74 62 64 70 62
1610.0 71 57 72 67 64 81 59 93 66 69
1650.0 61 81 75 48 67 61 68 72 40 76
1690.0 62 52 65 65 74 52 50 55 65 61
1730.0 45 56 76 66 52 54 66 54 64 59
1770.0 50 71 46 59 50 60 61 51 59 56
1810.0 61 40 57 52 53 62 60 70 63 76
1850.0 77 80 89 69 67 57 52 50 48 56
1890.0 47 55 49 51 55 43 47 45 49 45
1930.0 50 54 45 53 41 50 47 40 50 42
1970.0 48 43 46 49 49 52 48 59 63 64
2010.0 68 63 73 69 68 64 61 65 44 52
2050.0 44 48 45 44 52 43 46 36 46 52
2090.0 46 50 45 55 48 47 50 48 49 43
2130.0 49 52 47 50 46 56 50 51 51 50
2170.0 61 51 63 61 59 60 54 65 50 59
2210.0 47 53 52 46 52 51 53 49 47 56
2250.0 47 47 47 53 52 45 49 49 54 43
2290.0 42 49 43 52 41 50 54 52 64 46
2330.0 71 43 47 46 66 61 20 43 26 18
2370.0 23 37 59 46 51 49 55 56 50 56
2410.0 48 59 56 56 71 70 79 77 84 77
2450.0 54 56 43 53 39 39 35 30 33 27
2490.0 34 30 35 32 26 36 27 26 27 31
2530.0 30 21 31 27 29 25 20 32 22 22
2570.0 13 23 25 14 21 12 30 24 20 25
2610.0 22 26 21 37 31 32 43 41 49 26
2650.0 26 30 20 29 17 35 25 38 40 36
2690.0 53 42 63 73 79 72 54 39 15 16
2730.0 10 14 23 10 18 12 11 9 8 13
2770.0 5 11 7 7 14 3 17 6 22 22
2810.0 16 27 15 30 22 41 47 49 57 42
2850.0 65 60 57 56 72 98 132 154 131 123
2890.0 69 41 49 43 47 42 42 49 37 46
2930.0 51 78 100 127 197 244 330 404 500 475
2970.0 451 541 472 452 437 609 668 611 607 375
3010.0 225 208 185 192 155 160 119 111 89 82
3050.0 88 57 74 57 62 48 35 48 35 39
3090.0 28 28 48 25 36 23 33 26 21 30
3130.0 9 22 13 29 32 20 32 12 39 23
3170.0 26 24 30 41 18 31 23 31 30 7
3210.0 35 24 17 14 16 25 10 28 15 26
3250.0 31 14 40 12 26 13 20 29 16 23
3290.0 13 25 20 17 16 10 38 23 33 31
3330.0 18 29 8 41 18 26 26 31 42 11
3370.0 30 30 15 13 1 28 14 29 14 23
3410.0 27 9 27 5 29 18 21 25 13 33
3450.0 7 30 34 28 23 15 36 18 26 30
3490.0 11 40 14 25 22 20 29 17 26 16
3530.0 23 18 38 46 22 48 26 24 35 14
3570.0 38 36 50 34 40 53 53 54 27 29
3610.0 33 35 52 56 50 32 75 65 49 37
3650.0 41 112 59 70 42 40 89 94 75 41
3690.0 32 66 40 64 50 61 35 78 78 36
3730.0 60 37 88 54 64 66 50 84 43 53
3770.0 50 68 71 44 77 47 54 57 56 85
3810.0 42 57 62 61 38 10 91 55 65 57
3850.0 71 41 62 55 28 61 66 69 82 35
3890.0 48 64 35 89 38 53 55 63 43 61
3930.0 50 60 64 60 94 37 91 57 21 121
##END=
