##TITLE=Butane
##JCAMP-DX=4.24
##DATA TYPE=INFRARED SPECTRUM
##ORIGIN=Sadtler Research Labs Under US-EPA Contract
##OWNER=NIST Standard Reference Data Program
##CAS REGISTRY NO=106-97-8
##MOLFORM=C 4 H 10
##XUNITS=1/CM
##YUNITS=ABSORBANCE
##XFACTOR=1.0
##YFACTOR=0.000120694
##DELTAX=4.0
##FIRSTX=450.0
##LASTX=3966.0
##FIRSTY=0.000362
##MAXX=3966
##MINX=450
##MAXY=1.20694
##MINY=0
##NPOINTS=880
##XYDATA=(X++(Y..Y))
450.0 3 45 38 86 17 35 5 37 20 37
490.0 45 23 27 28 27 26 27 22 48 44
530.0 13 13 35 31 41 42 45 26 22 33
570.0 28 33 32 31 28 27 18 33 18 17
610.0 26 31 26 24 29 29 28 22 27 23
650.0 17 22 25 22 17 16 32 32 31 35
690.0 28 49 48 46 57 58 73 80 83 106
730.0 113 137 131 138 138 146 144 139 130 131
770.0 117 106 91 81 69 58 50 52 47 39
810.0 36 37 29 25 24 22 22 19 23 22
850.0 20 16 20 17 19 22 21 22 12 24
890.0 19 21 19 21 15 19 23 29 37 48
930.0 55 70 98 119 142 171 208 222 230 254
970.0 261 245 223 195 175 156 129 105 84 65
1010.0 60 49 39 36 29 28 26 26 22 17
1050.0 20 21 20 20 19 20 21 19 19 20
1090.0 23 23 25 27 27 34 41 48 51 54
1130.0 54 55 48 53 51 40 35 28 24 19
1170.0 18 21 21 21 20 18 17 19 17 20
1210.0 20 20 23 27 23 26 28 31 38 35
1250.0 39 39 46 50 58 65 81 99 116 114
1290.0 110 114 112 121 116 105 88 81 84 90
1330.0 102 101 104 118 112 120 152 166 199 251
1370.0 308 371 382 426 432 431 517 520 415 310
1410.0 239 217 221 236 267 312 386 461 563 634
1450.0 716 776 866 990 1037 950 814 735 749 692
1490.0 604 514 428 349 289 234 180 149 123 97
1530.0 78 64 60 54 45 44 44 49 50 42
1570.0 45 41 48 43 39 41 37 40 35 38
1610.0 35 34 39 32 38 29 40 35 36 32
1650.0 40 41 39 32 34 35 39 28 31 35
1690.0 26 27 35 31 27 25 24 28 23 18
1730.0 21 29 19 14 14 14 16 12 13 12
1770.0 15 15 12 12 16 14 14 13 13 11
1810.0 11 11 11 8 11 10 7 8 8 8
1850.0 5 5 5 4 5 7 6 6 7 8
1890.0 10 8 10 10 12 10 12 10 10 8
1930.0 7 8 11 10 7 5 5 2 4 3
1970.0 5 2 5 2 4 2 2 3 3 5
2010.0 3 4 4 6 11 12 10 10 10 10
2050.0 11 9 6 5 7 6 6 4 5 5
2090.0 5 6 6 7 6 8 9 9 9 12
2130.0 11 12 9 11 8 6 7 9 10 8
2170.0 9 9 9 9 8 10 9 8 8 8
2210.0 9 11 9 8 10 7 7 6 5 3
2250.0 5 6 5 5 7 7 6 6 7 6
2290.0 5 3 2 4 3 0 4 1 5 4
2330.0 8 6 12 10 7 14 14 17 6 10
2370.0 6 13 16 17 18 17 19 21 22 18
2410.0 20 20 23 23 25 27 27 27 22 22
2450.0 20 18 16 13 9 10 8 8 7 6
2490.0 7 5 8 5 9 5 11 12 12 15
2530.0 12 9 12 13 13 14 17 13 16 16
2570.0 19 23 29 33 39 44 48 50 52 56
2610.0 54 56 59 63 64 68 64 64 62 62
2650.0 67 69 68 66 69 65 62 66 73 67
2690.0 64 64 63 64 70 79 85 93 102 121
2730.0 135 148 156 154 157 162 170 164 153 142
2770.0 140 139 146 152 159 166 178 194 214 239
2810.0 265 302 345 398 465 534 633 739 883 1041
2850.0 1248 1511 1813 2155 2499 2972 3560 3786 3717 3727
2890.0 3824 4025 4194 4208 4153 4211 4355 4567 5067 5605
2930.0 6201 6616 6890 6971 7343 7794 8284 8923 9086 10000
2970.0 8667 7565 7369 7163 6494 5240 3991 2959 2193 1638
3010.0 1216 906 673 516 405 332 283 251 231 219
3050.0 212 206 206 206 206 206 210 207 207 204
3090.0 197 185 169 162 149 138 130 122 119 114
3130.0 110 112 113 111 112 114 113 119 119 120
3170.0 119 117 116 112 106 106 93 87 83 80
3210.0 72 70 71 68 66 57 50 50 51 45
3250.0 40 32 29 26 24 23 19 21 24 24
3290.0 16 20 21 17 20 19 20 23 18 17
3330.0 22 21 17 19 20 23 21 25 24 25
3370.0 26 25 28 25 31 31 26 25 25 25
3410.0 23 22 20 17 15 10 14 13 8 13
3450.0 16 14 10 5 12 12 13 9 7 6
3490.0 13 13 11 6 11 7 6 5 1 2
3530.0 10 6 10 8 3 7 9 9 15 7
3570.0 8 12 9 10 9 8 12 10 12 16
3610.0 19 14 18 19 17 20 21 22 23 21
3650.0 19 14 22 28 17 25 24 27 28 31
3690.0 31 24 27 25 26 31 32 23 29 31
3730.0 31 33 28 22 33 21 30 21 24 24
3770.0 25 20 19 19 17 19 18 19 16 26
3810.0 18 23 17 26 18 21 23 32 20 24
3850.0 34 43 27 24 39 29 32 27 27 38
3890.0 24 23 17 22 16 21 22 23 19 3
3930.0 10 20 23 19 14 18 26 3 3 3
##END=
