##TITLE=Benzene, 1-bromo-4-methyl-
##JCAMP-DX=4.24
##DATA TYPE=INFRARED SPECTRUM
##ORIGIN=Sadtler Research Labs Under US-EPA Contract
##OWNER=NIST Standard Reference Data Program
##CAS REGISTRY NO=106-38-7
##MOLFORM=C 7 H 7 Br
##XUNITS=1/CM
##YUNITS=ABSORBANCE
##XFACTOR=1.0
##YFACTOR=0.000068799
##DELTAX=4.0
##FIRSTX=450.0
##LASTX=3966.0
##FIRSTY=0.087856
##MAXX=3966
##MINX=450
##MAXY=0.68799
##MINY=0
##NPOINTS=880
##XYDATA=(X++(Y..Y))
450.0 1277 1140 1470 1799 2147 2460 2817 2935 2087 1703
490.0 1439 1114 711 477 323 167 194 398 223 74
530.0 54 159 135 212 261 392 59 140 592 417
570.0 565 342 790 749 941 1265 1463 1648 1349 1096
610.0 286 200 229 159 167 96 108 225 277 431
650.0 324 382 222 23 345 381 260 304 255 295
690.0 207 317 251 292 346 221 287 146 263 244
730.0 178 279 80 225 361 503 686 788 753 787
770.0 872 1289 1754 2906 4056 5013 5759 6188 8023 5892
810.0 4990 4161 3101 2048 1218 623 433 415 346 221
850.0 290 145 295 309 262 173 218 326 206 214
890.0 315 355 251 328 284 271 170 225 234 270
930.0 233 307 205 380 394 415 395 400 380 364
970.0 278 283 261 223 237 245 302 579 1355 3479
1010.0 6014 5806 5888 4199 1314 530 525 529 592 586
1050.0 651 798 1218 2441 4433 5625 6146 5980 3666 2139
1090.0 1571 1243 957 1012 1016 934 929 821 664 535
1130.0 505 439 357 345 242 264 295 310 337 369
1170.0 406 488 550 570 595 672 669 666 800 889
1210.0 874 895 887 963 846 755 765 508 412 347
1250.0 325 374 334 231 288 347 358 312 383 303
1290.0 351 378 428 326 397 405 402 356 281 362
1330.0 332 358 313 290 334 326 336 328 325 407
1370.0 458 496 620 721 808 855 878 905 1028 1113
1410.0 1071 1086 985 837 771 763 722 626 649 607
1450.0 631 732 794 1108 1575 2284 3004 4333 6538 8664
1490.0 9732 10000 7822 5169 2659 1129 781 649 534 537
1530.0 448 347 329 227 300 354 309 240 300 358
1570.0 347 409 428 541 612 688 669 629 586 578
1610.0 602 659 593 595 534 574 479 363 324 234
1650.0 200 99 238 216 263 232 240 226 218 87
1690.0 171 200 134 103 119 161 117 118 224 264
1730.0 251 171 190 177 155 116 150 152 186 273
1770.0 329 325 378 292 216 131 78 76 66 87
1810.0 86 68 88 88 73 61 81 102 99 93
1850.0 137 171 178 192 237 262 373 458 523 515
1890.0 471 492 414 299 223 154 117 86 92 80
1930.0 97 95 71 100 92 87 75 83 90 75
1970.0 75 90 97 95 88 78 84 85 62 79
2010.0 80 73 51 72 57 50 48 46 55 49
2050.0 39 47 62 51 54 38 54 45 65 61
2090.0 73 59 53 70 37 46 36 36 56 52
2130.0 56 49 57 61 47 45 67 58 67 71
2170.0 68 63 65 73 52 66 59 80 78 62
2210.0 60 40 45 43 45 47 33 48 56 49
2250.0 66 58 56 61 82 70 107 125 150 177
2290.0 212 232 255 312 306 319 292 273 271 276
2330.0 220 229 251 269 280 315 330 313 352 343
2370.0 315 257 256 257 182 112 94 89 89 90
2410.0 90 81 99 98 90 88 76 77 84 84
2450.0 77 92 94 93 93 86 82 90 92 92
2490.0 95 95 79 69 67 82 98 98 98 98
2530.0 99 87 103 105 116 109 134 128 144 137
2570.0 137 131 145 140 140 169 156 151 171 144
2610.0 128 111 76 90 82 92 105 96 100 102
2650.0 108 117 112 119 124 110 116 116 108 116
2690.0 90 122 127 113 96 106 98 112 111 134
2730.0 135 179 182 230 210 249 231 203 158 139
2770.0 165 161 149 167 167 168 176 170 182 155
2810.0 201 216 230 239 243 278 304 328 360 404
2850.0 434 536 674 779 1016 1233 1428 1582 1632 1632
2890.0 1551 1469 1382 1305 1269 1272 1328 1516 1803 2248
2930.0 2850 3276 3398 3173 2680 2046 1497 1223 1119 1064
2970.0 1038 1027 1008 1030 1091 1159 1200 1294 1391 1414
3010.0 1517 1556 1660 2002 2518 2972 3145 3105 2663 2165
3050.0 1939 1878 1741 1577 1395 1281 1220 1209 1219 1238
3090.0 1229 1216 1122 982 792 614 462 338 252 206
3130.0 176 173 165 163 157 144 163 129 129 152
3170.0 157 172 146 131 110 138 130 121 149 131
3210.0 149 141 148 103 117 130 137 135 144 112
3250.0 128 99 110 128 116 101 131 127 104 95
3290.0 135 116 109 116 98 84 168 159 102 120
3330.0 125 111 90 116 132 121 129 124 146 108
3370.0 126 95 72 102 87 123 123 69 67 113
3410.0 103 69 106 79 100 99 97 92 118 78
3450.0 118 86 58 75 70 117 55 90 64 77
3490.0 102 71 68 77 37 65 37 82 95 54
3530.0 81 62 84 70 49 94 75 78 75 49
3570.0 46 88 83 111 78 67 81 81 39 68
3610.0 54 76 68 40 130 63 101 116 103 97
3650.0 25 136 98 97 145 134 88 74 119 100
3690.0 109 105 138 131 109 139 142 172 177 163
3730.0 158 121 104 181 159 175 170 187 172 179
3770.0 203 183 172 180 179 206 224 260 227 279
3810.0 232 248 189 190 221 197 190 199 222 215
3850.0 214 213 233 266 258 223 281 275 273 275
3890.0 242 245 222 242 205 195 230 199 190 197
3930.0 205 206 185 186 225 249 0 17 18 18
##END=
