##TITLE=Oxirane, [(2-propenyloxy)methyl]-
##JCAMP-DX=4.24
##DATA TYPE=INFRARED SPECTRUM
##ORIGIN=Sadtler Research Labs Under US-EPA Contract
##OWNER=NIST Standard Reference Data Program
##CAS REGISTRY NO=106-92-3
##MOLFORM=C 6 H 10 O 2
##XUNITS=1/CM
##YUNITS=ABSORBANCE
##XFACTOR=1.0
##YFACTOR=0.000082300
##DELTAX=4.0
##FIRSTX=450.0
##LASTX=3966.0
##FIRSTY=0.000000
##MAXX=3966
##MINX=450
##MAXY=0.823
##MINY=0
##NPOINTS=880
##XYDATA=(X++(Y..Y))
450.0 0 126 327 293 341 308 370 522 171 275
490.0 287 600 273 181 362 330 456 378 391 178
530.0 249 144 357 395 405 272 419 422 306 379
570.0 231 582 470 198 309 270 243 280 270 300
610.0 272 324 325 384 316 352 382 376 401 374
650.0 350 307 288 257 213 298 204 193 178 193
690.0 137 137 127 146 140 150 145 165 134 152
730.0 212 206 249 272 357 398 467 584 753 930
770.0 1183 1063 1022 847 729 629 593 643 753 866
810.0 975 1043 1288 1356 1480 1658 1912 2248 2533 2703
850.0 2684 2512 2161 1788 1439 1205 1038 1002 1033 1133
890.0 1283 1497 1779 2082 2465 2881 3435 4049 4678 5001
930.0 4870 4459 3786 3118 2681 2448 2347 2343 2328 2369
970.0 2473 2564 2709 2862 3030 3106 3116 2999 2864 2635
1010.0 2417 2179 1982 1823 1694 1671 1665 1660 1694 1795
1050.0 1927 2143 2368 2616 2888 3174 3514 3921 4508 5256
1090.0 6302 7453 8665 9534 9946 10000 9612 8858 8106 7554
1130.0 6948 6595 6265 5893 5469 5164 4938 4652 4294 3887
1170.0 3317 2682 2273 2037 1892 1713 1505 1232 1024 893
1210.0 811 782 780 822 880 979 1114 1286 1485 1699
1250.0 1899 2045 2152 2153 2074 1896 1693 1450 1255 1110
1290.0 1005 913 829 743 645 565 544 601 748 991
1330.0 1323 1691 2004 2253 2303 2174 1998 1741 1492 1269
1370.0 1135 1025 944 858 845 844 894 997 1125 1308
1410.0 1469 1613 1724 1722 1641 1504 1348 1185 1033 997
1450.0 1023 1116 1221 1237 1203 1135 1038 944 873 808
1490.0 739 668 592 495 425 406 374 387 363 375
1530.0 358 357 321 284 300 292 282 243 228 222
1570.0 215 205 205 192 203 193 209 217 234 244
1610.0 252 270 289 324 353 390 430 474 539 592
1650.0 574 537 515 398 330 287 252 254 261 268
1690.0 312 388 476 619 745 816 787 762 736 821
1730.0 1022 1147 1138 1149 1175 1170 1169 1115 1013 816
1770.0 602 427 347 307 271 243 222 211 214 201
1810.0 188 186 192 202 200 218 224 258 292 337
1850.0 360 383 379 362 332 294 255 216 210 191
1890.0 191 178 182 182 185 185 188 187 189 189
1930.0 195 198 199 198 196 191 193 189 203 204
1970.0 217 219 227 228 236 233 238 234 231 236
2010.0 234 238 236 240 235 235 233 240 243 241
2050.0 239 244 244 245 252 247 251 250 248 245
2090.0 243 240 237 237 234 232 222 220 214 211
2130.0 209 209 208 203 195 194 196 189 191 187
2170.0 190 196 195 198 201 194 192 186 190 191
2210.0 184 186 187 191 187 192 199 198 207 216
2250.0 227 234 232 226 214 209 205 206 213 224
2290.0 231 240 255 260 274 287 283 282 292 274
2330.0 280 248 235 225 225 235 322 276 219 153
2370.0 122 122 122 142 148 152 153 159 161 168
2410.0 166 166 162 159 157 155 157 151 153 148
2450.0 144 146 146 147 141 139 134 131 133 133
2490.0 134 129 125 126 124 122 125 128 127 128
2530.0 129 131 143 135 126 139 143 148 147 160
2570.0 164 167 168 165 165 166 169 179 188 184
2610.0 189 192 191 189 191 185 181 187 187 195
2650.0 199 208 216 231 236 251 263 278 296 310
2690.0 314 327 352 370 392 404 425 433 443 463
2730.0 478 498 517 533 551 554 556 572 595 613
2770.0 636 633 661 678 710 741 782 832 895 977
2810.0 1076 1170 1276 1406 1559 1747 2005 2310 2637 3027
2850.0 3413 3768 4061 4256 4322 4246 4101 3898 3685 3486
2890.0 3335 3225 3148 3086 3041 3013 3031 3110 3214 3335
2930.0 3446 3528 3535 3467 3274 3020 2770 2485 2213 2054
2970.0 2027 2109 2274 2504 2796 3076 3309 3470 3557 3532
3010.0 3368 3116 2853 2567 2249 2039 1896 1830 1945 2183
3050.0 2387 2504 2462 2289 2004 1776 1619 1512 1471 1478
3090.0 1519 1483 1435 1290 1029 836 687 531 408 341
3130.0 311 291 280 251 243 222 226 213 210 196
3170.0 187 193 182 182 175 177 180 185 177 176
3210.0 175 174 175 167 176 180 160 176 175 157
3250.0 169 183 175 177 175 173 186 153 179 184
3290.0 174 173 172 176 184 172 191 174 179 163
3330.0 162 149 166 164 162 165 142 168 167 159
3370.0 155 177 160 168 159 158 175 174 169 152
3410.0 192 191 178 187 173 191 166 161 156 174
3450.0 179 157 166 164 171 135 148 183 172 161
3490.0 170 162 157 162 195 182 166 153 187 149
3530.0 186 165 172 184 166 179 145 172 156 180
3570.0 171 168 196 188 206 198 185 213 210 231
3610.0 270 229 247 239 227 265 208 196 203 226
3650.0 248 188 219 211 220 249 259 238 207 229
3690.0 207 223 201 256 262 285 237 291 242 263
3730.0 229 243 236 265 263 233 246 230 257 227
3770.0 258 260 225 257 246 248 252 283 233 248
3810.0 228 287 272 257 271 288 311 292 227 271
3850.0 310 298 271 253 333 295 281 313 256 352
3890.0 270 228 278 305 232 369 321 385 261 277
3930.0 241 279 313 342 359 221 388 344 248 256
##END=
