##TITLE=7-Oxabicyclo[4.1.0]heptane, 3-ethenyl-
##JCAMP-DX=4.24
##DATA TYPE=INFRARED SPECTRUM
##ORIGIN=Sadtler Research Labs Under US-EPA Contract
##OWNER=NIST Standard Reference Data Program
##CAS REGISTRY NO=106-86-5
##MOLFORM=C 8 H 12 O
##XUNITS=1/CM
##YUNITS=ABSORBANCE
##XFACTOR=1.0
##YFACTOR=0.000083350
##DELTAX=4.0
##FIRSTX=450.0
##LASTX=3966.0
##FIRSTY=0.003001
##MAXX=3966
##MINX=450
##MAXY=0.8335
##MINY=0
##NPOINTS=880
##XYDATA=(X++(Y..Y))
450.0 36 95 139 228 288 357 459 518 576 512
490.0 499 379 300 156 106 47 11 35 91 232
530.0 324 535 539 628 533 583 329 333 264 108
570.0 95 110 156 211 278 266 364 387 466 452
610.0 458 488 386 437 411 535 619 736 710 763
650.0 911 978 882 1025 842 661 598 458 390 227
690.0 254 165 223 257 215 264 307 258 283 328
730.0 306 370 419 453 494 605 728 748 859 809
770.0 893 991 1289 1472 1768 1987 2352 2153 1970 1741
810.0 1510 1374 1157 999 788 699 638 739 825 982
850.0 1111 1236 1219 1117 1100 1012 1017 934 914 956
890.0 1085 1323 1733 2246 2917 3634 4158 3971 4002 3410
930.0 2671 2167 1767 1464 1261 1125 1067 1094 1164 1275
970.0 1409 1663 1969 2225 2583 2810 2817 2724 2320 1905
1010.0 1558 1276 1151 1023 934 970 912 923 959 888
1050.0 856 840 809 794 774 732 750 734 694 682
1090.0 680 595 595 583 552 594 611 653 709 678
1130.0 663 666 636 668 624 593 615 585 594 649
1170.0 686 696 791 722 740 638 600 580 552 543
1210.0 513 597 590 706 806 868 950 999 1035 1082
1250.0 1063 1069 1128 1082 1000 800 721 616 565 517
1290.0 521 566 550 581 571 514 512 506 487 502
1330.0 535 624 668 807 853 923 952 919 891 823
1370.0 793 726 619 585 562 537 559 598 667 794
1410.0 957 1134 1399 1659 1858 2107 2234 2359 2347 2252
1450.0 2092 1878 1611 1297 1013 725 629 512 407 351
1490.0 378 370 373 267 329 323 198 285 339 317
1530.0 272 357 342 433 389 319 358 412 455 361
1570.0 335 304 385 332 306 317 289 321 258 271
1610.0 311 341 429 446 574 802 1133 1410 1510 1540
1650.0 1371 1198 675 461 376 350 328 314 329 457
1690.0 488 555 659 725 593 567 556 596 496 467
1730.0 503 565 537 562 561 557 502 495 516 477
1770.0 456 439 329 282 274 226 246 201 188 182
1810.0 146 180 174 246 320 427 448 439 403 320
1850.0 206 154 131 101 101 74 98 79 77 109
1890.0 92 113 119 106 131 135 99 99 64 111
1930.0 78 97 74 112 146 142 125 126 132 142
1970.0 124 125 100 106 101 95 76 80 73 67
2010.0 84 99 75 74 56 64 65 52 48 41
2050.0 61 39 69 64 78 79 99 100 100 111
2090.0 98 92 87 67 66 78 77 93 85 97
2130.0 102 114 115 107 110 109 92 82 89 75
2170.0 86 82 71 88 81 99 105 116 92 80
2210.0 67 69 45 50 46 38 40 30 67 78
2250.0 78 57 82 74 88 71 66 71 57 55
2290.0 56 70 69 86 91 85 93 89 39 20
2330.0 36 1 30 1 23 37 12 10 62 136
2370.0 146 184 155 148 117 105 78 63 40 32
2410.0 31 25 30 43 44 39 51 36 50 27
2450.0 35 14 18 6 7 18 20 41 43 47
2490.0 53 76 67 51 59 60 54 42 37 26
2530.0 45 34 59 55 88 75 88 78 83 90
2570.0 78 67 56 57 44 59 67 71 64 95
2610.0 97 90 97 80 80 74 81 55 61 61
2650.0 84 91 75 135 136 162 180 198 180 202
2690.0 193 182 182 172 185 185 211 210 227 234
2730.0 241 217 219 210 209 187 193 177 171 181
2770.0 178 205 205 218 248 234 254 257 260 267
2810.0 246 266 300 330 405 490 667 909 1253 1643
2850.0 2017 2323 2567 2688 2659 2552 2373 2211 2083 2029
2890.0 2057 2137 2268 2515 2932 3461 4287 5272 6396 7499
2930.0 8441 9201 9765 10000 9258 8013 6678 5259 3921 3090
2970.0 2906 3283 4121 5339 6531 7997 9457 9701 9044 7601
3010.0 5786 3651 2288 1472 1002 716 604 570 545 496
3050.0 482 478 492 535 585 731 914 1246 1614 1915
3090.0 2034 1791 1532 1085 625 343 264 203 186 152
3130.0 165 179 182 200 195 178 145 140 133 97
3170.0 90 72 71 66 63 77 79 76 107 97
3210.0 103 93 92 63 79 58 27 41 35 69
3250.0 86 110 114 160 145 171 152 132 101 104
3290.0 122 77 113 114 143 138 192 201 221 225
3330.0 237 212 190 136 115 83 66 110 65 79
3370.0 112 103 113 114 121 117 88 70 48 14
3410.0 79 0 52 15 46 52 78 126 117 101
3450.0 114 99 76 90 65 101 69 82 94 75
3490.0 122 118 135 149 179 134 153 153 158 130
3530.0 118 105 130 123 89 158 138 149 127 157
3570.0 180 117 112 73 99 86 47 42 61 70
3610.0 170 148 179 172 185 241 192 159 149 154
3650.0 161 191 183 184 168 199 237 284 232 251
3690.0 281 218 202 192 185 180 215 163 182 244
3730.0 255 313 318 330 361 380 303 263 233 241
3770.0 228 202 154 164 179 189 258 264 286 281
3810.0 253 230 210 200 153 138 133 187 201 203
3850.0 251 382 379 397 413 413 387 353 317 286
3890.0 277 257 301 332 346 383 451 484 502 514
3930.0 477 454 387 355 273 209 61 71 71 72
##END=
