##TITLE=Heptanoic acid, ethyl ester
##JCAMP-DX=4.24
##DATA TYPE=INFRARED SPECTRUM
##ORIGIN=Sadtler Research Labs Under US-EPA Contract
##OWNER=NIST Standard Reference Data Program
##CAS REGISTRY NO=106-30-9
##MOLFORM=C 9 H 18 O 2
##XUNITS=1/CM
##YUNITS=ABSORBANCE
##XFACTOR=1.0
##YFACTOR=0.000058398
##DELTAX=4.0
##FIRSTX=450.0
##LASTX=3966.0
##FIRSTY=0.026513
##MAXX=3966
##MINX=450
##MAXY=0.58398
##MINY=0
##NPOINTS=880
##XYDATA=(X++(Y..Y))
450.0 454 720 189 423 241 0 540 517 306 225
490.0 286 253 402 415 328 298 559 361 533 472
530.0 240 271 273 523 486 161 251 185 354 305
570.0 228 249 170 269 314 250 204 188 334 240
610.0 254 295 191 195 234 171 196 240 203 163
650.0 156 195 297 271 268 276 276 172 294 305
690.0 470 543 458 470 363 399 494 448 408 450
730.0 529 444 334 491 700 483 592 521 442 468
770.0 369 473 446 519 503 465 423 462 432 511
810.0 480 472 385 443 510 524 531 517 644 689
850.0 693 707 668 693 693 687 696 612 621 637
890.0 659 676 683 710 771 797 875 874 887 876
930.0 908 889 869 841 802 739 758 745 743 731
970.0 739 777 761 768 757 728 775 773 802 826
1010.0 895 1020 1137 1368 1639 1991 2393 2654 2738 2623
1050.0 2340 2067 1808 1646 1517 1427 1408 1457 1547 1707
1090.0 1929 2286 2680 3081 3355 3330 3275 3073 2789 2544
1130.0 2356 2298 2386 2580 2930 3495 4428 5594 6789 7681
1170.0 7950 7693 7043 6248 5496 4912 4580 4466 4455 4434
1210.0 4352 4258 4208 4203 4272 4392 4487 4486 4324 4076
1250.0 3752 3482 3261 3007 2759 2493 2284 2148 2050 1945
1290.0 1839 1795 1776 1823 1865 1857 1822 1742 1643 1555
1330.0 1475 1460 1492 1550 1635 1636 1586 1469 1404 1613
1370.0 1970 2295 2275 1933 1567 1253 1075 935 830 756
1410.0 691 699 704 793 881 971 1106 1206 1226 1182
1450.0 1294 1430 1561 1698 1699 1661 1508 1222 961 786
1490.0 635 548 466 428 397 381 322 350 336 339
1530.0 298 306 315 318 313 269 285 276 325 264
1570.0 268 285 269 276 274 271 300 258 284 290
1610.0 275 279 296 280 266 283 278 276 260 237
1650.0 273 273 268 229 272 254 270 278 277 346
1690.0 339 381 463 541 585 661 784 930 1078 1345
1730.0 1727 2392 3553 5001 6966 8891 10000 9935 8446 6357
1770.0 4399 2870 1887 1293 929 734 559 468 390 350
1810.0 317 277 258 230 211 200 180 167 151 169
1850.0 147 151 131 127 124 129 142 137 135 134
1890.0 143 145 140 135 138 128 122 119 111 116
1930.0 124 122 134 131 132 133 134 135 141 136
1970.0 126 127 119 122 116 105 112 120 119 115
2010.0 126 121 114 133 139 140 132 132 135 130
2050.0 129 125 122 125 124 125 127 122 124 125
2090.0 127 125 117 115 112 110 115 113 110 108
2130.0 112 108 106 105 107 113 111 111 107 102
2170.0 104 104 110 113 105 111 109 101 106 107
2210.0 108 107 113 109 108 106 107 111 113 117
2250.0 110 107 111 109 118 110 107 106 106 95
2290.0 85 80 74 69 58 52 51 42 38 38
2330.0 47 69 71 63 79 68 38 56 66 100
2370.0 127 126 140 125 111 123 127 124 126 119
2410.0 121 124 128 133 130 122 125 121 117 114
2450.0 116 121 118 124 126 121 119 123 126 126
2490.0 120 120 123 126 122 124 127 130 137 137
2530.0 138 132 140 146 150 153 160 161 152 152
2570.0 168 169 167 161 167 179 183 181 181 180
2610.0 187 198 198 193 193 198 206 209 215 212
2650.0 213 215 232 237 245 247 245 257 251 246
2690.0 250 253 250 259 252 256 248 251 258 273
2730.0 282 286 287 299 301 313 311 306 311 314
2770.0 315 320 324 339 342 356 363 383 387 403
2810.0 439 458 496 527 562 610 659 730 821 977
2850.0 1212 1577 2036 2543 2961 3226 3297 3287 3238 3100
2890.0 2845 2568 2409 2511 2774 3168 3678 4264 4942 5739
2930.0 6562 7286 7716 7863 7580 6949 6270 5886 6023 6513
2970.0 6783 6458 5662 4900 4413 3922 3280 2626 2172 1821
3010.0 1524 1278 1049 879 758 669 610 548 506 467
3050.0 453 434 407 390 368 350 340 327 320 302
3090.0 288 276 290 283 253 242 246 250 244 239
3130.0 232 236 224 228 223 205 206 208 215 192
3170.0 196 187 186 188 185 187 182 164 166 161
3210.0 148 156 143 135 130 133 125 108 113 119
3250.0 118 112 92 99 83 87 102 109 98 79
3290.0 75 82 73 73 74 66 81 72 71 64
3330.0 54 53 68 70 56 57 62 65 72 69
3370.0 62 61 62 60 57 60 60 60 67 70
3410.0 59 54 48 48 67 72 78 40 46 66
3450.0 62 65 60 83 79 88 88 106 121 131
3490.0 153 151 148 102 98 85 75 76 59 56
3530.0 67 68 59 51 48 70 83 55 73 47
3570.0 66 64 81 72 77 61 86 57 70 64
3610.0 74 71 66 89 56 89 64 86 63 76
3650.0 81 114 60 64 71 71 109 67 93 54
3690.0 96 76 63 73 71 74 77 49 53 41
3730.0 63 81 61 87 61 120 63 73 65 89
3770.0 83 66 78 82 68 56 61 76 99 116
3810.0 65 58 71 111 103 70 81 78 71 70
3850.0 58 122 104 64 84 116 55 94 111 92
3890.0 81 109 62 42 51 103 90 125 62 65
3930.0 108 93 90 60 103 85 135 101 58 81
##END=
