##TITLE=Heptanoic acid, methyl ester
##JCAMP-DX=4.24
##DATA TYPE=INFRARED SPECTRUM
##ORIGIN=Sadtler Research Labs Under US-EPA Contract
##OWNER=NIST Standard Reference Data Program
##CAS REGISTRY NO=106-73-0
##MOLFORM=C 8 H 16 O 2
##XUNITS=1/CM
##YUNITS=ABSORBANCE
##XFACTOR=1.0
##YFACTOR=0.000087451
##DELTAX=4.0
##FIRSTX=450.0
##LASTX=3966.0
##FIRSTY=0.005072
##MAXX=3966
##MINX=450
##MAXY=0.87451
##MINY=0
##NPOINTS=880
##XYDATA=(X++(Y..Y))
450.0 58 49 89 137 150 94 84 62 28 76
490.0 94 142 83 98 70 62 109 135 79 100
530.0 70 73 111 171 142 137 19 53 193 167
570.0 227 190 216 114 148 277 263 319 331 282
610.0 258 292 325 290 288 267 268 287 259 225
650.0 228 269 223 229 178 218 217 278 287 314
690.0 320 207 292 289 254 327 368 356 365 425
730.0 418 396 411 362 413 404 355 311 321 441
770.0 358 332 279 349 338 355 251 319 346 409
810.0 389 432 420 493 524 558 546 578 559 570
850.0 557 512 578 546 572 620 597 570 586 483
890.0 483 388 326 318 277 270 231 220 195 215
930.0 253 242 242 214 258 271 280 317 331 360
970.0 365 387 422 444 559 586 661 715 717 846
1010.0 966 988 1136 1199 1298 1269 1179 1075 971 875
1050.0 821 745 732 671 691 739 781 854 936 1077
1090.0 1180 1395 1683 1950 2123 2200 2246 2096 1963 1841
1130.0 1787 1788 1936 2042 2345 2813 3541 4499 5564 6565
1170.0 7086 6909 6256 5390 4806 4464 4336 4447 4539 4575
1210.0 4593 4472 4330 4137 4068 4068 4074 4111 4052 3925
1250.0 3705 3500 3328 3100 2894 2666 2420 2251 2107 1989
1290.0 1874 1768 1647 1612 1581 1564 1581 1599 1551 1493
1330.0 1461 1462 1521 1575 1659 1771 1875 2000 2017 1891
1370.0 1740 1564 1370 1206 1066 887 765 637 559 562
1410.0 567 607 707 840 970 1289 1878 2462 2592 2411
1450.0 1916 1753 1859 1748 1706 1535 1426 1140 847 709
1490.0 611 499 462 386 472 430 331 379 403 329
1530.0 287 334 338 443 315 278 288 364 333 245
1570.0 285 252 297 220 223 210 193 208 202 194
1610.0 207 201 249 204 204 192 211 257 199 246
1650.0 240 369 199 213 189 265 239 249 261 352
1690.0 283 313 425 515 498 555 666 907 1018 1264
1730.0 1641 2223 2887 3820 5011 6555 8246 9583 10000 9168
1770.0 7659 5969 4443 3273 2369 1667 1204 826 627 467
1810.0 385 309 265 219 213 199 163 162 149 186
1850.0 144 127 132 127 122 149 122 121 113 110
1890.0 124 108 102 101 100 117 99 116 108 109
1930.0 102 109 108 119 127 114 118 111 112 122
1970.0 121 122 121 127 132 133 140 133 135 136
2010.0 135 138 145 145 151 155 161 161 162 159
2050.0 159 156 149 151 141 135 134 134 122 115
2090.0 109 100 97 91 87 88 73 73 68 73
2130.0 66 66 72 60 65 59 64 56 61 61
2170.0 55 58 61 56 60 54 54 54 53 50
2210.0 51 50 46 46 50 45 45 38 44 39
2250.0 44 38 35 40 42 41 43 41 41 40
2290.0 33 32 38 39 37 38 39 52 60 75
2330.0 68 92 88 102 102 78 92 130 165 189
2370.0 158 119 97 70 48 35 36 33 34 32
2410.0 32 33 26 26 30 29 21 22 25 17
2450.0 24 18 28 17 16 16 16 14 14 10
2490.0 21 14 20 14 15 16 22 21 21 24
2530.0 17 22 22 22 25 29 29 29 34 34
2570.0 36 41 41 41 39 49 42 56 54 52
2610.0 54 55 54 60 61 55 55 62 68 75
2650.0 66 74 77 89 86 85 86 98 98 91
2690.0 95 97 87 88 88 86 82 82 82 94
2730.0 101 101 112 117 118 117 118 111 119 111
2770.0 113 129 121 136 149 156 173 188 202 223
2810.0 233 267 291 334 386 439 520 637 797 1063
2850.0 1393 1771 2195 2588 2966 3196 3235 3202 3102 2891
2890.0 2641 2354 2205 2270 2533 2941 3481 4148 4921 5798
2930.0 6630 7289 7661 7765 7487 7115 6912 7135 7410 7644
2970.0 7270 6129 4863 3494 2505 1973 1665 1491 1340 1217
3010.0 1089 992 911 864 836 786 713 626 538 463
3050.0 392 350 321 292 275 257 237 230 216 221
3090.0 209 199 194 182 166 160 150 142 136 130
3130.0 118 109 109 103 101 88 89 90 79 83
3170.0 67 79 61 73 64 76 68 73 65 53
3210.0 47 42 41 41 30 35 30 30 25 36
3250.0 35 28 22 23 28 21 27 34 27 29
3290.0 29 29 25 25 30 29 25 24 24 19
3330.0 19 24 31 17 33 33 23 18 29 31
3370.0 33 38 21 33 27 34 21 32 23 19
3410.0 29 31 32 29 36 30 30 19 10 27
3450.0 31 37 25 26 29 39 38 48 62 61
3490.0 79 86 92 108 112 93 83 62 44 53
3530.0 49 42 35 35 54 36 30 30 42 77
3570.0 116 114 120 130 98 105 56 57 50 46
3610.0 80 68 70 80 53 133 78 54 54 62
3650.0 132 81 93 52 54 103 105 119 72 65
3690.0 109 79 60 83 74 86 94 63 81 76
3730.0 84 121 139 105 155 141 126 87 87 83
3770.0 88 74 72 72 75 71 74 95 116 100
3810.0 86 78 124 131 100 104 122 141 128 117
3850.0 110 167 124 126 139 139 120 116 127 132
3890.0 115 118 115 138 131 125 123 125 119 114
3930.0 114 107 110 109 118 129 0 9 9 9
##END=
