##TITLE=1,2,3-Propanetriol, 1-acetate
##JCAMP-DX=4.24
##DATA TYPE=INFRARED SPECTRUM
##ORIGIN=Sadtler Research Labs Under US-EPA Contract
##OWNER=NIST Standard Reference Data Program
##CAS REGISTRY NO=106-61-6
##MOLFORM=C 5 H 10 O 4
##XUNITS=1/CM
##YUNITS=ABSORBANCE
##XFACTOR=1.0
##YFACTOR=0.000053363
##DELTAX=4.0
##FIRSTX=450.0
##LASTX=3966.0
##FIRSTY=0.023106
##MAXX=3966
##MINX=450
##MAXY=0.53363
##MINY=0
##NPOINTS=880
##XYDATA=(X++(Y..Y))
450.0 433 465 429 397 378 388 401 406 436 537
490.0 525 549 546 584 529 569 526 426 357 425
530.0 437 612 545 327 365 399 421 391 445 428
570.0 427 368 376 544 364 459 563 588 628 595
610.0 542 519 496 521 505 472 444 456 627 446
650.0 544 633 635 405 290 326 309 289 299 231
690.0 183 131 93 76 44 40 33 7 17 0
730.0 11 6 9 9 18 12 12 18 24 25
770.0 33 35 45 46 65 66 72 89 116 140
810.0 164 198 259 271 320 339 386 405 434 456
850.0 477 465 456 474 473 451 438 410 403 402
890.0 432 442 445 475 501 533 546 576 604 620
930.0 631 630 640 650 670 689 726 771 821 888
970.0 943 1013 1046 1067 1086 1124 1171 1258 1388 1521
1010.0 1705 1928 2212 2505 2827 3197 3589 3947 4279 4530
1050.0 4662 4617 4406 4084 3703 3280 2929 2604 2379 2218
1090.0 2108 2033 1966 1910 1835 1730 1612 1477 1339 1210
1130.0 1089 1020 975 970 1013 1069 1164 1278 1422 1515
1170.0 1632 1735 1834 1942 2049 2211 2396 2750 3317 4097
1210.0 5261 6740 8284 9526 10000 9782 9089 8043 6884 5752
1250.0 4747 3980 3367 2915 2561 2255 1996 1757 1553 1375
1290.0 1246 1111 1019 932 878 830 821 791 779 786
1330.0 798 822 848 874 925 1016 1162 1393 1779 2162
1370.0 2560 2813 2847 2686 2453 2195 1965 1765 1549 1355
1410.0 1136 1007 887 822 736 744 676 771 682 717
1450.0 744 745 817 701 702 630 588 493 460 368
1490.0 362 288 268 222 239 243 183 192 184 182
1530.0 135 171 119 135 139 146 119 116 138 104
1570.0 114 87 129 85 120 104 114 89 108 85
1610.0 88 86 90 106 73 112 77 103 88 133
1650.0 66 171 112 128 122 163 118 165 138 183
1690.0 188 203 218 309 309 370 440 530 651 837
1730.0 1065 1369 1757 2231 2739 3378 4125 4969 5923 6707
1770.0 7007 6563 5680 4506 3424 2705 2518 2414 2159 1921
1810.0 1610 1215 876 572 425 294 225 184 146 146
1850.0 120 108 101 101 79 96 78 78 73 64
1890.0 73 68 69 59 46 55 43 68 41 54
1930.0 53 43 48 53 44 46 43 40 45 42
1970.0 38 34 44 42 38 35 43 40 43 52
2010.0 64 66 72 67 80 89 92 95 102 97
2050.0 99 98 83 78 90 90 89 89 79 77
2090.0 67 51 41 53 52 51 51 52 52 52
2130.0 51 43 41 41 41 39 33 32 36 33
2170.0 30 31 21 23 32 30 32 23 23 30
2210.0 30 30 31 31 31 31 29 29 21 29
2250.0 28 31 30 24 23 23 30 30 30 23
2290.0 34 35 37 31 31 26 25 22 8 19
2330.0 19 18 30 27 48 35 11 20 40 70
2370.0 89 92 81 73 54 35 33 40 39 40
2410.0 31 38 38 45 49 48 46 47 54 53
2450.0 53 46 54 53 53 53 53 49 54 52
2490.0 42 48 43 44 50 41 41 41 29 43
2530.0 36 33 38 39 39 45 44 37 37 55
2570.0 55 45 44 44 51 44 42 43 41 35
2610.0 25 13 14 12 12 12 12 15 8 12
2650.0 12 0 0 9 27 37 47 56 58 57
2690.0 77 60 71 76 76 82 78 88 87 79
2730.0 88 88 99 101 99 103 109 110 116 109
2770.0 118 120 128 129 130 130 140 150 152 162
2810.0 166 178 177 195 186 195 216 233 244 264
2850.0 293 338 398 453 523 603 712 828 931 1020
2890.0 1087 1107 1115 1080 1034 987 957 956 979 1040
2930.0 1129 1234 1331 1436 1531 1607 1625 1648 1575 1483
2970.0 1317 1128 951 801 669 570 491 435 369 323
3010.0 276 240 222 187 189 189 178 179 165 179
3050.0 171 153 133 134 144 141 135 132 116 110
3090.0 112 99 89 73 81 72 71 54 54 51
3130.0 49 51 47 28 41 46 54 35 27 26
3170.0 26 27 24 14 18 26 10 14 14 9
3210.0 16 29 18 18 17 16 24 20 12 7
3250.0 1 13 16 18 16 18 36 44 19 23
3290.0 32 49 32 44 37 51 36 57 53 44
3330.0 45 36 59 64 44 52 48 46 46 45
3370.0 54 42 53 62 54 55 58 59 63 61
3410.0 56 50 58 67 57 70 69 77 84 103
3450.0 78 84 92 115 104 95 113 100 137 119
3490.0 141 143 167 199 200 244 247 246 285 315
3530.0 324 319 351 339 425 443 510 582 662 702
3570.0 740 704 739 876 755 799 823 832 837 813
3610.0 833 818 814 844 833 891 858 829 819 813
3650.0 851 788 744 683 642 627 598 590 531 488
3690.0 424 396 347 302 249 237 246 223 225 209
3730.0 214 210 259 224 268 197 218 171 206 193
3770.0 167 178 168 160 179 183 163 176 179 181
3810.0 192 203 181 202 188 211 202 206 207 207
3850.0 213 219 220 235 223 247 210 216 213 239
3890.0 223 256 250 260 232 213 194 200 207 217
3930.0 227 202 183 195 204 205 203 202 197 199
##END=
