##TITLE=p-Aminotoluene
##JCAMP-DX=4.24
##DATA TYPE=INFRARED SPECTRUM
##ORIGIN=Sadtler Research Labs Under US-EPA Contract
##OWNER=NIST Standard Reference Data Program
##CAS REGISTRY NO=106-49-0
##MOLFORM=C 7 H 9 N
##XUNITS=1/CM
##YUNITS=ABSORBANCE
##XFACTOR=1.0
##YFACTOR=0.000110056
##DELTAX=4.0
##FIRSTX=450.0
##LASTX=3966.0
##FIRSTY=0.106204
##MAXX=3966
##MINX=450
##MAXY=1.10056
##MINY=0
##NPOINTS=880
##XYDATA=(X++(Y..Y))
450.0 965 1436 1522 1444 1468 1693 1680 1870 1800 2114
490.0 2112 2264 2575 2267 1589 1362 1250 937 811 574
530.0 553 411 472 417 429 484 501 519 471 557
570.0 466 520 466 503 462 491 515 506 550 514
610.0 588 555 709 847 1113 1409 1848 2488 3035 3467
650.0 3546 3629 3504 3205 2912 2567 2383 2238 2144 1909
690.0 1671 1455 1276 1183 1083 1062 977 964 890 842
730.0 770 695 623 511 444 367 347 319 360 412
770.0 552 745 1057 1415 1899 2384 2874 3481 4260 4510
810.0 4354 3967 3272 2869 2341 1864 1373 972 725 510
850.0 383 259 204 156 137 111 93 94 55 46
890.0 30 27 19 16 14 0 11 11 20 13
930.0 26 16 28 39 56 66 82 109 127 163
970.0 182 214 214 225 207 175 139 98 77 49
1010.0 47 25 22 6 17 26 55 114 185 258
1050.0 318 409 492 628 742 839 886 902 867 779
1090.0 697 603 576 564 607 652 737 762 652 594
1130.0 602 544 383 258 148 89 49 40 81 208
1170.0 456 575 584 554 598 481 231 65 13 7
1210.0 11 21 32 57 86 145 241 407 699 1227
1250.0 2078 3252 4561 5312 5791 5923 5788 4576 3044 1966
1290.0 1368 957 710 586 500 414 347 285 296 272
1330.0 240 219 110 120 168 138 128 82 26 48
1370.0 73 33 73 149 113 151 106 72 159 211
1410.0 218 333 141 309 317 399 274 323 389 408
1450.0 366 332 239 377 454 485 356 430 626 647
1490.0 800 1350 1896 3542 4789 7816 9544 9139 10000 7323
1530.0 7364 3588 1641 583 401 435 287 174 323 512
1570.0 571 696 841 885 1046 1054 1237 1349 1799 2395
1610.0 3209 4237 5142 5844 6984 6093 6080 4589 4194 2580
1650.0 1542 1156 588 596 364 386 117 351 122 120
1690.0 208 276 129 87 230 286 246 55 251 270
1730.0 183 66 206 222 149 125 153 158 119 150
1770.0 43 17 122 82 107 74 56 67 37 122
1810.0 109 103 139 135 109 117 175 255 238 265
1850.0 383 463 454 440 413 332 370 307 256 207
1890.0 161 152 156 173 168 177 173 174 136 177
1930.0 187 162 154 102 125 138 139 122 130 92
1970.0 98 105 97 98 97 70 68 102 101 101
2010.0 104 93 76 83 95 82 91 75 75 78
2050.0 91 93 104 107 94 118 109 112 100 95
2090.0 79 86 87 79 79 72 66 53 49 42
2130.0 34 26 22 17 13 19 16 22 18 25
2170.0 23 22 22 16 18 11 19 14 15 13
2210.0 14 10 10 13 8 6 6 6 0 6
2250.0 6 9 14 15 17 19 29 29 34 35
2290.0 39 40 47 48 43 50 47 50 42 44
2330.0 40 44 44 52 73 55 75 47 72 61
2370.0 59 40 31 24 15 14 7 13 11 13
2410.0 15 16 16 14 16 16 21 19 29 30
2450.0 37 37 34 39 34 35 29 24 19 19
2490.0 14 15 13 15 20 26 34 43 54 66
2530.0 69 67 66 58 52 47 43 42 44 47
2570.0 41 45 48 47 51 58 63 67 73 69
2610.0 70 55 51 43 33 30 25 23 19 24
2650.0 21 23 23 24 23 21 25 23 28 29
2690.0 38 42 47 51 56 55 58 63 61 75
2730.0 93 124 146 164 168 165 144 102 71 55
2770.0 52 52 49 54 56 57 63 70 72 85
2810.0 93 107 120 137 152 175 203 244 294 356
2850.0 449 562 718 917 1172 1449 1682 1784 1789 1736
2890.0 1608 1438 1300 1260 1292 1398 1580 1869 2232 2595
2930.0 2780 2787 2695 2424 2011 1537 1176 953 827 753
2970.0 726 772 854 974 1112 1371 1707 2094 2479 2823
3010.0 3154 3397 3595 3770 3967 4003 3884 3638 3402 2977
3050.0 2467 2097 1851 1674 1495 1316 1126 955 806 691
3090.0 609 549 516 479 445 412 381 342 291 259
3130.0 230 212 189 174 143 120 98 81 66 52
3170.0 50 44 40 40 43 44 45 57 70 77
3210.0 81 89 91 101 97 102 112 116 117 106
3250.0 89 83 80 63 62 61 40 31 25 28
3290.0 28 33 21 24 25 22 19 21 20 26
3330.0 21 19 27 30 27 35 37 40 52 70
3370.0 71 92 118 168 236 335 484 588 670 739
3410.0 720 660 527 441 334 232 191 166 155 152
3450.0 165 180 204 246 303 371 434 500 524 526
3490.0 571 580 500 417 392 320 247 196 148 119
3530.0 95 78 61 54 44 40 31 29 20 17
3570.0 17 15 15 2 13 2 3 10 9 8
3610.0 4 18 10 11 19 3 19 7 20 2
3650.0 1 28 19 30 15 42 28 35 40 35
3690.0 33 17 28 30 16 28 22 24 39 25
3730.0 26 10 43 8 48 11 32 37 14 22
3770.0 39 47 31 46 33 32 22 34 7 51
3810.0 19 32 30 42 33 19 22 42 39 39
3850.0 43 49 50 70 74 68 57 62 35 58
3890.0 29 45 21 50 28 20 16 15 28 24
3930.0 22 27 27 35 43 21 37 39 41 40
##END=
