##TITLE=Benzene, 1-bromo-4-chloro-
##JCAMP-DX=4.24
##DATA TYPE=INFRARED SPECTRUM
##ORIGIN=Sadtler Research Labs Under US-EPA Contract
##OWNER=NIST Standard Reference Data Program
##CAS REGISTRY NO=106-39-8
##MOLFORM=C 6 H 4 Br Cl
##XUNITS=1/CM
##YUNITS=ABSORBANCE
##XFACTOR=1.0
##YFACTOR=0.000090121
##DELTAX=4.0
##FIRSTX=450.0
##LASTX=3966.0
##FIRSTY=0.040194
##MAXX=3966
##MINX=450
##MAXY=0.90121
##MINY=0
##NPOINTS=880
##XYDATA=(X++(Y..Y))
450.0 446 404 805 913 1058 1328 1544 1905 2001 2160
490.0 2969 3364 3013 2538 983 367 257 242 326 290
530.0 140 218 328 195 95 172 207 84 58 275
570.0 101 142 204 197 107 180 365 274 167 313
610.0 235 224 121 157 129 162 159 126 117 162
650.0 119 130 188 123 130 115 159 96 75 141
690.0 192 207 161 102 151 105 67 75 124 141
730.0 186 133 208 311 406 391 462 331 281 244
770.0 200 260 266 325 396 529 875 1279 1913 2423
810.0 2898 3681 3761 3129 2637 2042 1451 845 488 243
850.0 135 125 68 64 48 70 74 86 72 45
890.0 62 62 37 28 61 13 20 10 17 28
930.0 27 40 23 22 18 27 77 27 28 53
970.0 29 88 70 60 139 152 295 585 1873 4845
1010.0 6965 7049 5014 1619 260 309 101 83 169 129
1050.0 257 443 923 2005 3558 4692 4444 3571 2238 2808
1090.0 5452 7523 8086 5879 2567 745 350 231 175 174
1130.0 131 117 103 105 125 133 163 170 189 200
1170.0 202 197 177 163 149 155 152 154 199 279
1210.0 396 481 490 467 446 414 412 388 337 336
1250.0 325 325 330 318 308 306 295 304 298 331
1290.0 334 344 340 314 316 280 261 253 232 216
1330.0 207 205 223 223 221 221 254 266 268 322
1370.0 367 452 533 602 674 675 686 717 748 827
1410.0 928 868 744 466 358 337 395 451 477 526
1450.0 572 578 1115 1919 4134 8497 10000 9700 6710 2477
1490.0 1195 965 711 715 655 518 549 295 256 243
1530.0 175 223 80 145 145 200 220 121 212 278
1570.0 310 370 353 495 476 523 459 446 351 311
1610.0 359 286 392 364 436 391 388 276 292 211
1650.0 119 98 54 172 71 81 52 110 62 77
1690.0 69 104 45 5 75 70 84 15 65 130
1730.0 61 138 35 151 138 130 157 183 186 196
1770.0 134 59 74 72 70 88 52 90 103 93
1810.0 93 98 113 111 117 77 111 89 100 70
1850.0 97 111 115 154 172 203 260 306 344 336
1890.0 322 305 260 189 154 106 105 65 86 72
1930.0 72 78 67 76 64 75 68 77 68 75
1970.0 69 63 59 59 59 66 60 57 54 53
2010.0 49 60 64 56 62 59 55 56 53 58
2050.0 55 61 61 61 57 56 53 55 57 59
2090.0 55 58 55 51 51 51 51 51 51 53
2130.0 45 48 43 43 43 41 43 39 38 40
2170.0 35 38 41 35 40 40 42 45 42 48
2210.0 44 42 32 31 32 28 35 38 34 40
2250.0 43 47 53 56 66 72 73 75 75 75
2290.0 65 65 60 45 43 32 19 6 0 0
2330.0 0 0 0 0 0 17 0 0 0 13
2370.0 20 17 39 48 54 44 30 31 28 23
2410.0 12 11 16 16 17 14 16 21 19 22
2450.0 28 22 26 29 26 28 29 27 29 32
2490.0 30 30 32 29 38 34 34 38 32 39
2530.0 43 43 52 50 56 54 53 53 57 52
2570.0 59 59 53 46 47 44 38 32 36 36
2610.0 38 36 42 46 47 49 48 55 58 66
2650.0 62 59 59 51 47 52 43 41 44 44
2690.0 46 43 39 39 38 44 44 44 40 42
2730.0 44 37 42 50 40 49 49 51 53 53
2770.0 54 52 55 54 56 65 69 77 80 92
2810.0 106 104 112 100 77 66 48 42 43 48
2850.0 52 44 55 59 55 52 51 48 49 52
2890.0 55 56 52 50 51 57 46 57 52 45
2930.0 42 39 45 53 48 37 50 47 49 54
2970.0 63 61 64 59 63 61 64 66 71 77
3010.0 87 90 107 105 101 108 105 104 100 102
3050.0 104 95 91 95 96 113 141 179 228 295
3090.0 321 316 285 232 157 118 92 82 72 46
3130.0 50 55 57 57 51 55 50 60 59 50
3170.0 57 56 58 61 63 68 55 55 65 59
3210.0 61 69 67 69 69 74 60 63 70 64
3250.0 67 60 56 66 64 80 63 70 83 67
3290.0 76 75 79 86 85 89 94 95 102 95
3330.0 101 107 109 115 113 126 117 123 122 118
3370.0 135 130 144 140 143 136 122 124 128 106
3410.0 88 94 84 81 72 87 89 74 70 69
3450.0 83 80 84 106 81 84 89 89 84 101
3490.0 85 88 79 94 96 91 83 85 93 109
3530.0 100 76 81 84 102 93 82 103 75 128
3570.0 104 84 106 79 112 74 122 78 89 68
3610.0 102 120 58 116 69 91 77 103 83 127
3650.0 35 123 21 143 66 121 55 55 113 80
3690.0 123 34 153 77 101 95 133 108 146 125
3730.0 113 66 74 132 14 151 21 116 61 118
3770.0 92 97 92 78 85 80 70 104 38 109
3810.0 36 166 51 83 82 124 88 60 74 95
3850.0 106 25 97 85 111 51 75 124 125 41
3890.0 104 40 141 56 151 94 104 103 94 134
3930.0 93 125 73 80 110 84 98 64 73 88
##END=
