##TITLE=Benzene, 1-chloro-4-methyl-
##JCAMP-DX=4.24
##DATA TYPE=INFRARED SPECTRUM
##ORIGIN=Sadtler Research Labs Under US-EPA Contract
##OWNER=NIST Standard Reference Data Program
##CAS REGISTRY NO=106-43-4
##MOLFORM=C 7 H 7 Cl
##XUNITS=1/CM
##YUNITS=ABSORBANCE
##XFACTOR=1.0
##YFACTOR=0.000062277
##DELTAX=4.0
##FIRSTX=450.0
##LASTX=3966.0
##FIRSTY=0.044840
##MAXX=3966
##MINX=450
##MAXY=0.62277
##MINY=0
##NPOINTS=880
##XYDATA=(X++(Y..Y))
450.0 720 602 887 1222 1607 1908 2138 2508 2743 1808
490.0 1616 1416 967 514 296 189 106 71 76 107
530.0 98 62 75 97 97 71 154 107 89 134
570.0 163 80 83 106 112 113 113 99 96 129
610.0 206 336 609 1052 1703 2276 2142 1971 1507 462
650.0 69 10 0 71 87 124 91 129 150 142
690.0 143 122 115 73 102 83 72 82 81 75
730.0 90 133 128 137 206 154 175 202 218 329
770.0 569 849 1152 1706 2493 3490 4584 5095 5591 7947
810.0 6428 4639 4189 3145 1986 1075 519 238 145 143
850.0 138 144 153 160 137 178 116 102 95 95
890.0 111 105 106 106 118 120 122 153 137 150
930.0 177 206 169 152 174 172 183 222 246 247
970.0 244 219 203 193 210 270 376 566 852 1288
1010.0 1977 2806 2622 2360 2215 1200 496 346 382 432
1050.0 448 430 422 413 403 440 537 956 2256 4961
1090.0 7748 8436 9057 8785 4736 2383 1464 968 629 430
1130.0 339 255 214 195 182 176 193 200 193 220
1170.0 307 388 369 380 376 287 274 359 477 531
1210.0 581 612 604 577 567 530 455 351 235 171
1250.0 151 165 163 157 156 165 152 147 157 144
1290.0 142 170 177 152 183 182 165 172 173 174
1330.0 184 183 215 220 222 212 214 210 219 230
1370.0 238 276 342 429 504 579 656 702 744 822
1410.0 904 938 943 906 781 719 648 641 540 487
1450.0 521 569 658 680 916 1160 1697 2692 4184 6440
1490.0 9484 9912 10000 9119 6025 3465 1812 929 641 460
1530.0 352 358 335 361 307 283 290 365 351 316
1570.0 364 361 441 398 450 521 604 631 604 578
1610.0 509 466 534 536 509 478 504 451 304 300
1650.0 219 271 125 133 109 129 114 117 105 152
1690.0 103 109 131 175 138 139 183 300 285 315
1730.0 352 394 292 256 216 188 153 170 193 237
1770.0 315 336 289 257 173 115 112 78 84 70
1810.0 71 74 74 59 83 91 68 79 91 128
1850.0 109 129 151 183 224 309 374 460 520 497
1890.0 476 499 420 296 196 147 114 96 73 87
1930.0 66 66 63 71 71 51 64 58 52 44
1970.0 52 60 53 58 65 51 60 70 64 50
2010.0 72 75 59 62 70 53 46 41 49 40
2050.0 43 50 42 22 40 38 32 32 47 48
2090.0 31 42 51 43 36 33 29 31 34 40
2130.0 32 40 49 40 33 39 28 23 28 43
2170.0 38 41 52 49 50 49 41 37 26 41
2210.0 37 38 35 35 40 36 35 35 34 36
2250.0 34 30 28 41 40 43 60 75 89 93
2290.0 96 105 114 107 102 91 81 87 76 61
2330.0 61 77 54 71 71 53 56 45 69 63
2370.0 45 67 53 55 54 62 52 54 69 70
2410.0 61 52 68 48 45 40 33 32 30 30
2450.0 24 23 39 39 32 31 52 34 39 36
2490.0 42 30 24 34 31 24 24 32 17 19
2530.0 28 13 16 14 20 15 18 33 31 32
2570.0 40 59 49 72 78 76 72 61 65 23
2610.0 35 42 41 17 9 26 3 19 16 12
2650.0 2 15 22 13 13 22 37 30 38 54
2690.0 44 51 49 40 30 28 35 27 51 58
2730.0 59 76 116 158 158 164 148 104 74 60
2770.0 57 52 57 56 65 58 79 82 84 85
2810.0 105 116 107 133 144 153 179 211 230 253
2850.0 335 384 483 635 844 1082 1251 1397 1477 1477
2890.0 1390 1309 1243 1146 1097 1076 1155 1310 1608 2010
2930.0 2502 2908 3030 2859 2513 1972 1416 1096 966 935
2970.0 870 871 928 982 1078 1121 1150 1213 1296 1338
3010.0 1351 1295 1361 1565 1948 2457 2819 2919 2842 2443
3050.0 2015 1760 1524 1295 1103 972 887 910 932 1006
3090.0 1026 994 1013 978 837 638 524 399 243 158
3130.0 108 96 71 62 75 73 59 54 61 54
3170.0 53 60 60 59 57 70 34 52 43 36
3210.0 34 43 51 28 58 53 42 39 50 69
3250.0 20 43 57 73 48 64 87 49 37 34
3290.0 41 37 46 62 37 47 71 64 45 60
3330.0 60 63 57 53 64 41 64 47 48 65
3370.0 62 64 56 64 34 31 43 87 61 53
3410.0 77 55 57 44 58 37 45 76 70 37
3450.0 40 91 58 22 63 29 36 28 62 21
3490.0 51 80 51 28 14 31 50 7 39 32
3530.0 40 13 72 22 50 35 57 35 17 46
3570.0 28 57 26 47 14 28 68 52 66 66
3610.0 64 58 47 72 31 74 39 29 25 44
3650.0 103 48 74 86 77 93 90 130 89 66
3690.0 76 72 33 57 104 66 81 82 89 51
3730.0 89 122 107 110 122 83 83 68 65 54
3770.0 51 51 71 49 66 80 60 59 84 69
3810.0 55 87 88 119 86 113 103 122 89 108
3850.0 117 107 125 128 132 120 122 136 125 149
3890.0 122 129 117 129 108 125 122 131 139 133
3930.0 136 112 117 132 126 142 152 164 148 141
##END=
