##TITLE=6-Octenal, 3,7-dimethyl-
##JCAMP-DX=4.24
##DATA TYPE=INFRARED SPECTRUM
##ORIGIN=Sadtler Research Labs Under US-EPA Contract
##OWNER=NIST Standard Reference Data Program
##CAS REGISTRY NO=106-23-0
##MOLFORM=C 10 H 18 O
##XUNITS=1/CM
##YUNITS=ABSORBANCE
##XFACTOR=1.0
##YFACTOR=0.000061279
##DELTAX=4.0
##FIRSTX=450.0
##LASTX=3966.0
##FIRSTY=0.005515
##MAXX=3966
##MINX=450
##MAXY=0.61279
##MINY=0
##NPOINTS=880
##XYDATA=(X++(Y..Y))
450.0 90 113 123 169 143 144 178 131 104 61
490.0 13 20 179 225 218 251 321 287 389 376
530.0 260 291 298 153 230 226 281 209 212 202
570.0 79 177 113 87 80 199 165 103 211 110
610.0 132 130 149 157 156 149 110 105 94 106
650.0 120 143 156 210 123 246 268 314 337 272
690.0 245 202 264 226 198 180 125 147 194 288
730.0 202 248 102 142 379 380 229 175 160 207
770.0 183 178 154 187 228 231 323 268 230 281
810.0 333 378 460 536 554 538 562 577 522 535
850.0 459 414 364 446 471 398 404 444 408 473
890.0 489 536 622 622 596 506 453 405 415 372
930.0 406 387 457 465 426 397 459 437 508 529
970.0 498 525 570 601 658 625 682 691 665 762
1010.0 790 804 769 691 696 625 630 569 542 545
1050.0 528 586 560 557 585 584 718 690 783 859
1090.0 831 911 946 1026 1063 1136 1235 1222 1219 1176
1130.0 1056 994 870 853 733 687 713 664 636 691
1170.0 679 680 706 690 651 577 623 644 654 674
1210.0 632 650 720 684 659 672 689 719 667 663
1250.0 562 566 481 471 546 521 580 613 629 626
1290.0 587 538 514 586 599 584 568 576 602 660
1330.0 686 734 830 906 994 1094 1167 1229 1263 1347
1370.0 1492 1767 2134 2510 2592 2365 1910 1495 1187 1042
1410.0 959 992 1047 1113 1152 1153 1189 1321 1402 1577
1450.0 1759 1927 2148 2042 1924 1642 1415 1051 734 586
1490.0 479 348 345 304 386 335 267 260 298 227
1530.0 216 214 241 346 244 211 217 268 260 179
1570.0 192 174 207 179 120 126 183 149 180 136
1610.0 150 186 258 217 218 211 283 351 325 423
1650.0 394 505 343 344 379 458 480 525 560 664
1690.0 601 712 863 1042 1107 1305 1605 2117 2683 3596
1730.0 4960 6944 9071 10000 9223 6966 4546 3119 2314 1854
1770.0 1636 1531 1346 1179 1015 828 728 581 529 437
1810.0 379 321 274 242 243 217 178 168 148 170
1850.0 121 108 93 84 99 115 81 69 72 77
1890.0 76 62 60 60 51 60 51 60 50 51
1930.0 49 50 44 61 54 57 52 47 50 67
1970.0 51 51 44 42 38 47 42 39 35 38
2010.0 29 26 35 43 27 26 28 25 33 24
2050.0 20 23 25 29 34 20 26 35 34 34
2090.0 26 38 31 31 25 35 35 41 33 35
2130.0 35 26 26 28 35 25 35 34 33 37
2170.0 43 35 43 43 43 42 42 35 37 33
2210.0 34 35 26 26 25 28 19 19 27 19
2250.0 27 23 25 9 26 31 18 18 27 18
2290.0 25 19 25 26 17 11 11 1 1 1
2330.0 0 0 0 0 0 0 0 0 0 0
2370.0 0 0 2 3 27 28 29 38 38 30
2410.0 38 38 23 33 28 45 35 35 43 38
2450.0 40 47 31 40 40 39 42 41 42 42
2490.0 41 41 35 34 35 42 42 58 52 45
2530.0 52 43 43 51 62 50 70 75 69 78
2570.0 86 85 94 93 104 107 104 123 118 134
2610.0 142 151 159 177 194 193 229 253 275 310
2650.0 328 364 383 412 448 480 531 607 715 863
2690.0 1117 1488 1987 2581 3185 3412 3215 2665 2041 1611
2730.0 1360 1220 1180 1131 1080 1000 953 886 853 845
2770.0 823 833 863 912 1004 1156 1324 1546 1771 1985
2810.0 2145 2206 2141 1957 1696 1510 1438 1476 1612 1879
2850.0 2308 2862 3478 4039 4494 4787 5026 5260 5428 5559
2890.0 5540 5442 5309 5318 5579 6054 6859 7831 8770 9445
2930.0 9693 9475 8902 8121 7208 6458 6201 6496 7271 7938
2970.0 8311 8109 7186 6026 4786 3758 3032 2438 2011 1649
3010.0 1371 1172 1038 961 897 853 791 748 715 657
3050.0 623 582 548 513 491 468 449 445 430 398
3090.0 349 309 270 247 224 198 215 203 190 184
3130.0 184 148 150 143 119 104 106 104 105 89
3170.0 81 103 88 72 78 74 76 65 70 66
3210.0 50 51 42 35 35 42 33 28 22 20
3250.0 44 16 27 12 14 21 21 13 22 13
3290.0 7 32 28 23 15 36 3 8 32 23
3330.0 24 22 35 15 31 45 28 16 20 32
3370.0 34 27 26 26 35 20 24 22 38 18
3410.0 32 32 35 53 45 52 61 52 53 97
3450.0 106 118 152 172 162 147 99 83 56 47
3490.0 39 31 22 10 6 17 18 3 28 23
3530.0 19 3 25 18 10 2 29 26 51 82
3570.0 152 170 185 148 115 88 68 76 101 84
3610.0 109 94 100 102 65 115 72 64 52 69
3650.0 110 71 71 57 45 71 75 83 53 43
3690.0 78 51 40 64 58 67 70 50 51 65
3730.0 84 99 112 97 142 129 127 92 99 100
3770.0 92 76 95 98 83 97 108 112 139 123
3810.0 134 134 158 134 109 120 143 162 148 138
3850.0 164 207 165 137 153 161 135 128 123 150
3890.0 141 133 137 156 141 131 122 122 107 99
3930.0 98 100 110 115 117 127 3 12 12 12
##END=
