##TITLE=n-Butyl laurate
##JCAMP-DX=4.24
##DATA TYPE=INFRARED SPECTRUM
##ORIGIN=Sadtler Research Labs Under US-EPA Contract
##OWNER=NIST Standard Reference Data Program
##CAS REGISTRY NO=106-18-3
##MOLFORM=C 16 H 32 O 2
##XUNITS=1/CM
##YUNITS=ABSORBANCE
##XFACTOR=1.0
##YFACTOR=0.000063086
##DELTAX=4.0
##FIRSTX=450.0
##LASTX=3966.0
##FIRSTY=0.013311
##MAXX=3966
##MINX=450
##MAXY=0.63086
##MINY=0
##NPOINTS=880
##XYDATA=(X++(Y..Y))
450.0 211 209 172 118 163 230 275 307 299 170
490.0 169 146 122 121 129 130 197 152 144 90
530.0 81 95 139 98 175 174 311 160 125 228
570.0 181 216 137 214 228 310 239 161 259 228
610.0 279 240 202 240 208 225 214 264 285 272
650.0 250 261 208 217 226 311 262 251 301 274
690.0 352 312 278 327 334 392 374 417 404 358
730.0 419 380 378 371 364 353 310 313 326 328
770.0 299 321 281 297 355 322 272 275 305 305
810.0 314 298 342 322 311 356 346 299 306 356
850.0 354 299 318 363 350 359 305 351 320 304
890.0 364 336 326 318 347 335 348 325 350 300
930.0 327 329 361 386 451 499 518 491 514 548
970.0 529 543 529 514 510 484 515 510 556 593
1010.0 681 705 752 757 743 694 656 621 581 573
1050.0 605 681 791 922 1003 1052 1068 986 910 864
1090.0 853 879 943 1048 1202 1324 1440 1429 1348 1226
1130.0 1189 1236 1392 1654 2031 2448 2768 2964 3075 3129
1170.0 3168 3167 3143 2978 2795 2587 2401 2218 2100 1999
1210.0 1926 1919 1907 1960 2002 2046 2109 2146 2151 2133
1250.0 2070 1943 1791 1650 1520 1408 1316 1242 1173 1121
1290.0 1071 1042 1017 1040 1019 1025 982 943 901 860
1330.0 848 864 914 980 1081 1132 1166 1126 1034 942
1370.0 854 763 733 752 764 772 711 580 496 417
1410.0 400 398 363 415 508 557 626 631 744 810
1450.0 898 1048 1113 1332 1312 1239 968 785 606 467
1490.0 328 319 236 258 146 134 186 158 99 156
1530.0 175 138 135 54 128 157 133 60 69 157
1570.0 122 143 114 154 165 172 155 156 163 154
1610.0 157 163 98 154 125 134 123 91 159 103
1650.0 113 7 157 139 150 115 143 147 160 102
1690.0 202 220 186 173 291 383 419 432 599 718
1730.0 867 1058 1526 2260 3434 4805 5664 5151 3723 2401
1770.0 1521 1022 799 627 510 429 313 299 242 232
1810.0 207 190 181 172 149 133 144 134 126 104
1850.0 132 125 148 116 123 92 119 117 122 124
1890.0 109 113 113 121 113 113 112 103 104 113
1930.0 110 106 114 106 101 120 109 110 107 116
1970.0 108 107 120 114 114 105 103 119 103 107
2010.0 110 118 110 111 110 118 109 111 116 113
2050.0 109 113 107 107 106 99 98 97 97 113
2090.0 96 103 99 98 99 94 99 93 92 86
2130.0 86 92 85 83 85 90 83 88 89 71
2170.0 81 83 73 81 81 87 80 73 72 69
2210.0 70 78 72 73 76 75 68 68 83 68
2250.0 75 74 71 75 73 68 79 72 65 79
2290.0 86 86 94 110 116 147 149 158 178 193
2330.0 226 234 227 248 233 176 240 289 309 271
2370.0 237 182 143 97 76 64 60 53 54 53
2410.0 61 68 64 64 49 55 55 45 45 43
2450.0 40 48 49 49 47 40 39 37 34 37
2490.0 40 41 50 44 44 29 44 45 53 52
2530.0 46 46 41 57 37 46 50 47 56 49
2570.0 57 64 59 67 70 75 68 78 68 75
2610.0 75 90 84 76 84 84 84 94 88 92
2650.0 103 107 107 119 119 119 127 136 128 127
2690.0 137 143 125 125 125 122 121 122 124 138
2730.0 140 140 138 155 155 152 156 160 152 171
2770.0 164 166 157 175 183 191 209 219 234 259
2810.0 271 291 323 374 413 449 514 579 694 896
2850.0 1217 1820 2740 3662 3974 3694 3254 2852 2670 2589
2890.0 2397 2193 2184 2367 2734 3177 3753 4506 5634 7279
2930.0 9052 10000 9675 8667 7326 6041 5028 4626 4850 5359
2970.0 5602 4987 3785 2675 1924 1448 1117 880 716 620
3010.0 522 461 387 360 333 311 284 265 253 227
3050.0 211 203 178 155 166 163 149 148 139 140
3090.0 126 124 127 127 119 112 105 111 113 111
3130.0 106 114 115 109 103 100 108 101 115 100
3170.0 101 94 85 99 102 105 86 101 111 94
3210.0 87 73 81 66 97 80 70 90 77 74
3250.0 81 77 68 75 69 76 77 86 61 77
3290.0 86 75 73 80 86 74 83 78 97 73
3330.0 89 73 86 76 72 84 78 89 78 83
3370.0 82 76 93 93 94 84 86 73 72 87
3410.0 86 86 82 78 88 82 81 82 89 81
3450.0 80 108 96 82 101 110 101 104 110 125
3490.0 133 116 109 79 94 83 80 84 82 80
3530.0 81 79 80 97 81 83 85 87 78 54
3570.0 58 84 91 75 87 67 78 85 85 83
3610.0 44 72 75 74 89 41 86 79 96 91
3650.0 43 74 59 91 83 52 42 31 86 89
3690.0 55 88 101 78 85 77 55 87 85 76
3730.0 79 53 32 76 16 23 36 81 98 90
3770.0 82 109 110 98 84 160 104 89 45 71
3810.0 68 86 55 70 79 80 68 63 74 106
3850.0 82 37 54 64 66 58 60 90 75 79
3890.0 81 81 83 73 76 91 101 92 85 86
3930.0 88 103 110 125 129 130 0 10 10 10
##END=
