##TITLE=Stannane, chlorotrimethyl-
##JCAMP-DX=4.24
##DATA TYPE=INFRARED SPECTRUM
##ORIGIN=Sadtler Research Labs Under US-EPA Contract
##OWNER=NIST Standard Reference Data Program
##CAS REGISTRY NO=1066-45-1
##MOLFORM=C 3 H 9 Cl Sn
##XUNITS=1/CM
##YUNITS=ABSORBANCE
##XFACTOR=1.0
##YFACTOR=0.000070898
##DELTAX=4.0
##FIRSTX=450.0
##LASTX=3966.0
##FIRSTY=0.001843
##MAXX=3966
##MINX=450
##MAXY=0.70898
##MINY=0
##NPOINTS=880
##XYDATA=(X++(Y..Y))
450.0 26 80 223 317 288 384 412 398 503 706
490.0 673 721 1090 1387 1613 2145 2478 3083 4350 6290
530.0 7193 8151 10000 8716 5287 4334 2762 754 315 300
570.0 153 96 424 238 261 266 405 100 300 271
610.0 230 290 488 287 264 397 496 523 691 738
650.0 638 813 922 1040 973 995 1055 997 1220 1268
690.0 1281 1424 1669 1741 1860 2276 2363 2514 2634 2645
730.0 2524 2590 2533 2484 2845 3666 4344 5111 6344 7480
770.0 8372 9106 9729 9259 9458 9154 8256 7325 6899 6288
810.0 5767 5520 5202 4509 4296 4115 3688 3146 2786 2356
850.0 1990 1826 1635 1254 1055 927 690 551 509 499
890.0 327 354 292 176 190 290 141 115 141 139
930.0 96 158 155 77 154 143 108 99 96 100
970.0 89 118 95 16 121 58 92 44 120 42
1010.0 50 77 51 14 127 91 70 75 97 135
1050.0 142 175 106 72 137 81 32 124 85 100
1090.0 25 94 38 21 29 46 51 113 68 14
1130.0 38 57 30 48 84 9 33 48 71 69
1170.0 78 108 156 168 355 443 521 639 993 763
1210.0 625 544 306 156 182 104 11 69 123 94
1250.0 89 114 113 122 115 126 48 95 104 129
1290.0 101 148 95 165 155 126 132 182 217 159
1330.0 155 200 190 240 276 242 250 238 230 179
1370.0 236 244 265 280 334 333 350 378 371 329
1410.0 361 356 313 293 299 249 260 300 266 279
1450.0 308 306 354 372 369 374 399 431 402 439
1490.0 429 415 410 398 398 321 301 323 242 173
1530.0 212 224 145 175 174 117 162 170 118 92
1570.0 156 128 117 71 116 66 80 99 59 46
1610.0 108 58 78 73 84 52 72 82 29 64
1650.0 92 122 16 59 63 56 57 79 55 122
1690.0 136 160 195 304 325 352 437 475 371 376
1730.0 388 350 341 378 374 334 313 237 144 99
1770.0 101 50 35 32 58 30 56 34 35 29
1810.0 57 27 27 48 51 34 46 50 38 64
1850.0 63 50 34 84 60 71 55 72 41 78
1890.0 68 51 37 65 49 53 61 60 38 72
1930.0 73 46 58 73 62 45 68 57 60 64
1970.0 86 49 76 86 90 65 94 76 70 87
2010.0 86 53 69 78 48 55 64 68 44 64
2050.0 47 41 49 72 41 46 55 54 26 55
2090.0 43 36 53 71 40 58 71 52 53 63
2130.0 60 39 65 66 55 50 77 44 58 57
2170.0 66 38 69 64 57 43 72 54 46 61
2210.0 48 44 65 68 39 61 69 62 55 70
2250.0 54 54 66 86 51 69 71 63 58 80
2290.0 54 59 74 66 43 71 93 53 71 87
2330.0 84 52 125 106 57 65 105 21 103 105
2370.0 170 193 307 309 347 422 403 309 254 203
2410.0 101 66 54 47 13 47 33 12 24 47
2450.0 12 32 33 32 2 36 29 27 23 36
2490.0 13 21 40 17 9 37 44 9 24 16
2530.0 23 9 43 9 16 34 37 2 27 21
2570.0 20 21 44 17 17 40 36 19 33 47
2610.0 26 35 34 19 8 47 24 16 30 46
2650.0 11 31 31 18 12 46 18 12 25 33
2690.0 6 24 27 13 26 31 30 0 39 44
2730.0 44 31 66 23 63 80 77 74 126 119
2770.0 140 160 205 192 214 248 233 226 234 244
2810.0 214 233 227 218 222 261 239 260 298 330
2850.0 311 366 383 416 454 514 540 623 750 853
2890.0 984 1151 1361 1567 1869 2188 2495 2795 3070 3141
2930.0 3080 2914 2677 2236 1912 1560 1198 932 837 705
2970.0 646 697 864 1129 1587 1997 2355 2601 2565 2481
3010.0 1900 1503 1158 881 723 684 646 722 808 866
3050.0 905 1036 1050 1068 1061 991 859 797 771 676
3090.0 618 585 475 362 372 338 314 328 334 242
3130.0 263 242 240 192 221 168 133 119 125 59
3170.0 63 96 72 55 70 84 62 65 77 50
3210.0 55 90 46 53 54 56 31 68 34 21
3250.0 23 68 39 32 50 37 37 45 52 11
3290.0 34 46 35 4 63 38 28 27 58 1
3330.0 51 55 27 9 64 18 28 57 48 8
3370.0 41 66 19 42 49 31 10 60 25 26
3410.0 46 82 13 39 55 70 26 61 37 23
3450.0 74 76 36 53 92 42 54 55 65 23
3490.0 59 44 29 34 89 23 41 62 72 20
3530.0 79 73 41 79 116 82 97 108 93 88
3570.0 115 106 60 95 105 89 96 126 103 106
3610.0 129 144 75 153 132 140 125 158 142 131
3650.0 174 174 130 128 159 130 146 169 145 134
3690.0 174 142 140 149 195 144 160 163 156 142
3730.0 181 163 142 160 170 120 127 144 115 115
3770.0 108 111 89 114 94 70 51 103 76 76
3810.0 86 86 56 89 72 35 37 61 38 36
3850.0 56 61 46 52 50 14 49 49 47 37
3890.0 61 27 27 45 28 1 21 35 12 1
3930.0 19 16 8 30 8 1 1 1 1 1
##END=
