##TITLE=Dibutyltin diacetate
##JCAMP-DX=4.24
##DATA TYPE=INFRARED SPECTRUM
##ORIGIN=Sadtler Research Labs Under US-EPA Contract
##OWNER=NIST Standard Reference Data Program
##CAS REGISTRY NO=1067-33-0
##MOLFORM=C 12 H 24 O 4 Sn
##XUNITS=1/CM
##YUNITS=ABSORBANCE
##XFACTOR=1.0
##YFACTOR=0.000085043
##DELTAX=4.0
##FIRSTX=450.0
##LASTX=3966.0
##FIRSTY=0.012927
##MAXX=3966
##MINX=450
##MAXY=0.85043
##MINY=0
##NPOINTS=880
##XYDATA=(X++(Y..Y))
450.0 152 141 110 81 68 102 142 210 253 339
490.0 400 479 375 360 354 373 369 340 306 294
530.0 314 295 256 120 25 4 5 180 198 204
570.0 199 178 203 315 263 329 426 414 478 533
610.0 689 1034 1516 1778 1395 832 516 438 562 506
650.0 674 894 1052 1160 1421 2144 2582 3598 4886 6472
690.0 7846 8255 7212 5279 3320 1951 1164 741 530 402
730.0 327 327 286 258 256 258 225 203 185 189
770.0 210 199 195 201 213 209 230 240 242 216
810.0 198 179 172 169 165 177 155 185 212 218
850.0 249 260 290 332 361 418 471 494 462 415
890.0 348 278 222 205 214 220 262 306 348 404
930.0 479 651 837 877 699 502 442 504 560 570
970.0 542 537 556 612 705 800 898 1044 1217 1395
1010.0 1512 1481 1319 1086 905 782 717 683 676 687
1050.0 725 760 802 804 803 817 851 871 857 781
1090.0 636 527 436 357 316 283 259 238 236 272
1130.0 298 324 372 430 528 639 767 869 935 968
1170.0 1003 1050 1077 1089 1131 1111 1049 1054 1040 1042
1210.0 1017 989 965 990 1039 1109 1220 1361 1516 1682
1250.0 1851 1997 2099 2212 2392 2605 2876 3210 3546 3886
1290.0 4180 4375 4505 4541 4611 4802 5189 5919 7030 8456
1330.0 9774 10000 8578 6208 4170 3072 2848 3294 4309 5699
1370.0 7208 8533 9348 9419 8872 8100 7444 7149 6842 6269
1410.0 5480 4725 4211 4002 4049 4245 4428 4386 4092 3743
1450.0 3488 3298 3120 2917 2707 2450 2150 1868 1668 1541
1490.0 1473 1437 1396 1362 1354 1316 1292 1269 1246 1222
1530.0 1200 1200 1199 1223 1241 1275 1301 1346 1380 1426
1570.0 1492 1572 1708 1876 2098 2384 2784 3364 4147 5200
1610.0 6491 7675 8220 7832 7023 6257 5586 4958 4355 3754
1650.0 3121 2595 2200 1982 1862 1812 1771 1725 1681 1619
1690.0 1501 1383 1269 1162 1059 986 924 873 805 760
1730.0 715 693 657 646 656 696 741 831 935 1039
1770.0 1120 1157 1122 1032 917 894 1035 1147 1088 1020
1810.0 869 664 463 306 206 136 102 81 61 64
1850.0 63 57 63 68 63 61 62 60 47 39
1890.0 39 42 40 32 32 27 26 32 33 38
1930.0 34 48 42 42 44 29 32 31 38 20
1970.0 19 27 16 16 26 29 30 35 42 44
2010.0 45 47 52 52 53 55 55 53 56 54
2050.0 58 71 64 54 40 29 17 12 5 6
2090.0 23 21 32 25 32 28 30 30 28 35
2130.0 39 33 26 32 25 40 31 32 42 34
2170.0 38 42 43 35 46 45 41 38 37 43
2210.0 42 44 47 50 44 50 44 42 42 35
2250.0 34 34 37 37 43 40 34 31 28 36
2290.0 33 26 38 36 29 31 23 6 18 21
2330.0 11 5 33 45 42 1 1 0 45 63
2370.0 117 143 143 114 86 67 43 42 37 31
2410.0 36 38 30 36 29 37 37 32 34 33
2450.0 35 23 30 29 30 26 38 34 37 38
2490.0 40 46 44 38 50 39 44 51 44 47
2530.0 58 61 60 69 68 72 76 79 71 80
2570.0 85 79 87 91 89 92 92 97 91 97
2610.0 106 112 117 107 112 100 97 95 101 104
2650.0 133 131 129 115 108 100 82 70 75 84
2690.0 73 88 95 103 95 111 116 108 120 131
2730.0 138 138 151 175 185 186 176 163 166 172
2770.0 169 181 192 198 212 237 256 277 298 317
2810.0 348 378 420 450 481 524 571 626 722 852
2850.0 1056 1388 1873 2436 2859 2994 2924 2913 3022 2982
2890.0 2739 2415 2273 2356 2547 2820 3201 3706 4287 4829
2930.0 5269 5516 5637 5634 5377 4976 4684 4875 5540 6444
2970.0 6983 6332 4803 3316 2324 1762 1395 1140 960 849
3010.0 771 716 672 632 608 566 556 519 509 473
3050.0 450 434 433 393 372 363 348 338 335 311
3090.0 297 285 280 260 246 227 204 197 195 171
3130.0 169 167 146 156 138 134 144 120 116 122
3170.0 103 99 95 91 93 82 86 91 101 80
3210.0 85 67 67 67 50 48 32 16 29 25
3250.0 28 28 19 30 24 6 6 17 21 20
3290.0 15 23 21 30 36 32 32 31 27 33
3330.0 39 38 39 39 38 43 34 30 35 45
3370.0 37 38 23 18 36 29 23 35 34 25
3410.0 14 8 20 20 42 26 38 4 10 35
3450.0 7 16 21 22 25 24 3 20 23 6
3490.0 35 37 25 39 41 31 41 35 29 34
3530.0 48 45 66 66 72 103 130 183 207 216
3570.0 204 194 201 264 198 193 202 208 214 168
3610.0 129 109 78 62 56 63 48 52 46 54
3650.0 47 49 59 65 54 50 64 63 68 65
3690.0 75 72 83 80 84 72 73 56 60 72
3730.0 80 82 92 79 80 67 89 86 89 81
3770.0 95 91 94 83 89 78 94 91 76 74
3810.0 79 75 65 74 79 65 73 74 68 82
3850.0 75 82 80 86 70 73 76 63 74 67
3890.0 74 70 69 66 70 60 54 57 48 57
3930.0 53 49 54 62 59 68 74 84 85 86
##END=
