##TITLE=Butane, 1-chloro-3-methyl-
##JCAMP-DX=4.24
##DATA TYPE=INFRARED SPECTRUM
##ORIGIN=Sadtler Research Labs Under US-EPA Contract
##OWNER=NIST Standard Reference Data Program
##CAS REGISTRY NO=107-84-6
##MOLFORM=C 5 H 11 Cl
##XUNITS=1/CM
##YUNITS=ABSORBANCE
##XFACTOR=1.0
##YFACTOR=0.000142331
##DELTAX=4.0
##FIRSTX=450.0
##LASTX=3966.0
##FIRSTY=0.029605
##MAXX=3966
##MINX=450
##MAXY=1.42331
##MINY=0
##NPOINTS=880
##XYDATA=(X++(Y..Y))
450.0 208 88 59 34 55 26 87 68 108 80
490.0 127 110 105 126 56 63 30 50 32 71
530.0 61 71 18 23 30 9 38 20 43 13
570.0 36 50 70 28 49 42 9 45 22 57
610.0 47 31 71 71 84 69 114 102 166 239
650.0 386 522 717 898 960 1006 974 795 544 350
690.0 263 217 181 187 167 185 206 248 396 618
730.0 899 1128 1251 1344 1305 976 665 594 490 361
770.0 279 245 163 135 105 72 74 64 64 69
810.0 70 79 94 100 110 124 117 126 121 114
850.0 127 158 219 313 396 431 442 430 404 349
890.0 302 268 257 235 203 176 169 182 191 211
930.0 207 194 173 154 139 135 140 141 149 159
970.0 156 148 148 148 136 139 150 168 188 223
1010.0 249 289 320 344 352 358 366 348 346 341
1050.0 346 327 303 287 260 231 189 159 123 118
1090.0 119 112 90 154 153 114 144 138 147 144
1130.0 138 123 126 132 148 176 211 275 341 406
1170.0 420 426 389 323 267 224 210 193 191 172
1210.0 156 141 137 135 149 174 210 291 384 437
1250.0 436 457 410 320 282 306 383 530 769 968
1290.0 1089 1169 1173 1156 974 823 729 647 566 509
1330.0 458 443 455 509 596 678 731 740 793 818
1370.0 820 798 875 1020 999 959 846 719 556 369
1410.0 261 226 201 235 256 318 388 497 642 772
1450.0 911 1070 1244 1297 1288 1339 1313 1141 919 746
1490.0 554 409 279 194 142 92 71 59 58 49
1530.0 37 34 43 42 19 27 24 42 43 28
1570.0 34 29 44 27 30 28 28 27 28 26
1610.0 25 29 35 25 30 21 33 27 27 25
1650.0 30 35 44 21 31 29 29 29 28 35
1690.0 21 30 32 37 23 19 21 21 23 19
1730.0 22 19 26 22 20 24 36 29 36 30
1770.0 28 22 15 11 9 9 10 5 4 14
1810.0 8 6 8 5 7 6 6 9 8 10
1850.0 8 12 13 11 11 9 14 13 16 15
1890.0 17 14 16 18 12 16 13 13 7 12
1930.0 11 14 12 9 8 9 8 5 7 9
1970.0 9 6 8 10 10 7 9 9 12 11
2010.0 11 11 11 14 11 14 16 14 17 18
2050.0 20 22 17 14 11 11 6 5 7 5
2090.0 9 10 9 8 10 12 8 10 8 8
2130.0 8 10 9 11 10 6 9 9 12 8
2170.0 10 11 10 14 13 13 15 18 16 18
2210.0 17 15 17 16 17 15 13 11 12 10
2250.0 15 14 15 17 15 14 13 15 18 16
2290.0 15 15 10 11 6 3 0 2 2 2
2330.0 8 15 18 14 25 7 0 1 16 38
2370.0 53 52 51 45 36 35 35 36 36 31
2410.0 28 29 32 28 26 25 26 30 30 27
2450.0 28 27 33 32 33 33 34 34 35 33
2490.0 35 37 35 31 32 31 35 33 35 33
2530.0 37 42 39 33 34 34 33 34 34 35
2570.0 36 41 41 43 45 50 55 57 56 57
2610.0 60 61 63 65 64 63 68 73 80 77
2650.0 77 83 79 80 70 61 59 57 52 59
2690.0 68 72 78 84 89 92 97 102 118 130
2730.0 147 159 167 170 164 157 149 140 137 139
2770.0 139 142 143 152 152 152 162 173 188 205
2810.0 222 244 273 306 347 391 452 517 586 649
2850.0 714 782 883 1059 1350 1782 2313 2779 3077 3267
2890.0 3366 3213 2997 2843 2767 2786 2846 2991 3179 3495
2930.0 3851 4208 4497 4740 4988 5353 5920 6816 8456 9948
2970.0 10000 9086 8243 6106 3994 2686 1996 1605 1338 1132
3010.0 985 810 628 472 370 291 233 196 178 165
3050.0 158 153 151 149 146 141 139 142 136 127
3090.0 115 110 112 103 102 102 101 98 102 102
3130.0 98 97 97 102 111 112 117 122 115 123
3170.0 125 121 132 129 127 126 129 115 114 105
3210.0 103 95 82 76 70 65 54 53 56 55
3250.0 51 52 38 29 42 38 25 33 28 36
3290.0 31 26 24 31 24 32 22 24 23 19
3330.0 28 33 36 43 44 34 41 30 29 41
3370.0 34 34 24 32 41 33 28 26 19 17
3410.0 19 16 20 31 19 10 19 25 31 4
3450.0 16 12 7 25 10 22 31 26 26 17
3490.0 5 14 24 20 15 21 12 21 15 27
3530.0 13 18 14 16 17 10 14 26 11 10
3570.0 15 21 18 34 21 20 5 5 23 28
3610.0 20 29 27 22 34 29 21 18 38 22
3650.0 46 81 73 89 95 105 89 100 82 54
3690.0 45 48 38 42 21 25 34 33 38 7
3730.0 19 24 23 31 48 38 30 31 32 25
3770.0 26 17 32 20 28 44 34 39 35 56
3810.0 20 23 42 50 31 36 52 39 23 31
3850.0 27 45 59 48 24 47 62 30 29 27
3890.0 42 28 22 19 0 49 62 47 30 38
3930.0 33 15 54 24 23 20 27 42 38 8
##END=
