##TITLE=Ethane, 1,2-dichloro-
##JCAMP-DX=4.24
##DATA TYPE=INFRARED SPECTRUM
##ORIGIN=Sadtler Research Labs Under US-EPA Contract
##OWNER=NIST Standard Reference Data Program
##CAS REGISTRY NO=107-06-2
##MOLFORM=C 2 H 4 Cl 2
##XUNITS=1/CM
##YUNITS=ABSORBANCE
##XFACTOR=1.0
##YFACTOR=0.000116507
##DELTAX=4.0
##FIRSTX=450.0
##LASTX=3966.0
##FIRSTY=0.000000
##MAXX=3966
##MINX=450
##MAXY=1.16507
##MINY=0
##NPOINTS=880
##XYDATA=(X++(Y..Y))
450.0 0 62 212 116 225 195 166 198 189 225
490.0 143 253 134 213 187 196 137 195 185 116
530.0 161 137 188 127 168 128 160 127 155 166
570.0 125 166 178 200 139 187 149 167 139 172
610.0 163 149 183 177 193 188 255 272 350 388
650.0 506 596 688 710 678 898 1131 1486 1655 1797
690.0 1814 2032 2318 3076 4112 5434 7628 9025 10000 9271
730.0 9038 7197 3334 756 250 290 272 311 299 318
770.0 286 334 286 291 272 344 295 269 240 230
810.0 242 218 231 201 210 207 214 185 189 180
850.0 150 173 167 185 205 320 469 696 843 913
890.0 855 797 829 699 492 350 307 285 306 338
930.0 396 436 456 456 419 444 460 425 346 296
970.0 252 237 225 218 216 213 226 218 231 221
1010.0 232 242 257 263 263 250 208 206 175 192
1050.0 174 199 155 148 129 129 124 120 132 127
1090.0 138 135 150 143 156 161 165 166 182 192
1130.0 170 182 176 190 181 187 177 171 163 156
1170.0 160 152 163 162 179 184 215 220 249 279
1210.0 353 538 999 1867 2769 2826 2576 3034 2899 1759
1250.0 846 496 394 380 426 507 787 1173 1630 1567
1290.0 1665 1444 1696 1629 1091 715 578 573 563 503
1330.0 473 411 399 349 320 286 278 253 245 217
1370.0 197 178 172 173 178 190 194 211 216 239
1410.0 273 309 385 490 615 704 803 909 910 967
1450.0 999 966 793 705 802 660 528 451 375 348
1490.0 314 286 243 229 220 218 183 203 202 200
1530.0 193 199 190 191 170 159 157 164 175 143
1570.0 154 159 171 160 169 192 196 225 210 213
1610.0 191 194 184 149 130 121 131 143 128 137
1650.0 120 153 130 110 118 128 118 123 114 140
1690.0 112 116 130 136 117 107 117 128 113 103
1730.0 117 119 115 103 108 106 121 105 118 108
1770.0 121 117 109 112 116 110 117 108 114 108
1810.0 106 107 108 110 113 118 108 111 109 121
1850.0 108 109 108 112 112 120 118 115 121 120
1890.0 124 116 118 114 115 113 113 118 122 115
1930.0 110 105 100 95 96 98 103 107 106 106
1970.0 104 104 108 102 106 105 108 107 106 110
2010.0 114 116 124 133 131 135 132 128 122 118
2050.0 113 108 104 107 108 103 104 104 105 103
2090.0 105 109 111 114 116 117 117 118 113 112
2130.0 110 110 105 107 105 105 105 104 108 107
2170.0 111 108 114 112 116 121 124 122 122 130
2210.0 127 131 132 133 128 128 128 125 120 117
2250.0 117 112 110 108 105 103 105 104 102 101
2290.0 105 105 104 106 104 104 102 100 102 104
2330.0 102 104 108 105 111 93 87 96 93 103
2370.0 123 137 129 125 118 119 110 105 100 97
2410.0 95 96 94 95 96 94 97 98 101 102
2450.0 101 103 104 107 100 103 100 96 93 93
2490.0 87 87 91 90 85 83 87 86 80 76
2530.0 75 73 77 74 69 69 66 69 69 66
2570.0 62 66 64 65 66 66 66 65 68 67
2610.0 67 63 71 69 69 67 68 73 75 72
2650.0 74 77 76 77 80 88 90 103 107 112
2690.0 106 114 109 100 89 85 92 100 102 105
2730.0 105 104 110 124 126 137 143 147 137 134
2770.0 124 118 99 102 112 113 108 88 82 73
2810.0 69 71 83 92 95 118 138 160 166 201
2850.0 221 214 208 241 251 239 236 267 319 375
2890.0 380 288 342 341 274 233 218 228 235 240
2930.0 299 360 451 545 682 858 1041 1155 1052 1081
2970.0 1427 1566 1556 1395 1392 1364 1240 1075 970 923
3010.0 844 862 713 676 575 508 516 440 390 349
3050.0 362 305 294 288 274 234 228 212 183 195
3090.0 149 130 150 152 113 131 127 136 133 115
3130.0 115 102 107 100 116 99 123 96 108 96
3170.0 101 104 101 99 101 85 89 97 82 99
3210.0 107 113 94 77 99 70 87 85 101 99
3250.0 94 77 90 88 81 83 87 103 82 102
3290.0 114 95 110 94 106 108 103 72 92 95
3330.0 123 81 87 84 97 103 116 114 101 118
3370.0 119 119 93 110 109 101 117 129 108 100
3410.0 128 118 116 124 119 93 119 109 101 126
3450.0 87 110 103 89 98 96 92 132 83 84
3490.0 119 108 122 92 104 98 96 95 99 103
3530.0 97 96 102 87 77 107 92 85 99 98
3570.0 76 96 93 92 92 114 99 94 88 114
3610.0 103 99 88 100 101 120 122 87 102 98
3650.0 98 93 92 95 86 110 113 102 95 97
3690.0 121 96 103 110 110 93 115 106 91 105
3730.0 81 99 112 126 152 124 136 98 120 125
3770.0 106 99 113 123 85 104 113 107 107 83
3810.0 87 107 93 116 95 124 95 110 75 96
3850.0 94 105 79 90 120 94 106 112 142 97
3890.0 88 138 87 101 148 68 76 114 113 64
3930.0 62 85 148 127 112 113 131 96 79 85
##END=
