##TITLE=2-Propen-1-amine
##JCAMP-DX=4.24
##DATA TYPE=INFRARED SPECTRUM
##ORIGIN=Sadtler Research Labs Under US-EPA Contract
##OWNER=NIST Standard Reference Data Program
##CAS REGISTRY NO=107-11-9
##MOLFORM=C 3 H 7 N
##XUNITS=1/CM
##YUNITS=ABSORBANCE
##XFACTOR=1.0
##YFACTOR=0.000083856
##DELTAX=4.0
##FIRSTX=450.0
##LASTX=3966.0
##FIRSTY=0.000000
##MAXX=3966
##MINX=450
##MAXY=0.83856
##MINY=0
##NPOINTS=880
##XYDATA=(X++(Y..Y))
450.0 0 56 46 126 97 64 52 37 18 31
490.0 16 52 55 52 92 138 159 183 253 287
530.0 350 374 447 509 591 742 896 868 840 875
570.0 821 811 861 855 758 767 722 699 705 718
610.0 763 816 883 941 1006 1051 1092 1076 1097 1085
650.0 1099 1079 1044 1043 990 1011 1078 1019 1069 1112
690.0 1163 1211 1285 1348 1424 1535 1666 1816 2001 2243
730.0 2523 2904 3295 3842 4374 5094 5850 6845 7759 8707
770.0 9476 9693 10000 9899 9490 9423 9172 8164 6966 5313
810.0 3942 2923 2272 1842 1579 1332 1160 1049 958 911
850.0 884 911 948 1044 1169 1344 1566 1801 2107 2418
890.0 2782 3205 3593 3982 4522 4831 5347 6195 5552 4816
930.0 4941 4544 4110 3593 3155 2755 2444 2221 2064 2001
970.0 1972 2015 2103 2184 2286 2490 2762 2794 2578 2505
1010.0 2453 2339 2190 2158 2107 2011 2007 2032 1973 1913
1050.0 1811 1652 1663 1687 1565 1342 1079 900 784 707
1090.0 642 595 558 523 516 518 544 540 518 474
1130.0 447 459 478 473 440 403 369 332 295 252
1170.0 228 196 168 131 103 70 59 40 31 25
1210.0 23 25 19 25 29 41 58 85 112 146
1250.0 185 227 273 325 361 385 411 419 443 444
1290.0 442 439 441 431 432 450 467 485 505 549
1330.0 613 676 764 808 830 836 851 868 882 890
1370.0 879 834 784 759 746 757 825 938 1076 1219
1410.0 1390 1498 1448 1416 1410 1376 1412 1410 1265 1060
1450.0 878 746 723 706 639 636 598 546 485 424
1490.0 366 324 292 258 250 215 218 200 212 207
1530.0 218 224 245 265 259 300 305 358 384 420
1570.0 462 520 591 670 768 891 1044 1218 1405 1592
1610.0 1768 1920 2085 2214 2373 2479 2538 2467 2342 2177
1650.0 2016 1847 1688 1460 1122 811 563 405 308 254
1690.0 195 165 154 117 110 96 98 84 93 78
1730.0 78 92 83 78 69 72 73 78 76 85
1770.0 81 92 92 97 106 114 125 134 151 172
1810.0 203 239 297 356 418 462 488 479 470 485
1850.0 492 483 434 352 269 197 157 121 97 82
1890.0 71 64 60 54 50 43 42 38 37 38
1930.0 39 38 38 39 40 53 60 69 82 86
1970.0 92 95 95 94 93 84 77 68 60 51
2010.0 45 37 33 32 29 27 26 25 23 25
2050.0 25 24 27 27 25 25 31 29 28 29
2090.0 29 27 25 28 24 23 22 20 18 18
2130.0 18 17 13 13 15 16 14 13 16 18
2170.0 20 17 18 21 21 25 24 26 31 29
2210.0 29 32 33 34 36 38 38 39 43 45
2250.0 44 49 46 48 50 48 52 48 47 45
2290.0 39 32 24 24 21 14 24 13 13 13
2330.0 13 13 13 13 14 54 13 13 13 13
2370.0 13 13 16 31 42 49 50 50 52 47
2410.0 48 46 47 42 44 46 44 42 43 46
2450.0 42 45 41 45 48 50 51 53 55 53
2490.0 56 58 61 62 62 64 67 67 67 72
2530.0 68 71 72 75 72 73 71 71 74 72
2570.0 76 72 74 71 76 73 73 78 81 84
2610.0 88 93 96 104 108 115 121 132 139 144
2650.0 153 159 169 173 180 182 189 192 200 204
2690.0 211 215 222 232 241 253 264 278 294 307
2730.0 321 340 352 363 374 380 393 412 430 440
2770.0 445 459 471 497 533 594 656 740 848 975
2810.0 1115 1278 1456 1652 1872 2100 2325 2534 2746 2991
2850.0 3181 3247 3286 3296 3316 3320 3307 3294 3263 3267
2890.0 3308 3381 3367 3375 3475 3578 3628 3687 3530 3421
2930.0 3337 3233 3109 2930 2754 2584 2424 2290 2202 2171
2970.0 2200 2257 2302 2300 2266 2242 2266 2399 2482 2397
3010.0 2213 2010 1855 1706 1591 1504 1411 1311 1207 1142
3050.0 1116 1151 1211 1331 1480 1718 1987 2270 2362 2311
3090.0 2296 2238 2145 2213 1929 1613 1295 988 739 549
3130.0 418 323 263 206 175 150 127 117 110 106
3170.0 101 94 93 90 85 83 80 79 71 72
3210.0 67 65 66 66 62 69 65 61 59 63
3250.0 63 59 61 57 58 61 56 56 54 57
3290.0 61 55 56 62 60 68 74 87 101 122
3330.0 144 171 185 189 197 209 207 205 205 191
3370.0 172 148 146 137 129 133 129 135 135 146
3410.0 141 156 150 151 135 128 128 117 110 103
3450.0 96 88 85 78 64 65 56 54 58 52
3490.0 52 49 49 37 41 39 43 49 39 34
3530.0 49 44 44 49 39 40 42 42 46 35
3570.0 39 47 54 41 42 47 26 42 38 42
3610.0 40 34 40 33 39 37 37 47 31 44
3650.0 27 35 40 24 46 17 43 20 43 25
3690.0 29 28 37 23 25 18 20 24 23 25
3730.0 31 26 15 34 13 40 20 25 20 29
3770.0 25 33 27 29 31 25 34 15 32 15
3810.0 36 25 23 18 18 26 23 20 14 27
3850.0 21 29 23 13 34 23 17 28 35 14
3890.0 44 31 34 20 29 41 31 34 18 42
3930.0 42 18 16 23 34 26 33 41 21 31
##END=
