##TITLE=Methyl formate
##JCAMP-DX=4.24
##DATA TYPE=INFRARED SPECTRUM
##ORIGIN=Sadtler Research Labs Under US-EPA Contract
##OWNER=NIST Standard Reference Data Program
##CAS REGISTRY NO=107-31-3
##MOLFORM=C 2 H 4 O 2
##XUNITS=1/CM
##YUNITS=ABSORBANCE
##XFACTOR=1.0
##YFACTOR=0.000070334
##DELTAX=4.0
##FIRSTX=450.0
##LASTX=3966.0
##FIRSTY=0.000914
##MAXX=3966
##MINX=450
##MAXY=0.70334
##MINY=0
##NPOINTS=880
##XYDATA=(X++(Y..Y))
450.0 13 26 42 52 46 42 46 55 57 40
490.0 41 49 36 16 46 39 53 15 48 68
530.0 77 7 31 33 21 21 43 92 64 106
570.0 90 58 72 59 73 108 62 58 72 63
610.0 66 65 70 59 53 63 70 64 50 43
650.0 48 39 29 21 24 57 32 33 50 37
690.0 30 43 43 40 44 42 50 65 65 65
730.0 100 108 140 185 227 259 266 257 220 186
770.0 183 253 298 296 259 269 173 116 90 86
810.0 63 47 43 41 41 41 36 42 40 37
850.0 44 51 65 83 70 115 136 182 232 298
890.0 371 452 536 618 661 667 636 603 552 574
930.0 718 808 722 575 443 335 249 196 157 129
970.0 99 81 63 56 60 54 53 53 60 53
1010.0 63 67 67 77 72 81 94 89 102 117
1050.0 110 117 125 147 147 162 186 198 212 235
1090.0 271 292 321 365 426 513 634 780 993 1289
1130.0 1714 2304 3041 3855 4619 5269 5715 5685 5267 5916
1170.0 7296 7007 6995 7084 7060 6827 6430 5712 5131 4938
1210.0 5263 3825 4516 4685 4164 3315 2533 2026 1644 1400
1250.0 1235 996 765 587 441 336 244 195 161 132
1290.0 108 97 87 88 92 97 102 115 106 118
1330.0 122 131 155 153 146 153 156 159 162 141
1370.0 129 148 141 139 157 145 160 168 154 169
1410.0 195 214 311 327 374 390 433 474 583 666
1450.0 657 653 575 487 434 350 356 329 270 253
1490.0 231 184 177 172 177 192 156 162 171 146
1530.0 142 132 146 179 155 126 131 143 137 110
1570.0 107 97 94 89 59 67 62 61 47 48
1610.0 39 32 48 28 44 26 35 51 30 30
1650.0 63 61 55 52 60 77 113 100 153 205
1690.0 228 284 409 523 628 790 1107 1610 2360 3545
1730.0 5106 6833 8332 8667 8030 7561 9193 5424 7266 9843
1770.0 10000 7958 5431 3337 1972 1233 868 652 541 428
1810.0 328 228 149 116 107 103 87 71 81 90
1850.0 67 53 48 41 34 37 14 15 11 13
1890.0 17 19 13 17 24 34 37 37 50 40
1930.0 38 38 45 52 45 45 50 45 37 41
1970.0 40 45 36 38 43 48 40 22 22 22
2010.0 20 32 33 31 36 37 36 46 54 59
2050.0 79 88 103 118 131 135 134 135 135 149
2090.0 149 144 146 139 123 108 101 92 93 91
2130.0 85 78 78 77 62 46 31 33 23 20
2170.0 12 8 7 7 6 5 6 0 6 6
2210.0 6 7 7 5 5 5 5 6 5 5
2250.0 5 13 6 14 14 17 21 21 32 31
2290.0 24 26 36 37 39 42 40 41 40 35
2330.0 58 56 59 67 81 79 61 60 92 97
2370.0 99 108 100 90 71 59 50 44 44 45
2410.0 44 43 38 37 46 38 30 26 24 21
2450.0 16 23 24 24 17 23 24 18 23 28
2490.0 31 32 32 37 39 32 39 46 40 40
2530.0 42 39 40 33 29 27 34 24 27 33
2570.0 33 27 33 33 33 33 41 41 41 41
2610.0 41 40 41 35 34 34 34 34 34 42
2650.0 38 35 35 35 35 27 34 34 43 42
2690.0 47 49 49 49 61 63 63 63 63 64
2730.0 63 57 63 63 61 62 58 51 48 42
2770.0 51 44 37 43 44 50 45 45 47 51
2810.0 51 63 83 92 112 135 164 166 166 180
2850.0 191 190 230 258 254 251 259 295 351 415
2890.0 491 593 689 792 903 1038 1195 1384 1531 1576
2930.0 1524 1414 1469 1577 1839 1947 1883 1674 1450 1336
2970.0 1129 1081 1084 1009 883 743 614 518 488 599
3010.0 671 526 496 497 488 458 432 441 460 368
3050.0 375 367 322 264 215 187 156 145 142 142
3090.0 134 135 139 143 135 127 134 128 111 111
3130.0 101 115 95 80 72 61 58 44 51 50
3170.0 36 37 41 43 20 27 30 37 30 21
3210.0 29 30 22 23 23 23 16 31 42 34
3250.0 22 23 30 22 23 23 23 23 23 24
3290.0 23 21 26 20 23 23 19 23 17 12
3330.0 18 17 24 13 10 22 27 10 11 24
3370.0 18 26 6 26 24 6 20 18 16 22
3410.0 17 23 24 27 19 33 26 19 27 29
3450.0 40 41 46 73 92 90 109 118 111 118
3490.0 134 118 134 142 153 125 91 64 57 54
3530.0 50 30 35 42 37 30 28 51 39 29
3570.0 37 45 31 43 49 58 36 45 50 50
3610.0 42 33 37 53 44 53 60 67 68 65
3650.0 60 66 66 63 71 57 68 64 80 71
3690.0 64 79 79 73 72 66 90 86 82 82
3730.0 87 76 67 76 81 77 103 102 102 93
3770.0 82 86 95 78 79 78 78 82 71 76
3810.0 85 77 78 92 96 86 82 81 86 83
3850.0 81 84 99 98 98 104 104 92 89 85
3890.0 82 83 90 102 104 93 92 92 83 83
3930.0 89 94 92 89 84 83 88 90 92 90
##END=
