##TITLE=Pentane, 2-bromo-
##JCAMP-DX=4.24
##DATA TYPE=INFRARED SPECTRUM
##ORIGIN=Sadtler Research Labs Under US-EPA Contract
##OWNER=NIST Standard Reference Data Program
##CAS REGISTRY NO=107-81-3
##MOLFORM=C 5 H 11 Br
##XUNITS=1/CM
##YUNITS=ABSORBANCE
##XFACTOR=1.0
##YFACTOR=0.000083215
##DELTAX=4.0
##FIRSTX=450.0
##LASTX=3966.0
##FIRSTY=0.059333
##MAXX=3966
##MINX=450
##MAXY=0.83215
##MINY=0
##NPOINTS=880
##XYDATA=(X++(Y..Y))
450.0 713 250 167 190 43 135 89 190 174 161
490.0 261 339 151 313 173 308 376 398 411 497
530.0 563 681 606 804 740 655 735 575 398 313
570.0 238 221 219 279 219 270 224 220 249 262
610.0 396 549 641 730 683 673 464 239 94 76
650.0 75 107 24 46 55 22 56 54 28 40
690.0 52 7 46 49 38 82 114 26 35 96
730.0 103 214 192 397 642 536 617 582 508 346
770.0 188 147 149 185 122 79 115 165 247 199
810.0 225 168 175 199 193 194 205 223 273 317
850.0 344 400 373 408 408 368 329 267 206 183
890.0 156 134 140 208 252 288 342 381 404 347
930.0 316 277 189 129 85 69 76 73 84 123
970.0 187 288 369 448 487 506 481 429 371 303
1010.0 258 253 270 317 319 319 325 304 267 265
1050.0 245 245 246 245 232 242 239 245 218 194
1090.0 151 156 151 161 197 244 320 388 465 593
1130.0 762 943 1172 1345 1470 1455 1334 1074 791 515
1170.0 396 385 481 660 1003 1416 1882 2223 2365 2248
1210.0 1879 1403 981 688 543 495 525 649 850 1102
1250.0 1305 1378 1397 1408 1245 999 841 738 661 608
1290.0 579 605 619 613 568 525 467 372 294 254
1330.0 234 246 256 272 284 295 323 343 395 480
1370.0 615 832 1061 1226 1334 1360 1136 826 566 382
1410.0 293 256 268 320 404 524 674 873 1088 1350
1450.0 1603 1781 1862 1910 1826 1625 1370 1076 810 575
1490.0 371 276 202 143 142 112 100 91 92 80
1530.0 70 77 78 72 75 58 67 68 57 59
1570.0 52 51 52 42 41 38 40 37 32 38
1610.0 34 37 36 40 36 33 37 37 36 42
1650.0 33 49 37 38 42 34 39 42 45 53
1690.0 47 48 52 51 47 37 39 36 36 41
1730.0 42 46 52 44 50 45 48 41 32 27
1770.0 26 21 19 17 17 15 19 15 17 15
1810.0 16 16 13 9 14 10 11 7 7 2
1850.0 6 6 5 8 8 9 10 9 8 9
1890.0 6 10 15 7 12 7 7 10 8 10
1930.0 8 8 6 6 8 9 9 6 7 6
1970.0 9 9 11 5 7 7 7 7 4 7
2010.0 5 7 8 4 6 6 5 7 7 12
2050.0 14 13 11 10 8 13 8 8 5 6
2090.0 6 2 2 0 2 5 1 3 10 9
2130.0 5 4 7 5 6 5 3 3 5 11
2170.0 9 11 14 10 13 13 14 16 14 15
2210.0 16 16 15 13 15 23 18 13 13 17
2250.0 13 13 16 17 17 18 16 17 19 20
2290.0 22 18 24 28 23 19 22 16 14 11
2330.0 19 11 2 19 7 24 8 20 4 9
2370.0 28 20 21 26 29 29 25 27 32 37
2410.0 41 37 34 37 35 36 36 34 38 36
2450.0 39 36 32 29 25 22 27 28 30 24
2490.0 30 28 32 29 37 31 30 28 34 29
2530.0 27 33 33 31 31 33 34 38 37 35
2570.0 38 40 43 52 51 51 48 51 49 47
2610.0 56 45 51 52 53 47 45 51 52 52
2650.0 53 49 51 50 56 62 63 69 65 70
2690.0 74 76 79 86 96 101 107 113 117 125
2730.0 141 161 186 191 197 201 192 171 153 137
2770.0 131 132 133 140 148 164 180 194 214 234
2810.0 252 275 305 349 420 527 656 805 926 1035
2850.0 1108 1167 1232 1352 1586 1943 2479 3172 3778 4063
2890.0 4160 3956 3565 3131 2838 2755 2850 3148 3638 4109
2930.0 4511 5009 5548 5678 5486 5442 5610 5922 6790 8029
2970.0 9490 10000 9700 8334 6772 5124 4245 3249 2342 1700
3010.0 1181 810 595 463 393 371 345 323 304 280
3050.0 266 251 240 224 219 216 205 201 191 181
3090.0 166 153 150 140 142 128 120 123 116 117
3130.0 115 120 113 117 121 122 119 119 119 122
3170.0 119 113 106 114 110 112 112 120 111 109
3210.0 113 106 99 86 87 78 74 71 66 60
3250.0 64 53 50 51 50 49 47 49 50 43
3290.0 39 39 37 34 39 35 37 39 31 36
3330.0 27 37 40 27 29 26 40 34 23 27
3370.0 38 28 31 30 32 29 39 36 31 26
3410.0 25 35 37 26 32 31 26 31 32 33
3450.0 20 31 21 30 31 31 31 17 30 26
3490.0 30 29 29 35 28 22 31 37 32 24
3530.0 27 32 26 21 18 15 27 33 35 26
3570.0 24 21 19 22 29 26 26 14 33 25
3610.0 18 10 20 21 19 30 30 26 13 33
3650.0 16 27 21 27 30 30 38 28 29 22
3690.0 40 42 24 31 26 24 11 9 32 25
3730.0 32 36 38 33 15 27 12 25 13 31
3770.0 41 21 29 27 22 28 39 35 30 50
3810.0 20 29 31 16 28 30 19 34 34 36
3850.0 33 75 36 39 21 43 38 22 27 33
3890.0 9 37 64 17 15 23 11 39 36 14
3930.0 26 28 29 41 35 48 37 47 21 43
##END=
