##TITLE=Hexylene Glycol
##JCAMP-DX=4.24
##DATA TYPE=INFRARED SPECTRUM
##ORIGIN=Sadtler Research Labs Under US-EPA Contract
##OWNER=NIST Standard Reference Data Program
##CAS REGISTRY NO=107-41-5
##MOLFORM=C 6 H 14 O 2
##XUNITS=1/CM
##YUNITS=ABSORBANCE
##XFACTOR=1.0
##YFACTOR=0.000112463
##DELTAX=4.0
##FIRSTX=450.0
##LASTX=3966.0
##FIRSTY=0.006973
##MAXX=3966
##MINX=450
##MAXY=1.12463
##MINY=0
##NPOINTS=880
##XYDATA=(X++(Y..Y))
450.0 62 193 199 170 186 69 337 213 257 307
490.0 218 247 212 265 146 259 224 106 199 244
530.0 50 126 185 173 44 257 273 301 266 267
570.0 241 229 175 172 179 159 165 154 157 155
610.0 170 155 157 129 217 175 161 167 156 138
650.0 135 139 128 133 135 164 121 135 117 114
690.0 137 127 123 96 105 119 122 97 104 95
730.0 89 143 129 185 214 324 337 421 453 535
770.0 496 340 203 247 198 176 135 141 134 160
810.0 187 253 334 457 623 763 873 894 891 809
850.0 690 575 499 469 507 589 692 795 902 1052
890.0 1249 1473 1738 1959 2059 2007 1829 1518 1212 992
930.0 878 866 892 932 951 954 912 877 841 816
970.0 795 767 714 644 579 534 513 497 483 489
1010.0 501 530 598 699 829 994 1157 1286 1367 1398
1050.0 1391 1359 1333 1311 1304 1304 1306 1304 1322 1367
1090.0 1435 1523 1623 1710 1783 1893 2007 2159 2341 2551
1130.0 2782 3030 3284 3537 3787 4041 4300 4459 4499 4393
1170.0 4167 3797 3386 2958 2589 2304 2107 1986 1917 1903
1210.0 1933 2012 2089 2193 2248 2267 2220 2124 1987 1817
1250.0 1678 1549 1464 1402 1385 1395 1457 1546 1653 1754
1290.0 1834 1901 1913 1903 1843 1779 1692 1599 1502 1410
1330.0 1333 1276 1254 1270 1345 1471 1704 2038 2506 3070
1370.0 3707 4330 4717 4915 4767 4288 3663 3079 2559 2218
1410.0 2007 1832 1667 1505 1305 1140 1027 999 968 1022
1450.0 1085 1195 1302 1286 1282 1224 1082 933 753 578
1490.0 427 332 258 195 208 145 109 133 121 109
1530.0 64 96 75 112 48 55 41 84 87 29
1570.0 41 43 52 22 30 24 16 34 20 32
1610.0 13 52 30 52 20 47 29 68 20 70
1650.0 29 125 47 24 55 52 41 57 26 85
1690.0 28 39 55 89 36 30 30 56 35 26
1730.0 39 41 55 25 26 22 39 6 34 20
1770.0 34 40 25 26 22 28 38 18 23 31
1810.0 23 21 18 21 23 25 18 17 11 30
1850.0 18 17 18 15 17 22 24 17 25 21
1890.0 26 20 15 19 17 15 14 18 16 13
1930.0 17 10 14 9 20 14 17 14 14 10
1970.0 11 12 9 17 15 12 8 13 5 10
2010.0 13 8 9 7 11 12 15 10 17 17
2050.0 20 14 16 15 15 21 15 18 16 19
2090.0 16 16 18 17 16 17 22 21 22 23
2130.0 30 31 32 26 25 26 23 22 17 17
2170.0 15 20 16 15 13 17 15 14 15 16
2210.0 22 21 19 20 20 19 21 24 21 22
2250.0 26 29 27 27 25 32 28 28 28 26
2290.0 29 25 25 20 18 12 16 14 17 22
2330.0 23 18 24 29 19 19 7 12 15 10
2370.0 18 20 26 18 16 21 25 27 26 26
2410.0 31 27 28 28 24 28 28 29 29 27
2450.0 22 25 22 19 17 19 15 11 11 12
2490.0 9 7 9 9 13 10 9 12 8 10
2530.0 9 12 9 8 8 15 14 14 18 14
2570.0 23 24 27 28 24 24 26 28 26 30
2610.0 31 38 36 35 38 42 51 48 58 58
2650.0 70 67 72 73 69 74 73 64 60 59
2690.0 53 53 52 58 50 55 57 68 75 88
2730.0 99 106 114 111 115 109 116 108 110 113
2770.0 118 113 121 125 128 143 155 182 205 231
2810.0 256 292 326 355 391 429 472 498 532 554
2850.0 594 648 739 873 1063 1322 1619 1918 2181 2387
2890.0 2537 2679 2810 2972 3154 3311 3469 3609 3809 4060
2930.0 4352 4553 4597 4394 4049 3698 3553 3834 4652 5928
2970.0 7536 9163 10000 9547 8287 6511 4507 2735 1570 911
3010.0 563 380 278 208 163 121 98 77 64 53
3050.0 35 36 31 31 31 22 20 21 34 34
3090.0 34 28 35 35 35 34 34 28 24 21
3130.0 17 20 12 20 21 22 13 12 21 29
3170.0 24 29 31 33 46 43 54 64 64 62
3210.0 49 50 45 48 42 39 34 38 26 22
3250.0 23 22 8 15 25 22 27 16 26 32
3290.0 21 29 27 21 24 16 19 17 20 20
3330.0 30 30 22 30 33 23 27 16 16 20
3370.0 26 27 31 39 39 51 54 54 61 75
3410.0 66 65 57 60 71 71 59 67 82 85
3450.0 101 78 80 68 74 65 64 58 47 60
3490.0 60 46 52 63 65 92 112 117 142 150
3530.0 203 233 260 297 354 414 544 744 1055 1521
3570.0 2190 2950 3626 4010 4075 3849 3291 2597 1964 1512
3610.0 1181 955 827 735 720 758 830 856 893 929
3650.0 894 788 653 538 411 257 191 133 89 50
3690.0 53 54 1 11 10 49 18 19 14 26
3730.0 11 3 1 26 47 56 26 3 1 23
3770.0 34 18 1 1 1 1 1 0 23 6
3810.0 1 1 1 14 1 4 1 14 3 11
3850.0 20 41 19 4 11 18 9 26 29 22
3890.0 37 22 38 22 2 26 0 18 1 1
3930.0 22 1 1 2 0 4 38 20 3 11
##END=
