##TITLE=2-Propanol, 1-methoxy-
##JCAMP-DX=4.24
##DATA TYPE=INFRARED SPECTRUM
##ORIGIN=Sadtler Research Labs Under US-EPA Contract
##OWNER=NIST Standard Reference Data Program
##CAS REGISTRY NO=107-98-2
##MOLFORM=C 4 H 10 O 2
##XUNITS=1/CM
##YUNITS=ABSORBANCE
##XFACTOR=1.0
##YFACTOR=0.000119913
##DELTAX=4.0
##FIRSTX=450.0
##LASTX=3966.0
##FIRSTY=0.000000
##MAXX=3966
##MINX=450
##MAXY=1.19913
##MINY=0
##NPOINTS=880
##XYDATA=(X++(Y..Y))
450.0 0 393 822 620 463 645 794 834 831 824
490.0 952 1051 981 890 856 999 947 930 908 860
530.0 706 662 629 584 566 554 539 540 552 488
570.0 472 475 524 541 526 536 501 564 496 481
610.0 482 468 515 547 548 531 575 577 578 530
650.0 549 556 493 473 426 558 471 408 514 471
690.0 470 476 460 480 409 458 482 457 452 429
730.0 467 388 390 332 605 441 461 475 451 479
770.0 448 429 489 492 498 514 531 562 594 602
810.0 636 664 695 737 774 813 897 977 1024 1078
850.0 1100 1068 1048 1028 956 860 797 748 717 742
890.0 745 782 847 903 969 1052 1149 1275 1360 1392
930.0 1457 1550 1669 1817 2010 2232 2510 2799 3042 3213
970.0 3213 3104 2941 2752 2462 2066 1702 1420 1219 1081
1010.0 1012 989 1035 1116 1232 1388 1586 1825 2081 2363
1050.0 2642 2925 3123 3244 3393 3546 3698 3845 4092 4510
1090.0 4923 5409 5997 6817 7921 8881 9291 9521 9734 10000
1130.0 9249 8150 7273 6584 6033 5642 5337 4980 4671 4393
1170.0 4052 3604 3175 2896 2934 3129 3350 3497 3438 3282
1210.0 3104 2774 2363 1992 1828 1847 1961 2151 2370 2645
1250.0 2929 3147 3183 3082 2989 2879 2578 2163 1793 1517
1290.0 1329 1204 1146 1151 1230 1372 1583 1835 2036 2124
1330.0 2143 2149 2097 1922 1719 1570 1491 1481 1532 1665
1370.0 1867 2140 2454 2626 2748 2727 2757 2566 2159 1830
1410.0 1584 1408 1252 1128 1051 1071 1130 1232 1339 1504
1450.0 1760 2005 2132 2161 2067 1960 1759 1527 1268 1038
1490.0 869 760 663 605 549 514 483 475 452 459
1530.0 446 444 445 425 435 425 427 420 427 421
1570.0 413 413 419 413 412 403 416 401 409 402
1610.0 392 406 389 398 380 388 372 376 372 364
1650.0 367 363 373 349 361 347 344 348 343 341
1690.0 340 336 328 340 324 329 320 318 327 320
1730.0 326 310 328 318 317 320 317 318 317 323
1770.0 320 320 319 317 321 319 315 313 308 315
1810.0 311 313 315 312 310 311 305 309 303 303
1850.0 297 296 304 296 298 293 301 300 298 302
1890.0 301 300 305 303 302 305 301 305 301 307
1930.0 307 304 306 303 308 307 309 307 306 306
1970.0 308 312 310 311 311 313 317 321 326 325
2010.0 335 337 344 352 360 366 368 373 376 378
2050.0 378 377 383 384 389 399 403 411 415 415
2090.0 411 402 396 386 374 366 361 353 350 345
2130.0 341 331 331 325 316 313 310 309 304 310
2170.0 310 307 310 308 308 304 302 299 302 301
2210.0 301 302 301 303 305 307 301 299 297 291
2250.0 287 283 281 281 280 279 277 276 275 274
2290.0 273 269 271 269 267 268 264 265 264 264
2330.0 264 268 269 271 285 264 264 264 296 306
2370.0 307 304 298 290 286 287 288 288 287 291
2410.0 289 287 286 287 283 279 277 274 271 274
2450.0 273 273 271 271 274 272 274 273 275 276
2490.0 276 278 279 281 284 285 287 289 287 288
2530.0 290 288 290 291 289 292 296 297 305 309
2570.0 313 313 323 328 331 334 342 354 360 366
2610.0 370 369 368 371 374 381 382 385 393 400
2650.0 407 408 411 409 413 415 416 425 426 429
2690.0 438 450 459 471 487 501 515 526 541 554
2730.0 567 578 588 600 610 633 650 672 699 719
2770.0 746 766 789 820 857 915 996 1109 1275 1519
2810.0 1892 2364 2830 3235 3544 3834 3962 3921 3860 3746
2850.0 3604 3583 3683 3879 4157 4495 4953 5456 5967 6486
2890.0 6866 7249 7472 7345 7026 6625 6230 5956 5849 5894
2930.0 5947 5976 5813 5505 5120 4693 4297 3995 3803 3836
2970.0 4027 4387 5106 5697 5752 5633 5375 4793 4200 3292
3010.0 2349 1653 1216 974 815 715 657 605 575 554
3050.0 533 517 502 498 490 481 477 464 465 456
3090.0 448 444 441 435 424 414 402 392 384 375
3130.0 363 353 351 346 340 337 337 333 334 332
3170.0 333 333 327 332 330 327 327 329 325 323
3210.0 314 313 306 302 298 296 293 287 284 283
3250.0 285 280 275 280 276 280 286 288 281 280
3290.0 281 278 271 274 274 281 277 272 275 274
3330.0 273 267 272 272 273 271 275 270 269 272
3370.0 272 272 272 275 280 281 286 283 276 272
3410.0 273 277 272 267 268 274 273 269 268 265
3450.0 269 272 270 271 275 275 280 274 282 287
3490.0 298 299 301 303 317 315 306 308 315 304
3530.0 301 300 293 291 286 282 289 276 288 278
3570.0 288 301 304 342 356 416 516 638 832 1064
3610.0 1405 1833 2112 2105 2109 2079 1920 1577 1204 995
3650.0 834 759 732 649 629 539 501 448 393 364
3690.0 321 323 302 308 306 296 300 301 300 301
3730.0 310 302 297 306 299 301 314 297 294 282
3770.0 283 286 284 277 276 292 283 288 281 301
3810.0 299 292 288 287 293 285 287 299 269 297
3850.0 295 313 286 293 284 307 289 295 281 286
3890.0 287 287 275 287 285 292 271 277 293 287
3930.0 307 288 291 304 316 310 345 333 316 330
##END=
