##TITLE=2-Propenenitrile
##JCAMP-DX=4.24
##DATA TYPE=INFRARED SPECTRUM
##ORIGIN=Sadtler Research Labs Under US-EPA Contract
##OWNER=NIST Standard Reference Data Program
##CAS REGISTRY NO=107-13-1
##MOLFORM=C 3 H 3 N
##XUNITS=1/CM
##YUNITS=ABSORBANCE
##XFACTOR=1.0
##YFACTOR=0.000079910
##DELTAX=4.0
##FIRSTX=450.0
##LASTX=3966.0
##FIRSTY=0.006952
##MAXX=3966
##MINX=450
##MAXY=0.7991
##MINY=0
##NPOINTS=880
##XYDATA=(X++(Y..Y))
450.0 87 74 86 80 80 78 107 84 77 82
490.0 35 43 70 79 85 31 75 101 38 78
530.0 53 29 61 75 76 133 62 80 98 104
570.0 45 40 83 52 53 104 0 46 89 155
610.0 163 171 269 318 405 561 621 782 964 1124
650.0 1284 1382 1427 1417 1390 1370 1541 2275 3277 1428
690.0 1122 1140 1193 1164 1138 1079 1011 890 807 711
730.0 627 544 460 404 347 313 301 313 327 379
770.0 424 458 438 354 279 247 288 329 270 181
810.0 126 81 65 60 116 64 55 123 199 293
850.0 433 544 636 605 585 627 644 839 1014 1105
890.0 1227 1403 1666 2007 2417 2854 3315 3754 4228 4669
930.0 5051 5364 5522 5899 6754 7306 10000 6743 6773 7413
970.0 9580 7040 6110 6165 6147 6011 5699 5280 4773 4199
1010.0 3577 3031 2573 2146 1740 1381 1060 802 601 465
1050.0 358 289 258 237 264 356 523 716 841 793
1090.0 573 509 542 459 508 450 313 194 109 81
1130.0 68 56 50 46 46 41 47 34 41 47
1170.0 41 44 34 32 49 42 48 51 53 66
1210.0 34 40 41 40 28 34 31 26 27 32
1250.0 47 70 82 138 170 200 199 168 171 229
1290.0 252 240 235 207 204 227 246 239 229 200
1330.0 227 266 324 329 346 347 327 308 331 373
1370.0 430 477 493 547 635 800 1031 1305 1477 1413
1410.0 1086 1004 982 1282 1405 1243 917 713 597 508
1450.0 418 313 284 205 189 153 138 99 83 70
1490.0 66 55 62 39 65 51 33 38 61 44
1530.0 29 56 47 87 79 72 80 100 123 120
1570.0 148 175 239 277 377 495 673 810 889 838
1610.0 738 785 777 976 1074 999 860 760 635 544
1650.0 438 501 475 496 479 411 293 236 177 167
1690.0 114 99 98 103 66 54 52 67 43 39
1730.0 40 38 31 23 20 40 27 17 30 14
1770.0 22 25 25 23 27 18 36 16 21 21
1810.0 33 38 53 58 74 74 71 75 70 90
1850.0 104 114 120 127 151 198 251 352 492 651
1890.0 832 988 1079 1037 988 853 1069 1214 1142 923
1930.0 663 468 352 328 304 253 207 170 147 121
1970.0 108 97 90 79 68 64 45 49 42 35
2010.0 35 32 34 36 29 35 36 30 31 24
2050.0 29 27 16 34 32 23 24 24 30 18
2090.0 22 23 28 25 17 21 11 19 17 18
2130.0 12 17 18 18 18 16 19 14 15 15
2170.0 17 18 24 12 18 17 31 30 24 44
2210.0 57 78 114 132 148 146 134 135 147 154
2250.0 171 135 111 83 82 85 91 72 79 70
2290.0 93 106 85 71 57 44 43 34 34 25
2330.0 28 23 15 24 35 12 11 20 31 26
2370.0 21 46 47 38 33 34 37 42 49 49
2410.0 43 41 31 27 30 40 35 43 50 55
2450.0 49 55 48 54 54 68 76 76 58 57
2490.0 51 54 46 37 32 31 37 37 42 32
2530.0 35 34 37 40 30 37 34 37 42 37
2570.0 42 30 17 19 23 14 21 12 15 4
2610.0 1 12 6 7 7 7 0 12 8 5
2650.0 9 6 14 11 14 14 14 25 27 33
2690.0 40 45 39 51 39 41 45 50 52 38
2730.0 32 15 19 24 21 25 20 24 16 21
2770.0 32 21 33 27 27 23 22 27 32 28
2810.0 31 24 11 17 12 6 16 9 9 11
2850.0 9 4 16 21 16 22 29 17 23 33
2890.0 30 29 30 15 22 35 35 30 23 17
2930.0 17 25 23 6 11 11 11 24 16 18
2970.0 25 27 29 35 36 39 36 49 56 69
3010.0 105 157 197 278 356 418 437 391 435 391
3050.0 437 499 467 393 268 179 152 133 137 160
3090.0 195 235 298 364 471 568 585 517 473 418
3130.0 473 607 576 444 307 204 140 126 102 89
3170.0 87 70 58 57 31 38 28 22 19 18
3210.0 23 23 16 9 11 9 22 10 9 17
3250.0 18 14 10 18 17 23 23 25 19 23
3290.0 34 32 30 27 24 27 36 35 42 54
3330.0 42 43 49 52 51 37 35 30 31 30
3370.0 30 24 25 31 18 32 15 14 25 18
3410.0 25 33 32 27 31 34 13 13 30 42
3450.0 18 44 44 16 13 13 16 13 43 25
3490.0 15 26 38 11 12 46 38 38 18 31
3530.0 41 24 14 40 15 35 21 18 19 26
3570.0 51 40 43 20 5 25 32 21 44 39
3610.0 60 39 60 45 32 74 38 46 35 47
3650.0 51 64 46 30 43 39 33 56 43 28
3690.0 43 27 28 22 16 31 24 16 25 27
3730.0 27 33 17 24 26 19 19 7 16 16
3770.0 9 19 18 21 21 20 21 6 17 23
3810.0 29 21 34 27 28 35 39 30 37 42
3850.0 37 34 53 37 23 25 13 19 11 25
3890.0 30 32 28 20 17 22 14 17 5 0
3930.0 0 4 23 20 19 14 17 19 21 22
##END=
