##TITLE=1,2-Ethanediol
##JCAMP-DX=4.24
##DATA TYPE=INFRARED SPECTRUM
##ORIGIN=Sadtler Research Labs Under US-EPA Contract
##OWNER=NIST Standard Reference Data Program
##CAS REGISTRY NO=107-21-1
##MOLFORM=C 2 H 6 O 2
##XUNITS=1/CM
##YUNITS=ABSORBANCE
##XFACTOR=1.0
##YFACTOR=0.000101996
##DELTAX=4.0
##FIRSTX=450.0
##LASTX=3966.0
##FIRSTY=0.071907
##MAXX=3966
##MINX=450
##MAXY=1.01996
##MINY=0
##NPOINTS=880
##XYDATA=(X++(Y..Y))
450.0 705 360 140 87 86 116 246 267 179 271
490.0 642 518 473 674 942 863 731 921 930 941
530.0 932 943 705 620 536 449 398 389 340 315
570.0 269 420 427 345 59 207 215 222 190 262
610.0 202 231 221 227 240 229 244 220 243 219
650.0 244 230 222 246 264 250 264 238 228 232
690.0 229 220 223 227 188 216 207 195 211 165
730.0 163 199 195 179 178 159 176 167 186 176
770.0 180 119 128 163 187 178 250 265 244 317
810.0 339 453 468 517 620 779 935 1195 1397 1713
850.0 1942 2260 2503 2762 2892 2972 3099 3100 2837 2520
890.0 2175 1855 1523 1214 996 833 727 646 605 569
930.0 546 536 530 520 508 516 543 553 564 641
970.0 743 735 836 894 991 1145 1364 1639 2006 2517
1010.0 3202 4081 5070 6202 7237 8115 8648 8989 9160 9330
1050.0 9750 10000 9639 8713 7912 7372 7010 6741 6506 6145
1090.0 5794 5572 5301 4949 4442 3900 3301 2752 2249 1844
1130.0 1517 1323 1212 1203 1225 1260 1272 1351 1467 1426
1170.0 1440 1474 1450 1422 1388 1363 1331 1324 1314 1309
1210.0 1315 1347 1363 1375 1433 1469 1532 1568 1631 1676
1250.0 1731 1772 1802 1810 1794 1772 1738 1723 1681 1628
1290.0 1556 1492 1417 1370 1324 1299 1296 1304 1325 1358
1330.0 1413 1460 1550 1600 1665 1809 1922 2038 2146 2254
1370.0 2334 2403 2416 2444 2471 2399 2323 2244 2107 1924
1410.0 1752 1560 1442 1252 1145 1008 943 853 855 886
1450.0 928 920 793 879 927 787 834 855 766 667
1490.0 531 408 325 289 239 225 213 170 152 137
1530.0 147 129 98 107 96 100 83 77 36 73
1570.0 48 64 30 66 43 50 43 45 38 37
1610.0 35 27 19 31 21 31 10 19 30 21
1650.0 17 19 9 40 19 23 20 40 35 31
1690.0 37 42 25 31 37 49 50 52 48 55
1730.0 58 52 55 60 70 76 53 56 50 52
1770.0 39 30 30 33 30 27 20 22 37 19
1810.0 19 18 15 16 18 14 21 18 19 27
1850.0 26 26 33 42 42 49 51 58 64 69
1890.0 76 83 84 92 97 104 109 108 117 115
1930.0 117 113 108 114 111 101 92 91 81 80
1970.0 72 63 50 48 37 34 29 21 18 18
2010.0 15 14 22 23 20 22 24 25 26 34
2050.0 34 39 44 53 56 64 63 75 82 86
2090.0 91 97 97 93 92 86 87 83 78 73
2130.0 73 66 63 60 56 55 51 47 47 46
2170.0 42 39 39 35 34 34 32 31 32 32
2210.0 31 30 30 28 34 35 29 34 32 35
2250.0 35 33 32 36 36 32 38 37 42 41
2290.0 42 46 46 45 47 49 43 41 39 43
2330.0 35 30 27 36 31 53 8 23 22 53
2370.0 49 55 67 67 68 70 70 71 73 73
2410.0 77 79 77 78 81 79 79 82 77 78
2450.0 75 74 75 72 71 71 68 67 68 68
2490.0 67 68 77 77 76 76 72 81 80 75
2530.0 82 85 84 81 83 81 80 76 79 76
2570.0 76 80 75 73 72 74 75 76 74 78
2610.0 76 78 81 85 85 93 100 107 110 112
2650.0 120 127 138 149 164 169 180 192 200 211
2690.0 229 240 251 262 281 290 302 318 332 350
2730.0 363 376 382 400 408 411 419 420 428 440
2770.0 450 463 481 484 497 512 533 560 581 610
2810.0 651 693 747 808 887 980 1091 1222 1384 1584
2850.0 1827 2101 2372 2646 2954 3270 3600 3901 4120 4166
2890.0 4072 4041 4111 4202 4339 4470 4649 4854 5134 5470
2930.0 5833 6356 6695 6811 6674 6418 6106 5685 5249 4792
2970.0 4324 3829 3185 2628 2147 1689 1322 1034 794 617
3010.0 478 372 291 239 189 159 143 130 118 113
3050.0 103 97 91 85 78 85 83 74 82 81
3090.0 73 66 66 73 67 66 55 53 54 48
3130.0 46 33 41 42 41 31 34 32 35 47
3170.0 38 34 34 31 42 44 44 58 55 54
3210.0 46 50 49 58 54 61 55 67 75 73
3250.0 70 76 81 81 80 79 85 94 88 80
3290.0 77 84 74 67 83 78 85 76 81 77
3330.0 88 95 81 81 68 81 72 76 87 71
3370.0 91 86 79 88 82 83 82 77 80 72
3410.0 57 81 74 80 89 77 79 80 67 108
3450.0 91 96 120 118 114 110 116 113 117 113
3490.0 88 104 118 112 105 94 83 67 74 88
3530.0 68 73 80 65 90 86 77 107 114 152
3570.0 171 173 208 266 352 390 486 618 765 914
3610.0 1099 1248 1453 1572 1666 1805 1967 2067 2181 2306
3650.0 2229 2306 2403 2274 2283 2372 2263 2215 2001 1871
3690.0 1762 1524 1375 1278 1014 842 656 495 384 318
3730.0 262 191 190 147 131 70 123 96 64 91
3770.0 71 93 77 95 119 99 98 70 87 76
3810.0 81 104 48 51 86 69 79 7 33 0
3850.0 130 64 54 107 106 94 51 32 93 45
3890.0 65 88 90 78 73 89 94 81 90 82
3930.0 67 75 99 90 114 117 86 49 93 103
##END=
