##TITLE=2-Pentanamine, 2,4,4-trimethyl-
##JCAMP-DX=4.24
##DATA TYPE=INFRARED SPECTRUM
##ORIGIN=Sadtler Research Labs Under US-EPA Contract
##OWNER=NIST Standard Reference Data Program
##CAS REGISTRY NO=107-45-9
##MOLFORM=C 8 H 19 N
##XUNITS=1/CM
##YUNITS=ABSORBANCE
##XFACTOR=1.0
##YFACTOR=0.000088232
##DELTAX=4.0
##FIRSTX=450.0
##LASTX=3966.0
##FIRSTY=0.005294
##MAXX=3966
##MINX=450
##MAXY=0.88232
##MINY=0
##NPOINTS=880
##XYDATA=(X++(Y..Y))
450.0 60 62 51 72 85 91 92 94 64 63
490.0 72 87 73 35 23 16 28 24 38 33
530.0 48 63 61 24 74 84 76 91 143 105
570.0 101 100 77 62 59 46 70 63 66 60
610.0 38 49 34 46 71 74 71 77 59 64
650.0 85 81 57 72 129 129 142 119 145 149
690.0 169 183 181 203 218 219 256 276 316 362
730.0 405 441 456 481 497 429 595 720 818 944
770.0 990 1083 1141 1193 1220 1229 1272 1335 1413 1534
810.0 1632 1698 1670 1572 1394 1185 956 793 633 493
850.0 427 370 357 332 329 310 302 340 354 382
890.0 376 309 252 198 159 148 163 154 153 141
930.0 123 111 105 122 162 163 194 193 194 191
970.0 166 165 139 129 114 69 45 51 46 59
1010.0 59 51 57 50 50 47 48 59 36 53
1050.0 30 49 58 74 75 76 96 102 103 111
1090.0 119 83 110 98 104 102 96 114 130 193
1130.0 212 281 334 396 451 463 458 423 400 358
1170.0 317 297 271 283 302 330 372 416 469 546
1210.0 626 718 835 962 1100 1201 1285 1288 1176 996
1250.0 766 560 406 329 271 243 243 232 239 227
1290.0 227 203 190 166 136 104 104 111 128 130
1330.0 171 191 274 391 492 656 868 1139 1437 1662
1370.0 1898 1796 1532 1276 1069 902 835 705 560 485
1410.0 316 199 176 178 170 216 241 290 327 404
1450.0 482 629 787 934 1137 1283 1413 1443 1335 1182
1490.0 956 689 485 346 236 216 200 195 165 150
1530.0 153 146 157 126 158 154 163 146 146 167
1570.0 162 174 175 196 226 238 267 303 352 408
1610.0 484 530 569 607 598 556 508 421 358 294
1650.0 226 152 148 122 93 88 70 56 66 40
1690.0 51 47 36 31 39 44 47 33 43 33
1730.0 41 33 32 25 27 26 20 22 26 26
1770.0 24 11 26 16 23 14 20 13 16 1
1810.0 23 10 8 11 19 8 21 18 4 14
1850.0 8 8 12 13 14 19 14 13 20 10
1890.0 19 11 17 10 3 15 9 10 11 14
1930.0 3 17 10 13 16 10 16 10 11 11
1970.0 17 12 11 13 11 13 15 15 13 13
2010.0 13 18 19 13 14 14 13 13 13 11
2050.0 11 16 8 8 15 14 10 14 15 15
2090.0 15 15 15 15 22 22 21 18 21 22
2130.0 16 23 16 22 17 22 18 18 18 21
2170.0 19 18 18 18 18 19 13 20 14 16
2210.0 20 19 19 18 18 17 25 25 25 26
2250.0 27 26 23 31 29 28 30 29 36 37
2290.0 36 38 33 27 26 28 16 14 1 1
2330.0 2 1 1 1 2 2 1 1 1 1
2370.0 1 11 26 35 34 40 39 35 40 39
2410.0 39 39 39 38 34 34 34 34 33 33
2450.0 33 33 33 33 32 32 39 38 36 32
2490.0 34 38 38 38 38 43 38 38 38 37
2530.0 37 37 40 43 43 43 43 43 43 47
2570.0 42 43 47 47 47 47 47 53 53 53
2610.0 62 58 58 58 58 58 57 64 69 69
2650.0 68 74 78 78 91 90 101 106 106 112
2690.0 108 106 109 109 115 126 140 149 156 162
2730.0 161 144 144 133 127 131 134 134 134 134
2770.0 127 128 133 139 145 161 172 193 213 246
2810.0 272 304 331 362 402 446 497 555 606 646
2850.0 689 776 934 1221 1638 2122 2605 3032 3294 3451
2890.0 3540 3637 3748 3872 3984 3997 3921 3764 3562 3386
2930.0 3336 3425 3706 4269 5146 6422 7869 9328 10000 9503
2970.0 8354 6862 5504 4452 3695 3155 2672 2216 1805 1409
3010.0 1060 766 546 391 286 220 179 150 136 119
3050.0 113 113 94 94 95 89 89 95 89 89
3090.0 86 89 83 88 83 77 88 83 82 83
3130.0 83 86 82 82 82 88 94 93 93 93
3170.0 99 98 105 105 104 103 117 109 109 116
3210.0 115 120 109 109 114 104 106 102 96 89
3250.0 90 77 82 77 69 76 75 70 68 69
3290.0 64 66 69 74 80 93 112 134 153 151
3330.0 152 144 125 109 100 88 77 65 57 56
3370.0 58 56 52 57 61 57 51 50 48 49
3410.0 43 44 43 41 44 40 44 40 39 34
3450.0 44 33 33 31 31 37 28 28 32 28
3490.0 28 22 28 33 34 30 26 26 26 35
3530.0 35 20 32 26 31 36 27 21 24 36
3570.0 44 15 20 26 25 38 25 26 25 20
3610.0 31 31 27 31 25 26 24 20 20 25
3650.0 20 24 19 19 23 17 19 16 19 19
3690.0 13 17 18 19 13 19 23 18 29 29
3730.0 21 22 32 19 18 12 11 18 17 22
3770.0 18 21 17 17 17 17 11 17 15 16
3810.0 16 12 10 10 17 10 11 13 15 15
3850.0 15 15 21 27 26 27 27 31 31 27
3890.0 27 28 38 38 31 27 31 26 21 25
3930.0 21 25 26 21 22 25 0 1 1 1
##END=
