##TITLE=Butane, 1-bromo-3-methyl-
##JCAMP-DX=4.24
##DATA TYPE=INFRARED SPECTRUM
##ORIGIN=Sadtler Research Labs Under US-EPA Contract
##OWNER=NIST Standard Reference Data Program
##CAS REGISTRY NO=107-82-4
##MOLFORM=C 5 H 11 Br
##XUNITS=1/CM
##YUNITS=ABSORBANCE
##XFACTOR=1.0
##YFACTOR=0.000065479
##DELTAX=4.0
##FIRSTX=450.0
##LASTX=3966.0
##FIRSTY=0.000000
##MAXX=3966
##MINX=450
##MAXY=0.65479
##MINY=0
##NPOINTS=880
##XYDATA=(X++(Y..Y))
450.0 0 5 13 55 95 136 141 134 167 121
490.0 103 165 92 43 51 65 33 34 57 76
530.0 24 72 72 137 162 247 237 464 613 634
570.0 603 669 531 343 279 195 90 116 143 78
610.0 88 146 173 204 299 313 456 481 655 786
650.0 929 917 939 707 511 303 308 217 166 126
690.0 121 124 111 78 94 73 83 100 77 79
730.0 83 151 178 157 214 234 211 170 159 110
770.0 134 123 100 85 74 89 77 84 71 64
810.0 89 88 100 110 113 129 136 129 150 168
850.0 288 417 424 438 428 380 322 285 280 286
890.0 277 228 143 142 143 151 194 239 257 240
930.0 200 179 159 136 150 156 145 117 121 104
970.0 102 96 77 82 98 83 83 90 113 130
1010.0 170 201 219 217 230 224 181 144 136 128
1050.0 111 88 75 86 90 84 86 72 81 89
1090.0 89 80 87 88 117 111 121 111 114 117
1130.0 132 122 130 140 177 228 290 377 486 561
1170.0 595 574 509 442 405 377 353 349 392 519
1210.0 760 1136 1431 1494 1428 1125 756 505 427 445
1250.0 561 804 1223 1718 1977 1996 1870 1469 953 643
1290.0 536 529 562 583 567 501 399 313 273 268
1330.0 294 327 410 533 642 687 712 691 688 738
1370.0 816 857 930 1050 1109 1052 940 797 541 337
1410.0 250 228 267 311 356 443 545 731 782 865
1450.0 965 1042 1203 1227 1318 1381 1393 1165 944 733
1490.0 565 387 316 207 223 166 106 121 152 107
1530.0 78 98 92 156 85 69 80 148 129 69
1570.0 85 63 91 52 46 52 52 51 54 47
1610.0 53 48 87 60 63 53 60 86 53 84
1650.0 73 181 58 69 64 85 75 76 70 131
1690.0 66 64 111 132 75 58 67 115 57 56
1730.0 57 110 71 82 73 81 73 65 66 58
1770.0 68 77 45 47 44 31 54 35 35 20
1810.0 20 19 19 19 31 29 18 20 23 38
1850.0 12 20 19 20 12 34 17 20 19 14
1890.0 19 11 17 11 17 12 12 19 19 11
1930.0 11 17 15 13 13 19 19 18 18 11
1970.0 18 17 17 12 9 18 18 10 10 10
2010.0 10 19 17 17 17 17 24 25 25 24
2050.0 24 21 17 25 17 25 25 16 16 15
2090.0 16 18 12 8 17 17 14 16 16 16
2130.0 16 17 17 9 7 17 16 15 15 10
2170.0 16 16 22 16 23 15 23 23 16 20
2210.0 16 16 16 16 15 15 15 15 14 14
2250.0 14 14 14 23 18 19 23 19 21 21
2290.0 21 21 22 15 14 12 13 7 6 5
2330.0 13 6 6 12 7 6 6 13 9 16
2370.0 15 16 33 35 30 36 36 28 29 21
2410.0 20 29 27 21 20 25 21 19 22 22
2450.0 28 28 19 20 19 20 22 21 23 24
2490.0 20 20 17 19 20 19 20 20 11 11
2530.0 11 11 11 7 12 12 18 12 20 20
2570.0 20 20 27 27 27 35 39 43 43 44
2610.0 44 44 50 52 51 51 59 59 59 58
2650.0 58 57 61 67 67 58 60 59 52 53
2690.0 53 50 55 59 60 65 73 74 81 97
2730.0 113 129 129 135 132 112 116 107 104 108
2770.0 105 105 113 120 129 128 138 160 161 177
2810.0 192 221 246 288 340 403 482 560 614 660
2850.0 684 718 796 982 1269 1699 2281 2826 3139 3290
2890.0 3235 2899 2605 2404 2361 2434 2551 2728 2972 3251
2930.0 3585 3955 4265 4484 4641 4861 5262 6072 7499 9556
2970.0 10000 9312 8064 5482 3438 2299 1589 1123 863 748
3010.0 723 730 724 680 604 489 370 284 222 179
3050.0 147 147 147 132 126 132 122 121 117 110
3090.0 101 102 102 95 94 88 87 87 87 87
3130.0 87 84 89 94 93 101 97 102 102 103
3170.0 110 117 111 113 110 103 103 98 96 88
3210.0 81 82 74 59 59 50 35 33 36 35
3250.0 30 32 35 28 22 22 28 28 28 23
3290.0 26 29 29 33 30 32 36 30 29 29
3330.0 36 45 38 47 52 49 41 43 50 47
3370.0 32 45 38 38 22 29 30 29 29 29
3410.0 30 31 31 28 16 25 38 23 17 31
3450.0 21 16 28 18 22 28 16 23 16 16
3490.0 23 24 18 17 21 23 14 14 16 19
3530.0 25 26 16 17 49 32 25 27 23 26
3570.0 39 31 26 23 30 50 26 33 26 26
3610.0 41 48 38 38 18 61 27 26 26 32
3650.0 72 41 34 17 16 41 46 60 21 23
3690.0 50 13 5 12 5 20 34 5 5 30
3730.0 19 39 40 39 59 63 46 21 5 13
3770.0 19 14 7 9 14 17 20 28 49 44
3810.0 37 28 44 52 34 24 45 56 48 35
3850.0 45 75 32 28 29 37 36 36 29 35
3890.0 30 21 17 30 30 22 22 22 15 14
3930.0 14 7 5 5 7 8 5 5 5 5
##END=
