##TITLE=Propane, 1-iodo-
##JCAMP-DX=4.24
##DATA TYPE=INFRARED SPECTRUM
##ORIGIN=Sadtler Research Labs Under US-EPA Contract
##OWNER=NIST Standard Reference Data Program
##CAS REGISTRY NO=107-08-4
##MOLFORM=C 3 H 7 I
##XUNITS=1/CM
##YUNITS=ABSORBANCE
##XFACTOR=1.0
##YFACTOR=0.000072021
##DELTAX=4.0
##FIRSTX=450.0
##LASTX=3966.0
##FIRSTY=0.006698
##MAXX=3966
##MINX=450
##MAXY=0.72021
##MINY=0
##NPOINTS=880
##XYDATA=(X++(Y..Y))
450.0 93 113 104 128 102 56 123 395 468 425
490.0 408 449 664 707 600 499 584 588 403 172
530.0 86 158 303 167 24 108 145 64 133 110
570.0 172 504 490 520 669 1015 1018 940 790 835
610.0 733 359 262 202 287 314 178 130 107 205
650.0 235 114 60 89 206 169 129 29 188 321
690.0 246 120 134 262 322 241 142 207 245 260
730.0 251 268 341 407 436 504 864 1157 1269 1206
770.0 1028 1110 934 581 314 250 335 417 457 477
810.0 582 658 680 663 572 428 335 268 176 120
850.0 198 224 189 239 355 570 678 672 650 813
890.0 827 671 501 471 368 289 219 138 157 163
930.0 179 120 88 124 145 142 98 83 166 156
970.0 140 129 141 188 235 138 192 239 327 351
1010.0 297 356 390 397 304 241 250 256 237 203
1050.0 203 239 283 299 330 368 418 466 429 348
1090.0 317 305 319 248 235 283 271 243 234 245
1130.0 256 266 269 201 256 293 316 380 467 763
1170.0 1394 2528 4186 5786 6875 7885 8856 7287 5661 4995
1210.0 3990 2609 1595 1017 752 582 480 449 450 453
1250.0 476 579 773 1141 1779 2683 3195 3074 2972 2916
1290.0 2745 1644 850 504 370 291 323 316 359 396
1330.0 490 677 768 677 651 666 666 519 371 371
1370.0 519 722 980 1076 1054 1082 1263 1042 776 645
1410.0 621 656 676 778 959 1124 1271 1329 1552 1665
1450.0 1734 1813 1756 1780 1719 1652 1398 1208 1048 860
1490.0 666 554 424 368 337 224 192 148 140 162
1530.0 132 102 125 101 97 97 105 105 127 148
1570.0 116 137 147 166 137 108 116 127 121 97
1610.0 95 125 126 115 95 96 120 106 113 84
1650.0 94 89 116 96 77 73 90 80 52 50
1690.0 87 105 54 13 61 83 71 38 53 73
1730.0 77 44 39 33 37 52 45 30 45 83
1770.0 63 42 47 63 55 66 38 35 35 70
1810.0 63 37 49 80 60 46 50 70 74 55
1850.0 61 53 76 82 68 30 51 68 66 42
1890.0 34 54 67 67 52 44 73 59 49 57
1930.0 60 73 73 46 39 53 78 64 52 48
1970.0 71 70 54 40 38 55 49 47 46 60
2010.0 84 81 61 53 75 81 60 43 40 72
2050.0 70 45 46 68 73 74 58 57 73 80
2090.0 70 50 51 81 67 60 50 46 65 56
2130.0 36 36 50 69 46 43 49 70 74 53
2170.0 54 56 81 82 68 67 92 114 108 91
2210.0 97 119 126 115 108 106 122 115 86 86
2250.0 86 93 84 60 55 75 86 58 51 61
2290.0 75 64 48 48 56 80 72 50 48 83
2330.0 105 69 36 67 101 102 72 54 124 134
2370.0 120 87 91 111 107 99 100 113 120 113
2410.0 91 70 67 85 71 39 44 57 64 50
2450.0 49 54 76 83 68 47 58 76 66 46
2490.0 38 58 63 47 45 52 74 67 58 38
2530.0 53 64 61 36 36 61 59 47 37 36
2570.0 51 50 29 16 29 70 70 50 60 87
2610.0 114 101 94 109 130 128 98 91 98 113
2650.0 102 79 82 108 125 105 98 91 127 111
2690.0 81 60 73 90 81 63 63 89 108 94
2730.0 94 117 160 176 176 170 189 210 189 178
2770.0 162 193 215 210 195 217 235 247 243 224
2810.0 253 282 310 326 365 469 585 715 871 1145
2850.0 1507 1747 1725 1877 2024 2156 2289 2614 2897 2961
2890.0 3256 3503 3403 3201 3094 3035 2939 2815 2787 2869
2930.0 3121 3591 4161 4725 5012 5439 5693 6103 6631 7317
2970.0 8277 10000 9345 8695 8276 7635 5912 4250 3231 2591
3010.0 2170 1856 1594 1324 1127 936 781 680 561 451
3050.0 374 338 331 293 246 257 293 287 261 243
3090.0 273 288 269 224 194 209 215 194 164 169
3130.0 203 212 182 186 198 224 229 212 199 206
3170.0 240 209 143 148 164 182 145 113 117 141
3210.0 132 105 83 98 118 112 77 75 98 116
3250.0 83 68 80 86 86 51 66 66 96 71
3290.0 43 51 92 89 59 36 53 67 97 41
3330.0 41 72 98 70 48 53 88 104 67 51
3370.0 75 84 86 50 43 76 93 95 49 37
3410.0 69 96 55 23 49 81 83 68 35 74
3450.0 94 76 50 37 59 89 72 45 47 78
3490.0 71 57 45 50 57 73 47 47 63 60
3530.0 57 46 46 75 53 47 49 64 81 69
3570.0 14 51 72 85 64 13 50 64 79 74
3610.0 31 48 66 66 69 29 77 95 85 61
3650.0 31 82 111 86 68 70 111 99 90 85
3690.0 85 109 122 93 91 128 121 117 86 102
3730.0 129 102 83 104 108 143 131 124 138 167
3770.0 181 169 143 157 190 186 143 118 146 168
3810.0 155 127 128 150 186 165 117 141 165 192
3850.0 160 141 160 200 194 164 152 191 202 187
3890.0 159 157 204 194 164 166 179 202 197 168
3930.0 170 202 235 210 154 160 0 13 13 13
##END=
