##TITLE=Butane, 1,3-dibromo-
##JCAMP-DX=4.24
##DATA TYPE=INFRARED SPECTRUM
##ORIGIN=Sadtler Research Labs Under US-EPA Contract
##OWNER=NIST Standard Reference Data Program
##CAS REGISTRY NO=107-80-2
##MOLFORM=C 4 H 8 Br 2
##XUNITS=1/CM
##YUNITS=ABSORBANCE
##XFACTOR=1.0
##YFACTOR=0.000097412
##DELTAX=4.0
##FIRSTX=450.0
##LASTX=3966.0
##FIRSTY=0.011008
##MAXX=3966
##MINX=450
##MAXY=0.97412
##MINY=0
##NPOINTS=880
##XYDATA=(X++(Y..Y))
450.0 113 91 223 272 326 403 541 670 576 443
490.0 414 223 273 142 256 409 460 613 1000 1385
530.0 1824 2316 2425 2436 2006 1669 1396 1296 1423 1739
570.0 2199 2491 2681 2478 2019 1511 892 505 458 429
610.0 449 599 773 889 915 733 458 503 529 648
650.0 857 1171 1520 1647 1652 1332 1033 690 784 835
690.0 725 593 406 299 308 371 341 335 121 106
730.0 248 231 217 190 11 219 377 466 672 694
770.0 683 662 711 983 1981 3056 3188 2584 1694 854
810.0 453 316 244 202 223 214 271 250 263 334
850.0 367 275 327 404 516 757 1122 1676 1904 1910
890.0 1548 920 719 755 824 754 678 557 457 459
930.0 573 584 547 447 438 389 391 497 655 827
970.0 1079 1395 1692 1878 1977 2030 1846 1680 1371 1016
1010.0 830 842 897 872 816 818 833 848 775 698
1050.0 635 499 419 475 560 679 761 829 782 732
1090.0 712 688 726 744 876 1127 1546 1759 1655 1485
1130.0 1227 1213 1289 1294 1302 1184 1289 1455 1614 1645
1170.0 1635 1802 1994 2258 2818 3592 4348 4808 5088 4731
1210.0 5248 5913 6635 6593 7027 8006 8959 10000 9104 7721
1250.0 5347 2788 2184 2299 2786 3448 3974 4334 4093 3602
1290.0 2930 2296 1995 1771 1772 1783 1747 1671 1415 1155
1330.0 898 776 801 835 810 948 998 1129 1205 1278
1370.0 1238 1365 1867 2574 2641 2571 1754 1090 785 682
1410.0 694 906 1181 1510 1860 2246 2883 3767 4273 4404
1450.0 4181 3475 2841 2479 2057 1507 1089 734 513 365
1490.0 246 195 189 136 139 125 141 139 152 111
1530.0 81 82 104 112 61 97 88 62 51 79
1570.0 51 57 92 98 48 72 102 75 88 80
1610.0 90 72 102 103 81 76 110 65 81 101
1650.0 77 64 99 122 126 122 102 81 136 118
1690.0 99 142 105 98 128 65 63 63 63 72
1730.0 60 55 102 83 74 53 94 98 56 52
1770.0 70 68 26 32 64 59 26 49 54 43
1810.0 69 48 47 58 57 45 26 33 51 45
1850.0 36 91 58 64 37 64 51 50 47 48
1890.0 47 45 52 43 45 36 53 42 48 68
1930.0 61 54 53 48 42 51 47 45 52 51
1970.0 63 51 46 56 65 71 68 61 66 58
2010.0 63 41 35 51 57 54 49 34 58 31
2050.0 57 52 44 26 26 38 41 40 35 34
2090.0 42 36 23 38 29 35 40 41 52 50
2130.0 40 30 40 23 24 36 22 31 54 55
2170.0 59 62 61 64 55 55 54 64 65 78
2210.0 67 59 67 91 84 90 90 74 84 83
2250.0 81 78 81 80 83 73 66 66 44 63
2290.0 69 79 73 98 99 119 132 169 195 200
2330.0 209 217 200 222 213 186 235 332 351 307
2370.0 233 192 145 102 72 56 48 58 68 63
2410.0 58 47 63 85 86 83 87 78 84 84
2450.0 101 82 81 72 81 71 74 63 46 43
2490.0 42 59 58 64 62 51 77 57 61 65
2530.0 49 53 44 55 53 43 31 56 50 58
2570.0 53 49 62 51 53 45 50 59 54 64
2610.0 60 61 62 68 54 48 74 72 70 69
2650.0 68 76 81 84 90 86 101 103 91 94
2690.0 93 67 89 94 94 97 121 128 132 127
2730.0 123 154 166 186 225 222 211 185 142 107
2770.0 115 101 108 105 111 139 140 127 125 155
2810.0 178 231 294 351 428 475 509 522 529 581
2850.0 618 704 778 926 1126 1371 1641 1788 1783 1745
2890.0 1651 1646 1838 2205 2607 3001 3329 3600 4113 4828
2930.0 5264 5086 4538 3651 2615 1934 1653 1850 2553 3589
2970.0 4668 5811 6652 7311 7107 6985 6418 5795 4556 3134
3010.0 2061 1428 1094 1008 936 836 657 449 319 199
3050.0 165 139 130 129 135 125 136 118 112 117
3090.0 111 108 128 114 113 108 103 112 111 126
3130.0 119 95 85 105 110 85 102 81 91 113
3170.0 104 128 136 122 145 138 157 170 140 149
3210.0 189 162 183 137 153 143 138 115 108 104
3250.0 98 110 109 103 106 145 121 143 116 121
3290.0 110 102 86 67 65 75 55 56 60 55
3330.0 55 50 45 58 61 78 68 75 68 79
3370.0 77 87 54 54 89 59 62 58 73 71
3410.0 89 68 63 71 79 77 43 70 51 52
3450.0 72 35 51 82 107 85 51 64 57 87
3490.0 79 31 41 51 60 27 73 64 62 51
3530.0 64 82 46 37 67 45 69 62 91 46
3570.0 64 72 78 48 62 61 59 77 71 60
3610.0 53 28 57 53 86 55 73 77 89 59
3650.0 31 52 74 79 83 76 72 89 92 90
3690.0 94 109 135 120 96 127 110 139 147 142
3730.0 120 108 122 140 149 149 156 155 168 184
3770.0 191 195 197 193 198 190 190 197 221 204
3810.0 211 213 235 226 223 231 238 229 208 218
3850.0 252 234 229 227 237 229 245 270 254 253
3890.0 242 241 235 241 245 253 243 217 200 211
3930.0 224 220 224 242 249 267 0 20 21 21
##END=
