##TITLE=1,3-Butanediol
##JCAMP-DX=4.24
##DATA TYPE=INFRARED SPECTRUM
##ORIGIN=Sadtler Research Labs Under US-EPA Contract
##OWNER=NIST Standard Reference Data Program
##CAS REGISTRY NO=107-88-0
##MOLFORM=C 4 H 10 O 2
##XUNITS=1/CM
##YUNITS=ABSORBANCE
##XFACTOR=1.0
##YFACTOR=0.000072293
##DELTAX=4.0
##FIRSTX=450.0
##LASTX=3966.0
##FIRSTY=0.088848
##MAXX=3966
##MINX=450
##MAXY=0.72293
##MINY=0
##NPOINTS=880
##XYDATA=(X++(Y..Y))
450.0 1229 1326 1573 1402 1310 1410 1484 1402 1298 1308
490.0 1483 1151 1431 970 953 1235 736 746 986 857
530.0 642 727 530 548 494 432 527 391 414 343
570.0 402 296 344 250 307 291 260 255 246 228
610.0 224 230 190 255 38 134 141 130 128 146
650.0 140 100 86 106 130 76 90 86 80 105
690.0 69 64 62 64 34 61 62 71 24 4
730.0 28 63 54 59 69 101 112 136 167 309
770.0 399 388 368 469 433 460 394 412 406 360
810.0 320 266 285 322 359 484 598 736 853 978
850.0 1094 1165 1161 1094 1042 1009 990 1005 1091 1258
890.0 1490 1727 1924 2056 2131 2116 2006 1831 1663 1493
930.0 1371 1300 1343 1444 1598 1825 2068 2303 2481 2592
970.0 2695 2765 2713 2624 2543 2474 2472 2493 2491 2514
1010.0 2556 2633 2779 3013 3421 3937 4571 5269 5929 6566
1050.0 7075 7514 7882 8233 8536 8744 8976 9091 9153 8993
1090.0 8742 8345 7960 7533 7179 6866 6547 6186 5731 5260
1130.0 4796 4370 3951 3573 3229 2941 2686 2489 2350 2251
1170.0 2215 2215 2243 2275 2315 2337 2362 2383 2393 2406
1210.0 2424 2458 2489 2535 2578 2630 2675 2716 2753 2770
1250.0 2803 2800 2795 2773 2761 2721 2688 2664 2627 2560
1290.0 2455 2363 2272 2156 2045 1965 1893 1862 1831 1856
1330.0 1891 1957 2042 2112 2202 2315 2455 2646 2913 3270
1370.0 3715 4177 4550 4902 5094 5148 4932 4627 4344 4123
1410.0 3942 3748 3572 3286 3093 2801 2550 2242 2017 1838
1450.0 1732 1665 1530 1454 1395 1364 1251 1157 1078 964
1490.0 820 650 504 383 302 246 242 199 170 151
1530.0 166 143 150 79 118 122 140 78 33 103
1570.0 100 67 71 76 86 69 88 62 85 68
1610.0 85 60 61 49 74 50 79 31 85 53
1650.0 91 5 49 85 65 63 73 54 108 17
1690.0 82 84 53 6 63 67 77 40 42 63
1730.0 59 55 8 54 58 51 22 53 32 40
1770.0 43 13 41 41 51 52 36 50 56 50
1810.0 47 45 47 53 42 41 41 45 55 29
1850.0 40 37 40 47 56 38 42 62 49 60
1890.0 56 58 61 59 51 52 63 52 56 56
1930.0 52 61 56 55 41 38 38 38 28 38
1970.0 39 27 29 23 18 22 18 22 21 27
2010.0 33 34 39 39 45 49 49 51 53 47
2050.0 49 44 41 34 42 33 25 28 23 20
2090.0 24 19 19 19 12 13 9 14 8 4
2130.0 7 2 7 11 8 9 9 2 8 12
2170.0 1 3 4 9 3 6 3 3 10 11
2210.0 13 13 8 12 12 12 15 15 27 20
2250.0 25 21 21 21 23 21 24 34 47 59
2290.0 73 92 105 111 130 147 135 127 134 109
2330.0 119 122 139 134 161 202 217 161 126 144
2370.0 127 105 109 118 102 77 54 38 37 41
2410.0 41 45 51 51 56 58 58 55 53 48
2450.0 52 52 45 49 42 42 45 44 41 40
2490.0 42 40 42 39 39 39 34 35 35 37
2530.0 37 44 49 53 46 46 51 47 45 50
2570.0 53 59 66 68 72 79 76 77 85 89
2610.0 95 94 102 118 127 145 159 174 184 204
2650.0 221 232 247 252 253 268 269 269 289 292
2690.0 295 293 283 287 281 280 286 295 308 340
2730.0 349 378 402 417 429 445 453 463 488 512
2770.0 540 566 599 632 660 693 723 763 805 857
2810.0 915 979 1063 1150 1269 1389 1530 1688 1874 2081
2850.0 2330 2622 2940 3308 3704 4169 4707 5289 5830 6324
2890.0 6675 6963 7095 7159 7255 7425 7727 8105 8588 9039
2930.0 9425 9733 10000 9792 9377 9037 8717 8574 8497 8686
2970.0 8995 9307 9103 8037 7034 5844 4589 3350 2240 1417
3010.0 910 593 414 310 247 200 175 157 141 114
3050.0 103 94 85 66 51 52 66 54 53 51
3090.0 52 49 49 53 53 47 46 46 38 35
3130.0 27 31 41 36 38 29 25 27 24 32
3170.0 31 33 28 30 42 33 36 45 38 39
3210.0 31 29 26 16 12 13 19 6 5 19
3250.0 22 36 41 43 46 42 47 40 64 65
3290.0 53 59 75 57 69 66 64 62 67 75
3330.0 63 68 60 63 74 69 70 70 77 77
3370.0 69 56 44 48 56 59 71 66 77 89
3410.0 87 73 89 94 108 121 104 109 145 130
3450.0 139 116 90 111 93 85 85 75 79 74
3490.0 43 55 62 68 59 61 76 87 74 107
3530.0 112 111 123 121 136 136 164 186 262 349
3570.0 463 700 1053 1633 2305 2991 3501 3894 4068 3968
3610.0 3770 3264 2771 2269 1933 1703 1624 1627 1692 1912
3650.0 2116 2396 2661 2811 2899 2831 2546 2281 1884 1513
3690.0 1064 698 500 396 256 213 154 153 137 153
3730.0 100 29 95 89 93 86 117 135 162 142
3770.0 132 81 101 54 65 44 81 36 2 42
3810.0 43 52 0 38 51 106 74 58 52 68
3850.0 92 49 35 81 49 67 151 81 124 107
3890.0 59 65 100 96 68 110 76 85 73 45
3930.0 77 59 14 38 92 29 22 28 0 78
##END=
