##TITLE=Propanenitrile
##JCAMP-DX=4.24
##DATA TYPE=INFRARED SPECTRUM
##ORIGIN=Sadtler Research Labs Under US-EPA Contract
##OWNER=NIST Standard Reference Data Program
##CAS REGISTRY NO=107-12-0
##MOLFORM=C 3 H 5 N
##XUNITS=1/CM
##YUNITS=ABSORBANCE
##XFACTOR=1.0
##YFACTOR=0.000054755
##DELTAX=4.0
##FIRSTX=450.0
##LASTX=3966.0
##FIRSTY=0.009692
##MAXX=3966
##MINX=450
##MAXY=0.54755
##MINY=0
##NPOINTS=880
##XYDATA=(X++(Y..Y))
450.0 177 203 127 145 97 80 132 35 30 27
490.0 44 1 68 80 82 62 104 211 170 232
530.0 141 181 192 215 223 198 159 96 85 53
570.0 50 51 70 77 108 19 64 82 101 88
610.0 84 98 105 99 81 78 64 56 76 68
650.0 72 63 72 67 83 120 121 92 106 138
690.0 145 147 175 235 291 338 390 419 449 434
730.0 450 459 485 504 498 468 447 470 453 466
770.0 435 451 481 660 860 763 602 576 536 551
810.0 496 502 432 402 349 307 262 213 208 184
850.0 181 171 177 151 131 135 138 133 119 123
890.0 106 91 84 85 82 79 63 63 59 53
930.0 53 50 49 48 50 42 47 59 65 71
970.0 85 112 138 172 195 227 245 271 277 256
1010.0 275 300 348 359 371 387 418 450 525 619
1050.0 724 913 1125 1359 1527 1581 1446 1427 1689 1889
1090.0 1692 1455 1234 990 842 725 613 510 435 372
1130.0 330 307 313 314 326 346 390 449 544 704
1170.0 894 1111 1341 1501 1603 1612 1551 1370 1172 997
1210.0 880 792 719 653 584 539 495 471 456 449
1250.0 429 425 424 433 467 490 509 512 512 521
1290.0 563 645 792 1020 1267 1500 1490 1358 1267 1156
1330.0 1209 1578 1512 1215 873 659 566 484 524 493
1370.0 547 580 688 705 736 701 702 937 1128 1281
1410.0 1377 1508 1690 2001 2219 2419 2639 2578 2625 2898
1450.0 3296 3482 3624 4467 4130 2676 2645 2674 2559 2437
1490.0 2089 1807 1477 1262 1128 945 766 692 597 502
1530.0 387 362 303 307 230 230 179 205 173 133
1570.0 137 151 153 142 130 143 139 157 141 161
1610.0 161 174 223 201 205 179 193 204 203 200
1650.0 223 235 210 165 172 172 170 148 160 172
1690.0 148 125 148 161 149 129 146 175 216 228
1730.0 343 442 636 815 1080 1212 1340 1323 1342 1293
1770.0 1083 804 552 397 285 198 163 129 114 95
1810.0 83 83 74 77 73 79 68 77 61 85
1850.0 69 66 62 58 55 66 63 49 59 51
1890.0 70 60 64 56 54 60 53 59 60 52
1930.0 53 43 49 38 39 24 29 23 30 22
1970.0 33 24 28 32 34 38 45 41 31 37
2010.0 37 36 42 51 53 61 71 76 76 74
2050.0 71 66 73 74 69 53 34 32 23 21
2090.0 18 23 19 20 24 20 20 17 24 17
2130.0 22 18 25 25 30 33 34 46 42 48
2170.0 47 59 57 55 64 67 79 77 90 92
2210.0 107 105 154 199 211 253 346 442 525 562
2250.0 565 561 574 571 597 630 470 291 173 126
2290.0 109 109 107 98 101 96 103 105 101 94
2330.0 88 88 86 104 80 65 38 84 100 119
2370.0 130 140 144 137 133 123 114 110 109 120
2410.0 116 98 76 64 56 67 70 82 88 98
2450.0 108 111 108 112 114 120 125 109 93 79
2490.0 73 71 74 88 87 89 85 91 92 89
2530.0 87 82 76 63 60 62 58 58 56 54
2570.0 48 45 46 51 49 53 58 65 70 80
2610.0 92 109 134 147 143 137 127 108 126 141
2650.0 110 74 41 26 12 16 9 13 13 4
2690.0 8 11 14 19 24 28 36 41 48 59
2730.0 64 85 104 134 166 189 208 213 211 225
2770.0 258 272 280 245 229 210 198 209 213 225
2810.0 226 242 255 285 314 349 394 452 518 579
2850.0 676 666 698 701 702 818 988 1197 1544 2025
2890.0 2494 2701 2392 2385 2633 3021 3154 3145 3070 2952
2930.0 3020 3300 3889 4674 5291 5521 5467 5721 6511 6634
2970.0 7309 7971 7961 8327 8504 8937 8328 7974 10000 8446
3010.0 7879 8016 6533 5360 4263 3439 2819 2283 1886 1454
3050.0 1167 891 719 543 464 399 365 363 345 354
3090.0 312 353 334 373 372 320 251 208 215 193
3130.0 196 181 199 182 183 182 182 185 184 200
3170.0 203 218 220 244 259 275 290 295 312 286
3210.0 290 265 247 209 193 168 149 141 137 139
3250.0 137 140 129 133 128 121 124 100 77 52
3290.0 41 32 36 42 48 43 51 63 59 72
3330.0 58 57 51 64 49 49 46 43 46 36
3370.0 37 29 32 23 30 37 23 19 18 27
3410.0 28 24 19 24 21 24 18 20 32 17
3450.0 33 27 27 18 36 27 27 22 34 34
3490.0 33 48 28 37 43 34 60 44 57 59
3530.0 54 48 61 50 76 64 56 47 33 76
3570.0 78 75 53 43 57 68 80 30 46 24
3610.0 53 26 54 51 24 68 60 29 31 25
3650.0 59 52 49 42 9 50 23 119 37 44
3690.0 56 52 38 35 49 31 94 63 37 79
3730.0 67 77 71 70 85 76 107 68 46 58
3770.0 56 54 35 69 35 31 33 36 63 68
3810.0 27 39 4 76 17 23 15 26 27 31
3850.0 3 32 38 4 4 4 8 4 4 14
3890.0 0 4 4 47 39 8 4 27 9 12
3930.0 35 20 31 24 30 26 39 37 52 47
##END=
