##TITLE=Ethanol, 2-chloro-
##JCAMP-DX=4.24
##DATA TYPE=INFRARED SPECTRUM
##ORIGIN=Sadtler Research Labs Under US-EPA Contract
##OWNER=NIST Standard Reference Data Program
##CAS REGISTRY NO=107-07-3
##MOLFORM=C 2 H 5 Cl O
##XUNITS=1/CM
##YUNITS=ABSORBANCE
##XFACTOR=1.0
##YFACTOR=0.000073630
##DELTAX=4.0
##FIRSTX=450.0
##LASTX=3966.0
##FIRSTY=0.235247
##MAXX=3966
##MINX=450
##MAXY=0.7363
##MINY=0
##NPOINTS=880
##XYDATA=(X++(Y..Y))
450.0 3195 1487 1265 1238 1590 1526 1692 940 1389 1538
490.0 1256 739 25 707 785 197 496 420 386 381
530.0 556 349 830 712 932 752 652 709 118 0
570.0 570 451 376 907 505 516 471 625 559 615
610.0 549 605 640 548 828 739 702 774 950 1105
650.0 1524 1991 2503 2914 2997 2964 3180 3401 3513 3337
690.0 2311 1451 971 814 633 607 563 503 503 495
730.0 486 569 730 895 1225 1570 1989 2251 2363 2305
770.0 2337 2487 2130 1358 807 601 499 465 453 430
810.0 429 329 392 591 626 588 739 758 884 830
850.0 809 800 893 941 784 698 610 600 563 603
890.0 584 631 719 846 1099 1471 1893 2207 2392 2510
930.0 2600 2581 2542 2504 2062 1653 1327 1167 980 897
970.0 725 670 700 725 830 917 1104 1255 1456 1683
1010.0 1995 2329 2656 3032 3499 4164 4898 5704 6242 6775
1050.0 7355 8134 8922 9545 10000 9868 9386 8828 8850 8557
1090.0 7627 6164 4796 3572 2697 2079 1627 1329 1124 989
1130.0 889 841 791 786 777 771 814 886 990 1101
1170.0 1196 1262 1388 1529 1781 1991 2031 1997 2012 1930
1210.0 1971 1909 1753 1576 1407 1342 1252 1231 1221 1243
1250.0 1270 1306 1377 1464 1611 1740 1953 2205 2471 2603
1290.0 2624 2597 2728 2965 2888 2620 2267 2004 1801 1734
1330.0 1739 1815 1950 2051 2101 2089 2144 2073 2189 2326
1370.0 2385 2537 2787 2999 2985 2995 2890 2829 2954 2654
1410.0 2080 1641 1516 1571 1739 1683 1600 1789 1577 1828
1450.0 1858 1646 1341 1095 1091 893 837 753 630 566
1490.0 523 463 400 378 357 341 300 302 279 271
1530.0 231 228 220 226 189 188 176 191 189 157
1570.0 160 169 163 147 144 145 126 145 130 129
1610.0 123 147 131 136 132 120 127 140 123 145
1650.0 129 167 134 124 124 131 136 132 124 170
1690.0 130 135 157 173 140 143 155 158 155 142
1730.0 160 158 171 142 162 162 171 168 188 173
1770.0 180 171 135 131 115 114 111 109 96 103
1810.0 95 88 89 90 81 86 98 95 95 115
1850.0 95 94 103 101 99 110 93 87 105 98
1890.0 110 115 117 120 137 153 147 161 159 149
1930.0 154 153 142 131 128 114 103 105 91 95
1970.0 96 91 92 99 93 95 94 85 87 89
2010.0 87 84 89 92 84 97 91 92 95 98
2050.0 91 102 108 112 119 106 108 105 101 92
2090.0 95 97 95 105 112 111 118 130 123 134
2130.0 140 144 137 136 126 123 115 91 92 86
2170.0 67 58 61 61 56 63 62 66 70 75
2210.0 76 84 81 91 97 91 85 91 92 86
2250.0 91 84 87 95 88 83 88 89 89 86
2290.0 76 67 58 58 35 31 29 23 24 35
2330.0 33 43 57 46 53 51 25 25 100 94
2370.0 91 123 108 94 94 82 75 84 75 70
2410.0 80 78 69 74 71 70 78 84 85 81
2450.0 90 88 97 96 91 93 96 88 80 89
2490.0 77 79 80 73 78 82 77 79 82 81
2530.0 83 92 90 83 87 80 76 75 77 68
2570.0 72 65 56 60 53 53 64 62 59 64
2610.0 64 56 69 73 68 75 86 73 85 90
2650.0 81 78 81 79 85 97 104 116 136 135
2690.0 143 161 176 169 189 189 195 216 210 217
2730.0 239 235 225 226 230 219 234 231 221 226
2770.0 219 206 201 206 186 192 192 190 187 207
2810.0 222 248 278 293 331 374 427 509 622 719
2850.0 882 1057 1264 1526 1849 2100 2369 2593 2666 2906
2890.0 2845 2574 2576 2481 2443 2430 2537 2601 2706 2880
2930.0 3151 3670 3796 3716 3979 4144 4406 4646 4605 4278
2970.0 3874 3819 3910 3534 3077 2586 2206 1926 1763 1514
3010.0 1528 1495 1140 987 879 741 641 523 446 346
3050.0 298 213 188 163 150 140 136 121 97 131
3090.0 101 103 92 89 70 72 67 62 78 60
3130.0 72 60 70 55 83 68 62 66 69 51
3170.0 57 61 39 57 60 54 47 69 47 55
3210.0 74 66 73 61 62 45 65 65 55 58
3250.0 60 52 61 56 52 64 51 50 73 75
3290.0 56 84 83 75 81 69 60 55 60 37
3330.0 50 52 21 58 51 47 43 59 42 65
3370.0 63 54 56 59 32 50 45 56 41 65
3410.0 36 39 51 54 33 41 58 33 43 27
3450.0 39 81 33 29 111 97 87 98 82 111
3490.0 130 91 80 68 85 65 69 66 37 72
3530.0 68 55 75 79 23 41 79 41 61 96
3570.0 69 77 142 156 221 297 373 459 645 878
3610.0 1218 1725 2019 2098 2030 2072 2267 2488 2291 2088
3650.0 1921 1805 1745 1749 1599 1548 1572 1373 1149 974
3690.0 876 588 401 293 205 174 189 122 115 109
3730.0 112 136 144 157 142 181 169 113 183 127
3770.0 154 153 145 169 170 164 133 69 73 66
3810.0 66 40 18 68 50 44 29 21 30 51
3850.0 30 70 88 76 25 20 30 46 117 129
3890.0 45 50 45 50 51 101 122 171 68 34
3930.0 64 14 78 95 90 21 116 102 14 83
##END=
