##TITLE=2-Pentanone
##JCAMP-DX=4.24
##DATA TYPE=INFRARED SPECTRUM
##ORIGIN=Sadtler Research Labs Under US-EPA Contract
##OWNER=NIST Standard Reference Data Program
##CAS REGISTRY NO=107-87-9
##MOLFORM=C 5 H 10 O
##XUNITS=1/CM
##YUNITS=ABSORBANCE
##XFACTOR=1.0
##YFACTOR=0.000065115
##DELTAX=4.0
##FIRSTX=450.0
##LASTX=3966.0
##FIRSTY=0.013153
##MAXX=3966
##MINX=450
##MAXY=0.65115
##MINY=0
##NPOINTS=880
##XYDATA=(X++(Y..Y))
450.0 202 152 94 92 58 98 212 101 141 117
490.0 216 109 156 257 209 294 342 426 396 396
530.0 359 313 193 171 254 112 121 75 170 124
570.0 165 221 371 472 472 425 498 543 349 283
610.0 170 131 94 134 86 242 124 131 112 0
650.0 49 127 98 152 112 193 134 151 108 218
690.0 174 186 206 177 222 276 302 361 384 363
730.0 365 382 311 296 289 264 227 222 214 197
770.0 187 200 223 219 205 216 288 273 312 297
810.0 316 306 317 295 299 306 270 261 263 260
850.0 237 241 237 246 237 263 284 319 363 376
890.0 426 454 454 445 445 430 408 416 486 575
930.0 673 789 896 1024 1113 1188 1182 1131 1063 1007
970.0 885 742 657 580 575 554 491 529 513 538
1010.0 545 545 540 524 510 492 477 446 435 400
1050.0 401 391 396 388 402 430 469 533 598 676
1090.0 737 810 872 975 1091 1198 1278 1302 1313 1334
1130.0 1345 1288 1291 1424 1711 2126 2619 3115 3465 3680
1170.0 3791 3716 3481 3042 2568 2184 1898 1641 1441 1257
1210.0 1091 974 915 902 926 956 1005 1022 1032 1032
1250.0 997 984 960 955 948 947 936 939 948 949
1290.0 929 899 871 848 814 786 785 807 868 972
1330.0 1136 1348 1648 2038 2540 3115 3670 4107 4386 4439
1370.0 4216 3849 3276 2616 2091 1804 1648 1534 1457 1451
1410.0 1484 1520 1570 1616 1638 1661 1671 1695 1686 1710
1450.0 1779 1867 1947 1880 1790 1705 1579 1428 1217 1011
1490.0 836 699 592 507 478 448 394 390 363 346
1530.0 321 315 309 322 301 285 274 291 283 239
1570.0 241 239 236 221 219 205 203 210 188 198
1610.0 186 194 193 193 184 186 185 217 201 214
1650.0 223 261 252 269 322 356 442 519 634 797
1690.0 953 1239 1619 2196 2920 3938 5161 6663 8119 9315
1730.0 10000 9856 9604 9494 8299 6424 4691 3332 2312 1567
1770.0 1101 781 611 490 416 338 304 259 226 195
1810.0 171 155 127 126 111 108 91 89 81 74
1850.0 78 64 64 48 63 51 56 57 53 52
1890.0 55 59 52 56 51 56 55 58 61 53
1930.0 61 59 56 49 52 44 38 36 31 30
1970.0 30 29 23 24 24 26 26 27 28 30
2010.0 28 24 31 28 29 25 24 21 19 14
2050.0 10 20 15 20 12 18 12 6 6 6
2090.0 12 14 31 28 33 32 36 33 30 36
2130.0 34 34 35 33 28 30 30 25 28 26
2170.0 27 27 27 19 24 26 26 26 24 23
2210.0 26 18 28 27 22 25 18 17 15 17
2250.0 18 15 11 16 27 17 19 23 21 16
2290.0 16 18 11 25 6 14 12 6 9 19
2330.0 19 44 39 46 57 31 4 4 60 86
2370.0 139 137 105 88 58 43 37 29 29 29
2410.0 31 32 32 34 31 23 29 28 36 26
2450.0 24 27 29 28 23 27 27 28 33 38
2490.0 32 30 33 28 36 32 40 36 44 43
2530.0 38 37 45 50 44 54 44 38 46 45
2570.0 42 35 42 48 53 50 56 59 65 70
2610.0 66 76 73 79 72 77 72 85 90 89
2650.0 92 87 80 66 76 74 87 87 91 94
2690.0 97 87 74 93 90 97 100 107 110 123
2730.0 138 145 151 162 169 179 181 189 189 180
2770.0 185 184 186 196 218 225 251 272 311 335
2810.0 369 399 436 458 501 537 588 629 676 748
2850.0 816 932 1038 1194 1401 1692 2096 2590 2986 3283
2890.0 3562 3735 3835 3861 3903 3930 3958 4007 4106 4201
2930.0 4345 4638 4997 5305 5459 5701 5955 6253 6633 7069
2970.0 7476 7458 7324 7063 6368 5432 4602 3672 2892 2329
3010.0 1888 1604 1371 1176 1004 859 723 647 591 557
3050.0 513 492 469 448 443 423 394 384 371 364
3090.0 335 314 304 270 263 245 225 200 195 177
3130.0 188 178 172 160 179 177 189 169 161 172
3170.0 164 164 150 154 139 140 139 128 133 113
3210.0 121 107 104 87 97 67 71 93 73 77
3250.0 93 89 57 78 90 76 45 56 59 35
3290.0 29 47 58 62 63 65 61 37 59 44
3330.0 36 41 41 46 41 54 39 52 63 65
3370.0 47 55 60 80 42 64 53 53 59 64
3410.0 67 90 103 118 158 201 188 187 211 240
3450.0 241 219 197 177 173 154 107 96 58 58
3490.0 58 29 34 56 27 12 45 21 21 17
3530.0 12 22 29 20 33 19 34 27 33 7
3570.0 59 80 59 53 38 57 43 35 48 7
3610.0 41 42 41 34 48 65 94 59 69 83
3650.0 101 113 107 120 82 92 88 93 50 38
3690.0 71 60 44 38 51 33 88 70 52 32
3730.0 68 37 51 50 81 31 50 41 66 64
3770.0 44 52 23 48 47 47 52 46 58 79
3810.0 66 49 55 78 119 28 79 50 50 30
3850.0 71 76 67 52 49 51 59 82 88 87
3890.0 78 109 64 95 47 61 74 91 72 95
3930.0 83 97 108 90 29 65 131 83 90 119
##END=
