##TITLE=Ethylenediamine
##JCAMP-DX=4.24
##DATA TYPE=INFRARED SPECTRUM
##ORIGIN=Sadtler Research Labs Under US-EPA Contract
##OWNER=NIST Standard Reference Data Program
##CAS REGISTRY NO=107-15-3
##MOLFORM=C 2 H 8 N 2
##XUNITS=1/CM
##YUNITS=ABSORBANCE
##XFACTOR=1.0
##YFACTOR=0.000101285
##DELTAX=4.0
##FIRSTX=450.0
##LASTX=3966.0
##FIRSTY=0.038995
##MAXX=3966
##MINX=450
##MAXY=1.01285
##MINY=0
##NPOINTS=880
##XYDATA=(X++(Y..Y))
450.0 385 203 79 110 304 381 657 651 556 600
490.0 475 655 719 720 659 615 526 383 277 250
530.0 162 197 166 76 87 43 67 18 72 149
570.0 88 152 168 107 143 130 180 283 259 278
610.0 284 302 345 387 453 392 477 548 576 663
650.0 663 673 702 817 835 1125 1084 1160 1310 1371
690.0 1517 1775 1995 2253 2514 2814 3253 3779 4320 4754
730.0 5370 5914 6878 7287 8447 9017 9407 9417 9872 9516
770.0 9964 10000 9589 9576 8811 8297 7705 7186 6713 6350
810.0 5829 4997 4753 4316 3835 3434 3116 2933 2861 2865
850.0 2896 2879 2798 2818 2843 2704 2678 2575 2305 1971
890.0 1676 1435 1284 1161 1044 960 854 752 706 660
930.0 623 608 586 600 616 640 684 706 742 747
970.0 743 707 707 682 668 642 637 638 658 725
1010.0 825 911 992 1073 1161 1254 1375 1492 1567 1594
1050.0 1535 1446 1353 1318 1297 1168 982 824 728 726
1090.0 721 708 700 696 712 695 616 544 439 362
1130.0 261 206 156 119 70 45 32 18 15 6
1170.0 0 7 13 9 12 11 18 20 12 25
1210.0 20 17 26 27 34 36 46 50 60 73
1250.0 84 93 107 117 139 169 187 214 240 260
1290.0 280 283 311 321 331 342 351 367 384 412
1330.0 481 555 696 809 900 1022 1119 1168 1239 1220
1370.0 1204 1196 1090 1015 925 795 656 550 453 381
1410.0 346 297 306 277 257 271 287 395 419 513
1450.0 592 655 713 765 773 777 768 755 675 590
1490.0 575 487 436 393 371 432 376 375 379 361
1530.0 389 375 380 386 424 472 448 495 535 586
1570.0 655 731 848 968 1139 1336 1566 1845 2142 2435
1610.0 2682 2861 2912 2945 2933 2841 2697 2466 2182 1866
1650.0 1504 1225 993 792 657 520 432 356 278 249
1690.0 182 173 134 129 113 92 103 92 81 80
1730.0 78 85 78 48 86 68 87 74 61 83
1770.0 84 87 79 95 116 104 121 116 134 133
1810.0 114 142 120 135 134 123 116 113 110 117
1850.0 105 86 87 78 74 75 59 57 53 51
1890.0 49 48 44 40 32 34 34 35 34 24
1930.0 20 18 21 20 22 15 18 19 11 21
1970.0 19 11 16 13 17 19 22 19 16 21
2010.0 16 16 20 16 15 15 19 20 18 23
2050.0 18 24 26 23 28 29 26 28 28 33
2090.0 29 29 29 26 26 24 28 28 26 27
2130.0 25 21 23 20 19 19 15 16 15 12
2170.0 11 14 10 9 10 12 12 12 9 10
2210.0 7 7 6 7 10 7 3 6 5 10
2250.0 3 1 4 2 3 5 4 4 4 7
2290.0 13 15 22 27 31 33 37 37 37 36
2330.0 26 31 22 19 27 36 31 33 27 11
2370.0 18 18 21 17 8 2 0 0 1 4
2410.0 8 9 9 11 14 13 13 18 19 20
2450.0 21 20 21 18 20 21 22 24 18 16
2490.0 23 21 22 25 22 19 26 30 31 31
2530.0 34 35 40 42 50 54 53 59 63 67
2570.0 72 74 78 85 87 90 90 104 106 111
2610.0 111 123 132 139 152 160 178 192 201 222
2650.0 240 256 279 297 314 340 355 378 404 425
2690.0 449 470 501 532 554 590 627 658 679 702
2730.0 722 747 767 779 779 767 754 745 747 752
2770.0 766 786 817 867 934 1019 1128 1265 1423 1608
2810.0 1822 2067 2348 2667 3031 3429 3825 4216 4616 4981
2850.0 5284 5529 5710 5838 5904 5869 5801 5704 5589 5507
2890.0 5483 5504 5581 5743 5976 6269 6681 7140 7661 7935
2930.0 7979 7953 7801 7463 7092 6596 5974 5334 4552 3828
2970.0 3156 2574 2054 1610 1245 964 740 568 442 345
3010.0 280 231 190 163 140 122 117 103 93 84
3050.0 82 76 68 62 64 62 62 59 60 53
3090.0 46 49 38 36 32 34 34 28 21 27
3130.0 27 23 27 28 26 30 30 30 31 36
3170.0 30 43 46 40 36 33 39 36 42 43
3210.0 39 47 44 41 40 48 45 38 43 41
3250.0 38 39 37 36 27 25 38 27 30 23
3290.0 33 36 39 35 42 50 69 93 114 149
3330.0 188 218 246 259 274 277 273 278 260 247
3370.0 222 187 182 174 180 187 210 223 238 252
3410.0 247 263 271 268 231 222 199 165 140 119
3450.0 95 74 59 70 60 37 32 24 24 30
3490.0 27 28 8 33 33 27 23 21 26 50
3530.0 23 17 24 23 30 34 29 31 16 59
3570.0 62 32 24 19 50 50 58 13 40 16
3610.0 62 43 31 42 38 56 48 19 29 21
3650.0 22 33 7 17 8 23 22 30 10 16
3690.0 13 11 17 31 14 23 31 24 27 47
3730.0 16 43 28 47 45 18 8 19 20 17
3770.0 8 16 11 10 24 3 0 0 3 13
3810.0 0 0 0 12 18 30 8 0 14 8
3850.0 26 2 40 24 41 38 0 14 35 63
3890.0 65 57 68 101 61 43 31 75 60 34
3930.0 50 43 84 67 58 41 47 22 70 48
##END=
