##TITLE=2-Propyn-1-ol
##JCAMP-DX=4.24
##DATA TYPE=INFRARED SPECTRUM
##ORIGIN=Sadtler Research Labs Under US-EPA Contract
##OWNER=NIST Standard Reference Data Program
##CAS REGISTRY NO=107-19-7
##MOLFORM=C 3 H 4 O
##XUNITS=1/CM
##YUNITS=ABSORBANCE
##XFACTOR=1.0
##YFACTOR=0.000068848
##DELTAX=4.0
##FIRSTX=450.0
##LASTX=3966.0
##FIRSTY=0.016455
##MAXX=3966
##MINX=450
##MAXY=0.68848
##MINY=0
##NPOINTS=880
##XYDATA=(X++(Y..Y))
450.0 239 230 230 261 299 310 289 285 299 317
490.0 287 317 370 407 437 532 556 641 725 799
530.0 801 833 733 694 558 687 826 850 792 780
570.0 709 619 637 699 777 765 864 1004 1061 1162
610.0 1419 1782 2376 3223 5115 5292 4381 7092 6910 6514
650.0 7134 7537 8251 5391 2934 1779 1834 1722 1482 1205
690.0 912 646 492 342 261 228 137 116 107 110
730.0 249 86 94 112 77 98 94 76 83 52
770.0 50 44 23 30 31 39 41 54 48 48
810.0 41 38 58 89 90 97 113 150 159 205
850.0 260 313 366 426 514 588 676 819 954 1081
890.0 1217 1278 1210 1076 1054 1270 1533 1602 1485 1305
930.0 1148 1037 947 896 866 868 826 810 791 849
970.0 876 1011 1121 1236 1373 1593 1860 2252 2862 3671
1010.0 4784 5965 7419 9123 10000 9875 9483 8626 8429 8365
1050.0 8685 7622 5713 3952 2772 2035 1627 1393 1233 1075
1090.0 930 808 708 700 707 648 613 535 465 427
1130.0 415 424 440 471 495 490 503 540 546 535
1170.0 502 487 506 513 527 540 573 624 673 768
1210.0 815 906 1018 1170 1346 1493 1629 1750 1801 1783
1250.0 1716 1702 1790 1853 1809 1764 1705 1603 1544 1652
1290.0 1579 1419 1429 1414 1318 1185 1033 915 872 894
1330.0 909 913 969 1077 1230 1398 1534 1705 1971 2255
1370.0 2587 2912 3190 3341 3294 3300 3214 3093 2998 2746
1410.0 2339 1932 1529 1131 838 646 524 478 386 354
1450.0 322 296 317 241 226 201 247 211 196 175
1490.0 183 136 136 112 145 133 88 92 108 72
1530.0 51 64 72 99 67 47 64 95 77 38
1570.0 52 35 58 33 25 26 25 24 28 13
1610.0 14 15 34 17 15 9 3 32 7 22
1650.0 22 89 8 14 15 32 25 29 40 71
1690.0 32 38 68 89 69 53 57 92 46 45
1730.0 53 105 93 117 162 171 157 165 167 150
1770.0 146 124 76 66 64 48 49 33 40 19
1810.0 18 18 12 3 21 12 9 2 3 23
1850.0 7 0 0 0 8 16 8 0 6 7
1890.0 15 9 10 9 10 18 17 26 32 34
1930.0 33 39 41 54 48 41 41 42 37 28
1970.0 35 21 29 23 25 24 30 30 30 39
2010.0 38 38 53 53 62 76 92 99 114 138
2050.0 148 155 156 148 150 136 136 129 121 107
2090.0 99 86 92 94 109 117 121 124 119 118
2130.0 104 103 97 90 71 52 38 27 24 20
2170.0 20 21 21 21 22 21 23 22 30 37
2210.0 34 33 36 36 36 36 37 37 43 43
2250.0 37 37 37 39 43 44 44 49 43 43
2290.0 43 43 51 43 51 59 50 45 59 50
2330.0 50 64 63 72 64 57 44 58 74 89
2370.0 96 82 92 87 80 66 65 65 65 65
2410.0 64 71 66 71 72 67 71 67 65 64
2450.0 58 57 51 51 44 50 50 50 50 50
2490.0 51 51 51 51 51 57 58 58 58 50
2530.0 50 51 54 54 55 57 58 56 57 58
2570.0 58 58 57 55 58 58 58 58 58 64
2610.0 63 64 64 57 72 71 71 71 71 71
2650.0 80 79 79 86 100 106 108 107 108 106
2690.0 107 101 92 102 93 93 93 93 93 93
2730.0 100 101 102 101 115 117 121 122 122 128
2770.0 120 136 143 137 144 151 151 166 182 194
2810.0 203 226 248 275 310 347 392 435 494 553
2850.0 621 689 772 862 983 1094 1195 1271 1323 1328
2890.0 1307 1358 1462 1557 1630 1651 1631 1636 1661 1693
2930.0 1744 1751 1730 1659 1557 1468 1388 1351 1272 1167
2970.0 1070 941 819 697 595 494 405 338 271 228
3010.0 183 149 125 98 79 68 58 50 51 43
3050.0 45 43 36 51 49 44 36 36 44 40
3090.0 34 37 35 30 36 36 36 30 35 37
3130.0 37 36 33 35 22 28 23 23 23 22
3170.0 22 29 23 23 23 23 26 25 23 23
3210.0 23 23 29 22 23 37 38 46 53 53
3250.0 62 77 91 119 142 178 244 319 400 526
3290.0 731 988 1314 1608 1921 2696 3470 4372 4472 3532
3330.0 3784 2817 3528 4230 3639 2413 1350 699 396 267
3370.0 215 188 172 143 136 112 86 88 71 67
3410.0 67 73 65 58 50 51 51 51 52 59
3450.0 70 77 81 79 83 80 84 94 100 94
3490.0 87 86 94 94 105 118 91 101 101 105
3530.0 102 87 93 94 101 106 95 93 87 104
3570.0 136 113 127 135 147 178 192 221 252 297
3610.0 364 423 476 560 626 745 851 992 1197 1361
3650.0 1512 1469 1318 1203 1287 1512 1577 1509 1331 1127
3690.0 957 796 671 582 479 420 360 294 255 219
3730.0 186 174 179 155 183 163 145 122 121 115
3770.0 114 109 114 115 109 126 129 128 156 144
3810.0 151 136 144 151 143 143 156 161 165 157
3850.0 161 187 166 158 150 151 143 130 135 128
3890.0 124 136 144 156 151 135 143 151 150 136
3930.0 136 136 137 138 154 179 9 22 22 22
##END=
