##TITLE=2-Propen-1-ol
##JCAMP-DX=4.24
##DATA TYPE=INFRARED SPECTRUM
##ORIGIN=Sadtler Research Labs Under US-EPA Contract
##OWNER=NIST Standard Reference Data Program
##CAS REGISTRY NO=107-18-6
##MOLFORM=C 3 H 6 O
##XUNITS=1/CM
##YUNITS=ABSORBANCE
##XFACTOR=1.0
##YFACTOR=0.000077698
##DELTAX=4.0
##FIRSTX=450.0
##LASTX=3966.0
##FIRSTY=0.025407
##MAXX=3966
##MINX=450
##MAXY=0.77698
##MINY=0
##NPOINTS=880
##XYDATA=(X++(Y..Y))
450.0 327 322 328 312 295 283 268 260 258 257
490.0 259 271 276 291 277 305 340 365 376 399
530.0 423 430 463 467 574 667 749 544 454 478
570.0 470 449 476 483 463 444 430 452 422 473
610.0 487 492 502 500 483 471 452 393 397 371
650.0 346 315 303 263 214 242 213 181 153 139
690.0 123 110 94 74 62 56 43 30 32 32
730.0 19 20 21 21 17 21 18 16 25 18
770.0 12 5 12 1 13 8 9 44 34 46
810.0 48 54 65 86 99 113 121 159 186 220
850.0 262 310 383 460 568 671 826 1006 1246 1538
890.0 1894 2266 2654 3072 3547 4050 4640 6005 5814 5272
930.0 5034 4942 4825 4604 4357 4116 3882 3701 3593 3651
970.0 3865 4167 4590 4970 5229 5552 5770 6030 6762 7576
1010.0 8337 9108 9759 10000 9765 9497 8609 8033 8106 7649
1050.0 6432 4942 3697 2830 2313 2043 1898 1840 1869 1931
1090.0 2026 2138 2225 2271 2310 2350 2397 2401 2377 2291
1130.0 2185 1949 1781 1664 1500 1356 1244 1180 1148 1150
1170.0 1193 1240 1293 1335 1398 1486 1537 1602 1654 1673
1210.0 1655 1637 1595 1535 1453 1372 1278 1197 1126 1061
1250.0 1005 956 931 911 885 866 848 843 850 864
1290.0 881 900 917 946 973 996 1013 1040 1085 1127
1330.0 1214 1291 1390 1514 1696 1920 2153 2339 2456 2428
1370.0 2532 2477 2452 2503 2341 2150 2056 1996 2001 2072
1410.0 2158 2279 2253 2098 2042 2045 1938 1926 1783 1516
1450.0 1220 993 820 734 666 621 595 548 502 445
1490.0 383 309 268 226 229 156 147 143 134 115
1530.0 115 141 149 126 112 119 130 155 82 97
1570.0 105 94 78 79 74 74 80 81 100 114
1610.0 133 167 211 262 326 401 475 475 479 493
1650.0 474 456 454 464 386 287 190 115 100 65
1690.0 53 46 49 28 35 29 39 44 35 44
1730.0 65 91 89 105 111 124 105 112 98 73
1770.0 60 39 28 25 26 23 14 20 19 26
1810.0 38 52 73 106 144 173 202 232 261 288
1850.0 307 321 322 316 309 283 243 204 165 125
1890.0 93 64 49 41 29 28 28 34 35 35
1930.0 36 41 42 44 55 59 65 72 72 86
1970.0 86 86 86 88 93 85 91 80 74 74
2010.0 74 67 74 67 68 81 87 93 100 102
2050.0 106 100 93 95 87 82 69 56 50 37
2090.0 29 25 22 19 15 13 13 13 11 7
2130.0 5 7 1 1 1 1 1 1 4 1
2170.0 1 1 1 1 1 1 1 1 3 0
2210.0 6 5 7 7 7 8 15 15 14 15
2250.0 15 15 15 16 19 16 20 22 24 23
2290.0 24 26 27 26 28 28 36 31 36 36
2330.0 32 32 43 37 44 50 44 48 47 54
2370.0 52 49 51 54 52 59 50 50 58 51
2410.0 58 51 51 51 49 49 46 46 44 41
2450.0 41 41 41 40 40 40 40 40 40 40
2490.0 49 40 43 48 48 48 47 47 47 47
2530.0 45 48 48 40 45 42 41 36 43 43
2570.0 42 48 42 50 44 48 52 49 49 54
2610.0 48 48 56 55 62 66 67 69 71 71
2650.0 79 77 87 80 86 93 99 107 112 119
2690.0 120 132 138 148 157 161 176 187 194 200
2730.0 213 220 227 232 244 250 267 279 292 306
2770.0 312 325 338 357 377 398 417 450 478 512
2810.0 564 638 718 820 937 1070 1240 1427 1656 1919
2850.0 2236 2567 2875 3092 3251 3401 3579 3724 3766 3848
2890.0 3845 3794 3741 3671 3616 3551 3490 3394 3329 3276
2930.0 3189 3140 2984 2891 2764 2631 2473 2334 2211 2124
2970.0 2079 2052 2040 2020 1972 1890 1858 1791 1854 1925
3010.0 1870 1722 1568 1463 1346 1270 1227 1171 1096 1016
3050.0 973 946 966 1019 1100 1218 1378 1561 1742 1812
3090.0 1755 1775 1662 1760 1613 1461 1264 1029 795 606
3130.0 444 325 247 189 144 112 90 70 57 50
3170.0 43 31 37 32 25 21 20 18 18 18
3210.0 18 18 10 5 10 12 10 2 8 12
3250.0 2 10 10 10 15 10 3 16 8 9
3290.0 10 12 6 5 11 10 7 1 1 7
3330.0 7 7 8 13 7 11 22 34 31 38
3370.0 44 35 42 48 54 42 49 46 57 55
3410.0 59 66 64 56 65 71 71 70 70 59
3450.0 68 65 63 55 62 70 66 61 69 66
3490.0 67 68 72 64 59 66 60 53 59 53
3530.0 64 71 70 65 66 60 70 65 80 74
3570.0 85 94 92 104 135 149 165 187 231 270
3610.0 325 394 477 555 662 779 930 1076 1228 1386
3650.0 1570 1707 1766 1843 1845 1794 1743 1621 1473 1349
3690.0 1122 901 716 562 426 317 240 178 144 122
3730.0 119 96 90 88 96 80 92 78 73 73
3770.0 64 56 66 62 65 65 60 60 79 83
3810.0 85 86 89 105 110 108 115 119 127 117
3850.0 117 130 142 142 144 131 137 137 134 135
3890.0 127 127 114 118 112 113 98 95 87 86
3930.0 74 70 69 59 55 48 51 52 51 56
##END=
