##TITLE=Ethene, methoxy-
##JCAMP-DX=4.24
##DATA TYPE=INFRARED SPECTRUM
##ORIGIN=Sadtler Research Labs Under US-EPA Contract
##OWNER=NIST Standard Reference Data Program
##CAS REGISTRY NO=107-25-5
##MOLFORM=C 3 H 6 O
##XUNITS=1/CM
##YUNITS=ABSORBANCE
##XFACTOR=1.0
##YFACTOR=0.000076691
##DELTAX=4.0
##FIRSTX=450.0
##LASTX=3966.0
##FIRSTY=0.000000
##MAXX=3966
##MINX=450
##MAXY=0.76691
##MINY=0
##NPOINTS=880
##XYDATA=(X++(Y..Y))
450.0 0 167 237 213 218 158 274 197 232 237
490.0 221 229 190 233 177 221 225 242 223 212
530.0 239 238 217 202 258 242 254 261 305 287
570.0 324 349 321 327 290 310 312 386 382 382
610.0 315 289 289 258 268 254 255 201 244 224
650.0 231 227 251 270 259 290 298 293 291 318
690.0 309 351 329 431 383 304 321 308 310 300
730.0 464 400 268 341 296 336 339 404 439 528
770.0 622 740 888 1047 1234 1339 1541 1664 1921 1922
810.0 2358 3677 3230 2705 2578 2429 2469 2488 2442 2354
850.0 2236 2148 2112 2110 2145 2182 2192 2195 2155 2081
890.0 2023 2012 2100 2092 2021 1781 1556 1368 1258 1205
930.0 1188 1205 1234 1389 1221 1206 1272 1473 2050 2105
970.0 1164 1269 1322 1392 1520 1711 1900 1989 1973 1761
1010.0 1750 2000 1666 2056 2164 2033 1737 1395 1139 999
1050.0 932 926 977 1046 1142 1236 1333 1372 1366 1354
1090.0 1382 1432 1512 1536 1475 1470 1606 1871 2170 2380
1130.0 2382 2287 2180 2380 2881 2769 2302 1897 1644 1468
1170.0 1575 1718 1879 2112 2467 3156 4236 5732 7243 8359
1210.0 8597 8150 9047 10000 7754 8765 9619 8434 6554 4575
1250.0 3537 2655 1953 1378 1022 859 695 648 567 611
1290.0 619 850 1154 1610 2002 2217 2147 1671 2513 2072
1330.0 1740 2044 2022 1774 1387 957 691 496 455 417
1370.0 459 508 558 574 552 596 611 604 623 643
1410.0 617 590 565 556 585 640 731 801 923 1025
1450.0 1292 1550 1740 1825 1638 1430 1344 1112 1091 1009
1490.0 889 772 708 643 629 562 579 606 546 578
1530.0 575 567 532 502 473 472 454 466 520 565
1570.0 688 826 1144 1462 2006 2679 3535 4395 5021 5405
1610.0 5298 6054 6282 5788 7425 8087 8024 7108 6164 5566
1650.0 5000 5158 5344 3879 3041 2767 2297 1900 1419 1053
1690.0 807 644 534 400 378 315 309 284 304 292
1730.0 304 323 318 329 321 346 344 370 371 373
1770.0 348 326 325 304 311 291 298 258 259 233
1810.0 223 210 209 209 195 202 189 204 184 204
1850.0 203 221 231 249 257 260 286 287 310 316
1890.0 334 322 331 328 332 322 314 312 289 284
1930.0 275 283 267 261 255 245 241 235 242 226
1970.0 234 226 223 215 220 221 228 245 240 243
2010.0 238 249 247 252 237 226 218 214 215 212
2050.0 221 217 228 231 240 257 281 302 328 359
2090.0 375 402 413 418 417 418 414 397 388 356
2130.0 323 274 249 237 233 229 233 232 227 231
2170.0 231 233 228 244 241 245 250 256 253 249
2210.0 256 250 255 241 246 234 228 215 206 199
2250.0 197 192 185 185 184 183 180 180 178 176
2290.0 174 174 170 171 172 169 167 164 172 163
2330.0 163 164 164 163 183 172 162 163 163 163
2370.0 163 180 193 188 193 186 190 180 190 188
2410.0 186 187 190 194 194 196 193 202 195 208
2450.0 209 210 214 211 217 211 217 224 232 238
2490.0 248 247 249 253 254 253 249 259 266 266
2530.0 253 246 234 232 228 220 229 223 224 208
2570.0 206 197 197 193 199 202 208 212 207 218
2610.0 213 217 217 216 225 216 213 211 218 216
2650.0 215 208 212 206 206 206 198 205 202 204
2690.0 199 206 203 206 204 204 204 206 210 209
2730.0 212 204 214 213 220 218 223 234 231 237
2770.0 239 257 263 278 286 304 331 362 412 483
2810.0 580 679 802 889 966 1018 1143 1283 1382 1413
2850.0 1405 1408 1367 1315 1305 1355 1336 1266 1180 1123
2890.0 1123 1161 1243 1351 1511 1686 1902 2036 2257 2430
2930.0 2571 2712 2754 2769 2736 2930 2886 3303 3207 2686
2970.0 2281 2039 1908 1846 1846 1950 2073 2150 2129 2003
3010.0 1701 1944 1884 1544 1748 1607 1396 1141 948 828
3050.0 756 745 727 752 736 750 737 719 682 644
3090.0 666 691 706 712 738 774 824 826 756 724
3130.0 830 668 735 810 738 624 486 387 334 306
3170.0 292 269 272 252 251 241 244 233 229 232
3210.0 230 221 222 217 212 213 216 221 208 216
3250.0 209 212 211 213 218 208 209 205 194 204
3290.0 203 200 201 210 202 198 208 207 206 206
3330.0 211 207 200 198 204 197 199 201 197 188
3370.0 197 193 197 189 192 197 193 191 194 194
3410.0 194 193 193 200 194 195 196 186 192 193
3450.0 191 196 197 197 193 194 191 194 194 194
3490.0 189 196 188 190 188 193 198 191 191 189
3530.0 195 193 183 189 190 192 186 196 188 197
3570.0 188 197 196 187 198 195 211 188 204 170
3610.0 189 196 193 208 198 196 195 184 198 191
3650.0 198 197 185 205 165 208 190 227 192 196
3690.0 209 190 191 198 193 205 191 188 204 184
3730.0 198 192 204 188 245 191 220 193 191 189
3770.0 193 188 195 193 197 192 190 215 191 218
3810.0 201 196 202 198 193 200 204 210 210 191
3850.0 224 203 198 196 205 209 187 202 203 218
3890.0 197 214 188 207 207 216 206 195 213 213
3930.0 209 195 200 182 198 198 201 202 204 224
##END=
