##TITLE=1-Hexyn-3-ol, 3,5-dimethyl-
##JCAMP-DX=4.24
##DATA TYPE=INFRARED SPECTRUM
##ORIGIN=Sadtler Research Labs Under US-EPA Contract
##OWNER=NIST Standard Reference Data Program
##CAS REGISTRY NO=107-54-0
##MOLFORM=C 8 H 14 O
##XUNITS=1/CM
##YUNITS=ABSORBANCE
##XFACTOR=1.0
##YFACTOR=0.000095978
##DELTAX=4.0
##FIRSTX=450.0
##LASTX=3966.0
##FIRSTY=0.039159
##MAXX=3966
##MINX=450
##MAXY=0.95978
##MINY=0
##NPOINTS=880
##XYDATA=(X++(Y..Y))
450.0 408 285 305 226 142 234 114 101 211 93
490.0 77 64 113 47 57 225 49 64 190 228
530.0 225 229 316 365 460 715 998 1064 1143 960
570.0 814 668 515 468 367 420 548 620 704 756
610.0 768 920 1568 2720 3906 5331 6123 6159 4590 4121
650.0 4699 4879 4162 2799 2037 1229 637 370 252 198
690.0 223 105 153 209 265 399 397 424 403 305
730.0 348 128 199 244 504 175 209 142 71 137
770.0 71 47 61 54 65 49 61 42 36 67
810.0 117 118 112 162 181 262 267 291 246 287
850.0 340 448 530 570 546 472 404 321 251 241
890.0 223 259 331 453 664 949 1345 1770 2128 2368
930.0 2379 2235 1945 1550 1183 868 652 508 458 480
970.0 513 546 571 572 526 438 380 335 314 344
1010.0 407 522 693 929 1226 1533 1784 1980 2025 1996
1050.0 1914 1787 1634 1481 1343 1225 1160 1174 1221 1312
1090.0 1383 1449 1484 1468 1519 1536 1490 1484 1585 1720
1130.0 1924 2196 2489 2833 3105 3354 3537 3659 3708 3715
1170.0 3573 3234 2763 2270 1874 1592 1390 1242 1124 1051
1210.0 999 960 949 952 966 1013 1087 1221 1471 1836
1250.0 2291 2667 2739 2648 2442 2135 1845 1699 1668 1742
1290.0 1813 1822 1919 2086 2182 2247 2361 2383 2291 2219
1330.0 2164 2104 2064 2043 2102 2172 2276 2402 2541 2668
1370.0 2704 2716 2628 2401 2133 1829 1438 1153 858 636
1410.0 530 457 475 472 521 605 676 830 962 1131
1450.0 1292 1443 1529 1625 1589 1609 1500 1260 1014 763
1490.0 556 389 305 244 211 193 168 166 144 113
1530.0 115 67 100 51 76 57 43 87 44 72
1570.0 64 57 91 51 81 62 86 94 96 114
1610.0 74 110 74 105 101 96 114 107 91 107
1650.0 76 90 71 50 65 48 68 56 86 77
1690.0 105 107 128 140 123 138 133 146 132 130
1730.0 141 125 149 114 122 115 108 106 100 97
1770.0 100 107 103 95 104 90 111 87 97 79
1810.0 68 59 36 43 16 26 17 17 21 13
1850.0 11 17 30 25 21 26 16 23 18 19
1890.0 15 15 15 16 14 20 13 19 16 18
1930.0 17 11 11 5 14 7 13 7 13 11
1970.0 14 15 17 16 18 18 12 14 10 9
2010.0 13 8 8 5 6 8 8 6 3 1
2050.0 2 1 6 0 2 3 8 12 13 17
2090.0 20 18 25 28 30 35 37 34 31 23
2130.0 20 11 12 8 5 4 7 9 5 8
2170.0 6 4 4 9 15 13 18 23 26 24
2210.0 22 21 17 12 16 12 6 12 12 12
2250.0 15 15 19 21 25 26 26 28 31 36
2290.0 37 40 46 43 45 61 47 56 50 47
2330.0 58 61 72 40 102 11 78 43 127 118
2370.0 92 101 73 61 44 29 26 25 24 27
2410.0 31 31 33 36 35 37 36 30 30 30
2450.0 28 27 23 22 24 20 17 21 25 22
2490.0 19 20 24 25 25 28 27 28 26 29
2530.0 27 27 32 31 32 31 33 32 33 37
2570.0 36 37 45 44 49 50 52 53 62 64
2610.0 65 64 63 67 68 73 72 67 71 75
2650.0 77 76 74 78 81 88 92 91 89 92
2690.0 95 97 95 93 96 102 120 134 161 182
2730.0 198 210 209 192 175 159 151 145 148 156
2770.0 163 169 172 175 171 173 182 190 210 234
2810.0 260 301 333 364 398 434 480 532 606 689
2850.0 761 831 934 1088 1368 1900 2580 3182 3547 3577
2890.0 3319 2968 2720 2786 3115 3552 4033 4437 4811 5290
2930.0 5840 6418 6804 6902 6777 6744 7148 8034 9275 10000
2970.0 9472 8556 7452 6540 5954 5538 4957 4005 2944 1995
3010.0 1286 829 570 419 324 265 227 197 175 164
3050.0 148 139 132 131 134 135 135 131 128 123
3090.0 118 112 114 103 104 103 103 103 105 110
3130.0 107 113 118 118 122 118 127 131 130 131
3170.0 139 142 139 138 142 137 134 129 129 130
3210.0 121 113 109 99 95 89 92 88 85 77
3250.0 87 77 79 84 99 119 153 214 261 338
3290.0 445 635 903 1164 1428 1817 2519 3473 4275 4587
3330.0 4408 3667 2227 1075 528 347 271 236 207 171
3370.0 146 102 94 91 88 87 92 83 89 84
3410.0 83 92 74 64 59 67 50 46 44 33
3450.0 40 39 46 41 48 52 61 43 53 47
3490.0 57 49 55 50 49 48 42 52 48 42
3530.0 46 44 39 41 33 30 29 35 32 29
3570.0 20 49 35 73 23 66 48 70 54 75
3610.0 72 96 151 226 463 770 1212 1563 1853 1772
3650.0 1441 923 677 343 246 108 93 85 36 73
3690.0 11 61 24 44 54 26 35 40 15 43
3730.0 22 9 35 25 80 12 107 33 75 48
3770.0 65 81 67 76 65 77 93 65 116 65
3810.0 127 60 120 60 92 52 77 56 50 64
3850.0 64 93 51 73 64 86 110 87 76 82
3890.0 69 90 44 67 54 90 73 82 98 102
3930.0 138 87 113 128 78 79 100 103 68 75
##END=
