##TITLE=Acetaldoxime
##JCAMP-DX=4.24
##DATA TYPE=INFRARED SPECTRUM
##ORIGIN=Sadtler Research Labs Under US-EPA Contract
##OWNER=NIST Standard Reference Data Program
##CAS REGISTRY NO=107-29-9
##MOLFORM=C 2 H 5 N O
##XUNITS=1/CM
##YUNITS=ABSORBANCE
##XFACTOR=1.0
##YFACTOR=0.000080127
##DELTAX=4.0
##FIRSTX=450.0
##LASTX=3966.0
##FIRSTY=0.068589
##MAXX=3966
##MINX=450
##MAXY=0.80127
##MINY=0
##NPOINTS=880
##XYDATA=(X++(Y..Y))
450.0 856 649 860 909 1128 1383 1583 1905 1889 1636
490.0 1610 1227 1003 934 926 984 1059 682 751 535
530.0 437 462 393 259 807 656 699 624 868 577
570.0 579 699 407 553 304 168 64 169 146 236
610.0 18 134 480 257 411 604 620 1113 1200 1276
650.0 1377 1536 1252 1313 1185 1131 1602 1535 1527 1379
690.0 1281 1255 1256 1205 1308 1448 1369 1301 1275 1176
730.0 1311 1196 1230 1020 911 645 636 427 384 452
770.0 147 115 248 127 261 333 371 640 879 859
810.0 1115 1364 1659 2361 2453 2850 3183 3041 2938 3277
850.0 3241 3668 4427 4464 5120 5714 5913 6257 6256 6468
890.0 6564 6728 6716 7655 7894 7063 5954 4869 4218 4117
930.0 3827 3711 3726 3444 3335 3397 3770 4617 5671 6272
970.0 6592 5938 5427 5655 6210 7184 6322 4010 2164 1144
1010.0 604 459 424 302 266 260 322 295 315 280
1050.0 340 349 313 276 302 332 404 461 488 764
1090.0 1055 1330 1839 2258 2455 2575 2368 2306 2063 1788
1130.0 1568 1404 1129 1073 856 693 723 818 1055 1455
1170.0 1817 2360 3117 3734 3819 3372 2524 1676 1009 657
1210.0 605 620 705 810 1030 1215 1585 1938 2170 2421
1250.0 2730 3085 3581 3415 3299 3553 3857 4044 4080 3669
1290.0 3371 3196 3213 3286 3706 4003 4206 4297 4300 4372
1330.0 4123 3712 3764 4240 4641 5284 5215 5134 4890 4363
1370.0 4187 4012 4250 4550 4334 3855 3354 3006 2524 2079
1410.0 1877 1654 1463 1263 1103 1149 1120 1158 1171 1200
1450.0 1302 1291 1165 1030 1033 909 858 752 683 681
1490.0 650 557 513 483 479 458 412 370 410 348
1530.0 355 302 302 231 264 206 176 196 127 135
1570.0 104 98 99 94 54 76 78 57 97 58
1610.0 59 157 85 120 153 191 231 291 314 418
1650.0 462 408 439 423 449 479 395 385 337 261
1690.0 172 117 40 25 77 74 69 69 113 104
1730.0 119 93 141 183 174 206 226 235 306 257
1770.0 263 272 296 227 238 169 189 212 156 136
1810.0 126 107 107 65 75 93 118 99 138 150
1850.0 161 187 172 166 173 201 130 138 118 105
1890.0 92 38 26 54 18 38 26 23 46 69
1930.0 9 59 62 69 82 53 60 74 72 54
1970.0 68 64 96 82 54 78 82 61 60 58
2010.0 63 61 86 34 62 66 58 48 42 31
2050.0 70 50 35 53 51 53 70 22 60 80
2090.0 49 50 46 54 64 61 19 65 40 55
2130.0 37 24 44 49 21 21 37 43 35 49
2170.0 19 48 51 39 19 49 57 55 63 25
2210.0 70 63 48 60 49 61 83 50 45 68
2250.0 65 59 70 32 75 54 51 47 56 63
2290.0 73 37 36 82 61 47 67 55 84 82
2330.0 76 39 108 94 34 60 17 126 95 58
2370.0 76 106 61 79 39 27 62 53 35 73
2410.0 52 75 67 58 59 96 75 78 77 72
2450.0 114 77 72 86 117 100 112 116 116 149
2490.0 148 114 138 136 149 127 119 96 137 76
2530.0 74 83 63 97 90 52 89 115 73 82
2570.0 88 88 128 94 98 125 120 163 157 194
2610.0 221 274 243 248 249 254 261 259 252 285
2650.0 299 293 266 311 293 329 279 266 291 249
2690.0 216 191 161 167 190 135 175 209 212 227
2730.0 234 216 258 226 234 216 231 234 275 246
2770.0 311 359 360 363 390 379 376 375 323 335
2810.0 408 409 439 474 526 618 680 755 856 929
2850.0 973 1050 1002 1081 1121 1066 1026 1068 1081 1148
2890.0 1137 1097 1108 1161 1198 1370 1581 1957 2359 2601
2930.0 2649 2658 2760 2920 3209 3196 3069 2842 2527 2379
2970.0 2153 1981 1934 1967 1999 2053 2152 2137 2230 2296
3010.0 2312 2155 1932 1642 1579 1489 1449 1496 1458 1460
3050.0 1404 1272 1258 1212 1236 1214 1077 924 823 709
3090.0 550 499 409 380 315 289 213 255 238 188
3130.0 185 177 186 197 115 155 148 145 120 146
3170.0 77 138 117 27 93 63 76 75 35 58
3210.0 107 60 70 59 67 113 111 57 150 143
3250.0 162 125 183 146 199 207 168 233 257 214
3290.0 190 160 161 196 150 103 166 118 114 130
3330.0 50 130 124 99 75 112 78 163 87 75
3370.0 126 114 105 104 44 106 105 81 49 93
3410.0 53 78 53 54 83 94 53 35 103 75
3450.0 117 82 57 119 115 91 108 67 119 121
3490.0 90 46 147 76 115 62 51 103 96 67
3530.0 79 74 93 100 70 72 148 115 121 160
3570.0 179 183 209 226 214 343 372 461 552 750
3610.0 1039 1469 2053 3098 4495 6172 8239 9742 9974 10000
3650.0 8597 9939 8569 8961 8751 7148 4975 3095 1852 1033
3690.0 674 442 375 339 260 195 180 198 153 119
3730.0 98 62 127 70 39 22 67 27 33 13
3770.0 17 24 13 13 13 13 18 13 13 13
3810.0 32 13 13 21 21 53 10 17 21 61
3850.0 34 35 20 60 64 13 13 15 13 13
3890.0 13 13 13 21 12 13 18 16 63 30
3930.0 52 100 136 129 154 152 0 13 13 13
##END=
