##TITLE=Ethane, 1-bromo-2-chloro-
##JCAMP-DX=4.24
##DATA TYPE=INFRARED SPECTRUM
##ORIGIN=Sadtler Research Labs Under US-EPA Contract
##OWNER=NIST Standard Reference Data Program
##CAS REGISTRY NO=107-04-0
##MOLFORM=C 2 H 4 Br Cl
##XUNITS=1/CM
##YUNITS=ABSORBANCE
##XFACTOR=1.0
##YFACTOR=0.000064499
##DELTAX=4.0
##FIRSTX=450.0
##LASTX=3966.0
##FIRSTY=0.004450
##MAXX=3966
##MINX=450
##MAXY=0.64499
##MINY=0
##NPOINTS=880
##XYDATA=(X++(Y..Y))
450.0 69 81 163 73 58 52 50 21 80 37
490.0 74 64 46 35 59 14 5 57 41 103
530.0 68 137 80 171 160 111 74 212 285 488
570.0 580 629 607 769 785 513 304 283 313 321
610.0 433 696 1269 2310 3923 5812 7523 9074 10000 7740
650.0 7259 4447 2305 2253 2499 2560 2130 1868 1680 1476
690.0 846 429 262 254 217 237 281 446 784 1391
730.0 2520 3845 5064 5048 5060 4512 1776 349 395 304
770.0 313 286 294 270 232 227 201 200 159 179
810.0 151 145 148 149 151 156 183 197 257 359
850.0 586 890 1196 1276 1174 1162 1035 732 492 401
890.0 344 321 302 277 293 345 391 411 415 412
930.0 460 450 399 350 320 267 203 166 137 113
970.0 99 87 78 87 88 90 92 107 109 118
1010.0 147 167 187 182 185 204 232 207 232 281
1050.0 317 288 302 256 140 122 112 126 131 141
1090.0 164 175 195 185 232 233 212 219 214 223
1130.0 222 198 198 196 194 198 209 228 244 274
1170.0 302 368 470 669 1056 1963 3553 5898 7229 6744
1210.0 7050 5571 2589 1143 741 657 596 572 564 654
1250.0 927 1581 2610 3114 2826 2563 3097 2274 1220 903
1290.0 906 1045 1100 942 839 942 885 613 420 298
1330.0 239 202 189 173 183 185 202 196 200 167
1370.0 152 131 125 113 122 140 143 177 205 275
1410.0 328 440 565 754 907 1051 1213 1227 1325 1211
1450.0 1177 1157 930 858 759 611 515 471 418 363
1490.0 347 287 247 189 175 139 105 85 81 68
1530.0 53 55 42 66 53 48 39 55 67 54
1570.0 53 45 53 42 42 38 37 23 29 27
1610.0 22 24 31 25 31 25 22 34 24 32
1650.0 38 46 50 32 35 35 42 31 29 47
1690.0 33 30 41 52 45 42 45 56 49 43
1730.0 47 63 61 59 67 70 80 85 98 102
1770.0 107 110 84 76 65 61 65 65 61 55
1810.0 54 48 40 32 35 38 35 29 38 43
1850.0 39 40 40 38 35 46 35 33 29 25
1890.0 24 31 24 22 26 37 38 37 44 47
1930.0 54 53 47 41 38 31 27 22 17 20
1970.0 16 24 22 21 17 24 20 19 24 28
2010.0 45 48 59 65 66 67 54 42 34 39
2050.0 37 43 40 42 35 39 32 28 26 33
2090.0 34 35 39 38 39 40 33 37 41 41
2130.0 37 40 43 42 42 44 42 50 49 53
2170.0 56 60 65 67 69 72 71 74 74 70
2210.0 68 66 68 65 60 58 52 51 46 40
2250.0 34 37 37 33 34 30 33 32 37 34
2290.0 35 26 18 17 7 0 5 6 2 3
2330.0 9 21 28 41 53 24 13 18 66 89
2370.0 113 109 97 83 69 68 68 66 63 61
2410.0 60 59 55 50 52 55 58 60 59 58
2450.0 59 60 58 53 56 53 52 53 56 52
2490.0 55 53 50 44 38 31 29 24 26 22
2530.0 21 21 17 17 16 18 20 23 22 22
2570.0 18 21 20 16 12 11 9 10 6 12
2610.0 16 12 16 18 21 19 24 27 33 41
2650.0 54 63 55 54 52 34 28 31 34 34
2690.0 40 50 42 40 42 40 35 40 42 54
2730.0 76 86 91 86 80 64 50 33 27 29
2770.0 30 22 28 22 28 29 26 32 30 32
2810.0 33 38 40 54 57 69 90 113 126 146
2850.0 169 169 176 183 200 221 259 272 315 380
2890.0 302 267 266 176 138 125 127 139 156 186
2930.0 241 313 414 534 682 826 940 1101 1305 1392
2970.0 1341 1372 1470 1472 1533 1679 1491 1362 1419 1064
3010.0 733 639 596 555 495 440 390 327 306 282
3050.0 208 197 172 146 127 113 101 87 83 75
3090.0 68 67 57 53 49 44 39 39 32 27
3130.0 22 25 21 22 23 21 19 21 21 24
3170.0 29 18 18 25 33 31 21 22 19 21
3210.0 23 18 20 17 15 27 22 25 32 23
3250.0 31 21 20 21 24 25 11 15 19 18
3290.0 19 17 20 17 20 18 12 21 24 19
3330.0 19 24 20 27 26 25 27 24 21 24
3370.0 22 25 18 16 23 21 20 22 20 26
3410.0 20 26 28 24 18 8 19 26 23 16
3450.0 17 26 22 18 16 15 28 19 5 8
3490.0 12 9 13 14 6 17 13 3 14 1
3530.0 11 13 11 13 10 25 22 15 12 14
3570.0 18 21 21 18 8 18 25 21 26 5
3610.0 20 26 26 39 31 45 65 45 35 13
3650.0 35 43 20 33 0 15 22 43 33 9
3690.0 20 40 27 24 26 12 39 39 23 35
3730.0 41 38 55 26 55 46 53 62 44 40
3770.0 43 45 25 32 30 19 12 9 15 15
3810.0 31 4 9 20 24 12 0 8 29 17
3850.0 0 0 31 5 2 11 18 15 0 7
3890.0 0 2 0 3 26 30 13 10 21 0
3930.0 8 7 22 0 0 10 18 18 15 8
##END=
