##TITLE=2-Propenal
##JCAMP-DX=4.24
##DATA TYPE=INFRARED SPECTRUM
##ORIGIN=Sadtler Research Labs Under US-EPA Contract
##OWNER=NIST Standard Reference Data Program
##CAS REGISTRY NO=107-02-8
##MOLFORM=C 3 H 4 O
##XUNITS=1/CM
##YUNITS=ABSORBANCE
##XFACTOR=1.0
##YFACTOR=0.000278333
##DELTAX=4.0
##FIRSTX=450.0
##LASTX=3966.0
##FIRSTY=0.042028
##MAXX=3966
##MINX=450
##MAXY=2.78333
##MINY=0
##NPOINTS=880
##XYDATA=(X++(Y..Y))
450.0 151 65 46 54 28 15 43 13 27 0
490.0 44 34 27 46 46 49 55 61 69 88
530.0 102 123 156 209 238 270 291 274 291 279
570.0 324 347 374 348 377 385 336 255 255 250
610.0 241 249 224 224 199 193 171 166 153 140
650.0 128 120 117 95 104 95 102 84 94 97
690.0 94 102 102 112 111 132 134 147 153 153
730.0 160 155 143 137 134 115 125 104 99 99
770.0 93 93 108 86 90 101 105 103 103 111
810.0 111 116 122 124 128 127 136 136 145 149
850.0 154 150 155 167 174 189 209 252 318 441
890.0 618 844 1088 1251 1312 1223 1252 1781 2061 2027
930.0 1898 1525 1343 1195 1200 1153 1589 2048 1454 1218
970.0 1243 1190 1235 1311 1373 1325 1333 959 920 881
1010.0 809 781 706 659 581 547 484 444 396 356
1050.0 325 307 305 293 317 332 350 342 345 343
1090.0 319 302 302 326 345 398 445 524 608 736
1130.0 881 1026 1198 1320 1439 1382 1349 1460 1223 1311
1170.0 1335 1083 800 556 417 349 315 301 282 280
1210.0 267 267 263 264 273 286 318 333 347 348
1250.0 350 349 324 313 300 273 279 300 305 305
1290.0 300 293 293 290 297 265 260 225 272 280
1330.0 297 311 238 309 411 449 401 336 318 349
1370.0 419 386 409 453 438 487 497 496 674 837
1410.0 847 848 570 714 712 795 665 563 484 391
1450.0 303 253 134 262 314 323 172 238 382 290
1490.0 211 303 238 243 125 34 144 111 11 176
1530.0 144 214 129 34 97 241 209 50 191 282
1570.0 272 264 313 308 400 374 427 429 456 480
1610.0 476 512 370 474 384 492 399 382 443 368
1650.0 260 224 377 402 451 440 424 684 687 1004
1690.0 1619 2573 3504 5780 6425 8161 6682 6868 5633 6936
1730.0 7982 10000 6215 3714 1752 863 631 514 469 412
1770.0 306 180 281 213 232 188 187 228 200 330
1810.0 323 342 349 330 291 309 371 371 256 155
1850.0 206 212 190 176 155 95 177 190 185 181
1890.0 171 213 248 304 318 322 282 269 270 330
1930.0 346 298 267 176 166 157 148 136 144 117
1970.0 122 137 129 133 130 104 97 118 120 115
2010.0 120 102 96 101 117 119 136 132 130 139
2050.0 139 148 154 148 119 125 108 103 92 78
2090.0 65 61 65 55 59 51 55 50 48 49
2130.0 43 45 41 45 35 39 34 35 31 30
2170.0 30 25 28 23 24 18 23 19 17 14
2210.0 13 12 7 10 4 8 2 7 4 7
2250.0 10 9 13 11 18 11 17 19 22 19
2290.0 20 21 17 21 19 23 20 23 19 17
2330.0 19 21 20 11 19 8 14 11 27 12
2370.0 11 13 10 12 9 14 12 18 20 22
2410.0 21 23 25 21 23 21 23 19 20 15
2450.0 13 12 9 10 6 10 7 9 7 9
2490.0 8 8 9 8 11 9 13 11 13 11
2530.0 13 13 14 14 12 14 14 18 17 18
2570.0 17 18 18 18 21 19 24 24 29 32
2610.0 41 48 53 65 73 88 105 128 149 174
2650.0 195 221 254 290 335 384 449 513 561 553
2690.0 474 410 491 642 747 797 810 834 858 895
2730.0 932 950 992 1041 1060 1012 952 984 1095 1174
2770.0 1210 1217 1236 1274 1305 1273 1133 935 908 1142
2810.0 1342 1396 1333 1210 1067 937 845 784 771 759
2850.0 693 596 496 414 344 300 254 219 187 161
2890.0 135 118 105 94 84 77 80 74 81 84
2930.0 93 97 103 106 108 114 114 119 122 129
2970.0 134 141 158 180 200 198 177 167 166 181
3010.0 212 202 182 165 150 148 149 155 157 172
3050.0 176 178 170 174 186 196 218 238 261 276
3090.0 291 276 244 214 210 235 259 235 201 165
3130.0 132 111 92 80 70 60 49 40 35 24
3170.0 23 18 18 12 13 11 8 10 8 11
3210.0 8 11 10 11 11 13 13 10 10 8
3250.0 11 13 11 7 6 7 7 6 4 10
3290.0 6 7 6 9 9 11 12 11 13 12
3330.0 19 14 19 17 17 19 21 20 15 17
3370.0 17 17 22 34 44 65 84 113 144 159
3410.0 187 190 183 185 196 209 217 165 96 54
3450.0 32 20 14 12 12 9 6 4 9 4
3490.0 9 6 10 8 13 7 10 10 11 17
3530.0 7 13 11 11 17 18 8 13 7 13
3570.0 21 7 12 2 18 14 15 10 10 10
3610.0 8 11 11 13 7 15 10 7 10 9
3650.0 18 11 13 9 8 11 10 17 11 14
3690.0 10 15 11 13 11 18 20 18 13 19
3730.0 21 17 24 18 25 8 20 15 11 15
3770.0 9 13 6 18 7 8 7 17 6 15
3810.0 12 10 6 12 15 7 12 10 10 14
3850.0 6 14 9 17 13 21 10 23 14 20
3890.0 11 19 17 25 23 11 13 21 28 12
3930.0 21 21 15 17 19 23 17 13 24 19
##END=
