##TITLE=1-Propene, 3-chloro-
##JCAMP-DX=4.24
##DATA TYPE=INFRARED SPECTRUM
##ORIGIN=Sadtler Research Labs Under US-EPA Contract
##OWNER=NIST Standard Reference Data Program
##CAS REGISTRY NO=107-05-1
##MOLFORM=C 3 H 5 Cl
##XUNITS=1/CM
##YUNITS=ABSORBANCE
##XFACTOR=1.0
##YFACTOR=0.000052823
##DELTAX=4.0
##FIRSTX=450.0
##LASTX=3966.0
##FIRSTY=0.003803
##MAXX=3966
##MINX=450
##MAXY=0.52823
##MINY=0
##NPOINTS=880
##XYDATA=(X++(Y..Y))
450.0 72 65 100 142 156 199 220 221 271 280
490.0 316 371 442 471 449 425 481 426 553 496
530.0 408 443 505 585 584 413 423 486 695 682
570.0 749 942 1078 1128 1099 1050 1033 957 1010 790
610.0 487 316 238 198 195 213 219 131 208 216
650.0 227 266 284 334 361 393 467 469 515 575
690.0 590 612 695 799 970 1254 1696 2368 3355 4635
730.0 6348 8305 9680 10000 9421 9063 8945 9340 6786 3627
770.0 1751 1058 819 687 581 518 415 399 342 312
810.0 290 243 222 182 173 173 184 229 227 231
850.0 266 284 298 347 436 541 720 988 1333 1764
890.0 2197 2634 3086 3812 4778 5565 6394 7417 8305 8058
930.0 7823 8275 8080 7217 6182 5298 4535 3885 3496 3363
970.0 3395 3515 3638 3827 3042 3072 3091 2882 2498 2122
1010.0 1823 1569 1339 1109 922 776 663 567 492 386
1050.0 300 254 220 201 166 129 120 116 124 129
1090.0 150 154 116 107 91 77 79 38 10 16
1130.0 3 13 7 22 22 38 50 79 89 111
1170.0 119 146 183 226 203 229 253 278 305 354
1210.0 393 403 404 446 510 659 972 1615 2718 4216
1250.0 5432 5683 5328 5006 5852 6325 5230 3728 2595 1986
1290.0 1624 1408 1283 1175 1076 840 597 439 330 303
1330.0 305 277 248 242 230 211 187 152 152 165
1370.0 188 231 283 358 457 588 799 1167 1652 2031
1410.0 2045 1824 2191 2125 2414 2159 1666 1362 1233 1235
1450.0 1169 1130 986 892 794 714 594 482 428 363
1490.0 304 255 205 185 208 135 138 123 131 124
1530.0 122 137 161 126 82 94 127 156 91 110
1570.0 127 134 137 113 121 117 99 96 92 113
1610.0 133 191 255 359 519 710 897 1001 1064 1109
1650.0 1110 1020 894 757 592 407 255 152 131 79
1690.0 67 68 72 45 44 45 70 58 47 60
1730.0 51 52 50 37 21 28 7 19 19 13
1770.0 18 8 6 10 10 10 17 21 28 39
1810.0 66 76 109 122 148 182 237 328 429 569
1850.0 681 747 722 684 779 792 637 467 356 291
1890.0 215 168 132 97 79 79 68 69 55 53
1930.0 64 74 83 102 114 125 129 126 139 120
1970.0 120 112 94 83 67 58 50 55 51 44
2010.0 42 34 32 32 43 45 35 44 41 36
2050.0 42 41 29 37 29 46 39 38 57 49
2090.0 58 49 42 45 35 31 28 15 5 5
2130.0 16 16 15 24 16 27 17 18 5 17
2170.0 21 27 39 48 47 47 58 57 54 51
2210.0 53 50 45 39 47 43 31 41 31 33
2250.0 31 33 25 33 28 27 32 30 32 40
2290.0 55 42 49 58 77 70 71 88 89 101
2330.0 100 87 112 109 102 96 130 112 108 56
2370.0 29 15 29 32 53 68 78 80 70 70
2410.0 61 60 61 44 33 30 26 25 25 25
2450.0 28 28 28 28 28 28 18 18 18 14
2490.0 20 29 30 30 46 39 39 40 31 30
2530.0 28 26 20 22 22 16 13 24 32 32
2570.0 33 33 15 25 14 5 7 11 8 17
2610.0 17 17 16 17 17 8 6 16 9 3
2650.0 8 7 12 19 19 18 19 20 29 29
2690.0 44 70 78 94 104 104 104 112 87 79
2730.0 58 40 57 50 39 29 41 42 25 34
2770.0 26 24 24 24 16 24 24 25 25 29
2810.0 33 45 49 70 89 115 155 193 231 278
2850.0 308 320 362 411 459 491 531 535 541 490
2890.0 500 510 508 483 467 494 560 632 760 903
2930.0 1100 1317 1574 1808 1993 2147 2392 2667 2790 2678
2970.0 2909 3151 3155 3150 3038 2970 2931 2862 2774 2685
3010.0 2589 2482 2210 1913 1803 1551 1538 1397 1280 1102
3050.0 999 977 997 1074 1176 1280 1444 1630 1854 2180
3090.0 2403 2440 2461 2334 2321 2275 1869 1523 1232 949
3130.0 711 524 407 318 246 187 158 136 108 108
3170.0 107 90 90 91 71 65 65 72 65 54
3210.0 72 52 63 52 44 45 51 43 39 52
3250.0 39 32 62 46 43 45 54 63 64 57
3290.0 63 61 51 50 54 44 51 37 53 45
3330.0 35 35 38 51 45 35 40 45 50 47
3370.0 45 44 53 62 53 48 34 55 48 51
3410.0 55 61 59 59 55 43 43 63 61 33
3450.0 54 62 65 65 48 39 53 61 53 52
3490.0 61 43 83 51 28 65 60 86 74 70
3530.0 65 52 33 61 30 29 35 41 49 66
3570.0 42 28 32 46 66 48 41 29 41 31
3610.0 29 36 15 9 25 46 30 21 21 54
3650.0 34 0 23 22 30 28 37 41 27 46
3690.0 27 28 39 20 30 54 42 33 51 43
3730.0 49 37 25 50 58 42 2 0 21 41
3770.0 30 11 26 40 39 48 47 58 43 60
3810.0 44 37 24 34 30 35 45 48 27 45
3850.0 64 73 36 48 37 59 33 50 38 31
3890.0 26 42 42 38 33 44 53 75 52 45
3930.0 49 50 49 43 68 66 46 42 26 19
##END=
