##TITLE=Disiloxane, hexamethyl-
##JCAMP-DX=4.24
##DATA TYPE=INFRARED SPECTRUM
##ORIGIN=Sadtler Research Labs Under US-EPA Contract
##OWNER=NIST Standard Reference Data Program
##CAS REGISTRY NO=107-46-0
##MOLFORM=C 6 H 18 O Si 2
##XUNITS=1/CM
##YUNITS=ABSORBANCE
##XFACTOR=1.0
##YFACTOR=0.000089844
##DELTAX=4.0
##FIRSTX=450.0
##LASTX=3966.0
##FIRSTY=0.001078
##MAXX=3966
##MINX=450
##MAXY=0.89844
##MINY=0
##NPOINTS=880
##XYDATA=(X++(Y..Y))
450.0 12 41 6 17 56 91 69 102 98 67
490.0 110 87 76 74 69 47 80 72 31 92
530.0 47 36 58 65 88 95 112 89 80 23
570.0 80 47 43 63 33 36 38 78 60 151
610.0 197 297 334 237 206 94 60 66 86 54
650.0 87 112 66 104 182 192 253 308 395 502
690.0 549 549 533 427 418 367 327 342 314 317
730.0 350 402 482 589 644 863 1042 1209 1248 1201
770.0 1023 863 712 567 555 544 609 700 830 987
810.0 1278 1678 2167 2749 3253 3655 4179 4554 5284 6017
850.0 6381 6008 5030 3764 2802 2070 1541 1244 1017 842
890.0 723 618 527 507 426 395 347 298 262 227
930.0 188 184 173 149 133 135 120 143 142 124
970.0 149 145 178 190 218 233 299 319 428 511
1010.0 621 705 787 901 990 1137 1340 1644 2118 2756
1050.0 3666 4929 6250 8188 9225 10000 9298 7256 5223 3361
1090.0 2160 1585 1187 984 837 728 679 658 636 631
1130.0 632 617 621 612 537 466 379 307 258 189
1170.0 147 144 149 94 105 79 98 92 95 92
1210.0 116 116 141 150 206 267 373 579 925 1430
1250.0 2177 3135 4036 4313 3824 2903 1808 1137 721 535
1290.0 403 345 299 282 221 227 176 158 139 116
1330.0 106 108 107 107 121 96 105 110 107 102
1370.0 118 95 127 115 135 141 160 158 189 178
1410.0 224 225 236 206 180 180 160 190 159 199
1450.0 200 192 210 150 116 106 86 78 59 68
1490.0 71 81 80 62 87 79 66 77 84 68
1530.0 58 51 75 85 72 59 86 106 126 96
1570.0 155 177 224 195 223 170 130 87 66 47
1610.0 49 44 69 41 44 51 39 58 34 57
1650.0 45 104 29 43 43 53 43 49 30 72
1690.0 38 44 66 77 49 45 42 78 55 49
1730.0 56 90 78 57 73 43 56 38 53 45
1770.0 51 56 49 35 42 49 47 37 40 30
1810.0 25 34 30 33 35 27 24 36 19 56
1850.0 15 33 33 39 39 57 44 47 40 37
1890.0 45 27 34 35 33 22 41 47 48 55
1930.0 54 44 69 51 71 59 62 57 58 38
1970.0 56 43 39 42 40 40 44 42 25 42
2010.0 34 44 35 35 36 40 24 35 23 34
2050.0 27 39 2 42 22 19 32 25 25 40
2090.0 33 37 43 26 55 29 35 32 37 27
2130.0 34 34 30 29 43 35 48 33 44 40
2170.0 33 31 30 19 30 36 20 38 19 36
2210.0 18 39 15 34 23 26 27 26 15 27
2250.0 18 25 29 23 34 21 21 25 31 19
2290.0 35 23 36 30 41 20 38 12 45 45
2330.0 47 51 53 50 49 37 26 67 53 47
2370.0 59 62 41 48 19 20 17 27 17 35
2410.0 12 23 3 25 16 20 12 20 25 17
2450.0 24 19 25 25 22 22 30 11 27 20
2490.0 20 16 37 21 43 16 22 16 21 14
2530.0 20 19 22 25 7 18 17 30 17 36
2570.0 13 30 15 30 15 24 15 33 16 26
2610.0 26 25 15 39 19 27 36 25 33 21
2650.0 24 21 41 15 40 16 27 5 34 13
2690.0 25 6 23 18 24 17 22 10 24 31
2730.0 20 25 26 19 15 36 17 44 24 37
2770.0 36 51 47 56 39 76 63 80 90 98
2810.0 105 107 106 109 116 121 122 128 134 130
2850.0 145 124 139 147 154 153 173 163 206 221
2890.0 262 312 367 421 462 460 418 386 318 286
2930.0 265 272 286 367 516 818 1341 2087 2637 2787
2970.0 2410 1722 1065 683 439 306 223 198 150 158
3010.0 154 129 130 128 129 121 140 129 150 144
3050.0 151 141 153 148 155 139 148 136 137 129
3090.0 130 115 122 108 107 120 113 106 105 110
3130.0 84 99 73 77 69 60 71 60 33 51
3170.0 43 53 54 52 37 51 42 38 42 47
3210.0 55 56 58 47 60 35 48 40 36 42
3250.0 37 32 34 32 15 30 29 29 38 33
3290.0 39 45 32 21 30 23 24 23 7 31
3330.0 7 26 16 26 27 25 22 21 26 15
3370.0 26 32 33 27 38 29 41 35 14 43
3410.0 22 17 35 20 20 11 34 0 35 11
3450.0 19 15 14 34 20 21 19 22 10 36
3490.0 19 18 35 5 12 23 20 11 34 22
3530.0 2 31 2 19 20 26 27 32 17 40
3570.0 54 29 43 38 50 58 57 44 39 34
3610.0 42 57 39 59 51 68 60 56 61 62
3650.0 80 63 65 53 42 71 54 61 48 50
3690.0 58 67 41 53 48 54 85 66 75 70
3730.0 74 87 90 88 95 106 85 84 84 68
3770.0 71 72 65 75 82 59 85 84 96 95
3810.0 87 86 92 88 70 70 60 74 76 57
3850.0 67 82 59 57 70 53 65 59 55 57
3890.0 43 45 41 43 31 41 35 36 42 38
3930.0 43 48 51 53 54 44 34 35 37 36
##END=
