##TITLE=1-Propanamine
##JCAMP-DX=4.24
##DATA TYPE=INFRARED SPECTRUM
##ORIGIN=Sadtler Research Labs Under US-EPA Contract
##OWNER=NIST Standard Reference Data Program
##CAS REGISTRY NO=107-10-8
##MOLFORM=C 3 H 9 N
##XUNITS=1/CM
##YUNITS=ABSORBANCE
##XFACTOR=1.0
##YFACTOR=0.000067383
##DELTAX=4.0
##FIRSTX=450.0
##LASTX=3966.0
##FIRSTY=0.039217
##MAXX=3966
##MINX=450
##MAXY=0.67383
##MINY=0
##NPOINTS=880
##XYDATA=(X++(Y..Y))
450.0 582 595 546 456 392 421 401 373 331 241
490.0 82 23 8 153 126 131 220 174 186 138
530.0 99 141 178 297 297 313 193 157 131 205
570.0 217 265 307 266 376 185 295 274 349 397
610.0 431 560 487 490 460 538 522 636 646 571
650.0 644 580 621 555 698 679 729 829 848 875
690.0 880 991 1040 1228 1407 1606 1733 1936 2294 2502
730.0 3042 3423 3889 4382 4493 4890 5040 5419 5567 5915
770.0 5634 5680 5283 4862 4782 4039 3547 2971 2659 2236
810.0 1949 1743 1473 1286 1183 1143 1085 1102 1057 1086
850.0 1066 1086 1135 1106 1246 1228 1332 1322 1276 1292
890.0 1266 1262 1221 1178 1089 1020 861 823 762 700
930.0 717 663 678 625 632 663 673 748 809 900
970.0 889 909 883 862 833 875 855 793 798 715
1010.0 678 633 599 578 570 612 588 531 506 541
1050.0 596 780 910 1070 1202 1238 1318 1305 1464 1514
1090.0 1321 1084 943 858 790 745 629 554 482 458
1130.0 407 356 346 268 255 223 222 207 210 226
1170.0 217 217 192 205 189 221 227 245 249 223
1210.0 209 179 187 183 193 199 210 216 228 237
1250.0 231 274 284 314 328 336 345 307 352 362
1290.0 415 402 411 391 392 391 433 433 396 416
1330.0 416 483 643 628 577 600 661 728 907 911
1370.0 983 1120 1165 1193 1263 1297 1247 1318 1169 1118
1410.0 925 729 819 672 666 712 795 1044 952 1103
1450.0 1205 1288 1596 1455 1412 1356 1530 1299 1166 1127
1490.0 1277 1003 995 845 895 971 676 684 639 544
1530.0 419 479 370 497 465 371 387 513 477 368
1570.0 447 406 532 519 595 701 801 945 1054 1223
1610.0 1363 1429 1560 1532 1559 1471 1462 1437 1219 1135
1650.0 985 1021 708 667 602 744 660 631 662 632
1690.0 463 337 461 561 450 396 466 583 439 391
1730.0 419 542 374 384 363 438 329 296 280 206
1770.0 307 244 190 220 241 185 253 195 245 150
1810.0 160 161 183 146 231 192 178 148 163 257
1850.0 186 123 122 129 117 196 71 86 71 76
1890.0 113 64 65 47 57 73 60 103 99 64
1930.0 37 39 19 77 59 46 44 30 26 29
1970.0 38 18 22 29 32 44 65 12 11 16
2010.0 9 32 47 33 11 5 11 13 30 22
2050.0 27 23 24 21 40 19 21 34 20 43
2090.0 36 17 13 14 19 13 25 22 13 9
2130.0 14 15 16 29 31 42 29 30 21 21
2170.0 31 26 32 37 36 30 21 27 25 23
2210.0 31 44 31 38 23 21 30 29 44 30
2250.0 42 31 18 9 20 15 14 26 23 23
2290.0 16 29 22 30 46 49 66 48 56 47
2330.0 47 58 68 92 89 60 14 62 15 75
2370.0 77 70 93 82 71 50 61 61 67 60
2410.0 68 74 60 61 42 49 44 53 54 45
2450.0 55 36 38 45 55 51 58 65 62 57
2490.0 47 60 44 59 54 53 60 46 61 40
2530.0 58 62 66 69 82 83 75 89 82 97
2570.0 98 114 112 102 110 96 109 105 121 123
2610.0 134 135 134 134 141 167 164 198 195 208
2650.0 214 209 228 228 251 251 267 267 270 259
2690.0 269 282 287 319 324 350 362 375 414 419
2730.0 474 497 529 544 574 575 565 576 563 576
2770.0 561 583 561 569 591 623 683 750 866 969
2810.0 1131 1309 1523 1761 2045 2361 2665 3021 3250 3496
2850.0 3731 4021 4312 4556 4913 5117 5452 5621 5613 5463
2890.0 5649 5815 6041 6331 6349 6522 6565 6994 7509 8060
2930.0 8854 9372 9734 9112 9383 9174 9313 9471 9689 10000
2970.0 9282 8135 7184 6840 6128 5284 4245 3259 2517 1857
3010.0 1402 1055 811 631 512 429 374 328 283 278
3050.0 240 253 239 240 253 232 219 210 216 194
3090.0 212 212 219 197 189 188 150 175 158 163
3130.0 154 157 151 111 131 125 120 117 137 144
3170.0 124 121 106 112 98 129 122 123 124 92
3210.0 89 80 108 93 102 112 99 73 69 79
3250.0 46 71 65 87 73 64 57 42 72 63
3290.0 74 88 90 81 75 74 77 92 87 130
3330.0 138 152 145 127 146 140 165 179 181 159
3370.0 142 121 117 117 110 116 116 124 100 80
3410.0 67 72 93 88 91 83 65 58 59 73
3450.0 71 64 66 110 67 73 44 20 94 58
3490.0 58 43 49 76 62 51 28 25 43 160
3530.0 73 43 55 22 136 96 98 41 84 152
3570.0 201 17 21 38 70 190 79 96 43 42
3610.0 134 128 143 130 88 208 98 49 49 99
3650.0 212 110 94 38 19 91 71 110 31 25
3690.0 100 54 39 58 38 98 141 72 120 157
3730.0 93 157 161 82 154 121 101 45 53 24
3770.0 24 4 13 21 23 27 19 38 38 25
3810.0 5 9 54 76 20 4 19 7 91 2
3850.0 26 113 65 61 61 76 53 48 80 105
3890.0 70 50 56 57 37 5 4 32 16 24
3930.0 18 16 4 30 47 64 0 5 5 5
##END=
