##TITLE=2-Pentene, 2,4,4-trimethyl-
##JCAMP-DX=4.24
##DATA TYPE=INFRARED SPECTRUM
##ORIGIN=Sadtler Research Labs Under US-EPA Contract
##OWNER=NIST Standard Reference Data Program
##CAS REGISTRY NO=107-40-4
##MOLFORM=C 8 H 16
##XUNITS=1/CM
##YUNITS=ABSORBANCE
##XFACTOR=1.0
##YFACTOR=0.000054486
##DELTAX=4.0
##FIRSTX=450.0
##LASTX=3966.0
##FIRSTY=0.003705
##MAXX=3966
##MINX=450
##MAXY=0.54486
##MINY=0
##NPOINTS=880
##XYDATA=(X++(Y..Y))
450.0 68 66 47 39 24 32 25 30 41 39
490.0 50 42 41 31 22 22 22 22 17 24
530.0 13 24 24 24 24 31 58 67 49 60
570.0 59 55 44 26 22 17 19 23 24 24
610.0 23 25 16 24 25 25 2 22 19 24
650.0 26 25 17 25 17 27 25 24 25 25
690.0 29 23 23 28 25 23 24 24 24 23
730.0 24 24 32 35 44 54 58 58 68 59
770.0 68 59 50 49 59 60 79 100 156 221
810.0 295 387 474 549 598 553 488 422 346 294
850.0 238 212 188 164 142 129 120 110 110 120
890.0 129 147 146 157 162 186 216 239 251 253
930.0 255 227 200 179 152 133 124 118 106 117
970.0 128 133 142 152 145 145 136 126 126 136
1010.0 147 175 195 240 258 268 253 236 199 179
1050.0 179 208 267 368 498 612 652 658 594 467
1090.0 317 211 152 115 86 79 69 69 70 73
1130.0 91 104 136 179 236 284 320 330 311 272
1170.0 207 172 171 194 237 282 349 411 479 526
1210.0 574 621 674 691 687 643 584 503 439 404
1250.0 393 383 383 374 355 317 270 223 179 141
1290.0 119 103 93 93 93 93 94 95 103 103
1330.0 113 132 156 220 312 482 729 1045 1363 1700
1370.0 1825 1736 1584 1382 1197 1071 963 868 736 663
1410.0 549 433 399 409 455 518 618 712 840 979
1450.0 1100 1202 1276 1347 1386 1419 1385 1282 1145 999
1490.0 821 613 442 333 273 225 201 184 169 151
1530.0 152 141 144 120 119 121 122 123 103 108
1570.0 112 111 99 100 96 99 88 90 89 81
1610.0 89 89 91 100 108 122 147 164 189 200
1650.0 216 213 221 213 199 172 155 110 89 61
1690.0 56 53 43 33 39 35 38 33 30 29
1730.0 27 33 28 27 29 23 28 28 18 25
1770.0 18 23 25 26 25 26 26 26 27 23
1810.0 24 24 24 24 25 15 25 17 26 24
1850.0 24 22 22 23 14 16 14 13 13 12
1890.0 19 14 20 20 13 14 13 14 14 14
1930.0 20 20 20 22 22 20 20 20 20 20
1970.0 20 20 19 18 11 13 12 10 10 10
2010.0 11 11 11 11 10 10 11 11 11 1
2050.0 0 1 0 2 1 1 1 1 2 2
2090.0 1 1 0 0 5 5 8 10 10 8
2130.0 8 9 9 0 0 8 8 8 8 8
2170.0 8 8 8 9 9 8 8 8 8 8
2210.0 8 4 0 0 0 0 0 0 0 0
2250.0 0 1 5 9 8 7 7 18 17 19
2290.0 18 20 21 21 12 14 13 14 9 10
2330.0 6 6 14 14 16 14 7 11 18 28
2370.0 28 31 30 34 37 25 25 25 25 25
2410.0 25 25 24 20 15 16 16 16 16 16
2450.0 16 16 16 16 16 16 16 16 16 16
2490.0 16 26 26 26 26 26 25 35 35 35
2530.0 34 34 34 29 35 35 35 35 35 35
2570.0 34 25 36 27 34 34 34 34 34 34
2610.0 34 34 34 35 35 35 35 35 35 35
2650.0 39 38 35 35 35 34 34 35 43 44
2690.0 46 52 62 76 84 108 131 157 185 205
2730.0 224 242 250 240 228 202 183 164 155 153
2770.0 142 142 143 151 161 179 196 217 245 262
2810.0 292 309 338 366 401 437 492 566 661 803
2850.0 1005 1300 1715 2275 2893 3492 3964 4245 4306 4191
2890.0 4079 3966 3961 4100 4333 4626 4976 5280 5569 5713
2930.0 5769 5829 5865 5948 6335 7024 7850 8639 9472 9793
2970.0 10000 9327 8222 6886 5514 4284 3225 2389 1834 1512
3010.0 1331 1226 1153 1088 1005 921 833 756 709 660
3050.0 631 603 576 547 509 480 443 416 377 349
3090.0 320 292 271 252 242 232 214 205 204 197
3130.0 187 178 169 160 161 151 144 143 142 143
3170.0 133 133 134 123 131 126 115 116 106 107
3210.0 107 97 97 98 88 88 88 88 85 79
3250.0 73 80 74 61 61 53 52 53 43 35
3290.0 43 39 44 39 35 35 34 34 26 35
3330.0 26 33 26 26 26 30 30 23 29 25
3370.0 17 34 16 25 25 16 26 23 16 27
3410.0 16 22 25 18 17 17 17 16 16 16
3450.0 16 16 16 11 18 16 10 8 0 7
3490.0 8 8 7 7 8 15 9 7 13 9
3530.0 8 8 0 9 8 0 10 0 0 1
3570.0 0 0 0 0 0 0 0 0 0 0
3610.0 1 0 0 0 0 1 0 0 0 0
3650.0 1 8 0 0 0 0 1 5 9 10
3690.0 0 8 9 1 8 0 7 0 0 0
3730.0 0 0 1 0 0 1 0 8 7 0
3770.0 5 4 5 8 1 2 2 0 0 0
3810.0 0 0 9 1 8 0 0 0 0 0
3850.0 0 6 6 6 7 0 6 5 7 14
3890.0 13 24 12 24 24 22 13 5 5 4
3930.0 15 15 15 14 16 16 16 16 16 16
##END=
