##TITLE=Mercury, chloroethyl-
##JCAMP-DX=4.24
##DATA TYPE=INFRARED SPECTRUM
##ORIGIN=Sadtler Research Labs Under US-EPA Contract
##OWNER=NIST Standard Reference Data Program
##CAS REGISTRY NO=107-27-7
##MOLFORM=C 2 H 5 Cl Hg
##XUNITS=1/CM
##YUNITS=ABSORBANCE
##XFACTOR=1.0
##YFACTOR=0.000033295
##DELTAX=4.0
##FIRSTX=450.0
##LASTX=3966.0
##FIRSTY=0.000000
##MAXX=3966
##MINX=450
##MAXY=0.33295
##MINY=0
##NPOINTS=880
##XYDATA=(X++(Y..Y))
450.0 0 287 539 554 414 527 533 518 518 578
490.0 509 513 457 511 352 434 380 373 402 394
530.0 386 370 412 386 363 353 397 421 353 354
570.0 420 366 305 335 280 559 564 471 615 651
610.0 687 620 578 485 469 418 404 381 393 360
650.0 362 376 327 405 415 458 527 497 499 497
690.0 518 500 475 415 415 421 434 429 431 445
730.0 449 472 487 513 521 564 571 617 637 625
770.0 647 690 768 845 1000 1200 1471 1841 2353 3043
810.0 3807 4557 4631 4155 3315 2718 2267 2014 1788 1608
850.0 1445 1287 1155 1021 954 866 829 755 719 691
890.0 656 603 585 561 529 513 505 507 497 482
930.0 473 460 463 456 441 446 455 442 446 443
970.0 442 470 487 555 635 781 1018 1455 2170 3304
1010.0 4810 6483 8211 9440 10000 9247 7587 5361 3598 2559
1050.0 2164 2038 2037 2126 2241 2403 2541 2702 2757 2726
1090.0 2580 2314 2010 1722 1478 1264 1101 981 877 783
1130.0 714 629 570 531 499 470 453 441 402 375
1170.0 359 354 342 323 311 296 282 279 278 280
1210.0 298 290 297 306 322 328 365 426 497 634
1250.0 871 1304 1958 2757 3184 2766 2043 1256 808 594
1290.0 485 460 437 462 456 383 329 327 334 342
1330.0 345 371 339 349 400 398 443 455 441 457
1370.0 493 524 549 558 556 568 572 552 504 504
1410.0 493 487 453 446 438 429 460 479 540 566
1450.0 598 610 619 628 639 637 668 662 564 491
1490.0 466 473 438 430 415 349 363 332 347 343
1530.0 327 329 339 365 325 343 343 360 345 328
1570.0 319 314 317 303 298 298 302 301 305 305
1610.0 297 284 293 288 301 291 299 283 278 276
1650.0 292 273 279 265 268 257 268 250 243 266
1690.0 259 268 274 282 285 284 286 302 303 296
1730.0 291 289 288 281 260 251 266 253 264 252
1770.0 253 267 257 247 258 255 261 255 244 251
1810.0 259 257 264 247 259 258 258 256 253 245
1850.0 258 259 268 264 259 260 257 257 256 264
1890.0 259 255 255 253 266 267 259 260 263 267
1930.0 268 271 274 265 261 279 270 275 269 269
1970.0 263 263 253 259 262 254 250 258 263 259
2010.0 262 255 256 255 263 261 264 261 262 269
2050.0 274 278 279 284 276 285 282 280 287 286
2090.0 281 283 289 281 282 285 286 284 282 284
2130.0 280 274 275 274 265 278 279 280 282 291
2170.0 289 288 290 286 286 283 283 280 274 281
2210.0 275 279 276 279 275 274 280 272 272 271
2250.0 267 269 265 271 273 266 260 276 265 268
2290.0 265 272 265 263 261 253 245 242 255 256
2330.0 253 243 258 275 273 274 252 264 259 277
2370.0 309 313 313 304 296 288 285 274 278 276
2410.0 273 274 279 266 272 272 277 279 266 274
2450.0 274 273 279 280 272 273 280 285 279 277
2490.0 280 274 282 278 281 278 269 275 269 266
2530.0 263 273 270 274 281 282 283 274 284 271
2570.0 286 281 277 285 282 285 295 310 292 283
2610.0 275 282 283 294 311 304 304 305 311 290
2650.0 322 314 305 304 299 294 304 344 311 296
2690.0 301 316 303 354 344 308 322 330 326 374
2730.0 389 331 353 351 335 406 423 355 355 382
2770.0 332 439 437 380 381 398 378 494 454 424
2810.0 448 437 489 569 528 531 576 616 726 814
2850.0 868 1004 1126 1313 1507 1608 1706 1812 1881 1882
2890.0 2044 2203 2197 2132 2270 2374 2543 2799 2864 3056
2930.0 3118 3213 3265 3441 3792 4035 4311 4328 4739 5545
2970.0 5132 4388 4115 3825 3300 2796 2304 2088 1695 1555
3010.0 1419 1424 1375 1116 1032 1037 943 877 863 859
3050.0 788 748 732 714 668 661 628 607 562 572
3090.0 526 514 510 462 500 444 469 434 431 422
3130.0 401 414 381 402 389 388 376 370 374 360
3170.0 373 356 357 349 365 348 354 351 348 342
3210.0 342 332 321 336 320 325 317 329 337 318
3250.0 319 321 308 299 315 316 314 327 330 325
3290.0 304 322 304 316 303 329 311 312 319 319
3330.0 330 328 330 312 317 323 315 309 332 319
3370.0 305 316 302 308 314 312 303 302 296 295
3410.0 313 294 304 317 314 294 292 293 283 286
3450.0 294 304 298 291 280 296 285 295 293 303
3490.0 280 293 293 281 266 288 251 283 278 252
3530.0 288 279 295 295 247 261 288 281 291 250
3570.0 281 263 283 285 256 289 304 289 291 303
3610.0 283 303 297 316 286 306 307 329 309 274
3650.0 281 287 300 264 280 267 301 305 285 302
3690.0 300 310 278 293 287 314 314 305 285 297
3730.0 293 316 295 317 262 347 367 299 303 298
3770.0 261 276 247 280 276 282 284 253 297 299
3810.0 275 244 273 312 280 256 266 288 309 290
3850.0 239 295 244 241 267 249 251 257 289 268
3890.0 292 237 253 244 290 282 279 240 269 259
3930.0 248 243 264 253 241 244 251 266 242 260
##END=
