##TITLE=Butanoic acid, 3,3-dimethyl-
##JCAMP-DX=4.24
##DATA TYPE=INFRARED SPECTRUM
##ORIGIN=Sadtler Research Labs Under US-EPA Contract
##OWNER=NIST Standard Reference Data Program
##CAS REGISTRY NO=1070-83-3
##MOLFORM=C 6 H 12 O 2
##XUNITS=1/CM
##YUNITS=ABSORBANCE
##XFACTOR=1.0
##YFACTOR=0.000104016
##DELTAX=4.0
##FIRSTX=450.0
##LASTX=3966.0
##FIRSTY=0.089558
##MAXX=3966
##MINX=450
##MAXY=1.04016
##MINY=0
##NPOINTS=880
##XYDATA=(X++(Y..Y))
450.0 861 853 869 872 852 854 844 900 856 1087
490.0 1073 986 1128 1189 1328 1344 1366 1349 1345 1359
530.0 1399 1432 1598 1808 1792 2051 2223 2308 2343 2217
570.0 1939 1710 1422 1240 1158 1127 1193 1366 1596 1799
610.0 2101 2294 2525 2627 2571 2457 2292 2094 1864 1670
650.0 1450 1244 1053 938 916 955 1014 1123 1285 1354
690.0 1377 1264 1082 852 626 454 325 255 221 176
730.0 157 152 142 50 91 72 93 97 104 119
770.0 154 166 183 192 186 166 119 115 93 94
810.0 83 78 81 73 86 84 101 96 108 119
850.0 132 148 168 194 215 223 244 251 254 266
890.0 271 276 273 283 288 303 323 352 394 405
930.0 395 394 379 352 344 315 296 264 235 191
970.0 170 155 159 153 168 25 136 152 198 220
1010.0 276 336 425 533 647 780 883 954 969 936
1050.0 858 809 765 774 814 928 1096 1333 1683 2186
1090.0 2953 4071 5794 7617 8715 9150 8911 7995 6273 4276
1130.0 3070 2430 2016 1732 1531 1401 1324 1326 1379 1496
1170.0 1687 1940 2251 2584 2873 3014 3007 2846 2559 2239
1210.0 1976 1810 1720 1723 1762 1839 1878 1837 1691 1485
1250.0 1261 1027 839 716 649 598 564 537 513 495
1290.0 482 492 519 569 628 694 737 763 772 783
1330.0 810 866 976 1141 1402 1739 2154 2594 3052 3434
1370.0 3641 3594 3210 2675 1976 1363 975 735 605 538
1410.0 501 472 456 455 469 480 502 530 543 573
1450.0 609 674 783 910 1017 1167 1294 1314 1227 1090
1490.0 915 726 502 319 224 168 125 112 96 85
1530.0 70 75 74 79 66 63 64 72 75 63
1570.0 64 65 70 59 62 61 62 65 61 61
1610.0 58 63 60 64 56 60 63 74 67 78
1650.0 81 103 95 93 111 118 133 139 156 183
1690.0 191 222 259 319 381 480 605 780 961 1136
1730.0 1329 1571 1926 2353 3015 3759 4751 5892 7263 8431
1770.0 9383 10000 9716 9277 8104 6692 5117 3830 2829 2089
1810.0 1560 1171 878 665 507 398 318 256 224 189
1850.0 174 155 147 136 131 123 116 110 103 99
1890.0 92 90 82 81 77 75 70 75 70 68
1930.0 67 63 65 64 66 73 75 76 81 85
1970.0 84 85 87 88 87 84 79 71 61 61
2010.0 57 58 54 58 54 54 53 55 57 57
2050.0 66 68 64 58 58 53 53 58 59 60
2090.0 61 57 50 43 42 42 38 37 36 42
2130.0 47 46 43 47 46 49 51 50 52 48
2170.0 51 51 53 54 54 53 55 61 67 71
2210.0 70 80 78 75 70 67 60 56 49 47
2250.0 44 46 44 39 39 44 44 44 51 56
2290.0 57 59 61 65 68 66 58 58 56 47
2330.0 45 31 35 32 30 38 24 28 3 23
2370.0 29 42 39 49 45 47 46 46 54 53
2410.0 46 47 49 48 38 29 28 35 38 31
2450.0 35 33 37 41 40 37 38 42 33 34
2490.0 38 31 32 32 32 33 34 34 37 38
2530.0 34 34 35 38 36 35 36 39 37 40
2570.0 39 44 34 34 37 30 32 35 32 31
2610.0 35 34 41 40 40 45 37 45 46 45
2650.0 50 56 62 54 59 54 47 51 51 49
2690.0 57 74 71 73 77 87 88 103 100 113
2730.0 121 128 132 134 121 105 103 99 93 96
2770.0 85 87 84 82 84 81 93 104 114 128
2810.0 137 149 163 178 199 210 235 256 292 335
2850.0 379 458 569 752 1015 1323 1603 1855 2002 2021
2890.0 1982 1932 1909 1930 2014 2127 2228 2302 2347 2404
2930.0 2483 2624 2878 3222 3679 4320 5199 6194 7061 7603
2970.0 7432 6794 5650 4336 3225 2334 1693 1188 790 529
3010.0 367 273 201 173 139 125 127 116 112 119
3050.0 91 113 115 118 119 109 113 104 105 111
3090.0 103 101 105 88 88 88 87 90 89 88
3130.0 84 84 80 78 77 76 90 90 87 92
3170.0 94 103 106 105 105 102 83 91 95 100
3210.0 97 101 103 106 92 100 96 101 91 87
3250.0 93 88 96 83 67 68 61 47 37 41
3290.0 59 42 53 57 50 28 42 63 36 37
3330.0 45 41 39 33 47 57 69 63 61 77
3370.0 52 60 51 53 70 63 49 51 56 45
3410.0 48 55 44 38 34 38 29 28 40 44
3450.0 29 28 31 25 35 31 42 48 48 46
3490.0 56 55 57 70 76 79 88 103 109 128
3530.0 121 128 143 164 210 275 519 1089 2307 3301
3570.0 3695 3954 3609 2887 1717 760 336 150 110 48
3610.0 96 69 36 46 39 60 18 51 45 40
3650.0 52 35 10 4 45 34 54 33 21 16
3690.0 35 11 14 16 8 23 25 4 9 6
3730.0 13 7 22 6 12 13 16 11 3 3
3770.0 3 3 5 7 3 2 9 13 12 17
3810.0 13 11 28 3 17 2 3 7 3 3
3850.0 3 3 2 36 64 70 46 51 29 31
3890.0 3 3 7 0 31 28 3 3 6 7
3930.0 6 3 13 24 27 33 3 3 8 9
##END=
