##TITLE=Heptane, 2,2-dimethyl-
##JCAMP-DX=4.24
##DATA TYPE=INFRARED SPECTRUM
##ORIGIN=Sadtler Research Labs Under US-EPA Contract
##OWNER=NIST Standard Reference Data Program
##CAS REGISTRY NO=1071-26-7
##MOLFORM=C 9 H 20
##XUNITS=1/CM
##YUNITS=ABSORBANCE
##XFACTOR=1.0
##YFACTOR=0.000156335
##DELTAX=4.0
##FIRSTX=450.0
##LASTX=3966.0
##FIRSTY=0.013758
##MAXX=3966
##MINX=450
##MAXY=1.56335
##MINY=0
##NPOINTS=880
##XYDATA=(X++(Y..Y))
450.0 88 29 27 27 31 49 43 44 33 44
490.0 40 37 29 31 38 39 37 39 37 23
530.0 37 24 20 21 29 24 12 22 26 6
570.0 7 25 11 8 10 18 21 12 16 17
610.0 20 15 11 13 16 9 6 17 14 12
650.0 14 16 15 13 17 15 24 18 17 20
690.0 20 29 27 32 37 37 56 74 87 96
730.0 98 97 77 70 57 53 48 51 53 57
770.0 63 57 45 31 26 21 20 10 14 15
810.0 14 14 17 20 21 25 25 29 28 31
850.0 30 29 33 33 34 35 46 47 49 43
890.0 34 26 31 28 39 50 61 71 68 58
930.0 50 44 44 46 45 47 49 48 43 37
970.0 35 29 25 21 21 20 19 20 20 19
1010.0 22 24 29 27 28 30 28 27 29 32
1050.0 33 33 26 19 18 18 15 16 16 17
1090.0 19 24 26 32 36 39 37 30 24 18
1130.0 20 18 18 20 19 19 20 22 27 31
1170.0 43 54 69 85 103 124 145 163 167 158
1210.0 140 120 114 121 142 179 232 306 384 415
1250.0 392 314 218 147 103 78 67 65 70 77
1290.0 84 88 88 90 99 108 110 112 101 93
1330.0 95 111 138 162 193 246 341 520 769 1002
1370.0 1114 1055 875 662 522 508 507 456 414 275
1410.0 152 116 106 108 115 129 151 186 227 291
1450.0 375 487 633 800 957 1084 1202 1204 1056 861
1490.0 578 340 207 142 102 81 67 55 46 43
1530.0 37 35 28 25 24 26 20 15 13 15
1570.0 14 12 11 12 14 12 14 13 14 14
1610.0 13 11 8 11 8 11 9 9 11 9
1650.0 9 7 10 8 7 8 7 10 7 5
1690.0 8 9 5 8 9 11 8 6 9 8
1730.0 8 5 7 4 3 3 4 4 1 1
1770.0 2 0 0 0 1 1 1 1 4 2
1810.0 4 4 6 5 6 2 4 3 5 4
1850.0 4 2 3 4 2 3 4 3 1 1
1890.0 1 3 2 1 3 1 1 2 2 3
1930.0 1 3 3 4 3 2 3 2 2 3
1970.0 2 3 5 5 5 4 3 3 4 3
2010.0 2 3 3 3 5 6 7 8 6 7
2050.0 7 5 6 4 4 4 3 3 5 2
2090.0 2 2 1 2 4 5 5 5 5 5
2130.0 3 3 3 4 4 3 4 4 3 3
2170.0 5 3 1 1 1 1 2 1 1 0
2210.0 1 1 2 2 2 3 2 0 1 2
2250.0 2 4 4 2 4 4 7 7 13 16
2290.0 19 23 25 26 27 28 22 21 19 18
2330.0 16 8 7 6 4 17 3 9 1 2
2370.0 0 4 12 16 15 12 12 12 10 12
2410.0 12 14 14 11 11 9 11 8 6 5
2450.0 7 5 8 7 9 7 7 8 8 7
2490.0 9 9 8 9 7 9 8 9 12 11
2530.0 14 13 14 17 18 19 19 22 22 22
2570.0 26 25 25 25 24 26 27 29 31 32
2610.0 36 39 41 44 45 45 44 48 49 52
2650.0 54 56 59 62 64 67 68 72 73 76
2690.0 74 76 74 77 79 84 91 101 107 112
2730.0 115 115 118 118 121 122 119 115 112 106
2770.0 103 101 105 113 129 141 155 168 188 210
2810.0 237 264 297 332 379 439 527 640 802 1017
2850.0 1299 1645 2022 2423 2844 3173 3390 3546 3537 3412
2890.0 3303 3175 3139 3231 3372 3551 3765 4033 4435 4983
2930.0 5670 6398 6967 7230 7304 7515 8118 8964 9689 10000
2970.0 8943 6958 4780 2818 1668 1074 757 578 472 398
3010.0 341 298 266 240 226 213 197 182 163 150
3050.0 137 129 124 119 111 108 104 100 98 96
3090.0 94 90 84 81 78 74 68 65 64 64
3130.0 61 59 63 65 65 65 65 69 71 74
3170.0 78 79 81 81 83 84 79 80 76 72
3210.0 69 68 66 66 62 56 51 45 38 34
3250.0 26 22 20 16 12 16 11 11 8 14
3290.0 16 18 16 20 17 19 21 18 17 14
3330.0 14 11 11 13 11 12 13 13 17 18
3370.0 21 18 20 20 19 18 17 11 9 10
3410.0 10 10 12 14 12 9 11 14 9 8
3450.0 10 9 10 9 7 10 8 5 5 8
3490.0 6 9 7 7 7 3 3 1 7 10
3530.0 7 5 4 2 8 1 5 3 2 4
3570.0 9 7 6 6 6 5 1 0 7 10
3610.0 10 11 10 16 16 13 4 7 12 11
3650.0 14 18 18 11 10 10 13 8 11 16
3690.0 12 10 9 10 11 14 12 8 7 8
3730.0 8 11 12 8 12 6 10 13 8 17
3770.0 13 11 14 18 12 14 15 18 17 17
3810.0 18 19 14 15 19 21 12 22 22 27
3850.0 20 11 15 13 12 21 25 20 15 21
3890.0 23 18 23 29 18 23 15 17 13 15
3930.0 21 21 16 4 8 13 21 17 12 9
##END=
