##TITLE=Benzene, 1-bromo-2-fluoro-
##JCAMP-DX=4.24
##DATA TYPE=INFRARED SPECTRUM
##ORIGIN=Sadtler Research Labs Under US-EPA Contract
##OWNER=NIST Standard Reference Data Program
##CAS REGISTRY NO=1072-85-1
##MOLFORM=C 6 H 4 Br F
##XUNITS=1/CM
##YUNITS=ABSORBANCE
##XFACTOR=1.0
##YFACTOR=0.000073114
##DELTAX=4.0
##FIRSTX=450.0
##LASTX=3966.0
##FIRSTY=0.041090
##MAXX=3966
##MINX=450
##MAXY=0.73114
##MINY=0
##NPOINTS=880
##XYDATA=(X++(Y..Y))
450.0 562 312 177 325 530 624 738 653 547 179
490.0 259 82 174 127 94 131 106 168 0 299
530.0 262 520 807 853 747 561 541 289 255 144
570.0 161 31 84 101 77 115 75 165 88 141
610.0 91 111 127 109 146 43 51 112 313 892
650.0 1648 1910 2018 2157 1293 290 194 237 123 256
690.0 188 308 257 247 178 165 131 127 276 359
730.0 1000 1986 3474 4563 6001 10000 6974 5126 4228 2634
770.0 1235 560 239 232 194 240 165 227 322 442
810.0 757 1190 1857 1666 1673 1873 1392 871 623 501
850.0 386 302 234 230 206 231 216 209 228 200
890.0 176 124 144 75 101 87 135 141 197 270
930.0 271 464 412 288 315 241 191 155 151 133
970.0 144 143 143 122 115 128 162 165 161 183
1010.0 251 452 1050 1665 1764 1654 1611 1067 1096 2249
1050.0 3034 3151 3289 2631 946 308 263 200 199 161
1090.0 141 176 180 294 465 776 881 896 944 754
1130.0 492 318 249 205 243 268 246 211 212 158
1170.0 91 110 99 118 114 141 111 114 125 116
1210.0 155 206 374 549 961 1630 2960 3662 3244 3869
1250.0 4000 3263 3814 3653 3284 3748 2743 1511 1062 772
1290.0 618 428 299 182 126 87 77 74 74 91
1330.0 85 100 86 94 88 91 92 106 123 151
1370.0 215 265 290 290 301 257 226 225 226 216
1410.0 184 184 152 183 214 353 617 1091 1610 1550
1450.0 1661 1796 1577 1725 2564 4362 6992 9471 9884 9303
1490.0 8690 5759 3208 2130 1648 1304 748 410 268 204
1530.0 193 171 159 157 202 240 348 480 693 854
1570.0 1013 1252 1429 1590 1693 1956 1943 1714 1614 1245
1610.0 743 413 210 122 87 70 67 66 77 68
1650.0 65 70 73 75 79 103 130 179 188 190
1690.0 191 154 112 94 98 83 90 74 70 67
1730.0 63 59 60 62 52 54 59 76 93 143
1770.0 208 278 311 289 283 212 133 93 82 95
1810.0 116 131 123 115 87 60 35 43 32 36
1850.0 37 43 62 77 95 85 91 74 66 76
1890.0 125 196 263 275 256 237 161 99 83 108
1930.0 151 188 206 186 158 100 45 32 27 27
1970.0 27 22 22 25 17 23 16 17 11 17
2010.0 16 21 31 23 36 36 39 38 53 48
2050.0 47 48 62 74 75 100 102 110 104 90
2090.0 79 65 52 36 39 30 34 22 23 30
2130.0 32 35 31 36 32 27 18 21 18 27
2170.0 28 29 27 20 23 18 22 15 17 19
2210.0 18 21 21 31 25 32 30 32 29 34
2250.0 35 36 42 49 62 60 66 67 65 62
2290.0 68 78 79 95 94 100 79 64 32 29
2330.0 11 11 11 10 23 25 11 11 11 22
2370.0 52 78 82 81 73 77 70 77 76 80
2410.0 82 76 77 66 65 55 60 59 54 52
2450.0 52 51 54 54 63 76 76 83 76 79
2490.0 81 77 90 77 79 84 94 86 93 102
2530.0 88 92 85 93 92 103 97 115 112 115
2570.0 104 83 85 74 71 54 59 62 50 53
2610.0 48 52 34 38 27 46 42 58 71 61
2650.0 55 31 18 23 45 45 66 82 85 77
2690.0 74 68 61 67 60 58 59 73 69 74
2730.0 81 78 79 94 94 78 84 75 71 65
2770.0 61 68 61 67 71 67 64 53 65 64
2810.0 64 60 73 74 61 67 77 83 77 77
2850.0 81 81 70 79 83 84 70 71 76 81
2890.0 78 74 51 65 68 55 55 65 65 66
2930.0 48 62 53 62 43 52 51 59 51 55
2970.0 59 54 65 69 66 74 76 75 92 103
3010.0 114 151 164 193 211 252 270 287 267 270
3050.0 283 301 373 456 561 695 849 1080 1288 1406
3090.0 1414 1208 823 473 264 183 112 90 79 50
3130.0 62 38 60 46 58 52 62 55 49 52
3170.0 53 55 37 73 49 78 50 51 49 48
3210.0 74 55 60 34 57 66 57 36 42 50
3250.0 48 58 59 38 60 46 67 74 53 65
3290.0 54 43 81 48 67 55 58 58 75 64
3330.0 62 66 68 76 46 65 58 52 58 57
3370.0 53 47 61 47 63 51 70 47 58 54
3410.0 68 60 48 73 58 57 78 58 53 46
3450.0 38 58 42 44 36 52 43 45 35 45
3490.0 47 38 32 73 76 69 62 42 48 64
3530.0 31 14 51 53 43 29 61 50 51 52
3570.0 46 49 39 50 51 46 66 38 31 45
3610.0 51 50 53 52 41 35 70 51 60 31
3650.0 44 43 33 53 41 49 39 53 55 45
3690.0 52 64 51 55 42 37 64 46 33 46
3730.0 52 78 71 38 68 64 30 44 57 100
3770.0 48 55 94 47 22 11 25 26 22 60
3810.0 51 83 11 32 11 54 93 91 33 51
3850.0 42 50 42 39 93 53 86 76 57 67
3890.0 76 90 102 95 47 93 84 59 63 76
3930.0 34 37 51 60 101 67 35 36 54 38
##END=
