##TITLE=Phenol, 2-(methylthio)-
##JCAMP-DX=4.24
##DATA TYPE=INFRARED SPECTRUM
##ORIGIN=Sadtler Research Labs Under US-EPA Contract
##OWNER=NIST Standard Reference Data Program
##CAS REGISTRY NO=1073-29-6
##MOLFORM=C 7 H 8 O S
##SOURCE REFERENCE=No.128825 (NIST/EPA/NIH MS Database)
##XUNITS=1/CM
##YUNITS=ABSORBANCE
##XFACTOR=1.0
##YFACTOR=0.000070206
##DELTAX=4.0
##FIRSTX=450.0
##LASTX=3966.0
##FIRSTY=0.008284
##MAXX=3966
##MINX=450
##MAXY=0.70206
##MINY=0
##NPOINTS=880
##XYDATA=(X++(Y..Y))
450.0 118 328 737 621 453 583 344 245 455 513
490.0 686 673 646 394 466 473 732 899 1305 1666
530.0 1921 2164 2232 2383 2209 2181 1841 1521 1137 707
570.0 369 191 3 46 152 216 194 202 401 262
610.0 280 320 322 326 308 282 229 333 348 280
650.0 312 312 206 430 284 591 650 795 734 655
690.0 462 484 441 371 397 433 420 394 606 679
730.0 983 1933 2786 3883 4685 7357 6801 4765 3635 2523
770.0 1290 636 401 249 270 266 301 272 325 380
810.0 445 594 853 1268 1395 1509 1514 1335 1144 945
850.0 796 688 500 521 393 345 321 262 274 296
890.0 311 332 327 387 405 465 484 512 502 503
930.0 526 522 568 536 461 516 566 680 998 1189
970.0 1351 1354 1213 989 775 588 620 647 693 812
1010.0 863 1088 1420 1704 1819 1847 1786 1440 1026 832
1050.0 711 681 654 681 720 633 625 487 409 407
1090.0 349 376 370 370 394 448 415 520 579 586
1130.0 637 658 644 805 1127 1234 1209 1250 1215 1091
1170.0 1104 1358 1808 2650 3925 5323 6343 6662 7141 7147
1210.0 6023 4917 4181 3544 2903 2735 3253 3901 3733 3876
1250.0 3606 2691 1832 1615 1563 1829 2367 3243 4168 4481
1290.0 4454 4017 2747 1447 829 761 811 906 994 1031
1330.0 1238 1571 2078 2515 2595 2522 2307 1717 1091 716
1370.0 505 445 434 447 571 635 682 708 632 568
1410.0 519 482 658 729 898 1020 1182 1423 1654 1930
1450.0 2446 3220 4112 5711 7926 10000 9067 8769 7734 4913
1490.0 2663 1457 997 831 834 866 673 667 651 481
1530.0 450 380 450 498 520 520 705 1068 1497 1919
1570.0 2607 3007 3232 3649 3182 2853 2687 2176 1742 1350
1610.0 984 799 615 501 442 333 317 324 272 299
1650.0 380 375 337 228 296 258 335 251 364 372
1690.0 309 260 337 324 220 172 181 250 123 40
1730.0 112 114 106 37 84 114 83 98 107 94
1770.0 145 210 185 231 243 233 250 192 164 125
1810.0 118 131 126 123 139 158 95 101 108 158
1850.0 106 91 120 115 161 172 143 125 113 125
1890.0 149 187 222 241 237 231 195 170 146 166
1930.0 200 239 237 226 197 117 87 76 56 84
1970.0 61 63 56 50 57 69 76 66 64 78
2010.0 74 84 98 86 80 69 66 60 57 51
2050.0 47 54 52 57 71 71 71 71 66 62
2090.0 59 54 56 55 59 66 66 66 66 59
2130.0 48 43 40 28 39 37 30 34 20 24
2170.0 20 17 15 14 19 15 11 13 6 9
2210.0 13 14 20 11 13 19 20 23 23 28
2250.0 29 28 30 35 42 50 62 75 80 89
2290.0 103 105 134 137 156 177 148 154 135 134
2330.0 115 78 120 9 172 35 216 115 175 164
2370.0 100 95 76 70 74 79 76 82 82 75
2410.0 67 63 61 58 55 50 57 56 48 50
2450.0 42 39 42 50 60 80 99 118 133 129
2490.0 123 104 85 78 78 82 83 97 115 122
2530.0 132 123 112 86 70 64 53 51 46 54
2570.0 50 51 49 47 56 57 55 59 52 60
2610.0 56 52 57 53 51 55 51 52 46 53
2650.0 61 68 71 76 88 98 96 107 109 100
2690.0 89 93 83 80 71 69 75 73 71 83
2730.0 86 101 104 121 126 132 123 118 121 120
2770.0 123 120 113 108 124 124 133 131 136 143
2810.0 155 156 172 184 206 243 300 359 428 478
2850.0 498 487 449 405 386 362 364 379 375 387
2890.0 360 349 330 321 340 364 461 611 889 1462
2930.0 1912 2454 2464 2146 1491 1006 568 390 355 305
2970.0 334 340 362 409 468 610 801 975 1016 1008
3010.0 904 733 597 583 635 748 851 948 1006 992
3050.0 945 883 842 951 1218 1499 1725 2010 2083 1918
3090.0 1757 1466 995 643 434 323 277 242 233 218
3130.0 216 215 207 218 199 204 200 187 187 188
3170.0 207 235 256 290 304 308 298 284 277 255
3210.0 244 227 216 196 169 157 147 130 128 106
3250.0 109 112 99 103 96 94 102 105 119 108
3290.0 97 102 103 107 99 91 84 79 92 91
3330.0 87 82 78 86 97 100 92 81 89 83
3370.0 76 71 81 100 93 106 125 141 163 190
3410.0 235 292 389 591 1008 1884 3042 4146 5071 5599
3450.0 5545 5167 4497 3811 3231 2764 2401 2094 1834 1565
3490.0 1338 1128 977 828 719 595 528 419 349 292
3530.0 250 215 179 149 123 118 136 93 127 75
3570.0 103 104 131 110 90 82 87 74 60 77
3610.0 40 45 33 51 30 74 51 112 120 160
3650.0 116 141 107 76 109 2 124 36 90 51
3690.0 82 92 83 123 81 91 106 69 108 53
3730.0 84 94 30 115 21 115 19 60 31 41
3770.0 62 40 50 79 57 91 70 101 113 120
3810.0 114 75 98 48 70 68 80 46 10 105
3850.0 0 138 21 117 93 136 149 115 167 140
3890.0 180 142 141 100 120 101 48 88 49 100
3930.0 105 143 167 128 160 147 204 171 180 181
##END=
