##TITLE=Benzene, 1-bromo-3-fluoro-
##JCAMP-DX=4.24
##DATA TYPE=INFRARED SPECTRUM
##ORIGIN=Sadtler Research Labs Under US-EPA Contract
##OWNER=NIST Standard Reference Data Program
##CAS REGISTRY NO=1073-06-9
##MOLFORM=C 6 H 4 Br F
##XUNITS=1/CM
##YUNITS=ABSORBANCE
##XFACTOR=1.0
##YFACTOR=0.000110507
##DELTAX=4.0
##FIRSTX=450.0
##LASTX=3966.0
##FIRSTY=0.005304
##MAXX=3966
##MINX=450
##MAXY=1.10507
##MINY=0
##NPOINTS=880
##XYDATA=(X++(Y..Y))
450.0 48 171 176 183 132 118 97 137 46 0
490.0 108 162 40 151 201 289 422 382 462 433
530.0 269 200 119 105 111 140 112 108 84 153
570.0 92 121 91 81 77 116 129 107 99 106
610.0 105 92 125 125 97 122 162 148 123 223
650.0 281 469 642 930 955 1465 1489 1122 843 645
690.0 420 278 156 144 119 132 111 125 71 118
730.0 124 112 103 125 194 263 551 855 1410 1646
770.0 2536 2865 2131 1595 1256 689 397 185 138 99
810.0 113 113 119 134 113 118 147 214 381 908
850.0 1928 3636 5425 6519 6161 4746 3067 1857 1222 809
890.0 455 285 230 176 137 121 109 121 109 115
930.0 101 98 89 86 89 87 97 98 109 104
970.0 104 98 101 112 144 186 324 445 419 434
1010.0 331 150 110 93 101 101 108 127 196 398
1050.0 814 1002 1072 1072 588 317 465 502 483 421
1090.0 277 135 124 110 123 135 144 147 131 125
1130.0 101 93 93 124 199 327 335 318 340 198
1170.0 134 124 127 132 153 188 244 383 592 917
1210.0 1325 2028 2370 2261 2598 2145 1337 960 606 502
1250.0 642 969 1536 1744 1751 1746 1148 667 587 518
1290.0 495 454 368 260 202 169 157 185 195 225
1330.0 221 207 205 161 114 86 88 90 100 94
1370.0 101 123 124 143 173 211 242 281 290 408
1410.0 597 768 995 1195 1348 1172 1129 1113 708 459
1450.0 372 384 570 973 2153 4586 6097 5834 5639 3234
1490.0 1084 605 462 323 351 475 590 646 661 548
1530.0 377 260 266 299 324 342 419 538 660 880
1570.0 1212 1551 2123 3096 4969 8175 9891 10000 6054 2606
1610.0 1146 624 372 244 197 138 145 140 111 129
1650.0 179 196 152 145 135 130 145 110 138 143
1690.0 106 100 153 157 156 164 210 254 209 200
1730.0 199 214 185 179 185 180 150 134 133 123
1770.0 140 134 104 94 83 90 88 80 83 70
1810.0 71 77 77 74 81 97 98 114 167 182
1850.0 161 135 100 71 80 92 65 60 58 59
1890.0 65 66 62 67 72 97 126 149 174 157
1930.0 146 130 98 80 65 48 46 45 44 51
1970.0 41 44 43 41 44 47 49 48 43 42
2010.0 47 47 48 51 46 44 42 43 45 44
2050.0 45 45 46 58 63 74 82 87 97 95
2090.0 90 70 64 56 55 56 48 57 55 56
2130.0 60 61 52 55 47 45 47 42 35 34
2170.0 40 35 40 40 36 38 41 39 37 42
2210.0 33 38 39 34 36 39 40 39 41 34
2250.0 35 36 35 41 42 36 31 38 40 48
2290.0 54 57 63 70 78 84 81 84 86 94
2330.0 83 88 99 86 97 86 98 83 72 55
2370.0 51 43 50 48 44 38 35 35 31 39
2410.0 41 39 37 44 56 58 65 71 74 78
2450.0 70 71 64 61 55 62 63 68 70 64
2490.0 60 57 44 35 30 22 30 29 31 25
2530.0 39 33 28 31 28 34 37 36 36 27
2570.0 36 33 37 39 38 38 31 25 27 34
2610.0 21 25 20 25 27 33 24 22 30 31
2650.0 37 33 23 21 29 33 35 34 39 51
2690.0 50 56 49 45 43 37 35 24 23 26
2730.0 18 23 25 13 19 19 7 14 6 5
2770.0 14 9 15 13 17 20 16 27 16 24
2810.0 34 24 23 31 19 5 33 14 18 31
2850.0 25 34 31 18 15 17 19 26 24 18
2890.0 29 20 28 30 21 15 16 26 16 29
2930.0 28 33 24 34 28 23 42 29 23 28
2970.0 29 18 22 26 24 23 18 23 15 33
3010.0 30 57 56 47 68 84 106 104 114 111
3050.0 102 84 93 120 153 207 278 359 389 466
3090.0 414 326 268 149 97 62 62 40 42 24
3130.0 24 42 31 17 7 38 39 26 29 26
3170.0 39 40 25 46 33 37 38 40 41 33
3210.0 36 28 34 40 29 30 29 26 29 27
3250.0 24 30 34 27 33 29 38 29 37 43
3290.0 38 39 35 29 43 41 42 43 34 38
3330.0 41 42 34 42 28 28 37 36 46 24
3370.0 29 39 38 34 45 39 44 31 37 45
3410.0 38 34 48 44 72 39 42 28 46 40
3450.0 58 50 47 55 67 39 25 23 30 50
3490.0 48 50 41 49 30 63 44 44 39 46
3530.0 39 33 43 35 37 50 40 52 48 37
3570.0 49 54 40 48 40 36 52 39 62 49
3610.0 62 56 63 62 49 58 50 26 41 45
3650.0 43 44 47 48 51 46 57 56 55 56
3690.0 46 59 49 52 55 49 73 56 46 59
3730.0 70 48 36 41 47 62 76 62 72 62
3770.0 55 58 55 71 38 56 38 65 51 46
3810.0 56 50 63 35 54 56 62 82 59 50
3850.0 71 54 48 42 55 49 41 57 46 74
3890.0 59 65 88 59 27 35 54 48 64 55
3930.0 71 85 39 40 59 60 48 59 54 44
##END=
