##TITLE=Benzene, 1-chloro-4-ethenyl-
##JCAMP-DX=4.24
##DATA TYPE=INFRARED SPECTRUM
##ORIGIN=Sadtler Research Labs Under US-EPA Contract
##OWNER=NIST Standard Reference Data Program
##CAS REGISTRY NO=1073-67-2
##MOLFORM=C 8 H 7 Cl
##XUNITS=1/CM
##YUNITS=ABSORBANCE
##XFACTOR=1.0
##YFACTOR=0.000042480
##DELTAX=4.0
##FIRSTX=450.0
##LASTX=3966.0
##FIRSTY=0.000000
##MAXX=3966
##MINX=450
##MAXY=0.4248
##MINY=0
##NPOINTS=880
##XYDATA=(X++(Y..Y))
450.0 0 578 1161 1104 1384 1301 1252 1133 1168 1596
490.0 1229 1186 548 587 563 725 989 961 1049 813
530.0 799 1151 1046 1060 909 922 862 668 659 647
570.0 588 1281 551 556 682 685 651 622 614 637
610.0 599 711 749 973 1140 1217 1267 1039 883 868
650.0 660 662 628 633 616 564 536 571 586 573
690.0 579 631 614 620 615 615 657 609 682 820
730.0 753 811 794 852 814 876 990 955 1078 744
770.0 822 1187 1305 1809 1981 1939 1825 1573 1248 1383
810.0 1659 2503 3421 4260 5048 5904 7210 5517 4378 3826
850.0 2622 1854 1279 1083 895 912 901 967 1074 1242
890.0 1526 1845 2304 2686 3065 3344 3431 3039 2623 2228
930.0 1782 1407 1135 1058 1002 1052 1081 1163 1163 1269
970.0 1397 1587 1766 1870 2196 2285 2085 1975 2004 2483
1010.0 4097 4422 4294 3810 1855 1129 1048 1031 1080 1137
1050.0 1198 1273 1327 1381 1502 1691 2026 2602 3700 5520
1090.0 8126 9801 10000 8868 5587 3300 2663 2224 1763 1428
1130.0 1108 943 862 819 780 758 757 747 783 829
1170.0 900 947 983 1004 991 955 1003 1023 1035 989
1210.0 956 933 943 1001 1032 1052 1072 1119 1243 1503
1250.0 1829 2089 2184 2061 1813 1551 1346 1174 1075 1093
1290.0 1151 1191 1143 1084 951 899 848 857 851 865
1330.0 903 956 1039 1069 1110 1193 1304 1375 1435 1411
1370.0 1360 1392 1494 1618 1764 1895 1966 1945 1876 1750
1410.0 1564 1386 1331 1203 1099 1021 1000 973 945 954
1450.0 964 1014 1076 1053 1109 1205 1416 1838 3001 5975
1490.0 9460 9775 9431 6444 2699 1287 999 850 808 707
1530.0 711 706 725 755 765 759 785 855 877 923
1570.0 979 1051 1110 1206 1386 1632 1882 2103 2008 1848
1610.0 1530 1238 1176 1276 1583 1885 1999 2005 1794 1439
1650.0 1218 1096 993 901 822 789 761 716 725 776
1690.0 796 903 1134 1399 1560 1573 1592 1451 1234 1076
1730.0 1017 871 738 715 711 720 718 730 771 818
1770.0 861 847 779 734 672 648 654 644 664 655
1810.0 716 777 875 986 1061 1073 1021 929 826 762
1850.0 674 622 613 615 632 664 693 747 829 893
1890.0 967 952 949 935 858 760 704 667 638 608
1930.0 590 595 589 605 598 606 603 616 613 610
1970.0 610 590 593 579 576 577 575 561 561 555
2010.0 545 554 562 565 568 581 571 573 561 557
2050.0 557 558 559 555 572 556 564 565 568 563
2090.0 564 559 556 553 556 554 547 552 551 541
2130.0 542 542 552 544 550 551 547 547 548 538
2170.0 540 543 544 549 547 554 555 566 552 569
2210.0 563 567 559 567 561 568 574 577 579 567
2250.0 576 557 565 568 571 571 583 598 604 610
2290.0 607 618 618 627 610 611 611 610 613 593
2330.0 604 596 597 597 574 594 630 602 588 585
2370.0 561 551 544 563 568 579 583 583 588 583
2410.0 579 569 564 558 567 558 552 547 561 556
2450.0 553 557 544 555 544 560 552 552 548 549
2490.0 564 571 580 567 569 572 582 569 574 572
2530.0 571 567 578 579 572 577 580 573 579 584
2570.0 580 581 579 588 587 576 579 577 577 568
2610.0 566 557 573 564 559 553 548 536 532 544
2650.0 540 543 546 544 538 547 552 557 558 553
2690.0 557 560 564 566 557 556 556 564 568 572
2730.0 565 563 562 546 544 539 536 541 544 542
2770.0 547 544 557 548 557 564 558 576 579 593
2810.0 597 592 602 618 626 627 615 617 605 616
2850.0 636 633 667 683 724 783 843 902 967 992
2890.0 976 950 927 900 860 847 821 817 809 841
2930.0 854 888 906 892 870 819 815 837 887 974
2970.0 1132 1320 1565 1792 1960 1949 1779 1495 1278 1282
3010.0 1452 1790 1918 1953 1892 1624 1567 1671 1716 1709
3050.0 1592 1463 1396 1344 1305 1285 1341 1462 1620 1825
3090.0 2090 2655 2787 2607 2318 1601 1051 844 723 643
3130.0 615 590 577 574 570 592 571 559 540 561
3170.0 562 562 558 559 594 569 530 555 575 573
3210.0 579 561 566 580 572 551 568 555 563 559
3250.0 548 544 549 551 555 555 571 576 576 563
3290.0 561 575 550 558 562 559 572 567 580 564
3330.0 571 589 557 564 559 577 577 562 571 569
3370.0 604 590 579 583 604 610 633 635 604 628
3410.0 611 613 599 593 579 615 615 599 598 597
3450.0 615 608 597 607 587 596 621 623 598 560
3490.0 584 592 604 603 626 597 564 617 606 630
3530.0 605 640 615 597 554 582 578 631 570 586
3570.0 583 624 627 629 603 638 609 653 637 616
3610.0 615 686 629 679 677 735 748 808 885 932
3650.0 953 960 911 900 818 783 731 688 686 684
3690.0 659 630 622 637 649 678 627 621 689 681
3730.0 631 657 674 686 672 668 611 655 667 636
3770.0 621 612 625 652 633 671 648 677 668 612
3810.0 605 662 649 686 675 702 689 670 588 627
3850.0 596 623 630 697 675 653 625 636 688 693
3890.0 656 694 677 704 676 597 614 643 704 673
3930.0 739 714 689 752 667 680 745 680 639 758
##END=
