##TITLE=Propanenitrile, 3-(phenylamino)-
##JCAMP-DX=4.24
##DATA TYPE=INFRARED SPECTRUM
##ORIGIN=Sadtler Research Labs Under US-EPA Contract
##OWNER=NIST Standard Reference Data Program
##CAS REGISTRY NO=1075-76-9
##MOLFORM=C 9 H 10 N 2
##XUNITS=1/CM
##YUNITS=ABSORBANCE
##XFACTOR=1.0
##YFACTOR=0.000069751
##DELTAX=4.0
##FIRSTX=450.0
##LASTX=3966.0
##FIRSTY=0.002023
##MAXX=3966
##MINX=450
##MAXY=0.69751
##MINY=0
##NPOINTS=880
##XYDATA=(X++(Y..Y))
450.0 29 11 50 187 274 324 452 474 619 713
490.0 781 815 862 788 771 729 630 558 527 527
530.0 488 466 550 488 516 515 512 506 537 533
570.0 555 557 514 497 492 486 487 456 443 454
610.0 454 480 485 516 546 535 562 580 591 630
650.0 678 746 753 870 902 1157 1371 1643 2096 2544
690.0 3007 2755 2431 2039 1653 1374 1203 1141 1141 1258
730.0 1506 1985 2632 3383 4033 4218 3738 3097 2379 1764
770.0 1336 1037 816 637 515 433 383 329 311 311
810.0 313 306 302 286 282 262 257 244 221 234
850.0 227 245 282 348 383 447 470 451 414 376
890.0 338 282 247 205 184 169 162 157 154 157
930.0 165 175 188 191 190 185 182 184 178 200
970.0 232 257 282 322 372 426 435 411 350 271
1010.0 226 234 272 331 374 400 396 388 372 366
1050.0 365 387 448 578 732 804 807 736 676 714
1090.0 869 1035 1105 1131 1164 1240 1293 1285 1161 926
1130.0 693 522 437 391 393 414 420 410 411 420
1170.0 479 652 824 911 924 846 750 761 813 853
1210.0 858 847 838 849 958 1185 1575 2145 2960 3874
1250.0 4674 5079 5022 4548 3946 3357 2874 2558 2340 2248
1290.0 2316 2547 2813 3040 3117 3011 2784 2511 2208 1869
1330.0 1574 1271 1029 850 719 695 761 967 1116 1183
1370.0 1194 1050 830 650 525 447 437 426 437 448
1410.0 501 583 740 970 1280 1612 1750 1675 1388 1052
1450.0 800 758 825 945 1061 1206 1384 1561 1876 2363
1490.0 3320 5058 7445 9584 10000 8747 6594 3965 2495 1651
1530.0 1286 992 861 756 693 672 694 745 763 799
1570.0 833 923 1124 1455 2070 3069 4594 6569 8156 8529
1610.0 7416 5531 3489 2190 1505 1125 873 707 583 502
1650.0 403 379 304 279 273 266 253 262 253 266
1690.0 235 234 222 223 193 184 176 166 144 132
1730.0 135 140 151 136 166 180 201 205 214 193
1770.0 170 157 123 128 107 118 102 115 116 129
1810.0 134 157 165 172 176 173 176 150 154 125
1850.0 111 84 76 70 71 74 68 73 69 83
1890.0 88 106 126 150 181 199 222 230 233 220
1930.0 210 196 175 145 107 72 60 57 50 54
1970.0 44 48 45 44 45 49 48 51 51 48
2010.0 48 48 47 46 41 38 36 39 34 32
2050.0 32 32 29 29 33 32 30 34 37 29
2090.0 29 25 25 19 18 17 13 16 9 9
2130.0 11 10 7 7 5 5 9 6 8 7
2170.0 14 22 28 29 29 31 24 28 29 42
2210.0 37 38 34 30 28 31 44 64 112 164
2250.0 209 214 195 144 92 65 49 47 49 63
2290.0 63 76 80 94 106 127 114 111 123 98
2330.0 109 100 81 109 140 88 150 99 138 126
2370.0 119 98 91 78 53 29 20 21 18 17
2410.0 13 13 10 6 3 1 3 1 0 3
2450.0 2 5 3 5 9 8 9 16 10 10
2490.0 13 14 11 10 8 15 15 24 28 31
2530.0 42 45 48 55 59 62 65 68 72 72
2570.0 67 69 63 55 53 48 36 41 42 40
2610.0 35 35 34 33 29 25 24 23 26 27
2650.0 30 27 30 27 27 29 28 32 39 38
2690.0 37 43 45 54 62 62 63 64 58 51
2730.0 46 45 47 43 44 43 47 41 41 48
2770.0 45 47 49 55 54 63 71 82 89 100
2810.0 114 121 145 165 189 222 260 309 368 433
2850.0 508 577 643 692 731 765 794 810 829 830
2890.0 817 782 740 695 656 621 591 589 613 679
2930.0 786 920 1047 1154 1216 1222 1204 1210 1218 1236
2970.0 1252 1224 1111 929 709 539 429 377 382 446
3010.0 571 745 936 1148 1331 1445 1474 1417 1345 1337
3050.0 1491 1772 2070 2219 2180 1974 1668 1402 1249 1197
3090.0 1168 1123 1018 889 749 640 533 423 325 231
3130.0 160 111 81 51 39 33 30 18 11 14
3170.0 17 16 8 13 12 19 21 17 17 22
3210.0 16 15 17 17 22 22 26 20 21 22
3250.0 14 19 18 14 9 8 11 12 3 6
3290.0 1 0 6 2 5 3 11 9 17 10
3330.0 17 22 13 9 20 25 32 33 36 36
3370.0 46 62 71 89 110 140 180 227 267 310
3410.0 322 332 329 324 321 308 317 310 326 344
3450.0 342 331 315 281 246 204 175 164 133 120
3490.0 93 86 84 70 64 47 50 42 42 42
3530.0 40 38 30 22 29 25 11 25 11 48
3570.0 27 29 31 34 35 18 35 19 18 14
3610.0 32 29 28 33 20 47 34 17 37 25
3650.0 63 29 28 50 14 49 14 71 25 53
3690.0 29 36 22 27 26 33 34 31 25 28
3730.0 30 33 39 45 43 17 41 16 23 30
3770.0 27 25 9 20 16 15 19 31 34 22
3810.0 13 43 20 44 20 30 35 44 25 31
3850.0 24 43 42 13 33 45 26 22 53 25
3890.0 30 26 21 49 46 19 20 36 23 25
3930.0 28 38 37 35 22 23 37 31 36 37
##END=
