##TITLE=Benzene-d6
##JCAMP-DX=4.24
##DATA TYPE=INFRARED SPECTRUM
##ORIGIN=Sadtler Research Labs Under US-EPA Contract
##OWNER=NIST Standard Reference Data Program
##CAS REGISTRY NO=1076-43-3
##MOLFORM=C 6 D 6
##XUNITS=1/CM
##YUNITS=ABSORBANCE
##XFACTOR=1.0
##YFACTOR=0.000068109
##DELTAX=4.0
##FIRSTX=450.0
##LASTX=3966.0
##FIRSTY=0.000000
##MAXX=3966
##MINX=450
##MAXY=0.68109
##MINY=0
##NPOINTS=880
##XYDATA=(X++(Y..Y))
450.0 0 155 412 671 1169 1931 2714 3368 3439 3768
490.0 5361 10000 7775 3540 3296 4343 3995 3269 2314 1578
530.0 861 548 474 391 291 169 156 83 58 49
570.0 69 52 59 74 51 45 72 72 81 73
610.0 50 98 83 71 46 83 103 97 102 123
650.0 153 133 129 85 87 209 185 113 147 147
690.0 167 124 107 106 123 127 75 100 101 77
730.0 101 99 93 108 95 95 61 76 65 63
770.0 71 87 96 127 203 321 619 891 1010 765
810.0 1060 1381 861 717 849 768 607 334 210 98
850.0 90 56 69 53 53 49 58 65 50 61
890.0 60 69 61 72 82 105 107 92 117 96
930.0 70 89 81 77 77 71 83 75 65 69
970.0 58 61 60 68 70 63 74 78 81 76
1010.0 78 87 81 64 61 60 53 50 52 54
1050.0 56 50 53 49 52 51 54 48 51 53
1090.0 57 57 61 59 58 60 58 64 62 74
1130.0 94 129 174 228 264 266 258 251 249 248
1170.0 208 154 110 89 82 77 74 71 71 66
1210.0 71 66 65 71 62 56 59 54 51 53
1250.0 58 61 53 61 59 59 54 59 66 66
1290.0 66 65 81 99 147 216 296 347 362 356
1330.0 439 476 336 296 340 301 219 141 101 90
1370.0 89 107 126 123 130 138 132 142 134 112
1410.0 102 101 115 127 162 218 307 392 432 429
1450.0 424 412 425 411 296 181 109 92 78 75
1490.0 73 65 65 65 65 72 62 60 64 62
1530.0 64 72 75 72 75 95 107 106 94 94
1570.0 86 80 68 69 72 100 132 186 263 339
1610.0 390 375 327 320 386 355 240 141 106 87
1650.0 103 98 85 73 80 87 113 119 125 118
1690.0 110 101 101 95 86 80 70 69 57 58
1730.0 60 64 56 58 59 60 58 59 57 57
1770.0 56 54 54 59 58 58 63 63 62 58
1810.0 60 61 64 64 66 69 69 75 78 86
1850.0 88 93 89 82 86 90 90 78 77 74
1890.0 69 66 65 68 65 62 59 57 56 56
1930.0 51 52 51 50 49 50 53 49 50 48
1970.0 54 54 49 52 56 57 58 56 54 51
2010.0 50 51 50 47 46 47 50 51 52 50
2050.0 50 51 46 49 50 46 50 51 54 53
2090.0 58 57 60 60 64 62 63 62 62 59
2130.0 63 62 63 61 62 65 64 62 63 62
2170.0 61 63 60 65 66 72 77 80 82 87
2210.0 83 76 75 82 78 81 94 112 157 223
2250.0 353 553 905 1479 2351 3390 4154 4200 4318 4846
2290.0 4603 4099 3955 3125 2014 1233 754 610 601 609
2330.0 615 632 641 692 675 596 670 937 889 915
2370.0 815 765 715 625 537 444 404 341 265 247
2410.0 212 155 101 73 59 50 49 52 52 50
2450.0 53 57 59 53 51 56 58 53 49 48
2490.0 49 52 49 49 48 50 49 56 52 52
2530.0 52 57 50 51 48 44 50 48 47 52
2570.0 51 51 52 52 47 52 53 57 59 60
2610.0 62 68 71 60 58 54 54 50 52 53
2650.0 48 49 49 47 47 52 49 50 46 49
2690.0 45 45 47 50 48 49 49 54 51 51
2730.0 46 47 47 46 53 49 52 56 52 56
2770.0 52 52 57 59 53 58 61 59 53 60
2810.0 62 64 59 68 73 72 68 76 81 82
2850.0 92 99 112 110 109 119 107 76 64 64
2890.0 60 53 53 56 49 51 54 52 61 62
2930.0 52 53 53 57 56 63 59 57 53 59
2970.0 61 59 59 58 57 54 58 60 52 52
3010.0 56 50 52 50 49 58 60 60 73 89
3050.0 97 99 98 96 107 94 90 83 75 71
3090.0 69 63 68 64 59 70 65 63 63 65
3130.0 65 65 60 58 65 57 59 56 57 59
3170.0 47 47 54 56 46 50 50 49 57 64
3210.0 77 89 101 134 166 192 200 211 216 215
3250.0 208 190 166 120 95 92 82 75 75 76
3290.0 69 68 70 52 56 54 53 56 57 49
3330.0 49 51 53 52 62 58 54 56 54 58
3370.0 61 52 54 48 50 57 64 52 46 54
3410.0 56 61 53 60 62 53 58 47 57 60
3450.0 51 53 49 64 52 53 57 53 51 52
3490.0 44 45 45 56 58 47 56 61 57 48
3530.0 64 57 53 57 51 52 63 52 59 54
3570.0 56 53 61 46 52 47 54 50 59 54
3610.0 58 52 56 66 63 71 76 66 62 62
3650.0 58 61 64 66 53 52 48 59 46 56
3690.0 59 70 64 49 54 65 66 68 57 65
3730.0 64 56 70 51 60 49 56 65 73 60
3770.0 59 54 73 58 64 69 70 92 96 114
3810.0 112 101 107 96 103 85 94 74 95 85
3850.0 74 85 76 72 80 62 59 78 61 62
3890.0 64 68 62 52 77 64 56 57 51 57
3930.0 75 68 58 76 75 81 60 66 68 46
##END=
