##TITLE=Benzene, hexyl-
##JCAMP-DX=4.24
##DATA TYPE=INFRARED SPECTRUM
##ORIGIN=Sadtler Research Labs Under US-EPA Contract
##OWNER=NIST Standard Reference Data Program
##CAS REGISTRY NO=1077-16-3
##MOLFORM=C 12 H 18
##XUNITS=1/CM
##YUNITS=ABSORBANCE
##XFACTOR=1.0
##YFACTOR=0.000070801
##DELTAX=4.0
##FIRSTX=450.0
##LASTX=3966.0
##FIRSTY=0.006160
##MAXX=3966
##MINX=450
##MAXY=0.70801
##MINY=0
##NPOINTS=880
##XYDATA=(X++(Y..Y))
450.0 87 61 119 182 173 160 160 180 205 178
490.0 160 131 156 145 159 153 114 97 87 136
530.0 66 82 36 42 41 53 113 100 219 190
570.0 216 140 182 83 104 101 69 123 30 57
610.0 4 60 15 12 54 26 77 6 52 31
650.0 73 90 103 152 134 290 272 447 604 1042
690.0 1699 2376 2494 2069 1539 1136 1073 1029 1129 1224
730.0 1369 1585 1682 1718 1418 1140 761 542 408 332
770.0 281 232 218 143 208 131 129 87 118 79
810.0 99 96 102 106 64 122 84 89 91 66
850.0 83 80 105 77 114 66 109 74 113 113
890.0 116 149 159 194 185 168 118 86 91 90
930.0 91 64 80 51 86 58 70 69 73 95
970.0 78 96 75 99 93 86 99 95 105 102
1010.0 120 110 156 201 353 435 398 276 135 128
1050.0 135 165 193 250 251 252 211 172 145 108
1090.0 124 99 139 120 157 162 135 137 96 88
1130.0 69 63 39 56 51 55 58 51 64 67
1170.0 87 89 110 118 101 109 102 125 119 121
1210.0 98 113 83 96 94 97 114 100 117 102
1250.0 111 107 104 113 113 120 121 133 127 150
1290.0 145 164 175 185 202 196 217 197 218 204
1330.0 221 247 286 322 339 365 360 360 329 322
1370.0 315 329 344 373 385 326 270 211 184 168
1410.0 158 163 191 205 202 247 293 453 555 786
1450.0 990 1154 1317 1236 1173 1006 892 670 545 526
1490.0 694 1038 1262 1125 744 367 193 174 186 153
1530.0 134 147 140 179 134 90 105 150 152 100
1570.0 125 132 175 187 215 280 346 458 601 691
1610.0 620 419 282 140 123 87 91 115 76 111
1650.0 89 190 68 76 52 88 75 67 69 117
1690.0 76 80 153 173 127 101 108 154 97 101
1730.0 98 168 116 126 97 110 89 70 70 49
1770.0 79 86 72 76 103 130 192 182 161 111
1810.0 82 82 61 57 65 59 48 45 52 70
1850.0 62 62 82 89 105 131 102 109 91 84
1890.0 61 46 38 32 28 33 39 40 62 70
1930.0 101 119 133 143 138 138 125 114 65 48
1970.0 26 27 18 20 24 13 24 12 16 14
2010.0 16 20 18 26 19 26 19 25 23 18
2050.0 24 15 22 12 19 13 18 12 19 11
2090.0 13 16 11 16 12 16 11 18 11 11
2130.0 12 11 18 11 20 11 15 11 15 18
2170.0 18 26 18 19 19 26 17 21 16 14
2210.0 19 10 20 11 17 13 18 12 12 18
2250.0 12 16 11 19 11 15 14 11 13 11
2290.0 18 11 24 17 27 22 19 31 13 13
2330.0 13 26 13 23 11 4 3 1 17 3
2370.0 13 10 15 10 10 10 10 10 10 18
2410.0 10 19 15 13 15 11 11 11 11 11
2450.0 11 11 11 10 10 10 10 10 7 11
2490.0 11 10 5 9 10 10 11 4 12 10
2530.0 13 11 14 14 11 25 13 26 20 33
2570.0 26 35 35 36 42 38 46 30 45 44
2610.0 49 53 51 59 44 66 52 75 63 70
2650.0 70 71 83 74 88 75 89 82 91 81
2690.0 86 90 65 81 65 79 73 76 79 85
2730.0 92 86 106 101 115 96 112 100 102 111
2770.0 105 124 121 151 159 182 187 204 222 233
2810.0 257 277 311 332 378 417 472 559 692 935
2850.0 1304 1924 2686 3485 3929 3942 3601 3208 2959 2693
2890.0 2470 2182 2154 2272 2590 3024 3610 4454 5565 7155
2930.0 8545 10000 9843 9298 7640 6042 4784 4221 4404 4816
2970.0 5145 4444 3276 2080 1385 1016 821 732 702 746
3010.0 761 808 879 1114 1498 1999 2404 2325 1908 1286
3050.0 960 811 862 1041 1402 1832 1881 1689 1232 1048
3090.0 947 869 738 600 508 435 392 296 240 148
3130.0 126 107 83 80 59 73 68 81 68 75
3170.0 75 69 60 55 58 49 57 38 56 44
3210.0 50 43 35 51 37 36 23 36 11 28
3250.0 35 16 39 18 31 11 26 18 20 16
3290.0 22 27 9 20 7 27 15 19 16 21
3330.0 21 8 22 2 21 10 24 14 27 27
3370.0 15 31 17 31 17 33 16 19 27 20
3410.0 30 18 28 19 25 7 27 20 17 32
3450.0 14 21 0 21 10 15 18 14 25 16
3490.0 24 3 24 17 26 18 16 22 10 27
3530.0 13 17 13 26 26 21 32 16 28 23
3570.0 49 16 27 24 23 54 35 44 29 37
3610.0 50 56 45 60 55 73 58 40 59 67
3650.0 102 75 62 53 59 79 69 86 45 58
3690.0 72 55 44 41 58 58 78 49 66 66
3730.0 63 79 83 77 105 105 82 81 74 75
3770.0 80 62 76 67 78 60 77 85 97 84
3810.0 84 84 90 99 78 86 88 104 96 87
3850.0 107 114 90 87 100 93 88 87 87 94
3890.0 84 89 84 96 85 80 77 82 77 77
3930.0 90 84 84 77 78 79 25 29 29 30
##END=
