##TITLE=1(2H)-Naphthalenone, 3,4-dihydro-6-methoxy-
##JCAMP-DX=4.24
##DATA TYPE=INFRARED SPECTRUM
##ORIGIN=Sadtler Research Labs Under US-EPA Contract
##OWNER=NIST Standard Reference Data Program
##CAS REGISTRY NO=1078-19-9
##MOLFORM=C 11 H 12 O 2
##XUNITS=1/CM
##YUNITS=ABSORBANCE
##XFACTOR=1.0
##YFACTOR=0.000103937
##DELTAX=4.0
##FIRSTX=450.0
##LASTX=3966.0
##FIRSTY=0.000000
##MAXX=3966
##MINX=450
##MAXY=1.03937
##MINY=0
##NPOINTS=880
##XYDATA=(X++(Y..Y))
450.0 0 132 205 201 279 252 293 233 247 223
490.0 200 218 202 244 242 285 344 483 598 737
530.0 859 987 1077 1095 960 808 637 521 484 456
570.0 445 401 389 387 363 336 306 265 214 208
610.0 173 197 192 180 183 184 216 209 221 229
650.0 253 263 271 256 268 264 217 151 115 90
690.0 66 53 39 37 31 49 107 167 181 163
730.0 120 89 91 83 83 63 53 52 29 44
770.0 51 44 38 53 47 64 85 109 177 272
810.0 431 641 723 777 887 987 1011 895 756 639
850.0 501 403 373 395 515 717 1001 1303 1382 1243
890.0 1032 830 717 613 463 334 284 302 300 281
930.0 245 185 133 126 109 109 115 118 129 128
970.0 136 139 155 158 176 182 198 222 264 382
1010.0 649 1101 1361 1415 1308 1122 1270 1417 1347 1108
1050.0 734 507 494 594 730 766 690 523 362 319
1090.0 338 441 649 1040 1625 2228 2669 3051 3122 2821
1130.0 2351 1591 1067 1016 1299 1697 1938 1887 1440 945
1170.0 667 659 896 1143 1215 1077 790 555 490 497
1210.0 539 592 672 824 1062 1456 2147 3472 5661 8093
1250.0 9718 10000 9434 9145 9803 9886 8586 6097 3731 2439
1290.0 1855 1417 1196 1167 1303 1539 1938 2362 2539 2572
1330.0 2393 2221 2386 2981 3338 3175 2521 1378 638 431
1370.0 327 299 269 255 257 258 283 308 334 367
1410.0 427 510 680 743 758 715 756 844 997 1076
1450.0 1105 1154 1231 1313 1405 1381 1319 1257 1349 1867
1490.0 2453 2694 2370 1682 942 575 432 370 363 309
1530.0 316 292 357 375 404 420 537 694 962 1284
1570.0 1644 1884 2085 2302 2921 4371 6322 8493 9438 9288
1610.0 7442 5271 3583 2492 1913 1476 1253 1011 810 690
1650.0 591 586 518 522 553 644 746 1029 1451 2315
1690.0 3622 5574 7669 8753 8442 6670 4290 2351 1298 770
1730.0 583 444 384 299 274 243 235 223 236 243
1770.0 248 263 210 210 166 174 163 154 149 129
1810.0 120 110 108 100 106 92 93 76 90 93
1850.0 79 74 71 72 73 81 67 69 64 67
1890.0 73 75 80 84 98 100 107 114 117 113
1930.0 111 113 106 115 110 110 105 103 95 89
1970.0 81 75 75 72 83 89 91 88 86 77
2010.0 68 64 55 51 49 59 61 69 73 80
2050.0 81 82 87 85 90 90 91 88 79 74
2090.0 64 64 68 70 65 63 58 56 54 60
2130.0 68 70 74 76 78 75 77 74 75 73
2170.0 77 79 79 80 75 70 66 64 56 52
2210.0 50 45 42 40 38 34 35 31 32 30
2250.0 34 36 34 34 35 41 42 53 66 80
2290.0 91 110 123 133 148 167 154 144 154 125
2330.0 121 108 91 94 163 123 157 116 138 131
2370.0 137 130 138 130 103 76 61 56 57 60
2410.0 60 61 56 59 54 51 51 48 47 45
2450.0 48 46 49 49 51 54 59 60 64 69
2490.0 72 72 72 76 74 72 77 78 82 83
2530.0 86 88 89 89 89 88 92 96 106 115
2570.0 127 137 138 137 129 124 121 122 127 126
2610.0 129 121 116 105 93 86 82 84 85 84
2650.0 86 89 88 91 90 88 88 90 89 89
2690.0 84 84 80 77 84 84 87 90 91 91
2730.0 87 87 85 90 92 95 93 95 101 107
2770.0 117 119 122 123 128 129 134 141 153 167
2810.0 174 200 235 287 341 421 538 737 1016 1259
2850.0 1353 1281 1099 938 884 928 1033 1110 1127 1100
2890.0 1072 1102 1126 1132 1143 1151 1150 1188 1281 1452
2930.0 1757 2247 2882 3612 4450 4646 4280 3832 3124 2497
2970.0 2019 1460 952 644 520 467 471 536 685 953
3010.0 1175 1196 1048 755 506 428 387 365 343 328
3050.0 313 309 329 342 371 392 409 424 429 424
3090.0 395 338 273 212 177 157 140 131 116 115
3130.0 115 108 106 105 104 101 93 86 83 78
3170.0 77 74 69 66 59 60 58 56 56 52
3210.0 53 50 48 51 38 42 43 38 33 36
3250.0 33 35 35 33 39 34 34 33 31 34
3290.0 35 36 36 39 38 35 35 38 35 37
3330.0 37 43 39 43 46 47 51 60 65 74
3370.0 93 107 131 154 166 158 132 106 83 62
3410.0 58 50 45 49 41 45 50 51 52 52
3450.0 54 47 47 51 46 52 53 54 54 55
3490.0 57 50 58 61 59 52 61 61 63 60
3530.0 64 63 62 63 64 64 61 63 55 66
3570.0 59 56 65 56 68 50 65 54 53 61
3610.0 69 65 62 65 57 65 77 51 68 59
3650.0 79 79 57 71 33 85 62 84 46 62
3690.0 64 59 51 49 42 67 60 61 63 48
3730.0 51 74 84 58 104 48 99 54 67 64
3770.0 67 57 49 73 57 58 43 69 59 90
3810.0 45 78 62 76 58 62 77 81 73 71
3850.0 71 75 73 57 75 77 64 62 70 70
3890.0 72 86 57 66 64 75 62 71 66 66
3930.0 69 61 72 74 77 73 82 65 79 78
##END=
