##TITLE=Propanedioic acid, dimethyl ester
##JCAMP-DX=4.24
##DATA TYPE=INFRARED SPECTRUM
##ORIGIN=Sadtler Research Labs Under US-EPA Contract
##OWNER=NIST Standard Reference Data Program
##CAS REGISTRY NO=108-59-8
##MOLFORM=C 5 H 8 O 4
##XUNITS=1/CM
##YUNITS=ABSORBANCE
##XFACTOR=1.0
##YFACTOR=0.000202557
##DELTAX=4.0
##FIRSTX=450.0
##LASTX=3966.0
##FIRSTY=0.000000
##MAXX=3966
##MINX=450
##MAXY=2.02557
##MINY=0
##NPOINTS=880
##XYDATA=(X++(Y..Y))
450.0 0 34 87 56 61 53 53 64 82 37
490.0 69 47 57 93 100 69 68 88 99 101
530.0 95 68 106 97 103 127 142 153 198 211
570.0 243 265 276 313 344 338 336 334 313 296
610.0 252 243 259 239 216 226 238 255 256 251
650.0 235 188 161 140 132 162 227 320 390 392
690.0 349 271 166 106 82 78 72 62 51 57
730.0 62 57 68 69 69 72 76 90 110 140
770.0 158 179 189 188 198 190 169 169 176 168
810.0 177 195 218 251 274 310 342 369 399 419
850.0 416 407 367 312 279 238 205 193 171 159
890.0 148 154 156 159 150 143 138 126 116 102
930.0 106 106 108 115 120 129 129 128 119 120
970.0 120 123 132 157 180 224 276 339 420 526
1010.0 671 888 1241 1715 2137 2467 2484 2176 1621 1089
1050.0 749 583 506 460 425 382 352 335 340 355
1090.0 400 452 528 618 732 867 1035 1234 1436 1652
1130.0 1905 2251 2714 3380 4120 4685 4925 4866 4558 4042
1170.0 3648 3384 3202 3081 2986 2942 2939 2975 3049 3070
1210.0 3077 3058 3033 3047 3053 3062 3063 3008 2970 2964
1250.0 2976 3024 3068 3090 3103 3078 3034 2940 2833 2748
1290.0 2647 2559 2460 2408 2393 2425 2486 2586 2732 2945
1330.0 3216 3467 3466 3177 2763 2156 1558 1160 917 762
1370.0 669 590 520 470 426 400 389 407 438 479
1410.0 536 576 620 663 752 1012 1454 1734 1884 1873
1450.0 1416 913 679 557 501 445 401 356 308 293
1490.0 259 225 209 188 196 192 171 177 172 165
1530.0 152 152 158 164 160 150 151 153 140 141
1570.0 135 129 128 122 119 115 107 106 97 99
1610.0 93 84 96 90 97 89 99 96 90 99
1650.0 103 107 113 110 129 130 147 154 168 185
1690.0 198 207 242 278 320 366 445 561 669 823
1730.0 995 1230 1601 2062 2881 3996 5215 6963 7921 8794
1770.0 10000 8889 8758 7189 5976 4832 3513 2646 1933 1436
1810.0 1141 866 675 547 437 373 312 261 232 206
1850.0 176 155 141 140 126 126 113 100 98 85
1890.0 85 76 68 66 63 65 67 62 68 64
1930.0 68 57 65 70 64 68 70 70 79 80
1970.0 81 82 89 91 91 100 97 93 106 102
2010.0 108 112 112 114 116 113 118 123 122 119
2050.0 120 115 112 103 100 95 93 85 86 79
2090.0 83 84 84 87 87 91 88 86 82 78
2130.0 75 77 76 74 66 65 61 51 50 49
2170.0 46 46 41 48 42 37 39 42 33 38
2210.0 40 40 34 37 39 33 39 41 42 42
2250.0 42 42 40 47 43 49 51 48 52 54
2290.0 59 63 58 68 61 71 69 61 66 78
2330.0 73 63 63 67 74 67 80 66 62 59
2370.0 55 64 62 60 50 50 50 47 47 44
2410.0 40 42 42 43 41 39 47 42 49 50
2450.0 49 48 53 47 49 48 52 52 52 51
2490.0 47 48 52 47 52 50 54 53 50 47
2530.0 56 56 54 50 50 51 50 53 52 51
2570.0 43 47 51 58 53 51 61 54 54 60
2610.0 57 57 62 57 52 57 61 62 53 50
2650.0 66 53 48 52 49 45 50 41 43 41
2690.0 47 47 45 44 44 48 45 45 49 47
2730.0 40 39 44 48 50 42 51 38 45 38
2770.0 44 49 45 41 49 47 58 57 55 52
2810.0 63 62 69 77 81 91 113 133 183 257
2850.0 302 323 339 306 234 183 145 142 138 162
2890.0 171 196 227 246 281 296 318 318 311 312
2930.0 310 313 343 407 499 649 1006 1477 1697 1673
2970.0 1597 1221 808 561 488 471 476 519 561 593
3010.0 589 571 553 523 507 491 485 442 411 364
3050.0 311 257 218 198 179 165 160 149 136 139
3090.0 131 134 133 122 114 115 109 107 101 94
3130.0 87 85 80 79 69 65 71 69 58 51
3170.0 53 55 51 58 59 50 58 56 53 47
3210.0 62 55 57 51 51 50 47 53 50 40
3250.0 34 37 34 38 39 46 49 46 42 43
3290.0 51 53 53 62 53 61 60 74 52 63
3330.0 55 56 59 62 59 53 64 58 56 46
3370.0 48 51 55 48 39 47 48 52 51 42
3410.0 40 39 41 50 50 46 52 51 42 38
3450.0 37 47 48 44 53 40 48 61 61 64
3490.0 63 68 79 78 102 111 131 134 129 129
3530.0 120 117 102 79 77 69 65 74 71 99
3570.0 143 177 185 181 191 146 101 81 66 58
3610.0 59 52 44 49 54 49 50 48 47 48
3650.0 65 53 49 56 64 47 48 48 40 52
3690.0 50 43 52 55 52 56 55 65 56 53
3730.0 56 59 50 62 48 43 33 48 54 63
3770.0 50 46 47 57 58 56 37 42 45 40
3810.0 37 33 38 38 33 59 56 72 37 32
3850.0 48 53 42 51 33 53 33 55 48 34
3890.0 46 32 55 62 33 62 54 51 51 60
3930.0 59 40 37 43 54 46 45 36 36 41
##END=
