##TITLE=Diisopropyl ether
##JCAMP-DX=4.24
##DATA TYPE=INFRARED SPECTRUM
##ORIGIN=Sadtler Research Labs Under US-EPA Contract
##OWNER=NIST Standard Reference Data Program
##CAS REGISTRY NO=108-20-3
##MOLFORM=C 6 H 14 O
##XUNITS=1/CM
##YUNITS=ABSORBANCE
##XFACTOR=1.0
##YFACTOR=0.000179498
##DELTAX=4.0
##FIRSTX=450.0
##LASTX=3966.0
##FIRSTY=0.038951
##MAXX=3966
##MINX=450
##MAXY=1.79498
##MINY=0
##NPOINTS=880
##XYDATA=(X++(Y..Y))
450.0 217 140 71 116 90 113 80 165 32 8
490.0 84 68 62 103 189 153 212 184 175 135
530.0 127 106 97 95 82 107 42 117 78 108
570.0 102 117 86 110 102 66 97 91 116 92
610.0 110 113 115 124 100 76 96 108 104 92
650.0 103 89 100 92 121 94 132 91 124 112
690.0 137 130 134 140 132 152 138 153 135 146
730.0 144 153 150 142 148 143 158 136 157 157
770.0 171 171 218 237 250 271 302 332 297 280
810.0 259 240 213 197 205 197 214 218 229 225
850.0 226 223 213 205 190 207 211 232 240 284
890.0 321 364 400 433 460 426 385 340 314 283
930.0 264 242 234 240 240 241 241 253 261 273
970.0 281 301 325 349 426 519 692 994 1510 2227
1010.0 2922 3281 3462 3330 2983 2209 1287 784 569 479
1050.0 431 409 399 396 415 438 484 532 613 724
1090.0 914 1229 1695 2319 3018 3679 4252 4760 5105 5106
1130.0 4869 4669 4364 4034 3727 3560 3595 3905 4358 4366
1170.0 4061 3557 2820 2052 1363 967 761 639 553 499
1210.0 462 449 433 407 410 410 417 412 399 389
1250.0 376 359 335 318 307 309 307 316 325 345
1290.0 368 401 450 519 628 799 1068 1480 1989 2488
1330.0 2759 2668 2170 1518 1177 1073 1150 1358 1703 2171
1370.0 2675 3280 3630 3481 3162 2623 1957 1199 802 623
1410.0 524 477 439 425 420 439 463 506 562 631
1450.0 709 795 915 966 990 1015 962 795 674 555
1490.0 456 361 299 272 256 248 231 225 208 198
1530.0 187 181 160 152 136 116 87 67 27 23
1570.0 2 14 1 45 36 2 3 26 34 72
1610.0 112 132 167 177 197 195 205 200 216 198
1650.0 219 189 201 209 198 197 207 192 210 191
1690.0 207 209 218 217 238 246 262 273 277 286
1730.0 291 314 305 330 334 344 332 329 303 289
1770.0 269 238 225 208 211 198 214 220 239 240
1810.0 251 247 232 222 194 177 153 152 141 144
1850.0 138 136 132 131 138 134 136 133 139 141
1890.0 149 157 162 173 180 190 189 193 183 173
1930.0 163 152 142 132 131 124 120 121 116 115
1970.0 109 105 100 98 92 95 94 92 94 96
2010.0 94 98 104 100 97 99 100 92 95 91
2050.0 91 92 87 81 76 77 71 70 72 73
2090.0 74 69 70 67 68 68 70 70 72 71
2130.0 69 68 65 69 66 67 67 72 73 79
2170.0 82 80 80 75 71 63 61 56 58 57
2210.0 58 60 56 60 56 57 54 53 53 49
2250.0 50 47 52 51 54 49 54 57 58 65
2290.0 68 74 78 82 81 84 73 67 58 42
2330.0 36 19 22 2 35 33 39 32 1 1
2370.0 1 2 11 26 23 17 12 10 8 7
2410.0 7 4 1 1 3 1 2 5 6 9
2450.0 10 15 12 16 14 17 16 19 23 27
2490.0 27 33 32 30 33 30 23 20 16 17
2530.0 13 18 16 20 18 22 22 24 26 26
2570.0 28 33 39 41 45 47 53 60 69 81
2610.0 95 118 137 166 188 202 210 209 198 180
2650.0 163 150 139 127 120 115 116 117 119 125
2690.0 127 129 130 131 127 126 129 134 140 138
2730.0 151 151 158 159 159 157 157 159 157 162
2770.0 166 172 181 187 194 197 207 215 225 238
2810.0 263 288 315 347 383 412 444 480 514 562
2850.0 627 731 890 1127 1447 1814 2183 2526 2820 2981
2890.0 2902 2695 2466 2242 2056 1921 1858 1870 1946 2103
2930.0 2348 2688 2929 2955 2894 2724 2645 2789 3430 4860
2970.0 6731 8375 9841 10000 8562 6858 5060 3354 2072 1282
3010.0 834 602 469 385 326 281 244 211 196 175
3050.0 164 154 143 135 134 133 132 131 132 134
3090.0 134 132 132 127 123 123 122 119 114 110
3130.0 113 106 106 109 108 112 116 123 119 131
3170.0 135 136 143 143 137 121 119 112 108 98
3210.0 91 95 86 84 74 72 62 57 46 41
3250.0 28 28 24 22 22 18 28 22 26 26
3290.0 34 38 39 40 41 38 36 38 34 39
3330.0 38 33 39 41 42 47 41 46 51 52
3370.0 52 50 51 51 44 55 45 43 39 32
3410.0 28 33 30 30 36 34 40 40 42 37
3450.0 45 43 41 38 41 45 45 42 53 51
3490.0 38 42 37 35 34 31 32 25 32 30
3530.0 25 31 24 16 28 22 6 18 27 20
3570.0 16 13 18 13 14 11 11 14 6 6
3610.0 10 14 9 11 10 10 7 4 13 26
3650.0 14 11 2 17 12 12 9 19 5 13
3690.0 2 2 11 4 2 4 1 1 10 7
3730.0 1 9 8 3 5 1 9 1 4 17
3770.0 19 19 15 17 9 6 28 5 17 22
3810.0 18 14 2 6 1 3 13 8 5 14
3850.0 11 13 13 7 5 16 12 13 31 11
3890.0 34 2 23 23 37 21 13 11 3 1
3930.0 15 26 2 32 13 33 0 15 11 21
##END=
