##TITLE=Acetic acid, anhydride
##JCAMP-DX=4.24
##DATA TYPE=INFRARED SPECTRUM
##ORIGIN=Sadtler Research Labs Under US-EPA Contract
##OWNER=NIST Standard Reference Data Program
##CAS REGISTRY NO=108-24-7
##MOLFORM=C 4 H 6 O 3
##XUNITS=1/CM
##YUNITS=ABSORBANCE
##XFACTOR=1.0
##YFACTOR=0.000195016
##DELTAX=4.0
##FIRSTX=450.0
##LASTX=3966.0
##FIRSTY=0.000000
##MAXX=3966
##MINX=450
##MAXY=1.95016
##MINY=0
##NPOINTS=880
##XYDATA=(X++(Y..Y))
450.0 0 37 63 175 132 94 67 49 111 63
490.0 118 172 137 161 170 228 256 245 256 288
530.0 335 438 520 486 535 584 567 562 505 440
570.0 453 393 388 449 419 486 533 535 532 509
610.0 461 428 375 324 322 264 237 229 279 243
650.0 269 300 282 247 205 233 222 212 230 186
690.0 179 179 161 171 143 114 142 194 141 157
730.0 169 125 184 139 67 169 275 317 381 445
770.0 553 654 714 696 716 664 653 563 443 404
810.0 365 317 271 254 228 221 212 214 212 234
850.0 249 279 314 348 424 496 625 797 1046 1348
890.0 1734 2047 2259 2341 2203 1995 1656 1287 980 760
930.0 639 574 526 509 502 500 514 557 636 759
970.0 932 1179 1545 2022 2561 3095 3562 3848 3952 3746
1010.0 3361 2791 2210 1690 1284 1036 924 883 916 985
1050.0 1086 1201 1315 1442 1534 1597 1621 1609 1575 1527
1090.0 1498 1513 1623 1901 2398 3307 4524 6041 7951 9098
1130.0 9494 10000 9183 8500 6805 5163 3765 2784 2168 1797
1170.0 1583 1452 1363 1323 1301 1306 1351 1410 1515 1624
1210.0 1736 1872 1982 2067 2053 1973 1859 1661 1381 1022
1250.0 748 596 498 444 404 376 353 331 315 302
1290.0 285 279 268 254 242 235 234 238 232 238
1330.0 249 264 297 332 397 505 692 1012 1448 1876
1370.0 2127 2280 2241 2172 1730 1152 807 586 510 465
1410.0 446 455 467 490 521 524 547 518 515 478
1450.0 442 402 349 301 290 233 240 214 204 209
1490.0 191 185 177 190 174 181 198 180 187 192
1530.0 184 191 162 176 173 174 180 141 159 159
1570.0 157 164 139 161 148 151 148 150 146 138
1610.0 148 127 144 129 149 138 140 142 154 153
1650.0 159 144 166 191 185 194 215 221 242 248
1690.0 249 256 232 222 227 219 229 237 276 315
1730.0 350 448 524 715 922 1235 1662 2164 2735 3246
1770.0 3755 3944 4102 4031 3731 3548 3328 3298 3185 3216
1810.0 3376 3464 3777 4007 4193 4502 4447 4340 3975 3383
1850.0 2867 2381 1892 1460 1113 846 662 520 424 345
1890.0 292 248 220 200 186 177 171 162 159 151
1930.0 143 136 128 123 113 109 107 103 105 101
1970.0 105 102 100 102 98 100 98 95 96 93
2010.0 95 96 95 94 92 90 84 81 79 76
2050.0 73 69 67 68 68 66 68 67 70 73
2090.0 79 80 90 99 104 116 126 136 142 148
2130.0 152 146 140 135 126 120 120 123 131 130
2170.0 121 106 91 79 69 62 63 63 64 62
2210.0 63 63 62 64 62 63 62 60 63 61
2250.0 61 59 61 65 63 66 66 64 64 60
2290.0 60 59 54 55 54 53 51 52 52 51
2330.0 54 57 57 57 63 59 60 61 61 59
2370.0 61 68 64 64 60 58 58 55 56 57
2410.0 57 58 58 61 59 58 57 55 55 56
2450.0 56 52 48 49 49 48 49 47 49 51
2490.0 49 49 47 48 48 48 45 47 45 43
2530.0 42 42 42 43 41 41 43 42 44 41
2570.0 41 45 42 41 44 43 40 41 40 41
2610.0 40 41 40 37 38 36 37 37 40 36
2650.0 37 39 39 39 38 38 38 37 41 38
2690.0 40 41 38 40 40 38 40 40 39 39
2730.0 41 43 39 41 40 42 40 42 43 44
2770.0 45 44 45 45 46 47 48 47 48 50
2810.0 52 53 52 51 52 52 53 54 54 56
2850.0 57 58 57 56 56 55 54 52 53 54
2890.0 55 50 53 54 57 56 59 59 61 70
2930.0 74 86 96 108 117 129 130 130 126 117
2970.0 111 105 101 98 99 105 111 118 117 119
3010.0 124 131 149 167 182 188 185 183 173 159
3050.0 133 115 104 97 97 94 99 100 99 94
3090.0 92 92 92 88 84 83 80 74 69 67
3130.0 66 59 60 60 56 55 52 52 51 50
3170.0 48 45 48 48 46 48 47 45 44 46
3210.0 45 44 43 45 41 45 44 45 44 39
3250.0 43 44 44 41 47 43 40 41 42 45
3290.0 44 42 41 44 42 44 47 41 43 42
3330.0 40 40 41 41 43 43 45 43 36 43
3370.0 41 42 40 46 42 45 42 41 40 42
3410.0 40 42 43 42 46 46 41 41 42 46
3450.0 47 43 43 46 51 52 43 50 48 47
3490.0 51 47 56 59 64 61 67 68 78 82
3530.0 89 88 90 94 108 110 115 142 142 156
3570.0 167 136 167 199 167 146 166 183 162 154
3610.0 131 122 105 108 110 93 105 108 105 100
3650.0 92 73 89 81 91 70 68 66 84 81
3690.0 61 66 68 71 75 66 67 66 65 67
3730.0 68 59 71 67 54 52 57 61 63 64
3770.0 73 58 70 62 64 71 78 60 61 48
3810.0 73 52 73 41 67 65 48 52 61 70
3850.0 66 56 52 72 54 48 64 54 73 58
3890.0 63 69 59 71 57 70 63 60 67 66
3930.0 68 67 54 80 69 69 67 74 68 50
##END=
