##TITLE=Benzenethiol, 3-methyl-
##JCAMP-DX=4.24
##DATA TYPE=INFRARED SPECTRUM
##ORIGIN=Sadtler Research Labs Under US-EPA Contract
##OWNER=NIST Standard Reference Data Program
##CAS REGISTRY NO=108-40-7
##MOLFORM=C 7 H 8 S
##XUNITS=1/CM
##YUNITS=ABSORBANCE
##XFACTOR=1.0
##YFACTOR=0.000070493
##DELTAX=4.0
##FIRSTX=450.0
##LASTX=3966.0
##FIRSTY=0.001692
##MAXX=3966
##MINX=450
##MAXY=0.70493
##MINY=0
##NPOINTS=880
##XYDATA=(X++(Y..Y))
450.0 24 59 72 100 144 200 231 296 222 236
490.0 199 139 138 139 146 255 286 305 248 218
530.0 149 110 85 63 88 101 121 81 115 122
570.0 88 111 109 161 160 153 26 66 102 89
610.0 89 107 87 98 82 85 105 103 147 190
650.0 266 398 586 846 1276 2124 2526 3104 4245 4003
690.0 2899 2371 1586 977 556 305 195 164 208 302
730.0 436 676 1094 1704 2541 3687 4939 6104 7702 10000
770.0 8370 6130 5033 3825 2616 1684 1192 941 728 644
810.0 569 498 435 447 369 425 614 970 1519 2062
850.0 2565 2757 2757 2387 1980 1521 1159 927 755 655
890.0 575 536 520 548 639 733 784 726 743 723
930.0 570 429 350 298 287 246 245 255 281 294
970.0 345 391 439 514 597 662 684 640 581 481
1010.0 407 400 379 403 437 421 448 512 591 636
1050.0 644 686 712 798 962 1219 1516 1691 1707 1658
1090.0 1552 1379 1346 1482 1502 1423 1276 958 584 358
1130.0 247 174 157 153 152 206 306 444 550 576
1170.0 567 518 399 292 237 225 270 346 450 622
1210.0 888 1021 1007 988 884 576 325 222 189 167
1250.0 175 188 217 239 254 261 253 237 240 269
1290.0 310 323 343 346 317 317 319 300 296 287
1330.0 281 280 306 289 263 283 308 365 447 506
1370.0 594 730 872 1004 1079 1132 1176 1227 1208 1259
1410.0 1377 1563 1822 1961 2020 2072 2053 1846 1562 1420
1450.0 1371 1492 1828 2332 3127 3942 4708 5228 5344 4987
1490.0 4403 3799 3072 2405 2035 1740 1530 1506 1543 1572
1530.0 1550 1500 1426 1336 1232 1179 1257 1458 1795 2244
1570.0 2783 3392 4193 5269 6703 7932 8176 7636 6510 4813
1610.0 2875 1616 920 595 473 409 406 343 311 335
1650.0 333 356 291 281 253 251 213 170 195 158
1690.0 141 148 173 163 166 180 220 265 242 278
1730.0 325 383 360 379 395 425 404 418 410 385
1770.0 403 361 331 311 281 250 230 200 203 153
1810.0 162 168 174 190 237 264 305 338 378 405
1850.0 392 381 362 332 285 259 192 147 123 108
1890.0 115 120 121 140 161 204 241 305 360 376
1930.0 376 357 307 265 186 120 81 60 44 37
1970.0 36 28 35 21 29 25 31 12 21 21
2010.0 26 22 36 22 20 20 21 11 15 11
2050.0 5 21 19 13 23 13 20 19 12 12
2090.0 7 7 4 5 10 0 13 9 11 18
2130.0 17 12 11 12 11 15 19 22 24 31
2170.0 30 32 31 31 17 16 16 24 18 23
2210.0 23 23 27 23 30 40 50 52 59 65
2250.0 59 62 53 61 75 78 86 93 96 91
2290.0 85 87 82 76 84 86 92 79 85 93
2330.0 104 109 108 105 125 109 124 110 110 108
2370.0 118 109 107 109 107 95 94 94 102 102
2410.0 102 97 100 99 90 85 80 77 75 74
2450.0 67 67 67 60 67 59 57 60 60 59
2490.0 67 61 61 75 66 59 60 60 60 61
2530.0 59 60 52 52 55 47 53 58 66 81
2570.0 103 132 162 211 228 239 235 219 195 149
2610.0 124 104 75 59 60 44 46 57 65 72
2650.0 78 85 87 96 94 94 101 108 115 102
2690.0 94 94 95 103 89 87 94 102 121 136
2730.0 171 193 230 249 261 267 245 191 170 149
2770.0 136 139 137 128 121 136 143 176 180 195
2810.0 209 224 235 276 260 301 329 372 446 547
2850.0 647 823 1036 1317 1624 1863 2024 2108 2103 1999
2890.0 1911 1882 1918 2017 2165 2340 2598 2992 3497 4035
2930.0 4391 4584 4578 4293 3854 3239 2673 2291 1983 1780
2970.0 1552 1410 1351 1417 1505 1606 1744 1916 2118 2337
3010.0 2637 2930 3227 3454 3731 4080 4265 4236 4132 4124
3050.0 4225 4398 4520 4530 4440 4233 3820 3338 2920 2560
3090.0 2229 1910 1623 1275 932 648 440 319 234 173
3130.0 127 107 94 83 81 75 76 82 67 75
3170.0 81 74 74 62 60 55 51 47 38 44
3210.0 33 45 46 53 38 44 44 35 38 18
3250.0 20 27 16 30 23 23 30 16 24 32
3290.0 28 35 25 28 32 25 34 37 29 30
3330.0 49 31 35 36 31 31 31 30 36 27
3370.0 49 63 63 41 63 56 52 42 52 42
3410.0 50 46 56 34 43 55 53 54 37 60
3450.0 75 71 70 91 44 55 47 53 73 57
3490.0 65 81 81 90 99 76 76 87 40 53
3530.0 45 42 49 51 58 43 52 44 37 41
3570.0 61 51 57 40 61 62 37 48 46 45
3610.0 38 44 36 53 44 35 30 34 37 47
3650.0 43 44 49 17 31 43 45 56 53 32
3690.0 72 69 57 76 80 111 98 85 79 81
3730.0 90 81 74 82 102 85 102 88 83 85
3770.0 74 76 85 78 61 80 66 61 51 71
3810.0 85 80 74 104 95 89 66 100 86 93
3850.0 85 90 101 116 114 125 109 142 146 144
3890.0 141 137 145 161 167 165 181 151 146 136
3930.0 134 124 131 112 107 105 108 107 130 119
##END=
