##TITLE=Benzene, 1,3-dimethyl-
##JCAMP-DX=4.24
##DATA TYPE=INFRARED SPECTRUM
##ORIGIN=Sadtler Research Labs Under US-EPA Contract
##OWNER=NIST Standard Reference Data Program
##CAS REGISTRY NO=108-38-3
##MOLFORM=C 8 H 10
##XUNITS=1/CM
##YUNITS=ABSORBANCE
##XFACTOR=1.0
##YFACTOR=0.000071341
##DELTAX=4.0
##FIRSTX=450.0
##LASTX=3966.0
##FIRSTY=0.001855
##MAXX=3966
##MINX=450
##MAXY=0.71341
##MINY=0
##NPOINTS=880
##XYDATA=(X++(Y..Y))
450.0 26 58 46 59 57 43 61 96 105 114
490.0 87 65 121 186 162 240 220 196 197 100
530.0 77 140 58 78 104 95 108 146 148 153
570.0 70 110 90 82 180 0 30 38 55 40
610.0 57 70 78 59 39 52 52 62 54 65
650.0 97 139 203 297 514 920 1179 1480 1726 2251
690.0 3819 2225 1743 1504 1087 672 350 209 135 127
730.0 201 300 570 1116 1966 3065 4114 4889 6118 10000
770.0 6969 4603 4004 3209 1995 1049 535 236 146 150
810.0 141 143 134 116 107 93 91 86 79 115
850.0 168 238 306 403 466 592 898 607 466 488
890.0 533 560 562 513 526 435 364 184 98 102
930.0 111 121 141 149 163 175 178 193 195 202
970.0 212 217 198 218 234 241 277 300 334 334
1010.0 321 298 270 272 295 334 388 467 610 637
1050.0 615 594 591 531 476 454 478 522 615 738
1090.0 782 709 672 665 524 381 286 235 202 185
1130.0 181 167 147 137 142 164 178 237 288 311
1170.0 318 274 280 221 164 126 117 107 103 102
1210.0 96 95 105 107 106 126 144 163 176 187
1250.0 185 209 201 181 160 168 164 147 151 148
1290.0 161 155 168 172 173 181 174 184 175 186
1330.0 196 201 219 235 269 304 344 400 454 536
1370.0 630 793 944 1074 1074 1114 945 789 704 648
1410.0 635 632 646 696 784 906 1063 1217 1321 1407
1450.0 1466 1445 1415 1446 1522 1674 1834 2082 2384 2736
1490.0 2962 3098 3074 3048 2883 2517 2185 1954 1856 1795
1530.0 1703 1592 1514 1393 1225 1062 948 869 823 850
1570.0 888 931 990 1130 1323 1559 1845 2355 3140 3839
1610.0 4156 3946 3677 3021 2377 1351 657 342 281 269
1650.0 270 239 228 213 171 125 110 78 103 58
1690.0 79 91 93 77 80 102 118 100 118 165
1730.0 206 244 287 299 285 322 327 303 282 291
1770.0 280 241 230 215 166 133 91 92 101 104
1810.0 98 106 118 129 149 175 226 278 337 384
1850.0 395 373 310 279 193 124 108 88 81 91
1890.0 84 98 101 116 128 165 209 261 312 346
1930.0 352 311 309 257 180 110 72 49 40 39
1970.0 32 19 25 30 16 19 21 25 25 31
2010.0 30 37 39 38 46 38 52 44 41 45
2050.0 41 38 39 24 49 59 52 60 38 24
2090.0 9 9 11 24 30 38 38 26 29 24
2130.0 24 16 23 24 30 28 29 15 15 16
2170.0 16 15 15 9 16 15 15 24 30 26
2210.0 31 27 27 26 29 25 22 22 23 24
2250.0 25 37 37 45 44 53 68 68 69 84
2290.0 80 84 72 66 63 48 47 40 44 56
2330.0 68 83 88 90 92 87 49 73 65 103
2370.0 145 151 139 127 107 103 93 83 83 84
2410.0 83 99 93 103 99 92 88 90 86 83
2450.0 86 97 90 91 91 83 81 81 97 87
2490.0 82 83 75 75 75 75 68 76 69 74
2530.0 82 88 86 90 81 82 75 68 60 67
2570.0 61 66 67 68 68 68 71 66 69 61
2610.0 60 60 45 44 52 52 60 68 45 36
2650.0 4 3 3 3 9 31 31 52 45 54
2690.0 60 63 65 72 82 93 108 114 137 186
2730.0 245 331 387 432 429 428 333 224 175 143
2770.0 135 125 133 132 140 156 177 185 214 253
2810.0 269 312 349 402 439 497 569 642 745 887
2850.0 1098 1393 1786 2292 2877 3392 3745 3923 3995 3912
2890.0 3722 3562 3537 3650 3881 4218 4713 5487 6430 7233
2930.0 7709 7958 7871 7366 6578 5279 4309 3549 3080 2705
2970.0 2442 2355 2486 2620 2721 2836 3097 3463 3937 4606
3010.0 5292 5931 6339 6957 7682 8202 8161 7700 7131 6548
3050.0 6049 5437 4867 4311 4075 3964 3412 2730 2169 1791
3090.0 1480 1287 1153 1056 962 888 815 714 595 499
3130.0 381 280 227 172 146 131 121 109 94 78
3170.0 78 78 86 77 82 67 76 67 74 74
3210.0 71 74 53 60 52 54 53 45 46 32
3250.0 46 42 49 54 54 54 47 60 38 40
3290.0 34 38 59 59 52 45 48 45 55 55
3330.0 48 39 34 57 27 20 24 34 54 33
3370.0 20 20 21 42 34 41 33 41 42 41
3410.0 32 48 33 32 59 34 42 49 48 55
3450.0 69 39 72 33 24 22 25 29 29 18
3490.0 15 29 23 25 25 22 42 16 31 23
3530.0 36 28 24 38 48 70 44 46 50 87
3570.0 71 52 43 40 27 21 40 42 11 27
3610.0 12 39 43 24 27 34 42 31 37 29
3650.0 20 59 54 40 45 26 54 86 79 50
3690.0 64 76 78 70 60 70 94 83 67 64
3730.0 83 82 105 103 81 108 151 131 135 118
3770.0 99 95 93 96 101 83 67 63 63 79
3810.0 95 91 102 101 96 86 78 99 98 89
3850.0 98 81 98 112 113 127 124 97 89 91
3890.0 96 93 83 103 113 99 106 82 102 122
3930.0 124 103 78 88 95 126 131 121 100 91
##END=
