##TITLE=Cyclohexanamine
##JCAMP-DX=4.24
##DATA TYPE=INFRARED SPECTRUM
##ORIGIN=Sadtler Research Labs Under US-EPA Contract
##OWNER=NIST Standard Reference Data Program
##CAS REGISTRY NO=108-91-8
##MOLFORM=C 6 H 13 N
##XUNITS=1/CM
##YUNITS=ABSORBANCE
##XFACTOR=1.0
##YFACTOR=0.000059116
##DELTAX=4.0
##FIRSTX=450.0
##LASTX=3966.0
##FIRSTY=0.006562
##MAXX=3966
##MINX=450
##MAXY=0.59116
##MINY=0
##NPOINTS=880
##XYDATA=(X++(Y..Y))
450.0 111 97 108 105 104 87 60 81 52 33
490.0 27 2 22 21 6 16 28 60 58 46
530.0 59 79 94 115 100 94 146 144 136 119
570.0 92 59 77 85 75 75 65 80 97 83
610.0 82 97 92 108 121 98 123 106 87 94
650.0 88 77 72 76 76 78 86 92 105 110
690.0 109 109 140 137 159 168 186 220 262 290
730.0 349 413 498 592 707 829 974 1136 1249 1306
770.0 1361 1314 1281 1314 1327 1362 1474 1550 1466 1316
810.0 1121 892 619 423 337 253 204 182 162 146
850.0 119 109 101 127 147 170 209 279 313 365
890.0 365 310 273 227 182 132 103 89 82 79
930.0 70 64 56 55 48 50 49 56 65 74
970.0 88 97 77 67 69 50 42 33 27 34
1010.0 42 39 50 72 91 109 117 112 104 87
1050.0 70 62 54 64 85 107 151 196 266 330
1090.0 388 435 459 453 409 350 290 216 164 105
1130.0 67 51 53 50 50 46 37 20 20 12
1170.0 12 13 3 9 15 19 29 21 23 40
1210.0 40 31 25 22 33 42 45 53 66 73
1250.0 91 109 116 109 101 108 91 63 44 35
1290.0 26 27 32 36 52 60 68 76 78 88
1330.0 105 132 147 180 184 203 218 239 256 268
1370.0 310 324 317 284 220 154 117 95 68 57
1410.0 47 51 49 73 105 169 259 402 518 612
1450.0 650 902 900 640 578 495 357 265 194 123
1490.0 94 71 65 61 48 50 51 43 34 32
1530.0 34 36 32 29 42 39 36 32 48 57
1570.0 70 71 99 113 134 167 209 277 360 435
1610.0 524 583 615 618 559 484 390 294 218 150
1650.0 101 76 58 51 38 28 13 24 16 16
1690.0 10 13 6 15 11 13 10 7 13 12
1730.0 6 5 7 14 12 1 5 6 15 18
1770.0 8 13 17 16 17 17 15 9 16 19
1810.0 18 18 20 11 12 3 12 13 12 17
1850.0 12 14 15 23 13 12 14 15 14 20
1890.0 14 16 16 16 16 15 8 8 6 6
1930.0 10 10 10 8 9 9 9 11 11 9
1970.0 2 2 2 3 3 5 0 2 2 12
2010.0 10 1 2 11 12 10 3 2 2 3
2050.0 8 1 2 1 3 12 11 10 10 11
2090.0 3 10 8 12 12 17 11 10 12 20
2130.0 11 12 10 17 16 13 15 14 19 20
2170.0 21 18 11 20 18 18 20 20 19 19
2210.0 16 11 15 20 20 20 19 19 10 19
2250.0 19 13 12 8 21 10 10 10 13 12
2290.0 20 19 20 20 19 29 29 16 13 12
2330.0 28 21 12 5 13 11 21 14 18 27
2370.0 4 16 20 19 12 20 20 18 10 18
2410.0 18 11 11 11 10 10 4 10 10 10
2450.0 17 9 17 17 17 10 12 17 14 9
2490.0 13 10 9 1 9 10 17 10 17 17
2530.0 17 24 22 26 26 27 28 24 25 25
2570.0 26 26 34 43 46 55 60 64 74 73
2610.0 75 77 77 77 77 75 84 86 95 100
2650.0 114 125 140 157 158 166 175 174 158 150
2690.0 141 130 122 118 119 115 108 108 101 101
2730.0 100 109 93 100 100 100 97 97 100 99
2770.0 102 109 133 141 150 159 183 191 201 222
2810.0 238 275 307 356 422 504 637 849 1166 1574
2850.0 2086 2636 3048 3298 3420 2936 2635 2198 1764 1462
2890.0 1352 1411 1631 2041 2569 3394 4164 5066 6037 7107
2930.0 8803 10000 9365 7779 7338 5870 4371 2904 1668 878
2970.0 455 239 145 95 77 58 59 58 58 58
3010.0 50 48 54 46 45 39 39 43 42 39
3050.0 40 33 40 42 33 43 39 39 49 58
3090.0 48 54 50 48 40 31 31 30 33 34
3130.0 30 37 31 40 45 47 40 40 48 48
3170.0 31 29 37 31 34 35 26 24 31 31
3210.0 38 22 21 30 37 39 34 33 33 33
3250.0 29 37 46 40 37 37 28 28 38 47
3290.0 39 40 25 40 56 52 50 61 70 77
3330.0 94 104 100 98 80 81 59 45 46 47
3370.0 48 44 44 52 43 43 19 31 40 25
3410.0 31 25 22 26 36 34 17 17 6 8
3450.0 25 22 13 24 23 31 20 31 31 32
3490.0 40 32 32 23 38 20 13 10 4 31
3530.0 20 14 6 15 10 18 16 13 18 15
3570.0 37 17 12 12 19 18 10 16 12 9
3610.0 14 10 6 8 6 10 7 5 27 16
3650.0 26 6 3 34 19 27 9 16 29 16
3690.0 36 28 1 7 17 31 37 28 25 29
3730.0 36 32 21 11 13 11 19 10 29 38
3770.0 36 34 24 24 34 25 26 25 11 17
3810.0 26 29 22 25 25 26 19 15 14 16
3850.0 14 17 19 30 18 28 29 25 26 23
3890.0 22 22 24 26 22 38 34 34 27 27
3930.0 28 28 24 32 34 28 32 31 26 24
##END=
