##TITLE=1,3-Benzenediol, diacetate
##JCAMP-DX=4.24
##DATA TYPE=INFRARED SPECTRUM
##ORIGIN=Sadtler Research Labs Under US-EPA Contract
##OWNER=NIST Standard Reference Data Program
##CAS REGISTRY NO=108-58-7
##MOLFORM=C 10 H 10 O 4
##XUNITS=1/CM
##YUNITS=ABSORBANCE
##XFACTOR=1.0
##YFACTOR=0.000167108
##DELTAX=4.0
##FIRSTX=450.0
##LASTX=3966.0
##FIRSTY=0.000000
##MAXX=3966
##MINX=450
##MAXY=1.67108
##MINY=0
##NPOINTS=880
##XYDATA=(X++(Y..Y))
450.0 0 144 345 223 238 152 205 252 183 168
490.0 214 148 192 175 195 247 311 426 532 576
530.0 522 444 365 257 226 210 179 240 197 247
570.0 271 233 265 252 258 292 306 348 285 320
610.0 257 196 270 234 215 238 183 218 223 250
650.0 302 362 354 399 399 474 493 533 558 570
690.0 580 574 479 354 266 235 184 183 171 205
730.0 223 201 230 206 242 252 283 308 307 337
770.0 413 463 485 443 416 374 320 291 241 219
810.0 238 233 267 260 287 322 329 333 315 287
850.0 282 287 293 318 336 388 443 510 581 682
890.0 776 814 835 831 818 804 724 629 512 430
930.0 375 345 337 361 409 467 583 815 1092 1178
970.0 1086 852 710 703 756 857 937 1080 1298 1654
1010.0 2092 2216 2061 1645 1179 869 722 657 627 596
1050.0 523 526 554 671 741 834 905 938 904 810
1090.0 699 628 642 696 810 1082 1401 2132 3354 4413
1130.0 4448 3352 2000 1264 1005 924 1059 1368 1624 1711
1170.0 1794 2040 2637 3896 5677 8212 10000 9283 9953 8750
1210.0 7510 6099 4857 3674 2660 2075 1810 1787 1807 1800
1250.0 1698 1463 1195 986 910 910 917 858 727 637
1290.0 583 549 521 496 480 468 447 445 415 389
1330.0 369 348 350 359 398 449 545 696 992 1518
1370.0 2109 2475 2276 1664 1099 750 580 499 462 448
1410.0 449 454 468 482 488 529 574 648 709 718
1450.0 699 662 594 552 540 615 737 1079 1673 2136
1490.0 2001 1387 741 507 449 395 356 360 366 382
1530.0 386 388 392 383 381 365 381 409 430 451
1570.0 501 560 611 710 838 1067 1412 1618 1911 1865
1610.0 1543 1257 870 648 507 408 377 363 362 366
1650.0 374 373 363 345 340 308 299 275 285 292
1690.0 290 296 323 354 379 429 490 554 581 586
1730.0 607 623 665 713 802 908 1045 1251 1502 1804
1770.0 2120 2416 2862 3480 4242 4873 4797 4295 3466 2649
1810.0 1987 1417 1038 772 583 468 382 338 306 293
1850.0 278 262 258 261 239 238 231 223 220 213
1890.0 219 219 220 222 222 226 228 230 224 212
1930.0 199 186 179 178 177 177 177 179 181 182
1970.0 182 179 178 175 171 172 173 172 174 172
2010.0 177 179 184 191 195 202 208 213 219 218
2050.0 212 206 200 194 192 190 188 186 190 193
2090.0 194 198 198 200 197 195 188 181 177 175
2130.0 172 169 167 165 163 163 159 156 158 157
2170.0 155 154 152 155 155 156 160 161 164 166
2210.0 163 164 160 157 156 158 157 158 159 160
2250.0 163 161 159 158 158 158 156 155 152 151
2290.0 151 146 144 145 142 141 148 149 151 158
2330.0 158 166 167 168 171 170 175 174 188 188
2370.0 192 184 180 180 173 175 178 177 180 177
2410.0 176 171 169 166 163 164 162 164 162 161
2450.0 160 160 158 156 158 157 156 156 159 158
2490.0 159 156 157 154 154 154 152 156 153 151
2530.0 153 152 152 151 153 152 155 158 159 157
2570.0 157 160 159 158 156 152 155 153 156 154
2610.0 150 152 152 153 151 149 152 152 150 148
2650.0 153 150 150 151 150 151 152 152 153 152
2690.0 153 155 156 153 155 153 154 156 155 157
2730.0 156 159 160 159 158 158 158 159 158 158
2770.0 158 157 158 155 157 154 159 158 159 159
2810.0 156 159 157 158 155 157 159 162 165 170
2850.0 173 179 184 185 190 180 184 182 178 177
2890.0 173 175 180 175 180 185 188 190 195 202
2930.0 205 212 221 233 254 271 283 271 256 236
2970.0 229 225 218 209 207 210 207 207 204 204
3010.0 204 207 216 228 243 263 269 273 276 273
3050.0 272 268 266 264 269 279 293 306 305 308
3090.0 298 296 284 262 240 219 206 191 183 176
3130.0 179 175 175 173 171 170 168 167 168 171
3170.0 168 161 163 161 164 160 159 163 160 158
3210.0 160 161 156 155 158 156 156 156 153 152
3250.0 155 153 154 159 157 150 156 154 156 151
3290.0 150 152 154 157 154 150 150 154 154 159
3330.0 159 155 154 153 153 154 155 155 155 156
3370.0 150 152 157 152 147 149 157 156 151 151
3410.0 153 150 151 153 155 157 151 150 151 144
3450.0 146 148 154 149 154 151 148 155 150 148
3490.0 154 159 151 150 149 156 161 163 165 163
3530.0 162 171 176 186 177 183 192 211 211 207
3570.0 209 206 198 196 178 176 180 179 180 165
3610.0 160 147 149 151 155 158 155 164 166 170
3650.0 187 194 201 180 169 157 155 159 153 145
3690.0 146 156 151 163 159 161 163 146 153 152
3730.0 156 157 158 164 159 158 154 147 157 153
3770.0 166 166 156 157 153 143 163 156 163 157
3810.0 166 167 170 160 160 164 158 165 161 149
3850.0 145 159 151 155 167 171 175 166 171 170
3890.0 156 161 158 164 164 164 161 165 149 157
3930.0 181 151 162 151 183 177 161 158 167 166
##END=
