##TITLE=Acetic acid, 1-methylethyl ester
##JCAMP-DX=4.24
##DATA TYPE=INFRARED SPECTRUM
##ORIGIN=Sadtler Research Labs Under US-EPA Contract
##OWNER=NIST Standard Reference Data Program
##CAS REGISTRY NO=108-21-4
##MOLFORM=C 5 H 10 O 2
##XUNITS=1/CM
##YUNITS=ABSORBANCE
##XFACTOR=1.0
##YFACTOR=0.000187772
##DELTAX=4.0
##FIRSTX=450.0
##LASTX=3966.0
##FIRSTY=0.000000
##MAXX=3966
##MINX=450
##MAXY=1.87772
##MINY=0
##NPOINTS=880
##XYDATA=(X++(Y..Y))
450.0 0 153 171 196 154 175 152 202 159 179
490.0 158 176 147 164 168 132 182 165 177 150
530.0 181 118 87 153 166 165 141 176 142 166
570.0 150 172 162 173 196 169 235 239 321 321
610.0 379 414 439 420 421 427 366 348 265 235
650.0 197 182 181 162 178 169 172 155 174 162
690.0 167 155 169 165 159 161 162 159 163 156
730.0 156 157 153 164 164 154 165 148 167 157
770.0 164 160 169 166 169 176 181 201 214 251
810.0 286 325 345 360 344 319 296 240 222 190
850.0 195 184 197 211 226 255 283 317 319 330
890.0 317 304 275 252 234 217 223 227 248 252
930.0 293 328 397 511 681 865 954 995 970 912
970.0 798 583 449 443 493 574 679 819 987 1151
1010.0 1326 1424 1449 1389 1277 1116 912 735 615 554
1050.0 514 508 503 510 518 537 547 558 588 626
1090.0 731 927 1295 1734 2366 2660 2829 2909 2866 2545
1130.0 1959 1712 1614 1542 1422 1248 1034 827 682 614
1170.0 634 682 691 674 668 646 619 579 604 725
1210.0 903 1189 1652 2449 3688 5444 7261 8766 9514 10000
1250.0 9721 8409 6183 4088 3000 2255 1590 1157 930 783
1290.0 634 504 416 375 349 330 322 318 327 330
1330.0 345 360 391 447 524 623 792 1075 1483 1963
1370.0 2354 2675 2836 2829 2508 1980 1460 1007 712 527
1410.0 431 383 365 365 363 377 385 410 427 453
1450.0 479 511 545 575 592 598 592 548 488 439
1490.0 376 332 300 283 281 271 253 254 257 239
1530.0 231 218 227 225 211 214 220 232 235 220
1570.0 224 218 225 206 201 198 189 184 175 174
1610.0 166 171 180 170 179 170 190 190 193 208
1650.0 215 231 236 222 239 248 251 256 262 280
1690.0 277 297 329 366 388 426 476 554 630 797
1730.0 1073 1561 2292 3236 4386 5381 6232 6559 6321 5578
1770.0 4402 3194 2147 1393 885 605 466 379 336 303
1810.0 293 277 272 263 271 265 259 258 247 240
1850.0 219 213 196 185 178 173 168 164 169 163
1890.0 166 169 170 168 168 171 162 165 156 158
1930.0 151 155 153 149 151 150 146 140 145 136
1970.0 139 134 136 133 133 134 133 137 132 133
2010.0 126 122 117 116 113 114 117 118 122 126
2050.0 135 142 150 152 148 151 145 144 133 135
2090.0 132 131 131 130 130 135 138 140 145 145
2130.0 145 137 133 130 122 118 113 115 109 112
2170.0 111 112 112 115 117 118 118 119 122 119
2210.0 120 113 113 110 110 110 109 115 117 123
2250.0 126 131 129 131 129 125 124 119 119 118
2290.0 120 120 128 133 138 149 145 158 157 159
2330.0 157 145 136 142 114 128 163 149 126 88
2370.0 85 85 85 85 94 100 103 103 105 106
2410.0 103 105 103 99 101 97 99 96 101 98
2450.0 102 103 106 110 112 118 118 123 122 124
2490.0 120 117 117 113 109 106 102 100 100 96
2530.0 97 97 96 94 90 91 91 91 86 90
2570.0 90 86 86 87 90 85 88 86 91 91
2610.0 90 92 95 99 97 100 99 100 96 100
2650.0 98 102 104 104 107 103 98 98 95 90
2690.0 91 91 93 93 92 99 97 104 100 102
2730.0 102 105 104 108 111 109 107 102 101 98
2770.0 99 97 96 99 94 98 96 99 100 102
2810.0 106 109 117 123 128 127 133 135 142 144
2850.0 151 157 163 186 202 234 272 326 372 410
2890.0 430 441 435 424 418 409 417 427 468 517
2930.0 583 681 791 881 913 914 863 826 790 837
2970.0 984 1291 1702 2069 2432 2483 2277 1955 1478 1094
3010.0 748 503 363 290 259 232 221 213 215 206
3050.0 202 201 193 185 180 176 171 172 165 159
3090.0 160 156 154 149 150 142 131 131 126 126
3130.0 125 123 120 121 119 116 117 119 114 124
3170.0 125 125 121 122 124 126 128 117 115 116
3210.0 112 115 109 107 116 113 112 113 110 104
3250.0 107 103 101 99 103 100 105 100 97 102
3290.0 107 103 103 97 100 94 99 99 93 94
3330.0 96 90 91 88 92 100 88 91 93 90
3370.0 92 91 95 97 94 100 99 102 105 105
3410.0 108 105 96 101 99 106 99 97 107 114
3450.0 116 109 112 121 140 126 136 143 147 155
3490.0 154 167 172 167 148 143 120 132 128 117
3530.0 111 105 103 103 108 96 107 102 109 108
3570.0 113 112 111 114 125 120 102 119 127 119
3610.0 119 109 124 124 115 109 110 115 113 108
3650.0 124 113 97 122 110 131 111 126 112 112
3690.0 114 108 95 106 101 97 101 113 111 92
3730.0 99 110 104 115 134 115 114 86 101 101
3770.0 96 105 110 121 88 112 91 107 108 107
3810.0 93 96 93 91 101 85 93 107 102 102
3850.0 104 115 114 87 109 87 98 104 87 111
3890.0 87 103 108 98 98 92 85 99 93 85
3930.0 107 123 99 106 116 97 84 96 94 100
##END=
