##TITLE=Pyridine, 4-methyl-
##JCAMP-DX=4.24
##DATA TYPE=INFRARED SPECTRUM
##ORIGIN=Sadtler Research Labs Under US-EPA Contract
##OWNER=NIST Standard Reference Data Program
##CAS REGISTRY NO=108-89-4
##MOLFORM=C 6 H 7 N
##XUNITS=1/CM
##YUNITS=ABSORBANCE
##XFACTOR=1.0
##YFACTOR=0.000066150
##DELTAX=4.0
##FIRSTX=450.0
##LASTX=3966.0
##FIRSTY=0.079446
##MAXX=3966
##MINX=450
##MAXY=0.6615
##MINY=0
##NPOINTS=880
##XYDATA=(X++(Y..Y))
450.0 1201 530 846 933 1461 1964 1359 2848 4370 3405
490.0 1667 2054 2240 2153 1732 1324 1368 1017 955 756
530.0 360 200 185 175 163 134 15 86 97 108
570.0 129 76 60 46 82 154 202 138 70 158
610.0 115 89 167 153 146 132 100 118 106 149
650.0 198 211 169 92 142 139 238 330 204 217
690.0 159 191 254 350 365 473 440 498 477 867
730.0 849 550 515 506 586 400 383 514 727 1050
770.0 1800 2341 3054 3701 4073 6455 10000 5174 4890 4373
810.0 4355 3181 1880 1063 556 267 210 149 136 181
850.0 118 157 87 117 115 123 117 99 122 127
890.0 127 120 100 113 143 154 169 180 201 215
930.0 213 223 193 182 196 258 316 319 357 362
970.0 384 473 529 706 911 825 925 847 799 712
1010.0 501 252 206 199 226 282 282 331 455 525
1050.0 496 403 459 459 398 385 332 309 265 201
1090.0 174 154 167 150 119 146 118 125 120 97
1130.0 84 75 85 104 93 105 99 109 92 81
1170.0 91 57 89 90 78 144 174 248 375 507
1210.0 880 1069 988 1128 877 882 842 454 154 106
1250.0 37 51 76 58 110 104 97 112 106 119
1290.0 106 79 93 80 97 106 132 167 169 197
1330.0 226 255 336 354 331 337 369 381 383 384
1370.0 407 495 606 662 800 955 1227 1481 1836 2121
1410.0 2243 2376 2490 2657 2688 2345 1949 1601 1306 1205
1450.0 1172 1057 1006 1123 1209 1078 926 980 1108 1172
1490.0 1184 1346 1449 1480 1421 1418 1269 1166 1096 1031
1530.0 977 1045 1019 1116 1179 1373 1526 1601 1818 1879
1570.0 1989 2402 2540 2696 3425 5085 7998 9297 9729 9738
1610.0 8295 8247 6634 3582 1565 449 355 336 373 442
1650.0 395 325 350 409 343 226 161 127 60 62
1690.0 29 63 20 1 72 86 113 83 132 181
1730.0 165 196 151 176 175 145 154 129 91 110
1770.0 68 64 83 85 81 76 47 70 64 64
1810.0 59 70 87 98 133 145 178 195 174 175
1850.0 162 136 88 78 56 36 56 54 71 81
1890.0 88 117 149 178 239 301 390 447 469 423
1930.0 414 460 448 353 250 181 140 108 87 79
1970.0 61 43 37 30 30 42 41 53 59 71
2010.0 76 86 92 86 80 55 41 40 32 30
2050.0 27 26 25 18 29 25 26 28 23 28
2090.0 31 26 26 11 18 12 12 14 11 18
2130.0 19 21 25 34 40 42 41 36 39 49
2170.0 64 77 81 84 101 106 103 97 84 77
2210.0 70 61 52 42 26 16 13 7 5 1
2250.0 2 4 10 8 14 23 27 42 55 64
2290.0 71 79 80 98 93 79 71 56 55 45
2330.0 28 11 21 24 20 43 11 31 17 25
2370.0 40 26 43 50 54 62 71 75 78 88
2410.0 102 98 104 106 115 126 133 148 152 163
2450.0 165 149 137 116 102 77 64 56 47 42
2490.0 42 44 40 34 30 33 31 25 27 29
2530.0 27 25 35 33 31 36 35 31 39 30
2570.0 40 35 39 44 48 65 67 81 92 86
2610.0 84 81 73 77 70 68 64 63 59 56
2650.0 48 50 52 56 47 52 56 56 56 56
2690.0 53 48 48 49 55 62 68 73 82 97
2730.0 115 127 141 147 164 157 152 141 105 82
2770.0 81 71 68 71 70 85 92 106 122 139
2810.0 156 174 178 193 203 229 233 250 277 307
2850.0 364 433 532 652 792 935 1050 1134 1204 1222
2890.0 1229 1190 1145 1150 1160 1212 1337 1571 1945 2271
2930.0 2419 2561 2611 2537 2424 2257 1967 1745 1619 1661
2970.0 1731 1761 1942 2208 2516 2748 2771 2702 2756 2986
3010.0 3242 3389 3610 3823 4043 4371 4277 4339 4573 4600
3050.0 4302 4355 4744 5144 5174 4892 4618 4448 4312 3755
3090.0 2824 1980 1383 991 728 549 444 365 276 215
3130.0 157 123 107 96 86 90 81 75 69 77
3170.0 75 66 64 60 53 60 53 60 55 54
3210.0 41 48 54 45 49 48 57 41 55 51
3250.0 62 64 49 56 54 55 49 46 51 57
3290.0 66 56 39 50 53 45 47 55 50 51
3330.0 51 48 62 53 57 60 57 49 56 54
3370.0 57 61 52 58 59 62 61 53 65 67
3410.0 52 64 68 60 55 57 75 63 54 45
3450.0 48 52 58 42 41 50 64 48 71 41
3490.0 43 43 59 67 79 41 49 40 66 90
3530.0 66 68 71 65 77 79 65 56 68 52
3570.0 95 55 56 58 64 62 59 22 65 55
3610.0 45 59 48 56 22 41 46 69 44 42
3650.0 28 42 49 49 85 55 66 0 93 68
3690.0 64 105 96 94 106 75 81 73 78 93
3730.0 63 56 50 77 22 62 12 76 62 35
3770.0 47 65 89 62 64 81 60 58 34 35
3810.0 89 29 45 5 86 42 53 49 40 68
3850.0 45 33 16 55 60 49 52 55 93 36
3890.0 52 71 74 91 106 72 35 91 72 91
3930.0 83 61 94 70 90 93 63 74 66 60
##END=
