##TITLE=4-Heptanol, 2,6-dimethyl-
##JCAMP-DX=4.24
##DATA TYPE=INFRARED SPECTRUM
##ORIGIN=Sadtler Research Labs Under US-EPA Contract
##OWNER=NIST Standard Reference Data Program
##CAS REGISTRY NO=108-82-7
##MOLFORM=C 9 H 20 O
##XUNITS=1/CM
##YUNITS=ABSORBANCE
##XFACTOR=1.0
##YFACTOR=0.000183548
##DELTAX=4.0
##FIRSTX=450.0
##LASTX=3966.0
##FIRSTY=0.000000
##MAXX=3966
##MINX=450
##MAXY=1.83548
##MINY=0
##NPOINTS=880
##XYDATA=(X++(Y..Y))
450.0 0 76 104 57 64 44 63 67 37 39
490.0 128 119 153 154 111 94 93 76 74 58
530.0 84 60 93 115 93 79 88 58 84 93
570.0 119 153 110 118 124 105 110 51 70 81
610.0 73 73 67 67 81 75 47 58 45 47
650.0 60 64 63 65 67 66 65 66 77 37
690.0 58 54 64 56 65 62 64 68 55 51
730.0 53 53 55 63 59 57 56 54 58 58
770.0 67 70 75 73 79 70 82 93 92 97
810.0 107 132 152 193 235 265 296 305 308 291
850.0 268 249 238 232 229 212 181 148 121 111
890.0 104 111 109 128 140 165 202 250 287 308
930.0 320 334 353 373 400 418 429 437 438 431
970.0 414 390 353 320 291 282 291 323 387 463
1010.0 561 659 752 818 853 849 823 789 756 734
1050.0 718 699 654 599 542 497 468 472 485 500
1090.0 521 534 551 561 563 550 541 526 529 545
1130.0 586 650 724 802 850 857 822 780 767 772
1170.0 732 640 522 409 355 345 359 387 425 460
1210.0 495 509 509 497 476 455 441 430 424 420
1250.0 418 424 440 457 480 496 507 506 483 457
1290.0 426 398 370 349 327 314 302 310 325 347
1330.0 377 409 432 449 472 501 571 687 866 1079
1370.0 1279 1417 1454 1436 1377 1248 1075 850 658 524
1410.0 432 369 329 310 314 338 370 405 445 488
1450.0 564 663 802 963 1109 1198 1152 985 739 508
1490.0 347 244 193 157 137 118 109 99 89 83
1530.0 79 73 69 66 66 68 66 61 58 59
1570.0 60 56 55 55 59 58 59 55 55 55
1610.0 56 56 54 55 53 54 53 53 57 53
1650.0 58 50 57 57 58 54 54 57 59 56
1690.0 57 61 59 63 68 80 86 93 100 105
1730.0 100 87 74 62 56 49 48 46 45 46
1770.0 39 40 40 42 43 43 40 41 43 40
1810.0 42 41 41 39 39 42 43 40 40 42
1850.0 43 43 41 45 41 45 43 43 44 46
1890.0 45 42 43 41 41 40 41 37 34 38
1930.0 38 37 37 39 39 39 38 37 40 39
1970.0 38 37 38 38 37 36 39 40 39 39
2010.0 40 41 39 41 41 40 40 40 37 37
2050.0 32 34 43 47 42 40 38 33 30 29
2090.0 29 33 34 37 37 36 35 35 35 34
2130.0 36 37 37 35 38 40 41 41 40 42
2170.0 41 41 43 45 42 41 43 45 43 42
2210.0 43 42 39 40 39 36 37 38 39 37
2250.0 38 40 36 40 39 40 37 41 45 43
2290.0 46 51 58 56 62 61 64 63 67 59
2330.0 64 57 54 58 50 66 71 67 55 40
2370.0 42 38 45 49 50 52 52 54 53 55
2410.0 53 51 52 51 52 53 52 50 48 50
2450.0 52 49 51 53 60 53 55 55 56 57
2490.0 57 56 60 61 60 61 58 60 60 61
2530.0 61 63 64 65 69 70 68 70 74 75
2570.0 83 90 93 94 99 97 97 102 109 109
2610.0 109 110 105 104 105 105 106 102 105 117
2650.0 112 109 105 103 102 101 100 102 103 101
2690.0 103 112 115 120 129 128 138 153 169 185
2730.0 201 208 213 202 189 179 171 170 173 176
2770.0 182 184 192 195 201 205 216 228 241 261
2810.0 284 311 348 387 429 492 567 668 781 877
2850.0 946 991 1032 1115 1322 1746 2341 2874 3149 3169
2890.0 2981 2829 2824 3022 3354 3714 4052 4343 4609 4813
2930.0 4865 4829 4689 4496 4348 4500 5215 6715 8790 10000
2970.0 9000 6849 4247 2443 1519 1059 804 641 522 434
3010.0 357 308 269 239 212 189 180 161 169 159
3050.0 157 152 142 148 145 143 141 138 136 140
3090.0 140 130 130 127 127 127 126 126 125 129
3130.0 124 131 127 130 130 134 135 141 142 149
3170.0 145 141 141 144 139 143 139 139 130 126
3210.0 117 105 95 85 83 83 72 65 68 73
3250.0 69 65 65 60 59 50 35 47 53 62
3290.0 65 67 70 65 68 64 64 75 69 74
3330.0 69 76 78 75 85 84 88 86 85 80
3370.0 76 72 77 82 75 83 86 82 77 80
3410.0 79 74 83 84 86 84 80 93 88 73
3450.0 81 91 80 85 74 76 76 84 80 75
3490.0 78 80 79 78 80 73 71 75 79 77
3530.0 73 75 78 78 72 70 75 79 77 69
3570.0 75 85 78 81 77 84 79 79 88 97
3610.0 91 109 117 139 158 177 205 213 253 326
3650.0 381 405 405 354 284 219 179 138 113 95
3690.0 86 84 83 69 56 70 68 65 66 60
3730.0 70 62 64 46 67 61 52 50 53 58
3770.0 58 63 63 65 61 59 57 68 55 75
3810.0 78 75 66 62 88 58 63 76 84 77
3850.0 76 78 71 91 62 68 57 82 80 71
3890.0 82 70 91 73 58 83 70 82 95 73
3930.0 83 57 75 81 86 59 71 64 50 59
##END=
