##TITLE=Cyclohexanol
##JCAMP-DX=4.24
##DATA TYPE=INFRARED SPECTRUM
##ORIGIN=Sadtler Research Labs Under US-EPA Contract
##OWNER=NIST Standard Reference Data Program
##CAS REGISTRY NO=108-93-0
##MOLFORM=C 6 H 12 O
##SOURCE REFERENCE=No.298455 (NIST/EPA/NIH MS Database)
##XUNITS=1/CM
##YUNITS=ABSORBANCE
##XFACTOR=1.0
##YFACTOR=0.000090469
##DELTAX=4.0
##FIRSTX=450.0
##LASTX=3966.0
##FIRSTY=0.008866
##MAXX=3966
##MINX=450
##MAXY=0.90469
##MINY=0
##NPOINTS=880
##XYDATA=(X++(Y..Y))
450.0 98 70 61 114 107 119 121 142 163 121
490.0 104 55 74 29 59 30 13 9 37 40
530.0 35 69 55 107 113 119 150 136 125 108
570.0 83 54 9 30 21 30 31 21 24 28
610.0 33 17 24 30 40 43 18 28 36 44
650.0 35 42 63 62 65 59 42 34 38 36
690.0 25 31 35 21 22 9 21 28 32 32
730.0 16 5 19 20 19 18 20 29 40 25
770.0 39 57 66 75 76 85 92 72 54 54
810.0 36 50 48 70 78 114 172 154 165 173
850.0 160 157 122 90 99 108 145 193 260 272
890.0 286 296 236 195 160 139 116 115 109 115
930.0 124 147 175 225 309 435 615 805 1023 1232
970.0 1243 1043 906 788 508 295 204 193 232 284
1010.0 340 442 497 564 564 578 694 648 633 772
1050.0 1001 1371 1747 2108 2454 2526 2550 2340 1850 1252
1090.0 696 407 319 274 267 277 310 357 392 415
1130.0 440 457 447 421 388 355 321 293 266 236
1170.0 226 203 188 180 188 201 221 244 281 324
1210.0 387 447 543 599 610 642 658 633 632 629
1250.0 600 573 564 530 508 466 421 374 344 306
1290.0 272 244 228 214 213 219 221 224 239 256
1330.0 270 287 309 340 380 416 457 501 525 554
1370.0 596 610 607 563 493 447 397 335 284 247
1410.0 209 188 159 184 203 253 332 455 589 713
1450.0 758 873 1044 763 640 607 411 289 197 124
1490.0 75 57 57 45 37 21 23 25 24 28
1530.0 29 27 24 17 16 17 23 18 23 18
1570.0 16 17 27 15 29 21 20 18 23 16
1610.0 15 24 27 32 25 23 21 17 19 20
1650.0 10 13 17 14 13 10 12 17 19 14
1690.0 13 13 10 8 11 11 18 15 17 16
1730.0 13 18 18 23 16 15 17 20 16 13
1770.0 10 9 17 16 14 10 12 18 15 13
1810.0 18 22 13 18 11 13 12 21 16 12
1850.0 10 17 12 11 16 11 22 20 11 10
1890.0 9 20 19 19 18 19 17 20 22 23
1930.0 23 29 28 21 15 17 16 18 14 9
1970.0 18 12 13 6 12 13 17 15 14 14
2010.0 17 16 17 23 24 23 25 24 23 21
2050.0 22 19 21 13 11 10 9 9 12 21
2090.0 23 21 20 23 28 25 21 24 25 27
2130.0 30 22 29 29 32 30 27 22 23 24
2170.0 23 27 23 30 30 27 23 27 37 32
2210.0 31 25 25 28 23 24 29 31 29 22
2250.0 16 19 29 21 20 20 22 25 18 13
2290.0 15 15 20 19 10 7 21 28 33 30
2330.0 34 41 44 45 30 17 51 50 39 35
2370.0 41 33 34 31 33 38 47 47 40 40
2410.0 39 45 44 48 42 37 39 40 33 30
2450.0 37 42 43 45 37 42 45 46 49 41
2490.0 52 49 46 45 38 48 50 53 55 44
2530.0 52 56 60 60 49 59 58 56 49 50
2570.0 59 71 66 67 76 79 84 96 93 100
2610.0 109 114 105 103 100 116 114 121 120 131
2650.0 143 158 160 167 185 189 203 193 158 160
2690.0 152 149 138 133 132 135 138 123 109 124
2730.0 122 108 99 100 108 127 113 133 137 148
2770.0 155 171 160 172 197 204 204 208 200 205
2810.0 214 211 215 240 262 314 377 486 717 1066
2850.0 1528 2055 2569 3011 3328 3346 3005 2728 2292 1970
2890.0 1728 1571 1606 1767 2032 2457 3032 3697 4497 5600
2930.0 7037 8575 9568 10000 8659 7590 6513 4900 3147 1773
2970.0 931 507 317 208 149 140 114 91 112 123
3010.0 87 92 79 82 106 120 87 89 88 81
3050.0 110 102 64 93 124 84 74 79 70 73
3090.0 127 96 112 89 100 90 84 92 98 114
3130.0 102 119 111 104 107 79 95 118 92 108
3170.0 93 79 94 68 61 74 110 87 103 63
3210.0 88 104 107 103 79 84 102 97 64 58
3250.0 103 69 83 80 103 76 78 59 91 82
3290.0 69 79 83 92 72 78 97 95 105 120
3330.0 75 125 67 119 59 86 114 85 129 95
3370.0 61 55 83 53 17 125 112 79 67 123
3410.0 98 46 38 55 105 218 81 70 85 48
3450.0 86 153 110 53 71 136 131 75 96 119
3490.0 126 138 82 68 107 43 0 159 54 33
3530.0 138 135 126 116 124 64 86 100 63 79
3570.0 95 62 102 104 94 94 130 113 123 99
3610.0 98 115 153 191 164 216 234 313 448 524
3650.0 545 578 526 503 427 290 239 143 189 173
3690.0 143 113 92 165 145 73 101 105 136 135
3730.0 107 83 75 94 155 105 110 115 127 104
3770.0 104 95 111 120 108 61 111 170 124 109
3810.0 152 119 106 127 143 173 152 103 100 104
3850.0 61 67 79 88 100 145 170 104 111 176
3890.0 127 144 167 161 67 154 80 87 170 78
3930.0 127 88 189 154 145 126 155 185 158 162
##END=
