##TITLE=Phenol, 3-methyl-
##JCAMP-DX=4.24
##DATA TYPE=INFRARED SPECTRUM
##ORIGIN=Sadtler Research Labs Under US-EPA Contract
##OWNER=NIST Standard Reference Data Program
##CAS REGISTRY NO=108-39-4
##MOLFORM=C 7 H 8 O
##XUNITS=1/CM
##YUNITS=ABSORBANCE
##XFACTOR=1.0
##YFACTOR=0.000093726
##DELTAX=4.0
##FIRSTX=450.0
##LASTX=3966.0
##FIRSTY=0.069451
##MAXX=3966
##MINX=450
##MAXY=0.93726
##MINY=0
##NPOINTS=880
##XYDATA=(X++(Y..Y))
450.0 741 976 667 285 216 126 120 138 134 155
490.0 152 147 156 221 237 258 280 323 398 533
530.0 578 563 537 528 436 275 141 92 84 87
570.0 115 147 244 297 299 318 260 269 155 106
610.0 52 23 7 4 7 5 25 20 39 43
650.0 62 98 155 395 676 1074 1363 1371 2623 3273
690.0 1869 1328 1308 954 588 246 237 221 474 600
730.0 714 724 841 952 1006 1253 1716 2284 2840 4513
770.0 4214 4074 4493 2664 2074 1572 975 543 240 135
810.0 89 135 220 306 419 473 786 995 784 680
850.0 760 771 776 727 802 893 957 691 616 510
890.0 398 329 345 404 462 718 1197 2111 2624 2629
930.0 2581 2519 2178 1117 391 233 184 214 223 257
970.0 299 374 471 559 672 812 993 1084 1040 990
1010.0 879 716 473 294 197 191 204 255 339 381
1050.0 406 437 470 496 575 688 807 859 848 861
1090.0 792 663 515 419 360 378 429 498 618 836
1130.0 1338 2378 4213 6400 7845 8776 9536 10000 8692 7417
1170.0 6573 6001 5962 5997 6570 6530 6262 5799 5353 4512
1210.0 3438 2447 1726 1282 1058 886 753 686 717 886
1250.0 1198 1724 2301 2805 3604 4844 6388 6641 6463 6228
1290.0 6483 5530 4389 3877 3744 3566 3583 2842 1710 1046
1330.0 692 461 329 246 204 173 149 157 167 197
1370.0 230 269 333 360 423 492 512 470 483 511
1410.0 531 582 670 908 1106 1366 1526 1721 2073 2485
1450.0 2750 2769 2875 3001 2951 2558 2461 2801 3365 3896
1490.0 3997 4213 3909 3801 3215 2484 2241 2000 1914 1827
1530.0 1753 1548 1379 1270 1140 988 891 881 1052 1249
1570.0 1725 2292 3183 4447 5024 6375 6844 8107 7494 7962
1610.0 7979 7113 6516 5502 5167 3650 2948 1872 1215 600
1650.0 323 253 132 177 151 168 158 190 207 196
1690.0 215 214 221 198 215 238 246 253 255 266
1730.0 257 234 199 175 148 125 107 80 72 52
1770.0 48 24 38 32 42 55 70 88 100 120
1810.0 124 135 139 141 143 147 149 136 118 92
1850.0 78 49 36 27 30 41 59 76 90 108
1890.0 124 141 155 183 198 207 230 250 220 185
1930.0 175 136 90 49 25 8 0 1 0 2
1970.0 0 6 10 13 19 21 24 28 41 44
2010.0 51 47 46 44 36 26 15 13 11 12
2050.0 10 11 14 14 21 29 35 37 48 45
2090.0 42 36 34 25 19 19 15 19 19 22
2130.0 16 18 14 16 15 14 15 16 12 9
2170.0 16 11 18 20 25 33 43 58 64 69
2210.0 63 63 55 39 20 13 12 10 9 4
2250.0 8 4 4 4 5 2 0 3 4 7
2290.0 7 16 20 34 47 55 73 84 90 84
2330.0 91 86 93 82 87 91 77 79 71 69
2370.0 71 71 70 69 70 76 80 80 85 90
2410.0 90 96 110 124 133 137 143 141 134 119
2450.0 113 113 113 108 102 103 97 91 89 85
2490.0 82 75 73 62 56 53 42 38 33 31
2530.0 33 36 36 43 40 45 50 49 47 45
2570.0 44 42 41 37 39 41 44 46 45 45
2610.0 43 46 43 47 39 36 33 33 28 21
2650.0 20 17 17 15 16 16 14 13 10 13
2690.0 10 9 11 15 14 14 20 25 37 44
2730.0 67 93 118 127 146 155 142 112 93 82
2770.0 75 76 72 72 69 71 70 70 70 74
2810.0 80 83 90 101 113 128 148 174 204 247
2850.0 305 385 491 639 805 965 1077 1143 1148 1106
2890.0 1038 971 937 952 1023 1133 1293 1551 1895 2197
2930.0 2375 2460 2469 2332 2109 1769 1406 1163 988 868
2970.0 787 736 744 792 832 890 966 1094 1276 1535
3010.0 1798 1895 1955 2157 2355 2542 2835 3056 3232 3237
3050.0 3114 3019 2743 2267 1919 1726 1582 1434 1278 1150
3090.0 1030 909 774 645 538 455 385 329 274 226
3130.0 188 151 115 77 54 41 31 17 18 13
3170.0 4 9 3 5 0 4 2 7 9 13
3210.0 18 13 13 12 12 14 20 5 7 12
3250.0 6 10 5 7 13 23 21 17 19 22
3290.0 24 25 32 28 30 28 31 32 36 49
3330.0 58 77 72 93 118 119 98 98 98 99
3370.0 99 100 93 79 80 70 65 64 62 59
3410.0 60 66 55 68 71 72 62 65 60 58
3450.0 59 56 56 42 55 45 48 51 45 44
3490.0 44 46 33 44 36 45 36 40 33 33
3530.0 31 27 40 26 40 34 38 35 45 50
3570.0 46 53 50 75 52 84 68 72 71 77
3610.0 83 77 156 168 324 523 1091 1912 3621 5413
3650.0 6281 5782 5917 5541 4143 1945 763 319 159 87
3690.0 48 65 17 49 20 44 18 21 30 24
3730.0 23 35 58 18 63 54 52 37 43 42
3770.0 36 49 41 58 51 59 41 48 56 43
3810.0 44 36 67 58 56 58 65 63 64 71
3850.0 64 91 80 85 65 82 84 77 92 74
3890.0 68 64 73 66 77 58 71 80 85 99
3930.0 98 85 88 93 93 100 89 107 129 100
##END=
