##TITLE=Benzene, 1,3-dibromo-
##JCAMP-DX=4.24
##DATA TYPE=INFRARED SPECTRUM
##ORIGIN=Sadtler Research Labs Under US-EPA Contract
##OWNER=NIST Standard Reference Data Program
##CAS REGISTRY NO=108-36-1
##MOLFORM=C 6 H 4 Br 2
##XUNITS=1/CM
##YUNITS=ABSORBANCE
##XFACTOR=1.0
##YFACTOR=0.000110233
##DELTAX=4.0
##FIRSTX=450.0
##LASTX=3966.0
##FIRSTY=0.000000
##MAXX=3966
##MINX=450
##MAXY=1.10233
##MINY=0
##NPOINTS=880
##XYDATA=(X++(Y..Y))
450.0 0 220 123 217 292 148 336 160 315 131
490.0 330 233 206 226 231 239 143 253 185 224
530.0 182 241 219 178 227 186 230 175 236 186
570.0 199 198 199 200 198 229 183 225 206 226
610.0 189 194 216 208 270 284 396 390 467 425
650.0 409 450 517 983 1113 1745 1689 1173 963 600
690.0 402 345 323 380 371 400 491 1039 2511 5036
730.0 6690 6960 3195 1281 830 691 940 1521 2279 2960
770.0 4069 3607 2488 1891 880 460 275 224 209 196
810.0 231 185 221 188 217 158 193 185 182 220
850.0 260 340 408 608 752 987 1004 676 549 330
890.0 249 208 207 187 208 195 192 197 191 195
930.0 200 236 218 221 208 222 202 191 181 175
970.0 190 193 250 298 435 581 586 612 576 449
1010.0 440 401 402 444 459 472 436 401 409 525
1050.0 735 1164 1495 1607 1726 2000 2631 3067 2327 1119
1090.0 676 756 708 730 609 555 487 456 376 274
1130.0 239 182 198 199 227 208 203 189 190 200
1170.0 188 181 164 201 208 241 242 246 227 194
1210.0 188 164 168 155 169 157 169 180 205 239
1250.0 254 248 194 184 184 216 291 404 457 488
1290.0 458 386 307 187 196 197 251 368 442 406
1330.0 295 211 198 208 193 229 220 227 250 265
1370.0 328 443 699 924 1066 1015 976 1019 1088 1211
1410.0 1277 1070 958 683 439 380 444 589 745 911
1450.0 1607 3115 5724 6248 4791 2175 1191 1144 1015 763
1490.0 468 263 273 259 222 289 202 274 208 299
1530.0 299 350 496 647 881 926 1756 2601 5325 7827
1570.0 10000 8592 3798 1739 1371 952 714 355 308 238
1610.0 216 191 202 188 165 187 180 203 154 193
1650.0 216 217 294 315 346 278 259 157 205 195
1690.0 180 166 209 219 180 173 186 262 227 259
1730.0 307 360 344 325 321 266 232 201 212 196
1770.0 229 231 226 257 260 261 249 213 192 164
1810.0 162 161 149 150 166 175 178 175 197 223
1850.0 244 295 346 317 259 202 151 153 145 148
1890.0 149 151 146 142 150 153 168 187 223 233
1930.0 253 246 228 206 171 155 142 141 130 138
1970.0 129 125 124 121 124 129 134 123 128 125
2010.0 126 127 132 128 122 126 124 123 121 127
2050.0 121 123 123 123 125 122 126 120 124 120
2090.0 126 123 121 123 121 123 120 122 119 121
2130.0 122 124 121 125 128 124 128 130 130 128
2170.0 129 127 130 134 135 135 131 128 119 120
2210.0 120 122 123 122 123 121 124 123 128 124
2250.0 123 123 118 115 117 119 117 119 115 114
2290.0 108 106 103 101 105 98 106 101 108 111
2330.0 119 121 125 117 114 133 116 128 126 135
2370.0 124 134 125 124 125 131 141 139 141 133
2410.0 130 123 119 116 117 120 117 121 119 125
2450.0 124 125 124 122 120 121 123 123 125 127
2490.0 131 130 131 131 127 128 123 127 122 124
2530.0 121 117 117 122 123 122 127 127 129 130
2570.0 131 130 130 129 122 121 118 123 123 127
2610.0 125 133 137 146 153 154 146 136 137 136
2650.0 141 140 138 138 138 134 130 135 133 131
2690.0 125 124 122 124 117 118 115 116 118 115
2730.0 118 118 124 119 117 114 108 108 106 106
2770.0 106 110 107 114 119 123 124 123 128 128
2810.0 131 131 134 139 135 131 127 126 123 129
2850.0 128 132 131 135 129 123 122 116 116 115
2890.0 117 117 118 117 120 123 126 122 117 118
2930.0 116 114 116 121 119 119 117 115 117 115
2970.0 119 126 128 125 129 133 141 145 155 159
3010.0 159 157 142 137 131 128 132 131 136 144
3050.0 167 221 309 442 553 615 678 655 594 534
3090.0 397 264 200 163 140 134 128 132 131 133
3130.0 144 148 157 157 150 145 134 121 121 116
3170.0 110 112 110 114 113 114 114 114 118 112
3210.0 113 111 114 112 115 115 114 116 114 114
3250.0 114 114 111 113 114 117 115 114 115 117
3290.0 119 116 114 114 116 116 114 115 111 114
3330.0 114 117 111 113 113 115 116 117 113 116
3370.0 112 115 112 116 117 115 113 116 114 115
3410.0 115 113 110 122 116 117 118 117 111 111
3450.0 114 114 109 113 108 102 106 111 113 109
3490.0 111 109 110 111 110 109 109 109 114 109
3530.0 107 113 118 109 109 110 118 108 108 113
3570.0 115 110 107 115 110 117 113 102 115 111
3610.0 119 107 119 113 107 127 113 121 114 111
3650.0 129 114 126 116 112 114 113 127 103 119
3690.0 107 119 107 119 114 111 125 129 118 140
3730.0 133 149 138 149 122 132 137 116 116 112
3770.0 108 110 106 115 109 105 119 112 137 121
3810.0 134 134 126 142 108 114 114 120 113 120
3850.0 100 125 121 116 122 115 110 107 126 108
3890.0 112 110 112 122 119 113 110 113 110 103
3930.0 107 112 109 114 106 116 120 121 103 103
##END=
