##TITLE=Benzene, 1-chloro-3-methyl-
##JCAMP-DX=4.24
##DATA TYPE=INFRARED SPECTRUM
##ORIGIN=Sadtler Research Labs Under US-EPA Contract
##OWNER=NIST Standard Reference Data Program
##CAS REGISTRY NO=108-41-8
##MOLFORM=C 7 H 7 Cl
##XUNITS=1/CM
##YUNITS=ABSORBANCE
##XFACTOR=1.0
##YFACTOR=0.000074252
##DELTAX=4.0
##FIRSTX=450.0
##LASTX=3966.0
##FIRSTY=0.001262
##MAXX=3966
##MINX=450
##MAXY=0.74252
##MINY=0
##NPOINTS=880
##XYDATA=(X++(Y..Y))
450.0 17 97 95 18 18 10 89 119 186 118
490.0 92 91 69 73 88 265 270 315 302 313
530.0 220 99 99 67 99 63 62 54 91 79
570.0 45 90 88 87 6 174 17 62 91 69
610.0 86 33 116 86 140 117 197 174 189 253
650.0 290 452 524 1175 1493 2579 3368 4980 6229 5062
690.0 4583 3943 2412 1377 679 427 202 146 156 150
730.0 190 197 290 383 743 1229 2206 3588 4876 6176
770.0 9621 10000 6282 5732 4310 2677 1518 810 502 396
810.0 412 308 415 488 626 673 772 994 1567 3179
850.0 5174 6572 7350 7639 6826 4937 2656 1639 1078 776
890.0 712 616 470 369 324 211 179 132 107 89
930.0 91 116 103 162 180 235 233 265 278 283
970.0 370 470 607 715 940 1045 1081 948 834 623
1010.0 374 245 181 209 225 298 347 459 626 712
1050.0 742 840 961 1188 1811 2826 3829 4204 4436 4756
1090.0 4213 3524 3410 3258 2759 2297 1510 744 341 190
1130.0 133 90 106 79 105 128 276 360 398 392
1170.0 395 308 181 212 259 395 525 705 967 1508
1210.0 2425 2754 2686 2686 2306 1092 401 265 214 196
1250.0 190 214 201 217 204 217 214 217 205 201
1290.0 217 214 247 219 220 183 182 186 211 224
1330.0 217 239 197 203 172 209 205 257 296 335
1370.0 392 440 576 688 934 1031 1114 1090 1166 1263
1410.0 1302 1442 1684 2153 2369 2501 2515 2527 2173 1763
1450.0 1489 1400 1737 2146 3081 4511 5815 6569 6371 6971
1490.0 5635 4392 3653 3146 2546 1848 1691 1592 1614 1674
1530.0 1655 1630 1585 1482 1369 1274 1429 1550 2105 2715
1570.0 3702 4544 5248 6240 6415 7273 7146 7896 7336 6509
1610.0 5321 3774 2060 1025 676 499 324 258 194 230
1650.0 226 281 324 317 316 251 264 127 130 97
1690.0 80 62 85 68 76 93 118 174 224 287
1730.0 339 357 353 371 373 364 403 391 383 385
1770.0 364 312 268 249 228 221 184 163 113 103
1810.0 95 92 111 135 169 199 208 219 253 287
1850.0 350 398 411 390 340 245 137 94 66 62
1890.0 60 72 77 92 120 144 191 230 305 359
1930.0 387 346 341 305 202 134 84 63 48 50
1970.0 43 37 35 24 32 20 27 19 24 23
2010.0 25 26 30 27 24 30 19 23 18 26
2050.0 20 23 29 30 34 31 38 31 30 19
2090.0 18 11 11 13 11 13 8 14 7 13
2130.0 5 6 6 5 8 10 18 18 24 19
2170.0 26 26 25 29 24 31 26 23 19 19
2210.0 16 19 21 25 26 32 40 47 60 61
2250.0 71 66 60 55 44 43 39 42 36 42
2290.0 40 39 36 32 36 33 45 49 64 70
2330.0 76 79 84 96 74 61 62 67 82 96
2370.0 87 103 91 82 79 72 73 71 78 74
2410.0 74 69 70 69 63 54 45 43 38 37
2450.0 33 38 41 45 48 47 48 40 41 39
2490.0 37 35 39 35 32 37 39 47 41 49
2530.0 49 50 42 42 41 30 32 32 39 35
2570.0 44 45 45 50 55 55 62 64 57 52
2610.0 41 27 18 11 8 3 13 13 22 31
2650.0 37 39 38 38 34 36 34 40 40 40
2690.0 41 42 38 36 32 33 37 40 48 61
2730.0 81 106 143 166 182 194 177 142 115 97
2770.0 92 86 82 76 78 81 86 90 100 110
2810.0 125 130 148 162 174 192 217 244 284 337
2850.0 414 527 695 916 1181 1423 1560 1626 1618 1513
2890.0 1395 1354 1372 1466 1603 1775 1989 2285 2688 3127
2930.0 3506 3710 3787 3624 3340 2907 2370 1961 1645 1435
2970.0 1266 1066 979 1015 1126 1260 1359 1464 1591 1671
3010.0 1762 1870 1958 2149 2423 2658 2836 2967 2944 2763
3050.0 2640 2642 2761 2934 3070 3099 3109 2992 2665 2324
3090.0 2040 1773 1478 1208 965 724 495 323 216 142
3130.0 101 75 61 48 42 40 40 27 23 30
3170.0 29 33 30 23 22 30 25 24 27 22
3210.0 21 18 24 23 30 36 42 38 33 35
3250.0 32 33 29 36 29 24 29 32 25 32
3290.0 29 30 33 32 27 25 27 29 27 35
3330.0 27 30 23 26 23 19 32 33 22 20
3370.0 31 33 36 32 37 38 37 35 27 32
3410.0 34 42 44 44 38 35 33 43 34 36
3450.0 40 36 42 42 41 43 45 38 38 44
3490.0 40 37 34 35 37 30 30 27 33 20
3530.0 31 30 30 27 31 30 35 39 20 51
3570.0 37 45 37 35 42 41 54 24 39 40
3610.0 52 31 44 48 22 54 43 18 35 15
3650.0 57 48 25 35 0 64 12 70 19 39
3690.0 49 44 49 36 56 66 90 77 69 75
3730.0 70 85 67 68 85 69 108 76 68 74
3770.0 79 75 63 84 60 57 48 53 56 79
3810.0 29 70 37 81 38 53 60 84 61 63
3850.0 54 81 80 50 63 87 62 49 80 82
3890.0 64 84 67 98 94 90 74 101 81 99
3930.0 108 97 104 89 99 57 75 51 66 67
##END=
