##TITLE=Benzenamine, 3-methyl-
##JCAMP-DX=4.24
##DATA TYPE=INFRARED SPECTRUM
##ORIGIN=Sadtler Research Labs Under US-EPA Contract
##OWNER=NIST Standard Reference Data Program
##CAS REGISTRY NO=108-44-1
##MOLFORM=C 7 H 9 N
##XUNITS=1/CM
##YUNITS=ABSORBANCE
##XFACTOR=1.0
##YFACTOR=0.000123434
##DELTAX=4.0
##FIRSTX=450.0
##LASTX=3966.0
##FIRSTY=0.031723
##MAXX=3966
##MINX=450
##MAXY=1.23434
##MINY=0
##NPOINTS=880
##XYDATA=(X++(Y..Y))
450.0 257 189 144 56 213 170 257 264 349 383
490.0 358 431 423 441 429 486 439 451 436 407
530.0 374 338 374 293 328 258 241 214 205 214
570.0 186 242 223 299 235 309 297 324 329 330
610.0 377 314 393 380 483 514 747 924 1141 1512
650.0 1947 2786 3411 3952 4130 4318 4305 3593 3531 3425
690.0 2404 1778 1586 1314 1040 813 665 596 617 598
730.0 636 620 669 748 991 1324 1665 2054 2438 3790
770.0 4105 2736 2504 2209 1657 1172 798 583 412 360
810.0 313 302 297 297 335 377 436 479 630 842
850.0 788 675 682 646 587 456 349 283 225 205
890.0 186 198 200 209 244 318 446 562 592 576
930.0 557 470 341 145 83 76 98 115 121 148
970.0 165 186 199 233 283 378 416 389 396 341
1010.0 283 152 83 62 78 103 133 186 249 293
1050.0 308 363 413 510 640 795 916 977 1001 930
1090.0 814 638 465 305 227 174 161 144 124 114
1130.0 100 109 91 103 113 207 365 706 1104 1233
1170.0 1234 1261 1144 859 367 136 64 51 39 33
1210.0 30 15 6 0 8 19 41 64 98 142
1250.0 202 294 420 586 766 977 1333 1825 2372 2603
1290.0 2665 2900 3023 2628 1925 1560 1362 988 615 462
1330.0 371 306 207 165 156 130 122 101 87 100
1370.0 129 127 184 228 245 274 258 245 284 310
1410.0 319 376 292 364 367 429 426 490 648 827
1450.0 1102 1276 1363 1461 1520 1484 1316 1308 1594 1957
1490.0 2188 2473 2447 2549 2452 1970 1756 1489 1351 1262
1530.0 1095 989 848 786 724 734 638 582 723 859
1570.0 1065 1289 1696 2174 2554 3042 3524 4375 4740 5555
1610.0 6292 7196 8235 8386 10000 7604 7608 5309 4114 2262
1650.0 1342 926 539 531 378 395 237 330 226 216
1690.0 262 307 269 285 374 406 404 330 398 370
1730.0 284 194 200 179 110 94 96 93 89 107
1770.0 76 63 111 91 114 104 118 128 135 189
1810.0 198 208 224 216 191 179 177 180 137 118
1850.0 134 140 130 117 103 75 117 121 135 145
1890.0 160 193 228 269 284 290 266 265 227 206
1930.0 175 146 133 108 116 124 132 125 130 113
1970.0 111 104 98 99 96 82 81 97 96 101
2010.0 106 103 99 105 115 112 121 117 122 123
2050.0 130 129 127 120 104 110 99 99 95 93
2090.0 89 93 94 92 97 92 91 91 92 88
2130.0 88 85 85 86 84 89 86 90 89 91
2170.0 88 87 84 77 78 75 77 75 78 81
2210.0 88 88 89 92 86 83 76 79 76 77
2250.0 75 76 78 77 78 78 83 79 79 75
2290.0 75 72 67 66 62 59 61 63 59 65
2330.0 67 79 79 86 91 80 69 74 90 90
2370.0 98 92 90 84 84 86 86 88 85 87
2410.0 84 85 81 80 77 77 79 81 84 85
2450.0 90 92 95 93 94 92 87 87 85 85
2490.0 82 79 79 75 75 71 69 66 68 68
2530.0 69 73 78 84 88 96 98 98 97 98
2570.0 98 100 103 107 112 116 118 115 114 110
2610.0 103 97 92 89 86 87 87 83 80 80
2650.0 76 76 75 77 80 82 84 84 86 86
2690.0 86 87 90 92 95 97 99 104 108 123
2730.0 142 161 173 180 189 189 173 151 138 127
2770.0 122 119 116 116 116 115 114 116 115 119
2810.0 124 129 136 147 157 169 188 207 233 267
2850.0 315 381 472 584 710 820 903 949 957 943
2890.0 905 878 866 889 940 1009 1131 1336 1582 1766
2930.0 1856 1904 1883 1761 1558 1262 1041 880 770 695
2970.0 637 628 657 687 709 748 823 946 1131 1418
3010.0 1723 2005 2133 2302 2583 2727 2915 2988 2935 2820
3050.0 2684 2491 2051 1693 1506 1369 1277 1166 1030 884
3090.0 752 632 538 466 410 368 333 306 268 238
3130.0 206 180 152 133 114 103 99 90 88 84
3170.0 87 86 84 86 89 96 101 115 129 142
3210.0 145 160 163 167 172 175 166 141 133 126
3250.0 110 102 98 90 90 91 85 81 79 81
3290.0 82 84 84 84 86 82 81 80 78 78
3330.0 77 76 77 78 78 79 79 86 91 97
3370.0 103 118 138 164 211 274 373 496 567 624
3410.0 697 699 661 540 482 411 322 246 205 184
3450.0 157 153 161 189 222 277 331 423 524 570
3490.0 553 599 630 571 472 407 387 331 254 192
3530.0 163 143 118 106 99 99 98 89 92 84
3570.0 90 89 84 82 74 79 81 72 74 66
3610.0 64 69 70 71 65 73 75 70 74 61
3650.0 79 75 70 72 67 67 58 83 73 75
3690.0 71 82 71 77 73 71 83 80 70 81
3730.0 77 79 87 96 84 86 99 90 89 83
3770.0 83 84 82 84 79 73 75 63 74 63
3810.0 75 67 65 84 81 80 86 101 108 130
3850.0 122 165 162 145 144 135 119 99 104 92
3890.0 92 95 91 95 103 92 94 89 92 99
3930.0 98 103 110 124 121 114 122 123 111 106
##END=
