##TITLE=Pyridine, 2,4,6-trimethyl-
##JCAMP-DX=4.24
##DATA TYPE=INFRARED SPECTRUM
##ORIGIN=Sadtler Research Labs Under US-EPA Contract
##OWNER=NIST Standard Reference Data Program
##CAS REGISTRY NO=108-75-8
##MOLFORM=C 8 H 11 N
##XUNITS=1/CM
##YUNITS=ABSORBANCE
##XFACTOR=1.0
##YFACTOR=0.000090302
##DELTAX=4.0
##FIRSTX=450.0
##LASTX=3966.0
##FIRSTY=0.024833
##MAXX=3966
##MINX=450
##MAXY=0.90302
##MINY=0
##NPOINTS=880
##XYDATA=(X++(Y..Y))
450.0 275 235 263 234 190 156 73 6 13 88
490.0 68 237 12 228 511 696 574 721 741 687
530.0 991 941 662 610 495 388 269 189 391 232
570.0 212 235 244 196 386 158 130 115 88 79
610.0 102 122 143 146 190 134 135 139 133 144
650.0 127 119 141 139 124 179 150 152 142 219
690.0 272 322 419 501 623 766 545 549 606 572
730.0 562 521 498 525 578 379 361 355 344 336
770.0 318 340 358 383 409 477 599 774 933 1082
810.0 1443 1610 1346 1499 1751 1851 2130 3414 1893 1492
850.0 1329 970 680 393 334 312 297 272 265 271
890.0 286 321 357 439 579 790 957 1023 1019 961
930.0 764 505 359 317 294 285 287 314 353 395
970.0 409 452 549 609 718 816 906 956 969 929
1010.0 859 790 772 793 835 841 842 876 863 790
1050.0 732 676 629 573 520 481 436 402 378 357
1090.0 341 335 326 320 326 357 403 475 557 614
1130.0 606 595 560 491 425 404 397 431 476 499
1170.0 462 458 433 372 310 278 254 266 327 503
1210.0 786 999 1060 1101 1111 907 669 609 647 700
1250.0 726 765 763 676 560 506 459 390 334 308
1290.0 308 298 321 345 404 475 535 560 582 576
1330.0 537 495 505 523 548 610 703 821 995 1188
1370.0 1491 1741 1920 2022 2038 2053 2080 2088 2118 2325
1410.0 2525 2824 3237 3714 3978 4155 4112 4069 3809 3786
1450.0 4048 4425 4981 5334 5666 5562 5188 4550 3961 3407
1490.0 3089 2882 2845 2742 2743 2730 2695 2706 2764 2756
1530.0 2688 2688 2629 2685 2722 2950 3389 4114 5072 6025
1570.0 6927 7387 7523 7248 6703 6155 6366 7409 8995 10000
1610.0 9675 8626 6938 4735 2406 1147 632 450 329 325
1650.0 241 356 227 240 229 276 237 270 258 295
1690.0 269 298 319 362 279 267 224 222 149 153
1730.0 182 255 224 242 220 226 185 164 146 118
1770.0 143 127 107 106 123 89 115 88 103 81
1810.0 81 77 90 64 99 93 93 105 97 126
1850.0 112 100 99 99 96 119 103 111 123 138
1890.0 159 157 165 163 162 170 152 172 158 143
1930.0 132 112 93 85 70 75 71 86 82 85
1970.0 83 75 63 52 47 51 50 48 44 50
2010.0 51 41 42 45 42 35 38 33 33 39
2050.0 37 44 43 42 49 43 42 43 47 41
2090.0 44 39 37 23 23 26 26 31 37 36
2130.0 47 58 62 68 69 73 60 59 52 45
2170.0 43 37 31 37 46 47 47 46 40 40
2210.0 29 29 20 23 21 25 20 20 9 13
2250.0 8 6 0 4 0 3 3 5 10 20
2290.0 26 49 62 67 66 50 50 41 25 34
2330.0 34 25 36 50 57 40 2 35 59 78
2370.0 101 117 120 123 110 106 105 101 101 105
2410.0 101 100 90 95 86 88 85 80 83 78
2450.0 67 73 66 67 67 72 64 61 60 57
2490.0 52 50 50 50 49 44 43 43 43 46
2530.0 40 39 49 42 37 38 31 28 20 21
2570.0 26 20 30 37 33 36 36 39 37 41
2610.0 26 25 25 30 31 36 42 43 48 60
2650.0 54 46 49 36 37 30 35 41 53 69
2690.0 74 73 83 77 81 78 83 94 119 154
2730.0 194 250 277 301 299 281 243 212 186 164
2770.0 154 144 138 143 149 166 175 184 206 218
2810.0 245 263 290 329 358 419 491 576 697 865
2850.0 1077 1343 1634 1904 2141 2307 2362 2343 2273 2204
2890.0 2154 2159 2252 2418 2685 3067 3609 4326 5235 6190
2930.0 6960 7298 7151 6646 5879 4934 4159 3630 3332 3261
2970.0 3342 3309 3282 3310 3276 3125 2994 2862 2799 2843
3010.0 3033 3305 3529 3699 3867 3959 3982 3976 3945 3839
3050.0 3665 3456 3165 2768 2372 2006 1676 1383 1149 962
3090.0 794 676 590 501 411 348 285 251 215 190
3130.0 160 130 117 109 97 91 80 72 73 78
3170.0 77 83 72 96 88 55 54 46 31 27
3210.0 30 12 27 17 30 39 37 66 47 52
3250.0 60 54 56 45 50 60 50 49 50 42
3290.0 57 71 56 67 40 44 55 43 49 38
3330.0 44 48 48 41 34 48 58 53 66 60
3370.0 52 42 49 53 48 50 57 36 30 32
3410.0 32 29 27 26 25 38 37 31 31 54
3450.0 29 16 26 30 35 27 38 32 69 53
3490.0 40 34 17 47 15 43 21 24 21 23
3530.0 35 8 21 23 42 9 25 7 30 39
3570.0 41 32 23 44 38 73 49 23 33 28
3610.0 57 56 46 52 28 71 46 31 53 47
3650.0 79 48 58 43 47 61 51 80 54 73
3690.0 75 68 73 90 86 93 115 91 99 97
3730.0 126 123 147 123 165 134 136 124 112 103
3770.0 95 85 86 96 93 88 104 95 111 127
3810.0 111 109 82 116 92 100 115 120 103 128
3850.0 129 133 138 112 118 115 115 119 122 130
3890.0 139 138 136 129 119 127 109 102 99 98
3930.0 111 109 111 114 118 125 137 115 112 111
##END=
