##TITLE=m-Chloroaniline
##JCAMP-DX=4.24
##DATA TYPE=INFRARED SPECTRUM
##ORIGIN=Sadtler Research Labs Under US-EPA Contract
##OWNER=NIST Standard Reference Data Program
##CAS REGISTRY NO=108-42-9
##MOLFORM=C 6 H 6 Cl N
##XUNITS=1/CM
##YUNITS=ABSORBANCE
##XFACTOR=1.0
##YFACTOR=0.000125549
##DELTAX=4.0
##FIRSTX=450.0
##LASTX=3966.0
##FIRSTY=0.078217
##MAXX=3966
##MINX=450
##MAXY=1.25549
##MINY=0
##NPOINTS=880
##XYDATA=(X++(Y..Y))
450.0 623 528 508 413 543 379 499 504 572 600
490.0 592 663 658 705 684 727 669 706 677 618
530.0 585 547 527 417 442 397 425 404 434 481
570.0 465 481 440 461 423 433 276 336 315 328
610.0 355 322 399 379 471 455 604 646 824 1144
650.0 1650 2624 3664 4588 4744 5164 5220 5022 4002 3766
690.0 3548 3207 3024 2468 1661 1265 1036 925 790 677
730.0 581 496 573 658 981 1387 1946 2378 3206 4245
770.0 3504 2721 2468 1917 1417 1056 840 698 659 592
810.0 545 513 519 543 628 764 980 1207 1451 1896
850.0 2004 1544 1396 1242 1152 1122 1328 2031 3163 3873
890.0 4001 3903 3343 1868 683 279 148 89 90 81
930.0 109 95 114 111 120 108 112 131 127 151
970.0 154 186 195 279 525 848 790 909 842 609
1010.0 209 102 69 60 65 70 91 106 145 180
1050.0 226 309 425 641 984 1665 2348 2693 2634 2667
1090.0 2140 1485 1227 1133 1036 901 742 619 478 343
1130.0 202 132 95 82 75 122 291 388 412 379
1170.0 360 202 43 8 0 8 34 51 63 62
1210.0 61 48 35 30 39 73 135 262 475 836
1250.0 1370 2010 2363 2172 2311 2324 1587 1100 963 1009
1290.0 1170 1264 1239 1243 1151 1024 886 784 836 779
1330.0 531 348 200 143 99 62 42 18 6 5
1370.0 17 2 31 58 85 110 124 176 296 452
1410.0 578 670 661 697 644 604 688 905 1183 1268
1450.0 1179 1221 1250 1232 1511 2070 3012 4437 5157 5732
1490.0 5163 4481 3273 1772 955 582 677 781 904 956
1530.0 982 914 699 530 468 498 574 651 945 1209
1570.0 1598 1930 2551 3557 4584 6300 7608 10000 8252 8280
1610.0 8207 8387 8680 8475 9774 8049 7032 4603 3437 1917
1650.0 1155 789 544 524 468 530 499 587 561 559
1690.0 552 492 423 348 348 325 308 249 276 262
1730.0 215 166 149 132 76 72 68 73 68 82
1770.0 64 53 79 64 81 66 83 84 89 117
1810.0 135 141 144 136 108 83 69 77 57 56
1850.0 70 82 81 83 79 64 89 92 100 102
1890.0 117 138 161 191 223 229 215 236 211 180
1930.0 155 143 124 95 97 99 104 97 99 85
1970.0 80 75 67 67 66 61 59 72 70 74
2010.0 75 76 73 74 78 75 81 81 92 99
2050.0 108 108 104 99 86 78 65 63 59 59
2090.0 57 61 63 62 65 65 72 69 75 78
2130.0 84 91 101 115 125 131 133 132 116 107
2170.0 97 92 91 92 91 85 83 75 72 67
2210.0 67 63 63 60 57 58 59 64 61 65
2250.0 68 69 74 80 87 89 94 94 96 93
2290.0 90 82 77 74 74 76 70 75 73 81
2330.0 80 84 81 85 94 90 77 85 93 93
2370.0 110 118 121 117 109 101 89 85 83 83
2410.0 77 75 72 70 67 66 63 62 63 63
2450.0 65 64 65 65 65 68 67 70 74 79
2490.0 78 80 80 84 88 92 98 100 100 93
2530.0 88 81 81 87 95 103 107 108 110 112
2570.0 106 104 102 102 100 95 94 89 91 91
2610.0 95 93 94 90 82 76 74 74 75 78
2650.0 81 88 91 97 97 100 102 95 93 90
2690.0 91 89 84 82 82 85 85 89 95 105
2730.0 114 121 126 129 125 117 105 92 82 78
2770.0 77 72 70 65 68 65 65 66 64 63
2810.0 63 64 60 64 66 66 66 69 71 72
2850.0 81 84 91 93 99 108 114 117 127 127
2890.0 125 124 118 112 105 100 96 91 87 85
2930.0 88 85 86 88 88 89 92 91 93 96
2970.0 93 95 92 91 89 96 109 127 155 194
3010.0 252 316 401 499 610 715 797 831 845 880
3050.0 931 986 1050 1110 1115 1048 938 840 778 732
3090.0 671 610 561 492 400 314 238 180 133 107
3130.0 89 81 73 72 68 68 71 69 72 71
3170.0 72 75 76 75 80 80 85 100 120 140
3210.0 158 177 187 194 192 184 172 149 131 121
3250.0 105 95 87 79 76 78 69 65 66 69
3290.0 70 73 70 69 70 68 69 67 67 69
3330.0 68 65 66 66 70 71 69 73 76 89
3370.0 95 108 121 146 173 233 326 455 607 764
3410.0 883 901 990 1087 1040 871 836 723 468 269
3450.0 184 147 134 138 160 188 239 321 407 505
3490.0 623 669 641 650 646 649 683 613 572 543
3530.0 401 240 157 116 86 79 75 72 71 69
3570.0 68 71 71 72 69 68 74 67 72 62
3610.0 68 68 70 70 65 72 70 68 70 62
3650.0 73 71 71 70 62 68 58 71 65 64
3690.0 63 72 67 72 71 71 72 79 81 82
3730.0 86 84 87 82 94 81 96 81 81 80
3770.0 82 78 73 81 71 72 63 67 65 63
3810.0 57 64 64 66 66 67 85 99 140 171
3850.0 184 201 181 172 135 118 84 79 70 74
3890.0 80 76 71 71 76 72 76 81 81 87
3930.0 102 112 125 127 139 129 109 108 95 93
##END=
