##TITLE=Phenol
##JCAMP-DX=4.24
##DATA TYPE=INFRARED SPECTRUM
##ORIGIN=Sadtler Research Labs Under US-EPA Contract
##OWNER=NIST Standard Reference Data Program
##CAS REGISTRY NO=108-95-2
##MOLFORM=C 6 H 6 O
##XUNITS=1/CM
##YUNITS=ABSORBANCE
##XFACTOR=1.0
##YFACTOR=0.000093842
##DELTAX=4.0
##FIRSTX=450.0
##LASTX=3966.0
##FIRSTY=0.073384
##MAXX=3966
##MINX=450
##MAXY=0.93842
##MINY=0
##NPOINTS=880
##XYDATA=(X++(Y..Y))
450.0 782 441 130 382 214 376 586 501 864 1010
490.0 860 1403 1497 1902 1491 1059 1061 975 1007 796
530.0 662 543 491 377 170 162 2 167 150 135
570.0 249 266 253 297 301 341 293 214 154 142
610.0 76 66 18 146 152 154 105 159 154 163
650.0 202 316 474 762 977 1235 1487 1389 1860 2966
690.0 3140 1674 1502 1321 1232 1028 898 1023 1270 1773
730.0 2190 2544 2976 3848 5897 6360 4151 3135 3055 2603
770.0 2085 1504 932 657 578 686 829 1086 1354 1535
810.0 1747 1855 1904 1811 1481 1137 942 625 333 182
850.0 106 124 166 204 261 327 405 532 572 474
890.0 372 361 291 259 214 169 146 104 66 87
930.0 97 93 87 78 95 109 120 125 139 151
970.0 160 199 241 312 381 378 393 432 430 510
1010.0 597 618 536 515 478 467 456 491 464 524
1050.0 663 831 987 987 888 846 823 776 597 450
1090.0 361 310 303 276 293 319 302 367 453 672
1130.0 1110 1756 2492 2771 2865 3511 3746 4753 5792 6321
1170.0 6639 7623 9100 9974 10000 9539 7952 7148 6297 4817
1210.0 3120 1904 1322 1033 974 1107 1465 2283 3368 4515
1250.0 5408 5554 5954 5869 5309 4486 2663 1050 411 274
1290.0 293 313 330 404 472 685 836 957 1191 1512
1330.0 2191 2506 2174 2342 1812 1841 1652 1082 500 323
1370.0 227 243 254 192 228 189 151 159 86 77
1410.0 87 66 131 105 131 134 157 226 252 425
1450.0 751 1125 1720 1963 1974 2184 2133 2551 3004 3751
1490.0 4502 4721 4729 4972 4267 4633 3518 1926 964 553
1530.0 417 475 495 523 546 509 555 596 626 671
1570.0 718 925 1297 1967 2857 3941 5386 6180 7011 6968
1610.0 5840 4487 2783 1792 1021 478 292 160 121 105
1650.0 94 111 70 104 123 135 190 197 238 279
1690.0 264 276 284 250 245 210 202 178 138 121
1730.0 97 126 95 108 132 143 159 167 174 181
1770.0 187 174 143 121 106 87 87 81 84 89
1810.0 97 127 154 169 187 186 202 207 197 186
1850.0 153 121 101 87 68 55 40 29 30 44
1890.0 50 67 87 110 156 202 227 215 206 236
1930.0 267 252 198 162 131 106 91 65 46 48
1970.0 50 55 60 65 71 77 74 72 64 62
2010.0 53 47 44 34 39 35 36 43 50 61
2050.0 79 93 105 106 113 111 107 95 68 53
2090.0 39 23 16 7 4 3 1 6 5 5
2130.0 7 7 5 6 5 0 4 5 5 10
2170.0 10 7 15 12 19 18 17 13 13 17
2210.0 11 12 17 16 19 18 19 20 19 21
2250.0 20 18 17 13 14 18 15 20 21 29
2290.0 38 48 64 75 95 109 114 109 105 99
2330.0 93 77 65 53 56 57 28 46 40 45
2370.0 42 48 56 58 67 76 87 106 124 138
2410.0 150 157 164 165 158 159 162 162 150 145
2450.0 130 109 99 76 61 51 42 48 49 55
2490.0 65 74 84 95 98 102 94 91 75 59
2530.0 40 22 17 12 8 11 6 10 12 14
2570.0 18 14 19 22 29 35 36 41 44 47
2610.0 48 47 55 56 57 57 54 53 50 48
2650.0 45 40 36 33 26 22 19 25 17 6
2690.0 9 7 6 1 0 3 0 4 4 7
2730.0 12 10 15 15 19 18 18 22 23 22
2770.0 25 21 26 22 23 28 23 22 17 10
2810.0 19 15 11 13 7 11 7 12 11 11
2850.0 14 13 14 19 25 30 29 35 38 42
2890.0 49 49 55 57 59 67 66 68 67 63
2930.0 62 54 52 50 47 44 38 35 33 26
2970.0 32 33 38 41 36 50 74 119 200 345
3010.0 545 734 878 1053 1285 1552 1811 1904 1917 2009
3050.0 2106 2145 2213 2145 1954 1846 1702 1549 1503 1500
3090.0 1468 1398 1241 1095 977 863 702 526 391 300
3130.0 223 145 98 57 36 27 20 11 10 8
3170.0 12 7 6 12 11 17 6 8 11 13
3210.0 12 11 9 12 8 17 9 14 23 18
3250.0 22 17 7 17 12 5 3 5 6 0
3290.0 4 11 4 16 9 17 19 15 29 30
3330.0 38 46 48 58 90 97 75 60 69 68
3370.0 81 70 74 69 53 59 58 52 52 45
3410.0 54 56 51 51 60 72 63 52 50 40
3450.0 48 43 37 48 29 29 37 36 37 32
3490.0 25 34 34 40 37 28 29 20 26 22
3530.0 22 20 12 23 21 27 25 27 26 56
3570.0 53 36 40 39 56 58 55 52 66 80
3610.0 119 158 185 329 478 829 1489 2352 3614 4383
3650.0 4437 4235 4188 4143 3702 2406 1177 603 260 164
3690.0 131 50 72 39 36 76 64 59 53 56
3730.0 34 38 84 47 60 75 32 57 45 45
3770.0 54 37 58 51 47 61 41 46 59 48
3810.0 61 41 72 54 59 56 82 90 101 77
3850.0 101 121 118 103 121 124 117 101 125 101
3890.0 104 81 102 134 131 110 120 138 132 129
3930.0 93 79 75 92 94 84 59 106 98 75
##END=
