##TITLE=2-Pentanol, 4-methyl-
##JCAMP-DX=4.24
##DATA TYPE=INFRARED SPECTRUM
##ORIGIN=Sadtler Research Labs Under US-EPA Contract
##OWNER=NIST Standard Reference Data Program
##CAS REGISTRY NO=108-11-2
##MOLFORM=C 6 H 14 O
##XUNITS=1/CM
##YUNITS=ABSORBANCE
##XFACTOR=1.0
##YFACTOR=0.000133157
##DELTAX=4.0
##FIRSTX=450.0
##LASTX=3966.0
##FIRSTY=0.023569
##MAXX=3966
##MINX=450
##MAXY=1.33157
##MINY=0
##NPOINTS=880
##XYDATA=(X++(Y..Y))
450.0 177 199 452 690 664 538 543 823 526 493
490.0 797 717 448 793 888 318 533 480 427 336
530.0 374 172 179 726 677 523 662 229 551 475
570.0 593 544 301 628 294 427 370 405 413 428
610.0 411 424 401 413 278 397 412 405 386 396
650.0 396 398 393 395 396 391 388 384 380 378
690.0 371 366 379 380 369 379 366 376 359 348
730.0 351 358 360 355 357 347 347 335 337 347
770.0 346 364 364 365 357 357 351 397 396 447
810.0 514 587 696 742 699 707 676 693 602 562
850.0 517 494 468 467 475 495 556 563 561 542
890.0 532 506 524 584 677 835 1002 1150 1268 1305
930.0 1255 1139 987 826 691 622 613 636 666 755
970.0 747 744 746 719 686 668 693 743 832 916
1010.0 1034 1187 1263 1304 1315 1317 1308 1326 1374 1423
1050.0 1471 1489 1477 1443 1407 1394 1446 1546 1652 1745
1090.0 1778 1755 1668 1553 1435 1343 1273 1254 1278 1339
1130.0 1432 1553 1694 1840 1942 1975 1932 1821 1679 1469
1170.0 1261 1067 920 817 736 695 692 716 748 796
1210.0 856 904 953 1001 1044 1089 1133 1169 1202 1212
1250.0 1197 1162 1116 1058 1007 953 909 869 833 803
1290.0 769 734 699 664 637 624 615 625 645 674
1330.0 716 759 806 851 913 1014 1153 1349 1611 1904
1370.0 2181 2417 2575 2591 2470 2268 1952 1643 1348 1100
1410.0 915 784 695 641 624 638 669 724 805 902
1450.0 1032 1169 1301 1381 1425 1446 1357 1200 1020 827
1490.0 654 505 407 328 292 267 245 231 221 216
1530.0 203 203 193 190 185 189 184 181 179 180
1570.0 178 171 178 173 177 167 166 169 162 161
1610.0 158 158 156 156 153 154 154 158 154 155
1650.0 150 153 153 151 151 151 149 150 156 155
1690.0 155 159 154 159 162 168 178 193 200 207
1730.0 213 211 207 194 177 162 151 139 131 122
1770.0 120 112 114 111 109 109 104 103 101 102
1810.0 96 94 91 90 90 93 91 90 89 89
1850.0 92 90 86 80 84 82 82 77 83 83
1890.0 78 81 76 73 74 71 70 70 66 70
1930.0 74 70 72 73 71 68 68 65 65 61
1970.0 64 65 63 63 57 57 49 46 41 38
2010.0 40 38 39 37 39 35 34 30 31 35
2050.0 32 30 31 30 30 27 26 27 26 23
2090.0 23 22 22 22 24 21 23 22 21 19
2130.0 23 24 22 23 24 22 20 23 26 25
2170.0 26 27 21 20 18 20 15 16 13 11
2210.0 10 8 5 4 2 0 2 2 0 2
2250.0 5 7 6 4 2 7 9 10 13 14
2290.0 19 18 25 24 29 30 30 25 30 21
2330.0 18 23 14 17 21 27 31 24 18 22
2370.0 21 22 23 21 24 21 23 24 26 28
2410.0 30 26 29 28 31 30 29 29 28 29
2450.0 25 23 26 29 28 32 31 31 34 32
2490.0 34 34 36 36 34 34 33 33 32 35
2530.0 31 34 31 37 34 37 39 44 41 43
2570.0 49 57 60 60 65 75 77 85 84 88
2610.0 90 91 92 92 95 99 104 100 105 108
2650.0 107 110 105 108 112 113 112 113 108 112
2690.0 111 111 111 107 114 120 125 140 159 174
2730.0 191 200 208 201 192 180 168 167 173 181
2770.0 185 195 199 210 212 224 241 254 279 299
2810.0 332 372 409 452 515 583 671 759 852 930
2850.0 1010 1095 1223 1430 1767 2242 2746 3184 3516 3731
2890.0 3828 3845 3899 4063 4278 4604 4914 5156 5301 5340
2930.0 5335 5260 5182 5113 5197 5580 6413 7789 9351 10000
2970.0 9910 9421 8011 6086 4291 2992 2023 1308 842 580
3010.0 438 348 292 255 230 199 175 158 145 134
3050.0 126 122 122 124 126 119 114 128 120 112
3090.0 106 104 109 97 96 96 86 82 78 94
3130.0 87 93 99 98 99 97 95 92 103 103
3170.0 108 109 107 117 121 128 118 124 113 112
3210.0 107 89 77 71 57 57 52 35 34 32
3250.0 29 18 24 31 27 38 39 29 27 23
3290.0 8 13 12 16 14 9 15 25 21 20
3330.0 15 22 11 20 27 20 21 29 28 25
3370.0 32 30 34 36 44 43 41 31 39 44
3410.0 43 45 23 53 55 43 54 53 60 51
3450.0 45 66 53 40 48 49 44 33 35 33
3490.0 39 8 28 17 17 33 23 41 49 30
3530.0 18 19 20 17 2 16 14 30 28 27
3570.0 24 22 24 9 31 40 38 51 46 36
3610.0 52 83 111 139 179 221 288 351 448 538
3650.0 633 656 654 611 544 424 299 196 161 114
3690.0 81 96 77 52 41 64 45 51 39 35
3730.0 50 34 41 57 35 59 62 41 44 65
3770.0 53 37 47 50 51 57 71 70 65 64
3810.0 61 69 74 56 48 81 81 96 96 84
3850.0 69 67 67 70 67 56 90 35 70 61
3890.0 90 88 76 75 93 86 69 62 106 112
3930.0 74 50 97 24 84 88 86 84 37 53
##END=
