##TITLE=Pentane, 2,4-dimethyl-
##JCAMP-DX=4.24
##DATA TYPE=INFRARED SPECTRUM
##ORIGIN=Sadtler Research Labs Under US-EPA Contract
##OWNER=NIST Standard Reference Data Program
##CAS REGISTRY NO=108-08-7
##MOLFORM=C 7 H 16
##XUNITS=1/CM
##YUNITS=ABSORBANCE
##XFACTOR=1.0
##YFACTOR=0.000084558
##DELTAX=4.0
##FIRSTX=450.0
##LASTX=3966.0
##FIRSTY=0.003298
##MAXX=3966
##MINX=450
##MAXY=0.84558
##MINY=0
##NPOINTS=880
##XYDATA=(X++(Y..Y))
450.0 39 45 45 34 33 29 28 30 36 18
490.0 24 26 39 44 32 38 46 14 26 38
530.0 27 27 23 26 24 18 43 43 32 39
570.0 17 64 51 27 24 29 42 25 20 17
610.0 34 35 35 22 30 28 23 34 29 35
650.0 27 31 28 26 22 41 33 26 38 40
690.0 27 36 37 31 31 31 31 30 31 36
730.0 30 30 30 36 32 29 31 37 36 35
770.0 35 34 35 33 33 31 31 86 75 86
810.0 82 80 80 68 56 44 21 33 38 42
850.0 40 42 52 65 74 64 59 54 48 41
890.0 41 41 41 54 65 76 88 96 102 99
930.0 88 76 64 45 39 39 40 41 57 64
970.0 93 120 146 153 154 143 118 84 65 43
1010.0 37 31 32 36 35 36 32 30 31 37
1050.0 30 37 37 36 38 37 40 44 41 41
1090.0 35 40 34 35 29 35 45 46 52 61
1130.0 62 79 88 105 129 170 223 295 380 435
1170.0 413 346 264 184 129 84 58 45 38 43
1210.0 43 38 42 42 42 49 50 53 53 56
1250.0 53 60 53 54 52 59 59 59 59 59
1290.0 59 51 51 62 74 91 108 125 150 167
1330.0 180 189 189 211 249 328 442 565 699 790
1370.0 876 872 914 942 914 861 721 610 453 281
1410.0 181 133 110 111 110 129 159 209 285 390
1450.0 523 678 855 992 1078 1149 1119 975 827 634
1490.0 454 309 205 138 95 71 52 38 38 39
1530.0 27 27 21 24 19 21 21 20 23 19
1570.0 21 26 33 27 23 26 26 27 21 20
1610.0 21 24 26 24 19 20 20 26 26 26
1650.0 23 29 24 25 24 32 22 28 24 28
1690.0 24 18 22 23 17 17 19 22 21 16
1730.0 11 20 12 11 6 10 11 12 11 10
1770.0 4 11 12 7 7 12 9 10 10 5
1810.0 10 10 10 5 5 5 5 8 4 10
1850.0 9 11 11 10 4 9 11 6 4 5
1890.0 3 3 4 3 4 4 4 3 3 3
1930.0 3 3 3 3 3 3 4 2 3 2
1970.0 3 3 3 3 3 3 3 3 3 3
2010.0 3 3 3 3 2 2 3 1 1 1
2050.0 1 1 1 1 1 1 1 1 1 1
2090.0 1 1 1 1 1 1 1 1 1 1
2130.0 6 1 0 5 2 6 6 7 5 6
2170.0 6 11 5 12 5 6 11 12 12 5
2210.0 5 5 6 6 6 0 5 0 6 0
2250.0 6 6 1 5 2 6 6 6 5 6
2290.0 7 7 9 8 9 5 6 8 6 6
2330.0 6 6 5 7 6 0 1 10 10 4
2370.0 7 5 17 14 20 24 22 19 18 19
2410.0 12 12 12 17 13 13 13 13 13 13
2450.0 13 13 13 8 7 14 8 11 7 14
2490.0 17 19 19 19 19 13 13 19 20 13
2530.0 20 21 17 17 16 21 21 21 26 32
2570.0 33 38 44 50 58 61 68 64 62 62
2610.0 66 67 67 62 67 67 66 67 63 63
2650.0 62 59 56 51 52 50 50 51 57 52
2690.0 53 59 63 70 78 91 100 119 137 150
2730.0 162 162 161 149 137 132 120 121 119 122
2770.0 128 134 139 145 145 159 176 189 200 216
2810.0 233 260 291 332 383 447 537 638 753 848
2850.0 925 996 1074 1239 1543 1991 2428 2774 2999 3131
2890.0 3194 3218 3363 3670 4018 4306 4416 4293 4041 3804
2930.0 3748 3837 4044 4272 4719 5428 6511 8116 9485 10000
2970.0 9491 8082 6111 3857 2154 1225 766 537 405 334
3010.0 281 244 218 198 180 156 142 125 119 128
3050.0 117 111 118 112 124 123 122 120 125 111
3090.0 110 109 100 91 89 95 90 101 93 92
3130.0 98 104 107 103 105 107 108 113 119 108
3170.0 109 115 126 124 118 115 115 109 107 105
3210.0 88 81 64 58 51 51 41 33 29 36
3250.0 43 35 41 36 35 35 41 36 31 30
3290.0 29 31 36 30 34 26 36 48 38 31
3330.0 26 26 28 33 38 41 47 43 56 53
3370.0 55 44 45 51 40 39 38 32 27 40
3410.0 37 35 29 27 27 35 35 29 24 24
3450.0 24 25 24 24 17 18 24 30 25 14
3490.0 8 14 19 24 24 20 14 14 25 12
3530.0 26 16 21 20 26 14 19 11 22 21
3570.0 10 16 16 0 20 16 16 15 6 10
3610.0 21 27 16 11 15 11 22 18 19 11
3650.0 15 12 19 31 29 24 20 13 26 30
3690.0 30 14 14 19 32 26 29 19 25 15
3730.0 16 13 18 11 21 30 30 30 29 17
3770.0 30 31 25 29 29 30 30 28 33 39
3810.0 34 40 38 39 39 38 41 45 48 51
3850.0 44 35 37 43 42 37 37 31 31 36
3890.0 40 41 39 44 47 43 43 37 41 36
3930.0 48 41 42 48 38 36 33 29 29 29
##END=
