##TITLE=Methyl Isobutyl Ketone
##JCAMP-DX=4.24
##DATA TYPE=INFRARED SPECTRUM
##ORIGIN=Sadtler Research Labs Under US-EPA Contract
##OWNER=NIST Standard Reference Data Program
##CAS REGISTRY NO=108-10-1
##MOLFORM=C 6 H 12 O
##XUNITS=1/CM
##YUNITS=ABSORBANCE
##XFACTOR=1.0
##YFACTOR=0.000051224
##DELTAX=4.0
##FIRSTX=450.0
##LASTX=3966.0
##FIRSTY=0.008862
##MAXX=3966
##MINX=450
##MAXY=0.51224
##MINY=0
##NPOINTS=880
##XYDATA=(X++(Y..Y))
450.0 173 120 156 147 180 183 175 167 186 74
490.0 163 116 194 143 223 324 378 634 509 584
530.0 512 626 378 282 284 303 271 113 242 304
570.0 244 360 494 796 891 1004 976 796 746 432
610.0 288 231 229 239 108 154 227 274 44 124
650.0 164 197 185 116 133 5 179 112 84 128
690.0 126 90 117 112 153 134 141 166 109 115
730.0 120 99 111 147 136 155 153 134 169 162
770.0 162 146 176 140 143 255 191 173 195 174
810.0 191 192 209 230 243 235 231 258 236 247
850.0 225 222 178 211 217 191 189 193 183 189
890.0 194 192 200 204 225 248 287 348 417 488
930.0 589 694 795 832 856 822 780 709 638 584
970.0 570 542 544 500 451 423 397 391 379 361
1010.0 345 321 297 276 274 242 242 231 200 209
1050.0 219 224 230 218 243 248 255 266 298 345
1090.0 395 450 538 614 705 810 911 978 1017 1045
1130.0 1073 1074 1124 1223 1428 1740 2181 2777 3339 3724
1170.0 3899 3905 3746 3243 2685 2301 2017 1745 1497 1269
1210.0 1097 953 852 862 940 1052 1130 1150 1108 1026
1250.0 902 732 650 672 776 925 1101 1250 1373 1430
1290.0 1409 1316 1201 1094 954 853 827 842 926 1061
1330.0 1242 1485 1816 2223 2777 3517 4391 5168 5725 5887
1370.0 5549 4832 3897 2959 2288 1923 1666 1508 1408 1375
1410.0 1359 1394 1429 1446 1451 1422 1413 1363 1356 1362
1450.0 1426 1505 1605 1663 1731 1787 1671 1488 1287 1095
1490.0 878 689 555 474 415 386 363 360 347 330
1530.0 338 322 330 318 323 327 308 315 305 288
1570.0 278 256 257 245 243 229 225 222 228 225
1610.0 215 221 229 235 225 245 238 257 255 266
1650.0 271 290 283 312 360 409 494 586 713 839
1690.0 1014 1247 1561 2013 2684 3685 4939 6436 7916 9167
1730.0 9860 9831 9108 7803 6036 4421 3070 2144 1496 1166
1770.0 957 828 717 618 537 461 421 376 339 299
1810.0 265 230 206 193 163 156 132 130 122 122
1850.0 112 108 105 100 104 100 102 93 101 101
1890.0 97 94 105 101 94 92 85 97 95 89
1930.0 75 90 85 80 90 95 94 86 78 78
1970.0 78 61 68 58 46 54 50 48 45 38
2010.0 27 38 42 44 63 65 72 68 57 64
2050.0 70 82 90 108 113 118 112 101 87 84
2090.0 86 81 85 70 69 53 68 67 67 67
2130.0 81 80 73 79 81 81 75 68 71 76
2170.0 73 79 81 78 83 80 82 72 73 73
2210.0 82 66 61 64 61 56 54 57 53 40
2250.0 46 44 51 51 47 44 51 58 64 73
2290.0 85 102 124 127 143 145 140 152 124 121
2330.0 75 76 66 32 46 99 90 101 43 0
2370.0 1 1 0 27 32 41 45 39 40 43
2410.0 37 43 39 17 33 43 25 20 21 32
2450.0 27 30 19 19 24 26 16 27 14 24
2490.0 25 24 23 36 16 18 30 28 44 40
2530.0 29 30 30 29 30 27 22 4 17 28
2570.0 23 33 36 24 23 27 16 12 7 3
2610.0 15 1 18 25 19 28 48 65 61 70
2650.0 92 99 103 98 113 127 132 135 139 119
2690.0 115 93 68 70 71 56 70 78 119 114
2730.0 134 130 163 162 136 138 116 138 130 109
2770.0 123 131 122 131 167 167 170 190 217 263
2810.0 284 314 329 366 403 425 472 518 561 607
2850.0 681 732 876 1102 1459 2006 2667 3202 3628 3871
2890.0 3977 3910 3778 3725 3630 3530 3563 3602 3670 3880
2930.0 4204 4551 4866 5218 5613 6191 6980 8243 9509 10000
2970.0 9745 9137 7911 6109 4302 3022 2128 1525 1166 1063
3010.0 954 906 830 733 617 488 438 401 350 337
3050.0 335 317 321 314 301 302 287 289 253 271
3090.0 251 235 214 197 175 168 143 131 118 133
3130.0 142 126 108 108 104 117 133 100 137 123
3170.0 121 116 119 124 123 131 130 126 119 127
3210.0 126 105 102 98 65 71 45 34 66 41
3250.0 46 49 41 53 48 62 83 76 82 82
3290.0 104 93 98 82 96 54 37 47 24 28
3330.0 50 24 67 39 59 64 19 67 61 51
3370.0 27 45 42 51 36 32 36 70 22 34
3410.0 48 112 78 91 117 104 160 168 167 167
3450.0 188 171 154 141 93 67 71 49 22 36
3490.0 40 53 24 40 13 22 45 36 1 56
3530.0 50 30 43 65 66 25 32 39 44 67
3570.0 80 79 76 67 87 53 59 79 59 30
3610.0 78 70 60 42 56 84 46 51 79 81
3650.0 91 66 50 55 96 92 100 92 118 68
3690.0 95 33 99 78 93 74 124 121 110 66
3730.0 126 43 24 67 98 122 87 115 80 103
3770.0 121 161 75 102 153 79 83 116 51 103
3810.0 135 121 117 73 132 98 153 155 118 132
3850.0 120 91 92 171 149 189 200 70 114 130
3890.0 57 118 135 97 97 119 106 89 92 141
3930.0 89 166 114 167 145 223 164 74 140 43
##END=
