##TITLE=Cyclohexanone
##JCAMP-DX=4.24
##DATA TYPE=INFRARED SPECTRUM
##ORIGIN=Sadtler Research Labs Under US-EPA Contract
##OWNER=NIST Standard Reference Data Program
##CAS REGISTRY NO=108-94-1
##MOLFORM=C 6 H 10 O
##XUNITS=1/CM
##YUNITS=ABSORBANCE
##XFACTOR=1.0
##YFACTOR=0.000071396
##DELTAX=4.0
##FIRSTX=450.0
##LASTX=3966.0
##FIRSTY=0.000000
##MAXX=3966
##MINX=450
##MAXY=0.71396
##MINY=0
##NPOINTS=880
##XYDATA=(X++(Y..Y))
450.0 0 209 274 382 357 509 575 676 647 755
490.0 702 660 606 569 576 403 438 376 426 256
530.0 294 332 203 283 358 323 320 393 278 284
570.0 274 280 238 363 375 259 420 297 335 293
610.0 342 321 300 285 291 351 312 362 363 391
650.0 288 289 267 301 310 389 232 267 269 212
690.0 277 247 276 238 269 303 283 295 274 417
730.0 440 521 561 573 629 594 569 544 507 422
770.0 389 304 295 250 246 358 270 281 243 272
810.0 274 264 273 272 289 265 298 261 283 314
850.0 343 398 379 426 427 427 419 428 384 466
890.0 509 572 618 698 631 550 573 503 420 355
930.0 324 292 281 295 284 285 282 303 301 298
970.0 304 325 331 334 372 396 380 382 404 422
1010.0 443 452 497 438 477 488 446 475 520 586
1050.0 610 646 679 684 664 598 541 493 479 446
1090.0 456 500 584 733 914 1114 1227 1161 1247 1323
1130.0 1115 944 737 584 502 454 425 399 403 380
1170.0 382 370 385 391 427 490 586 721 893 1083
1210.0 1270 1498 1472 1512 1570 1386 1182 957 761 609
1250.0 488 420 393 354 322 330 327 340 341 386
1290.0 449 538 685 844 1001 1088 1123 1221 1234 1165
1330.0 1115 1040 984 962 945 871 763 641 497 393
1370.0 341 321 312 320 332 350 378 388 425 478
1410.0 580 686 873 996 1064 1083 1396 1460 1345 1332
1450.0 1378 1443 1347 1099 1106 904 743 567 485 409
1490.0 351 336 309 294 279 292 255 267 270 268
1530.0 268 248 274 247 262 252 264 246 279 250
1570.0 253 250 283 261 265 277 263 266 270 280
1610.0 282 304 314 325 328 350 367 370 371 384
1650.0 347 377 365 351 362 381 396 468 506 612
1690.0 674 777 908 1137 1478 2123 3207 4826 6714 8323
1730.0 9341 10000 9815 9085 7646 5473 3421 2174 1566 1287
1770.0 1057 924 768 630 582 565 567 559 554 565
1810.0 561 535 511 462 409 367 333 317 295 282
1850.0 282 280 292 284 294 279 295 279 283 271
1890.0 270 267 258 258 255 261 259 267 258 262
1930.0 264 270 268 263 275 278 281 276 289 276
1970.0 272 281 261 262 251 261 245 253 251 250
2010.0 248 248 250 233 229 225 240 224 225 228
2050.0 225 232 236 242 221 217 205 217 218 233
2090.0 249 255 262 261 257 257 267 259 260 264
2130.0 262 256 259 266 255 262 257 257 258 264
2170.0 269 260 269 265 268 256 260 265 265 265
2210.0 262 262 261 264 258 265 263 267 255 256
2250.0 250 247 252 247 251 252 262 248 246 236
2290.0 241 243 233 240 227 225 226 227 216 243
2330.0 261 250 249 253 249 213 235 232 249 248
2370.0 249 253 237 234 234 248 243 244 241 240
2410.0 252 247 238 234 249 242 241 227 223 234
2450.0 218 236 223 233 215 231 228 224 219 219
2490.0 222 221 224 219 224 222 224 222 225 227
2530.0 230 237 234 224 220 228 219 216 231 221
2570.0 216 208 214 202 219 218 226 229 238 252
2610.0 258 256 261 269 272 276 274 263 263 283
2650.0 305 318 351 343 333 340 335 321 292 286
2690.0 267 259 243 246 235 228 233 236 243 226
2730.0 238 224 240 236 227 231 243 250 242 257
2770.0 245 271 265 285 290 296 292 309 313 313
2810.0 330 339 376 392 442 493 528 626 715 807
2850.0 964 1329 1655 1957 2499 2683 2797 2825 2519 2401
2890.0 2224 2003 1877 1920 1862 1806 2040 2409 2978 3653
2930.0 4686 5777 6993 8784 9248 7427 7438 7036 5929 5026
2970.0 3849 2979 2632 2255 1780 1311 926 667 505 406
3010.0 361 342 314 313 300 311 281 283 282 275
3050.0 282 274 268 269 261 257 265 250 245 245
3090.0 241 246 236 241 227 235 246 247 246 249
3130.0 237 242 255 242 236 219 228 233 227 218
3170.0 239 242 221 241 239 227 239 223 208 229
3210.0 250 243 255 258 259 241 241 249 245 279
3250.0 264 281 248 261 241 235 260 223 237 201
3290.0 226 232 227 212 230 226 206 226 234 237
3330.0 229 228 237 222 229 251 250 234 250 241
3370.0 248 244 256 246 241 249 266 266 252 272
3410.0 246 255 269 286 308 286 330 366 385 376
3450.0 416 425 384 381 325 323 303 280 245 276
3490.0 269 274 230 265 277 247 269 257 287 267
3530.0 260 259 280 279 328 292 284 283 290 294
3570.0 300 316 284 279 278 273 281 285 303 282
3610.0 310 279 274 311 279 314 290 289 282 272
3650.0 290 271 284 284 274 272 300 308 269 288
3690.0 299 297 266 285 287 330 272 276 257 292
3730.0 283 313 270 297 344 334 338 317 343 266
3770.0 315 340 275 272 263 327 306 269 291 328
3810.0 299 319 299 275 327 295 273 329 276 304
3850.0 297 324 321 292 317 335 298 328 313 346
3890.0 304 318 353 340 327 344 301 321 308 304
3930.0 348 295 362 389 340 348 354 342 355 344
##END=
