##TITLE=2-Pentanamine, 4-methyl-
##JCAMP-DX=4.24
##DATA TYPE=INFRARED SPECTRUM
##ORIGIN=Sadtler Research Labs Under US-EPA Contract
##OWNER=NIST Standard Reference Data Program
##CAS REGISTRY NO=108-09-8
##MOLFORM=C 6 H 15 N
##XUNITS=1/CM
##YUNITS=ABSORBANCE
##XFACTOR=1.0
##YFACTOR=0.000089307
##DELTAX=4.0
##FIRSTX=450.0
##LASTX=3966.0
##FIRSTY=0.016700
##MAXX=3966
##MINX=450
##MAXY=0.89307
##MINY=0
##NPOINTS=880
##XYDATA=(X++(Y..Y))
450.0 187 232 249 240 169 127 177 233 256 308
490.0 300 240 190 182 118 74 107 141 158 119
530.0 93 123 105 16 15 66 39 87 154 188
570.0 104 97 138 90 46 144 178 151 188 167
610.0 100 69 148 146 124 172 188 210 187 195
650.0 197 176 158 210 277 260 271 294 280 219
690.0 235 296 303 329 382 409 377 421 486 491
730.0 530 610 718 786 876 1021 1155 1273 1473 1755
770.0 2086 2384 2720 2922 2905 2700 2553 2142 1710 1381
810.0 1186 984 842 803 751 709 689 695 671 640
850.0 563 497 385 332 336 312 276 266 280 279
890.0 229 198 189 184 150 210 213 221 256 276
930.0 241 197 180 156 148 127 157 148 166 197
970.0 192 177 173 188 188 137 124 146 138 122
1010.0 107 148 161 168 216 227 222 236 264 241
1050.0 230 254 266 272 293 313 311 280 271 270
1090.0 252 241 236 236 224 214 254 298 333 376
1130.0 449 490 522 569 626 654 735 804 850 833
1170.0 749 641 466 339 264 214 176 167 196 199
1210.0 187 193 192 173 154 158 166 155 167 180
1250.0 171 152 165 154 138 143 165 155 151 154
1290.0 153 129 131 145 155 186 230 277 322 353
1330.0 401 438 488 553 618 711 834 977 1194 1355
1370.0 1489 1644 1699 1622 1484 1300 1036 786 557 411
1410.0 294 243 272 256 271 307 351 459 500 627
1450.0 778 940 1133 1177 1226 1212 1161 995 838 669
1490.0 564 424 345 258 303 247 197 211 228 181
1530.0 156 189 185 196 153 151 161 230 178 177
1570.0 215 198 219 216 239 280 338 408 486 609
1610.0 738 819 905 933 904 809 741 603 450 391
1650.0 299 304 171 163 142 166 146 121 137 129
1690.0 90 98 122 127 97 76 101 108 56 53
1730.0 51 93 60 68 56 84 56 55 50 43
1770.0 66 61 48 59 63 49 60 45 51 34
1810.0 41 45 41 37 56 62 29 32 49 49
1850.0 36 41 45 34 35 51 28 17 26 32
1890.0 33 23 29 24 13 17 17 36 24 28
1930.0 33 24 17 31 24 12 19 30 23 24
1970.0 31 18 11 8 19 21 18 24 30 22
2010.0 19 12 15 14 14 19 23 19 18 23
2050.0 14 7 9 19 15 17 26 20 13 14
2090.0 20 13 13 22 24 21 19 20 16 13
2130.0 13 18 24 26 31 21 17 17 23 23
2170.0 20 29 34 29 29 29 27 15 23 30
2210.0 19 23 31 26 15 14 13 14 14 19
2250.0 30 23 20 24 22 13 16 26 24 26
2290.0 37 41 35 30 47 53 45 67 81 76
2330.0 71 74 76 55 40 97 122 85 89 112
2370.0 66 36 40 43 41 34 45 41 34 34
2410.0 46 29 34 40 40 39 39 45 37 35
2450.0 33 34 34 34 45 44 40 39 43 34
2490.0 30 38 51 45 38 49 49 38 39 40
2530.0 35 43 56 57 51 49 54 56 55 59
2570.0 71 82 84 90 93 91 90 105 105 104
2610.0 109 127 116 105 115 120 109 115 132 132
2650.0 129 136 142 128 127 131 132 126 133 137
2690.0 133 129 128 139 143 148 178 197 207 226
2730.0 249 242 231 237 237 210 215 218 211 199
2770.0 212 218 214 224 254 271 282 302 330 347
2810.0 377 420 490 551 632 742 876 986 1113 1252
2850.0 1331 1402 1530 1716 1983 2390 2803 3100 3289 3434
2890.0 3524 3579 3733 4056 4394 4642 4811 4951 4883 4708
2930.0 4598 4572 4535 4530 4889 5558 6498 8005 10000 9984
2970.0 9296 8762 6637 4333 2745 1784 1193 791 568 443
3010.0 365 312 274 247 215 188 183 176 164 154
3050.0 166 149 132 127 148 142 140 161 155 136
3090.0 139 130 116 104 119 120 109 116 121 114
3130.0 97 111 114 110 118 129 134 120 119 131
3170.0 124 114 136 153 142 138 148 135 110 108
3210.0 117 97 86 97 90 70 51 53 49 38
3250.0 44 55 61 55 61 62 50 29 45 45
3290.0 37 49 74 53 47 59 78 83 99 140
3330.0 139 139 142 124 87 73 76 74 62 64
3370.0 79 68 50 61 53 49 51 63 67 47
3410.0 58 60 42 22 39 50 37 44 56 52
3450.0 33 36 34 22 14 38 43 37 31 38
3490.0 26 9 21 35 32 27 43 44 26 30
3530.0 35 19 9 36 59 30 41 42 34 41
3570.0 43 33 34 38 56 72 47 30 35 47
3610.0 37 55 76 64 61 78 58 37 39 71
3650.0 86 62 67 69 51 61 70 61 48 55
3690.0 74 65 56 61 62 61 50 64 80 74
3730.0 81 120 102 90 88 107 79 73 84 84
3770.0 82 65 69 55 49 62 69 74 95 94
3810.0 90 78 72 88 89 80 96 122 102 86
3850.0 103 92 65 77 93 100 100 101 108 88
3890.0 65 69 82 94 107 109 101 88 76 70
3930.0 48 44 59 83 90 111 0 8 8 8
##END=
