##TITLE=Cyclohexane, methyl-
##JCAMP-DX=4.24
##DATA TYPE=INFRARED SPECTRUM
##ORIGIN=Sadtler Research Labs Under US-EPA Contract
##OWNER=NIST Standard Reference Data Program
##CAS REGISTRY NO=108-87-2
##MOLFORM=C 7 H 14
##XUNITS=1/CM
##YUNITS=ABSORBANCE
##XFACTOR=1.0
##YFACTOR=0.000081668
##DELTAX=4.0
##FIRSTX=450.0
##LASTX=3966.0
##FIRSTY=0.002205
##MAXX=3966
##MINX=450
##MAXY=0.81668
##MINY=0
##NPOINTS=880
##XYDATA=(X++(Y..Y))
450.0 27 35 27 27 18 16 16 20 17 16
490.0 24 18 26 22 34 27 36 23 36 28
530.0 27 31 33 29 41 38 29 31 29 21
570.0 13 16 28 22 22 31 44 54 1 23
610.0 26 40 26 25 28 19 20 28 23 28
650.0 34 23 23 18 13 36 35 19 23 34
690.0 25 34 26 26 21 24 22 35 28 29
730.0 35 34 28 28 28 27 27 24 24 35
770.0 28 21 28 22 26 22 19 5 38 34
810.0 34 34 34 34 44 58 63 82 90 79
850.0 80 79 61 69 68 60 54 68 69 62
890.0 56 51 62 63 69 62 66 62 56 45
930.0 37 32 31 38 50 64 87 108 138 153
970.0 143 130 118 94 68 43 36 31 31 31
1010.0 29 29 29 29 29 34 31 29 28 28
1050.0 28 29 37 35 35 45 50 52 58 70
1090.0 76 70 71 64 52 40 34 32 33 28
1130.0 27 23 23 25 26 26 26 27 27 26
1170.0 26 26 26 26 26 26 26 26 26 25
1210.0 26 26 26 26 26 27 41 53 65 78
1250.0 95 111 116 116 122 103 99 90 72 53
1290.0 43 43 42 39 42 44 43 37 38 36
1330.0 49 57 61 70 79 80 101 99 110 132
1370.0 163 182 185 234 181 186 150 101 69 52
1410.0 50 46 50 65 91 145 251 408 550 649
1450.0 771 1005 909 942 720 581 447 332 240 154
1490.0 100 67 40 39 29 33 26 24 25 22
1530.0 23 21 23 25 23 15 21 24 21 21
1570.0 21 20 20 20 19 20 19 18 18 26
1610.0 20 18 20 18 19 19 19 20 19 25
1650.0 20 21 21 16 22 22 18 24 21 21
1690.0 19 17 21 20 18 16 18 20 17 16
1730.0 17 19 19 17 18 18 17 16 23 22
1770.0 17 24 19 16 16 16 17 16 16 15
1810.0 15 15 15 15 15 15 15 14 14 16
1850.0 15 13 13 13 14 15 13 13 13 13
1890.0 14 14 13 18 12 12 12 13 13 13
1930.0 12 13 13 13 12 12 12 12 11 7
1970.0 11 12 11 11 11 11 11 11 11 11
2010.0 15 11 11 11 10 10 11 11 12 14
2050.0 10 10 9 11 10 9 9 8 15 10
2090.0 9 9 9 9 9 9 9 9 9 9
2130.0 8 9 9 9 9 9 9 7 8 11
2170.0 13 14 19 20 19 13 13 13 13 13
2210.0 13 13 13 17 18 18 13 19 19 12
2250.0 17 12 12 12 12 12 12 12 12 17
2290.0 10 11 17 17 15 16 18 15 15 19
2330.0 14 22 21 13 14 15 14 13 7 6
2370.0 5 3 2 9 8 11 15 15 16 15
2410.0 20 14 20 17 14 14 15 8 13 8
2450.0 3 1 8 7 7 7 8 8 8 8
2490.0 1 2 7 1 1 2 1 7 1 6
2530.0 7 8 10 6 13 13 12 13 20 19
2570.0 20 25 25 32 28 34 44 50 57 56
2610.0 56 50 56 44 45 44 44 51 59 65
2650.0 78 91 103 117 124 124 124 111 92 85
2690.0 68 67 63 63 56 56 56 51 57 50
2730.0 51 51 51 51 44 44 45 41 49 51
2770.0 63 68 80 100 112 124 137 151 162 161
2810.0 165 168 177 189 222 293 427 667 1040 1511
2850.0 2008 2558 2883 3139 3319 3061 2795 2407 2171 1957
2890.0 1914 1984 2148 2610 3248 3853 4699 5896 6825 7910
2930.0 10000 9625 8177 7691 7247 5814 4722 4438 2772 2226
2970.0 2000 1520 990 586 337 195 128 82 70 64
3010.0 58 53 48 46 46 43 47 47 47 47
3050.0 52 46 53 59 52 66 65 64 64 65
3090.0 64 60 59 59 53 54 53 53 48 49
3130.0 51 54 53 60 63 60 64 64 58 59
3170.0 58 47 41 40 28 29 23 20 23 16
3210.0 11 16 16 17 17 17 22 27 26 21
3250.0 29 28 31 36 36 42 28 37 23 28
3290.0 24 21 17 14 18 18 18 18 18 23
3330.0 23 29 23 24 25 26 32 22 26 29
3370.0 16 23 12 17 11 12 11 13 17 17
3410.0 15 6 5 11 13 11 11 11 11 12
3450.0 6 22 23 18 12 23 17 22 23 18
3490.0 18 18 12 17 12 4 12 8 8 11
3530.0 11 14 17 13 0 6 6 10 14 11
3570.0 10 20 17 16 18 18 13 5 6 17
3610.0 17 17 12 18 16 8 7 14 19 24
3650.0 22 12 13 12 15 18 27 32 17 14
3690.0 23 19 25 25 31 37 35 26 31 29
3730.0 25 27 29 26 32 32 38 24 32 26
3770.0 37 33 33 22 23 26 26 26 28 27
3810.0 25 26 23 32 26 39 38 40 34 25
3850.0 29 36 34 26 31 32 24 33 24 24
3890.0 32 31 26 27 31 27 34 33 32 26
3930.0 21 26 33 34 36 41 45 46 39 40
##END=
