##TITLE=Butanoic acid, 3-methyl-, ethyl ester
##JCAMP-DX=4.24
##DATA TYPE=INFRARED SPECTRUM
##ORIGIN=Sadtler Research Labs Under US-EPA Contract
##OWNER=NIST Standard Reference Data Program
##CAS REGISTRY NO=108-64-5
##MOLFORM=C 7 H 14 O 2
##XUNITS=1/CM
##YUNITS=ABSORBANCE
##XFACTOR=1.0
##YFACTOR=0.000087598
##DELTAX=4.0
##FIRSTX=450.0
##LASTX=3966.0
##FIRSTY=0.008585
##MAXX=3966
##MINX=450
##MAXY=0.87598
##MINY=0
##NPOINTS=880
##XYDATA=(X++(Y..Y))
450.0 98 138 151 128 75 48 50 25 56 30
490.0 30 3 9 41 53 52 38 0 133 81
530.0 89 76 52 50 85 61 40 27 123 170
570.0 127 142 160 149 190 172 230 240 232 195
610.0 240 231 237 232 278 251 252 244 221 211
650.0 171 182 144 163 140 152 148 164 197 184
690.0 224 217 236 230 283 252 258 310 276 306
730.0 295 283 259 262 260 274 230 227 278 275
770.0 265 299 293 275 320 326 338 338 381 350
810.0 356 334 374 339 339 390 360 352 393 370
850.0 380 372 399 406 359 308 310 300 295 289
890.0 284 341 386 350 418 416 478 465 518 545
930.0 491 471 391 360 336 344 380 402 419 439
970.0 419 394 357 327 334 272 307 330 371 421
1010.0 508 637 833 1162 1606 2152 2639 2862 2773 2364
1050.0 1760 1289 1032 979 994 1080 1246 1478 1771 2121
1090.0 2530 2966 3283 3535 3720 3832 3933 3860 3611 3236
1130.0 2731 2311 2150 2221 2451 2726 3138 3707 4390 5052
1170.0 5599 6217 6943 7528 7978 7835 7136 5972 4858 4097
1210.0 3568 3112 2670 2329 2190 2211 2374 2650 2975 3311
1250.0 3516 3490 3276 2877 2415 2055 1888 1937 2222 2759
1290.0 3315 3655 3650 3363 2753 2102 1693 1398 1228 1117
1330.0 1099 1150 1245 1368 1543 1664 1709 1707 1807 2097
1370.0 2410 2587 2599 2318 1768 1391 1203 1055 923 811
1410.0 714 667 678 720 788 846 899 917 920 956
1450.0 1025 1136 1284 1385 1494 1535 1487 1308 1080 853
1490.0 668 513 428 346 325 269 230 220 226 207
1530.0 191 189 190 221 187 176 181 200 193 174
1570.0 177 166 177 167 167 160 167 166 165 170
1610.0 174 164 187 170 171 169 170 191 168 190
1650.0 183 242 188 200 204 228 235 246 264 310
1690.0 313 345 427 502 538 640 740 912 1092 1431
1730.0 1992 2925 4268 5968 7769 9339 10000 9526 8150 6118
1770.0 4113 2589 1589 1037 739 568 467 377 329 276
1810.0 245 239 215 198 196 186 174 166 152 148
1850.0 135 134 135 129 127 133 127 126 131 122
1890.0 139 124 120 125 113 117 106 112 110 106
1930.0 111 115 114 117 123 113 109 113 106 100
1970.0 94 100 89 93 97 93 93 85 94 101
2010.0 90 89 90 90 89 95 99 100 101 95
2050.0 102 93 94 91 85 84 78 79 83 78
2090.0 71 77 69 73 74 62 65 59 62 51
2130.0 57 56 56 54 54 52 48 45 42 43
2170.0 49 40 40 34 45 45 39 43 44 38
2210.0 45 41 41 42 39 41 39 40 34 33
2250.0 33 33 39 40 43 42 42 43 35 34
2290.0 40 40 34 32 28 24 9 6 4 4
2330.0 4 4 4 4 4 4 4 4 4 4
2370.0 6 3 18 30 27 26 33 32 26 38
2410.0 32 39 43 32 32 37 30 32 24 21
2450.0 28 28 33 34 26 35 27 29 31 28
2490.0 27 30 22 27 23 28 28 12 23 29
2530.0 22 18 25 26 23 27 30 22 23 24
2570.0 29 29 29 31 34 32 29 33 27 34
2610.0 28 29 35 46 46 42 46 47 47 44
2650.0 43 57 59 53 48 47 47 47 47 47
2690.0 42 42 46 50 51 53 64 64 80 92
2730.0 105 116 127 128 118 103 117 108 109 115
2770.0 109 123 111 122 128 117 124 125 128 148
2810.0 149 172 196 215 228 241 258 275 289 318
2850.0 351 390 424 507 643 882 1225 1601 1868 1981
2890.0 1963 1823 1719 1684 1739 1843 1921 2022 2121 2261
2930.0 2472 2797 3154 3433 3633 3785 4015 4449 5209 6124
2970.0 6578 6709 6445 5714 4894 4108 3324 2542 1947 1528
3010.0 1199 939 732 569 448 366 307 269 223 202
3050.0 190 177 154 143 130 137 134 123 121 117
3090.0 121 108 117 102 100 103 93 96 93 85
3130.0 82 92 92 94 86 76 93 99 81 99
3170.0 94 100 89 101 104 99 94 90 84 89
3210.0 84 60 59 54 59 44 39 37 30 33
3250.0 33 17 41 38 26 20 20 32 17 34
3290.0 29 35 41 33 28 25 28 33 38 39
3330.0 27 32 29 22 36 30 34 31 33 38
3370.0 26 40 34 34 36 37 29 27 33 26
3410.0 20 24 27 33 29 21 41 23 35 29
3450.0 29 25 21 52 51 58 74 90 101 109
3490.0 104 113 103 79 60 42 31 14 20 27
3530.0 16 14 19 25 19 26 25 29 19 18
3570.0 31 17 23 14 11 20 25 19 20 15
3610.0 25 19 12 19 23 38 21 3 19 26
3650.0 42 25 21 20 27 37 32 39 21 16
3690.0 27 27 27 10 9 27 32 21 22 24
3730.0 30 35 38 33 53 49 52 38 33 33
3770.0 40 21 26 36 24 27 36 47 55 43
3810.0 45 39 57 38 34 40 46 49 45 42
3850.0 42 58 32 27 34 46 34 41 40 39
3890.0 36 25 26 31 31 35 22 20 12 12
3930.0 31 46 41 25 30 26 3 4 4 4
##END=
