##TITLE=4-Heptanone, 2,6-dimethyl-
##JCAMP-DX=4.24
##DATA TYPE=INFRARED SPECTRUM
##ORIGIN=Sadtler Research Labs Under US-EPA Contract
##OWNER=NIST Standard Reference Data Program
##CAS REGISTRY NO=108-83-8
##MOLFORM=C 9 H 18 O
##XUNITS=1/CM
##YUNITS=ABSORBANCE
##XFACTOR=1.0
##YFACTOR=0.000073456
##DELTAX=4.0
##FIRSTX=450.0
##LASTX=3966.0
##FIRSTY=0.027619
##MAXX=3966
##MINX=450
##MAXY=0.73456
##MINY=0
##NPOINTS=880
##XYDATA=(X++(Y..Y))
450.0 376 270 22 284 82 227 68 270 18 188
490.0 104 184 139 156 269 187 195 175 214 234
530.0 277 311 229 283 229 203 124 226 156 201
570.0 113 179 136 145 144 98 177 112 187 119
610.0 172 255 179 157 157 264 218 213 135 153
650.0 217 199 185 169 187 52 230 202 247 151
690.0 148 148 124 129 65 105 60 75 65 106
730.0 59 33 44 70 65 66 94 58 73 71
770.0 78 74 90 63 111 131 104 105 72 106
810.0 110 96 107 94 106 113 129 127 112 94
850.0 120 111 100 109 115 113 95 124 99 142
890.0 157 172 164 164 180 166 205 242 312 328
930.0 357 361 359 377 385 367 320 278 233 220
970.0 191 176 161 148 151 131 145 132 152 162
1010.0 185 214 254 336 468 706 980 1234 1321 1216
1050.0 980 764 611 514 455 391 350 307 311 301
1090.0 300 302 296 320 337 366 382 440 485 554
1130.0 616 706 830 957 1096 1200 1299 1381 1540 1650
1170.0 1624 1441 1164 873 680 558 457 414 362 369
1210.0 375 410 455 481 491 466 442 387 371 351
1250.0 325 306 292 302 304 335 383 479 604 778
1290.0 937 1032 1014 913 785 668 610 567 574 616
1330.0 715 846 983 1110 1248 1490 1836 2255 2601 2764
1370.0 2640 2276 1867 1546 1341 1183 1059 920 803 748
1410.0 735 737 729 685 650 622 607 597 602 639
1450.0 723 851 1024 1167 1302 1380 1349 1163 907 659
1490.0 469 332 260 214 187 168 143 134 126 113
1530.0 100 98 102 97 98 97 101 101 95 83
1570.0 94 82 91 80 85 81 76 82 85 87
1610.0 92 98 106 101 108 110 118 113 124 125
1650.0 136 148 142 152 172 195 219 258 302 358
1690.0 423 517 680 933 1328 1920 2704 3577 4299 4613
1730.0 4392 3636 2666 1830 1173 806 573 483 420 384
1770.0 355 332 311 280 259 230 213 186 166 140
1810.0 133 114 95 92 73 70 66 63 58 56
1850.0 53 44 49 48 51 34 42 33 34 29
1890.0 29 28 31 31 25 32 27 25 14 20
1930.0 22 26 31 25 39 29 30 25 24 18
1970.0 15 23 17 18 19 30 27 27 26 28
2010.0 21 24 29 19 28 27 29 31 38 30
2050.0 33 33 23 16 4 15 20 23 32 39
2090.0 37 34 28 13 15 15 14 8 9 17
2130.0 12 14 12 15 8 14 17 13 17 18
2170.0 28 24 31 27 22 21 21 13 11 17
2210.0 19 21 19 25 16 20 13 14 12 9
2250.0 17 12 17 16 18 10 15 15 25 33
2290.0 36 50 51 73 74 100 96 93 91 79
2330.0 78 47 57 26 24 66 123 105 44 4
2370.0 4 4 4 4 11 20 24 24 29 26
2410.0 31 21 25 17 19 16 24 16 23 26
2450.0 21 30 25 24 23 26 30 27 31 30
2490.0 26 30 36 38 39 36 27 31 33 32
2530.0 31 37 35 43 32 38 37 43 38 35
2570.0 40 34 38 45 42 44 50 52 45 57
2610.0 54 53 53 59 68 67 63 68 62 50
2650.0 55 52 64 73 90 81 77 66 61 70
2690.0 78 79 83 97 105 105 112 126 136 157
2730.0 183 193 197 188 175 160 153 155 157 165
2770.0 176 182 177 177 178 185 201 223 260 265
2810.0 292 313 336 359 369 408 431 478 541 603
2850.0 673 748 843 989 1228 1686 2402 3137 3586 3755
2890.0 3572 3268 3144 3092 3140 3166 3137 3136 3161 3292
2930.0 3521 3871 4218 4522 4747 5035 5733 6969 8870 10000
2970.0 9621 8109 5885 4048 2907 2048 1411 970 722 577
3010.0 473 403 323 302 250 237 220 210 207 196
3050.0 182 174 174 178 171 176 165 188 174 163
3090.0 161 178 177 160 165 141 143 144 161 156
3130.0 150 156 163 162 149 138 148 144 127 162
3170.0 147 146 164 178 153 176 177 159 152 144
3210.0 153 98 144 115 84 83 75 95 84 88
3250.0 71 87 91 87 86 80 96 89 95 86
3290.0 96 98 67 96 94 87 87 111 114 111
3330.0 84 88 83 120 105 75 87 100 109 95
3370.0 96 108 107 90 102 100 98 108 98 92
3410.0 102 125 132 157 140 118 140 126 142 135
3450.0 138 86 88 71 48 63 62 46 46 73
3490.0 27 69 43 58 70 60 55 58 27 30
3530.0 83 55 47 72 74 63 83 92 73 81
3570.0 88 98 87 103 89 84 63 46 51 48
3610.0 72 59 68 65 22 43 47 56 14 35
3650.0 37 45 41 18 21 33 30 28 27 38
3690.0 25 20 8 12 41 19 46 35 61 46
3730.0 67 67 46 66 61 46 35 50 27 65
3770.0 49 16 38 45 0 89 83 83 108 39
3810.0 29 61 88 59 75 73 114 68 45 104
3850.0 92 70 55 41 59 83 61 98 63 101
3890.0 88 74 79 13 39 42 60 97 77 93
3930.0 75 36 67 12 108 94 58 78 99 54
##END=
