##TITLE=1,3-Benzenediamine
##JCAMP-DX=4.24
##DATA TYPE=INFRARED SPECTRUM
##ORIGIN=Sadtler Research Labs Under US-EPA Contract
##OWNER=NIST Standard Reference Data Program
##CAS REGISTRY NO=108-45-2
##MOLFORM=C 6 H 8 N 2
##XUNITS=1/CM
##YUNITS=ABSORBANCE
##XFACTOR=1.0
##YFACTOR=0.000064560
##DELTAX=4.0
##FIRSTX=450.0
##LASTX=3966.0
##FIRSTY=0.136092
##MAXX=3966
##MINX=450
##MAXY=0.6456
##MINY=0
##NPOINTS=880
##XYDATA=(X++(Y..Y))
450.0 2108 856 1185 486 1313 508 1058 744 1146 879
490.0 859 1026 780 981 816 1079 754 914 788 823
530.0 852 805 967 751 973 866 1001 833 987 948
570.0 871 949 860 987 804 950 837 894 853 926
610.0 946 876 1035 991 1152 1172 1484 1636 2035 2481
650.0 3009 3581 4016 4484 4576 4645 4529 4760 4220 3112
690.0 2723 2370 2016 1695 1427 1309 1209 1177 1160 1183
730.0 1263 1361 1522 1685 1808 2040 2407 2796 2510 1992
770.0 1799 1609 1411 1169 1003 877 811 817 845 906
810.0 1028 1161 1271 1488 1797 1924 1607 1452 1300 1114
850.0 917 751 633 516 463 411 396 368 357 352
890.0 343 335 316 308 286 285 260 267 287 325
930.0 409 507 665 792 885 904 894 821 719 549
970.0 374 284 242 225 197 186 164 160 149 143
1010.0 145 138 155 171 215 235 298 321 380 456
1050.0 519 566 612 721 805 873 907 939 923 900
1090.0 825 721 595 473 385 264 214 164 140 103
1130.0 104 107 126 225 411 776 1048 1393 1482 1531
1170.0 1591 1412 1497 1578 1858 2193 2430 2521 2437 2187
1210.0 1656 991 473 206 88 43 21 6 9 15
1250.0 26 36 71 93 124 137 167 191 242 315
1290.0 463 686 957 1252 1470 1640 1730 1770 1657 1482
1330.0 1223 913 595 326 157 61 30 0 17 5
1370.0 27 28 57 81 93 109 116 144 179 208
1410.0 254 328 361 454 468 494 475 493 463 444
1450.0 458 491 599 711 891 1030 1243 1506 1735 2251
1490.0 2745 3174 3175 3342 3282 2898 2420 1789 1389 1071
1530.0 874 769 646 715 648 751 704 813 976 1173
1570.0 1557 1932 2560 3258 3895 4775 5368 6305 6731 7373
1610.0 7645 7960 8519 8899 10000 9550 9730 8019 7215 5194
1650.0 3899 2766 1489 1236 806 774 449 506 351 332
1690.0 275 283 287 189 285 217 263 197 255 224
1730.0 228 230 218 226 178 212 154 165 141 148
1770.0 123 125 143 116 141 111 140 96 111 110
1810.0 107 105 110 122 99 132 112 141 112 143
1850.0 138 149 156 156 159 154 193 178 214 216
1890.0 236 219 220 233 207 198 165 176 144 152
1930.0 153 148 157 143 148 127 146 120 114 97
1970.0 115 113 122 132 131 133 124 135 124 128
2010.0 128 134 128 134 143 143 159 152 167 170
2050.0 186 180 180 186 175 182 159 167 155 150
2090.0 138 148 142 134 141 140 151 143 152 150
2130.0 161 160 165 173 175 184 175 177 169 175
2170.0 170 166 161 151 149 145 143 133 138 137
2210.0 142 135 141 144 144 153 147 156 156 169
2250.0 170 177 187 193 201 194 205 195 191 182
2290.0 180 168 171 172 166 169 164 169 153 170
2330.0 163 180 177 186 183 183 183 173 192 191
2370.0 197 194 195 197 181 169 155 155 147 146
2410.0 145 152 151 151 155 148 155 150 155 148
2450.0 150 142 147 147 150 155 154 164 165 169
2490.0 171 181 186 189 200 194 197 179 174 166
2530.0 158 148 148 146 145 147 149 153 149 159
2570.0 154 159 160 158 153 156 160 151 161 158
2610.0 162 159 165 171 175 178 180 183 179 183
2650.0 177 177 174 170 168 168 170 163 165 164
2690.0 170 163 167 175 176 181 183 190 191 197
2730.0 199 202 199 201 198 203 209 206 209 201
2770.0 205 202 199 187 189 198 199 204 200 205
2810.0 195 194 189 186 179 174 169 162 156 151
2850.0 155 147 147 151 156 157 154 163 162 174
2890.0 168 183 186 196 204 215 223 224 230 224
2930.0 230 221 218 217 216 204 200 203 206 208
2970.0 201 216 215 223 220 243 285 339 432 565
3010.0 754 937 1047 1063 1234 1472 1607 1751 1839 1878
3050.0 1870 1751 1603 1295 1010 852 747 678 622 573
3090.0 544 491 452 408 366 330 306 283 261 239
3130.0 224 211 191 187 170 161 160 149 147 146
3170.0 145 143 147 147 162 163 175 189 202 224
3210.0 237 249 260 266 276 275 253 234 216 211
3250.0 184 162 166 156 163 169 152 138 136 145
3290.0 139 148 135 144 146 140 135 137 146 148
3330.0 140 142 149 149 140 149 149 164 168 191
3370.0 205 218 251 300 354 451 564 705 812 888
3410.0 927 914 871 766 640 525 444 373 324 316
3450.0 295 284 288 326 368 435 507 610 708 775
3490.0 813 824 816 748 672 575 501 427 371 311
3530.0 269 253 220 209 198 185 187 178 175 177
3570.0 173 162 164 150 172 164 174 150 169 148
3610.0 157 163 154 166 147 168 146 156 156 144
3650.0 191 158 181 154 156 152 164 194 161 175
3690.0 156 178 161 170 173 187 192 182 170 189
3730.0 164 172 182 191 174 188 225 197 207 196
3770.0 189 215 189 195 177 176 164 163 178 185
3810.0 199 178 176 200 199 194 204 223 245 235
3850.0 206 260 254 251 221 231 226 229 224 205
3890.0 217 202 198 207 222 204 189 218 204 208
3930.0 175 210 220 204 195 224 217 205 225 225
##END=
