##TITLE=Phenol, 3-chloro-
##JCAMP-DX=4.24
##DATA TYPE=INFRARED SPECTRUM
##ORIGIN=Sadtler Research Labs Under US-EPA Contract
##OWNER=NIST Standard Reference Data Program
##CAS REGISTRY NO=108-43-0
##MOLFORM=C 6 H 5 Cl O
##XUNITS=1/CM
##YUNITS=ABSORBANCE
##XFACTOR=1.0
##YFACTOR=0.000211346
##DELTAX=4.0
##FIRSTX=450.0
##LASTX=3966.0
##FIRSTY=0.042692
##MAXX=3966
##MINX=450
##MAXY=2.11346
##MINY=0
##NPOINTS=880
##XYDATA=(X++(Y..Y))
450.0 202 415 228 133 73 18 21 26 65 104
490.0 122 113 125 125 124 102 172 234 316 300
530.0 319 399 316 238 161 125 76 66 47 41
570.0 63 84 122 190 289 293 235 253 234 121
610.0 87 65 52 60 73 69 70 88 81 125
650.0 158 327 480 812 1100 1215 1767 2486 1475 1424
690.0 1112 1001 723 414 206 159 121 100 110 111
730.0 124 114 205 280 503 784 1210 1530 2301 2897
770.0 2619 2840 1962 1395 1094 621 368 192 155 121
810.0 172 186 271 364 520 615 823 1230 1191 1063
850.0 1074 1097 1054 1317 1516 1747 2509 3510 5549 6751
890.0 6714 6147 5414 2736 800 355 268 212 177 158
930.0 161 143 150 139 133 122 118 115 122 114
970.0 114 122 144 175 261 477 698 689 757 745
1010.0 549 289 224 184 166 147 157 170 199 245
1050.0 335 511 803 1192 1439 1607 1850 2075 2109 2007
1090.0 2117 2205 1955 1463 1184 928 604 430 440 507
1130.0 631 777 1071 1569 2106 2506 2758 2950 3453 3778
1170.0 4424 5535 6228 6775 6386 5451 4783 3302 2037 1270
1210.0 885 692 612 617 714 931 1317 1945 2671 3304
1250.0 3382 3376 3213 2406 1577 1087 1085 1437 2325 3442
1290.0 3991 3760 3947 3436 2004 1123 811 608 498 403
1330.0 360 324 188 209 236 234 210 159 124 136
1370.0 162 93 151 181 176 217 241 263 433 509
1410.0 503 624 451 841 1104 1688 2006 2362 2420 2506
1450.0 2389 2031 1685 1790 2362 2993 3350 4418 5041 4841
1490.0 3933 3565 2366 1112 527 224 385 469 477 749
1530.0 773 873 678 411 415 499 505 341 671 900
1570.0 1295 1747 2539 4056 5106 7330 7528 9089 8665 10000
1610.0 7640 5641 3600 2007 1101 746 436 265 256 188
1650.0 10 26 162 203 190 165 71 223 74 19
1690.0 164 201 0 43 121 256 192 60 260 341
1730.0 256 66 194 199 126 60 154 147 150 194
1770.0 113 67 175 143 155 106 70 102 55 159
1810.0 151 153 192 173 150 120 166 205 128 73
1850.0 122 154 120 120 77 29 117 137 148 140
1890.0 126 140 169 184 183 186 191 199 154 175
1930.0 187 157 140 78 89 104 102 88 98 69
1970.0 84 89 92 88 91 51 60 77 81 80
2010.0 84 69 55 67 71 73 77 67 60 73
2050.0 74 74 80 73 58 77 76 71 67 59
2090.0 49 49 51 49 52 52 58 69 78 93
2130.0 107 121 126 124 113 93 73 55 44 38
2170.0 38 36 37 40 36 29 22 18 12 11
2210.0 7 8 5 7 7 7 8 8 11 11
2250.0 14 11 14 12 15 16 16 18 21 23
2290.0 23 25 23 26 33 37 47 52 63 65
2330.0 69 71 69 62 56 56 54 51 54 58
2370.0 59 60 59 58 56 54 54 51 56 65
2410.0 67 73 82 89 93 93 102 100 96 93
2450.0 87 81 67 63 65 66 73 80 88 96
2490.0 103 100 92 81 70 55 37 30 23 22
2530.0 22 30 41 52 58 58 56 49 36 29
2570.0 27 29 34 37 44 48 52 55 52 49
2610.0 45 45 40 40 37 36 37 38 36 37
2650.0 37 38 40 40 40 40 37 38 36 36
2690.0 34 33 29 27 25 26 29 29 36 41
2730.0 49 56 62 65 67 63 59 55 47 44
2770.0 41 41 40 38 32 27 25 23 22 18
2810.0 19 15 18 15 16 18 19 21 18 19
2850.0 19 22 21 23 21 26 27 26 29 32
2890.0 36 38 36 36 36 33 32 30 23 26
2930.0 26 27 26 32 32 29 29 30 32 32
2970.0 32 33 30 27 27 26 32 34 44 63
3010.0 92 137 195 267 330 389 429 439 439 445
3050.0 474 502 524 533 529 506 495 505 516 522
3090.0 509 467 415 351 276 216 157 106 71 44
3130.0 33 23 23 19 18 16 21 16 14 21
3170.0 21 21 25 26 25 34 30 33 32 33
3210.0 33 30 34 30 29 26 32 25 29 33
3250.0 27 29 29 32 29 32 23 32 30 30
3290.0 32 32 34 30 37 33 36 38 43 51
3330.0 56 67 70 98 95 87 77 80 76 78
3370.0 81 81 70 66 66 62 60 59 59 54
3410.0 55 55 54 56 59 60 49 51 40 38
3450.0 36 34 40 34 43 40 43 40 43 37
3490.0 37 43 38 37 34 37 36 30 27 23
3530.0 27 27 34 27 26 22 40 21 29 23
3570.0 23 45 38 51 30 43 55 34 60 58
3610.0 52 58 113 147 235 346 763 1266 2450 3792
3650.0 5109 4497 4548 4241 2333 917 346 137 82 52
3690.0 0 40 26 37 27 29 0 38 16 18
3730.0 32 7 4 18 25 0 27 15 23 27
3770.0 14 47 27 44 32 48 38 29 3 29
3810.0 19 40 0 21 19 32 18 7 3 45
3850.0 32 0 29 41 12 30 23 66 33 52
3890.0 23 60 21 40 22 55 52 55 51 60
3930.0 73 45 63 48 54 45 76 59 89 84
##END=
