##TITLE=Benzene, chloro-
##JCAMP-DX=4.24
##DATA TYPE=INFRARED SPECTRUM
##ORIGIN=Sadtler Research Labs Under US-EPA Contract
##OWNER=NIST Standard Reference Data Program
##CAS REGISTRY NO=108-90-7
##MOLFORM=C 6 H 5 Cl
##XUNITS=1/CM
##YUNITS=ABSORBANCE
##XFACTOR=1.0
##YFACTOR=0.000086087
##DELTAX=4.0
##FIRSTX=450.0
##LASTX=3966.0
##FIRSTY=0.101152
##MAXX=3966
##MINX=450
##MAXY=0.86087
##MINY=0
##NPOINTS=880
##XYDATA=(X++(Y..Y))
450.0 1175 1110 1218 1313 1589 896 805 680 493 330
490.0 228 161 47 56 89 127 146 164 145 149
530.0 158 158 179 158 160 126 111 195 223 165
570.0 171 147 141 141 155 74 89 102 97 109
610.0 122 117 145 176 141 132 162 157 205 292
650.0 387 574 868 1253 1861 2104 2338 2588 3431 4179
690.0 3033 3966 4544 4373 4642 5238 5708 4596 4376 5107
730.0 5766 6494 10000 9148 5132 5113 4233 2959 1753 858
770.0 350 119 63 68 93 113 132 139 120 126
810.0 100 101 87 84 76 55 81 88 95 104
850.0 116 138 141 152 154 166 171 177 212 260
890.0 310 351 435 544 414 420 432 450 434 395
930.0 336 268 217 160 84 66 64 70 77 85
970.0 93 69 83 68 104 159 270 357 376 603
1010.0 1180 2194 2826 2395 2472 2384 2006 758 234 212
1050.0 346 549 771 975 1248 1910 3161 4698 6050 6395
1090.0 6320 5348 4808 2318 748 631 969 1346 1493 1542
1130.0 1374 1161 680 268 120 89 81 88 95 103
1170.0 121 109 109 109 101 87 84 111 129 120
1210.0 128 148 167 196 196 200 186 186 139 109
1250.0 94 102 106 106 110 97 110 104 104 104
1290.0 122 107 108 125 126 102 102 94 81 77
1330.0 83 75 55 47 66 87 116 170 185 205
1370.0 216 211 178 140 125 115 96 68 71 79
1410.0 93 128 170 266 425 680 1009 1264 1378 1218
1450.0 1038 1235 1000 1135 2027 3972 6121 6465 6739 6157
1490.0 6127 3335 1358 769 540 352 297 158 78 77
1530.0 88 93 144 141 260 403 503 575 707 957
1570.0 1353 2065 2835 3531 3995 4129 3234 2158 1375 861
1610.0 474 325 238 260 265 299 287 160 174 165
1650.0 117 42 58 52 51 36 50 45 69 24
1690.0 77 104 70 38 121 180 208 193 240 234
1730.0 223 206 193 127 96 74 69 83 103 158
1770.0 184 240 349 383 399 396 348 293 178 133
1810.0 110 104 97 93 96 88 120 139 184 199
1850.0 266 294 287 321 375 367 352 292 248 209
1890.0 160 104 79 76 76 90 110 145 199 244
1930.0 299 298 311 363 406 378 307 270 223 179
1970.0 110 70 57 63 50 58 44 58 55 49
2010.0 44 51 50 43 51 49 57 42 43 43
2050.0 51 50 51 51 37 51 36 36 37 37
2090.0 28 30 26 31 26 31 24 27 28 28
2130.0 30 30 36 36 33 39 33 33 32 38
2170.0 50 43 57 56 49 47 36 36 37 34
2210.0 36 32 32 37 36 43 51 58 58 57
2250.0 64 59 59 59 58 55 56 65 58 70
2290.0 75 88 81 93 114 138 133 130 136 144
2330.0 141 88 87 91 81 85 94 78 39 11
2370.0 5 0 28 51 58 64 72 65 71 71
2410.0 64 74 72 68 57 63 47 45 49 45
2450.0 47 46 53 46 47 47 47 47 47 57
2490.0 44 47 49 49 43 50 49 44 58 57
2530.0 63 58 60 69 64 65 72 72 72 72
2570.0 72 72 68 66 75 82 85 81 82 82
2610.0 84 77 69 62 57 56 55 56 51 50
2650.0 55 51 57 71 64 64 66 66 58 57
2690.0 59 53 49 52 59 53 49 49 49 47
2730.0 49 49 47 62 56 63 55 59 64 63
2770.0 65 70 72 71 64 66 66 72 71 63
2810.0 64 69 65 60 66 60 69 69 76 74
2850.0 88 90 77 85 74 77 81 77 90 98
2890.0 98 104 98 90 89 94 96 104 101 85
2930.0 95 84 74 81 75 83 81 69 85 74
2970.0 70 83 91 91 94 111 152 171 241 289
3010.0 375 440 502 573 683 799 849 886 881 913
3050.0 948 1038 1143 1381 1780 2461 2956 3066 3308 3440
3090.0 2953 2309 2029 1708 1298 913 586 355 210 146
3130.0 109 90 83 90 78 88 90 102 116 117
3170.0 104 110 104 94 85 84 81 78 72 79
3210.0 74 78 74 81 79 79 82 81 85 83
3250.0 83 83 83 83 77 84 70 78 78 84
3290.0 98 84 85 78 88 109 91 98 95 94
3330.0 87 97 101 102 101 89 89 88 111 88
3370.0 91 103 97 97 94 93 111 97 91 102
3410.0 94 95 91 90 89 96 95 97 97 106
3450.0 102 96 122 94 108 89 97 98 101 96
3490.0 101 115 101 109 83 94 88 89 109 94
3530.0 93 97 87 98 97 90 85 117 82 100
3570.0 77 83 104 95 87 83 111 63 63 97
3610.0 85 96 68 78 89 79 70 76 101 107
3650.0 95 74 59 87 104 103 79 23 66 97
3690.0 114 81 125 129 140 151 117 128 122 114
3730.0 119 97 74 90 51 71 60 70 81 121
3770.0 141 116 127 126 130 140 130 129 129 120
3810.0 108 109 114 84 90 96 104 103 68 81
3850.0 107 103 87 100 77 79 72 72 91 97
3890.0 97 82 91 101 91 89 111 98 110 107
3930.0 103 97 82 96 111 125 115 119 100 102
##END=
