##TITLE=Benzene, 1,3,5-trimethyl-
##JCAMP-DX=4.24
##DATA TYPE=INFRARED SPECTRUM
##ORIGIN=Sadtler Research Labs Under US-EPA Contract
##OWNER=NIST Standard Reference Data Program
##CAS REGISTRY NO=108-67-8
##MOLFORM=C 9 H 12
##XUNITS=1/CM
##YUNITS=ABSORBANCE
##XFACTOR=1.0
##YFACTOR=0.000098575
##DELTAX=4.0
##FIRSTX=450.0
##LASTX=3966.0
##FIRSTY=0.033023
##MAXX=3966
##MINX=450
##MAXY=0.98575
##MINY=0
##NPOINTS=880
##XYDATA=(X++(Y..Y))
450.0 335 239 213 187 228 212 296 219 274 140
490.0 0 155 249 301 454 423 495 443 391 360
530.0 236 252 200 199 197 206 232 175 228 192
570.0 248 187 189 168 234 203 185 203 163 206
610.0 167 215 214 290 246 247 165 212 245 245
650.0 243 255 230 273 413 834 1330 1264 1865 3754
690.0 1842 1433 1383 790 488 252 252 213 248 224
730.0 226 236 223 232 199 212 195 196 205 189
770.0 201 207 215 205 235 247 241 248 243 292
810.0 323 603 1174 2135 2610 3077 6512 3922 2701 2769
850.0 1721 889 453 278 283 229 264 207 277 274
890.0 327 354 384 381 380 414 401 482 487 543
930.0 501 454 427 351 277 240 244 232 264 263
970.0 288 302 323 366 400 482 535 584 580 591
1010.0 535 495 454 436 444 485 567 619 784 769
1050.0 728 695 656 597 493 425 359 335 272 276
1090.0 247 235 207 192 238 180 261 209 232 198
1130.0 230 228 229 226 212 218 203 226 210 219
1170.0 216 211 204 196 202 200 215 214 235 221
1210.0 218 207 194 184 181 183 171 188 186 196
1250.0 194 208 208 206 219 212 218 214 221 211
1290.0 223 232 245 247 243 246 239 237 237 248
1330.0 259 281 312 365 435 482 538 563 601 644
1370.0 756 912 1080 1205 1311 1219 994 872 819 761
1410.0 710 648 576 572 608 733 893 1068 1246 1488
1450.0 1748 1917 2114 2136 1951 1867 1905 2010 2010 2103
1490.0 2193 2182 2114 2134 2151 2057 2038 2004 1962 1882
1530.0 1841 1777 1698 1623 1536 1485 1414 1392 1355 1331
1570.0 1282 1248 1244 1290 1437 1755 2423 3596 5426 7317
1610.0 7804 7338 5109 2609 1318 785 528 349 249 198
1650.0 178 163 173 136 150 138 142 146 146 141
1690.0 147 187 252 362 417 427 395 362 273 205
1730.0 196 214 297 395 533 603 601 536 476 325
1770.0 170 90 66 61 58 63 58 62 62 74
1810.0 71 76 83 82 91 84 94 79 77 67
1850.0 63 68 72 83 87 105 118 130 132 133
1890.0 132 133 129 119 115 112 121 125 128 134
1930.0 128 113 97 96 91 90 83 76 64 56
1970.0 40 36 35 34 35 31 37 37 38 36
2010.0 39 41 39 41 43 45 42 47 37 36
2050.0 36 37 40 30 26 26 26 23 30 31
2090.0 40 46 43 39 23 20 15 18 15 17
2130.0 15 18 20 17 21 22 21 22 27 28
2170.0 41 47 53 56 49 40 23 17 13 10
2210.0 9 9 23 26 31 29 30 22 23 19
2250.0 17 14 16 20 18 26 27 35 35 49
2290.0 65 89 120 145 176 198 191 168 166 156
2330.0 162 147 121 178 162 122 186 131 195 201
2370.0 199 174 162 141 118 95 88 89 88 90
2410.0 88 94 102 107 104 107 113 117 113 114
2450.0 118 109 107 107 101 93 84 78 74 74
2490.0 74 79 76 81 75 74 75 71 68 61
2530.0 64 64 71 73 78 77 76 70 64 61
2570.0 56 55 46 49 47 54 55 57 63 68
2610.0 71 61 56 56 57 52 55 55 53 58
2650.0 56 66 65 67 68 83 84 90 93 90
2690.0 86 83 92 96 112 121 127 148 179 233
2730.0 322 446 523 567 596 544 398 284 234 200
2770.0 183 171 177 170 186 198 207 228 248 285
2810.0 311 357 409 470 547 619 713 822 972 1171
2850.0 1458 1825 2331 2957 3655 4299 4725 4866 4724 4396
2890.0 4035 3813 3819 4077 4468 5054 5872 6888 8146 9327
2930.0 9982 10000 9558 8574 7054 5502 4497 3854 3380 2921
2970.0 2592 2586 2710 2918 3161 3433 3757 4064 4402 4906
3010.0 5811 7164 8623 9481 9637 9180 7608 5601 4098 3165
3050.0 2505 2055 1705 1487 1322 1187 1067 954 865 799
3090.0 696 589 524 447 420 361 330 281 242 225
3130.0 196 188 175 169 157 164 155 160 164 159
3170.0 163 153 153 141 139 133 135 136 136 140
3210.0 137 145 145 142 141 150 143 144 145 153
3250.0 142 145 144 138 142 148 139 143 127 127
3290.0 115 127 137 135 134 138 135 136 129 132
3330.0 132 111 126 134 118 108 120 133 105 123
3370.0 119 124 104 111 115 117 115 125 120 111
3410.0 115 118 120 118 135 130 127 129 127 127
3450.0 125 148 146 136 127 129 126 113 118 122
3490.0 109 102 95 119 124 101 98 112 114 122
3530.0 128 122 116 119 117 100 100 88 98 84
3570.0 86 86 87 99 75 74 72 80 104 73
3610.0 73 72 51 54 38 47 83 43 51 45
3650.0 100 31 83 68 38 46 9 73 37 79
3690.0 68 60 35 22 22 47 53 39 47 32
3730.0 32 50 35 68 46 61 34 45 32 32
3770.0 50 43 54 62 64 60 64 52 74 52
3810.0 44 30 8 55 43 80 66 88 74 80
3850.0 61 77 67 86 92 50 73 51 94 138
3890.0 92 106 135 105 57 46 79 90 121 68
3930.0 124 124 93 124 102 82 88 51 59 134
##END=
