##TITLE=Ethanol, 2-(dimethylamino)-
##JCAMP-DX=4.24
##DATA TYPE=INFRARED SPECTRUM
##ORIGIN=Sadtler Research Labs Under US-EPA Contract
##OWNER=NIST Standard Reference Data Program
##CAS REGISTRY NO=108-01-0
##MOLFORM=C 4 H 11 N O
##XUNITS=1/CM
##YUNITS=ABSORBANCE
##XFACTOR=1.0
##YFACTOR=0.000075253
##DELTAX=4.0
##FIRSTX=450.0
##LASTX=3966.0
##FIRSTY=0.025210
##MAXX=3966
##MINX=450
##MAXY=0.75253
##MINY=0
##NPOINTS=880
##XYDATA=(X++(Y..Y))
450.0 335 702 637 447 431 281 149 280 144 146
490.0 27 133 135 292 222 206 180 142 162 117
530.0 178 182 251 319 341 369 340 367 406 340
570.0 304 260 162 133 89 76 79 67 72 39
610.0 80 51 94 51 85 31 71 128 56 78
650.0 69 130 62 81 54 61 77 85 98 99
690.0 83 69 90 78 94 86 113 113 139 167
730.0 149 200 245 319 416 564 719 898 1079 1266
770.0 1386 1475 1471 1288 1100 686 686 568 360 295
810.0 197 204 178 185 182 186 246 282 329 370
850.0 486 579 710 831 986 1092 1206 1225 1095 1012
890.0 869 722 553 458 377 341 329 344 413 506
930.0 641 780 910 995 1095 1089 1040 951 771 651
970.0 572 571 564 599 642 721 829 971 1174 1450
1010.0 1875 2551 3641 5068 6663 7796 8476 8899 8724 8476
1050.0 7402 6114 5355 5156 5206 5355 5575 5742 6054 5829
1090.0 4888 4236 3555 2871 2266 1740 1333 1030 849 746
1130.0 716 735 797 891 968 1070 1174 1228 1303 1346
1170.0 1361 1373 1392 1407 1383 1360 1362 1418 1548 1780
1210.0 2131 2519 2769 2957 2989 2817 2557 2215 1816 1515
1250.0 1386 1429 1621 1935 2351 2697 2902 2914 2736 2431
1290.0 2071 1731 1430 1186 1026 926 874 883 906 932
1330.0 945 981 1003 1056 1242 1480 1812 1942 2003 2055
1370.0 1938 1908 1845 1668 1739 2010 2395 2771 3083 3267
1410.0 3183 2976 2616 2210 1792 1564 1545 1746 2094 2555
1450.0 3088 3556 3899 4067 3849 3568 3215 2747 2354 1961
1490.0 1537 1225 921 669 503 393 292 260 217 194
1530.0 165 159 135 118 96 95 79 75 79 49
1570.0 55 58 64 45 50 44 40 43 40 43
1610.0 34 46 31 44 26 43 34 40 24 30
1650.0 13 40 20 17 21 24 29 32 27 55
1690.0 41 47 57 60 53 56 57 50 48 33
1730.0 31 34 26 10 20 20 19 20 20 15
1770.0 10 24 6 11 12 22 22 24 27 33
1810.0 31 35 34 26 30 20 18 12 11 14
1850.0 9 10 11 7 4 14 10 15 22 20
1890.0 21 17 32 29 30 31 38 38 46 53
1930.0 49 54 60 62 62 67 62 66 56 43
1970.0 48 31 31 28 28 20 22 23 19 18
2010.0 9 12 6 17 15 26 23 32 42 42
2050.0 46 44 52 45 38 39 34 49 56 63
2090.0 70 77 82 80 79 77 70 71 62 53
2130.0 53 46 47 41 43 44 40 42 40 31
2170.0 29 30 23 27 25 27 25 23 27 31
2210.0 35 33 37 32 38 31 32 27 23 22
2250.0 13 16 11 16 16 15 13 15 8 14
2290.0 27 27 35 40 50 61 78 73 88 88
2330.0 76 57 29 25 4 28 142 118 57 5
2370.0 4 4 4 4 4 4 4 11 14 21
2410.0 27 30 35 38 34 33 32 33 24 20
2450.0 16 12 11 5 8 11 12 23 31 47
2490.0 64 79 77 92 92 94 94 88 80 68
2530.0 76 58 66 67 75 74 73 74 78 73
2570.0 73 68 65 66 62 71 72 72 86 91
2610.0 100 116 120 138 160 176 198 198 215 245
2650.0 268 285 311 336 348 370 381 419 458 496
2690.0 549 618 686 755 836 928 1023 1100 1186 1274
2730.0 1380 1493 1606 1720 1892 2151 2517 3096 3936 5047
2770.0 6291 7518 8534 9523 9802 9906 9914 9202 8527 8021
2810.0 7715 7495 7420 7469 7561 7582 6973 6450 6050 5301
2850.0 4761 4605 4745 5066 5388 5772 6139 6331 6278 6058
2890.0 5834 5553 5274 5051 4883 4813 4824 4953 5261 5663
2930.0 6156 6878 7794 8723 9367 9768 10000 9953 9743 9471
2970.0 9024 8680 8108 7195 6579 5660 4552 3550 2400 1515
3010.0 972 685 514 396 323 278 266 249 200 197
3050.0 177 168 183 190 166 170 181 189 164 162
3090.0 154 155 124 141 114 110 112 101 126 130
3130.0 124 115 93 84 74 92 92 96 93 109
3170.0 107 98 116 108 122 122 121 122 119 130
3210.0 122 104 99 80 72 67 52 36 23 31
3250.0 27 23 17 18 40 29 55 65 72 84
3290.0 80 82 72 65 55 42 29 44 17 15
3330.0 16 6 33 25 36 43 49 31 17 42
3370.0 58 19 32 56 89 91 135 216 302 434
3410.0 515 545 541 514 487 445 378 314 287 243
3450.0 228 221 203 186 178 186 170 156 160 139
3490.0 149 133 129 135 166 188 222 320 443 683
3530.0 1064 1576 1996 2219 2274 2224 2090 1907 1663 1395
3570.0 1214 1040 911 794 727 682 563 500 429 407
3610.0 353 294 259 247 241 230 236 224 253 306
3650.0 356 407 471 515 551 611 584 574 506 454
3690.0 324 252 189 128 135 139 132 134 121 105
3730.0 91 81 62 18 74 30 39 32 47 49
3770.0 37 11 32 36 6 26 24 40 15 22
3810.0 35 44 44 8 46 52 37 69 61 21
3850.0 35 89 84 37 47 35 4 33 67 66
3890.0 36 54 46 16 10 23 40 4 22 26
3930.0 41 29 26 4 33 21 13 0 47 2
##END=
