##TITLE=Benzenamine, 3,5-dimethyl-
##JCAMP-DX=4.24
##DATA TYPE=INFRARED SPECTRUM
##ORIGIN=Sadtler Research Labs Under US-EPA Contract
##OWNER=NIST Standard Reference Data Program
##CAS REGISTRY NO=108-69-0
##MOLFORM=C 8 H 11 N
##XUNITS=1/CM
##YUNITS=ABSORBANCE
##XFACTOR=1.0
##YFACTOR=0.000137708
##DELTAX=4.0
##FIRSTX=450.0
##LASTX=3966.0
##FIRSTY=0.028781
##MAXX=3966
##MINX=450
##MAXY=1.37708
##MINY=0
##NPOINTS=880
##XYDATA=(X++(Y..Y))
450.0 209 388 420 354 327 444 344 415 388 480
490.0 376 455 503 532 558 558 596 528 594 502
530.0 517 412 430 360 351 385 397 468 473 584
570.0 637 751 616 614 496 381 322 245 242 234
610.0 308 207 298 257 311 309 426 511 542 703
650.0 779 1064 1198 2129 2836 3854 4027 4207 4734 3391
690.0 2099 1700 1121 820 535 621 516 415 338 287
730.0 213 147 162 122 159 147 228 243 341 398
770.0 430 421 377 347 239 240 193 230 261 513
810.0 804 1269 1582 2184 3244 2517 1671 1619 1017 628
850.0 373 354 326 238 188 140 97 64 45 40
890.0 52 87 108 104 119 129 142 156 181 233
930.0 302 360 400 435 433 375 339 260 164 108
970.0 82 81 88 118 165 214 247 262 281 280
1010.0 284 306 345 367 376 380 365 357 343 329
1050.0 340 320 293 304 320 370 463 616 751 774
1090.0 748 676 510 287 155 90 58 43 36 33
1130.0 29 31 33 33 34 49 91 203 502 1023
1170.0 1446 1516 1566 1512 1003 410 141 65 34 28
1210.0 15 8 3 1 0 2 7 7 13 17
1250.0 28 44 57 89 131 180 234 243 237 223
1290.0 221 243 303 382 509 717 1096 1653 2186 2420
1330.0 2396 2219 1614 830 432 294 287 279 265 284
1370.0 313 293 314 337 330 319 262 234 279 299
1410.0 320 410 360 473 506 590 631 770 967 1126
1450.0 1270 1317 1265 1302 1257 1187 1067 1123 1247 1252
1490.0 1250 1308 1252 1244 1158 1036 1076 1032 994 1029
1530.0 998 982 888 778 769 829 843 824 1020 1180
1570.0 1329 1507 1841 2188 2463 2835 3280 4008 4688 5975
1610.0 7451 8945 10000 8841 9455 6802 5984 3892 2846 1729
1650.0 1118 823 570 552 422 418 294 374 268 244
1690.0 300 304 211 167 194 193 137 47 142 169
1730.0 132 80 155 187 178 189 238 237 223 208
1770.0 128 73 110 80 91 69 69 70 54 98
1810.0 85 86 99 93 75 71 88 118 92 86
1850.0 116 138 134 128 104 74 116 117 122 117
1890.0 116 122 133 137 124 120 100 94 66 85
1930.0 88 81 87 64 76 79 80 73 80 63
1970.0 68 71 71 75 81 72 85 105 107 108
2010.0 109 95 78 79 82 80 85 80 80 84
2050.0 85 86 85 79 66 74 70 69 68 69
2090.0 64 69 74 74 81 85 88 82 78 74
2130.0 68 62 58 56 53 58 55 58 61 63
2170.0 67 72 77 82 89 92 97 93 91 80
2210.0 71 62 54 47 40 41 40 43 46 50
2250.0 52 54 57 60 61 58 58 53 51 49
2290.0 48 44 46 44 43 44 48 56 56 56
2330.0 57 45 43 37 41 44 39 44 38 42
2370.0 42 48 49 51 52 54 55 62 64 67
2410.0 68 70 69 69 68 66 69 68 73 69
2450.0 71 70 71 68 68 66 66 68 66 70
2490.0 73 78 78 74 71 67 56 48 47 45
2530.0 46 47 51 52 56 63 61 63 63 62
2570.0 58 56 55 53 50 47 48 46 48 50
2610.0 47 46 43 45 45 48 50 53 55 62
2650.0 61 62 63 56 54 51 51 55 56 58
2690.0 66 71 73 78 81 81 84 88 97 115
2730.0 139 172 196 211 221 207 174 143 126 119
2770.0 114 112 115 118 119 122 121 122 121 125
2810.0 129 137 146 159 183 201 228 265 311 375
2850.0 467 603 782 984 1176 1334 1423 1434 1386 1305
2890.0 1217 1164 1159 1213 1312 1470 1726 2098 2531 2938
2930.0 3169 3222 3074 2742 2257 1769 1432 1203 1056 924
2970.0 822 820 868 929 998 1078 1139 1197 1280 1432
3010.0 1704 2166 2806 3453 3883 3895 3580 2951 2139 1417
3050.0 968 733 606 532 479 447 420 394 364 346
3090.0 298 254 218 185 166 147 131 116 95 86
3130.0 78 67 63 62 52 54 53 49 49 51
3170.0 53 46 49 54 56 63 70 75 84 95
3210.0 102 108 114 119 121 118 109 95 89 81
3250.0 73 69 68 58 56 57 58 54 51 56
3290.0 53 52 50 51 55 48 50 49 50 47
3330.0 48 49 49 48 52 53 54 62 60 66
3370.0 69 80 95 119 143 196 278 381 450 490
3410.0 544 535 457 379 339 283 221 180 158 140
3450.0 118 114 116 129 157 189 238 330 423 459
3490.0 470 492 471 402 337 302 260 207 164 133
3530.0 119 116 108 96 86 76 73 60 58 54
3570.0 55 56 55 54 47 54 57 56 51 48
3610.0 55 55 48 54 50 60 44 46 56 48
3650.0 56 44 51 44 54 43 53 49 52 49
3690.0 52 56 58 68 57 56 57 56 56 65
3730.0 56 68 55 64 55 63 58 52 57 52
3770.0 54 56 58 56 51 49 52 42 50 39
3810.0 50 48 56 62 56 68 60 75 85 91
3850.0 88 108 117 108 109 96 85 74 75 62
3890.0 73 63 68 63 65 50 53 54 58 64
3930.0 60 62 68 73 77 90 79 90 77 73
##END=
