##TITLE=Pyridine, 2,6-dimethyl-
##JCAMP-DX=4.24
##DATA TYPE=INFRARED SPECTRUM
##ORIGIN=Sadtler Research Labs Under US-EPA Contract
##OWNER=NIST Standard Reference Data Program
##CAS REGISTRY NO=108-48-5
##MOLFORM=C 7 H 9 N
##XUNITS=1/CM
##YUNITS=ABSORBANCE
##XFACTOR=1.0
##YFACTOR=0.000123923
##DELTAX=4.0
##FIRSTX=450.0
##LASTX=3966.0
##FIRSTY=0.016977
##MAXX=3966
##MINX=450
##MAXY=1.23923
##MINY=0
##NPOINTS=880
##XYDATA=(X++(Y..Y))
450.0 137 196 106 226 27 207 35 220 52 179
490.0 227 97 134 112 190 59 207 131 271 235
530.0 489 403 378 390 521 563 305 354 328 267
570.0 206 137 131 122 146 98 147 86 141 71
610.0 98 115 99 114 103 175 77 132 97 87
650.0 87 110 115 84 121 103 125 90 136 105
690.0 134 128 147 162 176 245 199 233 212 314
730.0 388 321 281 441 675 1111 1579 2069 2237 3320
770.0 5886 2838 2181 2199 1593 1054 509 281 150 143
810.0 115 110 119 104 125 95 146 88 111 101
850.0 118 109 109 131 96 121 111 128 96 122
890.0 118 124 141 137 162 141 174 154 164 149
930.0 160 158 156 191 191 236 263 330 339 351
970.0 353 361 362 362 391 373 375 385 419 375
1010.0 354 346 340 354 356 382 397 439 418 422
1050.0 422 422 415 396 399 370 394 415 483 538
1090.0 581 543 488 476 398 306 201 170 143 141
1130.0 137 171 238 372 499 505 552 483 485 354
1170.0 203 165 138 143 130 145 126 140 151 203
1210.0 307 446 539 612 714 777 868 772 741 745
1250.0 750 754 664 582 573 643 557 437 402 375
1290.0 297 232 210 202 221 219 242 238 230 218
1330.0 220 227 252 284 260 306 337 419 517 712
1370.0 873 1042 1042 1023 1073 812 603 534 461 473
1410.0 457 515 582 665 696 893 1305 2126 3107 3803
1450.0 4483 4944 5376 5390 4764 4222 3733 3335 2730 2079
1490.0 1508 1299 1209 1179 1253 1369 1228 1428 1443 1427
1530.0 1331 1296 1231 1114 1055 999 1135 1338 1832 2188
1570.0 3315 4727 6296 7889 8946 10000 7244 4893 3359 2348
1610.0 1340 907 553 405 282 288 259 317 217 325
1650.0 195 410 170 149 149 150 153 127 97 202
1690.0 88 72 185 189 125 75 129 131 112 74
1730.0 103 163 144 109 131 194 183 204 189 190
1770.0 203 203 112 116 102 110 101 91 101 77
1810.0 68 77 62 76 84 91 67 67 98 139
1850.0 144 144 149 145 141 141 100 52 60 54
1890.0 75 68 70 76 74 96 86 103 117 107
1930.0 124 121 146 158 199 178 182 152 164 138
1970.0 110 79 59 52 51 51 53 46 42 43
2010.0 40 30 39 28 21 21 22 18 20 20
2050.0 13 22 21 20 24 28 24 32 37 45
2090.0 49 46 46 38 34 24 22 21 18 19
2130.0 13 19 21 25 25 33 34 36 40 42
2170.0 43 45 48 46 51 47 46 40 30 29
2210.0 20 20 16 14 6 7 2 4 10 4
2250.0 9 8 14 10 21 28 35 42 50 64
2290.0 77 92 98 110 109 109 106 100 91 72
2330.0 64 40 39 27 17 42 67 62 14 0
2370.0 0 0 0 6 14 28 35 36 43 40
2410.0 48 43 47 45 43 48 47 49 47 51
2450.0 42 43 38 36 36 33 34 36 37 34
2490.0 37 36 40 32 34 32 26 25 20 26
2530.0 22 27 23 25 20 16 14 11 14 16
2570.0 20 18 22 21 21 22 26 28 29 35
2610.0 35 45 48 50 57 66 67 66 69 57
2650.0 59 61 54 48 50 45 36 38 34 35
2690.0 30 31 27 27 31 35 44 47 63 86
2730.0 103 112 121 118 108 87 56 50 39 45
2770.0 45 46 51 59 59 60 69 75 88 99
2810.0 117 127 146 167 183 206 234 274 319 389
2850.0 458 550 632 704 745 760 747 722 692 654
2890.0 665 689 754 843 966 1135 1363 1659 2008 2379
2930.0 2657 2810 2771 2608 2329 1945 1579 1309 1190 1158
2970.0 1238 1242 1252 1295 1287 1246 1186 1153 1061 961
3010.0 980 1088 1209 1312 1420 1465 1464 1444 1402 1384
3050.0 1462 1633 1940 2281 2512 2544 2521 2360 1944 1509
3090.0 1044 700 501 386 309 254 214 173 148 126
3130.0 121 115 115 117 117 132 135 139 140 144
3170.0 140 129 128 103 92 75 77 63 65 66
3210.0 67 62 68 73 68 70 69 70 67 69
3250.0 66 72 70 61 68 68 77 70 74 55
3290.0 65 62 55 69 53 69 58 64 63 65
3330.0 79 63 63 53 61 64 72 63 62 52
3370.0 76 63 54 53 64 66 60 60 63 57
3410.0 57 72 65 53 62 50 61 62 58 64
3450.0 59 57 55 53 59 67 59 63 61 51
3490.0 62 51 60 48 50 62 48 40 56 40
3530.0 39 59 57 53 34 65 33 60 52 57
3570.0 95 33 80 37 76 78 70 48 50 60
3610.0 95 71 53 53 65 87 59 8 44 33
3650.0 71 73 35 77 3 79 20 91 8 40
3690.0 54 43 36 49 44 30 28 47 46 37
3730.0 80 94 62 53 175 19 127 10 18 47
3770.0 39 81 7 73 14 41 63 64 50 71
3810.0 14 65 34 100 28 44 51 64 1 82
3850.0 45 120 92 55 73 72 47 8 80 54
3890.0 76 76 57 71 89 49 50 106 62 69
3930.0 80 75 48 68 61 52 44 66 70 89
##END=
