##TITLE=Pyridine, 2,4-dimethyl-
##JCAMP-DX=4.24
##DATA TYPE=INFRARED SPECTRUM
##ORIGIN=Sadtler Research Labs Under US-EPA Contract
##OWNER=NIST Standard Reference Data Program
##CAS REGISTRY NO=108-47-4
##MOLFORM=C 7 H 9 N
##XUNITS=1/CM
##YUNITS=ABSORBANCE
##XFACTOR=1.0
##YFACTOR=0.000053351
##DELTAX=4.0
##FIRSTX=450.0
##LASTX=3966.0
##FIRSTY=0.007096
##MAXX=3966
##MINX=450
##MAXY=0.53351
##MINY=0
##NPOINTS=880
##XYDATA=(X++(Y..Y))
450.0 133 210 177 133 167 213 249 274 416 316
490.0 242 262 341 470 632 649 655 638 614 586
530.0 503 629 289 322 363 329 303 260 313 188
570.0 106 129 124 146 0 175 181 152 174 137
610.0 134 173 149 123 129 172 150 196 225 190
650.0 178 186 194 165 83 134 155 140 118 128
690.0 140 166 149 200 239 320 400 470 574 773
730.0 531 466 431 464 511 434 407 415 481 477
770.0 538 563 699 1193 1139 1244 1688 2087 2383 2617
810.0 3581 5180 2455 2148 1894 1463 904 516 353 282
850.0 248 228 270 296 288 311 350 290 259 268
890.0 306 404 593 837 951 974 979 943 758 441
930.0 272 249 246 238 284 305 333 390 454 503
970.0 512 528 511 572 595 616 624 606 594 571
1010.0 504 489 579 681 703 725 833 891 873 835
1050.0 796 740 671 613 548 469 429 386 359 325
1090.0 286 285 255 264 302 342 372 435 461 471
1130.0 482 490 423 395 394 402 436 457 482 484
1170.0 513 525 443 370 331 280 252 228 220 231
1210.0 267 288 306 333 364 375 446 567 622 604
1250.0 585 629 523 396 367 379 400 454 587 790
1290.0 879 915 884 845 744 512 360 304 300 298
1330.0 294 305 367 387 386 432 483 563 667 829
1370.0 1046 1308 1554 1853 2056 2291 2391 2469 2434 2414
1410.0 2393 2310 2283 2365 2510 2584 2676 2852 2904 2873
1450.0 2863 2892 2954 3046 3214 3297 3450 3736 4159 4367
1490.0 4274 4020 3856 3287 2720 2261 2063 1948 1862 1816
1530.0 1812 1818 1872 2002 2101 2286 2595 2932 3026 3185
1570.0 3363 3490 3488 3540 3770 4534 6215 8471 9944 10000
1610.0 9605 8213 6581 3847 1706 969 735 531 432 385
1650.0 311 295 264 306 322 370 387 350 375 321
1690.0 288 297 273 212 204 184 251 242 201 226
1730.0 280 283 234 254 280 275 213 230 234 219
1770.0 226 214 169 170 152 143 119 106 120 102
1810.0 103 103 119 124 141 154 128 132 145 137
1850.0 146 143 155 154 158 175 158 146 155 156
1890.0 181 170 200 232 267 289 319 327 330 297
1930.0 281 226 180 137 131 122 98 95 101 90
1970.0 72 89 80 82 78 79 77 74 74 77
2010.0 66 71 70 78 67 67 75 68 66 62
2050.0 68 60 57 66 74 75 84 92 83 81
2090.0 89 74 64 77 78 72 78 80 82 78
2130.0 79 89 99 88 90 94 78 77 83 84
2170.0 76 70 79 77 65 85 75 79 75 76
2210.0 80 79 77 84 85 82 83 84 65 64
2250.0 74 65 55 59 60 70 73 92 101 116
2290.0 123 145 155 150 167 182 157 155 172 171
2330.0 159 164 198 238 221 281 240 197 162 164
2370.0 129 154 172 171 151 118 110 109 100 99
2410.0 108 100 90 106 102 112 99 119 120 115
2450.0 115 123 124 105 112 104 90 92 101 85
2490.0 68 77 80 73 76 83 74 73 71 72
2530.0 66 65 67 67 58 75 74 59 60 42
2570.0 50 34 32 48 45 30 55 50 44 39
2610.0 51 55 28 37 37 29 45 42 29 21
2650.0 16 28 41 28 36 45 36 54 55 66
2690.0 68 64 80 89 76 91 94 100 102 123
2730.0 160 169 198 228 225 206 190 171 134 121
2770.0 116 124 114 116 115 117 135 154 167 168
2810.0 188 223 239 247 284 328 375 424 528 619
2850.0 700 863 1059 1279 1472 1637 1767 1838 1859 1842
2890.0 1848 1831 1858 1922 2020 2206 2490 2931 3458 4145
2930.0 4798 5182 5264 5126 4793 4157 3487 2967 2662 2489
2970.0 2466 2450 2420 2454 2498 2496 2622 2851 3196 3678
3010.0 4108 4499 4685 4678 4544 4280 3910 3549 3430 3427
3050.0 3442 3473 3454 3396 3307 3063 2691 2324 1997 1723
3090.0 1499 1300 1114 969 793 648 514 418 325 251
3130.0 218 197 163 160 126 129 115 105 111 94
3170.0 102 89 90 65 70 70 64 66 51 74
3210.0 44 40 67 59 48 32 49 44 34 38
3250.0 51 41 43 52 56 40 68 60 62 74
3290.0 70 57 58 55 50 60 56 61 61 42
3330.0 51 71 45 52 47 57 47 13 46 61
3370.0 48 38 62 28 35 71 82 50 61 75
3410.0 49 29 52 65 59 46 38 65 45 47
3450.0 72 58 65 56 57 42 47 70 67 53
3490.0 48 55 67 34 76 55 39 37 36 50
3530.0 11 48 47 49 64 63 80 42 50 72
3570.0 66 62 67 66 41 79 75 45 50 80
3610.0 85 79 51 59 70 84 57 68 73 58
3650.0 104 110 121 81 72 80 66 124 110 112
3690.0 87 117 109 90 88 106 119 120 123 112
3730.0 96 124 108 128 172 142 169 137 131 131
3770.0 115 105 107 105 89 98 110 132 150 149
3810.0 168 190 152 157 151 157 148 143 152 167
3850.0 146 178 186 161 144 162 158 167 171 153
3890.0 124 128 124 130 136 157 175 192 179 165
3930.0 168 161 159 165 156 149 156 158 170 197
##END=
