##TITLE=Benzene, bromo-
##JCAMP-DX=4.24
##DATA TYPE=INFRARED SPECTRUM
##ORIGIN=Sadtler Research Labs Under US-EPA Contract
##OWNER=NIST Standard Reference Data Program
##CAS REGISTRY NO=108-86-1
##MOLFORM=C 6 H 5 Br
##XUNITS=1/CM
##YUNITS=ABSORBANCE
##XFACTOR=1.0
##YFACTOR=0.000077951
##DELTAX=4.0
##FIRSTX=450.0
##LASTX=3966.0
##FIRSTY=0.071169
##MAXX=3966
##MINX=450
##MAXY=0.77951
##MINY=0
##NPOINTS=880
##XYDATA=(X++(Y..Y))
450.0 913 1288 1611 1045 749 836 469 432 197 266
490.0 95 154 118 114 96 66 177 45 113 81
530.0 150 62 126 119 58 112 105 161 88 152
570.0 87 142 98 110 89 0 101 113 121 81
610.0 173 83 209 200 240 230 277 288 238 294
650.0 303 534 644 1932 3307 4322 4457 5089 5589 4104
690.0 2719 2131 1917 1513 1408 1519 2227 3312 4718 5494
730.0 6275 10000 8158 6193 5714 4474 2940 1688 860 432
770.0 167 83 19 149 79 41 11 21 40 96
810.0 55 51 55 57 71 56 88 67 103 106
850.0 112 109 109 113 89 112 103 137 150 210
890.0 267 356 450 543 514 429 381 267 198 112
930.0 95 67 54 57 47 54 55 86 71 112
970.0 135 207 263 353 415 588 1097 1351 1268 1686
1010.0 1948 2685 3921 3501 3477 3197 1500 305 234 258
1050.0 413 613 1112 2291 4274 6254 5814 5933 4107 1311
1090.0 233 167 109 147 71 98 75 69 62 64
1130.0 73 54 73 58 72 42 51 39 40 50
1170.0 54 62 41 73 74 88 82 93 81 57
1210.0 65 77 121 155 189 179 186 160 130 129
1250.0 130 139 119 125 109 109 82 86 85 82
1290.0 98 103 119 122 161 168 193 203 176 171
1330.0 178 153 106 114 112 155 154 169 169 162
1370.0 147 121 128 109 114 88 85 65 74 101
1410.0 109 183 235 438 592 857 1035 1336 1373 1020
1450.0 1068 1151 909 998 2085 4611 7263 7191 6708 6771
1490.0 2535 472 183 90 115 112 88 120 63 120
1530.0 66 110 112 144 200 227 442 533 1013 1404
1570.0 2239 3157 4348 4961 4570 3873 2138 857 305 128
1610.0 93 101 82 131 111 215 190 200 171 152
1650.0 67 78 42 58 59 55 63 69 62 73
1690.0 73 88 75 104 105 142 157 186 208 209
1730.0 201 208 215 186 175 144 143 122 104 113
1770.0 119 176 253 326 327 349 306 242 150 127
1810.0 109 94 83 78 85 74 93 109 149 171
1850.0 227 270 274 279 334 369 356 324 267 219
1890.0 130 74 51 43 56 64 94 118 163 215
1930.0 266 286 281 314 367 365 324 281 234 179
1970.0 99 61 61 61 56 53 54 47 48 38
2010.0 38 33 33 35 33 38 33 37 30 32
2050.0 31 35 29 29 30 25 32 26 27 24
2090.0 26 19 23 27 23 26 22 25 23 23
2130.0 23 30 37 39 41 42 43 34 33 27
2170.0 27 25 26 26 25 29 27 29 25 29
2210.0 26 27 34 35 41 41 50 53 58 62
2250.0 62 58 56 53 48 48 46 47 38 39
2290.0 33 34 32 38 53 79 95 95 120 101
2330.0 96 82 67 72 56 48 77 61 48 33
2370.0 11 16 27 38 51 57 62 58 58 58
2410.0 56 53 49 47 41 33 26 30 29 34
2450.0 35 34 38 35 32 32 37 37 41 37
2490.0 39 38 37 41 41 41 43 42 38 40
2530.0 43 56 64 77 80 78 73 63 55 47
2570.0 48 51 57 62 67 71 71 75 71 72
2610.0 59 53 45 40 43 42 47 46 61 65
2650.0 71 67 61 53 33 15 10 7 6 11
2690.0 8 15 13 13 15 17 23 22 22 22
2730.0 25 26 30 29 30 29 27 34 39 47
2770.0 43 45 38 32 25 19 25 22 22 18
2810.0 25 26 31 34 35 33 33 35 38 39
2850.0 39 39 33 38 37 40 45 46 51 49
2890.0 50 49 40 31 40 43 50 49 45 49
2930.0 41 33 31 40 42 39 32 33 25 19
2970.0 27 37 49 59 79 104 138 187 230 289
3010.0 329 374 436 502 586 641 630 660 649 600
3050.0 663 826 1057 1270 1795 2819 3434 3588 3884 3538
3090.0 2537 1997 1691 1257 797 484 304 182 113 70
3130.0 56 40 45 42 42 50 58 53 56 59
3170.0 55 49 31 25 25 33 29 26 24 16
3210.0 22 17 16 16 18 22 23 24 27 27
3250.0 17 26 21 16 15 15 13 18 21 22
3290.0 26 21 24 17 19 14 21 18 14 17
3330.0 17 24 19 24 15 22 25 18 15 23
3370.0 24 19 23 22 18 22 18 16 16 19
3410.0 19 25 17 21 19 18 13 21 21 22
3450.0 23 26 29 27 39 39 53 41 42 43
3490.0 32 32 24 25 23 26 25 21 23 16
3530.0 21 17 9 15 22 15 15 15 19 18
3570.0 11 10 18 18 13 18 10 22 16 25
3610.0 16 26 24 17 34 16 26 34 29 32
3650.0 8 17 21 35 45 18 29 9 61 34
3690.0 49 49 72 62 69 69 45 43 49 26
3730.0 45 30 27 33 46 64 25 67 49 56
3770.0 55 53 51 33 27 26 26 40 16 25
3810.0 21 10 38 3 17 26 10 15 15 3
3850.0 42 6 6 19 13 6 23 19 15 31
3890.0 9 23 21 14 6 25 17 16 14 25
3930.0 24 11 32 22 30 25 26 15 23 24
##END=
