##TITLE=Toluene
##JCAMP-DX=4.24
##DATA TYPE=INFRARED SPECTRUM
##ORIGIN=Sadtler Research Labs Under US-EPA Contract
##OWNER=NIST Standard Reference Data Program
##CAS REGISTRY NO=108-88-3
##MOLFORM=C 7 H 8
##XUNITS=1/CM
##YUNITS=ABSORBANCE
##XFACTOR=1.0
##YFACTOR=0.000086737
##DELTAX=4.0
##FIRSTX=450.0
##LASTX=3966.0
##FIRSTY=0.107467
##MAXX=3966
##MINX=450
##MAXY=0.86737
##MINY=0
##NPOINTS=880
##XYDATA=(X++(Y..Y))
450.0 1239 1204 1342 1520 923 729 604 532 387 227
490.0 144 58 94 118 166 157 202 236 299 175
530.0 186 138 89 82 52 121 100 107 142 150
570.0 108 91 69 83 100 77 265 108 105 102
610.0 117 82 94 60 89 77 133 102 110 127
650.0 146 206 288 475 724 1123 1474 1827 2246 2285
690.0 3026 5054 2850 3704 4308 4895 5281 5547 6404 10000
730.0 9502 4897 4349 3974 3236 2241 1300 607 252 135
770.0 102 109 115 99 96 55 123 90 63 59
810.0 53 61 52 57 30 53 59 65 64 69
850.0 88 85 80 60 65 128 119 110 130 143
890.0 158 210 135 131 138 152 173 177 165 171
930.0 168 168 140 133 130 114 111 109 118 134
970.0 127 127 126 117 117 76 83 82 91 111
1010.0 166 287 486 641 634 709 609 666 698 563
1050.0 420 425 480 531 603 686 702 654 559 611
1090.0 622 547 450 337 272 260 235 192 132 114
1130.0 99 90 93 74 70 92 86 100 99 109
1170.0 100 105 107 97 96 109 131 142 149 157
1210.0 168 164 163 159 135 133 115 118 118 118
1250.0 124 106 86 78 65 73 65 69 67 78
1290.0 82 84 109 122 116 100 121 107 122 122
1330.0 114 114 96 131 146 156 176 190 214 260
1370.0 317 371 423 482 493 513 480 375 309 296
1410.0 275 298 304 385 388 449 493 642 774 863
1450.0 902 853 910 972 961 943 954 1072 1412 1969
1490.0 2367 2343 2622 2288 2357 2139 1493 963 707 664
1530.0 566 603 553 480 442 443 428 413 396 375
1570.0 418 435 451 447 553 700 938 1131 1260 1337
1610.0 1310 1198 1055 856 605 431 260 163 106 111
1650.0 53 82 65 76 83 93 51 82 63 80
1690.0 78 83 63 66 77 91 101 115 134 143
1730.0 126 124 136 124 91 74 68 69 83 100
1770.0 109 152 194 238 309 333 348 350 334 306
1810.0 294 208 177 147 142 141 167 201 236 280
1850.0 289 298 338 379 343 276 240 209 175 111
1890.0 86 72 70 73 77 82 113 144 192 262
1930.0 330 345 350 379 447 408 327 267 206 159
1970.0 108 70 58 49 53 39 39 47 48 41
2010.0 40 31 30 25 26 26 27 34 20 30
2050.0 30 22 14 20 17 26 18 14 19 14
2090.0 5 10 13 13 9 9 9 7 18 5
2130.0 6 13 0 6 11 20 24 34 25 35
2170.0 35 34 38 30 28 23 31 28 25 23
2210.0 19 16 16 24 17 25 23 23 35 30
2250.0 38 34 34 39 40 41 51 44 41 45
2290.0 48 49 51 57 72 67 74 73 91 91
2330.0 74 68 65 66 72 70 66 89 69 52
2370.0 67 53 58 48 42 50 49 49 53 61
2410.0 60 55 63 64 58 49 48 44 40 38
2450.0 38 38 43 39 43 39 31 42 30 42
2490.0 41 39 47 51 40 47 47 40 47 55
2530.0 45 41 44 43 42 48 48 41 47 48
2570.0 55 67 73 69 80 80 84 98 92 77
2610.0 69 67 63 63 57 42 50 43 43 43
2650.0 41 39 42 39 47 31 39 32 34 31
2690.0 32 34 35 42 40 49 47 50 61 76
2730.0 105 131 150 157 185 182 179 146 109 93
2770.0 82 75 80 92 86 93 97 109 111 118
2810.0 136 143 164 189 199 221 260 292 339 382
2850.0 479 579 722 893 1107 1336 1569 1744 1835 1798
2890.0 1791 1738 1652 1561 1543 1624 1834 2168 2587 2945
2930.0 3090 3213 3195 3088 2836 2410 1969 1659 1431 1248
2970.0 1109 1056 1126 1163 1211 1170 1244 1428 1655 1966
3010.0 2288 2773 3427 4254 5047 5551 5587 5613 5753 5693
3050.0 5111 4365 3911 3752 3761 3875 4072 3935 3957 3549
3090.0 3029 2542 2297 2078 1701 1342 1071 855 658 523
3130.0 393 281 190 135 109 97 88 77 90 91
3170.0 80 60 77 72 63 44 45 43 45 34
3210.0 28 28 42 35 49 39 45 51 59 52
3250.0 33 41 41 42 36 50 50 36 43 48
3290.0 30 41 33 31 52 30 31 31 32 32
3330.0 44 45 41 51 40 35 50 42 33 44
3370.0 43 41 33 51 45 40 41 55 32 31
3410.0 40 45 65 40 36 41 66 22 47 60
3450.0 38 40 42 28 33 42 40 27 32 22
3490.0 28 28 35 23 34 35 20 36 39 31
3530.0 41 50 34 36 42 39 42 38 48 43
3570.0 60 41 53 39 32 45 53 50 68 40
3610.0 36 51 47 50 28 70 65 43 57 65
3650.0 86 63 56 60 66 83 64 60 53 47
3690.0 60 53 63 60 51 52 52 36 58 56
3730.0 45 57 64 44 49 22 36 30 50 34
3770.0 42 47 48 57 61 75 58 67 68 75
3810.0 59 67 55 66 75 61 78 97 69 92
3850.0 83 63 70 84 65 66 74 68 67 73
3890.0 68 60 53 52 55 68 73 76 77 77
3930.0 75 70 70 64 57 56 53 59 55 61
##END=
