##TITLE=Cyclohexane, bromo-
##JCAMP-DX=4.24
##DATA TYPE=INFRARED SPECTRUM
##ORIGIN=Sadtler Research Labs Under US-EPA Contract
##OWNER=NIST Standard Reference Data Program
##CAS REGISTRY NO=108-85-0
##MOLFORM=C 6 H 11 Br
##XUNITS=1/CM
##YUNITS=ABSORBANCE
##XFACTOR=1.0
##YFACTOR=0.000061298
##DELTAX=4.0
##FIRSTX=450.0
##LASTX=3966.0
##FIRSTY=0.052593
##MAXX=3966
##MINX=450
##MAXY=0.61298
##MINY=0
##NPOINTS=880
##XYDATA=(X++(Y..Y))
450.0 858 297 58 739 644 555 250 558 448 491
490.0 61 322 303 574 522 463 482 504 424 429
530.0 371 381 23 352 431 544 395 343 448 93
570.0 148 125 126 426 270 272 271 238 230 261
610.0 240 293 240 254 250 258 277 269 242 260
650.0 315 393 472 485 481 346 290 367 546 940
690.0 1324 1465 1514 1365 709 342 266 308 287 220
730.0 224 218 220 205 210 225 220 236 204 170
770.0 13 124 314 261 219 316 219 358 482 630
810.0 636 648 669 536 162 265 287 334 350 426
850.0 457 594 532 502 433 362 375 482 625 660
890.0 612 457 307 259 233 254 246 249 250 241
930.0 252 231 208 191 199 217 178 251 112 288
970.0 358 339 479 644 809 810 832 695 544 376
1010.0 413 513 443 422 365 306 302 266 244 219
1050.0 236 210 216 211 234 231 247 269 294 322
1090.0 325 330 313 286 280 342 414 450 435 411
1130.0 328 263 252 237 231 218 217 214 221 222
1170.0 238 284 372 612 1099 1491 1504 1483 1248 619
1210.0 338 264 241 226 216 223 230 287 416 723
1250.0 1120 1458 1544 1511 1298 762 413 315 245 219
1290.0 189 209 203 217 232 235 246 246 258 283
1330.0 377 482 546 597 630 479 365 320 268 234
1370.0 203 196 174 179 173 176 163 169 167 173
1410.0 172 198 201 258 308 391 495 676 897 1128
1450.0 1322 1457 1492 1235 963 752 489 350 266 215
1490.0 176 167 170 142 154 127 119 136 138 125
1530.0 133 116 156 126 116 118 140 141 145 125
1570.0 145 128 147 125 143 125 125 116 113 124
1610.0 126 118 133 113 124 100 125 109 116 114
1650.0 134 121 134 111 117 107 120 91 120 120
1690.0 119 108 127 99 105 101 98 97 103 103
1730.0 92 99 98 86 90 88 96 101 102 105
1770.0 96 103 93 88 82 102 95 92 84 98
1810.0 99 87 96 85 83 80 90 81 84 71
1850.0 84 88 85 81 90 83 83 97 82 88
1890.0 85 82 86 83 83 77 73 81 62 73
1930.0 84 70 73 78 88 94 97 101 91 96
1970.0 89 85 87 83 82 67 67 63 68 57
2010.0 54 49 49 48 51 51 48 46 39 44
2050.0 50 59 63 66 72 76 73 70 68 70
2090.0 73 66 66 66 60 61 63 59 62 60
2130.0 59 59 58 65 60 58 60 66 63 69
2170.0 67 61 64 67 69 56 56 50 49 57
2210.0 47 51 53 50 56 51 48 48 48 46
2250.0 43 48 37 43 39 34 32 31 34 28
2290.0 28 31 22 29 31 33 39 38 52 38
2330.0 41 41 33 5 0 3 22 13 0 0
2370.0 0 0 0 0 0 0 0 9 11 0
2410.0 7 4 6 5 7 12 13 8 8 6
2450.0 7 7 5 10 18 21 27 29 28 24
2490.0 22 18 10 15 10 10 12 14 17 18
2530.0 22 21 15 24 26 26 26 32 39 38
2570.0 37 31 25 32 31 31 30 28 30 26
2610.0 29 19 20 19 17 22 35 44 54 71
2650.0 86 106 112 122 132 124 131 124 118 118
2690.0 98 89 67 53 47 38 36 20 18 12
2730.0 9 15 12 18 13 16 26 29 35 38
2770.0 46 59 63 80 86 98 119 123 131 134
2810.0 141 129 140 131 147 185 259 372 505 703
2850.0 980 1460 2025 2645 2985 3055 2768 2211 1698 1359
2890.0 1171 1092 1068 1041 1052 1129 1341 1661 2138 2911
2930.0 3981 5415 7388 9296 9563 10000 8900 6409 5142 4010
2970.0 2497 1776 1278 828 522 347 220 127 101 62
3010.0 58 51 55 45 56 52 61 58 60 57
3050.0 54 64 73 69 63 72 48 53 41 45
3090.0 35 34 44 49 29 37 38 25 37 39
3130.0 29 32 30 24 22 33 29 43 48 61
3170.0 57 59 60 55 51 57 55 70 49 31
3210.0 31 50 51 30 43 36 33 47 43 30
3250.0 54 63 65 59 53 53 57 50 72 51
3290.0 49 50 38 39 50 34 15 26 24 7
3330.0 16 19 19 38 46 42 47 59 55 59
3370.0 52 50 80 58 55 66 66 47 40 26
3410.0 42 36 37 64 55 85 67 49 42 65
3450.0 63 38 57 62 45 63 39 35 36 25
3490.0 56 54 48 34 31 56 46 43 33 14
3530.0 19 17 31 49 38 40 32 65 49 30
3570.0 41 39 57 31 54 69 50 28 74 41
3610.0 46 40 57 74 85 56 3 45 66 63
3650.0 15 37 55 59 73 41 46 18 67 37
3690.0 61 35 30 43 91 68 45 67 32 40
3730.0 37 100 44 62 53 61 30 46 59 20
3770.0 104 70 77 55 40 56 46 23 94 50
3810.0 97 70 67 39 79 109 85 83 43 109
3850.0 111 99 73 40 64 70 79 59 51 74
3890.0 89 89 126 16 61 86 2 8 108 18
3930.0 16 77 89 66 183 138 159 113 95 126
##END=
