##TITLE=Acetic acid ethenyl ester
##JCAMP-DX=4.24
##DATA TYPE=INFRARED SPECTRUM
##ORIGIN=Sadtler Research Labs Under US-EPA Contract
##OWNER=NIST Standard Reference Data Program
##CAS REGISTRY NO=108-05-4
##MOLFORM=C 4 H 6 O 2
##XUNITS=1/CM
##YUNITS=ABSORBANCE
##XFACTOR=1.0
##YFACTOR=0.000080130
##DELTAX=4.0
##FIRSTX=450.0
##LASTX=3966.0
##FIRSTY=0.009455
##MAXX=3966
##MINX=450
##MAXY=0.8013
##MINY=0
##NPOINTS=880
##XYDATA=(X++(Y..Y))
450.0 118 169 128 106 86 79 69 60 58 70
490.0 54 89 83 126 28 1 11 62 69 65
530.0 66 69 76 47 100 55 89 92 55 102
570.0 105 123 135 113 164 175 243 218 216 218
610.0 224 233 218 224 231 216 185 169 160 132
650.0 120 90 69 41 17 31 28 22 13 20
690.0 21 35 39 32 37 35 39 42 35 34
730.0 29 34 42 33 29 41 28 32 46 42
770.0 42 41 42 47 42 53 47 57 59 65
810.0 69 82 105 120 169 207 252 332 378 421
850.0 474 542 615 624 648 796 867 699 575 536
890.0 491 415 345 263 209 182 174 203 242 288
930.0 344 389 427 497 559 582 601 575 528 544
970.0 538 503 495 519 513 495 508 591 734 922
1010.0 1099 1223 1260 1230 1183 1069 918 696 502 398
1050.0 354 323 311 306 310 313 309 310 307 296
1090.0 281 270 270 270 276 297 356 476 711 1168
1130.0 1916 2814 3356 3274 3312 3251 3168 2371 1280 642
1170.0 456 472 585 774 1095 1619 2442 3670 5300 7148
1210.0 8996 10000 9748 9323 8703 7444 5606 3468 2034 1346
1250.0 1034 870 757 664 494 357 306 325 416 533
1290.0 593 598 601 583 576 464 318 215 159 130
1330.0 123 118 114 127 170 243 366 565 873 1187
1370.0 1403 1533 1579 1613 1439 1067 721 445 276 190
1410.0 143 132 132 122 134 149 152 138 132 136
1450.0 133 135 114 105 103 104 90 84 88 91
1490.0 76 76 77 69 78 48 58 64 57 59
1530.0 59 61 65 61 64 74 82 83 84 98
1570.0 98 117 124 129 140 151 152 157 170 176
1610.0 195 218 245 305 402 581 835 1220 1544 1675
1650.0 1632 1677 1607 1514 907 437 222 145 113 91
1690.0 87 83 77 78 80 83 90 88 104 128
1730.0 153 194 256 358 527 746 1052 1456 2015 2834
1770.0 3839 4589 4439 3821 3975 4960 4517 3272 2196 1506
1810.0 1044 682 425 270 175 139 124 116 114 108
1850.0 121 123 123 123 121 112 110 104 96 86
1890.0 76 70 65 57 50 38 37 30 25 19
1930.0 26 26 28 31 25 30 32 32 27 32
1970.0 38 39 45 51 56 63 60 57 57 46
2010.0 34 33 38 32 40 39 40 51 57 66
2050.0 79 88 93 100 100 95 82 70 51 45
2090.0 38 39 26 31 34 34 33 33 28 27
2130.0 34 27 21 27 22 30 24 21 25 24
2170.0 22 22 16 16 15 9 11 12 16 16
2210.0 16 20 20 22 22 22 23 23 22 17
2250.0 17 17 17 19 23 26 35 42 41 42
2290.0 44 45 32 26 21 21 17 19 24 23
2330.0 25 12 18 26 19 24 19 22 14 12
2370.0 7 6 7 8 14 12 13 17 17 18
2410.0 18 24 24 24 32 24 24 27 25 24
2450.0 20 12 19 13 7 13 7 12 10 7
2490.0 4 6 6 6 6 7 6 6 6 1
2530.0 1 3 7 8 8 1 8 2 8 8
2570.0 7 8 8 9 8 10 15 10 9 7
2610.0 9 8 7 14 14 13 16 7 8 8
2650.0 8 15 11 14 14 8 8 9 8 8
2690.0 8 7 5 8 5 3 3 10 10 10
2730.0 9 9 16 15 21 16 16 15 15 22
2770.0 22 15 21 15 15 17 18 16 19 15
2810.0 12 14 10 13 15 11 16 16 17 17
2850.0 16 23 16 16 16 16 20 15 16 11
2890.0 18 18 12 11 17 14 17 17 17 23
2930.0 29 36 41 54 54 55 55 60 67 64
2970.0 58 51 52 49 54 54 61 61 54 60
3010.0 55 55 62 61 71 74 77 91 97 104
3050.0 104 104 105 104 111 111 110 110 119 141
3090.0 168 177 179 172 165 171 140 122 117 105
3130.0 97 103 99 92 73 53 38 27 27 27
3170.0 20 15 15 15 15 8 12 10 20 15
3210.0 8 8 9 15 15 8 8 9 6 10
3250.0 9 9 8 8 10 10 9 9 9 9
3290.0 9 14 10 9 12 10 3 10 9 9
3330.0 10 10 11 16 14 10 10 9 9 11
3370.0 11 16 10 10 10 11 11 13 10 10
3410.0 11 11 12 10 10 10 10 10 11 12
3450.0 12 11 12 12 8 11 6 12 11 12
3490.0 11 11 17 12 12 12 12 15 17 31
3530.0 35 48 48 55 48 55 59 50 44 25
3570.0 19 12 12 13 14 1 7 6 1 6
3610.0 7 9 7 4 3 8 0 7 19 2
3650.0 7 13 13 7 14 11 14 11 7 14
3690.0 15 6 8 13 7 7 7 12 12 12
3730.0 11 7 7 8 9 4 2 8 1 8
3770.0 8 6 6 6 6 6 6 6 10 4
3810.0 5 10 10 5 3 3 3 3 3 3
3850.0 3 6 15 8 3 3 1 3 1 1
3890.0 3 2 2 10 2 1 8 15 9 14
3930.0 9 9 14 14 15 15 15 15 22 22
##END=
