##TITLE=Propylene Carbonate
##JCAMP-DX=4.24
##DATA TYPE=INFRARED SPECTRUM
##ORIGIN=Sadtler Research Labs Under US-EPA Contract
##OWNER=NIST Standard Reference Data Program
##CAS REGISTRY NO=108-32-7
##MOLFORM=C 4 H 6 O 3
##XUNITS=1/CM
##YUNITS=ABSORBANCE
##XFACTOR=1.0
##YFACTOR=0.000147092
##DELTAX=4.0
##FIRSTX=450.0
##LASTX=3966.0
##FIRSTY=0.000000
##MAXX=3966
##MINX=450
##MAXY=1.47092
##MINY=0
##NPOINTS=880
##XYDATA=(X++(Y..Y))
450.0 0 107 134 196 79 160 98 118 126 114
490.0 82 36 89 107 125 216 54 35 160 82
530.0 121 111 50 103 64 81 135 190 188 163
570.0 100 132 113 127 142 133 88 98 146 122
610.0 132 109 135 133 65 128 127 118 115 122
650.0 105 104 114 137 114 101 134 139 161 143
690.0 140 124 161 188 139 179 147 107 146 136
730.0 142 96 106 185 248 186 330 300 320 453
770.0 619 504 404 375 312 321 272 174 136 122
810.0 121 122 134 113 66 75 122 115 100 101
850.0 117 111 118 92 96 118 139 168 178 203
890.0 244 273 283 280 270 289 259 252 249 227
930.0 233 276 281 299 341 396 405 408 392 373
970.0 347 302 250 206 186 172 182 196 202 220
1010.0 250 263 294 339 421 550 752 976 1254 1577
1050.0 1876 2172 2396 2524 2558 2513 2414 2276 2222 2216
1090.0 2300 2698 3208 3699 3996 4126 4011 3948 3634 2967
1130.0 2391 2094 2014 2078 2135 2165 2080 1930 1766 1565
1170.0 1335 1120 892 699 554 470 373 321 293 290
1210.0 279 288 276 264 261 253 228 221 202 188
1250.0 180 173 163 163 148 157 138 142 140 133
1290.0 132 131 143 148 166 192 217 255 306 378
1330.0 464 577 720 826 823 762 701 642 575 515
1370.0 502 531 582 618 637 670 639 571 462 360
1410.0 264 193 172 147 147 146 155 168 174 184
1450.0 200 201 192 191 194 197 200 218 227 228
1490.0 216 206 193 174 153 123 137 121 134 151
1530.0 171 181 178 163 169 159 122 107 71 83
1570.0 78 71 78 65 73 64 65 74 69 73
1610.0 72 70 73 79 85 82 99 96 100 113
1650.0 98 105 101 109 100 91 94 95 102 95
1690.0 105 107 106 108 121 126 124 117 121 127
1730.0 120 127 120 129 136 141 151 158 167 182
1770.0 194 214 238 270 304 336 389 443 520 590
1810.0 682 796 937 1132 1412 1801 2360 3170 4315 5960
1850.0 7513 8945 9898 9712 10000 9143 7948 6037 3893 2469
1890.0 1605 1101 808 616 500 418 368 336 310 295
1930.0 280 269 263 246 227 214 202 189 177 169
1970.0 161 155 152 148 148 148 148 145 145 148
2010.0 144 142 143 134 124 121 111 107 100 93
2050.0 91 84 80 78 75 72 68 66 63 64
2090.0 61 65 65 61 63 62 62 63 62 59
2130.0 62 63 65 61 61 61 64 69 70 74
2170.0 75 74 76 79 83 87 90 99 107 113
2210.0 118 118 118 118 115 113 111 111 115 117
2250.0 118 120 122 125 120 115 104 101 95 91
2290.0 88 85 85 88 88 90 84 79 79 76
2330.0 71 62 61 61 76 75 75 68 68 69
2370.0 60 59 63 63 54 46 42 42 42 44
2410.0 44 43 45 47 48 49 50 51 51 51
2450.0 52 52 51 50 47 48 48 50 53 53
2490.0 56 54 56 58 57 56 51 51 51 50
2530.0 50 50 47 47 49 50 49 53 55 56
2570.0 53 54 52 48 47 42 42 39 39 38
2610.0 38 36 33 39 39 35 38 38 38 38
2650.0 41 39 36 34 34 34 38 34 38 39
2690.0 37 38 39 41 39 41 43 40 40 41
2730.0 39 41 43 45 47 50 53 50 48 49
2770.0 47 43 40 37 33 28 28 31 31 34
2810.0 34 37 39 44 44 49 51 48 45 43
2850.0 40 36 36 44 58 76 87 98 115 133
2890.0 157 190 231 285 333 368 382 386 398 406
2930.0 416 423 412 421 416 402 394 384 385 416
2970.0 476 582 679 779 912 938 890 874 811 682
3010.0 544 414 308 220 154 113 87 69 60 56
3050.0 50 47 45 46 43 42 39 38 40 37
3090.0 35 36 33 32 35 36 40 34 34 37
3130.0 35 38 40 36 39 43 42 41 40 41
3170.0 40 40 42 41 39 40 38 40 39 41
3210.0 41 40 38 36 41 39 40 42 38 36
3250.0 36 37 35 37 39 39 37 41 38 38
3290.0 33 38 41 38 35 36 37 36 37 32
3330.0 35 33 37 37 38 43 35 37 36 39
3370.0 39 38 46 37 32 34 39 40 39 36
3410.0 39 36 37 41 40 36 39 37 37 28
3450.0 35 31 32 36 36 37 39 36 33 37
3490.0 36 34 37 34 29 39 39 39 33 35
3530.0 34 35 32 36 36 38 33 38 39 35
3570.0 42 42 33 39 35 45 42 40 43 41
3610.0 40 44 46 43 40 38 43 51 48 42
3650.0 55 47 63 59 69 54 63 71 82 89
3690.0 80 98 112 104 108 96 95 93 65 60
3730.0 60 47 42 39 32 30 39 36 38 35
3770.0 44 44 46 53 47 55 43 43 48 28
3810.0 50 33 55 48 52 43 40 43 42 37
3850.0 31 40 37 47 50 44 36 53 67 62
3890.0 62 67 58 57 55 55 57 44 46 56
3930.0 59 53 37 33 43 39 55 42 51 37
##END=
