##TITLE=1-Propen-2-ol, acetate
##JCAMP-DX=4.24
##DATA TYPE=INFRARED SPECTRUM
##ORIGIN=Sadtler Research Labs Under US-EPA Contract
##OWNER=NIST Standard Reference Data Program
##CAS REGISTRY NO=108-22-5
##MOLFORM=C 5 H 8 O 2
##XUNITS=1/CM
##YUNITS=ABSORBANCE
##XFACTOR=1.0
##YFACTOR=0.000070660
##DELTAX=4.0
##FIRSTX=450.0
##LASTX=3966.0
##FIRSTY=0.022823
##MAXX=3966
##MINX=450
##MAXY=0.7066
##MINY=0
##NPOINTS=880
##XYDATA=(X++(Y..Y))
450.0 323 318 328 294 275 324 316 353 336 355
490.0 329 375 341 312 307 318 282 289 222 264
530.0 353 418 333 194 210 247 357 270 211 250
570.0 287 265 263 408 299 383 447 412 404 386
610.0 344 316 333 356 389 366 331 339 448 273
650.0 291 352 324 203 140 150 157 130 179 112
690.0 109 97 98 88 65 47 54 57 42 20
730.0 37 16 5 13 10 14 20 13 41 35
770.0 14 27 27 15 10 40 34 54 48 46
810.0 84 102 130 135 220 228 206 224 229 267
850.0 298 392 497 588 686 743 646 605 568 580
890.0 566 539 487 431 369 294 209 156 117 104
930.0 98 98 112 141 170 227 267 336 361 403
970.0 427 447 439 441 475 539 596 674 739 810
1010.0 859 930 1001 1009 1001 972 904 820 718 589
1050.0 525 477 473 466 465 482 491 514 518 500
1090.0 474 441 390 340 347 298 278 302 318 336
1130.0 362 394 449 518 604 695 796 917 1075 1229
1170.0 1457 1755 2241 2970 4125 5721 7449 8992 9813 10000
1210.0 9447 8275 6463 4421 2980 2195 1761 1500 1285 1131
1250.0 993 901 822 757 693 594 536 478 419 382
1290.0 339 319 291 271 250 225 213 194 177 177
1330.0 179 203 239 288 351 448 600 825 1154 1507
1370.0 1749 1875 1891 1754 1521 1097 779 607 518 467
1410.0 414 390 397 373 402 406 447 441 439 449
1450.0 433 433 375 324 282 244 205 172 156 147
1490.0 137 129 120 123 137 125 113 128 115 110
1530.0 131 128 131 117 119 113 117 107 91 96
1570.0 97 111 98 95 99 108 107 102 94 95
1610.0 89 103 98 108 120 137 169 200 261 320
1650.0 427 504 645 756 870 917 925 878 804 660
1690.0 549 438 382 353 357 383 421 436 479 529
1730.0 614 685 796 912 1115 1400 1803 2330 2959 3613
1770.0 4195 4635 4748 4466 4022 3513 3092 2705 2165 1735
1810.0 1348 973 667 452 318 247 203 168 154 141
1850.0 130 106 107 93 75 68 51 50 53 49
1890.0 51 49 52 49 51 52 52 51 54 59
1930.0 49 36 33 29 16 16 15 15 15 17
1970.0 22 16 16 15 17 16 16 27 25 29
2010.0 39 36 50 56 56 49 55 50 39 41
2050.0 28 21 21 21 23 21 29 20 22 14
2090.0 14 20 22 17 14 14 14 14 14 14
2130.0 14 13 7 7 14 8 5 6 15 6
2170.0 7 12 0 0 6 0 12 8 5 17
2210.0 13 13 13 14 14 14 15 15 8 8
2250.0 9 9 15 17 17 17 18 14 21 24
2290.0 26 31 35 37 41 47 46 38 36 30
2330.0 32 39 16 33 46 76 81 70 34 38
2370.0 39 50 46 49 42 36 31 25 18 18
2410.0 18 18 18 24 19 22 26 22 25 28
2450.0 33 33 34 26 27 21 20 35 21 26
2490.0 31 29 26 20 27 21 21 20 27 29
2530.0 19 28 30 25 29 26 28 30 28 28
2570.0 29 21 30 35 32 35 30 30 22 28
2610.0 22 22 22 22 22 23 23 15 24 27
2650.0 23 23 23 24 24 30 37 37 37 38
2690.0 40 35 34 42 47 38 39 39 37 46
2730.0 46 45 45 39 39 42 43 35 40 40
2770.0 40 46 39 40 47 46 48 38 40 48
2810.0 51 56 68 76 77 53 76 88 89 89
2850.0 88 98 102 111 105 114 124 111 112 117
2890.0 125 131 125 131 142 156 172 198 225 260
2930.0 286 322 331 346 352 332 325 303 283 292
2970.0 299 288 292 309 348 386 402 415 381 346
3010.0 332 262 224 195 180 181 189 196 168 160
3050.0 155 153 153 141 146 140 147 128 133 129
3090.0 127 122 119 126 126 120 155 172 167 164
3130.0 159 160 134 98 87 71 71 65 52 66
3170.0 43 39 59 49 33 46 49 39 42 38
3210.0 39 45 30 45 38 36 41 37 46 45
3250.0 41 49 62 35 38 58 38 53 37 33
3290.0 37 50 19 36 47 38 39 50 54 39
3330.0 25 31 33 39 30 51 46 30 34 32
3370.0 31 52 33 33 18 26 32 37 34 34
3410.0 45 50 33 31 32 46 32 46 34 31
3450.0 46 46 47 36 28 41 32 26 45 47
3490.0 32 33 39 21 61 49 60 30 48 47
3530.0 63 82 100 116 109 95 128 176 188 210
3570.0 208 195 205 280 200 168 206 218 183 167
3610.0 98 71 70 76 24 48 23 32 29 33
3650.0 6 12 14 27 33 25 26 23 63 42
3690.0 32 33 33 45 47 39 34 40 32 39
3730.0 66 60 62 50 35 44 51 49 34 27
3770.0 24 23 24 51 50 64 53 37 29 36
3810.0 69 49 47 57 23 28 34 52 43 60
3850.0 73 68 50 32 34 53 42 32 33 34
3890.0 44 53 80 99 69 33 46 42 31 32
3930.0 49 50 40 34 50 60 54 57 59 53
##END=
