##TITLE=Pyridine, 3-methyl-
##JCAMP-DX=4.24
##DATA TYPE=INFRARED SPECTRUM
##ORIGIN=Sadtler Research Labs Under US-EPA Contract
##OWNER=NIST Standard Reference Data Program
##CAS REGISTRY NO=108-99-6
##MOLFORM=C 6 H 7 N
##XUNITS=1/CM
##YUNITS=ABSORBANCE
##XFACTOR=1.0
##YFACTOR=0.000057965
##DELTAX=4.0
##FIRSTX=450.0
##LASTX=3966.0
##FIRSTY=0.036112
##MAXX=3966
##MINX=450
##MAXY=0.57965
##MINY=0
##NPOINTS=880
##XYDATA=(X++(Y..Y))
450.0 623 301 123 313 170 112 304 0 194 259
490.0 14 388 365 129 108 162 352 116 260 229
530.0 327 197 75 193 338 99 157 138 57 143
570.0 148 178 137 153 293 156 223 120 238 348
610.0 377 688 1026 1233 1217 933 1489 1608 1252 779
650.0 530 400 354 160 156 311 404 668 1214 2078
690.0 2911 3602 3926 4701 6880 10000 5034 4130 4370 3841
730.0 3151 2027 1613 1231 808 779 1252 1767 2474 2977
770.0 3613 3838 5206 9139 5520 4592 4118 3496 2875 2169
810.0 1489 980 644 394 214 184 224 214 103 163
850.0 131 199 138 125 131 137 191 134 135 98
890.0 115 183 195 164 175 146 247 241 239 149
930.0 180 176 180 187 187 166 255 278 353 451
970.0 554 613 629 605 591 587 545 499 545 795
1010.0 1236 1939 2800 3180 2587 2440 3305 3378 2293 1682
1050.0 1277 1021 828 685 608 548 586 644 751 905
1090.0 1024 1125 1059 1153 1399 1489 1684 1621 1222 1108
1130.0 1211 1185 904 656 482 387 336 313 304 423
1170.0 556 951 1576 1841 1922 1969 1889 1986 1952 1172
1210.0 673 602 578 575 601 670 657 587 491 438
1250.0 423 377 311 243 229 177 169 154 140 160
1290.0 164 176 186 203 215 254 309 348 355 402
1330.0 431 447 508 475 474 491 543 572 701 759
1370.0 826 1020 1129 1258 1358 1501 1795 2406 2836 3436
1410.0 4095 4738 5209 5251 5170 4650 4250 3689 2939 2623
1450.0 2340 2283 2628 2971 4065 5035 4655 5197 4478 4628
1490.0 4233 3203 1715 1196 1034 977 836 759 777 681
1530.0 662 758 744 886 1091 1235 1651 2052 2586 3251
1570.0 3512 3801 3859 3999 4155 3792 3058 2115 1735 1414
1610.0 1040 940 685 546 412 315 312 296 272 265
1650.0 272 266 229 206 238 219 216 229 265 323
1690.0 314 341 395 458 470 460 464 459 370 319
1730.0 303 264 229 189 236 211 199 172 168 165
1770.0 158 143 118 128 128 112 149 134 161 146
1810.0 127 186 184 240 268 282 290 284 335 374
1850.0 358 329 340 333 333 365 369 417 490 575
1890.0 658 736 789 839 799 713 604 541 437 293
1930.0 227 205 213 245 278 270 264 273 270 268
1970.0 206 149 130 106 106 103 98 83 75 84
2010.0 72 75 96 88 81 76 69 66 69 63
2050.0 50 50 51 46 54 51 42 45 43 43
2090.0 34 31 32 21 29 29 29 33 30 32
2130.0 31 35 43 42 41 37 40 46 50 47
2170.0 55 63 69 74 90 86 83 94 94 89
2210.0 85 88 98 90 87 85 86 94 101 98
2250.0 88 94 100 90 87 74 67 54 44 30
2290.0 33 21 29 26 35 25 27 33 40 49
2330.0 48 35 77 64 84 90 97 109 98 105
2370.0 116 116 92 93 96 89 79 80 73 67
2410.0 67 73 74 81 87 101 107 115 125 134
2450.0 140 145 146 134 127 118 107 96 89 75
2490.0 71 68 67 67 63 72 69 64 62 59
2530.0 59 57 55 52 54 60 61 61 61 64
2570.0 79 72 77 76 85 88 94 106 113 121
2610.0 136 139 139 132 128 116 94 88 79 65
2650.0 70 66 62 64 53 54 63 67 73 63
2690.0 64 62 60 62 65 73 70 70 86 85
2730.0 105 128 178 215 254 265 293 279 291 212
2770.0 153 119 109 118 123 142 162 186 213 245
2810.0 268 282 283 295 308 316 329 362 435 511
2850.0 653 811 1015 1267 1568 1920 2268 2477 2612 2677
2890.0 2667 2656 2548 2439 2424 2580 2850 3270 3837 4312
2930.0 4694 4912 4932 4888 4615 4134 3613 3110 2890 2873
2970.0 2630 2592 2740 2889 3297 3944 4601 5110 5537 6025
3010.0 6551 7063 7537 8111 8769 9103 9208 9053 8962 9071
3050.0 8651 7613 6579 5747 5432 5182 4602 3921 3662 3423
3090.0 3106 2923 2816 2566 1905 1201 761 512 378 280
3130.0 246 258 246 252 246 237 217 216 207 206
3170.0 166 157 147 139 140 131 119 101 94 87
3210.0 86 69 62 60 64 59 67 70 64 69
3250.0 67 63 61 58 71 51 56 45 44 56
3290.0 45 50 53 41 57 59 52 53 48 60
3330.0 67 66 61 57 72 75 82 81 70 64
3370.0 47 62 59 58 67 42 66 54 54 53
3410.0 56 67 58 62 82 60 55 61 64 45
3450.0 43 46 44 61 65 59 47 50 54 65
3490.0 33 57 41 62 55 60 56 42 37 53
3530.0 52 40 50 45 75 71 57 40 52 96
3570.0 83 46 52 35 67 49 85 38 64 35
3610.0 77 61 69 51 41 60 61 40 40 51
3650.0 67 76 51 73 31 59 37 81 54 69
3690.0 47 53 39 71 48 59 82 72 50 77
3730.0 24 68 110 69 64 32 42 44 44 51
3770.0 21 51 42 54 42 37 61 78 72 84
3810.0 88 77 45 111 71 64 83 48 87 70
3850.0 69 63 163 79 76 123 54 124 163 182
3890.0 83 106 135 130 158 115 110 189 130 71
3930.0 77 121 152 142 161 119 69 34 99 37
##END=
