##TITLE=Resorcinol
##JCAMP-DX=4.24
##DATA TYPE=INFRARED SPECTRUM
##ORIGIN=Sadtler Research Labs Under US-EPA Contract
##OWNER=NIST Standard Reference Data Program
##CAS REGISTRY NO=108-46-3
##MOLFORM=C 6 H 6 O 2
##XUNITS=1/CM
##YUNITS=ABSORBANCE
##XFACTOR=1.0
##YFACTOR=0.000070706
##DELTAX=4.0
##FIRSTX=450.0
##LASTX=3966.0
##FIRSTY=0.000000
##MAXX=3966
##MINX=450
##MAXY=0.70706
##MINY=0
##NPOINTS=880
##XYDATA=(X++(Y..Y))
450.0 0 318 364 523 750 729 586 664 606 456
490.0 347 239 177 207 267 384 375 389 397 448
530.0 456 407 422 484 470 433 396 342 270 264
570.0 218 210 197 195 226 262 287 311 327 340
610.0 328 299 264 216 172 127 105 107 97 130
650.0 186 319 524 723 915 880 1454 2541 1328 979
690.0 925 685 489 268 163 115 125 145 218 313
730.0 434 615 795 924 1219 1563 1725 1946 1761 1497
770.0 1282 1003 764 538 396 289 287 293 350 392
810.0 585 830 839 828 949 1172 1436 1278 1027 1010
850.0 944 945 849 597 476 431 373 321 288 280
890.0 280 286 300 307 312 309 318 320 317 343
930.0 424 659 1161 1995 2922 3378 3648 3636 3386 2817
970.0 1664 779 442 330 314 296 293 265 246 258
1010.0 225 193 174 177 165 164 183 210 248 302
1050.0 369 467 610 761 845 879 908 889 840 727
1090.0 618 575 588 648 761 978 1411 2189 3416 4764
1130.0 6308 8365 9303 10000 9362 8446 7526 6255 5111 4723
1170.0 5030 5718 6646 6916 7045 6657 6026 5156 3923 3131
1210.0 2698 2310 2016 1733 1436 1090 847 644 554 520
1250.0 531 585 677 830 959 1131 1288 1560 1960 2483
1290.0 3042 3474 3619 3580 3741 3799 3438 3029 2988 2979
1330.0 2900 2699 2350 1978 1364 726 370 232 191 167
1370.0 152 150 140 134 159 167 199 216 229 244
1410.0 266 289 331 376 427 523 623 733 831 945
1450.0 1115 1285 1512 1668 1935 2285 2740 3249 3624 4057
1490.0 4334 4693 4449 3947 3460 3067 2607 1827 1412 1024
1530.0 931 756 666 647 640 678 725 776 795 831
1570.0 1023 1333 1879 2527 3439 4498 5534 6588 7341 7980
1610.0 8099 8128 7417 6039 4674 3551 2787 2052 1553 1272
1650.0 1157 1191 1105 976 843 748 651 591 498 474
1690.0 352 335 327 306 219 176 167 171 138 114
1730.0 133 137 147 105 115 123 124 114 129 121
1770.0 127 149 116 135 116 140 134 135 131 131
1810.0 124 121 118 112 119 107 108 82 96 98
1850.0 87 87 93 101 116 141 152 179 194 211
1890.0 222 230 222 207 194 184 173 160 143 135
1930.0 119 114 108 111 115 115 110 113 106 99
1970.0 87 81 72 73 72 73 76 74 80 84
2010.0 83 83 87 93 95 104 102 104 105 104
2050.0 104 100 96 95 95 95 98 99 102 106
2090.0 109 114 114 111 114 115 113 106 103 104
2130.0 106 112 111 114 114 112 108 103 99 95
2170.0 90 85 83 82 82 88 88 91 95 100
2210.0 104 110 112 112 119 122 129 135 141 148
2250.0 152 157 160 154 141 138 124 120 117 116
2290.0 114 116 120 123 123 122 129 128 134 137
2330.0 155 172 177 190 204 204 205 196 203 186
2370.0 184 174 185 176 169 170 178 180 190 194
2410.0 200 211 218 228 234 246 250 259 260 257
2450.0 253 243 235 224 214 211 213 217 215 217
2490.0 220 217 210 204 196 193 191 182 171 163
2530.0 154 153 152 150 147 147 146 144 141 139
2570.0 138 144 143 144 146 150 157 161 161 167
2610.0 172 169 167 173 176 176 179 176 169 166
2650.0 163 160 160 160 161 161 156 151 149 145
2690.0 140 138 140 136 134 135 137 136 137 137
2730.0 137 136 141 142 145 144 151 154 152 154
2770.0 158 159 158 166 167 172 173 174 174 171
2810.0 173 179 177 173 172 162 158 148 136 135
2850.0 125 118 112 112 106 103 104 101 96 94
2890.0 93 95 103 106 107 102 96 91 85 80
2930.0 79 74 72 79 83 97 106 109 104 91
2970.0 81 73 101 118 127 136 151 167 192 210
3010.0 242 289 345 421 520 639 766 897 1002 1052
3050.0 1049 1037 1022 912 787 712 646 580 509 446
3090.0 389 357 318 292 275 266 250 231 215 196
3130.0 179 164 154 140 136 132 128 128 124 125
3170.0 123 120 125 128 128 128 126 130 132 138
3210.0 133 139 139 134 138 143 141 138 136 139
3250.0 140 145 152 147 151 159 154 151 158 161
3290.0 166 166 166 171 169 172 184 192 209 214
3330.0 212 241 247 260 258 253 254 261 268 261
3370.0 257 245 250 236 235 225 222 213 212 210
3410.0 204 201 199 209 210 211 204 210 212 204
3450.0 191 188 193 181 183 168 169 176 160 157
3490.0 157 162 161 161 150 155 144 137 143 150
3530.0 143 129 133 121 141 132 135 124 135 163
3570.0 141 133 127 136 148 174 148 146 163 163
3610.0 209 212 292 336 518 860 1487 2506 4086 5637
3650.0 6006 5723 5749 5190 4194 2240 1039 546 282 207
3690.0 179 150 100 127 102 120 115 83 87 99
3730.0 86 123 116 104 142 152 125 83 90 88
3770.0 93 90 71 89 72 77 72 94 136 92
3810.0 92 87 132 132 97 83 121 127 132 104
3850.0 95 191 127 93 140 147 131 103 138 125
3890.0 132 102 118 134 150 93 122 111 120 130
3930.0 125 141 111 125 124 150 139 141 140 129
##END=
