##TITLE=Benzene, 1,3,5-trichloro-
##JCAMP-DX=4.24
##DATA TYPE=INFRARED SPECTRUM
##ORIGIN=Sadtler Research Labs Under US-EPA Contract
##OWNER=NIST Standard Reference Data Program
##CAS REGISTRY NO=108-70-3
##MOLFORM=C 6 H 3 Cl 3
##XUNITS=1/CM
##YUNITS=ABSORBANCE
##XFACTOR=1.0
##YFACTOR=0.000101108
##DELTAX=4.0
##FIRSTX=450.0
##LASTX=3966.0
##FIRSTY=0.000000
##MAXX=3966
##MINX=450
##MAXY=1.01108
##MINY=0
##NPOINTS=880
##XYDATA=(X++(Y..Y))
450.0 0 191 230 330 427 242 393 378 427 385
490.0 417 416 401 434 432 417 391 462 394 457
530.0 388 436 393 374 415 380 394 322 399 338
570.0 382 345 334 354 348 345 290 324 311 339
610.0 296 338 315 294 307 289 328 253 359 342
650.0 602 738 1132 1412 1252 634 573 344 326 287
690.0 300 321 308 338 317 359 356 377 376 397
730.0 407 399 439 402 379 364 380 362 365 392
770.0 429 521 732 1137 1735 2342 2722 2976 3213 3645
810.0 4110 4616 4427 3837 2507 1285 908 911 1260 1658
850.0 2215 2557 1989 1357 1078 618 477 369 369 342
890.0 367 343 347 327 322 322 294 305 288 292
930.0 282 290 288 289 290 293 289 285 302 288
970.0 295 290 300 298 305 314 307 316 313 324
1010.0 313 321 319 330 331 343 345 341 358 368
1050.0 408 436 455 433 400 371 346 370 447 692
1090.0 1072 1401 1583 1595 1287 838 436 307 296 291
1130.0 303 285 299 285 294 285 293 290 286 294
1170.0 286 290 280 292 282 290 289 290 280 273
1210.0 285 265 283 276 285 273 286 284 276 281
1250.0 267 287 267 294 289 304 298 313 313 298
1290.0 304 288 292 277 299 291 298 308 292 294
1330.0 282 306 315 330 284 306 303 381 539 792
1370.0 1198 1567 1747 1708 1704 1591 1516 1422 1363 1590
1410.0 2150 2608 3235 2941 2733 1760 1141 640 351 347
1450.0 324 383 424 397 394 378 434 360 312 327
1490.0 360 312 335 338 349 481 388 494 544 607
1530.0 631 617 797 803 1169 1454 2850 3524 7878 8899
1570.0 10000 7879 4372 2108 1234 742 616 606 706 799
1610.0 746 679 588 490 433 380 366 365 332 331
1650.0 388 356 337 281 313 305 355 273 342 351
1690.0 295 294 363 406 388 433 496 577 509 472
1730.0 498 505 444 384 373 347 322 303 307 287
1770.0 312 316 272 290 269 288 293 287 298 271
1810.0 283 278 267 264 279 278 266 250 272 296
1850.0 266 251 247 255 261 291 255 254 255 258
1890.0 278 271 269 260 269 263 272 271 279 264
1930.0 265 278 277 299 291 281 271 270 255 260
1970.0 252 240 239 232 240 249 249 234 239 235
2010.0 231 238 241 238 230 239 227 237 239 237
2050.0 231 231 235 236 239 230 235 234 239 235
2090.0 236 240 235 236 228 234 229 231 227 233
2130.0 229 229 227 223 227 221 228 224 224 224
2170.0 221 222 222 229 231 234 233 240 234 234
2210.0 231 231 228 229 234 223 230 226 226 220
2250.0 220 219 217 218 219 221 221 227 223 224
2290.0 229 229 227 233 237 232 237 229 230 229
2330.0 222 229 235 239 222 233 229 240 242 241
2370.0 254 269 271 265 252 234 222 213 216 213
2410.0 218 215 213 211 209 212 209 209 209 210
2450.0 210 206 208 205 204 206 207 201 206 203
2490.0 203 205 206 206 203 206 202 205 203 209
2530.0 206 205 206 207 208 209 210 209 209 209
2570.0 209 208 207 212 213 218 216 219 217 218
2610.0 216 219 217 218 228 233 237 237 235 227
2650.0 221 214 211 207 209 208 206 209 211 211
2690.0 207 209 218 216 219 216 213 215 211 202
2730.0 196 194 193 191 190 190 191 187 188 185
2770.0 187 188 188 187 192 194 194 195 198 200
2810.0 200 201 201 207 215 223 231 238 230 222
2850.0 207 197 200 200 200 200 205 200 202 199
2890.0 200 201 197 204 200 201 199 203 196 205
2930.0 204 205 207 209 209 201 207 204 207 212
2970.0 216 209 212 216 211 212 205 204 198 201
3010.0 205 202 199 201 201 205 201 197 197 197
3050.0 200 204 206 209 213 224 223 239 250 261
3090.0 257 250 244 216 212 202 206 210 201 204
3130.0 215 214 226 214 208 216 210 197 198 205
3170.0 198 197 195 204 200 196 192 189 196 195
3210.0 193 197 192 190 197 194 188 193 187 195
3250.0 190 191 193 190 193 200 197 196 195 190
3290.0 190 192 193 190 191 200 197 195 189 191
3330.0 195 194 194 189 194 198 193 188 197 196
3370.0 201 195 202 206 196 201 204 196 205 200
3410.0 200 208 200 213 194 202 203 206 202 203
3450.0 206 204 200 208 205 196 201 203 196 206
3490.0 196 195 194 192 198 205 202 203 199 189
3530.0 192 194 195 187 191 191 187 194 195 190
3570.0 187 199 200 204 186 194 194 194 204 195
3610.0 203 204 207 193 197 189 199 213 206 198
3650.0 192 210 215 194 206 203 215 221 211 198
3690.0 207 201 204 208 213 217 220 208 209 209
3730.0 209 204 227 216 196 212 215 213 213 212
3770.0 209 190 211 220 209 187 191 207 214 216
3810.0 194 216 206 185 199 192 214 195 221 202
3850.0 196 184 202 201 199 198 221 205 209 210
3890.0 209 192 239 231 210 215 194 214 222 213
3930.0 208 192 203 247 227 211 223 193 213 219
##END=
