##TITLE=2-Propanamine, N-(1-methylethyl)-
##JCAMP-DX=4.24
##DATA TYPE=INFRARED SPECTRUM
##ORIGIN=Sadtler Research Labs Under US-EPA Contract
##OWNER=NIST Standard Reference Data Program
##CAS REGISTRY NO=108-18-9
##MOLFORM=C 6 H 15 N
##XUNITS=1/CM
##YUNITS=ABSORBANCE
##XFACTOR=1.0
##YFACTOR=0.000050781
##DELTAX=4.0
##FIRSTX=450.0
##LASTX=3966.0
##FIRSTY=0.006246
##MAXX=3966
##MINX=450
##MAXY=0.50781
##MINY=0
##NPOINTS=880
##XYDATA=(X++(Y..Y))
450.0 123 120 113 150 139 167 176 214 225 230
490.0 239 265 273 255 245 194 166 113 57 66
530.0 27 52 47 32 41 48 56 5 34 6
570.0 44 30 53 73 89 114 101 124 140 148
610.0 161 170 199 234 262 243 307 322 377 418
650.0 455 528 564 638 651 838 866 963 1029 1078
690.0 1098 1061 978 823 725 538 430 300 229 188
730.0 141 130 75 97 69 92 86 53 72 55
770.0 59 47 66 47 60 37 44 53 62 88
810.0 84 125 132 178 201 251 250 232 239 207
850.0 211 183 170 150 126 110 96 109 79 78
890.0 78 90 76 76 92 96 119 118 117 117
930.0 110 90 89 78 79 72 60 58 43 75
970.0 38 58 54 57 82 51 71 110 144 194
1010.0 251 293 308 297 271 219 147 102 71 81
1050.0 91 71 103 104 124 147 186 242 325 383
1090.0 435 465 495 515 514 537 600 657 697 725
1130.0 761 780 800 820 857 916 1079 1320 1667 2145
1170.0 2590 2913 2996 2785 2385 1762 1229 886 710 578
1210.0 497 390 330 261 225 188 162 147 122 124
1250.0 107 113 105 124 133 125 144 155 175 194
1290.0 234 278 340 437 543 690 830 961 1069 1181
1330.0 1287 1363 1384 1333 1262 1162 1149 1209 1363 1610
1370.0 1970 2478 2722 2676 2421 2070 1508 880 517 386
1410.0 321 317 333 367 435 533 654 790 870 982
1450.0 1061 1141 1244 1314 1388 1458 1488 1381 1223 1023
1490.0 833 615 461 318 274 207 149 142 129 112
1530.0 72 90 72 99 59 43 62 83 83 41
1570.0 61 51 65 43 43 43 44 53 53 53
1610.0 49 58 75 56 60 54 60 75 53 73
1650.0 73 123 61 67 61 91 70 78 79 107
1690.0 72 72 113 122 94 83 85 106 78 71
1730.0 60 89 58 67 47 55 46 46 47 37
1770.0 57 54 38 27 35 33 39 29 28 28
1810.0 27 29 17 29 35 40 28 29 35 38
1850.0 39 28 28 29 29 39 29 30 18 19
1890.0 20 10 10 10 10 10 10 10 10 10
1930.0 10 10 10 22 11 11 11 11 11 11
1970.0 12 12 12 12 12 12 12 12 12 12
2010.0 12 12 12 12 13 13 13 13 13 13
2050.0 13 13 13 5 14 5 13 13 14 14
2090.0 14 13 13 13 13 15 15 14 14 5
2130.0 15 5 15 13 8 14 14 14 14 14
2170.0 14 14 14 14 14 13 13 13 23 19
2210.0 23 18 18 16 13 13 13 13 12 12
2250.0 12 12 12 12 12 12 11 11 11 11
2290.0 11 21 20 20 20 30 30 34 40 28
2330.0 42 36 47 30 38 28 40 56 49 52
2370.0 42 44 29 17 11 9 8 8 9 8
2410.0 17 9 8 8 8 8 8 7 7 7
2450.0 7 7 7 7 15 9 16 16 16 16
2490.0 16 17 13 16 5 16 5 16 4 16
2530.0 16 15 15 17 17 17 24 26 27 38
2570.0 38 47 49 70 79 100 116 142 160 180
2610.0 193 212 222 223 224 212 205 202 186 176
2650.0 161 159 148 139 132 130 122 112 120 113
2690.0 113 113 113 113 129 132 142 160 170 181
2730.0 191 201 210 211 220 215 233 240 260 278
2770.0 305 327 365 406 445 486 526 566 595 637
2810.0 673 712 766 830 918 1007 1117 1198 1288 1336
2850.0 1365 1396 1455 1583 1761 1984 2165 2305 2363 2337
2890.0 2271 2163 2104 2088 2147 2225 2343 2481 2623 2825
2930.0 3071 3290 3431 3600 3818 4230 4959 6134 7726 8813
2970.0 10000 9526 9054 7712 5713 3838 2508 1594 1003 669
3010.0 476 373 295 254 221 185 167 144 135 117
3050.0 115 107 106 105 108 105 102 108 96 110
3090.0 93 97 100 90 90 81 90 71 85 82
3130.0 75 82 81 93 92 96 93 113 104 114
3170.0 113 114 123 104 115 111 112 99 105 97
3210.0 97 88 68 78 58 50 48 45 42 33
3250.0 33 15 31 14 33 24 25 25 25 25
3290.0 14 26 21 21 20 24 36 34 47 46
3330.0 47 37 48 45 39 39 39 45 39 40
3370.0 41 39 31 30 32 20 31 11 24 13
3410.0 19 17 21 24 13 25 15 24 15 19
3450.0 14 16 23 16 28 17 17 9 9 9
3490.0 9 8 0 11 0 4 6 2 2 7
3530.0 6 2 12 3 13 12 13 11 7 18
3570.0 7 15 8 13 11 25 15 16 26 15
3610.0 26 26 27 28 19 56 24 30 19 36
3650.0 57 38 38 30 38 52 58 55 39 39
3690.0 69 53 39 51 51 71 60 53 59 66
3730.0 71 77 81 79 104 92 93 82 83 83
3770.0 83 82 78 84 84 84 94 107 114 104
3810.0 116 106 117 106 107 107 107 119 107 115
3850.0 114 137 109 117 110 120 109 110 120 114
3890.0 109 107 107 106 102 114 102 103 103 113
3930.0 114 114 104 104 105 113 21 28 29 29
##END=
