##TITLE=4-Methyl-2-pentyl acetate
##JCAMP-DX=4.24
##DATA TYPE=INFRARED SPECTRUM
##ORIGIN=Sadtler Research Labs Under US-EPA Contract
##OWNER=NIST Standard Reference Data Program
##CAS REGISTRY NO=108-84-9
##MOLFORM=C 8 H 16 O 2
##XUNITS=1/CM
##YUNITS=ABSORBANCE
##XFACTOR=1.0
##YFACTOR=0.000120834
##DELTAX=4.0
##FIRSTX=450.0
##LASTX=3966.0
##FIRSTY=0.044346
##MAXX=3966
##MINX=450
##MAXY=1.20834
##MINY=0
##NPOINTS=880
##XYDATA=(X++(Y..Y))
450.0 367 170 119 83 122 88 151 116 197 161
490.0 201 229 228 215 160 180 109 115 83 119
530.0 63 49 81 111 132 94 125 54 141 84
570.0 111 87 109 101 86 85 112 170 230 325
610.0 283 300 249 200 196 157 210 219 209 108
650.0 97 114 78 72 51 64 26 88 0 34
690.0 43 29 30 34 33 6 38 26 39 26
730.0 64 43 46 53 35 64 29 60 36 54
770.0 34 60 74 58 98 63 75 92 115 113
810.0 139 142 141 140 138 124 91 116 86 118
850.0 97 119 131 147 155 147 154 148 178 166
890.0 181 167 161 154 143 159 146 179 200 255
930.0 302 406 536 653 716 689 586 440 346 307
970.0 304 303 301 313 312 348 381 462 542 692
1010.0 829 1059 1309 1511 1602 1535 1437 1289 1227 1175
1050.0 1139 1050 954 890 832 769 673 602 540 525
1090.0 501 482 470 483 548 668 902 1197 1506 1695
1130.0 1730 1554 1280 1051 888 808 757 749 733 726
1170.0 664 574 469 405 379 372 416 467 571 706
1210.0 926 1193 1566 2183 3183 4786 6809 8894 10000 9783
1250.0 8092 5707 3734 2539 1857 1409 1119 902 755 637
1290.0 547 449 369 317 264 254 226 233 222 235
1330.0 241 263 301 327 392 489 661 913 1322 1819
1370.0 2311 2630 2608 2327 1868 1446 1071 790 547 397
1410.0 316 277 277 273 292 306 357 371 407 444
1450.0 501 565 637 692 716 741 706 616 482 372
1490.0 285 216 181 163 170 164 156 151 163 149
1530.0 147 134 134 146 130 120 111 127 113 108
1570.0 113 110 105 101 96 84 82 80 72 68
1610.0 72 69 72 70 70 71 73 87 78 91
1650.0 102 118 112 106 122 122 143 137 169 177
1690.0 188 203 240 281 325 391 450 530 556 624
1730.0 728 966 1428 2244 3545 4949 6324 6652 5411 3870
1770.0 2373 1281 749 541 475 441 409 361 313 253
1810.0 211 186 164 156 152 144 133 118 116 107
1850.0 96 88 82 80 79 84 71 76 74 76
1890.0 73 68 62 60 56 56 56 49 52 46
1930.0 47 46 45 49 46 47 45 50 44 44
1970.0 42 40 36 38 40 37 40 35 37 38
2010.0 40 39 33 38 33 34 36 42 39 43
2050.0 42 43 47 45 45 44 47 45 44 44
2090.0 45 47 42 39 38 41 37 41 39 40
2130.0 42 47 46 42 43 42 44 41 37 37
2170.0 39 43 46 50 46 49 45 45 36 36
2210.0 32 32 34 32 37 36 36 31 39 40
2250.0 39 38 35 36 36 35 34 32 33 33
2290.0 34 30 34 33 34 34 37 31 43 40
2330.0 29 46 34 37 6 15 13 23 7 7
2370.0 5 5 10 8 21 23 28 31 32 32
2410.0 31 31 29 30 25 24 22 21 25 22
2450.0 24 25 32 29 35 35 39 44 44 37
2490.0 34 34 29 25 23 25 18 22 21 13
2530.0 18 11 12 13 13 9 15 14 8 7
2570.0 7 18 16 21 18 17 19 28 23 26
2610.0 32 32 34 32 29 32 33 29 28 27
2650.0 29 35 34 32 29 30 29 30 33 39
2690.0 45 43 41 37 40 43 43 46 55 60
2730.0 70 78 75 81 70 67 60 53 56 53
2770.0 58 58 63 54 59 61 66 70 75 91
2810.0 87 97 104 120 140 150 177 201 235 265
2850.0 299 323 354 398 485 630 832 1031 1181 1211
2890.0 1149 1081 1037 1082 1193 1358 1522 1662 1763 1839
2930.0 1869 1945 2030 2073 2086 2142 2310 2708 3297 3803
2970.0 3843 3541 2989 2505 2140 1804 1414 1019 671 431
3010.0 306 243 205 176 159 164 142 137 141 132
3050.0 123 118 110 106 101 103 107 94 95 90
3090.0 79 72 74 74 68 63 60 62 58 59
3130.0 61 55 58 51 50 42 47 55 50 39
3170.0 55 62 56 54 46 66 66 57 58 51
3210.0 49 53 44 24 29 40 26 27 25 37
3250.0 29 32 30 29 35 27 31 28 16 24
3290.0 30 31 25 31 14 15 15 17 23 6
3330.0 14 21 26 20 16 21 26 26 27 39
3370.0 41 23 12 22 27 8 20 30 35 26
3410.0 39 35 30 33 38 33 33 32 26 28
3450.0 45 37 34 36 52 32 47 63 55 56
3490.0 84 83 98 54 49 48 54 32 24 36
3530.0 21 15 27 35 24 30 31 47 40 29
3570.0 31 14 35 35 36 29 28 53 26 27
3610.0 43 65 35 50 69 45 38 30 52 54
3650.0 67 61 60 54 63 57 47 51 63 43
3690.0 47 48 56 54 41 58 58 54 61 16
3730.0 48 42 53 48 61 53 53 32 60 29
3770.0 28 40 49 55 55 39 61 43 18 60
3810.0 71 66 56 42 15 43 50 46 44 67
3850.0 48 62 59 49 43 65 67 27 50 47
3890.0 52 53 67 46 39 58 36 46 27 23
3930.0 32 25 51 49 27 86 62 26 49 56
##END=
