##TITLE=Benzene, 1,1'-(1,3-propanediyl)bis-
##JCAMP-DX=4.24
##DATA TYPE=INFRARED SPECTRUM
##ORIGIN=Sadtler Research Labs Under US-EPA Contract
##OWNER=NIST Standard Reference Data Program
##CAS REGISTRY NO=1081-75-0
##MOLFORM=C 15 H 16
##XUNITS=1/CM
##YUNITS=ABSORBANCE
##XFACTOR=1.0
##YFACTOR=0.000087521
##DELTAX=4.0
##FIRSTX=450.0
##LASTX=3966.0
##FIRSTY=0.021268
##MAXX=3966
##MINX=450
##MAXY=0.87521
##MINY=0
##NPOINTS=880
##XYDATA=(X++(Y..Y))
450.0 243 221 185 308 362 490 686 968 1273 1505
490.0 1653 1636 1392 825 455 299 220 167 159 161
530.0 199 230 306 401 415 444 525 503 385 316
570.0 303 293 229 216 251 327 472 465 350 240
610.0 147 10 59 117 148 141 144 146 161 201
650.0 207 279 316 506 575 962 1291 1592 2156 2981
690.0 5092 7560 10000 8150 5940 4278 3418 3025 3042 3450
730.0 4218 5099 5740 6317 6284 5684 4090 2594 1632 1076
770.0 756 527 377 267 181 131 68 82 162 301
810.0 337 332 315 305 284 251 238 212 195 171
850.0 162 146 166 176 179 167 161 172 176 202
890.0 233 289 392 567 639 522 325 189 140 114
930.0 109 92 95 86 98 99 117 139 160 188
970.0 224 257 233 187 148 147 157 199 257 290
1010.0 299 333 398 521 937 1309 1182 677 348 246
1050.0 192 156 148 191 295 431 572 676 691 560
1090.0 420 378 404 511 604 578 514 398 321 255
1130.0 215 196 194 199 193 190 193 191 183 185
1170.0 197 230 271 287 280 278 303 328 348 336
1210.0 288 232 195 181 181 194 227 255 255 236
1250.0 219 226 283 331 254 179 183 194 212 224
1290.0 245 248 254 268 284 314 335 373 386 421
1330.0 454 507 602 682 766 839 808 686 538 410
1370.0 351 332 315 271 260 224 211 221 191 195
1410.0 202 219 295 309 365 461 646 894 1355 1931
1450.0 2631 2973 2651 2002 1480 1041 899 727 759 1071
1490.0 2024 4058 5040 3701 1903 741 453 347 346 290
1530.0 307 312 317 353 284 236 235 315 270 268
1570.0 310 372 463 605 759 1064 1503 1988 2348 2426
1610.0 1951 1179 622 360 297 227 234 239 204 212
1650.0 247 232 176 149 133 125 142 101 145 174
1690.0 141 147 210 211 188 161 182 239 181 179
1730.0 227 300 281 287 297 278 218 188 173 146
1770.0 177 205 198 236 289 432 582 616 528 368
1810.0 288 241 190 164 140 134 116 109 138 164
1850.0 174 205 271 328 375 405 382 385 354 276
1890.0 191 127 89 76 77 89 107 137 189 241
1930.0 332 443 512 515 474 469 467 375 222 115
1970.0 68 50 48 53 46 48 35 23 22 24
2010.0 18 16 25 21 19 15 15 14 14 7
2050.0 9 6 7 10 13 12 13 16 20 21
2090.0 18 15 12 9 5 4 5 3 3 0
2130.0 4 8 5 7 9 16 18 17 16 21
2170.0 22 22 24 24 27 20 19 19 17 14
2210.0 13 13 13 10 11 11 7 11 11 17
2250.0 13 18 21 18 18 18 15 15 19 19
2290.0 22 17 20 27 36 52 78 79 58 46
2330.0 37 47 41 44 37 32 21 25 21 8
2370.0 7 13 15 16 21 21 22 21 23 26
2410.0 28 30 28 31 29 23 25 25 21 19
2450.0 17 20 19 19 25 23 25 24 28 28
2490.0 29 32 29 28 27 25 25 28 28 27
2530.0 30 32 30 33 35 35 38 37 38 40
2570.0 39 44 48 54 60 65 69 72 77 85
2610.0 83 78 75 78 89 93 100 99 103 99
2650.0 93 90 83 83 79 79 79 75 75 74
2690.0 69 69 62 61 57 54 57 54 57 57
2730.0 61 64 65 66 66 70 68 74 79 94
2770.0 106 124 140 167 186 196 202 200 209 214
2810.0 221 233 255 276 306 353 423 533 696 953
2850.0 1336 1853 2430 2933 3179 3045 2597 2074 1667 1447
2890.0 1381 1430 1554 1761 2039 2421 2944 3580 4288 4969
2930.0 5697 6527 7489 8161 7939 6639 4656 2927 1825 1193
2970.0 867 686 589 533 513 532 606 754 1008 1298
3010.0 1592 1899 2423 3494 4996 6613 7558 7108 5375 3656
3050.0 2841 2697 3017 3744 4916 6157 6359 5178 3969 3455
3090.0 3146 2710 2233 1784 1537 1354 1144 859 579 376
3130.0 266 199 160 135 116 115 117 111 110 116
3170.0 107 91 66 41 32 26 29 25 28 19
3210.0 19 22 25 19 18 24 20 21 19 22
3250.0 21 24 24 25 28 31 27 27 28 29
3290.0 26 29 27 18 22 19 12 13 17 18
3330.0 12 17 15 11 16 14 11 13 17 12
3370.0 18 17 20 17 19 9 10 11 13 19
3410.0 12 23 23 17 24 21 28 30 34 26
3450.0 25 18 22 21 19 14 17 22 25 17
3490.0 21 17 16 27 23 34 19 25 21 24
3530.0 19 22 12 16 22 22 22 16 23 14
3570.0 15 19 13 18 18 25 30 25 18 21
3610.0 27 48 38 45 36 34 47 61 58 65
3650.0 79 86 73 61 54 51 60 51 40 38
3690.0 42 44 35 35 39 50 43 51 43 36
3730.0 34 23 29 33 21 35 34 31 31 39
3770.0 29 32 26 37 39 33 32 32 47 39
3810.0 35 39 51 36 38 34 35 32 51 36
3850.0 24 16 45 50 38 46 38 19 33 28
3890.0 48 48 33 26 31 34 34 42 38 44
3930.0 54 37 40 27 30 35 27 44 39 29
##END=
