##TITLE=Diallyl isophthalate
##JCAMP-DX=4.24
##DATA TYPE=INFRARED SPECTRUM
##ORIGIN=Sadtler Research Labs Under US-EPA Contract
##OWNER=NIST Standard Reference Data Program
##CAS REGISTRY NO=1087-21-4
##MOLFORM=C 14 H 14 O 4
##XUNITS=1/CM
##YUNITS=ABSORBANCE
##XFACTOR=1.0
##YFACTOR=0.000077930
##DELTAX=4.0
##FIRSTX=450.0
##LASTX=3966.0
##FIRSTY=0.000156
##MAXX=3966
##MINX=450
##MAXY=0.7793
##MINY=0
##NPOINTS=880
##XYDATA=(X++(Y..Y))
450.0 2 36 16 12 3 2 14 26 17 17
490.0 13 34 29 10 17 25 35 24 60 44
530.0 69 59 52 91 65 76 75 73 33 49
570.0 57 98 38 44 73 51 62 68 89 67
610.0 113 109 91 126 162 171 188 177 225 206
650.0 231 211 195 157 158 228 169 172 213 212
690.0 205 189 204 251 308 372 508 629 784 1047
730.0 1288 1238 853 484 259 184 162 138 158 133
770.0 118 124 117 98 111 132 104 147 165 158
810.0 160 165 181 186 167 146 129 132 148 156
850.0 160 126 164 180 184 191 205 203 209 198
890.0 210 236 254 276 311 398 470 581 688 831
930.0 929 932 835 652 543 475 470 531 605 710
970.0 870 1065 1321 1650 1783 1638 1246 871 665 508
1010.0 419 373 337 306 296 275 239 258 262 286
1050.0 307 361 451 605 859 1125 1338 1406 1463 1542
1090.0 1809 1996 1912 1600 1304 1164 1193 1289 1507 1614
1130.0 1619 1455 1209 954 807 717 714 760 921 1048
1170.0 970 746 592 540 550 610 661 773 956 1269
1210.0 1764 2582 4026 6077 8933 10000 8076 5454 3235 2059
1250.0 1446 1128 1014 965 984 1076 1200 1449 1778 2136
1290.0 2448 2709 2923 2887 2395 1595 981 647 472 382
1330.0 339 310 294 297 306 343 431 561 650 647
1370.0 552 434 372 334 310 261 254 237 239 253
1410.0 260 281 296 318 365 417 474 459 418 381
1450.0 380 391 358 334 277 243 183 180 179 166
1490.0 128 130 114 113 98 99 115 106 80 90
1530.0 96 85 84 59 80 97 95 69 77 95
1570.0 91 113 99 132 132 139 139 153 179 214
1610.0 240 212 147 128 113 119 127 123 162 175
1650.0 189 141 164 145 138 124 125 128 126 120
1690.0 166 205 237 272 333 368 393 429 537 695
1730.0 1032 1810 3551 5716 6362 4745 2903 1756 1063 671
1770.0 481 387 356 326 293 261 218 195 166 146
1810.0 126 114 100 86 83 75 83 82 85 82
1850.0 94 100 106 107 113 106 112 105 93 84
1890.0 77 75 74 74 68 67 73 80 87 80
1930.0 78 67 68 60 56 59 54 60 66 66
1970.0 67 58 59 52 51 46 43 39 46 41
2010.0 47 38 39 45 39 44 40 39 42 46
2050.0 41 37 37 38 38 43 44 37 38 36
2090.0 36 36 36 36 36 32 38 29 29 29
2130.0 30 29 29 35 29 29 29 29 29 28
2170.0 28 28 28 22 27 22 27 26 28 25
2210.0 28 28 20 20 20 22 21 26 20 20
2250.0 19 19 19 19 19 20 20 20 20 25
2290.0 25 25 38 39 50 65 76 77 102 102
2330.0 111 126 126 137 125 106 139 175 182 178
2370.0 138 95 71 40 24 23 15 10 16 15
2410.0 16 16 16 7 16 12 9 12 10 9
2450.0 9 14 15 8 8 8 8 8 8 8
2490.0 8 6 7 7 12 13 13 7 13 6
2530.0 9 7 12 9 6 10 5 11 11 11
2570.0 12 4 5 10 11 3 11 10 7 10
2610.0 10 3 3 3 3 3 4 4 2 2
2650.0 2 2 2 2 2 2 2 1 1 1
2690.0 1 1 1 8 8 8 12 8 7 14
2730.0 6 7 1 6 6 6 6 3 4 1
2770.0 0 5 5 6 7 7 7 9 7 10
2810.0 14 14 22 21 21 16 23 22 17 23
2850.0 29 31 36 36 42 57 60 79 88 106
2890.0 126 134 127 121 114 108 94 92 95 105
2930.0 121 145 190 229 294 348 399 435 396 313
2970.0 244 199 184 175 183 197 197 191 178 166
3010.0 153 140 143 150 165 161 140 117 106 100
3050.0 93 88 82 87 96 125 171 229 283 292
3090.0 274 262 255 244 200 153 102 70 51 39
3130.0 28 22 22 22 24 24 23 23 25 24
3170.0 24 25 26 19 19 16 21 21 14 20
3210.0 22 21 22 16 16 17 11 16 17 17
3250.0 20 14 18 11 13 18 13 13 19 13
3290.0 22 13 18 14 17 15 27 21 23 16
3330.0 16 17 22 18 17 25 20 21 18 21
3370.0 12 20 14 14 19 20 15 15 15 18
3410.0 19 14 21 12 17 22 17 17 17 25
3450.0 24 37 40 43 54 52 46 45 39 33
3490.0 21 20 20 21 21 19 13 17 14 14
3530.0 11 17 12 17 11 12 13 13 12 10
3570.0 3 8 11 13 14 14 21 14 16 15
3610.0 2 4 15 16 26 10 10 25 17 18
3650.0 0 13 12 24 20 17 23 21 33 37
3690.0 27 38 46 47 53 53 42 54 60 60
3730.0 60 58 50 63 50 50 55 63 63 69
3770.0 70 79 84 78 88 88 85 82 80 79
3810.0 85 93 87 80 93 101 93 91 88 92
3850.0 87 84 88 89 95 101 101 109 107 103
3890.0 101 100 100 94 97 103 100 92 92 86
3930.0 86 88 81 88 96 103 5 12 12 14
##END=
