##TITLE=Pyridine, 2-methyl-
##JCAMP-DX=4.24
##DATA TYPE=INFRARED SPECTRUM
##ORIGIN=Sadtler Research Labs Under US-EPA Contract
##OWNER=NIST Standard Reference Data Program
##CAS REGISTRY NO=109-06-8
##MOLFORM=C 6 H 7 N
##XUNITS=1/CM
##YUNITS=ABSORBANCE
##XFACTOR=1.0
##YFACTOR=0.000098886
##DELTAX=4.0
##FIRSTX=450.0
##LASTX=3966.0
##FIRSTY=0.060123
##MAXX=3966
##MINX=450
##MAXY=0.98886
##MINY=0
##NPOINTS=880
##XYDATA=(X++(Y..Y))
450.0 608 380 259 248 1188 794 621 315 522 194
490.0 397 101 113 64 94 98 4 173 34 195
530.0 187 508 409 428 587 405 522 393 339 113
570.0 146 110 170 108 120 140 204 195 181 241
610.0 214 399 462 538 349 355 448 416 338 180
650.0 146 64 131 33 77 86 119 86 117 151
690.0 124 183 191 362 354 595 793 1229 1824 2875
730.0 4314 4743 4445 5263 8452 10000 4727 5142 4517 3881
770.0 2860 1845 1061 586 374 202 200 162 183 166
810.0 183 143 144 131 115 124 85 108 76 88
850.0 76 109 88 91 87 88 88 79 94 68
890.0 89 79 100 97 133 162 173 198 194 225
930.0 208 232 205 216 231 275 337 419 514 531
970.0 555 573 623 685 739 721 590 522 605 658
1010.0 522 426 350 371 428 590 843 1171 1451 1369
1050.0 1261 1444 1510 1128 804 585 484 395 361 354
1090.0 357 365 306 279 259 278 231 209 188 265
1130.0 426 696 976 940 886 924 973 977 599 341
1170.0 197 150 101 105 99 99 98 102 117 130
1210.0 188 248 355 452 593 719 824 899 898 758
1250.0 730 610 384 257 206 237 271 445 692 1007
1290.0 1062 964 1114 935 1017 788 411 240 170 188
1330.0 166 222 235 280 274 323 340 359 415 480
1370.0 627 696 819 815 857 891 838 602 575 641
1410.0 837 1250 1883 2795 3386 3711 4008 4289 4348 4299
1450.0 3825 3189 3372 4166 5507 5863 5841 5913 5259 5452
1490.0 4530 2817 1705 1121 1021 921 856 857 826 922
1530.0 919 987 1007 1081 1162 1264 1687 1908 2594 3109
1570.0 4027 4641 5648 7456 7811 8699 7936 8272 6999 6131
1610.0 5187 3777 2201 1134 671 481 413 330 248 205
1650.0 155 111 115 84 86 75 90 65 115 112
1690.0 133 124 132 138 116 128 99 115 70 86
1730.0 82 91 105 137 159 150 166 153 181 166
1770.0 161 129 115 110 105 95 104 104 90 97
1810.0 97 108 121 134 139 127 134 156 178 206
1850.0 234 241 226 221 193 194 164 101 74 82
1890.0 109 143 169 184 196 216 236 257 270 279
1930.0 292 285 276 287 296 279 257 251 235 219
1970.0 191 178 170 134 83 50 37 24 28 23
2010.0 24 21 32 34 41 51 55 55 53 61
2050.0 50 44 37 34 29 22 21 19 24 23
2090.0 30 25 25 25 24 19 17 13 6 10
2130.0 8 11 11 14 18 17 22 25 32 34
2170.0 42 50 66 80 97 109 111 111 108 106
2210.0 89 80 63 57 52 51 53 56 54 40
2250.0 42 41 41 37 39 42 43 56 66 76
2290.0 70 67 63 59 50 31 18 0 1 3
2330.0 12 11 26 25 18 29 0 18 8 41
2370.0 37 53 54 59 58 61 64 62 61 53
2410.0 53 46 51 47 50 54 54 56 52 54
2450.0 50 46 42 42 42 43 48 50 52 46
2490.0 44 35 28 22 25 30 29 33 34 39
2530.0 36 34 30 28 19 17 12 13 14 12
2570.0 22 24 29 29 36 36 40 54 65 82
2610.0 97 113 119 112 106 84 61 35 22 18
2650.0 17 15 20 20 22 26 26 31 31 34
2690.0 32 34 29 35 35 36 41 43 50 55
2730.0 67 78 85 83 91 84 80 67 46 35
2770.0 25 31 32 37 43 53 59 72 82 97
2810.0 108 116 135 143 152 165 186 215 257 313
2850.0 366 439 526 609 691 754 799 827 830 817
2890.0 815 802 806 847 933 1063 1245 1503 1835 2214
2930.0 2475 2643 2701 2630 2487 2208 1857 1545 1333 1242
2970.0 1272 1293 1273 1311 1334 1345 1490 1755 2115 2582
3010.0 3151 3597 3718 3805 3981 4031 3609 2997 2632 2494
3050.0 2525 2725 3116 3548 3847 4166 4690 5172 4974 4589
3090.0 4037 3334 2704 2008 1327 848 554 389 295 246
3130.0 229 220 220 218 211 204 185 152 118 91
3170.0 75 68 59 58 50 44 32 29 30 25
3210.0 22 17 12 10 13 14 17 12 17 20
3250.0 18 18 14 18 17 23 20 22 18 23
3290.0 21 18 15 21 18 14 21 14 17 15
3330.0 10 15 15 15 12 14 11 18 17 22
3370.0 21 19 20 24 24 28 28 22 24 21
3410.0 22 14 14 21 17 17 15 14 17 18
3450.0 21 21 17 14 14 10 6 3 0 2
3490.0 3 10 4 6 11 18 22 22 15 19
3530.0 25 23 21 18 19 19 24 19 22 22
3570.0 21 28 19 24 13 33 39 20 39 26
3610.0 48 34 44 40 34 58 44 43 42 25
3650.0 48 32 48 36 21 41 34 74 28 46
3690.0 29 54 32 40 41 35 45 28 11 23
3730.0 20 30 9 33 18 31 52 18 24 14
3770.0 15 23 19 22 14 19 22 9 52 22
3810.0 35 28 22 64 37 35 40 36 36 51
3850.0 7 72 64 41 59 66 72 50 77 55
3890.0 72 41 52 43 47 22 30 34 53 37
3930.0 13 31 32 28 25 33 28 25 36 32
##END=
