##TITLE=Butanoic acid, butyl ester
##JCAMP-DX=4.24
##DATA TYPE=INFRARED SPECTRUM
##ORIGIN=Sadtler Research Labs Under US-EPA Contract
##OWNER=NIST Standard Reference Data Program
##CAS REGISTRY NO=109-21-7
##MOLFORM=C 8 H 16 O 2
##XUNITS=1/CM
##YUNITS=ABSORBANCE
##XFACTOR=1.0
##YFACTOR=0.000069348
##DELTAX=4.0
##FIRSTX=450.0
##LASTX=3966.0
##FIRSTY=0.001526
##MAXX=3966
##MINX=450
##MAXY=0.69348
##MINY=0
##NPOINTS=880
##XYDATA=(X++(Y..Y))
450.0 22 35 40 41 44 51 56 55 51 71
490.0 69 91 83 75 96 89 62 52 18 44
530.0 26 6 2 30 21 12 6 47 68 48
570.0 55 78 92 107 110 118 120 133 140 125
610.0 124 125 124 124 119 94 126 111 113 104
650.0 97 87 74 74 52 101 79 80 84 88
690.0 92 100 95 109 113 114 131 129 144 160
730.0 175 195 222 235 248 232 221 222 207 200
770.0 200 213 235 249 257 269 285 285 273 257
810.0 255 237 227 234 240 247 240 248 254 238
850.0 234 233 233 246 241 232 249 246 253 254
890.0 262 267 273 275 274 279 287 294 301 296
930.0 297 310 331 377 481 614 717 793 807 795
970.0 776 758 744 704 665 643 643 695 785 885
1010.0 945 957 928 871 807 766 751 799 886 966
1050.0 1039 1113 1221 1369 1508 1630 1718 1852 2037 2315
1090.0 2609 2813 2885 2756 2489 2174 1875 1598 1411 1284
1130.0 1222 1221 1288 1425 1658 1959 2388 3021 3962 5394
1170.0 7211 8998 10000 9725 8523 7032 5893 5071 4420 3831
1210.0 3265 2827 2527 2393 2387 2473 2613 2795 2994 3238
1250.0 3475 3616 3568 3347 3046 2722 2395 2115 1929 1877
1290.0 1930 2019 2083 2038 1885 1647 1382 1151 1006 939
1330.0 952 1023 1149 1332 1540 1728 1838 1846 1747 1558
1370.0 1361 1189 1092 1099 1167 1224 1197 1033 825 650
1410.0 547 514 531 565 651 756 834 878 905 956
1450.0 1053 1200 1359 1462 1492 1434 1255 1036 838 658
1490.0 507 396 325 268 246 186 173 173 148 139
1530.0 129 139 136 113 105 110 108 110 91 94
1570.0 98 95 98 91 95 86 93 92 93 92
1610.0 92 95 91 96 95 101 101 102 104 111
1650.0 111 111 117 126 133 142 144 161 171 194
1690.0 219 258 307 375 453 552 663 800 982 1240
1730.0 1619 2232 3249 4747 6612 8588 9657 9495 8099 5947
1770.0 4007 2615 1786 1289 982 769 614 484 387 315
1810.0 257 213 180 157 142 129 111 111 106 98
1850.0 88 89 82 82 79 69 67 67 68 63
1890.0 65 66 67 64 67 66 65 65 64 66
1930.0 62 66 67 65 65 66 74 73 72 72
1970.0 65 66 66 64 68 59 56 58 63 64
2010.0 65 72 65 72 72 72 73 71 71 71
2050.0 73 76 71 66 65 65 64 57 56 56
2090.0 55 58 55 50 49 57 52 50 50 50
2130.0 50 43 41 41 43 43 43 38 41 41
2170.0 41 41 41 41 34 41 35 27 33 33
2210.0 33 29 29 27 28 26 25 25 26 25
2250.0 32 32 32 33 33 37 35 33 39 39
2290.0 37 37 29 29 29 33 33 33 37 37
2330.0 43 33 37 37 39 46 44 41 33 35
2370.0 26 24 26 28 29 30 30 30 31 30
2410.0 30 30 29 29 27 23 23 23 23 23
2450.0 23 15 14 15 15 15 15 15 15 15
2490.0 15 15 7 7 7 8 7 7 7 7
2530.0 7 3 7 7 7 6 6 6 14 13
2570.0 13 20 22 27 27 27 27 37 28 28
2610.0 28 28 28 28 28 28 28 28 28 37
2650.0 32 35 36 41 42 49 57 56 56 57
2690.0 57 57 56 56 60 63 62 64 64 71
2730.0 78 79 93 101 117 121 122 122 113 113
2770.0 107 115 113 114 122 129 137 146 160 164
2810.0 175 188 206 225 254 275 311 348 400 482
2850.0 578 691 808 937 1124 1382 1740 2176 2642 2874
2890.0 2865 2639 2332 2152 2112 2192 2351 2540 2771 3031
2930.0 3352 3790 4370 4958 5340 5449 5461 5599 6171 6935
2970.0 7615 7713 7044 5880 4493 3347 2457 1809 1352 1018
3010.0 800 646 535 461 406 372 328 298 268 239
3050.0 210 188 166 159 145 135 135 125 121 114
3090.0 107 102 97 95 89 81 81 82 73 74
3130.0 74 74 70 67 62 62 68 60 61 62
3170.0 60 61 53 55 58 50 46 41 42 45
3210.0 41 39 33 25 25 24 20 23 16 12
3250.0 12 17 6 10 5 6 19 5 5 13
3290.0 13 5 4 16 22 9 14 5 13 13
3330.0 12 6 13 5 5 13 13 13 12 12
3370.0 12 20 20 12 20 13 12 21 12 13
3410.0 4 18 13 5 12 7 12 6 6 13
3450.0 20 29 23 22 30 31 47 66 77 89
3490.0 98 98 81 67 45 33 32 17 18 11
3530.0 7 0 6 6 11 6 13 12 21 23
3570.0 37 31 38 27 25 33 19 11 14 5
3610.0 3 5 11 6 2 11 10 1 6 12
3650.0 22 5 21 12 16 20 12 15 14 18
3690.0 26 21 20 14 6 12 10 13 19 19
3730.0 13 18 12 12 18 9 19 12 21 21
3770.0 21 15 18 14 10 24 14 21 19 21
3810.0 22 16 26 27 20 22 28 27 26 21
3850.0 29 31 34 30 26 26 20 30 26 20
3890.0 28 38 26 29 34 30 29 36 35 35
3930.0 44 41 38 38 29 29 39 42 45 43
##END=
