##TITLE=Decanedioic acid, dibutyl ester
##JCAMP-DX=4.24
##DATA TYPE=INFRARED SPECTRUM
##ORIGIN=Sadtler Research Labs Under US-EPA Contract
##OWNER=NIST Standard Reference Data Program
##CAS REGISTRY NO=109-43-3
##MOLFORM=C 18 H 34 O 4
##XUNITS=1/CM
##YUNITS=ABSORBANCE
##XFACTOR=1.0
##YFACTOR=0.000061377
##DELTAX=4.0
##FIRSTX=450.0
##LASTX=3966.0
##FIRSTY=0.004726
##MAXX=3966
##MINX=450
##MAXY=0.61377
##MINY=0
##NPOINTS=880
##XYDATA=(X++(Y..Y))
450.0 77 102 91 77 73 141 118 138 110 52
490.0 52 67 92 108 106 46 84 94 95 61
530.0 65 177 115 104 9 25 47 64 54 32
570.0 30 33 125 23 104 281 181 171 158 104
610.0 146 127 147 143 138 140 130 145 110 121
650.0 113 111 103 125 73 148 111 103 124 129
690.0 118 130 148 165 182 204 217 225 257 251
730.0 249 244 256 276 257 282 266 253 240 235
770.0 238 213 197 204 253 230 241 226 223 242
810.0 247 255 248 262 268 269 311 283 291 279
850.0 277 258 273 291 289 286 290 292 301 292
890.0 309 319 307 305 307 321 319 320 331 337
930.0 372 404 445 511 578 655 714 729 767 773
970.0 776 739 702 677 669 684 701 784 892 993
1010.0 1113 1214 1335 1357 1332 1256 1131 1031 933 916
1050.0 942 1078 1287 1446 1569 1633 1654 1669 1726 1789
1090.0 1867 1897 1884 1842 1787 1781 1881 2040 2268 2543
1130.0 2868 3225 3608 4005 4421 4841 5248 5621 5993 6220
1170.0 6298 6006 5685 5043 4639 4368 4208 3950 3809 3683
1210.0 3632 3640 3644 3732 3817 3936 4008 4042 3991 3804
1250.0 3576 3321 3059 2821 2605 2415 2251 2100 1936 1834
1290.0 1747 1695 1671 1661 1638 1588 1545 1478 1422 1377
1330.0 1393 1429 1491 1587 1690 1742 1726 1637 1500 1320
1370.0 1156 1026 964 965 1036 1064 950 782 643 555
1410.0 515 504 537 610 706 826 892 925 967 1029
1450.0 1123 1271 1385 1459 1403 1257 1024 813 640 494
1490.0 375 318 276 239 201 181 173 149 126 152
1530.0 134 122 125 100 106 123 123 94 96 108
1570.0 98 103 103 101 108 104 106 104 101 95
1610.0 105 102 90 110 91 101 100 90 119 108
1650.0 100 100 125 129 147 142 164 184 207 237
1690.0 280 340 377 469 591 725 861 1008 1265 1598
1730.0 2053 2730 3835 5461 7603 9533 10000 8557 6272 4236
1770.0 2829 1984 1468 1116 858 682 537 434 365 312
1810.0 254 228 207 180 160 140 130 125 112 100
1850.0 96 91 97 88 79 66 79 75 65 69
1890.0 63 64 72 64 65 73 73 71 61 57
1930.0 57 66 69 66 67 74 74 73 65 73
1970.0 81 66 74 66 73 72 63 69 73 76
2010.0 73 82 79 73 81 81 81 89 88 88
2050.0 85 91 82 77 74 73 73 66 57 58
2090.0 57 49 49 54 49 44 51 41 42 49
2130.0 41 50 33 43 38 36 29 35 32 42
2170.0 42 43 41 33 33 33 41 24 27 23
2210.0 25 28 26 27 33 25 24 31 31 24
2250.0 24 23 23 22 21 22 20 25 32 45
2290.0 36 38 41 47 57 50 57 55 60 35
2330.0 53 48 30 31 29 51 50 43 32 14
2370.0 1 5 17 22 23 29 23 23 23 24
2410.0 24 24 24 24 23 24 15 14 18 16
2450.0 23 23 16 16 16 16 16 9 12 8
2490.0 7 1 8 0 8 15 9 8 16 14
2530.0 9 0 0 9 2 3 1 0 1 2
2570.0 9 11 17 16 12 22 18 24 18 18
2610.0 18 27 18 11 18 19 10 28 28 18
2650.0 29 24 28 34 37 35 52 52 53 70
2690.0 74 77 83 73 67 77 72 77 76 78
2730.0 86 94 102 118 112 120 126 122 123 126
2770.0 141 135 127 142 159 160 182 195 208 222
2810.0 238 257 286 323 347 397 446 520 612 764
2850.0 997 1343 1811 2321 2647 2722 2689 2615 2511 2414
2890.0 2289 2190 2170 2269 2505 2874 3353 3914 4515 5206
2930.0 6004 6763 7277 7420 7141 6536 5929 5624 5619 5822
2970.0 5810 5312 4412 3384 2557 1950 1486 1132 890 711
3010.0 597 507 433 385 355 303 269 265 218 202
3050.0 176 151 142 111 111 117 91 88 91 96
3090.0 80 82 74 71 71 56 56 56 54 56
3130.0 52 50 46 51 52 63 68 55 66 59
3170.0 57 49 60 56 54 59 63 67 51 59
3210.0 58 68 67 59 61 58 71 61 65 69
3250.0 74 79 62 63 60 62 68 51 46 46
3290.0 45 40 37 37 35 44 15 24 23 6
3330.0 39 13 24 17 22 38 30 8 17 12
3370.0 18 23 31 31 26 24 31 26 41 33
3410.0 19 39 36 27 32 34 42 33 41 36
3450.0 39 50 52 50 61 62 49 78 99 89
3490.0 84 90 82 58 34 34 46 40 29 25
3530.0 11 19 36 37 13 29 28 12 18 32
3570.0 12 18 29 23 38 38 31 30 38 37
3610.0 53 48 49 55 45 58 45 55 25 40
3650.0 47 39 48 55 57 64 36 26 50 55
3690.0 45 57 56 50 57 65 50 59 61 62
3730.0 69 54 59 55 44 28 37 52 44 51
3770.0 51 40 40 42 55 44 43 47 42 52
3810.0 45 36 34 33 38 39 34 23 25 37
3850.0 38 58 60 57 40 21 26 48 44 49
3890.0 71 54 52 59 51 56 59 63 52 65
3930.0 69 56 52 54 66 69 68 74 68 67
##END=
