##TITLE=Pyridine, 2-bromo-
##JCAMP-DX=4.24
##DATA TYPE=INFRARED SPECTRUM
##ORIGIN=Sadtler Research Labs Under US-EPA Contract
##OWNER=NIST Standard Reference Data Program
##CAS REGISTRY NO=109-04-6
##MOLFORM=C 5 H 4 Br N
##XUNITS=1/CM
##YUNITS=ABSORBANCE
##XFACTOR=1.0
##YFACTOR=0.000080469
##DELTAX=4.0
##FIRSTX=450.0
##LASTX=3966.0
##FIRSTY=0.018991
##MAXX=3966
##MINX=450
##MAXY=0.80469
##MINY=0
##NPOINTS=880
##XYDATA=(X++(Y..Y))
450.0 236 222 287 328 351 281 182 135 82 77
490.0 76 90 57 60 18 29 40 82 71 29
530.0 41 41 76 52 50 59 38 1 58 72
570.0 93 131 14 85 53 113 222 261 309 324
610.0 270 148 282 294 249 145 129 77 19 106
650.0 96 175 161 143 159 164 168 246 211 195
690.0 549 1524 2966 2952 3084 3436 1680 293 193 468
730.0 740 1062 1612 2258 2750 3119 4173 4828 3033 2913
770.0 2428 1692 1038 609 347 205 50 58 65 49
810.0 78 117 83 65 31 63 89 57 84 65
850.0 46 20 34 85 61 92 113 95 65 95
890.0 96 95 74 79 97 57 93 98 167 178
930.0 146 157 175 132 117 136 98 106 107 158
970.0 217 312 490 585 433 487 641 499 380 344
1010.0 316 291 353 532 682 833 1000 1146 886 698
1050.0 776 514 309 313 616 1415 2470 2629 2651 2872
1090.0 1964 1236 2537 5936 9113 8943 8647 6838 2643 730
1130.0 455 484 543 533 511 468 382 249 170 109
1170.0 62 65 24 27 36 52 43 42 41 37
1210.0 43 61 105 107 158 178 179 174 143 103
1250.0 50 38 41 84 161 275 348 386 354 292
1290.0 217 123 91 55 45 43 31 43 50 67
1330.0 89 132 178 187 184 208 164 107 98 68
1370.0 93 105 136 143 170 233 349 635 1344 2800
1410.0 5041 6545 6729 6657 5060 2824 1633 1701 2571 3540
1450.0 4735 5668 4892 3861 2867 1227 363 156 111 117
1490.0 115 106 96 84 108 113 116 116 125 124
1530.0 159 227 360 561 851 1433 2542 4390 7129 9319
1570.0 10000 8397 4994 2980 1442 780 531 382 257 210
1610.0 189 144 144 137 156 169 136 157 143 119
1650.0 98 98 51 49 40 45 62 47 55 91
1690.0 66 64 95 131 83 75 84 108 77 82
1730.0 92 96 73 82 106 101 101 97 86 56
1770.0 31 42 44 37 32 39 36 28 34 58
1810.0 78 77 112 115 129 110 112 138 121 109
1850.0 113 127 121 121 108 87 32 27 32 31
1890.0 49 55 81 86 89 103 109 97 96 92
1930.0 96 107 114 140 125 127 121 103 110 109
1970.0 122 108 88 64 45 29 27 26 22 19
2010.0 5 22 22 30 37 43 30 21 14 15
2050.0 19 14 28 12 15 10 19 31 18 32
2090.0 33 31 31 38 39 33 24 28 32 21
2130.0 32 20 26 9 7 15 18 24 31 35
2170.0 27 34 41 64 65 71 73 63 59 50
2210.0 73 80 66 47 39 33 17 24 31 32
2250.0 24 33 20 35 43 56 63 51 57 56
2290.0 70 75 81 88 76 64 64 65 59 66
2330.0 42 44 45 42 64 22 41 30 53 69
2370.0 80 72 71 42 30 22 11 36 36 42
2410.0 43 36 33 38 59 72 77 79 76 45
2450.0 51 50 45 45 38 46 27 31 33 32
2490.0 41 41 46 52 70 77 97 77 70 47
2530.0 46 44 37 49 48 48 53 60 61 61
2570.0 49 47 37 21 36 45 53 42 43 37
2610.0 21 20 19 32 20 21 27 46 36 52
2650.0 48 45 38 39 63 70 72 78 58 30
2690.0 24 27 25 23 15 25 5 13 14 24
2730.0 37 5 19 13 0 8 29 25 12 11
2770.0 22 18 14 45 45 44 30 34 40 22
2810.0 29 35 21 2 10 24 36 31 37 45
2850.0 16 22 28 34 27 20 32 24 27 51
2890.0 65 65 60 47 54 26 33 51 35 22
2930.0 5 20 19 19 38 44 33 28 38 49
2970.0 65 71 112 109 123 169 212 233 214 221
3010.0 185 118 85 96 92 100 117 186 293 433
3050.0 689 1011 1288 1321 1434 1793 1754 1450 1293 1219
3090.0 826 472 370 383 255 160 142 104 113 132
3130.0 163 165 166 149 116 84 69 70 42 47
3170.0 19 26 21 18 44 23 26 18 21 14
3210.0 26 26 34 15 19 24 15 43 28 39
3250.0 21 17 22 16 36 42 30 30 21 13
3290.0 36 33 35 42 11 21 14 28 34 35
3330.0 40 10 11 31 34 29 46 22 35 17
3370.0 26 41 33 38 15 25 30 39 39 48
3410.0 26 25 24 30 40 35 54 36 21 19
3450.0 29 45 42 49 45 17 7 38 39 46
3490.0 46 50 35 9 42 42 48 46 34 41
3530.0 20 34 50 43 25 38 38 37 34 47
3570.0 68 23 28 31 41 52 53 54 47 17
3610.0 30 42 45 51 33 66 20 21 47 44
3650.0 63 38 52 32 29 42 70 66 47 42
3690.0 46 41 27 61 55 36 37 39 31 26
3730.0 38 54 50 18 62 47 68 45 52 52
3770.0 24 43 55 65 54 44 39 29 27 43
3810.0 62 26 38 22 22 18 27 59 45 24
3850.0 15 36 24 28 41 53 17 9 28 18
3890.0 29 20 28 18 3 17 31 33 26 20
3930.0 14 9 18 42 39 36 2 4 6 6
##END=
