##TITLE=Pyridine, 2-chloro-
##JCAMP-DX=4.24
##DATA TYPE=INFRARED SPECTRUM
##ORIGIN=Sadtler Research Labs Under US-EPA Contract
##OWNER=NIST Standard Reference Data Program
##CAS REGISTRY NO=109-09-1
##MOLFORM=C 5 H 4 Cl N
##XUNITS=1/CM
##YUNITS=ABSORBANCE
##XFACTOR=1.0
##YFACTOR=0.000093219
##DELTAX=4.0
##FIRSTX=450.0
##LASTX=3966.0
##FIRSTY=0.041389
##MAXX=3966
##MINX=450
##MAXY=0.93219
##MINY=0
##NPOINTS=880
##XYDATA=(X++(Y..Y))
450.0 444 435 331 307 573 556 684 736 689 673
490.0 651 467 418 533 289 97 102 263 198 381
530.0 132 103 0 363 417 255 222 195 270 146
570.0 209 181 222 168 252 233 268 327 371 495
610.0 557 515 352 568 474 355 299 254 265 212
650.0 229 224 275 221 280 223 285 255 326 399
690.0 438 486 498 549 542 764 1107 2048 3005 3773
730.0 4422 4804 5276 4647 3827 3767 4165 4838 7300 4765
770.0 2898 3453 3002 2054 1350 818 488 340 322 306
810.0 303 267 297 259 236 243 229 222 213 223
850.0 204 204 203 222 201 222 214 220 219 228
890.0 222 239 240 242 233 224 228 207 236 251
930.0 264 261 293 335 388 408 417 441 417 431
970.0 441 472 593 783 758 539 714 809 583 416
1010.0 328 286 283 326 444 674 1020 1210 1130 1070
1050.0 1162 1043 653 473 465 683 1134 1601 1578 1716
1090.0 1672 1752 1296 1116 2110 4122 6973 8865 9360 9203
1130.0 8984 7576 3873 1946 1984 2591 3220 3084 3009 2754
1170.0 2275 1440 530 245 192 177 185 147 171 151
1210.0 176 148 179 183 184 207 220 248 214 225
1250.0 201 207 179 196 239 345 541 626 631 570
1290.0 605 507 333 194 171 162 158 176 140 148
1330.0 140 180 201 262 273 323 318 332 357 297
1370.0 280 248 282 224 313 283 386 540 990 2224
1410.0 4779 7777 8064 8017 8052 7681 4987 2389 2874 4172
1450.0 4806 4730 5419 5706 4086 2338 1747 1279 691 325
1490.0 289 201 257 224 272 319 260 340 328 426
1530.0 462 612 727 1030 1248 1415 2089 2896 4619 5840
1570.0 8421 10000 9974 8184 6176 4676 2618 1433 971 542
1610.0 414 332 364 281 285 286 303 321 229 321
1650.0 274 304 175 183 183 183 209 161 194 203
1690.0 181 156 236 240 232 206 237 290 220 211
1730.0 226 269 223 233 248 256 211 204 200 157
1770.0 180 173 140 125 126 133 149 137 163 155
1810.0 161 194 201 232 245 263 236 258 297 316
1850.0 297 289 295 252 236 243 193 136 150 154
1890.0 174 167 185 200 206 225 205 222 227 219
1930.0 216 239 243 239 249 250 250 213 216 223
1970.0 214 191 185 170 141 123 106 103 92 98
2010.0 92 99 97 98 99 101 101 106 110 100
2050.0 92 84 84 83 87 87 85 93 96 98
2090.0 94 103 100 104 102 105 101 104 104 99
2130.0 95 90 98 96 98 95 96 98 98 95
2170.0 89 92 91 98 96 97 108 108 107 115
2210.0 126 125 125 118 113 95 86 75 74 71
2250.0 70 74 75 82 88 101 106 118 121 118
2290.0 114 118 122 120 129 125 132 123 113 104
2330.0 85 95 86 81 81 75 53 58 58 84
2370.0 79 91 92 76 76 78 78 78 88 83
2410.0 87 89 99 100 87 92 97 104 91 92
2450.0 91 89 79 80 79 79 78 70 68 63
2490.0 62 60 67 70 80 90 97 103 96 97
2530.0 82 75 74 73 68 72 80 85 86 88
2570.0 94 89 90 86 89 82 73 76 71 72
2610.0 67 65 62 61 59 52 49 53 51 52
2650.0 53 53 64 54 53 62 63 67 70 76
2690.0 70 72 66 54 45 41 32 29 28 33
2730.0 34 29 31 25 21 15 13 11 16 19
2770.0 25 22 26 38 41 45 48 48 45 44
2810.0 45 40 34 37 42 33 45 46 47 44
2850.0 56 52 52 55 57 53 53 51 48 57
2890.0 59 69 70 67 68 71 63 43 38 32
2930.0 37 33 40 28 31 34 39 47 48 57
2970.0 69 89 99 128 151 190 240 299 345 344
3010.0 320 327 313 251 194 185 206 261 361 535
3050.0 802 1163 1466 1496 1581 2017 2228 1909 1635 1562
3090.0 1468 1056 687 592 516 319 200 152 132 132
3130.0 136 134 135 136 134 132 97 89 70 62
3170.0 48 44 39 31 31 23 23 23 28 17
3210.0 22 16 18 31 14 23 20 25 28 29
3250.0 29 29 36 33 35 33 45 39 38 39
3290.0 48 37 37 41 52 51 53 53 52 50
3330.0 47 44 45 53 49 47 51 36 36 44
3370.0 43 41 37 35 47 36 31 42 41 39
3410.0 33 46 35 27 21 32 22 25 13 25
3450.0 23 19 20 23 13 28 25 28 39 37
3490.0 45 42 31 39 33 51 48 54 52 50
3530.0 56 38 38 44 49 39 51 50 46 46
3570.0 61 44 47 45 43 47 54 44 53 48
3610.0 44 40 40 50 41 42 46 41 25 18
3650.0 39 34 30 31 21 43 20 61 36 23
3690.0 30 26 11 11 35 20 25 14 27 32
3730.0 25 15 15 15 46 25 33 41 22 26
3770.0 21 43 50 37 47 61 52 62 74 60
3810.0 85 90 75 81 53 55 73 38 70 66
3850.0 36 30 25 56 15 51 46 65 72 35
3890.0 76 55 45 70 14 48 38 46 44 64
3930.0 71 55 41 59 82 101 51 39 73 63
##END=
