##TITLE=Butane, 1-bromo-
##JCAMP-DX=4.24
##DATA TYPE=INFRARED SPECTRUM
##ORIGIN=Sadtler Research Labs Under US-EPA Contract
##OWNER=NIST Standard Reference Data Program
##CAS REGISTRY NO=109-65-9
##MOLFORM=C 4 H 9 Br
##XUNITS=1/CM
##YUNITS=ABSORBANCE
##XFACTOR=1.0
##YFACTOR=0.000064670
##DELTAX=4.0
##FIRSTX=450.0
##LASTX=3966.0
##FIRSTY=0.015197
##MAXX=3966
##MINX=450
##MAXY=0.6467
##MINY=0
##NPOINTS=880
##XYDATA=(X++(Y..Y))
450.0 235 113 168 0 152 46 131 53 142 95
490.0 136 126 21 88 17 107 72 75 84 122
530.0 122 82 183 184 266 357 478 566 760 916
570.0 1002 1017 956 873 596 382 194 162 109 152
610.0 132 135 190 208 282 341 505 630 807 991
650.0 1176 1179 1112 927 691 312 245 190 163 158
690.0 133 134 111 111 115 126 150 163 184 229
730.0 351 531 685 795 824 834 689 571 408 313
770.0 313 322 245 289 275 230 221 177 172 139
810.0 139 105 90 83 74 64 66 79 72 108
850.0 127 175 236 321 382 405 430 375 306 238
890.0 201 193 191 208 221 252 262 261 233 229
930.0 183 160 139 120 102 95 103 106 120 130
970.0 142 152 177 181 198 207 219 227 223 223
1010.0 194 163 136 109 87 82 104 134 185 206
1050.0 234 249 260 242 193 162 147 126 104 103
1090.0 121 154 168 171 178 144 110 77 80 68
1130.0 70 67 66 77 87 102 103 123 125 148
1170.0 158 179 200 223 260 296 347 426 593 929
1210.0 1535 2047 2220 2310 2119 1635 1112 789 706 803
1250.0 1072 1567 2192 2640 2800 2874 2763 2273 1681 1354
1290.0 1213 1139 1058 961 805 600 456 372 292 268
1330.0 255 277 310 349 365 387 407 395 397 395
1370.0 405 412 481 535 566 567 568 468 354 307
1410.0 280 291 320 405 523 686 903 1143 1292 1387
1450.0 1542 1595 1568 1560 1530 1418 1218 1085 896 710
1490.0 555 433 350 261 217 157 134 111 97 88
1530.0 68 75 66 76 54 62 59 66 51 53
1570.0 47 48 43 44 41 38 36 41 31 36
1610.0 37 31 31 27 36 27 30 22 29 20
1650.0 35 19 27 20 24 20 30 18 31 19
1690.0 23 22 28 18 20 18 18 16 16 9
1730.0 11 22 16 20 17 22 24 24 22 21
1770.0 21 16 13 9 14 9 8 6 5 8
1810.0 4 2 3 4 3 7 2 7 2 10
1850.0 7 9 9 14 8 10 9 6 7 4
1890.0 3 2 4 7 5 6 8 13 10 8
1930.0 7 5 8 7 8 8 10 3 9 6
1970.0 11 3 10 6 10 8 7 9 6 6
2010.0 7 8 9 12 12 11 16 15 19 21
2050.0 23 18 20 15 16 17 15 15 12 16
2090.0 13 11 13 14 13 14 13 15 16 17
2130.0 16 16 20 15 17 16 18 17 20 17
2170.0 20 19 18 21 23 23 22 24 24 22
2210.0 24 23 24 21 26 26 26 24 22 24
2250.0 24 28 23 22 20 19 14 14 17 19
2290.0 16 17 24 24 26 34 32 35 36 40
2330.0 34 38 24 34 26 38 49 42 51 41
2370.0 36 44 37 33 33 28 28 26 25 23
2410.0 23 26 22 26 26 31 32 35 28 25
2450.0 23 20 22 15 19 20 24 20 25 18
2490.0 21 19 18 15 16 15 11 17 16 18
2530.0 17 14 13 19 16 16 18 26 24 22
2570.0 21 24 23 20 20 19 18 20 18 23
2610.0 25 29 30 36 40 44 49 50 59 67
2650.0 71 81 89 97 93 92 86 85 81 79
2690.0 80 81 84 81 83 84 86 85 86 95
2730.0 105 119 128 145 156 162 161 151 137 131
2770.0 127 130 134 140 152 168 180 194 209 220
2810.0 239 268 309 355 423 512 636 797 991 1146
2850.0 1279 1454 1628 1805 2037 2337 2739 3342 3907 4054
2890.0 4090 4146 3801 3357 3151 3087 3078 3211 3414 3755
2930.0 4180 4829 5628 6363 6746 7064 7410 7799 8406 9160
2970.0 10000 9958 9437 8431 6616 4814 3631 2820 2234 1866
3010.0 1649 1481 1279 1162 1029 867 711 591 496 421
3050.0 359 315 283 261 240 224 215 206 192 192
3090.0 174 169 165 154 149 147 140 136 129 121
3130.0 117 113 109 111 107 106 103 99 98 97
3170.0 99 95 96 100 101 94 92 88 80 74
3210.0 72 65 67 55 47 45 44 46 40 36
3250.0 35 35 34 25 24 23 19 22 19 18
3290.0 20 19 23 17 13 18 19 22 17 15
3330.0 15 17 12 13 18 20 19 19 20 15
3370.0 23 22 26 23 17 29 24 22 23 20
3410.0 19 21 24 21 27 23 24 22 29 23
3450.0 21 22 25 19 24 21 24 26 19 25
3490.0 22 18 24 23 24 21 29 22 22 18
3530.0 26 24 17 25 37 27 23 38 19 32
3570.0 26 26 23 24 32 20 29 27 22 28
3610.0 33 31 31 29 30 35 44 27 40 38
3650.0 46 46 31 41 29 45 30 39 27 46
3690.0 46 33 39 43 40 37 27 30 48 43
3730.0 37 38 25 22 68 30 50 28 38 40
3770.0 37 31 37 47 31 36 34 52 35 42
3810.0 27 39 40 42 46 37 54 59 38 46
3850.0 48 37 39 47 40 32 26 31 32 42
3890.0 29 42 34 44 45 45 47 35 51 43
3930.0 48 37 45 44 49 59 54 39 39 39
##END=
