##TITLE=Propane, 1,3-dibromo-
##JCAMP-DX=4.24
##DATA TYPE=INFRARED SPECTRUM
##ORIGIN=Sadtler Research Labs Under US-EPA Contract
##OWNER=NIST Standard Reference Data Program
##CAS REGISTRY NO=109-64-8
##MOLFORM=C 3 H 6 Br 2
##XUNITS=1/CM
##YUNITS=ABSORBANCE
##XFACTOR=1.0
##YFACTOR=0.000150104
##DELTAX=4.0
##FIRSTX=450.0
##LASTX=3966.0
##FIRSTY=0.247221
##MAXX=3966
##MINX=450
##MAXY=1.50104
##MINY=0
##NPOINTS=880
##XYDATA=(X++(Y..Y))
450.0 1647 794 601 387 180 142 122 424 385 383
490.0 255 347 194 209 195 154 210 152 210 154
530.0 129 170 322 359 513 740 1184 1524 1431 1277
570.0 1066 1031 1010 816 764 767 844 961 967 780
610.0 498 290 237 220 243 241 281 361 498 675
650.0 915 1118 1236 1035 705 436 331 256 230 179
690.0 191 171 173 163 167 186 223 212 248 289
730.0 328 369 351 354 321 383 465 760 1002 1552
770.0 2507 2767 1887 1590 914 598 372 311 237 283
810.0 341 384 462 435 535 690 746 778 722 663
850.0 643 614 581 492 350 291 216 203 189 212
890.0 225 253 279 297 282 210 214 222 280 360
930.0 491 664 852 1060 1143 927 591 384 264 212
970.0 178 160 152 138 153 144 160 164 158 156
1010.0 148 154 149 169 172 187 189 212 238 304
1050.0 365 407 424 419 459 462 427 373 282 226
1090.0 208 177 175 198 215 232 215 190 179 177
1130.0 165 158 149 147 146 150 165 174 193 209
1170.0 226 215 219 212 255 387 526 595 540 469
1210.0 477 541 694 1204 2191 3907 6018 8266 10000 8036
1250.0 7648 4267 2206 1537 1187 997 936 993 1223 1627
1290.0 2002 2206 2063 1776 1544 1158 875 671 544 549
1330.0 574 594 537 535 631 801 787 661 531 300
1370.0 203 168 154 129 136 134 141 154 180 248
1410.0 340 512 726 980 1171 1501 2157 2612 2629 2354
1450.0 1627 1123 832 605 445 336 257 206 164 147
1490.0 137 123 117 104 111 91 84 91 98 86
1530.0 87 92 98 109 85 80 70 90 76 65
1570.0 64 72 63 61 49 56 54 58 55 59
1610.0 59 62 64 61 62 57 56 63 47 60
1650.0 56 78 53 54 58 57 55 57 53 67
1690.0 50 53 60 66 61 54 58 68 59 53
1730.0 61 64 68 56 63 62 55 53 60 51
1770.0 57 64 51 57 49 56 56 51 50 52
1810.0 49 52 49 47 48 46 41 40 38 43
1850.0 34 38 38 37 40 44 44 39 48 49
1890.0 53 50 53 55 60 56 49 43 41 37
1930.0 38 37 35 37 35 33 28 30 32 33
1970.0 36 38 38 38 41 42 46 46 51 49
2010.0 50 50 49 50 46 46 42 41 36 37
2050.0 39 40 37 35 35 34 36 35 39 34
2090.0 33 33 34 34 27 24 22 22 21 20
2130.0 21 21 23 21 22 22 26 27 30 36
2170.0 43 46 55 58 61 64 64 66 69 71
2210.0 66 62 58 55 49 45 42 39 41 39
2250.0 37 35 38 35 34 34 36 35 41 43
2290.0 43 39 33 25 19 20 19 14 20 14
2330.0 17 22 23 25 27 33 35 31 15 33
2370.0 35 34 32 38 37 39 39 40 37 30
2410.0 30 28 26 21 22 24 23 22 20 16
2450.0 11 15 14 17 15 21 24 27 32 32
2490.0 32 29 27 20 14 11 9 3 2 1
2530.0 0 3 7 6 9 9 7 8 12 14
2570.0 14 16 14 11 10 10 10 13 11 12
2610.0 13 11 11 15 16 14 18 23 23 19
2650.0 16 15 11 18 20 32 55 73 91 104
2690.0 102 84 61 43 26 16 10 8 10 13
2730.0 15 28 31 28 23 20 18 16 16 17
2770.0 23 24 29 31 33 30 31 31 27 27
2810.0 33 49 69 104 136 169 185 206 231 251
2850.0 279 309 358 402 430 446 440 404 356 313
2890.0 301 331 392 496 629 787 921 1007 1100 1126
2930.0 1193 1193 1055 931 768 692 784 957 1232 1563
2970.0 1943 2176 2374 2378 2102 1760 1415 1114 882 722
3010.0 661 694 737 766 736 629 515 356 245 166
3050.0 107 72 55 46 37 38 33 33 26 28
3090.0 23 21 20 18 20 24 30 27 26 21
3130.0 18 13 17 19 22 17 23 19 18 22
3170.0 21 19 21 25 23 27 27 33 22 21
3210.0 21 17 19 16 25 24 26 29 33 33
3250.0 38 37 23 27 10 9 11 8 9 15
3290.0 16 17 20 17 27 12 14 13 9 7
3330.0 11 16 18 17 9 12 6 17 8 7
3370.0 6 13 7 8 13 13 18 18 17 12
3410.0 13 0 6 13 12 4 8 13 2 13
3450.0 13 10 15 15 12 8 10 8 11 16
3490.0 18 21 16 15 22 10 20 22 21 17
3530.0 23 25 26 22 31 23 16 21 22 28
3570.0 18 33 35 28 31 23 35 24 40 33
3610.0 31 16 18 38 25 28 16 18 32 34
3650.0 18 34 28 36 30 31 42 36 41 45
3690.0 30 29 26 20 31 47 21 26 46 30
3730.0 31 27 37 31 30 25 51 26 22 32
3770.0 46 45 23 21 38 51 54 36 31 38
3810.0 16 11 30 24 34 27 43 40 30 37
3850.0 49 48 43 46 43 33 39 42 51 58
3890.0 51 39 57 45 31 26 65 34 14 37
3930.0 50 53 56 23 26 24 54 16 20 48
##END=
