##TITLE=Propane, 1-bromo-3-chloro-
##JCAMP-DX=4.24
##DATA TYPE=INFRARED SPECTRUM
##ORIGIN=Sadtler Research Labs Under US-EPA Contract
##OWNER=NIST Standard Reference Data Program
##CAS REGISTRY NO=109-70-6
##MOLFORM=C 3 H 6 Br Cl
##XUNITS=1/CM
##YUNITS=ABSORBANCE
##XFACTOR=1.0
##YFACTOR=0.000055499
##DELTAX=4.0
##FIRSTX=450.0
##LASTX=3966.0
##FIRSTY=0.000000
##MAXX=3966
##MINX=450
##MAXY=0.55499
##MINY=0
##NPOINTS=880
##XYDATA=(X++(Y..Y))
450.0 0 225 288 302 278 321 355 303 419 284
490.0 434 237 367 296 259 274 278 359 239 274
530.0 242 400 393 410 310 496 779 1203 1807 2439
570.0 3516 3420 3429 3179 1652 685 716 532 542 472
610.0 558 560 645 701 873 965 1225 1511 1680 1914
650.0 2191 2551 3016 3840 4358 4313 4095 3458 2776 1866
690.0 1287 984 791 751 669 842 870 1057 1204 1560
730.0 1708 1943 1863 1375 1096 1001 1071 1143 1584 2170
770.0 3044 3792 4635 5871 6778 5389 4563 3809 2566 1641
810.0 1081 851 706 727 828 1065 1584 2012 2310 2527
850.0 2650 2259 1959 1792 1524 1206 975 800 648 543
890.0 493 521 548 606 630 670 519 434 483 539
930.0 664 823 1132 1547 2106 2614 2890 3069 2707 1626
970.0 1029 845 602 529 431 401 344 345 359 428
1010.0 483 508 529 495 490 475 495 474 474 485
1050.0 613 753 906 1045 1172 1179 1049 992 808 592
1090.0 467 389 310 289 293 289 362 403 447 449
1130.0 450 420 429 443 448 460 433 410 385 399
1170.0 409 467 533 624 648 682 728 770 951 1038
1210.0 1104 1123 1127 1311 1846 2867 4531 6337 8092 9056
1250.0 8752 8831 9431 10000 9861 9319 8786 6043 3846 3068
1290.0 3006 3147 3527 3963 4154 4022 3798 3444 3010 2508
1330.0 2190 2054 2033 2050 2064 2050 1940 1648 1421 1198
1370.0 863 601 472 397 391 362 376 409 498 637
1410.0 853 1190 1584 2056 2400 2909 3924 4778 5334 5539
1450.0 5097 4300 3243 2362 1689 1278 962 714 584 464
1490.0 410 360 360 320 339 312 300 292 289 288
1530.0 253 263 257 270 230 256 248 263 254 242
1570.0 246 240 263 238 243 233 245 238 236 242
1610.0 238 244 250 259 238 244 246 253 242 237
1650.0 248 252 240 228 245 230 239 228 243 253
1690.0 243 239 243 239 233 238 233 248 230 226
1730.0 222 231 234 219 233 230 238 227 243 233
1770.0 236 235 228 225 222 238 229 234 237 242
1810.0 234 239 235 237 240 234 241 235 243 232
1850.0 244 235 244 236 232 236 232 235 229 240
1890.0 241 251 245 259 256 257 262 258 264 257
1930.0 268 254 250 239 238 222 226 232 232 231
1970.0 227 239 236 243 235 238 236 244 252 247
2010.0 261 261 272 268 286 281 286 284 286 284
2050.0 285 286 277 288 282 297 289 284 274 279
2090.0 273 271 273 275 282 269 272 257 259 258
2130.0 261 253 244 244 236 244 240 243 236 241
2170.0 244 248 255 260 273 277 297 303 314 303
2210.0 318 317 318 326 326 322 310 309 297 293
2250.0 281 283 278 282 281 277 282 285 297 290
2290.0 306 313 325 316 323 319 299 283 271 259
2330.0 241 232 221 233 238 239 267 259 254 222
2370.0 226 232 261 274 297 297 314 323 327 336
2410.0 325 315 306 308 285 284 270 268 264 260
2450.0 256 249 262 255 256 248 257 262 263 276
2490.0 286 291 285 275 266 259 247 238 224 230
2530.0 226 229 228 218 229 225 228 227 241 236
2570.0 244 243 243 241 242 245 233 239 229 230
2610.0 223 230 227 232 231 225 229 224 247 237
2650.0 238 243 258 264 279 298 323 346 373 393
2690.0 398 402 403 389 375 367 371 352 342 320
2730.0 318 293 298 292 302 315 318 323 312 317
2770.0 311 310 300 315 312 309 305 303 304 287
2810.0 304 321 357 409 488 556 624 657 699 746
2850.0 785 865 959 1085 1200 1319 1381 1445 1452 1391
2890.0 1320 1274 1289 1396 1635 1960 2352 2548 2766 2997
2930.0 3022 3051 3072 2950 2935 3049 3268 3776 4577 5478
2970.0 6022 6677 6975 6480 6026 5215 4493 3902 3479 3287
3010.0 2979 2751 2603 2207 1737 1435 1215 974 740 591
3050.0 483 415 375 350 343 317 325 316 318 307
3090.0 296 292 285 288 283 288 275 269 261 278
3130.0 271 283 277 275 275 274 252 255 252 258
3170.0 259 263 274 275 262 265 260 253 250 255
3210.0 257 244 245 246 239 248 241 237 251 256
3250.0 247 242 240 240 246 255 246 252 256 253
3290.0 247 237 219 237 237 245 253 252 252 241
3330.0 258 242 259 268 271 239 262 257 266 253
3370.0 267 274 256 279 272 247 254 252 256 258
3410.0 259 263 267 264 276 274 265 259 275 263
3450.0 263 265 274 239 265 298 270 261 253 285
3490.0 255 272 283 271 246 259 273 251 287 257
3530.0 280 280 280 284 269 292 282 269 283 285
3570.0 264 268 302 298 282 262 262 266 294 308
3610.0 318 274 282 286 291 295 299 309 312 311
3650.0 311 306 317 313 330 349 348 341 319 333
3690.0 359 343 359 339 329 309 326 318 328 330
3730.0 319 342 346 324 341 332 307 319 320 330
3770.0 300 335 335 330 307 320 312 307 355 329
3810.0 328 332 361 355 334 359 334 342 337 362
3850.0 338 332 331 327 331 328 400 328 295 357
3890.0 372 357 351 333 329 328 338 350 321 354
3930.0 373 355 383 345 280 290 362 348 384 362
##END=
