##TITLE=Morpholine, 4-methyl-
##JCAMP-DX=4.24
##DATA TYPE=INFRARED SPECTRUM
##ORIGIN=Sadtler Research Labs Under US-EPA Contract
##OWNER=NIST Standard Reference Data Program
##CAS REGISTRY NO=109-02-4
##MOLFORM=C 5 H 11 N O
##XUNITS=1/CM
##YUNITS=ABSORBANCE
##XFACTOR=1.0
##YFACTOR=0.000100375
##DELTAX=4.0
##FIRSTX=450.0
##LASTX=3966.0
##FIRSTY=0.187501
##MAXX=3966
##MINX=450
##MAXY=1.00375
##MINY=0
##NPOINTS=880
##XYDATA=(X++(Y..Y))
450.0 1868 982 227 530 0 649 130 418 217 399
490.0 331 354 401 400 418 219 490 241 299 139
530.0 416 283 303 281 233 264 269 365 189 314
570.0 89 297 546 315 358 282 335 335 420 518
610.0 697 676 802 774 779 774 582 413 300 265
650.0 248 267 242 252 243 274 260 248 295 258
690.0 280 269 285 272 275 281 282 283 292 293
730.0 283 301 292 308 315 366 385 438 504 556
770.0 475 761 759 1102 1306 820 742 708 620 498
810.0 408 317 205 281 253 310 350 430 487 672
850.0 944 1250 1673 1881 2623 2776 2227 2176 1873 1355
890.0 1192 1143 1303 1276 1006 1044 1178 886 679 501
930.0 404 336 304 311 287 294 280 298 282 291
970.0 284 303 320 371 463 672 1138 1759 2284 2374
1010.0 2768 2522 2613 2421 1450 852 696 920 738 627
1050.0 714 710 740 754 863 864 814 874 953 932
1090.0 964 1194 1453 2055 2924 4104 5535 6940 8145 8210
1130.0 8225 9479 9736 8293 7235 6005 5115 4604 3150 1922
1170.0 1239 749 595 478 464 486 539 633 573 558
1210.0 656 639 505 457 375 350 311 304 307 322
1250.0 365 441 623 903 1343 1860 2592 3441 4432 4284
1290.0 3743 3627 2956 2161 1485 1009 706 575 500 422
1330.0 417 368 366 369 446 506 698 893 1201 1355
1370.0 1296 1452 1285 1090 1017 624 451 366 363 369
1410.0 380 437 395 442 453 539 706 1048 1625 2062
1450.0 2376 2527 3469 2943 2288 1815 1502 1208 945 669
1490.0 484 368 295 230 184 148 164 148 130 171
1530.0 160 173 156 148 148 179 168 132 155 165
1570.0 163 151 162 151 163 148 158 149 157 154
1610.0 159 160 142 162 148 164 143 145 157 150
1650.0 124 114 137 136 134 130 121 140 125 115
1690.0 139 150 129 140 157 180 165 140 159 162
1730.0 139 116 132 131 122 111 123 120 123 129
1770.0 121 121 133 129 131 124 116 122 108 128
1810.0 118 113 117 109 103 98 108 112 104 101
1850.0 112 114 119 116 111 109 120 130 124 131
1890.0 131 139 150 160 163 171 173 184 189 213
1930.0 216 217 205 180 160 147 131 123 131 137
1970.0 158 174 197 221 234 229 227 230 203 175
2010.0 152 126 111 99 98 95 92 88 92 102
2050.0 113 126 133 146 156 160 160 164 151 136
2090.0 121 118 109 101 94 90 86 91 92 97
2130.0 103 96 100 104 105 103 103 107 109 102
2170.0 100 98 90 91 85 85 84 87 90 92
2210.0 97 94 99 95 94 101 104 108 109 106
2250.0 112 107 102 99 105 105 107 114 123 129
2290.0 138 146 145 140 129 98 85 58 51 51
2330.0 54 68 83 85 98 83 51 51 90 155
2370.0 192 207 188 172 151 129 117 103 98 92
2410.0 95 94 99 105 111 118 123 129 123 121
2450.0 115 120 118 120 130 132 129 137 147 147
2490.0 162 171 174 179 188 192 182 179 171 168
2530.0 168 159 156 162 160 162 167 172 176 187
2570.0 192 188 196 189 189 182 180 177 179 189
2610.0 193 208 206 223 226 232 247 276 307 356
2650.0 396 453 506 569 677 737 766 912 1029 1128
2690.0 1262 1225 1086 1111 1001 916 874 924 1008 1126
2730.0 1307 1476 1730 1931 1945 1994 2226 2380 2574 2887
2770.0 3113 3649 4336 5083 5974 6751 7702 10000 9729 7955
2810.0 7099 6369 5350 4264 3446 3102 3038 3218 3603 4528
2850.0 5319 5922 6493 7160 8057 7090 5586 5323 4816 4242
2890.0 3745 3556 3570 3870 3741 3749 4152 4579 5385 5706
2930.0 6384 6737 6818 7330 7419 7672 7024 7158 8118 8590
2970.0 7347 6729 7341 6582 5300 3422 2031 1183 680 436
3010.0 299 261 232 225 210 213 199 188 196 188
3050.0 190 175 196 176 179 179 177 181 177 177
3090.0 170 164 153 158 154 156 154 160 150 154
3130.0 162 149 143 138 149 138 136 135 130 132
3170.0 136 138 129 138 139 150 148 164 149 139
3210.0 130 132 123 120 105 107 97 107 94 99
3250.0 115 87 91 102 86 96 73 89 87 87
3290.0 69 84 92 95 91 87 92 101 98 84
3330.0 90 83 95 94 77 90 68 69 65 71
3370.0 75 69 58 61 73 66 78 69 68 79
3410.0 85 72 74 80 88 83 85 94 98 92
3450.0 94 100 101 96 90 90 97 78 104 105
3490.0 108 101 102 96 105 118 89 101 141 118
3530.0 106 90 101 98 108 116 102 119 122 111
3570.0 126 125 133 109 112 120 118 118 140 123
3610.0 128 113 124 128 124 119 134 135 113 120
3650.0 123 124 139 124 121 118 96 87 138 132
3690.0 182 121 164 182 187 131 166 154 138 137
3730.0 128 119 159 163 176 177 147 131 120 162
3770.0 142 157 129 134 117 158 176 151 166 206
3810.0 160 182 198 189 163 176 176 170 153 158
3850.0 170 166 138 176 153 194 146 148 176 174
3890.0 173 166 183 87 152 150 135 120 163 152
3930.0 190 162 183 186 172 139 147 186 145 165
##END=
