##TITLE=1-Butanethiol
##JCAMP-DX=4.24
##DATA TYPE=INFRARED SPECTRUM
##ORIGIN=Sadtler Research Labs Under US-EPA Contract
##OWNER=NIST Standard Reference Data Program
##CAS REGISTRY NO=109-79-5
##MOLFORM=C 4 H 10 S
##XUNITS=1/CM
##YUNITS=ABSORBANCE
##XFACTOR=1.0
##YFACTOR=0.000098206
##DELTAX=4.0
##FIRSTX=450.0
##LASTX=3966.0
##FIRSTY=0.000000
##MAXX=3966
##MINX=450
##MAXY=0.98206
##MINY=0
##NPOINTS=880
##XYDATA=(X++(Y..Y))
450.0 0 91 170 187 204 192 239 171 198 163
490.0 206 118 158 150 165 124 184 184 199 181
530.0 196 205 187 183 216 192 195 168 231 167
570.0 183 115 145 205 162 150 76 161 156 138
610.0 154 158 195 168 170 139 282 161 163 183
650.0 205 196 193 199 217 205 176 155 166 179
690.0 194 216 250 284 317 329 357 352 358 431
730.0 482 416 494 463 459 443 390 395 369 375
770.0 365 384 394 387 360 330 299 251 202 183
810.0 181 181 189 181 174 188 189 191 193 193
850.0 196 199 200 201 212 235 242 241 254 256
890.0 251 237 231 222 223 211 214 218 229 233
930.0 252 269 283 308 322 344 354 365 364 366
970.0 347 328 309 285 255 228 245 252 235 222
1010.0 213 203 196 194 185 182 192 198 202 210
1050.0 224 230 236 235 240 240 244 259 280 291
1090.0 302 321 333 348 354 343 328 315 292 255
1130.0 222 206 194 183 175 178 174 177 182 195
1170.0 209 225 238 260 280 308 326 347 359 380
1210.0 399 435 480 539 620 690 702 693 700 649
1250.0 555 498 505 577 695 844 967 1071 1166 1230
1290.0 1234 1164 1074 990 895 777 664 562 479 428
1330.0 397 394 408 417 440 454 454 436 432 439
1370.0 448 509 577 610 632 622 628 556 452 399
1410.0 375 373 404 465 567 701 846 988 1131 1252
1450.0 1366 1428 1456 1461 1428 1318 1182 1051 897 746
1490.0 609 499 407 343 297 252 227 213 200 184
1530.0 171 164 162 162 160 155 154 157 148 144
1570.0 143 138 140 142 142 134 132 137 133 127
1610.0 130 129 130 125 124 125 123 122 120 122
1650.0 120 125 122 118 119 121 118 120 117 123
1690.0 121 117 125 121 117 114 113 112 118 113
1730.0 110 111 107 108 108 105 110 107 105 106
1770.0 107 108 107 108 103 103 102 106 104 99
1810.0 96 103 104 95 95 100 91 92 91 93
1850.0 91 96 93 91 91 87 90 81 84 86
1890.0 86 83 89 87 86 87 89 87 87 85
1930.0 86 91 95 93 96 96 99 97 95 100
1970.0 100 99 94 94 92 96 94 91 91 99
2010.0 99 103 101 104 109 103 106 102 100 97
2050.0 91 102 109 105 111 111 103 93 82 86
2090.0 85 88 99 93 97 100 96 95 97 100
2130.0 103 94 95 108 106 104 112 103 107 109
2170.0 109 110 107 106 108 106 105 109 106 110
2210.0 102 106 108 110 104 102 108 108 106 104
2250.0 101 107 104 102 99 102 105 104 107 105
2290.0 114 116 124 122 123 128 125 118 113 103
2330.0 106 101 117 124 128 122 94 97 116 126
2370.0 127 147 151 139 130 124 124 117 114 113
2410.0 109 111 107 110 105 100 95 96 106 100
2450.0 99 99 103 90 96 84 103 99 87 89
2490.0 89 90 99 99 102 100 104 105 107 110
2530.0 109 110 110 108 110 122 128 136 135 151
2570.0 163 186 204 241 266 288 293 293 290 269
2610.0 239 218 184 169 160 160 157 159 161 167
2650.0 174 172 169 181 167 181 190 194 201 201
2690.0 190 191 188 173 186 186 178 190 190 204
2730.0 218 226 242 251 263 263 264 258 240 242
2770.0 226 240 243 246 270 286 298 320 339 356
2810.0 391 412 439 484 551 648 760 916 1128 1365
2850.0 1651 1918 2198 2496 2791 3022 3346 3781 3990 3860
2890.0 3810 3834 3694 3494 3530 3779 4193 4680 5238 5866
2930.0 6601 7403 8063 8402 8521 8757 8903 9175 9437 9974
2970.0 10000 9212 8355 7184 5527 3967 2845 2075 1544 1144
3010.0 869 694 611 525 485 456 427 410 394 384
3050.0 381 369 338 317 323 303 293 281 285 269
3090.0 277 267 240 240 234 237 240 227 229 215
3130.0 213 207 211 203 199 202 209 209 204 200
3170.0 201 195 196 201 197 197 200 199 191 187
3210.0 189 171 174 166 154 152 144 147 143 133
3250.0 129 137 126 125 129 127 132 131 125 131
3290.0 122 125 121 133 110 128 104 115 110 131
3330.0 120 120 94 107 118 108 128 111 124 129
3370.0 108 100 133 127 119 125 116 115 130 126
3410.0 123 128 110 110 127 112 111 120 117 114
3450.0 107 106 103 108 107 99 104 103 125 116
3490.0 93 89 113 108 118 96 112 102 112 119
3530.0 128 121 119 120 115 111 124 128 128 123
3570.0 120 111 106 139 110 122 117 134 103 132
3610.0 149 162 131 108 148 117 149 145 115 134
3650.0 146 122 121 132 146 153 159 177 162 148
3690.0 135 158 145 141 164 158 139 156 153 142
3730.0 132 158 142 136 119 138 118 130 141 148
3770.0 149 157 140 135 167 145 168 135 122 133
3810.0 147 134 153 139 151 157 163 152 144 164
3850.0 150 119 131 151 154 141 159 141 174 153
3890.0 147 155 124 130 171 120 120 148 133 130
3930.0 148 159 134 122 153 158 142 100 150 148
##END=
