##TITLE=Ethanol, 2-methoxy-
##JCAMP-DX=4.24
##DATA TYPE=INFRARED SPECTRUM
##ORIGIN=Sadtler Research Labs Under US-EPA Contract
##OWNER=NIST Standard Reference Data Program
##CAS REGISTRY NO=109-86-4
##MOLFORM=C 3 H 8 O 2
##XUNITS=1/CM
##YUNITS=ABSORBANCE
##XFACTOR=1.0
##YFACTOR=0.000110046
##DELTAX=4.0
##FIRSTX=450.0
##LASTX=3966.0
##FIRSTY=0.000000
##MAXX=3966
##MINX=450
##MAXY=1.10046
##MINY=0
##NPOINTS=880
##XYDATA=(X++(Y..Y))
450.0 0 173 239 262 257 289 205 341 219 305
490.0 244 358 257 322 314 331 424 420 585 485
530.0 590 601 712 570 552 569 467 457 323 313
570.0 231 324 239 219 215 231 331 238 224 251
610.0 246 228 253 235 241 207 269 282 221 261
650.0 224 236 237 253 241 232 241 215 255 232
690.0 251 211 241 222 210 209 209 221 199 230
730.0 194 210 181 212 219 203 240 222 237 235
770.0 255 237 283 304 347 406 435 487 601 743
810.0 871 1033 1173 1339 1409 1433 1404 1436 1477 1395
850.0 1282 1152 1098 1066 1090 1129 1235 1385 1493 1539
890.0 1490 1466 1439 1440 1285 1093 934 846 794 750
930.0 747 737 758 761 791 806 828 856 875 897
970.0 897 962 997 1038 1059 1113 1182 1255 1382 1517
1010.0 1719 1889 2026 2198 2504 2821 3266 3852 4689 5814
1050.0 7060 8535 9551 9990 9515 9289 9592 9053 7245 5458
1090.0 4388 3871 3774 3876 4302 5040 6175 7490 8719 9494
1130.0 9656 10000 9792 9728 8491 6641 5084 4319 4028 4030
1170.0 4226 4088 4058 4185 4185 4207 3885 3447 3083 2811
1210.0 2602 2411 2245 2152 2109 2105 2122 2135 2085 1965
1250.0 1906 1838 1731 1609 1502 1399 1313 1217 1135 1060
1290.0 993 942 880 830 796 780 772 785 802 844
1330.0 905 981 1066 1151 1312 1557 1924 2331 2580 2656
1370.0 2661 2647 2736 2772 2463 2162 1936 1838 1740 1680
1410.0 1660 1639 1534 1393 1263 1193 1152 1162 1198 1335
1450.0 1568 1804 1953 1957 1969 1986 1833 1601 1313 1088
1490.0 900 770 667 560 511 456 373 362 334 324
1530.0 288 289 282 290 275 269 268 270 288 245
1570.0 250 247 259 226 245 230 230 234 226 230
1610.0 209 231 209 227 197 218 200 220 195 222
1650.0 194 257 207 197 213 203 203 207 187 217
1690.0 181 183 196 207 180 176 184 183 187 176
1730.0 188 199 208 181 193 197 203 192 200 205
1770.0 197 206 181 193 183 200 180 185 179 177
1810.0 173 173 177 167 185 166 179 165 182 178
1850.0 174 178 177 179 177 187 179 187 184 191
1890.0 192 192 197 197 205 206 217 218 224 232
1930.0 246 259 278 297 309 330 340 346 344 343
1970.0 338 320 305 281 269 258 258 259 263 258
2010.0 263 263 257 263 252 249 238 237 227 229
2050.0 223 228 232 229 236 241 249 257 265 266
2090.0 276 281 278 287 287 299 302 310 318 316
2130.0 322 321 320 309 305 284 277 254 246 237
2170.0 235 231 226 219 216 215 204 202 197 197
2210.0 197 195 197 194 196 198 205 205 213 211
2250.0 216 218 215 215 211 214 211 208 198 204
2290.0 200 202 206 206 212 214 219 211 234 227
2330.0 214 206 203 222 195 201 255 226 194 193
2370.0 164 164 164 164 182 188 189 194 195 195
2410.0 198 197 198 197 191 190 190 194 194 190
2450.0 187 188 187 185 187 178 183 172 168 167
2490.0 166 175 170 170 169 182 172 183 182 185
2530.0 193 194 202 197 203 197 197 200 208 209
2570.0 207 213 211 216 218 226 226 235 244 240
2610.0 245 250 249 239 245 245 247 239 240 250
2650.0 255 271 274 286 298 316 321 331 350 370
2690.0 385 409 446 472 505 534 567 589 619 635
2730.0 646 652 646 640 626 614 606 612 612 633
2770.0 657 703 754 825 918 1031 1189 1369 1601 1881
2810.0 2239 2712 3250 3731 4024 4316 4549 4760 4916 4855
2850.0 4770 4825 4984 5263 5688 6143 6681 7096 7490 7855
2890.0 8080 8125 8052 7910 7791 7687 7461 7366 7421 7562
2930.0 7730 7846 7690 7515 7274 6921 6550 6067 5544 5055
2970.0 4718 4453 4235 4010 3800 3539 3214 2968 2725 2550
3010.0 2174 1717 1339 1088 908 782 691 616 568 526
3050.0 489 474 440 424 407 398 380 379 358 345
3090.0 336 330 334 308 309 296 290 278 280 273
3130.0 261 266 247 237 225 234 223 222 214 217
3170.0 208 206 209 211 213 201 208 197 206 206
3210.0 209 204 198 209 202 204 205 206 201 201
3250.0 211 206 212 209 221 199 203 202 201 200
3290.0 195 207 192 181 187 185 191 191 173 186
3330.0 176 173 179 172 190 167 188 194 191 181
3370.0 188 185 181 185 180 192 183 197 178 185
3410.0 184 190 198 185 211 195 204 197 199 194
3450.0 186 209 186 194 191 198 209 225 224 225
3490.0 255 252 256 253 254 272 251 229 245 234
3530.0 224 233 217 225 214 212 225 222 247 212
3570.0 244 229 239 259 285 345 378 427 560 679
3610.0 828 1003 1234 1523 1799 1922 1869 1816 1866 1959
3650.0 1773 1509 1315 1145 1066 924 912 806 724 626
3690.0 563 492 451 374 330 307 270 277 279 264
3730.0 257 270 271 265 285 259 270 291 296 304
3770.0 298 296 289 290 281 262 247 265 216 235
3810.0 220 224 213 186 212 215 201 222 209 207
3850.0 205 238 184 193 199 228 183 186 170 228
3890.0 213 214 166 213 172 188 161 217 205 178
3930.0 201 188 208 240 224 209 216 184 217 241
##END=
