##TITLE=Methane, dimethoxy-
##JCAMP-DX=4.24
##DATA TYPE=INFRARED SPECTRUM
##ORIGIN=Sadtler Research Labs Under US-EPA Contract
##OWNER=NIST Standard Reference Data Program
##CAS REGISTRY NO=109-87-5
##MOLFORM=C 3 H 8 O 2
##XUNITS=1/CM
##YUNITS=ABSORBANCE
##XFACTOR=1.0
##YFACTOR=0.000052310
##DELTAX=4.0
##FIRSTX=450.0
##LASTX=3966.0
##FIRSTY=0.005545
##MAXX=3966
##MINX=450
##MAXY=0.5231
##MINY=0
##NPOINTS=880
##XYDATA=(X++(Y..Y))
450.0 106 120 113 82 92 74 71 61 51 42
490.0 100 86 0 97 33 142 106 97 62 134
530.0 107 137 143 120 148 184 100 263 452 288
570.0 232 259 288 331 472 226 268 257 254 261
610.0 240 218 197 166 144 124 127 110 94 96
650.0 91 75 58 76 46 99 72 66 72 72
690.0 91 68 68 67 56 49 49 45 55 65
730.0 55 47 54 62 55 61 61 64 58 53
770.0 74 63 55 64 72 70 66 68 63 73
810.0 81 72 92 72 81 80 81 70 73 66
850.0 70 91 91 125 104 113 125 143 190 239
890.0 318 436 605 809 1099 1475 1938 2436 2852 3182
930.0 3445 3704 3526 3030 2690 2207 1787 1469 1209 979
970.0 810 687 608 577 520 497 497 539 638 760
1010.0 986 1289 1724 2324 3129 4202 5545 6779 7849 8571
1050.0 8809 8688 8464 8069 7508 6490 5150 4143 3758 3804
1090.0 4048 4379 4690 4980 5202 5392 5521 5744 6197 6960
1130.0 7986 9211 9912 9946 10000 9183 8274 7986 6901 5332
1170.0 4140 3431 3071 2896 2799 2670 2523 2394 2303 2199
1210.0 2081 1935 1770 1607 1464 1315 1186 1007 867 760
1250.0 668 579 518 461 410 368 333 298 289 272
1290.0 269 242 244 225 218 209 224 207 198 193
1330.0 195 197 208 211 192 211 210 230 255 228
1370.0 260 302 369 469 598 666 692 756 579 672
1410.0 671 637 502 354 310 365 428 586 714 863
1450.0 901 964 1133 1054 941 813 714 634 619 566
1490.0 526 433 388 331 321 287 220 215 157 173
1530.0 145 185 149 134 129 153 140 154 131 145
1570.0 156 137 152 127 147 133 141 120 131 120
1610.0 120 115 104 116 92 117 106 112 99 119
1650.0 80 120 79 96 75 112 59 75 79 73
1690.0 73 73 54 78 71 77 82 87 75 88
1730.0 103 99 94 103 111 116 92 102 103 89
1770.0 95 73 67 78 83 78 73 59 75 63
1810.0 58 64 73 60 80 69 70 75 63 82
1850.0 67 68 72 73 55 77 51 56 55 54
1890.0 55 54 55 58 53 61 59 76 81 78
1930.0 93 97 109 131 140 158 175 172 177 179
1970.0 182 175 166 165 156 140 137 127 122 121
2010.0 130 125 151 154 185 194 224 240 267 270
2050.0 277 273 242 223 198 166 155 146 144 135
2090.0 125 115 105 117 110 117 126 126 126 124
2130.0 124 115 115 104 95 85 94 78 72 67
2170.0 74 69 68 68 67 66 58 46 47 50
2210.0 44 52 47 52 48 53 54 54 54 55
2250.0 55 46 51 45 45 45 43 44 43 42
2290.0 40 38 46 45 44 48 56 58 67 70
2330.0 67 47 63 55 53 66 82 72 51 33
2370.0 14 19 11 26 28 30 23 31 31 30
2410.0 22 22 20 17 22 17 12 11 4 12
2450.0 12 1 10 2 2 0 0 1 1 1
2490.0 7 7 0 0 9 0 0 10 1 7
2530.0 5 3 9 10 3 11 11 18 19 21
2570.0 20 29 29 29 41 40 44 49 56 48
2610.0 60 50 60 59 60 59 58 51 47 42
2650.0 45 61 67 69 71 60 60 60 61 52
2690.0 55 54 56 57 64 62 72 79 99 117
2730.0 138 176 216 264 315 373 431 501 554 601
2770.0 631 641 653 672 663 654 665 708 808 952
2810.0 1180 1474 1791 2065 2336 2598 2754 2988 3042 2833
2850.0 2552 2540 2444 2271 2148 2188 2363 2649 2954 3236
2890.0 3408 3639 3824 4015 4191 4344 4553 4808 5157 5502
2930.0 5718 5912 6131 5726 5651 5386 4902 4305 3770 3375
2970.0 3025 2738 2540 2463 2488 2532 2520 2414 2412 2258
3010.0 2077 1931 1634 1294 1025 841 726 645 594 545
3050.0 513 485 457 446 417 390 364 340 321 298
3090.0 276 252 228 207 188 177 168 150 140 132
3130.0 122 113 103 88 87 76 69 68 67 59
3170.0 50 47 48 40 51 46 30 40 53 48
3210.0 52 30 51 42 42 41 42 42 42 43
3250.0 43 44 34 32 33 16 33 25 23 26
3290.0 14 28 20 14 26 26 26 26 8 18
3330.0 17 19 27 16 30 2 19 21 28 27
3370.0 21 17 19 18 30 28 28 42 23 20
3410.0 19 13 20 29 13 29 21 20 20 19
3450.0 26 9 30 28 29 29 22 30 19 28
3490.0 41 21 30 38 49 40 32 20 45 42
3530.0 42 29 32 32 53 33 48 20 51 54
3570.0 70 39 51 51 47 71 48 44 34 40
3610.0 70 77 72 47 41 59 16 25 51 72
3650.0 90 24 31 37 37 48 36 29 40 36
3690.0 25 24 26 42 35 49 39 37 42 66
3730.0 64 54 26 37 29 13 14 14 10 33
3770.0 12 12 17 24 28 22 36 27 12 2
3810.0 0 16 3 0 31 26 29 31 22 50
3850.0 49 27 21 51 48 55 43 48 39 55
3890.0 48 49 48 44 37 52 46 47 55 72
3930.0 81 73 76 85 86 83 67 54 58 78
##END=
