##TITLE=Pentanoic acid
##JCAMP-DX=4.24
##DATA TYPE=INFRARED SPECTRUM
##ORIGIN=Sadtler Research Labs Under US-EPA Contract
##OWNER=NIST Standard Reference Data Program
##CAS REGISTRY NO=109-52-4
##MOLFORM=C 5 H 10 O 2
##XUNITS=1/CM
##YUNITS=ABSORBANCE
##XFACTOR=1.0
##YFACTOR=0.000127625
##DELTAX=4.0
##FIRSTX=450.0
##LASTX=3966.0
##FIRSTY=0.092273
##MAXX=3966
##MINX=450
##MAXY=1.27625
##MINY=0
##NPOINTS=880
##XYDATA=(X++(Y..Y))
450.0 723 606 538 549 503 519 595 592 641 676
490.0 672 730 778 790 915 937 896 982 930 975
530.0 954 1031 1055 1182 1247 1386 1504 1526 1598 1621
570.0 1632 1561 1543 1622 1647 1703 1820 1874 1831 1859
610.0 1829 1825 1832 1855 1834 1781 1730 1508 1321 1134
650.0 951 757 679 588 559 517 506 479 472 444
690.0 441 430 420 405 387 375 383 379 358 367
730.0 437 459 509 481 503 462 414 338 250 183
770.0 141 109 81 86 74 44 9 51 48 46
810.0 55 50 49 42 36 32 30 26 28 34
850.0 37 44 51 67 63 54 52 70 74 84
890.0 95 113 132 141 153 156 163 150 144 146
930.0 149 166 169 169 159 147 128 119 118 118
970.0 110 119 123 127 125 125 121 126 131 144
1010.0 157 171 196 228 269 326 400 506 630 789
1050.0 972 1173 1413 1676 1977 2289 2633 3023 3465 3907
1090.0 4173 4175 4074 3879 3404 2889 2596 2593 2848 3271
1130.0 3764 4217 4605 4832 4772 4530 4175 3728 3221 2790
1170.0 2481 2215 1955 1707 1477 1294 1155 1067 1021 1005
1210.0 1003 994 968 927 877 822 783 758 759 772
1250.0 779 791 793 787 771 758 737 715 687 661
1290.0 632 613 590 563 534 513 495 485 489 518
1330.0 566 633 702 777 857 937 995 1037 1090 1154
1370.0 1236 1345 1477 1569 1592 1528 1403 1197 933 742
1410.0 643 611 596 594 593 608 619 629 629 646
1450.0 681 723 747 761 755 706 609 519 428 332
1490.0 248 193 145 106 80 60 45 40 29 25
1530.0 15 17 16 13 12 9 9 3 6 1
1570.0 4 1 4 4 0 0 6 7 6 10
1610.0 9 17 12 16 13 16 12 18 17 23
1650.0 23 31 33 34 44 47 56 67 76 100
1690.0 118 145 176 223 267 340 422 541 703 871
1730.0 1044 1192 1393 1661 2082 2612 3358 4300 5495 6869
1770.0 8227 9548 9848 10000 9384 8482 6772 5228 3870 2797
1810.0 1999 1442 1035 755 557 416 320 247 201 160
1850.0 135 115 101 88 83 73 67 62 60 57
1890.0 54 53 48 46 45 43 39 37 36 35
1930.0 35 34 36 32 38 39 38 36 38 32
1970.0 33 30 30 28 25 24 22 20 21 21
2010.0 22 21 22 17 20 12 13 14 13 17
2050.0 15 14 17 18 12 12 8 7 11 8
2090.0 8 14 18 15 13 12 11 11 12 12
2130.0 13 14 15 15 13 16 11 15 13 17
2170.0 17 17 19 21 25 23 23 19 20 24
2210.0 26 23 26 27 26 29 28 29 30 25
2250.0 25 20 19 14 16 14 16 15 13 14
2290.0 14 18 16 16 12 14 9 8 9 8
2330.0 4 1 5 0 9 5 9 5 9 8
2370.0 9 15 14 19 17 18 16 18 20 15
2410.0 13 13 13 16 15 17 18 16 18 19
2450.0 15 14 12 15 14 12 14 18 17 16
2490.0 17 12 16 14 20 17 21 21 22 21
2530.0 19 20 20 20 18 16 16 21 21 20
2570.0 19 19 23 24 24 21 24 26 24 30
2610.0 26 27 27 31 28 27 29 25 29 33
2650.0 37 36 41 42 43 43 42 46 48 50
2690.0 48 48 48 50 52 46 44 44 42 43
2730.0 48 55 62 70 77 76 77 71 73 66
2770.0 65 64 68 66 69 78 86 95 99 109
2810.0 117 128 148 161 177 204 231 266 297 350
2850.0 420 503 632 791 979 1178 1410 1672 1829 1809
2890.0 1765 1689 1516 1334 1271 1313 1436 1603 1818 2076
2930.0 2382 2739 3093 3368 3522 3672 3758 3810 3973 4255
2970.0 4438 4255 3887 3337 2538 1809 1339 1011 771 611
3010.0 485 412 349 313 270 252 239 228 213 208
3050.0 201 187 173 175 167 160 159 147 146 150
3090.0 143 145 135 134 129 127 127 126 130 127
3130.0 126 118 122 118 114 108 111 109 106 112
3170.0 107 103 108 113 107 112 105 95 100 91
3210.0 86 81 85 84 83 83 71 76 75 69
3250.0 59 55 62 40 45 55 49 62 51 47
3290.0 42 39 58 50 59 48 45 40 38 39
3330.0 34 34 24 33 28 34 24 23 26 16
3370.0 31 21 18 24 26 21 30 24 12 21
3410.0 15 27 13 10 16 19 10 14 18 15
3450.0 15 6 13 12 25 19 26 15 13 17
3490.0 38 35 46 37 47 64 57 69 84 102
3530.0 112 134 140 174 204 249 327 504 874 1694
3570.0 2794 3439 3302 3267 2894 1793 806 416 249 165
3610.0 122 94 70 56 65 50 44 48 45 55
3650.0 46 41 42 43 38 38 38 46 37 38
3690.0 54 46 40 47 50 40 46 47 41 32
3730.0 41 46 58 44 50 48 37 54 53 36
3770.0 45 47 26 39 58 42 34 51 57 61
3810.0 25 71 39 27 38 41 52 18 53 40
3850.0 23 54 55 27 52 49 52 76 84 67
3890.0 65 66 56 69 78 49 50 74 94 49
3930.0 52 39 58 65 58 54 47 77 52 57
##END=
