##TITLE=Furan, tetrahydro-
##JCAMP-DX=4.24
##DATA TYPE=INFRARED SPECTRUM
##ORIGIN=Sadtler Research Labs Under US-EPA Contract
##OWNER=NIST Standard Reference Data Program
##CAS REGISTRY NO=109-99-9
##MOLFORM=C 4 H 8 O
##XUNITS=1/CM
##YUNITS=ABSORBANCE
##XFACTOR=1.0
##YFACTOR=0.000121185
##DELTAX=4.0
##FIRSTX=450.0
##LASTX=3966.0
##FIRSTY=0.030660
##MAXX=3966
##MINX=450
##MAXY=1.21185
##MINY=0
##NPOINTS=880
##XYDATA=(X++(Y..Y))
450.0 253 89 76 49 48 60 76 31 56 66
490.0 89 65 9 40 33 99 133 66 55 113
530.0 32 93 111 41 39 67 93 65 94 82
570.0 44 99 72 72 64 137 39 92 62 84
610.0 60 102 112 117 126 129 158 229 229 200
650.0 240 221 200 231 177 155 252 140 177 166
690.0 122 96 91 77 65 77 73 65 57 68
730.0 45 21 56 57 58 51 52 61 57 64
770.0 69 88 86 109 121 115 121 130 141 147
810.0 160 161 172 169 177 191 206 216 231 265
850.0 293 306 338 377 393 453 523 588 688 794
890.0 926 1095 1278 1488 1724 1991 2240 2382 2332 2078
930.0 1814 1621 1378 1100 884 721 596 496 420 361
970.0 305 269 230 228 231 224 223 246 261 290
1010.0 317 367 422 483 529 559 627 757 925 1125
1050.0 1416 1820 2394 3091 3783 4365 4770 5026 5131 4981
1090.0 4723 4460 4146 3570 2743 1926 1296 881 632 497
1130.0 424 383 360 345 342 350 373 398 430 453
1170.0 477 535 556 534 539 520 517 529 529 438
1210.0 371 349 348 350 344 337 332 334 322 313
1250.0 313 310 297 280 273 252 235 214 202 190
1290.0 186 173 160 150 140 126 109 91 80 78
1330.0 81 88 105 137 174 208 224 221 217 250
1370.0 241 212 213 209 172 134 96 81 68 70
1410.0 71 70 81 90 107 135 177 215 259 301
1450.0 356 390 375 379 383 363 329 308 269 232
1490.0 188 143 112 95 82 76 65 62 60 50
1530.0 46 47 44 39 35 34 32 31 27 26
1570.0 21 22 18 16 17 14 9 7 13 11
1610.0 10 11 10 7 11 8 12 14 9 9
1650.0 14 16 15 13 12 14 19 12 19 21
1690.0 20 20 24 23 24 26 26 27 28 26
1730.0 30 32 30 28 30 35 34 35 38 32
1770.0 38 42 41 43 43 41 43 43 44 45
1810.0 45 48 51 51 49 49 51 47 49 50
1850.0 45 45 41 37 37 36 32 31 32 31
1890.0 29 29 34 32 33 34 38 41 43 44
1930.0 48 47 54 59 66 73 80 88 96 106
1970.0 113 119 125 128 132 131 127 118 112 101
2010.0 89 82 70 58 50 46 38 33 29 28
2050.0 33 28 38 36 39 39 39 38 39 37
2090.0 39 40 42 43 45 46 45 47 46 46
2130.0 45 51 46 47 49 49 51 52 52 53
2170.0 56 56 52 54 53 50 51 52 53 52
2210.0 53 50 49 49 46 47 44 45 44 45
2250.0 40 44 40 41 44 46 44 47 45 47
2290.0 44 47 42 44 42 47 52 57 69 72
2330.0 65 51 47 45 25 44 87 80 56 7
2370.0 2 2 2 2 8 20 24 23 22 21
2410.0 18 16 13 11 8 6 6 11 6 6
2450.0 7 8 4 6 9 10 7 9 8 8
2490.0 10 7 9 7 6 8 10 6 8 12
2530.0 12 13 17 23 26 25 27 24 28 31
2570.0 36 37 41 42 45 48 53 59 57 66
2610.0 67 71 69 75 80 86 100 106 120 130
2650.0 135 149 162 179 194 204 213 215 219 221
2690.0 230 225 209 201 187 169 156 158 150 138
2730.0 141 141 151 155 161 168 173 192 215 241
2770.0 258 292 321 371 419 479 542 625 710 814
2810.0 934 1064 1239 1460 1710 1989 2291 2631 3011 3363
2850.0 3771 4245 4414 4497 4676 4874 4871 4700 4701 4601
2890.0 4423 4303 4234 4183 4122 4000 3850 3737 3745 3767
2930.0 3510 3459 3642 3886 4196 4480 4906 5239 5708 5719
2970.0 5525 5340 6684 10000 6385 4311 4256 4215 3968 3403
3010.0 2779 2130 1576 1155 864 669 521 432 359 313
3050.0 253 228 191 169 147 118 108 88 84 68
3090.0 63 52 34 43 50 42 38 39 29 35
3130.0 47 30 38 36 35 19 19 24 26 19
3170.0 41 28 30 21 21 29 23 29 25 34
3210.0 28 38 32 28 28 22 24 22 37 29
3250.0 32 22 15 21 25 19 15 37 36 24
3290.0 14 21 19 25 40 34 30 27 40 22
3330.0 34 37 39 34 27 25 34 26 16 24
3370.0 16 29 27 5 26 13 26 35 30 23
3410.0 16 30 31 48 19 11 35 24 15 6
3450.0 10 12 27 42 45 32 17 34 28 41
3490.0 41 31 3 17 33 24 30 39 31 24
3530.0 22 26 41 38 26 30 43 25 31 30
3570.0 33 25 27 31 27 34 30 26 19 24
3610.0 31 37 24 17 13 22 32 20 12 18
3650.0 6 2 19 10 17 36 0 24 13 5
3690.0 17 18 28 23 32 22 5 3 14 3
3730.0 28 29 46 35 12 23 24 37 19 17
3770.0 12 18 20 42 15 16 22 18 45 53
3810.0 5 25 23 27 16 17 28 19 25 32
3850.0 18 8 10 22 5 19 19 9 15 30
3890.0 16 17 30 23 12 7 9 32 42 6
3930.0 22 11 9 33 33 50 43 28 29 78
##END=
