##TITLE=Ethene, ethoxy-
##JCAMP-DX=4.24
##DATA TYPE=INFRARED SPECTRUM
##ORIGIN=Sadtler Research Labs Under US-EPA Contract
##OWNER=NIST Standard Reference Data Program
##CAS REGISTRY NO=109-92-2
##MOLFORM=C 4 H 8 O
##XUNITS=1/CM
##YUNITS=ABSORBANCE
##XFACTOR=1.0
##YFACTOR=0.000066101
##DELTAX=4.0
##FIRSTX=450.0
##LASTX=3966.0
##FIRSTY=0.007998
##MAXX=3966
##MINX=450
##MAXY=0.66101
##MINY=0
##NPOINTS=880
##XYDATA=(X++(Y..Y))
450.0 121 129 120 90 66 53 55 68 63 44
490.0 32 3 21 66 74 80 49 39 36 69
530.0 76 98 120 73 12 36 69 85 100 91
570.0 56 103 88 123 113 101 121 118 134 142
610.0 117 102 97 79 88 37 182 116 89 83
650.0 123 131 115 112 67 154 161 176 212 226
690.0 207 200 228 212 212 207 180 169 161 162
730.0 162 139 147 144 161 194 211 230 251 303
770.0 370 462 579 701 852 1046 1203 1407 1596 1724
810.0 1920 2551 2228 2110 2123 2107 2075 1972 1816 1650
850.0 1476 1366 1266 1109 962 821 739 654 570 507
890.0 454 422 404 404 429 442 493 555 652 768
930.0 891 1001 1101 1233 1338 1450 1606 1722 1797 1795
970.0 1485 1490 1442 1287 1087 906 791 738 725 747
1010.0 811 904 1033 1173 1331 1529 1632 1762 1852 1928
1050.0 1983 2114 2114 1973 1852 1772 1724 1706 1654 1476
1090.0 1333 1353 1523 1831 2209 2621 3019 3353 3551 3665
1130.0 3691 3573 3121 2688 2334 2018 1811 1757 1856 2055
1170.0 2393 2928 3549 4215 5008 6164 7664 9066 10000 9992
1210.0 9136 8462 8037 7379 5874 3655 1960 1103 765 629
1250.0 558 493 454 423 429 431 468 492 528 582
1290.0 621 683 861 1133 1674 2322 2670 2380 2354 2296
1330.0 2320 2227 1630 1107 831 783 841 867 889 1002
1370.0 1257 1518 1591 1556 1525 1543 1671 1562 1360 1101
1410.0 834 636 536 515 507 477 450 446 455 476
1450.0 545 509 463 458 474 549 614 635 595 569
1490.0 549 573 549 490 424 385 391 387 381 374
1530.0 341 319 300 296 316 329 332 344 368 407
1570.0 464 544 656 827 1087 1491 2107 2895 3735 4254
1610.0 4459 4586 4797 5514 5823 5591 5230 4927 4821 4781
1650.0 4813 4524 3588 2656 2111 1750 1409 1046 763 582
1690.0 475 398 313 237 194 153 140 125 132 132
1730.0 112 94 101 107 113 111 108 107 109 116
1770.0 121 111 121 106 108 106 104 114 104 100
1810.0 91 98 101 98 95 83 76 78 72 72
1850.0 82 84 90 98 112 132 148 152 144 153
1890.0 159 162 163 155 149 147 147 161 161 154
1930.0 146 131 124 122 122 119 111 101 108 115
1970.0 115 108 92 84 76 66 61 61 62 54
2010.0 51 53 66 77 77 77 90 98 107 120
2050.0 129 118 115 104 95 97 96 66 50 35
2090.0 43 44 47 40 35 34 37 48 49 48
2130.0 41 48 56 64 79 85 94 87 99 107
2170.0 105 103 101 77 76 67 60 60 49 42
2210.0 37 37 37 42 36 37 28 35 43 43
2250.0 34 33 28 29 33 41 37 31 22 23
2290.0 29 33 25 22 12 9 9 19 31 28
2330.0 13 5 33 49 43 37 18 27 18 37
2370.0 52 49 47 31 44 46 50 49 49 41
2410.0 49 50 57 57 54 50 42 42 50 49
2450.0 37 36 36 28 37 42 43 35 28 28
2490.0 40 37 36 30 28 21 29 36 37 28
2530.0 21 22 17 26 30 16 15 14 14 29
2570.0 30 30 27 23 22 34 37 33 31 31
2610.0 22 36 45 52 45 45 38 45 49 42
2650.0 34 32 24 24 24 32 32 16 9 11
2690.0 17 26 26 25 32 45 60 77 85 85
2730.0 93 94 94 102 110 123 111 116 116 128
2770.0 139 139 138 138 154 169 184 194 200 218
2810.0 232 260 287 301 317 332 370 409 463 510
2850.0 566 655 763 893 1081 1276 1444 1574 1685 1783
2890.0 1878 1970 1976 1974 1940 1903 1886 1928 1894 1856
2930.0 1885 1960 2008 1986 1992 1985 2011 2063 2118 2192
2970.0 2333 2527 2715 2856 2912 2821 3247 2717 2372 2026
3010.0 1739 1475 1244 1009 797 641 537 510 482 469
3050.0 438 416 423 422 426 420 419 390 339 326
3090.0 306 316 325 334 340 402 494 578 569 543
3130.0 549 502 559 458 308 193 131 113 106 106
3170.0 105 89 84 73 81 85 76 63 62 47
3210.0 60 62 55 62 68 47 45 54 73 49
3250.0 45 34 38 47 57 57 49 50 37 42
3290.0 57 54 50 39 28 34 40 37 23 29
3330.0 0 6 16 32 35 11 0 0 26 39
3370.0 42 32 10 9 16 26 37 25 0 10
3410.0 22 29 33 39 19 11 25 19 35 32
3450.0 18 8 10 11 37 24 19 5 12 13
3490.0 28 35 13 5 5 17 25 15 26 12
3530.0 23 7 13 23 22 23 7 8 26 43
3570.0 38 24 6 9 14 32 31 39 25 24
3610.0 8 30 46 22 11 19 34 26 35 37
3650.0 44 38 31 47 36 50 32 22 25 42
3690.0 38 53 40 26 27 43 35 47 52 42
3730.0 36 41 56 61 47 46 42 43 45 55
3770.0 56 47 53 51 51 57 59 61 54 57
3810.0 52 54 55 58 60 54 54 51 53 52
3850.0 47 46 48 57 59 47 34 31 33 37
3890.0 56 64 58 44 28 38 34 35 39 42
3930.0 44 48 51 52 58 52 43 45 39 42
##END=
