##TITLE=2-Butoxyethyl stearate
##JCAMP-DX=4.24
##DATA TYPE=INFRARED SPECTRUM
##ORIGIN=Sadtler Research Labs Under US-EPA Contract
##OWNER=NIST Standard Reference Data Program
##CAS REGISTRY NO=109-38-6
##MOLFORM=C 24 H 48 O 3
##XUNITS=1/CM
##YUNITS=ABSORBANCE
##XFACTOR=1.0
##YFACTOR=0.000062262
##DELTAX=4.0
##FIRSTX=450.0
##LASTX=3966.0
##FIRSTY=0.004296
##MAXX=3966
##MINX=450
##MAXY=0.62262
##MINY=0
##NPOINTS=880
##XYDATA=(X++(Y..Y))
450.0 69 88 65 72 55 64 88 102 2 25
490.0 31 48 74 86 103 118 58 107 72 79
530.0 99 102 64 111 105 70 49 89 66 58
570.0 34 64 121 85 81 47 47 70 39 65
610.0 78 61 78 71 26 43 65 59 73 59
650.0 83 74 57 83 82 90 92 79 87 88
690.0 93 115 114 146 148 178 205 221 206 206
730.0 190 217 154 157 167 158 159 139 142 138
770.0 131 128 120 110 132 128 109 134 107 139
810.0 132 135 158 148 173 159 173 173 201 210
850.0 202 197 192 203 201 192 181 197 189 204
890.0 203 223 201 214 224 221 216 228 232 228
930.0 234 250 266 274 265 292 299 327 348 355
970.0 367 376 376 373 393 384 391 399 410 448
1010.0 484 505 557 580 605 609 618 642 664 697
1050.0 721 730 745 745 746 774 810 860 927 1033
1090.0 1164 1315 1478 1650 1844 2041 2249 2422 2585 2752
1130.0 2883 2926 2820 2588 2359 2179 2081 2048 2058 2054
1170.0 2034 1963 1850 1711 1581 1460 1381 1317 1264 1238
1210.0 1238 1231 1254 1287 1313 1352 1388 1407 1411 1392
1250.0 1352 1291 1189 1107 1033 971 936 897 879 852
1290.0 833 803 777 741 709 684 638 593 564 540
1330.0 572 600 662 735 766 809 804 803 772 749
1370.0 715 704 712 747 732 605 478 375 315 292
1410.0 288 278 302 307 367 417 509 565 656 754
1450.0 863 1004 1068 1120 1038 888 668 501 389 310
1490.0 238 190 145 145 112 104 104 84 81 58
1530.0 77 57 63 45 61 53 55 36 26 52
1570.0 51 46 26 49 42 55 35 39 44 35
1610.0 37 46 34 42 43 40 42 38 57 36
1650.0 52 11 49 54 63 55 75 79 109 75
1690.0 119 130 156 163 220 261 316 368 444 561
1730.0 743 970 1338 1797 2359 2959 3335 3126 2408 1652
1770.0 1147 818 614 475 371 296 224 205 169 152
1810.0 152 131 117 104 95 92 84 76 78 63
1850.0 75 70 71 73 68 63 67 69 58 68
1890.0 60 62 56 51 63 65 66 74 70 64
1930.0 67 63 64 67 75 67 74 73 71 66
1970.0 72 73 64 73 72 82 67 65 64 65
2010.0 64 66 68 50 56 57 56 50 51 53
2050.0 53 45 42 49 51 48 42 50 59 51
2090.0 68 58 59 58 59 64 52 52 58 43
2130.0 51 51 59 53 55 53 51 49 50 43
2170.0 53 60 52 60 52 52 52 47 46 47
2210.0 41 46 42 38 47 47 48 31 32 47
2250.0 39 48 46 33 49 39 38 43 40 55
2290.0 63 73 81 80 90 96 102 106 110 98
2330.0 83 68 57 53 42 67 122 102 50 7
2370.0 2 2 2 2 18 33 19 34 35 36
2410.0 29 27 33 30 25 26 22 18 20 24
2450.0 21 21 23 15 23 14 12 15 11 21
2490.0 15 17 14 2 8 15 9 17 8 10
2530.0 16 24 9 8 22 10 16 27 19 18
2570.0 28 27 36 36 35 45 31 42 44 45
2610.0 51 53 61 63 70 76 78 76 80 83
2650.0 80 110 107 110 113 111 120 112 105 111
2690.0 106 103 102 100 96 97 116 122 114 132
2730.0 132 147 148 147 158 162 163 167 171 166
2770.0 170 179 196 212 229 261 287 309 334 372
2810.0 385 418 463 514 572 656 753 899 1153 1496
2850.0 2027 2771 3676 4397 4453 4045 3550 3151 2903 2729
2890.0 2588 2523 2609 2824 3204 3717 4310 5163 6308 7871
2930.0 9426 10000 9278 7988 6577 5423 4625 4103 3858 3711
2970.0 3463 2948 2304 1778 1400 1121 922 758 626 522
3010.0 452 386 324 280 262 221 202 186 155 151
3050.0 129 113 105 104 88 95 93 78 77 71
3090.0 78 60 57 71 45 45 54 62 51 59
3130.0 70 49 50 77 64 55 59 40 42 34
3170.0 50 48 51 55 57 49 35 43 60 52
3210.0 40 53 46 31 23 46 43 45 33 42
3250.0 29 19 30 31 55 43 66 43 29 37
3290.0 22 47 64 44 59 52 40 39 62 62
3330.0 23 71 54 54 60 55 68 45 56 55
3370.0 79 60 57 74 51 62 52 70 61 29
3410.0 52 44 60 56 54 40 47 55 45 53
3450.0 29 58 69 37 54 74 74 86 79 109
3490.0 67 52 75 48 22 51 53 43 40 50
3530.0 26 39 41 41 46 65 44 57 57 61
3570.0 59 72 63 46 58 58 25 27 25 57
3610.0 47 69 59 49 62 59 18 54 60 40
3650.0 46 41 20 35 25 37 25 8 15 19
3690.0 10 3 11 10 3 15 2 39 47 37
3730.0 15 10 2 22 3 8 1 27 11 2
3770.0 2 5 36 17 19 38 50 33 3 19
3810.0 31 22 15 23 15 19 32 42 42 34
3850.0 22 6 2 20 34 19 22 24 32 0
3890.0 10 22 30 25 12 10 46 60 63 47
3930.0 30 11 2 8 12 24 29 36 30 29
##END=
