##TITLE=Pyrrole
##JCAMP-DX=4.24
##DATA TYPE=INFRARED SPECTRUM
##ORIGIN=Sadtler Research Labs Under US-EPA Contract
##OWNER=NIST Standard Reference Data Program
##CAS REGISTRY NO=109-97-7
##MOLFORM=C 4 H 5 N
##XUNITS=1/CM
##YUNITS=ABSORBANCE
##XFACTOR=1.0
##YFACTOR=0.000086884
##DELTAX=4.0
##FIRSTX=450.0
##LASTX=3966.0
##FIRSTY=0.194445
##MAXX=3966
##MINX=450
##MAXY=0.86884
##MINY=0
##NPOINTS=880
##XYDATA=(X++(Y..Y))
450.0 2238 2134 2305 2517 2914 3595 4083 2690 2898 3657
490.0 3585 2548 1956 1878 1695 1427 1100 765 538 380
530.0 252 122 101 145 92 95 113 98 106 80
570.0 13 128 72 76 113 133 61 93 113 37
610.0 38 53 53 47 46 37 34 25 30 30
650.0 32 57 78 114 229 408 647 1058 1627 2360
690.0 3182 3928 4345 4278 3752 2993 2701 6694 10000 3390
730.0 2661 3842 4975 5522 5075 4160 3022 2037 1201 662
770.0 350 201 123 59 35 44 55 55 55 55
810.0 63 34 37 49 188 55 44 77 108 151
850.0 203 267 347 398 408 378 378 409 410 346
890.0 294 241 202 160 128 116 118 155 221 321
930.0 449 654 881 1143 1399 1630 1820 1987 2241 2301
970.0 2419 2501 2543 2469 2375 2394 2544 2610 2416 2003
1010.0 1604 1504 1682 1645 1897 2087 2001 1831 1622 1572
1050.0 1307 1337 1502 1669 1599 1324 1019 668 551 541
1090.0 525 444 322 210 139 109 112 116 123 130
1130.0 136 145 150 134 147 131 123 123 111 89
1170.0 63 45 27 17 13 9 18 17 11 11
1210.0 17 17 19 22 19 26 27 23 27 27
1250.0 29 30 38 45 45 58 57 64 68 78
1290.0 92 102 108 108 107 103 103 106 104 83
1330.0 75 68 69 56 51 53 45 54 69 79
1370.0 85 114 153 210 287 385 512 675 840 978
1410.0 1081 1103 1089 1037 998 943 970 943 866 726
1450.0 595 509 470 469 450 438 413 432 458 495
1490.0 535 575 595 610 612 604 612 639 717 839
1530.0 969 1014 998 894 854 788 756 738 648 598
1570.0 507 389 258 190 132 95 61 38 22 20
1610.0 13 13 8 8 13 10 19 6 15 22
1650.0 28 17 47 76 113 140 173 181 198 164
1690.0 183 193 216 235 254 235 203 163 132 125
1730.0 120 117 127 145 125 83 50 38 25 25
1770.0 19 11 11 12 11 13 9 13 16 11
1810.0 11 11 10 10 13 7 11 10 12 10
1850.0 11 9 9 9 11 13 9 13 9 9
1890.0 10 9 9 9 8 13 15 16 17 8
1930.0 15 13 13 9 12 12 12 16 13 15
1970.0 20 18 18 19 19 13 20 19 19 16
2010.0 19 25 19 18 23 19 23 26 32 36
2050.0 32 29 26 25 29 35 29 29 30 22
2090.0 17 17 23 32 38 40 36 37 41 41
2130.0 41 41 41 41 34 35 28 21 25 27
2170.0 28 21 16 22 22 21 21 22 26 22
2210.0 21 20 28 31 34 27 34 28 40 34
2250.0 34 41 40 45 53 55 66 66 66 73
2290.0 63 57 58 54 55 51 50 51 47 40
2330.0 30 32 28 38 36 39 42 44 36 44
2370.0 40 41 37 34 30 25 25 23 23 23
2410.0 29 25 29 31 42 45 48 51 60 67
2450.0 72 79 78 85 85 84 79 65 66 64
2490.0 49 48 40 40 35 40 54 66 79 98
2530.0 112 117 127 135 135 139 135 123 116 108
2570.0 102 89 76 70 70 70 67 65 65 57
2610.0 53 45 38 31 25 19 20 13 17 10
2650.0 7 6 6 13 18 25 31 38 38 38
2690.0 45 39 44 44 41 42 38 34 32 32
2730.0 25 31 27 28 26 32 31 39 42 46
2770.0 50 51 51 51 58 64 70 76 69 65
2810.0 57 58 58 56 51 51 46 45 39 47
2850.0 40 46 48 51 48 53 53 53 51 46
2890.0 46 47 39 39 47 45 44 46 49 59
2930.0 64 65 73 73 78 65 72 66 59 60
2970.0 53 46 42 38 27 30 22 22 16 16
3010.0 22 22 37 26 23 26 25 29 34 35
3050.0 42 54 79 55 41 42 55 64 77 93
3090.0 123 166 212 278 331 383 435 480 534 584
3130.0 611 601 592 560 513 445 401 335 258 173
3170.0 109 64 35 22 11 11 8 2 4 4
3210.0 0 7 7 7 7 0 7 7 1 6
3250.0 1 6 9 4 6 13 12 20 13 12
3290.0 11 8 17 13 13 13 11 18 20 13
3330.0 13 13 20 25 12 13 6 12 20 10
3370.0 12 2 12 20 13 15 7 18 19 8
3410.0 11 10 19 21 21 19 21 34 32 48
3450.0 49 60 87 105 135 168 227 314 417 560
3490.0 715 860 1080 1417 1960 2454 2926 3166 3064 2877
3530.0 2983 2720 2677 2814 2744 2319 1630 1041 595 353
3570.0 201 111 79 49 31 26 30 26 16 17
3610.0 12 21 21 17 11 11 19 9 18 19
3650.0 9 19 12 29 17 16 27 22 23 26
3690.0 27 22 30 26 30 19 29 28 23 28
3730.0 22 18 27 19 19 27 31 35 40 41
3770.0 48 45 45 40 44 38 36 36 30 39
3810.0 46 30 34 44 47 51 53 47 44 41
3850.0 42 46 41 38 44 54 45 34 40 40
3890.0 40 37 29 28 27 23 23 15 12 21
3930.0 30 40 29 29 45 57 65 72 82 84
##END=
