##TITLE=Pentane
##JCAMP-DX=4.24
##DATA TYPE=INFRARED SPECTRUM
##ORIGIN=Sadtler Research Labs Under US-EPA Contract
##OWNER=NIST Standard Reference Data Program
##CAS REGISTRY NO=109-66-0
##MOLFORM=C 5 H 12
##XUNITS=1/CM
##YUNITS=ABSORBANCE
##XFACTOR=1.0
##YFACTOR=0.000052322
##DELTAX=4.0
##FIRSTX=450.0
##LASTX=3966.0
##FIRSTY=0.004290
##MAXX=3966
##MINX=450
##MAXY=0.52322
##MINY=0
##NPOINTS=880
##XYDATA=(X++(Y..Y))
450.0 82 64 72 73 64 63 73 72 73 68
490.0 54 51 46 38 65 19 36 22 65 93
530.0 76 78 47 29 23 8 13 39 48 2
570.0 66 36 54 81 68 41 49 57 51 42
610.0 43 53 44 49 52 82 42 48 56 36
650.0 48 48 48 44 38 82 58 57 56 78
690.0 69 78 82 91 92 118 125 146 174 201
730.0 190 192 174 179 163 143 124 132 116 108
770.0 95 96 67 67 48 38 53 43 50 49
810.0 49 46 56 67 68 38 48 57 67 74
850.0 84 98 97 91 114 110 101 101 110 101
890.0 121 149 161 178 187 205 188 185 161 141
930.0 112 72 52 52 44 45 40 49 43 42
970.0 41 52 58 52 62 59 69 69 60 80
1010.0 70 81 87 81 90 77 78 78 59 59
1050.0 58 58 58 58 69 67 71 70 61 59
1090.0 48 38 38 39 39 39 46 57 59 69
1130.0 79 83 83 94 92 83 74 63 54 55
1170.0 44 45 35 40 39 30 25 37 25 35
1210.0 34 44 44 43 57 63 66 71 72 78
1250.0 79 89 100 99 100 108 107 97 91 83
1290.0 89 94 98 115 105 117 126 138 145 144
1330.0 156 165 175 184 193 186 200 200 218 254
1370.0 312 380 446 455 470 478 496 447 338 258
1410.0 225 191 195 208 237 283 348 436 551 666
1450.0 783 894 996 1088 1070 1029 948 876 784 671
1490.0 549 448 358 282 217 183 150 121 104 90
1530.0 89 69 61 57 64 57 45 33 61 57
1570.0 45 42 54 47 43 44 44 45 44 35
1610.0 36 35 39 35 38 33 29 36 34 26
1650.0 31 25 44 41 36 25 40 23 23 28
1690.0 28 17 22 31 28 23 18 21 26 18
1730.0 17 18 15 15 17 18 15 15 15 14
1770.0 8 17 13 14 13 16 12 13 16 12
1810.0 12 13 11 13 13 3 13 11 13 14
1850.0 12 10 10 10 12 13 10 9 9 10
1890.0 10 9 10 10 9 9 9 10 10 8
1930.0 8 9 9 10 9 9 8 8 7 0
1970.0 9 8 8 7 7 9 9 7 7 8
2010.0 6 8 8 8 7 7 6 8 10 5
2050.0 7 13 5 7 6 6 6 6 7 7
2090.0 6 6 6 6 6 6 6 6 6 4
2130.0 4 14 14 14 14 11 16 15 15 15
2170.0 15 16 14 4 4 5 12 16 13 13
2210.0 13 13 13 6 14 14 14 14 14 14
2250.0 14 14 14 11 11 17 17 17 17 19
2290.0 21 24 28 28 23 28 27 28 32 32
2330.0 39 44 40 46 55 31 0 0 23 54
2370.0 77 86 81 70 44 31 27 26 26 26
2410.0 26 26 26 34 34 28 28 28 28 28
2450.0 36 27 27 19 27 29 28 28 39 34
2490.0 29 33 37 39 29 29 29 29 30 30
2530.0 30 23 30 30 30 30 30 30 22 22
2570.0 30 41 41 42 60 59 71 70 70 69
2610.0 69 69 70 79 80 70 80 69 80 79
2650.0 78 90 90 97 99 99 99 100 99 99
2690.0 99 99 99 99 110 110 109 109 119 128
2730.0 147 158 177 178 176 192 182 173 164 163
2770.0 160 165 176 186 195 216 224 254 265 288
2810.0 319 352 402 467 533 647 780 946 1150 1404
2850.0 1710 2033 2389 2783 3162 3548 4123 4550 4490 4418
2890.0 4427 4513 4421 4303 4385 4706 5223 5742 6351 6990
2930.0 7704 8202 8402 8518 8592 8748 8988 9331 9638 10000
2970.0 9079 8443 7959 6960 5519 4029 2882 2102 1537 1132
3010.0 849 654 533 465 409 381 357 348 328 319
3050.0 307 299 288 269 261 251 242 233 234 217
3090.0 214 209 189 178 168 159 160 150 141 151
3130.0 140 151 147 132 131 143 142 134 133 133
3170.0 134 133 151 133 134 135 124 119 109 99
3210.0 90 89 89 69 72 71 67 61 73 51
3250.0 52 45 46 44 52 53 35 44 34 34
3290.0 34 34 36 37 33 32 27 36 27 26
3330.0 27 27 27 28 28 21 27 38 39 36
3370.0 39 29 30 13 20 30 30 8 10 16
3410.0 21 21 27 40 33 30 40 31 33 11
3450.0 41 20 38 36 30 43 34 44 33 23
3490.0 23 34 18 20 32 28 29 36 33 41
3530.0 40 37 44 26 37 47 43 35 29 41
3570.0 56 45 47 36 28 40 38 48 28 38
3610.0 51 52 48 64 53 46 48 51 49 51
3650.0 43 70 86 65 58 48 51 63 53 45
3690.0 49 62 60 52 70 62 56 59 52 46
3730.0 41 43 53 48 53 61 83 73 73 65
3770.0 74 80 64 64 60 54 54 55 55 65
3810.0 64 62 57 56 62 54 55 55 55 52
3850.0 52 77 93 73 52 52 51 68 71 58
3890.0 58 71 76 75 86 75 73 72 63 62
3930.0 61 61 58 58 69 68 70 68 65 63
##END=
