##TITLE=n-Propyl acetate
##JCAMP-DX=4.24
##DATA TYPE=INFRARED SPECTRUM
##ORIGIN=Sadtler Research Labs Under US-EPA Contract
##OWNER=NIST Standard Reference Data Program
##CAS REGISTRY NO=109-60-4
##MOLFORM=C 5 H 10 O 2
##XUNITS=1/CM
##YUNITS=ABSORBANCE
##XFACTOR=1.0
##YFACTOR=0.000198291
##DELTAX=4.0
##FIRSTX=450.0
##LASTX=3966.0
##FIRSTY=0.059091
##MAXX=3966
##MINX=450
##MAXY=1.98291
##MINY=0
##NPOINTS=880
##XYDATA=(X++(Y..Y))
450.0 298 125 46 27 58 43 71 55 123 109
490.0 95 77 84 51 38 48 24 40 15 45
530.0 7 46 46 31 33 7 28 13 45 27
570.0 38 15 29 53 60 61 97 117 136 182
610.0 184 170 189 210 230 239 262 230 239 149
650.0 126 91 90 53 36 59 25 29 3 29
690.0 23 33 26 24 20 15 30 22 21 12
730.0 29 25 34 41 52 66 66 86 82 82
770.0 68 66 43 45 29 14 32 29 43 38
810.0 53 58 69 92 109 126 138 153 153 156
850.0 153 152 150 141 150 156 161 164 189 207
890.0 224 238 253 263 256 241 219 203 178 157
930.0 138 130 126 133 159 203 278 355 424 461
970.0 481 480 448 387 348 379 423 498 608 759
1010.0 899 1011 1082 1105 1088 1028 996 1011 1094 1202
1050.0 1323 1451 1552 1571 1503 1422 1328 1196 985 791
1090.0 661 577 508 450 396 344 311 272 243 222
1130.0 208 186 167 164 157 155 150 162 167 180
1170.0 190 209 235 269 315 374 469 606 808 1093
1210.0 1514 2183 3199 4642 6296 7935 9073 10000 9548 7871
1250.0 5961 4385 3119 2303 1894 1608 1350 1128 971 839
1290.0 720 623 547 482 417 361 317 285 242 199
1330.0 176 171 171 190 238 324 508 799 1128 1354
1370.0 1495 1651 1608 1356 1159 1062 937 784 672 561
1410.0 422 326 261 242 235 240 256 275 316 355
1450.0 407 451 489 518 525 526 490 441 394 342
1490.0 288 248 209 184 162 139 134 123 115 110
1530.0 105 98 90 81 78 78 71 65 69 68
1570.0 62 60 65 62 64 61 70 66 66 65
1610.0 62 59 55 60 57 64 60 67 68 73
1650.0 70 78 83 80 86 83 84 89 89 95
1690.0 109 125 141 178 216 273 320 394 472 583
1730.0 733 958 1306 1773 2481 3342 4390 5026 5212 5194
1770.0 5164 4412 3273 2340 1621 1093 739 515 374 286
1810.0 225 177 144 120 104 90 83 81 76 69
1850.0 67 67 66 58 56 54 55 52 50 49
1890.0 49 47 45 46 42 41 43 42 42 40
1930.0 41 40 36 33 32 34 32 32 33 33
1970.0 33 32 32 34 34 38 39 40 41 45
2010.0 44 44 41 45 45 45 43 43 43 43
2050.0 44 50 54 59 57 50 44 34 25 24
2090.0 25 26 30 35 37 36 39 43 43 42
2130.0 47 47 43 43 44 40 33 30 30 25
2170.0 25 25 25 24 23 23 24 25 25 24
2210.0 26 27 27 24 26 25 26 25 27 26
2250.0 25 28 27 25 27 29 27 24 20 24
2290.0 20 16 13 14 7 0 1 2 2 4
2330.0 11 26 22 22 32 17 0 0 28 55
2370.0 68 65 67 49 39 31 34 32 31 30
2410.0 33 30 29 32 33 35 33 32 33 37
2450.0 36 39 39 39 38 39 40 39 37 36
2490.0 36 34 33 34 31 30 28 32 27 24
2530.0 27 27 25 25 23 21 22 24 24 23
2570.0 24 25 26 29 30 31 36 36 37 40
2610.0 43 40 34 35 36 36 28 26 34 34
2650.0 27 22 17 13 8 3 6 11 11 14
2690.0 15 14 15 16 20 22 29 30 34 38
2730.0 40 48 53 51 54 57 59 56 56 57
2770.0 50 45 50 46 51 49 53 51 50 54
2810.0 57 63 66 71 79 85 90 103 114 130
2850.0 149 174 207 243 276 315 365 434 530 622
2890.0 669 708 735 721 656 624 620 630 662 721
2930.0 806 905 1028 1158 1255 1338 1442 1536 1638 1743
2970.0 1911 2149 2238 2108 1921 1667 1323 945 660 482
3010.0 366 292 238 214 197 185 175 168 164 151
3050.0 150 148 140 135 126 126 119 107 105 102
3090.0 95 84 83 79 71 69 67 62 59 56
3130.0 56 54 48 44 45 44 41 41 41 40
3170.0 35 38 41 40 34 35 39 31 27 28
3210.0 34 26 29 30 30 27 32 27 29 28
3250.0 35 38 32 40 32 37 30 27 23 23
3290.0 12 10 5 9 16 15 16 12 20 20
3330.0 20 19 11 16 14 18 16 18 22 16
3370.0 18 18 21 23 22 18 22 16 18 19
3410.0 21 22 16 17 15 19 18 19 9 9
3450.0 7 12 8 14 18 15 17 17 17 26
3490.0 36 50 52 51 52 60 58 54 41 30
3530.0 23 21 22 20 17 18 17 17 22 14
3570.0 19 23 27 23 23 24 24 35 35 29
3610.0 30 21 26 28 24 24 25 30 33 17
3650.0 29 33 41 29 28 29 30 33 34 33
3690.0 32 28 32 39 33 29 39 27 25 30
3730.0 36 37 41 34 34 39 31 33 39 37
3770.0 31 38 34 46 41 28 39 33 25 32
3810.0 30 35 31 45 40 23 32 32 31 32
3850.0 40 37 37 27 26 39 41 48 33 44
3890.0 40 38 45 45 36 46 34 41 33 48
3930.0 25 17 43 21 25 18 32 38 38 27
##END=
