##TITLE=10-Undecenoic acid, butyl ester
##JCAMP-DX=4.24
##DATA TYPE=INFRARED SPECTRUM
##ORIGIN=Sadtler Research Labs Under US-EPA Contract
##OWNER=NIST Standard Reference Data Program
##CAS REGISTRY NO=109-42-2
##MOLFORM=C 15 H 28 O 2
##XUNITS=1/CM
##YUNITS=ABSORBANCE
##XFACTOR=1.0
##YFACTOR=0.000097144
##DELTAX=4.0
##FIRSTX=450.0
##LASTX=3966.0
##FIRSTY=0.000000
##MAXX=3966
##MINX=450
##MAXY=0.97144
##MINY=0
##NPOINTS=880
##XYDATA=(X++(Y..Y))
450.0 0 249 363 397 350 353 340 394 330 640
490.0 286 447 374 423 407 333 440 355 428 323
530.0 432 361 437 401 367 423 357 416 368 402
570.0 383 397 387 373 419 397 426 385 467 433
610.0 465 472 499 487 528 569 502 504 446 460
650.0 413 414 391 358 372 346 395 354 390 349
690.0 392 369 413 409 426 465 464 502 491 523
730.0 489 522 519 509 496 479 486 449 455 438
770.0 451 432 445 431 429 423 418 431 418 446
810.0 433 443 441 455 477 478 514 494 520 505
850.0 532 509 531 538 561 568 576 613 614 657
890.0 690 752 824 976 1181 1438 1574 1433 1184 982
930.0 889 823 805 826 861 890 906 936 945 971
970.0 967 977 979 1007 1070 1135 1182 1183 1183 1178
1010.0 1223 1247 1283 1280 1255 1184 1106 1047 993 985
1050.0 1000 1093 1207 1342 1448 1507 1513 1477 1474 1460
1090.0 1498 1533 1581 1611 1673 1738 1796 1861 1910 1982
1130.0 2098 2293 2549 2882 3260 3621 3917 4149 4346 4433
1170.0 4461 4368 4218 3985 3731 3466 3227 3023 2871 2790
1210.0 2728 2733 2751 2811 2867 2951 3011 3033 2999 2896
1250.0 2756 2575 2408 2237 2099 1971 1864 1753 1640 1568
1290.0 1515 1498 1480 1479 1458 1421 1385 1327 1293 1264
1330.0 1273 1296 1346 1428 1527 1583 1584 1515 1407 1289
1370.0 1163 1050 988 978 1020 1045 975 857 761 703
1410.0 688 702 717 794 840 937 1007 1104 1179 1263
1450.0 1351 1458 1572 1609 1534 1380 1169 957 792 657
1490.0 566 509 464 431 412 374 362 363 355 361
1530.0 342 351 360 358 335 340 336 341 350 324
1570.0 335 325 344 325 328 332 333 341 340 355
1610.0 359 383 407 424 463 514 624 713 776 725
1650.0 605 510 452 405 397 399 381 401 399 427
1690.0 442 480 525 596 659 745 835 947 1097 1313
1730.0 1593 2041 2750 3806 5244 6577 7033 6189 4673 3321
1770.0 2361 1835 1469 1243 1036 873 760 653 590 527
1810.0 504 461 456 447 452 443 420 404 359 349
1850.0 326 340 315 310 306 297 303 297 307 296
1890.0 299 293 304 297 293 298 285 297 279 296
1930.0 287 295 291 287 290 291 295 289 303 297
1970.0 302 296 308 298 295 290 286 292 290 296
2010.0 292 300 294 306 310 314 319 313 318 317
2050.0 323 319 323 321 331 345 341 336 320 312
2090.0 292 290 283 282 280 272 282 269 277 273
2130.0 280 270 273 275 265 268 269 271 262 267
2170.0 263 269 260 263 265 258 263 257 261 258
2210.0 262 258 257 260 260 263 261 264 269 274
2250.0 270 275 271 275 277 276 277 284 289 292
2290.0 307 317 322 328 334 342 323 321 314 308
2330.0 289 293 301 292 313 312 289 283 306 307
2370.0 335 330 331 332 311 295 280 290 282 282
2410.0 273 283 280 276 282 281 279 276 285 284
2450.0 286 287 294 290 287 302 291 297 297 303
2490.0 294 298 302 308 308 303 312 303 309 304
2530.0 308 303 305 308 297 310 307 315 312 326
2570.0 321 327 328 325 334 322 334 315 319 320
2610.0 310 307 296 302 304 311 322 332 330 335
2650.0 332 337 332 340 362 380 403 407 420 416
2690.0 407 407 401 393 397 388 385 386 376 381
2730.0 374 375 386 390 411 402 409 412 412 410
2770.0 413 417 424 437 439 460 472 493 508 530
2810.0 565 584 629 661 722 783 864 973 1140 1371
2850.0 1723 2225 2879 3509 3796 3696 3386 3086 2868 2723
2890.0 2614 2582 2655 2893 3272 3790 4458 5178 6153 7341
2930.0 8697 9829 10000 9258 8062 6859 5858 5249 5025 5044
2970.0 4957 4577 3943 3223 2655 2179 1817 1555 1411 1302
3010.0 1175 1039 931 845 771 726 688 650 629 622
3050.0 611 596 617 632 663 695 753 818 952 1062
3090.0 1006 812 637 545 482 455 432 410 389 384
3130.0 381 362 356 337 331 321 331 323 322 314
3170.0 318 310 312 327 300 291 302 300 276 278
3210.0 294 273 260 262 268 264 278 267 275 288
3250.0 278 286 281 280 281 293 285 305 304 290
3290.0 296 289 313 298 305 306 311 306 309 313
3330.0 316 314 311 320 306 324 306 304 311 314
3370.0 310 313 305 305 303 322 311 320 321 318
3410.0 297 316 311 306 295 319 319 323 311 327
3450.0 317 307 338 326 306 326 320 339 334 338
3490.0 334 341 329 316 301 298 310 303 286 271
3530.0 275 283 289 304 284 283 289 298 298 318
3570.0 336 371 378 356 307 296 281 255 278 263
3610.0 276 281 289 277 276 283 271 260 277 273
3650.0 276 282 258 296 266 282 266 289 263 282
3690.0 271 260 263 256 282 271 291 286 277 252
3730.0 265 277 297 287 302 264 329 284 280 276
3770.0 273 298 291 281 274 263 288 284 312 312
3810.0 275 284 292 350 291 292 297 317 332 301
3850.0 301 351 342 281 339 315 312 288 297 287
3890.0 257 284 256 297 279 260 326 274 274 342
3930.0 319 279 290 277 319 324 345 280 285 311
##END=
