##TITLE=Ethanol, 2-[(1-methylethyl)amino]-
##JCAMP-DX=4.24
##DATA TYPE=INFRARED SPECTRUM
##ORIGIN=Sadtler Research Labs Under US-EPA Contract
##OWNER=NIST Standard Reference Data Program
##CAS REGISTRY NO=109-56-8
##MOLFORM=C 5 H 13 N O
##XUNITS=1/CM
##YUNITS=ABSORBANCE
##XFACTOR=1.0
##YFACTOR=0.000093317
##DELTAX=4.0
##FIRSTX=450.0
##LASTX=3966.0
##FIRSTY=0.000000
##MAXX=3966
##MINX=450
##MAXY=0.93317
##MINY=0
##NPOINTS=880
##XYDATA=(X++(Y..Y))
450.0 0 159 304 257 186 308 226 251 203 258
490.0 208 174 205 221 304 240 331 359 372 346
530.0 452 398 388 365 370 348 292 291 255 291
570.0 282 243 258 257 213 251 237 219 247 210
610.0 208 218 216 224 270 269 279 306 261 255
650.0 258 300 315 363 452 505 544 603 681 770
690.0 875 946 1055 1134 1207 1263 1301 1302 1312 1266
730.0 1241 1149 1038 945 875 828 811 731 594 489
770.0 392 375 298 344 348 297 227 248 235 263
810.0 255 288 319 338 365 373 395 383 395 405
850.0 448 497 578 670 770 862 912 961 953 924
890.0 852 788 749 711 666 604 563 540 543 544
930.0 538 514 512 506 536 616 730 821 850 818
970.0 754 720 698 701 677 677 705 737 785 827
1010.0 910 988 1099 1255 1486 1815 2239 2752 3325 3952
1050.0 4489 4938 5193 5281 5013 4485 3948 3390 2978 2829
1090.0 2976 3088 2949 2527 2169 2013 1931 1855 1777 1743
1130.0 1733 1756 1736 1681 1644 1706 1949 2260 2502 2776
1170.0 3153 3393 3383 3104 2624 2113 1686 1455 1385 1474
1210.0 1624 1713 1663 1560 1537 1526 1468 1399 1385 1400
1250.0 1457 1442 1355 1232 1123 1068 1074 1082 1049 1012
1290.0 1005 1084 1223 1352 1378 1401 1549 1776 2029 2259
1330.0 2504 2594 2587 2480 2322 2155 2016 2024 2176 2378
1370.0 2499 2801 3144 3322 3277 3206 3032 2721 2437 2266
1410.0 2120 1894 1760 1522 1386 1364 1496 1651 1741 1794
1450.0 1970 2107 2347 2453 2475 2648 2532 2330 1963 1737
1490.0 1351 1046 792 610 569 584 429 420 419 371
1530.0 358 344 404 360 392 361 382 339 437 322
1570.0 362 342 428 377 441 458 436 415 390 410
1610.0 427 533 517 539 458 480 455 493 416 505
1650.0 361 529 390 340 363 397 374 495 475 700
1690.0 675 732 740 729 570 483 469 374 346 273
1730.0 276 248 245 170 161 219 235 281 303 340
1770.0 312 340 277 338 312 362 318 329 334 309
1810.0 276 285 268 252 285 246 265 222 265 260
1850.0 251 233 242 233 240 246 237 231 230 230
1890.0 235 234 231 233 231 231 237 245 255 234
1930.0 243 233 243 235 249 230 234 224 220 213
1970.0 222 216 211 215 210 210 211 206 195 201
2010.0 195 204 197 204 192 196 200 202 196 206
2050.0 200 197 194 190 197 202 196 202 199 200
2090.0 195 198 194 198 197 194 197 203 199 201
2130.0 203 204 200 195 192 185 184 183 182 182
2170.0 181 183 180 179 176 175 174 176 178 178
2210.0 177 175 172 168 168 163 168 173 173 176
2250.0 178 177 177 176 176 177 173 178 182 179
2290.0 190 189 192 200 200 204 199 191 190 179
2330.0 182 172 157 164 180 177 176 171 156 159
2370.0 168 166 183 190 186 186 183 180 186 181
2410.0 180 183 183 187 182 185 186 186 186 187
2450.0 186 184 194 190 191 191 191 194 190 198
2490.0 196 193 196 203 202 199 204 199 199 198
2530.0 199 201 205 204 206 212 209 218 223 227
2570.0 224 238 243 250 265 274 296 316 335 357
2610.0 383 405 427 437 440 428 418 408 403 391
2650.0 386 389 405 409 415 427 434 444 449 449
2690.0 464 482 499 512 530 550 561 569 579 585
2730.0 601 607 612 619 620 637 658 691 733 797
2770.0 873 956 1051 1155 1258 1361 1460 1561 1663 1784
2810.0 1918 2081 2269 2476 2699 2935 3140 3337 3498 3649
2850.0 3833 3973 4009 3953 3908 3934 4004 4082 4166 4173
2890.0 4131 4067 4021 4018 4077 4158 4307 4477 4699 4971
2930.0 5299 5647 5945 6128 6229 6320 6547 7142 7997 9122
2970.0 10000 9916 9188 7870 6134 4394 2947 1922 1297 966
3010.0 742 618 530 464 425 392 362 343 328 312
3050.0 315 293 292 286 272 264 253 262 245 236
3090.0 236 232 225 223 221 205 209 205 202 197
3130.0 192 193 201 193 197 192 197 197 202 209
3170.0 204 206 207 217 218 211 208 211 214 211
3210.0 212 212 224 209 211 208 211 212 199 202
3250.0 200 193 189 191 176 184 185 185 184 183
3290.0 192 183 170 172 175 164 177 167 170 171
3330.0 169 181 200 208 201 205 212 205 219 204
3370.0 206 191 204 190 189 201 200 193 196 189
3410.0 190 183 181 174 185 173 157 171 190 196
3450.0 202 211 223 243 238 252 254 247 260 241
3490.0 254 236 208 229 216 223 234 229 285 314
3530.0 390 399 472 530 626 714 773 817 917 874
3570.0 856 741 671 576 475 491 342 308 281 238
3610.0 273 226 236 216 230 295 254 272 315 372
3650.0 390 446 497 527 581 552 585 518 497 416
3690.0 386 284 208 160 155 155 155 155 155 155
3730.0 155 155 155 156 183 155 155 155 155 155
3770.0 155 155 155 155 155 155 155 155 155 155
3810.0 155 155 155 155 155 155 155 155 155 155
3850.0 155 155 155 155 155 155 155 155 155 155
3890.0 155 155 155 155 155 155 155 155 155 155
3930.0 155 155 155 155 155 155 155 155 155 155
##END=
