##TITLE=2-Hexanone, 5-methyl-
##JCAMP-DX=4.24
##DATA TYPE=INFRARED SPECTRUM
##ORIGIN=Sadtler Research Labs Under US-EPA Contract
##OWNER=NIST Standard Reference Data Program
##CAS REGISTRY NO=110-12-3
##MOLFORM=C 7 H 14 O
##XUNITS=1/CM
##YUNITS=ABSORBANCE
##XFACTOR=1.0
##YFACTOR=0.000071280
##DELTAX=4.0
##FIRSTX=450.0
##LASTX=3966.0
##FIRSTY=0.006273
##MAXX=3966
##MINX=450
##MAXY=0.7128
##MINY=0
##NPOINTS=880
##XYDATA=(X++(Y..Y))
450.0 88 54 47 43 71 108 129 161 162 156
490.0 162 165 150 178 152 196 216 230 231 227
530.0 260 262 399 349 275 208 189 115 114 191
570.0 169 260 275 308 372 317 282 221 182 152
610.0 105 51 32 28 11 15 35 25 25 0
650.0 19 22 42 1 0 38 10 25 23 33
690.0 33 30 36 32 44 37 70 51 39 80
730.0 120 135 128 140 117 106 90 62 46 30
770.0 74 52 44 54 41 56 50 55 52 36
810.0 39 39 43 29 51 51 55 45 53 63
850.0 64 60 58 69 85 105 97 106 116 131
890.0 123 145 164 189 207 238 279 305 341 350
930.0 339 310 288 238 216 213 227 252 286 304
970.0 304 302 292 260 246 252 246 267 287 293
1010.0 322 325 329 314 290 254 234 213 204 190
1050.0 168 148 133 126 111 114 122 129 148 163
1090.0 199 232 290 346 410 482 548 573 586 600
1130.0 605 637 706 887 1175 1591 2107 2602 2941 3095
1170.0 2969 2592 2150 1718 1357 1098 930 823 777 762
1210.0 795 844 924 1011 1093 1132 1139 1095 1029 971
1250.0 940 932 938 930 944 906 850 804 730 629
1290.0 545 482 440 438 486 578 704 817 939 1030
1330.0 1110 1211 1344 1517 1843 2287 2810 3259 3545 3566
1370.0 3289 2827 2435 2133 1889 1650 1457 1278 1053 934
1410.0 913 952 991 1034 1041 1029 1019 1010 1047 1113
1450.0 1177 1277 1377 1428 1454 1459 1373 1175 974 766
1490.0 584 449 361 298 278 227 222 210 219 202
1530.0 188 191 188 183 162 171 168 179 149 140
1570.0 140 134 133 113 120 112 113 112 111 112
1610.0 120 116 129 132 129 130 141 141 137 150
1650.0 144 191 181 205 232 282 319 391 469 575
1690.0 691 839 1043 1307 1660 2182 2929 3950 5148 6339
1730.0 7232 7452 7090 6294 4958 3617 2494 1715 1206 874
1770.0 687 548 452 376 304 257 220 191 167 143
1810.0 121 114 94 99 85 77 70 72 58 61
1850.0 59 49 47 54 53 44 39 43 42 40
1890.0 36 33 33 33 33 33 40 39 25 31
1930.0 30 33 28 31 31 31 25 32 21 26
1970.0 19 26 26 19 19 20 13 15 20 18
2010.0 14 17 18 18 19 19 12 18 26 18
2050.0 22 26 22 24 12 26 24 24 25 25
2090.0 25 31 25 38 39 39 31 32 38 31
2130.0 38 31 37 31 32 31 29 28 31 22
2170.0 31 31 37 30 31 31 23 17 21 24
2210.0 15 16 19 17 23 28 30 22 22 22
2250.0 24 22 23 25 18 24 19 21 22 28
2290.0 28 19 26 25 38 40 37 37 34 23
2330.0 23 5 9 26 17 24 42 18 24 0
2370.0 0 0 0 0 9 13 15 22 21 14
2410.0 8 13 12 7 0 9 4 8 5 2
2450.0 7 7 8 14 12 14 15 15 15 16
2490.0 29 15 13 15 20 20 13 14 13 11
2530.0 12 12 8 3 6 14 14 13 13 14
2570.0 27 35 28 28 30 27 31 34 30 38
2610.0 42 34 34 34 42 44 50 35 54 55
2650.0 49 60 54 56 50 43 49 43 48 37
2690.0 44 45 47 52 46 58 61 71 90 91
2730.0 113 119 132 133 120 118 109 100 106 112
2770.0 119 118 118 132 132 147 171 190 205 237
2810.0 262 290 315 333 364 378 414 476 554 640
2850.0 767 920 1127 1363 1688 2118 2610 2971 3193 3322
2890.0 3295 3188 3135 3189 3345 3522 3743 3977 4217 4472
2930.0 4743 4973 5180 5333 5437 5710 6289 7386 8982 10000
2970.0 9501 8374 6467 4127 2549 1689 1191 934 819 793
3010.0 778 740 689 602 510 418 376 339 313 292
3050.0 295 290 282 289 275 262 250 245 232 214
3090.0 207 199 185 169 161 140 133 116 123 128
3130.0 114 102 115 104 112 118 118 106 127 114
3170.0 119 126 126 126 120 117 114 114 104 108
3210.0 103 74 67 73 67 53 46 52 43 42
3250.0 60 48 31 23 21 41 27 35 29 29
3290.0 31 36 36 46 51 37 61 59 34 41
3330.0 48 42 51 36 49 36 63 48 48 60
3370.0 43 38 43 43 50 38 51 56 53 55
3410.0 49 77 61 58 94 93 112 140 134 134
3450.0 151 157 141 127 105 99 61 60 25 37
3490.0 31 17 46 32 28 39 25 20 34 6
3530.0 28 31 0 20 39 10 19 22 44 40
3570.0 40 36 55 41 37 53 39 39 40 26
3610.0 31 48 48 37 37 54 53 49 50 54
3650.0 65 47 56 48 45 60 63 35 37 31
3690.0 43 24 29 21 23 42 36 53 73 56
3730.0 53 47 36 47 53 45 37 27 29 38
3770.0 35 32 29 41 50 52 61 48 56 28
3810.0 17 44 27 29 40 51 65 65 68 70
3850.0 75 68 43 49 47 41 29 31 33 37
3890.0 31 39 49 55 55 51 43 29 29 23
3930.0 18 15 12 27 37 33 31 39 28 29
##END=
