##TITLE=Cyclohexane
##JCAMP-DX=4.24
##DATA TYPE=INFRARED SPECTRUM
##ORIGIN=Sadtler Research Labs Under US-EPA Contract
##OWNER=NIST Standard Reference Data Program
##CAS REGISTRY NO=110-82-7
##MOLFORM=C 6 H 12
##XUNITS=1/CM
##YUNITS=ABSORBANCE
##XFACTOR=1.0
##YFACTOR=0.000049429
##DELTAX=4.0
##FIRSTX=450.0
##LASTX=3966.0
##FIRSTY=0.002620
##MAXX=3966
##MINX=450
##MAXY=0.49429
##MINY=0
##NPOINTS=880
##XYDATA=(X++(Y..Y))
450.0 53 37 38 46 59 62 60 70 70 81
490.0 72 66 84 66 84 77 84 85 77 83
530.0 64 56 77 68 58 65 47 46 56 37
570.0 46 44 38 33 46 40 34 59 26 26
610.0 26 16 26 28 24 22 28 11 25 16
650.0 10 18 30 25 9 23 31 28 29 31
690.0 34 33 38 38 36 47 46 47 46 56
730.0 65 65 54 59 64 70 68 63 67 83
770.0 82 74 74 75 73 73 73 72 83 77
810.0 74 73 82 74 74 82 81 102 103 96
850.0 102 99 131 168 70 81 89 91 90 81
890.0 80 92 101 105 83 106 89 67 40 32
930.0 30 29 21 29 29 30 30 33 40 40
970.0 41 41 41 48 50 59 59 70 69 79
1010.0 79 79 78 78 87 87 86 115 109 78
1050.0 78 77 77 77 77 77 78 78 78 78
1090.0 78 67 67 67 67 66 58 58 57 53
1130.0 47 47 47 47 47 36 36 37 37 27
1170.0 24 25 25 25 25 26 26 26 26 24
1210.0 25 24 24 24 37 39 49 65 76 81
1250.0 73 81 121 114 92 91 100 89 79 73
1290.0 73 73 75 70 73 73 72 71 73 73
1330.0 72 72 68 70 72 72 73 71 69 70
1370.0 71 69 69 72 69 70 58 56 60 60
1410.0 60 60 54 68 85 140 232 346 412 407
1450.0 411 642 737 353 389 363 288 196 128 73
1490.0 52 36 34 36 31 16 28 30 28 31
1530.0 32 45 52 26 31 48 53 55 41 57
1570.0 55 65 57 67 69 68 68 67 67 67
1610.0 66 67 64 66 63 68 64 62 65 53
1650.0 49 49 54 53 44 43 32 47 28 27
1690.0 31 24 17 18 20 24 9 6 13 15
1730.0 12 6 4 10 9 8 11 11 12 15
1770.0 19 14 23 20 32 32 30 30 30 32
1810.0 33 42 43 53 52 51 52 52 62 52
1850.0 60 63 63 64 61 59 63 63 62 62
1890.0 62 62 62 62 61 52 51 41 51 43
1930.0 40 41 42 41 29 30 30 22 22 20
1970.0 21 20 23 10 11 13 20 9 10 9
2010.0 11 9 9 9 10 10 9 10 13 19
2050.0 19 17 23 29 29 28 28 29 40 39
2090.0 48 42 49 53 58 58 59 59 59 66
2130.0 67 77 76 66 66 66 67 67 65 65
2170.0 66 66 57 57 57 57 57 56 48 48
2210.0 36 37 30 40 26 26 27 25 26 26
2250.0 16 16 17 17 6 14 5 19 7 11
2290.0 10 23 25 26 28 32 33 42 45 33
2330.0 34 34 26 36 37 54 66 65 62 53
2370.0 58 57 61 61 68 64 61 61 61 62
2410.0 61 61 61 61 61 57 53 53 53 53
2450.0 53 53 53 52 51 43 43 43 42 42
2490.0 37 32 32 21 21 21 11 12 2 1
2530.0 1 0 7 6 3 11 1 2 10 1
2570.0 10 11 20 32 33 51 51 56 66 69
2610.0 69 80 88 88 80 80 80 82 92 103
2650.0 114 137 146 169 159 159 159 160 148 129
2690.0 118 131 118 119 116 99 89 80 60 60
2730.0 51 50 49 41 49 42 42 41 41 51
2770.0 50 49 69 79 88 99 111 122 144 119
2810.0 106 106 102 108 109 145 235 421 747 1199
2850.0 1635 1808 1943 3164 2451 1835 1915 1741 1363 1030
2890.0 846 834 954 1258 1751 2490 3605 4197 5111 5817
2930.0 6966 10000 7556 6484 6074 5790 4677 3147 1827 986
2970.0 535 317 218 146 114 88 70 70 60 60
3010.0 60 50 50 50 51 52 46 51 41 42
3050.0 42 30 31 31 21 30 30 31 31 30
3090.0 29 42 42 50 41 50 50 43 50 50
3130.0 50 50 50 59 66 76 78 78 78 79
3170.0 79 68 57 58 58 59 59 66 58 58
3210.0 58 51 58 59 59 59 59 59 53 54
3250.0 51 51 51 51 51 51 50 50 50 48
3290.0 49 42 42 41 41 33 31 31 31 20
3330.0 30 21 21 21 24 30 30 31 31 19
3370.0 21 22 20 30 32 31 39 33 37 43
3410.0 41 51 51 51 58 50 58 59 59 68
3450.0 71 76 80 67 63 58 52 69 49 59
3490.0 59 50 59 52 50 54 49 46 47 50
3530.0 50 50 42 42 31 50 42 27 32 19
3570.0 32 19 13 30 20 12 10 1 19 21
3610.0 9 20 20 20 26 17 30 29 42 39
3650.0 29 50 40 40 51 50 46 52 51 51
3690.0 50 50 50 50 51 59 57 69 71 75
3730.0 69 69 75 68 69 78 68 89 79 78
3770.0 78 69 57 58 58 54 56 59 67 58
3810.0 51 51 50 50 50 50 50 50 51 51
3850.0 51 51 51 51 51 50 58 59 58 70
3890.0 69 69 68 67 79 78 89 98 98 99
3930.0 99 109 121 123 128 140 148 159 158 169
##END=
