##TITLE=1,3-Propanediamine, N,N,N',N'-tetramethyl-
##JCAMP-DX=4.24
##DATA TYPE=INFRARED SPECTRUM
##ORIGIN=Sadtler Research Labs Under US-EPA Contract
##OWNER=NIST Standard Reference Data Program
##CAS REGISTRY NO=110-95-2
##MOLFORM=C 7 H 18 N 2
##XUNITS=1/CM
##YUNITS=ABSORBANCE
##XFACTOR=1.0
##YFACTOR=0.000164719
##DELTAX=4.0
##FIRSTX=450.0
##LASTX=3966.0
##FIRSTY=0.093231
##MAXX=3966
##MINX=450
##MAXY=1.64719
##MINY=0
##NPOINTS=880
##XYDATA=(X++(Y..Y))
450.0 566 322 203 225 116 145 152 151 246 62
490.0 88 14 71 8 94 242 144 154 117 185
530.0 205 230 222 249 234 304 202 123 74 149
570.0 60 60 57 97 92 73 65 63 47 86
610.0 75 92 86 58 59 72 69 67 90 59
650.0 60 75 70 87 55 66 66 52 94 103
690.0 95 99 71 119 130 150 111 89 210 233
730.0 274 350 287 135 326 248 237 226 180 203
770.0 189 182 216 220 248 260 239 316 342 373
810.0 448 558 576 602 631 620 633 579 585 544
850.0 543 489 492 447 440 416 389 354 321 274
890.0 231 225 226 190 168 171 170 161 138 155
930.0 144 157 166 165 232 297 403 577 760 926
970.0 974 869 701 555 496 509 581 700 835 918
1010.0 945 903 906 1023 1261 1573 1882 2170 2309 2295
1050.0 2187 2033 1921 1843 1838 1893 1908 1811 1656 1433
1090.0 1180 1000 901 811 733 611 504 458 429 478
1130.0 565 658 760 810 837 868 875 940 997 1054
1170.0 1066 1074 1054 994 991 978 987 1038 1028 1017
1210.0 944 886 830 738 710 669 645 645 713 871
1250.0 1104 1379 1640 1769 1764 1637 1438 1267 1090 942
1290.0 823 763 753 761 790 788 758 715 644 602
1330.0 561 522 539 546 537 522 501 507 557 701
1370.0 849 989 1057 1025 953 780 620 485 374 336
1410.0 311 323 328 375 425 562 752 1045 1355 1632
1450.0 1996 2407 2746 3059 3003 2736 2270 1739 1270 903
1490.0 671 502 383 332 294 289 232 229 193 166
1530.0 139 133 111 111 107 86 84 88 96 62
1570.0 64 68 58 60 50 40 58 29 50 43
1610.0 35 59 46 61 46 68 59 70 68 66
1650.0 96 87 104 67 102 96 100 93 100 96
1690.0 101 104 139 195 186 201 194 181 141 117
1730.0 112 72 67 37 37 45 32 34 29 25
1770.0 38 32 26 26 32 31 32 37 23 32
1810.0 18 23 23 19 28 27 18 25 20 40
1850.0 21 22 33 25 42 35 41 33 31 33
1890.0 31 28 26 20 23 21 13 18 11 15
1930.0 8 9 9 7 12 1 5 4 5 10
1970.0 10 10 11 15 16 14 22 18 21 21
2010.0 18 23 22 23 23 21 21 21 23 22
2050.0 23 24 26 29 30 33 36 40 41 45
2090.0 43 40 39 32 29 27 25 22 20 17
2130.0 15 12 14 11 11 9 7 6 3 2
2170.0 0 1 2 5 3 5 7 7 7 5
2210.0 4 3 2 4 3 4 6 7 10 10
2250.0 10 9 7 9 9 9 7 9 10 10
2290.0 12 14 13 16 16 13 15 17 19 18
2330.0 19 20 19 22 19 18 16 22 26 14
2370.0 9 16 19 16 18 21 25 27 31 36
2410.0 39 40 45 48 50 50 48 47 47 49
2450.0 47 47 50 48 50 53 57 63 74 85
2490.0 101 113 127 131 133 131 124 123 120 117
2530.0 114 112 108 104 100 98 96 95 96 93
2570.0 98 99 103 108 112 120 126 136 146 152
2610.0 159 162 169 177 184 198 212 229 245 260
2650.0 275 287 304 324 348 376 408 445 478 517
2690.0 564 623 698 792 915 1068 1240 1429 1623 1798
2730.0 1951 2078 2183 2301 2479 2790 3328 4216 5643 7483
2770.0 9114 10000 9764 8947 7941 7311 6810 6258 5648 5150
2810.0 4983 5227 5659 5856 5599 4829 3816 3012 2533 2308
2850.0 2279 2400 2590 2793 2894 2880 2774 2630 2532 2488
2890.0 2479 2508 2569 2648 2725 2787 2852 2938 3092 3351
2930.0 3791 4377 5124 6064 6920 7498 7679 7319 6779 6255
2970.0 6156 6308 6325 5986 4994 3702 2429 1452 926 676
3010.0 533 452 394 351 319 287 258 230 203 191
3050.0 182 175 170 164 162 154 150 143 136 131
3090.0 125 121 112 108 104 99 98 93 89 88
3130.0 85 89 84 86 85 88 84 80 80 84
3170.0 83 85 87 88 91 92 91 92 88 90
3210.0 82 83 77 72 64 55 53 46 35 32
3250.0 27 27 28 26 29 22 26 25 24 25
3290.0 22 27 24 24 26 24 25 25 27 28
3330.0 20 22 22 24 23 21 26 26 25 23
3370.0 18 20 21 23 27 27 31 40 33 34
3410.0 30 29 30 24 26 24 19 18 17 21
3450.0 15 15 16 16 20 17 17 14 20 13
3490.0 21 19 13 13 21 13 18 8 16 15
3530.0 11 17 11 9 23 10 21 6 28 16
3570.0 38 16 21 21 23 29 15 17 19 23
3610.0 23 19 20 13 10 34 19 16 4 19
3650.0 19 24 21 18 22 7 32 11 18 16
3690.0 13 21 1 8 10 6 11 8 14 15
3730.0 22 24 28 29 29 36 14 17 15 20
3770.0 18 12 17 17 24 13 14 21 31 44
3810.0 27 31 35 32 31 31 34 34 42 41
3850.0 32 50 46 34 31 35 28 36 28 31
3890.0 23 19 26 26 40 27 23 52 38 27
3930.0 34 47 54 50 55 34 52 38 43 62
##END=
