##TITLE=Pentanal
##JCAMP-DX=4.24
##DATA TYPE=INFRARED SPECTRUM
##ORIGIN=Sadtler Research Labs Under US-EPA Contract
##OWNER=NIST Standard Reference Data Program
##CAS REGISTRY NO=110-62-3
##MOLFORM=C 5 H 10 O
##XUNITS=1/CM
##YUNITS=ABSORBANCE
##XFACTOR=1.0
##YFACTOR=0.000059286
##DELTAX=4.0
##FIRSTX=450.0
##LASTX=3966.0
##FIRSTY=0.000000
##MAXX=3966
##MINX=450
##MAXY=0.59286
##MINY=0
##NPOINTS=880
##XYDATA=(X++(Y..Y))
450.0 0 405 578 442 540 521 544 678 513 686
490.0 568 666 522 655 662 651 651 633 778 696
530.0 783 764 859 661 620 578 618 604 542 545
570.0 489 636 507 575 533 487 502 517 548 484
610.0 534 500 525 494 470 473 594 577 596 670
650.0 588 645 621 614 615 672 652 567 631 607
690.0 641 554 636 566 535 546 563 573 611 686
730.0 754 661 773 777 789 793 797 773 747 671
770.0 720 622 621 587 583 598 625 573 567 575
810.0 559 593 581 646 632 672 681 712 727 726
850.0 737 712 719 727 762 754 739 767 772 800
890.0 790 816 790 799 770 743 724 709 701 676
930.0 707 685 706 714 739 757 769 826 857 915
970.0 947 1035 1087 1169 1429 1330 1378 1495 1575 1600
1010.0 1628 1592 1550 1477 1456 1408 1361 1319 1300 1299
1050.0 1263 1266 1214 1198 1154 1170 1138 1174 1211 1250
1090.0 1298 1302 1341 1362 1412 1418 1434 1402 1386 1399
1130.0 1392 1395 1385 1405 1366 1380 1388 1418 1501 1618
1170.0 1738 1784 1769 1654 1546 1423 1332 1258 1192 1161
1210.0 1144 1151 1138 1174 1180 1231 1279 1345 1379 1384
1250.0 1382 1335 1308 1262 1218 1138 1091 1061 1028 1022
1290.0 1017 1021 1010 1013 1021 1046 1040 1044 1035 1045
1330.0 1074 1107 1170 1200 1247 1247 1265 1268 1276 1286
1370.0 1302 1377 1502 1657 1736 1744 1704 1603 1483 1389
1410.0 1342 1298 1261 1232 1253 1230 1231 1208 1287 1362
1450.0 1474 1602 1677 1841 1898 1825 1646 1418 1197 997
1490.0 859 727 668 622 546 516 553 480 462 484
1530.0 474 470 432 423 429 460 440 403 387 442
1570.0 442 422 427 440 450 428 464 433 454 445
1610.0 455 435 426 458 454 478 480 487 527 499
1650.0 538 449 580 583 633 648 685 755 819 842
1690.0 1002 1142 1220 1528 1780 2090 2302 2709 3483 4674
1730.0 6238 7713 8714 8891 8880 8534 7631 5974 4413 3393
1770.0 2763 2300 2038 1762 1567 1346 1188 1050 933 831
1810.0 753 694 644 610 573 549 535 534 508 493
1850.0 492 483 478 477 471 452 452 457 450 442
1890.0 441 443 438 440 430 439 424 414 419 420
1930.0 410 417 413 407 407 407 408 410 406 404
1970.0 412 405 413 416 409 407 418 415 415 415
2010.0 416 413 409 406 415 420 422 431 429 425
2050.0 433 425 419 408 410 403 411 410 410 414
2090.0 413 405 410 395 400 405 402 402 391 402
2130.0 406 399 402 396 405 398 404 407 410 407
2170.0 408 407 411 405 408 408 412 413 415 415
2210.0 411 412 409 409 411 415 412 420 411 412
2250.0 417 424 418 419 419 426 425 435 431 431
2290.0 430 442 447 448 458 462 454 464 461 451
2330.0 452 433 429 448 478 483 448 441 473 497
2370.0 519 503 510 490 476 449 450 440 455 445
2410.0 459 453 461 452 454 456 450 452 446 454
2450.0 457 448 447 446 446 445 450 445 448 455
2490.0 460 448 458 454 456 452 459 462 460 467
2530.0 470 477 478 477 484 487 493 502 496 501
2570.0 511 513 525 527 529 550 556 561 559 570
2610.0 587 592 603 608 631 644 667 710 728 755
2650.0 792 828 884 933 1001 1092 1197 1316 1486 1678
2690.0 1892 2191 2570 3036 3342 3423 3465 3411 3173 2747
2730.0 2336 2055 1850 1713 1620 1560 1500 1454 1409 1408
2770.0 1403 1409 1457 1522 1652 1804 2001 2201 2448 2653
2810.0 2759 2764 2675 2531 2323 2123 1968 1896 1879 1945
2850.0 2078 2283 2591 2982 3478 3978 4437 4893 5230 5279
2890.0 5086 4800 4538 4331 4283 4407 4665 5028 5462 6064
2930.0 6745 7499 8199 8624 8727 8375 8017 7913 8450 9406
2970.0 10000 9268 7807 6198 4660 3431 2609 2034 1661 1413
3010.0 1218 1087 992 936 892 863 839 793 773 758
3050.0 738 727 699 678 648 641 633 635 627 607
3090.0 603 598 596 591 587 581 582 576 568 566
3130.0 588 569 554 548 553 544 533 519 520 527
3170.0 525 522 528 533 504 498 506 477 471 475
3210.0 471 475 461 465 434 463 443 428 446 441
3250.0 406 438 412 441 414 424 445 442 441 423
3290.0 435 441 422 452 457 470 448 448 455 457
3330.0 488 473 462 450 463 471 460 471 471 485
3370.0 464 488 475 478 476 479 492 501 473 484
3410.0 475 501 482 484 525 517 523 539 549 577
3450.0 558 576 623 620 629 620 607 602 557 550
3490.0 542 534 528 495 513 500 478 496 513 517
3530.0 505 492 488 477 510 553 528 580 583 632
3570.0 659 678 701 725 724 654 606 634 633 655
3610.0 635 632 592 609 631 665 630 626 637 590
3650.0 671 643 668 671 666 622 601 561 518 539
3690.0 520 546 543 528 500 509 524 534 511 520
3730.0 516 516 512 543 491 494 520 523 509 535
3770.0 516 499 497 481 499 519 509 517 507 501
3810.0 509 489 454 452 518 521 459 548 559 573
3850.0 484 456 449 550 526 458 479 531 518 495
3890.0 458 498 553 494 586 450 426 468 479 516
3930.0 539 525 444 455 491 433 447 501 460 445
##END=
