##TITLE=Butane, 1,4-dichloro-
##JCAMP-DX=4.24
##DATA TYPE=INFRARED SPECTRUM
##ORIGIN=Sadtler Research Labs Under US-EPA Contract
##OWNER=NIST Standard Reference Data Program
##CAS REGISTRY NO=110-56-5
##MOLFORM=C 4 H 8 Cl 2
##XUNITS=1/CM
##YUNITS=ABSORBANCE
##XFACTOR=1.0
##YFACTOR=0.000078476
##DELTAX=4.0
##FIRSTX=450.0
##LASTX=3966.0
##FIRSTY=0.008554
##MAXX=3966
##MINX=450
##MAXY=0.78476
##MINY=0
##NPOINTS=880
##XYDATA=(X++(Y..Y))
450.0 109 148 105 93 130 161 145 181 224 283
490.0 344 337 363 390 338 316 312 285 230 287
530.0 232 256 276 281 283 291 230 145 174 151
570.0 117 116 117 112 121 97 59 14 37 80
610.0 110 130 216 335 490 701 997 1439 2020 2733
650.0 3467 4335 5106 5180 5186 3877 2903 1952 1387 911
690.0 570 473 479 543 677 850 1077 1371 1743 2256
730.0 2909 3581 4096 4421 4376 4062 3922 3734 3618 3790
770.0 4256 4679 5123 5200 4575 3943 2904 1953 1449 1198
810.0 1086 1051 1006 988 938 861 822 738 668 579
850.0 521 509 519 548 610 644 675 657 587 561
890.0 528 478 439 371 349 350 381 452 560 682
930.0 821 915 885 846 781 578 454 426 438 489
970.0 573 725 914 1130 1242 1287 1244 1154 1093 1080
1010.0 988 925 828 689 614 511 418 398 373 367
1050.0 335 304 274 242 219 192 166 136 103 79
1090.0 77 58 40 41 43 45 65 64 85 95
1130.0 88 90 93 73 60 67 68 83 96 96
1170.0 105 128 141 147 191 273 332 354 372 336
1210.0 311 338 364 375 371 349 377 463 585 759
1250.0 1033 1477 1963 2329 2505 2585 2701 3046 4025 5530
1290.0 6772 7256 7611 6981 5909 5346 5177 5036 4725 4086
1330.0 3341 2403 1644 1192 1019 968 917 853 791 639
1370.0 570 517 433 388 347 284 292 239 235 269
1410.0 299 402 540 705 999 1427 1893 2467 3208 4033
1450.0 4355 4310 3957 3092 2276 1779 1358 968 753 572
1490.0 414 299 264 204 285 82 120 131 117 75
1530.0 61 116 143 74 23 85 127 168 0 62
1570.0 94 82 65 51 70 65 76 72 80 77
1610.0 83 97 92 79 59 81 117 52 69 137
1650.0 70 100 25 74 62 95 72 69 96 64
1690.0 62 115 84 41 42 52 68 64 32 57
1730.0 79 92 36 49 45 58 34 46 63 61
1770.0 67 45 43 54 51 64 53 43 44 50
1810.0 53 47 51 50 58 51 38 44 51 36
1850.0 25 38 41 42 48 33 34 38 43 40
1890.0 44 42 41 44 49 54 52 63 47 46
1930.0 61 59 62 62 57 58 70 62 64 65
1970.0 62 63 69 69 68 63 64 58 60 66
2010.0 59 57 61 56 64 64 71 69 73 81
2050.0 77 81 79 78 78 78 78 79 78 83
2090.0 83 83 88 90 91 88 87 81 87 74
2130.0 74 72 65 52 52 53 51 51 58 57
2170.0 49 52 55 56 67 60 67 60 59 66
2210.0 62 65 64 59 69 63 56 68 69 62
2250.0 67 67 66 68 64 63 58 62 61 52
2290.0 38 39 36 28 22 24 9 13 6 12
2330.0 14 10 14 17 18 7 7 8 57 81
2370.0 106 99 100 82 65 66 67 61 62 68
2410.0 62 61 63 62 68 56 64 63 59 57
2450.0 59 59 58 59 59 59 58 61 60 60
2490.0 64 68 73 75 81 74 82 70 74 64
2530.0 63 61 63 52 52 52 48 52 54 54
2570.0 48 53 49 50 52 54 49 61 56 56
2610.0 56 56 64 64 64 60 63 73 67 75
2650.0 75 78 78 91 99 104 111 106 100 120
2690.0 118 135 145 162 165 168 173 179 178 173
2730.0 160 160 167 162 167 175 182 170 176 164
2770.0 159 144 152 152 158 165 172 185 199 209
2810.0 226 250 267 301 336 406 502 652 842 1085
2850.0 1340 1571 1783 1953 2070 2201 2353 2544 2684 2768
2890.0 2786 2734 2739 2796 2956 3152 3289 3455 3628 3785
2930.0 3930 4182 4559 5200 6057 6942 7914 8940 9688 10000
2970.0 9855 9414 8432 7403 6496 5977 5874 5876 5548 4872
3010.0 3989 2918 2061 1466 1038 737 557 423 338 292
3050.0 256 235 228 216 190 173 166 148 143 130
3090.0 115 126 111 101 101 88 76 88 75 72
3130.0 78 73 74 72 65 64 82 74 73 92
3170.0 82 78 84 83 81 77 78 80 82 88
3210.0 82 90 85 79 79 77 77 83 80 79
3250.0 87 72 73 76 56 52 51 51 53 52
3290.0 61 64 68 50 45 55 56 54 68 61
3330.0 75 54 65 55 68 48 47 56 69 58
3370.0 68 45 60 53 42 56 64 53 74 46
3410.0 50 38 50 74 58 52 71 45 54 77
3450.0 89 78 61 56 63 64 65 52 47 68
3490.0 63 68 57 39 70 72 61 36 56 57
3530.0 87 60 49 42 45 71 67 61 35 30
3570.0 120 82 51 50 34 100 69 68 77 55
3610.0 59 73 77 114 70 116 162 138 90 49
3650.0 93 158 134 98 46 19 79 166 142 95
3690.0 117 154 106 79 79 49 110 74 50 53
3730.0 38 30 83 56 111 107 206 147 142 103
3770.0 99 109 54 58 50 49 24 47 50 80
3810.0 98 60 72 82 109 91 80 81 102 97
3850.0 40 45 130 100 105 105 135 124 120 110
3890.0 113 125 100 127 160 155 111 101 96 89
3930.0 91 90 85 67 65 64 76 84 84 89
##END=
