##TITLE=Isopropyl Myristate
##JCAMP-DX=4.24
##DATA TYPE=INFRARED SPECTRUM
##ORIGIN=Sadtler Research Labs Under US-EPA Contract
##OWNER=NIST Standard Reference Data Program
##CAS REGISTRY NO=110-27-0
##MOLFORM=C 17 H 34 O 2
##XUNITS=1/CM
##YUNITS=ABSORBANCE
##XFACTOR=1.0
##YFACTOR=0.000097351
##DELTAX=4.0
##FIRSTX=450.0
##LASTX=3966.0
##FIRSTY=0.008762
##MAXX=3966
##MINX=450
##MAXY=0.97351
##MINY=0
##NPOINTS=880
##XYDATA=(X++(Y..Y))
450.0 90 116 102 103 72 77 73 60 50 54
490.0 36 62 80 66 51 46 23 31 39 32
530.0 50 34 56 22 18 1 49 46 35 50
570.0 49 57 71 94 92 80 79 88 90 97
610.0 85 78 81 80 89 83 85 76 75 78
650.0 75 70 69 62 38 103 65 69 80 79
690.0 90 106 122 135 156 178 205 215 215 199
730.0 183 175 184 154 150 140 146 140 126 124
770.0 134 128 128 127 134 143 133 137 152 167
810.0 177 208 223 246 262 231 199 179 141 146
850.0 139 151 141 157 158 173 177 198 198 204
890.0 213 198 203 197 193 196 202 223 254 283
930.0 313 342 382 399 439 472 517 543 562 547
970.0 504 457 402 350 312 305 289 279 264 265
1010.0 268 262 259 255 266 271 266 282 296 312
1050.0 328 355 380 412 446 475 512 566 626 725
1090.0 855 1083 1429 1908 2529 3098 3347 3087 2612 2231
1130.0 2007 1917 1904 1913 1898 1878 1892 1944 2040 2178
1170.0 2323 2452 2518 2469 2308 2120 1967 1836 1735 1666
1210.0 1607 1577 1557 1576 1612 1658 1714 1779 1837 1846
1250.0 1809 1715 1571 1431 1290 1155 1064 984 926 882
1290.0 849 834 832 825 822 820 804 772 761 771
1330.0 782 817 830 849 871 876 909 958 1037 1128
1370.0 1209 1245 1247 1178 1026 841 637 445 357 312
1410.0 280 295 288 342 376 446 456 542 579 673
1450.0 774 875 1012 1034 1030 926 760 548 411 282
1490.0 222 179 156 132 126 74 72 82 72 78
1530.0 55 92 64 78 43 64 63 69 78 47
1570.0 65 43 80 40 57 46 56 47 55 44
1610.0 45 48 63 54 44 77 52 78 57 85
1650.0 40 122 53 68 67 101 63 110 77 136
1690.0 130 170 194 260 262 312 359 469 629 915
1730.0 1317 1921 2701 3581 4284 4418 3800 2888 2012 1297
1770.0 833 559 372 281 224 173 167 129 104 106
1810.0 97 74 77 57 58 49 45 50 31 37
1850.0 25 37 27 22 14 15 20 17 15 16
1890.0 13 8 11 12 10 9 12 20 4 13
1930.0 18 20 17 15 12 12 16 9 12 10
1970.0 13 11 11 15 17 2 11 19 19 29
2010.0 23 32 37 41 39 44 44 43 44 48
2050.0 43 42 40 46 43 47 42 27 11 5
2090.0 3 4 6 6 6 6 4 6 5 5
2130.0 5 4 4 4 4 4 4 4 2 3
2170.0 6 8 1 2 7 12 12 6 10 9
2210.0 5 6 12 6 9 3 3 3 4 8
2250.0 8 15 8 10 12 11 19 11 17 15
2290.0 19 18 25 29 24 24 33 21 25 23
2330.0 24 19 28 38 53 39 32 33 36 61
2370.0 65 83 77 72 58 44 27 27 27 31
2410.0 22 16 21 18 27 22 24 27 27 27
2450.0 27 27 27 28 23 26 29 35 31 30
2490.0 31 33 32 38 39 43 39 44 48 50
2530.0 54 53 56 64 62 64 59 69 69 69
2570.0 74 70 73 75 75 74 74 77 81 85
2610.0 81 79 81 70 80 76 65 78 95 84
2650.0 82 77 71 71 76 86 111 117 122 133
2690.0 132 145 151 135 144 139 129 132 127 127
2730.0 132 133 143 154 152 158 150 156 161 163
2770.0 163 174 173 183 198 210 221 241 264 275
2810.0 305 337 373 405 443 491 549 632 769 978
2850.0 1350 1956 2797 3546 3723 3389 2897 2474 2226 2085
2890.0 1962 1907 1998 2216 2587 3091 3705 4529 5710 7376
2930.0 9141 10000 9564 8226 6654 5270 4204 3541 3250 3173
2970.0 3120 2912 2779 2846 2839 2399 1849 1409 1080 827
3010.0 646 522 430 360 318 284 258 234 225 210
3050.0 199 179 183 154 153 147 136 129 130 121
3090.0 126 121 119 114 115 118 118 114 100 95
3130.0 97 99 87 80 69 73 73 80 85 64
3170.0 66 69 64 61 74 69 56 63 57 58
3210.0 53 46 35 40 14 17 15 13 16 13
3250.0 4 16 20 0 16 17 10 8 11 22
3290.0 22 23 29 36 32 26 32 22 28 23
3330.0 32 24 33 36 22 32 26 25 25 39
3370.0 29 28 38 39 38 34 29 30 29 29
3410.0 27 18 27 18 32 34 28 34 45 27
3450.0 14 41 19 27 48 60 67 61 39 31
3490.0 24 47 33 23 4 23 17 20 34 24
3530.0 37 25 32 39 30 13 39 19 47 37
3570.0 29 37 27 36 41 38 32 31 44 36
3610.0 76 58 46 61 51 85 64 60 71 64
3650.0 80 80 78 63 75 94 85 107 77 86
3690.0 96 101 95 82 92 80 88 88 102 107
3730.0 97 99 94 111 140 100 149 128 120 106
3770.0 101 110 106 100 84 83 94 91 112 103
3810.0 120 106 115 133 120 118 110 120 126 132
3850.0 138 159 139 144 121 140 141 145 127 141
3890.0 136 143 129 132 138 146 137 133 123 108
3930.0 96 106 109 105 105 106 109 106 119 141
##END=
