##TITLE=Cyclohexene
##JCAMP-DX=4.24
##DATA TYPE=INFRARED SPECTRUM
##ORIGIN=Sadtler Research Labs Under US-EPA Contract
##OWNER=NIST Standard Reference Data Program
##CAS REGISTRY NO=110-83-8
##MOLFORM=C 6 H 10
##XUNITS=1/CM
##YUNITS=ABSORBANCE
##XFACTOR=1.0
##YFACTOR=0.000097607
##DELTAX=4.0
##FIRSTX=450.0
##LASTX=3966.0
##FIRSTY=0.010054
##MAXX=3966
##MINX=450
##MAXY=0.97607
##MINY=0
##NPOINTS=880
##XYDATA=(X++(Y..Y))
450.0 103 112 109 102 116 122 115 115 89 114
490.0 109 112 118 104 100 119 85 115 115 108
530.0 128 112 118 127 100 124 124 123 131 111
570.0 94 118 88 117 106 110 147 141 223 289
610.0 354 488 553 553 615 799 1232 1248 762 720
650.0 789 844 850 874 739 415 355 323 282 240
690.0 226 221 269 311 304 304 445 1117 399 269
730.0 346 343 267 200 117 60 50 24 19 21
770.0 8 25 25 24 29 20 33 63 44 54
810.0 39 37 47 37 36 31 22 43 39 53
850.0 103 134 213 263 274 288 317 335 293 276
890.0 254 230 251 289 288 287 347 646 388 226
930.0 205 202 165 139 117 92 100 98 111 120
970.0 108 118 102 94 103 104 93 100 95 125
1010.0 120 117 163 201 233 266 274 340 318 343
1050.0 386 356 303 266 235 219 188 160 147 122
1090.0 103 87 71 72 75 89 117 144 178 210
1130.0 201 215 407 419 226 207 208 191 148 117
1170.0 90 66 57 50 45 55 51 59 58 63
1210.0 80 79 86 100 106 121 119 116 133 145
1250.0 161 174 172 183 189 184 142 135 126 106
1290.0 79 71 67 74 95 104 124 136 152 180
1330.0 178 182 186 174 152 131 122 120 108 83
1370.0 91 80 82 86 78 90 92 85 88 80
1410.0 84 108 134 243 353 500 591 645 717 857
1450.0 876 1041 755 546 491 395 313 213 146 89
1490.0 58 30 30 9 30 18 11 28 25 27
1530.0 23 32 26 38 14 17 10 20 24 13
1570.0 30 17 37 34 47 54 70 63 79 78
1610.0 80 97 90 95 97 113 137 181 196 231
1650.0 215 249 223 226 231 228 162 139 118 144
1690.0 154 183 241 264 245 275 241 238 205 144
1730.0 97 78 64 67 45 51 38 23 29 18
1770.0 17 21 11 16 19 11 25 16 16 21
1810.0 13 13 17 10 18 14 13 13 4 16
1850.0 10 12 17 18 25 39 31 40 44 37
1890.0 44 41 37 35 18 22 23 22 24 16
1930.0 13 19 12 19 13 8 13 8 8 12
1970.0 2 9 3 3 10 3 7 9 4 7
2010.0 6 2 7 0 5 4 0 4 7 6
2050.0 9 6 9 10 3 10 9 9 14 14
2090.0 22 26 21 27 25 22 27 21 22 21
2130.0 9 16 9 9 16 9 11 19 9 16
2170.0 16 13 16 20 20 25 20 30 24 20
2210.0 26 18 19 21 14 21 16 20 20 20
2250.0 26 29 20 31 23 22 25 19 22 20
2290.0 11 17 14 14 19 12 16 20 16 25
2330.0 17 13 22 14 19 14 14 35 19 21
2370.0 30 19 29 28 24 30 25 26 26 14
2410.0 21 21 14 14 13 12 16 9 13 10
2450.0 10 14 10 16 21 16 26 26 26 25
2490.0 25 25 29 21 22 22 17 21 14 17
2530.0 17 11 14 18 11 21 18 22 28 28
2570.0 34 38 34 44 38 34 41 36 37 35
2610.0 33 38 33 40 44 45 57 67 80 101
2650.0 120 140 161 174 190 172 164 164 148 129
2690.0 116 88 83 74 69 72 58 62 63 53
2730.0 58 52 48 57 52 60 65 69 90 99
2770.0 113 134 135 151 157 162 179 177 179 188
2810.0 187 197 237 314 485 762 1194 1662 1987 2266
2850.0 2851 3189 3087 3187 3202 3389 3059 2652 2508 2451
2890.0 2743 3022 2820 2929 3476 4343 5068 5660 6207 6994
2930.0 7705 10000 9665 8907 7536 7004 6378 5366 4091 2790
2970.0 1773 1169 883 738 632 549 508 522 532 615
3010.0 812 1144 1626 2023 2167 2264 2303 2299 2193 2063
3050.0 1591 1015 635 442 351 325 293 272 265 211
3090.0 173 134 102 94 80 68 63 47 49 48
3130.0 31 45 42 37 39 34 37 49 37 39
3170.0 36 34 43 37 42 49 42 54 44 43
3210.0 54 39 49 38 38 39 32 30 33 28
3250.0 32 30 22 39 39 39 49 43 56 57
3290.0 51 60 52 45 52 40 48 40 25 33
3330.0 23 25 28 18 29 24 20 36 20 28
3370.0 40 29 39 39 34 40 38 31 39 23
3410.0 33 29 20 28 21 19 24 13 25 34
3450.0 13 23 12 19 27 16 22 21 8 23
3490.0 13 14 30 12 21 23 21 37 13 21
3530.0 34 29 34 29 22 37 22 16 30 21
3570.0 37 26 24 32 20 40 44 32 44 42
3610.0 47 58 45 51 44 59 62 63 54 77
3650.0 81 71 69 55 60 62 51 61 37 34
3690.0 45 40 49 43 34 43 40 40 44 37
3730.0 50 55 57 50 55 53 70 50 60 50
3770.0 40 44 47 47 51 42 47 44 45 54
3810.0 50 44 55 52 54 52 48 56 55 59
3850.0 57 58 59 54 55 66 55 53 52 51
3890.0 53 50 44 50 49 58 61 59 63 62
3930.0 63 66 62 66 61 55 51 47 50 53
##END=
