##TITLE=Ethanol, 2-ethoxy-
##JCAMP-DX=4.24
##DATA TYPE=INFRARED SPECTRUM
##ORIGIN=Sadtler Research Labs Under US-EPA Contract
##OWNER=NIST Standard Reference Data Program
##CAS REGISTRY NO=110-80-5
##MOLFORM=C 4 H 10 O 2
##XUNITS=1/CM
##YUNITS=ABSORBANCE
##XFACTOR=1.0
##YFACTOR=0.000133136
##DELTAX=4.0
##FIRSTX=450.0
##LASTX=3966.0
##FIRSTY=0.019038
##MAXX=3966
##MINX=450
##MAXY=1.33136
##MINY=0
##NPOINTS=880
##XYDATA=(X++(Y..Y))
450.0 143 226 239 186 166 163 172 146 138 149
490.0 143 150 126 149 148 196 203 281 287 342
530.0 335 360 323 274 237 186 177 116 117 72
570.0 65 59 62 58 40 45 34 32 29 27
610.0 16 27 19 21 22 19 17 31 28 24
650.0 22 20 24 17 26 30 25 32 23 22
690.0 30 25 19 10 11 11 9 6 4 4
730.0 20 9 18 20 21 23 32 44 54 70
770.0 78 99 117 147 175 209 237 278 314 348
810.0 388 416 450 466 484 468 449 446 423 401
850.0 383 390 420 474 542 628 723 827 908 952
890.0 971 979 1003 978 931 864 828 810 797 743
930.0 667 604 537 458 369 318 282 268 264 269
970.0 284 303 327 356 400 449 510 571 660 758
1010.0 878 1032 1214 1421 1660 1957 2296 2736 3280 3986
1050.0 4837 5734 6470 6904 7111 6932 6446 5721 4916 4101
1090.0 3551 3254 3209 3417 3900 4678 5652 6765 7886 9168
1130.0 9849 10000 9509 8693 7308 5727 4364 3377 2809 2452
1170.0 2219 2017 1849 1662 1478 1336 1250 1227 1241 1281
1210.0 1301 1291 1275 1281 1254 1212 1182 1156 1125 1087
1250.0 1066 1044 1030 997 977 947 922 892 855 822
1290.0 795 773 731 697 660 634 606 585 604 635
1330.0 716 853 1111 1494 1884 2066 2150 2201 2262 2219
1370.0 2096 2012 2033 2203 2307 2186 2005 1905 1820 1728
1410.0 1628 1463 1297 1118 978 841 754 704 694 711
1450.0 789 896 945 943 927 943 862 723 593 515
1490.0 436 375 312 253 208 155 128 100 88 69
1530.0 61 53 48 40 28 37 26 31 30 20
1570.0 21 19 22 18 14 15 14 16 12 12
1610.0 12 9 12 7 6 6 10 5 7 6
1650.0 10 14 13 3 9 6 11 4 5 9
1690.0 8 7 17 15 18 20 27 29 48 55
1730.0 71 94 132 182 236 247 268 289 249 206
1770.0 173 158 126 100 82 67 56 43 32 27
1810.0 17 12 8 4 4 0 3 0 3 1
1850.0 5 7 8 11 10 11 17 18 20 23
1890.0 25 28 32 36 41 48 56 65 71 85
1930.0 96 106 119 127 137 143 146 144 138 126
1970.0 115 104 91 77 66 53 48 42 37 32
2010.0 28 23 19 18 15 13 11 10 8 10
2050.0 11 10 11 13 14 17 21 19 20 21
2090.0 21 22 21 23 23 25 26 27 30 36
2130.0 38 43 46 48 48 49 48 45 43 42
2170.0 39 35 33 27 23 20 16 13 11 11
2210.0 10 9 11 12 12 14 14 15 17 17
2250.0 19 18 20 20 22 20 20 21 16 14
2290.0 11 7 5 1 2 0 0 0 0 2
2330.0 2 1 1 8 1 0 0 1 0 5
2370.0 6 7 5 2 1 1 5 7 7 9
2410.0 10 12 13 10 11 11 12 10 11 11
2450.0 11 11 9 9 9 8 4 6 5 2
2490.0 2 3 4 3 4 4 6 8 10 12
2530.0 14 16 17 17 19 21 22 21 22 24
2570.0 24 25 28 29 33 37 42 47 51 54
2610.0 58 59 60 61 62 63 64 67 67 69
2650.0 75 80 88 98 109 121 136 154 170 184
2690.0 201 214 228 246 265 283 298 313 327 347
2730.0 359 367 375 385 393 403 416 433 452 475
2770.0 506 538 580 623 666 716 764 814 860 902
2810.0 937 980 1030 1098 1191 1326 1510 1749 2071 2451
2850.0 2890 3372 3921 4494 5096 5686 6176 6547 6683 6692
2890.0 6410 6095 5602 5163 4783 4477 4276 4164 4171 4252
2930.0 4471 4691 4785 4766 4809 4830 4803 4683 4518 4445
2970.0 4551 4676 4603 4344 4092 3878 3276 2600 2021 1560
3010.0 1213 930 714 556 448 370 318 282 252 229
3050.0 210 196 175 160 144 128 112 101 90 81
3090.0 74 66 61 59 58 53 54 49 47 46
3130.0 46 43 38 39 36 34 33 34 34 35
3170.0 33 31 36 35 37 37 41 40 38 39
3210.0 41 42 41 35 31 29 26 24 22 17
3250.0 18 20 20 19 17 16 13 13 11 9
3290.0 9 9 10 11 6 10 8 5 6 3
3330.0 6 7 4 5 1 3 4 2 4 1
3370.0 2 2 5 3 5 0 9 10 7 13
3410.0 9 12 17 18 15 13 13 12 12 12
3450.0 11 8 8 11 11 15 20 23 30 31
3490.0 33 36 36 32 35 33 34 32 31 29
3530.0 30 32 34 32 38 39 37 44 47 43
3570.0 50 47 54 55 70 80 107 137 191 277
3610.0 373 495 653 949 1214 1358 1306 1302 1278 1088
3650.0 825 657 537 482 434 408 393 359 319 267
3690.0 238 193 159 122 96 79 70 63 53 52
3730.0 44 42 42 39 48 45 39 41 38 43
3770.0 41 40 40 42 34 29 24 13 20 12
3810.0 11 4 2 0 1 2 0 1 2 1
3850.0 0 14 1 0 3 0 0 0 0 0
3890.0 2 0 0 3 6 1 0 0 0 3
3930.0 0 10 6 3 8 8 8 19 24 23
##END=
