##TITLE=1-Butanol, 3-methyl-, formate
##JCAMP-DX=4.24
##DATA TYPE=INFRARED SPECTRUM
##ORIGIN=Sadtler Research Labs Under US-EPA Contract
##OWNER=NIST Standard Reference Data Program
##CAS REGISTRY NO=110-45-2
##MOLFORM=C 6 H 12 O 2
##XUNITS=1/CM
##YUNITS=ABSORBANCE
##XFACTOR=1.0
##YFACTOR=0.000060107
##DELTAX=4.0
##FIRSTX=450.0
##LASTX=3966.0
##FIRSTY=0.003186
##MAXX=3966
##MINX=450
##MAXY=0.60107
##MINY=0
##NPOINTS=880
##XYDATA=(X++(Y..Y))
450.0 53 60 84 99 98 123 114 90 90 75
490.0 41 29 4 41 51 40 44 80 91 99
530.0 106 86 70 24 67 107 41 90 49 97
570.0 123 56 82 81 98 78 77 108 91 116
610.0 129 112 116 62 114 123 123 188 186 130
650.0 112 128 80 108 125 134 107 92 88 102
690.0 122 149 88 97 84 80 85 84 116 115
730.0 102 159 145 109 129 145 139 128 157 139
770.0 140 154 154 172 172 186 144 151 168 198
810.0 214 190 187 163 160 127 145 115 88 91
850.0 125 76 96 64 68 86 87 102 118 101
890.0 158 179 184 220 290 361 407 492 517 544
930.0 516 499 432 408 395 330 291 253 234 207
970.0 199 217 207 203 196 171 179 209 195 221
1010.0 203 209 233 233 261 271 283 296 298 322
1050.0 337 332 329 304 303 298 299 293 296 311
1090.0 328 343 360 369 535 523 615 727 854 967
1130.0 1144 1405 1777 2322 3173 4215 5653 7033 8361 9585
1170.0 10000 9872 9441 8101 6879 5363 3893 2585 1772 1304
1210.0 1039 863 748 655 618 589 587 591 587 574
1250.0 575 559 528 501 501 499 466 471 438 412
1290.0 373 350 308 305 290 273 255 247 238 222
1330.0 222 216 236 248 249 250 267 283 330 372
1370.0 430 497 548 602 612 589 527 454 333 249
1410.0 188 163 181 172 169 194 204 283 270 327
1450.0 396 487 683 705 812 861 904 773 638 512
1490.0 412 287 258 172 230 183 121 149 191 126
1530.0 102 132 127 201 118 91 104 192 170 81
1570.0 112 84 131 73 74 66 73 72 75 72
1610.0 73 75 138 80 94 83 101 134 80 130
1650.0 116 254 98 111 104 159 144 162 175 277
1690.0 222 284 410 542 581 682 858 1140 1360 1719
1730.0 2291 3335 5329 8250 9508 9535 9510 7550 4449 2784
1770.0 2016 1578 1218 981 865 787 694 459 338 245
1810.0 194 144 111 95 104 101 84 71 81 101
1850.0 64 55 55 55 55 78 53 46 46 46
1890.0 50 53 55 51 51 53 53 69 60 52
1930.0 44 51 52 55 59 61 57 59 59 66
1970.0 74 67 66 74 67 66 67 47 59 49
2010.0 46 41 49 49 40 49 47 47 47 47
2050.0 47 56 55 55 63 62 71 70 63 70
2090.0 71 70 63 70 61 61 56 53 52 45
2130.0 52 36 35 36 36 36 26 37 26 26
2170.0 36 33 26 34 33 25 33 26 26 26
2210.0 26 24 24 24 24 24 16 16 15 24
2250.0 24 24 23 23 26 30 30 30 39 46
2290.0 54 62 71 78 87 97 112 104 115 114
2330.0 110 106 112 109 117 109 117 109 104 93
2370.0 77 65 54 54 36 28 25 18 25 18
2410.0 25 18 16 16 16 17 17 17 17 16
2450.0 14 16 7 7 7 6 6 6 11 16
2490.0 16 10 13 6 14 6 14 14 5 13
2530.0 6 8 10 10 3 9 12 3 3 12
2570.0 3 4 1 11 11 11 16 15 9 13
2610.0 10 19 26 19 28 27 26 23 21 28
2650.0 24 18 29 18 28 28 28 28 28 21
2690.0 20 27 26 31 47 50 58 75 84 92
2730.0 101 101 101 87 82 78 77 73 69 69
2770.0 59 69 70 77 70 77 77 85 80 94
2810.0 96 109 119 132 157 159 175 207 242 276
2850.0 317 360 422 505 631 812 1041 1265 1446 1576
2890.0 1655 1680 1716 1795 1944 2166 2436 2734 3050 3255
2930.0 3320 3266 3111 2861 2673 2641 2767 3106 3682 4327
2970.0 4534 4331 3869 3001 2095 1461 1059 744 541 406
3010.0 315 246 187 153 130 107 98 81 79 82
3050.0 71 72 64 63 65 55 55 61 52 47
3090.0 41 48 55 55 62 64 72 80 80 79
3130.0 58 54 37 36 38 30 40 40 40 39
3170.0 40 49 47 43 49 35 42 31 32 40
3210.0 23 25 24 16 25 16 7 7 8 8
3250.0 8 8 8 8 8 8 9 9 1 9
3290.0 9 8 8 13 9 9 9 9 9 9
3330.0 8 8 11 7 8 8 9 9 15 9
3370.0 10 10 9 10 9 8 10 10 1 5
3410.0 4 10 11 7 9 10 10 10 10 10
3450.0 12 18 22 34 46 63 73 99 101 91
3490.0 58 50 33 18 10 10 7 3 7 10
3530.0 10 10 10 10 19 18 26 16 11 21
3570.0 23 10 10 10 25 45 19 20 12 19
3610.0 51 28 34 33 16 60 24 11 18 33
3650.0 92 52 60 37 45 84 82 98 46 39
3690.0 77 32 14 11 12 29 42 14 13 32
3730.0 29 57 67 50 107 81 64 28 28 21
3770.0 29 18 15 11 13 17 19 45 52 38
3810.0 30 37 53 61 30 39 54 63 54 44
3850.0 42 87 49 53 54 62 46 29 37 45
3890.0 38 34 30 29 25 14 12 13 6 5
3930.0 5 5 5 14 14 15 0 1 1 1
##END=
