##TITLE=Decanedioic acid, diethyl ester
##JCAMP-DX=4.24
##DATA TYPE=INFRARED SPECTRUM
##ORIGIN=Sadtler Research Labs Under US-EPA Contract
##OWNER=NIST Standard Reference Data Program
##CAS REGISTRY NO=110-40-7
##MOLFORM=C 14 H 26 O 4
##XUNITS=1/CM
##YUNITS=ABSORBANCE
##XFACTOR=1.0
##YFACTOR=0.000097171
##DELTAX=4.0
##FIRSTX=450.0
##LASTX=3966.0
##FIRSTY=0.000000
##MAXX=3966
##MINX=450
##MAXY=0.97171
##MINY=0
##NPOINTS=880
##XYDATA=(X++(Y..Y))
450.0 0 455 458 685 545 497 684 669 367 596
490.0 782 582 385 458 513 623 776 679 606 525
530.0 626 370 490 568 385 552 605 430 474 489
570.0 450 516 530 587 507 519 508 624 501 394
610.0 424 454 529 454 461 454 530 559 509 403
650.0 490 466 497 520 462 461 492 477 499 494
690.0 431 430 467 573 497 500 540 550 539 540
730.0 598 480 451 641 718 421 541 566 547 475
770.0 474 560 512 553 597 498 496 521 479 457
810.0 370 471 525 453 507 461 524 566 525 565
850.0 622 626 652 574 621 535 569 551 572 602
890.0 555 497 486 649 564 703 700 717 762 765
930.0 802 704 713 710 682 646 631 539 517 564
970.0 519 518 509 519 520 514 495 539 577 653
1010.0 703 839 998 1253 1501 1803 2128 2347 2356 2276
1050.0 1939 1765 1589 1462 1438 1379 1461 1610 1758 1900
1090.0 2023 2167 2333 2462 2430 2357 2251 2243 2292 2460
1130.0 2650 3118 3558 3789 4266 4568 5067 5547 5961 6245
1170.0 6433 6203 6148 6041 5588 5268 4931 4659 4420 4295
1210.0 4204 4114 4005 4215 4182 4246 4272 4385 4196 4288
1250.0 4041 3827 3483 3223 2895 2679 2495 2295 2109 1986
1290.0 1999 1945 1947 1972 2066 2056 2039 1920 1842 1753
1330.0 1714 1681 1756 1793 1857 1900 1812 1673 1596 1810
1370.0 2114 2327 2101 1729 1403 1194 1085 1013 950 905
1410.0 877 881 892 966 1048 1136 1179 1190 1213 1236
1450.0 1324 1371 1480 1484 1493 1382 1229 1040 885 761
1490.0 672 617 548 501 463 428 468 426 430 426
1530.0 436 485 445 441 445 479 481 458 467 482
1570.0 480 532 486 482 460 459 448 454 431 411
1610.0 411 424 445 443 480 449 460 397 386 386
1650.0 355 381 378 392 398 393 402 447 438 495
1690.0 557 639 707 761 881 965 1108 1280 1534 1996
1730.0 2496 3290 4491 5830 7518 9379 10000 9336 7484 5657
1770.0 4186 2959 2175 1622 1248 1034 848 753 686 602
1810.0 574 531 514 497 462 442 445 435 433 408
1850.0 420 412 403 421 398 403 405 409 416 408
1890.0 407 408 408 419 404 400 398 398 404 401
1930.0 401 402 398 403 400 402 404 400 406 397
1970.0 398 391 398 399 401 394 392 395 401 400
2010.0 399 399 398 407 404 403 402 401 403 402
2050.0 393 394 388 402 396 398 392 393 391 394
2090.0 384 386 380 382 383 376 373 369 373 373
2130.0 370 362 366 363 369 367 367 360 369 364
2170.0 368 363 361 362 361 364 364 359 361 362
2210.0 361 360 356 367 365 363 366 363 361 368
2250.0 364 363 357 358 363 364 364 354 364 366
2290.0 367 364 364 364 366 367 372 361 357 363
2330.0 369 368 350 354 352 376 372 378 347 350
2370.0 347 368 357 364 362 369 365 364 364 367
2410.0 364 371 364 363 361 368 370 362 362 359
2450.0 367 362 366 356 361 366 373 365 363 365
2490.0 365 370 371 360 361 366 365 368 363 370
2530.0 368 378 370 373 363 372 376 375 368 369
2570.0 370 380 373 371 368 371 380 376 383 379
2610.0 383 382 396 386 391 389 387 380 385 386
2650.0 393 396 401 403 405 401 411 415 415 413
2690.0 409 417 421 421 405 409 411 417 416 422
2730.0 414 421 428 428 424 423 431 430 438 446
2770.0 440 449 465 467 476 467 480 490 502 502
2810.0 514 525 557 577 608 631 670 719 773 878
2850.0 1032 1313 1734 2233 2512 2477 2261 2016 1802 1675
2890.0 1569 1542 1606 1772 2022 2338 2764 3216 3736 4347
2930.0 5029 5621 6044 6127 5787 5069 4334 3664 3273 3017
2970.0 2890 2873 2975 3234 3404 3151 2659 2224 1908 1644
3010.0 1415 1217 1046 919 817 737 661 630 592 569
3050.0 542 515 499 493 479 472 453 453 447 456
3090.0 452 432 440 432 445 432 420 423 425 424
3130.0 432 416 411 414 423 416 412 416 403 407
3170.0 414 410 398 406 395 413 398 391 386 391
3210.0 394 384 375 380 383 380 375 377 367 375
3250.0 386 367 368 356 374 369 378 364 368 365
3290.0 383 383 374 371 374 376 385 383 380 375
3330.0 385 386 370 372 375 379 381 389 379 385
3370.0 387 389 393 385 383 386 389 393 384 394
3410.0 401 409 407 399 398 396 424 422 416 414
3450.0 428 421 431 434 439 455 458 479 491 491
3490.0 486 488 477 469 437 434 422 429 410 408
3530.0 397 417 409 405 410 414 404 402 405 416
3570.0 409 403 418 412 421 405 407 413 412 405
3610.0 417 411 424 422 420 403 414 422 417 415
3650.0 397 418 409 430 413 412 395 413 419 415
3690.0 423 401 428 426 420 403 410 414 437 431
3730.0 411 402 422 418 409 415 419 422 427 419
3770.0 414 426 421 419 428 422 414 425 413 429
3810.0 404 407 408 412 403 423 393 405 416 433
3850.0 422 393 404 424 426 410 423 410 423 437
3890.0 415 393 418 421 435 429 437 399 402 410
3930.0 431 433 406 413 403 454 439 415 446 430
##END=
