##TITLE=2-Propanol, 1,1'-oxybis-
##JCAMP-DX=4.24
##DATA TYPE=INFRARED SPECTRUM
##ORIGIN=Sadtler Research Labs Under US-EPA Contract
##OWNER=NIST Standard Reference Data Program
##CAS REGISTRY NO=110-98-5
##MOLFORM=C 6 H 14 O 3
##XUNITS=1/CM
##YUNITS=ABSORBANCE
##XFACTOR=1.0
##YFACTOR=0.000090549
##DELTAX=4.0
##FIRSTX=450.0
##LASTX=3966.0
##FIRSTY=0.077147
##MAXX=3966
##MINX=450
##MAXY=0.90549
##MINY=0
##NPOINTS=880
##XYDATA=(X++(Y..Y))
450.0 852 818 833 842 866 851 812 808 785 749
490.0 693 663 657 629 638 616 622 649 650 630
530.0 607 558 491 491 468 444 452 434 389 307
570.0 301 231 183 211 182 190 187 166 175 171
610.0 144 122 121 112 113 88 97 109 110 148
650.0 183 220 238 265 255 220 181 150 138 113
690.0 59 22 22 31 23 25 22 16 19 21
730.0 36 51 21 40 32 30 18 12 8 11
770.0 4 30 73 94 161 194 245 332 367 434
810.0 483 530 562 607 637 662 731 806 877 921
850.0 959 972 958 892 794 676 572 481 444 452
890.0 483 546 634 713 785 848 909 981 1081 1222
930.0 1405 1602 1783 1906 1957 1944 1868 1801 1758 1772
970.0 1865 2011 2186 2332 2461 2529 2540 2523 2472 2391
1010.0 2377 2347 2356 2481 2734 3177 3821 4575 5345 6110
1050.0 6735 7143 7381 7578 7726 7793 7997 8286 8795 9281
1090.0 9784 10000 9972 9673 9339 9176 9175 9356 9477 9558
1130.0 9381 9176 8909 8593 8055 7382 6526 5531 4543 3663
1170.0 2978 2403 1963 1631 1423 1306 1270 1302 1381 1488
1210.0 1624 1763 1875 1984 2054 2120 2209 2359 2580 2889
1250.0 3247 3576 3742 3689 3461 3052 2605 2229 1943 1733
1290.0 1615 1578 1636 1797 2039 2316 2555 2712 2751 2709
1330.0 2626 2541 2489 2443 2396 2335 2280 2256 2324 2547
1370.0 2981 3604 4162 4524 4594 4325 3870 3476 3105 2718
1410.0 2290 1882 1519 1241 1055 956 937 988 1119 1321
1450.0 1570 1783 1935 1971 1873 1690 1445 1166 900 668
1490.0 484 362 283 219 182 154 133 114 103 98
1530.0 86 88 83 81 81 82 78 78 73 65
1570.0 62 53 47 44 46 39 43 46 54 55
1610.0 58 64 63 63 57 59 54 47 41 36
1650.0 29 29 24 27 30 29 32 40 38 45
1690.0 41 35 27 17 15 14 7 9 5 5
1730.0 15 13 21 29 43 41 46 41 41 38
1770.0 35 27 20 16 13 11 6 10 8 11
1810.0 16 19 18 22 22 19 15 6 9 3
1850.0 2 5 8 9 15 21 26 28 30 36
1890.0 40 41 36 40 34 30 26 23 15 19
1930.0 20 22 27 32 33 37 44 45 46 42
1970.0 42 43 43 43 39 34 33 34 36 41
2010.0 42 46 46 51 59 56 62 67 75 68
2050.0 70 67 71 67 65 76 89 100 109 107
2090.0 108 106 94 81 74 68 60 51 41 37
2130.0 31 31 28 30 31 36 40 43 43 45
2170.0 43 48 44 41 38 41 41 36 39 43
2210.0 45 45 48 44 41 42 39 39 31 29
2250.0 23 16 13 12 9 7 7 17 27 27
2290.0 37 39 45 42 46 37 32 32 17 7
2330.0 2 2 2 2 2 2 24 27 31 0
2370.0 2 2 2 2 3 14 18 17 23 26
2410.0 36 36 38 45 49 52 51 47 42 40
2450.0 34 32 26 28 27 20 16 19 22 24
2490.0 34 44 52 45 51 51 51 48 47 37
2530.0 41 39 33 35 35 39 50 51 62 69
2570.0 78 82 85 87 86 92 81 77 76 76
2610.0 85 87 97 107 123 138 155 157 152 168
2650.0 175 183 194 199 207 210 209 219 222 228
2690.0 250 262 279 285 305 313 310 320 315 322
2730.0 332 338 349 359 372 390 416 438 463 502
2770.0 538 551 590 633 656 673 700 713 725 746
2810.0 765 799 839 896 968 1061 1196 1388 1637 1946
2850.0 2341 2808 3356 3936 4577 5189 5734 6154 6495 6698
2890.0 6768 6899 6907 6865 6800 6656 6470 6338 6238 6187
2930.0 6206 6306 6239 6020 5653 5147 4665 4291 4294 4657
2970.0 5343 6217 7223 7809 7782 6934 5530 3945 2372 1379
3010.0 891 614 444 355 296 248 213 192 174 180
3050.0 149 160 157 140 122 135 113 118 93 91
3090.0 97 75 92 91 113 113 110 107 87 73
3130.0 73 78 69 60 51 35 48 50 47 66
3170.0 66 97 94 105 118 114 110 107 94 92
3210.0 67 38 31 20 4 3 36 44 35 57
3250.0 60 43 71 68 76 66 69 43 61 58
3290.0 44 41 58 48 77 59 59 90 67 77
3330.0 74 92 117 98 104 104 101 58 60 99
3370.0 54 68 90 136 129 140 145 137 142 119
3410.0 125 130 120 107 104 79 63 97 121 150
3450.0 168 150 147 197 195 189 167 169 179 183
3490.0 168 166 187 209 191 240 278 299 323 357
3530.0 390 453 511 525 575 582 582 588 598 548
3570.0 557 575 555 577 612 632 703 760 927 1168
3610.0 1494 1904 2475 2911 3114 2972 2605 2016 1492 1209
3650.0 1068 1011 999 934 978 929 829 751 623 479
3690.0 375 273 204 86 65 54 66 86 124 113
3730.0 137 127 130 129 135 98 74 98 52 22
3770.0 59 60 1 39 45 70 67 99 135 129
3810.0 123 119 74 154 111 52 101 11 47 32
3850.0 27 49 41 11 46 136 89 145 118 146
3890.0 151 83 80 75 27 2 2 2 12 43
3930.0 120 107 202 207 239 199 272 211 183 164
##END=
