##TITLE=Butanoic acid, octyl ester
##JCAMP-DX=4.24
##DATA TYPE=INFRARED SPECTRUM
##ORIGIN=Sadtler Research Labs Under US-EPA Contract
##OWNER=NIST Standard Reference Data Program
##CAS REGISTRY NO=110-39-4
##MOLFORM=C 12 H 24 O 2
##XUNITS=1/CM
##YUNITS=ABSORBANCE
##XFACTOR=1.0
##YFACTOR=0.000085748
##DELTAX=4.0
##FIRSTX=450.0
##LASTX=3966.0
##FIRSTY=0.000000
##MAXX=3966
##MINX=450
##MAXY=0.85748
##MINY=0
##NPOINTS=880
##XYDATA=(X++(Y..Y))
450.0 0 194 225 244 172 263 228 256 155 240
490.0 250 200 191 237 237 230 260 243 243 210
530.0 296 171 148 204 217 212 227 232 218 235
570.0 231 239 200 260 291 263 291 270 284 271
610.0 275 228 233 192 209 294 334 271 313 264
650.0 270 243 232 249 225 239 234 234 213 244
690.0 241 253 266 287 297 339 374 405 411 405
730.0 418 383 379 376 368 369 364 367 373 370
770.0 366 369 365 396 417 424 406 413 410 388
810.0 374 367 354 346 343 350 338 345 363 365
850.0 371 382 396 411 411 404 405 395 399 384
890.0 379 383 381 379 388 395 395 401 410 415
930.0 426 440 451 466 487 538 594 662 731 776
970.0 801 832 872 911 956 980 1003 1010 1000 966
1010.0 907 854 822 822 868 904 980 1070 1184 1285
1050.0 1340 1347 1326 1345 1390 1471 1564 1711 1889 2104
1090.0 2321 2421 2408 2246 2046 1833 1608 1406 1342 1259
1130.0 1287 1304 1360 1491 1648 1922 2294 2885 3715 4938
1170.0 6425 7707 8238 7609 6578 5559 4872 4353 3893 3407
1210.0 2978 2659 2430 2324 2321 2400 2505 2606 2745 2933
1250.0 3119 3231 3159 2922 2662 2389 2127 1914 1812 1824
1290.0 1881 1940 1953 1901 1743 1549 1331 1168 1066 1016
1330.0 1029 1098 1223 1404 1606 1738 1782 1732 1616 1452
1370.0 1275 1148 1098 1133 1205 1237 1159 994 811 692
1410.0 619 598 621 650 717 815 916 984 1037 1076
1450.0 1209 1360 1575 1712 1691 1632 1381 1108 853 691
1490.0 547 469 416 367 355 321 278 277 284 261
1530.0 250 238 270 253 232 213 231 234 261 201
1570.0 226 210 250 187 212 200 206 202 199 206
1610.0 186 221 207 221 199 218 203 238 202 239
1650.0 207 290 237 208 253 242 246 268 260 325
1690.0 307 361 400 505 527 652 721 902 1054 1290
1730.0 1657 2170 2973 3869 5649 7338 8769 8013 6218 4282
1770.0 3084 2267 1742 1379 1128 931 777 634 515 435
1810.0 367 330 278 272 242 226 218 205 214 192
1850.0 199 189 186 175 192 173 181 171 167 172
1890.0 168 173 160 170 164 174 161 172 166 164
1930.0 172 166 171 159 178 167 170 165 170 171
1970.0 172 168 168 169 162 160 155 166 166 163
2010.0 169 173 179 183 190 192 203 206 204 205
2050.0 200 203 202 189 189 212 206 206 197 191
2090.0 182 172 161 153 154 150 154 144 147 148
2130.0 141 141 143 146 139 142 143 143 136 139
2170.0 135 135 138 135 142 139 138 140 137 139
2210.0 139 140 138 140 136 140 138 141 143 141
2250.0 147 146 150 145 147 149 149 155 150 156
2290.0 164 168 167 171 176 181 178 175 184 174
2330.0 180 166 176 187 168 185 186 183 168 173
2370.0 159 171 159 159 155 157 156 156 160 160
2410.0 159 155 162 154 157 158 154 152 156 155
2450.0 150 156 149 154 153 156 152 154 157 154
2490.0 154 158 161 156 164 166 167 166 169 170
2530.0 167 172 169 176 176 181 179 181 183 177
2570.0 178 173 176 174 168 166 164 158 155 160
2610.0 155 151 150 158 160 157 162 172 164 154
2650.0 157 163 170 177 197 228 237 240 242 241
2690.0 232 237 232 229 228 226 228 227 237 235
2730.0 254 256 274 282 292 298 295 286 287 290
2770.0 297 299 306 313 321 340 358 366 392 409
2810.0 429 457 483 526 570 621 693 788 905 1090
2850.0 1405 1903 2573 3268 3691 3774 3612 3458 3435 3445
2890.0 3281 3043 2945 3049 3313 3711 4219 4915 5864 7163
2930.0 8506 9566 10000 9697 8796 7720 6824 6507 6747 7204
2970.0 7414 6918 5904 4753 3776 2933 2250 1747 1372 1121
3010.0 933 804 691 615 560 515 483 446 420 388
3050.0 366 352 324 315 298 304 282 291 279 276
3090.0 257 259 248 241 236 236 242 233 237 229
3130.0 227 220 225 222 209 217 207 199 194 200
3170.0 184 182 192 192 199 195 203 195 204 189
3210.0 189 196 180 175 181 167 168 178 167 172
3250.0 168 161 164 171 164 175 163 158 170 173
3290.0 164 164 163 170 157 173 172 172 180 174
3330.0 182 173 165 171 175 182 188 182 185 175
3370.0 160 164 171 176 183 190 176 175 188 175
3410.0 177 182 187 183 181 187 170 193 195 176
3450.0 172 190 211 202 217 201 204 197 224 248
3490.0 223 233 224 187 176 169 184 184 186 181
3530.0 165 176 172 171 144 165 172 173 208 204
3570.0 201 231 233 228 211 203 198 175 191 153
3610.0 147 156 165 136 150 179 187 181 167 169
3650.0 169 158 158 155 180 148 186 149 163 167
3690.0 159 159 161 163 154 135 166 149 140 177
3730.0 135 173 167 144 173 188 190 176 173 151
3770.0 175 197 177 193 143 180 182 202 144 211
3810.0 182 182 202 220 202 185 170 201 183 185
3850.0 203 229 208 175 197 195 169 172 171 206
3890.0 155 198 173 212 130 191 186 205 163 171
3930.0 199 215 190 158 167 181 189 148 174 174
##END=
