##TITLE=Ethanol, 2-(ethylamino)-
##JCAMP-DX=4.24
##DATA TYPE=INFRARED SPECTRUM
##ORIGIN=Sadtler Research Labs Under US-EPA Contract
##OWNER=NIST Standard Reference Data Program
##CAS REGISTRY NO=110-73-6
##MOLFORM=C 4 H 11 N O
##XUNITS=1/CM
##YUNITS=ABSORBANCE
##XFACTOR=1.0
##YFACTOR=0.000053976
##DELTAX=4.0
##FIRSTX=450.0
##LASTX=3966.0
##FIRSTY=0.115725
##MAXX=3966
##MINX=450
##MAXY=0.53976
##MINY=0
##NPOINTS=880
##XYDATA=(X++(Y..Y))
450.0 2144 1171 771 847 1337 890 739 815 597 464
490.0 299 415 374 473 558 477 514 617 592 572
530.0 564 506 557 500 560 720 502 395 179 359
570.0 268 256 349 189 136 205 92 125 80 11
610.0 61 92 63 140 84 137 147 108 153 213
650.0 261 292 289 258 351 362 331 468 536 551
690.0 591 720 740 677 859 925 1138 1151 1128 1319
730.0 1407 985 1327 1345 1103 899 967 727 712 739
770.0 486 483 630 455 418 357 478 511 501 504
810.0 408 398 308 272 274 243 308 373 354 456
850.0 498 677 706 1018 1211 1354 1467 1552 1461 1300
890.0 1201 1181 1174 1176 1131 1040 958 978 885 857
930.0 855 784 674 659 620 654 639 679 668 702
970.0 774 786 914 1042 1093 1221 1346 1436 1636 1907
1010.0 2263 2671 3232 3902 4834 5923 7171 8337 9048 9349
1050.0 9465 9373 9259 9435 9473 9414 9296 8880 7988 6578
1090.0 5212 4041 3224 2679 2300 2261 2190 2280 2345 2454
1130.0 2581 2764 2857 2842 2899 2802 2733 2569 2410 2357
1170.0 2286 2284 2268 2279 2203 2148 2193 2251 2294 2416
1210.0 2465 2490 2527 2317 2168 1982 1902 1734 1675 1605
1250.0 1670 1685 1743 1823 1871 1920 1926 1888 1895 1908
1290.0 1917 1965 1948 1951 1908 1895 1863 1850 1919 2013
1330.0 2145 2270 2427 2580 2755 2904 3052 3111 3109 3089
1370.0 3150 3295 3431 3639 3896 4040 4153 4240 4143 3911
1410.0 3520 2995 2507 2036 1788 1655 1641 1779 1964 2176
1450.0 2494 2693 2857 2881 2856 2736 2535 2164 1877 1487
1490.0 1110 842 628 501 438 358 382 311 288 289
1530.0 255 261 203 207 209 236 194 171 160 194
1570.0 176 163 177 164 195 177 166 193 172 190
1610.0 182 170 180 188 217 203 220 206 210 203
1650.0 152 151 126 172 132 136 145 138 143 123
1690.0 135 143 127 117 151 161 166 124 99 92
1730.0 26 32 7 53 96 95 93 89 89 112
1770.0 130 119 147 145 150 136 141 128 143 129
1810.0 122 141 128 126 120 122 123 109 133 118
1850.0 133 116 108 118 108 115 114 120 116 119
1890.0 119 120 123 127 120 122 135 129 137 128
1930.0 126 132 134 135 134 122 124 111 105 101
1970.0 95 82 85 73 74 71 62 62 60 62
2010.0 59 61 57 57 55 55 47 53 62 66
2050.0 67 66 72 76 79 73 80 78 74 70
2090.0 66 71 71 68 71 74 72 72 67 58
2130.0 58 53 52 48 49 42 38 40 34 31
2170.0 26 28 23 21 19 14 13 16 14 8
2210.0 5 0 2 8 14 0 8 10 3 11
2250.0 6 4 9 7 13 10 7 5 8 7
2290.0 8 6 8 12 9 14 22 20 18 12
2330.0 13 38 31 35 43 32 42 20 49 71
2370.0 54 38 35 25 15 13 12 9 14 13
2410.0 11 17 12 15 14 17 16 14 13 17
2450.0 15 13 17 13 16 12 15 16 8 9
2490.0 11 11 17 12 19 19 13 21 21 22
2530.0 21 19 24 24 28 33 40 42 46 63
2570.0 60 74 76 82 101 100 92 97 114 127
2610.0 125 129 149 162 171 191 196 224 242 271
2650.0 299 328 360 373 398 429 451 486 513 555
2690.0 597 638 684 721 757 795 833 880 908 944
2730.0 974 1004 1045 1079 1114 1165 1226 1304 1389 1505
2770.0 1638 1780 1931 2106 2327 2622 2993 3467 4061 4766
2810.0 5566 6362 7072 7611 7831 7725 7385 6961 6455 5961
2850.0 5569 5289 5155 5233 5522 6007 6612 7190 7624 7785
2890.0 7669 7351 6912 6526 6293 6237 6351 6627 7113 7663
2930.0 8258 8855 9455 9868 10000 9924 9785 9639 9595 9697
2970.0 9845 9959 9558 8518 7020 5226 3634 2449 1662 1189
3010.0 889 685 550 462 391 336 292 266 245 213
3050.0 204 173 157 150 129 110 103 90 74 56
3090.0 62 50 58 26 24 30 11 24 18 19
3130.0 16 18 13 6 3 33 22 23 25 27
3170.0 22 20 29 30 41 30 36 38 30 38
3210.0 27 29 45 36 29 38 40 38 32 30
3250.0 49 30 40 43 60 72 71 71 71 77
3290.0 77 88 101 107 116 130 121 137 131 135
3330.0 148 143 175 174 170 184 187 198 199 212
3370.0 226 222 222 239 233 243 249 260 268 271
3410.0 294 296 301 312 327 348 346 343 337 352
3450.0 366 357 362 387 381 395 381 397 393 400
3490.0 409 422 428 442 452 514 571 639 753 883
3530.0 1041 1181 1339 1411 1488 1493 1490 1555 1542 1511
3570.0 1429 1337 1243 1160 1038 923 810 720 627 558
3610.0 478 416 356 307 248 226 271 270 290 317
3650.0 407 497 679 825 927 1005 988 901 767 623
3690.0 428 247 157 69 31 0 0 0 0 0
3730.0 0 0 0 0 0 0 0 0 0 0
3770.0 0 0 0 0 0 0 0 0 0 0
3810.0 0 0 0 0 0 0 0 0 0 0
3850.0 0 0 0 0 0 0 0 0 0 0
3890.0 0 0 0 0 0 0 0 0 0 0
3930.0 0 0 0 0 0 0 0 0 0 0
##END=
