##TITLE=Pyridine
##JCAMP-DX=4.24
##DATA TYPE=INFRARED SPECTRUM
##ORIGIN=Sadtler Research Labs Under US-EPA Contract
##OWNER=NIST Standard Reference Data Program
##CAS REGISTRY NO=110-86-1
##MOLFORM=C 5 H 5 N
##XUNITS=1/CM
##YUNITS=ABSORBANCE
##XFACTOR=1.0
##YFACTOR=0.000058698
##DELTAX=4.0
##FIRSTX=450.0
##LASTX=3966.0
##FIRSTY=0.006398
##MAXX=3966
##MINX=450
##MAXY=0.58698
##MINY=0
##NPOINTS=880
##XYDATA=(X++(Y..Y))
450.0 109 153 137 149 181 202 224 232 247 294
490.0 300 306 293 301 312 313 283 286 287 290
530.0 268 288 338 355 378 334 298 268 287 307
570.0 366 443 569 729 920 930 868 861 1060 914
610.0 1010 863 570 333 247 158 145 148 226 314
650.0 426 601 905 1293 2123 3036 4286 5809 5711 5440
690.0 4609 4302 10000 6831 6793 6487 5736 6152 5797 4780
730.0 3547 2357 1645 2910 2484 864 899 1090 1120 972
770.0 751 525 297 199 141 140 120 110 96 92
810.0 107 166 95 64 86 78 76 95 79 81
850.0 93 85 68 81 82 83 81 73 74 75
890.0 85 86 89 104 103 93 83 80 70 71
930.0 80 92 93 82 92 104 127 160 226 330
970.0 476 653 813 894 730 804 819 896 1078 1206
1010.0 1298 1518 1687 1639 1554 1696 1451 1579 1651 1379
1050.0 903 591 488 502 507 492 415 476 554 470
1090.0 342 247 195 165 145 147 169 238 361 516
1130.0 648 694 706 651 672 714 767 687 505 308
1170.0 198 156 151 144 182 225 317 473 642 730
1210.0 721 672 770 622 713 729 575 379 218 143
1250.0 101 96 87 97 109 111 116 117 117 131
1290.0 123 129 129 110 98 101 103 117 123 129
1330.0 140 149 184 200 210 236 235 232 244 250
1370.0 257 275 271 244 229 200 184 197 235 359
1410.0 589 1018 1805 2856 3929 4532 4517 4450 3961 4446
1450.0 4543 4276 3175 1900 1119 790 684 591 592 503
1490.0 535 567 521 360 249 152 114 114 146 145
1530.0 196 238 298 353 439 612 960 1502 2256 3201
1570.0 4096 4594 4743 5454 6265 5744 3874 2734 1931 1604
1610.0 1347 1064 811 602 489 426 446 408 378 360
1650.0 320 276 213 213 225 227 240 216 239 243
1690.0 234 231 235 200 165 141 155 187 155 168
1730.0 217 248 205 204 209 222 191 189 169 151
1770.0 152 145 119 133 141 153 170 173 180 166
1810.0 180 187 165 169 177 197 214 254 322 382
1850.0 402 417 421 419 433 439 393 330 271 263
1890.0 272 335 418 501 556 577 569 578 571 584
1930.0 534 440 343 276 256 239 275 322 353 387
1970.0 374 373 363 360 329 301 244 181 141 118
2010.0 101 109 112 120 101 111 116 110 119 108
2050.0 90 92 97 101 102 100 111 102 101 94
2090.0 93 89 82 83 82 93 93 103 112 132
2130.0 122 123 124 124 112 122 115 110 105 105
2170.0 112 115 115 126 126 125 125 125 136 133
2210.0 116 112 108 96 101 98 97 97 108 108
2250.0 118 120 138 140 161 170 191 192 185 182
2290.0 180 166 162 151 126 92 78 65 61 73
2330.0 71 81 89 87 108 83 60 87 131 166
2370.0 203 200 184 156 138 126 120 129 120 129
2410.0 139 140 153 160 148 162 156 158 162 145
2450.0 144 134 124 124 118 125 123 126 123 129
2490.0 136 133 138 138 130 130 130 131 120 130
2530.0 125 130 117 123 123 117 115 124 125 125
2570.0 136 145 156 159 166 166 166 176 181 188
2610.0 188 170 160 160 152 163 173 170 168 171
2650.0 174 143 124 129 134 147 146 156 168 156
2690.0 146 127 137 130 148 141 132 130 125 114
2730.0 116 115 104 109 88 101 103 100 94 109
2770.0 114 119 130 122 131 143 159 140 131 151
2810.0 144 145 141 130 141 110 117 118 117 127
2850.0 73 80 63 43 32 31 30 0 13 9
2890.0 20 21 23 58 30 56 75 74 111 146
2930.0 136 160 136 124 141 133 140 119 92 122
2970.0 147 174 213 368 649 938 1233 1493 1685 1902
3010.0 2332 2744 3099 3427 3791 3869 3742 3895 4114 4326
3050.0 4176 3937 3742 4029 4588 5309 5904 5908 5656 5374
3090.0 5436 5231 4821 3872 2613 1599 914 514 297 211
3130.0 166 175 203 217 221 221 228 231 241 222
3170.0 183 154 137 136 107 111 89 104 89 116
3210.0 93 122 122 112 102 114 127 132 107 111
3250.0 116 124 118 120 103 102 131 111 122 149
3290.0 119 94 105 122 96 108 118 118 117 108
3330.0 116 116 116 100 98 87 93 119 86 108
3370.0 81 111 101 100 73 80 101 89 98 108
3410.0 105 103 97 86 96 102 109 137 118 112
3450.0 90 118 136 92 108 115 96 96 129 87
3490.0 86 116 104 112 100 110 103 126 105 122
3530.0 112 112 110 119 97 115 100 110 116 107
3570.0 114 115 111 104 111 110 111 119 109 108
3610.0 100 100 98 97 82 104 108 102 97 115
3650.0 110 120 120 141 129 144 133 145 132 122
3690.0 119 112 102 92 101 81 89 96 82 94
3730.0 119 133 139 122 149 143 131 120 131 122
3770.0 100 86 87 93 76 89 101 107 112 115
3810.0 115 109 108 109 111 112 134 127 117 123
3850.0 132 131 138 149 152 155 149 161 154 146
3890.0 151 159 161 161 145 141 141 136 138 152
3930.0 146 140 136 129 134 126 131 146 144 139
##END=
