##TITLE=1,4-Butanediamine
##JCAMP-DX=4.24
##DATA TYPE=INFRARED SPECTRUM
##ORIGIN=Sadtler Research Labs Under US-EPA Contract
##OWNER=NIST Standard Reference Data Program
##CAS REGISTRY NO=110-60-1
##MOLFORM=C 4 H 12 N 2
##XUNITS=1/CM
##YUNITS=ABSORBANCE
##XFACTOR=1.0
##YFACTOR=0.000096442
##DELTAX=4.0
##FIRSTX=450.0
##LASTX=3966.0
##FIRSTY=0.020156
##MAXX=3966
##MINX=450
##MAXY=0.96442
##MINY=0
##NPOINTS=880
##XYDATA=(X++(Y..Y))
450.0 209 238 277 200 221 194 152 207 137 369
490.0 290 388 236 363 328 356 362 351 400 331
530.0 348 272 352 256 334 285 293 334 185 260
570.0 219 295 206 346 338 332 213 284 243 282
610.0 260 261 310 281 327 293 363 308 351 321
650.0 377 350 356 392 369 504 504 547 545 658
690.0 703 770 841 935 1071 1180 1416 1623 1978 2257
730.0 2732 3143 3593 4056 4550 5106 5414 6068 6345 6868
770.0 6982 7316 7002 6625 6180 5485 4631 3810 3251 2684
810.0 2296 1925 1697 1447 1316 1165 1056 971 888 835
850.0 756 732 666 645 572 548 496 448 419 391
890.0 389 349 357 339 356 342 368 365 382 403
930.0 428 427 382 397 360 368 354 359 351 380
970.0 338 300 292 301 315 316 345 336 359 360
1010.0 393 410 409 435 454 502 533 609 692 854
1050.0 1018 1243 1473 1697 1907 1972 1955 1774 1569 1270
1090.0 996 805 670 541 429 342 259 210 152 127
1130.0 72 68 46 45 22 26 25 22 17 10
1170.0 19 9 20 13 14 13 19 20 23 32
1210.0 24 35 23 37 34 39 40 57 61 64
1250.0 75 78 89 92 110 113 128 142 165 173
1290.0 196 225 235 254 256 266 247 249 243 243
1330.0 252 272 323 357 419 477 555 616 717 777
1370.0 856 965 1058 1124 1159 1145 1067 945 771 587
1410.0 438 326 313 317 323 356 434 525 557 608
1450.0 641 681 717 688 697 676 662 623 547 490
1490.0 407 327 256 214 218 193 161 169 159 160
1530.0 141 162 146 182 161 178 165 219 242 222
1570.0 252 312 343 402 467 568 668 845 1009 1256
1610.0 1514 1819 2011 2112 2104 1994 1771 1478 1185 936
1650.0 685 628 428 325 267 225 168 178 102 160
1690.0 86 98 97 118 70 64 88 74 83 59
1730.0 85 65 98 48 53 54 75 45 58 63
1770.0 54 61 41 69 43 69 59 65 63 80
1810.0 62 78 90 79 94 87 94 86 90 101
1850.0 86 79 70 65 54 54 40 28 28 16
1890.0 20 7 13 2 5 8 2 10 5 5
1930.0 7 10 13 11 21 14 18 14 17 13
1970.0 17 12 15 11 12 12 15 14 15 22
2010.0 23 24 30 36 36 37 40 40 43 48
2050.0 48 56 56 53 46 45 37 41 40 46
2090.0 49 52 51 48 46 41 40 35 33 31
2130.0 29 39 38 36 39 41 43 44 46 46
2170.0 43 46 50 54 56 59 58 54 56 54
2210.0 52 55 53 50 50 51 51 52 54 52
2250.0 57 58 66 63 68 70 69 74 72 68
2290.0 63 67 54 53 35 29 28 10 7 4
2330.0 2 9 30 23 85 28 2 6 61 133
2370.0 189 198 192 164 136 118 104 104 102 96
2410.0 98 99 99 95 97 96 95 97 98 101
2450.0 100 106 110 114 115 120 121 120 122 133
2490.0 132 130 136 137 142 143 148 146 154 159
2530.0 163 165 168 174 172 178 182 188 189 194
2570.0 193 186 192 195 200 200 207 213 220 225
2610.0 231 239 243 244 248 255 263 275 282 298
2650.0 315 334 337 353 351 359 372 379 399 415
2690.0 431 439 459 467 477 483 502 520 541 563
2730.0 588 623 646 676 695 711 725 728 726 711
2770.0 699 684 676 660 662 675 697 727 789 863
2810.0 966 1099 1277 1501 1782 2153 2593 3098 3668 4262
2850.0 4842 5317 5655 5799 5784 5599 5339 4966 4610 4318
2890.0 4142 4123 4291 4672 5222 5980 6816 7724 8553 9270
2930.0 9778 10000 9888 9267 8492 7481 6392 5294 4311 3446
2970.0 2729 2178 1725 1350 1061 861 714 627 540 496
3010.0 438 402 364 341 321 302 287 273 262 234
3050.0 217 203 192 189 173 178 158 151 146 141
3090.0 128 120 107 105 107 96 86 77 88 77
3130.0 72 74 81 91 83 75 80 88 98 83
3170.0 90 96 81 94 76 76 75 62 60 61
3210.0 56 48 58 58 56 42 59 55 55 47
3250.0 56 66 65 60 67 72 71 79 80 84
3290.0 84 85 86 86 90 89 86 91 107 134
3330.0 173 177 213 252 260 263 244 214 193 162
3370.0 135 135 109 116 101 116 117 117 130 124
3410.0 128 111 124 109 91 64 55 54 58 54
3450.0 43 28 26 62 45 41 54 56 47 51
3490.0 67 68 65 51 53 46 59 50 39 22
3530.0 26 39 22 28 11 28 40 32 24 14
3570.0 42 33 31 9 36 19 33 49 66 52
3610.0 76 65 57 53 78 89 66 61 81 37
3650.0 43 59 52 53 56 50 29 71 50 38
3690.0 41 34 44 51 41 66 97 77 41 52
3730.0 80 78 107 48 104 87 88 66 59 16
3770.0 22 67 21 36 15 56 50 54 2 40
3810.0 34 31 63 38 45 60 49 86 72 72
3850.0 61 110 106 56 27 56 34 57 19 42
3890.0 10 12 0 35 37 43 3 58 63 31
3930.0 58 53 50 18 79 137 110 58 41 105
##END=
