##TITLE=2-Butene-1,4-diol
##JCAMP-DX=4.24
##DATA TYPE=INFRARED SPECTRUM
##ORIGIN=Sadtler Research Labs Under US-EPA Contract
##OWNER=NIST Standard Reference Data Program
##CAS REGISTRY NO=110-64-5
##MOLFORM=C 4 H 8 O 2
##XUNITS=1/CM
##YUNITS=ABSORBANCE
##XFACTOR=1.0
##YFACTOR=0.000087686
##DELTAX=4.0
##FIRSTX=450.0
##LASTX=3966.0
##FIRSTY=0.000000
##MAXX=3966
##MINX=450
##MAXY=0.87686
##MINY=0
##NPOINTS=880
##XYDATA=(X++(Y..Y))
450.0 0 86 207 341 228 135 104 249 181 73
490.0 92 203 193 184 224 347 139 186 236 268
530.0 161 192 235 238 162 243 290 215 252 148
570.0 134 133 182 187 173 148 152 151 171 131
610.0 130 107 142 175 138 184 275 244 247 259
650.0 301 322 306 343 279 449 409 384 423 418
690.0 447 498 522 495 490 524 544 555 551 546
730.0 527 515 524 340 546 382 347 336 287 262
770.0 236 193 179 170 146 146 126 142 139 143
810.0 135 136 117 131 106 132 129 179 155 166
850.0 186 216 258 285 301 344 396 429 463 530
890.0 572 610 664 729 806 888 989 1096 1220 1327
930.0 1460 1587 1712 1815 1933 2037 2145 2235 2320 2420
970.0 2516 2630 2790 2958 3159 3380 3682 4082 4536 5138
1010.0 5921 6861 8062 9222 9925 10000 9675 9114 8183 6743
1050.0 5231 4094 3272 2715 2313 2034 1826 1668 1568 1466
1090.0 1389 1323 1263 1223 1149 1101 1029 953 890 843
1130.0 808 788 770 788 797 835 869 924 981 1038
1170.0 1093 1153 1215 1276 1333 1385 1446 1500 1532 1561
1210.0 1582 1589 1589 1571 1550 1510 1464 1409 1353 1312
1250.0 1262 1225 1185 1153 1116 1069 1040 1006 975 942
1290.0 922 913 900 897 896 903 926 948 997 1065
1330.0 1144 1254 1391 1534 1698 1840 1961 2032 2078 2065
1370.0 2025 1953 1864 1767 1708 1640 1613 1624 1630 1648
1410.0 1613 1565 1509 1372 1207 1011 839 756 614 571
1450.0 499 532 505 569 484 547 503 482 457 404
1490.0 399 332 322 277 275 283 189 235 207 171
1530.0 176 114 191 135 163 122 111 189 140 129
1570.0 129 112 165 105 135 111 154 127 157 159
1610.0 106 175 114 161 125 133 138 154 128 151
1650.0 164 187 187 114 175 149 176 138 184 165
1690.0 173 149 183 218 160 176 167 231 227 215
1730.0 278 237 307 245 258 232 186 165 134 109
1770.0 113 112 81 83 91 83 117 93 107 108
1810.0 109 120 100 117 89 100 65 67 57 60
1850.0 42 47 55 44 48 52 47 50 51 56
1890.0 61 62 60 63 61 73 63 80 67 77
1930.0 78 72 80 73 88 77 87 74 82 79
1970.0 79 80 79 75 81 85 89 85 90 86
2010.0 95 92 95 97 100 104 108 110 111 113
2050.0 119 117 112 107 100 93 84 80 64 62
2090.0 58 49 50 46 39 43 42 40 37 37
2130.0 34 32 36 34 32 30 28 30 27 29
2170.0 30 30 24 26 24 26 25 24 30 28
2210.0 25 23 24 24 26 31 26 30 30 32
2250.0 38 35 37 40 42 45 44 47 56 65
2290.0 76 83 102 99 105 132 103 114 103 87
2330.0 96 93 113 85 173 72 148 95 194 199
2370.0 160 175 136 129 104 78 67 60 58 61
2410.0 60 59 56 59 55 57 55 50 49 56
2450.0 51 56 53 51 53 52 52 50 55 58
2490.0 56 56 56 55 55 55 52 54 50 51
2530.0 50 47 52 50 49 48 48 49 52 50
2570.0 48 47 52 52 56 52 56 54 59 58
2610.0 61 62 60 64 66 73 74 69 76 76
2650.0 81 81 78 83 87 91 90 94 98 103
2690.0 107 113 118 123 129 134 142 146 150 156
2730.0 162 173 177 187 191 201 206 217 226 240
2770.0 251 266 277 290 304 324 337 357 385 412
2810.0 443 488 530 586 657 734 831 938 1067 1209
2850.0 1363 1523 1694 1884 2069 2260 2445 2601 2738 2828
2890.0 2881 2889 2857 2806 2753 2702 2666 2657 2679 2702
2930.0 2715 2738 2707 2656 2558 2422 2283 2131 2000 1884
2970.0 1768 1652 1536 1408 1276 1136 1028 944 905 929
3010.0 1004 1126 1269 1404 1489 1507 1508 1466 1350 1169
3050.0 956 744 573 441 348 284 244 206 189 176
3090.0 155 122 107 85 78 68 59 49 47 42
3130.0 39 43 39 36 40 32 31 32 35 32
3170.0 41 37 29 33 32 30 28 28 33 36
3210.0 34 35 31 24 23 26 30 29 31 26
3250.0 36 35 26 23 26 23 31 47 31 36
3290.0 32 31 32 33 30 41 44 39 41 47
3330.0 40 29 38 26 39 40 46 50 52 53
3370.0 51 45 55 58 66 62 74 72 71 81
3410.0 75 80 84 80 96 113 107 96 107 94
3450.0 105 120 112 107 122 116 134 118 123 111
3490.0 138 128 134 127 140 165 186 214 248 275
3530.0 325 386 422 458 481 491 510 498 503 480
3570.0 489 526 510 545 480 532 485 511 471 487
3610.0 462 476 517 513 613 639 758 855 1008 1172
3650.0 1459 1542 1778 1743 1829 1698 1576 1350 1050 886
3690.0 589 520 337 280 213 147 133 118 48 47
3730.0 31 20 33 12 70 12 92 22 42 23
3770.0 24 28 27 22 23 22 28 21 56 21
3810.0 86 23 84 21 63 29 59 62 42 49
3850.0 61 88 40 95 39 88 67 68 59 75
3890.0 54 76 39 90 56 83 33 37 67 51
3930.0 90 32 66 75 66 55 77 76 41 81
##END=
