##TITLE=Pentane, 1-bromo-
##JCAMP-DX=4.24
##DATA TYPE=INFRARED SPECTRUM
##ORIGIN=Sadtler Research Labs Under US-EPA Contract
##OWNER=NIST Standard Reference Data Program
##CAS REGISTRY NO=110-53-2
##MOLFORM=C 5 H 11 Br
##XUNITS=1/CM
##YUNITS=ABSORBANCE
##XFACTOR=1.0
##YFACTOR=0.000073486
##DELTAX=4.0
##FIRSTX=450.0
##LASTX=3966.0
##FIRSTY=0.009406
##MAXX=3966
##MINX=450
##MAXY=0.73486
##MINY=0
##NPOINTS=880
##XYDATA=(X++(Y..Y))
450.0 128 87 98 75 114 102 106 140 188 202
490.0 164 168 112 59 141 64 4 27 86 63
530.0 10 86 80 232 379 321 356 551 889 938
570.0 883 973 707 398 294 152 122 42 225 28
610.0 80 222 166 177 260 292 543 657 1029 1122
650.0 1245 1094 870 578 287 146 255 165 172 64
690.0 128 129 193 197 181 234 265 423 475 500
730.0 657 686 657 492 511 439 379 330 297 238
770.0 290 286 293 252 286 252 223 275 180 95
810.0 203 165 186 178 179 239 238 252 241 262
850.0 262 211 212 207 218 208 208 222 192 211
890.0 189 247 240 239 277 277 336 418 449 463
930.0 424 423 302 224 226 174 201 166 187 205
970.0 194 208 147 161 162 120 134 117 151 162
1010.0 211 251 247 304 332 353 353 291 259 222
1050.0 206 185 154 203 186 192 196 160 206 175
1090.0 193 193 175 208 197 184 161 119 131 115
1130.0 137 109 116 122 110 148 135 135 164 168
1170.0 202 189 210 249 263 344 401 550 786 1116
1210.0 1286 1368 1253 985 811 711 732 950 1303 1808
1250.0 2266 2460 2535 2419 2119 1872 1615 1411 1165 1020
1290.0 966 985 1004 980 923 788 630 537 453 434
1330.0 435 481 543 567 576 532 501 466 428 443
1370.0 421 464 523 591 608 579 540 421 349 325
1410.0 280 288 333 416 516 645 856 1122 1281 1409
1450.0 1514 1546 1576 1547 1539 1408 1309 1053 849 643
1490.0 509 391 335 270 271 232 181 179 210 168
1530.0 144 154 149 225 137 127 136 170 168 111
1570.0 126 100 126 93 68 87 76 83 89 73
1610.0 90 74 126 89 81 90 82 127 74 110
1650.0 102 191 88 90 65 112 82 103 90 141
1690.0 94 66 131 149 110 75 84 133 78 82
1730.0 66 123 94 92 89 82 76 92 77 75
1770.0 87 104 65 62 70 52 84 63 57 43
1810.0 30 48 40 36 56 34 42 34 39 52
1850.0 25 38 23 37 32 35 36 26 36 30
1890.0 33 35 26 44 41 33 45 39 58 33
1930.0 41 56 37 51 38 55 49 43 45 31
1970.0 45 45 45 50 31 51 54 42 48 33
2010.0 53 46 54 59 46 60 62 71 66 56
2050.0 66 50 60 57 55 60 48 61 49 44
2090.0 62 47 48 42 44 54 42 50 39 56
2130.0 49 54 56 43 47 50 60 59 53 62
2170.0 60 65 73 50 77 56 68 71 55 66
2210.0 56 69 60 63 66 49 72 63 56 63
2250.0 56 63 43 60 57 41 57 49 52 50
2290.0 45 50 38 43 32 19 19 7 5 5
2330.0 5 5 5 5 5 5 5 5 5 5
2370.0 5 10 21 55 60 78 81 70 82 70
2410.0 88 77 81 72 63 74 57 60 67 57
2450.0 75 68 62 55 51 63 51 54 46 48
2490.0 53 39 42 39 48 53 53 67 48 43
2530.0 57 56 57 51 65 54 61 59 52 73
2570.0 73 58 60 59 66 63 65 76 60 93
2610.0 77 85 84 92 100 86 105 100 104 111
2650.0 106 127 112 121 131 119 132 125 131 134
2690.0 130 139 133 134 130 126 131 124 132 130
2730.0 130 144 132 170 176 170 188 163 168 155
2770.0 159 167 164 196 197 210 240 258 283 295
2810.0 318 338 370 414 470 574 695 871 1104 1343
2850.0 1633 1947 2372 2795 3224 3640 3896 4222 4466 4356
2890.0 4244 3941 3619 3404 3428 3589 3874 4420 5050 5859
2930.0 6742 7602 8539 8946 9002 8630 8170 8035 8303 9237
2970.0 10000 9632 8760 6917 4767 3355 2483 1927 1596 1479
3010.0 1450 1401 1300 1161 995 794 647 556 466 397
3050.0 327 313 298 253 235 214 226 201 193 192
3090.0 161 185 167 157 161 142 147 136 133 135
3130.0 124 133 121 133 128 117 127 120 128 121
3170.0 127 127 113 122 110 109 115 96 109 84
3210.0 97 84 79 73 45 66 62 39 58 49
3250.0 59 59 55 55 31 65 51 54 58 42
3290.0 55 40 52 47 29 57 37 61 39 29
3330.0 43 35 47 38 30 49 27 55 49 55
3370.0 42 50 61 35 40 30 31 42 28 50
3410.0 32 39 44 11 40 27 47 47 25 49
3450.0 27 38 38 22 45 24 43 41 16 32
3490.0 18 45 34 34 39 11 26 20 36 34
3530.0 26 46 14 38 45 35 40 36 42 14
3570.0 44 34 21 38 13 48 42 30 44 23
3610.0 46 48 25 61 15 77 36 32 41 47
3650.0 76 35 42 31 22 56 40 46 16 15
3690.0 57 5 10 13 8 28 34 12 6 10
3730.0 18 17 36 29 48 48 14 20 5 6
3770.0 5 5 7 4 11 12 10 27 25 19
3810.0 19 11 32 30 21 8 27 46 20 41
3850.0 33 78 20 11 17 11 25 38 25 39
3890.0 25 36 0 19 24 4 16 16 23 10
3930.0 5 10 5 8 20 16 4 5 5 5
##END=
