##TITLE=1-Propanamine, 2-methyl-N-(2-methylpropyl)-
##JCAMP-DX=4.24
##DATA TYPE=INFRARED SPECTRUM
##ORIGIN=Sadtler Research Labs Under US-EPA Contract
##OWNER=NIST Standard Reference Data Program
##CAS REGISTRY NO=110-96-3
##MOLFORM=C 8 H 19 N
##XUNITS=1/CM
##YUNITS=ABSORBANCE
##XFACTOR=1.0
##YFACTOR=0.000075879
##DELTAX=4.0
##FIRSTX=450.0
##LASTX=3966.0
##FIRSTY=0.010927
##MAXX=3966
##MINX=450
##MAXY=0.75879
##MINY=0
##NPOINTS=880
##XYDATA=(X++(Y..Y))
450.0 144 168 161 112 124 87 118 101 73 80
490.0 98 78 51 71 17 42 20 30 46 110
530.0 41 84 74 47 86 55 117 65 69 22
570.0 68 23 73 124 95 127 70 49 108 129
610.0 56 195 115 116 165 186 200 275 218 273
650.0 329 273 414 367 404 515 490 441 541 492
690.0 469 530 489 538 499 538 517 576 517 561
730.0 527 544 559 480 408 375 301 240 243 155
770.0 172 145 118 142 120 113 162 146 155 193
810.0 167 202 188 196 171 158 107 107 108 89
850.0 103 63 87 91 114 113 136 121 120 133
890.0 140 162 166 156 147 184 182 222 217 210
930.0 211 214 192 191 205 175 212 173 189 192
970.0 148 133 150 122 145 128 128 166 147 170
1010.0 169 161 148 183 131 166 158 142 161 160
1050.0 168 195 216 189 257 244 292 356 426 496
1090.0 619 769 979 1168 1254 1399 1431 1541 1751 1964
1130.0 2051 2028 1718 1326 1087 850 718 569 463 390
1170.0 359 314 318 295 271 262 212 190 158 137
1210.0 137 150 163 204 230 267 279 281 254 250
1250.0 223 194 209 183 209 228 239 242 274 279
1290.0 293 299 258 218 188 177 151 183 191 237
1330.0 280 346 393 423 446 501 564 648 756 834
1370.0 972 1019 1137 1343 1483 1428 1300 889 531 403
1410.0 281 266 289 272 288 336 394 587 716 1008
1450.0 1365 1616 2020 2227 2418 2399 2238 1715 1246 852
1490.0 638 460 372 259 305 224 158 185 175 128
1530.0 108 127 130 199 107 89 114 172 139 68
1570.0 102 74 109 54 61 48 49 55 51 53
1610.0 55 58 105 66 64 64 81 100 55 109
1650.0 89 204 65 70 79 120 116 115 111 143
1690.0 78 77 127 150 76 61 73 122 54 47
1730.0 48 133 58 65 69 69 56 55 52 44
1770.0 67 69 40 40 40 50 62 34 58 31
1810.0 38 43 24 41 50 51 44 41 37 69
1850.0 31 26 44 24 38 52 21 27 33 19
1890.0 36 23 17 22 21 25 25 31 19 26
1930.0 9 20 18 24 19 16 19 19 19 18
1970.0 25 18 18 19 23 20 28 21 21 32
2010.0 19 21 25 23 17 28 12 30 27 22
2050.0 30 23 25 23 30 16 36 15 28 29
2090.0 14 22 27 17 26 26 16 27 21 21
2130.0 34 20 21 33 21 32 34 20 33 22
2170.0 16 19 21 7 27 13 19 20 11 14
2210.0 13 13 13 18 8 17 6 7 13 18
2250.0 13 18 18 19 21 18 23 21 27 29
2290.0 40 32 46 39 46 67 67 76 95 99
2330.0 84 117 66 84 54 93 153 145 93 71
2370.0 52 0 24 22 31 38 35 20 40 27
2410.0 26 40 27 40 37 34 34 34 21 40
2450.0 32 28 39 27 35 39 29 32 51 24
2490.0 42 38 35 39 42 34 41 34 33 44
2530.0 28 39 36 33 39 54 47 60 67 68
2570.0 81 78 89 89 99 97 109 99 112 119
2610.0 115 125 134 134 141 159 154 163 165 169
2650.0 174 183 167 187 184 185 198 193 207 232
2690.0 240 255 293 295 332 350 372 424 446 479
2730.0 520 553 560 599 580 607 631 643 677 729
2770.0 771 853 951 1052 1228 1377 1590 1815 2037 2232
2810.0 2402 2439 2415 2310 2099 1910 1696 1532 1406 1344
2850.0 1297 1339 1405 1596 1938 2501 3299 4030 4522 4676
2890.0 4566 4231 4097 3973 4014 4089 4156 4143 4132 4117
2930.0 4152 4326 4469 4781 5009 5605 6379 7794 9245 10000
2970.0 9125 7431 5248 3467 2353 1590 1023 676 539 413
3010.0 342 296 245 212 204 180 158 175 142 165
3050.0 151 137 144 149 134 152 141 133 147 125
3090.0 138 141 119 125 125 106 124 113 103 128
3130.0 104 107 124 113 99 139 112 132 131 125
3170.0 133 137 127 125 119 105 120 87 87 85
3210.0 70 60 54 40 47 49 23 42 19 23
3250.0 25 28 20 34 16 34 28 13 20 25
3290.0 17 25 38 14 38 31 32 38 44 28
3330.0 41 53 31 61 38 48 40 40 29 46
3370.0 31 43 48 36 56 45 39 38 45 31
3410.0 66 38 36 57 30 41 43 24 36 55
3450.0 15 53 25 25 43 40 26 50 29 30
3490.0 43 16 38 31 37 29 35 15 47 30
3530.0 27 40 20 23 31 23 27 38 18 49
3570.0 35 21 28 31 33 51 38 25 31 29
3610.0 53 43 47 33 40 57 27 39 13 41
3650.0 71 25 37 30 22 77 61 44 29 31
3690.0 48 33 17 13 26 26 36 20 21 28
3730.0 24 33 54 42 64 68 29 19 19 6
3770.0 6 7 3 6 4 4 15 10 19 18
3810.0 8 7 46 12 14 23 16 22 19 10
3850.0 21 46 3 18 8 8 3 3 3 3
3890.0 3 3 3 3 3 3 3 3 3 3
3930.0 3 3 3 3 3 3 3 3 3 3
##END=
