##TITLE=Disulfide, diethyl
##JCAMP-DX=4.24
##DATA TYPE=INFRARED SPECTRUM
##ORIGIN=Sadtler Research Labs Under US-EPA Contract
##OWNER=NIST Standard Reference Data Program
##CAS REGISTRY NO=110-81-6
##MOLFORM=C 4 H 10 S 2
##XUNITS=1/CM
##YUNITS=ABSORBANCE
##XFACTOR=1.0
##YFACTOR=0.000059195
##DELTAX=4.0
##FIRSTX=450.0
##LASTX=3966.0
##FIRSTY=0.050020
##MAXX=3966
##MINX=450
##MAXY=0.59195
##MINY=0
##NPOINTS=880
##XYDATA=(X++(Y..Y))
450.0 845 349 146 225 151 300 293 132 336 197
490.0 303 39 188 140 137 233 279 295 248 321
530.0 221 253 208 243 215 218 294 164 254 200
570.0 304 189 301 278 208 224 172 247 163 230
610.0 204 238 223 269 288 256 271 311 347 324
650.0 339 255 246 209 192 139 180 221 209 204
690.0 221 185 167 201 184 182 202 200 240 238
730.0 256 310 302 382 575 693 886 1014 1055 1024
770.0 901 766 621 530 421 420 358 295 284 232
810.0 234 195 206 171 158 204 185 167 140 135
850.0 140 161 134 152 134 159 143 137 134 130
890.0 147 121 154 110 136 126 133 132 142 162
930.0 159 186 195 254 308 434 590 778 996 1151
970.0 1227 1185 1102 900 686 486 419 378 333 316
1010.0 283 298 303 351 393 452 528 689 826 860
1050.0 865 817 685 451 298 224 189 180 170 163
1090.0 146 150 132 136 136 135 132 137 147 133
1130.0 154 154 167 155 160 163 163 158 152 158
1170.0 148 163 149 163 161 185 176 188 202 226
1210.0 263 303 368 475 688 1050 1640 2517 3664 4736
1250.0 5346 5527 5210 4459 3339 2427 1846 1533 1358 1202
1290.0 1062 880 716 555 460 401 365 329 314 313
1330.0 291 297 288 298 295 329 372 453 578 740
1370.0 984 1180 1393 1471 1490 1352 1106 932 841 832
1410.0 871 993 1103 1239 1329 1399 1514 1685 1902 2172
1450.0 2361 2450 2425 2261 1985 1664 1372 1093 849 661
1490.0 526 438 377 360 323 309 289 278 252 242
1530.0 235 225 220 210 205 197 199 190 196 191
1570.0 182 185 177 180 181 187 186 195 200 199
1610.0 208 212 213 213 206 199 200 196 197 193
1650.0 184 186 185 186 164 170 171 160 162 152
1690.0 158 156 151 135 144 131 131 124 116 118
1730.0 120 119 109 121 110 124 123 123 126 141
1770.0 138 144 153 144 145 139 140 130 121 118
1810.0 116 115 106 115 95 100 96 97 86 95
1850.0 94 92 98 95 97 94 103 105 102 98
1890.0 107 106 101 106 110 113 105 117 117 117
1930.0 120 116 113 105 106 103 106 93 93 97
1970.0 92 103 100 104 109 119 129 132 136 125
2010.0 118 101 94 77 69 61 65 60 76 86
2050.0 87 82 78 72 65 67 85 98 115 116
2090.0 119 124 118 109 103 99 107 95 94 100
2130.0 99 102 102 104 106 111 101 107 122 128
2170.0 136 141 143 133 131 116 123 117 119 129
2210.0 134 145 150 154 145 150 137 127 120 117
2250.0 109 107 107 94 97 83 89 87 93 92
2290.0 102 103 101 109 118 120 113 105 107 99
2330.0 103 93 98 86 87 118 146 119 95 59
2370.0 23 19 30 57 78 80 87 101 110 111
2410.0 124 135 143 146 138 136 124 103 85 76
2450.0 66 67 68 70 79 87 87 92 89 82
2490.0 77 68 54 48 46 30 18 18 17 13
2530.0 14 13 14 16 8 11 12 3 10 15
2570.0 10 13 13 13 2 5 13 8 17 28
2610.0 34 46 50 59 62 74 78 80 70 86
2650.0 104 115 152 176 184 188 191 186 180 181
2690.0 178 179 192 184 173 168 145 152 137 143
2730.0 171 188 196 180 173 168 133 108 103 111
2770.0 114 124 132 150 148 169 174 196 221 257
2810.0 314 407 506 631 726 796 829 823 787 767
2850.0 765 826 938 1146 1482 1972 2659 3320 3740 3912
2890.0 3850 3597 3236 3038 3108 3456 3947 4463 5085 6045
2930.0 7471 8369 8453 8446 7852 6837 5447 5128 5858 7081
2970.0 8308 9352 10000 9589 8511 6995 5451 3989 2777 1966
3010.0 1453 1156 973 867 788 740 669 606 527 488
3050.0 443 404 377 329 307 302 275 250 238 229
3090.0 215 200 183 182 182 192 172 174 183 184
3130.0 181 174 166 175 189 197 207 201 218 194
3170.0 193 198 199 176 191 166 155 154 146 133
3210.0 128 134 119 115 115 87 116 105 97 99
3250.0 85 77 52 49 77 76 79 119 120 120
3290.0 107 94 96 97 107 68 67 85 89 81
3330.0 78 95 79 78 69 75 59 55 35 51
3370.0 55 39 53 47 29 16 56 40 45 33
3410.0 30 56 37 28 33 34 33 32 34 47
3450.0 36 27 72 63 59 28 51 53 40 43
3490.0 53 31 58 48 36 68 66 23 15 15
3530.0 42 40 18 60 73 12 20 74 24 62
3570.0 70 71 92 71 61 81 81 90 69 51
3610.0 62 95 72 64 87 61 59 38 56 64
3650.0 54 90 43 63 57 62 49 69 72 76
3690.0 64 58 54 97 74 45 52 83 66 81
3730.0 83 88 62 62 70 72 76 57 79 52
3770.0 46 31 47 29 12 45 71 50 40 48
3810.0 7 80 10 37 60 33 88 43 15 44
3850.0 45 52 63 83 51 66 29 0 59 77
3890.0 48 83 98 87 47 75 107 88 114 130
3930.0 130 102 123 45 126 111 94 59 79 88
##END=
