##TITLE=Ethene, (2-chloroethoxy)-
##JCAMP-DX=4.24
##DATA TYPE=INFRARED SPECTRUM
##ORIGIN=Sadtler Research Labs Under US-EPA Contract
##OWNER=NIST Standard Reference Data Program
##CAS REGISTRY NO=110-75-8
##MOLFORM=C 4 H 7 Cl O
##XUNITS=1/CM
##YUNITS=ABSORBANCE
##XFACTOR=1.0
##YFACTOR=0.000062476
##DELTAX=4.0
##FIRSTX=450.0
##LASTX=3966.0
##FIRSTY=0.026615
##MAXX=3966
##MINX=450
##MAXY=0.62476
##MINY=0
##NPOINTS=880
##XYDATA=(X++(Y..Y))
450.0 426 467 344 428 444 187 195 440 174 285
490.0 254 470 138 114 65 85 113 454 309 401
530.0 571 229 149 13 143 170 396 291 261 298
570.0 153 264 211 353 230 323 276 295 267 296
610.0 267 202 254 244 204 174 272 210 276 236
650.0 327 322 349 498 554 815 900 1146 1109 1218
690.0 1217 1073 809 722 618 535 478 442 435 409
730.0 471 468 540 607 781 995 1356 1822 2155 2207
770.0 2176 2125 1421 838 743 803 854 960 1117 1341
810.0 1719 1966 2197 2388 2544 2454 2251 2093 2004 1879
850.0 1597 1460 1238 1133 970 911 860 843 846 866
890.0 903 873 924 911 955 943 1011 1064 1114 1203
930.0 1329 1466 1554 1731 1822 1991 2034 2183 2228 2083
970.0 1897 1724 1433 1191 1085 1039 1212 1526 1836 1854
1010.0 1951 2019 1630 1252 1134 1169 1181 1235 1239 1272
1050.0 1226 1239 1284 1347 1501 1770 2179 2603 2938 3026
1090.0 2965 2622 2155 1680 1361 1155 988 909 912 1065
1130.0 1305 1754 2307 2768 2969 3228 3305 3256 3476 3909
1170.0 4433 4942 5605 6363 7085 7568 7969 8748 9697 10000
1210.0 9370 8791 7247 5757 4270 2800 1995 1674 1358 1231
1250.0 1227 1270 1237 1188 1171 1016 899 859 913 974
1290.0 1101 1310 1527 1651 1795 2131 2586 3019 2965 2723
1330.0 2548 2142 1540 970 742 647 649 709 897 1122
1370.0 1257 1299 1307 1218 944 770 608 521 482 517
1410.0 511 506 495 472 507 522 571 534 626 658
1450.0 764 773 759 831 818 779 668 619 548 506
1490.0 433 339 330 317 239 297 358 296 308 291
1530.0 359 311 306 253 332 347 321 238 267 374
1570.0 356 401 440 596 704 914 1229 1600 2171 3037
1610.0 4317 5629 6238 6320 6801 6585 6003 5803 6063 5416
1650.0 5173 4405 3387 2300 1771 1567 1341 1072 818 564
1690.0 525 453 372 307 393 383 359 258 337 370
1730.0 285 189 143 175 199 179 166 218 157 196
1770.0 161 159 165 164 161 148 107 113 128 86
1810.0 104 90 92 90 92 77 100 100 110 100
1850.0 100 128 118 146 152 148 145 150 132 125
1890.0 121 117 142 129 152 155 162 137 138 138
1930.0 120 118 112 121 108 129 113 112 116 116
1970.0 124 116 122 110 120 114 134 125 133 136
2010.0 140 140 144 144 131 129 108 115 90 95
2050.0 93 88 91 85 91 89 96 97 121 101
2090.0 124 107 109 113 103 107 104 100 103 108
2130.0 102 132 121 125 140 134 137 117 115 102
2170.0 103 87 102 85 91 87 84 89 80 89
2210.0 79 76 74 79 62 79 74 62 78 63
2250.0 73 64 61 64 72 60 72 66 70 84
2290.0 81 94 87 91 93 95 86 83 51 43
2330.0 54 24 39 8 49 46 49 56 30 25
2370.0 36 66 43 72 63 59 47 49 57 52
2410.0 35 43 45 29 38 23 29 28 32 25
2450.0 27 30 36 27 26 36 22 32 27 34
2490.0 32 37 33 36 37 45 51 35 59 53
2530.0 53 55 51 47 50 44 44 42 37 55
2570.0 43 43 36 33 38 29 35 23 28 21
2610.0 29 21 22 22 21 20 5 19 12 11
2650.0 7 22 11 26 20 8 20 5 15 26
2690.0 28 34 69 59 85 79 93 96 102 106
2730.0 103 111 112 110 99 105 87 89 83 79
2770.0 81 74 83 85 85 85 111 103 122 130
2810.0 128 149 154 162 174 173 186 223 232 284
2850.0 332 389 480 565 663 731 778 828 856 887
2890.0 932 909 894 887 879 879 875 913 941 974
2930.0 978 1023 1047 1077 1088 1097 1160 1232 1302 1355
2970.0 1385 1468 1497 1359 1250 1143 989 872 773 741
3010.0 710 675 621 629 540 505 452 387 358 294
3050.0 301 309 335 362 360 355 374 335 320 329
3090.0 295 284 264 271 240 249 304 453 584 619
3130.0 562 580 478 234 147 96 75 69 56 46
3170.0 50 34 32 48 23 28 34 26 37 43
3210.0 22 28 39 17 34 25 40 15 26 30
3250.0 20 20 20 38 27 34 23 50 3 52
3290.0 32 42 41 23 42 40 29 2 58 22
3330.0 36 43 37 40 34 29 41 53 11 48
3370.0 43 44 38 45 25 44 41 21 28 24
3410.0 45 50 52 23 66 55 34 43 40 47
3450.0 40 41 43 61 15 62 53 58 44 35
3490.0 54 75 22 43 65 40 45 51 58 72
3530.0 44 60 54 74 55 62 38 77 56 72
3570.0 32 30 76 45 61 56 70 65 52 61
3610.0 49 42 36 42 51 51 36 51 61 54
3650.0 12 62 64 109 62 44 66 25 65 61
3690.0 29 47 52 8 87 75 11 101 88 127
3730.0 89 33 57 31 5 22 3 59 52 91
3770.0 128 114 72 43 40 96 74 98 86 19
3810.0 25 77 65 27 74 44 16 0 26 78
3850.0 90 2 23 47 49 66 28 19 54 69
3890.0 19 31 70 44 73 73 27 45 86 48
3930.0 48 74 47 69 72 50 29 49 104 88
##END=
