##TITLE=Decanoic acid, ethyl ester
##JCAMP-DX=4.24
##DATA TYPE=INFRARED SPECTRUM
##ORIGIN=Sadtler Research Labs Under US-EPA Contract
##OWNER=NIST Standard Reference Data Program
##CAS REGISTRY NO=110-38-3
##MOLFORM=C 12 H 24 O 2
##XUNITS=1/CM
##YUNITS=ABSORBANCE
##XFACTOR=1.0
##YFACTOR=0.000056183
##DELTAX=4.0
##FIRSTX=450.0
##LASTX=3966.0
##FIRSTY=0.015731
##MAXX=3966
##MINX=450
##MAXY=0.56183
##MINY=0
##NPOINTS=880
##XYDATA=(X++(Y..Y))
450.0 280 134 207 186 184 166 151 147 175 152
490.0 94 123 73 126 96 86 104 119 65 92
530.0 108 92 121 94 114 141 128 109 121 102
570.0 0 121 207 179 192 171 157 175 169 156
610.0 155 161 196 177 135 150 165 153 165 181
650.0 147 146 139 119 94 118 132 109 98 73
690.0 166 192 190 201 218 233 270 293 326 289
730.0 271 276 291 273 263 252 261 270 265 272
770.0 269 265 277 265 264 259 260 246 240 226
810.0 229 223 233 247 181 181 208 253 293 285
850.0 294 343 353 371 333 324 291 286 246 250
890.0 243 240 268 270 277 279 304 306 326 331
930.0 336 333 320 326 303 306 283 273 264 245
970.0 243 234 223 229 236 240 252 268 317 321
1010.0 348 434 569 730 905 1095 1288 1467 1526 1517
1050.0 1452 1380 1277 1184 1082 989 906 864 877 915
1090.0 1017 1194 1441 1655 1843 1971 2023 1970 1808 1668
1130.0 1566 1568 1661 1924 2301 2841 3455 3994 4339 4440
1170.0 4389 4278 4182 4096 3986 3824 3627 3404 3184 2987
1210.0 2834 2705 2604 2565 2566 2601 2672 2750 2818 2832
1250.0 2746 2544 2306 2073 1884 1708 1571 1463 1383 1308
1290.0 1264 1265 1288 1330 1355 1337 1285 1228 1151 1078
1330.0 1030 1032 1085 1168 1252 1279 1227 1139 1074 1167
1370.0 1434 1637 1571 1303 1028 832 699 612 537 480
1410.0 432 440 467 518 603 687 770 819 898 956
1450.0 1042 1155 1301 1406 1416 1326 1118 842 629 481
1490.0 386 307 257 222 194 170 162 147 146 140
1530.0 123 119 109 109 103 95 83 67 69 72
1570.0 67 71 76 70 60 43 35 29 31 35
1610.0 54 54 68 69 79 86 76 90 82 83
1650.0 87 95 91 94 105 109 124 125 153 160
1690.0 194 225 257 304 365 440 506 605 739 972
1730.0 1251 1715 2382 3343 4668 6144 7263 7034 5744 4288
1770.0 3023 2141 1516 1127 828 625 476 384 318 258
1810.0 221 175 161 134 133 119 104 98 97 90
1850.0 76 81 72 74 69 70 69 80 73 77
1890.0 77 71 79 69 71 69 71 66 69 69
1930.0 60 67 63 68 66 66 60 58 65 62
1970.0 62 59 63 61 57 55 65 56 62 70
2010.0 80 90 99 105 112 120 117 119 109 95
2050.0 92 87 71 89 97 101 85 69 47 32
2090.0 22 21 39 47 54 52 48 48 43 44
2130.0 45 43 40 42 34 36 47 38 40 38
2170.0 44 44 43 38 37 37 37 42 45 41
2210.0 37 44 40 40 41 48 39 41 39 40
2250.0 38 38 41 40 43 41 39 47 43 45
2290.0 38 41 29 44 30 22 22 17 7 8
2330.0 23 45 54 64 89 52 6 6 37 128
2370.0 166 186 185 150 110 88 68 62 54 63
2410.0 63 63 64 65 68 69 71 72 69 66
2450.0 66 64 69 66 66 66 69 65 70 69
2490.0 67 68 79 80 68 82 80 77 89 80
2530.0 85 94 90 91 93 90 96 97 104 106
2570.0 106 100 105 97 92 97 102 116 122 119
2610.0 131 117 119 115 114 100 106 117 129 119
2650.0 96 80 66 65 64 91 124 135 156 174
2690.0 173 166 176 167 161 155 160 163 170 177
2730.0 188 188 198 200 204 199 195 207 211 207
2770.0 209 217 232 237 245 245 275 287 291 322
2810.0 352 365 412 445 501 552 602 681 781 985
2850.0 1339 1910 2742 3605 4041 3950 3531 3079 2861 2667
2890.0 2437 2218 2218 2419 2783 3266 3877 4707 5853 7394
2930.0 9002 10000 9939 9160 7981 6648 5480 4896 4856 5110
2970.0 5163 4654 3793 3249 3014 2714 2226 1792 1507 1264
3010.0 1034 856 733 622 534 446 404 367 322 287
3050.0 255 239 220 218 202 189 178 176 183 191
3090.0 184 163 146 148 135 150 123 118 137 137
3130.0 146 129 148 125 140 153 132 104 83 110
3170.0 94 122 104 98 74 111 121 146 120 113
3210.0 122 122 117 112 99 88 64 54 66 76
3250.0 69 71 80 47 52 68 48 47 39 53
3290.0 28 48 39 57 31 37 45 37 64 30
3330.0 34 40 57 57 47 54 2 52 30 25
3370.0 16 9 67 42 22 49 35 78 27 33
3410.0 51 31 81 77 11 68 68 96 68 55
3450.0 34 45 45 52 51 61 50 87 98 81
3490.0 110 102 117 90 99 83 72 59 45 52
3530.0 78 63 49 41 63 69 30 78 58 108
3570.0 98 143 109 123 96 90 71 62 89 65
3610.0 110 86 88 93 140 93 96 127 95 110
3650.0 87 92 93 76 92 108 106 103 127 128
3690.0 152 146 129 142 96 158 144 117 108 128
3730.0 170 114 147 111 117 134 139 137 142 141
3770.0 116 178 118 117 126 140 138 125 145 136
3810.0 157 126 164 122 152 154 161 140 145 140
3850.0 165 147 140 144 119 165 159 110 159 185
3890.0 147 169 169 150 189 110 103 158 167 126
3930.0 120 123 184 148 160 151 180 207 140 131
##END=
