##TITLE=5-Hepten-2-one, 6-methyl-
##JCAMP-DX=4.24
##DATA TYPE=INFRARED SPECTRUM
##ORIGIN=Sadtler Research Labs Under US-EPA Contract
##OWNER=NIST Standard Reference Data Program
##CAS REGISTRY NO=110-93-0
##MOLFORM=C 8 H 14 O
##XUNITS=1/CM
##YUNITS=ABSORBANCE
##XFACTOR=1.0
##YFACTOR=0.000086945
##DELTAX=4.0
##FIRSTX=450.0
##LASTX=3966.0
##FIRSTY=0.036343
##MAXX=3966
##MINX=450
##MAXY=0.86945
##MINY=0
##NPOINTS=880
##XYDATA=(X++(Y..Y))
450.0 418 366 410 396 285 232 303 272 276 268
490.0 315 337 395 443 517 601 671 803 877 1018
530.0 977 930 740 614 470 385 301 284 243 187
570.0 225 170 206 179 229 247 347 407 377 357
610.0 245 190 131 117 90 80 61 42 67 49
650.0 54 41 70 46 63 20 35 32 31 46
690.0 51 57 49 73 64 94 139 175 230 296
730.0 338 334 322 258 201 168 154 156 146 159
770.0 171 201 213 244 287 315 362 416 497 535
810.0 570 587 588 561 570 557 570 582 585 585
850.0 569 538 486 442 379 338 304 285 281 288
890.0 319 330 357 377 404 426 457 492 524 554
930.0 586 616 634 647 656 656 650 649 634 628
970.0 621 605 602 574 558 532 516 498 483 464
1010.0 444 435 425 430 440 460 479 506 526 548
1050.0 557 552 538 506 471 436 420 400 407 434
1090.0 476 556 672 831 982 1074 1076 1025 937 922
1130.0 1012 1201 1521 1989 2555 3098 3481 3620 3413 3011
1170.0 2631 2420 2323 2229 2111 1943 1789 1701 1665 1658
1210.0 1650 1647 1633 1630 1640 1638 1616 1567 1492 1396
1250.0 1314 1229 1161 1119 1104 1111 1078 1014 893 762
1290.0 669 609 591 593 646 720 838 968 1139 1298
1330.0 1493 1707 1959 2220 2561 3102 3785 4450 4863 4817
1370.0 4426 3841 3354 2990 2690 2353 2018 1713 1540 1495
1410.0 1556 1642 1779 1876 1980 2018 2113 2132 2179 2163
1450.0 2130 2058 1882 1713 1490 1286 1095 912 794 677
1490.0 626 524 513 463 457 454 433 427 428 435
1530.0 424 416 429 428 412 397 404 383 377 349
1570.0 361 308 341 309 295 293 296 293 279 303
1610.0 284 287 306 302 327 295 367 337 379 352
1650.0 454 365 490 474 563 646 716 820 853 1004
1690.0 1085 1351 1485 2021 2381 3022 3870 5124 6674 7995
1730.0 9932 9820 10000 8369 6944 4893 3639 2476 1846 1315
1770.0 1073 774 656 536 442 381 347 331 266 275
1810.0 221 214 177 176 155 140 143 125 125 117
1850.0 125 101 111 105 109 109 92 101 84 88
1890.0 81 90 72 76 71 73 65 72 77 65
1930.0 76 66 73 69 82 78 78 87 82 91
1970.0 76 84 66 65 59 59 58 48 54 42
2010.0 52 47 58 46 53 50 46 47 49 55
2050.0 48 58 51 59 59 61 61 59 69 65
2090.0 72 66 79 65 70 68 67 66 64 72
2130.0 65 69 68 73 66 68 68 68 68 65
2170.0 69 61 65 59 64 54 59 59 55 59
2210.0 55 60 50 56 49 50 48 50 49 47
2250.0 49 43 52 46 52 46 51 52 50 48
2290.0 44 44 30 32 25 17 17 11 11 13
2330.0 11 11 23 9 20 27 11 11 11 11
2370.0 14 38 33 46 48 58 59 60 61 58
2410.0 61 61 65 56 61 58 59 59 62 63
2450.0 61 65 61 64 59 65 62 63 62 61
2490.0 66 66 73 69 75 73 76 70 71 70
2530.0 67 66 62 69 64 68 66 67 70 71
2570.0 73 73 78 75 76 69 73 71 67 66
2610.0 69 70 65 72 66 67 70 76 73 71
2650.0 78 77 81 79 85 84 88 91 96 92
2690.0 96 103 100 107 109 117 121 140 155 181
2730.0 219 264 307 340 345 317 286 254 243 232
2770.0 224 222 222 232 245 264 288 322 359 403
2810.0 443 481 524 563 612 667 742 840 976 1143
2850.0 1366 1660 2058 2528 2980 3296 3446 3463 3456 3570
2890.0 3816 4105 4341 4556 4759 5041 5451 6025 6627 6993
2930.0 7063 6825 6321 5713 5183 4734 4462 4368 4460 4694
2970.0 4989 5180 5149 5010 4669 4198 3724 3323 2974 2687
3010.0 2462 2237 2002 1770 1551 1403 1289 1207 1133 1076
3050.0 1017 960 904 851 805 746 695 648 595 544
3090.0 501 462 421 391 357 333 306 289 264 242
3130.0 217 206 186 165 159 149 147 130 128 116
3170.0 109 109 98 94 92 88 83 86 82 80
3210.0 77 72 77 69 75 68 70 66 73 68
3250.0 64 66 63 62 57 62 59 59 59 62
3290.0 57 61 55 55 58 59 60 56 54 58
3330.0 60 60 69 65 68 71 59 66 70 76
3370.0 72 67 77 75 76 75 75 83 91 81
3410.0 95 102 108 114 139 165 169 194 189 210
3450.0 205 211 198 175 161 124 99 75 79 52
3490.0 55 50 51 44 35 42 52 47 42 43
3530.0 47 51 49 57 44 39 56 37 69 42
3570.0 55 61 49 68 34 60 54 51 71 49
3610.0 50 51 64 53 48 75 47 73 48 59
3650.0 69 53 97 37 83 30 71 41 57 67
3690.0 31 65 58 62 51 44 62 42 34 62
3730.0 44 51 38 99 0 97 41 53 66 56
3770.0 50 58 62 46 62 47 71 33 87 11
3810.0 89 27 67 60 58 69 57 50 70 72
3850.0 36 64 63 50 71 56 62 53 66 31
3890.0 93 34 81 38 86 38 63 57 55 61
3930.0 57 72 52 68 65 70 52 73 68 68
##END=
