##TITLE=1,4-Butanediol
##JCAMP-DX=4.24
##DATA TYPE=INFRARED SPECTRUM
##ORIGIN=Sadtler Research Labs Under US-EPA Contract
##OWNER=NIST Standard Reference Data Program
##CAS REGISTRY NO=110-63-4
##MOLFORM=C 4 H 10 O 2
##XUNITS=1/CM
##YUNITS=ABSORBANCE
##XFACTOR=1.0
##YFACTOR=0.000085901
##DELTAX=4.0
##FIRSTX=450.0
##LASTX=3966.0
##FIRSTY=0.330289
##MAXX=3966
##MINX=450
##MAXY=0.85901
##MINY=0
##NPOINTS=880
##XYDATA=(X++(Y..Y))
450.0 3845 3048 2119 1596 1504 866 0 901 563 899
490.0 967 809 1098 1248 1486 1273 1456 1378 1311 1199
530.0 1175 950 719 748 591 721 489 256 329 536
570.0 432 496 438 501 398 448 457 431 387 442
610.0 506 491 540 603 776 781 842 829 868 873
650.0 812 727 661 577 479 470 381 411 385 347
690.0 351 329 292 318 320 308 336 355 335 291
730.0 276 326 334 367 399 479 502 540 571 689
770.0 706 642 604 559 513 446 467 373 302 249
810.0 290 352 386 271 268 297 355 354 326 327
850.0 363 442 519 690 984 1329 1786 2231 2636 2964
890.0 2908 2739 2742 2516 2179 1892 1839 1929 2065 2245
930.0 2326 2254 2064 1891 1602 1339 1139 982 1133 1248
970.0 1359 1615 2028 2444 2930 3530 4080 4396 4636 4812
1010.0 4793 4637 4483 4395 4429 4611 4829 5228 5679 6233
1050.0 6716 7260 7732 8069 8460 8681 8822 8685 8759 8602
1090.0 8393 8036 7726 7344 6953 6609 6127 5670 5078 4591
1130.0 4150 3793 3485 3272 3075 2919 2780 2616 2427 2197
1170.0 2017 1833 1717 1621 1577 1562 1601 1709 1809 1983
1210.0 2135 2343 2511 2727 2932 3150 3324 3514 3719 3895
1250.0 4092 4209 4317 4301 4299 4108 3775 3434 3108 2798
1290.0 2512 2341 2218 2206 2251 2361 2469 2592 2661 2704
1330.0 2707 2676 2657 2589 2608 2636 2757 2923 3222 3594
1370.0 4018 4500 4925 5304 5425 5488 5135 4632 4009 3497
1410.0 3003 2541 2175 1875 1707 1615 1656 1722 1872 1959
1450.0 2100 2184 2213 2132 1870 1623 1389 1164 967 761
1490.0 615 498 440 399 370 363 362 348 319 317
1530.0 308 299 295 251 283 270 271 231 220 247
1570.0 237 218 221 218 227 218 231 212 226 223
1610.0 238 221 223 214 230 223 232 210 230 214
1650.0 226 175 222 230 216 219 216 205 220 187
1690.0 207 206 187 166 197 188 189 182 184 183
1730.0 176 179 146 184 177 176 171 182 178 182
1770.0 179 161 161 160 171 162 155 160 171 165
1810.0 158 168 163 166 155 164 152 155 151 149
1850.0 148 154 161 161 158 161 163 164 164 169
1890.0 164 159 159 163 148 150 151 148 143 152
1930.0 138 139 137 145 137 135 139 133 126 137
1970.0 132 135 140 145 151 155 154 154 149 146
2010.0 139 135 132 130 122 120 119 119 114 109
2050.0 109 109 106 103 105 106 109 104 104 107
2090.0 111 101 103 106 103 107 108 109 108 108
2130.0 110 114 105 104 108 103 108 102 101 100
2170.0 101 101 96 104 97 97 96 92 92 89
2210.0 92 92 94 93 92 95 105 106 110 109
2250.0 113 112 115 114 117 123 113 112 113 114
2290.0 112 107 113 116 128 127 128 132 141 139
2330.0 123 121 131 118 111 133 159 166 116 94
2370.0 94 92 89 98 109 129 126 132 134 136
2410.0 138 138 137 134 138 139 142 142 141 145
2450.0 149 146 148 153 146 147 142 139 135 135
2490.0 136 129 134 133 127 130 129 131 130 129
2530.0 126 127 131 135 135 137 139 145 146 156
2570.0 170 171 179 192 195 206 217 228 238 249
2610.0 266 279 288 304 314 318 327 340 333 330
2650.0 325 317 312 309 306 309 308 310 312 311
2690.0 310 319 322 331 339 349 361 367 384 395
2730.0 405 414 424 436 450 454 458 466 483 483
2770.0 494 501 519 524 549 563 581 597 617 648
2810.0 675 717 767 818 896 977 1067 1174 1281 1388
2850.0 1537 1705 1933 2229 2644 3154 3758 4406 5041 5623
2890.0 6165 6632 6814 6658 6358 5997 5607 5256 4976 4764
2930.0 4619 4505 4393 4355 4247 4099 4161 4385 4876 5723
2970.0 6945 8240 9086 9783 10000 9244 7958 6693 5218 3694
3010.0 2407 1495 922 608 440 353 301 272 252 241
3050.0 240 237 239 242 246 251 252 263 255 251
3090.0 252 236 228 226 217 210 204 198 191 192
3130.0 192 189 195 192 186 192 191 200 205 217
3170.0 219 233 226 234 226 236 238 239 226 220
3210.0 205 199 183 167 158 158 144 146 137 140
3250.0 135 129 127 130 117 109 107 104 113 103
3290.0 93 89 101 94 94 114 116 109 118 125
3330.0 118 116 122 126 134 142 130 143 135 114
3370.0 133 121 115 120 112 108 101 122 126 118
3410.0 125 117 122 122 125 124 131 128 127 135
3450.0 123 135 134 135 135 133 133 138 139 124
3490.0 159 147 153 172 182 164 197 204 179 204
3530.0 196 222 220 220 231 230 219 242 284 294
3570.0 313 357 430 500 612 741 927 1150 1392 1700
3610.0 1999 2237 2412 2576 2630 2587 2522 2459 2381 2324
3650.0 2356 2363 2407 2296 2301 2120 1863 1607 1301 981
3690.0 710 533 437 358 307 276 247 224 234 245
3730.0 220 227 190 172 160 181 158 176 172 181
3770.0 172 167 161 141 169 169 175 139 149 166
3810.0 122 145 153 135 167 179 166 167 178 160
3850.0 184 149 188 181 171 174 213 219 235 232
3890.0 202 183 186 163 163 190 188 175 139 177
3930.0 152 168 173 192 129 184 166 135 154 154
##END=
