##TITLE=Hexane
##JCAMP-DX=4.24
##DATA TYPE=INFRARED SPECTRUM
##ORIGIN=Sadtler Research Labs Under US-EPA Contract
##OWNER=NIST Standard Reference Data Program
##CAS REGISTRY NO=110-54-3
##MOLFORM=C 6 H 14
##XUNITS=1/CM
##YUNITS=ABSORBANCE
##XFACTOR=1.0
##YFACTOR=0.000082358
##DELTAX=4.0
##FIRSTX=450.0
##LASTX=3966.0
##FIRSTY=0.001565
##MAXX=3966
##MINX=450
##MAXY=0.82358
##MINY=0
##NPOINTS=880
##XYDATA=(X++(Y..Y))
450.0 19 46 34 39 52 38 16 43 44 36
490.0 46 44 84 28 9 44 85 48 20 32
530.0 63 32 25 30 75 30 48 41 92 59
570.0 71 32 56 15 36 40 80 34 28 40
610.0 56 20 33 38 57 25 40 41 57 26
650.0 41 37 60 34 27 68 66 32 50 60
690.0 85 59 86 99 132 135 172 190 215 200
730.0 198 192 180 138 129 132 135 120 122 127
770.0 127 103 97 90 89 79 58 97 86 68
810.0 72 77 72 61 65 72 83 62 63 67
850.0 61 52 68 93 103 80 102 136 124 130
890.0 137 149 125 120 117 127 99 85 74 82
930.0 57 51 44 56 39 42 40 62 46 46
970.0 52 62 50 56 54 74 54 55 61 81
1010.0 71 76 80 99 87 94 97 116 103 101
1050.0 101 114 100 104 98 98 71 61 55 53
1090.0 36 40 41 47 34 42 47 58 50 60
1130.0 80 86 74 74 71 65 46 46 46 39
1170.0 28 36 39 35 24 30 39 43 34 49
1210.0 62 62 60 65 79 75 65 71 87 83
1250.0 76 83 93 87 73 74 91 93 107 120
1290.0 149 142 153 151 165 146 140 133 152 152
1330.0 166 187 227 234 232 239 253 224 234 257
1370.0 338 414 494 529 554 568 513 391 315 247
1410.0 213 186 186 185 210 254 337 420 545 684
1450.0 855 997 1126 1215 1257 1182 1080 942 811 639
1490.0 498 387 307 230 182 143 127 99 92 87
1530.0 86 76 75 75 70 59 62 60 52 45
1570.0 42 52 50 38 42 49 49 37 43 49
1610.0 49 39 40 42 42 38 36 43 42 35
1650.0 31 41 36 30 30 43 36 29 29 42
1690.0 29 36 23 35 23 24 17 28 20 25
1730.0 19 34 18 16 15 23 15 16 11 23
1770.0 17 19 17 28 17 17 19 20 15 15
1810.0 9 22 7 14 11 17 14 9 8 20
1850.0 9 13 14 19 13 14 13 20 11 7
1890.0 14 17 9 7 9 18 8 8 12 20
1930.0 11 6 10 17 8 6 13 12 6 6
1970.0 12 13 5 6 12 12 12 7 14 16
2010.0 12 11 23 24 23 17 30 30 22 15
2050.0 23 23 19 10 17 17 17 3 15 15
2090.0 14 6 16 6 11 6 16 10 11 9
2130.0 22 15 15 11 17 15 16 10 22 17
2170.0 15 15 26 22 20 15 28 20 20 18
2210.0 25 17 15 15 19 15 14 9 15 14
2250.0 8 14 24 18 7 15 26 22 13 17
2290.0 28 19 14 19 24 24 16 23 23 23
2330.0 12 23 32 28 19 37 46 49 20 30
2370.0 37 35 15 31 34 35 18 25 25 24
2410.0 12 18 24 24 6 18 13 15 5 16
2450.0 12 18 0 12 11 10 5 15 8 13
2490.0 5 16 12 13 13 18 18 18 12 20
2530.0 24 19 12 19 20 19 13 30 26 31
2570.0 32 45 49 49 50 62 66 62 58 74
2610.0 69 70 70 76 75 70 69 82 89 75
2650.0 80 87 94 91 96 104 119 113 119 126
2690.0 130 108 109 103 112 93 102 112 125 125
2730.0 144 163 187 186 194 200 198 169 177 169
2770.0 182 169 186 206 230 238 263 281 319 313
2810.0 352 382 432 465 550 648 797 979 1252 1591
2850.0 2037 2505 3049 3555 4059 4346 4802 5227 5189 4810
2890.0 4719 4538 4205 4074 4420 5076 5920 6733 7765 8780
2930.0 9539 9653 9957 10000 9496 9000 8921 9215 9521 9835
2970.0 9430 9249 8007 6241 4475 3147 2224 1600 1193 936
3010.0 739 615 538 507 457 430 408 399 371 337
3050.0 315 304 266 252 230 240 210 195 187 193
3090.0 174 173 163 178 153 152 141 158 132 124
3130.0 127 141 104 113 110 119 105 111 99 111
3170.0 98 99 87 107 87 91 93 100 86 74
3210.0 70 76 58 52 51 50 36 43 38 43
3250.0 23 25 33 34 24 23 23 29 16 19
3290.0 37 40 27 24 34 29 19 17 30 24
3330.0 17 18 32 35 19 16 36 23 23 18
3370.0 38 30 26 19 31 32 17 19 44 28
3410.0 18 23 37 18 15 13 38 19 22 7
3450.0 30 19 12 8 30 16 19 10 34 23
3490.0 15 4 30 22 20 9 29 18 6 10
3530.0 25 24 5 5 30 10 14 13 23 19
3570.0 22 12 26 23 28 14 25 27 13 26
3610.0 27 24 25 19 33 27 23 25 42 29
3650.0 24 29 34 36 30 34 32 32 20 27
3690.0 34 29 20 34 33 29 14 30 38 28
3730.0 27 33 33 25 13 35 40 33 32 38
3770.0 33 38 34 42 45 43 32 37 42 43
3810.0 36 40 44 38 37 50 44 40 24 34
3850.0 33 39 27 40 43 42 31 41 48 45
3890.0 42 51 45 53 45 54 51 46 40 46
3930.0 44 41 39 34 45 41 41 44 47 47
##END=
