##TITLE=1,2-Ethanediamine, N-ethyl-
##JCAMP-DX=4.24
##DATA TYPE=INFRARED SPECTRUM
##ORIGIN=Sadtler Research Labs Under US-EPA Contract
##OWNER=NIST Standard Reference Data Program
##CAS REGISTRY NO=110-72-5
##MOLFORM=C 4 H 12 N 2
##XUNITS=1/CM
##YUNITS=ABSORBANCE
##XFACTOR=1.0
##YFACTOR=0.000101093
##DELTAX=4.0
##FIRSTX=450.0
##LASTX=3966.0
##FIRSTY=0.003740
##MAXX=3966
##MINX=450
##MAXY=1.01093
##MINY=0
##NPOINTS=880
##XYDATA=(X++(Y..Y))
450.0 37 59 99 30 4 2 49 30 44 80
490.0 107 159 208 285 291 329 348 367 350 322
530.0 294 251 219 158 141 118 88 97 70 99
570.0 86 111 88 120 134 157 188 207 242 253
610.0 311 334 391 436 516 559 646 717 799 925
650.0 1020 1140 1247 1422 1471 1715 1873 1968 2134 2286
690.0 2479 2612 2828 2979 3188 3328 3516 3637 3767 3903
730.0 4007 4116 4174 4336 4436 4642 4855 5155 5359 5478
770.0 5435 5294 5104 4751 4380 4116 3954 3836 3715 3530
810.0 3332 3089 2818 2518 2232 1942 1690 1515 1421 1370
850.0 1331 1295 1248 1209 1143 1065 994 944 885 836
890.0 788 739 679 614 570 514 464 410 376 348
930.0 324 286 246 219 199 182 153 142 138 153
970.0 135 147 169 194 226 263 318 354 403 433
1010.0 476 528 588 661 749 863 980 1095 1215 1354
1050.0 1508 1702 1895 2099 2312 2427 2414 2293 2141 1921
1090.0 1652 1450 1357 1323 1350 1452 1618 1867 2213 2669
1130.0 3179 3644 3976 4193 4211 3906 3372 2809 2288 1792
1170.0 1380 1052 830 665 561 476 417 368 320 279
1210.0 240 213 184 170 168 187 209 248 295 338
1250.0 373 396 421 427 425 412 424 446 474 508
1290.0 551 598 624 642 648 655 671 738 879 1047
1330.0 1209 1387 1585 1719 1773 1767 1768 1727 1691 1702
1370.0 1784 1863 1905 1939 1926 1772 1474 1187 942 738
1410.0 588 514 494 559 680 944 1341 1777 2207 2615
1450.0 3121 3522 3760 3800 3653 3402 2977 2430 1825 1312
1490.0 936 685 497 366 299 223 201 174 169 162
1530.0 152 160 157 161 152 178 167 186 205 211
1570.0 232 263 301 343 400 475 566 688 822 986
1610.0 1146 1305 1425 1477 1471 1386 1254 1063 881 690
1650.0 544 446 341 267 215 169 145 118 93 82
1690.0 58 48 47 28 23 17 17 3 16 10
1730.0 7 14 12 5 0 4 13 16 16 26
1770.0 18 27 21 30 36 43 41 47 51 63
1810.0 67 71 81 78 91 85 97 95 103 98
1850.0 103 106 102 100 94 89 93 94 90 86
1890.0 83 78 80 79 78 73 75 74 68 72
1930.0 71 70 70 67 65 71 69 74 76 76
1970.0 75 77 78 79 80 77 81 82 83 79
2010.0 77 76 73 73 71 69 67 66 63 62
2050.0 60 59 58 53 54 53 53 50 51 48
2090.0 47 44 44 42 40 38 39 40 37 37
2130.0 38 42 41 43 39 35 34 32 30 27
2170.0 25 22 18 16 14 11 9 8 4 3
2210.0 1 0 3 6 5 6 8 8 12 14
2250.0 15 18 21 20 20 20 21 18 15 12
2290.0 9 6 2 7 5 5 10 9 19 21
2330.0 24 27 25 39 21 24 30 31 40 41
2370.0 39 34 30 23 14 17 19 18 19 22
2410.0 21 19 18 19 19 21 19 21 24 28
2450.0 28 29 32 35 34 35 37 42 40 43
2490.0 44 47 49 52 51 48 53 55 61 62
2530.0 64 69 72 79 88 95 104 114 125 135
2570.0 149 163 173 183 197 207 219 227 242 251
2610.0 267 283 302 319 340 366 391 418 447 473
2650.0 504 532 560 589 618 656 695 736 782 820
2690.0 861 896 921 948 976 1009 1049 1100 1158 1230
2730.0 1299 1381 1460 1535 1611 1679 1744 1811 1902 2015
2770.0 2170 2364 2631 2960 3365 3852 4400 5017 5653 6319
2810.0 6924 7461 7833 8088 8148 8102 7946 7619 7305 6945
2850.0 6680 6445 6351 6300 6343 6513 6730 6871 6936 7056
2890.0 7141 7199 7266 7444 7636 7855 8132 8438 8780 9158
2930.0 9554 9790 10000 9971 9841 9489 9228 9145 9142 9256
2970.0 9244 9026 8463 7595 6211 4892 3682 2707 2009 1506
3010.0 1147 903 736 617 541 489 445 411 383 361
3050.0 339 317 295 275 252 230 214 194 179 163
3090.0 151 140 134 123 120 116 113 109 109 101
3130.0 102 98 96 93 93 92 89 86 89 88
3170.0 84 85 83 84 89 86 87 82 80 77
3210.0 76 71 66 58 53 50 40 41 36 33
3250.0 30 24 24 22 22 19 20 14 14 17
3290.0 17 21 23 27 30 42 56 72 104 146
3330.0 192 254 297 341 361 350 324 277 231 186
3370.0 145 116 96 96 96 118 132 144 161 183
3410.0 191 178 165 157 136 108 82 66 54 46
3450.0 40 36 29 25 24 27 24 22 19 22
3490.0 26 25 21 17 17 20 18 21 20 15
3530.0 13 15 17 13 9 11 15 12 10 0
3570.0 9 10 15 7 1 7 1 5 5 9
3610.0 12 3 8 11 17 26 18 16 15 11
3650.0 7 9 11 7 9 1 12 6 12 15
3690.0 10 7 14 12 11 14 11 18 10 12
3730.0 9 15 7 11 16 14 1 0 6 6
3770.0 0 9 5 5 0 3 5 0 0 0
3810.0 2 0 0 0 0 0 1 0 0 0
3850.0 2 20 1 0 1 10 0 1 2 4
3890.0 12 1 9 5 3 8 11 18 19 15
3930.0 14 22 29 28 27 30 30 20 15 18
##END=
