##TITLE=Butane, 1,4-dibromo-
##JCAMP-DX=4.24
##DATA TYPE=INFRARED SPECTRUM
##ORIGIN=Sadtler Research Labs Under US-EPA Contract
##OWNER=NIST Standard Reference Data Program
##CAS REGISTRY NO=110-52-1
##MOLFORM=C 4 H 8 Br 2
##XUNITS=1/CM
##YUNITS=ABSORBANCE
##XFACTOR=1.0
##YFACTOR=0.000094958
##DELTAX=4.0
##FIRSTX=450.0
##LASTX=3966.0
##FIRSTY=0.000000
##MAXX=3966
##MINX=450
##MAXY=0.94958
##MINY=0
##NPOINTS=880
##XYDATA=(X++(Y..Y))
450.0 0 1070 1393 1192 2058 1546 1478 1473 1088 1313
490.0 1178 1227 1212 1177 1170 1256 1253 1303 1241 1322
530.0 1283 1320 1430 1401 1407 1728 1773 2115 2372 2844
570.0 3435 3863 4072 3219 2339 1715 1575 1405 1410 1326
610.0 1330 1338 1274 1264 1483 1461 1576 1769 2024 2354
650.0 2477 2558 2650 2659 2517 2101 1822 1541 1440 1367
690.0 1350 1318 1304 1320 1334 1309 1365 1392 1428 1514
730.0 1588 1766 1933 2299 2700 3004 2973 2882 2817 2737
770.0 2589 2320 1751 1691 1555 1604 1602 1623 1617 1621
810.0 1565 1371 1373 1408 1351 1311 1360 1461 1460 1442
850.0 1419 1397 1404 1405 1433 1458 1442 1415 1375 1351
890.0 1330 1339 1356 1384 1438 1481 1538 1558 1559 1476
930.0 1393 1354 1342 1287 1302 1307 1336 1374 1555 1822
970.0 1888 1851 1725 1560 1491 1506 1502 1555 1593 1636
1010.0 1626 1688 1612 1563 1464 1371 1341 1330 1342 1348
1050.0 1333 1310 1320 1306 1302 1282 1278 1279 1285 1296
1090.0 1318 1339 1370 1419 1470 1544 1612 1662 1658 1609
1130.0 1542 1473 1450 1456 1481 1472 1476 1472 1524 1612
1170.0 1690 1704 1659 1636 1623 1757 1960 2073 1973 1898
1210.0 2023 2298 2840 3609 4332 4725 4696 4464 4063 3459
1250.0 3205 3578 5101 7948 9959 10000 7341 5465 4859 4305
1290.0 3825 3463 3235 2980 2733 2553 2367 2103 1807 1641
1330.0 1544 1504 1510 1551 1595 1615 1587 1547 1584 1603
1370.0 1591 1528 1423 1322 1307 1270 1271 1264 1266 1275
1410.0 1288 1338 1443 1649 1875 2275 2745 3473 4114 4309
1450.0 3808 3179 2724 2411 2128 1873 1674 1500 1365 1283
1490.0 1252 1215 1199 1177 1225 1174 1146 1179 1184 1165
1530.0 1132 1167 1157 1218 1123 1133 1123 1207 1171 1117
1570.0 1132 1144 1126 1098 1095 1099 1091 1109 1086 1104
1610.0 1087 1127 1110 1125 1095 1114 1105 1147 1088 1148
1650.0 1114 1227 1110 1101 1128 1120 1127 1129 1100 1168
1690.0 1095 1114 1148 1173 1112 1105 1113 1145 1119 1109
1730.0 1133 1142 1164 1123 1144 1145 1157 1118 1146 1117
1770.0 1138 1139 1104 1124 1112 1137 1151 1146 1152 1170
1810.0 1172 1181 1172 1182 1185 1170 1161 1126 1114 1114
1850.0 1092 1089 1095 1089 1095 1101 1089 1092 1092 1085
1890.0 1097 1091 1090 1087 1085 1087 1089 1095 1094 1090
1930.0 1092 1093 1092 1092 1099 1097 1097 1103 1107 1105
1970.0 1104 1102 1099 1101 1099 1105 1104 1108 1107 1114
2010.0 1114 1114 1114 1111 1116 1107 1104 1104 1106 1108
2050.0 1105 1104 1104 1106 1108 1118 1121 1126 1124 1127
2090.0 1121 1123 1118 1119 1111 1104 1108 1106 1105 1097
2130.0 1097 1093 1095 1096 1099 1100 1097 1103 1103 1107
2170.0 1106 1107 1107 1114 1114 1113 1116 1120 1126 1127
2210.0 1133 1130 1135 1129 1132 1132 1123 1127 1127 1125
2250.0 1120 1120 1116 1114 1109 1108 1104 1104 1106 1102
2290.0 1104 1096 1100 1102 1101 1101 1102 1096 1103 1093
2330.0 1088 1100 1096 1097 1098 1120 1118 1117 1110 1114
2370.0 1112 1121 1119 1123 1124 1126 1125 1121 1124 1126
2410.0 1123 1117 1120 1115 1109 1112 1112 1117 1119 1118
2450.0 1123 1118 1121 1119 1119 1119 1123 1117 1114 1109
2490.0 1107 1111 1115 1113 1114 1107 1104 1103 1102 1099
2530.0 1103 1103 1102 1099 1101 1098 1094 1091 1094 1097
2570.0 1095 1095 1095 1090 1090 1090 1085 1087 1089 1095
2610.0 1091 1097 1101 1099 1105 1107 1110 1114 1123 1127
2650.0 1137 1142 1152 1160 1178 1187 1194 1198 1195 1183
2690.0 1170 1163 1159 1159 1160 1165 1171 1170 1165 1164
2730.0 1162 1154 1153 1154 1157 1151 1149 1142 1133 1134
2770.0 1134 1144 1143 1152 1166 1182 1196 1207 1215 1213
2810.0 1211 1221 1237 1259 1295 1343 1429 1578 1771 1991
2850.0 2206 2383 2482 2505 2484 2471 2455 2415 2347 2316
2890.0 2336 2430 2582 2740 2863 2916 2949 2952 2942 2950
2930.0 2981 3079 3298 3704 4217 4587 4787 4849 5055 5484
2970.0 5807 5856 5596 4842 4003 3261 2735 2462 2432 2582
3010.0 2858 3101 3046 2749 2277 1892 1653 1465 1354 1275
3050.0 1230 1205 1187 1176 1170 1161 1154 1155 1156 1147
3090.0 1145 1140 1131 1128 1125 1120 1122 1117 1116 1115
3130.0 1116 1118 1117 1117 1113 1120 1116 1119 1120 1122
3170.0 1127 1132 1133 1123 1121 1124 1113 1119 1116 1112
3210.0 1114 1109 1105 1113 1101 1111 1098 1094 1095 1103
3250.0 1110 1103 1106 1100 1104 1102 1100 1101 1109 1104
3290.0 1106 1102 1089 1100 1093 1106 1103 1103 1102 1108
3330.0 1107 1100 1111 1101 1102 1098 1097 1097 1091 1090
3370.0 1102 1098 1096 1113 1105 1098 1107 1096 1105 1108
3410.0 1088 1095 1114 1097 1110 1105 1107 1100 1102 1089
3450.0 1113 1110 1105 1104 1106 1122 1111 1103 1110 1105
3490.0 1114 1119 1106 1102 1095 1116 1109 1104 1103 1092
3530.0 1099 1112 1102 1098 1085 1097 1108 1095 1110 1086
3570.0 1092 1133 1127 1104 1103 1123 1119 1101 1095 1109
3610.0 1098 1092 1107 1108 1130 1129 1127 1123 1096 1108
3650.0 1121 1128 1120 1120 1134 1113 1146 1141 1140 1129
3690.0 1151 1108 1142 1142 1114 1137 1126 1118 1116 1116
3730.0 1136 1125 1126 1127 1162 1137 1142 1169 1114 1128
3770.0 1135 1116 1138 1106 1123 1133 1156 1134 1159 1148
3810.0 1167 1154 1144 1185 1159 1149 1147 1171 1138 1150
3850.0 1180 1179 1155 1114 1173 1178 1112 1189 1146 1148
3890.0 1194 1157 1180 1167 1125 1174 1209 1195 1143 1151
3930.0 1163 1169 1182 1158 1155 1135 1130 1183 1129 1152
##END=
