##TITLE=2,5-Hexanedione
##JCAMP-DX=4.24
##DATA TYPE=INFRARED SPECTRUM
##ORIGIN=Sadtler Research Labs Under US-EPA Contract
##OWNER=NIST Standard Reference Data Program
##CAS REGISTRY NO=110-13-4
##MOLFORM=C 6 H 10 O 2
##XUNITS=1/CM
##YUNITS=ABSORBANCE
##XFACTOR=1.0
##YFACTOR=0.000094336
##DELTAX=4.0
##FIRSTX=450.0
##LASTX=3966.0
##FIRSTY=0.019339
##MAXX=3966
##MINX=450
##MAXY=0.94336
##MINY=0
##NPOINTS=880
##XYDATA=(X++(Y..Y))
450.0 205 201 50 119 82 106 86 148 16 47
490.0 33 91 133 67 125 148 215 183 222 195
530.0 187 132 116 136 104 165 136 150 166 216
570.0 195 191 168 95 148 83 98 64 92 92
610.0 100 142 170 167 177 141 68 66 0 58
650.0 114 59 80 82 83 95 118 84 106 108
690.0 102 120 126 131 131 150 187 162 98 214
730.0 283 320 353 333 311 258 224 181 146 144
770.0 139 150 121 131 122 148 125 112 111 110
810.0 119 128 130 133 141 129 118 117 111 111
850.0 105 111 122 122 103 135 122 131 128 146
890.0 150 147 151 161 161 165 179 187 206 225
930.0 257 275 309 357 412 483 558 634 702 735
970.0 724 678 627 537 449 397 387 357 353 327
1010.0 323 299 304 306 348 400 439 466 463 440
1050.0 394 346 327 312 317 332 329 322 322 310
1090.0 293 284 283 282 282 297 317 356 409 496
1130.0 625 840 1239 1962 3075 4112 4582 4626 4373 3562
1170.0 2434 1721 1474 1383 1431 1539 1578 1557 1495 1390
1210.0 1229 1078 999 977 963 935 882 823 768 713
1250.0 688 685 717 755 818 878 923 948 950 921
1290.0 885 866 850 838 847 850 853 870 898 959
1330.0 1047 1174 1349 1586 1954 2481 3165 3857 4377 4539
1370.0 4314 3785 3011 2257 1757 1494 1402 1426 1531 1658
1410.0 1790 1865 1891 1801 1681 1527 1364 1194 1037 903
1450.0 795 702 625 553 480 440 402 368 332 324
1490.0 298 295 290 287 295 300 288 286 300 289
1530.0 290 280 294 290 288 273 273 270 274 246
1570.0 247 228 242 217 213 197 200 190 186 186
1610.0 185 195 196 203 206 217 222 232 227 248
1650.0 247 294 299 316 369 409 463 531 613 729
1690.0 834 986 1177 1464 1872 2560 3544 4989 6677 8352
1730.0 9483 10000 9788 8566 6659 4838 3303 2231 1503 1123
1770.0 896 757 646 565 476 401 349 302 276 246
1810.0 221 209 184 171 163 147 141 134 130 122
1850.0 119 107 108 98 102 95 93 97 92 89
1890.0 92 91 92 88 89 89 84 87 80 83
1930.0 80 78 81 79 85 76 81 74 76 74
1970.0 80 76 74 71 67 70 63 63 59 54
2010.0 53 53 52 50 56 57 62 67 74 81
2050.0 88 94 96 99 96 108 109 109 114 114
2090.0 110 108 105 105 104 99 98 92 89 88
2130.0 86 87 84 82 82 81 77 76 69 67
2170.0 72 67 65 65 64 63 68 67 65 63
2210.0 61 66 66 66 64 64 66 61 59 64
2250.0 68 62 61 56 63 61 60 61 67 75
2290.0 81 86 93 98 102 118 119 124 127 116
2330.0 104 102 99 97 89 100 146 121 94 52
2370.0 33 35 28 42 55 57 59 61 60 58
2410.0 52 60 62 51 57 53 50 48 46 45
2450.0 51 44 37 41 44 49 48 53 59 54
2490.0 53 55 60 59 64 64 63 63 59 59
2530.0 54 51 49 50 48 48 44 41 43 42
2570.0 42 39 40 33 36 33 23 24 19 19
2610.0 10 9 11 19 15 23 42 37 35 28
2650.0 34 38 47 42 54 67 77 66 74 80
2690.0 76 70 64 54 46 51 45 46 47 49
2730.0 53 53 55 53 53 58 64 69 69 70
2770.0 76 68 76 77 73 83 88 104 101 115
2810.0 129 129 134 133 139 134 144 151 163 176
2850.0 188 201 206 218 227 232 255 264 294 321
2890.0 379 456 594 803 1059 1320 1530 1702 1728 1666
2930.0 1505 1373 1234 1111 986 887 826 774 773 772
2970.0 775 765 732 675 610 569 547 527 556 625
3010.0 669 679 641 594 511 401 341 289 255 264
3050.0 239 236 223 220 226 225 221 206 200 179
3090.0 168 162 150 147 123 105 104 100 80 77
3130.0 64 67 57 50 48 49 61 46 33 27
3170.0 29 44 38 38 29 29 34 38 35 27
3210.0 35 37 26 35 34 48 34 52 23 38
3250.0 34 29 53 62 37 28 27 37 28 28
3290.0 21 24 50 47 42 38 26 34 32 24
3330.0 27 44 33 14 30 49 32 22 32 36
3370.0 50 37 43 54 53 53 61 59 38 60
3410.0 56 63 66 79 98 103 146 159 183 213
3450.0 218 203 209 179 148 121 88 76 57 46
3490.0 39 58 26 23 34 12 37 19 20 8
3530.0 48 19 48 27 25 39 39 50 23 40
3570.0 22 14 11 16 49 34 52 40 43 23
3610.0 25 20 20 19 32 43 32 37 32 46
3650.0 32 29 22 25 41 28 33 40 22 44
3690.0 23 19 8 38 7 19 24 39 5 35
3730.0 21 16 14 17 50 79 31 33 22 22
3770.0 46 46 24 26 7 34 51 40 46 16
3810.0 42 31 7 9 54 50 52 6 51 54
3850.0 48 30 7 7 19 18 27 54 5 38
3890.0 11 15 13 16 65 37 8 12 35 54
3930.0 49 71 40 38 52 37 53 25 63 51
##END=
