##TITLE=Propanenitrile, 3-methoxy-
##JCAMP-DX=4.24
##DATA TYPE=INFRARED SPECTRUM
##ORIGIN=Sadtler Research Labs Under US-EPA Contract
##OWNER=NIST Standard Reference Data Program
##CAS REGISTRY NO=110-67-8
##MOLFORM=C 4 H 7 N O
##XUNITS=1/CM
##YUNITS=ABSORBANCE
##XFACTOR=1.0
##YFACTOR=0.000079541
##DELTAX=4.0
##FIRSTX=450.0
##LASTX=3966.0
##FIRSTY=0.000000
##MAXX=3966
##MINX=450
##MAXY=0.79541
##MINY=0
##NPOINTS=880
##XYDATA=(X++(Y..Y))
450.0 0 35 40 73 58 107 100 127 160 127
490.0 131 134 117 84 148 125 112 156 130 145
530.0 147 186 133 182 189 155 175 174 193 207
570.0 263 210 240 249 238 237 193 138 114 205
610.0 149 95 156 162 154 136 156 94 197 168
650.0 164 203 201 162 128 268 151 168 179 153
690.0 191 216 212 176 238 203 204 228 226 198
730.0 214 205 150 195 160 178 219 186 167 185
770.0 206 190 215 200 210 189 233 235 272 338
810.0 299 349 382 405 412 471 429 380 403 328
850.0 309 298 273 237 244 238 220 265 234 252
890.0 298 337 350 371 467 488 588 657 695 716
930.0 753 753 738 742 694 706 730 744 709 766
970.0 748 771 790 801 860 897 956 994 1036 1027
1010.0 977 903 821 681 606 574 497 516 523 580
1050.0 653 729 806 866 940 950 962 974 1000 1045
1090.0 1176 1426 1774 2351 3148 4141 5658 7129 8356 9655
1130.0 9907 10000 9313 8100 6268 4408 3336 2659 2304 2144
1170.0 1989 1995 2149 2337 2543 2734 2928 3085 3010 2564
1210.0 2300 1926 1518 1265 1199 1128 1072 1041 961 868
1250.0 773 722 657 623 596 558 542 518 479 425
1290.0 406 374 345 355 349 377 409 423 436 461
1330.0 451 433 458 455 421 414 430 435 522 631
1370.0 817 1109 1374 1576 1644 1683 1638 1531 1218 909
1410.0 745 735 765 786 824 850 863 899 874 891
1450.0 944 1040 1119 1145 1123 1068 1059 951 820 705
1490.0 641 522 484 407 378 321 287 276 252 245
1530.0 208 207 219 230 190 190 199 201 205 175
1570.0 177 174 189 159 164 164 145 158 149 143
1610.0 139 141 159 133 147 132 145 156 142 155
1650.0 159 198 139 143 130 146 131 132 126 148
1690.0 120 111 144 149 126 119 131 131 124 122
1730.0 117 143 119 124 109 128 108 110 115 102
1770.0 112 113 98 83 100 93 94 87 87 81
1810.0 80 86 73 83 90 81 77 85 85 84
1850.0 89 70 76 82 77 82 81 80 67 83
1890.0 77 78 81 73 74 85 86 79 91 95
1930.0 92 103 109 108 107 123 108 119 120 112
1970.0 106 106 98 94 106 95 99 105 105 104
2010.0 113 116 109 122 120 115 128 134 134 137
2050.0 148 141 149 146 144 137 143 137 131 136
2090.0 130 142 144 150 146 161 168 158 165 146
2130.0 140 132 132 118 113 105 86 87 83 85
2170.0 79 92 80 85 92 78 78 78 77 66
2210.0 73 70 67 77 68 75 87 106 126 165
2250.0 202 222 238 237 232 198 152 97 79 68
2290.0 53 59 58 63 58 86 80 87 109 100
2330.0 102 111 128 80 105 98 105 143 148 114
2370.0 104 108 70 68 63 51 57 57 58 51
2410.0 63 55 57 59 53 48 51 58 42 53
2450.0 49 41 41 40 40 35 40 26 37 32
2490.0 32 33 31 33 25 38 23 31 36 39
2530.0 33 40 45 38 50 47 51 52 52 47
2570.0 54 59 47 61 60 67 67 79 81 78
2610.0 89 76 89 83 82 70 84 86 79 98
2650.0 90 90 91 92 80 91 86 75 87 86
2690.0 93 91 110 103 117 133 137 161 176 196
2730.0 216 249 267 296 318 318 325 322 310 282
2770.0 293 279 270 295 315 341 396 472 558 720
2810.0 952 1226 1524 1738 1922 2201 2357 2296 2270 2345
2850.0 2348 2275 2254 2332 2478 2765 2988 3216 3485 3664
2890.0 3751 3868 3855 3705 3610 3505 3389 3274 3228 3235
2930.0 3319 3412 3390 3339 3210 3021 2777 2524 2263 2050
2970.0 1928 1811 1738 1680 1673 1768 1965 2086 1990 1894
3010.0 1767 1562 1185 855 634 513 435 355 323 287
3050.0 264 240 240 219 210 219 195 203 200 202
3090.0 176 195 177 160 167 148 136 124 124 102
3130.0 116 108 82 95 86 79 69 83 71 78
3170.0 83 70 74 73 76 74 81 68 64 70
3210.0 67 56 61 68 43 60 57 54 58 60
3250.0 61 50 70 49 64 66 48 60 61 52
3290.0 34 63 42 47 51 51 32 43 52 26
3330.0 52 38 41 47 42 37 40 58 29 45
3370.0 49 42 37 42 41 26 48 29 37 45
3410.0 41 33 41 56 31 52 41 35 40 42
3450.0 26 34 44 25 40 34 31 31 43 32
3490.0 32 44 25 40 32 34 23 33 40 39
3530.0 53 42 41 36 55 35 46 45 27 53
3570.0 46 37 40 57 38 63 64 46 59 59
3610.0 64 47 62 51 53 87 54 56 59 74
3650.0 75 82 74 63 76 86 85 82 84 75
3690.0 102 98 85 103 98 110 103 112 100 109
3730.0 111 111 119 125 148 127 138 120 119 119
3770.0 128 114 116 130 114 129 142 142 147 153
3810.0 150 142 162 142 145 151 144 144 144 153
3850.0 137 164 148 146 158 166 153 149 158 139
3890.0 145 146 145 155 163 156 150 162 151 171
3930.0 171 168 159 166 166 173 9 21 21 21
##END=
