##TITLE=Morpholine
##JCAMP-DX=4.24
##DATA TYPE=INFRARED SPECTRUM
##ORIGIN=Sadtler Research Labs Under US-EPA Contract
##OWNER=NIST Standard Reference Data Program
##CAS REGISTRY NO=110-91-8
##MOLFORM=C 4 H 9 N O
##XUNITS=1/CM
##YUNITS=ABSORBANCE
##XFACTOR=1.0
##YFACTOR=0.000116318
##DELTAX=4.0
##FIRSTX=450.0
##LASTX=3966.0
##FIRSTY=0.022915
##MAXX=3966
##MINX=450
##MAXY=1.16318
##MINY=0
##NPOINTS=880
##XYDATA=(X++(Y..Y))
450.0 197 192 160 92 35 109 55 63 67 12
490.0 60 69 49 66 83 64 72 108 99 92
530.0 137 140 151 131 176 267 413 518 899 1213
570.0 1644 1499 1916 2522 2054 1743 1899 1521 1125 698
610.0 472 330 212 177 132 82 81 96 140 164
650.0 126 117 116 123 95 276 275 250 335 355
690.0 405 471 520 576 628 745 868 1039 1198 1386
730.0 1724 2185 2778 3578 4241 4740 4880 5378 5677 6436
770.0 4761 3551 3210 2397 1771 1236 784 532 363 327
810.0 327 398 484 544 595 642 906 827 715 749
850.0 756 665 616 596 677 761 905 1153 1499 2021
890.0 2446 2677 2854 2789 1985 1322 1089 903 631 380
930.0 206 108 56 51 31 30 25 31 29 34
970.0 20 32 31 31 52 80 95 127 180 257
1010.0 368 506 635 732 820 897 860 967 1156 942
1050.0 837 791 949 1105 762 711 946 1217 1625 2311
1090.0 3321 4395 5287 5823 6717 7161 7036 7043 6516 5589
1130.0 5164 5063 4504 3837 3242 2795 2429 2067 1429 874
1170.0 508 356 331 349 394 438 491 491 517 551
1210.0 624 657 663 654 693 777 860 926 889 867
1250.0 811 838 767 736 579 547 871 561 331 503
1290.0 570 679 791 1195 1517 1688 1846 1889 1901 1979
1330.0 2005 2028 1772 1339 1070 941 895 848 828 715
1370.0 527 410 348 324 328 288 279 242 228 207
1410.0 212 199 256 353 474 612 737 952 1141 1282
1450.0 1298 1410 1598 1423 1020 820 661 516 374 267
1490.0 166 118 87 52 47 56 20 30 36 26
1530.0 19 13 40 17 29 22 44 26 68 23
1570.0 39 31 72 34 49 53 46 47 50 57
1610.0 30 58 49 53 40 52 52 57 47 82
1650.0 39 117 87 63 84 95 68 98 49 89
1690.0 39 50 53 74 51 50 68 56 68 55
1730.0 59 50 68 31 25 31 41 31 32 42
1770.0 30 41 18 31 15 39 19 23 22 31
1810.0 15 22 21 10 25 13 26 16 33 26
1850.0 36 35 43 46 55 56 64 72 77 87
1890.0 89 96 100 104 107 109 115 121 131 145
1930.0 148 149 160 156 153 148 140 117 111 103
1970.0 98 94 93 94 91 102 113 127 128 132
2010.0 130 124 116 99 88 68 56 52 45 37
2050.0 25 20 18 18 1 6 7 10 15 22
2090.0 35 39 47 46 46 43 47 48 57 61
2130.0 57 59 57 58 57 56 53 50 51 51
2170.0 54 55 57 61 65 67 67 67 71 65
2210.0 60 60 61 61 61 66 67 70 71 76
2250.0 82 78 76 77 82 85 82 80 79 78
2290.0 77 77 71 67 62 53 49 58 52 46
2330.0 51 51 48 41 45 37 45 48 35 34
2370.0 28 32 29 30 36 34 34 32 36 39
2410.0 35 30 34 27 23 21 18 18 24 24
2450.0 27 29 28 37 37 35 36 34 36 34
2490.0 31 23 27 20 16 9 11 17 4 2
2530.0 4 6 0 15 18 8 20 17 16 23
2570.0 35 28 29 39 39 45 44 52 51 66
2610.0 73 84 98 116 131 137 246 204 161 215
2650.0 238 266 294 329 402 422 438 430 439 493
2690.0 540 533 512 503 534 543 562 603 646 729
2730.0 812 948 1013 980 1161 1122 1190 1045 847 874
2770.0 787 777 784 850 991 1181 1504 1769 2152 2578
2810.0 3221 3817 4479 5079 5632 7090 6750 6680 7628 7007
2850.0 6495 6378 5527 6233 7066 4816 3964 3960 3616 3265
2890.0 3014 2758 3111 3819 3707 3256 3646 4059 4670 5165
2930.0 5363 5349 6532 6944 7511 8860 10000 8988 9635 9052
2970.0 7848 7337 5722 4429 3731 2497 1438 706 341 168
3010.0 91 56 35 32 22 33 23 29 24 26
3050.0 20 27 32 13 35 34 39 51 48 42
3090.0 44 69 57 63 64 61 71 68 65 61
3130.0 60 64 52 48 54 46 62 48 45 53
3170.0 50 49 45 48 39 55 55 47 46 54
3210.0 67 69 69 59 68 73 63 60 56 54
3250.0 50 59 46 53 34 49 33 31 26 30
3290.0 30 12 12 0 7 1 19 19 11 36
3330.0 38 29 31 10 14 31 22 20 19 26
3370.0 27 22 27 33 52 12 11 29 26 17
3410.0 13 8 19 10 16 15 23 33 11 1
3450.0 22 25 19 12 13 13 15 16 21 17
3490.0 15 32 36 35 24 21 26 25 35 31
3530.0 35 26 35 53 47 46 67 47 44 38
3570.0 45 42 51 40 49 69 63 39 66 40
3610.0 82 52 68 57 45 79 40 52 51 65
3650.0 51 45 54 54 71 60 70 56 85 70
3690.0 78 54 63 66 41 67 89 88 67 66
3730.0 62 83 86 58 84 61 44 64 52 62
3770.0 63 63 48 85 60 72 69 67 78 66
3810.0 60 57 37 51 87 46 43 66 67 44
3850.0 63 85 67 71 44 47 41 79 51 66
3890.0 27 54 19 72 56 52 27 74 77 46
3930.0 74 60 93 83 70 54 129 107 84 81
##END=
