##TITLE=Piperidine
##JCAMP-DX=4.24
##DATA TYPE=INFRARED SPECTRUM
##ORIGIN=Sadtler Research Labs Under US-EPA Contract
##OWNER=NIST Standard Reference Data Program
##CAS REGISTRY NO=110-89-4
##MOLFORM=C 5 H 11 N
##XUNITS=1/CM
##YUNITS=ABSORBANCE
##XFACTOR=1.0
##YFACTOR=0.000152618
##DELTAX=4.0
##FIRSTX=450.0
##LASTX=3966.0
##FIRSTY=0.000000
##MAXX=3966
##MINX=450
##MAXY=1.52618
##MINY=0
##NPOINTS=880
##XYDATA=(X++(Y..Y))
450.0 0 109 116 133 115 131 128 124 123 121
490.0 133 124 142 152 154 144 188 240 302 411
530.0 476 520 536 950 851 526 557 514 452 328
570.0 241 181 143 139 112 125 163 116 126 119
610.0 118 121 122 134 135 133 148 155 163 183
650.0 206 214 228 247 265 313 336 359 383 443
690.0 516 576 675 821 1060 1293 1595 1783 1951 2045
730.0 2168 2177 2586 1901 1335 1209 1012 767 560 377
770.0 295 236 218 193 201 201 202 205 201 205
810.0 199 207 187 205 209 250 297 350 414 434
850.0 512 488 671 660 472 390 375 343 334 287
890.0 273 250 236 213 210 196 185 175 173 185
930.0 180 183 180 187 186 185 182 166 166 160
970.0 159 146 151 155 163 174 183 190 211 235
1010.0 233 257 287 293 298 336 456 426 445 468
1050.0 410 413 369 325 307 258 221 205 225 258
1090.0 316 396 495 601 676 720 753 762 716 644
1130.0 594 525 426 378 366 389 448 461 469 482
1170.0 402 395 414 400 352 315 309 282 265 253
1210.0 223 182 152 139 132 141 159 195 239 269
1250.0 274 286 311 327 313 298 278 257 241 234
1290.0 223 208 242 317 433 551 610 682 766 745
1330.0 739 758 657 519 437 365 307 259 226 224
1370.0 215 219 221 211 206 203 194 194 188 183
1410.0 188 213 272 373 485 584 670 755 800 1046
1450.0 1225 965 839 708 678 636 516 335 249 222
1490.0 196 178 153 131 127 117 115 116 112 113
1530.0 109 116 114 117 113 118 117 119 117 116
1570.0 116 117 117 115 117 116 118 122 123 123
1610.0 126 127 124 129 123 121 119 119 118 118
1650.0 113 117 111 113 114 110 114 111 113 111
1690.0 112 112 113 113 113 112 111 111 111 111
1730.0 112 109 111 110 113 116 117 115 114 118
1770.0 121 121 117 120 116 117 115 117 116 113
1810.0 113 116 117 117 119 121 121 123 123 123
1850.0 122 121 121 120 118 118 117 117 118 121
1890.0 124 125 126 124 126 126 124 123 121 118
1930.0 117 114 114 114 114 114 111 109 112 111
1970.0 114 115 118 120 121 123 125 125 124 127
2010.0 128 129 131 129 123 123 121 120 117 115
2050.0 117 118 114 112 114 114 114 111 113 113
2090.0 110 113 116 115 114 114 116 116 117 115
2130.0 116 120 118 119 120 120 120 121 122 122
2170.0 123 125 123 126 128 130 130 130 130 130
2210.0 131 131 127 126 124 124 122 123 124 122
2250.0 123 121 120 119 119 118 116 118 116 116
2290.0 119 119 121 118 119 121 125 124 126 122
2330.0 127 127 119 119 119 119 124 122 121 118
2370.0 113 115 115 111 115 115 118 116 117 117
2410.0 118 116 117 120 119 118 115 116 117 118
2450.0 119 118 117 120 119 120 127 126 127 129
2490.0 132 131 131 132 127 124 118 115 113 114
2530.0 111 112 111 113 116 115 118 119 123 127
2570.0 137 147 154 164 178 188 184 203 206 206
2610.0 221 226 234 235 251 256 281 322 274 253
2650.0 300 306 310 310 330 355 367 361 357 361
2690.0 350 356 346 370 403 462 536 642 737 818
2730.0 963 1011 1334 1307 875 870 899 874 837 854
2770.0 917 1014 1173 1345 1556 1706 1882 1905 2031 2438
2810.0 2374 2121 1710 1536 1471 1327 1250 1229 1349 1540
2850.0 1763 2032 2234 2371 2470 2227 1932 1764 1600 1442
2890.0 1342 1286 1389 1666 2125 2724 3396 4133 5178 6452
2930.0 7679 9171 8211 9219 10000 7536 6832 6062 4842 3568
2970.0 2288 1332 728 426 281 219 186 171 158 148
3010.0 145 139 141 134 136 135 137 135 135 140
3050.0 134 132 128 131 125 127 125 124 124 126
3090.0 127 124 124 124 123 123 125 124 121 120
3130.0 122 125 124 123 125 129 134 140 144 146
3170.0 153 155 157 155 156 153 145 139 139 128
3210.0 119 117 113 113 111 113 112 114 118 115
3250.0 112 113 115 113 114 110 113 112 118 116
3290.0 117 123 123 128 128 135 135 140 142 135
3330.0 151 153 145 143 145 141 139 134 130 122
3370.0 132 123 125 125 128 128 125 121 120 124
3410.0 121 118 118 118 119 116 119 117 123 119
3450.0 118 121 123 125 123 132 134 133 133 136
3490.0 133 137 132 130 130 128 120 118 120 119
3530.0 118 118 120 122 120 123 115 119 114 121
3570.0 120 122 125 120 121 119 126 124 123 123
3610.0 128 121 121 122 122 125 124 125 126 129
3650.0 124 132 127 127 126 130 130 127 128 122
3690.0 126 128 134 127 127 125 130 129 129 129
3730.0 131 127 137 129 137 130 136 141 132 131
3770.0 132 129 125 130 129 126 127 125 123 133
3810.0 129 125 128 129 127 127 119 127 131 122
3850.0 126 123 129 122 127 127 120 132 117 128
3890.0 128 131 120 129 132 132 128 129 128 125
3930.0 132 140 126 125 134 129 136 139 137 133
##END=
