##TITLE=Formic acid, propyl ester
##JCAMP-DX=4.24
##DATA TYPE=INFRARED SPECTRUM
##ORIGIN=Sadtler Research Labs Under US-EPA Contract
##OWNER=NIST Standard Reference Data Program
##CAS REGISTRY NO=110-74-7
##MOLFORM=C 4 H 8 O 2
##XUNITS=1/CM
##YUNITS=ABSORBANCE
##XFACTOR=1.0
##YFACTOR=0.000092725
##DELTAX=4.0
##FIRSTX=450.0
##LASTX=3966.0
##FIRSTY=0.008716
##MAXX=3966
##MINX=450
##MAXY=0.92725
##MINY=0
##NPOINTS=880
##XYDATA=(X++(Y..Y))
450.0 94 89 60 56 72 87 93 128 108 104
490.0 66 56 58 66 51 38 3 26 14 14
530.0 5 34 58 29 17 25 6 32 69 52
570.0 29 38 47 63 52 40 85 106 97 85
610.0 92 76 100 64 82 89 67 97 106 81
650.0 112 89 84 67 62 96 82 67 91 85
690.0 73 61 47 75 85 84 77 76 82 102
730.0 123 128 159 163 145 150 180 183 191 182
770.0 159 152 157 136 121 109 89 82 76 66
810.0 68 67 77 83 89 89 83 100 112 107
850.0 152 154 161 176 207 236 256 285 315 377
890.0 410 447 489 498 503 515 506 499 506 523
930.0 526 513 507 473 427 401 333 262 237 207
970.0 219 181 175 191 196 157 148 143 152 150
1010.0 139 154 177 198 218 238 261 274 297 319
1050.0 326 336 325 342 366 367 341 338 350 362
1090.0 371 387 412 452 542 572 659 745 881 1042
1130.0 1258 1579 1988 2577 3385 4267 5345 6275 7204 8643
1170.0 9245 9689 10000 9093 8709 6984 5546 4016 2602 1713
1210.0 1197 930 786 678 625 574 539 525 489 461
1250.0 436 443 467 467 483 501 520 538 505 471
1290.0 436 396 363 335 299 257 255 232 210 197
1330.0 179 177 176 164 165 185 174 191 196 213
1370.0 224 241 263 311 327 320 314 311 288 248
1410.0 193 163 146 138 144 151 174 198 244 296
1450.0 351 402 455 490 530 538 523 478 425 375
1490.0 310 264 208 167 152 124 100 93 87 80
1530.0 69 68 68 67 56 56 61 66 59 57
1570.0 60 54 58 56 55 51 55 56 54 55
1610.0 56 59 65 61 65 64 69 77 75 81
1650.0 85 93 85 92 94 102 107 117 131 166
1690.0 194 238 312 411 515 656 850 1137 1488 1956
1730.0 2743 4182 6441 8462 8449 8389 7802 9204 6861 4142
1770.0 2622 1927 1492 1109 846 683 609 465 303 208
1810.0 157 123 99 84 78 65 60 59 48 51
1850.0 46 45 40 44 44 44 46 40 39 43
1890.0 43 44 47 48 48 54 64 65 65 69
1930.0 76 71 71 63 61 53 48 46 42 42
1970.0 35 35 36 36 29 34 34 34 34 34
2010.0 40 39 39 45 51 51 56 60 60 66
2050.0 65 65 68 69 66 71 69 69 69 75
2090.0 75 71 63 64 59 52 53 42 42 41
2130.0 36 36 29 23 18 18 19 19 20 21
2170.0 23 17 17 22 22 21 21 26 22 20
2210.0 21 21 24 20 20 16 20 19 14 15
2250.0 15 19 21 18 18 18 24 23 29 29
2290.0 34 40 45 52 57 63 72 71 84 84
2330.0 86 95 93 96 99 94 94 98 85 75
2370.0 63 51 45 34 26 19 19 19 19 13
2410.0 13 18 13 19 19 12 15 20 12 13
2450.0 13 12 6 5 5 6 7 12 7 7
2490.0 11 11 9 9 9 16 11 9 9 8
2530.0 8 6 7 4 2 2 2 3 7 2
2570.0 7 2 3 1 1 1 8 5 4 6
2610.0 6 6 6 7 7 13 6 6 7 9
2650.0 13 6 13 13 12 7 13 13 18 19
2690.0 20 23 25 28 36 38 45 52 58 62
2730.0 62 68 67 62 62 62 62 62 62 59
2770.0 58 57 57 52 52 52 52 58 58 59
2810.0 69 72 78 89 95 107 118 141 159 183
2850.0 210 253 287 341 390 453 540 658 801 935
2890.0 1039 1149 1288 1412 1514 1630 1794 1974 2137 2231
2930.0 2264 2245 2259 2176 2016 1873 1836 1895 1996 2109
2970.0 2242 2415 2548 2413 2263 2018 1757 1402 1045 754
3010.0 556 406 302 235 188 154 128 104 100 87
3050.0 81 71 69 65 64 60 58 60 57 60
3090.0 63 59 60 64 64 77 82 76 82 75
3130.0 69 61 47 45 35 38 38 37 37 39
3170.0 38 38 32 35 29 25 29 23 23 21
3210.0 17 16 17 17 12 17 11 15 11 17
3250.0 17 11 16 11 12 6 16 12 5 5
3290.0 5 12 12 5 9 7 6 1 11 6
3330.0 12 16 8 0 2 5 12 2 6 6
3370.0 11 6 6 7 12 13 7 11 14 5
3410.0 9 11 11 1 13 13 12 23 18 33
3450.0 32 29 44 53 65 83 99 96 107 106
3490.0 101 83 57 39 27 25 27 19 7 14
3530.0 14 13 13 19 18 18 24 22 19 17
3570.0 16 18 18 15 17 14 19 13 14 18
3610.0 15 13 19 19 21 21 19 24 36 37
3650.0 29 42 42 45 54 48 54 55 55 51
3690.0 42 38 37 32 25 25 19 19 15 14
3730.0 18 8 12 14 16 15 14 14 14 9
3770.0 8 14 11 14 14 14 11 8 20 14
3810.0 9 8 14 14 15 16 14 18 15 15
3850.0 15 25 20 21 21 16 16 16 17 25
3890.0 19 17 27 17 15 17 20 21 20 9
3930.0 9 11 12 7 3 1 1 1 1 1
##END=
