##TITLE=Butanedioic acid
##JCAMP-DX=4.24
##DATA TYPE=INFRARED SPECTRUM
##ORIGIN=Sadtler Research Labs Under US-EPA Contract
##OWNER=NIST Standard Reference Data Program
##CAS REGISTRY NO=110-15-6
##MOLFORM=C 4 H 6 O 4
##XUNITS=1/CM
##YUNITS=ABSORBANCE
##XFACTOR=1.0
##YFACTOR=0.000160876
##DELTAX=4.0
##FIRSTX=450.0
##LASTX=3966.0
##FIRSTY=0.002896
##MAXX=3966
##MINX=450
##MAXY=1.60876
##MINY=0
##NPOINTS=880
##XYDATA=(X++(Y..Y))
450.0 18 54 75 105 134 42 158 79 48 121
490.0 125 135 175 212 204 192 219 264 246 249
530.0 298 319 405 354 379 354 425 646 621 711
570.0 716 794 957 959 1096 1043 974 866 809 760
610.0 694 643 554 442 439 370 386 408 409 470
650.0 449 486 492 515 548 576 539 483 430 390
690.0 344 288 159 124 73 56 62 100 87 101
730.0 53 79 68 76 110 41 45 23 4 12
770.0 1 20 39 50 69 110 158 230 275 273
810.0 337 407 351 263 236 214 147 121 100 81
850.0 50 63 63 67 115 205 310 525 857 1379
890.0 2040 2789 3434 3642 3721 3772 3460 2974 2006 934
930.0 316 152 121 119 134 122 116 125 121 145
970.0 140 165 175 190 238 264 314 353 394 462
1010.0 530 670 782 947 1344 2068 3041 3968 4751 5095
1050.0 5365 5537 5073 4212 2874 1714 1036 756 702 735
1090.0 806 939 1083 1294 1615 1979 2404 2784 2975 3036
1130.0 2932 2617 2219 1845 1573 1371 1233 1152 1092 1071
1170.0 1105 1167 1281 1435 1573 1656 1717 1767 1818 1905
1210.0 1888 1816 1729 1563 1416 1329 1276 1179 1079 986
1250.0 871 832 858 851 856 838 865 901 877 806
1290.0 756 747 717 701 669 602 574 562 526 498
1330.0 431 372 384 387 379 432 467 521 579 613
1370.0 616 668 683 643 677 611 591 536 429 412
1410.0 380 390 418 454 477 522 626 611 482 443
1450.0 493 481 361 283 164 152 138 101 77 60
1490.0 89 65 65 53 83 148 65 91 97 85
1530.0 67 89 101 116 119 94 95 117 117 59
1570.0 68 76 64 70 46 46 80 32 63 50
1610.0 43 66 53 55 29 47 39 65 58 53
1650.0 97 95 127 59 117 109 138 152 185 206
1690.0 232 247 308 395 408 449 487 569 587 600
1730.0 671 730 834 891 1017 1201 1381 1658 1973 2355
1770.0 2861 3343 3853 4273 4939 5842 6956 8680 9063 9402
1810.0 10000 9286 9647 9068 6721 4751 3415 2676 2040 1584
1850.0 1299 1207 1222 1272 1394 1527 1636 1583 1380 1361
1890.0 1463 1341 1033 742 533 391 277 229 178 153
1930.0 138 127 112 105 108 87 86 71 70 70
1970.0 63 62 56 55 49 54 59 42 48 50
2010.0 47 47 39 34 26 21 23 21 25 16
2050.0 9 12 2 2 14 8 7 5 9 12
2090.0 19 17 18 25 16 17 22 17 6 6
2130.0 7 10 12 6 4 8 5 5 11 12
2170.0 12 20 22 25 19 19 14 10 4 5
2210.0 8 8 6 11 18 28 33 38 43 44
2250.0 48 50 50 44 39 38 39 38 33 30
2290.0 31 35 36 39 40 51 52 40 41 27
2330.0 26 20 17 26 40 34 20 17 33 22
2370.0 30 28 33 30 27 8 1 1 2 5
2410.0 6 11 9 16 17 12 13 14 15 10
2450.0 6 9 8 7 8 6 14 8 5 13
2490.0 13 9 7 9 6 10 6 3 3 6
2530.0 7 10 2 2 3 1 1 3 4 1
2570.0 7 4 7 2 1 5 3 4 8 9
2610.0 12 12 11 14 12 11 15 10 9 8
2650.0 6 8 7 10 9 7 8 10 16 12
2690.0 15 17 19 21 22 22 23 22 20 26
2730.0 28 33 28 24 24 15 16 13 13 12
2770.0 12 11 10 14 10 16 16 20 17 13
2810.0 19 22 20 23 30 26 28 39 37 42
2850.0 43 44 48 45 47 44 42 40 44 46
2890.0 49 47 57 57 60 62 65 78 86 101
2930.0 120 139 153 166 190 203 233 242 244 252
2970.0 238 224 212 186 149 126 125 134 131 98
3010.0 100 98 92 84 77 73 71 67 65 65
3050.0 63 66 62 63 70 73 74 71 71 72
3090.0 67 60 68 65 60 57 57 56 55 53
3130.0 58 55 50 58 54 49 52 53 46 54
3170.0 51 54 50 48 53 54 51 46 34 35
3210.0 35 31 28 25 32 32 50 45 40 52
3250.0 43 39 42 41 48 43 48 45 43 48
3290.0 44 40 40 47 45 43 40 40 47 48
3330.0 43 50 53 48 46 47 41 53 49 45
3370.0 36 38 33 52 65 69 57 38 33 29
3410.0 4 3 21 27 38 35 38 37 31 32
3450.0 40 31 29 37 39 31 28 29 33 27
3490.0 46 23 33 29 43 28 47 34 46 55
3530.0 63 54 69 70 105 102 129 138 257 470
3570.0 911 1178 1230 1238 1205 922 479 257 145 92
3610.0 80 82 62 55 37 67 48 36 27 28
3650.0 46 81 78 83 93 93 137 117 134 108
3690.0 83 83 19 42 20 1 41 19 36 21
3730.0 22 38 56 112 151 185 124 129 91 50
3770.0 1 1 1 3 8 11 2 1 4 27
3810.0 5 1 1 27 24 29 8 1 11 47
3850.0 26 59 37 19 13 19 1 17 24 44
3890.0 42 17 21 30 80 57 13 48 28 1
3930.0 1 1 1 0 55 77 115 86 71 49
##END=
