##TITLE=1,5-Cyclooctadiene
##JCAMP-DX=4.24
##DATA TYPE=INFRARED SPECTRUM
##ORIGIN=Sadtler Research Labs Under US-EPA Contract
##OWNER=NIST Standard Reference Data Program
##CAS REGISTRY NO=111-78-4
##MOLFORM=C 8 H 12
##XUNITS=1/CM
##YUNITS=ABSORBANCE
##XFACTOR=1.0
##YFACTOR=0.000094009
##DELTAX=4.0
##FIRSTX=450.0
##LASTX=3966.0
##FIRSTY=0.000000
##MAXX=3966
##MINX=450
##MAXY=0.94009
##MINY=0
##NPOINTS=880
##XYDATA=(X++(Y..Y))
450.0 0 208 341 308 416 267 312 413 413 452
490.0 425 543 407 435 325 275 174 170 189 142
530.0 180 147 207 128 211 166 183 183 229 254
570.0 214 278 242 283 229 272 213 248 223 242
610.0 251 248 330 383 590 833 1201 1505 1805 1983
650.0 2055 1917 1792 1407 1148 950 769 700 685 827
690.0 984 1232 1360 1787 2349 1958 1843 1985 1915 1843
730.0 1660 1391 1344 1230 1084 969 919 823 692 625
770.0 543 538 538 631 770 932 951 1474 1564 1101
810.0 1145 1162 963 825 704 639 585 503 432 406
850.0 350 362 292 240 202 203 210 212 231 233
890.0 277 283 324 309 309 291 294 275 255 248
930.0 233 230 215 225 215 224 231 249 260 287
970.0 318 321 334 396 482 570 647 668 721 734
1010.0 724 649 543 462 388 346 289 278 252 261
1050.0 257 276 294 318 362 392 438 487 566 565
1090.0 563 526 480 413 334 276 227 208 186 205
1130.0 195 199 201 206 202 203 207 209 218 214
1170.0 224 222 241 256 286 324 386 442 475 518
1210.0 591 693 547 562 628 613 608 616 568 551
1250.0 516 477 464 446 431 388 373 326 281 254
1290.0 239 237 242 251 255 269 280 306 311 312
1330.0 313 313 330 331 358 373 401 397 399 388
1370.0 365 332 309 297 286 298 281 289 299 320
1410.0 346 421 563 805 1055 1180 1343 1402 1402 1343
1450.0 1171 1009 916 870 785 743 772 832 866 992
1490.0 1264 1144 775 725 616 485 352 267 234 204
1530.0 203 183 181 174 181 181 183 180 179 183
1570.0 173 184 177 179 186 200 204 229 256 274
1610.0 300 310 332 329 349 356 386 433 526 627
1650.0 717 792 824 827 764 669 544 443 374 326
1690.0 293 270 264 249 249 237 241 233 229 225
1730.0 215 203 195 200 190 204 214 230 232 244
1770.0 234 229 220 201 193 179 179 179 181 179
1810.0 182 170 175 172 167 164 163 164 156 158
1850.0 155 162 156 170 172 180 179 177 183 180
1890.0 179 173 175 171 167 169 168 169 169 176
1930.0 172 176 168 172 168 171 172 177 186 186
1970.0 184 180 182 168 172 165 163 157 152 157
2010.0 154 152 147 150 144 152 156 159 163 162
2050.0 171 165 173 174 170 172 178 180 180 177
2090.0 175 171 165 163 163 166 165 168 165 163
2130.0 168 166 169 169 176 175 182 176 183 182
2170.0 189 186 184 180 175 175 163 165 159 170
2210.0 158 161 158 164 162 163 163 167 171 167
2250.0 172 165 170 165 169 170 168 166 161 160
2290.0 148 147 139 141 137 128 143 139 135 151
2330.0 159 142 151 169 161 141 140 143 166 179
2370.0 184 185 174 164 156 161 158 164 167 161
2410.0 160 159 165 167 164 169 174 169 175 166
2450.0 163 162 163 161 163 159 152 158 159 158
2490.0 159 162 161 153 153 154 158 155 160 160
2530.0 169 170 168 172 173 169 173 176 170 176
2570.0 166 170 166 165 167 165 174 169 181 177
2610.0 179 184 196 202 216 237 237 233 231 238
2650.0 234 239 245 265 286 305 319 335 355 371
2690.0 386 385 383 364 353 342 319 300 286 286
2730.0 271 275 273 279 282 300 311 320 335 339
2770.0 356 355 365 367 391 403 427 436 446 453
2810.0 471 522 618 814 1146 1598 2131 2629 2861 2941
2850.0 2862 2569 2344 2000 1854 1953 2412 3217 4394 5608
2890.0 6786 8759 10000 9061 9080 8539 6943 5907 4927 4634
2930.0 4978 5116 5495 5840 6033 6036 5846 5464 4904 4485
2970.0 4133 3945 3655 3296 3013 2894 2938 3173 3865 4952
3010.0 6265 7371 7968 8980 8127 6349 5064 3366 1989 1138
3050.0 722 569 523 524 535 568 581 595 563 554
3090.0 498 439 405 354 321 305 280 254 230 212
3130.0 208 200 186 181 185 186 174 176 158 165
3170.0 160 163 150 153 147 147 146 144 150 153
3210.0 160 158 160 149 154 156 163 158 171 171
3250.0 170 173 161 173 164 168 158 159 164 170
3290.0 162 162 171 165 159 160 152 154 149 144
3330.0 143 155 157 171 182 174 181 179 162 165
3370.0 166 151 168 156 169 152 166 151 138 145
3410.0 146 150 151 159 137 137 145 142 144 145
3450.0 156 139 147 140 158 158 155 128 144 150
3490.0 130 158 148 145 131 169 160 167 164 160
3530.0 160 149 157 193 168 155 158 147 171 155
3570.0 153 167 153 173 155 174 168 174 159 154
3610.0 170 171 176 161 180 167 170 177 187 172
3650.0 197 184 204 185 210 188 196 168 174 189
3690.0 169 199 154 191 188 184 166 168 225 192
3730.0 185 196 229 189 189 179 183 206 192 158
3770.0 191 196 176 191 215 191 187 190 196 224
3810.0 252 205 200 202 211 190 207 184 226 222
3850.0 213 188 180 209 201 193 236 189 191 229
3890.0 206 212 238 187 184 175 206 215 230 191
3930.0 196 189 174 144 153 162 214 154 153 212
##END=
