##TITLE=1,2-Ethanediamine, N,N'-diethyl-
##JCAMP-DX=4.24
##DATA TYPE=INFRARED SPECTRUM
##ORIGIN=Sadtler Research Labs Under US-EPA Contract
##OWNER=NIST Standard Reference Data Program
##CAS REGISTRY NO=111-74-0
##MOLFORM=C 6 H 16 N 2
##XUNITS=1/CM
##YUNITS=ABSORBANCE
##XFACTOR=1.0
##YFACTOR=0.000053955
##DELTAX=4.0
##FIRSTX=450.0
##LASTX=3966.0
##FIRSTY=0.003291
##MAXX=3966
##MINX=450
##MAXY=0.53955
##MINY=0
##NPOINTS=880
##XYDATA=(X++(Y..Y))
450.0 61 49 38 13 19 3 2 27 54 36
490.0 93 127 87 76 159 170 178 162 147 168
530.0 127 166 176 155 118 130 74 135 192 166
570.0 162 155 175 207 224 191 233 272 270 260
610.0 284 376 418 409 493 492 542 629 652 764
650.0 812 950 1011 1124 1202 1287 1403 1456 1575 1691
690.0 1795 1911 1955 2050 2084 2192 2178 2205 2104 2075
730.0 2032 1966 1829 1768 1445 1573 1509 1388 1353 1268
770.0 1160 1057 981 854 789 709 650 583 503 477
810.0 425 413 388 333 299 252 233 216 220 210
850.0 253 234 234 241 239 243 248 274 247 237
890.0 229 202 212 195 244 236 241 266 277 280
930.0 311 313 294 295 286 294 330 274 252 204
970.0 225 225 201 223 232 209 217 291 315 390
1010.0 425 512 637 772 809 877 868 842 816 800
1050.0 808 764 755 789 828 874 861 945 972 1053
1090.0 1188 1393 1601 1931 2327 2765 3201 3582 3823 4191
1130.0 4394 4545 4437 4112 3812 3437 3150 2944 2816 2679
1170.0 2476 2155 1742 1313 1028 883 793 724 667 674
1210.0 674 704 779 818 849 873 849 831 822 834
1250.0 846 882 903 860 869 886 850 838 857 926
1290.0 979 1067 1149 1161 1132 1093 1046 1052 1197 1443
1330.0 1735 1969 2229 2276 2178 2084 1986 1763 1627 1675
1370.0 1821 2129 2405 2582 2506 2188 1757 1386 1125 948
1410.0 770 740 790 847 967 1167 1519 1967 2479 2966
1450.0 3428 3781 4082 4129 4027 3663 3115 2400 1730 1283
1490.0 950 687 545 432 398 338 242 250 228 194
1530.0 151 158 132 175 121 116 98 116 102 66
1570.0 75 52 81 62 45 54 73 73 73 75
1610.0 82 86 102 96 95 100 108 130 111 139
1650.0 128 166 109 150 176 250 267 295 364 423
1690.0 395 454 550 640 663 654 576 454 294 228
1730.0 194 176 123 92 73 81 45 54 47 38
1770.0 56 54 26 34 41 41 50 40 57 39
1810.0 48 48 52 55 56 61 44 51 49 78
1850.0 53 61 52 60 35 69 43 44 48 43
1890.0 44 43 49 45 38 45 46 47 46 36
1930.0 46 39 35 34 33 35 32 28 31 32
1970.0 31 23 23 17 16 22 30 19 20 15
2010.0 26 7 16 26 16 18 8 8 16 8
2050.0 20 9 9 10 10 11 19 20 11 21
2090.0 19 12 12 13 14 8 12 12 12 12
2130.0 12 10 20 10 9 19 19 18 28 27
2170.0 28 23 18 16 17 15 15 13 16 15
2210.0 2 10 4 14 5 14 14 14 13 23
2250.0 22 23 33 29 35 28 32 27 24 34
2290.0 34 33 34 33 34 34 34 49 39 26
2330.0 23 25 28 19 26 26 36 45 52 27
2370.0 24 29 27 38 30 30 38 38 38 39
2410.0 39 28 39 39 38 34 41 30 32 28
2450.0 40 31 40 31 41 50 50 49 49 55
2490.0 60 69 69 68 68 70 79 79 79 78
2530.0 78 93 102 111 121 131 143 160 171 180
2570.0 198 199 209 218 218 220 236 241 245 252
2610.0 271 289 299 319 337 357 385 402 442 463
2650.0 497 517 530 563 589 618 656 703 740 788
2690.0 833 853 892 905 932 943 962 999 1044 1109
2730.0 1176 1269 1355 1439 1524 1602 1690 1803 1924 2084
2770.0 2288 2497 2759 3058 3434 3899 4460 5104 5814 6543
2810.0 7257 7842 8193 8262 8056 7616 7053 6323 5672 5060
2850.0 4498 4037 3720 3553 3549 3764 4138 4636 5082 5430
2890.0 5639 5744 5761 5791 5747 5728 5653 5685 5779 6039
2930.0 6429 6847 7289 7509 7460 7308 7078 7138 7694 8611
2970.0 9504 10000 9639 8410 6571 4811 3331 2295 1635 1216
3010.0 951 799 691 622 541 501 460 422 401 365
3050.0 346 309 280 253 235 218 205 198 182 177
3090.0 169 155 149 146 137 137 121 127 122 121
3130.0 114 110 111 118 103 104 104 94 94 95
3170.0 95 94 96 88 102 87 75 98 87 80
3210.0 87 78 78 60 61 60 51 33 41 40
3250.0 28 32 28 18 27 35 35 44 25 29
3290.0 23 37 32 25 36 55 53 61 91 128
3330.0 175 204 212 230 222 216 198 174 135 115
3370.0 86 67 40 39 50 41 39 40 41 31
3410.0 38 38 24 34 23 32 24 25 17 31
3450.0 30 16 16 17 6 24 8 17 17 16
3490.0 8 0 9 8 19 21 13 10 15 18
3530.0 13 8 10 10 29 20 17 13 20 23
3570.0 33 5 16 9 10 32 20 22 13 5
3610.0 21 19 19 27 22 44 33 32 22 40
3650.0 50 32 33 14 25 43 31 44 28 24
3690.0 35 24 33 34 26 44 44 43 53 54
3730.0 44 47 63 50 73 59 66 45 36 36
3770.0 36 37 40 43 38 38 27 37 65 56
3810.0 48 47 56 57 47 51 63 71 62 57
3850.0 74 84 69 67 68 67 67 67 77 69
3890.0 58 66 65 68 64 44 50 61 60 61
3930.0 81 79 79 79 80 98 10 17 17 17
##END=
