##TITLE=Pentane, 1,5-dibromo-
##JCAMP-DX=4.24
##DATA TYPE=INFRARED SPECTRUM
##ORIGIN=Sadtler Research Labs Under US-EPA Contract
##OWNER=NIST Standard Reference Data Program
##CAS REGISTRY NO=111-24-0
##MOLFORM=C 5 H 10 Br 2
##XUNITS=1/CM
##YUNITS=ABSORBANCE
##XFACTOR=1.0
##YFACTOR=0.000076416
##DELTAX=4.0
##FIRSTX=450.0
##LASTX=3966.0
##FIRSTY=0.117375
##MAXX=3966
##MINX=450
##MAXY=0.76416
##MINY=0
##NPOINTS=880
##XYDATA=(X++(Y..Y))
450.0 1536 898 1079 915 1136 592 14 228 772 653
490.0 415 704 550 508 464 556 515 572 558 607
530.0 565 609 704 789 853 1077 1436 1633 2012 2791
570.0 3751 4044 3243 2573 1635 1205 964 779 774 697
610.0 683 702 703 780 878 972 1170 1425 1863 2360
650.0 3116 3669 3775 2845 2211 1765 1451 1118 885 787
690.0 707 715 748 731 772 886 915 1093 1334 1576
730.0 1944 2292 2552 2494 2163 1755 1336 1157 1006 887
770.0 977 1302 818 822 653 686 653 625 673 696
810.0 744 867 878 952 967 883 767 741 781 766
850.0 766 817 768 775 748 783 810 883 923 999
890.0 1053 1079 1066 942 834 761 738 668 661 653
930.0 671 684 714 771 777 867 794 880 854 709
970.0 700 738 624 761 773 854 887 857 759 730
1010.0 713 643 659 685 760 755 754 729 705 697
1050.0 680 667 650 659 651 640 653 683 683 624
1090.0 572 530 514 512 532 539 566 594 608 587
1130.0 551 521 501 512 507 518 508 528 548 581
1170.0 595 631 670 718 796 929 1131 1257 1400 1765
1210.0 2467 3575 5013 6922 8140 7547 5569 4088 3439 3319
1250.0 3740 4650 5789 6430 6263 5709 5452 5193 4743 4126
1290.0 3775 3710 3664 3576 3205 2781 2358 1985 1617 1287
1330.0 1035 938 969 1047 1101 1126 1205 1247 1196 1039
1370.0 916 838 796 709 607 490 448 431 425 448
1410.0 459 519 609 811 1053 1535 2153 2912 3797 4228
1450.0 4043 3514 3095 2703 2203 1719 1298 941 714 536
1490.0 461 396 366 317 337 302 272 277 284 270
1530.0 230 250 229 285 215 216 195 254 235 195
1570.0 206 201 198 190 176 168 167 173 159 172
1610.0 165 181 175 188 164 163 160 201 143 173
1650.0 163 221 160 143 158 157 169 165 156 190
1690.0 143 145 171 197 144 151 150 172 144 133
1730.0 143 158 179 140 155 158 165 141 147 120
1770.0 138 154 116 119 111 129 126 113 115 120
1810.0 98 106 97 97 101 99 107 96 98 100
1850.0 96 94 92 93 90 98 94 99 89 89
1890.0 91 87 91 87 87 100 87 96 94 90
1930.0 104 91 93 87 95 87 91 92 88 92
1970.0 99 93 91 93 91 90 93 99 92 97
2010.0 96 96 101 100 101 102 102 104 104 103
2050.0 101 98 90 84 85 86 84 86 82 90
2090.0 83 77 78 76 80 80 83 76 78 74
2130.0 63 66 63 61 58 67 68 72 67 74
2170.0 73 78 73 78 77 82 80 78 81 72
2210.0 75 83 83 79 75 72 73 71 67 72
2250.0 71 68 66 71 64 65 67 54 54 52
2290.0 44 38 31 28 33 16 13 17 12 16
2330.0 19 23 25 27 30 23 14 30 24 29
2370.0 76 59 53 59 56 56 57 54 51 54
2410.0 43 40 44 42 39 48 39 39 44 37
2450.0 39 42 43 38 45 43 53 53 52 54
2490.0 53 51 44 37 42 37 33 41 37 32
2530.0 26 24 20 21 18 14 22 22 23 23
2570.0 29 29 25 24 27 30 26 27 26 42
2610.0 42 42 55 60 60 72 77 84 84 81
2650.0 86 108 120 132 149 148 146 145 133 146
2690.0 144 152 160 165 165 154 146 140 134 125
2730.0 113 117 110 113 106 107 101 106 102 102
2770.0 110 119 128 143 161 191 201 222 230 243
2810.0 261 284 325 371 447 562 760 1054 1488 1992
2850.0 2455 2782 3014 3172 3376 3604 3683 3575 3350 3182
2890.0 3127 3292 3539 3801 3972 3973 3903 3829 3965 4319
2930.0 4910 5745 6894 8296 9492 10000 9602 8614 7714 7721
2970.0 8039 7930 6949 5392 3941 2810 2088 1810 1903 2276
3010.0 2967 3615 3526 2635 1619 1007 670 468 367 308
3050.0 257 220 198 181 169 152 144 128 118 105
3090.0 99 85 81 73 77 64 74 61 62 61
3130.0 54 68 67 76 79 74 69 73 64 67
3170.0 68 60 75 67 73 65 57 62 56 62
3210.0 47 55 60 51 39 29 32 35 42 45
3250.0 38 34 37 44 35 27 41 17 27 40
3290.0 36 47 28 32 29 26 28 38 22 55
3330.0 45 43 45 50 40 36 32 48 42 50
3370.0 26 29 43 37 40 65 31 47 48 48
3410.0 33 38 36 30 22 50 41 45 54 36
3450.0 9 24 38 19 32 32 36 25 17 25
3490.0 50 42 38 40 21 19 22 33 25 27
3530.0 28 41 33 24 23 42 39 27 19 20
3570.0 16 53 44 37 30 21 35 24 32 15
3610.0 39 45 39 52 42 41 54 50 34 49
3650.0 55 39 35 40 52 15 27 74 59 22
3690.0 62 54 16 47 37 19 43 12 30 36
3730.0 39 35 24 17 62 35 79 31 52 33
3770.0 51 82 65 45 42 18 81 35 31 44
3810.0 45 34 74 8 30 8 44 62 33 55
3850.0 41 42 47 59 28 56 68 50 17 47
3890.0 91 93 26 62 60 82 72 70 69 110
3930.0 68 76 15 85 54 74 96 136 0 60
##END=
