##TITLE=Diethanolamine
##JCAMP-DX=4.24
##DATA TYPE=INFRARED SPECTRUM
##ORIGIN=Sadtler Research Labs Under US-EPA Contract
##OWNER=NIST Standard Reference Data Program
##CAS REGISTRY NO=111-42-2
##MOLFORM=C 4 H 11 N O 2
##XUNITS=1/CM
##YUNITS=ABSORBANCE
##XFACTOR=1.0
##YFACTOR=0.000054086
##DELTAX=4.0
##FIRSTX=450.0
##LASTX=3966.0
##FIRSTY=0.021256
##MAXX=3966
##MINX=450
##MAXY=0.54086
##MINY=0
##NPOINTS=880
##XYDATA=(X++(Y..Y))
450.0 393 653 827 542 780 796 589 245 246 264
490.0 500 798 514 463 503 469 641 591 735 728
530.0 544 361 553 705 687 504 501 409 394 342
570.0 270 125 175 214 162 97 153 74 42 5
610.0 88 153 84 155 88 135 322 215 326 151
650.0 314 363 421 478 429 609 536 646 756 820
690.0 891 994 1067 1148 1245 1397 1282 1429 1372 1373
730.0 1503 1324 1293 1384 1592 1333 1290 1208 1208 1094
770.0 1019 873 833 655 676 539 540 453 359 317
810.0 225 236 191 100 175 172 186 266 282 341
850.0 349 542 603 719 818 1012 1114 1210 1344 1409
890.0 1398 1354 1398 1372 1322 1258 1130 891 819 698
930.0 695 531 375 389 338 269 304 311 264 304
970.0 251 302 322 454 571 737 959 1240 1494 1881
1010.0 2273 2773 3283 3783 4708 5554 6724 7592 8615 9516
1050.0 10000 9983 9884 9458 8920 8479 7703 6967 6229 5394
1090.0 4533 3859 3365 2889 2688 2529 2474 2511 2703 2917
1130.0 3175 3357 3513 3473 3170 2893 2535 2230 1986 1762
1170.0 1664 1564 1542 1649 1650 1654 1652 1684 1700 1682
1210.0 1695 1648 1584 1547 1470 1380 1328 1284 1183 1140
1250.0 1052 1037 1046 1091 1130 1136 1093 1111 1070 1074
1290.0 1104 1129 1129 1101 1120 1186 1245 1311 1374 1485
1330.0 1644 1892 2121 2292 2394 2500 2423 2401 2264 2088
1370.0 1990 2019 2037 2129 2299 2456 2599 2808 2821 2769
1410.0 2636 2398 2232 1858 1754 1611 1562 1708 1735 2038
1450.0 2405 2798 3120 3340 3330 3151 2740 2173 1699 1313
1490.0 1023 724 567 436 352 329 279 224 180 209
1530.0 175 134 178 55 152 140 99 114 23 153
1570.0 166 118 187 159 229 175 225 256 243 240
1610.0 222 281 207 268 296 248 291 255 229 251
1650.0 121 116 124 150 155 121 174 135 216 92
1690.0 197 170 133 144 154 157 104 74 69 66
1730.0 66 60 92 40 108 139 104 117 110 95
1770.0 101 35 51 66 89 61 81 49 96 59
1810.0 51 76 64 77 56 76 81 95 90 107
1850.0 108 103 98 101 104 105 95 109 95 104
1890.0 100 118 98 108 102 118 103 119 108 123
1930.0 99 109 112 113 125 95 97 94 87 83
1970.0 73 72 64 56 61 57 60 48 45 47
2010.0 34 37 39 40 45 35 38 37 50 49
2050.0 46 44 48 50 64 60 54 58 61 65
2090.0 73 64 68 69 71 59 59 59 51 57
2130.0 52 57 52 36 35 39 33 35 33 25
2170.0 28 26 24 20 29 24 16 18 6 6
2210.0 8 3 5 7 12 6 12 17 15 17
2250.0 16 17 19 12 21 18 17 24 25 28
2290.0 42 43 66 69 71 93 91 103 104 139
2330.0 126 99 154 70 232 57 217 90 221 190
2370.0 152 142 113 94 66 43 34 30 27 20
2410.0 34 32 22 30 26 26 31 20 22 25
2450.0 21 22 23 27 26 26 30 31 31 35
2490.0 32 25 30 38 31 35 39 35 33 32
2530.0 37 31 30 32 41 37 27 31 33 31
2570.0 32 34 47 49 56 63 63 74 90 95
2610.0 97 101 118 128 145 158 180 190 203 231
2650.0 259 284 306 339 363 388 414 443 473 509
2690.0 536 570 594 604 621 631 638 659 682 706
2730.0 729 754 790 823 853 892 933 977 1038 1108
2770.0 1199 1300 1401 1535 1690 1857 2039 2255 2494 2756
2810.0 3058 3375 3731 4102 4474 4843 5138 5396 5575 5680
2850.0 5745 5753 5816 5870 5943 6058 6194 6316 6414 6438
2890.0 6374 6279 6170 6106 6105 6199 6367 6671 7050 7517
2930.0 7989 8400 8711 8865 8731 8363 7729 6954 6095 5201
2970.0 4302 3540 2853 2219 1687 1286 974 743 587 469
3010.0 377 309 270 233 214 207 182 161 140 137
3050.0 134 127 123 117 126 139 124 107 116 102
3090.0 103 97 88 81 82 92 81 79 91 100
3130.0 105 109 95 116 106 108 126 121 112 109
3170.0 93 88 91 83 87 95 85 70 70 70
3210.0 68 82 64 69 57 51 58 43 57 52
3250.0 51 45 33 64 60 48 26 36 55 51
3290.0 36 44 53 56 51 67 63 59 64 85
3330.0 97 105 116 125 116 128 137 142 139 152
3370.0 153 167 175 162 165 152 134 116 99 82
3410.0 81 67 54 63 71 51 45 63 70 58
3450.0 37 52 56 64 57 62 59 45 45 33
3490.0 35 13 17 13 31 3 26 5 55 98
3530.0 169 271 363 406 486 550 637 696 847 890
3570.0 1002 929 894 816 758 700 601 545 448 431
3610.0 325 272 209 186 159 158 147 255 260 309
3650.0 435 583 852 974 1212 1173 1389 1195 1208 1068
3690.0 761 643 379 300 176 66 69 35 81 54
3730.0 19 3 4 46 2 9 8 13 3 3
3770.0 3 3 11 3 3 10 2 2 6 1
3810.0 51 3 3 3 4 3 3 3 5 56
3850.0 2 3 3 37 2 3 48 2 67 0
3890.0 29 2 38 3 23 78 5 59 3 4
3930.0 2 35 65 46 13 30 54 11 4 7
##END=
