##TITLE=1,6-Hexanediamine, N,N,N',N'-tetramethyl-
##JCAMP-DX=4.24
##DATA TYPE=INFRARED SPECTRUM
##ORIGIN=Sadtler Research Labs Under US-EPA Contract
##OWNER=NIST Standard Reference Data Program
##CAS REGISTRY NO=111-18-2
##MOLFORM=C 10 H 24 N 2
##XUNITS=1/CM
##YUNITS=ABSORBANCE
##XFACTOR=1.0
##YFACTOR=0.000128345
##DELTAX=4.0
##FIRSTX=450.0
##LASTX=3966.0
##FIRSTY=0.015530
##MAXX=3966
##MINX=450
##MAXY=1.28345
##MINY=0
##NPOINTS=880
##XYDATA=(X++(Y..Y))
450.0 121 89 157 115 115 144 95 159 130 165
490.0 111 92 233 155 125 171 170 188 181 158
530.0 143 98 86 120 102 75 137 115 22 106
570.0 130 54 127 157 109 87 56 135 7 57
610.0 92 101 116 88 89 100 47 57 23 37
650.0 54 62 106 115 68 143 27 55 73 83
690.0 103 77 133 108 99 172 153 234 261 237
730.0 304 162 269 350 403 185 269 221 220 238
770.0 219 205 213 253 311 282 281 270 275 307
810.0 293 351 387 387 421 460 476 558 592 580
850.0 537 453 408 356 324 315 298 250 231 213
890.0 192 204 185 170 169 166 193 194 208 225
930.0 220 210 234 261 237 274 296 315 314 326
970.0 305 293 308 347 375 405 452 535 673 823
1010.0 958 1124 1283 1341 1288 1275 1423 1660 2031 2187
1050.0 2082 1856 1698 1657 1596 1394 1231 1049 946 864
1090.0 827 795 854 792 755 662 550 505 532 605
1130.0 702 755 838 871 931 941 961 932 860 799
1170.0 734 657 620 540 493 485 476 460 443 452
1210.0 466 519 566 592 641 648 676 719 747 814
1250.0 893 1037 1216 1361 1457 1436 1294 1128 1003 908
1290.0 847 821 849 853 837 757 653 573 468 427
1330.0 391 376 404 437 471 563 620 682 690 780
1370.0 894 1083 1161 995 873 629 453 368 333 324
1410.0 286 296 305 350 385 533 724 960 1237 1441
1450.0 1796 2128 2520 2823 2821 2516 2037 1468 1039 767
1490.0 588 462 367 286 279 257 206 174 153 151
1530.0 119 131 110 111 123 86 110 81 113 65
1570.0 71 81 62 70 58 51 74 44 65 50
1610.0 50 59 55 60 52 67 51 66 77 64
1650.0 87 76 84 66 87 103 91 95 96 106
1690.0 110 113 145 210 247 286 262 210 151 100
1730.0 117 97 84 68 63 73 63 59 53 51
1770.0 57 51 37 48 45 52 40 53 40 48
1810.0 36 32 48 30 56 40 42 43 37 57
1850.0 39 33 39 39 49 42 52 38 37 35
1890.0 44 37 35 31 31 31 28 29 27 27
1930.0 18 22 18 26 25 22 23 23 20 22
1970.0 26 23 26 25 29 28 33 31 30 30
2010.0 35 36 42 38 37 38 39 35 41 39
2050.0 37 39 37 41 39 41 40 46 46 50
2090.0 48 47 43 39 36 34 34 30 24 25
2130.0 23 23 21 19 16 20 19 20 18 18
2170.0 16 15 19 15 12 15 12 14 14 13
2210.0 13 13 11 15 13 14 11 16 15 13
2250.0 14 17 16 17 20 15 15 12 12 6
2290.0 4 2 1 1 1 3 12 19 18 25
2330.0 27 28 35 19 30 24 53 41 48 15
2370.0 13 0 3 5 6 17 24 25 27 25
2410.0 27 33 32 34 31 32 32 34 29 28
2450.0 29 31 30 30 32 36 39 43 48 59
2490.0 73 78 90 96 98 96 94 92 94 90
2530.0 93 96 95 95 91 91 85 87 89 87
2570.0 92 96 98 104 110 117 118 128 141 148
2610.0 150 156 164 167 175 181 196 209 228 254
2650.0 270 291 317 341 371 397 418 442 465 493
2690.0 530 573 636 723 841 974 1129 1287 1428 1568
2730.0 1692 1802 1901 2008 2161 2396 2796 3487 4607 6215
2770.0 7869 8600 8055 7250 6890 6692 6212 5352 4425 3779
2810.0 3572 3858 4547 5001 4693 3748 2878 2392 2177 2180
2850.0 2383 2804 3437 4046 4323 4178 3735 3243 2891 2689
2890.0 2638 2693 2832 3041 3282 3543 3800 4134 4631 5396
2930.0 6456 7698 9029 9882 10000 9443 8304 6917 5695 4964
2970.0 4831 5130 5303 5026 4224 3045 1926 1210 863 667
3010.0 541 456 388 345 298 275 254 229 215 205
3050.0 197 189 184 176 171 170 167 160 157 146
3090.0 139 130 127 123 118 116 111 109 107 108
3130.0 103 104 99 98 101 97 96 102 98 102
3170.0 104 100 103 98 100 103 103 100 101 95
3210.0 88 85 85 70 65 62 64 55 51 39
3250.0 42 40 38 34 36 30 30 27 29 29
3290.0 25 27 27 23 27 26 32 26 22 24
3330.0 19 28 29 34 27 23 25 28 21 25
3370.0 24 24 30 22 19 24 28 24 25 28
3410.0 16 27 27 24 23 25 27 13 19 18
3450.0 16 15 14 22 21 17 14 13 17 22
3490.0 6 7 13 24 20 12 13 8 12 19
3530.0 13 12 16 12 26 26 6 13 6 31
3570.0 34 17 18 0 33 34 36 8 22 10
3610.0 39 32 30 38 28 42 32 13 22 47
3650.0 27 47 8 29 11 45 29 34 18 3
3690.0 21 21 14 20 25 30 43 5 22 49
3730.0 31 58 34 46 40 41 29 20 19 29
3770.0 12 25 12 18 11 16 23 31 28 40
3810.0 11 38 9 61 20 31 26 18 29 23
3850.0 35 43 53 26 36 46 26 38 30 56
3890.0 12 26 20 29 35 12 16 42 46 0
3930.0 8 56 43 24 54 17 36 23 20 41
##END=
