##TITLE=1-Hexanethiol
##JCAMP-DX=4.24
##DATA TYPE=INFRARED SPECTRUM
##ORIGIN=Sadtler Research Labs Under US-EPA Contract
##OWNER=NIST Standard Reference Data Program
##CAS REGISTRY NO=111-31-9
##MOLFORM=C 6 H 14 S
##XUNITS=1/CM
##YUNITS=ABSORBANCE
##XFACTOR=1.0
##YFACTOR=0.000132553
##DELTAX=4.0
##FIRSTX=450.0
##LASTX=3966.0
##FIRSTY=0.000000
##MAXX=3966
##MINX=450
##MAXY=1.32553
##MINY=0
##NPOINTS=880
##XYDATA=(X++(Y..Y))
450.0 0 176 324 486 75 154 226 240 305 346
490.0 321 311 235 151 152 200 229 271 298 178
530.0 215 222 271 263 210 192 188 216 181 175
570.0 228 243 223 238 252 173 164 217 238 264
610.0 237 204 180 210 206 185 231 221 232 257
650.0 251 245 287 283 259 182 252 240 266 247
690.0 250 279 308 367 388 382 418 450 477 487
730.0 510 523 525 503 441 409 356 340 330 312
770.0 312 294 296 311 319 287 257 266 270 273
810.0 250 241 248 255 277 266 267 285 281 286
850.0 306 304 295 287 299 298 302 299 312 309
890.0 313 303 315 305 294 291 282 272 267 259
930.0 253 251 248 250 248 247 259 267 275 278
970.0 293 279 276 277 280 277 295 298 300 305
1010.0 308 303 308 294 296 292 280 284 273 281
1050.0 279 281 272 264 261 265 255 252 254 268
1090.0 276 281 298 311 313 312 317 308 288 275
1130.0 258 243 240 224 225 226 233 238 242 255
1170.0 275 287 291 291 292 287 286 286 296 301
1210.0 322 340 354 354 349 348 371 407 459 521
1250.0 569 610 639 649 658 653 646 646 674 724
1290.0 757 781 770 730 697 646 595 536 476 431
1330.0 398 395 414 444 474 493 479 463 445 444
1370.0 437 449 501 518 525 513 455 382 344 319
1410.0 299 315 314 370 417 526 651 776 909 982
1450.0 1075 1144 1218 1253 1227 1136 1017 844 695 545
1490.0 430 378 310 287 260 238 214 220 215 212
1530.0 189 197 195 204 182 170 188 181 205 164
1570.0 164 182 166 180 154 163 165 158 169 158
1610.0 160 155 178 165 154 160 155 161 164 149
1650.0 172 165 167 152 159 160 148 157 149 169
1690.0 146 152 164 161 150 142 144 147 150 137
1730.0 142 145 146 144 137 140 140 138 145 144
1770.0 139 145 138 136 131 135 128 136 123 132
1810.0 130 125 131 124 135 126 127 126 126 128
1850.0 121 135 128 125 129 123 126 119 122 126
1890.0 126 121 123 121 126 122 125 120 121 122
1930.0 125 126 124 122 124 128 122 125 123 123
1970.0 125 123 121 121 122 122 122 120 121 124
2010.0 125 124 125 126 128 132 133 130 129 128
2050.0 127 126 124 124 123 123 125 119 118 121
2090.0 118 120 119 121 121 118 121 118 119 121
2130.0 121 121 119 121 122 122 124 124 124 122
2170.0 121 124 124 120 119 119 122 121 117 118
2210.0 118 120 119 118 114 117 118 117 117 112
2250.0 116 117 115 115 115 113 116 117 118 117
2290.0 117 120 118 116 113 110 106 95 94 94
2330.0 94 94 94 94 94 105 94 94 94 94
2370.0 94 94 98 111 116 117 114 118 116 114
2410.0 118 115 120 118 116 117 116 117 118 117
2450.0 115 110 113 114 116 114 114 119 118 115
2490.0 114 112 116 117 120 118 116 117 120 124
2530.0 124 125 128 129 132 134 134 138 142 148
2570.0 159 165 183 202 235 257 266 260 247 227
2610.0 205 187 177 175 175 174 175 177 177 180
2650.0 186 188 191 192 197 202 207 209 210 214
2690.0 211 210 207 204 199 198 196 194 199 203
2730.0 214 218 229 234 242 241 236 228 223 224
2770.0 226 229 234 241 256 278 295 314 328 347
2810.0 369 391 418 453 505 574 673 828 1059 1379
2850.0 1814 2341 2905 3388 3754 3918 3862 3828 3696 3430
2890.0 3181 2916 2716 2771 3063 3554 4277 5211 6383 7653
2930.0 8876 9700 10000 9698 8911 7964 7174 6740 6831 7270
2970.0 7274 6565 5462 3933 2606 1801 1310 994 805 679
3010.0 602 546 501 470 437 413 393 365 340 318
3050.0 295 281 266 255 241 230 228 224 216 208
3090.0 202 203 199 192 186 182 185 180 177 170
3130.0 171 171 170 173 166 166 169 161 169 167
3170.0 162 162 164 164 160 153 156 153 153 149
3210.0 142 140 139 134 129 123 124 126 124 127
3250.0 124 116 118 121 118 112 111 118 118 117
3290.0 112 113 114 117 115 112 111 116 118 111
3330.0 120 108 111 116 117 113 109 113 115 114
3370.0 108 111 110 114 114 110 107 106 112 109
3410.0 115 112 106 111 112 106 106 107 108 113
3450.0 108 111 105 105 108 112 110 99 103 111
3490.0 107 108 107 105 108 111 107 104 96 102
3530.0 108 111 99 105 105 109 96 103 101 104
3570.0 105 114 111 98 114 105 116 99 108 103
3610.0 117 118 108 120 116 118 124 114 114 132
3650.0 117 143 100 132 111 128 137 133 118 109
3690.0 144 112 129 101 101 109 115 104 105 100
3730.0 102 113 111 124 105 143 107 119 108 111
3770.0 107 115 108 105 107 99 101 123 105 135
3810.0 94 136 121 133 103 110 127 131 117 121
3850.0 120 128 134 102 127 121 113 118 116 132
3890.0 125 115 116 129 120 102 130 105 128 128
3930.0 112 115 104 118 114 115 123 136 137 115
##END=
