##TITLE=Nonane
##JCAMP-DX=4.24
##DATA TYPE=INFRARED SPECTRUM
##ORIGIN=Sadtler Research Labs Under US-EPA Contract
##OWNER=NIST Standard Reference Data Program
##CAS REGISTRY NO=111-84-2
##MOLFORM=C 9 H 20
##XUNITS=1/CM
##YUNITS=ABSORBANCE
##XFACTOR=1.0
##YFACTOR=0.000115359
##DELTAX=4.0
##FIRSTX=450.0
##LASTX=3966.0
##FIRSTY=0.014997
##MAXX=3966
##MINX=450
##MAXY=1.15359
##MINY=0
##NPOINTS=880
##XYDATA=(X++(Y..Y))
450.0 130 175 210 180 35 168 85 114 78 111
490.0 82 55 77 61 76 47 97 59 94 69
530.0 97 62 58 86 60 93 66 102 45 74
570.0 81 57 91 80 70 0 164 118 73 73
610.0 75 61 80 69 78 71 81 86 68 74
650.0 79 84 74 78 76 70 86 82 95 85
690.0 96 104 123 132 150 175 194 216 223 213
730.0 198 210 202 185 179 163 160 152 158 149
770.0 165 141 116 117 148 93 103 103 89 90
810.0 102 97 104 103 104 106 109 110 109 115
850.0 109 107 107 108 107 106 121 120 124 127
890.0 134 139 142 129 115 113 109 105 113 115
930.0 114 113 106 99 102 105 102 101 100 104
970.0 105 105 110 111 112 111 107 105 104 102
1010.0 94 90 95 91 94 93 95 100 101 100
1050.0 103 105 106 105 106 107 105 109 114 114
1090.0 113 106 99 94 90 85 88 86 94 95
1130.0 100 101 100 97 97 96 92 84 84 85
1170.0 82 82 86 91 93 94 92 94 88 91
1210.0 92 93 95 97 95 97 95 98 101 103
1250.0 106 115 116 118 117 119 122 126 137 143
1290.0 155 163 169 178 180 182 172 168 157 161
1330.0 166 188 218 243 259 263 257 246 253 250
1370.0 266 293 360 395 411 371 285 228 190 175
1410.0 159 161 160 175 176 195 235 274 367 443
1450.0 590 687 844 950 979 941 807 660 499 364
1490.0 281 213 183 148 141 128 116 115 100 100
1530.0 88 92 86 79 75 76 76 70 73 68
1570.0 70 63 67 62 64 64 64 64 63 65
1610.0 57 60 57 61 62 58 61 59 59 58
1650.0 62 55 59 52 55 57 53 56 51 55
1690.0 51 54 47 54 47 50 47 49 50 46
1730.0 48 45 48 46 44 43 44 41 44 39
1770.0 39 38 37 41 42 40 41 38 37 39
1810.0 38 38 38 34 37 35 35 38 36 38
1850.0 33 36 36 36 35 35 36 35 36 33
1890.0 34 34 35 32 34 34 32 34 32 32
1930.0 33 33 31 30 31 31 29 28 29 29
1970.0 33 30 31 29 31 31 32 30 30 32
2010.0 34 35 35 37 39 40 41 40 39 39
2050.0 39 37 36 33 34 31 32 30 33 31
2090.0 29 30 27 30 29 26 27 28 27 25
2130.0 27 25 29 29 27 26 27 27 26 27
2170.0 27 27 26 26 27 28 27 27 29 28
2210.0 28 28 27 25 28 28 25 26 26 28
2250.0 27 24 25 27 25 26 26 26 29 30
2290.0 30 30 34 32 35 35 31 26 24 25
2330.0 29 20 20 22 27 30 25 27 22 22
2370.0 20 20 27 29 32 27 27 27 29 28
2410.0 27 28 25 27 25 25 25 24 22 20
2450.0 18 21 19 15 17 15 15 16 17 17
2490.0 17 18 19 21 20 21 22 25 25 26
2530.0 29 30 34 33 31 33 34 34 33 37
2570.0 37 39 41 44 48 52 52 56 55 56
2610.0 61 61 64 64 65 67 68 72 74 76
2650.0 79 84 88 89 94 101 105 106 107 105
2690.0 99 100 98 94 92 92 93 92 96 103
2730.0 109 120 131 136 141 137 131 127 127 126
2770.0 129 130 139 149 160 178 200 216 233 254
2810.0 275 302 330 365 405 456 527 636 820 1114
2850.0 1569 2202 2941 3543 3939 3966 3761 3603 3427 3169
2890.0 2883 2567 2412 2546 2859 3405 4176 5305 6772 8291
2930.0 9558 10000 9687 8637 7428 6127 5227 4968 5341 6051
2970.0 6205 5554 4229 2778 1813 1272 950 765 642 557
3010.0 500 447 404 368 337 307 282 254 234 210
3050.0 193 178 167 161 152 146 138 131 128 122
3090.0 118 114 109 105 101 97 94 89 92 85
3130.0 87 84 84 80 81 79 76 78 74 77
3170.0 72 71 71 70 68 68 68 62 60 55
3210.0 50 48 39 40 40 38 34 36 33 35
3250.0 32 33 34 29 29 31 28 29 28 26
3290.0 26 29 26 30 23 29 27 28 28 31
3330.0 28 32 33 32 32 27 31 33 29 30
3370.0 32 35 29 32 28 26 21 23 25 29
3410.0 23 28 27 25 25 26 30 28 22 22
3450.0 22 21 21 24 15 22 23 18 19 20
3490.0 20 24 18 20 16 21 18 15 18 18
3530.0 24 26 23 25 15 18 23 17 21 23
3570.0 23 29 23 17 22 28 28 25 32 24
3610.0 34 36 35 35 32 29 33 34 34 36
3650.0 33 37 41 30 36 29 38 33 40 30
3690.0 33 35 32 32 31 31 31 37 29 28
3730.0 30 26 23 32 28 33 32 29 35 24
3770.0 26 31 25 33 37 37 28 30 34 31
3810.0 33 27 24 29 27 26 29 17 24 19
3850.0 30 32 33 27 29 31 35 26 26 31
3890.0 20 38 41 18 23 26 28 22 30 26
3930.0 35 28 27 37 37 24 28 29 31 44
##END=
