##TITLE=Ethanol, 2-(2-methoxyethoxy)-
##JCAMP-DX=4.24
##DATA TYPE=INFRARED SPECTRUM
##ORIGIN=Sadtler Research Labs Under US-EPA Contract
##OWNER=NIST Standard Reference Data Program
##CAS REGISTRY NO=111-77-3
##MOLFORM=C 5 H 12 O 3
##XUNITS=1/CM
##YUNITS=ABSORBANCE
##XFACTOR=1.0
##YFACTOR=0.000126135
##DELTAX=4.0
##FIRSTX=450.0
##LASTX=3966.0
##FIRSTY=0.050076
##MAXX=3966
##MINX=450
##MAXY=1.26135
##MINY=0
##NPOINTS=880
##XYDATA=(X++(Y..Y))
450.0 397 234 205 175 179 148 205 140 217 155
490.0 214 181 202 198 233 275 235 289 273 325
530.0 286 298 298 277 274 257 278 216 274 188
570.0 215 117 203 119 59 52 0 234 269 83
610.0 133 111 101 107 107 125 102 87 105 113
650.0 133 115 126 116 127 108 107 116 106 73
690.0 195 82 123 107 125 137 123 115 113 123
730.0 115 131 114 160 102 140 127 135 136 142
770.0 146 170 183 194 219 233 255 292 322 344
810.0 368 398 430 469 515 591 639 723 790 847
850.0 882 901 896 874 861 848 868 894 939 963
890.0 972 970 949 912 882 888 904 937 951 957
930.0 921 868 806 739 693 662 655 656 682 700
970.0 725 751 782 817 849 900 935 973 1047 1148
1010.0 1266 1410 1581 1765 1953 2114 2283 2421 2613 2874
1050.0 3249 3740 4278 4798 5039 5053 4782 4337 3820 3509
1090.0 3414 3479 3749 4204 4876 5703 6770 7894 8980 9712
1130.0 10000 9910 9108 8126 7001 6030 5093 4307 3600 2995
1170.0 2539 2199 2000 1911 1945 2072 2269 2421 2451 2364
1210.0 2160 1844 1558 1363 1223 1145 1103 1122 1154 1212
1250.0 1248 1266 1252 1222 1185 1142 1124 1095 1086 1069
1290.0 1059 1031 983 911 835 770 710 693 718 768
1330.0 814 874 963 1115 1383 1624 1769 1786 1715 1532
1370.0 1325 1184 1117 1088 1086 1087 1086 1078 1047 988
1410.0 913 799 713 637 570 534 548 576 651 759
1450.0 962 1142 1339 1415 1367 1254 1057 851 675 562
1490.0 443 367 304 246 222 189 141 139 144 119
1530.0 116 97 134 116 99 83 101 105 123 68
1570.0 88 66 103 56 65 63 58 56 52 56
1610.0 39 60 66 52 47 41 58 53 32 63
1650.0 39 88 61 25 42 54 30 53 22 73
1690.0 26 47 55 85 39 37 51 57 50 47
1730.0 66 65 113 95 122 127 147 122 127 109
1770.0 96 101 58 60 38 56 41 34 22 30
1810.0 18 19 18 11 21 9 20 2 22 9
1850.0 15 12 14 14 18 20 21 23 24 30
1890.0 26 32 33 37 40 46 51 62 62 73
1930.0 82 87 95 103 107 116 120 121 122 121
1970.0 121 117 118 120 112 101 102 94 84 79
2010.0 74 69 67 71 76 75 73 77 77 76
2050.0 72 73 77 69 67 77 80 78 82 82
2090.0 83 83 81 79 75 69 71 69 73 76
2130.0 80 83 81 78 81 77 74 67 57 58
2170.0 59 50 50 46 40 41 35 33 34 28
2210.0 31 31 34 31 24 29 25 29 33 32
2250.0 29 31 33 32 30 31 29 30 25 24
2290.0 22 24 21 16 19 12 11 8 5 4
2330.0 4 8 3 20 10 25 2 15 2 2
2370.0 2 25 23 21 29 28 28 26 34 26
2410.0 30 28 29 26 26 23 25 25 24 25
2450.0 23 26 27 26 26 24 21 25 22 28
2490.0 28 29 25 34 27 30 35 41 41 39
2530.0 47 51 55 54 56 57 54 58 58 60
2570.0 64 72 70 73 72 78 81 86 87 86
2610.0 82 82 81 80 77 80 83 84 83 81
2650.0 87 88 96 107 113 129 138 152 165 180
2690.0 199 207 232 250 275 310 342 370 384 395
2730.0 400 392 397 394 387 389 398 404 417 443
2770.0 464 489 529 573 623 677 749 822 932 1082
2810.0 1276 1519 1806 2137 2401 2564 2685 2744 2786 2907
2850.0 3126 3443 3851 4298 4734 5192 5610 5958 6122 6181
2890.0 6115 5947 5775 5568 5356 5186 5098 5050 5132 5263
2930.0 5393 5441 5320 5141 4899 4632 4401 4181 3883 3482
2970.0 3029 2590 2187 1947 1874 1880 1806 1666 1468 1166
3010.0 871 641 513 414 356 307 282 258 243 217
3050.0 195 184 190 176 168 153 141 135 132 127
3090.0 122 109 107 91 96 79 88 81 65 65
3130.0 49 48 48 44 42 42 45 34 40 36
3170.0 40 29 40 16 22 27 35 18 24 22
3210.0 22 11 18 13 14 7 20 8 13 34
3250.0 7 12 11 18 24 22 12 18 29 18
3290.0 24 29 42 32 30 32 31 7 20 29
3330.0 34 26 31 35 35 45 37 37 36 47
3370.0 47 34 28 38 42 50 39 41 49 42
3410.0 36 35 48 49 50 54 41 62 58 61
3450.0 47 61 56 64 71 81 79 81 89 96
3490.0 97 103 115 126 134 147 170 201 236 265
3530.0 298 319 326 326 311 297 299 301 298 296
3570.0 280 281 280 251 238 234 226 230 272 279
3610.0 367 415 506 614 690 834 878 844 776 616
3650.0 477 374 335 305 281 293 264 283 206 186
3690.0 139 127 90 68 71 58 55 40 24 40
3730.0 40 31 46 87 68 62 74 39 37 34
3770.0 39 41 35 38 38 30 26 38 72 40
3810.0 52 2 43 40 50 38 52 33 37 31
3850.0 43 65 24 23 74 21 34 34 34 35
3890.0 56 34 52 63 37 23 43 28 21 17
3930.0 39 57 60 78 80 38 80 53 43 56
##END=
