##TITLE=1,5-Pentanediol
##JCAMP-DX=4.24
##DATA TYPE=INFRARED SPECTRUM
##ORIGIN=Sadtler Research Labs Under US-EPA Contract
##OWNER=NIST Standard Reference Data Program
##CAS REGISTRY NO=111-29-5
##MOLFORM=C 5 H 12 O 2
##XUNITS=1/CM
##YUNITS=ABSORBANCE
##XFACTOR=1.0
##YFACTOR=0.000118372
##DELTAX=4.0
##FIRSTX=450.0
##LASTX=3966.0
##FIRSTY=0.048887
##MAXX=3966
##MINX=450
##MAXY=1.18372
##MINY=0
##NPOINTS=880
##XYDATA=(X++(Y..Y))
450.0 413 390 427 252 324 234 252 227 261 318
490.0 264 232 269 303 266 279 291 306 225 242
530.0 217 200 289 99 128 125 147 102 98 87
570.0 94 80 72 43 83 120 56 63 45 77
610.0 63 52 49 42 38 46 85 61 65 45
650.0 80 51 51 63 10 120 43 93 52 43
690.0 8 52 53 70 81 80 96 88 147 158
730.0 184 113 139 178 153 133 120 96 98 95
770.0 97 103 88 85 100 82 112 105 110 103
810.0 122 124 129 143 154 170 182 207 207 267
850.0 281 320 350 377 446 512 583 645 703 720
890.0 772 788 821 873 915 983 1009 1052 1050 1054
930.0 1014 977 959 942 959 978 1024 1064 1127 1184
970.0 1241 1306 1383 1482 1569 1694 1834 2027 2214 2483
1010.0 2790 3186 3705 4325 5015 5538 5988 6150 6152 5948
1050.0 5810 5730 5669 5663 5516 5349 5173 4994 4638 4105
1090.0 3465 2801 2237 1793 1473 1248 1102 1012 959 916
1130.0 901 889 878 875 854 851 854 872 878 896
1170.0 905 918 935 950 977 987 1008 1038 1086 1110
1210.0 1145 1180 1212 1251 1270 1308 1316 1319 1299 1281
1250.0 1268 1246 1219 1182 1162 1126 1115 1088 1076 1059
1290.0 1040 1015 985 956 924 908 890 882 884 899
1330.0 914 937 981 1011 1051 1076 1097 1106 1146 1196
1370.0 1289 1413 1554 1686 1775 1790 1708 1558 1358 1142
1410.0 961 816 732 672 649 650 694 729 779 806
1450.0 841 849 855 816 772 792 770 717 652 600
1490.0 469 354 267 199 166 149 111 96 91 76
1530.0 70 52 66 57 55 43 47 49 57 28
1570.0 36 26 39 17 25 20 20 23 22 24
1610.0 15 34 36 45 45 62 81 93 83 104
1650.0 81 120 84 59 64 53 21 30 2 25
1690.0 1 13 12 24 5 0 14 15 18 11
1730.0 24 22 42 31 37 47 62 51 57 67
1770.0 65 73 64 71 60 77 45 39 28 22
1810.0 12 14 17 8 15 6 14 1 11 4
1850.0 8 3 5 7 7 8 5 8 7 9
1890.0 7 6 10 11 10 11 16 17 19 17
1930.0 20 20 17 21 19 22 20 23 20 19
1970.0 21 25 25 22 28 28 30 30 28 29
2010.0 36 36 37 43 41 45 49 51 50 52
2050.0 48 51 43 40 37 32 31 29 28 26
2090.0 25 23 19 16 14 14 9 8 5 7
2130.0 3 7 11 6 6 6 6 6 9 6
2170.0 8 11 10 12 8 10 6 9 10 1
2210.0 1 10 11 7 8 13 11 6 4 8
2250.0 5 8 8 5 6 4 7 9 8 14
2290.0 17 26 33 34 46 49 55 59 53 51
2330.0 47 40 37 34 28 56 73 70 37 10
2370.0 1 1 3 10 19 22 24 23 27 30
2410.0 31 29 32 31 32 32 32 32 29 27
2450.0 26 24 22 20 14 18 16 17 14 11
2490.0 19 15 11 11 10 12 18 18 21 25
2530.0 30 32 29 28 28 26 23 25 32 34
2570.0 32 35 35 34 40 38 43 42 46 50
2610.0 58 61 65 69 76 78 85 84 88 95
2650.0 98 108 117 120 128 138 147 151 159 165
2690.0 180 198 205 210 230 238 251 256 270 286
2730.0 304 321 334 352 362 381 389 403 417 435
2770.0 456 471 490 507 531 545 560 582 601 621
2810.0 648 681 727 790 871 979 1132 1339 1599 1925
2850.0 2306 2741 3232 3755 4268 4804 5275 5624 5778 5726
2890.0 5581 5407 5288 5309 5496 5844 6301 6904 7572 8302
2930.0 9007 9663 9961 10000 9620 8908 7961 6935 5847 4848
2970.0 3938 3129 2419 1857 1429 1107 880 704 573 473
3010.0 397 337 301 263 227 201 189 166 150 146
3050.0 133 120 114 108 107 97 94 92 81 77
3090.0 72 67 54 53 42 39 35 43 34 24
3130.0 31 44 31 28 41 32 43 33 41 33
3170.0 26 27 28 33 30 39 25 34 21 34
3210.0 24 23 28 28 30 18 24 15 31 30
3250.0 15 20 18 12 18 5 16 14 11 3
3290.0 6 9 4 4 11 9 21 19 18 18
3330.0 8 5 12 5 22 26 26 34 23 21
3370.0 19 17 40 23 42 30 30 42 49 55
3410.0 45 52 67 67 70 59 78 101 91 86
3450.0 90 86 89 96 110 99 123 127 130 118
3490.0 111 124 105 111 110 102 95 104 103 101
3530.0 104 98 112 108 126 125 125 152 174 164
3570.0 180 187 191 206 191 243 223 215 218 223
3610.0 224 217 252 244 256 330 379 460 584 739
3650.0 982 1204 1526 1752 2021 2099 2047 1808 1563 1211
3690.0 836 610 469 375 317 267 172 179 156 125
3730.0 143 158 137 106 124 118 113 119 106 99
3770.0 104 120 97 99 75 90 90 99 97 139
3810.0 115 95 127 102 90 157 135 174 126 106
3850.0 124 196 180 136 162 146 179 172 156 162
3890.0 156 144 126 135 132 137 131 130 154 129
3930.0 118 117 99 118 149 139 151 136 122 164
##END=
