##TITLE=1-Heptanol
##JCAMP-DX=4.24
##DATA TYPE=INFRARED SPECTRUM
##ORIGIN=Sadtler Research Labs Under US-EPA Contract
##OWNER=NIST Standard Reference Data Program
##CAS REGISTRY NO=111-70-6
##MOLFORM=C 7 H 16 O
##XUNITS=1/CM
##YUNITS=ABSORBANCE
##XFACTOR=1.0
##YFACTOR=0.000153845
##DELTAX=4.0
##FIRSTX=450.0
##LASTX=3966.0
##FIRSTY=0.000000
##MAXX=3966
##MINX=450
##MAXY=1.53845
##MINY=0
##NPOINTS=880
##XYDATA=(X++(Y..Y))
450.0 0 393 560 1009 901 352 643 786 378 517
490.0 299 596 443 543 738 514 488 411 578 580
530.0 554 500 539 503 486 498 465 506 464 496
570.0 442 479 443 505 469 405 434 446 442 446
610.0 458 449 449 446 454 433 449 452 455 459
650.0 441 450 433 450 443 455 437 442 438 447
690.0 426 475 506 487 489 513 553 547 586 581
730.0 562 540 509 543 519 513 489 486 503 498
770.0 484 489 491 476 472 463 483 475 470 454
810.0 476 460 481 456 450 455 541 497 508 523
850.0 560 558 574 589 590 597 623 610 600 607
890.0 614 616 621 636 651 650 663 655 648 643
930.0 664 674 680 698 717 722 748 765 789 803
970.0 818 820 875 872 897 950 1016 1086 1158 1232
1010.0 1320 1418 1535 1689 1888 2128 2352 2535 2655 2713
1050.0 2756 2767 2714 2550 2330 2060 1816 1604 1439 1290
1090.0 1168 1066 985 918 873 826 783 747 711 683
1130.0 655 635 623 621 618 622 630 639 650 662
1170.0 668 675 680 688 692 699 696 709 721 732
1210.0 734 748 760 770 777 786 791 796 792 785
1250.0 782 779 777 777 781 782 788 779 778 777
1290.0 767 761 755 752 741 736 723 720 714 718
1330.0 733 755 790 817 845 857 861 855 861 877
1370.0 918 997 1100 1194 1247 1267 1182 1068 947 835
1410.0 762 706 681 655 665 671 718 756 839 908
1450.0 1006 1109 1188 1255 1254 1233 1153 1059 931 816
1490.0 704 602 549 510 488 469 463 451 438 436
1530.0 426 426 410 412 409 412 406 400 392 398
1570.0 396 396 388 392 390 388 387 389 389 388
1610.0 387 384 379 384 378 384 376 375 376 378
1650.0 373 372 372 381 374 377 374 380 378 371
1690.0 374 381 368 367 373 372 372 372 370 376
1730.0 372 375 373 374 375 380 378 380 379 376
1770.0 376 364 369 370 370 369 366 366 370 369
1810.0 366 367 371 369 369 366 367 370 367 367
1850.0 369 367 368 370 369 366 365 364 367 363
1890.0 368 364 368 370 370 372 366 366 367 369
1930.0 368 370 372 372 371 372 371 367 367 368
1970.0 366 366 367 366 365 367 366 368 367 366
2010.0 364 364 369 367 369 369 371 375 379 377
2050.0 378 375 376 376 375 373 376 374 370 371
2090.0 367 368 366 367 363 364 364 362 363 359
2130.0 362 364 361 361 362 358 360 362 362 358
2170.0 360 361 362 359 357 357 360 357 356 358
2210.0 357 360 357 360 360 357 359 357 357 355
2250.0 357 358 358 354 358 354 355 352 353 357
2290.0 360 354 351 357 354 358 360 359 370 358
2330.0 360 359 352 347 326 347 361 364 337 326
2370.0 326 326 326 326 336 347 351 352 358 352
2410.0 351 354 355 352 350 346 343 346 347 349
2450.0 344 345 342 345 339 335 339 338 336 338
2490.0 335 335 340 337 338 339 334 336 336 332
2530.0 333 333 333 329 330 330 328 331 326 335
2570.0 327 334 334 338 340 343 346 345 340 347
2610.0 348 340 351 353 356 355 366 372 378 381
2650.0 383 389 394 396 412 429 427 437 442 443
2690.0 443 446 444 444 447 443 442 450 453 460
2730.0 480 485 504 505 517 517 515 525 524 531
2770.0 542 546 555 573 586 603 619 639 665 679
2810.0 702 726 759 799 850 916 1019 1161 1379 1697
2850.0 2110 2653 3276 3860 4332 4650 4759 4826 4718 4456
2890.0 4175 3848 3671 3727 4029 4482 5163 6043 7176 8218
2930.0 9208 9937 10000 9679 8654 7752 6687 6053 5767 5818
2970.0 5568 4935 4059 2935 2096 1559 1239 1039 911 826
3010.0 751 700 664 637 606 581 560 541 525 501
3050.0 486 476 454 437 438 431 428 423 411 411
3090.0 415 393 395 404 403 388 385 386 388 379
3130.0 378 391 384 378 380 382 371 387 378 375
3170.0 388 391 391 394 391 388 399 388 388 392
3210.0 383 370 365 370 365 366 362 359 363 368
3250.0 375 371 364 369 374 360 347 357 365 361
3290.0 362 338 350 349 342 334 343 334 336 330
3330.0 338 335 331 338 338 338 329 332 336 343
3370.0 337 344 338 351 342 337 353 340 350 351
3410.0 357 360 360 353 349 350 348 354 352 359
3450.0 353 354 354 364 368 359 370 366 357 353
3490.0 365 355 371 368 368 362 361 371 352 356
3530.0 360 349 336 343 366 360 354 361 357 370
3570.0 358 361 355 357 377 370 370 370 372 382
3610.0 398 397 409 404 414 427 436 467 512 574
3650.0 628 716 823 909 968 1028 985 921 830 691
3690.0 591 508 450 448 399 396 392 392 410 400
3730.0 396 372 367 385 385 370 360 372 371 364
3770.0 377 390 392 387 396 373 384 405 366 395
3810.0 382 373 384 376 400 380 383 382 389 379
3850.0 409 364 376 395 382 398 392 403 402 401
3890.0 376 391 401 391 390 388 387 376 374 395
3930.0 374 391 395 377 381 397 388 387 393 388
##END=
