##TITLE=1-Octanamine
##JCAMP-DX=4.24
##DATA TYPE=INFRARED SPECTRUM
##ORIGIN=Sadtler Research Labs Under US-EPA Contract
##OWNER=NIST Standard Reference Data Program
##CAS REGISTRY NO=111-86-4
##MOLFORM=C 8 H 19 N
##XUNITS=1/CM
##YUNITS=ABSORBANCE
##XFACTOR=1.0
##YFACTOR=0.000116736
##DELTAX=4.0
##FIRSTX=450.0
##LASTX=3966.0
##FIRSTY=0.085684
##MAXX=3966
##MINX=450
##MAXY=1.16736
##MINY=0
##NPOINTS=880
##XYDATA=(X++(Y..Y))
450.0 734 277 63 284 197 172 103 174 128 69
490.0 151 0 218 14 10 83 196 144 145 147
530.0 130 185 93 169 105 146 100 88 137 164
570.0 136 177 147 128 231 177 94 152 106 131
610.0 192 85 164 164 192 162 169 189 161 196
650.0 184 187 215 165 220 318 244 274 246 280
690.0 333 345 409 408 444 459 525 618 609 702
730.0 787 749 831 1010 1300 1188 1338 1483 1509 1616
770.0 1682 1673 1664 1626 1479 1255 1089 874 698 639
810.0 516 522 483 445 373 354 359 348 309 307
850.0 192 184 208 194 191 201 182 214 233 167
890.0 196 205 131 113 183 195 109 164 91 191
930.0 156 160 129 183 207 157 174 137 157 165
970.0 155 185 151 156 137 134 140 142 140 132
1010.0 123 136 153 159 189 198 211 204 229 274
1050.0 287 316 298 314 357 387 421 440 414 354
1090.0 334 299 280 246 207 204 194 138 88 122
1130.0 111 99 115 90 84 86 89 95 88 93
1170.0 110 101 102 122 115 112 115 117 132 149
1210.0 131 130 110 102 134 115 106 129 121 114
1250.0 117 120 107 107 117 119 126 133 140 120
1290.0 152 179 185 196 214 182 195 185 170 167
1330.0 192 187 229 247 276 312 337 357 378 397
1370.0 396 426 461 487 497 470 405 334 257 218
1410.0 190 170 172 170 180 217 256 323 401 488
1450.0 596 691 785 841 859 795 704 572 453 327
1490.0 278 229 193 176 162 152 154 140 133 136
1530.0 130 136 121 125 120 125 127 121 118 131
1570.0 134 141 149 157 168 180 198 226 257 297
1610.0 346 407 464 519 495 452 379 295 247 191
1650.0 151 125 106 101 97 96 95 88 81 62
1690.0 59 61 49 54 54 52 56 52 57 59
1730.0 58 59 55 58 59 54 58 61 58 51
1770.0 53 54 60 58 59 58 56 58 60 61
1810.0 57 55 55 55 61 57 56 55 56 54
1850.0 61 59 53 49 49 45 44 45 43 40
1890.0 41 40 39 41 39 38 36 39 37 36
1930.0 37 40 40 37 36 36 37 36 37 36
1970.0 34 34 35 34 36 35 35 36 35 36
2010.0 36 37 37 40 43 42 40 44 43 43
2050.0 44 43 40 39 37 38 37 36 39 36
2090.0 34 32 32 34 34 31 34 28 28 30
2130.0 27 27 29 29 29 26 27 26 27 25
2170.0 20 20 25 27 26 22 23 21 17 17
2210.0 18 19 18 20 21 20 19 23 19 20
2250.0 21 21 21 21 19 19 16 19 15 15
2290.0 15 17 12 9 11 12 16 25 20 29
2330.0 23 35 38 31 23 28 32 35 36 31
2370.0 25 21 22 21 18 21 26 30 28 28
2410.0 30 30 35 34 31 35 38 33 36 38
2450.0 34 34 37 37 36 38 39 37 41 38
2490.0 37 43 45 44 43 46 47 49 52 57
2530.0 55 58 60 59 62 62 62 64 66 68
2570.0 63 66 71 73 71 77 79 78 76 78
2610.0 78 82 89 88 87 93 100 106 109 113
2650.0 115 121 124 133 139 145 150 156 158 163
2690.0 156 160 159 158 154 151 155 159 166 169
2730.0 183 199 208 216 229 230 234 237 236 236
2770.0 234 238 244 248 262 274 299 321 348 375
2810.0 408 457 511 577 661 769 917 1115 1389 1778
2850.0 2310 2966 3629 4092 4254 4099 3731 3384 3090 2814
2890.0 2596 2450 2463 2705 3113 3704 4525 5595 6976 8404
2930.0 9574 10000 9505 8471 7083 5704 4691 4084 3902 3958
2970.0 3829 3339 2573 1757 1207 890 691 566 477 415
3010.0 372 338 307 282 264 243 220 205 181 162
3050.0 151 135 123 117 114 107 100 88 87 78
3090.0 69 64 56 55 52 48 38 41 41 37
3130.0 40 39 44 41 40 39 41 39 41 38
3170.0 39 41 37 42 42 37 37 36 27 32
3210.0 25 22 24 24 24 21 21 18 17 14
3250.0 9 14 12 14 16 14 9 10 10 14
3290.0 16 11 16 12 16 15 13 10 17 27
3330.0 32 30 41 59 55 52 47 37 34 23
3370.0 24 23 17 24 17 20 11 16 19 25
3410.0 25 26 23 21 19 20 21 22 32 21
3450.0 17 23 24 19 17 24 33 34 26 27
3490.0 30 31 29 30 25 28 37 26 26 34
3530.0 22 24 29 25 24 26 27 21 20 28
3570.0 28 25 20 30 24 20 26 17 24 20
3610.0 28 20 26 22 23 20 22 27 31 24
3650.0 19 27 27 32 17 22 24 24 24 14
3690.0 27 32 35 27 20 33 30 30 29 31
3730.0 31 27 24 35 18 23 30 34 33 32
3770.0 28 35 39 22 32 24 24 35 41 51
3810.0 42 34 41 36 21 25 46 41 43 40
3850.0 22 30 37 46 29 41 43 52 50 22
3890.0 27 46 34 64 28 40 47 53 41 39
3930.0 66 39 24 44 47 26 25 27 47 62
##END=
