##TITLE=Hexane, 1-bromo-
##JCAMP-DX=4.24
##DATA TYPE=INFRARED SPECTRUM
##ORIGIN=Sadtler Research Labs Under US-EPA Contract
##OWNER=NIST Standard Reference Data Program
##CAS REGISTRY NO=111-25-1
##MOLFORM=C 6 H 13 Br
##XUNITS=1/CM
##YUNITS=ABSORBANCE
##XFACTOR=1.0
##YFACTOR=0.000066553
##DELTAX=4.0
##FIRSTX=450.0
##LASTX=3966.0
##FIRSTY=0.007920
##MAXX=3966
##MINX=450
##MAXY=0.66553
##MINY=0
##NPOINTS=880
##XYDATA=(X++(Y..Y))
450.0 119 94 76 68 95 39 40 112 232 111
490.0 112 146 141 159 212 264 223 82 127 287
530.0 160 261 204 249 222 287 462 653 789 849
570.0 937 784 762 525 427 301 186 284 306 215
610.0 277 345 205 274 257 393 523 516 694 969
650.0 1031 1059 1020 641 515 205 251 293 279 263
690.0 315 239 197 308 256 428 359 476 629 518
730.0 623 622 569 474 341 336 428 392 341 379
770.0 336 296 325 297 256 349 233 300 280 293
810.0 421 308 291 270 282 249 275 311 376 272
850.0 308 370 376 346 309 317 218 302 273 327
890.0 235 235 275 236 270 287 274 293 245 217
930.0 303 236 257 263 255 303 331 364 372 345
970.0 263 302 291 307 345 298 238 261 233 257
1010.0 265 193 244 174 210 243 270 314 260 243
1050.0 244 236 210 281 206 180 210 199 224 205
1090.0 215 211 195 157 257 265 249 184 179 204
1130.0 181 189 221 182 166 210 221 229 242 275
1170.0 258 263 277 335 353 380 490 543 730 826
1210.0 866 761 638 590 774 964 1204 1475 1560 1612
1250.0 1688 1728 1733 1610 1328 1213 1137 1117 1226 1201
1290.0 1177 1053 865 799 733 672 613 538 424 402
1330.0 354 443 458 502 533 512 495 470 481 442
1370.0 445 430 515 581 576 581 456 354 321 295
1410.0 294 329 279 383 441 541 772 967 1176 1298
1450.0 1387 1380 1423 1494 1495 1383 1118 958 742 572
1490.0 429 348 235 258 117 186 185 138 98 112
1530.0 137 121 126 80 125 82 101 57 96 99
1570.0 88 74 90 109 118 139 87 104 99 102
1610.0 115 101 90 84 90 99 91 84 106 83
1650.0 75 15 98 101 103 69 73 103 55 90
1690.0 98 77 67 46 80 105 86 73 104 81
1730.0 94 68 91 103 100 78 93 78 70 117
1770.0 53 59 76 70 93 76 72 83 68 74
1810.0 95 80 83 77 62 60 75 81 75 55
1850.0 52 80 70 70 69 64 68 55 69 85
1890.0 81 71 84 70 80 68 96 74 74 68
1930.0 74 87 78 92 75 78 66 68 95 71
1970.0 71 86 68 72 96 77 91 62 75 82
2010.0 75 81 82 76 60 82 76 95 87 74
2050.0 91 68 67 92 96 72 80 55 79 62
2090.0 66 83 61 49 58 71 59 73 59 53
2130.0 53 52 74 67 58 65 62 60 74 73
2170.0 87 61 55 72 72 79 65 74 65 64
2210.0 62 87 72 64 69 63 68 75 83 82
2250.0 66 48 80 63 58 77 48 53 47 51
2290.0 57 58 34 49 39 27 41 43 18 11
2330.0 9 11 45 9 79 13 10 10 11 40
2370.0 32 40 37 47 44 65 71 60 62 54
2410.0 62 62 71 63 79 46 60 66 63 73
2450.0 48 57 48 48 61 70 54 55 53 54
2490.0 57 67 72 61 50 51 82 60 71 65
2530.0 59 75 62 93 88 67 68 77 70 84
2570.0 84 86 84 69 90 93 93 87 113 72
2610.0 92 102 109 124 96 102 119 105 116 142
2650.0 123 127 122 135 151 150 156 149 149 136
2690.0 182 165 166 148 131 143 129 143 152 145
2730.0 131 154 160 205 195 203 195 163 173 176
2770.0 189 176 187 185 209 222 259 306 283 306
2810.0 337 367 403 445 490 596 661 844 1137 1403
2850.0 1800 2268 2831 3375 3889 4143 4274 4263 4249 4121
2890.0 3826 3495 3219 3196 3369 3724 4187 4996 5921 6953
2930.0 8340 9004 9963 10000 9511 8495 7679 6961 7352 7935
2970.0 8631 8422 6988 5104 3390 2384 1764 1412 1211 1214
3010.0 1247 1256 1212 1037 846 635 519 428 370 322
3050.0 310 268 230 222 216 232 211 210 187 192
3090.0 158 213 190 174 181 144 174 145 155 166
3130.0 159 115 141 152 148 147 131 139 124 124
3170.0 138 168 100 135 128 108 141 114 146 114
3210.0 82 104 104 82 99 85 70 70 81 104
3250.0 98 82 61 97 61 85 92 79 87 52
3290.0 71 83 76 85 86 40 59 66 94 96
3330.0 66 85 69 68 77 101 96 73 74 87
3370.0 99 82 105 98 68 77 98 90 109 79
3410.0 87 101 53 107 100 95 71 93 80 103
3450.0 99 96 114 40 70 95 93 78 87 53
3490.0 82 51 79 109 70 73 71 81 73 102
3530.0 82 78 57 61 99 77 77 84 59 31
3570.0 62 70 88 71 37 72 51 72 73 85
3610.0 52 49 59 84 84 74 99 78 76 70
3650.0 74 90 78 80 89 49 60 111 89 91
3690.0 65 87 108 93 94 79 77 59 82 78
3730.0 77 59 55 38 44 27 92 75 50 76
3770.0 61 100 88 87 80 69 55 74 70 45
3810.0 63 39 32 32 52 51 68 10 25 39
3850.0 22 51 50 49 28 28 59 64 48 38
3890.0 51 31 43 50 65 51 29 37 61 61
3930.0 78 97 75 82 78 131 0 10 10 10
##END=
