##TITLE=Octanoic acid, methyl ester
##JCAMP-DX=4.24
##DATA TYPE=INFRARED SPECTRUM
##ORIGIN=Sadtler Research Labs Under US-EPA Contract
##OWNER=NIST Standard Reference Data Program
##CAS REGISTRY NO=111-11-5
##MOLFORM=C 9 H 18 O 2
##XUNITS=1/CM
##YUNITS=ABSORBANCE
##XFACTOR=1.0
##YFACTOR=0.000063721
##DELTAX=4.0
##FIRSTX=450.0
##LASTX=3966.0
##FIRSTY=0.000000
##MAXX=3966
##MINX=450
##MAXY=0.63721
##MINY=0
##NPOINTS=880
##XYDATA=(X++(Y..Y))
450.0 0 128 125 126 132 77 34 77 156 130
490.0 95 85 41 10 138 250 150 24 105 242
530.0 180 136 119 180 115 88 209 297 205 78
570.0 282 259 211 378 262 343 236 221 292 296
610.0 341 373 263 381 429 262 269 355 260 343
650.0 274 326 332 324 233 277 316 348 341 313
690.0 366 401 393 359 432 515 488 485 511 524
730.0 561 584 481 624 542 509 463 510 443 446
770.0 400 383 452 463 453 492 472 486 517 522
810.0 541 538 509 572 661 569 679 585 698 694
850.0 610 659 632 646 651 614 567 587 505 504
890.0 508 433 430 430 367 376 374 391 403 361
930.0 347 384 345 344 352 315 334 343 352 394
970.0 413 420 492 547 621 656 730 841 956 999
1010.0 1069 1125 1167 1208 1190 1234 1227 1200 1165 1104
1050.0 1013 947 896 858 879 813 827 870 879 977
1090.0 1076 1233 1442 1677 1893 2113 2129 2091 1987 1869
1130.0 1806 1856 1946 2184 2531 3071 3901 4774 5660 6405
1170.0 6550 6319 5749 5118 4769 4582 4635 4822 4865 4836
1210.0 4703 4448 4279 4130 4048 4018 3936 3894 3871 3832
1250.0 3821 3757 3568 3324 3039 2697 2467 2213 2028 1915
1290.0 1811 1752 1760 1762 1749 1687 1652 1636 1603 1527
1330.0 1513 1496 1534 1612 1727 1860 2022 2093 2072 1941
1370.0 1734 1559 1370 1213 1070 884 732 655 596 575
1410.0 604 628 711 798 1009 1335 1891 2434 2690 2396
1450.0 1985 1872 1803 1900 1810 1673 1381 1132 896 704
1490.0 571 524 430 410 356 334 347 325 247 279
1530.0 322 268 280 201 258 297 271 207 226 268
1570.0 261 285 228 277 273 258 256 249 246 254
1610.0 239 243 184 218 212 223 201 190 216 183
1650.0 202 102 216 233 222 204 224 224 265 188
1690.0 287 319 300 327 461 571 685 794 1040 1327
1730.0 1697 2134 2843 3697 4874 6364 8089 9581 10000 8978
1770.0 7244 5467 4101 3044 2179 1526 1047 763 578 469
1810.0 357 322 278 240 226 186 198 190 174 162
1850.0 176 170 169 176 151 157 163 159 169 141
1890.0 143 157 153 146 151 143 143 127 140 149
1930.0 142 147 159 148 155 160 151 161 155 157
1970.0 164 148 169 162 163 175 166 173 183 171
2010.0 175 185 185 194 185 193 198 193 188 196
2050.0 187 181 194 176 166 184 160 160 160 142
2090.0 140 145 127 130 128 112 111 106 117 101
2130.0 96 110 94 92 102 86 91 95 82 88
2170.0 86 87 87 69 70 84 77 72 78 63
2210.0 70 68 67 63 68 60 61 59 51 66
2250.0 50 60 55 53 60 59 52 69 47 53
2290.0 66 49 56 47 47 36 20 20 27 22
2330.0 14 21 8 17 10 24 46 13 8 25
2370.0 22 13 32 35 57 68 57 66 65 49
2410.0 64 59 47 63 50 68 59 43 60 50
2450.0 45 60 43 50 60 47 58 46 51 57
2490.0 57 56 66 45 54 53 46 60 57 53
2530.0 59 53 58 65 60 57 70 71 64 79
2570.0 71 88 77 75 89 82 88 101 92 90
2610.0 105 104 113 106 97 114 100 108 115 115
2650.0 115 130 115 135 129 133 138 132 147 147
2690.0 148 137 136 131 142 132 134 132 122 142
2730.0 150 134 149 169 159 165 162 147 177 166
2770.0 159 181 166 191 207 215 247 255 259 291
2810.0 303 327 375 413 485 556 620 774 965 1247
2850.0 1696 2211 2845 3474 3911 4043 3906 3614 3384 3124
2890.0 2827 2565 2476 2612 2962 3469 4158 5081 6159 7499
2930.0 8731 9496 9849 9482 8697 7892 7309 7414 7694 7805
2970.0 7325 6090 4652 3301 2405 1925 1688 1515 1392 1256
3010.0 1115 1034 955 889 868 811 744 671 551 516
3050.0 439 390 373 328 301 293 275 265 278 251
3090.0 252 247 227 217 203 195 195 189 165 171
3130.0 128 142 152 140 140 135 120 135 119 111
3170.0 121 111 117 99 100 116 102 101 108 110
3210.0 91 97 74 81 85 66 76 87 73 87
3250.0 74 59 72 59 85 68 68 76 72 62
3290.0 91 70 68 72 70 86 76 61 80 78
3330.0 63 78 77 75 81 74 74 79 65 76
3370.0 84 65 97 82 72 94 62 81 104 65
3410.0 82 98 84 89 89 77 91 85 103 109
3450.0 82 92 116 94 117 90 87 115 121 142
3490.0 149 164 162 177 181 166 159 118 129 121
3530.0 99 117 88 103 112 94 95 79 67 93
3570.0 73 99 93 78 87 72 67 73 67 73
3610.0 75 75 75 82 83 51 68 76 86 75
3650.0 37 77 54 76 78 27 38 29 60 80
3690.0 45 43 78 46 63 39 20 60 51 38
3730.0 67 15 9 24 9 10 9 25 41 42
3770.0 24 40 36 42 41 34 32 35 9 35
3810.0 10 20 20 15 29 47 12 10 11 12
3850.0 14 10 18 38 45 21 32 22 20 29
3890.0 18 33 32 34 42 46 41 39 31 41
3930.0 72 73 76 67 69 84 4 10 10 10
##END=
