##TITLE=1,2-Ethanediol, diacetate
##JCAMP-DX=4.24
##DATA TYPE=INFRARED SPECTRUM
##ORIGIN=Sadtler Research Labs Under US-EPA Contract
##OWNER=NIST Standard Reference Data Program
##CAS REGISTRY NO=111-55-7
##MOLFORM=C 6 H 10 O 4
##XUNITS=1/CM
##YUNITS=ABSORBANCE
##XFACTOR=1.0
##YFACTOR=0.000053867
##DELTAX=4.0
##FIRSTX=450.0
##LASTX=3966.0
##FIRSTY=0.003447
##MAXX=3966
##MINX=450
##MAXY=0.53867
##MINY=0
##NPOINTS=880
##XYDATA=(X++(Y..Y))
450.0 64 80 71 64 70 59 70 81 82 85
490.0 65 74 72 89 34 41 62 53 48 34
530.0 29 50 50 0 6 19 0 27 16 35
570.0 30 48 66 93 99 156 165 207 250 260
610.0 243 225 224 198 204 243 225 254 236 202
650.0 151 97 90 86 59 78 68 75 66 55
690.0 56 69 58 60 62 59 49 40 49 57
730.0 59 64 60 70 60 61 67 72 74 74
770.0 84 75 92 101 125 141 141 157 149 158
810.0 170 172 182 181 189 190 201 210 219 241
850.0 249 258 259 255 259 225 200 191 171 171
890.0 161 172 199 209 232 238 259 278 279 282
930.0 290 298 325 353 382 430 467 493 483 474
970.0 412 371 336 324 350 414 470 498 494 453
1010.0 407 365 360 394 454 569 705 880 1112 1367
1050.0 1619 1786 1851 1822 1710 1590 1488 1380 1254 1116
1090.0 956 788 654 530 419 362 306 281 238 231
1130.0 206 195 179 176 166 175 174 194 202 229
1170.0 255 288 340 406 504 660 933 1376 2164 3562
1210.0 5617 8025 9733 10000 8763 6616 4875 3963 3502 3154
1250.0 2769 2388 2044 1787 1625 1509 1419 1312 1186 1048
1290.0 873 692 548 446 361 307 268 247 241 243
1330.0 241 253 233 254 272 332 483 671 875 1149
1370.0 1433 1664 1772 1651 1361 997 696 513 433 384
1410.0 340 315 284 279 295 320 349 387 415 443
1450.0 452 440 431 384 349 307 259 208 202 174
1490.0 164 159 148 145 148 123 117 123 118 113
1530.0 104 115 110 114 104 104 108 119 96 90
1570.0 90 81 98 78 74 69 82 61 72 66
1610.0 70 72 82 79 78 90 86 98 94 100
1650.0 96 133 98 102 100 113 98 106 93 108
1690.0 114 127 137 176 183 224 268 331 376 445
1730.0 523 614 766 1007 1375 1962 2855 4114 5486 6269
1770.0 6441 5765 4353 3118 2209 1532 1074 760 563 447
1810.0 361 313 271 231 202 163 133 124 105 95
1850.0 89 83 83 73 71 74 65 74 74 73
1890.0 71 71 73 62 54 54 53 52 50 52
1930.0 54 46 39 42 43 44 45 45 43 43
1970.0 43 36 37 33 42 43 42 48 54 49
2010.0 51 61 60 60 61 69 72 70 70 60
2050.0 62 61 61 52 60 51 51 51 50 50
2090.0 50 51 50 50 46 42 42 40 41 41
2130.0 31 32 30 31 20 30 23 24 16 21
2170.0 22 21 21 31 29 29 31 20 29 29
2210.0 29 29 28 28 28 28 27 18 18 27
2250.0 19 19 19 18 18 17 21 22 27 25
2290.0 17 26 25 25 24 18 24 25 28 18
2330.0 21 13 24 14 5 23 31 31 11 3
2370.0 1 4 15 15 22 14 17 23 15 23
2410.0 15 16 21 15 15 15 14 14 14 14
2450.0 23 23 23 23 23 21 21 18 13 13
2490.0 12 12 13 12 4 12 2 20 12 11
2530.0 22 10 11 11 12 12 18 13 11 19
2570.0 11 11 11 11 11 15 8 14 20 18
2610.0 10 19 19 10 8 18 8 8 7 13
2650.0 14 9 9 9 9 0 9 8 8 8
2690.0 8 8 8 9 15 8 8 8 18 17
2730.0 9 8 9 15 8 16 13 17 17 18
2770.0 19 16 17 18 17 28 18 26 26 26
2810.0 26 26 26 26 26 26 27 28 37 37
2850.0 38 37 47 52 58 65 70 72 90 99
2890.0 99 108 108 120 124 128 117 107 119 123
2930.0 132 151 161 226 300 376 461 551 603 598
2970.0 575 523 455 405 357 322 302 283 255 236
3010.0 199 180 153 142 125 123 108 116 102 101
3050.0 91 92 83 83 73 73 72 73 62 64
3090.0 56 57 54 46 55 45 38 35 38 38
3130.0 34 28 28 28 28 10 27 18 28 19
3170.0 28 21 18 19 20 18 12 19 17 22
3210.0 18 29 28 10 20 20 20 21 18 17
3250.0 13 15 12 19 21 29 19 20 20 27
3290.0 20 15 22 14 25 21 22 19 20 29
3330.0 29 20 20 22 25 16 10 21 15 30
3370.0 19 19 19 19 20 20 8 25 16 10
3410.0 26 29 18 30 9 30 29 20 27 18
3450.0 26 18 23 39 22 19 29 28 29 28
3490.0 38 38 48 45 63 67 74 75 63 64
3530.0 61 40 38 28 32 0 12 15 25 16
3570.0 21 25 40 35 33 30 36 22 36 29
3610.0 40 19 32 29 34 44 23 38 30 33
3650.0 34 31 37 37 55 45 38 45 51 48
3690.0 40 20 29 26 28 24 22 29 28 31
3730.0 33 48 32 36 40 36 37 28 31 33
3770.0 31 26 36 39 33 36 37 34 30 42
3810.0 36 30 37 24 28 38 46 42 36 40
3850.0 46 36 30 29 25 36 27 33 26 30
3890.0 26 26 22 19 18 28 36 43 24 25
3930.0 17 8 14 19 16 15 18 23 14 6
##END=
