##TITLE=1-Octanol
##JCAMP-DX=4.24
##DATA TYPE=INFRARED SPECTRUM
##ORIGIN=Sadtler Research Labs Under US-EPA Contract
##OWNER=NIST Standard Reference Data Program
##CAS REGISTRY NO=111-87-5
##MOLFORM=C 8 H 18 O
##XUNITS=1/CM
##YUNITS=ABSORBANCE
##XFACTOR=1.0
##YFACTOR=0.000081406
##DELTAX=4.0
##FIRSTX=450.0
##LASTX=3966.0
##FIRSTY=0.004477
##MAXX=3966
##MINX=450
##MAXY=0.81406
##MINY=0
##NPOINTS=880
##XYDATA=(X++(Y..Y))
450.0 55 49 36 41 35 26 29 35 31 49
490.0 38 55 65 46 61 52 39 64 49 49
530.0 52 33 41 27 37 28 27 45 60 32
570.0 38 24 36 27 27 45 26 4 52 27
610.0 47 35 28 35 39 38 39 27 37 28
650.0 34 35 22 29 21 32 54 30 38 52
690.0 41 60 64 79 99 121 147 153 160 165
730.0 141 132 126 108 103 93 82 85 79 82
770.0 85 80 79 73 67 58 59 87 65 72
810.0 78 74 81 84 86 97 85 90 99 99
850.0 108 117 123 135 139 148 147 156 186 193
890.0 205 219 215 207 193 183 189 179 187 202
930.0 203 222 234 265 297 323 358 388 405 429
970.0 439 465 491 522 560 579 598 623 650 699
1010.0 774 872 1005 1144 1309 1464 1617 1781 1919 2017
1050.0 2072 2025 1915 1744 1545 1352 1178 1024 881 757
1090.0 661 576 500 461 419 399 368 333 310 282
1130.0 256 243 232 231 229 231 242 243 255 255
1170.0 254 264 262 265 276 274 290 300 302 320
1210.0 327 332 345 356 363 367 372 368 357 362
1250.0 362 355 367 360 366 367 361 365 356 358
1290.0 358 353 358 352 338 343 329 318 323 318
1330.0 336 360 391 423 444 460 466 460 467 479
1370.0 522 584 667 746 787 773 695 583 476 400
1410.0 340 302 279 255 266 285 324 374 438 528
1450.0 615 728 816 870 879 829 736 627 502 389
1490.0 287 203 162 130 121 91 80 85 71 58
1530.0 63 53 57 51 39 47 40 40 19 30
1570.0 33 30 23 25 21 25 26 20 25 19
1610.0 24 30 15 24 19 20 25 13 18 25
1650.0 13 16 10 17 15 11 19 12 17 14
1690.0 11 18 18 5 12 7 17 17 6 17
1730.0 19 25 23 27 29 34 29 35 23 21
1770.0 28 14 10 17 9 14 9 9 9 4
1810.0 9 9 9 9 4 6 6 1 8 3
1850.0 2 8 7 1 2 6 8 7 5 4
1890.0 3 4 0 8 5 6 6 7 7 7
1930.0 8 10 6 6 6 6 6 6 6 6
1970.0 5 5 11 6 5 12 3 8 8 6
2010.0 11 10 17 15 22 27 23 26 29 23
2050.0 32 24 24 25 21 22 21 21 20 15
2090.0 14 14 14 11 8 4 2 1 3 0
2130.0 2 7 1 0 2 0 6 4 2 7
2170.0 7 7 7 7 7 6 6 6 0 5
2210.0 5 2 6 6 6 5 5 5 6 5
2250.0 6 6 11 9 12 20 16 15 18 15
2290.0 22 22 23 25 26 34 30 32 30 30
2330.0 38 31 25 39 26 30 46 34 42 33
2370.0 14 18 13 19 19 19 17 17 24 24
2410.0 17 23 19 16 25 16 20 24 19 18
2450.0 18 17 17 18 17 18 17 16 14 17
2490.0 17 13 18 18 18 23 18 23 24 22
2530.0 24 26 29 29 32 37 28 30 36 36
2570.0 41 42 41 47 49 49 48 51 51 53
2610.0 50 54 54 60 61 61 66 68 72 83
2650.0 81 88 90 97 102 108 115 127 121 126
2690.0 129 125 132 127 127 126 126 139 133 133
2730.0 152 158 171 172 181 188 188 188 188 193
2770.0 205 203 224 230 249 273 287 304 331 343
2810.0 374 399 431 467 515 584 669 800 1015 1318
2850.0 1771 2376 3070 3734 4200 4397 4351 4247 4056 3761
2890.0 3461 3165 3049 3173 3480 3939 4638 5545 6745 8071
2930.0 9222 9929 10000 9360 8228 7012 5850 5151 4908 4926
2970.0 4756 4124 3217 2213 1523 1110 837 677 564 482
3010.0 426 376 337 305 275 250 227 209 188 170
3050.0 163 145 138 133 113 112 108 98 100 88
3090.0 93 88 78 78 71 71 71 66 75 62
3130.0 58 64 57 53 58 47 55 48 48 53
3170.0 48 46 49 40 38 38 30 36 27 31
3210.0 28 17 28 11 15 18 11 12 9 7
3250.0 10 7 13 10 11 11 11 11 11 6
3290.0 16 15 14 18 5 11 12 12 16 15
3330.0 15 12 10 12 8 15 15 12 16 21
3370.0 11 21 22 21 28 14 22 24 18 23
3410.0 17 25 24 22 27 21 27 33 26 34
3450.0 31 24 37 30 36 28 27 33 30 26
3490.0 32 21 30 30 21 28 12 21 21 14
3530.0 27 24 21 26 30 28 22 23 48 20
3570.0 35 28 27 36 34 29 49 29 50 52
3610.0 49 56 64 72 81 92 105 110 151 207
3650.0 248 339 429 485 546 574 555 509 426 337
3690.0 249 182 142 116 104 88 73 72 65 65
3730.0 63 64 60 62 53 52 50 55 49 57
3770.0 61 57 61 59 59 61 62 59 65 55
3810.0 54 68 67 69 63 67 70 67 79 77
3850.0 82 92 78 85 86 82 86 81 76 78
3890.0 80 77 80 76 75 77 77 73 71 77
3930.0 71 72 74 72 70 67 69 70 75 79
##END=
