##TITLE=s-Dichloroethyl ether
##JCAMP-DX=4.24
##DATA TYPE=INFRARED SPECTRUM
##ORIGIN=Sadtler Research Labs Under US-EPA Contract
##OWNER=NIST Standard Reference Data Program
##CAS REGISTRY NO=111-44-4
##MOLFORM=C 4 H 8 Cl 2 O
##XUNITS=1/CM
##YUNITS=ABSORBANCE
##XFACTOR=1.0
##YFACTOR=0.000068414
##DELTAX=4.0
##FIRSTX=450.0
##LASTX=3966.0
##FIRSTY=0.003558
##MAXX=3966
##MINX=450
##MAXY=0.68414
##MINY=0
##NPOINTS=880
##XYDATA=(X++(Y..Y))
450.0 52 39 67 73 95 103 152 129 155 173
490.0 168 181 181 211 203 168 161 133 105 114
530.0 171 296 17 21 21 21 96 82 86 80
570.0 123 189 7 51 69 83 66 86 86 67
610.0 87 84 96 106 106 133 135 163 208 259
650.0 329 451 599 792 1017 1472 1668 1885 1959 1837
690.0 1476 1089 770 510 378 316 256 287 310 325
730.0 423 511 646 888 1203 1678 2198 2650 2847 2804
770.0 2555 2216 1809 1291 691 433 329 286 281 239
810.0 239 236 257 276 298 320 343 387 394 393
850.0 354 311 278 225 236 231 241 236 236 214
890.0 191 178 165 140 151 156 182 214 247 289
930.0 327 392 458 510 554 592 606 637 672 692
970.0 688 679 649 617 589 609 638 676 716 744
1010.0 763 812 860 918 1029 1140 1278 1407 1493 1537
1050.0 1515 1426 1284 1160 1041 976 982 1013 1080 1207
1090.0 1430 1849 2486 3444 4701 6056 7316 8358 9113 9707
1130.0 10000 9843 9089 7755 6209 4685 3369 2452 1910 1601
1170.0 1398 1275 1225 1232 1281 1344 1405 1495 1585 1597
1210.0 1547 1419 1204 1022 892 798 764 789 882 1078
1250.0 1357 1555 1530 1357 1054 833 794 835 949 1122
1290.0 1369 1671 1972 2157 2158 1980 1650 1255 972 754
1330.0 597 500 442 426 478 585 796 1112 1452 1571
1370.0 1493 1191 798 570 424 349 304 248 233 222
1410.0 187 238 248 335 502 856 1013 1150 1101 936
1450.0 927 1008 1120 1019 943 787 696 576 531 419
1490.0 363 265 237 151 188 86 70 88 89 74
1530.0 34 107 59 96 35 53 61 86 64 42
1570.0 64 24 79 15 47 32 41 36 52 46
1610.0 59 59 76 64 44 72 54 74 38 88
1650.0 29 138 22 53 35 84 27 70 23 65
1690.0 35 47 41 74 35 29 20 44 15 47
1730.0 41 71 67 100 101 129 131 162 185 169
1770.0 161 169 145 127 127 112 141 101 81 75
1810.0 70 51 52 45 53 47 22 34 13 39
1850.0 27 34 36 36 26 44 41 44 42 42
1890.0 48 45 50 47 57 56 47 67 57 77
1930.0 83 89 93 87 88 82 82 75 61 68
1970.0 64 68 62 62 55 47 60 40 42 45
2010.0 45 43 47 43 39 45 47 52 60 62
2050.0 59 67 77 79 82 88 81 81 88 88
2090.0 79 78 76 85 85 88 90 93 94 89
2130.0 96 95 94 89 83 84 88 82 95 89
2170.0 82 80 72 79 66 57 58 52 56 48
2210.0 51 52 57 56 56 57 64 64 63 64
2250.0 57 55 56 50 52 46 46 48 47 44
2290.0 44 34 39 39 38 58 52 58 68 68
2330.0 57 75 63 77 78 66 72 60 73 45
2370.0 58 67 52 42 35 38 38 39 39 39
2410.0 32 37 32 30 26 27 28 30 28 31
2450.0 36 30 31 38 38 31 44 50 35 44
2490.0 39 37 42 38 37 37 36 35 29 22
2530.0 16 12 19 18 16 13 7 1 7 0
2570.0 14 21 20 19 13 22 21 21 22 22
2610.0 20 28 27 34 35 42 47 46 46 52
2650.0 64 64 68 70 71 71 78 78 78 77
2690.0 88 95 104 119 141 177 174 191 192 213
2730.0 214 235 249 251 250 244 227 199 184 187
2770.0 197 197 226 241 264 286 312 337 337 341
2810.0 342 351 352 377 423 484 587 733 940 1180
2850.0 1456 1734 1961 2158 2268 2339 2366 2381 2407 2451
2890.0 2461 2432 2312 2193 2104 2021 1947 1882 1836 1760
2930.0 1694 1619 1532 1470 1482 1579 1746 1997 2304 2533
2970.0 2611 2656 2412 2052 1662 1316 1117 1061 1076 1083
3010.0 1053 967 832 694 570 450 344 283 216 164
3050.0 148 125 110 82 75 62 62 53 52 47
3090.0 54 38 50 31 31 31 25 23 33 21
3130.0 28 26 15 19 25 30 22 24 24 16
3170.0 38 25 22 31 34 25 24 22 20 17
3210.0 21 24 30 23 28 23 18 16 31 30
3250.0 17 23 35 25 14 23 15 15 23 23
3290.0 11 18 23 1 10 13 10 6 8 13
3330.0 13 22 19 23 14 12 9 17 24 15
3370.0 12 28 0 28 27 8 25 1 16 28
3410.0 35 19 34 13 29 26 33 17 11 6
3450.0 31 10 39 24 24 16 15 18 39 11
3490.0 23 30 26 31 12 17 8 31 17 31
3530.0 23 14 40 42 5 29 23 35 43 26
3570.0 71 46 39 62 46 62 56 30 53 35
3610.0 54 74 49 65 45 89 51 68 74 60
3650.0 107 69 81 76 58 84 64 119 72 81
3690.0 83 74 50 62 64 60 72 62 66 90
3730.0 78 107 113 90 127 80 131 81 65 75
3770.0 61 68 56 64 55 55 62 81 96 97
3810.0 90 89 87 101 63 74 88 107 83 90
3850.0 89 92 90 92 79 97 95 109 111 112
3890.0 81 110 98 90 69 101 79 73 70 83
3930.0 78 47 42 48 64 72 88 81 79 84
##END=
