##TITLE=Octane, 1-chloro-
##JCAMP-DX=4.24
##DATA TYPE=INFRARED SPECTRUM
##ORIGIN=Sadtler Research Labs Under US-EPA Contract
##OWNER=NIST Standard Reference Data Program
##CAS REGISTRY NO=111-85-3
##MOLFORM=C 8 H 17 Cl
##XUNITS=1/CM
##YUNITS=ABSORBANCE
##XFACTOR=1.0
##YFACTOR=0.000085965
##DELTAX=4.0
##FIRSTX=450.0
##LASTX=3966.0
##FIRSTY=0.068600
##MAXX=3966
##MINX=450
##MAXY=0.85965
##MINY=0
##NPOINTS=880
##XYDATA=(X++(Y..Y))
450.0 798 373 95 272 6 234 192 141 185 126
490.0 210 73 281 86 149 23 202 272 216 152
530.0 149 198 106 182 118 218 120 176 100 127
570.0 164 394 187 136 188 107 165 133 155 125
610.0 141 182 123 187 205 194 177 231 226 323
650.0 377 519 652 717 742 593 473 284 307 236
690.0 242 240 275 283 294 395 452 552 597 736
730.0 742 840 887 927 862 783 676 568 559 503
770.0 456 360 361 315 286 262 247 268 219 342
810.0 178 212 183 235 197 191 176 172 194 169
850.0 194 203 238 179 145 178 186 189 193 192
890.0 180 210 190 226 210 243 217 245 242 229
930.0 211 199 203 173 199 178 198 173 192 171
970.0 171 176 176 184 162 192 174 191 175 181
1010.0 156 175 170 181 191 184 204 182 199 182
1050.0 190 176 184 172 171 175 159 167 144 161
1090.0 138 147 122 146 143 139 145 135 144 117
1130.0 134 112 120 106 120 112 109 122 122 129
1170.0 118 136 112 131 126 137 115 115 134 128
1210.0 138 137 158 146 170 180 213 233 267 283
1250.0 296 317 328 366 393 467 504 564 619 702
1290.0 771 806 834 823 796 748 713 648 597 527
1330.0 470 403 383 398 407 428 414 414 377 368
1370.0 352 350 368 392 398 345 285 230 206 175
1410.0 187 185 197 214 251 307 366 480 599 786
1450.0 971 1137 1214 1220 1174 1077 889 681 507 359
1490.0 280 211 190 148 155 135 121 118 108 113
1530.0 88 91 85 93 74 82 83 75 80 67
1570.0 77 58 77 59 71 59 69 57 60 69
1610.0 54 67 55 68 57 61 55 63 55 60
1650.0 55 63 64 48 65 52 62 53 67 56
1690.0 62 57 54 63 59 60 50 67 54 60
1730.0 58 69 60 58 55 52 58 44 59 45
1770.0 52 37 46 42 45 39 45 43 36 42
1810.0 34 35 32 44 39 40 36 37 39 33
1850.0 41 27 40 31 34 30 37 39 34 37
1890.0 34 41 28 40 31 36 32 36 37 28
1930.0 34 27 35 26 34 23 32 25 30 28
1970.0 26 33 25 35 25 35 26 34 28 30
2010.0 24 31 31 30 34 37 42 37 43 39
2050.0 36 39 39 36 31 36 26 31 25 35
2090.0 29 33 32 25 30 30 32 29 35 32
2130.0 32 35 33 37 29 32 32 37 29 37
2170.0 32 38 30 33 34 27 32 26 31 19
2210.0 32 24 28 22 30 24 23 20 25 20
2250.0 17 25 17 21 19 20 21 21 22 18
2290.0 22 14 27 17 27 26 36 36 42 52
2330.0 53 76 52 76 43 51 59 48 84 81
2370.0 76 55 50 25 18 13 25 21 23 19
2410.0 21 17 17 23 12 18 13 19 11 10
2450.0 10 8 9 7 15 2 10 9 13 3
2490.0 13 8 5 11 1 1 3 10 4 10
2530.0 5 8 8 5 10 4 6 4 15 16
2570.0 20 23 28 26 25 29 29 32 28 39
2610.0 30 37 37 48 47 52 53 55 64 58
2650.0 68 68 80 75 85 86 91 95 95 108
2690.0 104 107 98 99 87 93 92 95 94 88
2730.0 105 105 119 121 131 124 128 116 116 112
2770.0 111 119 114 139 140 165 172 195 211 236
2810.0 252 281 325 340 396 439 519 629 800 1074
2850.0 1483 2082 2817 3524 3998 4130 3900 3614 3368 3096
2890.0 2763 2489 2394 2536 2855 3313 3948 4804 6038 7449
2930.0 8890 9790 10000 9465 8395 7137 6047 5597 5664 6064
2970.0 6089 5332 4067 2763 1947 1578 1473 1429 1306 1068
3010.0 798 584 466 387 334 294 281 253 215 201
3050.0 183 176 155 153 135 134 128 116 109 97
3090.0 103 92 83 86 91 79 86 76 73 76
3130.0 72 64 61 76 67 72 55 70 74 72
3170.0 58 61 72 58 61 54 70 57 53 58
3210.0 49 45 57 50 32 38 34 50 45 42
3250.0 43 31 35 34 30 23 39 19 35 36
3290.0 51 40 34 42 30 36 17 40 26 32
3330.0 21 34 36 43 33 33 43 32 35 20
3370.0 42 23 26 16 29 34 31 32 38 46
3410.0 13 32 32 25 36 27 31 36 32 6
3450.0 28 25 20 11 40 22 29 24 9 20
3490.0 39 35 7 36 20 32 0 22 21 35
3530.0 39 19 26 32 36 31 26 50 27 26
3570.0 47 48 37 41 29 36 36 51 35 33
3610.0 49 35 43 62 62 53 55 48 39 48
3650.0 59 29 52 45 41 76 43 41 44 57
3690.0 61 77 72 23 73 50 72 27 59 19
3730.0 46 55 94 79 72 57 40 37 58 40
3770.0 47 67 22 50 73 46 63 35 75 53
3810.0 81 59 72 90 67 33 30 64 33 89
3850.0 55 51 55 64 56 69 45 56 45 80
3890.0 57 48 76 85 39 26 50 70 43 65
3930.0 60 93 72 119 51 53 77 31 60 11
##END=
