##TITLE=Ethanol, 2-(2-propenyloxy)-
##JCAMP-DX=4.24
##DATA TYPE=INFRARED SPECTRUM
##ORIGIN=Sadtler Research Labs Under US-EPA Contract
##OWNER=NIST Standard Reference Data Program
##CAS REGISTRY NO=111-45-5
##MOLFORM=C 5 H 10 O 2
##XUNITS=1/CM
##YUNITS=ABSORBANCE
##XFACTOR=1.0
##YFACTOR=0.000084393
##DELTAX=4.0
##FIRSTX=450.0
##LASTX=3966.0
##FIRSTY=0.057219
##MAXX=3966
##MINX=450
##MAXY=0.84393
##MINY=0
##NPOINTS=880
##XYDATA=(X++(Y..Y))
450.0 678 452 615 93 115 113 291 106 76 31
490.0 72 164 365 200 306 230 354 402 478 489
530.0 470 482 560 520 531 462 551 372 370 225
570.0 230 160 112 155 128 115 116 128 144 139
610.0 177 173 196 204 236 225 238 248 250 240
650.0 223 212 179 174 145 142 83 106 78 54
690.0 63 59 45 31 38 22 17 30 26 16
730.0 10 17 17 12 25 27 8 13 8 63
770.0 26 31 19 33 49 53 75 88 136 158
810.0 239 409 313 434 479 549 619 618 682 692
850.0 760 808 885 941 997 1060 1120 1182 1254 1314
890.0 1325 1364 1377 1404 1507 1741 2099 2614 3215 3508
930.0 3394 3205 2751 2186 1746 1486 1335 1279 1295 1352
970.0 1457 1615 1811 2085 2409 2679 2832 2894 2905 2824
1010.0 2678 2621 2626 2719 2871 3118 3438 3909 4540 5384
1050.0 6478 7802 8953 9539 9450 9080 8160 6707 5626 5021
1090.0 4830 4995 5517 6311 7275 8274 9159 9828 10000 9559
1130.0 8645 7622 6390 5463 4933 4529 4078 3558 2990 2372
1170.0 1839 1506 1338 1261 1233 1233 1281 1370 1423 1441
1210.0 1428 1390 1344 1282 1222 1192 1204 1225 1264 1323
1250.0 1374 1419 1451 1471 1463 1414 1362 1270 1189 1104
1290.0 1014 935 861 784 717 679 671 692 754 865
1330.0 1050 1389 1861 2350 2746 3016 3002 2772 2440 2106
1370.0 1852 1686 1626 1627 1625 1609 1616 1629 1651 1664
1410.0 1669 1710 1752 1734 1677 1575 1413 1226 1020 892
1450.0 891 1002 1122 1183 1190 1109 954 762 589 458
1490.0 357 274 209 153 122 96 80 67 61 66
1530.0 46 57 49 60 47 48 37 39 44 25
1570.0 31 27 26 22 21 22 17 20 19 29
1610.0 31 48 46 79 84 130 161 227 274 328
1650.0 317 322 277 199 129 74 42 32 8 17
1690.0 0 5 10 22 19 28 33 32 37 46
1730.0 68 97 131 149 183 193 213 199 184 152
1770.0 140 117 95 75 62 50 48 43 32 35
1810.0 11 17 19 13 20 27 48 76 105 149
1850.0 179 206 217 204 176 151 112 83 63 48
1890.0 45 39 43 40 39 47 41 49 49 59
1930.0 66 72 82 86 90 94 96 90 100 100
1970.0 101 102 103 105 100 92 88 81 69 62
2010.0 55 51 46 39 36 34 33 33 35 32
2050.0 34 39 40 39 43 51 48 52 55 57
2090.0 61 65 68 70 73 76 78 82 79 81
2130.0 80 76 73 70 66 61 57 54 52 47
2170.0 40 33 31 31 25 24 22 25 27 25
2210.0 28 26 28 26 28 24 22 23 27 24
2250.0 22 22 20 22 25 28 25 27 25 18
2290.0 19 18 12 11 6 7 5 0 8 11
2330.0 26 25 23 28 12 16 0 6 6 29
2370.0 39 42 41 36 30 27 34 31 35 36
2410.0 35 38 35 32 37 37 40 35 32 32
2450.0 34 39 36 36 34 33 30 28 26 24
2490.0 22 22 25 25 22 28 34 36 31 35
2530.0 40 40 44 38 44 48 49 47 51 51
2570.0 51 51 54 48 51 47 50 53 52 53
2610.0 46 55 57 60 59 58 56 58 61 62
2650.0 69 79 87 97 114 129 148 164 182 198
2690.0 214 233 254 272 286 307 327 344 362 365
2730.0 374 376 380 384 396 405 430 439 459 489
2770.0 513 534 562 586 622 666 700 744 781 821
2810.0 880 954 1050 1185 1351 1580 1875 2232 2670 3156
2850.0 3690 4226 4732 5127 5422 5582 5652 5632 5544 5389
2890.0 5222 5072 4843 4641 4499 4399 4364 4360 4432 4534
2930.0 4670 4767 4781 4749 4649 4533 4425 4285 3986 3557
2970.0 3131 2699 2204 1799 1579 1438 1318 1213 1108 1009
3010.0 933 889 896 891 848 786 690 583 469 407
3050.0 373 382 388 427 483 543 623 741 882 1032
3090.0 1110 1129 1142 1052 839 643 514 358 250 171
3130.0 127 108 101 79 69 60 55 64 55 49
3170.0 56 43 49 36 30 32 36 40 42 31
3210.0 25 28 25 23 24 24 24 37 31 28
3250.0 16 33 26 21 15 19 33 35 20 24
3290.0 19 26 14 15 8 5 14 7 24 16
3330.0 15 17 4 7 15 5 6 8 8 3
3370.0 20 0 27 18 11 18 24 45 24 26
3410.0 16 48 49 23 39 23 16 14 30 29
3450.0 25 29 21 45 54 69 57 48 57 68
3490.0 59 84 78 50 73 66 59 78 76 66
3530.0 72 71 65 73 67 76 83 85 77 84
3570.0 120 109 117 129 135 158 178 214 259 332
3610.0 444 573 740 1002 1348 1614 1629 1633 1550 1282
3650.0 1039 853 766 651 595 573 576 521 446 402
3690.0 342 282 226 174 167 142 116 94 108 99
3730.0 98 81 105 136 142 87 107 122 107 121
3770.0 102 118 120 101 102 127 113 108 110 104
3810.0 110 82 94 114 88 105 96 82 71 119
3850.0 102 132 116 105 108 102 111 86 111 94
3890.0 107 107 150 96 150 101 110 122 64 110
3930.0 167 111 96 164 154 136 86 149 119 141
##END=
