##TITLE=Butane, 1-(ethenyloxy)-
##JCAMP-DX=4.24
##DATA TYPE=INFRARED SPECTRUM
##ORIGIN=Sadtler Research Labs Under US-EPA Contract
##OWNER=NIST Standard Reference Data Program
##CAS REGISTRY NO=111-34-2
##MOLFORM=C 6 H 12 O
##XUNITS=1/CM
##YUNITS=ABSORBANCE
##XFACTOR=1.0
##YFACTOR=0.000108667
##DELTAX=4.0
##FIRSTX=450.0
##LASTX=3966.0
##FIRSTY=0.060636
##MAXX=3966
##MINX=450
##MAXY=1.08667
##MINY=0
##NPOINTS=880
##XYDATA=(X++(Y..Y))
450.0 558 195 81 117 90 103 149 64 147 141
490.0 193 78 168 142 89 151 93 88 27 107
530.0 90 157 84 44 51 45 77 0 70 45
570.0 56 50 112 75 47 100 82 83 53 100
610.0 60 75 32 67 14 77 112 65 61 44
650.0 77 53 54 87 60 36 71 91 112 149
690.0 147 186 169 191 165 149 164 147 157 150
730.0 205 213 225 274 289 285 279 301 287 289
770.0 285 314 321 399 460 671 896 995 1346 1571
810.0 1866 2100 2186 2181 2078 1965 1791 1666 1456 1283
850.0 1067 950 804 697 643 600 590 568 605 586
890.0 604 601 610 602 601 626 636 678 718 811
930.0 881 1014 1129 1262 1380 1447 1529 1554 1624 1662
970.0 1679 1654 1625 1559 1461 1339 1195 1161 1118 1158
1010.0 1221 1334 1441 1540 1601 1623 1620 1504 1424 1348
1050.0 1292 1238 1299 1435 1622 1876 2192 2499 2610 2592
1090.0 2381 2078 1696 1408 1280 1305 1478 1684 1906 2086
1130.0 2249 2311 2321 2295 2258 2237 2262 2437 2667 3062
1170.0 3522 4058 4577 5164 5799 6522 7453 8534 9659 10000
1210.0 9589 8490 6904 4519 2658 1844 1508 1348 1220 1122
1250.0 1041 986 949 924 893 855 813 742 684 621
1290.0 600 614 681 823 1073 1540 2237 2813 2829 2763
1330.0 2526 1865 1163 782 619 572 577 657 878 1190
1370.0 1485 1671 1768 1723 1483 1190 913 715 576 504
1410.0 439 417 380 378 375 384 411 439 509 570
1450.0 666 736 851 995 1132 1224 1252 1211 1063 896
1490.0 689 527 416 377 349 322 326 313 299 292
1530.0 294 301 291 285 280 283 268 270 278 308
1570.0 340 417 501 650 865 1151 1561 2195 3208 4477
1610.0 5224 5324 5514 5341 4498 4345 4787 5107 5130 5173
1650.0 4830 3786 2864 2430 2006 1523 1095 848 686 565
1690.0 472 363 285 218 213 200 198 204 227 259
1730.0 280 354 460 615 701 702 728 718 587 486
1770.0 412 340 285 225 200 169 151 127 106 95
1810.0 76 68 59 52 44 47 41 46 46 42
1850.0 49 48 53 62 76 90 111 108 108 107
1890.0 86 77 77 86 91 99 110 104 107 98
1930.0 98 84 86 79 81 81 74 83 68 66
1970.0 58 59 49 54 51 48 48 53 55 53
2010.0 56 55 58 59 64 63 63 61 61 59
2050.0 54 57 49 50 52 56 58 59 65 64
2090.0 73 74 78 76 76 75 69 73 73 77
2130.0 73 84 87 100 104 108 110 99 95 80
2170.0 76 64 59 50 47 47 45 45 43 45
2210.0 34 37 38 38 34 37 36 31 35 37
2250.0 37 37 43 43 45 46 43 41 34 36
2290.0 27 20 15 15 6 2 12 5 5 0
2330.0 0 0 0 0 0 0 0 0 0 0
2370.0 0 0 0 15 36 51 63 59 63 57
2410.0 62 58 52 55 55 51 47 55 48 51
2450.0 45 50 52 54 50 50 49 50 52 53
2490.0 54 54 60 60 64 68 70 77 75 73
2530.0 65 70 68 62 65 60 64 60 69 63
2570.0 68 66 67 69 72 74 67 73 69 73
2610.0 64 70 66 67 72 67 69 70 70 67
2650.0 61 62 69 76 77 89 102 116 117 125
2690.0 126 130 129 139 149 152 154 168 182 192
2730.0 204 210 221 228 231 236 226 227 221 225
2770.0 223 224 237 246 250 265 291 312 348 373
2810.0 399 419 441 469 495 537 578 654 756 903
2850.0 1078 1283 1546 1856 2209 2629 3070 3572 3905 3924
2890.0 3909 3795 3555 3372 3392 3538 3733 3974 4235 4519
2930.0 4825 5213 5687 6094 6319 6487 6483 6517 6705 6986
2970.0 7022 6547 5843 4873 3612 2589 1900 1414 1064 843
3010.0 706 640 602 596 579 558 538 515 496 505
3050.0 526 556 548 529 502 463 416 391 390 375
3090.0 360 346 311 286 304 354 439 606 750 754
3130.0 709 700 495 268 184 158 133 111 98 104
3170.0 78 93 92 102 87 89 79 66 80 67
3210.0 52 48 48 56 46 51 36 32 27 35
3250.0 40 41 45 36 22 22 34 34 33 45
3290.0 36 43 45 27 25 22 11 28 18 30
3330.0 17 16 20 25 20 6 18 31 29 7
3370.0 10 1 14 23 22 12 28 30 37 22
3410.0 21 15 15 21 25 23 30 25 38 22
3450.0 35 21 1 38 43 28 28 45 4 6
3490.0 18 33 13 20 34 22 14 13 19 1
3530.0 15 10 20 8 30 21 12 8 8 14
3570.0 0 27 25 20 27 23 33 30 27 32
3610.0 19 17 20 27 13 49 43 37 14 32
3650.0 31 45 40 46 59 25 55 66 52 49
3690.0 19 25 29 19 25 43 33 18 24 3
3730.0 15 32 21 22 10 16 6 29 47 26
3770.0 12 19 17 31 8 8 14 35 2 25
3810.0 40 0 11 51 22 2 0 6 28 43
3850.0 35 16 5 35 31 28 0 10 46 22
3890.0 70 23 37 5 13 30 55 9 30 27
3930.0 15 5 2 9 3 38 43 20 19 30
##END=
