##TITLE=Butane, 1-isocyanato-
##JCAMP-DX=4.24
##DATA TYPE=INFRARED SPECTRUM
##ORIGIN=Sadtler Research Labs Under US-EPA Contract
##OWNER=NIST Standard Reference Data Program
##CAS REGISTRY NO=111-36-4
##MOLFORM=C 5 H 9 N O
##XUNITS=1/CM
##YUNITS=ABSORBANCE
##XFACTOR=1.0
##YFACTOR=0.000088333
##DELTAX=4.0
##FIRSTX=450.0
##LASTX=3966.0
##FIRSTY=0.004417
##MAXX=3966
##MINX=450
##MAXY=0.88333
##MINY=0
##NPOINTS=880
##XYDATA=(X++(Y..Y))
450.0 50 75 86 94 105 115 118 104 105 96
490.0 90 157 79 184 33 56 47 28 3 88
530.0 14 49 66 85 31 104 128 51 369 122
570.0 64 125 115 119 170 171 336 345 360 338
610.0 339 337 359 324 263 237 215 243 217 232
650.0 232 185 195 108 154 316 222 126 181 135
690.0 177 142 117 127 64 85 54 57 64 22
730.0 44 54 49 54 62 42 28 63 56 43
770.0 39 41 41 17 48 155 100 125 144 142
810.0 130 126 96 66 51 71 51 66 74 57
850.0 53 84 97 130 161 173 187 180 156 124
890.0 91 104 116 106 100 97 87 62 32 28
930.0 16 24 29 24 24 29 27 35 34 24
970.0 29 32 31 35 30 37 36 41 38 26
1010.0 34 28 16 16 13 3 10 11 16 21
1050.0 26 27 35 28 34 17 25 23 22 14
1090.0 17 22 29 35 51 52 60 67 77 64
1130.0 61 53 49 30 37 25 24 25 13 18
1170.0 18 9 23 12 12 24 19 22 26 31
1210.0 32 32 43 49 43 52 52 56 55 55
1250.0 50 42 60 54 59 64 66 60 47 46
1290.0 39 50 56 66 77 84 113 117 126 146
1330.0 173 190 236 270 333 392 462 488 508 503
1370.0 478 405 327 259 203 163 137 129 93 92
1410.0 84 95 107 123 139 173 189 223 212 221
1450.0 225 222 254 257 285 280 279 244 223 166
1490.0 131 102 83 66 72 90 67 60 49 51
1530.0 42 45 35 33 51 47 30 29 19 22
1570.0 17 13 24 21 26 22 25 22 20 17
1610.0 17 18 14 29 8 28 16 17 21 20
1650.0 10 13 20 14 22 20 13 26 18 18
1690.0 17 25 14 32 26 23 31 43 49 51
1730.0 47 33 36 31 16 23 28 24 19 23
1770.0 34 24 23 27 37 28 40 30 38 28
1810.0 26 32 22 24 39 26 26 27 18 34
1850.0 20 18 22 34 26 33 28 25 29 27
1890.0 37 26 26 37 26 27 31 31 35 31
1930.0 38 42 41 44 34 41 45 38 49 46
1970.0 41 48 49 48 37 43 47 38 44 35
2010.0 39 31 24 30 26 26 37 35 41 37
2050.0 24 34 26 30 39 57 62 73 85 89
2090.0 94 105 105 106 112 112 118 128 134 127
2130.0 133 139 144 144 151 168 179 193 216 238
2170.0 265 290 313 346 374 415 473 527 614 716
2210.0 818 956 1124 1315 1507 1742 1992 2274 2610 3032
2250.0 3612 4416 5475 6792 8168 9083 9753 10000 9400 8409
2290.0 7441 6414 5121 3970 3267 2862 2433 2197 2045 1817
2330.0 1687 1561 1479 1496 1445 1250 1342 1693 1581 1493
2370.0 1227 972 771 599 432 300 236 218 200 200
2410.0 200 183 183 169 153 156 146 130 122 122
2450.0 109 93 97 86 80 68 71 57 60 46
2490.0 49 48 39 34 30 24 17 18 18 22
2530.0 26 23 27 14 18 21 16 14 14 9
2570.0 3 7 5 0 7 9 8 18 15 16
2610.0 17 24 29 34 40 45 39 43 39 45
2650.0 43 21 33 33 32 39 28 39 38 28
2690.0 16 16 19 8 18 15 26 14 14 14
2730.0 15 13 19 24 24 15 22 18 18 18
2770.0 24 18 23 24 24 29 29 28 32 33
2810.0 34 34 48 55 50 53 65 81 94 104
2850.0 135 157 190 245 283 347 402 478 541 583
2890.0 594 577 565 526 490 507 527 562 630 698
2930.0 800 891 1020 1138 1213 1298 1354 1382 1387 1413
2970.0 1441 1364 1202 1013 789 556 394 276 200 156
3010.0 120 104 101 86 75 71 64 56 55 44
3050.0 32 43 37 37 43 37 54 45 54 49
3090.0 40 61 45 35 39 45 39 34 37 38
3130.0 41 41 45 37 39 30 36 36 25 42
3170.0 56 38 33 24 43 25 26 25 29 25
3210.0 21 27 22 17 26 21 19 14 7 9
3250.0 24 15 1 6 14 12 12 6 4 11
3290.0 12 19 21 24 26 8 22 22 19 24
3330.0 25 26 20 13 17 24 29 18 23 3
3370.0 22 22 15 16 19 29 15 9 24 9
3410.0 35 35 23 19 21 19 11 21 23 14
3450.0 22 30 36 34 17 31 32 30 45 28
3490.0 23 33 7 23 27 23 18 38 36 40
3530.0 28 34 31 24 37 26 37 43 43 41
3570.0 50 44 29 44 47 53 52 48 58 37
3610.0 77 63 64 72 73 80 80 76 75 79
3650.0 95 103 89 108 110 122 110 110 115 110
3690.0 109 119 136 129 126 130 109 117 108 107
3730.0 107 95 126 118 112 90 92 90 91 84
3770.0 93 92 94 104 86 91 83 80 71 76
3810.0 71 80 81 91 80 71 82 74 68 77
3850.0 78 93 87 92 89 81 88 84 67 66
3890.0 68 80 78 90 87 96 93 90 86 75
3930.0 73 68 70 55 52 59 67 58 58 49
##END=
