##TITLE=Ethyl Oleate
##JCAMP-DX=4.24
##DATA TYPE=INFRARED SPECTRUM
##ORIGIN=Sadtler Research Labs Under US-EPA Contract
##OWNER=NIST Standard Reference Data Program
##CAS REGISTRY NO=111-62-6
##MOLFORM=C 20 H 38 O 2
##XUNITS=1/CM
##YUNITS=ABSORBANCE
##XFACTOR=1.0
##YFACTOR=0.000117078
##DELTAX=4.0
##FIRSTX=450.0
##LASTX=3966.0
##FIRSTY=0.000000
##MAXX=3966
##MINX=450
##MAXY=1.17078
##MINY=0
##NPOINTS=880
##XYDATA=(X++(Y..Y))
450.0 0 101 110 78 83 89 81 126 22 17
490.0 65 68 48 82 14 103 60 64 72 104
530.0 70 108 85 52 78 86 63 80 101 119
570.0 112 124 119 82 133 88 107 139 133 141
610.0 123 120 125 129 130 108 89 105 130 158
650.0 134 136 129 121 158 228 168 181 212 242
690.0 261 277 314 326 364 394 407 412 455 440
730.0 390 363 325 290 266 247 234 212 231 220
770.0 229 197 173 225 177 169 161 171 161 165
810.0 160 164 159 157 163 173 175 176 185 209
850.0 222 216 236 212 211 203 187 178 163 169
890.0 171 169 179 173 195 196 213 227 233 233
930.0 235 228 227 220 215 215 214 234 246 263
970.0 249 240 223 213 217 218 221 241 268 296
1010.0 354 416 492 606 724 868 974 1048 1036 980
1050.0 892 820 762 724 711 705 726 750 777 815
1090.0 874 954 1030 1076 1077 1089 1102 1121 1128 1166
1130.0 1240 1365 1526 1717 1912 2086 2261 2402 2539 2623
1170.0 2672 2674 2648 2568 2438 2292 2128 1979 1853 1761
1210.0 1695 1663 1654 1659 1683 1710 1746 1775 1787 1748
1250.0 1664 1551 1433 1310 1204 1109 1038 987 943 911
1290.0 886 882 887 901 919 911 891 848 806 761
1330.0 741 750 790 844 888 904 860 805 776 842
1370.0 968 1030 935 779 647 547 491 470 468 451
1410.0 398 368 376 409 453 514 575 646 728 805
1450.0 903 996 1099 1147 1092 962 770 582 445 347
1490.0 277 228 192 165 143 123 112 106 94 92
1530.0 87 85 85 76 77 76 75 69 71 67
1570.0 65 66 68 65 70 65 65 73 71 68
1610.0 69 71 69 74 77 91 89 102 108 115
1650.0 113 127 114 110 113 115 123 134 143 163
1690.0 180 210 233 278 330 393 447 532 648 820
1730.0 1073 1436 1937 2543 3288 3957 4271 3832 3043 2296
1770.0 1670 1178 842 613 462 353 290 235 204 182
1810.0 158 145 125 115 98 85 77 73 63 61
1850.0 61 60 57 54 56 49 54 59 60 59
1890.0 56 56 52 53 48 48 47 51 45 44
1930.0 46 43 45 37 44 42 43 38 39 41
1970.0 39 41 39 43 44 44 40 42 43 45
2010.0 47 45 50 46 47 49 51 51 53 47
2050.0 45 41 41 44 37 40 36 40 34 37
2090.0 40 36 35 29 29 27 25 26 23 21
2130.0 19 22 22 20 23 23 22 22 20 21
2170.0 17 18 22 21 22 23 24 24 24 24
2210.0 17 16 21 24 20 24 21 21 24 26
2250.0 20 22 20 21 28 23 28 29 29 30
2290.0 35 37 36 40 43 46 50 45 39 32
2330.0 34 27 44 37 37 31 18 20 22 29
2370.0 40 47 34 41 28 29 20 19 19 25
2410.0 23 20 22 19 20 22 23 21 17 20
2450.0 17 16 15 20 16 19 21 24 21 26
2490.0 24 20 21 22 26 24 29 31 34 36
2530.0 31 36 33 38 32 33 35 29 34 33
2570.0 35 37 39 38 39 43 39 44 50 46
2610.0 46 46 55 56 51 54 64 59 64 64
2650.0 73 76 83 88 93 92 103 101 100 110
2690.0 101 90 90 91 90 97 104 101 105 105
2730.0 107 111 121 124 126 124 126 130 131 145
2770.0 144 154 153 169 185 193 220 229 248 274
2810.0 301 335 374 415 462 525 616 722 886 1146
2850.0 1546 2134 2953 3700 3928 3579 3065 2646 2404 2244
2890.0 2146 2128 2255 2535 2931 3473 4116 4961 6135 7636
2930.0 9231 10000 9462 8387 6905 5625 4620 3987 3740 3656
2970.0 3477 3102 2652 2344 2152 1874 1571 1377 1298 1341
3010.0 1431 1464 1306 999 723 536 443 356 311 266
3050.0 247 229 201 191 194 179 179 165 148 141
3090.0 133 131 118 106 110 109 107 110 109 99
3130.0 90 90 89 71 91 82 83 81 93 91
3170.0 74 75 73 70 75 72 70 62 68 59
3210.0 53 57 53 56 55 56 52 55 62 52
3250.0 48 41 46 37 42 43 50 35 30 32
3290.0 39 34 40 39 43 43 41 32 34 37
3330.0 39 26 34 33 33 39 49 42 27 29
3370.0 31 43 22 31 30 41 37 35 38 34
3410.0 33 49 35 32 23 28 40 38 37 41
3450.0 36 39 30 31 49 46 49 54 51 47
3490.0 57 53 53 43 43 40 41 26 20 31
3530.0 18 19 14 29 30 32 29 37 41 39
3570.0 59 47 40 51 58 33 38 38 46 34
3610.0 27 37 41 33 48 51 26 69 43 41
3650.0 51 42 40 44 34 52 46 29 47 45
3690.0 41 35 56 52 40 34 41 40 39 41
3730.0 33 59 41 17 31 28 51 53 47 48
3770.0 37 39 59 67 66 44 56 78 48 52
3810.0 52 41 64 54 65 32 44 48 47 51
3850.0 44 28 66 70 42 51 58 42 66 72
3890.0 58 88 84 69 37 45 51 97 102 81
3930.0 67 39 73 56 51 86 106 87 35 101
##END=
