##TITLE=Ethanol, 2-(2-ethoxyethoxy)-
##JCAMP-DX=4.24
##DATA TYPE=INFRARED SPECTRUM
##ORIGIN=Sadtler Research Labs Under US-EPA Contract
##OWNER=NIST Standard Reference Data Program
##CAS REGISTRY NO=111-90-0
##MOLFORM=C 6 H 14 O 3
##XUNITS=1/CM
##YUNITS=ABSORBANCE
##XFACTOR=1.0
##YFACTOR=0.000050302
##DELTAX=4.0
##FIRSTX=450.0
##LASTX=3966.0
##FIRSTY=0.001258
##MAXX=3966
##MINX=450
##MAXY=0.50302
##MINY=0
##NPOINTS=880
##XYDATA=(X++(Y..Y))
450.0 25 16 10 15 3 14 10 15 19 26
490.0 44 57 43 64 78 83 114 124 139 150
530.0 128 154 121 130 115 124 114 102 134 55
570.0 58 37 42 18 0 35 20 42 17 22
610.0 13 18 23 26 37 15 24 26 32 26
650.0 27 47 34 45 16 54 34 41 44 40
690.0 49 38 36 29 37 35 24 44 15 35
730.0 33 36 26 30 41 33 52 43 54 61
770.0 64 73 94 115 133 165 183 216 226 260
810.0 277 270 296 325 375 406 456 467 493 485
850.0 470 461 445 456 479 512 547 589 631 651
890.0 671 671 658 639 636 645 659 686 716 755
930.0 757 759 729 677 618 525 463 396 368 346
970.0 347 354 377 421 451 503 552 614 686 768
1010.0 882 996 1134 1257 1408 1561 1737 1933 2176 2458
1050.0 2773 3163 3580 3936 4097 3997 3685 3235 2849 2633
1090.0 2593 2711 3027 3512 4259 5271 6533 8010 9309 10000
1130.0 9755 9148 8134 6857 5787 4837 4019 3328 2743 2264
1170.0 1901 1641 1427 1267 1108 991 891 846 835 836
1210.0 835 815 794 752 724 720 736 772 815 878
1250.0 910 933 923 913 894 892 896 915 932 935
1290.0 937 912 849 785 714 661 638 655 687 727
1330.0 758 792 908 1142 1462 1640 1684 1596 1392 1237
1370.0 1232 1281 1294 1347 1391 1349 1309 1204 1093 993
1410.0 894 786 698 569 508 480 459 467 511 602
1450.0 696 807 869 860 816 722 611 508 462 406
1490.0 340 271 222 168 158 105 85 87 71 55
1530.0 43 56 54 37 22 29 36 53 5 19
1570.0 22 25 14 19 11 20 22 10 15 9
1610.0 18 14 18 18 10 13 7 8 10 19
1650.0 4 22 3 10 8 15 12 9 15 6
1690.0 8 19 13 13 7 11 9 21 9 11
1730.0 27 20 17 28 37 35 37 38 28 30
1770.0 27 23 10 10 10 10 10 0 8 1
1810.0 2 1 2 2 1 1 1 2 1 3
1850.0 1 3 1 2 10 9 13 16 12 16
1890.0 21 20 25 32 31 42 40 50 61 59
1930.0 74 80 93 95 101 108 112 120 111 120
1970.0 112 110 102 91 80 77 72 60 55 45
2010.0 44 42 33 23 23 23 22 22 16 19
2050.0 18 16 18 12 24 13 24 24 23 33
2090.0 33 33 32 40 33 38 34 34 42 43
2130.0 43 44 44 43 43 43 43 43 37 44
2170.0 32 45 34 35 33 33 35 23 23 23
2210.0 23 24 24 24 24 24 24 23 24 33
2250.0 34 31 35 34 34 34 35 30 25 24
2290.0 24 23 21 21 11 18 10 6 6 1
2330.0 6 0 2 1 1 1 1 1 1 1
2370.0 1 1 8 7 11 6 16 16 16 15
2410.0 16 16 16 16 15 15 15 16 16 16
2450.0 16 16 16 17 17 5 15 11 5 12
2490.0 6 18 7 7 7 8 17 7 17 18
2530.0 18 18 18 18 18 18 17 17 17 17
2570.0 18 18 18 18 21 15 28 26 38 38
2610.0 38 46 47 48 38 47 47 47 48 48
2650.0 53 57 58 65 67 77 89 98 108 129
2690.0 150 170 190 205 220 242 251 264 284 293
2730.0 303 304 313 313 313 325 328 338 347 362
2770.0 379 410 440 470 501 541 572 614 654 698
2810.0 745 792 835 894 952 1041 1162 1334 1567 1877
2850.0 2303 2810 3395 3984 4543 4955 5272 5399 5309 5080
2890.0 4759 4463 4161 3951 3774 3648 3564 3527 3544 3580
2930.0 3675 3783 3860 3823 3715 3612 3442 3330 3206 3025
2970.0 2841 2703 2634 2602 2476 2146 1719 1277 941 712
3010.0 552 446 367 317 270 239 214 196 172 143
3050.0 143 124 123 94 93 84 73 63 59 66
3090.0 54 55 44 55 45 45 46 34 46 43
3130.0 44 36 35 37 37 37 37 37 37 37
3170.0 37 37 37 37 38 31 37 37 29 38
3210.0 28 38 28 38 29 26 30 25 24 18
3250.0 26 18 19 8 10 10 9 19 1 18
3290.0 10 10 10 5 7 3 8 2 1 1
3330.0 10 1 1 13 4 12 0 7 9 12
3370.0 20 3 11 11 13 4 12 15 17 23
3410.0 11 31 21 34 31 34 23 23 33 31
3450.0 34 37 47 57 56 70 61 81 82 93
3490.0 103 113 136 140 179 196 234 254 282 287
3530.0 290 299 282 280 280 258 251 248 234 239
3570.0 236 215 213 195 201 201 202 192 212 245
3610.0 277 347 391 471 540 634 661 635 555 445
3650.0 371 301 251 234 221 207 198 190 170 151
3690.0 129 111 88 78 67 58 66 50 48 52
3730.0 43 49 48 51 45 48 48 40 41 40
3770.0 50 41 41 30 38 27 26 22 21 22
3810.0 13 24 12 21 24 21 24 10 18 14
3850.0 7 2 3 5 4 4 5 5 4 4
3890.0 11 12 10 15 4 6 5 5 5 5
3930.0 6 6 6 6 6 6 6 3 6 7
##END=
