##TITLE=Octane
##JCAMP-DX=4.24
##DATA TYPE=INFRARED SPECTRUM
##ORIGIN=Sadtler Research Labs Under US-EPA Contract
##OWNER=NIST Standard Reference Data Program
##CAS REGISTRY NO=111-65-9
##MOLFORM=C 8 H 18
##XUNITS=1/CM
##YUNITS=ABSORBANCE
##XFACTOR=1.0
##YFACTOR=0.000180780
##DELTAX=4.0
##FIRSTX=450.0
##LASTX=3966.0
##FIRSTY=0.030190
##MAXX=3966
##MINX=450
##MAXY=1.8078
##MINY=0
##NPOINTS=880
##XYDATA=(X++(Y..Y))
450.0 167 105 56 37 39 14 45 32 30 26
490.0 42 32 40 48 15 30 31 29 17 24
530.0 25 39 28 28 37 39 36 29 27 20
570.0 23 29 22 4 32 5 46 45 40 35
610.0 32 25 34 30 25 27 34 20 30 25
650.0 26 29 26 22 24 24 37 32 33 46
690.0 47 50 63 75 103 125 150 166 179 181
730.0 176 163 148 140 134 129 117 123 122 120
770.0 122 107 90 79 73 63 52 51 49 42
810.0 49 42 42 41 37 41 44 47 50 52
850.0 56 54 59 58 69 70 78 79 84 82
890.0 82 82 82 78 82 88 87 86 81 69
930.0 62 54 55 56 61 64 68 72 74 77
970.0 77 74 65 60 50 48 43 44 41 42
1010.0 40 42 44 47 47 47 51 51 53 53
1050.0 60 60 66 72 74 77 79 83 78 76
1090.0 73 70 67 75 76 74 78 75 74 71
1130.0 72 70 69 65 57 51 49 53 55 60
1170.0 70 84 102 120 132 124 107 85 69 56
1210.0 53 49 48 52 55 58 56 54 53 58
1250.0 58 64 71 78 86 89 91 89 97 102
1290.0 113 126 140 144 148 148 137 132 125 134
1330.0 144 178 214 248 265 266 249 220 228 236
1370.0 264 304 390 435 451 434 336 261 212 182
1410.0 159 149 139 152 162 183 232 286 387 484
1450.0 646 773 924 1043 1075 1032 896 741 569 418
1490.0 312 228 180 135 116 96 88 78 70 70
1530.0 60 57 53 49 40 44 40 35 33 34
1570.0 36 28 35 30 31 30 33 30 27 29
1610.0 28 25 28 24 26 21 27 19 24 17
1650.0 26 11 25 19 19 18 18 17 19 13
1690.0 16 19 12 16 15 17 14 16 16 17
1730.0 18 13 12 14 10 10 15 14 14 13
1770.0 15 11 12 9 12 6 10 6 11 8
1810.0 9 7 7 6 7 6 4 7 3 6
1850.0 3 5 5 6 4 4 4 3 5 3
1890.0 4 4 6 3 4 5 4 5 4 5
1930.0 4 7 3 5 2 2 4 4 5 5
1970.0 6 4 4 2 2 2 4 4 4 4
2010.0 7 9 9 12 15 14 16 16 14 13
2050.0 13 11 13 9 8 8 8 8 7 7
2090.0 5 6 4 6 6 6 5 5 7 5
2130.0 6 7 6 8 7 7 7 9 10 9
2170.0 8 9 8 8 7 8 7 8 10 8
2210.0 10 10 9 8 8 8 8 8 10 8
2250.0 8 9 8 9 8 8 8 7 7 5
2290.0 4 4 3 4 2 1 2 1 1 0
2330.0 7 5 7 9 2 8 0 2 0 2
2370.0 1 5 7 8 10 11 13 13 13 15
2410.0 18 19 17 18 16 15 14 12 13 13
2450.0 10 11 9 8 9 8 8 9 9 9
2490.0 10 11 11 12 14 15 16 18 20 22
2530.0 22 22 24 26 26 25 27 27 28 29
2570.0 32 34 36 38 41 43 46 49 50 50
2610.0 52 54 58 56 57 62 61 63 67 68
2650.0 71 77 80 87 95 100 103 104 103 102
2690.0 100 94 92 88 86 84 88 91 97 102
2730.0 111 123 137 146 150 150 140 133 130 129
2770.0 131 137 146 160 179 201 222 243 262 283
2810.0 305 330 362 400 448 514 608 755 982 1319
2850.0 1807 2449 3146 3742 4198 4326 4283 4281 4145 3816
2890.0 3527 3135 2887 2975 3317 3955 4823 6076 7452 8775
2930.0 9593 10000 9868 9058 8267 7220 6455 6165 6600 7289
2970.0 7399 6656 5394 3692 2423 1678 1217 939 764 658
3010.0 580 516 469 423 388 359 330 300 271 243
3050.0 220 201 185 173 162 156 146 140 135 128
3090.0 124 121 115 109 105 99 96 90 88 84
3130.0 85 84 81 81 79 79 76 74 74 73
3170.0 70 70 71 68 70 65 64 62 59 53
3210.0 48 42 39 31 28 27 24 24 22 23
3250.0 19 14 13 11 9 8 7 9 6 5
3290.0 6 7 8 6 6 7 6 6 5 7
3330.0 5 4 2 6 7 6 7 3 9 6
3370.0 7 5 4 5 4 7 8 8 9 8
3410.0 10 10 9 11 9 9 9 4 9 4
3450.0 5 6 5 2 2 6 5 4 4 2
3490.0 6 4 1 0 1 3 4 1 0 3
3530.0 2 2 3 3 3 2 2 3 4 4
3570.0 3 6 3 6 5 8 12 8 10 10
3610.0 16 10 16 16 16 28 18 16 15 16
3650.0 23 15 17 13 16 16 14 25 12 15
3690.0 11 17 11 9 15 13 18 15 8 14
3730.0 7 20 13 18 2 9 12 6 12 9
3770.0 12 7 14 11 7 11 10 1 16 7
3810.0 13 10 7 13 7 9 11 10 9 15
3850.0 6 20 15 6 13 12 11 4 6 8
3890.0 12 3 10 16 16 11 10 10 11 7
3930.0 8 13 14 11 8 11 9 6 12 8
##END=
