##TITLE=1-Octene
##JCAMP-DX=4.24
##DATA TYPE=INFRARED SPECTRUM
##ORIGIN=Sadtler Research Labs Under US-EPA Contract
##OWNER=NIST Standard Reference Data Program
##CAS REGISTRY NO=111-66-0
##MOLFORM=C 8 H 16
##XUNITS=1/CM
##YUNITS=ABSORBANCE
##XFACTOR=1.0
##YFACTOR=0.000096722
##DELTAX=4.0
##FIRSTX=450.0
##LASTX=3966.0
##FIRSTY=0.035400
##MAXX=3966
##MINX=450
##MAXY=0.96722
##MINY=0
##NPOINTS=880
##XYDATA=(X++(Y..Y))
450.0 366 213 199 182 180 160 252 151 219 207
490.0 179 186 286 116 168 199 195 200 145 242
530.0 173 214 200 206 168 190 209 167 164 176
570.0 230 167 257 208 237 196 168 180 144 180
610.0 151 162 152 195 165 198 167 179 177 182
650.0 186 175 191 192 224 241 260 335 365 389
690.0 388 451 414 436 346 338 350 321 302 305
730.0 310 291 259 225 218 185 198 184 164 182
770.0 156 182 141 130 59 24 159 122 142 109
810.0 112 102 124 94 146 141 131 145 155 158
850.0 146 165 164 178 180 191 187 202 211 221
890.0 249 271 329 371 452 507 541 556 511 483
930.0 465 461 457 502 544 650 786 968 1111 1168
970.0 1169 1035 894 758 683 611 558 516 466 443
1010.0 418 397 383 389 378 372 386 390 395 403
1050.0 405 396 389 374 377 366 365 351 348 340
1090.0 322 325 320 330 325 317 306 297 286 272
1130.0 277 278 279 272 278 274 273 274 283 302
1170.0 318 337 319 310 281 266 247 238 246 243
1210.0 238 235 250 252 282 301 323 346 365 370
1250.0 354 342 317 301 287 292 295 303 313 321
1290.0 326 329 338 334 340 339 340 339 336 338
1330.0 348 363 393 426 444 469 471 485 510 534
1370.0 560 591 652 670 679 649 576 513 493 470
1410.0 454 448 420 422 437 488 565 680 806 922
1450.0 1042 1129 1197 1213 1183 1090 941 778 610 474
1490.0 380 306 254 234 202 193 175 169 164 161
1530.0 156 151 149 142 135 124 122 116 116 107
1570.0 101 105 103 103 97 106 104 111 110 111
1610.0 117 129 141 144 178 217 270 313 329 318
1650.0 297 262 228 217 201 196 187 178 180 209
1690.0 243 273 304 316 313 310 324 322 317 300
1730.0 291 287 291 297 301 304 292 281 257 248
1770.0 236 225 209 190 180 165 159 148 145 134
1810.0 123 114 107 103 96 93 87 84 73 65
1850.0 66 61 62 57 60 58 62 51 56 49
1890.0 52 49 47 49 52 54 50 60 52 54
1930.0 52 55 53 53 59 58 53 54 59 58
1970.0 57 60 56 65 59 65 72 73 73 71
2010.0 64 66 62 55 64 61 68 57 58 59
2050.0 53 52 51 54 51 49 52 53 46 49
2090.0 53 52 55 49 48 49 53 44 47 49
2130.0 52 48 44 47 45 53 46 44 51 45
2170.0 44 46 51 49 48 49 51 46 48 51
2210.0 48 49 46 47 45 45 43 48 44 45
2250.0 45 45 42 40 47 38 40 36 36 27
2290.0 31 20 17 20 9 0 9 16 12 17
2330.0 24 14 15 35 30 27 31 39 63 64
2370.0 54 64 54 59 52 51 48 59 53 51
2410.0 55 49 53 49 48 55 48 47 47 47
2450.0 49 44 43 42 40 45 46 45 46 47
2490.0 44 37 43 42 46 45 50 53 57 50
2530.0 58 63 62 64 58 67 62 71 71 67
2570.0 69 73 73 67 70 70 74 77 75 83
2610.0 81 82 81 89 88 96 89 95 98 103
2650.0 105 103 115 117 114 119 123 125 123 121
2690.0 114 112 116 122 122 127 122 131 134 150
2730.0 162 176 193 210 214 203 187 177 171 171
2770.0 180 182 183 200 218 234 253 278 293 314
2810.0 341 369 401 447 506 579 703 871 1113 1444
2850.0 1860 2395 2970 3522 3980 4203 4199 4158 3966 3691
2890.0 3495 3274 3175 3276 3592 4111 4844 5800 6990 8307
2930.0 9374 10000 9912 9221 8140 7112 6285 5917 6045 6540
2970.0 6653 6148 5274 4028 3022 2392 1986 1725 1600 1527
3010.0 1537 1599 1687 1746 1702 1608 1413 1190 978 811
3050.0 675 571 503 465 432 420 418 418 435 437
3090.0 415 374 315 259 230 210 190 178 165 151
3130.0 148 155 136 139 125 108 126 109 99 97
3170.0 104 82 79 86 77 85 81 80 82 73
3210.0 51 74 60 39 57 61 39 45 24 30
3250.0 47 47 31 19 11 27 33 37 40 30
3290.0 23 29 34 40 33 48 30 40 46 41
3330.0 50 43 38 45 33 44 39 43 45 45
3370.0 50 42 39 46 47 48 53 59 43 44
3410.0 47 53 60 48 46 59 48 41 52 44
3450.0 59 48 64 28 69 46 37 40 41 45
3490.0 62 38 36 50 32 54 37 48 35 69
3530.0 50 74 67 57 0 24 31 43 65 60
3570.0 80 71 95 94 85 72 77 69 65 91
3610.0 79 51 65 72 65 83 96 83 85 88
3650.0 112 115 96 83 99 94 78 76 68 80
3690.0 74 56 93 79 64 65 67 46 50 68
3730.0 79 47 56 72 81 78 61 59 47 72
3770.0 57 64 60 66 71 62 59 55 55 60
3810.0 98 58 54 98 82 51 86 84 38 60
3850.0 45 74 50 80 103 71 50 86 49 78
3890.0 70 59 57 35 78 94 71 56 35 57
3930.0 57 66 57 97 74 75 85 64 40 76
##END=
