##TITLE=Ethanol, 2,2'-oxybis-
##JCAMP-DX=4.24
##DATA TYPE=INFRARED SPECTRUM
##ORIGIN=Sadtler Research Labs Under US-EPA Contract
##OWNER=NIST Standard Reference Data Program
##CAS REGISTRY NO=111-46-6
##MOLFORM=C 4 H 10 O 3
##XUNITS=1/CM
##YUNITS=ABSORBANCE
##XFACTOR=1.0
##YFACTOR=0.000057861
##DELTAX=4.0
##FIRSTX=450.0
##LASTX=3966.0
##FIRSTY=0.027484
##MAXX=3966
##MINX=450
##MAXY=0.57861
##MINY=0
##NPOINTS=880
##XYDATA=(X++(Y..Y))
450.0 475 463 453 463 487 477 448 419 393 400
490.0 438 445 476 541 505 517 532 562 582 597
530.0 577 602 565 502 479 461 395 350 365 322
570.0 278 257 237 207 163 193 173 174 160 141
610.0 132 122 140 111 102 124 131 92 102 103
650.0 118 98 132 105 70 121 96 87 33 73
690.0 72 98 63 75 75 48 98 75 84 58
730.0 85 91 71 105 81 72 117 134 126 124
770.0 151 203 222 295 337 351 446 481 551 545
810.0 579 581 559 562 552 550 544 577 606 697
850.0 742 827 959 1066 1240 1388 1523 1648 1793 1892
890.0 1946 2015 2045 2033 1995 1885 1725 1529 1330 1135
930.0 964 829 748 695 660 634 647 631 649 679
970.0 709 739 788 859 939 1030 1156 1294 1458 1646
1010.0 1906 2169 2520 2942 3437 4085 4933 5985 7182 8334
1050.0 9312 9864 10000 9745 9358 8681 8013 7433 6787 6094
1090.0 5448 4812 4330 4093 4155 4558 5321 6383 7580 8693
1130.0 9461 9532 9082 8021 6607 5184 4011 3181 2574 2135
1170.0 1843 1638 1541 1488 1503 1564 1642 1705 1780 1808
1210.0 1827 1792 1763 1703 1673 1628 1626 1634 1668 1711
1250.0 1746 1769 1792 1808 1765 1718 1653 1573 1498 1418
1290.0 1343 1251 1174 1098 1059 1037 1054 1073 1110 1166
1330.0 1271 1424 1699 2044 2385 2659 2780 2800 2753 2508
1370.0 2254 2090 1986 1958 1987 2004 2003 1972 1847 1725
1410.0 1553 1386 1276 1078 924 834 757 776 730 813
1450.0 964 1147 1370 1319 1356 1258 1140 909 720 594
1490.0 534 385 343 255 283 266 179 169 191 134
1530.0 101 118 111 152 113 78 97 145 97 53
1570.0 69 49 61 29 28 21 20 12 5 13
1610.0 22 11 41 9 18 12 18 40 10 46
1650.0 26 116 12 6 10 48 28 31 48 75
1690.0 25 31 68 102 50 26 54 105 33 33
1730.0 46 124 59 66 74 100 66 58 60 35
1770.0 67 56 25 30 42 22 51 20 37 13
1810.0 14 4 14 1 15 15 12 10 8 41
1850.0 19 0 10 19 20 29 20 14 13 14
1890.0 30 29 23 34 41 60 60 97 99 106
1930.0 108 129 127 147 142 130 127 122 110 111
1970.0 94 86 69 58 52 60 45 36 38 29
2010.0 30 31 32 13 22 23 25 14 27 19
2050.0 26 26 27 34 36 30 37 47 48 48
2090.0 48 49 49 60 49 55 62 57 71 71
2130.0 79 72 72 72 73 71 66 66 57 58
2170.0 59 60 50 51 53 44 35 36 37 30
2210.0 33 30 29 31 38 31 23 24 33 33
2250.0 35 40 35 34 30 42 30 28 28 36
2290.0 21 30 30 31 30 56 56 50 36 53
2330.0 59 32 46 37 18 80 114 81 56 77
2370.0 66 61 47 48 54 43 58 49 51 60
2410.0 59 62 52 45 53 48 55 60 64 48
2450.0 54 48 48 48 48 49 49 48 35 47
2490.0 38 42 33 44 36 45 54 56 49 48
2530.0 54 60 68 72 72 77 62 72 63 81
2570.0 82 75 68 66 75 80 74 70 77 87
2610.0 83 75 83 84 85 93 104 82 105 106
2650.0 116 124 137 153 144 170 180 208 228 234
2690.0 267 283 313 316 330 370 393 421 441 452
2730.0 445 445 438 447 449 430 472 478 473 509
2770.0 536 547 566 618 656 667 693 720 761 803
2810.0 859 911 976 1049 1131 1254 1423 1631 1913 2251
2850.0 2678 3144 3633 4170 4741 5253 5733 6074 6274 6358
2890.0 6337 6264 6099 5906 5757 5669 5673 5765 5969 6143
2930.0 6430 6584 6627 6632 6469 6370 6144 5857 5420 4800
2970.0 4153 3382 2607 1978 1511 1169 933 753 601 509
3010.0 415 328 292 282 251 230 187 201 183 191
3050.0 159 142 142 140 111 113 110 114 98 78
3090.0 96 80 75 82 71 99 75 72 87 76
3130.0 76 92 68 67 68 60 74 66 75 58
3170.0 67 42 69 77 67 60 55 63 63 56
3210.0 47 59 60 79 71 76 65 54 63 39
3250.0 45 47 69 59 34 60 61 55 55 51
3290.0 64 43 57 67 29 36 58 51 61 63
3330.0 44 53 39 40 52 44 68 43 66 63
3370.0 55 46 81 55 57 44 67 55 63 63
3410.0 57 39 57 74 87 108 65 101 104 105
3450.0 91 69 100 116 106 96 91 72 101 101
3490.0 112 129 131 154 156 149 148 154 178 209
3530.0 188 190 225 234 280 295 315 322 362 417
3570.0 445 399 395 412 435 483 479 506 553 599
3610.0 741 846 1006 1237 1437 1735 1903 1991 1969 1897
3650.0 1775 1569 1442 1326 1270 1233 1188 1122 949 823
3690.0 731 574 449 372 319 292 257 238 235 210
3730.0 215 230 224 196 250 227 207 190 198 192
3770.0 191 190 181 177 175 212 204 205 200 191
3810.0 173 190 209 228 199 194 210 231 216 224
3850.0 256 261 241 249 245 263 264 266 269 281
3890.0 267 280 280 292 306 288 291 298 281 291
3930.0 300 294 277 302 315 325 124 139 142 142
##END=
