##TITLE=Thiodiglycol
##JCAMP-DX=4.24
##DATA TYPE=INFRARED SPECTRUM
##ORIGIN=Sadtler Research Labs Under US-EPA Contract
##OWNER=NIST Standard Reference Data Program
##CAS REGISTRY NO=111-48-8
##MOLFORM=C 4 H 10 O 2 S
##XUNITS=1/CM
##YUNITS=ABSORBANCE
##XFACTOR=1.0
##YFACTOR=0.000072845
##DELTAX=4.0
##FIRSTX=450.0
##LASTX=3966.0
##FIRSTY=0.000000
##MAXX=3966
##MINX=450
##MAXY=0.72845
##MINY=0
##NPOINTS=880
##XYDATA=(X++(Y..Y))
450.0 0 744 818 1165 1284 1141 1262 1101 1066 1076
490.0 835 902 866 823 678 584 502 502 454 597
530.0 559 534 516 466 541 510 666 537 606 350
570.0 411 432 528 553 515 376 363 451 440 470
610.0 552 456 432 475 384 543 500 459 462 489
650.0 468 398 528 481 474 460 487 554 669 641
690.0 491 557 563 496 365 475 480 503 552 479
730.0 576 532 613 453 518 641 754 766 779 810
770.0 690 751 691 564 562 735 788 870 857 929
810.0 900 865 785 774 778 748 719 782 664 670
850.0 612 614 591 575 662 738 786 787 795 784
890.0 758 760 750 803 788 907 1072 1295 1535 1705
930.0 1820 1853 1796 1653 1483 1365 1269 1226 1262 1254
970.0 1294 1402 1500 1646 1805 1996 2251 2496 2821 3187
1010.0 3540 4043 4645 5339 6138 7159 8258 9029 9400 9700
1050.0 9556 9600 9771 10000 9730 9016 8096 6640 5183 3956
1090.0 3046 2487 2061 1929 1851 1835 1924 2061 2214 2214
1130.0 2222 2139 1951 1883 1778 1680 1661 1729 1874 2032
1170.0 2177 2246 2326 2287 2167 1979 1856 1787 1687 1641
1210.0 1574 1528 1495 1506 1488 1470 1462 1457 1454 1522
1250.0 1589 1700 1879 2071 2251 2384 2451 2448 2408 2301
1290.0 2217 2087 1987 1861 1768 1689 1654 1641 1637 1685
1330.0 1781 1870 1985 1963 1893 1865 1826 1849 1957 2185
1370.0 2420 2875 3329 3669 4025 3979 3943 3691 3217 2970
1410.0 2688 2583 2456 2313 2106 1859 1696 1493 1274 1147
1450.0 1030 1050 1043 1080 1083 1149 1129 1079 984 843
1490.0 800 696 632 576 586 653 550 539 516 511
1530.0 458 493 433 459 481 449 442 421 456 404
1570.0 411 426 401 416 401 401 430 382 436 412
1610.0 408 421 396 431 386 438 383 409 396 375
1650.0 413 378 425 350 409 403 388 398 405 389
1690.0 388 374 374 447 391 403 401 418 408 389
1730.0 436 404 417 408 397 437 402 412 393 383
1770.0 417 366 371 382 392 394 365 401 369 383
1810.0 355 365 377 350 392 369 366 378 355 418
1850.0 369 359 373 376 404 387 403 380 390 392
1890.0 391 391 383 387 374 381 360 380 367 372
1930.0 352 361 359 355 374 350 359 360 358 367
1970.0 363 368 367 376 378 378 401 381 388 394
2010.0 391 397 396 409 404 410 415 414 425 417
2050.0 419 415 411 409 410 404 393 393 394 392
2090.0 395 394 394 395 391 394 399 392 390 393
2130.0 387 378 376 369 360 361 360 361 354 356
2170.0 355 355 356 360 360 362 364 366 369 368
2210.0 371 373 373 374 375 376 374 373 369 366
2250.0 368 365 367 362 354 353 349 354 350 351
2290.0 355 354 361 358 356 355 357 356 355 349
2330.0 350 348 356 355 346 360 357 365 352 353
2370.0 351 362 358 365 369 370 368 371 375 374
2410.0 375 374 376 377 382 387 385 387 386 388
2450.0 387 383 384 380 376 370 367 360 358 354
2490.0 352 352 357 350 348 352 352 354 353 346
2530.0 348 348 348 348 343 346 339 340 340 341
2570.0 343 338 337 344 344 348 346 351 348 354
2610.0 359 356 358 366 365 372 381 382 390 400
2650.0 410 420 424 442 447 458 460 469 474 486
2690.0 488 495 499 511 518 525 544 553 566 574
2730.0 584 595 604 608 616 619 619 627 638 639
2770.0 641 650 652 662 673 695 715 750 787 822
2810.0 866 903 947 989 1033 1082 1155 1239 1337 1470
2850.0 1644 1879 2218 2672 3247 3886 4466 4816 4895 4719
2890.0 4379 4000 3685 3557 3619 3900 4400 5055 5789 6429
2930.0 6754 6782 6556 6225 5872 5641 5539 5451 5265 4896
2970.0 4353 3704 2997 2377 1882 1500 1223 1011 868 770
3010.0 689 628 580 553 524 497 481 476 454 439
3050.0 434 421 418 415 409 404 397 387 379 372
3090.0 366 367 360 360 354 355 350 355 354 349
3130.0 352 354 358 351 356 355 356 360 361 362
3170.0 368 366 365 371 371 369 371 381 377 374
3210.0 383 379 382 383 375 373 381 380 375 381
3250.0 381 381 385 387 385 386 398 394 395 402
3290.0 396 396 396 407 409 413 406 410 412 415
3330.0 421 434 428 427 443 445 448 447 457 475
3370.0 477 473 479 485 488 506 516 525 522 522
3410.0 535 529 541 544 553 558 559 557 563 577
3450.0 591 580 597 608 601 599 608 603 639 613
3490.0 612 622 636 658 701 682 738 736 818 860
3530.0 875 904 956 968 1051 1045 1129 1142 1283 1373
3570.0 1554 1503 1560 1519 1563 1541 1452 1353 1304 1233
3610.0 1206 1130 1041 1015 933 984 917 917 967 1060
3650.0 1257 1548 1724 1982 2082 2085 1996 1638 1383 1091
3690.0 880 759 635 577 541 517 518 477 479 466
3730.0 444 436 455 420 387 428 336 381 337 337
3770.0 336 337 337 337 337 337 337 337 337 337
3810.0 337 337 337 337 337 337 337 337 337 337
3850.0 337 337 337 337 337 337 337 337 337 337
3890.0 337 337 337 337 337 337 337 337 337 337
3930.0 337 337 337 337 341 336 337 337 337 337
##END=
