##TITLE=2-Octanone
##JCAMP-DX=4.24
##DATA TYPE=INFRARED SPECTRUM
##ORIGIN=Sadtler Research Labs Under US-EPA Contract
##OWNER=NIST Standard Reference Data Program
##CAS REGISTRY NO=111-13-7
##MOLFORM=C 8 H 16 O
##XUNITS=1/CM
##YUNITS=ABSORBANCE
##XFACTOR=1.0
##YFACTOR=0.000117670
##DELTAX=4.0
##FIRSTX=450.0
##LASTX=3966.0
##FIRSTY=0.079309
##MAXX=3966
##MINX=450
##MAXY=1.1767
##MINY=0
##NPOINTS=880
##XYDATA=(X++(Y..Y))
450.0 674 281 20 179 126 223 176 197 144 79
490.0 160 175 154 163 188 212 253 262 257 275
530.0 283 247 282 221 145 109 95 102 101 74
570.0 81 95 123 162 247 243 291 256 219 164
610.0 85 61 34 34 17 3 12 24 53 41
650.0 44 46 46 60 26 91 88 74 93 98
690.0 86 112 130 166 214 272 319 334 333 315
730.0 288 230 203 182 166 144 140 125 115 116
770.0 113 115 116 139 124 84 89 111 103 109
810.0 109 98 98 103 95 100 113 114 119 116
850.0 126 131 122 140 145 139 142 151 169 185
890.0 200 211 213 222 228 239 239 244 252 278
930.0 323 374 431 478 508 507 487 451 414 379
970.0 356 336 326 311 288 269 264 256 254 249
1010.0 252 251 254 257 273 280 292 303 310 314
1050.0 314 312 307 298 290 280 276 277 285 299
1090.0 313 341 366 408 445 472 490 502 507 512
1130.0 537 582 672 818 1048 1407 1923 2458 2779 2744
1170.0 2367 1811 1380 1161 1055 1016 1007 1012 1030 1065
1210.0 1117 1168 1191 1185 1134 1054 953 854 766 701
1250.0 660 642 636 633 637 648 662 674 665 648
1290.0 627 608 596 599 613 630 646 662 679 726
1330.0 787 894 1033 1237 1525 1929 2462 2980 3309 3299
1370.0 2924 2396 1930 1573 1309 1123 960 853 817 832
1410.0 883 941 985 1019 1021 1009 1006 1013 1058 1121
1450.0 1225 1335 1428 1475 1433 1310 1120 909 705 542
1490.0 422 343 295 265 243 227 219 213 202 198
1530.0 193 192 183 173 167 163 152 146 143 135
1570.0 131 129 124 114 112 104 105 96 95 95
1610.0 90 90 85 91 88 97 94 100 102 113
1650.0 111 125 143 156 186 213 260 313 393 495
1690.0 615 766 939 1170 1470 1917 2518 3392 4451 5593
1730.0 6454 6770 6330 5418 4182 3051 2132 1506 1082 832
1770.0 645 501 398 311 251 194 170 138 122 105
1810.0 96 83 71 68 58 50 46 47 39 37
1850.0 37 35 31 30 29 23 26 24 29 24
1890.0 20 21 21 21 17 20 15 17 12 10
1930.0 16 15 17 11 20 23 22 17 19 18
1970.0 17 16 15 19 13 13 12 14 16 13
2010.0 11 14 16 16 18 23 24 20 24 19
2050.0 18 16 16 23 24 28 27 28 23 22
2090.0 21 19 22 20 22 23 25 24 23 23
2130.0 22 19 20 23 20 22 22 22 21 20
2170.0 22 22 20 20 22 20 19 17 17 15
2210.0 16 15 10 12 12 10 9 8 10 6
2250.0 8 8 13 8 11 10 12 13 13 13
2290.0 15 15 19 25 29 30 31 31 35 30
2330.0 24 22 10 6 1 9 34 29 23 1
2370.0 0 0 0 2 3 5 6 7 10 5
2410.0 10 7 8 5 6 3 3 7 5 2
2450.0 0 0 2 2 0 4 3 2 4 2
2490.0 3 6 9 10 9 9 12 8 10 12
2530.0 16 15 18 16 17 19 19 23 21 24
2570.0 28 32 33 30 25 29 31 29 28 31
2610.0 31 33 37 39 36 45 49 52 59 62
2650.0 65 59 60 72 83 93 102 111 107 103
2690.0 92 85 87 86 79 84 83 84 85 90
2730.0 101 111 122 129 138 145 137 134 135 138
2770.0 144 148 157 172 187 209 234 263 293 325
2810.0 361 394 430 466 509 571 656 776 964 1238
2850.0 1631 2172 2791 3390 3871 4125 4181 4175 4105 3919
2890.0 3768 3591 3514 3654 3935 4346 4941 5759 6789 7926
2930.0 8963 9700 10000 9755 9077 8226 7436 7022 7022 7417
2970.0 7421 6615 5342 3772 2561 1847 1405 1159 1045 999
3010.0 972 923 837 735 629 542 484 432 403 367
3050.0 348 328 316 302 285 275 265 246 231 222
3090.0 201 189 180 167 154 142 139 109 107 101
3130.0 94 93 96 92 84 83 87 82 69 69
3170.0 70 63 63 68 65 64 60 60 62 52
3210.0 51 41 35 33 28 34 25 31 25 19
3250.0 13 28 21 7 13 23 21 11 20 22
3290.0 24 9 17 10 15 10 18 8 16 15
3330.0 26 34 9 21 21 7 21 27 37 29
3370.0 39 25 20 26 37 36 29 29 28 40
3410.0 50 55 53 58 78 83 99 111 133 141
3450.0 140 134 110 94 83 61 58 44 31 29
3490.0 21 22 13 19 24 14 17 6 17 7
3530.0 0 15 5 6 20 27 15 9 13 24
3570.0 13 0 17 18 8 8 14 17 13 9
3610.0 36 31 23 38 31 29 52 40 52 59
3650.0 86 73 94 94 75 58 58 33 42 49
3690.0 44 22 43 33 33 26 31 39 39 36
3730.0 41 32 10 19 19 27 18 22 30 33
3770.0 25 22 31 35 22 34 36 26 33 10
3810.0 21 37 46 32 35 40 32 48 35 36
3850.0 31 36 19 23 45 36 52 45 21 47
3890.0 55 34 32 27 22 34 32 19 49 21
3930.0 35 43 57 29 44 74 56 23 0 26
##END=
