##TITLE=Hexanedinitrile
##JCAMP-DX=4.24
##DATA TYPE=INFRARED SPECTRUM
##ORIGIN=Sadtler Research Labs Under US-EPA Contract
##OWNER=NIST Standard Reference Data Program
##CAS REGISTRY NO=111-69-3
##MOLFORM=C 6 H 8 N 2
##XUNITS=1/CM
##YUNITS=ABSORBANCE
##XFACTOR=1.0
##YFACTOR=0.000056027
##DELTAX=4.0
##FIRSTX=450.0
##LASTX=3966.0
##FIRSTY=0.000000
##MAXX=3966
##MINX=450
##MAXY=0.56027
##MINY=0
##NPOINTS=880
##XYDATA=(X++(Y..Y))
450.0 0 1128 1620 1298 1312 1568 1388 1549 1354 1497
490.0 1314 1418 1408 1505 1404 1548 1565 1433 1574 1529
530.0 1589 1510 1568 1511 1517 1506 1537 1531 1460 1522
570.0 1445 1498 1426 1468 1449 1498 1307 1336 1433 1399
610.0 1445 1387 1393 1417 1411 1382 1380 1405 1366 1390
650.0 1396 1398 1383 1415 1402 1406 1417 1431 1451 1445
690.0 1474 1498 1548 1583 1628 1640 1700 1727 1742 1784
730.0 1807 1832 1818 1835 1808 1761 1708 1656 1629 1603
770.0 1579 1560 1543 1552 1533 1533 1542 1529 1526 1503
810.0 1478 1480 1461 1482 1459 1482 1483 1491 1496 1490
850.0 1508 1505 1520 1514 1540 1590 1646 1687 1742 1785
890.0 1812 1785 1753 1692 1637 1624 1598 1582 1563 1537
930.0 1517 1479 1468 1445 1457 1460 1472 1473 1477 1471
970.0 1452 1420 1406 1397 1380 1384 1388 1396 1396 1409
1010.0 1406 1416 1421 1434 1437 1452 1460 1466 1485 1490
1050.0 1495 1487 1477 1461 1445 1432 1428 1420 1429 1438
1090.0 1422 1406 1394 1386 1382 1374 1370 1360 1358 1352
1130.0 1355 1345 1360 1345 1353 1359 1366 1375 1375 1391
1170.0 1391 1399 1396 1406 1406 1415 1429 1436 1448 1442
1210.0 1463 1460 1473 1472 1480 1475 1474 1484 1480 1484
1250.0 1479 1495 1495 1533 1569 1586 1585 1568 1570 1573
1290.0 1588 1566 1581 1593 1668 1790 1949 2122 2264 2384
1330.0 2396 2364 2323 2246 2170 2153 2119 2048 1997 1874
1370.0 1755 1630 1603 1532 1558 1539 1568 1583 1637 1725
1410.0 1825 2012 2281 2685 3147 3833 4480 4821 5104 5113
1450.0 4903 4538 4231 4009 3643 3245 2805 2455 2148 1907
1490.0 1785 1625 1589 1490 1510 1483 1443 1421 1425 1399
1530.0 1383 1383 1383 1371 1367 1344 1345 1332 1337 1307
1570.0 1321 1287 1322 1283 1297 1292 1305 1289 1292 1294
1610.0 1278 1278 1282 1279 1276 1264 1282 1267 1267 1272
1650.0 1283 1256 1283 1244 1252 1264 1244 1257 1261 1269
1690.0 1255 1258 1244 1281 1250 1257 1261 1277 1261 1261
1730.0 1286 1277 1283 1283 1290 1272 1275 1244 1253 1238
1770.0 1249 1240 1238 1247 1243 1251 1252 1257 1257 1251
1810.0 1239 1238 1237 1230 1233 1224 1229 1219 1223 1237
1850.0 1220 1218 1214 1219 1215 1227 1212 1216 1217 1220
1890.0 1224 1224 1225 1216 1220 1217 1213 1221 1213 1212
1930.0 1201 1205 1198 1205 1200 1197 1199 1202 1197 1205
1970.0 1208 1203 1209 1207 1212 1213 1221 1212 1215 1217
2010.0 1221 1221 1228 1229 1219 1224 1227 1227 1225 1229
2050.0 1225 1220 1222 1219 1221 1218 1220 1216 1221 1216
2090.0 1216 1213 1213 1210 1206 1204 1207 1207 1205 1208
2130.0 1211 1206 1207 1206 1212 1211 1213 1213 1211 1209
2170.0 1215 1217 1212 1213 1211 1210 1209 1212 1215 1213
2210.0 1215 1225 1232 1241 1263 1299 1344 1429 1539 1667
2250.0 1764 1808 1795 1723 1590 1468 1387 1331 1297 1274
2290.0 1258 1243 1232 1219 1215 1212 1210 1207 1213 1214
2330.0 1213 1220 1229 1217 1226 1224 1202 1218 1196 1211
2370.0 1215 1215 1221 1215 1214 1209 1211 1206 1206 1200
2410.0 1202 1201 1197 1196 1191 1195 1198 1202 1204 1206
2450.0 1205 1200 1197 1197 1188 1185 1183 1181 1181 1179
2490.0 1183 1184 1183 1187 1183 1182 1181 1180 1185 1182
2530.0 1180 1183 1176 1170 1167 1163 1163 1161 1159 1161
2570.0 1165 1171 1173 1184 1194 1200 1214 1226 1243 1249
2610.0 1253 1251 1244 1237 1227 1221 1217 1213 1214 1217
2650.0 1223 1226 1231 1228 1221 1223 1216 1212 1213 1213
2690.0 1218 1228 1226 1228 1231 1232 1229 1228 1221 1224
2730.0 1221 1214 1213 1213 1215 1222 1228 1234 1252 1261
2770.0 1267 1270 1266 1259 1254 1255 1255 1261 1270 1278
2810.0 1291 1306 1327 1345 1374 1407 1453 1508 1572 1652
2850.0 1750 1855 1987 2154 2354 2603 2882 3121 3290 3364
2890.0 3275 3083 2850 2625 2479 2407 2450 2608 2919 3406
2930.0 4000 4658 5361 6130 6937 7692 8478 9288 9875 10000
2970.0 9475 8506 7126 5445 4010 3084 2429 2030 1764 1609
3010.0 1517 1448 1400 1363 1337 1313 1306 1285 1283 1272
3050.0 1274 1267 1256 1257 1258 1256 1252 1245 1245 1241
3090.0 1234 1237 1233 1231 1234 1221 1217 1221 1223 1229
3130.0 1237 1251 1252 1260 1267 1277 1274 1278 1270 1266
3170.0 1263 1260 1253 1251 1246 1238 1233 1230 1227 1222
3210.0 1217 1217 1211 1212 1206 1208 1212 1213 1211 1213
3250.0 1213 1221 1223 1223 1221 1213 1220 1212 1211 1211
3290.0 1202 1198 1195 1199 1197 1201 1198 1201 1202 1206
3330.0 1199 1193 1192 1185 1188 1181 1175 1171 1171 1163
3370.0 1172 1172 1168 1165 1169 1166 1168 1175 1172 1169
3410.0 1165 1167 1174 1172 1177 1168 1167 1170 1176 1169
3450.0 1171 1174 1173 1174 1176 1173 1161 1174 1185 1183
3490.0 1180 1179 1179 1190 1177 1183 1175 1188 1191 1183
3530.0 1190 1183 1186 1184 1182 1198 1192 1175 1196 1163
3570.0 1200 1195 1186 1198 1175 1198 1183 1189 1193 1177
3610.0 1182 1183 1175 1173 1189 1174 1184 1196 1178 1193
3650.0 1166 1193 1207 1183 1207 1159 1203 1170 1229 1190
3690.0 1205 1195 1214 1206 1195 1179 1205 1203 1194 1215
3730.0 1200 1179 1221 1207 1183 1215 1163 1207 1193 1206
3770.0 1204 1194 1202 1183 1231 1199 1199 1180 1205 1187
3810.0 1211 1190 1215 1160 1200 1202 1199 1190 1211 1203
3850.0 1193 1171 1178 1215 1192 1175 1206 1206 1165 1181
3890.0 1184 1178 1190 1196 1218 1198 1224 1202 1234 1211
3930.0 1214 1208 1222 1221 1214 1218 1214 1219 1226 1239
##END=
