##TITLE=Hexadecanoic acid, butyl ester
##JCAMP-DX=4.24
##DATA TYPE=INFRARED SPECTRUM
##ORIGIN=Sadtler Research Labs Under US-EPA Contract
##OWNER=NIST Standard Reference Data Program
##CAS REGISTRY NO=111-06-8
##MOLFORM=C 20 H 40 O 2
##XUNITS=1/CM
##YUNITS=ABSORBANCE
##XFACTOR=1.0
##YFACTOR=0.000064099
##DELTAX=4.0
##FIRSTX=450.0
##LASTX=3966.0
##FIRSTY=0.023012
##MAXX=3966
##MINX=450
##MAXY=0.64099
##MINY=0
##NPOINTS=880
##XYDATA=(X++(Y..Y))
450.0 359 285 152 425 210 44 184 0 186 60
490.0 136 81 113 65 135 122 87 151 96 107
530.0 55 67 51 55 66 89 129 29 61 87
570.0 149 11 66 121 119 109 54 54 77 100
610.0 99 100 110 108 100 81 91 91 83 79
650.0 83 67 42 56 44 79 93 83 62 74
690.0 99 108 110 143 167 179 232 223 240 239
730.0 237 231 242 235 201 203 200 197 174 179
770.0 172 174 180 176 162 149 154 163 173 184
810.0 191 164 161 162 172 176 185 187 179 179
850.0 168 170 155 157 158 171 168 162 175 175
890.0 175 174 171 170 175 179 181 177 168 178
930.0 182 188 200 225 249 274 281 288 295 306
970.0 314 308 302 287 280 283 292 309 325 370
1010.0 400 439 462 481 472 459 429 407 396 378
1050.0 387 411 468 530 606 632 636 622 603 603
1090.0 608 616 633 658 707 775 839 863 855 825
1130.0 831 886 998 1172 1378 1573 1724 1858 1969 2076
1170.0 2124 2114 2026 1878 1736 1594 1493 1402 1351 1302
1210.0 1282 1266 1263 1280 1306 1354 1386 1415 1427 1402
1250.0 1331 1239 1145 1057 979 920 873 820 772 725
1290.0 707 697 695 697 687 685 659 628 589 572
1330.0 566 594 627 691 751 790 815 783 729 658
1370.0 597 524 484 487 503 505 456 381 317 283
1410.0 261 256 275 298 336 380 443 461 545 599
1450.0 728 807 950 1056 1020 922 734 551 418 320
1490.0 259 209 192 166 148 154 148 130 129 122
1530.0 120 101 104 91 107 101 102 79 86 83
1570.0 82 70 96 83 82 84 87 88 87 82
1610.0 77 81 87 88 89 79 84 74 86 78
1650.0 80 81 98 87 86 99 81 117 106 122
1690.0 134 149 156 194 232 262 310 362 435 516
1730.0 656 835 1181 1677 2435 3193 3634 3205 2320 1545
1770.0 1035 755 564 469 357 310 241 219 183 162
1810.0 141 123 118 100 102 85 96 85 87 80
1850.0 81 80 75 75 67 72 66 70 62 69
1890.0 68 69 65 66 74 66 66 63 66 62
1930.0 62 66 63 62 57 64 58 62 58 58
1970.0 55 58 57 57 61 62 66 62 67 65
2010.0 70 70 75 71 74 76 79 79 81 79
2050.0 78 81 77 73 77 75 76 77 78 78
2090.0 72 72 72 67 70 70 70 70 68 69
2130.0 70 72 67 67 68 68 64 68 66 64
2170.0 67 67 67 64 66 61 63 64 62 64
2210.0 61 61 62 60 63 64 62 65 60 61
2250.0 55 60 59 58 60 56 55 54 55 52
2290.0 47 40 32 29 22 14 16 9 11 14
2330.0 13 26 23 18 25 9 8 8 10 27
2370.0 45 46 51 52 48 56 60 59 63 56
2410.0 63 58 61 58 62 60 57 56 53 55
2450.0 55 56 52 55 49 56 49 50 50 54
2490.0 59 52 53 56 53 56 60 59 58 60
2530.0 58 59 53 54 57 60 57 61 59 60
2570.0 65 67 67 65 69 71 72 74 75 76
2610.0 76 77 78 80 85 83 91 96 102 100
2650.0 100 109 109 116 123 123 128 129 139 139
2690.0 135 134 131 127 125 126 125 126 127 128
2730.0 131 134 134 147 148 143 153 156 153 153
2770.0 149 150 156 160 174 196 203 221 235 251
2810.0 271 295 319 354 395 443 501 576 691 877
2850.0 1216 1818 2780 3693 3865 3388 2834 2418 2206 2086
2890.0 1953 1875 1943 2179 2532 2989 3537 4284 5395 7082
2930.0 9050 10000 9380 7943 6453 5096 4130 3647 3621 3807
2970.0 3823 3386 2634 1924 1429 1102 859 690 562 478
3010.0 410 360 329 296 266 242 233 210 197 182
3050.0 170 151 143 129 127 122 111 106 104 102
3090.0 101 99 94 87 90 85 80 83 77 70
3130.0 73 74 67 66 68 67 64 64 64 61
3170.0 56 61 53 59 58 53 58 50 49 46
3210.0 45 43 46 43 43 34 41 37 40 42
3250.0 38 42 46 46 40 34 31 34 40 42
3290.0 47 44 49 43 47 39 46 43 50 58
3330.0 46 41 41 42 39 35 46 44 47 49
3370.0 46 49 48 42 50 45 51 51 45 49
3410.0 50 58 59 50 47 48 52 48 47 43
3450.0 59 50 44 50 50 56 59 59 65 67
3490.0 66 66 54 48 34 43 46 47 37 32
3530.0 46 46 43 42 27 46 43 35 42 31
3570.0 55 61 56 64 33 54 31 45 49 44
3610.0 29 24 31 42 45 33 38 58 33 30
3650.0 16 38 50 32 58 8 37 21 61 21
3690.0 27 39 35 28 27 30 38 28 20 31
3730.0 17 8 15 22 11 26 7 34 23 21
3770.0 22 15 32 20 53 28 35 22 21 9
3810.0 46 18 21 9 24 23 29 8 35 33
3850.0 14 20 58 48 32 38 31 32 17 30
3890.0 39 43 46 15 50 46 45 35 57 29
3930.0 34 47 31 32 39 40 25 43 35 49
##END=
