##TITLE=Octadecanoic acid, ethenyl ester
##JCAMP-DX=4.24
##DATA TYPE=INFRARED SPECTRUM
##ORIGIN=Sadtler Research Labs Under US-EPA Contract
##OWNER=NIST Standard Reference Data Program
##CAS REGISTRY NO=111-63-7
##MOLFORM=C 20 H 38 O 2
##XUNITS=1/CM
##YUNITS=ABSORBANCE
##XFACTOR=1.0
##YFACTOR=0.000057227
##DELTAX=4.0
##FIRSTX=450.0
##LASTX=3966.0
##FIRSTY=0.008698
##MAXX=3966
##MINX=450
##MAXY=0.57227
##MINY=0
##NPOINTS=880
##XYDATA=(X++(Y..Y))
450.0 152 160 111 78 107 136 155 86 54 20
490.0 0 60 135 56 64 171 212 177 197 97
530.0 148 64 18 112 205 266 194 155 75 170
570.0 291 307 352 303 239 215 196 394 260 294
610.0 194 173 159 216 264 334 166 219 225 213
650.0 172 181 129 289 215 222 223 102 258 188
690.0 341 255 132 254 300 276 394 392 450 309
730.0 271 257 241 266 347 225 306 348 173 256
770.0 293 192 247 267 236 224 268 215 262 250
810.0 235 167 280 242 274 293 277 276 329 326
850.0 357 441 384 489 560 678 688 533 541 425
890.0 394 355 331 284 267 276 267 320 312 320
930.0 360 366 430 498 566 550 521 489 449 467
970.0 432 455 481 457 510 443 452 458 435 437
1010.0 387 409 407 360 381 332 360 404 384 376
1050.0 393 475 489 434 485 555 580 612 670 711
1090.0 750 807 851 910 972 1114 1188 1275 1382 1607
1130.0 1937 2402 3119 4050 4977 5460 5333 4729 3948 3288
1170.0 2686 2256 1996 1744 1614 1508 1455 1368 1360 1352
1210.0 1343 1279 1286 1259 1206 1151 1074 1037 949 906
1250.0 825 790 721 687 615 588 597 595 588 600
1290.0 652 685 759 786 756 709 699 646 617 616
1330.0 611 624 673 719 759 820 849 843 845 784
1370.0 729 674 577 524 468 384 358 335 281 290
1410.0 298 258 293 333 365 375 419 446 516 554
1450.0 640 765 853 888 856 725 561 419 308 254
1490.0 220 179 192 173 163 165 145 154 141 150
1530.0 138 122 138 112 145 144 137 144 155 156
1570.0 164 172 159 152 142 150 158 157 178 186
1610.0 203 216 259 290 363 464 599 784 1001 1243
1650.0 1333 1113 765 503 352 249 215 198 170 167
1690.0 140 157 175 200 210 218 226 280 287 318
1730.0 352 433 499 603 760 962 1250 1604 2053 2572
1770.0 3124 3423 3149 2526 1930 1412 1012 735 545 426
1810.0 354 282 236 208 180 167 159 143 122 127
1850.0 109 119 97 97 98 99 96 90 96 96
1890.0 88 88 85 78 77 77 75 76 76 64
1930.0 55 66 79 67 72 72 72 72 72 70
1970.0 79 79 79 80 76 79 91 84 84 88
2010.0 100 100 92 92 101 91 91 71 75 77
2050.0 76 80 75 79 69 69 60 60 76 60
2090.0 77 66 73 67 64 70 66 65 65 55
2130.0 55 63 62 55 41 56 48 47 37 43
2170.0 42 41 61 41 59 58 41 39 41 54
2210.0 47 46 36 36 34 46 44 45 44 44
2250.0 45 41 45 50 51 60 67 67 73 66
2290.0 74 100 108 118 128 137 115 137 130 131
2330.0 122 142 109 145 156 147 155 157 171 178
2370.0 137 114 92 97 50 34 30 12 21 19
2410.0 29 24 22 16 24 19 11 26 25 14
2450.0 17 6 6 6 22 5 14 14 17 23
2490.0 18 21 32 25 22 23 23 31 33 33
2530.0 32 38 42 46 36 33 33 42 35 33
2570.0 24 33 42 42 34 35 39 33 44 44
2610.0 51 43 53 61 62 61 62 64 70 70
2650.0 86 84 81 81 81 98 97 106 108 107
2690.0 105 115 87 104 108 90 110 99 97 98
2730.0 91 108 109 100 110 114 108 113 125 124
2770.0 117 124 126 144 162 188 198 214 226 240
2810.0 259 280 311 347 385 438 500 570 706 885
2850.0 1251 1887 2825 3686 3766 3245 2584 2094 1797 1657
2890.0 1557 1556 1676 1948 2302 2798 3394 4169 5431 7224
2930.0 9131 10000 9117 7454 5748 4381 3349 2721 2428 2321
2970.0 2149 1803 1364 1032 798 639 537 448 393 341
3010.0 313 259 245 205 214 189 178 169 169 155
3050.0 152 169 169 125 118 118 119 106 133 140
3090.0 162 181 171 154 138 101 119 93 96 149
3130.0 138 101 92 84 56 44 51 49 51 51
3170.0 52 51 49 65 26 43 44 40 45 24
3210.0 35 35 62 51 31 28 32 22 43 54
3250.0 44 48 19 31 38 36 36 38 46 37
3290.0 38 23 30 39 35 42 52 66 39 46
3330.0 29 47 22 27 26 14 58 55 40 58
3370.0 71 33 48 32 50 46 63 35 40 59
3410.0 50 15 47 37 60 27 58 59 17 35
3450.0 57 45 43 27 65 53 62 53 44 45
3490.0 44 34 50 71 73 76 50 79 72 71
3530.0 69 66 70 63 63 51 72 63 68 88
3570.0 133 168 203 154 123 106 73 55 46 57
3610.0 55 36 57 72 25 63 26 46 41 31
3650.0 39 30 5 14 20 25 17 15 27 23
3690.0 23 29 24 15 24 14 15 23 5 5
3730.0 19 5 11 7 7 9 7 8 5 8
3770.0 4 4 28 26 26 15 12 5 9 23
3810.0 26 26 17 24 28 27 28 29 14 5
3850.0 32 40 49 37 36 28 46 44 29 28
3890.0 38 48 37 43 43 61 39 30 30 39
3930.0 22 29 42 37 49 52 2 5 5 5
##END=
