##TITLE=Octanoyl chloride
##JCAMP-DX=4.24
##DATA TYPE=INFRARED SPECTRUM
##ORIGIN=Sadtler Research Labs Under US-EPA Contract
##OWNER=NIST Standard Reference Data Program
##CAS REGISTRY NO=111-64-8
##MOLFORM=C 8 H 15 Cl O
##XUNITS=1/CM
##YUNITS=ABSORBANCE
##XFACTOR=1.0
##YFACTOR=0.000056332
##DELTAX=4.0
##FIRSTX=450.0
##LASTX=3966.0
##FIRSTY=0.000000
##MAXX=3966
##MINX=450
##MAXY=0.56332
##MINY=0
##NPOINTS=880
##XYDATA=(X++(Y..Y))
450.0 0 642 982 456 526 316 320 522 539 576
490.0 263 337 285 414 450 287 172 525 571 528
530.0 533 668 529 773 697 948 933 967 1076 1619
570.0 1466 1727 1521 1561 1460 1456 1512 1294 1241 1122
610.0 901 798 745 648 603 505 559 621 563 555
650.0 509 479 478 573 669 813 924 1258 1467 1468
690.0 1324 1147 957 886 905 1079 1296 1598 1736 1794
730.0 1714 1640 1358 1254 1308 1079 974 803 755 743
770.0 722 738 690 578 591 681 692 679 682 675
810.0 679 617 604 492 559 489 475 607 511 552
850.0 433 681 602 645 719 744 843 898 824 820
890.0 884 1067 1044 934 1041 1173 1201 1444 1524 1784
930.0 2030 2118 2213 2291 2231 2288 2368 2555 2631 2702
970.0 2662 2610 2458 2317 2154 2080 2017 1982 1889 1819
1010.0 1771 1795 1882 1856 1859 1874 1895 1843 1845 1740
1050.0 1633 1479 1309 1245 1147 1106 988 939 935 943
1090.0 1022 1070 1164 1178 1185 1213 1239 1418 1490 1547
1130.0 1550 1549 1404 1299 1158 1071 926 845 795 853
1170.0 806 840 812 801 818 834 801 773 729 684
1210.0 636 605 530 508 556 472 511 501 505 594
1250.0 536 529 595 601 528 594 583 611 608 697
1290.0 661 680 702 719 716 684 616 691 672 655
1330.0 634 660 748 766 806 824 826 839 806 820
1370.0 791 800 810 803 843 759 690 607 588 615
1410.0 713 747 802 794 793 791 804 813 856 939
1450.0 1065 1228 1434 1545 1513 1382 1180 935 743 591
1490.0 508 468 445 426 409 379 311 314 285 254
1530.0 238 216 212 219 208 179 191 196 202 184
1570.0 166 181 176 182 177 165 167 179 178 171
1610.0 177 166 180 171 185 175 187 193 188 197
1650.0 223 234 246 213 261 264 291 308 312 363
1690.0 338 339 389 429 473 486 514 514 500 507
1730.0 530 610 704 758 874 1002 1151 1343 1552 1846
1770.0 2158 2546 2913 3267 3729 4259 5194 6537 7911 9365
1810.0 10000 9530 8482 6796 5231 3964 2970 2273 1769 1406
1850.0 1128 900 787 699 621 576 512 467 443 400
1890.0 393 374 350 334 326 321 291 288 288 267
1930.0 263 253 246 243 224 229 222 213 213 213
1970.0 210 206 197 196 193 198 186 181 186 177
2010.0 180 176 184 185 176 186 183 186 179 175
2050.0 175 168 167 171 169 165 166 161 165 166
2090.0 170 173 170 177 182 192 214 220 236 247
2130.0 247 238 212 198 188 178 174 167 176 172
2170.0 173 173 171 170 167 173 171 165 169 171
2210.0 175 181 178 185 188 187 187 190 200 195
2250.0 192 198 198 197 186 185 186 177 177 174
2290.0 175 175 167 169 161 166 178 174 173 169
2330.0 190 184 176 181 174 182 168 167 161 165
2370.0 183 169 169 177 175 184 188 187 195 190
2410.0 195 193 189 191 193 193 193 191 192 183
2450.0 189 189 193 191 188 191 198 190 194 192
2490.0 200 198 193 199 192 201 201 198 205 204
2530.0 211 211 205 212 213 214 221 216 221 225
2570.0 238 230 223 226 228 237 235 246 239 242
2610.0 243 244 243 256 271 261 265 266 267 268
2650.0 296 302 282 289 291 301 315 354 328 296
2690.0 317 300 320 354 357 298 312 316 303 380
2730.0 404 339 337 371 335 442 448 375 342 359
2770.0 353 434 509 358 417 387 446 558 566 471
2810.0 515 521 609 770 690 700 776 858 1056 1315
2850.0 1501 2056 2710 3497 4157 4339 4224 3979 3703 3446
2890.0 3090 2745 2562 2633 3022 3412 4068 4933 6137 7584
2930.0 8855 9703 9944 9721 8941 7819 6800 6272 6312 6534
2970.0 6623 5976 4817 3459 2300 1681 1393 1241 1043 797
3010.0 804 749 683 547 553 591 502 449 447 474
3050.0 394 366 382 380 333 339 344 314 321 307
3090.0 307 300 299 283 272 273 273 274 276 260
3130.0 254 248 240 240 253 252 251 232 234 241
3170.0 239 231 236 232 230 225 227 217 209 210
3210.0 214 212 201 204 202 195 192 196 186 195
3250.0 196 181 191 185 183 178 189 200 189 184
3290.0 178 184 194 179 175 178 175 187 182 196
3330.0 184 186 188 184 197 194 191 178 194 184
3370.0 188 187 181 189 192 200 185 186 190 189
3410.0 179 182 198 185 197 200 189 182 186 175
3450.0 185 178 186 195 193 188 176 189 178 188
3490.0 200 165 177 178 188 187 173 183 178 184
3530.0 192 186 193 213 208 213 225 247 288 338
3570.0 502 685 797 727 568 415 368 353 335 321
3610.0 292 274 264 243 208 219 203 175 192 200
3650.0 214 200 178 177 190 190 187 208 204 176
3690.0 234 185 161 193 169 190 195 183 201 192
3730.0 172 197 198 180 191 219 209 201 177 163
3770.0 182 193 181 170 184 178 178 193 203 206
3810.0 164 204 173 197 187 182 184 203 203 199
3850.0 205 185 213 212 198 221 185 199 190 210
3890.0 188 183 166 229 188 186 164 219 212 187
3930.0 228 185 162 185 200 169 186 215 195 196
##END=
