##TITLE=Octadecanoic acid, ethyl ester
##JCAMP-DX=4.24
##DATA TYPE=INFRARED SPECTRUM
##ORIGIN=Sadtler Research Labs Under US-EPA Contract
##OWNER=NIST Standard Reference Data Program
##CAS REGISTRY NO=111-61-5
##MOLFORM=C 20 H 40 O 2
##XUNITS=1/CM
##YUNITS=ABSORBANCE
##XFACTOR=1.0
##YFACTOR=0.000195004
##DELTAX=4.0
##FIRSTX=450.0
##LASTX=3966.0
##FIRSTY=0.029446
##MAXX=3966
##MINX=450
##MAXY=1.95004
##MINY=0
##NPOINTS=880
##XYDATA=(X++(Y..Y))
450.0 151 395 525 326 408 172 487 357 76 0
490.0 655 311 249 395 296 346 328 321 222 315
530.0 331 313 282 316 300 307 299 344 308 291
570.0 322 349 342 253 333 317 327 344 320 356
610.0 315 341 332 336 352 338 322 322 327 328
650.0 311 322 305 318 313 327 321 308 329 323
690.0 328 342 334 376 382 412 438 445 463 439
730.0 439 414 400 394 384 379 369 358 370 350
770.0 364 385 394 362 362 363 355 345 339 333
810.0 341 307 309 344 354 329 337 350 340 364
850.0 360 378 376 383 383 340 344 339 324 340
890.0 322 335 328 338 346 341 361 355 369 367
930.0 367 365 351 357 341 336 323 313 317 305
970.0 309 305 307 319 314 325 331 344 369 385
1010.0 428 470 540 621 716 831 918 984 985 956
1050.0 905 843 800 754 728 717 709 724 735 774
1090.0 821 887 973 1019 1058 1073 1104 1112 1091 1087
1130.0 1096 1167 1271 1425 1608 1785 1966 2109 2226 2313
1170.0 2335 2317 2250 2162 2042 1918 1810 1705 1630 1542
1210.0 1517 1495 1472 1484 1481 1505 1516 1533 1534 1500
1250.0 1452 1363 1266 1159 1063 989 923 884 849 829
1290.0 831 829 849 863 874 869 838 811 765 744
1330.0 726 737 777 815 865 879 862 816 790 840
1370.0 933 976 889 760 647 550 499 455 425 412
1410.0 394 406 407 440 473 516 562 597 666 743
1450.0 843 942 1035 1108 1076 975 798 619 500 406
1490.0 354 311 281 262 240 231 212 210 201 194
1530.0 194 182 189 177 177 177 168 174 169 167
1570.0 168 160 168 158 162 158 155 160 150 157
1610.0 149 154 153 149 153 145 153 149 147 154
1650.0 148 156 152 156 161 159 169 170 178 189
1690.0 200 222 234 272 301 341 396 454 557 679
1730.0 885 1153 1537 2017 2598 3150 3451 3143 2521 1935
1770.0 1458 1075 806 623 482 398 322 281 238 212
1810.0 193 170 159 144 139 133 122 121 115 113
1850.0 110 109 110 102 108 102 105 106 100 107
1890.0 100 106 100 101 102 94 98 91 95 94
1930.0 94 93 87 91 84 83 86 79 81 77
1970.0 78 78 72 79 71 72 72 70 76 70
2010.0 77 73 74 79 76 79 74 80 77 75
2050.0 78 71 73 70 68 69 62 67 59 59
2090.0 59 54 58 50 53 50 47 52 44 48
2130.0 43 44 45 40 44 39 42 40 37 43
2170.0 36 40 36 36 37 27 33 25 29 29
2210.0 26 32 26 36 30 32 35 29 35 31
2250.0 31 32 31 37 31 39 39 39 45 43
2290.0 55 57 63 71 71 84 74 83 80 74
2330.0 76 67 67 60 67 76 81 76 72 59
2370.0 47 46 61 55 53 41 40 41 39 45
2410.0 38 43 44 44 49 43 45 41 41 43
2450.0 36 42 40 42 45 40 50 42 46 45
2490.0 44 48 41 48 46 47 47 43 50 46
2530.0 53 50 54 57 47 53 51 50 55 51
2570.0 60 57 63 65 58 69 62 70 65 70
2610.0 71 69 79 75 77 80 80 86 81 92
2650.0 92 93 102 99 112 109 118 130 124 133
2690.0 128 131 126 116 119 112 115 110 110 117
2730.0 115 122 117 131 123 129 132 126 134 140
2770.0 146 150 151 168 178 190 201 222 240 254
2810.0 286 309 351 392 432 489 546 643 777 991
2850.0 1385 2031 2985 3804 3892 3369 2748 2297 2034 1887
2890.0 1794 1788 1938 2221 2661 3184 3824 4672 5926 7639
2930.0 9296 10000 9008 7729 6053 4768 3772 3197 2928 2847
2970.0 2704 2380 2017 1789 1649 1424 1186 980 837 722
3010.0 601 521 440 390 331 301 273 231 231 203
3050.0 188 174 160 164 157 151 128 122 131 117
3090.0 124 116 117 113 109 113 98 101 101 93
3130.0 99 92 93 90 83 95 78 93 86 80
3170.0 82 76 85 73 80 72 66 81 65 82
3210.0 55 70 70 54 61 49 56 58 58 57
3250.0 46 54 42 51 55 42 53 44 45 40
3290.0 35 48 39 60 51 49 45 43 60 49
3330.0 49 45 38 36 43 45 36 36 41 36
3370.0 50 25 29 48 42 51 49 49 42 41
3410.0 48 45 56 45 55 54 46 47 38 55
3450.0 48 56 64 52 67 64 69 63 70 82
3490.0 73 82 70 64 72 51 65 43 58 50
3530.0 51 59 41 53 70 64 65 60 77 70
3570.0 90 106 108 94 67 89 85 72 80 60
3610.0 78 74 82 77 75 84 81 87 95 71
3650.0 89 70 86 86 80 102 67 77 73 78
3690.0 84 89 94 75 94 83 89 105 91 96
3730.0 89 97 96 86 97 111 88 107 89 106
3770.0 89 110 97 91 89 82 107 94 102 117
3810.0 108 122 107 114 119 99 109 82 95 108
3850.0 121 111 102 97 107 113 98 95 114 121
3890.0 112 104 90 120 82 101 111 114 98 101
3930.0 117 96 114 112 84 119 107 112 101 100
##END=
