##TITLE=Methane, bis(2-chloroethoxy)-
##JCAMP-DX=4.24
##DATA TYPE=INFRARED SPECTRUM
##ORIGIN=Sadtler Research Labs Under US-EPA Contract
##OWNER=NIST Standard Reference Data Program
##CAS REGISTRY NO=111-91-1
##MOLFORM=C 5 H 10 Cl 2 O 2
##XUNITS=1/CM
##YUNITS=ABSORBANCE
##XFACTOR=1.0
##YFACTOR=0.000110681
##DELTAX=4.0
##FIRSTX=450.0
##LASTX=3966.0
##FIRSTY=0.016934
##MAXX=3966
##MINX=450
##MAXY=1.10681
##MINY=0
##NPOINTS=880
##XYDATA=(X++(Y..Y))
450.0 153 108 134 146 134 191 158 181 163 73
490.0 198 211 2 159 82 109 79 120 48 86
530.0 63 68 64 79 75 89 73 103 101 87
570.0 96 120 138 136 194 135 152 194 169 194
610.0 190 223 170 159 169 148 150 142 148 39
650.0 161 180 237 336 508 851 1086 1372 1404 1306
690.0 978 647 421 277 183 149 121 130 71 107
730.0 211 174 265 368 519 738 1090 1580 2032 2192
770.0 1970 1429 875 492 311 196 177 159 163 197
810.0 232 269 271 263 213 181 141 99 92 79
850.0 69 67 58 54 49 46 35 50 54 61
890.0 65 81 102 110 147 197 262 337 434 567
930.0 711 861 1006 1125 1219 1295 1382 1480 1554 1579
970.0 1573 1526 1489 1483 1548 1747 2053 2439 2746 2855
1010.0 2860 2976 3449 4321 5483 6544 7156 7056 6409 5646
1050.0 5064 4765 4648 4766 5117 5769 6813 8185 9424 10000
1090.0 9819 8938 7808 6586 5640 5066 4944 5049 5275 5416
1130.0 5309 4954 4377 3809 3440 3540 4126 4799 5011 4536
1170.0 3670 2819 2167 1701 1417 1279 1235 1285 1358 1393
1210.0 1325 1175 986 804 663 568 501 472 482 534
1250.0 634 738 782 755 663 568 530 543 612 727
1290.0 896 1096 1279 1392 1367 1196 957 748 595 471
1330.0 378 311 263 239 221 217 221 240 278 359
1370.0 488 654 774 777 675 512 385 324 350 453
1410.0 523 507 454 416 470 600 730 776 714 605
1450.0 572 601 602 574 513 467 429 387 339 287
1490.0 227 174 130 96 78 63 47 45 42 35
1530.0 35 28 32 31 23 12 19 19 16 7
1570.0 13 8 13 2 4 4 3 7 5 4
1610.0 2 7 11 8 12 14 23 23 18 18
1650.0 15 17 12 9 7 5 10 7 8 11
1690.0 8 10 16 16 8 11 13 17 13 8
1730.0 14 19 13 19 38 28 30 33 45 48
1770.0 53 57 44 36 27 24 20 15 12 7
1810.0 4 3 4 0 4 8 3 2 5 7
1850.0 14 13 15 11 16 13 10 10 14 14
1890.0 21 23 24 27 28 31 33 32 36 36
1930.0 40 47 56 61 66 65 60 62 55 52
1970.0 57 56 57 61 58 58 56 55 54 56
2010.0 66 65 70 74 77 83 85 87 89 90
2050.0 94 95 91 88 88 92 83 84 78 77
2090.0 69 65 59 55 54 46 53 52 54 54
2130.0 54 50 48 42 34 30 23 21 18 19
2170.0 19 16 15 13 11 9 6 3 1 6
2210.0 13 11 14 13 16 17 19 22 23 25
2250.0 28 28 24 20 18 20 18 16 18 16
2290.0 18 13 18 15 13 8 11 9 10 14
2330.0 6 0 2 1 4 11 1 8 0 0
2370.0 0 4 3 11 4 10 11 13 13 15
2410.0 15 11 16 14 13 10 14 15 17 14
2450.0 17 16 19 17 20 21 17 23 22 27
2490.0 26 22 27 30 30 29 34 30 31 33
2530.0 34 35 32 32 36 38 31 33 32 32
2570.0 40 41 38 39 40 39 41 35 39 35
2610.0 31 28 33 30 31 39 37 39 33 26
2650.0 33 34 36 39 38 50 59 60 66 72
2690.0 76 82 84 92 98 107 108 109 118 130
2730.0 146 162 182 200 228 247 264 280 286 313
2770.0 341 354 369 368 363 359 361 384 408 421
2810.0 430 418 388 369 351 357 387 419 485 591
2850.0 727 915 1160 1401 1578 1673 1748 1831 1971 2184
2890.0 2491 2775 2834 2641 2373 2106 1912 1791 1711 1675
2930.0 1698 1814 2006 2282 2598 2826 2868 2798 2806 2895
2970.0 2835 2644 2278 1832 1457 1121 923 803 768 779
3010.0 802 762 659 559 439 338 260 221 172 178
3050.0 124 110 118 100 78 79 85 69 58 63
3090.0 64 61 50 59 50 41 42 53 57 48
3130.0 45 38 44 39 36 39 34 32 26 30
3170.0 30 25 25 32 30 21 28 19 18 20
3210.0 18 12 18 12 3 9 25 16 26 18
3250.0 9 9 4 18 13 14 16 16 7 9
3290.0 25 21 28 30 32 27 34 27 33 29
3330.0 47 36 48 20 49 64 33 25 38 37
3370.0 41 54 43 51 47 44 36 25 40 37
3410.0 32 34 38 45 32 38 23 35 27 28
3450.0 33 34 31 18 33 26 27 18 18 16
3490.0 26 23 9 35 16 12 16 29 11 12
3530.0 12 16 18 7 8 1 15 7 17 29
3570.0 15 39 26 18 12 17 4 18 13 8
3610.0 22 15 34 19 29 27 12 30 28 24
3650.0 43 10 29 36 22 28 30 34 27 12
3690.0 49 37 35 42 26 45 25 21 48 51
3730.0 46 41 41 7 37 23 26 27 15 28
3770.0 32 51 29 49 34 36 50 62 20 28
3810.0 27 43 38 42 56 57 29 39 48 48
3850.0 50 43 34 38 44 62 24 41 34 63
3890.0 49 83 34 55 33 32 19 32 21 54
3930.0 56 35 47 87 53 9 7 40 50 66
##END=
