##TITLE=1-Hexanol
##JCAMP-DX=4.24
##DATA TYPE=INFRARED SPECTRUM
##ORIGIN=Sadtler Research Labs Under US-EPA Contract
##OWNER=NIST Standard Reference Data Program
##CAS REGISTRY NO=111-27-3
##MOLFORM=C 6 H 14 O
##XUNITS=1/CM
##YUNITS=ABSORBANCE
##XFACTOR=1.0
##YFACTOR=0.000141309
##DELTAX=4.0
##FIRSTX=450.0
##LASTX=3966.0
##FIRSTY=0.000000
##MAXX=3966
##MINX=450
##MAXY=1.41309
##MINY=0
##NPOINTS=880
##XYDATA=(X++(Y..Y))
450.0 0 164 188 364 433 298 602 263 112 356
490.0 102 323 353 277 349 367 356 337 389 332
530.0 302 219 340 274 301 325 206 260 367 303
570.0 213 256 299 217 208 223 251 186 226 223
610.0 223 230 229 230 252 216 236 214 228 227
650.0 223 234 218 226 212 219 221 220 231 238
690.0 248 242 235 251 266 286 321 311 356 381
730.0 355 335 327 324 303 307 304 305 335 334
770.0 408 204 249 269 215 215 228 194 244 245
810.0 291 301 317 219 352 296 274 275 314 298
850.0 307 328 316 354 317 335 333 346 359 385
890.0 411 419 453 480 526 562 621 638 676 689
930.0 662 641 609 597 580 567 564 565 588 603
970.0 652 689 693 736 797 834 905 981 1087 1249
1010.0 1438 1610 1809 2020 2222 2406 2542 2704 2800 2901
1050.0 2992 3088 3009 2769 2491 2165 1901 1697 1542 1368
1090.0 1231 1089 984 894 823 762 708 656 607 574
1130.0 528 504 479 468 458 459 469 475 489 502
1170.0 521 519 540 539 550 549 555 563 581 598
1210.0 597 614 610 634 637 644 658 667 675 672
1250.0 677 670 663 651 649 638 636 635 635 632
1290.0 630 621 612 606 590 578 562 565 558 566
1330.0 583 606 645 662 683 692 701 701 722 752
1370.0 809 902 1024 1128 1182 1227 1149 1027 885 758
1410.0 645 576 528 502 501 521 567 605 686 764
1450.0 874 946 1041 1091 1110 1085 1021 935 812 693
1490.0 566 453 375 320 284 264 248 234 219 214
1530.0 214 205 203 185 198 189 187 178 172 178
1570.0 173 169 170 172 169 169 172 162 166 161
1610.0 169 157 166 154 161 156 158 150 159 146
1650.0 159 138 155 161 152 151 153 154 156 142
1690.0 153 154 145 138 147 146 145 143 151 146
1730.0 147 146 143 151 148 145 144 150 141 144
1770.0 147 139 143 141 150 146 141 142 145 141
1810.0 140 144 145 145 141 140 142 141 141 141
1850.0 142 141 141 137 140 141 144 139 143 143
1890.0 136 139 143 140 140 140 140 142 140 141
1930.0 141 142 140 141 138 145 141 142 147 148
1970.0 147 146 149 149 145 146 149 145 148 148
2010.0 149 152 150 158 154 156 156 159 161 157
2050.0 156 155 157 155 157 150 147 145 144 141
2090.0 140 139 140 137 137 133 135 132 134 130
2130.0 130 128 129 131 130 127 130 128 134 128
2170.0 130 128 128 130 128 131 130 130 128 128
2210.0 130 132 129 130 131 129 129 128 131 131
2250.0 128 130 130 130 133 129 129 130 131 131
2290.0 130 134 133 131 132 132 130 131 131 127
2330.0 129 126 126 120 123 129 123 130 131 119
2370.0 117 131 127 133 131 129 129 132 130 131
2410.0 131 131 132 129 128 127 126 128 127 128
2450.0 124 126 124 126 126 124 121 123 121 123
2490.0 121 119 119 117 116 120 116 118 121 121
2530.0 124 127 126 128 126 127 128 131 131 138
2570.0 129 135 138 138 139 138 142 141 147 149
2610.0 148 150 156 159 160 165 164 170 173 177
2650.0 180 191 191 197 203 207 211 214 218 219
2690.0 220 221 228 225 232 237 243 248 255 268
2730.0 283 298 313 326 334 342 343 348 351 354
2770.0 369 370 382 402 421 440 457 472 491 508
2810.0 527 552 592 639 698 791 910 1076 1314 1642
2850.0 2053 2546 3095 3638 4129 4544 4864 5123 5135 4915
2890.0 4710 4410 4146 4124 4341 4780 5427 6222 7164 8113
2930.0 8976 9642 10000 9763 9165 8455 7670 7086 6822 6738
2970.0 6382 5656 4813 3660 2552 1804 1339 1026 822 693
3010.0 611 548 502 468 437 409 386 366 348 325
3050.0 309 294 274 260 250 243 237 235 223 224
3090.0 218 217 209 205 204 198 198 200 193 196
3130.0 192 186 186 187 180 183 188 179 179 178
3170.0 175 171 168 175 178 171 173 169 169 158
3210.0 161 163 152 148 149 141 142 136 133 138
3250.0 136 135 132 124 121 125 124 122 121 126
3290.0 125 116 122 117 121 120 115 124 123 116
3330.0 128 128 123 128 125 128 128 123 129 132
3370.0 133 130 128 131 130 134 133 125 130 132
3410.0 131 144 145 135 132 141 139 146 138 149
3450.0 142 141 153 138 149 151 157 146 146 150
3490.0 149 146 150 147 147 131 140 129 145 136
3530.0 136 134 143 133 137 141 138 133 140 148
3570.0 146 139 145 143 149 150 152 149 156 166
3610.0 177 185 176 203 207 230 237 297 352 412
3650.0 504 615 727 816 905 948 910 859 745 595
3690.0 438 328 282 264 209 198 189 178 173 178
3730.0 171 160 157 158 164 161 144 128 129 127
3770.0 129 130 125 147 167 157 170 146 157 157
3810.0 169 166 159 154 157 140 150 168 170 168
3850.0 170 141 140 166 181 168 155 195 159 172
3890.0 162 147 140 173 173 151 162 159 172 180
3930.0 163 167 164 141 150 148 158 198 171 140
##END=
