##TITLE=Ethanol, 2-butoxy-
##JCAMP-DX=4.24
##DATA TYPE=INFRARED SPECTRUM
##ORIGIN=Sadtler Research Labs Under US-EPA Contract
##OWNER=NIST Standard Reference Data Program
##CAS REGISTRY NO=111-76-2
##MOLFORM=C 6 H 14 O 2
##XUNITS=1/CM
##YUNITS=ABSORBANCE
##XFACTOR=1.0
##YFACTOR=0.000076770
##DELTAX=4.0
##FIRSTX=450.0
##LASTX=3966.0
##FIRSTY=0.006372
##MAXX=3966
##MINX=450
##MAXY=0.7677
##MINY=0
##NPOINTS=880
##XYDATA=(X++(Y..Y))
450.0 83 155 124 39 250 114 148 44 121 22
490.0 137 78 111 121 124 184 94 240 196 257
530.0 238 278 268 219 216 187 171 112 165 107
570.0 87 52 69 48 10 39 15 27 13 12
610.0 3 16 26 7 11 12 27 33 35 21
650.0 30 21 42 30 46 45 25 26 19 23
690.0 7 17 9 18 20 22 38 36 44 64
730.0 77 81 102 132 115 119 117 144 95 89
770.0 59 69 197 120 138 104 133 175 89 226
810.0 264 288 337 377 405 418 429 450 450 467
850.0 487 503 509 531 605 666 765 870 1000 1088
890.0 1127 1083 984 851 690 573 463 394 350 329
930.0 321 324 342 365 410 463 525 571 639 694
970.0 768 811 832 834 814 795 781 820 887 988
1010.0 1100 1216 1364 1501 1676 1882 2220 2614 3118 3691
1050.0 4347 5023 5603 6115 6178 5977 5332 4603 3890 3390
1090.0 3112 3065 3238 3602 4222 4965 6027 7183 8492 9441
1130.0 10000 9704 8484 6875 5110 3823 2962 2463 2120 1910
1170.0 1770 1683 1593 1481 1378 1277 1223 1189 1200 1197
1210.0 1196 1168 1126 1083 1058 1075 1095 1152 1195 1233
1250.0 1232 1213 1184 1126 1081 1016 960 889 834 776
1290.0 749 728 732 730 703 681 640 624 623 663
1330.0 728 837 976 1161 1462 1844 2184 2369 2463 2264
1370.0 1992 1688 1534 1487 1475 1508 1465 1414 1303 1211
1410.0 1082 966 833 749 681 643 670 675 739 793
1450.0 960 1110 1350 1496 1533 1475 1267 1087 915 751
1490.0 597 443 340 248 205 157 134 111 97 88
1530.0 74 70 67 53 46 54 45 38 39 41
1570.0 50 31 39 37 37 31 35 28 29 33
1610.0 29 20 28 16 32 18 30 18 24 13
1650.0 39 1 42 19 26 31 21 29 31 23
1690.0 29 36 26 50 57 63 71 94 118 143
1730.0 206 256 366 519 710 758 821 732 571 448
1770.0 360 293 229 189 176 158 146 117 90 77
1810.0 60 55 44 36 30 24 17 26 14 21
1850.0 17 19 19 22 19 24 25 24 30 28
1890.0 30 28 34 36 39 44 46 53 58 64
1930.0 75 82 88 95 103 104 105 105 99 93
1970.0 88 79 76 69 63 54 52 48 47 42
2010.0 41 39 36 38 38 39 43 41 42 44
2050.0 41 45 42 42 47 45 46 51 55 57
2090.0 61 62 60 67 67 67 66 69 66 70
2130.0 69 66 64 64 63 60 56 52 51 50
2170.0 44 41 39 41 39 36 32 31 30 31
2210.0 25 30 27 25 28 25 24 30 28 29
2250.0 29 32 31 30 32 31 30 28 29 21
2290.0 21 16 15 9 12 7 4 6 9 17
2330.0 15 17 18 17 12 29 5 18 6 9
2370.0 9 16 20 23 27 27 30 33 36 34
2410.0 37 34 35 35 35 34 31 31 30 32
2450.0 31 34 33 34 31 30 27 24 24 20
2490.0 21 22 22 20 22 23 27 27 31 31
2530.0 29 35 34 39 41 42 43 48 44 48
2570.0 54 56 57 67 62 69 73 71 69 71
2610.0 74 77 76 79 78 78 83 85 83 92
2650.0 98 104 111 122 140 156 170 188 211 229
2690.0 244 262 281 295 310 325 334 351 374 387
2730.0 400 411 424 431 440 447 445 450 465 487
2770.0 516 553 592 644 690 736 779 816 855 884
2810.0 919 958 997 1059 1139 1265 1451 1716 2091 2595
2850.0 3193 3873 4618 5377 6143 6801 7391 7853 8083 7876
2890.0 7457 6830 6075 5502 5197 5153 5303 5651 6123 6648
2930.0 7183 7752 8281 8573 8577 8402 8276 8251 8411 8550
2970.0 8395 7465 6134 4671 3287 2335 1705 1281 998 809
3010.0 674 580 505 444 400 359 325 293 268 245
3050.0 225 201 182 167 150 141 133 125 118 112
3090.0 110 103 97 91 92 88 81 80 80 74
3130.0 69 69 66 63 63 59 60 67 63 59
3170.0 58 58 54 55 56 57 52 45 47 40
3210.0 37 39 31 34 32 29 22 25 22 19
3250.0 20 17 17 19 20 20 14 20 19 21
3290.0 10 11 18 11 9 10 8 9 8 6
3330.0 11 6 8 8 9 11 5 7 9 14
3370.0 8 3 7 6 14 14 10 13 22 16
3410.0 23 15 25 28 18 28 14 19 26 23
3450.0 20 33 26 29 39 38 35 37 40 43
3490.0 38 50 46 49 49 48 41 48 51 42
3530.0 42 47 45 51 52 56 66 54 67 81
3570.0 96 89 101 112 114 143 135 145 185 248
3610.0 322 437 573 765 1096 1432 1425 1393 1130 827
3650.0 616 470 452 395 413 395 386 371 330 286
3690.0 249 193 146 121 100 84 88 85 56 81
3730.0 43 65 49 84 45 72 53 37 64 43
3770.0 42 40 44 45 26 22 33 11 40 5
3810.0 16 13 21 38 0 12 18 10 24 12
3850.0 5 29 8 4 6 11 3 13 10 4
3890.0 10 2 16 8 14 3 3 3 3 3
3930.0 3 3 3 3 3 5 3 3 3 19
##END=
