##TITLE=Ethanol, 2-[(2-aminoethyl)amino]-
##JCAMP-DX=4.24
##DATA TYPE=INFRARED SPECTRUM
##ORIGIN=Sadtler Research Labs Under US-EPA Contract
##OWNER=NIST Standard Reference Data Program
##CAS REGISTRY NO=111-41-1
##MOLFORM=C 4 H 12 N 2 O
##XUNITS=1/CM
##YUNITS=ABSORBANCE
##XFACTOR=1.0
##YFACTOR=0.000063559
##DELTAX=4.0
##FIRSTX=450.0
##LASTX=3966.0
##FIRSTY=0.000000
##MAXX=3966
##MINX=450
##MAXY=0.63559
##MINY=0
##NPOINTS=880
##XYDATA=(X++(Y..Y))
450.0 0 438 536 495 263 490 355 305 481 442
490.0 514 523 530 666 400 473 531 480 585 439
530.0 579 706 512 489 511 532 641 282 398 493
570.0 334 506 434 417 391 334 408 425 505 489
610.0 512 565 536 650 732 738 709 800 810 904
650.0 1052 991 1202 1307 1258 1522 1519 1548 1724 1810
690.0 1994 2168 2181 2300 2508 2545 2656 2836 3019 3304
730.0 3424 3520 3537 3982 4026 4370 4609 4673 4700 4898
770.0 4729 4510 4197 3897 3667 3364 3201 2985 2781 2526
810.0 2388 2145 2007 1836 1702 1699 1665 1549 1480 1469
850.0 1495 1658 1567 1641 1647 1845 1822 1893 1924 1884
890.0 1900 1833 1739 1591 1547 1438 1342 1238 1211 1250
930.0 1382 1238 924 885 825 850 911 851 1184 1352
970.0 1118 884 1002 996 1104 1250 1409 1511 1645 1879
1010.0 2089 2403 2676 3029 3431 3939 4498 5129 5623 6401
1050.0 6712 7065 6892 6818 6865 6121 5576 4900 4252 3752
1090.0 3218 2734 2337 2083 1950 1966 1774 2153 2464 2697
1130.0 2948 3147 3230 3159 2912 2485 2192 1905 1664 1494
1170.0 1359 1382 1222 1220 1085 1223 1138 1239 1289 1265
1210.0 1288 1247 1304 1341 1338 1334 1291 1212 1195 1214
1250.0 1172 1151 1161 1153 1145 1115 1118 1110 1072 1037
1290.0 1039 1043 1052 1048 1058 1081 1103 1179 1225 1385
1330.0 1537 1709 1968 2117 2219 2265 2295 2244 2163 2013
1370.0 1857 1841 1825 1836 1959 2032 2117 2211 2180 2163
1410.0 2029 1886 1730 1482 1394 1351 1367 1586 1720 2080
1450.0 2569 3093 3430 3646 3505 3310 2808 2189 1711 1317
1490.0 1097 817 645 576 475 559 410 385 364 323
1530.0 318 306 277 250 317 311 265 299 299 315
1570.0 298 321 352 370 450 496 611 662 816 990
1610.0 1128 1376 1430 1580 1584 1507 1332 1162 1060 915
1650.0 842 775 734 604 604 475 454 371 344 308
1690.0 273 267 240 291 259 255 269 276 272 277
1730.0 289 281 303 276 289 298 273 276 251 248
1770.0 244 216 211 218 237 196 221 223 220 241
1810.0 182 234 211 227 240 237 227 236 228 269
1850.0 241 225 239 222 238 237 238 230 236 246
1890.0 231 252 239 243 237 256 240 279 252 265
1930.0 255 252 262 252 278 245 262 258 245 268
1970.0 250 256 254 251 257 258 269 252 260 265
2010.0 249 260 260 252 258 255 261 262 264 275
2050.0 268 270 274 268 281 272 280 284 277 286
2090.0 285 293 288 286 288 280 294 296 281 287
2130.0 285 276 281 272 270 268 266 268 261 264
2170.0 258 249 255 245 255 257 251 254 244 245
2210.0 254 254 256 250 257 256 255 263 270 276
2250.0 275 272 270 264 262 263 265 265 268 272
2290.0 278 289 306 309 321 321 315 314 312 305
2330.0 312 289 312 319 324 330 329 320 321 311
2370.0 305 290 314 304 290 283 263 262 265 266
2410.0 275 270 272 275 278 275 279 292 279 288
2450.0 292 286 294 290 284 293 291 288 299 296
2490.0 295 295 299 296 304 307 307 310 312 313
2530.0 328 322 324 327 327 331 337 340 335 347
2570.0 350 348 354 361 372 379 380 393 401 408
2610.0 426 432 440 458 465 484 504 526 542 572
2650.0 600 622 658 694 716 762 782 821 856 884
2690.0 936 954 974 988 995 1013 1038 1062 1087 1117
2730.0 1156 1192 1231 1272 1299 1338 1367 1414 1465 1532
2770.0 1630 1742 1887 2070 2278 2543 2834 3167 3531 3926
2810.0 4334 4742 5168 5566 5903 6212 6411 6558 6643 6685
2850.0 6729 6787 6857 6923 6971 7009 7039 7029 6984 6889
2890.0 6844 6809 6795 6868 7038 7271 7601 8019 8496 9018
2930.0 9445 9826 10000 9912 9577 8968 8104 7061 6042 5059
2970.0 4173 3429 2766 2195 1738 1387 1139 956 817 714
3010.0 641 574 539 492 459 450 425 393 385 369
3050.0 359 353 344 338 325 318 313 299 296 284
3090.0 284 282 280 279 248 262 261 261 266 244
3130.0 250 264 258 254 245 248 263 266 250 247
3170.0 253 254 249 258 260 249 263 251 264 254
3210.0 257 269 262 265 267 278 275 250 263 267
3250.0 264 274 276 282 270 278 293 296 304 300
3290.0 308 293 307 328 335 355 373 368 418 423
3330.0 461 558 547 538 576 581 570 584 588 600
3370.0 594 567 572 546 540 532 542 566 534 561
3410.0 571 621 602 577 581 566 578 535 516 535
3450.0 520 506 493 510 484 476 494 464 461 469
3490.0 476 469 452 471 471 470 482 469 518 613
3530.0 584 679 704 756 828 893 946 1002 1070 1139
3570.0 1137 1047 945 920 815 852 697 671 565 553
3610.0 553 481 474 414 464 439 436 433 454 494
3650.0 599 668 724 801 862 907 917 897 810 763
3690.0 626 541 418 366 333 308 297 263 223 251
3730.0 221 209 232 179 225 176 203 182 182 182
3770.0 182 182 182 182 182 182 182 182 182 182
3810.0 182 182 182 182 182 182 182 182 182 182
3850.0 182 176 213 182 182 182 182 182 182 197
3890.0 180 202 178 225 185 182 182 182 182 182
3930.0 199 182 218 212 177 200 203 211 209 182
##END=
