##TITLE=Dodecanoic acid, methyl ester
##JCAMP-DX=4.24
##DATA TYPE=INFRARED SPECTRUM
##ORIGIN=Sadtler Research Labs Under US-EPA Contract
##OWNER=NIST Standard Reference Data Program
##CAS REGISTRY NO=111-82-0
##MOLFORM=C 13 H 26 O 2
##XUNITS=1/CM
##YUNITS=ABSORBANCE
##XFACTOR=1.0
##YFACTOR=0.000072363
##DELTAX=4.0
##FIRSTX=450.0
##LASTX=3966.0
##FIRSTY=0.010927
##MAXX=3966
##MINX=450
##MAXY=0.72363
##MINY=0
##NPOINTS=880
##XYDATA=(X++(Y..Y))
450.0 151 94 164 175 168 126 113 151 88 80
490.0 15 31 111 70 97 163 207 226 130 142
530.0 105 70 86 51 134 73 128 159 140 296
570.0 199 219 90 140 245 215 252 193 303 241
610.0 320 214 230 236 237 224 202 199 222 206
650.0 234 188 134 195 183 206 154 206 215 278
690.0 237 314 322 254 324 336 387 371 292 398
730.0 389 399 362 436 280 324 275 345 316 297
770.0 276 299 305 291 382 280 242 295 290 330
810.0 273 320 348 365 305 355 366 362 412 359
850.0 376 359 411 376 370 358 389 328 335 312
890.0 295 294 260 260 250 255 255 236 208 194
930.0 217 217 224 230 195 219 233 225 253 261
970.0 254 293 321 337 388 376 404 491 522 529
1010.0 594 641 684 670 663 626 648 575 553 579
1050.0 529 579 597 590 622 643 639 615 632 604
1090.0 666 687 743 835 928 1016 1071 1093 1096 1097
1130.0 1133 1208 1313 1503 1751 2005 2292 2556 2721 2909
1170.0 2959 2975 2916 2752 2638 2537 2512 2497 2442 2362
1210.0 2248 2157 2120 2082 2053 2045 2041 2063 2046 2040
1250.0 2003 1933 1820 1670 1518 1383 1245 1155 1101 1048
1290.0 998 974 958 954 933 923 906 919 876 854
1330.0 853 842 903 977 1025 1103 1164 1183 1158 1064
1370.0 963 863 763 682 606 510 435 401 372 373
1410.0 389 396 438 504 600 766 1042 1370 1436 1290
1450.0 1167 1161 1241 1266 1216 1071 899 683 525 424
1490.0 369 310 299 275 285 258 228 220 221 214
1530.0 194 200 199 211 196 184 183 207 191 183
1570.0 192 179 183 167 166 166 157 163 161 160
1610.0 156 142 161 149 146 145 145 141 130 159
1650.0 137 184 142 152 151 164 166 165 169 197
1690.0 195 205 241 283 299 358 426 538 635 787
1730.0 1019 1316 1641 2075 2596 3285 4144 4879 4997 4334
1770.0 3454 2767 2188 1695 1255 910 670 491 372 298
1810.0 248 198 170 155 146 127 113 122 113 107
1850.0 105 99 98 98 103 109 98 95 94 95
1890.0 98 81 79 92 85 85 90 90 84 84
1930.0 89 88 88 87 90 94 88 92 100 99
1970.0 99 90 90 96 99 96 104 101 96 109
2010.0 105 100 106 106 105 112 111 108 109 111
2050.0 113 108 101 101 100 92 99 86 92 83
2090.0 76 82 73 68 63 68 72 60 52 66
2130.0 58 57 57 64 54 51 53 58 57 53
2170.0 48 47 59 51 52 57 51 50 42 43
2210.0 37 32 32 44 38 38 46 44 38 36
2250.0 36 44 37 34 34 37 47 40 31 40
2290.0 38 31 30 37 22 31 36 24 26 15
2330.0 27 25 23 18 11 18 3 8 13 19
2370.0 18 1 11 13 25 26 25 26 24 18
2410.0 23 16 23 20 15 22 21 21 11 15
2450.0 17 18 12 11 4 10 2 13 2 12
2490.0 13 10 17 20 9 15 16 15 22 18
2530.0 17 22 23 19 21 24 30 23 30 30
2570.0 29 29 37 37 31 39 45 45 50 44
2610.0 42 50 58 51 50 50 58 57 63 60
2650.0 67 68 72 74 84 78 79 85 100 95
2690.0 86 93 94 86 83 68 82 84 80 66
2730.0 87 87 95 107 97 101 99 108 113 106
2770.0 114 122 115 121 143 163 184 201 203 225
2810.0 247 270 305 344 399 457 534 634 787 1021
2850.0 1429 2028 2856 3648 3910 3634 3084 2593 2302 2092
2890.0 1926 1846 1937 2180 2559 3042 3693 4513 5765 7443
2930.0 9160 10000 9573 8362 6947 5701 4835 4492 4467 4319
2970.0 3900 3213 2352 1725 1334 1102 968 867 781 710
3010.0 636 568 525 495 470 427 387 357 315 265
3050.0 249 228 206 184 166 158 149 140 142 130
3090.0 131 124 118 112 97 97 82 88 91 80
3130.0 69 71 62 62 62 60 61 55 48 56
3170.0 48 47 50 42 55 51 36 48 48 34
3210.0 27 13 28 15 28 28 19 23 18 11
3250.0 20 16 21 14 28 21 14 22 28 21
3290.0 12 6 11 18 16 21 28 19 15 16
3330.0 2 21 23 36 19 24 28 11 12 28
3370.0 30 21 23 30 36 28 19 24 22 28
3410.0 22 25 23 28 22 17 17 22 38 19
3450.0 20 11 37 21 40 50 44 28 35 44
3490.0 64 57 46 77 46 56 52 37 34 27
3530.0 42 33 32 16 37 30 31 42 37 53
3570.0 77 87 92 98 58 48 38 45 31 36
3610.0 52 47 37 25 22 65 43 53 40 52
3650.0 52 31 47 38 38 51 50 49 25 48
3690.0 51 48 40 38 53 39 46 39 31 17
3730.0 26 58 44 48 48 43 40 39 46 33
3770.0 46 31 28 34 42 29 32 31 59 54
3810.0 46 40 40 45 32 21 28 22 34 44
3850.0 33 42 40 26 47 53 33 40 47 56
3890.0 52 54 46 39 33 40 41 42 26 48
3930.0 48 40 31 25 39 41 0 2 2 2
##END=
