##TITLE=2-Ethoxyethyl acetate
##JCAMP-DX=4.24
##DATA TYPE=INFRARED SPECTRUM
##ORIGIN=Sadtler Research Labs Under US-EPA Contract
##OWNER=NIST Standard Reference Data Program
##CAS REGISTRY NO=111-15-9
##MOLFORM=C 6 H 12 O 3
##XUNITS=1/CM
##YUNITS=ABSORBANCE
##XFACTOR=1.0
##YFACTOR=0.000075342
##DELTAX=4.0
##FIRSTX=450.0
##LASTX=3966.0
##FIRSTY=0.007534
##MAXX=3966
##MINX=450
##MAXY=0.75342
##MINY=0
##NPOINTS=880
##XYDATA=(X++(Y..Y))
450.0 100 167 166 135 65 0 80 111 150 293
490.0 192 126 158 276 310 328 316 357 375 276
530.0 175 231 211 120 53 64 73 134 150 183
570.0 245 192 180 143 156 157 284 241 313 241
610.0 340 351 220 272 255 380 314 319 308 305
650.0 247 232 185 157 108 186 182 101 125 88
690.0 127 114 171 166 184 171 97 173 194 163
730.0 225 142 157 151 164 160 195 197 144 138
770.0 160 202 216 233 231 196 244 269 334 312
810.0 299 303 306 325 356 395 368 434 454 500
850.0 464 498 503 467 477 437 392 379 363 343
890.0 350 338 338 395 343 373 376 409 417 434
930.0 436 456 522 535 625 655 674 622 603 537
970.0 466 436 382 384 385 398 398 474 510 529
1010.0 575 664 769 878 1061 1265 1491 1719 1934 2171
1050.0 2439 2739 2876 2979 2904 2668 2382 2071 1821 1692
1090.0 1597 1568 1512 1618 1688 1832 2223 2443 2834 3326
1130.0 3870 4377 4648 4538 4102 3379 2569 1946 1563 1342
1170.0 1200 1155 1109 1052 1022 973 973 1036 1259 1553
1210.0 1971 2601 3637 5136 7246 8994 9963 10000 8697 6956
1250.0 5347 4063 3140 2550 2192 1945 1777 1588 1397 1262
1290.0 1116 976 859 763 635 545 519 455 446 421
1330.0 424 420 439 526 642 828 999 1209 1471 1693
1370.0 1887 2067 2141 2167 2173 2016 1802 1456 1053 831
1410.0 668 591 571 551 563 569 578 655 668 715
1450.0 746 796 799 722 666 619 564 473 437 424
1490.0 404 371 338 303 316 269 264 257 251 222
1530.0 208 221 221 231 192 197 202 212 204 187
1570.0 198 177 175 169 168 167 147 139 134 127
1610.0 141 126 143 139 143 151 178 184 168 189
1650.0 180 228 176 177 180 194 188 195 188 206
1690.0 189 195 222 247 251 271 327 397 438 512
1730.0 641 822 1074 1490 2057 2850 4013 5284 6081 6290
1770.0 6065 4883 3580 2617 1889 1357 1009 762 602 490
1810.0 401 331 277 238 211 185 160 148 133 130
1850.0 129 120 119 112 119 117 118 118 110 113
1890.0 108 100 110 111 115 106 105 112 112 111
1930.0 100 103 103 111 111 94 102 107 100 100
1970.0 106 99 105 99 93 93 93 97 91 97
2010.0 95 95 94 101 88 93 92 94 85 88
2050.0 91 87 78 92 83 88 90 96 95 100
2090.0 99 94 93 82 78 78 74 64 65 64
2130.0 64 63 57 62 60 47 55 51 51 53
2170.0 59 59 52 57 58 43 52 49 49 55
2210.0 35 44 52 44 39 45 46 46 45 45
2250.0 43 52 44 47 44 39 39 41 40 41
2290.0 40 31 31 30 13 10 5 7 4 4
2330.0 4 4 4 4 4 4 4 4 4 4
2370.0 4 4 14 24 42 38 41 43 44 43
2410.0 51 42 56 50 58 49 54 55 50 51
2450.0 49 56 50 58 56 57 59 61 48 55
2490.0 55 54 48 45 44 43 43 43 50 45
2530.0 31 37 38 33 42 39 37 51 52 44
2570.0 52 51 51 52 53 57 64 79 70 70
2610.0 79 77 78 70 78 82 74 74 79 84
2650.0 79 78 81 85 91 84 92 92 92 92
2690.0 104 114 123 130 146 153 162 164 168 176
2730.0 177 191 192 198 198 197 205 209 201 211
2770.0 216 216 230 250 258 278 298 311 330 353
2810.0 370 389 426 440 466 488 527 581 657 764
2850.0 915 1091 1288 1506 1723 1913 2039 2103 2047 1949
2890.0 1811 1654 1530 1402 1316 1244 1160 1117 1073 1080
2930.0 1117 1206 1350 1471 1563 1658 1657 1647 1648 1656
2970.0 1710 1829 1949 2045 2032 1884 1617 1293 1004 780
3010.0 611 512 422 359 319 287 267 249 227 200
3050.0 205 187 172 145 139 145 126 108 116 99
3090.0 102 97 95 81 79 60 67 65 72 60
3130.0 49 57 42 38 57 42 34 35 33 47
3170.0 48 34 45 41 40 46 26 26 22 31
3210.0 47 21 41 33 34 31 25 28 44 30
3250.0 41 19 25 23 20 42 42 14 22 31
3290.0 34 15 41 25 24 17 26 29 27 21
3330.0 20 29 27 22 22 10 19 31 22 23
3370.0 28 21 21 42 14 34 26 13 39 30
3410.0 27 29 25 21 34 16 34 21 37 25
3450.0 13 33 26 38 21 35 31 27 29 35
3490.0 43 62 69 53 73 69 69 83 55 56
3530.0 54 35 35 28 43 28 42 42 33 40
3570.0 29 27 20 38 38 43 35 29 37 44
3610.0 39 38 45 41 66 58 44 54 57 59
3650.0 49 49 23 29 22 34 33 46 22 26
3690.0 33 17 4 4 10 16 10 4 5 8
3730.0 4 5 33 13 29 17 5 4 11 4
3770.0 4 4 4 9 11 3 4 4 17 4
3810.0 4 4 4 5 3 11 11 7 10 14
3850.0 13 18 4 4 4 4 4 5 4 4
3890.0 4 4 4 16 5 4 5 4 4 5
3930.0 4 4 4 12 9 5 4 4 4 4
##END=
