##TITLE=2-Nonynoic acid, methyl ester
##JCAMP-DX=4.24
##DATA TYPE=INFRARED SPECTRUM
##ORIGIN=Sadtler Research Labs Under US-EPA Contract
##OWNER=NIST Standard Reference Data Program
##CAS REGISTRY NO=111-80-8
##MOLFORM=C 10 H 16 O 2
##XUNITS=1/CM
##YUNITS=ABSORBANCE
##XFACTOR=1.0
##YFACTOR=0.000071924
##DELTAX=4.0
##FIRSTX=450.0
##LASTX=3966.0
##FIRSTY=0.007192
##MAXX=3966
##MINX=450
##MAXY=0.71924
##MINY=0
##NPOINTS=880
##XYDATA=(X++(Y..Y))
450.0 100 77 57 74 74 21 22 50 164 111
490.0 20 145 82 148 195 240 245 117 200 238
530.0 271 222 238 332 170 254 304 344 324 224
570.0 259 325 248 369 385 279 217 265 343 279
610.0 346 317 305 287 291 484 499 340 312 268
650.0 256 261 325 388 288 269 254 269 349 299
690.0 353 243 226 269 259 339 264 289 338 271
730.0 349 401 466 385 430 553 538 527 483 496
770.0 506 367 407 372 312 382 368 382 377 356
810.0 453 363 358 318 345 367 304 375 322 292
850.0 315 284 353 273 247 290 219 275 317 317
890.0 286 249 287 256 314 333 306 334 255 305
930.0 358 349 347 296 287 290 274 320 324 293
970.0 267 264 302 297 311 292 255 297 274 325
1010.0 341 302 365 324 387 393 469 467 460 567
1050.0 583 685 814 968 1241 1455 1802 2027 1948 1643
1090.0 1177 867 692 609 618 600 547 502 497 483
1130.0 457 479 487 438 483 493 603 602 606 682
1170.0 627 635 624 666 664 669 696 686 703 743
1210.0 852 934 1125 1321 1720 2186 2953 4104 5877 7939
1250.0 9772 10000 8877 6745 4546 3211 2379 1829 1478 1205
1290.0 1005 888 765 736 692 654 656 647 690 747
1330.0 779 762 633 572 529 511 526 489 515 450
1370.0 421 413 420 429 410 399 348 307 313 322
1410.0 343 339 315 370 441 641 1155 1510 1465 938
1450.0 677 624 598 669 657 632 500 444 400 341
1490.0 320 283 248 253 209 253 250 203 177 195
1530.0 196 168 202 188 171 182 171 178 181 167
1570.0 191 158 171 188 183 195 174 167 171 173
1610.0 174 166 173 162 169 201 186 202 190 181
1650.0 189 153 216 228 197 192 186 222 222 251
1690.0 295 311 373 434 558 739 942 1289 1695 2212
1730.0 2906 3878 5075 5288 4440 3234 2562 2084 1630 1266
1770.0 935 688 556 442 390 331 292 293 269 268
1810.0 267 237 215 184 167 136 138 143 120 113
1850.0 100 113 120 91 113 103 95 91 105 121
1890.0 113 106 99 103 112 100 120 105 96 94
1930.0 95 113 111 109 105 85 91 106 114 114
1970.0 99 106 98 99 119 119 119 104 104 117
2010.0 104 127 122 115 106 106 115 117 119 122
2050.0 113 109 105 115 122 96 107 94 92 86
2090.0 85 92 79 72 79 82 81 76 84 74
2130.0 72 80 85 86 75 77 88 90 93 103
2170.0 103 95 95 113 136 144 159 183 206 221
2210.0 276 355 447 623 876 1230 1628 1936 2039 1811
2250.0 1351 922 607 414 300 247 209 171 157 153
2290.0 164 180 171 200 207 215 226 248 253 232
2330.0 217 213 190 178 211 174 148 146 178 144
2370.0 127 133 109 105 66 54 63 46 39 52
2410.0 46 48 46 42 38 27 35 43 42 35
2450.0 33 33 18 39 39 44 39 20 41 39
2490.0 40 53 61 42 20 32 48 32 37 28
2530.0 27 18 14 50 41 26 30 21 23 30
2570.0 45 51 37 30 33 41 37 36 57 29
2610.0 30 31 38 45 20 30 38 34 39 45
2650.0 51 39 38 60 62 62 46 54 54 35
2690.0 61 58 42 42 37 44 39 46 58 42
2730.0 27 28 57 71 57 76 48 44 45 50
2770.0 74 57 51 58 51 58 82 106 92 80
2810.0 101 112 140 145 170 193 184 249 332 435
2850.0 541 622 754 887 1048 1184 1204 1163 1064 1005
2890.0 919 810 789 804 906 1034 1211 1429 1599 1863
2930.0 2185 2557 2899 3097 3128 2859 2547 2470 2567 2669
2970.0 2482 2065 1573 1045 749 594 520 475 425 409
3010.0 365 346 347 330 314 262 251 245 202 214
3050.0 179 157 121 88 121 122 115 119 94 94
3090.0 69 111 107 97 101 72 87 61 66 96
3130.0 62 57 53 61 70 43 75 55 48 55
3170.0 62 75 37 48 64 39 67 51 58 45
3210.0 21 54 48 40 45 28 28 7 44 52
3250.0 44 34 11 30 21 28 71 27 31 17
3290.0 21 52 31 58 44 26 28 41 99 87
3330.0 79 89 46 45 46 59 70 22 39 37
3370.0 36 59 44 66 23 33 45 45 56 36
3410.0 56 51 27 67 58 62 48 62 79 59
3450.0 82 94 92 77 69 101 71 45 60 35
3490.0 41 28 51 76 28 34 31 38 44 51
3530.0 58 33 15 28 42 59 39 49 31 5
3570.0 37 63 59 57 30 42 32 44 51 65
3610.0 45 19 37 38 53 68 59 52 40 38
3650.0 66 60 46 65 50 30 39 64 71 55
3690.0 44 65 67 48 62 55 39 44 55 58
3730.0 52 37 42 39 31 50 56 41 27 35
3770.0 52 57 59 51 40 37 32 54 59 49
3810.0 37 23 8 22 33 42 36 9 11 25
3850.0 26 28 43 39 23 17 38 45 37 37
3890.0 43 21 10 40 43 41 31 32 39 39
3930.0 48 55 60 61 66 98 0 7 7 7
##END=
