##TITLE=1-Butanamine, N-butyl-
##JCAMP-DX=4.24
##DATA TYPE=INFRARED SPECTRUM
##ORIGIN=Sadtler Research Labs Under US-EPA Contract
##OWNER=NIST Standard Reference Data Program
##CAS REGISTRY NO=111-92-2
##MOLFORM=C 8 H 19 N
##XUNITS=1/CM
##YUNITS=ABSORBANCE
##XFACTOR=1.0
##YFACTOR=0.000098245
##DELTAX=4.0
##FIRSTX=450.0
##LASTX=3966.0
##FIRSTY=0.040477
##MAXX=3966
##MINX=450
##MAXY=0.98245
##MINY=0
##NPOINTS=880
##XYDATA=(X++(Y..Y))
450.0 412 153 46 81 30 97 58 39 46 33
490.0 116 71 85 48 55 54 61 90 98 132
530.0 116 102 83 89 70 73 102 75 75 84
570.0 87 65 76 69 61 33 82 111 80 110
610.0 120 148 156 159 208 247 247 310 310 285
650.0 405 433 496 559 620 710 693 767 758 814
690.0 798 841 880 886 875 885 881 822 792 726
730.0 726 685 652 628 621 574 506 450 370 316
770.0 249 230 199 185 171 183 152 138 135 133
810.0 130 106 108 92 87 85 78 84 77 80
850.0 63 65 62 62 51 53 61 53 65 64
890.0 68 74 98 89 83 66 52 38 47 64
930.0 71 84 93 106 120 136 139 140 146 148
970.0 143 128 126 120 116 92 97 101 99 98
1010.0 94 105 105 109 97 100 112 135 150 175
1050.0 199 203 228 238 251 273 301 316 349 422
1090.0 492 564 614 652 672 708 768 909 1156 1547
1130.0 2049 2476 2623 2401 1964 1544 1193 928 723 557
1170.0 430 349 278 237 212 219 224 248 273 290
1210.0 290 273 266 254 256 267 270 269 267 265
1250.0 252 249 236 227 211 206 203 199 210 223
1290.0 245 263 295 327 355 359 354 342 355 402
1330.0 467 544 594 627 635 661 700 767 826 852
1370.0 852 844 833 794 720 606 475 375 308 274
1410.0 255 264 275 331 406 545 726 927 1112 1313
1450.0 1576 1891 2202 2396 2398 2221 1881 1459 1053 748
1490.0 521 385 289 227 190 165 126 118 98 89
1530.0 72 67 63 52 49 37 38 33 47 20
1570.0 25 31 32 18 24 27 25 29 27 28
1610.0 18 23 25 20 16 19 18 18 17 32
1650.0 23 56 34 37 33 40 33 39 16 30
1690.0 15 15 27 28 23 15 21 9 9 5
1730.0 1 5 12 0 2 5 9 2 3 6
1770.0 4 10 4 4 5 8 9 13 9 14
1810.0 12 15 17 19 22 21 21 19 27 27
1850.0 29 25 26 20 19 15 16 14 11 11
1890.0 13 11 10 11 11 8 6 12 8 8
1930.0 10 8 11 10 15 14 16 10 11 15
1970.0 13 15 19 15 11 11 14 17 14 11
2010.0 10 7 7 12 13 11 9 13 14 14
2050.0 8 7 15 17 10 16 14 17 19 21
2090.0 21 29 29 29 31 31 29 32 30 27
2130.0 29 25 27 25 24 28 28 29 23 28
2170.0 27 25 28 26 23 28 30 26 28 30
2210.0 30 27 27 25 24 24 24 28 25 27
2250.0 29 29 29 30 31 26 25 31 34 37
2290.0 47 51 67 75 88 105 116 120 117 119
2330.0 152 165 162 178 140 147 188 136 105 48
2370.0 49 66 64 55 43 29 17 13 19 27
2410.0 32 39 45 42 44 35 33 30 22 24
2450.0 23 22 23 28 24 25 19 21 13 13
2490.0 7 6 10 7 16 15 21 28 25 31
2530.0 29 35 40 43 49 52 56 64 67 76
2570.0 77 76 82 85 92 90 99 109 119 113
2610.0 124 129 130 142 152 156 162 174 182 204
2650.0 219 233 251 266 288 299 315 335 350 364
2690.0 376 389 398 407 414 421 430 447 467 485
2730.0 511 556 591 638 675 712 734 757 775 793
2770.0 819 860 923 1022 1161 1371 1631 1951 2309 2670
2810.0 2998 3223 3320 3296 3154 2929 2696 2518 2430 2467
2850.0 2642 2911 3231 3590 3926 4258 4560 4895 5166 5157
2890.0 4967 4582 4330 4377 4693 5225 5921 6738 7595 8477
2930.0 9242 9744 10000 9697 8926 8066 7461 7458 8102 9010
2970.0 9177 8171 6434 4386 2919 2038 1497 1165 953 801
3010.0 696 609 555 508 458 418 384 350 310 281
3050.0 256 226 207 196 178 174 168 169 156 147
3090.0 133 129 117 114 109 102 115 107 103 91
3130.0 95 94 94 87 83 86 73 79 76 73
3170.0 81 83 85 80 86 76 63 69 56 51
3210.0 54 48 47 33 42 40 36 29 30 34
3250.0 22 19 23 20 12 21 28 31 29 28
3290.0 21 23 24 19 20 22 31 21 19 24
3330.0 27 37 36 27 22 32 27 38 38 33
3370.0 29 43 36 29 24 25 39 28 26 30
3410.0 35 32 14 37 48 37 15 32 41 39
3450.0 22 32 51 31 25 59 50 34 14 39
3490.0 31 30 49 25 30 42 25 49 55 53
3530.0 41 44 36 25 33 58 48 45 51 39
3570.0 44 57 52 53 49 41 56 65 64 62
3610.0 60 49 52 56 69 74 53 67 81 88
3650.0 65 75 68 67 74 85 78 59 76 81
3690.0 65 43 64 79 85 47 64 77 81 58
3730.0 83 92 59 50 69 91 71 32 76 71
3770.0 68 93 115 68 75 32 14 91 91 105
3810.0 66 70 88 61 84 69 54 89 92 56
3850.0 69 80 70 41 56 67 63 62 54 51
3890.0 88 87 88 88 82 80 63 51 40 48
3930.0 95 61 60 72 85 51 73 80 37 91
##END=
