##TITLE=2-Nonenoic acid, methyl ester
##JCAMP-DX=4.24
##DATA TYPE=INFRARED SPECTRUM
##ORIGIN=Sadtler Research Labs Under US-EPA Contract
##OWNER=NIST Standard Reference Data Program
##CAS REGISTRY NO=111-79-5
##MOLFORM=C 10 H 18 O 2
##XUNITS=1/CM
##YUNITS=ABSORBANCE
##XFACTOR=1.0
##YFACTOR=0.000109149
##DELTAX=4.0
##FIRSTX=450.0
##LASTX=3966.0
##FIRSTY=0.000000
##MAXX=3966
##MINX=450
##MAXY=1.09149
##MINY=0
##NPOINTS=880
##XYDATA=(X++(Y..Y))
450.0 0 162 244 155 210 172 198 169 121 349
490.0 227 281 122 261 156 173 187 206 208 220
530.0 234 197 247 72 172 205 178 183 175 166
570.0 181 186 179 187 168 180 176 171 179 168
610.0 195 178 177 174 154 218 209 198 202 211
650.0 183 204 186 192 170 229 210 235 271 256
690.0 337 360 409 412 449 480 489 495 528 503
730.0 421 408 302 360 296 275 265 274 269 259
770.0 274 223 245 232 245 245 214 240 246 276
810.0 287 320 332 364 388 408 451 505 544 573
850.0 575 542 514 467 443 421 425 420 420 422
890.0 416 411 393 405 415 435 425 421 401 384
930.0 370 351 354 354 380 410 478 574 708 866
970.0 1029 1172 1215 1170 1058 951 839 759 717 711
1010.0 757 845 997 1157 1291 1361 1440 1533 1704 1874
1050.0 1889 1736 1463 1222 1011 881 790 727 690 654
1090.0 632 619 662 703 806 929 1104 1306 1536 1683
1130.0 1645 1484 1326 1318 1467 1819 2396 3209 4074 4782
1170.0 5106 4928 4509 3997 3719 3700 3974 4311 4411 4108
1210.0 3555 3014 2598 2358 2179 2057 2003 2075 2247 2535
1250.0 2928 3475 4231 5154 5876 5803 5031 3953 3198 2843
1290.0 2683 2606 2551 2532 2540 2614 2708 2762 2702 2561
1330.0 2343 2149 2003 1870 1668 1400 1176 997 877 771
1370.0 700 641 613 619 595 555 477 452 446 470
1410.0 473 499 495 539 647 881 1447 2254 2540 1977
1450.0 1358 1151 1119 1136 1131 1073 924 734 587 466
1490.0 381 342 307 284 264 242 234 229 213 227
1530.0 209 218 216 209 205 219 218 208 218 217
1570.0 217 214 214 202 213 198 206 204 208 215
1610.0 215 240 252 295 320 385 436 547 700 935
1650.0 1227 1643 2122 2402 2144 1417 843 595 484 465
1690.0 479 535 573 670 768 898 1018 1203 1467 1854
1730.0 2494 3599 5456 7817 10000 9438 7071 4976 3709 2858
1770.0 2236 1738 1348 1024 786 600 481 396 338 310
1810.0 280 264 234 216 194 183 177 171 164 151
1850.0 153 150 148 143 142 133 143 142 145 143
1890.0 144 143 141 139 136 136 134 132 126 126
1930.0 125 122 119 114 119 124 126 126 125 123
1970.0 128 122 121 127 129 126 129 130 131 135
2010.0 139 137 138 142 151 154 159 173 174 177
2050.0 172 171 165 170 160 175 181 185 188 189
2090.0 179 172 167 161 159 155 153 145 138 130
2130.0 124 119 114 109 108 105 106 104 105 106
2170.0 101 99 102 100 100 101 97 98 100 100
2210.0 95 100 101 99 100 102 104 104 99 95
2250.0 92 90 86 89 83 87 86 87 89 95
2290.0 97 101 107 111 113 114 113 109 116 103
2330.0 103 96 87 97 94 117 117 118 82 76
2370.0 79 79 81 86 93 88 87 85 85 85
2410.0 87 89 89 83 84 82 82 83 80 79
2450.0 76 80 76 80 82 87 81 80 81 84
2490.0 91 86 82 83 87 88 92 97 94 97
2530.0 99 99 94 97 94 94 99 94 96 96
2570.0 102 97 100 97 107 106 109 108 107 104
2610.0 105 100 99 97 93 103 107 107 109 111
2650.0 115 121 130 140 151 154 155 161 161 156
2690.0 153 149 140 135 136 144 146 148 139 143
2730.0 146 156 162 161 164 168 164 164 167 159
2770.0 168 176 177 182 186 198 208 221 240 260
2810.0 269 293 318 349 398 454 524 613 764 1021
2850.0 1344 1680 2046 2432 2744 2838 2664 2411 2271 2161
2890.0 1994 1850 1822 1943 2158 2460 2858 3377 4088 5023
2930.0 6185 7248 7555 7092 6067 5041 4514 4744 5150 5234
2970.0 4828 4080 3044 2095 1577 1326 1209 1155 1077 995
3010.0 911 852 822 810 820 800 751 673 608 553
3050.0 521 494 485 461 427 383 337 316 300 276
3090.0 271 255 249 234 221 195 192 182 187 177
3130.0 172 167 159 155 148 145 156 157 156 140
3170.0 140 144 145 136 141 137 137 142 131 117
3210.0 124 114 128 121 120 124 122 122 124 112
3250.0 103 109 115 115 122 113 114 97 94 93
3290.0 94 95 93 91 103 101 95 96 87 97
3330.0 92 98 100 105 104 101 96 92 90 100
3370.0 102 90 109 109 125 111 108 119 104 105
3410.0 120 104 84 98 83 89 93 100 119 104
3450.0 110 108 97 133 158 159 156 152 143 139
3490.0 107 115 113 110 103 104 94 98 95 82
3530.0 88 83 80 88 83 87 95 81 101 86
3570.0 99 96 100 115 97 99 90 94 99 76
3610.0 89 94 86 88 93 89 91 97 91 88
3650.0 91 83 89 94 96 86 99 101 108 108
3690.0 103 91 100 115 102 77 109 104 113 116
3730.0 97 103 88 84 96 91 99 86 107 94
3770.0 94 97 92 88 95 117 105 107 103 111
3810.0 105 103 100 89 119 110 89 98 102 116
3850.0 111 124 103 113 107 113 137 120 118 137
3890.0 121 125 127 108 116 131 116 134 130 116
3930.0 141 143 155 136 151 125 135 173 105 138
##END=
