##TITLE=Butanedioic acid, acetyl-, diethyl ester
##JCAMP-DX=4.24
##DATA TYPE=INFRARED SPECTRUM
##ORIGIN=Sadtler Research Labs Under US-EPA Contract
##OWNER=NIST Standard Reference Data Program
##CAS REGISTRY NO=1115-30-6
##MOLFORM=C 10 H 16 O 5
##XUNITS=1/CM
##YUNITS=ABSORBANCE
##XFACTOR=1.0
##YFACTOR=0.000065332
##DELTAX=4.0
##FIRSTX=450.0
##LASTX=3966.0
##FIRSTY=0.007709
##MAXX=3966
##MINX=450
##MAXY=0.65332
##MINY=0
##NPOINTS=880
##XYDATA=(X++(Y..Y))
450.0 118 192 170 166 212 183 164 107 149 3
490.0 79 223 352 281 314 205 342 262 312 356
530.0 429 290 331 293 395 400 374 256 493 298
570.0 443 361 420 391 522 388 411 289 413 336
610.0 314 288 298 280 403 407 322 340 385 438
650.0 383 339 353 439 362 360 332 239 312 357
690.0 310 315 357 341 256 317 304 311 282 329
730.0 225 230 264 399 262 300 237 326 288 334
770.0 328 369 345 391 285 433 412 490 411 445
810.0 402 410 393 428 414 441 416 493 494 508
850.0 638 795 804 841 821 604 513 526 373 386
890.0 396 394 377 396 439 417 517 654 666 684
930.0 711 636 599 504 533 505 556 568 568 570
970.0 576 512 573 466 538 602 647 670 731 775
1010.0 916 1194 1511 1814 2287 2779 3340 3577 3623 3051
1050.0 2520 1948 1636 1342 1293 1266 1225 1182 1207 1302
1090.0 1451 1689 1925 1934 1875 1667 1621 1641 1787 2007
1130.0 2358 2982 3640 4433 5296 6101 7043 7593 7847 7779
1170.0 7112 6547 6133 5930 5769 5581 5422 5174 4838 4589
1210.0 4319 4202 4134 4137 4296 4459 4655 5026 5278 5698
1250.0 6033 6179 6177 6015 5432 4828 4174 3618 3144 2798
1290.0 2594 2537 2491 2626 2760 2867 2826 2714 2517 2379
1330.0 2139 1961 1749 1696 1755 2005 2290 2491 2588 2676
1370.0 2829 2932 2736 2252 1767 1403 1332 1295 1284 1254
1410.0 1267 1381 1548 1504 1365 1220 1090 1077 941 929
1450.0 972 960 1100 935 1056 1021 1137 922 815 672
1490.0 655 487 561 421 580 470 411 422 527 420
1530.0 357 376 419 539 386 313 389 498 471 324
1570.0 372 300 400 299 316 293 329 329 338 363
1610.0 386 401 562 519 553 517 535 558 435 506
1650.0 506 762 538 604 633 715 675 684 659 810
1690.0 699 797 984 1201 1218 1375 1645 2221 2770 3793
1730.0 5205 6866 7932 8582 9193 9979 10000 9531 8506 6913
1770.0 5131 3587 2397 1787 1377 1125 961 791 690 586
1810.0 531 528 511 492 466 448 345 314 302 324
1850.0 255 243 232 215 209 264 214 211 205 211
1890.0 223 207 212 190 188 189 186 193 178 174
1930.0 158 147 172 163 167 156 165 153 150 143
1970.0 158 141 155 133 151 145 170 149 148 139
2010.0 167 143 160 144 159 137 155 144 150 130
2050.0 151 143 152 128 155 127 147 128 129 129
2090.0 142 132 131 129 130 126 127 131 124 115
2130.0 123 131 105 102 112 104 105 102 88 99
2170.0 92 106 89 93 87 102 91 85 85 90
2210.0 77 98 81 87 78 95 81 89 79 97
2250.0 77 93 78 83 75 96 80 92 84 106
2290.0 88 120 120 137 129 163 133 137 124 165
2330.0 130 112 96 123 111 152 129 156 102 142
2370.0 104 107 98 116 98 85 77 71 69 76
2410.0 78 73 78 79 73 61 63 60 62 61
2450.0 69 49 48 55 57 60 60 48 53 52
2490.0 43 48 34 34 57 33 40 32 50 23
2530.0 47 29 40 24 46 26 40 29 50 27
2570.0 41 19 46 22 51 30 30 26 44 28
2610.0 33 21 30 21 42 14 26 11 38 29
2650.0 29 23 14 20 28 29 25 25 30 27
2690.0 28 26 33 33 31 41 29 32 30 43
2730.0 20 46 37 65 31 58 44 69 46 68
2770.0 61 76 74 102 64 87 72 86 66 108
2810.0 65 98 100 127 112 129 115 146 139 160
2850.0 149 196 198 231 223 256 302 382 433 513
2890.0 535 552 530 593 636 710 775 830 805 788
2930.0 842 973 1177 1432 1569 1513 1342 1185 1130 1181
2970.0 1330 1484 1717 2184 2725 2884 2555 2046 1697 1417
3010.0 1221 1016 844 657 529 400 357 278 258 202
3050.0 209 172 195 141 168 118 150 120 139 85
3090.0 118 90 139 86 107 83 105 84 96 81
3130.0 97 85 114 65 68 74 96 62 80 72
3170.0 72 74 90 62 75 79 81 65 50 63
3210.0 76 60 61 55 51 64 66 62 36 54
3250.0 50 52 31 57 42 56 57 52 39 54
3290.0 48 69 26 52 35 66 48 64 20 62
3330.0 44 73 10 60 31 71 43 73 33 61
3370.0 48 81 34 50 44 82 53 67 54 63
3410.0 67 82 62 74 68 86 62 85 81 95
3450.0 99 114 106 134 135 150 126 102 143 121
3490.0 121 110 103 82 113 89 82 48 86 66
3530.0 83 53 63 56 80 60 75 32 70 73
3570.0 125 84 137 123 141 113 113 46 76 62
3610.0 106 88 98 110 98 160 104 67 88 105
3650.0 236 103 118 85 112 133 186 161 122 121
3690.0 189 99 94 99 108 117 141 97 135 134
3730.0 147 180 185 190 258 225 191 143 127 120
3770.0 125 107 98 141 120 106 110 145 161 158
3810.0 128 155 163 164 132 152 146 197 148 143
3850.0 146 214 157 164 147 145 129 162 155 159
3890.0 130 125 116 144 108 101 67 110 103 110
3930.0 88 112 98 111 93 123 0 9 9 9
##END=
