##TITLE=n-Butyltin trichloride
##JCAMP-DX=4.24
##DATA TYPE=INFRARED SPECTRUM
##ORIGIN=Sadtler Research Labs Under US-EPA Contract
##OWNER=NIST Standard Reference Data Program
##CAS REGISTRY NO=1118-46-3
##MOLFORM=C 4 H 9 Cl 3 Sn
##XUNITS=1/CM
##YUNITS=ABSORBANCE
##XFACTOR=1.0
##YFACTOR=0.000087845
##DELTAX=4.0
##FIRSTX=450.0
##LASTX=3966.0
##FIRSTY=0.039354
##MAXX=3966
##MINX=450
##MAXY=0.87845
##MINY=0
##NPOINTS=880
##XYDATA=(X++(Y..Y))
450.0 448 303 259 184 173 152 190 163 158 220
490.0 185 221 189 239 245 347 471 540 568 502
530.0 374 245 150 68 12 38 29 4 28 40
570.0 43 31 64 72 73 100 117 142 168 181
610.0 173 143 117 81 79 63 66 68 68 85
650.0 114 181 225 321 380 568 726 893 1033 1104
690.0 1114 1130 1343 1541 1742 1814 1727 1425 994 624
730.0 430 335 330 336 374 379 346 308 249 221
770.0 204 192 168 137 90 68 30 24 2 5
810.0 8 10 29 34 44 54 88 124 188 251
850.0 276 304 297 357 454 579 695 779 776 704
890.0 571 411 276 190 144 110 76 70 74 69
930.0 71 76 91 100 136 205 302 391 408 363
970.0 274 232 228 234 248 257 272 251 227 198
1010.0 182 187 234 304 366 399 391 363 332 329
1050.0 329 336 324 313 316 365 485 615 683 625
1090.0 477 327 234 173 133 105 86 83 77 94
1130.0 117 157 224 382 669 1057 1362 1403 1261 1144
1170.0 1264 1576 1860 1801 1384 879 509 330 243 191
1210.0 157 142 132 140 158 195 271 444 784 1232
1250.0 1620 1699 1482 1104 795 581 473 441 478 561
1290.0 662 758 773 710 562 403 281 218 189 187
1330.0 206 268 405 639 831 846 689 498 439 472
1370.0 471 460 501 703 943 1053 989 805 730 715
1410.0 707 666 669 664 609 557 543 571 674 882
1450.0 1215 1500 1732 1883 1950 1912 1632 1223 834 577
1490.0 414 321 249 196 176 135 131 115 123 112
1530.0 100 94 88 76 56 75 56 58 63 48
1570.0 47 47 51 50 44 45 45 53 45 50
1610.0 48 44 51 38 35 29 34 27 32 17
1650.0 18 35 37 18 29 17 28 17 27 36
1690.0 37 32 50 42 39 30 25 9 26 22
1730.0 19 32 35 37 38 46 68 71 65 59
1770.0 41 40 29 22 28 20 13 10 10 12
1810.0 6 3 13 5 6 0 5 2 7 1
1850.0 5 13 9 12 8 7 14 15 17 15
1890.0 13 14 19 21 19 14 17 15 12 21
1930.0 22 17 16 11 10 12 11 8 10 3
1970.0 5 5 3 4 4 0 1 4 3 3
2010.0 7 5 7 12 15 20 21 25 28 34
2050.0 36 38 35 29 23 21 18 12 12 5
2090.0 11 13 16 19 21 25 21 26 25 30
2130.0 28 31 28 29 24 24 29 24 29 27
2170.0 23 19 17 19 18 16 16 16 17 19
2210.0 21 23 22 30 31 31 34 25 22 16
2250.0 16 11 9 5 6 3 4 2 0 4
2290.0 6 10 13 17 15 13 12 7 2 5
2330.0 17 21 26 37 43 47 43 41 39 47
2370.0 46 55 44 41 34 30 25 20 22 28
2410.0 24 24 29 25 27 26 25 27 19 19
2450.0 12 11 9 7 9 10 10 14 12 14
2490.0 16 17 23 22 21 25 26 24 27 26
2530.0 27 28 24 23 25 25 24 22 26 33
2570.0 44 46 52 54 63 60 63 50 53 48
2610.0 51 48 50 46 49 50 53 56 65 72
2650.0 77 79 78 74 75 73 75 78 84 78
2690.0 79 66 63 68 68 67 73 81 85 94
2730.0 105 117 132 151 178 202 210 194 175 165
2770.0 160 159 170 173 193 215 246 272 295 309
2810.0 333 366 403 437 463 500 546 586 646 737
2850.0 897 1160 1603 2253 3028 3643 3871 3848 3900 4028
2890.0 3885 3449 2823 2481 2499 2739 3184 3826 4650 5513
2930.0 6411 7153 7711 7814 7365 6501 5666 5297 5838 7141
2970.0 8717 10000 9510 7773 5245 3213 2113 1505 1119 876
3010.0 727 646 592 554 521 487 437 393 354 325
3050.0 290 270 253 231 219 211 207 199 194 182
3090.0 184 174 172 163 160 156 149 143 140 125
3130.0 121 120 110 113 107 109 105 104 103 104
3170.0 108 104 106 94 98 88 86 82 85 84
3210.0 78 71 65 57 55 48 50 50 44 38
3250.0 30 32 32 28 31 31 28 29 31 25
3290.0 32 26 29 29 26 27 23 28 28 36
3330.0 30 32 33 29 21 30 40 29 39 41
3370.0 33 34 30 34 28 29 30 35 29 28
3410.0 25 27 29 25 34 25 22 25 19 12
3450.0 15 16 12 19 26 18 24 22 14 15
3490.0 17 16 17 2 6 22 14 9 9 4
3530.0 17 13 18 7 3 20 16 21 15 12
3570.0 18 16 17 4 22 20 24 19 31 27
3610.0 32 21 24 34 49 50 47 38 45 32
3650.0 20 29 37 42 43 35 35 34 37 29
3690.0 46 29 33 15 25 22 30 34 16 27
3730.0 41 20 26 32 55 36 46 34 13 30
3770.0 26 39 47 50 45 43 37 38 32 48
3810.0 56 44 45 34 32 47 23 28 16 20
3850.0 17 56 45 18 33 32 30 11 0 16
3890.0 30 16 16 22 28 24 23 26 12 23
3930.0 39 34 50 42 12 30 39 34 45 46
##END=
