##TITLE=3,5-Heptanedione, 2,2,6,6-tetramethyl-
##JCAMP-DX=4.24
##DATA TYPE=INFRARED SPECTRUM
##ORIGIN=Sadtler Research Labs Under US-EPA Contract
##OWNER=NIST Standard Reference Data Program
##CAS REGISTRY NO=1118-71-4
##MOLFORM=C 11 H 20 O 2
##XUNITS=1/CM
##YUNITS=ABSORBANCE
##XFACTOR=1.0
##YFACTOR=0.000107718
##DELTAX=4.0
##FIRSTX=450.0
##LASTX=3966.0
##FIRSTY=0.011418
##MAXX=3966
##MINX=450
##MAXY=1.07718
##MINY=0
##NPOINTS=880
##XYDATA=(X++(Y..Y))
450.0 106 193 267 310 268 328 453 623 756 721
490.0 549 355 226 147 130 84 88 91 84 62
530.0 78 95 95 111 143 214 226 208 193 145
570.0 125 119 110 115 136 146 144 121 103 85
610.0 76 46 37 30 30 35 24 28 23 38
650.0 15 11 4 12 10 2 7 7 22 25
690.0 39 12 6 12 10 7 22 36 66 129
730.0 275 471 589 663 642 628 565 438 286 155
770.0 79 61 75 117 208 316 418 425 348 254
810.0 159 111 79 79 68 89 97 103 113 128
850.0 170 238 425 833 1637 2333 2413 1716 820 391
890.0 284 247 244 232 236 249 279 321 368 431
930.0 485 534 574 599 601 585 564 545 532 505
970.0 477 447 413 376 354 342 336 346 371 393
1010.0 408 425 423 416 401 367 342 318 316 321
1050.0 343 389 453 506 550 575 596 616 634 638
1090.0 642 668 699 767 883 1056 1284 1588 1944 2260
1130.0 2461 2514 2398 2135 1772 1373 1052 848 741 675
1170.0 633 609 601 613 643 711 818 969 1139 1309
1210.0 1469 1598 1645 1560 1366 1153 1006 980 1097 1350
1250.0 1612 1712 1611 1386 1200 1139 1167 1254 1366 1475
1290.0 1555 1578 1540 1451 1335 1211 1106 1033 972 935
1330.0 910 901 905 938 1002 1152 1400 1767 2206 2600
1370.0 2733 2553 2128 1677 1367 1248 1292 1348 1335 1267
1410.0 1215 1267 1358 1458 1557 1641 1702 1734 1790 1859
1450.0 1996 2165 2393 2569 2666 2700 2771 2980 3225 3345
1490.0 3158 2792 2490 2325 2255 2231 2192 2168 2149 2176
1530.0 2258 2389 2577 2793 3034 3289 3620 3937 4344 4760
1570.0 5265 5773 6328 6900 7347 7859 8225 8679 8811 8909
1610.0 8824 8483 8012 7268 6609 5739 5042 4333 3779 3271
1650.0 2856 2517 2199 1973 1757 1613 1453 1346 1258 1194
1690.0 1134 1104 1092 1073 1059 1013 947 866 781 747
1730.0 727 703 626 553 460 388 318 271 238 208
1770.0 198 174 166 153 149 136 145 139 139 138
1810.0 140 144 144 153 150 162 156 167 165 168
1850.0 162 153 147 136 132 120 110 95 84 75
1890.0 69 59 49 46 36 35 28 26 22 19
1930.0 15 13 15 12 14 10 10 7 6 3
1970.0 3 0 2 3 4 14 14 17 17 22
2010.0 22 22 21 22 21 17 14 12 12 9
2050.0 12 12 14 13 16 15 15 14 10 12
2090.0 9 9 7 8 7 4 5 0 4 5
2130.0 7 7 13 11 16 20 22 23 19 19
2170.0 12 10 6 5 4 2 1 0 2 0
2210.0 1 3 6 6 6 4 4 7 5 5
2250.0 6 6 5 6 6 11 10 11 16 15
2290.0 23 23 24 23 25 25 24 24 24 33
2330.0 24 34 32 41 35 39 33 38 38 41
2370.0 52 53 54 57 62 67 67 62 59 53
2410.0 54 50 46 47 42 44 39 41 37 38
2450.0 42 43 45 45 47 48 50 50 57 53
2490.0 57 64 65 68 66 70 69 72 75 76
2530.0 72 74 76 74 75 72 73 72 73 75
2570.0 78 73 72 71 76 77 77 80 78 83
2610.0 83 83 86 89 89 93 95 96 100 105
2650.0 110 112 118 121 118 119 124 125 127 129
2690.0 125 123 128 129 135 135 142 151 154 156
2730.0 156 147 145 142 138 136 137 134 133 131
2770.0 123 124 124 128 133 138 140 138 134 138
2810.0 151 166 175 180 188 190 201 211 229 255
2850.0 300 372 483 667 938 1295 1668 1951 2055 2021
2890.0 1907 1799 1749 1786 1958 2244 2503 2618 2589 2540
2930.0 2559 2616 2678 2706 2761 2960 3528 4664 6384 8299
2970.0 9748 10000 8759 6836 5094 3968 3112 2308 1570 980
3010.0 594 371 246 175 128 94 74 67 54 53
3050.0 53 50 55 55 57 54 57 64 64 63
3090.0 59 63 57 59 56 56 57 63 55 64
3130.0 62 64 61 56 61 64 69 71 77 84
3170.0 91 92 97 102 99 100 98 100 100 106
3210.0 101 101 105 100 94 97 94 89 83 74
3250.0 75 62 63 55 53 59 47 45 43 33
3290.0 30 21 27 21 24 13 27 19 16 16
3330.0 23 13 16 16 20 20 25 24 24 22
3370.0 19 17 13 21 9 12 13 7 12 7
3410.0 9 10 9 13 13 10 12 10 12 12
3450.0 5 12 7 12 11 4 11 4 7 3
3490.0 0 1 10 0 6 6 6 9 6 7
3530.0 3 15 15 8 9 6 14 17 5 11
3570.0 4 16 13 15 16 9 18 3 12 12
3610.0 2 14 11 17 9 3 19 18 20 16
3650.0 17 19 8 22 25 17 6 12 22 16
3690.0 25 20 17 13 16 22 22 14 21 29
3730.0 24 18 25 11 22 19 21 24 19 26
3770.0 33 23 20 17 22 24 15 26 23 37
3810.0 31 31 30 35 37 31 24 30 44 28
3850.0 34 22 21 29 18 24 17 32 25 22
3890.0 32 31 33 30 30 37 32 21 20 32
3930.0 17 21 27 22 17 19 24 24 15 15
##END=
