##TITLE=5-Chlorovaleric acid
##JCAMP-DX=4.24
##DATA TYPE=INFRARED SPECTRUM
##ORIGIN=Sadtler Research Labs Under US-EPA Contract
##OWNER=NIST Standard Reference Data Program
##CAS REGISTRY NO=1119-46-6
##MOLFORM=C 5 H 9 Cl O 2
##XUNITS=1/CM
##YUNITS=ABSORBANCE
##XFACTOR=1.0
##YFACTOR=0.000072299
##DELTAX=4.0
##FIRSTX=450.0
##LASTX=3966.0
##FIRSTY=0.001518
##MAXX=3966
##MINX=450
##MAXY=0.72299
##MINY=0
##NPOINTS=880
##XYDATA=(X++(Y..Y))
450.0 21 101 0 94 42 112 113 156 141 150
490.0 389 354 445 406 482 393 518 540 493 512
530.0 512 619 695 726 879 978 1065 1579 1368 1165
570.0 1151 1068 1111 1124 1125 1206 1428 1379 1446 1424
610.0 1484 1462 1453 1495 1524 1555 1477 1401 1229 1058
650.0 964 993 989 1001 988 856 763 597 539 432
690.0 382 353 337 336 326 375 339 406 430 476
730.0 522 576 643 768 965 1139 1220 1155 975 692
770.0 503 346 326 272 201 183 134 159 123 80
810.0 96 91 70 104 96 84 113 139 172 149
850.0 175 165 152 152 147 119 104 100 93 89
890.0 87 91 84 91 83 96 79 86 100 107
930.0 117 116 140 130 123 107 94 78 77 80
970.0 83 123 98 125 217 247 275 316 321 326
1010.0 336 362 410 468 529 596 682 782 894 1010
1050.0 1109 1173 1199 1215 1233 1263 1301 1377 1479 1579
1090.0 1728 1939 2250 2733 3466 4459 5557 6371 6542 6167
1130.0 5294 4341 3622 3142 2874 2725 2648 2561 2437 2270
1170.0 2099 1982 1875 1787 1702 1625 1533 1428 1317 1197
1210.0 1096 1017 954 897 856 816 782 754 742 745
1250.0 754 786 813 834 843 889 970 1092 1201 1249
1290.0 1238 1184 1127 1077 1041 1007 988 950 894 824
1330.0 763 702 699 710 744 787 834 885 936 1010
1370.0 1076 1157 1238 1323 1390 1390 1311 1148 949 754
1410.0 634 565 565 580 611 651 695 723 750 823
1450.0 887 900 868 750 601 469 352 258 200 142
1490.0 125 87 83 62 62 65 48 41 34 29
1530.0 21 26 17 21 22 24 22 9 12 11
1570.0 16 9 14 4 10 15 20 22 14 20
1610.0 15 23 13 24 20 29 17 34 29 40
1650.0 37 31 46 55 68 65 80 92 109 120
1690.0 138 168 177 216 244 306 347 454 545 691
1730.0 848 1036 1264 1518 1932 2362 3009 3723 4866 6093
1770.0 7593 9033 9866 10000 9049 7838 6114 4752 3590 2689
1810.0 1985 1444 1048 752 562 420 324 270 219 192
1850.0 162 143 126 115 103 93 83 72 75 66
1890.0 67 63 57 55 54 52 51 48 51 47
1930.0 48 48 47 39 43 45 46 41 44 40
1970.0 44 40 42 35 33 36 35 21 26 25
2010.0 20 22 20 25 26 25 31 31 35 25
2050.0 22 23 32 40 44 50 51 49 47 43
2090.0 47 52 59 53 52 50 49 47 49 43
2130.0 48 48 48 45 53 45 45 44 50 51
2170.0 48 55 56 50 47 48 44 45 50 43
2210.0 48 49 49 48 48 49 52 48 49 48
2250.0 47 44 42 44 44 44 34 39 43 44
2290.0 45 47 57 57 57 70 67 68 59 61
2330.0 64 40 11 12 4 38 73 63 4 4
2370.0 4 4 4 4 7 26 33 39 45 44
2410.0 46 43 52 40 42 38 34 34 34 30
2450.0 32 31 32 29 27 28 27 28 28 29
2490.0 30 33 32 29 24 28 24 23 23 22
2530.0 18 20 20 19 16 18 9 12 23 13
2570.0 23 19 20 24 20 16 24 12 16 11
2610.0 11 10 6 14 12 4 5 20 20 32
2650.0 47 32 35 32 52 63 81 85 88 81
2690.0 72 62 63 62 69 61 54 58 56 56
2730.0 49 48 48 43 44 43 53 51 45 51
2770.0 49 51 51 49 48 51 50 56 65 64
2810.0 70 73 78 86 98 113 144 162 201 236
2850.0 270 312 360 392 446 498 562 614 654 669
2890.0 657 631 623 635 653 692 736 804 894 978
2930.0 1086 1192 1315 1457 1608 1745 1911 2056 2152 2130
2970.0 2027 1804 1544 1322 1135 1011 962 939 839 721
3010.0 560 400 301 236 186 157 137 118 109 113
3050.0 106 93 82 89 91 88 78 70 79 81
3090.0 72 62 66 64 53 52 64 63 66 66
3130.0 63 56 55 68 58 69 63 59 61 70
3170.0 67 69 63 62 65 57 65 64 71 59
3210.0 62 66 61 51 47 49 50 49 50 53
3250.0 34 45 23 15 4 44 62 88 104 113
3290.0 105 79 88 54 69 75 73 73 57 55
3330.0 56 58 67 53 47 54 42 62 50 47
3370.0 45 45 49 40 40 38 44 57 47 41
3410.0 46 48 48 42 45 27 46 49 56 51
3450.0 52 28 52 39 49 27 51 54 49 53
3490.0 49 44 38 93 72 91 73 70 92 146
3530.0 132 158 183 208 263 307 419 615 913 1636
3570.0 2887 3842 3826 3369 2176 952 485 326 198 180
3610.0 148 128 89 106 89 131 72 50 68 87
3650.0 128 58 57 55 61 73 126 77 58 71
3690.0 86 31 57 45 56 62 81 48 104 118
3730.0 54 116 120 80 77 93 73 89 88 74
3770.0 91 59 69 62 59 53 77 106 98 103
3810.0 68 68 67 45 93 84 97 102 91 85
3850.0 79 97 27 6 4 4 4 4 133 238
3890.0 199 223 217 188 146 74 94 78 90 122
3930.0 84 110 87 48 38 83 131 92 108 75
##END=
