##TITLE=Acetamide, N-butyl-
##JCAMP-DX=4.24
##DATA TYPE=INFRARED SPECTRUM
##ORIGIN=Sadtler Research Labs Under US-EPA Contract
##OWNER=NIST Standard Reference Data Program
##CAS REGISTRY NO=1119-49-9
##MOLFORM=C 6 H 13 N O
##XUNITS=1/CM
##YUNITS=ABSORBANCE
##XFACTOR=1.0
##YFACTOR=0.000237909
##DELTAX=4.0
##FIRSTX=450.0
##LASTX=3966.0
##FIRSTY=0.044013
##MAXX=3966
##MINX=450
##MAXY=2.37909
##MINY=0
##NPOINTS=880
##XYDATA=(X++(Y..Y))
450.0 185 341 313 309 241 310 247 284 236 267
490.0 276 266 270 292 329 291 330 293 255 239
530.0 243 336 324 212 183 195 211 218 241 244
570.0 243 213 229 274 244 212 285 288 317 306
610.0 305 321 301 341 329 323 263 247 332 206
650.0 216 285 265 148 91 99 76 86 79 71
690.0 36 29 7 17 1 12 12 17 33 48
730.0 71 81 106 110 119 105 105 91 82 87
770.0 83 95 102 130 119 147 166 186 203 189
810.0 206 200 217 210 222 211 218 209 194 181
850.0 166 163 139 143 129 131 120 119 114 100
890.0 102 91 93 81 85 69 71 68 66 67
930.0 64 80 81 108 122 148 167 199 230 255
970.0 288 305 332 338 356 359 348 325 303 267
1010.0 223 193 151 142 127 144 149 170 187 194
1050.0 199 182 183 162 164 158 167 179 224 291
1090.0 361 411 419 399 324 269 237 239 241 253
1130.0 256 260 284 310 359 396 442 477 522 541
1170.0 564 586 592 604 589 591 566 590 622 653
1210.0 715 802 926 1064 1240 1469 1800 2267 2792 3236
1250.0 3430 3330 2966 2475 2034 1650 1348 1118 929 803
1290.0 734 703 714 723 747 741 726 666 593 505
1330.0 443 404 427 456 473 620 827 1170 1501 1699
1370.0 1788 1669 1427 1211 1115 991 910 840 760 697
1410.0 648 635 678 732 764 925 1087 1289 1424 1582
1450.0 1751 1824 2062 2112 2321 2468 2851 3246 3590 4462
1490.0 4945 5991 5677 6335 5736 4806 4076 3179 2605 1927
1530.0 1628 1315 1081 919 747 627 516 504 397 338
1570.0 312 280 250 224 197 187 172 174 147 161
1610.0 143 148 148 149 153 131 167 174 179 182
1650.0 276 256 299 321 403 474 581 712 853 1184
1690.0 1475 2116 2787 4432 5335 7387 7889 10000 7273 7163
1730.0 5435 3846 2651 1823 1337 1037 921 813 860 870
1770.0 983 995 1001 960 819 768 882 1031 933 871
1810.0 722 536 337 226 156 107 82 50 61 52
1850.0 52 23 30 30 33 46 21 26 14 24
1890.0 23 29 13 12 15 14 14 11 27 1
1930.0 10 4 7 11 15 4 1 8 4 13
1970.0 8 15 12 15 17 25 26 13 18 11
2010.0 14 12 23 13 12 15 12 18 15 23
2050.0 11 19 11 13 12 10 10 4 10 7
2090.0 12 5 14 10 12 12 12 15 10 18
2130.0 8 14 12 13 7 10 11 8 12 10
2170.0 15 10 15 12 13 12 13 15 11 15
2210.0 12 13 8 13 11 13 12 11 13 11
2250.0 14 8 12 10 13 11 11 11 8 13
2290.0 12 14 11 17 15 15 15 15 23 10
2330.0 21 13 21 14 23 15 20 17 18 21
2370.0 12 23 14 19 17 20 18 17 19 17
2410.0 18 17 19 13 17 15 13 14 14 15
2450.0 11 15 12 13 8 12 8 7 8 5
2490.0 7 5 8 5 5 4 5 1 1 2
2530.0 0 2 0 4 2 5 5 6 7 7
2570.0 13 11 17 14 19 19 24 25 25 26
2610.0 26 29 26 29 25 30 29 30 29 27
2650.0 33 32 36 36 43 42 46 51 54 56
2690.0 60 66 68 73 75 81 81 86 88 88
2730.0 89 92 97 95 100 97 97 93 91 86
2770.0 83 83 80 82 85 93 98 107 116 124
2810.0 135 143 161 173 197 218 255 297 365 459
2850.0 583 735 911 1097 1270 1421 1545 1676 1781 1761
2890.0 1709 1637 1527 1468 1524 1657 1862 2127 2437 2764
2930.0 3076 3358 3561 3615 3502 3324 3151 3055 3116 3328
2970.0 3489 3312 2947 2400 1749 1251 934 728 592 502
3010.0 443 405 372 354 338 328 319 310 298 285
3050.0 268 249 228 207 191 174 163 155 144 133
3090.0 124 116 105 97 89 81 73 70 63 56
3130.0 54 51 48 42 43 42 42 39 39 35
3170.0 37 37 35 35 32 35 33 32 27 29
3210.0 26 25 24 23 23 17 18 14 19 14
3250.0 13 19 17 18 14 19 14 18 15 18
3290.0 14 18 17 13 15 14 18 15 15 18
3330.0 19 17 19 18 13 21 14 21 21 25
3370.0 23 20 23 26 30 37 45 56 73 82
3410.0 106 119 125 137 130 131 119 116 108 127
3450.0 148 180 234 290 353 398 431 448 449 409
3490.0 354 292 218 170 124 83 61 39 32 37
3530.0 25 23 24 23 54 57 86 108 138 175
3570.0 174 135 145 216 166 119 161 147 139 93
3610.0 74 36 26 19 4 17 12 5 11 2
3650.0 20 14 10 12 0 18 1 29 8 8
3690.0 6 12 10 17 13 5 30 12 20 26
3730.0 20 15 32 10 27 6 23 15 15 23
3770.0 13 14 6 20 14 10 10 13 13 24
3810.0 10 15 0 25 12 10 10 23 17 25
3850.0 10 20 20 29 19 29 35 29 29 29
3890.0 20 25 13 35 33 19 10 31 23 23
3930.0 23 31 18 14 27 25 25 17 29 21
##END=
