##TITLE=Acetic acid, heptyl ester
##JCAMP-DX=4.24
##DATA TYPE=INFRARED SPECTRUM
##ORIGIN=Sadtler Research Labs Under US-EPA Contract
##OWNER=NIST Standard Reference Data Program
##CAS REGISTRY NO=112-06-1
##MOLFORM=C 9 H 18 O 2
##XUNITS=1/CM
##YUNITS=ABSORBANCE
##XFACTOR=1.0
##YFACTOR=0.000061182
##DELTAX=4.0
##FIRSTX=450.0
##LASTX=3966.0
##FIRSTY=0.007525
##MAXX=3966
##MINX=450
##MAXY=0.61182
##MINY=0
##NPOINTS=880
##XYDATA=(X++(Y..Y))
450.0 123 107 140 108 96 70 77 79 77 104
490.0 140 109 65 65 15 43 67 50 58 67
530.0 54 58 71 38 36 76 27 7 74 67
570.0 74 87 54 92 89 97 130 141 225 207
610.0 218 184 166 163 274 260 259 245 259 208
650.0 233 138 116 110 61 102 111 114 88 89
690.0 139 130 162 154 130 145 141 186 229 178
730.0 209 141 170 97 150 110 92 142 153 137
770.0 156 130 144 150 173 145 131 119 132 126
810.0 155 178 183 206 218 209 192 167 188 216
850.0 233 207 219 204 267 211 245 206 208 207
890.0 192 239 204 217 201 189 206 202 203 232
930.0 211 221 220 247 283 256 281 288 307 334
970.0 338 353 305 294 276 283 341 398 434 515
1010.0 584 724 883 1021 1241 1416 1626 1729 1754 1615
1050.0 1571 1440 1372 1364 1273 1184 1102 968 870 774
1090.0 702 558 476 417 341 287 279 252 280 244
1130.0 227 256 232 183 191 201 229 239 233 234
1170.0 246 258 290 334 370 437 561 701 893 1167
1210.0 1543 2087 2936 4153 5943 7895 9436 10000 8456 6376
1250.0 4641 3411 2684 2197 1885 1598 1303 1075 894 770
1290.0 677 620 565 520 488 428 379 344 310 304
1330.0 286 296 299 319 338 419 539 748 1171 1636
1370.0 1844 1703 1317 1068 1035 1043 962 825 630 468
1410.0 367 318 298 299 307 324 351 408 441 507
1450.0 568 639 744 784 796 779 719 601 475 400
1490.0 348 277 269 231 242 212 198 193 198 189
1530.0 182 182 166 180 173 136 135 150 123 80
1570.0 92 81 113 121 107 115 114 139 121 131
1610.0 118 129 144 129 132 120 142 153 129 137
1650.0 135 171 130 131 123 133 131 135 139 160
1690.0 150 166 199 232 258 292 358 442 501 591
1730.0 719 907 1143 1500 1989 2751 3810 5163 5915 5722
1770.0 4498 3166 2219 1572 1145 860 663 514 411 326
1810.0 260 215 176 157 144 130 111 113 98 95
1850.0 90 80 72 72 78 86 70 68 72 71
1890.0 71 61 61 61 61 61 54 60 60 53
1930.0 53 53 47 52 47 44 43 43 52 51
1970.0 42 42 43 43 44 47 52 40 50 50
2010.0 50 56 57 49 48 48 48 49 49 49
2050.0 47 47 46 50 47 49 48 47 54 47
2090.0 48 45 46 45 45 45 45 45 45 45
2130.0 37 45 37 36 37 39 33 36 40 37
2170.0 39 43 43 35 25 33 26 17 16 8
2210.0 5 1 1 1 8 17 24 24 25 24
2250.0 24 22 26 24 20 25 25 24 24 26
2290.0 25 32 32 33 33 33 33 27 31 38
2330.0 39 42 39 43 42 42 43 49 50 43
2370.0 37 29 25 25 24 24 17 25 25 25
2410.0 25 25 25 25 25 25 25 25 25 25
2450.0 32 32 32 33 33 33 26 32 28 29
2490.0 25 25 25 25 25 25 24 17 18 24
2530.0 22 26 24 20 22 24 25 23 24 24
2570.0 25 32 32 33 33 38 36 36 42 36
2610.0 40 41 42 41 41 42 42 44 40 47
2650.0 42 40 45 48 50 57 57 58 58 57
2690.0 58 61 57 61 61 58 58 57 57 66
2730.0 66 66 73 75 80 81 73 74 69 67
2770.0 67 74 73 74 80 89 89 106 108 113
2810.0 122 135 152 169 185 217 242 276 336 439
2850.0 607 853 1183 1530 1767 1853 1776 1647 1538 1436
2890.0 1320 1194 1162 1254 1402 1614 1884 2224 2683 3281
2930.0 3903 4395 4602 4473 4056 3560 3141 2980 3098 3358
2970.0 3458 3072 2414 1668 1200 908 709 573 447 378
3010.0 322 283 255 236 218 211 199 188 180 171
3050.0 148 147 139 138 121 111 106 105 96 94
3090.0 81 73 73 75 65 66 57 57 50 40
3130.0 51 41 37 32 43 32 25 33 25 17
3170.0 24 24 35 27 23 21 17 22 20 16
3210.0 15 16 9 8 8 17 16 14 9 12
3250.0 7 7 15 1 1 16 8 8 8 16
3290.0 2 9 2 12 4 6 1 9 1 9
3330.0 9 8 7 1 1 1 1 1 6 9
3370.0 1 1 1 1 8 9 7 4 0 1
3410.0 9 8 2 16 8 8 9 17 8 17
3450.0 5 10 12 12 17 17 17 17 17 24
3490.0 25 33 42 56 49 59 46 27 20 11
3530.0 9 8 1 9 9 1 1 1 1 13
3570.0 17 13 7 2 8 18 8 9 1 1
3610.0 9 15 15 9 4 15 3 8 1 7
3650.0 17 8 9 9 8 23 14 22 8 9
3690.0 14 10 2 1 9 9 17 7 17 26
3730.0 18 35 20 14 22 24 24 25 24 17
3770.0 17 8 8 5 9 21 20 23 31 33
3810.0 25 16 24 24 23 17 18 33 29 16
3850.0 22 25 23 17 25 25 25 17 24 27
3890.0 24 16 21 11 8 2 1 9 1 1
3930.0 1 9 8 17 13 10 1 1 1 1
##END=
