##TITLE=Triethylene glycol
##JCAMP-DX=4.24
##DATA TYPE=INFRARED SPECTRUM
##ORIGIN=Sadtler Research Labs Under US-EPA Contract
##OWNER=NIST Standard Reference Data Program
##CAS REGISTRY NO=112-27-6
##MOLFORM=C 6 H 14 O 4
##XUNITS=1/CM
##YUNITS=ABSORBANCE
##XFACTOR=1.0
##YFACTOR=0.000050323
##DELTAX=4.0
##FIRSTX=450.0
##LASTX=3966.0
##FIRSTY=0.018720
##MAXX=3966
##MINX=450
##MAXY=0.50323
##MINY=0
##NPOINTS=880
##XYDATA=(X++(Y..Y))
450.0 372 0 1439 880 631 789 561 541 813 743
490.0 493 952 1129 691 408 919 971 770 930 882
530.0 933 823 1179 725 710 572 812 499 376 411
570.0 565 594 691 474 447 506 595 594 495 484
610.0 307 234 419 562 555 502 429 525 644 531
650.0 573 484 397 564 516 535 635 475 468 634
690.0 510 290 478 572 474 485 614 613 546 530
730.0 679 481 469 598 636 531 479 510 582 613
770.0 744 691 759 673 646 779 941 767 1091 1012
810.0 1085 1077 985 1195 1097 1098 1234 1208 1405 1232
850.0 928 1156 1277 1292 1292 1549 1569 1599 1658 1662
890.0 1714 1711 1657 1686 1797 1746 1691 1815 1792 1862
930.0 1797 1755 1715 1568 1388 1286 1225 1132 1045 1048
970.0 1045 977 979 970 1088 1189 1219 1261 1390 1589
1010.0 1738 1910 2059 2324 2574 2800 3141 3578 4044 4682
1050.0 5254 5829 6530 7000 7295 7114 6632 5834 5091 4599
1090.0 4371 4179 4255 4491 4920 5544 6388 7460 8644 9573
1130.0 10000 9887 9305 8339 7393 6379 5518 4602 3709 2884
1170.0 2263 1704 1251 898 742 394 386 470 359 694
1210.0 835 895 929 950 1111 1097 1139 1191 1241 1488
1250.0 1590 1741 1814 1878 1887 1823 1825 1664 1717 1692
1290.0 1702 1668 1558 1511 1401 1323 1336 1349 1382 1412
1330.0 1467 1529 1665 1907 2225 2449 2565 2465 2301 2144
1370.0 2032 1922 1813 1715 1664 1623 1615 1605 1569 1546
1410.0 1408 1327 1217 1099 1000 949 918 866 826 907
1450.0 1149 1370 1457 1556 1462 1367 1208 1001 892 775
1490.0 680 621 550 508 499 493 410 442 407 386
1530.0 364 360 392 374 376 336 364 382 360 336
1570.0 343 328 342 306 307 293 320 286 300 295
1610.0 288 310 276 329 309 310 309 313 302 305
1650.0 345 302 319 276 304 285 281 269 290 281
1690.0 270 269 273 305 253 259 266 285 268 268
1730.0 309 295 308 276 325 339 327 344 330 305
1770.0 313 290 263 262 253 262 259 258 235 224
1810.0 216 229 221 222 224 237 220 221 219 230
1850.0 214 224 227 213 238 221 226 213 218 220
1890.0 223 228 220 221 235 244 238 273 253 273
1930.0 277 280 294 299 310 295 319 307 296 293
1970.0 282 272 260 249 238 234 233 214 211 209
2010.0 191 195 188 192 196 190 180 176 181 168
2050.0 181 183 173 183 188 179 188 192 187 193
2090.0 185 187 187 198 194 192 194 189 188 184
2130.0 198 187 195 185 186 190 183 178 168 175
2170.0 171 170 165 161 160 146 148 146 134 136
2210.0 138 122 127 128 136 121 131 125 120 110
2250.0 114 109 121 117 117 107 105 98 95 87
2290.0 81 77 90 64 62 39 15 17 15 15
2330.0 15 15 17 15 30 79 125 124 190 229
2370.0 200 167 129 146 144 132 106 95 88 90
2410.0 86 82 94 81 84 82 80 85 81 83
2450.0 78 71 79 80 74 71 68 70 74 76
2490.0 76 72 82 81 78 76 80 74 73 82
2530.0 83 81 80 82 75 84 89 81 73 78
2570.0 81 92 84 84 80 87 93 84 84 84
2610.0 77 90 96 87 100 95 100 104 113 106
2650.0 118 127 119 137 152 160 179 192 210 243
2690.0 264 282 294 314 331 344 366 399 410 423
2730.0 434 432 434 424 415 432 435 432 444 459
2770.0 477 508 531 562 586 603 634 680 718 743
2810.0 794 825 888 951 1034 1154 1304 1515 1772 2111
2850.0 2573 3108 3753 4413 4953 5325 5605 5724 5748 5674
2890.0 5536 5404 5265 5118 4995 4885 4837 4844 4916 5068
2930.0 5167 5231 5208 5101 4963 4833 4697 4540 4248 3745
2970.0 3109 2406 1772 1320 996 751 579 452 358 280
3010.0 233 193 161 143 139 118 102 56 65 64
3050.0 42 49 45 41 51 52 49 47 51 38
3090.0 28 39 46 37 45 30 36 32 27 17
3130.0 33 33 32 45 35 46 30 34 30 28
3170.0 50 47 46 53 57 39 47 48 61 49
3210.0 50 58 53 53 61 56 56 84 63 71
3250.0 74 79 67 68 87 71 97 100 96 69
3290.0 93 107 106 106 95 103 118 115 120 131
3330.0 114 131 137 122 147 159 123 140 154 162
3370.0 146 176 153 163 175 175 168 169 145 165
3410.0 203 176 192 191 190 221 206 212 219 228
3450.0 209 222 228 230 244 259 235 236 263 269
3490.0 265 279 298 307 315 327 344 351 401 395
3530.0 409 428 436 450 486 456 475 469 485 485
3570.0 483 443 445 448 439 437 431 396 403 446
3610.0 516 591 691 771 892 991 1094 1086 1016 853
3650.0 679 601 530 461 483 467 438 393 326 314
3690.0 211 155 85 54 54 36 16 15 15 15
3730.0 15 14 19 21 55 21 16 15 15 15
3770.0 15 15 15 15 15 15 15 15 15 15
3810.0 15 15 15 15 15 15 15 15 15 15
3850.0 15 15 15 15 15 15 15 15 15 15
3890.0 15 15 15 15 15 15 15 15 15 15
3930.0 15 15 15 15 15 15 15 15 15 15
##END=
