##TITLE=Undecanoic acid
##JCAMP-DX=4.24
##DATA TYPE=INFRARED SPECTRUM
##ORIGIN=Sadtler Research Labs Under US-EPA Contract
##OWNER=NIST Standard Reference Data Program
##CAS REGISTRY NO=112-37-8
##MOLFORM=C 11 H 22 O 2
##XUNITS=1/CM
##YUNITS=ABSORBANCE
##XFACTOR=1.0
##YFACTOR=0.000043768
##DELTAX=4.0
##FIRSTX=450.0
##LASTX=3966.0
##FIRSTY=0.016282
##MAXX=3966
##MINX=450
##MAXY=0.43768
##MINY=0
##NPOINTS=880
##XYDATA=(X++(Y..Y))
450.0 372 708 556 650 242 576 300 455 346 544
490.0 397 441 579 515 598 578 642 572 566 689
530.0 704 678 729 845 800 885 886 1025 929 1048
570.0 898 1151 1087 1136 1104 953 994 1058 1017 1136
610.0 1067 1144 1068 1039 1019 972 891 833 722 633
650.0 529 512 481 438 408 497 373 359 371 359
690.0 377 375 386 410 411 431 468 476 502 482
730.0 473 439 432 400 395 376 353 360 334 297
770.0 283 264 254 232 273 72 57 299 189 259
810.0 251 206 245 211 227 204 257 225 236 232
850.0 237 221 210 245 212 263 235 259 236 243
890.0 270 264 259 233 258 235 260 238 247 220
930.0 237 244 215 223 214 235 218 240 235 240
970.0 230 254 268 267 280 296 301 308 318 342
1010.0 356 381 420 456 473 539 586 651 700 778
1050.0 836 895 960 1009 1102 1194 1309 1441 1626 1855
1090.0 2116 2411 2703 2932 3043 3010 2890 2802 2803 2860
1130.0 2982 3028 2923 2712 2434 2164 1935 1781 1647 1555
1170.0 1487 1423 1363 1298 1224 1161 1086 1018 948 905
1210.0 856 813 765 725 677 649 636 623 598 602
1250.0 604 614 607 640 642 640 629 613 609 603
1290.0 579 590 585 576 574 554 554 537 530 546
1330.0 579 619 654 722 801 854 906 941 972 1006
1370.0 1024 1062 1081 1103 1039 959 803 683 575 516
1410.0 460 457 442 484 483 531 531 601 626 680
1450.0 780 868 1028 1075 998 938 740 571 429 323
1490.0 268 234 216 170 185 172 124 155 144 162
1530.0 101 131 109 163 127 101 107 125 183 111
1570.0 132 133 152 121 135 126 102 132 93 111
1610.0 85 126 92 132 91 128 90 151 92 126
1650.0 96 208 116 111 139 117 140 155 113 226
1690.0 160 195 218 303 279 312 349 435 552 588
1730.0 767 896 1203 1332 1766 2042 2479 2946 3521 4304
1770.0 5021 6246 6364 6330 5301 4519 3503 2933 2358 1884
1810.0 1440 1110 815 615 494 376 324 237 241 176
1850.0 184 152 144 124 121 133 107 108 102 115
1890.0 93 106 87 102 89 77 82 71 76 55
1930.0 61 56 54 37 37 42 58 41 25 21
1970.0 0 4 4 14 29 40 54 54 66 66
2010.0 75 75 76 77 79 84 86 80 82 89
2050.0 77 75 73 80 72 81 77 82 82 78
2090.0 82 85 79 75 78 82 82 83 83 85
2130.0 94 88 80 83 86 85 88 91 101 96
2170.0 104 90 84 81 83 75 81 81 84 84
2210.0 85 84 79 84 91 84 82 78 80 78
2250.0 71 70 72 72 74 72 72 77 73 78
2290.0 75 79 81 92 79 74 75 60 59 67
2330.0 50 96 87 87 165 90 63 69 112 171
2370.0 211 212 218 197 155 115 97 85 85 81
2410.0 87 88 82 91 88 95 89 86 83 85
2450.0 78 79 81 84 71 73 68 62 70 80
2490.0 81 76 78 83 80 84 87 81 73 69
2530.0 67 59 52 61 56 52 56 57 59 68
2570.0 59 64 73 78 94 95 114 115 112 121
2610.0 125 129 134 139 135 134 145 149 151 160
2650.0 174 180 182 188 201 208 210 209 208 210
2690.0 207 201 206 213 223 225 233 245 260 264
2730.0 277 280 285 278 280 286 279 267 258 248
2770.0 250 240 237 237 252 277 290 308 324 352
2810.0 380 406 444 482 528 583 645 736 872 1094
2850.0 1472 2056 2795 3490 3843 3778 3443 3079 2789 2556
2890.0 2343 2212 2233 2416 2751 3248 3895 4795 6068 7636
2930.0 9144 10000 9895 9010 7730 6440 5371 4699 4389 4279
2970.0 4059 3503 2739 2030 1561 1252 1032 875 757 671
3010.0 577 521 475 438 411 390 356 344 315 292
3050.0 265 239 210 202 198 188 190 187 183 179
3090.0 170 168 165 167 162 148 130 114 92 68
3130.0 50 53 64 70 76 77 94 91 97 104
3170.0 92 102 108 112 117 129 120 126 132 140
3210.0 139 138 138 141 133 131 133 124 142 148
3250.0 155 136 133 141 144 150 134 133 129 130
3290.0 140 131 144 159 167 162 180 164 185 168
3330.0 167 181 146 132 142 146 134 134 143 157
3370.0 142 154 172 167 155 144 147 126 141 129
3410.0 124 131 147 132 133 133 136 112 115 105
3450.0 108 149 99 100 106 114 107 118 125 108
3490.0 108 111 127 126 102 118 125 140 133 135
3530.0 140 180 197 196 202 244 317 391 615 901
3570.0 1657 2570 2948 2247 1335 779 493 353 316 220
3610.0 221 206 184 189 149 167 181 199 160 150
3650.0 147 195 218 143 154 77 209 119 199 112
3690.0 174 200 156 193 138 140 184 138 121 144
3730.0 126 163 216 178 126 271 184 202 116 102
3770.0 93 86 122 109 129 115 124 113 159 136
3810.0 210 104 184 161 164 164 142 158 165 160
3850.0 122 193 225 140 177 148 173 169 115 130
3890.0 195 148 147 142 201 169 172 146 161 156
3930.0 129 135 105 118 135 132 131 215 225 197
##END=
