##TITLE=Acetic acid, octyl ester
##JCAMP-DX=4.24
##DATA TYPE=INFRARED SPECTRUM
##ORIGIN=Sadtler Research Labs Under US-EPA Contract
##OWNER=NIST Standard Reference Data Program
##CAS REGISTRY NO=112-14-1
##MOLFORM=C 10 H 20 O 2
##XUNITS=1/CM
##YUNITS=ABSORBANCE
##XFACTOR=1.0
##YFACTOR=0.000162411
##DELTAX=4.0
##FIRSTX=450.0
##LASTX=3966.0
##FIRSTY=0.099558
##MAXX=3966
##MINX=450
##MAXY=1.62411
##MINY=0
##NPOINTS=880
##XYDATA=(X++(Y..Y))
450.0 613 321 152 222 165 194 208 105 199 85
490.0 9 18 142 96 111 87 96 119 59 124
530.0 39 114 33 101 74 76 102 53 94 33
570.0 93 31 83 66 70 76 115 136 143 219
610.0 189 210 134 177 188 202 210 214 185 131
650.0 142 73 63 37 64 27 10 31 47 34
690.0 6 41 1 45 45 74 87 132 137 85
730.0 125 56 112 83 75 79 59 60 61 80
770.0 63 88 50 52 54 46 45 58 74 66
810.0 81 78 104 80 91 110 124 129 124 137
850.0 122 142 127 138 129 145 137 138 141 132
890.0 135 113 128 107 112 103 110 109 106 120
930.0 115 134 131 152 152 184 211 230 248 245
970.0 261 238 239 221 224 231 271 319 383 468
1010.0 555 653 763 915 1070 1260 1448 1614 1723 1718
1050.0 1622 1458 1337 1240 1190 1121 1056 963 857 752
1090.0 634 537 426 362 292 256 217 205 190 173
1130.0 165 143 135 114 116 101 103 106 116 131
1170.0 143 171 192 237 281 363 446 587 799 1087
1210.0 1490 2060 2905 4134 5954 8082 9843 10000 8590 6576
1250.0 4801 3558 2747 2239 1856 1534 1236 1014 860 745
1290.0 654 568 514 450 412 366 331 286 252 237
1330.0 222 217 225 252 280 357 481 706 1113 1619
1370.0 1860 1649 1249 1026 998 994 934 772 559 393
1410.0 303 250 243 232 233 252 296 348 393 455
1450.0 535 621 729 787 814 779 705 562 417 318
1490.0 250 199 172 156 151 156 126 130 125 103
1530.0 99 89 90 92 86 66 69 78 71 52
1570.0 55 53 45 45 35 40 27 38 30 35
1610.0 31 32 42 31 40 24 40 44 45 51
1650.0 62 70 62 63 64 71 78 75 88 103
1690.0 99 112 144 166 193 229 293 379 450 528
1730.0 672 866 1128 1479 2039 2772 3903 5352 6397 5887
1770.0 4439 3092 2174 1548 1119 821 623 463 356 264
1810.0 209 168 124 116 93 89 69 64 58 57
1850.0 52 42 47 41 52 43 40 34 34 29
1890.0 32 31 24 27 23 24 22 29 22 19
1930.0 17 18 17 15 20 7 14 11 13 12
1970.0 12 11 7 12 9 20 15 18 18 18
2010.0 16 18 22 18 23 18 23 22 25 22
2050.0 19 21 24 27 32 37 32 35 31 32
2090.0 31 29 33 27 29 29 27 22 27 24
2130.0 22 18 15 17 12 18 12 12 8 12
2170.0 11 9 8 8 10 5 11 7 7 7
2210.0 8 7 7 5 2 6 5 11 7 8
2250.0 8 8 9 9 10 7 11 6 8 7
2290.0 6 5 6 5 4 2 7 16 15 17
2330.0 12 12 19 15 8 1 23 16 34 7
2370.0 1 1 0 0 0 8 3 9 13 14
2410.0 11 11 15 9 12 10 15 11 16 17
2450.0 17 20 19 20 20 24 20 24 21 21
2490.0 17 15 19 14 17 13 16 11 13 11
2530.0 8 10 6 8 7 7 5 7 6 10
2570.0 7 9 9 10 18 13 20 19 25 21
2610.0 22 18 16 22 18 25 24 29 33 35
2650.0 37 32 36 34 45 44 54 55 58 56
2690.0 55 52 50 53 48 53 46 51 50 54
2730.0 60 63 70 74 75 74 73 69 74 67
2770.0 71 74 74 81 85 98 97 113 121 129
2810.0 148 159 177 198 227 255 291 337 416 545
2850.0 765 1116 1592 2066 2368 2400 2182 1934 1777 1639
2890.0 1493 1368 1374 1488 1702 1969 2311 2772 3435 4314
2930.0 5203 5804 5970 5634 4902 4139 3545 3299 3386 3644
2970.0 3699 3258 2461 1721 1282 986 772 610 491 406
3010.0 358 312 284 265 238 235 216 207 194 180
3050.0 174 160 159 150 142 133 132 114 107 106
3090.0 103 91 83 91 77 69 68 70 61 61
3130.0 57 55 63 57 62 59 66 57 59 58
3170.0 59 56 56 54 55 56 50 51 51 57
3210.0 53 51 58 48 50 51 54 54 49 49
3250.0 56 52 52 45 42 44 41 42 37 35
3290.0 41 37 30 26 29 25 36 24 27 30
3330.0 23 25 26 27 26 19 26 31 35 36
3370.0 26 25 32 33 38 20 30 21 23 23
3410.0 25 21 20 27 17 31 26 29 23 22
3450.0 23 26 24 30 26 22 40 16 34 34
3490.0 41 48 57 71 73 73 65 42 34 29
3530.0 17 14 21 22 20 18 19 9 20 11
3570.0 10 14 16 13 21 11 16 25 26 19
3610.0 19 16 24 31 34 13 25 21 32 23
3650.0 18 35 21 19 19 38 30 21 30 22
3690.0 23 23 29 30 30 12 30 13 11 20
3730.0 40 29 30 26 29 26 29 40 33 37
3770.0 30 21 13 7 21 24 29 22 27 30
3810.0 27 25 47 21 18 21 22 36 16 27
3850.0 31 31 23 24 25 14 40 18 19 46
3890.0 39 25 22 37 22 26 8 14 15 9
3930.0 19 21 29 48 46 25 21 18 36 20
##END=
