##TITLE=Eicosane
##JCAMP-DX=4.24
##DATA TYPE=INFRARED SPECTRUM
##ORIGIN=Sadtler Research Labs Under US-EPA Contract
##OWNER=NIST Standard Reference Data Program
##CAS REGISTRY NO=112-95-8
##MOLFORM=C 20 H 42
##XUNITS=1/CM
##YUNITS=ABSORBANCE
##XFACTOR=1.0
##YFACTOR=0.000120728
##DELTAX=4.0
##FIRSTX=450.0
##LASTX=3966.0
##FIRSTY=0.000000
##MAXX=3966
##MINX=450
##MAXY=1.20728
##MINY=0
##NPOINTS=880
##XYDATA=(X++(Y..Y))
450.0 0 181 190 273 188 287 214 254 204 244
490.0 249 227 243 247 265 224 284 249 245 249
530.0 259 260 254 260 244 256 248 256 251 258
570.0 271 280 250 241 236 233 251 234 263 233
610.0 248 240 227 244 239 241 228 235 239 229
650.0 230 229 234 236 238 240 241 233 247 232
690.0 244 254 263 276 293 314 335 352 347 339
730.0 329 322 310 299 288 280 275 265 271 270
770.0 267 261 253 251 248 242 236 234 230 225
810.0 227 228 228 236 237 232 234 241 247 239
850.0 237 231 243 240 241 246 244 245 247 249
890.0 250 250 250 246 249 245 243 240 242 245
930.0 245 242 246 240 238 239 243 237 239 239
970.0 235 240 240 236 235 234 233 234 233 229
1010.0 230 225 222 221 224 218 219 220 218 226
1050.0 225 231 231 235 235 236 234 234 234 231
1090.0 230 224 225 224 228 226 229 232 235 235
1130.0 233 236 234 236 233 234 235 237 237 238
1170.0 239 237 239 236 240 239 238 239 241 239
1210.0 238 238 241 242 243 244 243 247 249 249
1250.0 252 252 252 251 251 259 269 276 287 291
1290.0 299 308 322 335 336 339 328 320 314 314
1330.0 324 339 355 385 417 437 452 432 423 404
1370.0 394 371 368 371 359 334 305 297 281 284
1410.0 277 289 274 300 299 323 345 401 467 544
1450.0 639 716 808 858 839 765 622 496 418 353
1490.0 324 294 280 261 263 245 234 245 232 235
1530.0 218 233 217 235 209 218 209 228 212 213
1570.0 217 213 210 207 205 207 204 206 204 207
1610.0 205 205 207 204 208 203 206 206 203 201
1650.0 208 204 202 200 203 197 207 194 201 200
1690.0 200 204 204 202 209 206 204 211 214 217
1730.0 225 225 227 228 224 215 216 211 215 212
1770.0 210 213 209 205 205 203 204 199 197 200
1810.0 197 195 193 193 191 192 187 192 187 190
1850.0 185 189 190 190 188 188 187 185 189 187
1890.0 189 183 186 185 182 185 184 185 185 184
1930.0 185 184 185 185 186 184 185 184 183 183
1970.0 186 186 187 186 188 183 184 186 185 187
2010.0 190 189 189 192 192 192 194 192 189 191
2050.0 191 190 190 188 189 189 188 187 188 188
2090.0 187 187 185 187 186 185 187 186 185 185
2130.0 184 185 183 183 186 183 185 186 186 186
2170.0 186 187 186 187 185 187 186 185 184 184
2210.0 183 182 182 180 182 181 182 182 181 180
2250.0 180 180 180 180 178 182 181 182 184 183
2290.0 184 184 188 189 188 192 193 189 187 187
2330.0 184 185 188 193 181 191 192 194 188 189
2370.0 185 183 187 190 189 184 186 185 188 183
2410.0 183 185 185 186 186 185 181 183 182 183
2450.0 185 182 182 184 184 183 184 184 184 184
2490.0 186 186 185 186 188 187 189 191 191 192
2530.0 194 195 197 199 199 198 199 199 201 204
2570.0 203 203 204 206 208 210 210 211 213 215
2610.0 215 218 219 222 222 223 227 230 233 235
2650.0 239 242 246 249 250 256 258 263 263 260
2690.0 263 259 256 254 256 252 255 250 253 255
2730.0 259 259 266 271 271 273 272 276 277 281
2770.0 285 292 301 307 322 335 353 370 387 405
2810.0 429 451 482 520 560 607 673 764 901 1133
2850.0 1526 2180 3074 3779 3793 3277 2723 2318 2114 1983
2890.0 1892 1876 2003 2274 2663 3161 3743 4611 5878 7715
2930.0 9422 10000 8997 7227 5578 4200 3315 2852 2744 2749
2970.0 2640 2226 1696 1286 1021 849 732 645 579 529
3010.0 486 455 424 401 380 365 351 336 325 310
3050.0 301 290 283 275 267 263 259 254 252 251
3090.0 248 246 242 235 232 230 227 226 224 222
3130.0 221 217 217 216 215 216 216 213 211 210
3170.0 208 210 206 204 206 206 203 201 200 199
3210.0 195 194 196 187 192 188 188 189 186 187
3250.0 189 189 190 188 190 186 189 188 185 184
3290.0 182 185 187 184 184 191 187 187 188 186
3330.0 192 188 183 190 187 192 189 184 191 190
3370.0 189 189 186 188 190 189 189 187 190 190
3410.0 188 189 186 185 187 188 192 183 188 186
3450.0 187 185 187 187 185 183 183 184 182 187
3490.0 181 186 184 185 186 181 179 185 186 185
3530.0 187 179 183 186 194 181 180 182 183 195
3570.0 195 194 192 194 198 188 194 186 198 192
3610.0 203 200 202 204 198 207 204 198 200 200
3650.0 219 207 190 202 188 208 196 221 189 200
3690.0 204 206 194 203 199 205 206 197 203 197
3730.0 197 211 202 200 221 199 212 190 191 199
3770.0 202 202 193 204 192 195 192 204 192 205
3810.0 191 206 182 207 195 194 206 201 193 204
3850.0 198 212 204 194 198 203 204 196 196 206
3890.0 190 204 191 204 185 196 199 204 201 196
3930.0 193 191 199 188 198 202 211 199 199 197
##END=
