##TITLE=1-Dodecanamine, N,N-dimethyl-
##JCAMP-DX=4.24
##DATA TYPE=INFRARED SPECTRUM
##ORIGIN=Sadtler Research Labs Under US-EPA Contract
##OWNER=NIST Standard Reference Data Program
##CAS REGISTRY NO=112-18-5
##MOLFORM=C 14 H 31 N
##XUNITS=1/CM
##YUNITS=ABSORBANCE
##XFACTOR=1.0
##YFACTOR=0.000178818
##DELTAX=4.0
##FIRSTX=450.0
##LASTX=3966.0
##FIRSTY=0.001967
##MAXX=3966
##MINX=450
##MAXY=1.78818
##MINY=0
##NPOINTS=880
##XYDATA=(X++(Y..Y))
450.0 11 43 216 30 96 90 54 71 3 58
490.0 81 98 106 78 79 105 70 65 58 136
530.0 75 74 89 32 43 72 46 72 56 100
570.0 81 12 56 29 50 49 53 56 44 32
610.0 41 56 66 31 51 55 52 48 44 48
650.0 37 35 47 53 43 50 67 38 26 71
690.0 56 83 100 102 120 147 183 187 207 201
730.0 152 168 94 109 173 185 75 155 118 99
770.0 126 112 109 103 104 119 89 109 91 104
810.0 115 124 141 119 161 152 155 143 157 169
850.0 165 125 124 118 117 98 94 99 88 88
890.0 75 73 65 85 86 76 66 72 87 83
930.0 67 87 85 67 87 81 82 94 107 108
970.0 118 118 128 130 137 145 150 169 184 208
1010.0 234 275 300 326 362 406 458 529 598 623
1050.0 589 517 463 435 414 376 340 307 274 245
1090.0 230 222 229 223 214 204 226 213 188 162
1130.0 144 139 161 184 232 280 293 280 250 233
1170.0 228 209 203 184 173 169 161 156 158 156
1210.0 162 163 166 171 180 186 190 198 210 227
1250.0 257 289 333 384 419 429 403 375 348 329
1290.0 318 307 309 311 307 294 262 230 203 187
1330.0 183 188 209 242 285 326 351 355 347 367
1370.0 403 424 435 417 369 274 198 159 138 132
1410.0 130 128 129 148 166 214 284 386 504 638
1450.0 796 944 1116 1289 1288 1162 918 638 437 309
1490.0 227 180 149 127 110 101 67 75 68 59
1530.0 51 45 55 51 44 32 40 46 47 26
1570.0 32 28 28 33 21 22 30 15 24 21
1610.0 19 26 24 28 20 25 18 28 25 17
1650.0 37 31 33 13 25 22 24 24 29 33
1690.0 25 27 41 52 46 51 48 46 37 25
1730.0 35 27 31 19 16 22 20 20 19 16
1770.0 20 25 20 18 18 18 17 14 9 13
1810.0 11 7 10 7 12 11 5 11 7 10
1850.0 7 11 11 8 9 7 9 8 8 7
1890.0 10 8 7 8 6 4 5 7 3 2
1930.0 4 2 6 2 1 3 5 5 5 2
1970.0 3 5 4 6 5 4 7 7 7 9
2010.0 9 10 10 13 14 16 16 13 15 15
2050.0 13 14 14 14 12 14 13 14 13 14
2090.0 12 12 12 11 10 9 10 8 7 6
2130.0 5 5 6 6 7 6 4 4 6 7
2170.0 5 5 3 5 4 5 4 6 4 4
2210.0 4 2 4 3 4 2 0 2 6 5
2250.0 5 6 4 3 5 5 7 7 7 6
2290.0 6 5 4 4 6 9 10 9 13 13
2330.0 14 14 10 16 12 18 23 17 13 6
2370.0 14 8 7 7 6 9 12 12 15 13
2410.0 16 14 13 16 16 17 15 14 16 15
2450.0 15 14 14 16 14 16 17 17 22 25
2490.0 28 30 33 34 34 36 38 36 39 41
2530.0 40 42 41 43 42 40 43 40 43 43
2570.0 45 48 51 53 52 54 60 62 67 67
2610.0 68 75 80 80 84 87 90 96 103 108
2650.0 118 126 134 144 152 161 170 178 185 196
2690.0 205 215 226 243 270 304 344 385 422 455
2730.0 489 518 546 577 621 685 788 955 1226 1632
2770.0 2085 2282 2127 1923 1860 1846 1742 1509 1268 1112
2810.0 1077 1165 1368 1547 1476 1239 1068 1008 1055 1215
2850.0 1561 2250 3283 4234 4374 3817 3083 2523 2239 2106
2890.0 1982 1944 2054 2322 2698 3137 3639 4362 5536 7342
2930.0 9182 10000 9550 8359 6899 5543 4462 3764 3489 3486
2970.0 3478 3204 2643 2119 1688 1246 865 630 495 407
3010.0 347 297 261 232 214 191 176 162 146 139
3050.0 126 120 106 97 99 94 88 84 81 77
3090.0 72 71 70 62 60 58 55 55 53 52
3130.0 52 48 47 43 44 49 49 42 44 46
3170.0 45 42 45 43 40 43 40 39 40 31
3210.0 31 32 26 23 26 21 20 19 15 15
3250.0 12 11 12 13 14 12 11 9 13 11
3290.0 9 9 10 11 9 9 15 7 10 14
3330.0 6 3 11 13 14 12 11 9 8 11
3370.0 9 10 13 12 16 12 11 14 15 15
3410.0 13 15 9 7 13 13 9 11 14 9
3450.0 11 11 15 9 9 8 10 8 3 9
3490.0 12 4 6 3 10 6 8 4 3 4
3530.0 0 9 8 15 7 9 6 1 12 0
3570.0 11 11 19 15 5 8 11 12 10 13
3610.0 17 12 14 17 14 23 14 15 17 18
3650.0 14 20 17 17 19 15 27 13 21 13
3690.0 15 11 7 9 6 11 11 0 6 2
3730.0 5 11 12 14 14 24 17 11 12 1
3770.0 11 7 12 3 7 10 3 5 12 22
3810.0 22 22 11 18 14 7 16 11 8 10
3850.0 15 28 8 13 10 21 18 14 13 15
3890.0 9 13 26 16 15 10 11 8 9 13
3930.0 25 15 30 16 13 23 30 24 21 16
##END=
