##TITLE=Butane, 1,1'-[oxybis(2,1-ethanediyloxy)]bis-
##JCAMP-DX=4.24
##DATA TYPE=INFRARED SPECTRUM
##ORIGIN=Sadtler Research Labs Under US-EPA Contract
##OWNER=NIST Standard Reference Data Program
##CAS REGISTRY NO=112-73-2
##MOLFORM=C 12 H 26 O 3
##XUNITS=1/CM
##YUNITS=ABSORBANCE
##XFACTOR=1.0
##YFACTOR=0.000088834
##DELTAX=4.0
##FIRSTX=450.0
##LASTX=3966.0
##FIRSTY=0.000000
##MAXX=3966
##MINX=450
##MAXY=0.88834
##MINY=0
##NPOINTS=880
##XYDATA=(X++(Y..Y))
450.0 0 3 20 29 29 27 35 43 60 94
490.0 124 154 164 155 195 218 177 152 159 141
530.0 145 130 144 80 132 166 141 187 130 143
570.0 115 138 89 96 85 41 30 113 92 62
610.0 75 53 92 87 78 85 101 51 70 26
650.0 80 76 66 8 26 81 45 64 58 43
690.0 58 49 67 50 58 58 61 52 67 90
730.0 110 121 191 159 157 134 121 124 103 106
770.0 101 94 105 121 118 120 63 148 156 175
810.0 214 244 260 289 312 386 386 391 398 377
850.0 372 355 366 363 366 376 373 379 389 429
890.0 469 492 506 533 527 506 470 480 482 507
930.0 533 554 575 586 612 646 687 726 767 822
970.0 844 901 914 912 881 846 829 828 852 879
1010.0 945 1019 1081 1146 1187 1216 1225 1210 1208 1197
1050.0 1185 1215 1265 1355 1455 1593 1736 1935 2263 2684
1090.0 3236 3906 4706 5583 6532 7438 8402 9309 9907 10000
1130.0 9708 9085 8366 7571 6737 5871 4974 4115 3330 2653
1170.0 2165 1795 1514 1293 1114 964 851 764 693 642
1210.0 612 612 614 643 708 765 852 929 981 1035
1250.0 1061 1049 1018 971 931 896 885 905 946 1008
1290.0 1075 1098 1085 1043 947 849 776 762 785 803
1330.0 796 782 844 970 1223 1544 1713 1642 1478 1296
1370.0 1168 1069 1035 997 936 836 702 604 509 454
1410.0 403 374 354 346 355 397 477 595 688 779
1450.0 925 1101 1262 1315 1302 1239 1119 959 814 657
1490.0 516 386 296 233 209 173 150 136 134 115
1530.0 101 107 90 86 77 75 81 86 60 62
1570.0 64 58 64 53 54 47 53 53 53 50
1610.0 53 52 57 53 44 47 55 44 46 44
1650.0 41 46 50 42 37 44 44 36 44 47
1690.0 47 39 56 55 59 60 68 84 86 106
1730.0 126 170 223 316 389 447 483 452 383 313
1770.0 284 251 240 221 210 199 190 157 144 113
1810.0 100 83 71 55 49 40 39 36 34 39
1850.0 35 28 34 39 27 25 33 26 31 27
1890.0 33 35 37 37 37 37 47 48 57 64
1930.0 71 66 74 82 85 95 96 97 100 101
1970.0 107 96 101 98 90 86 87 84 85 75
2010.0 78 84 77 72 77 77 84 82 82 80
2050.0 76 86 85 69 71 65 70 82 80 81
2090.0 78 75 73 67 64 57 60 58 58 62
2130.0 63 58 62 60 57 58 54 46 56 49
2170.0 45 49 51 49 55 37 33 37 46 36
2210.0 29 26 32 32 29 33 32 26 36 32
2250.0 40 42 33 35 34 34 34 31 30 31
2290.0 35 35 36 42 29 35 35 24 45 25
2330.0 41 40 36 49 19 13 25 38 30 13
2370.0 16 22 36 24 18 28 24 18 14 12
2410.0 13 18 13 16 9 14 6 12 12 11
2450.0 4 12 12 16 11 11 10 10 17 13
2490.0 12 14 16 5 10 9 15 13 2 4
2530.0 16 17 17 15 21 11 20 25 20 25
2570.0 25 27 47 58 56 64 61 64 61 67
2610.0 65 59 59 64 65 64 65 71 60 68
2650.0 69 84 88 96 104 120 142 154 166 189
2690.0 212 253 271 293 323 326 348 366 380 391
2730.0 414 421 438 458 473 467 462 470 472 492
2770.0 499 527 571 607 637 693 749 800 852 896
2810.0 931 981 1021 1093 1195 1334 1555 1846 2248 2842
2850.0 3552 4413 5315 6134 6842 7343 7573 7485 7196 6759
2890.0 6127 5474 5028 4809 4801 4960 5199 5447 5616 5769
2930.0 6045 6494 7015 7363 7313 6881 6325 6175 6508 7031
2970.0 7058 6074 4589 3209 2314 1713 1299 1020 813 665
3010.0 554 471 399 354 343 306 282 262 221 217
3050.0 191 180 169 155 130 135 99 123 103 95
3090.0 93 99 111 79 107 102 80 84 73 53
3130.0 51 38 53 57 60 58 58 48 47 58
3170.0 61 41 47 35 53 38 41 44 44 32
3210.0 44 28 28 23 27 22 27 17 14 19
3250.0 15 12 29 27 18 16 22 17 13 19
3290.0 31 18 10 12 23 13 16 9 20 11
3330.0 10 2 14 22 18 24 15 22 28 10
3370.0 14 6 2 19 9 23 4 20 24 29
3410.0 7 6 29 9 3 17 16 38 21 25
3450.0 19 22 7 20 12 22 13 14 23 29
3490.0 12 36 28 13 9 12 27 18 17 14
3530.0 14 19 7 7 18 27 28 35 25 31
3570.0 33 29 33 24 22 39 34 22 13 22
3610.0 27 33 23 40 32 29 29 32 27 23
3650.0 34 36 10 21 9 27 23 39 20 3
3690.0 5 26 9 14 14 14 32 6 11 27
3730.0 13 23 26 24 22 3 4 11 16 9
3770.0 5 17 14 12 27 27 20 18 14 30
3810.0 27 22 36 53 61 38 42 33 28 45
3850.0 49 46 42 41 50 42 40 42 41 48
3890.0 49 55 55 58 53 44 41 52 42 38
3930.0 52 39 33 33 31 32 36 36 42 48
##END=
