##TITLE=Undecylenic Acid
##JCAMP-DX=4.24
##DATA TYPE=INFRARED SPECTRUM
##ORIGIN=Sadtler Research Labs Under US-EPA Contract
##OWNER=NIST Standard Reference Data Program
##CAS REGISTRY NO=112-38-9
##MOLFORM=C 11 H 20 O 2
##XUNITS=1/CM
##YUNITS=ABSORBANCE
##XFACTOR=1.0
##YFACTOR=0.000154196
##DELTAX=4.0
##FIRSTX=450.0
##LASTX=3966.0
##FIRSTY=0.071084
##MAXX=3966
##MINX=450
##MAXY=1.54196
##MINY=0
##NPOINTS=880
##XYDATA=(X++(Y..Y))
450.0 461 497 506 481 509 497 536 545 603 581
490.0 557 606 559 623 651 668 750 786 849 903
530.0 994 1075 1184 1242 1342 1479 1593 1702 1708 1635
570.0 1559 1511 1429 1298 1093 889 802 687 650 601
610.0 641 710 829 903 913 854 789 818 921 952
650.0 913 846 621 484 397 370 294 283 299 296
690.0 309 335 402 427 459 463 437 410 354 323
730.0 281 226 195 161 132 107 94 76 71 59
770.0 55 34 38 31 26 31 24 32 46 71
810.0 74 95 97 114 120 130 150 166 185 210
850.0 229 236 254 261 270 274 278 284 272 260
890.0 247 236 217 210 191 188 176 170 163 154
930.0 156 164 188 214 257 305 371 440 525 623
970.0 742 886 1013 1090 1038 903 742 614 517 465
1010.0 432 411 399 392 395 393 404 416 441 479
1050.0 535 610 692 797 900 1003 1084 1179 1278 1435
1090.0 1683 2061 2637 3406 4268 4726 4748 4399 4113 3929
1130.0 3863 3816 3692 3532 3349 3241 3101 2949 2700 2421
1170.0 2167 1929 1702 1441 1225 1044 903 801 740 691
1210.0 670 658 649 659 658 674 690 724 754 790
1250.0 821 842 861 849 844 831 834 820 816 800
1290.0 796 788 789 792 777 758 731 718 731 784
1330.0 875 1002 1181 1387 1606 1777 1909 1949 1974 1908
1370.0 1731 1440 1156 932 765 622 495 415 353 319
1410.0 300 293 296 320 328 353 409 489 563 634
1450.0 683 739 818 837 798 700 559 409 266 189
1490.0 141 105 87 61 77 44 24 24 40 13
1530.0 11 8 21 43 3 9 0 44 28 4
1570.0 17 7 25 0 5 5 13 14 25 35
1610.0 43 75 118 143 195 273 376 546 763 1111
1650.0 1531 1967 2213 1807 1156 677 410 316 268 271
1690.0 276 288 378 439 538 621 777 970 1143 1395
1730.0 1723 2226 2816 3686 4842 6415 8176 9647 10000 8591
1770.0 6681 5170 4077 3333 2684 2152 1710 1325 1059 835
1810.0 698 556 458 360 297 235 188 158 132 125
1850.0 92 93 79 68 66 62 54 42 46 33
1890.0 39 28 32 23 24 24 12 24 10 19
1930.0 9 16 13 18 18 22 26 21 24 20
1970.0 22 20 25 22 20 24 21 24 24 28
2010.0 27 27 32 33 35 31 39 35 39 40
2050.0 42 39 39 39 34 38 36 36 31 38
2090.0 33 33 27 25 27 24 26 22 25 26
2130.0 25 24 25 27 24 25 27 30 25 29
2170.0 29 31 31 31 34 32 38 35 36 33
2210.0 37 36 35 39 40 41 38 39 36 36
2250.0 35 32 33 32 36 31 33 36 43 49
2290.0 56 63 74 80 84 93 84 84 87 82
2330.0 70 70 50 61 58 73 108 86 78 27
2370.0 20 16 21 35 31 29 29 25 29 28
2410.0 27 29 26 28 27 25 26 24 28 25
2450.0 24 23 26 28 26 26 27 31 30 30
2490.0 30 30 27 26 27 29 31 32 36 33
2530.0 33 34 32 33 27 30 24 24 25 28
2570.0 32 34 37 38 46 44 46 42 42 44
2610.0 49 45 48 49 46 50 56 59 62 72
2650.0 73 81 86 94 101 104 106 105 114 108
2690.0 109 112 106 107 100 102 97 102 102 98
2730.0 102 108 113 117 119 113 117 119 120 122
2770.0 126 137 144 151 165 181 197 214 226 254
2810.0 279 310 340 373 430 492 563 662 817 1055
2850.0 1411 1945 2607 3233 3541 3455 3127 2761 2503 2318
2890.0 2160 2058 2125 2323 2655 3105 3698 4480 5555 6996
2930.0 8449 9406 9203 8308 6943 5466 4365 3775 3659 3745
2970.0 3661 3129 2335 1661 1247 988 824 711 627 566
3010.0 504 455 431 408 376 364 341 332 308 299
3050.0 287 287 283 267 265 241 225 197 181 171
3090.0 151 143 133 127 121 123 119 117 111 107
3130.0 105 94 91 86 91 96 99 105 99 104
3170.0 93 100 97 90 85 77 89 93 76 85
3210.0 70 80 83 82 75 73 85 82 85 75
3250.0 72 71 64 76 78 66 52 41 29 32
3290.0 23 32 48 44 57 59 61 55 57 46
3330.0 53 64 60 59 45 59 60 57 58 72
3370.0 64 62 73 63 64 68 80 70 73 81
3410.0 73 80 77 64 60 66 53 61 53 75
3450.0 59 70 71 68 75 85 90 88 95 102
3490.0 111 112 125 135 125 125 112 109 104 94
3530.0 94 101 103 110 121 141 180 246 336 504
3570.0 858 1525 2737 4076 4187 2838 1509 699 375 245
3610.0 209 170 151 138 136 129 112 120 118 116
3650.0 133 96 105 112 95 120 115 118 94 113
3690.0 127 105 104 100 106 112 114 91 100 94
3730.0 100 118 104 94 134 97 102 83 87 83
3770.0 86 86 84 84 62 78 89 100 101 116
3810.0 55 96 79 100 76 68 93 111 68 60
3850.0 92 90 58 33 47 98 108 128 166 161
3890.0 127 115 80 121 68 60 75 77 92 94
3930.0 80 75 111 109 69 72 102 76 61 68
##END=
