##TITLE=Docosanoic acid
##JCAMP-DX=4.24
##DATA TYPE=INFRARED SPECTRUM
##ORIGIN=Sadtler Research Labs Under US-EPA Contract
##OWNER=NIST Standard Reference Data Program
##CAS REGISTRY NO=112-85-6
##MOLFORM=C 22 H 44 O 2
##XUNITS=1/CM
##YUNITS=ABSORBANCE
##XFACTOR=1.0
##YFACTOR=0.000038208
##DELTAX=4.0
##FIRSTX=450.0
##LASTX=3966.0
##FIRSTY=0.006801
##MAXX=3966
##MINX=450
##MAXY=0.38208
##MINY=0
##NPOINTS=880
##XYDATA=(X++(Y..Y))
450.0 178 283 465 335 38 250 177 138 122 177
490.0 170 89 118 102 156 108 200 127 166 168
530.0 198 164 122 189 182 268 262 333 276 295
570.0 279 304 306 295 332 252 321 345 301 351
610.0 322 345 326 349 320 308 264 265 230 199
650.0 177 171 186 152 121 148 104 128 112 137
690.0 155 160 127 183 183 211 228 236 249 249
730.0 221 203 194 167 147 149 143 140 101 113
770.0 122 107 106 92 61 74 63 40 21 40
810.0 44 30 50 59 65 68 92 79 83 64
850.0 69 66 78 83 63 73 74 75 72 71
890.0 70 68 74 67 76 81 96 79 79 64
930.0 78 69 76 77 78 82 54 75 80 75
970.0 96 88 86 87 102 102 102 110 130 142
1010.0 146 153 162 166 174 188 205 224 255 292
1050.0 323 356 397 445 493 561 633 706 795 872
1090.0 954 1038 1114 1203 1272 1333 1366 1364 1367 1382
1130.0 1383 1351 1271 1159 1045 973 884 825 771 729
1170.0 687 657 620 587 555 519 484 451 429 399
1210.0 381 356 341 317 302 290 289 273 269 267
1250.0 272 276 272 285 268 277 287 292 293 301
1290.0 308 315 314 324 325 320 313 310 302 297
1330.0 314 341 382 438 469 514 552 562 570 575
1370.0 566 561 554 554 521 459 398 340 280 251
1410.0 219 223 230 241 248 268 291 323 377 443
1450.0 545 623 726 779 715 633 467 312 238 177
1490.0 133 96 91 68 73 82 47 71 37 43
1530.0 17 42 49 33 25 18 33 25 42 8
1570.0 29 21 34 14 27 25 21 33 23 30
1610.0 15 38 15 43 26 31 24 43 33 35
1650.0 36 65 30 26 46 56 36 67 49 91
1690.0 58 87 87 135 129 147 185 220 292 295
1730.0 411 472 618 674 892 1040 1214 1454 1711 2096
1770.0 2410 2986 2988 2914 2391 2033 1565 1339 1059 838
1810.0 640 486 354 260 221 146 126 77 96 60
1850.0 62 37 39 19 33 37 19 24 16 21
1890.0 14 25 9 11 16 7 15 10 17 6
1930.0 8 6 15 10 8 13 2 16 7 11
1970.0 8 16 9 8 6 6 8 0 5 5
2010.0 5 5 9 6 6 11 9 10 2 7
2050.0 1 8 8 4 4 10 10 6 6 6
2090.0 10 6 9 8 7 3 4 12 7 8
2130.0 8 14 14 7 12 6 11 12 10 15
2170.0 18 9 20 19 20 23 16 23 18 23
2210.0 18 15 10 18 13 8 3 13 18 9
2250.0 13 7 13 9 10 3 7 15 17 16
2290.0 18 30 29 42 40 46 41 40 39 26
2330.0 22 45 22 26 35 45 45 38 36 24
2370.0 10 24 27 40 35 18 15 10 8 8
2410.0 7 5 12 16 15 15 16 10 9 8
2450.0 9 12 11 17 14 20 14 13 18 13
2490.0 15 14 20 14 20 26 27 19 30 28
2530.0 31 34 35 32 27 32 24 27 29 25
2570.0 30 32 30 24 35 34 32 34 39 42
2610.0 46 46 47 55 47 60 54 55 64 62
2650.0 65 68 75 80 84 87 85 94 94 95
2690.0 90 95 92 95 91 87 93 79 79 81
2730.0 83 83 86 87 92 97 93 94 96 100
2770.0 99 119 128 131 146 165 184 198 219 239
2810.0 258 282 314 343 382 431 487 573 691 917
2850.0 1286 1923 2819 3585 3704 3222 2629 2163 1885 1727
2890.0 1629 1619 1734 2001 2384 2871 3461 4303 5542 7351
2930.0 9208 10000 9185 7558 5887 4490 3485 2860 2547 2362
2970.0 2162 1808 1400 1056 842 672 559 478 410 357
3010.0 321 291 260 235 214 205 181 165 161 143
3050.0 132 118 112 112 112 96 87 80 79 87
3090.0 77 72 68 69 64 59 59 67 56 62
3130.0 50 47 50 50 50 46 45 45 50 49
3170.0 45 51 47 47 30 30 38 36 32 32
3210.0 30 26 23 30 33 28 24 28 14 29
3250.0 11 21 16 15 9 15 17 15 22 21
3290.0 14 24 17 11 28 16 7 10 1 14
3330.0 10 3 8 23 20 19 23 19 28 26
3370.0 21 20 31 30 33 21 36 35 47 25
3410.0 34 36 21 27 28 37 41 25 27 39
3450.0 37 16 52 42 39 44 39 24 22 26
3490.0 42 17 44 38 40 39 48 42 43 48
3530.0 39 61 64 54 73 106 127 185 275 461
3570.0 793 1164 1332 941 524 307 182 157 99 93
3610.0 60 75 78 48 60 50 60 66 44 76
3650.0 47 43 35 37 76 43 75 27 42 44
3690.0 50 31 61 50 60 50 43 40 71 49
3730.0 33 35 37 40 27 48 34 51 38 39
3770.0 35 26 48 38 43 32 27 39 37 39
3810.0 49 46 65 34 19 28 48 22 36 9
3850.0 55 70 38 30 49 63 26 19 47 59
3890.0 53 38 51 26 57 49 53 69 76 74
3930.0 49 80 57 64 48 23 24 63 55 55
##END=
