##TITLE=Ethanol, 2-[2-(2-ethoxyethoxy)ethoxy]-
##JCAMP-DX=4.24
##DATA TYPE=INFRARED SPECTRUM
##ORIGIN=Sadtler Research Labs Under US-EPA Contract
##OWNER=NIST Standard Reference Data Program
##CAS REGISTRY NO=112-50-5
##MOLFORM=C 8 H 18 O 4
##XUNITS=1/CM
##YUNITS=ABSORBANCE
##XFACTOR=1.0
##YFACTOR=0.000069000
##DELTAX=4.0
##FIRSTX=450.0
##LASTX=3966.0
##FIRSTY=0.002553
##MAXX=3966
##MINX=450
##MAXY=0.69
##MINY=0
##NPOINTS=880
##XYDATA=(X++(Y..Y))
450.0 37 34 46 43 62 41 20 18 25 31
490.0 12 67 58 93 113 94 135 132 121 165
530.0 180 139 144 146 90 71 24 42 204 139
570.0 111 97 72 53 51 2 39 33 33 25
610.0 33 37 49 34 35 44 44 45 36 51
650.0 47 59 62 49 56 88 62 52 64 76
690.0 79 54 57 53 42 54 65 41 55 49
730.0 49 55 50 55 53 66 69 68 77 85
770.0 90 118 119 142 148 166 193 239 256 266
810.0 293 322 336 350 399 438 482 539 550 562
850.0 562 540 547 546 556 574 590 611 634 663
890.0 669 669 654 650 669 711 751 800 842 877
930.0 888 917 910 909 862 771 678 591 524 492
970.0 485 499 520 565 608 652 704 755 806 868
1010.0 943 1056 1166 1307 1449 1616 1776 1950 2147 2361
1050.0 2581 2848 3150 3482 3724 3730 3535 3270 3092 3064
1090.0 3196 3507 3955 4621 5495 6576 7816 9054 9796 10000
1130.0 9778 9281 8599 7801 6940 6052 5182 4308 3532 2852
1170.0 2332 1957 1681 1451 1266 1098 984 917 884 863
1210.0 862 869 847 816 804 809 831 887 950 1016
1250.0 1072 1089 1070 1041 1011 1004 1014 1053 1099 1145
1290.0 1166 1150 1096 1000 900 809 763 761 799 826
1330.0 834 850 959 1193 1546 1814 1852 1672 1452 1314
1370.0 1259 1258 1243 1229 1205 1170 1111 1051 972 888
1410.0 789 693 612 530 471 442 435 468 546 653
1450.0 788 918 991 983 905 786 663 565 484 418
1490.0 357 277 220 162 140 115 93 81 75 66
1530.0 59 50 44 43 37 37 37 37 34 33
1570.0 27 22 24 22 21 22 22 22 15 9
1610.0 14 14 10 16 12 15 7 7 8 7
1650.0 7 16 12 15 15 10 14 8 18 21
1690.0 14 15 21 28 22 21 29 36 37 35
1730.0 50 69 70 89 119 134 134 126 106 84
1770.0 75 61 50 41 34 29 23 21 21 14
1810.0 15 6 6 6 6 6 6 6 6 9
1850.0 6 14 7 13 13 14 15 20 23 27
1890.0 28 31 37 40 48 50 55 71 70 79
1930.0 91 100 102 112 119 124 121 125 133 127
1970.0 133 128 118 113 111 98 96 81 70 58
2010.0 50 43 41 28 21 21 12 14 14 6
2050.0 10 1 6 14 19 20 20 28 35 41
2090.0 42 42 42 42 45 48 48 51 49 56
2130.0 62 56 64 63 62 64 60 64 59 60
2170.0 57 57 57 49 50 49 50 41 41 39
2210.0 35 35 35 40 39 36 43 43 42 36
2250.0 43 42 44 41 41 42 42 41 39 34
2290.0 32 37 23 28 28 17 23 21 16 12
2330.0 15 10 15 6 0 3 14 13 8 3
2370.0 6 1 6 5 5 5 8 15 9 14
2410.0 15 16 22 20 23 19 15 19 13 10
2450.0 21 15 16 9 9 9 9 9 9 9
2490.0 9 9 8 8 8 8 9 9 9 9
2530.0 9 9 7 7 2 1 4 10 10 11
2570.0 18 18 19 24 30 33 29 43 39 42
2610.0 48 48 56 55 55 64 69 72 65 79
2650.0 74 92 76 88 98 107 121 130 144 167
2690.0 181 204 217 237 248 262 280 292 307 323
2730.0 331 345 332 338 341 346 354 358 368 394
2770.0 415 437 472 510 540 564 607 652 696 742
2810.0 798 851 899 957 1036 1150 1287 1485 1751 2109
2850.0 2591 3193 3857 4548 5134 5531 5734 5736 5575 5259
2890.0 4992 4720 4477 4299 4120 4030 3929 3881 3841 3875
2930.0 3917 3975 4006 3970 3897 3707 3516 3356 3215 2997
2970.0 2733 2486 2339 2272 2095 1775 1356 985 741 567
3010.0 453 372 301 246 224 189 168 151 136 116
3050.0 93 86 78 64 57 53 54 41 42 35
3090.0 32 32 24 24 26 26 32 18 25 17
3130.0 20 20 15 25 12 16 12 22 21 29
3170.0 28 29 37 36 42 37 41 38 30 36
3210.0 38 38 25 32 32 27 33 33 31 20
3250.0 11 20 34 13 29 21 22 14 8 16
3290.0 20 10 12 13 3 2 1 3 3 3
3330.0 3 3 11 4 5 4 18 4 6 16
3370.0 13 14 20 13 14 21 22 23 23 31
3410.0 37 41 45 38 44 45 53 52 60 56
3450.0 72 69 77 83 78 91 96 109 120 126
3490.0 135 148 150 160 182 200 231 257 278 295
3530.0 310 314 321 336 344 345 337 350 344 327
3570.0 319 292 279 278 269 253 269 261 256 269
3610.0 293 333 373 428 480 529 543 516 450 377
3650.0 300 250 245 230 219 223 205 192 166 158
3690.0 142 128 120 106 101 94 100 88 77 84
3730.0 83 89 78 74 74 79 84 86 89 86
3770.0 80 75 82 81 83 75 78 81 84 83
3810.0 78 82 93 88 95 85 90 85 83 89
3850.0 90 83 90 96 107 112 103 112 116 118
3890.0 118 118 111 117 111 117 131 137 143 150
3930.0 150 149 151 149 144 145 146 142 136 135
##END=
