##TITLE=Disulfide, dipentyl
##JCAMP-DX=4.24
##DATA TYPE=INFRARED SPECTRUM
##ORIGIN=Sadtler Research Labs Under US-EPA Contract
##OWNER=NIST Standard Reference Data Program
##CAS REGISTRY NO=112-51-6
##MOLFORM=C 10 H 22 S 2
##XUNITS=1/CM
##YUNITS=ABSORBANCE
##XFACTOR=1.0
##YFACTOR=0.000090329
##DELTAX=4.0
##FIRSTX=450.0
##LASTX=3966.0
##FIRSTY=0.018608
##MAXX=3966
##MINX=450
##MAXY=0.90329
##MINY=0
##NPOINTS=880
##XYDATA=(X++(Y..Y))
450.0 206 102 76 127 91 141 66 89 54 165
490.0 49 118 154 32 97 95 80 49 119 94
530.0 98 103 85 26 93 74 77 67 39 92
570.0 57 110 114 64 90 58 82 103 83 89
610.0 93 97 86 80 72 135 142 103 106 106
650.0 101 107 80 99 99 104 78 64 125 114
690.0 139 140 146 135 154 186 198 241 302 348
730.0 367 394 346 331 324 303 279 227 232 220
770.0 205 184 183 175 163 178 171 154 137 131
810.0 143 141 148 165 149 147 134 129 124 132
850.0 132 136 130 109 112 105 106 96 115 114
890.0 133 126 129 130 137 125 111 123 142 156
930.0 172 163 148 133 131 125 138 140 154 151
970.0 145 133 102 79 0 105 120 82 101 86
1010.0 85 93 95 108 105 112 103 97 95 92
1050.0 97 107 113 130 151 170 179 190 182 174
1090.0 181 169 175 186 188 171 142 110 101 92
1130.0 86 91 89 97 98 102 106 120 134 141
1170.0 157 170 182 181 179 180 202 238 304 418
1210.0 538 567 490 392 312 274 271 321 411 544
1250.0 700 817 849 832 820 864 881 783 629 515
1290.0 511 602 717 759 659 511 397 327 286 285
1330.0 308 361 418 490 537 535 490 433 400 390
1370.0 391 413 478 587 632 566 430 351 323 335
1410.0 388 492 576 596 584 609 722 862 955 998
1450.0 1057 1164 1281 1392 1419 1337 1133 848 597 434
1490.0 343 282 247 220 200 183 171 158 143 138
1530.0 130 126 122 115 111 110 105 100 93 99
1570.0 102 101 91 96 96 94 94 86 84 92
1610.0 92 91 85 82 87 86 88 82 88 83
1650.0 81 71 80 84 83 80 82 83 83 80
1690.0 78 89 81 83 89 86 85 81 85 84
1730.0 86 87 89 86 90 93 90 90 87 89
1770.0 83 83 87 80 82 81 78 81 83 81
1810.0 80 76 78 81 81 75 77 76 77 77
1850.0 75 78 76 76 75 77 74 78 79 78
1890.0 80 75 76 77 81 82 80 82 77 77
1930.0 82 83 79 82 87 80 83 88 82 79
1970.0 80 86 83 81 85 86 79 80 77 76
2010.0 76 75 67 65 66 69 71 65 71 74
2050.0 62 66 72 60 53 55 68 74 87 91
2090.0 95 96 87 79 78 76 77 80 73 71
2130.0 76 76 77 77 74 76 76 73 72 68
2170.0 74 75 73 71 69 71 71 74 70 71
2210.0 69 66 62 65 70 66 62 65 68 68
2250.0 56 62 61 62 60 64 64 57 65 70
2290.0 82 97 110 111 126 148 145 157 163 146
2330.0 133 101 85 72 69 117 186 154 71 5
2370.0 4 4 4 3 27 37 36 46 46 41
2410.0 47 39 34 29 31 21 26 18 22 21
2450.0 19 18 20 21 23 14 11 6 7 11
2490.0 7 10 4 6 6 9 13 13 22 23
2530.0 25 19 16 17 14 11 12 22 18 17
2570.0 30 26 20 21 21 24 23 23 34 32
2610.0 38 38 44 61 68 83 87 72 73 84
2650.0 99 106 104 115 130 131 124 117 111 103
2690.0 97 86 74 73 68 68 65 71 71 77
2730.0 81 86 108 119 131 130 124 110 101 94
2770.0 102 117 135 148 164 185 208 229 247 285
2810.0 323 370 423 467 497 535 608 702 851 1092
2850.0 1459 1964 2594 3187 3601 3787 3729 3658 3733 3698
2890.0 3394 3032 2917 3183 3635 4172 4721 5364 6283 7453
2930.0 8836 9870 10000 9257 8259 7180 6489 6537 7305 8429
2970.0 8981 7882 5568 3456 2215 1563 1209 980 803 685
3010.0 586 510 439 396 365 334 302 264 236 208
3050.0 184 175 158 145 134 134 123 122 118 116
3090.0 105 93 91 89 84 74 72 57 63 64
3130.0 60 61 60 58 55 44 43 66 61 72
3170.0 76 66 72 63 74 62 58 53 44 32
3210.0 37 38 25 21 37 27 36 41 35 39
3250.0 17 11 19 31 27 36 30 31 42 37
3290.0 29 16 10 7 12 10 27 16 24 27
3330.0 11 21 12 5 23 20 27 36 19 28
3370.0 38 33 34 32 34 33 37 32 40 34
3410.0 32 36 37 29 33 31 15 35 21 13
3450.0 46 30 37 35 21 39 25 34 35 36
3490.0 35 23 46 55 57 13 34 7 43 42
3530.0 28 31 39 41 53 34 64 50 54 54
3570.0 40 52 48 45 67 59 59 59 26 39
3610.0 58 58 56 55 54 48 55 34 40 37
3650.0 32 46 35 35 48 56 58 31 38 43
3690.0 54 45 23 26 57 47 27 47 34 47
3730.0 40 26 20 41 31 4 20 21 10 20
3770.0 13 42 39 13 39 28 27 41 31 26
3810.0 19 22 4 17 4 29 55 33 12 29
3850.0 33 65 41 4 31 37 13 43 35 6
3890.0 34 30 46 74 50 19 12 31 39 37
3930.0 43 13 19 10 66 54 19 4 1 23
##END=
