##TITLE=Ethane, 1,2-bis(2-chloroethoxy)-
##JCAMP-DX=4.24
##DATA TYPE=INFRARED SPECTRUM
##ORIGIN=Sadtler Research Labs Under US-EPA Contract
##OWNER=NIST Standard Reference Data Program
##CAS REGISTRY NO=112-26-5
##MOLFORM=C 6 H 12 Cl 2 O 2
##XUNITS=1/CM
##YUNITS=ABSORBANCE
##XFACTOR=1.0
##YFACTOR=0.000078766
##DELTAX=4.0
##FIRSTX=450.0
##LASTX=3966.0
##FIRSTY=0.037256
##MAXX=3966
##MINX=450
##MAXY=0.78766
##MINY=0
##NPOINTS=880
##XYDATA=(X++(Y..Y))
450.0 473 232 109 270 176 271 173 268 243 203
490.0 207 197 181 106 224 135 197 182 278 202
530.0 252 251 256 220 207 230 232 212 180 126
570.0 111 96 162 142 139 0 34 75 31 53
610.0 114 88 68 89 97 33 106 131 147 231
650.0 227 296 331 497 554 1057 1173 1221 1371 1212
690.0 1001 694 516 371 267 290 222 242 235 270
730.0 285 316 474 633 851 1199 1700 2164 2381 2132
770.0 1524 885 594 411 360 328 315 330 342 349
810.0 355 354 353 309 280 292 305 270 302 288
850.0 313 344 356 389 429 449 462 497 509 524
890.0 536 544 543 542 560 571 580 564 552 487
930.0 445 428 424 450 483 521 527 570 593 629
970.0 651 681 682 691 720 718 727 748 772 794
1010.0 854 906 935 984 1039 1117 1213 1386 1556 1736
1050.0 1861 1887 1812 1693 1571 1459 1408 1407 1479 1667
1090.0 2013 2525 3285 4242 5313 6394 7424 8372 9172 9771
1130.0 10000 9889 9321 8573 7656 6593 5403 4198 3190 2396
1170.0 1849 1486 1257 1110 1009 1001 1047 1155 1288 1381
1210.0 1315 1149 988 860 789 769 805 861 985 1137
1250.0 1306 1455 1457 1281 1039 905 841 879 976 1140
1290.0 1362 1626 1859 1965 1870 1596 1270 1016 867 771
1330.0 711 657 604 639 773 1117 1556 1755 1555 1151
1370.0 878 767 681 605 540 455 396 328 272 230
1410.0 218 215 216 266 362 561 768 871 832 797
1450.0 892 1035 1113 1077 937 781 673 584 503 414
1490.0 334 251 191 151 119 100 91 82 68 67
1530.0 55 51 51 44 41 42 48 36 45 37
1570.0 44 29 40 35 34 34 37 31 31 39
1610.0 22 27 32 31 32 33 33 28 29 28
1650.0 16 27 36 22 27 30 20 30 25 36
1690.0 23 30 27 21 28 29 22 28 29 24
1730.0 26 36 33 24 26 29 29 32 30 30
1770.0 32 41 35 35 41 29 31 36 35 30
1810.0 28 21 20 20 19 12 20 21 16 16
1850.0 23 28 21 25 26 17 26 28 33 31
1890.0 40 37 39 48 47 47 56 60 63 73
1930.0 84 86 87 94 98 97 100 92 90 91
1970.0 88 82 74 71 64 64 60 55 56 56
2010.0 49 43 58 50 51 53 60 52 59 56
2050.0 52 51 58 63 70 78 71 71 66 61
2090.0 50 55 56 52 62 65 67 62 68 61
2130.0 64 71 58 59 65 60 58 61 55 51
2170.0 51 51 47 48 47 40 41 44 45 37
2210.0 37 35 36 45 45 41 46 48 42 52
2250.0 52 43 41 42 38 34 40 37 39 43
2290.0 45 46 46 54 48 56 54 44 22 24
2330.0 33 8 33 24 47 38 29 18 31 72
2370.0 58 62 65 55 40 29 19 17 16 16
2410.0 12 12 14 8 11 12 14 15 17 13
2450.0 11 15 14 10 21 17 13 24 25 17
2490.0 27 30 31 26 33 36 33 32 34 29
2530.0 29 28 23 27 23 27 26 34 30 30
2570.0 34 28 30 38 36 34 42 50 43 38
2610.0 41 34 42 50 34 44 52 55 68 63
2650.0 54 44 50 58 55 60 82 91 104 109
2690.0 116 125 145 168 190 216 231 223 239 255
2730.0 271 287 316 300 288 283 282 262 258 266
2770.0 273 294 309 314 332 370 402 425 472 495
2810.0 505 533 547 580 642 724 837 993 1198 1489
2850.0 1830 2240 2630 2988 3241 3400 3460 3492 3482 3453
2890.0 3430 3351 3265 3135 3042 2939 2836 2737 2641 2541
2930.0 2433 2345 2270 2245 2245 2312 2378 2457 2607 2746
2970.0 2698 2419 2009 1598 1232 953 818 773 790 835
3010.0 816 738 628 521 405 321 265 219 189 152
3050.0 149 124 116 109 99 81 86 78 70 91
3090.0 80 73 62 62 51 52 45 47 57 65
3130.0 64 58 56 44 39 47 46 51 59 49
3170.0 39 35 36 39 55 53 42 42 43 43
3210.0 28 48 48 40 46 37 38 65 40 35
3250.0 69 61 48 29 56 34 8 47 49 30
3290.0 47 52 32 31 39 26 31 47 43 40
3330.0 61 70 48 51 35 38 27 51 28 51
3370.0 55 33 66 44 61 14 53 56 30 23
3410.0 33 52 43 61 50 24 43 50 46 49
3450.0 42 34 36 47 35 46 47 41 36 34
3490.0 30 48 60 52 50 43 33 26 35 42
3530.0 29 22 43 28 60 78 35 61 76 43
3570.0 49 57 64 28 58 42 45 56 51 45
3610.0 43 67 63 57 46 52 50 98 70 45
3650.0 79 22 47 53 59 54 75 73 64 81
3690.0 93 77 59 23 75 91 83 87 52 110
3730.0 101 100 73 93 74 92 116 94 84 78
3770.0 120 113 122 75 67 97 132 128 96 109
3810.0 112 67 99 117 94 105 112 69 83 93
3850.0 133 126 103 118 88 123 96 76 96 103
3890.0 119 148 116 58 97 130 96 79 128 146
3930.0 113 74 150 90 99 65 119 134 123 71
##END=
