##TITLE=1-Tridecanol
##JCAMP-DX=4.24
##DATA TYPE=INFRARED SPECTRUM
##ORIGIN=Sadtler Research Labs Under US-EPA Contract
##OWNER=NIST Standard Reference Data Program
##CAS REGISTRY NO=112-70-9
##MOLFORM=C 13 H 28 O
##XUNITS=1/CM
##YUNITS=ABSORBANCE
##XFACTOR=1.0
##YFACTOR=0.000140704
##DELTAX=4.0
##FIRSTX=450.0
##LASTX=3966.0
##FIRSTY=0.039538
##MAXX=3966
##MINX=450
##MAXY=1.40704
##MINY=0
##NPOINTS=880
##XYDATA=(X++(Y..Y))
450.0 281 171 14 45 116 62 55 52 142 72
490.0 82 25 109 33 58 63 3 55 37 58
530.0 52 11 34 55 64 82 55 88 56 50
570.0 63 66 57 61 57 72 85 49 53 62
610.0 69 38 28 50 38 37 46 42 36 23
650.0 31 28 45 31 36 13 59 42 47 67
690.0 64 74 92 108 114 138 165 176 198 178
730.0 155 152 146 130 112 104 107 91 97 89
770.0 83 89 68 80 64 68 80 62 75 72
810.0 46 45 63 72 70 87 100 86 72 95
850.0 107 108 114 125 128 112 122 144 135 147
890.0 130 152 150 150 146 143 150 157 152 146
930.0 151 155 155 153 162 167 184 192 199 215
970.0 227 246 265 285 309 326 347 367 395 432
1010.0 469 523 584 657 732 807 876 927 951 973
1050.0 973 957 898 823 745 673 607 550 485 422
1090.0 363 312 279 252 230 218 211 205 188 178
1130.0 173 168 162 162 168 164 170 168 171 176
1170.0 175 173 175 182 174 178 180 179 185 192
1210.0 195 197 198 200 207 212 218 219 215 220
1250.0 223 228 230 234 239 238 241 241 245 254
1290.0 251 253 259 263 271 261 252 249 238 241
1330.0 244 266 279 316 346 367 378 378 356 366
1370.0 361 371 399 408 432 396 358 311 267 241
1410.0 207 204 182 205 200 216 247 300 368 417
1450.0 514 580 686 726 708 617 525 406 310 231
1490.0 168 148 110 106 84 81 73 59 68 68
1530.0 44 61 41 74 46 41 50 34 83 45
1570.0 37 60 31 56 34 38 41 26 40 30
1610.0 40 22 40 31 25 36 23 29 41 11
1650.0 33 34 39 32 22 39 24 44 18 49
1690.0 33 30 40 59 50 42 47 52 70 63
1730.0 70 91 93 113 87 89 78 64 51 47
1770.0 40 46 43 32 26 30 22 37 18 31
1810.0 26 21 30 17 28 21 27 20 16 30
1850.0 23 20 23 16 20 17 26 20 16 15
1890.0 16 13 18 15 17 14 17 14 17 16
1930.0 18 17 16 18 18 22 17 21 24 21
1970.0 22 22 23 23 24 25 26 22 22 24
2010.0 24 24 27 30 24 31 28 29 27 31
2050.0 29 29 27 27 27 27 25 26 24 25
2090.0 27 26 25 26 26 26 26 24 24 25
2130.0 24 25 23 21 20 20 22 22 21 22
2170.0 21 19 23 21 21 21 22 21 21 21
2210.0 20 22 20 18 19 19 21 22 21 21
2250.0 20 20 18 20 21 19 22 22 22 21
2290.0 21 22 19 18 13 5 14 2 0 1
2330.0 0 0 1 14 2 4 0 0 0 0
2370.0 15 22 34 29 23 21 17 19 22 26
2410.0 25 24 29 26 26 24 23 24 22 22
2450.0 21 20 21 18 19 22 19 18 20 21
2490.0 23 23 24 28 29 30 31 32 35 33
2530.0 34 37 36 35 37 36 34 35 37 39
2570.0 40 38 37 40 42 43 44 45 50 49
2610.0 53 55 58 61 62 64 68 72 78 82
2650.0 86 87 91 93 99 105 111 112 116 121
2690.0 118 123 117 120 124 125 125 121 120 123
2730.0 125 128 133 137 142 142 145 152 153 159
2770.0 165 170 180 187 203 218 233 251 268 290
2810.0 314 339 368 407 450 508 581 683 833 1071
2850.0 1462 2080 2867 3551 3765 3512 3092 2731 2503 2336
2890.0 2189 2127 2218 2453 2824 3315 3907 4729 5960 7612
2930.0 9260 10000 9405 8022 6382 4909 3843 3227 2973 2863
2970.0 2649 2201 1631 1189 895 703 577 482 411 358
3010.0 314 279 253 226 207 190 175 161 146 132
3050.0 125 112 109 101 99 91 84 86 79 77
3090.0 71 70 66 61 61 58 52 52 50 45
3130.0 43 46 46 39 37 38 37 36 40 36
3170.0 35 37 40 39 39 34 35 35 35 32
3210.0 28 28 27 22 24 24 19 18 13 16
3250.0 12 13 11 14 15 13 5 8 8 14
3290.0 10 8 8 9 7 14 8 13 11 17
3330.0 21 17 23 22 20 21 21 17 15 20
3370.0 22 17 25 16 11 11 15 13 8 11
3410.0 13 14 13 13 15 21 15 22 17 20
3450.0 25 24 18 21 24 27 32 24 26 26
3490.0 20 25 28 21 18 25 22 23 23 8
3530.0 22 18 20 10 8 12 17 17 3 15
3570.0 29 25 18 21 25 37 34 18 39 26
3610.0 45 41 39 57 48 67 85 71 79 94
3650.0 136 210 200 258 243 267 274 253 182 127
3690.0 110 85 66 44 50 49 57 44 24 40
3730.0 36 55 40 26 36 52 56 44 31 29
3770.0 33 34 30 37 25 22 25 30 26 48
3810.0 13 36 9 61 24 25 26 34 46 19
3850.0 35 39 95 25 51 50 69 62 44 54
3890.0 54 47 52 62 72 49 54 29 47 19
3930.0 6 40 23 0 45 20 42 25 37 60
##END=
