##TITLE=1-Decanol
##JCAMP-DX=4.24
##DATA TYPE=INFRARED SPECTRUM
##ORIGIN=Sadtler Research Labs Under US-EPA Contract
##OWNER=NIST Standard Reference Data Program
##CAS REGISTRY NO=112-30-1
##MOLFORM=C 10 H 22 O
##XUNITS=1/CM
##YUNITS=ABSORBANCE
##XFACTOR=1.0
##YFACTOR=0.000070975
##DELTAX=4.0
##FIRSTX=450.0
##LASTX=3966.0
##FIRSTY=0.006246
##MAXX=3966
##MINX=450
##MAXY=0.70975
##MINY=0
##NPOINTS=880
##XYDATA=(X++(Y..Y))
450.0 88 113 106 97 92 101 92 84 86 78
490.0 108 96 146 114 51 97 84 62 62 66
530.0 75 80 68 119 62 77 51 64 44 87
570.0 43 59 55 30 75 70 6 34 32 35
610.0 49 50 42 57 44 19 42 49 45 53
650.0 64 63 54 56 28 40 64 58 65 69
690.0 80 94 94 104 118 141 157 178 179 170
730.0 185 162 97 111 102 88 93 96 98 93
770.0 100 80 93 78 52 149 94 84 82 79
810.0 78 81 79 78 84 77 85 98 97 101
850.0 107 114 112 131 141 146 131 152 158 174
890.0 165 167 166 164 174 167 177 171 185 186
930.0 192 199 199 206 208 206 208 215 230 236
970.0 257 279 305 340 363 404 440 490 533 571
1010.0 621 666 731 808 887 1012 1127 1208 1268 1317
1050.0 1353 1372 1338 1237 1094 968 854 743 633 547
1090.0 457 391 340 305 290 263 261 245 223 210
1130.0 185 181 177 173 179 179 172 173 191 180
1170.0 185 193 192 195 198 212 210 226 226 232
1210.0 233 247 245 261 259 265 262 262 263 260
1250.0 271 273 272 272 272 266 271 279 272 281
1290.0 275 275 284 278 277 274 264 258 250 250
1330.0 258 274 311 335 363 380 396 395 387 387
1370.0 414 443 495 549 566 547 477 398 342 283
1410.0 251 215 210 192 199 213 251 296 357 432
1450.0 514 608 694 761 761 705 601 493 376 277
1490.0 199 157 119 104 82 86 73 71 56 52
1530.0 51 45 44 38 45 37 37 30 38 35
1570.0 35 31 26 35 27 27 27 28 28 28
1610.0 20 21 24 23 21 18 22 21 19 20
1650.0 22 13 20 20 20 12 18 10 12 12
1690.0 19 12 13 12 18 12 19 12 19 9
1730.0 14 12 12 19 11 12 18 17 10 12
1770.0 9 10 18 14 12 11 15 15 16 9
1810.0 15 9 14 15 15 7 11 9 10 7
1850.0 14 14 13 14 13 13 15 7 9 14
1890.0 9 12 12 12 14 19 19 12 12 18
1930.0 14 13 19 14 13 15 17 12 12 11
1970.0 17 11 11 12 17 15 11 10 14 11
2010.0 10 16 9 10 9 16 16 16 21 16
2050.0 15 12 8 11 8 16 16 15 16 16
2090.0 14 14 14 14 18 15 14 16 15 13
2130.0 13 14 14 14 13 15 17 18 20 19
2170.0 15 13 13 12 12 13 6 6 3 12
2210.0 8 12 12 4 4 4 6 11 11 11
2250.0 11 11 10 13 12 17 9 9 9 14
2290.0 6 5 11 10 8 7 0 11 2 5
2330.0 0 0 0 0 0 0 0 0 0 0
2370.0 0 0 0 3 7 16 15 11 18 11
2410.0 17 17 18 18 9 18 13 14 11 16
2450.0 18 17 17 18 18 18 18 18 19 19
2490.0 11 16 19 17 12 19 20 12 20 13
2530.0 19 19 19 20 20 20 12 13 5 13
2570.0 13 19 21 26 24 30 33 33 41 40
2610.0 48 41 49 49 55 61 56 63 73 76
2650.0 76 80 87 89 96 104 103 104 110 110
2690.0 111 105 105 105 105 97 103 105 111 111
2730.0 112 126 133 134 139 145 140 140 144 151
2770.0 154 159 168 183 183 205 221 232 247 267
2810.0 290 307 339 378 420 468 541 646 797 1057
2850.0 1484 2107 2915 3632 3995 3925 3604 3280 3038 2802
2890.0 2557 2363 2363 2537 2855 3303 3904 4770 6002 7606
2930.0 9178 10000 9825 8709 7092 5575 4380 3732 3562 3628
2970.0 3534 2993 2185 1460 1024 766 609 493 427 363
3010.0 322 288 251 228 208 190 170 162 146 132
3050.0 119 104 96 89 77 69 70 69 71 66
3090.0 65 62 51 55 57 42 42 50 42 42
3130.0 42 42 39 35 49 33 49 50 44 43
3170.0 50 36 44 48 34 48 40 44 43 37
3210.0 37 31 38 38 30 32 30 29 43 34
3250.0 31 27 24 18 11 18 25 17 20 15
3290.0 11 5 12 15 16 19 18 6 12 11
3330.0 25 1 13 18 6 16 24 15 11 17
3370.0 18 20 27 14 14 14 29 14 15 27
3410.0 26 33 35 26 41 40 42 14 14 30
3450.0 36 28 40 28 28 36 46 38 31 42
3490.0 36 34 29 26 34 34 38 38 20 25
3530.0 22 42 38 38 19 39 29 31 38 33
3570.0 29 35 30 22 45 40 46 47 45 45
3610.0 44 63 49 56 76 69 81 94 121 157
3650.0 188 250 306 347 375 392 407 370 299 222
3690.0 167 134 92 96 76 69 51 62 45 57
3730.0 54 40 51 43 39 40 25 43 37 42
3770.0 44 46 48 43 36 36 40 44 40 37
3810.0 31 29 32 39 52 51 52 50 47 45
3850.0 45 32 29 32 40 25 27 32 41 41
3890.0 52 41 43 38 48 47 41 33 33 39
3930.0 40 42 41 44 41 33 32 28 34 34
##END=
