##TITLE=2-(2-Hexyloxyethoxy)ethanol
##JCAMP-DX=4.24
##DATA TYPE=INFRARED SPECTRUM
##ORIGIN=Sadtler Research Labs Under US-EPA Contract
##OWNER=NIST Standard Reference Data Program
##CAS REGISTRY NO=112-59-4
##MOLFORM=C 10 H 22 O 3
##XUNITS=1/CM
##YUNITS=ABSORBANCE
##XFACTOR=1.0
##YFACTOR=0.000071008
##DELTAX=4.0
##FIRSTX=450.0
##LASTX=3966.0
##FIRSTY=0.001633
##MAXX=3966
##MINX=450
##MAXY=0.71008
##MINY=0
##NPOINTS=880
##XYDATA=(X++(Y..Y))
450.0 23 127 238 137 104 106 178 125 119 152
490.0 168 153 152 188 245 229 214 216 207 245
530.0 216 221 237 224 207 213 195 162 176 162
570.0 157 145 129 124 99 84 59 67 52 46
610.0 56 66 33 24 23 29 22 38 31 16
650.0 26 22 9 22 45 8 10 17 12 30
690.0 26 40 24 36 42 61 77 91 121 135
730.0 135 121 123 112 99 81 113 107 116 112
770.0 120 120 106 125 131 155 177 204 243 264
810.0 290 295 306 312 320 319 314 317 321 342
850.0 346 399 420 477 529 609 651 705 742 787
890.0 818 809 771 722 719 708 728 750 772 773
930.0 776 783 786 791 780 753 719 682 651 639
970.0 634 641 671 696 745 807 872 932 1021 1097
1010.0 1203 1324 1447 1579 1705 1866 2022 2225 2448 2720
1050.0 3040 3400 3828 4270 4552 4444 4083 3590 3278 3175
1090.0 3280 3542 3969 4515 5200 6009 6959 8053 8996 9654
1130.0 9687 9232 8436 7520 6503 5494 4514 3581 2805 2196
1170.0 1773 1472 1275 1129 1030 983 958 964 980 1005
1210.0 1013 1010 955 906 857 838 853 896 959 1009
1250.0 1055 1065 1063 1039 1031 1016 1020 1033 1061 1078
1290.0 1078 1070 1027 976 893 821 761 751 799 837
1330.0 855 883 989 1209 1600 1988 2145 2013 1781 1622
1370.0 1521 1449 1382 1367 1339 1272 1172 1081 1026 951
1410.0 873 745 674 609 557 537 599 677 760 857
1450.0 1039 1261 1484 1597 1557 1442 1237 1038 817 643
1490.0 478 360 269 204 192 154 141 97 101 80
1530.0 73 70 65 58 46 70 48 57 63 46
1570.0 57 50 56 58 46 55 43 47 42 48
1610.0 50 48 45 36 39 25 36 26 37 25
1650.0 32 56 49 27 36 24 42 17 25 18
1690.0 27 14 39 33 33 22 35 13 54 53
1730.0 62 83 97 107 134 156 172 158 123 114
1770.0 83 78 51 49 55 50 37 31 27 28
1810.0 15 11 16 11 20 3 13 4 13 5
1850.0 8 15 13 16 11 11 18 17 19 24
1890.0 25 21 29 29 36 29 39 47 44 56
1930.0 67 71 76 80 79 88 90 89 82 77
1970.0 78 73 69 66 66 58 56 52 54 48
2010.0 47 42 40 37 37 39 39 39 32 34
2050.0 32 33 30 32 32 34 31 30 37 34
2090.0 33 35 37 38 41 40 39 42 40 51
2130.0 47 49 49 47 47 49 48 45 46 37
2170.0 38 35 35 34 26 26 25 27 20 24
2210.0 18 21 19 20 20 18 22 21 22 23
2250.0 25 24 24 20 24 26 20 22 21 25
2290.0 20 23 22 20 21 18 23 24 23 18
2330.0 30 27 32 28 21 36 39 46 37 38
2370.0 40 36 33 37 32 32 26 22 17 20
2410.0 22 19 22 18 17 13 13 11 12 13
2450.0 12 13 15 14 8 13 10 10 12 11
2490.0 11 13 13 10 16 14 15 17 19 22
2530.0 23 24 25 29 24 25 26 29 31 36
2570.0 37 41 41 47 53 57 59 61 62 65
2610.0 66 65 67 70 69 74 78 83 84 93
2650.0 98 107 115 123 143 152 173 184 206 221
2690.0 245 266 289 300 315 324 337 355 372 399
2730.0 420 441 449 452 454 448 447 450 460 478
2770.0 497 527 565 609 654 710 764 822 864 912
2810.0 955 1002 1056 1133 1228 1375 1573 1837 2233 2783
2850.0 3548 4543 5755 6949 7898 8455 8515 8245 7763 7248
2890.0 6628 6083 5734 5633 5693 5930 6292 6730 7323 8060
2930.0 8975 9630 10000 9870 9373 8465 7590 7149 7105 7168
2970.0 6696 5491 3900 2593 1798 1326 1023 821 677 564
3010.0 479 413 357 321 289 255 232 204 182 167
3050.0 151 138 120 113 106 103 93 87 81 71
3090.0 68 65 62 58 59 51 54 47 43 44
3130.0 37 37 40 37 32 30 30 34 34 36
3170.0 31 30 33 29 29 26 30 24 25 25
3210.0 27 20 19 15 15 14 12 9 14 12
3250.0 17 10 18 14 16 15 20 19 27 16
3290.0 23 25 22 21 19 26 21 20 21 29
3330.0 30 28 31 29 32 34 38 43 44 39
3370.0 44 44 46 45 41 39 43 46 45 46
3410.0 43 54 55 48 57 57 58 57 55 58
3450.0 65 72 72 80 85 97 99 97 110 125
3490.0 144 155 173 189 212 252 273 286 294 272
3530.0 286 273 271 260 256 237 241 231 227 207
3570.0 203 186 205 183 187 195 180 189 210 236
3610.0 284 324 402 475 580 687 723 678 528 398
3650.0 281 235 219 216 210 189 182 165 150 114
3690.0 111 81 54 33 28 13 20 24 11 26
3730.0 20 25 17 21 50 22 10 28 17 32
3770.0 29 37 29 25 10 15 24 5 16 19
3810.0 16 3 14 14 8 15 3 4 2 20
3850.0 0 30 23 12 5 3 3 24 18 21
3890.0 38 20 23 42 24 21 41 49 42 20
3930.0 24 45 60 45 46 31 48 54 71 62
##END=
