##TITLE=2,5,8,11-Tetraoxadodecane
##JCAMP-DX=4.24
##DATA TYPE=INFRARED SPECTRUM
##ORIGIN=Sadtler Research Labs Under US-EPA Contract
##OWNER=NIST Standard Reference Data Program
##CAS REGISTRY NO=112-49-2
##MOLFORM=C 8 H 18 O 4
##XUNITS=1/CM
##YUNITS=ABSORBANCE
##XFACTOR=1.0
##YFACTOR=0.000143790
##DELTAX=4.0
##FIRSTX=450.0
##LASTX=3966.0
##FIRSTY=0.000000
##MAXX=3966
##MINX=450
##MAXY=1.4379
##MINY=0
##NPOINTS=880
##XYDATA=(X++(Y..Y))
450.0 0 64 114 59 86 117 103 54 71 111
490.0 128 81 145 107 140 172 183 193 195 233
530.0 221 256 264 184 231 210 249 215 230 194
570.0 178 176 172 124 123 162 144 130 108 108
610.0 104 96 100 104 121 111 89 100 87 88
650.0 99 92 99 100 96 112 77 94 93 99
690.0 87 95 91 86 85 84 99 74 93 87
730.0 93 92 92 101 96 106 101 109 105 113
770.0 118 127 124 136 157 158 176 187 203 216
810.0 243 271 290 328 371 418 458 529 588 659
850.0 718 765 775 758 734 684 645 597 556 505
890.0 470 451 441 457 478 532 581 655 729 823
930.0 901 974 1026 1029 1001 931 882 834 827 835
970.0 847 857 866 879 882 891 876 858 830 829
1010.0 848 906 1008 1130 1283 1381 1433 1392 1337 1279
1050.0 1236 1213 1229 1285 1367 1499 1671 1919 2218 2629
1090.0 3105 3654 4302 4988 5888 6873 8158 9177 9985 10000
1130.0 9861 9441 8805 8312 7494 6755 5931 5124 4294 3565
1170.0 2955 2487 2168 1975 1919 1966 2126 2306 2394 2249
1210.0 1928 1533 1231 1054 948 905 898 941 996 1059
1250.0 1102 1105 1064 997 950 913 914 933 982 1037
1290.0 1079 1106 1086 1031 942 850 775 742 753 776
1330.0 785 769 753 798 983 1205 1337 1283 1126 993
1370.0 885 763 636 546 496 462 428 406 384 363
1410.0 341 321 322 320 319 343 391 468 593 723
1450.0 933 1112 1291 1313 1217 1123 944 790 646 568
1490.0 458 402 341 278 256 241 190 199 202 185
1530.0 171 162 187 175 163 143 159 160 191 138
1570.0 147 141 164 125 141 135 123 130 125 133
1610.0 111 143 124 136 117 133 117 141 109 140
1650.0 105 181 119 108 121 119 117 122 96 145
1690.0 103 100 123 134 103 92 92 99 94 85
1730.0 85 93 105 79 91 90 99 94 102 99
1770.0 97 117 91 96 85 100 94 93 92 95
1810.0 93 93 92 87 95 95 96 89 99 97
1850.0 97 97 97 96 97 102 106 101 103 105
1890.0 108 107 110 110 113 116 125 128 136 140
1930.0 145 150 158 163 170 175 182 188 195 196
1970.0 201 199 203 201 202 203 206 202 202 202
2010.0 198 191 184 185 179 175 173 172 172 174
2050.0 171 168 168 159 157 159 164 173 177 182
2090.0 185 185 179 177 172 167 166 165 166 166
2130.0 168 163 168 164 167 166 165 160 159 156
2170.0 155 152 144 146 140 137 138 131 131 129
2210.0 130 129 129 129 128 128 130 130 130 131
2250.0 133 135 133 134 133 130 128 122 119 112
2290.0 106 95 89 81 72 58 60 51 56 70
2330.0 65 87 107 115 123 71 51 51 86 140
2370.0 168 170 156 136 122 117 118 118 117 119
2410.0 116 115 115 110 106 106 107 108 108 108
2450.0 108 105 107 103 104 105 105 106 106 107
2490.0 105 107 108 108 108 108 106 108 105 107
2530.0 111 109 111 113 112 114 115 113 112 116
2570.0 117 121 125 129 136 142 146 145 155 156
2610.0 158 156 158 158 161 162 163 165 158 161
2650.0 162 165 170 183 185 188 190 193 198 207
2690.0 224 250 274 303 333 363 389 418 438 453
2730.0 444 443 438 438 437 441 441 457 473 497
2770.0 522 549 586 625 673 734 805 898 1026 1191
2810.0 1414 1706 2056 2434 2712 2857 2859 2845 2877 2982
2850.0 3205 3529 3941 4355 4767 5112 5378 5586 5689 5681
2890.0 5530 5351 5157 5008 4863 4722 4590 4455 4404 4413
2930.0 4453 4449 4393 4257 4023 3708 3387 3082 2830 2595
2970.0 2331 2082 1900 1854 1929 2051 2054 1833 1450 1070
3010.0 808 638 527 457 402 358 325 308 286 267
3050.0 256 250 237 229 222 211 206 199 186 179
3090.0 171 169 161 155 153 144 142 139 127 128
3130.0 128 125 120 108 114 105 99 102 106 102
3170.0 101 99 95 95 90 88 87 86 83 90
3210.0 84 93 92 76 82 87 89 78 77 85
3250.0 88 80 79 80 78 73 82 76 79 80
3290.0 80 72 75 78 78 74 72 66 72 71
3330.0 80 71 66 71 73 75 67 72 75 74
3370.0 70 65 72 73 67 74 74 72 64 71
3410.0 71 69 67 75 77 66 60 71 58 65
3450.0 68 69 76 71 73 73 65 67 69 66
3490.0 72 71 70 65 60 53 67 66 63 57
3530.0 72 73 64 68 72 68 67 68 73 58
3570.0 75 77 71 62 58 58 64 68 77 75
3610.0 70 68 67 78 86 86 103 74 67 65
3650.0 71 91 72 85 69 69 95 101 75 67
3690.0 95 81 81 95 86 84 79 70 62 53
3730.0 86 87 85 67 117 85 105 85 79 71
3770.0 65 83 66 71 70 67 53 50 72 94
3810.0 51 88 81 91 66 67 50 75 79 67
3850.0 54 55 70 56 83 60 71 59 66 57
3890.0 55 65 48 64 51 52 70 51 51 63
3930.0 74 50 66 50 53 51 50 55 51 51
##END=
