##TITLE=Ethanol, 2-(2-butoxyethoxy)-
##JCAMP-DX=4.24
##DATA TYPE=INFRARED SPECTRUM
##ORIGIN=Sadtler Research Labs Under US-EPA Contract
##OWNER=NIST Standard Reference Data Program
##CAS REGISTRY NO=112-34-5
##MOLFORM=C 8 H 18 O 3
##XUNITS=1/CM
##YUNITS=ABSORBANCE
##XFACTOR=1.0
##YFACTOR=0.000079993
##DELTAX=4.0
##FIRSTX=450.0
##LASTX=3966.0
##FIRSTY=0.007679
##MAXX=3966
##MINX=450
##MAXY=0.79993
##MINY=0
##NPOINTS=880
##XYDATA=(X++(Y..Y))
450.0 96 162 281 268 263 186 248 67 153 154
490.0 372 317 147 147 110 268 198 276 249 318
530.0 290 171 293 230 340 310 229 323 351 156
570.0 203 133 40 315 329 197 196 221 193 167
610.0 158 176 191 222 179 159 188 208 230 200
650.0 230 227 213 254 256 281 219 243 202 217
690.0 216 236 229 217 217 244 254 210 280 226
730.0 224 258 272 284 272 289 269 241 233 209
770.0 218 317 357 286 297 276 404 381 416 345
810.0 564 530 318 376 590 474 612 561 607 588
850.0 615 616 627 644 646 736 752 795 844 955
890.0 980 1007 1006 986 958 933 909 872 837 809
930.0 790 722 669 635 623 654 696 734 760 748
970.0 863 914 935 925 933 923 930 971 1031 1160
1010.0 1211 1351 1529 1653 1796 1898 2002 2133 2315 2565
1050.0 2850 3256 3716 4165 4451 4413 4081 3632 3278 3139
1090.0 3233 3476 3887 4420 5124 5983 7014 8123 9212 9902
1130.0 10000 9532 8651 7598 6566 5558 4622 3759 3005 2400
1170.0 1960 1656 1440 1267 1140 1040 981 936 932 967
1210.0 985 982 968 952 926 940 971 1038 1102 1167
1250.0 1205 1224 1217 1193 1157 1126 1097 1079 1092 1098
1290.0 1099 1094 1055 1006 929 860 813 819 844 879
1330.0 897 939 1048 1236 1548 1879 2043 2009 1807 1624
1370.0 1519 1451 1397 1355 1323 1267 1216 1147 1081 999
1410.0 922 804 754 635 620 565 629 625 717 786
1450.0 944 1125 1265 1392 1387 1266 1149 977 819 673
1490.0 574 408 333 284 222 216 227 181 156 155
1530.0 157 158 104 123 117 138 109 109 63 121
1570.0 95 117 65 121 104 106 102 117 99 95
1610.0 103 95 65 98 67 98 51 69 79 76
1650.0 55 49 44 95 74 78 59 97 73 72
1690.0 83 94 50 66 80 103 103 88 98 125
1730.0 140 125 168 204 269 289 280 264 218 184
1770.0 155 122 127 124 114 101 91 97 97 80
1810.0 73 77 72 78 65 62 66 78 66 78
1850.0 67 70 73 79 77 78 74 76 81 81
1890.0 82 85 79 89 91 106 98 98 120 119
1930.0 123 128 135 141 149 143 149 151 150 141
1970.0 144 137 127 122 112 109 101 87 88 83
2010.0 78 77 74 77 70 68 69 69 76 73
2050.0 71 71 79 81 83 82 75 82 83 84
2090.0 85 94 89 94 94 94 87 83 87 86
2130.0 85 91 82 83 84 86 79 76 69 67
2170.0 67 70 64 68 61 62 63 65 62 55
2210.0 56 58 56 53 54 53 50 51 55 54
2250.0 54 59 55 58 58 58 54 55 53 54
2290.0 59 56 63 63 73 76 74 75 61 77
2330.0 82 68 39 69 38 59 91 83 70 23
2370.0 29 25 20 27 27 28 27 26 25 27
2410.0 22 25 23 26 15 19 17 21 19 11
2450.0 10 10 13 13 12 10 7 5 5 3
2490.0 1 6 0 10 10 10 8 13 13 17
2530.0 16 15 18 11 11 19 16 23 17 18
2570.0 19 17 19 20 21 31 36 36 37 33
2610.0 40 46 45 46 43 47 53 57 57 67
2650.0 74 82 88 101 113 124 133 150 170 185
2690.0 207 233 251 273 281 302 306 326 338 362
2730.0 385 387 394 396 398 399 398 398 402 420
2770.0 433 457 491 535 573 625 670 718 757 795
2810.0 838 865 930 990 1071 1192 1351 1589 1910 2343
2850.0 2940 3660 4472 5302 6027 6573 6897 7029 6941 6600
2890.0 6144 5609 5194 4918 4814 4817 4964 5140 5346 5541
2930.0 5813 6108 6388 6583 6529 6299 5961 5844 5978 6113
2970.0 5877 5044 3860 2712 1890 1389 1050 810 650 528
3010.0 441 372 326 276 252 224 196 191 171 161
3050.0 132 135 119 112 92 85 81 82 79 68
3090.0 75 48 55 58 52 55 49 36 52 55
3130.0 39 41 39 44 42 51 42 50 40 49
3170.0 45 51 36 39 55 51 48 44 43 37
3210.0 37 41 26 18 33 25 23 36 34 22
3250.0 23 25 35 29 19 27 24 22 24 26
3290.0 10 9 12 22 17 18 21 22 2 15
3330.0 12 7 14 24 24 11 1 15 25 17
3370.0 20 22 22 14 16 26 28 24 19 38
3410.0 38 44 28 40 41 41 59 60 68 60
3450.0 56 51 58 78 95 104 95 99 121 132
3490.0 122 155 193 207 230 265 272 291 320 350
3530.0 319 310 310 291 309 298 265 255 250 287
3570.0 278 244 232 234 230 268 245 278 256 290
3610.0 345 392 471 573 634 714 726 716 585 448
3650.0 378 304 255 270 248 256 226 195 166 167
3690.0 140 96 108 73 77 80 66 61 66 95
3730.0 72 69 82 60 50 62 81 47 66 86
3770.0 85 70 76 62 86 110 86 73 49 73
3810.0 76 87 61 51 105 95 69 70 84 66
3850.0 103 38 84 94 53 65 58 93 71 87
3890.0 55 39 60 85 67 58 81 93 143 99
3930.0 73 29 55 42 72 91 76 78 64 53
##END=
