##TITLE=Ethanol, 2-(hexyloxy)-
##JCAMP-DX=4.24
##DATA TYPE=INFRARED SPECTRUM
##ORIGIN=Sadtler Research Labs Under US-EPA Contract
##OWNER=NIST Standard Reference Data Program
##CAS REGISTRY NO=112-25-4
##MOLFORM=C 8 H 18 O 2
##XUNITS=1/CM
##YUNITS=ABSORBANCE
##XFACTOR=1.0
##YFACTOR=0.000093741
##DELTAX=4.0
##FIRSTX=450.0
##LASTX=3966.0
##FIRSTY=0.000000
##MAXX=3966
##MINX=450
##MAXY=0.93741
##MINY=0
##NPOINTS=880
##XYDATA=(X++(Y..Y))
450.0 0 446 583 495 554 484 483 599 485 656
490.0 379 542 422 514 564 485 583 515 661 542
530.0 655 557 574 476 544 594 530 592 522 589
570.0 481 593 439 468 481 508 494 395 496 434
610.0 474 415 499 441 478 521 417 463 456 495
650.0 425 491 470 512 469 502 497 457 526 459
690.0 531 466 525 501 516 517 557 578 569 633
730.0 577 605 592 570 551 538 557 534 552 531
770.0 570 518 553 550 544 578 591 582 583 613
810.0 604 628 597 642 634 654 676 686 708 714
850.0 796 799 881 915 977 976 986 1016 1021 1071
890.0 1072 1109 1034 995 918 871 824 817 820 813
930.0 855 867 888 872 880 844 818 815 798 801
970.0 783 806 796 825 835 890 910 958 1026 1084
1010.0 1171 1252 1381 1485 1664 1848 2076 2348 2636 2986
1050.0 3329 3752 4185 4590 4678 4484 3959 3373 2946 2643
1090.0 2513 2509 2707 2998 3465 4045 4830 5712 6565 7195
1130.0 7249 6711 5657 4483 3412 2693 2195 1861 1623 1456
1170.0 1357 1265 1223 1172 1161 1155 1185 1214 1237 1266
1210.0 1266 1256 1204 1184 1132 1119 1110 1140 1157 1150
1250.0 1158 1126 1125 1108 1110 1089 1080 1063 1028 997
1290.0 968 969 938 943 934 924 892 889 893 906
1330.0 967 1028 1154 1315 1567 1868 2119 2221 2165 1962
1370.0 1752 1599 1531 1550 1552 1563 1468 1399 1314 1229
1410.0 1142 1064 995 929 882 868 891 941 993 1066
1450.0 1175 1352 1562 1707 1726 1659 1454 1284 1112 957
1490.0 815 702 639 563 553 515 492 491 474 476
1530.0 453 458 446 459 427 436 429 438 442 421
1570.0 425 418 430 414 423 411 418 417 416 422
1610.0 422 438 426 438 411 424 421 438 423 429
1650.0 424 438 416 404 412 391 408 411 406 414
1690.0 401 406 409 425 408 415 412 427 438 438
1730.0 458 474 512 533 598 614 620 580 542 513
1770.0 484 475 446 440 428 429 412 408 405 401
1810.0 395 392 400 381 384 384 390 377 386 388
1850.0 387 386 384 390 384 399 389 392 394 395
1890.0 398 393 402 397 405 406 408 405 410 420
1930.0 420 420 420 430 425 428 425 427 423 424
1970.0 416 414 422 418 426 418 423 419 420 423
2010.0 421 420 411 421 408 405 407 406 405 417
2050.0 419 407 411 398 384 375 378 384 391 393
2090.0 407 418 408 411 407 416 414 416 412 409
2130.0 414 419 423 412 419 412 415 412 421 412
2170.0 409 413 405 411 401 407 399 407 397 397
2210.0 399 398 411 398 402 395 399 391 398 396
2250.0 398 401 399 402 399 403 395 397 400 394
2290.0 396 391 392 384 387 378 380 371 375 385
2330.0 373 393 383 416 409 403 371 374 404 446
2370.0 444 454 462 438 427 414 416 408 409 410
2410.0 411 410 411 409 406 410 406 411 409 410
2450.0 415 411 411 407 412 401 412 411 407 410
2490.0 402 413 404 415 401 410 411 420 415 427
2530.0 423 423 437 426 432 421 430 418 425 421
2570.0 419 420 421 437 440 451 449 467 467 465
2610.0 475 484 483 466 474 471 477 458 454 478
2650.0 476 495 510 524 520 531 517 511 530 553
2690.0 583 601 628 629 645 650 657 656 676 698
2730.0 712 723 722 730 727 735 730 731 738 769
2770.0 786 802 838 874 921 946 988 1009 1031 1061
2810.0 1081 1118 1161 1232 1287 1394 1536 1761 2064 2516
2850.0 3124 3881 4798 5714 6464 6886 7027 6961 6783 6380
2890.0 5875 5297 4867 4708 4686 4902 5273 5842 6668 7683
2930.0 8708 9538 10000 9843 9238 8394 7602 7215 7203 7327
2970.0 7001 5964 4565 3222 2311 1779 1442 1248 1093 976
3010.0 901 828 771 732 701 661 646 615 603 578
3050.0 570 560 544 534 519 516 503 519 499 489
3090.0 491 478 472 463 475 456 463 458 464 464
3130.0 446 454 443 452 452 475 475 472 483 482
3170.0 478 474 477 458 466 459 458 439 444 432
3210.0 437 440 440 441 440 459 438 452 449 450
3250.0 437 431 428 439 445 436 430 419 416 404
3290.0 395 402 375 398 393 394 391 397 400 390
3330.0 391 387 380 380 388 393 399 389 396 406
3370.0 386 421 401 404 402 414 422 402 401 399
3410.0 402 402 397 388 401 382 392 409 404 398
3450.0 384 394 375 374 393 396 394 413 388 399
3490.0 405 390 399 389 387 379 398 399 388 381
3530.0 374 393 383 390 379 391 386 404 393 400
3570.0 415 411 425 404 442 453 474 464 515 551
3610.0 607 699 778 919 1157 1417 1446 1283 1046 817
3650.0 714 645 642 647 633 627 632 601 590 579
3690.0 523 495 478 476 464 430 434 431 432 415
3730.0 448 429 443 437 478 454 484 448 424 434
3770.0 439 431 422 454 403 424 405 445 430 428
3810.0 390 423 430 415 391 399 410 419 397 382
3850.0 393 409 415 418 420 403 418 404 416 383
3890.0 383 376 390 378 389 411 395 380 442 455
3930.0 465 442 430 420 374 413 393 410 412 403
##END=
