##TITLE=Tetradecane, 1-bromo-
##JCAMP-DX=4.24
##DATA TYPE=INFRARED SPECTRUM
##ORIGIN=Sadtler Research Labs Under US-EPA Contract
##OWNER=NIST Standard Reference Data Program
##CAS REGISTRY NO=112-71-0
##MOLFORM=C 14 H 29 Br
##XUNITS=1/CM
##YUNITS=ABSORBANCE
##XFACTOR=1.0
##YFACTOR=0.000078516
##DELTAX=4.0
##FIRSTX=450.0
##LASTX=3966.0
##FIRSTY=0.010600
##MAXX=3966
##MINX=450
##MAXY=0.78516
##MINY=0
##NPOINTS=880
##XYDATA=(X++(Y..Y))
450.0 135 195 164 161 187 200 211 222 227 208
490.0 159 189 175 167 160 164 152 139 149 164
530.0 154 135 119 148 129 158 179 203 190 240
570.0 238 216 132 96 105 89 72 79 78 48
610.0 69 8 65 86 112 117 124 163 198 236
650.0 294 236 178 139 155 91 63 64 94 71
690.0 75 70 111 88 141 140 194 233 226 178
730.0 191 179 178 166 115 127 131 117 106 114
770.0 84 104 77 78 67 87 45 77 70 76
810.0 60 52 56 47 42 17 30 32 50 36
850.0 87 44 62 54 58 65 77 70 70 57
890.0 57 78 66 41 38 59 56 60 31 57
930.0 52 65 42 53 55 70 62 64 68 70
970.0 51 62 52 58 63 50 62 69 47 45
1010.0 35 48 49 49 44 52 56 34 40 51
1050.0 58 43 58 39 73 46 64 61 88 37
1090.0 40 47 79 35 37 33 31 52 46 60
1130.0 18 39 36 45 39 50 19 63 49 60
1170.0 58 58 60 67 75 80 96 121 150 183
1210.0 203 206 255 299 305 301 308 322 340 359
1250.0 393 399 437 425 407 392 379 336 325 299
1290.0 299 292 283 268 265 243 226 202 177 169
1330.0 172 197 216 254 263 311 309 311 279 271
1370.0 243 230 196 188 187 157 134 112 108 104
1410.0 97 101 136 124 155 190 286 360 455 524
1450.0 610 662 780 774 766 628 508 350 246 168
1490.0 145 118 101 84 92 76 50 66 49 50
1530.0 34 60 41 70 21 30 35 69 35 34
1570.0 25 36 33 33 12 19 18 7 13 16
1610.0 19 11 41 12 24 6 39 15 20 27
1650.0 27 33 20 11 22 22 26 10 26 31
1690.0 8 17 35 34 12 28 12 44 11 16
1730.0 17 52 20 38 12 49 12 39 30 27
1770.0 29 42 18 27 27 20 35 19 22 8
1810.0 27 8 15 10 16 6 28 17 24 12
1850.0 23 10 16 10 17 15 13 11 16 8
1890.0 8 22 11 16 11 32 12 26 14 18
1930.0 13 21 13 24 15 26 14 17 6 20
1970.0 21 16 15 17 21 19 18 19 26 18
2010.0 28 15 37 17 30 23 36 27 46 26
2050.0 41 19 38 21 28 27 25 26 26 24
2090.0 25 23 21 36 22 28 29 35 18 28
2130.0 21 28 21 39 20 32 22 34 21 25
2170.0 27 25 28 26 26 27 30 21 43 20
2210.0 35 23 35 22 31 20 32 20 39 19
2250.0 27 23 28 25 23 25 22 28 18 25
2290.0 30 38 19 43 51 70 63 96 84 104
2330.0 97 130 104 130 125 100 119 166 180 180
2370.0 141 106 83 52 47 28 36 22 22 16
2410.0 30 17 39 21 30 10 31 21 21 13
2450.0 17 15 15 15 17 14 14 25 15 24
2490.0 13 25 15 22 14 22 9 28 16 27
2530.0 17 26 19 27 29 28 25 28 29 29
2570.0 34 30 43 32 40 26 46 41 49 43
2610.0 50 47 55 43 51 49 58 51 67 66
2650.0 67 72 74 66 78 89 89 100 95 99
2690.0 89 107 80 87 79 76 65 82 66 83
2730.0 77 84 70 96 98 92 93 98 92 104
2770.0 111 107 118 129 155 155 177 175 212 206
2810.0 245 252 300 317 388 427 503 582 740 965
2850.0 1343 1961 2820 3617 3774 3343 2722 2249 1959 1830
2890.0 1722 1729 1814 2087 2427 2888 3456 4280 5475 7290
2930.0 9172 10000 9429 7907 6135 4640 3532 2928 2700 2695
2970.0 2650 2281 1707 1246 942 727 612 513 479 442
3010.0 457 449 413 327 265 204 193 167 156 127
3050.0 129 124 111 103 94 83 81 76 67 71
3090.0 59 68 60 76 35 56 37 52 37 55
3130.0 38 44 45 41 37 36 36 38 51 39
3170.0 56 40 41 26 31 26 33 34 45 30
3210.0 26 27 33 20 28 28 21 18 27 17
3250.0 24 20 20 18 15 36 17 22 23 16
3290.0 23 24 12 20 17 20 22 21 6 12
3330.0 31 18 9 18 17 26 24 21 30 27
3370.0 30 24 18 19 26 19 21 16 22 18
3410.0 27 14 20 6 26 40 21 15 19 27
3450.0 22 32 21 17 23 20 7 32 16 15
3490.0 15 21 5 17 25 18 4 13 14 9
3530.0 34 16 16 17 23 17 17 10 29 20
3570.0 26 16 20 17 18 29 31 24 25 19
3610.0 34 26 25 40 28 32 27 28 19 13
3650.0 32 19 27 19 15 18 18 37 13 14
3690.0 21 16 8 8 3 15 9 0 0 3
3730.0 1 10 17 2 10 3 11 0 0 0
3770.0 0 0 0 0 0 0 0 0 0 0
3810.0 0 0 0 0 0 0 0 0 0 0
3850.0 0 0 0 0 0 0 0 0 0 0
3890.0 0 0 0 0 0 0 0 0 0 0
3930.0 0 0 0 0 0 0 0 0 0 0
##END=
