##TITLE=Ethane, 1,1'-oxybis[2-ethoxy-]
##JCAMP-DX=4.24
##DATA TYPE=INFRARED SPECTRUM
##ORIGIN=Sadtler Research Labs Under US-EPA Contract
##OWNER=NIST Standard Reference Data Program
##CAS REGISTRY NO=112-36-7
##MOLFORM=C 8 H 18 O 3
##XUNITS=1/CM
##YUNITS=ABSORBANCE
##XFACTOR=1.0
##YFACTOR=0.000143292
##DELTAX=4.0
##FIRSTX=450.0
##LASTX=3966.0
##FIRSTY=0.000000
##MAXX=3966
##MINX=450
##MAXY=1.43292
##MINY=0
##NPOINTS=880
##XYDATA=(X++(Y..Y))
450.0 0 88 169 79 127 176 146 209 185 80
490.0 158 191 237 117 113 117 139 191 130 142
530.0 155 128 207 102 155 174 170 164 177 148
570.0 138 96 141 156 144 154 138 89 112 131
610.0 112 123 173 130 135 113 148 170 163 130
650.0 144 137 139 151 159 149 120 128 116 88
690.0 135 130 116 121 97 145 102 113 140 84
730.0 124 124 125 105 166 110 138 152 139 161
770.0 160 154 189 210 230 222 215 249 246 275
810.0 287 294 300 313 357 384 407 444 491 542
850.0 570 559 549 507 500 485 446 423 378 382
890.0 379 385 400 425 455 489 524 563 594 641
930.0 679 725 761 792 786 748 682 608 550 511
970.0 488 480 497 527 566 608 625 657 687 707
1010.0 746 795 864 939 1029 1113 1194 1260 1296 1318
1050.0 1335 1331 1349 1416 1542 1708 1864 2009 2132 2303
1090.0 2591 3016 3602 4375 5294 6532 7804 8948 9926 10000
1130.0 9988 9376 8637 7783 6856 5970 5085 4314 3638 3062
1170.0 2597 2241 1968 1708 1449 1218 1015 867 772 697
1210.0 656 623 610 613 623 653 683 730 788 827
1250.0 868 864 845 823 807 817 847 891 959 1019
1290.0 1083 1098 1067 994 899 816 771 771 808 812
1330.0 796 773 804 966 1234 1460 1512 1357 1173 1072
1370.0 1093 1151 1229 1302 1294 1221 1090 972 874 771
1410.0 695 616 567 516 469 450 455 521 576 674
1450.0 768 854 873 844 732 669 600 559 531 499
1490.0 443 380 322 260 243 219 169 168 174 141
1530.0 140 122 143 137 127 112 105 137 120 108
1570.0 101 101 115 90 95 90 99 91 98 99
1610.0 84 111 95 109 94 100 112 103 101 106
1650.0 103 137 98 90 97 106 106 102 109 119
1690.0 107 96 121 125 106 101 111 129 119 114
1730.0 137 154 167 160 188 193 194 196 186 161
1770.0 160 159 132 122 122 117 127 112 113 102
1810.0 91 92 80 84 79 80 79 67 82 77
1850.0 79 76 78 66 76 86 80 83 88 89
1890.0 87 93 97 99 102 109 112 118 124 125
1930.0 131 138 143 151 155 159 168 171 178 180
1970.0 182 182 179 179 174 169 165 159 152 145
2010.0 134 127 121 114 106 102 99 94 94 92
2050.0 88 90 88 90 92 89 93 93 95 98
2090.0 101 100 99 102 101 97 101 100 102 101
2130.0 106 107 106 108 110 110 109 109 110 107
2170.0 107 104 102 100 101 97 97 94 94 91
2210.0 92 93 92 91 93 93 96 95 98 98
2250.0 99 100 100 103 104 103 104 102 100 104
2290.0 99 100 99 96 96 94 92 86 80 78
2330.0 72 78 73 69 72 79 69 73 76 77
2370.0 79 79 84 86 83 81 80 82 85 85
2410.0 84 82 84 82 86 84 84 81 79 80
2450.0 78 77 76 74 74 72 77 78 76 76
2490.0 74 78 81 81 83 82 81 79 82 83
2530.0 83 88 87 87 90 88 92 91 88 92
2570.0 96 96 97 104 109 111 116 120 122 130
2610.0 134 134 136 135 137 139 138 141 136 140
2650.0 142 142 146 147 153 160 171 182 194 212
2690.0 235 261 288 304 320 336 350 363 378 395
2730.0 404 415 425 432 438 445 450 462 475 495
2770.0 518 546 583 613 640 678 714 765 819 879
2810.0 938 986 1042 1105 1185 1301 1449 1660 1951 2338
2850.0 2811 3384 4021 4649 5190 5592 5767 5709 5450 5070
2890.0 4670 4306 4033 3832 3704 3613 3501 3408 3331 3306
2930.0 3345 3485 3648 3679 3571 3312 3036 2851 2762 2751
2970.0 2842 3028 3314 3522 3456 2991 2306 1707 1284 1004
3010.0 816 685 587 510 453 405 359 328 296 273
3050.0 250 225 211 194 178 171 164 158 154 144
3090.0 144 141 135 133 133 126 128 133 123 119
3130.0 119 117 121 116 119 117 113 116 112 113
3170.0 114 111 117 118 116 110 116 115 118 114
3210.0 114 108 114 111 106 100 97 101 99 97
3250.0 92 94 89 91 86 92 87 90 90 82
3290.0 87 83 91 85 86 85 83 85 78 79
3330.0 84 86 82 84 84 87 83 82 85 79
3370.0 84 84 84 85 85 82 83 81 86 86
3410.0 85 81 86 78 90 86 81 87 89 84
3450.0 77 80 78 84 80 84 82 79 80 79
3490.0 78 85 85 83 79 77 84 86 81 81
3530.0 75 80 79 84 84 86 90 80 85 80
3570.0 89 87 83 83 83 88 93 71 94 82
3610.0 94 90 86 95 93 105 104 81 85 97
3650.0 98 106 84 108 97 102 97 111 99 93
3690.0 105 101 92 97 92 99 109 92 98 88
3730.0 90 108 96 104 111 127 96 102 86 101
3770.0 95 96 97 97 92 99 89 93 83 120
3810.0 89 106 94 118 111 107 94 90 97 96
3850.0 104 131 109 90 110 107 91 102 105 111
3890.0 117 106 102 109 119 102 124 105 116 99
3930.0 99 142 115 111 100 101 134 110 107 105
##END=
