##TITLE=Ethanol, 2,2'-[oxybis(2,1-ethanediyloxy)]bis-
##JCAMP-DX=4.24
##DATA TYPE=INFRARED SPECTRUM
##ORIGIN=Sadtler Research Labs Under US-EPA Contract
##OWNER=NIST Standard Reference Data Program
##CAS REGISTRY NO=112-60-7
##MOLFORM=C 8 H 18 O 5
##XUNITS=1/CM
##YUNITS=ABSORBANCE
##XFACTOR=1.0
##YFACTOR=0.000076074
##DELTAX=4.0
##FIRSTX=450.0
##LASTX=3966.0
##FIRSTY=0.026398
##MAXX=3966
##MINX=450
##MAXY=0.76074
##MINY=0
##NPOINTS=880
##XYDATA=(X++(Y..Y))
450.0 347 364 336 318 323 309 318 334 331 314
490.0 341 375 373 402 417 386 388 393 411 454
530.0 454 431 395 366 365 362 353 286 293 239
570.0 220 207 218 204 152 146 117 134 142 107
610.0 110 90 97 68 90 71 67 76 51 47
650.0 21 52 59 44 38 64 49 43 75 64
690.0 40 50 56 34 11 13 18 69 38 14
730.0 48 30 36 35 42 51 36 41 50 85
770.0 93 125 139 175 212 237 259 260 311 358
810.0 387 426 484 474 497 585 618 607 622 599
850.0 655 662 682 747 812 867 953 982 1036 1077
890.0 1063 1056 1041 1014 1033 1065 1120 1150 1224 1267
930.0 1289 1276 1209 1128 1038 945 886 807 788 766
970.0 768 803 853 925 972 1052 1120 1190 1319 1438
1010.0 1591 1766 1977 2204 2463 2767 3047 3374 3768 4126
1050.0 4549 5118 5510 6017 6008 5868 5463 4923 4508 4389
1090.0 4439 4779 5128 5819 6481 7162 8470 9105 9694 9705
1130.0 9686 10000 8881 7893 7387 6282 5489 4540 3663 2969
1170.0 2421 2031 1778 1527 1406 1300 1268 1224 1260 1271
1210.0 1292 1267 1259 1228 1213 1168 1188 1236 1327 1415
1250.0 1475 1513 1537 1510 1470 1456 1436 1434 1437 1462
1290.0 1431 1373 1299 1205 1086 1007 978 984 1024 1065
1330.0 1101 1174 1327 1591 1892 2140 2180 2033 1876 1682
1370.0 1525 1423 1314 1227 1194 1159 1144 1133 1073 1010
1410.0 923 835 782 675 591 557 534 598 616 745
1450.0 912 1075 1254 1202 1176 1015 899 715 572 467
1490.0 417 308 265 194 236 190 136 136 154 107
1530.0 87 111 100 136 76 71 77 134 106 56
1570.0 66 44 68 36 30 24 37 35 24 23
1610.0 22 21 60 30 41 21 24 55 24 45
1650.0 42 131 22 30 20 58 41 36 49 88
1690.0 36 33 75 112 56 49 66 112 65 67
1730.0 93 165 146 177 208 243 222 202 164 129
1770.0 136 136 93 92 93 81 90 72 79 47
1810.0 39 24 20 21 26 29 14 12 12 34
1850.0 13 6 11 18 12 44 21 24 23 30
1890.0 41 39 43 48 54 63 68 88 94 100
1930.0 103 108 120 132 134 131 140 133 139 132
1970.0 118 118 105 97 85 86 80 64 62 55
2010.0 53 47 44 39 38 38 32 32 32 31
2050.0 31 34 38 29 43 38 43 43 43 50
2090.0 51 49 50 52 55 55 54 57 63 62
2130.0 61 68 62 62 62 62 54 54 55 47
2170.0 47 42 40 40 40 34 26 26 24 27
2210.0 27 22 25 25 25 25 26 26 25 25
2250.0 25 31 31 32 30 30 31 31 36 30
2290.0 37 37 43 42 50 57 56 65 76 78
2330.0 85 73 81 87 94 67 94 107 104 109
2370.0 83 61 43 30 16 9 8 8 8 14
2410.0 14 14 7 13 12 12 12 12 13 13
2450.0 13 13 12 12 12 12 12 12 12 12
2490.0 13 13 13 13 13 13 19 19 18 24
2530.0 27 26 18 26 25 25 27 26 26 32
2570.0 33 32 32 39 39 38 47 47 45 45
2610.0 48 47 45 45 54 54 59 61 65 73
2650.0 72 83 93 97 111 124 137 145 172 191
2690.0 220 245 268 292 308 325 346 363 385 392
2730.0 405 406 405 404 401 405 408 422 435 457
2770.0 479 502 529 556 597 630 664 704 746 790
2810.0 832 891 968 1045 1150 1269 1438 1658 1945 2309
2850.0 2806 3390 4078 4787 5347 5744 5878 5926 5855 5745
2890.0 5635 5533 5420 5286 5147 5051 5005 4998 5022 5076
2930.0 5151 5163 5135 5031 4897 4767 4562 4327 3998 3490
2970.0 2857 2212 1666 1268 969 764 600 489 395 328
3010.0 281 227 201 175 151 137 124 103 91 89
3050.0 77 77 63 56 50 49 43 41 37 37
3090.0 25 32 23 24 24 18 18 18 12 17
3130.0 17 17 14 19 11 18 11 11 11 19
3170.0 11 12 13 11 11 8 17 18 18 18
3210.0 13 12 19 18 18 18 18 16 18 23
3250.0 19 11 19 19 17 26 26 26 20 25
3290.0 25 26 26 22 30 32 27 25 26 25
3330.0 25 39 32 33 35 30 44 43 40 53
3370.0 52 45 60 53 60 59 67 74 67 76
3410.0 81 87 95 98 104 105 105 125 125 140
3450.0 143 148 163 166 187 195 211 228 242 255
3490.0 270 282 308 335 355 386 394 428 442 481
3530.0 500 516 536 537 557 561 562 550 541 549
3570.0 561 504 488 482 474 487 453 459 466 475
3610.0 529 577 636 706 775 876 890 860 782 685
3650.0 624 536 497 467 472 488 460 424 347 303
3690.0 272 206 163 153 127 127 125 107 106 109
3730.0 103 121 121 102 131 120 104 88 88 83
3770.0 75 68 65 67 67 63 63 75 82 70
3810.0 71 63 76 77 70 64 79 79 80 74
3850.0 70 107 79 71 77 84 76 70 76 78
3890.0 72 74 74 77 73 71 64 77 71 71
3930.0 71 77 72 72 75 81 0 6 6 6
##END=
