##TITLE=Isopropyl stearate
##JCAMP-DX=4.24
##DATA TYPE=INFRARED SPECTRUM
##ORIGIN=Sadtler Research Labs Under US-EPA Contract
##OWNER=NIST Standard Reference Data Program
##CAS REGISTRY NO=112-10-7
##MOLFORM=C 21 H 42 O 2
##XUNITS=1/CM
##YUNITS=ABSORBANCE
##XFACTOR=1.0
##YFACTOR=0.000070312
##DELTAX=4.0
##FIRSTX=450.0
##LASTX=3966.0
##FIRSTY=0.021234
##MAXX=3966
##MINX=450
##MAXY=0.70312
##MINY=0
##NPOINTS=880
##XYDATA=(X++(Y..Y))
450.0 302 460 157 109 101 80 210 328 177 45
490.0 189 339 233 154 220 322 349 291 354 409
530.0 324 465 508 312 184 452 588 390 20 166
570.0 349 324 291 256 241 270 367 392 239 276
610.0 368 455 313 164 402 480 325 259 433 316
650.0 280 503 412 127 166 519 390 279 235 278
690.0 587 458 290 309 444 453 462 528 385 377
730.0 584 453 270 373 491 459 426 306 356 390
770.0 468 421 388 346 358 518 443 231 346 488
810.0 438 327 444 459 455 417 393 330 331 328
850.0 402 344 274 299 427 439 333 367 418 437
890.0 413 400 357 385 443 460 373 348 424 540
930.0 490 444 476 550 559 606 638 640 650 648
970.0 641 575 488 540 587 451 422 472 485 454
1010.0 431 436 401 446 472 448 409 429 502 542
1050.0 468 439 551 594 552 563 653 661 726 845
1090.0 880 1007 1252 1635 2132 2623 2800 2804 2361 1952
1130.0 1739 1722 1727 1756 1739 1681 1591 1670 1823 1859
1170.0 1994 2127 2227 2218 2051 1907 1819 1722 1569 1546
1210.0 1508 1395 1400 1478 1426 1430 1537 1644 1686 1704
1250.0 1683 1614 1531 1377 1254 1159 1063 1034 991 926
1290.0 865 901 933 871 832 874 847 830 830 813
1330.0 787 823 897 921 886 890 953 1002 1015 1084
1370.0 1207 1267 1255 1197 1055 897 697 587 503 412
1410.0 400 460 443 424 481 532 560 604 669 744
1450.0 842 939 1040 1143 1066 983 880 709 468 395
1490.0 389 334 271 282 230 245 257 246 209 238
1530.0 249 252 228 169 200 250 221 120 207 220
1570.0 184 210 228 201 190 233 226 208 205 210
1610.0 253 236 197 215 236 229 202 231 213 171
1650.0 208 212 214 183 228 230 217 218 211 245
1690.0 271 272 263 287 360 435 466 469 594 825
1730.0 1114 1470 2138 2934 3628 3840 3353 2553 1772 1208
1770.0 865 636 490 413 414 364 297 267 265 274
1810.0 230 226 218 185 175 199 187 147 164 185
1850.0 172 144 162 176 175 153 155 160 169 160
1890.0 180 177 134 155 192 171 129 149 170 161
1930.0 156 143 147 144 160 151 144 122 136 171
1970.0 150 114 151 167 147 133 149 145 146 157
2010.0 156 142 129 153 165 151 117 142 165 147
2050.0 122 130 147 135 135 148 121 125 148 151
2090.0 117 107 134 136 111 102 113 118 122 121
2130.0 126 112 105 137 132 104 90 133 146 101
2170.0 98 119 114 107 114 93 91 102 109 106
2210.0 86 79 116 125 93 78 107 116 108 129
2250.0 121 92 121 142 120 88 120 130 127 106
2290.0 97 116 123 81 79 86 49 43 91 39
2330.0 12 22 91 30 54 12 12 13 21 8
2370.0 12 57 79 92 79 40 72 110 79 42
2410.0 66 96 83 66 67 66 56 79 86 59
2450.0 44 66 87 65 34 55 85 77 47 64
2490.0 78 69 78 92 62 52 88 107 62 65
2530.0 83 92 77 69 56 64 65 55 69 47
2570.0 33 75 99 38 18 83 92 60 58 67
2610.0 71 91 98 77 92 94 102 108 93 65
2650.0 104 125 94 99 116 105 112 127 106 104
2690.0 118 134 125 99 93 125 130 99 97 132
2730.0 132 119 145 145 126 130 168 142 122 135
2770.0 180 170 146 153 190 199 211 211 217 228
2810.0 267 312 316 306 378 475 499 525 660 895
2850.0 1214 1826 2834 3715 3816 3306 2654 2140 1888 1778
2890.0 1716 1706 1752 2000 2433 2875 3398 4195 5359 7076
2930.0 9121 10000 9033 7520 5945 4524 3482 2889 2642 2642
2970.0 2624 2380 2230 2344 2360 2003 1542 1117 820 716
3010.0 571 424 357 335 298 264 216 205 208 192
3050.0 183 161 146 142 163 176 103 90 156 151
3090.0 103 125 147 119 132 132 124 101 112 133
3130.0 140 95 92 150 158 84 92 130 111 119
3170.0 114 113 83 102 128 93 42 83 134 87
3210.0 59 89 103 90 88 89 95 79 93 128
3250.0 98 30 78 145 79 47 84 84 65 80
3290.0 58 51 81 59 65 59 35 56 126 91
3330.0 35 88 121 63 81 119 79 77 129 110
3370.0 60 75 116 124 109 42 77 141 89 54
3410.0 93 93 64 86 114 43 68 126 117 67
3450.0 54 102 124 100 101 100 134 112 122 125
3490.0 68 91 134 122 85 85 131 131 73 84
3530.0 114 90 81 98 97 71 77 102 90 45
3570.0 57 116 144 95 51 108 98 89 104 94
3610.0 78 114 143 104 63 91 119 106 74 44
3650.0 82 103 85 89 84 32 49 126 85 24
3690.0 74 127 92 54 82 103 132 113 84 91
3730.0 91 68 128 80 19 45 121 78 54 86
3770.0 113 104 107 103 93 92 104 102 79 43
3810.0 87 116 82 52 114 138 106 89 105 104
3850.0 75 116 138 92 72 131 172 107 77 104
3890.0 127 115 66 53 69 69 55 76 47 34
3930.0 107 145 69 65 130 150 0 12 12 12
##END=
