##TITLE=Nonanoic acid
##JCAMP-DX=4.24
##DATA TYPE=INFRARED SPECTRUM
##ORIGIN=Sadtler Research Labs Under US-EPA Contract
##OWNER=NIST Standard Reference Data Program
##CAS REGISTRY NO=112-05-0
##MOLFORM=C 9 H 18 O 2
##XUNITS=1/CM
##YUNITS=ABSORBANCE
##XFACTOR=1.0
##YFACTOR=0.000089990
##DELTAX=4.0
##FIRSTX=450.0
##LASTX=3966.0
##FIRSTY=0.000000
##MAXX=3966
##MINX=450
##MAXY=0.8999
##MINY=0
##NPOINTS=880
##XYDATA=(X++(Y..Y))
450.0 0 173 100 198 90 174 90 180 126 262
490.0 209 299 264 161 264 308 395 361 401 408
530.0 384 453 547 592 655 779 859 1128 1003 1064
570.0 919 905 924 890 1124 883 1044 1143 1199 1179
610.0 1242 1189 1171 1214 1177 1174 1047 970 738 624
650.0 402 326 260 242 222 115 174 119 159 154
690.0 168 151 168 169 193 241 254 316 328 347
730.0 268 291 276 267 256 229 219 189 202 198
770.0 213 192 171 139 174 108 114 115 108 116
810.0 108 123 112 113 113 115 118 122 132 132
850.0 166 163 165 184 179 188 187 203 181 194
890.0 190 205 184 190 191 179 187 176 184 173
930.0 197 193 197 204 200 203 207 218 202 196
970.0 195 200 204 200 216 224 256 261 298 319
1010.0 365 409 454 512 579 644 705 776 815 867
1050.0 900 941 991 1071 1188 1342 1550 1789 2119 2502
1090.0 3010 3573 4099 4377 4377 4072 3681 3426 3373 3595
1130.0 3929 4263 4346 4196 3824 3348 2886 2506 2262 2077
1170.0 1953 1860 1809 1738 1672 1600 1517 1429 1342 1267
1210.0 1172 1103 1031 965 905 865 843 812 799 789
1250.0 785 774 784 781 773 764 761 764 762 764
1290.0 755 740 731 698 686 668 660 633 628 629
1330.0 664 718 802 884 958 1028 1088 1154 1202 1272
1370.0 1341 1438 1539 1639 1649 1526 1303 1057 863 724
1410.0 642 601 599 623 658 701 726 739 764 815
1450.0 904 1035 1195 1300 1288 1172 963 725 525 386
1490.0 300 232 201 172 155 151 134 128 122 116
1530.0 108 107 103 104 98 86 86 85 83 82
1570.0 84 86 86 89 89 96 92 93 91 98
1610.0 95 99 102 100 101 102 107 110 112 112
1650.0 125 131 131 135 140 143 152 159 176 190
1690.0 206 225 261 294 335 389 467 568 688 847
1730.0 1021 1202 1404 1680 2073 2521 3033 3617 4436 5538
1770.0 7008 8623 9722 9721 8418 6737 5185 4055 3203 2511
1810.0 1924 1430 1049 771 577 453 361 301 256 230
1850.0 198 180 162 155 149 138 132 118 128 117
1890.0 117 112 106 111 104 111 106 109 100 110
1930.0 100 101 102 101 101 102 100 96 102 95
1970.0 102 102 98 97 99 100 94 104 101 110
2010.0 110 115 118 113 116 111 117 107 110 102
2050.0 109 113 116 119 103 101 91 79 71 77
2090.0 74 82 92 93 95 91 99 93 96 98
2130.0 101 96 92 101 102 101 103 104 105 109
2170.0 108 108 110 110 108 108 113 114 117 111
2210.0 116 111 109 117 110 115 111 117 115 120
2250.0 121 114 113 113 118 116 116 115 118 110
2290.0 109 109 108 104 98 92 75 74 71 71
2330.0 71 86 97 80 158 99 71 71 104 165
2370.0 214 223 211 190 159 144 129 126 121 121
2410.0 121 124 120 122 125 123 124 122 124 118
2450.0 120 129 126 129 124 130 133 127 127 127
2490.0 134 128 134 126 132 132 137 129 131 132
2530.0 134 138 139 135 138 143 137 136 134 124
2570.0 129 131 133 131 140 144 152 156 162 168
2610.0 175 189 183 177 171 170 163 157 163 174
2650.0 179 177 180 169 160 152 157 161 164 186
2690.0 186 196 194 203 207 200 199 203 199 201
2730.0 210 214 232 230 239 229 224 229 222 229
2770.0 228 236 236 239 261 270 289 320 326 351
2810.0 371 400 424 460 524 568 622 714 849 1065
2850.0 1441 2036 2806 3582 4107 4219 3971 3628 3323 3043
2890.0 2718 2416 2320 2452 2753 3240 3912 4842 6076 7552
2930.0 8992 9917 10000 9434 8354 7189 6125 5559 5417 5626
2970.0 5646 4953 3795 2608 1869 1431 1159 962 819 707
3010.0 627 559 512 477 430 412 398 374 352 333
3050.0 324 295 290 279 267 270 267 266 243 262
3090.0 261 259 241 223 233 220 211 219 223 209
3130.0 225 209 220 234 232 236 236 227 217 214
3170.0 210 217 198 202 198 203 189 203 199 198
3210.0 205 204 195 209 202 206 180 185 179 169
3250.0 175 171 164 164 153 154 149 141 120 97
3290.0 107 100 115 118 122 119 125 122 123 115
3330.0 114 127 131 107 104 116 109 117 91 122
3370.0 111 122 123 105 107 88 97 81 79 119
3410.0 91 85 101 108 116 111 111 100 87 104
3450.0 122 92 96 86 103 101 92 94 121 99
3490.0 87 104 117 153 141 130 131 158 163 208
3530.0 195 198 232 243 328 336 315 460 688 1093
3570.0 2009 3464 4131 3603 2129 1041 676 461 321 257
3610.0 278 247 221 192 183 221 187 157 158 189
3650.0 237 234 161 160 172 192 203 190 169 119
3690.0 216 184 141 166 158 217 231 156 150 192
3730.0 148 203 252 194 214 261 197 190 173 163
3770.0 204 158 151 176 158 151 150 170 214 167
3810.0 172 134 199 184 191 155 154 216 222 193
3850.0 168 255 216 219 271 269 255 225 216 200
3890.0 182 192 217 215 213 151 171 190 179 199
3930.0 180 203 185 217 174 202 111 146 153 164
##END=
