##TITLE=Oleic Acid
##JCAMP-DX=4.24
##DATA TYPE=INFRARED SPECTRUM
##ORIGIN=Sadtler Research Labs Under US-EPA Contract
##OWNER=NIST Standard Reference Data Program
##CAS REGISTRY NO=112-80-1
##MOLFORM=C 18 H 34 O 2
##XUNITS=1/CM
##YUNITS=ABSORBANCE
##XFACTOR=1.0
##YFACTOR=0.000076511
##DELTAX=4.0
##FIRSTX=450.0
##LASTX=3966.0
##FIRSTY=0.022188
##MAXX=3966
##MINX=450
##MAXY=0.76511
##MINY=0
##NPOINTS=880
##XYDATA=(X++(Y..Y))
450.0 290 288 296 287 299 303 309 313 313 371
490.0 351 427 421 443 452 449 423 447 508 501
530.0 512 567 572 581 665 695 731 783 813 754
570.0 798 741 783 824 937 837 852 859 838 830
610.0 853 815 776 758 746 692 640 577 530 472
650.0 428 388 374 381 367 392 378 397 422 424
690.0 451 483 494 529 550 573 595 594 588 543
730.0 527 448 392 350 308 293 261 228 203 192
770.0 168 156 155 114 136 124 131 104 75 96
810.0 101 94 119 14 79 68 114 111 90 101
850.0 113 107 108 91 108 100 108 113 101 102
890.0 101 101 98 100 105 98 96 111 107 103
930.0 103 102 108 116 116 129 146 148 172 199
970.0 206 195 179 160 174 179 192 193 206 224
1010.0 226 245 265 276 293 316 324 337 377 456
1050.0 541 641 695 767 835 931 1044 1156 1245 1333
1090.0 1386 1450 1542 1654 1814 1979 2117 2211 2242 2195
1130.0 2081 1922 1721 1553 1429 1321 1227 1161 1101 1056
1170.0 1008 1026 1111 1344 1096 967 818 687 628 549
1210.0 503 484 456 431 413 399 393 386 392 386
1250.0 384 389 395 401 414 419 429 421 425 426
1290.0 410 415 420 427 422 420 419 410 407 415
1330.0 418 452 501 545 610 668 692 700 708 709
1370.0 733 733 750 754 713 659 582 524 490 453
1410.0 367 337 316 346 363 417 460 536 591 680
1450.0 758 849 962 973 896 735 550 377 276 201
1490.0 147 112 101 73 78 61 53 50 54 45
1530.0 37 42 35 48 29 36 39 34 53 31
1570.0 37 21 41 12 25 21 24 19 23 26
1610.0 23 23 34 30 27 44 35 58 57 81
1650.0 86 119 75 69 68 77 63 77 76 107
1690.0 98 100 128 156 159 183 219 269 318 399
1730.0 487 609 744 928 1137 1390 1677 2005 2416 2936
1770.0 3538 4134 4394 4127 3484 2814 2273 1844 1483 1159
1810.0 881 643 471 341 262 196 151 125 99 85
1850.0 69 61 59 53 42 37 38 35 27 27
1890.0 25 18 24 15 15 15 13 14 11 7
1930.0 10 14 8 11 6 11 11 10 17 8
1970.0 9 11 11 11 6 11 8 7 17 15
2010.0 18 15 23 17 18 12 25 16 11 12
2050.0 13 8 13 5 17 18 6 7 6 0
2090.0 0 1 6 7 6 6 9 14 9 13
2130.0 13 7 13 13 14 13 15 14 10 7
2170.0 19 21 14 21 20 14 22 20 16 18
2210.0 21 21 17 19 23 19 20 22 21 14
2250.0 20 23 18 14 18 13 16 20 19 23
2290.0 28 24 16 20 20 24 19 13 24 25
2330.0 13 19 18 25 39 30 5 7 29 47
2370.0 51 59 51 40 40 35 18 18 18 17
2410.0 18 18 18 13 10 16 12 16 19 12
2450.0 19 18 12 18 19 20 22 21 20 16
2490.0 19 20 14 14 20 21 26 21 29 34
2530.0 34 39 34 41 37 35 35 35 28 36
2570.0 35 37 36 42 40 42 54 53 56 61
2610.0 55 62 68 69 69 63 70 71 84 80
2650.0 67 84 83 77 84 76 97 90 84 95
2690.0 85 92 92 90 98 92 98 103 97 98
2730.0 104 99 100 111 126 123 114 121 132 128
2770.0 142 146 150 163 170 195 198 223 245 261
2810.0 293 326 356 402 438 512 602 716 890 1167
2850.0 1574 2178 2976 3683 3937 3658 3158 2720 2417 2218
2890.0 2102 2062 2180 2429 2816 3330 3957 4856 6045 7572
2930.0 9158 10000 9511 8293 6861 5577 4583 3915 3576 3393
2970.0 3117 2611 2025 1548 1219 991 863 799 844 959
3010.0 1173 1324 1231 983 704 503 385 314 255 226
3050.0 199 192 172 166 173 152 150 133 116 105
3090.0 100 99 100 96 91 72 73 78 74 75
3130.0 74 84 68 70 66 62 60 68 67 61
3170.0 54 57 47 50 54 48 52 50 46 46
3210.0 62 49 51 38 44 50 49 46 28 29
3250.0 39 26 27 34 45 32 32 27 27 27
3290.0 28 44 36 28 33 37 34 25 36 47
3330.0 28 22 22 29 27 20 30 33 29 52
3370.0 48 35 30 36 38 40 39 31 27 19
3410.0 25 37 27 53 49 38 18 25 21 35
3450.0 16 21 34 28 27 31 28 41 31 35
3490.0 35 26 30 34 42 44 68 67 69 81
3530.0 74 90 106 119 132 146 201 271 413 684
3570.0 1072 1575 1743 1305 787 500 315 225 153 117
3610.0 94 84 64 46 37 80 56 48 64 57
3650.0 95 81 57 47 46 72 62 62 34 35
3690.0 50 34 35 53 42 48 59 28 24 34
3730.0 18 49 36 41 55 41 33 31 15 11
3770.0 31 7 2 4 8 2 9 1 14 23
3810.0 13 3 33 1 0 5 20 40 23 18
3850.0 30 55 45 32 44 34 31 22 31 21
3890.0 12 29 25 19 20 18 20 29 35 34
3930.0 19 18 0 0 0 9 20 32 26 30
##END=
