##TITLE=2-Undecanone
##JCAMP-DX=4.24
##DATA TYPE=INFRARED SPECTRUM
##ORIGIN=Sadtler Research Labs Under US-EPA Contract
##OWNER=NIST Standard Reference Data Program
##CAS REGISTRY NO=112-12-9
##MOLFORM=C 11 H 22 O
##XUNITS=1/CM
##YUNITS=ABSORBANCE
##XFACTOR=1.0
##YFACTOR=0.000096512
##DELTAX=4.0
##FIRSTX=450.0
##LASTX=3966.0
##FIRSTY=0.021522
##MAXX=3966
##MINX=450
##MAXY=0.96512
##MINY=0
##NPOINTS=880
##XYDATA=(X++(Y..Y))
450.0 223 137 87 117 107 101 99 193 64 80
490.0 150 200 60 104 146 155 198 204 222 181
530.0 233 157 85 229 138 159 147 141 96 98
570.0 82 138 168 195 217 213 232 238 189 170
610.0 128 115 85 82 51 51 73 88 127 79
650.0 0 89 48 64 64 111 61 87 67 64
690.0 104 96 137 155 190 235 285 277 289 292
730.0 230 258 176 140 138 154 127 128 107 141
770.0 130 126 132 107 137 80 91 102 94 93
810.0 93 86 92 110 89 94 94 102 98 93
850.0 94 83 100 92 106 125 107 120 119 131
890.0 129 135 138 141 151 148 153 160 170 171
930.0 202 222 243 256 263 254 255 245 240 240
970.0 242 234 217 213 200 196 187 180 172 170
1010.0 167 157 153 139 139 134 141 134 137 142
1050.0 146 148 147 144 147 150 143 150 153 149
1090.0 150 151 161 173 204 217 248 266 277 291
1130.0 308 338 404 502 660 883 1149 1373 1433 1328
1170.0 1162 1031 920 822 750 696 659 635 621 619
1210.0 624 634 632 630 619 589 548 507 476 438
1250.0 427 397 384 376 380 381 393 402 397 396
1290.0 399 407 422 432 433 431 430 429 441 459
1330.0 496 552 649 777 958 1194 1513 1844 2032 1958
1370.0 1680 1343 1067 882 740 616 508 455 439 455
1410.0 498 556 593 615 618 603 602 630 675 736
1450.0 821 927 1025 1097 1064 962 791 597 448 324
1490.0 259 224 202 186 173 163 162 152 147 150
1530.0 147 138 128 129 123 125 118 111 109 114
1570.0 107 107 103 94 95 88 88 85 90 91
1610.0 87 90 81 91 84 93 90 92 97 89
1650.0 98 99 118 122 139 146 175 212 248 304
1690.0 377 470 563 719 882 1115 1415 1857 2430 3131
1730.0 3807 4095 3784 3035 2213 1579 1155 876 682 535
1770.0 416 317 265 209 179 143 125 106 100 92
1810.0 84 80 69 68 57 59 59 52 52 51
1850.0 51 50 49 43 49 47 51 47 48 49
1890.0 44 46 44 47 43 43 45 42 39 41
1930.0 37 39 41 38 42 44 39 36 41 39
1970.0 34 39 40 37 36 38 37 46 47 48
2010.0 54 53 58 64 63 60 62 57 58 54
2050.0 54 60 55 50 52 43 41 43 45 40
2090.0 43 49 49 45 44 41 44 46 43 50
2130.0 43 46 47 44 43 45 46 47 45 49
2170.0 41 43 38 40 45 46 43 46 43 43
2210.0 43 40 38 41 43 38 44 41 43 41
2250.0 38 37 37 37 37 36 42 42 43 40
2290.0 43 38 36 32 28 27 23 11 11 10
2330.0 8 16 8 13 29 11 8 8 8 21
2370.0 34 55 51 46 53 45 43 40 41 36
2410.0 42 42 43 38 38 39 38 42 44 44
2450.0 36 38 36 41 39 36 34 39 37 41
2490.0 46 46 44 52 49 50 52 51 58 61
2530.0 60 57 56 54 62 56 58 63 57 52
2570.0 50 48 51 53 58 59 63 59 67 63
2610.0 71 73 71 73 75 67 63 65 66 70
2650.0 72 78 95 93 88 94 101 102 112 108
2690.0 117 126 128 118 116 110 107 112 120 122
2730.0 125 132 135 141 144 141 138 145 144 148
2770.0 149 157 155 165 175 196 212 222 264 280
2810.0 297 332 359 401 441 485 529 608 744 969
2850.0 1371 2014 2870 3671 4048 3907 3453 2995 2720 2553
2890.0 2407 2334 2438 2670 2954 3362 3911 4759 5992 7593
2930.0 9211 10000 9713 8737 7375 6005 4960 4385 4274 4386
2970.0 4347 3711 2676 1774 1269 989 827 738 685 661
3010.0 646 614 550 482 420 385 339 314 298 276
3050.0 269 253 239 236 230 215 208 190 189 172
3090.0 170 150 152 152 141 130 116 121 118 106
3130.0 109 102 109 97 96 101 105 95 96 78
3170.0 92 95 79 84 86 96 84 74 85 74
3210.0 70 72 74 71 81 73 77 64 65 58
3250.0 69 72 67 60 50 42 59 49 43 52
3290.0 51 48 57 49 54 43 57 48 41 55
3330.0 47 45 31 44 59 47 38 45 61 44
3370.0 56 61 65 47 65 53 68 61 44 40
3410.0 59 59 53 58 66 71 84 90 103 99
3450.0 95 91 87 78 56 62 39 35 27 24
3490.0 31 30 22 18 17 17 26 28 27 19
3530.0 14 25 18 27 37 27 26 37 19 19
3570.0 9 33 20 38 27 18 21 34 31 41
3610.0 52 32 25 31 22 63 39 33 36 30
3650.0 28 44 38 38 42 33 51 37 51 27
3690.0 21 25 32 28 27 67 46 19 22 33
3730.0 27 23 19 18 24 21 18 20 22 23
3770.0 28 35 27 43 25 14 55 41 22 47
3810.0 8 46 56 53 37 46 41 20 20 11
3850.0 8 30 28 37 39 32 29 59 54 41
3890.0 8 20 31 59 30 57 9 35 8 17
3930.0 45 8 17 34 18 30 54 41 20 40
##END=
