##TITLE=Ethanol, 2-[2-(2-methoxyethoxy)ethoxy]-
##JCAMP-DX=4.24
##DATA TYPE=INFRARED SPECTRUM
##ORIGIN=Sadtler Research Labs Under US-EPA Contract
##OWNER=NIST Standard Reference Data Program
##CAS REGISTRY NO=112-35-6
##MOLFORM=C 7 H 16 O 4
##XUNITS=1/CM
##YUNITS=ABSORBANCE
##XFACTOR=1.0
##YFACTOR=0.000073129
##DELTAX=4.0
##FIRSTX=450.0
##LASTX=3966.0
##FIRSTY=0.004680
##MAXX=3966
##MINX=450
##MAXY=0.73129
##MINY=0
##NPOINTS=880
##XYDATA=(X++(Y..Y))
450.0 64 60 77 81 83 91 112 103 119 140
490.0 157 159 205 211 158 203 226 224 289 276
530.0 263 253 244 209 242 164 183 188 56 199
570.0 184 100 131 116 123 0 42 58 60 59
610.0 57 46 42 46 50 51 50 66 53 42
650.0 43 47 68 61 48 76 61 55 50 57
690.0 48 45 61 54 49 37 58 56 56 56
730.0 44 56 60 58 66 69 69 58 77 97
770.0 100 105 133 160 141 180 219 239 268 306
810.0 348 377 402 442 462 539 588 631 701 757
850.0 809 839 836 825 822 812 811 809 830 864
890.0 870 857 828 818 833 862 901 965 1005 1077
930.0 1106 1114 1088 1018 933 844 789 748 723 732
970.0 739 756 777 779 844 865 900 942 994 1072
1010.0 1180 1321 1499 1703 1909 2084 2233 2353 2509 2724
1050.0 3011 3348 3727 4115 4328 4310 4071 3761 3565 3572
1090.0 3744 4075 4556 5156 5976 7025 8125 9212 9829 9966
1130.0 10000 9558 9040 8243 7444 6638 5764 4864 4023 3269
1170.0 2704 2279 1996 1825 1762 1806 1908 2035 2089 2014
1210.0 1814 1563 1355 1201 1098 1048 1057 1111 1186 1257
1250.0 1319 1335 1311 1256 1206 1173 1168 1179 1211 1232
1290.0 1250 1225 1173 1082 985 882 824 808 845 887
1330.0 923 953 1039 1232 1549 1814 1908 1818 1610 1430
1370.0 1317 1217 1094 1014 967 948 942 927 896 838
1410.0 760 673 598 527 491 481 485 544 631 784
1450.0 985 1194 1362 1389 1319 1157 963 770 630 506
1490.0 412 328 262 202 182 148 131 117 113 97
1530.0 90 86 83 89 72 80 74 76 70 61
1570.0 68 60 65 55 51 49 51 48 51 49
1610.0 46 50 53 40 35 40 44 39 35 47
1650.0 27 61 32 42 40 44 33 39 38 42
1690.0 38 40 38 46 43 42 52 60 43 55
1730.0 62 75 79 104 122 127 138 117 97 85
1770.0 73 61 50 42 46 37 38 32 43 41
1810.0 40 40 39 31 31 22 19 20 17 24
1850.0 24 27 19 21 24 30 27 26 33 40
1890.0 42 41 52 60 60 65 72 79 84 100
1930.0 108 118 124 128 135 139 139 152 145 146
1970.0 146 145 140 137 133 116 118 107 105 99
2010.0 90 78 70 70 64 63 57 56 64 64
2050.0 53 50 54 55 62 69 75 82 89 89
2090.0 89 89 89 89 84 88 86 90 88 87
2130.0 95 88 93 93 94 86 83 88 80 72
2170.0 73 73 65 66 57 59 51 51 52 43
2210.0 48 45 43 44 41 43 42 37 43 43
2250.0 50 43 49 48 45 45 45 43 40 41
2290.0 41 42 43 41 44 49 48 50 42 47
2330.0 41 36 43 41 23 41 63 48 37 10
2370.0 11 14 13 12 16 22 23 17 28 29
2410.0 29 28 28 35 23 32 21 25 22 29
2450.0 20 21 20 20 19 20 20 19 19 19
2490.0 19 19 17 17 17 17 10 24 24 32
2530.0 32 31 40 32 33 39 33 34 41 42
2570.0 48 49 55 57 59 63 70 78 73 79
2610.0 74 78 80 87 94 93 101 104 107 116
2650.0 116 112 124 134 142 157 165 172 179 186
2690.0 204 217 252 272 292 314 340 361 376 391
2730.0 398 398 385 391 379 387 390 400 418 441
2770.0 464 500 535 576 619 676 733 818 914 1038
2810.0 1205 1421 1662 1932 2160 2318 2409 2493 2614 2843
2850.0 3204 3669 4252 4842 5374 5774 6043 6224 6264 6197
2890.0 6063 5855 5693 5485 5337 5164 5052 5003 5003 5113
2930.0 5191 5202 5100 4952 4738 4480 4259 4013 3726 3343
2970.0 2859 2333 1924 1659 1547 1510 1461 1303 1061 804
3010.0 606 457 364 308 256 226 207 194 164 157
3050.0 144 124 123 117 110 103 91 81 88 74
3090.0 73 67 61 54 46 40 40 33 18 25
3130.0 25 20 25 21 16 10 9 16 3 10
3170.0 15 10 10 10 5 17 17 12 18 18
3210.0 18 19 11 12 6 5 5 13 10 6
3250.0 10 6 6 16 21 14 22 27 29 26
3290.0 16 9 16 19 27 30 16 26 23 10
3330.0 23 24 23 30 25 28 24 17 26 31
3370.0 32 33 32 26 26 40 27 35 40 41
3410.0 44 47 56 52 56 62 68 62 61 77
3450.0 74 88 101 97 114 115 130 120 143 144
3490.0 144 165 173 201 223 243 271 290 327 352
3530.0 384 401 414 429 433 434 450 454 427 420
3570.0 419 391 382 367 347 343 335 342 352 366
3610.0 399 436 506 567 618 708 723 696 616 523
3650.0 443 369 343 320 310 310 279 270 239 221
3690.0 215 178 159 149 147 136 129 135 133 135
3730.0 129 135 125 137 145 135 140 130 128 144
3770.0 140 134 135 139 146 134 135 132 142 137
3810.0 134 131 124 123 129 138 133 135 134 133
3850.0 142 142 136 146 148 153 145 149 152 152
3890.0 159 169 173 164 166 168 174 169 160 151
3930.0 150 161 167 172 176 177 176 174 171 169
##END=
