##TITLE=10-Undecenal
##JCAMP-DX=4.24
##DATA TYPE=INFRARED SPECTRUM
##ORIGIN=Sadtler Research Labs Under US-EPA Contract
##OWNER=NIST Standard Reference Data Program
##CAS REGISTRY NO=112-45-8
##MOLFORM=C 11 H 20 O
##XUNITS=1/CM
##YUNITS=ABSORBANCE
##XFACTOR=1.0
##YFACTOR=0.000048575
##DELTAX=4.0
##FIRSTX=450.0
##LASTX=3966.0
##FIRSTY=0.003740
##MAXX=3966
##MINX=450
##MAXY=0.48575
##MINY=0
##NPOINTS=880
##XYDATA=(X++(Y..Y))
450.0 77 118 150 150 121 180 267 76 141 0
490.0 73 16 84 170 207 201 199 239 210 251
530.0 219 237 188 541 344 236 319 223 242 179
570.0 243 177 150 107 173 102 88 374 277 278
610.0 217 319 317 352 322 394 407 311 330 249
650.0 265 224 214 207 193 270 194 200 190 196
690.0 150 225 189 185 196 224 225 258 291 261
730.0 256 226 294 262 200 221 171 175 148 183
770.0 132 174 177 152 134 185 198 161 148 129
810.0 135 149 172 181 169 219 228 210 213 231
850.0 224 259 283 273 285 303 311 321 351 366
890.0 415 463 571 723 1017 1349 1563 1411 1066 774
930.0 597 505 427 424 384 372 362 373 380 377
970.0 395 396 471 536 644 766 778 746 653 577
1010.0 493 466 433 413 390 384 367 362 355 347
1050.0 361 338 348 347 365 372 391 408 433 444
1090.0 453 476 472 510 517 533 531 539 547 541
1130.0 549 532 506 466 464 437 416 390 382 365
1170.0 356 353 336 327 318 308 291 286 278 280
1210.0 267 249 255 233 236 228 229 229 239 230
1250.0 243 243 233 254 251 259 244 250 257 263
1290.0 272 280 300 304 309 306 315 306 305 301
1330.0 314 323 357 419 460 528 556 561 540 522
1370.0 496 460 414 413 415 452 428 397 368 355
1410.0 382 432 494 523 506 501 504 569 644 743
1450.0 827 893 965 939 830 693 529 367 250 190
1490.0 154 142 118 104 107 134 75 95 96 85
1530.0 72 84 91 95 92 69 81 85 93 61
1570.0 63 73 78 58 59 72 79 81 88 112
1610.0 121 143 164 204 238 333 461 629 738 720
1650.0 516 384 260 221 221 222 230 244 279 353
1690.0 403 543 780 1274 1844 1680 1209 1101 1185 1411
1730.0 1794 2401 3162 3661 3673 3126 2451 1973 1649 1479
1770.0 1403 1378 1323 1227 1039 854 703 579 497 403
1810.0 341 305 270 260 267 267 240 194 170 141
1850.0 117 93 88 79 84 81 79 64 50 55
1890.0 56 54 57 55 56 62 55 57 49 46
1930.0 48 44 47 50 53 49 49 45 53 48
1970.0 57 52 54 46 44 45 41 51 38 47
2010.0 40 35 28 32 30 36 26 29 33 26
2050.0 30 22 36 31 16 21 12 21 23 37
2090.0 45 41 36 40 40 35 35 37 45 35
2130.0 33 42 37 40 35 41 42 28 36 36
2170.0 40 38 33 35 37 30 35 37 37 41
2210.0 39 32 36 42 40 25 29 31 28 43
2250.0 38 39 44 45 42 39 52 52 63 64
2290.0 77 86 102 108 132 146 133 129 133 112
2330.0 105 65 56 83 18 98 137 91 61 58
2370.0 4 4 7 30 27 17 13 22 18 22
2410.0 15 17 15 8 16 10 14 9 15 7
2450.0 7 9 12 17 12 18 16 17 16 18
2490.0 19 27 37 22 12 20 21 17 29 17
2530.0 26 39 46 35 48 47 40 45 46 33
2570.0 28 35 32 41 48 47 63 67 69 73
2610.0 86 111 115 125 129 135 153 151 152 185
2650.0 199 234 249 276 304 323 344 384 438 509
2690.0 610 724 895 1121 1402 1600 1556 1314 1009 817
2730.0 684 585 538 510 490 462 449 441 446 427
2770.0 449 447 479 516 562 661 712 825 971 1099
2810.0 1215 1225 1119 988 872 824 838 891 1016 1227
2850.0 1593 2119 2863 3586 3911 3719 3143 2551 2123 1871
2890.0 1829 1923 2092 2363 2697 3158 3747 4513 5580 7029
2930.0 8729 10000 9992 8895 7195 5563 4178 3160 2405 1900
2970.0 1543 1329 1194 1109 1055 961 873 779 782 762
3010.0 701 592 520 420 384 345 307 285 261 271
3050.0 315 281 324 321 353 412 483 593 719 921
3090.0 835 652 438 262 192 194 152 138 137 128
3130.0 108 115 134 97 83 89 97 87 76 75
3170.0 74 64 76 58 48 85 55 73 62 53
3210.0 87 74 90 68 78 98 64 67 69 60
3250.0 75 43 86 38 46 52 67 59 54 43
3290.0 52 48 54 69 64 67 76 32 92 51
3330.0 32 63 31 56 59 58 7 44 40 74
3370.0 69 98 84 53 92 119 108 73 70 68
3410.0 59 73 84 94 91 90 77 100 84 93
3450.0 128 102 124 121 124 114 162 100 142 113
3490.0 120 54 60 102 86 110 113 106 109 103
3530.0 76 91 78 103 133 109 89 103 102 191
3570.0 265 389 441 360 274 208 147 152 132 148
3610.0 138 100 138 66 72 138 81 85 121 143
3650.0 167 102 169 150 135 175 117 153 109 93
3690.0 107 127 72 86 142 105 130 118 136 86
3730.0 88 66 65 126 103 138 150 118 96 99
3770.0 115 109 127 109 107 165 125 132 136 122
3810.0 121 158 156 105 114 109 105 83 109 141
3850.0 139 144 121 134 148 122 165 104 65 104
3890.0 138 134 80 129 158 148 92 127 122 88
3930.0 84 146 194 107 139 153 167 87 73 159
##END=
