##TITLE=1-Undecanol
##JCAMP-DX=4.24
##DATA TYPE=INFRARED SPECTRUM
##ORIGIN=Sadtler Research Labs Under US-EPA Contract
##OWNER=NIST Standard Reference Data Program
##CAS REGISTRY NO=112-42-5
##MOLFORM=C 11 H 24 O
##XUNITS=1/CM
##YUNITS=ABSORBANCE
##XFACTOR=1.0
##YFACTOR=0.000183517
##DELTAX=4.0
##FIRSTX=450.0
##LASTX=3966.0
##FIRSTY=0.006423
##MAXX=3966
##MINX=450
##MAXY=1.83517
##MINY=0
##NPOINTS=880
##XYDATA=(X++(Y..Y))
450.0 35 179 39 166 112 16 168 56 51 13
490.0 83 23 125 92 120 118 166 128 173 125
530.0 98 58 127 133 123 35 42 24 73 45
570.0 55 48 24 53 50 34 18 24 51 43
610.0 53 46 25 45 45 49 68 37 59 34
650.0 24 37 57 68 55 75 77 41 82 92
690.0 173 189 152 152 155 195 223 216 202 201
730.0 203 156 203 314 211 178 186 140 143 142
770.0 111 109 131 136 136 109 129 110 119 131
810.0 139 139 127 129 153 170 151 154 160 174
850.0 184 184 182 197 187 216 226 218 227 237
890.0 251 259 263 276 272 281 294 301 297 289
930.0 306 323 330 344 348 361 375 384 400 400
970.0 404 409 416 425 436 460 488 525 547 589
1010.0 629 671 716 792 875 974 1071 1149 1211 1257
1050.0 1285 1303 1273 1194 1088 971 880 777 677 575
1090.0 495 430 367 344 317 301 289 281 263 269
1130.0 271 271 266 265 259 242 236 228 226 228
1170.0 233 239 237 243 246 250 259 265 274 281
1210.0 289 294 293 291 291 291 291 285 283 276
1250.0 269 265 267 273 270 267 266 267 268 267
1290.0 264 267 273 281 281 275 263 249 243 242
1330.0 247 264 285 313 345 368 384 386 375 378
1370.0 392 417 449 492 524 496 442 374 312 271
1410.0 235 220 200 198 199 223 280 352 390 425
1450.0 511 598 690 764 759 699 603 471 363 273
1490.0 197 158 123 110 100 90 80 80 71 69
1530.0 62 65 64 64 63 57 65 55 63 53
1570.0 57 61 52 54 55 55 57 53 55 55
1610.0 54 49 55 50 47 55 50 50 48 43
1650.0 51 44 43 37 42 38 36 39 39 44
1690.0 40 46 52 50 44 42 47 44 42 41
1730.0 42 40 37 33 28 24 20 22 19 19
1770.0 16 18 15 12 13 13 5 9 3 12
1810.0 9 6 8 7 7 6 5 4 0 5
1850.0 4 4 2 0 3 1 4 3 1 1
1890.0 4 6 5 3 6 4 3 1 0 2
1930.0 1 3 5 3 4 1 4 6 5 5
1970.0 3 4 3 5 5 2 3 5 4 6
2010.0 5 6 5 9 15 15 15 17 17 16
2050.0 16 13 14 15 13 11 11 8 8 10
2090.0 10 8 8 5 7 6 8 8 9 9
2130.0 8 9 9 10 11 11 13 12 12 12
2170.0 11 12 15 16 14 13 14 13 12 14
2210.0 13 13 15 13 15 13 12 16 17 17
2250.0 16 13 13 14 17 17 15 15 15 13
2290.0 13 11 7 11 11 10 7 9 6 9
2330.0 15 22 26 15 8 18 14 15 12 29
2370.0 38 29 29 23 23 24 22 22 24 24
2410.0 21 22 23 23 23 20 19 22 20 18
2450.0 18 20 16 20 17 16 16 18 19 19
2490.0 19 19 19 20 22 22 23 26 28 30
2530.0 30 30 32 34 33 35 37 36 36 37
2570.0 39 43 43 44 48 51 53 55 55 56
2610.0 61 66 66 66 69 71 76 79 81 84
2650.0 86 90 96 100 104 110 114 120 121 122
2690.0 124 125 122 121 118 117 115 118 122 129
2730.0 134 142 146 154 156 160 161 162 165 169
2770.0 172 177 183 193 204 218 233 249 258 275
2810.0 296 320 352 390 432 489 555 647 787 1028
2850.0 1436 2089 2949 3758 4098 3924 3486 3076 2819 2607
2890.0 2382 2239 2268 2478 2811 3249 3803 4592 5839 7480
2930.0 9107 10000 9561 8466 6799 5197 4026 3376 3214 3286
2970.0 3191 2705 1927 1300 929 720 584 497 430 380
3010.0 341 305 271 249 233 216 196 179 165 148
3050.0 143 133 121 113 106 100 97 96 90 86
3090.0 80 73 76 70 61 59 58 57 57 53
3130.0 52 50 50 48 51 44 41 44 48 42
3170.0 42 39 40 42 38 41 35 30 29 28
3210.0 23 25 24 18 16 18 16 11 15 15
3250.0 19 15 8 11 11 10 14 15 11 7
3290.0 8 8 4 7 5 6 7 6 6 5
3330.0 5 6 10 12 10 6 10 7 11 9
3370.0 12 9 9 10 10 8 8 9 9 12
3410.0 13 9 11 13 13 18 20 11 15 16
3450.0 16 16 15 22 16 14 15 15 17 14
3490.0 18 17 16 13 16 15 14 17 14 15
3530.0 18 19 17 11 13 14 18 10 15 7
3570.0 12 15 23 23 23 16 32 20 33 25
3610.0 34 36 40 54 45 56 55 74 86 115
3650.0 153 217 259 313 338 358 362 309 249 180
3690.0 129 80 70 55 56 47 41 32 30 19
3730.0 17 21 20 30 19 37 21 26 21 27
3770.0 25 29 35 18 17 13 19 35 30 31
3810.0 23 20 28 32 37 31 38 35 31 38
3850.0 38 51 40 40 47 60 39 43 52 46
3890.0 44 39 30 22 22 33 30 31 34 37
3930.0 35 33 25 27 32 31 43 44 36 40
##END=
