##TITLE=9-Octadecenoic acid (Z)-, methyl ester
##JCAMP-DX=4.24
##DATA TYPE=INFRARED SPECTRUM
##ORIGIN=Sadtler Research Labs Under US-EPA Contract
##OWNER=NIST Standard Reference Data Program
##CAS REGISTRY NO=112-62-9
##MOLFORM=C 19 H 36 O 2
##XUNITS=1/CM
##YUNITS=ABSORBANCE
##XFACTOR=1.0
##YFACTOR=0.000085965
##DELTAX=4.0
##FIRSTX=450.0
##LASTX=3966.0
##FIRSTY=0.004900
##MAXX=3966
##MINX=450
##MAXY=0.85965
##MINY=0
##NPOINTS=880
##XYDATA=(X++(Y..Y))
450.0 57 75 82 78 74 55 56 60 51 74
490.0 28 45 72 35 33 21 2 21 60 28
530.0 84 111 80 68 77 27 54 57 61 59
570.0 62 89 139 133 193 96 94 107 109 115
610.0 84 84 92 82 55 78 66 64 66 70
650.0 71 82 67 82 56 163 132 148 183 208
690.0 235 260 298 317 345 371 387 389 379 348
730.0 318 269 246 223 176 172 167 155 149 129
770.0 125 109 92 51 82 94 94 80 85 127
810.0 121 135 160 257 165 167 156 174 189 185
850.0 178 182 178 163 156 160 149 140 135 111
890.0 105 94 90 58 67 60 61 53 50 37
930.0 46 45 44 51 63 69 76 100 124 140
970.0 151 154 167 170 187 222 240 274 319 371
1010.0 408 435 463 471 451 417 378 336 287 304
1050.0 288 300 346 351 362 369 386 411 446 463
1090.0 488 503 509 522 550 575 620 659 720 775
1130.0 859 974 1119 1280 1457 1613 1778 1936 2049 2186
1170.0 2257 2207 1996 1930 1706 1858 1880 1858 1816 1751
1210.0 1679 1632 1587 1555 1544 1561 1577 1593 1593 1575
1250.0 1523 1445 1344 1243 1132 1032 962 887 837 794
1290.0 765 743 732 731 736 730 720 703 690 672
1330.0 663 677 722 769 848 884 914 896 841 769
1370.0 672 588 507 443 391 334 309 311 339 350
1410.0 322 312 331 384 482 653 881 1132 1189 1098
1450.0 1049 1069 1118 1113 1021 845 656 478 353 271
1490.0 220 185 163 128 127 105 89 87 76 66
1530.0 54 65 65 69 57 53 60 64 66 47
1570.0 65 55 56 54 49 48 44 37 42 41
1610.0 32 38 48 42 42 44 53 61 61 79
1650.0 83 101 72 65 64 65 71 73 78 100
1690.0 102 125 147 182 207 251 317 411 508 641
1730.0 853 1102 1413 1768 2219 2759 3337 3752 3672 3118
1770.0 2478 1963 1516 1139 811 564 382 267 181 134
1810.0 93 75 52 42 31 26 20 17 9 16
1850.0 11 4 4 5 4 16 11 10 8 11
1890.0 8 0 5 1 4 0 0 0 4 0
1930.0 5 5 8 7 4 9 8 11 16 5
1970.0 16 16 16 21 21 27 26 33 32 39
2010.0 39 43 37 43 49 49 50 50 48 49
2050.0 49 49 48 43 42 44 37 32 36 36
2090.0 32 25 24 20 17 18 15 10 14 14
2130.0 8 8 8 9 3 8 13 6 12 7
2170.0 4 13 14 13 7 2 2 8 1 2
2210.0 3 4 5 1 1 7 2 7 6 6
2250.0 5 11 6 1 4 4 10 11 11 6
2290.0 9 10 8 10 13 16 15 14 11 21
2330.0 15 8 19 20 20 9 0 0 14 27
2370.0 35 30 39 35 15 19 21 14 15 9
2410.0 8 15 15 17 14 15 16 8 11 10
2450.0 9 16 15 15 15 16 16 18 22 14
2490.0 25 22 23 29 27 21 21 27 27 28
2530.0 29 33 33 33 30 34 34 33 33 40
2570.0 40 39 46 52 54 51 44 59 51 56
2610.0 52 52 52 58 57 64 66 69 71 78
2650.0 80 83 87 91 97 97 98 98 109 111
2690.0 110 104 102 96 92 104 97 105 99 99
2730.0 100 105 117 116 123 122 128 128 129 133
2770.0 144 145 156 162 168 193 210 237 246 271
2810.0 302 325 367 417 470 538 632 749 951 1239
2850.0 1644 2250 3015 3726 3950 3645 3119 2675 2397 2202
2890.0 2090 2083 2211 2468 2874 3368 4018 4863 6079 7613
2930.0 9190 10000 9614 8454 7027 5838 4961 4499 4268 3983
2970.0 3516 2896 2239 1737 1366 1166 1030 998 1020 1147
3010.0 1349 1462 1355 1092 816 627 498 414 352 301
3050.0 275 252 229 217 217 187 180 170 159 139
3090.0 136 123 117 110 94 93 93 71 65 60
3130.0 61 56 60 60 63 50 49 44 32 43
3170.0 37 28 21 18 28 24 24 26 23 25
3210.0 17 10 22 10 1 10 11 4 2 0
3250.0 0 4 4 0 0 0 0 5 0 1
3290.0 3 11 0 0 8 5 1 21 17 11
3330.0 6 11 12 15 6 19 17 17 15 19
3370.0 18 13 23 17 13 16 26 27 22 18
3410.0 23 19 19 36 31 13 19 18 24 31
3450.0 19 35 29 36 27 44 34 43 48 53
3490.0 54 54 59 59 46 45 48 65 45 37
3530.0 33 43 28 31 32 37 46 55 49 49
3570.0 68 81 71 67 72 64 67 66 83 66
3610.0 77 73 85 93 97 86 92 92 95 107
3650.0 123 124 112 115 113 110 123 137 116 125
3690.0 131 130 137 125 135 151 136 129 121 128
3730.0 122 137 142 145 149 134 133 126 128 110
3770.0 113 125 111 118 110 117 132 127 133 120
3810.0 110 126 116 114 115 108 108 107 110 118
3850.0 110 115 110 96 91 95 97 93 103 112
3890.0 100 116 101 99 104 100 112 111 101 86
3930.0 106 108 121 118 115 106 103 101 101 98
##END=
