##TITLE=Decane, 1-bromo-
##JCAMP-DX=4.24
##DATA TYPE=INFRARED SPECTRUM
##ORIGIN=Sadtler Research Labs Under US-EPA Contract
##OWNER=NIST Standard Reference Data Program
##CAS REGISTRY NO=112-29-8
##MOLFORM=C 10 H 21 Br
##XUNITS=1/CM
##YUNITS=ABSORBANCE
##XFACTOR=1.0
##YFACTOR=0.000158072
##DELTAX=4.0
##FIRSTX=450.0
##LASTX=3966.0
##FIRSTY=0.001107
##MAXX=3966
##MINX=450
##MAXY=1.58072
##MINY=0
##NPOINTS=880
##XYDATA=(X++(Y..Y))
450.0 7 91 109 111 5 82 35 64 88 20
490.0 134 55 73 53 80 53 87 64 63 61
530.0 92 67 95 62 67 135 94 87 160 322
570.0 331 297 187 158 155 105 87 54 76 59
610.0 57 64 71 82 73 103 111 151 196 284
650.0 360 407 374 261 144 112 85 65 65 53
690.0 59 68 76 110 123 148 196 230 249 270
730.0 254 246 229 210 203 192 168 157 156 149
770.0 70 75 131 103 69 96 78 41 64 118
810.0 98 46 56 106 66 81 69 64 86 68
850.0 90 69 87 85 92 82 92 82 89 94
890.0 102 104 97 89 75 82 76 77 75 76
930.0 70 69 75 67 82 79 70 96 82 49
970.0 66 55 54 85 65 68 59 72 46 122
1010.0 87 65 75 79 76 85 86 89 85 91
1050.0 91 79 83 76 76 75 74 70 64 56
1090.0 55 60 55 56 59 65 61 68 64 60
1130.0 64 59 58 54 62 58 61 61 65 68
1170.0 70 73 77 86 95 111 128 162 205 246
1210.0 299 350 396 425 444 426 421 442 495 562
1250.0 619 644 652 635 609 593 563 517 467 437
1290.0 409 401 390 375 353 317 281 243 217 194
1330.0 194 196 220 254 283 304 330 325 296 275
1370.0 269 262 257 269 260 210 153 128 111 106
1410.0 103 109 116 139 169 231 317 443 573 676
1450.0 705 763 874 957 936 856 668 475 318 216
1490.0 157 121 112 80 79 70 58 52 48 43
1530.0 40 35 36 38 31 25 27 31 40 21
1570.0 25 23 28 15 25 19 22 17 18 16
1610.0 13 15 18 15 17 14 15 22 12 20
1650.0 21 28 24 8 19 13 19 10 16 20
1690.0 16 10 22 19 17 12 10 17 16 12
1730.0 13 22 20 24 26 25 25 18 19 13
1770.0 14 15 12 6 12 5 12 8 7 9
1810.0 5 5 7 9 3 7 6 4 7 7
1850.0 9 3 2 3 6 5 7 3 7 5
1890.0 7 7 5 9 6 11 7 9 7 7
1930.0 6 4 5 5 6 6 3 3 9 6
1970.0 5 2 2 1 1 5 4 8 7 10
2010.0 12 11 13 16 14 17 19 19 21 17
2050.0 19 17 20 17 16 14 16 14 12 12
2090.0 11 10 6 8 8 6 7 7 7 5
2130.0 5 4 2 4 6 6 6 7 6 8
2170.0 5 6 8 8 6 10 8 8 6 9
2210.0 9 9 9 9 11 8 10 6 9 10
2250.0 10 8 7 9 8 10 6 10 8 5
2290.0 8 4 4 5 1 0 3 3 7 9
2330.0 8 6 1 3 2 0 0 0 0 2
2370.0 13 10 9 9 6 7 8 7 10 10
2410.0 12 13 11 10 11 11 11 12 9 10
2450.0 8 9 6 6 10 11 7 8 12 14
2490.0 11 12 14 15 18 18 19 16 21 21
2530.0 21 24 23 25 28 26 29 30 32 31
2570.0 31 31 36 38 37 35 37 36 37 40
2610.0 43 44 43 47 48 52 54 55 55 62
2650.0 66 69 73 77 82 85 92 93 99 103
2690.0 104 99 97 91 87 83 77 75 78 84
2730.0 85 87 90 98 99 94 98 93 93 94
2770.0 95 104 104 112 128 142 158 172 186 209
2810.0 224 250 275 310 353 411 476 581 740 981
2850.0 1360 1986 2888 3785 4172 3935 3351 2796 2478 2305
2890.0 2110 1988 2039 2227 2532 2930 3452 4251 5509 7312
2930.0 9147 10000 9681 8606 7076 5502 4270 3659 3670 4052
2970.0 4310 3799 2711 1792 1233 916 731 625 571 568
3010.0 618 654 593 449 324 259 225 198 181 158
3050.0 148 129 123 113 107 100 94 90 81 83
3090.0 76 76 71 64 65 63 59 52 55 57
3130.0 57 50 47 42 48 47 43 46 48 47
3170.0 48 44 45 43 36 39 38 33 34 32
3210.0 25 21 24 19 21 17 14 16 11 16
3250.0 14 15 12 17 20 25 15 23 14 8
3290.0 10 10 20 13 16 14 15 18 25 13
3330.0 22 13 12 21 13 14 15 27 15 23
3370.0 17 16 17 18 23 17 20 21 20 21
3410.0 17 14 24 25 19 21 11 14 16 14
3450.0 14 11 15 13 10 6 19 14 15 14
3490.0 8 8 8 0 12 10 4 11 12 6
3530.0 2 1 8 12 6 10 13 8 13 12
3570.0 9 18 17 8 13 13 19 17 11 10
3610.0 28 22 26 29 13 19 18 30 23 9
3650.0 13 25 25 23 18 23 28 28 35 18
3690.0 24 18 25 20 24 36 23 15 9 23
3730.0 21 20 37 10 40 24 37 29 23 27
3770.0 14 32 35 32 38 8 17 28 30 27
3810.0 38 27 10 36 43 30 32 15 29 40
3850.0 38 38 30 25 37 24 16 37 33 41
3890.0 46 54 31 35 26 32 51 36 21 27
3930.0 28 19 53 30 45 59 90 23 53 41
##END=
