##TITLE=Octadecanoic acid, methyl ester
##JCAMP-DX=4.24
##DATA TYPE=INFRARED SPECTRUM
##ORIGIN=Sadtler Research Labs Under US-EPA Contract
##OWNER=NIST Standard Reference Data Program
##CAS REGISTRY NO=112-61-8
##MOLFORM=C 19 H 38 O 2
##XUNITS=1/CM
##YUNITS=ABSORBANCE
##XFACTOR=1.0
##YFACTOR=0.000131863
##DELTAX=4.0
##FIRSTX=450.0
##LASTX=3966.0
##FIRSTY=0.039691
##MAXX=3966
##MINX=450
##MAXY=1.31863
##MINY=0
##NPOINTS=880
##XYDATA=(X++(Y..Y))
450.0 301 131 271 114 469 283 122 307 153 325
490.0 186 93 239 186 253 115 255 177 101 383
530.0 44 180 336 180 316 994 546 25 234 67
570.0 161 305 184 266 155 262 158 213 249 154
610.0 207 198 227 262 178 227 228 219 224 209
650.0 225 230 220 178 215 228 176 222 230 222
690.0 221 230 216 298 301 340 466 270 299 405
730.0 413 277 306 267 245 289 250 273 258 265
770.0 280 250 231 275 223 254 276 273 225 280
810.0 305 273 284 301 296 293 295 285 292 303
850.0 326 302 302 288 274 321 314 289 256 265
890.0 255 241 248 219 221 223 211 199 211 204
930.0 194 198 204 200 191 198 202 210 209 210
970.0 232 227 241 253 255 295 325 343 376 422
1010.0 450 491 511 499 485 465 457 430 422 424
1050.0 411 399 410 400 395 402 428 432 436 447
1090.0 461 487 526 534 550 595 632 662 667 677
1130.0 712 781 849 969 1089 1220 1351 1498 1631 1752
1170.0 1788 1795 1755 1628 1548 1486 1488 1472 1441 1407
1210.0 1352 1316 1283 1250 1255 1243 1243 1249 1255 1244
1250.0 1222 1172 1107 1037 912 877 813 747 708 688
1290.0 668 655 647 646 647 638 626 618 599 580
1330.0 576 589 634 675 726 780 812 816 773 722
1370.0 649 580 499 441 389 344 303 280 269 264
1410.0 282 301 329 369 436 537 692 868 939 899
1450.0 891 921 978 1008 950 816 655 487 376 315
1490.0 282 240 223 207 192 186 183 170 163 153
1530.0 161 160 161 146 145 136 141 144 141 141
1570.0 125 133 139 128 138 111 117 124 124 122
1610.0 128 131 133 129 137 123 122 116 124 127
1650.0 132 122 121 118 128 134 135 139 147 157
1690.0 149 181 194 225 239 267 322 392 456 583
1730.0 723 887 1130 1370 1691 2066 2459 2819 2801 2384
1770.0 1902 1507 1190 937 686 503 382 293 230 198
1810.0 175 160 145 132 121 117 115 110 105 105
1850.0 99 102 99 96 96 98 96 87 93 88
1890.0 96 85 89 95 90 85 94 85 90 90
1930.0 89 92 89 97 95 85 88 87 89 72
1970.0 99 85 89 81 85 89 84 84 86 88
2010.0 101 93 96 100 98 104 101 103 98 103
2050.0 100 97 95 94 89 89 88 88 81 79
2090.0 85 84 79 71 73 72 75 68 67 58
2130.0 61 56 60 51 53 54 50 52 49 55
2170.0 53 47 42 39 48 49 51 55 54 54
2210.0 52 53 51 45 43 49 50 46 47 48
2250.0 46 49 47 46 43 45 45 44 52 49
2290.0 58 63 68 76 77 81 85 82 81 73
2330.0 76 82 73 65 56 81 100 75 82 53
2370.0 41 33 31 40 36 27 25 22 23 23
2410.0 21 22 20 16 13 17 16 13 14 11
2450.0 12 11 8 9 6 7 5 4 1 2
2490.0 4 10 9 14 14 20 21 16 23 25
2530.0 23 23 30 26 28 28 27 21 17 13
2570.0 11 12 18 19 17 22 24 23 25 29
2610.0 30 35 35 36 34 39 42 37 44 46
2650.0 51 53 53 58 56 57 62 63 63 65
2690.0 62 63 65 63 60 59 62 55 52 55
2730.0 55 58 57 55 51 55 55 54 60 64
2770.0 66 73 82 91 108 116 131 153 170 194
2810.0 213 241 269 309 354 408 477 569 720 949
2850.0 1334 1969 2876 3683 3748 3208 2561 2068 1797 1647
2890.0 1556 1572 1715 1988 2386 2891 3500 4287 5499 7273
2930.0 9181 10000 9051 7494 5854 4530 3652 3183 2972 2751
2970.0 2414 1952 1468 1122 894 747 646 572 511 458
3010.0 410 376 348 319 303 284 263 237 211 184
3050.0 160 144 129 122 116 104 102 92 90 87
3090.0 88 87 80 79 84 78 81 73 62 66
3130.0 62 52 53 56 49 42 43 42 35 27
3170.0 33 29 22 26 29 20 30 29 27 21
3210.0 17 20 22 9 22 15 15 19 16 13
3250.0 18 14 8 10 18 14 20 12 14 21
3290.0 27 24 20 28 25 23 29 18 23 16
3330.0 23 24 37 35 31 22 26 13 23 29
3370.0 20 23 23 27 23 25 24 19 15 21
3410.0 22 22 15 17 17 10 11 21 18 14
3450.0 12 16 19 17 2 8 15 10 12 16
3490.0 17 23 29 22 13 14 10 18 21 22
3530.0 13 8 20 19 21 10 6 6 10 22
3570.0 13 11 27 12 28 11 15 22 9 13
3610.0 31 22 28 23 27 17 11 10 14 17
3650.0 9 11 10 10 14 29 10 15 15 20
3690.0 27 9 20 14 3 18 13 20 22 13
3730.0 25 31 15 0 16 12 3 0 8 7
3770.0 17 15 11 0 1 8 12 7 0 6
3810.0 2 20 12 0 0 9 1 0 0 0
3850.0 5 0 0 0 0 0 0 0 0 0
3890.0 0 0 0 0 0 0 0 0 0 3
3930.0 0 0 0 0 0 0 0 0 0 0
##END=
