##TITLE=Ethanol, 2-(2-ethoxyethoxy)-, acetate
##JCAMP-DX=4.24
##DATA TYPE=INFRARED SPECTRUM
##ORIGIN=Sadtler Research Labs Under US-EPA Contract
##OWNER=NIST Standard Reference Data Program
##CAS REGISTRY NO=112-15-2
##MOLFORM=C 8 H 16 O 4
##XUNITS=1/CM
##YUNITS=ABSORBANCE
##XFACTOR=1.0
##YFACTOR=0.000051074
##DELTAX=4.0
##FIRSTX=450.0
##LASTX=3966.0
##FIRSTY=0.001175
##MAXX=3966
##MINX=450
##MAXY=0.51074
##MINY=0
##NPOINTS=880
##XYDATA=(X++(Y..Y))
450.0 23 8 28 60 39 98 93 88 91 112
490.0 60 166 231 157 216 267 253 259 282 249
530.0 261 315 211 239 305 252 230 272 165 262
570.0 295 253 234 351 279 296 373 332 343 405
610.0 370 330 460 353 364 367 418 387 449 405
650.0 277 326 300 261 162 293 204 339 273 257
690.0 307 329 322 315 356 305 329 318 267 268
730.0 331 264 279 307 295 300 319 259 268 311
770.0 292 314 355 341 329 400 360 385 407 415
810.0 446 468 474 431 533 483 526 604 641 663
850.0 718 713 679 685 647 613 573 577 491 541
890.0 540 515 531 581 587 636 683 672 771 793
930.0 795 855 944 914 999 1070 1008 977 905 846
970.0 773 813 720 774 795 804 884 911 864 917
1010.0 930 941 1045 1168 1319 1522 1747 1876 2078 2290
1050.0 2471 2717 2987 3116 3068 2941 2602 2381 2239 2174
1090.0 2114 2250 2357 2607 3070 3477 4267 5059 5740 6189
1130.0 6493 6582 6298 5954 5311 4481 3904 3260 2683 2283
1170.0 1893 1634 1491 1350 1257 1237 1214 1236 1394 1686
1210.0 2081 2701 3748 5048 7126 9020 9778 10000 8430 6719
1250.0 5343 4214 3323 2795 2508 2273 2053 1944 1762 1674
1290.0 1563 1453 1335 1191 1051 916 859 758 757 754
1330.0 767 754 802 829 1010 1326 1495 1593 1726 1876
1370.0 2158 2394 2453 2292 2033 1779 1551 1385 1167 1035
1410.0 906 830 723 688 667 667 717 758 822 906
1450.0 987 1030 1061 1024 895 822 731 667 605 602
1490.0 551 522 466 412 400 384 353 322 352 315
1530.0 319 311 299 299 304 287 298 288 262 276
1570.0 288 271 261 281 251 259 258 265 260 280
1610.0 255 246 263 251 249 258 260 239 267 267
1650.0 266 276 279 266 284 288 279 297 292 288
1690.0 306 337 325 376 416 454 526 605 651 748
1730.0 867 979 1224 1568 2045 2757 3796 5092 6329 6665
1770.0 5830 4384 3266 2387 1777 1351 999 781 635 532
1810.0 450 397 337 303 299 260 243 241 239 216
1850.0 225 216 204 214 212 194 211 208 199 220
1890.0 201 192 201 209 195 202 204 202 201 197
1930.0 192 201 208 189 214 215 207 201 215 201
1970.0 200 211 196 201 201 198 200 206 187 196
2010.0 191 182 180 190 169 169 180 163 171 176
2050.0 165 164 173 165 162 169 161 159 177 168
2090.0 168 178 159 156 156 155 130 142 140 132
2130.0 139 128 127 127 136 104 136 123 123 128
2170.0 124 111 119 128 108 127 115 116 105 121
2210.0 90 102 101 94 96 110 107 97 105 85
2250.0 97 92 90 85 103 90 90 95 83 86
2290.0 106 95 85 113 92 106 106 111 101 159
2330.0 161 135 181 170 144 114 142 109 246 192
2370.0 135 110 104 57 58 46 36 53 54 54
2410.0 53 60 39 54 60 48 53 57 45 45
2450.0 54 44 52 52 51 40 61 35 48 48
2490.0 29 38 44 34 32 51 31 29 28 25
2530.0 13 39 26 23 32 27 28 39 39 19
2570.0 40 29 37 53 49 33 51 56 47 66
2610.0 61 61 63 72 33 55 52 50 59 65
2650.0 47 57 66 46 63 64 64 75 93 87
2690.0 104 131 131 145 159 173 174 204 197 215
2730.0 216 214 219 244 237 225 247 240 236 258
2770.0 265 254 306 317 337 359 365 380 432 460
2810.0 466 529 552 578 620 660 701 841 955 1143
2850.0 1410 1737 2086 2445 2786 2993 3138 3162 3028 2854
2890.0 2673 2429 2318 2199 2072 2023 1991 1906 1838 1834
2930.0 1806 1908 2013 2085 2158 2216 2165 2124 2080 1980
2970.0 1915 1956 2025 2090 2076 1809 1463 1134 868 658
3010.0 568 457 380 372 323 306 283 263 213 233
3050.0 183 174 205 170 148 155 155 119 145 114
3090.0 104 104 113 76 97 77 46 82 85 65
3130.0 55 79 42 77 54 37 46 72 40 52
3170.0 70 35 49 40 38 34 71 43 50 54
3210.0 26 22 64 33 16 59 31 34 33 37
3250.0 20 29 18 35 54 28 17 36 36 7
3290.0 40 21 34 44 56 20 44 32 10 39
3330.0 38 29 39 60 15 34 35 21 47 45
3370.0 2 31 63 3 35 40 38 19 58 30
3410.0 43 56 30 48 47 35 25 75 33 26
3450.0 28 43 15 60 23 35 67 51 44 58
3490.0 67 29 81 86 101 106 99 66 86 69
3530.0 44 67 63 40 52 61 28 53 50 43
3570.0 51 62 43 50 72 17 52 54 44 36
3610.0 55 31 55 46 16 23 45 37 33 55
3650.0 27 36 27 46 12 46 31 26 45 35
3690.0 28 39 39 19 50 29 30 33 48 30
3730.0 27 17 10 35 27 12 30 44 12 22
3770.0 14 14 15 27 18 34 21 8 24 15
3810.0 6 5 15 5 9 17 3 1 1 1
3850.0 0 20 1 7 1 1 1 1 1 1
3890.0 1 1 1 1 1 1 1 1 1 1
3930.0 1 1 1 1 1 1 1 1 1 1
##END=
