##TITLE=Octadecane, 1-bromo-
##JCAMP-DX=4.24
##DATA TYPE=INFRARED SPECTRUM
##ORIGIN=Sadtler Research Labs Under US-EPA Contract
##OWNER=NIST Standard Reference Data Program
##CAS REGISTRY NO=112-89-0
##MOLFORM=C 18 H 37 Br
##XUNITS=1/CM
##YUNITS=ABSORBANCE
##XFACTOR=1.0
##YFACTOR=0.000124631
##DELTAX=4.0
##FIRSTX=450.0
##LASTX=3966.0
##FIRSTY=0.007852
##MAXX=3966
##MINX=450
##MAXY=1.24631
##MINY=0
##NPOINTS=880
##XYDATA=(X++(Y..Y))
450.0 63 18 280 155 286 123 316 196 284 334
490.0 108 78 99 278 275 165 158 104 198 272
530.0 345 322 215 305 209 233 214 253 242 245
570.0 307 311 298 235 243 219 211 176 143 146
610.0 183 145 188 201 183 187 200 200 211 236
650.0 323 335 220 156 223 117 170 165 114 221
690.0 173 249 203 232 244 208 194 231 308 334
730.0 397 382 290 305 191 191 248 195 169 234
770.0 175 217 193 192 189 247 169 153 196 186
810.0 230 186 200 160 116 142 177 159 125 189
850.0 200 144 169 63 128 155 154 130 177 109
890.0 145 135 142 180 129 171 147 149 134 166
930.0 179 196 194 206 235 213 209 241 220 199
970.0 191 162 127 131 157 151 157 192 166 151
1010.0 147 177 171 173 217 194 166 148 167 169
1050.0 161 163 166 167 167 184 222 267 234 223
1090.0 176 175 163 150 167 129 97 122 141 128
1130.0 158 171 177 167 140 164 137 143 124 134
1170.0 149 118 128 138 141 157 146 224 193 203
1210.0 172 180 163 186 206 160 191 163 212 216
1250.0 246 261 296 308 321 299 281 286 290 291
1290.0 285 280 284 289 273 266 252 236 214 202
1330.0 201 216 243 279 301 336 348 338 308 293
1370.0 270 242 224 211 187 166 148 143 135 137
1410.0 145 131 152 152 178 216 247 315 418 511
1450.0 591 643 735 790 754 642 471 332 228 181
1490.0 146 125 98 83 81 71 85 68 68 67
1530.0 61 59 42 45 58 56 48 49 40 68
1570.0 60 63 72 80 92 83 76 74 57 54
1610.0 61 67 65 73 76 64 60 61 49 61
1650.0 30 40 43 60 61 67 65 63 67 55
1690.0 70 62 55 45 54 48 52 43 42 55
1730.0 43 46 40 46 52 49 46 45 47 44
1770.0 46 39 40 43 43 41 37 37 46 34
1810.0 36 39 33 35 36 34 36 30 35 25
1850.0 32 32 33 32 32 34 27 28 25 28
1890.0 26 23 25 25 27 25 27 26 24 24
1930.0 22 24 26 26 24 25 23 28 24 23
1970.0 23 21 22 24 21 18 22 25 25 22
2010.0 23 27 29 30 26 28 26 30 29 25
2050.0 27 27 25 23 25 24 23 22 23 21
2090.0 16 19 17 19 17 15 13 12 11 14
2130.0 10 10 13 12 13 10 12 10 7 10
2170.0 7 7 7 8 11 9 7 5 3 7
2210.0 9 7 6 7 7 7 6 7 7 11
2250.0 9 7 8 7 7 10 10 12 17 19
2290.0 26 28 34 33 35 35 33 31 29 23
2330.0 14 16 3 17 24 28 24 22 9 10
2370.0 10 18 24 30 25 17 12 13 14 15
2410.0 17 18 15 19 20 18 18 19 21 19
2450.0 20 22 21 24 26 25 24 28 28 28
2490.0 30 28 35 34 39 42 40 46 46 49
2530.0 50 50 54 55 56 59 59 59 61 59
2570.0 63 63 67 73 68 71 66 77 79 81
2610.0 84 85 90 95 101 97 101 104 100 110
2650.0 114 115 118 121 126 131 138 140 142 145
2690.0 145 141 138 138 136 136 135 136 133 138
2730.0 140 152 150 153 155 160 161 162 168 173
2770.0 176 178 186 193 207 224 238 259 271 290
2810.0 310 335 369 403 454 497 567 663 821 1059
2850.0 1456 2097 2996 3806 3854 3277 2598 2112 1845 1721
2890.0 1655 1681 1843 2111 2485 2960 3536 4333 5585 7379
2930.0 9270 10000 9096 7360 5622 4170 3163 2584 2342 2273
2970.0 2200 1867 1434 1084 849 700 604 538 501 484
3010.0 477 476 444 378 327 302 275 259 245 230
3050.0 223 212 204 198 200 188 184 182 180 176
3090.0 173 169 167 165 158 164 157 150 150 144
3130.0 150 147 140 139 137 134 131 133 122 123
3170.0 117 110 108 102 103 97 96 89 85 84
3210.0 74 70 73 66 60 58 50 54 49 42
3250.0 47 34 28 32 30 30 20 21 18 18
3290.0 15 12 11 6 7 4 3 3 4 6
3330.0 6 5 9 7 5 3 4 9 3 10
3370.0 1 0 6 7 3 9 4 2 11 13
3410.0 13 13 15 12 7 13 16 21 13 14
3450.0 5 14 19 17 5 9 12 9 15 9
3490.0 7 9 8 12 11 10 4 12 3 14
3530.0 12 10 4 4 8 10 7 19 12 10
3570.0 13 13 7 16 13 16 13 6 6 17
3610.0 7 12 14 2 19 4 15 26 27 8
3650.0 6 16 17 9 20 15 12 4 13 10
3690.0 9 17 17 15 6 8 7 20 15 24
3730.0 10 10 39 20 20 9 10 25 24 32
3770.0 29 22 27 18 32 31 9 28 21 23
3810.0 17 6 13 20 31 37 25 28 30 24
3850.0 30 9 12 31 28 23 22 30 35 8
3890.0 31 20 32 35 24 22 29 34 38 22
3930.0 34 33 39 6 24 30 7 15 32 31
##END=
