##TITLE=1,2-Dibutoxyethane
##JCAMP-DX=4.24
##DATA TYPE=INFRARED SPECTRUM
##ORIGIN=Sadtler Research Labs Under US-EPA Contract
##OWNER=NIST Standard Reference Data Program
##CAS REGISTRY NO=112-48-1
##MOLFORM=C 10 H 22 O 2
##XUNITS=1/CM
##YUNITS=ABSORBANCE
##XFACTOR=1.0
##YFACTOR=0.000071017
##DELTAX=4.0
##FIRSTX=450.0
##LASTX=3966.0
##FIRSTY=0.008025
##MAXX=3966
##MINX=450
##MAXY=0.71017
##MINY=0
##NPOINTS=880
##XYDATA=(X++(Y..Y))
450.0 113 111 83 79 70 85 96 106 168 227
490.0 266 307 284 284 311 262 209 171 117 117
530.0 85 101 337 294 244 179 218 243 244 226
570.0 147 154 109 100 89 161 147 135 142 158
610.0 159 144 143 105 87 47 35 27 30 27
650.0 66 69 88 99 134 171 92 95 94 98
690.0 79 87 97 115 112 131 133 169 147 144
730.0 186 213 219 202 187 178 169 164 146 158
770.0 182 159 195 198 189 189 193 167 204 194
810.0 238 249 265 293 337 379 400 396 378 362
850.0 335 319 283 298 293 305 318 367 404 447
890.0 480 499 532 533 546 493 432 390 349 346
930.0 353 361 409 446 517 572 624 673 710 750
970.0 784 824 865 867 858 829 800 786 790 825
1010.0 864 928 1010 1068 1118 1145 1140 1092 1054 1034
1050.0 1018 1020 1030 1075 1140 1212 1318 1489 1743 2127
1090.0 2631 3264 3999 4839 5772 6781 7819 8860 9682 10000
1130.0 9724 9011 8082 7034 5947 4950 4026 3222 2569 2043
1170.0 1639 1346 1112 949 814 711 647 577 553 527
1210.0 519 532 547 573 620 688 757 813 856 872
1250.0 882 862 848 841 813 808 793 801 810 828
1290.0 864 908 928 927 853 779 702 697 705 731
1330.0 734 737 787 852 1026 1317 1597 1718 1582 1348
1370.0 1169 1099 1088 1096 1072 988 891 763 647 543
1410.0 465 404 399 357 374 414 544 609 720 803
1450.0 918 1118 1221 1370 1375 1355 1262 1129 950 800
1490.0 623 495 373 320 260 222 206 176 131 116
1530.0 130 96 125 77 101 111 113 98 71 93
1570.0 79 94 52 83 78 91 95 106 108 112
1610.0 117 118 97 100 97 69 72 34 59 42
1650.0 66 0 62 68 78 64 98 67 108 59
1690.0 79 81 73 43 73 80 103 82 93 103
1730.0 125 121 120 133 165 138 131 138 120 117
1770.0 112 98 118 120 118 118 94 102 91 79
1810.0 80 82 76 74 68 75 88 77 85 67
1850.0 69 58 60 53 65 51 63 66 81 90
1890.0 97 100 105 105 101 96 94 88 100 92
1930.0 89 106 115 124 120 131 131 131 124 127
1970.0 119 102 111 108 111 120 117 120 122 122
2010.0 115 118 119 109 107 94 86 88 90 94
2050.0 92 99 115 115 114 114 106 106 107 100
2090.0 101 105 113 120 122 125 120 126 126 124
2130.0 105 104 90 83 82 77 76 88 82 94
2170.0 98 104 97 104 103 97 88 87 82 76
2210.0 92 86 90 96 98 101 94 88 79 73
2250.0 66 59 51 48 52 56 55 64 65 70
2290.0 82 81 86 87 78 80 85 87 90 91
2330.0 100 94 86 87 60 67 93 83 19 1
2370.0 1 1 1 5 22 44 69 75 82 82
2410.0 95 88 81 68 60 53 54 54 51 60
2450.0 53 52 46 52 46 38 39 31 27 28
2490.0 28 40 30 32 52 59 59 73 61 64
2530.0 58 48 37 34 34 34 38 49 54 63
2570.0 70 84 88 98 95 94 89 101 106 112
2610.0 120 131 140 154 147 155 147 145 147 139
2650.0 130 138 134 153 168 176 190 219 240 275
2690.0 289 319 335 354 357 375 384 404 439 461
2730.0 489 531 552 565 566 556 542 524 517 527
2770.0 553 585 627 675 741 798 869 932 987 1021
2810.0 1038 1064 1121 1198 1318 1495 1754 2110 2603 3240
2850.0 4066 4982 5921 6702 7370 7805 7926 7760 7447 6896
2890.0 6201 5454 4958 4783 4851 5100 5462 5822 6113 6334
2930.0 6720 7302 7951 8344 8287 7822 7247 7130 7593 8157
2970.0 8176 7030 5358 3692 2600 1908 1440 1128 898 743
3010.0 646 577 528 484 441 414 382 341 307 266
3050.0 243 222 207 181 187 188 190 182 168 157
3090.0 149 132 124 120 120 120 121 128 144 163
3130.0 167 172 176 173 158 142 131 111 110 110
3170.0 109 124 113 138 133 140 148 134 120 112
3210.0 98 98 83 86 95 104 115 131 141 143
3250.0 148 124 114 107 81 53 45 39 46 57
3290.0 76 82 77 89 113 90 98 86 60 68
3330.0 69 60 61 76 88 104 119 101 96 85
3370.0 79 73 44 31 35 46 44 50 56 76
3410.0 107 110 108 102 109 101 93 73 87 74
3450.0 87 87 86 87 100 112 100 86 85 57
3490.0 61 29 54 45 56 53 63 89 100 102
3530.0 123 107 129 100 92 96 66 76 58 70
3570.0 63 83 103 97 120 92 84 69 62 64
3610.0 58 49 71 73 101 101 102 134 148 132
3650.0 129 120 108 88 100 74 77 43 65 94
3690.0 80 85 104 111 94 85 77 75 68 69
3730.0 68 72 78 97 110 124 134 144 149 126
3770.0 115 94 91 68 67 61 69 68 78 84
3810.0 84 106 113 114 102 122 131 114 119 125
3850.0 144 162 166 177 192 196 189 172 145 131
3890.0 109 95 93 91 102 119 137 170 177 197
3930.0 229 226 219 203 210 204 191 188 203 217
##END=
