##TITLE=Hexane, 1,1'-oxybis-
##JCAMP-DX=4.24
##DATA TYPE=INFRARED SPECTRUM
##ORIGIN=Sadtler Research Labs Under US-EPA Contract
##OWNER=NIST Standard Reference Data Program
##CAS REGISTRY NO=112-58-3
##MOLFORM=C 12 H 26 O
##XUNITS=1/CM
##YUNITS=ABSORBANCE
##XFACTOR=1.0
##YFACTOR=0.000167667
##DELTAX=4.0
##FIRSTX=450.0
##LASTX=3966.0
##FIRSTY=0.013413
##MAXX=3966
##MINX=450
##MAXY=1.67667
##MINY=0
##NPOINTS=880
##XYDATA=(X++(Y..Y))
450.0 80 78 62 67 23 33 35 18 31 39
490.0 31 33 31 32 39 41 39 49 59 34
530.0 27 21 15 58 37 57 48 68 38 46
570.0 22 38 37 38 44 19 16 24 25 15
610.0 24 25 26 29 30 28 30 30 22 31
650.0 24 29 24 31 30 33 30 29 41 42
690.0 48 49 60 62 79 100 124 155 185 203
730.0 209 197 168 144 122 117 113 117 124 120
770.0 102 94 85 84 84 66 72 65 76 78
810.0 82 70 64 68 66 58 58 59 51 68
850.0 61 59 73 72 75 98 109 119 129 150
890.0 171 190 209 221 241 253 257 252 243 227
930.0 217 211 210 225 234 237 230 223 216 215
970.0 205 205 205 212 220 224 244 259 280 297
1010.0 322 350 374 408 447 486 511 526 524 513
1050.0 508 512 528 552 607 680 779 870 963 1089
1090.0 1311 1650 2150 2718 3262 3657 3855 4034 4256 4448
1130.0 4254 3785 3093 2381 1790 1407 1144 965 845 767
1170.0 711 645 581 516 467 441 427 418 419 418
1210.0 404 393 382 383 385 392 391 382 360 337
1250.0 319 312 315 327 343 355 359 358 355 350
1290.0 350 352 369 388 391 367 328 293 272 266
1330.0 276 310 366 454 571 705 845 956 1025 1064
1370.0 1101 1103 1048 928 761 565 417 332 289 268
1410.0 255 247 238 235 246 293 376 469 544 603
1450.0 688 809 949 1066 1150 1162 1046 829 622 469
1490.0 358 267 202 154 131 114 95 86 76 71
1530.0 62 62 53 52 46 46 41 41 44 39
1570.0 38 37 36 37 35 34 33 34 34 35
1610.0 35 35 33 32 29 32 30 32 31 29
1650.0 28 35 30 26 29 28 28 30 28 36
1690.0 35 36 40 40 40 44 49 56 66 82
1730.0 99 128 172 241 315 359 385 325 246 205
1770.0 180 172 163 155 139 121 100 79 64 53
1810.0 44 37 34 30 28 28 26 24 25 28
1850.0 27 27 28 26 27 26 28 26 27 25
1890.0 26 26 28 25 27 27 27 31 27 31
1930.0 32 32 33 32 32 34 34 34 36 34
1970.0 34 34 33 37 34 37 39 42 44 48
2010.0 51 53 58 62 65 69 70 67 65 62
2050.0 60 58 58 56 56 50 47 42 36 34
2090.0 37 37 39 43 45 45 45 48 46 47
2130.0 47 47 49 47 47 46 46 45 47 47
2170.0 45 45 44 43 43 38 39 39 39 40
2210.0 40 38 38 39 37 38 37 40 39 41
2250.0 39 41 43 42 42 42 44 42 39 39
2290.0 36 33 26 24 20 14 13 8 7 10
2330.0 16 19 26 29 45 21 3 3 21 63
2370.0 87 95 92 82 66 56 50 47 43 44
2410.0 46 45 42 42 46 44 46 45 43 42
2450.0 45 44 46 46 46 47 46 46 47 48
2490.0 48 50 54 48 53 51 48 46 47 48
2530.0 53 53 53 55 59 59 61 62 66 64
2570.0 70 67 69 76 76 83 84 89 93 93
2610.0 100 103 104 104 108 101 100 108 106 115
2650.0 119 119 121 122 130 142 157 167 175 181
2690.0 187 203 213 225 235 244 250 263 279 286
2730.0 303 322 332 338 345 328 323 318 318 328
2770.0 337 362 397 444 511 585 652 684 676 653
2810.0 632 632 666 719 794 909 1073 1301 1648 2130
2850.0 2821 3756 4930 6027 6827 6945 6367 5639 5016 4452
2890.0 3847 3338 3123 3220 3552 4034 4604 5247 5998 7006
2930.0 8303 9437 10000 9791 9388 8093 6954 6246 6372 6795
2970.0 6696 5805 4161 2745 1904 1419 1106 899 743 634
3010.0 550 487 434 393 350 324 306 281 263 237
3050.0 226 216 189 186 185 172 165 159 156 150
3090.0 143 139 139 131 135 118 128 118 122 121
3130.0 128 119 126 118 119 121 110 102 100 106
3170.0 98 99 96 99 102 101 112 102 92 87
3210.0 91 95 79 78 81 70 67 61 59 64
3250.0 66 66 60 47 49 42 39 30 36 47
3290.0 41 39 45 40 43 36 46 41 46 29
3330.0 47 46 52 34 46 28 41 18 8 32
3370.0 31 20 57 37 40 38 62 52 39 39
3410.0 38 34 28 37 29 30 43 30 27 25
3450.0 32 30 34 26 20 20 32 10 14 27
3490.0 16 34 32 35 27 18 30 25 13 9
3530.0 18 6 8 16 11 34 23 18 28 25
3570.0 31 67 60 56 41 36 17 18 24 22
3610.0 16 7 25 22 23 27 35 22 54 22
3650.0 30 24 34 36 39 35 50 47 20 27
3690.0 8 3 16 28 11 7 27 9 3 14
3730.0 32 18 22 22 25 24 48 7 19 18
3770.0 13 26 26 19 28 23 7 11 16 25
3810.0 33 13 19 32 23 19 44 30 13 8
3850.0 6 19 40 20 27 14 37 40 35 12
3890.0 18 25 31 25 3 12 33 12 19 6
3930.0 3 19 54 0 17 12 15 15 3 2
##END=
