##TITLE=1-Tetradecanol
##JCAMP-DX=4.24
##DATA TYPE=INFRARED SPECTRUM
##ORIGIN=Sadtler Research Labs Under US-EPA Contract
##OWNER=NIST Standard Reference Data Program
##CAS REGISTRY NO=112-72-1
##MOLFORM=C 14 H 30 O
##XUNITS=1/CM
##YUNITS=ABSORBANCE
##XFACTOR=1.0
##YFACTOR=0.000073047
##DELTAX=4.0
##FIRSTX=450.0
##LASTX=3966.0
##FIRSTY=0.018627
##MAXX=3966
##MINX=450
##MAXY=0.73047
##MINY=0
##NPOINTS=880
##XYDATA=(X++(Y..Y))
450.0 255 200 200 121 101 116 163 94 120 184
490.0 168 93 133 312 223 209 235 105 176 107
530.0 151 270 238 217 38 62 297 166 103 230
570.0 67 96 129 99 231 214 120 9 87 267
610.0 114 104 221 49 92 105 177 241 186 93
650.0 32 128 265 132 173 217 43 77 143 158
690.0 273 144 73 211 262 238 255 270 332 124
730.0 230 263 247 242 128 156 255 234 168 118
770.0 254 197 37 176 381 254 306 71 102 433
810.0 320 285 225 192 112 77 244 232 145 203
850.0 149 194 229 150 212 228 194 160 147 283
890.0 190 140 192 197 206 249 219 248 232 215
930.0 184 228 300 256 200 257 254 255 305 269
970.0 313 323 279 325 406 477 396 409 583 522
1010.0 612 763 732 964 811 670 1003 1094 1211 942
1050.0 918 1065 856 963 948 843 746 531 421 614
1090.0 626 469 410 391 450 330 330 318 242 235
1130.0 159 189 329 190 207 178 218 210 167 224
1170.0 246 182 218 186 239 265 217 215 218 214
1210.0 256 255 259 276 232 245 255 272 292 256
1250.0 275 293 345 348 306 310 241 189 258 271
1290.0 289 295 263 290 305 279 289 302 289 253
1330.0 238 306 335 358 388 371 420 411 386 400
1370.0 415 401 387 411 458 415 367 332 269 259
1410.0 231 203 246 231 209 223 268 362 392 463
1450.0 549 593 681 715 676 640 502 344 272 253
1490.0 227 165 148 167 116 143 120 119 124 86
1530.0 60 87 86 81 63 73 67 26 42 68
1570.0 52 83 30 33 63 63 56 50 50 34
1610.0 25 48 54 48 49 28 29 75 60 59
1650.0 67 60 66 66 91 110 87 85 88 87
1690.0 125 99 90 110 96 90 92 121 135 113
1730.0 135 116 154 176 157 148 134 112 101 95
1770.0 112 95 71 83 81 88 93 65 83 78
1810.0 56 65 78 76 65 48 59 62 65 72
1850.0 54 66 61 39 61 73 66 45 39 59
1890.0 64 60 66 52 57 52 36 64 70 54
1930.0 48 45 59 55 51 62 48 61 42 47
1970.0 75 67 46 46 53 60 56 55 67 53
2010.0 52 52 56 84 70 51 64 62 62 59
2050.0 74 77 49 54 63 59 75 54 41 61
2090.0 52 48 57 60 56 41 42 52 56 65
2130.0 45 38 57 41 45 57 55 53 38 46
2170.0 61 53 62 41 40 60 45 48 68 49
2210.0 47 33 49 60 46 51 32 37 57 36
2250.0 46 63 40 31 35 46 57 48 48 42
2290.0 54 67 47 76 92 69 68 71 99 107
2330.0 80 78 73 77 85 72 127 152 36 67
2370.0 75 73 67 57 46 42 34 42 40 54
2410.0 38 7 37 46 46 42 35 36 34 24
2450.0 37 30 44 30 3 34 40 31 34 30
2490.0 30 26 29 36 37 38 23 12 53 47
2530.0 31 53 36 37 42 35 50 45 45 31
2570.0 31 66 49 33 62 48 40 44 55 72
2610.0 61 52 58 59 85 71 60 94 75 72
2650.0 82 100 113 96 91 99 112 133 111 123
2690.0 134 109 111 137 143 140 124 117 134 133
2730.0 140 133 142 152 123 131 165 165 154 152
2770.0 156 174 182 188 202 216 240 229 272 317
2810.0 315 330 366 403 460 508 590 688 830 1072
2850.0 1457 2131 2986 3633 3786 3447 2960 2594 2364 2207
2890.0 2083 2026 2136 2383 2801 3285 3834 4688 5902 7623
2930.0 9356 10000 9489 7980 6097 4652 3615 3048 2791 2605
2970.0 2442 2030 1490 1117 843 676 555 449 392 363
3010.0 336 284 218 233 208 175 192 177 143 133
3050.0 102 122 129 116 86 64 105 83 69 110
3090.0 91 75 63 60 81 95 68 55 58 76
3130.0 54 52 100 67 48 49 54 82 76 35
3170.0 49 51 57 43 57 90 33 28 43 42
3210.0 68 52 29 43 36 42 43 54 77 16
3250.0 12 64 42 64 38 29 50 43 37 49
3290.0 68 69 5 35 56 58 58 46 28 56
3330.0 36 39 71 69 47 3 47 80 37 61
3370.0 48 36 64 50 60 77 75 46 31 78
3410.0 88 35 71 60 49 77 51 79 90 62
3450.0 43 27 86 89 45 82 69 37 77 66
3490.0 72 111 42 54 61 86 78 53 93 67
3530.0 31 69 74 78 99 56 60 81 96 81
3570.0 68 89 63 38 97 94 91 93 46 83
3610.0 113 90 86 100 109 81 86 149 135 145
3650.0 160 181 238 283 274 289 278 249 175 142
3690.0 169 133 107 88 73 94 85 72 88 86
3730.0 63 45 60 89 46 31 53 41 61 66
3770.0 41 70 56 29 33 54 71 42 17 48
3810.0 34 47 47 42 67 41 9 44 62 58
3850.0 28 14 47 41 54 54 48 48 22 10
3890.0 53 81 70 38 47 51 24 33 48 41
3930.0 49 16 14 62 73 51 0 3 3 3
##END=
