##TITLE=2-Butoxyethyl acetate
##JCAMP-DX=4.24
##DATA TYPE=INFRARED SPECTRUM
##ORIGIN=Sadtler Research Labs Under US-EPA Contract
##OWNER=NIST Standard Reference Data Program
##CAS REGISTRY NO=112-07-2
##MOLFORM=C 8 H 16 O 3
##XUNITS=1/CM
##YUNITS=ABSORBANCE
##XFACTOR=1.0
##YFACTOR=0.000075766
##DELTAX=4.0
##FIRSTX=450.0
##LASTX=3966.0
##FIRSTY=0.000000
##MAXX=3966
##MINX=450
##MAXY=0.75766
##MINY=0
##NPOINTS=880
##XYDATA=(X++(Y..Y))
450.0 0 173 226 216 205 154 210 227 270 218
490.0 244 256 146 193 253 267 205 226 193 251
530.0 177 180 245 291 174 222 192 215 211 225
570.0 179 179 100 96 96 229 235 242 300 293
610.0 321 300 256 231 228 297 271 250 323 293
650.0 245 202 147 183 145 128 123 146 119 117
690.0 113 114 109 104 111 113 128 131 126 125
730.0 138 155 134 171 155 167 157 159 139 140
770.0 160 145 158 159 176 182 196 211 219 244
810.0 257 266 273 292 304 351 358 361 385 389
850.0 399 380 390 361 359 345 333 337 342 356
890.0 375 390 387 374 374 382 387 401 429 458
930.0 483 489 502 504 522 526 529 539 560 577
970.0 604 634 658 673 666 669 676 706 734 753
1010.0 777 810 895 991 1118 1240 1389 1528 1693 1876
1050.0 2061 2238 2394 2518 2499 2368 2113 1866 1671 1560
1090.0 1528 1538 1601 1704 1845 1992 2184 2452 2815 3261
1130.0 3772 4237 4443 4233 3561 2727 2007 1520 1209 987
1170.0 834 737 679 647 653 678 750 889 1098 1402
1210.0 1871 2552 3564 5111 7081 9039 10000 9767 8443 6739
1250.0 5250 4029 3158 2552 2183 1936 1739 1563 1411 1264
1290.0 1131 1017 905 797 682 597 515 469 441 416
1330.0 416 434 465 487 547 693 956 1253 1511 1709
1370.0 1825 1965 2078 2118 2053 1828 1436 1060 777 630
1410.0 548 504 485 464 477 504 566 621 672 719
1450.0 770 837 900 917 884 822 740 656 577 509
1490.0 446 375 336 304 296 284 267 261 254 240
1530.0 231 223 212 228 214 206 198 208 198 187
1570.0 192 188 178 181 170 166 162 167 162 164
1610.0 163 163 164 167 171 165 175 184 192 192
1650.0 207 201 211 206 210 197 209 200 218 225
1690.0 221 235 256 283 300 349 395 476 542 618
1730.0 736 892 1144 1459 2033 2724 3862 5287 6484 6661
1770.0 5900 4461 3255 2443 1791 1330 1001 782 609 493
1810.0 409 350 297 275 243 227 208 200 195 185
1850.0 182 174 176 174 172 174 175 174 171 168
1890.0 164 168 165 165 161 162 162 163 160 150
1930.0 154 151 152 156 153 159 152 150 148 148
1970.0 141 149 143 145 142 144 148 146 154 154
2010.0 156 160 162 167 166 172 166 173 178 184
2050.0 179 182 180 174 178 168 164 170 166 166
2090.0 171 174 175 166 162 158 154 149 143 142
2130.0 138 138 133 129 129 126 129 131 125 128
2170.0 131 131 129 130 129 132 128 132 128 131
2210.0 130 129 134 127 123 122 126 122 123 126
2250.0 125 121 123 122 125 123 123 126 121 116
2290.0 112 108 103 105 97 99 98 97 101 119
2330.0 105 112 127 120 131 110 107 106 125 140
2370.0 154 136 148 126 117 119 120 118 119 115
2410.0 121 119 115 113 109 114 118 115 117 121
2450.0 121 122 127 122 126 128 123 121 122 124
2490.0 119 118 121 119 119 115 113 112 108 111
2530.0 109 108 107 112 110 110 117 116 116 115
2570.0 113 116 124 121 122 126 131 137 142 133
2610.0 140 142 140 132 123 129 122 120 122 133
2650.0 134 143 136 136 136 127 132 135 143 157
2690.0 170 169 195 201 209 216 223 222 234 239
2730.0 240 251 263 275 272 273 268 259 264 270
2770.0 270 278 288 294 304 323 348 366 389 411
2810.0 433 455 473 486 511 543 592 671 796 976
2850.0 1213 1486 1786 2083 2343 2566 2707 2759 2739 2617
2890.0 2409 2129 1902 1783 1749 1777 1844 1950 2039 2148
2930.0 2293 2481 2747 3017 3183 3221 3168 3161 3289 3487
2970.0 3528 3227 2668 2057 1568 1268 1053 882 744 617
3010.0 524 461 411 371 353 330 315 307 282 282
3050.0 268 253 246 244 229 229 220 225 218 211
3090.0 200 183 177 183 170 163 162 166 154 149
3130.0 142 140 149 138 135 126 130 129 133 144
3170.0 132 131 127 128 121 119 130 128 130 118
3210.0 119 123 125 129 130 122 113 124 115 109
3250.0 116 126 108 122 116 117 130 114 103 111
3290.0 110 123 126 108 103 116 122 111 111 119
3330.0 127 116 112 122 93 114 115 101 105 100
3370.0 119 122 122 106 116 121 115 117 122 114
3410.0 118 115 110 127 123 123 119 109 117 121
3450.0 117 97 117 135 127 133 126 127 116 144
3490.0 139 143 152 154 173 170 179 153 154 145
3530.0 117 138 129 123 122 115 113 128 129 116
3570.0 112 123 134 140 123 127 124 120 126 122
3610.0 143 116 128 130 113 122 143 113 131 116
3650.0 138 100 113 115 119 127 130 155 118 97
3690.0 96 105 152 109 122 136 118 117 111 123
3730.0 105 105 128 119 120 130 127 120 110 136
3770.0 109 127 122 137 111 135 122 103 122 93
3810.0 113 118 139 129 109 122 103 148 156 135
3850.0 110 92 120 108 92 95 122 106 131 142
3890.0 140 115 101 143 101 95 122 123 139 113
3930.0 92 134 124 97 108 100 118 174 167 90
##END=
