##TITLE=1-Dodecene
##JCAMP-DX=4.24
##DATA TYPE=INFRARED SPECTRUM
##ORIGIN=Sadtler Research Labs Under US-EPA Contract
##OWNER=NIST Standard Reference Data Program
##CAS REGISTRY NO=112-41-4
##MOLFORM=C 12 H 24
##XUNITS=1/CM
##YUNITS=ABSORBANCE
##XFACTOR=1.0
##YFACTOR=0.000128165
##DELTAX=4.0
##FIRSTX=450.0
##LASTX=3966.0
##FIRSTY=0.000000
##MAXX=3966
##MINX=450
##MAXY=1.28165
##MINY=0
##NPOINTS=880
##XYDATA=(X++(Y..Y))
450.0 0 629 1164 859 852 686 859 912 791 795
490.0 779 752 781 784 778 851 766 777 762 764
530.0 806 753 780 839 816 766 867 827 868 731
570.0 736 818 778 728 750 813 790 795 763 806
610.0 808 814 807 855 801 847 875 842 826 784
650.0 792 783 797 759 761 762 768 785 754 761
690.0 758 781 770 783 794 805 832 851 883 878
730.0 877 828 834 799 836 771 810 800 808 806
770.0 719 624 762 752 777 746 758 728 753 784
810.0 717 751 769 777 785 796 738 746 755 761
850.0 762 776 778 780 786 792 811 824 833 852
890.0 876 921 989 1100 1295 1551 1676 1524 1260 1074
930.0 975 920 883 854 865 839 845 837 853 844
970.0 861 848 892 928 983 1057 1099 1068 998 929
1010.0 885 850 834 826 808 802 785 788 774 771
1050.0 766 762 755 755 761 752 753 748 752 752
1090.0 748 747 746 743 740 739 736 739 737 739
1130.0 741 738 735 732 729 726 728 722 724 721
1170.0 729 729 723 730 724 725 727 734 726 726
1210.0 728 727 730 723 727 729 730 731 733 730
1250.0 731 737 737 742 750 746 751 757 764 772
1290.0 782 795 799 811 814 811 798 798 791 782
1330.0 785 795 829 848 869 893 903 894 887 863
1370.0 861 855 856 864 859 832 799 785 772 786
1410.0 789 802 815 817 826 837 873 919 1023 1105
1450.0 1192 1233 1308 1359 1350 1280 1148 1014 907 820
1490.0 779 745 733 716 699 705 707 685 692 690
1530.0 694 683 683 665 692 682 679 650 658 673
1570.0 667 661 666 672 675 675 682 669 685 684
1610.0 698 688 713 726 753 779 846 936 1045 1028
1650.0 931 773 745 714 692 682 678 672 685 657
1690.0 686 682 680 679 715 747 775 762 718 698
1730.0 679 676 661 677 673 666 655 664 650 657
1770.0 656 650 658 646 657 648 647 652 657 649
1810.0 662 664 676 691 708 726 713 693 674 660
1850.0 656 650 646 646 639 634 643 634 635 636
1890.0 635 635 641 634 637 635 635 631 634 630
1930.0 629 632 630 633 626 629 630 634 634 634
1970.0 637 640 634 639 636 637 638 634 634 634
2010.0 634 637 634 635 637 639 641 640 634 634
2050.0 636 637 633 633 635 634 628 631 630 627
2090.0 630 629 631 630 630 630 628 624 622 625
2130.0 626 622 622 619 621 619 623 617 620 621
2170.0 621 620 622 620 619 622 618 618 623 620
2210.0 619 622 621 619 617 619 624 618 621 618
2250.0 619 618 620 621 621 619 621 620 623 625
2290.0 621 622 624 627 622 622 618 613 618 616
2330.0 628 623 625 627 634 619 600 593 619 642
2370.0 649 655 641 635 629 618 613 611 609 609
2410.0 612 607 607 607 610 605 602 602 602 606
2450.0 610 605 604 607 605 607 603 604 602 605
2490.0 603 604 604 607 607 606 609 610 612 613
2530.0 614 616 615 612 616 615 613 617 619 618
2570.0 618 615 615 616 618 618 619 621 624 629
2610.0 625 630 631 633 632 635 634 642 644 643
2650.0 648 654 651 651 652 659 666 669 669 672
2690.0 673 674 669 663 666 670 669 666 669 672
2730.0 666 673 680 683 685 685 682 682 680 685
2770.0 691 689 693 702 714 722 738 758 773 782
2810.0 797 815 843 878 917 963 1025 1115 1244 1469
2850.0 1854 2458 3252 3946 4189 3908 3375 2897 2592 2432
2890.0 2282 2200 2271 2484 2808 3231 3772 4547 5746 7381
2930.0 9135 10000 9478 8045 6380 4824 3756 3269 3232 3421
2970.0 3467 3121 2485 1966 1687 1502 1363 1265 1210 1190
3010.0 1147 1065 992 932 885 852 830 811 797 783
3050.0 782 788 797 807 838 874 912 971 1080 1186
3090.0 1182 1034 876 788 734 707 697 681 674 667
3130.0 665 654 652 651 654 650 646 647 638 641
3170.0 641 639 636 642 639 641 634 633 633 639
3210.0 633 631 629 623 624 627 631 627 625 615
3250.0 620 622 618 623 615 620 619 620 624 624
3290.0 626 623 626 623 621 621 619 617 615 631
3330.0 624 625 618 624 622 622 621 626 626 634
3370.0 631 621 618 618 615 613 620 612 612 620
3410.0 616 618 607 621 617 611 611 612 618 625
3450.0 608 609 616 615 618 612 620 613 616 619
3490.0 606 602 616 620 631 614 609 621 612 633
3530.0 626 622 623 612 632 627 613 625 619 631
3570.0 622 618 614 601 617 631 620 631 620 628
3610.0 614 636 632 637 628 621 635 631 619 622
3650.0 627 631 630 621 618 609 628 625 632 616
3690.0 612 618 610 615 616 602 642 627 625 620
3730.0 602 601 619 615 596 607 617 621 619 603
3770.0 630 635 622 606 615 595 596 589 586 601
3810.0 607 614 587 600 603 625 586 596 624 604
3850.0 593 586 645 619 618 618 594 621 606 606
3890.0 619 613 601 606 615 602 605 604 602 586
3930.0 586 587 586 634 584 593 613 602 598 620
##END=
