##TITLE=1-Dodecanol
##JCAMP-DX=4.24
##DATA TYPE=INFRARED SPECTRUM
##ORIGIN=Sadtler Research Labs Under US-EPA Contract
##OWNER=NIST Standard Reference Data Program
##CAS REGISTRY NO=112-53-8
##MOLFORM=C 12 H 26 O
##XUNITS=1/CM
##YUNITS=ABSORBANCE
##XFACTOR=1.0
##YFACTOR=0.000053906
##DELTAX=4.0
##FIRSTX=450.0
##LASTX=3966.0
##FIRSTY=0.004151
##MAXX=3966
##MINX=450
##MAXY=0.53906
##MINY=0
##NPOINTS=880
##XYDATA=(X++(Y..Y))
450.0 77 58 29 41 69 43 53 40 17 38
490.0 54 40 48 41 21 61 37 25 30 38
530.0 52 32 53 24 23 39 21 31 14 20
570.0 19 22 17 15 27 28 51 17 16 44
610.0 21 21 31 46 38 25 16 23 22 22
650.0 21 21 21 21 23 59 24 58 64 75
690.0 56 78 63 91 124 130 158 160 150 149
730.0 157 120 89 132 93 102 88 97 79 86
770.0 77 69 68 78 96 57 49 64 75 69
810.0 64 78 69 79 68 69 88 78 88 87
850.0 101 92 92 119 103 107 124 123 105 115
890.0 132 145 131 143 156 160 155 161 161 150
930.0 160 169 161 170 179 198 197 198 228 245
970.0 243 250 266 289 304 315 343 380 411 448
1010.0 492 550 613 684 773 864 942 999 1041 1068
1050.0 1069 1074 1020 938 844 753 678 598 520 440
1090.0 394 337 299 270 252 232 204 201 193 184
1130.0 175 172 161 169 161 161 162 171 171 171
1170.0 170 170 178 176 180 180 180 189 199 207
1210.0 208 208 216 227 227 226 236 235 235 245
1250.0 245 244 236 245 244 245 246 253 253 253
1290.0 253 263 263 273 273 273 263 255 245 246
1330.0 247 266 298 326 354 378 398 393 384 380
1370.0 391 391 421 458 472 440 390 337 289 252
1410.0 231 201 194 181 200 210 249 280 355 442
1450.0 508 602 659 752 733 666 535 432 337 252
1490.0 178 153 116 109 70 67 75 59 39 56
1530.0 57 38 38 13 32 47 34 19 21 39
1570.0 32 41 27 49 49 48 48 48 46 50
1610.0 39 41 24 30 31 37 33 20 31 30
1650.0 31 2 36 29 29 29 30 30 31 8
1690.0 29 29 10 2 28 38 36 17 32 36
1730.0 37 19 27 34 35 27 36 36 24 33
1770.0 26 25 36 36 22 28 25 24 24 34
1810.0 33 24 24 23 23 23 22 21 26 23
1850.0 21 23 22 21 21 21 21 21 21 20
1890.0 20 20 18 22 20 20 19 20 18 18
1930.0 18 19 19 19 17 16 20 18 25 18
1970.0 27 17 26 17 25 25 26 26 24 24
2010.0 24 24 24 34 24 32 32 32 32 32
2050.0 32 32 32 32 22 22 21 22 21 21
2090.0 21 21 21 14 16 18 16 19 11 20
2130.0 11 19 20 18 18 18 19 19 19 17
2170.0 17 17 18 18 18 17 17 17 17 17
2210.0 17 15 15 15 16 16 16 14 15 15
2250.0 14 14 14 14 14 13 13 13 13 13
2290.0 13 21 13 21 21 21 23 29 29 29
2330.0 40 36 35 37 29 29 28 29 34 41
2370.0 35 29 17 17 11 9 8 10 8 7
2410.0 7 7 17 17 5 17 5 10 7 7
2450.0 5 5 5 5 5 5 5 5 5 4
2490.0 4 4 4 3 3 3 12 12 12 12
2530.0 12 19 13 12 11 16 16 21 22 22
2570.0 22 22 22 33 21 32 32 32 39 38
2610.0 41 41 41 42 50 50 51 53 59 61
2650.0 60 70 70 77 79 87 87 87 97 98
2690.0 98 97 97 93 89 89 95 97 97 97
2730.0 106 107 116 126 125 132 136 135 135 141
2770.0 142 154 161 170 180 198 217 228 243 262
2810.0 286 308 346 384 429 484 558 652 813 1055
2850.0 1458 2111 2979 3781 4046 3765 3279 2889 2631 2443
2890.0 2272 2177 2240 2477 2845 3319 3922 4735 5991 7659
2930.0 9016 10000 9326 8106 6570 5059 3931 3316 3098 3026
2970.0 2880 2403 1749 1231 905 699 571 477 410 355
3010.0 308 270 242 217 198 181 157 149 133 122
3050.0 113 95 94 86 76 76 74 69 58 58
3090.0 58 52 50 50 40 41 40 40 39 32
3130.0 32 32 32 32 32 32 32 24 23 32
3170.0 24 24 23 23 25 24 20 23 15 16
3210.0 6 6 6 7 7 7 7 7 7 7
3250.0 7 7 7 7 7 7 8 8 8 8
3290.0 8 7 7 7 7 7 7 7 9 9
3330.0 8 8 8 8 8 9 9 9 9 9
3370.0 9 9 9 10 10 10 10 10 10 10
3410.0 9 9 9 9 9 9 9 10 10 10
3450.0 10 10 10 10 11 11 11 11 11 11
3490.0 10 12 12 12 12 12 12 12 11 11
3530.0 11 11 11 11 12 12 12 12 12 9
3570.0 8 12 12 12 12 13 13 13 12 23
3610.0 13 13 21 22 37 30 54 65 75 104
3650.0 113 168 215 261 280 272 262 223 180 141
3690.0 92 70 61 51 43 33 25 25 25 15
3730.0 15 16 16 16 6 7 15 15 15 15
3770.0 25 27 26 15 26 26 26 16 16 17
3810.0 25 26 17 16 27 27 15 17 22 26
3850.0 21 18 18 17 17 17 18 27 27 24
3890.0 29 27 23 19 18 18 28 28 28 28
3930.0 28 28 28 29 29 31 0 2 2 2
##END=
