##TITLE=Dodecane
##JCAMP-DX=4.24
##DATA TYPE=INFRARED SPECTRUM
##ORIGIN=Sadtler Research Labs Under US-EPA Contract
##OWNER=NIST Standard Reference Data Program
##CAS REGISTRY NO=112-40-3
##MOLFORM=C 12 H 26
##XUNITS=1/CM
##YUNITS=ABSORBANCE
##XFACTOR=1.0
##YFACTOR=0.000095425
##DELTAX=4.0
##FIRSTX=450.0
##LASTX=3966.0
##FIRSTY=0.003817
##MAXX=3966
##MINX=450
##MAXY=0.95425
##MINY=0
##NPOINTS=880
##XYDATA=(X++(Y..Y))
450.0 40 29 25 30 35 38 51 52 55 58
490.0 56 51 46 50 34 44 37 42 37 36
530.0 43 43 43 48 40 35 32 26 37 39
570.0 33 44 49 54 52 43 24 43 41 48
610.0 43 47 47 33 32 12 46 31 17 12
650.0 53 42 44 39 29 40 53 47 37 48
690.0 60 66 69 89 113 147 162 171 165 149
730.0 142 117 114 106 100 95 86 85 83 83
770.0 77 76 75 58 55 53 52 57 42 45
810.0 57 40 41 51 40 61 46 46 57 43
850.0 42 48 49 45 42 60 58 70 60 60
890.0 65 70 64 57 64 60 54 51 53 52
930.0 53 49 48 53 52 49 47 55 52 49
970.0 50 43 46 36 52 42 42 41 37 46
1010.0 47 42 48 51 51 51 45 51 50 46
1050.0 50 50 47 49 56 49 54 60 56 56
1090.0 55 55 48 43 43 43 39 39 39 40
1130.0 48 44 41 38 38 38 38 37 38 38
1170.0 39 41 41 39 42 42 41 41 37 46
1210.0 47 46 41 45 51 50 53 54 54 59
1250.0 61 64 65 65 76 76 80 81 91 96
1290.0 104 111 124 131 141 133 126 116 110 106
1330.0 112 132 155 184 199 216 219 214 207 207
1370.0 207 208 228 266 258 212 153 128 105 94
1410.0 93 93 94 102 108 123 146 199 259 347
1450.0 437 537 649 741 765 714 594 444 300 207
1490.0 144 120 98 84 73 66 58 54 50 50
1530.0 39 38 33 34 34 29 29 25 29 26
1570.0 30 23 27 22 26 23 22 22 22 25
1610.0 22 22 21 21 23 21 26 21 20 21
1650.0 21 22 20 20 20 21 21 19 21 20
1690.0 20 19 21 20 20 20 20 19 19 19
1730.0 19 20 20 18 18 14 18 19 19 18
1770.0 15 11 18 18 18 17 17 17 13 11
1810.0 17 16 15 16 11 17 16 13 18 15
1850.0 11 16 11 11 16 10 11 15 15 15
1890.0 8 12 10 13 10 15 15 9 15 14
1930.0 10 11 14 14 11 10 13 8 9 14
1970.0 8 9 13 13 13 13 13 13 13 13
2010.0 11 13 18 17 22 22 21 25 22 21
2050.0 19 22 19 21 17 17 17 10 11 11
2090.0 6 10 10 10 10 10 10 10 10 5
2130.0 10 9 9 9 9 9 9 9 9 9
2170.0 9 9 9 9 9 9 9 9 8 8
2210.0 12 11 10 9 13 8 8 9 8 9
2250.0 7 9 7 8 10 9 9 10 12 13
2290.0 13 14 9 8 9 9 3 3 3 0
2330.0 4 0 0 9 0 0 0 0 0 4
2370.0 15 26 27 23 18 15 17 21 21 16
2410.0 21 17 21 21 17 21 18 17 16 15
2450.0 16 16 15 21 20 16 20 21 21 14
2490.0 21 21 21 25 20 25 25 30 26 24
2530.0 31 31 33 35 38 36 37 35 35 40
2570.0 40 35 34 40 39 45 45 51 44 50
2610.0 50 50 54 50 54 54 55 57 53 60
2650.0 62 64 66 68 69 80 91 85 90 89
2690.0 94 89 81 82 80 80 79 79 79 80
2730.0 90 95 106 115 117 110 108 105 102 103
2770.0 104 109 120 125 131 152 163 178 187 210
2810.0 224 246 274 298 336 382 440 513 636 851
2850.0 1235 1889 2751 3499 3768 3500 3026 2579 2379 2223
2890.0 2014 1838 1839 2031 2337 2762 3312 4146 5480 7476
2930.0 9319 10000 8949 7561 5849 4447 3551 3285 3562 4066
2970.0 4233 3608 2504 1617 1106 821 653 541 461 402
3010.0 345 310 281 253 227 218 199 181 171 155
3050.0 140 128 128 112 102 107 98 92 93 90
3090.0 87 74 82 77 67 67 66 66 63 66
3130.0 64 65 62 61 64 66 56 56 57 56
3170.0 56 52 51 51 49 53 54 49 48 51
3210.0 41 40 41 41 36 29 29 36 26 31
3250.0 27 29 29 25 20 19 15 29 14 15
3290.0 27 24 25 22 18 26 14 19 25 19
3330.0 19 25 19 25 25 22 20 16 19 23
3370.0 15 20 24 13 25 18 15 26 15 20
3410.0 24 21 14 24 23 19 12 13 14 17
3450.0 13 19 15 17 16 9 7 5 11 15
3490.0 5 11 10 1 4 9 12 8 15 8
3530.0 14 18 14 8 3 6 13 18 19 12
3570.0 16 21 7 13 9 15 16 20 26 20
3610.0 22 20 25 26 28 30 27 19 23 16
3650.0 22 23 28 25 21 14 21 20 25 21
3690.0 27 20 21 24 28 21 19 21 19 23
3730.0 27 25 25 25 25 23 30 30 23 28
3770.0 33 25 15 24 22 22 21 19 22 28
3810.0 27 28 30 35 29 17 24 29 28 26
3850.0 24 34 37 32 30 18 19 24 26 25
3890.0 21 21 20 21 22 20 17 26 26 25
3930.0 25 25 24 29 29 21 28 24 21 25
##END=
