##TITLE=1-Hexadecanamine, N,N-dimethyl-
##JCAMP-DX=4.24
##DATA TYPE=INFRARED SPECTRUM
##ORIGIN=Sadtler Research Labs Under US-EPA Contract
##OWNER=NIST Standard Reference Data Program
##CAS REGISTRY NO=112-69-6
##MOLFORM=C 18 H 39 N
##XUNITS=1/CM
##YUNITS=ABSORBANCE
##XFACTOR=1.0
##YFACTOR=0.000174918
##DELTAX=4.0
##FIRSTX=450.0
##LASTX=3966.0
##FIRSTY=0.076789
##MAXX=3966
##MINX=450
##MAXY=1.74918
##MINY=0
##NPOINTS=880
##XYDATA=(X++(Y..Y))
450.0 439 219 95 100 128 159 114 166 113 101
490.0 9 14 133 254 182 55 40 94 158 157
530.0 123 116 105 85 101 78 155 134 88 46
570.0 65 100 128 115 78 94 74 73 93 79
610.0 101 65 57 55 104 123 100 102 81 54
650.0 53 68 60 95 94 115 83 89 83 61
690.0 52 116 146 131 165 206 219 230 250 217
730.0 203 156 177 139 144 135 145 141 117 118
770.0 130 140 118 138 128 122 111 99 106 98
810.0 140 136 158 144 133 147 160 168 158 144
850.0 140 129 126 126 121 87 89 91 83 89
890.0 80 79 84 75 89 88 93 87 82 85
930.0 83 92 90 90 84 88 92 98 102 110
970.0 112 121 133 130 136 142 146 162 165 206
1010.0 230 237 263 275 330 353 375 426 466 472
1050.0 472 409 382 371 356 325 291 237 237 198
1090.0 187 204 201 192 166 191 182 165 149 156
1130.0 160 158 186 191 225 235 235 239 226 214
1170.0 216 201 192 163 162 161 151 162 152 161
1210.0 163 159 168 176 173 180 180 189 201 217
1250.0 231 251 280 308 331 333 312 308 283 279
1290.0 269 267 275 279 276 273 245 228 210 197
1330.0 199 204 231 264 295 335 365 356 352 357
1370.0 370 368 363 332 280 222 168 155 139 129
1410.0 136 130 134 147 169 216 269 353 454 590
1450.0 726 836 976 1090 1074 924 758 504 368 287
1490.0 222 174 138 121 101 91 89 62 67 62
1530.0 49 60 37 47 44 38 42 27 30 30
1570.0 33 33 29 37 33 33 30 32 34 31
1610.0 32 26 34 28 33 29 31 29 31 27
1650.0 22 27 28 31 30 26 28 31 35 35
1690.0 34 42 46 55 70 83 74 56 48 46
1730.0 43 44 40 45 49 51 55 54 54 56
1770.0 54 52 57 52 46 36 29 31 25 22
1810.0 19 14 17 18 11 14 13 11 10 11
1850.0 13 11 12 13 13 10 14 11 9 10
1890.0 9 8 11 9 10 8 7 5 6 6
1930.0 4 7 6 7 6 5 5 8 8 5
1970.0 7 7 4 5 7 7 9 9 8 11
2010.0 10 11 13 13 14 14 15 14 16 14
2050.0 14 12 12 11 13 11 11 13 10 12
2090.0 9 9 10 8 8 7 8 7 5 4
2130.0 4 4 4 4 5 6 6 6 5 4
2170.0 3 4 5 3 7 4 4 2 2 2
2210.0 3 1 2 2 0 3 2 0 2 5
2250.0 3 4 3 2 2 5 6 4 3 6
2290.0 4 4 5 6 5 5 8 7 7 3
2330.0 4 3 2 0 2 4 4 9 12 1
2370.0 0 1 0 6 7 8 7 10 13 13
2410.0 12 12 11 13 14 11 12 12 14 12
2450.0 11 11 9 11 14 11 15 17 18 20
2490.0 22 24 26 28 29 30 29 31 32 34
2530.0 32 35 35 36 34 36 35 35 34 38
2570.0 38 40 42 44 49 51 53 54 56 60
2610.0 61 63 68 70 73 77 80 85 91 96
2650.0 103 109 116 122 129 137 144 155 162 168
2690.0 175 184 194 205 223 249 274 301 326 349
2730.0 375 397 423 448 488 543 627 753 942 1209
2770.0 1494 1637 1570 1459 1405 1383 1310 1169 1022 930
2810.0 914 972 1099 1207 1179 1046 960 947 1023 1211
2850.0 1578 2239 3215 4022 4040 3438 2757 2258 1998 1867
2890.0 1791 1808 1962 2238 2640 3091 3635 4376 5552 7332
2930.0 9261 10000 9380 7744 6247 4876 3858 3196 2862 2745
2970.0 2644 2393 1999 1633 1308 978 715 547 438 366
3010.0 313 275 243 220 199 179 166 155 139 129
3050.0 119 113 106 100 92 88 83 78 77 72
3090.0 72 63 60 57 56 54 48 51 49 45
3130.0 43 41 43 41 40 38 41 39 43 40
3170.0 34 31 33 37 34 34 32 31 28 28
3210.0 24 23 22 17 18 15 11 11 12 10
3250.0 15 12 8 6 7 8 8 3 6 4
3290.0 7 5 7 5 1 5 2 7 7 4
3330.0 7 2 6 9 7 12 11 12 8 4
3370.0 3 8 10 13 8 8 4 11 8 9
3410.0 7 8 7 11 7 9 7 1 9 14
3450.0 9 10 15 7 10 8 6 6 5 3
3490.0 4 5 6 9 2 7 3 0 4 6
3530.0 6 8 4 2 9 8 10 6 5 8
3570.0 15 14 17 18 13 13 6 16 6 8
3610.0 7 9 16 21 20 15 12 11 24 21
3650.0 14 12 18 15 18 18 15 14 11 18
3690.0 9 10 16 18 19 17 5 6 12 19
3730.0 17 12 3 17 19 10 13 8 9 15
3770.0 10 8 15 8 7 24 12 2 16 19
3810.0 14 16 11 0 13 16 16 14 8 12
3850.0 9 16 5 15 27 16 10 0 13 5
3890.0 20 16 28 13 8 12 0 0 25 11
3930.0 8 13 8 13 13 22 9 4 21 19
##END=
