##TITLE=1-Octadecene
##JCAMP-DX=4.24
##DATA TYPE=INFRARED SPECTRUM
##ORIGIN=Sadtler Research Labs Under US-EPA Contract
##OWNER=NIST Standard Reference Data Program
##CAS REGISTRY NO=112-88-9
##MOLFORM=C 18 H 36
##XUNITS=1/CM
##YUNITS=ABSORBANCE
##XFACTOR=1.0
##YFACTOR=0.000118552
##DELTAX=4.0
##FIRSTX=450.0
##LASTX=3966.0
##FIRSTY=0.030112
##MAXX=3966
##MINX=450
##MAXY=1.18552
##MINY=0
##NPOINTS=880
##XYDATA=(X++(Y..Y))
450.0 254 97 130 60 105 12 54 20 93 39
490.0 54 40 72 85 14 86 22 27 42 71
530.0 66 0 73 90 71 37 67 38 83 65
570.0 104 44 49 54 92 87 6 92 67 62
610.0 65 55 86 102 132 122 113 64 71 71
650.0 102 80 49 75 57 31 37 30 19 67
690.0 80 62 83 97 128 138 151 156 155 159
730.0 118 150 216 161 119 117 99 112 89 92
770.0 76 91 68 61 79 37 58 50 74 42
810.0 61 57 62 59 62 69 58 69 61 68
850.0 65 80 84 75 113 99 111 112 144 163
890.0 212 230 256 293 367 476 521 449 332 254
930.0 195 169 153 133 129 119 119 112 118 112
970.0 115 127 140 160 190 222 228 219 174 154
1010.0 132 112 108 90 87 73 82 72 72 65
1050.0 69 64 60 65 65 66 59 62 57 66
1090.0 54 56 53 54 52 43 49 45 48 43
1130.0 45 40 37 40 38 40 38 47 35 47
1170.0 45 45 47 45 51 47 53 50 55 50
1210.0 54 50 51 54 56 57 53 63 61 69
1250.0 68 72 71 76 81 83 94 95 107 108
1290.0 120 137 145 152 161 156 148 148 136 137
1330.0 140 156 179 205 238 263 272 254 242 220
1370.0 202 182 165 165 150 130 115 106 103 110
1410.0 107 117 131 135 149 171 213 267 354 438
1450.0 515 582 654 694 658 560 426 301 213 161
1490.0 129 105 91 76 65 60 56 52 49 45
1530.0 44 44 43 43 37 36 32 41 38 33
1570.0 37 35 37 38 40 35 40 39 40 43
1610.0 47 53 66 79 97 130 165 220 247 222
1650.0 156 109 80 55 45 40 36 35 32 30
1690.0 27 29 33 34 31 33 34 35 27 27
1730.0 25 29 25 23 20 22 22 21 24 24
1770.0 24 28 24 29 25 31 27 30 31 32
1810.0 33 40 42 51 61 58 56 43 41 32
1850.0 27 27 25 20 21 23 18 19 19 20
1890.0 18 20 21 17 15 16 21 18 17 16
1930.0 19 14 15 17 12 17 16 20 19 18
1970.0 16 17 19 14 17 12 12 9 12 10
2010.0 11 9 9 11 13 17 15 18 23 25
2050.0 28 25 23 23 25 23 31 35 33 31
2090.0 32 28 25 24 22 21 20 24 20 18
2130.0 22 20 16 17 21 20 20 20 17 16
2170.0 17 22 19 17 19 20 16 21 20 20
2210.0 19 15 18 19 22 19 21 17 20 18
2250.0 18 21 19 20 20 20 21 25 25 28
2290.0 28 31 29 32 35 34 41 40 52 32
2330.0 29 29 11 22 11 21 33 28 6 6
2370.0 6 6 6 6 7 9 13 12 13 16
2410.0 12 11 11 12 9 12 11 6 8 6
2450.0 9 6 12 9 8 9 7 11 9 6
2490.0 9 10 9 14 14 7 11 11 17 13
2530.0 17 16 16 17 21 18 24 19 16 14
2570.0 15 14 15 19 15 14 17 16 16 12
2610.0 19 21 25 26 31 39 40 43 45 50
2650.0 59 66 69 78 84 91 87 92 93 90
2690.0 87 85 82 74 69 65 65 61 64 66
2730.0 64 68 69 74 72 76 77 80 84 92
2770.0 92 90 99 107 126 134 152 168 191 204
2810.0 221 255 282 323 367 416 494 590 748 987
2850.0 1389 2043 2910 3605 3593 3065 2473 2020 1779 1653
2890.0 1593 1615 1772 2063 2466 2979 3570 4426 5711 7480
2930.0 9337 10000 8957 7120 5351 3904 2915 2395 2201 2144
2970.0 2011 1698 1321 1029 844 719 605 529 491 452
3010.0 416 353 307 262 234 215 201 192 178 164
3050.0 167 165 176 170 189 214 242 288 338 372
3090.0 348 247 170 135 110 88 68 71 65 62
3130.0 48 44 42 36 52 51 56 51 46 54
3170.0 49 36 46 45 44 47 45 45 42 37
3210.0 39 33 32 37 36 45 34 40 42 41
3250.0 45 46 51 38 38 45 39 42 27 21
3290.0 27 37 27 26 36 23 27 21 17 20
3330.0 26 15 29 20 31 32 19 17 25 19
3370.0 34 28 13 32 15 26 19 28 15 18
3410.0 34 28 14 29 28 25 27 39 35 38
3450.0 32 30 26 19 37 22 18 34 36 29
3490.0 34 41 25 32 28 23 38 32 30 20
3530.0 31 29 21 28 38 25 40 26 31 24
3570.0 39 30 32 31 33 35 20 40 40 36
3610.0 32 35 48 26 43 36 39 35 30 35
3650.0 36 30 34 43 19 6 13 23 28 38
3690.0 21 24 18 29 29 20 27 10 32 32
3730.0 14 6 7 20 19 17 7 6 18 45
3770.0 24 7 14 6 6 36 43 23 23 33
3810.0 22 16 15 8 27 23 34 35 26 29
3850.0 38 7 19 15 6 16 26 11 38 38
3890.0 26 7 36 36 19 41 25 26 26 38
3930.0 32 19 36 10 38 34 41 41 48 75
##END=
