##TITLE=1,2-Ethanediamine, N,N'-bis(2-aminoethyl)-
##JCAMP-DX=4.24
##DATA TYPE=INFRARED SPECTRUM
##ORIGIN=Sadtler Research Labs Under US-EPA Contract
##OWNER=NIST Standard Reference Data Program
##CAS REGISTRY NO=112-24-3
##MOLFORM=C 6 H 18 N 4
##XUNITS=1/CM
##YUNITS=ABSORBANCE
##XFACTOR=1.0
##YFACTOR=0.000089554
##DELTAX=4.0
##FIRSTX=450.0
##LASTX=3966.0
##FIRSTY=0.000000
##MAXX=3966
##MINX=450
##MAXY=0.89554
##MINY=0
##NPOINTS=880
##XYDATA=(X++(Y..Y))
450.0 0 444 799 333 226 948 478 660 547 916
490.0 763 570 445 571 491 760 545 207 855 234
530.0 704 559 614 652 555 611 939 850 798 735
570.0 767 731 769 693 624 762 793 786 824 758
610.0 702 899 828 870 928 971 1055 1056 1079 1112
650.0 1175 1199 1325 1458 1435 1478 1561 1674 1789 2028
690.0 2091 2116 2188 2280 2567 2659 2654 2998 3077 3077
730.0 3273 3607 4419 4612 3863 4582 4817 4849 5144 5262
770.0 5531 5084 4610 4335 4284 4062 3880 3805 3474 3221
810.0 3381 3177 2801 2685 2646 2329 2217 2067 1913 1800
850.0 1823 1777 1579 1521 1406 1411 1509 1398 1384 1327
890.0 1382 1290 1175 1144 1156 1132 1187 1161 1164 1207
930.0 1254 1196 1115 1129 1087 1054 1055 978 1046 1160
970.0 1088 1071 1062 1131 1185 1300 1450 1560 1760 1990
1010.0 2165 2164 2059 1926 1784 1758 1743 1768 1825 1959
1050.0 2099 2234 2383 2482 2532 2527 2448 2251 2150 1994
1090.0 1897 1911 1922 2016 2109 2374 2574 2853 3204 3454
1130.0 3383 3337 3327 3250 3152 2918 2549 2382 2118 1800
1170.0 1691 1456 1354 1218 1046 889 817 730 664 602
1210.0 629 586 619 736 811 931 945 1073 1153 1344
1250.0 1323 1400 1475 1460 1496 1425 1397 1321 1175 1101
1290.0 1071 1085 1136 1257 1345 1479 1553 1564 1522 1604
1330.0 1739 1902 2081 2229 2341 2417 2410 2362 2211 1990
1370.0 1755 1554 1370 1282 1198 1158 1209 1279 1346 1357
1410.0 1354 1266 1225 1159 1197 1326 1503 1854 2276 2681
1450.0 3156 3535 3821 3909 3646 3205 2655 2100 1690 1402
1490.0 1152 953 790 662 595 496 453 415 344 318
1530.0 299 293 270 259 288 311 312 314 315 378
1570.0 350 366 420 457 565 652 838 986 1129 1295
1610.0 1482 1731 1904 2116 2209 2264 2182 1926 1741 1324
1650.0 1047 820 571 509 371 316 329 319 346 337
1690.0 320 304 273 276 272 275 285 266 261 251
1730.0 242 255 223 235 242 246 238 234 230 227
1770.0 222 208 215 224 221 216 218 220 235 224
1810.0 226 236 229 237 236 229 231 231 235 222
1850.0 228 233 230 224 232 222 219 219 221 225
1890.0 223 220 221 217 213 207 204 199 202 203
1930.0 195 193 194 198 196 192 195 192 190 188
1970.0 185 181 180 179 177 182 186 177 176 175
2010.0 171 179 184 178 183 179 184 187 190 191
2050.0 184 188 187 185 195 188 195 192 192 195
2090.0 192 189 193 190 190 189 187 188 185 181
2130.0 187 177 181 180 176 174 171 164 159 170
2170.0 162 158 157 156 154 149 144 143 141 149
2210.0 146 146 147 145 147 146 149 155 152 155
2250.0 159 159 162 162 166 170 172 175 176 183
2290.0 193 196 212 222 222 233 225 235 242 232
2330.0 230 226 245 240 253 252 266 253 260 247
2370.0 248 245 245 245 241 223 219 223 219 221
2410.0 224 226 235 235 236 240 244 249 252 254
2450.0 262 258 261 269 273 278 279 277 287 296
2490.0 297 293 297 293 297 303 311 310 311 320
2530.0 322 319 324 322 331 339 336 346 341 347
2570.0 354 366 366 374 379 395 401 403 418 440
2610.0 444 453 479 499 520 547 574 599 636 675
2650.0 711 761 806 848 900 942 994 1042 1087 1130
2690.0 1175 1211 1247 1278 1294 1322 1352 1397 1449 1527
2730.0 1620 1694 1797 1892 1990 2094 2204 2330 2464 2612
2770.0 2767 2972 3203 3502 3873 4357 4947 5633 6412 7134
2810.0 7814 8235 8344 8283 8086 7801 7491 7138 6834 6571
2850.0 6395 6283 6240 6231 6229 6284 6291 6335 6346 6351
2890.0 6376 6406 6490 6624 6792 7136 7483 7851 8181 8618
2930.0 8988 9425 9774 10000 9782 9133 8036 6736 5478 4323
2970.0 3433 2745 2205 1783 1454 1198 1014 866 769 686
3010.0 631 580 531 507 464 446 416 388 376 375
3050.0 348 338 328 310 311 289 280 262 257 245
3090.0 230 228 227 216 222 218 223 226 231 214
3130.0 234 241 244 230 246 240 254 235 241 248
3170.0 229 241 243 245 231 236 238 237 246 258
3210.0 259 271 296 288 317 327 349 373 382 416
3250.0 427 445 469 490 516 524 544 547 559 552
3290.0 552 563 563 546 540 528 535 530 546 568
3330.0 605 653 692 696 689 655 618 596 554 521
3370.0 474 452 408 387 361 355 354 354 338 326
3410.0 329 317 309 289 270 239 221 200 194 188
3450.0 187 176 184 179 173 183 172 162 161 166
3490.0 157 159 161 155 161 147 170 147 147 162
3530.0 152 162 178 154 166 159 165 169 172 183
3570.0 183 162 166 165 164 168 169 166 160 161
3610.0 158 166 159 162 171 169 173 162 155 155
3650.0 162 153 172 162 170 163 156 154 179 167
3690.0 137 152 155 158 160 163 149 154 146 156
3730.0 140 143 143 131 135 128 131 137 140 162
3770.0 153 143 127 146 134 132 140 145 152 141
3810.0 159 140 127 145 150 149 145 141 147 150
3850.0 147 143 126 174 139 143 139 161 172 169
3890.0 144 152 139 142 156 184 179 190 179 164
3930.0 167 181 165 165 168 224 197 171 191 192
##END=
