##TITLE=1,3-Dioxane, 4-methyl-
##JCAMP-DX=4.24
##DATA TYPE=INFRARED SPECTRUM
##ORIGIN=Sadtler Research Labs Under US-EPA Contract
##OWNER=NIST Standard Reference Data Program
##CAS REGISTRY NO=1120-97-4
##MOLFORM=C 5 H 10 O 2
##XUNITS=1/CM
##YUNITS=ABSORBANCE
##XFACTOR=1.0
##YFACTOR=0.000056592
##DELTAX=4.0
##FIRSTX=450.0
##LASTX=3966.0
##FIRSTY=0.000000
##MAXX=3966
##MINX=450
##MAXY=0.56592
##MINY=0
##NPOINTS=880
##XYDATA=(X++(Y..Y))
450.0 0 67 79 95 81 116 140 184 187 215
490.0 262 312 334 385 385 382 318 293 256 179
530.0 167 145 119 94 90 134 132 123 99 82
570.0 125 159 125 129 91 114 143 144 155 156
610.0 121 102 120 145 142 189 173 92 141 176
650.0 175 202 249 290 344 411 440 405 438 319
690.0 293 224 153 122 122 153 141 143 135 134
730.0 142 137 169 134 135 132 151 188 169 175
770.0 186 204 239 279 355 424 489 557 649 590
810.0 557 443 385 342 274 292 311 354 491 699
850.0 934 1068 1172 1388 1280 1335 1086 820 788 685
890.0 535 373 273 238 209 209 238 246 309 374
930.0 486 626 749 878 1055 1272 1302 1496 1607 1677
970.0 1827 1890 2223 2585 2607 2382 2778 2153 2410 1956
1010.0 1214 860 899 1187 1758 2760 4308 6140 7974 9064
1050.0 10000 9660 9292 7151 3651 1857 1257 980 840 844
1090.0 965 1164 1334 1420 1684 2300 2821 3286 3607 3817
1130.0 3813 3865 3724 3365 2910 2569 2845 3500 3931 4036
1170.0 4114 5103 5616 5587 5649 5436 4392 3798 4217 3569
1210.0 2706 1999 1551 1284 1156 1098 1189 1327 1432 1358
1250.0 1327 1326 979 911 649 401 314 279 295 290
1290.0 346 348 361 368 383 372 388 407 408 408
1330.0 410 447 495 547 629 741 961 1200 1360 1445
1370.0 1404 1830 2086 1988 1783 1997 1816 1778 1451 1289
1410.0 838 891 744 562 502 530 558 594 622 656
1450.0 658 594 601 682 688 693 671 645 617 523
1490.0 421 357 289 240 191 164 148 139 129 129
1530.0 128 127 117 119 118 134 127 117 116 127
1570.0 115 127 115 125 116 124 125 132 127 125
1610.0 133 134 123 129 125 131 133 140 140 141
1650.0 141 122 157 157 150 153 152 147 142 130
1690.0 131 130 121 112 130 131 135 141 156 150
1730.0 158 145 159 163 181 171 171 161 153 143
1770.0 129 123 132 128 116 122 117 124 125 125
1810.0 124 123 124 124 127 129 133 131 136 140
1850.0 148 141 141 141 121 113 113 112 123 127
1890.0 125 135 154 165 182 192 210 220 210 210
1930.0 199 182 170 140 132 129 128 119 128 136
1970.0 137 136 144 144 144 150 155 154 154 143
2010.0 143 135 143 142 133 143 142 151 142 141
2050.0 141 136 142 140 142 133 141 150 148 159
2090.0 160 166 163 164 154 140 131 120 120 112
2130.0 112 102 102 110 120 130 132 136 146 146
2170.0 146 146 136 137 128 117 109 98 107 99
2210.0 99 99 104 107 107 107 107 107 98 106
2250.0 97 96 104 108 106 107 100 105 105 105
2290.0 105 105 113 105 106 105 109 107 122 121
2330.0 120 137 133 128 147 129 139 156 140 128
2370.0 120 119 115 102 110 102 108 109 100 99
2410.0 99 99 99 99 99 102 107 107 108 108
2450.0 97 108 97 88 89 79 88 77 89 78
2490.0 73 77 77 77 77 77 78 88 88 87
2530.0 95 91 97 101 107 113 122 132 143 142
2570.0 143 142 142 142 140 135 135 134 134 134
2610.0 144 152 169 180 198 216 229 245 268 296
2650.0 321 303 297 307 314 325 307 289 288 292
2690.0 300 306 309 343 381 413 429 485 489 487
2730.0 516 553 603 688 822 948 1113 1377 1418 1450
2770.0 1518 1601 1824 1765 1263 1160 1008 848 728 712
2810.0 791 981 1266 1649 2127 2781 3619 4455 4858 5204
2850.0 5562 6522 5898 4349 3715 3095 2414 1779 1305 999
2890.0 846 779 773 802 917 1118 1388 1650 1844 2058
2930.0 2387 2761 2892 2893 2877 2913 3807 2928 2779 2961
2970.0 3452 3991 4294 4685 4699 4608 4295 3937 3443 2760
3010.0 2111 1957 1892 1420 903 519 315 210 135 105
3050.0 113 105 106 104 95 109 99 112 116 115
3090.0 122 111 114 124 123 123 113 116 106 107
3130.0 107 101 106 105 98 91 108 106 96 106
3170.0 107 98 114 110 115 116 121 124 118 116
3210.0 107 116 108 97 96 88 83 89 89 89
3250.0 83 84 81 81 72 71 89 71 74 88
3290.0 81 91 86 92 79 84 74 73 72 72
3330.0 72 81 91 83 72 76 82 76 77 74
3370.0 81 82 83 82 83 75 79 81 75 68
3410.0 73 74 74 82 74 75 83 84 75 84
3450.0 74 74 81 75 75 74 74 73 76 75
3490.0 85 85 84 83 73 79 81 76 76 76
3530.0 76 76 76 75 76 76 76 76 76 76
3570.0 82 77 77 76 76 69 67 77 76 75
3610.0 78 76 73 78 78 73 77 77 77 77
3650.0 77 69 68 78 78 70 77 72 79 78
3690.0 78 77 77 77 78 70 78 78 79 79
3730.0 81 73 79 69 66 70 70 79 70 78
3770.0 70 81 81 79 79 90 79 79 79 79
3810.0 79 79 79 79 79 79 79 76 71 84
3850.0 77 74 79 81 81 82 81 81 81 81
3890.0 91 91 92 86 83 84 82 73 83 82
3930.0 82 82 83 83 83 84 65 66 66 66
##END=
