##TITLE=di-n-Decylamine
##JCAMP-DX=4.24
##DATA TYPE=INFRARED SPECTRUM
##ORIGIN=Sadtler Research Labs Under US-EPA Contract
##OWNER=NIST Standard Reference Data Program
##CAS REGISTRY NO=1120-49-6
##MOLFORM=C 20 H 43 N
##XUNITS=1/CM
##YUNITS=ABSORBANCE
##XFACTOR=1.0
##YFACTOR=0.000122620
##DELTAX=4.0
##FIRSTX=450.0
##LASTX=3966.0
##FIRSTY=0.004046
##MAXX=3966
##MINX=450
##MAXY=1.2262
##MINY=0
##NPOINTS=880
##XYDATA=(X++(Y..Y))
450.0 33 108 47 141 31 177 156 100 86 152
490.0 160 198 17 5 44 74 126 109 154 135
530.0 91 135 91 63 123 123 152 139 140 133
570.0 110 113 106 125 128 138 115 91 132 129
610.0 161 177 143 134 159 174 192 194 205 199
650.0 196 227 251 256 266 257 294 289 314 317
690.0 339 360 334 321 334 384 408 413 422 372
730.0 314 379 358 265 330 308 295 198 230 218
770.0 213 219 201 171 192 191 195 186 175 126
810.0 128 164 171 152 106 142 124 131 90 80
850.0 119 88 88 95 88 91 97 77 96 70
890.0 118 128 115 112 104 105 111 104 106 104
930.0 99 97 86 77 54 89 96 80 64 68
970.0 83 68 73 86 83 86 90 97 108 98
1010.0 107 115 117 123 137 149 158 164 198 189
1050.0 194 246 270 263 252 292 252 225 213 178
1090.0 192 183 202 232 244 300 324 376 466 566
1130.0 634 708 626 508 422 294 238 201 199 205
1170.0 166 199 169 131 157 153 162 136 139 181
1210.0 151 195 167 181 190 166 189 184 146 137
1250.0 137 109 105 63 68 61 62 70 79 89
1290.0 121 141 167 173 208 200 208 202 199 219
1330.0 233 268 320 355 393 424 447 443 419 409
1370.0 374 358 358 329 302 235 202 172 154 160
1410.0 150 159 162 191 220 293 333 449 556 634
1450.0 789 918 1039 1096 1034 906 729 501 388 301
1490.0 215 191 171 136 147 102 84 91 75 75
1530.0 48 59 64 59 53 43 44 32 36 38
1570.0 41 52 33 39 36 44 32 35 50 17
1610.0 32 43 64 60 30 29 38 45 32 35
1650.0 53 28 28 16 12 33 31 26 25 26
1690.0 4 7 13 32 27 17 10 11 14 10
1730.0 25 13 29 30 23 35 24 29 26 20
1770.0 22 33 32 24 27 30 19 25 16 26
1810.0 22 22 29 7 15 15 14 24 23 24
1850.0 15 18 22 9 35 17 23 21 22 38
1890.0 14 15 26 17 31 20 9 11 18 15
1930.0 16 22 18 24 13 22 26 16 11 0
1970.0 18 4 1 17 10 14 21 14 14 26
2010.0 15 22 34 18 28 26 25 21 25 24
2050.0 19 30 19 24 19 22 20 23 19 19
2090.0 13 14 14 17 16 15 15 15 13 9
2130.0 11 14 15 16 16 17 15 20 18 12
2170.0 16 14 19 17 15 19 15 16 17 15
2210.0 19 16 15 15 9 14 6 19 20 16
2250.0 19 19 27 24 18 12 22 24 18 18
2290.0 27 21 27 21 20 18 25 28 26 33
2330.0 25 33 45 46 31 36 43 37 46 50
2370.0 23 19 31 32 33 32 34 38 38 43
2410.0 39 45 45 47 50 45 46 39 43 41
2450.0 42 44 42 39 45 40 40 44 47 45
2490.0 45 45 47 49 51 50 47 52 58 57
2530.0 63 61 60 63 60 62 61 66 68 68
2570.0 73 72 82 80 78 82 84 90 95 95
2610.0 101 101 107 103 112 113 119 124 132 135
2650.0 140 145 154 161 171 173 181 184 188 194
2690.0 203 199 203 203 196 200 205 211 211 219
2730.0 227 234 248 256 267 275 281 285 293 301
2770.0 314 328 355 390 433 495 574 656 753 855
2810.0 965 1053 1105 1116 1099 1075 1088 1139 1276 1528
2850.0 1971 2613 3374 3903 3866 3434 2944 2588 2416 2331
2890.0 2265 2270 2418 2715 3130 3664 4349 5257 6537 8099
2930.0 9498 10000 9137 7619 5979 4601 3657 3186 3056 3014
2970.0 2837 2331 1706 1229 936 743 609 517 438 393
3010.0 344 311 289 253 236 219 203 187 170 161
3050.0 149 137 129 126 115 114 101 95 99 87
3090.0 91 86 82 81 72 75 65 68 65 63
3130.0 67 61 62 65 55 53 54 56 56 51
3170.0 50 47 51 47 51 48 44 46 46 29
3210.0 39 31 33 35 32 24 32 29 29 32
3250.0 30 30 32 33 33 30 26 26 23 23
3290.0 29 27 19 26 26 26 33 32 30 20
3330.0 25 29 25 32 29 28 37 31 31 34
3370.0 29 30 32 31 34 26 22 31 30 28
3410.0 23 28 25 30 29 32 33 30 30 29
3450.0 30 32 33 23 33 25 23 21 30 26
3490.0 30 34 20 21 27 23 25 26 31 28
3530.0 22 29 27 31 27 28 25 23 22 34
3570.0 30 22 23 18 38 30 32 7 27 28
3610.0 44 36 22 41 27 32 34 22 33 38
3650.0 34 47 24 26 16 46 39 42 32 18
3690.0 39 38 22 25 25 39 31 22 31 35
3730.0 31 43 32 25 38 37 52 25 29 34
3770.0 17 28 23 46 21 13 24 34 30 49
3810.0 22 39 38 86 47 46 45 44 41 27
3850.0 35 44 51 29 44 67 27 50 28 32
3890.0 20 24 34 55 49 29 38 26 23 35
3930.0 34 51 64 45 52 36 10 35 33 49
##END=
