##TITLE=2-Decanol
##JCAMP-DX=4.24
##DATA TYPE=INFRARED SPECTRUM
##ORIGIN=Sadtler Research Labs Under US-EPA Contract
##OWNER=NIST Standard Reference Data Program
##CAS REGISTRY NO=1120-06-5
##MOLFORM=C 10 H 22 O
##XUNITS=1/CM
##YUNITS=ABSORBANCE
##XFACTOR=1.0
##YFACTOR=0.000179068
##DELTAX=4.0
##FIRSTX=450.0
##LASTX=3966.0
##FIRSTY=0.000000
##MAXX=3966
##MINX=450
##MAXY=1.79068
##MINY=0
##NPOINTS=880
##XYDATA=(X++(Y..Y))
450.0 0 114 179 161 169 133 184 152 187 157
490.0 190 176 167 169 153 138 155 138 128 159
530.0 153 167 143 150 143 133 136 129 136 119
570.0 121 150 148 131 150 145 149 144 149 146
610.0 149 154 145 158 151 147 142 148 141 144
650.0 153 147 153 152 150 159 147 144 151 164
690.0 161 171 174 184 203 234 264 260 263 284
730.0 265 246 225 214 207 200 200 197 198 180
770.0 191 200 199 209 173 180 192 201 203 212
810.0 204 224 226 229 233 254 269 282 279 282
850.0 272 264 263 255 254 244 250 252 251 262
890.0 275 293 310 335 354 374 382 403 428 470
930.0 515 563 600 617 592 531 466 414 384 373
970.0 361 362 368 372 388 419 447 489 516 548
1010.0 569 580 580 574 565 554 567 579 612 653
1050.0 699 743 778 806 821 834 843 860 876 905
1090.0 938 972 976 950 897 839 791 772 777 797
1130.0 828 838 832 791 721 639 558 499 460 437
1170.0 429 437 435 439 437 436 432 436 441 448
1210.0 463 474 497 522 555 597 649 697 739 756
1250.0 742 701 641 591 541 509 482 463 450 440
1290.0 430 425 426 427 428 422 417 410 407 408
1330.0 426 451 498 552 600 646 684 714 749 802
1370.0 888 1008 1130 1194 1167 1038 897 767 663 567
1410.0 498 440 406 387 376 393 426 485 549 642
1450.0 744 872 997 1056 1052 962 805 627 473 366
1490.0 304 260 235 215 210 198 181 180 171 171
1530.0 153 160 152 159 146 149 146 148 154 137
1570.0 142 138 143 135 138 133 131 134 133 134
1610.0 129 137 128 135 126 132 126 136 129 135
1650.0 127 147 133 127 132 132 128 132 126 138
1690.0 126 130 132 136 124 124 123 128 122 121
1730.0 126 126 132 122 125 125 134 122 129 125
1770.0 131 127 124 125 123 124 123 124 120 126
1810.0 118 123 122 122 120 122 120 122 121 123
1850.0 122 117 121 121 121 121 123 123 121 122
1890.0 123 122 121 122 123 122 120 122 122 122
1930.0 124 123 125 121 121 117 118 116 118 114
1970.0 115 117 116 118 115 118 117 117 115 117
2010.0 118 116 118 118 121 122 123 121 122 124
2050.0 122 123 119 122 118 118 117 119 118 120
2090.0 119 118 118 118 117 117 118 117 118 116
2130.0 116 118 120 119 119 120 118 120 120 119
2170.0 121 121 120 122 122 123 121 122 124 122
2210.0 123 123 124 122 122 122 122 121 120 120
2250.0 120 123 120 124 121 122 120 118 119 116
2290.0 117 111 114 112 112 110 115 116 121 126
2330.0 126 129 121 127 116 119 125 131 136 117
2370.0 116 112 115 117 118 125 127 131 131 131
2410.0 133 133 131 134 132 134 133 134 133 133
2450.0 132 131 129 128 130 131 133 131 133 132
2490.0 133 133 135 134 135 135 138 136 137 141
2530.0 140 142 143 147 147 145 146 144 145 145
2570.0 148 150 150 154 157 161 162 161 166 166
2610.0 172 174 178 183 182 188 190 193 199 203
2650.0 208 210 220 221 225 226 229 233 230 232
2690.0 231 230 224 221 216 216 213 214 219 222
2730.0 228 234 241 242 251 245 240 240 240 246
2770.0 249 252 256 269 278 291 308 324 345 361
2810.0 390 423 460 497 550 609 686 792 954 1219
2850.0 1625 2234 2985 3659 4032 3984 3691 3372 3159 2951
2890.0 2723 2542 2518 2706 3051 3548 4163 5024 6282 7796
2930.0 9241 10000 9845 8539 7008 5541 4517 4099 4264 4739
2970.0 4993 4675 3894 3049 2323 1688 1201 897 722 609
3010.0 533 467 413 376 344 327 302 291 278 263
3050.0 253 240 231 223 217 213 208 206 199 194
3090.0 194 194 187 181 181 182 179 175 169 168
3130.0 166 168 165 166 162 170 167 168 164 169
3170.0 166 163 169 163 165 164 171 162 164 158
3210.0 157 160 151 151 138 141 141 139 135 134
3250.0 133 129 135 128 131 128 127 124 124 118
3290.0 121 117 121 122 115 122 123 121 117 119
3330.0 122 116 118 117 121 122 112 115 116 124
3370.0 119 115 125 122 124 127 128 120 121 128
3410.0 124 133 137 147 141 138 134 135 145 141
3450.0 137 143 144 138 143 139 142 142 129 139
3490.0 131 131 134 140 145 137 140 140 138 134
3530.0 145 138 141 139 144 138 138 133 137 141
3570.0 151 134 139 136 146 147 153 153 159 155
3610.0 172 179 180 202 235 249 277 291 327 376
3650.0 440 532 549 491 411 330 270 251 212 193
3690.0 172 187 175 160 169 162 166 162 168 150
3730.0 164 166 171 159 157 165 147 155 159 167
3770.0 162 145 157 148 164 163 164 144 188 160
3810.0 163 151 158 171 171 184 158 166 171 156
3850.0 168 161 182 176 180 136 162 172 172 179
3890.0 174 155 160 169 164 161 169 172 191 155
3930.0 161 182 130 164 182 183 130 140 170 181
##END=
