##TITLE=Undecane
##JCAMP-DX=4.24
##DATA TYPE=INFRARED SPECTRUM
##ORIGIN=Sadtler Research Labs Under US-EPA Contract
##OWNER=NIST Standard Reference Data Program
##CAS REGISTRY NO=1120-21-4
##MOLFORM=C 11 H 24
##XUNITS=1/CM
##YUNITS=ABSORBANCE
##XFACTOR=1.0
##YFACTOR=0.000082663
##DELTAX=4.0
##FIRSTX=450.0
##LASTX=3966.0
##FIRSTY=0.005125
##MAXX=3966
##MINX=450
##MAXY=0.82663
##MINY=0
##NPOINTS=880
##XYDATA=(X++(Y..Y))
450.0 62 63 74 73 77 81 78 90 95 98
490.0 104 95 100 100 98 103 104 88 99 89
530.0 88 77 51 104 108 98 92 77 71 68
570.0 78 72 60 58 67 0 156 96 87 89
610.0 82 82 64 42 46 69 133 99 75 33
650.0 53 69 55 57 75 60 66 68 71 71
690.0 76 96 109 128 141 162 186 192 204 193
730.0 183 177 145 133 120 121 105 95 106 97
770.0 96 86 73 72 65 61 59 54 48 45
810.0 41 43 40 38 44 42 42 40 40 33
850.0 38 33 31 34 36 40 35 42 34 46
890.0 45 47 49 46 42 41 37 30 31 29
930.0 34 28 34 29 34 36 27 28 25 26
970.0 23 23 23 23 33 23 23 28 30 33
1010.0 35 34 32 26 33 27 22 28 27 23
1050.0 22 23 34 32 30 33 41 33 33 35
1090.0 35 33 28 27 27 22 21 21 28 28
1130.0 31 30 27 26 26 21 20 21 20 27
1170.0 27 28 32 32 40 32 32 34 33 33
1210.0 32 33 38 33 34 38 38 45 44 45
1250.0 50 55 55 61 68 68 80 81 87 102
1290.0 110 120 125 133 140 139 134 122 115 110
1330.0 116 142 170 205 223 233 231 229 223 222
1370.0 228 239 272 314 317 258 186 145 120 109
1410.0 109 108 107 108 126 139 175 227 307 401
1450.0 508 632 768 871 899 847 705 524 364 253
1490.0 181 135 113 100 87 78 71 61 56 52
1530.0 47 52 40 36 35 35 36 37 30 32
1570.0 35 28 28 28 28 29 29 22 29 29
1610.0 24 28 25 26 26 22 28 21 27 27
1650.0 28 20 22 29 21 19 25 25 27 20
1690.0 21 27 21 16 20 20 22 24 21 20
1730.0 20 21 15 17 20 21 21 20 25 25
1770.0 20 20 23 22 26 24 19 19 20 19
1810.0 19 20 21 19 22 19 18 21 21 19
1850.0 19 19 24 18 24 18 25 17 25 25
1890.0 21 22 25 24 17 18 18 18 23 24
1930.0 23 24 20 19 19 17 23 23 23 23
1970.0 17 16 21 22 22 22 23 22 15 15
2010.0 16 20 16 21 21 22 26 27 32 28
2050.0 26 27 20 16 26 30 33 38 33 37
2090.0 36 32 29 30 26 19 19 19 19 25
2130.0 24 26 24 25 26 24 25 28 24 24
2170.0 27 25 25 24 19 23 24 24 24 24
2210.0 24 27 24 24 24 24 24 24 23 23
2250.0 23 23 22 18 17 25 22 17 20 26
2290.0 27 35 37 38 53 49 54 58 50 45
2330.0 38 26 23 29 13 28 58 48 23 13
2370.0 13 13 13 13 13 15 19 13 25 26
2410.0 20 20 24 25 20 13 13 14 13 13
2450.0 13 13 18 13 13 13 13 13 13 15
2490.0 13 13 13 18 18 17 18 18 17 23
2530.0 23 23 26 22 22 18 17 22 23 22
2570.0 29 35 41 44 42 45 46 39 40 40
2610.0 33 33 40 40 51 50 57 65 60 59
2650.0 72 74 79 97 103 116 117 123 116 117
2690.0 109 96 89 86 76 74 75 78 79 85
2730.0 85 98 104 110 120 107 99 107 103 102
2770.0 105 109 113 132 139 158 170 194 198 218
2810.0 245 268 305 334 382 431 505 596 764 1045
2850.0 1535 2293 3219 3967 4221 3943 3467 3053 2826 2630
2890.0 2387 2176 2177 2399 2771 3280 4006 5038 6648 8559
2930.0 9988 10000 9138 7942 6490 5127 4240 4010 4369 4952
2970.0 5083 4298 3019 1917 1290 947 751 615 527 447
3010.0 397 355 307 281 256 219 210 194 173 147
3050.0 145 133 121 109 97 103 96 84 84 87
3090.0 80 71 78 72 77 59 66 54 53 54
3130.0 46 54 50 47 43 47 54 58 64 59
3170.0 64 64 63 58 55 52 44 48 46 39
3210.0 40 40 39 34 38 35 40 41 34 30
3250.0 28 33 28 27 31 39 38 43 38 25
3290.0 18 26 25 19 25 13 26 18 20 25
3330.0 18 24 14 22 28 22 25 24 16 34
3370.0 24 30 17 23 29 36 18 21 17 18
3410.0 21 17 21 27 34 22 29 29 28 26
3450.0 36 23 28 32 32 28 25 29 27 27
3490.0 27 21 20 21 16 22 27 19 26 19
3530.0 27 20 26 26 25 24 25 23 21 28
3570.0 37 27 34 35 37 34 36 28 35 46
3610.0 33 28 32 34 36 30 26 45 41 50
3650.0 41 18 41 35 35 50 37 23 30 33
3690.0 39 44 43 48 42 28 20 27 24 35
3730.0 28 37 28 33 32 25 22 15 20 25
3770.0 24 27 27 33 33 32 34 31 36 35
3810.0 39 33 23 29 23 28 29 35 33 33
3850.0 34 35 27 33 30 35 33 33 42 40
3890.0 39 37 35 33 24 29 34 39 42 41
3930.0 45 37 38 41 41 35 42 39 37 34
##END=
