##TITLE=Pyridine, 3-iodo-
##JCAMP-DX=4.24
##DATA TYPE=INFRARED SPECTRUM
##ORIGIN=Sadtler Research Labs Under US-EPA Contract
##OWNER=NIST Standard Reference Data Program
##CAS REGISTRY NO=1120-90-7
##MOLFORM=C 5 H 4 I N
##XUNITS=1/CM
##YUNITS=ABSORBANCE
##XFACTOR=1.0
##YFACTOR=0.000077979
##DELTAX=4.0
##FIRSTX=450.0
##LASTX=3966.0
##FIRSTY=0.025031
##MAXX=3966
##MINX=450
##MAXY=0.77979
##MINY=0
##NPOINTS=880
##XYDATA=(X++(Y..Y))
450.0 321 285 416 370 407 245 6 139 260 442
490.0 549 502 409 388 307 367 407 432 423 235
530.0 36 45 192 274 212 309 416 258 113 464
570.0 180 434 592 516 575 522 586 841 1265 1115
610.0 1013 1548 1147 783 743 391 272 355 301 65
650.0 361 500 489 561 545 1005 1542 2740 3953 4628
690.0 4682 5061 5482 4349 2873 2610 2041 1555 1077 966
730.0 742 583 436 329 424 525 548 745 991 1520
770.0 1974 2391 2681 3401 4199 2914 2828 2372 1805 1416
810.0 973 666 508 360 291 316 303 211 251 244
850.0 194 256 223 342 416 312 268 321 324 259
890.0 227 335 305 245 240 259 276 302 296 361
930.0 428 487 514 631 683 634 620 572 476 492
970.0 516 551 715 1038 1698 2743 4613 8154 10000 8625
1010.0 9268 6222 2296 1390 1297 1141 932 951 590 347
1050.0 281 323 511 893 1698 2709 3561 4240 4696 3639
1090.0 2666 2081 1125 796 725 748 725 603 689 611
1130.0 496 417 350 316 267 253 252 337 476 535
1170.0 596 612 692 679 605 605 551 395 321 273
1210.0 254 278 248 208 225 205 261 272 262 237
1250.0 240 230 213 222 254 255 264 257 250 249
1290.0 300 368 474 582 741 910 1033 1004 1006 1050
1330.0 882 688 586 553 546 601 616 646 699 678
1370.0 705 776 744 806 925 1118 1592 2614 4119 4698
1410.0 4344 4679 3326 1624 945 676 469 418 451 730
1450.0 1595 3054 4023 3708 3865 2676 1073 520 392 309
1490.0 304 241 230 206 264 227 202 242 277 292
1530.0 348 493 678 979 1206 1497 1813 2097 2237 1988
1570.0 1872 1539 1081 694 484 363 279 213 186 175
1610.0 177 200 214 192 193 176 201 212 188 227
1650.0 200 243 152 165 174 217 221 222 239 273
1690.0 275 299 341 365 320 329 347 415 394 376
1730.0 361 347 228 183 176 196 189 184 156 144
1770.0 163 175 144 144 150 151 157 148 161 147
1810.0 154 152 179 183 217 242 240 245 259 276
1850.0 284 288 294 281 282 286 275 285 329 441
1890.0 521 508 497 467 429 391 389 395 355 310
1930.0 252 216 215 234 262 271 261 244 229 189
1970.0 169 136 130 126 132 137 153 140 140 151
2010.0 146 142 148 126 126 113 110 112 126 110
2050.0 121 128 107 111 126 153 147 166 128 139
2090.0 142 125 102 112 104 94 86 96 98 100
2130.0 105 98 90 90 99 99 98 95 89 77
2170.0 86 80 60 67 99 92 80 91 96 112
2210.0 110 106 107 93 93 107 114 113 118 93
2250.0 95 72 87 93 111 113 114 104 106 112
2290.0 121 126 145 132 138 130 129 134 143 118
2330.0 115 98 109 148 161 133 171 143 207 156
2370.0 147 95 111 128 106 106 111 109 111 128
2410.0 130 127 126 127 118 128 103 99 78 63
2450.0 67 47 60 54 50 55 54 56 53 81
2490.0 67 61 58 69 61 87 73 71 70 60
2530.0 53 68 73 62 58 70 63 75 69 75
2570.0 68 62 67 74 77 83 50 43 19 21
2610.0 32 39 50 58 75 64 65 68 74 59
2650.0 40 49 34 26 48 23 20 14 12 16
2690.0 16 26 29 30 27 15 20 47 40 40
2730.0 41 48 38 56 49 43 32 31 32 25
2770.0 40 55 57 62 30 38 33 37 40 49
2810.0 39 28 29 19 19 19 20 21 15 21
2850.0 52 66 61 93 90 79 70 61 40 61
2890.0 54 29 23 40 53 80 79 87 81 93
2930.0 102 113 119 157 145 184 218 273 305 256
2970.0 215 170 148 153 191 215 253 267 306 328
3010.0 335 342 324 300 252 293 532 1002 1827 2469
3050.0 3044 3408 3103 2932 2645 2490 2305 1967 1726 1152
3090.0 634 471 366 337 335 304 319 369 362 350
3130.0 315 246 176 96 79 110 84 53 79 53
3170.0 65 66 85 47 60 81 38 56 64 72
3210.0 78 99 55 49 69 89 103 82 91 71
3250.0 47 55 80 67 85 46 46 39 65 98
3290.0 79 85 76 81 87 94 111 135 83 59
3330.0 92 49 66 81 75 60 63 77 80 78
3370.0 119 103 87 63 56 97 104 102 70 48
3410.0 37 70 82 100 84 92 52 77 83 103
3450.0 102 91 103 78 69 86 71 77 89 76
3490.0 42 56 18 77 85 66 69 54 64 86
3530.0 92 67 76 50 63 64 115 107 112 92
3570.0 68 39 39 33 80 86 79 53 28 57
3610.0 72 53 53 29 24 43 37 34 25 16
3650.0 56 0 20 27 55 77 45 41 42 31
3690.0 22 40 1 14 1 0 19 12 32 30
3730.0 9 34 46 62 79 81 50 24 23 10
3770.0 0 2 4 0 0 0 0 0 0 0
3810.0 0 0 0 0 0 0 0 0 0 0
3850.0 0 0 0 0 0 0 0 0 0 0
3890.0 0 0 0 0 0 0 0 0 0 0
3930.0 0 0 0 0 0 0 0 0 0 0
##END=
