##TITLE=1-Tetradecene
##JCAMP-DX=4.24
##DATA TYPE=INFRARED SPECTRUM
##ORIGIN=Sadtler Research Labs Under US-EPA Contract
##OWNER=NIST Standard Reference Data Program
##CAS REGISTRY NO=1120-36-1
##MOLFORM=C 14 H 28
##XUNITS=1/CM
##YUNITS=ABSORBANCE
##XFACTOR=1.0
##YFACTOR=0.000209698
##DELTAX=4.0
##FIRSTX=450.0
##LASTX=3966.0
##FIRSTY=0.000000
##MAXX=3966
##MINX=450
##MAXY=2.09698
##MINY=0
##NPOINTS=880
##XYDATA=(X++(Y..Y))
450.0 0 96 141 114 129 119 119 116 130 113
490.0 128 115 110 117 119 136 124 127 118 110
530.0 107 116 101 170 141 137 128 143 139 123
570.0 148 114 128 143 122 140 146 127 131 135
610.0 142 165 170 185 205 201 206 207 216 184
650.0 127 146 139 137 134 145 133 139 185 160
690.0 139 149 154 165 190 213 238 256 244 249
730.0 234 236 211 204 185 176 168 170 159 164
770.0 158 157 154 147 156 138 130 139 131 138
810.0 141 139 140 137 142 143 149 145 142 157
850.0 158 165 166 168 181 196 204 222 246 274
890.0 322 357 398 470 610 804 893 764 562 424
930.0 342 297 268 251 243 232 226 221 221 219
970.0 224 228 249 282 344 398 421 392 340 289
1010.0 258 236 213 200 192 184 177 168 166 162
1050.0 157 157 154 151 154 150 147 144 142 146
1090.0 140 143 138 134 134 133 133 137 133 130
1130.0 135 132 129 127 125 125 126 129 125 126
1170.0 127 134 125 137 151 167 194 167 175 170
1210.0 162 155 149 146 149 152 151 154 153 153
1250.0 157 160 160 164 170 176 178 185 193 198
1290.0 213 224 237 246 250 245 236 230 223 223
1330.0 225 239 263 292 323 348 357 347 325 311
1370.0 301 284 275 282 276 247 217 203 200 203
1410.0 209 223 237 245 254 272 310 376 471 565
1450.0 650 713 796 842 817 731 589 442 334 267
1490.0 223 194 182 165 158 151 142 140 137 135
1530.0 132 134 133 131 128 125 123 124 121 116
1570.0 116 119 118 117 117 118 120 122 125 130
1610.0 140 148 158 176 198 232 294 379 446 430
1650.0 326 239 184 154 140 128 123 118 115 114
1690.0 112 106 109 108 107 104 104 104 101 102
1730.0 102 105 103 101 101 102 103 103 101 101
1770.0 101 103 103 102 105 107 106 108 109 112
1810.0 115 122 131 146 162 170 160 143 129 118
1850.0 114 110 107 106 104 102 99 101 100 100
1890.0 100 100 99 98 100 98 99 98 100 98
1930.0 97 99 97 97 97 99 100 99 100 101
1970.0 103 103 103 102 101 101 100 100 99 101
2010.0 100 100 101 102 102 102 103 103 103 101
2050.0 100 98 100 104 101 98 97 96 98 96
2090.0 98 102 102 103 103 102 104 104 102 100
2130.0 101 102 102 102 102 102 102 103 105 103
2170.0 103 103 101 102 100 100 102 99 102 102
2210.0 100 100 99 100 102 99 101 100 103 102
2250.0 102 102 102 102 104 103 104 103 102 102
2290.0 100 98 99 100 98 97 101 99 102 105
2330.0 106 108 103 104 101 102 98 100 108 107
2370.0 108 106 105 103 102 106 105 106 106 105
2410.0 105 105 103 105 103 104 104 105 104 105
2450.0 105 105 105 106 107 106 106 106 106 104
2490.0 105 107 108 107 109 109 108 110 111 110
2530.0 113 114 115 115 114 114 113 111 111 111
2570.0 105 109 112 114 116 118 121 123 128 131
2610.0 131 132 132 133 134 140 139 138 146 152
2650.0 156 159 162 165 167 165 167 172 176 178
2690.0 181 175 174 171 168 165 165 162 164 168
2730.0 169 172 179 178 184 183 185 186 188 191
2770.0 195 197 203 212 224 238 249 264 282 300
2810.0 322 344 375 415 459 514 585 686 839 1085
2850.0 1490 2150 3035 3792 3957 3528 2910 2414 2132 1980
2890.0 1863 1829 1946 2213 2608 3100 3706 4534 5760 7513
2930.0 9269 10000 9029 7777 5966 4438 3405 2875 2771 2853
2970.0 2796 2427 1858 1420 1173 1000 867 773 714 680
3010.0 632 554 483 432 388 358 336 318 304 295
3050.0 289 290 298 318 345 373 420 476 556 641
3090.0 621 475 344 278 237 212 198 185 183 178
3130.0 167 168 165 170 168 164 157 163 160 160
3170.0 156 155 148 148 144 148 154 146 148 145
3210.0 137 150 142 141 135 133 139 146 136 135
3250.0 123 128 132 133 129 118 123 118 121 129
3290.0 116 120 120 115 120 120 119 123 120 109
3330.0 116 111 109 116 112 120 124 108 115 116
3370.0 121 119 123 123 124 119 114 112 117 113
3410.0 119 117 113 110 126 114 118 106 110 117
3450.0 111 98 116 116 117 105 113 106 101 126
3490.0 108 114 102 109 118 112 104 103 114 114
3530.0 116 98 111 101 114 117 123 103 116 114
3570.0 104 106 130 114 116 109 117 122 117 123
3610.0 136 116 122 115 120 114 126 115 117 122
3650.0 129 128 126 125 123 116 109 118 118 124
3690.0 119 116 127 115 123 122 120 114 116 124
3730.0 117 118 116 118 123 118 119 119 119 130
3770.0 126 142 125 125 122 136 130 125 135 135
3810.0 119 128 134 126 127 135 144 118 126 117
3850.0 127 126 133 143 116 129 141 135 138 149
3890.0 131 135 142 132 133 133 133 135 138 126
3930.0 120 147 152 155 130 149 128 131 150 141
##END=
