##TITLE=1-Octanamine, n-octyl-
##JCAMP-DX=4.24
##DATA TYPE=INFRARED SPECTRUM
##ORIGIN=Sadtler Research Labs Under US-EPA Contract
##OWNER=NIST Standard Reference Data Program
##CAS REGISTRY NO=1120-48-5
##MOLFORM=C 16 H 35 N
##XUNITS=1/CM
##YUNITS=ABSORBANCE
##XFACTOR=1.0
##YFACTOR=0.000045645
##DELTAX=4.0
##FIRSTX=450.0
##LASTX=3966.0
##FIRSTY=0.036197
##MAXX=3966
##MINX=450
##MAXY=0.45645
##MINY=0
##NPOINTS=880
##XYDATA=(X++(Y..Y))
450.0 793 391 299 534 70 132 537 262 241 128
490.0 222 248 486 572 359 352 127 182 503 417
530.0 455 386 303 313 265 375 566 468 386 346
570.0 267 428 287 252 283 348 341 205 346 298
610.0 266 349 361 348 278 289 272 222 233 280
650.0 283 346 374 390 436 229 397 288 398 452
690.0 272 397 393 377 211 254 410 308 394 340
730.0 473 316 14 178 327 215 279 177 260 183
770.0 145 67 181 146 166 221 134 151 181 161
810.0 263 236 341 273 193 231 238 176 283 286
850.0 294 287 235 293 259 270 203 320 319 320
890.0 272 232 266 266 219 242 219 276 269 209
930.0 191 265 239 226 269 269 210 250 279 294
970.0 253 246 215 216 202 229 255 277 229 190
1010.0 228 273 308 325 303 330 328 405 404 420
1050.0 392 412 447 394 331 325 407 375 391 431
1090.0 421 434 459 551 635 429 761 764 898 991
1130.0 1140 1328 1251 1172 925 728 606 435 397 359
1170.0 370 306 357 437 535 553 521 516 499 481
1210.0 438 384 336 361 349 325 324 320 387 370
1250.0 383 367 402 426 403 452 459 445 461 423
1290.0 418 425 441 435 456 455 439 413 416 417
1330.0 433 473 540 595 607 636 664 666 648 628
1370.0 602 556 514 516 482 418 340 292 255 212
1410.0 214 187 222 217 251 306 383 495 601 672
1450.0 834 975 1087 1109 1102 1016 909 737 581 460
1490.0 350 302 249 226 209 166 237 183 188 180
1530.0 201 230 197 194 223 239 212 182 147 190
1570.0 149 126 114 89 126 120 119 142 116 113
1610.0 137 114 126 143 153 136 152 121 143 159
1650.0 112 142 113 163 147 157 157 161 150 144
1690.0 145 154 140 146 195 176 175 139 160 189
1730.0 164 196 177 233 269 282 322 328 319 313
1770.0 285 247 232 219 194 168 156 142 144 107
1810.0 123 118 99 97 100 96 112 83 114 83
1850.0 105 109 102 97 92 109 88 90 84 78
1890.0 81 83 82 84 86 79 97 80 84 72
1930.0 73 78 75 84 73 77 83 75 79 70
1970.0 76 74 74 72 73 74 81 75 77 79
2010.0 66 72 84 82 75 86 80 80 81 76
2050.0 77 73 67 74 76 69 76 73 74 75
2090.0 72 74 71 61 59 62 68 61 64 61
2130.0 59 63 69 61 48 47 54 59 56 65
2170.0 59 49 51 43 55 47 48 49 48 48
2210.0 42 41 43 45 38 33 38 47 35 38
2250.0 36 42 38 49 48 42 36 42 49 57
2290.0 46 48 53 67 57 61 51 38 32 44
2330.0 18 8 0 51 33 75 23 67 20 31
2370.0 30 54 74 82 71 58 61 56 53 61
2410.0 61 62 73 81 84 82 89 79 88 89
2450.0 90 88 82 76 81 75 83 85 91 97
2490.0 99 101 109 108 116 114 112 116 113 114
2530.0 114 107 106 96 99 98 103 102 111 117
2570.0 112 130 121 117 130 111 133 123 114 107
2610.0 106 95 100 105 103 90 89 98 108 105
2650.0 100 97 95 89 106 110 130 126 125 134
2690.0 130 137 133 139 130 133 129 126 132 137
2730.0 152 163 173 189 194 188 196 184 162 157
2770.0 156 158 187 214 267 350 481 631 787 973
2810.0 1144 1293 1397 1397 1329 1249 1176 1154 1139 1224
2850.0 1422 1913 2794 3725 4072 3832 3345 2959 2827 2736
2890.0 2507 2309 2278 2427 2720 3133 3649 4316 5370 7051
2930.0 8943 10000 9688 8349 6622 4945 3661 3075 3177 3618
2970.0 3786 3180 2160 1363 931 664 485 383 301 237
3010.0 201 174 146 123 115 118 108 112 102 107
3050.0 98 95 88 97 103 115 102 101 97 108
3090.0 111 112 98 108 98 89 98 75 59 46
3130.0 58 50 42 48 39 42 41 50 45 54
3170.0 45 56 66 64 53 76 63 80 71 69
3210.0 78 67 58 58 70 70 72 69 61 55
3250.0 57 64 59 65 73 68 72 80 56 66
3290.0 41 75 80 66 42 68 66 67 76 52
3330.0 57 60 61 59 53 68 75 63 74 69
3370.0 68 66 71 48 55 59 53 68 45 52
3410.0 52 63 73 68 55 50 55 51 80 34
3450.0 59 59 70 56 60 68 58 63 51 53
3490.0 68 55 62 60 52 75 68 64 51 68
3530.0 56 56 49 58 67 72 41 77 82 74
3570.0 91 69 63 63 70 82 68 91 101 66
3610.0 59 88 87 79 98 58 84 109 108 86
3650.0 114 100 124 80 89 91 54 124 70 105
3690.0 33 76 112 117 111 83 59 104 96 127
3730.0 110 73 80 49 98 55 143 82 94 83
3770.0 89 119 88 86 102 118 71 45 127 93
3810.0 121 47 105 112 90 90 92 104 134 61
3850.0 87 95 107 107 94 83 48 104 139 142
3890.0 108 108 96 164 98 46 125 90 215 128
3930.0 93 68 45 127 121 124 131 176 122 103
##END=
