##TITLE=2H-Pyran-2-one, tetrahydro-4-methyl-
##JCAMP-DX=4.24
##DATA TYPE=INFRARED SPECTRUM
##ORIGIN=Sadtler Research Labs Under US-EPA Contract
##OWNER=NIST Standard Reference Data Program
##CAS REGISTRY NO=1121-84-2
##MOLFORM=C 6 H 10 O 2
##XUNITS=1/CM
##YUNITS=ABSORBANCE
##XFACTOR=1.0
##YFACTOR=0.000156024
##DELTAX=4.0
##FIRSTX=450.0
##LASTX=3966.0
##FIRSTY=0.010610
##MAXX=3966
##MINX=450
##MAXY=1.56024
##MINY=0
##NPOINTS=880
##XYDATA=(X++(Y..Y))
450.0 68 84 81 60 130 48 116 148 136 17
490.0 51 100 78 126 187 153 161 145 138 113
530.0 114 126 109 125 121 140 140 122 85 158
570.0 161 181 167 185 219 184 163 149 145 130
610.0 114 112 105 97 114 121 117 128 134 138
650.0 144 140 128 122 127 125 113 122 125 118
690.0 138 133 126 121 110 107 103 92 92 92
730.0 95 97 107 92 128 159 167 151 206 235
770.0 281 302 294 325 327 287 250 231 242 287
810.0 328 376 398 394 375 327 262 198 163 140
850.0 122 102 112 122 132 139 151 182 202 191
890.0 206 232 262 298 315 323 296 284 244 185
930.0 143 134 125 125 116 126 137 150 173 176
970.0 191 230 262 313 375 431 439 427 447 421
1010.0 356 324 308 315 330 348 374 424 453 504
1050.0 579 688 847 1026 1281 1599 1943 2239 2435 2665
1090.0 2809 2748 2490 2187 1904 1536 1168 939 844 853
1130.0 949 1118 1296 1421 1491 1583 1593 1449 1282 1144
1170.0 1023 941 877 848 851 894 1041 1265 1570 1941
1210.0 2339 2683 2869 2898 2868 2722 2358 2038 1889 1913
1250.0 1982 1851 1736 1709 1504 1172 958 820 722 664
1290.0 660 608 524 483 459 431 419 431 430 401
1330.0 387 413 465 507 498 489 468 424 417 401
1370.0 426 516 577 696 827 903 959 919 824 750
1410.0 633 472 406 342 351 366 417 435 485 511
1450.0 542 528 563 534 521 489 474 445 394 378
1490.0 344 282 226 185 175 158 131 112 106 92
1530.0 86 87 84 104 92 85 87 95 69 73
1570.0 70 71 68 74 80 85 78 101 82 96
1610.0 100 89 112 97 112 81 101 94 90 103
1650.0 98 111 94 106 96 111 129 131 153 168
1690.0 163 178 200 198 227 228 265 319 347 398
1730.0 446 528 559 629 758 967 1337 2061 3242 5109
1770.0 7441 8526 10000 9871 9876 8579 5567 3855 2397 1442
1810.0 958 634 467 382 311 267 211 181 186 168
1850.0 165 145 150 145 134 145 121 117 115 106
1890.0 105 96 90 87 89 86 82 74 74 63
1930.0 61 51 52 57 38 43 44 44 49 51
1970.0 48 46 50 54 55 59 56 53 45 46
2010.0 49 54 45 37 45 45 38 36 38 38
2050.0 35 32 39 31 35 31 31 29 29 34
2090.0 29 28 21 28 32 24 18 27 21 21
2130.0 21 23 25 19 27 26 27 29 27 30
2170.0 31 25 31 29 23 23 22 26 22 22
2210.0 21 24 28 19 23 19 22 18 23 19
2250.0 22 19 20 22 19 19 21 17 27 22
2290.0 27 26 24 26 26 31 24 20 18 9
2330.0 11 3 0 14 18 25 19 17 18 27
2370.0 20 26 22 17 22 21 16 15 14 17
2410.0 16 16 18 18 19 20 20 19 19 18
2450.0 17 19 16 15 15 12 15 15 14 8
2490.0 7 4 5 3 2 4 1 2 1 0
2530.0 0 5 5 3 5 5 5 5 5 6
2570.0 2 6 4 6 4 7 7 5 10 9
2610.0 14 15 15 18 12 15 17 12 16 16
2650.0 18 22 17 18 22 21 18 17 14 17
2690.0 15 19 18 19 20 20 22 23 24 27
2730.0 33 38 45 49 52 57 58 59 67 67
2770.0 71 72 72 71 69 65 63 57 56 56
2810.0 57 63 63 67 78 94 108 121 140 171
2850.0 206 249 292 345 399 480 593 718 846 989
2890.0 1128 1246 1310 1326 1325 1322 1326 1346 1416 1466
2930.0 1566 1744 1838 1893 1959 2044 2168 2288 2583 2953
2970.0 2860 2585 2384 2057 1587 1183 987 818 625 470
3010.0 328 218 150 107 80 71 61 59 54 50
3050.0 46 42 44 41 36 30 28 26 22 27
3090.0 22 20 19 15 12 15 12 15 15 11
3130.0 9 14 11 12 14 12 9 14 14 15
3170.0 19 18 23 16 17 20 25 21 18 16
3210.0 14 8 11 10 9 7 6 2 3 6
3250.0 7 8 8 4 6 3 2 0 3 4
3290.0 1 2 1 6 3 0 6 6 4 4
3330.0 1 6 9 3 4 7 6 2 3 4
3370.0 7 6 9 0 1 6 6 2 4 4
3410.0 2 5 4 12 8 7 3 3 3 0
3450.0 6 3 11 8 11 6 6 11 14 11
3490.0 12 18 14 24 23 32 37 50 69 88
3530.0 105 123 127 128 127 104 76 81 65 67
3570.0 55 53 36 38 36 30 28 26 25 25
3610.0 32 28 31 29 33 24 32 29 29 27
3650.0 35 27 33 39 35 36 25 34 25 37
3690.0 24 25 44 23 32 33 30 37 29 29
3730.0 26 27 31 25 29 19 30 27 31 25
3770.0 29 35 24 26 25 32 35 19 28 30
3810.0 15 31 25 16 22 35 22 26 17 16
3850.0 37 12 33 20 32 19 22 31 23 26
3890.0 31 17 28 41 26 27 46 35 33 22
3930.0 33 42 27 26 41 38 38 42 33 18
##END=
