##TITLE=Benzene, 2-iodo-1,4-dimethyl-
##JCAMP-DX=4.24
##DATA TYPE=INFRARED SPECTRUM
##ORIGIN=Sadtler Research Labs Under US-EPA Contract
##OWNER=NIST Standard Reference Data Program
##CAS REGISTRY NO=1122-42-5
##MOLFORM=C 8 H 9 I
##XUNITS=1/CM
##YUNITS=ABSORBANCE
##XFACTOR=1.0
##YFACTOR=0.000053174
##DELTAX=4.0
##FIRSTX=450.0
##LASTX=3966.0
##FIRSTY=0.024194
##MAXX=3966
##MINX=450
##MAXY=0.53174
##MINY=0
##NPOINTS=880
##XYDATA=(X++(Y..Y))
450.0 455 421 475 331 182 98 56 64 9 151
490.0 126 70 118 302 324 538 674 832 1207 1350
530.0 1217 795 554 355 186 191 210 250 295 354
570.0 369 309 386 210 264 174 303 294 229 198
610.0 253 273 282 242 325 298 355 335 310 441
650.0 405 583 937 1943 2586 2616 2448 1097 648 597
690.0 767 693 547 505 350 304 398 617 791 1027
730.0 1174 1093 857 682 429 377 279 277 335 397
770.0 369 374 401 445 703 1455 2776 4386 6099 9022
810.0 5855 4283 2720 1342 797 1027 1622 2613 3364 3271
850.0 2784 1940 1585 1603 1619 1540 1480 1001 812 608
890.0 460 424 403 362 346 369 378 362 377 380
930.0 400 407 429 484 565 593 696 796 970 1234
970.0 1581 1860 1839 1574 1222 852 821 832 871 910
1010.0 955 1032 1176 1756 3469 6374 7471 7293 4992 2130
1050.0 1420 1285 1217 1115 931 709 543 478 414 404
1090.0 425 362 398 371 354 401 381 340 351 347
1130.0 380 397 469 695 792 791 721 518 436 429
1170.0 443 476 491 535 493 517 563 700 942 1187
1210.0 1408 1428 1165 925 598 484 445 414 414 436
1250.0 486 578 627 704 743 780 823 713 695 603
1290.0 441 385 368 358 365 374 401 410 458 477
1330.0 484 490 502 497 482 470 481 516 627 795
1370.0 1046 1402 1817 2169 2357 2388 2167 1860 1588 1449
1410.0 1377 1389 1503 1597 1696 1908 2171 2488 2547 2714
1450.0 2846 3046 3327 3273 3392 3381 3827 4813 6965 9405
1490.0 10000 9205 6356 3549 2614 1945 1620 1518 1474 1311
1530.0 1250 1339 1430 1762 1824 2066 2387 2752 2735 2376
1570.0 2065 1650 1480 1305 1368 1529 1812 2281 2796 3119
1610.0 2956 2263 1566 811 527 391 384 447 316 402
1650.0 347 617 296 304 280 387 384 368 362 493
1690.0 283 274 401 480 328 293 318 462 329 356
1730.0 437 663 665 736 683 649 485 342 275 212
1770.0 251 295 187 198 198 183 248 193 241 221
1810.0 259 294 286 280 291 260 223 223 230 300
1850.0 226 216 198 196 188 261 273 369 498 598
1890.0 615 517 369 254 203 200 190 208 187 178
1930.0 160 152 143 154 158 139 128 128 118 128
1970.0 117 136 126 134 143 160 153 140 138 146
2010.0 140 132 140 112 110 111 101 110 99 88
2050.0 99 98 103 106 105 115 105 95 104 104
2090.0 102 93 92 102 100 117 123 107 109 98
2130.0 99 89 78 87 86 70 84 68 76 75
2170.0 91 84 93 83 92 90 91 80 73 62
2210.0 78 76 88 87 86 86 86 86 84 85
2250.0 75 84 68 67 73 72 61 61 72 59
2290.0 79 78 78 77 77 56 48 23 18 18
2330.0 18 18 18 18 18 18 18 18 18 18
2370.0 18 21 34 58 73 79 92 83 102 120
2410.0 122 134 159 143 147 129 104 101 87 87
2450.0 89 88 88 98 98 100 90 97 94 101
2490.0 96 91 97 91 76 95 94 94 105 115
2530.0 113 100 95 86 90 88 100 97 100 90
2570.0 100 110 141 170 188 220 213 205 172 136
2610.0 105 95 96 106 97 106 106 107 107 107
2650.0 109 108 108 103 91 92 73 83 91 82
2690.0 87 91 78 101 100 111 115 104 114 135
2730.0 172 211 280 379 456 436 403 298 211 181
2770.0 157 151 141 149 159 151 178 189 213 231
2810.0 253 291 315 345 363 403 458 516 587 701
2850.0 849 1023 1284 1672 2136 2534 2812 2977 2946 2850
2890.0 2689 2516 2395 2285 2266 2340 2507 2945 3701 4973
2930.0 6494 7352 7379 6530 5023 3923 3424 3248 3267 3085
2970.0 2976 3042 3318 3631 3681 3593 3210 2816 2603 2647
3010.0 2869 3199 3561 3777 3710 3637 3444 3217 3130 3168
3050.0 3304 3645 4048 4072 3709 3010 2163 1501 1113 912
3090.0 817 766 729 661 574 488 403 325 261 196
3130.0 179 176 154 146 124 132 142 140 122 122
3170.0 132 110 95 106 112 102 97 81 80 93
3210.0 100 90 91 91 98 72 86 83 62 63
3250.0 76 56 87 69 65 49 58 58 40 45
3290.0 45 54 58 57 53 63 54 56 35 54
3330.0 44 64 64 39 46 56 43 43 49 54
3370.0 42 51 50 41 62 67 52 41 61 58
3410.0 47 38 53 62 52 54 65 47 48 46
3450.0 46 20 20 47 31 57 42 47 32 42
3490.0 34 51 54 54 38 19 31 39 30 56
3530.0 49 31 28 58 49 39 69 56 50 59
3570.0 83 48 47 45 56 110 70 63 73 54
3610.0 112 98 90 95 72 179 83 68 75 109
3650.0 206 113 113 85 104 182 172 197 130 128
3690.0 224 153 138 128 120 159 172 122 149 173
3730.0 146 211 229 195 316 276 241 191 199 192
3770.0 209 177 177 194 199 186 215 221 275 229
3810.0 235 232 270 270 244 228 260 287 261 254
3850.0 272 361 244 228 256 258 256 241 268 266
3890.0 252 254 260 272 237 233 233 244 243 244
3930.0 272 253 235 226 230 237 0 17 18 18
##END=
