##TITLE=Ethanone, 1-(2-pyridinyl)-
##JCAMP-DX=4.24
##DATA TYPE=INFRARED SPECTRUM
##ORIGIN=Sadtler Research Labs Under US-EPA Contract
##OWNER=NIST Standard Reference Data Program
##CAS REGISTRY NO=1122-62-9
##MOLFORM=C 7 H 7 N O
##XUNITS=1/CM
##YUNITS=ABSORBANCE
##XFACTOR=1.0
##YFACTOR=0.000062650
##DELTAX=4.0
##FIRSTX=450.0
##LASTX=3966.0
##FIRSTY=0.013658
##MAXX=3966
##MINX=450
##MAXY=0.6265
##MINY=0
##NPOINTS=880
##XYDATA=(X++(Y..Y))
450.0 218 222 205 157 137 57 43 35 37 76
490.0 47 64 56 61 54 62 82 160 87 112
530.0 81 109 80 54 147 117 162 167 352 584
570.0 929 1537 2853 3914 4247 4211 3729 2305 1115 521
610.0 354 336 314 218 259 261 191 142 134 94
650.0 98 114 87 71 48 115 80 102 100 105
690.0 116 107 110 106 106 117 108 199 337 477
730.0 642 745 1009 1649 983 981 1086 1308 1637 1995
770.0 2311 3091 4079 2014 1808 1419 908 486 205 111
810.0 61 66 53 127 155 123 147 124 114 100
850.0 83 82 67 66 71 74 79 74 84 99
890.0 98 125 128 134 136 158 161 172 167 201
930.0 259 375 622 999 1401 1653 1711 1662 1445 1017
970.0 626 449 396 399 481 591 551 539 594 495
1010.0 391 386 416 495 586 693 872 991 903 820
1050.0 832 589 372 263 236 241 290 377 515 755
1090.0 1297 2021 2331 2397 2297 2011 1225 642 365 274
1130.0 254 240 270 294 275 260 245 211 155 127
1170.0 120 126 125 145 129 121 128 147 132 164
1210.0 244 400 721 1265 1975 2533 2715 2672 2369 1607
1250.0 764 527 639 1019 1794 3072 4350 5010 5386 5556
1290.0 4922 3151 2191 1890 1264 669 411 328 267 263
1330.0 303 367 552 777 1159 2010 3316 4320 4612 4603
1370.0 4467 3011 1614 916 629 468 443 467 454 505
1410.0 594 691 934 1027 1228 1457 1464 1284 1272 1168
1450.0 900 758 878 760 732 671 813 573 347 309
1490.0 381 266 330 280 384 436 320 386 470 378
1530.0 376 410 429 615 534 525 630 900 1115 1186
1570.0 1408 1600 1813 1584 1289 1092 936 765 537 398
1610.0 318 247 287 215 277 202 245 319 228 288
1650.0 381 484 347 411 506 581 587 549 660 810
1690.0 830 1155 2105 3650 5801 8706 9854 9540 10000 8771
1730.0 5132 2748 1369 784 472 409 322 347 381 387
1770.0 499 529 361 335 276 236 240 169 189 127
1810.0 124 116 99 98 127 138 85 74 117 174
1850.0 123 117 139 146 158 206 120 127 127 138
1890.0 167 166 162 146 124 132 134 145 160 150
1930.0 127 119 119 140 142 148 150 146 142 134
1970.0 130 119 112 128 133 144 134 106 91 69
2010.0 60 59 70 59 47 56 48 49 51 49
2050.0 45 37 26 26 25 19 9 17 9 12
2090.0 13 26 37 44 44 40 52 51 42 41
2130.0 33 34 35 26 36 26 20 31 27 27
2170.0 35 42 41 35 43 34 44 34 34 31
2210.0 34 32 35 35 35 44 44 43 44 44
2250.0 41 41 37 36 30 35 35 50 50 57
2290.0 64 73 71 81 76 86 94 83 89 80
2330.0 83 86 70 96 82 52 58 45 71 88
2370.0 99 101 92 68 58 50 47 38 32 32
2410.0 23 22 25 24 23 34 32 40 31 40
2450.0 41 49 41 48 51 43 39 25 35 34
2490.0 33 37 35 41 43 50 51 58 59 49
2530.0 53 49 36 37 33 26 27 31 30 21
2570.0 22 22 33 30 24 29 39 38 38 54
2610.0 55 48 49 49 49 48 47 55 65 60
2650.0 61 60 71 75 65 74 59 50 42 27
2690.0 29 20 20 21 25 28 29 31 37 21
2730.0 22 23 22 31 33 38 36 31 38 40
2770.0 31 25 24 32 41 40 36 30 43 46
2810.0 42 41 51 41 65 65 67 83 91 99
2850.0 104 102 127 121 132 133 121 116 116 117
2890.0 133 125 133 134 145 150 173 194 213 233
2930.0 268 311 337 354 339 323 299 246 255 259
2970.0 266 281 312 335 338 324 348 388 461 616
3010.0 800 940 978 970 877 712 508 409 448 553
3050.0 755 1089 1363 1506 1787 2052 1932 1632 1382 1185
3090.0 806 467 367 313 242 175 151 146 129 155
3130.0 147 172 182 200 187 169 140 103 109 69
3170.0 85 86 61 65 71 55 57 61 51 41
3210.0 54 42 57 50 64 75 50 41 56 62
3250.0 51 53 59 28 46 52 29 47 46 39
3290.0 50 64 66 50 46 55 50 46 48 49
3330.0 55 49 50 51 49 58 83 79 63 63
3370.0 64 43 59 59 92 62 60 132 138 187
3410.0 228 241 246 242 200 168 88 95 79 22
3450.0 46 25 34 59 44 55 58 46 41 42
3490.0 59 51 60 53 54 50 53 60 36 60
3530.0 33 49 43 54 36 28 43 59 34 46
3570.0 30 57 53 56 12 64 25 64 66 42
3610.0 87 51 31 66 32 78 66 69 57 45
3650.0 63 68 54 56 35 42 65 99 68 40
3690.0 68 78 51 48 44 43 33 25 23 29
3730.0 25 38 43 9 43 39 63 23 43 21
3770.0 35 40 37 32 36 17 24 18 10 8
3810.0 23 15 5 21 9 5 7 9 21 23
3850.0 4 0 39 50 36 35 32 26 14 0
3890.0 4 25 30 22 34 43 46 61 44 43
3930.0 51 33 45 53 36 26 42 42 38 47
##END=
