##TITLE=Benzaldehyde, 4-bromo-
##JCAMP-DX=4.24
##DATA TYPE=INFRARED SPECTRUM
##ORIGIN=Sadtler Research Labs Under US-EPA Contract
##OWNER=NIST Standard Reference Data Program
##CAS REGISTRY NO=1122-91-4
##MOLFORM=C 7 H 5 Br O
##XUNITS=1/CM
##YUNITS=ABSORBANCE
##XFACTOR=1.0
##YFACTOR=0.000073291
##DELTAX=4.0
##FIRSTX=450.0
##LASTX=3966.0
##FIRSTY=0.016930
##MAXX=3966
##MINX=450
##MAXY=0.73291
##MINY=0
##NPOINTS=880
##XYDATA=(X++(Y..Y))
450.0 231 166 223 235 319 345 393 257 278 326
490.0 298 313 365 325 207 89 2 52 37 91
530.0 150 82 159 127 65 100 77 66 123 146
570.0 125 193 99 105 38 182 154 169 148 157
610.0 145 116 132 241 116 188 139 124 252 120
650.0 231 178 187 138 226 268 307 334 294 413
690.0 326 235 163 191 168 138 131 72 84 127
730.0 149 198 240 312 302 388 483 559 543 544
770.0 463 418 388 310 375 416 718 1028 1448 1710
810.0 2025 2520 2595 3576 4362 4079 3309 1816 894 560
850.0 346 263 214 142 151 128 128 137 155 135
890.0 150 149 170 185 146 126 118 123 112 113
930.0 140 114 174 209 269 256 253 199 162 121
970.0 140 162 141 161 192 217 239 319 521 1000
1010.0 1625 1593 1446 740 273 151 136 167 124 176
1050.0 217 360 734 1689 2613 2790 2794 1405 957 831
1090.0 693 577 503 440 364 276 291 242 202 178
1130.0 152 155 134 126 134 180 255 495 1149 1620
1170.0 1599 1417 786 660 886 1462 2054 2225 1995 1229
1210.0 482 340 320 299 265 227 211 201 206 223
1250.0 258 302 337 378 426 453 434 385 340 323
1290.0 453 577 552 580 434 365 349 330 307 287
1330.0 263 226 240 269 325 361 413 470 543 567
1370.0 582 698 869 840 824 596 415 378 355 351
1410.0 330 319 274 225 210 176 168 154 144 145
1450.0 165 154 137 153 183 236 361 588 881 936
1490.0 829 549 219 145 102 128 121 112 91 112
1530.0 110 115 143 173 227 260 283 335 532 844
1570.0 1249 1605 1879 2254 2981 3826 3890 3155 1731 599
1610.0 256 196 172 179 200 227 254 297 319 320
1650.0 346 331 333 315 272 240 238 251 274 333
1690.0 418 496 605 746 994 1504 2911 6424 10000 9540
1730.0 8924 3876 1499 964 701 602 706 994 1186 1165
1770.0 1003 580 380 276 225 231 244 240 204 164
1810.0 121 102 94 93 88 77 72 59 68 58
1850.0 61 72 79 79 85 74 93 107 121 140
1890.0 139 132 121 109 117 104 103 109 97 80
1930.0 75 73 69 68 65 62 61 55 47 53
1970.0 53 60 58 60 57 65 81 75 74 68
2010.0 69 72 84 104 110 104 88 67 53 36
2050.0 40 36 35 35 37 42 41 34 34 35
2090.0 36 33 33 34 26 30 27 28 25 26
2130.0 33 32 24 24 24 35 32 27 24 36
2170.0 35 29 30 30 29 23 28 29 22 33
2210.0 29 20 28 28 32 33 34 26 34 32
2250.0 34 31 38 40 48 54 47 51 58 57
2290.0 65 70 78 84 92 103 93 89 103 96
2330.0 107 92 103 100 141 107 130 159 164 165
2370.0 134 111 88 75 56 53 45 45 39 25
2410.0 32 24 30 17 17 16 20 17 8 17
2450.0 22 16 8 21 16 16 20 17 17 11
2490.0 20 17 21 21 28 22 28 35 34 44
2530.0 43 42 58 66 69 74 63 63 56 63
2570.0 63 75 71 61 58 54 52 61 49 50
2610.0 50 42 30 36 37 36 44 48 49 56
2650.0 74 69 80 91 105 117 139 139 148 166
2690.0 193 221 262 315 386 486 634 812 1024 1114
2730.0 1128 1000 806 640 518 426 387 369 364 400
2770.0 417 434 430 403 403 438 499 598 710 822
2810.0 941 1058 1166 1204 1109 951 689 464 332 226
2850.0 168 130 118 102 90 84 75 90 75 74
2890.0 68 68 76 59 49 49 51 49 41 49
2930.0 62 49 68 56 49 55 55 56 52 65
2970.0 57 51 58 48 50 54 43 57 44 50
3010.0 71 63 70 88 116 124 131 130 140 134
3050.0 132 139 131 111 89 91 95 103 117 147
3090.0 154 167 163 128 105 85 58 52 45 39
3130.0 38 49 28 34 30 32 33 13 27 20
3170.0 18 27 14 26 32 31 27 12 13 21
3210.0 12 22 20 28 17 26 28 15 25 17
3250.0 22 26 32 14 21 14 28 28 22 34
3290.0 33 23 19 23 40 25 31 30 22 29
3330.0 36 42 15 36 15 24 28 29 35 47
3370.0 30 49 44 50 42 52 48 46 50 46
3410.0 58 76 87 119 130 152 145 118 108 61
3450.0 46 26 28 40 23 23 23 21 32 32
3490.0 33 32 31 39 28 36 50 25 28 44
3530.0 25 36 39 46 26 35 32 51 56 56
3570.0 85 126 218 348 401 369 228 115 81 45
3610.0 43 49 60 57 54 59 57 60 69 64
3650.0 55 70 70 63 60 64 68 77 56 62
3690.0 79 57 58 62 76 56 63 73 82 70
3730.0 66 79 86 58 61 57 63 71 70 78
3770.0 70 58 72 83 73 80 63 59 59 44
3810.0 58 59 52 79 63 60 75 73 68 79
3850.0 77 77 92 88 73 67 86 77 74 90
3890.0 93 90 86 89 94 99 120 107 101 114
3930.0 142 113 107 113 98 112 0 8 8 8
##END=
