##TITLE=Ethanone, 1-(4-pyridinyl)-
##JCAMP-DX=4.24
##DATA TYPE=INFRARED SPECTRUM
##ORIGIN=Sadtler Research Labs Under US-EPA Contract
##OWNER=NIST Standard Reference Data Program
##CAS REGISTRY NO=1122-54-9
##MOLFORM=C 7 H 7 N O
##XUNITS=1/CM
##YUNITS=ABSORBANCE
##XFACTOR=1.0
##YFACTOR=0.000103366
##DELTAX=4.0
##FIRSTX=450.0
##LASTX=3966.0
##FIRSTY=0.018916
##MAXX=3966
##MINX=450
##MAXY=1.03366
##MINY=0
##NPOINTS=880
##XYDATA=(X++(Y..Y))
450.0 183 128 52 83 114 26 101 87 138 97
490.0 160 101 104 85 112 79 71 122 103 101
530.0 94 167 105 148 135 140 145 184 224 326
570.0 655 1228 2262 2961 3314 3494 3152 2376 1427 1030
610.0 740 610 403 318 239 219 185 153 158 128
650.0 151 123 205 160 173 151 172 118 89 111
690.0 68 89 74 102 72 93 88 90 133 142
730.0 186 160 189 132 127 95 115 117 101 131
770.0 121 148 125 231 255 434 732 1088 1450 1709
810.0 2704 2638 1849 1563 1215 811 512 270 202 154
850.0 149 138 132 158 145 169 162 148 128 117
890.0 107 86 85 74 89 78 95 80 107 100
930.0 124 166 239 396 589 771 847 866 813 642
970.0 435 319 304 378 453 438 448 410 328 197
1010.0 169 178 183 205 188 209 179 188 171 179
1050.0 190 287 514 652 764 826 883 642 432 423
1090.0 397 332 273 232 191 180 161 163 155 153
1130.0 141 133 133 124 127 116 144 154 187 204
1170.0 224 232 229 240 233 262 300 398 509 656
1210.0 753 780 846 940 1044 1256 1639 1973 2340 3070
1250.0 4608 7096 9218 10000 9920 9175 5218 1862 617 379
1290.0 275 274 261 291 320 370 461 493 468 438
1330.0 437 368 395 487 656 1084 1806 2703 3119 3208
1370.0 3256 2640 1583 1000 835 893 1141 1587 2070 2159
1410.0 2065 2248 2109 1465 1176 914 820 760 654 551
1450.0 459 444 393 308 260 233 282 264 284 316
1490.0 356 281 312 246 241 273 221 254 257 312
1530.0 331 420 532 763 925 1077 1233 1324 1312 1228
1570.0 1031 820 717 725 773 797 694 602 430 291
1610.0 188 162 187 172 181 133 167 158 145 132
1650.0 265 198 309 306 444 494 653 649 714 896
1690.0 1036 1589 2194 3965 5655 7507 7729 7965 7424 6042
1730.0 3309 2076 1143 885 620 608 585 527 529 400
1770.0 417 267 248 160 139 87 119 110 91 97
1810.0 75 95 55 96 78 98 89 103 131 155
1850.0 170 128 139 101 100 78 57 56 52 61
1890.0 59 73 50 71 67 86 84 104 132 124
1930.0 160 168 192 178 190 164 140 106 85 76
1970.0 56 61 44 47 40 56 51 42 44 31
2010.0 29 21 37 24 34 30 30 31 30 32
2050.0 19 28 18 29 21 28 21 24 29 27
2090.0 32 26 31 21 25 14 17 12 8 13
2130.0 11 14 11 20 10 16 14 18 14 15
2170.0 15 8 15 10 15 9 20 19 18 22
2210.0 21 24 15 23 11 12 7 8 4 3
2250.0 7 3 9 6 13 11 17 18 18 18
2290.0 21 24 18 24 19 23 14 20 15 16
2330.0 19 11 18 10 26 15 1 0 18 28
2370.0 35 51 39 38 26 32 25 22 20 20
2410.0 18 18 21 15 22 20 25 19 22 23
2450.0 19 21 17 16 7 15 10 11 13 11
2490.0 12 9 14 11 16 18 21 19 23 21
2530.0 20 19 12 16 14 21 16 18 11 16
2570.0 13 12 18 16 21 13 25 21 22 23
2610.0 25 28 29 35 32 34 30 33 29 32
2650.0 35 39 44 44 47 37 38 32 29 22
2690.0 22 20 16 18 13 21 13 20 20 20
2730.0 18 19 19 18 26 25 29 26 34 32
2770.0 31 28 25 26 25 30 24 31 32 35
2810.0 32 34 35 34 40 45 56 56 70 73
2850.0 81 83 89 89 87 94 100 109 114 118
2890.0 112 107 100 90 90 89 98 107 129 148
2930.0 169 181 198 210 206 218 231 265 306 353
2970.0 387 430 454 441 414 383 362 340 338 374
3010.0 478 595 716 851 991 1066 1123 1204 1277 1265
3050.0 1093 990 993 920 851 888 1032 1211 1207 1089
3090.0 1114 1008 685 446 309 224 165 143 121 111
3130.0 98 89 79 68 57 53 53 40 49 39
3170.0 41 37 32 38 35 40 32 40 33 36
3210.0 32 39 40 35 38 35 33 28 37 33
3250.0 29 30 34 32 30 35 35 35 31 41
3290.0 26 30 27 29 27 19 32 28 27 27
3330.0 31 24 28 25 25 29 31 29 33 43
3370.0 37 34 32 42 48 70 93 118 157 165
3410.0 198 195 182 155 114 84 59 41 21 30
3450.0 30 28 24 24 31 26 22 21 28 21
3490.0 25 26 24 23 32 20 23 21 21 35
3530.0 24 34 15 25 32 32 26 25 20 42
3570.0 35 35 29 25 30 27 44 20 29 19
3610.0 37 24 33 43 17 51 40 23 32 9
3650.0 54 34 44 25 5 42 22 77 23 45
3690.0 28 60 32 48 45 32 59 38 21 42
3730.0 33 36 52 59 58 53 82 47 38 37
3770.0 43 40 19 46 24 29 28 23 40 30
3810.0 26 29 14 60 29 20 25 48 35 38
3850.0 1 61 52 38 33 50 37 47 46 33
3890.0 38 43 34 36 56 33 26 43 37 52
3930.0 37 41 42 41 37 49 34 40 45 29
##END=
