##TITLE=Cyclohexane, nitro-
##JCAMP-DX=4.24
##DATA TYPE=INFRARED SPECTRUM
##ORIGIN=Sadtler Research Labs Under US-EPA Contract
##OWNER=NIST Standard Reference Data Program
##CAS REGISTRY NO=1122-60-7
##MOLFORM=C 6 H 11 N O 2
##XUNITS=1/CM
##YUNITS=ABSORBANCE
##XFACTOR=1.0
##YFACTOR=0.000143979
##DELTAX=4.0
##FIRSTX=450.0
##LASTX=3966.0
##FIRSTY=0.029372
##MAXX=3966
##MINX=450
##MAXY=1.43979
##MINY=0
##NPOINTS=880
##XYDATA=(X++(Y..Y))
450.0 204 195 162 34 12 122 95 128 204 101
490.0 133 172 191 267 230 306 372 173 139 176
530.0 152 71 144 191 129 137 2 124 162 89
570.0 133 56 98 93 132 90 140 112 129 124
610.0 100 70 78 80 113 127 132 138 162 161
650.0 170 167 141 152 166 263 132 145 109 121
690.0 185 199 214 166 155 179 218 276 289 321
730.0 469 576 840 935 923 810 720 492 347 232
770.0 159 146 81 124 95 92 181 322 433 405
810.0 438 369 327 175 152 153 190 250 311 298
850.0 284 231 170 135 148 140 163 277 285 448
890.0 630 730 715 705 580 446 372 329 257 177
930.0 125 130 124 70 57 78 61 56 42 55
970.0 63 54 59 62 80 78 100 154 156 196
1010.0 191 213 200 170 191 186 174 138 166 109
1050.0 70 68 76 82 62 69 70 87 72 106
1090.0 77 98 103 95 78 55 115 124 140 125
1130.0 148 147 175 196 235 257 264 243 215 174
1170.0 135 119 101 78 54 71 56 57 71 65
1210.0 91 108 112 144 188 239 281 324 371 366
1250.0 360 352 357 356 377 393 408 416 443 460
1290.0 476 500 509 508 495 506 540 562 632 652
1330.0 680 767 961 1235 1540 1734 1794 1781 1801 1951
1370.0 2400 2941 3154 3091 2743 1897 1197 858 710 607
1410.0 578 499 510 493 503 557 580 698 877 1110
1450.0 1417 1631 1801 1788 1532 1270 1002 665 489 346
1490.0 337 285 266 339 366 507 639 840 1226 1586
1530.0 2135 2786 3424 4286 5138 6357 7446 8413 10000 9758
1570.0 9828 8251 6862 5605 4111 3102 2321 1630 1087 728
1610.0 474 319 236 169 165 117 132 138 117 139
1650.0 142 120 119 80 90 90 113 102 133 137
1690.0 135 141 172 178 177 168 168 191 168 165
1730.0 175 173 172 146 147 135 115 107 96 91
1770.0 97 99 91 93 100 104 120 124 132 125
1810.0 128 129 129 126 110 91 71 61 51 55
1850.0 43 41 45 40 45 48 36 35 31 36
1890.0 35 34 32 29 31 31 28 29 26 24
1930.0 22 22 24 26 27 20 19 23 19 28
1970.0 20 23 28 25 26 27 27 25 23 22
2010.0 18 16 19 18 19 16 15 16 18 19
2050.0 16 14 18 13 20 15 14 19 19 14
2090.0 16 16 12 13 12 15 15 16 15 15
2130.0 16 22 19 19 22 23 22 23 25 25
2170.0 23 22 20 22 24 25 24 25 27 27
2210.0 27 23 21 23 19 22 27 31 30 34
2250.0 35 36 36 31 26 20 18 18 15 18
2290.0 20 22 28 26 25 31 22 20 19 21
2330.0 12 2 19 0 37 19 49 28 38 16
2370.0 22 25 28 30 32 30 28 26 24 22
2410.0 18 20 16 19 19 23 23 21 21 20
2450.0 16 18 19 20 24 22 22 22 24 22
2490.0 22 20 20 15 11 10 6 6 9 11
2530.0 15 9 9 7 5 6 8 7 6 8
2570.0 9 11 13 14 19 25 29 24 30 32
2610.0 32 29 29 27 23 24 27 28 36 42
2650.0 56 60 74 88 98 107 110 115 104 96
2690.0 91 87 82 77 75 73 70 70 66 61
2730.0 54 48 44 47 54 60 66 62 65 60
2770.0 57 58 57 61 70 79 91 105 114 118
2810.0 121 119 118 119 121 126 135 158 206 290
2850.0 458 776 1269 1913 2484 2917 2974 2796 2301 1824
2890.0 1457 1177 1015 974 1031 1186 1430 1759 2151 2576
2930.0 3213 4143 5309 6710 8270 8791 8533 7974 6485 4778
2970.0 3592 2865 2226 1651 1158 772 505 319 203 133
3010.0 96 71 53 48 37 33 30 24 26 27
3050.0 29 30 33 35 33 21 26 20 14 10
3090.0 9 9 11 9 8 6 3 7 4 3
3130.0 2 6 11 8 10 10 10 15 16 15
3170.0 16 18 13 13 5 8 6 4 4 7
3210.0 8 10 8 10 12 16 13 14 13 8
3250.0 12 12 7 11 7 6 3 3 2 3
3290.0 3 4 4 2 7 10 10 7 3 8
3330.0 9 11 10 15 12 7 12 11 12 15
3370.0 20 15 20 21 22 24 18 18 15 21
3410.0 19 22 26 23 19 24 28 28 30 34
3450.0 32 30 31 31 26 27 28 20 21 25
3490.0 21 20 18 23 21 16 22 20 22 20
3530.0 18 15 18 21 20 16 20 18 20 13
3570.0 15 14 24 14 23 20 19 12 18 18
3610.0 20 20 8 22 8 20 19 27 23 43
3650.0 21 33 16 28 21 20 31 10 30 18
3690.0 29 5 32 25 16 23 24 27 29 16
3730.0 27 24 19 45 13 55 16 42 30 48
3770.0 34 23 38 31 37 46 21 48 23 39
3810.0 24 46 41 39 37 33 33 44 34 37
3850.0 27 31 23 36 48 37 51 26 35 6
3890.0 43 29 30 38 29 20 28 21 19 2
3930.0 11 24 23 28 31 20 39 34 27 28
##END=
