##TITLE=1-Methyl-1-cyclohexanecarboxylic acid
##JCAMP-DX=4.24
##DATA TYPE=INFRARED SPECTRUM
##ORIGIN=Sadtler Research Labs Under US-EPA Contract
##OWNER=NIST Standard Reference Data Program
##CAS REGISTRY NO=1123-25-7
##MOLFORM=C 8 H 14 O 2
##XUNITS=1/CM
##YUNITS=ABSORBANCE
##XFACTOR=1.0
##YFACTOR=0.000105783
##DELTAX=4.0
##FIRSTX=450.0
##LASTX=3966.0
##FIRSTY=0.000000
##MAXX=3966
##MINX=450
##MAXY=1.05783
##MINY=0
##NPOINTS=880
##XYDATA=(X++(Y..Y))
450.0 0 25 57 58 76 64 57 100 105 131
490.0 158 188 219 253 322 411 522 645 736 771
530.0 793 791 774 797 888 1019 1139 1293 1334 1413
570.0 1479 1585 1763 1999 2133 2225 1897 1571 1196 862
610.0 676 590 581 678 701 758 656 568 367 207
650.0 120 91 64 60 66 54 59 63 93 139
690.0 270 515 821 990 1138 975 785 558 304 192
730.0 173 185 211 232 252 245 279 368 476 576
770.0 671 556 496 358 249 199 185 197 217 225
810.0 246 214 181 125 81 65 70 97 134 159
850.0 185 160 162 145 163 172 182 182 175 162
890.0 154 144 121 97 75 65 72 106 156 194
930.0 261 239 185 150 113 104 133 187 244 284
970.0 276 240 206 156 125 115 106 102 104 113
1010.0 134 186 250 305 374 418 482 529 559 622
1050.0 617 667 737 870 1101 1376 1718 2212 2877 3685
1090.0 4664 5603 6360 6822 6568 6186 5283 4208 3200 2370
1130.0 1732 1367 1244 1303 1473 1678 1894 1844 1731 1517
1170.0 1295 1159 1138 1178 1246 1210 1053 886 670 507
1210.0 398 331 290 268 261 266 274 277 282 283
1250.0 273 265 258 272 311 353 394 439 469 473
1290.0 480 506 549 595 632 659 667 666 657 630
1330.0 583 506 438 372 333 319 319 322 333 346
1370.0 389 453 498 555 578 509 430 340 243 193
1410.0 175 169 200 213 247 299 404 582 799 1092
1450.0 1360 1560 1681 1624 1544 1367 1103 837 571 349
1490.0 242 189 167 119 113 104 82 86 100 94
1530.0 97 100 105 112 96 79 75 87 76 64
1570.0 71 74 84 84 86 92 97 108 116 119
1610.0 119 121 142 141 155 162 180 199 193 200
1650.0 189 184 143 126 124 140 159 168 189 209
1690.0 212 234 303 371 451 569 710 865 978 1070
1730.0 1167 1272 1386 1672 2339 3586 5347 7125 8938 10000
1770.0 8682 7276 5134 3121 1958 1398 1093 884 734 592
1810.0 478 373 287 211 157 121 94 74 68 68
1850.0 56 50 47 45 45 47 37 33 33 33
1890.0 39 36 32 29 27 27 24 28 29 25
1930.0 25 29 29 31 31 29 26 27 28 25
1970.0 24 24 24 26 27 30 28 26 24 21
2010.0 17 17 15 14 15 12 10 11 10 7
2050.0 7 10 8 12 17 16 15 16 13 10
2090.0 8 8 7 7 7 8 10 11 13 16
2130.0 16 18 18 21 22 24 26 27 27 26
2170.0 29 30 30 31 34 36 39 40 43 41
2210.0 41 40 36 34 30 28 26 25 26 26
2250.0 25 27 29 31 33 32 34 36 37 36
2290.0 35 33 35 35 37 38 33 27 24 19
2330.0 16 19 24 30 44 31 14 16 17 36
2370.0 42 51 49 46 39 30 27 25 27 29
2410.0 32 32 34 39 41 45 48 52 55 54
2450.0 54 54 51 50 51 52 53 55 56 56
2490.0 55 54 53 54 53 52 49 51 49 47
2530.0 49 48 47 51 51 50 51 53 57 54
2570.0 58 57 60 59 62 64 65 72 74 78
2610.0 81 85 89 91 95 98 101 104 110 117
2650.0 121 133 146 157 170 176 180 180 172 162
2690.0 151 139 138 130 130 126 122 123 125 126
2730.0 129 136 142 141 146 150 152 156 159 165
2770.0 173 182 192 202 213 221 235 246 256 267
2810.0 276 283 292 304 315 331 363 424 534 726
2850.0 1051 1559 2078 2546 2932 3020 2950 2696 2375 2102
2890.0 1910 1806 1813 1932 2061 2200 2410 2741 3329 4251
2930.0 5575 7195 8665 9579 9622 8530 7036 5248 3803 2908
2970.0 2504 2371 2127 1963 1632 1288 973 730 555 403
3010.0 289 239 221 214 212 206 195 183 176 172
3050.0 168 168 174 179 178 173 166 163 160 156
3090.0 147 142 139 137 136 137 136 129 126 124
3130.0 119 120 118 111 113 112 107 108 105 106
3170.0 106 106 104 101 104 101 100 99 93 94
3210.0 92 91 90 84 81 81 83 78 82 78
3250.0 82 76 73 70 69 73 70 68 67 67
3290.0 64 65 67 64 63 65 66 65 70 69
3330.0 64 65 68 64 59 58 60 60 59 57
3370.0 49 52 53 51 53 51 49 44 45 46
3410.0 46 40 40 41 39 42 39 36 38 46
3450.0 43 48 49 41 41 45 41 43 43 42
3490.0 43 49 60 69 75 87 90 80 74 66
3530.0 49 44 41 46 67 106 236 548 1197 2100
3570.0 2853 3377 3218 2496 1700 801 278 107 64 49
3610.0 50 48 50 51 38 46 35 27 29 30
3650.0 42 33 30 29 25 33 32 39 30 27
3690.0 40 35 38 36 27 34 41 32 28 34
3730.0 28 33 41 33 50 43 46 33 32 28
3770.0 29 29 26 32 32 29 33 34 36 30
3810.0 35 25 46 42 30 35 39 47 48 41
3850.0 40 52 41 37 45 48 40 32 36 46
3890.0 36 39 49 52 48 39 36 41 46 31
3930.0 39 43 27 27 34 34 36 29 35 36
##END=
