##TITLE=Cyclopentaneacetic acid
##JCAMP-DX=4.24
##DATA TYPE=INFRARED SPECTRUM
##ORIGIN=Sadtler Research Labs Under US-EPA Contract
##OWNER=NIST Standard Reference Data Program
##CAS REGISTRY NO=1123-00-8
##MOLFORM=C 7 H 12 O 2
##XUNITS=1/CM
##YUNITS=ABSORBANCE
##XFACTOR=1.0
##YFACTOR=0.000115445
##DELTAX=4.0
##FIRSTX=450.0
##LASTX=3966.0
##FIRSTY=0.010736
##MAXX=3966
##MINX=450
##MAXY=1.15445
##MINY=0
##NPOINTS=880
##XYDATA=(X++(Y..Y))
450.0 93 75 54 87 51 86 79 117 148 159
490.0 192 233 309 379 464 509 515 512 469 419
530.0 361 325 318 337 360 432 505 593 692 780
570.0 879 953 1123 1358 1681 2019 2308 2540 2507 2398
610.0 2165 2051 1856 1799 1737 1680 1581 1467 1323 1124
650.0 977 816 717 605 574 486 445 431 403 394
690.0 386 408 400 404 381 360 326 294 266 236
730.0 208 181 160 128 113 89 74 57 52 41
770.0 32 25 27 17 8 12 8 11 11 13
810.0 18 23 28 37 46 55 71 88 105 123
850.0 145 157 169 178 180 182 181 186 185 187
890.0 188 184 171 156 134 127 119 123 129 130
930.0 137 143 148 156 160 168 177 185 188 191
970.0 188 183 169 162 151 139 146 146 162 174
1010.0 194 212 229 249 265 298 341 398 462 537
1050.0 630 751 890 1057 1253 1467 1705 1971 2294 2710
1090.0 3240 3862 4488 5075 5514 5733 5667 5343 4806 4179
1130.0 3545 3069 2764 2566 2429 2355 2362 2431 2493 2511
1170.0 2456 2291 2106 1960 1844 1726 1592 1452 1308 1183
1210.0 1089 1025 981 950 923 893 854 812 780 748
1250.0 738 736 748 757 771 775 774 766 759 763
1290.0 780 795 794 778 752 730 711 701 685 685
1330.0 699 742 822 921 1008 1057 1065 1050 1031 1054
1370.0 1140 1274 1397 1466 1444 1319 1132 917 718 600
1410.0 563 562 587 605 633 651 646 622 587 568
1450.0 574 586 571 531 472 403 354 322 284 256
1490.0 217 171 134 108 92 82 65 57 51 42
1530.0 34 29 31 31 26 22 22 24 21 16
1570.0 16 18 17 16 13 19 19 20 21 25
1610.0 22 26 29 28 34 32 39 39 41 43
1650.0 52 52 55 58 65 74 86 96 112 135
1690.0 154 190 231 286 351 441 569 754 988 1184
1730.0 1297 1359 1496 1725 2093 2530 3081 3804 4793 6150
1770.0 7686 9253 9894 10000 8882 7227 5409 4012 2916 2145
1810.0 1588 1177 856 624 461 346 270 215 180 150
1850.0 130 110 100 87 79 71 63 58 52 51
1890.0 45 44 41 41 40 39 39 39 39 38
1930.0 39 37 37 36 39 39 41 40 37 40
1970.0 38 36 32 31 26 25 20 16 15 12
2010.0 11 11 12 10 9 9 11 9 11 8
2050.0 6 5 3 5 3 6 4 5 2 1
2090.0 2 2 1 0 1 0 1 1 2 2
2130.0 3 3 6 6 6 8 11 15 14 18
2170.0 18 23 24 27 30 29 30 32 30 32
2210.0 33 31 32 28 28 23 25 25 23 26
2250.0 24 24 23 20 19 18 18 19 20 21
2290.0 21 22 24 23 24 24 20 19 18 19
2330.0 14 16 19 15 22 17 16 12 7 8
2370.0 12 12 14 13 12 12 10 11 10 10
2410.0 11 12 12 10 9 8 9 7 10 9
2450.0 10 12 12 11 14 12 12 12 13 14
2490.0 13 11 12 14 12 16 16 17 17 18
2530.0 18 20 20 21 22 23 25 25 24 26
2570.0 26 29 30 32 30 32 34 36 35 38
2610.0 37 38 42 43 42 46 49 51 53 54
2650.0 52 52 53 52 51 47 46 47 46 46
2690.0 46 47 46 51 49 51 53 54 54 56
2730.0 57 59 57 58 59 61 62 64 66 70
2770.0 71 77 80 85 92 97 103 110 116 125
2810.0 133 146 163 190 217 254 296 345 413 495
2850.0 605 755 959 1228 1558 1926 2301 2590 2668 2577
2890.0 2348 2038 1772 1648 1649 1770 1989 2264 2555 2831
2930.0 3088 3324 3624 4022 4570 5244 5977 6643 7130 7201
2970.0 6619 5706 4615 3555 2647 1954 1459 1117 881 712
3010.0 588 496 423 366 323 287 261 237 219 208
3050.0 198 190 181 177 170 163 161 155 146 147
3090.0 144 143 140 138 141 139 137 135 136 137
3130.0 134 134 132 126 126 124 118 119 117 117
3170.0 115 113 111 109 107 106 103 102 100 96
3210.0 94 95 90 90 86 85 86 83 82 82
3250.0 80 75 71 73 72 69 66 63 62 62
3290.0 58 59 56 53 49 49 46 47 48 45
3330.0 39 42 39 37 34 33 36 32 28 26
3370.0 26 29 27 24 28 25 24 24 22 22
3410.0 19 21 18 18 15 15 13 12 11 16
3450.0 10 11 12 16 18 14 12 20 24 28
3490.0 25 27 33 41 48 47 52 57 64 86
3530.0 83 87 110 121 155 179 234 386 747 1728
3570.0 3140 3686 3695 3400 2135 918 397 226 131 93
3610.0 81 65 55 43 35 47 34 25 26 31
3650.0 49 42 24 14 14 22 33 29 18 11
3690.0 28 18 13 19 10 26 31 18 25 35
3730.0 21 38 42 26 39 52 32 30 22 22
3770.0 22 14 18 23 22 15 14 26 34 31
3810.0 28 15 42 35 23 16 31 36 42 22
3850.0 27 56 34 27 39 40 34 23 28 26
3890.0 26 18 23 30 40 22 21 24 31 32
3930.0 26 27 16 21 23 23 9 19 19 18
##END=
