##TITLE=Phenol, 2,4-dichloro-5-methyl-
##JCAMP-DX=4.24
##DATA TYPE=INFRARED SPECTRUM
##ORIGIN=Sadtler Research Labs Under US-EPA Contract
##OWNER=NIST Standard Reference Data Program
##CAS REGISTRY NO=1124-07-8
##MOLFORM=C 7 H 6 Cl 2 O
##XUNITS=1/CM
##YUNITS=ABSORBANCE
##XFACTOR=1.0
##YFACTOR=0.000036218
##DELTAX=4.0
##FIRSTX=450.0
##LASTX=3966.0
##FIRSTY=0.016914
##MAXX=3966
##MINX=450
##MAXY=0.36218
##MINY=0
##NPOINTS=880
##XYDATA=(X++(Y..Y))
450.0 467 218 226 27 325 109 374 227 355 210
490.0 276 328 249 269 190 351 186 297 324 335
530.0 357 394 457 530 783 821 956 744 593 350
570.0 210 275 283 105 135 184 187 264 289 417
610.0 275 295 257 176 167 159 198 146 206 149
650.0 170 88 129 84 68 187 183 240 261 467
690.0 759 1363 2645 4183 5553 5509 4732 2810 1418 1244
730.0 2006 2251 2161 1843 775 358 400 522 562 585
770.0 481 401 239 167 171 156 220 193 214 180
810.0 188 157 145 123 140 140 127 190 136 189
850.0 199 505 741 1297 1807 2474 3504 2502 1601 1292
890.0 610 316 157 139 84 84 75 75 59 50
930.0 70 62 64 69 93 123 165 229 350 508
970.0 752 1070 1346 1368 1212 886 534 496 616 783
1010.0 838 828 730 598 530 461 428 376 352 340
1050.0 390 451 568 685 787 900 1041 1266 1530 1830
1090.0 1925 1883 1610 1173 752 493 378 337 384 436
1130.0 501 495 514 575 888 1795 3690 5419 5762 5751
1170.0 4275 2433 1758 1598 1966 2916 4360 5227 5667 5797
1210.0 4938 3880 3317 2932 2427 1977 1681 1490 1370 1354
1250.0 1388 1310 1361 1910 2819 3715 4223 4308 3988 3714
1290.0 4323 5426 6497 6738 6162 4960 3286 2099 1377 926
1330.0 587 442 358 326 281 272 253 254 301 351
1370.0 469 552 740 844 936 917 843 678 618 681
1410.0 769 992 1120 1232 1158 990 983 1083 1600 2246
1450.0 3639 4857 6596 7861 8335 8279 8641 10000 9832 9674
1490.0 7723 4921 2966 1941 1590 1192 965 820 708 798
1530.0 758 871 915 1058 1136 1259 1458 1520 1732 1775
1570.0 1850 1786 1758 1665 1520 1300 1031 777 656 566
1610.0 511 475 389 297 188 115 82 58 41 40
1650.0 61 0 64 48 64 35 59 40 62 48
1690.0 78 77 64 120 133 215 247 331 346 351
1730.0 309 251 165 126 87 72 73 66 81 58
1770.0 74 40 44 38 39 31 34 39 39 54
1810.0 48 54 55 43 37 21 18 20 21 30
1850.0 22 32 29 37 36 44 43 58 56 70
1890.0 73 70 74 65 59 43 36 22 21 18
1930.0 25 22 12 14 15 22 30 28 32 35
1970.0 40 45 58 58 66 59 62 58 68 68
2010.0 61 53 41 31 23 33 20 29 20 20
2050.0 11 12 12 17 20 14 19 22 16 14
2090.0 17 19 15 17 10 22 14 24 16 24
2130.0 21 23 23 29 30 21 26 26 35 35
2170.0 36 35 30 45 44 47 54 61 52 59
2210.0 55 57 55 45 45 33 29 29 41 34
2250.0 30 36 41 38 39 43 41 51 54 66
2290.0 61 66 62 69 77 74 73 55 68 53
2330.0 47 53 55 79 71 85 67 81 70 91
2370.0 93 76 97 103 87 77 85 91 95 90
2410.0 85 76 74 77 80 95 84 95 72 71
2450.0 60 64 59 54 51 46 44 36 37 34
2490.0 38 36 35 42 39 38 36 44 39 46
2530.0 44 54 61 70 72 74 74 72 71 70
2570.0 80 77 73 64 52 37 27 22 16 21
2610.0 23 17 18 16 11 20 14 16 10 10
2650.0 21 19 29 23 26 26 23 36 32 33
2690.0 36 36 41 31 30 33 39 39 42 38
2730.0 45 39 40 42 55 62 76 66 50 47
2770.0 39 36 33 38 44 49 54 57 53 58
2810.0 60 60 67 68 87 82 87 102 110 127
2850.0 145 178 213 265 314 368 399 390 387 363
2890.0 337 318 301 288 282 297 322 352 400 527
2930.0 727 968 1140 1186 1086 850 639 548 543 587
2970.0 631 616 605 603 602 625 589 553 451 388
3010.0 323 308 281 265 266 272 274 267 290 278
3050.0 277 270 277 268 277 273 250 223 174 147
3090.0 110 93 84 81 84 84 73 71 60 51
3130.0 50 42 54 49 43 44 44 31 38 43
3170.0 57 68 69 81 78 63 53 56 40 43
3210.0 51 49 67 52 52 50 55 53 34 33
3250.0 43 52 42 59 49 73 72 72 71 59
3290.0 75 43 62 47 51 41 47 54 50 42
3330.0 48 46 46 38 45 34 29 42 47 58
3370.0 54 47 51 31 47 36 38 42 54 26
3410.0 24 48 35 41 30 9 18 40 31 50
3450.0 42 16 54 41 48 47 27 17 48 70
3490.0 34 61 46 83 59 73 50 36 50 101
3530.0 62 51 111 89 175 152 217 245 454 1069
3570.0 2725 5827 8010 8841 8285 5067 2359 1046 532 336
3610.0 260 254 174 171 120 233 162 183 280 407
3650.0 586 464 435 273 156 152 158 116 80 105
3690.0 143 87 68 96 61 82 169 86 94 167
3730.0 89 148 180 114 148 189 140 109 95 91
3770.0 116 70 63 59 73 64 85 78 101 110
3810.0 106 71 149 124 91 95 101 102 137 112
3850.0 101 194 123 88 180 121 144 96 169 137
3890.0 181 124 104 149 150 65 100 130 133 100
3930.0 123 128 72 144 130 141 74 95 120 85
##END=
