##TITLE=Ketone, methyl 1,3,5-trimethyl-pyrazol-4-yl,
##JCAMP-DX=4.24
##DATA TYPE=INFRARED SPECTRUM
##ORIGIN=Sadtler Research Labs Under US-EPA Contract
##OWNER=NIST Standard Reference Data Program
##CAS REGISTRY NO=1125-28-6
##MOLFORM=C 8 H 12 N 2 O
##XUNITS=1/CM
##YUNITS=ABSORBANCE
##XFACTOR=1.0
##YFACTOR=0.000104361
##DELTAX=4.0
##FIRSTX=450.0
##LASTX=3966.0
##FIRSTY=0.000000
##MAXX=3966
##MINX=450
##MAXY=1.04361
##MINY=0
##NPOINTS=880
##XYDATA=(X++(Y..Y))
450.0 0 72 134 84 70 129 126 135 94 127
490.0 105 129 119 113 133 122 130 121 141 137
530.0 140 149 162 161 223 260 337 475 599 646
570.0 645 629 590 540 501 476 424 366 386 446
610.0 542 562 476 440 324 208 165 155 145 151
650.0 153 155 161 187 242 405 747 1234 1685 1712
690.0 1729 1265 716 374 255 189 191 153 148 149
730.0 123 134 131 128 120 105 103 109 100 101
770.0 93 89 99 111 118 126 120 122 117 115
810.0 101 100 109 121 146 166 170 179 174 155
850.0 137 127 121 122 136 140 136 130 132 130
890.0 128 131 123 122 126 151 175 213 284 390
930.0 550 717 880 1042 1143 1118 1031 882 694 535
970.0 454 451 500 603 750 879 918 898 810 698
1010.0 617 617 615 613 631 661 701 745 825 874
1050.0 911 942 1016 1187 1514 1913 2160 2133 1852 1392
1090.0 845 490 345 285 263 256 267 283 287 287
1130.0 306 329 344 366 396 452 530 641 773 899
1170.0 955 918 792 610 411 272 199 168 165 168
1210.0 182 191 211 240 281 351 453 622 859 1148
1250.0 1425 1610 1591 1414 1127 807 585 500 503 533
1290.0 620 762 985 1186 1286 1249 1086 801 581 519
1330.0 530 588 647 850 1197 1688 2087 2275 2310 2112
1370.0 1823 1800 2117 2490 2757 2831 2716 2577 2585 2804
1410.0 3260 3784 3969 4010 3758 3303 2918 2931 3168 3505
1450.0 3917 4239 4348 4255 3947 3526 3111 2898 2893 2892
1490.0 2913 2957 2826 2679 2532 2572 2831 3314 3916 4667
1530.0 5162 5369 5074 4288 3343 2465 1709 1189 932 796
1570.0 681 621 614 578 589 534 515 466 451 421
1610.0 415 428 407 469 493 616 689 783 895 950
1650.0 993 1176 1654 2435 4081 6340 8875 9506 10000 8721
1690.0 5930 3428 1744 1045 726 674 584 536 558 554
1730.0 448 320 284 222 159 107 143 110 120 124
1770.0 117 90 137 126 136 120 112 115 91 130
1810.0 111 111 119 111 94 84 89 104 81 72
1850.0 94 115 114 123 116 101 133 131 127 114
1890.0 105 103 104 107 104 102 98 99 88 95
1930.0 102 94 98 82 90 92 97 96 102 92
1970.0 102 110 109 112 112 105 105 113 111 106
2010.0 108 101 98 105 111 116 123 119 119 124
2050.0 124 119 113 114 107 114 109 105 101 96
2090.0 91 90 91 87 87 85 87 86 85 84
2130.0 86 86 89 86 86 85 80 79 74 69
2170.0 68 65 68 68 69 69 73 70 71 71
2210.0 75 78 78 76 71 69 66 65 66 67
2250.0 67 70 68 67 68 68 68 70 73 77
2290.0 79 82 83 85 87 88 85 85 90 89
2330.0 89 85 83 86 85 82 94 85 85 85
2370.0 89 95 96 95 93 92 91 90 93 98
2410.0 98 100 98 103 101 103 102 102 100 99
2450.0 100 103 106 106 106 107 111 111 110 110
2490.0 107 107 106 109 111 112 111 114 109 109
2530.0 109 106 109 110 109 109 110 111 107 106
2570.0 108 107 103 102 101 101 98 99 102 99
2610.0 103 105 108 106 104 103 104 104 110 109
2650.0 107 110 108 107 106 106 106 107 111 112
2690.0 109 111 117 118 123 126 131 133 141 146
2730.0 152 164 176 190 200 210 211 206 202 202
2770.0 198 198 198 201 209 219 235 254 268 283
2810.0 290 303 321 348 370 396 413 423 427 432
2850.0 439 456 487 531 584 644 703 761 818 875
2890.0 928 965 993 1004 1012 1015 1041 1110 1236 1445
2930.0 1754 2130 2502 2786 2975 3066 2987 2783 2541 2265
2970.0 1986 1780 1594 1461 1351 1274 1213 1149 1093 1008
3010.0 899 801 713 639 583 549 520 506 490 474
3050.0 462 446 429 414 400 380 363 350 331 320
3090.0 302 285 273 266 254 246 235 225 218 213
3130.0 205 195 189 179 175 171 160 154 153 147
3170.0 140 140 136 133 124 130 126 124 123 126
3210.0 122 120 116 117 113 114 118 113 108 109
3250.0 110 117 111 118 112 110 116 115 116 122
3290.0 122 124 122 123 122 122 131 137 160 172
3330.0 184 200 206 204 191 175 151 140 120 104
3370.0 111 96 94 97 101 103 105 110 111 110
3410.0 104 100 99 96 100 96 94 97 98 97
3450.0 101 97 96 96 92 96 95 91 96 94
3490.0 109 109 111 121 106 104 96 93 90 92
3530.0 97 92 93 86 92 88 98 93 93 99
3570.0 106 95 92 93 100 101 90 81 96 87
3610.0 100 86 88 87 82 105 72 83 74 79
3650.0 95 78 89 78 81 91 85 97 68 85
3690.0 84 85 87 84 89 81 86 84 82 89
3730.0 91 100 89 91 109 84 100 81 82 85
3770.0 77 76 71 99 84 89 81 91 92 99
3810.0 86 85 81 94 74 75 88 83 93 89
3850.0 92 112 85 89 97 106 95 98 102 106
3890.0 98 109 94 111 112 106 85 108 99 82
3930.0 115 88 98 110 105 97 105 100 96 105
##END=
