##TITLE=Cyclohexanone, 2-butyl-
##JCAMP-DX=4.24
##DATA TYPE=INFRARED SPECTRUM
##ORIGIN=Sadtler Research Labs Under US-EPA Contract
##OWNER=NIST Standard Reference Data Program
##CAS REGISTRY NO=1126-18-7
##MOLFORM=C 10 H 18 O
##XUNITS=1/CM
##YUNITS=ABSORBANCE
##XFACTOR=1.0
##YFACTOR=0.000122858
##DELTAX=4.0
##FIRSTX=450.0
##LASTX=3966.0
##FIRSTY=0.008354
##MAXX=3966
##MINX=450
##MAXY=1.22858
##MINY=0
##NPOINTS=880
##XYDATA=(X++(Y..Y))
450.0 68 92 91 69 42 47 33 35 43 25
490.0 51 86 108 143 154 154 146 133 137 100
530.0 115 93 54 126 66 10 9 29 38 62
570.0 54 66 50 38 32 29 25 16 19 12
610.0 9 15 19 13 0 3 12 11 10 21
650.0 13 14 26 33 42 34 36 13 15 18
690.0 36 43 72 90 145 167 170 201 112 95
730.0 86 91 115 100 69 92 85 74 68 48
770.0 60 60 72 66 83 78 71 64 64 57
810.0 58 78 92 150 199 223 200 165 121 93
850.0 84 64 67 66 87 93 109 102 113 115
890.0 109 100 91 81 78 88 105 118 138 142
930.0 139 133 138 140 153 162 171 158 150 131
970.0 124 123 115 115 101 95 89 97 106 130
1010.0 171 207 232 230 227 211 219 242 282 335
1050.0 400 457 497 508 482 438 380 343 324 323
1090.0 317 317 305 305 348 456 670 921 1092 1134
1130.0 1014 847 712 601 506 426 345 282 243 225
1170.0 215 226 237 257 291 338 388 403 395 367
1210.0 360 380 435 500 530 513 460 401 361 339
1250.0 314 296 269 242 210 188 187 194 214 227
1290.0 253 266 295 335 402 481 518 505 434 364
1330.0 354 413 474 516 513 467 427 406 422 428
1370.0 435 437 440 429 403 352 275 219 185 183
1410.0 170 203 235 306 384 482 589 625 735 860
1450.0 1108 1235 1288 1179 1042 884 705 497 327 201
1490.0 165 107 97 72 85 73 45 64 55 53
1530.0 31 42 44 50 25 23 33 40 40 17
1570.0 36 19 29 21 11 26 17 30 8 41
1610.0 21 34 38 46 55 38 79 62 83 65
1650.0 131 88 111 104 128 139 174 218 229 340
1690.0 353 486 535 870 1102 1592 2356 3558 4987 5792
1730.0 6403 5450 4097 2600 1614 1027 751 541 466 367
1770.0 361 283 278 240 225 203 183 164 120 114
1810.0 83 78 47 58 40 44 33 29 30 18
1850.0 31 15 22 7 25 13 12 12 13 16
1890.0 14 19 7 16 8 15 9 14 11 4
1930.0 9 4 10 4 11 5 11 5 11 7
1970.0 5 11 5 8 0 9 5 4 3 5
2010.0 4 2 9 3 10 6 11 6 10 7
2050.0 7 6 4 6 0 5 1 3 0 3
2090.0 1 0 4 1 4 0 7 4 4 5
2130.0 6 6 8 10 9 12 5 9 6 10
2170.0 9 10 10 11 15 13 15 13 14 7
2210.0 11 10 7 8 9 8 5 8 6 8
2250.0 6 8 8 7 7 7 9 5 9 6
2290.0 7 10 14 14 15 17 18 21 21 25
2330.0 18 23 18 22 10 20 30 28 26 9
2370.0 8 6 8 9 9 9 14 17 13 17
2410.0 15 17 12 13 9 8 6 5 4 2
2450.0 5 0 3 2 3 0 3 2 3 4
2490.0 2 3 3 7 8 10 11 16 14 14
2530.0 14 12 14 14 17 18 20 21 27 27
2570.0 27 28 28 29 30 30 32 35 35 31
2610.0 34 33 37 36 37 37 40 43 50 53
2650.0 59 67 74 85 93 102 104 105 98 92
2690.0 82 79 80 80 79 81 83 77 76 75
2730.0 78 81 87 95 97 98 94 90 87 93
2770.0 98 105 116 127 148 163 183 201 217 232
2810.0 243 252 267 283 308 348 412 503 642 848
2850.0 1145 1575 2198 2929 3664 4233 4266 3988 3464 2879
2890.0 2420 2101 1961 2036 2243 2527 2896 3359 4070 5043
2930.0 6378 7792 9231 10000 9892 8677 7118 5748 4963 5154
2970.0 5228 4718 3633 2364 1463 988 731 579 482 417
3010.0 366 325 295 268 251 235 219 198 180 162
3050.0 148 133 124 114 108 105 99 97 93 91
3090.0 86 82 79 77 75 66 63 61 59 57
3130.0 57 54 51 49 51 46 46 46 45 43
3170.0 42 44 42 43 44 40 37 38 37 30
3210.0 30 28 30 25 29 22 24 21 22 22
3250.0 22 22 17 16 13 13 10 8 7 4
3290.0 6 8 7 7 8 9 6 4 2 9
3330.0 6 10 12 8 7 13 18 20 17 22
3370.0 17 14 20 22 25 27 26 28 30 28
3410.0 30 26 39 51 67 89 94 96 86 73
3450.0 59 44 29 18 21 14 13 10 15 6
3490.0 12 14 17 9 9 7 10 17 10 1
3530.0 12 13 14 10 5 3 19 21 30 32
3570.0 40 54 57 56 51 34 37 27 23 23
3610.0 13 17 15 23 21 16 21 27 26 34
3650.0 31 33 40 33 39 30 32 26 21 28
3690.0 34 20 19 28 27 33 22 12 20 14
3730.0 25 26 21 24 22 22 22 32 28 23
3770.0 31 33 28 37 28 32 27 35 39 30
3810.0 35 23 34 31 35 30 35 26 36 22
3850.0 30 35 30 33 27 26 30 35 23 26
3890.0 36 31 32 32 24 29 34 32 40 24
3930.0 32 29 33 34 29 37 36 30 28 43
##END=
