##TITLE=Benzenamine, N-butyl-
##JCAMP-DX=4.24
##DATA TYPE=INFRARED SPECTRUM
##ORIGIN=Sadtler Research Labs Under US-EPA Contract
##OWNER=NIST Standard Reference Data Program
##CAS REGISTRY NO=1126-78-9
##MOLFORM=C 10 H 15 N
##XUNITS=1/CM
##YUNITS=ABSORBANCE
##XFACTOR=1.0
##YFACTOR=0.000082285
##DELTAX=4.0
##FIRSTX=450.0
##LASTX=3966.0
##FIRSTY=0.036699
##MAXX=3966
##MINX=450
##MAXY=0.82285
##MINY=0
##NPOINTS=880
##XYDATA=(X++(Y..Y))
450.0 446 363 404 401 415 430 452 508 559 602
490.0 620 720 772 792 771 689 605 547 519 499
530.0 443 463 415 474 473 450 391 424 395 420
570.0 389 369 351 312 292 268 259 213 242 250
610.0 274 297 356 354 362 367 370 376 381 411
650.0 399 464 465 546 539 699 888 1185 1625 2073
690.0 2416 2188 1844 1421 1040 776 662 664 719 866
730.0 1159 1665 2353 3039 3470 3286 2651 2002 1376 902
770.0 679 535 456 362 297 218 175 154 150 142
810.0 129 138 142 160 136 136 91 67 59 56
850.0 91 125 199 256 341 342 320 246 185 131
890.0 88 67 64 75 59 68 45 27 7 13
930.0 12 8 25 30 47 46 75 76 97 95
970.0 107 104 124 160 217 343 384 374 257 113
1010.0 64 62 84 149 227 293 350 328 285 207
1050.0 197 216 273 353 441 502 521 544 553 591
1090.0 600 565 488 412 377 371 377 392 439 495
1130.0 612 724 830 871 874 840 747 657 533 441
1170.0 454 652 820 879 792 590 487 440 422 435
1210.0 470 539 580 614 650 732 918 1269 1791 2403
1250.0 2966 3247 3225 2972 2690 2401 2143 1890 1674 1656
1290.0 1808 2060 2385 2707 3017 3310 3483 3418 3068 2417
1330.0 1794 1288 927 755 652 603 574 589 626 679
1370.0 721 694 676 633 600 525 446 381 380 398
1410.0 409 545 617 953 1280 1554 1509 1283 915 743
1450.0 735 810 982 1201 1419 1636 1869 2170 2425 2654
1490.0 2848 3826 5788 8911 10000 8627 6988 3639 2235 1251
1530.0 1038 725 596 524 510 534 500 515 456 483
1570.0 471 566 737 1056 1508 2375 3652 6059 7792 9095
1610.0 8659 6306 4297 2687 1802 998 661 446 359 289
1650.0 193 186 190 189 174 186 155 175 147 114
1690.0 147 157 149 230 313 358 313 191 132 132
1730.0 80 67 71 99 89 117 163 160 156 138
1770.0 126 93 128 103 125 104 118 112 96 114
1810.0 113 122 115 121 102 99 86 81 38 17
1850.0 29 28 32 26 25 12 32 31 38 36
1890.0 52 80 98 130 144 170 165 155 142 146
1930.0 139 108 75 28 28 20 24 18 25 15
1970.0 12 17 14 15 9 14 3 8 4 8
2010.0 6 2 11 11 14 15 17 11 14 16
2050.0 18 17 15 15 8 18 8 10 4 13
2090.0 9 9 12 13 16 12 14 10 14 13
2130.0 15 11 12 16 12 11 8 14 2 11
2170.0 7 13 8 10 9 5 7 7 9 7
2210.0 11 8 9 6 10 9 6 11 9 10
2250.0 5 12 9 10 12 13 16 13 23 17
2290.0 19 14 13 7 7 16 14 10 4 9
2330.0 5 21 24 17 29 14 1 2 7 29
2370.0 56 40 54 41 38 29 36 33 32 40
2410.0 37 38 33 33 28 31 29 32 24 18
2450.0 22 21 23 20 29 20 26 26 27 24
2490.0 28 28 21 21 19 23 25 32 34 38
2530.0 48 51 59 66 80 86 99 101 107 107
2570.0 108 114 112 111 103 98 81 79 68 66
2610.0 63 63 64 62 64 57 61 56 60 61
2650.0 67 70 78 81 90 94 96 104 107 118
2690.0 114 126 123 121 122 124 127 121 125 125
2730.0 134 133 137 147 151 152 151 149 146 155
2770.0 159 166 173 188 208 226 254 285 318 354
2810.0 394 438 491 559 636 723 829 948 1073 1220
2850.0 1403 1617 1877 2176 2469 2766 2962 3119 3212 3138
2890.0 2890 2518 2176 2050 2090 2243 2522 2885 3332 3825
2930.0 4390 4877 5287 5433 5203 4716 4130 3937 4189 4765
2970.0 5283 5073 4160 2903 1839 1261 952 800 747 779
3010.0 881 1038 1253 1473 1627 1637 1521 1338 1224 1248
3050.0 1442 1812 2230 2420 2293 1914 1472 1234 1176 1189
3090.0 1178 1094 945 789 676 580 491 403 314 241
3130.0 180 131 98 80 69 61 60 51 49 48
3170.0 47 42 40 35 40 42 34 33 31 35
3210.0 36 34 26 21 17 18 21 12 19 17
3250.0 17 11 7 11 9 16 7 4 6 11
3290.0 8 9 13 13 10 7 9 13 17 12
3330.0 12 7 12 13 17 17 15 19 7 18
3370.0 18 25 19 18 28 32 37 49 70 89
3410.0 118 147 196 250 301 339 358 354 328 310
3450.0 275 266 235 209 180 155 136 114 89 68
3490.0 67 55 47 37 41 37 36 16 25 30
3530.0 26 21 24 26 17 24 24 20 22 33
3570.0 34 36 38 33 31 30 43 25 29 15
3610.0 33 30 25 38 16 40 54 23 31 20
3650.0 49 52 26 45 2 34 19 61 21 24
3690.0 33 38 21 18 12 19 26 23 14 14
3730.0 17 7 35 2 49 11 38 14 12 19
3770.0 15 20 5 14 9 4 1 30 0 34
3810.0 3 13 16 16 23 2 9 22 35 11
3850.0 15 18 30 25 16 33 18 25 16 33
3890.0 4 34 15 30 38 16 18 26 27 18
3930.0 21 20 27 3 7 33 13 31 23 28
##END=
