##TITLE=Benzene, butoxy-
##JCAMP-DX=4.24
##DATA TYPE=INFRARED SPECTRUM
##ORIGIN=Sadtler Research Labs Under US-EPA Contract
##OWNER=NIST Standard Reference Data Program
##CAS REGISTRY NO=1126-79-0
##MOLFORM=C 10 H 14 O
##XUNITS=1/CM
##YUNITS=ABSORBANCE
##XFACTOR=1.0
##YFACTOR=0.000091553
##DELTAX=4.0
##FIRSTX=450.0
##LASTX=3966.0
##FIRSTY=0.004303
##MAXX=3966
##MINX=450
##MAXY=0.91553
##MINY=0
##NPOINTS=880
##XYDATA=(X++(Y..Y))
450.0 47 70 40 30 10 33 52 107 75 140
490.0 137 237 253 335 287 289 250 172 170 136
530.0 148 86 111 49 77 55 72 60 58 143
570.0 90 178 105 156 141 194 106 188 115 167
610.0 96 87 86 95 100 43 106 56 82 86
650.0 112 99 191 189 204 426 437 725 953 1225
690.0 1313 1180 926 682 456 402 299 305 301 374
730.0 542 743 1124 1516 1942 2159 2125 1750 1363 996
770.0 718 591 473 449 381 407 339 416 385 424
810.0 352 339 304 282 265 202 191 155 175 137
850.0 167 181 225 261 360 459 524 582 527 471
890.0 365 321 245 242 215 214 182 154 138 137
930.0 137 141 169 182 225 269 346 379 455 505
970.0 587 625 601 554 502 445 445 485 518 617
1010.0 727 906 1012 1186 1454 1616 1720 1627 1549 1381
1050.0 1167 943 902 1001 1204 1285 1275 1173 1004 823
1090.0 647 509 445 406 388 376 361 393 382 350
1130.0 328 296 305 310 394 465 539 608 800 1142
1170.0 1307 1216 902 559 451 484 584 707 910 1243
1210.0 1778 2387 2929 3194 3358 3655 4624 6443 9208 10000
1250.0 8764 5737 3368 2282 1777 1480 1395 1485 1577 1567
1290.0 1572 1604 1630 1572 1331 1027 795 614 526 522
1330.0 565 574 541 449 361 312 285 275 267 282
1370.0 320 387 523 712 886 936 864 672 480 331
1410.0 227 184 174 186 195 241 314 373 396 438
1450.0 484 577 702 946 1363 1938 2337 2428 2163 2172
1490.0 2945 4571 5366 4819 3214 1402 737 487 389 324
1530.0 294 255 232 220 208 206 217 236 317 384
1570.0 485 638 876 1224 1722 2347 3146 3966 4282 3730
1610.0 2622 1446 731 416 298 232 180 164 139 118
1650.0 111 103 92 95 90 92 83 107 93 118
1690.0 116 113 123 113 101 96 93 74 82 73
1730.0 75 62 69 81 71 91 107 139 137 152
1770.0 128 121 94 90 76 69 73 66 62 61
1810.0 66 57 74 77 94 93 103 102 98 109
1850.0 98 96 76 76 55 61 43 57 43 54
1890.0 43 57 60 74 88 98 120 121 137 137
1930.0 137 128 136 132 115 94 64 67 59 66
1970.0 60 76 64 79 73 85 83 82 80 80
2010.0 83 75 92 92 104 103 115 113 121 121
2050.0 108 113 90 94 75 87 70 74 63 70
2090.0 56 61 50 49 47 45 44 40 42 31
2130.0 41 30 37 30 32 28 28 31 27 33
2170.0 25 35 31 35 25 36 30 25 27 27
2210.0 28 24 27 19 29 19 30 19 25 24
2250.0 25 25 25 24 26 33 28 35 29 29
2290.0 24 28 23 30 22 19 27 6 11 1
2330.0 21 1 18 8 39 3 0 0 17 42
2370.0 43 43 46 53 44 44 44 44 45 45
2410.0 50 46 54 45 50 47 47 46 46 48
2450.0 52 52 58 58 59 60 61 66 68 72
2490.0 66 60 53 51 45 46 52 51 57 59
2530.0 62 63 72 67 75 71 65 54 54 55
2570.0 50 50 49 48 45 45 48 45 45 45
2610.0 47 46 52 47 48 48 48 35 37 35
2650.0 41 34 42 39 44 45 49 44 46 49
2690.0 52 55 56 59 57 63 62 64 68 74
2730.0 81 93 104 120 127 131 125 116 119 104
2770.0 104 100 100 95 101 100 107 105 109 116
2810.0 117 129 136 155 165 198 215 260 305 385
2850.0 466 573 677 800 961 1176 1427 1692 1954 2032
2890.0 1992 1785 1606 1550 1602 1722 1845 1946 2005 2068
2930.0 2139 2358 2632 3012 3181 3225 3095 3011 3180 3495
2970.0 3777 3618 3019 2168 1428 978 699 522 421 365
3010.0 342 356 364 413 456 546 626 775 925 1051
3050.0 1030 934 746 687 757 863 983 1049 1007 889
3090.0 723 593 572 560 537 465 366 269 173 127
3130.0 81 85 48 61 43 51 37 40 36 42
3170.0 40 34 45 28 43 34 44 33 43 30
3210.0 37 18 23 28 8 28 12 32 8 27
3250.0 10 27 7 12 18 10 20 17 20 6
3290.0 20 5 20 5 12 11 17 19 13 19
3330.0 3 19 8 21 6 21 2 17 10 18
3370.0 13 19 22 7 21 3 28 7 18 9
3410.0 23 15 17 15 7 26 9 20 4 21
3450.0 3 21 10 19 12 9 17 10 19 6
3490.0 23 2 24 0 28 9 21 11 12 17
3530.0 9 10 9 16 11 22 5 13 10 3
3570.0 22 12 17 14 21 11 19 8 20 2
3610.0 28 10 13 19 14 17 15 25 20 23
3650.0 21 32 29 22 16 17 16 25 31 11
3690.0 33 15 24 15 25 9 38 19 23 12
3730.0 10 14 11 4 22 10 12 13 12 19
3770.0 24 24 18 19 20 13 19 19 22 10
3810.0 25 21 27 16 22 19 24 25 22 23
3850.0 22 34 37 30 34 30 24 30 40 32
3890.0 31 40 43 41 48 44 48 43 43 38
3930.0 39 38 40 44 47 58 4 7 7 9
##END=
