##TITLE=Benzoic acid, 4-chloro-, methyl ester
##JCAMP-DX=4.24
##DATA TYPE=INFRARED SPECTRUM
##ORIGIN=Sadtler Research Labs Under US-EPA Contract
##OWNER=NIST Standard Reference Data Program
##CAS REGISTRY NO=1126-46-1
##MOLFORM=C 8 H 7 Cl O 2
##XUNITS=1/CM
##YUNITS=ABSORBANCE
##XFACTOR=1.0
##YFACTOR=0.000142905
##DELTAX=4.0
##FIRSTX=450.0
##LASTX=3966.0
##FIRSTY=0.006431
##MAXX=3966
##MINX=450
##MAXY=1.42905
##MINY=0
##NPOINTS=880
##XYDATA=(X++(Y..Y))
450.0 45 53 116 96 136 170 177 199 181 149
490.0 122 102 95 95 139 243 437 608 671 656
530.0 517 349 215 102 31 33 29 36 20 22
570.0 15 16 17 14 23 0 18 7 13 17
610.0 15 31 37 37 33 35 44 39 15 12
650.0 9 14 18 24 62 85 136 169 206 234
690.0 232 179 163 117 87 53 49 90 165 189
730.0 193 137 73 197 320 584 770 1089 1354 1188
770.0 898 739 443 254 112 91 70 100 132 187
810.0 271 391 571 638 630 549 458 461 510 601
850.0 658 474 362 264 128 78 36 35 20 37
890.0 33 27 30 22 24 14 35 34 42 35
930.0 41 35 26 36 47 78 97 140 155 187
970.0 187 173 129 84 60 43 50 48 118 236
1010.0 806 1589 1724 1579 813 209 166 144 150 146
1050.0 151 165 172 222 276 399 548 808 1213 2101
1090.0 3589 4676 5181 4621 3857 3841 3795 3469 2951 2076
1130.0 1363 928 614 447 343 317 297 318 366 610
1170.0 1066 1240 1239 900 580 601 613 596 508 392
1210.0 353 396 541 760 996 1093 1068 980 953 1068
1250.0 1369 1959 2985 4554 6357 8066 9279 10000 9122 7674
1290.0 4781 2675 1768 1327 1087 930 758 608 428 319
1330.0 291 286 272 279 299 305 310 297 270 236
1370.0 217 207 226 265 313 399 481 552 605 595
1410.0 510 429 312 293 355 601 1003 1335 1415 1110
1450.0 672 436 304 267 252 245 255 336 538 868
1490.0 964 903 606 227 105 57 60 51 45 76
1530.0 89 114 113 107 114 135 133 139 191 257
1570.0 305 340 385 466 693 1124 1668 1936 1774 1299
1610.0 737 469 352 254 184 157 129 105 107 95
1650.0 86 90 124 142 167 181 180 188 171 163
1690.0 188 216 235 257 285 324 359 442 672 1047
1730.0 1659 2598 4107 5859 6743 6688 5764 3652 2146 1239
1770.0 678 394 282 263 275 291 289 280 232 190
1810.0 153 125 114 91 71 43 38 37 28 17
1850.0 23 29 25 32 28 25 33 38 40 40
1890.0 39 42 52 65 82 100 121 135 140 143
1930.0 138 122 102 78 60 49 37 29 25 19
1970.0 18 19 18 18 20 14 19 21 24 26
2010.0 28 26 24 25 26 30 31 35 34 38
2050.0 43 47 49 54 56 64 73 77 84 86
2090.0 85 83 75 66 54 46 35 31 24 22
2130.0 19 19 16 16 16 14 14 14 16 14
2170.0 14 14 15 14 15 16 15 18 15 16
2210.0 19 19 21 23 23 23 27 26 28 29
2250.0 31 33 34 32 34 35 34 32 30 28
2290.0 22 19 12 14 8 2 5 0 0 1
2330.0 0 0 2 2 0 16 0 9 9 10
2370.0 14 26 28 33 34 36 36 36 36 32
2410.0 32 28 26 20 21 17 15 18 18 18
2450.0 18 20 20 23 23 23 21 21 22 20
2490.0 21 20 21 21 24 25 26 26 29 31
2530.0 34 42 45 52 56 61 61 58 56 51
2570.0 46 48 46 45 41 40 38 36 35 33
2610.0 32 32 32 28 24 27 22 22 24 25
2650.0 25 25 28 26 29 27 26 25 28 24
2690.0 28 27 23 25 23 24 22 25 23 22
2730.0 22 25 23 22 25 26 28 29 30 32
2770.0 31 29 30 29 28 25 23 28 25 28
2810.0 29 34 38 41 48 54 66 80 112 165
2850.0 217 227 200 141 98 93 87 90 90 95
2890.0 100 116 133 146 160 171 181 180 177 161
2930.0 154 152 167 191 241 343 572 976 1212 1179
2970.0 879 453 251 199 187 205 225 254 275 292
3010.0 280 272 260 247 245 239 230 210 188 164
3050.0 146 130 121 114 112 114 117 136 150 158
3090.0 159 151 142 143 131 110 89 72 59 54
3130.0 51 51 48 48 45 45 38 36 35 32
3170.0 27 23 25 24 24 22 24 18 21 20
3210.0 20 21 20 20 20 18 17 22 21 20
3250.0 20 19 16 18 15 18 19 19 18 22
3290.0 23 19 20 19 14 21 18 21 21 20
3330.0 22 24 24 23 27 25 23 24 19 18
3370.0 21 20 22 23 17 19 15 16 13 14
3410.0 12 15 15 19 15 15 14 11 15 15
3450.0 13 15 20 34 42 54 59 58 49 33
3490.0 22 16 9 8 0 1 5 3 5 7
3530.0 10 17 11 9 7 7 8 12 4 14
3570.0 15 15 11 13 15 16 22 6 11 8
3610.0 16 11 11 11 10 14 14 4 8 1
3650.0 9 12 10 15 8 17 10 22 9 11
3690.0 21 14 14 12 14 18 16 16 21 16
3730.0 23 17 19 8 26 7 18 12 10 7
3770.0 11 7 9 12 11 5 5 10 12 16
3810.0 2 20 14 8 12 13 11 16 11 3
3850.0 13 8 7 5 7 10 14 7 4 11
3890.0 6 10 1 19 15 14 15 18 2 8
3930.0 10 9 13 3 6 9 11 5 8 6
##END=
