##TITLE=1H-Pyrazole, 1-phenyl-
##JCAMP-DX=4.24
##DATA TYPE=INFRARED SPECTRUM
##ORIGIN=Sadtler Research Labs Under US-EPA Contract
##OWNER=NIST Standard Reference Data Program
##CAS REGISTRY NO=1126-00-7
##MOLFORM=C 9 H 8 N 2
##XUNITS=1/CM
##YUNITS=ABSORBANCE
##XFACTOR=1.0
##YFACTOR=0.000066830
##DELTAX=4.0
##FIRSTX=450.0
##LASTX=3966.0
##FIRSTY=0.044375
##MAXX=3966
##MINX=450
##MAXY=0.6683
##MINY=0
##NPOINTS=880
##XYDATA=(X++(Y..Y))
450.0 664 296 123 210 149 248 213 117 309 46
490.0 202 105 483 358 436 616 603 693 559 530
530.0 409 337 324 397 148 110 147 114 130 157
570.0 187 170 241 143 106 102 139 320 226 327
610.0 394 473 420 396 353 356 290 437 550 684
650.0 805 1048 1000 930 766 1359 1597 1911 2673 3313
690.0 3911 3525 2723 2032 1415 1154 1013 1176 1689 2408
730.0 3514 4505 6187 8167 7615 7087 7804 6101 4517 3602
770.0 2527 1715 1126 807 532 391 305 277 258 218
810.0 225 248 316 324 425 558 576 586 549 532
850.0 441 378 339 327 328 385 541 640 561 588
890.0 606 588 653 758 823 853 873 839 1046 1365
930.0 2570 4260 3790 3923 2802 1001 298 232 202 228
970.0 229 206 211 171 156 173 229 227 254 297
1010.0 348 394 528 756 1173 2122 3725 5203 5049 4726
1050.0 3430 1456 724 573 571 539 490 473 384 316
1090.0 254 287 298 416 595 918 1159 1142 1143 993
1130.0 661 431 335 239 220 200 202 178 196 187
1170.0 154 165 154 213 361 870 1379 1508 1528 1262
1210.0 559 282 269 254 305 308 355 402 539 741
1250.0 932 996 992 861 569 427 333 279 233 195
1290.0 177 165 210 251 335 384 523 790 1311 1946
1330.0 2617 2732 2449 1873 985 527 429 405 426 509
1370.0 732 1165 1915 2943 3843 4298 4617 4889 4526 4027
1410.0 3734 3029 2193 1822 1582 1249 804 649 557 515
1450.0 519 525 618 631 684 742 881 1092 1523 2134
1490.0 2868 3933 5175 5933 5965 6582 7712 9461 10000 9112
1530.0 7341 3233 866 454 323 339 419 547 718 759
1570.0 809 842 936 1169 1682 2490 3806 5673 6883 6530
1610.0 5350 3389 1590 961 692 527 409 310 255 262
1650.0 263 311 288 264 233 207 173 200 214 304
1690.0 358 444 488 478 421 380 335 288 307 300
1730.0 297 290 333 405 518 545 488 408 214 134
1770.0 127 169 200 240 232 219 175 143 132 125
1810.0 111 91 67 53 48 36 42 50 65 76
1850.0 110 142 169 184 199 212 225 211 194 153
1890.0 111 69 42 38 45 53 63 96 110 141
1930.0 168 197 201 213 229 221 211 185 166 112
1970.0 74 47 44 27 20 15 0 2 1 2
2010.0 5 15 27 24 25 32 27 17 28 17
2050.0 20 14 9 18 30 53 61 77 69 57
2090.0 36 25 11 7 15 17 20 12 13 5
2130.0 3 3 2 8 1 7 8 20 17 14
2170.0 12 15 7 14 13 12 18 12 28 18
2210.0 28 19 28 23 25 34 37 47 42 49
2250.0 38 32 25 25 25 30 40 45 50 57
2290.0 78 84 90 79 89 105 95 92 87 71
2330.0 48 53 47 85 73 91 39 49 94 96
2370.0 104 113 123 110 86 59 44 41 45 47
2410.0 47 52 56 62 79 87 104 116 142 148
2450.0 149 135 109 73 44 44 34 38 39 47
2490.0 51 77 84 89 96 83 73 58 61 59
2530.0 53 50 55 47 48 52 56 74 84 96
2570.0 89 95 109 123 143 145 148 123 108 92
2610.0 96 75 98 95 94 115 127 152 148 146
2650.0 142 137 129 125 152 154 152 158 135 127
2690.0 93 87 86 72 101 108 113 119 110 110
2730.0 101 80 86 82 92 93 94 91 112 129
2770.0 146 158 172 154 135 109 85 88 74 86
2810.0 82 97 90 79 87 83 83 86 102 85
2850.0 104 104 101 101 96 116 112 117 117 126
2890.0 120 126 158 152 177 199 206 196 214 209
2930.0 184 155 136 134 135 122 115 120 112 120
2970.0 111 117 109 113 119 133 132 140 162 185
3010.0 205 238 270 288 337 398 468 591 784 1065
3050.0 1398 1765 2018 2083 2013 1817 1695 1698 1725 1630
3090.0 1387 1116 930 779 749 782 877 860 747 714
3130.0 595 447 373 320 265 208 218 196 162 114
3170.0 91 65 71 75 83 81 68 91 70 76
3210.0 76 75 28 37 53 85 69 58 63 53
3250.0 84 100 73 84 72 85 82 73 51 71
3290.0 74 59 87 65 69 63 76 49 77 66
3330.0 53 54 36 38 43 60 56 63 47 55
3370.0 65 83 61 98 71 85 60 44 93 93
3410.0 89 94 102 60 52 73 63 78 66 84
3450.0 43 72 58 74 68 73 63 63 65 23
3490.0 56 83 84 76 71 75 65 78 54 63
3530.0 77 70 48 89 87 59 65 41 76 51
3570.0 86 70 47 66 52 67 67 81 81 89
3610.0 84 105 62 57 35 53 53 87 111 106
3650.0 100 90 88 61 85 88 104 77 61 65
3690.0 61 65 84 89 86 90 81 42 27 67
3730.0 82 67 95 70 80 128 102 129 56 113
3770.0 43 68 67 86 110 97 96 71 97 95
3810.0 131 55 60 55 68 70 56 99 78 46
3850.0 81 73 68 97 82 91 53 89 78 49
3890.0 49 82 113 135 105 106 98 124 95 99
3930.0 140 160 93 101 90 80 130 160 189 102
##END=
