##TITLE=Naphthalene, 1-ethyl-
##JCAMP-DX=4.24
##DATA TYPE=INFRARED SPECTRUM
##ORIGIN=Sadtler Research Labs Under US-EPA Contract
##OWNER=NIST Standard Reference Data Program
##CAS REGISTRY NO=1127-76-0
##MOLFORM=C 12 H 12
##XUNITS=1/CM
##YUNITS=ABSORBANCE
##XFACTOR=1.0
##YFACTOR=0.000081683
##DELTAX=4.0
##FIRSTX=450.0
##LASTX=3966.0
##FIRSTY=0.006290
##MAXX=3966
##MINX=450
##MAXY=0.81683
##MINY=0
##NPOINTS=880
##XYDATA=(X++(Y..Y))
450.0 77 76 103 113 149 146 194 128 164 31
490.0 114 7 29 48 144 64 153 140 114 205
530.0 237 116 167 215 234 356 207 190 102 165
570.0 260 282 259 209 195 71 45 12 36 40
610.0 40 40 55 36 121 60 98 67 130 90
650.0 85 48 82 50 72 34 56 78 129 177
690.0 265 310 332 310 183 154 187 278 342 504
730.0 469 369 341 349 375 607 1109 2111 3677 5415
770.0 7431 10000 7745 6903 5561 4611 4348 2935 2066 1407
810.0 812 424 295 173 149 136 143 188 279 351
850.0 435 457 536 322 249 198 138 132 140 166
890.0 146 156 138 121 83 101 99 110 107 127
930.0 137 176 218 286 370 405 423 434 443 365
970.0 272 236 157 134 161 181 247 336 496 534
1010.0 570 557 550 524 502 451 380 285 252 293
1050.0 373 462 505 496 439 356 283 285 276 282
1090.0 240 219 137 118 77 93 85 92 97 108
1130.0 118 136 164 148 164 160 195 245 338 354
1170.0 344 280 187 111 106 94 99 96 128 133
1210.0 152 153 156 142 143 147 160 188 220 294
1250.0 359 443 452 422 353 283 207 190 151 138
1290.0 115 124 119 148 197 252 319 349 358 323
1330.0 258 189 172 162 200 189 209 204 230 262
1370.0 342 425 571 754 892 1099 1225 1188 1064 839
1410.0 543 368 280 268 249 284 308 362 405 497
1450.0 593 724 823 939 1006 994 897 705 553 427
1490.0 382 427 549 731 938 1028 1023 899 659 416
1530.0 282 203 149 109 107 87 92 82 106 128
1570.0 173 259 350 466 567 699 767 756 664 558
1610.0 351 242 193 202 191 213 189 174 144 155
1650.0 133 151 152 177 211 234 257 283 303 295
1690.0 297 253 203 130 125 135 172 188 209 199
1730.0 191 168 173 165 174 181 176 188 179 167
1770.0 136 127 121 167 214 275 309 337 294 240
1810.0 183 152 153 173 170 165 137 126 107 109
1850.0 164 210 238 215 181 113 79 48 64 71
1890.0 95 96 153 195 270 323 386 399 381 351
1930.0 337 305 288 261 213 159 91 61 23 27
1970.0 9 10 9 21 10 7 7 12 10 10
2010.0 14 9 13 9 16 8 10 19 20 25
2050.0 35 34 40 27 20 14 26 19 37 27
2090.0 34 27 21 16 16 17 19 17 9 24
2130.0 13 19 6 18 10 14 9 29 20 27
2170.0 10 15 5 6 0 11 6 15 15 9
2210.0 13 13 32 20 29 30 36 24 30 13
2250.0 30 19 35 20 26 23 25 24 39 35
2290.0 42 38 30 37 40 52 44 66 63 94
2330.0 60 88 45 80 41 50 25 46 42 53
2370.0 66 42 51 54 42 41 53 49 68 62
2410.0 74 62 82 65 74 58 65 44 48 44
2450.0 48 34 41 35 39 42 41 46 40 52
2490.0 46 57 51 58 54 66 43 66 51 59
2530.0 44 59 45 54 55 66 52 48 32 22
2570.0 33 21 31 21 29 21 30 21 31 23
2610.0 30 22 53 49 65 61 83 49 49 36
2650.0 44 49 45 67 63 74 63 63 25 33
2690.0 25 33 27 45 49 70 59 68 62 77
2730.0 77 83 91 109 96 96 79 66 75 67
2770.0 102 92 101 85 115 104 135 124 146 136
2810.0 160 164 191 190 208 238 255 285 317 355
2850.0 383 460 507 599 710 901 1153 1554 1946 2325
2890.0 2416 2292 2058 1795 1588 1514 1474 1470 1489 1583
2930.0 1775 2151 2660 3114 3431 3392 3135 2835 2867 3473
2970.0 4817 5850 6076 5542 3994 2412 1551 1214 1150 1198
3010.0 1292 1357 1398 1395 1449 1569 1807 2224 2696 3217
3050.0 3622 4061 4388 4818 4979 4909 4620 4068 3387 2790
3090.0 2288 1914 1610 1331 1073 813 566 380 294 225
3130.0 216 189 224 193 209 191 226 208 246 236
3170.0 264 236 230 215 170 140 136 110 128 125
3210.0 111 139 135 154 147 183 180 195 159 155
3250.0 158 175 145 186 185 151 114 129 94 88
3290.0 87 77 99 70 79 56 101 70 103 80
3330.0 111 75 108 82 100 98 95 111 111 101
3370.0 102 86 84 71 82 82 58 70 44 58
3410.0 33 61 25 80 28 80 50 43 46 59
3450.0 44 71 30 38 40 50 67 50 63 5
3490.0 64 38 68 18 63 31 49 18 47 27
3530.0 43 27 62 36 30 62 72 35 16 56
3570.0 35 65 35 49 16 48 27 44 27 74
3610.0 39 67 48 73 46 60 41 56 42 44
3650.0 34 64 44 48 54 39 79 42 63 69
3690.0 82 41 81 44 63 48 61 62 85 58
3730.0 90 61 70 82 100 79 86 80 58 70
3770.0 51 89 94 100 74 71 81 93 67 107
3810.0 98 94 77 103 96 101 91 100 104 83
3850.0 96 102 96 97 97 87 109 111 118 89
3890.0 96 91 108 90 84 62 83 89 94 84
3930.0 97 76 62 61 67 66 63 73 72 91
##END=
