##TITLE=Ethanone, 1-(3,4-dimethoxyphenyl)-
##JCAMP-DX=4.24
##DATA TYPE=INFRARED SPECTRUM
##ORIGIN=Sadtler Research Labs Under US-EPA Contract
##OWNER=NIST Standard Reference Data Program
##CAS REGISTRY NO=1131-62-0
##MOLFORM=C 10 H 12 O 3
##XUNITS=1/CM
##YUNITS=ABSORBANCE
##XFACTOR=1.0
##YFACTOR=0.000157590
##DELTAX=4.0
##FIRSTX=450.0
##LASTX=3966.0
##FIRSTY=0.048538
##MAXX=3966
##MINX=450
##MAXY=1.5759
##MINY=0
##NPOINTS=880
##XYDATA=(X++(Y..Y))
450.0 308 156 76 438 271 244 289 90 180 170
490.0 140 115 97 94 69 143 53 86 68 72
530.0 81 95 125 65 356 239 351 319 581 664
570.0 752 750 673 563 485 397 320 221 257 198
610.0 193 231 115 97 74 71 110 156 258 328
650.0 327 302 214 173 157 112 158 127 93 53
690.0 33 48 23 50 36 9 40 0 36 39
730.0 90 112 155 225 292 397 498 579 609 534
770.0 385 283 197 156 155 211 286 375 545 587
810.0 612 659 655 602 513 412 365 288 254 241
850.0 228 223 242 285 411 585 731 782 729 568
890.0 455 394 315 267 210 171 140 127 116 120
930.0 128 138 170 224 305 414 512 562 580 565
970.0 537 517 468 429 415 436 490 561 717 934
1010.0 1255 1624 2044 2431 2733 2848 2785 2505 1995 1425
1050.0 990 685 526 472 486 539 574 553 530 449
1090.0 381 327 317 332 408 511 698 961 1313 1676
1130.0 1984 2143 2142 2021 1821 1580 1364 1204 1220 1491
1170.0 1868 2111 2149 1946 1643 1431 1420 1631 1998 2499
1210.0 3019 3482 3657 3513 3080 2548 2133 1925 1980 2220
1250.0 2609 3239 4245 5727 7636 9029 9800 10000 9497 8884
1290.0 7623 5957 4403 3239 2488 1974 1607 1342 1168 1043
1330.0 947 895 837 880 995 1229 1607 1921 1942 1637
1370.0 1156 741 592 577 620 799 1069 1447 1976 2509
1410.0 2881 2991 2607 2012 1442 1110 952 1012 1112 1218
1450.0 1319 1350 1381 1513 1571 1524 1342 1154 1016 952
1490.0 1149 1610 2452 3448 4282 4519 3775 2803 1760 1200
1530.0 844 652 523 441 457 516 557 581 777 978
1570.0 1227 1496 1688 1927 2063 2311 2668 2680 2667 2194
1610.0 1573 1063 662 460 327 305 241 225 248 268
1650.0 265 311 421 409 431 438 425 618 834 1441
1690.0 2662 4149 5495 5477 4666 2807 1434 656 424 344
1730.0 273 264 314 347 347 281 248 189 135 116
1770.0 71 64 73 59 60 39 33 34 16 43
1810.0 27 33 42 31 35 30 41 49 26 19
1850.0 33 50 41 37 40 23 49 51 46 50
1890.0 34 39 48 48 51 52 50 44 37 42
1930.0 34 39 40 24 37 45 51 48 39 38
1970.0 41 39 37 35 43 40 40 52 68 82
2010.0 93 100 105 124 136 139 142 128 112 106
2050.0 109 102 94 86 77 74 70 66 61 56
2090.0 53 51 46 33 27 22 17 12 3 6
2130.0 5 7 12 10 12 7 8 11 14 11
2170.0 19 19 20 16 18 11 8 8 8 9
2210.0 8 14 8 12 17 19 19 21 21 25
2250.0 31 33 34 32 38 36 39 36 29 30
2290.0 30 27 34 26 30 32 26 29 25 19
2330.0 28 25 37 42 37 24 27 18 35 33
2370.0 37 30 32 24 11 4 3 7 1 1
2410.0 3 9 8 10 10 13 15 15 18 22
2450.0 24 19 22 27 30 31 31 33 33 31
2490.0 34 33 35 33 30 36 29 29 37 33
2530.0 43 48 46 48 50 57 56 61 62 69
2570.0 83 81 94 96 101 105 104 104 99 90
2610.0 85 73 66 59 56 55 46 48 45 41
2650.0 39 33 30 24 23 24 19 27 24 22
2690.0 25 21 15 16 13 14 13 15 19 20
2730.0 15 19 23 23 24 26 29 25 29 29
2770.0 38 38 43 50 58 62 70 79 91 109
2810.0 139 167 203 256 320 418 557 736 916 1022
2850.0 1022 920 768 635 557 507 477 457 441 440
2890.0 454 482 513 570 637 716 804 876 933 983
2930.0 1070 1220 1436 1654 1780 1806 1739 1617 1529 1428
2970.0 1298 1158 1028 912 834 806 848 955 1139 1375
3010.0 1531 1485 1253 911 622 469 390 343 326 309
3050.0 310 317 324 350 381 421 460 469 450 402
3090.0 339 279 230 197 170 150 134 122 112 98
3130.0 85 75 66 56 50 46 39 40 40 37
3170.0 33 34 32 33 29 25 24 16 14 7
3210.0 8 8 3 10 7 7 3 7 7 3
3250.0 3 3 0 3 7 2 4 1 4 3
3290.0 0 3 6 4 7 5 6 2 7 10
3330.0 8 9 14 14 15 15 18 28 30 43
3370.0 60 71 81 89 85 80 62 41 25 24
3410.0 16 17 12 15 13 15 13 14 11 9
3450.0 12 13 8 17 13 11 7 9 10 11
3490.0 16 14 13 16 15 13 19 14 14 9
3530.0 16 15 15 8 15 23 33 29 30 26
3570.0 21 8 6 7 19 13 26 15 16 13
3610.0 14 15 13 13 17 20 16 22 15 25
3650.0 21 26 25 22 14 9 23 9 11 8
3690.0 11 9 9 14 18 13 12 18 26 19
3730.0 6 19 24 17 16 15 8 13 13 14
3770.0 4 11 1 1 10 3 6 19 14 9
3810.0 10 8 4 17 20 8 7 2 8 24
3850.0 18 34 23 14 28 21 20 34 28 37
3890.0 23 20 23 27 38 26 27 34 34 20
3930.0 7 19 19 7 36 33 38 26 44 28
##END=
