##TITLE=Phenol, 4-cyclohexyl-
##JCAMP-DX=4.24
##DATA TYPE=INFRARED SPECTRUM
##ORIGIN=Sadtler Research Labs Under US-EPA Contract
##OWNER=NIST Standard Reference Data Program
##CAS REGISTRY NO=1131-60-8
##MOLFORM=C 12 H 16 O
##XUNITS=1/CM
##YUNITS=ABSORBANCE
##XFACTOR=1.0
##YFACTOR=0.000048828
##DELTAX=4.0
##FIRSTX=450.0
##LASTX=3966.0
##FIRSTY=0.008203
##MAXX=3966
##MINX=450
##MAXY=0.48828
##MINY=0
##NPOINTS=880
##XYDATA=(X++(Y..Y))
450.0 168 173 172 148 134 170 144 187 196 153
490.0 179 175 152 203 225 268 331 384 496 591
530.0 658 583 541 394 330 251 210 305 329 370
570.0 317 300 201 140 100 66 133 84 65 103
610.0 32 1 114 84 103 105 63 61 64 67
650.0 106 109 55 78 68 49 74 34 73 138
690.0 116 107 94 47 78 64 30 74 95 117
730.0 155 165 253 278 259 295 288 234 215 209
770.0 151 215 204 214 272 322 395 584 773 914
810.0 1042 1097 1207 1305 1352 1319 1243 985 782 427
850.0 257 203 161 142 172 152 146 153 127 136
890.0 143 135 111 132 96 108 113 108 120 95
930.0 91 111 112 90 111 90 90 103 92 116
970.0 108 110 89 127 126 189 221 242 250 206
1010.0 221 205 179 150 160 136 131 129 125 145
1050.0 166 132 146 156 158 188 203 235 312 387
1090.0 480 540 521 436 374 324 361 428 440 463
1130.0 439 417 433 441 488 611 796 1191 2190 4364
1170.0 6100 6158 4621 2910 2190 1871 1726 1553 1294 1050
1210.0 848 734 725 761 856 948 954 951 1034 1406
1250.0 2192 3063 3341 2745 1630 838 533 425 368 341
1290.0 298 267 263 262 296 348 420 515 641 709
1330.0 707 656 562 514 496 440 410 387 351 340
1370.0 310 267 234 183 157 149 144 132 126 133
1410.0 150 178 228 311 435 594 737 780 752 808
1450.0 916 961 923 729 570 434 347 302 312 334
1490.0 398 486 698 1163 2113 3745 4722 4213 2709 1156
1530.0 509 320 257 234 193 170 142 174 176 157
1570.0 198 227 282 339 423 540 684 756 817 872
1610.0 968 1038 981 738 489 326 245 194 138 128
1650.0 117 128 82 76 65 70 75 62 60 88
1690.0 52 53 74 73 54 52 42 75 56 51
1730.0 68 90 73 90 81 80 59 39 40 37
1770.0 38 47 28 17 17 15 18 27 27 26
1810.0 26 25 27 35 35 38 38 47 38 66
1850.0 44 63 63 64 74 83 72 76 67 62
1890.0 62 44 41 42 30 19 30 19 18 30
1930.0 18 22 16 12 19 17 5 17 17 15
1970.0 25 25 25 25 25 25 25 11 24 35
2010.0 22 34 33 22 23 21 22 22 11 13
2050.0 27 20 30 42 30 39 30 18 19 27
2090.0 27 30 25 18 17 10 6 18 6 5
2130.0 16 6 6 13 4 16 15 1 14 15
2170.0 2 13 13 12 12 11 11 12 12 10
2210.0 10 4 10 15 10 18 20 9 20 19
2250.0 20 19 15 20 19 19 19 20 8 16
2290.0 17 18 28 27 18 20 16 15 29 25
2330.0 38 52 47 44 57 26 26 44 26 36
2370.0 44 18 38 30 25 25 24 24 35 35
2410.0 35 44 65 78 96 84 67 58 35 33
2450.0 33 22 23 22 21 21 32 31 42 37
2490.0 38 41 41 41 41 40 41 41 30 30
2530.0 31 19 24 24 20 26 21 28 28 19
2570.0 29 38 29 31 38 38 43 48 40 47
2610.0 50 48 57 57 48 57 54 58 61 54
2650.0 66 77 95 104 107 96 97 96 86 84
2690.0 73 65 65 53 48 57 43 44 44 34
2730.0 34 34 33 32 41 33 36 48 48 63
2770.0 63 70 83 83 93 103 112 115 119 112
2810.0 116 121 127 148 163 179 222 284 401 629
2850.0 1006 1648 2533 3142 3200 2683 1962 1420 1054 820
2890.0 720 730 839 1070 1355 1691 2118 2745 3807 5491
2930.0 7542 9035 10000 8752 6138 3802 2007 1101 664 427
2970.0 311 229 170 149 138 126 164 197 269 386
3010.0 523 669 728 689 651 665 691 700 627 528
3050.0 472 420 389 366 356 357 351 316 267 214
3090.0 166 152 145 132 131 121 112 112 96 80
3130.0 89 71 52 54 50 50 59 39 38 38
3170.0 28 39 39 27 26 35 23 27 29 25
3210.0 27 17 16 26 25 19 27 13 27 27
3250.0 14 33 28 35 34 36 25 35 32 27
3290.0 34 34 34 34 27 30 44 35 33 43
3330.0 33 54 42 42 54 53 58 68 74 68
3370.0 75 52 61 71 62 62 81 61 65 59
3410.0 59 71 72 59 79 71 60 70 59 62
3450.0 67 45 55 54 38 44 60 48 57 59
3490.0 48 68 56 47 59 47 48 53 47 41
3530.0 41 37 46 36 25 36 36 24 36 32
3570.0 25 31 24 32 34 27 23 34 23 24
3610.0 56 42 57 79 91 171 248 409 735 1278
3650.0 1923 2220 1911 1237 576 287 159 98 38 30
3690.0 43 13 8 12 1 10 9 1 10 10
3730.0 0 15 13 4 20 8 9 1 1 1
3770.0 1 1 1 1 1 1 1 1 5 1
3810.0 1 1 1 1 4 1 5 13 6 6
3850.0 6 12 14 6 1 5 1 1 4 1
3890.0 1 4 1 1 4 1 2 2 1 1
3930.0 2 1 3 2 1 2 1 1 1 1
##END=
