##TITLE=Ethanone, 1-(3,4,5-trimethoxyphenyl)-
##JCAMP-DX=4.24
##DATA TYPE=INFRARED SPECTRUM
##ORIGIN=Sadtler Research Labs Under US-EPA Contract
##OWNER=NIST Standard Reference Data Program
##CAS REGISTRY NO=1136-86-3
##MOLFORM=C 11 H 14 O 4
##XUNITS=1/CM
##YUNITS=ABSORBANCE
##XFACTOR=1.0
##YFACTOR=0.000107516
##DELTAX=4.0
##FIRSTX=450.0
##LASTX=3966.0
##FIRSTY=0.122569
##MAXX=3966
##MINX=450
##MAXY=1.07516
##MINY=0
##NPOINTS=880
##XYDATA=(X++(Y..Y))
450.0 1140 632 221 351 429 306 389 175 252 389
490.0 254 326 250 246 287 296 377 299 471 315
530.0 565 530 383 0 778 124 125 93 290 377
570.0 358 410 529 699 879 1152 1360 1348 1339 1116
610.0 934 793 630 515 384 350 341 378 443 486
650.0 579 671 591 478 441 335 335 227 244 203
690.0 234 301 298 276 286 284 371 103 176 267
730.0 400 430 458 488 405 327 382 364 401 443
770.0 502 628 682 693 621 527 515 514 478 448
810.0 399 408 406 466 521 538 532 504 532 541
850.0 618 726 843 896 893 847 901 962 1038 989
890.0 828 641 537 480 439 421 458 540 618 632
930.0 599 544 463 432 420 428 478 544 657 787
970.0 903 928 893 830 823 900 1045 1306 1746 2358
1010.0 3042 3404 3255 2706 2207 1991 1841 1660 1399 1191
1050.0 1085 1045 1042 1107 1211 1371 1591 1874 2275 2681
1090.0 3096 3538 4109 4689 5362 6048 6752 7090 7092 6635
1130.0 6092 5515 4901 4156 3353 2640 2104 1877 1901 2184
1170.0 2643 3083 3315 3245 3013 2808 2728 2931 3422 4207
1210.0 4989 5501 5596 5352 4960 4331 3605 2935 2485 2211
1250.0 2066 1885 1756 1645 1490 1364 1323 1417 1536 1729
1290.0 1936 2089 2215 2345 2592 3047 3903 5221 7064 8992
1330.0 10000 9427 7473 5124 3601 3214 3742 4488 4664 3926
1370.0 2759 1849 1480 1393 1405 1677 2159 2952 4175 5410
1410.0 6075 5900 4946 3776 2964 2512 2272 2138 1948 1889
1450.0 2112 2454 2789 2983 2952 2842 2704 2574 2680 3037
1490.0 3614 3982 3980 3509 2823 2159 1723 1423 1206 1122
1530.0 1033 1022 975 991 1043 1142 1296 1468 1897 2352
1570.0 3140 3976 4568 5186 4614 3882 2984 2119 1617 1240
1610.0 1022 887 816 755 680 640 591 578 566 600
1650.0 620 668 816 838 870 865 825 946 1056 1443
1690.0 2389 4076 6276 6825 6100 3658 1957 1103 818 722
1730.0 654 659 718 749 726 627 528 456 401 365
1770.0 317 280 262 244 237 210 210 210 181 189
1810.0 182 167 180 153 157 152 149 162 154 136
1850.0 135 146 147 140 149 150 172 162 155 155
1890.0 138 117 119 128 133 137 125 134 134 136
1930.0 137 139 150 155 181 190 200 196 201 190
1970.0 181 172 167 156 160 153 170 183 192 200
2010.0 216 225 221 207 205 180 162 144 128 118
2050.0 118 109 105 101 101 106 107 114 111 117
2090.0 120 127 128 132 131 137 132 138 129 141
2130.0 142 155 160 162 166 160 152 143 143 140
2170.0 130 129 144 139 142 122 108 96 83 75
2210.0 74 83 84 84 97 106 109 116 118 121
2250.0 118 115 118 109 93 97 90 82 77 69
2290.0 77 69 74 71 75 66 76 73 65 78
2330.0 66 57 76 91 92 80 43 58 56 69
2370.0 104 101 109 97 76 67 64 65 68 68
2410.0 72 74 85 91 95 91 93 89 86 93
2450.0 89 87 89 94 94 93 97 92 89 88
2490.0 89 87 75 72 74 61 55 56 44 52
2530.0 67 58 43 48 48 59 72 84 103 111
2570.0 120 115 116 125 121 121 124 124 129 131
2610.0 136 131 135 137 139 136 138 132 129 125
2650.0 113 107 107 80 74 70 65 76 80 78
2690.0 81 83 82 93 96 98 93 95 97 96
2730.0 114 117 116 116 106 111 87 85 81 81
2770.0 71 71 77 101 112 132 137 168 200 230
2810.0 250 294 354 429 552 752 1035 1380 1617 1629
2850.0 1468 1237 1046 956 939 956 971 982 976 970
2890.0 990 1016 1047 1068 1090 1143 1218 1314 1410 1516
2930.0 1677 1932 2366 2938 3404 3535 3273 2800 2422 2202
2970.0 2040 1866 1707 1572 1477 1484 1560 1771 2075 2329
3010.0 2407 2168 1719 1265 939 739 628 565 520 483
3050.0 465 443 445 447 445 460 467 482 490 486
3090.0 490 452 418 369 326 287 263 249 227 206
3130.0 183 162 143 146 133 126 118 115 104 97
3170.0 102 114 109 105 94 96 72 60 54 52
3210.0 51 50 63 64 59 62 58 74 75 56
3250.0 71 75 75 89 87 84 71 73 78 91
3290.0 90 87 89 100 92 88 97 88 104 95
3330.0 92 100 104 111 118 113 109 113 115 124
3370.0 130 154 167 181 200 199 155 129 131 108
3410.0 115 98 107 101 90 94 94 96 94 82
3450.0 95 80 63 62 71 82 68 66 49 57
3490.0 75 78 82 60 67 74 75 55 75 73
3530.0 80 78 65 63 76 77 82 85 64 91
3570.0 74 96 64 57 60 73 68 43 71 53
3610.0 51 63 55 76 50 62 83 96 62 50
3650.0 67 82 73 84 62 74 100 82 62 80
3690.0 84 99 85 92 86 78 105 100 117 104
3730.0 81 114 107 127 114 99 121 130 122 123
3770.0 105 126 106 101 124 100 115 111 118 154
3810.0 87 80 119 136 137 96 104 114 120 164
3850.0 113 145 110 125 129 62 111 143 128 155
3890.0 140 116 111 145 103 137 106 129 122 92
3930.0 74 93 162 159 182 108 142 139 119 159
##END=
