##TITLE=Phenol, 3,5-bis(1,1-dimethylethyl)-
##JCAMP-DX=4.24
##DATA TYPE=INFRARED SPECTRUM
##ORIGIN=Sadtler Research Labs Under US-EPA Contract
##OWNER=NIST Standard Reference Data Program
##CAS REGISTRY NO=1138-52-9
##MOLFORM=C 14 H 22 O
##XUNITS=1/CM
##YUNITS=ABSORBANCE
##XFACTOR=1.0
##YFACTOR=0.000122827
##DELTAX=4.0
##FIRSTX=450.0
##LASTX=3966.0
##FIRSTY=0.008844
##MAXX=3966
##MINX=450
##MAXY=1.22827
##MINY=0
##NPOINTS=880
##XYDATA=(X++(Y..Y))
450.0 72 66 53 15 26 60 76 85 96 101
490.0 108 99 120 107 112 93 114 130 122 136
530.0 137 132 113 130 173 216 292 302 277 232
570.0 210 154 131 111 94 69 40 46 28 26
610.0 32 30 28 25 15 19 14 14 19 11
650.0 14 14 24 19 20 34 25 33 37 47
690.0 123 286 550 866 1089 770 454 233 80 48
730.0 32 30 28 21 21 19 16 19 8 7
770.0 8 8 4 4 12 13 17 27 46 64
810.0 74 74 75 76 98 164 264 407 516 483
850.0 438 467 562 718 708 540 374 262 222 264
890.0 378 529 597 536 392 271 217 204 205 229
930.0 265 323 445 680 1092 1610 1941 1897 1483 900
970.0 483 290 198 160 139 131 125 131 130 121
1010.0 112 111 119 137 135 125 103 86 75 66
1050.0 63 60 51 49 51 53 57 70 79 90
1090.0 106 118 131 153 195 271 386 507 605 667
1130.0 668 627 589 560 581 641 725 843 1040 1319
1170.0 1662 2088 2635 3202 3511 3400 2893 2266 1796 1430
1210.0 1102 844 680 609 597 652 790 1056 1445 1798
1250.0 1876 1625 1222 927 842 899 1089 1401 1761 1955
1290.0 1875 1581 1263 1170 1250 1357 1364 1224 971 681
1330.0 452 311 261 252 286 364 486 657 871 1111
1370.0 1165 1011 786 603 518 572 721 803 761 666
1410.0 701 1002 1383 1747 1911 1795 1513 1167 935 841
1450.0 808 795 787 789 838 923 1065 1305 1486 1559
1490.0 1328 967 653 439 335 292 280 265 257 245
1530.0 243 253 262 289 304 328 357 412 467 551
1570.0 643 760 927 1222 1717 2508 3448 4481 4952 4890
1610.0 3818 2786 1832 1151 737 465 321 210 172 125
1650.0 121 87 87 78 74 76 83 87 97 91
1690.0 81 78 74 74 82 86 94 105 114 124
1730.0 136 135 118 101 84 71 53 48 39 39
1770.0 33 32 31 29 30 22 24 21 20 14
1810.0 16 16 14 15 12 14 12 12 9 14
1850.0 10 6 8 10 10 9 7 6 9 7
1890.0 9 8 9 9 5 6 4 7 11 9
1930.0 8 8 10 12 12 10 12 11 11 9
1970.0 5 3 5 3 4 5 6 3 5 5
2010.0 7 6 8 7 4 4 5 4 5 4
2050.0 4 3 3 3 6 8 8 8 4 3
2090.0 1 1 2 2 3 3 6 6 11 15
2130.0 14 17 16 19 20 19 20 23 24 24
2170.0 27 25 24 20 16 11 4 5 5 5
2210.0 3 2 3 3 3 2 4 5 6 10
2250.0 7 9 9 8 11 11 10 12 11 12
2290.0 17 20 19 21 23 24 21 19 23 18
2330.0 21 20 20 19 27 26 21 27 24 30
2370.0 38 37 44 51 48 45 43 44 44 42
2410.0 39 37 33 29 31 27 25 21 21 18
2450.0 16 13 17 19 17 21 20 20 20 22
2490.0 23 27 27 26 25 26 24 21 21 20
2530.0 24 22 22 22 22 24 29 30 31 34
2570.0 31 30 29 27 29 30 28 27 30 32
2610.0 29 28 26 31 31 29 31 32 32 37
2650.0 37 39 41 44 42 45 44 42 42 42
2690.0 44 45 47 51 52 58 65 76 84 90
2730.0 87 83 80 80 81 84 86 87 82 75
2770.0 72 70 78 87 99 107 105 99 101 110
2810.0 122 132 144 151 162 175 190 207 230 266
2850.0 328 430 583 818 1124 1455 1729 1870 1883 1833
2890.0 1773 1744 1795 1925 2120 2332 2467 2481 2398 2289
2930.0 2213 2209 2273 2430 2786 3481 4720 6452 8252 9548
2970.0 10000 8970 6860 4462 2773 1789 1193 802 554 407
3010.0 326 288 276 278 285 299 318 336 348 354
3050.0 349 342 347 356 371 373 369 357 332 301
3090.0 265 232 198 171 157 141 129 121 110 99
3130.0 92 88 82 75 74 74 75 77 77 83
3170.0 87 89 92 99 102 105 105 101 96 96
3210.0 95 90 95 95 96 93 86 83 80 82
3250.0 79 74 72 71 75 73 71 67 67 65
3290.0 65 61 59 59 50 48 46 44 47 48
3330.0 44 48 50 55 65 70 65 69 63 64
3370.0 71 69 70 63 61 65 64 59 53 56
3410.0 58 54 54 45 50 54 50 42 41 39
3450.0 36 36 37 36 37 40 42 37 33 37
3490.0 44 44 44 31 25 35 41 44 38 23
3530.0 36 41 31 36 13 24 37 26 36 3
3570.0 12 38 41 44 32 21 42 21 46 46
3610.0 25 29 40 53 80 88 213 424 861 1629
3650.0 2144 2125 1546 676 223 75 10 16 27 41
3690.0 1 29 41 23 30 16 3 24 14 1
3730.0 21 0 1 2 1 1 9 11 23 31
3770.0 12 36 36 33 34 47 52 36 11 35
3810.0 30 45 6 20 30 41 37 11 3 46
3850.0 41 5 25 45 28 29 36 57 29 53
3890.0 48 56 57 40 35 64 65 49 57 51
3930.0 54 52 59 49 42 46 71 58 52 51
##END=
