##TITLE=Metyridine
##JCAMP-DX=4.24
##DATA TYPE=INFRARED SPECTRUM
##ORIGIN=Sadtler Research Labs Under US-EPA Contract
##OWNER=NIST Standard Reference Data Program
##CAS REGISTRY NO=114-91-0
##MOLFORM=C 8 H 11 N O
##XUNITS=1/CM
##YUNITS=ABSORBANCE
##XFACTOR=1.0
##YFACTOR=0.000125711
##DELTAX=4.0
##FIRSTX=450.0
##LASTX=3966.0
##FIRSTY=0.000000
##MAXX=3966
##MINX=450
##MAXY=1.25711
##MINY=0
##NPOINTS=880
##XYDATA=(X++(Y..Y))
450.0 0 50 201 166 216 177 147 205 152 91
490.0 257 395 365 311 450 567 527 610 550 532
530.0 393 325 263 157 155 128 81 159 172 153
570.0 210 246 340 398 483 501 515 575 519 469
610.0 379 287 341 303 295 272 223 231 161 123
650.0 78 84 80 35 40 70 38 74 92 56
690.0 138 109 182 206 219 254 301 380 480 641
730.0 973 1318 2066 2330 2820 3240 3229 2642 2353 1735
770.0 1351 1022 743 647 549 456 379 314 326 303
810.0 247 253 285 320 378 384 428 410 390 337
850.0 247 221 153 166 148 135 180 193 168 183
890.0 179 156 187 169 174 185 220 252 313 354
930.0 418 462 516 526 535 545 579 617 668 712
970.0 727 746 738 739 803 872 933 1011 1046 1007
1010.0 960 865 754 682 655 690 765 835 941 1066
1050.0 1111 1118 1097 1013 936 940 987 1119 1353 1673
1090.0 2155 2698 3338 4081 4951 5972 7123 8259 9535 10000
1130.0 9647 8755 7112 5232 3865 3010 2437 2019 1795 1715
1170.0 1788 1939 2138 2309 2419 2476 2367 2204 1993 1791
1210.0 1657 1582 1505 1389 1250 1123 974 919 913 888
1250.0 888 852 803 713 629 584 545 541 538 543
1290.0 545 520 516 526 500 516 462 410 341 290
1330.0 281 302 383 410 388 414 432 491 600 746
1370.0 1006 1384 1630 1711 1689 1419 1103 845 625 528
1410.0 540 580 822 1128 1626 2463 3150 3239 3154 2527
1450.0 1773 1531 1641 1821 2400 3265 3641 3602 3026 2086
1490.0 1220 748 488 394 377 351 355 221 273 224
1530.0 230 269 229 299 382 463 561 738 1137 1431
1570.0 1932 2375 2648 3577 3792 4493 5016 3954 3532 2359
1610.0 1473 890 587 419 362 257 245 177 165 148
1650.0 105 114 81 95 81 82 84 80 101 90
1690.0 99 94 107 108 116 98 116 118 80 97
1730.0 92 135 87 129 164 197 179 194 184 175
1770.0 191 141 136 122 126 116 103 118 128 82
1810.0 82 88 84 86 115 115 119 114 126 130
1850.0 118 101 138 156 164 150 110 71 68 64
1890.0 74 93 103 113 134 148 138 139 149 149
1930.0 164 185 201 210 208 183 187 195 199 216
1970.0 204 178 147 115 92 99 91 75 85 86
2010.0 83 92 98 97 88 95 98 99 106 100
2050.0 104 99 98 103 114 109 105 119 125 131
2090.0 140 142 144 137 125 121 116 115 103 103
2130.0 96 88 88 80 71 72 67 66 66 64
2170.0 63 63 62 60 64 72 69 72 71 73
2210.0 70 67 68 71 73 75 74 79 79 81
2250.0 78 73 68 66 63 61 57 56 59 62
2290.0 71 71 73 71 65 59 49 45 45 42
2330.0 31 32 43 38 40 44 39 44 55 55
2370.0 52 51 51 50 48 44 40 41 41 47
2410.0 46 51 50 48 51 53 50 46 43 44
2450.0 44 44 41 40 38 36 42 40 41 43
2490.0 42 39 42 35 35 38 40 42 43 45
2530.0 46 47 46 46 49 50 51 54 54 55
2570.0 60 68 73 76 84 88 93 100 104 103
2610.0 107 109 103 98 94 89 90 90 95 97
2650.0 103 109 114 119 125 128 130 133 137 140
2690.0 143 147 150 157 163 175 199 229 268 303
2730.0 340 361 368 363 352 334 326 313 308 309
2770.0 325 345 367 405 457 530 622 754 948 1237
2810.0 1628 2042 2433 2796 3038 3141 3153 3048 2821 2656
2850.0 2664 2808 3047 3360 3672 3925 4109 4169 4164 4100
2890.0 3995 3873 3768 3712 3636 3525 3433 3459 3637 3897
2930.0 4138 4217 4108 3847 3485 3137 2868 2688 2574 2500
2970.0 2429 2404 2418 2561 2854 3041 2937 2677 2231 1847
3010.0 1856 2036 2137 2111 1891 1527 1179 988 935 954
3050.0 1040 1145 1302 1511 1790 2246 2611 2640 2555 2126
3090.0 1567 1210 939 665 469 335 257 211 190 182
3130.0 186 193 204 205 198 181 152 119 99 93
3170.0 82 79 75 75 74 75 67 62 63 60
3210.0 48 50 45 42 41 37 31 31 33 41
3250.0 46 45 48 42 42 35 40 35 38 40
3290.0 40 41 35 39 43 45 41 42 45 46
3330.0 42 47 43 34 32 34 33 37 43 41
3370.0 41 39 39 56 45 43 49 46 40 39
3410.0 36 33 39 46 40 38 42 45 53 46
3450.0 48 42 46 47 41 38 44 34 54 51
3490.0 45 47 49 57 68 37 53 36 53 76
3530.0 51 39 52 44 81 65 52 44 55 76
3570.0 95 44 56 43 65 69 60 38 52 53
3610.0 55 63 54 53 47 51 64 57 55 46
3650.0 59 56 49 58 59 59 38 54 63 77
3690.0 47 62 75 75 67 62 60 75 74 114
3730.0 74 51 79 68 62 31 48 53 64 57
3770.0 44 55 57 64 70 68 79 52 57 44
3810.0 74 67 44 48 59 64 42 37 81 76
3850.0 82 33 76 103 81 80 74 91 80 52
3890.0 77 67 77 87 81 71 62 85 98 118
3930.0 81 118 105 65 106 81 96 72 82 88
##END=
