##TITLE=Propene
##JCAMP-DX=4.24
##DATA TYPE=INFRARED SPECTRUM
##ORIGIN=Sadtler Research Labs Under US-EPA Contract
##OWNER=NIST Standard Reference Data Program
##CAS REGISTRY NO=115-07-1
##MOLFORM=C 3 H 6
##XUNITS=1/CM
##YUNITS=ABSORBANCE
##XFACTOR=1.0
##YFACTOR=0.000023367
##DELTAX=4.0
##FIRSTX=450.0
##LASTX=3966.0
##FIRSTY=0.034911
##MAXX=3966
##MINX=450
##MAXY=0.23367
##MINY=0
##NPOINTS=880
##XYDATA=(X++(Y..Y))
450.0 1494 642 51 499 240 257 0 203 137 211
490.0 203 144 243 205 291 348 541 351 551 507
530.0 702 785 732 910 886 1155 1072 1228 1108 1633
570.0 1483 2359 1958 1384 1472 1388 1418 1383 1365 1217
610.0 1172 1109 1046 963 829 765 620 593 404 536
650.0 386 394 280 300 257 131 242 135 170 65
690.0 216 17 79 69 140 124 94 181 103 184
730.0 100 215 63 178 153 182 98 131 204 68
770.0 188 126 199 65 214 115 136 165 168 284
810.0 133 357 218 383 326 587 462 662 785 862
850.0 1093 1161 1716 1577 2193 2247 2860 2816 3325 3694
890.0 3615 4246 3950 5108 3377 8727 10000 5333 5440 5023
930.0 4791 5181 4799 5111 4862 5136 4828 4530 4307 3600
970.0 3176 2968 2838 2942 3148 4399 3775 1983 2450 1995
1010.0 1997 1917 1785 1662 1406 1446 1156 1179 1112 1227
1050.0 719 670 605 530 497 411 463 301 349 276
1090.0 302 210 231 198 160 181 145 198 136 176
1130.0 150 180 163 215 209 215 263 250 265 231
1170.0 285 250 270 261 275 278 265 297 262 265
1210.0 237 254 219 235 230 225 209 195 229 190
1250.0 195 168 161 156 160 164 175 189 193 203
1290.0 198 214 219 221 200 242 256 254 268 257
1330.0 263 273 312 303 332 389 455 523 596 683
1370.0 708 811 953 916 1058 1342 1475 1535 1521 1464
1410.0 1372 1364 1449 1483 1620 1818 2027 2600 3488 2862
1450.0 2510 1903 1550 1808 1998 2177 2353 2259 2026 1829
1490.0 1649 1432 1314 1143 1085 954 882 808 780 665
1530.0 629 598 584 616 553 551 499 548 494 459
1570.0 493 475 520 456 481 487 485 517 590 674
1610.0 790 1013 1284 1622 1989 2314 2483 2383 2195 2190
1650.0 2630 2078 1947 2508 2813 2483 1927 1195 769 431
1690.0 245 160 218 165 171 138 152 166 134 128
1730.0 111 170 134 138 120 122 126 115 110 112
1770.0 139 129 147 153 208 241 331 398 477 548
1810.0 605 637 588 599 550 510 605 755 759 683
1850.0 539 416 344 305 274 238 216 189 184 166
1890.0 137 131 129 126 119 123 113 116 106 90
1930.0 101 100 106 100 111 107 113 124 131 123
1970.0 113 107 111 117 133 134 133 126 130 139
2010.0 153 157 163 143 136 128 146 127 141 142
2050.0 142 135 130 126 103 96 91 94 87 88
2090.0 82 92 99 82 78 76 75 70 66 58
2130.0 60 54 51 53 45 50 63 55 53 55
2170.0 46 54 42 58 50 47 58 53 71 57
2210.0 69 68 79 73 80 71 82 85 77 76
2250.0 79 78 83 81 84 80 88 94 107 95
2290.0 108 116 127 109 117 117 91 87 58 63
2330.0 49 55 21 25 20 9 42 43 79 24
2370.0 44 25 50 72 70 59 61 57 59 64
2410.0 57 57 64 63 51 50 57 53 49 56
2450.0 64 54 56 66 58 56 51 50 63 62
2490.0 60 58 55 57 64 66 51 63 61 73
2530.0 69 75 83 74 85 71 80 87 93 79
2570.0 64 72 69 76 71 47 42 54 53 62
2610.0 52 46 43 33 43 35 47 31 40 29
2650.0 34 26 25 31 21 38 36 25 35 40
2690.0 32 47 54 74 73 94 109 128 149 156
2730.0 160 187 199 178 200 257 259 248 212 198
2770.0 184 187 210 198 233 240 265 280 336 348
2810.0 361 390 371 388 414 481 559 717 885 1100
2850.0 1349 1536 1636 1475 1662 2153 2141 2493 2807 3015
2890.0 3230 3255 3200 3418 3955 4435 5098 5456 5290 4841
2930.0 5082 5374 5208 5672 6357 7395 8601 7428 6130 6251
2970.0 5943 5848 5855 6032 5868 5834 5784 5957 6079 5889
3010.0 5538 4981 4460 4012 3838 3739 3676 3624 3475 3372
3050.0 3356 3440 3484 3695 3865 4038 4004 3987 3858 3562
3090.0 3939 3691 3386 4070 4071 3774 3282 2715 2200 1792
3130.0 1498 1225 1089 929 824 661 581 519 459 357
3170.0 284 245 208 186 155 139 102 103 95 81
3210.0 86 74 74 70 66 55 55 43 59 57
3250.0 47 62 48 34 44 50 36 68 49 41
3290.0 44 36 58 51 45 21 31 47 55 34
3330.0 31 24 27 46 46 59 41 61 68 82
3370.0 55 61 68 85 88 66 88 48 63 58
3410.0 69 92 79 94 67 72 69 83 63 75
3450.0 59 73 78 93 73 72 104 91 71 85
3490.0 93 93 96 98 99 139 103 106 103 110
3530.0 105 117 118 122 97 77 103 52 80 53
3570.0 51 32 45 28 78 68 67 39 60 25
3610.0 47 52 35 84 56 56 64 48 103 80
3650.0 98 73 99 94 70 111 54 93 95 97
3690.0 129 71 44 34 45 62 78 78 44 76
3730.0 46 41 78 44 127 61 88 93 58 37
3770.0 86 73 56 65 60 73 16 73 83 114
3810.0 65 49 80 82 88 59 83 87 88 74
3850.0 107 78 66 60 70 91 85 118 106 103
3890.0 119 146 83 77 136 150 136 31 115 98
3930.0 99 94 103 97 87 100 82 96 122 141
##END=
