##TITLE=Cyclobutane, octafluoro-
##JCAMP-DX=4.24
##DATA TYPE=INFRARED SPECTRUM
##ORIGIN=Sadtler Research Labs Under US-EPA Contract
##OWNER=NIST Standard Reference Data Program
##CAS REGISTRY NO=115-25-3
##MOLFORM=C 4 F 8
##XUNITS=1/CM
##YUNITS=ABSORBANCE
##XFACTOR=1.0
##YFACTOR=0.000058032
##DELTAX=4.0
##FIRSTX=450.0
##LASTX=3966.0
##FIRSTY=0.000580
##MAXX=3966
##MINX=450
##MAXY=0.58032
##MINY=0
##NPOINTS=880
##XYDATA=(X++(Y..Y))
450.0 10 63 0 72 73 42 49 50 28 24
490.0 32 56 45 58 54 77 54 55 78 28
530.0 75 45 103 80 72 82 96 354 828 1385
570.0 1586 1365 812 264 63 44 42 39 54 58
610.0 60 40 76 68 69 64 66 64 30 61
650.0 47 29 40 61 36 48 67 57 49 52
690.0 48 49 59 27 36 50 44 46 60 61
730.0 58 48 46 39 38 58 40 35 42 34
770.0 40 33 41 44 49 30 51 46 36 55
810.0 53 58 47 60 49 51 48 53 44 51
850.0 61 55 64 56 63 44 42 49 59 39
890.0 44 54 37 44 32 50 48 60 56 76
930.0 108 164 336 653 1541 3553 6930 9524 10000 7146
970.0 3200 1541 1134 942 781 626 555 440 348 246
1010.0 164 105 65 60 46 56 56 54 62 67
1050.0 65 66 57 41 47 37 40 51 59 68
1090.0 70 69 66 61 62 63 70 75 80 92
1130.0 109 120 152 181 205 189 188 178 144 132
1170.0 134 152 175 212 261 342 481 708 1108 1659
1210.0 2313 2998 3535 3959 4553 5247 5961 6018 5052 3806
1250.0 2579 1855 1570 1529 1816 1917 2079 2617 2935 3355
1290.0 3137 2456 1887 1380 1035 983 1004 1191 1617 2256
1330.0 2845 3310 3432 3008 2460 1789 1021 446 189 100
1370.0 80 77 78 85 103 122 135 147 134 127
1410.0 110 97 80 70 66 70 66 56 58 56
1450.0 49 40 46 60 69 68 57 41 41 39
1490.0 39 46 49 50 44 38 47 55 47 58
1530.0 51 58 41 37 34 25 28 30 35 36
1570.0 33 35 34 29 33 29 31 37 38 35
1610.0 40 38 45 48 40 46 36 40 32 33
1650.0 32 25 31 30 25 30 21 24 23 27
1690.0 20 25 23 22 21 30 30 25 25 23
1730.0 26 23 26 27 23 20 18 14 16 11
1770.0 6 9 6 11 7 15 19 26 26 32
1810.0 34 39 39 39 39 34 33 33 33 26
1850.0 28 23 24 26 24 25 19 20 17 18
1890.0 18 20 22 18 19 21 25 26 28 31
1930.0 34 37 36 33 34 30 25 32 30 31
1970.0 26 24 24 31 36 44 45 39 32 24
2010.0 23 20 21 13 21 18 21 23 23 24
2050.0 18 18 19 18 15 15 17 12 13 10
2090.0 9 15 10 15 14 13 16 18 17 16
2130.0 18 19 18 17 20 14 19 22 28 31
2170.0 40 44 44 37 33 25 24 24 19 26
2210.0 22 21 17 15 19 17 21 19 18 19
2250.0 17 17 19 19 22 20 20 15 14 10
2290.0 6 10 5 10 7 12 10 15 25 23
2330.0 26 45 51 37 51 26 46 40 40 27
2370.0 51 46 55 41 38 40 36 30 28 20
2410.0 16 14 19 14 18 19 22 23 20 21
2450.0 23 22 20 11 11 16 19 24 28 29
2490.0 34 37 38 37 35 37 37 34 31 35
2530.0 31 30 38 42 48 48 53 44 38 33
2570.0 23 23 16 15 17 20 18 20 21 21
2610.0 23 22 24 26 27 24 20 20 24 19
2650.0 22 23 19 27 22 24 24 19 20 19
2690.0 14 21 22 28 16 24 23 24 21 17
2730.0 20 19 19 18 19 15 16 21 19 21
2770.0 19 20 18 18 19 13 14 15 13 14
2810.0 15 12 13 18 19 15 14 10 12 12
2850.0 14 18 16 14 15 17 16 13 24 12
2890.0 12 17 14 15 13 14 12 15 13 14
2930.0 9 11 19 11 14 14 14 12 13 21
2970.0 15 19 17 12 19 19 20 17 18 14
3010.0 17 18 22 17 11 10 10 9 20 14
3050.0 14 16 18 21 22 20 16 18 15 24
3090.0 20 12 16 13 12 20 12 14 10 20
3130.0 16 16 18 17 17 15 13 15 18 15
3170.0 17 16 13 13 17 14 18 19 17 18
3210.0 16 12 14 17 22 15 16 17 22 17
3250.0 17 19 14 16 13 13 13 12 16 16
3290.0 17 24 17 14 12 10 6 16 20 15
3330.0 23 15 14 12 9 18 13 22 21 12
3370.0 20 17 8 12 14 17 25 23 20 13
3410.0 25 26 23 20 15 17 17 21 21 16
3450.0 8 11 11 19 13 14 21 17 17 16
3490.0 20 19 17 27 27 24 14 23 12 21
3530.0 21 23 17 28 15 28 18 18 28 10
3570.0 26 25 14 22 24 19 16 30 33 30
3610.0 29 25 23 25 18 31 22 27 27 22
3650.0 16 34 28 20 33 19 35 36 16 12
3690.0 23 28 28 35 28 27 29 21 26 32
3730.0 22 26 19 39 10 24 31 31 35 30
3770.0 24 19 8 40 25 24 23 12 29 21
3810.0 19 27 22 41 34 27 28 38 49 42
3850.0 18 22 26 27 28 28 38 14 20 18
3890.0 47 36 36 16 26 15 19 29 28 34
3930.0 19 28 22 22 38 50 8 36 19 41
##END=
