##TITLE=Phosphoric acid, triphenyl ester
##JCAMP-DX=4.24
##DATA TYPE=INFRARED SPECTRUM
##ORIGIN=Sadtler Research Labs Under US-EPA Contract
##OWNER=NIST Standard Reference Data Program
##CAS REGISTRY NO=115-86-6
##MOLFORM=C 18 H 15 O 4 P
##XUNITS=1/CM
##YUNITS=ABSORBANCE
##XFACTOR=1.0
##YFACTOR=0.000072803
##DELTAX=4.0
##FIRSTX=450.0
##LASTX=3966.0
##FIRSTY=0.018783
##MAXX=3966
##MINX=450
##MAXY=0.72803
##MINY=0
##NPOINTS=880
##XYDATA=(X++(Y..Y))
450.0 258 244 272 296 352 404 484 576 731 878
490.0 1017 1113 1154 1253 1248 1291 1186 1118 859 601
530.0 478 373 358 332 350 409 414 506 553 609
570.0 636 718 725 555 527 428 254 141 69 156
610.0 198 291 258 185 29 13 22 35 19 43
650.0 116 213 214 180 253 303 514 838 1434 2192
690.0 1595 736 342 214 168 208 257 342 323 390
730.0 417 524 795 1273 1933 2459 2426 2183 2172 2246
770.0 2407 2267 1966 1397 869 521 266 179 115 120
810.0 143 156 159 231 185 185 163 152 139 165
850.0 169 183 186 228 261 311 337 369 393 465
890.0 580 752 905 988 972 994 1092 1332 1662 2103
930.0 2508 2850 3512 4521 6008 7705 8752 10000 9096 7577
970.0 6016 4378 3303 2618 1988 1507 1253 1164 1261 2035
1010.0 2695 1414 970 1574 2210 1308 556 268 139 110
1050.0 102 99 152 230 372 461 333 154 102 83
1090.0 97 101 130 152 193 196 218 235 292 336
1130.0 410 484 607 781 1091 1551 2351 3353 4258 4012
1170.0 3283 3267 4171 5690 7218 8217 8251 6625 4435 2796
1210.0 1851 1404 1244 1240 1309 1320 1263 1116 960 815
1250.0 686 576 483 430 403 432 487 599 724 918
1290.0 1213 1650 2005 2061 2016 2146 2171 1825 1362 1062
1330.0 910 786 612 396 227 120 72 42 49 35
1370.0 34 36 28 22 33 44 47 53 49 46
1410.0 39 47 61 56 69 78 107 164 199 256
1450.0 354 533 653 571 695 918 1320 1961 3041 4637
1490.0 5716 4294 2441 1228 775 532 381 282 214 161
1530.0 126 132 119 146 140 146 185 250 294 371
1570.0 529 770 1155 1627 2116 2324 2125 1652 1018 555
1610.0 314 187 128 73 61 35 32 29 22 36
1650.0 36 59 20 20 24 34 28 37 29 52
1690.0 34 41 57 71 72 75 89 116 105 103
1730.0 96 90 66 43 36 28 22 17 25 34
1770.0 56 82 74 64 50 41 37 28 23 16
1810.0 17 9 4 4 4 16 11 17 28 49
1850.0 68 83 92 93 94 101 94 94 93 89
1890.0 90 78 82 84 90 98 112 120 128 141
1930.0 159 171 179 172 154 145 133 120 106 93
1970.0 78 72 65 67 59 60 61 58 55 51
2010.0 42 37 37 29 23 16 25 23 19 19
2050.0 12 13 13 22 16 22 23 16 17 18
2090.0 18 11 12 17 14 13 15 14 10 15
2130.0 16 17 18 17 11 15 14 16 20 20
2170.0 20 20 20 19 19 20 20 21 18 27
2210.0 27 27 26 26 26 27 34 34 33 41
2250.0 34 40 41 41 36 37 34 33 27 34
2290.0 26 33 33 41 48 48 47 55 55 38
2330.0 47 36 38 41 47 48 47 33 46 34
2370.0 41 40 52 59 49 48 47 40 40 40
2410.0 40 48 42 39 40 46 37 40 40 35
2450.0 27 27 27 27 20 25 20 20 19 19
2490.0 19 22 25 27 26 26 26 26 20 21
2530.0 24 25 20 19 19 22 25 33 26 27
2570.0 33 26 28 19 19 19 28 19 25 24
2610.0 26 26 27 26 26 19 28 18 26 31
2650.0 27 19 19 21 20 19 19 14 19 20
2690.0 19 18 14 13 21 12 15 13 14 14
2730.0 13 20 13 13 13 20 20 20 18 18
2770.0 18 18 17 25 31 23 23 29 23 23
2810.0 22 26 25 27 40 49 54 68 68 77
2850.0 91 103 98 92 80 73 70 67 71 71
2890.0 78 78 84 92 104 112 139 148 175 178
2930.0 178 169 150 115 107 87 93 86 72 67
2970.0 64 57 58 49 60 61 63 69 90 103
3010.0 106 126 147 180 213 241 277 318 366 396
3050.0 404 411 432 440 467 491 509 532 520 438
3090.0 327 248 223 200 166 128 87 77 58 58
3130.0 42 38 30 30 34 30 29 22 20 28
3170.0 13 20 26 33 21 25 25 39 23 24
3210.0 17 16 30 15 23 15 23 19 22 26
3250.0 22 18 11 27 13 19 26 25 32 25
3290.0 25 20 26 30 30 30 31 21 29 21
3330.0 29 35 27 26 29 35 34 33 19 33
3370.0 33 32 24 31 30 37 30 29 38 32
3410.0 28 29 33 41 32 48 47 26 34 33
3450.0 39 40 42 46 33 30 37 44 30 44
3490.0 36 43 43 49 39 29 33 33 37 36
3530.0 36 39 39 45 44 54 42 45 52 55
3570.0 46 41 50 49 42 56 41 48 54 56
3610.0 58 63 44 67 66 74 73 70 74 72
3650.0 71 71 76 64 56 59 54 60 51 48
3690.0 61 42 26 33 32 46 44 31 23 26
3730.0 31 23 45 33 48 50 37 27 27 26
3770.0 28 33 31 25 19 23 24 38 37 32
3810.0 23 37 57 51 41 38 44 54 47 38
3850.0 37 39 39 48 54 61 54 52 61 63
3890.0 52 44 36 48 58 57 56 64 57 49
3930.0 49 41 49 48 40 48 0 4 4 4
##END=
