##TITLE=Dimethyl ether
##JCAMP-DX=4.24
##DATA TYPE=INFRARED SPECTRUM
##ORIGIN=Sadtler Research Labs Under US-EPA Contract
##OWNER=NIST Standard Reference Data Program
##CAS REGISTRY NO=115-10-6
##MOLFORM=C 2 H 6 O
##XUNITS=1/CM
##YUNITS=ABSORBANCE
##XFACTOR=1.0
##YFACTOR=0.000048376
##DELTAX=4.0
##FIRSTX=450.0
##LASTX=3966.0
##FIRSTY=0.000000
##MAXX=3966
##MINX=450
##MAXY=0.48376
##MINY=0
##NPOINTS=880
##XYDATA=(X++(Y..Y))
450.0 0 206 264 353 274 244 210 177 230 185
490.0 225 179 147 203 155 165 176 193 193 167
530.0 128 156 151 145 138 163 157 149 111 147
570.0 130 141 173 156 164 142 152 162 113 123
610.0 137 137 135 138 114 126 140 131 139 126
650.0 136 135 115 119 120 127 119 115 113 112
690.0 94 123 126 124 133 126 121 113 144 136
730.0 119 121 122 115 119 91 122 128 118 126
770.0 111 124 144 120 112 118 107 123 112 123
810.0 115 130 116 130 131 145 164 170 200 221
850.0 236 271 313 367 433 526 607 719 820 983
890.0 1121 1288 1447 1604 1747 1874 1951 1907 1808 1620
930.0 1584 1901 2242 2242 2075 1926 1726 1521 1302 1133
970.0 984 886 780 686 593 527 448 381 346 301
1010.0 285 273 254 244 251 265 274 299 317 372
1050.0 437 572 748 1004 1364 1838 2395 2933 3446 3723
1090.0 3880 3855 4114 4494 2861 3026 4671 5381 5367 4680
1130.0 3833 3238 2904 3098 3569 4847 5663 6547 7390 8303
1170.0 8423 8425 10000 6801 6668 8902 9558 8685 6470 4331
1210.0 2763 1843 1363 1075 933 790 710 607 523 441
1250.0 458 482 464 429 383 368 331 313 296 291
1290.0 269 258 251 236 226 227 219 207 207 201
1330.0 205 199 200 200 200 198 199 199 201 221
1370.0 212 235 241 270 289 335 363 403 441 493
1410.0 532 553 612 642 727 798 928 1012 1207 1326
1450.0 1650 2131 1876 1753 1882 1729 1682 1509 1353 1204
1490.0 1090 976 875 778 704 630 535 493 451 400
1530.0 362 327 313 284 256 246 242 237 245 211
1570.0 211 201 222 203 195 206 199 191 192 206
1610.0 195 195 200 180 182 159 187 168 166 154
1650.0 167 164 161 140 145 136 139 122 136 140
1690.0 113 120 130 132 119 110 111 119 112 107
1730.0 116 131 120 116 118 114 118 104 105 104
1770.0 109 110 99 97 106 101 109 107 108 107
1810.0 111 106 111 108 114 116 108 118 114 117
1850.0 117 117 117 117 118 121 117 113 107 108
1890.0 113 102 107 104 108 102 102 98 95 95
1930.0 94 97 100 103 99 99 99 99 104 108
1970.0 122 121 134 144 152 159 183 199 212 227
2010.0 238 237 238 254 257 238 245 288 303 289
2050.0 254 222 208 217 252 280 321 345 373 389
2090.0 387 398 447 422 362 401 448 415 322 225
2130.0 161 138 127 125 119 114 113 115 116 110
2170.0 109 113 108 110 110 111 103 100 99 99
2210.0 104 107 102 102 97 94 99 96 96 96
2250.0 92 95 96 99 95 99 97 99 104 107
2290.0 107 107 109 112 112 112 107 102 111 97
2330.0 94 98 106 107 122 125 120 121 123 130
2370.0 130 139 138 136 136 130 138 147 156 158
2410.0 158 153 160 167 167 151 162 158 140 130
2450.0 115 114 108 103 99 105 101 105 106 102
2490.0 100 105 109 104 106 104 110 119 125 125
2530.0 126 126 136 144 147 164 176 172 177 175
2570.0 190 194 190 193 199 215 213 220 231 228
2610.0 237 233 227 231 235 236 228 217 226 228
2650.0 231 220 223 215 236 237 236 245 255 270
2690.0 267 284 278 271 266 278 271 272 270 267
2730.0 275 281 304 316 339 369 421 477 548 628
2770.0 740 902 1119 1446 1894 2532 3255 4063 4678 5023
2810.0 4803 4712 5745 4888 4698 5877 6666 7044 6835 6431
2850.0 6064 5787 5524 5427 5697 5877 6422 6985 6758 7392
2890.0 8538 8476 7807 7440 7514 7418 7321 7512 7387 7736
2930.0 7648 7390 7283 6939 6619 6147 5723 5473 5305 5358
2970.0 5513 5622 5529 5131 4486 4211 4624 4457 3644 3859
3010.0 4259 3913 3419 2749 2189 1687 1339 1125 972 868
3050.0 764 738 661 629 580 557 521 495 479 441
3090.0 435 406 395 372 372 350 344 326 326 318
3130.0 305 317 295 280 273 275 258 239 242 231
3170.0 214 206 216 196 192 190 197 176 179 176
3210.0 164 160 165 166 151 147 145 150 147 145
3250.0 147 138 145 132 132 133 147 122 131 138
3290.0 121 128 123 133 122 127 127 145 125 137
3330.0 135 135 130 133 132 119 131 135 127 123
3370.0 131 127 135 128 140 133 130 118 116 126
3410.0 120 126 130 124 118 122 133 116 129 131
3450.0 124 122 128 128 131 118 125 118 114 112
3490.0 124 127 124 110 100 113 113 103 111 109
3530.0 116 124 127 111 96 107 114 122 116 124
3570.0 102 116 111 110 118 106 115 112 117 105
3610.0 108 92 110 140 125 125 121 113 134 114
3650.0 115 96 110 130 113 121 104 129 118 129
3690.0 134 117 112 117 127 112 110 130 137 125
3730.0 138 141 125 116 152 127 137 120 122 137
3770.0 137 129 113 127 133 117 123 129 113 134
3810.0 125 135 122 138 117 137 131 145 125 116
3850.0 117 134 134 96 122 111 119 99 113 119
3890.0 130 144 128 147 123 145 119 125 139 112
3930.0 136 139 156 116 144 135 145 112 113 114
##END=
