##TITLE=1-Propene, 2-methyl-
##JCAMP-DX=4.24
##DATA TYPE=INFRARED SPECTRUM
##ORIGIN=Sadtler Research Labs Under US-EPA Contract
##OWNER=NIST Standard Reference Data Program
##CAS REGISTRY NO=115-11-7
##MOLFORM=C 4 H 8
##XUNITS=1/CM
##YUNITS=ABSORBANCE
##XFACTOR=1.0
##YFACTOR=0.000032150
##DELTAX=4.0
##FIRSTX=450.0
##LASTX=3966.0
##FIRSTY=0.033758
##MAXX=3966
##MINX=450
##MAXY=0.3215
##MINY=0
##NPOINTS=880
##XYDATA=(X++(Y..Y))
450.0 1050 877 709 422 407 421 344 216 310 136
490.0 180 158 113 85 177 195 178 204 36 135
530.0 87 119 83 153 108 65 106 119 86 115
570.0 136 69 93 100 100 91 133 77 75 89
610.0 86 118 81 101 88 115 131 125 99 77
650.0 73 88 117 85 138 81 150 50 81 98
690.0 100 93 0 41 76 125 73 112 80 106
730.0 82 97 105 75 86 61 100 43 97 75
770.0 107 101 117 123 91 120 75 123 63 155
810.0 88 139 134 114 140 131 256 194 417 534
850.0 878 1109 1630 2022 2252 2373 2174 2339 2480 7575
890.0 10000 3089 2256 2220 2766 2931 2467 2070 1395 1027
930.0 548 438 255 217 158 163 165 134 178 137
970.0 185 176 202 198 243 245 232 210 162 176
1010.0 136 161 143 165 150 176 194 226 252 281
1050.0 289 267 286 290 294 281 302 269 220 179
1090.0 140 118 103 115 97 107 102 102 103 107
1130.0 104 87 107 91 89 79 92 73 81 85
1170.0 79 85 78 82 72 87 87 85 89 101
1210.0 105 115 130 122 144 152 168 175 209 237
1250.0 279 346 420 474 509 520 498 548 566 474
1290.0 523 556 526 448 383 303 249 220 225 241
1330.0 244 244 232 261 303 377 508 673 901 1066
1370.0 1180 1202 1421 1746 1434 1645 1988 1903 1566 1171
1410.0 965 915 971 1108 1303 1417 1512 1773 2350 2593
1450.0 2391 2313 2378 2253 1985 2054 2002 1839 1662 1466
1490.0 1211 983 747 569 458 369 303 265 248 222
1530.0 199 198 213 208 198 228 250 269 291 273
1570.0 305 298 334 314 343 334 350 348 364 380
1610.0 398 461 530 619 729 896 1105 1305 1491 1633
1650.0 1687 1698 1775 1713 1700 1552 1473 1307 1049 745
1690.0 486 330 254 196 154 120 109 101 121 118
1730.0 110 118 110 107 98 120 161 191 235 279
1770.0 311 328 334 317 317 320 323 308 290 250
1810.0 198 148 120 97 87 83 76 78 61 66
1850.0 63 68 66 71 60 57 63 61 67 57
1890.0 59 46 58 57 49 48 50 54 48 48
1930.0 56 58 49 49 51 47 49 39 55 49
1970.0 64 52 52 47 47 39 45 47 39 30
2010.0 37 24 34 30 31 31 27 33 32 32
2050.0 35 38 30 38 35 46 40 41 46 35
2090.0 39 43 42 35 33 33 28 29 31 29
2130.0 32 34 35 33 35 38 48 48 47 42
2170.0 48 51 48 46 46 51 41 48 39 32
2210.0 31 34 27 30 22 35 42 41 40 40
2250.0 41 37 39 40 39 44 37 36 26 32
2290.0 28 40 37 44 47 50 48 44 49 32
2330.0 18 37 15 5 65 55 63 30 6 60
2370.0 44 41 32 45 39 33 39 41 32 38
2410.0 30 35 25 31 31 37 37 44 32 28
2450.0 29 44 31 30 39 28 33 40 34 41
2490.0 35 37 37 40 39 42 44 40 45 48
2530.0 45 33 35 28 31 19 14 17 20 16
2570.0 21 10 10 13 16 15 7 6 5 16
2610.0 18 14 14 12 23 25 22 26 28 27
2650.0 30 22 32 40 45 38 43 43 43 42
2690.0 36 43 47 56 82 92 127 156 184 211
2730.0 243 252 267 302 314 324 315 289 233 208
2770.0 178 170 171 203 223 247 255 276 309 335
2810.0 368 419 496 480 464 504 588 719 861 1126
2850.0 1384 1657 1805 2032 2202 2290 2523 2811 3082 3232
2890.0 3462 3667 3779 3951 4295 4669 5025 5234 5352 5394
2930.0 5248 5262 5453 7137 8748 6017 4995 5410 5969 6360
2970.0 6274 5911 6058 5866 5168 5054 5081 4606 3905 3009
3010.0 2361 1851 1495 1188 1010 873 799 777 763 809
3050.0 870 1044 1287 1680 2103 2437 2531 2380 2411 3177
3090.0 2203 2306 2557 2402 2013 1415 959 657 498 426
3130.0 353 336 288 280 245 213 190 176 152 126
3170.0 116 102 113 79 83 61 73 49 62 57
3210.0 41 40 35 42 39 57 42 31 27 40
3250.0 33 32 37 38 37 34 49 37 27 28
3290.0 36 36 32 40 35 37 38 43 26 61
3330.0 51 71 60 63 74 70 89 99 95 91
3370.0 88 88 87 97 90 80 74 83 76 63
3410.0 59 64 51 49 54 66 70 42 46 44
3450.0 55 46 55 71 35 52 50 63 63 44
3490.0 38 62 56 48 56 49 58 58 73 45
3530.0 41 56 63 66 28 46 42 38 30 66
3570.0 44 60 34 43 46 31 51 5 50 35
3610.0 94 62 60 67 84 60 73 55 47 43
3650.0 61 58 65 82 39 54 12 62 21 34
3690.0 41 61 62 24 38 45 48 39 46 28
3730.0 12 49 60 35 103 51 81 59 65 79
3770.0 128 96 26 51 92 43 24 44 43 76
3810.0 42 74 66 42 42 74 76 90 39 26
3850.0 58 91 86 69 63 57 57 56 90 91
3890.0 71 51 25 92 77 117 55 73 50 74
3930.0 65 52 72 59 71 38 78 83 125 33
##END=
