##TITLE=Citric acid, triallyl ester,
##JCAMP-DX=4.24
##DATA TYPE=INFRARED SPECTRUM
##ORIGIN=Sadtler Research Labs Under US-EPA Contract
##OWNER=NIST Standard Reference Data Program
##CAS REGISTRY NO=115-72-0
##MOLFORM=C 17 H 22 O 8
##XUNITS=1/CM
##YUNITS=ABSORBANCE
##XFACTOR=1.0
##YFACTOR=0.000037503
##DELTAX=4.0
##FIRSTX=450.0
##LASTX=3966.0
##FIRSTY=0.020214
##MAXX=3966
##MINX=450
##MAXY=0.37503
##MINY=0
##NPOINTS=880
##XYDATA=(X++(Y..Y))
450.0 539 987 680 489 333 810 917 562 908 299
490.0 16 88 986 1109 490 412 80 187 927 1114
530.0 732 600 286 487 741 675 1222 266 433 744
570.0 304 756 889 747 430 673 537 673 812 797
610.0 789 930 781 732 567 801 724 808 964 553
650.0 476 576 506 526 859 714 578 606 648 336
690.0 594 256 604 763 449 727 498 433 449 615
730.0 624 435 752 658 709 618 500 366 601 916
770.0 587 559 571 658 766 623 610 655 658 733
810.0 620 691 601 648 703 697 559 641 621 657
850.0 648 641 653 651 675 631 575 641 706 778
890.0 730 697 893 901 950 1088 1338 1452 1755 2081
930.0 2386 2521 2210 1796 1563 1487 1469 1454 1650 1785
970.0 1924 2248 2531 3072 3598 4093 4327 4120 3745 3421
1010.0 3055 2713 2531 2180 1970 1880 1921 2124 2329 2373
1050.0 2384 2354 2376 2318 2345 2125 2126 1994 1778 1651
1090.0 1695 1817 1675 1723 1886 1933 1953 2077 2428 2582
1130.0 2997 3208 3538 3787 4144 4469 5010 5567 6238 6825
1170.0 7424 7716 7741 7536 7168 6805 6445 6233 6147 6085
1210.0 6016 6040 6187 6185 6074 5830 5405 4963 4475 4071
1250.0 3753 3521 3442 3327 3437 3559 3718 3759 3620 3299
1290.0 2889 2580 2322 2000 1823 1679 1636 1622 1652 1678
1330.0 1725 1780 1866 1861 1823 1790 1745 1861 2141 2538
1370.0 2783 2792 2482 2077 1728 1428 1241 1128 1094 1093
1410.0 1144 1229 1296 1378 1341 1317 1261 1214 1156 1105
1450.0 1102 1128 1056 962 841 696 623 572 574 508
1490.0 469 464 446 415 453 425 403 443 400 413
1530.0 387 388 390 390 380 366 377 372 377 372
1570.0 358 374 365 352 355 334 342 348 355 364
1610.0 360 374 389 397 403 416 445 496 540 622
1650.0 667 627 561 496 514 473 486 479 492 531
1690.0 532 563 618 693 732 816 928 1073 1218 1474
1730.0 1819 2297 3078 3922 5240 6803 8331 9586 10000 9730
1770.0 8621 6668 4941 3690 2807 2238 1821 1582 1352 1152
1810.0 1023 880 758 684 602 551 519 478 468 441
1850.0 435 452 466 443 453 418 384 367 361 329
1890.0 329 307 300 289 279 272 268 267 267 256
1930.0 254 246 252 244 236 247 234 235 250 227
1970.0 234 221 223 228 226 229 222 214 219 218
2010.0 209 218 212 215 204 208 213 208 206 199
2050.0 202 197 199 201 193 188 186 193 185 181
2090.0 179 175 178 186 176 175 167 165 173 170
2130.0 157 154 156 165 150 152 156 149 155 152
2170.0 144 137 137 139 130 133 130 136 132 125
2210.0 128 130 126 129 120 134 124 121 124 116
2250.0 127 125 118 117 117 123 133 131 146 155
2290.0 174 189 203 213 221 238 207 180 181 149
2330.0 127 135 123 139 163 153 136 104 133 116
2370.0 130 140 143 159 134 107 84 76 73 80
2410.0 88 81 73 84 85 88 67 64 80 75
2450.0 72 78 73 63 57 65 59 54 65 52
2490.0 61 52 43 48 49 39 44 43 39 40
2530.0 31 32 31 36 36 44 37 30 25 29
2570.0 29 27 20 32 23 31 24 7 22 26
2610.0 20 24 23 28 23 17 21 16 27 19
2650.0 23 31 21 23 26 33 17 10 18 28
2690.0 38 32 38 27 26 36 25 31 35 41
2730.0 36 40 20 39 37 35 49 43 44 51
2770.0 40 47 51 53 53 45 55 62 66 68
2810.0 86 73 86 74 81 86 94 89 81 84
2850.0 91 109 109 120 147 153 165 184 231 280
2890.0 297 320 319 295 280 264 273 282 302 337
2930.0 383 456 544 666 808 940 1059 1097 1014 836
2970.0 673 574 546 511 500 514 557 541 504 457
3010.0 413 402 404 429 467 456 394 321 263 217
3050.0 198 184 193 193 208 220 269 297 354 409
3090.0 475 556 563 512 408 294 225 166 128 112
3130.0 104 83 62 74 78 51 50 49 50 48
3170.0 40 49 41 46 43 29 37 31 36 34
3210.0 39 40 35 32 28 39 27 24 36 20
3250.0 33 31 23 28 20 28 37 29 28 42
3290.0 32 37 36 39 38 26 33 27 41 39
3330.0 30 31 32 42 45 19 44 30 30 42
3370.0 32 33 48 37 32 20 51 61 53 53
3410.0 40 44 58 33 49 20 51 73 46 76
3450.0 70 73 65 79 95 92 109 103 95 117
3490.0 115 106 126 105 115 106 117 100 99 106
3530.0 66 73 83 84 98 127 138 147 159 135
3570.0 148 133 135 131 139 111 131 135 110 113
3610.0 97 83 65 58 62 62 58 83 46 41
3650.0 37 65 26 41 52 3 62 38 69 44
3690.0 32 44 35 19 29 40 53 34 52 39
3730.0 35 21 36 50 27 68 23 45 6 3
3770.0 34 11 17 5 36 36 35 82 6 74
3810.0 29 61 35 31 49 14 66 52 40 40
3850.0 19 49 68 25 54 3 5 4 60 75
3890.0 57 0 50 104 66 34 23 64 3 7
3930.0 20 20 9 15 31 85 32 27 40 87
##END=
