##TITLE=Mephobarbital
##JCAMP-DX=4.24
##DATA TYPE=INFRARED SPECTRUM
##ORIGIN=Sadtler Research Labs Under US-EPA Contract
##OWNER=NIST Standard Reference Data Program
##CAS REGISTRY NO=115-38-8
##MOLFORM=C 13 H 14 N 2 O 3
##XUNITS=1/CM
##YUNITS=ABSORBANCE
##XFACTOR=1.0
##YFACTOR=0.000049673
##DELTAX=4.0
##FIRSTX=450.0
##LASTX=3966.0
##FIRSTY=0.000596
##MAXX=3966
##MINX=450
##MAXY=0.49673
##MINY=0
##NPOINTS=880
##XYDATA=(X++(Y..Y))
450.0 12 103 175 24 51 56 60 112 50 25
490.0 65 95 72 144 168 164 231 196 108 101
530.0 110 127 194 244 386 511 507 403 291 216
570.0 116 154 89 54 78 67 104 119 140 154
610.0 240 235 286 296 335 432 560 626 648 581
650.0 546 489 396 268 215 207 263 255 310 372
690.0 513 558 488 452 417 419 450 480 509 487
730.0 386 335 304 333 442 616 880 1031 933 653
770.0 410 266 199 178 147 129 126 122 118 107
810.0 108 116 97 64 18 39 32 28 21 16
850.0 30 61 80 92 87 41 16 9 3 4
890.0 14 7 21 26 16 12 24 21 38 45
930.0 68 69 72 65 45 55 63 73 110 153
970.0 206 251 277 256 201 160 123 121 122 106
1010.0 113 123 126 147 209 302 460 624 733 765
1050.0 693 530 382 300 276 269 264 242 212 183
1090.0 174 184 213 259 306 336 329 309 307 315
1130.0 334 327 318 280 260 254 252 287 327 408
1170.0 552 736 939 1063 1055 930 770 641 559 477
1210.0 406 356 333 311 296 292 313 352 443 572
1250.0 725 828 828 741 615 531 480 487 530 608
1290.0 755 961 1228 1526 1875 2247 2574 2700 2563 2256
1330.0 1998 1909 1995 2071 1991 1749 1494 1362 1383 1517
1370.0 1729 2010 2361 2781 3164 3242 2917 2329 1800 1492
1410.0 1352 1300 1330 1464 1752 2245 2841 3323 3409 3072
1450.0 2479 1928 1480 1170 928 751 618 530 486 501
1490.0 553 615 678 653 565 449 373 334 300 254
1530.0 224 198 173 164 157 158 158 169 178 182
1570.0 206 202 215 223 225 234 250 260 247 231
1610.0 194 178 170 178 183 177 199 202 229 243
1650.0 282 287 325 348 415 479 580 670 809 1038
1690.0 1411 2049 3096 4817 6771 8024 7495 5788 4250 3617
1730.0 3868 4976 6931 9018 10000 8926 6724 4888 3983 3517
1770.0 2991 2304 1726 1288 998 752 587 456 373 308
1810.0 260 229 200 193 170 168 154 159 148 142
1850.0 134 123 121 112 113 100 100 93 99 93
1890.0 97 97 92 98 91 89 80 82 74 73
1930.0 72 68 68 68 71 70 69 69 65 56
1970.0 53 43 36 37 36 37 34 32 33 33
2010.0 30 29 28 22 25 26 27 27 26 22
2050.0 27 24 25 26 24 23 23 25 16 23
2090.0 24 27 20 19 21 16 18 16 21 20
2130.0 20 20 21 18 19 20 20 25 23 19
2170.0 15 21 20 17 15 19 18 14 17 20
2210.0 18 18 19 17 18 18 22 21 19 19
2250.0 17 20 13 19 18 22 19 18 26 27
2290.0 26 27 34 28 28 20 18 1 2 1
2330.0 1 1 1 1 1 22 1 1 1 1
2370.0 1 3 13 27 29 20 18 14 11 15
2410.0 17 19 15 21 17 17 18 19 14 15
2450.0 14 18 14 15 16 14 18 18 22 20
2490.0 21 26 20 22 20 18 21 20 21 22
2530.0 17 21 22 20 17 12 23 19 21 20
2570.0 22 14 15 12 12 10 15 12 12 12
2610.0 13 13 13 15 11 10 12 8 13 14
2650.0 14 14 14 18 14 17 12 15 17 18
2690.0 21 14 17 20 20 21 27 29 19 21
2730.0 23 17 23 25 28 27 31 41 31 33
2770.0 32 36 38 35 34 36 32 35 44 42
2810.0 43 43 52 48 55 54 55 70 80 93
2850.0 104 103 106 113 123 146 157 167 187 228
2890.0 293 328 312 268 239 220 226 242 263 303
2930.0 331 366 429 517 623 714 745 697 628 589
2970.0 590 644 706 720 643 529 434 345 279 220
3010.0 194 174 163 162 181 184 197 222 220 221
3050.0 211 209 218 263 339 438 494 450 341 241
3090.0 201 192 184 180 169 150 140 120 95 74
3130.0 69 65 62 59 59 59 60 55 53 55
3170.0 51 40 36 36 37 30 32 25 16 28
3210.0 28 26 24 24 26 30 25 28 19 20
3250.0 26 20 19 25 20 24 26 21 29 26
3290.0 32 27 20 28 21 20 20 17 28 25
3330.0 27 20 29 29 26 23 29 32 31 34
3370.0 32 28 26 28 32 41 51 47 75 92
3410.0 143 235 444 807 1267 1553 1427 966 497 236
3450.0 154 123 113 119 97 89 69 71 60 62
3490.0 57 53 53 43 54 48 39 24 25 24
3530.0 14 22 27 31 17 17 14 18 7 1
3570.0 18 18 19 21 20 15 10 16 2 4
3610.0 15 8 12 9 14 10 11 7 10 19
3650.0 6 12 9 3 13 2 17 3 10 15
3690.0 13 8 21 8 18 8 7 18 6 5
3730.0 0 0 14 12 7 13 7 1 16 18
3770.0 13 19 5 9 14 17 12 7 12 7
3810.0 19 3 4 13 0 18 25 15 17 25
3850.0 21 29 26 11 16 8 14 13 9 12
3890.0 22 22 27 28 24 2 23 3 20 31
3930.0 27 4 14 24 18 22 33 27 13 9
##END=
