##TITLE=Tri(2-chloroethyl) phosphate
##JCAMP-DX=4.24
##DATA TYPE=INFRARED SPECTRUM
##ORIGIN=Sadtler Research Labs Under US-EPA Contract
##OWNER=NIST Standard Reference Data Program
##CAS REGISTRY NO=115-96-8
##MOLFORM=C 6 H 12 Cl 3 O 4 P
##XUNITS=1/CM
##YUNITS=ABSORBANCE
##XFACTOR=1.0
##YFACTOR=0.000077625
##DELTAX=4.0
##FIRSTX=450.0
##LASTX=3966.0
##FIRSTY=0.009858
##MAXX=3966
##MINX=450
##MAXY=0.77625
##MINY=0
##NPOINTS=880
##XYDATA=(X++(Y..Y))
450.0 127 80 71 19 165 174 188 230 312 342
490.0 356 355 372 439 401 518 519 614 631 648
530.0 669 675 673 628 576 495 420 338 215 180
570.0 140 87 83 44 37 6 48 107 13 55
610.0 38 8 45 23 44 32 60 31 56 78
650.0 83 122 140 240 300 499 699 902 973 846
690.0 629 421 309 274 240 240 264 307 359 420
730.0 495 573 637 686 658 648 625 682 767 820
770.0 822 764 758 823 1023 1158 1180 1028 805 670
810.0 604 585 606 653 687 739 751 784 809 833
850.0 867 897 951 997 1077 1147 1193 1191 1162 1083
890.0 1009 975 982 1057 1160 1317 1459 1614 1743 1852
930.0 1954 2015 2075 2006 1949 1893 1942 2023 2152 2242
970.0 2227 2039 1703 1422 1258 1284 1442 1744 2207 2901
1010.0 3899 5222 6936 8535 9872 10000 9785 8758 7589 6450
1050.0 5530 5012 5093 6048 7337 8556 8719 8113 6739 5348
1090.0 4186 3265 2634 2179 1871 1592 1378 1169 994 840
1130.0 723 628 550 491 443 407 372 349 334 327
1170.0 323 333 349 371 420 492 615 769 895 903
1210.0 806 665 530 430 364 334 320 328 354 401
1250.0 482 615 783 906 989 1026 1149 1388 1825 2331
1290.0 2744 2923 2902 2877 2786 2729 2521 2206 1688 1197
1330.0 823 595 461 362 309 263 231 204 194 178
1370.0 177 173 193 235 308 336 305 197 133 97
1410.0 93 95 99 127 166 277 424 483 450 341
1450.0 336 366 391 383 320 269 224 172 129 85
1490.0 66 62 63 54 36 29 29 23 26 22
1530.0 29 12 24 15 16 13 18 8 15 14
1570.0 19 5 20 17 11 12 16 11 17 18
1610.0 14 11 15 11 22 10 24 14 17 15
1650.0 19 5 32 12 17 25 8 17 14 13
1690.0 16 19 7 26 17 19 12 20 17 20
1730.0 24 17 36 44 39 41 53 44 51 47
1770.0 49 48 47 47 44 40 50 43 51 56
1810.0 57 55 60 56 56 53 53 57 51 55
1850.0 52 55 60 60 55 66 62 64 68 66
1890.0 67 65 66 64 62 58 51 50 42 39
1930.0 37 39 34 31 31 29 29 27 24 22
1970.0 21 18 17 17 16 15 12 12 13 11
2010.0 9 6 9 9 11 12 12 12 13 11
2050.0 13 14 13 14 11 13 15 12 10 10
2090.0 7 7 7 9 7 8 7 9 7 7
2130.0 6 7 3 4 3 0 1 3 3 1
2170.0 1 2 2 0 3 2 6 4 5 10
2210.0 13 17 14 19 22 20 22 24 24 22
2250.0 23 25 22 24 24 25 27 24 26 25
2290.0 20 14 12 7 5 1 6 3 3 10
2330.0 8 17 16 15 14 13 0 7 0 6
2370.0 12 17 23 26 27 31 33 33 33 31
2410.0 32 29 30 32 31 33 33 29 28 31
2450.0 29 30 29 30 29 32 32 31 30 33
2490.0 32 34 34 35 32 33 33 33 35 34
2530.0 35 34 32 32 29 29 28 29 26 24
2570.0 26 23 19 22 20 23 22 19 18 20
2610.0 20 17 20 21 20 23 26 26 24 22
2650.0 26 26 26 26 30 30 29 32 30 32
2690.0 35 36 36 37 41 41 44 44 43 42
2730.0 41 44 43 47 55 56 62 65 65 54
2770.0 48 45 41 40 37 37 35 32 35 34
2810.0 36 38 40 43 46 46 52 56 67 74
2850.0 88 94 95 90 90 84 89 111 141 187
2890.0 249 306 326 309 285 290 306 312 284 260
2930.0 257 274 321 391 469 542 575 610 711 873
2970.0 970 956 941 942 870 730 590 486 416 388
3010.0 388 363 310 249 206 177 143 126 107 95
3050.0 82 76 68 63 57 53 51 50 47 43
3090.0 45 41 41 39 41 41 35 39 37 39
3130.0 36 37 33 37 31 32 35 32 37 33
3170.0 38 34 31 33 33 31 36 39 35 35
3210.0 32 34 35 37 33 36 36 32 31 32
3250.0 35 34 35 34 40 33 31 33 31 29
3290.0 35 35 31 32 33 31 33 36 36 32
3330.0 33 34 33 29 33 35 36 27 32 36
3370.0 32 31 30 34 34 30 29 28 32 35
3410.0 34 30 29 24 29 33 36 32 29 36
3450.0 30 30 28 28 33 29 28 27 33 26
3490.0 28 25 32 20 23 31 39 29 32 27
3530.0 22 23 20 25 10 27 30 14 35 0
3570.0 20 39 25 33 8 27 16 21 28 18
3610.0 11 14 19 13 22 26 21 34 21 18
3650.0 11 20 41 9 42 4 32 13 36 25
3690.0 30 27 22 29 26 18 18 23 8 15
3730.0 26 34 22 45 3 44 14 27 25 22
3770.0 18 31 27 18 27 30 28 17 40 9
3810.0 49 13 38 24 27 29 25 14 33 34
3850.0 17 38 19 25 41 19 21 30 30 26
3890.0 37 32 38 22 40 37 27 26 35 34
3930.0 29 21 34 29 33 30 32 40 23 38
##END=
