##TITLE=Acetaldehyde, tribromo-
##JCAMP-DX=4.24
##DATA TYPE=INFRARED SPECTRUM
##ORIGIN=Sadtler Research Labs Under US-EPA Contract
##OWNER=NIST Standard Reference Data Program
##CAS REGISTRY NO=115-17-3
##MOLFORM=C 2 H Br 3 O
##XUNITS=1/CM
##YUNITS=ABSORBANCE
##XFACTOR=1.0
##YFACTOR=0.000066629
##DELTAX=4.0
##FIRSTX=450.0
##LASTX=3966.0
##FIRSTY=0.047307
##MAXX=3966
##MINX=450
##MAXY=0.66629
##MINY=0
##NPOINTS=880
##XYDATA=(X++(Y..Y))
450.0 710 615 712 548 685 630 767 540 666 567
490.0 564 632 616 634 504 631 529 642 532 687
530.0 718 1003 1269 1642 2090 2329 2483 1997 1515 1073
570.0 933 883 961 930 781 781 649 749 709 815
610.0 802 841 877 879 1007 1242 1881 2493 3092 3071
650.0 2543 1536 742 411 408 455 739 1346 964 405
690.0 310 322 332 351 378 390 460 476 459 390
730.0 313 271 231 248 215 275 263 371 352 425
770.0 535 835 1398 1920 2270 2066 1662 912 454 197
810.0 176 158 138 128 119 123 66 115 89 116
850.0 95 120 107 73 66 30 27 5 39 7
890.0 16 22 41 50 59 94 74 95 73 87
930.0 60 81 71 74 84 101 139 192 354 675
970.0 1184 1668 1977 2107 2092 2306 2601 2819 2615 2018
1010.0 1205 617 306 202 212 181 228 191 207 165
1050.0 138 81 53 47 20 40 26 47 14 48
1090.0 45 60 69 82 83 49 57 39 57 54
1130.0 80 81 105 149 168 189 172 164 114 92
1170.0 78 70 48 36 47 33 44 32 50 18
1210.0 41 37 29 31 26 22 4 18 12 20
1250.0 19 25 22 14 36 25 36 15 41 30
1290.0 42 30 33 30 19 38 27 47 27 40
1330.0 25 48 74 153 292 416 547 402 284 154
1370.0 56 54 42 41 32 40 34 43 25 34
1410.0 32 17 51 25 40 21 43 31 26 20
1450.0 29 30 59 47 13 35 29 38 5 41
1490.0 38 30 38 29 43 45 43 43 52 35
1530.0 48 43 45 65 61 56 52 64 33 33
1570.0 26 36 22 29 25 17 25 19 29 20
1610.0 33 32 36 44 43 39 31 45 19 33
1650.0 22 35 15 36 38 36 64 40 66 74
1690.0 87 84 115 125 136 149 191 240 277 308
1730.0 310 462 585 950 1534 3012 5581 7925 10000 8113
1770.0 5338 2489 729 396 245 237 168 148 145 118
1810.0 118 101 114 88 101 83 81 41 38 41
1850.0 19 24 16 31 14 32 17 16 13 21
1890.0 37 33 51 34 38 19 25 17 27 27
1930.0 22 27 33 59 58 62 54 55 49 59
1970.0 64 60 71 56 59 46 47 29 21 18
2010.0 19 27 25 42 37 39 42 52 42 45
2050.0 43 34 40 34 50 46 51 48 40 38
2090.0 26 21 6 11 7 12 7 16 15 10
2130.0 21 11 15 9 14 8 15 14 12 20
2170.0 16 18 5 13 9 15 11 9 14 9
2210.0 12 9 19 4 10 10 10 11 15 12
2250.0 8 20 11 17 8 23 20 27 29 25
2290.0 32 42 55 44 43 60 43 33 19 9
2330.0 10 8 4 2 36 41 3 4 4 12
2370.0 64 59 84 70 62 39 33 21 24 33
2410.0 33 38 31 37 33 32 35 32 34 31
2450.0 37 30 36 29 37 33 34 34 36 44
2490.0 37 41 36 40 36 39 30 35 33 31
2530.0 45 37 49 44 53 45 38 34 25 37
2570.0 35 39 38 51 44 42 41 40 42 35
2610.0 33 26 18 21 26 20 24 27 20 30
2650.0 17 30 27 37 42 62 95 139 168 149
2690.0 128 103 82 68 71 73 60 60 59 56
2730.0 61 63 65 68 80 88 90 95 94 90
2770.0 91 100 105 101 102 105 99 99 101 96
2810.0 118 120 138 161 197 262 463 865 1156 1605
2850.0 1257 884 536 249 206 161 149 126 109 124
2890.0 108 121 110 134 120 118 111 90 90 62
2930.0 63 52 66 65 65 64 65 66 61 74
2970.0 66 75 59 72 62 68 68 53 69 45
3010.0 62 52 63 54 59 66 58 68 43 54
3050.0 57 58 37 55 50 45 54 41 49 43
3090.0 49 50 47 53 45 51 48 71 57 49
3130.0 39 52 36 18 20 7 18 13 45 39
3170.0 47 44 22 27 33 25 30 26 19 23
3210.0 26 37 27 29 32 38 39 15 46 29
3250.0 22 32 50 45 27 43 52 66 45 40
3290.0 52 49 48 52 37 57 65 53 56 66
3330.0 50 62 80 56 52 60 59 44 62 65
3370.0 56 53 69 62 68 68 73 70 71 68
3410.0 61 54 63 63 66 79 58 67 67 94
3450.0 68 61 75 76 81 64 78 78 104 95
3490.0 136 206 251 306 287 191 155 78 46 63
3530.0 64 65 31 56 79 76 56 42 86 36
3570.0 71 53 45 64 46 59 44 62 31 41
3610.0 27 50 53 37 43 24 41 59 36 26
3650.0 38 42 33 41 34 39 42 17 61 27
3690.0 20 20 49 10 44 18 30 12 18 16
3730.0 7 13 52 33 65 5 41 66 16 50
3770.0 45 34 52 53 42 17 70 31 22 60
3810.0 15 54 31 44 38 18 33 13 8 16
3850.0 7 0 41 21 44 75 37 45 49 24
3890.0 32 53 39 30 5 61 49 15 4 78
3930.0 68 37 1 52 88 44 11 22 78 59
##END=
