##TITLE=Ethanol, 2,2,2-trichloro-
##JCAMP-DX=4.24
##DATA TYPE=INFRARED SPECTRUM
##ORIGIN=Sadtler Research Labs Under US-EPA Contract
##OWNER=NIST Standard Reference Data Program
##CAS REGISTRY NO=115-20-8
##MOLFORM=C 2 H 3 Cl 3 O
##XUNITS=1/CM
##YUNITS=ABSORBANCE
##XFACTOR=1.0
##YFACTOR=0.000042352
##DELTAX=4.0
##FIRSTX=450.0
##LASTX=3966.0
##FIRSTY=0.000000
##MAXX=3966
##MINX=450
##MAXY=0.42352
##MINY=0
##NPOINTS=880
##XYDATA=(X++(Y..Y))
450.0 0 390 527 445 479 475 388 568 172 512
490.0 323 335 372 502 436 277 331 297 439 278
530.0 512 296 637 481 661 1224 1845 2654 3189 4654
570.0 3968 2895 2757 1728 889 637 565 418 494 442
610.0 426 440 481 462 257 301 341 443 425 485
650.0 370 518 495 606 563 683 769 684 861 884
690.0 1035 1126 1484 1987 2831 4086 5634 7337 8689 10000
730.0 8724 7013 5186 2858 1343 874 716 633 674 660
770.0 706 666 826 767 1005 1312 1705 2513 3490 4929
810.0 6319 7693 8407 8548 7908 6629 5464 4466 3680 3319
850.0 3246 2828 2430 1851 1365 1019 746 599 498 472
890.0 407 415 362 409 400 400 401 376 403 383
930.0 406 362 423 412 458 477 535 560 565 589
970.0 573 614 666 858 1101 1733 2624 3477 4294 5100
1010.0 4686 4224 3865 2900 2406 2159 2010 1827 1597 1362
1050.0 1130 1028 907 961 944 1190 1560 2277 3521 5184
1090.0 6938 7735 9070 8229 6227 4654 2446 1094 755 654
1130.0 655 626 595 555 503 500 464 458 452 484
1170.0 486 467 472 484 547 615 841 1227 1858 2458
1210.0 2907 3387 3193 2749 2272 1606 1122 827 692 610
1250.0 573 554 566 597 636 657 693 693 663 606
1290.0 559 525 478 467 452 481 487 548 602 680
1330.0 793 927 1123 1268 1394 1505 1534 1417 1466 1530
1370.0 1792 2136 2290 2750 2518 2309 2016 1533 1236 961
1410.0 785 623 520 443 417 418 436 491 588 674
1450.0 763 902 815 675 619 481 401 338 324 307
1490.0 305 289 307 313 298 308 327 316 310 323
1530.0 318 303 269 281 285 307 284 281 265 301
1570.0 297 276 275 297 290 292 306 312 315 331
1610.0 361 370 395 413 464 475 484 470 458 418
1650.0 399 314 334 305 303 292 288 302 328 332
1690.0 377 421 442 455 441 472 472 410 365 349
1730.0 324 314 315 331 351 346 358 366 362 357
1770.0 323 329 317 314 311 305 300 292 298 285
1810.0 281 283 284 272 278 275 271 280 274 276
1850.0 282 279 273 289 284 286 287 282 288 284
1890.0 287 284 288 281 292 294 298 286 298 293
1930.0 291 304 295 299 287 294 288 296 303 295
1970.0 292 285 292 291 292 289 301 290 290 281
2010.0 283 278 266 255 238 232 229 219 215 224
2050.0 223 216 215 219 210 203 208 227 253 277
2090.0 291 311 316 326 323 327 317 317 313 310
2130.0 311 313 316 309 320 320 327 331 344 355
2170.0 380 401 421 419 428 413 379 352 331 305
2210.0 302 297 311 306 312 310 316 302 300 295
2250.0 287 291 291 287 277 287 285 282 276 276
2290.0 270 266 262 259 272 271 303 306 322 333
2330.0 318 336 305 343 231 235 275 264 240 184
2370.0 183 183 183 183 186 221 258 265 276 281
2410.0 283 282 287 286 278 283 284 281 276 271
2450.0 269 274 267 274 289 283 280 269 266 257
2490.0 262 253 241 250 241 236 242 243 247 246
2530.0 257 242 245 256 260 253 261 255 250 245
2570.0 236 237 235 242 243 243 237 248 248 264
2610.0 267 278 282 289 303 300 291 297 286 299
2650.0 307 321 325 334 317 296 261 244 224 227
2690.0 213 222 223 225 228 219 219 215 202 209
2730.0 211 212 212 209 202 215 203 210 211 194
2770.0 205 205 213 210 185 193 208 204 210 217
2810.0 216 217 223 233 237 240 247 240 243 256
2850.0 258 280 295 341 416 534 619 709 796 716
2890.0 630 538 457 407 379 395 464 612 864 1141
2930.0 1288 1723 1541 1339 1210 892 694 599 564 605
2970.0 612 691 762 802 808 791 591 528 414 315
3010.0 273 275 248 238 237 238 239 245 249 225
3050.0 232 238 222 237 221 229 211 247 238 238
3090.0 229 224 226 219 241 234 224 242 245 223
3130.0 220 222 210 219 219 208 203 227 200 226
3170.0 215 211 224 208 220 232 228 223 214 232
3210.0 206 221 212 237 234 241 227 236 240 261
3250.0 241 208 242 220 219 259 253 248 245 271
3290.0 229 191 195 230 229 218 210 200 218 241
3330.0 220 217 238 222 246 226 259 231 238 250
3370.0 265 268 278 235 229 258 257 229 265 272
3410.0 250 232 268 239 243 250 254 257 265 242
3450.0 244 231 193 261 262 245 261 250 267 268
3490.0 253 277 289 298 289 269 291 277 304 252
3530.0 257 270 258 265 243 246 238 276 244 282
3570.0 292 326 290 326 291 247 253 222 386 474
3610.0 570 937 1698 2323 2937 3805 3522 2912 2521 1654
3650.0 1008 553 467 375 337 310 293 265 283 304
3690.0 244 269 239 276 242 237 183 231 279 271
3730.0 306 213 199 238 197 183 209 232 266 243
3770.0 249 278 263 262 286 284 250 285 281 215
3810.0 233 247 233 232 234 255 251 239 256 232
3850.0 198 213 247 256 235 265 302 263 278 256
3890.0 305 423 294 242 201 308 348 416 424 484
3930.0 449 399 423 386 286 359 366 270 252 285
##END=
