##TITLE=Diphenyl methyl phosphate
##JCAMP-DX=4.24
##DATA TYPE=INFRARED SPECTRUM
##ORIGIN=Sadtler Research Labs Under US-EPA Contract
##OWNER=NIST Standard Reference Data Program
##CAS REGISTRY NO=115-89-9
##MOLFORM=C 13 H 13 O 4 P
##XUNITS=1/CM
##YUNITS=ABSORBANCE
##XFACTOR=1.0
##YFACTOR=0.000113474
##DELTAX=4.0
##FIRSTX=450.0
##LASTX=3966.0
##FIRSTY=0.014525
##MAXX=3966
##MINX=450
##MAXY=1.13474
##MINY=0
##NPOINTS=880
##XYDATA=(X++(Y..Y))
450.0 128 67 46 190 179 207 258 275 282 283
490.0 440 476 583 676 823 810 901 961 1051 1159
530.0 1136 1087 905 784 574 478 394 380 411 382
570.0 437 441 446 384 357 252 211 162 102 85
610.0 80 140 138 105 50 20 13 2 10 0
650.0 21 30 62 106 132 207 285 408 604 794
690.0 856 669 478 324 221 173 152 157 183 218
730.0 277 358 484 646 849 1086 1256 1408 1520 1596
770.0 1612 1456 1139 849 617 499 448 416 435 498
810.0 611 815 999 1163 1134 959 657 438 357 343
850.0 348 345 307 267 223 207 205 227 257 292
890.0 346 417 509 603 661 701 780 917 1147 1525
930.0 2177 3150 4622 6222 7966 9159 10000 9197 7325 5138
970.0 3396 2429 1931 1641 1376 1125 975 893 1051 1411
1010.0 1612 1344 1153 1617 2109 1991 1605 1407 1704 2252
1050.0 3034 3956 4825 5477 5321 4688 3718 2946 2294 1809
1090.0 1416 1153 993 885 810 736 694 651 610 574
1130.0 548 522 512 520 561 660 852 1300 1935 2321
1170.0 2187 1830 1816 2336 3527 5546 8116 9155 8005 5354
1210.0 3552 2821 2619 2601 2570 2492 2254 1909 1492 1126
1250.0 875 733 644 597 566 556 567 604 680 806
1290.0 1006 1278 1563 1807 1956 2098 2186 2243 2161 1959
1330.0 1651 1340 1067 785 545 374 267 201 167 136
1370.0 117 104 103 88 97 80 89 79 78 71
1410.0 66 59 65 66 61 76 93 112 152 197
1450.0 279 327 409 411 475 535 777 1104 1764 3263
1490.0 4509 5105 3594 2136 1263 670 500 358 314 241
1530.0 218 193 181 167 153 150 174 188 236 280
1570.0 413 559 844 1237 1528 1996 2122 2120 1531 1006
1610.0 605 363 239 154 116 81 76 58 52 54
1650.0 57 38 54 31 37 42 40 36 45 43
1690.0 42 47 48 69 57 69 77 96 77 77
1730.0 74 59 47 40 38 31 38 30 52 57
1770.0 86 98 95 86 64 50 45 38 36 30
1810.0 24 20 18 16 22 18 25 29 38 51
1850.0 57 70 80 87 95 108 105 107 101 97
1890.0 96 90 86 83 90 96 104 121 128 137
1930.0 141 143 135 131 121 115 104 89 68 60
1970.0 55 53 53 53 54 56 59 53 52 43
2010.0 43 35 32 26 22 18 15 15 12 12
2050.0 10 11 10 9 10 9 8 5 4 3
2090.0 5 2 4 5 5 4 6 8 4 6
2130.0 4 5 3 3 3 2 1 0 2 2
2170.0 4 4 4 2 2 2 3 3 2 4
2210.0 5 10 9 8 8 8 8 9 12 11
2250.0 15 16 17 18 16 17 14 12 11 8
2290.0 6 7 4 8 9 9 16 12 10 6
2330.0 0 4 14 7 3 11 2 9 0 2
2370.0 0 9 12 17 24 27 30 31 31 33
2410.0 35 36 37 38 35 33 32 31 27 26
2450.0 19 18 14 12 10 10 11 9 10 9
2490.0 10 10 9 12 12 11 10 12 13 15
2530.0 10 11 14 13 14 15 17 17 19 20
2570.0 20 17 13 11 9 7 9 8 9 12
2610.0 14 16 14 12 10 9 10 6 6 6
2650.0 8 6 6 5 6 2 4 2 2 3
2690.0 2 6 6 6 4 4 5 5 5 4
2730.0 5 7 5 5 6 4 3 4 4 3
2770.0 5 6 7 9 8 13 11 10 11 13
2810.0 13 16 19 23 26 28 35 40 49 59
2850.0 75 108 166 239 278 256 187 120 90 74
2890.0 72 70 72 78 78 89 99 102 107 115
2930.0 117 121 128 141 156 194 271 410 586 681
2970.0 626 462 303 219 183 179 186 189 199 205
3010.0 211 218 231 254 282 310 343 381 433 513
3050.0 573 582 545 512 525 576 668 812 879 789
3090.0 580 404 327 299 268 221 172 131 96 78
3130.0 63 51 43 37 32 32 28 25 22 21
3170.0 19 19 21 19 20 21 19 17 17 18
3210.0 15 14 18 16 18 17 15 15 15 15
3250.0 12 13 11 12 13 11 11 12 11 12
3290.0 12 13 11 13 9 15 12 10 12 10
3330.0 10 15 12 14 12 14 10 14 11 11
3370.0 14 12 14 10 9 11 17 13 10 8
3410.0 13 13 14 13 10 10 11 15 10 8
3450.0 12 18 12 11 13 14 16 14 12 11
3490.0 12 13 8 9 9 16 12 14 19 9
3530.0 12 12 17 13 6 11 14 7 17 1
3570.0 12 20 15 21 9 21 9 14 16 15
3610.0 12 18 17 4 20 28 19 34 31 43
3650.0 26 35 49 26 50 13 44 5 33 22
3690.0 22 23 29 28 24 17 25 32 21 26
3730.0 25 23 15 31 10 41 4 29 28 19
3770.0 20 30 33 23 26 27 33 20 30 12
3810.0 40 13 29 20 26 24 23 24 25 22
3850.0 21 16 24 28 25 18 16 21 22 25
3890.0 28 16 31 13 21 20 26 30 33 20
3930.0 26 23 26 20 17 19 21 30 29 34
##END=
