##TITLE=3,5-Pyridinedicarboxylic acid, 2,4,6-trimethyl-, diethyl ester
##JCAMP-DX=4.24
##DATA TYPE=INFRARED SPECTRUM
##ORIGIN=Sadtler Research Labs Under US-EPA Contract
##OWNER=NIST Standard Reference Data Program
##CAS REGISTRY NO=1150-55-6
##MOLFORM=C 14 H 19 N O 4
##XUNITS=1/CM
##YUNITS=ABSORBANCE
##XFACTOR=1.0
##YFACTOR=0.000060449
##DELTAX=4.0
##FIRSTX=450.0
##LASTX=3966.0
##FIRSTY=0.004896
##MAXX=3966
##MINX=450
##MAXY=0.60449
##MINY=0
##NPOINTS=880
##XYDATA=(X++(Y..Y))
450.0 81 122 60 44 82 28 57 80 88 40
490.0 77 53 56 100 156 40 38 77 99 84
530.0 159 118 63 18 84 50 58 102 61 31
570.0 98 87 30 65 62 19 4 107 39 38
610.0 87 93 32 99 81 60 66 201 113 197
650.0 163 213 116 165 149 45 97 188 73 111
690.0 120 168 86 145 61 99 84 164 63 119
730.0 152 139 86 164 171 198 215 283 222 309
770.0 293 305 280 298 299 296 241 282 231 240
810.0 204 238 207 213 232 256 256 331 319 303
850.0 363 457 400 408 360 282 248 238 165 140
890.0 130 124 121 120 141 116 118 154 146 176
930.0 219 234 179 187 192 140 169 165 167 181
970.0 209 228 222 288 304 322 412 439 512 541
1010.0 656 713 842 1043 1274 1746 2581 3708 4785 4688
1050.0 3771 2675 1984 1572 1369 1234 1258 1327 1493 1809
1090.0 2341 3076 3970 4649 4558 3665 2746 1899 1452 1149
1130.0 1011 886 819 757 755 757 744 761 804 796
1170.0 921 1038 1179 1395 1752 2290 3301 4649 6480 8559
1210.0 10000 9599 8421 7477 7809 7395 6509 5034 3608 2638
1250.0 2125 1787 1718 1877 2262 2749 3110 3064 2535 1951
1290.0 1556 1280 1145 1080 995 856 728 635 518 470
1330.0 438 413 383 390 398 401 440 507 593 751
1370.0 904 1047 1125 1139 1067 940 872 837 828 845
1410.0 873 876 818 796 809 818 884 943 1034 1091
1450.0 1130 1119 1007 1014 1013 997 893 848 765 686
1490.0 619 598 554 586 596 594 639 689 719 778
1530.0 889 965 1024 1133 1354 1549 1776 2000 2172 2329
1570.0 2379 2294 1915 1532 1093 754 545 457 357 305
1610.0 284 247 184 213 225 179 198 167 186 160
1650.0 181 116 185 200 216 205 241 272 290 283
1690.0 381 458 507 610 740 862 1013 1215 1507 1935
1730.0 2732 4191 6542 9007 9535 7487 4809 2957 1878 1330
1770.0 975 743 594 493 419 358 283 283 229 197
1810.0 181 160 132 135 114 105 97 105 99 74
1850.0 94 100 88 88 96 79 84 110 91 92
1890.0 91 101 82 98 102 89 78 86 71 70
1930.0 72 76 61 71 74 72 74 96 76 78
1970.0 78 84 68 76 72 56 56 64 62 60
2010.0 65 60 51 59 67 50 59 67 62 54
2050.0 62 66 66 62 67 66 73 66 73 58
2090.0 64 64 63 54 70 56 61 62 66 46
2130.0 64 63 55 48 68 46 46 45 52 33
2170.0 47 44 30 29 54 29 36 38 41 24
2210.0 51 40 39 40 53 36 44 43 51 35
2250.0 51 43 41 40 60 40 46 47 52 41
2290.0 57 50 57 59 75 55 72 75 69 42
2330.0 82 59 54 36 72 88 88 81 95 69
2370.0 64 66 50 55 65 57 53 61 62 54
2410.0 54 60 45 47 48 51 30 48 38 36
2450.0 35 52 35 43 43 42 27 45 34 35
2490.0 24 45 17 34 34 34 18 41 25 24
2530.0 18 41 10 31 24 25 9 40 15 23
2570.0 15 33 6 32 31 32 12 43 23 26
2610.0 27 39 14 29 23 28 12 34 18 27
2650.0 6 30 15 25 22 30 14 30 29 21
2690.0 23 37 17 26 29 35 21 29 40 39
2730.0 39 56 47 47 56 54 42 55 60 47
2770.0 52 74 57 48 73 63 58 73 84 62
2810.0 77 90 95 88 120 106 114 130 147 131
2850.0 166 187 208 213 269 271 303 344 403 414
2890.0 447 422 440 443 531 553 593 613 630 648
2930.0 805 983 1203 1343 1403 1218 1037 915 949 997
2970.0 1120 1211 1373 1668 2009 1937 1613 1289 1104 921
3010.0 817 693 596 481 436 367 326 283 279 236
3050.0 230 225 200 168 193 173 155 150 156 120
3090.0 115 127 104 88 105 96 73 88 89 65
3130.0 72 83 63 58 75 68 42 65 66 49
3170.0 41 67 47 34 60 45 31 55 43 45
3210.0 35 57 27 35 36 34 14 37 35 29
3250.0 19 44 12 32 28 36 11 40 23 31
3290.0 19 42 15 28 26 48 7 31 32 29
3330.0 13 46 31 21 34 36 17 36 30 36
3370.0 12 46 24 15 38 40 19 30 41 28
3410.0 22 47 40 20 40 56 24 49 55 41
3450.0 56 84 72 69 113 111 74 80 74 43
3490.0 42 66 31 25 47 53 23 48 46 24
3530.0 30 58 36 27 35 41 28 43 45 30
3570.0 27 42 38 25 39 30 19 35 52 32
3610.0 15 34 36 18 46 25 30 36 43 31
3650.0 4 37 21 30 35 35 18 14 53 42
3690.0 9 41 45 31 38 45 17 45 57 33
3730.0 23 31 28 27 10 35 14 32 48 46
3770.0 25 58 39 37 49 52 34 48 45 44
3810.0 47 73 41 22 53 47 30 21 39 31
3850.0 35 18 42 26 42 50 42 52 57 37
3890.0 36 37 44 21 38 52 37 34 52 35
3930.0 35 39 51 28 48 57 0 4 4 4
##END=
