##TITLE=Ethene, tetrafluoro-
##JCAMP-DX=4.24
##DATA TYPE=INFRARED SPECTRUM
##ORIGIN=Sadtler Research Labs Under US-EPA Contract
##OWNER=NIST Standard Reference Data Program
##CAS REGISTRY NO=116-14-3
##MOLFORM=C 2 F 4
##XUNITS=1/CM
##YUNITS=ABSORBANCE
##XFACTOR=1.0
##YFACTOR=0.000035919
##DELTAX=4.0
##FIRSTX=450.0
##LASTX=3966.0
##FIRSTY=0.019217
##MAXX=3966
##MINX=450
##MAXY=0.35919
##MINY=0
##NPOINTS=880
##XYDATA=(X++(Y..Y))
450.0 535 343 202 249 132 168 106 82 175 110
490.0 218 133 89 66 201 135 159 113 118 123
530.0 129 161 138 224 264 173 225 255 202 321
570.0 221 132 158 106 146 118 162 145 134 118
610.0 120 129 152 137 87 128 144 148 101 151
650.0 82 137 95 144 172 109 146 96 159 134
690.0 146 55 97 119 127 141 93 159 102 170
730.0 104 149 119 95 119 109 98 92 135 103
770.0 149 129 134 134 141 111 112 118 93 128
810.0 96 167 117 117 92 143 96 85 120 113
850.0 103 87 122 113 126 105 132 120 101 108
890.0 110 140 129 192 154 192 172 156 169 171
930.0 171 132 143 123 149 157 244 275 283 235
970.0 163 144 106 134 115 126 98 128 105 100
1010.0 111 113 126 80 135 90 119 94 106 91
1050.0 93 128 86 118 101 130 92 124 97 120
1090.0 100 123 124 95 157 124 180 134 222 178
1130.0 219 214 248 249 218 375 395 786 1339 2863
1170.0 4810 7404 8514 8681 10000 7804 8879 9231 3860 1149
1210.0 273 272 184 174 238 191 248 193 252 143
1250.0 170 134 149 124 141 177 143 214 228 301
1290.0 300 428 586 928 1505 2453 3881 5686 7803 9130
1330.0 9206 8083 8444 9564 7997 5159 2937 1570 841 415
1370.0 224 153 134 116 114 104 92 106 113 109
1410.0 101 118 95 97 116 112 100 77 85 108
1450.0 105 102 83 101 106 97 87 80 99 85
1490.0 100 98 99 102 93 108 103 117 103 121
1530.0 106 125 123 132 128 127 120 109 95 97
1570.0 95 96 108 81 96 80 90 83 95 94
1610.0 88 100 92 105 85 100 85 97 91 106
1650.0 87 86 96 96 97 91 85 101 94 100
1690.0 98 106 89 103 102 126 126 146 142 156
1730.0 149 130 146 154 130 109 97 93 89 82
1770.0 79 83 92 85 70 86 78 85 75 82
1810.0 78 87 76 79 82 80 83 87 86 78
1850.0 90 83 83 95 103 112 100 109 106 110
1890.0 104 105 89 79 75 82 74 75 82 74
1930.0 83 88 91 97 111 109 105 104 114 112
1970.0 97 98 85 77 74 83 87 79 81 74
2010.0 83 73 85 71 72 69 67 69 75 75
2050.0 68 78 68 77 74 81 87 81 87 90
2090.0 105 105 111 106 108 100 100 99 96 85
2130.0 81 72 73 86 85 87 85 90 80 74
2170.0 73 74 70 61 67 67 59 69 71 64
2210.0 63 70 68 73 63 77 75 86 74 80
2250.0 81 79 89 86 86 95 103 93 87 100
2290.0 105 119 121 125 140 159 134 130 132 119
2330.0 97 94 89 51 146 101 130 77 88 86
2370.0 103 97 91 92 79 58 66 73 74 86
2410.0 70 76 69 74 77 72 77 73 67 63
2450.0 62 69 68 63 71 63 75 76 75 78
2490.0 76 72 75 94 90 88 92 94 98 95
2530.0 94 89 88 76 79 69 68 71 64 64
2570.0 64 62 58 69 63 64 57 54 51 54
2610.0 64 50 57 56 54 53 63 65 68 75
2650.0 68 70 79 88 87 86 85 76 73 62
2690.0 68 66 62 64 68 66 68 68 65 69
2730.0 74 66 63 68 72 73 59 73 66 70
2770.0 73 70 64 70 74 63 64 66 62 65
2810.0 59 69 62 63 64 62 63 78 59 72
2850.0 68 76 64 68 71 62 66 64 64 62
2890.0 62 58 53 58 69 72 61 58 64 64
2930.0 59 63 59 44 40 42 19 37 50 0
2970.0 18 47 55 49 50 64 68 87 80 73
3010.0 72 73 82 88 92 87 93 101 98 101
3050.0 106 104 99 115 91 76 75 80 77 68
3090.0 66 78 74 77 90 77 73 80 61 74
3130.0 88 83 73 69 89 80 79 86 91 81
3170.0 77 102 92 103 106 95 100 105 105 112
3210.0 99 95 85 78 81 82 78 89 79 70
3250.0 81 79 72 82 83 88 83 83 76 69
3290.0 64 68 82 81 80 77 73 74 72 75
3330.0 83 90 77 76 66 76 79 73 66 72
3370.0 79 64 75 86 93 71 74 76 81 78
3410.0 90 75 74 104 103 102 83 80 68 85
3450.0 88 78 79 95 97 101 89 81 83 78
3490.0 76 96 79 68 81 62 71 108 85 112
3530.0 89 78 102 115 51 70 101 99 105 97
3570.0 100 92 102 99 70 95 106 95 92 77
3610.0 91 106 94 102 86 65 72 108 104 106
3650.0 118 118 133 95 109 98 94 86 88 109
3690.0 90 105 104 103 102 132 122 92 114 94
3730.0 76 69 104 116 79 114 86 105 123 102
3770.0 150 111 122 102 121 95 91 109 92 80
3810.0 99 128 114 106 113 128 121 118 125 96
3850.0 92 108 125 140 133 135 91 77 121 122
3890.0 135 78 72 85 133 138 101 123 72 120
3930.0 86 114 72 105 93 97 109 143 90 65
##END=
