##TITLE=Acetic acid, dichloro-, methyl ester
##JCAMP-DX=4.24
##DATA TYPE=INFRARED SPECTRUM
##ORIGIN=Sadtler Research Labs Under US-EPA Contract
##OWNER=NIST Standard Reference Data Program
##CAS REGISTRY NO=116-54-1
##MOLFORM=C 3 H 4 Cl 2 O 2
##XUNITS=1/CM
##YUNITS=ABSORBANCE
##XFACTOR=1.0
##YFACTOR=0.000068848
##DELTAX=4.0
##FIRSTX=450.0
##LASTX=3966.0
##FIRSTY=0.000000
##MAXX=3966
##MINX=450
##MAXY=0.68848
##MINY=0
##NPOINTS=880
##XYDATA=(X++(Y..Y))
450.0 0 115 104 114 182 238 341 349 362 260
490.0 217 180 166 134 141 267 389 620 542 418
530.0 258 265 201 299 227 304 320 472 436 450
570.0 421 439 469 401 306 388 457 585 665 620
610.0 527 504 722 636 879 808 981 1011 996 884
650.0 860 883 940 1058 1136 1449 1866 2142 2356 2235
690.0 2079 1876 1849 1890 1975 2303 2428 2691 2465 2304
730.0 1874 1746 1608 1543 1309 1434 1572 1704 1824 1769
770.0 1590 1446 1343 1198 1160 1172 1221 1353 1723 2172
810.0 2874 3425 3911 3844 3728 3196 2750 2093 1553 1205
850.0 955 776 685 605 498 499 550 597 697 661
890.0 648 700 658 607 504 464 386 447 454 448
930.0 432 395 351 321 326 295 331 369 366 382
970.0 396 433 523 622 800 1053 1476 1990 2568 2895
1010.0 3383 3497 3560 3509 3348 2867 2294 1600 1054 793
1050.0 628 564 550 505 483 484 492 535 532 520
1090.0 554 611 633 707 759 854 908 970 988 1012
1130.0 1035 1104 1331 1841 2635 3920 5706 6980 7979 8145
1170.0 6945 5058 3680 2993 2728 2601 2637 2693 2861 2863
1210.0 2818 2638 2619 2657 2668 2557 2438 2735 2936 2887
1250.0 2853 3035 3492 4293 5262 6318 7124 8168 8461 8763
1290.0 8385 8257 8138 8109 7328 6119 4556 2982 1803 1249
1330.0 1035 925 880 844 836 740 723 677 632 594
1370.0 554 490 492 495 510 474 441 419 441 444
1410.0 462 472 462 510 624 903 1342 1785 2193 2290
1450.0 2077 1500 960 865 788 745 632 619 590 577
1490.0 482 492 418 427 374 363 371 367 364 387
1530.0 409 343 348 268 370 368 344 266 301 383
1570.0 384 369 347 362 352 309 288 293 338 347
1610.0 350 350 286 324 292 297 243 223 246 244
1650.0 249 171 275 271 256 204 196 200 236 229
1690.0 277 285 239 234 316 351 373 376 543 639
1730.0 733 759 946 1179 1682 2517 3834 5321 6867 8886
1770.0 10000 8599 7969 7467 6870 6574 6618 5943 4810 3916
1810.0 2867 1946 1304 965 706 549 435 388 338 306
1850.0 316 286 263 242 268 248 266 249 264 270
1890.0 272 276 282 279 287 258 243 205 214 213
1930.0 248 240 232 218 205 213 197 190 177 194
1970.0 194 206 221 227 229 226 196 190 189 210
2010.0 217 238 223 243 243 258 254 256 252 249
2050.0 262 253 258 249 247 232 216 195 186 202
2090.0 215 224 224 215 223 221 226 213 208 197
2130.0 202 195 195 216 217 236 223 222 196 214
2170.0 213 213 204 202 202 209 200 193 184 177
2210.0 163 166 143 149 153 154 149 119 111 104
2250.0 134 125 145 130 139 140 140 127 126 125
2290.0 125 133 126 124 149 153 151 129 104 116
2330.0 135 177 158 210 162 183 161 160 125 162
2370.0 140 152 176 161 179 195 186 177 155 142
2410.0 147 164 164 170 176 175 194 171 175 165
2450.0 184 170 178 163 171 187 186 179 152 143
2490.0 139 159 160 158 169 178 178 185 177 172
2530.0 163 167 149 157 145 175 177 179 173 164
2570.0 165 165 178 159 162 164 169 161 166 148
2610.0 161 165 165 150 167 158 190 178 171 144
2650.0 155 147 159 165 151 181 166 173 160 159
2690.0 147 165 154 152 146 158 168 181 162 146
2730.0 132 141 145 162 156 169 183 174 166 148
2770.0 147 138 155 132 146 155 191 203 202 179
2810.0 164 167 162 166 178 175 217 239 277 349
2850.0 418 468 494 486 396 347 285 301 282 277
2890.0 254 290 306 342 376 401 429 445 428 410
2930.0 401 388 385 404 425 558 917 1480 1941 2110
2970.0 2051 1829 1374 812 572 504 530 581 639 697
3010.0 741 781 779 739 685 652 646 659 647 620
3050.0 522 463 404 377 309 322 294 300 286 271
3090.0 262 262 273 251 260 230 242 260 271 245
3130.0 217 188 187 182 183 176 218 208 231 188
3170.0 188 171 182 153 149 135 141 189 200 221
3210.0 203 198 174 173 154 152 161 184 180 188
3250.0 159 167 164 183 143 147 126 170 192 200
3290.0 211 176 182 157 159 125 139 164 190 170
3330.0 184 176 198 202 196 140 148 138 173 170
3370.0 177 177 176 183 169 180 158 211 195 201
3410.0 169 174 154 179 186 163 143 173 182 215
3450.0 199 194 183 192 166 168 161 181 222 193
3490.0 200 173 207 209 257 229 247 260 280 295
3530.0 272 239 228 215 195 177 210 242 294 328
3570.0 338 389 385 401 355 319 240 202 174 187
3610.0 179 192 184 188 192 122 160 156 171 180
3650.0 146 160 159 189 188 148 140 102 152 152
3690.0 160 170 196 183 190 145 118 132 127 135
3730.0 125 115 112 145 121 146 132 134 127 141
3770.0 125 142 133 146 141 139 120 133 125 147
3810.0 154 142 119 119 143 134 123 104 104 122
3850.0 127 115 146 155 155 141 128 125 133 137
3890.0 173 159 153 130 140 151 137 129 121 150
3930.0 165 201 217 228 218 192 99 104 104 104
##END=
