##TITLE=2-Propanone, 1,1,1,3,3,3-hexachloro-
##JCAMP-DX=4.24
##DATA TYPE=INFRARED SPECTRUM
##ORIGIN=Sadtler Research Labs Under US-EPA Contract
##OWNER=NIST Standard Reference Data Program
##CAS REGISTRY NO=116-16-5
##MOLFORM=C 3 Cl 6 O
##XUNITS=1/CM
##YUNITS=ABSORBANCE
##XFACTOR=1.0
##YFACTOR=0.000058234
##DELTAX=4.0
##FIRSTX=450.0
##LASTX=3966.0
##FIRSTY=0.052119
##MAXX=3966
##MINX=450
##MAXY=0.58234
##MINY=0
##NPOINTS=880
##XYDATA=(X++(Y..Y))
450.0 895 513 269 396 702 437 469 364 398 231
490.0 193 199 127 160 135 177 75 133 102 165
530.0 125 116 84 62 135 83 138 36 154 85
570.0 66 168 138 189 103 149 121 178 206 267
610.0 302 327 535 586 828 893 1217 1650 2437 3475
650.0 4422 5617 7286 8170 7820 4795 2907 1605 1104 804
690.0 459 505 314 377 216 315 221 240 223 237
730.0 232 189 250 182 233 179 244 217 244 284
770.0 280 307 318 354 353 436 440 452 452 519
810.0 585 721 1055 1597 2396 3310 4500 6179 8324 10000
850.0 9929 7810 5204 3135 2003 1556 1562 1844 2302 2837
890.0 3185 3220 2763 2000 1311 838 621 497 445 394
930.0 373 361 350 350 307 289 239 224 193 195
970.0 183 179 174 163 178 182 193 190 203 204
1010.0 211 203 201 200 198 208 198 213 224 239
1050.0 247 280 307 336 366 383 428 479 585 767
1090.0 1012 1278 1401 1289 934 553 354 318 297 279
1130.0 262 230 222 202 187 174 174 174 181 181
1170.0 195 201 207 199 194 196 201 212 211 224
1210.0 230 251 255 228 233 223 224 213 197 184
1250.0 179 165 153 151 140 144 144 147 148 156
1290.0 149 147 150 151 154 161 163 166 174 165
1330.0 172 170 173 159 165 172 159 172 170 168
1370.0 179 160 163 159 165 125 155 119 150 126
1410.0 158 119 161 117 164 124 169 103 150 131
1450.0 125 133 76 132 121 95 133 96 118 134
1490.0 129 111 134 151 109 115 152 109 136 122
1530.0 164 97 157 89 121 117 144 97 89 111
1570.0 128 80 133 112 118 112 142 103 135 135
1610.0 133 105 146 96 163 92 168 79 141 95
1650.0 151 23 163 95 99 139 85 130 129 100
1690.0 133 162 107 169 194 220 233 274 284 330
1730.0 403 412 507 591 638 696 767 791 829 874
1770.0 986 1231 1557 1876 2041 1856 1407 915 546 334
1810.0 231 180 163 146 139 123 127 134 111 129
1850.0 108 114 97 97 88 94 82 93 92 90
1890.0 94 93 105 105 112 121 110 129 118 128
1930.0 129 131 126 122 116 116 117 109 105 106
1970.0 95 88 84 85 82 83 88 84 95 88
2010.0 92 93 102 100 100 100 96 90 91 94
2050.0 93 90 92 87 90 85 86 88 88 86
2090.0 88 86 85 86 94 93 96 93 91 97
2130.0 89 95 86 87 85 81 78 79 82 78
2170.0 76 70 74 72 75 76 76 74 79 81
2210.0 86 87 86 85 81 83 89 85 81 80
2250.0 76 80 77 75 74 71 71 66 75 66
2290.0 60 51 54 48 45 38 45 49 36 47
2330.0 30 29 49 26 24 75 21 27 22 22
2370.0 21 53 50 66 74 78 78 80 83 79
2410.0 83 86 89 85 90 85 85 88 87 86
2450.0 83 86 89 80 81 79 82 81 78 83
2490.0 80 85 86 87 88 87 90 96 92 94
2530.0 94 99 88 93 86 92 92 87 83 86
2570.0 90 78 82 83 86 83 85 88 83 87
2610.0 89 89 97 103 102 105 103 102 101 102
2650.0 97 102 96 95 100 99 97 94 95 102
2690.0 100 100 102 101 103 100 100 100 95 90
2730.0 90 89 90 93 87 90 91 88 86 84
2770.0 82 90 94 101 105 111 115 112 118 114
2810.0 114 118 124 125 127 128 126 126 125 131
2850.0 121 125 129 128 126 133 135 136 136 150
2890.0 141 136 128 124 119 120 123 123 123 123
2930.0 120 125 124 125 131 126 124 117 122 125
2970.0 126 127 121 128 117 117 127 128 121 128
3010.0 127 131 125 122 132 134 130 124 122 125
3050.0 124 125 127 128 122 121 113 118 123 123
3090.0 128 124 132 128 120 129 121 127 126 125
3130.0 125 128 125 128 121 126 120 123 123 121
3170.0 120 122 129 129 128 118 122 120 125 129
3210.0 131 119 125 125 133 126 123 116 133 123
3250.0 131 122 120 122 133 123 122 109 124 128
3290.0 128 127 129 126 136 131 129 135 128 132
3330.0 144 131 139 140 132 142 136 135 136 130
3370.0 133 128 125 142 141 130 127 140 132 138
3410.0 141 141 153 132 141 147 152 148 146 134
3450.0 128 145 141 136 141 135 154 149 148 144
3490.0 150 160 153 174 154 163 190 182 194 166
3530.0 174 172 170 153 141 141 149 121 156 129
3570.0 122 139 125 167 106 133 136 125 152 121
3610.0 128 120 143 119 120 174 85 185 105 146
3650.0 132 72 190 84 189 78 164 100 119 159
3690.0 74 139 118 151 146 120 125 138 93 147
3730.0 106 160 64 195 0 208 66 101 126 106
3770.0 126 114 149 87 121 114 140 58 206 46
3810.0 205 78 143 130 124 163 128 95 127 120
3850.0 68 158 94 106 148 122 118 121 143 56
3890.0 209 65 191 96 159 105 168 120 136 122
3930.0 115 161 156 148 113 153 102 147 117 151
##END=
