##TITLE=Benzene, 1,2,4,5-tetrachloro-3-nitro-
##JCAMP-DX=4.24
##DATA TYPE=INFRARED SPECTRUM
##ORIGIN=Sadtler Research Labs Under US-EPA Contract
##OWNER=NIST Standard Reference Data Program
##CAS REGISTRY NO=117-18-0
##MOLFORM=C 6 H Cl 4 N O 2
##XUNITS=1/CM
##YUNITS=ABSORBANCE
##XFACTOR=1.0
##YFACTOR=0.000157486
##DELTAX=4.0
##FIRSTX=450.0
##LASTX=3966.0
##FIRSTY=0.058270
##MAXX=3966
##MINX=450
##MAXY=1.57486
##MINY=0
##NPOINTS=880
##XYDATA=(X++(Y..Y))
450.0 370 342 209 93 190 24 34 99 101 169
490.0 80 111 12 67 122 180 164 193 150 146
530.0 196 180 374 549 754 711 602 381 239 155
570.0 136 118 74 88 97 80 91 131 139 238
610.0 335 408 526 795 1282 1745 1828 1501 902 470
650.0 274 219 179 248 149 311 193 266 287 339
690.0 313 202 163 89 118 113 98 122 179 210
730.0 349 878 1837 2621 2233 1246 408 171 147 138
770.0 284 518 1035 1460 1466 1005 468 232 206 243
810.0 324 344 327 236 151 140 95 106 117 104
850.0 115 116 157 216 334 668 829 808 418 254
890.0 127 102 102 91 90 83 83 73 87 91
930.0 122 128 133 119 107 120 107 105 79 57
970.0 68 62 66 60 64 70 77 86 97 111
1010.0 139 157 205 228 230 249 225 190 170 145
1050.0 128 114 112 117 119 152 173 222 318 478
1090.0 689 858 1078 1443 1756 1765 1279 639 288 185
1130.0 161 155 148 142 136 170 252 454 871 1529
1170.0 2014 1892 1267 639 395 340 289 339 501 658
1210.0 688 538 362 252 233 350 485 570 507 301
1250.0 161 110 119 146 152 146 122 117 120 137
1290.0 209 286 399 503 543 582 658 916 1470 2391
1330.0 3468 4039 3812 2914 2095 1696 1497 1445 1443 1453
1370.0 1367 1111 759 463 352 347 435 568 876 1482
1410.0 2501 3680 4370 4227 3446 2686 2314 1891 1356 861
1450.0 431 313 218 204 126 195 234 227 217 217
1490.0 327 381 494 582 641 809 624 613 503 372
1530.0 343 349 427 556 698 1070 1874 3370 6274 7764
1570.0 10000 8408 5318 3374 1815 899 460 209 146 143
1610.0 158 259 396 504 523 485 366 345 261 178
1650.0 232 122 151 8 94 66 89 52 97 114
1690.0 86 89 176 228 154 126 73 103 54 3
1730.0 97 80 161 136 152 167 95 80 67 64
1770.0 82 109 76 80 75 81 69 83 51 65
1810.0 60 47 66 48 66 78 44 67 40 100
1850.0 46 51 57 30 69 51 56 43 46 50
1890.0 53 49 54 49 51 59 51 67 50 49
1930.0 46 48 48 47 59 56 53 67 51 70
1970.0 56 60 59 51 54 49 54 49 45 49
2010.0 46 45 49 46 49 46 48 46 47 47
2050.0 48 46 47 47 49 49 45 47 42 43
2090.0 46 43 46 45 43 45 46 47 45 43
2130.0 41 36 43 38 40 42 41 43 43 43
2170.0 42 42 43 40 39 36 36 39 34 37
2210.0 38 37 39 38 35 37 33 34 34 32
2250.0 33 28 33 30 35 34 34 42 46 56
2290.0 71 75 98 107 115 132 111 105 93 87
2330.0 67 40 94 0 153 23 122 19 77 42
2370.0 45 57 61 63 42 29 16 15 16 13
2410.0 17 19 15 19 15 16 15 16 21 17
2450.0 21 24 27 35 32 31 25 22 21 12
2490.0 14 11 8 12 8 10 8 8 13 8
2530.0 10 10 10 13 13 14 16 17 21 20
2570.0 24 24 26 30 30 27 27 30 31 29
2610.0 28 29 31 31 30 35 32 31 38 38
2650.0 42 40 44 52 56 63 64 70 69 71
2690.0 80 80 80 88 83 83 82 79 85 87
2730.0 85 88 82 81 75 80 81 81 85 86
2770.0 87 87 80 77 69 68 66 64 67 65
2810.0 62 63 62 68 67 69 71 69 74 72
2850.0 75 78 76 82 84 89 97 104 118 134
2890.0 152 168 175 170 158 146 142 141 145 151
2930.0 153 150 137 125 111 99 90 86 88 91
2970.0 91 91 82 82 74 72 70 65 66 63
3010.0 59 61 53 58 51 57 52 50 51 51
3050.0 52 57 47 52 50 59 66 75 102 126
3090.0 130 117 82 61 48 49 52 52 53 57
3130.0 54 54 50 50 47 46 46 41 42 45
3170.0 45 49 48 47 48 51 53 48 53 46
3210.0 48 52 53 52 49 46 50 52 50 50
3250.0 51 56 51 56 50 51 56 50 56 51
3290.0 49 49 50 52 51 51 49 56 52 53
3330.0 50 52 56 57 58 52 54 57 63 64
3370.0 61 61 66 63 68 62 60 59 65 65
3410.0 61 66 64 64 67 57 64 58 59 64
3450.0 58 61 52 53 52 54 60 50 52 47
3490.0 45 52 51 43 56 37 59 36 48 49
3530.0 47 39 50 46 47 44 64 34 63 48
3570.0 80 43 70 24 83 36 81 26 68 41
3610.0 69 72 44 89 28 123 61 80 44 122
3650.0 41 165 16 98 44 64 126 58 108 22
3690.0 117 51 66 61 60 80 100 37 108 43
3730.0 94 117 61 173 34 226 13 132 33 83
3770.0 77 49 82 74 69 78 32 117 40 146
3810.0 23 138 46 131 67 71 84 115 73 95
3850.0 41 143 86 60 94 84 74 73 86 101
3890.0 106 44 94 70 100 90 65 112 65 121
3930.0 64 113 91 82 133 69 99 82 100 125
##END=
