##TITLE=Bis(2-methoxyethyl) phthalate
##JCAMP-DX=4.24
##DATA TYPE=INFRARED SPECTRUM
##ORIGIN=Sadtler Research Labs Under US-EPA Contract
##OWNER=NIST Standard Reference Data Program
##CAS REGISTRY NO=117-82-8
##MOLFORM=C 14 H 18 O 6
##SOURCE REFERENCE=No.290110 (NIST/EPA/NIH MS Database)
##XUNITS=1/CM
##YUNITS=ABSORBANCE
##XFACTOR=1.0
##YFACTOR=0.000083749
##DELTAX=4.0
##FIRSTX=450.0
##LASTX=3966.0
##FIRSTY=0.007035
##MAXX=3966
##MINX=450
##MAXY=0.83749
##MINY=0
##NPOINTS=880
##XYDATA=(X++(Y..Y))
450.0 84 98 62 112 199 18 212 103 137 75
490.0 189 188 163 182 180 182 183 234 153 183
530.0 150 185 147 141 143 118 126 104 181 135
570.0 161 111 109 57 59 18 19 36 20 23
610.0 16 22 11 8 10 21 9 13 49 83
650.0 140 140 107 50 33 69 49 72 100 150
690.0 216 345 453 492 469 424 408 416 471 534
730.0 657 836 1036 1201 1172 1017 780 625 505 434
770.0 404 396 383 399 410 337 277 225 191 222
810.0 221 200 222 235 260 278 316 364 390 444
850.0 476 516 524 537 519 477 427 404 392 382
890.0 387 363 332 286 263 247 240 249 253 271
930.0 285 315 327 339 355 380 392 383 369 348
970.0 366 398 454 485 513 496 465 438 424 442
1010.0 473 531 599 693 801 945 1175 1509 1782 1778
1050.0 1591 1542 1804 2431 3346 4305 4579 4052 3136 2542
1090.0 2376 2483 2758 3136 3725 4500 5665 6888 7889 8180
1130.0 7901 7180 6091 4988 3951 3177 2557 2144 1838 1586
1170.0 1358 1194 1105 1081 1118 1213 1367 1530 1641 1586
1210.0 1420 1248 1161 1172 1278 1504 1863 2402 3077 3878
1250.0 4674 5500 6427 7352 8620 9407 10000 9642 9412 8509
1290.0 7136 5509 4024 2897 2072 1549 1208 997 871 827
1330.0 831 877 885 822 707 609 558 554 617 711
1370.0 739 653 542 488 483 539 581 638 631 589
1410.0 476 403 309 315 298 358 401 511 635 751
1450.0 841 862 863 810 750 660 562 504 489 455
1490.0 414 356 278 226 196 165 147 152 116 138
1530.0 112 128 105 99 98 105 112 98 130 146
1570.0 204 268 331 367 301 247 232 287 298 277
1610.0 206 160 125 129 118 122 115 109 113 105
1650.0 107 116 114 137 143 154 156 197 181 229
1690.0 252 305 342 427 530 609 733 877 1191 1505
1730.0 2156 2941 4589 6417 8716 8874 8277 6222 4238 2818
1770.0 1933 1351 958 769 568 483 371 358 281 276
1810.0 247 218 193 170 166 137 148 127 120 90
1850.0 92 87 81 86 77 68 60 61 49 50
1890.0 45 51 50 52 61 63 68 61 73 76
1930.0 99 115 123 110 89 83 75 88 100 106
1970.0 95 84 72 62 63 59 58 54 58 52
2010.0 50 47 44 46 44 47 40 44 40 48
2050.0 45 49 53 57 59 63 67 67 72 73
2090.0 72 69 65 67 62 60 59 58 54 59
2130.0 55 55 50 47 44 38 37 31 31 24
2170.0 24 21 20 19 15 16 11 13 6 11
2210.0 10 9 9 8 11 11 13 13 18 15
2250.0 19 16 18 17 18 18 18 23 21 21
2290.0 23 25 29 27 30 28 26 23 39 34
2330.0 34 27 21 22 27 26 24 26 21 30
2370.0 30 32 30 30 27 23 21 18 23 19
2410.0 18 14 13 11 10 8 6 6 4 2
2450.0 1 3 0 3 3 4 2 1 1 2
2490.0 5 2 5 6 8 10 5 12 9 14
2530.0 13 15 13 13 12 13 14 17 20 16
2570.0 21 17 19 18 20 21 21 23 24 28
2610.0 25 26 26 25 26 25 26 23 25 25
2650.0 26 27 27 28 30 32 31 31 33 36
2690.0 37 40 41 48 52 60 71 87 107 118
2730.0 127 125 129 126 126 127 126 132 133 142
2770.0 154 167 186 207 230 261 292 334 389 458
2810.0 551 657 808 1002 1192 1284 1250 1173 1129 1115
2850.0 1117 1137 1167 1198 1208 1218 1275 1380 1514 1632
2890.0 1698 1689 1647 1593 1537 1494 1442 1416 1427 1482
2930.0 1551 1614 1628 1602 1585 1611 1687 1752 1727 1604
2970.0 1459 1349 1277 1246 1274 1347 1413 1359 1151 888
3010.0 666 513 411 346 312 296 285 277 259 238
3050.0 229 227 240 263 313 397 522 631 608 461
3090.0 282 179 137 126 113 101 92 80 64 56
3130.0 54 48 45 42 43 48 47 45 41 38
3170.0 31 30 23 25 26 24 18 16 19 18
3210.0 18 18 16 11 10 12 14 13 15 11
3250.0 6 13 10 14 12 11 12 7 11 12
3290.0 13 12 13 15 15 16 17 13 11 17
3330.0 15 18 16 21 19 19 20 12 13 14
3370.0 16 11 7 14 16 14 14 20 11 14
3410.0 15 10 13 16 13 22 22 17 19 21
3450.0 20 29 34 42 55 52 52 57 50 51
3490.0 40 32 28 25 23 15 15 14 8 14
3530.0 16 14 15 21 20 10 9 14 5 24
3570.0 18 12 13 13 24 18 10 14 16 12
3610.0 22 17 12 15 5 17 22 15 19 16
3650.0 31 20 12 23 0 32 10 38 6 19
3690.0 29 22 12 20 16 23 23 17 26 14
3730.0 27 32 36 24 44 16 37 24 19 31
3770.0 23 25 11 22 20 20 12 32 13 41
3810.0 0 29 23 32 19 19 18 28 19 24
3850.0 25 21 19 11 20 41 24 16 30 27
3890.0 18 36 9 46 23 14 3 18 31 26
3930.0 22 32 35 33 28 30 33 22 21 35
##END=
