##TITLE=Di-n-octyl phthalate
##JCAMP-DX=4.24
##DATA TYPE=INFRARED SPECTRUM
##ORIGIN=Sadtler Research Labs Under US-EPA Contract
##OWNER=NIST Standard Reference Data Program
##CAS REGISTRY NO=117-84-0
##MOLFORM=C 24 H 38 O 4
##XUNITS=1/CM
##YUNITS=ABSORBANCE
##XFACTOR=1.0
##YFACTOR=0.000089124
##DELTAX=4.0
##FIRSTX=450.0
##LASTX=3966.0
##FIRSTY=0.014171
##MAXX=3966
##MINX=450
##MAXY=0.89124
##MINY=0
##NPOINTS=880
##XYDATA=(X++(Y..Y))
450.0 159 167 175 135 137 330 298 271 154 236
490.0 166 148 244 232 177 7 144 174 225 21
530.0 187 217 253 259 212 120 130 199 282 153
570.0 173 199 181 105 12 261 191 192 184 203
610.0 148 120 163 159 109 126 168 173 196 263
650.0 328 298 196 116 142 159 196 250 304 378
690.0 496 646 724 683 641 570 607 686 734 807
730.0 914 1113 1294 1396 1387 1131 906 822 756 714
770.0 779 751 752 709 650 602 537 468 390 375
810.0 386 371 358 372 346 368 322 329 318 320
850.0 334 335 318 297 335 334 308 329 326 322
890.0 325 358 384 406 421 437 421 463 485 538
930.0 562 571 621 673 730 806 865 889 855 784
970.0 687 629 685 623 608 561 538 530 524 503
1010.0 517 503 521 582 652 779 1082 1486 1617 1400
1050.0 1294 1641 2346 3488 4698 5063 4081 2685 1792 1360
1090.0 1213 1255 1432 1889 2618 3738 5170 6315 6459 5825
1130.0 5124 4524 3691 2661 1933 1490 1199 1025 930 791
1170.0 637 645 599 381 516 424 541 501 578 660
1210.0 734 823 929 1169 1440 1832 2415 3155 4039 5031
1250.0 6059 7031 7970 8956 9638 9669 9232 8811 8414 7763
1290.0 6589 5178 3964 3009 2357 1913 1583 1326 1148 1015
1330.0 945 899 836 809 768 729 699 675 686 675
1370.0 737 847 1040 1250 1326 1212 896 636 504 450
1410.0 404 405 361 385 395 440 445 554 689 893
1450.0 1053 1148 1317 1454 1595 1518 1274 970 780 653
1490.0 566 494 425 377 377 295 281 267 254 245
1530.0 223 251 229 246 206 229 246 259 279 267
1570.0 351 419 532 492 424 341 365 394 429 369
1610.0 303 256 257 230 217 233 217 211 208 227
1650.0 184 285 205 234 230 269 263 305 292 372
1690.0 391 449 550 674 714 833 995 1269 1634 2199
1730.0 3082 4617 6952 9374 10000 8406 5840 3760 2489 1714
1770.0 1257 973 759 619 519 449 392 335 294 283
1810.0 257 235 222 216 213 197 181 185 145 130
1850.0 131 128 141 146 114 107 98 90 94 88
1890.0 96 86 88 99 97 112 99 91 95 113
1930.0 132 134 134 99 91 86 91 91 103 109
1970.0 100 75 69 56 60 53 68 49 46 54
2010.0 57 57 44 45 59 47 59 43 51 74
2050.0 69 68 66 68 67 76 92 90 90 95
2090.0 81 85 74 68 58 68 62 68 64 64
2130.0 57 56 51 54 62 57 53 61 60 54
2170.0 61 62 58 50 45 55 49 47 41 36
2210.0 44 45 53 37 43 46 42 43 47 30
2250.0 40 35 38 34 19 9 25 29 27 31
2290.0 39 35 41 42 39 39 36 35 44 21
2330.0 23 15 18 0 8 40 37 37 1 0
2370.0 0 0 0 26 49 46 57 48 66 60
2410.0 47 56 43 46 35 46 40 32 42 35
2450.0 37 30 35 30 18 24 41 34 33 21
2490.0 27 18 20 24 23 17 17 19 22 24
2530.0 19 20 25 19 31 24 22 23 27 33
2570.0 38 45 58 46 54 43 53 56 54 47
2610.0 53 43 44 49 53 48 50 65 65 59
2650.0 53 64 82 104 115 120 126 115 118 113
2690.0 105 125 110 105 114 122 121 117 128 140
2730.0 145 159 151 184 171 181 186 167 175 165
2770.0 180 173 189 184 201 201 194 227 238 245
2810.0 272 298 316 344 376 429 481 533 613 726
2850.0 903 1155 1508 1985 2480 2873 2923 2855 2919 2971
2890.0 2814 2584 2433 2468 2606 2833 3147 3580 4086 4699
2930.0 5311 5873 6191 6143 5700 5049 4597 4687 5334 6312
2970.0 6801 6016 4396 3025 2165 1627 1264 991 816 689
3010.0 578 518 468 440 415 409 392 388 367 322
3050.0 319 305 328 360 412 500 668 740 691 503
3090.0 322 248 235 208 193 187 137 139 125 115
3130.0 135 115 99 100 109 119 91 99 98 98
3170.0 83 83 107 77 77 103 95 107 83 75
3210.0 74 74 59 63 38 49 70 55 56 58
3250.0 52 40 51 59 50 68 67 42 71 62
3290.0 56 43 53 45 56 41 33 47 36 38
3330.0 39 53 37 43 58 42 23 31 45 43
3370.0 43 34 48 60 33 50 27 49 36 25
3410.0 42 44 63 40 65 26 59 64 50 94
3450.0 90 76 81 90 74 84 70 59 71 55
3490.0 57 46 24 47 34 33 21 19 36 33
3530.0 31 27 25 39 21 44 41 39 35 27
3570.0 31 23 19 45 52 61 35 23 46 12
3610.0 22 50 62 37 72 47 48 27 57 36
3650.0 62 21 29 44 43 47 55 40 37 56
3690.0 54 34 49 33 33 42 15 18 33 42
3730.0 43 31 38 42 84 57 74 31 8 35
3770.0 34 28 32 22 34 67 49 68 88 103
3810.0 75 67 71 85 63 61 35 82 69 91
3850.0 128 123 90 60 39 56 22 43 43 71
3890.0 62 89 76 94 101 88 78 64 78 71
3930.0 60 72 79 71 58 46 71 89 97 115
##END=
