##TITLE=Bis(2-butoxyethyl) phthalate
##JCAMP-DX=4.24
##DATA TYPE=INFRARED SPECTRUM
##ORIGIN=Sadtler Research Labs Under US-EPA Contract
##OWNER=NIST Standard Reference Data Program
##CAS REGISTRY NO=117-83-9
##MOLFORM=C 20 H 30 O 6
##XUNITS=1/CM
##YUNITS=ABSORBANCE
##XFACTOR=1.0
##YFACTOR=0.000044278
##DELTAX=4.0
##FIRSTX=450.0
##LASTX=3966.0
##FIRSTY=0.023910
##MAXX=3966
##MINX=450
##MAXY=0.44278
##MINY=0
##NPOINTS=880
##XYDATA=(X++(Y..Y))
450.0 540 629 541 908 500 829 266 1069 133 0
490.0 969 942 936 685 905 794 787 573 810 652
530.0 765 733 678 654 680 705 576 886 709 736
570.0 653 764 669 639 595 541 570 550 606 534
610.0 604 607 613 563 576 533 522 642 576 596
650.0 695 724 614 531 564 584 647 558 673 662
690.0 804 861 995 1064 985 984 915 1029 975 1161
730.0 1202 1349 1606 1768 1720 1508 1334 1091 1048 915
770.0 959 902 944 885 892 877 776 828 711 741
810.0 674 731 725 773 784 771 874 854 915 871
850.0 952 888 892 886 863 848 812 846 781 829
890.0 815 845 827 857 884 830 852 784 790 735
930.0 761 737 756 787 824 896 928 1025 1005 1063
970.0 1069 1158 1162 1119 1074 1010 992 977 1048 1022
1010.0 1104 1153 1226 1285 1365 1498 1683 2051 2321 2300
1050.0 2095 2163 2478 3133 4144 5132 5296 4454 3573 3052
1090.0 3073 3379 3954 4645 5520 6540 7644 8658 9140 9072
1130.0 8471 7759 6779 5774 4770 3858 3100 2482 2114 1795
1170.0 1531 1338 1228 1146 1082 1051 1028 1036 1020 1099
1210.0 1093 1169 1250 1399 1587 1880 2340 2894 3580 4307
1250.0 5110 5901 6764 7746 8880 9734 10000 9834 9457 8685
1290.0 7237 5594 4155 3138 2407 1918 1614 1376 1281 1207
1330.0 1255 1261 1258 1201 1149 1148 1190 1334 1403 1406
1370.0 1331 1334 1430 1573 1544 1310 1098 912 833 755
1410.0 728 687 660 655 676 733 795 924 1052 1176
1450.0 1241 1274 1248 1239 1183 1105 1031 971 968 861
1490.0 786 665 573 513 459 452 436 409 388 403
1530.0 375 388 345 323 371 369 368 310 363 412
1570.0 445 530 598 598 554 492 480 520 543 517
1610.0 432 396 330 373 342 370 328 328 357 334
1650.0 310 307 331 377 353 370 358 412 382 398
1690.0 472 511 535 606 716 814 935 1078 1394 1838
1730.0 2464 3468 5041 7103 8886 9166 7759 5661 3773 2617
1770.0 1838 1367 1044 867 728 619 543 492 469 422
1810.0 419 366 359 334 315 307 290 313 269 259
1850.0 238 252 231 242 237 223 207 200 215 186
1890.0 201 192 193 201 211 210 211 216 198 221
1930.0 228 252 252 239 219 203 208 210 235 219
1970.0 213 195 183 160 167 169 142 157 155 158
2010.0 141 154 158 159 154 160 195 184 207 205
2050.0 219 187 183 184 223 233 218 220 184 170
2090.0 131 122 118 129 143 137 138 121 132 115
2130.0 128 103 115 117 110 105 85 106 87 99
2170.0 80 83 89 82 82 85 82 78 82 65
2210.0 74 77 84 86 92 95 93 99 93 100
2250.0 81 93 84 92 97 89 109 101 132 126
2290.0 141 140 139 129 144 152 141 108 75 88
2330.0 87 97 125 138 221 149 57 58 165 226
2370.0 276 298 312 259 196 145 101 99 97 108
2410.0 82 93 100 98 95 92 86 72 88 81
2450.0 88 93 82 79 82 91 74 87 83 100
2490.0 102 106 100 87 78 104 107 98 107 117
2530.0 130 100 113 104 104 99 97 109 91 105
2570.0 109 116 135 126 118 123 136 132 129 122
2610.0 114 101 93 79 71 82 79 119 120 102
2650.0 69 75 67 76 106 122 189 213 236 228
2690.0 231 219 239 250 254 262 271 288 273 297
2730.0 300 309 310 318 352 341 335 320 338 343
2770.0 327 329 348 365 404 421 430 454 487 519
2810.0 549 575 626 647 698 753 801 938 1091 1303
2850.0 1587 1936 2266 2612 2869 3086 3172 3200 3186 3045
2890.0 2820 2606 2420 2344 2333 2380 2505 2636 2806 2942
2930.0 3117 3353 3639 3882 3978 3973 3993 4087 4147 4258
2970.0 4121 3611 2894 2213 1767 1453 1242 1031 856 724
3010.0 600 512 468 416 375 382 354 372 311 306
3050.0 289 293 309 346 385 462 599 672 628 487
3090.0 330 227 209 218 208 182 200 160 161 164
3130.0 139 117 145 130 127 117 127 152 146 123
3170.0 141 124 133 140 113 117 116 97 102 103
3210.0 94 90 108 91 126 123 112 112 137 109
3250.0 101 142 114 137 125 117 136 141 139 144
3290.0 118 119 120 114 120 130 146 133 134 109
3330.0 92 128 106 144 103 103 110 143 127 110
3370.0 109 124 134 127 140 145 122 111 134 102
3410.0 103 138 128 131 128 150 121 151 129 114
3450.0 153 144 159 137 159 116 193 169 163 162
3490.0 140 120 90 111 124 123 100 133 108 122
3530.0 102 137 137 87 125 85 97 115 96 82
3570.0 79 137 127 96 97 110 116 107 89 125
3610.0 134 120 139 107 143 115 124 134 120 62
3650.0 88 77 78 99 122 95 114 125 122 72
3690.0 84 94 146 79 70 93 157 98 71 174
3730.0 99 74 123 82 55 84 56 105 107 105
3770.0 116 135 140 73 106 55 126 94 84 80
3810.0 111 84 88 81 130 103 125 52 85 108
3850.0 108 88 148 129 146 161 95 71 58 127
3890.0 63 131 109 159 147 123 104 129 131 81
3930.0 186 113 138 95 75 146 233 225 190 152
##END=
