##TITLE=Benzoic acid, 2-hydroxy-, phenylmethyl ester
##JCAMP-DX=4.24
##DATA TYPE=INFRARED SPECTRUM
##ORIGIN=Sadtler Research Labs Under US-EPA Contract
##OWNER=NIST Standard Reference Data Program
##CAS REGISTRY NO=118-58-1
##MOLFORM=C 14 H 12 O 3
##XUNITS=1/CM
##YUNITS=ABSORBANCE
##XFACTOR=1.0
##YFACTOR=0.000059726
##DELTAX=4.0
##FIRSTX=450.0
##LASTX=3966.0
##FIRSTY=0.001433
##MAXX=3966
##MINX=450
##MAXY=0.59726
##MINY=0
##NPOINTS=880
##XYDATA=(X++(Y..Y))
450.0 24 36 49 69 68 76 64 48 40 23
490.0 9 30 22 54 60 109 204 342 583 867
530.0 1041 887 521 196 46 23 88 154 194 163
570.0 143 198 221 307 307 339 312 309 305 254
610.0 198 168 132 110 94 95 61 69 89 113
650.0 177 254 393 598 782 914 869 968 1166 1454
690.0 1876 2293 2458 2377 2088 1722 1393 1142 979 919
730.0 936 1059 1372 1871 2526 3032 3099 2455 1557 853
770.0 420 216 114 99 108 99 110 118 123 91
810.0 93 79 103 120 147 208 252 313 353 343
850.0 313 283 284 285 233 157 120 109 100 126
890.0 144 146 165 205 295 341 315 230 185 174
930.0 190 233 302 390 485 555 599 586 538 470
970.0 393 323 249 191 156 129 137 158 218 249
1010.0 248 270 365 586 949 1142 1031 689 446 339
1050.0 349 430 585 841 1242 1871 2787 3994 5006 4961
1090.0 3722 2207 1315 1015 1010 1063 1116 1284 1720 2505
1130.0 3490 4176 3777 2690 1922 2857 6402 7518 5443 2327
1170.0 1881 2147 2309 2154 1863 1790 2125 2925 4326 6126
1210.0 7137 6529 5037 3934 3558 3483 3484 3556 4109 5475
1250.0 6649 6092 4350 3012 2577 2411 2407 2735 3262 3968
1290.0 5242 7630 10000 9591 7003 4647 3741 3539 3263 2778
1330.0 2256 1798 1400 1070 904 815 767 768 827 932
1370.0 1140 1519 1971 2216 2215 2054 1945 1882 1823 1742
1410.0 1609 1399 1196 934 779 670 650 676 737 887
1450.0 1102 1352 1601 1807 1979 2161 2420 2735 3032 3007
1490.0 2594 1987 1577 1299 1038 754 543 406 319 245
1530.0 220 197 197 205 224 243 299 391 441 535
1570.0 654 849 1117 1443 1637 1620 1435 1292 1323 1613
1610.0 2103 2406 2248 1674 1051 627 482 427 435 482
1650.0 562 639 740 882 1097 1436 1976 2800 4004 5518
1690.0 6761 7253 6589 5094 3561 2331 1560 1104 828 688
1730.0 625 640 712 850 957 961 813 631 453 339
1770.0 284 231 195 177 164 179 199 223 255 236
1810.0 222 187 133 96 95 89 83 75 79 75
1850.0 62 55 66 66 71 79 69 74 75 78
1890.0 81 71 70 62 55 63 81 117 155 148
1930.0 129 103 108 125 142 148 136 121 95 72
1970.0 45 36 28 19 18 23 17 9 13 13
2010.0 23 21 23 22 30 31 37 39 48 47
2050.0 45 46 44 48 47 39 37 28 28 19
2090.0 20 19 19 19 20 15 10 11 17 10
2130.0 9 10 10 16 10 10 13 8 9 9
2170.0 8 8 17 8 8 9 0 8 7 8
2210.0 8 8 8 9 9 9 9 9 10 10
2250.0 10 11 11 10 21 15 18 28 27 27
2290.0 34 33 40 47 46 52 53 43 52 33
2330.0 39 26 33 32 57 60 49 43 55 72
2370.0 74 79 84 90 69 50 47 38 38 37
2410.0 46 38 41 38 42 42 47 48 40 40
2450.0 49 49 48 49 50 40 48 42 42 46
2490.0 50 51 48 50 50 52 52 52 53 60
2530.0 61 61 64 68 72 71 72 71 71 70
2570.0 71 70 73 72 72 62 73 72 81 88
2610.0 80 88 82 81 91 74 80 65 66 71
2650.0 62 53 50 50 50 51 58 67 76 88
2690.0 96 101 97 98 94 104 100 102 102 95
2730.0 103 104 104 111 111 111 112 122 125 128
2770.0 130 130 129 129 130 130 129 122 122 122
2810.0 122 122 123 123 128 140 140 140 140 140
2850.0 140 143 139 150 149 157 164 183 198 222
2890.0 257 284 309 310 306 293 271 254 247 239
2930.0 242 257 274 316 359 438 518 620 685 698
2970.0 647 562 465 402 370 348 329 318 311 310
3010.0 322 356 408 484 573 707 827 957 1026 1006
3050.0 957 922 948 1010 1129 1343 1526 1499 1290 1065
3090.0 930 879 828 745 641 554 485 426 374 323
3130.0 275 264 244 246 237 230 238 244 253 272
3170.0 291 305 324 332 351 358 382 405 446 468
3210.0 502 562 604 684 772 858 988 1074 1181 1292
3250.0 1354 1416 1445 1451 1452 1408 1340 1294 1222 1177
3290.0 1131 1081 1019 969 931 888 857 819 792 755
3330.0 739 730 710 685 671 648 618 599 588 562
3370.0 560 538 514 505 471 470 445 419 397 365
3410.0 354 341 323 307 316 279 279 261 253 251
3450.0 241 258 241 293 330 403 510 582 652 607
3490.0 554 477 400 367 341 308 282 260 234 219
3530.0 181 163 161 136 128 117 111 103 90 92
3570.0 110 124 127 133 126 127 102 77 43 60
3610.0 60 39 41 37 47 43 44 31 19 25
3650.0 24 34 24 41 21 7 26 24 13 12
3690.0 13 24 7 7 9 18 20 21 21 34
3730.0 20 21 26 37 30 23 26 30 31 21
3770.0 38 33 28 30 26 25 30 19 9 18
3810.0 25 32 48 48 34 20 16 12 17 30
3850.0 38 32 33 38 36 51 48 48 42 43
3890.0 49 52 28 38 35 21 35 40 37 24
3930.0 12 8 7 9 5 0 1 13 21 22
##END=
