##TITLE=Phenol, 2,4,6-tribromo-
##JCAMP-DX=4.24
##DATA TYPE=INFRARED SPECTRUM
##ORIGIN=Sadtler Research Labs Under US-EPA Contract
##OWNER=NIST Standard Reference Data Program
##CAS REGISTRY NO=118-79-6
##MOLFORM=C 6 H 3 Br 3 O
##XUNITS=1/CM
##YUNITS=ABSORBANCE
##XFACTOR=1.0
##YFACTOR=0.000054645
##DELTAX=4.0
##FIRSTX=450.0
##LASTX=3966.0
##FIRSTY=0.003497
##MAXX=3966
##MINX=450
##MAXY=0.54645
##MINY=0
##NPOINTS=880
##XYDATA=(X++(Y..Y))
450.0 64 130 628 728 634 432 219 562 525 378
490.0 505 535 330 412 405 446 523 631 566 417
530.0 546 469 613 874 1269 1178 918 575 563 536
570.0 632 541 419 496 483 418 360 550 396 540
610.0 480 425 520 584 481 428 422 439 522 533
650.0 671 794 853 813 934 1187 2030 3233 3688 2437
690.0 1157 639 582 662 893 942 707 617 750 1082
730.0 1659 2446 2731 2292 1479 1019 621 648 675 774
770.0 930 946 846 660 545 476 470 438 408 450
810.0 388 353 438 385 447 440 444 545 578 705
850.0 888 1349 1992 1600 923 646 581 541 479 397
890.0 424 391 382 394 385 394 370 379 354 357
930.0 367 359 375 375 377 379 368 384 371 351
970.0 366 357 374 373 341 361 341 341 350 355
1010.0 372 334 357 391 381 387 383 404 389 377
1050.0 381 368 390 403 433 445 460 471 417 438
1090.0 464 483 573 667 776 802 718 590 502 483
1130.0 463 496 581 759 1059 1605 2624 3975 4627 3682
1170.0 2193 1238 1015 944 850 933 1176 1520 1702 1558
1210.0 1219 932 1130 1757 2409 2285 1490 907 702 628
1250.0 725 928 1320 1799 2155 2123 1674 1157 781 549
1290.0 473 462 616 870 1510 2802 4141 4462 2969 1361
1330.0 692 563 530 689 771 686 525 443 444 542
1370.0 814 1190 1839 2383 2583 2392 1827 1213 905 879
1410.0 985 1014 788 717 685 887 885 1398 2098 2915
1450.0 5292 8080 10000 9123 4841 1797 819 497 424 370
1490.0 226 324 211 239 148 38 254 160 139 296
1530.0 235 347 232 271 562 954 1290 1259 1129 889
1570.0 558 574 585 607 645 458 325 264 205 212
1610.0 197 170 121 148 115 183 120 95 158 152
1650.0 0 24 125 178 151 124 48 183 38 32
1690.0 126 157 13 31 155 264 244 116 251 355
1730.0 286 184 219 222 179 128 164 152 123 173
1770.0 110 61 149 131 151 117 89 128 98 161
1810.0 131 129 159 127 122 84 129 151 111 75
1850.0 122 149 144 143 126 83 139 159 146 144
1890.0 128 135 149 155 155 147 145 135 116 153
1930.0 158 160 173 145 159 166 158 155 151 135
1970.0 139 141 140 146 149 119 132 138 135 132
2010.0 140 132 126 130 139 131 129 129 120 130
2050.0 130 129 131 132 122 130 133 127 126 133
2090.0 133 131 135 145 144 140 144 141 130 135
2130.0 133 137 138 136 136 129 130 131 130 124
2170.0 125 124 133 127 126 126 125 126 127 127
2210.0 127 127 125 132 137 132 128 131 120 120
2250.0 124 118 125 115 115 113 116 124 133 138
2290.0 151 162 160 163 153 146 128 115 107 94
2330.0 96 90 90 81 101 114 86 125 87 86
2370.0 116 123 154 171 156 153 144 141 148 146
2410.0 147 149 152 151 154 152 146 147 145 141
2450.0 146 144 146 150 147 162 160 165 168 169
2490.0 163 169 162 148 151 147 145 157 160 155
2530.0 157 152 152 151 148 140 135 138 135 133
2570.0 136 131 139 133 141 137 132 132 146 143
2610.0 148 151 145 152 151 154 150 143 145 143
2650.0 151 144 153 153 144 141 146 145 149 154
2690.0 148 152 152 149 146 165 152 157 164 159
2730.0 160 155 158 153 146 149 154 158 160 154
2770.0 160 166 159 163 159 156 156 149 154 152
2810.0 159 157 167 170 172 178 182 190 177 169
2850.0 168 185 179 181 181 180 173 160 166 161
2890.0 158 168 172 168 168 178 175 168 163 164
2930.0 171 168 175 177 173 163 166 161 171 184
2970.0 174 171 171 165 171 170 169 173 172 177
3010.0 174 174 179 170 158 173 161 171 168 169
3050.0 159 169 173 180 168 173 179 208 233 263
3090.0 273 240 199 183 188 180 185 200 197 190
3130.0 189 190 193 203 203 188 185 184 168 171
3170.0 171 188 190 177 170 183 176 170 176 176
3210.0 169 165 153 178 167 180 180 175 178 164
3250.0 188 188 175 173 157 179 209 225 221 217
3290.0 197 195 193 190 177 167 152 169 176 169
3330.0 171 173 179 186 177 180 168 163 163 166
3370.0 184 174 185 174 176 177 186 171 157 174
3410.0 170 171 174 184 214 192 185 198 162 175
3450.0 175 175 165 172 175 190 167 161 177 178
3490.0 174 178 180 193 194 202 206 231 244 269
3530.0 388 525 1406 3641 5747 5731 3853 2573 1740 1023
3570.0 552 396 288 278 215 169 228 133 178 155
3610.0 129 158 178 200 177 156 195 199 195 167
3650.0 111 193 152 191 169 167 132 146 172 156
3690.0 149 156 163 171 175 167 153 156 138 130
3730.0 137 141 155 143 126 131 119 220 151 154
3770.0 160 181 182 150 159 160 220 196 149 181
3810.0 217 218 149 194 215 195 135 161 160 211
3850.0 202 95 181 237 193 224 174 156 149 168
3890.0 204 208 208 181 174 188 152 296 196 259
3930.0 201 225 202 149 155 145 211 175 210 225
##END=
