##TITLE=1H-Isoindole-1,3(2H)-dione, 2-(hydroxymethyl)-
##JCAMP-DX=4.24
##DATA TYPE=INFRARED SPECTRUM
##ORIGIN=Sadtler Research Labs Under US-EPA Contract
##OWNER=NIST Standard Reference Data Program
##CAS REGISTRY NO=118-29-6
##MOLFORM=C 9 H 7 N O 3
##XUNITS=1/CM
##YUNITS=ABSORBANCE
##XFACTOR=1.0
##YFACTOR=0.000130038
##DELTAX=4.0
##FIRSTX=450.0
##LASTX=3966.0
##FIRSTY=0.006242
##MAXX=3966
##MINX=450
##MAXY=1.30038
##MINY=0
##NPOINTS=880
##XYDATA=(X++(Y..Y))
450.0 48 25 29 0 12 4 43 9 21 19
490.0 59 38 43 72 92 132 209 291 337 480
530.0 584 780 904 1086 1121 1044 845 655 483 374
570.0 338 286 223 170 161 117 82 79 72 58
610.0 36 39 20 32 52 93 130 145 163 130
650.0 122 58 54 22 51 44 31 29 46 69
690.0 76 229 420 738 774 1410 2028 1135 880 799
730.0 404 272 154 175 136 114 83 62 51 28
770.0 60 57 101 133 186 181 129 85 51 25
810.0 9 13 6 31 20 35 20 17 15 5
850.0 1 4 6 0 12 7 6 11 13 15
890.0 11 14 12 16 10 20 20 21 22 17
930.0 16 17 26 26 33 41 54 63 64 66
970.0 65 82 86 101 127 171 226 307 419 522
1010.0 661 857 1162 1454 1520 1429 1426 1042 565 334
1050.0 253 270 305 344 365 389 427 440 453 440
1090.0 411 371 315 238 191 157 139 127 121 109
1130.0 90 77 71 67 65 70 77 87 118 159
1170.0 222 300 317 322 337 275 210 168 141 117
1210.0 105 102 84 82 70 67 67 86 103 124
1250.0 167 199 243 269 321 367 455 594 834 1224
1290.0 1550 1708 1686 1538 1110 666 486 383 328 322
1330.0 407 570 738 895 1041 1168 1237 1245 1229 1150
1370.0 957 762 572 387 254 184 104 71 50 55
1410.0 56 77 101 115 95 90 75 91 84 83
1450.0 87 94 135 159 200 216 183 173 97 51
1490.0 12 25 39 70 52 36 1 13 39 54
1530.0 49 58 62 62 71 73 70 64 86 70
1570.0 83 88 110 90 119 121 142 156 175 181
1610.0 179 190 160 163 133 145 123 134 121 151
1650.0 126 175 164 157 167 149 121 117 84 106
1690.0 107 140 156 224 256 331 398 498 574 666
1730.0 717 782 864 1172 2013 3131 5668 8391 10000 9874
1770.0 9947 7952 4193 2501 2130 2236 2165 1965 1696 1048
1810.0 590 490 438 411 389 321 271 212 184 150
1850.0 128 100 92 76 77 75 78 79 80 75
1890.0 66 63 58 57 50 49 47 48 49 49
1930.0 55 57 64 60 55 44 39 30 29 31
1970.0 36 35 31 26 17 14 7 7 5 4
2010.0 3 4 2 5 3 4 4 5 3 5
2050.0 2 2 1 3 3 4 5 8 9 10
2090.0 12 13 16 15 15 17 16 14 12 11
2130.0 10 9 9 10 8 9 10 15 13 14
2170.0 15 12 15 12 11 8 8 7 5 4
2210.0 0 2 2 0 2 5 5 5 7 9
2250.0 12 11 15 16 16 17 20 24 30 36
2290.0 42 49 55 63 69 74 72 63 64 53
2330.0 44 47 39 43 54 54 52 41 44 47
2370.0 47 45 51 55 41 32 24 24 26 22
2410.0 21 18 16 12 15 15 15 13 15 14
2450.0 12 12 12 10 11 12 11 14 11 11
2490.0 12 12 14 15 17 15 16 15 17 19
2530.0 18 18 18 19 19 20 19 16 17 17
2570.0 21 20 25 27 30 30 31 34 36 36
2610.0 38 38 35 39 36 41 44 49 52 53
2650.0 55 58 52 48 65 62 64 57 59 71
2690.0 71 69 72 91 93 96 98 96 104 117
2730.0 151 146 152 148 182 188 180 159 160 188
2770.0 202 130 201 199 120 124 145 213 268 233
2810.0 236 201 211 222 181 162 172 126 101 120
2850.0 112 101 89 128 175 124 121 114 120 125
2890.0 63 155 180 106 73 96 95 80 94 121
2930.0 82 80 74 80 78 85 96 85 98 92
2970.0 90 97 86 82 75 80 78 75 70 69
3010.0 72 81 79 88 104 104 111 119 130 143
3050.0 154 169 181 183 195 205 199 213 234 252
3090.0 244 233 210 171 132 103 98 84 77 72
3130.0 76 77 73 72 74 72 74 73 72 73
3170.0 71 72 73 76 71 67 73 76 77 75
3210.0 79 74 74 72 75 71 67 63 70 67
3250.0 70 67 65 64 59 69 66 64 67 63
3290.0 62 56 60 63 56 53 63 61 49 49
3330.0 57 52 54 54 53 49 51 46 51 47
3370.0 41 41 38 35 34 40 35 40 37 31
3410.0 33 27 30 34 38 42 53 65 95 143
3450.0 206 303 445 620 822 1103 1253 1188 1035 798
3490.0 493 194 70 65 51 61 83 76 96 95
3530.0 106 112 118 125 120 107 74 36 27 29
3570.0 39 22 16 20 27 34 21 4 12 11
3610.0 25 13 22 14 12 33 6 12 8 22
3650.0 13 9 16 4 21 7 8 16 10 18
3690.0 11 12 13 21 10 5 13 16 14 36
3730.0 10 29 18 22 26 24 19 9 10 14
3770.0 8 13 5 14 14 11 5 5 8 8
3810.0 18 11 12 18 4 13 5 7 26 21
3850.0 11 18 15 14 16 18 18 20 21 37
3890.0 24 26 11 24 31 16 24 12 22 3
3930.0 11 18 3 5 13 17 12 2 13 35
##END=
