##TITLE=Benzoic acid, 2-chloro-
##JCAMP-DX=4.24
##DATA TYPE=INFRARED SPECTRUM
##ORIGIN=Sadtler Research Labs Under US-EPA Contract
##OWNER=NIST Standard Reference Data Program
##CAS REGISTRY NO=118-91-2
##MOLFORM=C 7 H 5 Cl O 2
##XUNITS=1/CM
##YUNITS=ABSORBANCE
##XFACTOR=1.0
##YFACTOR=0.000033362
##DELTAX=4.0
##FIRSTX=450.0
##LASTX=3966.0
##FIRSTY=0.086340
##MAXX=3966
##MINX=450
##MAXY=0.33362
##MINY=0
##NPOINTS=880
##XYDATA=(X++(Y..Y))
450.0 2588 1061 418 561 804 281 645 353 470 109
490.0 647 381 409 315 199 448 247 636 453 709
530.0 610 883 830 924 1052 1102 1115 1126 1318 1331
570.0 1605 1658 1652 1285 1201 915 592 623 529 585
610.0 512 606 1020 1697 2032 2285 2111 1619 804 319
650.0 208 140 186 158 236 376 625 960 1203 1468
690.0 1567 1513 1387 1152 802 741 548 425 313 500
730.0 828 1607 2272 3219 5342 4050 2674 2582 1538 1124
770.0 914 1037 1000 1061 989 738 517 371 306 176
810.0 216 114 134 80 90 62 50 81 36 71
850.0 66 68 81 105 72 95 55 23 51 16
890.0 40 47 44 30 63 35 33 54 24 26
930.0 41 89 54 98 115 176 148 110 108 85
970.0 76 42 68 66 91 96 112 118 157 212
1010.0 273 409 514 722 1033 1662 2455 3246 3684 3737
1050.0 3464 2662 1816 1322 1165 1190 1357 1536 1744 2176
1090.0 2858 3721 4510 5042 5127 4598 3755 2909 2274 2022
1130.0 1975 1969 1919 1739 1565 1426 1471 1622 1862 2243
1170.0 2752 3369 4057 4671 4900 4604 3757 2793 1897 1322
1210.0 1097 957 858 764 708 634 615 603 617 650
1250.0 740 854 908 975 1023 1043 1064 1097 1114 1131
1290.0 1091 1073 1114 1153 1331 1537 1782 2027 2163 2237
1330.0 2294 2319 2313 2289 2156 1936 1677 1506 1377 1253
1370.0 1174 1099 981 827 674 491 371 301 261 242
1410.0 237 255 334 497 765 1208 1568 1703 1644 1503
1450.0 1008 654 501 498 655 834 994 990 940 787
1490.0 548 291 235 176 141 145 126 121 84 120
1530.0 104 154 124 200 187 206 205 255 319 361
1570.0 468 496 557 709 877 1131 1191 1276 1048 879
1610.0 587 389 280 227 208 155 157 142 160 87
1650.0 168 79 147 109 146 121 166 153 212 226
1690.0 258 328 318 445 503 618 679 906 1143 1282
1730.0 1609 1804 2312 2781 4130 5288 6789 7972 9401 10000
1770.0 9853 9278 8011 6980 4770 3309 2660 2353 1838 1410
1810.0 1033 829 583 506 377 301 219 204 178 145
1850.0 153 113 123 87 118 92 103 101 106 93
1890.0 88 116 81 108 93 117 112 135 169 168
1930.0 190 170 172 138 156 133 158 166 181 169
1970.0 130 117 69 70 40 54 37 31 32 27
2010.0 31 22 41 25 29 28 34 14 32 31
2050.0 20 25 20 30 15 30 26 31 24 29
2090.0 38 24 28 22 29 18 33 22 32 36
2130.0 28 27 27 40 16 17 19 18 10 12
2170.0 16 6 13 12 27 30 34 28 37 34
2210.0 37 46 41 42 29 37 38 41 24 37
2250.0 21 29 33 32 40 41 48 57 71 65
2290.0 73 91 98 108 110 118 111 115 113 120
2330.0 110 110 93 138 140 133 125 116 154 160
2370.0 163 177 169 163 112 88 60 59 58 62
2410.0 51 65 68 54 60 66 69 63 67 67
2450.0 76 65 64 69 65 76 69 74 66 72
2490.0 65 60 68 74 72 61 68 70 76 78
2530.0 80 83 79 80 84 90 82 93 78 75
2570.0 69 74 61 58 66 60 66 67 75 65
2610.0 71 63 70 69 66 77 74 73 69 67
2650.0 66 65 65 57 63 57 55 59 64 66
2690.0 54 62 52 56 56 59 39 42 39 39
2730.0 38 26 27 26 31 44 35 41 38 33
2770.0 40 36 60 62 73 85 75 80 83 98
2810.0 88 86 93 94 97 98 100 103 109 110
2850.0 124 124 151 164 159 167 157 152 133 134
2890.0 129 135 133 132 132 152 167 168 190 209
2930.0 243 256 264 241 231 196 193 173 156 169
2970.0 167 167 165 170 168 163 176 167 166 152
3010.0 166 155 172 174 182 182 184 201 182 201
3050.0 202 231 273 367 479 577 719 796 785 709
3090.0 629 477 323 261 232 202 165 154 141 146
3130.0 154 152 149 156 156 145 126 128 121 129
3170.0 117 121 113 118 111 98 101 120 101 87
3210.0 99 107 98 103 105 110 88 77 93 86
3250.0 99 79 96 95 89 92 85 95 80 86
3290.0 75 80 75 90 83 96 84 97 98 99
3330.0 77 81 91 93 108 91 98 93 88 73
3370.0 88 105 76 103 104 96 90 104 85 79
3410.0 76 88 78 73 93 84 89 89 83 71
3450.0 90 93 78 64 75 86 74 95 106 97
3490.0 128 145 157 137 141 163 181 188 226 264
3530.0 249 294 271 312 321 331 450 856 1814 2854
3570.0 3544 4135 4125 3356 2351 1623 943 407 213 166
3610.0 150 149 141 122 107 85 90 55 65 63
3650.0 55 67 37 56 39 51 57 84 102 54
3690.0 72 85 75 94 74 86 24 42 63 64
3730.0 37 90 145 17 108 11 86 66 58 73
3770.0 47 41 48 45 70 57 1 86 19 67
3810.0 28 47 60 43 71 18 59 18 83 76
3850.0 85 83 70 54 46 92 49 52 1 63
3890.0 0 54 33 44 29 58 54 51 73 47
3930.0 62 41 70 67 67 30 68 27 1 4
##END=
