##TITLE=Benzoic acid, 2-hydroxy-, ethyl ester
##JCAMP-DX=4.24
##DATA TYPE=INFRARED SPECTRUM
##ORIGIN=Sadtler Research Labs Under US-EPA Contract
##OWNER=NIST Standard Reference Data Program
##CAS REGISTRY NO=118-61-6
##MOLFORM=C 9 H 10 O 3
##XUNITS=1/CM
##YUNITS=ABSORBANCE
##XFACTOR=1.0
##YFACTOR=0.000082227
##DELTAX=4.0
##FIRSTX=450.0
##LASTX=3966.0
##FIRSTY=0.000000
##MAXX=3966
##MINX=450
##MAXY=0.82227
##MINY=0
##NPOINTS=880
##XYDATA=(X++(Y..Y))
450.0 0 107 90 164 189 143 131 142 141 102
490.0 186 266 285 321 348 450 444 596 750 864
530.0 749 532 441 351 207 288 390 351 308 312
570.0 302 232 183 236 333 295 301 309 286 211
610.0 343 420 445 358 361 319 252 273 299 364
650.0 365 411 560 775 776 874 876 801 705 835
690.0 1095 1302 1611 2114 2005 1809 1593 1381 1096 874
730.0 722 704 860 1146 1575 2188 2915 2374 1761 1303
770.0 758 452 364 326 287 315 392 489 480 471
810.0 501 511 499 562 521 458 373 375 374 426
850.0 507 660 714 729 602 497 424 370 377 358
890.0 336 278 243 225 189 197 214 233 191 183
930.0 190 207 205 243 266 281 253 249 251 240
970.0 243 275 288 269 303 303 364 416 525 617
1010.0 725 795 870 931 984 1063 990 935 693 494
1050.0 396 364 356 420 515 679 971 1583 2555 3540
1090.0 4137 4227 3426 2365 1776 1411 1245 1224 1352 1677
1130.0 2259 2656 2657 2344 2001 2793 4992 5690 5521 3938
1170.0 2567 2342 2337 2310 2195 2088 2200 2726 3710 5148
1210.0 6354 6735 6087 4568 3360 2862 2735 2858 3388 4408
1250.0 5291 5415 5075 3944 2953 2389 2139 2110 2147 2412
1290.0 3182 4764 7190 9795 10000 7834 5333 4150 3844 3650
1330.0 3160 2491 1997 1550 1176 942 806 797 966 1386
1370.0 2073 2463 2516 2209 1669 1481 1582 1743 1870 1995
1410.0 2086 2096 1991 1784 1558 1303 1052 928 860 866
1450.0 918 1062 1266 1476 1789 2215 2676 3069 3405 3323
1490.0 2897 2369 1692 1270 1086 900 821 676 540 425
1530.0 391 383 371 381 370 373 377 443 452 505
1570.0 603 800 1100 1377 1543 1612 1546 1303 1224 1405
1610.0 1796 2213 2395 2169 1625 1023 704 580 545 588
1650.0 681 829 890 1014 1213 1541 2065 3041 4544 6544
1690.0 7777 8377 7727 5678 3799 2480 1612 1082 760 627
1730.0 567 563 580 698 792 802 764 650 494 365
1770.0 321 295 266 239 236 220 209 201 234 263
1810.0 275 268 249 209 181 191 203 197 192 193
1850.0 172 153 139 158 170 168 156 161 157 149
1890.0 166 185 191 180 180 179 178 196 233 238
1930.0 223 193 189 205 209 218 217 205 164 164
1970.0 156 150 139 150 158 155 149 149 145 133
2010.0 128 141 147 135 142 134 134 116 129 134
2050.0 134 126 134 132 128 126 143 150 137 137
2090.0 137 134 119 137 145 149 134 137 135 129
2130.0 122 135 139 134 128 133 131 120 131 139
2170.0 139 126 126 126 119 107 118 125 116 105
2210.0 105 103 93 103 115 129 109 116 121 115
2250.0 109 122 133 126 125 132 132 117 124 142
2290.0 142 124 117 111 104 89 103 125 108 86
2330.0 98 98 88 88 93 146 109 110 121 126
2370.0 96 119 132 128 118 127 131 127 126 139
2410.0 150 131 128 132 134 121 142 155 153 132
2450.0 138 138 138 138 155 160 142 136 130 134
2490.0 120 135 148 150 130 131 136 130 125 136
2530.0 149 141 141 140 155 147 151 166 166 142
2570.0 142 134 133 128 141 148 138 127 134 141
2610.0 135 145 164 181 163 164 163 162 150 165
2650.0 168 154 139 135 139 127 132 139 157 143
2690.0 147 152 164 151 172 181 176 161 162 167
2730.0 168 168 181 190 178 174 176 180 175 193
2770.0 207 211 190 190 203 195 197 207 218 193
2810.0 186 192 202 195 211 224 226 201 200 208
2850.0 205 210 228 248 234 241 261 300 340 396
2890.0 428 434 398 400 433 467 491 520 524 495
2930.0 478 510 618 712 805 829 780 665 626 656
2970.0 734 832 1011 1275 1509 1594 1563 1389 1104 944
3010.0 832 749 621 557 520 507 478 467 463 451
3050.0 471 531 619 667 746 803 840 789 749 681
3090.0 656 620 604 578 517 430 380 367 338 331
3130.0 326 334 305 305 311 333 331 367 373 392
3170.0 388 427 478 502 543 582 631 655 708 789
3210.0 896 976 1124 1279 1440 1568 1720 1852 1903 1924
3250.0 1910 1863 1745 1630 1525 1456 1350 1266 1204 1147
3290.0 1052 1007 970 939 893 868 856 780 738 725
3330.0 738 717 709 700 679 626 618 613 603 581
3370.0 581 564 521 495 472 483 452 438 416 401
3410.0 355 339 334 349 328 320 315 295 272 281
3450.0 298 293 315 335 391 427 496 536 552 507
3490.0 445 384 332 292 278 292 282 265 258 253
3530.0 210 196 203 215 209 198 197 181 161 166
3570.0 179 177 161 167 171 146 130 130 149 136
3610.0 143 145 134 111 125 142 138 135 128 140
3650.0 131 112 123 124 126 139 139 116 96 95
3690.0 108 103 105 99 98 98 92 100 121 118
3730.0 113 125 124 107 114 138 134 122 110 110
3770.0 95 88 88 95 101 92 95 97 88 88
3810.0 88 96 102 102 103 100 90 98 120 119
3850.0 118 121 107 92 88 96 107 98 90 88
3890.0 88 88 88 90 103 97 88 88 88 88
3930.0 101 132 140 136 133 116 87 88 88 88
##END=
