##TITLE=Benzoic acid, 2-methyl-
##JCAMP-DX=4.24
##DATA TYPE=INFRARED SPECTRUM
##ORIGIN=Sadtler Research Labs Under US-EPA Contract
##OWNER=NIST Standard Reference Data Program
##CAS REGISTRY NO=118-90-1
##MOLFORM=C 8 H 8 O 2
##XUNITS=1/CM
##YUNITS=ABSORBANCE
##XFACTOR=1.0
##YFACTOR=0.000060724
##DELTAX=4.0
##FIRSTX=450.0
##LASTX=3966.0
##FIRSTY=0.014938
##MAXX=3966
##MINX=450
##MAXY=0.60724
##MINY=0
##NPOINTS=880
##XYDATA=(X++(Y..Y))
450.0 246 123 144 237 59 80 87 126 152 106
490.0 133 157 159 179 228 182 277 317 330 378
530.0 399 445 481 585 635 739 788 850 894 1033
570.0 1163 1353 1428 1242 1146 885 691 571 501 447
610.0 386 413 403 576 912 1362 1573 1715 1539 1231
650.0 671 265 163 80 118 118 159 135 184 211
690.0 302 359 441 412 391 437 559 944 1415 2030
730.0 2250 3449 4062 2739 2086 1704 1089 692 431 337
770.0 231 209 146 123 100 65 66 91 115 107
810.0 163 195 220 214 221 180 132 128 88 73
850.0 54 49 35 11 13 26 16 27 19 27
890.0 32 28 44 41 52 68 68 71 82 58
930.0 63 41 44 50 53 66 71 57 54 59
970.0 48 59 68 72 77 83 86 85 120 127
1010.0 168 215 269 329 391 502 709 1099 1674 2485
1050.0 3454 4013 4004 3953 3434 2390 1680 1412 1326 1287
1090.0 1245 1171 1100 1102 1148 1184 1203 1227 1204 1234
1130.0 1377 1547 1566 1533 1497 1371 1249 1279 1498 2032
1170.0 2896 3680 4132 4354 4319 3612 2621 1839 1249 903
1210.0 757 658 590 529 470 420 395 381 383 411
1250.0 492 601 712 813 876 880 853 843 819 797
1290.0 797 804 803 821 873 918 951 966 992 1060
1330.0 1238 1445 1598 1650 1589 1383 1059 750 592 459
1370.0 422 396 394 388 407 375 353 321 258 194
1410.0 180 182 175 220 243 300 344 435 486 582
1450.0 610 680 658 603 619 544 501 476 516 523
1490.0 543 470 467 369 321 253 277 254 179 184
1530.0 108 150 52 183 78 147 99 189 160 224
1570.0 287 326 304 358 327 325 344 431 431 461
1610.0 428 350 256 165 144 85 93 97 104 22
1650.0 135 30 96 77 122 44 171 86 201 157
1690.0 208 259 220 327 386 535 541 784 937 1042
1730.0 1224 1455 2139 3071 5981 7515 9668 9472 10000 7501
1770.0 4774 2274 1543 1159 1209 1073 1094 917 693 525
1810.0 399 314 197 219 125 152 69 130 79 83
1850.0 96 76 76 57 87 38 71 43 64 45
1890.0 49 70 56 87 75 98 78 99 100 89
1930.0 98 81 91 55 79 52 72 61 81 56
1970.0 51 51 36 36 27 43 20 35 20 31
2010.0 21 19 19 9 14 7 15 0 10 8
2050.0 5 5 5 12 1 18 5 17 6 16
2090.0 15 13 22 28 25 29 42 30 37 20
2130.0 27 14 15 21 19 25 14 22 13 23
2170.0 17 11 14 15 20 13 21 15 21 15
2210.0 15 14 11 12 7 14 6 14 4 15
2250.0 7 16 12 10 16 14 25 20 28 26
2290.0 46 54 71 76 85 113 93 104 110 114
2330.0 114 131 102 134 133 119 148 117 154 117
2370.0 130 121 108 87 64 56 39 38 24 38
2410.0 27 32 33 29 22 23 30 20 28 24
2450.0 27 28 35 26 23 29 25 35 19 28
2490.0 24 25 21 31 23 23 28 22 28 24
2530.0 26 16 23 19 23 20 19 24 20 33
2570.0 23 38 30 39 42 33 33 33 33 29
2610.0 37 28 32 31 30 29 26 39 24 29
2650.0 32 38 30 40 36 33 41 26 43 26
2690.0 35 29 32 31 44 29 35 38 37 43
2730.0 37 51 45 52 58 61 62 66 74 60
2770.0 59 58 62 45 51 55 54 56 60 61
2810.0 67 65 65 74 73 84 76 87 97 96
2850.0 111 118 138 150 176 192 205 212 218 226
2890.0 222 206 203 195 203 218 222 239 276 314
2930.0 368 443 524 556 574 573 550 506 483 497
2970.0 516 528 560 555 536 491 438 372 318 277
3010.0 272 259 282 317 387 438 486 508 506 476
3050.0 451 463 503 575 648 725 770 779 711 624
3090.0 522 391 290 228 212 192 182 164 138 131
3130.0 109 109 98 102 98 107 100 113 102 71
3170.0 77 79 79 76 82 79 76 75 64 74
3210.0 68 80 50 75 58 71 67 73 62 68
3250.0 61 63 63 68 66 63 80 70 60 62
3290.0 55 64 70 77 52 67 69 72 66 62
3330.0 67 62 71 77 80 77 78 76 89 72
3370.0 73 75 64 78 72 71 69 90 68 67
3410.0 77 64 65 56 63 55 73 83 80 70
3450.0 78 86 90 86 76 95 94 104 102 96
3490.0 113 124 125 98 91 82 71 83 97 81
3530.0 94 113 111 116 109 139 234 498 913 1342
3570.0 1810 2380 2784 2595 2249 1791 1233 596 218 151
3610.0 104 91 55 101 109 54 130 99 123 156
3650.0 114 186 119 162 92 82 105 64 123 56
3690.0 104 35 84 92 69 129 44 79 91 62
3730.0 119 61 113 14 155 40 74 117 79 83
3770.0 110 101 77 82 90 118 78 165 14 131
3810.0 84 88 143 52 127 88 71 108 136 44
3850.0 128 115 89 118 79 78 75 134 29 169
3890.0 19 144 96 116 77 143 95 51 123 71
3930.0 125 99 94 133 138 90 118 112 106 109
##END=
