##TITLE=Benzene, 1,3-dichloro-2-methyl-
##JCAMP-DX=4.24
##DATA TYPE=INFRARED SPECTRUM
##ORIGIN=Sadtler Research Labs Under US-EPA Contract
##OWNER=NIST Standard Reference Data Program
##CAS REGISTRY NO=118-69-4
##MOLFORM=C 7 H 6 Cl 2
##XUNITS=1/CM
##YUNITS=ABSORBANCE
##XFACTOR=1.0
##YFACTOR=0.000097046
##DELTAX=4.0
##FIRSTX=450.0
##LASTX=3966.0
##FIRSTY=0.043865
##MAXX=3966
##MINX=450
##MAXY=0.97046
##MINY=0
##NPOINTS=880
##XYDATA=(X++(Y..Y))
450.0 452 196 14 159 183 22 191 74 226 156
490.0 275 192 202 129 137 127 56 174 81 142
530.0 79 141 68 108 108 107 114 67 169 77
570.0 153 129 210 181 227 239 245 212 159 173
610.0 77 147 116 123 106 129 112 84 134 88
650.0 115 76 153 78 122 140 225 353 597 1022
690.0 1088 1842 1805 1001 902 515 293 197 167 163
730.0 166 198 228 349 697 1632 3324 5683 7942 8952
770.0 9580 10000 7094 5635 4109 2079 919 456 366 276
810.0 246 203 194 177 183 182 175 180 161 150
850.0 121 132 125 140 138 151 133 130 136 133
890.0 175 163 175 151 137 118 120 116 121 141
930.0 144 185 198 227 258 301 346 418 548 722
970.0 958 1249 1580 1883 2262 2816 3405 3806 3840 3371
1010.0 2463 1591 1041 802 711 698 733 800 859 894
1050.0 898 873 857 841 830 878 1067 1498 2172 2685
1090.0 3208 3146 2608 2068 1085 524 278 179 156 140
1130.0 165 150 179 191 271 327 402 489 488 440
1170.0 381 304 227 248 270 387 664 1059 1225 1184
1210.0 1025 535 258 154 134 102 104 98 109 130
1250.0 178 306 462 595 599 538 341 187 130 119
1290.0 137 156 193 179 192 158 141 121 121 114
1330.0 112 135 148 162 130 161 138 167 183 208
1370.0 244 347 516 602 764 777 732 572 506 468
1410.0 563 792 1303 2310 3772 5835 7035 7587 6997 5745
1450.0 4030 3003 2237 1662 1373 1230 1181 1054 1011 1010
1490.0 1034 954 856 686 546 455 332 356 283 345
1530.0 317 368 443 594 799 1031 1846 2482 3528 4056
1570.0 4416 4165 3583 2753 1870 1245 863 455 374 225
1610.0 199 157 163 139 107 140 111 158 102 176
1650.0 180 268 319 340 332 268 243 124 144 136
1690.0 108 79 120 113 80 72 80 126 79 91
1730.0 105 136 109 97 103 101 97 92 111 118
1770.0 174 218 218 231 209 191 132 114 84 67
1810.0 56 61 48 54 71 82 113 140 219 274
1850.0 295 263 220 150 105 90 55 57 47 54
1890.0 56 69 75 99 136 177 223 248 262 223
1930.0 185 131 90 64 47 41 34 41 35 48
1970.0 38 44 39 37 31 35 35 23 28 25
2010.0 30 32 41 39 36 36 28 31 26 31
2050.0 21 26 24 28 31 27 31 22 22 18
2090.0 22 14 18 16 15 15 14 19 10 16
2130.0 14 18 17 21 19 19 21 20 22 19
2170.0 21 20 23 26 31 31 34 34 28 32
2210.0 25 26 21 22 20 21 21 22 25 22
2250.0 24 19 22 19 23 24 23 25 23 22
2290.0 19 25 27 32 36 39 39 38 45 35
2330.0 43 33 41 18 16 10 16 15 21 32
2370.0 20 30 21 20 16 17 15 15 20 23
2410.0 32 28 33 30 24 20 22 22 20 24
2450.0 26 34 41 54 52 51 52 43 35 23
2490.0 22 17 19 14 14 14 15 15 18 22
2530.0 19 21 13 12 3 1 1 2 2 1
2570.0 4 4 11 11 21 24 30 31 30 27
2610.0 21 18 11 15 17 21 24 30 37 37
2650.0 45 44 47 41 38 30 26 16 15 13
2690.0 13 15 13 14 14 14 11 10 8 8
2730.0 12 15 18 21 30 30 34 31 24 19
2770.0 15 19 16 16 17 19 18 22 22 22
2810.0 26 28 34 38 46 51 58 65 70 73
2850.0 78 89 108 150 193 234 250 245 233 206
2890.0 186 175 176 184 202 224 259 295 342 416
2930.0 508 623 736 831 879 873 820 753 663 547
2970.0 458 382 312 266 235 214 204 195 190 196
3010.0 201 201 204 211 227 250 271 293 313 334
3050.0 368 416 476 563 643 692 733 785 796 713
3090.0 628 507 316 194 140 122 114 115 111 102
3130.0 104 95 89 66 52 41 32 15 16 13
3170.0 11 12 11 11 8 10 10 8 11 8
3210.0 7 5 9 11 9 9 6 5 7 11
3250.0 6 4 3 5 3 7 8 12 10 12
3290.0 8 7 7 5 8 5 6 5 10 6
3330.0 2 4 11 6 6 5 0 8 7 6
3370.0 10 5 6 5 11 3 10 7 6 7
3410.0 8 5 2 10 9 12 11 12 10 9
3450.0 11 13 9 10 12 13 14 10 12 14
3490.0 14 13 9 11 9 14 5 10 12 8
3530.0 11 9 12 11 4 8 8 8 12 6
3570.0 15 14 16 16 10 17 10 11 13 13
3610.0 14 15 15 12 10 12 20 15 17 20
3650.0 13 31 16 19 20 27 26 15 19 6
3690.0 10 9 12 5 10 13 22 20 13 5
3730.0 19 17 27 1 30 9 14 36 25 23
3770.0 23 31 22 27 27 20 22 21 16 20
3810.0 21 17 24 19 37 30 24 46 40 45
3850.0 48 41 48 51 48 53 56 60 41 64
3890.0 48 57 45 31 41 35 24 26 36 21
3930.0 21 27 25 21 28 17 30 26 24 20
##END=
