##TITLE=Benzene, hexachloro-
##JCAMP-DX=4.24
##DATA TYPE=INFRARED SPECTRUM
##ORIGIN=Sadtler Research Labs Under US-EPA Contract
##OWNER=NIST Standard Reference Data Program
##CAS REGISTRY NO=118-74-1
##MOLFORM=C 6 Cl 6
##XUNITS=1/CM
##YUNITS=ABSORBANCE
##XFACTOR=1.0
##YFACTOR=0.000061768
##DELTAX=4.0
##FIRSTX=450.0
##LASTX=3966.0
##FIRSTY=0.003768
##MAXX=3966
##MINX=450
##MAXY=0.61768
##MINY=0
##NPOINTS=880
##XYDATA=(X++(Y..Y))
450.0 61 51 28 19 63 63 40 60 52 59
490.0 65 116 79 132 132 108 107 34 34 106
530.0 125 70 121 62 71 90 51 3 121 62
570.0 30 88 103 102 128 100 59 103 81 66
610.0 82 74 72 109 111 69 97 106 101 119
650.0 127 117 160 190 192 261 319 598 1096 1732
690.0 2668 4069 4740 3606 2072 1234 805 506 279 205
730.0 221 277 188 148 58 89 105 65 94 106
770.0 104 139 187 162 82 84 94 77 97 106
810.0 96 115 156 83 65 98 72 70 94 98
850.0 77 84 92 68 102 98 92 103 94 118
890.0 134 94 72 116 91 113 138 182 234 299
930.0 270 241 205 197 152 138 98 92 92 91
970.0 96 96 85 76 74 57 65 89 76 97
1010.0 102 99 110 106 96 84 89 85 73 80
1050.0 72 63 79 67 77 95 79 69 79 68
1090.0 54 79 77 85 84 79 91 107 88 88
1130.0 83 80 68 86 66 68 67 60 75 73
1170.0 68 72 66 74 72 86 98 103 115 105
1210.0 72 80 65 58 78 71 79 85 94 95
1250.0 128 141 166 207 217 239 284 355 508 748
1290.0 1081 1537 2055 2314 1991 1369 793 512 471 603
1330.0 1133 2375 4653 7664 10000 9321 6409 3271 906 233
1370.0 132 122 99 123 147 141 160 159 147 145
1410.0 131 105 98 96 96 111 138 130 160 155
1450.0 125 117 67 71 71 62 39 47 62 54
1490.0 52 55 44 50 51 33 58 45 35 39
1530.0 58 43 43 37 44 57 54 46 54 81
1570.0 71 86 86 98 98 88 73 70 57 50
1610.0 53 60 33 52 55 43 44 39 46 30
1650.0 46 21 54 56 61 43 56 49 52 26
1690.0 45 39 45 29 61 77 86 78 90 70
1730.0 72 55 54 53 59 42 42 50 43 42
1770.0 34 35 46 42 47 43 39 40 41 56
1810.0 41 39 55 39 37 32 35 39 40 27
1850.0 29 39 38 37 45 39 45 52 49 50
1890.0 50 44 45 52 51 53 59 52 51 60
1930.0 60 47 48 43 37 44 39 27 35 33
1970.0 33 42 34 34 47 42 35 41 32 33
2010.0 30 30 32 40 32 23 38 33 32 35
2050.0 30 29 29 35 29 39 37 37 36 38
2090.0 35 43 46 32 37 35 28 38 25 26
2130.0 27 26 26 33 25 32 41 34 34 33
2170.0 32 35 43 40 33 40 41 32 33 34
2210.0 42 43 53 53 63 70 55 47 39 30
2250.0 37 39 27 35 30 24 24 33 27 36
2290.0 44 28 37 36 35 50 45 30 43 36
2330.0 19 33 21 16 17 50 41 53 63 21
2370.0 27 32 7 33 38 29 33 32 22 22
2410.0 23 24 29 26 23 25 22 20 24 28
2450.0 21 21 28 13 19 28 20 16 26 13
2490.0 23 27 16 18 18 11 18 27 16 25
2530.0 19 14 17 20 13 16 25 9 9 16
2570.0 9 15 23 11 20 26 8 19 21 13
2610.0 16 22 14 13 21 21 20 25 21 12
2650.0 17 11 16 21 10 12 20 12 12 20
2690.0 12 16 22 18 22 29 24 37 45 36
2730.0 36 36 23 18 27 21 20 32 21 23
2770.0 22 19 13 28 29 12 28 23 10 21
2810.0 25 19 25 23 15 22 20 13 29 15
2850.0 11 29 27 28 40 30 14 38 20 6
2890.0 30 30 28 33 24 28 29 29 35 37
2930.0 41 39 47 37 39 46 33 30 37 27
2970.0 19 37 28 21 38 37 9 38 15 6
3010.0 37 36 23 27 22 18 26 17 22 24
3050.0 29 22 30 40 23 38 32 27 34 27
3090.0 15 35 30 32 16 40 24 27 37 21
3130.0 33 39 19 44 30 12 43 16 7 32
3170.0 24 21 33 30 20 25 21 18 18 34
3210.0 16 33 33 26 30 35 27 36 24 26
3250.0 33 23 11 22 30 9 8 33 12 12
3290.0 40 11 37 30 22 17 26 16 35 24
3330.0 33 32 41 12 35 25 29 27 39 32
3370.0 26 41 10 34 35 27 23 19 8 33
3410.0 36 22 37 30 24 28 42 18 24 52
3450.0 18 16 45 29 37 44 21 8 24 19
3490.0 35 38 27 7 29 20 36 37 15 24
3530.0 50 9 26 36 27 25 37 20 10 35
3570.0 25 30 34 32 22 34 28 36 36 43
3610.0 26 22 26 34 30 2 17 36 33 38
3650.0 37 20 19 37 30 14 30 19 19 29
3690.0 18 14 27 20 12 19 15 28 20 22
3730.0 35 27 9 22 12 1 20 29 21 37
3770.0 34 25 37 41 32 23 37 14 14 21
3810.0 26 38 28 13 11 38 19 23 25 13
3850.0 14 26 34 23 39 14 13 21 26 23
3890.0 30 20 19 38 35 26 14 4 14 22
3930.0 23 27 53 40 25 34 0 2 2 2
##END=
