##TITLE=Homosalate
##JCAMP-DX=4.24
##DATA TYPE=INFRARED SPECTRUM
##ORIGIN=Sadtler Research Labs Under US-EPA Contract
##OWNER=NIST Standard Reference Data Program
##CAS REGISTRY NO=118-56-9
##MOLFORM=C 16 H 22 O 3
##XUNITS=1/CM
##YUNITS=ABSORBANCE
##XFACTOR=1.0
##YFACTOR=0.000103168
##DELTAX=4.0
##FIRSTX=450.0
##LASTX=3966.0
##FIRSTY=0.021356
##MAXX=3966
##MINX=450
##MAXY=1.03168
##MINY=0
##NPOINTS=880
##XYDATA=(X++(Y..Y))
450.0 207 166 99 83 134 0 129 194 15 166
490.0 148 57 177 129 200 182 361 406 485 668
530.0 657 509 364 204 251 197 226 240 242 292
570.0 224 91 115 123 114 119 141 64 94 147
610.0 141 168 143 86 157 140 134 203 189 241
650.0 328 529 737 824 839 579 537 501 483 623
690.0 749 970 1335 1518 1550 1274 1123 1059 899 793
730.0 609 543 625 739 1309 2250 3145 2443 1510 916
770.0 544 383 265 212 277 312 369 443 346 256
810.0 184 132 177 164 183 185 78 100 154 250
850.0 310 408 533 598 584 440 366 292 198 224
890.0 231 247 265 300 264 301 327 374 532 836
930.0 1085 1114 926 708 676 640 498 414 297 267
970.0 271 304 408 553 817 909 767 541 488 616
1010.0 729 712 603 576 820 1034 1113 1057 897 781
1050.0 671 597 711 881 1268 1801 2536 3390 4235 4549
1090.0 3531 2112 1318 1049 1066 1132 1186 1367 1666 2263
1130.0 3249 4357 4698 3434 2479 3903 7881 9371 5946 3208
1170.0 2751 3542 3862 3494 2697 2122 2155 2593 3554 5151
1210.0 6952 7726 6636 4930 4057 3858 4168 4738 5690 7040
1250.0 7672 7044 5107 3427 2820 2760 2729 2846 3081 3500
1290.0 4322 6083 8525 10000 8701 6085 4462 4283 4412 4171
1330.0 3849 3360 2866 2223 1862 1687 1592 1574 1571 1846
1370.0 2302 2783 2752 2328 2105 2063 2090 2033 1861 1797
1410.0 1722 1645 1615 1473 1404 1307 1209 1133 992 1009
1450.0 1196 1433 2063 2425 2588 2777 3039 3452 3763 3767
1490.0 3054 2068 1439 1167 1074 840 647 495 379 358
1530.0 305 284 282 253 291 292 322 415 432 491
1570.0 611 851 1229 1707 1879 1743 1492 1388 1474 1816
1610.0 2246 2693 2316 1695 1114 678 594 585 582 712
1650.0 870 971 1207 1342 1730 2405 3287 5229 6289 7367
1690.0 7331 5811 4180 2727 1971 1356 1139 937 887 875
1730.0 851 1023 1128 1183 1062 776 551 379 297 269
1770.0 210 203 152 143 124 116 127 124 174 189
1810.0 182 164 106 86 95 87 99 81 76 80
1850.0 54 47 40 47 55 45 57 36 36 58
1890.0 63 84 75 56 76 77 105 135 158 129
1930.0 78 73 73 96 113 101 76 42 28 32
1970.0 22 20 21 22 25 37 28 17 11 20
2010.0 14 25 25 16 25 21 27 24 16 26
2050.0 26 33 23 21 31 29 32 24 20 25
2090.0 26 30 28 16 22 19 19 28 11 21
2130.0 19 23 27 25 30 25 34 34 26 30
2170.0 28 27 26 16 21 16 18 20 14 19
2210.0 16 21 24 20 21 19 28 35 28 29
2250.0 19 17 23 17 22 22 27 34 34 32
2290.0 28 35 37 30 35 29 24 40 24 22
2330.0 27 24 37 11 25 16 11 26 35 36
2370.0 27 40 58 57 57 50 46 45 38 45
2410.0 44 39 46 45 50 48 48 55 52 54
2450.0 50 53 62 54 54 52 46 51 49 52
2490.0 51 48 56 58 59 57 55 59 60 63
2530.0 60 60 70 72 77 81 72 73 71 73
2570.0 72 71 73 74 76 75 75 80 85 91
2610.0 101 105 111 122 125 124 118 116 110 108
2650.0 107 104 99 99 102 101 102 107 113 121
2690.0 133 142 152 149 149 150 155 160 171 183
2730.0 194 199 193 183 186 191 181 181 184 183
2770.0 190 198 202 208 214 223 227 223 229 247
2810.0 274 295 325 366 427 515 661 912 1254 1464
2850.0 1364 1106 955 963 1120 1430 1885 2338 2547 2445
2890.0 2247 2157 2254 2531 2957 3420 3905 4218 4149 3842
2930.0 3728 3947 4107 3927 3645 3733 4732 6564 7619 6320
2970.0 3912 2130 1258 943 844 907 1071 1168 1056 735
3010.0 536 454 420 413 420 432 429 424 428 451
3050.0 517 587 656 720 779 873 932 890 796 714
3090.0 676 649 599 538 459 407 389 368 348 337
3130.0 337 349 366 373 376 401 423 448 484 519
3170.0 541 575 610 639 673 710 778 834 888 959
3210.0 1018 1102 1177 1246 1302 1336 1365 1377 1373 1357
3250.0 1321 1283 1236 1178 1123 1079 1032 1009 988 958
3290.0 930 911 883 864 832 804 785 772 765 752
3330.0 728 709 693 677 660 628 613 599 597 585
3370.0 545 524 505 483 456 435 411 406 393 376
3410.0 355 338 343 327 329 318 311 318 354 395
3450.0 465 489 536 518 493 442 423 365 350 316
3490.0 291 272 262 243 238 203 196 179 179 166
3530.0 160 135 131 125 133 118 101 108 120 118
3570.0 122 132 159 151 150 122 90 61 67 76
3610.0 63 51 24 67 60 55 39 50 43 41
3650.0 26 45 47 49 57 33 33 20 30 42
3690.0 33 46 27 39 39 29 29 10 23 16
3730.0 41 20 16 15 4 58 23 38 13 41
3770.0 55 36 46 30 39 46 43 36 40 42
3810.0 61 48 39 7 37 45 35 40 15 45
3850.0 44 57 53 65 21 33 50 51 41 33
3890.0 67 59 45 41 59 68 78 77 26 24
3930.0 48 79 90 87 55 66 74 63 59 5
##END=
