##TITLE=5-Chloro-2-nitrobenzotrifluoride
##JCAMP-DX=4.24
##DATA TYPE=INFRARED SPECTRUM
##ORIGIN=Sadtler Research Labs Under US-EPA Contract
##OWNER=NIST Standard Reference Data Program
##CAS REGISTRY NO=118-83-2
##MOLFORM=C 7 H 3 Cl F 3 N O 2
##XUNITS=1/CM
##YUNITS=ABSORBANCE
##XFACTOR=1.0
##YFACTOR=0.000046112
##DELTAX=4.0
##FIRSTX=450.0
##LASTX=3966.0
##FIRSTY=0.000000
##MAXX=3966
##MINX=450
##MAXY=0.46112
##MINY=0
##NPOINTS=880
##XYDATA=(X++(Y..Y))
450.0 0 550 934 637 798 673 820 608 572 759
490.0 572 753 944 849 898 914 1002 1214 1308 1230
530.0 964 909 849 751 783 724 815 866 951 924
570.0 868 882 717 727 756 735 764 822 870 889
610.0 927 811 750 672 625 655 669 625 667 641
650.0 709 868 897 862 733 640 641 698 662 661
690.0 678 646 676 662 688 684 788 833 974 1245
730.0 1233 1138 865 727 701 759 777 823 808 728
770.0 689 647 677 619 626 649 701 715 729 726
810.0 737 729 713 714 828 1039 1317 1563 1381 1089
850.0 954 963 1564 2580 3132 2822 1765 939 787 807
890.0 956 1141 1342 1084 880 776 659 642 615 627
930.0 608 603 631 620 652 666 696 699 704 697
970.0 718 707 712 704 713 735 724 725 729 727
1010.0 719 727 728 727 734 764 828 948 1178 1578
1050.0 1998 2170 2001 1554 1102 878 809 815 852 884
1090.0 907 952 1099 1434 1788 1986 1977 1835 1724 1645
1130.0 1604 1615 1864 2171 2339 2287 2100 2277 2746 3520
1170.0 4707 6404 8391 9772 10000 8602 6283 4153 2810 2104
1210.0 1807 1668 1556 1426 1262 1119 1036 987 942 930
1250.0 961 1070 1291 1622 2022 2564 3136 3392 3175 2710
1290.0 2649 3738 6174 8358 8654 6680 3925 2496 2016 1729
1330.0 1585 1459 1489 1705 2285 3287 4475 5067 4631 3435
1370.0 2289 1677 1446 1446 1510 1624 1771 1940 2008 1828
1410.0 1462 1096 929 886 907 910 893 844 820 808
1450.0 808 811 783 816 864 936 1031 1205 1355 1345
1490.0 1173 957 858 827 858 883 933 1011 1069 1152
1530.0 1226 1362 1516 1829 2365 3300 4702 6114 6801 5906
1570.0 4522 3388 2682 2396 2192 2029 1802 1549 1387 1260
1610.0 1145 1040 953 881 827 802 789 771 754 754
1650.0 742 756 734 727 706 718 718 704 700 702
1690.0 686 687 698 705 706 713 724 739 741 739
1730.0 751 749 734 715 717 734 758 789 847 879
1770.0 908 908 908 926 941 961 946 901 827 763
1810.0 727 707 687 674 672 670 667 659 659 656
1850.0 657 659 658 660 654 647 647 648 642 644
1890.0 639 644 658 666 678 701 702 692 671 655
1930.0 649 641 643 645 647 654 652 655 649 644
1970.0 645 639 654 645 648 661 655 650 643 641
2010.0 633 622 612 612 608 610 608 611 608 614
2050.0 606 595 600 598 599 604 617 633 657 664
2090.0 662 663 659 660 650 661 649 651 649 651
2130.0 649 649 656 657 648 642 644 640 644 647
2170.0 645 646 643 646 641 640 645 639 638 639
2210.0 633 632 635 646 654 649 646 646 629 637
2250.0 647 647 632 637 631 635 635 630 641 640
2290.0 652 647 646 661 664 682 689 703 715 676
2330.0 668 656 627 652 593 659 765 734 629 554
2370.0 555 555 555 555 568 602 617 624 625 627
2410.0 624 629 622 624 622 612 613 600 605 605
2450.0 606 606 601 605 602 607 598 596 600 598
2490.0 595 596 588 583 590 587 588 589 588 588
2530.0 591 586 591 586 596 587 583 590 585 584
2570.0 589 594 587 586 579 585 578 574 577 568
2610.0 574 579 584 587 608 607 612 615 608 623
2650.0 616 609 630 635 646 648 630 619 607 595
2690.0 588 579 586 588 590 588 590 590 584 588
2730.0 583 594 588 576 577 573 565 577 571 573
2770.0 570 557 566 565 563 566 562 566 562 556
2810.0 569 575 566 562 565 568 563 562 570 576
2850.0 573 571 583 584 588 583 588 592 606 608
2890.0 617 622 633 662 662 668 668 646 635 607
2930.0 615 602 604 600 582 593 590 584 581 588
2970.0 585 575 569 568 568 577 570 584 598 574
3010.0 584 585 595 578 584 591 590 588 607 583
3050.0 597 608 597 597 617 618 608 588 599 621
3090.0 623 615 623 631 621 628 658 632 623 607
3130.0 599 598 597 603 600 589 598 596 592 590
3170.0 584 588 607 592 616 612 608 588 596 605
3210.0 616 604 611 596 602 615 604 597 609 629
3250.0 630 614 610 597 601 591 594 603 603 596
3290.0 606 589 596 611 621 609 574 618 615 606
3330.0 596 605 603 599 602 599 604 626 611 636
3370.0 595 627 599 624 574 621 632 575 591 593
3410.0 648 618 605 615 652 612 615 624 601 637
3450.0 635 607 622 631 634 596 638 647 628 636
3490.0 637 618 641 641 625 612 621 631 650 632
3530.0 623 647 626 620 628 621 651 610 626 637
3570.0 660 659 664 646 663 642 682 649 641 668
3610.0 642 616 642 651 660 627 632 585 660 669
3650.0 596 602 632 627 613 607 633 623 601 597
3690.0 637 601 568 616 610 603 625 673 652 647
3730.0 664 634 598 582 565 593 583 574 623 610
3770.0 593 609 616 619 622 642 609 601 648 598
3810.0 607 647 624 648 659 616 598 625 608 608
3850.0 592 652 632 603 556 570 601 586 660 648
3890.0 584 602 649 706 575 558 589 665 627 673
3930.0 615 652 592 648 664 566 608 594 548 638
##END=
