##TITLE=Benzoic acid, 2-hydroxy-, phenyl ester
##JCAMP-DX=4.24
##DATA TYPE=INFRARED SPECTRUM
##ORIGIN=Sadtler Research Labs Under US-EPA Contract
##OWNER=NIST Standard Reference Data Program
##CAS REGISTRY NO=118-55-8
##MOLFORM=C 13 H 10 O 3
##XUNITS=1/CM
##YUNITS=ABSORBANCE
##XFACTOR=1.0
##YFACTOR=0.000065479
##DELTAX=4.0
##FIRSTX=450.0
##LASTX=3966.0
##FIRSTY=0.002488
##MAXX=3966
##MINX=450
##MAXY=0.65479
##MINY=0
##NPOINTS=880
##XYDATA=(X++(Y..Y))
450.0 38 35 106 101 124 172 240 152 162 254
490.0 450 545 432 318 208 243 278 251 103 104
530.0 124 150 247 180 170 239 289 268 382 526
570.0 515 433 303 378 539 515 311 118 0 124
610.0 259 300 190 164 173 195 262 264 250 368
650.0 349 329 447 672 891 1120 1045 1113 1345 1818
690.0 1693 1397 1242 1085 1163 870 607 512 474 627
730.0 783 1062 1530 2129 2521 2545 2332 2093 1637 1088
770.0 673 302 295 320 489 245 122 408 597 554
810.0 522 381 347 432 293 202 260 208 219 129
850.0 166 224 422 520 413 320 262 303 279 171
890.0 124 103 166 213 245 280 355 389 348 356
930.0 294 266 250 173 147 176 191 195 123 64
970.0 60 160 191 157 164 151 265 322 348 410
1010.0 379 218 148 268 407 766 661 311 304 661
1050.0 1101 1976 2798 3106 3013 2274 1160 817 552 311
1090.0 402 459 589 651 687 706 924 897 1378 1676
1130.0 1545 1156 849 1076 1748 2736 4369 5196 4977 4000
1170.0 3260 2841 3448 4563 6416 8288 10000 9802 7963 5364
1210.0 3647 2908 2572 2401 2347 2286 2237 2351 2842 3634
1250.0 4109 3854 3149 2499 2174 1941 1814 1900 2135 2520
1290.0 3139 4281 5598 6160 5379 4099 3036 2506 2309 2172
1330.0 1969 1606 1156 950 827 809 798 785 747 732
1370.0 745 769 832 905 976 1062 1185 1210 1169 1079
1410.0 986 894 794 667 565 510 459 437 438 471
1450.0 613 850 1134 1496 1851 2220 2511 2809 2946 3003
1490.0 3256 3387 2880 2017 1201 1020 844 588 397 336
1530.0 360 406 399 354 385 387 407 420 500 646
1570.0 830 1144 1550 1961 2205 2273 2239 2139 1956 1860
1610.0 1880 1832 1657 1340 974 685 482 395 370 338
1650.0 336 290 343 388 426 443 482 546 683 910
1690.0 1260 1802 2678 3753 4613 4791 4138 3007 2019 1374
1730.0 924 604 470 411 408 430 539 713 824 845
1770.0 746 528 407 305 224 172 127 128 151 159
1810.0 144 142 123 102 105 93 106 106 94 69
1850.0 76 83 90 90 68 60 77 89 98 96
1890.0 87 89 108 106 102 99 99 114 139 155
1930.0 168 149 122 120 124 147 170 149 95 70
1970.0 77 85 98 85 75 85 97 90 89 73
2010.0 71 71 61 55 70 70 67 59 50 54
2050.0 71 69 60 55 53 85 85 71 62 55
2090.0 48 59 58 50 51 53 41 48 54 62
2130.0 71 56 32 42 58 61 54 36 32 46
2170.0 56 56 48 49 55 56 49 54 49 49
2210.0 39 22 21 42 42 28 12 18 34 57
2250.0 50 33 43 56 64 61 58 48 59 49
2290.0 51 58 66 65 65 52 56 78 85 56
2330.0 17 12 12 56 59 35 12 13 74 81
2370.0 65 79 87 79 81 73 74 83 68 52
2410.0 45 62 70 66 52 44 57 74 76 69
2450.0 52 54 61 54 53 55 47 48 48 50
2490.0 61 83 79 64 47 54 78 77 46 32
2530.0 43 45 55 52 45 54 62 55 63 63
2570.0 71 71 64 55 73 74 71 60 48 55
2610.0 94 101 74 65 65 78 81 63 59 54
2650.0 49 49 48 49 66 73 51 50 67 83
2690.0 101 79 48 55 62 74 64 44 36 51
2730.0 67 67 67 68 74 73 62 74 96 98
2770.0 78 76 66 98 114 90 80 70 88 104
2810.0 88 62 60 66 60 62 53 47 53 47
2850.0 40 65 86 90 85 69 69 103 114 95
2890.0 70 63 78 100 107 90 87 88 91 89
2930.0 91 103 94 71 57 79 81 92 76 46
2970.0 67 111 136 154 125 104 132 155 172 178
3010.0 197 229 259 290 335 412 468 493 537 617
3050.0 707 763 747 701 725 780 848 881 860 802
3090.0 747 661 590 532 455 393 321 236 199 177
3130.0 154 130 101 93 118 149 145 138 129 153
3170.0 199 208 211 220 243 253 267 271 268 272
3210.0 273 267 281 321 374 397 378 412 501 581
3250.0 662 692 735 807 891 934 957 966 966 953
3290.0 909 854 840 822 763 714 676 663 664 626
3330.0 554 531 523 550 563 520 466 472 471 478
3370.0 441 400 384 368 338 334 332 333 322 287
3410.0 256 276 293 267 224 187 157 181 188 159
3450.0 133 126 136 168 166 165 180 198 190 219
3490.0 257 319 381 361 300 279 261 239 219 167
3530.0 152 189 182 161 144 98 105 106 93 110
3570.0 176 233 277 277 274 291 225 131 83 55
3610.0 79 106 83 53 77 109 196 286 367 412
3650.0 428 428 440 430 377 266 156 69 38 46
3690.0 36 30 12 12 33 57 63 45 22 20
3730.0 41 30 17 12 12 12 12 12 12 13
3770.0 13 12 12 21 54 64 25 12 12 34
3810.0 37 14 12 12 12 13 12 13 14 18
3850.0 12 12 14 22 12 12 12 12 12 25
3890.0 19 12 15 67 104 94 64 54 53 38
3930.0 16 12 12 12 12 12 12 12 12 12
##END=
