##TITLE=2,2-Dimethylvaleric acid
##JCAMP-DX=4.24
##DATA TYPE=INFRARED SPECTRUM
##ORIGIN=Sadtler Research Labs Under US-EPA Contract
##OWNER=NIST Standard Reference Data Program
##CAS REGISTRY NO=1185-39-3
##MOLFORM=C 7 H 14 O 2
##XUNITS=1/CM
##YUNITS=ABSORBANCE
##XFACTOR=1.0
##YFACTOR=0.000123257
##DELTAX=4.0
##FIRSTX=450.0
##LASTX=3966.0
##FIRSTY=0.027486
##MAXX=3966
##MINX=450
##MAXY=1.23257
##MINY=0
##NPOINTS=880
##XYDATA=(X++(Y..Y))
450.0 223 80 13 5 17 18 19 28 21 63
490.0 81 77 142 177 252 331 370 467 505 498
530.0 535 557 583 700 744 899 1068 1222 1483 1714
570.0 1980 2181 2372 2452 2508 2294 2070 1778 1462 1226
610.0 1060 938 824 688 545 425 272 206 129 86
650.0 69 52 35 39 51 23 25 23 64 87
690.0 107 154 180 213 266 297 370 457 553 589
730.0 574 531 459 374 314 299 290 319 365 447
770.0 556 627 662 581 505 372 274 214 185 154
810.0 131 115 101 93 89 75 91 120 116 141
850.0 133 115 105 59 45 49 41 55 49 46
890.0 50 48 57 77 89 118 132 131 135 117
930.0 103 116 116 141 159 150 170 162 155 155
970.0 134 115 92 71 91 103 124 174 202 251
1010.0 294 278 269 261 254 276 318 374 460 544
1050.0 657 799 934 1099 1277 1434 1630 1806 1991 2193
1090.0 2415 2806 3469 4455 5789 7095 8098 8403 7519 6285
1130.0 4686 3283 2291 1703 1370 1172 1021 905 828 757
1170.0 720 690 654 652 648 658 681 694 704 699
1210.0 658 617 568 507 466 409 363 324 290 271
1250.0 259 249 260 264 260 276 282 309 345 379
1290.0 415 443 462 495 524 556 601 612 629 631
1330.0 613 597 549 483 423 378 378 419 478 560
1370.0 639 696 688 710 759 792 815 780 673 546
1410.0 407 282 225 209 205 220 259 306 389 491
1450.0 624 788 954 1093 1235 1349 1419 1378 1195 952
1490.0 674 422 272 171 138 120 98 97 91 89
1530.0 89 85 88 104 89 98 95 91 86 69
1570.0 62 64 59 52 56 44 48 49 43 52
1610.0 45 49 49 50 49 53 46 61 55 60
1650.0 68 74 70 73 78 88 97 107 133 150
1690.0 171 204 237 302 388 519 685 844 937 1029
1730.0 1116 1280 1488 1784 2372 3373 4945 6782 8658 9988
1770.0 10000 8239 6318 4323 2714 1853 1382 1082 845 639
1810.0 504 396 320 262 217 178 155 132 119 109
1850.0 84 77 63 54 49 41 36 36 29 31
1890.0 32 28 32 28 27 29 23 28 31 24
1930.0 30 32 26 35 30 24 27 20 22 24
1970.0 14 22 18 18 22 15 16 22 18 22
2010.0 24 26 37 36 38 45 41 48 44 42
2050.0 46 42 40 46 41 39 30 17 17 6
2090.0 2 7 6 10 16 12 24 22 19 25
2130.0 21 22 25 19 21 22 20 24 25 28
2170.0 33 30 32 35 35 36 38 33 43 42
2210.0 43 48 44 49 46 39 43 34 31 29
2250.0 24 26 27 21 25 26 22 29 27 24
2290.0 30 22 24 23 13 15 8 5 4 3
2330.0 8 18 21 35 53 16 2 4 28 76
2370.0 98 107 101 79 69 51 49 52 44 45
2410.0 48 42 50 43 42 48 41 40 44 35
2450.0 41 42 38 50 42 41 48 41 41 43
2490.0 42 49 43 43 42 37 41 46 40 48
2530.0 41 43 50 45 46 52 44 53 55 51
2570.0 56 54 60 67 59 61 65 56 65 62
2610.0 61 62 53 59 64 55 56 62 63 68
2650.0 57 55 57 42 42 44 51 67 64 65
2690.0 73 68 65 71 66 72 77 76 95 94
2730.0 95 118 124 132 142 131 135 119 117 125
2770.0 113 117 119 120 129 141 132 144 145 151
2810.0 173 178 196 219 220 253 263 291 330 370
2850.0 458 561 660 789 937 1097 1403 1757 2042 2194
2890.0 2168 2049 1856 1717 1702 1751 1849 1961 2048 2190
2930.0 2379 2660 3030 3346 3535 3535 3485 3599 4063 4714
2970.0 5396 5815 5536 5138 4490 3709 2970 2175 1547 1066
3010.0 716 507 410 347 308 285 266 259 218 198
3050.0 192 174 174 156 150 148 157 160 142 138
3090.0 133 117 139 121 123 112 108 103 104 114
3130.0 98 122 94 97 94 93 99 98 95 105
3170.0 99 91 94 95 98 95 92 93 94 85
3210.0 97 81 73 85 70 71 64 60 73 67
3250.0 63 66 57 70 66 58 73 68 42 53
3290.0 48 35 60 46 58 49 50 66 72 55
3330.0 78 45 74 55 52 62 53 59 61 39
3370.0 51 57 41 72 55 31 53 21 38 36
3410.0 30 48 51 44 55 30 41 51 45 29
3450.0 48 32 35 32 21 55 45 29 30 55
3490.0 59 40 42 85 77 75 99 107 100 85
3530.0 70 77 81 85 94 110 244 532 1067 1858
3570.0 2628 3021 3098 2617 1867 1094 494 229 146 67
3610.0 87 48 36 41 1 39 87 29 16 41
3650.0 68 51 66 46 72 42 29 16 40 59
3690.0 30 43 65 18 64 74 12 15 33 41
3730.0 45 2 40 39 40 70 51 33 68 53
3770.0 50 59 25 27 37 8 76 33 49 54
3810.0 32 53 70 2 49 36 46 104 59 79
3850.0 67 89 114 88 64 96 43 26 28 1
3890.0 9 12 45 9 23 42 14 6 50 63
3930.0 12 31 20 54 120 0 21 5 2 90
##END=
