##TITLE=Benzenamine, 4-methyl-3-nitro-
##JCAMP-DX=4.24
##DATA TYPE=INFRARED SPECTRUM
##ORIGIN=Sadtler Research Labs Under US-EPA Contract
##OWNER=NIST Standard Reference Data Program
##CAS REGISTRY NO=119-32-4
##MOLFORM=C 7 H 8 N 2 O 2
##XUNITS=1/CM
##YUNITS=ABSORBANCE
##XFACTOR=1.0
##YFACTOR=0.000122287
##DELTAX=4.0
##FIRSTX=450.0
##LASTX=3966.0
##FIRSTY=0.053073
##MAXX=3966
##MINX=450
##MAXY=1.22287
##MINY=0
##NPOINTS=880
##XYDATA=(X++(Y..Y))
450.0 434 373 489 499 579 596 564 553 537 535
490.0 572 659 609 615 546 540 521 527 499 471
530.0 396 396 353 357 366 373 408 387 393 358
570.0 358 366 382 431 433 456 424 432 401 382
610.0 374 365 397 410 454 465 558 637 836 1073
650.0 1346 1550 1653 1617 1542 1383 1279 1212 1243 1315
690.0 1339 1295 1162 996 829 707 611 540 486 458
730.0 443 434 464 482 494 469 447 406 399 381
770.0 386 376 382 367 366 442 576 796 1199 1939
810.0 2795 3088 2799 2245 1391 640 365 251 227 256
850.0 353 480 618 779 771 663 494 361 242 148
890.0 101 56 36 15 30 17 29 45 74 106
930.0 135 142 130 114 71 52 25 38 38 46
970.0 43 44 46 37 42 34 37 37 45 46
1010.0 40 46 44 55 43 56 62 65 69 71
1050.0 74 78 104 118 145 158 179 179 193 210
1090.0 207 210 208 217 199 191 162 145 126 112
1130.0 93 80 99 156 304 456 472 467 416 232
1170.0 111 61 42 43 47 71 96 153 185 202
1210.0 201 183 144 107 95 87 115 149 233 355
1250.0 556 807 974 1016 953 841 714 835 1191 1714
1290.0 2130 2322 2421 2301 1953 1631 1397 1119 962 917
1330.0 962 1059 1285 1651 2204 2970 3639 4086 4101 3658
1370.0 2827 2035 1450 1069 881 724 650 596 487 436
1410.0 426 444 511 526 509 508 503 508 485 544
1450.0 611 682 774 743 742 694 718 662 686 781
1490.0 1017 1312 1738 2406 2798 3279 3422 3724 4163 4721
1530.0 6006 7160 9333 8911 10000 8721 6708 5087 3687 3238
1570.0 2763 2650 2253 1928 1545 1208 974 713 766 766
1610.0 1015 1171 1549 1856 2284 2773 3259 3397 3281 2762
1650.0 2029 1348 780 538 385 357 301 265 270 258
1690.0 197 164 191 156 144 121 156 182 155 138
1730.0 150 168 119 113 104 112 81 75 61 44
1770.0 55 46 27 26 24 19 27 17 26 7
1810.0 10 12 0 11 10 20 7 9 21 34
1850.0 24 14 23 27 50 73 74 76 76 71
1890.0 56 41 23 21 17 25 28 34 42 36
1930.0 38 37 40 44 47 39 41 39 37 42
1970.0 39 37 34 36 33 40 39 33 33 34
2010.0 29 31 31 25 21 19 20 21 22 25
2050.0 24 28 29 35 43 44 42 40 35 32
2090.0 28 25 26 28 27 25 24 24 21 19
2130.0 16 19 20 18 19 24 23 25 24 26
2170.0 25 25 28 27 28 26 28 26 27 23
2210.0 22 20 19 18 20 22 21 21 18 18
2250.0 18 19 17 18 17 18 21 22 24 28
2290.0 33 39 44 48 53 54 50 54 53 50
2330.0 46 48 42 49 51 63 78 69 69 45
2370.0 38 37 37 38 37 38 34 35 37 40
2410.0 39 41 46 45 49 47 49 46 46 42
2450.0 38 36 34 32 29 28 26 29 26 27
2490.0 26 25 25 23 25 25 26 24 26 26
2530.0 30 31 33 42 47 55 55 55 51 50
2570.0 44 45 49 51 56 62 69 72 74 67
2610.0 67 64 59 58 58 56 55 61 59 65
2650.0 63 65 60 56 53 52 55 56 58 60
2690.0 64 63 64 61 59 62 59 58 59 61
2730.0 55 54 56 60 63 70 77 86 86 83
2770.0 80 69 61 60 56 56 59 62 65 69
2810.0 74 77 86 92 102 110 121 130 138 150
2850.0 165 178 203 232 269 304 332 347 356 349
2890.0 339 326 314 305 301 306 310 319 337 367
2930.0 425 511 629 719 738 708 630 500 403 366
2970.0 380 422 480 539 544 514 473 405 341 299
3010.0 279 270 272 299 353 441 540 608 625 595
3050.0 533 470 446 471 499 486 442 368 285 209
3090.0 169 134 115 100 92 85 87 84 76 73
3130.0 75 70 69 62 58 63 58 53 56 55
3170.0 54 50 53 53 53 58 60 68 69 77
3210.0 88 99 107 109 109 117 122 116 106 95
3250.0 85 75 70 59 60 53 50 48 47 46
3290.0 49 53 46 53 53 54 55 56 52 59
3330.0 64 56 74 65 72 79 80 83 94 96
3370.0 104 112 123 137 156 182 224 277 354 452
3410.0 549 611 656 687 660 567 483 360 229 154
3450.0 114 104 102 108 118 133 149 183 217 266
3490.0 316 355 369 366 364 363 357 318 295 238
3530.0 161 103 70 58 47 42 41 43 40 34
3570.0 32 29 34 34 35 31 22 29 29 40
3610.0 28 28 30 24 27 27 30 28 28 34
3650.0 22 20 26 28 28 27 32 23 24 26
3690.0 28 16 30 36 30 35 37 28 40 39
3730.0 39 37 36 26 34 17 28 31 30 35
3770.0 29 30 25 40 30 34 24 39 22 33
3810.0 24 33 46 32 37 16 42 39 42 56
3850.0 82 86 88 96 75 51 38 40 29 39
3890.0 34 25 29 32 31 32 37 37 37 43
3930.0 38 41 41 56 58 51 58 56 39 41
##END=
