##TITLE=Phenol, 2-cyclohexyl-
##JCAMP-DX=4.24
##DATA TYPE=INFRARED SPECTRUM
##ORIGIN=Sadtler Research Labs Under US-EPA Contract
##OWNER=NIST Standard Reference Data Program
##CAS REGISTRY NO=119-42-6
##MOLFORM=C 12 H 16 O
##XUNITS=1/CM
##YUNITS=ABSORBANCE
##XFACTOR=1.0
##YFACTOR=0.000114694
##DELTAX=4.0
##FIRSTX=450.0
##LASTX=3966.0
##FIRSTY=0.000000
##MAXX=3966
##MINX=450
##MAXY=1.14694
##MINY=0
##NPOINTS=880
##XYDATA=(X++(Y..Y))
450.0 0 97 121 184 203 314 370 413 347 336
490.0 339 299 308 299 340 281 286 244 213 217
530.0 192 173 192 232 242 252 230 214 190 174
570.0 174 143 137 118 120 154 145 136 127 108
610.0 103 124 163 186 187 164 117 112 106 106
650.0 95 99 94 81 83 77 90 69 82 84
690.0 90 89 101 102 116 146 187 270 357 501
730.0 721 1110 1572 2173 2654 2489 1795 1215 675 369
770.0 245 195 169 150 152 179 258 341 408 412
810.0 370 303 237 236 289 414 496 513 459 317
850.0 199 166 165 182 194 195 191 196 220 249
890.0 289 297 255 204 153 126 106 100 108 116
930.0 121 125 122 110 106 99 100 103 107 110
970.0 117 122 132 148 187 258 329 375 364 315
1010.0 254 221 223 253 300 343 399 450 475 466
1050.0 415 334 281 266 285 335 410 524 623 694
1090.0 717 660 562 460 366 311 303 323 388 484
1130.0 604 684 739 781 834 911 988 1095 1239 1479
1170.0 1706 1844 1863 1785 1802 1891 1986 1953 1803 1535
1210.0 1289 1105 997 954 965 1070 1228 1475 1680 1731
1250.0 1589 1309 966 750 670 692 779 835 844 766
1290.0 668 569 511 497 570 736 964 1210 1305 1258
1330.0 1025 729 494 372 332 331 311 262 218 178
1370.0 176 153 164 140 145 134 149 157 157 170
1410.0 163 170 170 211 228 289 394 545 844 1214
1450.0 1669 1864 1845 1577 1197 889 820 839 1053 1296
1490.0 1447 1524 1372 1137 939 674 546 435 347 254
1530.0 177 150 119 132 110 131 147 158 190 234
1570.0 338 400 504 611 629 646 593 576 521 505
1610.0 461 386 307 205 158 106 110 81 93 84
1650.0 108 68 114 107 123 135 153 132 145 110
1690.0 118 111 100 104 103 100 87 92 82 86
1730.0 91 90 85 96 96 93 107 110 123 124
1770.0 132 120 127 117 120 105 110 102 102 97
1810.0 98 94 93 87 81 78 69 80 72 87
1850.0 81 87 83 86 84 91 99 111 131 139
1890.0 148 139 130 110 99 95 99 113 125 132
1930.0 121 105 88 76 70 67 66 69 69 68
1970.0 69 68 68 67 68 65 69 65 69 69
2010.0 71 70 71 70 71 71 71 74 73 78
2050.0 75 75 74 70 71 72 73 73 76 74
2090.0 72 70 70 70 69 70 69 71 71 71
2130.0 69 69 69 68 65 66 68 66 68 65
2170.0 65 65 68 69 68 69 69 69 70 70
2210.0 72 72 71 70 75 75 76 76 75 72
2250.0 71 72 70 69 68 66 65 65 66 67
2290.0 68 68 73 74 78 79 83 81 81 82
2330.0 77 75 81 86 68 88 69 82 74 73
2370.0 73 83 81 85 86 85 87 87 87 86
2410.0 89 89 89 89 86 87 85 87 85 84
2450.0 84 82 82 81 85 88 95 102 107 107
2490.0 102 96 89 85 82 83 85 85 85 86
2530.0 86 80 78 74 74 73 75 79 79 78
2570.0 85 87 90 94 95 100 101 103 105 107
2610.0 103 107 106 109 108 111 113 116 120 124
2650.0 131 145 156 164 167 166 158 152 145 136
2690.0 128 126 121 118 112 108 104 103 99 96
2730.0 96 92 95 95 96 99 94 99 102 108
2770.0 115 126 137 145 155 165 182 188 193 198
2810.0 206 217 232 254 277 308 345 403 497 706
2850.0 1105 1802 2700 3301 3348 2825 2053 1445 1071 854
2890.0 764 778 900 1125 1456 1849 2298 2948 3949 5451
2930.0 7334 9195 10000 9070 6965 4557 2664 1531 976 675
2970.0 500 386 310 257 222 211 202 210 223 255
3010.0 301 363 433 516 608 679 732 754 751 725
3050.0 683 624 578 595 712 859 930 905 777 625
3090.0 500 420 344 286 240 209 186 163 140 122
3130.0 111 106 102 97 98 102 106 107 109 108
3170.0 101 96 91 84 77 76 73 73 72 72
3210.0 73 69 69 68 69 72 70 68 69 71
3250.0 69 73 76 76 72 72 73 73 75 71
3290.0 68 70 68 66 72 67 71 69 66 70
3330.0 74 75 73 82 86 89 87 94 95 95
3370.0 100 94 89 83 92 90 91 90 89 95
3410.0 93 95 96 100 92 97 91 95 91 88
3450.0 86 85 92 78 83 83 84 73 78 80
3490.0 78 80 73 78 73 76 73 70 72 75
3530.0 75 74 81 75 91 80 96 88 87 93
3570.0 79 91 84 98 91 96 108 90 106 109
3610.0 125 121 162 180 233 339 594 932 1536 1948
3650.0 2178 1869 1465 889 544 322 186 149 118 131
3690.0 108 118 100 113 96 102 81 103 93 107
3730.0 100 100 88 107 103 85 121 66 98 92
3770.0 84 91 87 98 77 99 94 91 101 107
3810.0 85 113 78 115 86 97 101 109 96 126
3850.0 88 92 103 107 107 125 103 113 117 108
3890.0 112 105 97 106 98 107 111 120 107 114
3930.0 122 100 108 118 101 105 102 105 93 103
##END=
