##TITLE=Benzophenone
##JCAMP-DX=4.24
##DATA TYPE=INFRARED SPECTRUM
##ORIGIN=Sadtler Research Labs Under US-EPA Contract
##OWNER=NIST Standard Reference Data Program
##CAS REGISTRY NO=119-61-9
##MOLFORM=C 13 H 10 O
##XUNITS=1/CM
##YUNITS=ABSORBANCE
##XFACTOR=1.0
##YFACTOR=0.000070895
##DELTAX=4.0
##FIRSTX=450.0
##LASTX=3966.0
##FIRSTY=0.000000
##MAXX=3966
##MINX=450
##MAXY=0.70895
##MINY=0
##NPOINTS=880
##XYDATA=(X++(Y..Y))
450.0 0 63 64 162 185 83 232 165 191 179
490.0 194 117 107 177 176 110 121 146 102 170
530.0 114 131 107 79 131 75 103 17 80 72
570.0 134 96 90 65 76 64 36 50 54 91
610.0 78 110 106 114 172 590 1872 3016 3228 2296
650.0 800 349 287 328 401 461 597 811 1252 1930
690.0 3444 4525 6314 6453 5263 3799 2435 1520 942 626
730.0 419 350 330 319 440 599 832 901 882 734
770.0 474 289 203 189 206 280 285 318 393 385
810.0 306 164 111 75 78 57 117 149 175 187
850.0 136 113 110 168 164 194 187 205 211 234
890.0 301 355 458 559 808 1324 1938 2228 2239 1890
930.0 1913 2412 2641 2343 1499 536 217 181 193 246
970.0 242 205 149 103 129 143 224 316 309 267
1010.0 146 81 116 220 359 380 304 179 85 79
1050.0 93 124 164 225 288 318 300 251 198 156
1090.0 116 112 106 121 123 154 177 216 233 239
1130.0 239 249 297 350 411 433 434 384 354 399
1170.0 692 1178 1390 1266 853 458 350 335 335 363
1210.0 403 416 422 422 482 634 851 1046 1158 1188
1250.0 1256 1532 2251 3685 6191 8815 10000 8613 5401 2764
1290.0 1769 1732 1858 2050 2118 2363 2441 2252 1765 1094
1330.0 661 481 338 258 238 223 205 192 170 154
1370.0 164 155 166 153 153 131 122 92 102 97
1410.0 78 100 72 136 147 256 343 521 909 1210
1450.0 1263 1131 641 320 242 158 132 91 138 105
1490.0 99 111 107 94 58 97 68 103 89 137
1530.0 119 164 227 201 281 278 321 203 302 266
1570.0 340 380 517 567 584 680 793 1034 1058 1054
1610.0 721 475 358 318 287 268 314 275 340 348
1650.0 409 405 684 909 1659 2705 4744 5908 6253 6710
1690.0 4491 3290 1750 1319 712 777 521 511 393 392
1730.0 317 244 295 203 194 125 183 123 175 164
1770.0 164 153 145 153 92 131 115 156 165 253
1810.0 265 262 225 155 133 77 106 70 80 57
1850.0 73 73 70 76 70 83 90 121 114 145
1890.0 156 174 183 189 198 169 158 132 114 103
1930.0 93 82 83 106 137 180 202 224 208 206
1970.0 179 146 103 73 70 60 62 50 49 33
2010.0 36 38 33 34 33 39 29 32 29 33
2050.0 28 36 33 36 34 32 32 26 38 27
2090.0 21 27 25 23 17 26 16 21 15 26
2130.0 17 22 16 18 22 19 23 18 22 21
2170.0 22 20 27 25 23 26 22 29 29 36
2210.0 28 34 27 29 29 25 32 25 33 31
2250.0 34 34 34 33 31 31 30 36 32 40
2290.0 35 41 34 43 46 59 74 74 73 51
2330.0 38 39 52 49 60 44 25 26 30 40
2370.0 38 50 48 43 40 34 33 34 41 46
2410.0 64 64 67 60 51 41 29 26 22 26
2450.0 22 24 17 23 25 17 25 15 22 16
2490.0 18 16 19 19 22 24 25 25 22 28
2530.0 22 25 21 31 21 31 33 34 41 35
2570.0 35 34 38 37 40 45 49 51 43 48
2610.0 36 37 34 38 41 40 42 41 40 37
2650.0 34 28 21 18 25 23 20 21 25 19
2690.0 13 16 15 21 23 24 21 27 38 28
2730.0 35 42 47 54 58 64 66 60 46 43
2770.0 27 26 22 23 22 22 18 19 22 21
2810.0 23 27 24 25 27 29 35 38 46 44
2850.0 48 49 56 69 72 81 82 77 73 58
2890.0 61 59 62 49 54 51 53 53 49 55
2930.0 52 56 59 61 44 49 43 42 52 53
2970.0 60 60 71 66 67 72 79 93 105 134
3010.0 167 223 283 392 529 705 875 991 964 848
3050.0 746 742 932 1259 1816 2321 2410 2204 1760 1491
3090.0 1402 1246 1024 788 604 439 298 195 139 107
3130.0 99 86 91 82 86 89 98 98 96 87
3170.0 83 66 47 48 45 39 32 39 31 27
3210.0 31 34 28 23 35 33 33 29 27 40
3250.0 33 37 34 39 44 56 43 42 39 43
3290.0 46 38 40 35 44 49 43 44 48 63
3330.0 75 90 116 122 136 129 94 73 76 62
3370.0 54 25 40 38 46 55 50 47 50 37
3410.0 30 44 33 38 28 33 34 34 23 29
3450.0 45 29 34 29 33 22 33 36 22 31
3490.0 21 22 19 20 25 33 41 35 22 28
3530.0 39 34 22 26 42 19 23 51 30 27
3570.0 29 31 25 28 36 24 50 42 45 19
3610.0 47 33 19 44 47 51 89 48 55 47
3650.0 90 104 62 83 23 69 51 104 64 57
3690.0 81 64 71 81 104 80 84 55 92 61
3730.0 67 71 86 27 88 39 93 88 53 88
3770.0 68 54 55 102 68 40 48 89 36 95
3810.0 31 83 45 54 39 34 72 81 91 78
3850.0 73 75 84 69 54 81 81 90 53 94
3890.0 30 73 48 114 75 93 58 73 53 80
3930.0 73 26 55 86 82 34 89 80 81 106
##END=
