##TITLE=Methanone, dicyclohexyl-
##JCAMP-DX=4.24
##DATA TYPE=INFRARED SPECTRUM
##ORIGIN=Sadtler Research Labs Under US-EPA Contract
##OWNER=NIST Standard Reference Data Program
##CAS REGISTRY NO=119-60-8
##MOLFORM=C 13 H 22 O
##XUNITS=1/CM
##YUNITS=ABSORBANCE
##XFACTOR=1.0
##YFACTOR=0.000145624
##DELTAX=4.0
##FIRSTX=450.0
##LASTX=3966.0
##FIRSTY=0.016164
##MAXX=3966
##MINX=450
##MAXY=1.45624
##MINY=0
##NPOINTS=880
##XYDATA=(X++(Y..Y))
450.0 111 60 47 142 57 104 147 9 77 8
490.0 63 47 28 30 94 78 98 45 50 56
530.0 65 43 61 63 68 55 99 87 92 40
570.0 15 44 53 41 63 49 60 51 61 46
610.0 55 47 66 56 41 65 66 63 62 51
650.0 87 90 89 111 45 87 66 93 87 82
690.0 83 70 114 133 99 84 38 74 72 56
730.0 102 82 156 263 339 211 168 129 110 108
770.0 75 60 66 75 66 49 43 63 38 16
810.0 10 50 87 76 58 38 21 39 52 60
850.0 53 72 66 65 55 105 120 118 145 172
890.0 195 177 192 171 123 87 98 77 90 74
930.0 84 76 59 67 56 66 80 89 105 135
970.0 208 316 512 812 965 896 598 309 195 183
1010.0 187 182 182 201 241 237 215 190 165 184
1050.0 200 226 272 333 376 368 302 247 217 209
1090.0 213 209 202 204 202 213 202 192 166 180
1130.0 189 236 340 474 630 693 616 469 336 283
1170.0 261 253 242 233 220 181 133 134 108 104
1210.0 99 110 103 109 141 155 209 312 359 364
1250.0 325 227 150 129 121 109 108 130 134 170
1290.0 225 271 309 324 308 320 353 408 456 497
1330.0 454 388 308 243 227 227 237 298 352 433
1370.0 488 498 480 367 291 207 180 152 147 153
1410.0 139 137 129 147 132 163 193 291 451 708
1450.0 1022 1184 1029 809 524 355 240 153 115 85
1490.0 82 80 75 55 46 74 5 45 31 46
1530.0 28 15 62 38 42 11 41 62 56 23
1570.0 46 37 57 43 26 20 58 25 49 41
1610.0 28 60 39 64 48 74 60 96 77 73
1650.0 107 93 106 45 93 88 112 118 160 178
1690.0 268 358 582 900 1303 1799 2006 2054 1586 1083
1730.0 709 445 368 239 197 147 91 77 74 73
1770.0 77 82 64 56 46 34 32 23 8 23
1810.0 13 10 17 11 13 22 5 17 3 23
1850.0 4 18 15 0 18 3 18 13 6 8
1890.0 8 11 6 6 2 6 1 11 0 10
1930.0 3 9 10 4 15 7 8 10 5 5
1970.0 6 11 6 5 10 4 10 8 7 10
2010.0 4 6 5 4 7 5 3 3 6 7
2050.0 7 8 11 8 11 9 9 10 11 11
2090.0 9 7 10 11 13 11 12 15 13 12
2130.0 13 15 14 9 12 16 13 15 15 17
2170.0 20 20 20 18 25 23 22 25 19 21
2210.0 17 16 18 12 14 14 16 20 16 14
2250.0 14 10 12 10 12 12 10 15 11 14
2290.0 14 14 19 15 16 27 20 32 29 37
2330.0 40 35 54 12 79 15 78 39 78 60
2370.0 44 43 33 29 21 15 16 17 16 15
2410.0 14 17 13 14 13 17 15 13 7 7
2450.0 6 5 6 6 8 8 10 14 16 18
2490.0 16 14 15 12 9 8 9 12 12 13
2530.0 16 14 14 15 17 17 14 15 19 17
2570.0 21 21 23 28 30 32 33 40 42 40
2610.0 42 43 47 50 49 49 50 51 54 57
2650.0 64 75 89 103 113 120 112 105 93 83
2690.0 75 69 68 66 63 60 54 48 44 44
2730.0 41 39 41 43 46 49 49 52 53 55
2770.0 64 67 73 87 95 108 122 136 143 143
2810.0 147 151 165 177 196 220 249 304 399 571
2850.0 895 1463 2324 3181 3487 3035 2257 1619 1244 1042
2890.0 938 930 1012 1178 1420 1740 2100 2557 3251 4432
2930.0 6219 8293 10000 9989 8474 5888 3566 2172 1453 1016
2970.0 718 524 395 304 234 180 149 118 106 96
3010.0 90 85 75 70 70 74 66 63 59 58
3050.0 54 59 51 50 48 51 49 41 43 43
3090.0 46 42 38 41 35 35 32 30 31 31
3130.0 29 29 29 32 29 32 40 40 43 42
3170.0 39 39 36 31 35 33 32 21 26 26
3210.0 27 31 30 26 25 30 33 30 37 32
3250.0 30 33 30 34 30 30 25 29 33 31
3290.0 29 30 34 32 31 31 35 31 30 33
3330.0 34 35 33 32 26 30 33 34 37 35
3370.0 35 45 48 44 44 41 49 52 57 56
3410.0 58 55 53 51 38 40 38 40 40 45
3450.0 38 48 38 34 39 38 34 26 28 17
3490.0 26 22 27 18 26 22 32 28 22 17
3530.0 19 31 28 21 22 19 35 10 35 10
3570.0 46 36 46 43 38 32 33 28 22 37
3610.0 19 30 22 40 21 43 18 45 25 43
3650.0 26 61 46 41 55 9 85 14 52 31
3690.0 23 37 18 40 27 21 43 16 48 19
3730.0 49 56 8 67 12 93 12 52 32 28
3770.0 44 34 41 45 33 46 23 51 42 47
3810.0 45 17 39 46 49 33 45 39 20 64
3850.0 6 91 22 61 39 48 59 17 41 21
3890.0 42 30 52 35 34 45 30 62 35 49
3930.0 40 43 65 53 59 23 50 36 30 54
##END=
