##TITLE=Methyl Salicylate
##JCAMP-DX=4.24
##DATA TYPE=INFRARED SPECTRUM
##ORIGIN=Sadtler Research Labs Under US-EPA Contract
##OWNER=NIST Standard Reference Data Program
##CAS REGISTRY NO=119-36-8
##MOLFORM=C 8 H 8 O 3
##XUNITS=1/CM
##YUNITS=ABSORBANCE
##XFACTOR=1.0
##YFACTOR=0.000132248
##DELTAX=4.0
##FIRSTX=450.0
##LASTX=3966.0
##FIRSTY=0.059379
##MAXX=3966
##MINX=450
##MAXY=1.32248
##MINY=0
##NPOINTS=880
##XYDATA=(X++(Y..Y))
450.0 449 176 41 132 86 130 73 146 192 198
490.0 242 285 293 273 300 355 474 631 722 812
530.0 847 683 411 330 215 224 213 289 239 274
570.0 236 191 151 106 188 57 100 142 167 181
610.0 201 236 239 253 251 203 155 178 147 147
650.0 150 255 419 654 816 889 872 689 786 914
690.0 1203 1460 1869 2262 2240 1889 1762 1382 991 661
730.0 458 415 581 993 1547 2058 3177 2956 1931 1457
770.0 892 402 205 112 150 164 170 212 260 211
810.0 176 156 126 90 82 90 183 350 665 842
850.0 808 900 718 502 347 233 188 118 69 47
890.0 29 21 21 37 43 48 43 28 21 12
930.0 11 4 18 29 57 107 147 177 233 283
970.0 311 294 244 172 89 40 24 21 23 28
1010.0 50 88 170 300 476 589 591 564 438 259
1050.0 162 138 141 173 234 355 605 1110 1929 2791
1090.0 3132 3022 2379 1289 689 627 679 836 1078 1423
1130.0 1819 2078 2012 1833 1683 2347 3970 4544 4641 4647
1170.0 2912 2138 2041 2048 2081 2206 2508 3166 4195 5567
1210.0 7029 7299 7155 6426 4803 3742 3343 3267 3507 4277
1250.0 5394 5550 5264 4525 2873 1909 1682 1761 1835 1921
1290.0 2290 3201 5253 8065 9620 10000 8896 6557 5264 5129
1330.0 5166 4748 4084 3452 2603 1756 1160 832 714 669
1370.0 676 732 795 881 1045 1213 1390 1554 1630 1651
1410.0 1596 1446 1311 1062 890 905 1374 2426 3443 3892
1450.0 3845 2745 1851 1776 1843 2048 2479 2865 3445 3366
1490.0 3114 2964 2122 1412 1085 901 792 622 516 397
1530.0 365 327 322 350 330 309 336 420 435 496
1570.0 660 915 1260 1612 1741 1832 1761 1451 1260 1386
1610.0 1784 2265 2514 2303 1855 1194 739 564 530 568
1650.0 665 735 786 866 1002 1223 1617 2249 3373 5033
1690.0 7015 8986 9998 9517 8140 5754 3570 2008 1090 621
1730.0 447 402 377 449 606 720 699 710 603 410
1770.0 329 271 198 171 138 123 127 122 154 158
1810.0 176 170 139 112 87 86 72 59 71 77
1850.0 48 32 40 46 56 65 42 26 19 22
1890.0 38 44 43 43 49 52 70 107 140 147
1930.0 151 141 129 140 145 124 103 76 41 28
1970.0 23 21 23 29 26 36 34 32 28 30
2010.0 27 33 36 31 31 33 35 40 52 61
2050.0 79 88 93 99 89 61 38 18 10 9
2090.0 14 19 26 29 33 30 29 24 23 21
2130.0 22 23 28 32 35 42 38 40 34 27
2170.0 23 24 23 21 19 16 12 4 1 0
2210.0 2 3 1 7 3 7 8 6 4 10
2250.0 11 12 18 16 18 20 30 32 43 47
2290.0 50 53 48 50 49 52 53 50 53 49
2330.0 56 46 41 39 40 37 47 39 33 29
2370.0 19 26 21 25 26 30 34 33 38 40
2410.0 40 39 40 38 37 37 35 33 29 25
2450.0 29 27 29 32 36 35 28 34 25 29
2490.0 33 36 44 50 53 51 52 46 43 45
2530.0 45 41 42 53 54 60 57 63 63 61
2570.0 61 53 55 51 53 54 56 58 59 60
2610.0 56 62 59 59 55 53 55 51 56 54
2650.0 50 52 53 49 31 27 21 26 33 41
2690.0 53 64 65 69 63 58 58 63 63 65
2730.0 65 59 66 65 64 63 62 65 73 72
2770.0 81 84 81 75 75 69 81 74 73 76
2810.0 74 58 64 65 74 73 90 100 112 152
2850.0 204 269 302 324 301 255 196 163 147 157
2890.0 173 200 221 248 278 303 320 319 308 295
2930.0 265 251 238 255 290 389 621 1107 1527 1611
2970.0 1476 1087 538 311 266 276 313 364 420 481
3010.0 518 502 485 502 526 574 578 571 553 522
3050.0 534 586 650 716 796 857 851 837 772 682
3090.0 632 600 563 517 463 370 306 270 234 205
3130.0 184 178 177 180 179 171 174 169 182 192
3170.0 205 223 249 277 307 345 379 430 483 554
3210.0 631 737 852 978 1132 1304 1480 1648 1828 1992
3250.0 2144 2243 2304 2294 2211 2080 1918 1745 1599 1464
3290.0 1364 1280 1201 1129 1060 989 934 898 856 807
3330.0 767 733 693 664 629 609 575 545 509 490
3370.0 465 447 431 420 403 392 366 365 355 340
3410.0 339 328 320 309 305 291 271 260 259 241
3450.0 221 208 192 180 187 201 238 299 352 386
3490.0 388 363 325 281 232 209 180 167 154 146
3530.0 129 128 109 109 111 111 105 101 94 105
3570.0 105 102 84 79 85 86 77 80 79 67
3610.0 63 59 60 56 48 40 41 52 39 23
3650.0 21 35 39 32 34 40 32 28 14 15
3690.0 7 5 19 38 39 22 38 36 26 36
3730.0 41 21 39 32 33 40 39 30 42 31
3770.0 30 37 37 48 50 38 38 37 46 51
3810.0 36 51 50 38 39 41 47 58 56 57
3850.0 52 43 64 63 43 58 51 43 61 51
3890.0 55 52 56 56 60 60 80 63 46 51
3930.0 72 49 73 74 91 67 57 87 69 55
##END=
