##TITLE=Naphthalene, 1,2,3,4-tetrahydro-
##JCAMP-DX=4.24
##DATA TYPE=INFRARED SPECTRUM
##ORIGIN=Sadtler Research Labs Under US-EPA Contract
##OWNER=NIST Standard Reference Data Program
##CAS REGISTRY NO=119-64-2
##MOLFORM=C 10 H 12
##XUNITS=1/CM
##YUNITS=ABSORBANCE
##XFACTOR=1.0
##YFACTOR=0.000130289
##DELTAX=4.0
##FIRSTX=450.0
##LASTX=3966.0
##FIRSTY=0.000261
##MAXX=3966
##MINX=450
##MAXY=1.30289
##MINY=0
##NPOINTS=880
##XYDATA=(X++(Y..Y))
450.0 2 101 86 81 122 86 89 79 61 36
490.0 48 36 25 38 11 32 10 34 26 31
530.0 13 24 25 19 39 27 23 29 46 32
570.0 38 42 71 68 45 80 56 57 45 52
610.0 39 40 21 22 34 19 22 22 26 22
650.0 27 15 28 17 0 37 45 37 33 42
690.0 48 68 70 75 85 109 212 379 780 1352
730.0 2128 2678 3538 4884 3355 2674 1993 1274 696 329
770.0 188 127 116 97 117 135 164 188 239 269
810.0 252 211 204 171 161 112 86 89 84 87
850.0 99 117 137 146 145 132 108 84 79 75
890.0 83 87 98 105 93 86 73 68 76 95
930.0 109 150 180 199 242 200 152 134 107 82
970.0 78 80 101 119 115 128 121 105 84 71
1010.0 59 59 55 68 109 175 208 209 190 163
1050.0 97 65 82 100 115 114 115 99 66 57
1090.0 57 66 82 118 154 172 175 182 167 129
1130.0 119 108 103 104 100 90 83 69 61 55
1170.0 48 47 48 53 56 62 67 70 79 80
1210.0 89 92 97 108 118 128 143 168 224 288
1250.0 290 277 252 190 132 129 165 244 315 333
1290.0 380 362 289 202 137 89 68 68 70 82
1330.0 90 107 136 177 233 297 322 305 287 205
1370.0 126 82 75 59 67 71 76 86 71 85
1410.0 72 85 97 136 161 264 407 617 841 1042
1450.0 1302 1358 1384 1256 1053 834 687 521 567 893
1490.0 1312 1451 1389 1281 912 296 105 72 60 62
1530.0 34 59 48 73 51 56 54 65 80 80
1570.0 142 189 243 281 283 290 259 253 218 215
1610.0 188 148 103 75 51 47 42 53 40 43
1650.0 47 51 26 33 42 47 82 86 110 118
1690.0 104 88 90 89 78 72 80 82 63 55
1730.0 50 57 49 37 44 50 48 53 51 49
1770.0 53 59 50 63 70 86 103 124 135 124
1810.0 127 119 99 91 101 105 102 90 83 61
1850.0 48 41 40 45 53 61 59 63 64 65
1890.0 64 63 70 84 109 122 126 128 126 104
1930.0 103 123 131 129 116 86 43 23 15 14
1970.0 13 12 15 14 17 18 19 17 16 18
2010.0 14 16 15 15 12 9 10 12 14 14
2050.0 15 14 15 16 16 14 17 12 12 11
2090.0 8 8 10 10 8 8 7 7 4 5
2130.0 7 11 10 11 15 14 16 16 17 16
2170.0 17 14 13 13 14 15 16 18 18 17
2210.0 19 19 19 20 23 24 25 22 24 21
2250.0 20 23 23 24 22 23 23 23 20 18
2290.0 18 17 18 21 28 34 40 43 51 48
2330.0 48 43 36 32 31 20 22 23 32 29
2370.0 26 25 21 23 24 23 26 25 25 26
2410.0 26 24 23 21 21 23 22 25 27 24
2450.0 22 18 13 10 7 10 9 10 13 12
2490.0 12 11 13 13 13 15 13 15 11 9
2530.0 8 9 5 5 4 1 0 2 9 12
2570.0 21 25 31 35 39 41 38 38 32 31
2610.0 30 28 28 27 30 31 33 36 41 43
2650.0 52 69 94 113 124 136 135 122 106 99
2690.0 91 73 61 54 50 47 43 37 39 34
2730.0 33 34 36 36 38 44 49 55 66 73
2770.0 83 96 112 126 140 151 162 177 195 206
2810.0 212 222 224 235 267 339 486 733 1102 1589
2850.0 1958 2188 2547 2857 3045 3142 2931 2655 2319 2023
2890.0 1863 1914 2017 1988 2029 2252 2587 3388 4667 5709
2930.0 6474 8133 10000 9876 9651 9160 7515 5675 3120 1550
2970.0 922 627 473 392 342 326 342 401 516 696
3010.0 959 1346 1721 1902 1937 1981 1752 1366 1153 1037
3050.0 1094 1266 1467 1573 1624 1743 1797 1746 1536 1239
3090.0 938 657 421 293 241 206 178 143 112 82
3130.0 68 50 45 41 40 46 49 59 60 56
3170.0 50 45 36 29 26 26 24 21 22 19
3210.0 18 22 20 23 23 20 19 22 18 22
3250.0 15 14 15 16 15 16 12 10 14 7
3290.0 13 6 11 8 10 11 13 19 14 20
3330.0 21 22 18 20 23 17 18 20 14 10
3370.0 15 15 15 13 17 13 13 17 12 14
3410.0 12 14 13 11 8 9 8 4 7 7
3450.0 11 9 11 12 14 8 12 16 13 11
3490.0 5 8 10 12 7 18 18 18 19 15
3530.0 18 17 13 10 13 15 11 12 7 12
3570.0 12 13 9 5 6 7 10 15 11 12
3610.0 12 8 9 15 14 5 18 7 18 12
3650.0 14 26 14 28 14 20 13 19 20 8
3690.0 18 11 16 11 18 15 14 14 9 16
3730.0 16 23 28 14 35 25 32 24 18 16
3770.0 16 12 17 14 19 16 14 22 16 25
3810.0 22 32 26 23 19 16 17 23 12 16
3850.0 11 10 22 28 17 33 40 37 18 30
3890.0 4 19 3 7 0 13 3 10 17 9
3930.0 16 11 13 18 12 10 10 8 13 22
##END=
