##TITLE=Phenol, 4-methyl-2-nitro-
##JCAMP-DX=4.24
##DATA TYPE=INFRARED SPECTRUM
##ORIGIN=Sadtler Research Labs Under US-EPA Contract
##OWNER=NIST Standard Reference Data Program
##CAS REGISTRY NO=119-33-5
##MOLFORM=C 7 H 7 N O 3
##XUNITS=1/CM
##YUNITS=ABSORBANCE
##XFACTOR=1.0
##YFACTOR=0.000118472
##DELTAX=4.0
##FIRSTX=450.0
##LASTX=3966.0
##FIRSTY=0.001185
##MAXX=3966
##MINX=450
##MAXY=1.18472
##MINY=0
##NPOINTS=880
##XYDATA=(X++(Y..Y))
450.0 10 8 9 282 210 248 272 239 168 150
490.0 175 135 175 180 209 178 224 294 366 583
530.0 718 1074 1412 1441 1217 1065 867 765 582 480
570.0 438 328 291 313 352 357 366 429 436 419
610.0 418 439 457 488 524 572 650 725 819 919
650.0 1059 1199 1310 1455 1599 1815 1972 2012 1962 1791
690.0 1316 982 720 529 322 278 174 133 101 100
730.0 88 76 149 175 289 390 588 718 1058 1499
770.0 1547 1563 1504 1263 769 357 191 194 264 511
810.0 961 1595 2153 2880 3299 2398 1683 1154 639 387
850.0 246 211 144 162 149 171 185 222 261 286
890.0 255 224 251 283 430 606 752 750 745 639
930.0 383 218 116 104 93 117 101 125 127 89
970.0 82 75 97 88 113 116 135 135 152 152
1010.0 146 149 129 131 119 144 140 163 184 207
1050.0 224 246 325 417 573 712 865 913 864 761
1090.0 597 451 372 386 394 441 463 490 521 623
1130.0 782 896 961 981 977 880 885 946 1095 1365
1170.0 1814 2509 3333 4054 4324 4423 4002 3164 2420 1945
1210.0 1762 1782 1923 2111 2393 2630 2960 3377 4028 4885
1250.0 5758 6208 5883 5702 4870 3649 2820 2416 2255 2264
1290.0 2343 2602 2980 3377 3972 4912 6200 7431 8547 9322
1330.0 9116 8335 7372 6398 5232 4272 3429 2795 2343 2053
1370.0 1819 1689 1602 1507 1477 1400 1400 1357 1450 1625
1410.0 1985 2392 2961 3411 3688 3752 3460 3039 2425 1911
1450.0 1495 1317 1277 1200 1239 1256 1597 2097 2849 3786
1490.0 4243 4469 4187 3344 2765 2209 2009 1964 2301 2837
1530.0 3776 5037 6836 8142 9807 10000 8971 8406 5698 4662
1570.0 3298 3017 2732 2743 2731 2762 2645 2313 2100 1838
1610.0 1809 1742 2047 2320 2785 3002 3043 2684 2335 1741
1650.0 1291 1008 670 501 330 279 212 173 214 211
1690.0 181 167 226 193 188 152 180 204 142 125
1730.0 125 167 96 112 124 159 166 188 212 207
1770.0 237 215 173 144 121 89 83 61 59 35
1810.0 30 38 21 38 41 64 62 70 90 99
1850.0 83 56 48 30 40 46 23 19 19 24
1890.0 28 39 35 52 70 95 108 111 109 73
1930.0 50 24 15 16 15 5 8 8 5 13
1970.0 6 6 4 4 5 22 22 16 19 15
2010.0 15 15 20 12 11 8 6 6 6 8
2050.0 2 7 3 11 14 14 15 20 23 26
2090.0 32 24 24 18 12 7 7 3 1 3
2130.0 2 6 6 14 14 21 21 24 22 18
2170.0 19 12 10 7 9 6 7 6 5 7
2210.0 4 6 2 1 1 2 3 6 8 9
2250.0 14 18 22 23 28 27 26 25 24 27
2290.0 30 37 39 44 44 48 43 41 44 40
2330.0 40 35 35 39 43 52 55 54 60 60
2370.0 55 61 57 61 55 55 60 67 71 73
2410.0 76 72 69 58 54 48 46 44 43 40
2450.0 42 42 41 42 38 37 31 37 38 38
2490.0 45 48 56 57 61 61 58 54 51 50
2530.0 51 55 60 72 74 84 94 101 105 102
2570.0 105 97 88 81 72 65 67 66 72 76
2610.0 78 82 85 88 89 94 92 87 81 73
2650.0 72 67 65 62 65 62 64 60 61 59
2690.0 54 55 57 59 63 65 66 71 75 80
2730.0 85 93 104 108 119 124 124 116 110 93
2770.0 83 79 75 78 82 90 95 105 112 123
2810.0 127 129 134 141 149 157 171 181 188 204
2850.0 221 238 277 327 392 468 545 595 626 627
2890.0 599 566 543 531 533 554 597 648 737 865
2930.0 1022 1162 1206 1150 1022 833 638 524 484 458
2970.0 429 412 395 390 383 377 375 366 362 378
3010.0 407 443 482 521 551 594 634 681 718 701
3050.0 646 564 470 397 385 400 431 441 415 368
3090.0 298 210 157 125 109 100 94 94 80 79
3130.0 79 79 82 82 85 91 100 99 109 121
3170.0 132 142 151 170 181 201 218 240 267 301
3210.0 333 377 417 472 527 593 662 742 835 940
3250.0 1052 1164 1275 1367 1444 1496 1523 1536 1543 1526
3290.0 1510 1476 1440 1394 1358 1308 1249 1204 1158 1115
3330.0 1075 1041 1012 984 965 946 930 904 885 859
3370.0 835 810 773 746 710 682 652 624 596 559
3410.0 532 509 482 457 432 412 395 376 363 353
3450.0 342 324 316 311 300 294 291 281 273 270
3490.0 262 251 252 244 230 225 221 207 201 199
3530.0 187 177 173 169 166 169 154 159 150 164
3570.0 155 142 144 140 150 136 129 130 117 115
3610.0 109 100 98 92 78 83 79 57 63 61
3650.0 65 47 36 44 20 47 16 28 6 9
3690.0 9 2 11 3 9 8 4 3 13 7
3730.0 5 1 10 3 17 0 1 1 1 1
3770.0 1 1 1 1 1 1 1 1 1 1
3810.0 1 1 1 1 1 1 1 1 1 2
3850.0 3 1 1 1 1 1 1 1 1 4
3890.0 0 1 1 3 2 8 1 1 7 1
3930.0 1 2 7 1 1 1 6 1 1 1
##END=
