##TITLE=Propanedioic acid, dibutyl ester
##JCAMP-DX=4.24
##DATA TYPE=INFRARED SPECTRUM
##ORIGIN=Sadtler Research Labs Under US-EPA Contract
##OWNER=NIST Standard Reference Data Program
##CAS REGISTRY NO=1190-39-2
##MOLFORM=C 11 H 20 O 4
##XUNITS=1/CM
##YUNITS=ABSORBANCE
##XFACTOR=1.0
##YFACTOR=0.000081543
##DELTAX=4.0
##FIRSTX=450.0
##LASTX=3966.0
##FIRSTY=0.021935
##MAXX=3966
##MINX=450
##MAXY=0.81543
##MINY=0
##NPOINTS=880
##XYDATA=(X++(Y..Y))
450.0 269 226 271 193 169 123 111 93 91 82
490.0 98 66 93 114 41 23 35 67 100 90
530.0 146 33 117 133 172 164 236 153 271 257
570.0 207 288 316 315 354 495 501 430 349 317
610.0 372 416 314 320 318 243 304 310 255 247
650.0 206 235 315 264 248 454 412 427 519 491
690.0 418 349 332 238 270 257 293 285 270 301
730.0 322 317 320 394 358 339 352 301 352 340
770.0 354 377 349 355 400 339 372 445 424 448
810.0 490 451 466 460 493 494 537 537 518 524
850.0 480 477 420 425 387 423 425 412 449 462
890.0 507 499 509 507 520 524 506 511 565 557
930.0 573 630 710 772 867 895 936 963 1055 1109
970.0 1220 1298 1251 1186 1114 1131 1198 1306 1445 1639
1010.0 1912 2162 2395 2579 2544 2282 1924 1608 1308 1128
1050.0 1153 1281 1566 1827 1906 1811 1601 1364 1158 1087
1090.0 1104 1162 1206 1311 1446 1614 1875 2167 2516 2896
1130.0 3425 4102 4768 5339 5829 5801 5634 5205 4893 4698
1170.0 4476 4369 4284 4145 4024 3885 3824 3797 3804 3870
1210.0 3859 3842 3880 3886 3988 4034 4096 4250 4330 4395
1250.0 4429 4445 4492 4474 4386 4289 4100 3908 3658 3459
1290.0 3342 3280 3247 3235 3299 3399 3485 3640 3813 3876
1330.0 3766 3398 2790 2229 1796 1493 1281 1154 1086 1001
1370.0 966 979 1005 1125 1208 1294 1237 1112 963 886
1410.0 943 1004 1004 970 891 767 718 707 726 764
1450.0 836 935 1076 1184 1235 1219 1126 965 807 631
1490.0 515 431 405 342 329 295 273 270 263 244
1530.0 247 253 229 256 216 215 210 238 217 213
1570.0 211 206 203 194 184 190 195 196 199 197
1610.0 194 189 201 189 202 205 202 205 192 210
1650.0 210 240 222 228 232 236 244 263 274 323
1690.0 333 357 418 493 564 667 797 971 1128 1337
1730.0 1623 2087 2799 3883 5447 7355 9095 9920 10000 9533
1770.0 8779 7568 5871 4197 2970 2154 1648 1282 1045 873
1810.0 734 622 525 457 414 365 326 292 271 259
1850.0 230 220 214 195 189 194 170 177 173 167
1890.0 160 158 157 145 151 157 143 132 141 137
1930.0 137 136 141 133 132 131 129 128 129 129
1970.0 127 133 128 134 119 125 124 120 120 116
2010.0 133 118 113 118 124 119 123 112 118 113
2050.0 112 113 114 111 112 108 110 103 108 103
2090.0 101 108 108 101 104 100 97 99 94 87
2130.0 93 80 86 92 86 90 86 82 83 83
2170.0 83 78 79 83 78 77 77 77 77 76
2210.0 76 73 67 68 69 67 68 62 68 74
2250.0 67 68 70 71 67 58 65 72 71 70
2290.0 88 100 113 119 132 140 142 140 135 130
2330.0 128 108 104 128 139 146 151 163 152 126
2370.0 109 114 106 107 86 65 52 52 52 51
2410.0 50 51 45 49 57 49 53 50 44 43
2450.0 47 42 41 34 34 40 35 34 37 33
2490.0 34 29 40 32 27 25 25 25 25 25
2530.0 18 23 30 16 22 19 32 19 25 25
2570.0 26 26 33 25 32 37 34 38 32 41
2610.0 36 34 28 23 24 29 31 36 39 31
2650.0 34 41 43 50 45 45 57 58 57 53
2690.0 57 56 66 55 64 63 65 65 66 67
2730.0 79 74 74 86 98 112 103 113 105 105
2770.0 102 98 107 106 113 113 119 117 128 134
2810.0 146 154 174 186 205 223 254 304 356 426
2850.0 515 631 740 839 966 1142 1400 1684 1935 2043
2890.0 2005 1832 1678 1630 1680 1778 1942 2139 2305 2433
2930.0 2605 2874 3248 3622 3847 3864 3835 4002 4577 5377
2970.0 5923 5783 4887 3781 2763 2099 1624 1255 981 780
3010.0 621 532 437 386 330 299 286 252 231 206
3050.0 181 168 149 144 115 128 113 100 90 92
3090.0 91 91 88 80 87 69 75 82 52 60
3130.0 53 57 70 56 60 53 65 55 54 55
3170.0 54 45 62 53 48 44 41 37 53 38
3210.0 47 46 33 35 23 20 34 23 25 21
3250.0 19 15 18 7 13 26 14 20 8 20
3290.0 20 2 12 21 18 13 15 25 10 6
3330.0 12 23 11 19 15 5 12 25 12 25
3370.0 8 14 3 14 16 22 16 6 11 17
3410.0 18 21 12 14 14 17 19 7 14 21
3450.0 21 17 5 4 23 36 28 25 27 46
3490.0 46 79 104 100 82 95 82 71 44 41
3530.0 39 33 14 14 2 23 25 2 14 20
3570.0 18 10 20 19 12 34 30 18 12 14
3610.0 36 12 8 10 16 30 29 13 29 20
3650.0 27 22 40 26 34 48 39 54 37 18
3690.0 26 22 29 24 19 20 19 26 8 22
3730.0 31 18 39 37 31 31 35 40 47 29
3770.0 23 29 10 18 33 20 37 28 45 44
3810.0 38 39 33 52 51 37 50 44 32 25
3850.0 43 49 48 47 55 55 42 37 35 33
3890.0 35 41 42 40 42 46 39 34 28 28
3930.0 17 12 27 34 33 22 0 1 1 1
##END=
