##TITLE=Butane, 1,3-dichloro-
##JCAMP-DX=4.24
##DATA TYPE=INFRARED SPECTRUM
##ORIGIN=Sadtler Research Labs Under US-EPA Contract
##OWNER=NIST Standard Reference Data Program
##CAS REGISTRY NO=1190-22-3
##MOLFORM=C 4 H 8 Cl 2
##XUNITS=1/CM
##YUNITS=ABSORBANCE
##XFACTOR=1.0
##YFACTOR=0.000071204
##DELTAX=4.0
##FIRSTX=450.0
##LASTX=3966.0
##FIRSTY=0.099756
##MAXX=3966
##MINX=450
##MAXY=0.71204
##MINY=0
##NPOINTS=880
##XYDATA=(X++(Y..Y))
450.0 1401 610 8 336 113 276 132 242 221 213
490.0 334 320 376 278 384 257 250 299 369 351
530.0 329 350 270 197 159 150 140 161 189 200
570.0 184 178 221 297 404 561 740 958 1288 1688
610.0 2221 2736 3437 3699 3816 3748 3128 2289 1727 1409
650.0 1362 1603 2111 3007 3874 4690 5070 4829 4137 2949
690.0 1840 1254 883 739 566 579 506 496 479 579
730.0 655 782 1063 1384 1894 2327 2588 2663 2577 2143
770.0 1899 1729 1510 1304 980 850 845 1216 1820 2439
810.0 2638 2592 2526 1844 1234 883 731 590 547 504
850.0 469 443 431 495 484 601 702 935 1317 1734
890.0 2002 2112 2106 2013 1643 1394 1304 1208 1113 935
930.0 811 735 692 661 658 687 707 780 793 850
970.0 944 1147 1443 1727 1976 2108 2213 2185 2011 1943
1010.0 1933 1862 1828 1779 1659 1585 1580 1616 1595 1620
1050.0 1603 1516 1435 1304 1129 981 933 908 949 973
1090.0 1018 1071 1128 1347 1520 1736 1992 2173 2165 2019
1130.0 1683 1329 900 645 629 691 778 812 858 872
1170.0 846 850 885 915 895 884 834 879 998 1181
1210.0 1378 1499 1568 1611 1656 1686 1844 2114 2411 2817
1250.0 3255 3616 3919 4347 4874 5276 5185 5075 5032 4842
1290.0 4420 4058 4005 3552 3150 2854 2648 2548 2435 2197
1330.0 1935 1701 1531 1420 1379 1374 1415 1478 1469 1510
1370.0 1660 1846 2188 2415 2442 2495 2183 1550 1107 897
1410.0 829 945 1120 1340 1549 1814 2160 2636 3320 3837
1450.0 4175 4225 3912 3316 2665 2064 1540 1068 745 505
1490.0 379 266 214 182 155 147 139 136 106 108
1530.0 100 109 74 72 91 97 81 56 60 81
1570.0 73 71 57 77 65 74 73 77 74 78
1610.0 84 69 72 66 80 66 72 61 86 64
1650.0 82 49 80 96 87 89 92 87 93 81
1690.0 92 78 73 66 81 74 65 52 54 51
1730.0 49 42 30 54 51 62 59 74 65 68
1770.0 63 50 58 52 61 43 50 48 51 44
1810.0 44 40 38 44 35 44 33 44 35 49
1850.0 41 37 41 41 45 41 44 45 49 44
1890.0 50 47 40 45 35 39 34 39 39 32
1930.0 38 39 46 37 36 31 36 33 40 42
1970.0 42 41 41 41 38 41 41 49 43 51
2010.0 48 56 63 62 72 70 78 80 80 77
2050.0 87 82 86 94 89 86 84 74 59 50
2090.0 41 36 41 39 39 45 54 49 56 51
2130.0 50 43 43 43 38 41 45 45 44 51
2170.0 43 44 51 49 51 60 66 60 71 72
2210.0 76 80 77 77 71 69 68 72 72 74
2250.0 82 88 96 95 97 98 98 96 91 76
2290.0 71 59 46 49 31 23 11 5 4 3
2330.0 15 33 63 33 97 49 4 11 60 138
2370.0 197 190 175 163 133 120 112 107 109 108
2410.0 105 104 103 105 103 108 108 105 112 113
2450.0 113 114 114 128 136 144 134 131 130 119
2490.0 114 109 102 92 102 94 94 90 88 95
2530.0 95 108 106 110 110 117 111 117 122 117
2570.0 112 104 112 109 111 110 111 103 102 98
2610.0 94 95 86 88 81 78 92 92 98 101
2650.0 97 88 82 83 79 84 108 118 123 138
2690.0 136 142 145 143 154 161 173 184 196 204
2730.0 223 225 240 242 251 251 250 230 205 197
2770.0 183 175 173 178 174 175 186 183 192 192
2810.0 227 241 306 369 443 494 536 556 573 586
2850.0 617 674 756 891 1084 1331 1573 1793 1958 2017
2890.0 2022 1982 2013 2090 2308 2590 2952 3365 3728 4184
2930.0 4666 5274 5312 5105 5082 4620 4187 4103 4487 5233
2970.0 6515 7895 9403 10000 9785 9858 8585 7819 5990 4808
3010.0 3641 2669 1958 1413 961 645 455 349 274 243
3050.0 198 189 169 167 149 149 142 144 151 146
3090.0 133 118 109 101 109 97 96 94 94 83
3130.0 75 76 76 75 79 69 60 67 58 64
3170.0 62 62 72 74 83 83 89 89 94 90
3210.0 111 106 113 112 103 107 89 77 65 53
3250.0 43 41 31 27 18 26 35 32 34 35
3290.0 51 48 57 52 60 63 67 81 75 89
3330.0 85 90 79 57 58 41 36 26 32 34
3370.0 30 38 34 40 31 28 30 33 27 33
3410.0 23 38 20 20 22 24 38 33 54 62
3450.0 31 25 20 29 30 26 13 29 51 45
3490.0 39 15 13 28 33 16 10 18 16 10
3530.0 30 48 33 20 19 55 41 45 9 18
3570.0 17 23 47 23 5 35 57 14 13 35
3610.0 70 55 72 98 61 70 118 100 82 122
3650.0 98 149 157 174 162 120 145 113 92 80
3690.0 30 39 50 51 13 37 28 53 31 24
3730.0 40 29 40 14 11 15 48 40 16 25
3770.0 30 5 21 41 57 31 31 0 36 8
3810.0 5 20 4 69 2 76 35 67 56 14
3850.0 4 46 97 53 41 4 4 26 22 21
3890.0 67 40 49 3 62 99 39 12 73 24
3930.0 9 70 67 34 37 40 60 28 20 47
##END=
