##TITLE=1,10-Decanedithiol
##JCAMP-DX=4.24
##DATA TYPE=INFRARED SPECTRUM
##ORIGIN=Sadtler Research Labs Under US-EPA Contract
##OWNER=NIST Standard Reference Data Program
##CAS REGISTRY NO=1191-67-9
##MOLFORM=C 10 H 22 S 2
##XUNITS=1/CM
##YUNITS=ABSORBANCE
##XFACTOR=1.0
##YFACTOR=0.000153619
##DELTAX=4.0
##FIRSTX=450.0
##LASTX=3966.0
##FIRSTY=0.000000
##MAXX=3966
##MINX=450
##MAXY=1.53619
##MINY=0
##NPOINTS=880
##XYDATA=(X++(Y..Y))
450.0 0 243 333 333 275 347 267 331 289 369
490.0 345 306 322 285 309 295 317 301 321 291
530.0 320 306 297 310 302 302 287 319 296 321
570.0 283 298 301 309 307 313 310 303 312 310
610.0 303 299 282 310 311 372 293 338 326 333
650.0 323 351 360 339 319 340 331 327 343 332
690.0 357 389 408 446 470 508 517 541 542 538
730.0 539 530 511 487 476 450 448 432 418 405
770.0 388 390 356 391 404 394 360 384 362 376
810.0 359 364 367 369 364 358 374 356 368 366
850.0 368 361 360 372 360 366 360 365 350 359
890.0 352 354 352 353 357 351 361 354 360 352
930.0 361 359 350 359 352 360 354 367 356 365
970.0 361 359 360 358 361 355 357 356 359 353
1010.0 357 357 356 365 365 369 370 384 381 387
1050.0 389 390 388 377 384 372 377 369 378 372
1090.0 370 368 366 362 342 382 353 385 373 378
1130.0 380 384 378 361 365 350 351 345 350 344
1170.0 344 347 349 349 347 353 352 359 363 376
1210.0 380 393 416 429 455 487 522 548 579 597
1250.0 610 623 635 662 684 717 753 796 826 837
1290.0 823 797 781 762 737 696 649 594 546 510
1330.0 491 489 500 534 575 623 637 617 569 539
1370.0 509 473 430 392 369 356 345 339 338 347
1410.0 354 371 390 427 465 548 662 794 882 919
1450.0 964 1006 1066 1037 935 809 657 529 442 392
1490.0 349 344 325 308 311 307 273 292 287 285
1530.0 274 275 290 282 280 265 276 276 295 262
1570.0 270 269 278 258 266 267 258 265 260 264
1610.0 252 271 265 266 258 265 262 269 254 267
1650.0 250 297 254 255 256 258 257 258 248 272
1690.0 251 252 275 268 257 251 262 259 258 254
1730.0 252 263 266 250 253 256 257 254 253 253
1770.0 255 259 248 250 249 252 252 250 250 250
1810.0 247 250 248 250 249 250 247 247 248 248
1850.0 248 245 247 243 248 243 247 245 246 243
1890.0 244 246 244 245 245 248 249 246 245 245
1930.0 248 247 250 245 249 248 250 250 252 250
1970.0 252 254 250 251 250 249 249 252 250 253
2010.0 256 252 255 254 257 255 258 254 261 260
2050.0 259 261 258 255 256 258 255 256 254 254
2090.0 253 252 251 248 250 247 247 249 247 247
2130.0 246 250 247 248 249 251 252 252 252 251
2170.0 250 252 254 251 250 252 255 255 252 253
2210.0 250 251 251 252 250 252 249 250 252 248
2250.0 250 247 250 250 252 247 249 250 253 251
2290.0 250 250 250 251 249 250 252 249 250 245
2330.0 251 243 243 243 243 250 252 255 243 243
2370.0 243 243 243 243 245 250 252 254 257 252
2410.0 254 251 256 254 253 253 253 255 254 255
2450.0 254 258 256 259 259 260 260 257 261 262
2490.0 264 264 265 267 267 267 267 271 275 275
2530.0 276 280 279 282 284 288 287 287 291 294
2570.0 299 307 319 338 368 389 400 386 362 345
2610.0 332 325 317 317 311 315 314 317 316 316
2650.0 322 324 326 332 333 338 340 348 347 350
2690.0 351 348 346 344 340 334 335 333 334 330
2730.0 332 332 334 333 335 339 343 346 345 354
2770.0 355 363 368 371 385 402 417 430 447 465
2810.0 482 505 538 577 622 667 735 831 987 1246
2850.0 1645 2243 2981 3621 3792 3451 2839 2279 1888 1670
2890.0 1599 1639 1794 2053 2416 2879 3445 4221 5344 6940
2930.0 8750 10000 9950 8745 6985 5312 4021 3239 2850 2653
2970.0 2361 1878 1407 1091 895 768 677 610 558 518
3010.0 485 464 434 414 403 392 381 367 360 348
3050.0 344 332 327 322 315 317 308 304 303 303
3090.0 303 296 292 288 294 295 291 287 285 279
3130.0 283 280 285 283 286 290 282 282 278 277
3170.0 277 277 276 276 276 272 271 270 273 275
3210.0 275 266 267 268 259 261 263 263 255 263
3250.0 263 261 263 259 255 258 265 262 263 263
3290.0 263 263 264 263 257 269 259 262 263 263
3330.0 263 267 260 264 262 251 263 260 264 262
3370.0 258 264 262 263 260 263 265 255 258 263
3410.0 269 266 269 259 264 257 266 254 258 263
3450.0 259 254 267 269 259 264 256 259 256 259
3490.0 263 260 262 258 252 257 261 261 261 247
3530.0 257 258 258 258 249 263 255 252 263 262
3570.0 260 258 266 262 256 256 261 263 264 261
3610.0 263 261 270 264 273 270 280 265 263 265
3650.0 277 271 275 283 263 283 278 285 274 276
3690.0 273 270 262 264 278 265 255 268 289 266
3730.0 273 272 268 251 291 263 276 249 265 279
3770.0 267 271 267 273 273 274 261 264 270 293
3810.0 277 281 278 290 281 287 278 292 279 274
3850.0 255 290 270 277 282 283 284 261 277 283
3890.0 304 303 280 268 275 299 279 274 289 267
3930.0 258 268 293 282 267 270 280 306 307 297
##END=
