##TITLE=1,4-Butanedithiol
##JCAMP-DX=4.24
##DATA TYPE=INFRARED SPECTRUM
##ORIGIN=Sadtler Research Labs Under US-EPA Contract
##OWNER=NIST Standard Reference Data Program
##CAS REGISTRY NO=1191-08-8
##MOLFORM=C 4 H 10 S 2
##XUNITS=1/CM
##YUNITS=ABSORBANCE
##XFACTOR=1.0
##YFACTOR=0.000071832
##DELTAX=4.0
##FIRSTX=450.0
##LASTX=3966.0
##FIRSTY=0.175917
##MAXX=3966
##MINX=450
##MAXY=0.71832
##MINY=0
##NPOINTS=880
##XYDATA=(X++(Y..Y))
450.0 2449 1099 591 482 833 731 436 134 301 446
490.0 551 594 636 680 588 383 280 469 364 634
530.0 611 484 465 408 471 448 880 178 10 192
570.0 212 201 257 642 430 577 474 452 443 450
610.0 430 402 435 336 507 397 459 426 446 432
650.0 475 456 453 489 417 450 326 319 284 279
690.0 266 346 376 501 538 574 594 574 625 538
730.0 475 326 491 531 623 570 603 621 648 750
770.0 623 603 657 623 631 604 597 574 578 564
810.0 605 619 771 787 791 796 749 817 758 648
850.0 565 606 629 664 484 461 468 416 392 318
890.0 300 278 320 281 334 378 357 299 329 353
930.0 271 273 257 334 330 381 378 422 401 409
970.0 417 418 448 456 493 483 533 472 416 344
1010.0 375 404 437 468 464 472 491 539 552 583
1050.0 586 602 597 597 601 606 607 587 606 591
1090.0 595 589 579 515 483 582 684 655 517 428
1130.0 517 665 699 701 717 723 742 725 730 734
1170.0 770 760 781 761 748 767 786 848 855 871
1210.0 878 930 928 917 852 805 791 753 705 733
1250.0 814 867 929 993 1128 1291 1560 1858 2134 2306
1290.0 2430 2422 2265 2095 1944 1792 1571 1331 1081 809
1330.0 635 560 540 561 615 642 648 644 611 532
1370.0 475 424 392 359 345 367 396 473 545 654
1410.0 777 907 1077 1164 1315 1560 1841 2069 2044 2065
1450.0 1995 1794 1567 1310 1066 849 683 548 450 379
1490.0 355 322 313 308 306 297 270 281 268 266
1530.0 246 255 242 252 246 246 244 238 244 224
1570.0 224 230 217 199 191 186 208 242 224 234
1610.0 234 246 238 254 244 251 250 249 245 257
1650.0 232 262 240 229 229 237 224 238 227 247
1690.0 229 231 226 236 219 212 211 201 191 182
1730.0 191 181 181 165 166 159 168 157 162 148
1770.0 152 143 132 135 136 129 125 118 121 116
1810.0 109 110 101 107 108 100 92 93 89 96
1850.0 86 89 88 90 88 91 97 84 86 81
1890.0 81 79 79 71 72 79 77 75 70 82
1930.0 84 84 97 93 101 106 107 95 99 89
1970.0 84 81 77 78 80 82 80 84 90 83
2010.0 90 87 87 90 89 97 100 101 95 101
2050.0 109 108 109 111 114 117 125 120 118 113
2090.0 112 114 110 105 108 108 105 111 108 114
2130.0 108 102 105 112 112 109 115 113 112 110
2170.0 115 121 123 122 122 135 131 132 127 124
2210.0 116 115 112 111 106 109 105 103 108 113
2250.0 112 115 116 109 110 114 113 115 117 118
2290.0 130 135 150 168 171 171 175 162 151 133
2330.0 121 85 52 74 54 94 137 128 80 7
2370.0 1 1 0 22 32 34 36 40 37 38
2410.0 40 39 37 28 33 30 31 26 30 29
2450.0 19 27 24 25 14 12 9 14 1 13
2490.0 5 9 14 12 21 33 26 25 37 33
2530.0 46 53 46 61 68 68 87 90 111 131
2570.0 146 172 216 267 320 365 391 373 345 281
2610.0 233 204 179 169 158 157 147 159 160 160
2650.0 155 169 165 175 188 194 206 218 228 225
2690.0 224 210 214 190 183 175 170 169 155 171
2730.0 176 168 164 166 170 188 181 177 183 187
2770.0 192 203 223 217 228 261 301 331 362 395
2810.0 421 442 468 490 538 638 795 1026 1324 1685
2850.0 2044 2372 2602 2739 2761 2644 2450 2210 2025 1911
2890.0 1893 1990 2310 2840 3526 4392 5443 6482 7039 7958
2930.0 8649 9541 10000 9026 8863 8216 8395 7931 6658 6365
2970.0 5573 4762 3698 2651 1923 1406 1054 787 597 476
3010.0 395 322 290 224 208 192 162 149 132 113
3050.0 96 78 48 45 47 56 50 50 56 43
3090.0 46 48 47 57 68 49 38 44 46 49
3130.0 43 51 52 55 47 57 56 47 61 49
3170.0 43 47 56 51 43 53 50 36 21 50
3210.0 22 34 34 8 33 16 18 39 17 26
3250.0 37 38 48 48 43 46 49 56 43 62
3290.0 73 60 68 51 55 53 31 42 51 30
3330.0 30 31 20 62 41 49 42 59 63 80
3370.0 78 87 81 78 71 68 82 114 53 76
3410.0 100 112 76 65 65 52 53 45 34 31
3450.0 58 24 47 73 65 43 61 49 47 46
3490.0 43 45 47 69 43 46 59 74 45 55
3530.0 26 40 2 39 73 61 41 44 74 36
3570.0 60 65 67 39 69 44 48 73 69 45
3610.0 64 60 77 48 36 66 70 59 36 85
3650.0 23 28 114 113 111 70 36 70 90 108
3690.0 115 67 80 77 70 89 79 105 127 121
3730.0 70 63 60 90 51 59 111 111 94 80
3770.0 103 110 109 123 108 150 180 124 105 137
3810.0 130 162 143 169 137 196 146 123 130 101
3850.0 132 194 125 139 160 163 131 143 186 141
3890.0 102 155 220 170 92 97 150 164 177 190
3930.0 114 168 131 172 187 144 181 118 121 183
##END=
