##TITLE=Ethanone, 1-(2-furanyl)-
##JCAMP-DX=4.24
##DATA TYPE=INFRARED SPECTRUM
##ORIGIN=Sadtler Research Labs Under US-EPA Contract
##OWNER=NIST Standard Reference Data Program
##CAS REGISTRY NO=1192-62-7
##MOLFORM=C 6 H 6 O 2
##XUNITS=1/CM
##YUNITS=ABSORBANCE
##XFACTOR=1.0
##YFACTOR=0.000127048
##DELTAX=4.0
##FIRSTX=450.0
##LASTX=3966.0
##FIRSTY=0.019565
##MAXX=3966
##MINX=450
##MAXY=1.27048
##MINY=0
##NPOINTS=880
##XYDATA=(X++(Y..Y))
450.0 154 90 99 69 67 77 65 166 126 134
490.0 158 93 160 79 40 58 44 50 81 99
530.0 134 211 218 142 122 115 97 91 92 92
570.0 119 139 268 343 432 465 927 1113 857 1017
610.0 1393 1882 2091 2005 1795 1690 1362 699 295 155
650.0 88 125 96 98 78 104 69 57 82 67
690.0 11 13 8 19 26 35 71 143 258 474
730.0 851 1358 1786 2128 2605 4586 3668 2682 2218 1838
770.0 1308 743 357 148 68 30 42 73 94 163
810.0 226 307 390 476 568 739 531 406 362 234
850.0 183 111 109 95 176 299 571 1041 1198 1354
890.0 1712 2072 1857 1193 1094 1305 1079 691 478 350
930.0 272 257 288 365 442 527 667 872 971 929
970.0 878 860 756 584 533 641 912 1300 1641 1648
1010.0 1698 1750 1704 1363 1117 943 767 612 509 435
1050.0 392 379 418 508 576 556 575 660 678 712
1090.0 859 1070 1208 1226 1237 1133 859 540 307 183
1130.0 94 85 86 159 320 743 1369 1689 1713 1900
1170.0 1904 1522 819 576 346 223 195 194 205 216
1210.0 276 388 608 671 660 654 694 557 395 393
1250.0 598 1074 1967 3271 4641 5414 5807 6053 5886 4356
1290.0 2597 1694 1141 612 313 199 155 136 149 174
1330.0 212 277 348 549 841 1224 1672 2018 2115 2138
1370.0 2142 1895 1472 1195 1085 1081 1005 953 945 895
1410.0 717 676 644 720 689 671 636 634 623 617
1450.0 664 800 1105 1738 2561 3370 3717 3759 3736 3173
1490.0 2487 1533 850 621 514 425 281 180 120 170
1530.0 182 241 257 262 370 562 798 1185 1958 2746
1570.0 3367 3663 3606 3431 2770 1764 964 553 406 287
1610.0 228 217 197 251 234 295 254 266 259 270
1650.0 231 285 334 362 381 402 480 707 1032 1745
1690.0 3234 5581 8550 9509 9723 9560 10000 6870 3953 2038
1730.0 1043 515 307 221 172 197 250 271 276 319
1770.0 298 269 274 266 249 209 218 231 203 212
1810.0 190 161 145 126 89 56 57 56 32 18
1850.0 33 43 36 36 27 7 48 61 79 91
1890.0 99 112 118 118 97 75 44 28 8 14
1930.0 15 15 14 2 16 19 20 15 26 14
1970.0 19 23 24 21 16 5 4 19 13 19
2010.0 21 17 15 15 25 22 24 20 17 20
2050.0 14 8 7 8 10 22 33 43 46 53
2090.0 43 44 43 43 40 35 32 23 15 9
2130.0 5 5 4 6 5 5 8 12 11 14
2170.0 18 19 20 21 21 19 19 18 17 17
2210.0 17 12 12 16 15 18 20 26 23 26
2250.0 23 24 20 22 23 23 23 17 19 13
2290.0 18 20 23 18 24 31 32 32 35 36
2330.0 36 18 20 25 17 26 20 26 24 33
2370.0 39 42 54 60 50 50 48 43 35 29
2410.0 23 18 15 15 16 20 31 36 45 52
2450.0 53 48 49 44 39 33 31 30 31 28
2490.0 23 18 13 10 7 1 3 1 8 11
2530.0 15 18 23 27 27 27 30 24 22 18
2570.0 20 19 14 20 18 16 13 16 19 22
2610.0 22 21 33 36 50 67 70 72 76 69
2650.0 55 54 45 37 37 33 35 24 25 15
2690.0 22 27 28 24 19 21 16 14 14 14
2730.0 19 28 30 33 41 44 49 40 39 35
2770.0 31 26 24 24 31 30 33 33 35 36
2810.0 32 21 31 28 41 58 67 79 88 95
2850.0 100 97 93 81 70 62 49 52 49 44
2890.0 48 49 58 53 59 59 75 84 94 124
2930.0 154 176 186 186 203 188 172 164 171 176
2970.0 189 188 205 201 182 177 162 154 159 186
3010.0 246 282 293 285 283 246 193 152 132 128
3050.0 125 110 113 102 109 106 103 102 106 104
3090.0 99 94 88 88 77 76 76 89 116 129
3130.0 116 131 119 108 86 70 75 78 73 65
3170.0 68 51 44 30 44 30 29 23 20 22
3210.0 18 29 29 26 13 27 20 25 28 28
3250.0 8 26 29 25 24 28 21 30 37 38
3290.0 17 21 20 26 25 15 21 27 24 22
3330.0 25 28 31 39 28 31 33 39 41 33
3370.0 70 86 121 160 203 218 229 227 217 166
3410.0 115 83 50 39 36 27 23 17 12 21
3450.0 22 35 26 30 19 33 31 32 33 17
3490.0 31 27 5 22 23 23 16 26 42 4
3530.0 4 27 26 24 18 32 39 44 46 19
3570.0 37 30 41 46 51 59 48 38 27 8
3610.0 33 19 9 22 19 15 20 17 30 18
3650.0 17 21 9 20 12 15 3 14 7 19
3690.0 23 7 10 2 17 16 1 2 3 3
3730.0 6 5 7 1 19 12 21 18 18 1
3770.0 3 21 8 1 13 21 3 9 3 14
3810.0 13 32 19 3 13 14 19 18 12 8
3850.0 28 22 9 1 1 25 14 7 31 37
3890.0 17 26 13 23 21 41 10 26 14 22
3930.0 44 0 21 20 27 23 69 55 3 23
##END=
