##TITLE=1-Cyclohexylethanol
##JCAMP-DX=4.24
##DATA TYPE=INFRARED SPECTRUM
##ORIGIN=Sadtler Research Labs Under US-EPA Contract
##OWNER=NIST Standard Reference Data Program
##CAS REGISTRY NO=1193-81-3
##MOLFORM=C 8 H 16 O
##XUNITS=1/CM
##YUNITS=ABSORBANCE
##XFACTOR=1.0
##YFACTOR=0.000153882
##DELTAX=4.0
##FIRSTX=450.0
##LASTX=3966.0
##FIRSTY=0.016927
##MAXX=3966
##MINX=450
##MAXY=1.53882
##MINY=0
##NPOINTS=880
##XYDATA=(X++(Y..Y))
450.0 110 60 62 62 65 57 59 43 27 69
490.0 45 39 33 35 48 66 94 96 54 46
530.0 37 54 41 47 53 58 48 36 31 30
570.0 37 10 22 17 22 25 39 46 48 54
610.0 55 67 69 75 77 66 70 61 48 45
650.0 43 33 39 39 41 43 36 47 36 34
690.0 31 33 34 28 25 23 30 31 12 33
730.0 33 39 32 30 20 27 39 33 44 43
770.0 64 72 43 42 62 37 33 29 27 33
810.0 43 44 56 106 138 187 199 179 176 140
850.0 134 147 175 187 208 199 221 242 296 368
890.0 406 368 328 266 193 155 140 173 241 363
930.0 502 613 644 633 532 364 237 164 134 114
970.0 114 127 155 196 237 264 306 332 349 359
1010.0 377 408 444 505 569 626 664 693 700 696
1050.0 700 731 771 840 922 946 940 897 827 756
1090.0 739 756 794 845 891 920 915 878 797 717
1130.0 632 551 489 455 444 436 417 385 350 315
1170.0 290 293 319 355 359 360 353 330 311 309
1210.0 328 365 398 432 467 518 561 607 650 674
1250.0 678 661 628 584 538 487 430 370 328 306
1290.0 309 327 340 340 328 302 280 261 265 282
1330.0 297 312 327 350 386 412 430 444 464 512
1370.0 606 725 840 899 904 827 717 598 492 394
1410.0 320 257 216 194 179 205 254 388 554 780
1450.0 918 1088 1044 857 661 471 312 208 132 94
1490.0 72 66 55 48 54 46 33 40 35 37
1530.0 25 35 29 35 26 29 26 30 33 18
1570.0 20 19 19 11 16 14 10 13 11 16
1610.0 17 28 17 26 22 33 34 43 38 43
1650.0 20 38 17 12 19 22 19 35 27 44
1690.0 36 44 42 50 41 43 43 40 34 29
1730.0 33 26 31 20 23 20 28 14 25 22
1770.0 27 20 19 16 14 12 15 12 10 16
1810.0 9 8 9 9 7 9 5 6 3 8
1850.0 3 5 7 7 7 8 9 5 7 6
1890.0 10 9 7 8 6 7 8 8 8 5
1930.0 7 8 7 6 7 4 6 2 7 4
1970.0 8 6 7 7 6 7 5 7 5 5
2010.0 7 4 3 4 3 4 2 1 4 2
2050.0 1 2 5 5 1 4 4 6 3 7
2090.0 7 5 4 2 2 3 5 4 6 4
2130.0 6 5 9 8 10 10 5 6 9 9
2170.0 12 11 12 13 13 14 13 13 13 11
2210.0 11 11 12 14 14 15 14 14 14 14
2250.0 13 13 10 8 8 8 7 6 4 7
2290.0 7 7 10 9 10 12 16 18 20 29
2330.0 22 23 18 20 15 20 39 36 32 17
2370.0 11 8 12 17 17 18 21 17 19 19
2410.0 18 16 17 17 14 11 14 15 13 14
2450.0 12 11 14 10 11 15 14 14 18 21
2490.0 19 23 20 15 14 12 14 11 15 16
2530.0 18 16 15 17 17 14 16 22 26 27
2570.0 33 37 40 46 47 49 53 60 62 63
2610.0 65 66 70 72 79 85 89 88 96 99
2650.0 109 125 138 154 168 171 168 157 145 136
2690.0 125 117 108 108 105 103 101 95 95 86
2730.0 89 89 90 93 91 92 96 96 95 97
2770.0 102 111 121 130 147 163 184 197 215 225
2810.0 231 244 255 276 304 345 406 519 723 1077
2850.0 1641 2450 3375 4002 4243 4029 3546 2869 2299 1921
2890.0 1701 1613 1671 1870 2206 2712 3389 4224 5330 6796
2930.0 8540 10000 9811 8993 7657 5824 3949 2542 1867 1640
2970.0 1640 1716 1756 1685 1488 1199 891 591 365 226
3010.0 147 118 100 83 77 79 74 80 77 78
3050.0 70 62 55 48 39 35 31 32 23 34
3090.0 33 33 35 30 33 23 27 21 22 31
3130.0 22 21 28 29 32 30 32 39 37 39
3170.0 37 32 32 26 31 27 31 21 32 26
3210.0 30 30 18 18 21 11 10 15 18 14
3250.0 10 12 14 17 14 7 6 8 10 13
3290.0 10 16 12 19 13 7 3 10 15 12
3330.0 11 14 14 17 11 10 21 19 20 18
3370.0 15 22 21 25 26 25 26 28 26 26
3410.0 21 25 27 33 29 22 34 39 31 35
3450.0 38 34 28 28 25 21 22 26 17 25
3490.0 25 17 10 28 16 23 23 12 14 6
3530.0 10 7 14 15 14 8 20 9 20 16
3570.0 22 20 12 11 17 26 21 16 31 15
3610.0 27 32 34 50 69 86 105 146 179 243
3650.0 317 372 421 388 345 278 186 121 74 54
3690.0 47 42 32 41 30 35 38 26 44 29
3730.0 15 28 21 41 39 36 33 14 17 41
3770.0 26 29 23 0 17 38 23 49 40 40
3810.0 39 50 30 46 23 42 39 31 51 35
3850.0 23 40 39 60 35 39 43 40 66 19
3890.0 52 32 43 59 57 65 32 52 47 55
3930.0 32 28 41 51 77 39 60 39 45 50
##END=
