##TITLE=Benzonitrile, 4-fluoro-
##JCAMP-DX=4.24
##DATA TYPE=INFRARED SPECTRUM
##ORIGIN=Sadtler Research Labs Under US-EPA Contract
##OWNER=NIST Standard Reference Data Program
##CAS REGISTRY NO=1194-02-1
##MOLFORM=C 7 H 4 F N
##XUNITS=1/CM
##YUNITS=ABSORBANCE
##XFACTOR=1.0
##YFACTOR=0.000099182
##DELTAX=4.0
##FIRSTX=450.0
##LASTX=3966.0
##FIRSTY=0.002182
##MAXX=3966
##MINX=450
##MAXY=0.99182
##MINY=0
##NPOINTS=880
##XYDATA=(X++(Y..Y))
450.0 22 164 187 248 145 154 294 80 240 321
490.0 202 106 130 261 304 249 403 365 562 962
530.0 1102 1544 2094 2417 1620 1273 1017 664 544 320
570.0 271 268 222 182 141 123 125 132 131 152
610.0 142 171 127 97 134 95 115 127 107 131
650.0 143 123 225 436 769 1399 1579 1513 1519 1346
690.0 865 533 367 270 260 162 120 161 234 230
730.0 216 137 210 172 67 0 131 72 78 110
770.0 113 89 83 75 97 136 224 326 455 578
810.0 680 865 1282 1688 2458 3303 3420 5552 5843 4324
850.0 3329 3109 2006 1310 757 407 288 175 193 113
890.0 135 171 110 146 149 146 213 210 221 223
930.0 195 205 182 192 188 175 159 108 112 125
970.0 125 149 129 112 125 114 114 137 153 189
1010.0 272 297 258 292 240 135 130 111 122 110
1050.0 130 160 131 133 186 206 283 290 381 489
1090.0 515 503 446 464 435 312 252 209 154 137
1130.0 135 194 157 206 330 930 1964 1944 1977 2068
1170.0 1481 475 259 177 141 197 186 253 278 304
1210.0 412 499 653 834 1304 2465 4298 6245 7743 9564
1250.0 9680 7757 5909 3581 1555 667 458 397 324 286
1290.0 334 351 376 338 340 311 208 137 148 155
1330.0 182 175 112 150 215 239 234 222 185 173
1370.0 188 110 157 178 141 189 172 208 288 274
1410.0 262 295 107 173 126 178 74 112 141 138
1450.0 151 69 35 155 173 371 313 533 731 687
1490.0 983 1500 3112 6179 8908 10000 8650 8598 4620 1375
1530.0 324 202 97 3 158 230 291 206 289 393
1570.0 371 355 421 501 773 1149 2153 3330 5058 5433
1610.0 4282 4203 2223 1020 502 365 290 297 354 371
1650.0 256 259 375 374 353 246 193 261 115 112
1690.0 158 194 45 37 96 157 105 7 127 171
1730.0 109 10 122 126 105 56 153 191 214 289
1770.0 225 196 237 161 147 114 84 99 63 141
1810.0 115 116 135 105 103 78 109 145 87 70
1850.0 110 139 133 135 116 80 170 211 246 298
1890.0 334 368 372 363 374 329 251 203 147 159
1930.0 147 123 121 81 95 104 101 98 100 94
1970.0 96 96 101 88 99 80 91 108 108 106
2010.0 94 69 56 61 77 71 75 75 67 80
2050.0 82 76 87 80 75 97 104 111 111 115
2090.0 100 90 81 63 56 45 36 37 28 30
2130.0 30 21 26 20 16 17 16 13 10 14
2170.0 12 11 19 15 17 14 6 7 8 9
2210.0 21 42 97 198 360 565 727 801 766 642
2250.0 402 160 55 47 48 48 33 29 28 22
2290.0 24 25 29 24 34 52 39 47 42 40
2330.0 42 29 50 37 57 54 55 51 66 48
2370.0 44 50 53 51 52 51 50 55 54 55
2410.0 52 43 39 36 33 37 50 60 71 70
2450.0 62 56 48 44 44 64 73 90 103 107
2490.0 114 99 83 70 51 40 37 37 39 43
2530.0 52 53 61 70 80 101 109 117 121 108
2570.0 90 77 57 35 21 18 16 13 13 15
2610.0 17 15 15 22 17 29 28 34 42 37
2650.0 37 28 21 25 27 25 20 24 18 21
2690.0 30 30 30 32 22 28 22 20 20 17
2730.0 18 16 21 26 29 36 38 42 45 39
2770.0 43 40 41 39 36 43 40 40 40 31
2810.0 29 23 28 27 20 23 26 18 28 28
2850.0 33 33 34 41 42 39 34 28 28 24
2890.0 26 30 30 26 21 27 22 22 26 24
2930.0 25 25 20 21 20 23 21 26 22 19
2970.0 24 19 15 22 18 14 18 13 17 17
3010.0 24 20 14 21 17 22 23 28 38 47
3050.0 71 124 151 167 171 169 140 116 125 122
3090.0 103 101 87 64 45 48 64 64 74 75
3130.0 62 53 40 30 24 22 22 25 25 21
3170.0 23 34 32 31 31 37 26 20 21 27
3210.0 21 25 24 21 17 15 16 17 21 23
3250.0 12 27 12 19 21 13 22 19 17 14
3290.0 11 13 22 23 21 14 18 20 24 27
3330.0 17 26 25 28 26 18 16 23 18 28
3370.0 28 34 30 15 30 30 39 40 36 32
3410.0 41 52 59 70 75 67 66 49 47 33
3450.0 25 27 23 32 20 29 36 40 27 30
3490.0 23 24 24 20 30 27 22 18 22 18
3530.0 19 24 19 26 30 30 34 23 23 30
3570.0 29 35 14 23 34 32 14 22 23 14
3610.0 16 22 13 13 16 10 27 21 15 10
3650.0 34 8 39 10 25 14 12 23 16 21
3690.0 19 25 14 19 7 11 33 39 13 28
3730.0 16 24 32 19 53 25 33 21 22 19
3770.0 18 22 20 13 31 14 30 11 12 18
3810.0 31 18 18 5 19 28 23 25 43 46
3850.0 32 29 49 21 13 49 29 32 17 25
3890.0 0 48 16 3 61 29 28 33 26 41
3930.0 31 13 33 46 54 36 26 34 15 29
##END=
