##TITLE=Cyclohexene, 1-methyl-4-(1-methylethyl)-, (R)-
##JCAMP-DX=4.24
##DATA TYPE=INFRARED SPECTRUM
##ORIGIN=Sadtler Research Labs Under US-EPA Contract
##OWNER=NIST Standard Reference Data Program
##CAS REGISTRY NO=1195-31-9
##MOLFORM=C 10 H 18
##XUNITS=1/CM
##YUNITS=ABSORBANCE
##XFACTOR=1.0
##YFACTOR=0.000120972
##DELTAX=4.0
##FIRSTX=450.0
##LASTX=3966.0
##FIRSTY=0.003750
##MAXX=3966
##MINX=450
##MAXY=1.20972
##MINY=0
##NPOINTS=880
##XYDATA=(X++(Y..Y))
450.0 31 61 51 30 39 18 27 45 38 46
490.0 33 30 20 43 36 29 41 39 55 29
530.0 40 44 52 60 64 72 46 36 31 26
570.0 31 24 26 20 9 18 14 19 18 11
610.0 15 3 17 20 18 24 18 26 24 31
650.0 21 24 26 16 27 21 24 21 24 32
690.0 23 17 26 24 25 30 27 22 31 38
730.0 40 41 37 50 61 60 79 86 89 82
770.0 74 90 128 201 300 399 498 620 546 447
810.0 332 225 140 96 71 53 50 50 58 71
850.0 74 82 89 90 85 79 74 82 96 112
890.0 130 163 207 258 321 387 396 359 295 232
930.0 179 144 133 145 173 203 213 213 193 173
970.0 160 150 150 142 134 131 121 128 151 186
1010.0 222 250 258 246 226 199 184 172 166 156
1050.0 139 132 137 145 174 190 205 213 202 201
1090.0 202 192 183 170 151 143 141 131 127 133
1130.0 152 189 246 329 452 584 675 693 618 485
1170.0 360 264 212 177 147 129 116 114 119 131
1210.0 157 195 223 234 237 225 224 254 271 259
1250.0 242 193 145 124 113 114 121 130 150 178
1290.0 202 208 207 208 233 278 316 348 337 320
1330.0 302 273 250 226 212 223 265 355 496 681
1370.0 842 1003 1158 1258 1309 1216 957 686 396 250
1410.0 201 183 211 261 364 507 721 923 1084 1221
1450.0 1301 1342 1390 1430 1397 1325 1188 1015 761 529
1490.0 351 235 161 134 103 111 111 100 89 81
1530.0 75 59 58 44 57 55 49 40 40 51
1570.0 51 60 53 74 76 85 80 84 76 70
1610.0 68 60 46 50 50 46 50 46 58 51
1650.0 65 31 57 52 57 57 72 68 77 61
1690.0 72 66 63 58 74 69 66 51 46 41
1730.0 39 29 31 28 32 29 28 26 22 20
1770.0 18 11 18 19 19 20 13 20 17 15
1810.0 15 16 13 14 14 13 13 8 11 4
1850.0 8 7 10 11 12 11 13 14 13 14
1890.0 13 14 13 11 11 11 13 9 12 10
1930.0 9 10 10 12 13 13 13 12 9 9
1970.0 6 4 5 3 3 5 4 3 5 5
2010.0 4 4 4 6 4 5 1 4 2 4
2050.0 4 4 2 5 6 5 3 4 3 1
2090.0 1 1 2 0 2 0 1 0 0 0
2130.0 0 0 1 3 3 0 1 2 2 0
2170.0 1 1 3 3 2 5 4 2 5 6
2210.0 5 6 8 10 13 13 14 15 14 12
2250.0 11 8 7 6 6 5 5 7 9 12
2290.0 12 14 14 14 14 13 15 16 18 24
2330.0 24 21 17 19 17 20 19 24 21 15
2370.0 16 19 20 24 24 24 26 25 25 24
2410.0 23 24 22 22 22 23 23 23 25 26
2450.0 29 31 34 35 37 35 36 36 31 32
2490.0 31 30 29 29 31 34 33 37 39 41
2530.0 39 40 41 40 39 41 42 44 48 49
2570.0 52 53 58 63 69 73 83 90 94 101
2610.0 104 106 111 109 108 106 100 100 99 99
2650.0 101 102 105 109 116 120 125 129 128 125
2690.0 126 124 124 123 125 133 142 161 184 222
2730.0 261 289 301 285 253 220 201 188 178 181
2770.0 183 189 193 196 207 222 242 268 302 347
2810.0 399 465 547 669 867 1205 1741 2400 2909 3229
2850.0 3386 3388 3539 3891 4304 4821 5439 5929 6331 6612
2890.0 6482 6322 6234 6310 6637 6868 7339 8046 8488 8725
2930.0 8707 8343 7764 6943 6405 6224 6451 7616 9170 9966
2970.0 10000 8653 6825 5062 3605 2419 1633 1235 1101 1138
3010.0 1238 1300 1282 1167 974 797 672 595 553 536
3050.0 515 486 441 387 337 287 255 236 220 215
3090.0 206 197 189 176 168 159 149 143 131 128
3130.0 124 119 114 112 112 104 97 95 100 93
3170.0 92 90 89 92 91 86 81 75 70 63
3210.0 59 50 42 36 35 31 26 26 25 21
3250.0 19 18 17 19 20 21 23 24 23 20
3290.0 22 27 24 28 26 30 31 27 30 24
3330.0 27 28 27 27 22 26 24 25 29 29
3370.0 28 28 27 25 26 26 20 20 27 22
3410.0 20 22 22 22 18 16 14 22 20 12
3450.0 13 11 11 5 18 12 11 12 12 17
3490.0 11 13 13 16 11 10 9 12 13 14
3530.0 12 4 15 12 15 17 3 16 6 16
3570.0 7 8 10 5 14 15 7 17 12 10
3610.0 21 14 10 9 20 9 18 20 21 19
3650.0 17 22 19 19 17 14 25 9 27 24
3690.0 14 14 18 13 14 13 9 11 17 21
3730.0 19 15 9 21 3 14 4 17 21 10
3770.0 14 12 14 18 17 12 13 8 15 27
3810.0 18 14 11 11 24 21 13 10 26 17
3850.0 23 2 18 19 23 2 13 19 18 17
3890.0 32 17 29 9 8 15 22 15 16 9
3930.0 6 2 6 8 11 4 21 11 12 1
##END=
