##TITLE=Bicyclo[6.1.0]nonane, 9,9-dibromo-,
##JCAMP-DX=4.24
##DATA TYPE=INFRARED SPECTRUM
##ORIGIN=Sadtler Research Labs Under US-EPA Contract
##OWNER=NIST Standard Reference Data Program
##CAS REGISTRY NO=1196-95-8
##MOLFORM=C 9 H 14 Br 2
##XUNITS=1/CM
##YUNITS=ABSORBANCE
##XFACTOR=1.0
##YFACTOR=0.000111456
##DELTAX=4.0
##FIRSTX=450.0
##LASTX=3966.0
##FIRSTY=0.000000
##MAXX=3966
##MINX=450
##MAXY=1.11456
##MINY=0
##NPOINTS=880
##XYDATA=(X++(Y..Y))
450.0 0 16 38 39 19 66 64 37 59 30
490.0 62 94 74 60 72 114 163 231 244 200
530.0 115 51 40 47 60 66 79 71 60 50
570.0 47 56 48 49 39 56 57 57 60 56
610.0 51 48 47 44 44 34 35 33 43 37
650.0 32 35 45 46 58 76 93 107 130 148
690.0 182 235 340 490 689 823 866 761 590 461
730.0 393 405 472 539 506 443 517 803 1112 1227
770.0 1002 593 313 184 131 114 110 118 154 236
810.0 347 422 382 262 173 138 142 144 152 170
850.0 250 378 457 407 271 157 104 86 82 92
890.0 89 94 88 86 82 84 84 96 131 176
930.0 212 220 198 145 111 91 83 73 77 85
970.0 106 123 130 118 100 85 80 87 96 117
1010.0 142 184 236 276 309 306 268 216 173 180
1050.0 223 329 478 617 667 597 453 298 202 153
1090.0 137 146 169 189 192 169 137 112 93 88
1130.0 88 96 129 179 219 258 309 413 592 724
1170.0 690 493 292 203 181 168 151 134 120 114
1210.0 127 145 166 185 205 218 223 220 211 193
1250.0 182 187 209 214 192 154 127 121 126 134
1290.0 138 125 108 91 81 73 69 67 74 77
1330.0 86 91 103 122 145 201 279 398 488 458
1370.0 326 171 101 87 92 107 123 136 129 106
1410.0 77 72 67 73 76 97 138 237 459 793
1450.0 1124 1238 1115 1028 1118 1180 1027 700 371 199
1490.0 126 87 69 60 60 60 61 47 41 39
1530.0 36 36 33 28 28 32 32 27 29 31
1570.0 28 32 34 34 37 36 36 37 40 39
1610.0 42 44 54 66 75 83 79 66 58 46
1650.0 35 29 28 25 26 29 32 36 38 41
1690.0 46 48 49 54 61 65 67 62 69 69
1730.0 64 64 66 67 63 59 59 57 54 54
1770.0 54 49 50 47 48 41 44 41 40 41
1810.0 37 33 34 33 30 29 30 32 28 22
1850.0 25 25 27 27 21 22 25 26 26 22
1890.0 25 25 25 25 26 24 27 26 24 26
1930.0 26 25 27 25 28 30 32 32 32 30
1970.0 28 28 26 26 27 27 30 33 33 33
2010.0 33 28 27 26 26 29 33 32 32 32
2050.0 33 31 29 29 26 27 27 27 28 28
2090.0 30 31 31 31 29 31 34 35 35 35
2130.0 33 31 31 29 29 27 28 31 30 30
2170.0 29 28 28 28 30 31 32 32 35 36
2210.0 39 41 40 38 36 37 32 32 27 28
2250.0 28 28 30 31 30 31 32 33 30 28
2290.0 25 20 16 17 17 17 19 24 21 31
2330.0 27 26 24 26 20 24 16 25 22 21
2370.0 25 24 25 21 19 21 22 25 25 21
2410.0 18 25 24 24 30 29 32 31 30 29
2450.0 27 29 28 29 28 30 29 28 28 24
2490.0 25 26 27 25 28 28 29 30 34 35
2530.0 34 34 33 33 33 29 32 31 29 29
2570.0 28 31 31 33 34 36 38 37 37 40
2610.0 39 41 45 49 52 54 53 57 57 56
2650.0 58 60 57 62 70 82 98 108 124 140
2690.0 150 151 143 127 107 94 79 75 76 78
2730.0 73 70 65 66 64 61 59 56 57 60
2770.0 67 73 83 89 96 99 106 117 125 128
2810.0 135 144 155 157 160 167 182 216 273 368
2850.0 568 977 1656 2394 2769 2584 2091 1604 1163 874
2890.0 752 738 832 1055 1474 2072 2784 3551 4487 5836
2930.0 7966 10000 9998 7981 4849 2675 1719 1318 1107 1043
2970.0 1085 1053 859 570 357 302 355 486 655 728
3010.0 681 536 347 224 172 143 126 114 107 93
3050.0 87 75 65 71 62 62 59 61 60 60
3090.0 59 58 59 58 55 52 46 46 44 42
3130.0 43 40 37 38 36 35 35 34 34 34
3170.0 30 30 31 29 33 33 29 32 36 38
3210.0 45 46 44 37 36 33 32 29 25 31
3250.0 30 30 31 28 31 31 26 20 18 18
3290.0 20 26 25 21 16 19 19 22 21 18
3330.0 21 18 21 24 25 25 24 27 28 30
3370.0 31 31 30 31 29 22 26 26 25 27
3410.0 20 24 28 26 19 25 26 19 22 26
3450.0 26 27 27 24 30 22 19 25 26 25
3490.0 29 20 24 25 22 21 19 22 22 25
3530.0 29 27 26 20 26 21 21 21 16 20
3570.0 26 27 22 28 32 25 29 22 27 26
3610.0 28 17 27 29 28 30 35 30 31 22
3650.0 27 33 35 25 16 28 29 30 30 34
3690.0 33 33 26 32 29 31 31 27 31 41
3730.0 32 21 35 36 39 32 32 30 28 37
3770.0 31 25 29 37 38 32 26 21 25 30
3810.0 24 30 28 29 27 32 19 27 26 20
3850.0 28 27 21 19 18 30 31 16 30 39
3890.0 30 32 27 26 28 22 27 22 25 25
3930.0 31 43 27 43 42 24 26 32 19 24
##END=
