##TITLE=Methanesulfanilide
##JCAMP-DX=4.24
##DATA TYPE=INFRARED SPECTRUM
##ORIGIN=Sadtler Research Labs Under US-EPA Contract
##OWNER=NIST Standard Reference Data Program
##CAS REGISTRY NO=1197-22-4
##MOLFORM=C 7 H 9 N O 2 S
##XUNITS=1/CM
##YUNITS=ABSORBANCE
##XFACTOR=1.0
##YFACTOR=0.000052750
##DELTAX=4.0
##FIRSTX=450.0
##LASTX=3966.0
##FIRSTY=0.017777
##MAXX=3966
##MINX=450
##MAXY=0.5275
##MINY=0
##NPOINTS=880
##XYDATA=(X++(Y..Y))
450.0 337 166 76 10 80 138 180 219 313 383
490.0 529 665 738 852 1088 1461 1934 2515 2856 3065
530.0 2689 2265 1637 1099 668 458 287 178 173 120
570.0 112 79 54 94 89 116 109 85 120 97
610.0 117 171 246 291 262 220 161 121 78 119
650.0 80 101 114 145 193 344 444 554 793 947
690.0 1151 1152 1056 841 697 608 608 717 877 1150
730.0 1450 1788 2005 2134 2063 1891 1595 1377 1161 1021
770.0 906 778 674 614 575 574 586 595 634 671
810.0 711 764 774 747 666 514 417 308 241 207
850.0 209 262 336 428 591 800 1081 1456 1880 2260
890.0 2460 2474 2303 2061 1831 1645 1424 1192 973 785
930.0 628 523 458 436 493 668 1135 1961 2949 3602
970.0 3506 2812 1859 1032 610 427 334 303 256 222
1010.0 196 169 194 340 549 581 529 409 176 60
1050.0 25 42 93 130 181 208 226 204 183 143
1090.0 117 104 99 96 89 92 99 108 123 154
1130.0 202 293 441 686 1085 1829 3199 5571 8477 10000
1170.0 9808 7926 4738 2406 1300 688 409 307 275 325
1210.0 434 593 712 768 732 607 472 387 335 310
1250.0 311 353 417 526 692 885 1081 1216 1264 1209
1290.0 1081 971 899 855 838 871 947 1089 1255 1423
1330.0 1477 1418 1414 1427 1582 1849 2146 2329 2359 2284
1370.0 2122 2002 1998 2188 2664 3582 4980 6555 7291 6867
1410.0 5646 3804 2410 1808 1634 1407 1200 861 549 446
1450.0 454 532 684 840 1044 1198 1249 1218 1217 1588
1490.0 2404 3073 3123 2748 1860 943 553 427 387 297
1530.0 236 185 161 163 141 134 143 188 182 181
1570.0 221 274 352 491 699 1056 1466 1816 1826 1575
1610.0 1152 723 475 322 256 179 166 145 113 111
1650.0 116 110 77 64 61 57 71 43 71 82
1690.0 65 60 95 98 89 81 103 135 112 95
1730.0 92 109 73 63 68 72 53 53 60 65
1770.0 83 101 95 105 101 99 93 80 74 58
1810.0 53 43 40 38 46 50 43 45 56 68
1850.0 63 65 74 74 81 85 75 66 63 56
1890.0 51 53 36 42 43 51 55 69 76 78
1930.0 89 97 106 111 104 100 99 86 75 65
1970.0 50 40 38 38 39 38 38 39 33 34
2010.0 36 39 39 42 44 44 43 45 45 51
2050.0 48 49 50 57 58 55 57 57 50 47
2090.0 53 47 44 49 47 46 45 42 42 40
2130.0 39 38 31 36 36 37 31 30 29 31
2170.0 36 35 35 33 37 32 35 30 33 30
2210.0 32 29 30 29 29 27 30 31 29 32
2250.0 26 32 30 30 36 42 45 42 46 55
2290.0 55 56 53 58 54 61 69 75 86 90
2330.0 82 83 73 79 67 71 66 56 39 45
2370.0 44 53 61 54 41 38 33 28 25 21
2410.0 22 22 17 22 23 21 25 28 25 26
2450.0 27 19 24 23 21 25 27 32 35 40
2490.0 43 47 47 53 50 53 48 47 47 46
2530.0 42 36 33 37 39 37 41 43 47 48
2570.0 43 46 39 38 29 30 29 24 18 19
2610.0 20 18 16 17 21 19 17 15 12 11
2650.0 14 11 11 10 11 9 10 11 14 12
2690.0 9 8 9 6 7 4 10 8 10 8
2730.0 8 14 11 11 12 15 21 12 5 9
2770.0 8 4 1 5 1 4 9 2 4 11
2810.0 12 10 12 12 19 16 18 16 14 17
2850.0 17 15 16 10 19 18 24 26 23 27
2890.0 17 21 18 20 24 26 16 28 33 35
2930.0 45 53 58 61 65 66 57 53 49 42
2970.0 41 35 35 28 28 33 31 37 54 75
3010.0 104 153 213 272 320 371 416 492 560 608
3050.0 617 596 566 540 530 556 612 682 720 690
3090.0 610 471 377 314 262 221 170 136 103 77
3130.0 57 40 41 33 28 29 26 31 20 24
3170.0 26 25 21 18 27 24 18 14 15 20
3210.0 22 14 29 14 16 19 18 25 22 19
3250.0 16 18 19 14 15 18 15 25 18 18
3290.0 23 21 21 16 19 26 20 22 33 27
3330.0 24 19 33 37 37 41 45 46 57 67
3370.0 87 100 125 164 208 283 374 489 623 769
3410.0 910 1005 1024 936 788 593 415 283 195 147
3450.0 114 92 87 87 67 56 59 40 40 28
3490.0 18 20 34 18 7 15 8 14 6 18
3530.0 20 0 14 15 5 6 5 18 0 7
3570.0 8 17 16 17 17 36 22 8 23 1
3610.0 15 21 4 22 28 10 1 17 4 16
3650.0 15 7 31 28 10 6 21 19 19 15
3690.0 25 34 40 22 22 33 26 22 11 28
3730.0 23 5 14 34 30 35 8 4 21 27
3770.0 19 19 6 12 12 23 33 23 30 16
3810.0 9 24 12 19 5 3 27 13 16 28
3850.0 22 43 43 35 14 23 25 19 32 6
3890.0 21 18 36 46 35 26 26 39 31 19
3930.0 23 24 6 24 48 34 38 25 36 7
##END=
