##TITLE=2-Benzofurancarboxaldehyde, 3-methyl-,
##JCAMP-DX=4.24
##DATA TYPE=INFRARED SPECTRUM
##ORIGIN=Sadtler Research Labs Under US-EPA Contract
##OWNER=NIST Standard Reference Data Program
##CAS REGISTRY NO=1199-07-1
##MOLFORM=C 10 H 8 O 2
##XUNITS=1/CM
##YUNITS=ABSORBANCE
##XFACTOR=1.0
##YFACTOR=0.000160239
##DELTAX=4.0
##FIRSTX=450.0
##LASTX=3966.0
##FIRSTY=0.000000
##MAXX=3966
##MINX=450
##MAXY=1.60239
##MINY=0
##NPOINTS=880
##XYDATA=(X++(Y..Y))
450.0 0 42 55 21 59 50 98 175 304 526
490.0 596 542 539 296 118 70 58 76 99 225
530.0 342 313 347 228 98 76 71 46 45 56
570.0 60 45 49 48 40 36 40 42 34 36
610.0 41 35 51 56 65 70 63 37 24 23
650.0 23 26 26 43 54 167 185 173 162 103
690.0 55 46 66 83 109 119 136 175 275 535
730.0 1022 1909 2757 3807 4824 3548 2617 1617 800 353
770.0 146 89 64 66 62 60 61 55 58 47
810.0 53 74 132 290 662 1234 1617 1728 1656 1306
850.0 986 911 887 876 792 688 693 561 461 415
890.0 291 214 184 174 190 194 192 166 127 96
930.0 92 86 59 56 45 44 51 58 59 59
970.0 51 46 48 54 59 66 83 125 198 236
1010.0 253 245 207 185 186 182 175 166 161 164
1050.0 178 200 238 290 333 339 321 279 240 235
1090.0 248 275 310 386 511 654 876 1262 1581 1748
1130.0 1710 1378 950 614 501 435 411 382 288 267
1170.0 331 436 549 667 713 683 625 476 333 239
1210.0 190 153 131 136 166 236 347 544 802 1126
1250.0 1299 1230 1072 722 498 527 626 752 744 645
1290.0 540 364 207 167 169 196 251 330 449 651
1330.0 923 1134 1300 1226 968 793 639 511 453 355
1370.0 296 321 418 641 856 989 1110 1052 836 684
1410.0 520 340 298 243 235 238 297 377 487 620
1450.0 686 690 654 464 337 263 270 233 203 221
1490.0 239 210 217 210 241 273 252 268 305 307
1530.0 344 363 406 447 465 492 612 800 1056 1443
1570.0 2044 2894 3874 4691 4881 4890 3937 3020 2091 1254
1610.0 796 609 508 389 313 209 195 171 151 143
1650.0 181 185 205 256 322 399 478 530 721 1033
1690.0 1714 3434 6760 10000 9351 9430 5141 2100 1138 877
1730.0 764 685 545 454 391 332 267 228 210 210
1770.0 247 247 228 219 183 153 128 104 114 107
1810.0 120 130 128 135 138 148 129 110 99 96
1850.0 84 93 120 143 158 170 139 119 111 114
1890.0 130 133 125 111 95 68 55 57 75 96
1930.0 122 133 120 107 67 46 40 41 39 43
1970.0 40 34 32 27 25 30 30 24 26 29
2010.0 31 40 47 42 36 34 30 27 26 24
2050.0 23 23 27 32 39 39 41 43 41 42
2090.0 39 35 31 29 30 32 34 33 33 30
2130.0 31 30 31 31 30 32 31 29 29 27
2170.0 24 24 24 26 28 27 30 31 29 26
2210.0 23 22 23 22 23 24 25 27 31 31
2250.0 31 34 35 36 36 36 37 41 44 46
2290.0 51 57 65 68 69 66 62 47 46 42
2330.0 37 29 28 35 35 54 30 31 25 23
2370.0 22 28 38 40 32 28 27 25 27 29
2410.0 31 31 31 33 34 33 35 37 39 40
2450.0 43 46 51 50 51 52 55 52 55 55
2490.0 53 51 50 52 53 51 54 57 57 57
2530.0 54 50 46 43 41 38 39 39 37 38
2570.0 38 38 39 42 46 51 53 57 58 61
2610.0 65 66 69 69 63 60 55 54 55 55
2650.0 53 57 62 66 70 75 79 85 84 83
2690.0 82 82 85 95 110 135 173 232 309 389
2730.0 445 466 447 400 355 335 351 407 496 602
2770.0 693 725 692 627 515 404 331 301 298 321
2810.0 389 513 678 834 1022 1234 1433 1528 1458 1340
2850.0 1055 695 456 324 261 242 240 235 228 215
2890.0 200 187 177 172 171 181 206 253 326 415
2930.0 488 519 522 489 416 348 300 270 237 202
2970.0 178 163 154 150 150 157 160 163 164 160
3010.0 155 151 155 166 182 213 254 298 334 363
3050.0 385 417 454 492 552 645 704 719 689 594
3090.0 508 446 405 336 240 162 107 76 58 50
3130.0 47 42 39 36 37 42 42 39 42 39
3170.0 37 38 37 38 38 37 34 31 30 30
3210.0 28 28 29 31 26 29 29 28 25 28
3250.0 27 31 28 28 32 33 34 35 37 37
3290.0 36 36 36 36 36 35 36 38 38 37
3330.0 33 35 32 29 33 36 35 42 43 48
3370.0 58 73 97 132 164 182 178 152 108 76
3410.0 53 37 33 33 29 29 36 35 33 34
3450.0 32 25 27 32 31 32 30 30 30 26
3490.0 29 28 32 31 23 25 31 30 29 28
3530.0 29 31 31 33 31 33 32 32 35 30
3570.0 36 38 50 46 45 40 32 35 34 33
3610.0 30 27 26 29 33 33 32 40 34 34
3650.0 24 29 32 27 35 25 34 24 36 29
3690.0 33 33 37 30 27 27 32 29 28 33
3730.0 25 30 35 30 23 25 30 30 32 29
3770.0 27 31 29 28 35 32 34 27 31 22
3810.0 29 22 30 25 26 33 24 22 30 30
3850.0 25 22 22 33 32 24 30 33 29 35
3890.0 37 38 38 30 37 45 35 38 42 32
3930.0 38 38 44 50 43 39 44 39 38 39
##END=
