##TITLE=Benzyl Benzoate
##JCAMP-DX=4.24
##DATA TYPE=INFRARED SPECTRUM
##ORIGIN=Sadtler Research Labs Under US-EPA Contract
##OWNER=NIST Standard Reference Data Program
##CAS REGISTRY NO=120-51-4
##MOLFORM=C 14 H 12 O 2
##XUNITS=1/CM
##YUNITS=ABSORBANCE
##XFACTOR=1.0
##YFACTOR=0.000206506
##DELTAX=4.0
##FIRSTX=450.0
##LASTX=3966.0
##FIRSTY=0.003511
##MAXX=3966
##MINX=450
##MAXY=2.06506
##MINY=0
##NPOINTS=880
##XYDATA=(X++(Y..Y))
450.0 17 29 17 7 38 28 50 61 51 74
490.0 81 37 53 59 72 87 125 157 175 177
530.0 135 107 70 54 56 48 40 39 50 42
570.0 64 81 114 135 153 148 165 153 134 112
610.0 86 98 91 77 62 49 56 47 54 60
650.0 70 90 107 154 184 335 467 587 681 772
690.0 1003 1236 1568 1793 2193 2269 2141 1767 1370 1051
730.0 830 715 684 736 773 736 585 425 292 207
770.0 150 125 109 114 118 134 143 152 160 151
810.0 149 140 135 129 125 116 115 96 90 90
850.0 93 92 89 102 106 118 126 136 144 149
890.0 149 146 162 188 235 260 251 211 178 168
930.0 174 197 213 243 274 310 330 339 333 319
970.0 304 283 257 223 211 195 195 207 243 253
1010.0 267 319 500 998 1482 1323 730 304 232 241
1050.0 305 436 660 980 1219 1224 1059 1008 1255 1906
1090.0 2864 3607 3904 4008 4203 3947 3087 2043 1338 924
1130.0 678 525 437 376 333 288 266 248 261 315
1170.0 524 975 1320 1132 645 325 260 265 328 391
1210.0 437 447 468 547 721 1039 1463 1943 2246 2462
1250.0 2823 3771 5627 7446 10000 8614 7097 3802 2135 1316
1290.0 964 781 680 615 608 705 770 705 516 368
1330.0 316 294 272 261 245 232 222 230 260 318
1370.0 424 533 557 453 312 208 160 139 124 122
1410.0 110 118 106 123 121 149 174 228 319 468
1450.0 651 718 641 479 387 303 240 187 182 179
1490.0 214 285 345 336 261 155 119 106 85 89
1530.0 73 84 76 86 81 90 95 96 103 103
1570.0 120 134 153 187 195 214 220 266 283 304
1610.0 256 191 138 115 95 88 89 97 106 95
1650.0 95 84 70 75 73 79 87 109 114 144
1690.0 158 191 203 232 253 283 360 500 797 1214
1730.0 2122 2998 4395 4618 4790 3345 2269 1353 826 550
1770.0 426 348 300 280 249 240 226 227 203 189
1810.0 168 146 121 93 76 58 56 49 50 44
1850.0 53 54 54 59 62 67 69 77 78 80
1890.0 78 80 81 86 91 90 92 89 87 74
1930.0 68 63 67 71 80 93 102 109 102 90
1970.0 74 62 47 35 29 26 23 20 20 18
2010.0 17 16 17 17 18 21 21 22 23 27
2050.0 30 34 38 40 42 42 42 36 36 32
2090.0 30 26 23 21 18 17 16 16 14 14
2130.0 14 15 14 15 15 13 13 13 13 12
2170.0 13 14 15 15 13 14 13 14 12 13
2210.0 12 14 13 13 12 12 13 12 14 13
2250.0 13 12 12 12 12 13 11 13 11 12
2290.0 10 10 10 12 14 17 25 29 29 24
2330.0 24 24 22 26 23 26 25 24 25 26
2370.0 25 23 21 17 11 9 7 6 6 5
2410.0 4 4 6 5 5 5 5 5 4 4
2450.0 4 4 2 3 2 2 3 3 4 2
2490.0 3 2 5 3 6 8 7 9 8 8
2530.0 9 9 7 6 6 6 7 5 5 4
2570.0 6 5 6 4 6 8 7 9 9 11
2610.0 9 10 7 6 7 5 5 6 3 3
2650.0 3 1 2 1 0 1 0 1 0 1
2690.0 1 3 3 3 3 3 3 3 6 5
2730.0 7 5 8 7 9 9 8 9 10 9
2770.0 8 10 9 9 10 10 10 12 13 14
2810.0 17 20 23 27 31 33 34 36 35 38
2850.0 39 41 45 48 53 60 66 76 89 104
2890.0 120 134 141 137 129 119 106 97 93 98
2930.0 107 122 142 176 219 271 329 374 387 359
2970.0 310 258 215 184 159 140 125 116 110 118
3010.0 134 157 185 228 294 384 496 597 662 660
3050.0 602 539 512 559 688 887 1057 1052 846 606
3090.0 470 441 412 366 308 249 203 154 109 72
3130.0 49 33 25 21 19 18 18 20 21 25
3170.0 26 25 18 14 8 7 7 5 5 7
3210.0 6 3 5 6 4 4 6 3 2 5
3250.0 3 4 4 4 4 4 4 3 3 5
3290.0 6 5 5 4 7 5 5 5 4 6
3330.0 7 9 10 10 9 10 10 9 6 7
3370.0 6 6 6 5 5 7 7 6 6 5
3410.0 7 6 3 6 5 8 9 9 7 11
3450.0 19 24 32 36 39 34 23 20 14 9
3490.0 2 5 4 4 1 4 6 4 6 6
3530.0 4 6 4 4 8 4 3 6 0 9
3570.0 5 9 14 10 15 12 13 12 8 4
3610.0 8 7 5 9 6 8 11 4 13 6
3650.0 18 18 12 20 7 18 9 24 9 10
3690.0 13 13 10 10 13 15 12 12 17 11
3730.0 14 14 20 10 18 7 20 9 6 11
3770.0 10 12 6 10 9 6 8 8 5 16
3810.0 3 10 5 16 11 10 13 16 14 13
3850.0 12 20 14 11 16 20 19 15 8 21
3890.0 11 16 4 20 16 17 7 12 11 15
3930.0 22 13 16 16 13 11 10 5 19 12
##END=
