##TITLE=Indole
##JCAMP-DX=4.24
##DATA TYPE=INFRARED SPECTRUM
##ORIGIN=Sadtler Research Labs Under US-EPA Contract
##OWNER=NIST Standard Reference Data Program
##CAS REGISTRY NO=120-72-9
##MOLFORM=C 8 H 7 N
##XUNITS=1/CM
##YUNITS=ABSORBANCE
##XFACTOR=1.0
##YFACTOR=0.000113635
##DELTAX=4.0
##FIRSTX=450.0
##LASTX=3966.0
##FIRSTY=0.000000
##MAXX=3966
##MINX=450
##MAXY=1.13635
##MINY=0
##NPOINTS=880
##XYDATA=(X++(Y..Y))
450.0 0 17 29 181 147 82 243 295 283 237
490.0 264 206 211 174 241 237 149 171 152 185
530.0 197 234 189 202 176 201 224 223 264 252
570.0 310 285 332 459 532 584 782 1120 987 825
610.0 775 716 541 461 375 340 314 314 334 246
650.0 269 238 269 235 176 356 521 360 490 543
690.0 699 937 1157 1444 1483 2275 3813 4389 4143 5385
730.0 5033 8507 10000 7389 5954 6638 5540 4876 4061 2727
770.0 1902 1724 1625 1615 1671 1701 1855 2066 2272 2387
810.0 2418 2458 2433 2363 2218 2122 1887 1644 1417 1215
850.0 1039 839 669 580 497 485 477 509 548 772
890.0 1243 1403 1544 1595 1612 1694 1364 1144 1033 890
930.0 755 669 592 496 442 394 371 352 364 363
970.0 363 366 381 415 456 512 547 591 722 803
1010.0 786 715 628 614 513 373 347 335 383 455
1050.0 590 770 947 1026 1192 1354 1550 1454 1294 1407
1090.0 1355 1133 970 833 699 607 613 580 525 507
1130.0 536 502 488 490 475 450 440 457 441 444
1170.0 456 483 462 460 492 523 572 550 490 501
1210.0 550 462 436 452 539 678 859 1015 798 846
1250.0 1100 1032 1075 1428 1701 1737 1903 1772 1778 1210
1290.0 599 367 338 389 520 729 1028 1353 1621 1822
1330.0 2033 2271 2443 2279 2126 1737 1590 1226 834 530
1370.0 398 325 338 451 619 997 1324 1666 1851 1922
1410.0 1945 1702 1465 1111 829 735 777 949 1391 1822
1450.0 2131 2108 2151 2206 1975 1407 1019 941 913 798
1490.0 723 675 678 653 669 727 686 651 674 652
1530.0 573 522 521 601 659 726 831 884 997 935
1570.0 896 770 746 695 608 533 495 472 495 551
1610.0 627 654 671 610 609 499 413 312 291 310
1650.0 364 357 397 350 375 381 376 409 428 523
1690.0 513 523 498 496 401 364 298 278 244 230
1730.0 212 201 240 259 282 296 343 305 320 316
1770.0 287 261 240 243 253 254 263 250 231 225
1810.0 187 153 157 152 164 176 201 222 215 227
1850.0 232 242 235 254 266 303 317 306 305 298
1890.0 276 241 238 252 295 318 314 312 279 264
1930.0 207 156 143 135 138 141 143 145 145 138
1970.0 142 136 135 129 133 126 134 138 140 138
2010.0 140 133 128 126 125 125 122 121 119 121
2050.0 118 116 121 115 118 119 122 124 125 123
2090.0 124 124 123 125 126 132 133 138 135 142
2130.0 145 142 142 141 138 138 142 141 141 142
2170.0 139 139 136 136 132 126 126 125 126 131
2210.0 135 138 145 143 149 150 152 151 151 149
2250.0 145 144 139 139 135 130 125 121 111 103
2290.0 93 79 63 55 42 16 38 34 26 43
2330.0 44 68 72 83 35 20 34 68 95 79
2370.0 71 70 63 67 93 115 131 136 140 139
2410.0 135 134 132 128 126 122 122 125 124 129
2450.0 132 140 147 159 173 187 206 214 222 224
2490.0 230 222 207 195 187 177 165 153 151 150
2530.0 145 142 141 141 142 140 141 142 143 141
2570.0 140 138 141 150 156 166 172 173 173 166
2610.0 155 149 139 133 130 128 133 139 145 147
2650.0 149 145 147 141 141 141 139 136 129 128
2690.0 123 119 114 116 114 115 116 118 125 121
2730.0 123 120 115 108 102 98 89 86 80 79
2770.0 80 80 79 74 82 80 86 89 92 92
2810.0 92 93 98 94 92 98 94 100 102 111
2850.0 112 114 118 116 108 110 106 102 96 98
2890.0 94 96 103 112 115 123 129 130 134 145
2930.0 154 156 164 161 171 167 176 182 182 191
2970.0 193 193 182 167 147 146 151 166 200 263
3010.0 342 446 554 676 812 969 1159 1303 1411 1493
3050.0 1699 2045 2413 2651 2715 2733 2722 2532 2047 1485
3090.0 1270 1129 927 706 549 442 371 348 368 427
3130.0 466 486 473 441 390 322 203 100 53 41
3170.0 35 26 28 30 30 28 30 27 28 29
3210.0 27 29 23 31 33 37 33 35 37 34
3250.0 31 28 22 26 21 20 29 26 21 18
3290.0 22 29 26 31 29 33 33 34 31 33
3330.0 32 38 37 24 33 31 34 37 33 41
3370.0 40 32 33 34 39 38 38 41 44 41
3410.0 49 47 50 47 72 79 82 100 113 140
3450.0 161 216 247 302 350 408 488 603 757 968
3490.0 1228 1369 1536 1932 2537 3191 3847 3841 3296 3312
3530.0 3412 2455 1368 747 363 201 160 72 125 34
3570.0 69 171 230 269 206 143 95 69 99 81
3610.0 50 40 72 44 83 78 43 103 94 124
3650.0 140 86 106 71 123 92 142 73 57 89
3690.0 104 55 62 81 78 102 57 61 70 57
3730.0 103 163 74 98 133 159 67 31 54 64
3770.0 67 65 88 83 82 92 110 150 155 119
3810.0 108 100 175 133 110 114 155 173 139 83
3850.0 169 288 106 142 182 172 152 171 164 194
3890.0 182 177 195 207 128 133 176 184 187 163
3930.0 194 160 179 195 182 154 166 169 172 174
##END=
