##TITLE=Benzene, 1,2,4-trichloro-
##JCAMP-DX=4.24
##DATA TYPE=INFRARED SPECTRUM
##ORIGIN=Sadtler Research Labs Under US-EPA Contract
##OWNER=NIST Standard Reference Data Program
##CAS REGISTRY NO=120-82-1
##MOLFORM=C 6 H 3 Cl 3
##XUNITS=1/CM
##YUNITS=ABSORBANCE
##XFACTOR=1.0
##YFACTOR=0.000081198
##DELTAX=4.0
##FIRSTX=450.0
##LASTX=3966.0
##FIRSTY=0.000000
##MAXX=3966
##MINX=450
##MAXY=0.81198
##MINY=0
##NPOINTS=880
##XYDATA=(X++(Y..Y))
450.0 0 540 778 715 439 682 518 576 438 606
490.0 491 536 570 515 587 530 616 522 541 542
530.0 565 566 615 756 819 1007 1050 976 1029 1533
570.0 2426 2834 2816 2074 1108 718 719 694 672 561
610.0 558 515 515 503 515 514 504 543 536 560
650.0 548 558 514 556 587 801 1032 1099 1083 875
690.0 640 575 585 577 529 539 527 539 546 558
730.0 541 546 540 548 534 532 529 534 592 617
770.0 734 814 734 829 832 889 1020 1345 1881 2540
810.0 4097 5097 4911 4379 2897 1345 853 697 652 619
850.0 690 726 925 1206 1439 1876 1724 1148 1054 697
890.0 569 516 527 522 519 538 516 532 514 519
930.0 505 515 515 514 515 505 510 506 507 509
970.0 516 514 529 531 547 543 542 535 538 551
1010.0 551 575 632 846 1257 2162 3053 3130 3105 2211
1050.0 1202 879 703 654 627 623 632 666 895 1632
1090.0 3263 4435 4867 4417 2774 1905 1838 2238 2615 2670
1130.0 2478 1870 1657 1422 1283 1205 1056 1036 1011 951
1170.0 822 726 643 583 565 573 581 574 564 528
1210.0 516 515 522 534 567 631 758 961 1095 1135
1250.0 1038 860 703 652 612 538 518 500 499 495
1290.0 491 493 501 502 508 506 506 499 510 519
1330.0 515 528 522 565 639 757 917 1080 1228 1418
1370.0 1555 1525 1606 1519 1269 1117 902 719 676 723
1410.0 903 1306 1634 1763 1608 1264 1023 1056 1276 1586
1450.0 2735 5442 8997 10000 8283 4387 1282 616 788 746
1490.0 888 921 960 846 692 515 501 494 413 508
1530.0 458 524 492 604 705 866 1131 1331 1768 2019
1570.0 2237 2121 1789 1462 1096 864 777 638 636 568
1610.0 581 580 604 600 580 581 533 515 509 499
1650.0 484 466 508 516 518 504 511 498 485 449
1690.0 489 486 457 462 476 497 481 479 515 556
1730.0 585 616 642 652 631 568 548 513 490 491
1770.0 487 482 504 488 495 473 469 477 473 493
1810.0 504 502 504 496 485 477 475 487 472 465
1850.0 474 484 482 493 491 511 556 596 627 617
1890.0 597 560 522 501 490 490 494 487 487 487
1930.0 490 484 484 476 482 484 486 487 492 489
1970.0 485 485 481 480 478 469 467 471 475 470
2010.0 473 469 466 468 470 471 475 472 469 469
2050.0 469 471 470 466 464 467 467 468 466 465
2090.0 464 464 470 469 466 466 467 467 470 475
2130.0 476 484 483 481 476 473 473 470 468 467
2170.0 466 468 468 472 472 469 467 467 466 469
2210.0 469 469 465 467 464 465 465 467 470 465
2250.0 470 468 468 473 470 477 482 487 496 495
2290.0 495 491 481 482 480 478 482 476 484 487
2330.0 493 488 485 495 489 495 493 500 494 487
2370.0 482 484 483 480 475 471 473 470 473 470
2410.0 470 467 470 465 463 463 464 461 461 461
2450.0 460 457 457 459 457 457 461 460 463 467
2490.0 465 468 471 473 471 472 472 471 472 467
2530.0 463 463 459 458 458 455 457 456 459 458
2570.0 457 458 458 458 461 462 465 466 467 467
2610.0 466 465 467 464 465 462 463 460 462 462
2650.0 461 464 467 463 460 464 460 460 458 457
2690.0 461 463 467 470 466 464 453 453 448 446
2730.0 442 439 438 440 444 445 438 439 437 444
2770.0 447 451 456 465 475 484 491 494 493 496
2810.0 493 486 476 464 457 451 450 453 448 449
2850.0 446 450 451 451 449 447 448 447 445 444
2890.0 446 443 439 438 443 446 446 444 441 444
2930.0 447 444 447 459 458 455 454 454 455 451
2970.0 454 453 455 452 453 453 452 455 455 455
3010.0 455 456 458 456 456 451 455 454 455 454
3050.0 455 454 464 466 484 502 539 559 560 545
3090.0 520 489 469 461 459 457 460 458 455 450
3130.0 455 451 459 458 455 458 460 454 455 458
3170.0 454 455 454 455 454 460 453 455 452 454
3210.0 455 456 453 455 455 456 455 455 454 451
3250.0 456 457 452 450 452 453 456 458 455 452
3290.0 452 459 456 454 457 454 455 458 453 452
3330.0 452 454 456 455 456 459 455 459 452 455
3370.0 454 456 453 455 455 456 456 458 457 452
3410.0 453 456 459 455 454 453 459 458 454 455
3450.0 450 450 453 452 453 455 453 455 449 455
3490.0 450 457 451 446 451 454 453 458 450 449
3530.0 452 460 455 449 453 450 450 461 453 454
3570.0 449 453 459 452 454 446 450 452 447 453
3610.0 456 462 452 455 457 442 464 451 454 445
3650.0 451 469 456 474 452 463 454 458 451 449
3690.0 453 453 454 448 451 456 450 455 468 438
3730.0 454 451 460 432 473 434 455 456 456 462
3770.0 474 472 470 466 456 458 443 463 441 466
3810.0 431 463 460 449 455 446 456 454 448 447
3850.0 464 456 452 459 447 447 464 458 457 473
3890.0 451 473 455 465 453 457 452 464 449 437
3930.0 464 458 463 469 460 438 466 449 454 452
##END=
