##TITLE=Phenol, 2,4-bis(1,1-dimethylpropyl)-
##JCAMP-DX=4.24
##DATA TYPE=INFRARED SPECTRUM
##ORIGIN=Sadtler Research Labs Under US-EPA Contract
##OWNER=NIST Standard Reference Data Program
##CAS REGISTRY NO=120-95-6
##MOLFORM=C 16 H 26 O
##XUNITS=1/CM
##YUNITS=ABSORBANCE
##XFACTOR=1.0
##YFACTOR=0.000141547
##DELTAX=4.0
##FIRSTX=450.0
##LASTX=3966.0
##FIRSTY=0.041332
##MAXX=3966
##MINX=450
##MAXY=1.41547
##MINY=0
##NPOINTS=880
##XYDATA=(X++(Y..Y))
450.0 292 360 210 163 332 0 99 814 538 280
490.0 478 483 523 416 470 452 540 509 499 466
530.0 449 389 312 311 287 308 341 359 323 371
570.0 357 370 291 445 343 315 296 283 274 253
610.0 258 248 248 252 263 263 312 376 440 492
650.0 456 411 410 402 389 322 279 253 242 242
690.0 245 274 314 396 515 535 465 347 289 257
730.0 262 254 267 266 269 248 256 261 277 300
770.0 426 703 899 922 851 751 805 947 1237 1431
810.0 1335 1032 819 740 647 499 368 287 266 255
850.0 240 243 237 246 252 299 335 378 414 439
890.0 438 415 369 315 288 283 288 297 307 308
930.0 310 306 295 277 253 234 226 219 215 233
970.0 237 239 245 251 283 308 345 389 476 566
1010.0 627 611 517 424 368 353 372 402 437 464
1050.0 488 516 527 510 496 553 747 1108 1465 1498
1090.0 1164 747 525 453 456 490 533 568 595 613
1130.0 634 724 956 1314 1603 1660 1587 1592 1779 2064
1170.0 2355 2576 2652 2476 2152 1846 1659 1537 1398 1313
1210.0 1256 1243 1239 1213 1155 1144 1234 1527 2028 2508
1250.0 2557 2057 1431 1052 911 896 976 1063 1096 1063
1290.0 1052 1141 1257 1290 1185 1036 925 950 1122 1389
1330.0 1547 1456 1160 834 627 542 549 680 1023 1393
1370.0 1489 1330 1274 1501 1745 1785 1654 1621 1753 1794
1410.0 1490 1004 680 521 459 449 485 537 620 745
1450.0 937 1145 1407 1625 1833 1952 2086 2178 2106 1954
1490.0 1895 2127 2489 2761 2593 2020 1328 866 646 519
1530.0 456 418 388 356 309 273 250 253 232 223
1570.0 229 239 245 259 270 293 316 351 393 423
1610.0 411 356 290 230 204 180 181 179 170 173
1650.0 178 182 170 180 197 203 199 167 162 156
1690.0 140 133 145 143 136 126 136 147 137 138
1730.0 148 155 143 132 132 137 135 136 141 135
1770.0 141 138 124 125 121 121 120 117 119 118
1810.0 118 122 120 120 119 119 112 115 124 137
1850.0 143 145 142 131 118 114 107 109 113 116
1890.0 111 104 98 91 90 93 87 83 84 80
1930.0 79 83 80 81 83 80 78 79 77 78
1970.0 71 68 65 64 64 66 63 60 62 61
2010.0 61 61 62 64 65 66 66 70 71 71
2050.0 69 68 68 65 65 59 56 56 54 51
2090.0 51 50 50 47 48 50 48 48 48 48
2130.0 49 49 47 44 43 44 44 44 44 45
2170.0 45 43 43 43 43 40 40 40 40 38
2210.0 41 40 39 39 37 38 38 38 43 41
2250.0 43 42 44 46 45 47 48 49 52 56
2290.0 54 53 54 53 48 48 49 50 48 46
2330.0 40 41 47 37 47 49 37 47 37 49
2370.0 56 72 79 84 85 84 83 83 82 78
2410.0 78 76 78 77 78 75 73 71 70 72
2450.0 68 70 69 68 64 69 69 72 76 77
2490.0 79 80 77 76 75 71 72 71 70 74
2530.0 72 72 75 69 70 70 70 70 69 69
2570.0 69 71 68 68 67 71 72 72 74 75
2610.0 79 85 88 91 97 98 103 104 106 113
2650.0 119 120 119 112 110 105 99 97 93 92
2690.0 91 94 98 98 102 107 114 125 131 141
2730.0 145 158 161 166 159 154 147 147 152 157
2770.0 158 167 173 176 176 176 188 193 195 201
2810.0 209 228 239 263 287 323 357 396 448 513
2850.0 594 722 949 1294 1727 2178 2607 2952 3210 3353
2890.0 3279 3020 2770 2697 2810 3100 3505 3933 4136 4122
2930.0 4033 3994 4037 4149 4357 4577 5006 5852 7225 8872
2970.0 10000 9826 8314 6112 4099 2682 1866 1463 1255 1112
3010.0 985 901 848 813 764 676 589 528 506 491
3050.0 480 481 508 533 537 533 517 467 428 380
3090.0 343 311 284 263 242 232 229 222 227 230
3130.0 223 202 188 171 168 161 164 154 151 140
3170.0 155 145 151 148 148 142 144 133 130 123
3210.0 127 127 124 118 106 111 106 99 99 98
3250.0 104 95 99 98 90 92 99 95 90 95
3290.0 86 89 81 89 89 89 77 91 84 81
3330.0 88 85 79 96 95 93 93 95 99 87
3370.0 80 82 71 80 80 76 86 79 84 83
3410.0 82 73 81 85 79 75 75 77 71 74
3450.0 70 84 65 65 75 74 64 73 62 68
3490.0 51 83 75 60 57 69 67 39 61 84
3530.0 75 78 111 114 126 105 99 91 85 62
3570.0 72 66 86 86 91 80 71 80 79 98
3610.0 99 112 121 153 191 305 599 1256 2026 2238
3650.0 1690 952 637 640 685 668 606 486 399 337
3690.0 281 222 179 135 115 128 94 95 109 75
3730.0 83 86 80 61 88 79 76 84 86 85
3770.0 76 71 82 85 93 76 80 93 86 94
3810.0 71 84 102 64 78 71 62 89 105 86
3850.0 74 75 102 95 93 95 103 116 84 123
3890.0 108 99 95 106 87 88 103 112 133 108
3930.0 92 109 102 129 131 133 108 101 71 99
##END=
