##TITLE=Cyclopentanone
##JCAMP-DX=4.24
##DATA TYPE=INFRARED SPECTRUM
##ORIGIN=Sadtler Research Labs Under US-EPA Contract
##OWNER=NIST Standard Reference Data Program
##CAS REGISTRY NO=120-92-3
##MOLFORM=C 5 H 8 O
##XUNITS=1/CM
##YUNITS=ABSORBANCE
##XFACTOR=1.0
##YFACTOR=0.000222910
##DELTAX=4.0
##FIRSTX=450.0
##LASTX=3966.0
##FIRSTY=0.061969
##MAXX=3966
##MINX=450
##MAXY=2.2291
##MINY=0
##NPOINTS=880
##XYDATA=(X++(Y..Y))
450.0 278 201 266 296 247 219 318 268 232 140
490.0 108 50 29 28 27 22 38 57 28 47
530.0 40 40 44 33 46 50 62 78 99 101
570.0 134 154 160 160 134 123 114 112 85 64
610.0 45 39 28 24 21 12 9 9 8 0
650.0 9 1 8 3 9 11 6 7 5 12
690.0 14 26 33 40 44 53 53 53 56 46
730.0 36 26 23 26 24 18 25 25 14 12
770.0 18 2 29 61 69 96 129 144 165 192
810.0 216 249 290 299 313 309 300 291 267 230
850.0 177 133 86 64 46 43 45 49 50 45
890.0 53 46 51 51 55 58 63 62 69 81
930.0 93 128 165 232 308 384 393 289 315 386
970.0 340 259 181 117 82 50 37 29 32 31
1010.0 39 50 56 72 75 94 98 95 83 75
1050.0 69 65 65 60 62 58 61 62 70 76
1090.0 91 112 146 193 245 324 444 610 826 1083
1130.0 1361 1648 1900 2193 2312 2116 1940 1794 1507 1178
1170.0 896 694 537 444 385 325 258 203 157 123
1210.0 105 99 102 109 113 116 143 162 160 167
1250.0 185 207 227 247 270 307 314 315 312 306
1290.0 308 277 248 214 201 182 152 163 172 142
1330.0 123 97 108 98 50 60 50 50 80 64
1370.0 70 83 110 100 160 195 266 368 470 589
1410.0 688 692 695 700 700 642 544 461 351 302
1450.0 277 262 328 310 250 239 233 206 170 143
1490.0 157 85 83 63 89 119 67 81 56 55
1530.0 42 46 33 43 47 31 26 32 28 20
1570.0 36 27 32 41 34 48 48 63 49 66
1610.0 63 58 65 60 71 41 61 56 59 48
1650.0 93 72 88 79 92 106 106 122 132 149
1690.0 142 170 189 284 348 412 504 568 689 755
1730.0 994 1164 1633 2207 3584 4729 6431 8238 7683 8833
1770.0 7200 10000 6607 6433 3208 1639 805 573 382 301
1810.0 212 177 131 138 134 126 128 122 131 130
1850.0 126 109 104 100 93 94 65 61 49 47
1890.0 42 42 30 27 24 28 24 23 34 18
1930.0 25 22 29 32 43 37 42 49 53 59
1970.0 58 56 50 51 45 45 41 25 24 20
2010.0 22 19 25 21 18 21 19 22 22 26
2050.0 19 22 18 20 20 20 18 18 19 18
2090.0 23 20 21 20 20 18 20 21 16 20
2130.0 14 15 11 13 9 10 11 11 13 12
2170.0 16 14 19 19 20 22 22 23 21 23
2210.0 22 24 22 24 22 21 20 18 19 18
2250.0 20 20 22 22 25 26 26 28 29 28
2290.0 25 26 24 27 25 24 25 26 29 26
2330.0 27 24 30 23 24 23 13 15 10 12
2370.0 7 13 11 13 11 12 11 11 13 13
2410.0 14 11 14 12 14 10 11 9 7 8
2450.0 7 10 10 12 11 13 15 15 14 13
2490.0 12 9 7 3 3 2 3 1 1 1
2530.0 0 2 2 4 3 5 6 7 9 9
2570.0 11 9 11 11 12 11 12 14 15 15
2610.0 15 19 18 16 15 16 14 15 14 11
2650.0 11 11 12 10 12 11 13 11 13 13
2690.0 12 12 12 14 13 18 14 15 16 18
2730.0 21 21 24 22 24 25 27 30 33 36
2770.0 38 41 43 47 49 54 59 68 79 89
2810.0 102 111 119 125 123 120 118 117 112 119
2850.0 132 158 204 284 424 617 857 1033 1158 1257
2890.0 1402 1592 1506 1342 1267 1212 1217 1154 1121 1110
2930.0 1139 1150 1185 1315 1448 1831 2358 2494 2892 3499
2970.0 3557 3468 4281 3738 2936 2643 1949 1331 858 545
3010.0 345 224 163 123 111 102 104 102 101 105
3050.0 108 111 107 107 99 94 83 75 67 57
3090.0 50 43 40 35 33 31 31 29 26 27
3130.0 26 24 23 24 24 26 26 25 27 28
3170.0 26 28 28 27 28 28 25 27 26 23
3210.0 22 20 19 18 15 12 12 13 12 12
3250.0 13 11 11 11 10 11 12 12 11 13
3290.0 11 10 10 10 9 10 11 9 9 12
3330.0 11 12 12 9 11 13 12 15 13 19
3370.0 15 14 14 15 13 14 16 15 15 13
3410.0 16 15 18 21 19 22 18 21 15 18
3450.0 18 16 25 27 35 34 40 51 67 76
3490.0 88 107 127 154 168 162 178 163 162 159
3530.0 124 98 67 49 53 34 29 27 18 49
3570.0 44 23 21 22 35 32 36 18 27 12
3610.0 28 20 27 22 10 32 16 14 11 10
3650.0 28 13 13 9 6 18 3 32 8 21
3690.0 10 22 15 22 25 23 33 25 25 37
3730.0 26 34 35 34 26 15 32 22 19 25
3770.0 18 28 15 31 19 21 23 26 31 28
3810.0 29 28 15 39 27 30 24 30 30 37
3850.0 18 31 27 30 20 35 31 30 33 33
3890.0 22 32 21 46 41 24 18 36 32 29
3930.0 34 31 30 26 26 34 30 18 31 22
##END=
