##TITLE=1,4-Benzenedicarboxylic acid, dimethyl ester
##JCAMP-DX=4.24
##DATA TYPE=INFRARED SPECTRUM
##ORIGIN=Sadtler Research Labs Under US-EPA Contract
##OWNER=NIST Standard Reference Data Program
##CAS REGISTRY NO=120-61-6
##MOLFORM=C 10 H 10 O 4
##XUNITS=1/CM
##YUNITS=ABSORBANCE
##XFACTOR=1.0
##YFACTOR=0.000191400
##DELTAX=4.0
##FIRSTX=450.0
##LASTX=3966.0
##FIRSTY=0.000000
##MAXX=3966
##MINX=450
##MAXY=1.914
##MINY=0
##NPOINTS=880
##XYDATA=(X++(Y..Y))
450.0 0 18 18 39 61 48 77 87 99 144
490.0 150 173 161 172 159 158 157 168 176 176
530.0 172 147 134 125 137 121 118 119 116 115
570.0 115 115 116 124 112 118 117 117 114 115
610.0 110 119 116 110 117 118 124 112 114 112
650.0 106 108 112 107 104 129 117 119 111 120
690.0 117 118 126 127 140 155 215 312 515 765
730.0 1010 1272 1118 919 658 415 280 202 168 157
770.0 145 144 137 139 143 153 183 227 336 480
810.0 524 445 307 236 233 236 229 225 202 186
850.0 185 200 220 248 278 294 289 249 209 159
890.0 132 117 107 111 108 109 110 118 115 114
930.0 113 115 116 116 122 129 152 173 222 269
970.0 311 304 255 186 145 142 125 132 125 146
1010.0 176 455 1017 1289 1096 439 180 171 145 165
1050.0 171 194 221 264 318 388 484 583 706 884
1090.0 1223 1783 2654 3664 4300 4335 3876 3233 2438 1683
1130.0 1247 1033 885 780 671 574 492 438 407 396
1170.0 407 426 468 529 615 707 760 729 620 501
1210.0 430 414 450 571 811 1224 1795 2399 2760 2740
1250.0 2583 2731 3604 5379 7933 9763 10000 8245 5756 3732
1290.0 2488 1807 1408 1175 1024 898 765 649 578 519
1330.0 462 406 340 303 290 269 266 266 274 282
1370.0 281 247 223 208 191 202 221 275 391 525
1410.0 579 549 397 313 310 423 768 1236 1434 1008
1450.0 499 329 260 266 268 245 209 191 198 157
1490.0 142 156 169 216 220 199 194 157 139 178
1530.0 192 205 170 128 119 139 128 105 132 163
1570.0 178 201 216 199 172 128 129 117 127 120
1610.0 121 119 98 113 95 118 96 102 115 106
1650.0 84 76 110 111 122 117 122 149 146 142
1690.0 186 224 229 311 383 475 483 532 643 868
1730.0 1249 1989 3325 5029 6924 6738 5334 3250 1888 1092
1770.0 639 422 377 342 337 278 245 205 182 185
1810.0 185 177 166 152 119 99 86 96 78 71
1850.0 77 77 67 60 54 37 53 51 54 51
1890.0 50 55 60 67 70 80 80 92 92 107
1930.0 117 125 131 119 115 102 91 76 72 57
1970.0 54 51 51 49 48 47 43 51 50 52
2010.0 50 48 46 46 51 49 54 50 53 55
2050.0 59 65 73 80 85 102 106 110 104 99
2090.0 89 82 76 71 69 62 57 51 49 44
2130.0 41 38 38 36 35 35 32 35 32 33
2170.0 32 32 32 31 33 29 33 32 34 34
2210.0 36 36 34 35 34 35 35 39 39 42
2250.0 41 38 37 34 34 32 35 35 35 35
2290.0 36 34 37 38 37 37 36 38 37 34
2330.0 33 36 33 35 40 36 43 38 41 32
2370.0 39 41 42 41 37 34 29 30 29 30
2410.0 26 27 23 22 23 20 21 19 20 18
2450.0 18 19 18 18 19 22 19 21 20 21
2490.0 18 18 20 19 22 20 24 22 26 25
2530.0 28 28 30 32 32 34 31 32 28 28
2570.0 29 29 29 31 31 29 28 26 28 25
2610.0 27 25 23 24 23 22 23 23 20 22
2650.0 21 22 22 22 23 19 20 20 20 19
2690.0 20 19 20 20 21 22 21 24 20 22
2730.0 20 22 21 20 21 19 21 20 21 21
2770.0 23 24 25 27 27 28 25 28 29 29
2810.0 29 31 34 38 42 51 61 75 111 163
2850.0 222 243 212 152 104 87 78 79 83 93
2890.0 101 122 139 154 164 176 194 199 200 180
2930.0 164 152 162 181 228 329 535 962 1331 1245
2970.0 802 379 229 190 184 197 221 254 275 284
3010.0 272 255 237 230 231 228 216 199 172 146
3050.0 127 115 110 107 107 103 99 94 89 88
3090.0 90 96 101 100 96 87 78 67 61 56
3130.0 52 48 45 41 38 38 36 33 32 30
3170.0 32 31 30 30 29 31 28 25 25 23
3210.0 22 21 23 20 22 23 21 21 21 20
3250.0 23 23 20 22 22 21 22 20 22 21
3290.0 20 20 20 21 22 20 22 20 21 21
3330.0 21 20 20 22 21 23 22 24 25 25
3370.0 22 19 19 19 20 18 20 19 18 18
3410.0 21 19 18 18 18 23 20 22 20 23
3450.0 24 25 30 40 51 60 69 73 65 54
3490.0 40 30 26 23 21 21 21 20 21 26
3530.0 22 22 22 23 27 23 24 23 21 22
3570.0 27 24 23 25 24 23 21 28 23 22
3610.0 23 25 25 21 23 21 25 22 22 19
3650.0 22 22 20 22 21 25 20 21 20 27
3690.0 24 25 25 24 24 20 23 18 23 26
3730.0 22 19 22 21 19 18 20 21 19 19
3770.0 18 19 18 18 22 20 21 18 19 19
3810.0 18 21 18 23 18 22 21 18 18 23
3850.0 22 18 18 20 22 18 22 19 23 18
3890.0 27 18 25 27 26 21 21 24 26 30
3930.0 26 28 25 29 32 26 31 29 28 27
##END=
