##TITLE=Dichlorprop
##JCAMP-DX=4.24
##DATA TYPE=INFRARED SPECTRUM
##ORIGIN=Sadtler Research Labs Under US-EPA Contract
##OWNER=NIST Standard Reference Data Program
##CAS REGISTRY NO=120-36-5
##MOLFORM=C 9 H 8 Cl 2 O 3
##XUNITS=1/CM
##YUNITS=ABSORBANCE
##XFACTOR=1.0
##YFACTOR=0.000036197
##DELTAX=4.0
##FIRSTX=450.0
##LASTX=3966.0
##FIRSTY=0.014298
##MAXX=3966
##MINX=450
##MAXY=0.36197
##MINY=0
##NPOINTS=880
##XYDATA=(X++(Y..Y))
450.0 395 342 344 195 398 467 419 435 314 391
490.0 434 511 500 563 566 532 540 553 599 656
530.0 598 672 768 767 851 976 1137 1263 1315 1398
570.0 1337 1393 1375 1281 1156 1136 1183 1187 1113 1112
610.0 1028 1040 928 845 718 616 514 466 493 506
650.0 692 864 1031 726 515 357 194 174 129 204
690.0 240 288 283 294 313 315 380 424 506 607
730.0 812 1029 1230 1464 1542 1562 1358 1171 908 749
770.0 659 585 494 437 410 393 539 716 956 966
810.0 890 827 771 702 695 713 747 821 820 778
850.0 603 449 385 497 725 887 841 554 311 123
890.0 41 10 26 8 23 26 43 89 128 170
930.0 211 250 240 218 197 136 85 48 39 12
970.0 18 22 29 39 66 104 132 173 233 326
1010.0 446 609 813 1038 1244 1401 1493 1479 1456 1448
1050.0 1575 1896 2292 2584 2713 2875 3192 3820 4599 5513
1090.0 6330 6893 6975 6584 5814 4742 3702 2876 2429 2155
1130.0 1994 1846 1725 1639 1642 1749 1865 2010 2042 2068
1170.0 2011 1927 1892 1938 1905 1728 1472 1190 977 856
1210.0 851 907 1089 1406 1920 2600 3209 3695 3957 4148
1250.0 4268 4418 4418 4122 3688 3316 3126 2938 2753 2346
1290.0 1882 1442 1185 1034 962 930 949 1023 1133 1253
1330.0 1319 1371 1332 1287 1234 1230 1254 1266 1321 1338
1370.0 1380 1412 1561 1704 1751 1592 1262 898 622 467
1410.0 302 275 197 280 287 440 533 642 735 814
1450.0 1084 1197 1612 2099 3376 5415 7919 10000 8394 6311
1490.0 4002 2830 1986 1369 1084 726 535 427 293 246
1530.0 114 126 53 61 23 55 117 137 236 269
1570.0 379 420 496 556 537 466 340 287 259 306
1610.0 300 315 268 287 249 247 233 230 221 189
1650.0 173 158 100 100 93 89 78 114 85 121
1690.0 111 141 139 145 190 202 242 255 362 391
1730.0 522 602 795 923 1170 1433 1704 2025 2291 2797
1770.0 3245 4103 4364 4380 4024 4079 4416 4927 5243 4867
1810.0 4039 2799 1855 1231 961 688 569 440 410 323
1850.0 283 255 203 180 147 143 104 105 83 87
1890.0 66 55 51 32 44 20 30 17 26 16
1930.0 27 25 28 20 12 33 23 33 19 27
1970.0 22 28 29 27 37 30 35 24 33 23
2010.0 26 20 14 18 9 8 7 12 0 7
2050.0 1 8 7 2 7 3 12 5 15 14
2090.0 16 19 27 35 28 28 23 29 11 24
2130.0 24 14 17 12 10 9 12 8 12 7
2170.0 18 24 27 17 22 22 18 27 22 23
2210.0 24 26 20 25 26 22 22 20 21 16
2250.0 25 19 16 11 18 24 24 33 38 53
2290.0 66 74 102 107 119 135 116 92 111 78
2330.0 94 68 48 75 81 94 84 78 48 43
2370.0 44 63 73 87 67 36 25 23 18 22
2410.0 31 22 35 29 25 28 23 24 18 23
2450.0 26 21 26 29 29 32 35 34 48 48
2490.0 53 47 42 50 57 57 62 64 55 67
2530.0 62 57 45 41 26 20 23 19 18 8
2570.0 22 19 14 22 16 16 17 23 14 23
2610.0 17 29 29 30 31 25 32 21 23 14
2650.0 22 17 25 28 21 34 30 21 23 23
2690.0 18 21 19 25 20 22 26 23 32 30
2730.0 24 37 35 33 22 25 29 24 27 33
2770.0 32 39 33 37 38 42 47 65 56 61
2810.0 69 65 78 74 71 76 78 78 70 68
2850.0 69 84 79 87 94 104 120 125 146 159
2890.0 174 170 160 159 168 184 197 213 233 271
2930.0 312 355 392 452 505 524 485 363 271 211
2970.0 201 216 222 249 291 387 524 679 786 761
3010.0 583 380 235 167 135 142 133 129 120 100
3050.0 94 76 77 85 97 124 143 168 171 146
3090.0 121 102 98 90 81 75 59 52 62 60
3130.0 44 32 47 36 49 42 52 40 34 37
3170.0 26 50 39 47 36 41 30 30 38 33
3210.0 34 34 32 31 29 34 38 34 40 31
3250.0 31 27 25 31 31 32 31 33 29 34
3290.0 42 30 17 26 29 16 23 24 31 31
3330.0 23 25 19 25 23 31 10 22 21 33
3370.0 21 34 32 31 38 28 29 35 39 15
3410.0 26 34 48 51 44 32 36 55 55 60
3450.0 74 67 78 82 94 96 116 134 178 212
3490.0 277 366 456 574 686 790 830 832 778 672
3530.0 563 505 446 413 384 359 407 494 851 1488
3570.0 2431 2956 2640 1756 1045 590 404 287 158 125
3610.0 87 70 50 70 90 94 89 123 156 186
3650.0 182 160 126 89 59 74 110 85 66 20
3690.0 67 50 78 56 58 51 53 47 96 69
3730.0 54 97 74 51 116 111 70 70 51 83
3770.0 98 50 72 74 87 68 37 71 45 77
3810.0 52 55 62 100 88 76 67 58 97 64
3850.0 61 77 88 15 56 90 90 67 60 78
3890.0 56 71 72 66 55 78 55 68 82 65
3930.0 77 59 46 53 83 49 31 35 89 49
##END=
