##TITLE=Anthracene
##JCAMP-DX=4.24
##DATA TYPE=INFRARED SPECTRUM
##ORIGIN=Sadtler Research Labs Under US-EPA Contract
##OWNER=NIST Standard Reference Data Program
##CAS REGISTRY NO=120-12-7
##MOLFORM=C 14 H 10
##XUNITS=1/CM
##YUNITS=ABSORBANCE
##XFACTOR=1.0
##YFACTOR=0.000055371
##DELTAX=4.0
##FIRSTX=450.0
##LASTX=3966.0
##FIRSTY=0.106146
##MAXX=3966
##MINX=450
##MAXY=0.55371
##MINY=0
##NPOINTS=880
##XYDATA=(X++(Y..Y))
450.0 1917 1786 1378 3458 3144 1865 1735 920 850 141
490.0 436 319 586 514 453 227 279 203 347 39
530.0 330 101 295 281 119 380 226 255 258 124
570.0 455 195 43 357 435 705 817 748 1150 964
610.0 693 587 319 351 256 192 264 371 362 498
650.0 317 384 296 270 160 273 261 193 360 218
690.0 419 427 354 740 1077 2358 4091 5677 7274 10000
730.0 5792 4646 2620 1185 645 346 332 314 314 279
770.0 199 234 186 219 216 160 176 161 245 249
810.0 255 275 259 256 226 234 284 301 334 345
850.0 359 600 1110 2165 3197 4732 6133 5779 4118 3111
890.0 1758 949 628 443 383 400 359 300 201 204
930.0 223 247 325 488 580 768 799 657 432 386
970.0 234 233 314 389 688 868 865 789 633 512
1010.0 479 394 312 290 303 271 263 222 207 203
1050.0 174 228 286 277 276 239 206 201 216 236
1090.0 215 225 245 235 233 223 251 258 301 342
1130.0 372 391 434 580 690 637 620 599 408 363
1170.0 326 251 191 172 197 240 250 259 238 210
1210.0 220 233 245 248 241 225 218 182 178 177
1250.0 178 221 287 406 521 506 514 440 270 224
1290.0 177 177 228 282 441 570 565 591 531 433
1330.0 376 402 407 383 343 271 226 208 178 151
1370.0 141 132 140 164 248 339 387 375 286 193
1410.0 173 142 170 144 156 159 174 237 312 381
1450.0 391 352 310 278 282 281 292 268 217 183
1490.0 156 155 168 175 187 164 213 223 265 391
1530.0 611 785 858 717 482 363 274 214 164 178
1570.0 166 142 156 160 200 216 218 247 224 245
1610.0 278 353 439 509 535 510 447 323 285 245
1650.0 188 204 248 339 460 513 490 402 289 249
1690.0 323 400 501 524 493 394 287 214 211 262
1730.0 269 278 220 201 227 282 348 383 400 415
1770.0 388 358 412 516 596 570 492 369 338 393
1810.0 435 415 339 261 217 226 221 219 234 231
1850.0 237 207 187 159 133 131 125 126 129 151
1890.0 206 301 382 410 411 373 355 378 400 458
1930.0 578 621 558 383 190 88 92 82 74 80
1970.0 76 78 67 68 70 66 71 66 75 87
2010.0 106 109 115 102 89 84 84 83 75 77
2050.0 74 68 61 67 74 76 76 74 80 84
2090.0 77 78 73 66 61 61 56 57 54 50
2130.0 47 52 48 54 52 53 55 59 58 61
2170.0 64 65 66 50 50 51 46 46 42 53
2210.0 47 55 48 52 54 58 60 50 46 52
2250.0 58 62 61 65 71 78 90 111 133 147
2290.0 158 159 168 178 189 211 203 190 177 169
2330.0 149 144 142 124 126 139 149 120 83 66
2370.0 39 28 41 62 60 45 40 38 36 35
2410.0 43 45 45 47 50 56 61 55 51 47
2450.0 41 37 24 25 25 23 27 29 27 26
2490.0 27 27 30 25 28 22 30 32 37 53
2530.0 63 73 77 75 64 39 31 25 21 12
2570.0 11 6 8 2 3 7 7 13 13 12
2610.0 15 16 18 14 14 15 4 6 16 13
2650.0 21 25 27 33 33 30 25 33 34 27
2690.0 25 23 27 28 19 25 25 21 21 22
2730.0 28 19 30 27 22 24 18 16 12 13
2770.0 11 14 17 21 30 24 33 31 34 26
2810.0 27 30 41 45 58 63 59 62 52 42
2850.0 36 31 32 38 40 39 36 40 45 50
2890.0 50 66 70 78 81 109 125 152 185 198
2930.0 198 200 202 187 188 207 228 253 288 321
2970.0 335 338 345 362 398 472 556 653 789 928
3010.0 1083 1244 1375 1497 1615 1788 2029 2286 2716 3375
3050.0 4189 5172 6070 6737 7150 6457 4754 3037 1898 1429
3090.0 1294 1227 1140 935 706 522 389 338 287 237
3130.0 181 130 97 75 67 52 43 40 48 60
3170.0 63 61 78 80 85 80 78 74 74 62
3210.0 59 39 32 35 25 32 32 32 44 43
3250.0 52 57 65 64 45 32 20 25 21 20
3290.0 25 18 22 28 23 28 34 33 37 35
3330.0 24 31 23 0 14 12 7 10 2 19
3370.0 20 37 33 37 32 19 3 15 38 27
3410.0 26 13 30 32 32 41 33 19 43 32
3450.0 34 40 34 27 29 16 22 22 36 35
3490.0 29 35 38 48 43 60 31 33 42 39
3530.0 25 34 38 33 40 53 40 62 53 76
3570.0 45 41 71 56 52 54 23 48 29 39
3610.0 65 63 42 65 63 56 55 65 68 58
3650.0 69 48 80 34 72 77 50 32 78 89
3690.0 70 60 75 61 75 43 69 80 59 38
3730.0 24 26 32 16 53 5 21 11 62 56
3770.0 30 30 33 33 43 62 51 40 58 33
3810.0 45 22 59 33 38 65 24 41 39 25
3850.0 39 1 15 23 65 1 82 68 63 60
3890.0 68 83 60 73 63 90 53 38 35 93
3930.0 61 100 63 72 77 90 103 77 116 64
##END=
