##TITLE=Ethanol, 2-(2,4-dichlorophenoxy)-
##JCAMP-DX=4.24
##DATA TYPE=INFRARED SPECTRUM
##ORIGIN=Sadtler Research Labs Under US-EPA Contract
##OWNER=NIST Standard Reference Data Program
##CAS REGISTRY NO=120-67-2
##MOLFORM=C 8 H 8 Cl 2 O 2
##XUNITS=1/CM
##YUNITS=ABSORBANCE
##XFACTOR=1.0
##YFACTOR=0.000113913
##DELTAX=4.0
##FIRSTX=450.0
##LASTX=3966.0
##FIRSTY=0.013783
##MAXX=3966
##MINX=450
##MAXY=1.13913
##MINY=0
##NPOINTS=880
##XYDATA=(X++(Y..Y))
450.0 121 107 107 143 110 105 97 68 79 79
490.0 70 74 123 141 172 176 165 192 141 158
530.0 130 105 110 99 104 134 192 252 333 327
570.0 297 229 163 111 69 49 27 20 0 6
610.0 17 13 25 22 44 65 132 209 364 533
650.0 764 762 636 343 132 100 86 64 87 106
690.0 171 255 354 438 505 543 578 620 690 837
730.0 1000 1186 1283 1307 1109 815 516 322 222 166
770.0 154 148 153 200 274 421 641 911 1162 1326
810.0 1434 1539 1613 1665 1667 1571 1354 1031 748 570
850.0 478 475 574 793 1047 1348 1323 1007 839 685
890.0 676 727 755 761 753 735 662 578 474 389
930.0 320 269 233 205 179 172 170 167 175 185
970.0 205 225 255 298 346 420 517 650 836 1077
1010.0 1371 1726 2166 2685 3174 3484 3499 3215 2804 2514
1050.0 2515 2853 3267 3480 3403 3092 2811 2640 2551 2468
1090.0 2440 2645 3192 3732 3721 3053 2059 1329 948 743
1130.0 623 552 508 471 432 391 343 315 318 335
1170.0 348 358 357 378 424 482 561 658 766 886
1210.0 1003 1126 1282 1509 1836 2261 2731 3167 3612 4117
1250.0 4667 5102 5319 5218 4911 4445 4060 3959 4095 4214
1290.0 3946 3226 2289 1558 1110 841 671 562 490 453
1330.0 432 436 457 478 504 543 603 717 920 1168
1370.0 1321 1352 1246 1181 1152 1125 1031 895 747 647
1410.0 559 514 548 628 818 1016 1152 1125 1094 1206
1450.0 1753 2634 3476 3766 3917 4751 6774 9365 10000 9518
1490.0 6667 4554 3126 2145 1489 1036 738 550 444 333
1530.0 277 220 213 195 201 197 245 299 377 428
1570.0 504 557 622 652 669 642 552 419 274 174
1610.0 109 78 71 56 60 42 56 46 35 35
1650.0 39 33 33 4 14 14 11 4 18 19
1690.0 9 8 27 34 34 38 58 93 91 109
1730.0 146 185 177 161 132 101 85 64 58 40
1770.0 47 34 29 23 31 21 32 23 28 19
1810.0 11 7 3 7 8 18 19 35 42 65
1850.0 63 67 65 67 65 67 58 47 42 29
1890.0 26 19 15 11 12 13 16 24 25 23
1930.0 29 30 33 37 40 36 36 32 36 34
1970.0 37 35 37 36 36 35 34 30 29 28
2010.0 26 27 25 24 23 22 22 21 23 21
2050.0 23 24 24 27 29 29 32 31 32 33
2090.0 36 37 38 39 37 34 33 29 24 22
2130.0 19 15 14 10 10 7 7 5 8 9
2170.0 7 6 7 8 7 4 1 4 5 6
2210.0 7 5 7 6 5 4 6 3 0 0
2250.0 3 1 3 6 7 11 16 22 22 25
2290.0 23 29 31 34 33 34 29 24 29 17
2330.0 18 15 15 1 62 7 20 4 10 24
2370.0 40 39 43 37 28 18 15 13 16 12
2410.0 14 14 13 14 14 17 14 15 18 18
2450.0 21 23 23 23 25 26 28 31 35 36
2490.0 41 42 42 48 50 58 64 73 81 84
2530.0 86 85 83 75 67 58 49 40 34 29
2570.0 24 23 19 18 17 16 13 15 15 18
2610.0 16 17 19 19 19 19 20 21 20 20
2650.0 26 28 32 37 39 44 46 51 50 52
2690.0 57 60 61 69 69 73 79 89 97 103
2730.0 112 109 108 102 103 98 94 94 98 97
2770.0 103 110 114 119 129 134 138 147 156 164
2810.0 173 182 185 193 194 194 200 209 222 241
2850.0 270 301 351 415 506 633 788 953 1085 1146
2890.0 1099 1005 893 812 763 759 793 862 972 1125
2930.0 1287 1460 1623 1763 1818 1790 1735 1682 1618 1496
2970.0 1320 1133 965 827 689 541 415 317 250 205
3010.0 175 156 145 135 133 137 133 137 134 130
3050.0 120 112 111 121 134 161 196 219 213 181
3090.0 145 118 101 82 75 63 48 41 32 33
3130.0 30 34 33 32 29 29 22 24 25 20
3170.0 21 21 19 20 19 21 22 19 22 21
3210.0 20 24 24 19 16 19 17 17 14 12
3250.0 11 5 11 14 13 13 15 11 8 15
3290.0 10 11 15 13 7 7 12 12 11 17
3330.0 9 10 9 9 5 10 6 5 10 7
3370.0 10 9 1 7 7 9 12 6 3 0
3410.0 8 7 6 8 8 5 11 21 12 14
3450.0 17 9 7 15 16 16 22 18 20 13
3490.0 12 13 20 23 15 17 27 15 23 27
3530.0 36 30 33 29 36 34 34 38 34 57
3570.0 55 42 52 52 80 88 105 98 127 140
3610.0 183 197 244 325 427 612 720 727 670 565
3650.0 499 419 386 389 386 416 382 380 291 262
3690.0 201 148 106 93 84 67 67 66 57 55
3730.0 43 69 66 45 85 36 68 42 47 43
3770.0 52 22 18 28 27 22 17 38 13 31
3810.0 12 33 16 35 30 1 22 34 33 25
3850.0 23 39 29 16 28 24 25 15 16 38
3890.0 4 19 10 32 29 43 26 27 22 24
3930.0 29 21 31 35 46 35 33 14 19 13
##END=
