##TITLE=Benzoic acid, 2-methylpropyl ester
##JCAMP-DX=4.24
##DATA TYPE=INFRARED SPECTRUM
##ORIGIN=Sadtler Research Labs Under US-EPA Contract
##OWNER=NIST Standard Reference Data Program
##CAS REGISTRY NO=120-50-3
##MOLFORM=C 11 H 14 O 2
##XUNITS=1/CM
##YUNITS=ABSORBANCE
##XFACTOR=1.0
##YFACTOR=0.000075458
##DELTAX=4.0
##FIRSTX=450.0
##LASTX=3966.0
##FIRSTY=0.003018
##MAXX=3966
##MINX=450
##MAXY=0.75458
##MINY=0
##NPOINTS=880
##XYDATA=(X++(Y..Y))
450.0 40 55 44 38 40 32 29 23 21 14
490.0 26 36 27 27 8 19 27 44 38 41
530.0 29 50 33 67 54 29 21 45 63 57
570.0 21 18 8 25 20 43 39 45 39 37
610.0 41 66 57 43 37 28 19 30 31 39
650.0 39 40 59 88 123 287 366 419 443 418
690.0 495 674 1026 1486 1904 2185 1642 1163 694 377
730.0 222 133 102 86 71 68 70 64 53 51
770.0 40 33 33 39 45 67 79 91 101 97
810.0 94 87 84 83 78 78 90 65 79 82
850.0 78 78 78 70 70 67 57 58 51 44
890.0 38 44 59 59 73 90 110 130 152 177
930.0 193 193 187 193 187 179 178 182 198 218
970.0 240 301 414 577 671 603 404 219 138 116
1010.0 124 167 295 687 1092 1050 729 231 123 135
1050.0 168 252 415 660 891 904 765 574 574 874
1090.0 1506 2280 2904 3532 4033 4344 3869 2762 1658 974
1130.0 692 573 528 495 449 396 348 321 330 382
1170.0 588 1043 1219 1096 608 282 199 174 161 166
1210.0 180 194 234 313 447 652 979 1360 1657 1770
1250.0 1861 2229 3286 5330 8139 10000 9066 6290 3875 2514
1290.0 1752 1261 1029 992 1054 1175 1187 992 688 384
1330.0 291 276 267 297 308 288 249 220 250 321
1370.0 480 682 853 813 622 408 344 291 259 202
1410.0 152 136 118 113 111 132 142 176 239 365
1450.0 543 646 637 542 509 518 490 424 372 281
1490.0 212 173 139 120 107 60 68 71 70 77
1530.0 71 89 82 75 71 92 90 92 69 77
1570.0 78 91 122 135 167 170 179 197 254 266
1610.0 236 161 109 88 65 73 63 71 83 93
1650.0 71 79 61 67 64 76 70 95 96 120
1690.0 141 165 172 180 189 208 256 366 632 1160
1730.0 2055 3375 4884 5314 4980 3466 1917 1005 527 316
1770.0 227 195 191 184 187 182 164 141 129 131
1810.0 137 130 119 95 65 45 36 37 31 27
1850.0 20 25 23 23 26 21 23 22 25 26
1890.0 31 38 54 69 74 76 74 80 70 61
1930.0 41 35 31 27 28 42 56 61 64 62
1970.0 63 56 43 37 25 18 21 15 18 16
2010.0 18 17 16 17 18 19 19 18 17 19
2050.0 18 18 26 25 24 30 32 32 31 32
2090.0 32 24 31 26 26 22 21 25 18 18
2130.0 19 20 18 19 12 13 7 12 11 12
2170.0 12 12 12 12 13 12 12 12 12 12
2210.0 11 11 11 11 13 13 13 13 12 12
2250.0 13 11 11 12 15 12 13 17 12 12
2290.0 12 18 11 11 9 17 25 19 23 23
2330.0 19 28 15 23 23 23 29 27 29 10
2370.0 9 14 14 17 17 19 19 12 12 5
2410.0 13 5 5 6 5 5 5 5 5 1
2450.0 0 0 0 0 0 0 0 7 0 0
2490.0 4 7 0 0 0 1 7 7 8 8
2530.0 8 8 3 7 7 3 7 6 1 2
2570.0 8 8 8 13 16 7 15 15 15 21
2610.0 15 9 9 16 16 16 15 15 17 17
2650.0 17 18 15 9 9 9 3 4 4 4
2690.0 4 4 12 3 11 11 16 17 18 24
2730.0 31 31 37 44 37 43 38 39 39 39
2770.0 39 38 31 32 38 33 31 40 37 32
2810.0 40 39 45 52 58 66 72 80 86 91
2850.0 93 101 122 140 165 215 305 455 621 722
2890.0 745 705 673 659 626 605 572 567 567 580
2930.0 604 675 780 921 1049 1134 1202 1307 1484 1746
2970.0 2090 2302 2292 1873 1260 705 403 265 184 152
3010.0 140 127 121 119 125 134 162 185 226 261
3050.0 271 258 237 252 316 399 520 570 505 381
3090.0 253 243 240 222 181 142 115 89 70 52
3130.0 37 30 35 25 34 40 39 40 40 42
3170.0 47 47 47 46 35 35 28 23 29 28
3210.0 23 23 23 23 23 23 16 19 24 15
3250.0 20 17 17 23 17 18 18 18 11 11
3290.0 11 11 16 12 12 12 12 12 12 12
3330.0 12 13 17 13 21 20 26 29 25 13
3370.0 13 14 19 13 20 8 13 19 14 14
3410.0 11 14 14 14 15 15 15 14 22 20
3450.0 25 51 35 52 52 43 35 30 17 17
3490.0 17 9 10 10 12 13 16 16 12 17
3530.0 11 18 18 18 10 11 0 18 18 18
3570.0 18 12 4 12 11 7 6 19 13 19
3610.0 19 19 19 20 15 18 18 20 20 20
3650.0 25 12 21 21 20 26 13 17 20 21
3690.0 19 21 14 21 21 22 21 17 23 23
3730.0 31 36 25 27 27 25 23 10 16 25
3770.0 24 15 26 18 27 32 28 27 23 30
3810.0 19 25 26 27 26 27 28 31 28 30
3850.0 35 32 32 21 19 21 28 29 35 44
3890.0 36 31 27 35 32 34 35 35 28 36
3930.0 36 37 37 32 33 40 41 34 36 36
##END=
