##TITLE=Phenol, 2,4-dichloro-
##JCAMP-DX=4.24
##DATA TYPE=INFRARED SPECTRUM
##ORIGIN=Sadtler Research Labs Under US-EPA Contract
##OWNER=NIST Standard Reference Data Program
##CAS REGISTRY NO=120-83-2
##MOLFORM=C 6 H 4 Cl 2 O
##XUNITS=1/CM
##YUNITS=ABSORBANCE
##XFACTOR=1.0
##YFACTOR=0.000101538
##DELTAX=4.0
##FIRSTX=450.0
##LASTX=3966.0
##FIRSTY=0.020917
##MAXX=3966
##MINX=450
##MAXY=1.01538
##MINY=0
##NPOINTS=880
##XYDATA=(X++(Y..Y))
450.0 206 361 163 15 195 96 113 160 202 248
490.0 138 247 290 605 684 909 817 649 354 157
530.0 263 193 358 508 447 517 698 632 456 397
570.0 371 269 303 201 225 261 268 289 213 208
610.0 222 256 243 337 330 319 321 432 730 965
650.0 1042 1020 809 426 281 340 340 357 428 390
690.0 336 391 448 570 729 1134 1841 2632 3260 3282
730.0 2867 1846 1065 576 502 505 534 502 563 618
770.0 584 472 393 312 390 386 500 641 898 1145
810.0 1368 1904 1958 1494 1084 1048 762 650 739 1066
850.0 1377 1505 1589 1592 1511 1237 1064 869 586 469
890.0 436 356 387 345 338 303 320 321 299 293
930.0 299 358 412 363 315 303 274 268 266 281
970.0 284 281 273 273 289 292 277 261 261 281
1010.0 310 358 371 409 440 492 554 632 810 1066
1050.0 1199 1267 1282 1064 870 789 953 1247 1277 1117
1090.0 1133 1173 1173 1117 1015 888 774 697 690 721
1130.0 767 805 776 742 660 601 580 608 790 1033
1170.0 1315 1777 2445 3812 5349 5771 6065 5659 3841 2660
1210.0 1918 1320 1025 889 869 957 991 1072 1182 1333
1250.0 1420 1461 1656 2101 2842 3909 4858 4920 4241 2767
1290.0 1286 628 555 538 544 580 625 784 1079 1311
1330.0 1345 1329 1160 801 610 591 526 446 394 399
1370.0 401 376 367 357 403 514 614 720 801 806
1410.0 781 784 759 658 623 589 622 753 722 797
1450.0 945 1085 1433 1903 2847 4892 7317 9707 10000 8997
1490.0 6774 3976 2607 2023 1543 1116 818 584 486 401
1530.0 328 294 220 229 214 232 284 330 430 512
1570.0 662 827 909 1040 907 805 672 526 522 475
1610.0 389 344 307 265 256 242 231 223 193 166
1650.0 164 152 147 150 152 152 161 157 170 176
1690.0 188 199 238 248 265 271 281 316 325 322
1730.0 331 333 312 304 299 309 287 280 266 244
1770.0 235 228 226 221 215 203 183 182 179 166
1810.0 158 146 130 112 102 90 88 88 91 96
1850.0 87 88 98 116 140 161 174 162 145 123
1890.0 93 64 58 47 51 48 47 47 49 42
1930.0 38 41 33 33 33 35 33 44 37 38
1970.0 37 35 33 38 38 54 64 60 56 49
2010.0 47 36 30 30 23 27 26 32 34 28
2050.0 30 24 20 24 20 11 9 13 17 18
2090.0 17 18 16 18 17 15 19 19 23 26
2130.0 26 21 17 12 6 4 5 10 5 3
2170.0 3 5 0 5 4 5 11 13 13 10
2210.0 7 6 6 6 9 8 7 12 15 15
2250.0 14 15 13 18 16 16 20 19 17 20
2290.0 30 20 17 19 17 20 33 26 29 43
2330.0 53 59 43 33 32 36 40 33 47 43
2370.0 48 44 47 44 35 27 23 23 19 15
2410.0 12 16 17 14 19 25 27 29 32 37
2450.0 38 40 46 56 65 68 62 53 36 31
2490.0 28 24 28 37 43 48 53 48 41 39
2530.0 39 39 43 44 48 50 45 39 27 25
2570.0 19 20 26 24 23 25 31 35 32 26
2610.0 26 16 17 12 14 15 14 14 19 26
2650.0 25 28 27 29 29 27 23 23 21 19
2690.0 24 12 17 13 19 19 23 14 16 19
2730.0 21 23 27 28 26 28 28 29 28 29
2770.0 27 27 28 28 19 15 19 24 31 25
2810.0 34 31 25 29 29 26 24 24 28 34
2850.0 31 34 34 33 43 41 37 35 26 29
2890.0 35 30 37 31 33 38 45 39 32 48
2930.0 56 61 58 48 36 32 35 43 44 42
2970.0 38 43 40 39 32 28 32 19 24 25
3010.0 31 31 32 36 40 44 53 56 61 69
3050.0 73 75 62 68 84 103 120 135 135 131
3090.0 133 122 100 61 41 35 39 28 24 21
3130.0 19 24 28 24 25 19 29 27 34 35
3170.0 40 50 37 51 48 44 39 33 27 28
3210.0 29 25 24 24 35 34 28 28 21 18
3250.0 27 28 17 26 27 25 21 28 18 23
3290.0 44 39 50 53 53 39 36 35 26 19
3330.0 17 13 36 26 16 17 13 21 28 21
3370.0 24 16 29 26 29 35 26 28 26 19
3410.0 16 23 23 12 15 12 26 18 16 25
3450.0 20 20 33 23 24 11 20 32 28 10
3490.0 16 16 15 15 27 28 31 16 38 53
3530.0 50 64 65 86 119 135 209 273 439 745
3570.0 1556 3183 4375 4405 4493 2946 1261 552 212 140
3610.0 100 69 74 73 79 97 60 79 120 180
3650.0 243 218 229 177 70 72 58 41 39 38
3690.0 59 33 44 47 17 47 60 32 74 50
3730.0 38 39 67 42 48 72 8 42 55 37
3770.0 42 0 19 21 15 15 51 48 56 20
3810.0 53 24 64 37 27 37 53 15 52 33
3850.0 40 88 79 86 84 82 48 36 21 39
3890.0 49 48 65 34 44 30 72 52 60 72
3930.0 42 74 46 45 49 79 88 35 52 74
##END=
