##TITLE=Benzothiazole, 2-methyl-
##JCAMP-DX=4.24
##DATA TYPE=INFRARED SPECTRUM
##ORIGIN=Sadtler Research Labs Under US-EPA Contract
##OWNER=NIST Standard Reference Data Program
##CAS REGISTRY NO=120-75-2
##MOLFORM=C 8 H 7 N S
##XUNITS=1/CM
##YUNITS=ABSORBANCE
##XFACTOR=1.0
##YFACTOR=0.000068713
##DELTAX=4.0
##FIRSTX=450.0
##LASTX=3966.0
##FIRSTY=0.008177
##MAXX=3966
##MINX=450
##MAXY=0.68713
##MINY=0
##NPOINTS=880
##XYDATA=(X++(Y..Y))
450.0 119 265 0 388 493 242 477 351 467 121
490.0 354 200 263 238 267 312 251 362 228 303
530.0 234 384 233 292 294 207 228 207 253 132
570.0 234 185 252 218 290 243 230 281 261 281
610.0 239 380 418 692 1151 1919 2215 2544 3301 3042
650.0 2588 2108 1704 645 371 294 271 199 237 265
690.0 227 348 544 963 1265 1908 2683 3257 3431 4669
730.0 6752 3882 3958 4415 5009 5393 7689 10000 6721 5149
770.0 4275 2319 1190 475 383 257 273 223 249 259
810.0 238 257 201 251 239 253 264 341 422 544
850.0 689 847 1158 1453 1387 1384 1321 926 660 499
890.0 419 343 289 257 266 324 365 384 426 440
930.0 403 546 478 406 370 331 297 309 359 416
970.0 509 616 770 963 1097 1072 1111 1167 1292 1709
1010.0 1978 1931 1775 1380 813 588 545 559 636 764
1050.0 916 1090 1509 2145 2288 2235 2040 1367 652 495
1090.0 446 432 385 371 359 391 497 816 1330 1429
1130.0 1556 1782 1566 1655 2270 3113 4044 4597 5205 6312
1170.0 6601 6805 6830 6015 5268 3849 2298 1265 722 463
1210.0 325 295 290 363 492 952 2030 3327 3656 3844
1250.0 3285 1659 621 615 728 1044 1429 1790 1915 1988
1290.0 1834 1766 1954 2264 2075 1937 1906 1301 817 570
1330.0 421 408 416 433 414 463 494 579 658 760
1370.0 867 974 1012 1043 1064 837 710 581 572 564
1410.0 632 735 1056 1842 3116 4800 6124 6980 6313 5132
1450.0 4006 3097 2358 2233 2108 1609 1229 1134 1165 1264
1490.0 1365 1418 1561 1642 1840 2040 2343 2839 3705 4547
1530.0 5619 6080 6110 5149 4237 2901 1804 1503 1191 1130
1570.0 1027 982 797 800 745 759 797 839 817 777
1610.0 626 430 355 241 236 203 198 212 172 192
1650.0 201 284 263 269 259 233 203 194 323 425
1690.0 457 451 510 365 278 221 202 234 185 167
1730.0 154 188 138 132 126 149 137 152 183 239
1770.0 351 476 533 531 515 498 391 315 281 288
1810.0 343 405 395 363 297 198 123 81 97 94
1850.0 106 116 182 242 282 274 236 177 136 179
1890.0 255 350 408 409 404 376 271 206 202 245
1930.0 362 456 470 431 338 192 94 74 63 66
1970.0 55 64 53 66 63 72 72 76 74 78
2010.0 91 92 104 95 92 84 74 70 59 60
2050.0 51 56 48 48 48 49 47 47 53 60
2090.0 65 60 68 63 64 55 53 46 41 47
2130.0 51 64 65 72 66 70 64 61 68 77
2170.0 90 89 94 88 87 77 70 58 49 45
2210.0 38 37 37 47 50 54 60 75 83 92
2250.0 101 91 86 79 69 57 64 66 69 73
2290.0 72 84 82 96 93 103 106 108 100 84
2330.0 79 66 50 53 72 67 70 73 84 77
2370.0 89 82 72 78 76 83 89 99 109 103
2410.0 101 102 104 108 124 127 127 116 106 91
2450.0 86 87 88 94 97 108 111 114 117 112
2490.0 112 103 95 92 102 103 109 110 120 129
2530.0 127 129 128 130 132 137 144 144 136 125
2570.0 116 110 128 123 121 111 104 97 107 124
2610.0 149 154 148 135 101 74 61 60 55 55
2650.0 67 72 84 90 94 87 84 71 67 65
2690.0 70 70 72 82 88 97 103 103 101 110
2730.0 123 134 145 145 125 99 89 83 84 83
2770.0 89 89 89 88 86 77 72 79 74 84
2810.0 91 97 103 108 117 125 141 152 179 212
2850.0 265 372 515 625 669 657 571 455 380 351
2890.0 345 352 368 383 403 424 436 452 543 785
2930.0 1344 2015 2362 2400 2145 1497 920 653 593 587
2970.0 638 688 609 563 522 507 539 573 632 678
3010.0 720 747 769 764 791 855 993 1215 1381 1422
3050.0 1417 1361 1437 1992 2814 3896 4749 5042 4679 3613
3090.0 2565 1858 1165 748 522 433 426 451 475 476
3130.0 431 352 257 182 140 105 89 77 78 65
3170.0 63 63 58 59 66 66 63 63 61 59
3210.0 55 48 55 41 47 52 55 54 64 56
3250.0 58 63 68 61 60 66 64 68 71 69
3290.0 54 57 52 45 45 40 54 56 63 61
3330.0 65 60 65 52 43 48 46 57 41 55
3370.0 52 48 60 40 43 52 55 50 59 51
3410.0 57 48 53 59 53 59 56 54 48 51
3450.0 49 53 58 65 57 54 64 65 50 36
3490.0 43 40 46 46 39 56 52 57 58 50
3530.0 49 46 49 48 60 59 54 72 81 63
3570.0 89 63 76 82 68 58 74 71 57 67
3610.0 39 51 50 49 48 51 54 39 63 50
3650.0 56 57 50 70 54 65 61 48 52 55
3690.0 54 52 59 66 60 87 100 91 78 72
3730.0 81 63 91 54 81 57 74 71 50 87
3770.0 83 105 85 93 85 88 86 72 51 79
3810.0 74 61 59 74 74 51 61 74 61 63
3850.0 79 84 83 75 70 84 66 68 56 73
3890.0 82 81 71 81 93 103 107 112 127 121
3930.0 140 148 144 140 120 96 90 83 92 84
##END=
