##TITLE=Benzaldehyde, 3,4-dimethoxy-
##JCAMP-DX=4.24
##DATA TYPE=INFRARED SPECTRUM
##ORIGIN=Sadtler Research Labs Under US-EPA Contract
##OWNER=NIST Standard Reference Data Program
##CAS REGISTRY NO=120-14-9
##MOLFORM=C 9 H 10 O 3
##XUNITS=1/CM
##YUNITS=ABSORBANCE
##XFACTOR=1.0
##YFACTOR=0.000106921
##DELTAX=4.0
##FIRSTX=450.0
##LASTX=3966.0
##FIRSTY=0.088638
##MAXX=3966
##MINX=450
##MAXY=1.06921
##MINY=0
##NPOINTS=880
##XYDATA=(X++(Y..Y))
450.0 829 336 74 100 21 123 160 11 144 150
490.0 96 89 73 86 125 211 69 103 45 110
530.0 93 164 87 88 186 183 55 159 248 255
570.0 232 244 259 407 351 387 373 401 316 293
610.0 274 363 390 514 453 508 530 480 434 314
650.0 195 111 103 67 48 19 39 12 22 36
690.0 3 21 35 23 118 111 223 362 640 938
730.0 1057 993 806 667 496 471 456 425 427 470
770.0 588 727 779 751 656 533 517 600 756 836
810.0 819 804 752 700 677 568 493 412 349 340
850.0 317 294 283 289 320 358 390 332 281 271
890.0 213 214 172 171 157 168 200 242 259 281
930.0 296 282 287 292 288 289 272 244 231 209
970.0 196 196 218 229 264 306 376 487 588 771
1010.0 1032 1348 1708 2110 2490 2761 2814 2636 2154 1546
1050.0 1039 703 470 346 290 248 229 235 250 274
1090.0 305 377 488 674 935 1315 1739 2198 2597 2896
1130.0 3063 3074 2978 2946 2990 3074 3131 2878 2272 1657
1170.0 1161 806 699 701 726 759 771 778 789 819
1210.0 907 1032 1203 1441 1764 2152 2573 3000 3356 3578
1250.0 3813 4143 4775 5931 7512 9071 10000 9830 8692 6980
1290.0 5248 3840 2899 2345 2025 1799 1564 1343 1161 1028
1330.0 955 884 802 704 584 473 388 360 363 420
1370.0 540 721 1012 1370 1624 1625 1434 1093 802 742
1410.0 920 1296 1691 1904 1843 1561 1168 1047 1091 1197
1450.0 1370 1497 1650 1953 2042 1966 1744 1451 1190 1078
1490.0 1304 1735 2557 3506 4410 5020 4538 3759 2535 1559
1530.0 981 699 544 439 412 401 417 449 560 710
1570.0 970 1379 1817 2406 2835 3283 3869 3778 3828 3252
1610.0 2373 1669 1002 660 442 331 250 225 206 193
1650.0 200 188 226 226 274 339 387 502 616 760
1690.0 1004 1248 1684 2480 3850 6092 7572 8686 7691 5445
1730.0 3384 1609 817 506 360 264 211 180 150 148
1770.0 129 114 109 103 112 101 101 94 71 81
1810.0 60 58 61 53 59 58 55 58 45 54
1850.0 55 60 65 72 89 85 94 91 80 81
1890.0 71 65 64 54 55 53 43 45 29 32
1930.0 26 27 29 25 32 32 32 37 34 45
1970.0 44 48 47 53 64 68 76 90 98 106
2010.0 110 113 119 120 126 124 117 118 116 114
2050.0 118 114 114 107 102 92 86 79 65 60
2090.0 48 42 44 36 33 26 21 18 12 10
2130.0 8 6 7 7 11 7 9 9 5 6
2170.0 5 5 11 9 13 14 16 15 16 15
2210.0 14 16 19 17 21 24 21 24 20 21
2250.0 23 22 27 28 34 40 41 42 38 36
2290.0 35 30 28 20 17 15 7 2 0 0
2330.0 0 0 0 0 0 0 0 0 0 0
2370.0 0 0 3 3 5 1 0 1 3 4
2410.0 4 6 7 5 7 7 7 9 9 9
2450.0 12 11 17 16 12 14 17 20 23 24
2490.0 27 27 27 31 34 41 43 48 52 56
2530.0 65 68 74 80 81 89 94 92 97 97
2570.0 101 106 107 110 114 124 125 131 134 136
2610.0 134 132 130 126 116 114 111 110 112 120
2650.0 125 123 121 122 119 117 119 136 151 174
2690.0 222 295 406 565 765 971 1146 1289 1326 1267
2730.0 1138 954 761 620 520 453 415 393 396 409
2770.0 442 467 491 520 579 671 794 938 1083 1198
2810.0 1287 1314 1244 1127 996 903 906 1010 1167 1260
2850.0 1242 1122 923 730 598 528 492 487 493 511
2890.0 530 552 584 629 690 773 853 927 975 996
2930.0 1037 1144 1335 1577 1753 1826 1821 1713 1621 1526
2970.0 1359 1162 996 858 759 714 728 802 945 1171
3010.0 1374 1394 1246 976 669 480 420 383 368 357
3050.0 339 335 332 337 354 367 376 369 346 309
3090.0 268 230 195 173 155 140 128 115 98 91
3130.0 77 68 63 56 55 54 52 50 47 45
3170.0 50 51 43 47 47 40 43 38 36 37
3210.0 30 29 24 24 17 15 13 15 17 19
3250.0 14 19 14 13 18 9 13 9 16 11
3290.0 12 14 10 18 15 14 13 11 15 16
3330.0 12 19 9 14 17 14 11 11 14 22
3370.0 25 24 25 30 44 54 73 88 101 114
3410.0 115 119 108 90 71 55 45 42 27 22
3450.0 26 24 18 22 19 16 19 17 11 13
3490.0 17 23 24 22 23 18 22 17 20 20
3530.0 14 21 16 17 23 19 21 14 16 19
3570.0 20 23 19 24 19 24 17 14 12 26
3610.0 18 16 20 18 22 22 16 18 7 1
3650.0 13 6 13 5 10 4 25 22 26 34
3690.0 21 32 25 35 24 32 37 31 39 27
3730.0 21 32 33 26 51 39 37 34 37 36
3770.0 42 42 49 43 41 48 52 41 48 37
3810.0 54 40 44 36 41 42 51 40 48 46
3850.0 41 64 50 60 46 46 56 50 54 60
3890.0 35 47 45 41 38 57 51 56 28 29
3930.0 49 27 46 52 59 32 41 72 46 55
##END=
