##TITLE=Ethanone, 1-(2,5-dimethoxyphenyl)-
##JCAMP-DX=4.24
##DATA TYPE=INFRARED SPECTRUM
##ORIGIN=Sadtler Research Labs Under US-EPA Contract
##OWNER=NIST Standard Reference Data Program
##CAS REGISTRY NO=1201-38-3
##MOLFORM=C 10 H 12 O 3
##XUNITS=1/CM
##YUNITS=ABSORBANCE
##XFACTOR=1.0
##YFACTOR=0.000086249
##DELTAX=4.0
##FIRSTX=450.0
##LASTX=3966.0
##FIRSTY=0.005175
##MAXX=3966
##MINX=450
##MAXY=0.86249
##MINY=0
##NPOINTS=880
##XYDATA=(X++(Y..Y))
450.0 60 103 126 173 34 72 80 86 189 91
490.0 109 143 6 140 120 136 224 183 214 284
530.0 257 350 303 307 318 266 297 344 345 437
570.0 485 864 1122 1194 1133 811 487 360 237 335
610.0 242 215 277 217 215 203 165 178 155 127
650.0 140 81 104 85 45 118 126 239 381 591
690.0 811 838 769 566 348 256 191 186 288 358
730.0 602 836 1025 1120 959 719 499 343 313 265
770.0 231 242 185 188 251 263 382 505 685 832
810.0 968 1050 949 798 657 451 366 303 257 273
850.0 253 301 341 329 499 643 804 953 915 833
890.0 664 496 427 299 260 219 193 209 184 182
930.0 207 178 207 209 213 265 265 317 362 396
970.0 501 562 609 671 652 664 676 681 776 835
1010.0 1007 1224 1423 1715 1930 2210 2615 3151 3878 4413
1050.0 4447 4138 3314 2533 1877 1356 1029 738 573 482
1090.0 387 368 339 304 330 321 361 413 471 591
1130.0 628 661 671 621 632 631 653 778 905 1226
1170.0 1691 2143 2465 2441 2224 1965 1911 2322 3037 4126
1210.0 5480 6677 7765 8475 8444 7796 6236 4542 3209 2479
1250.0 2324 2414 2734 3256 3796 4471 5091 5505 5611 5068
1290.0 4286 3472 2887 2774 2709 2584 2258 1764 1285 922
1330.0 711 666 647 690 799 1022 1435 1723 1788 1582
1370.0 1138 881 767 740 841 980 1340 1995 2880 3922
1410.0 4513 4461 3872 2878 2241 1808 1680 1819 1990 2066
1450.0 2014 1883 1977 2287 2784 3166 3482 3942 4823 6716
1490.0 8950 10000 9179 7113 4543 2751 1695 1150 883 663
1530.0 588 523 487 516 459 461 487 568 646 680
1570.0 744 809 834 880 860 798 736 641 656 697
1610.0 688 676 601 519 480 400 414 423 396 449
1650.0 475 550 557 598 696 749 898 1079 1408 1998
1690.0 2827 3738 4554 4720 4355 3505 2769 2184 1751 1424
1730.0 1225 1008 823 673 559 499 402 367 317 269
1770.0 275 246 210 219 200 213 218 214 238 200
1810.0 205 197 169 178 169 171 166 145 167 179
1850.0 156 168 161 177 177 176 165 138 143 138
1890.0 121 128 123 119 126 121 136 146 141 145
1930.0 129 133 137 122 136 128 125 141 131 142
1970.0 147 141 172 168 184 218 209 237 231 218
2010.0 223 201 205 211 193 211 190 205 219 211
2050.0 212 208 213 230 210 209 206 196 211 199
2090.0 195 202 180 180 158 136 133 102 107 100
2130.0 84 102 78 97 101 88 101 91 91 110
2170.0 90 92 98 93 106 103 109 108 91 110
2210.0 98 99 111 101 120 117 105 114 101 103
2250.0 112 95 107 98 93 110 100 106 102 79
2290.0 93 82 72 63 29 35 24 6 37 21
2330.0 40 86 38 89 56 6 6 6 35 84
2370.0 122 196 150 129 110 95 107 94 98 108
2410.0 93 108 103 100 118 103 117 124 104 123
2450.0 118 128 135 128 149 147 146 157 153 150
2490.0 144 136 158 134 135 142 137 150 148 132
2530.0 141 112 108 126 117 131 126 120 136 117
2570.0 135 144 125 143 128 119 135 115 129 113
2610.0 108 124 95 102 95 79 99 86 84 111
2650.0 95 87 73 83 107 89 110 129 122 139
2690.0 117 116 121 98 128 133 134 150 146 156
2730.0 142 131 146 139 141 151 136 155 138 129
2770.0 153 153 170 176 170 197 191 205 245 250
2810.0 292 309 332 415 500 677 931 1248 1504 1524
2850.0 1379 1121 879 777 695 613 583 526 535 541
2890.0 558 632 692 826 951 1094 1253 1314 1331 1318
2930.0 1285 1400 1588 1839 2162 2269 2309 2174 1871 1595
2970.0 1263 1046 919 810 826 901 1041 1366 1746 2087
3010.0 2057 1688 1182 720 503 458 402 414 388 362
3050.0 382 352 344 361 326 366 334 352 358 319
3090.0 276 221 140 152 130 139 143 95 126 95
3130.0 72 99 52 81 102 82 94 73 81 102
3170.0 83 91 79 91 105 67 83 107 74 93
3210.0 73 86 109 94 110 85 72 101 55 92
3250.0 107 104 126 107 106 129 93 122 97 82
3290.0 98 52 84 70 63 125 93 92 106 71
3330.0 94 73 61 94 51 79 88 38 114 82
3370.0 119 132 100 116 114 93 102 70 97 113
3410.0 74 106 54 83 92 46 81 67 42 97
3450.0 59 96 100 79 131 82 82 97 58 107
3490.0 90 66 93 90 116 102 56 96 86 78
3530.0 117 77 117 101 67 96 69 79 71 36
3570.0 92 58 75 88 50 80 104 54 110 73
3610.0 33 60 8 90 48 86 100 79 102 33
3650.0 85 95 57 98 87 23 73 54 58 145
3690.0 63 79 70 10 79 46 120 102 0 75
3730.0 88 78 112 23 48 83 30 60 48 77
3770.0 99 37 54 45 74 106 22 89 50 56
3810.0 145 88 43 101 4 103 28 35 105 24
3850.0 50 82 84 55 40 99 113 31 87 75
3890.0 29 87 37 59 52 50 84 36 85 22
3930.0 6 49 15 52 129 41 142 106 67 165
##END=
