##TITLE=N-(2-Chlorophenyl)-maleimide
##JCAMP-DX=4.24
##DATA TYPE=INFRARED SPECTRUM
##ORIGIN=Sadtler Research Labs Under US-EPA Contract
##OWNER=NIST Standard Reference Data Program
##CAS REGISTRY NO=1203-24-3
##MOLFORM=C 10 H 6 Cl N O 2
##XUNITS=1/CM
##YUNITS=ABSORBANCE
##XFACTOR=1.0
##YFACTOR=0.000166681
##DELTAX=4.0
##FIRSTX=450.0
##LASTX=3966.0
##FIRSTY=0.008001
##MAXX=3966
##MINX=450
##MAXY=1.66681
##MINY=0
##NPOINTS=880
##XYDATA=(X++(Y..Y))
450.0 48 75 83 84 104 147 132 106 84 94
490.0 73 42 20 30 6 10 20 22 6 12
530.0 13 2 10 22 17 11 14 23 24 33
570.0 50 89 129 190 184 128 97 40 32 44
610.0 68 94 169 265 308 295 215 128 60 41
650.0 30 42 57 121 169 275 334 396 547 722
690.0 900 733 485 294 193 341 560 929 1027 760
730.0 555 372 423 596 716 815 645 408 223 99
770.0 59 48 42 43 40 38 39 47 51 64
810.0 118 296 656 1118 1451 1364 907 449 182 111
850.0 118 119 103 72 44 32 32 28 28 24
890.0 30 34 29 28 25 24 21 13 12 12
930.0 9 14 33 96 194 246 239 156 63 34
970.0 28 28 28 22 20 21 22 23 29 35
1010.0 42 63 102 158 225 258 239 202 204 290
1050.0 419 481 420 297 246 318 432 469 378 244
1090.0 154 141 170 207 233 253 265 296 366 493
1130.0 691 955 1271 1560 1708 1640 1371 1010 661 403
1170.0 235 138 86 59 50 51 90 173 294 439
1210.0 535 519 391 236 134 86 59 56 62 69
1250.0 94 155 251 325 339 281 178 98 61 45
1290.0 44 49 62 72 73 64 57 53 58 67
1330.0 80 97 111 135 172 238 353 518 733 1028
1370.0 1411 1930 2554 3282 3675 3449 2622 1496 703 468
1410.0 448 428 383 296 231 219 253 349 474 565
1450.0 570 493 360 281 297 432 726 1242 1853 2345
1490.0 2310 1996 1458 1003 635 321 172 100 82 62
1530.0 56 42 40 30 31 33 32 31 48 61
1570.0 89 120 165 208 241 263 245 205 145 100
1610.0 80 75 71 64 64 59 69 67 76 67
1650.0 71 75 91 83 86 79 70 72 72 86
1690.0 99 123 147 212 307 443 636 873 1190 1649
1730.0 2713 4511 7085 8907 10000 7345 4923 2737 1658 1292
1770.0 1119 909 698 499 358 259 197 149 114 102
1810.0 93 98 101 102 90 74 57 46 38 32
1850.0 31 30 32 34 39 42 58 66 79 87
1890.0 99 106 113 117 109 98 83 66 49 41
1930.0 41 42 46 48 53 49 44 34 31 28
1970.0 33 38 39 36 28 21 13 13 11 12
2010.0 10 10 10 9 12 11 12 11 14 18
2050.0 20 24 26 27 24 27 24 24 20 19
2090.0 16 17 19 20 23 23 22 21 19 20
2130.0 21 17 15 12 14 15 17 19 20 18
2170.0 17 16 15 13 10 10 7 7 6 5
2210.0 7 6 7 7 7 7 9 8 9 11
2250.0 14 15 18 17 20 20 20 20 18 21
2290.0 22 21 23 23 22 24 26 31 38 41
2330.0 40 39 31 31 32 36 36 31 28 16
2370.0 19 14 15 15 9 9 9 7 9 11
2410.0 12 14 15 13 13 11 11 9 9 6
2450.0 5 5 6 7 6 6 9 10 9 9
2490.0 9 10 14 14 14 18 20 22 24 26
2530.0 24 24 21 20 17 13 12 10 10 8
2570.0 7 7 8 9 9 9 10 9 7 8
2610.0 4 4 3 4 3 4 3 4 4 5
2650.0 3 5 2 3 3 1 1 0 1 1
2690.0 2 2 0 0 0 3 0 1 1 1
2730.0 2 3 2 4 4 2 0 0 0 1
2770.0 3 2 5 3 0 4 3 5 5 3
2810.0 5 3 1 1 2 2 2 4 3 5
2850.0 6 7 6 5 6 6 6 7 4 5
2890.0 7 5 5 2 3 3 3 5 6 8
2930.0 8 8 9 7 6 6 5 6 7 6
2970.0 6 8 7 6 7 8 10 12 14 16
3010.0 17 19 20 21 24 30 35 43 50 57
3050.0 64 64 73 90 126 173 223 258 260 231
3090.0 183 134 93 66 46 33 22 16 11 9
3130.0 8 10 10 13 14 14 14 17 16 14
3170.0 9 7 4 4 7 6 6 4 5 3
3210.0 4 4 5 2 3 4 5 3 5 2
3250.0 4 3 3 3 3 3 3 4 4 2
3290.0 4 4 4 5 2 3 5 7 5 6
3330.0 3 7 2 3 4 6 6 6 1 6
3370.0 4 5 4 3 5 5 3 4 7 5
3410.0 8 6 8 3 5 6 4 3 7 5
3450.0 0 4 4 3 8 9 10 11 16 14
3490.0 22 28 41 61 83 110 133 136 124 88
3530.0 63 45 29 25 24 17 15 16 12 21
3570.0 20 17 15 10 17 15 14 5 6 6
3610.0 10 4 6 4 6 10 8 1 4 0
3650.0 3 3 0 10 5 4 3 9 6 7
3690.0 4 9 7 6 7 6 8 5 7 11
3730.0 9 11 14 3 19 0 10 6 2 7
3770.0 1 5 4 11 7 10 7 13 9 19
3810.0 17 14 12 4 13 7 9 0 2 0
3850.0 0 14 5 5 6 0 0 2 0 13
3890.0 4 8 1 7 12 6 4 11 8 0
3930.0 0 4 8 1 1 2 1 5 2 1
##END=
