##TITLE=Glycine, N-benzoyl-, methyl ester
##JCAMP-DX=4.24
##DATA TYPE=INFRARED SPECTRUM
##ORIGIN=Sadtler Research Labs Under US-EPA Contract
##OWNER=NIST Standard Reference Data Program
##CAS REGISTRY NO=1205-08-9
##MOLFORM=C 10 H 11 N O 3
##XUNITS=1/CM
##YUNITS=ABSORBANCE
##XFACTOR=1.0
##YFACTOR=0.000049945
##DELTAX=4.0
##FIRSTX=450.0
##LASTX=3966.0
##FIRSTY=0.017281
##MAXX=3966
##MINX=450
##MAXY=0.49945
##MINY=0
##NPOINTS=880
##XYDATA=(X++(Y..Y))
450.0 346 296 348 321 227 378 400 396 315 356
490.0 424 400 372 292 288 305 306 314 286 339
530.0 371 440 483 435 365 338 292 230 196 179
570.0 188 140 114 78 61 78 52 54 50 47
610.0 55 47 65 74 81 38 41 49 47 87
650.0 151 215 327 368 392 433 469 559 731 934
690.0 1263 1529 1909 2242 2624 2692 2502 2150 1678 1239
730.0 864 604 432 284 207 142 95 43 30 28
770.0 30 24 14 28 47 46 54 74 63 42
810.0 56 77 120 147 197 275 357 449 494 476
850.0 427 305 214 148 111 104 123 124 105 85
890.0 34 8 2 4 24 45 80 120 167 203
930.0 208 229 224 227 230 239 260 284 315 355
970.0 434 548 698 854 952 961 916 901 919 916
1010.0 887 894 996 1111 1128 1090 916 646 517 461
1050.0 417 391 385 408 413 441 460 479 489 497
1090.0 499 517 542 543 511 451 427 433 471 531
1130.0 621 769 968 1276 1674 2139 2555 2793 2751 2582
1170.0 2535 3014 4175 5327 5876 5895 6014 6838 7986 9208
1210.0 10000 9877 8733 7141 5766 4891 4393 4109 3936 3798
1250.0 3673 3524 3345 3166 3032 2968 2940 2872 2741 2523
1290.0 2266 2014 1754 1514 1312 1151 1046 995 993 1001
1330.0 1020 1056 1118 1276 1517 1912 2625 3913 5798 7147
1370.0 6680 4670 2600 1593 1152 917 802 722 742 778
1410.0 829 901 944 1053 1170 1409 1870 2686 3228 3179
1450.0 2516 2055 1945 2061 2388 3005 3997 5565 7141 7653
1490.0 6488 4991 4652 5580 6500 6585 5912 4787 3799 2944
1530.0 2326 1820 1475 1188 1010 881 756 661 628 615
1570.0 617 661 701 720 680 636 582 585 617 640
1610.0 591 497 428 392 367 358 373 360 418 454
1650.0 535 627 752 814 905 1027 1218 1631 2231 3313
1690.0 4819 6574 8079 8903 8547 7321 5599 4105 3093 2512
1730.0 2169 2021 2027 2151 2403 2824 3679 5049 6606 7726
1770.0 7669 6167 4050 2390 1561 1181 1054 1051 1034 1014
1810.0 861 680 489 368 284 235 235 279 362 435
1850.0 474 452 338 216 145 99 108 108 114 118
1890.0 125 138 146 159 149 138 117 101 91 87
1930.0 94 91 102 103 128 142 152 145 153 154
1970.0 147 137 110 94 86 82 74 74 73 71
2010.0 69 67 67 71 69 70 76 69 71 76
2050.0 82 82 84 83 81 92 87 88 75 72
2090.0 65 65 67 69 64 64 66 61 62 59
2130.0 58 46 46 41 39 33 31 33 31 34
2170.0 26 31 25 23 25 22 25 24 22 25
2210.0 22 19 22 17 26 27 24 24 18 25
2250.0 22 27 24 28 26 25 25 24 27 29
2290.0 32 34 42 49 45 54 75 83 95 96
2330.0 75 72 68 93 105 100 73 60 43 33
2370.0 50 47 63 55 35 21 13 11 14 8
2410.0 12 12 12 21 18 19 19 23 23 24
2450.0 26 16 21 23 19 18 19 15 8 10
2490.0 6 10 8 9 1 0 6 8 2 12
2530.0 10 14 12 14 18 14 17 18 17 21
2570.0 24 25 24 27 32 32 31 39 39 38
2610.0 36 30 26 27 21 19 20 18 21 16
2650.0 16 13 17 18 22 24 21 17 12 14
2690.0 13 12 14 12 7 8 12 16 12 16
2730.0 10 13 17 15 26 29 30 34 35 40
2770.0 33 36 39 42 37 44 48 45 55 54
2810.0 53 58 65 68 73 82 103 129 151 206
2850.0 279 362 416 410 355 326 323 319 314 303
2890.0 305 315 334 365 405 436 483 538 606 679
2930.0 773 901 1027 1132 1161 1143 1156 1426 1829 1920
2970.0 1592 989 648 530 459 442 440 452 478 499
3010.0 507 502 502 521 600 736 909 1002 947 777
3050.0 613 547 589 709 915 1194 1358 1285 1052 835
3090.0 723 620 512 427 363 319 266 212 165 129
3130.0 104 88 77 62 57 56 49 52 56 38
3170.0 39 33 32 27 31 16 18 16 13 20
3210.0 17 19 20 11 1 7 3 0 8 4
3250.0 10 5 14 14 13 9 16 18 17 25
3290.0 18 13 19 21 19 18 17 21 14 20
3330.0 10 17 17 16 31 25 27 32 31 41
3370.0 44 56 80 83 88 95 97 99 103 95
3410.0 97 105 120 139 162 201 258 327 416 550
3450.0 685 840 949 970 905 796 665 554 474 408
3490.0 371 303 247 208 176 163 139 116 96 88
3530.0 62 41 32 43 35 34 40 42 21 37
3570.0 55 55 64 43 64 55 57 20 26 29
3610.0 41 27 34 43 46 46 38 36 38 37
3650.0 42 53 50 53 32 45 26 55 39 64
3690.0 43 33 46 60 68 55 57 56 65 54
3730.0 49 68 75 51 93 19 55 53 34 46
3770.0 37 39 27 34 29 24 35 48 30 40
3810.0 39 27 64 30 39 26 37 39 46 34
3850.0 54 61 59 47 50 53 44 49 47 55
3890.0 29 43 50 65 62 47 49 52 44 53
3930.0 57 57 61 77 76 70 65 60 41 55
##END=
