##TITLE=Cyclopentanecarbonitrile, 1-(4-methoxyphenyl)-
##JCAMP-DX=4.24
##DATA TYPE=INFRARED SPECTRUM
##ORIGIN=Sadtler Research Labs Under US-EPA Contract
##OWNER=NIST Standard Reference Data Program
##CAS REGISTRY NO=1206-15-1
##MOLFORM=C 13 H 15 N O
##XUNITS=1/CM
##YUNITS=ABSORBANCE
##XFACTOR=1.0
##YFACTOR=0.000123514
##DELTAX=4.0
##FIRSTX=450.0
##LASTX=3966.0
##FIRSTY=0.002964
##MAXX=3966
##MINX=450
##MAXY=1.23514
##MINY=0
##NPOINTS=880
##XYDATA=(X++(Y..Y))
450.0 24 33 46 44 85 64 45 28 50 123
490.0 171 186 186 218 213 241 279 306 381 411
530.0 471 469 471 477 481 498 488 464 397 353
570.0 332 320 325 349 420 533 648 729 684 527
610.0 351 247 176 141 113 115 133 135 131 116
650.0 104 80 74 69 56 64 65 57 47 34
690.0 55 48 61 56 52 46 49 61 59 54
730.0 53 68 70 79 72 75 88 93 98 112
770.0 128 164 222 314 490 611 687 692 693 746
810.0 840 1048 1317 1632 1909 2024 1895 1602 1234 876
850.0 608 416 288 214 173 157 148 133 134 139
890.0 154 195 213 199 162 121 96 85 90 89
930.0 96 110 146 184 229 261 273 255 235 214
970.0 206 197 197 212 232 267 291 321 362 441
1010.0 549 651 784 977 1311 1777 2297 2749 2962 2762
1050.0 2238 1601 1086 777 596 472 388 336 299 270
1090.0 259 249 255 271 303 343 384 414 424 397
1130.0 358 326 302 290 285 299 335 409 530 784
1170.0 1297 2304 3874 5000 4652 3072 1553 890 704 652
1210.0 676 754 918 1176 1594 2178 2943 3904 5162 6790
1250.0 8591 9699 9210 7270 5121 3763 3148 2969 3041 3246
1290.0 3423 3415 3146 2664 2163 1777 1530 1330 1148 953
1330.0 774 639 495 416 364 323 294 272 244 235
1370.0 233 207 215 225 216 218 208 197 228 255
1410.0 277 349 326 391 394 453 519 726 1076 1348
1450.0 1506 1520 1536 1734 1919 1966 1802 1590 1439 1343
1490.0 1374 1640 2214 3420 5457 8242 10000 8854 5909 3095
1530.0 1652 1038 723 550 477 472 427 377 401 453
1570.0 511 617 741 829 900 926 1049 1273 1641 2028
1610.0 2359 2419 2106 1572 992 655 445 345 299 247
1650.0 178 155 164 146 123 101 69 93 46 29
1690.0 51 58 11 13 29 61 48 28 83 111
1730.0 104 77 119 125 117 118 153 134 101 84
1770.0 46 34 56 50 48 36 25 32 22 49
1810.0 37 32 38 35 32 30 50 69 63 61
1850.0 84 106 107 112 116 113 146 156 150 132
1890.0 110 93 86 81 70 59 47 39 20 24
1930.0 27 23 24 13 18 25 28 31 41 45
1970.0 55 65 62 54 46 31 30 36 38 41
2010.0 45 46 55 73 96 112 133 150 165 179
2050.0 186 181 175 175 171 177 177 174 161 141
2090.0 116 93 74 56 44 37 29 24 18 13
2130.0 9 7 1 2 0 1 2 2 4 2
2170.0 3 5 7 10 7 10 11 10 13 17
2210.0 24 34 50 76 109 146 172 178 158 120
2250.0 85 60 44 39 35 35 34 39 44 50
2290.0 57 66 73 79 74 70 63 56 51 48
2330.0 45 42 39 40 53 44 58 48 41 38
2370.0 32 38 37 35 32 36 37 38 41 45
2410.0 44 43 41 40 43 43 43 41 38 33
2450.0 30 27 28 27 32 32 35 39 44 46
2490.0 47 51 52 55 56 56 59 61 67 69
2530.0 78 84 91 98 102 101 96 84 74 65
2570.0 55 49 45 43 44 44 46 45 46 48
2610.0 44 44 39 33 36 35 36 37 39 38
2650.0 37 31 27 23 23 20 20 25 22 24
2690.0 24 27 31 34 39 41 45 51 54 57
2730.0 62 58 61 63 62 69 74 79 86 96
2770.0 100 103 110 115 122 134 146 164 181 197
2810.0 216 241 273 319 369 451 576 805 1144 1384
2850.0 1372 1140 896 792 786 865 1025 1261 1561 1834
2890.0 1929 1811 1594 1428 1402 1485 1643 1796 1921 2008
2930.0 2108 2267 2543 2945 3313 3626 3868 4144 4405 4652
2970.0 4880 5174 5386 5016 4087 2918 2053 1684 1662 1893
3010.0 2042 1868 1409 958 750 684 699 781 874 915
3050.0 855 728 615 564 553 563 579 585 553 493
3090.0 430 393 372 360 342 313 281 250 219 196
3130.0 181 163 145 125 108 98 89 85 76 74
3170.0 67 65 59 52 51 50 44 45 45 42
3210.0 40 41 40 39 38 37 37 38 33 36
3250.0 37 29 26 29 26 30 24 19 25 20
3290.0 20 22 22 20 20 16 18 18 24 25
3330.0 17 18 23 23 14 17 19 19 19 19
3370.0 14 15 21 23 19 18 21 14 21 19
3410.0 15 11 15 16 17 23 23 18 20 18
3450.0 16 19 23 22 20 22 19 19 24 26
3490.0 23 21 18 24 18 21 18 20 24 20
3530.0 21 22 21 20 24 21 22 23 25 18
3570.0 21 23 22 24 27 29 19 10 17 23
3610.0 16 12 22 21 29 26 23 18 21 23
3650.0 28 19 16 27 22 19 22 27 22 28
3690.0 34 25 32 25 26 24 34 22 30 27
3730.0 29 24 25 25 37 29 32 19 19 22
3770.0 18 19 21 26 31 25 34 26 23 25
3810.0 24 24 29 38 27 26 30 34 23 37
3850.0 30 28 24 32 33 28 36 46 41 29
3890.0 32 30 29 35 23 31 26 30 29 24
3930.0 23 19 35 24 26 25 32 27 40 39
##END=
