##TITLE=Cyclohexanecarbonitrile, 1-(4-methylphenyl)-
##JCAMP-DX=4.24
##DATA TYPE=INFRARED SPECTRUM
##ORIGIN=Sadtler Research Labs Under US-EPA Contract
##OWNER=NIST Standard Reference Data Program
##CAS REGISTRY NO=1206-13-9
##MOLFORM=C 14 H 17 N
##XUNITS=1/CM
##YUNITS=ABSORBANCE
##XFACTOR=1.0
##YFACTOR=0.000089435
##DELTAX=4.0
##FIRSTX=450.0
##LASTX=3966.0
##FIRSTY=0.000000
##MAXX=3966
##MINX=450
##MAXY=0.89435
##MINY=0
##NPOINTS=880
##XYDATA=(X++(Y..Y))
450.0 0 161 189 241 203 232 207 207 218 223
490.0 250 263 258 314 375 435 516 609 686 723
530.0 705 639 603 518 490 397 327 293 277 260
570.0 263 264 252 264 243 242 216 202 207 204
610.0 204 205 205 202 212 204 210 218 241 233
650.0 228 228 232 214 216 220 232 212 213 212
690.0 226 251 264 278 287 300 324 339 314 309
730.0 287 264 255 258 253 256 254 258 262 256
770.0 273 324 380 455 506 561 655 857 1181 1548
810.0 1710 1479 1083 768 587 527 505 509 463 383
850.0 285 249 235 226 235 244 240 243 241 264
890.0 286 327 377 405 391 361 305 271 266 277
930.0 288 314 341 345 339 321 302 276 259 247
970.0 241 234 235 230 234 233 251 283 393 619
1010.0 790 809 679 531 453 389 337 317 315 318
1050.0 313 310 296 284 276 271 267 261 263 262
1090.0 261 271 285 303 323 357 382 398 414 431
1130.0 434 418 403 391 394 406 401 361 324 304
1170.0 304 303 317 338 375 498 621 649 552 415
1210.0 362 325 301 295 294 308 310 308 293 283
1250.0 276 287 311 348 386 404 404 369 333 312
1290.0 310 308 296 283 272 271 283 292 300 299
1330.0 298 307 325 365 418 478 542 568 535 460
1370.0 385 340 332 336 334 333 324 324 345 382
1410.0 406 443 449 463 463 474 493 547 703 912
1450.0 1220 1472 1454 1292 1051 826 656 497 453 420
1490.0 425 453 508 644 924 1476 1937 1940 1512 951
1530.0 655 489 365 300 273 272 253 234 234 235
1570.0 227 230 234 231 240 234 240 241 249 245
1610.0 250 250 245 251 246 256 257 256 253 233
1650.0 206 191 194 192 189 186 182 194 189 190
1690.0 203 211 204 213 225 237 241 238 257 263
1730.0 262 260 272 276 272 275 281 279 272 270
1770.0 264 257 271 288 307 296 267 228 203 198
1810.0 187 182 180 177 172 171 173 178 177 176
1850.0 182 191 195 195 193 195 204 210 217 229
1890.0 243 254 263 260 245 225 211 199 190 188
1930.0 186 178 179 174 172 174 174 173 174 176
1970.0 175 176 175 175 175 173 175 174 170 167
2010.0 169 168 168 166 164 164 164 161 162 164
2050.0 164 165 164 162 161 162 164 164 164 166
2090.0 169 168 167 169 166 166 166 166 166 165
2130.0 166 165 166 164 165 163 163 167 169 169
2170.0 169 170 173 171 172 171 170 169 172 172
2210.0 180 188 193 199 213 230 242 246 240 229
2250.0 214 201 189 182 177 175 178 174 172 174
2290.0 172 168 164 169 174 177 183 184 186 194
2330.0 190 188 186 189 191 192 191 190 185 180
2370.0 178 178 178 178 168 169 173 175 172 171
2410.0 169 176 174 172 176 175 176 172 173 171
2450.0 170 169 171 169 170 174 176 178 181 182
2490.0 185 188 185 183 182 178 181 177 177 176
2530.0 179 177 174 174 173 171 172 173 169 171
2570.0 170 175 174 177 182 189 191 194 198 199
2610.0 200 203 208 207 209 206 203 203 203 207
2650.0 213 217 217 218 221 232 239 239 236 231
2690.0 225 218 209 205 203 202 202 204 204 207
2730.0 205 214 224 235 240 236 225 219 217 212
2770.0 216 215 224 229 237 246 256 266 277 286
2810.0 288 295 303 311 323 333 342 357 394 445
2850.0 583 846 1367 1990 2438 2631 2593 2442 2099 1661
2890.0 1357 1177 1149 1181 1241 1314 1391 1474 1639 2083
2930.0 2970 4156 5610 7667 9718 10000 8166 5292 3084 1831
2970.0 1169 865 727 676 660 660 675 701 732 759
3010.0 798 824 859 935 1128 1405 1538 1428 1106 842
3050.0 751 713 709 723 714 681 622 569 522 494
3090.0 484 472 456 428 393 353 315 290 272 262
3130.0 264 258 251 245 231 215 199 190 187 191
3170.0 193 193 196 195 199 202 196 197 201 195
3210.0 192 191 186 182 175 177 175 176 175 175
3250.0 170 177 177 177 179 175 172 167 169 168
3290.0 170 176 180 174 172 173 176 174 175 172
3330.0 175 173 172 172 174 172 172 179 182 172
3370.0 174 177 175 178 175 177 174 172 170 174
3410.0 174 168 170 174 164 171 171 175 181 182
3450.0 175 176 179 181 187 181 178 180 180 174
3490.0 179 169 165 174 171 178 176 179 182 178
3530.0 180 183 177 177 174 175 172 172 168 176
3570.0 175 180 178 188 188 180 190 182 181 182
3610.0 182 174 184 175 175 178 182 186 181 182
3650.0 179 185 187 181 169 187 183 189 190 189
3690.0 186 186 183 186 187 178 185 188 188 197
3730.0 191 183 182 178 183 179 183 183 175 182
3770.0 179 170 181 188 183 185 177 173 168 183
3810.0 170 172 177 179 183 190 175 185 191 184
3850.0 179 186 177 171 176 180 195 180 196 196
3890.0 181 187 185 184 178 178 196 170 176 176
3930.0 180 179 176 185 192 186 189 184 197 189
##END=
