##TITLE=Benzenamine, N,N-dimethyl-
##JCAMP-DX=4.24
##DATA TYPE=INFRARED SPECTRUM
##ORIGIN=Sadtler Research Labs Under US-EPA Contract
##OWNER=NIST Standard Reference Data Program
##CAS REGISTRY NO=121-69-7
##MOLFORM=C 8 H 11 N
##XUNITS=1/CM
##YUNITS=ABSORBANCE
##XFACTOR=1.0
##YFACTOR=0.000097153
##DELTAX=4.0
##FIRSTX=450.0
##LASTX=3966.0
##FIRSTY=0.026523
##MAXX=3966
##MINX=450
##MAXY=0.97153
##MINY=0
##NPOINTS=880
##XYDATA=(X++(Y..Y))
450.0 273 216 244 167 276 233 282 194 318 279
490.0 286 279 318 542 323 457 642 778 741 826
530.0 713 841 689 571 468 387 289 205 255 158
570.0 158 139 90 77 97 122 10 196 82 24
610.0 48 73 86 117 115 150 167 104 132 84
650.0 144 206 274 337 453 839 1151 1645 1945 2451
690.0 3229 2725 2174 1846 1398 995 696 548 549 683
730.0 1053 1721 2480 3116 3763 4735 4177 3023 2414 1879
770.0 1225 729 383 254 176 171 109 88 110 79
810.0 94 79 101 80 98 83 76 97 107 153
850.0 168 220 260 322 378 384 350 313 278 226
890.0 212 189 177 175 179 214 224 260 304 430
930.0 642 1070 1606 1980 2022 1929 1667 1085 581 413
970.0 356 369 406 589 958 1197 1210 1255 1108 784
1010.0 377 317 405 664 970 1144 1210 1195 1164 982
1050.0 956 1038 1133 1166 1189 1117 978 840 718 638
1090.0 581 562 551 574 613 668 744 824 931 1027
1130.0 1163 1286 1416 1575 1802 2122 2553 3000 3322 3374
1170.0 3183 2844 2320 1927 1793 1738 1737 1751 1758 1770
1210.0 1896 2093 2266 2327 2289 2170 1930 1632 1327 1089
1250.0 900 784 702 650 624 593 575 552 560 565
1290.0 598 640 725 811 943 1122 1357 1704 2208 2971
1330.0 3978 5224 6306 6850 6787 6147 5009 3699 2627 1889
1370.0 1428 1121 948 821 740 688 647 610 590 589
1410.0 580 583 597 656 724 846 1054 1319 1559 1664
1450.0 1777 1867 1850 1821 1861 1934 2075 2312 2674 3236
1490.0 4111 5535 7369 9286 10000 9689 8709 6858 4573 2884
1530.0 2062 1619 1353 1192 1121 1111 1147 1209 1275 1367
1570.0 1477 1643 1853 2218 3010 4396 6253 8394 9582 9708
1610.0 8917 7175 4832 2904 1806 1177 798 583 468 408
1650.0 359 338 319 315 309 306 300 299 291 271
1690.0 274 280 306 377 531 639 666 661 558 385
1730.0 323 298 285 273 248 229 234 225 214 198
1770.0 175 148 132 115 108 98 101 104 109 126
1810.0 132 140 152 160 160 148 144 130 116 104
1850.0 91 90 95 100 107 118 131 148 161 177
1890.0 200 222 244 272 290 292 274 276 294 276
1930.0 246 212 178 127 82 49 36 33 26 23
1970.0 19 19 12 14 10 12 13 14 13 15
2010.0 17 14 18 27 28 35 35 38 39 49
2050.0 45 52 66 81 101 118 144 156 154 139
2090.0 110 85 62 37 27 24 18 19 18 20
2130.0 19 18 19 21 23 28 22 16 19 16
2170.0 15 10 12 12 11 12 11 14 5 7
2210.0 1 5 12 15 17 30 45 60 71 73
2250.0 65 59 49 42 35 34 28 30 27 39
2290.0 46 45 51 62 75 83 90 89 96 90
2330.0 105 111 99 101 80 111 115 109 50 9
2370.0 0 4 12 25 31 37 37 36 37 36
2410.0 37 33 34 37 42 44 46 49 55 58
2450.0 62 65 76 80 82 81 80 77 85 83
2490.0 93 97 103 108 116 121 123 117 120 116
2530.0 118 124 133 127 135 134 146 142 149 155
2570.0 162 159 160 165 157 163 166 167 166 169
2610.0 158 151 148 146 142 138 145 149 160 159
2650.0 168 167 177 176 182 186 196 201 204 197
2690.0 198 194 186 187 192 190 206 206 227 245
2730.0 270 292 330 382 433 501 583 677 786 911
2770.0 1074 1279 1528 1834 2211 2651 3152 3572 3870 3967
2810.0 3893 3663 3333 3015 2764 2630 2597 2710 2865 3027
2850.0 3138 3216 3222 3167 3152 3134 3094 3077 3042 2980
2890.0 2936 2880 2850 2779 2711 2655 2617 2577 2581 2613
2930.0 2675 2784 2926 3061 3201 3320 3394 3432 3390 3286
2970.0 3136 2982 2840 2720 2607 2493 2339 2200 1981 1770
3010.0 1605 1493 1439 1512 1648 1868 2060 2221 2372 2374
3050.0 2229 2057 1923 1997 2254 2433 2470 2389 2237 1924
3090.0 1660 1568 1514 1455 1359 1211 970 763 590 464
3130.0 328 255 178 152 111 113 81 99 66 74
3170.0 49 54 50 50 56 55 51 63 61 44
3210.0 49 37 44 51 35 29 21 27 13 25
3250.0 22 21 24 16 26 18 27 14 17 18
3290.0 23 21 12 22 27 32 19 25 13 20
3330.0 19 18 17 12 26 8 17 9 27 10
3370.0 17 22 25 13 27 23 0 37 48 46
3410.0 38 44 45 38 28 28 48 56 45 54
3450.0 59 58 69 62 41 29 22 21 50 67
3490.0 57 47 42 60 41 48 55 31 26 45
3530.0 48 56 60 55 35 65 41 50 55 54
3570.0 52 61 63 78 74 49 66 54 51 71
3610.0 52 64 69 64 51 53 28 65 51 44
3650.0 55 49 66 63 65 36 41 65 71 53
3690.0 38 48 56 54 31 32 57 50 79 61
3730.0 80 55 54 28 63 48 54 75 59 66
3770.0 57 56 44 59 86 57 31 68 50 57
3810.0 60 56 75 67 65 30 42 45 37 42
3850.0 50 57 40 37 55 35 40 53 72 92
3890.0 106 66 43 56 46 87 65 61 77 75
3930.0 62 93 45 80 97 79 56 39 65 70
##END=
