##TITLE=Benzoic acid, 3-nitro-
##JCAMP-DX=4.24
##DATA TYPE=INFRARED SPECTRUM
##ORIGIN=Sadtler Research Labs Under US-EPA Contract
##OWNER=NIST Standard Reference Data Program
##CAS REGISTRY NO=121-92-6
##MOLFORM=C 7 H 5 N O 4
##XUNITS=1/CM
##YUNITS=ABSORBANCE
##XFACTOR=1.0
##YFACTOR=0.000061133
##DELTAX=4.0
##FIRSTX=450.0
##LASTX=3966.0
##FIRSTY=0.011371
##MAXX=3966
##MINX=450
##MAXY=0.61133
##MINY=0
##NPOINTS=880
##XYDATA=(X++(Y..Y))
450.0 186 111 167 164 110 132 159 87 8 139
490.0 396 575 624 494 375 429 243 306 589 715
530.0 635 520 614 710 697 677 611 867 1173 1212
570.0 1456 1393 1127 787 494 535 667 729 532 610
610.0 513 567 733 1370 1850 1938 1744 1556 849 519
650.0 345 154 298 459 1042 1947 2031 1917 1440 790
690.0 482 435 518 696 1152 1685 2410 3362 2964 2052
730.0 1298 845 791 355 568 477 430 516 674 780
770.0 1022 1354 1294 1304 1255 1179 873 417 228 244
810.0 305 436 450 479 355 246 155 212 282 285
850.0 273 313 372 396 257 279 214 308 335 546
890.0 684 628 513 254 205 247 308 358 455 439
930.0 381 380 355 295 173 121 171 225 264 269
970.0 250 256 218 186 231 273 305 240 230 248
1010.0 313 228 195 184 212 239 356 503 558 576
1050.0 731 1103 1514 1683 1796 1811 1635 1428 1349 1429
1090.0 1595 1864 2284 3037 3845 4418 4492 4096 3226 2182
1130.0 1634 1322 1099 946 831 772 904 990 1130 1410
1170.0 1725 2188 2729 3267 3601 3472 3023 2300 1616 1187
1210.0 1004 930 911 889 862 881 906 912 865 804
1250.0 787 800 809 761 743 815 934 1021 1061 1075
1290.0 1012 947 972 1027 1133 1208 1367 1612 1963 2467
1330.0 2911 3313 3571 3878 4441 5031 5315 5038 4199 3022
1370.0 2235 1790 1409 1104 890 767 655 614 599 552
1410.0 458 372 342 365 432 609 744 889 871 737
1450.0 605 472 424 342 397 520 682 735 736 743
1490.0 732 685 750 855 919 948 883 908 1034 1153
1530.0 1421 1845 2461 3502 4687 5465 5498 4918 3402 2071
1570.0 1424 1113 1024 1002 992 958 908 892 917 936
1610.0 1019 1088 1131 1044 901 706 532 488 370 377
1650.0 373 403 321 257 271 278 289 311 326 368
1690.0 376 392 458 551 550 644 731 894 950 963
1730.0 909 889 826 863 1041 1488 2460 4279 7165 9539
1770.0 10000 9229 6015 3235 1878 1130 785 637 586 518
1810.0 483 501 529 521 420 331 252 206 150 159
1850.0 152 141 117 124 157 172 160 118 79 74
1890.0 79 81 119 156 143 133 140 173 139 112
1930.0 89 102 105 108 116 129 92 55 58 106
1970.0 125 139 122 106 95 74 55 58 56 56
2010.0 46 60 91 84 50 25 17 59 59 76
2050.0 89 81 44 47 42 60 36 43 51 75
2090.0 67 64 62 47 23 19 43 89 87 70
2130.0 43 43 44 40 49 53 60 59 67 84
2170.0 85 52 36 27 52 76 76 93 80 50
2210.0 47 49 59 68 46 54 76 78 69 50
2250.0 53 32 21 47 79 94 69 53 61 66
2290.0 73 91 108 132 126 121 125 137 68 25
2330.0 15 61 90 44 112 98 40 15 15 39
2370.0 56 33 43 108 116 92 74 66 73 82
2410.0 94 126 146 107 87 81 95 102 123 123
2450.0 107 108 98 98 114 95 64 66 111 134
2490.0 114 100 84 74 57 56 90 114 102 81
2530.0 102 99 99 81 80 99 97 112 130 130
2570.0 120 54 58 81 114 126 107 120 107 100
2610.0 94 98 104 88 81 109 147 133 110 75
2650.0 70 69 86 125 142 132 97 89 115 118
2690.0 98 89 123 131 139 145 150 113 92 63
2730.0 96 147 152 121 120 109 115 100 126 122
2770.0 122 127 143 186 169 117 87 95 125 137
2810.0 150 167 162 131 120 126 152 153 137 146
2850.0 179 206 199 232 203 171 157 207 264 293
2890.0 277 252 241 234 210 206 215 207 213 232
2930.0 305 311 248 186 193 203 235 224 240 216
2970.0 139 121 137 186 160 164 140 184 192 168
3010.0 159 151 139 136 169 214 223 175 152 142
3050.0 143 159 193 220 246 228 272 359 412 454
3090.0 451 462 513 443 375 274 212 155 136 119
3130.0 172 202 159 146 172 159 156 109 94 118
3170.0 142 153 205 212 158 85 81 117 152 164
3210.0 182 160 134 133 146 151 118 106 105 162
3250.0 206 199 120 96 101 84 119 175 193 133
3290.0 108 120 134 137 92 94 123 140 133 207
3330.0 198 131 66 67 114 170 153 150 165 130
3370.0 109 100 141 133 97 82 144 181 182 100
3410.0 72 77 89 100 163 182 158 83 86 134
3450.0 143 87 93 159 124 166 148 163 112 28
3490.0 34 95 175 172 148 135 162 141 136 138
3530.0 169 112 114 189 182 185 155 159 301 578
3570.0 1098 1864 3013 3672 3441 2841 1698 707 336 180
3610.0 158 163 141 135 108 126 60 59 127 144
3650.0 197 130 113 83 72 88 79 142 142 74
3690.0 114 115 139 99 57 67 107 124 183 181
3730.0 162 98 87 77 157 147 150 138 180 163
3770.0 143 86 72 72 87 138 195 228 164 84
3810.0 81 64 89 108 141 172 168 172 169 156
3850.0 105 82 93 148 244 236 202 158 118 50
3890.0 49 120 181 152 107 131 163 132 89 81
3930.0 90 125 168 225 276 225 0 15 15 15
##END=
