##TITLE=Vanillin
##JCAMP-DX=4.24
##DATA TYPE=INFRARED SPECTRUM
##ORIGIN=Sadtler Research Labs Under US-EPA Contract
##OWNER=NIST Standard Reference Data Program
##CAS REGISTRY NO=121-33-5
##MOLFORM=C 8 H 8 O 3
##XUNITS=1/CM
##YUNITS=ABSORBANCE
##XFACTOR=1.0
##YFACTOR=0.000064951
##DELTAX=4.0
##FIRSTX=450.0
##LASTX=3966.0
##FIRSTY=0.020330
##MAXX=3966
##MINX=450
##MAXY=0.64951
##MINY=0
##NPOINTS=880
##XYDATA=(X++(Y..Y))
450.0 313 237 448 457 694 796 1020 923 965 795
490.0 772 601 478 375 312 239 180 196 131 168
530.0 140 219 220 279 307 291 233 149 128 63
570.0 107 69 220 222 272 273 221 196 196 225
610.0 411 886 1200 1371 1335 1158 679 372 257 162
650.0 113 42 39 21 0 125 62 42 50 75
690.0 70 100 115 145 178 240 372 664 1116 1492
730.0 1684 1671 1369 912 550 371 320 343 434 601
770.0 746 874 890 888 772 673 658 723 884 1075
810.0 1287 1380 1733 1646 1301 1235 860 631 499 419
850.0 395 382 435 473 529 606 626 526 466 393
890.0 326 295 285 280 275 271 257 256 258 246
930.0 250 266 243 241 227 223 221 209 198 196
970.0 200 205 219 232 258 271 296 347 381 455
1010.0 604 819 1099 1450 1822 2122 2279 2205 2019 1708
1050.0 1328 1045 905 836 786 751 736 726 710 725
1090.0 748 820 944 1145 1448 1817 2184 2261 2187 2182
1130.0 2009 2166 2751 3322 3603 3676 3361 2782 2440 2456
1170.0 2659 2968 3258 3439 3428 3295 3168 3096 3190 3287
1210.0 3187 2876 2458 1988 1776 1949 2367 2894 3324 3676
1250.0 4084 4729 5794 7216 8534 9427 10000 9721 9245 8215
1290.0 6725 4914 3138 1868 1260 913 707 540 463 393
1330.0 358 337 300 331 358 426 513 652 855 1129
1370.0 1402 1652 1843 2029 2168 2212 2063 1817 1546 1113
1410.0 730 616 596 956 1388 2201 2675 2960 2759 2328
1450.0 1697 1406 1529 1704 1884 1805 1595 1403 1230 1068
1490.0 1318 2026 2977 4787 5479 6144 5503 4403 2727 1562
1530.0 944 749 529 470 344 375 334 290 405 428
1570.0 636 782 1269 1927 2703 3664 4106 4952 4403 4194
1610.0 3318 2763 1972 1449 949 636 441 339 283 218
1650.0 224 211 281 296 446 446 575 716 740 951
1690.0 1087 1637 2079 4150 6533 8575 9222 9933 7680 5189
1730.0 2787 1566 683 612 373 434 411 370 335 280
1770.0 261 145 191 129 137 95 116 122 93 145
1810.0 110 114 58 82 35 33 27 41 33 15
1850.0 71 72 108 110 142 108 130 111 89 76
1890.0 60 75 54 74 55 61 43 46 37 34
1930.0 51 33 48 13 40 29 39 31 42 38
1970.0 41 56 44 55 47 45 36 49 46 42
2010.0 45 38 45 34 45 40 52 47 60 75
2050.0 79 91 96 106 92 108 97 94 84 81
2090.0 70 60 66 52 52 35 41 29 27 28
2130.0 22 22 19 28 16 23 19 20 14 14
2170.0 18 11 15 12 19 15 22 14 15 13
2210.0 11 11 5 10 4 10 5 16 5 6
2250.0 6 1 6 1 11 7 20 28 45 53
2290.0 75 93 107 122 125 141 121 113 111 86
2330.0 72 76 60 79 107 88 87 65 87 66
2370.0 75 81 80 91 64 44 22 26 23 22
2410.0 17 21 19 15 15 17 22 15 24 25
2450.0 28 30 33 39 34 44 41 47 48 53
2490.0 56 59 66 68 73 82 100 99 112 123
2530.0 128 127 123 117 103 107 96 96 80 78
2570.0 69 61 53 49 52 47 45 44 52 55
2610.0 64 71 75 84 93 106 107 124 136 156
2650.0 167 183 197 203 206 187 175 162 160 171
2690.0 216 287 421 622 851 1121 1462 1714 1739 1637
2730.0 1399 1049 739 543 440 381 351 335 342 367
2770.0 428 519 631 743 835 938 1050 1178 1325 1444
2810.0 1491 1458 1312 1106 926 776 650 559 530 527
2850.0 560 579 582 555 510 463 401 350 318 313
2890.0 299 306 311 325 338 362 386 401 426 443
2930.0 465 491 558 669 822 951 1014 1086 1096 1047
2970.0 987 921 769 628 518 435 394 399 442 550
3010.0 709 798 778 704 576 425 344 320 312 310
3050.0 310 315 331 355 382 407 428 409 358 277
3090.0 214 157 133 113 114 100 86 78 70 59
3130.0 46 40 33 31 25 24 22 9 20 8
3170.0 13 5 5 7 11 13 12 18 16 26
3210.0 22 20 16 13 11 15 7 7 12 21
3250.0 24 11 13 9 19 17 12 17 13 21
3290.0 14 19 16 20 23 20 23 21 24 20
3330.0 28 10 19 14 21 17 14 27 19 19
3370.0 18 25 28 42 42 76 76 97 110 98
3410.0 126 108 86 61 47 38 26 10 0 5
3450.0 14 18 24 24 37 39 35 30 39 25
3490.0 43 40 44 48 57 60 49 73 77 81
3530.0 88 117 138 174 243 386 650 1118 1814 2730
3570.0 3659 4334 4419 3905 3101 1986 1118 561 339 214
3610.0 167 140 113 115 80 126 106 124 147 139
3650.0 170 137 93 59 43 82 58 67 49 43
3690.0 75 65 46 67 49 57 54 34 39 42
3730.0 55 58 70 35 80 39 83 31 43 40
3770.0 47 42 43 72 44 54 31 57 30 66
3810.0 47 38 46 58 53 40 60 76 58 44
3850.0 49 83 60 60 37 66 56 44 48 62
3890.0 22 65 30 76 40 51 53 49 73 38
3930.0 54 48 64 55 50 37 41 51 54 61
##END=
