##TITLE=Benzene, 1-methyl-2,4-dinitro-
##JCAMP-DX=4.24
##DATA TYPE=INFRARED SPECTRUM
##ORIGIN=Sadtler Research Labs Under US-EPA Contract
##OWNER=NIST Standard Reference Data Program
##CAS REGISTRY NO=121-14-2
##MOLFORM=C 7 H 6 N 2 O 4
##XUNITS=1/CM
##YUNITS=ABSORBANCE
##XFACTOR=1.0
##YFACTOR=0.000239276
##DELTAX=4.0
##FIRSTX=450.0
##LASTX=3966.0
##FIRSTY=0.000718
##MAXX=3966
##MINX=450
##MAXY=2.39276
##MINY=0
##NPOINTS=880
##XYDATA=(X++(Y..Y))
450.0 3 13 3 40 33 68 73 61 78 63
490.0 74 48 78 61 66 60 68 78 54 69
530.0 67 78 59 61 50 51 56 55 58 34
570.0 61 50 68 42 37 49 48 73 60 79
610.0 76 93 116 177 231 265 246 199 129 84
650.0 74 76 94 137 167 231 279 303 327 333
690.0 338 343 377 427 454 483 491 534 630 784
730.0 953 976 810 642 484 357 306 274 250 237
770.0 213 227 299 469 644 686 611 397 190 120
810.0 119 151 280 476 803 1131 1174 1011 761 419
850.0 216 124 85 89 75 82 78 82 81 93
890.0 129 181 283 422 607 776 833 709 521 307
930.0 167 113 81 80 67 70 61 64 61 61
970.0 62 54 58 49 58 46 52 53 62 67
1010.0 68 76 64 77 75 93 94 118 129 137
1050.0 157 200 298 430 522 512 425 262 166 125
1090.0 101 97 84 81 70 77 70 84 105 157
1130.0 219 270 335 396 413 369 315 192 119 93
1170.0 80 85 87 101 95 115 117 132 133 136
1210.0 124 103 100 89 97 90 112 109 120 134
1250.0 144 165 228 354 397 402 328 223 165 175
1290.0 199 219 258 289 345 372 443 501 609 774
1330.0 1082 1630 2573 4108 5858 6580 6825 5487 3423 2202
1370.0 1358 927 661 626 648 693 742 687 613 495
1410.0 444 369 307 276 248 275 248 305 299 327
1450.0 327 350 359 337 378 361 434 412 527 524
1490.0 623 770 901 1068 1069 1368 1254 1456 1504 2014
1530.0 2283 3164 4996 4898 10000 6761 9816 5204 4001 3044
1570.0 2297 1980 1694 1611 1523 1519 1626 1747 1897 1991
1610.0 1988 1651 1210 763 474 347 249 246 219 226
1650.0 205 202 172 144 134 102 89 73 86 75
1690.0 86 91 91 93 78 94 82 104 97 104
1730.0 90 86 82 56 56 47 51 33 47 37
1770.0 41 43 45 53 48 69 58 64 47 57
1810.0 47 53 55 49 51 35 42 21 30 18
1850.0 26 18 21 21 19 26 19 25 12 21
1890.0 16 19 15 17 23 21 38 41 54 55
1930.0 59 48 38 30 17 17 10 16 5 12
1970.0 6 12 8 10 13 8 13 8 12 5
2010.0 10 7 7 7 8 10 6 13 8 15
2050.0 11 16 13 13 15 10 11 7 11 5
2090.0 8 5 8 6 6 10 6 9 6 9
2130.0 4 8 6 5 5 4 7 1 6 3
2170.0 8 6 10 9 6 9 5 9 4 10
2210.0 5 8 8 7 4 3 7 0 5 2
2250.0 6 4 9 10 12 13 11 15 9 15
2290.0 12 14 13 16 15 10 16 9 15 8
2330.0 20 13 15 12 16 11 14 20 7 14
2370.0 12 23 21 25 25 20 20 16 21 14
2410.0 19 16 16 14 16 16 14 16 13 16
2450.0 15 20 19 24 26 24 26 25 28 23
2490.0 26 21 24 18 16 16 12 14 12 16
2530.0 12 16 15 16 16 16 17 14 16 10
2570.0 15 11 14 14 16 23 20 24 20 26
2610.0 19 24 23 23 18 17 17 13 17 15
2650.0 18 14 19 20 21 26 28 36 37 46
2690.0 50 57 56 54 49 44 39 35 37 34
2730.0 39 36 45 47 53 51 50 51 41 41
2770.0 31 30 21 24 24 23 25 27 30 29
2810.0 36 33 39 41 45 49 53 62 66 73
2850.0 77 86 90 104 117 133 150 167 187 199
2890.0 210 206 199 176 157 139 122 117 113 117
2930.0 121 145 170 206 230 242 226 194 164 135
2970.0 127 122 135 145 167 186 191 185 166 144
3010.0 117 99 79 70 60 62 62 63 71 80
3050.0 90 91 98 95 98 111 138 183 229 271
3090.0 291 287 265 241 211 191 171 144 114 82
3130.0 64 41 37 27 26 24 25 20 15 16
3170.0 14 14 10 15 11 13 12 14 14 10
3210.0 17 13 18 12 14 12 13 10 9 11
3250.0 7 10 8 10 11 9 8 8 10 4
3290.0 9 7 9 4 10 5 6 7 4 8
3330.0 5 9 8 9 6 9 8 7 9 6
3370.0 10 6 9 7 10 12 10 10 10 14
3410.0 4 12 8 14 8 14 13 10 11 10
3450.0 13 5 15 9 14 10 11 13 5 11
3490.0 8 8 6 8 4 5 7 7 7 7
3530.0 11 4 6 4 11 3 8 8 1 15
3570.0 10 11 1 9 7 2 14 9 11 4
3610.0 14 8 13 11 13 11 9 7 7 5
3650.0 16 21 2 17 0 25 6 34 10 7
3690.0 17 15 13 5 18 13 15 12 18 10
3730.0 8 19 16 21 21 18 25 11 15 16
3770.0 9 12 14 20 11 3 8 9 16 28
3810.0 3 21 8 35 12 18 10 26 17 21
3850.0 12 23 29 7 15 11 25 14 25 32
3890.0 15 26 10 25 10 19 11 23 12 16
3930.0 15 7 14 12 18 11 15 10 16 13
##END=
