##TITLE=2,5-Norbornadiene
##JCAMP-DX=4.24
##DATA TYPE=INFRARED SPECTRUM
##ORIGIN=Sadtler Research Labs Under US-EPA Contract
##OWNER=NIST Standard Reference Data Program
##CAS REGISTRY NO=121-46-0
##MOLFORM=C 7 H 8
##XUNITS=1/CM
##YUNITS=ABSORBANCE
##XFACTOR=1.0
##YFACTOR=0.000092996
##DELTAX=4.0
##FIRSTX=450.0
##LASTX=3966.0
##FIRSTY=0.000000
##MAXX=3966
##MINX=450
##MAXY=0.92996
##MINY=0
##NPOINTS=880
##XYDATA=(X++(Y..Y))
450.0 0 390 558 500 473 526 574 676 721 1017
490.0 977 773 1001 1530 715 1031 1055 890 729 561
530.0 612 531 627 493 562 508 510 573 453 545
570.0 426 453 398 494 491 424 481 459 469 393
610.0 541 434 506 463 604 682 1062 1837 2382 2927
650.0 2156 3435 3887 2044 2408 2806 2098 1253 804 601
690.0 518 598 756 1162 1990 2885 3244 3134 2501 5203
730.0 6290 2433 3331 4051 3214 2188 1253 835 561 559
770.0 540 640 736 881 964 910 902 1239 1164 707
810.0 773 735 652 560 492 484 470 508 501 586
850.0 632 733 781 841 948 1046 1218 1386 1207 1141
890.0 1286 1277 1087 927 840 776 828 838 706 755
930.0 584 827 845 604 532 594 550 522 449 462
970.0 445 446 435 436 435 428 439 435 454 459
1010.0 471 455 541 470 457 487 477 475 450 459
1050.0 465 478 454 509 498 456 484 477 454 462
1090.0 452 452 440 446 445 459 445 441 453 461
1130.0 476 495 505 526 530 535 574 527 470 495
1170.0 467 453 439 440 460 467 516 529 629 755
1210.0 775 821 985 866 743 827 781 556 630 589
1250.0 567 533 512 534 522 496 477 498 524 599
1290.0 756 1028 1363 1628 1774 2028 2473 2611 2151 1828
1330.0 1970 1672 1148 913 758 657 565 522 480 517
1370.0 529 529 520 552 581 536 511 513 521 498
1410.0 462 463 442 449 461 493 529 567 581 570
1450.0 552 803 622 478 580 518 494 462 470 437
1490.0 439 464 440 462 449 483 480 573 649 850
1530.0 1024 1164 1132 1292 1964 1259 1099 1310 1162 930
1570.0 689 592 544 520 521 524 539 538 538 512
1610.0 522 524 521 568 584 634 607 622 678 627
1650.0 551 557 550 552 518 500 504 506 499 500
1690.0 522 501 486 490 498 489 483 473 480 485
1730.0 480 474 473 484 486 487 493 502 503 509
1770.0 507 496 501 502 507 496 497 498 507 511
1810.0 511 513 517 513 491 490 492 495 480 471
1850.0 480 489 484 489 485 476 484 486 492 485
1890.0 477 479 472 471 466 471 464 465 467 469
1930.0 476 474 477 477 481 483 492 486 483 481
1970.0 485 485 485 488 491 498 498 496 500 491
2010.0 486 476 477 469 471 468 467 476 483 475
2050.0 469 453 443 447 429 434 443 461 480 489
2090.0 504 514 521 523 525 523 523 528 529 548
2130.0 543 531 533 541 537 534 533 525 525 520
2170.0 527 528 524 524 535 526 524 522 522 513
2210.0 506 503 496 496 485 477 474 475 472 479
2250.0 473 478 480 477 473 470 467 463 470 470
2290.0 479 482 488 500 497 503 515 522 514 504
2330.0 504 489 474 448 436 464 545 528 447 397
2370.0 396 396 396 397 421 446 454 459 464 466
2410.0 464 462 467 465 462 457 460 460 461 459
2450.0 464 464 472 469 474 476 480 479 475 466
2490.0 468 464 460 459 452 450 447 447 447 439
2530.0 437 439 436 438 439 438 437 437 436 436
2570.0 425 430 424 429 436 430 432 442 446 452
2610.0 460 461 465 465 474 480 469 473 474 480
2650.0 487 486 475 483 482 463 448 436 434 416
2690.0 400 399 404 411 412 408 417 434 434 434
2730.0 425 432 431 433 433 431 424 418 436 430
2770.0 433 426 434 434 436 447 438 445 430 439
2810.0 425 439 437 435 445 447 468 444 509 495
2850.0 576 654 882 1043 1175 1258 1052 1804 2110 835
2890.0 1255 1116 1032 859 729 677 690 902 1091 1528
2930.0 1773 2058 1785 2577 4177 2393 2398 3361 3820 4392
2970.0 4238 4188 7541 5914 6048 6566 7124 10000 4761 3971
3010.0 4635 3748 2649 1523 915 652 574 569 584 685
3050.0 789 1037 1319 1692 1967 2276 2468 2626 2952 2523
3090.0 2131 2161 1939 1576 1428 1427 1253 1086 1188 1203
3130.0 1235 1054 906 923 795 709 607 563 521 523
3170.0 499 467 478 461 461 458 462 447 448 451
3210.0 452 444 449 452 440 466 470 459 447 479
3250.0 470 463 461 459 483 470 462 473 467 472
3290.0 472 475 461 476 460 454 447 452 438 421
3330.0 402 405 399 402 404 410 410 422 413 426
3370.0 435 447 431 434 442 439 437 437 423 433
3410.0 429 414 424 407 405 405 416 414 417 408
3450.0 417 427 426 430 443 432 471 488 444 426
3490.0 441 437 458 418 417 409 427 413 409 417
3530.0 417 427 420 421 418 419 415 418 420 409
3570.0 414 414 437 439 426 438 418 428 426 438
3610.0 436 421 440 440 435 442 447 430 442 438
3650.0 449 423 425 418 447 451 442 442 422 438
3690.0 416 429 433 433 426 436 431 422 449 419
3730.0 432 427 422 440 421 412 431 428 446 461
3770.0 456 510 468 494 510 498 480 459 468 414
3810.0 413 406 396 398 396 398 415 396 396 396
3850.0 396 399 396 417 396 396 417 419 410 396
3890.0 398 396 399 396 396 396 396 396 396 396
3930.0 405 425 396 396 396 400 401 396 396 396
##END=
