##TITLE=Benzene, 1-chloro-3-nitro-
##JCAMP-DX=4.24
##DATA TYPE=INFRARED SPECTRUM
##ORIGIN=Sadtler Research Labs Under US-EPA Contract
##OWNER=NIST Standard Reference Data Program
##CAS REGISTRY NO=121-73-3
##MOLFORM=C 6 H 4 Cl N O 2
##XUNITS=1/CM
##YUNITS=ABSORBANCE
##XFACTOR=1.0
##YFACTOR=0.000246082
##DELTAX=4.0
##FIRSTX=450.0
##LASTX=3966.0
##FIRSTY=0.024116
##MAXX=3966
##MINX=450
##MAXY=2.46082
##MINY=0
##NPOINTS=880
##XYDATA=(X++(Y..Y))
450.0 98 34 88 72 89 98 58 122 76 20
490.0 57 51 112 57 50 40 80 72 35 66
530.0 74 29 68 7 22 44 9 31 30 27
570.0 28 19 9 11 0 9 33 34 17 19
610.0 11 7 27 16 25 17 54 80 147 192
650.0 268 338 338 434 561 540 389 362 226 165
690.0 150 127 166 182 209 285 416 689 949 1269
730.0 1686 2084 1793 2408 3287 3406 3113 2415 1166 470
770.0 304 355 392 494 637 714 867 889 689 465
810.0 357 215 129 70 54 49 69 90 79 68
850.0 76 130 178 266 459 673 776 854 910 777
890.0 767 721 521 364 290 218 173 163 143 113
930.0 108 100 64 73 69 54 52 52 47 51
970.0 60 61 66 74 76 81 81 95 103 94
1010.0 96 95 85 82 85 95 94 105 130 153
1050.0 212 299 416 501 521 529 494 387 314 280
1090.0 273 268 248 250 269 285 355 541 886 1284
1130.0 1513 1564 1333 849 449 319 268 252 269 257
1170.0 234 199 146 108 74 75 82 93 88 95
1210.0 102 99 94 103 96 103 101 108 127 149
1250.0 177 205 266 352 416 461 481 450 395 380
1290.0 383 378 358 321 258 225 212 202 277 408
1330.0 674 1204 2115 3641 5543 6552 6561 5828 3359 1686
1370.0 994 815 781 740 617 441 294 221 233 225
1410.0 196 221 139 217 204 246 211 238 313 360
1450.0 437 521 610 877 1035 1067 923 777 608 426
1490.0 400 501 585 792 901 1115 1360 1531 1628 1732
1530.0 1999 2562 3634 5664 7699 10000 8361 8061 5282 3019
1570.0 1749 1314 1211 1174 1178 1094 1012 922 816 623
1610.0 478 372 245 223 166 207 164 164 192 188
1650.0 129 120 163 144 125 103 58 119 50 44
1690.0 83 103 32 44 88 139 109 50 112 125
1730.0 79 4 63 55 33 18 60 66 71 104
1770.0 74 74 121 109 116 102 83 92 66 108
1810.0 100 93 106 85 73 51 68 79 47 28
1850.0 52 73 70 74 69 53 94 109 111 115
1890.0 108 102 94 80 62 51 47 45 33 57
1930.0 65 71 80 71 84 95 88 79 70 48
1970.0 42 43 41 37 39 23 25 35 35 34
2010.0 38 30 22 25 29 29 31 28 23 25
2050.0 24 23 25 21 17 24 24 23 20 21
2090.0 18 20 21 19 20 17 17 18 16 16
2130.0 14 12 16 14 14 14 17 13 13 13
2170.0 12 11 9 8 7 8 8 8 10 10
2210.0 8 8 9 8 8 7 4 6 2 1
2250.0 2 0 2 0 1 1 1 1 1 0
2290.0 3 2 6 6 6 2 8 11 14 24
2330.0 20 24 24 20 21 16 18 13 14 2
2370.0 6 0 8 3 2 2 2 4 7 9
2410.0 10 16 21 23 23 24 20 17 11 10
2450.0 11 10 10 12 14 17 18 20 20 19
2490.0 17 10 9 9 9 9 8 10 9 11
2530.0 12 11 13 11 11 10 12 14 16 18
2570.0 16 18 17 19 18 20 19 16 16 14
2610.0 13 12 10 11 10 10 10 9 9 8
2650.0 9 8 11 12 14 18 22 27 34 43
2690.0 49 55 59 57 50 44 41 39 39 32
2730.0 30 30 28 24 22 21 19 18 16 16
2770.0 18 18 18 17 16 19 18 20 20 20
2810.0 23 24 24 28 27 29 33 34 44 51
2850.0 58 62 70 74 78 79 80 86 106 124
2890.0 142 152 146 131 102 76 60 58 60 63
2930.0 65 62 60 55 50 43 39 34 32 27
2970.0 25 22 19 19 19 20 23 25 29 27
3010.0 28 28 23 21 19 21 21 18 21 23
3050.0 23 28 39 54 76 122 184 263 324 341
3090.0 360 360 313 253 207 152 100 64 41 28
3130.0 21 19 14 17 14 13 13 18 16 16
3170.0 14 16 21 20 20 22 23 20 19 18
3210.0 14 14 10 9 8 8 11 4 7 6
3250.0 8 7 4 4 7 7 7 9 7 6
3290.0 7 8 7 4 4 6 6 6 6 4
3330.0 4 4 8 8 8 8 7 4 6 4
3370.0 2 6 4 4 7 4 2 7 6 0
3410.0 6 3 7 6 6 7 7 4 6 4
3450.0 1 4 3 6 7 8 3 7 8 3
3490.0 6 9 9 10 4 0 7 7 6 3
3530.0 8 4 3 4 9 4 7 8 4 8
3570.0 7 2 7 6 9 4 11 2 8 7
3610.0 12 10 7 9 9 12 11 4 6 9
3650.0 4 10 6 10 4 11 11 12 9 12
3690.0 14 18 11 13 10 11 13 10 19 19
3730.0 21 18 18 24 24 21 13 23 13 18
3770.0 19 23 12 12 14 12 11 10 14 18
3810.0 10 16 16 20 23 20 17 22 19 17
3850.0 21 25 19 16 20 19 9 21 16 16
3890.0 7 3 16 19 22 14 21 37 21 20
3930.0 27 27 13 16 22 13 23 25 14 32
##END=
