##TITLE=Phosphorous acid, trimethyl ester
##JCAMP-DX=4.24
##DATA TYPE=INFRARED SPECTRUM
##ORIGIN=Sadtler Research Labs Under US-EPA Contract
##OWNER=NIST Standard Reference Data Program
##CAS REGISTRY NO=121-45-9
##MOLFORM=C 3 H 9 O 3 P
##XUNITS=1/CM
##YUNITS=ABSORBANCE
##XFACTOR=1.0
##YFACTOR=0.000128149
##DELTAX=4.0
##FIRSTX=450.0
##LASTX=3966.0
##FIRSTY=0.079837
##MAXX=3966
##MINX=450
##MAXY=1.28149
##MINY=0
##NPOINTS=880
##XYDATA=(X++(Y..Y))
450.0 623 242 46 112 83 131 79 111 92 95
490.0 98 121 176 94 169 168 233 202 171 55
530.0 153 129 110 92 85 140 173 112 160 74
570.0 155 77 39 108 68 76 81 68 98 68
610.0 104 76 125 0 53 90 81 86 98 85
650.0 113 113 116 123 130 173 165 196 214 243
690.0 322 371 469 594 789 1057 1459 1940 2504 3018
730.0 3521 3748 3877 3764 3473 3291 3111 3008 2713 2338
770.0 2008 1567 1222 924 749 595 473 388 313 290
810.0 240 184 228 176 181 167 171 185 183 208
850.0 190 189 163 174 148 111 112 105 98 110
890.0 101 107 111 118 126 126 139 145 146 154
930.0 151 164 158 167 178 178 207 210 240 264
970.0 303 368 423 501 572 639 724 831 1020 1330
1010.0 1878 2751 3993 5661 7374 8957 9772 10000 9611 8462
1050.0 6641 4710 3328 2599 2196 1972 1753 1519 1330 1124
1090.0 960 831 758 709 660 631 596 574 543 506
1130.0 481 442 425 405 385 389 395 420 459 516
1170.0 600 659 715 738 742 694 607 541 466 401
1210.0 364 332 317 287 275 261 233 232 205 190
1250.0 174 170 174 172 180 191 207 225 224 241
1290.0 244 244 232 216 210 189 190 168 145 137
1330.0 116 106 103 99 102 91 99 101 99 108
1370.0 103 109 106 112 116 113 120 119 126 130
1410.0 127 141 135 139 152 153 177 185 213 227
1450.0 257 269 281 303 299 296 295 270 263 236
1490.0 217 196 182 181 154 161 163 149 159 144
1530.0 162 149 150 136 145 132 131 107 100 104
1570.0 100 87 83 83 76 78 74 66 69 61
1610.0 70 48 58 50 50 50 45 42 51 36
1650.0 48 17 45 42 41 40 39 47 42 29
1690.0 45 40 39 26 46 46 44 44 46 54
1730.0 51 55 55 66 74 72 78 88 81 95
1770.0 89 97 104 102 115 111 113 109 105 104
1810.0 97 99 82 83 80 72 73 65 64 56
1850.0 55 58 49 47 49 43 47 42 43 43
1890.0 41 47 38 40 39 40 42 37 45 39
1930.0 41 39 38 42 36 44 48 43 49 42
1970.0 46 42 39 47 40 44 41 40 41 36
2010.0 44 42 46 45 43 56 52 62 63 66
2050.0 76 76 81 78 81 86 75 83 80 76
2090.0 78 74 75 70 67 63 54 52 43 43
2130.0 42 36 40 34 37 34 37 38 31 39
2170.0 30 31 36 31 38 34 30 31 30 34
2210.0 27 30 28 25 33 28 31 23 24 31
2250.0 21 25 27 25 29 23 27 23 24 32
2290.0 29 41 41 45 42 51 54 44 61 44
2330.0 42 51 37 45 36 44 54 52 67 33
2370.0 33 21 20 27 22 27 20 22 28 20
2410.0 24 19 25 26 24 31 32 31 31 26
2450.0 30 23 25 19 18 22 12 13 11 11
2490.0 12 8 10 7 9 7 4 12 3 10
2530.0 8 7 16 9 12 13 10 21 13 17
2570.0 11 16 17 10 21 18 21 23 17 23
2610.0 14 26 27 18 27 20 26 23 21 30
2650.0 21 25 22 19 21 20 25 16 17 21
2690.0 16 25 16 17 20 18 24 19 19 20
2730.0 15 24 15 29 28 29 34 31 41 39
2770.0 42 52 41 57 57 68 73 74 86 90
2810.0 106 118 141 206 293 474 674 819 923 965
2850.0 913 798 621 441 342 306 287 294 302 328
2890.0 365 402 466 528 588 655 686 734 760 811
2930.0 906 1047 1239 1415 1580 1663 1706 1699 1491 1307
2970.0 1158 1015 928 855 848 839 837 831 795 750
3010.0 681 614 558 499 465 435 406 387 356 338
3050.0 309 298 282 260 260 222 217 193 188 175
3090.0 140 141 122 112 103 93 84 72 65 54
3130.0 49 63 47 50 48 29 46 32 37 41
3170.0 37 45 25 35 42 32 32 39 39 36
3210.0 36 35 20 34 25 29 33 29 45 33
3250.0 42 26 33 49 38 44 31 43 43 33
3290.0 53 34 41 42 24 44 38 42 47 39
3330.0 51 38 44 38 47 53 36 55 36 45
3370.0 53 34 61 47 51 55 37 62 42 27
3410.0 38 30 48 36 58 26 48 56 42 47
3450.0 33 38 41 40 49 35 51 51 46 59
3490.0 40 51 54 47 54 44 60 25 41 40
3530.0 36 62 37 45 56 25 59 14 65 81
3570.0 64 47 13 75 36 19 30 19 26 51
3610.0 54 72 71 52 2 16 47 56 32 10
3650.0 41 45 56 53 33 25 19 24 27 13
3690.0 30 20 30 55 26 50 32 36 43 37
3730.0 34 23 33 39 30 33 27 26 28 47
3770.0 36 15 54 32 30 41 35 41 33 45
3810.0 15 38 58 19 49 15 31 30 52 50
3850.0 26 44 27 62 66 24 54 37 50 56
3890.0 40 50 52 52 49 13 46 37 55 58
3930.0 1 34 55 73 31 22 64 36 38 40
##END=
