##TITLE=Ethanone, 1-(3-nitrophenyl)-
##JCAMP-DX=4.24
##DATA TYPE=INFRARED SPECTRUM
##ORIGIN=Sadtler Research Labs Under US-EPA Contract
##OWNER=NIST Standard Reference Data Program
##CAS REGISTRY NO=121-89-1
##MOLFORM=C 8 H 7 N O 3
##XUNITS=1/CM
##YUNITS=ABSORBANCE
##XFACTOR=1.0
##YFACTOR=0.000069092
##DELTAX=4.0
##FIRSTX=450.0
##LASTX=3966.0
##FIRSTY=0.020866
##MAXX=3966
##MINX=450
##MAXY=0.69092
##MINY=0
##NPOINTS=880
##XYDATA=(X++(Y..Y))
450.0 302 335 188 158 170 80 63 106 94 96
490.0 5 87 75 63 130 241 128 241 249 297
530.0 156 214 218 207 166 198 244 125 270 421
570.0 395 620 832 1204 1652 1809 2151 1624 1085 688
610.0 357 184 249 133 276 149 191 299 253 263
650.0 476 677 1101 1277 1478 1575 1312 1624 1601 1203
690.0 945 761 495 364 298 390 342 583 844 1225
730.0 1400 2015 1674 1164 957 1041 1195 1433 1462 1379
770.0 1047 655 551 489 445 577 723 929 1144 1171
810.0 1291 934 640 513 302 215 244 199 269 222
850.0 314 374 355 525 644 755 954 1052 973 890
890.0 629 570 521 570 611 566 456 462 386 400
930.0 401 484 528 593 674 805 809 809 813 749
970.0 646 578 470 413 361 315 373 296 306 333
1010.0 279 283 308 296 338 239 276 292 241 287
1050.0 324 339 453 567 750 790 784 866 726 719
1090.0 762 892 1054 1277 1466 1633 1538 1314 1070 740
1130.0 508 422 386 379 393 481 509 524 579 632
1170.0 583 512 467 348 305 318 363 386 423 515
1210.0 655 688 893 1066 1276 1659 2352 3554 5325 7403
1250.0 8979 8426 6661 4246 2470 1569 1206 1238 1587 1982
1290.0 2048 2091 1669 1248 1085 1034 1018 1084 1204 1415
1330.0 1696 2155 2734 3659 5268 7580 9005 9300 8612 6211
1370.0 4174 2857 1838 1165 819 692 678 635 703 720
1410.0 721 736 775 921 1138 1272 1444 1310 1090 857
1450.0 662 553 505 556 672 765 861 962 933 963
1490.0 960 1043 1107 1198 1195 1123 992 996 1045 1313
1530.0 1922 3028 4773 7168 9485 10000 8896 6872 4176 2605
1570.0 1785 1528 1495 1513 1567 1628 1649 1592 1581 1744
1610.0 1975 2097 2075 1800 1334 908 651 512 446 393
1650.0 414 335 413 519 576 663 737 775 753 730
1690.0 908 1237 1874 3370 5817 8129 8532 7971 5394 2732
1730.0 1462 973 735 684 713 737 721 621 488 365
1770.0 250 195 192 167 163 178 173 159 184 164
1810.0 163 147 141 140 137 120 164 141 149 152
1850.0 154 152 125 130 128 86 111 128 95 130
1890.0 110 130 118 111 126 120 104 140 123 127
1930.0 123 122 109 97 92 112 91 107 113 101
1970.0 91 90 99 79 73 74 79 63 60 74
2010.0 69 49 72 44 49 42 49 49 37 42
2050.0 57 27 53 57 41 46 32 52 51 25
2090.0 53 40 21 46 32 37 38 39 50 42
2130.0 33 61 31 33 32 32 24 20 28 22
2170.0 13 22 36 16 28 36 43 32 45 41
2210.0 42 29 37 43 36 27 48 18 39 30
2250.0 30 32 18 35 43 11 45 44 29 43
2290.0 30 50 43 46 86 72 55 101 69 91
2330.0 77 107 105 55 78 87 22 39 46 28
2370.0 11 24 39 42 36 38 38 31 45 60
2410.0 52 46 77 59 61 52 57 49 43 48
2450.0 69 39 75 68 69 69 53 67 57 30
2490.0 63 46 30 47 28 33 19 35 48 24
2530.0 33 57 27 52 39 49 43 30 40 42
2570.0 21 43 50 31 40 54 54 48 61 66
2610.0 73 65 78 64 50 45 71 25 48 42
2650.0 56 50 49 77 82 57 94 79 79 97
2690.0 93 114 91 97 119 78 70 83 60 80
2730.0 66 75 72 52 71 75 38 74 62 61
2770.0 53 60 73 61 61 82 75 67 80 86
2810.0 83 74 102 92 103 97 121 106 99 115
2850.0 131 100 142 143 164 170 173 223 212 231
2890.0 293 264 265 247 200 192 131 153 176 155
2930.0 203 246 213 251 215 208 185 181 221 222
2970.0 198 262 243 214 194 189 187 167 203 260
3010.0 301 351 404 367 320 257 227 173 178 167
3050.0 174 153 175 213 248 290 470 596 725 761
3090.0 789 722 500 372 274 132 126 117 73 97
3130.0 64 103 80 63 92 90 51 97 69 83
3170.0 60 63 73 45 45 78 53 58 65 73
3210.0 68 55 76 60 50 54 77 44 37 60
3250.0 52 22 56 34 57 28 57 71 38 47
3290.0 91 36 52 53 47 60 9 60 45 8
3330.0 65 61 37 76 41 92 65 73 95 70
3370.0 51 104 65 80 60 95 121 131 192 223
3410.0 204 205 184 119 99 87 81 51 61 45
3450.0 66 26 62 55 42 29 69 39 61 46
3490.0 61 67 37 71 74 24 55 55 38 54
3530.0 20 72 44 40 91 75 50 89 51 80
3570.0 58 67 71 45 40 74 26 42 42 53
3610.0 48 34 59 68 49 44 81 52 62 51
3650.0 42 42 50 50 69 17 56 64 68 71
3690.0 100 70 101 94 103 92 72 93 100 68
3730.0 84 71 72 88 52 86 69 86 117 93
3770.0 90 131 91 106 94 105 87 61 69 86
3810.0 59 74 83 86 90 96 118 110 96 117
3850.0 121 78 103 107 96 76 113 118 121 103
3890.0 135 132 100 121 149 113 141 121 114 99
3930.0 84 101 76 62 105 108 0 8 8 8
##END=
