##TITLE=Oxiranecarboxylic acid, 3-phenyl-, ethyl ester
##JCAMP-DX=4.24
##DATA TYPE=INFRARED SPECTRUM
##ORIGIN=Sadtler Research Labs Under US-EPA Contract
##OWNER=NIST Standard Reference Data Program
##CAS REGISTRY NO=121-39-1
##MOLFORM=C 11 H 12 O 3
##XUNITS=1/CM
##YUNITS=ABSORBANCE
##XFACTOR=1.0
##YFACTOR=0.000062289
##DELTAX=4.0
##FIRSTX=450.0
##LASTX=3966.0
##FIRSTY=0.012645
##MAXX=3966
##MINX=450
##MAXY=0.62289
##MINY=0
##NPOINTS=880
##XYDATA=(X++(Y..Y))
450.0 203 304 351 309 539 483 50 317 187 273
490.0 285 422 530 391 429 500 295 496 551 411
530.0 403 206 318 345 330 339 135 0 394 292
570.0 244 232 271 237 282 341 692 1034 1205 962
610.0 603 207 246 142 205 204 245 350 207 192
650.0 349 167 232 355 529 633 584 704 982 1340
690.0 1702 2128 2208 1987 1620 1255 1009 1055 1092 1152
730.0 1221 1370 1309 1316 1560 1606 1545 1484 1415 1141
770.0 973 799 652 571 514 463 430 420 424 435
810.0 431 489 572 588 632 578 581 547 571 611
850.0 741 770 662 615 602 622 654 702 886 1070
890.0 1193 1177 1124 996 860 873 784 669 629 559
930.0 550 525 554 612 628 745 696 681 609 525
970.0 500 407 400 390 454 418 380 555 647 716
1010.0 832 1054 1379 1986 2527 2949 3145 3222 3060 2867
1050.0 2547 2306 2055 1836 1681 1495 1322 1310 1360 1443
1090.0 1515 1622 1702 1795 1794 1734 1537 1242 1000 852
1130.0 759 761 808 873 928 1098 1302 1588 1986 2525
1170.0 3260 4262 5465 6912 8700 10000 9888 8251 6087 4366
1210.0 3282 2657 2406 2362 2514 2761 3033 3252 3478 3622
1250.0 3702 3878 4158 4424 4600 4805 5307 5837 5962 5350
1290.0 4262 3311 2667 2347 2186 1969 1780 1579 1517 1540
1330.0 1617 1735 1701 1460 1187 974 763 733 780 1023
1370.0 1281 1394 1252 1046 913 937 952 1007 1099 1226
1410.0 1356 1508 1630 1744 1877 1864 1780 1531 1303 1238
1450.0 1287 1326 1376 1296 1281 1136 1032 914 850 676
1490.0 655 685 699 672 538 320 288 198 161 206
1530.0 171 198 143 128 150 171 166 115 124 165
1570.0 169 191 192 221 248 279 305 363 381 400
1610.0 401 375 366 354 337 276 238 194 219 223
1650.0 162 167 175 224 215 208 217 274 268 281
1690.0 339 433 492 585 825 985 1094 1128 1235 1547
1730.0 1921 2503 3317 4157 5277 6327 6800 6666 6234 6039
1770.0 5891 5113 4060 2823 1878 1327 968 842 731 590
1810.0 492 366 298 276 227 191 190 184 168 141
1850.0 158 151 141 160 152 157 178 186 194 184
1890.0 188 183 172 156 136 124 118 112 114 110
1930.0 126 133 138 169 169 174 165 164 169 148
1970.0 118 88 73 71 63 73 60 53 57 54
2010.0 53 55 51 51 58 59 62 69 66 62
2050.0 67 69 60 62 59 63 64 65 65 57
2090.0 59 64 62 70 65 63 68 69 71 74
2130.0 71 81 82 83 71 75 70 65 71 70
2170.0 65 58 55 56 51 55 60 55 58 55
2210.0 60 65 54 48 45 49 46 43 45 39
2250.0 39 38 35 44 40 43 44 44 58 62
2290.0 76 86 95 103 118 141 140 147 156 137
2330.0 130 149 139 140 69 103 100 46 41 102
2370.0 109 105 83 88 64 37 32 31 33 32
2410.0 43 45 45 47 51 41 39 34 33 33
2450.0 28 21 20 17 18 14 9 13 11 12
2490.0 15 21 16 8 15 7 19 12 1 7
2530.0 9 11 7 7 9 8 15 13 21 19
2570.0 20 23 11 18 17 18 21 19 23 25
2610.0 21 20 23 20 27 22 20 14 23 17
2650.0 17 19 11 15 22 19 13 10 18 34
2690.0 27 33 30 26 38 31 42 42 40 42
2730.0 52 49 51 48 42 44 46 47 44 52
2770.0 51 60 71 69 71 65 67 69 72 84
2810.0 74 84 82 89 99 92 104 110 105 113
2850.0 120 129 151 157 183 207 229 276 330 383
2890.0 405 402 397 417 450 509 552 565 559 546
2930.0 557 618 724 870 994 995 920 828 822 907
2970.0 1013 1139 1354 1715 2172 2314 2085 1694 1455 1328
3010.0 1209 1089 1007 971 992 1074 1166 1241 1199 1053
3050.0 885 776 749 784 920 1194 1410 1366 1078 789
3090.0 654 610 560 486 413 329 291 237 213 159
3130.0 119 98 77 74 68 69 60 77 68 61
3170.0 58 71 61 50 41 28 40 39 40 40
3210.0 43 35 29 24 33 37 34 29 19 30
3250.0 27 29 24 25 29 27 31 29 22 25
3290.0 30 27 16 19 25 26 25 26 33 41
3330.0 33 15 35 32 34 33 32 25 22 29
3370.0 21 33 35 32 35 34 40 44 40 44
3410.0 37 34 47 45 30 24 52 56 42 55
3450.0 48 63 67 57 71 91 78 124 167 194
3490.0 189 181 171 152 131 128 101 90 106 112
3530.0 89 71 63 62 77 73 33 48 51 78
3570.0 49 43 51 57 88 60 96 99 60 56
3610.0 46 79 42 47 65 40 33 57 37 64
3650.0 84 50 43 45 41 75 42 48 62 66
3690.0 57 5 66 41 42 58 29 70 83 53
3730.0 59 35 55 45 57 45 21 49 46 28
3770.0 5 40 66 60 69 52 62 40 53 39
3810.0 41 54 35 52 62 86 53 21 33 83
3850.0 112 44 24 77 111 94 51 38 61 74
3890.0 46 52 72 101 46 47 77 68 119 90
3930.0 41 82 40 93 16 40 40 33 35 70
##END=
