##TITLE=Ethanone, 1-(3-hydroxyphenyl)-
##JCAMP-DX=4.24
##DATA TYPE=INFRARED SPECTRUM
##ORIGIN=Sadtler Research Labs Under US-EPA Contract
##OWNER=NIST Standard Reference Data Program
##CAS REGISTRY NO=121-71-1
##MOLFORM=C 8 H 8 O 2
##XUNITS=1/CM
##YUNITS=ABSORBANCE
##XFACTOR=1.0
##YFACTOR=0.000097739
##DELTAX=4.0
##FIRSTX=450.0
##LASTX=3966.0
##FIRSTY=0.000000
##MAXX=3966
##MINX=450
##MAXY=0.97739
##MINY=0
##NPOINTS=880
##XYDATA=(X++(Y..Y))
450.0 0 7 14 57 120 155 220 302 358 406
490.0 508 526 532 511 479 509 512 463 429 498
530.0 497 536 507 534 625 617 607 595 722 819
570.0 956 1234 1420 1362 1503 1392 1346 1449 1194 1005
610.0 800 631 458 437 453 422 429 469 440 453
650.0 458 428 544 682 811 1160 1325 1563 1964 2286
690.0 1960 1829 1712 1432 1203 908 651 464 424 395
730.0 353 366 344 332 360 412 503 630 786 1106
770.0 1373 1782 1921 2198 1943 1644 1339 993 746 601
810.0 473 374 348 354 346 394 419 438 475 558
850.0 655 711 924 1256 1827 2416 2711 2769 2683 2235
890.0 1763 1572 1411 1254 1005 755 585 524 494 501
930.0 510 515 558 642 752 787 818 781 747 671
970.0 608 547 526 519 518 567 604 586 596 553
1010.0 484 424 385 395 377 373 389 396 380 404
1050.0 414 474 530 613 707 844 921 964 929 895
1090.0 818 761 704 697 645 637 627 626 600 621
1130.0 649 731 901 1171 1583 2269 2965 3367 4158 5288
1170.0 5904 6173 6389 6215 5474 4734 4253 4018 4025 4260
1210.0 4454 4523 4404 3967 3237 2453 1844 1402 1247 1267
1250.0 1444 1752 2301 3198 4497 6019 7628 9073 9990 10000
1290.0 9270 8076 6333 4434 3306 2683 2031 1572 1378 1247
1330.0 1077 917 876 952 1248 1747 2389 2861 3014 2978
1370.0 2488 1777 1208 904 756 705 690 713 748 771
1410.0 811 908 1019 1198 1470 1900 2526 3363 4024 4302
1450.0 4248 3857 2935 2025 1631 1488 1435 1428 1431 1356
1490.0 1309 1109 900 727 651 498 484 467 458 469
1530.0 477 523 530 525 569 630 692 764 866 1053
1570.0 1321 1741 2325 2943 3508 3932 4175 4113 3740 3181
1610.0 2470 1856 1338 997 716 580 514 477 507 564
1650.0 586 660 740 840 912 975 1037 1170 1451 1995
1690.0 2901 4332 6314 7746 8243 8064 7120 5025 2898 1672
1730.0 1113 845 786 787 845 819 788 692 619 503
1770.0 438 360 332 308 293 278 257 251 240 225
1810.0 218 211 203 215 215 220 223 209 216 226
1850.0 228 270 237 230 218 212 200 198 179 179
1890.0 178 169 166 161 168 171 175 184 194 190
1930.0 197 186 191 176 165 163 158 132 137 125
1970.0 130 126 147 153 151 141 142 128 119 120
2010.0 123 115 120 111 116 122 131 126 136 132
2050.0 130 126 118 128 116 138 132 136 132 129
2090.0 128 133 123 134 109 108 110 97 98 98
2130.0 96 97 95 94 108 103 98 99 98 95
2170.0 105 96 111 93 96 86 92 81 81 81
2210.0 68 75 70 86 88 90 97 97 97 103
2250.0 91 96 91 95 91 102 86 91 95 97
2290.0 99 120 118 128 132 164 155 153 174 161
2330.0 166 178 143 123 167 164 177 142 147 142
2370.0 142 125 149 151 139 115 120 106 99 89
2410.0 83 78 72 76 76 76 74 78 83 95
2450.0 102 99 109 105 112 123 118 134 126 111
2490.0 112 97 95 92 81 94 54 63 49 60
2530.0 62 53 57 54 56 55 47 57 59 64
2570.0 75 62 72 73 74 74 77 74 85 71
2610.0 80 75 66 86 74 77 80 75 82 74
2650.0 61 59 60 57 62 55 55 49 38 34
2690.0 22 28 21 23 13 25 32 20 26 27
2730.0 22 26 31 25 28 26 53 41 54 53
2770.0 51 38 53 33 47 37 34 32 36 32
2810.0 39 42 42 38 54 43 28 55 54 55
2850.0 67 57 59 79 69 81 84 80 91 91
2890.0 90 101 107 112 113 120 140 121 151 181
2930.0 197 209 214 219 200 189 168 174 198 227
2970.0 254 262 300 273 263 241 241 270 303 405
3010.0 494 585 661 672 664 630 598 599 607 672
3050.0 734 765 743 759 721 699 713 705 717 688
3090.0 641 574 492 423 367 293 214 180 135 120
3130.0 106 90 74 81 47 56 56 38 42 43
3170.0 23 32 36 35 30 41 23 26 32 25
3210.0 8 45 43 23 37 27 23 14 23 7
3250.0 18 14 15 12 21 13 19 23 20 11
3290.0 30 35 32 39 49 65 30 49 39 40
3330.0 35 60 55 66 72 70 72 95 84 91
3370.0 102 107 112 149 152 179 167 165 136 107
3410.0 82 63 8 30 44 57 62 20 28 42
3450.0 51 44 52 54 51 45 48 29 36 49
3490.0 25 12 45 31 15 31 30 39 17 23
3530.0 35 12 64 22 40 55 45 30 44 31
3570.0 49 59 47 52 43 75 71 66 34 75
3610.0 106 77 130 208 317 532 884 1508 2323 3161
3650.0 3546 3538 3246 2540 1439 789 394 207 131 61
3690.0 53 52 65 52 27 37 42 35 33 33
3730.0 54 43 74 64 46 41 55 53 35 58
3770.0 40 53 47 46 33 52 42 42 33 62
3810.0 57 78 64 48 46 54 73 75 54 57
3850.0 71 53 73 72 80 78 72 57 69 57
3890.0 70 62 73 60 42 59 52 63 57 59
3930.0 87 69 56 67 64 64 80 81 73 49
##END=
