##TITLE=Ethanol, 2,2'-[(1-methylethyl)imino]bis-
##JCAMP-DX=4.24
##DATA TYPE=INFRARED SPECTRUM
##ORIGIN=Sadtler Research Labs Under US-EPA Contract
##OWNER=NIST Standard Reference Data Program
##CAS REGISTRY NO=121-93-7
##MOLFORM=C 7 H 17 N O 2
##XUNITS=1/CM
##YUNITS=ABSORBANCE
##XFACTOR=1.0
##YFACTOR=0.000114841
##DELTAX=4.0
##FIRSTX=450.0
##LASTX=3966.0
##FIRSTY=0.006546
##MAXX=3966
##MINX=450
##MAXY=1.14841
##MINY=0
##NPOINTS=880
##XYDATA=(X++(Y..Y))
450.0 57 200 247 174 100 260 201 108 180 154
490.0 166 143 59 194 129 90 118 82 144 147
530.0 152 120 70 165 122 146 154 169 179 240
570.0 208 244 280 210 178 111 89 100 74 29
610.0 42 50 0 60 73 88 96 63 57 81
650.0 60 49 64 33 79 67 89 123 83 127
690.0 149 193 202 232 303 312 319 247 293 228
730.0 215 219 93 75 101 165 135 144 145 134
770.0 76 148 200 76 116 167 71 94 95 108
810.0 120 134 156 191 206 256 361 401 422 426
850.0 509 597 681 810 958 1071 1106 1061 918 766
890.0 710 632 626 597 556 577 606 603 642 655
930.0 702 746 788 825 832 873 871 882 897 915
970.0 959 1024 1118 1225 1400 1644 1880 2233 2571 2952
1010.0 3335 3646 4059 4451 4806 5179 5468 5508 5272 4985
1050.0 4647 4472 4548 4960 5456 5790 5883 5667 5026 4326
1090.0 3653 3008 2516 2155 1954 1820 1782 1770 1713 1639
1130.0 1526 1478 1417 1447 1540 1629 1829 2158 2501 2789
1170.0 3124 3339 3229 2952 2660 2322 2146 1995 1906 1892
1210.0 1869 1890 1760 1661 1564 1516 1438 1375 1321 1298
1250.0 1314 1302 1330 1371 1411 1457 1455 1426 1399 1378
1290.0 1351 1334 1334 1333 1358 1410 1450 1529 1597 1648
1330.0 1679 1685 1710 1732 1801 1903 2098 2318 2554 2874
1370.0 2968 2978 3023 3060 3207 3256 3233 3048 2662 2333
1410.0 1934 1607 1325 1071 980 880 857 902 954 1083
1450.0 1269 1417 1561 1674 1663 1629 1455 1256 1047 835
1490.0 620 457 361 291 262 209 255 192 152 147
1530.0 158 103 115 92 111 106 99 97 75 76
1570.0 70 82 73 69 68 60 57 75 38 66
1610.0 56 50 39 52 49 45 41 36 35 50
1650.0 16 29 46 32 34 38 33 38 64 57
1690.0 77 90 93 86 104 94 87 75 47 61
1730.0 52 53 53 55 75 68 55 54 55 60
1770.0 60 62 74 82 83 68 60 47 54 38
1810.0 30 34 27 26 26 27 28 23 26 27
1850.0 32 28 29 35 32 29 27 34 30 38
1890.0 35 36 39 39 41 45 37 42 42 47
1930.0 45 43 49 39 39 36 34 27 24 23
1970.0 15 20 16 12 12 12 12 12 13 14
2010.0 15 17 20 25 22 26 29 35 36 37
2050.0 42 48 47 47 50 47 43 42 39 42
2090.0 40 37 39 34 35 37 31 34 30 31
2130.0 25 18 17 16 16 16 12 8 10 7
2170.0 7 6 9 5 6 10 9 12 11 13
2210.0 15 13 15 15 15 17 17 14 14 14
2250.0 13 15 17 17 17 15 18 17 15 11
2290.0 7 5 9 10 6 3 4 11 5 15
2330.0 18 17 16 15 28 18 32 29 38 25
2370.0 21 24 23 22 19 20 20 21 20 22
2410.0 21 22 21 21 24 21 21 23 22 23
2450.0 23 23 25 23 27 25 25 27 28 26
2490.0 25 26 27 21 24 24 23 27 28 24
2530.0 29 30 33 38 36 36 41 46 47 49
2570.0 51 55 62 62 70 80 88 101 108 115
2610.0 126 135 142 153 162 162 160 161 167 171
2650.0 176 181 193 199 214 228 242 259 277 302
2690.0 325 350 374 397 422 438 453 469 476 490
2730.0 501 517 526 540 555 571 589 617 644 680
2770.0 721 767 824 894 977 1069 1190 1338 1515 1730
2810.0 1987 2285 2606 2944 3243 3457 3536 3483 3325 3147
2850.0 3002 2928 2962 3133 3453 3912 4438 4924 5278 5393
2890.0 5294 5058 4773 4531 4416 4432 4588 4862 5249 5696
2930.0 6114 6444 6661 6666 6528 6396 6332 6609 7359 8513
2970.0 9632 10000 9321 7795 5764 3902 2584 1749 1258 958
3010.0 743 601 500 431 376 332 297 263 237 216
3050.0 193 175 154 147 130 116 111 101 97 93
3090.0 85 82 78 70 70 65 65 55 51 51
3130.0 47 42 44 44 36 38 43 46 44 44
3170.0 43 40 44 49 45 39 34 33 37 36
3210.0 30 24 21 19 10 14 8 7 5 6
3250.0 10 3 3 8 4 10 10 12 11 14
3290.0 17 19 23 29 30 34 32 35 40 43
3330.0 58 57 63 59 60 64 71 76 83 91
3370.0 86 92 106 110 114 116 123 132 149 154
3410.0 172 180 191 199 209 221 225 235 243 245
3450.0 251 258 259 267 262 267 278 287 296 309
3490.0 321 334 363 386 416 451 502 558 619 706
3530.0 763 810 863 879 899 906 890 877 854 836
3570.0 829 792 756 697 643 598 531 487 434 406
3610.0 371 334 313 285 277 268 254 280 310 353
3650.0 431 550 674 807 890 899 875 752 649 507
3690.0 351 258 175 127 93 67 54 48 38 22
3730.0 28 20 1 7 1 4 1 1 1 1
3770.0 1 1 1 1 1 1 1 1 1 1
3810.0 1 1 1 1 1 1 1 1 1 1
3850.0 1 1 1 3 1 1 5 1 1 1
3890.0 1 1 1 1 1 1 1 1 1 1
3930.0 1 1 1 1 1 1 1 1 3 1
##END=
