##TITLE=Benzenamine, N,N,3-trimethyl-
##JCAMP-DX=4.24
##DATA TYPE=INFRARED SPECTRUM
##ORIGIN=Sadtler Research Labs Under US-EPA Contract
##OWNER=NIST Standard Reference Data Program
##CAS REGISTRY NO=121-72-2
##MOLFORM=C 9 H 13 N
##XUNITS=1/CM
##YUNITS=ABSORBANCE
##XFACTOR=1.0
##YFACTOR=0.000061572
##DELTAX=4.0
##FIRSTX=450.0
##LASTX=3966.0
##FIRSTY=0.010652
##MAXX=3966
##MINX=450
##MAXY=0.61572
##MINY=0
##NPOINTS=880
##XYDATA=(X++(Y..Y))
450.0 173 170 163 153 128 104 67 49 53 69
490.0 21 9 11 66 50 70 67 53 145 126
530.0 154 195 166 133 154 120 173 127 159 123
570.0 105 74 110 65 108 69 90 107 95 103
610.0 92 109 127 71 97 84 124 86 126 111
650.0 135 129 145 196 201 397 519 759 1062 1407
690.0 1859 1719 1309 1102 807 524 371 266 208 232
730.0 190 240 260 361 521 838 1230 1697 2213 2860
770.0 2744 2064 1625 1111 719 427 265 217 202 179
810.0 195 184 240 280 351 491 598 700 792 694
850.0 634 584 527 421 373 304 253 186 201 200
890.0 185 200 206 184 193 183 188 196 211 232
930.0 244 300 374 498 700 974 1244 1383 1321 1171
970.0 887 646 584 629 871 1224 1637 1997 2204 2093
1010.0 1782 1431 1100 842 658 547 489 527 573 671
1050.0 811 926 1003 1033 1008 934 805 713 677 681
1090.0 719 710 718 670 622 639 652 732 851 1008
1130.0 1207 1428 1693 1995 2272 2344 2273 2033 1737 1502
1170.0 1492 1500 1450 1352 1176 966 868 882 961 1083
1210.0 1272 1461 1608 1737 1742 1658 1472 1252 1032 852
1250.0 717 638 585 560 535 527 509 518 522 543
1290.0 594 651 727 805 910 1069 1304 1584 1867 2201
1330.0 2624 3172 3835 4465 4821 4685 4132 3287 2423 1761
1370.0 1321 1079 932 850 824 802 768 760 747 763
1410.0 796 857 983 1144 1355 1654 2009 2263 2270 2171
1450.0 1979 1789 1782 1797 1930 2057 2253 2441 2810 3481
1490.0 4483 5433 6044 6123 5708 4753 3830 3134 2716 2370
1530.0 2160 2016 1878 1763 1532 1369 1301 1364 1450 1576
1570.0 1891 2294 2879 3422 4054 4918 6215 7777 9291 10000
1610.0 9347 7680 5436 3447 2235 1556 1148 900 688 598
1650.0 490 520 360 327 295 313 295 285 284 342
1690.0 283 297 356 387 331 320 302 327 242 215
1730.0 196 230 184 173 146 154 145 137 131 121
1770.0 140 140 109 105 105 114 138 134 143 144
1810.0 151 159 150 132 124 119 102 101 103 128
1850.0 116 125 142 142 133 149 123 122 117 120
1890.0 128 135 161 185 203 204 195 178 135 95
1930.0 73 56 42 41 46 42 42 42 41 33
1970.0 24 24 23 25 25 27 32 27 31 32
2010.0 32 38 38 38 38 48 54 57 69 69
2050.0 78 71 74 61 45 37 29 20 19 21
2090.0 19 19 19 19 19 10 11 17 19 9
2130.0 17 10 17 17 26 22 26 25 24 24
2170.0 33 29 31 24 32 40 38 47 47 46
2210.0 46 33 31 22 13 14 14 4 4 4
2250.0 4 4 13 9 3 12 13 12 21 20
2290.0 29 38 46 45 55 62 65 70 70 69
2330.0 90 79 81 79 81 56 66 95 116 115
2370.0 97 74 54 32 17 19 10 12 20 28
2410.0 29 36 38 37 43 39 34 38 39 45
2450.0 47 54 55 56 56 57 55 65 61 61
2490.0 61 58 58 66 58 66 59 58 67 69
2530.0 59 63 64 60 69 68 78 78 86 94
2570.0 94 103 103 103 103 103 103 99 96 90
2610.0 89 98 90 97 91 99 91 96 95 90
2650.0 91 100 105 107 115 116 116 133 141 141
2690.0 150 150 153 168 157 166 175 184 206 231
2730.0 264 297 330 374 422 449 508 570 651 749
2770.0 877 1034 1228 1482 1814 2187 2602 2966 3215 3276
2810.0 3144 2926 2648 2395 2228 2163 2199 2304 2447 2596
2850.0 2720 2806 2879 2939 3039 3113 3162 3172 3128 3056
2890.0 2957 2874 2842 2804 2821 2874 2952 3143 3406 3656
2930.0 3836 3894 3882 3753 3620 3522 3458 3389 3279 3104
2970.0 2942 2784 2691 2648 2606 2560 2443 2281 2051 1820
3010.0 1625 1508 1467 1538 1643 1763 1848 1939 2075 2248
3050.0 2395 2384 2250 2009 1673 1398 1243 1179 1148 1120
3090.0 1062 970 849 727 602 511 437 362 298 233
3130.0 188 149 120 101 84 82 67 68 68 52
3170.0 53 44 44 45 41 42 46 42 36 38
3210.0 39 31 39 32 38 30 28 24 25 21
3250.0 26 16 26 12 11 10 19 12 4 11
3290.0 12 18 12 18 5 12 11 13 14 23
3330.0 6 15 15 0 16 12 13 17 8 15
3370.0 8 25 17 9 11 19 10 8 16 10
3410.0 5 16 13 20 11 20 29 21 23 38
3450.0 38 29 26 36 36 35 24 22 8 17
3490.0 9 16 18 21 13 9 20 6 7 9
3530.0 14 3 12 12 19 12 20 21 11 21
3570.0 23 18 16 15 20 30 23 31 32 24
3610.0 40 38 34 42 32 57 26 26 26 32
3650.0 65 42 34 28 36 67 59 70 40 31
3690.0 63 38 29 29 29 54 52 39 46 59
3730.0 56 76 80 74 100 86 83 64 64 58
3770.0 56 50 50 56 60 59 63 82 83 76
3810.0 69 68 84 93 78 85 86 89 87 82
3850.0 84 120 88 88 88 96 89 89 89 91
3890.0 89 94 89 95 91 82 82 82 84 83
3930.0 84 84 76 76 77 86 24 29 30 30
##END=
