##TITLE=Triethylamine
##JCAMP-DX=4.24
##DATA TYPE=INFRARED SPECTRUM
##ORIGIN=Sadtler Research Labs Under US-EPA Contract
##OWNER=NIST Standard Reference Data Program
##CAS REGISTRY NO=121-44-8
##MOLFORM=C 6 H 15 N
##XUNITS=1/CM
##YUNITS=ABSORBANCE
##XFACTOR=1.0
##YFACTOR=0.000163306
##DELTAX=4.0
##FIRSTX=450.0
##LASTX=3966.0
##FIRSTY=0.024659
##MAXX=3966
##MINX=450
##MAXY=1.63306
##MINY=0
##NPOINTS=880
##XYDATA=(X++(Y..Y))
450.0 151 81 40 34 55 81 96 76 159 163
490.0 149 104 71 117 105 108 99 89 118 151
530.0 121 107 94 65 78 73 97 35 47 56
570.0 50 58 70 44 12 36 36 57 44 48
610.0 28 44 44 45 43 48 53 41 49 42
650.0 56 40 46 37 46 61 46 56 60 50
690.0 59 61 65 79 88 104 143 174 241 289
730.0 375 429 473 492 508 412 307 267 225 189
770.0 182 199 206 235 269 308 328 337 336 312
810.0 296 253 205 160 117 92 74 70 58 57
850.0 48 54 56 55 59 60 70 69 77 80
890.0 94 101 118 132 141 151 160 167 161 154
930.0 139 123 103 90 82 81 86 88 99 106
970.0 128 146 177 213 258 311 349 377 376 374
1010.0 356 338 342 354 334 339 383 429 501 605
1050.0 782 1014 1300 1586 1854 2087 2184 2267 2240 2097
1090.0 1926 1803 1636 1417 1211 1012 840 714 644 613
1130.0 609 601 588 560 523 461 381 326 284 255
1170.0 238 250 283 356 489 717 1085 1570 2098 2467
1210.0 2639 2505 2071 1527 1102 791 577 442 358 316
1250.0 290 288 297 316 346 392 463 555 693 847
1290.0 1018 1149 1201 1201 1162 1064 927 817 752 738
1330.0 764 826 927 1032 1122 1203 1262 1310 1435 1598
1370.0 1858 2168 2453 2591 2607 2389 2010 1546 1060 714
1410.0 505 390 329 304 290 317 370 447 551 676
1450.0 813 906 1011 1071 1110 1086 1032 1021 868 664
1490.0 531 413 320 246 209 177 159 147 140 133
1530.0 127 124 119 113 107 104 92 88 82 73
1570.0 66 65 64 58 56 57 54 55 55 53
1610.0 56 54 58 56 60 60 69 69 68 72
1650.0 72 75 78 68 72 73 69 67 65 66
1690.0 64 64 68 72 81 88 95 97 96 96
1730.0 89 80 71 58 49 38 36 27 32 29
1770.0 32 31 32 33 33 36 41 43 48 51
1810.0 46 46 43 40 35 29 30 23 21 16
1850.0 13 11 9 10 7 10 8 5 8 10
1890.0 8 6 7 5 1 4 3 5 10 14
1930.0 15 22 26 25 29 23 22 16 12 10
1970.0 4 4 4 7 7 5 7 5 7 4
2010.0 10 11 15 15 16 21 23 19 21 23
2050.0 22 24 21 20 24 26 23 22 23 22
2090.0 19 13 16 16 15 14 12 15 15 13
2130.0 13 11 9 6 2 3 0 0 0 0
2170.0 2 0 1 2 4 4 5 5 3 6
2210.0 4 6 7 7 7 7 6 4 7 7
2250.0 11 14 16 18 21 24 26 32 34 32
2290.0 35 39 41 39 42 39 28 24 27 20
2330.0 23 21 25 36 49 35 25 30 55 74
2370.0 81 83 81 72 57 51 44 44 44 46
2410.0 45 47 50 51 57 56 55 56 54 54
2450.0 52 50 45 45 42 42 41 44 43 43
2490.0 51 50 52 54 57 58 62 69 74 81
2530.0 84 88 94 101 105 108 117 124 132 139
2570.0 152 162 171 175 177 178 170 167 167 160
2610.0 157 160 163 163 171 182 199 221 245 268
2650.0 291 314 330 351 364 387 404 421 444 463
2690.0 481 508 542 579 623 667 718 752 781 810
2730.0 845 847 857 895 935 991 1084 1181 1279 1381
2770.0 1487 1625 1820 2090 2436 2847 3309 3785 4290 4548
2810.0 4534 4389 4181 3833 3380 2934 2527 2188 1893 1671
2850.0 1495 1389 1349 1393 1542 1799 2151 2435 2692 2845
2890.0 2824 2799 2738 2644 2623 2679 2790 2956 3237 3657
2930.0 4164 4657 4998 5175 5157 4964 4859 4914 5489 6625
2970.0 8059 9357 10000 9728 8133 6392 4638 3069 1959 1295
3010.0 941 750 630 551 499 462 433 406 391 373
3050.0 361 333 323 306 288 266 249 234 227 217
3090.0 207 199 186 174 167 156 152 142 141 129
3130.0 132 139 135 136 127 137 125 128 126 123
3170.0 113 117 114 96 92 85 78 61 51 62
3210.0 48 53 40 34 32 33 33 27 25 27
3250.0 26 15 21 21 20 22 26 27 20 19
3290.0 23 22 15 23 22 23 23 27 23 18
3330.0 23 22 21 22 19 25 18 21 12 18
3370.0 21 24 17 19 15 10 19 19 19 20
3410.0 20 22 19 11 20 18 20 23 35 23
3450.0 22 28 17 27 29 18 23 17 22 21
3490.0 34 18 19 22 13 14 20 9 20 10
3530.0 22 27 31 16 17 34 7 27 17 2
3570.0 25 27 35 12 21 21 23 24 13 27
3610.0 20 27 29 21 30 40 51 52 48 39
3650.0 47 46 57 43 36 35 48 35 27 22
3690.0 25 34 27 26 29 33 26 30 27 38
3730.0 29 28 32 25 38 30 40 27 27 20
3770.0 22 19 27 24 22 30 19 22 29 51
3810.0 18 25 2 9 22 18 30 19 4 34
3850.0 29 35 48 24 35 27 40 42 51 40
3890.0 40 15 29 52 40 47 17 27 19 24
3930.0 22 40 38 16 22 41 50 41 44 33
##END=
