##TITLE=Benzene, 1-chloro-2-nitro-4-(trifluoromethyl)-
##JCAMP-DX=4.24
##DATA TYPE=INFRARED SPECTRUM
##ORIGIN=Sadtler Research Labs Under US-EPA Contract
##OWNER=NIST Standard Reference Data Program
##CAS REGISTRY NO=121-17-5
##MOLFORM=C 7 H 3 Cl F 3 N O 2
##XUNITS=1/CM
##YUNITS=ABSORBANCE
##XFACTOR=1.0
##YFACTOR=0.000090280
##DELTAX=4.0
##FIRSTX=450.0
##LASTX=3966.0
##FIRSTY=0.000000
##MAXX=3966
##MINX=450
##MAXY=0.9028
##MINY=0
##NPOINTS=880
##XYDATA=(X++(Y..Y))
450.0 0 450 474 522 474 526 452 594 438 449
490.0 544 611 623 529 603 718 761 852 833 690
530.0 665 668 653 598 604 666 627 661 580 580
570.0 498 497 555 600 512 547 554 493 531 480
610.0 500 490 474 470 429 588 598 535 533 558
650.0 580 587 560 604 671 770 843 719 632 523
690.0 535 509 547 541 591 743 890 969 838 681
730.0 523 547 490 488 492 502 520 519 512 492
770.0 504 524 577 669 916 1019 1003 874 644 555
810.0 498 494 534 677 842 1134 1268 1010 762 590
850.0 503 476 467 488 489 508 496 517 522 575
890.0 628 710 792 889 915 804 682 568 515 483
930.0 475 468 459 471 458 456 456 464 460 463
970.0 455 454 451 460 454 450 460 460 474 460
1010.0 468 469 468 484 507 543 574 627 681 789
1050.0 936 1058 1011 862 753 835 1175 1918 3064 3821
1090.0 3521 2293 1224 863 743 711 691 689 709 733
1130.0 767 830 1019 1397 2184 3606 5561 6976 6763 5298
1170.0 3632 2661 2812 4109 4904 4134 2876 1642 999 808
1210.0 716 713 674 651 620 617 634 637 694 810
1250.0 1203 1692 1871 1537 1061 882 909 958 998 1005
1290.0 981 1002 1082 1271 1517 2016 3160 5626 8882 10000
1330.0 7463 3704 1875 1547 1604 1838 2095 2223 2119 1764
1370.0 1319 984 786 682 663 660 681 707 727 718
1410.0 690 623 596 555 543 546 545 552 534 527
1450.0 521 525 526 510 518 523 554 571 606 653
1490.0 664 622 581 560 586 632 654 714 793 883
1530.0 986 1114 1255 1425 1663 2058 2690 3399 3756 3322
1570.0 2603 2036 1715 1617 1521 1392 1180 1009 896 890
1610.0 1000 1212 1534 1658 1474 1051 723 586 543 527
1650.0 532 530 529 537 529 525 508 481 497 496
1690.0 482 476 489 478 475 466 477 476 467 462
1730.0 469 475 464 460 469 474 462 470 468 469
1770.0 471 475 476 484 493 499 508 502 499 487
1810.0 486 484 469 466 464 468 461 462 455 459
1850.0 455 456 460 463 473 476 470 469 463 461
1890.0 458 461 461 467 465 468 476 488 504 498
1930.0 481 471 459 457 454 448 455 451 451 450
1970.0 453 452 454 459 451 456 451 450 446 443
2010.0 438 439 441 441 439 439 437 443 453 451
2050.0 446 445 430 438 436 441 445 448 454 450
2090.0 449 442 437 437 444 445 450 447 449 450
2130.0 447 443 447 445 447 448 445 445 444 445
2170.0 444 446 450 441 449 442 446 442 443 443
2210.0 447 450 446 448 445 441 445 447 450 452
2250.0 448 451 449 443 449 446 445 450 448 456
2290.0 464 478 489 495 513 525 523 514 511 496
2330.0 486 483 483 474 474 499 536 514 427 422
2370.0 422 422 422 427 436 449 442 450 455 453
2410.0 451 450 444 444 448 442 444 437 447 445
2450.0 442 445 439 444 443 449 444 444 445 443
2490.0 438 433 435 434 438 445 434 437 433 433
2530.0 433 431 427 431 433 438 435 441 443 441
2570.0 439 443 445 447 441 436 444 436 427 430
2610.0 439 437 435 442 433 446 441 446 449 445
2650.0 442 434 432 440 448 446 460 454 450 435
2690.0 433 440 448 450 445 439 438 443 448 443
2730.0 444 443 442 440 438 439 443 438 435 436
2770.0 434 441 426 428 429 428 425 424 432 432
2810.0 422 431 428 435 430 432 437 434 431 438
2850.0 447 446 434 447 444 450 459 459 461 467
2890.0 452 471 474 485 475 482 494 484 494 471
2930.0 462 461 459 458 456 453 441 442 450 437
2970.0 443 437 440 438 444 442 437 428 439 438
3010.0 425 436 451 435 435 437 430 425 435 450
3050.0 450 428 442 447 448 459 451 451 472 504
3090.0 517 504 494 468 451 449 452 441 445 439
3130.0 451 439 444 433 438 439 441 437 433 442
3170.0 445 429 436 428 426 437 441 449 447 435
3210.0 440 430 434 438 433 446 437 450 441 439
3250.0 443 450 425 455 456 450 447 429 436 434
3290.0 443 441 442 441 443 437 443 434 422 441
3330.0 450 445 449 446 443 445 445 438 432 457
3370.0 448 432 443 432 456 460 444 443 448 458
3410.0 450 448 449 438 447 461 452 450 450 462
3450.0 450 440 449 438 455 453 444 457 457 438
3490.0 450 451 454 462 465 462 459 448 457 469
3530.0 461 445 455 468 461 460 461 464 454 454
3570.0 460 462 447 450 460 444 448 467 447 442
3610.0 462 439 447 446 446 467 437 451 465 469
3650.0 462 442 452 455 446 452 468 460 467 450
3690.0 448 462 432 447 462 455 444 461 435 450
3730.0 455 449 467 457 480 456 447 447 445 453
3770.0 436 446 456 445 474 447 454 448 453 462
3810.0 462 454 486 456 442 438 477 476 430 438
3850.0 453 444 474 454 462 492 429 452 455 481
3890.0 442 469 443 479 447 444 462 475 499 449
3930.0 444 447 429 452 465 450 430 476 467 503
##END=
