##TITLE=Benzoic acid, 4-hydroxy-3-methoxy-
##JCAMP-DX=4.24
##DATA TYPE=INFRARED SPECTRUM
##ORIGIN=Sadtler Research Labs Under US-EPA Contract
##OWNER=NIST Standard Reference Data Program
##CAS REGISTRY NO=121-34-6
##MOLFORM=C 8 H 8 O 4
##XUNITS=1/CM
##YUNITS=ABSORBANCE
##XFACTOR=1.0
##YFACTOR=0.000072705
##DELTAX=4.0
##FIRSTX=450.0
##LASTX=3966.0
##FIRSTY=0.042169
##MAXX=3966
##MINX=450
##MAXY=0.72705
##MINY=0
##NPOINTS=880
##XYDATA=(X++(Y..Y))
450.0 580 519 480 570 627 549 607 642 519 620
490.0 361 467 416 469 487 641 554 825 824 998
530.0 954 1198 951 871 685 568 675 518 780 693
570.0 392 522 320 364 676 358 988 864 1209 2090
610.0 2131 2035 1676 770 729 389 171 196 87 205
650.0 141 3 143 25 101 304 17 183 146 190
690.0 216 255 321 698 960 1380 1257 1264 933 753
730.0 483 456 584 361 525 732 1121 1582 1990 2625
770.0 2291 1739 1474 1178 1271 1419 1144 912 647 199
810.0 342 146 267 385 333 470 536 307 394 193
850.0 183 257 144 317 301 357 511 506 562 626
890.0 495 596 524 564 513 499 415 365 235 256
930.0 222 248 224 250 206 243 176 178 212 198
970.0 225 259 227 271 332 289 455 376 481 581
1010.0 651 837 1070 1335 1718 1728 1833 1799 1553 1400
1050.0 1090 964 1194 1379 1842 2207 2473 2940 2889 2920
1090.0 2739 2413 2044 1996 2002 2225 2307 2351 2268 2110
1130.0 1885 1797 1967 2556 3674 5115 6267 6591 6237 5369
1170.0 4553 4230 4154 3946 3869 3670 3507 3433 3381 3310
1210.0 3361 3084 3020 2936 3066 3371 3524 3466 3283 2769
1250.0 2487 2457 2907 3813 4618 5309 5520 5405 5294 5092
1290.0 4694 4152 3221 2485 1967 1622 1385 1278 1244 1348
1330.0 1482 1871 2307 2701 2834 2733 2390 2016 1877 1908
1370.0 2077 2268 2407 2344 2079 1773 1475 1146 1024 851
1410.0 795 899 1120 1525 2087 2418 2547 2144 1645 1192
1450.0 923 1064 1238 1412 1536 1374 1198 1132 876 912
1490.0 982 1248 1682 2320 3092 4115 4408 4083 3176 1991
1530.0 1035 585 393 314 284 299 265 259 328 408
1570.0 518 677 893 1115 1457 1797 2158 2363 2398 2320
1610.0 2133 1773 1546 1206 923 680 460 391 353 279
1650.0 341 255 348 379 338 400 413 455 540 558
1690.0 665 738 713 832 832 878 898 883 905 925
1730.0 981 1303 1926 3342 5476 7718 9494 10000 8201 5532
1770.0 2717 1432 1038 858 756 635 564 540 614 610
1810.0 675 637 512 391 269 145 167 78 95 82
1850.0 54 91 68 58 91 44 75 92 56 107
1890.0 74 105 119 96 94 105 59 88 42 63
1930.0 54 56 63 73 50 76 46 49 48 27
1970.0 33 31 33 31 41 15 41 29 26 33
2010.0 43 34 62 20 77 54 60 80 78 73
2050.0 113 72 123 110 100 114 74 91 89 45
2090.0 84 63 37 81 21 51 46 31 44 39
2130.0 37 73 29 65 39 41 42 50 42 43
2170.0 37 58 45 25 45 31 46 28 51 13
2210.0 46 20 26 42 39 27 50 12 62 39
2250.0 32 51 30 40 64 23 77 71 71 114
2290.0 87 142 170 153 194 198 158 184 98 161
2330.0 97 121 158 121 166 148 27 113 103 149
2370.0 176 145 137 150 105 64 70 60 72 72
2410.0 72 71 101 61 96 74 79 93 76 70
2450.0 102 54 104 82 93 119 92 113 117 86
2490.0 134 114 126 154 103 158 130 132 158 146
2530.0 133 157 95 136 105 112 120 103 103 120
2570.0 85 111 99 86 101 92 100 93 90 93
2610.0 101 97 116 88 95 95 111 85 143 102
2650.0 129 128 110 134 163 105 157 104 112 121
2690.0 74 112 98 85 121 94 104 130 81 137
2730.0 109 120 143 114 122 148 110 160 119 137
2770.0 152 131 148 143 137 154 159 153 159 163
2810.0 175 175 193 178 221 219 258 288 303 358
2850.0 416 416 482 428 413 371 303 321 310 273
2890.0 329 258 315 320 276 380 344 373 436 417
2930.0 484 519 517 675 714 824 874 864 858 795
2970.0 722 736 588 543 464 395 409 408 464 558
3010.0 682 722 716 585 471 350 316 274 323 276
3050.0 330 346 368 405 440 387 451 379 422 397
3090.0 349 381 272 266 263 188 224 212 159 231
3130.0 131 199 190 160 189 179 119 208 113 179
3170.0 160 129 186 164 163 179 145 189 168 184
3210.0 193 175 188 172 189 156 176 142 165 161
3250.0 180 133 204 130 191 142 163 193 148 167
3290.0 183 124 198 155 128 204 128 165 150 131
3330.0 182 153 153 227 101 203 178 176 174 159
3370.0 133 204 112 213 150 139 169 153 149 164
3410.0 141 167 146 118 162 141 146 124 161 125
3450.0 186 136 182 169 173 160 197 142 229 160
3490.0 187 250 199 221 243 187 230 194 195 278
3530.0 196 288 267 245 312 324 407 660 905 1582
3570.0 2421 3396 4518 5403 5296 4420 3058 1586 657 318
3610.0 208 126 84 93 85 77 123 80 115 94
3650.0 118 118 102 32 79 12 31 73 55 43
3690.0 72 26 91 33 24 67 32 39 59 38
3730.0 60 43 37 71 11 35 18 20 56 13
3770.0 28 93 15 86 57 51 63 41 54 65
3810.0 28 53 53 44 70 43 59 54 75 57
3850.0 94 78 110 101 106 92 126 95 125 83
3890.0 87 86 62 73 85 36 117 77 103 132
3930.0 94 136 114 89 125 121 0 10 10 10
##END=
