##TITLE=1-Propanone, 1-(4-methoxyphenyl)-
##JCAMP-DX=4.24
##DATA TYPE=INFRARED SPECTRUM
##ORIGIN=Sadtler Research Labs Under US-EPA Contract
##OWNER=NIST Standard Reference Data Program
##CAS REGISTRY NO=121-97-1
##MOLFORM=C 10 H 12 O 2
##XUNITS=1/CM
##YUNITS=ABSORBANCE
##XFACTOR=1.0
##YFACTOR=0.000107520
##DELTAX=4.0
##FIRSTX=450.0
##LASTX=3966.0
##FIRSTY=0.109992
##MAXX=3966
##MINX=450
##MAXY=1.0752
##MINY=0
##NPOINTS=880
##XYDATA=(X++(Y..Y))
450.0 1023 661 52 193 513 244 325 370 440 182
490.0 314 429 331 341 460 392 372 335 400 513
530.0 495 481 500 532 594 671 704 896 985 1091
570.0 1105 995 961 950 993 1041 925 850 708 636
610.0 503 411 387 343 357 387 391 399 362 323
650.0 264 259 237 189 180 115 136 218 206 277
690.0 229 206 116 134 174 129 97 106 86 129
730.0 132 119 42 161 428 195 220 290 265 277
770.0 297 330 334 443 645 792 1092 1299 1428 1380
810.0 1200 955 897 831 932 1096 1340 1542 1569 1572
850.0 1419 1041 745 484 330 241 198 162 185 150
890.0 158 186 176 249 207 222 294 332 424 621
930.0 1004 1509 1984 2439 2668 2650 2208 1552 930 569
970.0 463 414 370 358 415 462 535 753 1012 1346
1010.0 1565 1667 1617 1556 1579 1800 2186 2583 2688 2447
1050.0 1921 1399 962 745 621 543 516 489 485 473
1090.0 511 578 631 690 735 727 720 692 598 544
1130.0 525 489 483 527 576 703 934 1487 2974 6121
1170.0 8984 9293 7972 4496 2620 1837 1526 1599 1974 2663
1210.0 3769 5113 6803 8317 9422 8886 7022 5695 5498 6561
1250.0 7976 9381 10000 8753 6815 4746 3297 2788 2646 2629
1290.0 2776 3071 3358 3472 3419 3232 2971 2713 2417 2171
1330.0 2021 1934 2021 2243 2506 2677 2575 2223 1685 1221
1370.0 970 806 801 790 732 683 580 593 726 895
1410.0 1199 1400 1514 1340 1128 936 833 975 1166 1341
1450.0 1440 1402 1533 1857 2193 2313 2019 1548 1100 875
1490.0 918 1104 1762 2607 3637 4198 3566 2543 1321 769
1530.0 564 457 411 373 450 522 544 615 769 1095
1570.0 1501 2011 2470 3008 3207 3799 5156 6479 9469 9545
1610.0 8474 6814 3861 2292 1390 915 714 556 539 568
1650.0 482 539 582 641 643 726 830 1274 1825 2889
1690.0 4713 6513 8345 7897 6852 4315 2490 1314 788 580
1730.0 359 375 282 300 317 249 274 244 228 235
1770.0 188 155 152 131 121 91 104 77 117 108
1810.0 101 121 98 104 85 65 95 83 104 73
1850.0 112 119 105 124 120 120 124 139 129 148
1890.0 143 159 164 166 167 153 146 118 115 108
1930.0 104 112 104 95 95 87 91 94 100 123
1970.0 130 131 128 114 101 88 76 74 70 72
2010.0 68 79 93 96 103 100 108 118 132 151
2050.0 173 195 214 221 222 203 189 171 148 130
2090.0 103 92 75 64 63 58 52 50 45 45
2130.0 33 32 27 22 23 20 25 26 25 28
2170.0 23 22 18 16 17 13 14 11 15 18
2210.0 21 21 21 25 26 21 24 27 20 27
2250.0 22 21 26 24 31 33 35 40 45 59
2290.0 62 64 66 65 68 69 67 76 62 64
2330.0 73 72 67 52 49 32 55 38 63 77
2370.0 46 44 37 27 33 40 53 65 73 79
2410.0 74 73 74 74 74 77 75 74 66 70
2450.0 70 63 63 58 55 52 49 54 51 54
2490.0 58 60 69 68 80 86 89 96 97 98
2530.0 97 93 102 113 127 146 168 183 190 187
2570.0 166 150 132 116 109 106 100 103 96 93
2610.0 90 82 81 77 72 66 58 59 56 56
2650.0 54 48 47 46 42 39 35 36 37 38
2690.0 43 45 52 56 63 59 59 60 55 55
2730.0 62 61 67 76 88 103 101 105 104 104
2770.0 109 111 108 112 115 120 125 138 155 166
2810.0 191 216 248 286 334 401 498 667 959 1225
2850.0 1312 1207 923 680 574 536 551 620 729 872
2890.0 994 1042 1045 1061 1142 1345 1617 1822 1863 1764
2930.0 1642 1614 1785 2235 2749 3033 2941 2580 2214 2021
2970.0 1932 1931 2077 2252 2301 2192 1971 1674 1512 1611
3010.0 1791 1821 1565 1124 719 550 505 491 526 561
3050.0 593 594 572 552 538 538 568 618 636 593
3090.0 511 438 421 416 393 351 301 261 227 193
3130.0 176 140 126 115 110 111 103 96 96 77
3170.0 70 71 63 63 53 60 65 59 52 47
3210.0 45 38 32 33 28 43 33 41 34 32
3250.0 31 31 29 24 30 39 41 40 35 40
3290.0 37 29 32 32 34 37 34 39 44 41
3330.0 38 37 36 42 49 59 66 77 95 114
3370.0 133 145 155 159 148 144 122 92 82 64
3410.0 62 59 50 51 46 47 51 62 65 54
3450.0 73 59 63 62 53 53 51 60 65 67
3490.0 67 65 68 71 56 64 67 66 68 68
3530.0 64 64 59 66 64 65 44 81 55 83
3570.0 63 70 57 74 70 75 67 72 67 72
3610.0 67 67 67 55 83 40 61 51 81 56
3650.0 85 31 86 69 84 84 25 73 65 104
3690.0 63 90 118 101 104 88 76 104 91 121
3730.0 98 89 111 63 94 0 90 45 92 85
3770.0 86 103 95 89 93 92 104 62 85 39
3810.0 91 81 84 60 98 90 66 62 76 63
3850.0 94 21 63 102 88 67 80 75 91 104
3890.0 73 92 85 97 97 74 98 69 88 65
3930.0 94 94 99 92 88 126 81 84 76 77
##END=
