##TITLE=Benzene, 2-chloro-1-methyl-4-nitro-
##JCAMP-DX=4.24
##DATA TYPE=INFRARED SPECTRUM
##ORIGIN=Sadtler Research Labs Under US-EPA Contract
##OWNER=NIST Standard Reference Data Program
##CAS REGISTRY NO=121-86-8
##MOLFORM=C 7 H 6 Cl N O 2
##XUNITS=1/CM
##YUNITS=ABSORBANCE
##XFACTOR=1.0
##YFACTOR=0.000076587
##DELTAX=4.0
##FIRSTX=450.0
##LASTX=3966.0
##FIRSTY=0.031477
##MAXX=3966
##MINX=450
##MAXY=0.76587
##MINY=0
##NPOINTS=880
##XYDATA=(X++(Y..Y))
450.0 411 495 235 474 207 181 269 240 38 227
490.0 302 322 71 189 157 23 188 285 219 281
530.0 472 217 165 366 216 174 253 263 204 112
570.0 124 220 218 95 212 161 138 255 223 182
610.0 317 239 217 204 340 533 562 415 418 181
650.0 190 280 164 180 153 161 332 350 397 454
690.0 636 678 1123 1599 1905 1881 1457 1142 1157 1170
730.0 1669 1778 1980 1357 1158 844 533 495 347 233
770.0 285 293 315 472 903 1914 2672 2862 2557 1648
810.0 899 872 860 1048 1154 914 718 603 440 283
850.0 314 337 317 368 404 410 556 777 1132 1485
890.0 1693 1817 1787 1404 962 648 440 309 249 220
930.0 196 202 179 191 236 222 229 233 259 233
970.0 239 238 245 260 289 341 422 449 442 460
1010.0 407 321 331 337 351 434 506 684 911 1184
1050.0 1221 1255 1195 929 662 502 389 326 339 298
1090.0 296 310 351 519 681 881 1121 1386 1725 1847
1130.0 1879 1909 1545 1080 807 509 327 276 281 295
1170.0 275 225 241 223 200 202 209 243 259 262
1210.0 283 271 263 265 271 272 262 267 307 324
1250.0 407 489 716 968 1059 1038 831 623 550 526
1290.0 510 473 414 407 403 411 444 490 624 878
1330.0 1371 2331 3893 6118 8575 10000 9901 8311 5641 3564
1370.0 2594 2121 1773 1494 1312 1187 1068 848 716 604
1410.0 526 538 522 610 587 602 612 597 701 697
1450.0 796 906 1073 1335 1556 1777 1971 1949 1939 1731
1490.0 1611 1536 1456 1614 1680 2091 2596 3029 3678 3981
1530.0 4599 5785 7080 9019 9757 9369 8391 6010 3843 2678
1570.0 2052 1794 1749 1761 1765 1841 1773 1598 1361 1011
1610.0 793 561 514 400 387 393 364 431 406 391
1650.0 459 382 373 269 228 232 189 218 199 239
1690.0 215 197 232 233 201 178 172 199 191 150
1730.0 167 136 136 126 88 110 101 110 124 142
1770.0 178 211 221 214 203 211 169 179 125 120
1810.0 100 80 93 72 87 83 78 76 72 87
1850.0 65 80 89 77 86 91 81 82 90 91
1890.0 116 124 146 164 176 170 157 143 115 92
1930.0 79 71 73 67 64 77 56 65 60 59
1970.0 61 59 64 66 62 65 69 65 72 73
2010.0 72 64 62 65 58 61 51 50 51 51
2050.0 52 51 53 53 51 56 52 54 59 50
2090.0 58 53 51 49 46 48 52 50 50 47
2130.0 42 42 49 49 49 48 43 42 48 45
2170.0 51 52 53 55 50 55 54 45 46 48
2210.0 48 41 44 46 50 55 53 51 61 52
2250.0 48 52 54 55 50 55 56 57 60 56
2290.0 50 41 25 25 13 2 15 1 4 1
2330.0 1 1 1 26 2 1 1 1 1 1
2370.0 1 0 20 37 41 55 58 57 55 50
2410.0 57 55 63 66 64 70 65 60 60 60
2450.0 61 63 70 81 80 87 90 90 90 88
2490.0 77 66 60 53 48 51 45 48 54 45
2530.0 45 45 48 46 47 49 47 54 67 74
2570.0 82 83 87 92 84 74 65 62 60 58
2610.0 49 50 43 47 44 43 46 43 45 45
2650.0 46 51 51 51 53 53 60 67 80 90
2690.0 90 99 98 102 99 95 99 94 102 101
2730.0 95 92 83 87 82 82 84 76 71 67
2770.0 60 58 57 61 63 61 64 69 79 80
2810.0 77 88 94 100 104 112 129 148 173 201
2850.0 235 272 294 319 340 353 368 365 366 361
2890.0 354 350 339 335 334 340 357 386 420 474
2930.0 544 633 700 715 675 581 485 416 399 415
2970.0 436 423 401 394 409 416 415 391 364 326
3010.0 270 239 219 224 236 251 269 282 287 289
3050.0 282 283 292 326 373 431 474 488 480 431
3090.0 363 319 291 279 273 241 214 160 124 98
3130.0 76 78 64 72 65 59 61 56 53 57
3170.0 55 56 60 64 71 70 67 59 77 64
3210.0 60 58 48 52 57 44 51 53 47 53
3250.0 43 53 56 49 47 47 50 37 53 54
3290.0 47 54 39 44 46 47 49 51 49 44
3330.0 56 53 56 61 51 50 56 43 52 57
3370.0 52 54 54 52 59 46 46 46 41 48
3410.0 51 35 44 37 40 44 46 35 40 49
3450.0 38 41 43 46 35 32 32 28 26 44
3490.0 27 35 33 29 29 21 44 34 29 28
3530.0 36 30 42 42 42 43 36 28 37 60
3570.0 49 30 36 7 58 25 54 15 54 25
3610.0 44 46 30 41 31 71 30 48 26 64
3650.0 44 90 1 59 26 51 51 50 38 20
3690.0 95 25 38 17 17 52 41 20 56 15
3730.0 56 45 35 70 41 101 12 49 1 22
3770.0 41 20 27 24 15 3 16 49 23 81
3810.0 7 66 10 54 8 32 28 38 31 29
3850.0 35 50 35 8 76 59 20 26 33 47
3890.0 35 33 18 24 29 18 46 44 1 1
3930.0 25 29 28 75 42 41 25 75 66 60
##END=
