##TITLE=Benzeneacetic acid, butyl ester
##JCAMP-DX=4.24
##DATA TYPE=INFRARED SPECTRUM
##ORIGIN=Sadtler Research Labs Under US-EPA Contract
##OWNER=NIST Standard Reference Data Program
##CAS REGISTRY NO=122-43-0
##MOLFORM=C 12 H 16 O 2
##XUNITS=1/CM
##YUNITS=ABSORBANCE
##XFACTOR=1.0
##YFACTOR=0.000077124
##DELTAX=4.0
##FIRSTX=450.0
##LASTX=3966.0
##FIRSTY=0.000000
##MAXX=3966
##MINX=450
##MAXY=0.77124
##MINY=0
##NPOINTS=880
##XYDATA=(X++(Y..Y))
450.0 0 239 546 226 465 345 515 286 460 492
490.0 322 270 247 390 286 379 285 360 305 433
530.0 448 432 403 330 380 325 370 271 307 309
570.0 307 335 424 492 411 410 327 461 361 449
610.0 403 399 470 499 611 505 636 558 548 506
650.0 495 441 417 496 466 601 642 822 867 1168
690.0 1619 2001 2249 2276 2410 2367 2460 2277 2042 1687
730.0 1405 1130 968 917 816 789 675 696 607 537
770.0 439 413 403 322 454 349 297 339 392 355
810.0 397 373 397 387 400 414 388 437 420 408
850.0 400 405 407 376 398 397 388 377 402 387
890.0 411 428 443 465 485 508 482 496 473 493
930.0 492 529 564 606 660 720 808 888 1014 1120
970.0 1198 1188 1142 1084 1032 1071 1099 1180 1318 1562
1010.0 1779 1952 2032 1984 1883 1647 1394 1085 866 763
1050.0 828 966 1184 1386 1508 1558 1463 1323 1154 1089
1090.0 1078 1145 1235 1364 1559 1776 2104 2478 2958 3580
1130.0 4467 5497 6410 7035 7158 6924 6318 5652 4853 4100
1170.0 3502 3084 2766 2463 2257 2149 2142 2113 2138 2220
1210.0 2443 2690 2967 3325 3768 4360 4966 5610 6073 6364
1250.0 6312 5958 5350 4667 4083 3558 3180 2851 2649 2510
1290.0 2446 2377 2287 2203 2128 2089 2026 1999 1972 1977
1330.0 1953 1916 1852 1726 1560 1357 1192 1045 949 857
1370.0 816 803 847 916 983 982 881 746 629 581
1410.0 548 566 621 687 777 871 981 1043 1073 1097
1450.0 1176 1270 1353 1346 1283 1192 1085 959 845 829
1490.0 942 1254 1411 1287 939 546 414 353 341 315
1530.0 327 319 315 322 311 312 294 318 292 300
1570.0 301 307 323 351 393 428 500 584 670 693
1610.0 655 537 425 352 315 291 279 290 275 283
1650.0 284 305 302 297 319 316 338 342 375 388
1690.0 427 484 571 683 799 910 994 1124 1253 1495
1730.0 1832 2404 3340 4819 6963 8907 10000 9639 8172 6143
1770.0 4417 3185 2404 1918 1587 1360 1170 1013 861 715
1810.0 595 510 447 400 360 338 318 303 304 297
1850.0 297 294 296 298 297 302 297 289 280 286
1890.0 272 268 259 253 252 243 252 253 269 279
1930.0 295 313 325 337 334 334 335 324 297 276
1970.0 254 245 243 236 240 233 233 227 228 224
2010.0 229 233 231 240 236 231 243 246 246 247
2050.0 233 237 234 229 227 224 223 213 210 205
2090.0 204 198 204 204 201 201 199 197 198 198
2130.0 196 192 191 189 193 190 189 188 193 191
2170.0 195 201 194 198 194 197 194 199 188 192
2210.0 188 187 192 188 197 194 195 193 191 193
2250.0 195 199 195 197 194 196 196 199 196 205
2290.0 205 205 207 207 216 216 213 205 217 200
2330.0 196 191 199 210 211 213 185 213 183 185
2370.0 194 210 227 219 225 219 221 217 216 216
2410.0 214 214 205 211 210 204 198 201 196 200
2450.0 206 203 202 201 199 202 198 195 196 200
2490.0 196 201 198 209 199 206 206 207 212 207
2530.0 208 204 204 206 212 201 204 200 199 211
2570.0 212 216 211 219 219 218 224 219 223 224
2610.0 225 224 226 219 213 213 217 218 216 215
2650.0 207 221 210 200 204 210 199 221 234 232
2690.0 248 245 247 252 257 257 257 253 262 260
2730.0 257 261 269 283 275 284 296 278 278 286
2770.0 280 277 280 291 288 300 303 309 320 321
2810.0 325 351 360 380 390 418 439 477 530 593
2850.0 675 779 875 937 1034 1187 1406 1656 1853 1917
2890.0 1879 1787 1667 1678 1723 1842 1991 2186 2361 2496
2930.0 2698 2978 3341 3623 3771 3735 3717 3879 4398 5003
2970.0 5332 5013 4157 3240 2470 1936 1562 1267 1062 932
3010.0 873 854 857 924 1073 1270 1534 1711 1717 1519
3050.0 1237 1034 961 1041 1242 1520 1652 1542 1292 1077
3090.0 987 892 813 724 623 572 499 462 412 351
3130.0 317 300 280 276 265 263 255 253 252 252
3170.0 259 262 272 246 250 256 228 232 235 229
3210.0 215 226 209 220 223 234 223 208 219 237
3250.0 228 254 250 208 211 247 210 226 222 222
3290.0 254 256 216 217 225 226 217 205 225 223
3330.0 236 218 230 227 232 203 208 200 215 233
3370.0 228 219 214 208 224 224 214 218 216 228
3410.0 238 221 214 206 220 222 235 223 222 218
3450.0 226 218 217 225 232 226 236 241 252 271
3490.0 274 245 271 271 241 207 210 238 226 217
3530.0 195 216 186 208 236 206 256 250 221 291
3570.0 327 368 353 347 283 243 245 231 192 204
3610.0 192 244 211 194 215 215 195 208 240 245
3650.0 212 216 227 252 244 229 251 231 244 236
3690.0 213 220 224 235 219 202 216 218 230 226
3730.0 210 221 208 206 212 217 227 231 209 219
3770.0 185 208 192 199 219 225 242 211 233 221
3810.0 247 215 213 230 215 221 189 225 238 231
3850.0 228 243 248 238 193 224 217 185 218 230
3890.0 253 255 199 206 201 226 230 236 232 229
3930.0 185 210 181 223 235 186 188 188 210 213
##END=
