##TITLE=Propanoic acid, 2-phenylethyl ester
##JCAMP-DX=4.24
##DATA TYPE=INFRARED SPECTRUM
##ORIGIN=Sadtler Research Labs Under US-EPA Contract
##OWNER=NIST Standard Reference Data Program
##CAS REGISTRY NO=122-70-3
##MOLFORM=C 11 H 14 O 2
##XUNITS=1/CM
##YUNITS=ABSORBANCE
##XFACTOR=1.0
##YFACTOR=0.000106180
##DELTAX=4.0
##FIRSTX=450.0
##LASTX=3966.0
##FIRSTY=0.015715
##MAXX=3966
##MINX=450
##MAXY=1.0618
##MINY=0
##NPOINTS=880
##XYDATA=(X++(Y..Y))
450.0 148 126 45 97 214 30 154 152 366 466
490.0 659 660 556 408 267 219 72 127 77 117
530.0 27 46 42 60 102 92 119 163 285 302
570.0 335 309 260 219 112 217 80 121 116 133
610.0 122 139 131 126 123 107 111 73 86 72
650.0 91 81 91 120 144 245 344 507 700 998
690.0 1475 1864 2147 1904 1572 1188 1003 865 819 816
730.0 887 1026 1240 1499 1531 1343 959 696 495 370
770.0 274 201 270 269 121 212 198 207 214 225
810.0 258 257 298 309 326 315 315 300 269 257
850.0 231 239 216 229 218 216 210 215 209 205
890.0 213 194 188 158 149 114 88 77 64 66
930.0 63 77 76 98 116 146 189 255 329 406
970.0 472 491 477 438 425 448 505 633 803 1052
1010.0 1384 1725 1923 1904 1823 1767 1666 1521 1399 1414
1050.0 1569 1780 2072 2398 2696 2937 3055 3151 3193 3146
1090.0 2892 2485 2065 1754 1548 1414 1337 1285 1263 1254
1130.0 1270 1299 1362 1467 1662 1960 2424 3165 4249 5787
1170.0 7594 9201 10000 9641 8824 7717 6872 6133 5702 5308
1210.0 4962 4598 4227 3884 3523 3195 2875 2653 2461 2327
1250.0 2214 2138 2069 2026 2033 2055 2069 1985 1841 1625
1290.0 1410 1211 1064 942 867 821 834 936 1114 1371
1330.0 1613 1830 2018 2171 2299 2304 2110 1685 1269 951
1370.0 817 787 834 933 1036 1053 960 770 592 495
1410.0 440 421 464 498 551 667 805 912 979 1033
1450.0 1113 1163 1292 1366 1524 1552 1406 1076 765 666
1490.0 732 950 1137 1091 854 457 272 233 218 191
1530.0 162 161 155 179 138 107 114 140 118 96
1570.0 121 118 142 169 175 229 267 362 403 470
1610.0 418 314 214 135 132 87 120 120 119 120
1650.0 171 161 133 127 126 137 146 148 170 216
1690.0 202 245 313 387 464 524 670 814 989 1137
1730.0 1526 1941 2650 3585 5199 6982 8955 9897 9025 7043
1770.0 4921 3391 2315 1767 1313 1098 896 803 652 524
1810.0 416 332 256 209 189 151 139 111 127 123
1850.0 125 119 128 142 150 168 142 153 143 134
1890.0 113 93 75 66 71 70 81 85 103 98
1930.0 117 133 146 158 153 154 146 143 111 87
1970.0 58 53 53 50 53 59 64 57 62 62
2010.0 63 62 67 61 57 59 56 59 54 58
2050.0 51 52 51 51 53 51 53 46 47 40
2090.0 40 31 29 27 24 26 19 19 11 13
2130.0 13 15 12 13 17 16 21 19 20 16
2170.0 20 18 17 17 18 18 15 20 16 21
2210.0 17 19 17 16 17 15 17 16 17 12
2250.0 16 13 14 15 14 15 12 15 12 16
2290.0 16 17 15 15 20 24 32 29 32 18
2330.0 21 22 23 30 27 30 26 24 21 21
2370.0 16 23 18 18 18 12 13 12 15 12
2410.0 13 12 13 12 10 9 8 9 7 7
2450.0 7 8 8 11 8 8 7 6 6 1
2490.0 3 3 4 1 5 2 2 3 5 4
2530.0 3 2 3 4 3 6 5 4 6 4
2570.0 7 6 10 11 13 13 15 18 16 18
2610.0 17 18 15 16 16 18 19 21 20 17
2650.0 17 14 14 12 12 14 13 14 10 12
2690.0 10 12 12 12 15 17 17 19 25 24
2730.0 30 30 37 42 48 53 54 56 56 56
2770.0 56 56 60 62 65 67 65 65 68 71
2810.0 76 82 91 99 113 125 148 172 206 243
2850.0 279 316 339 359 380 414 460 513 576 657
2890.0 764 880 975 1033 1058 1075 1118 1191 1284 1374
2930.0 1439 1494 1580 1714 1941 2239 2470 2568 2538 2440
2970.0 2346 2233 2162 2233 2393 2424 2185 1763 1393 1183
3010.0 1053 984 965 1042 1238 1539 1833 1937 1756 1355
3050.0 993 804 770 862 1119 1452 1584 1487 1163 910
3090.0 816 739 654 552 459 390 333 275 211 149
3130.0 103 79 66 55 51 46 47 46 46 46
3170.0 45 42 35 33 29 25 22 24 21 18
3210.0 19 17 14 13 12 11 11 8 9 7
3250.0 4 6 7 7 4 4 5 6 8 10
3290.0 9 10 6 5 9 8 9 15 7 12
3330.0 6 13 10 9 7 9 10 11 8 6
3370.0 13 8 9 11 8 8 12 14 10 11
3410.0 10 7 11 9 11 20 15 15 20 11
3450.0 14 14 16 13 23 27 32 44 56 66
3490.0 76 83 83 83 55 43 27 19 20 11
3530.0 6 7 0 9 8 3 4 6 5 6
3570.0 9 11 5 13 9 10 7 6 12 1
3610.0 4 13 15 19 14 16 24 14 21 21
3650.0 33 36 25 35 22 26 21 33 22 22
3690.0 18 21 17 19 17 23 21 19 20 17
3730.0 19 26 20 15 24 13 28 15 23 21
3770.0 18 17 17 18 15 17 6 16 16 24
3810.0 23 22 15 17 14 8 12 14 9 12
3850.0 13 26 21 9 17 16 14 17 19 7
3890.0 8 19 8 9 11 17 9 14 10 12
3930.0 17 22 13 10 12 12 18 14 25 16
##END=
