##TITLE=3-Buten-2-one, 4-phenyl-
##JCAMP-DX=4.24
##DATA TYPE=INFRARED SPECTRUM
##ORIGIN=Sadtler Research Labs Under US-EPA Contract
##OWNER=NIST Standard Reference Data Program
##CAS REGISTRY NO=122-57-6
##MOLFORM=C 10 H 10 O
##XUNITS=1/CM
##YUNITS=ABSORBANCE
##XFACTOR=1.0
##YFACTOR=0.000051611
##DELTAX=4.0
##FIRSTX=450.0
##LASTX=3966.0
##FIRSTY=0.035663
##MAXX=3966
##MINX=450
##MAXY=0.51611
##MINY=0
##NPOINTS=880
##XYDATA=(X++(Y..Y))
450.0 691 576 549 654 584 717 674 684 497 573
490.0 663 844 582 793 445 453 304 478 442 538
530.0 732 951 1333 2141 2530 2959 2258 1421 933 539
570.0 291 440 446 434 246 344 195 430 296 425
610.0 392 353 382 493 570 636 429 456 262 331
650.0 372 413 561 782 799 993 1462 1823 2023 2582
690.0 2780 2354 1905 1615 1344 1064 846 1046 1103 1449
730.0 1786 2392 2859 3258 3529 2969 2306 1728 1184 895
770.0 512 499 361 400 385 294 351 429 356 327
810.0 374 434 359 393 437 299 391 295 308 283
850.0 261 404 294 444 364 416 467 417 466 495
890.0 650 759 732 810 689 541 464 386 476 454
930.0 509 610 705 820 862 1148 1435 1950 2678 3162
970.0 3605 3683 3167 2779 2346 1962 1664 1575 1379 1166
1010.0 1032 798 767 745 841 837 813 717 608 573
1050.0 564 557 624 608 641 670 609 508 394 403
1090.0 516 446 500 468 350 376 406 434 488 584
1130.0 650 777 953 974 1172 1354 1667 2211 3286 4374
1170.0 4739 4531 3891 2979 2656 2496 2638 2788 2623 2133
1210.0 1451 1161 1179 1307 1699 1917 2553 3626 5186 6721
1250.0 7120 6206 4260 2390 1609 1377 1613 1705 1883 2022
1290.0 2205 2358 2355 2304 2205 2132 2320 2385 2437 2155
1330.0 1911 1644 1507 1532 1628 2046 2849 3528 4033 3923
1370.0 3404 2727 2123 1611 1213 942 841 734 719 665
1410.0 751 727 769 807 880 968 1048 1042 1292 1521
1450.0 1649 1514 1301 803 600 524 523 486 585 787
1490.0 1276 1643 1712 1491 1050 608 548 534 526 472
1530.0 506 441 517 424 447 473 556 503 614 780
1570.0 1075 1402 1669 1679 1541 1220 1343 1659 2230 3211
1610.0 4618 6253 7460 7649 6738 5217 3927 2872 2281 1840
1650.0 1578 1303 1304 1286 1443 1627 2179 3057 4625 6979
1690.0 9160 10000 9719 7932 6913 6241 5822 4935 3864 2784
1730.0 1992 1414 1062 842 783 680 666 530 502 437
1770.0 468 402 435 450 521 567 605 595 612 495
1810.0 502 456 441 398 347 308 282 226 264 225
1850.0 258 234 278 277 315 295 324 314 350 301
1890.0 346 291 298 239 241 227 228 228 251 259
1930.0 304 294 372 339 379 385 393 360 324 282
1970.0 259 209 219 188 214 181 189 180 203 173
2010.0 170 158 180 135 183 153 174 156 160 162
2050.0 163 156 181 156 181 137 157 155 165 155
2090.0 158 152 154 134 167 133 156 127 149 137
2130.0 137 137 158 135 144 123 166 133 171 145
2170.0 169 157 156 150 177 148 161 125 160 135
2210.0 155 143 138 144 142 136 161 129 158 139
2250.0 171 139 148 153 155 143 153 138 143 122
2290.0 159 149 159 171 182 218 212 245 288 251
2330.0 296 231 325 269 197 268 313 299 284 284
2370.0 305 224 205 166 171 149 131 143 142 143
2410.0 147 141 159 134 149 142 142 162 142 158
2450.0 164 146 163 153 168 145 158 167 156 170
2490.0 171 174 170 169 180 175 176 165 183 198
2530.0 155 178 164 167 170 147 162 156 145 158
2570.0 158 187 164 179 174 153 179 177 181 167
2610.0 164 180 157 177 171 186 171 162 160 164
2650.0 167 153 157 184 160 172 159 177 167 159
2690.0 174 175 155 178 161 183 144 156 169 161
2730.0 162 151 173 169 149 175 159 177 155 168
2770.0 182 178 170 198 199 210 168 218 180 205
2810.0 195 179 179 174 168 187 155 174 108 121
2850.0 47 17 0 49 82 127 123 185 143 210
2890.0 168 178 145 126 104 119 64 81 36 91
2930.0 77 188 214 300 280 278 282 316 302 398
2970.0 392 494 451 498 495 482 483 534 602 767
3010.0 925 1192 1261 1412 1505 1770 2023 2182 2266 2124
3050.0 1856 1665 1460 1598 1993 2529 2622 2574 2083 1684
3090.0 1540 1482 1293 1133 932 841 639 519 399 342
3130.0 305 278 252 282 225 308 254 282 259 229
3170.0 230 226 181 216 169 227 146 224 196 210
3210.0 184 187 178 200 156 222 181 213 140 219
3250.0 170 183 175 189 174 190 143 242 167 210
3290.0 170 206 177 213 206 239 185 228 170 265
3330.0 169 234 198 231 193 238 248 297 234 306
3370.0 260 299 239 249 248 257 216 294 260 311
3410.0 242 323 238 245 184 206 215 188 170 204
3450.0 166 215 152 202 171 195 171 175 172 199
3490.0 142 203 126 213 145 226 175 170 171 207
3530.0 155 205 163 214 158 195 154 199 205 205
3570.0 200 199 169 217 181 216 150 181 182 200
3610.0 193 182 173 203 210 216 162 194 183 195
3650.0 176 186 192 193 180 189 162 201 167 179
3690.0 172 180 188 177 209 211 167 207 164 211
3730.0 161 141 170 159 173 149 170 145 136 167
3770.0 138 166 150 153 156 170 170 158 151 163
3810.0 143 152 142 124 153 151 167 134 158 162
3850.0 158 116 128 156 155 137 193 178 194 163
3890.0 152 162 159 159 168 169 170 149 189 181
3930.0 186 166 157 167 146 160 80 86 87 87
##END=
