##TITLE=1,3,5-Triazine-2,4-diamine, 6-chloro-N,N'-diethyl-
##JCAMP-DX=4.24
##DATA TYPE=INFRARED SPECTRUM
##ORIGIN=Sadtler Research Labs Under US-EPA Contract
##OWNER=NIST Standard Reference Data Program
##CAS REGISTRY NO=122-34-9
##MOLFORM=C 7 H 12 Cl N 5
##XUNITS=1/CM
##YUNITS=ABSORBANCE
##XFACTOR=1.0
##YFACTOR=0.000109967
##DELTAX=4.0
##FIRSTX=450.0
##LASTX=3966.0
##FIRSTY=0.000000
##MAXX=3966
##MINX=450
##MAXY=1.09967
##MINY=0
##NPOINTS=880
##XYDATA=(X++(Y..Y))
450.0 0 810 1198 1156 1015 1253 942 1143 1140 1012
490.0 1437 1315 1251 1281 1198 1313 1238 1264 1371 1125
530.0 1185 1104 1075 1177 892 1196 1215 1217 1189 1107
570.0 1001 1072 1110 1054 1033 1075 1016 1066 1076 1072
610.0 1088 1039 1083 1075 1034 1107 1043 1098 1045 1058
650.0 1041 1051 1059 1040 994 1163 1035 1092 1067 1061
690.0 1064 1049 1138 1094 1017 1079 1115 958 1057 1009
730.0 1012 1058 1044 1078 1037 1098 1051 1031 1044 1032
770.0 989 1005 1000 1022 995 1019 969 996 1064 1165
810.0 1256 1297 1227 1140 1055 1061 1037 1040 1069 1114
850.0 1146 1129 1146 1144 1148 1127 1094 1107 1172 1166
890.0 1186 1206 1205 1161 1118 1101 1086 1070 1088 1127
930.0 1153 1187 1218 1216 1189 1170 1138 1153 1181 1230
970.0 1336 1430 1457 1424 1327 1226 1143 1110 1081 1033
1010.0 1007 984 956 963 956 969 962 975 984 985
1050.0 979 1001 1034 1066 1093 1106 1092 1058 1044 1026
1090.0 1013 1018 1032 1073 1080 1076 1088 1098 1144 1176
1130.0 1250 1358 1497 1643 1678 1646 1462 1320 1248 1214
1170.0 1219 1192 1164 1150 1131 1131 1144 1164 1211 1238
1210.0 1280 1314 1337 1352 1324 1291 1275 1293 1360 1423
1250.0 1478 1516 1521 1517 1506 1490 1430 1353 1311 1282
1290.0 1315 1356 1433 1565 1726 1911 2016 2062 2073 2108
1330.0 2252 2458 2658 2759 2693 2519 2222 1912 1710 1620
1370.0 1700 1838 1975 2051 2000 1891 1791 1714 1706 1700
1410.0 1703 1654 1610 1531 1454 1393 1372 1412 1466 1520
1450.0 1590 1610 1634 1694 1735 1790 1850 1894 1969 2059
1490.0 2224 2404 2706 3065 3355 3577 3573 3394 3350 3233
1530.0 3201 3240 3252 3448 3626 3873 4294 4908 5902 6780
1570.0 7951 9118 9342 10000 8321 6783 5202 3761 2880 2315
1610.0 1960 1716 1562 1445 1366 1272 1223 1176 1138 1127
1650.0 1069 1062 1048 1062 1045 1041 1029 1039 1029 1001
1690.0 1013 1007 1001 988 1001 1002 991 987 979 999
1730.0 979 990 978 986 991 993 983 979 975 979
1770.0 968 938 949 941 947 945 936 936 942 937
1810.0 935 939 933 931 924 925 932 932 928 922
1850.0 931 925 927 926 925 933 928 933 932 927
1890.0 930 925 925 925 926 925 921 926 926 925
1930.0 922 924 926 923 920 927 918 915 907 911
1970.0 903 900 904 908 901 894 897 891 888 887
2010.0 891 895 899 904 904 903 901 906 908 912
2050.0 908 914 907 906 908 912 911 904 903 902
2090.0 899 893 895 897 894 897 899 901 900 890
2130.0 893 889 890 887 885 885 887 886 885 880
2170.0 885 888 882 882 887 883 887 891 895 893
2210.0 892 893 899 901 903 903 896 904 902 898
2250.0 899 894 896 900 898 902 911 914 922 921
2290.0 928 930 941 947 946 961 936 933 927 927
2330.0 923 913 918 925 955 932 936 908 918 937
2370.0 932 931 928 933 912 886 877 871 869 868
2410.0 871 870 871 872 869 866 869 872 875 867
2450.0 875 876 869 872 869 874 876 873 874 875
2490.0 874 875 873 871 875 874 876 874 871 869
2530.0 863 866 863 867 861 863 858 850 850 850
2570.0 842 841 845 841 840 844 845 845 839 838
2610.0 840 837 840 840 839 839 832 835 838 839
2650.0 842 835 835 839 842 841 846 849 852 851
2690.0 856 850 853 852 855 851 856 852 863 871
2730.0 870 868 867 857 848 852 850 839 844 847
2770.0 845 853 859 843 855 850 850 859 857 852
2810.0 855 857 860 874 870 867 864 866 872 874
2850.0 879 882 890 903 915 932 961 999 1031 1070
2890.0 1075 1075 1056 1046 1039 1037 1046 1068 1085 1117
2930.0 1146 1192 1242 1301 1311 1269 1216 1158 1128 1138
2970.0 1181 1278 1380 1440 1428 1364 1262 1170 1086 1013
3010.0 971 950 925 904 901 895 885 875 875 863
3050.0 866 868 871 869 860 861 869 864 856 854
3090.0 853 857 859 862 865 866 869 865 862 860
3130.0 864 868 871 869 864 867 864 860 861 864
3170.0 852 843 849 852 852 845 857 853 849 853
3210.0 847 850 845 843 846 842 840 839 833 846
3250.0 839 843 841 846 836 846 847 836 835 847
3290.0 840 848 845 849 840 852 850 848 850 852
3330.0 844 854 855 847 856 859 858 856 851 850
3370.0 852 860 845 846 849 857 862 852 856 867
3410.0 868 867 866 884 891 890 909 938 978 1039
3450.0 1124 1253 1401 1501 1521 1443 1297 1153 1030 950
3490.0 916 904 886 888 900 895 882 879 887 904
3530.0 880 875 889 882 882 878 879 879 881 885
3570.0 902 893 907 906 907 915 906 900 882 885
3610.0 888 881 879 868 886 882 882 899 901 882
3650.0 910 882 883 877 884 877 851 878 870 877
3690.0 861 876 895 881 882 875 866 899 883 905
3730.0 886 869 894 864 882 847 887 870 892 890
3770.0 875 882 878 884 889 880 904 878 886 844
3810.0 884 882 879 860 884 917 922 899 908 899
3850.0 900 847 863 875 884 878 857 869 879 889
3890.0 857 862 868 877 861 866 877 868 866 858
3930.0 888 860 878 845 839 845 851 873 890 857
##END=
