##TITLE=Benzyl isopentyl ether
##JCAMP-DX=4.24
##DATA TYPE=INFRARED SPECTRUM
##ORIGIN=Sadtler Research Labs Under US-EPA Contract
##OWNER=NIST Standard Reference Data Program
##CAS REGISTRY NO=122-73-6
##MOLFORM=C 12 H 18 O
##XUNITS=1/CM
##YUNITS=ABSORBANCE
##XFACTOR=1.0
##YFACTOR=0.000061914
##DELTAX=4.0
##FIRSTX=450.0
##LASTX=3966.0
##FIRSTY=0.023961
##MAXX=3966
##MINX=450
##MAXY=0.61914
##MINY=0
##NPOINTS=880
##XYDATA=(X++(Y..Y))
450.0 387 392 416 425 398 298 226 203 151 176
490.0 143 81 38 152 103 138 68 78 123 148
530.0 175 104 70 53 87 38 115 65 156 117
570.0 26 183 229 169 335 306 318 423 574 654
610.0 603 548 374 278 278 250 136 119 163 104
650.0 215 262 273 350 362 627 622 878 1207 1662
690.0 2036 2613 2720 2501 2011 1852 1669 1692 1864 2271
730.0 2677 3080 3103 3196 2318 1788 1281 1078 802 628
770.0 513 441 462 362 320 343 357 289 360 394
810.0 375 351 346 297 272 208 276 345 241 217
850.0 233 288 253 300 236 342 345 357 364 390
890.0 469 500 551 617 619 584 538 507 461 460
930.0 500 507 516 534 588 603 651 627 669 722
970.0 732 776 837 858 872 920 970 1022 1099 1114
1010.0 1086 1170 1282 1554 1919 1835 1542 1085 967 1015
1050.0 1141 1325 1586 1961 2324 2678 3000 3465 4166 5016
1090.0 6217 7733 9066 9843 10000 9529 8821 7875 6814 5738
1130.0 4656 3810 3043 2389 1936 1655 1429 1257 1155 1079
1170.0 1049 1017 942 904 878 962 1194 1483 1658 1666
1210.0 1432 1121 953 820 754 736 751 798 852 889
1250.0 891 901 898 873 833 798 780 795 789 771
1290.0 798 803 837 859 871 855 807 800 794 807
1330.0 821 834 874 962 1212 1591 2164 2826 3137 2951
1370.0 2408 1879 1628 1483 1333 1122 962 820 729 684
1410.0 641 582 506 504 556 606 724 768 1049 1272
1450.0 1523 1770 1817 2015 1916 1804 1464 1277 1096 991
1490.0 945 1124 1095 1015 564 356 330 235 171 216
1530.0 279 219 222 64 198 246 203 93 124 256
1570.0 239 301 246 373 382 441 473 502 520 517
1610.0 489 420 270 322 271 270 236 151 262 173
1650.0 170 15 205 189 207 126 152 163 152 51
1690.0 170 160 80 21 143 194 176 88 191 221
1730.0 207 106 187 179 201 161 184 174 161 186
1770.0 149 112 200 204 211 249 240 325 319 326
1810.0 267 235 225 211 171 159 175 173 187 142
1850.0 204 229 245 245 243 227 276 269 261 241
1890.0 198 183 176 162 168 164 171 147 178 198
1930.0 227 250 274 291 305 300 310 302 261 221
1970.0 194 185 176 169 169 168 164 163 155 163
2010.0 166 163 161 161 169 168 168 174 171 166
2050.0 168 170 169 171 170 176 176 168 166 167
2090.0 157 150 165 163 159 160 153 147 144 136
2130.0 135 126 124 114 124 123 113 113 108 105
2170.0 94 109 103 109 108 99 98 98 98 99
2210.0 101 101 98 97 101 91 100 100 99 91
2250.0 97 96 96 96 89 93 88 93 99 91
2290.0 82 82 98 104 120 140 131 161 168 167
2330.0 187 198 188 184 177 168 175 209 246 204
2370.0 168 158 109 89 75 66 56 56 64 63
2410.0 62 55 53 58 55 63 47 58 48 47
2450.0 57 55 53 46 44 53 34 46 41 41
2490.0 44 40 40 38 30 44 44 36 34 37
2530.0 32 39 23 33 33 33 34 42 43 51
2570.0 68 69 68 82 84 98 101 112 101 105
2610.0 111 114 112 121 106 114 116 113 123 134
2650.0 127 128 130 140 151 158 174 176 185 201
2690.0 207 236 248 270 278 301 314 323 324 347
2730.0 365 381 407 413 423 424 427 418 442 471
2770.0 494 540 590 640 708 764 807 818 831 822
2810.0 849 906 989 1091 1242 1427 1728 2138 2647 3331
2850.0 4134 4984 5847 6514 6880 6863 6597 6293 6003 5704
2890.0 5198 4645 4241 4133 4245 4488 4842 5214 5625 6170
2930.0 6729 7362 7881 8144 7852 7246 6558 6338 6641 7240
2970.0 7455 6745 5341 3881 2774 2024 1529 1207 1039 952
3010.0 947 953 1063 1247 1551 1896 2202 2303 2188 1892
3050.0 1602 1430 1390 1516 1871 2285 2420 2211 1748 1431
3090.0 1265 1165 1028 885 754 636 554 465 380 302
3130.0 235 209 163 163 175 148 165 165 164 158
3170.0 157 162 157 147 146 134 120 111 111 114
3210.0 114 98 98 83 92 79 89 80 88 81
3250.0 87 79 76 65 88 72 72 82 92 79
3290.0 66 68 71 76 83 68 66 92 72 78
3330.0 78 74 84 78 67 75 74 74 75 75
3370.0 75 84 76 77 84 70 77 79 72 79
3410.0 74 81 92 70 81 83 82 66 84 78
3450.0 83 76 68 70 66 83 72 82 73 71
3490.0 72 73 73 71 55 71 74 82 68 64
3530.0 64 69 87 71 54 72 81 88 79 69
3570.0 43 80 97 75 79 55 84 93 101 92
3610.0 51 62 73 59 102 17 105 115 122 106
3650.0 51 107 107 140 140 72 64 53 110 120
3690.0 78 107 135 120 120 120 114 133 129 117
3730.0 119 65 67 104 19 56 72 125 126 142
3770.0 153 158 167 170 164 171 160 136 115 130
3810.0 146 157 133 124 144 157 143 124 139 153
3850.0 144 104 155 172 146 147 164 187 192 190
3890.0 188 178 199 177 194 198 199 192 200 208
3930.0 209 219 225 226 215 235 0 16 17 17
##END=
