##TITLE=Propanoic acid, phenylmethyl ester
##JCAMP-DX=4.24
##DATA TYPE=INFRARED SPECTRUM
##ORIGIN=Sadtler Research Labs Under US-EPA Contract
##OWNER=NIST Standard Reference Data Program
##CAS REGISTRY NO=122-63-4
##MOLFORM=C 10 H 12 O 2
##XUNITS=1/CM
##YUNITS=ABSORBANCE
##XFACTOR=1.0
##YFACTOR=0.000070435
##DELTAX=4.0
##FIRSTX=450.0
##LASTX=3966.0
##FIRSTY=0.000000
##MAXX=3966
##MINX=450
##MAXY=0.70435
##MINY=0
##NPOINTS=880
##XYDATA=(X++(Y..Y))
450.0 0 125 432 190 343 159 271 229 340 276
490.0 401 418 638 626 426 482 214 219 151 263
530.0 153 178 301 167 188 145 203 177 225 266
570.0 350 352 435 511 443 584 299 369 336 376
610.0 326 310 322 283 323 276 299 191 140 149
650.0 259 190 233 263 278 407 480 734 856 1177
690.0 1485 1810 1969 1722 1532 1232 1171 1083 1133 1138
730.0 1244 1380 1533 1715 1725 1662 1313 1036 696 527
770.0 384 318 281 243 277 300 330 326 390 357
810.0 429 459 535 577 587 615 534 533 471 446
850.0 361 344 312 278 302 270 299 291 356 369
890.0 422 460 495 535 590 662 660 618 511 453
930.0 386 404 419 450 523 602 677 678 684 662
970.0 648 635 661 710 779 892 988 1192 1417 1761
1010.0 2093 2411 2603 2575 2313 1877 1495 1174 1079 1094
1050.0 1235 1434 1732 2045 2293 2495 2591 2701 2714 2666
1090.0 2412 2057 1732 1517 1394 1302 1304 1307 1358 1391
1130.0 1474 1549 1689 1877 2113 2453 2937 3742 4931 6645
1170.0 8466 9694 10000 9313 8305 7289 6487 5893 5568 5381
1210.0 5209 4881 4302 3608 3043 2685 2413 2262 2143 2094
1250.0 2057 2065 2089 2104 2179 2236 2271 2181 1975 1654
1290.0 1364 1124 956 857 786 799 828 967 1158 1424
1330.0 1661 1894 2105 2276 2405 2297 1978 1506 1148 987
1370.0 981 1090 1250 1353 1327 1155 895 712 584 531
1410.0 502 488 536 545 604 654 762 832 923 1002
1450.0 1126 1220 1339 1457 1557 1521 1350 1039 724 627
1490.0 617 703 825 802 702 495 348 305 305 265
1530.0 258 244 247 264 240 216 216 251 220 210
1570.0 215 220 226 237 251 249 266 276 283 299
1610.0 310 294 277 237 232 216 221 237 220 236
1650.0 250 260 230 224 243 239 269 252 299 315
1690.0 320 347 414 470 504 573 651 790 869 1015
1730.0 1234 1611 2148 2992 4366 6119 8189 9484 9666 8259
1770.0 6084 4199 2876 2011 1477 1158 979 849 751 638
1810.0 541 474 411 379 346 314 287 259 261 260
1850.0 244 234 233 237 247 257 248 251 240 245
1890.0 238 228 209 202 191 195 197 197 214 216
1930.0 218 234 240 254 257 262 269 281 263 245
1970.0 212 190 184 179 184 185 192 190 189 185
2010.0 188 186 185 180 174 172 165 167 165 177
2050.0 170 156 140 142 153 148 152 156 162 160
2090.0 156 150 154 148 148 148 149 151 141 147
2130.0 148 151 146 143 147 147 146 145 147 151
2170.0 144 153 149 147 144 154 146 144 151 152
2210.0 150 147 148 143 149 147 150 145 150 150
2250.0 150 148 151 148 146 149 145 155 149 150
2290.0 145 137 135 132 128 115 123 116 116 122
2330.0 123 133 138 149 156 146 115 115 115 183
2370.0 213 211 206 185 175 163 161 154 156 158
2410.0 154 156 159 155 156 161 151 152 151 154
2450.0 156 155 150 155 156 153 155 153 154 151
2490.0 152 149 145 149 145 149 149 150 146 152
2530.0 151 147 145 144 156 147 152 149 157 154
2570.0 155 161 148 155 156 161 156 160 161 158
2610.0 160 163 168 162 172 172 181 182 176 166
2650.0 154 147 153 164 181 170 175 170 162 147
2690.0 145 140 151 148 156 154 167 166 170 164
2730.0 171 172 163 177 176 178 178 178 176 171
2770.0 172 175 173 183 191 173 186 188 194 197
2810.0 205 215 231 250 244 259 265 273 274 292
2850.0 299 294 302 314 341 374 413 477 564 663
2890.0 775 888 928 923 871 801 772 752 762 800
2930.0 881 957 1076 1219 1430 1728 1963 2056 1980 1813
2970.0 1651 1583 1577 1738 1948 2047 1956 1672 1347 1118
3010.0 983 860 830 851 901 1018 1215 1422 1563 1517
3050.0 1328 1102 941 917 1016 1276 1461 1446 1275 991
3090.0 852 738 696 649 579 525 459 411 360 317
3130.0 263 225 203 206 184 176 192 197 185 187
3170.0 191 182 185 189 190 190 177 184 159 155
3210.0 150 147 158 159 163 150 164 157 147 152
3250.0 162 163 171 167 147 140 164 149 155 153
3290.0 163 178 156 149 168 155 141 137 169 137
3330.0 137 138 158 159 152 146 171 183 128 151
3370.0 141 135 133 170 154 174 164 171 139 148
3410.0 168 152 152 155 147 138 165 149 140 144
3450.0 143 163 139 141 152 149 156 147 172 164
3490.0 197 210 209 204 190 192 176 142 147 150
3530.0 123 142 116 138 133 128 125 131 162 162
3570.0 166 193 179 170 157 166 171 155 165 171
3610.0 145 172 134 159 139 174 162 166 197 139
3650.0 175 179 181 163 176 161 136 140 130 151
3690.0 148 147 138 177 192 147 169 163 149 160
3730.0 145 148 148 146 163 138 173 177 155 146
3770.0 131 167 154 162 148 150 167 166 140 138
3810.0 164 132 151 191 126 132 177 173 125 147
3850.0 180 180 143 129 164 175 170 151 160 170
3890.0 165 157 186 143 132 192 185 152 171 165
3930.0 162 141 196 147 145 187 217 185 150 130
##END=
