##TITLE=Benzenepropanol
##JCAMP-DX=4.24
##DATA TYPE=INFRARED SPECTRUM
##ORIGIN=Sadtler Research Labs Under US-EPA Contract
##OWNER=NIST Standard Reference Data Program
##CAS REGISTRY NO=122-97-4
##MOLFORM=C 9 H 12 O
##XUNITS=1/CM
##YUNITS=ABSORBANCE
##XFACTOR=1.0
##YFACTOR=0.000064746
##DELTAX=4.0
##FIRSTX=450.0
##LASTX=3966.0
##FIRSTY=0.061250
##MAXX=3966
##MINX=450
##MAXY=0.64746
##MINY=0
##NPOINTS=880
##XYDATA=(X++(Y..Y))
450.0 946 930 884 813 843 957 1041 1026 1104 1043
490.0 975 784 734 640 610 654 583 485 401 193
530.0 95 109 80 82 147 132 184 357 394 503
570.0 554 502 440 351 326 261 230 229 148 173
610.0 148 149 151 105 86 147 106 103 151 111
650.0 138 221 242 292 523 663 975 1538 2210 3133
690.0 4156 4986 5385 4953 4221 3438 2885 2549 2526 2927
730.0 3404 3895 4260 4199 3573 2779 2048 1433 974 716
770.0 495 432 353 297 287 297 257 270 269 282
810.0 304 274 269 290 241 192 198 192 182 242
850.0 226 264 321 324 305 328 369 359 401 425
890.0 504 656 742 899 1040 1155 1201 1208 1244 1224
930.0 1217 1178 1049 931 837 727 717 699 722 793
970.0 833 893 999 1085 1180 1321 1547 1837 2177 2558
1010.0 2923 3410 3993 4742 5576 6169 6645 7077 7393 7705
1050.0 7775 7659 7057 6439 5608 4752 3974 3212 2536 2065
1090.0 1666 1394 1181 1077 970 907 883 850 856 866
1130.0 848 858 879 892 864 849 826 831 819 815
1170.0 830 853 860 844 896 903 952 998 1030 1020
1210.0 1012 1066 1065 1084 1074 1095 1134 1145 1136 1140
1250.0 1127 1097 1138 1129 1107 1101 1090 1093 1096 1097
1290.0 1060 1074 999 962 936 949 961 946 932 981
1330.0 1071 1085 1145 1221 1282 1297 1282 1218 1180 1175
1370.0 1249 1374 1524 1625 1708 1695 1597 1435 1245 1054
1410.0 919 800 723 710 781 907 1072 1271 1544 1813
1450.0 1941 1955 1839 1706 1447 1302 1189 1177 1240 1480
1490.0 1980 2499 2549 2380 1787 896 455 260 197 206
1530.0 229 188 179 104 134 174 126 86 155 193
1570.0 227 301 310 424 563 698 962 1216 1382 1379
1610.0 1134 831 500 302 184 214 176 117 143 143
1650.0 122 37 103 112 95 53 44 55 37 0
1690.0 51 79 28 21 69 93 88 79 128 121
1730.0 157 119 144 194 152 160 152 138 133 140
1770.0 135 127 164 224 287 368 384 386 371 271
1810.0 216 178 150 126 115 91 102 113 105 111
1850.0 145 160 206 246 254 242 283 269 263 213
1890.0 188 144 111 113 98 120 121 160 199 252
1930.0 313 359 363 385 427 429 358 329 243 159
1970.0 111 103 80 80 84 76 83 52 53 58
2010.0 54 48 48 85 78 77 75 86 104 103
2050.0 89 126 127 118 121 120 99 113 99 106
2090.0 106 105 91 95 91 77 67 77 67 72
2130.0 57 43 65 50 52 56 61 50 67 53
2170.0 68 59 74 66 65 80 66 93 73 78
2210.0 87 82 74 84 78 69 84 83 68 75
2250.0 76 68 86 74 70 66 84 70 73 94
2290.0 71 94 101 101 113 141 121 148 147 123
2330.0 146 155 148 181 200 149 194 226 240 256
2370.0 251 178 167 146 109 88 83 75 61 76
2410.0 69 72 67 60 62 67 56 55 64 55
2450.0 57 55 55 62 56 47 44 64 49 64
2490.0 71 57 64 75 61 70 70 70 61 78
2530.0 64 70 74 77 82 85 79 64 71 64
2570.0 71 78 75 85 96 87 82 83 97 91
2610.0 96 94 105 105 105 121 137 131 147 149
2650.0 152 157 168 164 174 192 182 182 205 211
2690.0 216 226 217 221 231 225 225 244 252 252
2730.0 269 292 291 330 319 319 354 362 369 400
2770.0 413 440 466 489 519 536 560 575 597 619
2810.0 629 658 695 724 810 875 1009 1202 1408 1703
2850.0 2082 2502 3005 3520 4048 4457 4836 5071 5092 5013
2890.0 4816 4572 4414 4384 4526 4893 5360 5971 6752 7521
2930.0 8354 9155 9766 10000 9764 9086 8030 6889 5710 4616
2970.0 3689 2913 2245 1765 1412 1165 1034 989 1059 1207
3010.0 1397 1663 2125 2775 3663 4535 4993 4927 4363 3395
3050.0 2539 2226 2368 2882 3675 4255 4341 4157 3492 2783
3090.0 2373 2105 1833 1583 1297 1063 874 674 516 372
3130.0 293 201 191 173 142 148 151 126 136 128
3170.0 107 108 94 89 83 67 57 66 82 54
3210.0 70 56 48 48 73 75 76 100 88 89
3250.0 101 77 99 104 78 105 126 99 85 97
3290.0 83 109 117 93 98 92 71 71 66 60
3330.0 45 75 74 91 94 73 71 71 74 85
3370.0 110 90 77 108 109 148 147 133 128 164
3410.0 139 130 146 145 143 164 163 171 169 151
3450.0 134 148 155 149 151 139 131 153 119 128
3490.0 166 150 133 163 132 148 147 147 157 158
3530.0 161 168 161 174 152 184 183 189 201 190
3570.0 175 205 192 223 213 221 200 224 253 233
3610.0 262 286 336 435 561 630 771 864 873 955
3650.0 1032 1211 1454 1678 1870 1956 1898 1719 1443 1116
3690.0 808 617 496 421 373 317 259 286 260 236
3730.0 212 190 185 167 140 129 140 125 118 130
3770.0 120 113 132 119 100 117 103 98 96 111
3810.0 111 113 105 106 110 127 122 136 159 141
3850.0 154 135 143 168 160 144 161 163 118 127
3890.0 128 111 105 116 93 121 123 95 87 65
3930.0 57 62 43 33 44 31 28 28 28 28
##END=
