##TITLE=Benzeneacetic acid, octyl ester
##JCAMP-DX=4.24
##DATA TYPE=INFRARED SPECTRUM
##ORIGIN=Sadtler Research Labs Under US-EPA Contract
##OWNER=NIST Standard Reference Data Program
##CAS REGISTRY NO=122-45-2
##MOLFORM=C 16 H 24 O 2
##XUNITS=1/CM
##YUNITS=ABSORBANCE
##XFACTOR=1.0
##YFACTOR=0.000091501
##DELTAX=4.0
##FIRSTX=450.0
##LASTX=3966.0
##FIRSTY=0.010340
##MAXX=3966
##MINX=450
##MAXY=0.91501
##MINY=0
##NPOINTS=880
##XYDATA=(X++(Y..Y))
450.0 113 116 156 133 181 194 169 124 105 58
490.0 76 52 21 27 6 69 43 115 118 144
530.0 186 194 67 221 162 129 133 78 99 62
570.0 28 32 42 25 18 58 110 56 67 59
610.0 79 120 128 188 228 255 304 282 261 218
650.0 172 153 145 166 175 230 320 411 495 706
690.0 1158 1629 1833 1829 1944 1986 2067 1948 1697 1376
730.0 1102 871 650 564 522 474 465 436 383 306
770.0 231 171 130 111 78 185 117 110 110 111
810.0 118 98 104 101 92 98 104 119 132 146
850.0 153 153 157 154 167 182 175 180 194 176
890.0 172 182 199 206 220 228 207 198 200 204
930.0 212 233 254 265 292 338 393 457 553 632
970.0 695 733 765 831 920 974 1011 1054 1139 1305
1010.0 1396 1348 1262 1234 1312 1401 1331 1139 959 818
1050.0 751 701 715 753 798 837 832 784 689 640
1090.0 616 624 679 767 878 1041 1285 1619 2119 2795
1130.0 3688 4714 5605 6152 6239 5964 5448 4796 3994 3222
1170.0 2615 2206 1943 1744 1600 1504 1469 1473 1558 1706
1210.0 1932 2191 2471 2810 3233 3796 4429 5092 5584 5847
1250.0 5782 5425 4867 4204 3605 3066 2662 2378 2238 2178
1290.0 2133 2051 1937 1831 1751 1701 1650 1628 1621 1612
1330.0 1599 1574 1511 1388 1204 1021 871 770 689 612
1370.0 567 563 616 727 773 702 543 418 329 298
1410.0 291 319 359 419 513 628 762 846 901 950
1450.0 1066 1212 1349 1394 1351 1237 1033 815 631 558
1490.0 659 915 1114 974 592 287 188 135 114 105
1530.0 105 111 89 94 89 90 82 76 69 76
1570.0 79 88 98 127 160 199 245 316 394 430
1610.0 390 275 169 111 84 73 57 64 66 62
1650.0 70 68 76 87 91 94 114 119 149 150
1690.0 186 216 261 325 413 517 604 735 889 1135
1730.0 1472 2020 2826 4021 5987 8348 10000 9081 6754 4557
1770.0 3120 2190 1585 1181 920 722 608 502 415 314
1810.0 250 208 172 146 120 112 100 97 90 87
1850.0 90 88 87 95 98 96 96 88 82 75
1890.0 74 72 63 60 54 57 52 56 60 71
1930.0 81 104 119 123 123 120 119 110 91 65
1970.0 51 42 36 40 40 42 32 35 35 39
2010.0 33 39 38 36 34 38 33 32 34 33
2050.0 29 36 32 32 23 19 16 13 14 18
2090.0 17 20 24 21 18 21 21 15 14 16
2130.0 6 12 6 10 11 11 10 10 6 8
2170.0 13 1 5 0 5 5 7 5 7 10
2210.0 5 8 8 10 0 4 5 4 12 11
2250.0 10 14 15 13 14 9 16 18 13 19
2290.0 16 18 18 18 20 20 22 22 21 13
2330.0 12 26 15 12 10 10 0 0 2 29
2370.0 27 26 23 23 24 23 19 18 14 20
2410.0 16 19 17 17 21 18 14 14 11 12
2450.0 11 13 8 9 15 19 10 10 12 21
2490.0 22 19 19 19 18 20 28 21 27 27
2530.0 25 25 22 9 20 18 21 13 4 6
2570.0 0 7 20 15 29 31 34 38 44 36
2610.0 39 49 38 37 34 43 41 52 52 60
2650.0 61 69 71 60 61 63 57 60 85 86
2690.0 92 99 94 91 84 86 78 75 84 73
2730.0 89 96 99 105 103 103 115 114 117 109
2770.0 109 115 112 125 136 161 166 179 195 216
2810.0 230 266 298 334 379 429 508 598 728 925
2850.0 1259 1769 2490 3169 3531 3407 3040 2690 2531 2400
2890.0 2241 2154 2229 2501 2869 3313 3840 4555 5523 6666
2930.0 8018 8972 9017 8231 7177 6033 5243 5039 5305 5631
2970.0 5460 4568 3365 2465 1925 1538 1220 968 796 697
3010.0 634 620 632 689 808 1003 1220 1398 1373 1167
3050.0 910 740 700 758 939 1185 1318 1187 934 758
3090.0 697 632 566 469 405 347 301 254 210 161
3130.0 124 92 85 82 92 96 95 107 112 104
3170.0 90 86 78 92 72 86 74 77 78 68
3210.0 72 74 75 59 76 81 91 70 79 73
3250.0 78 76 65 69 67 70 64 59 64 60
3290.0 30 32 45 32 25 26 34 18 31 35
3330.0 30 33 26 30 39 34 28 35 34 26
3370.0 40 34 34 33 16 21 35 25 28 27
3410.0 42 27 37 30 22 29 24 18 30 30
3450.0 0 24 32 22 22 40 42 57 74 99
3490.0 79 72 73 63 47 25 11 33 3 8
3530.0 22 20 18 12 20 11 23 22 7 25
3570.0 15 12 13 23 23 19 38 42 36 40
3610.0 22 36 44 22 38 34 42 52 50 32
3650.0 36 48 54 38 45 52 55 49 45 53
3690.0 41 31 31 41 44 44 38 32 33 53
3730.0 30 50 41 26 43 44 53 48 37 42
3770.0 44 65 89 67 16 3 15 52 45 26
3810.0 50 57 9 39 23 67 30 34 62 40
3850.0 37 35 43 34 66 44 49 46 40 45
3890.0 51 39 45 22 45 57 50 51 59 15
3930.0 18 22 11 23 39 42 19 32 58 53
##END=
