##TITLE=Benzene, 1,4-diethoxy-
##JCAMP-DX=4.24
##DATA TYPE=INFRARED SPECTRUM
##ORIGIN=Sadtler Research Labs Under US-EPA Contract
##OWNER=NIST Standard Reference Data Program
##CAS REGISTRY NO=122-95-2
##MOLFORM=C 10 H 14 O 2
##XUNITS=1/CM
##YUNITS=ABSORBANCE
##XFACTOR=1.0
##YFACTOR=0.000076270
##DELTAX=4.0
##FIRSTX=450.0
##LASTX=3966.0
##FIRSTY=0.003966
##MAXX=3966
##MINX=450
##MAXY=0.7627
##MINY=0
##NPOINTS=880
##XYDATA=(X++(Y..Y))
450.0 52 45 29 20 35 60 60 31 24 30
490.0 55 91 129 127 179 186 193 177 189 238
530.0 154 192 158 113 58 124 190 109 65 108
570.0 99 61 58 63 41 53 42 45 36 25
610.0 77 76 85 38 11 43 30 14 44 34
650.0 76 21 34 18 57 147 54 73 90 115
690.0 146 124 151 187 252 287 326 326 378 443
730.0 477 447 397 393 399 403 324 284 198 168
770.0 174 139 139 145 163 163 207 260 290 355
810.0 435 560 672 773 857 871 845 769 681 565
850.0 438 362 259 207 213 213 169 199 215 255
890.0 317 408 482 526 541 560 608 614 632 574
930.0 479 379 274 234 179 139 136 100 96 116
970.0 90 110 110 125 136 117 163 230 276 339
1010.0 404 436 521 672 867 1149 1488 1958 2506 2821
1050.0 2886 2670 2229 1708 1242 933 765 738 794 922
1090.0 1121 1225 1218 1138 1060 1056 1086 1044 898 705
1130.0 507 402 330 303 285 302 323 350 376 400
1170.0 418 435 484 584 776 1098 1645 2404 3274 4151
1210.0 4974 6087 7634 9160 10000 8880 7230 5618 4146 2980
1250.0 2099 1529 1214 1018 937 904 886 867 854 807
1290.0 769 751 752 727 666 554 447 353 281 228
1330.0 202 161 146 110 94 102 116 147 192 224
1370.0 249 289 364 559 859 1173 1368 1312 1032 673
1410.0 455 363 328 308 295 308 321 352 353 371
1450.0 381 388 437 439 523 689 1117 1721 2073 2064
1490.0 1934 2251 3790 6439 8770 8373 6045 3299 1743 1027
1530.0 666 480 369 313 235 193 160 165 141 105
1570.0 114 113 145 138 137 131 104 65 38 22
1610.0 23 27 49 55 67 72 83 100 87 105
1650.0 92 130 81 75 76 85 68 69 67 88
1690.0 59 58 80 85 66 60 60 89 74 75
1730.0 78 103 68 68 65 72 52 59 60 47
1770.0 52 59 41 42 40 43 60 52 59 52
1810.0 53 53 53 54 65 67 75 75 88 97
1850.0 85 91 91 84 84 90 77 76 71 68
1890.0 65 57 53 47 45 52 52 58 52 63
1930.0 65 70 77 84 84 84 84 89 88 89
1970.0 83 89 90 82 76 77 77 72 76 77
2010.0 69 76 69 70 77 75 83 84 88 91
2050.0 91 85 78 71 69 62 57 49 49 38
2090.0 36 35 31 23 23 24 24 22 23 24
2130.0 24 24 18 24 17 17 17 17 25 16
2170.0 16 16 16 17 17 16 16 11 12 16
2210.0 17 17 9 18 15 10 9 17 16 16
2250.0 16 16 16 16 16 23 23 28 27 34
2290.0 34 41 55 55 67 69 66 69 73 73
2330.0 80 79 74 80 72 73 92 81 91 81
2370.0 71 63 48 44 34 28 26 22 22 22
2410.0 21 27 27 37 32 41 40 47 46 58
2450.0 58 59 58 65 59 57 53 50 43 36
2490.0 33 32 28 27 26 26 26 27 31 34
2530.0 28 26 26 27 26 19 15 14 14 19
2570.0 14 14 14 12 12 12 12 12 12 12
2610.0 12 13 13 12 12 12 12 12 12 12
2650.0 8 13 13 13 12 12 14 13 13 13
2690.0 13 13 13 14 25 31 39 46 53 59
2730.0 59 67 66 66 74 76 78 70 72 77
2770.0 77 80 80 80 87 82 81 88 89 100
2810.0 111 112 132 145 164 164 178 198 213 240
2850.0 261 300 355 412 491 588 698 828 930 999
2890.0 1029 1043 1071 1095 1119 1116 1073 1009 944 900
2930.0 920 1008 1196 1335 1346 1232 1073 952 933 989
2970.0 1113 1280 1524 1760 1886 1860 1694 1381 1082 832
3010.0 641 511 416 345 298 271 269 296 360 467
3050.0 550 546 467 354 292 253 243 223 211 193
3090.0 184 174 181 174 163 162 143 130 110 90
3130.0 78 57 55 44 37 36 29 29 29 29
3170.0 23 30 32 24 25 14 22 24 25 25
3210.0 26 18 25 19 13 24 18 20 20 20
3250.0 17 13 13 15 14 8 15 8 14 5
3290.0 9 15 8 17 12 15 9 9 10 17
3330.0 10 10 16 16 11 14 5 10 16 6
3370.0 4 12 11 11 6 11 7 12 10 11
3410.0 10 9 11 0 14 19 8 14 7 7
3450.0 8 8 12 14 9 9 5 11 9 8
3490.0 21 16 9 9 17 9 7 3 11 11
3530.0 11 15 11 11 12 17 11 7 10 23
3570.0 26 7 5 14 9 26 25 26 18 12
3610.0 26 19 26 26 18 43 21 14 20 20
3650.0 34 33 20 14 22 35 28 46 35 27
3690.0 47 42 28 28 29 36 48 35 43 40
3730.0 43 50 45 48 54 55 51 44 43 51
3770.0 44 43 37 46 37 38 37 53 57 51
3810.0 51 51 52 52 52 52 52 64 69 55
3850.0 57 66 59 59 53 53 60 55 55 56
3890.0 64 63 68 61 57 56 48 50 43 43
3930.0 43 50 44 57 57 60 15 18 18 19
##END=
