##TITLE=m-Tolyl phenylacetate
##JCAMP-DX=4.24
##DATA TYPE=INFRARED SPECTRUM
##ORIGIN=Sadtler Research Labs Under US-EPA Contract
##OWNER=NIST Standard Reference Data Program
##CAS REGISTRY NO=122-27-0
##MOLFORM=C 15 H 14 O 2
##XUNITS=1/CM
##YUNITS=ABSORBANCE
##XFACTOR=1.0
##YFACTOR=0.000068332
##DELTAX=4.0
##FIRSTX=450.0
##LASTX=3966.0
##FIRSTY=0.000000
##MAXX=3966
##MINX=450
##MAXY=0.68332
##MINY=0
##NPOINTS=880
##XYDATA=(X++(Y..Y))
450.0 0 684 683 1294 1529 1588 1278 1227 1372 1710
490.0 1346 1675 1717 1455 1528 1768 1963 1509 1892 1636
530.0 1706 1816 1775 1732 1702 1302 1801 1606 1538 1178
570.0 1458 1348 1470 1440 1414 1308 1339 1246 1498 1296
610.0 1472 1358 1371 1375 1384 1437 1311 1356 1519 1535
650.0 1278 1340 1485 1546 1433 1614 1863 2044 2154 2447
690.0 2451 2770 2777 2780 2846 2838 2761 2442 2256 2268
730.0 2262 2494 2508 2324 1969 1922 1999 1920 1963 1851
770.0 1773 1807 1731 1752 1839 1834 1795 1630 1559 1510
810.0 1455 1397 1351 1319 1286 1337 1373 1405 1438 1407
850.0 1376 1454 1546 1547 1567 1597 1601 1535 1556 1513
890.0 1492 1575 1568 1683 1680 1670 1628 1611 1660 1701
930.0 1921 2104 2384 2569 2519 2268 2045 1800 1620 1525
970.0 1458 1450 1436 1491 1578 1577 1632 1771 1878 1753
1010.0 1530 1346 1335 1373 1480 1548 1549 1411 1371 1376
1050.0 1382 1406 1448 1501 1605 1679 1812 1873 2021 2164
1090.0 2438 2733 3136 3717 4451 5590 6773 7687 7809 7144
1130.0 6174 6181 7487 9523 10000 8151 5826 4374 3659 3160
1170.0 2900 2742 2619 2592 2592 2623 2759 2875 3239 3629
1210.0 4115 4926 5868 7006 7898 8126 7972 7338 6442 5281
1250.0 4159 3420 2989 2675 2443 2273 2173 2120 2097 2110
1290.0 2099 2059 2019 1997 1980 2009 2035 2058 2085 2074
1330.0 2070 2064 2074 2047 1976 1878 1759 1641 1572 1486
1370.0 1419 1372 1331 1323 1297 1289 1274 1294 1307 1318
1410.0 1332 1348 1436 1522 1641 1802 1959 2106 2188 2125
1450.0 1984 1832 1740 1627 1575 1538 1628 1839 2305 2897
1490.0 3166 2974 2607 2238 1941 1665 1613 1526 1477 1428
1530.0 1396 1391 1368 1356 1328 1322 1313 1329 1351 1451
1570.0 1560 1730 1920 2201 2419 2580 2523 2329 2225 2296
1610.0 2400 2371 2157 1839 1560 1339 1246 1164 1129 1132
1650.0 1090 1112 1082 1114 1095 1107 1099 1091 1090 1084
1690.0 1074 1079 1088 1073 1116 1113 1169 1194 1230 1324
1730.0 1363 1487 1554 1678 1864 2077 2409 2860 3420 4105
1770.0 4734 5217 5373 5073 4466 3748 3057 2490 2091 1744
1810.0 1540 1392 1273 1216 1160 1121 1098 1064 1071 1040
1850.0 1053 1040 1053 1052 1043 1046 1024 1025 1016 994
1890.0 976 967 947 945 947 944 962 970 987 994
1930.0 992 992 982 985 975 974 973 967 957 937
1970.0 927 923 915 909 907 907 902 894 892 887
2010.0 882 885 884 886 884 880 876 878 878 880
2050.0 877 875 874 879 874 865 865 862 861 852
2090.0 852 849 846 837 840 837 839 839 836 839
2130.0 837 834 826 823 816 815 810 806 809 806
2170.0 805 810 808 806 797 794 799 790 790 788
2210.0 783 787 781 778 783 786 779 780 775 780
2250.0 777 777 779 775 774 777 783 793 798 805
2290.0 804 806 806 806 808 810 805 800 787 772
2330.0 762 749 717 755 726 782 734 771 723 751
2370.0 766 777 784 783 783 758 744 734 731 734
2410.0 727 728 724 720 716 714 710 712 708 707
2450.0 699 696 698 697 695 695 695 696 697 699
2490.0 697 693 693 689 682 687 681 682 684 678
2530.0 682 675 673 663 665 669 662 658 655 659
2570.0 655 655 653 656 663 665 662 660 657 655
2610.0 654 652 655 647 647 646 640 633 632 632
2650.0 624 621 623 621 623 628 624 628 628 636
2690.0 630 638 643 643 652 647 649 655 654 653
2730.0 655 656 664 667 665 664 653 647 642 638
2770.0 633 635 639 639 637 646 646 644 651 655
2810.0 655 659 668 667 676 689 685 699 708 716
2850.0 729 741 762 791 828 871 908 930 915 886
2890.0 871 867 876 900 937 977 1027 1097 1184 1295
2930.0 1384 1431 1409 1336 1247 1170 1091 1022 972 935
2970.0 908 882 882 882 900 916 932 952 948 972
3010.0 1003 1045 1110 1209 1373 1587 1826 2011 2031 1911
3050.0 1718 1584 1531 1564 1665 1850 1967 1890 1665 1458
3090.0 1319 1215 1128 1048 986 941 888 842 785 735
3130.0 708 692 671 663 670 664 652 654 646 640
3170.0 648 638 636 620 626 635 622 631 623 633
3210.0 629 636 634 635 640 646 648 646 642 636
3250.0 644 654 652 634 636 639 639 630 636 625
3290.0 633 631 632 636 631 628 639 626 634 646
3330.0 649 647 652 650 667 658 654 652 646 635
3370.0 649 639 634 637 635 633 618 627 640 635
3410.0 634 631 632 636 638 644 650 644 668 649
3450.0 667 664 663 653 659 659 651 666 655 635
3490.0 650 645 661 651 654 655 651 661 679 688
3530.0 674 691 694 692 673 682 677 689 671 692
3570.0 684 700 679 705 665 658 649 660 634 635
3610.0 636 632 652 618 654 618 648 648 678 659
3650.0 678 661 681 673 664 669 628 673 651 687
3690.0 639 660 662 638 648 639 626 648 626 655
3730.0 643 625 626 617 655 617 667 636 652 640
3770.0 666 645 661 659 647 639 659 650 680 620
3810.0 649 618 625 618 630 617 618 618 628 617
3850.0 634 617 620 655 651 632 650 654 667 638
3890.0 671 689 637 674 674 647 665 654 666 618
3930.0 629 630 636 618 635 617 618 618 618 625
##END=
