##TITLE=2-Propenoic acid, 3-phenyl-, 2-methylpropyl ester
##JCAMP-DX=4.24
##DATA TYPE=INFRARED SPECTRUM
##ORIGIN=Sadtler Research Labs Under US-EPA Contract
##OWNER=NIST Standard Reference Data Program
##CAS REGISTRY NO=122-67-8
##MOLFORM=C 13 H 16 O 2
##XUNITS=1/CM
##YUNITS=ABSORBANCE
##XFACTOR=1.0
##YFACTOR=0.000060352
##DELTAX=4.0
##FIRSTX=450.0
##LASTX=3966.0
##FIRSTY=0.017019
##MAXX=3966
##MINX=450
##MAXY=0.60352
##MINY=0
##NPOINTS=880
##XYDATA=(X++(Y..Y))
450.0 282 282 281 285 297 279 264 275 265 261
490.0 251 261 178 166 191 167 180 173 167 185
530.0 171 200 222 265 225 177 150 132 253 349
570.0 323 415 425 380 355 242 193 119 66 116
610.0 85 16 59 94 56 20 76 55 75 79
650.0 91 91 141 183 257 356 358 488 656 729
690.0 679 680 753 727 697 642 473 386 311 335
730.0 299 255 263 363 391 541 658 893 966 965
770.0 787 581 383 233 154 129 121 110 82 89
810.0 74 110 110 138 148 142 176 226 199 156
850.0 208 216 260 269 297 263 198 179 161 153
890.0 186 160 178 184 158 164 188 186 189 230
930.0 260 286 278 321 364 404 456 508 585 758
970.0 891 1068 1125 1038 912 756 653 691 801 1094
1010.0 1522 2008 2292 2201 1930 1820 1741 1374 982 675
1050.0 488 405 450 418 447 404 383 304 289 296
1090.0 347 351 376 369 354 369 371 438 475 544
1130.0 588 766 983 1353 1861 2752 4248 6643 9128 10000
1170.0 7920 5561 4047 3202 2716 2377 2626 3096 2979 2127
1210.0 1315 973 943 997 1125 1323 1582 1968 2613 3501
1250.0 4199 4047 3604 3364 3320 3064 2772 2456 2183 2052
1290.0 2275 2625 2824 2847 3121 3578 3555 2872 2234 1811
1330.0 1333 984 799 712 619 538 450 426 436 576
1370.0 755 1037 1229 1216 960 697 601 547 457 368
1410.0 292 232 208 174 208 192 252 242 401 543
1450.0 766 814 686 641 681 693 648 561 458 397
1490.0 410 582 650 548 243 122 118 111 42 75
1530.0 87 90 63 33 52 79 65 44 24 121
1570.0 131 225 276 371 276 198 181 180 209 220
1610.0 230 228 276 361 494 740 1240 1871 2503 2393
1650.0 1581 740 500 359 322 259 281 268 306 268
1690.0 354 404 410 437 534 682 859 1188 1880 3031
1730.0 4699 6465 7317 6520 4799 3121 1850 1184 801 633
1770.0 536 468 429 369 312 274 247 224 169 134
1810.0 133 93 116 119 108 70 118 102 117 66
1850.0 103 78 86 78 95 77 97 107 111 96
1890.0 87 101 73 69 54 72 46 54 46 66
1930.0 59 92 74 112 100 118 107 106 81 90
1970.0 74 59 46 54 46 40 43 45 49 36
2010.0 50 33 53 26 42 34 51 32 50 19
2050.0 48 24 49 24 29 39 36 37 46 44
2090.0 50 51 48 62 42 73 61 81 42 65
2130.0 56 64 40 65 40 54 43 49 33 40
2170.0 38 38 36 40 42 34 37 20 48 19
2210.0 46 25 51 28 40 25 42 26 42 25
2250.0 46 29 39 37 35 37 36 46 37 43
2290.0 39 42 17 40 42 60 42 89 36 42
2330.0 28 64 21 50 42 42 23 19 17 50
2370.0 30 45 32 41 43 25 35 24 25 8
2410.0 33 9 53 23 40 4 43 23 23 13
2450.0 35 17 25 25 28 29 26 39 18 37
2490.0 17 41 25 34 7 33 8 49 10 32
2530.0 8 42 12 29 19 26 20 25 27 25
2570.0 32 34 43 38 44 28 48 38 45 29
2610.0 42 26 42 26 38 26 39 31 40 40
2650.0 36 43 45 31 32 46 37 62 37 41
2690.0 40 67 33 50 36 37 30 52 39 62
2730.0 63 72 52 85 83 72 73 68 68 81
2770.0 74 69 77 81 107 89 110 86 107 85
2810.0 100 100 115 93 139 117 131 133 151 156
2850.0 175 193 204 223 265 332 419 617 835 1025
2890.0 1020 979 913 896 846 815 786 808 825 873
2930.0 896 1011 1168 1329 1484 1580 1666 1774 1992 2284
2970.0 2639 2913 2910 2408 1639 930 583 405 352 268
3010.0 263 246 268 298 369 436 586 650 600 442
3050.0 397 387 396 484 654 939 1037 830 568 507
3090.0 495 461 388 344 264 256 197 165 88 90
3130.0 64 74 61 67 64 65 71 77 85 76
3170.0 76 71 72 51 59 41 63 60 68 41
3210.0 44 36 36 28 36 52 35 25 38 27
3250.0 38 35 30 7 20 38 29 37 32 28
3290.0 24 31 26 41 34 30 34 38 17 40
3330.0 49 39 19 39 31 43 40 51 56 50
3370.0 66 55 58 58 58 33 49 38 55 40
3410.0 48 32 52 26 40 71 51 42 63 84
3450.0 83 99 86 86 78 71 53 66 44 44
3490.0 44 45 21 44 34 32 40 46 36 30
3530.0 59 28 54 38 54 38 38 44 51 32
3570.0 23 36 60 45 41 37 48 40 48 21
3610.0 20 21 20 19 32 9 48 33 41 18
3650.0 9 24 25 42 25 15 14 12 31 20
3690.0 18 32 26 17 10 17 4 19 3 8
3730.0 0 0 7 0 0 0 2 4 0 3
3770.0 0 3 2 2 9 4 0 0 0 0
3810.0 0 0 0 0 0 0 0 0 0 0
3850.0 0 0 0 0 0 0 0 0 0 0
3890.0 0 0 0 0 0 0 0 0 0 0
3930.0 0 0 0 0 0 0 0 0 0 0
##END=
