##TITLE=2-Propenoic acid, 3-phenyl-, 3-phenylpropyl ester
##JCAMP-DX=4.24
##DATA TYPE=INFRARED SPECTRUM
##ORIGIN=Sadtler Research Labs Under US-EPA Contract
##OWNER=NIST Standard Reference Data Program
##CAS REGISTRY NO=122-68-9
##MOLFORM=C 18 H 18 O 2
##XUNITS=1/CM
##YUNITS=ABSORBANCE
##XFACTOR=1.0
##YFACTOR=0.000045334
##DELTAX=4.0
##FIRSTX=450.0
##LASTX=3966.0
##FIRSTY=0.147290
##MAXX=3966
##MINX=450
##MAXY=0.45334
##MINY=0
##NPOINTS=880
##XYDATA=(X++(Y..Y))
450.0 3249 1178 573 1038 0 357 262 861 770 771
490.0 625 606 695 65 605 275 508 415 140 329
530.0 538 339 454 363 214 434 243 263 596 616
570.0 542 602 651 715 525 540 351 412 480 314
610.0 153 424 259 414 467 358 308 193 330 192
650.0 294 471 311 302 291 652 634 1152 969 1191
690.0 1298 1885 1959 1769 1383 1231 1130 1096 1142 800
730.0 1131 1027 1297 1230 1383 1144 1233 1019 1254 1348
770.0 923 904 704 477 604 343 266 487 295 356
810.0 327 263 420 410 415 348 292 418 466 435
850.0 403 431 494 469 527 470 476 382 401 332
890.0 344 433 393 453 425 433 443 418 373 393
930.0 436 430 429 458 489 513 516 622 790 927
970.0 1071 1198 1322 1223 1083 992 825 872 993 1020
1010.0 1172 1414 1555 1764 1876 1850 1576 1302 1199 1069
1050.0 1081 1039 1008 1054 1060 972 865 801 735 705
1090.0 677 675 631 557 562 538 639 667 670 819
1130.0 950 987 1132 1416 1836 2609 4060 6442 9016 10000
1170.0 7185 4556 3272 2808 2618 2415 2778 3277 3304 2403
1210.0 1782 1649 1613 1519 1546 1803 2093 2445 2995 3750
1250.0 4233 3992 3612 3616 3611 3110 2710 2403 2072 1957
1290.0 2154 2498 2648 2802 3279 3652 3123 2375 1937 1694
1330.0 1405 1144 1012 811 720 670 634 634 576 526
1370.0 526 539 613 654 751 764 677 599 481 465
1410.0 417 391 425 407 429 456 513 608 743 931
1450.0 1055 1190 880 873 640 676 606 537 552 524
1490.0 751 958 1199 997 552 493 254 400 291 320
1530.0 307 264 369 284 352 257 322 329 394 304
1570.0 420 456 536 572 471 450 555 484 645 598
1610.0 575 586 612 682 792 1078 1419 2018 2357 1907
1650.0 1509 780 760 451 539 431 508 399 479 471
1690.0 501 547 583 688 699 875 1018 1447 2041 2957
1730.0 4681 5956 6701 5726 4022 2592 1594 1123 858 717
1770.0 638 609 515 486 433 457 430 456 351 344
1810.0 332 288 329 292 285 327 258 317 230 323
1850.0 230 257 245 241 298 261 309 274 286 272
1890.0 266 251 251 228 219 227 213 245 234 248
1930.0 245 271 285 295 308 324 283 317 222 275
1970.0 195 217 209 189 215 204 215 202 202 208
2010.0 195 205 188 189 192 181 184 181 182 193
2050.0 178 172 180 175 172 173 177 180 174 171
2090.0 179 176 164 169 176 179 177 181 173 172
2130.0 175 170 167 166 164 167 167 164 162 166
2170.0 161 172 162 158 172 158 157 167 162 172
2210.0 164 163 159 161 159 162 165 158 159 163
2250.0 160 167 154 143 157 151 141 150 134 141
2290.0 147 135 126 125 118 86 104 109 66 71
2330.0 66 59 77 52 103 66 103 78 57 66
2370.0 75 63 101 130 135 163 149 156 161 156
2410.0 161 163 161 164 160 164 160 162 165 160
2450.0 163 157 163 158 153 164 166 162 161 154
2490.0 147 150 154 157 160 168 166 159 165 152
2530.0 161 161 158 163 162 175 177 167 184 172
2570.0 174 179 187 190 193 204 192 210 201 194
2610.0 197 194 202 193 194 198 196 201 199 190
2650.0 198 197 181 178 183 183 190 188 186 180
2690.0 182 195 184 184 180 188 186 189 194 197
2730.0 197 189 198 198 192 205 202 211 228 215
2770.0 215 233 237 231 226 242 242 245 244 238
2810.0 230 234 254 245 242 252 270 279 290 312
2850.0 336 394 437 486 502 503 472 443 439 439
2890.0 474 502 546 585 599 617 652 707 826 951
2930.0 1055 1060 1035 1064 1122 1231 1309 1321 1300 1218
2970.0 1079 929 805 732 654 583 530 465 451 458
3010.0 514 544 634 769 966 1253 1459 1456 1196 944
3050.0 852 819 866 1039 1305 1698 1743 1367 1062 973
3090.0 942 837 690 620 576 527 454 373 310 280
3130.0 251 242 256 236 241 244 249 255 240 237
3170.0 245 236 224 216 240 245 249 232 240 235
3210.0 229 230 232 221 227 220 232 235 224 214
3250.0 213 220 219 225 207 196 215 195 206 214
3290.0 223 210 185 202 203 209 201 212 203 202
3330.0 213 219 215 233 235 202 214 217 228 238
3370.0 233 239 242 254 234 222 246 205 240 228
3410.0 250 261 241 237 261 224 256 264 256 259
3450.0 265 267 243 249 233 222 212 191 229 220
3490.0 182 215 216 206 246 215 212 205 215 256
3530.0 252 218 227 237 267 227 253 220 232 273
3570.0 303 205 288 213 338 199 317 201 302 211
3610.0 291 313 246 346 213 326 282 211 210 350
3650.0 182 443 72 354 134 342 308 288 301 142
3690.0 430 142 318 236 264 330 334 230 306 238
3730.0 288 342 302 401 275 506 242 402 248 363
3770.0 279 312 291 305 336 300 265 427 240 522
3810.0 114 479 251 428 261 394 329 400 390 283
3850.0 354 292 485 207 411 409 328 356 325 392
3890.0 350 285 338 310 415 263 320 293 320 324
3930.0 323 396 300 322 391 252 284 328 397 421
##END=
