##TITLE=Ethanone, 1-(4-methylphenyl)-
##JCAMP-DX=4.24
##DATA TYPE=INFRARED SPECTRUM
##ORIGIN=Sadtler Research Labs Under US-EPA Contract
##OWNER=NIST Standard Reference Data Program
##CAS REGISTRY NO=122-00-9
##MOLFORM=C 9 H 10 O
##XUNITS=1/CM
##YUNITS=ABSORBANCE
##XFACTOR=1.0
##YFACTOR=0.000103452
##DELTAX=4.0
##FIRSTX=450.0
##LASTX=3966.0
##FIRSTY=0.111935
##MAXX=3966
##MINX=450
##MAXY=1.03452
##MINY=0
##NPOINTS=880
##XYDATA=(X++(Y..Y))
450.0 1082 545 395 519 346 296 306 153 75 126
490.0 183 18 180 105 152 196 146 185 80 159
530.0 51 158 20 204 260 219 443 636 1216 1343
570.0 1562 1442 1117 780 873 957 993 807 594 478
610.0 334 227 191 166 201 273 100 99 136 123
650.0 191 197 343 536 678 696 622 496 268 197
690.0 151 220 158 205 212 233 267 217 257 176
730.0 177 101 134 111 131 168 191 207 156 187
770.0 124 188 197 219 313 674 580 985 1414 1667
810.0 2298 2631 1754 1532 1185 786 554 444 371 290
850.0 261 228 170 143 114 120 95 87 90 88
890.0 104 97 115 121 135 132 153 160 175 225
930.0 273 407 642 1057 1450 1628 1611 1383 969 652
970.0 514 426 391 347 335 294 286 260 262 314
1010.0 456 695 721 739 660 430 314 303 305 311
1050.0 316 314 327 366 442 511 531 523 450 328
1090.0 247 221 213 250 275 316 374 401 366 341
1130.0 295 227 191 167 176 170 179 201 219 284
1170.0 424 979 1725 1925 1929 1745 961 621 663 751
1210.0 818 859 849 870 1110 1438 1724 1933 2094 2370
1250.0 3262 5186 7623 8982 9490 8300 4998 2993 2045 1494
1290.0 1207 945 736 682 714 642 575 487 350 309
1330.0 336 393 467 632 938 1546 2487 3092 3286 3213
1370.0 2368 1445 974 765 686 712 818 994 1171 1312
1410.0 1317 1283 1149 1096 1033 1041 950 933 851 741
1450.0 643 584 553 487 461 458 389 384 371 357
1490.0 326 361 344 340 366 330 289 306 293 298
1530.0 270 296 290 311 271 291 302 353 433 457
1570.0 572 656 693 712 715 770 992 1376 1812 2357
1610.0 2651 2717 2421 1954 1371 969 722 564 481 445
1650.0 451 546 536 509 543 526 613 775 1160 1956
1690.0 3320 5539 8623 9729 10000 9213 6682 3806 2263 1470
1730.0 853 603 444 421 383 421 422 377 311 249
1770.0 200 142 123 85 96 88 117 123 128 157
1810.0 140 122 85 75 42 46 39 48 41 37
1850.0 45 40 48 33 48 36 67 68 84 99
1890.0 113 121 123 134 126 127 120 130 124 128
1930.0 138 125 116 96 98 76 74 59 48 34
1970.0 26 30 22 26 25 26 25 32 29 34
2010.0 40 40 49 55 66 65 69 56 50 52
2050.0 52 55 44 41 25 32 19 16 17 17
2090.0 15 6 10 2 12 5 7 0 4 8
2130.0 3 8 4 13 4 11 9 9 11 17
2170.0 18 20 31 25 31 22 29 22 24 26
2210.0 22 24 22 29 18 20 16 23 19 24
2250.0 27 20 24 23 28 24 29 33 34 31
2290.0 32 37 32 41 35 31 17 11 0 7
2330.0 16 17 24 14 41 0 0 0 4 54
2370.0 81 101 87 77 60 56 45 47 45 45
2410.0 49 50 54 53 58 51 54 49 49 46
2450.0 42 49 40 42 41 44 36 44 44 43
2490.0 51 48 55 52 56 54 59 67 74 83
2530.0 75 79 69 72 63 71 67 69 70 79
2570.0 79 86 92 95 100 96 98 87 79 78
2610.0 61 66 65 69 57 56 50 48 47 39
2650.0 39 34 48 39 34 27 31 29 37 47
2690.0 52 66 70 76 69 72 70 80 75 77
2730.0 88 92 117 120 127 126 114 101 95 99
2770.0 96 102 90 95 92 96 91 100 93 101
2810.0 95 96 103 108 125 120 135 158 176 196
2850.0 219 256 295 362 441 529 600 651 671 649
2890.0 625 573 541 526 542 539 597 674 807 1030
2930.0 1253 1406 1442 1363 1157 938 766 675 651 639
2970.0 663 679 712 706 706 732 764 819 914 1049
3010.0 1191 1262 1248 1247 1260 1411 1569 1625 1591 1384
3050.0 1135 1003 932 866 846 825 800 760 720 700
3090.0 669 646 604 536 440 367 293 253 233 214
3130.0 197 168 152 126 117 96 79 77 65 66
3170.0 56 61 42 47 36 38 38 36 39 41
3210.0 28 31 32 22 27 32 28 30 26 14
3250.0 27 16 14 35 15 28 27 34 32 33
3290.0 5 24 31 15 26 32 19 20 18 15
3330.0 18 26 27 35 19 35 32 31 41 60
3370.0 66 80 127 153 199 204 197 163 139 91
3410.0 62 44 37 40 41 44 43 49 34 44
3450.0 30 40 49 34 42 35 48 50 31 49
3490.0 37 50 48 31 38 48 37 34 29 32
3530.0 42 24 47 36 11 32 48 34 44 43
3570.0 36 42 20 15 8 26 37 26 37 35
3610.0 33 7 28 19 20 46 38 31 22 27
3650.0 52 51 52 53 8 58 46 81 39 38
3690.0 50 48 39 52 70 48 50 50 40 35
3730.0 38 53 50 55 122 87 82 45 49 73
3770.0 57 42 40 63 42 39 27 67 19 61
3810.0 34 103 67 55 34 72 56 36 78 68
3850.0 77 101 93 18 91 100 95 59 50 96
3890.0 35 77 27 32 57 79 55 55 41 33
3930.0 35 33 43 53 45 43 50 39 53 61
##END=
