##TITLE=2-Propanone, 1-(4-methoxyphenyl)-
##JCAMP-DX=4.24
##DATA TYPE=INFRARED SPECTRUM
##ORIGIN=Sadtler Research Labs Under US-EPA Contract
##OWNER=NIST Standard Reference Data Program
##CAS REGISTRY NO=122-84-9
##MOLFORM=C 10 H 12 O 2
##XUNITS=1/CM
##YUNITS=ABSORBANCE
##XFACTOR=1.0
##YFACTOR=0.000108408
##DELTAX=4.0
##FIRSTX=450.0
##LASTX=3966.0
##FIRSTY=0.009865
##MAXX=3966
##MINX=450
##MAXY=1.08408
##MINY=0
##NPOINTS=880
##XYDATA=(X++(Y..Y))
450.0 91 143 123 88 145 104 132 163 170 187
490.0 228 285 328 366 436 524 599 710 817 967
530.0 1082 1144 1048 889 653 510 418 358 335 295
570.0 287 316 336 410 451 503 535 484 423 348
610.0 282 215 173 150 109 102 108 110 91 86
650.0 69 72 43 53 38 12 47 34 47 42
690.0 47 53 76 111 126 124 105 98 99 104
730.0 107 143 178 238 316 384 407 382 354 339
770.0 380 444 514 557 561 536 500 491 493 526
810.0 580 668 807 1024 1261 1456 1505 1440 1246 1014
850.0 763 550 408 303 251 217 211 210 204 183
890.0 159 155 145 136 118 115 105 110 106 121
930.0 123 122 115 114 123 130 152 174 206 246
970.0 279 300 303 296 300 322 341 380 419 473
1010.0 559 635 715 833 1039 1377 1819 2279 2618 2646
1050.0 2317 1771 1214 841 648 525 451 418 406 420
1090.0 449 491 558 642 708 760 766 744 711 701
1130.0 743 843 1020 1272 1592 1863 2057 2062 1933 1984
1170.0 2494 3089 3274 2986 2125 1472 1242 1209 1322 1510
1210.0 1794 2148 2531 2834 3012 3141 3460 4314 5985 8342
1250.0 10000 9827 7835 5215 3596 2845 2472 2318 2287 2350
1290.0 2521 2685 2662 2363 1876 1387 1088 929 870 836
1330.0 802 778 733 809 964 1190 1495 1742 1785 1614
1370.0 1293 954 737 615 540 506 468 435 458 483
1410.0 500 598 613 756 822 912 912 992 1122 1140
1450.0 1093 1033 973 1173 1414 1434 1247 987 776 670
1490.0 723 1003 1585 2914 5261 8122 9130 7773 4688 2175
1530.0 1144 731 524 369 321 309 276 214 257 313
1570.0 359 453 614 754 879 943 1001 1142 1461 1839
1610.0 2153 2204 1920 1444 941 635 450 357 336 296
1650.0 239 214 263 254 264 279 286 386 402 473
1690.0 595 717 770 964 1247 1719 2350 3171 4235 5132
1730.0 5302 4733 3821 2966 2374 1951 1681 1397 1165 944
1770.0 736 549 467 356 298 227 200 184 145 161
1810.0 137 118 104 95 74 65 72 94 73 65
1850.0 93 105 102 107 104 97 139 150 154 139
1890.0 119 105 91 85 73 67 55 52 45 53
1930.0 58 53 57 39 51 56 62 57 65 52
1970.0 49 53 55 62 67 73 83 104 109 113
2010.0 111 103 94 98 102 102 106 103 105 111
2050.0 115 120 127 133 133 145 148 153 150 147
2090.0 130 114 92 76 62 52 52 44 44 40
2130.0 40 36 35 32 30 29 25 25 20 23
2170.0 22 20 21 22 24 22 24 24 22 24
2210.0 27 27 26 25 28 24 17 22 23 21
2250.0 22 24 28 29 31 33 37 39 41 43
2290.0 42 37 31 25 17 7 1 0 1 0
2330.0 0 0 2 0 14 0 0 0 0 0
2370.0 0 0 4 11 15 19 23 24 26 26
2410.0 28 31 33 39 42 46 39 36 31 30
2450.0 34 31 36 35 39 38 43 44 50 55
2490.0 57 64 67 69 61 61 56 60 60 64
2530.0 65 71 78 83 93 95 95 79 73 60
2570.0 52 49 52 52 52 51 51 55 54 52
2610.0 47 45 44 43 43 43 46 40 42 41
2650.0 39 32 30 28 25 29 29 37 40 45
2690.0 50 59 62 74 75 85 100 112 125 130
2730.0 130 123 114 102 92 87 80 81 80 84
2770.0 84 88 91 99 114 128 144 163 186 204
2810.0 234 261 291 327 388 475 620 880 1148 1260
2850.0 1182 928 685 553 478 457 459 487 528 577
2890.0 631 695 764 850 986 1181 1396 1554 1621 1593
2930.0 1533 1487 1556 1693 1770 1802 1771 1719 1638 1495
2970.0 1295 1096 940 843 807 842 945 1114 1414 1785
3010.0 1938 1800 1426 1043 885 877 952 1018 986 846
3050.0 663 536 467 444 467 508 546 549 510 442
3090.0 380 348 341 333 316 289 251 209 183 162
3130.0 143 128 108 89 83 70 63 62 56 50
3170.0 46 43 36 36 31 29 27 25 27 26
3210.0 20 22 20 19 14 14 18 18 15 15
3250.0 16 10 16 10 11 10 6 11 10 10
3290.0 10 11 12 11 11 12 13 9 10 12
3330.0 11 13 13 15 12 13 10 13 15 20
3370.0 13 18 16 15 11 11 18 17 23 26
3410.0 37 37 41 46 53 65 84 86 91 87
3450.0 60 53 44 41 40 33 35 34 23 21
3490.0 16 12 15 10 14 10 17 12 13 9
3530.0 2 13 8 10 7 8 22 24 13 23
3570.0 14 19 18 20 29 10 32 16 31 21
3610.0 32 39 34 37 25 31 25 16 29 30
3650.0 53 46 46 59 39 50 24 40 11 15
3690.0 14 9 9 15 5 23 9 8 13 7
3730.0 7 9 16 0 35 3 13 10 2 6
3770.0 0 0 2 7 10 8 0 14 10 26
3810.0 14 4 6 3 3 9 4 3 11 2
3850.0 27 8 0 15 11 0 12 17 14 19
3890.0 7 26 5 9 5 7 17 0 13 15
3930.0 23 12 11 6 4 20 17 11 3 0
##END=
