##TITLE=Acetic acid, phenoxy-
##JCAMP-DX=4.24
##DATA TYPE=INFRARED SPECTRUM
##ORIGIN=Sadtler Research Labs Under US-EPA Contract
##OWNER=NIST Standard Reference Data Program
##CAS REGISTRY NO=122-59-8
##MOLFORM=C 8 H 8 O 3
##XUNITS=1/CM
##YUNITS=ABSORBANCE
##XFACTOR=1.0
##YFACTOR=0.000099197
##DELTAX=4.0
##FIRSTX=450.0
##LASTX=3966.0
##FIRSTY=0.002182
##MAXX=3966
##MINX=450
##MAXY=0.99197
##MINY=0
##NPOINTS=880
##XYDATA=(X++(Y..Y))
450.0 22 14 5 58 145 274 335 497 553 621
490.0 653 662 653 695 736 778 827 862 929 983
530.0 1034 1058 1122 1226 1294 1381 1453 1497 1510 1458
570.0 1390 1353 1309 1317 1353 1399 1463 1560 1695 1861
610.0 1980 2144 2177 2185 2113 1973 1810 1672 1604 1504
650.0 1442 1393 1338 1333 1371 1481 1625 1787 1999 2203
690.0 2302 1985 1598 1243 943 717 538 445 405 428
730.0 581 841 1265 1812 2400 3034 3197 2874 2363 1804
770.0 1369 1108 1003 1027 1031 978 866 739 641 585
810.0 564 576 627 696 743 737 660 550 454 418
850.0 417 427 425 422 455 492 530 563 573 545
890.0 470 388 307 241 182 130 99 74 56 42
930.0 38 28 22 25 26 28 50 65 83 103
970.0 131 166 205 241 283 343 417 489 534 570
1010.0 594 626 710 809 929 1113 1349 1672 2096 2590
1050.0 3136 3657 4147 4580 4980 5340 5733 6063 6115 5693
1090.0 4913 3983 3122 2625 2615 2978 3661 4539 5280 5663
1130.0 5611 5075 4484 4158 4081 4165 4291 4431 4608 4734
1170.0 4696 4437 4033 3596 3316 3260 3460 3916 4575 5427
1210.0 6380 7278 8015 8614 8849 8720 8389 7726 6861 5921
1250.0 5088 4363 3819 3505 3325 3226 3171 3171 3151 3130
1290.0 3089 3004 2878 2774 2640 2507 2453 2541 2709 2966
1330.0 3274 3543 3730 3692 3524 3315 3070 2878 2679 2449
1370.0 2207 1975 1714 1526 1407 1320 1272 1241 1140 1054
1410.0 982 876 923 846 877 926 1089 1264 1443 1582
1450.0 1633 1606 1483 1235 1163 1228 1496 1884 2708 4504
1490.0 6775 8244 7965 6693 4239 2156 1266 925 826 656
1530.0 620 527 537 553 525 482 545 680 725 802
1570.0 1002 1247 1606 2134 2851 3925 5023 5705 5168 4036
1610.0 2621 1500 988 691 612 465 468 427 361 343
1650.0 375 362 302 279 305 339 387 359 462 517
1690.0 510 529 646 654 643 594 637 706 659 686
1730.0 822 1018 1112 1297 1521 1796 2058 2425 2891 3572
1770.0 4653 6091 7177 7797 7955 7426 7045 7471 8520 9496
1810.0 10000 9425 8031 6131 4283 2923 2103 1589 1302 1095
1850.0 892 726 605 498 413 360 257 202 162 132
1890.0 117 100 86 82 93 110 125 143 164 144
1930.0 139 138 137 142 127 91 70 45 28 33
1970.0 23 20 18 24 25 48 53 49 53 58
2010.0 53 51 49 36 25 20 19 23 26 31
2050.0 32 38 38 44 47 42 35 28 22 16
2090.0 16 11 13 9 9 9 9 7 3 6
2130.0 6 7 8 9 7 7 8 10 6 5
2170.0 7 8 10 5 7 9 7 4 5 7
2210.0 0 1 2 2 4 6 9 9 11 13
2250.0 11 14 16 20 21 30 39 47 52 53
2290.0 56 59 59 69 73 83 84 88 92 85
2330.0 78 85 89 69 106 62 97 71 88 76
2370.0 80 71 81 75 62 60 59 56 52 52
2410.0 52 53 53 57 58 57 60 63 63 60
2450.0 67 67 68 65 60 59 61 63 64 65
2490.0 70 70 66 65 64 69 66 70 70 67
2530.0 66 68 69 65 66 64 61 59 59 58
2570.0 55 52 50 47 40 38 36 41 37 41
2610.0 38 36 39 37 38 37 33 30 31 29
2650.0 27 28 28 30 31 32 33 35 32 35
2690.0 34 39 43 42 44 44 43 42 39 43
2730.0 40 37 39 42 41 46 48 49 55 59
2770.0 60 69 69 73 76 79 77 74 75 72
2810.0 77 75 79 87 96 102 105 125 136 156
2850.0 176 203 235 270 300 321 327 319 309 297
2890.0 300 308 335 366 413 474 546 635 725 824
2930.0 904 962 994 997 964 904 830 755 703 661
2970.0 614 564 494 417 353 311 279 254 249 258
3010.0 287 336 388 455 534 628 750 909 1084 1229
3050.0 1275 1242 1155 1074 1080 1175 1310 1418 1411 1319
3090.0 1185 1004 875 823 752 643 514 386 284 212
3130.0 161 138 120 104 99 93 90 87 86 79
3170.0 82 81 80 85 82 76 80 78 78 75
3210.0 75 75 83 79 77 81 83 79 79 83
3250.0 81 76 74 81 77 85 89 85 86 86
3290.0 87 83 83 83 82 80 83 85 80 81
3330.0 82 82 84 87 90 92 89 97 95 99
3370.0 103 103 106 112 114 119 117 119 123 117
3410.0 105 107 103 97 87 73 67 67 68 76
3450.0 79 80 83 89 91 98 106 114 145 171
3490.0 211 257 312 401 497 636 850 1131 1489 1752
3530.0 1775 1628 1343 1053 885 795 791 897 1200 1907
3570.0 2959 3881 4269 3910 2987 1865 1026 609 418 319
3610.0 283 220 190 149 111 137 89 66 47 54
3650.0 102 63 51 37 24 49 42 61 11 30
3690.0 48 30 20 33 22 36 50 35 31 53
3730.0 27 63 60 48 80 51 54 22 23 23
3770.0 22 10 6 32 22 15 12 35 34 36
3810.0 10 22 39 40 37 20 33 46 46 34
3850.0 32 71 42 41 49 50 38 32 44 50
3890.0 24 44 40 52 55 29 12 23 36 30
3930.0 31 42 32 35 55 36 21 28 22 36
##END=
