##TITLE=Fenitrothion
##JCAMP-DX=4.24
##DATA TYPE=INFRARED SPECTRUM
##ORIGIN=Sadtler Research Labs Under US-EPA Contract
##OWNER=NIST Standard Reference Data Program
##CAS REGISTRY NO=122-14-5
##MOLFORM=C 9 H 12 N O 5 P S
##XUNITS=1/CM
##YUNITS=ABSORBANCE
##XFACTOR=1.0
##YFACTOR=0.000106021
##DELTAX=4.0
##FIRSTX=450.0
##LASTX=3966.0
##FIRSTY=0.000000
##MAXX=3966
##MINX=450
##MAXY=1.06021
##MINY=0
##NPOINTS=880
##XYDATA=(X++(Y..Y))
450.0 0 170 124 325 391 267 327 317 357 289
490.0 354 305 288 276 282 282 263 334 270 300
530.0 225 298 248 274 303 293 348 371 442 410
570.0 492 501 586 585 633 657 711 757 699 753
610.0 773 836 805 799 754 747 760 808 829 736
650.0 672 561 530 424 401 380 372 385 424 505
690.0 578 644 669 678 717 815 1008 1190 1211 966
730.0 663 485 460 462 525 613 684 672 607 604
770.0 592 616 669 784 906 1098 1264 1428 1635 1954
810.0 2577 3755 5539 7895 8834 8300 6648 5844 5475 4922
850.0 4104 3185 2559 2309 2470 2856 3300 3638 3918 4086
890.0 3936 3364 2460 1684 1197 922 786 732 718 725
930.0 768 849 928 1066 1249 1504 1885 2593 3868 5797
970.0 7452 7438 5711 3899 2739 2195 1991 1988 2138 2464
1010.0 2989 3657 4260 4377 4208 4211 4763 5769 7102 8507
1050.0 9533 10000 9465 8819 7972 7444 6886 6181 5121 4007
1090.0 3127 2533 2182 1959 1800 1698 1590 1496 1400 1316
1130.0 1257 1233 1299 1427 1591 1777 2225 3005 3561 3226
1170.0 2385 1852 1732 1779 1841 1832 1744 1623 1495 1418
1210.0 1387 1419 1549 1834 2387 3390 4928 6555 6972 5622
1250.0 3801 2679 2346 2504 3001 3299 3035 2524 2211 2131
1290.0 2120 2115 2044 1903 1701 1493 1353 1245 1200 1201
1330.0 1298 1498 1900 2628 3709 4946 5786 5315 3905 2486
1370.0 1636 1220 1034 975 979 972 970 921 902 878
1410.0 877 836 827 795 800 843 879 954 1027 1139
1450.0 1226 1284 1294 1259 1318 1443 1852 2474 3238 3892
1490.0 3539 2808 2224 1944 1919 2028 2166 2468 2869 3513
1530.0 4201 4857 5312 5151 4695 3951 3290 2971 2591 2544
1570.0 2558 2790 3076 3753 3821 3665 2882 2302 2041 2038
1610.0 2295 2401 2366 1895 1525 1062 840 669 533 474
1650.0 407 404 339 318 302 297 293 259 295 274
1690.0 272 257 285 271 253 249 241 260 219 224
1730.0 221 243 229 242 245 250 250 232 254 240
1770.0 263 248 239 230 214 212 210 208 199 204
1810.0 196 201 191 196 197 197 203 198 215 221
1850.0 231 226 243 247 264 280 278 294 297 312
1890.0 308 305 286 273 260 241 227 212 208 190
1930.0 186 177 175 176 177 173 172 176 167 172
1970.0 158 159 150 151 150 154 154 147 150 140
2010.0 145 142 149 143 145 144 141 148 147 150
2050.0 145 150 145 148 147 147 145 141 145 141
2090.0 146 143 151 147 150 151 150 152 149 154
2130.0 144 146 142 143 134 137 138 137 139 136
2170.0 140 134 139 133 135 136 138 141 141 147
2210.0 146 148 143 144 140 138 138 136 136 135
2250.0 138 133 135 135 137 135 137 142 141 148
2290.0 147 151 146 153 153 155 157 151 150 141
2330.0 148 142 150 138 158 158 147 154 143 146
2370.0 152 164 165 169 165 166 164 167 169 164
2410.0 166 162 167 165 171 172 172 167 159 156
2450.0 149 149 148 147 143 143 145 146 149 147
2490.0 151 148 156 151 152 150 149 145 145 147
2530.0 145 147 150 158 154 162 164 162 163 161
2570.0 164 158 159 153 154 152 158 155 153 155
2610.0 153 154 151 156 155 156 155 155 154 153
2650.0 157 153 154 151 157 156 157 155 153 157
2690.0 157 162 161 163 158 159 154 158 156 154
2730.0 157 158 163 160 169 163 169 170 169 164
2770.0 163 162 159 162 163 168 170 176 180 184
2810.0 190 198 214 225 244 262 285 311 350 415
2850.0 513 673 820 859 756 632 548 505 481 462
2890.0 454 446 454 462 487 517 549 565 572 598
2930.0 637 696 796 934 1102 1309 1589 1944 2118 1916
2970.0 1478 1115 917 833 818 831 844 826 799 743
3010.0 701 671 652 648 629 605 560 514 465 432
3050.0 405 390 382 372 377 382 382 384 375 365
3090.0 351 325 299 279 265 255 243 239 218 206
3130.0 204 196 189 185 176 170 169 161 157 154
3170.0 152 152 148 150 146 151 147 151 147 148
3210.0 144 148 143 136 140 140 145 136 140 142
3250.0 137 143 140 141 141 148 137 142 141 141
3290.0 143 145 145 141 145 142 146 139 144 143
3330.0 145 144 145 149 142 149 145 148 149 147
3370.0 148 143 148 142 145 144 150 143 144 146
3410.0 145 151 145 146 147 146 148 149 145 148
3450.0 147 148 144 147 148 148 150 147 148 145
3490.0 148 146 147 144 137 144 145 149 143 141
3530.0 147 144 149 145 141 143 147 141 155 132
3570.0 139 149 149 151 137 145 135 143 145 150
3610.0 143 151 150 144 170 181 234 318 428 504
3650.0 490 450 393 247 199 165 172 155 166 152
3690.0 143 149 148 146 144 147 148 147 150 147
3730.0 150 145 151 156 133 162 145 161 157 157
3770.0 159 157 150 156 156 150 150 145 159 149
3810.0 168 147 162 146 153 155 149 163 149 154
3850.0 154 157 154 161 146 146 157 157 144 144
3890.0 161 159 170 151 155 165 159 166 164 154
3930.0 161 148 155 165 154 147 161 162 167 167
##END=
