##TITLE=Oxirane, (phenoxymethyl)-
##JCAMP-DX=4.24
##DATA TYPE=INFRARED SPECTRUM
##ORIGIN=Sadtler Research Labs Under US-EPA Contract
##OWNER=NIST Standard Reference Data Program
##CAS REGISTRY NO=122-60-1
##MOLFORM=C 9 H 10 O 2
##XUNITS=1/CM
##YUNITS=ABSORBANCE
##XFACTOR=1.0
##YFACTOR=0.000084082
##DELTAX=4.0
##FIRSTX=450.0
##LASTX=3966.0
##FIRSTY=0.000000
##MAXX=3966
##MINX=450
##MAXY=0.84082
##MINY=0
##NPOINTS=880
##XYDATA=(X++(Y..Y))
450.0 0 134 246 186 211 166 225 193 282 315
490.0 446 432 515 531 521 461 411 471 410 410
530.0 337 340 278 254 251 211 246 254 294 254
570.0 279 259 249 212 267 262 223 182 149 112
610.0 73 52 109 217 180 201 102 102 107 122
650.0 121 149 216 278 339 563 718 1038 1321 1698
690.0 2000 1751 1473 1122 819 617 474 419 406 507
730.0 695 1051 1479 2011 2617 3189 3204 2874 2447 2009
770.0 1636 1400 1219 1159 1018 934 893 889 929 1002
810.0 1062 1128 1217 1290 1328 1385 1434 1497 1571 1631
850.0 1619 1525 1356 1132 939 794 726 713 712 716
890.0 709 706 721 779 864 961 1018 1025 988 878
930.0 769 683 607 556 533 531 578 641 701 740
970.0 752 729 695 695 718 792 867 936 971 986
1010.0 1001 1126 1304 1647 2050 2577 3194 3747 4164 4142
1050.0 3630 2946 2239 1710 1478 1426 1416 1404 1326 1177
1090.0 1018 858 767 695 648 609 586 558 555 578
1130.0 769 798 699 654 699 822 935 1116 1383 1693
1170.0 1899 1875 1687 1359 1244 1297 1501 1797 2221 2998
1210.0 3983 5357 6266 7123 7488 7804 8407 9318 10000 9753
1250.0 8589 6573 4863 3768 3087 2667 2465 2401 2379 2340
1290.0 2312 2297 2194 2009 1675 1304 1036 873 763 746
1330.0 780 810 869 887 872 908 943 935 926 839
1370.0 758 736 714 668 653 594 560 531 478 462
1410.0 467 450 520 487 472 452 491 519 554 666
1450.0 830 1038 1298 1396 1511 1597 1786 1968 2438 3736
1490.0 5825 7620 7792 6696 4300 2211 1179 775 611 466
1530.0 383 358 358 420 383 379 420 540 590 648
1570.0 847 1079 1454 1996 2731 3742 4841 5905 5542 4638
1610.0 3076 1798 1048 677 506 361 319 284 212 212
1650.0 227 245 178 157 169 177 205 174 225 264
1690.0 236 247 338 360 341 321 334 397 349 378
1730.0 489 601 590 570 555 515 443 390 372 328
1770.0 319 282 208 182 153 140 136 112 120 94
1810.0 93 101 98 114 141 162 154 146 165 184
1850.0 155 128 126 107 101 106 70 53 54 53
1890.0 63 61 65 82 99 130 153 177 201 192
1930.0 194 191 193 195 176 137 114 86 83 86
1970.0 90 90 94 102 105 126 134 134 134 139
2010.0 135 142 144 146 145 149 160 164 166 158
2050.0 156 156 157 159 174 169 164 160 149 140
2090.0 133 123 118 111 100 94 83 80 80 76
2130.0 76 66 66 62 53 51 55 53 55 54
2170.0 56 59 55 55 54 52 50 51 52 53
2210.0 53 53 57 59 62 59 67 73 74 80
2250.0 87 94 97 98 99 98 96 98 97 99
2290.0 95 91 88 86 90 93 92 83 80 70
2330.0 80 76 73 82 84 71 50 63 70 83
2370.0 103 108 108 102 98 91 86 85 88 88
2410.0 89 89 92 94 96 99 100 98 92 93
2450.0 93 91 87 90 84 85 85 85 91 89
2490.0 93 83 71 73 69 69 70 78 78 77
2530.0 81 87 86 92 91 88 79 80 75 71
2570.0 67 63 60 54 57 59 56 63 70 69
2610.0 67 79 76 73 69 66 63 64 65 63
2650.0 63 59 57 55 52 59 58 60 60 61
2690.0 60 64 69 76 85 94 102 113 125 130
2730.0 135 128 133 134 134 136 137 134 137 138
2770.0 137 140 136 141 147 150 149 151 159 170
2810.0 186 195 210 226 242 249 254 262 270 289
2850.0 309 346 392 447 524 605 695 770 823 847
2890.0 837 825 801 802 822 875 953 1050 1172 1318
2930.0 1455 1514 1497 1402 1263 1137 1044 984 947 936
2970.0 943 965 985 1005 1011 1039 1091 1177 1280 1371
3010.0 1423 1390 1306 1210 1151 1166 1267 1445 1718 2017
3050.0 2230 2254 2130 1954 1861 1810 1827 1823 1660 1468
3090.0 1223 997 895 851 782 674 538 406 295 211
3130.0 169 139 121 106 92 99 97 99 95 80
3170.0 83 88 87 86 95 88 92 86 91 91
3210.0 90 97 90 92 90 89 102 98 91 98
3250.0 97 93 95 91 88 89 99 89 86 97
3290.0 98 95 90 89 93 88 100 89 89 105
3330.0 94 100 110 104 96 97 107 101 104 107
3370.0 96 93 96 102 94 98 111 94 107 107
3410.0 112 106 109 104 106 119 114 92 103 108
3450.0 103 114 125 117 121 121 110 109 106 94
3490.0 97 102 94 107 96 97 102 106 99 83
3530.0 77 96 107 95 103 109 106 96 99 98
3570.0 102 112 126 122 117 115 143 170 152 173
3610.0 180 190 191 175 194 200 183 182 186 210
3650.0 220 212 190 171 172 148 128 98 74 75
3690.0 58 80 54 65 51 63 50 51 52 58
3730.0 50 50 58 61 72 50 61 79 50 50
3770.0 50 50 53 80 62 56 50 50 66 85
3810.0 54 70 89 76 57 79 62 57 49 70
3850.0 87 68 59 59 59 58 50 50 52 50
3890.0 50 50 55 62 58 49 52 50 50 50
3930.0 50 50 50 54 51 50 50 50 50 53
##END=
