##TITLE=Acetic acid, phenyl ester
##JCAMP-DX=4.24
##DATA TYPE=INFRARED SPECTRUM
##ORIGIN=Sadtler Research Labs Under US-EPA Contract
##OWNER=NIST Standard Reference Data Program
##CAS REGISTRY NO=122-79-2
##MOLFORM=C 8 H 8 O 2
##XUNITS=1/CM
##YUNITS=ABSORBANCE
##XFACTOR=1.0
##YFACTOR=0.000054422
##DELTAX=4.0
##FIRSTX=450.0
##LASTX=3966.0
##FIRSTY=0.000000
##MAXX=3966
##MINX=450
##MAXY=0.54422
##MINY=0
##NPOINTS=880
##XYDATA=(X++(Y..Y))
450.0 0 372 429 516 564 544 418 521 243 742
490.0 688 746 649 656 727 642 632 582 763 654
530.0 860 712 864 611 552 540 447 518 466 614
570.0 461 567 477 568 536 575 629 540 624 501
610.0 549 509 583 481 548 568 447 500 477 639
650.0 551 682 633 713 687 800 828 823 977 1055
690.0 1163 976 946 791 725 653 611 605 612 739
730.0 688 828 846 1040 1091 1112 966 829 776 669
770.0 681 582 639 572 678 679 554 715 666 754
810.0 759 776 719 706 629 615 604 549 553 498
850.0 578 502 569 562 615 590 636 708 752 787
890.0 757 803 722 748 759 878 1006 1087 1124 1025
930.0 887 729 647 549 549 522 507 511 511 535
970.0 520 576 555 595 597 668 720 835 962 1028
1010.0 1079 1023 1020 972 910 848 814 691 619 643
1050.0 629 684 699 753 753 790 789 785 752 715
1090.0 686 623 625 577 576 555 551 554 544 580
1130.0 593 635 689 755 804 912 1062 1303 1417 1523
1170.0 1597 1678 1964 2568 3506 4798 6457 8045 9217 10000
1210.0 9363 7739 6266 4360 2585 1794 1389 1184 1115 1091
1250.0 1135 1095 1097 1028 980 878 768 670 630 614
1290.0 600 613 589 610 599 612 585 580 574 562
1330.0 594 590 601 586 611 612 664 747 952 1244
1370.0 1483 1657 1601 1366 1044 812 675 610 569 539
1410.0 543 520 547 533 556 551 571 568 575 591
1450.0 585 625 644 690 706 744 761 802 926 1250
1490.0 1669 1753 1737 1500 1048 763 682 595 590 565
1530.0 566 577 577 586 558 560 538 548 533 527
1570.0 543 546 588 663 804 1024 1271 1364 1325 1084
1610.0 820 663 561 522 481 462 447 453 443 445
1650.0 459 449 449 431 451 441 455 449 460 464
1690.0 464 470 468 488 489 509 515 533 531 557
1730.0 601 642 677 714 781 814 900 1000 1147 1355
1770.0 1639 1987 2308 2611 2839 2871 2583 2309 1940 1552
1810.0 1239 1006 851 718 641 580 552 512 505 483
1850.0 454 451 443 443 423 439 420 418 412 416
1890.0 411 392 411 409 409 395 415 412 424 429
1930.0 426 428 426 431 422 429 415 423 399 399
1970.0 396 386 400 391 402 390 411 413 423 430
2010.0 438 440 440 438 430 440 425 432 423 437
2050.0 435 417 418 413 421 409 422 414 411 396
2090.0 399 394 363 378 374 381 374 378 376 375
2130.0 378 363 368 357 358 347 357 344 357 348
2170.0 353 355 346 356 350 361 345 351 359 353
2210.0 357 358 360 343 352 349 357 342 350 347
2250.0 349 355 352 357 345 354 347 356 352 359
2290.0 360 364 361 348 356 342 335 318 325 311
2330.0 326 313 334 351 331 340 282 318 302 349
2370.0 403 404 401 386 390 369 383 375 378 378
2410.0 371 371 362 367 347 354 351 356 353 353
2450.0 360 355 360 345 349 344 355 343 346 344
2490.0 355 355 341 349 348 350 345 353 345 349
2530.0 353 342 343 343 353 342 344 349 348 344
2570.0 354 366 348 352 354 351 339 334 333 328
2610.0 323 310 308 303 300 294 304 306 306 296
2650.0 283 286 284 295 314 336 342 350 350 355
2690.0 338 351 370 359 358 352 358 359 366 356
2730.0 357 363 364 363 366 367 364 374 373 369
2770.0 374 372 372 356 371 376 366 362 367 369
2810.0 364 373 360 346 357 358 354 360 358 358
2850.0 364 357 368 370 368 365 374 377 379 367
2890.0 365 374 354 375 366 364 363 368 346 358
2930.0 387 373 386 373 402 398 408 420 390 402
2970.0 378 392 383 392 375 398 384 400 398 409
3010.0 401 401 434 443 492 512 563 584 636 672
3050.0 689 718 703 683 643 653 673 701 715 726
3090.0 694 646 619 558 540 511 488 436 414 370
3130.0 361 369 352 373 348 364 351 360 340 344
3170.0 341 326 346 330 342 345 340 307 326 342
3210.0 344 328 313 351 316 336 344 349 342 345
3250.0 335 348 312 341 329 359 359 331 346 356
3290.0 348 349 335 363 349 379 376 338 324 342
3330.0 342 353 363 354 365 331 356 366 342 342
3370.0 351 326 344 376 341 339 325 364 339 360
3410.0 323 331 330 370 371 337 356 343 380 345
3450.0 365 333 355 353 307 358 352 358 354 321
3490.0 348 347 325 297 350 347 356 357 342 381
3530.0 388 356 370 362 364 368 365 342 381 392
3570.0 395 378 349 367 394 339 381 332 289 332
3610.0 318 330 318 359 317 361 369 374 432 482
3650.0 462 434 457 464 410 364 354 343 316 315
3690.0 340 320 348 316 310 294 307 340 320 327
3730.0 294 311 342 314 339 297 301 281 294 342
3770.0 360 329 303 325 303 279 295 344 306 306
3810.0 342 323 360 342 284 323 316 328 306 338
3850.0 311 343 358 380 282 291 314 310 279 285
3890.0 318 280 314 340 334 322 298 331 349 354
3930.0 337 324 279 292 380 341 350 358 369 365
##END=
