##TITLE=2-Butanone, 4-(4-hydroxy-3-methoxyphenyl)-
##JCAMP-DX=4.24
##DATA TYPE=INFRARED SPECTRUM
##ORIGIN=Sadtler Research Labs Under US-EPA Contract
##OWNER=NIST Standard Reference Data Program
##CAS REGISTRY NO=122-48-5
##MOLFORM=C 11 H 14 O 3
##XUNITS=1/CM
##YUNITS=ABSORBANCE
##XFACTOR=1.0
##YFACTOR=0.000050241
##DELTAX=4.0
##FIRSTX=450.0
##LASTX=3966.0
##FIRSTY=0.041901
##MAXX=3966
##MINX=450
##MAXY=0.50241
##MINY=0
##NPOINTS=880
##XYDATA=(X++(Y..Y))
450.0 834 1026 553 450 233 553 927 704 268 405
490.0 74 316 408 233 218 180 418 347 325 642
530.0 433 621 608 332 521 653 713 775 675 520
570.0 353 503 209 494 235 223 446 423 176 232
610.0 269 103 254 419 511 429 364 371 311 302
650.0 260 143 250 33 145 269 39 181 163 122
690.0 302 182 273 126 141 273 232 310 270 151
730.0 392 8 193 729 1185 249 573 354 307 549
770.0 519 735 998 1280 1644 1790 1793 1683 1548 1728
810.0 1769 1758 1542 1098 812 745 605 538 525 564
850.0 498 661 756 632 633 573 462 478 580 527
890.0 401 433 511 383 568 550 617 580 561 641
930.0 527 617 564 601 462 459 476 507 434 468
970.0 463 527 442 487 432 454 447 462 583 628
1010.0 831 835 1193 1448 1792 2070 2232 2305 2263 1936
1050.0 1525 1127 816 618 533 500 429 409 486 418
1090.0 493 504 584 659 900 1224 1744 2105 2312 2301
1130.0 2147 2113 2370 2885 3516 3978 4155 3899 3497 3037
1170.0 2619 2437 2456 2542 2733 2874 3114 3517 3948 4243
1210.0 4443 4228 3900 3814 4044 4641 5257 5586 5617 5348
1250.0 5020 5074 5777 6871 8063 8686 8292 6911 5259 3699
1290.0 2585 1949 1494 1206 1086 993 973 979 1012 1154
1330.0 1319 1498 1695 1891 2076 2469 2980 3466 3893 4032
1370.0 3560 2915 2279 1815 1270 1047 812 774 853 802
1410.0 959 995 1274 1511 1858 2280 2370 2291 1955 1743
1450.0 1688 1743 1776 1914 1867 1962 1710 1592 1404 1343
1490.0 1532 1752 2690 3950 5645 8930 9813 10000 6950 4067
1530.0 2243 1247 928 446 500 490 380 295 178 382
1570.0 327 286 407 395 610 705 909 1136 1351 1446
1610.0 1389 1284 979 863 629 458 304 228 220 247
1650.0 62 59 229 236 293 239 282 373 443 418
1690.0 652 767 812 938 1222 1589 1863 2373 3065 3872
1730.0 4657 4517 4176 3219 2322 1699 1318 1048 828 684
1770.0 521 384 385 328 310 233 223 194 214 183
1810.0 179 147 132 132 78 73 87 137 99 96
1850.0 146 149 150 169 127 101 97 107 81 90
1890.0 58 68 70 67 52 66 51 68 35 68
1930.0 62 62 74 46 65 64 55 66 47 59
1970.0 50 54 52 45 62 46 45 52 57 59
2010.0 55 63 59 64 78 82 81 93 102 112
2050.0 116 124 127 119 125 119 107 96 89 78
2090.0 70 60 57 46 47 44 40 41 42 30
2130.0 31 31 41 33 36 45 49 54 51 51
2170.0 52 48 46 46 50 44 38 46 31 27
2210.0 27 28 22 22 22 17 20 30 20 24
2250.0 31 28 39 39 51 53 57 68 71 86
2290.0 114 114 146 155 167 192 173 150 150 119
2330.0 86 90 103 53 159 114 167 109 152 107
2370.0 109 93 108 128 92 64 52 49 49 51
2410.0 46 51 49 45 33 32 31 39 34 34
2450.0 34 45 45 50 52 59 51 64 56 75
2490.0 77 77 83 81 77 88 75 78 79 78
2530.0 81 71 69 69 67 73 61 54 62 52
2570.0 53 36 59 52 45 54 49 50 56 65
2610.0 74 65 75 68 77 85 85 84 86 79
2650.0 79 69 73 75 61 69 67 51 56 57
2690.0 58 68 66 61 56 61 68 74 79 88
2730.0 86 81 86 87 88 102 101 93 102 121
2770.0 123 117 127 131 139 141 147 172 185 202
2810.0 226 248 275 292 322 370 435 525 657 794
2850.0 921 964 962 910 833 797 772 755 760 789
2890.0 863 941 1022 1098 1191 1274 1393 1514 1652 1781
2930.0 1893 1973 2033 2097 2178 2230 2271 2238 2146 2003
2970.0 1743 1460 1203 1001 880 842 879 948 1151 1389
3010.0 1534 1462 1229 964 840 812 836 856 846 840
3050.0 824 792 758 726 686 654 579 477 410 344
3090.0 291 256 234 211 202 184 192 191 184 159
3130.0 165 153 143 137 128 127 112 97 111 101
3170.0 95 104 88 98 101 95 84 93 93 85
3210.0 83 87 71 87 73 98 86 78 83 73
3250.0 74 77 68 84 85 91 92 85 111 93
3290.0 93 87 82 87 85 90 84 84 79 76
3330.0 96 89 78 83 88 102 86 89 103 90
3370.0 90 104 91 98 95 106 108 102 114 107
3410.0 122 109 104 133 138 143 147 123 134 160
3450.0 163 155 138 126 110 124 111 107 105 81
3490.0 114 98 108 106 125 76 108 101 139 147
3530.0 119 130 151 136 179 222 216 241 359 385
3570.0 681 978 1610 2547 3603 4323 4220 3428 2182 1343
3610.0 711 445 257 239 201 168 152 212 168 225
3650.0 199 318 250 205 198 62 141 0 167 133
3690.0 77 119 147 150 131 93 140 164 166 124
3730.0 197 118 79 218 29 171 42 219 136 124
3770.0 190 136 229 167 170 211 150 237 92 176
3810.0 212 160 182 54 175 199 146 118 61 248
3850.0 117 147 106 164 235 132 190 178 264 122
3890.0 235 197 202 184 162 152 205 268 120 192
3930.0 147 169 151 192 251 181 184 157 180 212
##END=
