##TITLE=Ethanol, 2-phenoxy-
##JCAMP-DX=4.24
##DATA TYPE=INFRARED SPECTRUM
##ORIGIN=Sadtler Research Labs Under US-EPA Contract
##OWNER=NIST Standard Reference Data Program
##CAS REGISTRY NO=122-99-6
##MOLFORM=C 8 H 10 O 2
##XUNITS=1/CM
##YUNITS=ABSORBANCE
##XFACTOR=1.0
##YFACTOR=0.000076001
##DELTAX=4.0
##FIRSTX=450.0
##LASTX=3966.0
##FIRSTY=0.003268
##MAXX=3966
##MINX=450
##MAXY=0.76001
##MINY=0
##NPOINTS=880
##XYDATA=(X++(Y..Y))
450.0 43 21 42 61 67 76 98 113 131 196
490.0 277 324 353 425 417 365 284 236 170 138
530.0 116 91 49 74 62 75 73 62 96 101
570.0 120 128 121 135 141 111 174 215 229 209
610.0 177 120 59 62 37 1 46 39 25 34
650.0 50 74 74 143 222 418 558 807 1053 1268
690.0 1500 1200 970 722 490 305 202 171 210 308
730.0 491 745 1142 1552 1931 2276 2293 1975 1657 1286
770.0 979 792 631 594 590 533 452 364 279 237
810.0 214 195 169 146 113 106 73 80 79 93
850.0 126 150 206 268 350 417 494 607 734 851
890.0 1001 1132 1220 1299 1355 1328 1156 943 665 432
930.0 309 246 205 185 178 166 156 158 146 148
970.0 143 162 174 205 233 272 340 394 456 524
1010.0 615 755 955 1269 1752 2467 3352 4272 4921 5026
1050.0 4529 3737 2968 2435 2248 2307 2447 2561 2536 2401
1090.0 2133 1807 1474 1174 925 746 593 474 399 354
1130.0 324 318 320 344 393 482 557 713 986 1243
1170.0 1331 1270 1087 781 706 822 1025 1275 1578 1941
1210.0 2327 2774 3192 3599 4124 4869 6183 8131 9831 10000
1250.0 8669 6432 3956 2700 2123 1856 1768 1797 1828 1847
1290.0 1899 1936 1855 1660 1364 959 700 597 567 586
1330.0 637 668 707 684 629 611 632 702 877 1101
1370.0 1231 1246 1140 902 729 660 653 657 632 595
1410.0 543 450 429 333 288 252 273 287 315 415
1450.0 656 1167 1735 1784 1821 1540 1239 1272 1614 2440
1490.0 4016 5657 5881 5174 3578 1642 737 475 398 296
1530.0 265 231 235 252 232 201 230 310 316 358
1570.0 472 627 875 1272 1873 2715 3720 4571 4521 3729
1610.0 2570 1477 776 404 281 178 168 137 101 101
1650.0 121 126 80 66 72 74 91 65 115 136
1690.0 102 104 155 143 107 75 86 121 58 34
1730.0 46 89 44 43 60 79 83 103 122 117
1770.0 128 112 74 63 54 54 57 49 64 28
1810.0 33 42 35 48 66 88 83 79 89 103
1850.0 88 57 61 48 43 49 22 10 12 17
1890.0 25 30 34 46 61 82 105 126 139 130
1930.0 139 140 146 153 133 104 78 65 55 54
1970.0 58 56 56 56 56 71 67 55 50 51
2010.0 51 59 61 61 71 77 77 78 78 58
2050.0 45 47 45 48 50 47 47 47 48 41
2090.0 49 46 49 46 42 38 36 28 24 28
2130.0 28 22 22 23 24 16 18 10 10 12
2170.0 12 4 6 6 6 5 5 5 0 0
2210.0 4 4 1 1 0 0 7 6 13 13
2250.0 20 20 20 22 22 27 26 26 26 24
2290.0 28 20 18 25 22 24 20 14 21 21
2330.0 23 7 9 6 2 11 27 24 6 9
2370.0 15 5 15 22 26 35 37 38 38 38
2410.0 39 39 39 39 39 39 39 43 40 44
2450.0 47 52 52 53 52 52 59 59 61 69
2490.0 66 60 48 47 40 40 40 46 47 54
2530.0 54 64 59 66 70 63 54 42 28 27
2570.0 22 22 15 15 15 13 12 19 30 27
2610.0 27 28 29 37 29 36 36 28 25 29
2650.0 37 37 29 29 31 29 24 23 23 30
2690.0 30 37 43 41 48 51 55 69 83 89
2730.0 96 98 110 98 82 82 74 75 72 66
2770.0 71 78 84 85 91 99 98 110 105 105
2810.0 112 123 121 136 143 169 177 190 217 252
2850.0 288 360 437 547 691 865 1060 1236 1391 1446
2890.0 1397 1282 1160 1047 991 987 1036 1146 1320 1505
2930.0 1726 1909 2005 2023 1958 1891 1831 1791 1762 1676
2970.0 1509 1330 1063 814 608 450 329 253 199 180
3010.0 189 203 247 303 378 462 569 703 891 1031
3050.0 1039 993 870 754 796 895 1025 1104 1053 988
3090.0 860 689 604 581 556 481 380 272 172 116
3130.0 57 30 21 18 11 12 10 7 6 6
3170.0 5 12 14 14 9 4 20 11 9 6
3210.0 12 12 12 12 12 0 5 15 15 15
3250.0 16 11 5 12 13 14 6 12 10 13
3290.0 13 21 15 16 15 15 18 15 13 14
3330.0 8 13 12 13 4 12 14 19 13 13
3370.0 8 20 20 27 25 14 23 21 24 25
3410.0 20 19 28 14 14 20 21 21 21 15
3450.0 20 27 34 26 35 31 34 23 19 28
3490.0 35 41 28 42 29 39 47 53 49 49
3530.0 55 49 53 48 42 47 27 41 40 41
3570.0 37 37 45 56 65 61 72 85 105 105
3610.0 117 133 172 231 314 446 617 802 842 850
3650.0 740 598 504 454 420 387 353 324 279 240
3690.0 204 165 133 108 75 62 76 69 62 56
3730.0 56 47 48 40 58 50 58 59 54 61
3770.0 62 43 44 38 36 37 44 41 42 42
3810.0 29 30 41 42 37 31 27 22 24 26
3850.0 28 30 31 34 38 33 34 43 35 33
3890.0 26 33 27 30 34 30 33 35 31 33
3930.0 29 33 36 30 35 38 33 37 35 41
##END=
