##TITLE=Diphenylamine
##JCAMP-DX=4.24
##DATA TYPE=INFRARED SPECTRUM
##ORIGIN=Sadtler Research Labs Under US-EPA Contract
##OWNER=NIST Standard Reference Data Program
##CAS REGISTRY NO=122-39-4
##MOLFORM=C 12 H 11 N
##XUNITS=1/CM
##YUNITS=ABSORBANCE
##XFACTOR=1.0
##YFACTOR=0.000399698
##DELTAX=4.0
##FIRSTX=450.0
##LASTX=3966.0
##FIRSTY=0.059555
##MAXX=3966
##MINX=450
##MAXY=3.99698
##MINY=0
##NPOINTS=880
##XYDATA=(X++(Y..Y))
450.0 149 106 133 160 163 193 226 242 259 244
490.0 256 232 199 176 121 94 66 51 31 29
530.0 28 37 26 38 29 31 28 40 78 110
570.0 112 87 78 60 0 57 35 48 41 63
610.0 61 68 69 68 72 74 80 83 104 110
650.0 124 143 161 209 230 322 437 577 804 1034
690.0 1318 1266 1204 1000 796 618 506 453 448 520
730.0 677 956 1255 1594 1732 1617 1295 942 637 425
770.0 293 224 176 150 114 98 78 66 58 46
810.0 48 31 43 34 34 28 34 34 34 51
850.0 57 80 117 187 239 270 242 195 141 109
890.0 95 72 60 43 40 28 26 20 15 12
930.0 8 15 2 12 9 15 14 21 28 29
970.0 37 35 40 26 34 31 51 63 63 57
1010.0 34 41 74 181 252 250 186 87 34 25
1050.0 28 35 61 81 120 141 155 138 121 92
1090.0 64 55 40 43 35 37 25 18 11 9
1130.0 8 6 17 18 37 44 61 68 87 124
1170.0 170 212 219 201 153 130 117 121 121 126
1210.0 127 126 137 146 169 204 288 405 525 572
1250.0 552 466 423 430 469 571 678 861 1109 1461
1290.0 1812 2289 2619 2878 2562 2169 1574 1109 786 623
1330.0 572 525 606 523 394 348 288 290 288 239
1370.0 195 244 196 141 198 178 252 351 394 509
1410.0 721 592 747 407 293 172 244 255 203 256
1450.0 345 434 611 448 440 428 669 658 879 1594
1490.0 2418 4222 4925 10000 4705 3124 2602 1332 1108 638
1530.0 643 488 523 669 560 450 485 707 634 609
1570.0 713 828 1103 1701 2361 3822 4141 4722 3394 2647
1610.0 1553 925 756 500 509 322 402 385 276 282
1650.0 371 344 176 140 147 164 241 98 264 279
1690.0 173 135 322 298 229 135 199 334 141 78
1730.0 146 287 149 132 184 232 152 140 161 114
1770.0 207 229 133 147 114 140 156 133 170 87
1810.0 95 104 69 89 115 143 107 68 133 175
1850.0 114 60 78 74 101 149 61 48 40 55
1890.0 72 68 57 61 80 91 112 124 161 120
1930.0 109 107 95 126 94 52 34 35 17 41
1970.0 28 18 14 14 12 43 41 17 15 11
2010.0 9 20 31 21 14 17 11 23 28 21
2050.0 15 20 12 18 32 14 17 17 23 20
2090.0 29 21 18 18 14 17 14 15 12 12
2130.0 9 9 8 6 6 6 6 3 6 3
2170.0 6 5 6 8 3 5 5 5 2 5
2210.0 2 2 2 3 3 2 5 2 5 3
2250.0 6 3 5 2 2 2 2 3 2 5
2290.0 2 3 3 8 12 9 14 11 14 8
2330.0 12 8 8 8 9 9 8 8 2 5
2370.0 2 5 3 6 8 8 11 11 12 12
2410.0 14 11 11 11 11 11 8 11 9 12
2450.0 12 15 15 20 23 25 28 29 34 31
2490.0 34 31 35 37 43 48 52 58 58 58
2530.0 54 52 48 43 40 37 34 28 25 18
2570.0 14 11 12 9 12 11 11 12 9 12
2610.0 9 14 14 17 14 17 18 15 15 12
2650.0 14 9 8 5 5 6 3 5 3 5
2690.0 3 5 5 8 9 11 12 12 15 14
2730.0 15 12 14 12 14 11 11 11 9 11
2770.0 9 11 11 11 11 11 11 11 14 12
2810.0 15 14 15 17 18 18 15 20 17 17
2850.0 14 17 17 17 17 20 18 15 20 20
2890.0 23 21 26 25 28 29 29 28 28 28
2930.0 25 25 21 21 23 21 21 21 25 23
2970.0 25 26 34 34 40 49 64 81 110 155
3010.0 213 293 373 456 520 577 632 692 766 835
3050.0 904 936 944 917 876 845 822 802 770 726
3090.0 660 585 499 417 338 268 206 152 109 77
3130.0 55 37 32 23 17 14 14 8 5 5
3170.0 6 8 5 5 5 8 5 5 9 5
3210.0 8 2 5 5 5 5 3 3 5 8
3250.0 3 6 3 5 5 5 5 3 5 3
3290.0 5 3 6 3 6 5 5 6 5 8
3330.0 3 9 5 9 9 9 8 8 9 11
3370.0 12 11 15 15 21 23 29 35 44 57
3410.0 66 83 95 114 127 149 164 169 169 160
3450.0 141 115 100 77 61 48 40 31 25 21
3490.0 18 14 9 14 9 8 8 8 5 6
3530.0 6 3 6 2 12 3 8 8 3 12
3570.0 5 6 5 6 9 8 6 11 6 9
3610.0 12 8 14 9 15 14 15 15 15 12
3650.0 15 20 8 18 8 18 9 23 12 12
3690.0 15 12 15 9 20 15 17 11 17 17
3730.0 17 25 18 15 21 21 17 12 11 17
3770.0 14 12 11 11 9 11 8 11 12 26
3810.0 6 21 6 20 14 15 15 25 12 12
3850.0 17 17 18 14 18 12 14 18 25 20
3890.0 11 21 14 32 15 17 14 18 18 23
3930.0 23 12 12 14 21 14 20 9 12 8
##END=
