##TITLE=Phosphorous acid, triethyl ester
##JCAMP-DX=4.24
##DATA TYPE=INFRARED SPECTRUM
##ORIGIN=Sadtler Research Labs Under US-EPA Contract
##OWNER=NIST Standard Reference Data Program
##CAS REGISTRY NO=122-52-1
##MOLFORM=C 6 H 15 O 3 P
##XUNITS=1/CM
##YUNITS=ABSORBANCE
##XFACTOR=1.0
##YFACTOR=0.000096094
##DELTAX=4.0
##FIRSTX=450.0
##LASTX=3966.0
##FIRSTY=0.006727
##MAXX=3966
##MINX=450
##MAXY=0.96094
##MINY=0
##NPOINTS=880
##XYDATA=(X++(Y..Y))
450.0 70 56 44 24 0 16 30 25 98 66
490.0 72 118 125 148 110 76 137 108 178 185
530.0 156 179 157 145 110 81 138 43 85 134
570.0 93 109 90 100 140 61 153 77 91 114
610.0 95 115 93 94 114 123 128 146 134 133
650.0 166 160 168 181 198 240 223 231 331 317
690.0 400 485 571 729 925 1186 1539 1926 2486 2824
730.0 3283 3488 3414 3332 3100 2810 2546 2259 2098 1816
770.0 1640 1398 1141 983 844 720 669 593 583 532
810.0 485 473 430 380 352 327 326 285 274 295
850.0 267 298 309 326 344 375 440 489 573 688
890.0 912 1238 1737 2480 3287 4171 4789 5100 4907 4562
930.0 4196 3686 3286 2869 2408 2049 1635 1295 1051 874
970.0 772 714 664 677 681 718 750 843 998 1206
1010.0 1584 2122 2931 4175 5588 7485 8827 9579 10000 8582
1050.0 7269 5844 4505 3607 2934 2538 2201 1968 1838 1808
1090.0 1894 2025 2072 1955 1670 1345 1054 883 754 701
1130.0 672 644 643 645 641 668 664 668 648 633
1170.0 622 561 520 468 405 352 301 269 240 209
1210.0 208 183 185 190 162 167 164 162 166 158
1250.0 175 172 178 188 198 214 222 226 244 242
1290.0 247 249 256 250 252 222 207 194 173 168
1330.0 158 156 167 160 190 206 228 271 306 347
1370.0 378 421 567 797 1090 1278 1258 1098 792 520
1410.0 398 333 313 287 288 292 293 303 346 360
1450.0 370 341 298 303 276 277 246 257 278 261
1490.0 219 203 164 164 119 118 130 113 92 105
1530.0 110 95 94 60 95 89 86 55 63 92
1570.0 72 87 71 86 96 91 84 99 91 93
1610.0 94 97 94 99 100 105 100 104 116 105
1650.0 107 73 135 123 130 122 119 124 128 106
1690.0 132 123 102 93 111 127 113 93 116 119
1730.0 112 91 110 108 113 113 123 122 114 134
1770.0 118 111 126 125 124 110 104 113 104 112
1810.0 98 106 103 95 95 84 94 97 82 80
1850.0 82 85 78 73 71 58 61 66 58 56
1890.0 49 52 45 54 53 48 43 47 52 47
1930.0 51 57 51 50 56 55 65 53 55 48
1970.0 48 54 42 41 43 36 36 29 34 31
2010.0 26 35 29 29 29 23 27 23 22 22
2050.0 21 21 24 22 24 23 25 24 23 29
2090.0 24 26 28 25 28 21 21 21 20 20
2130.0 25 25 24 24 23 23 25 22 20 16
2170.0 22 21 12 20 15 9 10 9 13 9
2210.0 8 10 8 8 6 8 11 5 11 5
2250.0 8 16 5 12 9 6 11 3 9 5
2290.0 2 7 1 9 8 5 15 7 13 20
2330.0 14 32 31 33 27 21 13 26 42 62
2370.0 52 33 29 29 13 18 17 28 22 18
2410.0 28 24 27 31 21 33 26 25 29 29
2450.0 29 28 25 39 30 29 22 23 31 26
2490.0 26 24 22 25 20 15 21 20 25 20
2530.0 25 23 20 20 21 26 26 25 27 27
2570.0 26 26 26 23 25 24 24 28 31 29
2610.0 32 28 38 33 31 34 27 38 32 33
2650.0 35 25 34 32 30 33 28 28 31 23
2690.0 36 23 33 41 38 54 53 66 80 81
2730.0 91 82 77 80 77 77 76 75 82 85
2770.0 91 84 78 78 73 68 72 78 81 83
2810.0 96 103 122 124 144 144 156 175 186 216
2850.0 243 267 323 380 476 595 734 937 1120 1257
2890.0 1287 1193 1118 1044 1019 1043 1031 1045 1088 1209
2930.0 1428 1648 1830 1857 1733 1538 1356 1267 1277 1400
2970.0 1643 2025 2454 2793 2805 2509 2030 1556 1184 931
3010.0 750 632 520 432 352 282 235 199 161 157
3050.0 123 109 94 87 88 68 64 67 54 63
3090.0 53 59 58 48 64 59 48 64 49 59
3130.0 52 51 53 43 58 51 46 54 50 60
3170.0 51 56 63 57 64 66 66 64 70 60
3210.0 58 62 66 61 57 60 63 48 54 58
3250.0 51 52 49 54 62 42 62 53 51 56
3290.0 50 62 53 55 57 42 59 51 39 58
3330.0 54 58 55 55 60 46 54 61 48 54
3370.0 52 51 65 55 54 40 53 53 58 48
3410.0 48 56 50 50 50 52 50 46 55 45
3450.0 51 45 39 47 47 43 46 27 42 41
3490.0 36 47 43 43 40 42 52 35 43 36
3530.0 34 42 32 38 28 27 34 28 30 29
3570.0 28 31 31 31 28 24 34 33 30 34
3610.0 23 18 18 24 25 10 25 27 24 20
3650.0 5 26 20 31 30 11 14 9 22 12
3690.0 3 19 16 15 11 20 14 20 16 5
3730.0 14 7 0 8 1 1 6 8 18 8
3770.0 6 10 10 12 1 8 3 1 1 1
3810.0 1 1 1 1 3 1 1 1 1 1
3850.0 1 1 1 1 1 1 1 1 1 1
3890.0 1 1 1 1 1 1 1 1 1 1
3930.0 1 1 1 1 1 1 1 1 1 1
##END=
