##TITLE=Benzene, dodecyl-
##JCAMP-DX=4.24
##DATA TYPE=INFRARED SPECTRUM
##ORIGIN=Sadtler Research Labs Under US-EPA Contract
##OWNER=NIST Standard Reference Data Program
##CAS REGISTRY NO=123-01-3
##MOLFORM=C 18 H 30
##XUNITS=1/CM
##YUNITS=ABSORBANCE
##XFACTOR=1.0
##YFACTOR=0.000126776
##DELTAX=4.0
##FIRSTX=450.0
##LASTX=3966.0
##FIRSTY=0.049823
##MAXX=3966
##MINX=450
##MAXY=1.26776
##MINY=0
##NPOINTS=880
##XYDATA=(X++(Y..Y))
450.0 393 141 4 48 0 41 36 37 76 8
490.0 65 18 80 28 51 59 79 77 66 105
530.0 89 119 114 184 169 211 217 237 252 268
570.0 256 210 178 129 129 72 79 79 78 57
610.0 49 49 20 36 32 27 1 44 40 48
650.0 56 70 94 102 161 203 250 263 337 443
690.0 854 1698 2503 2180 1357 711 441 340 298 291
730.0 285 315 332 374 428 570 773 1017 1106 893
770.0 552 319 234 202 182 151 129 110 84 89
810.0 71 66 59 66 66 73 59 58 61 52
850.0 57 45 57 52 54 59 57 60 56 62
890.0 65 79 90 121 139 151 147 142 129 120
930.0 118 110 108 94 93 86 85 82 94 90
970.0 95 101 98 90 79 93 101 122 138 160
1010.0 169 183 213 269 381 479 467 323 193 133
1050.0 116 112 120 138 155 186 198 195 182 165
1090.0 151 153 157 160 157 143 132 119 114 98
1130.0 99 95 105 117 127 140 149 167 166 171
1170.0 164 163 163 173 193 229 248 243 224 201
1210.0 190 177 175 175 186 203 220 243 260 267
1250.0 252 232 217 215 214 218 226 231 236 244
1290.0 252 260 271 282 286 293 297 290 277 268
1330.0 266 278 295 304 319 349 404 502 690 967
1370.0 1173 1205 1161 1209 1217 1103 857 591 388 276
1410.0 225 211 213 217 232 278 355 473 659 804
1450.0 938 1018 1189 1337 1458 1540 1460 1308 1050 900
1490.0 891 980 947 729 463 268 195 153 139 120
1530.0 116 112 104 84 78 61 63 56 53 54
1570.0 76 84 127 153 196 255 327 415 427 383
1610.0 267 159 96 64 53 36 39 31 38 37
1650.0 51 33 50 50 55 50 50 34 44 28
1690.0 36 33 33 32 34 37 46 61 50 44
1730.0 48 61 49 52 48 41 28 25 21 20
1770.0 31 34 44 56 75 97 111 105 84 59
1810.0 49 38 28 20 16 15 12 13 21 23
1850.0 27 33 48 60 67 71 67 67 59 49
1890.0 34 24 17 14 13 14 18 13 27 33
1930.0 56 80 102 92 78 73 71 58 28 17
1970.0 7 8 7 6 3 3 2 1 1 0
2010.0 0 0 2 4 5 1 4 9 8 8
2050.0 4 9 6 5 13 11 14 16 19 14
2090.0 13 9 7 8 8 5 7 5 2 4
2130.0 5 2 4 5 7 7 5 7 8 8
2170.0 5 5 9 9 7 4 6 5 8 9
2210.0 10 10 5 8 4 6 3 8 8 9
2250.0 9 8 9 9 12 12 16 17 20 19
2290.0 26 29 35 35 43 47 46 49 44 41
2330.0 41 45 40 44 49 49 62 47 58 58
2370.0 69 62 60 54 46 33 29 24 24 26
2410.0 24 25 22 21 21 19 19 21 21 17
2450.0 20 17 15 17 19 19 18 20 18 21
2490.0 21 20 20 21 21 25 26 24 24 24
2530.0 26 27 29 34 34 37 45 45 42 43
2570.0 44 50 53 52 53 54 52 56 54 57
2610.0 57 56 60 62 66 67 67 71 78 73
2650.0 79 79 80 82 89 90 92 96 90 95
2690.0 86 90 93 98 106 113 124 134 148 157
2730.0 169 166 173 176 173 170 160 159 161 166
2770.0 170 177 180 182 193 204 215 232 248 268
2810.0 295 327 363 397 425 477 535 621 750 943
2850.0 1199 1511 1839 2173 2483 2820 3174 3493 3677 3620
2890.0 3437 3277 3284 3445 3734 4069 4390 4689 4993 5354
2930.0 5832 6425 6830 6916 6581 6324 6587 7623 9131 10000
2970.0 9921 8257 6147 4305 2969 1983 1370 1003 804 693
3010.0 629 627 671 781 903 1021 1075 1057 952 812
3050.0 740 786 936 1165 1367 1387 1194 929 807 822
3090.0 855 797 666 524 428 375 330 274 218 186
3130.0 161 143 137 131 130 128 134 131 128 117
3170.0 115 105 106 104 102 104 102 98 89 93
3210.0 90 79 81 79 77 66 68 64 75 62
3250.0 64 60 52 44 38 48 29 41 41 39
3290.0 40 27 36 41 38 49 42 51 48 39
3330.0 36 15 43 36 40 40 42 38 40 34
3370.0 43 42 47 42 45 55 31 41 31 28
3410.0 42 28 37 23 31 25 19 19 19 23
3450.0 27 19 25 27 26 24 25 38 19 25
3490.0 31 21 11 25 31 34 31 18 15 32
3530.0 23 31 20 17 26 24 20 16 25 6
3570.0 10 27 28 32 25 17 15 25 34 31
3610.0 32 25 35 24 18 22 22 21 27 39
3650.0 29 54 25 22 42 20 33 3 28 27
3690.0 28 26 51 10 42 29 27 33 19 26
3730.0 6 22 7 44 5 32 34 5 43 41
3770.0 22 41 42 20 14 20 10 33 5 33
3810.0 50 5 19 28 28 20 20 3 17 36
3850.0 15 34 28 38 47 6 19 20 14 41
3890.0 28 47 31 48 34 20 47 29 26 0
3930.0 44 21 36 26 19 29 40 22 16 27
##END=
