##TITLE=Benzaldehyde, 4-methoxy-
##JCAMP-DX=4.24
##DATA TYPE=INFRARED SPECTRUM
##ORIGIN=Sadtler Research Labs Under US-EPA Contract
##OWNER=NIST Standard Reference Data Program
##CAS REGISTRY NO=123-11-5
##MOLFORM=C 8 H 8 O 2
##XUNITS=1/CM
##YUNITS=ABSORBANCE
##XFACTOR=1.0
##YFACTOR=0.000057227
##DELTAX=4.0
##FIRSTX=450.0
##LASTX=3966.0
##FIRSTY=0.000687
##MAXX=3966
##MINX=450
##MAXY=0.57227
##MINY=0
##NPOINTS=880
##XYDATA=(X++(Y..Y))
450.0 12 7 7 9 44 53 87 84 85 145
490.0 212 299 437 452 460 510 431 401 278 243
530.0 196 98 141 127 98 131 149 138 131 195
570.0 210 215 347 431 751 1020 1160 1201 1120 897
610.0 755 615 392 309 272 257 305 386 429 341
650.0 291 143 132 93 149 167 112 117 149 196
690.0 163 177 157 166 205 190 162 137 153 138
730.0 210 162 151 246 246 391 428 458 423 326
770.0 273 236 227 218 277 285 301 430 562 798
810.0 987 1253 1585 1885 2185 2306 2357 2349 2371 2453
850.0 2197 1811 1325 747 439 309 255 221 177 158
890.0 184 183 154 132 120 145 141 107 133 104
930.0 122 139 121 103 130 132 133 131 144 169
970.0 151 178 197 197 227 238 246 280 324 337
1010.0 423 513 672 911 1218 1577 1948 2141 2120 1856
1050.0 1446 1023 649 463 364 338 357 352 340 359
1090.0 395 409 461 506 497 483 449 397 361 341
1130.0 340 362 383 522 845 1801 4162 6247 6185 6021
1170.0 4125 1899 1221 1134 1199 1259 1371 1673 2023 2200
1210.0 2220 2031 1786 1696 1760 1917 2227 2847 3800 5175
1250.0 7041 8878 9726 9036 7227 4672 2530 1521 1198 1198
1290.0 1444 1968 2637 3146 3236 2914 2312 1562 1075 850
1330.0 727 610 521 461 425 397 369 368 350 327
1370.0 315 323 396 523 676 734 710 632 484 384
1410.0 363 419 541 654 690 690 644 619 618 639
1450.0 663 731 807 910 1068 1019 977 854 704 599
1490.0 595 750 1229 2093 3096 3554 3391 2765 1661 780
1530.0 433 339 286 283 276 291 318 396 519 708
1570.0 1067 1592 2291 2855 3463 4255 4997 5908 6808 7130
1610.0 6597 5469 4064 2693 1606 925 590 451 357 366
1650.0 339 373 338 375 432 533 635 711 795 921
1690.0 1031 1255 1627 2202 3198 5240 8299 10000 9575 8509
1730.0 4838 2093 968 579 415 401 409 410 407 348
1770.0 289 238 187 172 153 156 158 148 149 131
1810.0 130 104 95 93 97 86 77 75 85 94
1850.0 94 101 101 93 92 99 91 101 109 124
1890.0 157 160 166 151 143 118 98 88 80 78
1930.0 71 70 66 70 64 70 69 78 85 85
1970.0 85 85 76 75 75 84 94 101 122 149
2010.0 176 178 177 160 133 124 106 106 107 108
2050.0 128 136 140 145 147 148 138 122 112 93
2090.0 76 68 66 54 49 51 47 40 23 23
2130.0 14 13 13 22 20 15 22 12 11 11
2170.0 11 5 10 11 11 10 10 2 9 8
2210.0 8 8 7 11 8 7 16 7 15 16
2250.0 17 25 35 43 59 58 69 59 50 42
2290.0 32 32 33 33 34 35 41 40 57 50
2330.0 63 56 41 50 34 43 51 60 73 65
2370.0 49 36 14 10 12 8 16 26 34 35
2410.0 43 44 59 52 51 47 48 44 44 44
2450.0 52 43 52 43 43 42 34 30 24 36
2490.0 34 38 45 51 62 70 87 79 77 71
2530.0 62 59 58 66 84 102 130 147 158 166
2570.0 157 130 122 103 95 93 86 92 99 99
2610.0 95 89 89 89 81 80 80 81 71 71
2650.0 71 73 72 80 97 122 150 185 248 301
2690.0 355 413 495 588 718 874 1076 1291 1458 1545
2730.0 1520 1384 1167 925 705 555 460 385 355 349
2770.0 354 388 450 538 662 786 902 988 1036 1068
2810.0 1100 1122 1101 1047 972 858 766 745 818 905
2850.0 904 857 737 511 360 282 243 232 239 254
2890.0 264 290 326 364 437 510 596 636 657 650
2930.0 637 665 742 854 954 1008 1067 1029 983 982
2970.0 877 744 628 530 446 399 395 428 508 672
3010.0 903 1019 981 905 688 497 436 409 376 330
3050.0 278 233 206 208 210 246 309 343 374 354
3090.0 326 271 241 243 225 216 189 164 136 110
3130.0 85 85 61 50 56 53 53 53 53 45
3170.0 43 34 37 36 37 32 27 33 36 30
3210.0 26 20 19 10 11 18 2 5 7 13
3250.0 12 11 4 12 18 3 2 12 3 11
3290.0 12 7 10 15 12 12 19 21 13 12
3330.0 3 12 21 21 8 14 14 3 10 12
3370.0 13 20 12 29 39 49 39 71 85 102
3410.0 125 133 128 127 117 84 66 47 39 24
3450.0 19 11 15 18 23 13 17 15 15 14
3490.0 15 5 6 23 11 9 14 15 20 17
3530.0 14 7 15 6 23 15 23 16 18 27
3570.0 28 23 36 74 84 94 77 51 33 34
3610.0 32 25 25 25 18 44 33 27 32 50
3650.0 68 50 60 50 41 56 37 35 25 30
3690.0 43 36 27 25 35 25 25 25 25 25
3730.0 25 34 40 46 46 34 37 18 18 18
3770.0 26 27 18 18 18 18 18 26 44 35
3810.0 35 36 26 44 27 17 28 29 23 22
3850.0 25 46 29 27 19 36 27 29 46 53
3890.0 40 40 36 31 39 20 29 29 19 29
3930.0 29 29 28 28 28 37 0 2 2 2
##END=
