##TITLE=Hydroquinone
##JCAMP-DX=4.24
##DATA TYPE=INFRARED SPECTRUM
##ORIGIN=Sadtler Research Labs Under US-EPA Contract
##OWNER=NIST Standard Reference Data Program
##CAS REGISTRY NO=123-31-9
##MOLFORM=C 6 H 6 O 2
##XUNITS=1/CM
##YUNITS=ABSORBANCE
##XFACTOR=1.0
##YFACTOR=0.000114114
##DELTAX=4.0
##FIRSTX=450.0
##LASTX=3966.0
##FIRSTY=0.058427
##MAXX=3966
##MINX=450
##MAXY=1.14114
##MINY=0
##NPOINTS=880
##XYDATA=(X++(Y..Y))
450.0 512 653 625 187 386 274 372 489 435 673
490.0 715 1041 1159 1100 1862 1561 968 866 851 652
530.0 490 227 222 117 100 194 81 35 130 90
570.0 73 116 121 102 157 63 6 79 95 98
610.0 88 99 105 127 50 81 130 108 67 99
650.0 115 116 142 41 10 90 70 82 81 66
690.0 189 179 145 126 86 110 122 142 136 141
730.0 238 341 730 1546 2381 2767 2715 2865 2846 1944
770.0 927 489 387 399 434 516 555 727 936 1220
810.0 1453 1667 2323 2647 2584 2021 1678 1398 1132 816
850.0 580 453 365 334 298 278 300 304 250 198
890.0 163 169 163 147 122 154 142 126 114 111
930.0 128 158 126 117 114 91 125 92 103 80
970.0 97 90 81 76 64 71 67 104 111 112
1010.0 113 114 123 107 101 115 145 175 206 241
1050.0 284 305 336 340 409 527 665 838 1028 1100
1090.0 1078 1044 1034 903 726 586 512 471 464 470
1130.0 514 628 833 1262 2206 3659 5276 6385 7673 8764
1170.0 9865 9794 9351 8828 8532 7220 5989 4783 3456 2506
1210.0 1986 1743 1681 1741 1980 2564 3694 5003 5579 5571
1250.0 5444 5264 3887 1995 986 664 579 570 586 606
1290.0 660 679 755 845 1002 1215 1481 1942 2347 2366
1330.0 2244 1979 1680 1102 622 380 279 224 172 156
1370.0 160 100 120 135 103 149 147 167 259 328
1410.0 368 477 380 536 584 779 870 1149 1383 1443
1450.0 1516 1470 1087 961 699 523 339 365 538 611
1490.0 1019 1866 3689 6110 8217 10000 9024 9890 7972 5287
1530.0 3236 1642 853 300 178 204 177 114 177 211
1570.0 215 218 249 244 317 305 399 381 472 470
1610.0 455 503 389 416 274 326 221 219 233 224
1650.0 179 166 289 279 406 485 507 609 526 497
1690.0 504 384 138 132 113 162 105 38 122 117
1730.0 90 3 89 61 44 18 68 69 70 95
1770.0 53 52 81 71 81 67 60 69 32 94
1810.0 85 91 126 120 130 137 158 197 155 148
1850.0 167 191 168 156 138 87 128 119 111 103
1890.0 76 77 87 91 93 95 87 104 78 105
1930.0 103 96 100 73 86 84 82 75 76 64
1970.0 67 75 81 78 87 74 96 126 150 169
2010.0 178 174 156 144 121 91 83 71 64 68
2050.0 68 67 71 69 63 78 76 81 85 93
2090.0 95 98 101 95 90 79 69 61 54 55
2130.0 53 53 51 47 49 45 53 50 51 52
2170.0 52 52 52 47 49 45 47 44 49 48
2210.0 47 49 47 44 49 49 56 57 63 66
2250.0 66 68 70 69 66 63 61 58 59 58
2290.0 62 65 72 77 82 87 93 97 101 104
2330.0 115 124 119 117 125 141 148 128 119 121
2370.0 109 107 94 85 81 72 70 79 90 108
2410.0 125 140 153 161 162 154 150 131 113 96
2450.0 84 78 72 61 66 66 71 77 85 93
2490.0 103 110 112 113 102 89 77 54 40 30
2530.0 23 21 24 23 21 19 20 24 23 27
2570.0 28 28 31 35 38 36 36 39 35 34
2610.0 39 35 36 31 27 28 28 22 19 16
2650.0 20 17 22 20 25 26 23 26 25 23
2690.0 24 27 25 27 24 19 20 14 12 12
2730.0 12 8 3 7 8 14 19 22 25 27
2770.0 33 31 31 24 15 17 13 15 13 14
2810.0 13 9 9 14 14 15 23 24 39 47
2850.0 55 63 53 48 42 32 26 33 34 40
2890.0 43 43 52 63 73 82 94 108 121 123
2930.0 116 101 85 63 54 45 35 32 29 27
2970.0 24 17 16 16 16 22 37 59 94 152
3010.0 246 402 615 835 981 1042 1067 1039 847 626
3050.0 512 456 407 375 346 322 303 263 226 199
3090.0 172 153 135 114 103 97 96 92 89 83
3130.0 78 70 62 54 41 39 26 31 31 21
3170.0 27 22 16 23 26 26 24 25 16 21
3210.0 26 27 21 25 19 15 19 21 28 21
3250.0 17 19 27 17 16 18 14 21 29 20
3290.0 28 20 22 22 18 22 27 21 20 26
3330.0 18 21 34 37 29 31 25 28 29 24
3370.0 34 30 37 34 39 34 34 51 45 39
3410.0 40 47 43 41 44 49 50 45 47 34
3450.0 32 34 31 32 25 28 37 28 28 18
3490.0 39 31 26 27 25 24 36 30 37 14
3530.0 36 38 26 39 7 8 35 12 35 12
3570.0 21 33 13 33 6 27 42 43 89 75
3610.0 77 108 105 157 256 401 643 1024 1732 2648
3650.0 3836 4523 4329 4013 3982 3038 1731 815 322 235
3690.0 109 61 37 14 3 19 3 3 3 3
3730.0 3 3 3 0 22 0 20 3 3 3
3770.0 17 3 7 8 3 4 15 26 6 7
3810.0 37 17 34 3 25 23 3 27 18 18
3850.0 31 33 26 24 11 22 26 36 51 62
3890.0 41 47 41 34 5 37 0 61 42 28
3930.0 61 4 43 2 3 3 5 3 3 7
##END=
