##TITLE=Acetic acid, mercapto-, 1,2-ethanediyl ester
##JCAMP-DX=4.24
##DATA TYPE=INFRARED SPECTRUM
##ORIGIN=Sadtler Research Labs Under US-EPA Contract
##OWNER=NIST Standard Reference Data Program
##CAS REGISTRY NO=123-81-9
##MOLFORM=C 6 H 10 O 4 S 2
##XUNITS=1/CM
##YUNITS=ABSORBANCE
##XFACTOR=1.0
##YFACTOR=0.000092688
##DELTAX=4.0
##FIRSTX=450.0
##LASTX=3966.0
##FIRSTY=0.000000
##MAXX=3966
##MINX=450
##MAXY=0.92688
##MINY=0
##NPOINTS=880
##XYDATA=(X++(Y..Y))
450.0 0 124 418 110 210 234 311 588 329 310
490.0 405 524 597 568 247 310 283 470 561 529
530.0 323 225 275 330 512 567 510 200 338 643
570.0 482 681 832 633 496 615 658 626 577 645
610.0 496 579 667 471 411 462 381 510 520 375
650.0 349 304 356 420 648 733 487 547 538 532
690.0 611 426 560 638 600 594 479 519 566 628
730.0 600 623 487 423 573 508 587 543 477 572
770.0 498 517 456 403 466 452 432 403 406 375
810.0 385 412 440 421 446 507 457 489 509 597
850.0 604 607 648 643 703 698 680 697 719 691
890.0 681 663 700 694 702 713 757 786 815 847
930.0 882 899 954 968 1067 1191 1285 1328 1410 1379
970.0 1329 1301 1218 1183 1145 1082 1106 1128 1140 1146
1010.0 1231 1345 1537 1566 1636 1764 1855 2008 2052 2068
1050.0 2055 1957 1845 1772 1716 1621 1602 1590 1620 1713
1090.0 1883 2025 2244 2460 2809 3264 3729 4487 5290 6290
1130.0 7348 8282 8745 8558 8146 7399 6598 6037 5509 5044
1170.0 4548 4086 3689 3380 3130 2913 2785 2722 2745 2791
1210.0 2920 3106 3343 3620 3824 3970 4076 4076 4027 4128
1250.0 4379 4767 5270 5621 5783 5837 5786 5748 5690 5575
1290.0 5284 4832 4262 3580 2959 2379 1932 1593 1351 1212
1330.0 1178 1198 1250 1203 1094 997 931 915 919 960
1370.0 998 1000 951 883 844 864 871 907 956 1017
1410.0 1110 1248 1430 1473 1394 1214 1071 1045 1047 1096
1450.0 1115 1135 1091 995 833 688 555 473 409 369
1490.0 328 301 313 301 319 312 290 309 278 284
1530.0 281 259 294 265 283 270 261 298 271 293
1570.0 277 277 303 270 303 299 314 330 342 369
1610.0 371 407 398 417 411 408 411 414 408 465
1650.0 477 509 559 551 626 670 737 865 1012 1179
1690.0 1420 1588 1821 1931 2012 2048 2098 2241 2353 2665
1730.0 3077 3616 4521 5259 6151 7209 8121 9391 10000 9733
1770.0 8701 6870 5369 4077 3129 2509 2006 1669 1378 1083
1810.0 894 724 588 507 409 364 315 278 260 237
1850.0 228 204 204 196 188 190 183 180 181 175
1890.0 178 174 174 178 170 172 170 177 175 170
1930.0 170 167 170 171 172 173 176 171 179 174
1970.0 174 174 177 182 180 182 181 179 183 180
2010.0 179 178 176 177 171 170 172 169 169 162
2050.0 162 160 160 160 153 155 155 156 152 146
2090.0 149 147 146 150 148 146 145 144 148 146
2130.0 141 139 138 139 135 137 138 136 140 138
2170.0 136 133 135 138 131 131 131 130 128 126
2210.0 127 129 124 126 123 127 124 121 127 119
2250.0 126 123 123 123 125 127 128 125 127 124
2290.0 128 129 133 135 132 139 149 152 162 167
2330.0 171 176 185 178 183 153 199 176 214 182
2370.0 168 164 145 141 131 126 131 126 127 127
2410.0 132 132 125 129 130 134 131 127 130 130
2450.0 129 134 128 128 129 129 129 129 137 134
2490.0 134 130 135 133 138 137 140 139 138 135
2530.0 136 139 138 138 141 142 144 144 149 150
2570.0 156 158 154 161 165 182 207 206 191 170
2610.0 147 144 144 142 144 136 135 136 143 138
2650.0 141 145 141 139 138 139 141 140 138 135
2690.0 138 135 135 139 139 135 133 134 140 150
2730.0 154 141 139 145 139 154 151 147 136 143
2770.0 137 153 159 141 151 148 159 168 173 163
2810.0 182 182 207 232 243 254 291 317 382 463
2850.0 549 654 706 695 671 609 576 560 565 599
2890.0 631 684 736 795 878 939 1038 1151 1275 1402
2930.0 1474 1507 1492 1480 1453 1425 1449 1524 1572 1533
2970.0 1384 1182 1009 871 743 657 621 587 542 488
3010.0 447 407 357 297 271 253 234 211 205 196
3050.0 183 174 170 167 164 159 166 162 155 153
3090.0 155 156 151 150 144 146 152 150 150 147
3130.0 143 142 141 142 151 142 145 146 146 144
3170.0 140 141 144 142 139 142 143 141 140 143
3210.0 143 140 141 140 142 143 141 146 149 140
3250.0 139 140 142 142 143 135 141 142 138 144
3290.0 142 145 137 138 138 138 139 143 139 139
3330.0 138 133 141 139 143 141 142 145 142 143
3370.0 139 139 146 141 146 139 145 153 147 141
3410.0 145 156 155 139 140 139 144 155 141 144
3450.0 151 151 147 150 159 166 159 166 158 172
3490.0 171 184 188 180 188 194 187 186 169 160
3530.0 150 156 147 145 145 153 163 187 230 293
3570.0 350 405 419 389 323 309 248 213 158 162
3610.0 138 131 144 123 145 137 149 146 147 120
3650.0 177 129 162 132 160 147 139 155 135 159
3690.0 121 153 135 147 142 140 139 137 132 154
3730.0 136 128 156 120 153 114 169 125 147 123
3770.0 150 144 144 141 147 144 155 156 169 140
3810.0 180 150 176 149 161 159 177 153 148 146
3850.0 169 149 150 149 139 164 156 150 157 186
3890.0 164 147 121 158 164 154 151 146 151 138
3930.0 161 142 142 136 135 163 144 176 165 175
##END=
