##TITLE=3-Heptene, 2,2,4,6,6-pentamethyl-
##JCAMP-DX=4.24
##DATA TYPE=INFRARED SPECTRUM
##ORIGIN=Sadtler Research Labs Under US-EPA Contract
##OWNER=NIST Standard Reference Data Program
##CAS REGISTRY NO=123-48-8
##MOLFORM=C 12 H 24
##XUNITS=1/CM
##YUNITS=ABSORBANCE
##XFACTOR=1.0
##YFACTOR=0.000150870
##DELTAX=4.0
##FIRSTX=450.0
##LASTX=3966.0
##FIRSTY=0.000000
##MAXX=3966
##MINX=450
##MAXY=1.5087
##MINY=0
##NPOINTS=880
##XYDATA=(X++(Y..Y))
450.0 0 128 145 211 107 132 117 152 137 169
490.0 132 118 140 145 144 137 158 164 169 170
530.0 182 169 155 147 126 117 117 102 107 113
570.0 89 91 99 96 95 107 104 87 94 94
610.0 101 103 116 129 129 127 115 114 105 97
650.0 100 100 104 96 89 79 101 100 101 90
690.0 103 101 99 97 108 108 105 123 123 136
730.0 149 159 153 141 126 122 120 117 110 114
770.0 116 103 96 108 135 121 109 124 110 129
810.0 143 154 149 147 137 137 139 151 174 223
850.0 272 313 324 305 282 263 261 251 232 215
890.0 205 219 234 246 239 234 216 206 197 191
930.0 183 173 161 148 142 138 144 149 152 148
970.0 148 152 155 164 177 207 249 291 312 305
1010.0 274 241 232 231 244 248 244 239 248 268
1050.0 294 296 269 228 198 176 166 158 148 140
1090.0 137 132 132 136 144 144 149 148 150 154
1130.0 156 168 189 235 297 341 344 306 256 229
1170.0 219 221 230 253 303 375 475 557 591 558
1210.0 501 478 516 597 680 747 739 667 557 446
1250.0 380 363 354 329 282 229 198 180 178 177
1290.0 169 163 153 149 150 157 166 182 192 195
1330.0 198 200 211 226 268 338 475 712 1073 1480
1370.0 1674 1506 1171 905 798 849 868 814 654 488
1410.0 358 304 275 283 287 307 348 380 444 478
1450.0 556 608 723 876 1048 1202 1337 1502 1377 1173
1490.0 793 512 359 254 223 182 175 152 141 141
1530.0 132 132 124 121 116 121 119 107 105 112
1570.0 110 101 108 110 110 107 111 107 106 107
1610.0 106 106 108 111 117 125 137 139 155 153
1650.0 166 140 148 129 117 109 103 115 114 117
1690.0 130 141 137 148 154 161 161 158 154 151
1730.0 143 134 133 138 138 136 131 127 125 126
1770.0 125 119 120 115 112 102 99 97 97 95
1810.0 94 92 90 88 85 82 84 85 82 81
1850.0 81 84 84 86 83 84 85 87 87 85
1890.0 83 82 83 82 80 80 80 80 79 81
1930.0 81 81 80 78 76 79 78 76 77 78
1970.0 77 75 76 75 77 76 76 76 75 77
2010.0 77 79 78 79 80 78 78 78 78 78
2050.0 76 78 75 74 73 73 73 71 69 72
2090.0 71 71 73 74 73 72 73 77 77 76
2130.0 77 77 76 76 76 74 73 75 74 77
2170.0 75 77 76 74 75 74 73 73 73 73
2210.0 75 74 74 74 72 71 73 70 72 72
2250.0 72 70 72 73 74 76 74 77 77 79
2290.0 81 80 79 77 74 73 72 72 72 75
2330.0 70 69 68 74 71 77 67 74 73 72
2370.0 75 77 78 80 81 78 79 77 77 77
2410.0 76 74 75 72 70 69 69 69 67 68
2450.0 68 67 67 68 67 68 69 69 70 70
2490.0 71 73 71 70 72 74 72 74 74 72
2530.0 72 73 74 76 76 76 79 80 83 80
2570.0 83 82 81 80 83 86 85 87 87 89
2610.0 88 88 92 95 100 100 97 94 91 89
2650.0 87 88 89 91 93 95 99 101 102 106
2690.0 107 109 111 113 119 132 151 166 178 174
2730.0 165 156 150 150 157 165 170 171 163 154
2770.0 150 149 150 156 164 172 176 184 200 220
2810.0 239 258 279 297 323 366 424 503 606 740
2850.0 876 1000 1126 1331 1701 2157 2554 2728 2697 2533
2890.0 2415 2390 2500 2738 3061 3385 3562 3566 3376 3177
2930.0 3050 3114 3353 3773 4466 5558 7202 8767 10000 9616
2970.0 8257 6471 4826 3559 2606 1940 1480 1164 946 797
3010.0 692 607 539 479 431 394 361 340 317 302
3050.0 285 271 257 238 221 207 200 198 190 181
3090.0 170 156 149 143 137 132 133 130 125 124
3130.0 124 124 122 124 122 121 123 125 125 125
3170.0 126 130 131 134 132 134 134 130 131 130
3210.0 124 123 119 118 115 117 118 115 112 109
3250.0 102 100 98 94 91 88 86 87 85 84
3290.0 79 79 80 79 81 83 80 85 86 82
3330.0 81 82 84 88 88 86 90 91 97 94
3370.0 94 97 96 92 87 87 82 83 80 80
3410.0 80 82 77 80 78 77 77 77 78 79
3450.0 77 80 82 80 78 76 72 72 78 74
3490.0 74 78 75 73 76 72 74 72 75 80
3530.0 79 74 72 75 76 77 79 79 77 86
3570.0 88 86 86 85 83 81 82 80 76 74
3610.0 78 79 77 78 76 84 78 77 81 83
3650.0 95 81 83 81 79 76 70 78 72 78
3690.0 75 80 78 74 74 80 84 80 76 81
3730.0 71 68 73 77 68 72 78 73 73 74
3770.0 76 71 76 78 79 81 78 72 76 80
3810.0 79 80 76 83 74 78 78 71 82 85
3850.0 77 72 82 80 77 83 82 78 87 90
3890.0 88 88 94 88 89 78 82 81 82 80
3930.0 82 76 79 74 76 84 71 80 73 83
##END=
