##TITLE=Heptane, 3-(chloromethyl)-
##JCAMP-DX=4.24
##DATA TYPE=INFRARED SPECTRUM
##ORIGIN=Sadtler Research Labs Under US-EPA Contract
##OWNER=NIST Standard Reference Data Program
##CAS REGISTRY NO=123-04-6
##MOLFORM=C 8 H 17 Cl
##XUNITS=1/CM
##YUNITS=ABSORBANCE
##XFACTOR=1.0
##YFACTOR=0.000101349
##DELTAX=4.0
##FIRSTX=450.0
##LASTX=3966.0
##FIRSTY=0.000000
##MAXX=3966
##MINX=450
##MAXY=1.01349
##MINY=0
##NPOINTS=880
##XYDATA=(X++(Y..Y))
450.0 0 188 301 235 225 218 173 199 161 207
490.0 200 215 147 180 183 183 200 170 186 191
530.0 184 184 205 182 199 189 185 215 166 208
570.0 169 183 165 175 172 161 148 146 161 142
610.0 165 139 159 159 155 145 159 168 150 147
650.0 165 186 168 193 213 261 358 476 623 716
690.0 782 683 569 435 388 396 484 644 835 1036
730.0 1201 1362 1348 1282 1084 905 727 676 687 711
770.0 794 834 821 802 729 663 593 472 406 328
810.0 295 266 251 245 235 243 253 252 260 237
850.0 225 221 217 214 235 247 270 274 275 279
890.0 280 298 308 321 320 317 296 289 285 289
930.0 284 283 281 274 273 273 286 293 307 320
970.0 327 334 329 324 303 290 273 269 255 249
1010.0 243 240 245 236 240 233 234 229 224 223
1050.0 220 223 221 224 228 229 228 238 230 233
1090.0 235 238 236 231 224 215 209 192 188 187
1130.0 186 188 188 193 193 196 191 192 189 192
1170.0 195 203 215 224 233 231 235 228 229 229
1210.0 242 249 255 255 252 257 259 281 294 321
1250.0 337 373 421 481 550 617 670 691 742 809
1290.0 921 1021 1066 1014 871 729 607 540 488 458
1330.0 425 419 436 459 474 466 465 436 424 410
1370.0 440 492 628 766 840 819 669 487 369 323
1410.0 296 295 293 307 322 354 454 605 887 1143
1450.0 1452 1626 1766 1856 1835 1722 1439 1114 818 562
1490.0 428 332 309 275 257 245 237 234 216 223
1530.0 205 208 202 194 183 185 188 170 167 169
1570.0 174 162 169 164 166 164 166 168 164 168
1610.0 165 164 162 160 163 155 163 151 161 153
1650.0 162 145 158 150 154 152 152 153 151 149
1690.0 148 152 140 146 141 144 143 144 143 144
1730.0 145 144 139 140 136 135 132 135 133 135
1770.0 140 137 138 140 138 137 135 135 139 132
1810.0 134 133 134 132 133 129 131 129 131 132
1850.0 128 132 127 130 130 134 129 129 131 131
1890.0 130 129 129 127 128 128 126 126 128 130
1930.0 126 128 126 130 127 127 126 125 125 126
1970.0 128 125 126 128 127 127 128 126 125 129
2010.0 130 131 132 134 132 136 138 135 137 137
2050.0 138 138 139 137 139 135 136 134 133 134
2090.0 131 132 132 132 129 132 129 130 131 130
2130.0 131 129 131 128 130 130 129 129 131 133
2170.0 129 131 129 130 130 127 125 129 131 132
2210.0 133 131 132 132 135 134 135 134 135 132
2250.0 132 135 134 133 136 137 135 135 137 137
2290.0 138 140 139 140 142 143 144 143 146 146
2330.0 144 144 139 146 139 151 147 146 145 148
2370.0 143 141 146 148 148 148 150 149 147 151
2410.0 147 145 147 148 147 147 144 145 140 140
2450.0 142 136 137 137 137 138 138 140 137 136
2490.0 140 141 139 139 139 141 141 144 142 146
2530.0 148 148 151 150 152 155 156 153 154 157
2570.0 158 160 162 165 166 170 172 171 174 173
2610.0 172 175 175 176 178 177 178 180 183 187
2650.0 190 191 194 197 201 208 212 220 218 220
2690.0 221 219 220 220 225 224 228 227 232 236
2730.0 243 252 264 278 285 288 277 268 261 255
2770.0 254 259 263 273 286 300 318 333 354 372
2810.0 390 409 433 458 486 522 571 642 749 930
2850.0 1208 1624 2184 2800 3390 3790 3957 4024 4058 3934
2890.0 3738 3404 3050 2869 2910 3163 3583 4213 4975 5888
2930.0 6811 7679 8202 8180 7749 6908 6308 6251 7040 8655
2970.0 10000 9587 7937 5505 3473 2433 2057 1895 1715 1457
3010.0 1141 861 681 591 541 506 477 443 416 392
3050.0 369 353 337 323 307 301 291 286 281 278
3090.0 273 268 261 256 250 248 245 242 233 226
3130.0 227 222 218 215 213 211 208 207 202 203
3170.0 201 198 195 193 188 184 185 183 178 171
3210.0 167 163 160 157 150 147 146 141 141 139
3250.0 138 135 133 134 137 135 133 133 134 137
3290.0 134 136 135 135 137 135 136 135 137 136
3330.0 134 138 136 138 138 138 139 133 134 134
3370.0 136 138 143 139 140 140 140 136 137 139
3410.0 138 144 141 136 134 134 134 137 140 139
3450.0 142 132 141 137 139 136 142 137 136 134
3490.0 135 135 134 130 135 130 135 133 133 133
3530.0 139 134 140 133 132 137 137 137 133 139
3570.0 134 134 136 131 138 144 138 141 140 140
3610.0 141 141 144 142 143 146 138 143 140 144
3650.0 149 145 149 146 145 152 148 153 142 146
3690.0 146 150 152 151 150 144 147 145 146 142
3730.0 135 146 142 154 134 147 143 140 134 138
3770.0 136 138 143 141 137 139 150 149 147 130
3810.0 145 144 142 139 137 138 144 139 125 137
3850.0 139 142 144 138 137 148 144 141 140 143
3890.0 139 129 139 156 133 135 146 129 129 141
3930.0 144 137 142 139 127 129 126 129 137 146
##END=
