##TITLE=Hexanal, 2-ethyl-
##JCAMP-DX=4.24
##DATA TYPE=INFRARED SPECTRUM
##ORIGIN=Sadtler Research Labs Under US-EPA Contract
##OWNER=NIST Standard Reference Data Program
##CAS REGISTRY NO=123-05-7
##MOLFORM=C 8 H 16 O
##XUNITS=1/CM
##YUNITS=ABSORBANCE
##XFACTOR=1.0
##YFACTOR=0.000082462
##DELTAX=4.0
##FIRSTX=450.0
##LASTX=3966.0
##FIRSTY=0.000000
##MAXX=3966
##MINX=450
##MAXY=0.82462
##MINY=0
##NPOINTS=880
##XYDATA=(X++(Y..Y))
450.0 0 830 830 961 994 1121 977 1115 1052 1242
490.0 1167 1017 1015 1277 773 1282 1004 1038 1215 1116
530.0 1179 1067 972 1080 909 1089 1139 1053 1057 1201
570.0 1108 1002 1052 1049 1110 1059 1080 1035 1023 1025
610.0 1050 1022 1015 974 1050 975 1048 1027 976 1002
650.0 994 1021 1097 1009 1023 985 1021 1051 1022 1006
690.0 995 929 944 1009 1013 1029 996 1075 1150 1166
730.0 1232 1186 1279 1243 1243 1168 1245 1270 1345 1421
770.0 1432 1532 1602 1520 1411 1353 1394 1369 1262 1251
810.0 1217 1211 1108 1100 1103 1027 1027 1124 1001 1074
850.0 1071 1063 1077 950 1064 1069 1137 1061 1168 1188
890.0 1253 1224 1298 1259 1306 1316 1257 1272 1212 1162
930.0 1198 1186 1185 1176 1221 1262 1250 1255 1293 1273
970.0 1257 1240 1260 1252 1205 1229 1227 1239 1228 1204
1010.0 1191 1226 1179 1148 1082 1055 1093 1103 1073 1095
1050.0 1090 1116 1123 1140 1170 1181 1175 1185 1166 1159
1090.0 1159 1186 1218 1232 1263 1263 1227 1237 1285 1274
1130.0 1278 1323 1352 1384 1415 1396 1388 1339 1289 1280
1170.0 1212 1217 1144 1118 1135 1083 1082 1048 1066 1067
1210.0 1067 1052 1058 1060 1077 1072 1108 1082 1077 1060
1250.0 1054 1062 1026 1034 1060 1061 1071 1090 1083 1062
1290.0 1091 1073 1132 1113 1097 1108 1100 1133 1144 1129
1330.0 1184 1214 1247 1267 1294 1281 1291 1268 1239 1262
1370.0 1266 1336 1454 1580 1744 1765 1683 1527 1364 1266
1410.0 1162 1158 1082 1145 1116 1151 1187 1278 1401 1541
1450.0 1773 2050 2266 2505 2481 2411 2185 1862 1601 1331
1490.0 1168 1116 1040 1039 996 1007 933 984 968 975
1530.0 926 959 957 966 937 914 957 935 997 916
1570.0 938 971 933 947 915 922 956 880 928 900
1610.0 904 932 931 941 903 966 928 958 972 938
1650.0 1010 1014 1049 998 1079 1093 1122 1174 1187 1284
1690.0 1311 1379 1486 1621 1682 1812 2020 2406 3081 4120
1730.0 5718 7109 8487 8878 8194 6906 4970 3619 2830 2388
1770.0 2206 2014 1815 1621 1448 1377 1262 1235 1143 1116
1810.0 1076 1021 1002 965 950 935 914 913 886 902
1850.0 880 885 870 857 863 847 861 845 858 843
1890.0 849 847 846 846 841 840 840 848 829 830
1930.0 836 829 828 826 822 827 825 817 824 813
1970.0 823 824 819 817 815 813 818 817 821 814
2010.0 818 815 810 815 809 815 815 807 815 812
2050.0 813 811 817 817 807 812 809 811 811 806
2090.0 805 805 802 802 801 801 802 803 804 803
2130.0 801 801 800 801 797 799 798 795 802 793
2170.0 794 793 791 790 788 790 782 782 785 783
2210.0 783 785 786 787 785 787 784 781 782 777
2250.0 785 784 784 784 784 785 781 783 783 778
2290.0 780 779 769 775 775 775 771 763 769 768
2330.0 772 784 771 788 769 795 767 788 774 768
2370.0 791 798 797 793 799 805 811 815 815 819
2410.0 817 813 808 802 793 791 782 774 782 774
2450.0 772 770 774 777 778 778 781 778 788 785
2490.0 786 788 790 790 795 795 799 796 798 802
2530.0 802 811 808 808 816 813 813 820 819 821
2570.0 826 829 836 842 852 853 870 880 895 903
2610.0 917 935 947 967 978 996 1016 1034 1061 1084
2650.0 1111 1155 1216 1306 1429 1606 1841 2115 2410 2684
2690.0 2877 2975 2986 2912 2775 2602 2411 2223 2052 1925
2730.0 1830 1766 1721 1681 1652 1627 1603 1571 1535 1510
2770.0 1505 1528 1578 1664 1778 1919 2062 2178 2231 2240
2810.0 2160 2037 1906 1801 1741 1716 1742 1808 1925 2110
2850.0 2385 2774 3303 3921 4554 5033 5277 5399 5418 5223
2890.0 4922 4520 4062 3790 3814 4070 4559 5261 6127 7153
2930.0 8264 9290 9918 9899 9328 8352 7440 6981 7383 8624
2970.0 9800 10000 8870 7033 5004 3475 2568 2056 1781 1613
3010.0 1497 1432 1373 1326 1284 1244 1226 1197 1161 1142
3050.0 1116 1104 1086 1075 1071 1052 1048 1048 1042 1038
3090.0 1027 1026 1018 1004 1004 996 991 993 991 980
3130.0 972 966 961 952 955 944 950 953 943 943
3170.0 942 939 937 928 926 917 913 904 893 888
3210.0 880 883 875 873 870 869 863 864 850 852
3250.0 844 848 840 837 840 841 835 832 828 832
3290.0 831 825 820 829 825 821 825 818 827 826
3330.0 825 815 815 815 814 804 807 809 807 817
3370.0 815 817 820 822 834 826 825 830 827 836
3410.0 826 829 825 815 829 827 848 855 858 884
3450.0 903 927 938 937 936 919 887 864 850 829
3490.0 824 815 807 801 804 794 803 802 788 774
3530.0 788 786 798 800 799 808 824 819 857 884
3570.0 916 919 915 866 853 804 810 788 802 784
3610.0 804 800 795 808 793 829 801 793 778 816
3650.0 802 854 763 813 778 806 835 812 800 774
3690.0 826 788 775 793 787 803 809 785 792 773
3730.0 814 812 789 812 799 859 788 805 768 792
3770.0 780 786 777 802 786 780 782 806 784 828
3810.0 766 828 793 838 780 788 794 822 803 775
3850.0 785 841 838 767 815 851 802 818 804 814
3890.0 815 815 783 783 801 780 779 788 771 781
3930.0 821 833 849 800 821 792 808 839 804 811
##END=
