##TITLE=Butanedioic acid, diethyl ester
##JCAMP-DX=4.24
##DATA TYPE=INFRARED SPECTRUM
##ORIGIN=Sadtler Research Labs Under US-EPA Contract
##OWNER=NIST Standard Reference Data Program
##CAS REGISTRY NO=123-25-1
##MOLFORM=C 8 H 14 O 4
##XUNITS=1/CM
##YUNITS=ABSORBANCE
##XFACTOR=1.0
##YFACTOR=0.000056738
##DELTAX=4.0
##FIRSTX=450.0
##LASTX=3966.0
##FIRSTY=0.006525
##MAXX=3966
##MINX=450
##MAXY=0.56738
##MINY=0
##NPOINTS=880
##XYDATA=(X++(Y..Y))
450.0 115 106 117 61 10 32 119 140 74 51
490.0 38 115 178 133 87 73 92 60 141 37
530.0 52 12 111 167 177 216 72 139 179 262
570.0 166 146 64 207 268 235 189 75 182 202
610.0 293 171 140 109 164 299 356 380 259 255
650.0 154 265 197 171 95 148 190 162 195 108
690.0 140 141 178 182 157 121 110 170 177 166
730.0 94 120 83 143 221 189 129 114 167 194
770.0 235 167 203 213 242 292 305 283 235 319
810.0 304 318 259 219 182 260 299 268 321 305
850.0 476 570 676 537 473 381 308 285 267 238
890.0 174 215 236 278 275 266 269 299 374 333
930.0 335 276 298 299 361 345 328 357 330 382
970.0 348 348 274 288 292 313 331 333 378 440
1010.0 604 743 985 1265 1626 2001 2326 2516 2495 2386
1050.0 2107 1848 1556 1357 1103 975 869 798 781 796
1090.0 886 1032 1252 1272 1218 1148 1127 1161 1280 1480
1130.0 1646 1974 2302 2880 3719 4930 6652 8340 9074 8590
1170.0 7495 6393 5631 4946 4525 4032 3711 3535 3505 3613
1210.0 3678 3716 3490 3368 3215 3177 3155 3168 3159 3101
1250.0 3067 2959 2924 2803 2711 2530 2427 2324 2224 2160
1290.0 1998 1854 1756 1772 1788 1848 1880 1854 1752 1546
1330.0 1348 1227 1319 1483 1723 1782 1632 1309 1187 1372
1370.0 1796 2165 2071 1666 1220 1034 918 866 808 741
1410.0 732 791 886 880 921 939 933 992 917 843
1450.0 765 733 767 716 760 750 743 654 555 468
1490.0 444 329 315 259 323 265 219 221 251 226
1530.0 199 215 165 289 177 175 199 238 210 145
1570.0 193 143 221 135 136 144 163 142 143 146
1610.0 124 138 207 155 151 158 133 206 169 195
1650.0 187 280 182 174 204 224 200 216 240 336
1690.0 269 293 373 469 475 553 627 795 853 1010
1730.0 1313 1812 2543 3706 5474 7471 9422 10000 9253 7364
1770.0 5343 3714 2502 1777 1264 945 784 611 504 413
1810.0 350 289 278 245 228 195 184 159 163 201
1850.0 135 120 124 143 124 169 121 118 123 141
1890.0 145 137 135 115 131 140 123 114 115 112
1930.0 104 121 104 105 95 100 97 111 105 77
1970.0 94 95 102 86 104 82 103 113 116 107
2010.0 109 110 109 128 119 117 100 113 108 118
2050.0 119 99 95 104 115 101 108 82 82 99
2090.0 102 102 90 90 79 96 89 83 64 62
2130.0 72 72 89 61 62 62 71 67 67 62
2170.0 52 60 60 71 60 61 51 62 66 60
2210.0 67 54 59 60 65 61 59 58 59 58
2250.0 61 56 55 60 51 62 58 57 43 38
2290.0 57 57 56 40 54 45 64 52 60 50
2330.0 63 93 87 133 116 54 57 145 180 177
2370.0 141 115 104 90 84 51 52 53 60 60
2410.0 51 50 45 52 45 55 45 52 41 50
2450.0 53 49 51 32 42 49 58 40 39 42
2490.0 42 48 49 50 22 40 30 48 38 31
2530.0 24 22 46 33 48 21 30 27 47 38
2570.0 29 26 22 33 42 45 19 36 28 45
2610.0 49 48 31 31 48 41 48 35 26 27
2650.0 47 45 30 46 33 41 51 51 32 29
2690.0 34 33 52 53 39 23 56 52 61 54
2730.0 46 45 55 65 52 68 56 60 57 81
2770.0 67 56 66 56 92 83 75 55 77 80
2810.0 80 104 81 91 100 118 103 129 111 106
2850.0 120 159 157 148 186 180 238 306 358 383
2890.0 417 426 421 473 500 547 580 638 643 697
2930.0 788 923 1126 1307 1383 1311 1194 1042 1040 1120
2970.0 1227 1353 1595 2001 2329 2454 2199 1787 1471 1240
3010.0 1011 833 656 475 377 310 280 212 188 137
3050.0 122 132 124 104 90 89 67 93 95 81
3090.0 61 78 75 74 100 66 57 75 89 72
3130.0 75 73 42 65 76 79 54 76 33 69
3170.0 77 70 66 48 65 54 84 50 39 39
3210.0 68 54 62 62 28 54 53 75 46 61
3250.0 30 28 65 63 43 30 57 31 78 55
3290.0 40 21 41 68 50 70 36 41 48 77
3330.0 59 54 41 32 64 65 63 30 51 32
3370.0 67 71 54 45 48 66 61 81 43 41
3410.0 50 65 67 71 58 22 65 75 82 56
3450.0 53 48 59 86 66 70 62 100 102 145
3490.0 120 129 130 118 135 107 97 48 69 76
3530.0 89 76 51 54 63 91 72 75 46 68
3570.0 91 92 94 84 69 84 83 84 85 38
3610.0 77 75 91 97 53 118 65 72 68 94
3650.0 111 77 93 45 78 103 90 80 71 69
3690.0 107 64 45 62 54 99 87 63 52 68
3730.0 78 113 120 73 137 104 130 92 83 48
3770.0 86 87 72 77 65 44 54 110 109 86
3810.0 72 51 86 114 111 79 99 108 113 115
3850.0 116 122 93 97 96 116 87 63 72 114
3890.0 106 114 111 79 82 91 116 76 66 57
3930.0 60 102 102 87 65 105 0 7 7 7
##END=
