##TITLE=Butanal
##JCAMP-DX=4.24
##DATA TYPE=INFRARED SPECTRUM
##ORIGIN=Sadtler Research Labs Under US-EPA Contract
##OWNER=NIST Standard Reference Data Program
##CAS REGISTRY NO=123-72-8
##MOLFORM=C 4 H 8 O
##XUNITS=1/CM
##YUNITS=ABSORBANCE
##XFACTOR=1.0
##YFACTOR=0.000108887
##DELTAX=4.0
##FIRSTX=450.0
##LASTX=3966.0
##FIRSTY=0.000000
##MAXX=3966
##MINX=450
##MAXY=1.08887
##MINY=0
##NPOINTS=880
##XYDATA=(X++(Y..Y))
450.0 0 37 49 46 39 54 67 78 83 89
490.0 139 184 208 252 321 373 399 385 408 419
530.0 341 282 221 185 148 127 98 102 84 95
570.0 57 65 46 58 51 48 47 70 62 74
610.0 65 62 76 74 81 107 128 141 141 151
650.0 168 165 203 240 254 275 255 246 233 232
690.0 201 154 125 106 97 85 83 91 98 90
730.0 102 98 128 142 167 207 255 322 384 462
770.0 524 555 553 589 558 515 474 392 317 260
810.0 224 209 197 195 187 179 190 186 174 178
850.0 165 147 133 119 93 91 76 77 83 80
890.0 79 86 96 114 133 173 211 262 307 345
930.0 381 405 438 486 518 524 523 526 524 548
970.0 548 543 550 568 574 554 524 508 491 426
1010.0 349 290 260 253 257 291 322 363 399 419
1050.0 446 448 436 424 394 366 351 355 373 398
1090.0 421 444 484 537 593 653 683 690 722 797
1130.0 804 798 789 765 716 683 622 556 490 439
1170.0 403 377 353 330 308 291 280 274 278 282
1210.0 284 292 293 292 294 270 252 241 234 237
1250.0 254 275 299 316 331 348 350 347 341 323
1290.0 296 282 265 249 239 239 238 249 275 311
1330.0 365 437 504 593 674 737 798 828 853 860
1370.0 849 856 897 945 969 987 1051 1085 1106 1074
1410.0 1044 985 923 918 951 952 912 867 887 906
1450.0 949 995 973 1012 1008 951 828 771 691 591
1490.0 477 407 327 275 211 160 145 117 90 83
1530.0 83 67 67 44 49 56 54 36 44 57
1570.0 52 64 55 66 64 69 70 71 74 79
1610.0 81 88 88 96 103 113 120 127 148 149
1650.0 173 166 221 243 281 304 362 420 489 580
1690.0 704 842 1006 1199 1453 1789 2220 2819 3749 5082
1730.0 6799 8487 9592 9855 9791 10000 9930 8743 6872 5002
1770.0 3692 2909 2410 2017 1702 1441 1201 1005 825 688
1810.0 563 465 388 331 273 241 217 195 177 154
1850.0 152 145 138 129 120 106 113 109 103 100
1890.0 93 95 92 93 89 87 88 79 79 78
1930.0 78 75 73 69 68 67 63 65 64 61
1970.0 61 61 62 62 59 58 58 59 56 57
2010.0 55 56 54 56 55 56 56 54 54 55
2050.0 52 52 49 49 46 47 46 48 49 51
2090.0 49 48 50 50 51 51 51 51 52 54
2130.0 52 53 53 53 52 51 49 51 54 54
2170.0 54 52 52 51 50 50 49 49 50 47
2210.0 48 49 49 48 49 49 47 49 49 49
2250.0 48 48 46 45 46 44 45 44 43 43
2290.0 42 43 42 41 41 44 45 44 46 45
2330.0 47 42 44 45 46 38 38 34 36 38
2370.0 37 38 37 35 35 35 35 34 37 33
2410.0 33 33 35 34 34 34 36 34 34 32
2450.0 31 33 31 32 31 31 31 31 29 33
2490.0 33 35 35 35 37 38 41 41 41 43
2530.0 41 44 45 47 49 54 56 61 66 70
2570.0 74 78 84 91 95 100 107 114 123 131
2610.0 143 157 173 195 219 246 274 309 348 390
2650.0 440 501 575 670 780 918 1084 1280 1505 1781
2690.0 2141 2649 3135 3558 3777 3848 4003 3913 3854 3492
2730.0 2972 2498 2145 1888 1702 1559 1448 1376 1328 1307
2770.0 1313 1354 1438 1568 1739 1952 2183 2439 2673 2819
2810.0 2866 2826 2725 2559 2368 2105 1831 1607 1447 1348
2850.0 1300 1294 1339 1444 1626 1889 2245 2698 3093 3221
2890.0 3318 3455 3539 3475 3400 3253 3128 3089 3105 3192
2930.0 3374 3695 4076 4369 4537 4797 5176 5471 5695 6047
2970.0 6490 6350 5758 5440 5019 4433 3526 2693 2010 1484
3010.0 1101 836 648 521 432 371 332 304 280 264
3050.0 251 238 224 213 203 191 183 176 168 164
3090.0 158 156 149 144 143 141 137 135 136 137
3130.0 129 131 130 127 121 119 115 113 114 110
3170.0 103 104 102 100 98 90 89 84 85 79
3210.0 74 70 67 63 57 54 48 49 44 41
3250.0 38 39 39 38 35 37 37 35 36 32
3290.0 36 29 30 32 29 31 35 32 30 36
3330.0 36 37 42 39 39 40 39 39 41 45
3370.0 43 38 43 39 38 47 44 47 47 50
3410.0 57 56 59 63 75 85 98 105 120 143
3450.0 168 197 224 243 253 251 244 243 213 187
3490.0 152 135 114 91 78 67 65 61 46 47
3530.0 46 45 44 50 48 52 51 68 76 107
3570.0 130 140 146 138 140 121 93 77 66 61
3610.0 51 58 57 56 68 42 59 64 58 59
3650.0 61 72 66 72 71 54 59 54 62 61
3690.0 54 55 52 51 58 52 45 51 54 52
3730.0 53 50 50 52 35 49 43 56 52 48
3770.0 45 44 52 49 38 45 56 53 54 62
3810.0 59 52 62 55 65 61 59 49 67 62
3850.0 63 41 62 56 54 58 66 47 53 55
3890.0 61 54 57 46 54 49 52 55 56 50
3930.0 63 68 63 57 56 51 57 64 57 64
##END=
