##TITLE=1-Pentanol, 2,2,4-trimethyl-
##JCAMP-DX=4.24
##DATA TYPE=INFRARED SPECTRUM
##ORIGIN=Sadtler Research Labs Under US-EPA Contract
##OWNER=NIST Standard Reference Data Program
##CAS REGISTRY NO=123-44-4
##MOLFORM=C 8 H 18 O
##XUNITS=1/CM
##YUNITS=ABSORBANCE
##XFACTOR=1.0
##YFACTOR=0.000146548
##DELTAX=4.0
##FIRSTX=450.0
##LASTX=3966.0
##FIRSTY=0.002345
##MAXX=3966
##MINX=450
##MAXY=1.46548
##MINY=0
##NPOINTS=880
##XYDATA=(X++(Y..Y))
450.0 16 75 117 89 75 116 51 89 68 52
490.0 85 50 107 84 78 141 99 177 226 90
530.0 37 88 92 147 103 195 179 141 88 178
570.0 159 68 79 82 112 98 119 108 86 85
610.0 64 72 60 96 91 87 77 93 77 85
650.0 85 77 98 66 102 127 84 100 96 92
690.0 103 87 91 91 92 105 76 92 107 91
730.0 113 127 131 148 150 155 148 148 67 100
770.0 123 106 94 99 98 96 103 97 104 88
810.0 0 178 143 144 149 135 147 144 148 159
850.0 177 177 193 186 186 192 191 214 235 259
890.0 298 311 325 333 309 302 283 266 269 261
930.0 269 284 299 321 359 406 475 528 561 570
970.0 542 523 523 558 598 611 618 611 615 626
1010.0 674 762 902 1145 1588 2246 3031 3891 4483 4609
1050.0 4171 3376 2426 1571 1009 712 571 515 482 452
1090.0 426 393 363 344 318 313 305 295 302 310
1130.0 327 369 400 446 492 540 608 673 750 796
1170.0 801 777 706 617 555 506 503 474 448 440
1210.0 416 403 397 380 388 391 389 399 404 411
1250.0 428 422 438 432 433 435 430 439 444 438
1290.0 438 429 416 411 390 382 367 359 368 368
1330.0 383 407 427 466 541 637 794 978 1181 1387
1370.0 1502 1486 1402 1311 1225 1175 1104 1008 839 671
1410.0 519 413 349 315 301 305 340 403 484 584
1450.0 741 874 1080 1258 1460 1664 1765 1751 1550 1280
1490.0 932 651 423 293 228 158 135 126 120 107
1530.0 83 104 86 108 69 80 80 97 91 78
1570.0 76 82 78 70 77 70 65 75 61 73
1610.0 60 79 71 75 64 74 60 83 56 76
1650.0 60 101 58 57 65 63 62 67 51 75
1690.0 57 61 58 79 52 57 53 51 54 46
1730.0 50 49 57 37 44 36 50 34 48 43
1770.0 39 52 39 40 31 40 39 37 30 46
1810.0 35 36 40 28 41 35 37 38 33 37
1850.0 35 33 38 34 30 38 32 35 35 32
1890.0 36 31 30 31 28 31 30 31 32 26
1930.0 33 33 33 34 39 32 39 34 33 34
1970.0 31 34 31 31 34 30 32 31 32 39
2010.0 37 35 40 33 41 40 38 43 40 40
2050.0 47 44 47 51 46 54 48 53 56 50
2090.0 50 46 42 39 36 35 36 31 34 30
2130.0 31 34 31 33 29 29 31 30 28 33
2170.0 30 34 30 30 36 30 33 32 31 37
2210.0 33 32 36 32 34 31 28 34 30 30
2250.0 33 31 33 33 29 36 29 35 38 31
2290.0 39 38 41 44 42 48 45 44 48 42
2330.0 35 40 27 43 31 37 46 41 44 45
2370.0 35 46 38 40 41 39 38 42 37 42
2410.0 38 35 36 31 29 29 27 29 22 21
2450.0 23 21 26 23 24 26 22 24 26 23
2490.0 19 19 17 22 15 19 17 14 17 16
2530.0 16 19 15 21 26 21 28 27 36 39
2570.0 37 48 46 48 55 50 56 59 55 60
2610.0 62 62 67 61 67 69 72 78 76 76
2650.0 79 78 85 88 84 95 95 102 105 110
2690.0 122 125 129 147 152 167 182 198 228 238
2730.0 254 256 254 252 243 238 242 241 247 255
2770.0 254 263 259 267 279 287 307 322 338 368
2810.0 387 415 455 479 533 592 663 771 905 1081
2850.0 1290 1526 1805 2154 2625 3270 3906 4414 4616 4549
2890.0 4357 4167 4212 4446 4784 5092 5260 5216 5137 5016
2930.0 4984 5092 5269 5513 5787 6417 7350 8543 9566 10000
2970.0 9435 8217 6444 4791 3419 2357 1655 1194 887 683
3010.0 523 411 327 267 236 205 178 174 154 151
3050.0 141 130 133 125 122 125 114 121 122 109
3090.0 113 101 110 111 97 105 99 97 105 99
3130.0 104 105 99 109 105 105 118 103 110 106
3170.0 111 121 114 115 123 114 121 114 105 114
3210.0 94 96 92 77 73 60 56 57 48 45
3250.0 45 34 44 32 34 46 39 37 40 36
3290.0 46 40 39 45 35 43 47 44 48 41
3330.0 54 52 54 53 46 49 51 46 39 47
3370.0 39 53 47 42 53 50 52 60 51 54
3410.0 45 42 47 37 40 30 28 30 22 30
3450.0 38 35 35 27 31 44 26 34 18 30
3490.0 35 26 38 28 22 38 26 26 38 13
3530.0 24 30 20 34 27 21 33 19 25 24
3570.0 12 36 17 37 42 23 41 29 25 35
3610.0 41 41 49 40 62 74 69 92 104 140
3650.0 218 279 403 572 710 829 828 790 639 477
3690.0 368 223 165 115 93 86 60 40 54 14
3730.0 47 40 20 38 68 62 55 38 50 44
3770.0 34 53 31 58 47 28 43 57 49 74
3810.0 43 46 60 61 69 64 83 86 52 74
3850.0 78 74 61 83 81 60 60 81 53 63
3890.0 70 76 76 61 77 71 38 68 81 73
3930.0 31 52 67 38 37 69 59 61 91 41
##END=
