##TITLE=Acetic acid, butyl ester
##JCAMP-DX=4.24
##DATA TYPE=INFRARED SPECTRUM
##ORIGIN=Sadtler Research Labs Under US-EPA Contract
##OWNER=NIST Standard Reference Data Program
##CAS REGISTRY NO=123-86-4
##MOLFORM=C 6 H 12 O 2
##XUNITS=1/CM
##YUNITS=ABSORBANCE
##XFACTOR=1.0
##YFACTOR=0.000079187
##DELTAX=4.0
##FIRSTX=450.0
##LASTX=3966.0
##FIRSTY=0.001267
##MAXX=3966
##MINX=450
##MAXY=0.79187
##MINY=0
##NPOINTS=880
##XYDATA=(X++(Y..Y))
450.0 16 21 24 25 34 54 54 53 79 41
490.0 62 61 47 75 63 51 39 41 41 45
530.0 31 42 27 19 34 14 17 35 22 42
570.0 45 81 58 58 133 105 123 147 171 196
610.0 195 198 191 207 232 235 234 226 187 135
650.0 86 63 38 13 7 11 5 14 15 6
690.0 15 10 4 12 19 18 19 11 31 43
730.0 59 62 83 86 74 75 69 58 43 42
770.0 38 37 44 44 58 64 73 78 93 96
810.0 99 105 113 101 117 131 150 157 157 167
850.0 166 156 151 148 138 130 130 130 125 125
890.0 137 137 142 150 166 171 174 182 177 176
930.0 162 163 181 214 246 284 297 299 289 255
970.0 247 239 242 226 218 230 263 309 368 467
1010.0 578 728 925 1150 1360 1511 1628 1644 1571 1455
1050.0 1339 1251 1219 1257 1344 1392 1373 1257 1090 923
1090.0 752 620 522 438 373 335 299 277 262 244
1130.0 220 201 183 178 170 170 175 171 164 172
1170.0 179 206 226 269 324 396 506 667 899 1223
1210.0 1686 2416 3549 5196 7138 8933 10000 9936 8746 7081
1250.0 5457 4044 3007 2393 2016 1726 1437 1159 907 725
1290.0 594 518 463 424 393 359 326 295 263 237
1330.0 231 224 219 230 272 357 522 836 1245 1541
1370.0 1708 1747 1502 1212 1055 961 897 791 637 483
1410.0 363 299 266 245 264 289 310 340 370 416
1450.0 465 513 553 569 581 577 537 472 407 349
1490.0 289 242 202 183 169 136 139 142 131 120
1530.0 114 115 115 94 96 97 91 95 69 74
1570.0 70 66 61 59 66 59 59 59 59 65
1610.0 62 65 62 66 62 64 65 65 72 79
1650.0 79 84 85 90 90 97 97 100 114 115
1690.0 127 146 165 190 225 271 329 396 475 592
1730.0 741 952 1281 1757 2420 3320 4526 5474 5801 5758
1770.0 5331 4065 2902 2026 1378 930 629 457 345 272
1810.0 221 183 157 138 125 113 100 94 88 79
1850.0 73 66 66 59 61 54 55 47 47 46
1890.0 46 47 47 47 46 34 41 40 35 28
1930.0 29 28 28 28 28 29 29 29 29 28
1970.0 22 35 29 29 30 34 36 36 36 35
2010.0 35 35 34 34 35 35 35 35 42 39
2050.0 43 38 41 41 37 35 42 41 49 54
2090.0 56 47 50 41 39 29 30 30 23 23
2130.0 23 24 23 23 24 26 23 27 23 23
2170.0 23 23 24 24 24 23 23 23 17 17
2210.0 17 17 17 17 17 15 16 17 17 10
2250.0 18 9 16 10 15 11 11 10 10 10
2290.0 16 15 20 20 27 27 31 38 37 34
2330.0 35 29 32 30 11 19 30 26 25 7
2370.0 0 0 0 0 5 5 11 11 11 12
2410.0 11 11 11 10 6 6 6 9 11 11
2450.0 11 11 18 17 18 18 11 11 11 11
2490.0 8 6 5 5 0 6 5 5 5 4
2530.0 6 6 5 5 1 6 6 6 5 5
2570.0 6 6 6 6 6 6 6 6 6 6
2610.0 6 6 6 7 7 7 7 7 0 3
2650.0 6 7 11 13 17 14 13 13 13 12
2690.0 7 7 6 14 14 17 19 20 25 25
2730.0 25 25 33 34 38 40 42 39 37 35
2770.0 37 39 32 38 44 39 44 53 53 52
2810.0 58 64 70 81 89 101 114 132 158 197
2850.0 245 294 351 407 485 579 697 836 966 1012
2890.0 1006 987 902 835 827 858 929 993 1086 1190
2930.0 1322 1488 1695 1897 2029 2131 2228 2335 2526 2744
2970.0 2957 2886 2614 2197 1655 1198 886 662 500 391
3010.0 316 268 237 219 206 196 197 190 186 180
3050.0 161 159 147 140 127 121 109 103 97 89
3090.0 86 79 73 67 66 61 67 54 55 50
3130.0 47 41 38 43 35 35 42 47 41 42
3170.0 42 36 40 38 35 36 33 29 30 34
3210.0 30 30 36 30 24 35 30 25 29 30
3250.0 30 23 23 25 29 24 18 24 26 24
3290.0 19 16 15 18 30 24 25 17 25 17
3330.0 24 18 19 23 28 27 20 22 19 18
3370.0 24 32 32 12 25 19 31 30 28 25
3410.0 18 18 25 13 25 20 25 31 31 25
3450.0 27 23 13 19 34 37 31 31 37 43
3490.0 51 76 63 77 73 66 63 61 50 37
3530.0 17 20 38 20 25 12 14 17 13 10
3570.0 11 17 13 15 31 17 19 19 19 21
3610.0 23 19 22 12 13 6 8 7 14 7
3650.0 17 13 7 15 7 14 7 6 5 8
3690.0 0 8 1 8 0 7 5 0 7 4
3730.0 6 7 0 3 2 0 0 0 0 0
3770.0 0 0 0 0 0 0 6 4 9 4
3810.0 0 0 2 8 10 11 3 2 1 3
3850.0 7 4 3 8 7 0 0 3 0 1
3890.0 0 1 7 6 1 2 0 7 6 6
3930.0 6 11 12 12 12 12 6 6 10 17
##END=
