##TITLE=Phenol, 4-ethyl-
##JCAMP-DX=4.24
##DATA TYPE=INFRARED SPECTRUM
##ORIGIN=Sadtler Research Labs Under US-EPA Contract
##OWNER=NIST Standard Reference Data Program
##CAS REGISTRY NO=123-07-9
##MOLFORM=C 8 H 10 O
##XUNITS=1/CM
##YUNITS=ABSORBANCE
##XFACTOR=1.0
##YFACTOR=0.000050787
##DELTAX=4.0
##FIRSTX=450.0
##LASTX=3966.0
##FIRSTY=0.040731
##MAXX=3966
##MINX=450
##MAXY=0.50787
##MINY=0
##NPOINTS=880
##XYDATA=(X++(Y..Y))
450.0 802 477 759 649 1036 659 1112 744 961 829
490.0 910 887 714 889 818 961 820 1066 1025 1240
530.0 1182 1238 1337 1183 1104 887 859 634 596 476
570.0 440 399 210 46 141 89 107 163 23 82
610.0 57 63 23 38 45 35 28 36 56 19
650.0 64 54 58 48 43 96 56 90 70 150
690.0 131 145 197 286 344 386 467 517 561 510
730.0 467 398 322 223 200 182 173 186 163 202
770.0 188 240 262 331 434 537 723 893 1142 1383
810.0 1566 1819 2019 2266 2532 2721 2424 2113 1794 1364
850.0 909 569 358 266 198 156 147 130 119 92
890.0 103 61 89 67 73 74 75 87 81 96
930.0 110 130 121 144 137 125 114 115 120 121
970.0 115 110 115 101 106 112 109 136 153 199
1010.0 234 261 252 273 247 249 247 268 301 331
1050.0 378 411 468 450 431 415 388 354 365 413
1090.0 484 592 685 783 827 841 880 880 853 790
1130.0 731 665 621 652 760 1004 1530 2734 5046 7579
1170.0 9058 9733 10000 8302 5826 4098 3070 2314 1787 1439
1210.0 1235 1106 1069 1065 1121 1228 1432 1824 2526 3714
1250.0 5062 5641 5575 5218 3990 1920 839 596 496 493
1290.0 505 521 575 621 696 743 913 1119 1352 1494
1330.0 1627 1542 1277 1052 851 639 500 409 332 319
1370.0 327 282 332 333 337 299 284 225 305 329
1410.0 329 474 403 693 837 1086 1050 1129 1060 964
1450.0 760 712 583 639 710 635 568 535 773 687
1490.0 805 1098 1726 3182 4559 6670 7216 6388 6117 3265
1530.0 1808 798 422 379 209 322 166 207 81 278
1570.0 254 366 427 633 867 1114 1360 1597 1788 1879
1610.0 1919 1730 1585 1346 1095 843 606 466 423 311
1650.0 192 157 204 217 182 133 109 130 90 4
1690.0 121 126 25 2 76 152 94 32 133 190
1730.0 128 72 143 173 145 96 172 153 135 142
1770.0 85 35 107 81 92 64 48 70 37 98
1810.0 84 85 110 106 88 83 113 157 125 114
1850.0 177 216 229 247 227 199 249 254 239 210
1890.0 169 151 142 136 114 92 87 71 59 76
1930.0 84 76 79 53 64 78 75 83 85 72
1970.0 83 96 93 97 97 62 68 77 80 68
2010.0 82 63 57 61 65 61 63 60 52 50
2050.0 50 58 62 54 51 60 67 62 77 74
2090.0 75 75 75 57 47 36 23 24 23 21
2130.0 14 12 17 14 5 12 18 9 13 6
2170.0 10 6 11 9 6 7 9 7 0 9
2210.0 4 7 10 8 14 15 20 13 15 17
2250.0 17 16 20 20 22 28 33 38 36 47
2290.0 52 56 61 69 66 65 67 67 70 62
2330.0 79 65 74 97 85 107 73 82 26 18
2370.0 18 34 35 46 37 38 32 29 40 52
2410.0 70 85 109 137 157 158 143 130 97 77
2450.0 61 57 49 45 41 44 42 51 59 56
2490.0 67 71 77 79 85 87 79 69 57 53
2530.0 44 45 42 42 38 43 43 39 45 40
2570.0 47 41 53 49 59 65 68 68 70 74
2610.0 66 69 70 71 61 64 69 71 67 63
2650.0 64 52 54 54 56 51 55 63 56 56
2690.0 58 60 51 49 45 50 45 47 43 51
2730.0 60 61 73 75 87 88 83 87 97 111
2770.0 111 119 119 120 115 107 104 103 108 100
2810.0 118 120 141 151 173 196 228 268 301 345
2850.0 412 500 598 728 874 1027 1175 1306 1400 1426
2890.0 1395 1349 1306 1253 1232 1230 1246 1278 1356 1491
2930.0 1697 1967 2232 2361 2331 2273 2169 2133 2451 3190
2970.0 3741 3707 3584 3112 2184 1469 1171 1075 1111 1234
3010.0 1413 1574 1645 1694 1662 1620 1580 1540 1447 1322
3050.0 1151 999 882 815 775 712 658 586 531 481
3090.0 419 371 343 327 311 295 283 277 247 235
3130.0 213 188 181 160 150 147 135 118 114 108
3170.0 115 125 112 119 112 106 96 92 91 71
3210.0 77 76 78 67 76 68 73 62 70 72
3250.0 69 64 72 66 66 63 65 70 61 61
3290.0 65 60 71 58 72 61 76 68 59 67
3330.0 70 76 74 90 93 97 102 117 110 114
3370.0 128 118 120 113 115 100 113 101 101 94
3410.0 93 82 86 91 74 94 85 91 85 81
3450.0 73 65 79 63 58 48 71 57 59 50
3490.0 46 48 46 62 30 49 49 42 40 14
3530.0 45 37 53 41 28 17 47 28 61 2
3570.0 12 46 35 68 26 63 39 52 70 71
3610.0 67 62 111 130 272 308 601 1016 1814 2657
3650.0 3667 3429 3397 2984 2125 875 460 192 159 141
3690.0 79 62 76 82 74 69 36 54 39 81
3730.0 66 39 4 63 0 35 24 40 54 42
3770.0 56 66 87 60 50 77 71 39 65 42
3810.0 90 49 66 85 81 77 73 39 32 67
3850.0 109 47 86 86 94 79 84 106 86 77
3890.0 109 54 106 49 94 86 104 80 86 74
3930.0 96 76 85 109 86 106 93 102 74 79
##END=
