##TITLE=2-Octanol
##JCAMP-DX=4.24
##DATA TYPE=INFRARED SPECTRUM
##ORIGIN=Sadtler Research Labs Under US-EPA Contract
##OWNER=NIST Standard Reference Data Program
##CAS REGISTRY NO=123-96-6
##MOLFORM=C 8 H 18 O
##XUNITS=1/CM
##YUNITS=ABSORBANCE
##XFACTOR=1.0
##YFACTOR=0.000145447
##DELTAX=4.0
##FIRSTX=450.0
##LASTX=3966.0
##FIRSTY=0.000000
##MAXX=3966
##MINX=450
##MAXY=1.45447
##MINY=0
##NPOINTS=880
##XYDATA=(X++(Y..Y))
450.0 0 65 82 131 124 169 85 165 104 167
490.0 138 215 98 111 120 88 136 126 148 99
530.0 127 95 134 89 101 132 71 132 88 105
570.0 74 119 71 110 112 128 106 101 135 108
610.0 124 112 133 115 104 136 133 132 119 113
650.0 80 122 122 119 96 116 127 116 122 117
690.0 135 110 156 142 164 176 214 232 234 254
730.0 228 253 201 179 182 169 172 169 169 161
770.0 163 150 150 154 147 108 152 159 169 178
810.0 174 190 186 217 222 248 288 315 340 333
850.0 343 307 293 271 267 265 269 271 272 293
890.0 296 318 321 348 372 422 488 548 608 632
930.0 670 695 712 683 628 555 490 469 461 491
970.0 518 554 565 571 546 545 535 536 546 551
1010.0 578 593 626 652 713 781 859 939 1002 1057
1050.0 1087 1117 1117 1125 1112 1111 1107 1126 1171 1222
1090.0 1273 1285 1274 1203 1121 1049 1007 1002 1024 1070
1130.0 1108 1142 1139 1113 1031 931 807 695 598 528
1170.0 489 466 480 487 511 527 545 555 567 578
1210.0 585 607 629 675 722 786 848 928 985 1004
1250.0 983 913 836 757 697 642 602 569 539 513
1290.0 496 483 478 476 472 467 460 459 465 471
1330.0 497 542 601 656 713 757 800 846 922 1020
1370.0 1162 1343 1508 1601 1569 1439 1237 1042 876 734
1410.0 619 536 477 445 434 449 485 555 636 739
1450.0 867 1010 1137 1215 1205 1122 946 760 577 433
1490.0 334 267 226 193 179 166 155 144 136 134
1530.0 123 125 115 112 103 105 101 101 98 96
1570.0 94 94 92 84 93 89 88 85 83 84
1610.0 82 87 83 87 80 82 81 84 81 79
1650.0 80 82 80 80 84 81 82 83 84 85
1690.0 82 83 85 90 90 95 100 110 119 127
1730.0 138 144 142 127 123 112 106 98 96 88
1770.0 82 84 75 77 72 74 72 70 68 67
1810.0 67 65 68 65 66 60 63 65 67 68
1850.0 64 68 67 69 63 66 68 64 63 66
1890.0 68 64 67 63 66 68 67 64 67 65
1930.0 59 60 63 64 60 66 64 63 60 63
1970.0 64 63 64 63 63 60 65 67 65 66
2010.0 65 67 67 72 72 72 70 74 70 71
2050.0 73 71 73 70 73 67 65 68 65 63
2090.0 63 64 58 65 61 63 61 67 64 63
2130.0 64 67 66 67 68 64 67 70 70 71
2170.0 70 70 70 74 72 71 68 69 66 69
2210.0 73 71 71 70 71 74 72 68 71 69
2250.0 70 72 69 69 71 73 70 69 74 76
2290.0 76 78 81 82 85 83 81 74 80 73
2330.0 74 72 77 78 75 85 78 78 68 73
2370.0 72 75 76 74 77 78 77 79 78 81
2410.0 80 79 82 83 81 83 82 83 82 81
2450.0 76 77 78 80 82 79 80 78 76 80
2490.0 79 83 80 86 80 82 84 87 86 87
2530.0 90 91 93 93 95 94 98 100 103 105
2570.0 106 110 111 117 116 119 123 129 127 134
2610.0 136 138 144 145 155 155 156 160 166 171
2650.0 173 178 181 185 188 197 200 201 202 202
2690.0 197 192 185 182 181 180 189 190 194 199
2730.0 207 221 231 236 233 240 232 232 231 238
2770.0 238 236 252 262 280 293 314 340 361 382
2810.0 410 446 482 524 578 653 750 890 1089 1385
2850.0 1801 2343 2959 3530 4006 4238 4279 4250 4149 3889
2890.0 3617 3294 3148 3260 3572 4089 4791 5719 6827 8060
2930.0 9289 10000 9959 9268 8188 6916 5978 5614 5905 6596
2970.0 7046 6733 5885 4608 3461 2490 1705 1186 887 716
3010.0 618 534 483 435 404 372 335 315 292 266
3050.0 248 243 231 222 217 217 204 199 194 190
3090.0 181 181 176 168 156 155 164 154 151 152
3130.0 150 144 144 145 140 142 134 133 137 142
3170.0 135 139 139 139 133 133 141 133 127 133
3210.0 125 121 109 111 103 95 98 94 89 85
3250.0 82 83 88 81 77 71 82 72 69 82
3290.0 80 79 81 78 80 98 78 74 81 74
3330.0 75 70 88 92 100 89 94 95 76 82
3370.0 89 94 91 95 89 79 78 86 93 101
3410.0 110 108 95 99 94 93 99 102 102 100
3450.0 95 97 91 95 82 90 91 87 82 89
3490.0 87 82 91 80 88 74 75 77 78 76
3530.0 71 74 83 88 82 90 74 83 86 87
3570.0 82 79 87 79 89 80 90 100 101 104
3610.0 112 114 145 182 185 223 257 297 344 430
3650.0 533 633 664 598 516 381 291 217 168 128
3690.0 108 115 101 95 102 100 102 91 92 92
3730.0 100 76 99 86 93 79 96 92 79 85
3770.0 76 79 79 78 79 74 80 94 85 97
3810.0 83 81 90 88 106 100 102 101 90 92
3850.0 85 106 93 99 89 88 95 96 100 88
3890.0 99 101 100 102 91 83 70 94 84 99
3930.0 69 85 88 79 74 102 76 65 81 84
##END=
