##TITLE=Octadecanoic acid, butyl ester
##JCAMP-DX=4.24
##DATA TYPE=INFRARED SPECTRUM
##ORIGIN=Sadtler Research Labs Under US-EPA Contract
##OWNER=NIST Standard Reference Data Program
##CAS REGISTRY NO=123-95-5
##MOLFORM=C 22 H 44 O 2
##XUNITS=1/CM
##YUNITS=ABSORBANCE
##XFACTOR=1.0
##YFACTOR=0.000071445
##DELTAX=4.0
##FIRSTX=450.0
##LASTX=3966.0
##FIRSTY=0.000000
##MAXX=3966
##MINX=450
##MAXY=0.71445
##MINY=0
##NPOINTS=880
##XYDATA=(X++(Y..Y))
450.0 0 835 1164 931 929 1279 994 1196 955 1200
490.0 910 1071 1065 1060 1077 1076 1077 1001 1166 1023
530.0 1121 1040 1140 1104 1070 1101 1080 1145 1030 1153
570.0 1050 1093 1090 1108 1102 1036 1306 1252 1088 1123
610.0 1124 1073 1126 1093 1100 1094 1111 1102 1104 1101
650.0 1076 1085 1078 1095 1081 1091 1091 1087 1107 1095
690.0 1121 1108 1127 1144 1188 1189 1213 1213 1206 1203
730.0 1198 1190 1181 1194 1167 1159 1151 1142 1137 1119
770.0 1129 1121 1126 1101 1105 1118 1097 1103 1105 1114
810.0 1105 1108 1098 1110 1121 1131 1104 1120 1125 1120
850.0 1114 1129 1121 1108 1121 1128 1114 1113 1130 1129
890.0 1116 1122 1122 1127 1125 1130 1124 1129 1124 1123
930.0 1127 1140 1154 1167 1191 1197 1222 1230 1246 1245
970.0 1244 1242 1229 1220 1209 1209 1222 1235 1262 1307
1010.0 1334 1363 1393 1408 1401 1374 1354 1324 1311 1304
1050.0 1319 1354 1404 1464 1511 1537 1533 1518 1510 1523
1090.0 1544 1568 1590 1613 1676 1718 1769 1784 1773 1760
1130.0 1783 1848 1965 2125 2297 2470 2593 2721 2805 2870
1170.0 2886 2842 2753 2616 2499 2371 2285 2205 2166 2125
1210.0 2108 2102 2106 2127 2153 2190 2209 2239 2239 2217
1250.0 2157 2088 2024 1964 1928 1868 1807 1735 1687 1630
1290.0 1596 1579 1572 1572 1561 1558 1531 1504 1478 1470
1330.0 1467 1485 1523 1569 1620 1648 1662 1621 1575 1514
1370.0 1460 1397 1365 1366 1376 1366 1322 1255 1199 1174
1410.0 1156 1153 1170 1198 1226 1275 1331 1354 1430 1487
1450.0 1609 1676 1799 1868 1824 1724 1558 1398 1285 1200
1490.0 1146 1103 1085 1059 1040 1034 1019 1013 1013 1007
1530.0 1004 993 1007 986 991 981 993 974 990 976
1570.0 981 968 986 972 974 973 976 971 973 974
1610.0 972 968 971 964 979 963 978 967 971 970
1650.0 972 968 988 970 972 990 971 1003 989 1011
1690.0 1018 1033 1040 1086 1118 1142 1188 1239 1321 1409
1730.0 1553 1740 2097 2592 3241 3784 4034 3609 2881 2238
1770.0 1813 1558 1367 1291 1189 1147 1091 1070 1033 1016
1810.0 1003 984 976 960 966 946 953 945 946 938
1850.0 938 945 936 933 929 936 923 933 927 926
1890.0 926 926 929 926 929 926 923 922 921 923
1930.0 918 922 915 923 918 923 919 921 916 917
1970.0 915 914 916 911 916 913 919 914 916 915
2010.0 915 914 913 916 914 919 915 915 915 915
2050.0 914 911 913 910 906 906 907 902 905 901
2090.0 900 898 902 900 895 896 896 896 891 892
2130.0 894 893 888 887 891 890 892 888 889 888
2170.0 888 887 886 887 884 884 884 884 881 882
2210.0 879 882 881 879 883 880 882 880 882 881
2250.0 881 881 878 877 879 876 873 878 875 876
2290.0 873 873 872 872 867 861 866 857 858 856
2330.0 856 857 857 856 865 862 856 856 856 859
2370.0 869 868 875 879 876 873 877 873 873 871
2410.0 873 871 869 871 869 869 869 873 869 870
2450.0 873 869 870 873 870 872 870 868 872 872
2490.0 874 875 873 877 873 875 882 882 882 884
2530.0 879 880 883 882 884 882 886 885 889 887
2570.0 892 890 889 891 894 896 895 899 898 900
2610.0 903 900 903 905 911 907 914 911 916 919
2650.0 924 922 926 933 935 939 937 945 944 948
2690.0 948 947 943 939 938 937 937 938 941 940
2730.0 946 949 949 957 958 963 964 969 969 969
2770.0 973 979 987 989 1007 1018 1036 1053 1067 1083
2810.0 1102 1126 1153 1190 1226 1274 1331 1408 1530 1726
2850.0 2063 2623 3450 4170 4282 3889 3433 3092 2910 2793
2890.0 2693 2656 2737 2963 3307 3752 4292 5023 6077 7596
2930.0 9249 10000 9438 8145 6798 5591 4758 4316 4227 4305
2970.0 4227 3817 3207 2632 2206 1900 1676 1516 1400 1312
3010.0 1249 1198 1160 1130 1101 1084 1065 1046 1033 1017
3050.0 1007 996 985 977 967 965 960 958 956 952
3090.0 947 941 939 937 930 928 930 927 923 922
3130.0 921 919 918 916 915 915 915 911 916 910
3170.0 908 913 907 907 907 905 905 903 900 901
3210.0 903 899 894 897 895 893 893 890 886 885
3250.0 888 891 882 883 881 885 888 879 883 886
3290.0 887 885 883 883 883 880 883 881 877 883
3330.0 884 883 884 883 879 883 875 882 887 875
3370.0 885 879 880 880 885 882 886 887 887 884
3410.0 883 891 883 884 888 894 895 888 882 876
3450.0 883 883 884 890 894 889 886 889 896 886
3490.0 888 892 887 865 858 875 872 873 875 864
3530.0 870 879 879 879 867 881 876 868 889 863
3570.0 884 894 887 890 871 883 867 883 886 887
3610.0 871 883 880 880 887 883 894 911 889 897
3650.0 876 883 904 888 916 863 910 881 911 894
3690.0 892 886 891 890 899 895 886 895 894 889
3730.0 893 885 895 906 888 914 882 907 900 894
3770.0 905 895 905 889 905 890 897 891 895 883
3810.0 911 893 906 887 900 902 896 888 897 895
3850.0 890 909 901 901 893 888 891 889 883 898
3890.0 889 895 890 873 901 893 901 881 897 881
3930.0 888 879 897 892 890 883 886 888 883 894
##END=
