##TITLE=Propanoic acid, anhydride
##JCAMP-DX=4.24
##DATA TYPE=INFRARED SPECTRUM
##ORIGIN=Sadtler Research Labs Under US-EPA Contract
##OWNER=NIST Standard Reference Data Program
##CAS REGISTRY NO=123-62-6
##MOLFORM=C 6 H 10 O 3
##XUNITS=1/CM
##YUNITS=ABSORBANCE
##XFACTOR=1.0
##YFACTOR=0.000111227
##DELTAX=4.0
##FIRSTX=450.0
##LASTX=3966.0
##FIRSTY=0.053945
##MAXX=3966
##MINX=450
##MAXY=1.11227
##MINY=0
##NPOINTS=880
##XYDATA=(X++(Y..Y))
450.0 485 258 74 16 82 149 169 207 165 181
490.0 200 195 155 164 150 183 198 259 260 266
530.0 288 247 335 379 400 410 411 434 513 442
570.0 444 445 382 359 318 330 360 295 303 277
610.0 245 295 279 310 276 223 187 217 231 175
650.0 147 169 114 152 158 136 111 124 110 123
690.0 90 74 55 86 109 61 81 66 83 67
730.0 104 89 105 144 183 123 156 159 162 197
770.0 197 253 274 245 254 296 344 326 405 454
810.0 483 507 517 471 469 416 385 397 388 379
850.0 358 331 359 346 337 321 342 364 396 394
890.0 394 346 305 249 229 194 168 166 167 202
930.0 243 356 463 639 878 1153 1443 1732 2030 2311
970.0 2621 2911 3207 3468 3659 3769 3742 3633 3503 3318
1010.0 3192 3159 3302 3770 4651 6009 7595 8993 10000 9783
1050.0 8908 7420 5938 4922 4240 3855 3639 3507 3466 3432
1090.0 3406 3316 3159 2945 2749 2590 2556 2532 2579 2650
1130.0 2721 2748 2744 2677 2553 2420 2240 2055 1944 1823
1170.0 1691 1549 1437 1370 1304 1261 1183 1092 989 867
1210.0 752 645 561 493 451 427 403 398 398 404
1250.0 430 466 508 545 568 558 516 459 385 324
1290.0 282 240 219 213 223 253 325 424 551 681
1330.0 812 944 1078 1213 1307 1341 1301 1173 1003 842
1370.0 721 664 623 613 593 558 524 462 408 392
1410.0 403 431 477 527 582 614 650 619 615 584
1450.0 582 583 667 780 872 818 799 663 508 351
1490.0 322 265 206 206 164 161 177 145 130 139
1530.0 134 144 100 101 102 109 103 52 72 88
1570.0 82 79 56 90 82 90 72 85 79 77
1610.0 97 57 81 57 88 76 64 64 71 60
1650.0 60 9 60 75 57 52 63 65 62 56
1690.0 75 90 68 82 126 152 185 197 261 330
1730.0 389 508 636 904 1241 1736 2377 3142 3905 4503
1770.0 4857 4704 4347 3845 3414 3147 2831 2652 2583 2717
1810.0 3055 3476 4000 4422 4662 4697 4357 3834 3174 2493
1850.0 1888 1426 1072 822 639 498 405 325 267 215
1890.0 182 149 128 109 93 81 74 64 64 55
1930.0 52 53 48 49 42 39 40 36 36 36
1970.0 35 33 30 32 28 32 32 30 32 29
2010.0 31 32 36 36 37 38 35 37 37 34
2050.0 33 26 28 28 26 28 28 28 30 26
2090.0 28 26 27 22 23 28 29 31 32 33
2130.0 36 36 38 33 32 31 23 18 19 18
2170.0 19 17 17 18 18 15 11 12 15 14
2210.0 10 9 13 12 10 11 10 11 8 7
2250.0 8 7 10 4 5 8 6 4 5 2
2290.0 5 5 6 2 3 5 5 6 7 4
2330.0 3 0 6 12 16 12 22 23 22 3
2370.0 21 20 16 12 12 9 10 9 8 8
2410.0 10 8 8 8 5 7 7 7 7 7
2450.0 7 8 9 7 6 9 7 9 7 5
2490.0 5 9 7 7 5 7 7 5 6 2
2530.0 2 3 9 4 4 4 8 3 2 6
2570.0 2 4 2 5 2 1 5 2 2 8
2610.0 2 7 7 5 7 12 8 9 9 8
2650.0 9 6 10 5 5 5 3 4 5 3
2690.0 3 3 3 8 7 5 8 9 8 9
2730.0 13 10 10 16 20 25 30 34 36 37
2770.0 32 32 33 32 29 33 35 34 37 38
2810.0 44 49 56 58 66 72 78 87 93 100
2850.0 106 108 113 117 126 143 163 198 251 318
2890.0 410 484 535 551 533 502 468 462 484 525
2930.0 583 647 708 793 939 1137 1225 1228 1174 1034
2970.0 855 827 912 1103 1375 1619 1740 1727 1532 1233
3010.0 944 728 559 448 369 302 258 214 183 152
3050.0 133 112 99 89 77 71 63 56 54 50
3090.0 52 50 45 41 46 40 41 37 33 39
3130.0 30 31 36 36 36 32 31 27 32 30
3170.0 33 30 33 30 33 30 32 27 27 23
3210.0 23 21 20 15 8 7 11 16 17 10
3250.0 8 8 14 10 11 3 7 3 3 4
3290.0 10 1 0 2 7 3 7 5 9 12
3330.0 12 2 4 15 10 2 8 11 8 4
3370.0 5 8 8 9 4 6 5 4 8 5
3410.0 5 9 10 3 8 10 7 13 14 4
3450.0 5 8 16 11 5 18 17 13 21 22
3490.0 22 23 37 41 42 43 32 44 57 65
3530.0 49 66 62 64 64 62 81 134 168 239
3570.0 290 278 333 336 290 300 296 236 151 111
3610.0 72 68 66 79 77 55 58 67 71 52
3650.0 53 23 64 49 69 35 32 25 42 52
3690.0 16 51 57 55 45 40 35 49 46 67
3730.0 50 44 43 29 27 6 30 55 52 35
3770.0 48 44 57 61 50 49 46 43 48 9
3810.0 62 47 48 16 62 34 31 23 27 54
3850.0 43 16 14 38 16 29 32 40 39 12
3890.0 49 34 37 31 10 36 48 34 22 25
3930.0 40 61 45 38 20 23 45 32 72 30
##END=
