##TITLE=Butanoic acid, ethenyl ester
##JCAMP-DX=4.24
##DATA TYPE=INFRARED SPECTRUM
##ORIGIN=Sadtler Research Labs Under US-EPA Contract
##OWNER=NIST Standard Reference Data Program
##CAS REGISTRY NO=123-20-6
##MOLFORM=C 6 H 10 O 2
##XUNITS=1/CM
##YUNITS=ABSORBANCE
##XFACTOR=1.0
##YFACTOR=0.000079587
##DELTAX=4.0
##FIRSTX=450.0
##LASTX=3966.0
##FIRSTY=0.014724
##MAXX=3966
##MINX=450
##MAXY=0.79587
##MINY=0
##NPOINTS=880
##XYDATA=(X++(Y..Y))
450.0 185 184 183 167 165 172 163 150 162 159
490.0 143 160 144 127 158 136 140 130 108 148
530.0 128 0 240 170 185 168 169 198 230 243
570.0 248 191 244 256 262 292 298 295 290 282
610.0 280 278 276 274 269 270 246 220 212 193
650.0 172 167 147 146 133 170 145 159 171 183
690.0 195 198 202 202 192 191 185 177 172 173
730.0 176 164 176 184 186 201 203 204 213 205
770.0 198 186 199 199 192 212 232 261 284 285
810.0 285 270 254 228 262 287 312 339 387 468
850.0 556 676 812 974 1123 1293 1274 1184 1039 859
890.0 696 563 444 368 319 300 303 320 357 417
930.0 506 602 706 803 879 939 934 921 930 959
970.0 989 1019 1041 1002 883 760 637 516 414 359
1010.0 335 329 349 385 450 538 646 729 775 808
1050.0 814 787 791 832 923 1055 1215 1381 1529 1611
1090.0 1640 1592 1490 1394 1304 1261 1279 1415 1688 2152
1130.0 2878 3971 5437 6990 8290 9356 10000 9946 9637 9219
1170.0 8466 7248 6028 5081 4575 4228 3883 3442 2903 2375
1210.0 1986 1743 1613 1574 1595 1654 1750 1857 1940 1970
1250.0 1929 1825 1671 1503 1353 1208 1115 1072 1073 1132
1290.0 1244 1386 1514 1540 1500 1354 1141 932 800 712
1330.0 691 725 792 924 1080 1220 1356 1437 1442 1363
1370.0 1272 1149 996 893 815 728 648 545 452 407
1410.0 366 390 394 439 465 526 508 545 518 518
1450.0 522 527 587 551 578 517 468 387 347 281
1490.0 253 216 208 167 187 130 122 134 134 131
1530.0 104 146 120 162 125 136 152 192 226 214
1570.0 243 227 258 207 203 186 186 184 202 221
1610.0 249 292 376 443 549 764 1026 1556 2192 2778
1650.0 2910 2827 2481 1645 816 503 321 270 197 221
1690.0 188 194 205 246 234 255 277 326 346 403
1730.0 447 542 659 855 1134 1605 2333 3259 4356 5515
1770.0 6384 6683 6669 6475 5553 4228 2973 1984 1279 848
1810.0 593 439 355 287 266 238 209 203 180 173
1850.0 157 154 137 131 118 124 117 123 129 132
1890.0 142 135 133 128 120 111 103 102 90 97
1930.0 96 94 95 96 95 97 92 94 95 90
1970.0 92 101 95 95 97 96 100 106 114 118
2010.0 125 134 144 148 162 162 164 153 139 128
2050.0 109 95 91 81 70 74 75 74 74 75
2090.0 73 80 80 80 83 87 91 85 86 80
2130.0 80 73 66 58 60 52 52 52 52 52
2170.0 52 48 46 46 45 45 45 45 45 45
2210.0 44 44 44 44 51 50 50 55 56 56
2250.0 56 63 67 70 74 80 87 91 92 98
2290.0 97 96 90 89 82 68 76 66 57 66
2330.0 62 54 54 61 53 42 41 46 51 53
2370.0 46 53 43 40 38 39 38 38 39 38
2410.0 37 37 43 38 37 45 40 43 42 42
2450.0 37 42 37 30 30 24 30 30 30 30
2490.0 34 29 37 37 36 37 37 43 43 38
2530.0 38 38 31 31 33 37 32 33 33 26
2570.0 26 26 28 29 33 38 37 40 40 40
2610.0 40 40 40 40 40 41 41 41 41 38
2650.0 42 41 41 48 49 54 54 61 54 56
2690.0 60 56 56 56 55 55 55 62 62 62
2730.0 68 69 76 83 85 81 87 86 86 84
2770.0 84 83 83 83 89 90 96 93 92 96
2810.0 96 102 109 114 120 127 134 141 147 161
2850.0 168 186 201 227 269 326 420 554 697 792
2890.0 833 826 755 671 609 602 610 653 696 765
2930.0 850 968 1126 1282 1394 1470 1508 1526 1568 1706
2970.0 1935 2164 2227 2178 1968 1627 1249 929 690 525
3010.0 405 321 256 210 179 163 156 153 160 169
3050.0 181 188 201 187 175 155 147 146 170 208
3090.0 268 311 320 307 290 226 175 171 206 234
3130.0 229 219 200 143 106 87 85 79 73 71
3170.0 70 65 65 65 58 66 59 60 65 59
3210.0 59 59 53 53 59 60 58 47 47 44
3250.0 41 49 45 47 49 41 42 42 42 42
3290.0 42 44 48 40 45 35 35 36 35 35
3330.0 35 42 40 42 40 36 32 36 28 42
3370.0 41 41 36 42 35 42 24 31 38 37
3410.0 41 35 37 45 36 42 42 28 36 40
3450.0 42 35 34 33 41 34 46 34 45 44
3490.0 47 53 45 49 47 59 64 82 100 98
3530.0 113 108 107 104 99 82 85 89 124 164
3570.0 231 238 249 240 234 216 144 98 76 51
3610.0 57 52 42 50 42 63 47 53 45 43
3650.0 64 45 59 38 52 54 54 70 41 39
3690.0 54 57 45 45 51 43 46 38 51 51
3730.0 49 53 59 54 91 66 83 56 60 51
3770.0 47 54 47 49 43 50 43 48 51 57
3810.0 60 51 45 52 55 55 55 56 59 63
3850.0 63 57 69 58 50 51 46 45 38 47
3890.0 49 57 51 47 48 51 40 40 40 43
3930.0 51 44 48 40 31 24 32 30 33 42
##END=
