##TITLE=2-Pentanone, 4-hydroxy-4-methyl-
##JCAMP-DX=4.24
##DATA TYPE=INFRARED SPECTRUM
##ORIGIN=Sadtler Research Labs Under US-EPA Contract
##OWNER=NIST Standard Reference Data Program
##CAS REGISTRY NO=123-42-2
##MOLFORM=C 6 H 12 O 2
##XUNITS=1/CM
##YUNITS=ABSORBANCE
##XFACTOR=1.0
##YFACTOR=0.000077087
##DELTAX=4.0
##FIRSTX=450.0
##LASTX=3966.0
##FIRSTY=0.148547
##MAXX=3966
##MINX=450
##MAXY=0.77087
##MINY=0
##NPOINTS=880
##XYDATA=(X++(Y..Y))
450.0 1927 1324 1262 1278 1436 1229 1591 1493 1788 1668
490.0 1957 2046 2230 2418 2545 2662 2626 2680 2466 2376
530.0 2036 1719 1370 1053 877 691 600 480 469 364
570.0 379 342 349 309 291 372 423 579 750 998
610.0 1094 1170 1033 920 718 490 328 187 162 108
650.0 88 61 93 54 47 52 29 45 26 44
690.0 20 37 38 40 20 19 28 2 25 6
730.0 37 17 53 50 97 105 150 179 173 196
770.0 176 192 129 215 194 109 131 181 233 312
810.0 337 381 393 395 341 297 257 223 223 217
850.0 219 225 242 270 304 345 385 438 503 563
890.0 643 740 859 1010 1138 1267 1340 1358 1338 1315
930.0 1306 1325 1407 1524 1690 1835 1945 1952 1890 1787
970.0 1636 1450 1233 1079 941 845 784 746 736 728
1010.0 739 747 757 743 702 639 566 503 441 400
1050.0 367 363 359 359 371 374 394 413 452 511
1090.0 595 701 856 1057 1333 1645 1998 2374 2737 3082
1130.0 3388 3680 3862 4004 4059 4123 4122 4210 4454 4937
1170.0 5510 5911 6113 5928 5587 4963 4411 4026 3902 3894
1210.0 3899 3948 3807 3465 3133 2763 2343 1996 1739 1598
1250.0 1537 1505 1501 1457 1365 1269 1201 1165 1168 1241
1290.0 1383 1581 1834 2166 2506 2890 3236 3548 3721 3791
1330.0 3754 3592 3531 3522 3823 4441 5425 6456 7514 8350
1370.0 8913 8936 8602 8364 7766 7209 6203 5205 4213 3269
1410.0 2597 2271 2072 1984 1895 1871 1835 1853 1807 1825
1450.0 1803 1795 1776 1735 1692 1609 1441 1283 1131 936
1490.0 816 643 585 482 500 486 428 444 404 432
1530.0 369 408 363 416 353 370 338 353 351 315
1570.0 340 297 338 314 314 319 355 386 415 546
1610.0 628 793 934 1115 1285 1361 1500 1379 1359 1110
1650.0 1119 804 662 604 645 715 808 1052 1166 1563
1690.0 1846 2527 3047 4263 5135 6811 8347 9698 9918 10000
1730.0 9350 7884 6332 4880 3687 2811 2279 1716 1449 1091
1770.0 965 668 610 470 420 334 325 290 218 228
1810.0 163 174 115 152 102 124 103 101 92 93
1850.0 108 66 84 69 85 70 72 63 55 60
1890.0 58 69 39 60 38 48 29 42 40 18
1930.0 42 23 36 17 47 18 37 31 30 33
1970.0 31 42 21 30 18 27 17 17 16 7
2010.0 16 7 25 3 19 14 20 15 20 26
2050.0 14 26 12 28 18 33 18 26 32 30
2090.0 35 32 45 32 43 36 45 36 43 52
2130.0 44 54 47 59 45 58 53 54 47 49
2170.0 52 42 52 42 49 38 46 35 34 37
2210.0 29 34 24 34 22 26 23 27 23 23
2250.0 27 22 28 21 29 18 24 24 25 25
2290.0 22 25 13 19 6 11 4 10 5 8
2330.0 8 8 22 11 34 9 2 2 29 37
2370.0 41 65 45 41 29 32 17 19 16 13
2410.0 13 12 18 10 21 19 22 18 23 23
2450.0 20 22 19 20 11 26 15 18 17 22
2490.0 21 22 28 21 30 22 32 27 33 37
2530.0 36 39 31 37 26 35 30 33 27 36
2570.0 29 20 27 23 27 14 24 12 17 15
2610.0 18 19 17 23 16 24 21 25 16 25
2650.0 23 23 25 16 24 19 24 20 21 20
2690.0 28 28 26 35 36 45 44 62 62 77
2730.0 76 80 85 81 95 95 102 100 109 108
2770.0 114 118 116 120 117 131 130 138 143 162
2810.0 173 190 210 223 254 275 316 341 384 422
2850.0 470 524 594 687 793 936 1078 1240 1419 1636
2890.0 1840 2029 2192 2313 2423 2519 2640 2809 3011 3222
2930.0 3388 3508 3559 3503 3400 3266 3133 3154 3413 3977
2970.0 4853 5857 7069 7872 7572 6746 5641 4166 2760 1867
3010.0 1467 1246 1115 981 839 706 593 530 468 444
3050.0 413 395 384 377 369 359 363 347 343 322
3090.0 312 286 265 242 217 194 175 166 136 138
3130.0 119 118 103 101 100 91 89 88 93 85
3170.0 91 92 92 92 94 108 98 109 105 101
3210.0 93 100 98 95 103 96 90 75 77 59
3250.0 43 33 36 21 22 26 19 16 19 32
3290.0 24 29 32 31 30 29 29 24 40 35
3330.0 46 39 54 47 38 48 42 48 36 57
3370.0 48 57 76 96 113 129 141 139 150 140
3410.0 176 179 204 222 248 281 300 323 314 319
3450.0 306 292 254 222 205 171 143 121 125 107
3490.0 125 129 167 210 299 401 532 627 709 750
3530.0 738 722 687 775 1003 1511 2230 2898 3240 3445
3570.0 3281 2850 2234 1683 1336 1038 930 743 651 514
3610.0 454 373 319 296 259 359 382 422 436 401
3650.0 411 295 214 124 81 76 52 102 33 37
3690.0 25 61 1 26 18 10 39 17 8 29
3730.0 22 36 48 41 62 46 86 42 41 33
3770.0 10 21 0 21 1 3 3 7 11 24
3810.0 9 9 2 40 11 12 15 31 5 44
3850.0 0 42 42 48 28 47 28 37 29 36
3890.0 42 41 19 52 74 45 20 56 39 38
3930.0 31 40 22 38 44 30 33 8 33 2
##END=
