##TITLE=Paraldehyde
##JCAMP-DX=4.24
##DATA TYPE=INFRARED SPECTRUM
##ORIGIN=Sadtler Research Labs Under US-EPA Contract
##OWNER=NIST Standard Reference Data Program
##CAS REGISTRY NO=123-63-7
##MOLFORM=C 6 H 12 O 3
##XUNITS=1/CM
##YUNITS=ABSORBANCE
##XFACTOR=1.0
##YFACTOR=0.000184995
##DELTAX=4.0
##FIRSTX=450.0
##LASTX=3966.0
##FIRSTY=0.006290
##MAXX=3966
##MINX=450
##MAXY=1.84995
##MINY=0
##NPOINTS=880
##XYDATA=(X++(Y..Y))
450.0 34 36 95 90 133 209 169 136 137 118
490.0 46 51 10 48 18 23 47 24 67 82
530.0 39 59 44 34 31 27 18 23 37 41
570.0 47 51 55 50 47 35 31 36 43 31
610.0 35 24 25 29 32 29 31 35 36 35
650.0 36 38 35 31 37 20 27 26 24 23
690.0 19 25 28 24 23 23 19 25 24 33
730.0 33 46 57 87 108 118 223 257 152 154
770.0 137 94 49 25 42 40 42 46 45 0
810.0 29 24 41 74 119 154 227 396 427 488
850.0 605 665 687 579 534 433 283 174 126 103
890.0 90 88 94 101 119 145 173 222 305 434
930.0 644 923 1213 1481 1771 1815 1795 1544 1126 780
970.0 528 349 233 181 145 125 117 109 100 98
1010.0 100 96 96 95 100 96 102 109 120 134
1050.0 156 175 188 216 236 265 311 396 550 828
1090.0 1273 1847 2670 3658 4240 4286 4509 4163 3493 2765
1130.0 2176 1717 1444 1233 1001 942 1094 1541 2251 3231
1170.0 4359 5744 7728 8860 10000 8322 6435 3857 2049 1037
1210.0 583 376 263 192 148 122 96 85 73 68
1250.0 59 57 59 59 65 68 71 75 81 82
1290.0 82 83 84 91 102 121 157 218 322 461
1330.0 674 1044 1801 2892 3541 3393 2344 1249 1053 1005
1370.0 1133 1216 1296 1639 1873 2218 2085 2407 2234 1708
1410.0 1451 993 532 312 228 237 238 295 391 494
1450.0 549 689 751 479 383 299 190 108 87 60
1490.0 52 41 38 34 24 22 24 18 13 18
1530.0 18 15 18 9 20 20 26 14 19 24
1570.0 24 17 27 27 29 29 32 31 32 32
1610.0 31 28 26 22 26 25 30 22 33 28
1650.0 31 17 34 26 26 25 13 23 19 14
1690.0 25 30 20 27 34 39 38 36 39 41
1730.0 41 35 43 54 67 77 96 115 129 137
1770.0 134 128 116 102 87 73 67 62 57 52
1810.0 44 38 34 27 24 19 19 20 16 16
1850.0 14 18 16 17 16 14 17 19 23 20
1890.0 23 24 25 25 25 24 22 23 23 23
1930.0 26 26 28 31 33 36 41 43 45 48
1970.0 52 55 60 65 65 56 50 44 43 45
2010.0 51 56 64 70 73 72 72 67 61 55
2050.0 49 42 36 29 25 23 20 16 14 13
2090.0 12 10 8 8 8 7 7 8 7 9
2130.0 8 10 9 9 9 7 7 5 5 5
2170.0 5 5 7 9 11 12 12 14 15 16
2210.0 19 19 18 20 20 18 19 17 18 20
2250.0 20 24 24 20 18 14 16 18 19 23
2290.0 23 22 24 20 19 19 17 12 12 7
2330.0 3 2 3 2 2 4 2 2 2 2
2370.0 2 9 9 11 11 10 8 6 6 5
2410.0 5 2 2 2 2 5 5 5 7 7
2450.0 8 9 11 13 12 13 18 19 25 28
2490.0 31 26 27 24 20 18 16 16 13 15
2530.0 13 13 13 15 19 22 26 28 32 30
2570.0 33 29 31 31 32 35 42 58 77 101
2610.0 120 168 178 134 113 98 83 74 74 79
2650.0 92 111 139 171 218 259 254 243 203 158
2690.0 128 109 96 99 109 125 139 160 194 222
2730.0 268 257 233 223 220 224 207 218 244 255
2770.0 282 309 318 346 396 391 344 326 323 343
2810.0 398 458 546 663 769 901 1062 1309 1446 1464
2850.0 1490 1347 1141 1000 846 748 665 610 575 549
2890.0 544 526 526 505 480 413 352 278 209 177
2930.0 153 185 276 511 682 744 750 705 568 292
2970.0 159 93 106 111 205 341 705 1235 1380 1804
3010.0 1981 1176 1034 498 247 121 80 62 42 58
3050.0 33 41 24 38 22 25 26 24 28 25
3090.0 35 25 34 32 37 32 37 38 32 36
3130.0 31 35 27 37 32 36 35 38 44 38
3170.0 42 33 38 31 32 26 27 32 29 30
3210.0 29 33 22 24 17 16 12 11 12 7
3250.0 10 10 11 9 18 15 16 16 16 12
3290.0 8 11 5 8 5 10 10 8 9 7
3330.0 7 6 13 5 8 9 10 7 6 4
3370.0 8 12 8 12 7 9 8 9 8 6
3410.0 9 8 12 11 13 12 14 10 13 14
3450.0 7 12 10 9 7 12 11 10 12 13
3490.0 12 9 10 6 12 8 11 8 9 11
3530.0 8 11 7 14 13 10 12 13 16 12
3570.0 16 15 23 20 18 18 18 12 12 13
3610.0 9 11 13 14 9 15 5 16 8 12
3650.0 11 6 20 2 15 5 18 9 12 20
3690.0 10 18 12 14 12 12 9 18 7 17
3730.0 15 17 20 27 5 23 18 12 19 18
3770.0 11 16 17 20 16 17 20 14 25 4
3810.0 26 14 27 19 15 17 15 13 22 28
3850.0 15 28 17 13 16 22 12 16 23 15
3890.0 30 13 19 12 30 23 31 20 24 27
3930.0 28 30 23 25 20 30 22 31 26 28
##END=
