##TITLE=1,4-Dioxane
##JCAMP-DX=4.24
##DATA TYPE=INFRARED SPECTRUM
##ORIGIN=Sadtler Research Labs Under US-EPA Contract
##OWNER=NIST Standard Reference Data Program
##CAS REGISTRY NO=123-91-1
##MOLFORM=C 4 H 8 O 2
##XUNITS=1/CM
##YUNITS=ABSORBANCE
##XFACTOR=1.0
##YFACTOR=0.000188007
##DELTAX=4.0
##FIRSTX=450.0
##LASTX=3966.0
##FIRSTY=0.010716
##MAXX=3966
##MINX=450
##MAXY=1.88007
##MINY=0
##NPOINTS=880
##XYDATA=(X++(Y..Y))
450.0 57 40 40 30 32 18 20 26 16 14
490.0 22 17 14 12 13 20 18 31 9 2
530.0 20 16 9 1 6 18 12 17 27 26
570.0 38 32 52 92 164 284 482 692 877 858
610.0 1067 1182 1007 992 963 786 509 279 152 89
650.0 69 51 43 43 38 34 28 27 26 32
690.0 28 29 20 25 27 21 18 19 23 19
730.0 19 21 21 21 23 17 17 20 18 20
770.0 14 17 11 17 6 6 5 16 11 13
810.0 17 20 26 27 40 51 72 98 160 270
850.0 465 779 1236 1853 2603 3729 5515 7672 7474 6577
890.0 7019 5105 2723 1441 753 417 233 143 95 70
930.0 57 46 46 43 42 36 37 38 38 29
970.0 29 25 21 26 19 18 23 25 25 34
1010.0 44 67 95 152 216 278 348 402 500 632
1050.0 1031 771 536 731 837 838 814 812 926 994
1090.0 1118 1333 1696 2299 3204 4494 6170 7863 9131 10000
1130.0 9985 9954 9685 8884 7751 6075 4138 2438 1271 614
1170.0 307 183 132 108 101 92 87 75 70 63
1210.0 62 64 77 123 221 459 870 1475 2011 2272
1250.0 2338 2554 2659 2710 2674 2426 1699 1117 821 928
1290.0 1069 926 594 472 473 435 371 291 242 201
1330.0 186 187 208 286 421 600 727 801 851 882
1370.0 928 911 796 624 428 281 172 106 73 61
1410.0 47 61 58 111 159 271 361 498 556 744
1450.0 833 830 1126 932 687 648 553 422 308 215
1490.0 125 91 54 34 29 22 9 13 6 16
1530.0 12 15 25 11 18 25 28 17 34 23
1570.0 26 20 33 13 20 13 17 13 17 19
1610.0 16 22 19 15 12 13 17 9 10 13
1650.0 6 9 19 4 14 12 10 13 15 21
1690.0 23 29 34 45 54 69 80 90 99 106
1730.0 101 104 105 106 94 80 78 75 66 58
1770.0 36 29 32 30 32 30 29 23 21 21
1810.0 14 10 10 7 9 4 12 13 13 10
1850.0 16 20 19 19 21 21 31 35 45 61
1890.0 73 84 91 97 83 63 54 48 38 43
1930.0 44 53 58 69 91 116 141 166 187 205
1970.0 224 237 247 254 261 263 271 280 267 226
2010.0 174 117 80 59 42 32 22 19 13 12
2050.0 11 11 12 12 15 25 35 29 26 28
2090.0 30 29 34 32 28 26 27 29 35 37
2130.0 40 41 40 38 38 36 36 30 29 27
2170.0 29 34 40 45 41 40 40 37 37 37
2210.0 37 41 47 51 48 51 60 60 59 61
2250.0 65 74 77 84 93 96 100 97 91 82
2290.0 67 58 57 52 49 49 45 47 49 49
2330.0 48 53 59 49 53 41 48 52 68 67
2370.0 70 70 61 58 56 54 50 45 43 43
2410.0 32 32 28 23 20 19 15 16 18 18
2450.0 20 17 21 17 23 28 22 25 27 23
2490.0 21 18 16 15 13 5 6 0 1 0
2530.0 1 4 2 4 12 15 21 26 29 35
2570.0 43 58 72 61 48 52 50 44 42 30
2610.0 26 20 18 18 26 27 33 42 52 64
2650.0 83 106 140 171 199 244 298 344 405 459
2690.0 522 493 430 412 403 376 340 281 251 267
2730.0 302 345 394 434 502 612 588 505 466 446
2770.0 386 299 253 227 201 188 193 206 232 273
2810.0 354 444 548 719 868 1066 1570 2404 3533 4778
2850.0 5593 5760 5748 8593 9661 6070 5019 5123 4548 3867
2890.0 3317 3691 4320 3431 2732 2941 3145 3597 3623 2913
2930.0 2200 2086 2128 2413 3170 4472 6066 6990 7116 7935
2970.0 8924 7364 6787 6583 5143 3176 1714 833 415 235
3010.0 138 103 68 70 54 51 70 35 60 47
3050.0 30 33 48 44 48 45 57 28 30 48
3090.0 47 65 42 50 73 63 64 69 70 85
3130.0 84 79 67 67 56 54 50 66 60 62
3170.0 63 56 49 54 59 59 58 56 52 57
3210.0 66 60 70 76 58 74 66 64 42 64
3250.0 64 37 63 54 62 67 37 67 62 30
3290.0 40 48 66 58 28 53 75 96 10 68
3330.0 35 18 66 52 49 1 89 51 79 60
3370.0 37 80 82 36 42 50 89 98 92 78
3410.0 50 35 70 37 46 42 49 64 64 62
3450.0 60 67 69 75 63 72 60 68 46 42
3490.0 64 64 32 44 44 51 51 47 75 45
3530.0 54 41 42 64 51 61 60 61 69 85
3570.0 91 78 51 51 69 65 89 67 53 74
3610.0 81 56 65 47 68 63 88 56 60 81
3650.0 78 47 80 81 68 56 64 54 62 73
3690.0 77 64 74 70 80 64 68 84 64 74
3730.0 95 99 77 90 72 81 96 66 67 70
3770.0 73 65 68 73 87 96 99 89 97 106
3810.0 90 106 85 98 85 100 94 77 98 84
3850.0 85 111 106 94 96 95 99 68 79 95
3890.0 89 83 110 72 110 83 60 77 63 96
3930.0 54 54 101 100 90 116 109 120 131 124
##END=
