##TITLE=Pentanoic acid, 4-oxo-
##JCAMP-DX=4.24
##DATA TYPE=INFRARED SPECTRUM
##ORIGIN=Sadtler Research Labs Under US-EPA Contract
##OWNER=NIST Standard Reference Data Program
##CAS REGISTRY NO=123-76-2
##MOLFORM=C 5 H 8 O 3
##XUNITS=1/CM
##YUNITS=ABSORBANCE
##XFACTOR=1.0
##YFACTOR=0.000090112
##DELTAX=4.0
##FIRSTX=450.0
##LASTX=3966.0
##FIRSTY=0.000000
##MAXX=3966
##MINX=450
##MAXY=0.90112
##MINY=0
##NPOINTS=880
##XYDATA=(X++(Y..Y))
450.0 0 159 374 625 421 518 718 714 544 725
490.0 593 602 790 753 647 600 795 430 604 668
530.0 593 573 630 642 567 679 827 839 737 733
570.0 816 935 1003 1195 1197 1103 1091 1020 921 835
610.0 807 928 936 997 1212 1211 1197 1084 1128 974
650.0 814 726 697 603 542 371 434 448 459 388
690.0 374 332 296 294 302 261 236 289 256 265
730.0 225 269 223 262 383 462 458 460 479 396
770.0 423 447 452 415 394 379 323 332 328 280
810.0 257 218 181 200 205 238 213 155 197 234
850.0 225 217 236 297 247 269 317 299 306 364
890.0 334 306 326 361 374 357 332 365 363 357
930.0 379 399 434 437 447 376 386 413 438 482
970.0 514 526 624 559 542 582 568 521 524 599
1010.0 590 653 618 716 767 821 931 942 1086 1147
1050.0 1282 1400 1499 1561 1569 1592 1558 1506 1486 1473
1090.0 1561 1755 1996 2389 3051 3963 5300 7012 8601 9790
1130.0 9996 9773 8687 6970 5368 4392 3926 3650 3447 3249
1170.0 3000 2755 2469 2252 2167 2115 2105 2079 2060 2014
1210.0 1892 1804 1680 1522 1445 1397 1323 1276 1236 1213
1250.0 1196 1194 1230 1276 1341 1412 1431 1418 1364 1298
1290.0 1182 1120 1027 986 983 1005 994 1041 1139 1297
1330.0 1434 1651 1817 1969 2208 2442 2866 3248 3495 3687
1370.0 3549 3322 2996 2706 2571 2392 2301 2150 1920 1826
1410.0 1750 1784 1777 1796 1760 1640 1596 1422 1241 1139
1450.0 938 861 794 669 624 566 520 470 396 400
1490.0 374 373 352 336 367 368 348 357 352 343
1530.0 321 314 320 324 334 287 300 322 293 275
1570.0 259 270 265 252 255 239 247 252 250 273
1610.0 256 271 290 299 310 283 294 306 288 316
1650.0 340 356 376 340 394 409 466 519 571 679
1690.0 750 834 1040 1215 1460 1741 2111 2851 3483 4423
1730.0 5497 5843 6699 6723 6551 6417 5902 6068 6429 7315
1770.0 8423 9118 10000 9744 9287 8380 6608 5325 3982 2908
1810.0 2366 1859 1519 1292 1050 902 730 606 534 446
1850.0 410 353 327 318 279 299 265 245 259 240
1890.0 250 245 235 242 230 236 228 228 235 213
1930.0 216 201 195 208 191 191 192 187 191 185
1970.0 186 180 178 184 177 188 184 180 182 176
2010.0 179 182 179 180 167 175 171 172 176 163
2050.0 165 162 164 168 161 167 170 166 171 169
2090.0 172 177 169 175 174 180 180 175 173 172
2130.0 174 174 168 173 171 174 176 173 182 179
2170.0 180 183 181 184 187 185 183 176 177 172
2210.0 175 173 172 171 173 180 184 180 187 187
2250.0 185 189 187 185 186 184 179 174 180 177
2290.0 176 180 176 181 181 182 190 186 188 190
2330.0 175 181 186 183 187 189 203 191 207 191
2370.0 183 183 180 182 178 173 173 174 176 173
2410.0 167 172 172 176 174 173 172 167 170 171
2450.0 168 173 170 166 168 167 167 168 173 171
2490.0 173 172 173 174 175 174 178 172 174 175
2530.0 169 168 164 163 165 157 163 163 162 162
2570.0 164 164 165 164 164 160 161 163 164 159
2610.0 163 159 159 163 160 164 167 164 166 173
2650.0 170 171 167 170 173 180 177 175 176 174
2690.0 176 178 181 182 181 183 190 179 180 185
2730.0 184 189 189 188 191 191 192 193 190 191
2770.0 194 200 197 197 200 201 204 214 212 224
2810.0 232 242 255 268 280 290 300 313 331 356
2850.0 393 433 492 525 552 571 573 580 576 579
2890.0 581 597 634 701 824 976 1145 1319 1489 1623
2930.0 1696 1700 1636 1553 1444 1327 1246 1201 1182 1157
2970.0 1094 997 887 788 698 644 611 589 586 602
3010.0 605 608 579 544 494 442 396 362 345 335
3050.0 326 317 308 309 319 301 300 303 290 284
3090.0 269 267 255 252 248 244 233 226 209 216
3130.0 213 209 208 202 199 198 192 194 190 197
3170.0 195 189 192 194 184 188 188 188 188 192
3210.0 191 192 191 185 183 187 183 186 182 183
3250.0 178 180 182 186 182 183 180 186 183 187
3290.0 192 187 185 187 185 186 186 192 175 184
3330.0 183 183 191 190 190 195 192 187 191 187
3370.0 197 191 192 191 196 203 208 206 209 200
3410.0 204 205 216 221 221 233 235 236 242 257
3450.0 264 273 283 278 274 256 239 226 221 203
3490.0 214 208 205 210 201 215 231 234 255 263
3530.0 286 292 302 328 340 388 455 559 815 1426
3570.0 2641 3495 3759 3570 3488 2360 1260 746 462 377
3610.0 301 276 268 248 228 228 231 227 201 195
3650.0 204 204 193 177 178 191 206 201 189 171
3690.0 173 185 157 170 166 178 192 177 165 185
3730.0 171 177 186 178 165 198 170 182 167 159
3770.0 172 161 162 155 167 176 160 184 179 189
3810.0 166 170 161 188 198 184 181 185 172 160
3850.0 177 234 189 173 199 193 182 209 183 185
3890.0 185 173 189 187 200 181 174 198 202 221
3930.0 193 181 179 172 191 208 192 168 197 192
##END=
