##TITLE=2,4-Pentanedione
##JCAMP-DX=4.24
##DATA TYPE=INFRARED SPECTRUM
##ORIGIN=Sadtler Research Labs Under US-EPA Contract
##OWNER=NIST Standard Reference Data Program
##CAS REGISTRY NO=123-54-6
##MOLFORM=C 5 H 8 O 2
##XUNITS=1/CM
##YUNITS=ABSORBANCE
##XFACTOR=1.0
##YFACTOR=0.000116278
##DELTAX=4.0
##FIRSTX=450.0
##LASTX=3966.0
##FIRSTY=0.008139
##MAXX=3966
##MINX=450
##MAXY=1.16278
##MINY=0
##NPOINTS=880
##XYDATA=(X++(Y..Y))
450.0 70 110 148 203 161 183 198 228 247 269
490.0 310 334 417 528 569 551 600 575 592 561
530.0 591 598 584 457 425 380 260 260 218 216
570.0 186 165 165 202 147 131 194 196 197 205
610.0 214 207 226 243 212 183 233 222 218 213
650.0 172 206 171 111 56 83 48 41 46 27
690.0 29 18 30 5 44 38 20 37 17 47
730.0 66 78 146 233 349 518 670 805 958 1311
770.0 1438 984 823 711 579 525 292 221 114 99
810.0 68 63 45 60 48 44 56 60 82 81
850.0 119 125 153 182 215 248 297 355 413 500
890.0 591 743 916 1119 1259 1330 1354 1343 1246 1044
930.0 937 926 973 990 1013 1003 972 926 872 817
970.0 761 719 685 680 670 664 668 658 657 627
1010.0 586 533 484 445 414 390 370 342 320 306
1050.0 285 272 251 245 228 219 214 205 201 196
1090.0 195 181 189 186 197 199 221 244 272 319
1130.0 373 466 574 737 906 1107 1323 1548 1751 1853
1170.0 1907 1878 1773 1582 1375 1194 1083 1032 1037 1089
1210.0 1170 1290 1455 1693 1952 2242 2513 2742 2875 2916
1250.0 2908 2814 2646 2421 2228 2059 1943 1842 1780 1748
1290.0 1740 1750 1751 1751 1735 1720 1673 1612 1563 1538
1330.0 1530 1534 1580 1659 1813 2041 2330 2583 2762 2863
1370.0 2873 2737 2414 2126 1975 1923 1921 1982 2063 2155
1410.0 2264 2371 2470 2551 2607 2632 2630 2620 2577 2534
1450.0 2485 2438 2388 2299 2201 2106 1981 1865 1759 1681
1490.0 1628 1589 1577 1563 1592 1618 1646 1691 1748 1779
1530.0 1788 1831 1875 1919 1940 1990 2057 2164 2280 2419
1570.0 2606 2830 3109 3441 3862 4393 5042 5821 6687 7601
1610.0 8485 9236 9822 10000 9905 9460 8809 7968 7158 6309
1650.0 5523 4820 4135 3565 3082 2688 2370 2130 1946 1833
1690.0 1751 1753 1813 1956 2180 2503 2821 3048 3171 3219
1730.0 3153 2902 2524 2180 1862 1597 1382 1212 1091 1010
1770.0 954 904 844 766 673 607 638 657 614 570
1810.0 500 406 327 266 226 198 178 163 156 152
1850.0 144 135 124 115 110 95 90 82 78 81
1890.0 78 77 80 82 82 82 84 84 80 75
1930.0 75 70 64 62 58 53 56 55 58 63
1970.0 61 62 64 59 59 64 59 52 49 47
2010.0 41 38 27 22 12 10 4 0 5 2
2050.0 4 9 12 3 5 7 10 15 16 20
2090.0 20 22 16 14 13 11 6 10 7 6
2130.0 10 9 7 9 12 12 18 15 12 12
2170.0 10 10 5 7 3 6 5 6 4 5
2210.0 3 3 10 12 14 15 14 18 12 19
2250.0 21 18 25 25 25 33 39 45 41 42
2290.0 47 42 41 37 39 41 39 42 51 53
2330.0 57 47 44 55 51 46 78 75 70 44
2370.0 35 33 34 39 47 59 62 63 65 56
2410.0 49 51 49 50 47 51 47 47 47 48
2450.0 53 47 49 53 57 56 56 52 53 55
2490.0 56 53 55 57 61 62 65 71 75 78
2530.0 83 86 89 89 88 88 83 77 75 70
2570.0 72 70 66 69 74 73 73 84 87 90
2610.0 92 97 107 104 110 111 117 119 121 130
2650.0 137 141 134 146 144 147 143 143 142 143
2690.0 142 142 145 148 152 153 150 152 153 151
2730.0 151 149 146 156 160 156 154 158 160 160
2770.0 159 160 162 164 167 163 176 179 187 192
2810.0 189 197 204 202 210 216 218 235 239 242
2850.0 243 243 242 246 238 227 233 225 229 233
2890.0 239 251 258 267 281 308 334 375 427 503
2930.0 577 609 620 622 619 579 531 494 476 480
2970.0 491 490 475 464 455 457 452 455 465 488
3010.0 515 520 529 526 514 480 446 427 393 367
3050.0 355 344 333 328 323 328 311 312 312 299
3090.0 280 258 250 219 211 185 159 146 139 130
3130.0 117 100 96 84 88 77 72 77 68 67
3170.0 62 59 58 59 50 44 51 42 37 51
3210.0 54 46 44 57 47 49 48 57 56 59
3250.0 52 58 57 56 54 50 65 53 41 42
3290.0 41 50 39 37 31 32 38 28 13 45
3330.0 36 26 20 37 34 28 7 32 41 29
3370.0 37 26 31 31 3 62 33 33 37 24
3410.0 50 55 74 54 69 67 79 95 84 94
3450.0 84 89 89 88 84 67 62 64 59 58
3490.0 47 51 57 59 58 54 63 78 58 59
3530.0 63 75 64 65 69 77 99 95 115 122
3570.0 121 104 129 151 134 106 122 126 137 104
3610.0 93 93 84 85 94 80 80 85 60 61
3650.0 74 72 77 87 79 77 72 79 51 76
3690.0 74 91 92 84 96 71 85 89 90 86
3730.0 82 81 79 103 97 83 98 70 85 76
3770.0 75 74 78 96 85 94 93 77 96 94
3810.0 72 70 82 63 87 86 86 86 96 85
3850.0 95 98 77 87 111 94 103 100 87 97
3890.0 105 84 75 80 83 84 92 92 104 116
3930.0 86 80 99 95 100 89 62 109 98 73
##END=
