##TITLE=1-Butanol, 3-methyl-, acetate
##JCAMP-DX=4.24
##DATA TYPE=INFRARED SPECTRUM
##ORIGIN=Sadtler Research Labs Under US-EPA Contract
##OWNER=NIST Standard Reference Data Program
##CAS REGISTRY NO=123-92-2
##MOLFORM=C 7 H 14 O 2
##XUNITS=1/CM
##YUNITS=ABSORBANCE
##XFACTOR=1.0
##YFACTOR=0.000195053
##DELTAX=4.0
##FIRSTX=450.0
##LASTX=3966.0
##FIRSTY=0.000000
##MAXX=3966
##MINX=450
##MAXY=1.95053
##MINY=0
##NPOINTS=880
##XYDATA=(X++(Y..Y))
450.0 0 283 417 368 319 261 330 301 346 281
490.0 338 311 308 301 352 334 407 367 404 338
530.0 295 306 339 352 341 303 245 264 304 296
570.0 291 287 289 296 292 304 312 377 403 393
610.0 406 395 371 395 397 422 431 437 459 391
650.0 361 339 349 317 269 263 289 256 286 287
690.0 335 353 317 311 279 322 287 273 248 260
730.0 334 254 410 563 364 335 380 358 346 341
770.0 312 322 345 367 353 317 321 344 381 405
810.0 409 419 422 430 424 394 387 394 404 421
850.0 421 420 412 422 421 424 434 432 440 457
890.0 456 471 480 491 502 521 541 549 546 556
930.0 554 555 547 549 569 601 650 703 735 753
970.0 747 735 713 691 684 686 724 788 876 1000
1010.0 1129 1271 1394 1490 1545 1590 1623 1679 1755 1865
1050.0 1980 2063 2049 1980 1805 1579 1344 1163 1035 930
1090.0 841 766 702 666 637 620 620 606 593 598
1130.0 595 602 604 607 598 578 579 596 647 723
1170.0 776 796 780 747 731 756 837 963 1160 1441
1210.0 1838 2473 3486 5020 7015 8595 9888 10000 8861 7391
1250.0 5645 4160 3085 2462 2129 1896 1733 1563 1364 1187
1290.0 1009 860 748 676 629 583 553 519 492 480
1330.0 472 479 492 513 553 609 746 1021 1517 2050
1370.0 2307 2387 2089 1662 1487 1401 1323 1217 1019 823
1410.0 650 567 522 519 525 546 594 640 646 654
1450.0 715 789 876 975 1021 1058 1037 941 826 718
1490.0 619 538 482 457 443 437 406 413 402 395
1530.0 381 372 377 373 364 343 349 348 356 331
1570.0 329 332 325 324 319 321 335 323 333 334
1610.0 332 335 339 335 327 331 326 330 326 324
1650.0 348 346 350 331 354 348 353 357 362 381
1690.0 381 394 425 453 471 511 574 654 724 825
1730.0 959 1135 1454 1836 2490 3443 4642 5934 6288 6170
1770.0 5486 4013 2892 2048 1478 1136 910 786 674 597
1810.0 537 469 424 394 371 359 342 333 320 321
1850.0 307 298 295 292 291 290 290 284 282 276
1890.0 276 272 267 264 263 265 263 261 259 260
1930.0 259 259 259 257 255 255 254 254 254 253
1970.0 250 252 252 254 255 253 257 261 263 263
2010.0 265 263 261 266 267 269 267 267 269 269
2050.0 269 269 271 270 271 271 271 269 268 268
2090.0 267 266 263 260 260 260 261 261 263 264
2130.0 264 265 266 264 264 265 262 261 260 258
2170.0 256 256 255 256 253 252 252 252 252 250
2210.0 252 250 252 252 251 248 248 250 253 252
2250.0 251 250 250 251 253 251 253 251 252 250
2290.0 250 246 245 245 242 240 238 236 236 237
2330.0 242 247 247 242 243 245 238 245 246 252
2370.0 264 261 260 256 254 257 258 255 256 254
2410.0 253 256 257 258 257 256 257 258 258 259
2450.0 263 264 265 268 269 267 267 268 269 268
2490.0 262 262 261 261 258 260 257 257 258 257
2530.0 256 254 255 256 258 258 260 259 259 260
2570.0 266 267 268 271 273 275 278 279 281 281
2610.0 282 285 284 283 284 282 286 287 289 288
2650.0 286 287 289 289 287 289 287 288 287 287
2690.0 287 289 291 295 295 300 302 307 314 322
2730.0 330 335 338 338 335 332 329 323 323 323
2770.0 323 324 323 325 326 330 331 336 336 341
2810.0 352 359 369 378 387 402 420 445 476 514
2850.0 551 593 637 703 799 951 1152 1350 1497 1567
2890.0 1554 1504 1452 1453 1504 1595 1704 1807 1894 1971
2930.0 2069 2187 2291 2385 2463 2565 2784 3148 3750 4374
2970.0 4524 4230 3554 2649 1917 1450 1131 908 759 656
3010.0 592 546 509 487 480 474 469 458 449 439
3050.0 433 429 419 416 411 406 396 387 375 365
3090.0 355 346 345 337 327 320 319 316 311 309
3130.0 303 303 301 300 299 293 296 295 301 293
3170.0 295 293 293 294 291 292 289 286 281 282
3210.0 276 275 272 267 263 262 261 256 255 257
3250.0 257 254 253 252 250 247 253 252 251 251
3290.0 247 249 247 245 246 247 250 246 248 245
3330.0 243 248 252 250 246 244 249 246 249 250
3370.0 246 247 246 245 244 241 245 247 244 245
3410.0 242 245 239 241 244 243 246 238 239 245
3450.0 239 243 246 248 249 249 252 253 254 261
3490.0 274 286 295 294 299 296 292 280 266 256
3530.0 250 250 248 242 242 244 252 249 257 246
3570.0 253 254 265 268 265 249 262 260 257 254
3610.0 250 248 246 248 244 254 241 245 243 250
3650.0 248 256 247 253 255 254 261 248 258 246
3690.0 254 245 239 242 245 246 246 239 241 236
3730.0 240 250 243 256 246 261 243 246 245 249
3770.0 249 248 249 244 237 243 241 255 262 262
3810.0 252 246 251 261 261 257 264 259 257 248
3850.0 245 271 262 257 259 268 259 257 268 267
3890.0 263 263 257 250 256 256 255 266 258 257
3930.0 268 263 261 255 263 264 267 272 253 269
##END=
