##TITLE=Phenol, 4-amino-
##JCAMP-DX=4.24
##DATA TYPE=INFRARED SPECTRUM
##ORIGIN=Sadtler Research Labs Under US-EPA Contract
##OWNER=NIST Standard Reference Data Program
##CAS REGISTRY NO=123-30-8
##MOLFORM=C 6 H 7 N O
##XUNITS=1/CM
##YUNITS=ABSORBANCE
##XFACTOR=1.0
##YFACTOR=0.000137448
##DELTAX=4.0
##FIRSTX=450.0
##LASTX=3966.0
##FIRSTY=0.049894
##MAXX=3966
##MINX=450
##MAXY=1.37448
##MINY=0
##NPOINTS=880
##XYDATA=(X++(Y..Y))
450.0 363 508 637 720 702 920 955 1096 1071 1211
490.0 1197 1272 1312 1596 1673 1076 990 879 746 646
530.0 531 469 456 464 416 439 418 460 418 435
570.0 431 451 453 466 504 475 527 560 622 593
610.0 648 648 654 669 691 738 808 987 1219 1447
650.0 1556 1555 1601 1419 1324 1051 990 993 1009 991
690.0 1007 984 917 864 788 754 702 700 681 693
730.0 702 751 818 915 1088 1176 1160 1037 938 783
770.0 547 322 253 283 381 597 780 1017 1246 1513
810.0 1772 2235 2574 2262 1812 1593 1400 1162 933 733
850.0 581 469 366 261 187 138 75 60 31 25
890.0 38 13 19 22 37 29 35 33 43 52
930.0 93 87 43 51 43 57 53 70 98 143
970.0 83 57 56 51 63 48 78 74 99 108
1010.0 131 147 135 146 139 162 155 172 174 227
1050.0 246 292 355 417 517 560 638 665 676 656
1090.0 621 584 558 561 603 649 680 644 661 694
1130.0 662 627 613 669 828 1163 1691 2446 3554 4757
1170.0 5727 6038 6070 5644 4985 3667 2558 1873 1449 1237
1210.0 1107 1058 1036 1058 1143 1362 1873 2769 3942 4599
1250.0 4811 4790 4938 3939 2378 1407 1075 861 640 518
1290.0 462 449 481 515 575 613 753 924 1238 1379
1330.0 1373 1247 1060 847 575 322 213 146 76 99
1370.0 120 67 106 147 124 139 136 110 255 285
1410.0 294 384 170 324 317 462 387 527 692 792
1450.0 724 662 494 554 527 409 298 304 634 597
1490.0 854 1649 2794 5038 6065 8024 10000 8387 9516 5679
1530.0 5251 2349 1071 417 207 316 166 129 125 302
1570.0 253 325 358 404 563 589 748 857 1107 1292
1610.0 1519 1642 1722 1769 1703 1489 1264 965 797 589
1650.0 307 291 310 343 263 220 94 229 74 9
1690.0 145 178 6 18 106 224 148 21 198 271
1730.0 163 16 146 148 88 37 127 118 126 164
1770.0 89 47 158 130 149 135 109 149 109 217
1810.0 196 202 245 233 209 187 240 274 226 176
1850.0 244 273 246 235 183 112 173 178 160 146
1890.0 119 129 140 155 154 156 162 160 138 180
1930.0 192 173 173 128 137 157 153 153 153 129
1970.0 135 152 148 145 152 118 128 157 172 170
2010.0 185 169 157 156 158 144 138 122 108 116
2050.0 111 116 119 112 101 118 119 120 129 128
2090.0 130 134 139 129 127 118 107 99 93 94
2130.0 85 89 83 82 78 82 81 79 82 81
2170.0 85 83 87 83 80 80 78 76 72 73
2210.0 71 73 70 74 69 70 73 72 75 74
2250.0 79 71 73 75 76 76 80 80 78 79
2290.0 76 72 69 69 64 63 66 66 73 67
2330.0 87 79 88 83 98 94 85 89 75 79
2370.0 83 84 76 80 73 73 70 72 78 82
2410.0 93 98 108 108 109 102 98 82 66 61
2450.0 48 49 46 44 45 45 45 48 55 58
2490.0 64 67 71 73 74 70 62 56 49 46
2530.0 34 34 26 25 13 17 17 16 20 24
2570.0 19 18 26 24 29 30 37 36 36 38
2610.0 37 35 34 30 28 28 24 21 18 20
2650.0 26 24 26 27 30 31 33 36 36 38
2690.0 35 38 31 33 31 37 34 29 28 30
2730.0 34 29 34 31 34 31 29 33 30 33
2770.0 29 33 29 28 25 27 20 20 17 15
2810.0 16 15 18 16 18 20 19 19 21 26
2850.0 26 31 33 35 34 44 48 51 55 55
2890.0 58 55 60 61 64 61 64 62 60 61
2930.0 61 63 55 58 49 52 47 47 51 48
2970.0 47 46 55 53 62 78 106 149 237 382
3010.0 609 881 1122 1287 1385 1426 1345 1120 954 883
3050.0 812 721 638 556 483 407 344 292 256 228
3090.0 204 184 166 157 151 146 139 134 129 121
3130.0 113 91 85 70 60 53 45 35 35 29
3170.0 29 27 24 26 22 28 26 35 34 36
3210.0 37 40 48 42 44 40 47 43 42 44
3250.0 43 49 46 51 54 56 44 43 44 40
3290.0 38 35 33 26 28 22 20 19 30 29
3330.0 26 33 29 26 29 34 37 37 45 52
3370.0 62 78 96 126 164 202 248 276 290 291
3410.0 276 246 208 174 140 134 133 127 131 133
3450.0 147 164 178 198 220 239 261 257 269 262
3490.0 244 226 203 175 138 109 97 87 72 56
3530.0 63 60 58 40 40 38 43 26 38 18
3570.0 24 38 16 37 13 22 19 40 45 40
3610.0 52 54 76 90 153 199 373 545 904 1291
3650.0 1869 2184 2101 1946 1906 1480 910 422 185 135
3690.0 69 71 33 43 30 28 19 24 18 12
3730.0 33 10 27 8 13 0 12 13 30 28
3770.0 28 49 39 42 33 36 42 21 36 49
3810.0 53 53 52 27 35 46 35 34 49 60
3850.0 49 49 55 51 42 44 51 66 54 66
3890.0 69 73 66 62 71 81 57 60 48 55
3930.0 43 60 37 34 37 22 55 24 46 29
##END=
