##TITLE=Hexanoic acid, ethyl ester
##JCAMP-DX=4.24
##DATA TYPE=INFRARED SPECTRUM
##ORIGIN=Sadtler Research Labs Under US-EPA Contract
##OWNER=NIST Standard Reference Data Program
##CAS REGISTRY NO=123-66-0
##MOLFORM=C 8 H 16 O 2
##XUNITS=1/CM
##YUNITS=ABSORBANCE
##XFACTOR=1.0
##YFACTOR=0.000101691
##DELTAX=4.0
##FIRSTX=450.0
##LASTX=3966.0
##FIRSTY=0.039354
##MAXX=3966
##MINX=450
##MAXY=1.01691
##MINY=0
##NPOINTS=880
##XYDATA=(X++(Y..Y))
450.0 387 204 257 227 128 167 105 194 83 151
490.0 105 65 123 133 99 109 45 44 119 111
530.0 84 53 87 49 60 110 34 59 87 83
570.0 76 114 54 77 95 112 104 142 147 112
610.0 145 99 105 87 102 152 89 52 72 75
650.0 118 77 19 0 41 71 78 72 46 49
690.0 13 50 54 53 75 85 85 107 118 159
730.0 191 214 234 145 56 176 113 133 142 110
770.0 159 144 180 158 134 119 177 141 146 135
810.0 97 82 62 87 85 76 69 116 129 165
850.0 200 242 282 302 278 252 216 196 176 184
890.0 192 172 150 149 135 139 157 175 185 203
930.0 217 223 224 224 228 239 214 195 172 136
970.0 113 90 100 97 106 116 124 144 175 241
1010.0 348 501 679 905 1193 1511 1834 2133 2279 2155
1050.0 1867 1500 1225 1062 1000 1004 1025 1091 1228 1428
1090.0 1721 2097 2523 2846 3020 3029 2931 2689 2358 1999
1130.0 1739 1622 1670 1872 2236 2860 3761 4953 6315 7487
1170.0 8283 8381 7867 7038 5978 5025 4261 3747 3544 3472
1210.0 3530 3613 3690 3766 3833 3953 4093 4241 4331 4273
1250.0 4055 3639 3139 2676 2319 2102 1939 1806 1719 1663
1290.0 1682 1717 1753 1769 1782 1790 1743 1649 1505 1350
1330.0 1257 1247 1331 1448 1533 1531 1415 1277 1239 1438
1370.0 1799 2058 2070 1800 1373 1074 876 730 648 562
1410.0 518 513 535 607 683 767 828 882 940 1003
1450.0 1089 1195 1303 1405 1453 1403 1255 1012 767 598
1490.0 416 320 231 176 126 100 85 67 60 46
1530.0 41 41 32 25 20 27 23 16 15 13
1570.0 14 16 13 10 14 14 12 9 18 14
1610.0 16 14 5 11 8 9 12 14 22 19
1650.0 16 28 36 51 54 65 78 96 106 141
1690.0 174 218 271 347 429 531 645 787 988 1302
1730.0 1778 2552 3794 5390 7239 9195 9872 10000 8632 6585
1770.0 4653 2954 1920 1262 870 642 488 391 321 268
1810.0 227 189 161 139 107 88 70 54 51 45
1850.0 38 34 39 28 27 29 29 29 29 29
1890.0 34 35 28 30 26 25 24 20 27 26
1930.0 26 26 29 30 30 30 31 27 31 27
1970.0 26 25 19 19 17 16 18 20 21 23
2010.0 23 29 30 33 41 44 44 41 40 39
2050.0 36 35 29 24 24 25 31 25 28 23
2090.0 26 24 19 19 16 17 15 9 11 11
2130.0 6 12 8 7 4 6 3 2 6 6
2170.0 3 4 3 4 7 3 6 6 4 7
2210.0 1 3 4 6 7 7 6 7 10 5
2250.0 10 11 7 13 11 13 14 11 16 16
2290.0 13 16 12 16 20 18 20 20 31 25
2330.0 16 29 22 31 13 30 22 23 5 8
2370.0 6 8 14 17 19 15 15 16 19 21
2410.0 20 21 20 19 19 17 16 15 14 14
2450.0 12 8 12 13 15 14 16 15 10 10
2490.0 7 11 7 3 6 8 9 8 8 8
2530.0 10 13 13 15 17 14 16 15 16 21
2570.0 17 21 20 19 21 21 22 22 28 24
2610.0 29 28 27 28 35 31 33 35 33 42
2650.0 43 42 51 53 56 59 60 69 65 69
2690.0 69 67 63 58 62 63 64 67 74 83
2730.0 91 94 99 111 113 113 110 107 105 108
2770.0 113 120 126 132 145 149 159 176 182 203
2810.0 221 236 268 289 334 369 413 486 562 686
2850.0 860 1105 1458 1849 2243 2542 2694 2807 2865 2782
2890.0 2602 2350 2168 2180 2349 2634 3003 3464 4007 4642
2930.0 5318 5936 6459 6744 6658 6308 5833 5557 5710 6233
2970.0 6526 6299 5771 5086 4491 3964 3299 2623 2093 1712
3010.0 1395 1122 901 723 590 499 423 371 319 277
3050.0 247 226 205 189 175 163 155 151 141 127
3090.0 131 125 115 108 108 103 103 102 96 98
3130.0 90 83 87 79 73 80 72 68 74 72
3170.0 69 67 63 67 68 65 63 62 54 51
3210.0 49 38 29 32 25 24 28 19 23 24
3250.0 21 22 14 19 16 13 7 9 10 5
3290.0 6 8 12 4 8 9 9 10 13 12
3330.0 18 16 10 14 15 11 9 14 6 14
3370.0 15 11 14 17 12 19 23 13 13 12
3410.0 18 15 16 5 13 14 7 12 22 16
3450.0 20 24 28 25 39 48 51 72 87 91
3490.0 106 108 95 78 62 40 14 21 24 20
3530.0 8 15 8 14 19 12 3 2 8 15
3570.0 20 14 14 15 12 23 22 9 23 17
3610.0 13 7 3 18 2 18 20 20 16 16
3650.0 14 24 14 0 9 19 31 15 7 8
3690.0 4 11 16 19 19 17 23 13 22 23
3730.0 16 38 16 29 16 11 9 8 10 16
3770.0 25 13 13 21 11 14 16 14 5 15
3810.0 13 22 8 9 7 9 12 21 2 3
3850.0 15 1 20 13 27 4 44 26 6 4
3890.0 9 27 3 13 10 21 2 27 19 37
3930.0 36 46 45 44 33 5 5 1 10 27
##END=
