##TITLE=Benzaldehyde, 4-hydroxy-
##JCAMP-DX=4.24
##DATA TYPE=INFRARED SPECTRUM
##ORIGIN=Sadtler Research Labs Under US-EPA Contract
##OWNER=NIST Standard Reference Data Program
##CAS REGISTRY NO=123-08-0
##MOLFORM=C 7 H 6 O 2
##XUNITS=1/CM
##YUNITS=ABSORBANCE
##XFACTOR=1.0
##YFACTOR=0.000067935
##DELTAX=4.0
##FIRSTX=450.0
##LASTX=3966.0
##FIRSTY=0.000000
##MAXX=3966
##MINX=450
##MAXY=0.67935
##MINY=0
##NPOINTS=880
##XYDATA=(X++(Y..Y))
450.0 0 6 14 27 40 69 124 200 296 397
490.0 472 580 678 746 769 684 523 418 351 274
530.0 183 121 95 82 55 48 82 97 130 140
570.0 285 343 470 623 862 1045 1181 1231 1175 1005
610.0 801 584 341 281 249 257 285 296 312 321
650.0 268 161 113 80 53 80 59 61 54 73
690.0 46 54 50 54 39 58 34 26 41 34
730.0 35 33 41 24 29 50 78 112 186 290
770.0 420 499 550 575 599 555 585 712 884 1167
810.0 1325 1570 1700 1826 1997 2059 1865 1873 1961 2377
850.0 2625 2420 2256 1925 1143 497 205 109 83 61
890.0 55 48 41 50 55 70 74 81 74 72
930.0 63 58 43 28 35 32 45 35 36 30
970.0 39 44 56 58 80 80 96 120 138 139
1010.0 140 134 130 107 96 96 89 102 104 126
1050.0 141 156 161 163 171 193 207 276 359 511
1090.0 684 793 766 772 749 639 516 514 554 651
1130.0 805 1046 1446 2107 3377 5607 7422 7464 7289 7156
1170.0 5654 4952 5549 6090 5995 5832 5039 3497 2474 2166
1210.0 2111 2085 1873 1570 1281 1006 812 745 843 1152
1250.0 1790 2873 4305 5347 5613 5254 4396 2626 1108 625
1290.0 628 727 824 935 1044 1016 990 1046 1106 1110
1330.0 1081 988 898 747 612 536 471 422 357 254
1370.0 210 256 352 464 540 576 595 559 441 362
1410.0 336 314 369 445 633 856 1078 1081 1006 879
1450.0 567 306 178 121 109 112 128 124 117 186
1490.0 304 483 835 1270 1636 1813 1799 1650 1274 851
1530.0 617 480 423 347 313 269 246 269 280 365
1570.0 555 907 1503 2309 3420 4702 6037 7569 8373 8116
1610.0 6982 5716 4000 2594 1503 947 718 565 477 421
1650.0 358 289 231 233 283 365 477 568 705 839
1690.0 1057 1475 2339 3454 4684 6681 9195 10000 9716 8992
1730.0 7750 4246 1651 771 457 302 227 205 216 198
1770.0 194 151 130 123 117 128 122 131 131 115
1810.0 118 114 98 97 80 77 57 44 56 57
1850.0 46 61 57 63 77 78 74 84 95 112
1890.0 130 141 138 137 138 133 126 104 96 72
1930.0 62 47 43 41 40 35 44 50 50 61
1970.0 67 73 86 79 86 82 74 66 69 85
2010.0 95 112 107 105 87 81 66 75 76 76
2050.0 67 60 55 54 48 46 40 39 32 39
2090.0 34 33 35 40 43 46 55 50 48 41
2130.0 34 33 27 24 27 25 21 21 14 6
2170.0 6 6 6 6 7 6 6 6 6 14
2210.0 14 6 10 12 23 14 15 21 21 29
2250.0 29 29 41 36 44 44 48 50 59 64
2290.0 65 66 72 73 80 80 89 91 97 89
2330.0 75 62 62 58 75 82 83 74 81 69
2370.0 66 60 63 63 66 61 52 60 66 75
2410.0 75 90 91 97 103 101 109 117 123 142
2450.0 147 142 134 112 96 81 72 65 57 62
2490.0 62 61 56 68 68 68 84 92 93 101
2530.0 104 96 90 73 63 61 55 55 55 49
2570.0 48 55 56 55 66 73 85 85 85 85
2610.0 92 85 94 101 94 100 108 108 102 107
2650.0 111 114 127 150 172 208 245 283 320 359
2690.0 403 450 524 617 760 961 1260 1610 1869 1884
2730.0 1891 1818 1498 1100 810 601 471 399 378 385
2770.0 413 460 526 615 749 908 1112 1293 1394 1443
2810.0 1450 1383 1249 1095 950 815 694 574 438 321
2850.0 237 174 132 105 84 77 70 80 81 82
2890.0 90 90 89 97 91 89 92 97 89 84
2930.0 81 83 76 67 61 53 46 39 47 53
2970.0 53 60 68 67 75 81 97 119 148 186
3010.0 248 324 393 456 498 542 535 520 505 491
3050.0 440 388 343 314 331 338 334 317 288 252
3090.0 226 182 173 157 149 134 134 120 98 90
3130.0 66 60 44 34 26 27 12 19 11 11
3170.0 19 18 14 25 26 26 18 22 26 28
3210.0 27 27 26 26 14 12 12 10 6 9
3250.0 12 12 12 12 20 12 12 12 19 15
3290.0 14 20 19 30 50 46 56 48 41 41
3330.0 48 50 39 56 47 42 33 43 38 38
3370.0 34 27 41 27 35 50 54 68 103 122
3410.0 143 168 174 170 158 130 101 63 42 17
3450.0 22 12 12 22 26 20 16 6 21 14
3490.0 20 14 16 22 21 21 12 14 14 35
3530.0 24 22 15 22 24 23 20 31 18 19
3570.0 21 34 32 55 62 56 59 60 51 45
3610.0 63 91 154 244 444 800 1451 2403 3288 3680
3650.0 3497 3267 2475 1403 711 413 235 118 60 48
3690.0 34 15 15 17 14 18 19 15 23 20
3730.0 27 22 29 19 23 18 10 10 9 15
3770.0 10 9 15 5 7 8 6 16 9 15
3810.0 8 13 20 16 11 13 18 19 19 16
3850.0 16 17 16 16 18 18 17 14 19 17
3890.0 17 15 17 19 20 13 23 16 30 22
3930.0 22 17 14 15 24 24 20 24 30 29
##END=
