##TITLE=Hexanoic acid, 2-propenyl ester
##JCAMP-DX=4.24
##DATA TYPE=INFRARED SPECTRUM
##ORIGIN=Sadtler Research Labs Under US-EPA Contract
##OWNER=NIST Standard Reference Data Program
##CAS REGISTRY NO=123-68-2
##MOLFORM=C 9 H 16 O 2
##XUNITS=1/CM
##YUNITS=ABSORBANCE
##XFACTOR=1.0
##YFACTOR=0.000093411
##DELTAX=4.0
##FIRSTX=450.0
##LASTX=3966.0
##FIRSTY=0.007379
##MAXX=3966
##MINX=450
##MAXY=0.93411
##MINY=0
##NPOINTS=880
##XYDATA=(X++(Y..Y))
450.0 79 196 187 192 203 250 134 280 111 306
490.0 40 126 95 109 152 114 135 88 176 41
530.0 102 117 147 267 263 206 196 219 160 203
570.0 155 238 125 171 232 239 256 224 252 234
610.0 262 238 273 213 252 132 197 278 133 209
650.0 196 172 136 120 118 148 116 66 70 86
690.0 167 99 111 98 93 109 128 178 135 189
730.0 197 247 236 203 206 165 151 116 128 88
770.0 122 107 119 121 142 65 23 112 100 115
810.0 98 120 103 121 133 148 165 179 209 216
850.0 242 260 277 286 309 303 315 346 353 367
890.0 383 446 475 563 648 778 963 1219 1527 1843
930.0 2058 1980 1658 1241 954 801 731 736 784 879
970.0 1019 1219 1478 1835 2276 2696 2936 2882 2743 2530
1010.0 2359 2096 1855 1614 1463 1346 1231 1110 1010 923
1050.0 834 805 817 883 951 1041 1129 1237 1426 1674
1090.0 2009 2345 2680 2884 2992 2998 2890 2667 2396 2203
1130.0 2136 2216 2409 2790 3357 4245 5464 6850 8153 9053
1170.0 9211 8511 7222 5817 4703 3883 3346 3076 3031 3152
1210.0 3338 3512 3648 3813 3976 4146 4253 4280 4164 3882
1250.0 3477 2979 2556 2254 2128 2120 2148 2137 2057 1959
1290.0 1891 1849 1765 1680 1592 1549 1500 1421 1291 1167
1330.0 1129 1190 1325 1427 1455 1388 1315 1306 1398 1551
1370.0 1682 1745 1716 1623 1433 1203 948 766 668 626
1410.0 637 679 761 839 926 984 1024 1039 1077 1168
1450.0 1281 1410 1474 1471 1360 1204 993 765 567 421
1490.0 332 254 225 178 170 155 136 130 122 116
1530.0 102 102 96 107 85 86 81 87 80 67
1570.0 74 68 76 62 67 62 70 71 73 75
1610.0 78 89 90 102 105 131 149 196 249 314
1650.0 354 346 303 234 205 164 163 167 184 198
1690.0 211 257 297 372 432 530 617 748 888 1080
1730.0 1399 1904 2762 4031 5933 7782 9467 10000 9399 7690
1770.0 5680 3941 2758 2032 1571 1243 981 776 622 499
1810.0 411 337 281 240 208 186 169 158 155 159
1850.0 155 156 175 176 169 156 133 112 94 86
1890.0 77 71 74 65 61 60 60 62 63 61
1930.0 54 50 48 49 41 40 45 49 44 49
1970.0 48 49 52 53 48 51 52 49 49 52
2010.0 51 50 50 52 54 48 46 43 41 40
2050.0 42 36 37 40 45 40 44 42 34 30
2090.0 29 31 26 30 31 31 26 29 28 25
2130.0 26 23 25 17 23 20 23 20 21 15
2170.0 21 19 13 18 20 20 11 13 12 10
2210.0 19 18 22 17 20 13 16 12 15 14
2250.0 8 12 11 18 10 14 16 20 15 15
2290.0 17 13 19 20 15 16 16 6 1 1
2330.0 2 1 12 33 24 27 1 1 1 38
2370.0 56 65 62 53 43 27 27 23 24 26
2410.0 26 29 28 34 29 31 32 30 27 35
2450.0 33 32 33 25 26 26 25 21 22 22
2490.0 14 23 18 17 13 14 11 15 10 15
2530.0 25 22 30 22 27 22 27 28 24 26
2570.0 33 42 38 42 42 50 42 44 46 53
2610.0 53 47 42 57 54 45 44 53 65 70
2650.0 78 75 60 73 67 78 80 102 102 105
2690.0 104 109 102 91 99 83 95 98 108 112
2730.0 108 120 130 137 133 142 131 126 116 120
2770.0 119 124 130 124 142 156 168 176 195 209
2810.0 222 243 265 294 313 363 398 450 518 623
2850.0 769 973 1273 1627 2006 2322 2507 2606 2648 2578
2890.0 2416 2167 1940 1899 1976 2158 2446 2835 3343 3917
2930.0 4539 5146 5619 5920 5969 5793 5496 5304 5382 5663
2970.0 5792 5339 4398 3251 2381 1863 1531 1296 1091 922
3010.0 815 713 650 644 652 620 559 466 382 327
3050.0 295 283 271 258 265 291 312 369 416 483
3090.0 572 646 662 649 555 430 306 205 163 132
3130.0 118 103 99 90 84 81 79 72 67 55
3170.0 65 73 52 64 71 69 66 65 57 69
3210.0 53 54 42 41 37 27 19 43 20 36
3250.0 25 21 22 29 30 31 38 33 37 33
3290.0 39 33 22 35 24 16 11 17 8 17
3330.0 15 15 20 16 32 11 18 0 18 6
3370.0 11 21 3 24 16 15 24 17 32 22
3410.0 13 5 23 19 33 22 20 27 22 15
3450.0 32 39 22 33 20 41 37 54 76 100
3490.0 102 97 111 93 101 63 26 25 14 37
3530.0 33 13 29 21 31 51 24 50 73 79
3570.0 162 216 215 217 184 97 58 47 61 53
3610.0 59 47 24 47 68 53 55 58 38 70
3650.0 67 53 60 61 68 50 70 62 54 56
3690.0 54 37 23 40 66 48 56 69 46 64
3730.0 38 47 46 59 68 70 65 38 45 49
3770.0 52 34 55 36 39 25 51 48 35 68
3810.0 42 89 65 61 40 31 57 61 53 72
3850.0 58 44 57 48 48 51 37 61 78 16
3890.0 47 76 54 65 41 36 39 29 60 48
3930.0 26 45 36 11 45 69 64 48 40 57
##END=
