##TITLE=1-Butanol, 3-methyl-
##JCAMP-DX=4.24
##DATA TYPE=INFRARED SPECTRUM
##ORIGIN=Sadtler Research Labs Under US-EPA Contract
##OWNER=NIST Standard Reference Data Program
##CAS REGISTRY NO=123-51-3
##MOLFORM=C 5 H 12 O
##XUNITS=1/CM
##YUNITS=ABSORBANCE
##XFACTOR=1.0
##YFACTOR=0.000139462
##DELTAX=4.0
##FIRSTX=450.0
##LASTX=3966.0
##FIRSTY=0.066802
##MAXX=3966
##MINX=450
##MAXY=1.39462
##MINY=0
##NPOINTS=880
##XYDATA=(X++(Y..Y))
450.0 479 216 114 146 106 203 238 173 134 99
490.0 115 124 165 197 198 237 227 266 172 4
530.0 216 160 0 175 188 71 86 134 81 54
570.0 79 69 93 72 84 66 76 56 65 85
610.0 80 88 60 71 73 74 65 80 74 90
650.0 62 81 85 76 61 115 96 59 77 74
690.0 95 74 82 88 75 91 70 93 98 102
730.0 73 80 79 74 111 99 114 105 123 55
770.0 158 287 224 109 139 122 150 116 106 120
810.0 151 171 181 241 258 305 321 332 316 293
850.0 286 260 232 189 192 165 171 175 188 197
890.0 212 239 248 276 284 307 315 339 346 373
930.0 406 443 483 525 599 699 802 903 1002 1077
970.0 1120 1147 1161 1153 1168 1231 1317 1463 1587 1710
1010.0 1765 1808 1823 1826 1896 2118 2455 2869 3271 3655
1050.0 3953 4074 3966 3643 3241 2747 2212 1733 1376 1141
1090.0 1013 942 904 897 883 879 843 800 760 705
1130.0 663 615 577 545 540 542 563 615 667 705
1170.0 722 726 726 713 684 678 684 703 718 734
1210.0 751 756 764 764 769 761 750 726 703 678
1250.0 659 646 646 654 663 678 688 697 690 680
1290.0 662 641 619 594 572 562 557 561 581 600
1330.0 632 664 692 711 734 759 815 906 1027 1177
1370.0 1299 1391 1606 1751 1723 1716 1552 1408 1194 954
1410.0 774 639 552 501 477 479 514 563 632 721
1450.0 855 976 1102 1190 1295 1428 1393 1247 1125 969
1490.0 788 616 458 326 258 194 159 140 130 126
1530.0 104 105 96 103 88 95 86 91 85 80
1570.0 88 83 87 82 84 79 85 85 84 80
1610.0 76 82 73 74 69 71 71 72 66 67
1650.0 67 75 66 74 74 69 72 66 75 70
1690.0 66 67 65 66 62 63 61 63 60 63
1730.0 60 65 64 66 68 70 83 88 96 86
1770.0 86 76 66 59 56 58 50 52 49 54
1810.0 50 54 51 48 50 50 53 47 50 48
1850.0 51 47 47 51 51 48 43 52 55 51
1890.0 53 59 62 61 61 60 55 57 53 46
1930.0 47 44 47 44 49 45 43 43 39 39
1970.0 40 35 31 38 35 40 39 48 50 55
2010.0 53 57 60 56 65 65 69 64 66 69
2050.0 72 72 67 64 60 60 54 54 49 48
2090.0 46 42 43 38 38 38 39 35 36 35
2130.0 36 34 34 32 29 31 31 36 26 29
2170.0 29 32 34 34 35 32 30 31 32 32
2210.0 35 30 35 30 31 29 28 35 30 29
2250.0 24 29 29 31 32 35 36 38 40 38
2290.0 44 43 42 38 41 37 32 38 42 29
2330.0 24 22 28 34 12 16 23 16 17 31
2370.0 36 32 32 31 30 29 36 37 38 38
2410.0 41 42 42 40 38 39 38 36 31 29
2450.0 30 28 25 20 23 21 22 21 17 15
2490.0 18 13 15 15 13 16 13 15 12 13
2530.0 15 15 15 14 13 15 19 19 24 20
2570.0 27 24 31 32 35 40 40 45 46 53
2610.0 55 63 63 69 71 76 78 81 88 84
2650.0 88 86 87 85 86 82 83 84 86 87
2690.0 93 103 108 124 127 140 153 175 189 202
2730.0 219 232 247 259 259 255 256 253 256 262
2770.0 265 283 291 308 319 338 350 371 388 407
2810.0 430 463 497 546 607 682 772 882 1023 1179
2850.0 1362 1584 1858 2234 2755 3387 3996 4539 4931 5298
2890.0 5492 5489 5469 5449 5528 5666 5843 6056 6312 6560
2930.0 6792 6959 7053 7122 7234 7459 7956 8819 9959 10000
2970.0 9238 8521 7326 5753 3981 2575 1677 1110 785 585
3010.0 466 381 335 305 284 257 244 236 217 210
3050.0 198 197 185 178 178 162 164 159 156 145
3090.0 142 139 139 134 123 122 126 117 120 116
3130.0 110 119 116 119 119 124 123 124 127 132
3170.0 130 132 134 129 125 123 116 110 109 98
3210.0 84 75 74 68 60 50 47 42 36 39
3250.0 31 25 29 28 27 19 28 34 21 27
3290.0 24 25 25 30 35 37 30 37 35 28
3330.0 38 29 23 34 29 24 32 23 28 25
3370.0 27 29 19 25 25 25 23 19 23 28
3410.0 27 20 23 27 22 28 30 28 35 28
3450.0 38 36 41 34 41 45 41 47 32 46
3490.0 36 31 34 28 27 39 34 17 26 29
3530.0 34 12 21 18 23 25 11 24 25 21
3570.0 19 18 16 21 17 31 36 35 32 26
3610.0 53 42 50 60 84 111 146 175 241 344
3650.0 463 611 754 909 1021 1056 998 921 774 630
3690.0 444 282 196 135 76 51 52 46 24 11
3730.0 31 15 18 19 19 11 11 17 11 14
3770.0 13 21 18 12 30 15 11 10 31 12
3810.0 31 11 36 30 27 45 21 32 44 46
3850.0 45 31 24 41 32 41 44 37 19 40
3890.0 36 19 35 19 15 11 11 11 11 13
3930.0 12 16 11 11 11 11 11 13 11 11
##END=
