##TITLE=Formamide, N-methyl-
##JCAMP-DX=4.24
##DATA TYPE=INFRARED SPECTRUM
##ORIGIN=Sadtler Research Labs Under US-EPA Contract
##OWNER=NIST Standard Reference Data Program
##CAS REGISTRY NO=123-39-7
##MOLFORM=C 2 H 5 N O
##XUNITS=1/CM
##YUNITS=ABSORBANCE
##XFACTOR=1.0
##YFACTOR=0.000055273
##DELTAX=4.0
##FIRSTX=450.0
##LASTX=3966.0
##FIRSTY=0.025757
##MAXX=3966
##MINX=450
##MAXY=0.55273
##MINY=0
##NPOINTS=880
##XYDATA=(X++(Y..Y))
450.0 466 375 507 565 589 643 692 617 652 584
490.0 666 574 588 466 574 561 551 418 427 448
530.0 428 342 293 201 497 384 364 280 501 474
570.0 480 474 418 525 533 495 359 522 452 370
610.0 376 253 384 260 135 69 72 118 94 83
650.0 0 146 74 32 48 24 106 79 104 70
690.0 165 146 104 125 162 193 154 144 172 214
730.0 296 148 208 163 242 194 222 205 247 333
770.0 241 243 315 332 329 271 320 303 402 341
810.0 273 309 318 326 240 277 244 304 236 205
850.0 184 210 189 151 139 174 142 165 99 161
890.0 189 218 188 215 259 346 368 416 514 616
930.0 665 667 641 644 685 653 613 676 683 555
970.0 409 316 304 298 307 238 265 293 291 264
1010.0 282 293 297 249 229 202 256 203 212 193
1050.0 211 204 199 171 163 194 198 178 142 172
1090.0 184 188 190 165 191 220 182 191 208 278
1130.0 266 310 310 380 412 430 466 531 634 737
1170.0 884 1100 1389 1728 1907 2008 1995 2033 2052 1950
1210.0 2001 2008 1916 1564 1229 930 748 594 518 455
1250.0 439 446 472 500 591 645 642 557 570 555
1290.0 630 608 505 374 278 201 145 143 126 149
1330.0 146 118 151 178 200 210 254 303 320 362
1370.0 371 454 490 507 477 532 542 635 698 728
1410.0 753 773 743 703 703 787 821 882 865 888
1450.0 964 1044 1156 1262 1426 1579 1841 2051 2247 2421
1490.0 2493 2467 2499 2499 2441 2344 2198 1927 1700 1417
1530.0 1193 1007 886 747 604 492 403 373 325 268
1570.0 234 222 224 178 173 137 147 154 144 121
1610.0 124 147 140 134 120 137 142 140 100 155
1650.0 165 175 167 198 257 335 385 486 597 803
1690.0 974 1274 1749 2487 3507 4856 6381 7845 8844 9038
1730.0 9065 9305 8294 8497 9800 10000 8851 6581 4187 2407
1770.0 1428 908 678 499 376 285 248 198 145 116
1810.0 98 94 80 58 55 68 67 44 53 58
1850.0 70 71 51 60 70 95 60 74 73 79
1890.0 76 59 59 76 69 60 33 51 50 59
1930.0 30 42 44 60 46 31 49 38 52 40
1970.0 32 41 56 43 37 44 53 53 51 38
2010.0 56 50 57 21 48 50 55 41 33 32
2050.0 50 40 24 25 44 50 47 38 49 64
2090.0 65 49 55 74 71 80 60 81 89 102
2130.0 82 82 92 91 79 73 72 82 73 62
2170.0 37 61 46 46 36 46 45 45 41 27
2210.0 49 43 37 27 26 43 37 26 18 26
2250.0 46 23 28 18 42 34 46 24 42 51
2290.0 44 35 35 51 61 47 39 56 101 73
2330.0 74 75 104 95 53 52 41 86 39 85
2370.0 65 75 73 49 26 24 23 22 24 42
2410.0 41 68 49 52 57 80 77 63 77 70
2450.0 87 66 67 49 73 60 52 44 42 48
2490.0 44 23 38 40 48 13 38 31 56 38
2530.0 36 32 58 57 46 52 52 59 64 39
2570.0 48 55 64 47 48 52 45 53 31 46
2610.0 36 65 37 37 39 56 62 56 44 80
2650.0 79 82 58 88 89 101 91 91 110 117
2690.0 123 108 133 137 152 148 178 208 268 311
2730.0 376 439 456 391 360 422 407 437 504 474
2770.0 445 395 351 314 305 332 381 430 490 585
2810.0 723 858 1049 1268 1541 1774 1856 1777 1601 1713
2850.0 1808 1773 1854 1907 1771 1529 1257 1063 946 866
2890.0 805 766 740 759 738 740 730 797 831 859
2930.0 881 922 972 962 954 936 949 920 881 847
2970.0 818 750 703 611 547 502 481 410 398 357
3010.0 382 347 339 287 307 315 259 255 244 249
3050.0 257 221 203 201 230 197 182 177 170 170
3090.0 145 141 128 169 129 130 123 132 127 117
3130.0 104 106 114 102 56 74 67 86 50 50
3170.0 41 59 50 15 30 30 46 36 21 25
3210.0 62 48 32 31 52 57 64 29 54 55
3250.0 84 32 61 45 59 49 30 41 49 61
3290.0 19 28 46 43 35 16 28 30 50 30
3330.0 13 67 60 69 30 67 60 88 66 48
3370.0 81 90 75 66 65 80 88 95 49 99
3410.0 100 111 98 132 168 199 234 218 296 315
3450.0 351 389 431 514 593 616 605 644 694 637
3490.0 590 539 586 467 490 413 380 306 221 131
3530.0 104 84 81 64 37 35 66 54 41 50
3570.0 59 62 58 46 42 88 71 72 54 72
3610.0 83 86 56 50 71 92 46 50 37 43
3650.0 45 54 26 44 39 31 42 46 68 47
3690.0 50 32 64 68 53 53 54 63 71 44
3730.0 51 66 73 43 58 40 62 44 33 17
3770.0 25 26 13 13 13 13 16 13 13 14
3810.0 43 34 13 44 34 50 29 36 25 63
3850.0 49 50 39 57 51 32 15 15 29 26
3890.0 12 13 12 25 13 13 13 23 50 23
3930.0 41 46 85 76 80 84 6 13 13 13
##END=
