##TITLE=Hexane, 1-chloro-2-ethyl-,
##JCAMP-DX=4.24
##DATA TYPE=INFRARED SPECTRUM
##ORIGIN=Sadtler Research Labs Under US-EPA Contract
##OWNER=NIST Standard Reference Data Program
##CAS REGISTRY NO=1230-40-6
##MOLFORM=C 8 H 17 Cl
##XUNITS=1/CM
##YUNITS=ABSORBANCE
##XFACTOR=1.0
##YFACTOR=0.000061609
##DELTAX=4.0
##FIRSTX=450.0
##LASTX=3966.0
##FIRSTY=0.004313
##MAXX=3966
##MINX=450
##MAXY=0.61609
##MINY=0
##NPOINTS=880
##XYDATA=(X++(Y..Y))
450.0 70 90 66 71 62 64 62 81 67 66
490.0 76 146 40 20 30 19 123 69 79 78
530.0 113 76 79 83 99 146 149 86 65 70
570.0 188 10 98 54 59 139 76 83 72 76
610.0 80 81 86 76 60 84 87 79 81 80
650.0 89 80 96 107 133 253 311 419 559 670
690.0 656 563 432 328 284 340 449 638 870 1056
730.0 1159 1265 1243 1111 957 754 617 556 580 653
770.0 712 729 738 684 628 582 483 366 288 207
810.0 185 168 136 156 143 175 175 158 151 133
850.0 122 117 127 131 139 152 173 182 188 188
890.0 197 215 223 237 229 221 198 190 187 188
930.0 188 187 186 178 178 178 189 207 218 230
970.0 239 243 227 229 212 194 185 168 160 152
1010.0 149 151 145 145 145 145 136 135 135 135
1050.0 127 136 137 143 143 146 154 152 153 158
1090.0 167 173 181 181 182 165 155 150 141 133
1130.0 132 132 128 131 141 141 140 133 132 116
1170.0 121 124 140 143 142 149 138 132 139 146
1210.0 155 163 169 169 171 173 181 198 214 239
1250.0 263 301 343 409 474 533 583 623 666 739
1290.0 838 936 967 905 771 628 509 433 391 358
1330.0 334 329 347 373 385 384 371 354 336 334
1370.0 359 433 567 705 772 746 582 394 278 228
1410.0 198 197 206 213 229 270 358 541 806 1088
1450.0 1371 1576 1716 1795 1776 1636 1375 1024 707 459
1490.0 307 229 188 160 145 133 117 110 108 107
1530.0 98 91 83 83 81 74 64 65 61 56
1570.0 57 53 56 55 54 46 39 46 46 47
1610.0 45 45 47 46 48 42 46 37 38 45
1650.0 39 38 44 37 37 37 37 38 35 37
1690.0 37 36 29 29 36 35 35 45 40 39
1730.0 43 50 42 42 35 36 34 33 34 34
1770.0 35 28 30 26 25 19 17 18 18 16
1810.0 16 16 16 16 16 16 15 11 8 16
1850.0 15 7 15 15 7 9 7 11 6 11
1890.0 6 12 5 5 5 5 5 14 6 5
1930.0 4 4 5 5 10 3 7 4 10 4
1970.0 3 3 3 3 11 11 11 11 10 11
2010.0 16 18 19 25 26 25 25 25 32 26
2050.0 25 29 25 27 18 17 9 7 0 0
2090.0 0 0 0 8 8 6 6 6 6 6
2130.0 7 6 6 6 6 6 5 6 6 6
2170.0 6 6 6 4 5 6 5 6 4 4
2210.0 4 4 6 6 6 6 6 6 5 7
2250.0 7 6 8 8 8 12 10 11 19 10
2290.0 12 14 17 18 20 14 14 12 9 10
2330.0 10 19 29 28 36 26 5 14 42 66
2370.0 86 96 93 76 58 44 36 29 36 28
2410.0 37 35 28 37 37 37 37 37 32 30
2450.0 30 31 31 30 30 30 32 32 31 31
2490.0 40 41 38 39 40 40 41 49 49 49
2530.0 59 49 53 57 58 64 66 66 76 76
2570.0 77 77 78 82 86 85 85 86 92 85
2610.0 92 86 93 87 87 87 87 79 83 82
2650.0 87 88 79 79 82 88 96 105 120 120
2690.0 129 128 129 139 143 143 143 146 144 154
2730.0 163 179 188 197 211 212 198 196 191 179
2770.0 180 187 197 204 222 238 255 273 295 322
2810.0 337 356 377 410 438 476 526 600 725 906
2850.0 1200 1619 2190 2812 3395 3822 4023 4085 4126 4018
2890.0 3788 3439 3077 2900 2950 3199 3646 4249 5046 5967
2930.0 6948 7780 8305 8408 7917 7052 6475 6411 7164 8705
2970.0 10000 9572 7888 5487 3548 2508 2082 1858 1649 1382
3010.0 1074 789 612 516 468 432 399 372 353 315
3050.0 297 273 257 255 231 226 224 210 199 196
3090.0 195 185 185 178 178 162 161 162 160 161
3130.0 155 146 143 140 139 134 126 116 116 108
3170.0 108 107 111 101 101 98 94 94 86 87
3210.0 86 71 72 63 54 54 52 47 47 47
3250.0 42 48 40 41 33 33 32 32 26 32
3290.0 36 34 37 37 42 42 39 51 49 50
3330.0 50 44 43 41 45 31 36 38 28 34
3370.0 36 38 44 37 37 37 36 30 33 28
3410.0 30 34 31 41 32 31 32 40 23 24
3450.0 27 24 24 20 26 30 40 17 27 18
3490.0 25 27 26 23 17 27 23 23 27 18
3530.0 22 20 20 20 19 19 5 21 21 21
3570.0 25 29 21 16 13 14 22 22 23 30
3610.0 14 17 10 19 19 24 28 39 23 24
3650.0 39 39 41 32 39 33 32 46 46 37
3690.0 50 50 41 49 43 44 52 37 48 37
3730.0 44 44 52 47 54 49 57 57 66 49
3770.0 58 64 49 58 48 49 49 38 55 55
3810.0 55 55 53 53 60 61 66 65 61 56
3850.0 60 62 61 60 59 57 55 54 53 51
3890.0 58 56 55 43 51 50 48 46 43 49
3930.0 56 53 60 57 57 56 49 57 59 67
##END=
