##TITLE=Tetradecanoic acid, ethyl ester
##JCAMP-DX=4.24
##DATA TYPE=INFRARED SPECTRUM
##ORIGIN=Sadtler Research Labs Under US-EPA Contract
##OWNER=NIST Standard Reference Data Program
##CAS REGISTRY NO=124-06-1
##MOLFORM=C 16 H 32 O 2
##XUNITS=1/CM
##YUNITS=ABSORBANCE
##XFACTOR=1.0
##YFACTOR=0.000133502
##DELTAX=4.0
##FIRSTX=450.0
##LASTX=3966.0
##FIRSTY=0.009879
##MAXX=3966
##MINX=450
##MAXY=1.33502
##MINY=0
##NPOINTS=880
##XYDATA=(X++(Y..Y))
450.0 74 178 299 142 140 149 113 196 116 183
490.0 105 183 116 135 140 140 117 101 124 130
530.0 149 106 141 87 127 112 118 128 122 139
570.0 78 81 119 156 109 150 0 96 176 123
610.0 159 140 113 137 123 124 114 131 119 127
650.0 109 118 111 102 117 110 109 112 125 116
690.0 124 137 146 157 184 205 224 251 256 246
730.0 242 221 210 203 199 188 188 191 187 191
770.0 194 197 194 194 195 194 185 185 181 165
810.0 168 164 163 170 162 172 178 185 194 206
850.0 219 227 236 231 221 213 198 188 183 183
890.0 177 179 183 191 192 201 209 216 221 229
930.0 224 219 213 206 193 185 177 170 166 159
970.0 158 158 152 157 161 163 178 196 211 242
1010.0 275 339 414 509 630 764 906 988 1020 966
1050.0 887 809 750 714 688 671 663 661 670 693
1090.0 743 820 926 1013 1066 1108 1160 1169 1132 1072
1130.0 1057 1102 1215 1409 1650 1928 2157 2374 2523 2629
1170.0 2689 2709 2686 2591 2467 2281 2124 1970 1869 1770
1210.0 1707 1669 1642 1638 1648 1678 1692 1722 1729 1714
1250.0 1649 1545 1414 1272 1151 1044 967 900 866 839
1290.0 829 825 848 871 882 880 850 811 756 713
1330.0 682 695 735 789 838 860 840 777 743 798
1370.0 958 1050 965 796 634 515 441 398 352 332
1410.0 309 311 330 359 399 449 505 527 595 663
1450.0 783 859 985 1068 1057 971 788 590 443 338
1490.0 281 227 199 168 158 142 124 121 113 112
1530.0 100 97 97 90 87 84 94 82 81 70
1570.0 80 77 82 79 72 72 72 73 73 71
1610.0 67 70 72 71 72 67 78 73 75 72
1650.0 82 79 81 80 83 95 90 109 108 126
1690.0 137 155 175 212 253 289 351 410 516 635
1730.0 869 1148 1625 2199 3000 3763 4390 4093 3201 2380
1770.0 1706 1179 791 598 421 341 256 225 178 153
1810.0 131 113 101 87 87 68 70 60 63 58
1850.0 55 53 48 54 50 57 45 51 48 50
1890.0 50 49 49 45 47 41 44 43 47 44
1930.0 41 45 43 45 44 44 40 45 41 43
1970.0 41 40 42 39 39 36 39 36 39 37
2010.0 37 41 41 44 40 43 42 44 42 40
2050.0 37 35 36 34 32 25 28 29 28 27
2090.0 29 25 22 23 20 18 15 16 14 15
2130.0 14 14 14 13 15 13 9 14 12 12
2170.0 12 14 11 11 11 10 9 9 7 8
2210.0 6 9 7 6 9 10 10 9 10 7
2250.0 10 9 10 11 9 10 10 14 12 14
2290.0 14 15 17 17 22 20 21 20 24 15
2330.0 17 11 15 11 12 19 22 22 8 6
2370.0 6 6 8 9 14 14 15 18 18 16
2410.0 17 17 18 17 16 17 16 15 12 14
2450.0 11 12 12 13 12 14 14 14 14 14
2490.0 14 13 16 16 15 17 17 20 21 21
2530.0 22 22 24 26 26 26 25 26 28 28
2570.0 34 34 36 34 37 37 40 44 44 44
2610.0 46 47 48 51 56 55 56 59 60 62
2650.0 66 70 70 74 80 83 85 92 92 95
2690.0 94 92 88 83 81 79 77 79 79 82
2730.0 87 91 96 99 102 103 102 104 107 114
2770.0 119 125 135 140 151 159 172 189 207 222
2810.0 240 259 292 326 365 414 469 547 658 850
2850.0 1184 1799 2754 3688 3942 3508 2891 2385 2110 1955
2890.0 1807 1738 1825 2078 2465 2965 3554 4335 5472 7178
2930.0 9069 10000 9440 8073 6557 5128 4065 3439 3249 3271
2970.0 3225 2859 2374 2097 1955 1726 1404 1146 953 801
3010.0 671 556 463 389 334 285 251 224 198 174
3050.0 160 145 131 121 114 111 105 99 93 92
3090.0 88 87 81 80 75 70 69 71 68 64
3130.0 63 62 58 59 59 56 56 51 50 52
3170.0 49 49 47 49 43 44 40 41 37 33
3210.0 36 29 30 26 26 26 22 23 19 17
3250.0 19 19 17 12 17 14 16 18 16 15
3290.0 15 16 16 19 18 16 12 14 14 14
3330.0 12 18 19 17 18 14 17 18 14 15
3370.0 20 19 19 16 17 21 18 16 18 19
3410.0 22 19 21 17 16 17 19 12 17 15
3450.0 14 22 16 19 23 27 26 34 36 43
3490.0 44 40 34 30 22 13 15 6 12 6
3530.0 13 13 15 16 13 11 12 12 17 20
3570.0 21 28 22 28 18 21 18 21 24 28
3610.0 32 26 25 25 26 21 25 35 28 38
3650.0 23 24 34 26 42 29 45 26 34 29
3690.0 28 21 35 32 33 30 26 25 35 33
3730.0 27 29 30 33 24 39 31 29 29 27
3770.0 32 33 40 29 37 39 37 36 34 35
3810.0 39 25 33 19 30 34 32 34 27 25
3850.0 32 35 21 33 29 23 23 28 22 25
3890.0 25 27 31 21 33 35 43 34 33 21
3930.0 35 25 31 35 39 43 36 41 40 37
##END=
