##TITLE=Octanoic Acid
##JCAMP-DX=4.24
##DATA TYPE=INFRARED SPECTRUM
##ORIGIN=Sadtler Research Labs Under US-EPA Contract
##OWNER=NIST Standard Reference Data Program
##CAS REGISTRY NO=124-07-2
##MOLFORM=C 8 H 16 O 2
##XUNITS=1/CM
##YUNITS=ABSORBANCE
##XFACTOR=1.0
##YFACTOR=0.000125150
##DELTAX=4.0
##FIRSTX=450.0
##LASTX=3966.0
##FIRSTY=0.023028
##MAXX=3966
##MINX=450
##MAXY=1.2515
##MINY=0
##NPOINTS=880
##XYDATA=(X++(Y..Y))
450.0 184 240 337 202 442 250 295 303 336 359
490.0 378 422 457 468 556 610 571 645 670 616
530.0 722 710 808 816 958 1078 1185 1253 1305 1273
570.0 1212 1201 1190 1228 1287 1386 1502 1460 1487 1504
610.0 1528 1445 1530 1464 1463 1450 1415 1261 1011 948
650.0 723 693 416 827 156 942 239 453 440 466
690.0 307 451 352 399 356 438 437 467 474 489
730.0 431 392 391 319 310 292 269 226 209 230
770.0 175 174 166 184 119 142 113 77 54 47
810.0 48 21 53 53 60 52 73 78 66 85
850.0 91 96 86 115 104 112 121 131 131 125
890.0 137 117 129 122 134 120 125 136 122 122
930.0 117 125 108 116 110 108 100 112 119 114
970.0 130 137 148 156 191 208 234 273 310 344
1010.0 385 438 477 527 569 610 627 652 671 686
1050.0 721 780 859 952 1091 1276 1497 1790 2148 2586
1090.0 3091 3654 4088 4192 4061 3663 3315 3074 3112 3357
1130.0 3732 4079 4241 4186 3857 3448 2950 2544 2217 1994
1170.0 1807 1681 1611 1560 1524 1475 1430 1348 1276 1203
1210.0 1125 1035 959 884 819 767 735 707 682 677
1250.0 678 681 694 720 736 753 732 719 701 698
1290.0 701 694 665 664 645 644 643 686 610 604
1330.0 602 681 858 902 888 942 986 1129 1181 1303
1370.0 1267 1457 1537 1609 1619 1580 1373 1204 961 733
1410.0 673 611 837 769 674 745 816 818 733 765
1450.0 1047 924 1420 1355 1021 1300 1071 804 539 559
1490.0 546 304 544 232 337 870 323 299 651 293
1530.0 370 142 644 247 507 189 236 523 423 43
1570.0 260 174 281 53 124 150 134 124 109 228
1610.0 57 245 144 257 140 249 139 404 20 475
1650.0 136 610 45 356 186 330 247 578 81 723
1690.0 233 299 828 341 479 458 676 734 875 863
1730.0 1193 1112 1951 1450 2259 2560 3164 3387 4527 5647
1770.0 6723 8970 9041 10000 7963 7245 5172 4216 3228 2526
1810.0 1912 1450 1075 754 749 398 626 152 514 264
1850.0 299 175 192 173 229 232 142 181 77 179
1890.0 124 172 130 98 156 82 160 120 175 152
1930.0 65 127 72 158 114 104 82 103 73 135
1970.0 73 100 74 74 77 123 97 79 71 75
2010.0 64 81 102 72 76 79 58 81 82 73
2050.0 59 65 63 62 83 56 64 48 61 54
2090.0 62 51 56 51 46 57 53 55 49 62
2130.0 47 57 54 58 52 55 61 53 58 58
2170.0 59 52 61 61 56 58 61 63 53 64
2210.0 58 59 57 62 57 54 64 61 58 55
2250.0 62 51 56 57 56 50 53 61 52 65
2290.0 69 90 80 103 108 125 111 127 147 113
2330.0 136 181 129 75 266 58 249 120 204 203
2370.0 203 128 127 95 69 43 38 35 30 34
2410.0 32 32 29 35 28 28 25 30 29 30
2450.0 32 32 31 31 33 33 36 35 38 39
2490.0 38 39 40 42 43 45 45 46 50 52
2530.0 50 53 56 56 58 59 61 59 64 67
2570.0 65 67 68 71 73 78 79 79 83 88
2610.0 90 93 95 99 105 105 111 108 112 117
2650.0 123 123 128 132 137 140 145 152 151 151
2690.0 151 151 150 151 149 147 148 146 150 150
2730.0 158 161 169 177 182 181 177 176 175 176
2770.0 175 185 184 196 210 224 238 252 275 285
2810.0 306 324 355 384 421 468 521 598 712 892
2850.0 1179 1621 2183 2763 3211 3407 3335 3178 3008 2759
2890.0 2482 2191 2036 2115 2344 2743 3290 4041 4970 6041
2930.0 7029 7718 7970 7706 7146 6364 5622 5170 5083 5290
2970.0 5341 4781 3793 2666 1883 1429 1132 937 790 696
3010.0 618 556 514 472 450 417 400 378 361 341
3050.0 336 317 308 302 299 289 285 288 279 276
3090.0 272 266 266 258 259 257 255 251 254 250
3130.0 249 250 248 248 248 246 242 248 244 246
3170.0 243 246 239 241 240 243 237 238 242 234
3210.0 234 234 227 231 222 226 222 223 213 223
3250.0 210 223 219 220 218 215 216 211 214 208
3290.0 213 208 213 212 217 215 213 219 213 222
3330.0 211 219 210 216 210 213 215 210 217 212
3370.0 223 215 219 211 216 215 216 228 216 222
3410.0 216 227 213 219 217 220 221 218 231 193
3450.0 238 201 217 219 223 223 212 231 217 216
3490.0 232 227 223 246 218 272 233 307 253 276
3530.0 288 334 338 352 385 408 444 582 784 1109
3570.0 2142 3577 4123 3721 2379 1187 664 592 411 363
3610.0 303 327 263 318 338 70 443 197 341 256
3650.0 258 276 304 213 301 289 244 282 257 242
3690.0 271 284 197 353 211 337 228 251 287 328
3730.0 187 352 238 274 146 436 50 457 222 268
3770.0 278 404 231 298 303 316 242 388 86 407
3810.0 409 142 490 0 491 339 198 297 368 246
3850.0 248 361 255 325 271 286 296 468 152 317
3890.0 393 278 321 264 347 298 355 271 378 239
3930.0 376 299 344 308 369 275 343 348 358 329
##END=
