##TITLE=2-Propen-1-amine, N-2-propenyl-
##JCAMP-DX=4.24
##DATA TYPE=INFRARED SPECTRUM
##ORIGIN=Sadtler Research Labs Under US-EPA Contract
##OWNER=NIST Standard Reference Data Program
##CAS REGISTRY NO=124-02-7
##MOLFORM=C 6 H 11 N
##XUNITS=1/CM
##YUNITS=ABSORBANCE
##XFACTOR=1.0
##YFACTOR=0.000052936
##DELTAX=4.0
##FIRSTX=450.0
##LASTX=3966.0
##FIRSTY=0.030597
##MAXX=3966
##MINX=450
##MAXY=0.52936
##MINY=0
##NPOINTS=880
##XYDATA=(X++(Y..Y))
450.0 578 553 383 78 261 340 184 239 0 76
490.0 63 6 208 188 27 223 308 333 204 122
530.0 109 207 348 526 488 811 648 732 811 649
570.0 693 664 417 614 664 665 626 793 850 981
610.0 846 858 932 1006 889 815 932 1088 945 895
650.0 953 1006 891 833 1004 914 947 1121 1147 1215
690.0 1385 1520 1795 1927 2069 2128 2197 2348 2417 2345
730.0 2206 2134 1889 1766 1742 1486 1364 1192 938 796
770.0 632 559 504 328 265 233 106 105 107 81
810.0 33 93 122 113 136 115 129 204 212 234
850.0 313 308 386 455 570 620 699 840 871 1162
890.0 1466 1926 2701 3670 4891 6718 8533 9761 10000 9648
930.0 8234 6424 4868 3745 2970 2381 2160 2029 1911 2006
970.0 2186 2496 2827 3448 4197 4709 4748 4643 4109 3320
1010.0 2614 2093 1841 1607 1467 1399 1374 1322 1268 1239
1050.0 1215 1128 1119 1098 1124 1172 1251 1317 1437 1596
1090.0 1815 2128 2549 2968 3487 3923 4274 4436 4375 4231
1130.0 3930 3614 3364 3114 2988 2786 2536 2234 1892 1511
1170.0 1201 948 793 660 580 544 513 555 574 580
1210.0 624 657 660 657 648 614 561 550 537 601
1250.0 638 675 727 734 743 763 817 886 971 1050
1290.0 1145 1175 1190 1186 1238 1310 1402 1537 1658 1748
1330.0 1846 1908 1915 1830 1688 1592 1427 1280 1135 1010
1370.0 870 772 740 678 747 788 888 1036 1271 1647
1410.0 2087 2548 2730 2776 2734 2571 2378 2497 2868 3416
1450.0 4067 4501 4467 4196 3488 2735 1993 1429 1054 804
1490.0 690 602 545 499 458 450 302 282 202 190
1530.0 130 134 121 82 116 109 104 80 118 72
1570.0 75 79 92 79 98 89 109 88 138 155
1610.0 192 292 356 507 644 991 1347 1868 2222 2218
1650.0 2205 1943 1440 890 688 626 596 585 545 479
1690.0 509 613 892 1352 1663 1857 1860 1650 1213 725
1730.0 495 317 265 165 130 120 96 92 59 61
1770.0 65 45 47 58 58 59 57 73 57 103
1810.0 96 140 185 234 340 455 591 733 795 855
1850.0 796 697 549 378 291 183 153 107 85 73
1890.0 63 58 50 49 38 41 21 39 23 26
1930.0 10 11 18 3 18 13 34 35 58 74
1970.0 85 103 104 109 99 92 86 67 58 54
2010.0 48 46 37 43 38 42 39 31 36 37
2050.0 34 38 37 32 31 33 28 30 25 22
2090.0 18 24 25 20 11 15 18 12 8 8
2130.0 5 10 13 10 7 10 13 12 15 13
2170.0 14 7 10 12 13 14 8 16 15 12
2210.0 11 12 18 13 18 7 6 7 6 0
2250.0 3 3 9 3 0 5 6 11 14 22
2290.0 24 35 42 44 47 56 42 38 36 16
2330.0 8 3 3 11 42 40 35 26 35 35
2370.0 47 35 47 53 46 30 29 35 41 45
2410.0 42 44 36 47 44 34 33 32 32 26
2450.0 20 23 18 27 19 18 12 17 18 21
2490.0 23 20 28 27 32 30 34 35 39 39
2530.0 39 45 52 55 58 62 67 72 76 87
2570.0 89 91 97 99 99 103 106 115 123 117
2610.0 134 138 148 147 159 163 176 190 197 206
2650.0 225 244 256 281 296 318 341 357 391 411
2690.0 441 467 488 520 542 559 577 588 604 626
2730.0 646 694 728 775 832 907 996 1105 1236 1386
2770.0 1564 1797 2048 2358 2707 3111 3568 4033 4513 4949
2810.0 5329 5659 5854 5940 5844 5614 5287 4917 4554 4176
2850.0 3841 3596 3398 3280 3218 3208 3271 3353 3443 3534
2890.0 3619 3710 3787 3906 4068 4279 4500 4668 4790 4775
2930.0 4560 4226 3770 3253 2766 2343 2019 1845 1821 1896
2970.0 2068 2344 2712 3102 3366 3476 3461 3335 3114 2974
3010.0 2953 2996 2944 2703 2420 2034 1564 1237 1097 1063
3050.0 1102 1224 1393 1642 1955 2322 2799 3457 4276 4859
3090.0 4883 4780 4198 3141 2179 1453 917 608 461 352
3130.0 294 257 236 217 190 186 155 140 129 113
3170.0 96 90 79 73 65 67 74 52 47 47
3210.0 44 43 46 34 43 45 49 43 26 40
3250.0 34 39 29 45 50 42 60 56 66 56
3290.0 46 48 48 43 47 36 39 31 47 53
3330.0 50 73 64 51 58 46 74 85 76 75
3370.0 60 72 76 86 75 61 80 67 69 68
3410.0 59 57 63 64 62 58 52 50 64 58
3450.0 44 49 58 55 64 43 54 43 63 54
3490.0 39 45 32 28 46 11 48 26 35 49
3530.0 50 63 45 34 55 35 61 14 58 35
3570.0 78 31 37 22 48 51 37 13 30 16
3610.0 38 36 35 37 9 72 28 18 25 22
3650.0 31 79 37 49 38 13 79 31 65 20
3690.0 21 54 18 50 38 27 35 24 35 39
3730.0 86 66 74 64 48 89 30 25 38 41
3770.0 32 40 53 59 33 55 44 84 75 44
3810.0 57 62 70 78 34 42 48 56 55 42
3850.0 61 144 93 97 71 63 71 41 78 86
3890.0 59 77 42 112 107 101 51 164 55 111
3930.0 72 99 98 110 134 91 96 76 98 115
##END=
