##TITLE=Decane
##JCAMP-DX=4.24
##DATA TYPE=INFRARED SPECTRUM
##ORIGIN=Sadtler Research Labs Under US-EPA Contract
##OWNER=NIST Standard Reference Data Program
##CAS REGISTRY NO=124-18-5
##MOLFORM=C 10 H 22
##XUNITS=1/CM
##YUNITS=ABSORBANCE
##XFACTOR=1.0
##YFACTOR=0.000178430
##DELTAX=4.0
##FIRSTX=450.0
##LASTX=3966.0
##FIRSTY=0.040147
##MAXX=3966
##MINX=450
##MAXY=1.7843
##MINY=0
##NPOINTS=880
##XYDATA=(X++(Y..Y))
450.0 225 154 70 322 165 76 43 95 161 171
490.0 111 60 41 75 124 101 92 62 111 89
530.0 88 114 52 129 50 103 82 99 92 62
570.0 60 103 2 81 97 86 74 80 82 66
610.0 101 80 89 91 73 60 83 67 81 89
650.0 83 66 57 88 67 104 76 111 89 105
690.0 91 92 115 119 151 175 179 225 231 205
730.0 208 181 196 156 178 140 128 139 100 99
770.0 75 115 157 96 140 87 97 63 141 143
810.0 141 151 90 3 85 90 76 59 93 85
850.0 106 70 85 87 91 106 77 98 93 109
890.0 104 116 112 109 109 109 105 101 110 100
930.0 112 106 101 96 107 78 105 82 84 69
970.0 106 66 74 89 80 101 62 88 99 97
1010.0 90 79 84 80 90 82 87 82 78 86
1050.0 82 81 85 88 92 96 100 101 97 96
1090.0 95 97 88 85 78 75 72 78 82 81
1130.0 83 83 86 83 79 75 73 71 78 74
1170.0 73 71 77 77 81 83 80 69 69 80
1210.0 86 82 79 79 75 82 85 90 91 96
1250.0 97 103 99 100 103 107 119 122 126 130
1290.0 138 148 160 171 175 170 163 154 145 145
1330.0 153 173 198 226 245 252 252 244 243 241
1370.0 250 271 316 362 372 321 240 194 162 149
1410.0 140 139 143 151 155 172 209 244 326 405
1450.0 529 634 772 877 912 865 741 579 427 307
1490.0 232 178 155 123 116 102 92 88 78 79
1530.0 75 71 64 63 59 57 61 53 55 56
1570.0 51 55 52 53 54 55 54 48 50 50
1610.0 52 46 43 42 40 41 47 40 46 40
1650.0 41 39 46 43 43 40 39 40 44 34
1690.0 39 39 36 37 38 38 42 39 43 43
1730.0 42 41 38 39 38 38 34 34 34 36
1770.0 38 30 31 38 28 31 29 29 29 32
1810.0 26 27 29 28 26 27 29 28 31 27
1850.0 28 25 25 26 29 28 32 30 23 23
1890.0 26 26 25 23 24 25 23 23 23 22
1930.0 25 22 18 20 19 19 21 19 17 20
1970.0 21 21 20 21 18 19 21 22 22 20
2010.0 24 23 28 28 30 31 30 29 30 28
2050.0 22 29 26 27 29 26 27 24 24 24
2090.0 21 20 24 25 24 26 27 25 27 23
2130.0 23 22 26 26 27 25 24 25 26 23
2170.0 24 22 24 25 24 23 22 22 23 23
2210.0 25 24 22 21 21 19 19 23 18 19
2250.0 20 18 18 16 17 18 17 17 19 21
2290.0 20 20 23 23 24 28 25 29 27 30
2330.0 27 25 19 20 11 21 25 20 23 18
2370.0 0 0 8 8 15 17 18 16 18 17
2410.0 15 18 15 14 14 12 13 13 11 12
2450.0 12 9 7 3 4 7 4 5 6 6
2490.0 6 6 7 11 10 12 12 13 15 16
2530.0 13 18 14 16 19 19 20 23 22 23
2570.0 27 30 31 29 31 34 35 38 42 43
2610.0 43 43 47 46 49 52 55 61 62 65
2650.0 66 64 64 70 73 77 86 93 92 95
2690.0 88 83 79 76 72 70 71 75 76 81
2730.0 89 96 105 117 118 112 110 108 104 100
2770.0 103 107 111 120 136 151 167 183 198 218
2810.0 240 264 297 329 371 418 484 577 729 992
2850.0 1433 2093 2884 3540 3867 3802 3460 3189 2997 2784
2890.0 2528 2251 2182 2342 2655 3130 3835 4853 6322 7982
2930.0 9400 10000 9486 8242 6749 5399 4456 4234 4575 5243
2970.0 5420 4740 3460 2208 1464 1048 812 662 561 488
3010.0 429 385 339 304 282 252 230 210 193 179
3050.0 162 147 137 126 122 116 112 103 99 97
3090.0 93 91 87 82 74 74 73 70 69 68
3130.0 64 58 63 59 59 58 53 54 55 52
3170.0 51 53 54 54 53 53 52 49 42 38
3210.0 33 32 26 25 22 24 22 21 25 16
3250.0 25 21 24 16 18 15 16 17 20 21
3290.0 23 21 15 18 19 14 16 25 18 18
3330.0 19 19 24 23 24 20 24 23 21 23
3370.0 20 19 22 21 15 19 22 18 15 17
3410.0 16 13 21 23 20 19 19 24 18 22
3450.0 18 14 23 12 15 10 10 14 18 16
3490.0 11 5 7 20 18 16 17 21 12 12
3530.0 9 7 7 14 14 20 9 15 13 13
3570.0 16 11 19 14 19 18 8 11 16 29
3610.0 21 21 15 24 20 12 11 20 19 28
3650.0 25 14 21 22 16 10 11 17 15 17
3690.0 24 22 12 8 12 13 2 9 3 13
3730.0 17 17 12 2 8 22 0 11 20 35
3770.0 23 19 26 17 11 14 17 27 22 0
3810.0 21 22 20 28 10 15 11 9 20 9
3850.0 17 15 17 13 14 24 28 25 19 43
3890.0 7 13 6 2 18 7 21 24 33 19
3930.0 30 14 21 17 3 13 23 17 12 45
##END=
