##TITLE=Methane, dibromochloro-
##JCAMP-DX=4.24
##DATA TYPE=INFRARED SPECTRUM
##ORIGIN=Sadtler Research Labs Under US-EPA Contract
##OWNER=NIST Standard Reference Data Program
##CAS REGISTRY NO=124-48-1
##MOLFORM=C H Br 2 Cl
##XUNITS=1/CM
##YUNITS=ABSORBANCE
##XFACTOR=1.0
##YFACTOR=0.000118729
##DELTAX=4.0
##FIRSTX=450.0
##LASTX=3966.0
##FIRSTY=0.044998
##MAXX=3966
##MINX=450
##MAXY=1.18729
##MINY=0
##NPOINTS=880
##XYDATA=(X++(Y..Y))
450.0 379 174 90 55 177 38 172 75 153 81
490.0 97 127 90 121 70 141 43 118 66 96
530.0 63 73 146 77 163 156 282 301 508 613
570.0 600 687 615 474 229 227 122 139 100 133
610.0 120 53 140 90 181 137 361 436 811 1377
650.0 2401 4029 6180 8777 9664 10000 9156 6272 2042 224
690.0 103 184 92 184 124 313 386 666 996 1421
730.0 1877 2650 3909 5470 7153 8868 9022 8538 8068 5330
770.0 2566 1079 377 200 91 83 62 56 37 66
810.0 64 52 67 56 77 43 72 64 68 63
850.0 67 75 66 75 61 64 55 68 58 50
890.0 59 55 64 48 65 56 68 61 70 70
930.0 74 89 80 95 93 95 77 71 66 58
970.0 56 51 62 50 65 59 62 56 55 54
1010.0 49 56 52 61 48 61 59 59 60 56
1050.0 61 49 60 49 55 49 59 62 52 68
1090.0 56 70 54 81 63 66 83 100 159 226
1130.0 456 737 1544 2887 4147 3729 4125 3204 1174 134
1170.0 235 217 699 1078 1898 2466 1611 1701 1642 745
1210.0 427 203 121 90 88 103 84 95 78 77
1250.0 60 54 62 50 55 52 58 51 58 56
1290.0 59 59 66 79 85 93 93 103 101 89
1330.0 86 85 81 79 83 74 79 66 65 60
1370.0 60 50 52 54 62 56 59 54 61 56
1410.0 70 64 66 68 73 61 62 48 54 54
1450.0 52 59 41 68 81 73 85 92 102 98
1490.0 106 102 104 108 86 66 87 49 41 38
1530.0 42 34 29 34 23 42 27 32 24 43
1570.0 40 38 39 51 42 46 54 47 50 47
1610.0 56 35 56 35 56 37 55 30 50 26
1650.0 53 0 55 36 38 35 38 28 45 18
1690.0 41 40 28 27 39 40 34 37 40 46
1730.0 45 41 35 53 39 35 47 41 39 40
1770.0 41 28 42 30 48 26 45 33 37 40
1810.0 37 36 40 38 34 41 33 46 28 39
1850.0 33 41 37 40 32 34 37 35 40 36
1890.0 39 34 39 39 37 38 35 38 35 38
1930.0 39 39 39 37 38 40 40 40 39 38
1970.0 39 34 37 36 36 32 35 34 35 35
2010.0 36 34 33 33 33 32 36 35 34 32
2050.0 33 33 34 30 30 32 32 32 32 30
2090.0 32 32 29 32 32 32 32 32 29 29
2130.0 34 33 32 28 33 30 30 32 32 30
2170.0 29 32 30 33 34 33 32 33 34 34
2210.0 34 34 35 34 36 35 34 36 39 38
2250.0 37 40 46 46 53 70 75 86 103 120
2290.0 85 71 66 48 38 37 39 38 46 55
2330.0 59 62 64 90 55 83 47 58 56 74
2370.0 67 78 79 79 65 50 40 34 33 29
2410.0 30 30 30 29 29 28 29 29 27 25
2450.0 27 27 28 26 29 26 28 26 25 25
2490.0 26 25 27 26 23 24 24 24 25 25
2530.0 25 24 26 25 27 25 26 24 24 23
2570.0 23 23 22 22 22 24 23 22 24 24
2610.0 22 23 25 23 23 23 23 21 23 23
2650.0 21 22 20 22 21 20 21 22 18 18
2690.0 21 22 22 20 21 18 18 17 16 20
2730.0 18 15 17 17 15 16 16 14 13 15
2770.0 15 13 16 15 21 18 22 21 22 20
2810.0 20 22 21 22 21 22 23 24 18 22
2850.0 22 24 24 21 26 20 22 21 23 23
2890.0 22 21 22 22 22 25 21 27 24 25
2930.0 20 25 26 23 29 22 27 24 29 25
2970.0 23 25 24 26 23 32 22 28 26 34
3010.0 22 32 34 33 58 86 155 122 230 395
3050.0 193 172 136 85 55 24 29 22 29 20
3090.0 28 25 26 25 25 29 25 27 25 30
3130.0 23 27 25 23 26 22 26 24 27 23
3170.0 25 24 27 26 26 29 24 26 24 29
3210.0 24 27 27 26 24 24 27 27 28 26
3250.0 29 23 27 24 25 28 27 26 25 28
3290.0 25 28 25 30 26 32 30 27 30 33
3330.0 33 32 32 32 33 29 32 35 29 29
3370.0 32 28 28 28 29 32 34 33 32 29
3410.0 35 36 32 43 35 34 34 32 32 30
3450.0 33 30 32 34 35 34 28 33 30 37
3490.0 33 30 32 37 41 30 37 29 32 41
3530.0 36 33 34 27 37 34 37 34 29 61
3570.0 37 32 36 33 41 41 52 37 42 34
3610.0 60 47 53 46 30 65 37 28 33 29
3650.0 70 41 38 46 14 66 18 75 8 49
3690.0 33 46 26 37 37 42 47 49 38 48
3730.0 37 50 45 53 56 39 75 27 36 36
3770.0 36 35 27 45 28 29 34 40 43 50
3810.0 17 58 28 65 28 30 43 51 39 46
3850.0 36 64 61 30 48 58 38 26 59 36
3890.0 46 41 48 67 43 29 21 41 45 43
3930.0 34 33 37 42 41 34 33 30 34 34
##END=
