##TITLE=Hexanedioic acid
##JCAMP-DX=4.24
##DATA TYPE=INFRARED SPECTRUM
##ORIGIN=Sadtler Research Labs Under US-EPA Contract
##OWNER=NIST Standard Reference Data Program
##CAS REGISTRY NO=124-04-9
##MOLFORM=C 6 H 10 O 4
##XUNITS=1/CM
##YUNITS=ABSORBANCE
##XFACTOR=1.0
##YFACTOR=0.000049371
##DELTAX=4.0
##FIRSTX=450.0
##LASTX=3966.0
##FIRSTY=0.019749
##MAXX=3966
##MINX=450
##MAXY=0.49371
##MINY=0
##NPOINTS=880
##XYDATA=(X++(Y..Y))
450.0 400 101 21 240 357 406 412 484 566 522
490.0 747 783 822 852 942 971 987 1013 987 1074
530.0 1132 1165 1189 1274 1321 1455 1513 1489 1450 1412
570.0 1379 1406 1403 1670 1625 1484 1571 1604 1683 1644
610.0 1655 1682 1614 1630 1589 1531 1453 1361 1242 1079
650.0 946 806 758 650 656 632 583 554 530 510
690.0 498 490 465 453 457 449 437 436 455 464
730.0 494 501 569 618 637 599 518 433 351 333
770.0 269 235 196 171 153 154 141 107 107 97
810.0 110 67 101 95 105 98 109 125 107 134
850.0 129 150 159 197 188 215 209 197 198 180
890.0 196 174 180 179 195 192 200 191 174 183
930.0 157 181 169 169 180 182 180 175 186 184
970.0 197 196 213 214 242 238 239 268 293 331
1010.0 349 425 464 523 591 663 760 845 971 1078
1050.0 1149 1216 1278 1354 1449 1574 1702 1866 2062 2296
1090.0 2611 2935 3404 3933 4587 5169 5756 6097 6102 5858
1130.0 5334 4825 4218 3756 3319 2979 2651 2393 2175 2019
1170.0 1918 1847 1799 1739 1713 1661 1601 1516 1436 1348
1210.0 1257 1173 1078 1008 947 897 855 834 805 796
1250.0 785 792 793 812 838 855 854 837 838 840
1290.0 841 825 789 749 707 668 633 621 596 601
1330.0 604 658 727 814 915 981 1059 1101 1152 1199
1370.0 1274 1348 1381 1415 1374 1324 1200 1060 882 765
1410.0 638 619 587 605 604 617 618 587 559 514
1450.0 502 481 490 485 427 377 304 249 218 198
1490.0 194 240 259 260 222 185 185 145 137 119
1530.0 130 117 131 137 208 196 190 157 109 118
1570.0 95 123 115 140 129 138 166 175 181 152
1610.0 149 92 74 60 51 60 26 76 34 64
1650.0 0 128 40 81 81 68 80 113 131 113
1690.0 194 155 245 257 346 389 428 612 710 907
1730.0 968 1374 1586 1976 2413 2991 3696 4357 5614 6586
1770.0 8134 9191 10000 9963 8829 7823 6137 5003 3837 3029
1810.0 2406 1698 1385 972 798 519 453 350 256 237
1850.0 180 193 113 160 104 111 89 94 84 63
1890.0 94 62 79 44 82 50 62 55 58 58
1930.0 44 63 36 47 31 50 27 30 45 25
1970.0 37 19 37 15 33 26 29 29 25 29
2010.0 12 30 16 26 7 27 17 19 27 16
2050.0 22 13 28 13 23 21 24 20 17 33
2090.0 12 28 18 30 14 28 24 22 20 24
2130.0 29 19 34 26 30 29 33 36 36 40
2170.0 30 43 30 46 31 45 45 42 34 40
2210.0 43 39 34 33 42 32 48 41 45 49
2250.0 37 51 34 45 40 43 36 52 52 58
2290.0 72 87 100 100 117 118 113 96 92 73
2330.0 52 74 48 81 108 92 84 61 102 86
2370.0 94 95 120 104 81 48 31 19 24 26
2410.0 16 25 18 19 11 27 27 25 22 21
2450.0 27 16 32 20 23 21 27 27 26 33
2490.0 28 36 24 28 27 34 34 30 27 29
2530.0 32 19 33 27 29 23 29 26 25 23
2570.0 23 24 18 21 18 23 17 18 25 24
2610.0 26 17 26 22 24 18 23 26 27 26
2650.0 23 31 22 26 23 24 30 33 30 23
2690.0 30 25 31 28 38 34 38 38 42 27
2730.0 30 39 27 26 28 34 34 33 34 29
2770.0 29 28 28 30 36 40 39 46 48 48
2810.0 53 64 62 74 71 86 89 94 108 119
2850.0 141 156 195 228 272 313 360 380 397 402
2890.0 393 363 350 340 338 370 416 482 578 689
2930.0 798 893 978 1046 1119 1174 1218 1222 1200 1131
2970.0 1039 911 791 684 572 480 395 336 271 215
3010.0 193 167 150 133 128 112 121 119 110 115
3050.0 110 120 121 127 127 131 108 100 97 87
3090.0 88 75 63 58 65 50 49 54 50 42
3130.0 30 38 32 39 30 42 31 27 41 38
3170.0 38 24 27 25 31 22 25 17 31 38
3210.0 20 28 26 26 22 34 26 22 23 30
3250.0 32 21 36 18 42 26 40 29 29 29
3290.0 10 39 21 36 28 39 43 21 33 34
3330.0 36 21 41 23 37 37 34 39 32 49
3370.0 37 31 32 34 38 43 43 38 38 38
3410.0 49 36 59 55 60 52 65 62 62 69
3450.0 46 59 48 55 62 61 45 51 58 61
3490.0 54 57 76 68 99 93 89 99 103 174
3530.0 126 180 178 213 292 339 419 581 927 1601
3570.0 3030 3892 3963 3443 2360 1109 699 426 333 190
3610.0 209 174 163 145 81 168 103 77 92 66
3650.0 148 133 82 57 24 69 94 123 73 50
3690.0 92 78 69 77 47 78 103 61 56 133
3730.0 56 88 148 93 108 132 157 68 87 79
3770.0 92 74 65 63 53 66 48 79 94 74
3810.0 63 34 57 154 102 56 79 92 122 110
3850.0 75 138 90 99 128 139 126 108 123 116
3890.0 121 59 75 132 148 81 86 91 88 104
3930.0 99 105 88 83 88 122 69 96 72 73
##END=
