##TITLE=Ethane, 1,2-dibromo-1,1,2,2-tetrafluoro-
##JCAMP-DX=4.24
##DATA TYPE=INFRARED SPECTRUM
##ORIGIN=Sadtler Research Labs Under US-EPA Contract
##OWNER=NIST Standard Reference Data Program
##CAS REGISTRY NO=124-73-2
##MOLFORM=C 2 Br 2 F 4
##XUNITS=1/CM
##YUNITS=ABSORBANCE
##XFACTOR=1.0
##YFACTOR=0.000103549
##DELTAX=4.0
##FIRSTX=450.0
##LASTX=3966.0
##FIRSTY=0.006627
##MAXX=3966
##MINX=450
##MAXY=1.03549
##MINY=0
##NPOINTS=880
##XYDATA=(X++(Y..Y))
450.0 64 36 3 64 101 40 84 52 16 70
490.0 4 31 8 19 10 38 34 30 55 57
530.0 48 49 44 48 95 31 28 30 7 20
570.0 47 90 93 162 180 288 367 465 432 358
610.0 211 62 54 34 30 34 56 79 165 232
650.0 272 284 236 189 131 138 108 107 86 99
690.0 75 52 71 65 95 84 117 82 79 51
730.0 57 49 45 110 129 293 517 1176 2419 5515
770.0 8540 10000 7611 2041 98 265 67 110 81 154
810.0 143 159 172 137 120 82 108 49 74 86
850.0 131 205 378 806 1733 3184 4063 4311 3210 1330
890.0 448 370 297 264 178 136 117 101 110 95
930.0 106 88 101 104 117 127 130 116 98 101
970.0 104 129 167 244 317 421 580 910 1594 2714
1010.0 3995 4777 4603 3315 1607 562 203 134 108 101
1050.0 93 103 92 92 83 85 88 116 144 194
1090.0 274 438 695 1029 1530 1757 2095 2853 3942 5575
1130.0 6634 6566 5371 3269 1813 1189 1215 1562 2221 3224
1170.0 4371 5835 6997 7481 8030 7241 5387 3324 1751 791
1210.0 385 309 354 477 626 837 1129 1528 1905 2038
1250.0 1831 1332 733 292 120 76 73 80 95 102
1290.0 98 91 81 73 63 54 38 34 34 34
1330.0 36 40 47 54 62 64 66 59 58 49
1370.0 46 45 38 36 36 36 35 35 35 35
1410.0 34 34 31 29 33 28 25 20 22 22
1450.0 20 19 20 27 35 44 49 55 44 39
1490.0 20 17 13 15 15 10 13 9 17 15
1530.0 15 12 16 24 16 21 17 24 18 15
1570.0 17 16 17 17 13 13 13 17 17 15
1610.0 18 18 26 19 19 21 24 28 27 33
1650.0 30 34 27 22 19 13 15 12 10 17
1690.0 13 19 26 24 29 31 28 24 20 15
1730.0 10 12 15 13 13 16 18 17 18 18
1770.0 15 13 12 12 11 15 15 19 20 21
1810.0 26 27 25 22 21 18 19 17 17 17
1850.0 17 15 16 20 17 13 15 15 13 13
1890.0 11 11 8 9 9 11 9 8 7 9
1930.0 9 11 10 11 10 10 10 9 9 4
1970.0 8 7 10 10 8 8 4 9 9 8
2010.0 11 13 17 15 16 13 17 13 10 10
2050.0 12 10 11 9 10 10 8 11 8 10
2090.0 8 8 9 10 11 12 10 13 12 12
2130.0 15 16 16 17 20 21 29 27 25 19
2170.0 19 16 16 21 22 24 22 29 36 40
2210.0 48 46 42 29 20 19 18 17 22 21
2250.0 26 31 35 38 37 36 35 29 27 30
2290.0 34 40 44 44 43 45 39 37 45 46
2330.0 55 59 51 55 57 57 55 51 38 26
2370.0 20 17 19 22 25 24 21 25 20 24
2410.0 24 30 25 28 29 27 26 24 26 25
2450.0 21 16 13 7 6 4 3 6 3 3
2490.0 3 7 3 4 3 6 7 8 6 4
2530.0 7 6 8 3 3 4 3 6 7 3
2570.0 4 6 4 4 1 4 4 2 2 4
2610.0 1 2 3 1 2 1 0 2 3 3
2650.0 2 2 2 6 2 6 1 7 2 2
2690.0 3 3 2 1 4 2 2 1 7 1
2730.0 2 4 3 3 3 2 3 2 6 4
2770.0 6 4 7 4 6 8 7 4 8 4
2810.0 4 4 4 3 4 8 3 2 7 8
2850.0 6 6 4 3 7 6 6 7 12 9
2890.0 8 7 10 3 7 7 6 3 6 6
2930.0 8 9 8 6 4 6 11 6 6 8
2970.0 7 8 8 10 9 12 8 9 6 8
3010.0 8 8 9 6 6 8 7 7 6 10
3050.0 8 8 13 4 6 11 10 9 9 6
3090.0 12 11 6 9 8 10 13 11 9 4
3130.0 6 9 9 9 17 10 10 7 3 4
3170.0 9 12 13 10 9 10 8 13 11 12
3210.0 9 9 9 6 10 10 11 9 12 11
3250.0 11 15 11 9 9 12 8 19 17 11
3290.0 12 9 8 16 10 8 7 10 8 10
3330.0 8 4 10 9 13 16 19 10 9 15
3370.0 13 10 6 18 11 12 7 6 15 18
3410.0 15 9 13 21 13 13 13 3 7 10
3450.0 10 10 10 15 15 19 11 15 12 13
3490.0 8 16 12 11 10 8 2 12 7 6
3530.0 11 15 3 6 7 21 11 11 13 1
3570.0 8 12 10 6 0 9 3 3 9 17
3610.0 11 15 19 12 10 15 17 17 4 8
3650.0 7 15 15 18 24 12 17 17 12 10
3690.0 16 3 8 12 16 21 10 10 21 17
3730.0 12 18 12 10 20 13 8 17 16 8
3770.0 17 11 15 20 35 10 18 16 25 20
3810.0 19 12 13 17 1 11 27 19 24 20
3850.0 15 15 9 25 29 10 11 12 11 27
3890.0 12 25 18 6 20 29 31 22 9 7
3930.0 2 20 16 6 0 35 29 25 3 0
##END=
