##TITLE=Tetradecanoic acid, methyl ester
##JCAMP-DX=4.24
##DATA TYPE=INFRARED SPECTRUM
##ORIGIN=Sadtler Research Labs Under US-EPA Contract
##OWNER=NIST Standard Reference Data Program
##CAS REGISTRY NO=124-10-7
##MOLFORM=C 15 H 30 O 2
##XUNITS=1/CM
##YUNITS=ABSORBANCE
##XFACTOR=1.0
##YFACTOR=0.000145764
##DELTAX=4.0
##FIRSTX=450.0
##LASTX=3966.0
##FIRSTY=0.034983
##MAXX=3966
##MINX=450
##MAXY=1.45764
##MINY=0
##NPOINTS=880
##XYDATA=(X++(Y..Y))
450.0 240 132 100 74 93 13 74 22 50 25
490.0 57 44 30 38 25 36 7 45 10 52
530.0 28 26 18 14 36 30 56 23 45 19
570.0 41 42 45 16 35 48 0 64 60 68
610.0 48 63 46 45 53 55 59 40 56 39
650.0 45 34 39 31 26 42 32 46 33 53
690.0 53 68 81 99 117 140 167 176 189 180
730.0 174 154 155 141 128 125 114 113 109 115
770.0 106 110 93 100 101 87 95 93 105 109
810.0 130 126 138 151 163 160 170 182 177 185
850.0 178 189 177 180 177 164 166 152 147 128
890.0 119 103 103 84 82 75 70 68 62 61
930.0 51 60 53 57 54 62 60 68 76 81
970.0 101 110 132 147 174 200 233 275 313 359
1010.0 394 427 443 448 438 425 406 382 368 351
1050.0 344 340 354 364 380 397 411 425 435 449
1090.0 462 487 519 567 626 698 764 810 829 841
1130.0 887 956 1069 1219 1407 1620 1819 2029 2183 2323
1170.0 2397 2405 2334 2200 2082 1986 1962 1933 1910 1842
1210.0 1787 1734 1686 1656 1631 1635 1628 1651 1651 1649
1250.0 1603 1535 1430 1309 1192 1085 997 917 866 819
1290.0 790 763 751 735 730 718 702 688 665 650
1330.0 641 666 703 757 809 872 914 911 876 803
1370.0 722 620 538 457 399 324 277 245 225 233
1410.0 234 262 297 364 430 593 811 1044 1117 1016
1450.0 974 972 1049 1065 997 870 678 504 376 287
1490.0 244 196 175 146 145 132 111 113 105 97
1530.0 82 87 82 95 81 75 77 86 80 67
1570.0 71 67 64 63 54 56 50 59 45 52
1610.0 47 48 51 48 53 39 51 51 48 43
1650.0 63 59 50 53 53 61 66 73 77 101
1690.0 96 116 143 174 216 243 325 406 536 643
1730.0 885 1106 1452 1787 2274 2759 3422 3970 3904 3371
1770.0 2711 2194 1671 1334 928 686 447 349 230 179
1810.0 136 103 78 62 65 42 46 30 40 28
1850.0 31 26 23 24 23 31 15 24 18 21
1890.0 18 21 16 15 19 15 20 15 25 17
1930.0 21 20 22 24 25 26 22 28 28 29
1970.0 27 30 32 30 35 36 39 35 41 40
2010.0 43 43 48 49 49 50 49 53 51 51
2050.0 46 44 43 42 40 37 36 32 31 28
2090.0 28 23 23 20 15 16 13 15 11 12
2130.0 12 12 10 12 12 10 13 11 12 9
2170.0 12 10 9 9 8 8 6 7 6 8
2210.0 8 6 4 4 5 4 5 4 6 4
2250.0 6 5 6 5 7 7 8 9 8 11
2290.0 10 11 13 13 14 11 14 9 15 10
2330.0 16 14 14 12 17 19 13 12 16 25
2370.0 16 20 20 18 15 11 11 9 10 10
2410.0 12 9 10 9 8 10 9 9 7 9
2450.0 7 6 6 9 7 6 7 8 8 8
2490.0 10 10 12 11 10 13 14 16 16 20
2530.0 20 22 21 24 22 22 25 23 24 27
2570.0 28 30 34 33 37 38 40 44 43 45
2610.0 47 50 50 52 52 53 55 56 60 63
2650.0 67 70 74 76 79 81 86 88 88 90
2690.0 91 89 83 82 79 76 75 76 78 79
2730.0 82 87 90 92 98 100 101 103 107 110
2770.0 118 124 131 139 154 169 186 203 224 240
2810.0 266 295 327 371 422 485 563 674 835 1094
2850.0 1504 2139 2998 3749 3927 3522 2967 2489 2204 2025
2890.0 1900 1870 1991 2264 2669 3203 3843 4726 5959 7620
2930.0 9294 10000 9479 8158 6756 5462 4606 4173 3997 3743
2970.0 3319 2703 2051 1557 1235 1027 887 790 708 637
3010.0 572 519 479 445 418 385 351 316 282 250
3050.0 226 206 186 172 160 151 143 136 131 125
3090.0 120 119 112 106 102 94 90 85 82 75
3130.0 72 68 64 63 60 58 56 54 50 50
3170.0 48 46 46 42 40 37 37 34 32 32
3210.0 29 26 26 23 21 20 19 17 19 17
3250.0 15 15 13 15 14 15 12 12 14 11
3290.0 12 12 14 10 11 12 14 15 17 15
3330.0 15 15 15 13 15 15 15 15 15 15
3370.0 15 15 12 16 17 16 15 16 16 16
3410.0 13 14 14 13 12 14 13 12 10 10
3450.0 12 11 17 16 20 19 17 18 20 25
3490.0 33 35 40 37 31 25 22 15 14 11
3530.0 7 6 8 8 9 8 4 6 11 21
3570.0 27 40 41 35 22 23 21 21 19 17
3610.0 20 23 23 26 19 29 26 22 24 20
3650.0 30 25 25 27 16 31 24 37 21 30
3690.0 28 25 25 25 23 25 30 21 29 21
3730.0 23 27 28 28 38 26 35 22 24 26
3770.0 24 27 21 22 21 18 20 20 23 30
3810.0 22 28 20 25 19 22 24 31 28 27
3850.0 24 34 24 23 25 21 26 21 17 27
3890.0 19 27 21 32 25 34 21 22 21 12
3930.0 23 21 34 23 29 30 17 30 30 27
##END=
