##TITLE=1-Octadecanamine, N,N-dimethyl-
##JCAMP-DX=4.24
##DATA TYPE=INFRARED SPECTRUM
##ORIGIN=Sadtler Research Labs Under US-EPA Contract
##OWNER=NIST Standard Reference Data Program
##CAS REGISTRY NO=124-28-7
##MOLFORM=C 20 H 43 N
##XUNITS=1/CM
##YUNITS=ABSORBANCE
##XFACTOR=1.0
##YFACTOR=0.000141528
##DELTAX=4.0
##FIRSTX=450.0
##LASTX=3966.0
##FIRSTY=0.000000
##MAXX=3966
##MINX=450
##MAXY=1.41528
##MINY=0
##NPOINTS=880
##XYDATA=(X++(Y..Y))
450.0 0 53 202 133 89 94 12 74 80 150
490.0 202 59 103 30 83 100 120 95 102 119
530.0 80 108 95 58 104 101 67 154 52 75
570.0 83 74 123 66 95 95 106 85 99 116
610.0 91 84 120 74 98 80 66 91 95 97
650.0 106 101 89 101 96 86 105 102 91 94
690.0 119 99 144 172 192 192 208 229 233 256
730.0 215 204 193 182 187 158 118 156 150 135
770.0 168 160 131 136 154 124 135 136 126 140
810.0 129 158 137 159 136 171 161 165 176 169
850.0 119 126 98 98 118 131 79 101 92 73
890.0 89 72 113 91 116 102 105 120 81 91
930.0 81 83 93 80 109 107 90 110 117 123
970.0 124 107 124 122 137 147 155 152 161 204
1010.0 231 227 254 262 295 332 358 400 430 447
1050.0 432 396 381 355 334 305 278 259 223 196
1090.0 205 200 199 176 166 185 191 184 166 184
1130.0 176 164 188 188 220 238 237 226 223 212
1170.0 204 203 188 157 165 166 174 168 174 145
1210.0 147 180 155 156 187 189 157 200 177 194
1250.0 236 241 250 269 266 282 252 253 241 228
1290.0 238 255 250 254 261 256 241 235 208 214
1330.0 200 214 241 278 322 343 363 370 361 362
1370.0 379 362 359 325 300 244 199 182 164 155
1410.0 167 162 173 175 194 239 284 375 476 586
1450.0 727 836 963 1066 1012 880 689 503 360 276
1490.0 217 180 147 139 126 109 100 97 90 74
1530.0 65 72 66 56 52 52 59 46 42 56
1570.0 44 46 55 59 40 29 37 46 35 38
1610.0 37 40 58 45 46 49 41 57 48 51
1650.0 47 33 57 49 60 66 77 84 82 101
1690.0 109 113 133 167 188 192 170 143 116 99
1730.0 97 86 89 82 83 86 89 94 87 90
1770.0 89 97 98 88 73 71 63 57 54 45
1810.0 47 39 37 34 36 36 33 32 30 26
1850.0 35 34 30 29 36 42 29 23 26 27
1890.0 27 26 27 26 25 24 24 22 12 26
1930.0 12 20 22 27 32 20 28 21 21 34
1970.0 23 26 26 23 8 14 24 34 26 23
2010.0 31 18 24 32 30 36 39 23 33 29
2050.0 19 23 32 29 32 31 28 21 22 14
2090.0 28 26 30 28 15 19 21 20 17 9
2130.0 17 19 20 13 14 20 11 15 17 22
2170.0 14 18 12 12 18 12 18 17 16 14
2210.0 14 16 11 15 15 15 12 9 14 17
2250.0 18 16 13 15 14 18 23 18 23 22
2290.0 18 17 29 24 31 27 26 26 36 19
2330.0 15 11 18 8 19 17 21 14 8 11
2370.0 8 8 24 22 21 22 19 19 23 25
2410.0 21 17 21 27 22 17 21 23 22 23
2450.0 23 21 19 23 18 19 23 24 24 30
2490.0 28 34 31 36 37 36 42 41 43 39
2530.0 43 43 43 48 43 41 45 43 44 46
2570.0 45 48 48 52 57 55 59 62 67 70
2610.0 68 74 77 80 82 85 88 91 96 104
2650.0 109 113 117 125 136 141 146 160 162 165
2690.0 174 182 188 203 216 232 255 275 292 316
2730.0 336 353 375 405 444 491 564 673 825 1028
2770.0 1241 1352 1317 1243 1201 1179 1119 1014 914 845
2810.0 846 904 1001 1084 1073 997 936 956 1063 1289
2850.0 1696 2369 3294 4015 3973 3362 2710 2246 1991 1873
2890.0 1816 1849 2017 2323 2735 3219 3792 4611 5874 7646
2930.0 9410 10000 9171 7601 6010 4697 3697 3056 2732 2554
2970.0 2421 2149 1798 1460 1176 897 677 528 436 373
3010.0 322 288 252 225 208 190 175 159 147 133
3050.0 128 119 111 106 105 97 99 93 85 86
3090.0 83 74 73 68 71 62 59 62 57 61
3130.0 54 52 52 48 51 49 49 51 52 49
3170.0 48 44 46 45 47 49 48 47 39 39
3210.0 46 34 31 32 35 29 34 28 21 25
3250.0 30 27 22 21 29 21 29 24 25 27
3290.0 21 21 24 21 21 18 24 23 20 27
3330.0 27 28 22 27 21 26 22 25 26 31
3370.0 28 31 32 25 27 28 31 28 33 25
3410.0 20 27 24 30 27 32 26 25 25 23
3450.0 26 25 27 25 28 24 19 18 21 22
3490.0 16 21 21 21 23 15 16 26 21 17
3530.0 18 17 16 22 17 18 20 25 27 30
3570.0 36 35 37 28 29 33 29 19 28 21
3610.0 28 26 25 29 19 40 33 24 32 29
3650.0 29 40 28 31 36 20 33 32 36 22
3690.0 23 10 17 14 33 25 23 24 28 18
3730.0 21 17 31 31 17 36 28 40 18 33
3770.0 35 25 23 43 28 30 23 35 34 40
3810.0 27 29 25 41 36 29 38 30 38 37
3850.0 26 54 44 32 42 28 39 44 25 38
3890.0 38 48 53 56 31 34 14 38 41 34
3930.0 51 25 29 59 60 26 36 48 46 30
##END=
