##TITLE=Nonanal
##JCAMP-DX=4.24
##DATA TYPE=INFRARED SPECTRUM
##ORIGIN=Sadtler Research Labs Under US-EPA Contract
##OWNER=NIST Standard Reference Data Program
##CAS REGISTRY NO=124-19-6
##MOLFORM=C 9 H 18 O
##XUNITS=1/CM
##YUNITS=ABSORBANCE
##XFACTOR=1.0
##YFACTOR=0.000124734
##DELTAX=4.0
##FIRSTX=450.0
##LASTX=3966.0
##FIRSTY=0.000000
##MAXX=3966
##MINX=450
##MAXY=1.24734
##MINY=0
##NPOINTS=880
##XYDATA=(X++(Y..Y))
450.0 0 19 73 21 47 46 32 50 76 65
490.0 76 81 81 99 102 125 128 146 153 150
530.0 144 160 132 131 99 94 85 79 69 65
570.0 54 50 32 36 38 31 25 40 35 42
610.0 44 34 38 41 32 52 51 50 59 67
650.0 70 71 90 101 105 118 124 133 123 119
690.0 118 107 107 121 129 156 187 208 226 216
730.0 213 185 174 170 155 147 138 137 135 138
770.0 140 128 141 137 125 123 108 110 106 112
810.0 114 120 127 129 131 128 134 133 146 152
850.0 149 161 168 173 167 163 159 154 163 173
890.0 178 180 183 179 168 172 164 168 171 181
930.0 188 197 192 184 174 166 166 169 177 184
970.0 197 213 228 238 252 261 270 270 267 255
1010.0 249 241 237 230 225 233 262 237 239 251
1050.0 264 272 278 283 282 271 250 229 209 198
1090.0 193 188 188 192 192 203 214 229 239 246
1130.0 245 239 229 217 202 196 191 194 204 213
1170.0 222 229 225 217 210 198 186 176 167 163
1210.0 155 153 152 148 149 154 156 161 162 165
1250.0 169 173 176 178 182 185 194 200 208 212
1290.0 211 215 220 233 241 248 244 240 238 241
1330.0 248 272 308 357 409 452 472 477 457 447
1370.0 436 430 460 512 573 586 518 422 359 348
1410.0 388 433 474 497 497 459 431 406 470 545
1450.0 664 816 925 1044 1022 940 764 591 420 299
1490.0 202 160 119 110 80 69 73 63 50 49
1530.0 59 41 45 27 37 36 34 20 22 36
1570.0 30 39 28 41 34 40 36 38 38 40
1610.0 42 47 44 49 59 59 61 58 68 57
1650.0 79 53 98 104 127 129 165 185 225 259
1690.0 325 389 475 571 712 847 987 1143 1379 1713
1730.0 2251 3095 4335 5303 5502 4753 3517 2583 1949 1517
1770.0 1213 1007 860 725 608 514 422 361 300 256
1810.0 215 185 155 141 116 108 100 87 83 69
1850.0 71 69 67 60 60 49 53 50 45 42
1890.0 36 38 35 38 35 32 34 26 30 30
1930.0 30 28 26 25 27 25 26 26 25 26
1970.0 24 24 23 25 23 24 23 25 23 24
2010.0 24 26 25 28 29 31 32 32 31 32
2050.0 31 31 30 29 28 28 26 27 26 26
2090.0 24 22 22 23 24 24 21 23 24 23
2130.0 24 25 25 26 24 25 23 25 27 26
2170.0 28 27 26 24 26 27 26 27 27 27
2210.0 27 27 27 27 27 27 25 25 26 27
2250.0 26 29 27 29 29 27 28 30 30 28
2290.0 25 25 24 26 24 24 24 22 25 24
2330.0 27 23 29 30 34 22 21 18 20 26
2370.0 28 31 30 24 23 21 23 19 24 22
2410.0 21 21 22 21 19 21 24 24 24 24
2450.0 23 23 21 23 23 21 23 23 22 25
2490.0 26 26 27 26 27 29 31 32 34 35
2530.0 36 40 39 41 43 44 45 47 48 52
2570.0 56 59 63 68 73 75 78 84 90 96
2610.0 103 108 118 127 137 154 166 183 201 221
2650.0 241 264 286 318 350 392 445 510 589 692
2690.0 825 996 1221 1542 1982 2317 2326 1981 1505 1154
2730.0 947 821 744 696 661 631 607 587 573 562
2770.0 560 568 593 643 721 838 988 1163 1343 1508
2810.0 1631 1637 1509 1299 1104 995 951 967 1054 1244
2850.0 1596 2164 2929 3667 4159 4237 3957 3595 3307 3065
2890.0 2898 2740 2724 2848 3075 3465 4041 4893 6096 7590
2930.0 9031 9921 10000 9335 8209 6878 5693 4976 4767 4925
2970.0 4953 4322 3262 2123 1425 1040 813 671 575 501
3010.0 445 396 357 326 298 275 252 232 212 198
3050.0 181 169 155 149 137 129 121 117 115 113
3090.0 110 106 96 91 85 85 79 80 80 83
3130.0 79 78 77 73 69 66 65 66 63 62
3170.0 59 57 55 55 54 50 50 46 44 43
3210.0 40 36 36 33 31 30 27 27 26 26
3250.0 23 23 24 22 21 25 24 23 23 21
3290.0 24 20 21 21 19 21 19 21 22 25
3330.0 23 26 28 25 28 29 25 24 29 31
3370.0 30 27 33 32 28 33 33 36 36 36
3410.0 40 35 36 42 42 48 52 52 55 65
3450.0 75 87 102 119 124 117 102 94 73 68
3490.0 53 52 47 41 38 35 35 32 26 27
3530.0 28 31 22 25 23 31 28 35 27 33
3570.0 38 50 59 54 42 29 28 37 35 37
3610.0 30 37 36 36 42 31 50 45 41 40
3650.0 35 45 41 50 45 32 40 35 49 47
3690.0 40 42 42 44 46 37 38 36 42 37
3730.0 35 36 37 44 22 39 32 45 40 40
3770.0 38 36 40 39 38 38 42 28 38 39
3810.0 39 34 45 32 47 34 34 27 41 33
3850.0 40 20 44 36 34 37 39 29 32 29
3890.0 41 38 42 23 31 34 37 29 35 32
3930.0 43 39 38 36 44 39 41 37 36 41
##END=
