##TITLE=Methanamine, N-methyl-
##JCAMP-DX=4.24
##DATA TYPE=INFRARED SPECTRUM
##ORIGIN=Sadtler Research Labs Under US-EPA Contract
##OWNER=NIST Standard Reference Data Program
##CAS REGISTRY NO=124-40-3
##MOLFORM=C 2 H 7 N
##XUNITS=1/CM
##YUNITS=ABSORBANCE
##XFACTOR=1.0
##YFACTOR=0.000083780
##DELTAX=4.0
##FIRSTX=450.0
##LASTX=3966.0
##FIRSTY=0.005278
##MAXX=3966
##MINX=450
##MAXY=0.8378
##MINY=0
##NPOINTS=880
##XYDATA=(X++(Y..Y))
450.0 63 140 99 65 54 40 10 41 36 46
490.0 25 34 79 57 55 23 57 47 53 23
530.0 78 88 76 31 83 75 69 86 90 152
570.0 135 179 193 203 239 249 266 285 355 372
610.0 430 460 560 602 671 709 801 917 1023 1153
650.0 1281 1479 1636 1903 2007 2403 2700 2906 3225 3478
690.0 3848 4070 4476 4661 4893 5058 5212 5228 5269 5107
730.0 4972 4947 4671 4559 4513 4221 3816 3488 3085 2726
770.0 2361 2084 1845 1636 1370 1211 1021 856 723 610
810.0 493 422 384 324 294 250 235 210 203 209
850.0 205 210 204 237 240 269 281 324 339 363
890.0 406 441 467 482 512 510 533 513 482 426
930.0 447 513 511 471 425 395 324 292 253 231
970.0 210 205 194 201 255 323 427 552 717 822
1010.0 881 853 890 1045 917 816 808 908 988 968
1050.0 848 678 528 397 312 252 233 216 228 236
1090.0 267 301 359 466 573 743 943 1254 1573 1988
1130.0 2445 2903 3220 3586 3648 3674 3983 3872 3336 3880
1170.0 3992 3569 2736 1822 1147 711 502 353 294 245
1210.0 218 179 162 135 108 96 71 68 50 49
1250.0 37 43 44 43 45 42 47 43 51 41
1290.0 50 45 41 40 45 52 53 58 49 57
1330.0 57 66 76 82 76 80 91 105 130 132
1370.0 159 190 224 252 304 338 367 404 425 482
1410.0 570 672 809 991 1141 1266 1367 1548 1994 2024
1450.0 2247 2543 2794 3167 3202 2818 2348 2112 2052 2018
1490.0 1830 1700 1632 1477 1334 1109 932 756 641 501
1530.0 431 360 315 310 249 223 195 213 163 133
1570.0 117 113 105 99 89 91 88 92 91 92
1610.0 101 99 113 100 119 109 123 123 113 117
1650.0 135 137 118 110 108 111 122 92 113 108
1690.0 93 78 100 89 78 61 66 76 57 44
1730.0 44 68 46 47 42 48 40 44 42 38
1770.0 53 56 43 48 52 54 62 59 69 62
1810.0 68 71 74 75 80 86 85 86 96 103
1850.0 105 101 104 109 118 123 122 117 113 111
1890.0 107 109 98 89 84 82 70 53 48 39
1930.0 33 36 32 36 33 30 26 28 24 29
1970.0 24 22 24 27 21 25 28 27 21 29
2010.0 32 39 45 50 55 65 72 80 95 104
2050.0 109 124 132 137 147 146 145 148 134 134
2090.0 118 106 93 84 67 58 51 49 45 41
2130.0 36 34 31 29 29 31 28 31 26 30
2170.0 28 28 28 28 25 26 27 26 27 26
2210.0 27 26 26 27 26 31 32 29 28 30
2250.0 22 25 24 27 26 23 25 23 23 16
2290.0 16 10 10 14 7 0 17 27 33 43
2330.0 43 50 51 79 43 54 45 55 64 73
2370.0 53 64 59 60 62 71 81 81 78 76
2410.0 67 63 56 58 57 52 57 51 53 51
2450.0 55 59 69 76 77 83 91 101 107 114
2490.0 111 108 108 113 112 113 125 124 121 124
2530.0 124 120 115 126 133 129 132 134 140 146
2570.0 152 158 161 163 167 173 168 170 169 175
2610.0 180 186 181 183 187 185 193 197 212 229
2650.0 243 270 295 325 328 335 343 369 377 392
2690.0 416 432 448 468 494 535 574 648 724 826
2730.0 954 1098 1275 1506 1780 2117 2548 3082 3804 4637
2770.0 5587 6485 7211 7369 7557 8812 8591 8238 8814 9533
2810.0 10000 9870 9283 8702 8264 8113 7802 7508 7372 6964
2850.0 7083 7611 7737 7625 7248 6953 6816 6844 6673 6649
2890.0 6693 6663 6878 7199 7391 7300 7100 6983 6891 7176
2930.0 7632 8083 8600 8792 8793 9114 9437 9603 9634 9754
2970.0 9273 8174 7924 7485 6484 6151 5844 5104 4281 3400
3010.0 2680 2086 1671 1365 1153 979 843 744 650 584
3050.0 522 476 435 401 379 362 340 329 319 303
3090.0 298 285 285 268 264 260 253 244 241 234
3130.0 226 214 210 214 218 205 217 210 214 208
3170.0 210 206 206 202 186 180 179 168 161 150
3210.0 136 138 121 114 97 82 84 76 68 64
3250.0 67 59 49 53 38 35 31 32 35 28
3290.0 31 33 19 20 21 21 23 27 35 43
3330.0 38 34 49 49 58 61 66 55 67 68
3370.0 66 66 69 67 64 57 56 57 55 55
3410.0 42 38 35 36 32 30 28 27 27 28
3450.0 25 21 24 25 26 20 18 22 22 19
3490.0 25 21 27 25 32 28 26 30 28 12
3530.0 27 37 32 35 21 19 15 13 5 0
3570.0 27 26 31 34 33 20 19 29 25 33
3610.0 17 15 15 15 38 26 27 21 19 24
3650.0 17 23 27 31 33 8 15 7 29 21
3690.0 24 24 35 31 37 34 28 16 28 21
3730.0 32 37 36 14 7 12 20 18 11 14
3770.0 0 4 17 6 0 2 7 0 0 0
3810.0 15 6 4 3 10 17 26 12 10 0
3850.0 5 9 2 1 0 26 20 18 7 0
3890.0 4 5 22 17 11 12 23 8 37 31
3930.0 50 25 32 32 35 30 39 39 27 25
##END=
