##TITLE=1-Propanol, 2-amino-2-methyl-
##JCAMP-DX=4.24
##DATA TYPE=INFRARED SPECTRUM
##ORIGIN=Sadtler Research Labs Under US-EPA Contract
##OWNER=NIST Standard Reference Data Program
##CAS REGISTRY NO=124-68-5
##MOLFORM=C 4 H 11 N O
##XUNITS=1/CM
##YUNITS=ABSORBANCE
##XFACTOR=1.0
##YFACTOR=0.000078159
##DELTAX=4.0
##FIRSTX=450.0
##LASTX=3966.0
##FIRSTY=0.057681
##MAXX=3966
##MINX=450
##MAXY=0.78159
##MINY=0
##NPOINTS=880
##XYDATA=(X++(Y..Y))
450.0 738 319 219 513 749 795 661 747 879 701
490.0 699 601 603 551 502 345 228 429 329 518
530.0 488 586 723 780 828 1024 932 929 931 922
570.0 836 784 677 675 568 553 548 535 409 502
610.0 454 431 487 443 449 513 451 432 428 400
650.0 419 403 456 388 446 542 521 525 549 606
690.0 586 680 719 833 785 800 882 972 1078 1249
730.0 1389 1582 1756 1930 2096 2259 2319 2298 2240 2300
770.0 2313 2352 2465 2596 2843 3037 3275 3465 3675 3826
810.0 3968 3916 3823 3667 3423 3155 2878 2586 2280 1998
850.0 1753 1551 1386 1217 1135 1072 1028 1017 986 1031
890.0 982 979 932 885 822 772 742 687 654 636
930.0 622 588 574 544 516 508 480 486 499 528
970.0 572 635 721 799 879 965 1025 1127 1226 1352
1010.0 1529 1779 2159 2709 3417 4249 5125 6033 6919 7565
1050.0 7961 8085 7879 7300 6514 5552 4593 3705 2844 2149
1090.0 1641 1223 905 716 617 570 541 550 573 610
1130.0 660 722 821 923 1037 1152 1287 1391 1492 1571
1170.0 1638 1687 1714 1739 1757 1761 1764 1761 1724 1670
1210.0 1617 1546 1465 1396 1364 1362 1396 1435 1494 1519
1250.0 1542 1554 1520 1436 1353 1266 1161 1048 976 939
1290.0 926 898 896 895 904 898 893 903 889 890
1330.0 905 918 961 1037 1158 1328 1563 1805 1978 2299
1370.0 2665 2728 2540 2604 2664 2506 2338 2178 2075 1995
1410.0 1824 1644 1456 1240 1055 919 843 836 873 951
1450.0 1069 1189 1330 1523 1580 1598 1714 1590 1363 1215
1490.0 1077 864 667 515 423 362 325 317 323 334
1530.0 339 342 346 350 367 378 381 410 433 453
1570.0 490 529 578 634 694 773 859 941 1046 1133
1610.0 1211 1291 1300 1313 1264 1192 1093 968 860 724
1650.0 613 508 409 341 277 223 204 160 142 125
1690.0 100 101 85 80 69 64 67 54 55 50
1730.0 53 54 44 51 51 41 33 29 18 19
1770.0 17 12 5 7 19 15 15 15 18 18
1810.0 11 12 11 15 14 7 9 7 5 8
1850.0 5 2 0 1 3 3 5 3 3 10
1890.0 5 6 8 6 7 12 9 10 8 8
1930.0 8 16 16 19 22 21 20 20 23 29
1970.0 25 26 23 28 31 30 32 30 29 33
2010.0 32 32 32 35 41 45 47 53 56 58
2050.0 67 71 75 78 84 86 92 96 98 102
2090.0 102 103 103 103 100 96 96 95 93 91
2130.0 85 81 78 73 69 60 59 58 55 54
2170.0 51 51 50 50 52 53 50 49 52 53
2210.0 51 53 57 57 55 53 58 56 59 61
2250.0 61 62 61 61 63 63 62 69 68 70
2290.0 75 82 86 88 88 88 82 71 59 58
2330.0 52 53 58 50 72 72 54 64 78 72
2370.0 66 75 86 86 89 81 76 77 80 76
2410.0 73 74 71 68 73 74 71 72 68 71
2450.0 74 73 73 71 70 68 68 73 72 71
2490.0 71 71 69 69 67 71 72 77 74 75
2530.0 73 73 75 75 75 75 77 79 80 79
2570.0 80 82 83 84 87 91 92 97 98 104
2610.0 105 108 114 121 125 127 131 137 139 142
2650.0 148 152 155 162 165 169 175 192 189 192
2690.0 203 213 221 234 249 266 284 309 325 341
2730.0 358 368 376 377 386 381 386 387 391 390
2770.0 405 425 448 470 501 541 582 626 669 716
2810.0 772 833 900 1007 1134 1295 1484 1707 1966 2275
2850.0 2560 2852 3190 3544 3856 4100 4277 4409 4399 4289
2890.0 4183 4130 4105 4129 4203 4356 4588 4848 5129 5398
2930.0 5654 5894 6086 6290 6635 7166 7803 8366 9054 9845
2970.0 10000 9232 8244 7428 6251 4765 3453 2430 1651 1096
3010.0 707 469 330 256 214 186 170 164 156 158
3050.0 156 157 154 153 158 163 169 169 159 164
3090.0 164 162 155 154 152 155 146 145 136 131
3130.0 128 123 128 116 124 133 130 137 140 146
3170.0 155 160 166 166 172 173 167 164 161 159
3210.0 150 143 134 123 115 110 99 94 96 86
3250.0 76 77 68 70 62 59 58 49 56 53
3290.0 54 64 67 86 85 100 113 127 148 168
3330.0 175 177 168 160 149 134 104 93 87 86
3370.0 101 95 118 136 160 187 205 222 223 213
3410.0 197 187 168 151 131 117 106 95 79 77
3450.0 80 69 72 70 59 60 61 62 70 72
3490.0 67 90 108 118 139 164 192 237 306 407
3530.0 537 679 800 913 1034 1084 1035 972 909 839
3570.0 747 657 576 502 436 391 346 300 277 265
3610.0 253 220 225 224 222 234 241 253 280 329
3650.0 378 475 571 683 776 852 903 876 859 804
3690.0 695 588 502 390 303 260 217 186 160 129
3730.0 104 102 105 86 78 78 85 80 65 72
3770.0 81 59 83 81 66 80 73 73 56 59
3810.0 96 73 65 72 57 69 75 75 94 87
3850.0 104 104 87 90 77 92 101 90 96 80
3890.0 78 64 73 85 75 91 94 89 79 102
3930.0 84 46 65 70 83 74 67 106 93 95
##END=
