##TITLE=1-Butoxyethoxy-2-propanol
##JCAMP-DX=4.24
##DATA TYPE=INFRARED SPECTRUM
##ORIGIN=Sadtler Research Labs Under US-EPA Contract
##OWNER=NIST Standard Reference Data Program
##CAS REGISTRY NO=124-16-3
##MOLFORM=C 9 H 20 O 3
##XUNITS=1/CM
##YUNITS=ABSORBANCE
##XFACTOR=1.0
##YFACTOR=0.000081931
##DELTAX=4.0
##FIRSTX=450.0
##LASTX=3966.0
##FIRSTY=0.022449
##MAXX=3966
##MINX=450
##MAXY=0.81931
##MINY=0
##NPOINTS=880
##XYDATA=(X++(Y..Y))
450.0 274 177 99 202 224 3 97 133 182 325
490.0 157 143 106 114 181 89 129 40 121 71
530.0 156 72 160 223 144 130 132 169 57 81
570.0 137 79 59 133 94 59 201 72 127 157
610.0 69 46 124 147 125 66 110 172 177 119
650.0 58 129 161 195 128 115 113 112 175 120
690.0 102 138 145 175 149 105 126 148 143 98
730.0 166 202 107 240 203 134 146 106 161 119
770.0 140 132 169 153 126 196 212 171 225 270
810.0 273 310 336 387 401 449 497 545 607 591
850.0 594 611 610 608 592 598 626 605 592 609
890.0 605 588 553 616 628 630 622 640 702 755
930.0 803 891 960 994 1033 1052 1070 1085 1040 1078
970.0 1082 1139 1198 1247 1238 1207 1252 1300 1338 1295
1010.0 1262 1318 1384 1479 1561 1674 1821 1898 1921 1962
1050.0 2095 2233 2356 2513 2621 2729 2818 2975 3283 3744
1090.0 4336 4988 5648 6185 6778 7499 8272 9117 9760 10000
1130.0 9776 9227 8519 7706 6907 6117 5268 4492 3784 3124
1170.0 2526 2002 1572 1291 1014 817 694 609 594 523
1210.0 543 561 622 687 780 897 1028 1180 1320 1470
1250.0 1633 1795 1922 1965 1869 1692 1538 1410 1329 1279
1290.0 1238 1206 1172 1148 1124 1121 1163 1218 1249 1254
1330.0 1223 1188 1194 1239 1362 1577 1826 1987 1974 1837
1370.0 1736 1747 1819 1854 1804 1649 1465 1280 1133 1031
1410.0 923 809 711 619 573 565 590 676 763 887
1450.0 1076 1273 1420 1495 1454 1355 1200 1019 826 656
1490.0 505 382 295 240 203 172 156 138 124 117
1530.0 105 103 110 94 99 99 100 99 100 105
1570.0 98 97 92 88 106 98 100 86 76 75
1610.0 67 68 66 70 63 59 64 53 61 65
1650.0 55 62 59 58 59 53 48 47 56 50
1690.0 51 50 55 54 47 53 62 68 69 77
1730.0 81 80 82 67 72 65 58 54 50 47
1770.0 43 44 41 39 35 31 36 31 34 30
1810.0 29 30 26 25 27 27 21 21 24 22
1850.0 23 20 22 24 23 26 29 29 25 27
1890.0 34 33 31 32 36 39 38 40 44 48
1930.0 49 47 54 57 56 56 60 61 60 60
1970.0 64 64 65 62 59 59 58 55 59 66
2010.0 66 66 72 68 68 62 66 68 63 59
2050.0 62 63 60 59 58 59 56 56 57 58
2090.0 56 50 59 60 61 58 60 57 53 50
2130.0 53 55 51 44 48 48 43 43 39 43
2170.0 43 37 44 41 41 39 41 43 39 35
2210.0 37 40 38 33 35 34 31 30 26 29
2250.0 29 27 32 29 28 27 31 34 34 34
2290.0 38 42 45 39 46 58 40 46 41 46
2330.0 48 27 33 32 55 23 49 32 44 32
2370.0 19 31 22 23 27 23 20 14 15 18
2410.0 16 17 17 15 15 14 12 13 12 13
2450.0 12 9 12 6 6 13 8 3 4 6
2490.0 12 10 9 11 11 9 10 16 17 10
2530.0 13 17 21 20 14 24 26 24 23 30
2570.0 35 35 40 50 59 61 63 65 67 69
2610.0 73 72 81 85 83 90 93 92 98 98
2650.0 112 110 117 126 138 145 153 165 175 188
2690.0 207 234 259 277 287 312 319 330 338 363
2730.0 386 390 403 412 423 423 413 416 425 434
2770.0 449 471 507 539 579 624 676 728 780 823
2810.0 863 889 917 974 1052 1166 1332 1566 1908 2358
2850.0 2966 3705 4525 5335 6028 6560 6855 6902 6788 6533
2890.0 6192 5788 5474 5284 5179 5177 5239 5323 5379 5428
2930.0 5545 5831 6192 6436 6352 5894 5373 5116 5297 5741
2970.0 6024 5833 5167 4301 3596 3015 2349 1650 1103 783
3010.0 591 469 386 329 281 252 239 203 185 174
3050.0 154 143 126 115 114 108 93 87 87 85
3090.0 80 68 70 69 56 51 54 54 40 43
3130.0 43 52 41 34 40 44 41 39 43 39
3170.0 45 45 43 44 45 40 34 38 42 32
3210.0 31 30 21 19 17 19 18 15 14 24
3250.0 12 15 15 16 11 4 10 19 14 5
3290.0 15 18 13 10 14 21 15 11 11 13
3330.0 18 13 13 19 23 7 6 10 7 2
3370.0 11 17 14 19 8 23 22 13 17 8
3410.0 10 15 16 25 18 17 16 26 29 21
3450.0 29 42 43 46 51 64 69 70 84 104
3490.0 127 130 153 180 208 232 252 257 265 252
3530.0 254 241 243 224 237 238 234 210 191 189
3570.0 178 168 170 175 186 188 208 258 331 427
3610.0 543 688 792 838 781 594 441 339 261 220
3650.0 199 153 158 141 136 83 70 44 37 34
3690.0 3 26 18 14 2 4 22 11 1 14
3730.0 18 3 9 1 20 12 9 10 31 5
3770.0 11 22 25 14 0 21 34 2 15 2
3810.0 26 2 11 2 8 2 17 25 2 8
3850.0 23 38 21 20 2 16 2 3 3 31
3890.0 2 13 13 2 12 13 3 11 34 2
3930.0 1 2 2 4 2 2 3 9 2 17
##END=
