##TITLE=Isobornyl acetate
##JCAMP-DX=4.24
##DATA TYPE=INFRARED SPECTRUM
##ORIGIN=Sadtler Research Labs Under US-EPA Contract
##OWNER=NIST Standard Reference Data Program
##CAS REGISTRY NO=125-12-2
##MOLFORM=C 12 H 20 O 2
##XUNITS=1/CM
##YUNITS=ABSORBANCE
##XFACTOR=1.0
##YFACTOR=0.000094763
##DELTAX=4.0
##FIRSTX=450.0
##LASTX=3966.0
##FIRSTY=0.005686
##MAXX=3966
##MINX=450
##MAXY=0.94763
##MINY=0
##NPOINTS=880
##XYDATA=(X++(Y..Y))
450.0 60 74 57 46 44 55 56 70 75 93
490.0 110 127 113 123 101 69 36 22 35 57
530.0 64 59 45 21 0 30 18 58 41 46
570.0 45 99 109 73 95 124 145 125 126 164
610.0 174 195 199 221 240 248 193 106 122 72
650.0 111 115 104 90 44 99 60 68 62 80
690.0 40 69 76 62 68 71 66 63 68 62
730.0 42 61 58 52 79 87 57 64 54 51
770.0 54 75 58 77 62 53 58 123 99 87
810.0 84 84 75 87 106 118 142 145 146 133
850.0 108 134 147 140 165 161 133 110 100 100
890.0 110 132 143 141 150 188 257 277 317 325
930.0 322 333 332 301 288 281 275 283 318 392
970.0 510 614 681 665 618 541 523 510 585 741
1010.0 1010 1382 1772 1982 1901 1529 1089 793 716 941
1050.0 1479 2086 2356 2165 1561 1055 821 702 627 557
1090.0 485 430 413 446 516 521 449 347 251 205
1130.0 191 196 183 184 213 237 270 302 375 456
1170.0 523 552 616 811 1067 1172 1090 847 753 894
1210.0 1153 1442 1818 2430 3617 5645 8198 10000 9788 7712
1250.0 5129 3170 2044 1375 989 775 642 541 456 383
1290.0 362 356 334 342 342 348 349 316 272 219
1330.0 185 165 147 158 185 269 453 835 1383 1764
1370.0 1885 1702 1398 1274 1188 1121 1006 809 587 379
1410.0 250 196 187 193 213 218 245 299 349 449
1450.0 559 697 805 815 756 665 597 562 535 475
1490.0 396 294 217 163 144 137 116 126 131 120
1530.0 106 121 105 103 98 88 95 80 86 80
1570.0 76 72 71 68 67 57 61 67 67 62
1610.0 58 59 62 63 54 47 54 67 65 65
1650.0 77 91 81 81 80 95 95 103 117 131
1690.0 138 131 158 176 198 236 280 346 387 444
1730.0 533 676 920 1370 2186 3407 4688 5282 4824 3577
1770.0 2339 1517 1018 733 536 432 355 292 247 210
1810.0 188 161 145 125 118 116 104 94 88 90
1850.0 73 69 68 62 57 59 33 42 40 36
1890.0 36 40 40 30 26 30 29 35 24 25
1930.0 21 21 21 19 19 19 20 20 24 19
1970.0 20 20 20 20 20 20 20 19 18 25
2010.0 19 18 18 18 19 19 20 18 25 18
2050.0 19 19 20 18 17 30 30 34 29 28
2090.0 24 24 19 21 19 23 20 18 19 19
2130.0 25 24 24 29 20 33 22 19 28 20
2170.0 19 19 19 18 19 18 30 18 19 15
2210.0 15 18 18 18 18 18 18 14 19 19
2250.0 18 17 17 20 16 20 14 14 19 7
2290.0 13 17 16 17 11 10 3 14 10 17
2330.0 13 9 3 34 20 1 10 17 24 17
2370.0 42 52 29 28 22 22 21 12 17 23
2410.0 17 22 21 16 12 18 18 15 18 12
2450.0 23 23 23 24 29 36 30 25 27 22
2490.0 25 21 16 15 10 11 20 16 7 16
2530.0 5 26 28 22 16 16 16 23 17 22
2570.0 28 16 24 24 22 27 24 27 23 28
2610.0 26 24 24 24 30 26 30 22 15 27
2650.0 23 32 22 15 27 26 33 27 18 28
2690.0 28 28 34 36 33 34 31 42 40 46
2730.0 57 78 87 77 79 67 69 59 57 56
2770.0 68 66 65 70 60 64 69 52 59 61
2810.0 76 75 87 86 99 94 102 124 113 131
2850.0 149 164 206 270 353 516 773 1105 1438 1721
2890.0 1864 1821 1635 1403 1220 1128 1131 1198 1317 1492
2930.0 1687 1965 2357 2826 3268 3571 3796 4422 4904 4908
2970.0 4370 3436 2726 2158 1686 1367 1202 1054 806 571
3010.0 454 452 484 468 407 300 230 204 174 156
3050.0 137 142 136 117 105 124 140 125 108 109
3090.0 104 89 101 98 94 72 77 83 77 75
3130.0 74 60 72 59 75 63 59 59 80 65
3170.0 59 61 59 63 62 52 59 56 52 47
3210.0 63 64 48 54 48 55 42 49 31 42
3250.0 40 37 48 39 26 46 29 46 32 49
3290.0 60 42 36 22 41 48 44 42 30 40
3330.0 18 22 49 58 48 46 50 47 22 11
3370.0 48 53 43 44 53 45 27 22 25 26
3410.0 36 33 35 35 67 44 32 32 15 18
3450.0 33 41 69 59 29 45 48 49 47 47
3490.0 42 63 51 66 66 34 42 21 32 34
3530.0 29 10 8 40 30 20 44 20 41 33
3570.0 40 32 18 21 25 33 50 28 34 45
3610.0 43 26 54 30 7 17 23 51 42 28
3650.0 36 28 66 46 35 54 55 50 35 30
3690.0 50 46 43 32 40 39 44 47 42 34
3730.0 30 47 46 45 57 51 39 37 48 49
3770.0 34 39 39 43 47 53 51 55 46 44
3810.0 48 49 48 49 50 61 52 57 55 52
3850.0 55 53 57 59 48 42 36 41 59 55
3890.0 50 58 45 43 36 43 44 49 53 48
3930.0 45 50 54 58 67 66 68 69 63 59
##END=
