##TITLE=2-Propenenitrile, 2-methyl-
##JCAMP-DX=4.24
##DATA TYPE=INFRARED SPECTRUM
##ORIGIN=Sadtler Research Labs Under US-EPA Contract
##OWNER=NIST Standard Reference Data Program
##CAS REGISTRY NO=126-98-7
##MOLFORM=C 4 H 5 N
##XUNITS=1/CM
##YUNITS=ABSORBANCE
##XFACTOR=1.0
##YFACTOR=0.000072849
##DELTAX=4.0
##FIRSTX=450.0
##LASTX=3966.0
##FIRSTY=0.000000
##MAXX=3966
##MINX=450
##MAXY=0.72849
##MINY=0
##NPOINTS=880
##XYDATA=(X++(Y..Y))
450.0 0 61 37 35 25 50 54 38 92 115
490.0 58 251 73 331 632 721 816 1013 1064 1542
530.0 2290 1925 1288 982 869 876 779 572 365 286
570.0 234 294 241 301 369 206 246 178 162 120
610.0 85 56 88 87 119 54 62 56 82 66
650.0 73 88 91 83 41 95 79 70 114 70
690.0 77 94 85 107 116 111 167 207 309 406
730.0 502 474 474 510 497 458 449 339 233 163
770.0 125 96 117 79 135 135 174 152 167 166
810.0 120 130 118 115 110 94 88 94 87 95
850.0 98 94 101 94 119 145 178 250 372 612
890.0 948 1394 1902 2476 2967 3318 3627 4135 5296 10000
930.0 5852 3880 3771 3573 3330 2787 2061 1361 913 660
970.0 478 392 313 331 317 324 367 442 537 663
1010.0 715 647 607 622 770 747 592 436 299 225
1050.0 173 152 133 112 113 119 101 106 112 106
1090.0 111 111 103 104 103 103 111 109 109 116
1130.0 121 130 128 144 160 160 160 153 159 159
1170.0 158 155 171 190 209 203 205 207 210 200
1210.0 200 194 186 171 158 172 212 283 389 569
1250.0 827 1122 1373 1446 1396 1504 1318 1400 1479 1182
1290.0 764 475 337 294 286 272 268 257 260 258
1330.0 259 264 278 268 260 285 299 358 459 571
1370.0 722 882 947 951 1003 1383 1563 1451 1246 1159
1410.0 1086 1112 1164 1195 1288 1339 1342 1522 1837 2234
1450.0 2725 2369 2243 2214 2311 2218 1892 1733 1470 1163
1490.0 852 594 426 330 271 263 238 215 217 220
1530.0 235 238 260 254 295 309 330 330 340 363
1570.0 377 393 403 441 484 547 610 705 826 990
1610.0 1170 1360 1540 1643 1545 1366 1444 1728 1650 1331
1650.0 1026 751 622 500 402 288 220 151 158 125
1690.0 111 104 101 86 77 81 88 79 71 65
1730.0 72 73 58 56 70 74 65 57 64 59
1770.0 66 56 64 68 76 69 67 76 94 92
1810.0 100 110 136 169 219 282 386 489 622 714
1850.0 728 667 607 700 744 663 484 332 238 183
1890.0 117 82 72 64 56 64 64 58 52 48
1930.0 55 55 51 51 46 53 52 53 54 56
1970.0 62 55 54 56 61 65 72 69 77 72
2010.0 81 91 99 97 96 97 96 96 89 71
2050.0 98 111 101 98 87 69 48 33 27 27
2090.0 49 40 40 48 40 40 42 47 55 48
2130.0 61 62 62 63 61 55 55 58 54 54
2170.0 54 56 62 62 62 69 82 98 114 137
2210.0 174 199 229 282 308 311 296 282 259 251
2250.0 221 155 98 71 54 52 44 41 43 46
2290.0 40 52 51 51 59 71 72 83 83 94
2330.0 112 101 134 138 152 147 118 106 104 124
2370.0 110 110 115 109 97 97 99 98 99 113
2410.0 113 114 119 119 124 116 114 101 104 98
2450.0 86 83 85 85 83 85 85 93 97 89
2490.0 86 91 83 99 100 85 85 77 78 86
2530.0 86 82 78 82 85 81 76 80 78 87
2570.0 87 94 99 100 99 107 104 101 101 101
2610.0 100 101 87 94 73 72 72 68 65 59
2650.0 68 102 91 73 52 51 39 25 46 83
2690.0 93 104 100 99 103 101 97 94 104 105
2730.0 104 119 107 128 137 121 134 152 154 159
2770.0 143 143 141 136 143 143 159 171 167 183
2810.0 190 198 202 218 229 230 237 244 267 294
2850.0 320 357 392 444 472 496 546 572 611 641
2890.0 651 672 673 680 700 720 748 798 895 1078
2930.0 1258 1350 1298 1259 1351 1607 1676 1573 1438 1389
2970.0 1394 2563 2123 2064 2208 2174 2088 2447 1933 1996
3010.0 1895 1513 1109 816 682 653 586 494 437 406
3050.0 392 390 378 353 319 305 315 317 337 359
3090.0 392 473 585 719 784 762 749 827 695 802
3130.0 741 558 400 291 242 193 167 136 136 128
3170.0 109 120 118 97 111 99 106 98 100 92
3210.0 83 75 75 76 70 74 56 53 47 52
3250.0 63 52 67 44 64 43 57 30 37 57
3290.0 47 38 47 49 43 37 38 47 53 68
3330.0 62 46 47 66 70 59 74 52 64 71
3370.0 70 72 72 79 71 77 82 77 66 66
3410.0 44 69 45 55 58 69 45 29 63 69
3450.0 49 52 65 74 62 74 70 79 79 91
3490.0 97 102 95 107 107 91 105 93 97 70
3530.0 45 56 47 62 45 74 40 48 27 33
3570.0 59 44 35 29 25 65 50 49 61 30
3610.0 63 48 63 69 55 64 67 65 61 70
3650.0 54 61 61 83 63 73 98 61 104 90
3690.0 79 98 118 117 127 123 98 113 96 109
3730.0 104 97 116 101 106 104 82 96 97 102
3770.0 91 105 99 113 95 78 101 82 70 102
3810.0 99 94 106 111 103 105 122 111 120 115
3850.0 106 97 118 127 131 121 112 126 126 142
3890.0 123 127 131 130 126 110 97 83 90 93
3930.0 89 73 86 107 129 139 128 121 120 122
##END=
