##TITLE=Triethylphosphorothioate
##JCAMP-DX=4.24
##DATA TYPE=INFRARED SPECTRUM
##ORIGIN=Sadtler Research Labs Under US-EPA Contract
##OWNER=NIST Standard Reference Data Program
##CAS REGISTRY NO=126-68-1
##MOLFORM=C 6 H 15 O 3 P S
##XUNITS=1/CM
##YUNITS=ABSORBANCE
##XFACTOR=1.0
##YFACTOR=0.000254718
##DELTAX=4.0
##FIRSTX=450.0
##LASTX=3966.0
##FIRSTY=0.018849
##MAXX=3966
##MINX=450
##MAXY=2.54718
##MINY=0
##NPOINTS=880
##XYDATA=(X++(Y..Y))
450.0 74 41 91 57 127 113 166 144 168 143
490.0 149 135 98 87 71 69 24 25 11 19
530.0 9 2 14 3 11 6 9 13 24 18
570.0 30 29 32 45 31 55 39 53 79 110
610.0 145 183 191 185 167 144 141 121 112 93
650.0 74 50 41 30 18 18 18 14 10 7
690.0 8 7 8 7 8 6 13 15 22 19
730.0 31 41 46 66 85 106 140 198 264 372
770.0 538 758 1038 1338 1617 1733 1807 1805 1846 1866
810.0 1961 2174 2436 2860 3178 3465 3124 2554 1802 1176
850.0 749 497 358 270 223 191 169 156 152 150
890.0 153 165 178 200 224 264 313 380 469 603
930.0 781 1018 1367 1817 2423 3078 3830 4213 4440 4312
970.0 3874 3272 2573 1965 1439 1123 944 892 917 1042
1010.0 1265 1630 2236 3152 4594 6122 8468 9084 10000 9417
1050.0 9895 8821 6789 5325 3957 3159 2614 2285 1996 1817
1090.0 1713 1650 1570 1422 1251 1074 957 866 806 755
1130.0 727 716 717 732 740 745 740 747 745 740
1170.0 706 651 587 517 451 377 306 241 196 161
1210.0 140 125 116 108 101 97 91 90 87 87
1250.0 87 91 96 101 111 113 120 122 128 128
1290.0 137 144 156 162 160 152 132 113 93 80
1330.0 70 64 59 58 64 67 80 85 106 126
1370.0 161 191 241 334 476 659 765 764 623 439
1410.0 304 246 212 206 197 199 200 214 237 263
1450.0 273 264 236 216 213 207 217 229 234 210
1490.0 167 133 103 89 78 63 58 50 42 38
1530.0 33 29 24 26 18 23 18 21 21 23
1570.0 23 21 22 22 19 18 19 17 15 15
1610.0 14 11 15 9 14 10 17 13 19 19
1650.0 27 21 34 27 29 26 25 21 23 17
1690.0 17 17 14 15 16 16 15 17 22 23
1730.0 24 23 24 31 24 24 26 24 26 26
1770.0 26 26 27 25 30 26 32 30 34 39
1810.0 47 49 59 65 73 81 85 94 91 97
1850.0 95 99 99 103 98 97 95 88 83 72
1890.0 67 57 53 47 43 39 35 32 27 26
1930.0 24 22 22 17 17 15 13 10 9 7
1970.0 6 5 3 3 5 1 1 1 1 1
2010.0 1 2 0 0 0 0 1 0 0 0
2050.0 1 0 1 2 2 3 5 5 7 9
2090.0 8 9 9 9 9 10 9 9 9 9
2130.0 8 10 9 11 10 10 9 9 9 9
2170.0 7 9 9 9 10 9 9 8 8 8
2210.0 6 6 7 6 6 7 7 7 7 7
2250.0 9 9 9 10 8 9 10 8 8 8
2290.0 6 5 2 1 1 0 0 2 0 3
2330.0 0 2 6 7 5 8 0 5 1 6
2370.0 3 7 6 7 6 8 7 9 8 9
2410.0 9 11 13 11 14 14 14 15 17 17
2450.0 17 17 17 19 19 17 17 15 13 14
2490.0 14 13 10 10 10 10 9 9 7 7
2530.0 8 8 7 7 8 8 8 8 8 9
2570.0 8 7 7 8 8 6 7 8 8 8
2610.0 8 10 10 10 9 9 11 9 8 8
2650.0 9 9 9 10 10 9 9 11 9 10
2690.0 10 9 10 10 10 14 15 18 23 29
2730.0 35 38 34 33 34 37 37 38 39 43
2770.0 49 55 57 56 49 46 41 41 40 42
2810.0 47 50 54 61 66 71 75 78 83 90
2850.0 98 108 120 141 168 208 257 313 361 395
2890.0 405 412 436 507 608 701 739 707 639 598
2930.0 652 819 1036 1197 1226 1118 962 858 835 889
2970.0 974 1108 1369 1726 2031 2150 2007 1709 1313 1003
3010.0 753 607 513 428 352 282 229 181 150 124
3050.0 104 89 78 67 59 57 49 47 45 40
3090.0 39 38 37 34 35 31 34 31 31 31
3130.0 31 30 27 30 29 29 29 29 26 26
3170.0 26 23 24 25 23 23 22 22 25 25
3210.0 24 26 27 29 26 25 23 22 21 17
3250.0 15 13 11 9 10 10 10 10 8 8
3290.0 8 8 7 8 6 7 7 8 8 7
3330.0 6 7 9 6 7 8 7 6 6 7
3370.0 7 7 7 5 8 6 6 6 7 6
3410.0 6 7 7 7 8 6 7 7 6 8
3450.0 9 7 6 8 9 9 9 7 6 5
3490.0 7 5 6 5 7 5 7 3 7 8
3530.0 7 3 3 6 8 7 7 7 6 9
3570.0 9 7 6 7 8 7 11 5 8 7
3610.0 13 7 8 14 7 22 6 8 6 6
3650.0 19 8 9 8 3 17 7 18 3 14
3690.0 7 11 6 8 9 9 16 11 8 9
3730.0 9 16 11 19 13 16 18 9 11 10
3770.0 11 11 9 13 6 9 10 7 16 11
3810.0 6 6 8 18 7 6 8 10 8 13
3850.0 2 13 13 3 8 9 8 7 10 6
3890.0 7 8 14 10 10 8 13 14 9 8
3930.0 9 16 13 10 14 11 10 11 10 11
##END=
