##TITLE=Bis(2-ethyl-1-hexyl)-2-ethyl-1-hexyl phosphonate
##JCAMP-DX=4.24
##DATA TYPE=INFRARED SPECTRUM
##ORIGIN=Sadtler Research Labs Under US-EPA Contract
##OWNER=NIST Standard Reference Data Program
##CAS REGISTRY NO=126-63-6
##MOLFORM=C 24 H 51 O 3 P
##XUNITS=1/CM
##YUNITS=ABSORBANCE
##XFACTOR=1.0
##YFACTOR=0.000050858
##DELTAX=4.0
##FIRSTX=450.0
##LASTX=3966.0
##FIRSTY=0.056757
##MAXX=3966
##MINX=450
##MAXY=0.50858
##MINY=0
##NPOINTS=880
##XYDATA=(X++(Y..Y))
450.0 1116 402 302 287 117 290 256 418 14 625
490.0 66 266 323 474 291 252 380 404 270 370
530.0 341 231 405 459 418 552 544 548 493 571
570.0 574 262 442 369 317 213 223 150 190 170
610.0 154 115 75 36 21 67 20 39 35 56
650.0 12 28 23 27 40 44 61 12 60 48
690.0 76 97 147 155 187 236 181 207 267 297
730.0 389 378 314 347 353 378 383 426 480 525
770.0 599 659 660 726 744 667 686 666 679 777
810.0 947 991 1158 1276 1334 1360 1407 1439 1482 1538
850.0 1615 1629 1699 1694 1747 1682 1605 1482 1319 1141
890.0 1010 941 895 896 919 925 891 901 896 914
930.0 922 970 1003 987 1100 1240 1492 1790 2239 2689
970.0 3110 3342 3450 3544 3714 3800 3919 4081 4370 4858
1010.0 5469 6023 6292 6334 6216 5985 5623 5296 5120 5013
1050.0 4875 4555 4080 3494 2920 2419 2027 1737 1502 1288
1090.0 1086 920 780 710 678 696 673 635 579 507
1130.0 509 510 540 556 591 577 542 496 449 416
1170.0 402 392 382 383 387 390 400 417 427 460
1210.0 508 544 582 621 684 752 833 907 981 1160
1250.0 1420 1797 2188 2430 2346 2074 1825 1641 1463 1257
1290.0 1047 905 790 697 630 566 518 472 452 414
1330.0 392 371 392 408 407 415 419 424 430 431
1370.0 434 493 629 833 981 844 638 475 417 414
1410.0 472 410 362 310 277 292 336 416 476 637
1450.0 815 1061 1339 1566 1712 1634 1374 1031 739 529
1490.0 395 305 254 216 222 203 165 171 155 151
1530.0 120 138 104 127 101 112 92 114 112 68
1570.0 90 90 85 77 82 81 74 78 76 64
1610.0 53 81 58 71 41 63 45 60 49 79
1650.0 45 104 61 57 68 72 64 85 64 98
1690.0 60 80 77 91 60 54 72 59 50 37
1730.0 54 50 61 35 55 50 78 49 70 68
1770.0 79 70 69 93 65 83 76 77 71 87
1810.0 58 72 72 67 65 63 64 62 64 72
1850.0 69 60 62 70 68 68 69 58 61 59
1890.0 62 54 61 58 49 51 42 52 45 39
1930.0 43 40 47 39 51 35 41 40 31 23
1970.0 33 31 30 35 21 34 32 31 37 29
2010.0 39 27 32 26 41 28 23 16 22 12
2050.0 8 23 36 29 7 18 6 9 2 9
2090.0 13 31 33 24 29 26 34 24 37 38
2130.0 37 41 46 41 45 50 31 40 50 49
2170.0 53 54 50 48 33 29 29 23 20 20
2210.0 14 11 18 16 22 22 24 32 30 28
2250.0 39 35 34 36 36 31 32 42 46 48
2290.0 60 62 75 82 92 116 105 97 107 93
2330.0 73 70 54 45 45 80 112 95 77 9
2370.0 2 2 2 13 36 38 39 41 43 46
2410.0 44 46 46 44 33 36 32 39 34 30
2450.0 31 38 33 29 40 40 42 43 44 36
2490.0 29 33 32 34 30 29 24 21 18 19
2530.0 16 23 28 26 20 15 22 22 41 50
2570.0 63 73 74 90 87 91 87 87 98 99
2610.0 101 108 118 125 118 116 121 121 121 132
2650.0 152 147 152 148 143 145 134 139 139 160
2690.0 161 161 155 164 164 172 175 180 201 214
2730.0 233 235 267 286 299 298 284 278 274 282
2770.0 300 298 309 310 304 324 336 362 392 427
2810.0 436 456 505 529 587 637 728 811 950 1121
2850.0 1387 1814 2424 3144 3877 4306 4295 4251 4454 4618
2890.0 4377 4052 3892 3951 4180 4530 5080 5721 6522 7372
2930.0 8257 8963 9384 9258 8495 7392 6707 6895 8001 9467
2970.0 10000 8445 5932 3944 2738 2013 1568 1262 1040 904
3010.0 785 693 631 573 520 484 453 426 396 347
3050.0 345 323 291 282 275 274 262 261 246 243
3090.0 240 219 212 208 195 179 169 172 177 168
3130.0 140 149 142 152 140 136 117 95 115 105
3170.0 100 117 124 114 126 119 118 101 126 91
3210.0 108 97 96 91 72 82 69 81 63 91
3250.0 82 51 41 53 65 42 52 41 65 62
3290.0 80 68 64 63 60 78 90 74 55 71
3330.0 99 93 85 68 71 66 81 55 69 77
3370.0 70 74 61 68 70 94 86 71 95 64
3410.0 54 70 85 64 96 64 64 56 59 71
3450.0 63 64 80 82 88 95 51 69 77 73
3490.0 44 51 41 31 25 42 93 47 25 55
3530.0 68 17 46 53 39 36 52 18 17 43
3570.0 45 31 53 38 16 71 37 61 39 68
3610.0 48 29 21 28 60 14 70 11 44 60
3650.0 56 43 53 78 49 43 53 34 63 81
3690.0 54 10 42 17 38 39 15 59 33 27
3730.0 16 17 30 27 29 28 40 2 60 37
3770.0 43 44 10 52 11 46 25 1 0 28
3810.0 3 59 26 41 10 79 41 114 40 3
3850.0 31 50 81 8 2 8 2 9 85 93
3890.0 37 28 71 107 45 29 91 77 58 93
3930.0 2 13 79 27 49 26 30 75 84 146
##END=
