##TITLE=1,3-Dioxolane, 2-ethyl-2-methyl-
##JCAMP-DX=4.24
##DATA TYPE=INFRARED SPECTRUM
##ORIGIN=Sadtler Research Labs Under US-EPA Contract
##OWNER=NIST Standard Reference Data Program
##CAS REGISTRY NO=126-39-6
##MOLFORM=C 6 H 12 O 2
##XUNITS=1/CM
##YUNITS=ABSORBANCE
##XFACTOR=1.0
##YFACTOR=0.000113931
##DELTAX=4.0
##FIRSTX=450.0
##LASTX=3966.0
##FIRSTY=0.088639
##MAXX=3966
##MINX=450
##MAXY=1.13931
##MINY=0
##NPOINTS=880
##XYDATA=(X++(Y..Y))
450.0 778 463 204 216 72 188 58 105 184 199
490.0 251 320 376 354 379 224 318 284 6 32
530.0 170 99 100 122 40 122 92 158 151 297
570.0 159 125 182 139 117 69 73 67 70 67
610.0 56 72 29 23 122 117 153 160 185 194
650.0 191 170 167 134 121 131 115 106 110 95
690.0 85 74 74 66 70 67 42 64 64 67
730.0 61 71 74 82 96 137 183 247 393 317
770.0 394 398 403 376 317 251 197 151 160 117
810.0 127 97 107 152 148 172 199 260 348 485
850.0 687 972 1337 1742 2202 2506 2711 2625 2304 1965
890.0 1662 1353 1118 967 853 735 613 530 467 503
930.0 627 865 969 1046 1077 867 794 591 379 281
970.0 238 244 255 293 338 416 479 561 629 695
1010.0 726 791 897 1087 1247 1409 1706 1928 2170 2449
1050.0 2769 3326 4271 5776 7625 9056 9939 10000 8938 7300
1090.0 5414 3513 2180 1501 1194 1097 1142 1295 1530 1798
1130.0 2061 2259 2379 2428 2434 2439 2445 2384 2353 2271
1170.0 2143 2155 2302 2611 2993 3439 3796 4033 4006 3957
1210.0 3783 3525 3290 3170 2974 2750 2555 2384 2307 2305
1250.0 2344 2325 2234 2043 1801 1555 1329 1171 1127 1161
1290.0 1181 1181 1129 1001 841 661 508 441 484 593
1330.0 716 859 987 1040 1120 1151 1066 1149 1338 1635
1370.0 1906 2225 2481 2471 2146 1760 1284 841 519 354
1410.0 287 256 247 259 261 300 356 440 531 637
1450.0 767 900 1022 1100 1079 1042 988 841 730 567
1490.0 410 316 245 188 176 131 109 112 114 113
1530.0 95 115 113 141 107 116 103 126 119 85
1570.0 83 83 75 60 57 52 48 58 45 56
1610.0 50 73 64 76 62 80 73 102 79 100
1650.0 79 132 78 67 81 75 75 80 67 101
1690.0 72 89 114 137 128 162 196 255 287 317
1730.0 345 339 340 327 345 309 271 202 169 123
1770.0 100 90 64 57 41 45 47 38 35 41
1810.0 37 44 52 55 61 64 67 64 60 65
1850.0 52 50 48 39 38 35 36 32 30 31
1890.0 38 41 50 55 65 69 79 89 89 91
1930.0 94 88 86 83 86 80 76 75 73 71
1970.0 70 73 67 68 63 54 53 50 48 44
2010.0 42 41 41 39 40 35 37 31 35 36
2050.0 39 43 53 58 61 67 68 72 67 68
2090.0 61 64 61 62 60 54 52 50 45 43
2130.0 43 40 43 47 47 45 48 45 41 40
2170.0 33 32 30 30 33 27 31 34 30 33
2210.0 32 33 34 32 31 25 25 26 23 24
2250.0 24 27 22 23 24 25 30 32 37 35
2290.0 37 38 36 34 26 15 11 9 17 14
2330.0 13 24 22 15 29 17 2 8 21 31
2370.0 38 43 45 36 28 23 25 22 26 25
2410.0 24 24 25 32 25 24 16 16 11 11
2450.0 9 7 0 4 2 8 2 3 4 2
2490.0 2 2 7 5 2 4 3 3 2 7
2530.0 9 11 13 14 17 20 20 19 12 11
2570.0 16 16 13 15 17 15 18 24 24 30
2610.0 27 36 35 40 36 39 42 50 48 54
2650.0 55 62 75 82 100 119 135 147 154 154
2690.0 141 125 112 103 84 76 68 70 68 72
2730.0 77 81 88 95 93 87 94 92 94 95
2770.0 101 102 109 118 132 141 158 173 190 214
2810.0 243 278 313 360 409 454 516 569 631 695
2850.0 777 891 1069 1380 1901 2613 3350 4075 4708 5053
2890.0 5075 4846 4374 3863 3417 3063 2815 2737 2809 3010
2930.0 3365 3849 4438 4926 5430 5612 5520 5346 5179 5070
2970.0 5170 5600 6356 7010 7033 7348 6816 5513 4542 3313
3010.0 2298 1515 1005 748 584 476 394 347 300 271
3050.0 243 222 214 203 194 198 192 192 184 177
3090.0 166 152 141 127 127 113 107 97 92 92
3130.0 95 100 92 82 84 88 96 91 90 83
3170.0 92 89 89 86 88 92 90 87 83 84
3210.0 73 60 63 64 53 49 41 36 42 32
3250.0 31 29 33 25 22 33 33 37 38 30
3290.0 31 33 33 32 30 45 37 29 29 27
3330.0 15 26 16 26 32 33 36 39 22 31
3370.0 22 37 25 23 18 23 24 16 21 16
3410.0 24 23 16 13 24 25 25 23 19 23
3450.0 20 13 16 13 9 5 10 24 15 22
3490.0 20 21 24 9 11 8 7 16 22 7
3530.0 13 26 13 12 15 14 23 27 28 14
3570.0 30 22 1 5 11 14 22 8 25 20
3610.0 22 28 39 34 38 35 27 30 30 23
3650.0 21 17 26 23 41 34 36 25 21 9
3690.0 42 30 10 20 34 21 44 44 0 14
3730.0 21 0 11 30 29 45 24 42 32 56
3770.0 20 13 18 36 16 14 3 0 48 37
3810.0 19 18 30 4 27 10 18 14 26 9
3850.0 23 38 17 54 34 39 1 11 22 23
3890.0 11 15 24 10 0 14 37 6 38 22
3930.0 33 33 45 28 48 60 44 82 51 31
##END=
