##TITLE=Methacrylic acid, 2-hydroxyethyl ester
##JCAMP-DX=4.24
##DATA TYPE=INFRARED SPECTRUM
##ORIGIN=Sadtler Research Labs Under US-EPA Contract
##OWNER=NIST Standard Reference Data Program
##CAS REGISTRY NO=12676-48-1
##MOLFORM=C 6 H 10 O 3
##XUNITS=1/CM
##YUNITS=ABSORBANCE
##XFACTOR=1.0
##YFACTOR=0.000083469
##DELTAX=4.0
##FIRSTX=450.0
##LASTX=3966.0
##FIRSTY=0.006427
##MAXX=3966
##MINX=450
##MAXY=0.83469
##MINY=0
##NPOINTS=880
##XYDATA=(X++(Y..Y))
450.0 77 102 81 89 91 103 121 134 131 127
490.0 113 100 142 105 118 130 125 152 166 165
530.0 147 127 108 58 52 71 79 85 84 83
570.0 105 106 95 107 112 122 111 111 95 75
610.0 64 39 40 57 68 86 81 113 140 157
650.0 163 169 156 142 106 108 72 51 45 22
690.0 28 18 15 13 9 20 4 4 4 5
730.0 15 2 22 18 29 39 38 43 39 46
770.0 40 40 53 60 83 109 156 218 298 380
810.0 465 508 476 419 348 299 257 241 246 262
850.0 283 297 308 315 302 296 290 293 311 353
890.0 409 468 506 511 493 465 449 483 559 682
930.0 841 1008 1167 1172 1084 895 726 578 450 359
970.0 304 284 285 299 334 378 432 499 581 695
1010.0 860 1063 1286 1444 1513 1494 1423 1297 1197 1124
1050.0 1069 1028 1017 1042 1095 1199 1308 1389 1425 1387
1090.0 1294 1151 1005 895 830 803 805 851 941 1084
1130.0 1294 1624 2126 2912 4126 5787 7756 9298 10000 9334
1170.0 7981 6409 4956 3776 2932 2312 1855 1507 1253 1067
1210.0 926 830 747 687 634 606 572 561 551 558
1250.0 569 593 609 640 689 767 873 1042 1332 1780
1290.0 2314 2675 2806 2772 2575 2433 2491 2512 2346 1981
1330.0 1486 1070 849 757 720 690 661 646 642 655
1370.0 686 713 727 735 751 763 800 864 948 1006
1410.0 1015 969 842 701 638 623 613 640 697 776
1450.0 866 963 993 996 926 784 602 469 373 283
1490.0 205 175 133 116 101 74 86 76 59 66
1530.0 66 69 65 46 52 64 63 48 51 67
1570.0 72 82 79 90 101 104 111 122 138 155
1610.0 184 218 248 305 358 445 520 582 589 544
1650.0 452 331 234 171 140 129 141 163 179 201
1690.0 244 282 315 396 505 701 972 1393 1969 2706
1730.0 3638 4589 5199 5344 5165 4416 3332 2291 1534 1028
1770.0 704 488 369 284 238 211 189 180 159 140
1810.0 121 102 87 69 57 46 49 42 44 37
1850.0 45 53 58 71 80 85 100 112 118 118
1890.0 110 101 84 73 59 47 47 46 39 47
1930.0 46 42 42 39 41 41 42 46 47 47
1970.0 48 48 53 49 51 50 46 47 47 43
2010.0 42 42 40 36 30 30 24 23 23 25
2050.0 25 25 22 24 17 18 18 17 18 23
2090.0 25 28 27 25 29 29 29 29 24 30
2130.0 23 24 29 24 24 24 23 23 23 23
2170.0 19 24 17 18 18 12 17 15 16 13
2210.0 16 13 10 12 17 17 17 17 16 16
2250.0 15 11 12 10 9 9 10 9 2 1
2290.0 1 4 3 2 8 4 7 7 12 11
2330.0 8 13 14 6 6 0 0 0 2 9
2370.0 17 17 6 11 14 12 12 17 11 12
2410.0 12 12 12 12 12 11 11 11 11 11
2450.0 11 11 11 18 12 19 12 19 18 15
2490.0 13 12 14 12 7 12 13 7 7 12
2530.0 12 12 12 19 19 19 11 13 13 13
2570.0 12 12 13 13 13 13 12 12 12 14
2610.0 13 13 18 13 19 19 18 16 17 13
2650.0 13 13 13 20 13 14 19 20 20 21
2690.0 20 25 27 30 31 34 31 37 36 37
2730.0 43 48 55 56 59 57 60 57 55 54
2770.0 54 60 59 60 61 66 72 71 78 87
2810.0 92 101 107 120 123 130 136 148 160 173
2850.0 204 229 267 316 370 434 505 577 641 702
2890.0 727 727 714 683 655 621 607 604 634 695
2930.0 787 912 1024 1099 1178 1250 1318 1404 1476 1473
2970.0 1416 1301 1181 1112 1073 1004 926 812 661 535
3010.0 441 361 297 253 217 194 169 151 138 129
3050.0 125 119 112 99 83 74 66 62 56 58
3090.0 63 65 81 110 146 171 164 152 106 61
3130.0 39 30 27 21 18 13 14 19 18 13
3170.0 13 13 6 6 14 5 13 12 12 14
3210.0 7 0 12 6 7 1 11 9 9 6
3250.0 10 4 7 11 5 17 6 5 6 7
3290.0 10 5 13 5 6 3 5 5 6 6
3330.0 11 10 8 16 17 19 20 14 9 16
3370.0 30 16 23 22 22 28 21 19 23 24
3410.0 25 13 23 29 27 33 38 33 40 39
3450.0 46 58 52 60 80 72 73 55 51 45
3490.0 44 27 32 28 23 36 32 32 29 52
3530.0 52 74 102 119 154 198 247 278 290 299
3570.0 325 308 311 296 271 264 243 223 211 180
3610.0 155 139 137 135 128 136 156 190 223 283
3650.0 319 350 357 354 338 305 274 245 205 172
3690.0 141 118 100 70 76 62 56 50 40 44
3730.0 47 38 33 36 31 24 26 28 22 21
3770.0 23 25 21 26 24 31 28 22 19 28
3810.0 32 22 14 14 15 27 32 26 30 22
3850.0 19 27 42 48 48 47 47 43 40 36
3890.0 26 33 38 41 40 31 25 30 30 29
3930.0 30 29 30 30 23 25 36 35 34 40
##END=
