##TITLE=Tetrachloroethylene
##JCAMP-DX=4.24
##DATA TYPE=INFRARED SPECTRUM
##ORIGIN=Sadtler Research Labs Under US-EPA Contract
##OWNER=NIST Standard Reference Data Program
##CAS REGISTRY NO=127-18-4
##MOLFORM=C 2 Cl 4
##XUNITS=1/CM
##YUNITS=ABSORBANCE
##XFACTOR=1.0
##YFACTOR=0.000104581
##DELTAX=4.0
##FIRSTX=450.0
##LASTX=3966.0
##FIRSTY=0.000000
##MAXX=3966
##MINX=450
##MAXY=1.04581
##MINY=0
##NPOINTS=880
##XYDATA=(X++(Y..Y))
450.0 0 33 102 41 99 102 112 10 213 169
490.0 86 76 150 137 82 15 73 43 68 130
530.0 87 91 67 13 68 81 89 80 85 85
570.0 67 87 61 57 59 102 103 66 101 104
610.0 91 91 89 84 102 89 39 53 58 28
650.0 79 69 87 92 97 105 101 103 83 86
690.0 98 94 100 94 80 75 78 84 75 86
730.0 89 138 209 328 441 527 571 599 692 1056
770.0 1700 2340 2618 2536 2334 1604 1183 1326 1515 1547
810.0 1426 1060 603 332 250 195 156 100 87 99
850.0 91 92 96 102 105 124 148 202 327 570
890.0 1057 1967 3513 5756 8233 9916 10000 8908 6781 3548
930.0 1202 303 112 81 92 89 99 95 94 91
970.0 86 83 87 87 87 91 92 88 90 91
1010.0 92 92 89 81 86 82 86 77 77 74
1050.0 77 82 85 80 87 88 92 100 116 135
1090.0 152 168 181 170 172 168 173 178 177 171
1130.0 166 150 154 158 156 150 136 125 111 114
1170.0 112 104 100 99 91 84 83 81 83 81
1210.0 83 89 91 91 92 91 95 92 94 98
1250.0 99 104 100 98 96 92 85 79 81 81
1290.0 84 84 84 81 81 85 79 84 82 85
1330.0 87 98 101 112 122 129 129 128 132 114
1370.0 101 90 79 81 82 80 78 75 78 72
1410.0 77 75 73 71 75 73 72 73 74 69
1450.0 72 73 71 74 70 77 78 75 69 76
1490.0 68 70 73 72 72 70 69 72 69 69
1530.0 68 71 70 71 70 68 74 70 71 70
1570.0 68 72 75 67 65 65 69 71 69 70
1610.0 67 68 67 68 67 66 66 68 64 65
1650.0 65 75 62 58 68 63 65 67 62 66
1690.0 60 64 60 68 63 63 65 66 61 67
1730.0 62 64 66 67 68 64 71 62 70 66
1770.0 68 68 62 67 67 68 62 68 64 62
1810.0 59 57 58 53 56 59 59 55 61 60
1850.0 61 61 63 65 65 65 65 62 66 71
1890.0 66 69 68 62 60 57 59 56 53 52
1930.0 50 51 53 57 55 50 52 52 53 53
1970.0 52 57 53 51 54 54 57 53 52 56
2010.0 55 59 59 59 61 64 66 74 70 75
2050.0 78 73 64 59 77 81 80 81 79 68
2090.0 61 53 48 46 54 53 55 54 52 53
2130.0 50 50 53 57 52 54 55 55 53 51
2170.0 51 55 54 59 58 57 53 51 54 57
2210.0 52 56 55 53 56 56 56 51 56 53
2250.0 54 49 54 53 53 53 56 51 50 47
2290.0 45 38 35 30 23 12 9 7 7 10
2330.0 6 22 37 39 48 39 7 11 26 80
2370.0 97 105 94 78 72 66 66 63 61 56
2410.0 60 62 58 58 59 62 59 64 61 66
2450.0 66 67 65 67 68 70 75 74 76 75
2490.0 84 77 72 71 60 64 66 65 65 67
2530.0 65 66 67 71 67 65 67 67 67 68
2570.0 68 71 71 65 71 72 68 63 65 63
2610.0 64 52 55 47 48 50 48 66 55 49
2650.0 37 37 38 46 57 69 72 78 78 76
2690.0 71 71 71 73 78 79 79 75 77 72
2730.0 73 77 76 75 82 79 75 81 81 80
2770.0 75 75 74 78 80 74 80 77 76 80
2810.0 77 71 76 76 71 80 70 74 72 72
2850.0 75 71 79 87 86 70 73 79 73 80
2890.0 78 84 80 81 80 76 72 81 75 73
2930.0 81 74 73 80 71 71 78 70 86 85
2970.0 77 77 76 79 72 74 61 61 67 63
3010.0 84 77 70 75 74 81 68 62 67 69
3050.0 69 71 66 73 74 64 63 70 59 64
3090.0 81 75 75 67 59 63 63 70 65 73
3130.0 68 71 56 51 55 63 68 62 65 67
3170.0 66 63 58 72 54 54 56 55 62 67
3210.0 68 54 48 49 48 63 45 52 58 66
3250.0 61 35 43 49 39 66 53 56 55 44
3290.0 56 56 60 55 32 48 75 49 51 48
3330.0 53 49 50 49 36 36 45 31 35 49
3370.0 49 49 59 51 35 36 44 43 42 44
3410.0 51 48 45 30 36 36 41 34 38 48
3450.0 34 34 38 39 24 42 36 37 48 41
3490.0 39 22 29 38 17 32 25 37 36 32
3530.0 22 21 27 39 47 29 28 27 35 12
3570.0 24 24 24 11 19 36 43 29 20 22
3610.0 29 44 29 11 38 46 32 20 24 34
3650.0 28 24 16 19 48 37 15 31 37 21
3690.0 32 31 36 21 36 19 15 7 31 12
3730.0 27 42 32 37 43 45 36 44 34 22
3770.0 27 21 17 42 23 26 37 18 42 60
3810.0 9 30 36 7 30 7 11 51 24 23
3850.0 47 42 43 19 18 29 38 24 7 44
3890.0 35 36 11 31 13 33 36 25 22 65
3930.0 56 51 27 36 36 36 58 63 28 29
##END=
