##TITLE=2-Propanol, 1-chloro-
##JCAMP-DX=4.24
##DATA TYPE=INFRARED SPECTRUM
##ORIGIN=Sadtler Research Labs Under US-EPA Contract
##OWNER=NIST Standard Reference Data Program
##CAS REGISTRY NO=127-00-4
##MOLFORM=C 3 H 7 Cl O
##XUNITS=1/CM
##YUNITS=ABSORBANCE
##XFACTOR=1.0
##YFACTOR=0.000051672
##DELTAX=4.0
##FIRSTX=450.0
##LASTX=3966.0
##FIRSTY=0.115384
##MAXX=3966
##MINX=450
##MAXY=0.51672
##MINY=0
##NPOINTS=880
##XYDATA=(X++(Y..Y))
450.0 2233 2136 2146 2059 2435 1770 1556 1686 1340 1612
490.0 891 516 424 428 134 296 190 266 181 160
530.0 191 68 370 359 243 235 259 717 1010 1031
570.0 1156 997 987 643 626 414 338 197 215 167
610.0 123 155 138 108 58 144 160 113 139 125
650.0 139 179 211 186 207 266 270 259 294 361
690.0 472 651 905 1085 1228 1439 1627 1550 1977 2228
730.0 2879 3786 4510 5027 5562 6393 6925 6189 4692 4034
770.0 3568 3166 2486 1410 830 516 413 469 508 757
810.0 1151 1343 1437 2212 2676 2688 2670 2365 2234 1897
850.0 1253 750 536 445 371 395 433 524 582 629
890.0 648 645 625 641 629 666 809 1096 1541 2082
930.0 2724 3030 3094 3187 3397 3261 2669 2031 1568 1297
970.0 1069 795 664 556 604 673 794 923 1166 1593
1010.0 1825 2592 3416 4098 5009 5932 6590 6942 6895 7088
1050.0 7484 7324 6755 6390 6259 6380 6622 6702 6660 6604
1090.0 6528 6435 6066 5576 5357 5310 5309 5238 5126 5076
1130.0 5015 4923 4637 4175 3783 3706 3421 2902 2471 2193
1170.0 2090 2077 2153 2263 2439 2636 2767 2833 2854 2719
1210.0 2618 2573 2396 2411 2536 2863 3373 4156 5221 6420
1250.0 7724 8861 9642 9548 9159 8818 7922 6258 4725 3743
1290.0 3121 2721 2246 1967 1769 1677 1635 1685 1778 1933
1330.0 2140 2372 2667 2986 3299 3481 3653 3781 4371 4965
1370.0 5169 5696 6107 6364 6452 6315 5685 5010 4142 3436
1410.0 2759 2223 2085 2254 2830 2878 3157 3400 3380 3799
1450.0 3454 2930 2499 2334 1971 1610 1435 1156 933 705
1490.0 634 400 346 279 245 220 216 189 133 148
1530.0 119 144 43 104 118 125 87 89 63 99
1570.0 87 97 59 68 71 62 64 55 53 58
1610.0 46 54 25 68 30 63 7 41 31 49
1650.0 16 29 31 57 53 62 44 80 61 57
1690.0 70 57 16 50 56 87 88 105 106 137
1730.0 144 159 178 225 253 295 310 311 301 285
1770.0 268 209 197 164 164 109 105 79 91 55
1810.0 47 52 37 48 46 47 31 48 38 68
1850.0 61 53 70 69 90 97 94 78 88 96
1890.0 84 87 75 67 61 69 61 59 65 51
1930.0 48 48 45 51 46 43 51 44 69 76
1970.0 77 77 83 86 71 84 80 80 79 86
2010.0 93 98 101 100 90 87 80 76 78 71
2050.0 67 61 61 66 72 73 68 71 74 72
2090.0 77 79 73 88 71 68 65 65 60 50
2130.0 50 53 53 48 57 49 55 52 58 64
2170.0 60 72 79 81 91 104 110 105 103 101
2210.0 96 89 78 66 58 50 57 48 55 61
2250.0 64 71 82 87 90 101 106 112 110 109
2290.0 111 111 125 122 124 118 117 106 104 114
2330.0 129 109 84 104 144 73 90 77 106 141
2370.0 124 128 126 119 110 111 106 116 121 117
2410.0 122 117 112 99 86 92 83 86 88 84
2450.0 75 83 78 79 77 71 89 89 96 98
2490.0 109 115 119 130 131 130 131 137 127 122
2530.0 116 113 105 99 98 96 92 89 87 86
2570.0 90 89 81 86 96 99 108 112 122 133
2610.0 133 141 140 150 164 164 164 183 185 183
2650.0 198 191 182 179 188 198 209 223 240 261
2690.0 292 314 304 294 278 269 257 251 232 236
2730.0 226 230 241 246 262 259 266 254 275 270
2770.0 278 288 297 299 307 306 321 322 331 357
2810.0 368 402 435 458 481 527 574 642 743 841
2850.0 938 1052 1254 1511 1834 2183 2649 3065 3423 3768
2890.0 4121 4759 5069 4671 4670 4619 4497 4321 4173 4017
2930.0 3931 4032 4144 4353 4735 5499 6225 6557 6934 7634
2970.0 8189 8717 9096 9925 10000 9104 8908 7999 7252 6181
3010.0 4788 3288 2452 1841 1350 966 690 492 335 248
3050.0 189 175 163 163 150 171 172 180 176 188
3090.0 197 196 195 192 188 170 164 158 133 144
3130.0 116 109 112 110 114 121 121 136 125 140
3170.0 133 140 149 147 157 152 152 162 159 149
3210.0 135 145 110 104 88 104 70 56 49 70
3250.0 91 75 75 90 82 89 89 65 60 75
3290.0 71 74 58 69 78 78 70 65 74 98
3330.0 78 71 77 86 64 60 89 62 68 64
3370.0 73 78 80 69 99 68 88 68 106 98
3410.0 97 78 69 83 88 75 97 93 99 95
3450.0 67 77 105 99 115 123 121 96 144 128
3490.0 168 165 137 152 164 136 138 110 96 95
3530.0 112 112 146 162 134 119 116 107 150 134
3570.0 146 169 231 282 352 544 810 1155 1642 2440
3610.0 3638 4001 3911 4230 4160 4124 3444 2824 2457 2144
3650.0 2013 1937 1824 1728 1522 1112 733 541 448 344
3690.0 281 198 208 195 176 172 141 224 182 174
3730.0 238 118 222 135 118 65 117 143 153 73
3770.0 79 61 10 24 80 88 26 6 0 69
3810.0 149 107 5 39 100 125 114 0 65 107
3850.0 74 32 70 61 35 7 66 62 15 125
3890.0 131 120 112 95 113 57 29 117 144 18
3930.0 81 103 95 52 4 141 81 126 91 26
##END=
