##TITLE=Acetamide, N,N-dimethyl-
##JCAMP-DX=4.24
##DATA TYPE=INFRARED SPECTRUM
##ORIGIN=Sadtler Research Labs Under US-EPA Contract
##OWNER=NIST Standard Reference Data Program
##CAS REGISTRY NO=127-19-5
##MOLFORM=C 4 H 9 N O
##XUNITS=1/CM
##YUNITS=ABSORBANCE
##XFACTOR=1.0
##YFACTOR=0.000085989
##DELTAX=4.0
##FIRSTX=450.0
##LASTX=3966.0
##FIRSTY=0.023131
##MAXX=3966
##MINX=450
##MAXY=0.85989
##MINY=0
##NPOINTS=880
##XYDATA=(X++(Y..Y))
450.0 269 264 264 250 234 225 188 151 100 72
490.0 38 24 17 23 34 21 25 28 27 9
530.0 13 4 20 11 8 10 13 31 67 127
570.0 204 354 450 457 467 518 479 501 382 210
610.0 123 86 68 45 39 18 33 25 30 14
650.0 10 12 17 23 5 34 25 19 30 27
690.0 22 24 30 38 37 38 55 62 68 67
730.0 72 60 57 60 34 27 15 17 21 21
770.0 20 15 15 15 13 16 53 26 26 30
810.0 27 25 21 24 42 37 15 15 19 19
850.0 26 26 26 33 16 22 20 20 24 24
890.0 30 24 32 33 39 42 38 41 41 46
930.0 52 65 64 76 82 89 99 119 132 156
970.0 188 241 313 412 573 777 1014 1207 1301 1344
1010.0 1371 1240 1214 1073 840 669 597 563 542 548
1050.0 554 531 512 468 418 369 315 266 228 204
1090.0 177 172 166 154 165 166 167 178 196 207
1130.0 231 260 292 341 394 475 569 704 854 1027
1170.0 1226 1458 1600 1708 1725 1641 1535 1395 1181 921
1210.0 690 525 409 342 310 290 294 318 364 436
1250.0 542 672 801 909 979 1016 1024 997 929 788
1290.0 620 481 403 356 352 346 360 383 427 480
1330.0 559 659 776 931 1053 1128 1199 1270 1450 1732
1370.0 2054 2491 3097 3726 4242 4662 4855 4864 4736 4368
1410.0 3763 3121 2551 2175 1842 1567 1354 1298 1355 1439
1450.0 1513 1541 1544 1594 1595 1531 1398 1299 1223 1113
1490.0 1018 974 918 886 820 761 757 743 717 759
1530.0 774 797 776 715 701 686 638 542 458 413
1570.0 353 316 280 255 258 230 224 206 220 214
1610.0 226 250 254 312 336 419 466 521 623 700
1650.0 768 950 1255 1739 2545 3777 5557 7706 9312 9963
1690.0 10000 9985 9710 8442 6638 4365 2590 1512 1025 783
1730.0 639 517 467 412 347 279 221 163 119 101
1770.0 65 50 64 59 61 52 43 55 51 65
1810.0 56 49 51 41 30 15 22 29 18 0
1850.0 11 26 22 17 9 0 11 23 18 19
1890.0 16 18 23 29 28 25 23 22 17 20
1930.0 21 21 19 15 15 16 16 15 16 17
1970.0 14 15 11 16 11 8 11 11 16 15
2010.0 9 8 10 12 14 14 10 12 6 14
2050.0 13 13 16 19 20 24 30 24 30 34
2090.0 33 36 43 46 52 61 63 68 75 69
2130.0 68 62 56 43 38 28 28 25 22 15
2170.0 21 20 21 21 27 26 27 26 25 24
2210.0 20 19 16 14 14 14 13 13 14 7
2250.0 7 8 8 8 10 7 6 6 8 7
2290.0 6 6 5 6 6 6 1 5 8 5
2330.0 9 6 11 11 11 10 6 10 22 6
2370.0 17 13 14 11 9 11 12 13 19 18
2410.0 13 18 19 19 15 12 9 6 2 7
2450.0 2 1 2 2 7 2 4 3 3 7
2490.0 4 6 7 8 7 7 13 13 13 13
2530.0 13 20 20 12 20 20 13 14 13 8
2570.0 9 8 8 14 13 15 14 14 17 15
2610.0 14 14 21 21 26 26 26 26 32 32
2650.0 32 32 32 34 33 32 26 32 32 32
2690.0 39 40 38 39 41 44 44 45 49 50
2730.0 56 56 57 61 75 74 75 84 92 101
2770.0 112 130 148 165 194 224 247 284 316 362
2810.0 393 425 462 490 518 525 543 566 590 638
2850.0 686 754 817 890 951 1023 1077 1119 1164 1204
2890.0 1246 1304 1357 1430 1519 1615 1732 1858 1993 2112
2930.0 2214 2277 2293 2267 2151 1985 1795 1604 1412 1233
2970.0 1078 957 870 827 741 659 629 615 609 626
3010.0 640 664 680 690 687 678 652 611 560 506
3050.0 441 399 352 312 276 254 225 211 197 185
3090.0 174 156 154 138 127 120 109 102 92 81
3130.0 74 66 68 58 59 52 49 47 42 30
3170.0 30 35 30 25 26 22 27 13 14 15
3210.0 13 15 9 9 9 15 9 11 6 10
3250.0 10 10 10 10 10 10 10 10 15 12
3290.0 6 10 10 14 15 17 22 16 12 28
3330.0 28 35 40 56 74 83 96 108 107 114
3370.0 119 105 98 75 64 40 29 31 33 6
3410.0 12 17 17 8 8 9 15 15 3 9
3450.0 21 9 18 17 15 8 18 16 15 15
3490.0 15 5 16 17 15 10 10 15 19 12
3530.0 21 11 17 18 11 12 13 6 6 15
3570.0 16 16 15 13 11 13 8 14 8 14
3610.0 14 8 8 5 7 7 8 20 10 10
3650.0 10 9 9 9 8 11 14 11 11 11
3690.0 0 11 6 6 6 5 8 12 12 10
3730.0 9 5 7 8 6 3 2 9 14 15
3770.0 15 8 10 9 16 17 9 18 10 11
3810.0 12 5 6 1 1 6 7 9 13 3
3850.0 5 7 19 9 9 9 9 16 21 21
3890.0 21 21 21 23 21 21 22 22 24 24
3930.0 17 18 12 12 12 14 17 19 19 20
##END=
