##TITLE=Bicyclo[3.1.1]hept-2-ene-2-ethanol, 6,6-dimethyl-
##JCAMP-DX=4.24
##DATA TYPE=INFRARED SPECTRUM
##ORIGIN=Sadtler Research Labs Under US-EPA Contract
##OWNER=NIST Standard Reference Data Program
##CAS REGISTRY NO=128-50-7
##MOLFORM=C 11 H 18 O
##XUNITS=1/CM
##YUNITS=ABSORBANCE
##XFACTOR=1.0
##YFACTOR=0.000144281
##DELTAX=4.0
##FIRSTX=450.0
##LASTX=3966.0
##FIRSTY=0.011110
##MAXX=3966
##MINX=450
##MAXY=1.44281
##MINY=0
##NPOINTS=880
##XYDATA=(X++(Y..Y))
450.0 77 115 96 93 72 33 95 23 53 55
490.0 50 58 41 39 31 34 40 53 54 69
530.0 46 58 37 24 35 27 27 24 29 24
570.0 10 19 29 32 38 59 70 71 63 62
610.0 52 41 49 47 51 39 24 26 30 38
650.0 57 62 68 58 79 80 51 54 60 49
690.0 56 47 44 33 30 24 15 19 12 13
730.0 4 5 8 10 17 32 57 100 123 141
770.0 156 179 243 341 474 574 601 533 422 301
810.0 199 133 95 70 61 70 82 82 82 85
850.0 108 123 163 187 180 160 157 170 206 250
890.0 250 224 182 149 139 136 134 145 160 178
930.0 196 212 244 279 344 419 457 447 393 299
970.0 228 199 196 209 241 291 367 462 571 666
1010.0 755 829 937 1114 1399 1802 2214 2513 2661 2669
1050.0 2607 2573 2473 2166 1721 1240 857 643 544 482
1090.0 442 420 408 404 400 389 394 413 426 416
1130.0 383 338 297 275 266 259 258 269 289 311
1170.0 347 401 467 512 521 502 482 491 536 578
1210.0 601 618 610 569 497 406 329 282 266 269
1250.0 286 313 351 386 406 393 364 325 298 282
1290.0 281 288 303 323 349 373 381 391 401 418
1330.0 438 460 486 512 528 518 500 505 594 735
1370.0 926 1025 1114 1258 1333 1324 1150 881 643 481
1410.0 383 343 335 375 437 550 659 732 738 699
1450.0 635 594 583 600 657 743 786 756 621 457
1490.0 297 184 126 91 87 68 63 60 57 55
1530.0 45 50 41 46 35 46 36 46 44 41
1570.0 46 52 56 60 61 58 54 55 51 50
1610.0 48 52 50 51 44 51 52 62 70 85
1650.0 90 100 75 65 47 37 34 30 25 31
1690.0 27 28 32 29 26 29 31 27 29 27
1730.0 27 29 31 28 33 34 30 30 27 26
1770.0 21 19 12 15 9 15 10 10 9 8
1810.0 7 7 11 7 13 9 13 7 12 10
1850.0 12 10 10 7 8 7 6 8 8 9
1890.0 9 10 12 14 16 14 16 18 16 13
1930.0 13 11 8 8 5 7 4 3 5 5
1970.0 4 6 5 5 4 4 5 5 6 8
2010.0 9 9 9 8 10 13 15 18 18 21
2050.0 22 25 25 23 24 23 18 17 20 18
2090.0 19 17 18 17 15 13 14 11 9 8
2130.0 8 5 5 6 6 8 7 4 4 4
2170.0 3 2 2 0 1 0 2 4 4 6
2210.0 6 7 7 9 7 7 5 1 4 5
2250.0 5 6 6 5 6 7 7 8 9 14
2290.0 13 19 21 24 29 36 35 41 45 45
2330.0 47 38 35 42 33 37 53 42 44 35
2370.0 26 21 21 20 14 14 8 11 10 9
2410.0 11 11 12 14 13 13 15 12 13 13
2450.0 12 11 15 12 13 15 15 18 17 17
2490.0 17 19 21 21 22 23 24 26 28 25
2530.0 28 28 26 23 21 24 26 27 26 28
2570.0 26 30 28 29 27 26 27 24 25 26
2610.0 26 29 33 37 40 46 49 50 49 52
2650.0 58 70 79 81 78 70 67 59 58 54
2690.0 56 57 60 60 67 72 82 97 116 133
2730.0 145 148 147 140 133 131 133 144 158 168
2770.0 169 167 161 159 162 169 178 195 213 234
2810.0 259 288 329 381 467 626 903 1314 1748 2010
2850.0 1986 1750 1517 1444 1619 2036 2618 3213 3726 4242
2890.0 4670 5048 5072 4708 4396 4242 4851 6713 9050 9716
2930.0 10000 8151 6643 5946 5633 5354 5046 4576 4009 3422
2970.0 2961 2679 2576 2593 2854 3386 3832 3781 3063 2006
3010.0 1174 734 623 684 839 958 968 845 636 436
3050.0 306 233 185 157 139 130 122 123 120 114
3090.0 110 110 108 101 99 95 98 91 91 88
3130.0 84 82 81 77 75 73 67 61 58 50
3170.0 45 41 35 29 26 22 22 21 17 16
3210.0 20 24 24 29 30 29 22 21 15 13
3250.0 9 6 3 3 5 6 6 10 8 9
3290.0 13 12 12 11 12 10 14 16 13 14
3330.0 12 14 6 9 8 11 6 5 8 5
3370.0 10 7 8 10 9 12 9 8 7 8
3410.0 6 10 7 8 6 3 4 2 5 5
3450.0 6 6 10 8 11 12 10 10 14 14
3490.0 8 11 8 7 7 5 8 10 12 13
3530.0 19 19 22 19 20 19 14 10 17 10
3570.0 20 19 21 28 40 66 104 158 199 224
3610.0 250 269 287 279 268 235 207 204 191 206
3650.0 240 294 362 394 431 426 397 312 221 147
3690.0 92 66 44 43 40 28 31 26 26 26
3730.0 29 33 23 37 26 29 22 12 13 18
3770.0 16 14 12 13 6 11 18 9 25 18
3810.0 23 26 25 29 23 26 32 29 31 33
3850.0 24 33 29 22 25 31 30 26 37 37
3890.0 31 22 22 30 25 20 23 32 26 23
3930.0 25 23 30 27 12 18 29 21 23 25
##END=
