##TITLE=Benzene, 2,4-dichloro-1-(trichloromethyl)-
##JCAMP-DX=4.24
##DATA TYPE=INFRARED SPECTRUM
##ORIGIN=Sadtler Research Labs Under US-EPA Contract
##OWNER=NIST Standard Reference Data Program
##CAS REGISTRY NO=13014-18-1
##MOLFORM=C 7 H 3 Cl 5
##XUNITS=1/CM
##YUNITS=ABSORBANCE
##XFACTOR=1.0
##YFACTOR=0.000071103
##DELTAX=4.0
##FIRSTX=450.0
##LASTX=3966.0
##FIRSTY=0.026308
##MAXX=3966
##MINX=450
##MAXY=0.71103
##MINY=0
##NPOINTS=880
##XYDATA=(X++(Y..Y))
450.0 370 181 241 481 671 502 465 298 512 683
490.0 1081 1176 928 487 150 105 54 125 235 396
530.0 330 208 94 56 85 74 130 150 374 636
570.0 1049 1265 1153 622 162 31 34 25 17 41
610.0 0 21 16 22 45 85 202 300 351 215
650.0 134 141 154 203 254 512 683 726 696 867
690.0 1324 1887 2455 2051 1345 749 403 311 334 485
730.0 798 1226 1525 1566 1533 1903 2708 3869 5185 6736
770.0 8552 10000 9232 7263 5621 4201 3794 4464 5883 6418
810.0 5568 3982 2784 2341 1589 1058 733 607 577 616
850.0 837 1254 1729 2176 2932 4161 5384 5734 5278 3999
890.0 2307 1148 691 548 539 561 594 662 718 675
930.0 498 319 201 160 127 112 106 87 80 65
970.0 65 42 49 37 41 33 39 53 60 69
1010.0 75 112 136 189 287 557 804 833 741 782
1050.0 1188 1766 2009 1676 1033 591 384 276 253 319
1090.0 514 753 1026 1345 1693 2401 3186 3164 2227 1242
1130.0 947 984 1045 1132 1257 1384 1375 1219 946 690
1170.0 649 1015 1737 2424 2564 1975 1339 935 576 372
1210.0 329 347 415 390 355 315 302 292 283 298
1250.0 333 405 546 733 778 637 415 282 205 142
1290.0 118 117 138 142 146 123 128 149 194 221
1330.0 204 176 127 126 126 152 181 266 449 848
1370.0 1482 2171 2539 2268 1679 1133 795 583 494 450
1410.0 387 371 376 502 570 756 978 1204 1309 1308
1450.0 1414 1665 2395 3329 4344 4750 3947 2738 1518 671
1490.0 430 328 303 228 197 245 248 309 223 294
1530.0 245 319 384 575 774 990 1374 1599 1750 1583
1570.0 1392 1406 1959 3189 3899 4099 2848 1700 822 399
1610.0 248 180 155 130 90 112 85 119 100 133
1650.0 115 136 131 106 86 53 63 32 32 30
1690.0 26 23 22 38 33 46 45 55 64 78
1730.0 89 109 136 149 151 136 130 128 156 179
1770.0 219 250 227 176 104 66 46 42 30 33
1810.0 28 28 31 35 36 31 30 23 19 11
1850.0 13 10 8 9 4 11 18 28 39 56
1890.0 94 145 178 173 120 65 33 17 19 19
1930.0 24 24 25 18 17 12 10 12 8 9
1970.0 3 6 8 7 12 5 8 6 10 6
2010.0 5 5 3 8 6 12 10 12 12 16
2050.0 16 20 22 21 13 8 7 2 1 0
2090.0 5 4 5 5 6 9 9 7 5 6
2130.0 6 8 6 8 9 4 10 5 4 1
2170.0 1 0 3 2 3 4 2 7 6 8
2210.0 6 8 6 7 11 14 23 28 34 27
2250.0 18 15 11 9 9 11 7 10 9 9
2290.0 5 8 4 4 3 1 10 8 12 9
2330.0 18 8 5 5 6 9 0 5 16 29
2370.0 17 19 26 22 19 19 23 22 22 23
2410.0 21 20 21 16 20 17 17 24 27 29
2450.0 26 27 25 25 20 23 20 22 23 24
2490.0 28 28 34 36 38 38 38 45 40 39
2530.0 42 43 42 34 28 25 17 21 20 18
2570.0 19 18 23 18 21 15 17 20 20 23
2610.0 25 31 34 34 36 39 40 45 48 47
2650.0 47 41 37 33 25 25 28 26 24 23
2690.0 24 28 22 26 28 29 25 23 23 24
2730.0 19 12 16 13 11 14 16 14 20 23
2770.0 26 26 28 29 32 33 34 36 39 34
2810.0 36 32 29 28 27 29 29 31 27 31
2850.0 26 29 23 21 20 16 15 10 12 16
2890.0 10 15 11 13 15 13 15 10 8 16
2930.0 18 14 17 26 25 21 27 27 33 32
2970.0 31 35 34 35 28 28 28 28 31 31
3010.0 28 37 39 39 43 50 50 44 45 34
3050.0 34 36 36 38 43 63 78 103 125 131
3090.0 124 102 82 77 105 148 162 141 86 49
3130.0 34 26 25 22 17 18 18 12 6 2
3170.0 5 8 12 14 11 15 16 11 18 19
3210.0 17 19 17 19 19 20 17 18 16 26
3250.0 20 19 22 11 10 20 18 17 13 13
3290.0 15 17 16 12 12 14 14 19 13 17
3330.0 9 11 13 17 15 10 16 15 12 8
3370.0 8 6 12 14 18 12 13 11 6 12
3410.0 17 9 11 14 9 7 18 10 16 4
3450.0 12 8 13 12 16 10 9 10 11 11
3490.0 17 14 8 5 9 14 16 6 11 2
3530.0 1 9 14 6 4 11 16 29 33 45
3570.0 55 59 58 52 41 38 25 12 19 12
3610.0 25 22 19 18 6 28 30 15 16 12
3650.0 28 17 18 23 2 17 12 28 22 11
3690.0 27 19 12 7 7 17 30 14 7 10
3730.0 17 26 25 17 39 30 43 21 16 23
3770.0 25 42 29 33 17 31 13 16 11 20
3810.0 5 18 6 38 30 21 12 40 19 27
3850.0 25 49 28 21 23 18 12 22 24 25
3890.0 20 29 10 33 14 28 28 22 13 13
3930.0 28 20 25 11 16 20 32 25 34 25
##END=
