##TITLE=9-Decen-1-ol
##JCAMP-DX=4.24
##DATA TYPE=INFRARED SPECTRUM
##ORIGIN=Sadtler Research Labs Under US-EPA Contract
##OWNER=NIST Standard Reference Data Program
##CAS REGISTRY NO=13019-22-2
##MOLFORM=C 10 H 20 O
##XUNITS=1/CM
##YUNITS=ABSORBANCE
##XFACTOR=1.0
##YFACTOR=0.000175504
##DELTAX=4.0
##FIRSTX=450.0
##LASTX=3966.0
##FIRSTY=0.000000
##MAXX=3966
##MINX=450
##MAXY=1.75504
##MINY=0
##NPOINTS=880
##XYDATA=(X++(Y..Y))
450.0 0 192 250 272 228 276 270 266 226 281
490.0 262 251 240 257 276 249 284 261 284 265
530.0 280 259 254 283 272 294 268 289 258 274
570.0 241 245 261 232 271 276 277 262 282 260
610.0 303 304 335 342 357 394 415 406 356 343
650.0 316 296 284 275 284 291 284 259 279 273
690.0 272 282 289 299 304 336 343 379 386 376
730.0 357 346 327 317 308 305 297 286 287 278
770.0 279 283 283 274 274 275 272 276 280 285
810.0 291 289 290 313 310 306 319 317 335 340
850.0 352 370 361 383 400 424 443 469 488 524
890.0 559 622 720 883 1164 1514 1699 1527 1168 892
930.0 764 686 660 645 642 644 648 662 669 685
970.0 699 725 768 845 968 1104 1195 1200 1160 1119
1010.0 1128 1155 1211 1301 1406 1528 1650 1767 1855 1927
1050.0 1962 1968 1896 1777 1610 1444 1304 1169 1047 927
1090.0 824 724 653 592 549 518 488 471 452 441
1130.0 430 426 418 411 411 410 412 409 417 416
1170.0 421 427 432 436 438 448 455 463 472 483
1210.0 490 498 505 508 510 514 517 516 522 520
1250.0 520 518 520 519 522 526 524 527 524 528
1290.0 530 531 533 531 528 519 512 503 498 495
1330.0 502 510 532 566 602 645 663 656 644 635
1370.0 649 674 702 726 754 755 725 662 595 546
1410.0 519 506 506 497 495 508 556 635 737 814
1450.0 876 912 947 937 873 773 678 593 508 429
1490.0 365 317 293 276 261 261 249 245 241 236
1530.0 235 236 236 235 238 231 233 223 225 221
1570.0 221 217 220 217 214 222 220 224 228 235
1610.0 244 258 273 290 321 372 460 607 727 737
1650.0 587 418 325 278 252 243 226 224 216 215
1690.0 206 205 204 203 202 199 201 200 200 197
1730.0 202 203 201 197 196 203 201 199 197 199
1770.0 195 199 196 199 198 202 199 202 207 209
1810.0 214 228 243 272 301 312 303 271 247 231
1850.0 218 209 206 202 200 200 197 195 196 195
1890.0 196 194 194 194 191 194 193 193 192 193
1930.0 191 192 193 193 196 196 198 198 202 201
1970.0 204 208 206 208 206 205 204 201 200 201
2010.0 201 205 207 204 209 208 210 213 214 215
2050.0 212 210 207 209 210 211 209 209 207 206
2090.0 203 198 198 198 199 197 196 195 194 192
2130.0 192 192 194 191 192 192 192 191 191 192
2170.0 191 192 195 192 191 194 195 193 192 193
2210.0 193 192 192 193 192 193 194 193 192 192
2250.0 194 196 197 195 196 198 198 199 200 201
2290.0 200 204 205 206 205 205 208 210 210 203
2330.0 207 206 202 205 207 205 204 202 209 214
2370.0 209 208 209 208 204 205 202 200 201 200
2410.0 199 199 200 196 198 197 199 199 201 198
2450.0 200 200 199 200 201 202 199 199 201 201
2490.0 198 198 200 201 202 203 204 208 212 212
2530.0 212 216 219 219 220 217 218 221 223 222
2570.0 222 224 227 224 225 229 227 230 231 235
2610.0 235 234 236 245 248 254 254 256 262 265
2650.0 269 269 273 279 288 296 298 303 304 308
2690.0 306 307 306 304 303 302 302 306 309 310
2730.0 316 318 323 330 337 340 346 351 356 365
2770.0 370 375 377 385 400 413 427 442 456 469
2810.0 491 514 540 578 634 692 782 896 1086 1382
2850.0 1815 2423 3157 3854 4228 4127 3743 3318 2963 2667
2890.0 2491 2444 2542 2795 3160 3631 4205 4992 6063 7491
2930.0 8894 10000 9904 8860 7300 5622 4213 3193 2544 2129
2970.0 1832 1602 1431 1319 1229 1127 1013 922 887 871
3010.0 831 749 653 579 524 483 458 433 416 406
3050.0 402 407 422 450 490 540 613 699 851 1003
3090.0 990 803 567 428 352 309 295 275 265 255
3130.0 254 246 238 236 229 226 223 226 223 224
3170.0 223 222 220 220 216 215 211 208 203 203
3210.0 203 205 201 199 197 195 199 196 200 198
3250.0 199 202 199 194 197 191 193 195 196 198
3290.0 194 198 201 201 200 202 201 204 195 199
3330.0 197 199 204 202 201 199 201 201 202 206
3370.0 203 202 202 203 204 202 205 201 206 200
3410.0 204 198 203 202 204 202 205 203 204 203
3450.0 208 209 205 202 204 206 203 204 210 205
3490.0 197 204 209 214 207 199 200 199 201 203
3530.0 195 195 192 194 195 193 197 198 206 200
3570.0 192 197 197 202 193 204 193 201 217 214
3610.0 214 220 224 233 228 241 260 276 299 330
3650.0 393 479 560 608 653 672 689 635 532 417
3690.0 343 313 280 261 253 231 224 221 215 219
3730.0 225 217 209 208 201 213 204 217 215 208
3770.0 220 205 205 209 220 206 199 216 225 211
3810.0 220 214 215 217 226 209 217 230 223 230
3850.0 226 227 237 213 216 213 217 238 239 220
3890.0 238 224 232 239 205 224 206 217 220 207
3930.0 228 218 210 221 238 226 204 209 200 195
##END=
