##TITLE=Benzene, 1,2-dichloro-4-(trichloromethyl)-
##JCAMP-DX=4.24
##DATA TYPE=INFRARED SPECTRUM
##ORIGIN=Sadtler Research Labs Under US-EPA Contract
##OWNER=NIST Standard Reference Data Program
##CAS REGISTRY NO=13014-24-9
##MOLFORM=C 7 H 3 Cl 5
##XUNITS=1/CM
##YUNITS=ABSORBANCE
##XFACTOR=1.0
##YFACTOR=0.000066452
##DELTAX=4.0
##FIRSTX=450.0
##LASTX=3966.0
##FIRSTY=0.004186
##MAXX=3966
##MINX=450
##MAXY=0.66452
##MINY=0
##NPOINTS=880
##XYDATA=(X++(Y..Y))
450.0 63 85 85 79 76 78 64 45 46 32
490.0 64 111 164 201 314 451 743 1373 2505 2869
530.0 1986 719 111 5 24 48 61 27 139 147
570.0 121 107 91 100 95 106 94 78 77 81
610.0 62 64 64 73 91 117 102 103 94 101
650.0 138 169 219 333 617 1345 1666 1566 975 563
690.0 477 503 533 446 380 345 426 611 1003 1767
730.0 3064 4048 4035 3104 2627 3133 4543 6764 9162 10000
770.0 8295 5999 3860 2466 1801 1538 1587 1892 2712 3851
810.0 4690 4693 4022 3159 2411 1891 1518 1147 825 560
850.0 379 283 253 250 277 294 319 350 380 403
890.0 418 434 503 646 810 1029 1393 1891 2301 2301
930.0 1740 953 418 275 248 239 227 190 168 141
970.0 113 96 80 78 72 64 71 71 71 87
1010.0 111 174 300 594 1254 2523 3358 2902 1485 660
1050.0 442 415 419 344 230 152 117 118 125 135
1090.0 149 150 150 157 172 219 290 366 492 714
1130.0 1089 1593 2001 1871 1320 971 1134 1238 961 493
1170.0 369 541 932 1762 3333 5070 5393 3844 2074 1044
1210.0 535 342 284 254 223 195 184 175 180 201
1250.0 238 286 348 410 455 452 381 272 210 166
1290.0 133 131 138 136 140 151 144 127 123 131
1330.0 141 147 153 181 222 245 259 339 541 959
1370.0 1555 2151 2399 2261 1826 1384 1075 840 591 406
1410.0 289 222 188 182 167 164 164 200 310 533
1450.0 937 1516 2221 2552 2301 2147 3143 3810 2901 1050
1490.0 311 183 133 101 96 62 90 112 130 186
1530.0 181 162 135 114 167 258 381 500 512 440
1570.0 302 230 236 295 368 396 375 301 222 147
1610.0 104 81 51 58 36 46 58 58 85 98
1650.0 89 85 84 68 54 50 42 33 28 17
1690.0 30 33 12 22 41 56 58 46 45 46
1730.0 32 23 21 25 25 31 52 83 138 202
1770.0 270 281 245 173 121 77 53 44 41 56
1810.0 55 54 57 45 39 33 36 43 35 26
1850.0 32 36 27 19 16 13 20 28 41 60
1890.0 80 106 135 131 109 72 47 31 23 26
1930.0 18 15 20 8 9 12 12 10 11 10
1970.0 11 11 10 11 13 15 16 17 18 18
2010.0 18 8 9 9 9 9 11 9 9 10
2050.0 10 14 14 16 16 17 16 17 16 24
2090.0 23 26 33 41 48 65 67 68 54 32
2130.0 24 24 14 14 16 16 16 16 7 7
2170.0 7 8 8 15 14 15 14 14 13 8
2210.0 10 11 8 5 9 7 7 6 7 7
2250.0 7 5 9 8 4 9 8 12 11 17
2290.0 21 22 26 26 29 34 37 33 34 40
2330.0 29 29 29 43 46 50 38 34 33 34
2370.0 42 61 71 64 59 47 38 30 30 29
2410.0 23 22 21 16 16 16 16 15 15 15
2450.0 15 15 23 22 22 22 21 16 16 16
2490.0 21 20 23 23 23 24 38 37 46 47
2530.0 52 52 57 54 46 38 30 24 24 15
2570.0 15 15 10 15 16 12 18 9 9 10
2610.0 15 16 16 16 16 24 16 16 24 24
2650.0 24 24 16 16 16 16 10 9 9 9
2690.0 9 17 17 16 16 18 17 19 17 24
2730.0 31 31 24 32 32 34 39 39 40 44
2770.0 46 54 62 61 54 39 32 33 24 22
2810.0 18 18 22 25 19 17 26 26 26 26
2850.0 17 19 22 23 14 11 12 9 10 9
2890.0 11 10 10 10 11 11 11 11 15 9
2930.0 13 11 13 18 18 12 18 19 20 24
2970.0 19 18 18 13 19 19 11 18 12 10
3010.0 13 12 20 23 28 27 26 26 20 20
3050.0 26 19 12 19 27 37 68 106 133 142
3090.0 112 84 56 49 49 41 42 34 25 36
3130.0 26 18 23 16 18 25 21 27 12 12
3170.0 20 13 20 12 12 9 10 12 12 12
3210.0 12 13 12 13 11 13 12 21 12 17
3250.0 12 17 20 6 13 13 20 6 20 14
3290.0 12 9 13 13 22 13 7 14 7 6
3330.0 13 13 14 15 21 15 17 13 12 10
3370.0 24 6 14 7 7 13 23 15 22 13
3410.0 14 5 20 12 9 7 13 21 6 20
3450.0 13 7 7 2 20 15 5 15 15 6
3490.0 6 7 8 13 22 23 19 17 13 6
3530.0 16 23 13 22 14 23 12 8 28 18
3570.0 22 30 25 8 30 29 21 23 22 22
3610.0 20 8 14 9 12 14 18 21 17 8
3650.0 8 9 16 20 20 22 32 27 23 7
3690.0 17 19 10 9 15 15 22 9 15 9
3730.0 9 13 9 19 10 9 2 15 16 37
3770.0 24 31 23 26 24 16 16 8 9 15
3810.0 8 15 16 10 8 8 10 10 11 5
3850.0 9 10 9 10 2 3 9 9 9 9
3890.0 7 1 6 3 3 2 0 1 2 0
3930.0 2 2 2 1 3 0 0 2 10 10
##END=
