##TITLE=o-Cresol, 6-nitro-,
##JCAMP-DX=4.24
##DATA TYPE=INFRARED SPECTRUM
##ORIGIN=Sadtler Research Labs Under US-EPA Contract
##OWNER=NIST Standard Reference Data Program
##CAS REGISTRY NO=13073-29-5
##MOLFORM=C 7 H 7 N O 3
##XUNITS=1/CM
##YUNITS=ABSORBANCE
##XFACTOR=1.0
##YFACTOR=0.000093085
##DELTAX=4.0
##FIRSTX=450.0
##LASTX=3966.0
##FIRSTY=0.010332
##MAXX=3966
##MINX=450
##MAXY=0.93085
##MINY=0
##NPOINTS=880
##XYDATA=(X++(Y..Y))
450.0 111 106 293 346 474 315 332 222 288 275
490.0 290 323 261 302 259 293 254 330 306 311
530.0 319 298 314 258 323 302 333 303 335 422
570.0 464 614 702 671 639 559 447 393 341 324
610.0 335 350 434 581 785 871 955 969 867 742
650.0 725 761 800 879 913 1080 1163 1302 1398 1548
690.0 1706 1750 1869 1851 1893 1660 1554 1352 1273 1503
730.0 2227 2952 3324 6255 5016 3253 2939 1835 956 544
770.0 413 469 590 988 1273 1472 1637 1508 1105 741
810.0 525 368 288 244 298 408 697 1002 1075 1055
850.0 1056 730 363 205 79 44 6 33 35 75
890.0 153 269 479 782 1085 1226 1219 1063 747 355
930.0 170 116 87 97 95 108 105 121 133 149
970.0 172 205 257 314 415 533 644 712 735 679
1010.0 557 436 298 192 109 98 85 100 127 153
1050.0 179 217 297 419 639 942 1293 1536 1593 1662
1090.0 1662 1501 1329 1190 1077 938 737 586 490 455
1130.0 454 493 601 783 1138 1588 1941 2187 2320 2145
1170.0 1822 1502 1157 921 787 778 916 1166 1428 1680
1210.0 1955 2198 2420 2592 2708 3010 3531 4570 6227 7927
1250.0 8724 9040 8698 7416 6482 6226 6416 6405 6237 5831
1290.0 4986 3999 3413 3280 3634 4388 5185 5902 6428 6814
1330.0 6916 7294 7899 8479 8829 8518 7931 6644 5447 4214
1370.0 3478 3052 2907 2859 2714 2581 2414 2176 1900 1734
1410.0 1571 1520 1393 1566 1746 2192 2770 3443 4131 4651
1450.0 5315 5756 6425 7421 7955 8036 6939 5666 3992 2557
1490.0 1778 1296 1194 1004 962 969 1077 1280 1535 2391
1530.0 3231 4638 6297 8045 9478 10000 8743 8203 5213 3779
1570.0 2263 1881 1541 1424 1600 1844 2388 3308 4434 5884
1610.0 6858 6694 5788 4544 3568 1875 1160 648 543 487
1650.0 423 437 414 391 295 254 166 194 149 111
1690.0 169 204 194 213 264 283 241 152 156 162
1730.0 102 58 71 84 42 24 53 38 43 44
1770.0 31 4 56 43 74 58 80 89 83 129
1810.0 133 143 162 159 136 117 104 100 51 35
1850.0 56 73 88 117 140 153 191 183 154 113
1890.0 68 49 45 53 60 83 96 120 125 136
1930.0 132 108 87 44 38 38 37 34 32 20
1970.0 21 24 20 22 17 3 5 7 9 7
2010.0 12 6 6 5 17 14 18 15 16 21
2050.0 20 22 24 26 23 40 40 45 43 43
2090.0 42 40 38 30 25 18 14 9 7 11
2130.0 8 6 9 15 13 17 24 29 28 32
2170.0 31 28 27 23 21 14 11 6 5 5
2210.0 3 9 14 21 26 37 43 48 52 50
2250.0 52 49 51 48 47 45 46 46 47 47
2290.0 55 53 60 65 66 72 77 82 82 77
2330.0 69 67 56 63 51 48 24 33 40 46
2370.0 51 63 57 62 62 58 57 59 55 55
2410.0 53 52 52 51 60 66 79 89 103 119
2450.0 128 133 133 132 127 129 123 118 116 115
2490.0 116 112 117 120 121 116 112 105 96 89
2530.0 84 82 84 88 90 99 100 109 112 112
2570.0 110 107 106 100 103 107 119 121 121 125
2610.0 127 124 121 126 122 122 117 117 110 105
2650.0 103 103 103 105 110 109 113 118 125 135
2690.0 146 153 154 159 156 157 151 151 143 139
2730.0 133 135 143 154 181 197 197 196 186 171
2770.0 155 158 157 162 169 180 183 190 199 208
2810.0 216 226 236 247 253 263 266 274 292 304
2850.0 331 358 398 445 487 524 546 543 533 523
2890.0 518 511 505 504 510 523 557 609 702 839
2930.0 998 1173 1287 1301 1220 1081 902 752 682 699
2970.0 760 748 744 778 782 766 716 662 571 502
3010.0 461 443 443 477 541 651 765 836 855 807
3050.0 717 625 570 559 560 567 581 626 665 694
3090.0 706 697 677 608 514 437 376 334 307 311
3130.0 331 355 379 408 441 479 523 564 619 676
3170.0 749 826 923 1024 1135 1252 1368 1486 1597 1701
3210.0 1794 1863 1928 1970 1990 2002 1993 1969 1943 1922
3250.0 1886 1857 1808 1758 1697 1636 1591 1535 1491 1438
3290.0 1405 1373 1343 1311 1295 1273 1234 1218 1175 1151
3330.0 1113 1073 1043 1000 969 928 895 853 833 790
3370.0 765 732 708 687 656 649 623 607 589 571
3410.0 560 546 535 525 512 494 487 473 463 459
3450.0 441 433 427 412 399 397 377 367 363 353
3490.0 337 332 318 313 318 295 293 280 280 277
3530.0 263 244 238 229 230 220 213 203 183 195
3570.0 181 173 154 159 155 142 135 107 118 91
3610.0 105 83 97 87 60 86 63 50 65 46
3650.0 81 50 50 44 25 47 23 77 10 26
3690.0 25 21 2 18 14 2 29 11 3 9
3730.0 6 12 2 9 13 9 38 2 2 2
3770.0 2 6 2 5 2 2 2 2 3 10
3810.0 4 2 2 21 2 2 7 15 1 3
3850.0 0 36 24 9 7 10 20 2 32 13
3890.0 13 14 4 35 16 3 2 11 16 12
3930.0 3 5 13 13 24 23 11 2 2 2
##END=
