##TITLE=4-Chloro-2-cyclohexylphenol
##JCAMP-DX=4.24
##DATA TYPE=INFRARED SPECTRUM
##ORIGIN=Sadtler Research Labs Under US-EPA Contract
##OWNER=NIST Standard Reference Data Program
##CAS REGISTRY NO=13081-17-9
##MOLFORM=C 12 H 15 Cl O
##XUNITS=1/CM
##YUNITS=ABSORBANCE
##XFACTOR=1.0
##YFACTOR=0.000095627
##DELTAX=4.0
##FIRSTX=450.0
##LASTX=3966.0
##FIRSTY=0.005068
##MAXX=3966
##MINX=450
##MAXY=0.95627
##MINY=0
##NPOINTS=880
##XYDATA=(X++(Y..Y))
450.0 53 100 196 151 251 408 465 372 314 224
490.0 170 147 134 158 152 176 229 319 284 270
530.0 167 54 57 24 46 35 34 46 113 148
570.0 231 229 184 116 52 52 21 49 25 34
610.0 31 50 90 216 288 250 177 130 256 604
650.0 1434 1661 1473 703 207 146 191 304 299 202
690.0 91 54 66 57 42 24 24 10 30 36
730.0 57 43 57 80 103 121 110 79 64 86
770.0 177 285 310 263 201 308 561 903 1186 1167
810.0 1065 942 765 502 310 186 106 102 102 113
850.0 107 128 162 263 433 613 708 695 607 484
890.0 345 254 223 281 421 485 417 253 137 85
930.0 57 45 26 27 23 29 23 26 39 47
970.0 35 27 38 47 78 125 200 283 348 350
1010.0 289 235 192 203 222 225 199 155 123 111
1050.0 116 108 135 156 204 233 276 325 371 439
1090.0 524 716 1028 1465 1890 2013 1785 1336 888 724
1130.0 812 940 934 866 880 1156 1736 2332 2519 2170
1170.0 1572 1196 1163 1333 1648 1972 2159 2143 1914 1626
1210.0 1307 1036 822 744 802 930 1081 1234 1533 1883
1250.0 2025 1825 1496 1464 1610 1519 1124 748 536 447
1290.0 467 564 726 938 1212 1484 1608 1476 1131 774
1330.0 528 388 348 355 364 423 409 381 339 346
1370.0 320 334 288 285 268 335 379 472 594 806
1410.0 1072 1224 1221 950 673 543 562 629 738 946
1450.0 1227 1404 1387 1316 1262 1511 1901 2522 3123 3659
1490.0 3577 3229 2644 1983 1385 811 492 296 272 194
1530.0 200 161 184 148 151 118 121 108 141 119
1570.0 152 154 220 213 236 252 277 293 297 271
1610.0 223 185 164 134 136 106 136 106 104 102
1650.0 115 115 152 89 116 127 112 105 100 78
1690.0 48 17 20 39 36 42 70 88 80 84
1730.0 101 122 115 114 116 98 134 89 107 78
1770.0 111 60 74 63 87 59 83 64 75 73
1810.0 60 65 66 82 72 105 99 127 100 115
1850.0 75 69 65 79 84 95 102 72 67 38
1890.0 49 35 46 41 34 39 32 45 37 31
1930.0 36 30 41 32 41 26 36 29 39 31
1970.0 37 30 28 28 24 28 27 31 23 31
2010.0 25 32 29 38 34 33 32 28 29 30
2050.0 30 31 29 30 24 25 19 23 19 20
2090.0 16 23 17 19 16 15 16 18 17 13
2130.0 15 14 17 12 14 14 14 15 12 14
2170.0 14 13 10 14 11 12 10 10 11 14
2210.0 16 16 17 16 22 21 28 28 28 28
2250.0 28 26 27 29 25 25 27 30 27 31
2290.0 34 40 45 42 47 49 49 42 47 40
2330.0 35 31 28 31 51 50 41 42 36 33
2370.0 31 36 41 43 47 38 37 39 41 38
2410.0 41 38 36 37 34 39 38 39 37 38
2450.0 34 36 38 38 38 42 49 48 55 51
2490.0 56 56 51 52 50 47 50 50 43 46
2530.0 42 35 33 31 31 31 36 34 37 45
2570.0 47 46 51 55 57 55 58 62 57 59
2610.0 57 57 59 65 64 60 62 66 67 76
2650.0 80 93 106 122 130 124 118 112 104 94
2690.0 85 79 76 76 73 65 61 56 59 55
2730.0 57 60 60 59 59 61 66 68 71 74
2770.0 76 88 101 112 123 135 143 152 160 167
2810.0 168 182 203 221 240 270 321 390 499 673
2850.0 984 1564 2507 3404 3538 2883 1943 1301 964 807
2890.0 745 745 850 1051 1377 1794 2241 2706 3359 4481
2930.0 6321 8498 10000 9706 7320 4686 2619 1457 950 660
2970.0 475 354 269 218 185 165 152 139 141 150
3010.0 169 212 264 311 343 336 291 230 181 155
3050.0 144 135 142 142 152 157 164 173 178 172
3090.0 155 139 123 115 109 98 87 81 72 62
3130.0 54 55 49 56 58 61 66 62 67 69
3170.0 67 63 58 52 51 54 54 55 56 51
3210.0 52 57 55 50 52 51 49 54 58 56
3250.0 55 52 60 61 61 64 63 66 66 64
3290.0 61 66 65 61 70 72 71 69 72 73
3330.0 88 88 89 95 107 111 114 115 114 110
3370.0 113 117 127 126 125 114 114 120 124 123
3410.0 125 122 135 127 140 134 127 126 126 120
3450.0 108 115 112 114 103 111 104 96 108 86
3490.0 91 90 79 101 84 77 86 66 88 79
3530.0 79 69 73 84 89 74 82 59 79 94
3570.0 88 78 53 71 80 85 92 28 80 49
3610.0 112 74 103 118 151 326 488 908 1608 2235
3650.0 2539 2152 1573 895 344 185 47 85 7 49
3690.0 13 36 21 37 28 27 28 37 22 31
3730.0 31 37 13 25 95 14 56 9 10 26
3770.0 10 24 8 34 8 20 13 30 12 46
3810.0 10 34 10 24 14 17 29 32 16 30
3850.0 32 38 36 40 10 42 27 32 9 69
3890.0 0 66 4 95 30 55 15 67 57 9
3930.0 55 18 54 42 73 33 65 13 32 25
##END=
