##TITLE=1,2-Benzenedicarboxylic acid, dipentyl ester
##JCAMP-DX=4.24
##DATA TYPE=INFRARED SPECTRUM
##ORIGIN=Sadtler Research Labs Under US-EPA Contract
##OWNER=NIST Standard Reference Data Program
##CAS REGISTRY NO=131-18-0
##MOLFORM=C 18 H 26 O 4
##XUNITS=1/CM
##YUNITS=ABSORBANCE
##XFACTOR=1.0
##YFACTOR=0.000113608
##DELTAX=4.0
##FIRSTX=450.0
##LASTX=3966.0
##FIRSTY=0.003067
##MAXX=3966
##MINX=450
##MAXY=1.13608
##MINY=0
##NPOINTS=880
##XYDATA=(X++(Y..Y))
450.0 27 67 107 75 148 54 109 37 80 37
490.0 76 97 106 89 63 139 126 151 97 113
530.0 102 111 95 79 112 94 113 116 155 137
570.0 116 114 110 87 74 53 23 27 13 31
610.0 6 5 17 22 57 57 63 47 44 90
650.0 154 148 100 65 59 60 80 78 105 158
690.0 255 364 494 496 513 501 480 465 526 583
730.0 712 887 1084 1237 1177 1013 789 649 534 491
770.0 441 425 407 404 388 316 278 233 194 161
810.0 213 218 247 247 242 216 181 176 159 147
850.0 144 142 137 148 140 127 122 113 126 127
890.0 158 180 220 255 305 332 322 320 310 297
930.0 289 338 413 520 621 697 753 766 757 703
970.0 613 515 444 388 353 330 311 307 306 308
1010.0 309 320 340 379 447 576 814 1115 1316 1315
1050.0 1248 1310 1613 2313 3419 4462 4309 3121 1896 1289
1090.0 1092 1112 1292 1636 2247 3169 4511 5763 6387 6049
1130.0 5369 4683 3800 2845 2032 1530 1217 1060 990 937
1170.0 840 743 653 588 544 512 491 484 499 521
1210.0 575 643 748 898 1119 1451 1909 2561 3298 4145
1250.0 5014 5912 6955 7778 8957 9187 9301 8611 8711 8359
1290.0 7411 5959 4367 3167 2309 1806 1427 1164 975 875
1330.0 827 818 815 820 825 766 696 633 625 640
1370.0 718 791 850 901 956 959 844 623 447 340
1410.0 279 260 232 254 255 302 356 408 504 582
1450.0 690 718 813 941 1050 1087 1003 859 706 590
1490.0 476 379 294 241 193 167 150 133 117 118
1530.0 109 92 96 72 82 80 103 77 120 144
1570.0 209 267 360 377 294 236 231 273 292 268
1610.0 197 148 134 123 131 112 128 105 122 112
1650.0 125 109 147 142 151 179 158 216 203 247
1690.0 283 357 404 521 617 708 860 1058 1422 1836
1730.0 2676 3685 5874 7831 10000 8456 6751 4513 3029 2200
1770.0 1670 1274 961 809 662 620 577 585 569 567
1810.0 518 442 380 300 249 187 178 149 128 105
1850.0 108 122 135 158 151 148 123 113 87 77
1890.0 70 65 66 56 62 52 50 47 49 61
1930.0 79 95 94 78 58 54 45 57 64 68
1970.0 46 31 22 15 17 11 15 11 17 12
2010.0 16 13 16 14 14 17 15 13 9 14
2050.0 13 16 20 23 25 28 34 33 37 36
2090.0 37 35 33 33 28 26 23 22 18 17
2130.0 15 16 14 16 13 11 12 9 7 5
2170.0 6 5 4 5 4 6 5 8 6 6
2210.0 6 8 7 10 9 10 12 12 11 11
2250.0 12 9 10 5 7 7 5 7 8 10
2290.0 8 8 5 4 3 0 0 2 9 8
2330.0 6 4 0 0 0 4 0 0 0 0
2370.0 0 4 11 17 22 23 25 23 24 23
2410.0 23 20 17 16 15 13 10 9 9 8
2450.0 8 8 5 6 1 5 5 4 6 8
2490.0 9 10 11 14 15 16 15 14 13 18
2530.0 13 16 14 16 16 16 18 19 20 21
2570.0 25 26 24 24 24 26 28 30 29 32
2610.0 33 34 35 33 31 31 32 30 33 31
2650.0 34 34 34 33 34 32 29 32 29 33
2690.0 35 38 35 42 44 49 54 57 66 74
2730.0 87 92 93 90 92 90 90 87 86 89
2770.0 92 95 92 92 95 99 103 107 114 120
2810.0 132 144 159 174 192 211 236 274 324 386
2850.0 444 488 528 603 735 935 1217 1522 1743 1788
2890.0 1709 1617 1573 1603 1700 1848 1987 2072 2108 2198
2930.0 2345 2503 2638 2707 2729 2780 3054 3672 4584 5512
2970.0 5733 4776 3435 2459 1832 1388 1064 822 638 497
3010.0 391 314 263 235 221 223 227 226 216 200
3050.0 195 200 222 256 313 414 555 665 637 467
3090.0 284 190 162 151 141 128 114 100 93 85
3130.0 84 82 81 83 88 89 91 89 87 81
3170.0 79 80 78 77 77 74 68 61 62 56
3210.0 52 47 44 40 42 38 38 34 29 34
3250.0 29 29 27 26 23 28 21 25 26 26
3290.0 27 21 23 28 30 30 27 30 30 33
3330.0 33 36 36 37 35 35 33 34 34 28
3370.0 30 27 32 25 28 27 22 26 26 23
3410.0 25 23 24 21 25 31 28 33 27 27
3450.0 31 41 50 59 71 69 63 59 60 45
3490.0 40 30 27 25 6 15 23 12 17 5
3530.0 14 17 15 23 10 14 25 19 44 38
3570.0 79 104 107 99 49 38 14 19 20 17
3610.0 8 11 17 10 22 17 15 29 15 26
3650.0 13 22 40 24 54 14 42 21 45 27
3690.0 27 27 29 26 24 21 25 16 20 26
3730.0 29 21 21 34 3 40 11 29 31 28
3770.0 31 31 36 20 29 28 27 20 40 11
3810.0 52 18 38 25 28 39 35 33 37 32
3850.0 28 35 22 34 34 20 37 40 25 31
3890.0 46 31 44 24 33 43 45 35 49 42
3930.0 49 36 43 44 32 33 30 36 43 40
##END=
