##TITLE=1,2-Benzenedicarboxylic acid, dipropyl ester
##JCAMP-DX=4.24
##DATA TYPE=INFRARED SPECTRUM
##ORIGIN=Sadtler Research Labs Under US-EPA Contract
##OWNER=NIST Standard Reference Data Program
##CAS REGISTRY NO=131-16-8
##MOLFORM=C 14 H 18 O 4
##XUNITS=1/CM
##YUNITS=ABSORBANCE
##XFACTOR=1.0
##YFACTOR=0.000065305
##DELTAX=4.0
##FIRSTX=450.0
##LASTX=3966.0
##FIRSTY=0.003200
##MAXX=3966
##MINX=450
##MAXY=0.65305
##MINY=0
##NPOINTS=880
##XYDATA=(X++(Y..Y))
450.0 49 62 76 74 64 74 54 73 30 42
490.0 57 17 48 66 19 21 25 33 31 19
530.0 58 64 87 41 72 96 96 87 116 130
570.0 106 68 46 28 20 82 46 30 47 52
610.0 37 21 19 34 26 43 53 69 104 161
650.0 207 189 108 69 60 104 105 134 169 258
690.0 374 490 539 520 477 466 478 530 615 725
730.0 900 1114 1286 1295 1168 916 707 578 501 446
770.0 414 397 404 375 372 323 273 235 218 246
810.0 243 265 263 254 217 201 208 185 179 169
850.0 179 175 167 163 177 183 193 214 223 239
890.0 246 263 283 302 328 350 381 405 418 428
930.0 487 622 785 901 879 749 639 591 582 592
970.0 560 476 353 252 195 178 162 164 177 186
1010.0 204 223 258 319 409 565 812 1063 1202 1235
1050.0 1276 1453 1822 2470 3433 4298 4317 3352 2149 1400
1090.0 1126 1117 1301 1704 2404 3485 4798 5879 6168 5716
1130.0 4972 4180 3372 2543 1845 1386 1111 963 876 779
1170.0 708 640 585 681 502 403 342 382 428 483
1210.0 560 654 772 930 1175 1492 1944 2557 3340 4274
1250.0 5262 6238 7254 8427 9515 10000 9872 9433 8639 7716
1290.0 6446 5123 3859 2906 2354 2098 1903 1590 1201 876
1330.0 683 575 498 497 523 514 482 414 393 401
1370.0 452 534 632 715 734 730 658 529 406 322
1410.0 271 260 215 235 238 282 310 388 480 578
1450.0 630 656 683 753 792 764 672 598 554 489
1490.0 423 367 285 239 202 156 160 151 128 142
1530.0 132 149 128 110 111 130 136 125 159 204
1570.0 255 326 395 383 351 295 292 318 338 302
1610.0 240 199 161 166 149 160 137 128 140 141
1650.0 115 145 149 166 168 189 183 228 227 257
1690.0 306 375 425 506 599 722 847 1056 1419 1968
1730.0 2804 4140 6081 8270 9762 9449 7426 5194 3438 2266
1770.0 1520 1061 797 615 499 420 361 316 277 263
1810.0 237 219 219 207 195 183 186 172 145 124
1850.0 125 134 130 129 109 99 98 96 87 79
1890.0 77 70 79 80 77 77 76 81 77 94
1930.0 112 124 122 98 84 82 85 92 95 90
1970.0 84 71 64 58 58 51 53 48 58 57
2010.0 58 56 53 47 56 50 50 56 53 49
2050.0 50 50 55 56 54 64 63 64 65 65
2090.0 63 64 62 57 57 54 43 42 41 41
2130.0 33 33 41 35 39 36 38 34 34 33
2170.0 33 42 48 40 40 40 49 46 40 40
2210.0 40 40 41 40 46 48 39 39 40 40
2250.0 32 39 32 32 32 31 31 31 39 38
2290.0 37 45 51 50 49 49 62 52 66 62
2330.0 53 55 44 37 30 39 60 49 30 23
2370.0 0 7 7 20 30 31 37 38 39 38
2410.0 31 24 30 28 24 20 16 22 15 15
2450.0 8 9 9 9 1 7 7 8 8 8
2490.0 9 9 14 9 16 8 9 15 16 14
2530.0 11 16 17 11 11 14 15 17 23 16
2570.0 17 16 16 14 10 10 10 9 9 9
2610.0 11 10 10 9 10 10 10 3 9 9
2650.0 9 9 9 9 9 9 10 10 17 10
2690.0 9 10 4 6 2 10 10 10 10 25
2730.0 18 26 32 40 48 48 48 47 47 57
2770.0 41 49 49 49 48 49 49 49 49 50
2810.0 60 69 66 78 92 101 115 138 154 162
2850.0 194 225 267 321 378 429 469 539 669 856
2890.0 1000 1047 1007 928 867 814 790 817 886 1012
2930.0 1166 1275 1362 1491 1646 1762 1824 1897 2032 2238
2970.0 2439 2636 2739 2634 2287 1779 1262 906 671 517
3010.0 412 327 277 257 245 240 239 236 218 208
3050.0 185 201 208 240 298 405 530 615 572 435
3090.0 262 170 135 119 110 103 79 73 56 59
3130.0 46 51 50 45 60 59 52 43 51 44
3170.0 37 42 45 36 28 28 29 34 22 30
3210.0 23 21 22 15 15 16 22 19 23 17
3250.0 19 15 14 14 8 8 16 15 24 13
3290.0 10 17 23 14 19 16 7 8 7 15
3330.0 16 16 13 8 5 13 16 8 8 1
3370.0 1 1 9 8 9 24 17 17 2 11
3410.0 25 15 19 17 8 25 17 17 18 38
3450.0 36 39 41 50 68 69 68 71 54 62
3490.0 46 40 30 23 17 16 26 17 18 16
3530.0 18 24 25 17 16 10 11 8 27 11
3570.0 22 9 18 12 9 15 17 16 10 17
3610.0 30 19 13 21 20 30 20 11 15 11
3650.0 17 10 2 12 18 17 17 14 20 4
3690.0 7 16 18 19 17 8 15 8 10 5
3730.0 6 17 7 2 20 12 6 1 6 6
3770.0 1 1 1 3 8 1 2 2 8 2
3810.0 3 6 5 6 7 25 16 18 10 4
3850.0 15 14 16 12 4 6 8 18 26 29
3890.0 32 25 27 24 14 20 21 30 40 36
3930.0 30 33 27 38 25 26 25 23 27 48
##END=
