##TITLE=1,2-Benzenedicarboxylic acid, di-2-propenyl ester
##JCAMP-DX=4.24
##DATA TYPE=INFRARED SPECTRUM
##ORIGIN=Sadtler Research Labs Under US-EPA Contract
##OWNER=NIST Standard Reference Data Program
##CAS REGISTRY NO=131-17-9
##MOLFORM=C 14 H 14 O 4
##XUNITS=1/CM
##YUNITS=ABSORBANCE
##XFACTOR=1.0
##YFACTOR=0.000208591
##DELTAX=4.0
##FIRSTX=450.0
##LASTX=3966.0
##FIRSTY=0.012098
##MAXX=3966
##MINX=450
##MAXY=2.08591
##MINY=0
##NPOINTS=880
##XYDATA=(X++(Y..Y))
450.0 58 57 24 65 10 26 29 39 2 61
490.0 57 49 52 21 65 30 64 54 69 71
530.0 92 82 103 125 145 143 154 143 129 110
570.0 103 90 37 18 79 37 44 28 54 34
610.0 54 67 83 107 134 181 186 208 206 198
650.0 178 154 118 85 71 62 63 79 122 141
690.0 190 265 367 431 456 450 444 454 478 530
730.0 613 720 883 1019 1029 933 754 608 489 405
770.0 360 336 330 336 329 278 215 183 168 175
810.0 187 191 175 163 147 148 142 149 152 148
850.0 149 141 138 118 128 134 135 151 154 171
890.0 195 220 262 324 409 517 674 866 1116 1369
930.0 1518 1456 1232 970 800 734 763 868 1056 1324
970.0 1566 1613 1466 1231 1031 952 934 886 776 658
1010.0 567 524 511 529 596 761 1048 1312 1383 1280
1050.0 1255 1530 2113 2869 3439 3465 2910 2172 1605 1301
1090.0 1196 1221 1407 1781 2412 3302 4368 5218 5618 5501
1130.0 5069 4426 3549 2551 1694 1153 865 725 650 580
1170.0 501 422 378 356 345 348 359 377 410 455
1210.0 509 585 690 833 1034 1332 1743 2313 3039 3922
1250.0 4918 5940 7158 8410 10000 9902 9624 8513 7650 6399
1290.0 5355 4431 3564 2672 1838 1275 948 737 614 522
1330.0 454 413 368 377 424 509 674 873 972 899
1370.0 716 549 465 407 339 284 244 219 229 248
1410.0 265 310 306 346 354 370 365 395 470 548
1450.0 602 604 527 452 358 278 212 212 242 237
1490.0 216 204 156 133 92 68 79 72 56 77
1530.0 70 76 61 39 53 73 75 59 97 136
1570.0 184 252 313 311 278 224 228 252 283 256
1610.0 198 159 126 142 132 161 158 186 243 286
1650.0 277 254 224 188 167 155 142 171 156 174
1690.0 223 269 296 374 455 564 644 781 1027 1393
1730.0 1944 2856 4373 6223 8519 9114 8226 6088 4111 2646
1770.0 1707 1139 820 607 484 392 334 298 264 260
1810.0 241 222 209 196 177 167 165 165 141 129
1850.0 139 156 168 175 172 146 138 122 110 97
1890.0 84 79 71 72 68 67 61 58 56 70
1930.0 87 99 103 83 71 59 56 59 70 69
1970.0 63 52 37 31 29 21 19 23 24 23
2010.0 21 19 21 20 29 28 33 29 30 32
2050.0 31 33 32 30 29 36 35 37 39 44
2090.0 40 40 37 32 28 23 22 18 17 14
2130.0 9 8 5 4 3 6 4 1 0 4
2170.0 5 6 9 8 12 10 14 13 14 12
2210.0 10 12 11 13 11 14 16 13 13 10
2250.0 11 11 12 9 8 7 9 8 7 8
2290.0 8 10 8 14 12 13 17 19 28 31
2330.0 38 25 30 22 8 11 13 15 18 15
2370.0 5 8 9 15 15 17 20 18 19 16
2410.0 16 13 13 11 10 8 8 6 4 4
2450.0 7 9 4 5 5 5 5 4 7 5
2490.0 8 7 5 7 10 8 9 9 12 14
2530.0 13 15 14 15 14 15 17 17 17 19
2570.0 19 19 18 15 13 9 12 8 9 9
2610.0 7 10 9 7 3 1 4 2 2 3
2650.0 3 2 3 3 4 2 0 4 5 7
2690.0 5 8 8 11 8 13 12 12 14 14
2730.0 15 13 15 14 13 16 12 7 10 10
2770.0 9 13 13 16 13 10 14 17 23 24
2810.0 29 32 40 45 44 41 45 39 44 48
2850.0 54 64 74 87 95 113 130 151 179 205
2890.0 231 237 225 205 187 179 175 183 196 229
2930.0 267 324 394 481 571 652 714 715 638 524
2970.0 434 374 335 322 330 356 372 374 354 329
3010.0 310 285 295 321 352 350 327 281 232 204
3050.0 188 188 212 247 314 425 568 701 726 646
3090.0 556 519 499 455 368 273 194 129 94 74
3130.0 59 54 51 44 46 45 51 43 40 38
3170.0 27 33 27 20 21 22 15 12 11 9
3210.0 7 9 15 19 14 12 16 11 11 14
3250.0 7 5 1 12 9 8 9 7 15 10
3290.0 10 6 16 5 9 14 10 15 2 14
3330.0 14 4 10 4 14 9 15 6 12 8
3370.0 4 11 10 6 11 13 19 13 14 19
3410.0 7 5 5 10 10 5 12 16 20 24
3450.0 28 26 36 35 48 59 60 66 62 66
3490.0 59 53 38 34 22 18 21 13 21 5
3530.0 14 7 15 17 18 6 10 4 5 6
3570.0 10 10 12 6 17 5 14 8 3 16
3610.0 19 20 6 16 10 12 5 13 12 16
3650.0 3 3 13 14 9 12 24 16 21 7
3690.0 19 13 23 17 18 14 13 20 17 11
3730.0 16 14 25 23 18 15 14 15 21 24
3770.0 14 24 18 30 18 9 17 19 5 25
3810.0 23 20 7 24 1 6 21 23 18 15
3850.0 12 12 0 14 18 9 12 16 16 26
3890.0 15 19 22 12 36 21 20 9 18 30
3930.0 38 34 18 26 20 13 12 32 37 6
##END=
