##TITLE=Methanone, (2-methylphenyl)phenyl-
##JCAMP-DX=4.24
##DATA TYPE=INFRARED SPECTRUM
##ORIGIN=Sadtler Research Labs Under US-EPA Contract
##OWNER=NIST Standard Reference Data Program
##CAS REGISTRY NO=131-58-8
##MOLFORM=C 14 H 12 O
##XUNITS=1/CM
##YUNITS=ABSORBANCE
##XFACTOR=1.0
##YFACTOR=0.000070065
##DELTAX=4.0
##FIRSTX=450.0
##LASTX=3966.0
##FIRSTY=0.022911
##MAXX=3966
##MINX=450
##MAXY=0.70065
##MINY=0
##NPOINTS=880
##XYDATA=(X++(Y..Y))
450.0 327 162 166 226 329 332 334 214 149 132
490.0 84 60 17 38 0 48 34 38 44 88
530.0 119 176 191 146 62 15 23 23 35 28
570.0 15 67 77 104 73 103 70 80 64 81
610.0 59 135 124 103 188 505 1946 3667 4215 3142
650.0 1192 449 364 342 344 433 561 651 976 1517
690.0 2459 3297 4218 4357 4337 3790 3180 2677 2665 3360
730.0 3898 3716 2710 1964 1767 2141 2561 2602 2144 1473
770.0 1002 774 668 590 552 517 474 443 457 471
810.0 436 342 237 193 179 189 167 165 172 167
850.0 182 190 237 267 264 231 188 177 192 204
890.0 254 319 417 537 729 1094 1930 3795 5889 6647
930.0 5553 3200 1788 1539 1488 1280 837 442 301 265
970.0 240 208 171 148 142 140 197 278 295 267
1010.0 175 149 216 358 457 458 387 301 309 313
1050.0 297 287 282 308 332 336 299 239 191 171
1090.0 176 201 231 273 330 374 398 393 388 383
1130.0 399 423 486 626 929 1225 1358 1261 915 695
1170.0 635 917 1309 1399 1160 679 429 416 413 423
1210.0 438 486 569 695 840 1048 1346 1763 2234 2808
1250.0 3778 5418 7524 9207 9637 8415 6435 5052 4775 4957
1290.0 4697 3775 2792 2421 2493 2741 2753 2369 1715 1042
1330.0 733 612 529 467 400 327 271 232 221 231
1370.0 257 293 357 453 518 537 482 392 344 317
1410.0 321 338 352 413 484 584 723 967 1439 2062
1450.0 2313 2160 1601 1141 992 902 852 857 885 850
1490.0 748 632 496 417 351 314 311 305 304 339
1530.0 350 374 377 371 391 415 423 420 464 518
1570.0 615 769 961 1126 1236 1325 1490 1689 1682 1396
1610.0 981 692 566 511 446 422 425 460 530 593
1650.0 659 794 1038 1425 2091 3272 5220 7580 9589 10000
1690.0 8775 6407 4280 2742 1849 1324 968 735 612 534
1730.0 448 386 347 315 278 264 257 234 211 198
1770.0 186 176 181 162 154 146 154 187 232 296
1810.0 326 318 273 212 162 142 147 147 129 104
1850.0 96 90 90 83 82 72 77 84 90 106
1890.0 133 166 199 225 243 255 271 275 247 199
1930.0 145 113 119 152 211 257 271 254 224 197
1970.0 177 144 103 65 43 33 26 25 19 14
2010.0 17 12 12 14 13 13 13 10 8 8
2050.0 12 10 13 15 10 12 14 17 17 13
2090.0 10 9 5 4 1 1 2 1 4 5
2130.0 4 3 5 3 6 0 3 6 4 7
2170.0 8 11 14 16 18 22 22 20 15 10
2210.0 13 11 10 10 11 11 11 7 15 19
2250.0 22 21 23 24 26 27 24 28 26 28
2290.0 30 32 37 40 50 58 65 78 85 73
2330.0 51 43 39 34 50 46 22 19 18 32
2370.0 46 52 57 50 50 40 38 35 39 42
2410.0 48 46 38 36 28 23 20 25 22 18
2450.0 11 8 9 7 9 5 5 8 7 5
2490.0 2 3 2 0 0 4 3 4 8 7
2530.0 8 6 6 8 13 14 16 16 18 23
2570.0 24 29 32 35 41 42 43 40 33 29
2610.0 21 20 20 18 20 23 24 25 25 21
2650.0 18 16 11 7 9 12 10 9 9 10
2690.0 15 20 16 21 28 30 39 37 35 36
2730.0 38 39 52 66 87 96 95 88 70 53
2770.0 37 35 29 25 26 25 29 33 37 40
2810.0 42 49 54 61 70 85 99 114 130 151
2850.0 175 208 241 285 336 379 422 449 457 447
2890.0 419 391 374 365 370 388 421 482 558 661
2930.0 788 909 975 960 874 777 685 638 634 645
2970.0 665 680 678 668 644 607 564 538 529 553
3010.0 632 805 1077 1413 1696 1816 1766 1592 1395 1249
3050.0 1221 1349 1705 2284 3133 3863 3948 3468 2672 2127
3090.0 1813 1492 1179 904 692 500 337 232 183 160
3130.0 141 139 128 131 126 124 116 115 113 94
3170.0 78 54 33 25 24 22 21 13 9 8
3210.0 4 12 8 6 3 6 7 9 6 9
3250.0 9 3 10 12 10 11 12 9 13 13
3290.0 11 18 8 13 12 15 20 22 29 36
3330.0 40 63 88 117 142 151 144 116 80 59
3370.0 47 32 22 20 20 19 21 20 17 8
3410.0 10 12 15 16 14 18 13 6 9 13
3450.0 16 10 12 12 9 10 12 6 10 8
3490.0 8 7 13 4 4 5 6 1 10 8
3530.0 5 7 12 8 7 11 4 8 0 3
3570.0 9 9 7 6 6 8 12 4 3 6
3610.0 12 8 5 2 9 14 11 16 9 17
3650.0 20 26 21 20 17 24 22 14 19 19
3690.0 18 15 26 19 27 20 34 33 24 22
3730.0 21 22 18 23 18 11 6 20 21 23
3770.0 10 20 26 14 13 19 14 8 7 9
3810.0 9 14 5 1 0 7 18 10 14 13
3850.0 18 23 19 18 26 21 4 22 13 9
3890.0 15 2 0 2 0 9 12 4 3 11
3930.0 0 6 8 0 10 11 10 3 1 0
##END=
