##TITLE=Dimethyl phthalate
##JCAMP-DX=4.24
##DATA TYPE=INFRARED SPECTRUM
##ORIGIN=Sadtler Research Labs Under US-EPA Contract
##OWNER=NIST Standard Reference Data Program
##CAS REGISTRY NO=131-11-3
##MOLFORM=C 10 H 10 O 4
##XUNITS=1/CM
##YUNITS=ABSORBANCE
##XFACTOR=1.0
##YFACTOR=0.000075183
##DELTAX=4.0
##FIRSTX=450.0
##LASTX=3966.0
##FIRSTY=0.001053
##MAXX=3966
##MINX=450
##MAXY=0.75183
##MINY=0
##NPOINTS=880
##XYDATA=(X++(Y..Y))
450.0 14 26 33 30 36 20 22 30 41 44
490.0 35 23 5 21 30 33 47 54 43 53
530.0 28 32 74 77 80 110 115 90 79 69
570.0 14 72 36 27 43 48 27 18 24 14
610.0 15 40 34 29 12 29 40 25 65 116
650.0 140 137 120 62 23 77 92 103 135 203
690.0 310 418 494 502 482 427 439 521 576 648
730.0 744 926 1132 1350 1291 1100 888 669 522 443
770.0 404 384 358 364 356 314 247 236 250 294
810.0 363 388 387 302 243 229 248 246 211 175
850.0 111 106 62 49 46 57 44 58 65 58
890.0 59 64 38 35 37 40 43 33 34 35
930.0 38 39 58 85 134 199 272 318 388 451
970.0 452 387 284 158 113 72 65 66 67 86
1010.0 98 105 133 152 219 353 571 758 813 756
1050.0 614 563 696 1007 1539 2140 2549 2510 2076 1452
1090.0 986 841 861 1035 1309 1761 2429 3226 4031 4536
1130.0 4597 4185 3419 2576 1769 1205 868 706 614 577
1170.0 558 569 608 695 806 911 956 918 828 694
1210.0 611 565 573 605 691 812 990 1238 1574 2027
1250.0 2610 3324 4153 5030 6220 7290 8566 9357 9920 9553
1290.0 9357 7872 6142 4151 2698 1747 1232 919 744 619
1330.0 550 482 443 404 374 344 317 295 272 247
1370.0 235 228 215 209 200 188 188 181 179 187
1410.0 191 206 228 301 499 931 1464 1754 1691 1214
1450.0 732 551 453 404 372 354 341 346 371 379
1490.0 358 314 265 210 186 157 161 150 141 138
1530.0 146 131 132 114 126 125 128 127 133 176
1570.0 233 290 336 358 339 286 273 289 315 311
1610.0 277 223 175 170 164 162 152 130 130 131
1650.0 132 128 147 158 163 166 170 174 186 191
1690.0 214 215 231 264 311 365 428 522 702 1014
1730.0 1530 2231 3366 4944 6945 8815 10000 8974 6835 4706
1770.0 3156 2104 1385 875 555 364 251 197 165 163
1810.0 162 171 176 182 173 168 153 144 121 103
1850.0 84 84 77 78 71 58 52 44 48 51
1890.0 53 52 49 52 57 58 71 71 79 92
1930.0 113 124 131 120 103 82 72 64 70 65
1970.0 64 45 30 24 19 19 19 19 19 31
2010.0 31 33 33 33 31 39 37 47 40 46
2050.0 34 35 33 29 32 39 38 57 65 71
2090.0 77 84 84 77 70 60 52 40 39 26
2130.0 26 20 19 12 8 5 5 7 7 7
2170.0 7 0 6 0 6 7 7 7 7 7
2210.0 6 6 6 6 6 13 13 13 19 14
2250.0 20 21 13 15 14 14 11 10 10 12
2290.0 14 17 21 22 21 31 21 26 21 25
2330.0 24 12 8 13 32 34 19 20 0 0
2370.0 6 12 26 24 24 21 20 12 20 20
2410.0 12 13 6 6 6 6 7 7 7 7
2450.0 7 6 6 1 1 6 6 7 7 8
2490.0 4 7 2 8 7 9 8 8 8 9
2530.0 9 9 9 13 9 10 14 15 15 16
2570.0 16 16 23 18 18 18 18 18 14 13
2610.0 12 12 12 11 11 11 11 12 9 13
2650.0 13 13 13 13 13 13 13 14 13 13
2690.0 13 13 15 14 14 10 16 8 15 15
2730.0 16 16 16 10 7 16 15 17 17 17
2770.0 17 17 17 17 18 18 18 17 17 17
2810.0 17 24 29 35 43 57 82 135 203 283
2850.0 319 299 226 150 112 100 106 110 128 148
2890.0 169 196 223 243 256 270 281 282 274 260
2930.0 251 241 274 317 437 682 1137 1656 1847 1661
2970.0 1182 668 415 326 310 326 364 412 460 466
3010.0 452 430 411 408 411 419 411 394 352 309
3050.0 268 240 227 243 290 364 467 582 605 533
3090.0 398 256 181 144 138 124 111 97 78 73
3130.0 52 54 47 47 47 55 49 49 48 41
3170.0 42 34 36 36 31 33 34 29 30 23
3210.0 23 24 30 30 25 16 23 19 21 21
3250.0 27 14 13 18 25 13 19 13 25 26
3290.0 23 14 19 19 28 24 26 26 21 28
3330.0 21 28 26 28 25 37 26 37 27 31
3370.0 22 29 23 35 23 23 23 28 28 25
3410.0 26 32 21 22 22 23 16 16 23 20
3450.0 24 16 39 42 46 46 53 58 81 93
3490.0 86 86 85 72 52 42 34 31 23 22
3530.0 21 19 22 21 22 15 19 24 16 17
3570.0 20 20 17 29 22 26 20 19 26 19
3610.0 22 19 21 21 28 12 25 13 14 13
3650.0 7 13 18 14 19 13 25 24 32 23
3690.0 24 18 25 24 17 11 18 11 10 1
3730.0 4 4 12 9 10 16 22 24 24 24
3770.0 24 28 25 28 16 16 16 16 16 16
3810.0 17 16 16 16 17 21 18 18 22 23
3850.0 22 21 28 21 21 22 16 15 22 21
3890.0 25 28 29 25 28 27 27 27 27 26
3930.0 27 27 27 27 27 27 27 27 27 26
##END=
