##TITLE=Dibenzofuran
##JCAMP-DX=4.24
##DATA TYPE=INFRARED SPECTRUM
##ORIGIN=Sadtler Research Labs Under US-EPA Contract
##OWNER=NIST Standard Reference Data Program
##CAS REGISTRY NO=132-64-9
##MOLFORM=C 12 H 8 O
##XUNITS=1/CM
##YUNITS=ABSORBANCE
##XFACTOR=1.0
##YFACTOR=0.000156247
##DELTAX=4.0
##FIRSTX=450.0
##LASTX=3966.0
##FIRSTY=0.000000
##MAXX=3966
##MINX=450
##MAXY=1.56247
##MINY=0
##NPOINTS=880
##XYDATA=(X++(Y..Y))
450.0 0 36 40 44 89 24 78 35 56 23
490.0 56 61 33 45 34 68 49 96 50 66
530.0 35 54 56 91 206 324 361 410 425 271
570.0 175 164 121 108 71 128 64 83 55 149
610.0 310 426 455 460 203 84 78 64 104 84
650.0 97 93 124 121 108 129 110 89 72 106
690.0 78 111 148 277 546 989 1472 1859 3048 2259
730.0 2064 2507 2876 3668 4145 6569 4513 3454 2715 1393
770.0 672 292 158 98 86 77 77 77 71 76
810.0 68 73 97 183 422 836 1158 1339 1388 1150
850.0 935 1028 1106 972 864 573 343 213 176 142
890.0 120 119 101 81 81 91 102 152 179 239
930.0 233 160 141 92 74 53 56 47 56 55
970.0 58 65 86 106 119 157 214 393 486 475
1010.0 442 417 472 458 432 304 117 50 48 50
1050.0 60 66 71 82 76 90 93 106 97 126
1090.0 170 272 389 448 974 1392 1199 1141 588 140
1130.0 113 111 158 221 230 257 290 260 213 220
1170.0 281 531 1067 1928 3690 6567 10000 9105 9203 4444
1210.0 1424 440 351 258 261 308 462 583 538 570
1250.0 540 404 328 320 289 286 352 550 656 624
1290.0 590 352 281 392 672 966 1048 979 697 417
1330.0 276 292 280 294 284 255 204 166 142 90
1370.0 92 67 95 55 78 84 94 133 187 329
1410.0 383 456 427 437 387 622 975 1486 2144 2394
1450.0 3488 3253 2973 2666 2202 2343 2205 2231 1275 550
1490.0 448 363 329 184 156 101 77 109 95 121
1530.0 73 96 57 61 52 70 99 92 185 174
1570.0 248 305 511 774 911 1062 1004 909 649 513
1610.0 337 234 171 148 100 84 68 62 74 79
1650.0 86 72 109 112 154 161 196 172 151 166
1690.0 155 168 145 148 101 85 73 58 59 59
1730.0 73 59 69 56 60 59 77 115 155 205
1770.0 226 240 216 183 128 96 67 83 109 137
1810.0 155 146 122 77 59 36 40 43 59 95
1850.0 140 172 161 140 96 74 83 127 190 247
1890.0 271 256 235 156 95 66 78 129 230 307
1930.0 302 266 168 78 41 36 35 39 43 43
1970.0 41 34 32 24 24 22 24 26 27 32
2010.0 28 29 28 30 31 43 53 68 81 82
2050.0 80 61 52 42 39 37 42 42 38 35
2090.0 29 31 31 35 32 34 29 29 31 33
2130.0 37 35 36 31 30 24 24 22 20 22
2170.0 19 20 16 20 16 17 17 20 22 22
2210.0 30 27 29 23 22 16 16 19 27 31
2250.0 36 38 34 34 28 27 25 29 34 35
2290.0 44 51 68 77 80 77 66 57 54 49
2330.0 41 48 41 46 57 54 41 39 36 27
2370.0 31 31 36 34 37 33 34 33 33 35
2410.0 37 43 51 68 82 102 114 111 93 82
2450.0 69 67 76 78 79 73 71 66 62 67
2490.0 71 72 70 70 61 61 58 64 66 65
2530.0 58 44 37 28 32 33 36 37 38 33
2570.0 33 35 34 37 36 41 44 49 50 52
2610.0 55 61 70 72 75 72 75 75 79 77
2650.0 78 83 82 79 71 66 55 48 42 37
2690.0 39 36 38 34 41 42 41 38 40 39
2730.0 36 37 39 42 42 44 41 45 45 45
2770.0 46 47 50 47 48 49 51 55 60 64
2810.0 66 73 71 76 72 72 66 60 53 48
2850.0 45 44 45 45 49 51 55 49 52 58
2890.0 61 72 81 98 118 138 150 152 144 139
2930.0 125 112 107 98 91 75 78 73 72 71
2970.0 69 69 66 66 65 67 65 74 81 97
3010.0 126 169 229 298 382 450 503 560 669 834
3050.0 1120 1430 1601 1698 1712 1734 1837 1864 1734 1555
3090.0 1326 1121 971 772 535 322 194 125 91 75
3130.0 61 55 49 51 49 52 51 54 54 64
3170.0 59 60 68 61 62 56 52 44 47 45
3210.0 44 48 48 50 48 46 38 40 36 33
3250.0 30 27 30 30 29 27 27 25 26 26
3290.0 26 24 25 28 27 25 17 26 20 24
3330.0 24 24 24 22 23 18 24 22 24 16
3370.0 22 26 20 20 17 17 17 19 19 24
3410.0 15 16 20 16 20 16 19 20 18 19
3450.0 19 16 17 23 23 20 22 26 26 26
3490.0 24 27 24 22 25 17 22 22 20 20
3530.0 22 20 26 23 26 20 20 33 28 32
3570.0 22 31 30 27 33 38 38 33 37 32
3610.0 37 36 34 38 41 49 40 40 43 45
3650.0 34 52 47 43 40 43 47 36 51 46
3690.0 42 42 42 49 39 46 35 39 41 51
3730.0 46 46 43 40 49 43 53 38 32 35
3770.0 44 44 39 42 33 42 34 35 34 47
3810.0 41 42 42 43 44 35 51 48 47 33
3850.0 37 35 66 47 46 57 53 66 59 73
3890.0 65 66 64 62 79 73 75 70 71 55
3930.0 57 55 67 56 59 61 56 51 48 48
##END=
