##TITLE=Dibenzothiophene
##JCAMP-DX=4.24
##DATA TYPE=INFRARED SPECTRUM
##ORIGIN=Sadtler Research Labs Under US-EPA Contract
##OWNER=NIST Standard Reference Data Program
##CAS REGISTRY NO=132-65-0
##MOLFORM=C 12 H 8 S
##XUNITS=1/CM
##YUNITS=ABSORBANCE
##XFACTOR=1.0
##YFACTOR=0.000123364
##DELTAX=4.0
##FIRSTX=450.0
##LASTX=3966.0
##FIRSTY=0.000000
##MAXX=3966
##MINX=450
##MAXY=1.23364
##MINY=0
##NPOINTS=880
##XYDATA=(X++(Y..Y))
450.0 0 168 184 213 205 270 235 255 311 420
490.0 443 686 624 563 512 341 280 287 261 276
530.0 257 243 246 252 248 240 235 236 248 226
570.0 213 210 222 237 215 203 241 237 217 279
610.0 468 636 663 678 397 269 239 221 213 200
650.0 222 215 215 220 229 279 279 247 228 254
690.0 347 553 846 966 1145 1129 922 873 1416 2740
730.0 4871 6690 10000 9223 6405 4694 2301 956 494 352
770.0 298 256 246 212 213 223 217 237 257 276
810.0 313 323 329 314 290 280 275 282 284 292
850.0 301 316 322 358 366 317 294 253 249 231
890.0 227 222 214 217 221 222 223 248 270 288
930.0 325 337 313 285 267 241 231 220 228 234
970.0 278 296 322 332 308 322 370 440 441 474
1010.0 470 567 1098 1768 1820 1759 1139 537 366 316
1050.0 345 432 562 791 1109 1675 1929 1781 1274 595
1090.0 293 283 266 281 255 265 266 291 329 410
1130.0 535 558 554 492 410 388 546 688 703 712
1170.0 488 317 298 311 367 406 414 410 396 329
1210.0 347 433 670 995 1090 1218 1147 802 587 393
1250.0 319 356 431 509 530 490 363 309 283 306
1290.0 382 511 732 1001 1239 1285 1036 586 359 294
1330.0 247 259 288 337 334 343 300 258 237 220
1370.0 217 225 264 249 296 297 345 403 528 637
1410.0 716 886 1191 1579 1708 1693 1748 1625 1704 1689
1450.0 1771 1602 1328 1470 1287 1085 803 503 428 367
1490.0 335 263 292 294 318 331 287 257 223 231
1530.0 210 213 229 244 262 269 351 377 477 511
1570.0 587 572 608 670 686 725 645 542 399 326
1610.0 322 320 315 284 265 232 226 218 212 229
1650.0 270 281 323 323 362 358 368 319 291 271
1690.0 289 344 387 386 336 280 238 241 213 220
1730.0 236 248 238 231 222 214 213 225 252 300
1770.0 373 454 458 466 403 331 285 275 303 347
1810.0 393 406 385 329 271 225 210 202 209 221
1850.0 230 267 337 390 389 355 279 239 255 313
1890.0 399 467 478 450 385 293 253 266 336 441
1930.0 538 560 495 385 256 204 188 190 187 192
1970.0 188 186 186 184 185 188 190 184 182 182
2010.0 181 181 184 183 181 181 183 182 181 182
2050.0 177 178 177 177 183 181 181 178 179 181
2090.0 182 179 179 182 178 177 179 181 179 179
2130.0 177 175 175 176 176 175 179 181 181 182
2170.0 184 183 183 186 183 186 182 176 177 181
2210.0 182 184 182 179 182 178 177 176 182 184
2250.0 186 188 190 192 192 196 200 204 211 221
2290.0 225 236 241 236 235 225 227 232 238 234
2330.0 222 199 187 185 186 197 184 190 174 175
2370.0 174 179 187 195 192 184 181 175 173 171
2410.0 174 176 181 182 185 186 184 185 186 190
2450.0 192 193 196 196 197 194 190 185 186 188
2490.0 191 191 188 186 181 178 177 177 175 177
2530.0 178 181 182 183 190 193 202 211 218 219
2570.0 220 217 212 213 213 222 230 243 253 261
2610.0 257 248 231 215 206 204 206 202 203 206
2650.0 209 210 209 203 197 188 181 182 177 181
2690.0 178 179 178 176 176 179 181 183 182 184
2730.0 187 187 191 191 190 188 186 191 190 192
2770.0 193 192 190 186 186 181 178 176 177 177
2810.0 176 177 179 177 178 181 182 184 183 185
2850.0 190 191 196 200 205 212 222 230 238 241
2890.0 241 236 229 217 211 212 210 208 202 205
2930.0 204 202 202 204 204 204 206 212 221 229
2970.0 240 248 248 249 264 287 326 378 444 526
3010.0 593 652 706 750 767 733 695 661 688 806
3050.0 995 1282 1714 2297 2981 3655 4028 4024 3488 2450
3090.0 1463 881 565 435 378 373 381 390 402 397
3130.0 377 334 289 245 221 210 203 205 204 203
3170.0 204 205 203 205 206 206 205 199 199 192
3210.0 190 183 186 182 179 178 184 184 175 183
3250.0 181 181 179 178 186 183 182 181 184 186
3290.0 186 187 186 187 185 181 178 187 181 177
3330.0 181 181 176 183 185 187 187 184 184 179
3370.0 184 178 179 171 183 178 176 179 181 175
3410.0 178 184 183 186 182 183 181 182 181 178
3450.0 178 184 190 181 184 183 185 190 193 187
3490.0 177 183 181 182 182 175 176 178 184 184
3530.0 183 171 176 178 190 186 185 186 190 187
3570.0 190 186 183 195 179 187 186 188 186 182
3610.0 194 190 187 174 188 186 183 203 191 202
3650.0 196 187 200 195 199 185 204 199 200 204
3690.0 201 205 204 201 202 197 193 199 190 197
3730.0 188 197 201 211 171 196 171 190 208 196
3770.0 210 203 210 208 204 199 204 184 200 191
3810.0 200 185 200 202 199 213 225 212 220 211
3850.0 201 176 181 177 183 176 190 187 195 176
3890.0 192 181 204 191 178 176 192 197 195 201
3930.0 191 195 178 188 200 190 187 191 190 194
##END=
