##TITLE=Benzoic acid, (1,1-dimethylethyl)-
##JCAMP-DX=4.24
##DATA TYPE=INFRARED SPECTRUM
##ORIGIN=Sadtler Research Labs Under US-EPA Contract
##OWNER=NIST Standard Reference Data Program
##CAS REGISTRY NO=1320-16-7
##MOLFORM=C 11 H 14 O 2
##XUNITS=1/CM
##YUNITS=ABSORBANCE
##XFACTOR=1.0
##YFACTOR=0.000073389
##DELTAX=4.0
##FIRSTX=450.0
##LASTX=3966.0
##FIRSTY=0.016733
##MAXX=3966
##MINX=450
##MAXY=0.73389
##MINY=0
##NPOINTS=880
##XYDATA=(X++(Y..Y))
450.0 228 202 126 269 117 234 184 284 276 312
490.0 408 357 485 562 730 850 1167 1268 1372 1480
530.0 1458 1345 1128 1025 845 800 782 870 971 1196
570.0 1342 1271 1209 931 739 580 501 427 360 321
610.0 289 301 273 251 253 272 278 309 320 328
650.0 310 338 349 612 970 1602 1695 1481 897 449
690.0 370 480 578 762 909 1073 1046 951 753 557
730.0 373 232 180 116 116 89 169 224 364 548
770.0 798 1015 1032 835 638 535 373 304 246 297
810.0 305 337 351 285 304 269 356 402 441 446
850.0 448 424 344 271 184 139 90 83 69 63
890.0 62 62 71 72 84 58 81 77 74 58
930.0 55 48 22 25 11 22 11 21 17 17
970.0 7 14 13 10 29 22 55 80 181 328
1010.0 718 1132 1288 1226 907 675 562 491 444 458
1050.0 509 622 805 1079 1540 2245 3260 4078 4197 3688
1090.0 2685 2087 2097 2410 2732 2742 2344 1721 1244 935
1130.0 720 611 559 547 574 643 789 967 1344 1966
1170.0 3002 4259 4814 4392 3137 1820 1281 1159 1094 992
1210.0 742 532 442 431 466 509 565 595 606 597
1250.0 611 664 816 1038 1238 1305 1236 1128 1040 1000
1290.0 951 920 893 863 817 754 701 662 682 755
1330.0 981 1282 1563 1620 1509 1359 1321 1478 1767 1992
1370.0 1947 1671 1203 848 662 570 588 683 726 771
1410.0 771 694 648 490 416 342 331 318 285 301
1450.0 326 375 460 448 494 532 652 729 718 730
1490.0 660 494 406 310 340 328 251 241 203 153
1530.0 114 126 148 239 215 229 284 364 342 303
1570.0 348 323 338 354 379 463 535 731 918 1312
1610.0 1518 1538 1299 915 781 484 436 271 213 144
1650.0 215 155 128 108 125 140 170 167 218 272
1690.0 237 291 316 384 399 425 528 707 922 1085
1730.0 1479 1655 1952 2240 3256 4618 7574 9684 10000 8210
1770.0 5160 2794 1715 1096 687 525 433 424 355 357
1810.0 307 303 234 247 201 167 122 85 94 82
1850.0 81 42 54 42 60 69 42 52 44 46
1890.0 42 49 33 42 50 70 78 91 107 75
1930.0 88 77 78 75 84 64 56 46 30 32
1970.0 18 23 11 11 5 21 18 6 10 8
2010.0 14 12 26 15 16 14 10 14 13 14
2050.0 6 12 3 9 8 9 11 7 13 13
2090.0 16 7 15 10 13 12 13 14 10 17
2130.0 12 17 15 25 21 24 26 30 28 23
2170.0 21 14 18 14 14 12 16 16 11 12
2210.0 10 14 4 11 3 8 9 6 9 7
2250.0 12 8 12 9 12 11 12 14 17 21
2290.0 22 31 30 37 34 43 35 37 48 27
2330.0 28 13 21 24 29 47 42 41 27 14
2370.0 3 13 25 32 30 28 26 26 24 22
2410.0 22 22 24 16 22 16 15 14 16 21
2450.0 14 16 14 13 10 10 11 12 11 10
2490.0 10 7 13 8 10 5 11 8 9 15
2530.0 12 16 10 11 11 5 7 8 10 12
2570.0 15 15 21 18 22 14 16 14 10 13
2610.0 10 10 5 15 16 17 12 18 16 13
2650.0 18 16 12 10 14 12 14 15 13 15
2690.0 15 16 14 18 13 22 23 29 32 32
2730.0 33 29 29 26 27 27 32 30 30 28
2770.0 33 38 38 40 43 49 48 49 44 52
2810.0 57 57 65 67 70 73 83 96 103 114
2850.0 133 165 209 278 365 482 598 686 719 708
2890.0 681 651 642 664 726 808 885 926 917 882
2930.0 863 866 875 909 989 1162 1475 1931 2518 3226
2970.0 3801 3786 3203 2217 1389 899 600 406 284 213
3010.0 171 149 127 115 110 115 119 135 157 179
3050.0 199 211 214 206 205 209 214 219 223 222
3090.0 216 221 220 216 200 178 147 122 100 91
3130.0 83 74 65 58 57 49 52 45 42 37
3170.0 39 40 37 36 38 42 38 35 36 36
3210.0 38 34 33 34 36 32 36 30 30 28
3250.0 28 30 26 23 18 34 25 27 21 23
3290.0 29 23 21 16 27 23 30 21 25 18
3330.0 17 26 21 29 21 16 22 34 35 39
3370.0 40 52 70 102 144 168 169 145 113 74
3410.0 44 36 24 25 28 26 16 29 16 7
3450.0 15 10 10 3 10 10 7 11 29 29
3490.0 32 54 62 76 61 76 94 81 96 89
3530.0 67 70 54 51 47 26 58 56 120 216
3570.0 428 903 1930 3267 3639 2988 1626 473 153 72
3610.0 40 46 18 42 12 53 3 24 21 29
3650.0 32 3 21 12 25 34 16 30 0 42
3690.0 18 23 16 32 23 26 16 22 27 35
3730.0 41 42 21 53 42 11 18 10 26 36
3770.0 16 14 22 28 10 30 28 26 19 10
3810.0 4 17 16 33 13 22 27 28 19 30
3850.0 24 56 2 17 28 11 3 22 32 46
3890.0 27 27 27 6 31 11 15 29 14 17
3930.0 12 3 7 14 28 3 11 12 15 6
##END=
