##TITLE=2,3-Dibromonaphthalene
##JCAMP-DX=4.24
##DATA TYPE=INFRARED SPECTRUM
##ORIGIN=Sadtler Research Labs Under US-EPA Contract
##OWNER=NIST Standard Reference Data Program
##CAS REGISTRY NO=13214-70-5
##MOLFORM=C 10 H 6 Br 2
##XUNITS=1/CM
##YUNITS=ABSORBANCE
##XFACTOR=1.0
##YFACTOR=0.000034830
##DELTAX=4.0
##FIRSTX=450.0
##LASTX=3966.0
##FIRSTY=0.000000
##MAXX=3966
##MINX=450
##MAXY=0.3483
##MINY=0
##NPOINTS=880
##XYDATA=(X++(Y..Y))
450.0 0 636 1582 2226 3817 4115 4198 2588 1494 974
490.0 587 846 818 646 832 1155 660 778 688 914
530.0 654 623 635 784 591 670 504 777 750 938
570.0 931 1419 1406 1599 2630 3727 3605 2219 1119 885
610.0 856 750 752 630 618 721 1084 1186 980 736
650.0 765 642 630 702 816 916 800 712 747 740
690.0 745 713 738 803 1001 1089 1071 991 971 1221
730.0 1808 3567 6321 10000 9539 5644 2560 1084 628 575
770.0 702 466 645 429 468 480 316 162 178 447
810.0 641 522 561 700 745 765 806 774 1025 1087
850.0 1495 2351 3144 3762 4573 5818 7552 9253 7958 4722
890.0 2370 1315 697 644 737 690 632 668 652 633
930.0 557 950 1503 2921 4284 4941 4078 2630 1287 946
970.0 698 661 734 826 731 684 567 513 458 445
1010.0 549 538 490 354 214 230 298 383 345 284
1050.0 354 297 295 353 420 509 433 487 704 1156
1090.0 2561 4835 6306 5591 3113 1587 1073 857 785 874
1130.0 1465 2128 2360 2233 1587 1007 720 724 497 480
1170.0 461 361 450 479 747 1441 1820 1822 1270 729
1210.0 654 730 841 680 739 680 490 403 455 362
1250.0 464 404 324 471 649 717 710 705 665 628
1290.0 528 585 569 963 1309 1558 1486 1175 1141 1304
1330.0 1648 1585 1293 878 650 718 653 627 540 433
1370.0 557 490 560 595 592 778 965 1284 1342 1182
1410.0 1338 1588 2725 4034 5344 5641 4740 2857 1355 975
1450.0 604 500 409 408 435 684 974 1589 2222 2609
1490.0 2539 2162 1970 1497 1142 748 444 496 387 366
1530.0 499 300 411 386 676 943 812 950 1246 1841
1570.0 2437 2620 2516 2006 1633 1197 969 686 532 517
1610.0 465 483 376 392 535 324 356 296 252 338
1650.0 190 102 267 204 274 195 276 312 509 399
1690.0 697 672 557 355 362 519 474 507 427 491
1730.0 453 376 345 289 431 489 636 693 656 520
1770.0 389 300 378 459 488 424 391 335 456 476
1810.0 553 499 368 353 336 459 407 408 304 284
1850.0 281 359 366 298 223 238 203 226 208 242
1890.0 294 343 403 432 374 356 346 432 468 489
1930.0 425 354 367 464 585 569 440 304 215 203
1970.0 192 182 167 180 166 162 190 193 168 164
2010.0 184 186 194 174 159 166 174 184 192 187
2050.0 176 179 207 183 196 178 175 191 178 164
2090.0 193 167 162 171 167 176 159 171 145 146
2130.0 144 146 167 166 146 148 139 163 153 146
2170.0 151 154 166 154 158 140 151 162 148 150
2210.0 164 153 150 153 132 138 117 143 145 130
2250.0 127 122 132 146 146 159 168 200 206 201
2290.0 214 200 188 191 180 180 195 191 162 192
2330.0 187 218 194 162 206 228 215 203 180 152
2370.0 198 152 183 186 182 166 151 166 150 172
2410.0 172 158 156 172 166 158 160 168 161 168
2450.0 176 167 175 166 187 198 199 206 217 209
2490.0 210 200 190 166 139 163 155 148 159 146
2530.0 160 167 153 154 161 159 178 158 188 185
2570.0 188 178 176 170 156 162 166 184 170 146
2610.0 156 182 171 178 183 201 177 180 163 184
2650.0 206 194 183 212 195 178 162 151 175 170
2690.0 184 180 177 174 150 153 166 168 168 155
2730.0 154 164 156 148 153 163 154 155 174 160
2770.0 174 163 151 150 152 150 166 160 164 150
2810.0 170 160 176 175 185 179 169 162 180 195
2850.0 195 215 207 214 188 199 203 201 215 215
2890.0 193 192 209 228 211 244 228 240 252 262
2930.0 249 248 235 254 254 234 225 201 171 155
2970.0 176 209 233 279 308 336 338 338 298 312
3010.0 308 344 403 475 571 643 660 658 697 850
3050.0 1274 2112 3478 4689 5079 4466 3491 2787 2432 1917
3090.0 1244 731 473 394 369 358 332 306 322 315
3130.0 287 320 281 255 254 247 210 212 228 219
3170.0 225 247 239 235 226 244 275 238 225 256
3210.0 210 226 195 170 178 207 242 209 170 190
3250.0 198 199 195 212 217 222 201 203 202 190
3290.0 175 183 226 231 190 194 196 186 216 195
3330.0 185 193 198 194 218 195 188 207 208 166
3370.0 164 182 199 175 196 224 202 175 203 177
3410.0 193 267 195 227 200 196 230 225 208 216
3450.0 215 211 199 218 215 228 209 212 232 227
3490.0 190 222 199 240 250 218 208 198 224 239
3530.0 222 250 220 208 232 257 218 192 220 264
3570.0 272 204 238 209 304 266 311 298 206 206
3610.0 224 275 231 266 171 257 278 283 307 321
3650.0 154 305 184 327 292 211 264 130 323 223
3690.0 282 188 359 295 311 283 256 234 363 329
3730.0 310 211 283 315 91 252 87 339 208 322
3770.0 220 222 248 228 290 308 266 283 119 232
3810.0 202 268 167 122 215 251 250 228 203 287
3850.0 267 206 170 194 193 152 236 175 216 132
3890.0 252 161 324 231 326 244 236 297 200 294
3930.0 286 292 254 335 299 342 140 200 169 233
##END=
