##TITLE=Cyclohexaneacetic acid, 1-hydroxy-3,3,5-trimethyl-, tert-butyl ester
##JCAMP-DX=4.24
##DATA TYPE=INFRARED SPECTRUM
##ORIGIN=Sadtler Research Labs Under US-EPA Contract
##OWNER=NIST Standard Reference Data Program
##CAS REGISTRY NO=13278-11-0
##MOLFORM=C 15 H 28 O 3
##XUNITS=1/CM
##YUNITS=ABSORBANCE
##XFACTOR=1.0
##YFACTOR=0.000076334
##DELTAX=4.0
##FIRSTX=450.0
##LASTX=3966.0
##FIRSTY=0.051296
##MAXX=3966
##MINX=450
##MAXY=0.76334
##MINY=0
##NPOINTS=880
##XYDATA=(X++(Y..Y))
450.0 672 681 630 536 525 518 506 424 433 457
490.0 446 530 542 559 590 587 615 580 571 527
530.0 452 398 351 326 253 211 249 212 217 240
570.0 274 309 362 355 310 235 169 100 104 66
610.0 56 51 52 45 53 42 61 60 65 78
650.0 69 58 41 29 56 0 37 1 17 17
690.0 14 8 27 22 30 29 33 50 51 61
730.0 79 111 165 251 352 402 343 297 252 257
770.0 229 210 202 234 294 346 370 399 459 467
810.0 427 338 282 280 331 446 625 826 923 824
850.0 639 517 500 491 495 444 356 298 267 297
890.0 393 524 602 574 510 493 521 498 443 435
930.0 493 567 625 663 720 821 900 924 909 839
970.0 651 474 382 357 345 344 354 379 379 348
1010.0 320 337 391 489 596 688 798 911 919 808
1050.0 671 582 567 596 645 703 815 955 1076 1152
1090.0 1182 1207 1267 1308 1345 1433 1638 2036 2643 3520
1130.0 4589 5702 6661 7202 7372 7521 7750 7597 7222 7039
1170.0 7071 6928 6384 5470 4446 3570 3015 2793 2828 3080
1210.0 3395 3515 3256 2801 2412 2266 2359 2579 2834 3005
1250.0 3031 2829 2477 2113 1875 1774 1761 1731 1676 1709
1290.0 1838 1927 1878 1810 1846 1984 2125 2252 2408 2728
1330.0 3140 3329 3249 3101 2940 2661 2488 2573 2823 3273
1370.0 4039 4583 4029 3077 2701 2979 3385 3321 2699 1921
1410.0 1455 1199 1012 922 914 954 935 841 776 790
1450.0 947 1243 1652 1836 1671 1427 1311 1254 1090 843
1490.0 614 453 339 251 188 136 121 113 103 103
1530.0 88 91 84 76 71 80 79 70 78 73
1570.0 81 77 82 86 83 87 84 84 80 91
1610.0 85 91 88 89 80 81 87 86 107 110
1650.0 133 134 151 153 175 186 211 252 275 333
1690.0 383 494 616 870 1212 1756 2629 3911 5041 5180
1730.0 4487 3751 3439 3391 3391 3117 2496 1666 1039 668
1770.0 485 366 314 263 231 195 169 151 127 126
1810.0 115 115 108 113 105 104 101 101 96 90
1850.0 90 88 84 77 75 72 76 76 74 72
1890.0 75 72 70 72 68 68 65 64 59 64
1930.0 65 61 66 60 59 60 61 63 64 63
1970.0 65 66 66 69 66 66 65 65 64 66
2010.0 61 59 58 55 59 53 59 52 54 58
2050.0 58 59 60 61 59 64 60 61 59 59
2090.0 58 59 53 53 54 53 56 58 60 61
2130.0 59 59 60 61 61 62 62 64 64 66
2170.0 63 64 63 62 62 58 58 60 62 60
2210.0 62 62 64 56 56 58 53 54 52 50
2250.0 48 49 48 42 41 40 39 38 38 37
2290.0 37 35 33 30 16 3 7 16 25 44
2330.0 49 66 68 78 53 63 73 79 88 90
2370.0 88 91 82 72 72 77 80 78 79 87
2410.0 85 83 80 77 72 64 58 53 52 55
2450.0 59 58 58 55 53 55 54 49 47 48
2490.0 47 48 49 48 48 50 53 53 52 53
2530.0 58 58 55 52 56 58 54 58 59 63
2570.0 63 62 62 64 64 61 64 64 68 68
2610.0 73 79 89 89 95 99 103 105 101 101
2650.0 95 98 90 88 88 85 90 90 88 88
2690.0 88 91 101 107 117 131 148 158 174 191
2730.0 210 220 207 195 177 162 154 153 154 155
2770.0 166 173 180 177 188 196 210 224 241 272
2810.0 309 359 426 508 618 788 1051 1395 1662 1644
2850.0 1420 1221 1194 1339 1689 2266 2997 3553 3633 3454
2890.0 3332 3399 3628 4120 4726 5109 5254 5484 5794 5891
2930.0 5896 5854 5700 5298 5154 5807 7725 10000 9733 6944
2970.0 4333 3448 3508 3942 4602 4285 2769 1588 1296 1319
3010.0 1343 1231 939 628 423 316 239 203 183 165
3050.0 157 149 150 144 139 137 141 141 141 147
3090.0 142 140 133 130 125 124 123 128 122 118
3130.0 118 115 115 118 121 114 118 118 122 119
3170.0 122 123 125 127 125 128 123 119 112 99
3210.0 102 89 87 80 80 78 76 78 74 70
3250.0 62 59 52 41 46 37 34 37 36 40
3290.0 38 39 37 39 40 38 45 42 49 50
3330.0 50 50 55 51 47 43 47 48 44 51
3370.0 60 58 59 64 66 58 63 73 83 85
3410.0 88 97 89 104 102 107 112 113 112 118
3450.0 121 138 142 160 167 192 212 235 241 256
3490.0 266 281 292 302 319 351 409 492 629 832
3530.0 1089 1300 1463 1505 1437 1318 1168 1027 893 780
3570.0 697 640 609 641 750 850 897 836 712 559
3610.0 444 341 258 200 158 127 109 103 82 66
3650.0 51 44 40 25 14 1 24 11 13 4
3690.0 13 12 12 21 17 3 5 8 8 5
3730.0 17 15 9 9 1 13 7 10 11 5
3770.0 12 15 12 10 11 1 8 2 3 8
3810.0 10 6 8 11 7 2 4 2 1 1
3850.0 1 2 5 3 13 9 6 5 1 26
3890.0 24 17 10 18 15 17 12 9 4 2
3930.0 16 12 6 6 7 4 12 9 1 1
##END=
