##TITLE=Cyclohexaneacetic acid, 4-tert-butyl-1-hydroxy-, tert-butyl ester
##JCAMP-DX=4.24
##DATA TYPE=INFRARED SPECTRUM
##ORIGIN=Sadtler Research Labs Under US-EPA Contract
##OWNER=NIST Standard Reference Data Program
##CAS REGISTRY NO=13278-12-1
##MOLFORM=C 16 H 30 O 3
##XUNITS=1/CM
##YUNITS=ABSORBANCE
##XFACTOR=1.0
##YFACTOR=0.000067303
##DELTAX=4.0
##FIRSTX=450.0
##LASTX=3966.0
##FIRSTY=0.044016
##MAXX=3966
##MINX=450
##MAXY=0.67303
##MINY=0
##NPOINTS=880
##XYDATA=(X++(Y..Y))
450.0 654 579 643 547 434 424 392 429 453 472
490.0 493 481 508 473 440 402 379 341 342 347
530.0 351 367 349 305 216 174 142 110 97 55
570.0 108 107 171 223 231 226 232 235 279 368
610.0 600 929 1030 914 667 568 531 513 452 342
650.0 270 212 166 101 104 78 58 22 32 28
690.0 50 63 53 59 57 55 41 30 19 1
730.0 1 17 23 55 114 204 284 318 313 267
770.0 217 191 157 142 156 170 151 135 125 148
810.0 130 162 211 292 404 444 505 576 650 599
850.0 503 387 338 310 291 281 276 341 466 949
890.0 1060 739 647 569 554 596 626 668 669 700
930.0 712 714 646 615 612 631 649 684 780 861
970.0 870 791 734 718 749 779 749 639 526 467
1010.0 488 559 641 641 554 458 404 402 412 437
1050.0 497 607 814 1098 1386 1509 1477 1430 1406 1408
1090.0 1507 1702 1960 2279 2637 3044 3355 3442 3484 3701
1130.0 4170 4874 5834 6752 7030 6556 6115 5924 5806 5590
1170.0 5321 4989 4604 4164 3657 3152 2746 2503 2383 2339
1210.0 2287 2243 2276 2401 2565 2713 2835 2872 2848 2813
1250.0 2776 2648 2408 2109 1781 1487 1269 1156 1091 1068
1290.0 1082 1126 1187 1267 1365 1498 1703 1933 2074 2033
1330.0 1964 2043 2279 2472 2462 2415 2611 2913 3141 3549
1370.0 4122 4303 3552 2637 2180 2372 2958 3219 2621 1779
1410.0 1303 1088 963 896 875 931 1015 1104 1195 1255
1450.0 1234 1140 1090 1086 1092 1194 1305 1436 1438 1245
1490.0 869 567 379 266 195 150 117 88 83 67
1530.0 59 48 55 35 44 49 48 37 56 44
1570.0 42 40 47 39 40 46 46 51 56 59
1610.0 62 65 71 88 96 114 133 144 163 171
1650.0 176 186 211 212 224 228 242 279 287 304
1690.0 334 385 458 604 840 1205 1776 2554 3365 3761
1730.0 3758 3577 3572 3613 3611 3407 3080 2732 2530 2363
1770.0 2168 1960 1800 1651 1473 1287 1093 882 655 505
1810.0 388 300 240 193 162 137 117 111 95 88
1850.0 75 67 60 58 46 38 40 35 33 26
1890.0 31 31 31 30 27 25 24 19 19 17
1930.0 23 19 24 22 25 25 26 25 24 19
1970.0 22 22 26 27 28 30 24 29 25 24
2010.0 23 19 16 13 12 14 11 13 11 11
2050.0 13 12 15 19 17 20 15 15 15 13
2090.0 11 7 7 11 8 8 10 10 15 11
2130.0 17 17 14 11 16 17 14 12 15 15
2170.0 13 17 11 14 15 11 16 14 12 14
2210.0 15 17 17 14 21 22 18 23 18 16
2250.0 21 22 19 23 24 27 32 38 47 55
2290.0 54 67 68 76 75 80 59 41 46 30
2330.0 14 12 5 24 54 45 13 9 26 49
2370.0 53 59 73 74 58 32 24 24 27 24
2410.0 21 21 15 14 13 8 2 2 6 8
2450.0 6 4 5 7 13 13 13 12 16 20
2490.0 25 29 24 25 18 17 20 17 21 22
2530.0 23 23 24 24 20 22 24 23 26 26
2570.0 34 28 30 38 39 41 39 40 49 50
2610.0 49 59 66 68 68 74 82 86 79 73
2650.0 75 74 72 68 71 81 80 82 81 79
2690.0 82 82 88 92 90 97 106 122 135 153
2730.0 160 145 143 139 140 141 151 145 147 143
2770.0 138 136 142 147 169 186 188 208 222 239
2810.0 270 310 367 423 491 611 814 1095 1473 1810
2850.0 1992 1994 1900 1869 2007 2343 2751 3034 3083 2983
2890.0 2833 2725 2722 2849 3144 3564 4060 4473 4772 5137
2930.0 5685 6175 6552 7191 8031 8779 9406 9864 10000 9647
2970.0 8763 8015 7175 6113 5190 4075 2615 1674 1279 1101
3010.0 1049 992 825 628 468 370 299 258 240 227
3050.0 229 226 241 259 285 293 302 280 299 328
3090.0 268 273 280 271 244 206 178 147 137 127
3130.0 119 120 120 111 114 108 110 113 117 113
3170.0 104 99 100 99 97 91 87 88 89 96
3210.0 94 91 86 80 80 77 74 65 73 69
3250.0 56 55 46 45 39 44 38 43 43 37
3290.0 44 40 42 37 40 42 43 48 46 56
3330.0 56 54 55 62 69 75 67 67 76 77
3370.0 75 80 74 71 69 69 79 80 85 99
3410.0 93 99 99 104 106 108 123 123 120 126
3450.0 127 126 131 114 120 116 126 115 127 111
3490.0 127 136 158 199 215 251 273 274 303 313
3530.0 389 493 643 792 935 1029 1108 1195 1582 2109
3570.0 2247 1878 1205 838 696 656 700 729 737 622
3610.0 536 428 355 313 286 271 220 199 158 106
3650.0 78 52 54 48 26 20 2 32 11 27
3690.0 22 21 18 6 4 7 6 8 10 0
3730.0 18 23 8 19 37 1 12 10 3 9
3770.0 8 25 39 36 14 20 19 23 1 39
3810.0 18 39 6 18 15 22 8 22 11 39
3850.0 49 30 37 40 5 14 12 32 13 82
3890.0 15 29 25 36 21 26 12 36 37 38
3930.0 31 10 8 13 15 12 36 48 27 40
##END=
