##TITLE=Benzenamine, 2-bromo-4-nitro-
##JCAMP-DX=4.24
##DATA TYPE=INFRARED SPECTRUM
##ORIGIN=Sadtler Research Labs Under US-EPA Contract
##OWNER=NIST Standard Reference Data Program
##CAS REGISTRY NO=13296-94-1
##MOLFORM=C 6 H 5 Br N 2 O 2
##XUNITS=1/CM
##YUNITS=ABSORBANCE
##XFACTOR=1.0
##YFACTOR=0.000074692
##DELTAX=4.0
##FIRSTX=450.0
##LASTX=3966.0
##FIRSTY=0.009635
##MAXX=3966
##MINX=450
##MAXY=0.74692
##MINY=0
##NPOINTS=880
##XYDATA=(X++(Y..Y))
450.0 129 238 206 275 236 309 273 288 263 208
490.0 174 225 172 136 151 108 81 83 88 75
530.0 135 137 101 103 114 38 10 35 28 40
570.0 72 72 62 83 90 103 106 74 118 129
610.0 144 160 225 251 338 468 601 608 433 242
650.0 142 129 138 179 249 342 457 670 946 1235
690.0 1589 1595 1376 988 593 394 428 445 494 576
730.0 725 906 1097 1297 1209 879 594 431 296 219
770.0 163 118 114 111 111 113 117 137 208 314
810.0 588 997 1281 1236 1005 732 561 463 399 371
850.0 335 325 306 317 330 368 425 518 604 600
890.0 613 597 569 549 417 264 166 107 73 54
930.0 39 36 43 53 75 104 133 137 121 94
970.0 77 62 57 60 80 100 160 221 321 416
1010.0 420 340 258 243 304 347 354 327 288 283
1050.0 303 321 327 292 244 205 191 198 193 188
1090.0 181 200 259 396 670 1133 1713 2154 2127 1774
1130.0 1284 824 519 399 479 507 488 408 217 114
1170.0 70 52 58 65 74 80 94 114 131 145
1210.0 158 172 204 237 255 268 287 334 373 433
1250.0 566 732 883 903 767 703 688 684 721 810
1290.0 1009 1317 1811 2484 3133 3492 3365 2802 2317 2306
1330.0 2694 3612 5464 8227 10000 9613 6638 3007 1133 550
1370.0 329 285 294 389 519 605 624 582 505 504
1410.0 544 564 627 655 702 702 685 665 647 667
1450.0 686 739 843 953 1099 1311 1574 1790 1988 2315
1490.0 2744 2948 2749 2172 1546 1193 1116 1222 1719 2728
1530.0 4442 5911 6005 5329 3446 1898 1371 1223 1174 1164
1570.0 1172 1238 1384 1639 1850 1999 1991 1994 2068 2341
1610.0 2860 3743 4727 5090 4816 3754 2571 1624 1024 673
1650.0 491 376 255 197 137 101 74 42 45 49
1690.0 29 35 69 79 74 49 45 54 23 16
1730.0 25 52 39 40 58 78 75 84 87 80
1770.0 83 82 69 78 75 89 95 92 88 60
1810.0 52 42 28 25 33 35 30 28 33 41
1850.0 34 28 28 29 36 48 39 45 57 74
1890.0 89 90 82 61 47 35 30 31 32 29
1930.0 31 33 36 44 41 36 30 33 33 35
1970.0 35 34 36 37 36 44 38 39 37 36
2010.0 37 38 38 32 29 31 34 35 33 39
2050.0 31 34 35 37 35 35 29 27 23 26
2090.0 25 24 24 24 26 30 28 29 29 25
2130.0 27 26 21 19 14 14 13 14 21 18
2170.0 21 19 18 17 17 19 18 16 19 18
2210.0 20 16 14 15 21 21 23 22 15 12
2250.0 15 13 15 15 14 18 17 19 18 24
2290.0 28 37 45 48 59 71 67 66 80 82
2330.0 85 93 74 134 106 86 116 91 142 105
2370.0 107 88 80 60 37 26 18 24 23 22
2410.0 16 22 17 22 28 30 28 33 32 32
2450.0 42 49 62 64 70 62 47 39 27 17
2490.0 15 8 7 5 4 8 9 10 12 7
2530.0 10 10 10 0 5 7 4 9 14 17
2570.0 21 23 22 20 12 16 17 23 26 26
2610.0 37 42 54 62 74 87 97 101 97 89
2650.0 74 64 50 45 47 39 36 28 26 27
2690.0 27 24 26 21 25 23 22 26 23 22
2730.0 20 12 14 19 18 8 13 11 12 13
2770.0 19 16 15 21 25 21 29 34 34 35
2810.0 41 38 39 45 42 36 41 38 35 41
2850.0 46 53 72 84 104 124 131 131 118 95
2890.0 84 78 64 69 66 80 80 85 91 108
2930.0 120 117 112 117 113 92 69 67 60 60
2970.0 73 70 68 61 64 61 56 49 48 48
3010.0 44 41 44 48 56 77 86 106 121 134
3050.0 136 136 143 164 189 222 242 252 232 206
3090.0 165 147 144 134 115 94 87 75 65 61
3130.0 54 51 52 59 57 57 67 73 79 76
3170.0 86 89 96 95 106 112 119 117 114 105
3210.0 94 83 74 66 60 55 58 48 45 41
3250.0 39 37 42 47 47 56 56 65 73 78
3290.0 81 84 95 106 112 108 123 132 133 146
3330.0 149 161 170 183 192 210 216 235 269 285
3370.0 298 317 334 331 341 347 355 390 466 565
3410.0 693 800 859 868 853 806 702 571 415 279
3450.0 211 178 162 164 170 179 189 195 206 220
3490.0 246 271 293 327 359 374 361 369 350 348
3530.0 352 351 342 303 251 202 142 89 62 44
3570.0 31 22 13 12 13 5 20 16 14 12
3610.0 9 9 21 22 7 25 20 12 5 18
3650.0 14 20 19 11 23 22 23 21 9 14
3690.0 22 31 0 19 22 26 23 13 29 36
3730.0 26 9 13 37 26 24 28 11 27 28
3770.0 26 17 32 30 34 31 28 38 29 28
3810.0 33 22 26 25 32 25 31 36 36 23
3850.0 38 49 43 45 57 47 48 44 60 37
3890.0 27 58 59 55 41 42 38 34 57 44
3930.0 47 33 12 24 38 33 33 37 41 53
##END=
