##TITLE=Benzene, 1-chloro-2-methyl-4-nitro-
##JCAMP-DX=4.24
##DATA TYPE=INFRARED SPECTRUM
##ORIGIN=Sadtler Research Labs Under US-EPA Contract
##OWNER=NIST Standard Reference Data Program
##CAS REGISTRY NO=13290-74-9
##MOLFORM=C 7 H 6 Cl N O 2
##XUNITS=1/CM
##YUNITS=ABSORBANCE
##XFACTOR=1.0
##YFACTOR=0.000101141
##DELTAX=4.0
##FIRSTX=450.0
##LASTX=3966.0
##FIRSTY=0.006372
##MAXX=3966
##MINX=450
##MAXY=1.01141
##MINY=0
##NPOINTS=880
##XYDATA=(X++(Y..Y))
450.0 63 63 23 78 88 38 58 84 61 72
490.0 102 103 154 267 437 573 618 626 402 267
530.0 211 167 156 111 120 118 169 285 463 588
570.0 680 649 556 471 330 229 145 84 64 62
610.0 41 39 61 93 126 50 21 10 12 18
650.0 28 20 27 10 2 23 25 33 69 116
690.0 189 202 196 177 101 45 29 43 133 330
730.0 642 916 1369 1551 1222 923 660 392 222 97
770.0 76 58 79 100 134 212 479 1487 2487 2592
810.0 2457 1443 795 837 986 1055 729 529 361 183
850.0 103 53 48 55 92 121 163 229 336 488
890.0 656 833 971 908 792 1011 1372 1600 1603 1248
930.0 599 210 98 58 61 51 62 54 58 54
970.0 54 44 29 20 19 37 62 102 130 143
1010.0 147 146 194 263 331 440 622 906 1386 2115
1050.0 3148 4079 4269 3728 2531 1398 907 726 616 531
1090.0 434 367 320 284 261 266 284 329 354 358
1130.0 387 307 228 189 135 87 64 49 43 51
1170.0 54 62 59 54 52 70 86 123 170 187
1210.0 182 130 92 79 83 88 85 79 89 124
1250.0 216 417 623 750 761 639 544 575 673 736
1290.0 750 728 625 511 495 509 552 582 672 913
1330.0 1468 2467 4000 6022 8240 9815 10000 8934 6346 4136
1370.0 2500 1412 921 747 658 556 476 394 364 428
1410.0 533 658 727 760 740 718 706 719 700 727
1450.0 789 830 1055 1447 1934 2403 2624 2456 2034 1561
1490.0 1113 914 891 966 1088 1316 1634 2277 3180 4334
1530.0 5418 6223 6812 7302 7602 7266 6718 6007 4741 3515
1570.0 2863 2644 2578 2485 2247 1804 1428 1249 1194 1151
1610.0 1100 995 848 666 465 319 240 204 207 231
1650.0 259 285 301 267 243 201 176 155 155 155
1690.0 157 158 173 185 197 209 223 231 216 192
1730.0 151 118 87 74 78 89 119 130 155 166
1770.0 191 197 209 207 188 154 129 99 73 52
1810.0 25 16 11 11 11 9 8 10 6 7
1850.0 2 4 8 12 15 14 21 24 37 52
1890.0 74 91 112 125 124 110 90 66 42 32
1930.0 27 20 19 14 17 12 12 12 11 12
1970.0 12 13 14 13 10 13 12 16 11 13
2010.0 16 18 21 25 26 19 15 11 11 9
2050.0 11 13 11 13 12 11 8 11 13 12
2090.0 10 7 9 5 8 8 8 6 10 9
2130.0 11 9 9 7 7 9 4 9 6 11
2170.0 10 12 11 12 14 12 16 15 13 13
2210.0 11 8 8 5 2 3 6 9 8 9
2250.0 13 16 26 32 37 45 46 41 43 36
2290.0 30 37 37 47 48 54 50 52 50 52
2330.0 54 56 51 54 64 64 72 60 64 53
2370.0 53 49 51 50 36 30 26 29 27 31
2410.0 25 25 28 29 29 27 28 31 39 48
2450.0 52 56 61 58 56 53 46 50 50 50
2490.0 49 47 45 44 38 34 29 31 30 29
2530.0 32 34 34 38 39 43 46 49 55 65
2570.0 73 81 85 85 77 65 54 50 50 46
2610.0 45 40 37 34 36 33 31 28 29 30
2650.0 32 34 39 44 48 51 52 61 69 72
2690.0 78 80 77 71 66 63 63 63 57 57
2730.0 52 50 50 50 52 53 54 57 54 57
2770.0 50 49 49 52 50 59 61 66 64 65
2810.0 70 76 78 80 81 91 98 104 119 136
2850.0 156 181 214 249 285 308 316 321 321 306
2890.0 299 297 300 304 306 302 297 308 331 374
2930.0 431 516 575 592 572 517 449 401 391 396
2970.0 419 409 366 347 345 366 373 359 334 271
3010.0 221 178 160 145 142 142 134 133 133 128
3050.0 127 117 119 120 124 142 172 206 214 211
3090.0 197 168 164 147 114 84 61 57 46 46
3130.0 39 42 38 33 31 32 27 24 23 34
3170.0 29 25 25 25 29 31 31 36 30 26
3210.0 29 31 35 34 31 28 27 27 29 25
3250.0 17 21 24 21 23 23 29 24 24 27
3290.0 26 28 28 25 22 15 17 20 18 25
3330.0 15 13 15 20 23 20 21 22 22 19
3370.0 7 8 19 16 20 22 27 19 16 16
3410.0 11 24 19 18 16 14 23 12 11 4
3450.0 18 10 18 18 19 11 12 12 17 15
3490.0 15 18 16 24 18 12 11 13 12 10
3530.0 14 12 12 5 10 14 18 9 17 13
3570.0 40 40 28 37 36 32 22 20 14 9
3610.0 26 13 10 11 18 25 0 21 9 11
3650.0 25 14 28 15 5 24 3 21 12 14
3690.0 16 13 8 22 8 12 21 22 34 28
3730.0 19 23 21 18 33 10 18 5 8 19
3770.0 12 9 17 18 20 33 33 22 18 22
3810.0 5 15 15 21 6 8 17 22 20 28
3850.0 12 26 4 12 24 31 25 21 23 43
3890.0 13 17 0 34 26 28 7 28 32 24
3930.0 23 2 19 19 15 11 33 16 4 32
##END=
