##TITLE=Ethanol, ((.alpha.-methylbenzyl)amino)-
##JCAMP-DX=4.24
##DATA TYPE=INFRARED SPECTRUM
##ORIGIN=Sadtler Research Labs Under US-EPA Contract
##OWNER=NIST Standard Reference Data Program
##CAS REGISTRY NO=1331-41-5
##MOLFORM=C 10 H 15 N O
##XUNITS=1/CM
##YUNITS=ABSORBANCE
##XFACTOR=1.0
##YFACTOR=0.000044345
##DELTAX=4.0
##FIRSTX=450.0
##LASTX=3966.0
##FIRSTY=0.012239
##MAXX=3966
##MINX=450
##MAXY=0.44345
##MINY=0
##NPOINTS=880
##XYDATA=(X++(Y..Y))
450.0 276 119 900 550 603 203 5 533 647 616
490.0 1326 815 104 101 32 769 714 980 989 1150
530.0 1521 1190 968 1415 1619 1957 2094 1583 1460 1089
570.0 1139 1068 819 1235 1032 995 1140 919 1007 862
610.0 769 742 1046 624 478 650 610 760 601 954
650.0 970 900 1141 1391 1821 2179 1985 2336 2803 4006
690.0 5461 7653 9716 10000 8342 6234 4490 3548 2980 2757
730.0 2853 2377 3123 3269 3574 3587 4729 5075 5178 4933
770.0 3791 2942 2164 1641 1405 1151 836 799 691 638
810.0 546 505 372 227 380 481 375 430 301 432
850.0 435 479 708 682 681 680 866 983 906 861
890.0 866 795 777 887 858 693 544 534 598 514
930.0 622 637 668 539 664 642 460 364 491 582
970.0 383 433 525 420 591 1013 1353 1539 1977 2509
1010.0 2875 3388 3852 4448 5154 5875 6523 6920 7516 8095
1050.0 9130 9118 8802 7882 7557 7538 6961 6312 5230 4220
1090.0 3359 2696 2390 2339 2408 2553 2963 3514 4128 4944
1130.0 5733 5915 5322 4613 3831 3119 2589 2325 2142 1962
1170.0 1993 2068 2185 2314 2418 2617 2889 3078 3266 3188
1210.0 3003 2873 2584 2263 2214 1932 1762 1661 1436 1426
1250.0 1447 1585 1738 1744 1857 2002 1988 1949 1828 1867
1290.0 2011 2018 2280 2325 2343 2369 2386 2569 2611 2695
1330.0 2519 2417 2368 2547 2725 2952 3047 3104 3111 3281
1370.0 3485 3672 3841 3473 3111 2710 2659 2684 2684 2553
1410.0 2251 2061 1884 1662 1688 1953 2230 2943 3672 4351
1450.0 5017 5579 5368 5136 4829 4372 3957 3291 2971 2685
1490.0 2942 2824 2372 1725 1159 770 537 476 426 364
1530.0 251 297 305 295 185 102 117 140 202 54
1570.0 86 76 126 265 266 450 662 720 960 772
1610.0 642 467 299 245 149 209 158 274 278 326
1650.0 473 428 461 323 340 362 515 480 495 446
1690.0 285 259 256 283 165 162 190 210 152 80
1730.0 180 169 230 233 210 225 170 164 156 133
1770.0 147 171 157 195 202 281 347 439 405 384
1810.0 306 231 217 163 159 145 106 118 107 156
1850.0 118 168 215 233 304 312 350 345 358 331
1890.0 297 254 209 175 141 151 148 170 183 222
1930.0 282 340 399 443 448 426 408 359 293 211
1970.0 138 101 92 82 68 55 61 38 45 45
2010.0 27 33 18 26 28 24 34 25 28 19
2050.0 19 16 21 31 21 21 15 28 33 22
2090.0 29 30 21 23 24 37 34 37 26 23
2130.0 30 26 18 15 8 21 11 16 22 13
2170.0 2 12 11 11 9 13 18 3 4 2
2210.0 0 3 7 8 11 25 21 23 22 32
2250.0 31 32 41 50 50 53 58 63 72 81
2290.0 80 101 108 122 138 182 174 178 176 166
2330.0 162 182 183 138 150 160 183 151 124 125
2370.0 149 166 157 153 157 131 130 130 134 153
2410.0 155 155 156 156 154 157 173 182 194 180
2450.0 173 181 184 191 182 183 174 180 175 172
2490.0 158 175 168 161 168 153 160 157 152 158
2530.0 166 163 167 170 184 192 192 196 213 221
2570.0 232 243 262 295 312 327 330 350 359 363
2610.0 364 362 362 361 369 365 371 364 383 386
2650.0 400 423 428 455 463 481 497 512 545 548
2690.0 569 605 619 658 680 687 699 695 709 717
2730.0 737 758 775 770 793 826 867 920 990 1075
2770.0 1166 1273 1412 1574 1769 2001 2215 2453 2674 2909
2810.0 3136 3390 3620 3861 4099 4340 4537 4687 4846 4924
2850.0 4956 4964 4935 4904 4944 5047 5287 5500 5702 5812
2890.0 5782 5644 5460 5261 5147 5108 5210 5463 5961 6683
2930.0 7421 8028 8282 8154 7701 7118 6606 6396 6753 7476
2970.0 8142 8584 8309 7552 6191 4475 2997 1918 1426 1325
3010.0 1332 1531 1921 2532 3287 3888 4071 3793 3267 2693
3050.0 2295 2240 2472 3049 3892 4491 4593 4206 3523 2850
3090.0 2383 1963 1574 1241 998 802 613 446 307 195
3130.0 116 84 56 17 24 13 23 28 25 30
3170.0 38 28 36 9 12 23 23 12 35 25
3210.0 22 43 38 29 21 21 41 68 42 50
3250.0 58 46 63 98 103 101 118 130 129 164
3290.0 159 167 189 157 200 188 188 203 215 226
3330.0 239 239 241 266 278 270 309 272 253 255
3370.0 202 195 200 188 186 173 159 170 144 150
3410.0 111 105 117 101 114 96 100 101 106 103
3450.0 93 94 96 79 103 83 80 70 83 90
3490.0 69 59 84 83 113 94 112 88 116 110
3530.0 125 147 187 203 245 300 391 430 543 592
3570.0 738 726 773 685 696 597 484 401 373 321
3610.0 300 286 278 284 187 239 213 237 229 320
3650.0 412 563 623 743 766 827 920 872 777 594
3690.0 428 244 96 78 37 3 0 0 0 0
3730.0 0 0 0 0 0 0 0 0 0 0
3770.0 0 0 0 0 0 0 0 0 0 0
3810.0 0 0 0 0 0 0 0 0 0 0
3850.0 0 0 0 0 0 0 0 0 0 0
3890.0 0 0 0 0 0 0 0 0 0 0
3930.0 0 0 0 0 0 0 0 0 0 0
##END=
