##TITLE=Succinimide, N-(o-toluidinomethyl)-,
##JCAMP-DX=4.24
##DATA TYPE=INFRARED SPECTRUM
##ORIGIN=Sadtler Research Labs Under US-EPA Contract
##OWNER=NIST Standard Reference Data Program
##CAS REGISTRY NO=13314-98-2
##MOLFORM=C 12 H 14 N 2 O 2
##XUNITS=1/CM
##YUNITS=ABSORBANCE
##XFACTOR=1.0
##YFACTOR=0.000137027
##DELTAX=4.0
##FIRSTX=450.0
##LASTX=3966.0
##FIRSTY=0.000000
##MAXX=3966
##MINX=450
##MAXY=1.37027
##MINY=0
##NPOINTS=880
##XYDATA=(X++(Y..Y))
450.0 0 482 574 538 636 483 442 491 476 586
490.0 456 490 643 643 656 588 474 628 539 637
530.0 625 601 655 650 619 698 658 600 469 504
570.0 472 545 536 531 646 720 760 828 802 890
610.0 979 975 1116 1125 1214 1363 1565 1792 1938 2083
650.0 2088 1906 1734 1518 1520 1261 1083 923 795 741
690.0 771 775 762 743 765 843 929 1056 1162 1418
730.0 1628 1209 1134 1310 1364 1032 961 911 883 870
770.0 861 861 990 920 849 746 652 641 556 576
810.0 531 623 614 643 592 611 577 633 576 550
850.0 509 491 455 483 543 574 722 741 777 855
890.0 821 868 911 879 764 649 641 587 544 585
930.0 565 532 509 500 482 474 462 453 442 438
970.0 450 474 509 471 501 523 515 506 479 499
1010.0 532 527 577 675 684 801 826 827 758 739
1050.0 687 669 616 575 552 537 528 523 566 573
1090.0 581 583 627 700 741 860 995 1146 1328 1569
1130.0 1802 2128 2471 2942 3278 3246 3227 2934 2633 2348
1170.0 1799 1249 1007 861 828 868 879 920 1027 1111
1210.0 1176 1233 1254 1252 1208 1140 1096 998 935 936
1250.0 911 830 856 870 875 950 1050 1128 1287 1313
1290.0 1353 1347 1304 1283 1275 1282 1363 1619 1877 2202
1330.0 2336 2413 2530 2306 2138 1832 1475 1206 976 836
1370.0 749 686 653 589 588 575 569 557 546 544
1410.0 524 498 523 553 604 694 760 786 799 839
1450.0 964 980 935 914 862 842 895 948 1019 1088
1490.0 1094 1103 1065 920 774 677 586 585 536 508
1530.0 479 469 474 492 473 447 451 467 483 482
1570.0 515 552 578 599 624 638 631 611 635 635
1610.0 652 691 718 748 783 821 858 887 879 845
1650.0 823 768 707 642 649 653 671 695 737 827
1690.0 926 1076 1332 1596 1856 2024 2185 2313 2272 2353
1730.0 2404 2553 2814 2995 3515 4270 5180 6274 7409 8894
1770.0 9940 10000 9958 8932 8256 7606 5469 3365 2164 1642
1810.0 1517 1408 1326 1281 1177 1036 864 740 644 571
1850.0 536 496 486 487 475 488 492 477 494 491
1890.0 498 501 494 490 487 482 468 484 486 479
1930.0 495 487 485 495 476 468 463 446 449 447
1970.0 437 437 433 433 428 422 423 425 421 414
2010.0 416 412 406 415 406 412 416 410 427 434
2050.0 450 470 475 478 477 473 446 421 411 403
2090.0 410 399 400 403 395 402 405 405 413 404
2130.0 401 406 401 405 404 404 403 408 407 409
2170.0 410 409 411 410 407 411 409 406 415 404
2210.0 406 419 415 417 421 417 417 416 413 414
2250.0 417 412 418 416 413 422 420 420 425 421
2290.0 421 424 415 427 432 424 434 431 429 437
2330.0 438 434 445 438 445 447 447 428 467 436
2370.0 434 444 422 427 423 413 414 409 410 416
2410.0 415 413 420 417 419 427 420 417 426 418
2450.0 417 418 411 416 413 407 423 418 418 416
2490.0 410 409 405 396 395 396 385 385 395 393
2530.0 393 394 386 388 397 390 400 395 399 406
2570.0 396 401 400 396 404 403 396 399 400 402
2610.0 406 409 404 411 407 405 411 408 409 416
2650.0 415 412 412 410 421 425 414 419 413 406
2690.0 409 404 393 404 401 396 411 401 407 417
2730.0 406 420 424 420 425 428 424 426 419 414
2770.0 418 417 411 429 425 431 444 440 457 462
2810.0 449 457 469 469 490 497 500 524 533 544
2850.0 582 603 644 708 761 822 903 943 995 993
2890.0 954 934 880 825 822 806 814 851 871 893
2930.0 930 938 940 948 952 945 923 908 913 885
2970.0 853 837 779 743 730 726 740 735 710 772
3010.0 919 1112 1254 1356 1345 1318 1212 1025 862 801
3050.0 777 826 857 915 1001 1031 1040 1026 945 868
3090.0 773 663 610 566 526 507 487 456 456 452
3130.0 428 445 434 420 445 424 429 423 409 408
3170.0 417 400 405 400 402 411 403 397 417 413
3210.0 386 419 398 398 420 397 401 426 412 423
3250.0 425 417 424 423 432 442 429 416 420 427
3290.0 410 420 414 412 415 401 405 405 389 403
3330.0 409 403 412 407 393 413 412 400 414 400
3370.0 410 404 399 401 413 407 426 429 408 434
3410.0 443 445 480 479 530 606 682 798 926 1039
3450.0 1152 1213 1150 1079 1129 1077 963 782 645 581
3490.0 524 478 479 449 455 450 453 442 445 439
3530.0 458 467 449 461 469 471 494 479 482 493
3570.0 472 477 485 453 446 430 434 439 433 415
3610.0 421 421 425 429 411 424 433 415 406 433
3650.0 420 441 413 386 420 419 418 436 431 401
3690.0 439 396 389 401 384 419 419 390 416 426
3730.0 409 403 424 429 400 451 387 419 384 393
3770.0 436 387 415 414 382 413 403 420 433 426
3810.0 386 433 426 417 414 419 411 477 417 420
3850.0 434 424 445 428 400 451 441 386 409 405
3890.0 461 502 415 380 491 396 424 448 427 419
3930.0 413 384 448 439 378 475 414 453 437 434
##END=
