##TITLE=Pentanol, 2,2,4-trimethyl-
##JCAMP-DX=4.24
##DATA TYPE=INFRARED SPECTRUM
##ORIGIN=Sadtler Research Labs Under US-EPA Contract
##OWNER=NIST Standard Reference Data Program
##CAS REGISTRY NO=1331-40-4
##MOLFORM=C 8 H 18 O
##XUNITS=1/CM
##YUNITS=ABSORBANCE
##XFACTOR=1.0
##YFACTOR=0.000107953
##DELTAX=4.0
##FIRSTX=450.0
##LASTX=3966.0
##FIRSTY=0.060022
##MAXX=3966
##MINX=450
##MAXY=1.07953
##MINY=0
##NPOINTS=880
##XYDATA=(X++(Y..Y))
450.0 556 324 13 73 121 260 249 272 303 166
490.0 224 220 162 131 197 6 122 146 137 209
530.0 93 107 217 203 150 151 199 187 173 147
570.0 149 78 131 191 76 194 256 143 97 129
610.0 144 157 227 203 155 192 245 207 180 155
650.0 113 116 150 146 120 155 113 118 108 101
690.0 60 125 129 108 93 96 125 198 107 70
730.0 128 139 172 151 173 201 193 213 220 168
770.0 161 153 129 107 118 94 95 126 126 172
810.0 165 146 146 124 148 136 117 134 121 119
850.0 123 102 137 123 133 149 159 208 215 208
890.0 222 214 182 191 181 200 228 272 315 358
930.0 385 388 421 440 492 564 648 749 890 1017
970.0 1155 1341 1550 1784 1977 2136 2195 2083 1805 1465
1010.0 1149 873 743 707 733 832 884 929 876 804
1050.0 668 563 495 432 406 383 390 411 446 466
1090.0 512 546 588 643 728 821 899 959 964 899
1130.0 801 696 602 551 543 573 633 722 799 894
1170.0 950 932 885 808 741 684 668 667 674 663
1210.0 673 662 670 684 705 721 719 723 695 655
1250.0 618 572 546 509 499 494 471 468 428 414
1290.0 399 376 367 349 337 320 301 299 287 285
1330.0 295 302 329 369 409 490 644 893 1190 1499
1370.0 1790 1833 1650 1486 1376 1350 1353 1350 1212 1017
1410.0 763 550 406 336 301 296 309 342 385 451
1450.0 549 668 842 1060 1251 1483 1697 1762 1702 1502
1490.0 1238 932 629 416 289 221 184 160 138 121
1530.0 109 101 95 90 85 82 79 77 77 77
1570.0 70 72 69 67 61 62 67 60 66 58
1610.0 61 64 59 62 58 58 56 60 57 54
1650.0 54 56 58 51 53 51 54 50 51 51
1690.0 49 49 54 62 68 74 77 83 82 71
1730.0 67 59 55 45 49 51 49 48 43 39
1770.0 38 32 31 30 29 26 24 24 25 23
1810.0 16 19 18 20 17 16 18 17 16 20
1850.0 18 14 17 14 19 15 17 18 18 17
1890.0 14 16 15 14 14 13 13 17 18 15
1930.0 13 16 17 14 16 16 18 17 20 21
1970.0 23 20 17 19 20 20 19 16 17 15
2010.0 15 12 15 10 11 12 10 9 6 7
2050.0 6 3 4 6 5 4 5 6 9 9
2090.0 10 9 11 12 13 11 15 13 13 14
2130.0 10 10 6 8 3 5 6 3 3 7
2170.0 4 6 6 5 5 3 5 4 4 5
2210.0 3 5 6 2 4 5 6 7 7 8
2250.0 7 9 8 10 8 7 11 14 18 23
2290.0 23 27 27 25 26 26 23 9 9 2
2330.0 2 1 1 1 9 1 1 1 1 1
2370.0 1 9 16 22 22 22 23 25 27 24
2410.0 23 24 24 25 26 26 24 22 24 22
2450.0 21 19 21 20 25 24 24 21 20 23
2490.0 21 25 24 19 21 22 21 21 22 23
2530.0 23 25 30 25 28 31 31 32 36 40
2570.0 44 48 50 50 50 50 52 57 57 62
2610.0 61 58 65 68 76 78 82 89 91 94
2650.0 96 96 94 95 100 103 111 118 124 131
2690.0 131 134 137 137 141 143 159 163 174 187
2730.0 193 191 185 173 167 160 157 158 153 155
2770.0 156 157 162 168 175 186 192 205 224 243
2810.0 268 299 327 362 411 464 535 628 739 880
2850.0 1040 1234 1444 1725 2080 2508 2973 3361 3579 3560
2890.0 3379 3131 2886 2736 2723 2826 3019 3239 3442 3623
2930.0 3788 3970 4213 4572 5040 5750 6788 7989 9181 10000
2970.0 9893 9140 7722 6113 4751 3666 2859 2233 1727 1314
3010.0 995 749 579 449 358 297 250 217 185 170
3050.0 160 147 140 129 122 118 110 110 109 105
3090.0 102 98 100 96 95 91 95 91 93 87
3130.0 99 96 92 99 103 102 108 109 109 111
3170.0 111 111 109 108 106 111 110 108 98 91
3210.0 84 84 78 69 65 62 61 50 44 43
3250.0 41 36 37 37 30 25 32 25 24 26
3290.0 21 15 10 8 13 7 2 7 17 12
3330.0 9 5 13 8 8 13 18 15 14 11
3370.0 12 12 20 20 11 13 16 11 11 15
3410.0 16 10 24 14 16 17 18 23 24 15
3450.0 26 33 24 24 22 17 23 25 22 22
3490.0 26 20 24 21 23 26 23 23 25 13
3530.0 16 28 25 23 24 25 33 23 29 26
3570.0 30 31 28 29 32 39 21 27 21 29
3610.0 36 35 42 51 53 78 109 141 183 222
3650.0 274 332 410 476 544 573 545 460 342 230
3690.0 135 79 49 31 15 14 6 16 7 8
3730.0 2 1 1 7 4 1 5 1 8 1
3770.0 5 3 8 6 1 4 1 0 20 26
3810.0 20 23 17 21 11 32 30 22 25 27
3850.0 33 57 58 33 25 47 23 25 45 61
3890.0 34 55 60 59 36 15 49 30 11 37
3930.0 40 11 28 35 48 45 13 9 11 40
##END=
