##TITLE=1-(2-Furyl)-3-(2-thienyl)-2-propen-1-one
##JCAMP-DX=4.24
##DATA TYPE=INFRARED SPECTRUM
##ORIGIN=Sadtler Research Labs Under US-EPA Contract
##OWNER=NIST Standard Reference Data Program
##CAS REGISTRY NO=13343-95-8
##MOLFORM=C 11 H 8 O 2 S
##XUNITS=1/CM
##YUNITS=ABSORBANCE
##XFACTOR=1.0
##YFACTOR=0.000093945
##DELTAX=4.0
##FIRSTX=450.0
##LASTX=3966.0
##FIRSTY=0.002161
##MAXX=3966
##MINX=450
##MAXY=0.93945
##MINY=0
##NPOINTS=880
##XYDATA=(X++(Y..Y))
450.0 23 93 119 129 108 90 111 139 175 174
490.0 159 154 134 126 91 126 192 164 169 120
530.0 61 25 14 33 42 55 44 64 119 214
570.0 295 403 428 455 587 830 933 823 587 410
610.0 273 178 109 60 45 24 46 68 106 126
650.0 103 129 122 190 197 456 562 579 578 862
690.0 1535 2130 3112 2829 2302 1792 1176 764 556 458
730.0 449 546 1013 1616 2137 2584 2137 1595 966 508
770.0 261 190 149 137 146 204 237 279 335 464
810.0 720 1040 1456 1647 1373 994 558 368 312 349
850.0 471 717 1088 1341 1203 811 504 557 912 1041
890.0 822 292 151 189 280 532 891 1095 973 638
930.0 403 304 281 303 331 403 533 749 999 1175
970.0 1179 1000 761 562 470 450 543 721 1199 1980
1010.0 2371 2084 1629 1837 2763 4195 5134 4692 3059 1568
1050.0 933 619 429 353 378 414 413 462 679 1013
1090.0 1121 933 609 421 363 287 215 149 149 130
1130.0 132 135 166 229 408 882 1371 1511 1269 878
1170.0 623 370 213 162 170 293 560 763 784 724
1210.0 720 736 730 870 1142 1422 1561 1592 1499 1233
1250.0 914 779 782 867 964 925 938 1146 2023 3408
1290.0 4042 3310 2184 1754 1892 2108 2237 2102 1683 1083
1330.0 588 335 276 270 295 377 536 763 938 922
1370.0 712 512 517 658 835 1057 1116 889 560 361
1410.0 362 428 499 528 479 389 329 301 297 342
1450.0 438 608 918 1318 1780 2207 2563 2560 2052 1314
1490.0 742 531 449 378 346 380 493 553 507 350
1530.0 264 258 273 316 400 535 778 1127 1576 2187
1570.0 2890 3217 2946 2414 2309 2552 3005 4019 6028 8776
1610.0 10000 8000 4395 2322 1477 1028 847 828 945 1253
1650.0 1611 1920 2047 2114 2364 2951 3518 3638 3331 2449
1690.0 1663 1051 693 496 390 326 280 220 159 124
1730.0 108 104 82 72 68 75 89 101 93 61
1770.0 43 32 38 55 92 130 134 94 54 32
1810.0 26 27 32 43 54 65 65 48 30 20
1850.0 8 7 7 9 6 9 11 15 21 28
1890.0 34 42 46 50 58 58 49 37 28 23
1930.0 23 21 18 18 15 11 12 9 4 3
1970.0 3 3 5 4 3 7 11 8 11 11
2010.0 11 15 14 15 13 13 11 12 14 15
2050.0 18 18 25 34 38 43 38 32 30 32
2090.0 40 46 45 38 31 24 22 17 15 13
2130.0 14 6 2 0 2 4 10 18 24 28
2170.0 25 15 10 4 3 1 0 1 4 7
2210.0 7 8 9 11 14 17 19 16 15 13
2250.0 11 8 7 7 8 12 13 18 21 17
2290.0 15 14 8 10 10 10 14 9 21 26
2330.0 22 18 26 24 26 37 28 31 13 18
2370.0 21 29 35 41 40 37 33 32 26 17
2410.0 16 14 14 13 14 13 19 20 28 28
2450.0 31 35 34 36 38 40 33 32 27 24
2490.0 23 16 17 13 11 11 16 18 20 24
2530.0 27 24 20 25 24 29 32 32 31 30
2570.0 21 19 16 16 18 16 19 25 30 30
2610.0 29 32 38 46 52 62 67 71 66 60
2650.0 52 42 38 32 30 27 26 25 27 32
2690.0 35 36 35 35 31 31 29 28 25 25
2730.0 23 21 20 16 18 14 17 19 21 25
2770.0 26 32 29 30 33 38 41 36 37 38
2810.0 40 43 40 42 46 44 49 48 49 48
2850.0 53 46 41 36 31 23 23 23 24 23
2890.0 21 23 33 34 39 39 36 37 33 30
2930.0 27 26 23 27 20 16 12 12 13 12
2970.0 20 21 20 27 26 25 25 28 28 31
3010.0 34 43 55 63 68 77 75 80 88 94
3050.0 101 117 130 139 130 133 160 227 276 283
3090.0 271 270 248 157 97 87 94 99 109 129
3130.0 132 114 78 60 61 56 60 58 48 38
3170.0 23 15 16 14 12 10 8 9 10 3
3210.0 5 12 7 11 14 16 18 21 22 24
3250.0 23 18 28 27 34 40 42 44 46 41
3290.0 38 31 28 25 31 27 37 29 32 37
3330.0 48 63 69 64 60 53 33 35 30 25
3370.0 36 19 25 20 28 28 22 25 13 24
3410.0 29 17 18 14 23 31 22 19 23 22
3450.0 26 19 25 30 25 24 19 27 25 24
3490.0 20 24 31 20 25 28 32 33 27 34
3530.0 32 20 24 23 28 24 23 20 13 21
3570.0 15 18 20 22 26 16 23 28 24 17
3610.0 23 17 18 21 23 23 18 18 3 17
3650.0 16 23 12 25 26 20 15 25 28 25
3690.0 24 25 31 31 26 27 24 35 37 26
3730.0 33 31 38 34 23 16 19 31 27 24
3770.0 21 25 25 27 24 19 22 35 26 38
3810.0 24 34 39 35 36 46 49 53 45 36
3850.0 32 31 32 26 33 9 30 27 31 29
3890.0 46 29 25 17 28 22 27 31 37 40
3930.0 30 28 28 34 41 47 59 42 19 28
##END=
