##TITLE=2-Furoic acid, tetrahydro-5-oxo-2-phenyl-, methyl ester
##JCAMP-DX=4.24
##DATA TYPE=INFRARED SPECTRUM
##ORIGIN=Sadtler Research Labs Under US-EPA Contract
##OWNER=NIST Standard Reference Data Program
##CAS REGISTRY NO=13389-98-5
##MOLFORM=C 12 H 12 O 4
##XUNITS=1/CM
##YUNITS=ABSORBANCE
##XFACTOR=1.0
##YFACTOR=0.000166138
##DELTAX=4.0
##FIRSTX=450.0
##LASTX=3966.0
##FIRSTY=0.000000
##MAXX=3966
##MINX=450
##MAXY=1.66138
##MINY=0
##NPOINTS=880
##XYDATA=(X++(Y..Y))
450.0 0 60 81 82 68 120 128 148 173 169
490.0 148 131 114 104 108 119 137 130 137 145
530.0 151 164 150 135 106 102 75 84 77 81
570.0 78 85 89 75 82 89 96 91 114 107
610.0 107 95 98 97 85 94 97 103 89 86
650.0 84 88 97 115 135 214 258 308 418 556
690.0 807 999 1109 951 728 559 454 389 358 365
730.0 399 455 522 584 608 587 547 496 446 387
770.0 316 239 182 149 127 123 116 117 129 140
810.0 160 188 207 233 264 305 353 408 446 473
850.0 487 494 490 508 542 558 537 487 423 367
890.0 307 253 219 222 238 266 273 258 245 246
930.0 268 296 316 319 305 282 266 261 265 277
970.0 300 333 362 393 429 482 579 757 1017 1360
1010.0 1749 2097 2319 2371 2271 2160 2043 1898 1711 1474
1050.0 1237 1040 883 755 674 650 667 688 677 637
1090.0 591 575 588 617 661 710 774 873 1026 1258
1130.0 1594 2061 2603 3112 3440 3535 3416 3197 3084 3139
1170.0 3324 3512 3645 3680 3553 3309 3022 2778 2581 2395
1210.0 2175 1955 1765 1658 1612 1596 1582 1569 1585 1660
1250.0 1787 1904 1955 1899 1767 1593 1403 1237 1114 1039
1290.0 1005 994 992 993 983 958 897 805 693 617
1330.0 587 591 635 661 685 736 784 829 865 896
1370.0 917 910 805 650 503 392 321 289 251 248
1410.0 260 287 372 419 504 606 808 1014 1079 969
1450.0 762 647 602 480 360 302 286 250 212 238
1490.0 286 328 370 333 287 228 170 160 178 145
1530.0 148 134 153 165 152 124 129 152 133 110
1570.0 118 117 123 125 121 135 138 155 162 169
1610.0 157 133 134 105 119 92 117 117 106 116
1650.0 138 146 129 122 133 147 157 150 183 206
1690.0 204 220 283 317 340 354 413 484 516 587
1730.0 726 919 1111 1390 1823 2494 3350 4077 4169 3628
1770.0 2834 2097 1585 1327 1179 1145 1219 1413 1919 2992
1810.0 5062 7871 10000 9915 7771 4761 2603 1432 890 629
1850.0 482 394 343 311 292 290 265 254 248 244
1890.0 244 234 215 189 167 150 136 127 126 111
1930.0 110 115 125 139 146 137 130 129 125 124
1970.0 113 99 94 92 91 97 96 92 92 94
2010.0 96 98 101 101 99 98 94 94 92 91
2050.0 87 88 87 88 87 83 82 79 76 72
2090.0 74 71 70 71 71 70 70 70 68 68
2130.0 67 69 68 68 67 67 66 67 67 66
2170.0 66 66 66 66 65 65 66 66 65 66
2210.0 64 63 65 65 63 63 64 63 64 65
2250.0 65 66 68 70 71 75 81 86 91 99
2290.0 105 116 124 128 131 139 130 123 122 104
2330.0 98 94 89 96 120 118 109 99 101 99
2370.0 99 102 109 115 98 78 69 67 65 66
2410.0 66 66 65 65 65 66 66 66 68 69
2450.0 67 67 67 66 64 65 65 63 62 64
2490.0 63 63 64 63 65 66 64 64 62 64
2530.0 62 62 62 60 60 60 61 63 62 64
2570.0 63 62 65 64 65 67 68 67 68 67
2610.0 68 67 65 65 64 65 65 66 66 68
2650.0 70 70 69 69 69 69 69 70 68 68
2690.0 68 66 67 69 67 66 66 66 66 66
2730.0 64 64 67 64 63 65 65 64 66 65
2770.0 66 68 69 71 71 72 76 76 81 83
2810.0 83 85 89 90 93 97 102 115 132 160
2850.0 188 205 196 172 149 134 132 138 150 166
2890.0 190 224 253 274 281 279 278 276 278 282
2930.0 287 303 330 367 411 481 618 834 1003 986
2970.0 795 545 391 333 307 297 298 317 344 367
3010.0 363 342 326 328 366 434 513 573 576 523
3050.0 448 390 367 385 445 544 621 609 516 400
3090.0 340 323 307 273 235 207 190 168 151 130
3130.0 114 104 97 92 88 88 86 84 81 83
3170.0 84 79 81 77 75 71 74 73 72 72
3210.0 70 67 67 70 67 68 66 66 66 67
3250.0 68 66 65 65 64 67 64 64 66 69
3290.0 66 64 63 64 62 62 61 64 66 64
3330.0 63 63 63 60 62 64 63 61 62 64
3370.0 65 68 64 61 62 64 62 61 61 62
3410.0 63 64 62 60 61 64 64 64 65 65
3450.0 63 64 65 70 64 68 66 67 75 76
3490.0 77 83 84 86 83 81 75 66 71 67
3530.0 64 64 65 66 70 65 67 67 68 85
3570.0 98 106 120 120 116 115 106 94 96 100
3610.0 132 141 154 153 134 133 100 86 70 71
3650.0 76 73 73 65 67 71 68 78 65 68
3690.0 69 71 67 67 67 70 70 66 62 70
3730.0 68 76 67 63 74 65 72 60 60 63
3770.0 60 62 60 63 62 63 60 60 60 60
3810.0 60 66 60 69 60 60 62 62 62 62
3850.0 60 69 66 61 61 70 60 60 60 67
3890.0 60 72 60 71 65 66 62 67 70 62
3930.0 72 65 63 62 67 63 67 62 67 61
##END=
