##TITLE=Benzoic acid, 2-ethoxy-
##JCAMP-DX=4.24
##DATA TYPE=INFRARED SPECTRUM
##ORIGIN=Sadtler Research Labs Under US-EPA Contract
##OWNER=NIST Standard Reference Data Program
##CAS REGISTRY NO=134-11-2
##MOLFORM=C 9 H 10 O 3
##XUNITS=1/CM
##YUNITS=ABSORBANCE
##XFACTOR=1.0
##YFACTOR=0.000038965
##DELTAX=4.0
##FIRSTX=450.0
##LASTX=3966.0
##FIRSTY=0.017339
##MAXX=3966
##MINX=450
##MAXY=0.38965
##MINY=0
##NPOINTS=880
##XYDATA=(X++(Y..Y))
450.0 445 282 282 187 111 95 122 236 129 187
490.0 159 178 274 277 257 338 367 462 584 719
530.0 657 632 540 612 605 589 685 707 778 780
570.0 860 887 848 884 765 733 709 681 692 686
610.0 670 592 682 948 1207 1335 1478 1296 1082 994
650.0 937 839 808 781 743 997 1353 858 941 1039
690.0 1083 1132 1271 1288 1255 1057 780 781 724 686
730.0 697 772 1000 1436 2032 2885 3871 3918 3041 2167
770.0 1364 808 452 300 218 240 297 355 413 448
810.0 466 427 383 286 170 61 29 4 6 10
850.0 31 16 30 39 29 46 51 66 77 112
890.0 122 199 320 436 508 553 588 611 557 462
930.0 337 201 149 106 98 88 113 93 60 51
970.0 36 55 51 70 95 122 193 255 360 485
1010.0 673 948 1332 1789 2306 2777 3185 3516 3619 3523
1050.0 3222 2802 2375 1937 1509 1211 1100 1102 1158 1230
1090.0 1307 1319 1314 1388 1610 1907 2237 2572 2769 2682
1130.0 2262 1703 1281 1081 1097 1232 1540 1865 1913 1696
1170.0 1465 1523 1752 1977 2094 2044 1887 1780 1860 2168
1210.0 2603 3005 3349 3649 3907 4135 4240 4150 3919 3614
1250.0 3260 2908 2590 2371 2248 2229 2360 2597 2921 3239
1290.0 3478 3549 3312 2871 2466 2173 1995 1919 1931 1983
1330.0 2077 2190 2308 2451 2626 2815 3027 3211 3308 3266
1370.0 3186 3213 3402 3699 3944 4117 4125 3944 3562 3003
1410.0 2375 1860 1410 1165 977 904 883 1081 1541 2452
1450.0 3663 4700 4761 3743 2619 2171 2484 2717 2938 2925
1490.0 2519 2076 1616 1129 750 513 337 170 53 41
1530.0 0 22 12 11 31 73 96 117 210 296
1570.0 453 707 1036 1214 1320 1465 1877 2604 3107 2659
1610.0 2005 1302 656 338 175 133 68 48 43 50
1650.0 19 61 64 84 101 131 155 248 274 357
1690.0 456 613 754 968 1183 1436 1659 1842 2103 2400
1730.0 2657 2984 3590 4257 4674 4767 4762 4884 5481 6747
1770.0 8691 10000 9590 8298 5786 2994 1548 977 687 533
1810.0 406 321 262 211 175 142 139 138 116 85
1850.0 76 68 53 43 27 16 33 32 39 40
1890.0 41 51 63 73 81 90 98 100 108 125
1930.0 147 150 155 149 136 138 146 145 138 115
1970.0 112 104 94 88 89 72 72 83 82 75
2010.0 84 77 73 80 86 92 91 85 75 75
2050.0 74 74 71 70 61 57 55 55 53 51
2090.0 44 45 43 41 42 38 37 25 28 29
2130.0 33 27 29 25 20 18 15 13 18 15
2170.0 10 13 12 9 13 9 19 19 18 25
2210.0 30 22 25 22 27 24 18 19 13 6
2250.0 6 12 10 4 2 13 14 10 14 22
2290.0 21 24 21 27 27 35 38 32 41 48
2330.0 47 26 20 31 16 30 53 41 9 4
2370.0 21 8 20 32 36 41 43 47 46 47
2410.0 53 55 60 60 60 55 59 47 48 55
2450.0 56 56 55 59 57 59 61 61 56 58
2490.0 64 62 63 63 66 65 76 70 68 67
2530.0 63 63 53 58 58 65 57 66 70 73
2570.0 66 70 76 74 72 67 73 69 73 69
2610.0 71 62 65 60 47 54 54 49 50 43
2650.0 53 52 51 52 47 61 63 57 60 61
2690.0 52 53 50 55 55 65 64 65 79 85
2730.0 93 100 107 104 114 118 111 106 110 111
2770.0 107 106 116 113 123 109 112 113 106 113
2810.0 121 130 130 144 159 165 175 188 198 212
2850.0 225 241 264 287 326 357 412 468 552 602
2890.0 663 712 739 755 763 764 754 739 748 762
2930.0 801 868 947 1024 1041 994 900 799 735 737
2970.0 778 884 1058 1301 1582 1706 1747 1559 1155 905
3010.0 724 608 551 520 512 535 568 577 609 624
3050.0 621 616 616 630 668 727 818 925 1037 1032
3090.0 922 756 564 435 405 389 370 327 313 288
3130.0 276 276 276 271 275 285 273 289 295 284
3170.0 287 293 282 292 288 296 304 302 316 323
3210.0 341 350 360 367 389 410 419 436 447 458
3250.0 474 494 522 523 556 579 580 595 608 623
3290.0 645 644 654 658 675 664 688 710 698 732
3330.0 746 779 792 824 858 875 916 964 1030 1065
3370.0 1124 1189 1223 1253 1285 1327 1354 1382 1426 1469
3410.0 1526 1582 1637 1678 1688 1668 1594 1483 1362 1247
3450.0 1121 1017 925 844 775 688 632 563 509 460
3490.0 418 378 337 311 279 261 247 241 248 230
3530.0 220 216 183 183 168 162 212 327 609 897
3570.0 1056 1271 1244 990 796 571 314 164 97 70
3610.0 66 75 55 48 48 60 47 13 10 16
3650.0 24 26 21 23 21 16 14 34 14 2
3690.0 9 16 19 1 7 21 41 19 36 13
3730.0 1 4 6 0 34 27 26 16 25 19
3770.0 21 9 13 1 8 35 23 10 31 26
3810.0 27 46 46 72 32 39 23 37 20 51
3850.0 27 59 15 5 7 40 16 40 24 29
3890.0 31 40 1 33 30 26 46 61 5 9
3930.0 28 26 36 27 0 29 46 31 49 20
##END=
