##TITLE=Methanone, (4-chlorophenyl)phenyl-
##JCAMP-DX=4.24
##DATA TYPE=INFRARED SPECTRUM
##ORIGIN=Sadtler Research Labs Under US-EPA Contract
##OWNER=NIST Standard Reference Data Program
##CAS REGISTRY NO=134-85-0
##MOLFORM=C 13 H 9 Cl O
##XUNITS=1/CM
##YUNITS=ABSORBANCE
##XFACTOR=1.0
##YFACTOR=0.000036313
##DELTAX=4.0
##FIRSTX=450.0
##LASTX=3966.0
##FIRSTY=0.017176
##MAXX=3966
##MINX=450
##MAXY=0.36313
##MINY=0
##NPOINTS=880
##XYDATA=(X++(Y..Y))
450.0 473 372 75 221 297 512 492 542 347 276
490.0 261 472 917 1171 1136 711 422 291 191 166
530.0 210 184 167 163 98 79 54 122 145 302
570.0 630 458 363 335 100 84 194 141 128 67
610.0 144 173 234 213 233 266 313 333 322 371
650.0 439 624 1042 1636 1870 1497 1094 991 1193 1608
690.0 2250 2954 3407 2939 2232 1631 1288 1360 1695 2367
730.0 2954 2814 2114 1688 1492 1311 1095 829 706 578
770.0 511 545 674 843 886 923 779 604 503 476
810.0 486 542 575 658 812 1059 1443 1899 2165 1955
850.0 1442 971 625 490 400 388 396 406 405 469
890.0 525 568 649 820 1126 1817 2983 4051 4357 4189
930.0 4243 4381 3841 2715 1773 1262 933 737 650 647
970.0 567 426 315 290 320 324 409 561 710 653
1010.0 950 1743 2018 1611 821 593 499 359 338 310
1050.0 354 342 392 466 567 710 856 1102 1629 3267
1090.0 5593 6435 4732 2226 1223 1032 818 674 541 485
1130.0 412 416 438 493 538 556 548 525 584 795
1170.0 1351 1939 1911 1299 719 434 325 333 344 397
1210.0 448 497 632 857 1197 1575 1871 2023 2105 2280
1250.0 2656 3369 4495 5923 7308 8471 9735 10000 8513 5533
1290.0 3483 2914 2811 2894 2979 2992 2705 2160 1586 1076
1330.0 804 668 566 530 533 548 533 524 461 430
1370.0 391 379 408 501 619 836 1090 1273 1227 973
1410.0 697 553 435 394 383 432 434 542 740 1037
1450.0 1086 922 560 403 391 420 564 938 1523 1869
1490.0 1536 954 490 327 256 243 265 288 204 288
1530.0 269 292 293 274 355 385 543 473 811 989
1570.0 1419 1746 2189 2779 3089 3700 4023 4597 3560 2305
1610.0 1192 753 560 568 511 550 509 495 544 585
1650.0 597 681 908 1281 1934 3086 5276 6745 8750 7871
1690.0 7095 4431 3014 1570 954 743 558 478 403 529
1730.0 454 432 370 325 235 214 243 215 234 230
1770.0 252 216 278 289 290 286 234 245 201 252
1810.0 248 258 223 201 166 130 157 156 173 117
1850.0 146 134 134 118 119 104 118 148 143 177
1890.0 174 213 231 262 282 291 292 280 250 212
1930.0 182 151 144 134 154 176 190 194 193 200
1970.0 173 164 117 99 88 82 79 72 84 72
2010.0 75 75 81 69 81 88 82 76 63 64
2050.0 56 67 62 73 66 68 62 57 62 59
2090.0 62 48 56 40 43 44 42 43 44 45
2130.0 38 44 37 50 44 44 45 46 40 41
2170.0 45 38 42 49 49 49 52 56 50 53
2210.0 52 58 49 52 49 49 50 51 52 46
2250.0 58 59 64 58 63 69 72 82 88 96
2290.0 96 94 94 108 112 131 133 144 151 128
2330.0 100 84 97 78 70 72 114 101 50 21
2370.0 0 1 5 33 28 39 41 47 62 67
2410.0 67 66 67 56 62 54 45 41 37 38
2450.0 24 30 27 25 27 23 19 26 20 24
2490.0 24 23 25 26 36 27 36 40 38 45
2530.0 56 57 55 59 54 62 60 63 64 65
2570.0 63 52 57 44 42 40 40 44 42 33
2610.0 26 22 19 29 15 25 25 21 18 11
2650.0 19 12 10 6 14 15 16 8 9 6
2690.0 2 13 9 7 10 9 8 13 15 28
2730.0 32 32 41 44 53 39 39 32 33 25
2770.0 21 13 17 8 13 15 9 2 6 14
2810.0 12 6 17 14 16 22 29 25 28 34
2850.0 39 45 51 59 61 76 72 61 62 46
2890.0 33 41 38 37 31 23 36 42 35 35
2930.0 35 44 30 38 29 28 21 30 32 32
2970.0 40 45 50 46 59 51 52 58 79 94
3010.0 103 142 185 255 350 471 609 707 711 597
3050.0 496 489 594 781 1088 1464 1627 1497 1243 1165
3090.0 1163 1043 847 645 486 351 242 171 110 86
3130.0 75 72 63 60 51 51 67 59 58 36
3170.0 31 25 18 9 4 12 5 10 14 19
3210.0 12 23 41 29 20 30 32 35 40 41
3250.0 43 31 33 51 43 50 49 46 53 51
3290.0 42 60 47 60 54 52 60 60 70 67
3330.0 82 98 154 164 154 163 112 96 74 91
3370.0 77 42 43 54 51 90 85 68 77 53
3410.0 66 70 71 59 69 50 64 75 58 66
3450.0 74 75 66 74 73 81 77 64 77 56
3490.0 88 85 91 65 83 76 80 85 100 89
3530.0 68 81 75 92 96 90 103 68 94 97
3570.0 81 93 79 90 109 111 73 93 74 118
3610.0 81 96 107 79 93 60 66 94 88 112
3650.0 86 60 118 91 136 86 85 47 91 117
3690.0 85 105 131 118 127 119 114 137 120 105
3730.0 108 92 78 102 82 62 18 69 67 68
3770.0 108 79 117 83 77 101 90 107 83 34
3810.0 87 78 99 60 82 97 95 110 63 63
3850.0 112 50 54 60 77 94 42 62 56 95
3890.0 126 73 113 112 89 94 98 96 107 120
3930.0 99 70 72 105 110 107 101 116 121 84
##END=
