##TITLE=Benzene, 1-chloro-4-(chlorophenylmethyl)-
##JCAMP-DX=4.24
##DATA TYPE=INFRARED SPECTRUM
##ORIGIN=Sadtler Research Labs Under US-EPA Contract
##OWNER=NIST Standard Reference Data Program
##CAS REGISTRY NO=134-83-8
##MOLFORM=C 13 H 10 Cl 2
##XUNITS=1/CM
##YUNITS=ABSORBANCE
##XFACTOR=1.0
##YFACTOR=0.000092139
##DELTAX=4.0
##FIRSTX=450.0
##LASTX=3966.0
##FIRSTY=0.029577
##MAXX=3966
##MINX=450
##MAXY=0.92139
##MINY=0
##NPOINTS=880
##XYDATA=(X++(Y..Y))
450.0 321 411 439 400 509 692 884 1250 1291 1606
490.0 1666 1751 1607 1766 1297 1162 713 365 344 124
530.0 489 253 621 450 497 447 704 383 617 480
570.0 418 592 498 944 776 1420 1463 2240 2776 2789
610.0 2095 1467 1279 1200 1404 1158 1164 905 870 851
650.0 1015 852 1139 1300 1583 1860 1880 2440 2573 3594
690.0 4852 6362 6502 6157 4801 4101 3771 3554 3421 3061
730.0 3399 3648 4365 4859 5414 5323 4869 4014 3310 3015
770.0 2518 2439 2157 2391 2580 3202 3309 3404 3404 3638
810.0 3700 3466 3304 2818 2923 2420 2742 2997 3188 3256
850.0 2940 2430 1920 1527 975 981 738 706 551 578
890.0 489 485 243 250 201 255 342 246 378 226
930.0 427 400 489 511 607 632 880 835 955 1085
970.0 1077 1267 1207 1303 1348 1460 1552 1640 1706 2339
1010.0 3719 5931 5267 3377 1930 1812 1726 1246 929 728
1050.0 711 700 743 750 803 1077 1264 1896 3095 5473
1090.0 7320 7487 5668 3743 2630 1893 1552 1191 1131 953
1130.0 828 324 53 25 227 332 475 512 506 589
1170.0 585 949 900 1022 744 722 690 750 704 1033
1210.0 1411 1441 1573 1250 1141 908 829 809 912 1094
1250.0 1422 1654 1556 1707 1628 1669 1467 1421 1430 1312
1290.0 1007 981 896 831 792 744 835 724 760 721
1330.0 766 733 771 701 703 552 536 567 399 477
1370.0 447 514 509 573 645 808 915 1154 1460 1668
1410.0 1541 1185 993 796 795 767 883 1029 1460 1668
1450.0 2068 2134 1601 1522 1277 1356 1524 2238 3630 6625
1490.0 10000 9713 6667 3381 1807 1049 889 642 650 556
1530.0 551 502 562 436 441 416 391 442 387 515
1570.0 532 751 839 978 1131 1502 1723 2008 1797 1269
1610.0 958 641 561 477 492 405 342 339 399 336
1650.0 338 284 271 381 316 410 354 441 438 446
1690.0 385 373 280 264 286 261 298 291 369 364
1730.0 403 382 465 446 534 510 500 547 502 570
1770.0 561 597 591 574 513 525 550 570 554 465
1810.0 451 351 365 331 334 298 310 289 289 299
1850.0 279 330 300 384 388 428 504 560 593 667
1890.0 716 754 766 664 610 479 469 395 401 385
1930.0 408 432 491 491 511 534 505 530 505 483
1970.0 406 357 326 319 296 295 279 254 302 236
2010.0 267 242 265 238 260 255 268 253 265 278
2050.0 227 276 226 267 227 255 251 236 222 244
2090.0 243 233 248 215 258 220 255 246 238 253
2130.0 247 235 248 249 226 255 213 237 192 225
2170.0 210 215 232 210 220 224 240 195 259 198
2210.0 238 220 223 222 206 215 206 202 202 224
2250.0 181 217 177 203 189 183 196 196 222 229
2290.0 236 230 240 203 250 191 212 164 154 131
2330.0 87 77 50 119 128 254 143 270 84 118
2370.0 113 145 215 243 247 240 274 212 234 177
2410.0 206 215 196 200 195 191 201 209 202 261
2450.0 194 247 226 243 242 223 244 230 249 244
2490.0 230 215 270 209 245 234 234 237 246 277
2530.0 285 277 263 304 274 329 280 307 287 286
2570.0 302 281 305 303 311 304 332 283 323 287
2610.0 285 314 293 278 299 300 269 272 231 283
2650.0 244 302 258 260 264 237 259 312 283 255
2690.0 281 240 298 302 316 285 263 271 267 306
2730.0 295 256 239 269 244 338 338 282 283 291
2770.0 328 355 422 310 344 330 363 375 388 327
2810.0 306 340 285 447 324 316 308 357 354 410
2850.0 363 373 397 360 438 363 388 379 404 360
2890.0 414 371 426 403 479 501 427 485 459 609
2930.0 509 525 499 625 729 759 796 732 769 633
2970.0 563 514 582 651 573 491 567 619 618 645
3010.0 726 944 1023 1364 1700 2282 2474 2579 2280 2086
3050.0 1737 1712 1837 1958 2279 2664 3075 2958 2568 2102
3090.0 1995 1786 1707 1451 1214 1057 803 714 535 475
3130.0 394 397 331 357 275 313 302 303 331 286
3170.0 345 314 327 298 332 260 293 281 309 328
3210.0 234 308 235 297 258 262 202 258 211 283
3250.0 224 182 225 206 272 227 255 202 257 198
3290.0 267 178 195 201 186 221 154 183 123 191
3330.0 166 191 137 162 160 174 212 168 238 148
3370.0 191 151 207 166 197 120 204 178 145 198
3410.0 155 196 168 224 214 242 209 273 211 263
3450.0 250 247 298 218 253 239 214 179 172 202
3490.0 200 198 184 194 156 228 163 192 180 217
3530.0 217 221 180 196 185 176 228 161 208 137
3570.0 175 145 199 184 183 179 163 244 170 222
3610.0 174 230 220 229 148 193 192 219 227 197
3650.0 236 175 258 238 245 213 221 214 244 237
3690.0 235 230 206 254 178 210 198 210 160 186
3730.0 153 117 80 85 127 95 198 118 174 153
3770.0 173 208 163 182 184 187 183 180 136 194
3810.0 159 155 159 167 181 168 183 193 224 217
3850.0 254 208 238 228 202 207 188 194 186 200
3890.0 179 180 150 172 116 178 155 151 188 206
3930.0 195 167 202 172 203 182 0 14 14 14
##END=
