##TITLE=1-Naphthalenamine
##JCAMP-DX=4.24
##DATA TYPE=INFRARED SPECTRUM
##ORIGIN=Sadtler Research Labs Under US-EPA Contract
##OWNER=NIST Standard Reference Data Program
##CAS REGISTRY NO=134-32-7
##MOLFORM=C 10 H 9 N
##XUNITS=1/CM
##YUNITS=ABSORBANCE
##XFACTOR=1.0
##YFACTOR=0.000054495
##DELTAX=4.0
##FIRSTX=450.0
##LASTX=3966.0
##FIRSTY=0.057656
##MAXX=3966
##MINX=450
##MAXY=0.54495
##MINY=0
##NPOINTS=880
##XYDATA=(X++(Y..Y))
450.0 1058 916 1147 1124 1229 1283 1162 1159 1151 1117
490.0 1070 1142 1144 1220 1215 1251 1248 1244 1319 1290
530.0 1301 1250 1256 1237 1259 1383 1419 1547 1747 1753
570.0 1636 1535 1436 1352 1224 1173 1185 1143 1149 1067
610.0 1089 1058 1106 1086 1110 1143 1179 1207 1281 1316
650.0 1314 1331 1289 1234 1210 1152 1107 1073 1074 1069
690.0 1080 1115 1136 1138 1095 1052 971 867 813 828
730.0 935 991 1215 1442 1961 2936 4187 5099 6647 10000
770.0 7486 5871 5635 5098 4293 2916 2370 1883 1407 1089
810.0 753 689 584 578 564 627 701 739 746 807
850.0 834 650 625 558 561 474 436 400 338 309
890.0 232 240 208 210 189 189 175 165 170 175
930.0 186 171 210 213 204 221 261 208 176 172
970.0 137 129 116 149 146 167 231 363 534 701
1010.0 835 863 832 705 552 371 287 211 143 112
1050.0 95 90 74 102 134 210 328 520 730 724
1090.0 688 698 500 289 224 195 222 230 234 197
1130.0 186 180 152 96 88 107 70 97 125 142
1170.0 181 227 223 167 145 80 28 0 15 44
1210.0 107 163 191 208 185 158 143 202 277 323
1250.0 353 419 447 493 707 1069 1589 2024 2290 2214
1290.0 1995 1564 992 600 352 251 185 141 95 93
1330.0 104 133 186 240 340 417 542 624 785 999
1370.0 1217 1304 1317 1353 1281 1440 1827 2529 2805 2953
1410.0 2903 2419 1645 1025 666 397 351 404 665 970
1450.0 1315 1552 1759 1714 1408 1169 901 654 553 427
1490.0 451 546 761 1150 1472 1870 1912 1850 1665 1079
1530.0 699 452 307 230 237 287 368 431 750 996
1570.0 1334 1548 1837 2097 2229 2299 2329 2433 2611 2977
1610.0 3573 4401 5238 5818 6559 5988 5638 4370 3695 2427
1650.0 1701 1284 814 804 627 621 400 454 311 244
1690.0 230 258 248 243 358 348 369 276 321 289
1730.0 250 217 213 226 200 219 210 254 237 232
1770.0 182 145 170 150 166 152 164 156 186 224
1810.0 261 286 288 272 223 174 130 112 79 67
1850.0 65 64 69 70 80 78 133 153 204 255
1890.0 311 352 389 405 358 317 274 245 211 245
1930.0 269 271 246 205 164 113 87 65 59 49
1970.0 55 52 48 57 54 55 51 62 49 50
2010.0 46 54 52 57 67 65 68 68 69 69
2050.0 76 77 80 83 83 88 90 99 97 94
2090.0 91 96 95 85 89 87 90 88 97 91
2130.0 93 91 89 87 86 90 91 90 85 89
2170.0 88 82 81 76 80 73 74 74 74 74
2210.0 72 70 80 82 83 85 83 88 83 94
2250.0 90 92 91 98 103 101 113 119 129 118
2290.0 119 118 117 121 117 115 109 112 104 112
2330.0 116 133 139 149 156 136 132 122 152 133
2370.0 145 142 134 132 116 110 100 101 99 105
2410.0 111 112 112 107 104 95 93 83 86 82
2450.0 87 86 90 82 85 87 87 88 86 90
2490.0 95 99 95 99 96 93 94 91 96 92
2530.0 85 84 85 83 80 74 77 85 81 79
2570.0 77 83 83 84 84 82 92 87 83 79
2610.0 84 83 89 95 95 92 97 98 90 97
2650.0 97 101 95 97 95 92 100 96 92 94
2690.0 93 90 95 104 109 114 117 129 138 140
2730.0 136 139 139 130 125 121 116 105 101 88
2770.0 97 97 97 98 100 99 93 100 99 100
2810.0 103 106 107 108 114 123 126 129 132 133
2850.0 133 140 138 144 150 154 145 138 140 133
2890.0 124 126 123 122 125 130 141 141 144 163
2930.0 178 191 218 229 254 276 314 334 337 335
2970.0 321 307 285 272 274 289 322 370 474 633
3010.0 856 1098 1319 1489 1635 1742 1859 2050 2368 2741
3050.0 3101 3529 4083 4536 4577 4534 4324 3650 2785 2076
3090.0 1577 1280 1070 879 699 549 413 302 215 164
3130.0 140 132 122 118 113 126 130 130 140 137
3170.0 139 142 146 137 134 132 132 126 131 132
3210.0 143 149 145 156 162 148 149 140 134 131
3250.0 122 111 103 96 97 103 83 83 76 84
3290.0 80 88 86 81 94 73 77 86 77 92
3330.0 75 82 91 92 87 97 86 102 94 119
3370.0 111 117 138 162 202 265 349 485 611 674
3410.0 695 666 574 434 313 247 194 169 147 147
3450.0 141 152 149 181 219 285 388 537 716 842
3490.0 884 835 720 545 382 272 223 178 157 146
3530.0 134 122 103 125 113 103 92 99 109 110
3570.0 106 113 130 126 138 134 110 94 101 86
3610.0 95 103 92 105 83 98 107 104 107 95
3650.0 93 112 115 107 111 83 94 98 95 101
3690.0 91 103 101 117 94 114 102 111 121 103
3730.0 111 112 115 106 100 104 114 101 96 97
3770.0 96 105 80 95 91 114 102 94 96 90
3810.0 96 86 107 121 107 138 123 110 93 123
3850.0 117 135 119 116 114 116 137 124 126 106
3890.0 107 127 133 153 176 130 139 135 120 149
3930.0 112 153 140 142 144 148 123 140 115 96
##END=
