##TITLE=Benzoic acid, 2-amino-, methyl ester
##JCAMP-DX=4.24
##DATA TYPE=INFRARED SPECTRUM
##ORIGIN=Sadtler Research Labs Under US-EPA Contract
##OWNER=NIST Standard Reference Data Program
##CAS REGISTRY NO=134-20-3
##MOLFORM=C 8 H 9 N O 2
##XUNITS=1/CM
##YUNITS=ABSORBANCE
##XFACTOR=1.0
##YFACTOR=0.000064612
##DELTAX=4.0
##FIRSTX=450.0
##LASTX=3966.0
##FIRSTY=0.016347
##MAXX=3966
##MINX=450
##MAXY=0.64612
##MINY=0
##NPOINTS=880
##XYDATA=(X++(Y..Y))
450.0 253 231 293 334 388 431 474 506 532 551
490.0 621 698 853 1008 1039 1158 1147 1113 1026 890
530.0 755 691 644 623 605 610 677 475 512 431
570.0 362 348 344 324 334 272 309 330 363 349
610.0 343 353 364 369 370 411 398 414 400 398
650.0 420 465 542 653 718 773 711 654 629 717
690.0 815 908 1097 1030 696 568 441 344 351 440
730.0 712 1137 1619 2059 2720 2803 1734 1353 888 478
770.0 270 180 180 198 217 195 264 295 311 320
810.0 315 304 304 331 336 373 444 492 527 534
850.0 502 378 270 241 121 73 66 64 81 81
890.0 97 105 98 87 77 67 57 39 33 28
930.0 30 23 30 39 39 53 38 40 63 76
970.0 74 78 72 60 34 27 18 11 21 14
1010.0 28 50 93 161 246 318 355 367 340 301
1050.0 270 290 365 506 695 889 1087 1257 1406 1641
1090.0 2034 2617 3400 4235 4832 4896 4455 3613 2598 1793
1130.0 1301 1017 889 907 1080 1568 2616 3348 3306 3095
1170.0 2368 1222 853 887 1052 1209 1246 1186 1016 779
1210.0 635 606 667 837 1202 1910 3088 4969 7420 9414
1250.0 10000 9472 7684 5403 3903 3197 3006 3440 4645 6226
1290.0 7391 7423 6416 4681 3024 2230 1973 1822 1695 1433
1330.0 1057 780 603 470 369 280 223 181 157 127
1370.0 119 110 89 82 83 75 75 77 80 93
1410.0 106 122 160 191 336 678 1225 1633 1862 1932
1450.0 1587 1399 1370 1449 1335 1132 991 981 1130 1272
1490.0 1396 1428 1218 987 783 487 330 252 218 206
1530.0 206 247 294 357 439 577 800 1094 1347 1489
1570.0 1586 1560 1506 1642 2031 2604 3152 3492 3819 4121
1610.0 4466 4976 5164 4868 4425 3434 2313 1421 968 737
1650.0 601 557 514 522 497 502 472 479 552 681
1690.0 932 1421 2399 4094 6208 7831 8034 7931 6199 3985
1730.0 2643 1905 1434 1260 957 646 426 341 313 320
1770.0 356 325 272 237 202 182 149 129 116 93
1810.0 85 77 71 56 46 36 16 14 13 9
1850.0 0 0 1 9 9 16 12 20 35 38
1890.0 42 51 65 71 96 128 137 137 130 114
1930.0 116 116 114 108 83 59 45 28 22 21
1970.0 14 6 8 7 1 10 14 18 19 18
2010.0 21 18 20 21 29 30 39 47 56 61
2050.0 63 55 55 55 57 64 64 58 65 67
2090.0 57 51 46 43 39 39 40 40 41 41
2130.0 42 50 41 42 43 35 46 37 29 31
2170.0 31 25 24 18 18 18 12 12 19 19
2210.0 19 28 28 28 27 27 27 21 20 20
2250.0 29 27 29 29 29 33 28 33 37 38
2290.0 39 47 56 49 57 59 56 55 56 49
2330.0 52 44 54 61 61 54 70 57 79 55
2370.0 50 59 53 52 41 41 41 41 48 49
2410.0 41 40 32 27 24 20 21 17 18 18
2450.0 19 19 19 20 21 20 20 25 25 30
2490.0 20 19 23 21 28 20 29 29 29 29
2530.0 37 37 36 36 37 32 30 29 22 21
2570.0 30 22 22 22 31 21 31 30 30 33
2610.0 30 39 30 30 30 39 40 46 55 62
2650.0 60 65 62 63 55 40 31 24 24 25
2690.0 23 20 17 17 20 25 26 26 26 32
2730.0 41 41 33 33 33 30 31 26 25 25
2770.0 34 41 49 49 50 50 50 52 49 52
2810.0 56 60 65 70 65 79 94 118 181 253
2850.0 313 330 309 243 158 122 106 103 117 133
2890.0 156 188 211 234 259 276 301 309 309 305
2930.0 269 251 270 306 407 623 1040 1438 1533 1452
2970.0 1185 701 418 333 331 358 397 445 477 484
3010.0 468 462 476 531 616 684 731 735 725 687
3050.0 667 667 684 689 663 606 555 549 584 620
3090.0 605 564 447 304 207 159 136 118 103 92
3130.0 75 67 68 60 55 60 60 52 52 53
3170.0 60 60 69 59 65 65 51 50 43 45
3210.0 38 38 38 37 31 36 29 23 19 20
3250.0 14 14 24 20 23 37 37 46 47 53
3290.0 46 60 67 83 96 98 99 90 91 82
3330.0 91 82 92 105 89 99 101 127 150 211
3370.0 319 535 915 1394 1816 2018 1993 1656 1232 837
3410.0 591 442 354 302 255 222 183 150 113 90
3450.0 80 79 72 88 98 118 123 150 180 218
3490.0 266 337 432 532 711 897 1111 1262 1298 1212
3530.0 1025 764 541 366 238 160 118 86 81 67
3570.0 55 52 52 42 56 50 43 42 36 34
3610.0 40 28 24 26 26 33 20 29 22 25
3650.0 29 17 19 13 21 25 22 24 18 26
3690.0 28 37 20 26 27 34 30 35 34 25
3730.0 35 30 34 29 39 28 27 10 11 20
3770.0 18 22 12 15 18 21 20 22 26 35
3810.0 21 29 33 19 12 22 20 21 29 29
3850.0 27 38 38 27 27 19 20 23 26 39
3890.0 43 46 35 34 24 38 31 28 44 37
3930.0 37 19 23 24 28 37 37 47 47 44
##END=
