##TITLE=Benzaldehyde, 4-hydroxy-3,5-dimethoxy-
##JCAMP-DX=4.24
##DATA TYPE=INFRARED SPECTRUM
##ORIGIN=Sadtler Research Labs Under US-EPA Contract
##OWNER=NIST Standard Reference Data Program
##CAS REGISTRY NO=134-96-3
##MOLFORM=C 9 H 10 O 4
##XUNITS=1/CM
##YUNITS=ABSORBANCE
##XFACTOR=1.0
##YFACTOR=0.000048300
##DELTAX=4.0
##FIRSTX=450.0
##LASTX=3966.0
##FIRSTY=0.000000
##MAXX=3966
##MINX=450
##MAXY=0.483
##MINY=0
##NPOINTS=880
##XYDATA=(X++(Y..Y))
450.0 0 205 433 596 505 853 781 841 729 773
490.0 778 624 543 471 445 349 388 329 301 240
530.0 279 309 230 278 229 181 225 218 229 321
570.0 283 477 594 466 616 490 542 509 548 584
610.0 571 698 644 641 529 459 364 335 321 288
650.0 277 241 278 267 302 344 329 310 328 338
690.0 388 515 666 884 1126 1305 1427 1412 1327 1163
730.0 973 808 683 596 563 525 493 409 352 290
770.0 251 238 227 219 206 232 237 262 280 302
810.0 296 293 321 361 444 506 592 634 658 705
850.0 745 755 691 615 514 437 376 352 340 340
890.0 377 404 442 471 523 579 648 682 683 641
930.0 562 482 431 414 418 457 495 569 594 597
970.0 561 490 420 366 351 359 376 403 387 375
1010.0 379 379 372 389 410 511 596 675 710 720
1050.0 713 741 785 871 1011 1202 1475 1823 2262 2821
1090.0 3484 4211 4876 5379 5707 5785 5807 5726 5692 5614
1130.0 5451 5016 4302 3386 2415 1702 1294 1067 944 888
1170.0 872 924 1019 1181 1385 1664 2052 2679 3659 4865
1210.0 5934 6382 5972 4927 3696 2776 2306 2184 2242 2291
1250.0 2255 2141 2042 2041 2129 2228 2221 2059 1856 1668
1290.0 1622 1810 2339 3336 4894 6962 8815 10000 9695 8412
1330.0 6345 4495 3077 2094 1540 1238 1175 1271 1571 1970
1370.0 2320 2553 2803 3099 3367 3415 3119 2417 1756 1261
1410.0 1086 1199 1427 2037 2477 2814 2675 2262 1760 1430
1450.0 1555 1894 2555 3131 3370 3109 2569 2058 1855 1820
1490.0 2166 2775 3248 3809 3700 3235 2537 1810 1172 840
1530.0 576 571 455 478 400 493 507 477 577 634
1570.0 826 890 1225 1613 2066 2657 3018 3628 3477 3586
1610.0 3230 2892 2259 1794 1417 1062 917 713 686 552
1650.0 581 436 526 501 568 552 572 690 646 787
1690.0 892 1404 1676 3596 6032 8464 9501 8758 5562 3149
1730.0 1382 998 629 647 454 488 493 452 472 438
1770.0 459 318 386 319 332 294 299 301 270 308
1810.0 263 254 217 241 194 197 199 217 204 190
1850.0 223 221 236 227 234 193 212 210 196 196
1890.0 184 196 177 195 184 195 183 196 189 192
1930.0 211 209 226 206 238 231 229 227 229 220
1970.0 206 217 199 208 202 199 197 199 209 202
2010.0 207 201 208 201 221 219 230 232 233 248
2050.0 241 250 243 242 224 230 225 224 227 233
2090.0 233 230 241 236 243 238 242 241 236 238
2130.0 222 229 224 224 214 216 215 219 220 226
2170.0 229 225 223 217 217 206 206 202 195 196
2210.0 193 200 194 206 200 215 209 213 204 198
2250.0 203 197 198 195 200 193 195 198 208 215
2290.0 231 246 247 266 274 265 255 242 234 212
2330.0 206 197 185 211 215 252 263 249 219 210
2370.0 184 198 202 227 216 199 187 190 186 185
2410.0 187 188 181 184 188 178 188 183 185 186
2450.0 192 192 198 202 198 207 202 219 218 224
2490.0 227 232 238 230 237 232 237 237 239 246
2530.0 243 241 244 241 232 236 232 232 228 227
2570.0 221 213 213 214 217 214 214 220 224 227
2610.0 229 234 242 249 249 261 267 277 273 273
2650.0 269 279 278 277 279 288 300 313 354 401
2690.0 496 627 784 966 1152 1325 1410 1390 1271 1086
2730.0 873 710 603 530 494 470 474 473 497 516
2770.0 567 625 694 817 983 1186 1354 1457 1453 1370
2810.0 1237 1120 1026 944 883 833 837 907 1026 1145
2850.0 1219 1205 1128 1018 880 784 707 669 664 674
2890.0 693 705 712 711 724 748 787 834 881 915
2930.0 957 1025 1192 1461 1756 1965 1998 1869 1669 1483
2970.0 1368 1291 1180 1072 965 901 879 920 1023 1201
3010.0 1377 1440 1325 1110 842 641 539 492 460 443
3050.0 451 439 428 421 424 425 433 436 443 427
3090.0 405 389 368 346 334 316 293 277 269 262
3130.0 256 254 243 236 232 243 235 223 230 227
3170.0 217 227 227 221 214 218 216 217 217 215
3210.0 211 211 211 196 206 206 211 199 212 216
3250.0 208 203 220 211 204 208 205 206 196 199
3290.0 194 202 203 198 200 208 211 198 202 190
3330.0 205 190 191 194 191 199 186 189 193 202
3370.0 202 212 212 202 200 227 241 263 295 280
3410.0 299 268 236 214 195 207 191 180 182 193
3450.0 187 198 226 208 207 203 208 206 222 216
3490.0 221 210 222 237 234 240 238 255 251 301
3530.0 287 348 407 523 724 1057 1571 2209 2879 3459
3570.0 3614 3402 2779 2014 1374 795 548 400 363 300
3610.0 315 273 281 255 227 231 197 208 202 227
3650.0 256 190 218 208 223 223 224 227 205 228
3690.0 225 221 209 215 223 221 213 219 214 216
3730.0 234 227 223 232 241 218 217 217 219 233
3770.0 209 214 203 207 225 188 206 217 225 204
3810.0 204 222 183 226 194 205 217 237 245 225
3850.0 239 245 227 259 243 233 251 236 227 228
3890.0 228 213 228 226 208 216 224 207 224 236
3930.0 228 185 201 227 187 197 205 207 214 226
##END=
