##TITLE=Epichlorohydrin
##JCAMP-DX=4.24
##DATA TYPE=INFRARED SPECTRUM
##ORIGIN=Sadtler Research Labs Under US-EPA Contract
##OWNER=NIST Standard Reference Data Program
##CAS REGISTRY NO=13403-37-7
##MOLFORM=C 3 H 5 Cl O
##XUNITS=1/CM
##YUNITS=ABSORBANCE
##XFACTOR=1.0
##YFACTOR=0.000093201
##DELTAX=4.0
##FIRSTX=450.0
##LASTX=3966.0
##FIRSTY=0.000000
##MAXX=3966
##MINX=450
##MAXY=0.93201
##MINY=0
##NPOINTS=880
##XYDATA=(X++(Y..Y))
450.0 0 114 73 66 62 52 48 64 82 88
490.0 128 169 228 291 335 375 329 392 312 320
530.0 256 125 36 16 24 48 67 70 71 67
570.0 74 93 70 51 50 72 59 77 63 60
610.0 79 77 77 70 71 96 85 62 63 58
650.0 67 58 61 80 70 199 181 222 289 362
690.0 427 523 608 688 799 992 1276 1634 2273 3235
730.0 4627 6209 7787 9231 10000 9726 9336 8799 8427 6368
770.0 4569 4276 4306 4884 4330 3590 3192 2775 2858 2865
810.0 2572 2340 2275 2429 2805 3428 4336 5453 6235 5958
850.0 5482 5491 5270 4074 2638 1875 1572 1360 1200 1058
890.0 922 832 805 864 966 1100 1286 1578 1894 2113
930.0 2190 2340 2686 3123 3607 4268 4888 5084 4856 4621
970.0 4468 3944 2906 1953 1294 912 703 541 425 354
1010.0 327 311 312 311 319 324 338 363 388 421
1050.0 464 508 532 562 599 632 659 649 671 688
1090.0 688 692 683 668 641 626 633 633 665 709
1130.0 747 840 759 739 735 691 622 615 574 514
1170.0 474 495 574 652 675 653 657 659 625 550
1210.0 456 431 454 487 555 679 856 1077 1339 1692
1250.0 2180 2993 4034 4843 5414 5424 5467 5164 4465 3784
1290.0 2520 1528 1034 825 679 527 426 336 279 231
1330.0 202 199 193 191 196 210 229 256 289 308
1370.0 362 430 509 620 791 988 1144 1252 1375 1348
1410.0 1361 1295 1206 1067 1039 1114 1164 1355 1503 1694
1450.0 1633 1594 1421 1342 1192 1039 977 993 992 921
1490.0 901 784 742 562 436 291 223 176 156 138
1530.0 138 152 149 148 144 156 171 186 155 160
1570.0 177 172 175 173 170 162 143 137 128 118
1610.0 108 99 104 101 100 107 108 101 88 96
1650.0 77 108 80 78 88 106 108 115 128 158
1690.0 163 170 186 230 240 232 226 240 247 278
1730.0 331 361 340 304 279 264 236 209 178 148
1770.0 130 114 86 75 63 50 55 42 45 46
1810.0 51 49 43 46 51 53 50 44 51 52
1850.0 50 47 46 46 46 36 37 40 37 35
1890.0 41 39 40 45 52 56 67 78 82 84
1930.0 79 82 77 70 62 57 58 62 64 66
1970.0 78 85 96 100 105 103 98 87 75 70
2010.0 59 58 61 58 58 63 65 66 65 57
2050.0 65 57 54 61 57 53 53 52 62 53
2090.0 57 53 55 54 57 60 64 63 59 63
2130.0 63 63 57 57 57 58 67 66 61 69
2170.0 76 78 75 73 84 100 107 105 111 110
2210.0 114 111 110 107 115 124 141 157 184 211
2250.0 233 242 237 247 241 232 231 218 194 179
2290.0 187 172 150 134 123 109 100 85 76 70
2330.0 64 58 60 67 80 47 32 40 57 69
2370.0 89 96 104 80 69 56 52 52 47 48
2410.0 41 41 42 36 37 33 36 37 35 41
2450.0 36 42 36 37 37 38 36 36 36 36
2490.0 34 32 36 36 31 32 31 36 32 31
2530.0 30 30 26 27 25 24 21 16 16 21
2570.0 16 21 28 33 39 47 55 68 72 87
2610.0 91 92 92 98 97 87 80 75 65 67
2650.0 57 62 62 66 65 62 72 72 78 90
2690.0 103 109 113 122 124 123 124 117 113 108
2730.0 108 107 97 100 91 86 85 84 93 96
2770.0 95 98 98 109 115 115 115 117 114 119
2810.0 113 116 116 125 126 132 148 169 196 231
2850.0 255 285 290 318 354 386 410 439 450 466
2890.0 467 504 525 554 603 692 846 1053 1315 1581
2930.0 1758 1881 2012 2236 2408 2523 2665 2793 2913 3210
2970.0 3522 3476 3456 3678 3823 3909 4084 4267 4464 4590
3010.0 4614 4712 4718 4632 4121 3760 3502 3358 3331 3438
3050.0 3623 3811 4120 3970 3816 3315 2947 2295 1841 1431
3090.0 1037 733 510 372 257 191 148 117 92 85
3130.0 80 68 72 63 59 55 57 67 56 56
3170.0 51 43 49 55 46 47 44 49 39 36
3210.0 36 43 44 43 40 44 40 44 41 46
3250.0 39 31 35 45 34 41 24 24 17 20
3290.0 20 25 22 21 20 28 28 27 26 21
3330.0 21 21 24 31 28 26 26 25 37 29
3370.0 33 34 34 44 46 51 38 43 44 35
3410.0 45 48 47 63 56 42 53 48 42 41
3450.0 46 36 41 28 41 42 31 33 32 28
3490.0 34 39 35 28 37 40 44 38 39 36
3530.0 31 37 46 30 45 34 37 37 38 39
3570.0 61 53 57 71 66 82 85 111 85 88
3610.0 93 100 113 125 113 111 113 116 91 55
3650.0 67 87 88 59 51 44 53 75 78 73
3690.0 80 88 74 80 90 77 90 88 78 88
3730.0 87 77 88 89 87 105 120 122 129 123
3770.0 121 123 119 112 120 111 97 99 106 114
3810.0 109 99 111 117 111 100 111 114 128 131
3850.0 106 111 131 125 128 128 134 127 113 106
3890.0 106 110 115 110 100 93 86 89 99 95
3930.0 96 87 85 80 77 73 74 86 93 93
##END=
