##TITLE=Furan, tetrahydro-3-methyl-
##JCAMP-DX=4.24
##DATA TYPE=INFRARED SPECTRUM
##ORIGIN=Sadtler Research Labs Under US-EPA Contract
##OWNER=NIST Standard Reference Data Program
##CAS REGISTRY NO=13423-15-9
##MOLFORM=C 5 H 10 O
##XUNITS=1/CM
##YUNITS=ABSORBANCE
##XFACTOR=1.0
##YFACTOR=0.000067432
##DELTAX=4.0
##FIRSTX=450.0
##LASTX=3966.0
##FIRSTY=0.001349
##MAXX=3966
##MINX=450
##MAXY=0.67432
##MINY=0
##NPOINTS=880
##XYDATA=(X++(Y..Y))
450.0 20 49 33 12 4 14 8 3 15 26
490.0 20 38 47 50 34 35 43 49 46 56
530.0 68 35 51 59 31 43 66 78 55 64
570.0 65 60 64 48 68 46 44 40 74 73
610.0 76 55 100 120 130 132 165 158 183 231
650.0 244 309 273 290 299 381 257 254 224 158
690.0 169 176 96 133 119 125 70 97 72 87
730.0 43 108 80 71 64 71 78 93 108 101
770.0 129 145 154 158 172 180 195 188 205 213
810.0 227 227 241 236 228 211 212 202 232 207
850.0 234 222 253 269 284 312 359 372 432 541
890.0 704 870 1040 1226 1432 1659 1804 1873 1804 1670
930.0 1487 1331 1153 1005 896 801 757 742 738 810
970.0 840 883 922 948 963 926 903 862 836 829
1010.0 829 881 963 1073 1178 1294 1437 1599 1785 1963
1050.0 2080 2201 2180 2268 2354 2435 2548 2637 2743 2913
1090.0 3049 3182 3164 3071 2913 2670 2400 1990 1588 1258
1130.0 1064 912 814 729 690 610 547 476 431 409
1170.0 370 369 362 356 373 390 399 402 415 410
1210.0 402 424 422 414 396 383 375 367 351 329
1250.0 321 302 280 280 263 250 247 217 210 192
1290.0 186 169 162 158 166 180 193 203 203 243
1330.0 274 294 329 322 316 310 317 320 326 328
1370.0 365 404 405 525 540 435 443 389 303 232
1410.0 165 137 156 177 208 232 310 438 517 644
1450.0 741 764 836 823 870 831 722 598 504 433
1490.0 381 299 266 205 212 180 132 121 115 91
1530.0 70 91 76 104 72 61 62 93 75 48
1570.0 61 49 63 45 36 37 43 37 37 38
1610.0 43 44 74 44 60 45 46 67 49 65
1650.0 64 104 46 50 52 71 59 59 66 82
1690.0 48 54 78 93 62 39 50 80 46 36
1730.0 43 74 48 55 46 54 45 46 54 44
1770.0 54 59 40 45 45 40 55 44 59 51
1810.0 52 51 51 50 58 51 43 43 47 55
1850.0 35 35 36 43 36 49 34 34 34 42
1890.0 42 41 41 35 41 41 41 48 48 48
1930.0 55 63 66 74 78 74 83 84 85 92
1970.0 93 83 83 83 81 85 87 82 82 82
2010.0 77 76 74 68 67 60 59 42 54 43
2050.0 44 37 33 27 30 29 29 29 28 28
2090.0 28 28 27 27 23 28 27 21 27 27
2130.0 27 26 26 33 27 27 25 25 25 33
2170.0 33 32 26 25 31 24 32 32 32 32
2210.0 27 24 23 24 24 29 30 24 23 31
2250.0 22 30 30 30 30 29 29 29 29 28
2290.0 28 36 36 36 37 42 43 46 54 48
2330.0 57 59 66 64 57 57 73 70 81 78
2370.0 63 48 32 27 19 10 10 10 17 9
2410.0 9 17 15 17 17 16 16 10 11 8
2450.0 10 9 8 7 7 8 8 11 9 11
2490.0 7 7 7 7 7 7 6 14 13 12
2530.0 8 13 13 13 22 27 20 29 29 29
2570.0 30 30 31 36 45 44 52 51 51 59
2610.0 68 68 74 76 83 90 91 93 101 108
2650.0 125 140 155 172 179 187 197 197 197 193
2690.0 195 195 189 184 185 182 174 180 181 181
2730.0 189 197 198 206 212 215 219 222 236 239
2770.0 262 292 329 369 416 471 534 613 704 819
2810.0 964 1138 1354 1623 1957 2312 2701 3082 3486 3846
2850.0 4101 4283 4432 4535 4683 4877 5008 4966 4884 5012
2890.0 4744 4634 4508 4358 4242 4241 4320 4497 4746 5056
2930.0 5295 5460 5624 5961 6302 6918 7649 8198 8430 9023
2970.0 10000 9332 7679 6677 5627 4552 3544 2679 2003 1517
3010.0 1168 917 707 560 450 361 299 246 215 174
3050.0 158 144 128 120 105 100 96 83 83 79
3090.0 80 69 69 62 62 62 46 55 60 56
3130.0 56 46 46 47 57 46 56 56 62 47
3170.0 63 64 70 77 71 66 68 60 58 50
3210.0 41 34 27 20 19 17 14 20 11 10
3250.0 20 12 12 26 11 12 20 20 20 19
3290.0 13 12 17 13 4 12 23 12 13 13
3330.0 14 13 13 11 12 10 14 19 16 8
3370.0 14 13 8 14 15 7 15 15 15 7
3410.0 0 14 0 1 6 1 8 1 9 1
3450.0 1 2 4 5 2 5 10 2 9 1
3490.0 9 1 9 4 7 23 11 8 10 9
3530.0 19 1 11 11 19 10 11 3 13 20
3570.0 28 10 10 11 16 34 20 19 20 19
3610.0 26 20 22 23 23 40 21 25 21 27
3650.0 41 20 21 13 11 24 25 29 12 12
3690.0 22 7 6 6 6 14 21 13 8 23
3730.0 13 17 22 16 37 42 25 15 14 6
3770.0 15 6 24 23 14 19 22 17 22 15
3810.0 24 23 30 24 24 24 26 26 27 22
3850.0 32 31 25 30 39 38 38 24 30 30
3890.0 32 29 29 32 33 25 16 25 19 26
3930.0 19 25 25 24 9 16 1 1 1 1
##END=
