##TITLE=2-Propanol, 1-(2-methoxypropoxy)-
##JCAMP-DX=4.24
##DATA TYPE=INFRARED SPECTRUM
##ORIGIN=Sadtler Research Labs Under US-EPA Contract
##OWNER=NIST Standard Reference Data Program
##CAS REGISTRY NO=13429-07-7
##MOLFORM=C 7 H 16 O 3
##XUNITS=1/CM
##YUNITS=ABSORBANCE
##XFACTOR=1.0
##YFACTOR=0.000126981
##DELTAX=4.0
##FIRSTX=450.0
##LASTX=3966.0
##FIRSTY=0.031618
##MAXX=3966
##MINX=450
##MAXY=1.26981
##MINY=0
##NPOINTS=880
##XYDATA=(X++(Y..Y))
450.0 249 217 141 245 353 146 323 194 302 166
490.0 248 196 204 231 248 273 233 313 250 271
530.0 193 231 179 173 176 146 149 104 116 60
570.0 85 63 62 60 31 48 34 27 2 25
610.0 9 26 11 17 25 21 41 34 61 68
650.0 85 75 100 73 68 40 42 27 21 16
690.0 10 6 4 14 5 11 18 6 9 13
730.0 20 12 7 11 11 13 14 11 11 18
770.0 17 17 29 41 51 63 86 116 138 161
810.0 205 246 286 314 341 375 391 427 446 455
850.0 467 477 497 499 480 440 392 342 320 315
890.0 341 381 429 493 549 615 652 710 779 871
930.0 973 1088 1211 1302 1380 1416 1437 1404 1354 1270
970.0 1153 1007 853 718 610 560 549 579 652 786
1010.0 935 1067 1150 1171 1175 1197 1313 1497 1763 2076
1050.0 2386 2649 2851 3083 3260 3501 3676 3935 4196 4653
1090.0 5252 5906 6573 7115 7874 8303 9134 9569 10000 9712
1130.0 9313 8628 7748 7033 6302 5843 5350 5023 4549 4040
1170.0 3469 2909 2417 2025 1814 1736 1845 2039 2220 2174
1210.0 1964 1611 1273 1081 1004 1020 1067 1176 1290 1441
1250.0 1593 1774 1915 1931 1846 1634 1420 1217 1073 960
1290.0 897 879 933 1041 1165 1320 1415 1465 1437 1399
1330.0 1301 1248 1264 1283 1302 1282 1279 1251 1315 1434
1370.0 1687 1976 2229 2409 2363 2158 1871 1647 1426 1271
1410.0 1088 925 750 623 537 516 564 649 788 924
1450.0 1151 1321 1496 1586 1552 1411 1153 891 675 486
1490.0 363 268 220 168 149 129 111 104 91 94
1530.0 77 80 71 70 57 62 59 57 55 52
1570.0 56 44 48 44 43 42 46 45 42 44
1610.0 39 39 43 36 43 34 41 34 38 32
1650.0 42 26 42 30 29 30 27 23 24 16
1690.0 16 16 11 16 12 11 10 10 10 11
1730.0 17 22 32 35 34 28 36 30 30 30
1770.0 28 22 23 21 20 13 17 12 13 9
1810.0 9 5 6 3 4 6 3 9 2 10
1850.0 7 12 9 11 9 12 12 11 15 13
1890.0 18 14 19 19 21 25 21 24 22 26
1930.0 25 26 27 24 27 28 29 28 28 29
1970.0 32 33 39 42 45 46 52 55 59 62
2010.0 64 66 67 72 72 74 76 76 79 81
2050.0 84 85 89 93 96 97 99 100 100 99
2090.0 93 87 78 75 69 65 62 58 55 53
2130.0 52 48 45 42 40 37 37 37 37 37
2170.0 38 42 39 37 37 38 35 33 35 37
2210.0 35 34 40 37 38 36 36 34 31 28
2250.0 27 25 21 20 20 18 18 16 17 14
2290.0 16 13 11 9 7 4 5 2 2 2
2330.0 2 2 2 6 2 2 2 2 5 13
2370.0 14 12 13 10 11 16 21 20 21 22
2410.0 22 22 16 15 11 10 7 8 7 6
2450.0 8 7 9 6 8 6 6 5 6 4
2490.0 4 8 6 7 10 11 14 13 14 17
2530.0 15 16 16 18 19 20 26 26 29 35
2570.0 39 44 49 53 57 65 70 75 78 83
2610.0 85 89 90 95 97 100 104 107 115 118
2650.0 124 129 132 134 138 143 141 143 140 143
2690.0 145 151 157 163 171 179 187 196 214 231
2730.0 253 276 300 322 347 376 398 421 433 442
2770.0 449 451 458 469 495 528 575 640 733 880
2810.0 1110 1423 1744 2029 2221 2326 2376 2419 2431 2445
2850.0 2511 2679 2953 3286 3672 4026 4404 4774 5091 5312
2890.0 5465 5539 5582 5568 5417 5185 4899 4685 4582 4612
2930.0 4736 4855 4854 4639 4238 3674 3103 2651 2476 2625
2970.0 3100 3830 4734 5387 5771 5626 4892 3771 2493 1562
3010.0 1011 702 530 427 355 309 274 242 224 206
3050.0 190 180 169 165 164 156 149 147 138 135
3090.0 131 131 123 115 110 103 93 86 83 74
3130.0 68 65 63 63 56 55 53 56 55 54
3170.0 57 58 60 57 59 59 58 53 52 43
3210.0 39 36 27 19 18 14 11 11 11 9
3250.0 7 7 7 5 7 6 7 7 8 7
3290.0 2 3 7 2 3 3 2 7 4 4
3330.0 2 6 6 4 3 6 5 10 9 12
3370.0 12 17 16 23 19 19 21 17 16 14
3410.0 22 22 22 26 28 27 34 35 37 39
3450.0 48 53 57 65 73 78 85 94 99 110
3490.0 126 145 165 184 214 252 301 347 394 422
3530.0 431 429 417 396 379 365 354 341 332 317
3570.0 307 290 281 264 271 278 292 329 417 533
3610.0 725 963 1153 1166 1011 752 456 335 225 217
3650.0 201 204 193 185 158 120 92 71 36 21
3690.0 14 20 4 2 2 6 3 6 2 2
3730.0 2 8 1 10 0 5 2 2 6 2
3770.0 2 2 2 2 2 2 2 2 2 2
3810.0 2 2 2 2 2 2 2 2 2 2
3850.0 2 2 2 2 2 2 2 2 2 2
3890.0 2 2 2 2 2 2 2 2 2 2
3930.0 2 2 2 2 2 2 2 2 2 2
##END=
