##TITLE=1,3-Propanediol, 2-hydroxymethyl-2-methyl-, triacetate
##JCAMP-DX=4.24
##DATA TYPE=INFRARED SPECTRUM
##ORIGIN=Sadtler Research Labs Under US-EPA Contract
##OWNER=NIST Standard Reference Data Program
##CAS REGISTRY NO=13431-59-9
##MOLFORM=C 11 H 18 O 6
##XUNITS=1/CM
##YUNITS=ABSORBANCE
##XFACTOR=1.0
##YFACTOR=0.000169052
##DELTAX=4.0
##FIRSTX=450.0
##LASTX=3966.0
##FIRSTY=0.014369
##MAXX=3966
##MINX=450
##MAXY=1.69052
##MINY=0
##NPOINTS=880
##XYDATA=(X++(Y..Y))
450.0 85 90 89 67 65 114 61 57 50 95
490.0 69 16 44 62 75 112 117 86 52 59
530.0 53 42 57 59 63 42 41 65 56 77
570.0 64 70 67 68 88 93 112 183 235 234
610.0 184 138 115 115 141 179 231 254 268 235
650.0 190 134 95 59 54 36 32 25 20 11
690.0 12 13 18 11 13 9 5 4 4 9
730.0 0 2 4 1 7 11 7 5 15 11
770.0 4 11 14 14 15 20 23 27 30 32
810.0 44 56 63 82 104 135 182 215 227 236
850.0 225 220 220 218 227 207 204 200 218 236
890.0 235 258 261 262 252 240 219 204 192 182
930.0 172 149 133 110 102 95 105 119 150 189
970.0 248 313 364 408 425 414 407 414 449 516
1010.0 619 772 1012 1342 1715 2088 2417 2662 2808 2805
1050.0 2587 2183 1749 1390 1148 1001 897 822 754 684
1090.0 616 542 477 412 359 312 263 226 196 172
1130.0 156 150 146 147 152 166 190 213 237 269
1170.0 314 375 464 588 759 1001 1340 1833 2575 3671
1210.0 5223 7154 9034 10000 9687 8258 6689 5478 4628 3892
1250.0 3125 2412 1861 1462 1186 992 838 713 609 514
1290.0 429 364 308 262 230 203 186 168 157 149
1330.0 142 139 143 152 176 228 328 529 884 1244
1370.0 1430 1498 1696 1970 1940 1510 973 626 465 378
1410.0 307 255 225 206 200 199 202 209 203 208
1450.0 220 245 291 342 420 501 539 487 375 262
1490.0 191 145 122 106 99 93 82 79 78 70
1530.0 64 60 56 56 47 40 37 37 35 28
1570.0 22 19 21 15 11 14 12 14 16 18
1610.0 22 25 29 34 36 38 40 42 40 48
1650.0 47 55 48 50 50 52 56 61 65 76
1690.0 83 97 116 144 168 207 258 334 412 499
1730.0 590 713 882 1117 1436 1872 2581 3810 5554 7043
1770.0 6978 5262 3467 2321 1698 1291 986 758 595 476
1810.0 384 308 247 197 156 123 99 78 62 52
1850.0 44 39 36 33 31 31 28 27 26 24
1890.0 24 20 17 17 13 13 10 11 9 9
1930.0 11 9 10 12 11 13 13 11 14 12
1970.0 13 11 10 8 9 9 9 11 12 14
2010.0 16 14 15 16 15 15 17 19 20 22
2050.0 22 25 26 26 26 26 26 24 25 23
2090.0 24 24 25 24 26 26 25 28 27 27
2130.0 29 28 28 24 22 20 18 18 16 12
2170.0 10 9 7 6 7 6 5 2 2 3
2210.0 5 3 2 3 5 4 0 2 1 3
2250.0 2 2 3 4 3 5 3 4 6 6
2290.0 5 8 8 10 12 10 10 8 12 10
2330.0 10 14 13 18 19 13 14 11 21 11
2370.0 19 11 11 10 5 1 1 2 4 6
2410.0 6 4 7 8 11 10 12 12 12 14
2450.0 14 13 11 12 13 10 9 8 6 5
2490.0 5 5 4 4 4 2 0 2 1 0
2530.0 2 1 2 1 1 0 0 1 3 2
2570.0 4 3 5 4 7 6 6 6 6 6
2610.0 7 8 8 8 8 8 6 5 6 7
2650.0 8 9 9 9 9 9 9 10 12 10
2690.0 9 9 11 10 11 10 12 14 16 17
2730.0 19 25 25 25 26 26 24 24 21 21
2770.0 19 20 18 22 20 21 22 21 24 26
2810.0 24 23 26 31 32 36 38 41 46 50
2850.0 56 62 70 76 78 87 95 114 141 176
2890.0 215 252 286 307 302 278 253 237 240 253
2930.0 279 310 356 424 500 561 591 595 588 581
2970.0 583 601 619 629 629 590 490 362 260 195
3010.0 155 132 118 112 113 113 111 106 97 89
3050.0 84 80 80 74 75 75 72 69 64 59
3090.0 54 54 48 47 43 39 37 32 33 29
3130.0 27 27 24 19 18 21 18 19 16 14
3170.0 13 14 12 12 10 10 9 10 8 9
3210.0 11 7 9 9 6 5 7 6 5 4
3250.0 5 5 3 4 6 3 4 6 5 3
3290.0 5 4 5 5 7 6 8 9 3 4
3330.0 5 5 7 1 2 4 3 5 6 0
3370.0 2 5 1 7 4 5 8 6 4 4
3410.0 2 2 4 1 2 5 4 5 4 1
3450.0 3 7 7 10 7 9 10 6 14 11
3490.0 14 18 25 39 46 53 54 52 39 27
3530.0 21 13 9 10 7 2 6 6 14 13
3570.0 13 13 13 15 16 15 12 6 10 10
3610.0 11 4 1 7 4 8 7 7 5 7
3650.0 10 5 5 5 9 17 7 12 4 8
3690.0 7 6 5 8 9 3 1 5 9 5
3730.0 6 3 0 1 10 4 7 1 0 4
3770.0 6 3 2 6 2 8 1 9 9 6
3810.0 11 9 9 10 8 9 1 10 2 4
3850.0 7 8 10 4 8 9 4 5 9 14
3890.0 13 4 3 10 21 16 10 0 3 15
3930.0 17 9 10 13 14 7 5 7 5 11
##END=
