##TITLE=Heptane, 2,2,4,6,6-pentamethyl-
##JCAMP-DX=4.24
##DATA TYPE=INFRARED SPECTRUM
##ORIGIN=Sadtler Research Labs Under US-EPA Contract
##OWNER=NIST Standard Reference Data Program
##CAS REGISTRY NO=13475-82-6
##MOLFORM=C 12 H 26
##XUNITS=1/CM
##YUNITS=ABSORBANCE
##XFACTOR=1.0
##YFACTOR=0.000200803
##DELTAX=4.0
##FIRSTX=450.0
##LASTX=3966.0
##FIRSTY=0.000000
##MAXX=3966
##MINX=450
##MAXY=2.00803
##MINY=0
##NPOINTS=880
##XYDATA=(X++(Y..Y))
450.0 0 73 136 21 86 52 83 0 111 39
490.0 54 66 67 76 52 39 58 101 58 54
530.0 67 59 39 70 90 60 72 42 78 55
570.0 69 53 36 57 70 74 66 45 57 49
610.0 62 60 70 58 70 88 78 64 55 43
650.0 56 55 51 66 53 67 45 68 47 55
690.0 50 63 60 56 59 59 54 57 68 60
730.0 64 67 57 55 50 61 56 65 60 59
770.0 53 60 53 56 72 51 51 47 55 56
810.0 60 58 65 67 70 76 75 74 77 73
850.0 69 76 75 70 65 52 66 55 67 70
890.0 73 72 73 76 70 88 89 107 119 126
930.0 111 93 85 84 89 96 112 137 188 247
970.0 285 263 205 139 105 91 78 80 76 81
1010.0 77 74 73 71 69 65 68 64 62 60
1050.0 59 59 59 62 59 62 66 69 72 72
1090.0 71 70 70 76 82 82 91 87 83 73
1130.0 68 64 66 71 72 78 83 99 108 124
1170.0 136 152 173 206 248 285 324 356 388 400
1210.0 388 344 292 254 245 285 373 486 534 489
1250.0 367 238 169 137 131 129 139 140 145 142
1290.0 127 119 105 98 90 90 88 87 92 98
1330.0 110 119 142 173 228 305 417 602 899 1267
1370.0 1451 1314 1012 764 643 676 740 729 601 379
1410.0 208 158 133 135 139 154 182 214 267 325
1450.0 399 468 584 747 966 1195 1367 1453 1339 1112
1490.0 754 461 287 192 138 105 91 72 65 58
1530.0 54 52 44 43 39 39 35 39 31 35
1570.0 35 34 31 35 34 35 35 34 36 34
1610.0 37 31 32 31 33 31 31 32 34 29
1650.0 29 28 29 31 32 29 31 28 31 26
1690.0 29 31 30 27 30 34 32 30 29 29
1730.0 26 24 25 23 25 24 25 23 23 23
1770.0 22 17 20 20 21 20 18 21 19 20
1810.0 19 20 22 20 18 16 18 16 18 17
1850.0 18 18 19 18 17 19 15 18 17 19
1890.0 19 18 19 18 17 15 17 14 16 16
1930.0 17 17 18 18 16 14 13 16 14 15
1970.0 14 15 14 13 12 11 12 14 14 11
2010.0 11 12 10 11 8 9 9 11 10 9
2050.0 7 7 5 5 6 5 5 7 6 6
2090.0 6 8 5 9 7 9 7 10 10 9
2130.0 10 4 8 7 7 7 8 7 9 9
2170.0 9 8 8 8 9 11 8 9 7 9
2210.0 8 10 8 8 10 10 9 7 5 3
2250.0 4 3 4 3 2 2 4 6 8 10
2290.0 13 14 16 14 15 15 10 11 12 5
2330.0 0 1 0 0 5 6 8 8 9 8
2370.0 9 6 14 15 16 10 12 13 13 14
2410.0 14 15 12 13 11 10 11 11 11 9
2450.0 9 8 9 8 8 7 8 7 6 7
2490.0 8 8 7 9 9 10 11 13 13 14
2530.0 18 17 20 19 19 19 23 23 25 24
2570.0 25 26 27 26 28 29 29 28 30 31
2610.0 34 34 34 34 34 36 37 36 41 41
2650.0 42 46 47 49 52 52 58 62 63 66
2690.0 69 70 72 74 78 91 100 109 120 125
2730.0 119 109 103 98 100 107 105 104 98 92
2770.0 84 85 89 97 113 121 130 138 150 170
2810.0 194 221 242 270 301 342 406 484 591 729
2850.0 879 1026 1152 1336 1645 2074 2491 2736 2796 2727
2890.0 2643 2621 2711 2931 3195 3444 3565 3540 3412 3256
2930.0 3201 3318 3627 4152 4916 5997 7542 9317 10000 9262
2970.0 7145 5208 3773 2785 2134 1696 1347 1041 783 564
3010.0 406 309 241 199 168 145 124 111 101 94
3050.0 88 85 76 77 71 73 70 71 67 67
3090.0 62 57 62 59 68 63 63 61 65 63
3130.0 58 63 62 65 68 67 69 72 78 73
3170.0 82 77 83 88 88 85 86 84 80 81
3210.0 78 74 75 69 66 66 66 61 60 48
3250.0 44 38 46 38 38 32 35 32 33 30
3290.0 30 32 24 23 31 33 26 25 26 22
3330.0 20 19 24 16 13 23 20 26 26 17
3370.0 23 26 19 19 25 22 19 11 5 3
3410.0 18 12 15 1 4 9 7 14 12 15
3450.0 10 4 3 10 9 6 5 12 12 9
3490.0 13 15 8 12 6 15 12 8 2 13
3530.0 15 10 9 10 11 9 6 5 20 8
3570.0 12 7 3 5 13 11 10 10 16 15
3610.0 12 13 16 10 11 17 16 16 8 30
3650.0 22 13 19 24 20 15 11 23 9 15
3690.0 2 19 26 21 18 13 16 10 31 13
3730.0 28 17 11 24 39 20 9 17 25 24
3770.0 25 26 22 23 25 16 12 23 30 22
3810.0 30 30 25 24 33 24 20 20 17 22
3850.0 20 33 26 36 16 0 41 11 37 49
3890.0 40 24 18 39 21 17 19 49 40 18
3930.0 10 25 27 40 22 44 41 13 29 32
##END=
