##TITLE=2-(4-Aminophenyl)ethylamine
##JCAMP-DX=4.24
##DATA TYPE=INFRARED SPECTRUM
##ORIGIN=Sadtler Research Labs Under US-EPA Contract
##OWNER=NIST Standard Reference Data Program
##CAS REGISTRY NO=13472-00-9
##MOLFORM=C 8 H 12 N 2
##XUNITS=1/CM
##YUNITS=ABSORBANCE
##XFACTOR=1.0
##YFACTOR=0.000065271
##DELTAX=4.0
##FIRSTX=450.0
##LASTX=3966.0
##FIRSTY=0.037204
##MAXX=3966
##MINX=450
##MAXY=0.65271
##MINY=0
##NPOINTS=880
##XYDATA=(X++(Y..Y))
450.0 570 477 211 311 96 401 765 673 646 397
490.0 721 581 605 530 455 316 264 250 233 239
530.0 374 461 629 645 860 1237 970 557 538 327
570.0 368 22 22 207 144 166 109 199 305 302
610.0 325 434 475 508 630 1011 1290 1894 2622 3360
650.0 3924 4287 4081 3421 3050 2674 2475 2168 1972 1828
690.0 1642 1696 1621 1550 1576 1492 1598 1499 1503 1669
730.0 1593 1849 1817 2220 2408 2551 2855 3131 3396 3582
770.0 3625 3670 3886 4307 4697 4889 5042 4917 4835 4755
810.0 4568 4309 3867 3440 2921 2431 2030 1668 1424 1293
850.0 1136 1054 937 800 767 659 600 529 482 457
890.0 416 351 294 324 320 258 270 253 239 236
930.0 327 259 194 199 117 146 197 167 269 385
970.0 375 395 390 477 477 467 491 455 383 400
1010.0 463 474 500 491 506 505 562 614 593 705
1050.0 893 1082 1235 1546 1754 1886 1864 1799 1630 1470
1090.0 1285 1118 885 710 661 632 631 745 799 779
1130.0 738 659 517 333 222 150 149 133 126 198
1170.0 346 786 1086 1093 1033 658 206 75 78 76
1210.0 114 111 92 103 121 173 266 411 557 766
1250.0 1127 1775 2881 4290 5658 6355 6247 5168 3568 2257
1290.0 1428 957 733 608 533 470 420 391 365 356
1330.0 361 371 396 427 459 493 586 601 532 508
1370.0 532 516 548 513 499 427 360 270 222 222
1410.0 156 259 265 296 330 438 430 533 591 594
1450.0 551 547 481 522 534 612 571 651 675 657
1490.0 727 828 1356 2180 3669 7426 8578 10000 8416 5937
1530.0 3517 1752 1178 653 504 466 348 338 332 464
1570.0 479 535 731 754 987 1127 1305 1576 1892 2381
1610.0 3133 4266 5427 7303 7834 8448 7460 5225 4217 2214
1650.0 1454 1107 687 733 542 460 447 360 334 262
1690.0 286 304 234 307 306 353 331 233 309 283
1730.0 251 223 220 244 233 223 263 234 214 206
1770.0 193 157 186 192 189 164 187 195 185 207
1810.0 182 190 193 191 193 185 199 224 221 245
1850.0 284 346 374 401 425 400 416 371 327 276
1890.0 224 206 188 176 173 179 191 197 195 203
1930.0 186 183 164 137 148 135 137 122 122 112
1970.0 105 109 102 104 100 88 99 88 93 98
2010.0 102 109 104 112 120 124 127 116 116 118
2050.0 118 124 124 134 136 136 136 132 118 115
2090.0 101 107 105 98 101 97 86 82 70 72
2130.0 65 61 60 55 58 50 50 56 56 64
2170.0 62 64 66 55 50 50 48 48 45 46
2210.0 40 44 44 43 43 39 38 43 39 41
2250.0 46 43 44 48 60 63 71 75 84 100
2290.0 129 146 185 203 226 241 229 211 209 182
2330.0 169 150 115 136 218 210 249 175 180 142
2370.0 122 115 136 144 98 39 17 15 18 18
2410.0 19 18 20 17 26 24 24 26 25 28
2450.0 29 27 28 30 25 16 17 10 14 11
2490.0 2 2 1 8 7 10 20 25 35 50
2530.0 55 59 67 59 56 47 40 36 36 33
2570.0 24 34 46 47 51 50 59 73 74 78
2610.0 83 79 82 89 91 88 84 78 85 89
2650.0 89 89 94 98 99 104 101 106 108 107
2690.0 113 119 131 130 141 147 150 152 163 174
2730.0 181 199 209 219 223 229 227 215 214 205
2770.0 199 202 205 210 214 222 228 245 271 291
2810.0 319 356 400 456 550 671 856 1109 1432 1811
2850.0 2174 2454 2572 2548 2399 2232 2083 1945 1826 1716
2890.0 1622 1581 1650 1850 2206 2689 3230 3729 4101 4330
2930.0 4469 4594 4619 4437 4074 3481 2766 2144 1654 1266
2970.0 964 783 668 610 610 682 846 1144 1523 1884
3010.0 2138 2274 2323 2455 2746 3026 3059 2845 2432 1873
3050.0 1447 1260 1176 1099 991 872 747 641 534 467
3090.0 428 396 398 373 344 309 274 231 200 183
3130.0 170 154 141 128 106 86 75 66 52 52
3170.0 34 41 39 34 29 25 35 52 66 82
3210.0 84 93 96 93 99 110 115 108 92 86
3250.0 66 52 49 44 36 19 14 22 15 13
3290.0 13 18 5 12 15 20 24 25 46 50
3330.0 68 75 107 111 127 123 110 99 101 93
3370.0 90 99 114 144 195 274 401 568 732 831
3410.0 891 811 646 511 369 240 198 156 135 140
3450.0 143 142 155 191 240 271 335 408 498 540
3490.0 538 546 505 445 410 310 253 165 147 137
3530.0 92 56 54 29 70 48 46 11 30 51
3570.0 98 21 42 42 45 56 48 44 18 32
3610.0 33 38 20 9 1 21 27 35 19 33
3650.0 17 31 30 27 20 22 30 17 44 16
3690.0 28 51 14 46 19 17 19 14 59 56
3730.0 46 43 45 47 43 24 4 17 7 14
3770.0 2 1 8 15 12 4 1 5 1 1
3810.0 1 9 1 8 2 25 3 3 3 45
3850.0 49 15 66 113 75 119 74 34 46 9
3890.0 41 41 33 47 33 42 8 54 45 39
3930.0 30 63 72 0 73 47 126 63 34 5
##END=
