##TITLE=6-Isopropylquinoline
##JCAMP-DX=4.24
##DATA TYPE=INFRARED SPECTRUM
##ORIGIN=Sadtler Research Labs Under US-EPA Contract
##OWNER=NIST Standard Reference Data Program
##CAS REGISTRY NO=135-79-5
##MOLFORM=C 12 H 13 N
##XUNITS=1/CM
##YUNITS=ABSORBANCE
##XFACTOR=1.0
##YFACTOR=0.000087643
##DELTAX=4.0
##FIRSTX=450.0
##LASTX=3966.0
##FIRSTY=0.007713
##MAXX=3966
##MINX=450
##MAXY=0.87643
##MINY=0
##NPOINTS=880
##XYDATA=(X++(Y..Y))
450.0 88 180 267 393 633 396 464 768 623 338
490.0 330 158 191 210 112 168 249 166 138 186
530.0 143 231 267 289 441 448 370 376 301 237
570.0 167 26 134 154 139 205 263 210 296 469
610.0 697 655 615 418 215 193 161 87 53 110
650.0 199 144 215 255 153 243 235 305 216 230
690.0 202 120 185 149 86 134 147 148 87 105
730.0 106 107 293 343 384 523 762 873 1191 1369
770.0 1473 1427 1403 1707 2051 2612 3261 2231 1724 1148
810.0 675 662 803 1162 1955 2556 3148 3238 2692 1876
850.0 1267 769 541 506 619 782 1000 1195 1227 969
890.0 806 670 650 658 634 591 447 330 278 268
930.0 286 288 301 283 320 348 364 355 326 290
970.0 313 344 290 195 207 157 150 210 231 299
1010.0 402 531 669 815 872 793 716 671 684 726
1050.0 665 530 367 316 342 368 416 361 277 236
1090.0 245 256 296 380 508 681 830 871 894 779
1130.0 649 516 422 341 288 263 243 260 319 499
1170.0 772 975 1008 807 509 295 202 174 162 165
1210.0 143 144 158 170 194 235 244 232 260 261
1250.0 305 322 312 289 255 223 183 191 225 275
1290.0 381 495 619 697 720 758 814 913 955 902
1330.0 781 602 508 446 465 558 790 1065 1411 1631
1370.0 1693 1515 1298 1235 1212 1206 1063 856 567 397
1410.0 368 271 390 357 427 494 514 644 651 753
1450.0 909 1114 1289 1517 1401 1420 1267 1174 1232 1575
1490.0 2527 3415 3939 3594 2709 1336 760 506 414 353
1530.0 336 258 353 283 366 356 411 642 748 1000
1570.0 1153 1199 1158 1010 1084 1344 1757 1673 1528 1137
1610.0 733 729 599 656 628 524 512 368 262 285
1650.0 205 251 182 140 192 147 210 128 192 147
1690.0 159 122 184 194 179 176 186 233 174 200
1730.0 253 269 319 242 291 280 266 261 227 173
1770.0 166 147 126 136 169 174 277 234 257 162
1810.0 113 111 68 110 75 105 71 70 94 83
1850.0 102 82 102 119 130 177 173 235 239 241
1890.0 194 165 145 180 208 269 278 303 290 296
1930.0 315 328 340 311 262 169 117 67 50 46
1970.0 50 44 45 41 43 48 48 45 37 41
2010.0 32 38 39 37 34 32 40 42 45 48
2050.0 52 57 53 47 49 42 42 40 32 37
2090.0 43 40 37 32 37 35 30 30 36 35
2130.0 37 35 37 32 32 29 29 30 35 36
2170.0 39 40 40 41 34 31 30 29 29 34
2210.0 38 38 42 43 45 50 47 47 55 53
2250.0 63 71 74 82 90 91 88 88 84 87
2290.0 97 96 113 111 121 135 123 137 139 128
2330.0 143 130 145 127 182 121 208 167 222 196
2370.0 164 160 128 122 101 78 79 73 73 75
2410.0 74 76 72 74 78 74 73 74 74 69
2450.0 73 80 82 88 96 100 101 95 96 96
2490.0 93 91 91 89 80 74 78 77 81 79
2530.0 80 83 81 84 86 86 93 93 92 94
2570.0 100 109 106 113 115 121 125 121 126 122
2610.0 126 120 114 114 111 110 110 109 106 104
2650.0 101 96 101 103 101 107 110 108 114 109
2690.0 112 112 117 118 121 127 131 142 154 159
2730.0 170 172 171 171 171 171 171 174 187 189
2770.0 187 191 185 183 189 191 201 205 214 223
2810.0 235 246 251 261 269 276 295 316 347 393
2850.0 451 527 620 763 973 1313 1774 2246 2524 2520
2890.0 2358 2195 2114 2122 2164 2208 2250 2291 2364 2466
2930.0 2659 2921 3157 3279 3218 3175 3325 4059 5964 8398
2970.0 10000 10000 7675 5104 3258 2248 1782 1578 1507 1539
3010.0 1627 1783 1913 2018 2137 2265 2491 2681 2765 2769
3050.0 2702 2636 2626 2655 2658 2654 2696 2644 2441 2033
3090.0 1486 1010 708 559 474 398 344 300 275 268
3130.0 255 247 245 237 238 235 238 230 234 234
3170.0 238 247 252 262 271 274 271 261 252 239
3210.0 235 222 214 205 201 202 190 181 177 172
3250.0 162 161 164 154 156 148 141 142 139 140
3290.0 132 138 144 138 138 135 141 141 143 142
3330.0 141 143 141 141 147 142 146 144 149 145
3370.0 149 156 149 152 142 142 148 145 147 154
3410.0 148 142 145 145 136 148 149 139 147 138
3450.0 141 148 146 142 157 149 146 160 149 131
3490.0 146 140 149 144 141 155 146 152 141 141
3530.0 139 164 142 143 134 151 139 154 136 133
3570.0 123 174 123 194 104 181 102 191 123 178
3610.0 133 114 184 88 209 102 152 149 193 94
3650.0 247 30 259 85 212 137 115 174 101 227
3690.0 62 213 106 176 146 138 117 170 112 182
3730.0 123 125 182 66 237 0 259 59 206 122
3770.0 153 167 153 169 173 130 203 94 223 51
3810.0 264 91 235 94 173 162 188 158 169 152
3850.0 200 147 124 190 123 184 169 185 185 184
3890.0 135 221 123 202 134 211 175 165 200 143
3930.0 231 166 184 170 149 212 193 181 176 205
##END=
