##TITLE=1,2,4-Trimethoxybenzene
##JCAMP-DX=4.24
##DATA TYPE=INFRARED SPECTRUM
##ORIGIN=Sadtler Research Labs Under US-EPA Contract
##OWNER=NIST Standard Reference Data Program
##CAS REGISTRY NO=135-77-3
##MOLFORM=C 9 H 12 O 3
##XUNITS=1/CM
##YUNITS=ABSORBANCE
##XFACTOR=1.0
##YFACTOR=0.000083511
##DELTAX=4.0
##FIRSTX=450.0
##LASTX=3966.0
##FIRSTY=0.000000
##MAXX=3966
##MINX=450
##MAXY=0.83511
##MINY=0
##NPOINTS=880
##XYDATA=(X++(Y..Y))
450.0 0 138 211 272 279 214 257 213 213 173
490.0 190 247 145 194 179 179 175 203 176 184
530.0 155 184 220 161 237 214 318 106 105 160
570.0 296 120 199 136 236 218 195 235 230 207
610.0 243 240 259 270 260 300 284 279 292 275
650.0 263 240 209 198 192 162 181 155 185 203
690.0 221 277 354 471 610 652 646 562 417 337
730.0 304 290 318 370 479 556 659 737 733 719
770.0 618 494 474 434 507 558 593 648 686 663
810.0 667 632 623 663 680 733 750 784 751 690
850.0 601 546 465 412 402 360 324 275 247 235
890.0 219 241 243 254 324 385 524 630 676 684
930.0 596 491 404 329 283 266 244 264 259 280
970.0 299 314 354 371 411 468 538 626 758 910
1010.0 1174 1528 1947 2405 2803 3128 3379 3631 3829 3848
1050.0 3641 3191 2494 1841 1289 890 687 561 528 534
1090.0 539 619 744 911 1152 1346 1543 1687 1708 1684
1130.0 1560 1463 1436 1544 1929 2593 3393 3928 3972 3660
1170.0 3123 2732 2624 2536 2463 2524 2897 3675 4633 5393
1210.0 5801 5774 5538 5371 5220 5104 4727 4194 3715 3383
1250.0 3394 3755 4134 4286 4018 3390 2754 2229 1941 1725
1290.0 1566 1489 1448 1478 1505 1440 1332 1161 944 767
1330.0 597 492 393 345 358 335 310 302 278 281
1370.0 299 273 307 313 317 366 394 468 604 716
1410.0 805 900 873 981 1082 1427 1846 2188 2352 2182
1450.0 1921 1782 1886 2235 2459 2422 2265 2069 1912 1976
1490.0 2439 3614 5280 7639 9423 10000 8868 6556 4045 2352
1530.0 1447 1008 762 582 544 539 495 463 502 564
1570.0 629 715 878 1081 1309 1509 1630 1712 1728 1692
1610.0 1632 1483 1234 1023 750 629 475 392 362 312
1650.0 245 232 239 265 244 224 203 231 181 177
1690.0 190 210 150 149 183 192 179 139 181 213
1730.0 178 127 184 175 160 143 170 173 164 187
1770.0 159 146 169 158 152 162 140 158 147 172
1810.0 180 174 191 191 176 171 187 183 176 150
1850.0 180 194 187 199 189 168 193 184 173 169
1890.0 150 160 163 168 180 174 177 184 170 195
1930.0 187 194 192 172 183 186 175 188 182 181
1970.0 181 179 193 191 182 176 184 192 203 205
2010.0 222 215 221 236 239 244 236 231 231 221
2050.0 212 227 231 233 229 228 238 222 217 210
2090.0 194 187 174 162 164 150 150 146 138 152
2130.0 143 147 153 149 153 156 147 158 146 148
2170.0 157 151 156 154 156 172 165 169 171 164
2210.0 169 166 160 160 150 163 157 148 152 139
2250.0 143 145 146 151 145 139 153 142 138 140
2290.0 131 144 134 143 129 122 134 114 118 118
2330.0 93 109 128 109 168 127 95 96 96 96
2370.0 96 113 146 140 134 131 113 120 127 122
2410.0 133 122 130 131 119 129 128 124 131 131
2450.0 126 131 122 131 120 128 134 127 134 138
2490.0 134 141 143 140 146 145 146 134 139 140
2530.0 128 118 117 113 119 123 122 133 130 135
2570.0 131 118 129 133 149 132 134 135 128 121
2610.0 144 138 131 140 120 119 104 114 110 127
2650.0 137 110 102 118 111 119 129 123 127 134
2690.0 108 108 98 101 97 96 108 100 108 122
2730.0 114 125 121 125 134 120 136 135 129 141
2770.0 153 164 171 172 177 215 221 252 273 305
2810.0 352 407 499 623 789 1071 1441 1775 1902 1788
2850.0 1546 1268 1043 904 845 816 779 792 809 851
2890.0 914 985 1066 1172 1290 1422 1590 1673 1701 1745
2930.0 1847 2060 2388 2653 2826 2817 2715 2476 2168 1889
2970.0 1627 1435 1284 1206 1223 1344 1548 1941 2243 2313
3010.0 2066 1576 1093 754 592 531 481 467 466 448
3050.0 464 477 454 464 439 420 407 388 407 374
3090.0 346 338 292 278 244 239 222 186 203 210
3130.0 174 193 179 170 191 166 154 142 164 170
3170.0 159 170 165 166 147 149 136 152 154 147
3210.0 160 162 170 171 156 164 146 163 178 176
3250.0 179 173 176 195 172 161 158 156 182 168
3290.0 162 181 160 186 181 180 180 171 194 197
3330.0 160 180 169 174 180 157 172 167 155 177
3370.0 166 169 161 149 167 166 154 153 145 163
3410.0 160 161 179 159 171 176 139 161 158 147
3450.0 160 147 137 169 162 170 180 144 190 163
3490.0 152 175 188 165 151 158 160 174 207 183
3530.0 177 203 188 188 188 184 183 189 184 179
3570.0 177 160 179 132 168 160 193 187 179 196
3610.0 199 149 154 164 168 185 164 155 143 157
3650.0 175 162 159 169 132 161 184 159 181 139
3690.0 160 109 155 138 120 166 186 146 169 142
3730.0 118 164 144 149 169 155 193 182 102 162
3770.0 136 219 153 106 119 146 191 131 149 192
3810.0 201 110 185 179 204 244 208 213 176 192
3850.0 204 174 171 211 176 233 233 251 260 157
3890.0 209 143 194 191 172 174 198 177 257 253
3930.0 206 231 184 221 212 192 195 206 214 204
##END=
