##TITLE=Benzene, (1-methylpropyl)-
##JCAMP-DX=4.24
##DATA TYPE=INFRARED SPECTRUM
##ORIGIN=Sadtler Research Labs Under US-EPA Contract
##OWNER=NIST Standard Reference Data Program
##CAS REGISTRY NO=135-98-8
##MOLFORM=C 10 H 14
##XUNITS=1/CM
##YUNITS=ABSORBANCE
##XFACTOR=1.0
##YFACTOR=0.000090298
##DELTAX=4.0
##FIRSTX=450.0
##LASTX=3966.0
##FIRSTY=0.001535
##MAXX=3966
##MINX=450
##MAXY=0.90298
##MINY=0
##NPOINTS=880
##XYDATA=(X++(Y..Y))
450.0 17 41 38 20 24 23 19 1 6 46
490.0 79 17 143 197 243 329 445 498 591 735
530.0 833 862 972 839 736 596 429 342 279 282
570.0 277 356 433 500 464 498 364 307 220 173
610.0 173 149 152 152 119 32 112 111 122 91
650.0 118 113 133 149 213 337 463 691 1188 1976
690.0 3003 3739 4026 3696 2793 1866 1102 658 491 506
730.0 591 744 936 1175 1546 1993 2291 2341 1998 1504
770.0 984 603 338 222 185 136 203 203 206 194
810.0 178 147 102 64 42 36 41 35 28 52
850.0 51 67 81 66 53 59 79 68 87 125
890.0 138 171 203 231 226 211 172 134 95 98
930.0 82 101 125 175 223 274 258 262 244 213
970.0 175 169 163 178 255 338 401 486 538 601
1010.0 670 741 789 843 818 684 611 471 347 313
1050.0 376 432 482 495 478 477 499 510 517 475
1090.0 399 337 284 244 212 192 161 136 134 130
1130.0 129 138 149 144 137 131 120 121 126 131
1170.0 145 160 159 168 148 135 101 88 104 100
1210.0 127 117 139 147 178 210 243 294 349 425
1250.0 601 830 988 1031 1008 876 529 282 236 236
1290.0 258 269 314 327 331 327 320 328 336 337
1330.0 335 322 302 322 371 472 583 663 725 790
1370.0 873 960 1067 1135 1092 932 690 463 310 250
1410.0 242 231 247 270 269 319 394 596 826 1149
1450.0 1485 1777 1919 1841 1643 1368 1106 901 862 1055
1490.0 1361 1437 1381 1150 739 396 268 215 194 175
1530.0 184 175 171 165 132 125 108 110 116 101
1570.0 121 153 206 264 358 491 641 785 896 873
1610.0 769 569 370 205 101 90 80 78 75 90
1650.0 92 148 148 165 157 162 135 152 160 218
1690.0 306 466 687 863 893 910 888 695 466 336
1730.0 274 263 245 232 297 189 183 189 184 168
1770.0 172 161 158 158 192 228 264 264 247 207
1810.0 149 111 101 75 55 44 34 37 43 55
1850.0 68 87 114 132 141 154 164 170 150 136
1890.0 108 74 51 40 39 39 44 55 73 102
1930.0 134 176 197 201 197 183 172 131 104 59
1970.0 40 21 25 31 25 18 23 21 22 16
2010.0 15 22 31 37 38 43 45 53 50 50
2050.0 54 48 40 48 57 61 61 60 49 43
2090.0 26 8 11 5 2 9 5 7 7 3
2130.0 6 6 5 6 6 7 1 5 13 2
2170.0 7 13 11 11 5 5 10 9 3 4
2210.0 6 3 12 3 3 9 10 14 15 14
2250.0 26 16 15 25 22 22 28 28 35 33
2290.0 38 44 43 35 41 49 36 38 20 16
2330.0 0 9 28 45 68 17 1 0 32 44
2370.0 88 122 125 115 88 64 57 51 51 45
2410.0 50 46 51 57 51 55 49 48 53 52
2450.0 56 57 57 58 58 56 69 67 59 55
2490.0 62 66 62 64 59 58 48 54 52 58
2530.0 55 66 66 69 74 77 83 88 82 93
2570.0 94 105 112 106 114 109 104 111 102 97
2610.0 85 74 61 62 61 53 60 77 77 59
2650.0 48 40 45 60 79 111 134 152 157 157
2690.0 157 157 151 161 152 159 176 166 189 212
2730.0 219 230 258 263 268 273 254 231 214 223
2770.0 223 219 239 258 241 252 270 309 338 343
2810.0 354 374 386 407 405 442 467 474 502 542
2850.0 604 733 979 1374 1790 2239 2707 3249 3717 3901
2890.0 3864 3530 3013 2574 2403 2503 2843 3360 3946 4523
2930.0 4971 5156 5078 4756 4276 3920 3991 4783 6191 8365
2970.0 9792 10000 8704 6574 4283 2440 1484 1096 954 931
3010.0 950 1030 1248 1588 2121 2655 3035 3048 2730 2284
3050.0 1784 1510 1512 1773 2260 2617 2776 2700 2421 2021
3090.0 1748 1523 1295 1110 917 780 655 544 430 342
3130.0 284 251 214 202 201 183 207 212 213 208
3170.0 202 191 197 177 195 169 161 150 146 134
3210.0 120 117 110 114 106 103 85 79 88 105
3250.0 81 72 90 73 68 74 84 103 89 91
3290.0 95 86 76 70 70 55 74 53 57 58
3330.0 31 42 53 65 66 45 60 62 49 49
3370.0 41 43 58 59 66 68 68 83 69 65
3410.0 59 66 52 19 49 28 43 50 54 44
3450.0 43 46 50 66 35 48 41 32 40 22
3490.0 29 23 12 17 29 29 24 21 23 48
3530.0 22 36 8 25 21 19 39 32 25 29
3570.0 38 34 42 17 23 34 28 25 3 28
3610.0 38 37 19 41 40 38 56 65 58 59
3650.0 74 78 64 52 53 45 48 49 46 30
3690.0 40 53 51 42 35 46 30 40 26 33
3730.0 40 38 43 29 29 24 13 28 16 26
3770.0 27 19 26 15 17 19 27 14 21 33
3810.0 26 35 28 27 27 14 12 26 19 21
3850.0 30 27 23 30 41 44 39 38 31 35
3890.0 10 10 15 21 14 22 22 21 20 32
3930.0 39 41 42 28 19 25 52 69 76 78
##END=
