##TITLE=2-Naphthalenol
##JCAMP-DX=4.24
##DATA TYPE=INFRARED SPECTRUM
##ORIGIN=Sadtler Research Labs Under US-EPA Contract
##OWNER=NIST Standard Reference Data Program
##CAS REGISTRY NO=135-19-3
##MOLFORM=C 10 H 8 O
##XUNITS=1/CM
##YUNITS=ABSORBANCE
##XFACTOR=1.0
##YFACTOR=0.000043677
##DELTAX=4.0
##FIRSTX=450.0
##LASTX=3966.0
##FIRSTY=0.113035
##MAXX=3966
##MINX=450
##MAXY=0.43677
##MINY=0
##NPOINTS=880
##XYDATA=(X++(Y..Y))
450.0 2588 1691 2257 2038 3418 2838 1758 1447 1003 560
490.0 403 263 177 151 161 173 332 396 416 434
530.0 476 335 339 319 286 168 98 93 78 89
570.0 93 153 194 179 143 133 95 98 79 184
610.0 322 576 757 777 791 641 371 265 224 150
650.0 104 80 44 16 54 36 56 79 90 117
690.0 125 94 148 164 400 729 977 1058 1330 1428
730.0 1644 2082 2710 3669 2768 2081 1825 1148 698 413
770.0 326 273 399 519 793 1084 1480 1880 1805 1722
810.0 1458 1294 1413 1676 2198 2629 3814 3588 3048 2985
850.0 2194 1558 1242 970 925 923 921 657 573 504
890.0 585 956 1172 1226 1232 937 563 431 427 417
930.0 400 411 377 404 431 680 1148 1255 1210 1144
970.0 738 330 218 165 143 137 129 133 107 155
1010.0 240 317 313 312 261 161 131 119 126 127
1050.0 139 136 154 153 176 179 195 220 224 251
1090.0 273 338 381 435 569 1067 2111 2907 3407 3831
1130.0 3193 2464 2415 2427 2605 2997 3701 5124 6950 7836
1170.0 8860 9340 10000 9808 8998 8167 6379 4239 3449 3257
1210.0 3389 3054 2709 2317 1609 971 751 835 967 1314
1250.0 1945 2529 3126 3728 4068 4162 3676 3013 2397 1248
1290.0 753 494 267 197 176 190 205 282 314 414
1330.0 452 496 509 563 618 726 989 1198 1361 1493
1370.0 1847 2110 2257 2425 2355 2014 1390 983 605 379
1410.0 207 326 193 345 277 356 281 484 716 1053
1450.0 1267 1403 1749 1773 1959 2067 1884 1705 1257 901
1490.0 905 933 852 1296 1925 2969 3310 3752 3277 2262
1530.0 1329 781 352 462 263 326 199 337 364 434
1570.0 662 933 1158 1452 1592 1774 2089 2730 3110 3345
1610.0 3126 2923 2579 3010 3974 4863 5158 4609 3719 2623
1650.0 1615 1318 954 925 962 1026 1041 946 784 786
1690.0 523 439 401 289 263 211 224 181 231 201
1730.0 211 218 262 198 225 229 193 227 211 247
1770.0 223 281 205 198 129 158 127 158 142 152
1810.0 174 162 158 155 167 147 144 108 111 56
1850.0 61 46 39 55 84 104 147 172 197 246
1890.0 268 265 263 259 240 208 222 199 183 186
1930.0 219 242 227 205 148 81 24 16 23 9
1970.0 17 28 30 28 32 23 24 24 12 7
2010.0 6 23 10 20 27 33 18 26 24 25
2050.0 32 40 36 33 39 46 64 75 70 67
2090.0 53 47 20 26 14 19 6 21 27 29
2130.0 26 24 29 22 24 20 31 27 38 32
2170.0 36 39 39 39 25 35 19 21 14 16
2210.0 13 12 17 14 18 17 22 19 20 21
2250.0 27 26 20 38 36 53 44 67 68 73
2290.0 82 92 92 101 114 120 126 139 155 134
2330.0 168 194 153 174 198 131 202 153 159 166
2370.0 161 124 134 123 118 108 116 121 119 124
2410.0 104 101 92 105 102 100 97 102 90 91
2450.0 88 89 106 108 103 103 110 89 91 82
2490.0 81 81 80 83 85 92 85 90 81 83
2530.0 84 76 75 72 82 81 80 78 81 93
2570.0 95 92 97 86 76 73 84 84 76 75
2610.0 68 69 69 64 67 80 87 91 97 94
2650.0 85 81 83 73 59 53 56 59 51 58
2690.0 55 57 60 51 52 60 58 66 70 70
2730.0 77 78 88 90 92 97 86 89 89 98
2770.0 90 86 91 81 86 73 91 79 81 73
2810.0 84 88 85 97 107 111 93 104 102 103
2850.0 84 101 97 105 91 89 106 98 97 95
2890.0 106 100 126 120 130 131 135 136 132 147
2930.0 151 161 185 206 227 247 271 299 325 360
2970.0 380 403 427 432 443 468 492 523 570 660
3010.0 781 985 1204 1413 1581 1693 1741 1726 1723 1857
3050.0 2187 2654 3190 3575 3651 3668 3447 2866 2326 1768
3090.0 1248 945 758 628 530 431 339 261 210 153
3130.0 156 144 122 127 126 130 130 135 123 123
3170.0 133 123 122 133 146 121 120 128 119 107
3210.0 125 121 125 117 116 112 120 132 119 110
3250.0 108 101 94 90 101 109 107 102 107 105
3290.0 110 110 102 104 125 101 97 113 130 135
3330.0 106 131 118 119 129 115 113 125 128 135
3370.0 159 126 144 130 141 136 145 138 142 144
3410.0 119 122 115 124 110 94 90 98 114 90
3450.0 103 110 81 89 88 81 91 82 85 92
3490.0 102 101 74 97 51 95 72 75 97 61
3530.0 97 82 76 91 66 64 97 30 126 22
3570.0 80 103 85 117 49 179 102 101 123 92
3610.0 77 62 169 163 329 454 890 1800 3372 4907
3650.0 5360 5833 5173 3162 2049 678 308 57 154 68
3690.0 86 123 38 95 77 114 64 70 44 86
3730.0 35 125 60 188 0 218 19 111 127 111
3770.0 127 105 168 140 121 103 115 52 167 49
3810.0 223 65 159 127 109 150 147 93 174 169
3850.0 104 114 96 104 111 91 141 120 173 89
3890.0 179 47 196 99 129 102 178 130 123 174
3930.0 138 179 152 170 148 141 147 169 138 177
##END=
