##TITLE=Benzene, 1,4-dibutoxy-2-nitro-
##JCAMP-DX=4.24
##DATA TYPE=INFRARED SPECTRUM
##ORIGIN=Sadtler Research Labs Under US-EPA Contract
##OWNER=NIST Standard Reference Data Program
##CAS REGISTRY NO=135-15-9
##MOLFORM=C 14 H 21 N O 4
##XUNITS=1/CM
##YUNITS=ABSORBANCE
##XFACTOR=1.0
##YFACTOR=0.000058450
##DELTAX=4.0
##FIRSTX=450.0
##LASTX=3966.0
##FIRSTY=0.000000
##MAXX=3966
##MINX=450
##MAXY=0.5845
##MINY=0
##NPOINTS=880
##XYDATA=(X++(Y..Y))
450.0 0 513 710 799 548 715 671 659 670 573
490.0 646 752 697 652 619 744 657 672 648 729
530.0 723 664 679 751 703 748 661 632 700 626
570.0 660 640 667 662 702 715 670 690 668 621
610.0 748 686 706 680 652 719 658 706 694 599
650.0 671 649 653 661 652 824 822 810 801 755
690.0 781 733 758 860 864 871 914 937 997 1039
730.0 1112 1115 1135 1134 1165 1002 964 1010 1081 1029
770.0 1104 1180 1252 1292 1336 1387 1405 1582 1822 2112
810.0 2470 2482 2233 1895 1564 1406 1277 1207 1224 1242
850.0 1377 1455 1515 1492 1476 1569 1553 1445 1301 1137
890.0 1077 1006 953 935 916 926 932 879 923 960
930.0 1011 1016 1082 1179 1212 1326 1419 1625 1830 1979
970.0 2198 2318 2377 2330 2223 2096 2075 2235 2424 2773
1010.0 3204 3544 3855 4187 4301 4119 3682 3181 2722 2245
1050.0 2006 2056 2323 2678 2845 2763 2501 2186 1895 1622
1090.0 1474 1310 1272 1229 1183 1201 1245 1294 1372 1451
1130.0 1620 1784 1939 1969 1841 1630 1389 1231 1160 1049
1170.0 1051 1077 1158 1312 1487 1844 2460 3576 5270 7425
1210.0 9215 9893 9360 8059 6564 5210 4260 3763 3579 3631
1250.0 3945 4423 5084 5800 6553 7126 7095 6240 5003 3987
1290.0 3347 2945 2752 2638 2388 2203 2107 1807 1718 1717
1330.0 1796 1841 2082 2478 2928 3556 4160 4546 4288 3643
1370.0 2995 2646 2583 2849 3182 3035 2575 2071 1733 1451
1410.0 1472 1539 1647 1692 1590 1590 1608 1636 1733 1683
1450.0 1858 2102 2475 3238 4143 5253 5329 4652 4064 3903
1490.0 5225 7020 9118 9902 8358 6599 5863 5506 5844 6010
1530.0 6328 6983 7670 9105 10000 9785 8544 6571 4931 4170
1570.0 3564 3249 2951 2434 2068 1648 1350 1255 1068 1077
1610.0 1036 1023 1047 977 977 874 835 810 733 759
1650.0 746 726 707 672 698 714 675 688 647 700
1690.0 662 649 670 689 701 623 629 679 620 608
1730.0 626 643 641 603 630 651 629 640 638 638
1770.0 618 613 601 600 601 613 600 637 596 604
1810.0 596 590 595 575 609 592 597 583 576 606
1850.0 598 590 609 594 629 618 606 596 598 609
1890.0 617 596 586 560 592 578 575 598 598 576
1930.0 558 554 582 600 579 578 578 589 594 593
1970.0 595 602 594 579 579 596 610 634 636 586
2010.0 596 608 645 632 648 654 653 668 614 623
2050.0 625 606 621 641 644 615 619 605 613 604
2090.0 606 614 589 588 589 586 548 540 564 572
2130.0 566 548 581 577 554 556 561 548 560 546
2170.0 560 556 572 556 546 554 553 548 538 550
2210.0 541 544 561 540 533 540 538 540 538 539
2250.0 543 525 542 542 540 535 537 543 537 548
2290.0 551 535 544 549 537 525 554 562 564 556
2330.0 548 566 552 560 571 569 602 594 525 560
2370.0 573 531 553 555 555 556 559 567 558 577
2410.0 566 570 565 571 584 582 578 583 583 582
2450.0 581 584 584 578 590 587 594 605 598 596
2490.0 603 610 613 607 600 597 605 612 594 598
2530.0 611 593 597 593 595 598 597 589 602 591
2570.0 594 570 578 583 587 578 571 571 586 574
2610.0 576 570 572 577 586 573 577 569 574 570
2650.0 586 590 596 587 592 596 606 607 608 603
2690.0 610 613 624 624 631 637 625 632 648 656
2730.0 661 670 693 702 717 736 733 731 726 727
2770.0 718 718 714 715 728 733 740 754 769 794
2810.0 789 811 845 870 899 942 983 1043 1116 1219
2850.0 1362 1506 1627 1775 1983 2311 2704 3111 3492 3733
2890.0 3609 3258 2974 2879 2914 3075 3338 3606 3749 3850
2930.0 4033 4321 4782 5293 5641 5603 5289 5196 5466 6020
2970.0 6564 6525 5471 4057 3002 2327 1870 1562 1351 1196
3010.0 1098 1030 974 916 882 857 831 818 826 824
3050.0 846 881 928 916 884 845 801 808 810 806
3090.0 784 745 717 675 661 644 628 624 611 615
3130.0 603 596 594 585 582 591 580 562 582 573
3170.0 564 577 579 584 575 581 574 575 563 574
3210.0 578 561 550 552 558 578 562 545 555 550
3250.0 552 561 567 555 547 551 548 541 559 549
3290.0 573 569 563 576 574 565 561 559 572 552
3330.0 565 559 561 579 562 568 570 565 568 559
3370.0 567 570 570 572 572 569 569 561 573 574
3410.0 562 574 581 566 569 564 570 563 561 553
3450.0 567 574 569 560 549 567 572 566 560 568
3490.0 562 559 553 554 551 560 548 556 547 548
3530.0 549 547 564 556 557 548 569 567 556 569
3570.0 523 566 554 560 553 558 558 545 558 539
3610.0 539 545 562 553 546 546 573 561 560 547
3650.0 556 546 568 559 554 562 557 570 531 557
3690.0 548 587 556 596 561 556 549 553 555 553
3730.0 569 584 564 557 560 549 561 525 572 537
3770.0 555 555 537 578 557 560 567 564 607 574
3810.0 554 566 555 547 543 551 586 554 562 535
3850.0 552 596 532 554 554 563 584 606 534 544
3890.0 546 586 571 598 578 568 561 553 571 580
3930.0 608 555 616 580 591 614 636 596 546 600
##END=
