##TITLE=Benzene, 1,2-diethyl-
##JCAMP-DX=4.24
##DATA TYPE=INFRARED SPECTRUM
##ORIGIN=Sadtler Research Labs Under US-EPA Contract
##OWNER=NIST Standard Reference Data Program
##CAS REGISTRY NO=135-01-3
##MOLFORM=C 10 H 14
##XUNITS=1/CM
##YUNITS=ABSORBANCE
##XFACTOR=1.0
##YFACTOR=0.000129242
##DELTAX=4.0
##FIRSTX=450.0
##LASTX=3966.0
##FIRSTY=0.035412
##MAXX=3966
##MINX=450
##MAXY=1.29242
##MINY=0
##NPOINTS=880
##XYDATA=(X++(Y..Y))
450.0 274 200 246 277 300 309 280 260 213 216
490.0 192 163 143 107 95 76 61 51 55 63
530.0 80 94 130 160 202 216 205 154 117 83
570.0 60 58 45 64 72 93 84 67 44 39
610.0 20 16 7 13 15 13 14 16 21 18
650.0 14 4 13 16 2 24 25 22 31 57
690.0 92 138 206 273 324 387 443 463 494 538
730.0 649 905 1423 2109 2665 3725 3836 2615 2065 1318
770.0 745 466 377 364 363 365 348 320 294 276
810.0 249 215 175 138 104 84 63 61 57 55
850.0 56 61 75 83 81 72 63 54 53 56
890.0 49 38 39 34 31 28 26 31 40 59
930.0 77 87 167 133 118 143 165 195 226 237
970.0 224 195 158 123 101 84 72 61 61 58
1010.0 65 83 113 162 211 257 281 294 317 369
1050.0 475 605 695 709 651 526 362 239 160 112
1090.0 86 79 77 75 79 84 92 105 119 132
1130.0 136 126 109 81 57 48 46 49 58 63
1170.0 69 69 73 74 67 62 59 58 53 55
1210.0 54 52 53 53 59 70 85 101 111 119
1250.0 118 111 102 94 93 93 95 102 107 114
1290.0 119 126 133 145 164 193 237 296 338 359
1330.0 348 317 263 206 166 140 125 126 143 189
1370.0 271 371 490 583 507 437 330 238 188 168
1410.0 161 162 182 192 219 263 343 472 660 917
1450.0 1152 1336 1464 1488 1426 1357 1286 1265 1356 1513
1490.0 1564 1486 1275 928 557 353 252 197 165 129
1530.0 110 94 86 82 72 64 59 67 63 63
1570.0 79 90 105 118 137 169 215 294 366 405
1610.0 401 356 262 165 106 73 61 57 51 51
1650.0 54 56 47 44 45 49 59 68 88 101
1690.0 97 89 80 62 47 44 51 64 62 62
1730.0 60 59 43 31 27 26 23 24 22 21
1770.0 27 30 31 39 59 89 120 134 131 112
1810.0 82 51 39 47 69 83 85 76 62 42
1850.0 23 17 23 30 41 57 60 61 52 44
1890.0 42 63 105 155 184 181 164 122 75 59
1930.0 73 105 130 134 121 93 51 19 9 4
1970.0 3 0 2 2 2 4 4 3 5 6
2010.0 8 8 12 15 16 16 18 13 10 8
2050.0 7 6 3 2 4 1 0 3 0 2
2090.0 6 5 5 6 5 2 2 0 0 0
2130.0 0 0 1 1 3 2 2 6 5 3
2170.0 3 3 1 0 1 1 1 1 1 2
2210.0 1 1 1 2 4 5 7 6 7 7
2250.0 7 6 7 6 7 5 7 7 14 15
2290.0 15 14 16 16 17 21 22 27 29 32
2330.0 33 27 31 26 26 27 7 11 3 5
2370.0 1 7 10 13 12 9 7 9 10 13
2410.0 15 17 23 23 26 26 28 27 23 19
2450.0 14 11 11 7 9 8 11 10 12 12
2490.0 12 14 14 15 15 16 15 18 19 18
2530.0 20 18 18 19 19 21 19 18 20 18
2570.0 16 18 17 17 18 18 19 21 24 27
2610.0 31 34 41 47 52 56 57 58 52 45
2650.0 36 31 27 26 23 21 22 24 24 26
2690.0 27 33 38 40 38 40 43 42 44 57
2730.0 73 92 108 115 110 101 90 90 97 109
2770.0 119 132 141 152 159 161 162 162 162 165
2810.0 173 180 195 217 238 266 298 337 380 431
2850.0 497 578 684 843 1087 1472 2051 2749 3405 3836
2890.0 3734 3439 3019 2639 2390 2254 2179 2144 2188 2363
2930.0 2725 3300 3996 4534 4562 4395 4099 3982 4687 6573
2970.0 8740 10000 9894 8379 5708 3489 2213 1593 1322 1271
3010.0 1409 1725 2120 2426 2545 2454 2136 1721 1411 1248
3050.0 1209 1296 1481 1712 1954 2165 2222 2081 1744 1322
3090.0 935 647 523 490 474 438 383 314 251 206
3130.0 175 161 158 160 164 171 178 185 182 173
3170.0 160 142 120 99 84 71 57 46 40 33
3210.0 30 28 27 24 24 24 22 23 21 22
3250.0 17 21 19 19 15 12 12 10 8 11
3290.0 13 13 15 15 12 11 13 10 16 12
3330.0 10 10 10 10 8 8 10 12 14 10
3370.0 12 6 10 8 10 6 8 9 9 7
3410.0 7 8 6 12 10 12 9 12 10 9
3450.0 4 3 8 9 4 8 10 4 7 7
3490.0 8 9 10 4 13 7 6 10 12 10
3530.0 11 9 6 7 11 3 10 8 10 4
3570.0 14 9 7 8 6 6 0 2 8 14
3610.0 14 11 14 17 17 11 5 11 18 21
3650.0 28 30 30 25 20 15 15 12 9 8
3690.0 20 21 15 17 16 24 21 17 21 16
3730.0 16 22 21 17 24 14 20 18 10 18
3770.0 18 23 19 16 14 12 8 4 5 19
3810.0 15 13 7 15 25 26 9 20 17 22
3850.0 20 23 21 14 15 24 27 29 15 21
3890.0 26 12 5 11 8 16 13 18 11 18
3930.0 27 40 33 21 19 23 26 24 12 7
##END=
