##TITLE=Benzenemethanol, 2-chloro-.alpha.-methyl-
##JCAMP-DX=4.24
##DATA TYPE=INFRARED SPECTRUM
##ORIGIN=Sadtler Research Labs Under US-EPA Contract
##OWNER=NIST Standard Reference Data Program
##CAS REGISTRY NO=13524-04-4
##MOLFORM=C 8 H 9 Cl O
##XUNITS=1/CM
##YUNITS=ABSORBANCE
##XFACTOR=1.0
##YFACTOR=0.000080420
##DELTAX=4.0
##FIRSTX=450.0
##LASTX=3966.0
##FIRSTY=0.086612
##MAXX=3966
##MINX=450
##MAXY=0.8042
##MINY=0
##NPOINTS=880
##XYDATA=(X++(Y..Y))
450.0 1077 1028 945 789 501 381 219 246 263 352
490.0 521 761 564 404 361 575 330 94 208 362
530.0 389 267 391 445 637 491 336 112 214 312
570.0 308 141 87 274 418 391 178 644 828 1027
610.0 664 650 448 391 160 179 150 117 196 153
650.0 169 37 220 204 286 204 547 823 1192 1490
690.0 1677 1581 1194 788 489 363 232 400 609 957
730.0 1187 1635 2595 4416 5735 7465 10000 5366 4545 2903
770.0 1532 907 805 723 496 175 201 251 242 79
810.0 84 169 173 101 100 149 146 208 140 162
850.0 63 219 238 246 199 301 333 385 509 799
890.0 1174 1507 1923 2045 1915 1436 1068 769 616 397
930.0 409 521 552 629 648 543 455 392 297 336
970.0 314 432 465 514 556 927 1369 1867 2254 2583
1010.0 2611 2299 1978 2011 2745 3782 4796 5408 6228 6243
1050.0 5937 5317 4348 3205 2510 2296 2288 2579 3184 4085
1090.0 4660 5052 4845 4319 3311 2564 1957 1727 1705 2013
1130.0 2491 2628 2426 1893 1320 878 861 850 914 1003
1170.0 1081 1148 1193 1217 1339 1443 1430 1374 1306 1329
1210.0 1156 919 757 761 786 845 919 1169 1521 2080
1250.0 2735 3210 3631 3749 3673 3299 2904 2566 2171 1685
1290.0 1341 1123 1044 870 782 817 853 893 964 1054
1330.0 1121 1293 1462 1710 1821 1919 1855 1790 1777 1846
1370.0 2027 2323 2439 2340 2240 1829 1531 1257 1095 973
1410.0 797 760 897 1019 1247 1588 2073 2841 3203 3269
1450.0 3158 2896 2491 2155 2240 2529 2828 2670 2307 1708
1490.0 1069 608 516 357 496 405 318 307 349 220
1530.0 190 250 281 350 219 217 280 443 385 481
1570.0 724 832 897 861 721 585 558 566 483 318
1610.0 207 206 275 165 141 100 173 163 97 160
1650.0 180 321 82 95 62 198 189 157 151 277
1690.0 239 299 309 338 219 186 203 261 135 153
1730.0 173 247 117 90 115 166 95 83 112 85
1770.0 146 121 78 96 114 150 258 266 288 262
1810.0 255 210 113 93 144 190 148 143 143 162
1850.0 82 47 30 22 64 115 63 40 100 139
1890.0 175 97 96 149 207 245 279 345 312 255
1930.0 160 112 106 185 212 224 184 172 135 91
1970.0 39 35 56 60 47 46 72 38 47 45
2010.0 55 30 41 35 49 27 17 28 34 37
2050.0 19 23 12 30 28 26 5 23 52 50
2090.0 18 22 54 68 39 12 37 50 52 26
2130.0 24 26 46 36 24 16 26 49 34 29
2170.0 19 61 39 26 13 38 43 33 23 34
2210.0 32 35 46 36 36 23 44 31 37 24
2250.0 46 37 47 40 45 29 15 34 36 34
2290.0 23 71 78 70 38 84 112 139 87 77
2330.0 116 98 61 5 19 133 313 245 64 7
2370.0 24 15 5 9 87 118 88 64 62 76
2410.0 69 68 62 69 53 71 57 53 47 62
2450.0 52 38 46 46 51 33 53 55 48 31
2490.0 62 65 63 34 62 87 66 46 50 81
2530.0 70 84 52 73 76 91 69 50 41 82
2570.0 87 43 36 60 99 70 51 57 104 91
2610.0 97 85 95 90 99 94 73 83 82 94
2650.0 58 63 69 79 50 53 60 67 46 51
2690.0 82 73 51 57 103 78 66 51 105 88
2730.0 100 68 85 106 104 98 76 76 110 133
2770.0 74 56 87 141 95 65 72 131 136 130
2810.0 112 144 195 174 174 154 189 196 216 181
2850.0 201 237 309 324 371 500 650 733 767 820
2890.0 792 766 742 810 835 925 1008 1210 1374 1544
2930.0 1711 1859 1929 1812 1599 1268 1044 927 1007 1187
2970.0 1603 2198 2944 3583 3930 3910 3519 2651 1664 970
3010.0 619 539 482 506 522 579 572 516 412 366
3050.0 412 490 620 905 1485 2092 2590 2609 2436 1969
3090.0 1387 858 623 471 340 246 194 157 123 132
3130.0 136 166 129 153 158 190 177 192 132 85
3170.0 93 131 89 36 65 110 125 41 66 94
3210.0 145 76 61 61 102 118 64 36 44 95
3250.0 108 67 15 82 104 110 5 39 95 85
3290.0 41 23 56 67 70 58 63 39 79 84
3330.0 79 37 55 70 73 63 67 78 71 73
3370.0 74 84 22 61 95 123 37 67 86 128
3410.0 74 37 82 115 122 67 77 69 139 119
3450.0 89 21 83 134 100 27 37 135 122 79
3490.0 58 125 131 134 77 103 102 123 127 121
3530.0 107 100 139 105 99 87 164 112 133 157
3570.0 185 118 125 158 199 194 151 224 233 264
3610.0 280 369 458 548 568 763 849 1091 1386 1660
3650.0 1984 1760 1769 1479 1158 878 686 510 322 229
3690.0 300 252 205 166 144 205 188 167 136 150
3730.0 151 231 199 161 199 201 161 120 114 130
3770.0 137 83 91 82 96 67 94 129 146 86
3810.0 95 121 168 132 115 153 181 213 161 155
3850.0 145 214 160 130 117 197 200 148 93 121
3890.0 191 185 125 112 158 129 117 94 93 107
3930.0 149 139 101 104 140 167 0 10 11 11
##END=
