##TITLE=3-(Methylthio)propanoic acid methyl ester
##JCAMP-DX=4.24
##DATA TYPE=INFRARED SPECTRUM
##ORIGIN=Sadtler Research Labs Under US-EPA Contract
##OWNER=NIST Standard Reference Data Program
##CAS REGISTRY NO=13532-18-8
##MOLFORM=C 5 H 10 O 2 S
##XUNITS=1/CM
##YUNITS=ABSORBANCE
##XFACTOR=1.0
##YFACTOR=0.000112265
##DELTAX=4.0
##FIRSTX=450.0
##LASTX=3966.0
##FIRSTY=0.014145
##MAXX=3966
##MINX=450
##MAXY=1.12265
##MINY=0
##NPOINTS=880
##XYDATA=(X++(Y..Y))
450.0 126 136 92 155 154 90 60 93 123 89
490.0 47 46 70 25 57 55 25 40 43 48
530.0 24 0 37 33 60 63 45 47 51 82
570.0 82 85 108 98 95 112 97 114 121 112
610.0 105 92 89 105 129 138 148 143 137 175
650.0 164 177 200 266 298 351 352 323 235 172
690.0 131 115 102 95 91 98 104 112 103 101
730.0 109 100 102 91 89 96 115 133 148 147
770.0 171 173 192 183 173 181 182 196 214 274
810.0 333 399 452 482 466 440 398 339 303 282
850.0 274 265 264 264 263 255 255 258 256 256
890.0 262 251 254 242 222 202 203 199 203 220
930.0 242 272 286 292 304 322 351 377 403 418
970.0 422 466 531 631 757 858 916 911 868 814
1010.0 803 853 953 1076 1188 1268 1306 1277 1195 1082
1050.0 934 775 632 509 409 341 295 274 272 290
1090.0 315 348 401 468 556 663 798 968 1198 1502
1130.0 1907 2423 3061 3760 4370 4663 4776 4869 4929 4955
1170.0 4964 4843 4574 4284 4122 4104 4208 4372 4589 4792
1210.0 5006 5199 5266 5225 5062 4940 5011 5282 5527 5540
1250.0 5229 4591 3791 2999 2413 2020 1797 1679 1630 1605
1290.0 1602 1574 1504 1418 1343 1291 1303 1410 1501 1583
1330.0 1688 1771 1962 2258 2596 2952 3170 3127 2819 2312
1370.0 1728 1187 810 597 501 436 412 407 421 480
1410.0 578 708 888 1077 1341 1782 2472 3037 3183 3063
1450.0 2250 1507 1134 904 757 655 588 499 412 361
1490.0 327 278 253 231 230 225 196 195 197 175
1530.0 176 167 178 195 189 180 186 209 197 183
1570.0 183 174 170 158 142 139 131 130 121 120
1610.0 116 109 119 102 112 90 103 104 96 97
1650.0 121 114 109 105 112 120 136 131 157 179
1690.0 179 204 252 301 355 422 532 679 844 1046
1730.0 1392 1831 2493 3392 4740 6253 7981 9360 10000 9837
1770.0 8687 6898 4890 3361 2229 1525 1069 775 562 414
1810.0 313 249 189 162 134 119 100 89 89 88
1850.0 81 70 71 65 71 75 63 59 55 53
1890.0 50 49 42 41 39 40 39 40 47 44
1930.0 49 51 55 60 64 67 72 78 85 92
1970.0 93 93 89 87 80 82 82 81 83 87
2010.0 90 93 102 102 107 106 112 113 113 113
2050.0 112 110 104 103 97 89 80 78 70 66
2090.0 64 58 53 52 50 48 46 45 46 45
2130.0 45 45 46 43 40 39 36 33 30 32
2170.0 28 26 23 23 24 20 18 13 14 13
2210.0 12 9 11 11 14 13 12 16 18 18
2250.0 18 21 21 17 20 19 20 18 18 21
2290.0 19 19 23 20 16 24 16 21 19 22
2330.0 20 22 21 10 46 44 25 24 16 28
2370.0 46 34 44 37 34 25 20 22 18 21
2410.0 23 17 13 16 13 14 15 10 12 10
2450.0 9 10 12 9 9 9 11 8 8 6
2490.0 6 4 5 3 2 1 3 5 1 1
2530.0 3 1 0 0 2 4 6 5 9 7
2570.0 6 13 15 14 18 19 17 17 19 20
2610.0 23 21 19 17 16 17 17 19 20 22
2650.0 27 24 25 23 22 22 23 17 17 17
2690.0 18 17 15 17 17 15 16 16 15 12
2730.0 17 19 18 21 21 25 28 27 32 34
2770.0 35 33 36 41 44 47 49 54 59 66
2810.0 81 101 122 158 194 243 306 394 523 684
2850.0 788 817 789 670 540 475 436 417 405 406
2890.0 427 472 548 656 808 1002 1278 1625 2029 2348
2930.0 2489 2502 2329 2050 1883 1875 2184 2668 2814 2756
2970.0 2522 1920 1512 1394 1364 1395 1422 1394 1322 1171
3010.0 999 868 764 701 668 637 588 534 459 384
3050.0 327 277 244 219 209 195 190 183 177 172
3090.0 163 162 155 151 143 135 132 122 113 101
3130.0 99 94 90 82 81 75 67 66 64 54
3170.0 48 42 41 43 39 37 39 42 36 32
3210.0 28 27 30 23 26 24 25 23 28 19
3250.0 15 17 19 22 23 20 22 24 26 23
3290.0 18 25 22 19 23 18 21 21 17 20
3330.0 19 18 20 21 15 14 15 16 18 14
3370.0 15 16 20 15 20 17 20 19 24 18
3410.0 18 15 11 20 16 17 14 20 15 11
3450.0 18 13 21 21 23 24 33 35 40 48
3490.0 70 81 89 94 99 94 79 65 49 36
3530.0 26 17 11 10 7 1 8 6 9 13
3570.0 10 14 15 14 11 7 6 2 4 15
3610.0 23 15 8 13 10 11 20 22 20 11
3650.0 20 11 14 20 15 12 12 12 19 20
3690.0 17 15 12 13 14 10 14 20 17 13
3730.0 19 26 16 0 14 5 20 20 10 11
3770.0 9 12 20 5 2 14 5 23 15 24
3810.0 15 15 21 5 4 0 18 11 30 16
3850.0 14 20 21 34 14 0 16 19 19 37
3890.0 21 9 6 18 25 10 13 10 7 9
3930.0 3 16 33 16 20 30 27 21 14 9
##END=
