##TITLE=N-(o-Tolyl)ethanolamine
##JCAMP-DX=4.24
##DATA TYPE=INFRARED SPECTRUM
##ORIGIN=Sadtler Research Labs Under US-EPA Contract
##OWNER=NIST Standard Reference Data Program
##CAS REGISTRY NO=136-80-1
##MOLFORM=C 9 H 13 N O
##XUNITS=1/CM
##YUNITS=ABSORBANCE
##XFACTOR=1.0
##YFACTOR=0.000093170
##DELTAX=4.0
##FIRSTX=450.0
##LASTX=3966.0
##FIRSTY=0.030001
##MAXX=3966
##MINX=450
##MAXY=0.9317
##MINY=0
##NPOINTS=880
##XYDATA=(X++(Y..Y))
450.0 322 324 246 269 256 275 284 278 183 171
490.0 123 65 62 66 61 87 111 104 160 230
530.0 224 226 196 180 144 135 153 111 128 152
570.0 124 160 160 182 181 203 212 174 147 102
610.0 56 23 24 13 36 38 51 77 96 92
650.0 111 108 112 113 112 147 163 143 146 160
690.0 188 230 331 498 730 1019 1400 1555 1586 1905
730.0 2463 3379 4272 5678 6028 4970 3805 2717 1664 956
770.0 535 310 173 96 52 30 20 14 22 28
810.0 38 41 25 10 7 2 11 32 48 81
850.0 104 156 231 286 348 396 425 467 499 542
890.0 595 649 689 695 694 683 653 609 554 431
930.0 330 269 212 183 170 169 178 194 231 281
970.0 358 456 593 724 801 838 826 794 809 880
1010.0 1014 1201 1463 1814 2252 2831 3556 4413 5377 6141
1050.0 6294 6040 5441 4705 4257 3913 3534 3069 2571 2133
1090.0 1779 1495 1261 1096 984 930 933 1019 1178 1400
1130.0 1626 1761 1780 1657 1463 1284 1208 1196 1167 1177
1170.0 1152 1104 1118 1178 1277 1386 1477 1523 1523 1495
1210.0 1465 1454 1482 1563 1692 1882 2139 2479 2943 3584
1250.0 4410 5202 5671 5686 5212 4427 3744 3300 3027 2882
1290.0 2885 3062 3424 3985 4608 4924 4763 4126 3231 2376
1330.0 1791 1473 1277 1225 1255 1330 1435 1482 1452 1410
1370.0 1363 1362 1472 1560 1598 1603 1471 1322 1223 1125
1410.0 1024 1006 941 1041 1155 1416 1792 2431 3240 3890
1450.0 4343 4477 4419 4318 4235 4168 3980 3840 3854 3933
1490.0 4182 4762 5743 7319 8988 10000 9925 8273 6010 3736
1530.0 2393 1637 1254 1024 933 897 818 743 774 916
1570.0 1169 1638 2327 3159 3856 4312 4520 4759 5155 5523
1610.0 5252 4354 2984 1692 999 764 592 486 436 383
1650.0 309 301 336 331 330 311 272 284 233 214
1690.0 252 281 254 266 282 292 240 170 201 213
1730.0 191 161 207 226 224 226 259 253 239 227
1770.0 191 176 211 215 235 218 194 180 143 145
1810.0 116 100 104 100 94 102 128 147 126 104
1850.0 108 115 120 142 178 208 266 281 267 227
1890.0 181 152 147 168 198 235 251 243 209 175
1930.0 139 110 99 72 74 79 76 69 70 56
1970.0 51 52 48 42 40 27 28 34 28 24
2010.0 22 17 7 9 12 12 12 12 12 18
2050.0 21 28 29 29 28 35 34 29 27 26
2090.0 24 24 26 24 28 29 28 29 30 32
2130.0 33 30 27 23 22 21 15 13 6 8
2170.0 4 3 0 3 2 3 6 5 9 10
2210.0 10 7 9 7 4 6 5 2 1 6
2250.0 3 7 9 10 6 9 13 10 12 9
2290.0 7 8 12 9 11 18 24 27 38 50
2330.0 39 40 44 40 40 39 34 35 18 16
2370.0 26 25 30 29 27 27 28 27 32 36
2410.0 35 39 41 40 36 35 32 33 30 33
2450.0 28 30 30 28 32 30 30 29 29 29
2490.0 27 28 33 34 32 38 43 45 49 53
2530.0 62 66 73 78 90 98 107 114 121 128
2570.0 132 127 124 113 106 99 92 90 87 90
2610.0 88 88 81 77 68 61 60 62 69 68
2650.0 75 78 83 95 106 115 129 139 161 182
2690.0 205 226 242 250 255 248 240 237 244 258
2730.0 284 318 339 358 365 359 345 332 326 332
2770.0 343 358 377 402 430 465 505 550 599 655
2810.0 721 802 895 1000 1119 1248 1404 1578 1785 2030
2850.0 2299 2589 2900 3212 3479 3723 3920 4099 4241 4308
2890.0 4264 4146 3973 3821 3753 3800 3984 4252 4596 4919
2930.0 5189 5344 5440 5463 5429 5294 5025 4644 4143 3659
2970.0 3242 2952 2703 2403 2076 1702 1343 1117 1020 1060
3010.0 1257 1581 1968 2256 2371 2300 2120 1942 1883 1913
3050.0 1995 2097 2204 2343 2496 2604 2626 2512 2288 1978
3090.0 1626 1303 1030 816 653 533 455 395 350 309
3130.0 258 208 168 136 110 95 79 76 69 63
3170.0 57 52 48 48 43 40 36 40 35 29
3210.0 23 24 20 15 9 10 12 17 15 17
3250.0 15 14 13 10 14 10 9 8 5 5
3290.0 7 10 6 4 9 9 7 10 7 3
3330.0 6 8 6 16 10 15 19 30 40 44
3370.0 47 58 63 76 83 86 100 113 139 180
3410.0 227 298 396 521 641 725 757 750 705 668
3450.0 627 593 565 524 479 429 378 326 291 243
3490.0 198 177 152 130 118 103 98 99 91 85
3530.0 92 95 91 91 101 107 108 115 109 120
3570.0 139 154 169 187 213 241 284 307 359 385
3610.0 409 419 418 402 382 386 378 378 401 441
3650.0 512 614 737 836 918 991 1028 1012 904 783
3690.0 596 419 304 219 183 160 126 106 105 85
3730.0 76 75 59 55 58 30 40 26 23 14
3770.0 12 10 3 17 11 8 5 18 9 3
3810.0 3 13 17 12 19 14 21 34 32 19
3850.0 23 45 46 26 24 39 40 53 44 47
3890.0 41 42 46 45 24 35 38 21 38 23
3930.0 27 18 21 16 29 20 24 12 4 19
##END=
