##TITLE=Benzoic acid, butyl ester
##JCAMP-DX=4.24
##DATA TYPE=INFRARED SPECTRUM
##ORIGIN=Sadtler Research Labs Under US-EPA Contract
##OWNER=NIST Standard Reference Data Program
##CAS REGISTRY NO=136-60-7
##MOLFORM=C 11 H 14 O 2
##XUNITS=1/CM
##YUNITS=ABSORBANCE
##XFACTOR=1.0
##YFACTOR=0.000128076
##DELTAX=4.0
##FIRSTX=450.0
##LASTX=3966.0
##FIRSTY=0.014985
##MAXX=3966
##MINX=450
##MAXY=1.28076
##MINY=0
##NPOINTS=880
##XYDATA=(X++(Y..Y))
450.0 117 109 147 121 95 76 108 13 54 63
490.0 12 92 41 49 34 65 64 50 103 77
530.0 59 28 59 64 72 64 46 65 45 77
570.0 65 54 40 40 72 62 114 147 20 70
610.0 40 45 75 83 90 65 82 50 63 49
650.0 58 72 68 117 131 257 361 436 423 402
690.0 496 637 998 1383 1952 2156 1953 1453 1006 616
730.0 410 275 227 195 170 149 130 129 121 107
770.0 99 104 93 87 100 91 116 126 127 107
810.0 116 112 125 133 154 159 178 188 172 174
850.0 154 131 127 122 117 105 103 97 101 87
890.0 95 92 100 102 105 106 108 105 121 141
930.0 176 233 262 289 294 279 265 264 283 275
970.0 252 210 192 173 179 186 198 193 189 184
1010.0 179 223 321 672 1016 1029 738 335 207 229
1050.0 275 382 528 777 982 1028 898 741 737 1021
1090.0 1649 2370 2969 3569 4125 4345 3970 2900 1911 1290
1130.0 989 817 717 647 597 552 509 466 442 468
1170.0 637 1014 1244 1130 722 369 285 252 248 242
1210.0 263 292 337 422 547 766 1058 1432 1681 1797
1250.0 1897 2304 3374 5229 7851 9558 10000 7618 5027 2930
1290.0 1738 1181 936 819 794 929 1005 958 770 556
1330.0 453 394 346 329 322 308 301 282 262 240
1370.0 249 266 316 395 458 480 429 334 252 206
1410.0 170 167 143 160 155 186 213 253 339 459
1450.0 627 697 683 578 514 471 411 348 298 243
1490.0 208 185 160 141 120 108 104 98 83 88
1530.0 82 88 87 83 93 100 106 92 99 104
1570.0 111 120 146 174 185 195 197 232 263 286
1610.0 249 181 125 107 91 89 91 99 110 107
1650.0 92 81 81 81 78 87 89 121 124 149
1690.0 179 205 208 232 246 272 340 484 835 1384
1730.0 2447 3580 5002 5150 4959 3406 2093 1223 720 525
1770.0 454 367 286 265 232 219 191 178 150 146
1810.0 145 137 125 98 77 53 55 49 42 34
1850.0 38 39 35 36 32 31 32 39 41 44
1890.0 48 56 65 74 83 84 90 90 79 68
1930.0 58 52 51 53 59 71 74 78 75 75
1970.0 67 62 50 34 28 23 24 23 24 21
2010.0 23 23 23 23 27 29 30 32 32 34
2050.0 37 39 40 40 39 40 40 37 39 38
2090.0 35 33 35 33 29 30 28 26 26 24
2130.0 21 17 16 14 11 13 13 13 12 11
2170.0 12 11 12 13 11 10 14 13 12 13
2210.0 15 15 13 14 15 14 16 13 14 14
2250.0 14 12 12 13 11 10 11 10 8 8
2290.0 8 7 7 6 6 3 11 13 17 12
2330.0 13 11 18 16 14 12 13 14 26 24
2370.0 26 32 27 26 23 20 19 18 18 15
2410.0 16 15 15 12 12 12 11 11 10 9
2450.0 8 10 5 5 4 6 6 8 6 5
2490.0 8 8 8 9 11 6 9 7 9 13
2530.0 11 13 14 10 11 12 10 10 11 12
2570.0 15 15 17 15 17 19 18 20 18 18
2610.0 16 18 15 12 14 17 12 15 15 13
2650.0 14 16 15 16 15 18 20 18 20 19
2690.0 18 20 22 23 25 25 26 26 27 28
2730.0 34 30 34 37 40 46 46 51 48 48
2770.0 49 46 44 43 42 44 46 47 51 53
2810.0 59 62 69 72 84 89 98 112 132 162
2850.0 198 244 286 322 364 431 525 623 721 768
2890.0 747 687 626 604 621 659 717 784 845 895
2930.0 957 1060 1206 1363 1451 1460 1444 1510 1729 1995
2970.0 2177 2097 1774 1335 953 707 537 416 333 279
3010.0 247 221 205 190 190 202 220 249 275 303
3050.0 308 295 280 302 367 458 566 599 530 397
3090.0 280 267 263 239 203 160 124 92 66 51
3130.0 45 40 35 32 32 31 30 31 35 38
3170.0 38 37 35 29 24 21 22 23 20 25
3210.0 19 14 14 14 11 13 15 13 12 13
3250.0 9 10 7 10 8 6 9 11 10 7
3290.0 9 8 7 7 8 12 9 7 11 11
3330.0 16 13 13 11 14 11 14 12 11 12
3370.0 11 10 9 5 8 7 11 8 9 8
3410.0 8 13 14 12 15 17 14 11 14 20
3450.0 26 27 43 45 43 32 23 20 9 6
3490.0 15 6 2 7 4 9 12 9 13 10
3530.0 8 10 8 11 10 12 16 8 13 13
3570.0 27 35 55 62 60 66 66 44 24 17
3610.0 16 20 20 16 13 14 12 19 17 18
3650.0 31 23 22 25 23 25 25 27 24 22
3690.0 22 18 20 18 19 20 20 18 12 18
3730.0 9 7 16 17 15 12 12 12 11 12
3770.0 8 8 10 4 15 12 16 6 0 0
3810.0 13 3 0 0 7 4 10 13 4 7
3850.0 4 3 3 7 13 6 7 10 1 10
3890.0 14 9 16 10 16 17 10 9 4 10
3930.0 13 13 17 8 8 11 15 10 17 15
##END=
