##TITLE=Ethanone, 1-(2,3,4-trichlorophenyl)-
##JCAMP-DX=4.24
##DATA TYPE=INFRARED SPECTRUM
##ORIGIN=Sadtler Research Labs Under US-EPA Contract
##OWNER=NIST Standard Reference Data Program
##CAS REGISTRY NO=13608-87-2
##MOLFORM=C 8 H 5 Cl 3 O
##XUNITS=1/CM
##YUNITS=ABSORBANCE
##XFACTOR=1.0
##YFACTOR=0.000102582
##DELTAX=4.0
##FIRSTX=450.0
##LASTX=3966.0
##FIRSTY=0.010258
##MAXX=3966
##MINX=450
##MAXY=1.02582
##MINY=0
##NPOINTS=880
##XYDATA=(X++(Y..Y))
450.0 100 107 54 33 86 97 43 141 147 150
490.0 275 387 589 871 1053 1056 1084 1256 1364 1278
530.0 950 583 374 238 169 124 108 90 88 81
570.0 94 145 163 170 154 146 197 260 410 663
610.0 871 957 780 534 403 454 604 697 681 498
650.0 287 152 91 65 53 42 31 25 19 1
690.0 21 11 30 59 38 23 1 16 31 65
730.0 129 177 138 128 128 178 323 627 1204 1809
770.0 2133 1898 1277 690 440 380 447 606 952 1614
810.0 2394 3482 3494 2691 2215 2166 2606 2979 2757 2097
850.0 1251 730 488 380 308 265 238 184 156 120
890.0 109 102 103 100 95 76 71 61 64 81
930.0 106 132 164 206 257 329 463 693 977 1158
970.0 1138 943 691 521 419 359 320 304 303 308
1010.0 317 329 347 356 369 366 362 358 355 346
1050.0 331 336 378 494 674 788 727 508 277 195
1090.0 213 287 444 688 942 1081 1047 856 660 564
1130.0 523 510 505 556 702 1067 1745 2554 3354 4483
1170.0 5668 6049 5366 3628 2159 1570 1344 1164 978 800
1210.0 692 669 737 888 1149 1546 2094 2696 3282 3941
1250.0 4893 6326 8096 8929 8080 5683 3050 1583 988 672
1290.0 500 389 340 311 299 309 333 388 466 578
1330.0 725 923 1200 1662 2448 3757 5618 7329 7883 6983
1370.0 5023 3302 2284 1692 1293 1008 841 725 653 636
1410.0 655 730 808 999 1289 1774 2248 2413 2126 1489
1450.0 930 686 533 466 419 369 330 301 288 250
1490.0 234 230 222 228 221 225 251 275 292 361
1530.0 428 533 625 697 755 827 975 1249 1808 2602
1570.0 3465 3771 3237 2074 974 497 376 319 293 269
1610.0 264 265 273 302 327 350 342 330 322 320
1650.0 329 349 377 422 487 606 774 1000 1215 1438
1690.0 1631 1822 2023 2519 3588 5530 8114 10000 9939 7464
1730.0 4745 3004 2148 1725 1470 1255 1073 882 715 575
1770.0 473 407 379 352 328 287 211 156 110 94
1810.0 71 57 46 40 35 26 33 31 32 28
1850.0 39 47 58 67 76 86 108 128 142 155
1890.0 153 148 127 106 84 65 55 51 48 50
1930.0 49 45 40 31 27 28 21 20 15 15
1970.0 15 16 14 15 14 13 15 19 20 19
2010.0 18 13 12 9 10 6 7 5 5 6
2050.0 4 5 3 5 5 9 11 13 13 13
2090.0 14 12 13 12 9 7 7 4 2 2
2130.0 4 3 1 1 1 1 1 2 3 5
2170.0 10 11 13 14 15 19 22 25 25 24
2210.0 24 19 14 9 7 9 6 4 4 1
2250.0 1 1 1 1 3 4 4 5 7 11
2290.0 13 14 21 25 30 35 35 41 42 47
2330.0 35 27 24 19 20 34 11 15 8 4
2370.0 9 16 22 22 18 16 12 11 9 11
2410.0 12 14 13 15 15 13 13 11 11 10
2450.0 14 15 18 22 23 26 30 35 40 45
2490.0 56 61 64 67 63 58 48 39 32 25
2530.0 20 15 11 10 10 10 7 9 7 6
2570.0 7 8 7 11 15 16 20 22 25 25
2610.0 25 27 25 25 22 21 19 16 18 18
2650.0 15 15 14 15 15 15 20 26 26 25
2690.0 24 16 15 10 10 8 5 5 6 5
2730.0 5 3 2 4 7 8 7 6 7 10
2770.0 9 15 16 16 18 20 24 21 26 25
2810.0 26 29 29 31 31 34 34 36 38 38
2850.0 35 35 34 34 35 35 36 35 36 40
2890.0 39 44 46 54 58 62 74 84 98 124
2930.0 146 163 163 150 138 123 123 123 133 145
2970.0 154 168 178 184 187 196 207 224 241 263
3010.0 284 305 316 304 279 248 222 197 176 168
3050.0 159 154 161 161 159 159 155 159 161 158
3090.0 145 129 114 96 85 76 68 60 59 47
3130.0 45 36 36 34 38 31 32 29 23 22
3170.0 22 20 14 16 18 15 14 16 12 11
3210.0 12 13 13 12 13 9 12 10 10 12
3250.0 11 13 13 12 11 13 11 13 12 15
3290.0 16 18 10 14 14 16 12 13 14 12
3330.0 14 12 10 18 18 21 19 25 28 29
3370.0 36 31 40 42 50 54 63 76 84 101
3410.0 115 130 129 124 113 101 84 68 67 57
3450.0 46 44 35 29 23 21 16 19 14 13
3490.0 8 12 11 5 8 8 6 11 6 7
3530.0 13 12 6 6 7 7 11 8 8 3
3570.0 8 12 12 13 11 6 11 15 9 9
3610.0 6 16 9 7 12 1 16 6 10 3
3650.0 6 9 6 12 8 8 12 13 14 18
3690.0 7 10 16 7 9 13 15 13 13 2
3730.0 12 4 13 3 4 1 5 14 1 9
3770.0 1 4 7 4 7 2 4 6 6 5
3810.0 9 1 11 6 15 2 11 13 13 15
3850.0 11 7 10 16 10 7 12 13 3 7
3890.0 13 2 6 11 22 15 9 7 2 11
3930.0 1 5 11 11 0 19 20 14 9 20
##END=
