##TITLE=Propanamide, 2,2,3-trichloro-
##JCAMP-DX=4.24
##DATA TYPE=INFRARED SPECTRUM
##ORIGIN=Sadtler Research Labs Under US-EPA Contract
##OWNER=NIST Standard Reference Data Program
##CAS REGISTRY NO=13601-94-0
##MOLFORM=C 3 H 4 Cl 3 N O
##XUNITS=1/CM
##YUNITS=ABSORBANCE
##XFACTOR=1.0
##YFACTOR=0.000090073
##DELTAX=4.0
##FIRSTX=450.0
##LASTX=3966.0
##FIRSTY=0.022428
##MAXX=3966
##MINX=450
##MAXY=0.90073
##MINY=0
##NPOINTS=880
##XYDATA=(X++(Y..Y))
450.0 249 314 288 238 179 171 187 236 250 350
490.0 363 368 304 284 255 234 279 361 466 531
530.0 594 627 659 608 546 499 401 291 166 93
570.0 41 49 13 32 14 6 0 21 66 184
610.0 344 445 541 543 527 485 550 671 780 855
650.0 880 850 817 892 951 1086 1168 1257 1348 1389
690.0 1434 1434 1427 1295 1087 900 713 604 575 564
730.0 563 619 759 1031 1371 1728 1955 2036 1795 1441
770.0 1068 930 954 986 955 856 740 632 551 487
810.0 450 417 412 432 472 504 554 611 668 781
850.0 926 1102 1256 1373 1359 1218 1029 841 677 581
890.0 525 493 456 434 414 392 381 379 381 401
930.0 435 455 498 578 656 746 814 810 748 699
970.0 688 754 857 954 1016 864 654 481 294 204
1010.0 176 167 156 153 155 154 161 162 170 177
1050.0 194 209 228 237 240 246 238 236 217 190
1090.0 174 175 181 204 221 221 212 194 169 146
1130.0 126 113 111 100 90 83 79 88 94 109
1170.0 119 139 149 174 202 243 288 344 396 423
1210.0 432 415 370 301 243 191 165 150 146 151
1250.0 159 173 186 216 255 322 412 491 543 560
1290.0 532 500 465 492 549 635 750 888 1089 1351
1330.0 1696 2089 2463 2784 2950 2863 2562 2149 1658 1206
1370.0 829 538 368 305 259 227 207 188 216 260
1410.0 380 498 613 788 679 616 443 274 190 117
1450.0 80 53 27 49 58 62 41 50 79 63
1490.0 43 60 47 56 38 24 50 52 50 92
1530.0 107 132 150 168 227 319 433 588 923 1403
1570.0 2067 2695 3253 3553 3429 3054 2479 1960 1483 1115
1610.0 839 642 494 412 336 301 244 206 194 164
1650.0 142 128 154 154 160 158 161 191 197 238
1690.0 319 454 591 800 1008 1197 1295 1423 1692 2187
1730.0 3156 4628 6671 8376 9459 10000 8106 6218 4420 2704
1770.0 1743 1251 1028 863 795 723 643 517 375 264
1810.0 179 145 123 116 102 99 101 109 95 81
1850.0 91 93 85 77 74 54 70 66 68 56
1890.0 51 51 51 49 45 47 40 41 37 47
1930.0 47 48 49 38 37 39 39 32 38 33
1970.0 34 36 37 35 34 32 31 37 34 39
2010.0 38 34 32 33 32 32 33 26 27 27
2050.0 29 25 27 27 25 28 29 28 25 25
2090.0 20 24 23 24 25 22 21 18 20 18
2130.0 21 18 22 16 18 19 20 22 22 23
2170.0 25 23 23 25 23 28 26 27 29 29
2210.0 29 24 30 24 27 23 25 26 24 24
2250.0 21 21 23 24 21 23 24 21 21 21
2290.0 23 19 24 24 22 19 30 26 29 36
2330.0 29 32 27 55 5 60 21 42 28 15
2370.0 11 24 28 31 20 23 20 19 23 20
2410.0 23 21 23 21 19 20 18 18 16 16
2450.0 12 16 16 17 13 11 13 11 12 7
2490.0 11 10 8 5 6 9 9 6 6 9
2530.0 7 11 9 9 7 8 8 7 4 4
2570.0 6 2 0 0 1 3 0 1 4 1
2610.0 1 1 1 3 2 1 3 6 5 5
2650.0 8 4 5 9 9 11 12 10 9 11
2690.0 10 11 10 13 11 8 11 10 4 4
2730.0 7 6 6 4 4 5 6 4 1 3
2770.0 5 6 8 7 6 11 10 12 16 16
2810.0 22 24 29 36 43 45 47 46 43 40
2850.0 41 35 30 28 27 25 19 23 20 19
2890.0 21 22 20 25 30 33 34 39 41 44
2930.0 47 43 34 32 38 36 38 38 53 83
2970.0 131 185 213 242 196 141 102 48 34 32
3010.0 34 32 36 34 37 44 43 43 35 33
3050.0 31 24 24 26 28 29 35 33 35 36
3090.0 39 38 37 34 37 29 26 24 24 26
3130.0 26 28 32 32 31 29 28 25 24 23
3170.0 19 13 12 12 12 12 12 9 9 12
3210.0 4 9 11 9 9 8 6 6 7 8
3250.0 13 9 10 4 4 9 7 7 6 10
3290.0 15 15 16 20 22 23 26 25 30 32
3330.0 32 28 37 34 35 31 33 34 35 39
3370.0 41 57 62 80 100 130 162 213 264 319
3410.0 399 494 582 721 876 1074 1295 1407 1485 1308
3450.0 940 684 403 248 179 165 162 167 170 173
3490.0 189 213 246 275 326 370 439 529 645 765
3530.0 858 883 908 1007 1227 1622 1905 2090 2009 1506
3570.0 1034 580 245 119 64 57 42 40 21 15
3610.0 15 17 15 13 23 24 12 14 3 20
3650.0 14 12 10 6 20 10 12 4 13 5
3690.0 11 12 7 12 16 14 12 15 15 20
3730.0 20 26 11 27 1 32 8 4 22 19
3770.0 24 14 15 9 19 7 13 11 19 9
3810.0 12 9 14 14 10 18 17 11 10 18
3850.0 12 12 16 4 11 13 9 5 9 14
3890.0 18 10 17 18 7 4 6 9 6 7
3930.0 13 2 16 13 5 4 15 17 24 26
##END=
