##TITLE=Sulfone, 2-butynyl phenyl,
##JCAMP-DX=4.24
##DATA TYPE=INFRARED SPECTRUM
##ORIGIN=Sadtler Research Labs Under US-EPA Contract
##OWNER=NIST Standard Reference Data Program
##CAS REGISTRY NO=13603-84-4
##MOLFORM=C 10 H 10 O 2 S
##XUNITS=1/CM
##YUNITS=ABSORBANCE
##XFACTOR=1.0
##YFACTOR=0.000080624
##DELTAX=4.0
##FIRSTX=450.0
##LASTX=3966.0
##FIRSTY=0.015883
##MAXX=3966
##MINX=450
##MAXY=0.80624
##MINY=0
##NPOINTS=880
##XYDATA=(X++(Y..Y))
450.0 197 221 221 122 110 60 15 6 0 26
490.0 42 30 91 169 211 435 817 1745 3234 4918
530.0 5083 4242 2420 1037 812 909 1693 3137 4648 4935
570.0 4136 2460 1348 927 1070 1552 1790 1575 1046 515
610.0 271 168 96 55 46 36 49 80 91 115
650.0 104 174 211 307 347 566 742 1091 1912 2570
690.0 2815 2158 1638 1304 1233 1191 1168 1230 1454 1898
730.0 2640 3635 4363 4378 3254 1965 1335 1483 1939 2286
770.0 2296 1869 1232 724 495 369 300 250 202 162
810.0 114 101 78 67 76 93 115 126 153 184
850.0 233 324 519 877 1381 1855 1966 1678 1088 509
890.0 211 116 77 53 41 42 40 44 55 61
930.0 53 45 34 31 26 26 31 36 42 48
970.0 53 56 68 81 101 128 169 217 218 192
1010.0 179 200 291 397 443 406 318 218 182 177
1050.0 212 274 358 452 538 623 766 1183 1967 2756
1090.0 3010 2667 1854 1013 590 464 450 522 700 1089
1130.0 1897 3305 4646 5193 5053 4343 3817 4123 5505 7556
1170.0 9322 9610 8377 5791 3338 1899 1176 806 604 483
1210.0 414 389 383 397 425 470 549 702 972 1302
1250.0 1582 1639 1346 977 705 586 591 619 646 661
1290.0 649 616 636 732 882 1047 1150 1278 1561 1922
1330.0 2297 2625 3056 4071 5945 8226 10000 9598 7343 4738
1370.0 2733 1684 1193 935 851 815 809 849 872 852
1410.0 785 675 635 531 475 478 575 805 1144 1514
1450.0 1674 1198 888 593 416 415 476 526 502 490
1490.0 437 349 306 267 288 286 243 233 260 234
1530.0 223 223 249 229 194 171 167 189 175 163
1570.0 175 199 228 253 251 233 193 164 140 134
1610.0 133 128 137 106 106 84 100 97 86 89
1650.0 111 115 111 102 117 117 132 107 134 143
1690.0 126 119 146 132 114 96 103 119 92 85
1730.0 95 121 97 98 106 121 122 128 145 146
1770.0 167 158 131 120 109 108 125 146 188 203
1810.0 208 190 152 121 101 92 78 66 68 75
1850.0 65 59 60 57 58 65 59 63 80 96
1890.0 122 140 144 142 143 137 126 111 88 65
1930.0 61 61 71 91 113 145 170 180 166 148
1970.0 138 120 99 70 45 31 18 14 4 5
2010.0 5 5 7 6 2 4 8 9 13 15
2050.0 23 23 23 17 10 5 1 2 1 2
2090.0 6 4 3 2 4 4 6 6 5 1
2130.0 1 3 3 1 1 2 2 8 14 19
2170.0 24 28 27 26 27 25 28 28 38 50
2210.0 61 76 95 130 168 214 269 315 342 335
2250.0 293 233 168 118 90 82 76 72 69 66
2290.0 74 79 91 108 130 154 167 179 179 151
2330.0 118 80 77 59 64 62 53 46 35 25
2370.0 24 27 39 46 39 32 30 34 30 29
2410.0 27 24 19 16 20 25 29 33 32 31
2450.0 29 26 23 25 26 26 34 38 44 50
2490.0 58 59 55 46 39 36 34 33 34 35
2530.0 34 33 29 25 16 10 10 10 12 13
2570.0 17 15 15 17 12 10 5 7 9 10
2610.0 15 13 10 7 3 2 5 3 7 11
2650.0 17 20 24 21 27 27 30 27 18 13
2690.0 4 4 4 6 6 8 7 8 13 17
2730.0 20 28 41 56 62 65 59 46 35 28
2770.0 21 22 25 26 30 31 35 34 29 32
2810.0 29 28 31 37 39 42 51 65 78 95
2850.0 117 149 194 259 326 369 372 342 288 249
2890.0 223 209 195 201 223 256 315 430 666 953
2930.0 1280 1487 1320 1032 677 392 325 281 268 262
2970.0 257 251 242 257 240 213 212 213 236 256
3010.0 297 317 291 295 295 311 314 322 327 293
3050.0 305 368 508 687 963 1312 1535 1536 1321 953
3090.0 637 510 414 293 193 125 92 76 68 56
3130.0 49 48 42 42 38 42 47 57 58 63
3170.0 59 57 41 26 27 24 20 20 20 14
3210.0 9 12 8 13 10 9 15 15 21 15
3250.0 11 15 11 11 9 9 16 13 8 8
3290.0 11 14 10 12 6 10 7 5 4 16
3330.0 13 12 11 16 9 12 21 22 21 26
3370.0 26 29 18 16 17 9 16 16 13 17
3410.0 15 6 10 7 9 14 4 12 8 4
3450.0 10 8 10 20 21 7 12 12 16 17
3490.0 13 11 11 16 9 4 11 9 6 2
3530.0 2 5 16 10 5 1 5 14 4 16
3570.0 7 8 13 14 13 19 10 3 7 12
3610.0 8 3 11 13 10 18 24 15 19 14
3650.0 20 20 21 12 5 20 8 27 9 24
3690.0 22 34 25 31 39 34 29 21 19 18
3730.0 18 22 19 9 32 13 26 20 28 32
3770.0 30 13 16 37 36 38 22 20 18 25
3810.0 12 18 20 26 28 24 15 31 21 22
3850.0 27 28 31 20 24 7 13 26 23 28
3890.0 13 17 26 31 22 21 24 14 25 18
3930.0 28 25 34 29 29 25 25 29 29 25
##END=
