##TITLE=p-Toluidine, N-methyl-.alpha.-phenyl-thio-,
##JCAMP-DX=4.24
##DATA TYPE=INFRARED SPECTRUM
##ORIGIN=Sadtler Research Labs Under US-EPA Contract
##OWNER=NIST Standard Reference Data Program
##CAS REGISTRY NO=13641-21-9
##MOLFORM=C 14 H 15 N S
##XUNITS=1/CM
##YUNITS=ABSORBANCE
##XFACTOR=1.0
##YFACTOR=0.000036789
##DELTAX=4.0
##FIRSTX=450.0
##LASTX=3966.0
##FIRSTY=0.034324
##MAXX=3966
##MINX=450
##MAXY=0.36789
##MINY=0
##NPOINTS=880
##XYDATA=(X++(Y..Y))
450.0 933 1024 1474 1445 1239 1117 1191 1023 895 826
490.0 696 601 672 679 545 601 558 599 507 502
530.0 417 350 222 147 124 129 119 94 115 65
570.0 29 73 15 42 81 116 101 132 140 116
610.0 159 199 180 224 201 211 177 175 280 335
650.0 421 613 780 1098 1371 1930 2304 2426 3202 4555
690.0 5118 4138 4530 4153 4385 4652 4799 5082 5518 6312
730.0 9006 10000 6878 6302 5165 3785 2630 1737 1073 637
770.0 481 436 428 398 428 491 658 957 1380 1802
810.0 2019 2010 1706 1320 864 483 263 124 109 106
850.0 98 124 152 150 189 204 211 208 230 242
890.0 291 339 387 426 447 453 377 364 374 299
930.0 246 220 192 183 188 167 145 127 122 110
970.0 127 119 112 84 87 124 152 215 243 312
1010.0 527 960 1385 1643 1778 1304 1151 739 256 242
1050.0 413 671 861 891 880 874 997 1234 1539 1758
1090.0 1815 1754 1719 1706 1490 1361 1373 1358 1285 1271
1130.0 1123 845 696 725 809 908 931 939 1067 1225
1170.0 1315 1308 1484 1739 1351 777 513 463 531 589
1210.0 653 711 758 860 1030 1275 1482 1513 1392 1407
1250.0 1633 2012 2456 2686 2503 2044 1602 1289 1078 986
1290.0 1045 1271 1765 2417 2802 2818 2710 2372 1778 1183
1330.0 947 729 525 428 488 658 729 638 530 575
1370.0 584 554 541 532 520 567 649 761 930 1052
1410.0 1180 1319 1367 1513 1794 2259 2670 2834 2502 2370
1450.0 2560 2435 2286 2457 3060 4215 5331 5971 5841 5527
1490.0 5097 4214 3325 3735 4942 7126 9053 9918 8403 5798
1530.0 3626 2184 1413 1029 857 889 932 1062 1350 1760
1570.0 2320 2929 3639 4044 4118 3901 3690 3656 3810 4243
1610.0 4530 4330 3364 2366 1581 1073 789 579 489 389
1650.0 286 246 247 223 207 196 162 208 177 181
1690.0 208 239 209 253 310 379 387 363 392 375
1730.0 342 296 323 320 283 242 246 234 231 258
1770.0 260 293 344 385 400 395 370 347 286 255
1810.0 204 184 183 172 173 166 196 223 248 262
1850.0 325 385 404 433 444 437 424 387 321 273
1890.0 208 166 142 133 132 144 165 206 243 292
1930.0 320 350 388 416 423 399 347 288 229 175
1970.0 120 94 83 69 70 62 53 64 56 58
2010.0 65 59 66 62 59 57 58 50 39 47
2050.0 50 60 57 53 49 62 64 65 62 61
2090.0 59 60 69 64 65 60 62 58 51 53
2130.0 43 40 45 38 41 48 42 45 48 50
2170.0 50 48 49 48 50 57 50 50 52 52
2210.0 48 33 25 20 17 21 40 49 56 64
2250.0 72 75 77 83 82 86 94 100 117 106
2290.0 121 130 138 150 171 189 182 172 192 175
2330.0 145 132 134 132 162 155 137 124 95 91
2370.0 83 85 114 127 119 91 81 78 77 73
2410.0 82 88 77 78 79 84 78 70 69 71
2450.0 62 68 70 65 64 59 64 70 65 78
2490.0 66 58 68 76 72 77 80 86 92 96
2530.0 97 97 100 112 113 119 137 143 157 172
2570.0 189 213 220 236 242 235 221 215 193 175
2610.0 168 161 144 134 133 123 120 114 113 105
2650.0 116 119 120 139 140 134 147 137 134 139
2690.0 138 144 144 147 157 174 184 180 196 199
2730.0 193 211 204 218 227 240 251 261 277 301
2770.0 330 346 385 423 477 545 641 746 886 1080
2810.0 1260 1376 1372 1305 1229 1181 1156 1148 1167 1223
2850.0 1279 1305 1308 1298 1339 1424 1554 1688 1815 1911
2890.0 2006 2059 2112 2147 2168 2215 2283 2379 2460 2487
2930.0 2393 2228 2011 1794 1616 1462 1353 1263 1182 1114
2970.0 1097 1130 1198 1279 1338 1378 1364 1378 1428 1536
3010.0 1693 1886 2115 2339 2431 2316 2161 2006 1922 1891
3050.0 1968 2252 2749 3554 4301 4837 5013 4910 4548 3948
3090.0 3519 2899 2114 1550 1053 673 400 267 197 163
3130.0 147 128 121 126 126 128 122 103 88 75
3170.0 58 44 33 39 24 39 30 28 21 26
3210.0 26 38 32 38 37 34 50 50 37 59
3250.0 39 53 50 58 74 62 49 66 69 73
3290.0 92 79 98 94 102 105 109 128 140 135
3330.0 138 149 161 173 179 201 233 254 286 282
3370.0 314 345 375 436 470 558 628 730 836 955
3410.0 1058 1147 1208 1221 1199 1126 1004 850 735 620
3450.0 540 454 368 287 220 187 176 141 129 129
3490.0 123 116 108 103 113 95 54 58 50 62
3530.0 54 32 43 61 64 60 54 36 42 30
3570.0 51 36 43 32 46 68 57 42 38 40
3610.0 41 1 34 32 34 59 43 47 30 16
3650.0 58 35 37 12 21 43 11 57 20 69
3690.0 49 57 44 54 45 16 43 25 15 26
3730.0 17 31 19 45 16 6 5 1 21 45
3770.0 63 29 60 38 3 27 7 1 1 3
3810.0 5 7 9 1 1 1 1 1 1 1
3850.0 1 1 19 3 8 12 1 1 26 0
3890.0 1 1 1 15 36 24 7 18 1 4
3930.0 1 1 1 3 28 9 17 6 16 1
##END=
