##TITLE=Benzenesulfonic acid, 2-bromo-4-chlorophenyl ester
##JCAMP-DX=4.24
##DATA TYPE=INFRARED SPECTRUM
##ORIGIN=Sadtler Research Labs Under US-EPA Contract
##OWNER=NIST Standard Reference Data Program
##CAS REGISTRY NO=13659-16-0
##MOLFORM=C 12 H 8 Br Cl O 3 S
##XUNITS=1/CM
##YUNITS=ABSORBANCE
##XFACTOR=1.0
##YFACTOR=0.000035556
##DELTAX=4.0
##FIRSTX=450.0
##LASTX=3966.0
##FIRSTY=0.000000
##MAXX=3966
##MINX=450
##MAXY=0.35556
##MINY=0
##NPOINTS=880
##XYDATA=(X++(Y..Y))
450.0 0 218 225 285 331 458 467 449 307 327
490.0 408 383 370 387 356 357 450 396 462 539
530.0 626 786 803 787 827 975 1329 1578 1638 1880
570.0 2583 3162 3236 3442 4256 4705 3957 4166 4149 2749
610.0 1428 705 578 491 520 572 632 836 1051 1332
650.0 1277 1228 1434 2089 2410 1991 1669 1707 2429 2990
690.0 2124 1276 1037 1021 1048 1177 1275 1388 1718 2122
730.0 2373 2129 1762 1860 2724 4160 4335 3543 3933 5879
770.0 8437 10000 8916 5857 3235 1869 1299 1004 872 940
810.0 1082 1414 2074 2834 3007 2249 1393 972 933 1114
850.0 1632 2627 4117 5350 5678 4855 3436 2335 1752 1349
890.0 1115 923 758 622 516 439 387 356 362 375
930.0 350 333 312 339 358 335 283 238 268 259
970.0 254 268 282 282 299 322 352 422 440 392
1010.0 378 416 451 553 622 708 958 1736 2997 2904
1050.0 1744 991 665 651 688 775 851 1087 1622 2737
1090.0 4034 4312 3608 2466 1596 1107 839 718 667 614
1130.0 580 578 612 643 669 739 864 1075 1382 1794
1170.0 2498 3662 4766 6000 7301 7428 6540 5101 3852 3764
1210.0 4470 4818 4222 2953 1691 1023 776 704 791 1019
1250.0 1233 1188 971 772 694 673 626 588 524 506
1290.0 486 488 441 391 395 503 546 516 498 541
1330.0 634 725 800 780 761 851 1062 1392 1814 2234
1370.0 2551 2949 3379 3928 4431 4335 3579 2936 3169 4033
1410.0 4131 2755 1576 966 831 757 802 938 1211 1936
1450.0 2807 2488 3063 4952 7147 7315 5367 3401 2051 1486
1490.0 1144 857 714 585 567 553 468 443 459 377
1530.0 366 332 363 422 388 347 389 515 579 752
1570.0 957 965 828 709 569 464 377 328 281 262
1610.0 248 229 262 214 249 202 238 266 241 266
1650.0 318 315 254 236 248 270 321 281 351 351
1690.0 301 273 345 327 303 256 290 355 298 281
1730.0 330 419 352 323 328 347 317 324 338 313
1770.0 333 336 289 281 277 279 301 308 353 339
1810.0 335 322 285 281 282 288 264 244 268 285
1850.0 257 245 260 259 282 315 295 303 325 343
1890.0 363 360 343 319 301 297 300 292 289 258
1930.0 246 242 236 245 249 245 270 286 283 276
1970.0 265 262 270 260 247 245 229 218 216 218
2010.0 217 220 230 225 219 222 219 223 231 229
2050.0 227 230 229 227 235 228 230 233 232 231
2090.0 228 232 227 223 221 222 230 228 226 226
2130.0 223 221 223 215 212 212 212 216 211 220
2170.0 217 217 223 229 226 220 225 218 224 221
2210.0 220 219 222 217 223 223 223 226 236 230
2250.0 230 233 244 244 241 246 256 259 250 252
2290.0 248 244 242 245 243 241 239 247 250 254
2330.0 250 269 252 252 266 242 233 234 245 249
2370.0 256 260 259 258 252 246 250 247 249 252
2410.0 251 248 242 248 240 248 246 254 245 247
2450.0 242 249 249 244 242 240 247 242 241 233
2490.0 235 241 241 251 252 249 252 251 249 245
2530.0 241 243 250 249 253 252 253 256 258 259
2570.0 270 269 263 257 268 269 267 266 264 258
2610.0 251 253 255 247 253 250 246 248 243 243
2650.0 255 252 254 258 266 267 273 265 260 254
2690.0 252 253 249 253 254 257 251 251 251 247
2730.0 245 241 237 243 239 243 237 234 246 241
2770.0 238 244 250 250 250 254 239 235 240 247
2810.0 241 247 250 252 255 260 251 257 255 255
2850.0 231 220 229 233 244 245 249 243 253 252
2890.0 250 244 246 227 223 215 195 172 135 127
2930.0 174 217 255 266 275 274 272 274 274 279
2970.0 280 289 292 282 292 295 294 294 304 317
3010.0 332 335 335 341 340 345 345 353 358 369
3050.0 381 406 476 557 645 728 811 883 886 737
3090.0 608 558 520 479 422 372 341 313 309 304
3130.0 301 294 290 290 290 292 294 288 293 290
3170.0 287 281 267 260 259 245 263 249 249 241
3210.0 255 235 235 241 239 229 240 243 241 240
3250.0 237 240 240 244 238 230 235 237 228 227
3290.0 240 248 234 224 235 232 225 235 226 231
3330.0 230 243 235 221 221 226 235 232 228 247
3370.0 229 231 233 229 235 239 243 242 247 233
3410.0 240 238 234 238 235 233 225 242 231 227
3450.0 242 240 250 241 239 251 248 242 246 258
3490.0 254 247 235 237 243 251 255 244 250 248
3530.0 252 258 252 251 265 281 335 362 364 383
3570.0 326 287 265 273 249 262 249 242 232 241
3610.0 228 256 258 253 240 244 250 248 254 260
3650.0 258 242 252 245 249 270 244 253 244 240
3690.0 245 275 248 254 279 261 247 235 256 247
3730.0 255 249 240 262 253 233 256 287 253 242
3770.0 246 242 238 239 245 251 271 251 223 251
3810.0 248 233 232 249 278 251 245 264 287 246
3850.0 263 221 229 216 264 250 229 224 256 249
3890.0 278 246 251 257 262 249 278 250 254 270
3930.0 241 279 266 291 265 259 248 257 240 237
##END=
