##TITLE=Benzenesulfonic acid, m-chloro-phenyl ester
##JCAMP-DX=4.24
##DATA TYPE=INFRARED SPECTRUM
##ORIGIN=Sadtler Research Labs Under US-EPA Contract
##OWNER=NIST Standard Reference Data Program
##CAS REGISTRY NO=13659-18-2
##MOLFORM=C 12 H 9 Cl O 3 S
##XUNITS=1/CM
##YUNITS=ABSORBANCE
##XFACTOR=1.0
##YFACTOR=0.000085501
##DELTAX=4.0
##FIRSTX=450.0
##LASTX=3966.0
##FIRSTY=0.011201
##MAXX=3966
##MINX=450
##MAXY=0.85501
##MINY=0
##NPOINTS=880
##XYDATA=(X++(Y..Y))
450.0 131 79 43 35 59 52 17 43 31 33
490.0 37 49 49 80 95 92 145 117 173 280
530.0 340 421 411 497 733 1526 3287 4133 3091 1802
570.0 1231 1528 2269 3639 4337 3380 2010 1000 599 452
610.0 436 434 520 695 867 1045 1221 1110 686 481
650.0 343 411 409 786 1078 2324 3143 2853 2603 2643
690.0 2211 1384 861 666 619 783 1110 1407 1345 1040
730.0 810 793 995 1825 3515 4824 4267 3577 4052 4741
770.0 4322 3462 3256 4172 5190 4825 3271 1770 980 637
810.0 471 343 290 232 229 212 243 273 303 347
850.0 387 477 636 914 1306 1759 2058 2186 2388 2948
890.0 4029 5535 7622 9702 10000 7864 4943 2849 1733 1159
930.0 818 567 378 261 185 133 88 74 83 80
970.0 65 57 48 45 58 81 119 229 302 227
1010.0 128 98 111 172 202 182 127 105 98 118
1050.0 157 219 356 571 910 1180 1238 1252 1764 2790
1090.0 3371 3122 2400 1560 909 557 426 357 319 300
1130.0 296 314 346 421 542 789 1220 1629 1901 2424
1170.0 3410 4600 5521 5585 4853 4098 4027 4713 5508 5758
1210.0 5149 3761 2289 1342 876 612 433 327 273 261
1250.0 314 511 782 840 572 350 302 323 375 454
1290.0 511 494 392 304 282 324 346 324 307 339
1330.0 416 503 552 487 417 432 536 714 920 1101
1370.0 1324 1733 2266 2762 2971 2938 3005 3629 4883 5769
1410.0 4924 2810 1485 1011 1082 1152 1048 898 943 1351
1450.0 1832 1600 1580 2019 2938 3780 3549 2681 1696 1178
1490.0 859 605 485 374 339 303 234 225 252 228
1530.0 243 238 258 297 296 297 372 493 576 714
1570.0 1028 1560 2486 3806 4686 4454 2974 1637 888 530
1610.0 351 255 231 171 158 90 86 72 39 48
1650.0 79 83 53 46 68 90 134 103 147 134
1690.0 86 56 94 74 49 20 43 83 39 27
1730.0 58 109 75 76 87 106 87 93 110 103
1770.0 130 129 96 89 81 82 90 92 117 116
1810.0 120 105 68 54 53 59 44 37 52 70
1850.0 61 65 75 70 69 72 43 40 45 58
1890.0 76 87 89 84 79 84 89 95 103 90
1930.0 87 78 64 63 56 55 71 85 88 85
1970.0 74 74 72 62 44 40 31 21 18 16
2010.0 16 19 22 19 15 17 17 21 25 32
2050.0 34 38 38 41 48 44 41 42 42 40
2090.0 36 33 33 29 26 24 29 29 26 23
2130.0 21 18 18 16 20 18 19 21 18 21
2170.0 22 19 22 24 27 25 26 24 23 21
2210.0 18 15 17 16 17 19 19 21 28 29
2250.0 29 31 33 34 35 38 43 46 42 44
2290.0 48 50 59 61 64 67 64 70 78 76
2330.0 63 64 58 58 72 68 69 59 61 55
2370.0 61 61 61 62 53 46 40 34 36 38
2410.0 40 41 36 38 29 28 29 29 27 28
2450.0 28 32 32 32 33 35 39 40 40 42
2490.0 40 39 38 39 35 29 29 31 33 31
2530.0 27 29 29 31 36 37 39 39 45 48
2570.0 50 54 56 60 65 62 56 53 50 50
2610.0 47 44 40 29 32 32 29 27 32 29
2650.0 34 34 38 40 40 43 46 49 51 49
2690.0 43 40 33 33 31 33 36 34 34 34
2730.0 35 34 28 28 31 33 31 34 32 33
2770.0 34 29 32 32 33 37 32 31 29 33
2810.0 31 32 29 34 37 42 43 50 50 52
2850.0 40 35 42 49 47 50 51 45 47 49
2890.0 49 49 47 41 37 35 24 10 0 0
2930.0 19 42 59 64 61 54 54 52 51 50
2970.0 55 57 54 51 51 53 55 62 70 80
3010.0 87 95 105 116 131 143 151 154 148 148
3050.0 159 183 243 342 467 617 784 904 886 703
3090.0 502 378 302 235 176 124 103 83 72 67
3130.0 61 58 54 51 50 51 48 50 58 60
3170.0 58 55 47 42 39 32 36 32 33 27
3210.0 37 28 34 29 32 28 27 29 31 28
3250.0 29 29 27 21 22 25 24 29 27 23
3290.0 23 26 21 18 23 18 23 22 21 26
3330.0 22 25 22 21 15 19 19 20 23 26
3370.0 18 18 21 26 20 21 25 24 24 24
3410.0 20 20 24 23 19 20 23 22 20 24
3450.0 21 18 29 24 24 26 29 27 32 28
3490.0 29 29 26 24 27 34 33 26 29 28
3530.0 26 36 25 29 36 33 33 31 27 22
3570.0 28 36 28 23 23 26 22 18 22 31
3610.0 22 23 32 25 26 34 26 21 35 33
3650.0 38 36 34 28 28 32 27 29 24 23
3690.0 21 33 31 35 41 36 32 23 28 32
3730.0 20 38 32 28 39 26 29 35 27 34
3770.0 31 29 21 28 20 26 22 24 16 27
3810.0 20 16 26 27 28 12 25 29 23 21
3850.0 26 13 12 23 24 19 11 12 17 26
3890.0 31 18 28 24 22 25 31 16 17 23
3930.0 26 35 24 24 28 27 21 25 32 22
##END=
