##TITLE=Benzenesulfonic acid, 4-bromo-2-chlorophenyl ester
##JCAMP-DX=4.24
##DATA TYPE=INFRARED SPECTRUM
##ORIGIN=Sadtler Research Labs Under US-EPA Contract
##OWNER=NIST Standard Reference Data Program
##CAS REGISTRY NO=13659-13-7
##MOLFORM=C 12 H 8 Br Cl O 3 S
##XUNITS=1/CM
##YUNITS=ABSORBANCE
##XFACTOR=1.0
##YFACTOR=0.000042984
##DELTAX=4.0
##FIRSTX=450.0
##LASTX=3966.0
##FIRSTY=0.007565
##MAXX=3966
##MINX=450
##MAXY=0.42984
##MINY=0
##NPOINTS=880
##XYDATA=(X++(Y..Y))
450.0 176 190 84 63 128 156 111 116 66 78
490.0 127 177 193 171 218 203 268 236 314 351
530.0 488 532 648 743 756 957 1244 1523 1806 2395
570.0 3290 3268 2965 3815 5572 6812 5628 3335 1711 926
610.0 575 409 406 429 492 702 987 1174 967 719
650.0 580 631 712 1062 1248 2168 3105 3053 3275 3523
690.0 2384 1247 897 855 892 1138 1389 1547 1686 1924
730.0 2194 2199 2065 2396 3674 5462 5426 4826 6055 8511
770.0 10000 8855 5958 3389 1988 1336 985 788 736 839
810.0 1049 1608 2352 3015 2795 1836 1063 773 778 972
850.0 1459 2275 3561 5168 6030 5109 3390 2107 1461 1136
890.0 888 733 583 474 352 252 181 144 165 149
930.0 159 122 144 183 222 175 105 71 73 79
970.0 81 106 98 99 117 137 152 219 241 185
1010.0 187 189 241 354 432 399 448 637 942 1112
1050.0 1508 2557 2897 2209 1648 1601 2114 3192 3891 3420
1090.0 2733 2453 1995 1267 748 506 414 357 336 316
1130.0 334 358 411 467 516 574 680 895 1203 1636
1170.0 2375 3551 4640 6012 7784 8404 7727 5869 4048 3858
1210.0 4808 5518 5074 3628 2182 1309 848 635 630 852
1250.0 1187 1244 998 765 655 609 570 508 459 411
1290.0 393 379 327 281 294 376 423 376 369 410
1330.0 502 609 662 631 628 734 943 1294 1751 2239
1370.0 2685 3124 3510 4043 4573 4513 3773 3111 3403 4394
1410.0 4507 2936 1537 861 682 640 653 798 1099 1843
1450.0 2713 2272 2549 3778 6291 8703 7425 4584 2165 1284
1490.0 922 662 575 453 397 307 225 177 172 135
1530.0 136 123 127 154 149 147 183 274 349 509
1570.0 705 740 606 488 375 257 195 148 109 82
1610.0 68 64 68 56 65 60 77 89 81 99
1650.0 97 89 66 61 72 83 120 110 142 129
1690.0 99 85 104 97 81 76 94 135 114 126
1730.0 159 189 153 119 112 129 123 127 145 133
1770.0 141 118 93 88 78 84 104 119 153 164
1810.0 163 148 119 104 97 95 82 70 76 84
1850.0 75 68 77 77 91 113 110 121 148 171
1890.0 192 197 178 159 143 133 125 119 112 93
1930.0 80 66 68 74 76 78 100 123 115 112
1970.0 97 97 102 90 72 71 62 55 45 50
2010.0 48 46 52 50 47 44 50 54 59 55
2050.0 54 61 60 62 63 66 60 63 65 63
2090.0 64 60 54 60 54 57 61 59 58 54
2130.0 53 54 50 51 50 46 42 43 48 50
2170.0 49 56 57 58 59 55 55 54 55 47
2210.0 47 46 43 49 46 48 45 50 53 54
2250.0 56 57 61 63 66 70 80 83 88 87
2290.0 88 91 96 105 108 121 102 96 121 121
2330.0 114 110 90 89 108 93 98 76 79 69
2370.0 82 86 86 86 81 66 66 67 63 71
2410.0 63 65 61 64 63 74 69 71 67 64
2450.0 68 58 59 65 59 55 61 54 53 51
2490.0 54 52 58 56 56 63 52 65 62 59
2530.0 58 62 65 63 62 64 66 67 66 75
2570.0 75 78 82 84 78 76 80 84 74 72
2610.0 69 68 60 54 61 67 63 64 63 63
2650.0 59 59 67 65 68 67 66 67 69 69
2690.0 61 57 55 52 64 65 59 63 66 59
2730.0 55 59 62 53 58 52 56 66 60 62
2770.0 56 58 63 65 67 71 70 71 75 75
2810.0 81 82 83 88 84 83 88 89 98 98
2850.0 79 64 63 61 69 67 73 76 81 86
2890.0 83 81 75 76 79 65 53 32 6 0
2930.0 28 67 88 92 102 100 91 96 94 95
2970.0 104 105 96 95 96 99 96 111 121 134
3010.0 142 145 151 161 165 166 165 174 180 192
3050.0 206 237 298 387 494 599 681 759 759 592
3090.0 434 389 352 301 235 196 154 138 129 129
3130.0 126 117 119 107 114 107 103 102 99 100
3170.0 106 84 92 84 77 74 68 77 69 65
3210.0 60 66 68 69 52 58 55 72 63 54
3250.0 57 58 57 57 58 63 65 67 49 59
3290.0 64 52 64 65 62 46 49 42 48 51
3330.0 50 53 47 66 69 52 47 43 44 52
3370.0 53 56 55 73 68 48 61 65 61 48
3410.0 67 64 69 64 68 59 62 69 68 60
3450.0 64 56 63 59 63 69 74 63 74 64
3490.0 68 71 67 79 77 64 69 71 81 92
3530.0 89 85 82 90 91 88 110 90 97 100
3570.0 113 150 164 176 175 125 88 73 66 67
3610.0 84 77 82 79 69 69 68 64 75 75
3650.0 87 68 95 74 84 73 85 76 65 69
3690.0 65 79 79 82 76 76 91 80 74 70
3730.0 64 75 74 62 88 85 79 59 73 87
3770.0 84 60 67 65 76 82 77 54 65 84
3810.0 75 62 50 53 61 65 92 107 89 71
3850.0 72 59 76 86 77 82 57 49 95 93
3890.0 96 95 80 79 119 95 60 74 59 78
3930.0 103 63 111 95 115 83 120 100 79 51
##END=
