##TITLE=Benzenesulfonic acid, o-chloro-phenyl ester
##JCAMP-DX=4.24
##DATA TYPE=INFRARED SPECTRUM
##ORIGIN=Sadtler Research Labs Under US-EPA Contract
##OWNER=NIST Standard Reference Data Program
##CAS REGISTRY NO=13659-19-3
##MOLFORM=C 12 H 9 Cl O 3 S
##XUNITS=1/CM
##YUNITS=ABSORBANCE
##XFACTOR=1.0
##YFACTOR=0.000045615
##DELTAX=4.0
##FIRSTX=450.0
##LASTX=3966.0
##FIRSTY=0.001961
##MAXX=3966
##MINX=450
##MAXY=0.45615
##MINY=0
##NPOINTS=880
##XYDATA=(X++(Y..Y))
450.0 43 198 85 77 69 88 22 17 15 33
490.0 15 61 20 36 48 63 98 83 168 174
530.0 246 264 388 549 839 1421 2617 4281 4833 4000
570.0 3064 2549 3064 4025 4278 3429 2339 1506 992 800
610.0 792 873 1020 1349 1595 1325 796 429 248 272
650.0 230 379 392 847 1173 2268 2571 2380 2713 2890
690.0 2273 1559 1348 1637 2123 2433 2469 2257 1866 1686
730.0 1865 2895 5011 7294 7563 6542 5948 6009 6468 7033
770.0 6270 4330 2530 1453 930 664 499 383 353 365
810.0 382 389 424 487 559 670 847 1085 1504 2172
850.0 3270 4763 6674 8736 9522 8007 5471 3462 2358 1776
890.0 1443 1218 1070 977 892 824 753 653 565 468
930.0 431 445 546 585 465 342 279 251 245 242
970.0 244 253 268 279 319 349 410 448 419 381
1010.0 381 446 555 710 908 1089 1166 1055 941 1042
1050.0 1523 2607 3553 3536 2891 1980 1314 1085 1150 1511
1090.0 2374 3205 3157 2438 1602 1199 1154 1117 1031 1005
1130.0 1104 1154 1145 1106 1120 1179 1330 1554 1670 1846
1170.0 2397 3516 5062 7045 9140 10000 9361 7566 5799 5507
1210.0 6587 7518 6939 4897 2667 1562 1155 940 809 723
1250.0 715 758 941 1126 1168 1125 1071 1067 1069 1052
1290.0 1007 939 841 757 692 687 696 657 633 667
1330.0 739 812 833 773 737 792 943 1187 1482 1760
1370.0 2012 2419 3015 3773 4249 4202 3880 4059 4926 5654
1410.0 5141 3339 1882 1084 935 956 1091 1393 2109 3036
1450.0 3413 2614 1974 1993 2635 4086 5333 5563 4683 3628
1490.0 2562 1794 1212 765 553 418 290 225 193 89
1530.0 77 36 65 75 56 29 72 149 192 249
1570.0 413 616 921 1087 1074 926 705 511 374 285
1610.0 223 188 187 135 164 141 213 215 166 154
1650.0 186 187 179 149 196 241 295 279 326 299
1690.0 220 184 206 188 155 109 99 115 41 12
1730.0 32 74 27 30 27 40 41 38 63 51
1770.0 82 72 56 55 84 112 150 143 174 155
1810.0 146 112 79 83 82 91 54 48 40 53
1850.0 28 20 25 30 43 63 68 70 89 97
1890.0 122 134 149 155 181 189 172 136 103 71
1930.0 65 72 86 107 119 105 107 107 96 87
1970.0 82 82 78 64 41 32 24 15 7 9
2010.0 6 3 10 8 1 11 9 12 13 11
2050.0 12 9 14 13 19 20 23 20 14 14
2090.0 9 11 8 4 1 2 5 10 16 11
2130.0 8 5 5 6 8 7 5 3 6 3
2170.0 5 2 9 14 14 17 19 18 12 14
2210.0 6 6 5 1 4 2 11 9 9 13
2250.0 15 21 23 22 23 33 38 44 52 55
2290.0 54 51 49 51 57 70 66 75 92 81
2330.0 63 69 45 17 84 26 60 32 11 8
2370.0 41 31 52 43 43 33 41 40 46 40
2410.0 34 34 31 39 41 47 49 49 46 39
2450.0 43 40 42 34 36 36 38 33 42 39
2490.0 38 35 36 44 41 38 36 33 41 44
2530.0 49 50 55 51 58 58 61 66 69 70
2570.0 73 70 74 79 73 76 77 80 69 66
2610.0 66 64 61 59 60 60 61 62 63 60
2650.0 63 64 69 71 81 84 94 103 99 94
2690.0 92 91 78 76 80 87 94 92 100 112
2730.0 112 123 121 123 130 138 148 153 156 168
2770.0 179 185 185 198 206 219 223 240 259 280
2810.0 287 287 289 293 306 324 348 365 365 381
2850.0 355 333 332 345 340 331 319 314 328 353
2890.0 363 375 386 379 387 375 357 329 306 314
2930.0 376 456 497 514 497 485 466 451 435 419
2970.0 395 364 331 289 256 255 256 261 277 288
3010.0 281 283 272 271 278 275 283 289 298 309
3050.0 331 383 464 590 763 998 1316 1590 1602 1244
3090.0 783 508 382 304 226 165 138 114 104 101
3130.0 93 104 91 90 88 92 94 95 103 107
3170.0 104 95 83 80 69 60 70 65 62 55
3210.0 55 52 55 53 56 49 52 48 45 45
3250.0 43 51 56 43 64 54 53 48 46 49
3290.0 46 45 43 36 49 50 50 55 52 42
3330.0 47 42 50 48 58 54 53 58 57 60
3370.0 54 55 61 54 57 60 62 65 59 57
3410.0 65 74 62 66 68 67 66 62 76 71
3450.0 56 64 76 67 75 82 79 79 78 84
3490.0 82 96 93 92 95 98 110 115 118 140
3530.0 153 154 174 162 156 162 147 121 129 153
3570.0 161 166 172 175 171 135 88 42 41 29
3610.0 47 38 43 22 0 58 23 24 40 26
3650.0 67 41 24 32 11 71 32 72 9 44
3690.0 47 60 33 38 31 40 38 51 30 37
3730.0 28 48 30 28 88 32 69 26 39 57
3770.0 38 41 27 51 23 53 29 30 17 63
3810.0 20 44 28 49 40 27 57 50 31 22
3850.0 65 77 41 37 31 58 29 14 54 65
3890.0 39 68 49 86 55 38 41 38 53 29
3930.0 53 43 70 33 35 50 53 35 26 25
##END=
