##TITLE=3-Quinolinecarboxaldehyde
##JCAMP-DX=4.24
##DATA TYPE=INFRARED SPECTRUM
##ORIGIN=Sadtler Research Labs Under US-EPA Contract
##OWNER=NIST Standard Reference Data Program
##CAS REGISTRY NO=13669-42-6
##MOLFORM=C 10 H 7 N O
##XUNITS=1/CM
##YUNITS=ABSORBANCE
##XFACTOR=1.0
##YFACTOR=0.000072098
##DELTAX=4.0
##FIRSTX=450.0
##LASTX=3966.0
##FIRSTY=0.012617
##MAXX=3966
##MINX=450
##MAXY=0.72098
##MINY=0
##NPOINTS=880
##XYDATA=(X++(Y..Y))
450.0 175 181 219 301 285 342 532 389 303 251
490.0 183 133 127 76 90 66 100 69 95 88
530.0 91 92 71 54 45 44 64 45 57 70
570.0 86 143 245 293 306 296 255 229 200 167
610.0 59 65 106 139 169 187 135 66 37 27
650.0 17 1 16 16 36 44 56 38 47 52
690.0 54 63 68 64 55 61 82 112 211 432
730.0 841 1285 1754 2218 2495 3102 2422 2023 1781 1511
770.0 1494 1420 1278 1184 985 612 472 354 224 170
810.0 123 113 98 91 81 66 53 59 77 79
850.0 114 151 196 260 245 194 205 206 221 284
890.0 333 420 510 688 843 805 642 475 265 133
930.0 93 73 89 80 108 133 176 223 201 184
970.0 198 205 217 247 314 339 311 313 285 249
1010.0 325 368 355 329 241 156 115 85 67 58
1050.0 52 50 48 61 61 73 69 75 74 77
1090.0 83 86 115 163 243 370 674 1068 1128 1106
1130.0 949 505 340 423 654 1137 1671 1976 1895 1475
1170.0 847 408 215 145 108 90 124 239 373 413
1210.0 407 283 143 116 112 107 93 93 102 122
1250.0 170 233 306 367 439 477 430 378 271 129
1290.0 72 58 48 44 42 49 53 69 63 80
1330.0 116 168 275 362 452 593 764 937 1110 1198
1370.0 1088 912 651 388 327 372 398 412 340 263
1410.0 199 165 209 173 177 139 129 103 74 75
1450.0 111 164 251 252 240 220 227 213 263 456
1490.0 739 930 960 879 675 417 307 235 239 182
1530.0 176 167 189 238 222 228 281 454 678 951
1570.0 1097 1115 994 845 929 1407 1841 2017 1978 1677
1610.0 1443 1697 2069 2019 1744 1172 607 365 326 288
1650.0 300 263 223 190 206 217 297 325 424 466
1690.0 481 591 856 1329 2432 5089 8511 9496 10000 7701
1730.0 3893 2111 1331 856 523 400 279 263 213 204
1770.0 190 162 127 123 126 125 130 113 120 90
1810.0 99 98 85 88 90 95 90 107 124 141
1850.0 119 93 93 80 80 81 70 72 98 114
1890.0 129 129 119 105 94 88 77 70 72 63
1930.0 64 72 68 72 76 77 90 100 90 74
1970.0 44 18 8 7 2 14 8 7 8 11
2010.0 10 15 22 21 18 15 14 13 18 15
2050.0 11 8 3 5 7 3 1 3 6 12
2090.0 15 17 13 14 14 15 15 15 16 16
2130.0 18 17 17 17 16 12 8 4 4 3
2170.0 3 3 4 0 0 2 6 3 3 4
2210.0 2 1 4 7 6 8 11 12 16 21
2250.0 25 29 28 29 32 31 34 37 42 41
2290.0 43 42 51 55 60 72 76 76 81 79
2330.0 84 88 74 96 83 88 104 84 112 79
2370.0 64 56 60 54 35 28 20 18 17 18
2410.0 10 11 9 11 9 9 12 3 9 11
2450.0 14 12 13 16 16 18 19 17 19 22
2490.0 22 23 24 21 22 20 26 24 27 26
2530.0 25 26 25 22 26 30 28 35 36 36
2570.0 37 40 43 52 51 53 55 50 48 44
2610.0 46 45 50 53 51 49 53 58 55 60
2650.0 67 72 79 86 98 106 123 138 170 211
2690.0 266 336 408 491 567 633 687 733 775 817
2730.0 823 783 714 603 500 460 472 523 588 626
2770.0 631 593 519 451 433 470 565 701 839 949
2810.0 1012 998 954 929 899 801 686 542 389 277
2850.0 212 166 141 133 121 111 103 102 102 101
2890.0 102 100 95 84 85 76 75 63 64 59
2930.0 76 90 99 105 119 124 120 115 109 108
2970.0 107 106 108 110 125 137 158 181 219 248
3010.0 271 284 289 303 331 377 419 445 454 462
3050.0 458 469 516 567 628 724 813 806 780 724
3090.0 599 467 354 232 145 105 89 76 66 56
3130.0 53 54 52 49 44 45 46 42 51 42
3170.0 45 41 44 46 48 50 43 43 36 37
3210.0 35 37 33 35 31 25 26 27 24 29
3250.0 26 28 29 29 24 24 21 26 25 24
3290.0 18 13 16 20 23 18 17 18 20 17
3330.0 23 21 17 22 17 18 15 17 17 28
3370.0 22 14 22 22 24 21 30 41 42 63
3410.0 100 133 168 169 147 97 46 21 14 13
3450.0 12 12 15 20 21 18 16 19 32 17
3490.0 14 21 20 19 25 19 24 20 22 24
3530.0 21 16 16 23 22 21 33 23 24 29
3570.0 29 20 23 22 22 24 23 19 25 26
3610.0 20 13 24 19 22 21 20 21 15 19
3650.0 15 7 19 10 15 8 7 9 17 9
3690.0 3 19 19 11 19 15 12 15 25 21
3730.0 26 14 20 19 2 15 3 11 16 22
3770.0 23 17 27 17 13 14 26 23 25 13
3810.0 26 26 32 19 14 29 30 25 15 17
3850.0 19 15 9 28 30 17 7 3 20 15
3890.0 22 18 18 8 21 12 36 24 19 13
3930.0 20 24 27 27 20 35 39 24 21 18
##END=
