##TITLE=1-(2-Thienyl)-1-propanone
##JCAMP-DX=4.24
##DATA TYPE=INFRARED SPECTRUM
##ORIGIN=Sadtler Research Labs Under US-EPA Contract
##OWNER=NIST Standard Reference Data Program
##CAS REGISTRY NO=13679-75-9
##MOLFORM=C 7 H 8 O S
##XUNITS=1/CM
##YUNITS=ABSORBANCE
##XFACTOR=1.0
##YFACTOR=0.000107465
##DELTAX=4.0
##FIRSTX=450.0
##LASTX=3966.0
##FIRSTY=0.010209
##MAXX=3966
##MINX=450
##MAXY=1.07465
##MINY=0
##NPOINTS=880
##XYDATA=(X++(Y..Y))
450.0 95 189 129 90 60 87 84 0 91 52
490.0 105 47 69 60 47 49 40 99 80 70
530.0 91 114 96 124 148 161 219 239 309 361
570.0 480 503 534 546 502 386 311 255 211 180
610.0 138 165 160 165 143 154 128 96 115 98
650.0 102 96 105 83 54 60 49 47 58 149
690.0 327 686 1414 2246 3385 4120 6231 5150 3797 3082
730.0 2005 1093 583 311 319 297 318 280 243 198
770.0 173 166 173 209 208 286 332 419 473 452
810.0 418 363 333 290 295 315 427 558 828 1361
850.0 1995 2180 2087 1894 1238 587 272 200 200 297
890.0 485 767 1146 1424 1417 1311 1014 574 411 516
930.0 760 981 1012 951 727 388 125 76 58 49
970.0 57 63 83 95 149 180 223 239 289 310
1010.0 339 377 441 622 893 1108 1164 1213 1187 1147
1050.0 1235 1292 1300 1117 844 624 543 576 609 570
1090.0 555 458 302 227 166 155 119 109 91 98
1130.0 96 100 113 116 151 187 277 370 510 644
1170.0 795 925 1043 1192 1376 1529 1609 1686 1695 1860
1210.0 2311 3091 3943 4607 5302 5804 5207 4375 4007 2876
1250.0 1760 1414 1279 1203 1166 1149 1097 982 822 669
1290.0 547 482 484 496 554 588 658 687 748 741
1330.0 723 704 674 778 974 1347 1741 2071 2309 2283
1370.0 1951 1545 1197 907 772 755 729 704 1039 1728
1410.0 2950 4382 5117 5113 4787 3055 1658 1018 783 671
1450.0 646 643 653 838 836 810 673 527 428 251
1490.0 192 242 311 526 826 1545 2185 2424 2344 1884
1530.0 1174 570 373 280 326 405 383 286 270 247
1570.0 182 129 119 99 127 108 118 126 148 184
1610.0 195 229 190 248 211 254 244 242 340 353
1650.0 426 452 679 829 1135 1609 2535 3981 6146 7774
1690.0 10000 9559 9888 7706 5142 3499 1839 978 531 520
1730.0 323 288 312 342 291 247 323 252 248 200
1770.0 168 73 126 95 111 116 129 166 114 177
1810.0 138 125 106 110 84 63 87 89 62 27
1850.0 70 68 66 57 43 10 42 57 42 46
1890.0 29 45 38 48 41 34 31 20 12 17
1930.0 37 26 39 12 28 35 29 27 25 17
1970.0 17 33 25 26 26 10 11 20 28 18
2010.0 28 17 19 14 24 19 19 14 13 20
2050.0 19 29 25 29 17 31 34 35 42 41
2090.0 43 37 43 34 33 29 31 26 22 27
2130.0 20 26 20 23 17 20 22 25 31 34
2170.0 38 31 33 24 20 14 17 16 13 16
2210.0 11 17 10 15 11 14 14 14 9 10
2250.0 22 17 20 25 31 28 30 30 25 17
2290.0 9 10 3 8 4 4 8 9 16 9
2330.0 9 4 5 2 2 1 1 3 9 8
2370.0 1 10 1 10 5 16 17 17 25 26
2410.0 26 27 34 34 38 42 43 39 43 43
2450.0 38 41 38 40 34 40 33 30 20 13
2490.0 12 8 12 9 10 6 9 8 10 12
2530.0 9 13 11 12 5 10 8 12 14 18
2570.0 23 20 25 25 24 18 23 19 23 26
2610.0 27 26 22 27 27 29 34 41 40 39
2650.0 33 22 20 16 23 20 24 23 27 25
2690.0 29 34 31 35 33 34 31 34 35 37
2730.0 41 49 57 60 69 67 71 69 62 56
2770.0 55 54 44 49 43 51 51 58 66 77
2810.0 88 103 128 145 167 172 177 163 151 138
2850.0 142 143 157 180 208 252 311 391 500 631
2890.0 736 800 814 825 864 925 1017 1080 1085 1036
2930.0 975 919 941 1157 1496 1643 1629 1541 1230 946
2970.0 916 1100 1431 1831 2073 2132 2089 1696 1217 891
3010.0 638 474 355 298 255 228 205 196 179 158
3050.0 146 132 120 104 112 118 170 269 402 450
3090.0 481 503 382 303 285 256 217 174 159 133
3130.0 89 68 58 54 48 45 43 40 37 32
3170.0 32 33 32 32 28 31 31 28 25 25
3210.0 18 17 18 16 14 9 17 11 17 10
3250.0 9 16 16 15 15 20 16 15 15 18
3290.0 16 16 20 13 18 19 22 20 27 28
3330.0 28 30 47 62 77 96 103 122 126 142
3370.0 142 132 120 101 84 72 46 25 20 2
3410.0 11 3 5 9 15 24 17 18 15 16
3450.0 17 13 16 14 14 12 16 15 26 13
3490.0 11 12 5 12 25 16 15 20 11 13
3530.0 12 10 10 16 19 11 22 13 25 15
3570.0 20 17 20 23 19 23 10 13 14 18
3610.0 11 12 11 3 4 17 15 6 9 12
3650.0 12 10 24 13 13 13 12 23 8 16
3690.0 6 27 14 16 16 15 23 14 15 16
3730.0 20 18 22 31 23 29 26 30 19 26
3770.0 25 18 8 29 20 12 14 12 18 0
3810.0 25 16 12 24 24 31 33 53 51 57
3850.0 38 47 33 17 9 20 2 10 13 3
3890.0 16 5 1 1 10 1 1 14 23 24
3930.0 13 31 42 35 34 38 39 37 32 38
##END=
