##TITLE=Salicylic acid, 4-nitro-, methyl
##JCAMP-DX=4.24
##DATA TYPE=INFRARED SPECTRUM
##ORIGIN=Sadtler Research Labs Under US-EPA Contract
##OWNER=NIST Standard Reference Data Program
##CAS REGISTRY NO=13684-28-1
##MOLFORM=C 8 H 7 N O 5
##XUNITS=1/CM
##YUNITS=ABSORBANCE
##XFACTOR=1.0
##YFACTOR=0.000039313
##DELTAX=4.0
##FIRSTX=450.0
##LASTX=3966.0
##FIRSTY=0.030153
##MAXX=3966
##MINX=450
##MAXY=0.39313
##MINY=0
##NPOINTS=880
##XYDATA=(X++(Y..Y))
450.0 767 476 563 789 623 1104 531 177 508 240
490.0 326 364 639 541 313 309 129 430 427 773
530.0 487 376 498 208 626 389 128 514 643 610
570.0 1139 662 565 762 721 489 0 309 353 436
610.0 430 427 497 606 496 47 401 494 453 248
650.0 447 449 442 438 437 804 598 785 884 1188
690.0 1333 1236 1417 1334 1328 1312 1317 1195 1144 1322
730.0 1630 2096 2346 1757 1196 860 468 519 528 407
770.0 563 612 825 1122 1530 1724 1428 1333 1255 1675
810.0 2673 3540 4049 3950 2933 1786 885 554 483 416
850.0 284 316 445 389 270 443 463 607 845 1073
890.0 1249 1036 944 725 495 337 314 290 495 579
930.0 758 949 898 1058 930 749 528 574 666 690
970.0 617 558 654 466 366 382 362 375 395 433
1010.0 442 494 469 515 480 478 503 517 634 575
1050.0 598 801 1129 1465 1905 2247 2376 1998 1683 1561
1090.0 1727 2072 2187 2140 1776 1382 1254 1291 1386 1557
1130.0 1791 2284 3095 3717 3731 3012 2018 1517 1413 1469
1170.0 1462 1526 1666 1809 2138 2793 3856 5379 7162 8626
1210.0 8767 7729 6062 4479 3599 3085 2983 2916 3080 3691
1250.0 4365 5035 5680 5722 5549 5447 5832 6885 7641 7499
1290.0 5917 4094 2954 2615 2655 2902 3610 4733 6454 8434
1330.0 9589 9595 7930 5876 4973 5021 5257 5087 4358 3550
1370.0 2791 2403 2376 2274 2393 2310 2259 2136 1902 1767
1410.0 1373 1270 1023 1047 909 1033 1331 2363 3698 4265
1450.0 3788 2843 2015 1870 1649 1572 1733 1776 2035 2035
1490.0 2103 2035 1700 1654 1520 1659 1537 1747 2150 2550
1530.0 3247 4627 6264 8507 9868 10000 9446 7506 5204 3576
1570.0 2583 2203 1985 1851 1721 1665 1609 1485 1647 1710
1610.0 1968 2097 2020 1727 1300 1222 924 920 730 645
1650.0 913 782 989 781 1092 1313 1399 1657 1851 2568
1690.0 3325 4736 7042 8519 9207 8070 6138 3960 2411 1510
1730.0 1085 843 791 662 717 888 1062 1129 1117 912
1770.0 710 639 469 423 401 412 360 373 210 250
1810.0 191 160 206 140 199 197 179 190 117 224
1850.0 96 139 152 95 153 101 145 88 117 124
1890.0 146 145 182 185 211 227 212 205 180 167
1930.0 140 139 131 112 124 108 110 100 97 106
1970.0 93 101 95 89 95 79 95 100 92 87
2010.0 94 104 104 99 110 118 120 105 102 104
2050.0 104 104 102 102 106 117 97 101 90 83
2090.0 76 70 82 73 70 66 67 63 59 57
2130.0 59 60 71 66 78 78 68 80 72 76
2170.0 75 71 67 68 63 52 61 57 57 53
2210.0 58 53 59 47 58 58 55 46 53 51
2250.0 51 63 68 57 74 75 82 92 90 105
2290.0 110 116 151 140 153 172 149 148 124 100
2330.0 89 48 116 19 169 79 172 67 151 133
2370.0 95 98 97 109 90 63 39 40 58 52
2410.0 48 49 46 47 42 45 34 29 34 30
2450.0 26 23 24 29 25 26 33 29 40 36
2490.0 41 40 49 47 48 63 64 62 61 71
2530.0 72 60 67 61 58 51 54 62 50 59
2570.0 52 55 58 72 65 86 85 72 73 80
2610.0 77 70 61 62 68 63 61 69 78 88
2650.0 85 100 103 110 107 122 113 106 130 128
2690.0 150 136 143 153 143 133 135 123 114 111
2730.0 103 108 100 94 96 98 92 86 87 90
2770.0 100 85 92 93 96 100 113 104 117 129
2810.0 139 137 144 149 160 166 186 188 208 236
2850.0 265 310 367 439 416 370 323 305 304 314
2890.0 319 334 351 373 369 371 358 354 352 342
2930.0 344 303 313 338 329 404 524 776 1294 1706
2970.0 1664 1277 706 447 374 344 352 354 389 406
3010.0 433 466 442 414 424 408 403 413 402 408
3050.0 368 356 345 347 365 355 355 367 383 395
3090.0 438 490 539 532 477 428 417 417 394 360
3130.0 324 316 302 305 310 304 306 331 336 358
3170.0 361 389 420 462 509 582 636 704 782 896
3210.0 1015 1152 1268 1416 1538 1616 1690 1724 1728 1714
3250.0 1665 1598 1543 1510 1456 1369 1338 1303 1242 1179
3290.0 1126 1087 1008 964 946 908 911 873 878 870
3330.0 853 843 842 791 760 726 718 691 658 666
3370.0 639 613 562 550 534 515 504 508 516 461
3410.0 426 389 390 349 366 354 362 324 321 350
3450.0 347 385 373 414 493 573 647 672 632 598
3490.0 519 479 412 383 356 347 333 311 295 239
3530.0 241 226 229 213 185 157 228 163 188 142
3570.0 173 167 202 136 205 140 189 101 172 121
3610.0 166 156 141 181 114 243 143 83 82 187
3650.0 101 260 33 163 70 162 242 198 180 55
3690.0 250 132 99 130 118 118 205 113 178 49
3730.0 178 255 168 298 237 421 170 241 133 198
3770.0 169 137 147 184 145 156 128 196 220 377
3810.0 123 276 175 376 235 232 237 299 226 257
3850.0 231 445 301 184 265 290 175 242 222 275
3890.0 269 193 223 211 301 243 160 179 176 168
3930.0 186 233 245 192 203 204 281 239 149 253
##END=
