##TITLE=Benzenemethanol, 2,4-dichloro-.alpha.-(chloromethyl)-
##JCAMP-DX=4.24
##DATA TYPE=INFRARED SPECTRUM
##ORIGIN=Sadtler Research Labs Under US-EPA Contract
##OWNER=NIST Standard Reference Data Program
##CAS REGISTRY NO=13692-14-3
##MOLFORM=C 8 H 7 Cl 3 O
##XUNITS=1/CM
##YUNITS=ABSORBANCE
##XFACTOR=1.0
##YFACTOR=0.000023392
##DELTAX=4.0
##FIRSTX=450.0
##LASTX=3966.0
##FIRSTY=0.061193
##MAXX=3966
##MINX=450
##MAXY=0.23392
##MINY=0
##NPOINTS=880
##XYDATA=(X++(Y..Y))
450.0 2616 1668 1387 1039 2114 1659 2042 1472 486 784
490.0 407 296 462 159 394 297 547 305 0 249
530.0 65 386 1005 1031 1398 1190 1273 1271 981 1245
570.0 914 687 332 31 280 79 340 783 642 631
610.0 329 201 323 64 110 159 130 145 173 353
650.0 313 469 466 223 390 110 424 501 338 920
690.0 1425 2420 3034 2777 2150 1626 1797 2130 1979 2188
730.0 1482 1150 1371 766 2372 2178 1805 1258 1911 2601
770.0 3994 6058 8398 9512 8316 5898 3810 2967 3035 3745
810.0 5134 6990 8955 10000 9367 7582 5886 5134 4684 4035
850.0 3374 3059 3077 3710 4790 4972 3938 2586 1704 1207
890.0 1029 1083 1113 1033 995 914 906 953 995 1292
930.0 1484 1621 1737 1748 1963 2078 2137 2318 2562 2740
970.0 2705 2673 2598 2599 2595 2692 2804 2914 3097 3505
1010.0 3965 4435 4735 4666 4512 4559 4786 5445 6499 7444
1050.0 7508 7105 6420 6121 6519 7171 8180 8706 8269 7203
1090.0 5769 4822 4723 5293 5482 5108 4016 3265 2981 3045
1130.0 3526 3558 3471 3249 3014 2494 2150 2054 2228 2399
1170.0 2862 3523 4195 4617 4617 4345 4014 3713 3463 3209
1210.0 2888 2587 2446 2122 1984 1944 1937 2014 2086 2343
1250.0 2817 3122 3317 3342 2976 2502 2168 1927 1885 1975
1290.0 1872 1731 1661 1458 1333 1297 1218 1199 1352 1452
1330.0 1549 1775 1917 1934 1899 1824 1786 1844 2214 2460
1370.0 2781 3521 4175 4547 4692 4246 3408 2579 1892 1613
1410.0 1395 1452 1581 1880 2523 3284 3844 3775 2957 2179
1450.0 1983 2214 2891 3949 5849 7939 9301 8765 6423 4032
1490.0 2483 1560 1118 891 926 885 904 923 939 852
1530.0 704 757 784 935 1228 1809 2513 3266 3757 3625
1570.0 3115 2935 3325 4418 5987 7467 7397 5724 3470 1770
1610.0 1136 919 689 726 612 507 536 516 558 565
1650.0 421 416 454 387 367 272 225 425 274 278
1690.0 295 272 206 345 403 381 335 390 461 464
1730.0 669 713 667 614 526 455 349 339 424 358
1770.0 361 317 333 270 363 255 319 216 216 251
1810.0 217 188 209 213 346 204 232 117 104 145
1850.0 209 125 218 156 150 156 115 138 156 175
1890.0 235 301 373 327 352 355 239 254 241 186
1930.0 154 183 199 179 183 83 100 191 176 169
1970.0 187 135 156 152 151 126 170 148 131 114
2010.0 126 111 134 103 124 70 61 155 137 143
2050.0 110 124 116 90 147 138 127 215 161 99
2090.0 113 159 149 147 171 189 146 116 136 113
2130.0 85 148 138 94 124 146 149 145 106 239
2170.0 187 122 178 143 68 141 199 146 136 189
2210.0 215 148 127 173 167 181 159 270 176 262
2250.0 251 187 229 202 229 202 256 262 218 302
2290.0 232 285 308 235 291 267 276 231 229 205
2330.0 107 107 159 256 232 108 173 128 115 54
2370.0 91 120 118 188 133 97 106 124 99 93
2410.0 58 101 106 75 106 96 89 85 103 78
2450.0 61 52 68 58 33 22 36 52 44 57
2490.0 82 54 57 70 87 63 97 84 108 82
2530.0 73 59 63 71 85 72 69 71 90 49
2570.0 96 104 108 78 69 51 84 94 100 79
2610.0 86 114 101 111 103 135 116 128 114 116
2650.0 134 144 137 130 132 130 146 132 168 157
2690.0 151 181 166 153 135 127 144 169 154 132
2730.0 157 109 129 116 72 102 112 81 63 121
2770.0 89 104 105 95 75 72 77 121 132 79
2810.0 133 120 160 170 164 129 175 179 244 261
2850.0 234 238 257 251 234 231 249 244 303 277
2890.0 296 363 385 462 517 561 633 668 774 872
2930.0 800 766 665 615 653 649 765 1077 1650 2143
2970.0 2126 1735 1297 944 683 518 457 461 452 469
3010.0 603 696 682 588 510 444 383 337 381 341
3050.0 404 414 439 516 545 553 550 589 667 670
3090.0 622 483 344 296 265 253 268 203 232 234
3130.0 182 218 183 151 172 182 162 159 155 167
3170.0 141 180 190 141 122 151 146 147 146 149
3210.0 188 164 126 162 107 136 124 159 162 143
3250.0 105 192 136 180 129 121 164 179 163 134
3290.0 155 122 152 159 157 120 156 185 137 127
3330.0 117 177 149 101 111 99 129 136 132 123
3370.0 75 53 104 89 91 133 121 105 98 100
3410.0 70 113 72 143 131 77 63 116 92 88
3450.0 72 18 96 75 84 110 55 49 145 57
3490.0 67 81 91 93 114 122 84 57 77 105
3530.0 113 158 118 111 182 136 148 59 154 199
3570.0 311 224 386 461 600 689 733 755 854 1145
3610.0 1948 3094 3769 3432 2396 1948 1840 1789 1751 1565
3650.0 1352 1224 921 660 475 329 302 309 169 150
3690.0 227 220 178 235 180 167 227 190 219 188
3730.0 213 189 208 157 134 294 189 215 83 229
3770.0 157 149 133 46 127 263 207 160 50 213
3810.0 152 97 115 117 285 168 214 152 123 156
3850.0 165 137 243 157 97 71 128 203 219 338
3890.0 85 150 166 338 178 104 132 273 300 290
3930.0 260 293 21 224 361 254 171 323 398 280
##END=
