##TITLE=1-Butanol, 2-methyl-
##JCAMP-DX=4.24
##DATA TYPE=INFRARED SPECTRUM
##ORIGIN=Sadtler Research Labs Under US-EPA Contract
##OWNER=NIST Standard Reference Data Program
##CAS REGISTRY NO=137-32-6
##MOLFORM=C 5 H 12 O
##XUNITS=1/CM
##YUNITS=ABSORBANCE
##XFACTOR=1.0
##YFACTOR=0.000067578
##DELTAX=4.0
##FIRSTX=450.0
##LASTX=3966.0
##FIRSTY=0.013313
##MAXX=3966
##MINX=450
##MAXY=0.67578
##MINY=0
##NPOINTS=880
##XYDATA=(X++(Y..Y))
450.0 197 206 196 147 119 164 224 261 302 343
490.0 311 252 239 262 240 176 187 211 119 79
530.0 143 154 58 58 135 75 1 116 152 41
570.0 46 134 65 29 129 125 134 63 110 144
610.0 67 51 145 97 39 90 124 82 78 99
650.0 145 18 65 114 27 27 97 112 86 62
690.0 102 102 27 52 126 79 65 74 97 55
730.0 94 149 111 93 139 179 176 189 255 241
770.0 192 219 262 232 180 198 201 154 168 216
810.0 192 175 215 275 220 248 271 266 223 223
850.0 252 221 197 193 217 205 239 296 333 356
890.0 423 476 468 452 493 495 455 456 506 493
930.0 516 599 630 676 729 808 878 898 957 1049
970.0 1050 1105 1191 1237 1302 1420 1571 1724 1914 2139
1010.0 2395 2419 2562 2731 2884 3092 3445 3856 4121 4228
1050.0 4316 4156 3631 2947 2317 1737 1331 1153 1091 1051
1090.0 1030 1071 1056 1019 1026 1055 1016 998 999 1016
1130.0 998 989 1009 1001 962 931 917 841 783 746
1170.0 694 641 601 608 606 607 641 698 739 788
1210.0 856 878 899 916 950 923 909 908 900 862
1250.0 844 841 820 782 774 773 734 707 700 700
1290.0 651 632 639 601 576 581 597 576 584 612
1330.0 632 636 699 747 757 781 871 968 1087 1221
1370.0 1400 1552 1665 1768 1835 1751 1612 1457 1213 971
1410.0 777 652 568 481 462 485 511 632 733 899
1450.0 1089 1301 1543 1586 1632 1642 1581 1343 1144 963
1490.0 767 542 427 324 274 240 187 179 177 145
1530.0 131 140 118 160 142 109 104 155 130 79
1570.0 97 92 91 55 78 71 56 57 71 60
1610.0 50 56 85 54 55 69 74 71 61 92
1650.0 67 122 64 70 48 74 79 69 62 86
1690.0 62 45 60 95 52 37 42 91 36 22
1730.0 41 85 35 37 43 58 36 37 45 21
1770.0 44 49 36 24 31 31 40 22 42 29
1810.0 20 13 29 19 28 30 32 20 14 43
1850.0 29 13 11 26 20 27 17 24 17 7
1890.0 27 20 13 15 26 25 10 25 24 16
1930.0 9 29 21 20 18 32 18 9 23 23
1970.0 15 8 23 15 7 18 27 11 7 20
2010.0 29 21 28 28 28 22 36 36 27 27
2050.0 40 33 30 31 50 36 26 34 34 26
2090.0 26 35 23 16 20 18 15 10 17 19
2130.0 4 4 18 17 4 10 19 6 6 18
2170.0 18 9 8 17 17 10 11 16 8 3
2210.0 20 15 8 13 15 10 8 16 16 8
2250.0 17 23 15 16 18 32 17 15 29 24
2290.0 16 22 30 22 15 25 28 12 19 35
2330.0 28 9 21 45 23 16 38 44 0 4
2370.0 34 36 18 31 37 32 37 44 45 38
2410.0 38 44 43 37 48 49 37 37 45 39
2450.0 38 37 45 37 31 30 30 25 27 34
2490.0 26 15 29 31 22 23 31 30 23 24
2530.0 30 27 22 35 38 30 36 51 45 38
2570.0 52 59 60 52 69 73 69 73 90 84
2610.0 72 88 96 89 96 110 108 100 106 114
2650.0 105 101 118 126 117 124 140 140 133 143
2690.0 162 152 150 165 177 176 193 219 228 233
2730.0 271 300 307 311 340 341 337 344 350 347
2770.0 346 365 379 379 403 425 431 434 465 493
2810.0 512 529 581 628 674 759 864 985 1136 1368
2850.0 1643 1958 2381 2932 3533 4184 4926 5579 5901 6080
2890.0 6316 6086 5859 5737 5794 5890 6008 6400 6813 7020
2930.0 7205 7450 7446 7190 7194 7382 7591 8124 9213 9936
2970.0 10000 9509 8861 7715 5935 4371 3053 1986 1294 906
3010.0 671 522 437 405 355 316 314 311 282 277
3050.0 279 257 248 235 241 205 190 198 195 172
3090.0 166 177 164 148 140 155 130 118 127 123
3130.0 93 97 119 114 98 123 126 103 117 133
3170.0 124 108 112 117 109 92 96 92 68 65
3210.0 72 60 31 52 43 21 18 25 31 11
3250.0 16 32 10 2 20 16 2 9 24 22
3290.0 2 15 35 17 3 27 25 2 8 30
3330.0 21 2 19 29 13 11 27 22 8 13
3370.0 23 16 8 23 30 15 17 33 35 19
3410.0 22 48 16 20 36 52 31 23 45 43
3450.0 20 41 53 41 37 52 52 33 49 59
3490.0 44 30 46 65 32 36 53 45 22 50
3530.0 61 32 31 30 60 35 33 39 42 40
3570.0 52 53 37 23 55 76 37 51 60 58
3610.0 74 96 106 122 129 212 228 271 368 497
3650.0 632 732 881 987 1062 1094 1053 969 818 674
3690.0 543 362 234 185 133 102 95 81 71 59
3730.0 57 83 79 45 90 67 54 44 51 51
3770.0 37 39 45 34 34 41 49 38 50 51
3810.0 39 30 60 60 42 46 70 72 54 58
3850.0 79 90 61 65 74 60 52 60 64 44
3890.0 54 65 47 48 61 46 32 36 45 44
3930.0 23 31 37 14 15 25 1 2 2 2
##END=
