##TITLE=Cyclopentane, bromo-
##JCAMP-DX=4.24
##DATA TYPE=INFRARED SPECTRUM
##ORIGIN=Sadtler Research Labs Under US-EPA Contract
##OWNER=NIST Standard Reference Data Program
##CAS REGISTRY NO=137-43-9
##MOLFORM=C 5 H 9 Br
##XUNITS=1/CM
##YUNITS=ABSORBANCE
##XFACTOR=1.0
##YFACTOR=0.000084711
##DELTAX=4.0
##FIRSTX=450.0
##LASTX=3966.0
##FIRSTY=0.014401
##MAXX=3966
##MINX=450
##MAXY=0.84711
##MINY=0
##NPOINTS=880
##XYDATA=(X++(Y..Y))
450.0 170 158 139 122 119 133 127 132 167 206
490.0 186 256 266 310 450 559 699 729 734 665
530.0 517 396 224 244 226 251 344 279 224 241
570.0 190 169 188 163 124 174 235 235 232 209
610.0 250 256 225 237 235 250 239 230 188 195
650.0 202 176 190 179 197 233 234 224 231 249
690.0 276 317 408 330 357 391 488 455 450 412
730.0 404 357 311 293 285 274 275 261 229 239
770.0 238 262 257 251 263 278 250 246 254 246
810.0 246 213 214 208 192 179 190 183 178 172
850.0 161 166 167 176 214 210 285 371 484 670
890.0 893 1127 1284 1353 1339 1182 925 708 554 456
930.0 399 365 346 305 275 238 201 138 112 72
970.0 50 27 30 11 14 14 3 9 17 50
1010.0 81 154 211 257 285 276 252 173 137 110
1050.0 73 45 34 41 40 35 35 16 25 27
1090.0 26 19 38 31 56 57 60 93 120 158
1130.0 198 219 234 238 227 209 208 226 244 293
1170.0 330 360 380 407 429 448 502 605 779 1065
1210.0 1530 2203 2916 3420 3613 3487 3153 2508 1870 1423
1250.0 1145 961 843 798 786 786 795 801 816 812
1290.0 780 717 657 621 572 563 563 552 529 467
1330.0 394 303 229 162 109 90 79 64 59 53
1370.0 40 52 53 52 67 65 81 101 100 136
1410.0 159 208 271 356 475 614 795 958 1089 1211
1450.0 1272 1255 1150 1056 934 822 719 609 542 476
1490.0 404 321 236 188 163 109 87 75 65 53
1530.0 42 49 55 30 26 24 24 41 10 15
1570.0 18 26 9 21 17 23 34 30 22 18
1610.0 29 31 21 25 16 23 31 13 19 36
1650.0 26 16 6 1 16 14 7 6 15 8
1690.0 2 7 7 7 8 2 13 20 8 14
1730.0 13 24 17 12 14 12 18 13 24 24
1770.0 19 16 20 16 27 22 19 25 18 19
1810.0 19 12 13 7 10 13 11 9 6 9
1850.0 12 6 7 7 1 5 5 13 12 15
1890.0 12 12 19 18 21 23 22 16 24 16
1930.0 20 23 27 19 20 10 5 7 10 11
1970.0 16 11 11 5 9 6 8 21 7 9
2010.0 10 9 9 15 9 4 5 7 9 6
2050.0 1 11 9 13 20 8 15 14 14 19
2090.0 19 26 18 22 23 24 19 31 24 25
2130.0 25 24 30 31 19 22 33 27 29 36
2170.0 36 40 30 48 46 47 45 46 41 38
2210.0 41 44 37 38 35 41 40 35 33 34
2250.0 35 33 33 34 30 28 25 31 38 33
2290.0 34 34 29 28 38 46 50 41 50 56
2330.0 56 46 61 55 64 74 63 58 30 31
2370.0 12 23 24 30 24 23 24 18 18 23
2410.0 13 18 24 17 14 14 17 18 10 17
2450.0 17 22 22 17 14 14 19 16 13 19
2490.0 10 22 15 19 20 15 15 14 15 19
2530.0 19 19 24 20 18 23 19 25 24 19
2570.0 23 23 23 18 15 27 25 28 28 29
2610.0 29 29 21 27 27 23 14 22 15 16
2650.0 14 11 10 14 8 14 9 2 10 9
2690.0 16 13 18 11 19 19 28 27 26 34
2730.0 34 33 44 52 51 47 46 52 55 50
2770.0 58 59 63 70 88 89 96 105 115 132
2810.0 140 168 187 215 259 316 422 546 697 902
2850.0 1127 1343 1569 1810 1988 2258 2602 2954 3197 3339
2890.0 3422 3404 3259 3118 3059 3103 3243 3316 3414 3512
2930.0 3646 3829 4002 4257 4653 5188 5904 6765 7742 8839
2970.0 9669 10000 9881 9514 8808 7244 5975 4752 3755 2873
3010.0 2192 1657 1242 920 700 550 437 372 321 292
3050.0 273 256 250 231 224 210 186 172 169 157
3090.0 124 107 97 79 84 50 56 55 38 41
3130.0 35 32 55 43 42 37 41 34 28 39
3170.0 45 41 39 39 38 32 31 43 40 47
3210.0 50 37 47 35 40 53 32 39 32 30
3250.0 27 26 33 39 26 25 26 43 32 27
3290.0 35 29 30 17 23 13 9 21 17 10
3330.0 22 15 16 19 23 27 21 10 7 0
3370.0 5 12 12 7 7 2 16 9 1 10
3410.0 9 3 12 30 25 18 35 13 16 43
3450.0 35 17 25 25 28 29 48 29 45 29
3490.0 43 36 31 20 21 43 54 33 47 43
3530.0 36 45 30 44 36 33 37 36 37 52
3570.0 46 36 50 26 42 43 49 47 68 45
3610.0 39 48 44 47 66 63 51 53 68 46
3650.0 62 42 51 46 40 46 68 48 62 72
3690.0 66 59 61 89 69 72 77 65 92 80
3730.0 75 57 76 87 78 83 90 63 81 87
3770.0 80 81 77 87 86 81 76 87 75 81
3810.0 79 86 92 81 80 86 88 101 95 94
3850.0 87 91 94 87 80 91 80 76 84 91
3890.0 101 85 88 88 100 101 103 95 95 94
3930.0 91 91 94 78 75 79 86 88 95 96
##END=
