##TITLE=2-n-Heptylcyclopentanone
##JCAMP-DX=4.24
##DATA TYPE=INFRARED SPECTRUM
##ORIGIN=Sadtler Research Labs Under US-EPA Contract
##OWNER=NIST Standard Reference Data Program
##CAS REGISTRY NO=137-03-1
##MOLFORM=C 12 H 22 O
##XUNITS=1/CM
##YUNITS=ABSORBANCE
##XFACTOR=1.0
##YFACTOR=0.000073358
##DELTAX=4.0
##FIRSTX=450.0
##LASTX=3966.0
##FIRSTY=0.004108
##MAXX=3966
##MINX=450
##MAXY=0.73358
##MINY=0
##NPOINTS=880
##XYDATA=(X++(Y..Y))
450.0 56 188 8 0 363 359 220 260 434 244
490.0 227 286 372 296 371 321 243 332 217 263
530.0 267 273 258 222 276 349 306 254 179 195
570.0 178 227 320 318 342 270 225 242 290 280
610.0 315 273 240 213 299 301 280 299 219 209
650.0 197 186 223 212 213 201 195 209 174 84
690.0 149 175 300 272 209 292 318 403 326 340
730.0 306 249 421 246 136 281 291 241 273 250
770.0 288 229 237 247 272 277 305 290 318 296
810.0 371 404 405 405 386 419 354 307 246 231
850.0 261 245 289 217 207 224 202 255 214 212
890.0 238 234 279 280 307 333 345 387 443 452
930.0 424 377 341 297 281 281 265 280 281 257
970.0 262 269 318 328 347 369 346 364 365 372
1010.0 396 372 366 367 366 410 424 430 429 448
1050.0 470 418 436 456 487 514 518 569 598 556
1090.0 647 659 734 693 596 766 711 780 917 989
1130.0 1065 1213 1396 1588 1872 2045 2090 1957 1691 1341
1170.0 1025 814 709 623 560 497 489 493 514 469
1210.0 451 445 424 453 467 486 512 521 524 499
1250.0 495 466 467 499 549 599 611 511 459 412
1290.0 375 366 392 428 454 489 492 497 525 554
1330.0 579 581 570 590 603 623 644 619 614 558
1370.0 552 539 527 550 524 479 424 387 389 419
1410.0 554 709 800 713 523 452 425 519 576 723
1450.0 892 1099 1216 1321 1235 1152 967 720 523 369
1490.0 294 249 240 208 216 223 151 198 186 142
1530.0 171 136 187 140 163 125 115 181 145 127
1570.0 123 108 149 90 111 94 120 92 113 123
1610.0 82 154 103 160 126 130 146 149 138 151
1650.0 162 213 165 139 175 181 186 188 213 252
1690.0 249 273 334 424 432 498 609 750 903 1050
1730.0 1287 1554 2044 2769 3791 5401 6368 7226 6550 5016
1770.0 3850 2585 2016 1565 1194 950 760 608 495 426
1810.0 365 319 279 247 220 211 165 154 156 129
1850.0 131 111 108 93 101 128 93 99 85 94
1890.0 93 82 90 87 81 95 76 92 81 79
1930.0 87 78 85 75 83 80 79 89 82 80
1970.0 86 76 87 75 76 73 67 77 69 65
2010.0 71 66 71 72 75 73 66 74 67 66
2050.0 69 63 64 65 58 64 58 59 58 55
2090.0 61 52 55 54 56 53 48 53 51 48
2130.0 52 50 48 48 46 53 51 51 55 54
2170.0 53 51 52 49 50 54 49 51 50 50
2210.0 50 48 45 48 45 42 48 52 47 47
2250.0 47 45 44 45 44 41 41 43 40 38
2290.0 36 38 36 40 39 40 38 36 47 58
2330.0 59 53 44 51 39 42 52 58 54 44
2370.0 42 36 29 28 23 20 21 21 21 24
2410.0 27 25 25 26 18 18 17 17 23 19
2450.0 16 18 11 18 15 9 12 13 13 11
2490.0 13 19 14 22 18 12 17 20 19 21
2530.0 22 21 23 26 34 32 33 27 35 35
2570.0 36 41 38 39 43 41 46 43 43 52
2610.0 54 53 55 53 50 56 55 64 73 69
2650.0 66 74 77 84 83 84 95 92 96 98
2690.0 97 98 87 95 95 91 90 88 90 95
2730.0 103 108 118 124 128 127 132 134 129 130
2770.0 139 144 152 158 174 193 212 227 248 277
2810.0 306 347 380 419 452 496 563 656 801 1069
2850.0 1522 2218 3122 3992 4516 4520 4203 3847 3656 3592
2890.0 3429 3112 2892 2909 3217 3710 4385 5290 6529 7988
2930.0 9315 10000 9887 9127 7979 6753 5893 5672 6174 7096
2970.0 7701 7004 5194 3317 2091 1425 1054 831 679 579
3010.0 512 450 402 372 334 315 289 259 228 214
3050.0 195 180 164 149 138 123 125 119 117 106
3090.0 104 100 103 96 96 90 95 85 81 76
3130.0 82 84 73 65 77 79 67 62 73 65
3170.0 62 68 59 59 61 67 59 53 55 47
3210.0 50 37 37 36 42 45 39 43 46 30
3250.0 32 33 34 36 38 29 32 28 36 43
3290.0 30 29 37 28 33 44 27 40 34 36
3330.0 33 31 36 35 46 34 34 43 31 43
3370.0 45 38 33 41 35 42 35 30 34 44
3410.0 37 37 49 48 48 25 47 47 45 54
3450.0 45 50 43 44 58 65 77 87 95 122
3490.0 123 135 134 123 92 89 65 67 60 54
3530.0 65 62 66 43 51 50 50 55 73 105
3570.0 169 224 271 206 169 79 63 43 55 26
3610.0 42 51 48 63 60 80 61 27 27 69
3650.0 63 91 31 54 9 75 38 52 33 28
3690.0 69 26 52 46 43 36 50 30 52 60
3730.0 41 97 75 58 78 89 50 45 45 55
3770.0 36 64 46 55 52 47 45 73 38 85
3810.0 28 103 19 92 71 88 53 58 57 40
3850.0 66 89 53 42 79 78 62 52 53 54
3890.0 23 82 64 103 64 85 35 30 80 72
3930.0 100 65 59 49 58 61 65 76 39 23
##END=
