##TITLE=Benzenethiol, 2-amino-
##JCAMP-DX=4.24
##DATA TYPE=INFRARED SPECTRUM
##ORIGIN=Sadtler Research Labs Under US-EPA Contract
##OWNER=NIST Standard Reference Data Program
##CAS REGISTRY NO=137-07-5
##MOLFORM=C 6 H 7 N S
##XUNITS=1/CM
##YUNITS=ABSORBANCE
##XFACTOR=1.0
##YFACTOR=0.000059424
##DELTAX=4.0
##FIRSTX=450.0
##LASTX=3966.0
##FIRSTY=0.093058
##MAXX=3966
##MINX=450
##MAXY=0.59424
##MINY=0
##NPOINTS=880
##XYDATA=(X++(Y..Y))
450.0 1566 1522 1393 1384 1280 1317 1110 1257 1311 1276
490.0 1348 1464 1544 1756 1363 1469 1412 1474 1609 1570
530.0 1796 1569 1622 1558 1374 1340 1364 1154 1436 1348
570.0 1567 1478 1608 1486 1367 1300 1392 1173 1454 1185
610.0 1421 1375 1353 1392 1302 1192 1179 1042 1182 1091
650.0 1165 1204 1075 1152 1214 1074 1186 1085 1203 1162
690.0 1092 1338 1285 1410 1499 1538 1376 1618 2142 3103
730.0 3983 5171 6253 9501 8306 5532 4532 3466 2296 1559
770.0 1087 1122 965 900 890 816 809 800 647 695
810.0 702 724 808 847 775 701 706 539 447 400
850.0 350 373 477 438 565 395 488 423 377 368
890.0 384 364 552 587 729 690 734 626 554 454
930.0 373 319 361 291 319 279 252 267 215 190
970.0 206 161 195 139 123 166 147 170 93 184
1010.0 221 335 508 672 773 807 712 622 379 322
1050.0 262 165 190 234 241 390 373 572 610 783
1090.0 852 935 952 832 722 611 316 292 310 302
1130.0 388 433 593 717 810 1105 1149 908 840 663
1170.0 442 170 97 47 29 17 49 46 104 26
1210.0 50 45 35 47 82 112 263 353 558 644
1250.0 898 903 838 869 834 678 642 747 1149 1773
1290.0 2454 2906 3170 3486 3444 2640 1969 1681 1179 720
1330.0 362 246 122 118 78 87 96 132 133 220
1370.0 190 243 191 205 154 139 112 113 125 187
1410.0 179 242 217 247 359 476 786 1206 1894 2445
1450.0 2318 2214 2359 2183 2186 2948 4193 5252 5528 5691
1490.0 5606 4521 3140 2309 1668 982 727 477 310 321
1530.0 333 279 380 168 389 482 537 532 637 957
1570.0 1124 1287 1393 1687 1848 2131 2649 3640 5228 7303
1610.0 9201 10000 9924 9690 8116 6072 4147 2553 1731 1215
1650.0 872 540 672 636 569 505 444 422 374 203
1690.0 294 300 195 105 187 272 208 131 192 206
1730.0 224 120 176 188 239 228 246 266 286 312
1770.0 304 215 311 287 287 305 230 260 259 216
1810.0 249 196 214 219 202 201 234 220 274 170
1850.0 245 260 253 271 279 254 298 301 328 307
1890.0 313 321 294 325 304 320 353 335 352 339
1930.0 279 262 179 170 134 160 172 178 161 173
1970.0 137 177 141 157 160 162 168 166 166 172
2010.0 141 166 127 133 149 124 154 156 154 163
2050.0 140 139 138 127 151 128 163 155 171 172
2090.0 156 147 153 119 158 124 158 156 166 178
2130.0 177 159 174 132 168 148 155 172 170 180
2170.0 177 160 157 132 147 136 130 159 130 156
2210.0 154 133 135 131 106 130 110 134 116 152
2250.0 138 148 147 131 102 123 95 136 124 152
2290.0 163 153 160 160 138 152 104 113 64 30
2330.0 82 33 73 22 12 78 61 12 12 12
2370.0 12 12 24 57 100 116 127 97 149 105
2410.0 147 144 147 159 146 129 138 104 143 132
2450.0 148 154 158 175 147 144 130 103 106 101
2490.0 109 130 110 164 145 152 135 124 117 138
2530.0 118 175 174 220 231 291 332 378 394 385
2570.0 331 338 246 234 202 179 209 196 188 212
2610.0 185 207 193 174 179 155 179 154 144 121
2650.0 115 100 119 103 153 117 158 141 130 131
2690.0 107 110 130 95 157 120 149 151 135 128
2730.0 125 100 124 109 147 136 146 168 138 147
2770.0 123 115 121 95 120 124 105 155 115 132
2810.0 103 101 92 97 67 126 104 172 144 185
2850.0 164 161 156 156 145 192 159 226 208 215
2890.0 219 183 163 155 143 178 173 193 223 212
2930.0 213 172 171 128 118 126 130 130 180 120
2970.0 175 123 134 104 95 118 154 177 290 363
3010.0 580 829 1125 1376 1437 1426 1504 1290 1103 940
3050.0 944 1044 1230 1535 1802 2216 2501 2505 2483 2221
3090.0 1767 1255 708 506 332 259 197 177 138 190
3130.0 161 213 164 226 188 186 169 152 169 210
3170.0 181 248 190 244 234 189 207 166 157 204
3210.0 183 202 187 179 196 140 154 94 109 121
3250.0 106 134 167 148 199 129 171 124 113 127
3290.0 135 134 211 163 229 173 169 173 148 139
3330.0 173 188 245 214 276 249 259 278 235 337
3370.0 371 524 808 1109 1427 1648 1655 1619 1342 1049
3410.0 698 499 362 331 287 326 256 297 220 267
3450.0 229 252 323 387 461 645 812 1196 1571 1771
3490.0 1871 1870 1736 1492 1081 814 607 454 358 235
3530.0 198 153 157 164 145 148 179 158 176 92
3570.0 100 94 120 94 114 70 176 107 166 134
3610.0 115 77 86 34 101 28 107 113 166 159
3650.0 51 109 34 151 103 69 88 27 141 196
3690.0 38 120 112 97 85 66 35 135 132 136
3730.0 110 97 18 102 11 12 33 104 122 165
3770.0 137 159 140 118 132 69 117 97 74 123
3810.0 132 165 130 54 146 98 104 48 94 148
3850.0 196 94 166 115 127 47 66 90 94 132
3890.0 159 141 214 156 136 122 86 72 75 128
3930.0 162 192 217 231 193 184 0 12 12 12
##END=
