##TITLE=Propanoic acid, 3-[(4-methylphenyl)thio]-
##JCAMP-DX=4.24
##DATA TYPE=INFRARED SPECTRUM
##ORIGIN=Sadtler Research Labs Under US-EPA Contract
##OWNER=NIST Standard Reference Data Program
##CAS REGISTRY NO=13739-35-0
##MOLFORM=C 10 H 12 O 2 S
##XUNITS=1/CM
##YUNITS=ABSORBANCE
##XFACTOR=1.0
##YFACTOR=0.000060110
##DELTAX=4.0
##FIRSTX=450.0
##LASTX=3966.0
##FIRSTY=0.009858
##MAXX=3966
##MINX=450
##MAXY=0.6011
##MINY=0
##NPOINTS=880
##XYDATA=(X++(Y..Y))
450.0 164 156 261 243 256 290 363 493 548 749
490.0 922 1115 1332 1403 1365 1190 1009 878 769 716
530.0 703 737 801 886 880 940 955 870 806 906
570.0 1106 1173 1155 1135 1173 1245 1365 1515 1587 1677
610.0 1640 1592 1494 1412 1326 1279 1193 1054 918 760
650.0 685 596 548 488 481 447 432 432 441 389
690.0 356 306 259 288 239 210 155 120 99 82
730.0 80 68 84 98 104 133 141 177 226 288
770.0 361 476 635 779 906 987 1117 1371 1790 2148
810.0 2171 1692 1036 668 456 306 221 139 93 56
850.0 31 25 9 11 23 30 42 53 66 77
890.0 89 109 129 169 195 211 210 182 177 165
930.0 184 205 249 268 275 268 231 193 193 226
970.0 260 285 323 344 356 322 299 304 348 469
1010.0 646 952 1118 1002 782 616 623 518 489 502
1050.0 468 457 471 526 604 725 860 1044 1296 1725
1090.0 2347 3020 3676 4378 5341 6534 7361 7510 6878 5816
1130.0 4731 3923 3354 2886 2582 2343 2117 1975 1913 1939
1170.0 2001 2066 2109 2051 1925 1721 1517 1365 1329 1300
1210.0 1316 1405 1411 1264 1052 926 907 883 794 722
1250.0 721 781 798 783 783 793 796 790 755 686
1290.0 620 561 533 534 527 533 538 554 570 595
1330.0 622 670 741 814 901 1022 1157 1310 1479 1650
1370.0 1810 1951 1981 1886 1672 1432 1225 1100 1001 927
1410.0 881 862 913 962 1010 1041 1050 990 829 664
1450.0 517 436 394 358 361 422 541 712 983 1478
1490.0 2102 2404 2109 1443 813 496 342 238 208 130
1530.0 117 76 95 89 76 54 68 93 92 92
1570.0 92 91 90 86 90 110 124 130 131 133
1610.0 133 130 148 148 175 166 194 199 169 164
1650.0 138 142 98 91 96 111 114 118 155 181
1690.0 199 231 313 367 445 515 644 788 916 1077
1730.0 1274 1517 1741 2037 2370 2792 3246 3822 4529 5469
1770.0 6735 8314 9679 10000 8879 6962 5132 3914 3035 2390
1810.0 1877 1437 1097 827 641 476 367 277 232 196
1850.0 164 145 128 123 122 133 124 132 143 161
1890.0 177 189 186 163 139 104 76 56 53 39
1930.0 41 33 28 30 32 30 28 30 25 32
1970.0 28 25 26 25 28 32 34 32 36 33
2010.0 34 31 30 23 24 19 16 15 14 11
2050.0 9 10 11 9 10 11 6 6 8 8
2090.0 11 8 8 9 6 11 14 12 12 11
2130.0 7 12 9 9 8 9 7 6 9 13
2170.0 13 14 14 14 17 17 17 17 17 21
2210.0 22 21 21 23 27 24 22 22 17 19
2250.0 16 15 7 8 6 12 15 22 26 39
2290.0 50 65 74 90 95 102 88 76 85 78
2330.0 68 69 58 76 97 91 123 90 113 98
2370.0 90 71 76 84 58 36 31 32 31 34
2410.0 31 27 29 27 24 18 15 20 14 21
2450.0 25 22 20 23 19 21 18 21 22 24
2490.0 22 20 13 14 18 22 16 12 11 15
2530.0 13 11 10 15 13 16 16 20 21 24
2570.0 25 29 27 31 40 39 29 25 27 23
2610.0 23 29 23 26 23 18 19 22 23 22
2650.0 19 23 17 25 26 27 26 29 33 35
2690.0 34 40 39 41 39 33 28 33 31 35
2730.0 43 47 65 81 85 75 58 48 36 35
2770.0 32 34 41 45 48 51 53 63 67 69
2810.0 75 86 92 102 114 133 154 168 195 221
2850.0 247 282 328 394 469 554 624 662 673 666
2890.0 639 615 593 600 627 687 780 915 1101 1336
2930.0 1627 1873 1957 1819 1533 1235 994 838 740 704
2970.0 691 700 713 725 742 730 712 688 689 701
3010.0 741 825 969 1217 1409 1400 1232 1014 888 832
3050.0 783 744 727 709 707 737 761 744 681 585
3090.0 486 406 346 301 261 208 166 144 113 97
3130.0 87 75 73 68 62 64 55 46 51 48
3170.0 53 53 44 37 35 34 35 41 38 29
3210.0 39 29 30 27 34 32 28 20 20 21
3250.0 25 23 17 22 22 17 14 23 33 24
3290.0 24 20 17 23 26 21 27 23 20 24
3330.0 17 34 32 29 30 29 23 25 22 26
3370.0 21 22 22 21 31 23 34 31 24 21
3410.0 14 30 24 29 22 30 29 24 25 25
3450.0 25 8 22 16 29 13 10 21 18 17
3490.0 24 13 28 39 37 33 46 46 49 86
3530.0 70 89 106 129 170 209 273 448 790 1553
3570.0 2992 4122 4192 3137 1652 883 520 352 247 179
3610.0 152 107 105 79 76 123 71 35 22 71
3650.0 89 47 41 25 24 57 56 57 32 9
3690.0 48 22 10 27 19 40 58 17 21 50
3730.0 23 56 61 56 41 94 31 7 5 4
3770.0 9 4 15 12 4 4 4 4 45 3
3810.0 11 6 48 58 3 5 15 29 42 12
3850.0 4 80 27 26 64 42 65 0 56 26
3890.0 29 36 29 53 45 4 4 6 25 19
3930.0 7 30 4 24 9 9 4 14 19 4
##END=
