##TITLE=1H-Imidazole-2-carboxaldehyde, 1-methyl-
##JCAMP-DX=4.24
##DATA TYPE=INFRARED SPECTRUM
##ORIGIN=Sadtler Research Labs Under US-EPA Contract
##OWNER=NIST Standard Reference Data Program
##CAS REGISTRY NO=13750-81-7
##MOLFORM=C 5 H 6 N 2 O
##XUNITS=1/CM
##YUNITS=ABSORBANCE
##XFACTOR=1.0
##YFACTOR=0.000112433
##DELTAX=4.0
##FIRSTX=450.0
##LASTX=3966.0
##FIRSTY=0.007533
##MAXX=3966
##MINX=450
##MAXY=1.12433
##MINY=0
##NPOINTS=880
##XYDATA=(X++(Y..Y))
450.0 67 67 84 106 51 74 112 106 104 140
490.0 159 199 176 194 179 178 174 188 153 165
530.0 124 126 122 100 89 77 64 79 67 64
570.0 42 38 40 22 36 35 45 53 61 38
610.0 27 14 15 0 11 16 16 16 22 24
650.0 36 35 50 68 94 186 201 266 433 504
690.0 369 367 368 355 292 204 155 131 126 159
730.0 233 365 582 842 1117 1428 2220 4652 4521 4918
770.0 4811 4700 4586 4291 2871 1506 771 468 349 262
810.0 186 133 100 84 83 98 120 148 176 213
850.0 237 310 482 383 320 312 303 279 250 233
890.0 238 243 259 295 344 371 337 323 337 304
930.0 216 133 91 72 55 57 58 54 59 62
970.0 65 65 67 66 64 57 55 55 55 59
1010.0 68 75 90 102 109 107 114 119 119 117
1050.0 108 106 100 101 108 124 158 186 238 296
1090.0 310 299 276 257 240 213 187 158 136 130
1130.0 148 213 332 487 595 594 631 547 526 387
1170.0 219 131 100 91 84 88 92 105 132 173
1210.0 232 296 343 355 354 359 358 306 251 226
1250.0 230 262 332 444 561 708 912 1103 1204 1157
1290.0 1088 1074 906 622 390 246 192 211 317 451
1330.0 488 505 518 490 506 396 328 345 423 511
1370.0 596 652 703 751 825 1027 1427 2108 2969 3717
1410.0 4088 4422 4231 3905 3151 2189 1428 962 734 636
1450.0 639 663 696 803 1025 1286 1493 1552 1558 1614
1490.0 1611 1447 1199 1017 961 928 845 690 632 575
1530.0 437 339 250 193 174 173 151 107 103 92
1570.0 87 84 95 87 110 123 151 169 214 243
1610.0 257 245 236 250 198 172 114 87 71 80
1650.0 77 137 183 284 409 590 752 1088 1567 2676
1690.0 4620 7016 8390 8775 10000 9122 9080 6326 3476 1937
1730.0 1101 564 294 192 145 121 103 80 64 55
1770.0 45 33 37 34 39 34 37 40 44 54
1810.0 62 75 78 57 57 45 42 41 29 23
1850.0 26 30 27 31 23 20 24 31 33 35
1890.0 39 45 53 60 64 66 65 66 53 53
1930.0 50 42 33 22 18 17 19 20 22 23
1970.0 27 30 35 38 42 39 42 42 40 35
2010.0 29 18 12 9 8 6 8 6 6 7
2050.0 8 10 12 11 10 13 16 16 15 15
2090.0 17 19 21 24 24 25 25 24 23 23
2130.0 23 24 29 31 34 36 39 40 42 46
2170.0 53 65 76 87 91 96 91 80 69 55
2210.0 43 34 29 25 22 20 19 20 18 19
2250.0 17 19 23 22 22 23 21 18 18 13
2290.0 13 9 11 15 13 11 14 9 6 7
2330.0 3 7 17 21 32 16 8 6 23 28
2370.0 33 30 27 18 9 1 0 0 1 4
2410.0 5 3 5 6 13 15 20 24 27 26
2450.0 27 26 22 18 19 17 16 15 15 13
2490.0 14 12 12 6 6 2 7 8 13 13
2530.0 17 21 23 27 31 36 44 49 55 57
2570.0 52 49 45 38 30 25 20 17 16 13
2610.0 13 14 11 15 15 15 19 18 23 29
2650.0 37 50 58 62 61 66 66 62 58 59
2690.0 64 70 74 74 73 70 69 68 73 83
2730.0 101 126 146 158 162 163 159 144 129 119
2770.0 122 131 142 158 172 185 197 209 222 245
2810.0 274 316 384 488 643 858 1119 1402 1637 1723
2850.0 1763 1815 1659 1388 1121 877 658 501 407 352
2890.0 318 290 270 253 239 226 225 231 244 267
2930.0 287 312 347 402 470 548 638 715 752 745
2970.0 721 672 587 481 377 296 238 202 178 166
3010.0 163 156 142 141 139 136 128 121 117 117
3050.0 115 111 105 101 97 96 90 88 80 76
3090.0 76 78 86 102 126 165 216 230 248 272
3130.0 273 292 229 195 151 140 120 72 46 33
3170.0 29 28 33 31 27 31 27 23 22 21
3210.0 18 19 17 16 16 14 12 15 15 14
3250.0 15 17 16 14 12 15 19 17 17 19
3290.0 17 17 13 19 21 20 19 23 22 22
3330.0 24 22 20 21 22 22 26 32 37 48
3370.0 65 78 96 108 126 131 127 116 92 66
3410.0 41 30 19 8 13 13 14 14 12 10
3450.0 16 16 20 18 18 20 19 18 16 10
3490.0 20 18 14 15 14 11 12 13 11 11
3530.0 7 8 4 4 11 11 13 8 10 13
3570.0 19 12 7 10 9 14 10 10 7 7
3610.0 15 14 5 16 9 21 10 17 13 7
3650.0 14 4 14 12 11 15 8 15 4 2
3690.0 16 14 8 6 11 9 7 7 7 10
3730.0 17 10 23 9 35 4 22 4 9 11
3770.0 14 0 13 15 17 20 11 13 8 11
3810.0 12 15 18 18 21 22 18 16 19 12
3850.0 8 20 16 18 23 20 22 16 17 20
3890.0 15 24 7 22 25 17 19 24 11 14
3930.0 11 17 22 33 26 25 18 20 26 25
##END=
