##TITLE=Propanoic acid, 2-hydroxy-, butyl ester
##JCAMP-DX=4.24
##DATA TYPE=INFRARED SPECTRUM
##ORIGIN=Sadtler Research Labs Under US-EPA Contract
##OWNER=NIST Standard Reference Data Program
##CAS REGISTRY NO=138-22-7
##MOLFORM=C 7 H 14 O 3
##XUNITS=1/CM
##YUNITS=ABSORBANCE
##XFACTOR=1.0
##YFACTOR=0.000049561
##DELTAX=4.0
##FIRSTX=450.0
##LASTX=3966.0
##FIRSTY=0.014273
##MAXX=3966
##MINX=450
##MAXY=0.49561
##MINY=0
##NPOINTS=880
##XYDATA=(X++(Y..Y))
450.0 288 275 264 236 162 116 0 103 135 306
490.0 367 446 299 365 222 286 237 467 482 424
530.0 313 421 331 244 179 287 180 281 301 506
570.0 400 503 223 325 99 294 358 483 475 543
610.0 324 271 280 487 463 457 520 589 429 658
650.0 545 674 375 373 267 287 303 408 393 374
690.0 259 231 229 188 242 355 262 384 317 418
730.0 403 412 373 449 476 573 612 696 622 522
770.0 511 384 313 387 334 474 293 370 338 302
810.0 290 378 304 353 265 422 472 503 578 533
850.0 458 399 333 486 365 404 364 371 241 300
890.0 322 348 287 371 433 403 469 528 564 574
930.0 555 742 837 1011 1141 1248 1120 1091 1074 1124
970.0 1025 955 859 732 685 762 887 979 974 1029
1010.0 1051 1116 1183 1447 1612 1910 2109 2388 2469 2491
1050.0 2369 2296 2207 2216 2213 2266 2238 2283 2349 2532
1090.0 2675 3006 3190 3526 3660 4072 4506 5189 5976 7226
1130.0 8549 10000 9757 8773 6898 5075 3744 3103 2775 2632
1170.0 2514 2633 2747 3088 3530 4230 4987 5927 6890 8038
1210.0 8806 9517 9313 8463 7083 5915 4983 4623 4523 4931
1250.0 5301 5821 6129 6441 6330 6169 5606 5003 4182 3522
1290.0 2883 2439 2115 1898 1701 1568 1429 1364 1282 1239
1330.0 1184 1167 1077 1060 1022 1070 1049 1051 1068 1122
1370.0 1287 1492 1627 1731 1624 1525 1365 1207 1064 966
1410.0 847 823 728 712 691 720 776 808 931 1086
1450.0 1252 1499 1620 1755 1695 1582 1325 1152 917 779
1490.0 582 487 355 328 257 238 256 257 219 209
1530.0 210 199 218 159 164 186 143 142 119 195
1570.0 182 191 121 147 138 147 148 165 155 136
1610.0 137 141 99 133 104 137 86 104 154 164
1650.0 126 82 137 141 128 161 227 241 250 273
1690.0 313 371 372 486 537 631 745 899 1156 1614
1730.0 2271 3264 4677 6553 8278 9385 9654 9112 7549 6113
1770.0 4764 3754 2876 2219 1733 1464 1191 1043 854 750
1810.0 605 470 404 332 282 245 225 234 176 139
1850.0 119 120 109 128 119 123 89 114 105 109
1890.0 93 103 103 85 74 96 107 96 86 97
1930.0 78 76 64 116 88 112 109 120 84 73
1970.0 84 104 74 86 87 90 78 102 88 74
2010.0 35 84 60 73 83 113 81 66 63 86
2050.0 76 80 100 89 78 88 92 101 70 101
2090.0 72 78 69 98 94 95 72 71 59 50
2130.0 69 80 78 71 61 72 56 72 50 70
2170.0 49 57 58 88 77 77 57 52 38 31
2210.0 51 74 58 68 47 67 35 55 55 66
2250.0 44 74 50 65 68 81 65 44 48 50
2290.0 52 73 83 104 85 85 66 106 88 140
2330.0 92 147 126 133 142 152 180 136 53 116
2370.0 104 110 99 86 56 51 22 59 39 70
2410.0 60 60 45 58 49 60 38 54 50 37
2450.0 40 68 58 58 23 48 12 26 37 66
2490.0 55 50 46 57 37 47 56 45 33 41
2530.0 52 61 48 56 37 30 5 32 34 55
2570.0 45 65 44 32 28 42 63 70 58 77
2610.0 68 76 57 88 68 53 36 72 49 87
2650.0 83 90 59 47 63 71 61 92 79 72
2690.0 61 95 77 73 53 94 51 74 100 144
2730.0 134 113 112 126 113 146 179 185 168 179
2770.0 167 173 146 205 176 203 201 231 239 245
2810.0 274 300 279 290 332 383 436 507 571 668
2850.0 732 888 1015 1180 1325 1567 1869 2208 2501 2695
2890.0 2706 2642 2459 2379 2427 2524 2639 2831 2910 3078
2930.0 3211 3588 3947 4394 4612 4741 4586 4649 4978 5580
2970.0 6026 6079 5598 4910 4049 3619 3415 3121 2555 1971
3010.0 1255 816 572 516 439 388 328 321 271 232
3050.0 232 199 147 140 129 154 132 154 140 120
3090.0 50 80 59 102 101 112 112 71 59 64
3130.0 67 97 75 100 83 94 84 113 77 106
3170.0 37 73 77 87 116 115 104 100 55 76
3210.0 78 86 89 79 65 81 52 98 35 55
3250.0 34 30 36 58 90 99 60 49 38 35
3290.0 41 78 81 109 59 74 39 66 42 53
3330.0 52 53 46 61 66 86 63 32 34 26
3370.0 28 64 47 86 37 55 35 47 43 56
3410.0 36 53 46 84 76 57 90 49 25 45
3450.0 64 124 103 147 111 96 61 124 100 141
3490.0 132 149 130 100 121 123 113 109 107 110
3530.0 88 146 193 232 223 322 427 652 914 1227
3570.0 1473 1616 1669 1578 1415 1236 1021 816 627 491
3610.0 386 352 324 307 271 319 363 460 513 482
3650.0 372 298 277 250 207 176 194 158 158 169
3690.0 114 118 92 123 103 61 32 67 71 69
3730.0 90 92 55 28 29 29 29 53 65 76
3770.0 33 69 67 68 34 39 27 8 6 65
3810.0 95 69 56 21 31 27 52 101 114 118
3850.0 92 79 73 88 71 90 70 81 97 99
3890.0 106 85 79 19 6 16 60 74 74 73
3930.0 59 25 4 23 16 10 5 6 6 6
##END=
