##TITLE=Limonene
##JCAMP-DX=4.24
##DATA TYPE=INFRARED SPECTRUM
##ORIGIN=Sadtler Research Labs Under US-EPA Contract
##OWNER=NIST Standard Reference Data Program
##CAS REGISTRY NO=138-86-3
##MOLFORM=C 10 H 16
##XUNITS=1/CM
##YUNITS=ABSORBANCE
##XFACTOR=1.0
##YFACTOR=0.000082388
##DELTAX=4.0
##FIRSTX=450.0
##LASTX=3966.0
##FIRSTY=0.003460
##MAXX=3966
##MINX=450
##MAXY=0.82388
##MINY=0
##NPOINTS=880
##XYDATA=(X++(Y..Y))
450.0 42 104 133 120 214 194 271 94 20 112
490.0 192 201 68 155 195 246 226 253 295 297
530.0 365 288 369 309 403 331 335 112 170 236
570.0 245 0 213 176 154 80 85 96 103 90
610.0 100 94 111 108 105 118 144 148 146 127
650.0 131 113 86 113 108 130 124 127 82 105
690.0 102 108 112 133 130 158 112 206 155 132
730.0 149 122 139 148 169 193 213 230 219 227
770.0 213 219 301 419 558 741 908 1057 982 816
810.0 652 491 345 221 201 206 179 201 208 234
850.0 236 260 273 336 396 582 893 1349 1992 2657
890.0 3077 3121 2818 2192 1608 1186 969 841 708 591
930.0 477 385 324 317 322 338 345 346 321 295
970.0 253 216 218 245 260 258 275 285 304 339
1010.0 378 408 406 393 355 325 304 319 353 413
1050.0 434 438 406 344 294 268 249 224 239 230
1090.0 239 239 259 279 304 327 307 274 233 207
1130.0 197 234 313 442 603 741 792 722 626 448
1170.0 298 234 224 230 241 258 312 338 354 356
1210.0 329 290 283 311 370 428 455 452 428 387
1250.0 342 316 298 274 273 267 272 287 317 347
1290.0 364 363 338 339 353 367 363 361 341 331
1330.0 329 336 325 316 311 310 331 380 478 623
1370.0 870 1178 1448 1530 1438 1164 807 584 485 448
1410.0 449 489 556 688 871 1152 1498 1834 2077 2227
1450.0 2335 2349 2218 1965 1616 1205 861 632 493 391
1490.0 334 290 262 239 235 223 209 208 191 184
1530.0 170 170 171 162 166 169 175 178 191 200
1570.0 215 235 257 277 297 307 320 326 327 321
1610.0 335 355 396 460 557 728 976 1291 1599 1746
1650.0 1673 1392 1010 667 456 347 289 256 232 214
1690.0 186 170 162 154 153 157 153 143 131 121
1730.0 114 109 105 113 121 129 138 136 138 141
1770.0 147 168 201 242 276 283 269 227 185 149
1810.0 129 110 95 95 89 86 83 87 79 74
1850.0 76 78 79 80 84 81 84 80 82 76
1890.0 72 71 73 75 76 76 79 72 69 72
1930.0 72 77 81 85 83 83 82 74 74 67
1970.0 67 61 64 54 55 53 49 53 55 50
2010.0 52 50 50 52 47 44 41 38 34 38
2050.0 50 54 59 57 51 50 49 47 47 52
2090.0 57 59 55 53 48 49 43 41 40 47
2130.0 46 46 51 45 45 44 40 46 46 49
2170.0 46 45 47 41 37 41 35 41 41 44
2210.0 45 50 46 45 45 43 48 50 56 56
2250.0 57 55 52 55 51 42 45 46 48 54
2290.0 62 70 85 93 108 120 117 127 130 116
2330.0 113 79 75 80 37 103 190 162 122 44
2370.0 24 24 24 24 24 32 37 45 45 50
2410.0 42 42 40 37 40 35 35 30 32 31
2450.0 39 40 41 51 46 52 47 55 51 52
2490.0 45 37 31 28 34 38 34 31 28 35
2530.0 35 36 32 29 35 30 24 30 37 38
2570.0 33 36 37 37 35 45 42 43 53 53
2610.0 54 60 65 62 58 48 49 49 44 54
2650.0 65 85 102 108 116 116 113 100 98 100
2690.0 109 108 103 103 110 106 124 145 166 206
2730.0 252 281 307 300 269 222 188 176 163 163
2770.0 164 165 172 176 186 200 217 246 304 351
2810.0 415 486 576 715 932 1290 1851 2581 3204 3663
2850.0 3942 3947 4062 4323 4521 4577 4605 4547 4589 4915
2890.0 5306 5672 6060 6583 7175 7622 8214 9053 9540 9822
2930.0 10000 9614 8840 8033 6968 5965 5072 4396 4221 4639
2970.0 5378 5640 5453 4825 3711 2753 2229 2016 1945 1960
3010.0 1981 2000 1947 1776 1520 1263 1049 967 944 935
3050.0 932 925 883 856 918 1098 1381 1538 1725 1816
3090.0 1642 1383 1134 745 445 318 264 232 207 179
3130.0 160 149 125 116 112 104 98 85 95 83
3170.0 74 73 60 71 69 78 65 62 66 71
3210.0 68 63 63 62 64 67 63 66 54 61
3250.0 60 56 68 53 72 73 63 55 35 57
3290.0 54 53 43 62 73 72 85 78 76 44
3330.0 58 59 68 73 51 51 42 45 52 60
3370.0 55 49 70 71 56 53 73 49 57 46
3410.0 52 64 62 72 90 63 47 66 58 66
3450.0 57 52 63 62 60 75 53 35 49 36
3490.0 54 63 69 52 61 51 50 52 55 59
3530.0 62 49 39 77 40 34 56 56 68 103
3570.0 41 71 62 62 27 51 52 48 45 83
3610.0 61 76 82 72 63 102 58 72 72 79
3650.0 95 58 70 79 83 93 89 70 90 89
3690.0 111 83 82 101 62 91 69 84 99 67
3730.0 60 58 80 65 95 68 85 82 64 64
3770.0 86 79 61 69 75 79 70 70 87 79
3810.0 52 84 54 78 69 82 48 75 76 84
3850.0 84 77 65 70 94 111 90 93 75 91
3890.0 92 132 105 84 76 80 91 86 106 112
3930.0 73 126 96 131 114 100 84 96 102 121
##END=
