##TITLE=4-Chloro-.alpha.-ethylbenzyl alcohol
##JCAMP-DX=4.24
##DATA TYPE=INFRARED SPECTRUM
##ORIGIN=Sadtler Research Labs Under US-EPA Contract
##OWNER=NIST Standard Reference Data Program
##CAS REGISTRY NO=13856-85-4
##MOLFORM=C 9 H 11 Cl O
##XUNITS=1/CM
##YUNITS=ABSORBANCE
##XFACTOR=1.0
##YFACTOR=0.000043921
##DELTAX=4.0
##FIRSTX=450.0
##LASTX=3966.0
##FIRSTY=0.041242
##MAXX=3966
##MINX=450
##MAXY=0.43921
##MINY=0
##NPOINTS=880
##XYDATA=(X++(Y..Y))
450.0 939 833 945 805 749 587 345 321 283 250
490.0 214 284 400 467 702 1080 1431 1767 1890 1832
530.0 1561 1310 1146 1083 1014 880 719 517 425 402
570.0 376 351 333 245 155 95 67 15 12 12
610.0 40 60 40 64 131 135 139 180 136 125
650.0 151 137 132 158 147 157 180 209 258 285
690.0 306 313 299 268 217 197 214 297 393 411
730.0 383 343 304 251 261 277 334 497 579 662
770.0 686 705 766 857 962 1059 1095 1122 1205 1436
810.0 1836 2450 3259 4106 4644 4876 4656 4002 3013 1995
850.0 1242 842 665 582 565 541 519 510 475 516
890.0 644 842 994 970 801 572 441 370 343 321
930.0 343 389 439 495 544 619 721 982 1332 1843
970.0 2383 2835 2940 2744 2358 1997 1783 1799 2225 2964
1010.0 4743 6197 5889 4634 2688 2126 2294 2373 2441 2286
1050.0 2092 1830 1647 1525 1534 1686 1997 2498 3293 4821
1090.0 7424 9761 10000 7715 4636 2906 2179 1804 1487 1156
1130.0 890 702 622 567 577 582 628 710 808 939
1170.0 1055 1163 1217 1208 1150 1097 1039 1018 1022 1050
1210.0 1135 1271 1466 1654 1817 1829 1746 1591 1481 1438
1250.0 1479 1590 1686 1694 1594 1454 1306 1262 1299 1426
1290.0 1619 1807 1875 1794 1631 1512 1467 1394 1292 1164
1330.0 1128 1191 1377 1603 1817 1941 1933 1941 1943 1948
1370.0 1900 1883 1826 1828 1843 1785 1714 1609 1570 1582
1410.0 1619 1505 1405 1144 948 804 776 820 883 996
1450.0 1119 1300 1539 1760 1952 2071 2220 2411 2848 3887
1490.0 5590 6829 6359 4585 2275 1084 781 661 766 838
1530.0 1033 1052 1003 833 621 459 389 403 351 347
1570.0 403 480 532 562 610 767 1029 1365 1500 1376
1610.0 989 595 443 336 346 311 377 398 396 412
1650.0 445 418 339 262 229 206 201 138 174 173
1690.0 132 126 211 223 241 223 256 300 273 270
1730.0 311 366 315 302 299 301 296 306 338 360
1770.0 422 453 436 388 301 206 146 92 83 47
1810.0 25 21 2 9 6 18 4 2 14 30
1850.0 15 7 20 25 45 69 69 90 129 169
1890.0 229 271 298 295 257 199 141 108 88 65
1930.0 54 38 37 43 42 31 34 33 34 26
1970.0 28 19 15 22 17 25 23 19 17 16
2010.0 15 22 27 26 26 35 28 30 35 35
2050.0 28 24 20 20 26 19 19 19 19 18
2090.0 19 19 16 14 9 8 3 10 11 8
2130.0 6 7 13 13 7 7 4 6 4 1
2170.0 1 0 1 1 3 0 3 7 12 10
2210.0 16 16 16 16 16 18 18 23 19 15
2250.0 24 26 33 39 44 45 52 61 61 57
2290.0 62 60 55 55 55 46 55 58 53 64
2330.0 64 67 65 45 53 59 70 71 63 65
2370.0 67 56 51 50 55 58 62 68 73 73
2410.0 73 77 81 73 78 70 69 61 62 57
2450.0 59 59 58 61 62 63 56 58 59 59
2490.0 58 55 58 56 55 56 56 62 64 65
2530.0 72 73 74 84 83 86 92 99 94 102
2570.0 107 113 123 128 128 128 125 120 114 106
2610.0 102 101 94 100 93 91 84 83 87 86
2650.0 95 93 105 107 108 120 116 124 131 137
2690.0 133 140 142 142 134 127 132 129 129 138
2730.0 141 157 162 174 188 195 195 191 192 183
2770.0 189 194 194 203 210 216 217 222 222 236
2810.0 254 266 285 316 351 386 430 489 559 654
2850.0 781 991 1272 1622 2014 2400 2780 3158 3569 3798
2890.0 3628 3099 2430 1985 1750 1668 1695 1842 2138 2551
2930.0 3045 3574 4128 4447 4459 3984 3347 2923 2885 3484
2970.0 4417 5574 6098 5637 4426 2863 1864 1338 981 780
3010.0 643 589 575 618 743 943 1077 1097 972 813
3050.0 736 699 660 608 544 504 518 575 673 780
3090.0 857 867 787 682 555 431 326 233 169 135
3130.0 129 125 121 113 116 116 100 88 86 81
3170.0 71 70 66 60 52 55 52 52 52 47
3210.0 45 27 34 35 22 16 18 21 21 19
3250.0 25 24 31 27 26 24 29 29 11 19
3290.0 16 15 21 20 12 16 15 20 39 30
3330.0 38 28 38 38 41 43 56 58 56 62
3370.0 78 66 63 79 77 71 81 77 83 79
3410.0 73 83 80 83 83 85 92 92 95 89
3450.0 80 82 105 81 89 96 79 86 80 75
3490.0 72 84 68 77 81 80 77 62 73 63
3530.0 73 68 64 70 70 66 65 72 69 71
3570.0 80 95 94 108 85 90 103 82 111 104
3610.0 140 111 126 153 204 300 445 720 1134 1519
3650.0 1804 1863 1647 1290 876 539 303 207 154 136
3690.0 137 132 86 94 88 74 63 74 64 60
3730.0 65 38 49 33 86 18 36 42 34 51
3770.0 41 37 21 56 30 34 34 15 18 38
3810.0 18 48 27 37 35 25 65 53 36 31
3850.0 28 70 75 68 50 78 67 29 26 42
3890.0 51 85 53 62 33 70 84 63 25 51
3930.0 50 69 75 29 33 29 33 31 39 28
##END=
