##TITLE=Sulfide, phenethyl phenyl,
##JCAMP-DX=4.24
##DATA TYPE=INFRARED SPECTRUM
##ORIGIN=Sadtler Research Labs Under US-EPA Contract
##OWNER=NIST Standard Reference Data Program
##CAS REGISTRY NO=13865-49-1
##MOLFORM=C 14 H 14 S
##XUNITS=1/CM
##YUNITS=ABSORBANCE
##XFACTOR=1.0
##YFACTOR=0.000080859
##DELTAX=4.0
##FIRSTX=450.0
##LASTX=3966.0
##FIRSTY=0.046656
##MAXX=3966
##MINX=450
##MAXY=0.80859
##MINY=0
##NPOINTS=880
##XYDATA=(X++(Y..Y))
450.0 577 455 720 999 1172 1329 1658 1950 2148 1679
490.0 1749 1512 1439 1049 727 674 417 325 284 190
530.0 280 298 251 420 332 496 702 472 631 486
570.0 372 262 140 79 120 59 111 51 111 97
610.0 50 144 92 24 59 139 205 191 324 402
650.0 524 718 943 1263 1822 2451 2786 3704 5040 6865
690.0 8911 10000 9909 8804 7550 6469 6051 5981 6144 6740
730.0 7639 8784 9345 8885 7502 5924 4562 3420 2455 1746
770.0 1252 918 687 500 400 304 177 241 175 77
810.0 121 125 199 225 212 227 132 142 88 73
850.0 106 102 153 262 286 302 390 268 323 267
890.0 303 395 376 524 663 693 669 562 522 457
930.0 398 376 364 302 263 256 284 266 328 320
970.0 281 253 258 236 272 274 305 427 466 487
1010.0 461 708 1261 2387 3049 2854 1624 759 350 278
1050.0 373 500 663 857 1016 1078 1143 1161 1366 1714
1090.0 1902 1662 1184 787 629 575 519 517 432 442
1130.0 454 392 401 347 323 234 231 231 227 260
1170.0 255 317 377 405 435 461 499 491 500 388
1210.0 390 423 652 929 961 834 663 542 419 402
1250.0 377 411 504 643 847 1141 1395 1413 1313 1051
1290.0 877 811 778 744 757 789 864 895 909 869
1330.0 837 716 562 465 362 305 286 247 215 231
1370.0 226 208 233 252 231 218 219 234 253 310
1410.0 448 607 800 1026 1351 1705 2200 2649 2977 3012
1450.0 2838 2678 2344 2223 2206 2566 3449 4617 4988 4355
1490.0 3492 3600 3548 2836 1481 693 469 347 270 281
1530.0 294 269 273 241 324 382 451 506 705 1027
1570.0 1406 1932 2672 3450 3692 3347 2752 2273 2182 2078
1610.0 1581 1032 559 348 330 281 253 210 196 220
1650.0 215 171 172 167 175 133 100 94 61 20
1690.0 76 113 114 90 117 195 195 179 183 198
1730.0 227 198 246 218 228 228 184 177 162 198
1770.0 220 269 340 421 541 636 718 660 510 369
1810.0 311 259 224 204 167 151 198 203 241 249
1850.0 297 313 363 409 460 452 510 477 442 363
1890.0 286 214 159 160 168 177 214 259 316 384
1930.0 458 545 636 678 685 691 660 529 349 173
1970.0 100 95 120 68 75 63 68 30 24 67
2010.0 62 32 40 61 61 57 60 40 42 51
2050.0 69 48 54 49 45 35 34 39 34 47
2090.0 41 45 51 47 41 34 42 36 35 44
2130.0 25 37 39 43 31 25 29 48 35 36
2170.0 47 42 32 43 43 43 37 35 49 51
2210.0 45 32 37 41 36 37 42 48 30 53
2250.0 61 48 68 54 54 53 58 60 75 64
2290.0 71 71 96 109 133 182 224 206 232 216
2330.0 218 241 200 224 222 192 161 206 244 242
2370.0 174 141 103 101 67 40 61 43 48 48
2410.0 67 52 61 54 64 57 61 41 40 40
2450.0 39 27 34 40 32 33 45 31 30 36
2490.0 32 24 21 31 33 32 38 46 44 53
2530.0 35 56 41 47 36 46 44 54 51 46
2570.0 52 53 67 65 63 77 74 78 84 91
2610.0 97 98 92 72 72 80 95 89 102 100
2650.0 99 112 98 99 88 87 74 56 73 62
2690.0 58 53 62 49 49 45 46 43 50 44
2730.0 37 44 33 43 56 62 79 74 76 98
2770.0 114 114 118 137 144 138 123 125 119 128
2810.0 151 153 198 233 271 330 402 459 532 665
2850.0 790 949 1037 1045 977 887 782 699 641 635
2890.0 651 734 857 1035 1240 1454 1637 1870 2234 2806
2930.0 3393 3797 3772 3378 2838 2385 2158 2306 2505 2467
2970.0 2175 1666 1214 913 768 718 797 921 1170 1453
3010.0 1761 2080 2515 3201 4175 5179 5699 5410 4475 3499
3050.0 3142 3318 4140 5646 7827 9491 9479 8053 6600 5733
3090.0 4880 3923 2948 2216 1733 1398 1066 796 545 407
3130.0 307 288 270 277 221 227 225 184 171 157
3170.0 131 113 77 91 86 68 44 71 53 47
3210.0 51 43 28 29 52 42 40 34 29 49
3250.0 36 43 80 21 36 29 56 36 49 61
3290.0 62 69 36 43 42 73 41 51 67 63
3330.0 43 44 42 35 41 48 65 32 54 41
3370.0 37 60 49 19 45 53 39 50 45 22
3410.0 60 32 75 68 44 78 83 108 94 59
3450.0 99 26 66 56 66 87 54 65 58 90
3490.0 67 78 56 64 51 78 61 61 94 52
3530.0 78 61 73 68 41 42 46 44 77 46
3570.0 52 75 48 71 62 43 43 48 80 58
3610.0 61 90 92 81 92 79 87 126 112 107
3650.0 64 88 89 122 106 71 78 81 96 99
3690.0 108 152 130 146 138 95 77 88 91 90
3730.0 73 60 70 95 48 38 67 114 121 99
3770.0 72 75 68 75 85 74 72 52 11 51
3810.0 53 60 41 48 60 62 53 41 57 41
3850.0 54 30 54 62 68 48 29 39 47 47
3890.0 68 81 77 76 85 102 92 106 88 93
3930.0 88 73 43 66 73 97 0 8 8 8
##END=
