##TITLE=Dodecanoic acid, dodecyl ester
##JCAMP-DX=4.24
##DATA TYPE=INFRARED SPECTRUM
##ORIGIN=Sadtler Research Labs Under US-EPA Contract
##OWNER=NIST Standard Reference Data Program
##CAS REGISTRY NO=13945-76-1
##MOLFORM=C 24 H 48 O 2
##XUNITS=1/CM
##YUNITS=ABSORBANCE
##XFACTOR=1.0
##YFACTOR=0.000072479
##DELTAX=4.0
##FIRSTX=450.0
##LASTX=3966.0
##FIRSTY=0.000000
##MAXX=3966
##MINX=450
##MAXY=0.72479
##MINY=0
##NPOINTS=880
##XYDATA=(X++(Y..Y))
450.0 0 80 39 120 125 130 106 49 125 64
490.0 120 151 108 104 92 121 112 106 85 70
530.0 57 95 113 97 77 75 96 70 83 109
570.0 147 125 138 137 135 150 131 122 139 143
610.0 150 159 146 161 137 126 124 136 143 154
650.0 121 137 142 147 149 171 159 167 175 174
690.0 218 229 259 296 344 411 486 541 549 519
730.0 492 438 390 366 343 326 321 318 324 304
770.0 301 291 278 275 264 261 247 244 240 246
810.0 254 246 244 255 248 243 249 252 272 261
850.0 286 292 300 302 314 315 322 325 331 347
890.0 348 352 353 349 343 344 335 338 348 352
930.0 364 373 376 394 398 424 453 481 510 530
970.0 546 569 590 596 626 649 678 709 741 752
1010.0 759 754 744 737 737 736 738 757 786 837
1050.0 876 911 955 983 991 991 975 949 917 897
1090.0 898 930 1001 1108 1242 1335 1356 1294 1211 1163
1130.0 1185 1300 1488 1780 2129 2432 2657 2765 2794 2778
1170.0 2714 2621 2516 2374 2206 2049 1890 1780 1710 1664
1210.0 1657 1680 1718 1771 1842 1896 1927 1917 1900 1855
1250.0 1780 1681 1567 1444 1326 1242 1190 1147 1112 1072
1290.0 1051 1035 1032 1029 1017 988 946 896 864 847
1330.0 865 917 975 1044 1086 1125 1119 1071 996 921
1370.0 843 812 848 871 827 760 630 523 452 431
1410.0 435 486 548 623 686 766 877 988 1145 1302
1450.0 1519 1748 1961 2023 1894 1534 1071 735 520 391
1490.0 308 262 225 195 174 157 148 129 124 112
1530.0 99 100 96 85 92 99 97 85 91 88
1570.0 92 92 108 102 102 104 108 112 113 114
1610.0 111 122 122 125 133 142 149 152 155 162
1650.0 169 176 189 191 208 224 234 265 290 328
1690.0 377 446 509 576 644 749 892 1077 1363 1745
1730.0 2325 3048 3788 4135 4017 3647 3161 2341 1620 1162
1770.0 892 690 561 460 386 322 270 232 194 175
1810.0 151 137 124 112 97 82 78 74 71 69
1850.0 63 67 64 66 62 57 58 56 57 53
1890.0 51 54 55 50 52 50 48 47 48 46
1930.0 52 50 51 48 50 52 49 50 52 52
1970.0 55 52 49 50 51 50 53 53 54 55
2010.0 57 60 63 61 62 67 61 60 66 66
2050.0 66 60 63 62 62 59 58 60 59 50
2090.0 52 46 44 48 40 42 39 39 39 40
2130.0 42 44 39 39 40 40 40 40 44 45
2170.0 45 42 43 40 40 41 42 41 42 42
2210.0 42 41 44 45 45 43 41 48 48 48
2250.0 50 47 51 52 51 57 56 61 64 65
2290.0 72 80 82 87 89 94 85 76 86 63
2330.0 77 70 79 74 83 88 89 78 91 95
2370.0 92 92 99 99 85 71 67 64 62 67
2410.0 66 67 62 61 59 59 54 61 59 58
2450.0 62 64 65 69 66 65 66 65 73 73
2490.0 69 77 78 79 79 82 84 98 98 95
2530.0 99 105 106 112 110 111 109 117 121 121
2570.0 122 125 138 138 134 150 154 160 164 168
2610.0 172 182 182 187 195 204 205 216 215 225
2650.0 235 247 254 264 274 283 289 295 302 304
2690.0 303 292 285 287 285 286 295 298 302 314
2730.0 323 333 349 346 355 359 365 376 392 403
2770.0 422 442 473 502 534 575 625 669 723 778
2810.0 853 936 1022 1138 1267 1428 1642 1952 2403 3039
2850.0 3844 4650 5238 5411 5130 4636 4172 3793 3541 3472
2890.0 3514 3702 4012 4406 4877 5426 6092 6905 7930 9010
2930.0 9899 10000 9304 8166 6965 5989 5358 5070 4875 4590
2970.0 4075 3373 2664 2115 1694 1376 1131 936 802 684
3010.0 603 526 473 425 382 347 318 286 267 240
3050.0 224 212 205 200 188 182 163 149 143 140
3090.0 137 128 122 124 113 119 110 113 105 103
3130.0 105 98 98 95 96 91 96 88 93 90
3170.0 93 97 86 90 87 84 81 90 78 76
3210.0 84 75 70 68 62 67 67 70 70 67
3250.0 69 56 66 67 68 61 70 59 68 61
3290.0 67 72 70 59 59 64 66 65 65 67
3330.0 76 79 82 68 69 78 80 76 82 77
3370.0 86 84 87 75 75 80 76 82 77 75
3410.0 74 73 91 84 89 83 77 80 96 104
3450.0 98 104 106 115 112 99 106 88 87 79
3490.0 75 75 73 67 66 65 62 40 50 49
3530.0 55 58 57 66 68 64 74 63 62 79
3570.0 82 73 75 71 85 64 69 79 98 90
3610.0 97 77 78 77 69 92 71 91 94 98
3650.0 100 91 90 85 83 81 89 101 86 75
3690.0 84 82 78 61 76 87 93 80 87 80
3730.0 91 82 93 83 114 74 90 91 89 90
3770.0 74 73 89 91 99 97 90 99 80 76
3810.0 81 90 77 82 109 98 97 87 86 79
3850.0 93 84 89 106 95 93 104 88 99 92
3890.0 88 89 109 111 108 98 101 88 114 82
3930.0 107 120 95 93 97 101 110 110 72 97
##END=
