##TITLE=Acetic acid, phenylmethyl ester
##JCAMP-DX=4.24
##DATA TYPE=INFRARED SPECTRUM
##ORIGIN=Sadtler Research Labs Under US-EPA Contract
##OWNER=NIST Standard Reference Data Program
##CAS REGISTRY NO=140-11-4
##MOLFORM=C 9 H 10 O 2
##XUNITS=1/CM
##YUNITS=ABSORBANCE
##XFACTOR=1.0
##YFACTOR=0.000085486
##DELTAX=4.0
##FIRSTX=450.0
##LASTX=3966.0
##FIRSTY=0.008720
##MAXX=3966
##MINX=450
##MAXY=0.85486
##MINY=0
##NPOINTS=880
##XYDATA=(X++(Y..Y))
450.0 102 81 103 124 142 166 199 233 282 341
490.0 387 378 346 238 158 105 64 49 29 34
530.0 25 22 34 27 31 22 17 67 84 121
570.0 121 159 177 149 117 116 148 157 177 206
610.0 221 226 203 172 135 111 99 87 77 69
650.0 67 58 57 66 72 166 224 326 461 597
690.0 753 897 900 775 659 555 496 476 507 554
730.0 621 719 806 856 825 716 560 370 227 123
770.0 66 30 17 12 3 56 41 35 42 46
810.0 70 96 126 150 235 214 215 191 167 142
850.0 108 85 74 61 56 60 66 76 83 114
890.0 137 161 183 192 218 248 269 273 250 221
930.0 192 162 139 120 128 153 209 287 363 434
970.0 454 443 404 361 339 373 452 583 739 921
1010.0 1127 1361 1657 1957 2113 2135 2029 1762 1527 1276
1050.0 1027 839 731 668 627 595 571 537 511 472
1090.0 417 357 299 250 209 167 139 116 98 85
1130.0 78 73 74 78 79 92 103 115 122 152
1170.0 184 243 320 385 454 540 663 875 1197 1705
1210.0 2510 3775 5623 7852 9487 10000 9150 7442 5710 4198
1250.0 2960 2218 1895 1698 1495 1237 990 791 617 483
1290.0 383 312 269 236 219 200 194 189 176 169
1330.0 164 160 163 176 206 284 447 781 1175 1296
1370.0 1363 1212 1111 1147 1132 974 728 508 353 260
1410.0 203 179 172 162 180 197 224 254 302 363
1450.0 421 462 469 461 430 376 310 247 213 205
1490.0 235 299 348 340 301 197 133 107 97 93
1530.0 93 86 86 78 76 68 67 68 58 60
1570.0 55 62 67 73 71 72 79 85 91 101
1610.0 99 99 80 67 59 50 52 52 58 58
1650.0 62 68 64 69 67 64 73 68 78 94
1690.0 104 122 137 150 172 200 246 302 364 442
1730.0 532 658 845 1122 1522 2117 2971 4005 4951 5308
1770.0 5027 3992 2862 2035 1432 1007 721 543 424 337
1810.0 267 207 172 151 136 127 128 115 104 98
1850.0 91 82 78 77 79 79 77 76 70 65
1890.0 59 52 43 39 33 34 33 34 39 45
1930.0 46 50 57 63 66 72 78 73 68 57
1970.0 39 27 22 22 22 22 30 22 23 17
2010.0 16 18 23 17 23 18 22 29 29 29
2050.0 31 35 36 36 31 23 24 17 19 19
2090.0 19 19 19 15 12 12 13 13 18 14
2130.0 19 20 20 20 20 20 20 20 13 13
2170.0 13 10 9 9 8 9 9 10 15 8
2210.0 8 12 9 9 9 9 3 9 9 9
2250.0 4 7 3 11 2 10 10 10 10 10
2290.0 9 9 9 5 4 4 10 4 10 6
2330.0 7 9 16 16 17 4 2 2 11 18
2370.0 22 23 23 16 12 10 6 5 12 11
2410.0 11 12 12 12 11 12 12 15 17 17
2450.0 17 24 23 24 23 23 20 18 19 16
2490.0 12 8 8 8 8 8 8 2 6 7
2530.0 3 5 5 1 9 2 2 7 7 2
2570.0 7 8 9 13 14 17 16 19 20 18
2610.0 13 13 13 14 14 14 14 14 14 14
2650.0 15 15 12 14 14 15 15 14 20 15
2690.0 13 11 8 12 12 13 9 15 14 21
2730.0 20 20 16 15 15 15 13 10 10 10
2770.0 8 9 10 15 15 16 10 8 16 8
2810.0 18 27 30 39 39 39 44 45 45 50
2850.0 51 52 56 65 71 77 89 101 113 125
2890.0 148 155 161 165 161 159 146 147 143 152
2930.0 174 204 243 291 350 403 457 485 503 497
2970.0 459 404 351 300 266 242 213 190 172 155
3010.0 162 174 201 255 327 429 562 686 757 751
3050.0 678 560 471 463 521 645 719 716 648 500
3090.0 406 358 320 287 254 219 183 153 131 93
3130.0 70 48 35 32 23 24 23 24 19 25
3170.0 23 23 24 24 18 9 10 17 13 10
3210.0 13 7 13 12 13 12 1 14 13 5
3250.0 10 5 18 8 8 13 7 2 13 14
3290.0 14 10 0 8 3 7 14 13 2 2
3330.0 7 8 12 9 6 9 4 18 13 13
3370.0 13 9 3 8 13 2 8 11 17 6
3410.0 11 8 5 14 14 14 19 7 8 15
3450.0 15 13 10 10 13 16 10 18 19 14
3490.0 32 43 44 48 50 56 53 51 49 43
3530.0 22 24 26 20 25 19 15 13 5 14
3570.0 20 20 14 10 13 12 20 20 13 9
3610.0 9 13 13 18 17 19 20 24 21 18
3650.0 37 31 25 20 16 16 24 26 15 17
3690.0 22 21 20 26 9 15 3 14 2 6
3730.0 3 5 7 4 3 2 13 13 13 8
3770.0 2 3 4 7 5 3 2 2 6 8
3810.0 13 8 8 7 2 2 2 2 2 2
3850.0 2 2 8 7 7 7 6 6 2 2
3890.0 2 2 2 5 5 13 7 7 2 2
3930.0 2 2 2 13 12 15 11 2 2 2
##END=
