##TITLE=2-Propenoic acid, ethyl ester
##JCAMP-DX=4.24
##DATA TYPE=INFRARED SPECTRUM
##ORIGIN=Sadtler Research Labs Under US-EPA Contract
##OWNER=NIST Standard Reference Data Program
##CAS REGISTRY NO=140-88-5
##MOLFORM=C 5 H 8 O 2
##XUNITS=1/CM
##YUNITS=ABSORBANCE
##XFACTOR=1.0
##YFACTOR=0.000090234
##DELTAX=4.0
##FIRSTX=450.0
##LASTX=3966.0
##FIRSTY=0.003429
##MAXX=3966
##MINX=450
##MAXY=0.90234
##MINY=0
##NPOINTS=880
##XYDATA=(X++(Y..Y))
450.0 38 20 43 1 16 42 24 69 107 43
490.0 105 153 110 99 94 125 68 99 86 92
530.0 128 95 62 106 49 80 100 85 95 87
570.0 153 52 110 147 82 98 164 120 157 129
610.0 169 120 185 166 108 156 161 130 165 187
650.0 155 201 199 236 175 280 219 150 181 171
690.0 135 192 187 139 144 124 141 117 161 131
730.0 139 143 130 140 148 130 165 165 154 172
770.0 185 233 211 293 363 406 480 605 656 756
810.0 793 792 670 601 530 438 411 348 327 330
850.0 368 337 362 341 363 305 310 241 239 229
890.0 229 266 270 292 289 300 280 269 258 277
930.0 244 269 326 350 437 539 646 783 1023 1007
970.0 991 1005 1054 997 1095 959 793 693 610 539
1010.0 486 517 606 741 915 1042 1124 1220 1270 1312
1050.0 1398 1609 1828 2066 2113 2103 1958 1653 1281 1030
1090.0 960 885 875 848 786 727 639 527 453 428
1130.0 436 370 403 430 452 548 656 815 1095 1556
1170.0 2203 3222 4764 6653 8445 9772 10000 8964 7578 5374
1210.0 3234 2136 1494 1118 932 835 826 856 972 1129
1250.0 1529 2072 2807 3397 3828 3975 3817 3473 2774 2248
1290.0 2064 2040 1953 1981 1922 1520 1023 736 550 426
1330.0 344 307 246 251 252 240 260 281 302 333
1370.0 379 435 535 646 741 870 1111 1481 1915 2167
1410.0 2166 2093 1926 1536 1006 660 512 411 432 446
1450.0 427 467 411 490 489 515 467 450 432 380
1490.0 276 283 227 209 155 139 166 123 93 113
1530.0 123 100 98 28 99 115 103 57 70 125
1570.0 108 136 100 141 157 146 164 184 192 232
1610.0 275 319 327 387 441 504 589 559 543 476
1650.0 460 198 200 154 155 111 130 153 144 126
1690.0 189 206 209 229 314 450 593 808 1243 1836
1730.0 2587 3546 4786 5382 5147 5264 5646 4775 3588 2481
1770.0 1653 1037 696 443 322 260 184 192 177 164
1810.0 158 159 147 140 124 118 111 123 105 71
1850.0 100 103 90 95 83 73 91 99 111 94
1890.0 107 103 106 118 121 124 151 152 168 181
1930.0 194 185 170 159 120 109 108 88 89 89
1970.0 78 82 77 82 65 69 77 59 70 66
2010.0 66 68 73 73 79 85 94 85 107 114
2050.0 112 121 119 109 98 92 82 80 80 79
2090.0 69 87 63 74 76 69 71 72 65 67
2130.0 65 71 59 59 65 50 54 62 52 51
2170.0 58 50 46 45 56 39 45 49 38 46
2210.0 41 42 41 43 41 38 42 48 31 47
2250.0 35 35 43 37 40 39 39 37 38 38
2290.0 33 32 44 31 39 39 34 33 46 37
2330.0 41 64 80 45 56 72 23 88 109 116
2370.0 126 121 94 68 58 53 36 47 47 35
2410.0 41 33 36 29 35 32 29 31 32 21
2450.0 33 23 28 33 26 32 30 34 27 31
2490.0 34 23 23 40 12 24 28 24 24 22
2530.0 26 16 26 27 14 25 28 14 26 26
2570.0 19 15 19 19 13 20 25 12 22 20
2610.0 16 22 17 22 16 16 15 17 22 19
2650.0 8 30 15 21 29 21 25 21 28 14
2690.0 27 32 21 27 42 16 32 28 28 28
2730.0 27 39 22 35 37 27 32 43 26 47
2770.0 36 45 34 35 40 30 43 37 35 51
2810.0 49 46 71 52 63 57 69 64 70 83
2850.0 65 80 104 88 103 133 147 193 221 256
2890.0 263 297 317 314 329 361 348 368 366 383
2930.0 420 477 560 597 659 682 678 684 684 697
2970.0 790 920 1121 1292 1368 1390 1471 1424 1152 922
3010.0 782 639 500 411 317 278 257 268 246 243
3050.0 242 208 191 162 121 125 126 113 117 116
3090.0 134 104 131 157 176 188 192 168 185 136
3130.0 95 73 63 78 54 66 56 57 63 63
3170.0 47 63 48 55 52 58 48 39 65 34
3210.0 51 54 37 38 53 45 47 48 61 34
3250.0 44 56 33 47 51 39 39 44 40 35
3290.0 36 54 36 54 53 35 53 44 45 52
3330.0 51 45 49 54 55 39 68 48 52 61
3370.0 51 46 65 49 52 49 66 46 46 67
3410.0 36 48 59 43 49 61 55 55 51 71
3450.0 41 78 89 68 107 109 104 106 113 113
3490.0 90 80 88 45 62 50 42 53 42 44
3530.0 53 52 49 47 53 47 33 64 34 35
3570.0 46 51 42 56 39 32 44 54 39 39
3610.0 45 27 34 36 42 7 42 50 41 35
3650.0 14 30 36 56 41 23 17 22 38 45
3690.0 27 34 36 37 25 36 27 37 38 27
3730.0 28 9 18 18 4 13 21 28 50 28
3770.0 34 45 43 41 48 48 45 32 34 31
3810.0 33 46 18 31 46 42 24 25 34 33
3850.0 28 23 27 41 37 14 38 42 42 34
3890.0 15 36 41 39 45 42 53 43 54 66
3930.0 59 50 61 61 47 52 0 4 4 4
##END=
