##TITLE=Benzenemethanamine, 4-fluoro-
##JCAMP-DX=4.24
##DATA TYPE=INFRARED SPECTRUM
##ORIGIN=Sadtler Research Labs Under US-EPA Contract
##OWNER=NIST Standard Reference Data Program
##CAS REGISTRY NO=140-75-0
##MOLFORM=C 7 H 8 F N
##XUNITS=1/CM
##YUNITS=ABSORBANCE
##XFACTOR=1.0
##YFACTOR=0.000137955
##DELTAX=4.0
##FIRSTX=450.0
##LASTX=3966.0
##FIRSTY=0.031730
##MAXX=3966
##MINX=450
##MAXY=1.37955
##MINY=0
##NPOINTS=880
##XYDATA=(X++(Y..Y))
450.0 230 100 8 95 93 178 242 333 461 430
490.0 478 377 369 305 356 352 354 409 442 504
530.0 510 771 782 808 875 858 738 594 450 354
570.0 275 216 204 152 193 56 94 125 127 118
610.0 149 119 147 116 132 161 229 176 223 241
650.0 261 291 310 349 399 498 541 633 750 920
690.0 1117 1330 1520 1607 1675 1604 1612 1638 1731 1830
730.0 1866 1823 1634 1433 1230 1150 1148 1210 1304 1478
770.0 1702 1963 2188 2275 2369 2376 2305 2184 2194 2286
810.0 2545 2886 3219 3469 3617 3785 3632 3511 3298 3104
850.0 2796 2379 1954 1617 1356 1119 904 732 594 493
890.0 425 374 331 300 272 242 228 210 199 188
930.0 186 178 171 172 177 199 217 234 237 245
970.0 245 238 227 216 216 210 220 232 274 385
1010.0 538 604 610 632 583 578 664 708 684 645
1050.0 541 430 373 346 338 336 350 363 373 391
1090.0 390 364 349 327 269 232 198 176 162 149
1130.0 155 146 175 235 538 1247 1718 1540 1570 1068
1170.0 460 218 191 195 222 259 303 378 490 702
1210.0 1037 1557 2241 3186 4895 7380 9316 10000 9548 6817
1250.0 3224 1462 846 581 455 380 345 326 316 324
1290.0 338 364 364 333 320 300 298 284 329 351
1330.0 372 389 343 372 433 453 479 489 495 580
1370.0 678 740 839 912 855 778 650 488 453 432
1410.0 418 462 325 396 347 348 249 265 309 318
1450.0 318 309 281 423 505 528 446 467 530 464
1490.0 497 875 1628 3446 6256 8772 9289 8387 5981 2874
1530.0 1258 718 430 228 202 254 222 116 232 303
1570.0 333 390 505 613 866 1126 1586 2186 2906 3394
1610.0 3300 2853 2196 1740 1330 1186 946 795 736 667
1650.0 539 539 540 438 335 253 138 199 65 50
1690.0 96 121 4 21 47 112 73 9 106 144
1730.0 102 10 114 113 98 98 185 197 196 214
1770.0 130 90 116 94 89 81 58 77 47 108
1810.0 93 90 111 91 83 54 83 97 71 47
1850.0 100 142 150 171 179 176 261 291 300 286
1890.0 261 240 211 173 139 117 98 88 63 85
1930.0 94 88 92 66 75 92 88 83 88 69
1970.0 77 82 77 77 76 59 63 79 82 79
2010.0 75 62 51 58 58 63 66 63 59 67
2050.0 74 70 67 65 47 55 55 60 64 64
2090.0 61 61 56 51 46 44 42 35 36 34
2130.0 32 30 28 29 27 27 28 32 30 33
2170.0 33 32 32 31 31 29 26 29 26 26
2210.0 29 30 28 30 30 33 38 41 45 44
2250.0 47 43 48 42 40 36 34 28 23 18
2290.0 16 12 8 9 4 6 7 11 6 22
2330.0 21 20 23 36 42 26 2 13 17 40
2370.0 56 58 58 55 51 54 51 49 44 37
2410.0 34 30 31 33 35 39 38 45 55 61
2450.0 71 77 87 91 93 84 76 64 49 40
2490.0 34 29 34 32 27 26 28 27 30 30
2530.0 31 29 29 30 28 31 31 30 30 39
2570.0 41 38 45 42 38 35 34 34 33 36
2610.0 40 49 50 56 57 59 56 46 47 56
2650.0 54 61 71 73 71 65 58 48 45 40
2690.0 42 44 49 59 63 68 72 77 82 92
2730.0 100 105 112 124 130 134 136 134 127 133
2770.0 131 133 140 142 157 173 191 203 219 233
2810.0 255 276 305 349 405 470 545 621 704 794
2850.0 886 977 1078 1172 1215 1235 1232 1180 1105 1040
2890.0 988 968 964 983 1002 998 972 931 905 878
2930.0 870 878 898 912 886 826 741 644 535 437
2970.0 363 300 254 225 209 199 201 228 271 321
3010.0 354 370 354 339 358 443 573 731 838 873
3050.0 847 742 567 452 407 409 441 439 444 428
3090.0 336 243 190 166 162 160 166 166 160 157
3130.0 137 117 99 76 54 58 48 40 36 30
3170.0 33 28 32 36 44 45 41 38 42 42
3210.0 36 42 34 35 36 38 32 22 33 35
3250.0 26 29 28 19 13 11 9 11 7 14
3290.0 21 13 29 26 18 16 25 25 23 31
3330.0 53 50 57 74 101 88 90 82 69 43
3370.0 37 30 29 32 21 31 16 25 34 36
3410.0 39 34 53 50 46 35 41 26 19 19
3450.0 19 17 23 30 17 22 10 14 17 16
3490.0 10 28 24 22 12 22 26 13 22 17
3530.0 8 17 18 27 19 27 10 6 32 16
3570.0 28 30 25 33 28 21 43 28 49 21
3610.0 39 27 42 38 25 60 49 51 50 42
3650.0 57 43 48 30 43 26 47 50 35 40
3690.0 37 50 39 42 59 34 46 47 36 41
3730.0 21 34 45 39 48 38 25 48 33 42
3770.0 23 24 29 40 34 30 22 23 24 24
3810.0 25 43 43 22 28 27 26 30 17 26
3850.0 25 24 25 30 33 54 29 31 35 28
3890.0 9 19 21 43 30 11 34 27 45 18
3930.0 43 26 22 15 11 0 24 8 21 22
##END=
