##TITLE=Butyric acid, 4-hydroxy-2-mercapto-, .gamma.-lactone
##JCAMP-DX=4.24
##DATA TYPE=INFRARED SPECTRUM
##ORIGIN=Sadtler Research Labs Under US-EPA Contract
##OWNER=NIST Standard Reference Data Program
##CAS REGISTRY NO=14032-62-3
##MOLFORM=C 4 H 6 O 2 S
##XUNITS=1/CM
##YUNITS=ABSORBANCE
##XFACTOR=1.0
##YFACTOR=0.000099237
##DELTAX=4.0
##FIRSTX=450.0
##LASTX=3966.0
##FIRSTY=0.003076
##MAXX=3966
##MINX=450
##MAXY=0.99237
##MINY=0
##NPOINTS=880
##XYDATA=(X++(Y..Y))
450.0 31 51 80 100 138 143 116 137 174 124
490.0 112 98 94 97 69 82 91 102 98 85
530.0 55 79 64 46 32 29 15 20 33 26
570.0 33 37 21 10 4 0 15 22 31 45
610.0 57 57 56 51 55 64 74 92 110 123
650.0 134 147 147 160 146 231 178 209 203 202
690.0 193 142 122 85 48 18 13 11 6 7
730.0 12 12 15 40 52 65 86 111 109 93
770.0 87 76 61 44 39 41 40 34 43 57
810.0 48 39 40 42 54 47 47 49 53 62
850.0 73 87 106 134 184 245 333 425 507 569
890.0 608 620 603 570 532 506 514 516 515 499
930.0 482 456 423 386 370 347 314 289 271 232
970.0 189 163 162 180 229 308 430 584 744 874
1010.0 1001 1126 1276 1494 1776 2108 2422 2542 2708 2866
1050.0 2583 2186 1747 1357 1033 832 736 679 656 644
1090.0 627 617 622 638 689 753 874 1068 1391 1893
1130.0 2554 3332 4124 4875 5473 5738 5608 5085 4279 3384
1170.0 2602 1873 1363 1107 1044 1102 1230 1386 1479 1469
1210.0 1415 1283 1123 942 753 597 494 425 369 322
1250.0 283 265 261 264 270 270 249 231 207 177
1290.0 149 124 116 118 126 128 142 120 112 95
1330.0 82 78 104 129 159 238 371 576 791 899
1370.0 1022 1029 960 789 548 336 190 116 71 59
1410.0 45 48 62 67 61 77 90 156 165 220
1450.0 273 303 329 257 249 203 195 167 168 179
1490.0 209 167 155 118 109 86 48 40 46 34
1530.0 13 27 13 31 16 9 9 21 20 0
1570.0 9 1 20 0 8 9 21 24 38 44
1610.0 49 52 64 53 48 48 43 52 42 63
1650.0 48 104 67 80 88 108 97 103 91 111
1690.0 91 98 125 158 158 183 211 248 242 245
1730.0 253 284 287 318 362 441 528 639 764 895
1770.0 1075 1291 1581 2029 2701 3625 4893 6437 8105 9370
1810.0 9907 10000 9812 8724 6934 5048 3519 2438 1701 1200
1850.0 848 615 462 365 294 254 210 185 164 146
1890.0 137 123 115 107 100 99 91 94 84 76
1930.0 70 62 53 51 45 39 38 39 37 36
1970.0 37 35 34 35 35 35 38 36 37 37
2010.0 42 43 49 53 57 65 72 80 88 89
2050.0 90 87 82 75 76 77 74 63 48 35
2090.0 28 22 18 17 15 15 12 11 11 11
2130.0 10 10 10 9 12 11 9 7 7 10
2170.0 9 8 6 7 10 8 10 12 14 13
2210.0 16 17 17 20 22 23 27 31 36 40
2250.0 44 50 52 56 60 64 66 67 70 70
2290.0 73 75 81 89 91 87 81 61 64 50
2330.0 47 47 43 59 85 76 74 57 76 69
2370.0 78 74 77 65 35 16 10 8 9 9
2410.0 7 5 2 0 0 0 3 7 10 15
2450.0 18 16 18 17 17 19 20 19 21 22
2490.0 22 25 23 26 25 26 26 24 24 21
2530.0 21 21 19 16 15 19 25 31 38 41
2570.0 58 80 96 98 91 91 87 65 40 26
2610.0 15 11 9 9 8 8 10 9 8 10
2650.0 12 11 12 10 14 15 16 16 18 16
2690.0 18 16 18 20 24 24 31 35 40 39
2730.0 42 42 39 36 32 32 28 30 31 30
2770.0 31 28 30 28 25 27 25 26 27 25
2810.0 27 28 28 26 28 31 33 36 40 44
2850.0 53 59 66 78 98 117 146 183 221 240
2890.0 265 322 428 597 801 946 1065 1069 1065 933
2930.0 766 629 536 487 485 493 491 493 500 514
2970.0 555 637 777 884 993 1170 1329 1373 1266 1161
3010.0 980 766 575 376 227 145 109 86 74 63
3050.0 54 51 45 44 34 31 35 34 35 32
3090.0 27 25 24 29 24 27 23 17 23 22
3130.0 20 17 17 16 15 15 18 17 14 18
3170.0 16 17 18 20 18 18 17 19 15 13
3210.0 11 14 12 14 12 11 15 11 10 10
3250.0 6 9 10 12 11 9 11 11 13 19
3290.0 13 13 14 16 10 12 13 13 12 12
3330.0 9 11 17 14 14 12 8 16 14 13
3370.0 14 11 15 14 11 15 11 14 15 16
3410.0 18 16 15 17 18 14 12 15 18 22
3450.0 19 23 20 22 26 24 18 16 15 10
3490.0 14 11 6 12 8 14 10 16 13 10
3530.0 16 13 20 13 24 22 26 15 30 38
3570.0 46 51 52 65 71 90 93 94 103 92
3610.0 103 82 63 65 39 48 20 10 10 8
3650.0 13 0 12 1 9 16 7 21 15 10
3690.0 26 17 12 20 19 23 21 17 16 23
3730.0 19 33 44 21 57 15 27 4 8 12
3770.0 15 23 11 4 5 18 2 8 14 16
3810.0 17 18 12 26 8 18 15 21 11 20
3850.0 14 39 25 22 14 20 21 23 20 40
3890.0 15 15 17 33 21 16 5 28 6 12
3930.0 12 22 25 21 29 25 14 23 23 3
##END=
