##TITLE=4-Methoxyphenylacetic acid ethyl ester
##JCAMP-DX=4.24
##DATA TYPE=INFRARED SPECTRUM
##ORIGIN=Sadtler Research Labs Under US-EPA Contract
##OWNER=NIST Standard Reference Data Program
##CAS REGISTRY NO=14062-18-1
##MOLFORM=C 11 H 14 O 3
##XUNITS=1/CM
##YUNITS=ABSORBANCE
##XFACTOR=1.0
##YFACTOR=0.000137958
##DELTAX=4.0
##FIRSTX=450.0
##LASTX=3966.0
##FIRSTY=0.006898
##MAXX=3966
##MINX=450
##MAXY=1.37958
##MINY=0
##NPOINTS=880
##XYDATA=(X++(Y..Y))
450.0 50 53 47 125 35 70 58 26 25 50
490.0 54 98 110 165 234 277 307 305 299 335
530.0 341 337 327 308 247 222 170 149 137 127
570.0 108 89 90 91 87 89 105 118 149 177
610.0 197 199 182 152 111 77 67 52 33 27
650.0 15 11 7 12 11 25 41 47 71 96
690.0 133 148 161 141 118 107 114 128 147 155
730.0 135 122 122 138 137 141 151 170 213 262
770.0 341 433 526 603 647 645 637 629 655 687
810.0 745 825 915 980 979 911 778 644 523 441
850.0 378 324 280 235 209 190 170 156 143 129
890.0 108 102 105 117 139 165 202 243 273 289
930.0 281 277 275 268 260 236 217 196 181 171
970.0 165 170 180 194 209 235 260 303 354 467
1010.0 653 841 1090 1435 1976 2700 3378 3744 3612 3108
1050.0 2493 1905 1449 1178 1069 991 855 718 665 692
1090.0 808 990 1179 1341 1452 1597 1826 2139 2483 2939
1130.0 3575 4384 5222 5883 6143 5910 5334 4587 3979 3584
1170.0 3649 3866 3745 3145 2335 1911 1748 1700 1752 1881
1210.0 2095 2399 2818 3326 3932 4691 5726 7093 8654 9808
1250.0 10000 9005 7459 6052 5058 4334 3794 3458 3307 3290
1290.0 3314 3286 3111 2764 2348 1990 1752 1593 1506 1445
1330.0 1390 1319 1185 1025 851 681 574 541 600 773
1370.0 874 824 670 535 480 442 411 381 386 387
1410.0 389 440 448 547 612 698 741 842 963 1022
1450.0 1008 965 972 1132 1326 1382 1228 983 810 697
1490.0 690 828 1161 1919 3396 5722 7041 6047 3543 1586
1530.0 834 505 339 235 203 205 182 154 173 205
1570.0 226 280 360 451 529 557 581 644 816 1048
1610.0 1290 1405 1277 984 646 433 300 227 205 172
1650.0 134 119 138 130 125 118 104 142 123 142
1690.0 184 235 245 310 391 485 560 652 857 1100
1730.0 1482 2030 2989 4146 5491 6379 6858 6465 5429 4268
1770.0 3193 2213 1509 1012 707 513 388 317 242 220
1810.0 177 153 134 121 105 95 96 101 87 77
1850.0 96 105 111 115 116 109 122 124 119 110
1890.0 101 101 98 94 80 72 60 53 42 48
1930.0 52 50 53 45 53 60 65 68 77 77
1970.0 80 81 78 76 71 64 59 64 64 67
2010.0 69 70 70 74 80 79 83 79 78 82
2050.0 88 93 101 109 108 116 119 120 115 107
2090.0 95 80 66 51 45 35 29 23 20 18
2130.0 17 13 10 8 6 5 4 2 1 2
2170.0 0 2 1 1 1 3 3 3 4 6
2210.0 9 9 12 13 14 14 16 15 12 13
2250.0 12 13 12 14 17 19 23 25 30 32
2290.0 35 37 33 31 26 25 21 19 21 21
2330.0 16 26 22 7 30 16 20 16 7 8
2370.0 22 21 24 22 22 21 21 19 18 20
2410.0 21 23 23 28 29 26 24 21 18 17
2450.0 18 16 19 20 23 26 30 30 35 38
2490.0 41 42 38 38 36 35 33 37 39 40
2530.0 45 49 51 55 57 56 51 42 35 30
2570.0 27 25 26 25 28 29 32 31 35 33
2610.0 29 30 29 28 29 28 29 27 27 28
2650.0 26 23 20 23 20 22 23 26 25 27
2690.0 30 31 32 31 31 33 36 38 44 46
2730.0 52 51 54 59 60 64 66 72 70 74
2770.0 77 80 84 88 94 99 109 116 127 143
2810.0 163 188 218 252 301 369 478 673 890 983
2850.0 905 736 624 587 588 610 620 644 692 744
2890.0 765 785 829 918 1047 1205 1366 1476 1537 1592
2930.0 1705 1890 2148 2378 2442 2334 2159 2056 2038 2069
2970.0 2077 2036 2023 2148 2263 2199 2002 1852 1892 1956
3010.0 1836 1497 1087 833 731 701 741 794 798 714
3050.0 580 470 408 386 399 435 472 473 433 354
3090.0 296 271 268 265 257 240 212 186 167 151
3130.0 142 130 116 101 93 78 73 73 70 63
3170.0 59 58 52 54 50 45 42 39 36 31
3210.0 29 31 30 27 25 24 23 24 22 23
3250.0 21 19 15 18 15 18 17 13 16 18
3290.0 17 16 13 10 10 15 16 17 16 16
3330.0 17 16 13 18 16 19 18 17 20 19
3370.0 11 12 14 14 13 19 18 15 16 16
3410.0 16 14 15 15 20 16 17 18 19 20
3450.0 23 20 29 23 28 33 36 41 49 51
3490.0 52 51 45 39 29 23 20 14 9 9
3530.0 3 9 6 5 8 8 6 11 9 14
3570.0 19 26 23 16 17 12 21 11 7 11
3610.0 14 14 12 22 15 17 16 14 16 10
3650.0 21 19 21 20 12 22 14 22 14 18
3690.0 15 18 16 18 15 24 19 20 11 17
3730.0 21 17 19 4 34 10 23 15 21 19
3770.0 20 21 14 20 14 19 14 24 15 22
3810.0 11 13 21 16 23 21 19 27 18 13
3850.0 30 26 20 25 18 22 25 33 34 37
3890.0 33 29 17 23 17 17 23 23 24 22
3930.0 23 22 20 9 21 22 20 26 20 31
##END=
