##TITLE=Hexanedioic acid, diethyl ester
##JCAMP-DX=4.24
##DATA TYPE=INFRARED SPECTRUM
##ORIGIN=Sadtler Research Labs Under US-EPA Contract
##OWNER=NIST Standard Reference Data Program
##CAS REGISTRY NO=141-28-6
##MOLFORM=C 10 H 18 O 4
##XUNITS=1/CM
##YUNITS=ABSORBANCE
##XFACTOR=1.0
##YFACTOR=0.000131641
##DELTAX=4.0
##FIRSTX=450.0
##LASTX=3966.0
##FIRSTY=0.000790
##MAXX=3966
##MINX=450
##MAXY=1.31641
##MINY=0
##NPOINTS=880
##XYDATA=(X++(Y..Y))
450.0 6 113 129 155 176 197 102 221 123 8
490.0 12 117 83 158 119 87 127 101 133 64
530.0 133 89 115 113 110 145 86 131 96 131
570.0 94 146 120 145 162 168 170 139 200 155
610.0 186 150 192 157 180 201 157 169 179 188
650.0 122 148 119 121 107 127 123 86 129 107
690.0 143 117 149 123 131 143 155 146 140 161
730.0 165 182 161 214 199 230 256 259 284 285
770.0 305 273 298 291 314 278 259 280 245 270
810.0 245 241 215 224 227 227 250 257 278 286
850.0 337 325 346 337 334 309 286 285 262 274
890.0 254 259 250 277 308 363 412 441 439 397
930.0 379 340 320 281 265 249 234 225 210 208
970.0 188 202 193 210 213 246 264 302 358 414
1010.0 499 597 767 971 1258 1573 1884 2081 2101 2016
1050.0 1874 1797 1738 1735 1693 1645 1570 1496 1437 1382
1090.0 1397 1490 1644 1677 1599 1494 1486 1564 1724 2014
1130.0 2417 2967 3589 4256 4721 5016 5168 5282 5412 5484
1170.0 5587 5588 5575 5432 5237 4958 4700 4459 4223 4038
1210.0 3875 3805 3744 3778 3780 3827 3843 3867 3850 3781
1250.0 3669 3446 3199 2875 2551 2236 2038 1922 1849 1794
1290.0 1725 1678 1619 1622 1629 1630 1556 1438 1291 1160
1330.0 1112 1128 1227 1318 1424 1471 1441 1327 1218 1327
1370.0 1719 2109 2048 1665 1242 981 835 753 670 591
1410.0 543 527 564 618 709 786 839 839 837 840
1450.0 867 923 975 996 969 937 837 689 547 441
1490.0 364 291 252 207 187 164 158 146 138 141
1530.0 127 127 121 126 114 114 113 112 108 102
1570.0 105 97 108 99 105 98 97 98 94 99
1610.0 97 97 90 99 94 98 99 107 105 105
1650.0 122 117 126 120 137 139 156 165 184 205
1690.0 229 272 311 386 453 552 641 784 956 1201
1730.0 1603 2195 3169 4506 6512 8417 10000 9815 8206 6048
1770.0 4190 2785 1848 1274 918 696 535 434 355 298
1810.0 251 218 193 172 159 146 134 121 119 112
1850.0 107 102 98 95 92 97 90 95 92 92
1890.0 94 95 95 91 89 89 88 87 85 79
1930.0 80 82 79 80 76 78 74 75 72 74
1970.0 70 69 73 70 76 73 74 75 79 79
2010.0 79 81 81 88 85 89 88 88 80 81
2050.0 80 76 83 76 90 88 88 82 77 69
2090.0 60 58 52 52 49 46 46 44 40 34
2130.0 37 32 33 26 34 29 29 26 30 28
2170.0 28 30 25 28 25 31 25 26 26 30
2210.0 29 29 33 31 31 26 31 30 31 27
2250.0 28 32 28 33 30 33 27 34 29 26
2290.0 28 25 22 15 15 12 17 5 2 11
2330.0 2 15 23 27 22 12 0 1 18 43
2370.0 54 66 65 55 49 37 43 35 39 38
2410.0 43 38 34 40 37 42 37 38 35 35
2450.0 37 31 35 34 39 41 36 37 36 38
2490.0 37 35 37 37 35 35 34 38 36 36
2530.0 36 38 36 35 38 34 40 36 39 34
2570.0 39 38 35 45 42 43 44 44 38 41
2610.0 36 35 32 25 32 27 28 34 32 29
2650.0 28 27 23 27 30 41 53 63 69 70
2690.0 71 69 71 71 67 67 67 65 66 65
2730.0 68 72 71 71 67 69 68 77 74 81
2770.0 86 91 98 100 98 92 97 95 97 104
2810.0 107 120 126 138 145 156 162 179 195 212
2850.0 225 248 290 339 426 521 635 720 778 793
2890.0 757 703 663 705 754 840 952 1054 1166 1279
2930.0 1420 1602 1827 2083 2271 2304 2217 2110 2061 2053
2970.0 2078 2135 2287 2649 2969 2879 2387 1887 1545 1276
3010.0 1036 820 632 499 395 322 270 230 196 177
3050.0 152 142 129 116 111 105 100 96 96 95
3090.0 86 81 82 75 82 76 77 74 72 76
3130.0 71 70 66 64 63 69 54 55 50 58
3170.0 52 41 49 41 61 51 47 40 39 46
3210.0 49 46 46 44 37 37 37 44 44 40
3250.0 31 31 36 40 33 32 28 30 35 22
3290.0 14 28 29 43 27 44 34 47 38 45
3330.0 40 35 44 43 41 36 44 40 37 40
3370.0 46 38 46 42 33 37 41 40 35 47
3410.0 43 28 41 29 39 36 37 41 40 42
3450.0 54 42 43 50 52 59 55 78 97 108
3490.0 120 111 102 86 72 54 54 39 36 18
3530.0 17 37 11 10 25 16 29 26 25 15
3570.0 12 22 35 17 14 23 16 15 16 23
3610.0 31 10 18 24 12 16 4 26 24 17
3650.0 17 10 14 16 21 30 16 21 16 15
3690.0 32 22 30 27 30 18 13 24 21 1
3730.0 20 31 33 28 41 34 39 17 15 26
3770.0 35 37 17 29 30 24 30 35 31 20
3810.0 43 31 32 27 28 32 39 36 28 29
3850.0 40 39 40 35 61 31 24 40 38 37
3890.0 55 25 20 43 38 51 32 25 14 21
3930.0 24 11 44 37 28 40 41 38 44 8
##END=
