##TITLE=2-Propenoic acid, butyl ester
##JCAMP-DX=4.24
##DATA TYPE=INFRARED SPECTRUM
##ORIGIN=Sadtler Research Labs Under US-EPA Contract
##OWNER=NIST Standard Reference Data Program
##CAS REGISTRY NO=141-32-2
##MOLFORM=C 7 H 12 O 2
##XUNITS=1/CM
##YUNITS=ABSORBANCE
##XFACTOR=1.0
##YFACTOR=0.000126572
##DELTAX=4.0
##FIRSTX=450.0
##LASTX=3966.0
##FIRSTY=0.006329
##MAXX=3966
##MINX=450
##MAXY=1.26572
##MINY=0
##NPOINTS=880
##XYDATA=(X++(Y..Y))
450.0 50 52 130 129 238 262 132 72 200 241
490.0 87 73 319 114 286 269 256 262 107 171
530.0 111 138 89 17 123 53 128 153 54 105
570.0 70 153 34 46 31 83 103 133 19 104
610.0 99 48 95 55 129 82 60 72 69 85
650.0 78 124 168 165 171 119 135 104 61 86
690.0 88 77 48 54 46 14 105 100 31 98
730.0 83 183 65 101 63 142 36 156 83 107
770.0 115 58 89 167 165 219 341 434 486 629
810.0 727 718 690 548 433 367 315 235 256 261
850.0 249 238 284 244 200 185 220 199 232 150
890.0 160 172 188 178 179 254 235 227 206 202
930.0 207 218 291 397 498 653 821 978 1062 1163
970.0 1123 1178 1155 1109 1188 1077 954 786 706 624
1010.0 571 553 510 458 450 467 511 606 767 931
1050.0 1116 1338 1528 1789 2004 2090 1916 1585 1261 917
1090.0 652 527 406 367 333 306 238 296 364 341
1130.0 330 319 350 397 445 529 646 782 983 1267
1170.0 1798 2745 4290 6609 8726 9953 10000 8323 5784 3794
1210.0 2550 1702 1186 921 793 760 781 867 991 1174
1250.0 1533 2072 2792 3518 3988 4153 3832 3252 2626 2067
1290.0 1977 2129 2182 2083 1709 1182 813 648 511 413
1330.0 359 320 269 243 220 212 214 209 208 195
1370.0 221 271 349 449 530 605 683 864 1440 2253
1410.0 2622 2629 2199 1236 693 471 369 364 358 394
1450.0 458 507 570 628 664 651 609 536 442 352
1490.0 278 194 166 132 115 85 124 80 80 81
1530.0 91 71 58 32 57 67 34 29 0 48
1570.0 35 27 44 35 72 78 73 113 114 159
1610.0 197 235 269 327 390 426 515 542 528 472
1650.0 316 190 102 118 82 63 82 84 112 98
1690.0 157 179 197 244 323 403 508 645 905 1346
1730.0 1970 2905 4171 5396 5942 6058 5438 4184 2864 1854
1770.0 1188 735 517 382 291 242 196 169 178 144
1810.0 143 133 112 111 79 70 67 62 62 42
1850.0 65 53 46 48 43 47 41 47 46 46
1890.0 46 48 50 60 58 67 76 95 113 130
1930.0 139 128 110 94 72 62 55 48 44 44
1970.0 39 37 35 33 32 38 33 36 40 40
2010.0 44 51 52 57 55 57 54 54 60 56
2050.0 59 55 50 47 46 48 45 39 42 39
2090.0 40 39 39 44 42 41 36 36 35 30
2130.0 29 31 28 30 26 28 27 22 27 26
2170.0 22 24 21 22 21 18 17 17 18 15
2210.0 17 17 12 16 19 18 11 16 15 12
2250.0 13 11 11 14 11 16 16 17 16 18
2290.0 19 20 27 24 24 23 19 11 12 1
2330.0 1 1 1 3 16 17 10 9 16 33
2370.0 32 36 40 46 43 35 30 27 27 23
2410.0 22 21 18 21 21 20 19 15 16 20
2450.0 19 19 18 17 17 16 20 24 23 23
2490.0 19 19 22 21 20 20 21 26 23 24
2530.0 20 24 27 22 21 24 28 24 26 27
2570.0 22 28 28 30 32 32 27 32 32 34
2610.0 32 33 34 32 34 34 35 34 34 33
2650.0 37 39 41 40 43 43 42 47 47 47
2690.0 48 49 52 54 56 52 54 53 49 49
2730.0 55 56 56 63 71 71 68 66 67 63
2770.0 59 59 59 58 64 63 68 71 76 77
2810.0 80 87 95 99 107 112 128 142 167 200
2850.0 252 304 362 424 502 609 732 907 1078 1158
2890.0 1142 1068 942 862 865 908 990 1073 1154 1253
2930.0 1365 1515 1738 1971 2109 2184 2227 2345 2621 2995
2970.0 3337 3328 2930 2339 1668 1179 892 682 533 427
3010.0 327 265 234 214 216 214 223 241 265 276
3050.0 259 221 170 128 116 111 111 117 110 113
3090.0 105 99 101 116 177 210 211 204 153 83
3130.0 63 51 47 47 49 51 45 47 48 42
3170.0 40 44 40 44 44 46 45 46 39 42
3210.0 39 36 40 37 37 37 36 31 35 34
3250.0 30 31 32 33 32 27 26 36 38 30
3290.0 28 27 38 27 30 30 32 30 35 31
3330.0 34 40 35 31 37 33 38 44 39 34
3370.0 36 43 48 39 38 36 41 38 39 37
3410.0 38 38 41 42 37 44 37 45 44 45
3450.0 43 42 61 69 82 95 93 96 96 89
3490.0 74 53 51 42 40 32 37 39 36 39
3530.0 34 37 34 33 46 37 33 45 36 44
3570.0 50 42 47 43 29 38 34 47 36 35
3610.0 35 42 43 35 38 20 28 42 44 35
3650.0 37 10 43 32 44 35 27 24 38 43
3690.0 26 37 48 38 37 34 32 48 42 49
3730.0 37 32 48 37 19 10 24 42 49 34
3770.0 54 44 43 33 45 49 46 28 29 21
3810.0 69 28 33 16 52 46 26 26 50 62
3850.0 46 11 34 61 35 46 53 44 70 51
3890.0 55 55 72 47 59 49 53 66 67 49
3930.0 61 58 55 69 47 46 48 66 68 56
##END=
