##TITLE=2-Butenedioic acid (E)-, bis(2-ethylhexyl) ester
##JCAMP-DX=4.24
##DATA TYPE=INFRARED SPECTRUM
##ORIGIN=Sadtler Research Labs Under US-EPA Contract
##OWNER=NIST Standard Reference Data Program
##CAS REGISTRY NO=141-02-6
##MOLFORM=C 20 H 36 O 4
##XUNITS=1/CM
##YUNITS=ABSORBANCE
##XFACTOR=1.0
##YFACTOR=0.000073462
##DELTAX=4.0
##FIRSTX=450.0
##LASTX=3966.0
##FIRSTY=0.000000
##MAXX=3966
##MINX=450
##MAXY=0.73462
##MINY=0
##NPOINTS=880
##XYDATA=(X++(Y..Y))
450.0 0 489 947 442 1175 625 1309 764 727 840
490.0 750 977 755 1147 904 959 839 851 933 846
530.0 900 799 971 677 831 757 894 800 831 800
570.0 852 1008 770 810 710 861 769 783 773 798
610.0 785 716 846 774 774 725 814 760 821 827
650.0 891 927 968 1075 1094 1080 943 899 758 766
690.0 757 758 732 729 737 726 777 729 733 791
730.0 792 797 808 806 801 809 823 852 897 1175
770.0 1128 1118 1030 1029 994 947 880 839 799 797
810.0 706 943 899 818 844 833 805 778 810 818
850.0 793 857 860 674 791 805 836 834 854 869
890.0 890 874 920 920 930 910 944 960 951 971
930.0 971 995 982 1025 1046 1081 1214 1391 1251 1561
970.0 1785 2136 2418 2495 2334 2158 2172 2229 2353 2510
1010.0 2751 2901 2987 3025 2991 2886 2578 2258 1929 1706
1050.0 1524 1424 1328 1279 1245 1203 1189 1157 1154 1113
1090.0 1100 1077 1093 1099 1143 1214 1260 1325 1391 1504
1130.0 1661 1967 2465 3386 4786 6381 6729 5623 4906 5052
1170.0 5384 4716 3500 2559 2091 1875 1815 1860 1955 2190
1210.0 2591 3280 4229 4827 4268 3543 3529 4251 5388 6596
1250.0 7734 8415 8050 6685 5418 4629 4296 4422 5079 6191
1290.0 7276 7426 6367 5193 4147 3278 2608 2177 1861 1649
1330.0 1516 1443 1405 1344 1298 1241 1206 1195 1209 1205
1370.0 1223 1326 1480 1716 1868 1855 1588 1304 1105 1016
1410.0 960 916 930 903 904 898 946 977 1030 1112
1450.0 1259 1418 1624 1796 1905 1891 1711 1442 1182 1028
1490.0 923 844 809 777 777 763 741 730 738 714
1530.0 712 692 699 704 695 676 666 683 675 656
1570.0 649 655 649 657 641 652 640 658 646 656
1610.0 660 675 688 695 738 759 818 917 1030 1092
1650.0 1037 955 839 800 784 777 773 783 800 841
1690.0 855 917 1015 1121 1186 1276 1421 1659 1992 2549
1730.0 3593 5529 8371 10000 8711 5825 3607 2514 1903 1570
1770.0 1347 1202 1097 1021 947 878 826 766 738 699
1810.0 678 664 653 636 628 622 609 613 602 617
1850.0 600 609 598 586 601 598 590 579 588 567
1890.0 578 576 578 571 567 576 569 580 571 578
1930.0 569 575 562 569 562 560 560 552 552 551
1970.0 552 538 544 539 541 539 540 536 537 543
2010.0 529 533 534 543 530 544 541 541 547 542
2050.0 552 536 543 546 556 550 553 547 548 554
2090.0 554 549 539 551 550 550 545 554 548 542
2130.0 544 544 535 543 546 538 537 533 535 539
2170.0 533 534 530 527 520 525 521 524 522 523
2210.0 518 519 520 514 521 516 514 509 520 509
2250.0 514 515 516 510 514 518 522 524 530 550
2290.0 557 580 591 600 598 611 602 572 568 545
2330.0 551 523 519 532 549 568 530 530 516 511
2370.0 529 539 549 572 549 512 493 488 490 488
2410.0 490 483 489 483 481 476 477 480 471 470
2450.0 475 484 475 479 481 486 485 483 478 479
2490.0 485 478 487 483 489 484 483 482 489 490
2530.0 482 481 483 492 484 482 477 482 486 490
2570.0 495 496 503 505 502 493 508 507 509 513
2610.0 512 506 512 516 505 509 509 522 514 517
2650.0 515 517 526 528 530 532 542 541 547 530
2690.0 543 550 549 550 546 542 548 552 551 564
2730.0 566 574 586 584 593 588 600 592 600 584
2770.0 591 589 596 593 602 612 623 640 657 666
2810.0 682 707 719 740 765 798 845 885 962 1050
2850.0 1175 1356 1635 1989 2397 2762 2952 2942 2970 3059
2890.0 2966 2773 2649 2653 2754 2951 3187 3542 3942 4461
2930.0 5052 5575 5946 5930 5531 4932 4568 4658 5279 6179
2970.0 6771 6304 4855 3513 2620 2064 1676 1393 1203 1065
3010.0 963 884 842 803 777 738 729 704 694 673
3050.0 660 643 638 639 625 624 617 616 603 593
3090.0 588 589 580 576 579 565 572 569 569 568
3130.0 559 548 545 549 547 548 538 539 535 544
3170.0 530 538 535 528 526 524 524 521 520 509
3210.0 510 500 497 503 505 503 484 485 489 490
3250.0 493 490 483 487 480 491 499 502 502 502
3290.0 499 486 494 489 480 489 493 480 499 487
3330.0 489 502 499 487 497 507 491 484 492 494
3370.0 502 489 489 489 489 494 503 488 501 482
3410.0 482 483 494 497 485 510 500 498 478 501
3450.0 495 511 526 532 560 566 550 525 510 515
3490.0 505 484 468 505 502 489 490 483 480 492
3530.0 479 493 487 500 481 478 500 483 482 507
3570.0 511 502 485 489 487 494 483 486 486 495
3610.0 497 495 493 488 503 530 498 484 489 482
3650.0 506 495 500 520 511 509 499 542 513 518
3690.0 515 535 522 514 520 504 529 504 517 504
3730.0 527 538 552 509 556 525 548 531 508 509
3770.0 495 519 488 507 511 510 508 517 506 515
3810.0 498 542 542 543 557 518 520 551 551 513
3850.0 528 531 544 534 530 547 554 530 508 507
3890.0 547 523 541 577 541 569 495 510 473 544
3930.0 501 554 536 527 527 629 534 536 570 505
##END=
