##TITLE=Ethyl Acetate
##JCAMP-DX=4.24
##DATA TYPE=INFRARED SPECTRUM
##ORIGIN=Sadtler Research Labs Under US-EPA Contract
##OWNER=NIST Standard Reference Data Program
##CAS REGISTRY NO=141-78-6
##MOLFORM=C 4 H 8 O 2
##XUNITS=1/CM
##YUNITS=ABSORBANCE
##XFACTOR=1.0
##YFACTOR=0.000179910
##DELTAX=4.0
##FIRSTX=450.0
##LASTX=3966.0
##FIRSTY=0.018351
##MAXX=3966
##MINX=450
##MAXY=1.7991
##MINY=0
##NPOINTS=880
##XYDATA=(X++(Y..Y))
450.0 102 63 94 61 70 69 53 35 56 36
490.0 60 39 41 21 33 85 55 33 48 59
530.0 77 71 45 49 35 31 42 4 92 67
570.0 72 54 89 69 120 131 123 155 197 262
610.0 232 226 280 356 402 368 392 312 305 250
650.0 138 88 81 47 62 57 38 19 59 25
690.0 27 20 41 31 21 45 48 43 51 55
730.0 64 64 50 55 64 77 91 97 104 116
770.0 151 160 188 192 207 228 237 197 192 171
810.0 172 166 168 175 177 211 232 257 263 270
850.0 274 276 265 236 202 168 130 114 104 93
890.0 97 108 137 174 225 273 304 332 361 385
930.0 375 343 300 262 241 192 139 115 109 111
970.0 116 123 137 159 182 191 214 227 236 266
1010.0 286 322 388 514 723 1033 1450 1904 2371 2733
1050.0 2983 3087 3056 2811 2385 1849 1430 1198 1082 1052
1090.0 1061 1084 1066 1038 979 903 809 649 502 398
1130.0 322 261 228 206 192 187 189 196 203 210
1170.0 214 227 244 286 350 433 575 780 1077 1463
1210.0 2030 2849 4062 5674 7386 8866 9345 10000 9717 9877
1250.0 8607 6744 4816 3209 2194 1656 1409 1189 916 709
1290.0 611 597 620 634 632 616 574 512 443 352
1330.0 283 243 224 256 334 476 671 895 1261 1691
1370.0 2031 2189 2138 2089 2070 1699 1168 803 631 564
1410.0 501 459 409 417 416 439 444 460 479 488
1450.0 506 527 531 542 546 542 520 500 473 409
1490.0 348 323 276 238 194 158 150 132 119 123
1530.0 122 125 120 112 122 139 136 124 132 132
1570.0 122 112 103 94 96 88 82 76 81 81
1610.0 86 84 82 84 79 86 82 80 92 88
1650.0 77 84 99 99 104 108 103 124 120 134
1690.0 162 180 179 203 232 273 313 367 487 682
1730.0 953 1331 1902 2666 3682 4889 5963 6311 5778 5886
1770.0 6682 6051 4560 3241 2216 1483 929 564 340 243
1810.0 190 162 155 145 142 130 135 135 122 112
1850.0 111 110 100 95 87 81 86 91 91 92
1890.0 86 81 83 77 72 64 54 46 39 40
1930.0 37 38 35 34 33 32 32 31 31 27
1970.0 27 27 25 24 26 24 31 37 41 47
2010.0 53 55 54 56 52 50 46 40 39 36
2050.0 38 46 48 48 54 62 62 67 68 69
2090.0 69 66 60 50 36 32 25 20 17 11
2130.0 15 15 17 18 20 21 22 22 19 19
2170.0 15 13 12 8 9 8 9 7 6 7
2210.0 8 9 12 11 13 10 12 14 12 12
2250.0 10 11 10 10 9 12 13 17 15 16
2290.0 20 23 22 25 23 28 23 25 24 22
2330.0 15 18 11 16 23 5 20 11 36 43
2370.0 54 36 29 26 16 18 20 23 23 22
2410.0 26 28 25 24 24 29 26 28 31 31
2450.0 37 39 44 44 46 47 46 49 44 41
2490.0 39 36 35 30 26 28 26 25 25 29
2530.0 25 29 26 27 28 27 29 29 27 28
2570.0 32 28 33 34 38 35 39 41 35 38
2610.0 41 38 35 37 32 25 23 18 16 21
2650.0 27 31 26 27 25 25 25 33 41 50
2690.0 59 63 65 62 57 57 56 54 51 53
2730.0 51 53 57 58 50 54 55 54 53 63
2770.0 63 57 59 72 69 62 58 56 61 71
2810.0 69 81 84 83 87 83 97 98 106 114
2850.0 116 122 136 148 160 184 225 260 285 306
2890.0 332 364 391 404 416 418 431 436 454 500
2930.0 567 663 752 809 856 903 940 975 979 1030
2970.0 1103 1238 1419 1526 1547 1560 1676 1636 1374 1103
3010.0 932 801 671 549 442 360 308 266 239 218
3050.0 213 195 183 178 173 158 147 141 130 120
3090.0 120 114 110 111 99 92 95 89 88 81
3130.0 80 70 73 64 62 64 61 51 54 50
3170.0 53 50 47 48 45 40 45 36 42 39
3210.0 35 34 31 26 26 26 23 15 19 15
3250.0 21 6 13 20 14 7 6 2 5 12
3290.0 9 10 5 8 15 3 18 15 14 25
3330.0 27 18 25 19 14 21 27 15 14 18
3370.0 15 13 24 18 16 19 25 11 18 29
3410.0 21 20 23 20 16 19 20 29 25 24
3450.0 34 28 18 21 27 39 25 33 41 47
3490.0 63 71 79 101 83 92 79 80 61 50
3530.0 48 41 29 19 6 22 21 11 19 15
3570.0 15 13 26 14 30 29 28 23 18 18
3610.0 8 9 13 14 18 20 15 9 26 21
3650.0 16 16 15 9 11 15 27 32 17 7
3690.0 23 27 35 46 33 20 15 10 17 10
3730.0 30 35 26 14 40 20 25 22 22 21
3770.0 26 18 19 7 21 26 29 21 13 35
3810.0 4 14 7 25 6 12 25 25 26 17
3850.0 41 10 30 19 22 17 16 14 39 29
3890.0 27 41 15 19 26 9 14 3 9 0
3930.0 19 18 33 5 48 31 18 19 30 13
##END=
