##TITLE=Hexanedioic acid, bis(2-methylpropyl) ester
##JCAMP-DX=4.24
##DATA TYPE=INFRARED SPECTRUM
##ORIGIN=Sadtler Research Labs Under US-EPA Contract
##OWNER=NIST Standard Reference Data Program
##CAS REGISTRY NO=141-04-8
##MOLFORM=C 14 H 26 O 4
##XUNITS=1/CM
##YUNITS=ABSORBANCE
##XFACTOR=1.0
##YFACTOR=0.000068158
##DELTAX=4.0
##FIRSTX=450.0
##LASTX=3966.0
##FIRSTY=0.001227
##MAXX=3966
##MINX=450
##MAXY=0.68158
##MINY=0
##NPOINTS=880
##XYDATA=(X++(Y..Y))
450.0 18 35 40 50 42 51 52 53 51 56
490.0 60 34 67 65 63 60 42 47 32 35
530.0 38 16 35 10 19 19 34 26 26 36
570.0 44 42 86 52 64 86 68 73 75 79
610.0 68 68 72 83 82 63 61 51 42 41
650.0 28 23 22 14 0 31 27 12 17 13
690.0 40 26 38 37 35 40 55 56 42 64
730.0 79 59 80 89 98 117 128 128 141 137
770.0 135 135 141 140 137 114 106 111 126 125
810.0 136 155 161 178 170 170 163 163 163 163
850.0 160 161 157 152 157 157 163 170 170 178
890.0 193 207 230 245 261 286 308 338 364 389
930.0 421 443 457 479 486 478 462 457 470 498
970.0 519 579 680 809 959 1120 1336 1582 1835 2034
1010.0 2132 2098 1916 1688 1458 1276 1149 1099 1088 1117
1050.0 1169 1237 1301 1342 1339 1309 1262 1199 1115 1032
1090.0 951 904 902 953 1052 1212 1432 1727 2115 2618
1130.0 3225 3901 4558 5114 5435 5639 5684 5638 5535 5390
1170.0 5200 4975 4730 4503 4302 4132 3934 3781 3670 3623
1210.0 3594 3624 3691 3759 3831 3880 3869 3836 3698 3517
1250.0 3290 3043 2783 2522 2315 2154 2053 2022 2017 1995
1290.0 1919 1773 1600 1462 1396 1345 1289 1216 1132 1097
1330.0 1123 1192 1295 1394 1497 1553 1550 1487 1411 1377
1370.0 1482 1723 2008 2056 1744 1292 1009 863 739 610
1410.0 540 515 540 573 657 719 762 732 752 793
1450.0 884 1021 1126 1255 1273 1245 1107 930 751 585
1490.0 430 333 254 228 195 166 152 137 116 115
1530.0 116 93 103 60 86 91 82 71 47 81
1570.0 68 84 63 88 83 79 77 79 85 83
1610.0 84 88 78 91 88 90 108 83 109 103
1650.0 120 79 123 130 137 136 169 167 204 205
1690.0 262 308 364 424 537 661 787 941 1156 1444
1730.0 1860 2469 3444 4877 6856 9022 10000 9192 7057 4919
1770.0 3263 2179 1564 1159 890 705 548 449 360 302
1810.0 257 221 197 171 149 133 127 118 106 91
1850.0 93 84 85 78 80 61 71 68 64 65
1890.0 57 58 56 57 56 50 57 57 58 51
1930.0 55 55 55 57 57 63 57 64 63 65
1970.0 63 63 63 63 61 61 60 63 63 63
2010.0 72 69 71 71 71 78 92 93 99 106
2050.0 109 109 98 94 91 91 99 99 92 91
2090.0 83 76 68 56 51 51 49 49 48 48
2130.0 41 41 50 41 41 41 39 35 35 39
2170.0 41 41 35 35 35 34 34 33 28 27
2210.0 36 27 32 35 27 27 27 27 28 28
2250.0 28 29 34 35 35 35 35 35 44 43
2290.0 52 53 61 61 63 70 61 59 61 53
2330.0 45 43 43 36 29 50 50 47 39 25
2370.0 13 29 30 36 37 36 34 34 34 35
2410.0 35 36 36 33 40 36 36 27 27 27
2450.0 27 28 28 27 27 27 27 27 37 32
2490.0 31 30 28 28 28 28 27 27 27 27
2530.0 33 28 32 30 31 25 27 27 27 35
2570.0 34 34 28 35 20 21 13 14 6 6
2610.0 6 6 6 7 7 7 21 16 4 0
2650.0 0 4 11 18 34 34 35 34 35 27
2690.0 37 44 51 63 71 71 76 83 84 99
2730.0 107 113 114 121 113 113 113 113 113 108
2770.0 105 114 112 119 127 135 136 141 147 144
2810.0 159 171 186 197 219 233 248 277 300 337
2850.0 377 427 508 613 764 971 1227 1523 1814 1970
2890.0 1937 1856 1811 1757 1720 1709 1784 1911 2094 2282
2930.0 2517 2777 3088 3401 3642 3821 4044 4261 4664 5187
2970.0 5593 5698 5282 4286 2977 1893 1262 879 648 501
3010.0 398 335 292 252 226 203 194 177 170 164
3050.0 140 140 132 126 117 118 112 117 121 124
3090.0 121 110 104 102 103 102 96 101 96 96
3130.0 88 89 92 104 95 101 102 96 102 110
3170.0 116 125 131 130 111 113 110 98 87 94
3210.0 88 81 81 80 72 61 76 76 72 73
3250.0 81 85 88 94 93 88 79 72 77 51
3290.0 60 49 35 44 39 32 30 43 36 44
3330.0 44 30 35 33 43 45 24 29 44 52
3370.0 50 43 22 30 43 43 34 39 46 39
3410.0 50 26 27 31 29 29 29 28 36 27
3450.0 45 37 48 52 66 55 62 79 92 101
3490.0 93 93 71 62 50 39 34 30 26 26
3530.0 27 15 22 28 16 25 20 9 14 34
3570.0 33 28 21 25 21 16 8 24 13 21
3610.0 32 26 21 19 8 18 37 28 20 31
3650.0 22 25 29 28 35 29 19 22 39 37
3690.0 40 42 48 37 32 41 35 48 34 44
3730.0 37 31 35 38 30 34 30 28 32 36
3770.0 42 36 47 54 40 45 52 39 41 41
3810.0 37 24 34 35 44 36 44 32 28 43
3850.0 38 25 34 14 28 29 19 31 30 33
3890.0 32 14 17 14 10 0 0 11 20 22
3930.0 23 20 19 15 23 17 12 12 15 25
##END=
