##TITLE=Benzene, 1,3-diethyl-
##JCAMP-DX=4.24
##DATA TYPE=INFRARED SPECTRUM
##ORIGIN=Sadtler Research Labs Under US-EPA Contract
##OWNER=NIST Standard Reference Data Program
##CAS REGISTRY NO=141-93-5
##MOLFORM=C 10 H 14
##XUNITS=1/CM
##YUNITS=ABSORBANCE
##XFACTOR=1.0
##YFACTOR=0.000073672
##DELTAX=4.0
##FIRSTX=450.0
##LASTX=3966.0
##FIRSTY=0.018418
##MAXX=3966
##MINX=450
##MAXY=0.73672
##MINY=0
##NPOINTS=880
##XYDATA=(X++(Y..Y))
450.0 250 295 239 188 155 140 117 120 126 106
490.0 130 104 89 139 171 121 95 106 125 166
530.0 115 141 140 152 175 95 77 128 72 7
570.0 140 130 87 33 15 209 119 133 96 96
610.0 101 89 93 118 94 94 113 100 93 106
650.0 118 130 135 133 162 195 219 321 476 776
690.0 1110 1500 1936 2063 1688 1402 1083 741 502 406
730.0 409 349 371 402 454 480 494 493 526 599
770.0 735 941 1206 1468 1624 1629 1440 1135 866 636
810.0 486 367 334 261 222 202 173 183 177 196
850.0 291 414 544 653 731 700 630 597 649 836
890.0 693 507 383 249 173 128 109 93 108 103
930.0 117 118 110 118 117 130 159 180 175 188
970.0 166 148 142 127 117 121 136 156 157 173
1010.0 181 185 194 213 226 238 277 306 340 381
1050.0 430 508 587 628 618 554 443 321 257 222
1090.0 223 237 270 284 271 272 232 176 155 140
1130.0 133 127 122 112 120 145 174 175 172 158
1170.0 135 118 99 101 92 91 94 99 94 105
1210.0 113 112 111 119 126 132 142 149 147 157
1250.0 160 163 159 153 159 174 184 203 217 235
1290.0 235 254 263 303 374 487 587 677 717 685
1330.0 617 501 404 312 251 226 200 196 218 246
1370.0 297 356 435 491 454 400 364 336 318 324
1410.0 362 363 409 431 489 574 747 892 1024 1140
1450.0 1290 1448 1512 1515 1505 1438 1319 1307 1387 1471
1490.0 1429 1293 1008 698 504 390 317 250 219 187
1530.0 183 141 166 137 161 146 153 158 139 176
1570.0 215 302 386 537 694 862 1032 1268 1501 1746
1610.0 1819 1637 1270 835 445 259 199 127 129 120
1650.0 140 90 113 117 129 130 166 140 188 147
1690.0 158 137 120 81 91 94 101 81 78 76
1730.0 81 81 78 77 98 100 120 139 165 186
1770.0 192 180 177 173 175 157 139 130 109 85
1810.0 73 62 61 64 55 60 75 69 90 117
1850.0 158 215 255 240 217 155 96 63 64 58
1890.0 50 59 49 52 63 72 92 107 147 174
1930.0 169 170 152 119 88 64 56 54 53 57
1970.0 48 45 46 37 43 44 43 35 37 39
2010.0 37 45 47 51 43 50 48 49 47 51
2050.0 34 35 34 31 24 22 22 27 35 28
2090.0 34 33 40 29 31 36 33 32 40 32
2130.0 38 45 45 45 38 43 37 49 44 45
2170.0 48 51 38 44 43 36 44 35 34 29
2210.0 31 31 35 35 32 42 47 41 47 48
2250.0 47 40 46 30 29 24 33 31 29 25
2290.0 31 37 44 43 51 48 42 55 59 49
2330.0 56 60 59 72 60 54 66 50 24 14
2370.0 1 16 10 23 33 26 28 28 28 27
2410.0 20 32 32 28 30 37 38 42 39 40
2450.0 31 24 25 11 17 24 24 27 29 25
2490.0 25 21 14 16 23 22 14 15 9 13
2530.0 15 15 7 7 14 9 6 8 14 12
2570.0 0 20 20 25 16 20 28 31 28 48
2610.0 41 42 50 62 57 57 63 57 50 46
2650.0 50 63 51 59 52 44 39 32 38 39
2690.0 53 62 63 60 57 62 67 64 76 81
2730.0 89 103 117 129 138 121 112 118 117 135
2770.0 135 143 165 177 179 177 187 175 192 194
2810.0 199 223 251 280 329 379 447 504 566 644
2850.0 748 892 1127 1424 1796 2171 2546 2822 3123 3313
2890.0 3261 3135 2959 2778 2684 2620 2561 2493 2561 2888
2930.0 3494 4285 5134 5606 5443 4995 4437 4124 4673 6666
2970.0 9193 10000 9430 7726 4678 2887 2092 1782 1683 1713
3010.0 1808 1946 2089 2227 2381 2494 2430 2227 1985 1728
3050.0 1617 1690 1789 1797 1723 1585 1287 963 721 558
3090.0 482 455 435 457 445 403 374 319 271 219
3130.0 201 179 173 165 158 163 172 171 176 158
3170.0 170 139 138 132 121 120 118 109 99 83
3210.0 65 66 73 74 73 80 67 63 80 64
3250.0 54 53 71 61 60 77 62 70 77 71
3290.0 55 60 51 39 50 53 54 77 73 51
3330.0 71 62 61 68 60 54 61 51 40 54
3370.0 61 53 61 33 40 59 58 63 56 52
3410.0 56 65 67 48 58 56 51 50 56 63
3450.0 47 43 56 55 55 62 58 44 67 60
3490.0 66 54 47 47 49 42 34 52 33 30
3530.0 56 48 50 49 51 44 49 51 36 52
3570.0 45 50 55 54 66 29 46 33 52 55
3610.0 53 54 56 36 46 27 34 43 54 49
3650.0 33 23 30 55 57 37 51 35 55 56
3690.0 55 38 57 59 45 34 53 61 68 64
3730.0 69 41 42 66 49 65 74 62 68 81
3770.0 73 72 76 74 67 75 80 79 64 53
3810.0 43 48 59 37 29 51 34 45 71 73
3850.0 76 77 67 61 72 68 68 66 66 63
3890.0 63 59 66 72 78 78 85 81 89 87
3930.0 70 76 93 92 105 110 111 104 112 123
##END=
