##TITLE=2-Octene, 1-chloro-5,5,7,7-tetramethyl
##JCAMP-DX=4.24
##DATA TYPE=INFRARED SPECTRUM
##ORIGIN=Sadtler Research Labs Under US-EPA Contract
##OWNER=NIST Standard Reference Data Program
##CAS REGISTRY NO=141-64-0
##MOLFORM=C 12 H 23 Cl
##XUNITS=1/CM
##YUNITS=ABSORBANCE
##XFACTOR=1.0
##YFACTOR=0.000134677
##DELTAX=4.0
##FIRSTX=450.0
##LASTX=3966.0
##FIRSTY=0.015219
##MAXX=3966
##MINX=450
##MAXY=1.34677
##MINY=0
##NPOINTS=880
##XYDATA=(X++(Y..Y))
450.0 113 234 253 240 266 196 252 311 309 308
490.0 232 188 219 272 87 404 426 242 295 186
530.0 268 293 322 184 244 277 318 314 382 247
570.0 422 310 0 304 212 313 270 295 275 277
610.0 275 243 283 252 258 236 282 253 276 277
650.0 301 305 313 373 401 516 511 698 788 954
690.0 1006 1011 968 896 771 602 522 468 449 441
730.0 478 442 416 365 378 398 427 485 460 473
770.0 450 360 347 332 345 361 369 345 330 288
810.0 276 198 213 275 227 224 216 240 231 258
850.0 267 289 285 273 264 268 253 244 259 268
890.0 285 289 311 320 329 341 373 402 400 365
930.0 334 328 355 394 436 520 625 828 1152 1517
970.0 1610 1355 990 750 601 472 385 324 313 295
1010.0 284 266 260 258 252 252 244 242 222 217
1050.0 212 223 234 240 250 269 292 293 274 237
1090.0 221 206 200 201 203 214 223 243 252 248
1130.0 229 229 247 285 308 343 384 429 447 410
1170.0 373 340 336 335 352 383 434 477 530 597
1210.0 661 716 720 747 824 925 987 1078 1262 1500
1250.0 1579 1395 1121 922 786 633 530 467 444 429
1290.0 423 411 375 339 305 302 298 315 333 362
1330.0 364 364 380 412 479 566 654 721 936 1374
1370.0 1785 1698 1214 854 779 898 1007 1022 850 615
1410.0 399 317 294 312 350 417 514 613 709 785
1450.0 852 857 910 1018 1233 1508 1748 1847 1683 1371
1490.0 987 658 424 293 233 199 175 161 147 138
1530.0 138 130 122 116 122 115 110 101 109 108
1570.0 107 101 105 106 108 108 107 105 110 108
1610.0 112 110 113 114 123 127 136 137 142 146
1650.0 163 165 207 240 263 233 173 130 125 114
1690.0 113 107 111 111 119 124 130 130 125 121
1730.0 120 120 116 122 121 126 126 123 117 118
1770.0 115 108 110 110 110 101 98 98 100 92
1810.0 93 96 89 89 91 88 85 89 86 86
1850.0 89 88 89 88 89 86 88 81 81 81
1890.0 79 74 74 72 73 67 71 67 66 66
1930.0 61 65 66 65 63 69 73 70 69 68
1970.0 69 70 69 68 69 67 65 63 66 62
2010.0 59 57 60 61 55 60 59 60 59 60
2050.0 58 59 56 53 54 52 53 50 53 55
2090.0 56 55 56 56 62 60 57 59 58 58
2130.0 53 56 58 56 55 58 61 61 56 55
2170.0 57 53 52 49 51 51 50 45 44 51
2210.0 46 43 43 44 44 43 43 44 42 42
2250.0 39 40 42 37 39 39 42 39 35 34
2290.0 35 35 28 30 30 26 31 31 33 39
2330.0 42 39 39 55 46 24 34 45 58 38
2370.0 51 56 55 48 43 45 45 43 38 42
2410.0 41 38 35 35 37 32 33 31 33 32
2450.0 28 31 34 30 31 34 34 36 35 38
2490.0 34 36 39 38 44 42 42 40 40 38
2530.0 37 37 37 37 39 43 40 48 44 46
2570.0 47 49 51 54 54 55 56 56 56 56
2610.0 59 61 57 55 60 58 60 59 63 68
2650.0 69 76 77 82 84 86 92 103 104 106
2690.0 116 120 124 112 111 118 131 142 152 163
2730.0 152 151 143 143 140 139 137 131 134 134
2770.0 128 131 138 154 162 168 185 194 204 218
2810.0 246 280 316 350 389 434 499 601 741 873
2850.0 963 994 1032 1158 1428 1854 2369 2820 3096 3208
2890.0 3266 3387 3576 3774 3888 3979 4003 3927 3674 3397
2930.0 3225 3267 3532 3994 4707 5662 7061 8834 10000 9563
2970.0 7732 5758 4502 3870 3585 3408 3147 2655 1978 1359
3010.0 934 709 585 507 480 509 573 637 626 533
3050.0 403 291 228 184 167 155 147 148 152 139
3090.0 137 134 126 121 112 103 104 104 100 97
3130.0 97 100 105 95 96 98 105 99 100 106
3170.0 108 110 113 108 120 112 113 116 104 113
3210.0 109 115 106 109 108 103 106 102 101 99
3250.0 94 92 94 84 87 88 83 75 78 81
3290.0 80 71 66 75 75 72 78 74 84 70
3330.0 75 74 85 72 63 69 77 73 72 64
3370.0 71 78 74 81 93 73 83 73 68 69
3410.0 60 60 73 77 68 62 74 58 63 65
3450.0 56 58 61 54 63 72 55 53 58 62
3490.0 59 42 29 46 61 59 49 61 58 66
3530.0 65 42 54 51 42 44 51 62 49 55
3570.0 54 66 63 57 43 57 44 41 56 47
3610.0 34 40 46 46 58 40 45 60 61 40
3650.0 41 66 45 33 39 35 54 56 30 33
3690.0 32 59 53 56 53 62 51 34 40 52
3730.0 48 62 71 50 50 48 61 73 69 52
3770.0 66 32 52 60 50 59 68 38 53 75
3810.0 72 60 61 53 68 70 77 74 80 54
3850.0 50 54 64 58 65 76 67 57 55 96
3890.0 91 70 59 52 86 75 51 37 91 73
3930.0 55 51 25 87 91 74 36 65 28 58
##END=
