##TITLE=Monoethanolamine
##JCAMP-DX=4.24
##DATA TYPE=INFRARED SPECTRUM
##ORIGIN=Sadtler Research Labs Under US-EPA Contract
##OWNER=NIST Standard Reference Data Program
##CAS REGISTRY NO=141-43-5
##MOLFORM=C 2 H 7 N O
##XUNITS=1/CM
##YUNITS=ABSORBANCE
##XFACTOR=1.0
##YFACTOR=0.000070312
##DELTAX=4.0
##FIRSTX=450.0
##LASTX=3966.0
##FIRSTY=0.037758
##MAXX=3966
##MINX=450
##MAXY=0.70312
##MINY=0
##NPOINTS=880
##XYDATA=(X++(Y..Y))
450.0 537 441 253 274 204 91 37 129 229 81
490.0 69 130 149 46 153 383 470 536 501 507
530.0 556 330 414 376 297 132 93 79 86 10
570.0 126 106 115 175 120 174 148 121 138 184
610.0 228 303 245 212 227 262 255 297 311 211
650.0 243 406 373 435 493 509 604 650 696 841
690.0 883 936 1025 1090 1275 1371 1570 1755 2036 2287
730.0 2716 3173 3540 4057 5048 5116 5600 6096 6532 6565
770.0 6296 6362 6772 6784 6481 6018 5440 4983 4485 3994
810.0 3685 3249 2804 2506 2441 2460 2443 2470 2618 2693
850.0 2746 2785 2978 2874 2634 2432 2343 2296 2246 2127
890.0 1990 1702 1582 1391 1290 1130 1009 818 641 493
930.0 456 369 275 260 275 320 368 450 624 775
970.0 876 933 1133 1313 1504 1762 2103 2456 2905 3384
1010.0 3991 4676 5394 6225 7002 7672 8019 8129 8104 7998
1050.0 7689 7379 7018 6211 5407 4830 4566 4475 4389 4257
1090.0 3872 3573 3645 3650 3335 2912 2410 1855 1394 1045
1130.0 724 496 362 264 236 230 234 234 255 296
1170.0 299 298 320 349 365 416 465 549 630 746
1210.0 865 972 1033 1092 1134 1187 1181 1146 1134 1098
1250.0 1016 960 876 796 756 712 677 655 634 597
1290.0 582 562 567 556 572 587 620 665 718 798
1330.0 896 990 1149 1285 1406 1579 1797 1951 2065 2112
1370.0 2196 2296 2375 2341 2480 2485 2413 2355 2264 2179
1410.0 2063 1920 1821 1614 1474 1350 1196 1031 898 895
1450.0 915 853 930 936 901 875 973 860 819 693
1490.0 605 480 382 345 249 275 242 204 172 175
1530.0 170 179 129 129 170 224 200 150 211 259
1570.0 303 342 391 499 598 718 837 1046 1253 1464
1610.0 1706 1801 1866 1945 2008 1907 1821 1755 1604 1372
1650.0 1112 813 722 571 451 321 270 220 161 112
1690.0 101 120 49 55 90 106 115 81 103 111
1730.0 80 67 41 36 51 25 41 25 6 39
1770.0 8 8 10 37 49 39 28 50 56 60
1810.0 55 73 73 73 73 75 76 99 74 87
1850.0 84 84 84 75 77 66 75 72 73 72
1890.0 63 67 60 59 60 56 57 54 61 57
1930.0 59 62 70 75 73 66 79 70 66 77
1970.0 73 72 70 61 65 70 68 67 68 69
2010.0 63 65 76 70 75 69 78 84 85 90
2050.0 89 88 91 91 97 96 93 98 96 92
2090.0 93 88 82 78 80 78 73 66 59 63
2130.0 60 57 57 49 46 41 36 35 39 34
2170.0 31 30 31 28 31 29 25 21 22 23
2210.0 19 17 18 13 14 12 11 15 8 10
2250.0 9 8 7 2 8 13 15 12 13 14
2290.0 20 23 31 30 37 50 47 50 41 46
2330.0 48 23 51 49 74 43 75 59 68 43
2370.0 60 64 54 46 40 22 18 21 23 23
2410.0 26 27 31 33 30 32 34 43 42 44
2450.0 44 46 46 40 46 44 43 51 37 39
2490.0 38 37 42 40 37 39 34 43 40 36
2530.0 35 40 42 43 44 50 54 49 58 59
2570.0 58 61 73 71 75 75 80 81 82 93
2610.0 102 106 113 123 131 146 159 169 185 206
2650.0 222 235 263 275 296 315 348 370 384 404
2690.0 430 450 473 508 529 562 591 613 647 678
2730.0 702 718 728 746 756 762 768 777 785 805
2770.0 830 856 900 929 977 1039 1114 1196 1288 1408
2810.0 1562 1730 1942 2176 2464 2823 3195 3649 4154 4670
2850.0 5362 6133 6698 6946 7129 7328 7578 7757 7729 7628
2890.0 7489 7393 7354 7384 7544 7797 8111 8463 8826 9275
2930.0 9583 9831 10000 9883 9748 9363 8897 8376 7390 6313
2970.0 5577 4887 4197 3514 2837 2235 1728 1306 993 755
3010.0 567 433 333 271 227 186 175 153 136 112
3050.0 113 99 85 84 72 69 72 64 70 51
3090.0 59 54 49 41 40 35 30 33 23 24
3130.0 4 11 7 15 9 5 2 4 13 8
3170.0 12 14 15 16 12 24 28 25 38 36
3210.0 45 39 52 57 47 48 49 53 57 54
3250.0 46 45 51 37 38 32 29 24 31 29
3290.0 30 16 11 15 17 25 22 27 52 54
3330.0 75 80 98 108 127 134 128 147 145 151
3370.0 153 183 216 249 263 297 295 317 343 375
3410.0 412 417 419 410 412 432 396 344 326 285
3450.0 259 233 204 197 163 162 137 142 149 128
3490.0 127 117 124 151 156 152 147 159 203 259
3530.0 276 347 412 534 710 968 1254 1451 1523 1623
3570.0 1625 1552 1645 1698 1648 1516 1354 1205 1070 955
3610.0 875 797 755 705 698 703 702 747 833 874
3650.0 966 1042 1154 1200 1252 1337 1329 1285 1202 1174
3690.0 976 942 879 749 587 475 355 320 270 293
3730.0 208 200 188 140 132 50 104 101 93 60
3770.0 61 35 42 38 22 18 12 2 4 2
3810.0 12 2 2 2 2 2 2 2 2 8
3850.0 8 2 2 10 10 31 2 25 6 2
3890.0 20 11 22 53 6 14 24 34 27 24
3930.0 40 70 3 4 17 21 18 0 55 3
##END=
