##TITLE=2-Butenedioic acid (Z)-, diethyl ester
##JCAMP-DX=4.24
##DATA TYPE=INFRARED SPECTRUM
##ORIGIN=Sadtler Research Labs Under US-EPA Contract
##OWNER=NIST Standard Reference Data Program
##CAS REGISTRY NO=141-05-9
##MOLFORM=C 8 H 12 O 4
##XUNITS=1/CM
##YUNITS=ABSORBANCE
##XFACTOR=1.0
##YFACTOR=0.000077832
##DELTAX=4.0
##FIRSTX=450.0
##LASTX=3966.0
##FIRSTY=0.009962
##MAXX=3966
##MINX=450
##MAXY=0.77832
##MINY=0
##NPOINTS=880
##XYDATA=(X++(Y..Y))
450.0 128 106 89 44 17 43 63 79 113 72
490.0 57 12 18 55 92 85 84 33 58 97
530.0 76 64 63 78 59 26 76 89 77 87
570.0 117 101 118 142 134 214 213 184 149 167
610.0 137 189 171 115 140 108 124 101 84 115
650.0 108 119 119 125 93 87 146 107 115 150
690.0 165 148 149 134 156 140 160 165 159 181
730.0 193 146 191 170 185 167 208 207 181 206
770.0 222 239 266 305 327 391 439 514 599 617
810.0 649 667 583 600 587 631 668 718 752 709
850.0 724 722 741 719 704 606 525 399 325 279
890.0 279 262 279 288 298 300 291 262 248 226
930.0 214 221 228 247 300 332 370 456 529 565
970.0 526 453 386 332 303 275 295 315 369 448
1010.0 605 828 1123 1576 2153 2733 3092 3089 2716 2100
1050.0 1539 1134 878 711 613 551 512 516 546 629
1090.0 731 895 996 1043 1010 941 884 904 923 979
1130.0 1088 1268 1528 1977 2707 3768 5304 6821 7610 7590
1170.0 6909 6044 5285 4758 4644 4735 5192 5807 6502 7008
1210.0 6963 6435 5774 5056 4539 4086 3749 3561 3388 3280
1250.0 3142 2996 2866 2728 2617 2617 2668 2779 2890 2916
1290.0 2825 2634 2349 2055 1744 1455 1197 953 758 615
1330.0 510 438 408 386 384 421 487 608 727 830
1370.0 910 1048 1348 1766 1983 1997 1881 1760 1816 1824
1410.0 1666 1356 1025 767 622 543 511 488 509 536
1450.0 555 569 563 610 661 719 697 645 554 456
1490.0 358 295 244 216 184 169 162 151 130 130
1530.0 128 123 122 96 117 121 122 107 116 131
1570.0 121 135 126 140 139 152 151 167 177 192
1610.0 218 252 281 352 443 563 697 808 894 908
1650.0 861 733 642 521 416 355 333 319 328 339
1690.0 378 432 483 556 640 726 819 939 1166 1548
1730.0 2204 3310 5116 7271 9189 10000 9866 8570 6579 4650
1770.0 3089 2017 1389 1017 798 671 582 518 469 422
1810.0 377 349 289 239 202 177 165 152 139 117
1850.0 118 117 111 110 104 98 103 103 108 102
1890.0 109 109 109 109 107 108 102 101 101 95
1930.0 95 87 93 81 82 74 75 75 68 68
1970.0 69 68 67 67 68 68 71 67 67 67
2010.0 71 73 72 72 78 79 79 77 77 77
2050.0 77 78 78 78 76 76 77 77 76 76
2090.0 70 70 70 63 64 62 58 63 62 56
2130.0 56 56 48 48 49 44 41 41 41 41
2170.0 36 43 34 34 35 34 40 34 34 34
2210.0 37 33 34 31 31 31 32 32 33 33
2250.0 31 32 26 29 25 24 24 27 30 24
2290.0 24 18 23 18 11 11 11 5 5 5
2330.0 5 5 5 5 5 5 5 5 5 5
2370.0 8 17 26 40 41 45 50 50 49 50
2410.0 56 56 50 50 49 47 44 37 37 33
2450.0 37 37 31 32 31 31 31 32 32 28
2490.0 31 27 25 27 25 26 26 26 25 25
2530.0 27 29 30 27 27 27 27 27 26 26
2570.0 27 27 27 29 25 35 26 31 33 34
2610.0 39 27 28 33 34 27 27 34 26 32
2650.0 31 34 35 33 27 34 29 28 28 28
2690.0 36 30 28 31 30 35 40 35 41 48
2730.0 48 48 41 50 46 44 51 51 59 62
2770.0 60 61 56 62 61 62 62 66 61 68
2810.0 72 75 78 80 81 87 87 87 93 100
2850.0 102 114 128 136 160 190 227 282 340 389
2890.0 411 416 411 438 475 519 550 557 537 524
2930.0 555 637 778 924 1037 1037 969 898 862 921
2970.0 1030 1192 1407 1740 2024 2124 2045 1749 1441 1185
3010.0 964 769 600 464 357 285 229 190 162 150
3050.0 141 140 148 154 153 148 132 121 103 93
3090.0 87 79 81 71 67 66 66 66 66 61
3130.0 53 53 53 54 54 54 66 59 55 55
3170.0 48 61 61 49 53 59 55 55 47 57
3210.0 49 48 42 35 42 36 36 37 30 30
3250.0 27 29 35 25 25 25 24 25 25 25
3290.0 25 27 24 25 22 24 24 25 25 25
3330.0 25 25 24 26 25 23 19 26 26 26
3370.0 26 26 25 26 26 26 26 26 27 27
3410.0 27 27 24 26 26 21 26 27 20 27
3450.0 27 28 39 42 56 68 80 84 91 90
3490.0 77 76 65 51 43 32 28 24 25 11
3530.0 14 15 15 10 15 22 15 16 18 17
3570.0 25 35 37 34 29 27 23 9 10 16
3610.0 5 11 8 8 11 10 17 22 23 17
3650.0 18 24 30 30 23 17 18 20 31 31
3690.0 23 29 31 24 30 17 18 31 24 26
3730.0 31 21 22 25 23 24 31 38 32 43
3770.0 42 44 44 43 41 39 42 40 38 45
3810.0 44 44 44 50 51 51 54 53 56 61
3850.0 58 58 56 65 64 64 58 65 65 65
3890.0 65 60 73 65 65 65 59 53 65 66
3930.0 66 66 66 66 66 71 0 5 5 5
##END=
