##TITLE=di(Butoxyethyl)adipate
##JCAMP-DX=4.24
##DATA TYPE=INFRARED SPECTRUM
##ORIGIN=Sadtler Research Labs Under US-EPA Contract
##OWNER=NIST Standard Reference Data Program
##CAS REGISTRY NO=141-18-4
##MOLFORM=C 18 H 34 O 6
##XUNITS=1/CM
##YUNITS=ABSORBANCE
##XFACTOR=1.0
##YFACTOR=0.000074106
##DELTAX=4.0
##FIRSTX=450.0
##LASTX=3966.0
##FIRSTY=0.006892
##MAXX=3966
##MINX=450
##MAXY=0.74106
##MINY=0
##NPOINTS=880
##XYDATA=(X++(Y..Y))
450.0 93 83 101 101 110 84 133 111 56 57
490.0 19 124 70 98 105 130 103 92 56 68
530.0 130 206 157 162 131 103 88 102 101 78
570.0 40 31 37 127 170 105 108 110 87 123
610.0 109 90 109 106 91 70 83 77 51 59
650.0 63 46 52 58 0 94 62 53 53 68
690.0 70 68 70 81 105 85 96 112 92 93
730.0 142 124 158 172 205 219 246 227 230 213
770.0 201 192 200 207 212 203 225 225 227 222
810.0 244 255 241 289 314 347 347 361 389 381
850.0 387 384 385 400 389 410 413 406 429 435
890.0 455 477 483 495 502 528 551 573 598 602
930.0 615 615 630 616 644 659 704 748 764 834
970.0 879 933 950 975 973 965 999 1036 1105 1199
1010.0 1294 1388 1482 1573 1622 1657 1681 1733 1795 1932
1050.0 2043 2183 2350 2468 2537 2574 2592 2606 2630 2707
1090.0 2859 3136 3493 3953 4506 5173 5979 6942 8026 9020
1130.0 9699 9735 9169 8222 7368 6706 6307 6001 5808 5629
1170.0 5606 5477 5231 5157 4798 4092 3781 3582 3485 3454
1210.0 3453 3543 3633 3750 3878 3968 4041 4060 4004 3881
1250.0 3729 3543 3317 3080 2857 2671 2564 2505 2452 2390
1290.0 2284 2112 1938 1792 1656 1542 1432 1333 1251 1240
1330.0 1286 1393 1558 1688 1782 1834 1841 1829 1792 1751
1370.0 1703 1707 1775 1893 1868 1610 1262 968 804 699
1410.0 656 648 663 738 825 947 1052 1126 1171 1234
1450.0 1349 1469 1535 1469 1320 1113 928 781 662 539
1490.0 430 335 275 235 209 170 161 146 137 119
1530.0 111 113 117 104 88 96 94 96 91 81
1570.0 86 74 70 69 78 70 64 69 71 68
1610.0 65 61 72 63 60 78 71 72 76 81
1650.0 75 98 93 100 111 116 139 148 166 207
1690.0 225 269 329 400 489 604 721 857 1040 1303
1730.0 1667 2207 3004 4192 5980 8271 10000 9750 7728 5467
1770.0 3870 2856 2171 1678 1309 1011 795 631 508 406
1810.0 337 275 219 187 161 135 112 108 94 91
1850.0 91 86 77 78 69 73 77 68 72 71
1890.0 69 66 64 69 71 70 71 71 75 78
1930.0 84 83 87 88 75 80 78 77 86 91
1970.0 92 92 92 87 84 92 89 83 81 85
2010.0 79 86 91 92 92 92 92 91 86 77
2050.0 71 71 71 79 84 73 65 59 51 47
2090.0 45 58 64 65 61 58 54 47 54 52
2130.0 46 39 38 40 38 39 37 46 37 41
2170.0 34 40 40 40 45 32 40 40 40 32
2210.0 36 28 34 25 25 33 26 32 25 26
2250.0 26 31 32 25 29 32 33 37 39 39
2290.0 39 40 41 47 48 54 41 45 41 40
2330.0 26 24 43 48 42 48 22 30 42 47
2370.0 57 49 54 45 26 20 25 18 18 19
2410.0 12 14 13 17 20 16 13 13 13 13
2450.0 5 6 13 7 12 18 8 12 13 17
2490.0 12 12 15 13 12 6 6 12 13 1
2530.0 7 2 6 3 7 12 11 2 7 8
2570.0 7 15 21 31 26 24 37 41 41 44
2610.0 50 50 43 36 50 37 47 43 58 65
2650.0 61 65 66 53 52 58 65 87 88 107
2690.0 116 121 145 158 165 172 185 201 221 229
2730.0 250 250 264 277 270 280 276 285 280 297
2770.0 294 312 330 359 373 401 428 463 492 524
2810.0 580 606 637 675 737 825 928 1100 1311 1586
2850.0 1963 2398 2886 3355 3781 4087 4263 4326 4259 4062
2890.0 3772 3438 3190 3055 3032 3102 3301 3549 3796 4093
2930.0 4440 4821 5279 5669 5890 6020 6013 6027 5990 5916
2970.0 5658 5025 4150 3285 2595 2078 1679 1338 1058 850
3010.0 666 555 461 392 349 298 274 247 209 203
3050.0 176 162 141 127 121 109 116 103 99 87
3090.0 81 85 70 75 75 69 63 62 62 72
3130.0 63 69 73 71 59 59 62 71 52 52
3170.0 59 64 57 58 47 65 62 63 67 61
3210.0 60 74 66 53 54 48 54 55 59 39
3250.0 55 51 41 38 48 42 43 21 35 21
3290.0 17 20 29 16 22 12 11 9 11 24
3330.0 17 10 19 4 10 12 14 10 22 9
3370.0 11 6 12 7 7 23 23 11 15 25
3410.0 16 19 21 22 21 22 30 36 23 36
3450.0 26 30 28 47 37 33 55 69 90 78
3490.0 72 99 90 77 65 72 52 58 34 34
3530.0 34 33 45 46 39 48 39 51 57 52
3570.0 115 161 159 112 89 68 60 83 71 40
3610.0 44 52 51 62 55 59 80 58 55 68
3650.0 81 63 56 44 78 46 65 38 66 52
3690.0 56 50 40 53 34 34 55 47 43 49
3730.0 39 37 38 22 42 39 33 18 26 48
3770.0 48 50 32 38 50 29 46 39 34 28
3810.0 21 31 23 45 37 43 38 49 53 49
3850.0 53 45 42 38 39 28 36 28 45 31
3890.0 37 20 22 24 31 38 40 35 24 19
3930.0 36 30 26 25 34 38 32 38 51 42
##END=
