##TITLE=n-Nonadecylamine
##JCAMP-DX=4.24
##DATA TYPE=INFRARED SPECTRUM
##ORIGIN=Sadtler Research Labs Under US-EPA Contract
##OWNER=NIST Standard Reference Data Program
##CAS REGISTRY NO=14130-05-3
##MOLFORM=C 19 H 41 N
##XUNITS=1/CM
##YUNITS=ABSORBANCE
##XFACTOR=1.0
##YFACTOR=0.000070963
##DELTAX=4.0
##FIRSTX=450.0
##LASTX=3966.0
##FIRSTY=0.000142
##MAXX=3966
##MINX=450
##MAXY=0.70963
##MINY=0
##NPOINTS=880
##XYDATA=(X++(Y..Y))
450.0 2 13 2 58 151 106 104 95 48 46
490.0 113 119 128 128 98 100 91 73 102 106
530.0 86 94 110 77 96 115 109 142 117 82
570.0 100 103 93 93 80 90 84 89 87 89
610.0 107 114 88 91 91 101 99 102 111 107
650.0 119 124 112 110 116 149 142 128 149 157
690.0 179 184 202 226 278 311 343 385 400 399
730.0 405 422 405 424 460 482 514 543 573 601
770.0 623 633 622 619 588 527 455 428 419 405
810.0 379 341 315 301 267 248 238 217 206 206
850.0 190 176 176 163 159 155 157 132 135 142
890.0 135 131 120 120 116 116 111 108 114 111
930.0 113 107 93 96 97 105 102 105 106 114
970.0 98 98 93 96 100 103 116 115 123 130
1010.0 142 146 161 167 169 157 165 156 157 170
1050.0 177 190 208 215 241 251 260 252 247 251
1090.0 250 253 243 228 219 197 186 181 169 158
1130.0 151 143 129 117 99 91 88 89 88 79
1170.0 79 79 72 75 77 80 76 76 73 80
1210.0 76 84 78 77 85 89 92 91 97 99
1250.0 108 112 147 177 140 106 115 128 140 145
1290.0 152 167 182 194 205 207 194 178 166 163
1330.0 166 175 211 244 279 314 342 339 338 327
1370.0 312 299 302 294 267 235 209 178 159 145
1410.0 141 132 155 157 172 203 263 334 430 517
1450.0 622 731 865 922 882 725 515 358 255 206
1490.0 178 163 155 134 132 129 112 105 98 85
1530.0 75 70 77 68 75 71 82 78 86 77
1570.0 84 88 101 97 105 115 126 134 142 152
1610.0 166 188 203 218 202 175 152 125 96 88
1650.0 70 66 56 51 63 69 62 66 54 65
1690.0 56 55 47 47 35 30 38 40 44 41
1730.0 44 42 36 17 11 11 21 12 15 16
1770.0 17 13 16 23 11 19 15 17 14 13
1810.0 8 14 16 14 20 10 18 7 17 16
1850.0 15 13 17 14 11 10 8 11 10 9
1890.0 9 9 7 7 7 11 7 10 8 7
1930.0 6 8 9 11 10 7 10 9 10 9
1970.0 12 9 11 12 11 14 14 13 15 17
2010.0 15 18 20 19 20 20 19 23 18 22
2050.0 19 17 17 14 18 14 14 13 15 13
2090.0 10 9 11 10 9 6 9 11 7 7
2130.0 6 8 8 11 6 5 9 9 10 10
2170.0 9 6 5 8 8 2 7 5 3 4
2210.0 4 6 5 0 5 1 3 3 6 6
2250.0 6 4 6 6 7 8 9 11 10 18
2290.0 23 35 43 46 56 64 62 54 68 44
2330.0 47 47 35 38 54 45 62 40 46 25
2370.0 21 20 36 32 23 9 6 6 5 8
2410.0 7 10 6 9 7 6 8 7 8 8
2450.0 8 13 13 12 11 12 11 16 16 12
2490.0 15 16 20 17 21 21 27 27 27 31
2530.0 33 39 39 36 41 40 40 39 46 44
2570.0 48 52 54 55 56 61 62 63 66 74
2610.0 73 75 76 79 82 90 90 92 99 99
2650.0 107 107 111 117 123 127 133 144 145 146
2690.0 141 139 139 135 132 133 132 133 141 147
2730.0 153 162 165 171 175 181 179 181 187 194
2770.0 204 206 218 230 250 271 290 317 342 380
2810.0 418 463 517 590 674 774 908 1101 1400 1872
2850.0 2583 3434 4130 4424 4071 3349 2714 2280 2066 1982
2890.0 2003 2144 2411 2775 3257 3841 4556 5575 6961 8620
2930.0 9945 10000 8595 6704 4987 3700 2869 2410 2160 1975
2970.0 1747 1412 1055 794 632 523 442 377 326 289
3010.0 262 228 208 189 176 165 151 137 129 112
3050.0 104 103 95 91 85 77 77 71 65 62
3090.0 64 53 53 50 48 47 48 46 38 39
3130.0 35 38 34 35 35 33 35 31 31 29
3170.0 31 27 26 22 22 21 23 21 19 16
3210.0 16 20 14 8 11 11 6 6 6 8
3250.0 4 10 7 10 9 9 4 4 10 6
3290.0 9 16 10 11 10 9 15 9 17 17
3330.0 12 19 20 23 20 23 20 20 20 19
3370.0 20 14 16 17 19 22 22 18 14 23
3410.0 29 17 23 15 10 8 16 16 9 9
3450.0 9 15 5 14 12 8 9 12 15 14
3490.0 10 2 6 11 13 10 6 2 14 13
3530.0 10 8 5 11 18 21 14 24 16 30
3570.0 34 21 18 22 32 26 24 13 31 29
3610.0 36 34 40 45 40 38 47 36 41 33
3650.0 31 30 29 39 25 43 38 40 38 44
3690.0 39 37 27 22 24 24 24 30 31 38
3730.0 40 31 29 18 41 17 22 10 21 27
3770.0 24 25 5 16 15 15 17 21 4 19
3810.0 0 18 16 16 10 8 11 22 13 3
3850.0 11 26 22 13 18 17 1 19 21 24
3890.0 14 16 6 24 22 31 10 11 23 21
3930.0 13 21 30 23 22 2 22 8 22 36
##END=
