##TITLE=2-Hydroxypyridine
##JCAMP-DX=4.24
##DATA TYPE=INFRARED SPECTRUM
##ORIGIN=Sadtler Research Labs Under US-EPA Contract
##OWNER=NIST Standard Reference Data Program
##CAS REGISTRY NO=142-08-5
##MOLFORM=C 5 H 5 N O
##XUNITS=1/CM
##YUNITS=ABSORBANCE
##XFACTOR=1.0
##YFACTOR=0.000085620
##DELTAX=4.0
##FIRSTX=450.0
##LASTX=3966.0
##FIRSTY=0.299071
##MAXX=3966
##MINX=450
##MAXY=0.8562
##MINY=0
##NPOINTS=880
##XYDATA=(X++(Y..Y))
450.0 3493 2928 2565 2391 2171 3370 3217 2745 1890 1799
490.0 1459 1504 994 885 724 526 556 509 463 492
530.0 588 552 356 376 542 434 388 382 213 169
570.0 0 156 200 30 168 78 96 155 130 152
610.0 259 209 182 175 150 96 138 208 391 321
650.0 512 709 511 564 714 781 1216 896 475 629
690.0 548 498 531 584 670 442 463 603 540 773
730.0 630 987 1113 1049 1182 1586 2229 2916 2569 2430
770.0 2567 2671 2990 2315 1877 1457 1385 1397 1354 1178
810.0 1020 803 769 701 708 769 1023 1440 1211 1030
850.0 841 809 726 566 439 345 339 331 315 350
890.0 462 545 500 335 214 124 121 211 231 260
930.0 243 242 206 232 350 401 575 670 651 631
970.0 616 678 772 867 1065 1242 1223 1140 946 816
1010.0 684 589 576 582 626 724 749 802 749 831
1050.0 845 866 957 1018 1117 1219 1450 1659 1765 1856
1090.0 1728 1438 1186 984 676 417 355 600 1072 1893
1130.0 1997 1776 2074 1700 1909 2328 2094 2232 2461 2425
1170.0 2826 3061 3304 3587 3843 3459 3015 2696 2314 2075
1210.0 1989 2033 2111 2172 2234 2232 2299 2392 2404 2222
1250.0 1902 1612 1440 1277 1175 1014 908 1054 1418 1894
1290.0 2236 2462 2694 2752 2727 2575 2059 1384 944 810
1330.0 819 876 896 959 987 970 983 930 774 700
1370.0 635 647 654 605 577 582 632 731 827 783
1410.0 661 599 652 721 822 895 1017 1244 1478 1736
1450.0 2175 2438 3037 3744 4672 5175 5055 5022 4895 4829
1490.0 4994 3765 2024 1104 654 501 556 430 538 613
1530.0 729 1000 1109 1317 1246 1282 1455 1529 1774 2050
1570.0 2467 2892 3218 3894 4246 4949 5560 5072 4566 4186
1610.0 4085 3827 3279 2603 2038 1691 1568 1443 1388 1484
1650.0 1621 1719 1659 1639 1693 2001 2220 2457 2523 2841
1690.0 3421 4237 5680 7208 8953 9361 9646 10000 9119 8651
1730.0 8166 4968 3225 2805 2662 2712 2822 2801 2838 2816
1770.0 2670 2479 2295 2020 1650 1336 1057 880 800 735
1810.0 717 761 788 802 789 691 639 521 460 388
1850.0 309 221 154 125 88 76 55 36 34 21
1890.0 18 26 20 19 15 8 23 18 33 18
1930.0 11 19 23 52 64 67 66 68 64 78
1970.0 76 71 56 55 43 47 53 46 48 48
2010.0 40 49 46 45 42 39 33 29 25 22
2050.0 11 11 6 11 18 13 15 14 20 18
2090.0 18 23 17 12 14 16 21 25 31 32
2130.0 33 36 38 40 40 31 27 17 12 12
2170.0 10 9 9 5 8 3 5 4 11 19
2210.0 16 18 17 22 33 24 24 28 23 23
2250.0 18 23 30 26 28 27 27 24 32 39
2290.0 35 39 33 39 36 30 35 21 14 7
2330.0 3 3 5 33 5 20 3 4 3 3
2370.0 3 3 32 40 53 51 48 55 54 62
2410.0 68 79 97 104 115 123 131 139 142 141
2450.0 135 127 126 122 122 117 108 105 104 98
2490.0 92 92 93 86 90 90 88 94 92 92
2530.0 90 83 87 85 81 81 76 81 81 85
2570.0 85 87 96 102 102 108 106 108 115 117
2610.0 104 94 87 90 90 95 89 89 90 93
2650.0 92 96 94 93 95 97 98 103 106 110
2690.0 110 115 120 122 123 123 126 127 124 133
2730.0 136 139 147 153 151 156 158 164 168 179
2770.0 180 176 176 182 186 189 188 198 206 208
2810.0 221 226 242 254 261 277 282 292 308 323
2850.0 341 369 400 420 442 463 478 487 489 494
2890.0 505 511 520 534 550 575 592 625 656 688
2930.0 701 689 668 644 635 627 620 609 607 584
2970.0 568 543 514 497 479 467 455 450 457 478
3010.0 512 565 640 721 794 868 911 933 950 976
3050.0 996 987 970 947 913 899 901 929 958 974
3090.0 981 974 947 912 869 798 695 605 553 511
3130.0 481 472 472 475 465 474 474 469 467 471
3170.0 476 472 468 468 454 447 434 419 428 416
3210.0 415 408 412 424 429 439 442 454 461 464
3250.0 465 471 479 490 473 481 483 474 480 480
3290.0 487 486 474 487 481 486 486 484 487 466
3330.0 474 466 470 467 456 454 446 436 433 422
3370.0 429 426 416 407 411 408 416 410 425 438
3410.0 481 535 625 773 950 1137 1260 1249 1130 1099
3450.0 1182 1124 870 631 436 305 237 184 157 135
3490.0 104 108 100 113 89 63 64 35 66 61
3530.0 47 40 30 39 69 59 55 76 118 229
3570.0 342 563 983 1594 2226 2256 2141 1972 2204 2241
3610.0 1940 1113 597 313 158 103 67 65 70 88
3650.0 86 86 43 93 46 85 16 65 56 38
3690.0 69 22 84 41 33 47 33 52 64 65
3730.0 61 21 49 42 17 14 1 37 26 46
3770.0 31 37 29 27 24 45 39 49 2 42
3810.0 20 63 3 46 23 54 20 34 31 39
3850.0 56 12 40 37 73 62 23 37 58 47
3890.0 66 60 50 45 62 54 61 47 41 25
3930.0 50 77 30 39 67 89 40 47 69 66
##END=
