##TITLE=(Z)-9-Octadecenoic acid butyl ester
##JCAMP-DX=4.24
##DATA TYPE=INFRARED SPECTRUM
##ORIGIN=Sadtler Research Labs Under US-EPA Contract
##OWNER=NIST Standard Reference Data Program
##CAS REGISTRY NO=142-77-8
##MOLFORM=C 22 H 42 O 2
##XUNITS=1/CM
##YUNITS=ABSORBANCE
##XFACTOR=1.0
##YFACTOR=0.000079373
##DELTAX=4.0
##FIRSTX=450.0
##LASTX=3966.0
##FIRSTY=0.007223
##MAXX=3966
##MINX=450
##MAXY=0.79373
##MINY=0
##NPOINTS=880
##XYDATA=(X++(Y..Y))
450.0 91 92 91 93 75 60 53 65 56 54
490.0 84 64 52 61 86 107 34 45 46 85
530.0 50 27 33 39 7 34 47 45 57 63
570.0 64 61 92 76 45 102 103 104 88 79
610.0 64 85 65 55 92 58 58 70 44 45
650.0 55 57 54 88 61 160 118 151 172 201
690.0 233 264 277 306 336 345 369 377 390 348
730.0 316 295 269 256 219 198 185 153 150 142
770.0 153 114 114 109 66 87 113 95 89 110
810.0 110 114 114 116 95 128 134 140 141 132
850.0 122 111 111 119 118 109 117 109 122 115
890.0 116 133 130 131 137 132 141 141 133 135
930.0 147 159 191 212 250 289 318 334 365 377
970.0 380 360 331 313 290 290 310 355 388 458
1010.0 497 547 568 588 571 515 485 437 404 415
1050.0 428 488 565 647 719 749 773 769 796 791
1090.0 788 783 763 744 758 798 850 909 971 1045
1130.0 1150 1304 1494 1722 1929 2098 2247 2362 2470 2547
1170.0 2590 2561 2478 2317 2157 1999 1840 1722 1629 1564
1210.0 1537 1532 1560 1581 1645 1697 1736 1766 1758 1707
1250.0 1606 1469 1360 1250 1154 1097 1035 987 924 878
1290.0 831 812 806 808 818 806 774 750 717 686
1330.0 662 711 764 829 894 920 916 857 784 698
1370.0 615 553 521 531 571 563 520 456 426 379
1410.0 334 300 302 328 393 457 534 600 693 794
1450.0 897 1014 1121 1192 1108 962 752 567 411 311
1490.0 230 180 147 126 99 87 86 58 54 56
1530.0 50 50 38 23 34 36 24 13 14 24
1570.0 24 27 23 32 36 31 38 31 32 34
1610.0 30 30 28 36 40 37 43 57 76 58
1650.0 80 56 88 76 77 67 81 89 99 106
1690.0 138 152 174 213 269 331 382 444 552 683
1730.0 872 1155 1642 2337 3259 4069 4303 3705 2706 1827
1770.0 1208 831 613 461 351 277 211 179 152 125
1810.0 99 86 74 55 56 42 43 33 32 20
1850.0 31 26 27 21 16 17 19 21 15 16
1890.0 17 17 14 14 16 10 16 11 18 11
1930.0 17 11 11 12 12 12 12 17 17 19
1970.0 25 25 24 23 19 23 15 18 26 31
2010.0 32 33 39 44 51 52 58 51 50 46
2050.0 46 39 41 43 41 46 40 35 29 22
2090.0 21 18 17 17 24 23 24 17 25 17
2130.0 24 24 19 19 13 20 25 26 26 23
2170.0 26 17 19 21 20 15 20 21 12 9
2210.0 11 15 15 17 22 16 15 11 15 17
2250.0 16 11 16 19 19 17 28 27 25 25
2290.0 22 18 21 26 18 19 12 11 3 6
2330.0 15 30 32 54 59 39 0 17 55 77
2370.0 101 111 97 78 59 45 41 28 29 22
2410.0 29 28 29 27 31 23 24 28 29 22
2450.0 31 31 24 25 31 25 37 26 29 29
2490.0 31 32 30 38 32 32 32 38 34 38
2530.0 40 36 32 36 41 38 40 34 41 34
2570.0 34 34 34 40 45 38 35 45 45 47
2610.0 48 43 54 42 36 38 49 48 37 44
2650.0 44 37 43 54 61 76 81 89 100 99
2690.0 109 105 105 114 112 111 115 110 113 120
2730.0 115 127 135 154 153 158 153 161 163 168
2770.0 174 179 179 204 211 225 250 261 289 302
2810.0 328 358 393 442 495 547 641 763 937 1200
2850.0 1594 2184 2974 3709 3962 3732 3332 2968 2766 2647
2890.0 2513 2460 2524 2750 3130 3632 4275 5083 6233 7697
2930.0 9164 10000 9798 8773 7495 6286 5365 4872 4790 4905
2970.0 4767 4212 3373 2580 1988 1556 1280 1108 1049 1117
3010.0 1285 1363 1256 972 715 540 436 364 321 292
3050.0 266 242 224 217 211 200 192 184 155 161
3090.0 148 145 139 146 132 132 138 128 128 127
3130.0 119 112 107 126 123 121 129 122 123 104
3170.0 111 113 93 105 104 105 106 100 112 114
3210.0 105 112 108 101 102 113 91 103 95 88
3250.0 87 96 70 78 85 92 73 43 70 57
3290.0 65 79 68 68 55 55 62 69 45 52
3330.0 46 57 44 55 50 58 66 64 61 71
3370.0 49 48 65 54 65 42 63 52 59 53
3410.0 44 52 36 51 38 56 69 57 39 51
3450.0 47 39 47 57 49 43 56 78 44 61
3490.0 80 59 68 61 66 50 51 43 46 29
3530.0 47 30 46 46 47 40 48 48 36 39
3570.0 56 62 50 42 32 50 37 51 19 33
3610.0 40 33 39 47 46 41 55 57 46 36
3650.0 6 54 36 33 21 21 33 37 49 52
3690.0 45 33 40 50 39 28 43 38 31 32
3730.0 18 15 18 17 3 16 38 34 16 35
3770.0 9 12 10 5 13 4 3 1 0 21
3810.0 20 9 19 19 16 0 1 1 15 17
3850.0 7 24 41 23 35 23 19 23 7 1
3890.0 0 1 2 4 22 24 27 23 24 12
3930.0 0 0 0 0 0 8 34 41 23 22
##END=
