##TITLE=Propane, 1,3-dichloro-
##JCAMP-DX=4.24
##DATA TYPE=INFRARED SPECTRUM
##ORIGIN=Sadtler Research Labs Under US-EPA Contract
##OWNER=NIST Standard Reference Data Program
##CAS REGISTRY NO=142-28-9
##MOLFORM=C 3 H 6 Cl 2
##XUNITS=1/CM
##YUNITS=ABSORBANCE
##XFACTOR=1.0
##YFACTOR=0.000062350
##DELTAX=4.0
##FIRSTX=450.0
##LASTX=3966.0
##FIRSTY=0.011847
##MAXX=3966
##MINX=450
##MAXY=0.6235
##MINY=0
##NPOINTS=880
##XYDATA=(X++(Y..Y))
450.0 190 0 886 1260 557 1527 1101 574 584 814
490.0 931 635 753 694 716 699 700 616 638 496
530.0 707 685 596 739 694 892 665 451 555 585
570.0 410 536 497 681 663 598 712 639 694 684
610.0 711 707 858 763 1126 1327 1844 2431 3160 3969
650.0 4615 5151 5841 6079 5571 4803 4782 4327 3789 3280
690.0 2948 3008 3043 3071 3188 3262 3067 3020 2596 2391
730.0 2795 3016 3193 3304 2797 1823 1497 1278 1288 1401
770.0 1712 2535 3498 3895 3876 4844 6065 6257 5422 5300
810.0 5009 3767 2967 2203 1562 1235 991 1117 1300 1629
850.0 2205 2827 3411 3507 3437 3129 2463 1794 1392 1084
890.0 904 828 781 807 804 854 901 877 743 678
930.0 680 718 765 808 982 1262 1663 2238 3030 3353
970.0 3522 3716 3290 2132 1375 1053 837 723 700 712
1010.0 640 607 693 685 787 822 937 990 1095 1170
1050.0 1293 1438 1589 1697 1706 1739 1555 1326 1112 992
1090.0 827 697 592 554 515 451 424 398 422 424
1130.0 462 469 493 507 514 520 507 517 501 482
1170.0 449 455 447 454 447 468 514 539 574 581
1210.0 599 634 678 714 763 806 837 828 809 888
1250.0 1045 1423 2251 3643 5471 6962 8580 10000 9493 8610
1290.0 8294 7378 5901 5030 4627 4415 4548 4167 3651 3406
1330.0 3191 2895 2559 2378 2263 2253 2151 2005 1760 1444
1370.0 1130 878 759 651 608 560 543 546 610 727
1410.0 868 1148 1428 1769 1975 2369 2904 3638 4521 5092
1450.0 5007 4843 4395 3598 2315 1733 1259 998 787 590
1490.0 506 409 417 345 314 330 331 263 267 272
1530.0 276 241 224 189 250 228 207 137 161 218
1570.0 196 165 197 198 196 186 220 185 210 185
1610.0 200 154 176 156 174 150 153 139 172 126
1650.0 166 62 176 180 174 151 163 145 179 106
1690.0 195 146 128 108 155 162 139 149 162 173
1730.0 135 153 124 163 149 147 133 155 126 140
1770.0 134 111 132 137 159 134 130 145 145 137
1810.0 134 138 135 139 122 129 131 131 128 125
1850.0 142 122 129 124 128 130 134 137 129 129
1890.0 120 139 125 130 125 136 153 135 136 142
1930.0 143 133 135 138 137 132 128 118 129 131
1970.0 121 116 110 110 105 112 105 109 106 108
2010.0 114 108 114 107 108 108 108 109 114 115
2050.0 126 125 122 115 117 117 119 128 130 128
2090.0 131 123 117 101 105 98 104 100 103 100
2130.0 111 102 109 113 111 109 115 109 97 106
2170.0 102 100 101 95 106 105 103 104 104 102
2210.0 119 123 131 135 133 123 124 128 123 118
2250.0 117 125 114 121 112 106 109 104 114 115
2290.0 118 123 127 116 109 102 90 71 49 53
2330.0 27 35 15 46 72 7 7 7 6 47
2370.0 85 95 109 107 95 82 92 91 98 102
2410.0 106 116 111 115 111 109 104 96 91 87
2450.0 72 66 63 61 67 58 61 54 56 60
2490.0 75 81 72 71 76 63 52 51 38 38
2530.0 28 20 24 15 22 10 15 7 14 12
2570.0 12 28 33 24 21 29 31 35 29 37
2610.0 45 40 34 39 46 43 45 29 48 48
2650.0 45 51 51 52 56 63 57 66 50 52
2690.0 63 76 81 94 104 113 131 143 164 172
2730.0 175 169 167 145 141 132 127 117 123 136
2770.0 132 140 135 136 127 127 122 131 141 145
2810.0 157 176 207 244 317 365 437 479 515 588
2850.0 620 718 815 968 1107 1295 1489 1667 1828 1814
2890.0 1800 1749 1689 1657 1727 1898 2184 2506 2715 2859
2930.0 3281 3549 3602 3859 3946 4242 4709 5320 6071 6809
2970.0 7440 8065 8324 7802 6606 6130 5305 4683 4238 4060
3010.0 3653 3168 2875 2498 1824 1192 861 599 438 322
3050.0 247 213 172 169 134 140 125 126 109 113
3090.0 108 91 91 71 74 58 76 78 74 74
3130.0 63 67 57 54 65 71 55 65 73 77
3170.0 89 69 54 69 76 73 78 86 90 73
3210.0 83 79 71 73 91 91 86 86 84 87
3250.0 73 70 70 61 71 74 67 81 75 83
3290.0 66 76 80 81 82 69 65 49 38 30
3330.0 26 29 10 9 26 31 43 45 42 30
3370.0 40 23 47 33 35 58 40 38 62 51
3410.0 55 48 44 32 48 63 71 29 63 35
3450.0 34 38 48 56 60 63 70 66 40 76
3490.0 68 26 40 76 78 51 48 78 74 58
3530.0 53 53 74 55 78 77 47 76 75 69
3570.0 99 120 79 66 87 103 95 103 99 95
3610.0 94 90 103 142 138 121 174 160 173 116
3650.0 171 228 259 278 263 270 283 323 260 247
3690.0 204 185 189 151 179 151 158 102 102 169
3730.0 108 101 182 103 104 137 157 152 153 150
3770.0 119 160 99 130 122 127 156 106 143 136
3810.0 138 167 140 104 168 105 172 204 143 182
3850.0 145 37 71 165 69 126 252 124 129 161
3890.0 204 155 186 125 169 119 166 184 169 193
3930.0 180 193 114 199 167 184 186 122 160 102
##END=
