##TITLE=n-Butyl ether
##JCAMP-DX=4.24
##DATA TYPE=INFRARED SPECTRUM
##ORIGIN=Sadtler Research Labs Under US-EPA Contract
##OWNER=NIST Standard Reference Data Program
##CAS REGISTRY NO=142-96-1
##MOLFORM=C 8 H 18 O
##XUNITS=1/CM
##YUNITS=ABSORBANCE
##XFACTOR=1.0
##YFACTOR=0.000097549
##DELTAX=4.0
##FIRSTX=450.0
##LASTX=3966.0
##FIRSTY=0.115206
##MAXX=3966
##MINX=450
##MAXY=0.97549
##MINY=0
##NPOINTS=880
##XYDATA=(X++(Y..Y))
450.0 1181 639 154 479 132 539 160 725 640 766
490.0 0 823 617 499 278 259 303 399 497 476
530.0 551 440 527 260 457 479 239 176 680 412
570.0 601 462 219 399 264 319 315 323 367 343
610.0 337 346 357 361 374 304 331 325 317 307
650.0 331 322 333 320 331 344 333 340 332 326
690.0 314 325 329 323 333 351 364 369 375 385
730.0 421 423 460 497 496 507 478 475 450 435
770.0 442 431 393 382 349 378 405 378 420 391
810.0 456 440 460 492 555 530 534 544 533 503
850.0 487 478 437 467 454 448 442 447 422 413
890.0 432 426 447 451 458 420 417 416 441 433
930.0 449 491 501 534 568 624 661 699 748 747
970.0 735 834 809 797 790 768 731 716 739 739
1010.0 724 722 715 681 687 722 821 956 1053 1129
1050.0 1120 1112 1092 1117 1138 1199 1288 1414 1630 1964
1090.0 2473 3111 3873 4573 5127 5517 5952 6553 7310 8029
1130.0 8238 7721 6496 4952 3635 2809 2278 1898 1604 1362
1170.0 1149 983 868 766 701 641 599 577 555 545
1210.0 534 547 565 611 667 741 789 818 809 781
1250.0 755 746 738 725 710 667 636 581 555 544
1290.0 559 601 662 710 712 682 619 578 543 556
1330.0 593 670 733 793 856 945 1140 1401 1669 1896
1370.0 2040 2046 1896 1626 1309 1036 838 721 636 594
1410.0 557 551 532 533 552 622 722 805 890 946
1450.0 1041 1162 1335 1516 1624 1668 1562 1350 1104 900
1490.0 717 587 497 416 369 340 312 300 281 273
1530.0 266 249 249 238 237 231 235 225 222 218
1570.0 217 211 212 207 209 202 201 203 198 201
1610.0 199 201 192 187 194 191 192 186 193 188
1650.0 197 191 194 193 198 195 188 186 183 187
1690.0 174 179 178 174 170 171 175 167 170 173
1730.0 176 173 179 178 180 183 185 181 171 168
1770.0 158 161 156 158 154 154 155 152 149 150
1810.0 152 148 151 149 149 141 153 145 149 147
1850.0 146 149 145 145 146 148 139 145 138 136
1890.0 135 135 139 136 142 145 147 148 154 151
1930.0 159 165 166 171 170 169 162 165 162 166
1970.0 157 155 150 146 137 139 136 133 136 136
2010.0 138 133 143 141 146 151 155 156 156 166
2050.0 169 165 164 171 165 168 167 170 169 169
2090.0 177 169 167 159 155 144 143 142 139 130
2130.0 125 123 115 115 113 111 104 108 104 102
2170.0 103 104 100 101 110 109 108 106 107 106
2210.0 104 104 102 94 92 99 95 94 92 99
2250.0 94 94 100 98 93 88 91 87 90 91
2290.0 95 92 93 95 92 99 99 91 83 89
2330.0 86 73 69 71 75 67 86 80 55 49
2370.0 67 49 56 67 74 73 71 77 74 75
2410.0 73 74 66 67 71 67 63 64 68 63
2450.0 63 62 66 59 59 57 55 50 56 53
2490.0 50 60 59 63 55 62 66 65 61 66
2530.0 68 65 73 72 77 81 92 95 100 107
2570.0 108 105 122 133 130 131 141 139 136 139
2610.0 140 137 131 136 137 130 136 136 138 134
2650.0 145 154 162 176 186 202 210 231 237 257
2690.0 274 301 317 328 353 370 378 388 412 424
2730.0 446 468 493 498 496 501 474 473 467 488
2770.0 516 556 619 691 771 868 968 1024 1055 1055
2810.0 1033 1011 1033 1082 1187 1364 1633 2021 2558 3285
2850.0 4154 5105 6055 6866 7405 7714 7708 7585 7238 6560
2890.0 5823 4938 4289 4105 4275 4718 5287 5885 6412 6932
2930.0 7606 8379 9251 9745 9587 9181 8661 8542 9099 9873
2970.0 10000 8920 7167 5067 3483 2499 1856 1436 1158 962
3010.0 829 734 652 597 542 502 464 424 393 367
3050.0 341 314 289 268 257 244 237 223 222 216
3090.0 200 188 198 195 190 174 179 183 165 168
3130.0 168 163 153 164 155 144 142 149 149 137
3170.0 160 152 144 154 143 123 127 140 123 113
3210.0 106 104 90 88 89 95 80 78 88 86
3250.0 76 80 76 68 77 82 79 65 78 87
3290.0 73 72 84 78 72 86 84 94 64 80
3330.0 79 74 79 73 56 76 90 65 76 87
3370.0 95 81 53 99 111 85 74 73 90 93
3410.0 102 87 108 111 117 105 109 103 109 103
3450.0 94 93 67 78 98 101 93 93 92 78
3490.0 103 94 77 75 77 79 82 82 88 74
3530.0 94 87 78 94 94 72 71 58 78 110
3570.0 67 71 103 95 102 93 66 49 85 106
3610.0 87 86 85 90 98 78 98 114 98 121
3650.0 135 118 107 122 116 111 132 107 138 129
3690.0 153 147 110 142 164 119 112 137 143 120
3730.0 105 128 155 148 145 160 126 169 128 133
3770.0 141 138 140 179 162 129 145 126 145 130
3810.0 109 142 156 103 129 189 156 141 197 209
3850.0 145 179 229 180 194 167 177 143 152 174
3890.0 180 172 144 152 115 126 176 193 141 173
3930.0 175 178 141 205 222 160 140 171 172 230
##END=
