##TITLE=Hexanoic acid
##JCAMP-DX=4.24
##DATA TYPE=INFRARED SPECTRUM
##ORIGIN=Sadtler Research Labs Under US-EPA Contract
##OWNER=NIST Standard Reference Data Program
##CAS REGISTRY NO=142-62-1
##MOLFORM=C 6 H 12 O 2
##XUNITS=1/CM
##YUNITS=ABSORBANCE
##XFACTOR=1.0
##YFACTOR=0.000122812
##DELTAX=4.0
##FIRSTX=450.0
##LASTX=3966.0
##FIRSTY=0.105864
##MAXX=3966
##MINX=450
##MAXY=1.22812
##MINY=0
##NPOINTS=880
##XYDATA=(X++(Y..Y))
450.0 862 637 524 576 569 606 643 579 674 658
490.0 724 766 814 858 957 1037 956 1047 937 1015
530.0 972 1032 1059 1181 1247 1354 1548 1572 1642 1575
570.0 1613 1510 1576 1561 1650 1710 1769 1840 1755 1818
610.0 1789 1817 1742 1809 1734 1782 1664 1453 1295 1015
650.0 887 728 635 569 555 485 449 462 434 435
690.0 412 408 383 383 363 358 400 410 469 464
730.0 532 500 475 427 336 279 212 195 163 172
770.0 141 162 125 102 57 9 27 47 19 18
810.0 19 11 25 20 28 46 59 72 90 88
850.0 88 111 93 103 79 88 79 71 74 73
890.0 90 88 110 107 115 106 107 100 99 101
930.0 91 104 112 141 146 160 173 185 207 222
970.0 254 265 290 291 295 292 276 264 258 251
1010.0 249 258 265 291 314 356 401 465 539 634
1050.0 766 898 1083 1281 1545 1822 2174 2570 3038 3578
1090.0 4043 4337 4391 4239 3786 3328 2992 2923 3141 3540
1130.0 4030 4454 4806 4893 4760 4414 3935 3403 2953 2610
1170.0 2327 2086 1830 1617 1445 1341 1276 1257 1257 1248
1210.0 1224 1166 1100 1004 933 869 827 798 785 768
1250.0 745 725 703 700 692 698 693 689 689 678
1290.0 676 668 663 638 620 591 569 552 545 566
1330.0 596 659 727 811 869 938 988 1030 1087 1158
1370.0 1252 1370 1503 1585 1604 1535 1374 1157 941 754
1410.0 631 579 557 579 586 608 624 644 651 676
1450.0 733 800 874 918 911 845 734 596 459 346
1490.0 253 188 136 107 82 67 53 47 34 32
1530.0 23 20 18 16 15 5 4 1 6 1
1570.0 0 3 2 3 4 2 3 7 9 7
1610.0 4 12 10 11 14 13 13 19 20 20
1650.0 24 35 38 38 48 52 60 80 83 102
1690.0 114 138 160 208 247 309 384 497 647 816
1730.0 1009 1192 1436 1715 2167 2681 3411 4302 5443 6776
1770.0 8125 9495 9905 10000 9154 8040 6353 4945 3696 2738
1810.0 2013 1479 1073 786 577 427 327 258 207 166
1850.0 147 122 106 89 89 76 71 65 59 56
1890.0 52 53 45 48 41 43 42 43 42 40
1930.0 43 40 41 34 38 35 37 36 37 37
1970.0 36 39 34 37 32 39 36 37 34 34
2010.0 35 37 41 38 45 39 42 40 37 32
2050.0 30 33 31 28 27 26 18 14 7 8
2090.0 8 8 14 22 23 21 28 24 25 28
2130.0 28 29 25 28 28 30 33 33 32 34
2170.0 36 34 38 38 43 46 47 46 46 46
2210.0 45 48 50 55 51 56 55 55 51 46
2250.0 48 47 45 41 42 38 42 39 39 34
2290.0 30 29 22 24 16 13 6 6 0 6
2330.0 15 12 31 34 38 13 0 0 26 66
2370.0 75 89 81 63 51 43 43 43 46 45
2410.0 41 43 43 43 46 42 45 42 42 41
2450.0 37 42 37 34 39 40 42 40 39 43
2490.0 40 40 45 47 51 49 51 49 54 57
2530.0 54 59 58 60 56 57 57 60 63 63
2570.0 64 62 71 65 69 69 69 60 66 75
2610.0 73 75 74 77 78 77 77 82 83 83
2650.0 87 85 82 77 75 79 86 92 96 100
2690.0 91 91 82 88 84 89 89 90 93 94
2730.0 98 112 111 116 124 120 124 114 114 108
2770.0 112 119 115 123 130 140 153 165 173 186
2810.0 199 210 237 256 283 315 367 421 498 594
2850.0 734 938 1180 1480 1764 2020 2208 2387 2463 2352
2890.0 2212 2014 1808 1713 1765 1929 2198 2554 2988 3491
2930.0 3973 4445 4851 5086 5113 5013 4836 4741 4815 5076
2970.0 5127 4747 4168 3236 2281 1640 1234 960 759 617
3010.0 517 450 397 356 324 304 286 264 249 228
3050.0 214 193 192 184 180 171 166 155 157 154
3090.0 148 144 141 135 129 129 138 123 122 125
3130.0 121 119 124 112 118 107 109 106 97 101
3170.0 100 104 86 92 87 91 87 89 92 87
3210.0 83 74 73 69 56 48 63 60 42 36
3250.0 37 36 26 39 47 48 42 55 56 46
3290.0 46 47 42 25 28 31 37 26 35 36
3330.0 26 21 23 33 25 31 23 27 22 19
3370.0 29 22 28 19 23 21 16 25 23 22
3410.0 14 16 9 19 27 19 21 23 13 31
3450.0 17 13 16 15 16 5 14 24 21 24
3490.0 31 26 40 56 67 70 66 72 85 138
3530.0 120 139 168 187 222 260 330 476 765 1448
3570.0 2696 3689 3705 3645 2832 1457 705 442 265 187
3610.0 174 116 107 82 92 105 85 59 55 69
3650.0 101 75 53 62 20 64 85 90 71 31
3690.0 70 58 63 49 56 72 89 54 66 88
3730.0 57 85 101 73 86 117 89 82 74 68
3770.0 87 61 66 70 66 50 49 63 80 59
3810.0 53 37 75 82 69 79 68 88 69 64
3850.0 85 122 88 60 92 60 31 25 43 40
3890.0 49 62 72 111 117 75 31 53 69 47
3930.0 54 50 48 65 64 52 38 74 40 54
##END=
