##TITLE=Acetic acid, hexyl ester
##JCAMP-DX=4.24
##DATA TYPE=INFRARED SPECTRUM
##ORIGIN=Sadtler Research Labs Under US-EPA Contract
##OWNER=NIST Standard Reference Data Program
##CAS REGISTRY NO=142-92-7
##MOLFORM=C 8 H 16 O 2
##XUNITS=1/CM
##YUNITS=ABSORBANCE
##XFACTOR=1.0
##YFACTOR=0.000169150
##DELTAX=4.0
##FIRSTX=450.0
##LASTX=3966.0
##FIRSTY=0.046009
##MAXX=3966
##MINX=450
##MAXY=1.6915
##MINY=0
##NPOINTS=880
##XYDATA=(X++(Y..Y))
450.0 272 158 88 70 72 56 49 118 89 62
490.0 68 3 89 52 73 58 65 82 54 74
530.0 18 83 62 37 31 42 45 64 44 31
570.0 68 47 74 81 74 62 21 153 168 211
610.0 198 194 176 191 222 241 216 223 212 167
650.0 149 131 105 62 55 25 19 44 16 39
690.0 22 23 12 27 14 26 35 69 74 87
730.0 83 79 70 53 57 40 52 42 49 57
770.0 48 67 39 24 34 13 85 62 88 75
810.0 81 71 84 78 84 90 91 99 101 118
850.0 118 126 115 122 116 123 126 134 150 162
890.0 183 184 189 173 160 145 140 127 129 147
930.0 168 209 236 263 257 248 230 224 221 231
970.0 247 255 268 264 270 265 287 334 396 498
1010.0 634 816 1009 1208 1372 1486 1558 1600 1623 1615
1050.0 1600 1574 1526 1428 1308 1179 1087 1005 917 828
1090.0 713 602 496 417 359 320 285 269 252 234
1130.0 222 208 197 193 203 207 219 231 247 260
1170.0 281 306 335 371 417 485 576 719 926 1206
1210.0 1601 2171 3056 4362 6198 8124 9646 10000 8923 7057
1250.0 5126 3645 2703 2186 1843 1583 1343 1124 951 813
1290.0 698 603 532 480 434 387 345 305 272 251
1330.0 238 233 242 253 281 348 475 728 1171 1611
1370.0 1821 1735 1390 1133 1077 1052 993 853 656 474
1410.0 361 293 275 265 269 286 322 360 394 445
1450.0 503 580 661 709 733 718 661 558 442 352
1490.0 283 223 196 171 166 163 141 142 137 121
1530.0 111 103 101 103 94 81 78 87 82 69
1570.0 73 68 65 61 54 55 48 50 50 54
1610.0 50 54 55 51 57 52 59 66 64 69
1650.0 81 87 83 81 87 88 101 96 109 121
1690.0 121 137 161 189 215 257 313 396 466 564
1730.0 713 918 1198 1585 2189 2989 4197 5517 6168 5979
1770.0 4902 3548 2555 1841 1328 990 813 695 577 480
1810.0 395 307 228 179 141 119 99 85 79 75
1850.0 69 57 61 59 61 56 55 52 52 50
1890.0 50 45 43 44 40 41 39 37 35 36
1930.0 35 35 32 30 29 26 27 27 28 29
1970.0 25 26 28 28 27 30 30 30 31 33
2010.0 33 32 33 34 35 34 33 33 35 35
2050.0 34 34 31 31 31 35 34 40 39 42
2090.0 39 39 38 35 35 35 33 33 33 35
2130.0 35 32 27 29 26 24 22 20 18 20
2170.0 16 15 14 14 15 12 17 14 14 16
2210.0 17 13 11 11 15 15 14 15 16 14
2250.0 14 14 16 16 14 12 15 10 10 9
2290.0 9 5 5 5 2 2 1 3 2 3
2330.0 1 1 2 1 1 1 4 9 3 1
2370.0 1 1 1 1 2 5 7 8 7 11
2410.0 14 14 14 12 15 12 14 15 18 16
2450.0 17 19 20 22 23 22 22 23 20 17
2490.0 17 13 15 12 15 13 12 9 11 7
2530.0 7 9 7 8 8 9 6 7 8 10
2570.0 9 8 13 10 13 12 15 16 18 22
2610.0 20 21 23 22 25 27 24 24 22 24
2650.0 26 27 30 33 34 36 40 32 34 35
2690.0 35 39 39 41 33 36 33 34 37 40
2730.0 47 51 56 60 63 61 60 59 55 55
2770.0 52 55 61 61 65 74 74 83 92 102
2810.0 110 118 133 147 165 190 217 251 307 393
2850.0 524 711 945 1195 1412 1551 1591 1589 1571 1496
2890.0 1397 1273 1205 1240 1346 1499 1707 1968 2307 2723
2930.0 3174 3569 3842 3926 3744 3461 3179 3076 3227 3503
2970.0 3627 3323 2743 1982 1396 1024 781 608 486 400
3010.0 338 298 269 246 232 217 205 193 179 165
3050.0 159 155 147 146 135 128 120 111 107 104
3090.0 92 86 80 70 71 69 66 55 59 59
3130.0 53 44 44 40 47 37 32 33 34 26
3170.0 28 27 27 28 27 30 28 27 25 21
3210.0 22 19 19 16 19 15 13 9 15 11
3250.0 13 22 13 15 16 18 6 4 10 8
3290.0 4 15 18 7 12 10 17 11 7 9
3330.0 5 3 7 10 0 12 11 12 15 14
3370.0 9 7 6 5 18 14 6 13 7 16
3410.0 20 8 10 8 11 12 3 14 11 13
3450.0 5 9 10 16 20 13 19 21 19 31
3490.0 33 38 53 64 59 72 58 39 24 34
3530.0 18 13 17 19 10 22 40 28 44 43
3570.0 51 25 49 76 45 22 38 67 38 42
3610.0 39 39 23 23 17 11 6 28 23 23
3650.0 28 25 26 30 23 36 44 33 25 34
3690.0 24 16 12 17 6 14 14 22 26 18
3730.0 12 26 26 14 15 17 15 7 21 24
3770.0 18 19 8 19 20 24 22 14 20 4
3810.0 1 17 12 36 12 10 13 22 19 20
3850.0 1 1 19 15 13 19 12 17 8 4
3890.0 5 9 19 34 29 16 16 14 12 16
3930.0 22 16 3 30 1 7 4 16 0 10
##END=
