##TITLE=2H-Pyran, tetrahydro-
##JCAMP-DX=4.24
##DATA TYPE=INFRARED SPECTRUM
##ORIGIN=Sadtler Research Labs Under US-EPA Contract
##OWNER=NIST Standard Reference Data Program
##CAS REGISTRY NO=142-68-7
##MOLFORM=C 5 H 10 O
##XUNITS=1/CM
##YUNITS=ABSORBANCE
##XFACTOR=1.0
##YFACTOR=0.000149539
##DELTAX=4.0
##FIRSTX=450.0
##LASTX=3966.0
##FIRSTY=0.006430
##MAXX=3966
##MINX=450
##MAXY=1.49539
##MINY=0
##NPOINTS=880
##XYDATA=(X++(Y..Y))
450.0 43 98 54 93 112 20 125 34 113 13
490.0 76 41 41 58 52 47 18 78 24 51
530.0 42 64 52 55 103 135 176 159 219 194
570.0 210 190 204 151 97 59 35 34 23 33
610.0 14 36 22 26 19 30 31 19 27 20
650.0 24 11 24 19 19 11 11 16 18 22
690.0 14 19 13 22 16 16 21 14 16 13
730.0 15 13 22 18 22 19 21 15 18 33
770.0 24 30 31 48 56 79 103 135 141 152
810.0 157 185 339 180 136 167 171 196 215 261
850.0 347 512 668 858 1100 1343 1511 1340 1141 865
890.0 525 375 248 175 109 84 52 44 38 34
930.0 34 32 38 36 53 76 117 151 174 174
970.0 189 184 170 194 198 213 251 321 388 480
1010.0 583 580 635 745 769 850 1058 1040 1114 1141
1050.0 1223 1150 1001 962 969 970 1114 1408 1821 2272
1090.0 2639 2816 2846 2832 2665 2324 1989 1437 874 487
1130.0 289 179 140 119 124 112 163 273 180 153
1170.0 245 380 511 693 1025 1282 1414 1490 1574 1457
1210.0 1392 1312 1037 729 462 289 197 195 226 269
1250.0 260 294 391 422 425 442 461 465 485 482
1290.0 464 362 391 397 225 142 163 122 112 83
1330.0 93 94 109 138 175 231 242 243 272 330
1370.0 354 377 354 293 310 242 217 211 172 113
1410.0 89 94 121 194 249 311 322 393 499 684
1450.0 758 621 550 588 452 523 604 380 187 190
1490.0 140 117 76 48 37 12 13 6 5 5
1530.0 4 7 5 5 0 7 3 4 5 6
1570.0 6 5 10 3 6 4 7 4 8 8
1610.0 9 8 11 10 11 10 15 11 12 9
1650.0 13 3 17 9 12 14 13 14 14 13
1690.0 15 16 11 17 17 15 11 15 17 19
1730.0 21 17 33 42 50 45 58 49 41 34
1770.0 31 28 27 26 24 20 20 12 7 9
1810.0 7 7 9 7 11 12 10 14 9 14
1850.0 12 14 13 14 10 12 13 12 17 20
1890.0 25 28 39 44 51 55 55 59 60 57
1930.0 47 38 29 25 26 29 32 36 40 42
1970.0 48 44 41 33 27 20 19 13 12 14
2010.0 15 14 13 16 14 13 15 18 11 12
2050.0 13 12 13 15 17 16 22 19 17 14
2090.0 10 9 10 7 7 9 8 10 8 8
2130.0 11 12 14 14 13 10 13 13 13 15
2170.0 15 17 17 20 21 21 21 23 32 34
2210.0 27 28 28 26 25 21 18 16 16 17
2250.0 21 25 23 23 20 19 10 7 6 4
2290.0 5 2 3 1 4 3 7 6 7 7
2330.0 6 9 11 10 9 11 1 5 3 11
2370.0 6 11 11 8 12 12 15 15 14 15
2410.0 12 9 9 7 5 8 7 8 8 9
2450.0 9 7 8 6 8 7 9 5 8 9
2490.0 13 14 16 18 18 19 16 17 13 14
2530.0 9 11 12 7 7 5 9 6 7 6
2570.0 8 5 8 13 16 20 26 38 41 49
2610.0 54 63 62 87 90 71 82 89 94 95
2650.0 101 108 115 133 146 156 164 190 223 218
2690.0 202 221 245 252 261 286 327 355 326 265
2730.0 276 290 302 284 280 276 302 537 404 189
2770.0 283 268 254 224 214 219 243 323 411 523
2810.0 662 890 1144 1577 2037 2415 2940 3305 3854 4668
2850.0 4434 4159 3769 3216 2771 2573 2106 1613 1349 1102
2890.0 923 764 745 825 1003 1377 1945 2739 3487 4508
2930.0 5878 6239 5808 7036 10000 7271 6354 6733 6504 5432
2970.0 5082 3934 3172 2836 2170 1314 705 336 187 107
3010.0 80 54 49 39 31 34 29 28 21 30
3050.0 26 26 28 31 34 37 42 42 44 39
3090.0 43 35 33 33 27 24 19 21 20 21
3130.0 17 18 16 17 18 21 26 30 32 36
3170.0 43 50 54 60 54 51 49 50 44 37
3210.0 38 29 25 31 29 22 19 19 16 11
3250.0 10 8 8 6 6 5 2 3 5 6
3290.0 8 11 14 18 18 21 22 24 23 22
3330.0 19 14 17 16 14 12 14 12 14 16
3370.0 13 16 15 13 11 13 13 14 13 13
3410.0 20 21 19 16 13 15 9 11 10 10
3450.0 8 10 6 10 9 11 12 9 14 12
3490.0 14 21 21 24 25 23 23 21 18 13
3530.0 14 15 15 10 7 9 12 1 9 9
3570.0 12 11 9 8 5 11 9 7 15 7
3610.0 11 9 13 15 6 20 9 15 11 20
3650.0 24 19 28 10 20 8 17 29 22 13
3690.0 16 24 17 23 15 16 27 21 16 28
3730.0 26 25 26 27 22 33 40 26 27 18
3770.0 25 19 17 20 21 19 17 11 28 22
3810.0 23 16 28 31 22 17 19 25 21 29
3850.0 7 14 24 24 23 24 31 24 20 13
3890.0 38 28 36 23 27 26 28 25 28 35
3930.0 38 30 38 36 35 41 39 42 37 36
##END=
