##TITLE=Heptane
##JCAMP-DX=4.24
##DATA TYPE=INFRARED SPECTRUM
##ORIGIN=Sadtler Research Labs Under US-EPA Contract
##OWNER=NIST Standard Reference Data Program
##CAS REGISTRY NO=142-82-5
##MOLFORM=C 7 H 16
##XUNITS=1/CM
##YUNITS=ABSORBANCE
##XFACTOR=1.0
##YFACTOR=0.000150143
##DELTAX=4.0
##FIRSTX=450.0
##LASTX=3966.0
##FIRSTY=0.013813
##MAXX=3966
##MINX=450
##MAXY=1.50143
##MINY=0
##NPOINTS=880
##XYDATA=(X++(Y..Y))
450.0 92 75 66 111 65 46 49 64 47 47
490.0 54 46 39 28 64 60 35 41 20 48
530.0 43 64 94 108 31 63 47 52 47 63
570.0 64 48 39 69 70 67 82 14 69 48
610.0 63 56 69 53 51 102 43 49 42 43
650.0 16 49 60 63 54 77 98 93 112 102
690.0 128 145 138 122 153 170 191 205 213 319
730.0 320 220 209 172 168 135 120 105 90 90
770.0 90 97 96 92 78 68 108 85 63 71
810.0 53 67 54 67 72 74 75 79 88 73
850.0 87 80 84 77 90 104 110 94 100 83
890.0 91 91 96 98 96 96 91 96 94 90
930.0 92 85 87 96 97 100 112 116 123 139
970.0 125 125 123 113 104 93 83 85 83 84
1010.0 86 91 89 89 87 85 85 82 85 80
1050.0 74 73 77 84 84 95 95 93 90 90
1090.0 88 86 80 70 66 68 69 70 72 76
1130.0 78 85 86 89 89 83 87 83 79 77
1170.0 72 66 65 62 57 53 54 59 63 66
1210.0 66 63 66 66 66 71 80 88 92 93
1250.0 101 107 109 112 117 117 119 117 118 116
1290.0 113 117 117 123 124 123 120 120 115 122
1330.0 134 150 169 187 206 214 231 241 265 302
1370.0 361 429 501 553 528 518 421 303 225 173
1410.0 146 137 136 146 167 208 290 414 562 694
1450.0 851 1057 1126 1201 1158 1046 915 765 605 466
1490.0 357 277 217 174 151 129 102 87 76 73
1530.0 64 65 62 64 54 54 52 52 55 46
1570.0 48 46 45 45 46 49 54 56 56 60
1610.0 56 59 55 53 46 44 38 41 35 41
1650.0 35 45 36 35 36 36 37 38 36 41
1690.0 35 31 38 34 29 27 28 27 28 24
1730.0 27 28 30 25 20 21 23 23 22 21
1770.0 20 25 21 22 22 25 20 19 20 20
1810.0 19 18 18 13 15 15 16 14 16 18
1850.0 17 17 17 16 19 18 17 16 16 16
1890.0 16 12 16 15 15 15 12 11 15 17
1930.0 17 14 19 18 18 17 15 12 13 9
1970.0 12 9 7 9 12 13 12 12 13 13
2010.0 13 13 12 11 12 10 9 8 10 10
2050.0 8 5 5 4 0 1 2 2 4 3
2090.0 1 5 8 8 8 10 6 10 8 6
2130.0 9 8 9 7 10 11 10 10 11 12
2170.0 11 14 12 14 15 13 14 12 11 10
2210.0 14 15 13 10 15 10 11 11 10 10
2250.0 10 10 9 6 8 8 11 11 12 10
2290.0 10 11 10 11 12 9 13 15 11 12
2330.0 11 10 9 21 17 16 16 14 17 28
2370.0 22 27 24 20 21 22 22 23 22 20
2410.0 20 25 23 23 20 18 17 22 16 17
2450.0 19 14 12 15 15 19 18 17 17 17
2490.0 14 16 16 18 18 21 22 24 23 29
2530.0 29 29 31 31 29 28 37 32 35 38
2570.0 42 43 47 54 57 64 73 79 78 77
2610.0 83 89 91 83 81 87 88 90 97 100
2650.0 100 107 111 119 122 124 120 113 103 96
2690.0 97 93 90 91 86 88 93 103 108 117
2730.0 124 130 141 142 137 137 127 126 122 118
2770.0 125 132 138 156 169 186 202 221 234 250
2810.0 262 291 315 353 402 473 601 793 1079 1452
2850.0 1918 2461 2950 3436 3866 4059 4250 4293 4195 3934
2890.0 3745 3545 3386 3594 4039 4625 5490 6600 7488 8591
2930.0 9765 10000 9353 9136 8791 8263 7955 8240 8031 7718
2970.0 7284 6178 4866 3420 2221 1447 997 738 586 490
3010.0 434 403 382 372 372 358 347 328 315 303
3050.0 282 268 232 239 224 219 224 226 220 213
3090.0 193 185 166 156 143 141 134 123 117 115
3130.0 107 111 108 112 109 115 103 109 111 110
3170.0 111 108 108 98 89 95 81 66 74 70
3210.0 67 58 60 54 53 44 40 43 39 47
3250.0 46 41 38 40 50 41 42 45 48 32
3290.0 39 34 27 32 30 34 41 34 27 40
3330.0 40 42 37 38 39 35 32 41 40 53
3370.0 47 41 25 39 32 40 36 29 38 29
3410.0 31 43 39 32 44 35 36 27 29 29
3450.0 38 32 39 38 37 34 35 34 28 30
3490.0 28 25 25 18 25 28 28 26 24 27
3530.0 27 21 19 23 25 18 21 19 36 17
3570.0 22 19 31 19 23 24 39 6 18 13
3610.0 18 31 11 32 37 32 35 27 44 27
3650.0 23 9 15 14 16 25 18 34 19 28
3690.0 47 27 30 24 25 24 16 25 22 24
3730.0 18 26 23 13 14 20 32 26 20 21
3770.0 21 12 25 27 26 28 30 46 40 22
3810.0 25 28 34 37 37 22 32 41 18 19
3850.0 39 25 27 41 38 42 32 32 40 41
3890.0 34 37 50 39 28 35 34 44 30 21
3930.0 19 51 39 70 40 18 34 9 36 57
##END=
