##TITLE=Stannane, dichlorodiisobutyl-,
##JCAMP-DX=4.24
##DATA TYPE=INFRARED SPECTRUM
##ORIGIN=Sadtler Research Labs Under US-EPA Contract
##OWNER=NIST Standard Reference Data Program
##CAS REGISTRY NO=14208-78-7
##MOLFORM=C 8 H 18 Cl 2 N
##XUNITS=1/CM
##YUNITS=ABSORBANCE
##XFACTOR=1.0
##YFACTOR=0.000116556
##DELTAX=4.0
##FIRSTX=450.0
##LASTX=3966.0
##FIRSTY=0.000000
##MAXX=3966
##MINX=450
##MAXY=1.16556
##MINY=0
##NPOINTS=880
##XYDATA=(X++(Y..Y))
450.0 0 122 209 296 352 116 289 225 199 121
490.0 171 82 197 158 128 190 328 216 119 294
530.0 213 137 203 98 141 138 172 177 189 308
570.0 171 288 222 385 239 303 374 411 482 461
610.0 372 395 452 349 230 242 182 182 162 146
650.0 155 185 196 180 266 281 247 239 231 343
690.0 362 398 462 555 681 751 922 1080 1193 1355
730.0 1444 1547 1482 1257 1058 859 601 447 318 290
770.0 243 228 229 250 205 157 184 173 190 224
810.0 310 327 327 247 193 160 142 148 154 151
850.0 165 136 145 141 157 143 147 143 141 128
890.0 99 152 175 139 151 142 202 175 218 198
930.0 241 198 193 203 230 228 232 238 209 211
970.0 170 177 173 187 197 190 222 229 246 277
1010.0 365 435 545 676 777 804 771 686 586 513
1050.0 455 432 408 415 419 440 511 613 722 784
1090.0 724 613 482 368 333 311 272 250 282 275
1130.0 326 375 444 552 704 925 1230 1596 1783 1641
1170.0 1267 955 801 705 604 554 524 526 513 494
1210.0 478 424 370 329 300 289 262 241 230 209
1250.0 205 194 195 195 195 188 203 206 212 238
1290.0 266 315 370 480 692 929 1062 1015 855 759
1330.0 742 749 705 598 481 399 391 422 515 700
1370.0 909 1086 1131 1136 1197 1167 997 772 627 564
1410.0 504 446 402 382 388 400 411 463 517 591
1450.0 740 884 1099 1347 1528 1641 1453 1081 737 515
1490.0 383 322 275 249 216 211 211 181 173 166
1530.0 153 157 136 136 139 140 135 128 130 131
1570.0 127 130 131 128 134 136 132 131 129 135
1610.0 142 135 135 132 137 134 129 126 129 131
1650.0 126 128 131 145 141 147 153 170 174 171
1690.0 171 165 152 143 151 156 164 160 174 190
1730.0 191 190 195 205 191 185 180 176 174 173
1770.0 166 160 160 154 147 142 137 135 125 125
1810.0 115 115 112 104 99 94 101 93 93 96
1850.0 90 91 97 94 92 96 94 92 97 98
1890.0 94 95 94 100 101 99 101 101 103 101
1930.0 98 101 101 97 94 94 91 91 91 93
1970.0 93 94 98 103 104 107 106 102 100 95
2010.0 98 97 97 98 94 89 94 92 92 91
2050.0 92 92 90 91 92 94 93 91 90 89
2090.0 91 91 93 93 97 99 97 100 103 105
2130.0 107 106 102 105 105 102 100 99 100 103
2170.0 100 101 104 100 102 101 101 97 94 94
2210.0 97 96 92 92 97 97 99 100 107 107
2250.0 105 103 100 103 102 97 99 100 93 90
2290.0 93 88 83 79 74 75 81 75 74 80
2330.0 86 91 83 89 95 82 85 93 122 120
2370.0 139 129 129 117 115 112 114 117 119 112
2410.0 116 115 115 111 111 108 109 110 111 113
2450.0 115 115 114 119 122 116 114 118 120 123
2490.0 120 122 125 119 115 112 113 112 109 108
2530.0 112 112 114 114 115 117 124 123 127 129
2570.0 133 134 132 137 140 142 149 154 164 170
2610.0 173 171 168 168 162 153 153 148 150 151
2650.0 152 151 149 146 143 143 140 137 134 133
2690.0 137 137 138 142 146 151 157 164 185 211
2730.0 234 240 241 235 224 221 212 209 205 217
2770.0 228 239 243 239 242 243 248 255 259 270
2810.0 286 300 318 341 354 366 379 401 440 486
2850.0 552 642 766 967 1290 1823 2575 3184 3270 2866
2890.0 2426 2240 2312 2500 2640 2654 2614 2607 2727 3001
2930.0 3440 3951 4240 4291 4266 4515 5190 6266 7894 9685
2970.0 10000 8295 5476 3201 1934 1286 933 713 568 459
3010.0 388 336 299 263 236 221 199 184 177 175
3050.0 168 170 166 166 169 166 165 166 165 153
3090.0 154 151 154 149 143 135 142 140 137 135
3130.0 138 141 134 128 138 137 136 138 136 142
3170.0 146 153 155 159 165 167 162 157 152 147
3210.0 140 135 128 115 108 97 95 103 99 91
3250.0 95 103 98 95 92 92 93 90 92 99
3290.0 97 93 92 95 107 104 101 107 104 111
3330.0 115 117 115 116 106 112 119 124 123 121
3370.0 114 119 123 117 112 110 102 99 93 93
3410.0 89 89 89 88 84 88 85 87 91 84
3450.0 83 83 88 82 74 79 84 81 90 83
3490.0 93 86 93 76 84 92 91 83 85 89
3530.0 90 86 86 84 92 89 83 90 93 93
3570.0 97 88 85 88 89 92 90 92 86 92
3610.0 98 93 80 89 91 97 99 97 89 83
3650.0 99 96 88 99 99 75 84 96 89 84
3690.0 85 84 76 78 95 74 79 82 78 78
3730.0 77 85 86 79 77 76 74 90 94 88
3770.0 92 93 82 90 85 84 74 84 90 88
3810.0 85 89 82 79 83 86 97 96 80 102
3850.0 78 80 100 102 91 100 85 95 86 89
3890.0 90 88 90 102 104 107 75 88 110 109
3930.0 103 92 74 89 97 99 108 106 122 90
##END=
