##TITLE=Pyrrolidine, 1-(cyanoacetyl)-
##JCAMP-DX=4.24
##DATA TYPE=INFRARED SPECTRUM
##ORIGIN=Sadtler Research Labs Under US-EPA Contract
##OWNER=NIST Standard Reference Data Program
##CAS REGISTRY NO=14227-95-3
##MOLFORM=C 7 H 10 N 2 O
##XUNITS=1/CM
##YUNITS=ABSORBANCE
##XFACTOR=1.0
##YFACTOR=0.000118466
##DELTAX=4.0
##FIRSTX=450.0
##LASTX=3966.0
##FIRSTY=0.000000
##MAXX=3966
##MINX=450
##MAXY=1.18466
##MINY=0
##NPOINTS=880
##XYDATA=(X++(Y..Y))
450.0 0 4 22 67 62 53 105 117 144 131
490.0 163 160 180 208 181 236 247 287 283 255
530.0 244 272 249 231 241 222 236 244 287 302
570.0 351 382 415 451 479 474 401 382 312 285
610.0 244 236 244 224 232 224 226 205 229 206
650.0 221 208 230 223 265 300 240 238 249 274
690.0 301 312 331 345 363 374 383 391 400 374
730.0 354 319 290 266 236 235 225 229 231 226
770.0 220 210 217 218 217 201 201 199 199 199
810.0 216 204 193 186 189 189 201 211 229 255
850.0 260 289 297 312 307 292 279 260 251 235
890.0 242 260 287 321 353 376 352 334 308 284
930.0 274 280 275 271 265 261 256 256 260 265
970.0 260 249 237 216 205 193 185 184 176 174
1010.0 157 155 146 149 157 172 203 226 244 232
1050.0 233 213 208 198 191 193 191 181 178 190
1090.0 196 209 215 230 248 272 294 300 303 302
1130.0 294 285 298 313 341 380 436 524 637 760
1170.0 858 949 1026 1099 1152 1155 1120 1011 821 618
1210.0 510 474 510 599 702 778 804 740 662 604
1250.0 571 557 542 539 533 540 555 567 562 531
1290.0 508 479 468 459 463 458 461 466 481 508
1330.0 544 616 677 751 771 778 777 749 760 824
1370.0 948 1113 1360 1684 2092 2632 3257 3980 4714 5304
1410.0 5635 5455 5022 4256 3429 2644 2122 1751 1466 1241
1450.0 1036 901 785 756 686 637 568 516 490 452
1490.0 404 377 334 303 248 206 211 186 166 174
1530.0 168 165 153 129 139 158 155 127 149 170
1570.0 165 170 177 182 193 199 209 220 246 262
1610.0 286 310 338 385 422 491 546 622 719 818
1650.0 879 960 1042 1176 1299 1620 2142 3235 4651 6937
1690.0 8609 9810 10000 9543 7594 5121 3387 2021 1314 863
1730.0 642 456 421 373 344 315 311 292 265 268
1770.0 234 216 196 182 157 145 125 118 107 111
1810.0 109 99 109 100 100 87 94 100 85 77
1850.0 84 89 81 84 74 68 77 79 80 77
1890.0 80 77 86 87 94 92 95 100 95 103
1930.0 99 96 87 79 74 73 69 65 64 60
1970.0 61 64 61 61 61 54 57 57 58 57
2010.0 54 52 49 50 50 51 50 49 50 49
2050.0 50 49 53 49 48 49 47 46 48 48
2090.0 46 48 47 50 46 47 47 43 46 42
2130.0 46 44 44 46 47 47 49 48 49 53
2170.0 50 52 51 55 53 53 53 53 55 53
2210.0 58 58 54 51 51 53 51 51 63 82
2250.0 103 120 125 119 101 78 58 52 47 50
2290.0 60 64 72 79 84 92 88 84 89 81
2330.0 64 70 60 67 86 91 101 79 82 67
2370.0 61 51 64 65 49 31 22 19 22 23
2410.0 19 16 14 14 10 13 13 11 11 9
2450.0 8 8 8 10 8 9 6 6 5 4
2490.0 6 7 9 9 11 11 10 14 13 14
2530.0 14 20 23 19 21 20 22 18 16 17
2570.0 21 20 19 22 23 21 22 27 25 23
2610.0 23 20 23 20 18 19 19 19 21 23
2650.0 22 24 25 30 29 30 36 35 33 34
2690.0 37 31 31 23 28 25 25 22 22 25
2730.0 25 29 30 30 33 37 38 37 41 41
2770.0 44 48 51 53 55 60 59 69 77 85
2810.0 91 105 117 126 134 149 160 165 177 190
2850.0 215 249 306 377 483 614 781 960 1129 1271
2890.0 1352 1345 1259 1097 903 729 611 560 558 582
2930.0 633 685 749 814 893 967 1040 1126 1248 1376
2970.0 1553 1813 2048 2210 2216 1891 1433 1000 643 419
3010.0 284 215 179 161 142 133 128 115 107 93
3050.0 87 73 63 58 55 50 51 50 53 52
3090.0 55 54 53 53 57 54 52 44 40 39
3130.0 35 37 33 31 29 24 27 21 22 22
3170.0 28 25 29 25 24 29 31 32 32 28
3210.0 26 30 25 20 18 11 14 19 18 18
3250.0 13 13 14 16 17 16 11 17 11 12
3290.0 16 16 18 16 18 17 19 14 17 14
3330.0 20 20 25 19 25 26 30 41 55 65
3370.0 71 64 60 60 52 47 31 29 16 11
3410.0 16 8 12 13 8 14 13 5 6 10
3450.0 13 12 12 13 9 6 9 13 8 17
3490.0 11 16 13 10 12 8 11 13 7 7
3530.0 8 12 9 17 18 8 11 12 11 14
3570.0 11 13 13 10 12 9 20 19 13 13
3610.0 4 11 6 11 17 17 19 19 9 6
3650.0 5 8 14 6 12 12 19 12 10 21
3690.0 11 10 18 17 14 13 18 19 18 25
3730.0 16 11 20 22 11 6 16 10 6 4
3770.0 10 10 4 4 9 8 6 4 11 6
3810.0 6 12 4 4 16 7 16 18 16 9
3850.0 19 21 7 12 4 18 11 11 22 20
3890.0 18 18 12 26 22 7 22 29 14 11
3930.0 17 23 13 29 11 13 16 3 21 26
##END=
