##TITLE=1,3-Benzodioxol-5-amine
##JCAMP-DX=4.24
##DATA TYPE=INFRARED SPECTRUM
##ORIGIN=Sadtler Research Labs Under US-EPA Contract
##OWNER=NIST Standard Reference Data Program
##CAS REGISTRY NO=14268-66-7
##MOLFORM=C 7 H 7 N O 2
##XUNITS=1/CM
##YUNITS=ABSORBANCE
##XFACTOR=1.0
##YFACTOR=0.000141501
##DELTAX=4.0
##FIRSTX=450.0
##LASTX=3966.0
##FIRSTY=0.036083
##MAXX=3966
##MINX=450
##MAXY=1.41501
##MINY=0
##NPOINTS=880
##XYDATA=(X++(Y..Y))
450.0 255 426 450 428 468 510 473 443 426 394
490.0 364 324 242 228 157 148 127 101 118 91
530.0 85 63 82 63 64 95 93 135 151 211
570.0 243 317 343 371 420 467 495 566 703 766
610.0 707 624 580 443 292 208 244 281 364 507
650.0 640 844 981 1047 1074 1014 864 727 624 564
690.0 485 455 405 368 335 322 303 280 267 225
730.0 206 184 186 191 201 232 260 303 325 352
770.0 438 562 722 861 1198 1407 1234 1113 1171 1161
810.0 1159 1087 1138 1012 988 1136 995 782 707 538
850.0 381 241 147 99 52 23 8 7 0 3
890.0 11 18 42 77 121 208 364 573 889 1233
930.0 1392 1535 1887 1933 1761 1613 1404 1214 900 548
970.0 301 163 88 49 36 39 58 75 117 175
1010.0 254 373 514 706 967 1300 1716 2185 2627 2940
1050.0 3059 2938 2599 2141 1709 1344 1084 910 808 760
1090.0 778 824 902 1007 1082 1133 1163 1171 1124 1028
1130.0 896 756 592 428 316 253 225 220 228 268
1170.0 368 579 1011 1915 3530 5766 7654 8755 8887 8080
1210.0 5909 3769 2320 1471 1048 896 905 1023 1245 1585
1250.0 2119 2763 3201 3236 3061 2644 1857 1110 678 493
1290.0 416 327 228 176 149 136 133 126 97 77
1330.0 56 45 74 69 53 92 126 159 172 161
1370.0 125 112 72 62 92 121 144 165 153 167
1410.0 192 223 391 472 625 723 846 900 908 969
1450.0 1168 1481 1779 1810 1823 1920 2129 2996 5073 7972
1490.0 9298 9881 10000 9004 6367 4318 3495 2334 1279 654
1530.0 470 322 291 288 231 172 182 258 248 269
1570.0 336 379 404 405 371 371 374 441 561 793
1610.0 1093 1395 1735 1954 2179 2169 2102 1802 1485 1181
1650.0 867 576 375 295 271 276 291 235 269 245
1690.0 169 123 168 147 122 87 123 184 148 177
1730.0 286 395 347 309 241 189 149 126 125 102
1770.0 135 123 100 109 123 133 160 149 163 131
1810.0 110 87 54 53 48 59 41 39 59 90
1850.0 76 70 88 104 126 159 147 138 136 116
1890.0 111 85 63 51 39 31 23 24 30 16
1930.0 14 16 18 31 32 19 23 22 23 32
1970.0 33 33 31 31 25 35 34 33 31 39
2010.0 38 43 47 42 36 32 33 37 39 38
2050.0 42 44 46 50 58 53 49 46 42 41
2090.0 38 32 29 27 27 23 22 22 18 18
2130.0 15 12 9 7 9 10 13 17 19 22
2170.0 19 16 16 13 10 11 12 15 20 27
2210.0 30 36 37 40 35 31 28 25 25 29
2250.0 32 35 38 41 47 51 61 71 79 83
2290.0 88 90 101 106 111 122 105 92 90 76
2330.0 62 62 47 56 71 83 73 64 60 56
2370.0 60 68 85 93 80 63 53 46 46 38
2410.0 30 24 19 15 10 8 7 7 7 9
2450.0 13 15 19 18 18 14 12 9 6 5
2490.0 1 1 1 0 0 0 1 6 7 11
2530.0 14 21 27 34 40 47 53 56 57 55
2570.0 48 45 40 32 27 24 23 20 16 17
2610.0 18 23 25 27 29 30 30 28 29 31
2650.0 35 40 43 42 40 41 39 41 43 45
2690.0 43 46 46 51 53 57 63 64 71 74
2730.0 80 85 92 104 119 141 170 215 287 376
2770.0 437 449 426 367 276 191 157 147 151 160
2810.0 174 189 207 222 249 281 320 375 445 535
2850.0 644 760 883 1033 1205 1364 1475 1526 1500 1398
2890.0 1251 1128 1069 1044 1036 1031 1023 1006 971 926
2930.0 871 818 772 735 701 674 636 600 564 531
2970.0 499 469 444 418 401 395 397 406 424 455
3010.0 502 539 558 565 559 550 559 626 704 740
3050.0 738 676 555 427 344 276 236 204 179 167
3090.0 157 147 132 122 109 103 93 84 76 65
3130.0 54 42 37 24 16 16 13 11 9 8
3170.0 9 8 6 11 10 7 7 13 16 21
3210.0 21 25 29 32 28 25 23 22 18 25
3250.0 25 29 31 33 33 35 31 24 22 19
3290.0 19 14 12 8 5 9 4 4 7 8
3330.0 8 5 6 11 10 12 12 15 19 28
3370.0 30 44 55 72 100 135 180 218 241 241
3410.0 220 189 154 113 92 76 69 68 65 67
3450.0 69 83 95 112 139 164 196 219 229 228
3490.0 216 187 155 128 91 72 68 47 47 44
3530.0 32 25 25 24 29 25 22 14 13 21
3570.0 21 14 8 8 16 18 19 1 8 4
3610.0 8 11 6 3 5 23 8 8 10 11
3650.0 21 11 9 0 8 25 13 23 0 14
3690.0 13 13 2 6 3 10 12 10 12 19
3730.0 10 19 14 7 23 0 16 6 0 11
3770.0 9 3 1 8 1 5 2 3 4 20
3810.0 9 14 15 24 25 4 9 17 17 11
3850.0 20 27 22 15 6 21 22 34 29 38
3890.0 32 35 34 51 57 47 39 41 32 22
3930.0 36 25 11 21 19 18 32 15 30 22
##END=
