##TITLE=Dodecane, 1-bromo-
##JCAMP-DX=4.24
##DATA TYPE=INFRARED SPECTRUM
##ORIGIN=Sadtler Research Labs Under US-EPA Contract
##OWNER=NIST Standard Reference Data Program
##CAS REGISTRY NO=143-15-7
##MOLFORM=C 12 H 25 Br
##XUNITS=1/CM
##YUNITS=ABSORBANCE
##XFACTOR=1.0
##YFACTOR=0.000140701
##DELTAX=4.0
##FIRSTX=450.0
##LASTX=3966.0
##FIRSTY=0.037989
##MAXX=3966
##MINX=450
##MAXY=1.40701
##MINY=0
##NPOINTS=880
##XYDATA=(X++(Y..Y))
450.0 270 158 127 118 129 74 41 80 46 76
490.0 0 99 140 113 82 94 67 53 44 27
530.0 119 67 73 81 72 85 71 124 241 326
570.0 269 263 200 157 115 109 101 74 88 75
610.0 82 76 100 91 107 122 145 171 212 253
650.0 284 281 244 166 139 121 103 103 101 108
690.0 118 121 127 144 168 184 228 236 293 261
730.0 242 245 215 208 194 189 178 178 167 157
770.0 147 144 138 131 109 111 114 111 116 119
810.0 120 114 131 110 106 100 93 93 104 100
850.0 96 92 88 124 105 96 98 99 96 99
890.0 104 98 100 99 102 102 98 101 89 94
930.0 94 92 87 90 93 94 93 96 104 102
970.0 103 96 88 83 91 81 86 87 87 83
1010.0 86 90 91 98 94 96 102 108 104 103
1050.0 97 99 100 96 94 94 93 88 85 82
1090.0 76 74 82 80 81 77 76 74 75 82
1130.0 79 74 76 75 75 76 81 79 80 85
1170.0 101 109 130 154 176 195 212 217 235 261
1210.0 284 312 330 352 363 370 375 388 409 427
1250.0 454 473 484 485 465 435 409 387 368 351
1290.0 337 327 316 310 293 276 251 227 208 198
1330.0 198 216 242 272 301 328 344 332 310 286
1370.0 269 247 233 230 219 192 158 140 127 124
1410.0 122 128 140 155 186 229 301 391 499 587
1450.0 649 715 806 852 814 704 550 399 284 207
1490.0 159 127 111 92 83 74 66 60 57 52
1530.0 49 45 38 41 37 39 31 33 35 31
1570.0 30 29 28 31 27 28 29 29 25 26
1610.0 25 24 23 25 24 27 26 30 28 23
1650.0 22 28 22 21 19 17 19 18 14 25
1690.0 22 20 24 26 22 26 26 25 31 26
1730.0 28 28 31 28 29 34 32 31 28 27
1770.0 20 21 16 19 14 19 13 15 14 14
1810.0 9 9 13 10 12 9 10 7 9 7
1850.0 8 9 11 8 8 9 12 10 10 11
1890.0 12 9 9 9 10 10 11 10 10 10
1930.0 10 12 8 10 6 9 11 11 11 13
1970.0 10 12 13 14 12 10 13 14 16 17
2010.0 18 18 20 19 22 21 21 20 20 20
2050.0 21 19 14 15 13 13 12 15 17 17
2090.0 17 17 18 20 21 24 22 23 19 18
2130.0 18 18 17 16 17 15 16 18 16 17
2170.0 15 12 16 15 18 21 24 22 25 26
2210.0 24 26 26 27 26 27 28 26 25 22
2250.0 21 22 25 24 24 20 25 24 22 22
2290.0 22 20 20 18 16 11 9 5 3 6
2330.0 10 20 24 11 59 9 3 5 29 50
2370.0 93 89 89 71 52 39 35 29 26 26
2410.0 26 26 26 29 29 26 29 28 26 27
2450.0 24 27 27 29 28 28 30 29 32 33
2490.0 33 36 36 38 39 40 38 41 45 47
2530.0 45 45 42 42 45 44 38 28 19 8
2570.0 3 3 8 14 17 25 34 38 41 46
2610.0 48 45 43 39 36 37 30 31 42 40
2650.0 44 54 61 71 80 83 84 84 89 98
2690.0 104 108 104 106 108 104 103 106 106 108
2730.0 115 117 121 126 134 131 130 130 136 139
2770.0 143 149 159 164 178 193 207 223 242 265
2810.0 286 314 351 386 431 491 557 662 812 1047
2850.0 1426 2027 2858 3625 3869 3552 3012 2562 2279 2112
2890.0 1981 1936 2019 2225 2553 2992 3560 4343 5535 7161
2930.0 8926 10000 9741 8484 6802 5224 4058 3391 3172 3200
2970.0 3164 2764 2096 1530 1154 906 742 632 567 537
3010.0 537 537 493 399 321 281 246 223 208 183
3050.0 164 152 142 132 133 124 117 107 110 108
3090.0 101 96 89 85 86 77 84 69 77 75
3130.0 74 81 77 88 88 101 107 109 105 94
3170.0 84 80 78 77 82 83 75 77 90 95
3210.0 96 103 111 103 109 110 107 98 97 92
3250.0 84 75 81 86 77 73 58 56 46 44
3290.0 45 38 39 33 43 40 40 40 40 34
3330.0 29 29 19 31 44 39 25 30 31 22
3370.0 28 31 32 27 28 32 25 28 25 31
3410.0 21 24 26 31 30 25 21 21 33 29
3450.0 28 37 29 23 27 27 22 26 20 23
3490.0 23 24 22 11 25 27 24 17 22 33
3530.0 16 13 17 24 17 20 17 26 8 15
3570.0 23 28 16 15 15 20 24 18 25 20
3610.0 22 19 24 35 23 30 24 17 28 19
3650.0 33 32 23 19 7 10 21 29 20 17
3690.0 15 7 31 15 26 21 20 26 3 15
3730.0 29 32 20 20 37 18 22 9 22 32
3770.0 22 19 11 21 22 32 11 23 5 34
3810.0 8 34 35 17 26 20 17 4 16 30
3850.0 6 30 37 26 22 12 38 23 24 26
3890.0 28 31 44 23 15 13 8 14 38 3
3930.0 18 50 11 34 19 1 10 6 9 28
##END=
