##TITLE=1-Hexanamine, N-hexyl-
##JCAMP-DX=4.24
##DATA TYPE=INFRARED SPECTRUM
##ORIGIN=Sadtler Research Labs Under US-EPA Contract
##OWNER=NIST Standard Reference Data Program
##CAS REGISTRY NO=143-16-8
##MOLFORM=C 12 H 27 N
##XUNITS=1/CM
##YUNITS=ABSORBANCE
##XFACTOR=1.0
##YFACTOR=0.000181512
##DELTAX=4.0
##FIRSTX=450.0
##LASTX=3966.0
##FIRSTY=0.000000
##MAXX=3966
##MINX=450
##MAXY=1.81512
##MINY=0
##NPOINTS=880
##XYDATA=(X++(Y..Y))
450.0 0 55 77 36 38 96 23 53 71 56
490.0 105 127 146 78 60 85 60 90 122 113
530.0 90 91 124 97 85 66 87 79 87 76
570.0 74 73 75 54 73 82 57 63 72 84
610.0 76 85 104 86 97 102 100 132 140 144
650.0 158 162 201 220 231 273 256 262 260 292
690.0 323 308 306 294 317 344 372 352 352 328
730.0 310 273 256 217 246 196 147 172 168 166
770.0 155 142 111 110 70 77 96 94 58 60
810.0 65 68 75 72 58 14 46 80 74 50
850.0 70 70 50 73 61 80 72 63 54 95
890.0 61 67 55 52 43 50 74 58 46 37
930.0 60 64 55 58 48 54 63 78 71 61
970.0 67 62 65 63 52 63 54 60 63 74
1010.0 72 81 86 95 109 117 111 124 132 133
1050.0 139 146 152 147 159 159 156 153 164 160
1090.0 181 208 255 279 317 382 423 472 567 701
1130.0 820 884 850 728 580 455 315 286 243 201
1170.0 191 194 176 167 153 152 167 130 145 149
1210.0 148 142 133 138 138 138 142 140 154 138
1250.0 126 146 156 131 140 160 163 174 163 172
1290.0 180 185 215 233 224 237 221 225 229 230
1330.0 262 296 368 413 442 468 475 475 473 458
1370.0 439 402 385 379 351 303 227 207 184 169
1410.0 178 175 196 208 248 318 386 510 614 717
1450.0 870 1002 1120 1192 1147 1027 843 632 459 336
1490.0 247 207 169 131 111 95 103 72 66 63
1530.0 59 54 38 32 39 52 33 35 11 45
1570.0 25 31 32 21 36 31 28 38 28 36
1610.0 32 35 34 36 38 31 34 32 41 45
1650.0 21 45 54 53 54 48 45 40 35 37
1690.0 50 53 72 98 131 103 74 49 49 48
1730.0 28 39 29 35 42 35 39 35 36 43
1770.0 46 45 50 45 43 36 41 34 39 27
1810.0 23 31 29 31 21 19 27 19 20 20
1850.0 23 25 21 20 11 23 24 14 17 22
1890.0 22 23 18 18 10 12 15 14 23 24
1930.0 17 19 17 8 18 10 19 18 23 13
1970.0 27 19 14 10 5 13 20 22 12 20
2010.0 28 17 17 16 18 19 22 29 26 28
2050.0 22 21 19 23 22 10 14 24 20 20
2090.0 12 20 16 16 16 15 15 17 19 18
2130.0 20 15 18 19 17 17 17 15 19 21
2170.0 20 18 20 16 20 19 19 17 19 19
2210.0 16 16 18 18 16 14 15 17 20 18
2250.0 20 22 18 19 18 21 21 20 20 24
2290.0 21 20 23 22 17 19 19 19 15 15
2330.0 10 7 14 27 29 18 5 5 5 13
2370.0 12 24 26 29 24 22 25 29 31 32
2410.0 32 32 30 30 31 32 31 30 30 29
2450.0 28 26 27 26 29 32 31 31 30 32
2490.0 36 34 36 35 40 38 38 41 39 39
2530.0 45 46 50 49 51 52 52 53 56 57
2570.0 62 61 62 67 71 74 75 77 79 82
2610.0 89 90 93 95 98 105 110 115 116 125
2650.0 135 137 149 157 159 171 178 184 187 193
2690.0 199 200 204 208 205 207 206 215 220 228
2730.0 240 255 267 283 295 301 310 314 325 335
2770.0 345 361 391 438 492 570 659 773 896 1033
2810.0 1170 1282 1350 1355 1308 1264 1237 1268 1363 1561
2850.0 1926 2496 3226 3814 3919 3640 3239 2917 2780 2696
2890.0 2579 2520 2610 2847 3236 3766 4416 5297 6488 7875
2930.0 9401 10000 9410 8005 6527 5190 4242 3764 3717 3817
2970.0 3672 3037 2210 1568 1162 906 731 611 518 452
3010.0 396 346 313 289 264 239 221 202 183 168
3050.0 158 147 134 131 117 112 105 104 98 94
3090.0 91 83 81 80 76 71 68 64 62 61
3130.0 59 58 57 57 53 53 54 52 51 49
3170.0 47 49 46 43 45 39 37 37 37 38
3210.0 32 26 26 25 23 27 21 18 16 16
3250.0 21 21 19 20 14 11 14 16 21 16
3290.0 16 17 16 13 11 16 20 20 20 17
3330.0 17 21 20 21 23 16 17 18 24 29
3370.0 21 20 17 23 19 27 23 22 21 23
3410.0 22 19 26 24 21 18 23 23 24 22
3450.0 22 25 24 23 17 23 22 20 24 23
3490.0 28 20 17 19 18 22 24 24 22 20
3530.0 18 25 19 22 22 23 21 24 24 29
3570.0 35 29 34 36 25 28 25 36 29 34
3610.0 31 23 30 28 30 32 36 42 40 28
3650.0 40 41 45 36 33 24 17 25 32 35
3690.0 22 36 35 40 39 38 28 29 34 43
3730.0 26 33 31 31 31 14 17 34 32 25
3770.0 32 27 36 34 39 36 37 27 30 22
3810.0 36 26 42 30 30 37 28 21 18 37
3850.0 31 18 14 36 29 15 25 27 31 27
3890.0 33 32 32 29 43 42 42 41 35 34
3930.0 40 40 21 41 25 39 45 28 29 24
##END=
