##TITLE=1-Decanethiol
##JCAMP-DX=4.24
##DATA TYPE=INFRARED SPECTRUM
##ORIGIN=Sadtler Research Labs Under US-EPA Contract
##OWNER=NIST Standard Reference Data Program
##CAS REGISTRY NO=143-10-2
##MOLFORM=C 10 H 22 S
##XUNITS=1/CM
##YUNITS=ABSORBANCE
##XFACTOR=1.0
##YFACTOR=0.000122311
##DELTAX=4.0
##FIRSTX=450.0
##LASTX=3966.0
##FIRSTY=0.000000
##MAXX=3966
##MINX=450
##MAXY=1.22311
##MINY=0
##NPOINTS=880
##XYDATA=(X++(Y..Y))
450.0 0 26 72 89 132 114 54 86 130 56
490.0 70 63 74 64 72 75 72 59 52 69
530.0 72 53 79 75 69 108 89 70 55 75
570.0 72 69 76 64 69 79 81 79 93 95
610.0 76 79 63 79 81 83 93 73 80 80
650.0 91 94 106 96 90 88 78 93 84 93
690.0 102 111 135 159 193 222 248 259 259 257
730.0 244 243 217 207 196 167 163 164 145 133
770.0 131 128 127 119 105 102 104 110 93 95
810.0 100 97 99 95 98 104 107 100 102 99
850.0 98 99 94 96 98 104 104 118 122 131
890.0 138 143 160 160 157 126 122 115 122 112
930.0 106 111 109 104 105 100 99 109 108 112
970.0 100 99 95 96 98 95 95 100 99 93
1010.0 92 90 87 93 96 96 99 99 107 111
1050.0 114 121 123 120 119 117 116 112 109 108
1090.0 109 111 117 127 138 145 145 138 133 119
1130.0 112 108 106 108 107 107 109 111 115 114
1170.0 119 116 115 119 124 134 144 148 149 148
1210.0 153 161 169 180 193 202 209 215 220 239
1250.0 253 266 273 278 290 299 326 348 367 368
1290.0 365 360 361 361 357 338 306 272 239 216
1330.0 205 211 231 267 299 324 337 333 309 293
1370.0 292 285 287 290 279 239 196 164 151 149
1410.0 152 161 174 191 219 272 352 433 517 574
1450.0 645 725 830 899 878 782 620 455 318 229
1490.0 177 145 126 113 107 94 85 76 78 71
1530.0 69 65 62 61 58 61 56 57 58 56
1570.0 55 56 59 55 56 54 54 54 59 58
1610.0 62 67 75 77 82 78 74 68 63 57
1650.0 56 54 53 47 46 44 48 42 47 46
1690.0 45 46 49 48 48 49 52 52 55 53
1730.0 55 56 57 59 57 58 56 55 52 53
1770.0 50 49 46 46 48 45 46 44 44 42
1810.0 44 42 42 39 39 41 39 39 38 37
1850.0 36 40 37 34 37 36 37 36 36 38
1890.0 37 38 37 37 38 35 37 35 36 35
1930.0 38 36 38 36 36 37 37 36 36 36
1970.0 40 39 39 38 38 37 39 38 41 41
2010.0 44 41 44 44 47 46 47 48 43 45
2050.0 44 44 44 44 44 43 42 43 43 41
2090.0 41 41 39 41 40 40 39 40 39 37
2130.0 39 40 41 42 42 43 44 45 43 44
2170.0 44 41 40 41 44 42 42 42 43 43
2210.0 43 40 40 41 43 40 38 38 39 40
2250.0 38 43 40 38 40 42 39 37 35 38
2290.0 33 28 26 29 24 24 28 32 32 42
2330.0 43 45 44 36 42 42 35 37 38 45
2370.0 43 39 42 38 38 41 43 45 43 44
2410.0 47 44 43 45 43 43 42 40 43 43
2450.0 43 45 45 42 43 45 43 43 46 45
2490.0 45 43 46 45 48 48 50 54 51 55
2530.0 56 56 56 57 57 59 60 62 63 65
2570.0 66 72 80 92 110 123 130 126 114 103
2610.0 97 93 89 90 86 89 91 93 93 96
2650.0 100 105 109 108 115 117 126 125 129 126
2690.0 127 126 120 119 114 112 111 114 114 115
2730.0 120 124 126 135 133 134 135 129 131 134
2770.0 134 140 149 154 168 182 201 220 233 248
2810.0 272 294 319 359 397 448 512 607 757 1011
2850.0 1454 2151 3024 3781 4046 3764 3177 2645 2312 2134
2890.0 1954 1837 1890 2112 2461 2901 3481 4338 5670 7428
2930.0 9220 10000 9696 8487 6820 5167 4016 3525 3596 3933
2970.0 3993 3361 2332 1495 1029 778 622 520 445 382
3010.0 336 305 272 244 223 213 198 184 170 156
3050.0 148 134 127 118 111 108 103 100 93 94
3090.0 88 89 83 83 80 76 79 77 72 66
3130.0 69 71 66 64 66 65 66 63 68 62
3170.0 60 61 63 61 57 54 56 55 52 47
3210.0 52 46 45 40 38 41 36 40 40 38
3250.0 36 38 40 38 38 30 36 39 36 33
3290.0 32 35 38 33 37 29 37 35 33 32
3330.0 32 37 38 36 32 32 35 30 37 34
3370.0 31 35 40 39 41 43 38 36 35 34
3410.0 39 35 34 37 34 37 32 34 34 33
3450.0 36 36 39 30 35 27 36 32 33 25
3490.0 31 30 33 24 25 33 24 24 29 25
3530.0 32 35 30 25 32 27 31 30 33 39
3570.0 27 30 38 36 40 36 38 35 30 38
3610.0 47 46 43 44 36 46 44 42 42 40
3650.0 44 43 39 39 42 42 38 40 47 54
3690.0 51 46 43 54 39 38 45 37 38 33
3730.0 37 46 40 32 46 37 46 44 33 31
3770.0 34 33 39 38 29 30 36 55 30 42
3810.0 33 38 45 36 25 35 34 40 41 34
3850.0 37 32 36 46 37 34 35 25 32 55
3890.0 37 35 28 36 47 31 35 36 30 30
3930.0 31 33 37 23 26 38 38 23 33 33
##END=
