##TITLE=Dodecanoic acid
##JCAMP-DX=4.24
##DATA TYPE=INFRARED SPECTRUM
##ORIGIN=Sadtler Research Labs Under US-EPA Contract
##OWNER=NIST Standard Reference Data Program
##CAS REGISTRY NO=143-07-7
##MOLFORM=C 12 H 24 O 2
##XUNITS=1/CM
##YUNITS=ABSORBANCE
##XFACTOR=1.0
##YFACTOR=0.000076031
##DELTAX=4.0
##FIRSTX=450.0
##LASTX=3966.0
##FIRSTY=0.000608
##MAXX=3966
##MINX=450
##MAXY=0.76031
##MINY=0
##NPOINTS=880
##XYDATA=(X++(Y..Y))
450.0 8 80 111 30 140 28 141 98 160 119
490.0 159 172 208 271 291 301 259 337 320 370
530.0 364 402 395 418 497 561 625 669 750 672
570.0 674 644 676 750 711 812 816 821 811 859
610.0 839 840 809 782 775 778 715 626 550 455
650.0 393 334 313 281 274 269 227 227 240 252
690.0 244 244 237 247 251 284 330 340 343 332
730.0 345 312 288 262 244 209 200 185 157 151
770.0 135 130 100 101 72 70 56 23 38 33
810.0 37 36 44 42 50 50 47 58 37 52
850.0 48 62 68 73 76 82 70 82 92 74
890.0 81 68 87 79 76 72 75 70 73 78
930.0 67 84 72 85 72 77 74 78 80 81
970.0 90 86 108 110 126 137 150 163 178 192
1010.0 204 220 242 268 295 320 352 407 467 523
1050.0 599 666 748 817 886 979 1055 1171 1290 1459
1090.0 1668 1917 2197 2432 2596 2565 2476 2341 2315 2374
1130.0 2508 2590 2506 2324 2053 1817 1600 1474 1365 1294
1170.0 1231 1175 1114 1056 998 928 863 800 753 709
1210.0 670 632 591 549 520 487 470 446 439 437
1250.0 440 451 453 459 467 467 467 463 466 463
1290.0 460 458 461 455 454 445 434 418 415 423
1330.0 435 471 520 581 649 705 759 790 824 836
1370.0 892 900 952 973 967 844 732 574 489 411
1410.0 379 349 350 367 400 420 472 463 547 581
1450.0 702 765 883 995 972 847 682 484 374 267
1490.0 219 157 150 143 110 96 93 87 68 78
1530.0 87 54 88 52 61 53 85 43 58 60
1570.0 88 43 79 82 73 78 81 75 60 74
1610.0 71 57 82 48 97 36 105 35 94 45
1650.0 117 17 106 83 64 117 51 127 91 98
1690.0 119 154 116 156 222 224 271 296 426 452
1730.0 619 678 898 1091 1354 1664 1963 2439 2852 3626
1770.0 4245 5614 5756 5822 4797 3963 2963 2529 1967 1561
1810.0 1210 891 669 478 418 265 252 195 176 132
1850.0 130 129 106 105 88 102 64 94 74 76
1890.0 63 66 70 57 66 55 56 55 57 52
1930.0 54 52 47 47 43 53 44 51 42 49
1970.0 39 46 49 41 48 41 52 34 52 41
2010.0 53 39 48 44 43 49 43 50 44 55
2050.0 44 44 45 42 42 41 48 42 48 38
2090.0 46 41 44 37 37 40 41 41 33 42
2130.0 36 40 38 40 38 40 42 39 41 37
2170.0 45 41 43 44 39 40 42 42 36 39
2210.0 39 43 36 43 38 34 34 37 39 33
2250.0 38 35 37 31 33 32 32 32 33 30
2290.0 30 34 33 33 36 36 42 35 38 30
2330.0 24 29 34 21 13 45 13 25 8 10
2370.0 8 28 29 37 31 29 29 23 29 24
2410.0 26 22 25 24 19 18 19 20 16 18
2450.0 11 14 12 15 8 11 11 9 11 13
2490.0 16 13 17 14 14 16 17 19 18 21
2530.0 20 26 22 26 22 21 23 21 26 26
2570.0 30 29 35 33 38 43 41 46 45 51
2610.0 49 59 58 58 58 60 60 62 72 69
2650.0 75 75 77 82 94 92 100 98 101 98
2690.0 101 105 100 101 98 99 96 97 99 95
2730.0 99 102 108 106 108 111 111 109 111 115
2770.0 117 120 127 135 138 154 176 194 211 231
2810.0 253 277 307 342 385 439 497 578 709 916
2850.0 1281 1905 2781 3597 3945 3691 3202 2696 2392 2182
2890.0 1983 1855 1901 2120 2471 2956 3572 4459 5737 7465
2930.0 9173 10000 9634 8400 7002 5587 4556 3914 3687 3650
2970.0 3514 2980 2194 1573 1187 931 763 633 535 458
3010.0 400 355 317 287 259 233 216 200 182 170
3050.0 148 139 138 126 123 120 108 104 102 98
3090.0 92 88 83 75 77 74 72 73 67 67
3130.0 64 73 67 62 65 57 56 55 68 59
3170.0 59 51 53 52 44 51 58 51 47 46
3210.0 48 41 46 39 35 40 35 36 39 36
3250.0 37 38 27 35 32 33 28 32 29 34
3290.0 27 27 33 24 25 29 33 32 41 36
3330.0 34 35 35 39 30 29 24 36 31 32
3370.0 31 24 35 34 33 27 40 26 31 21
3410.0 21 20 30 38 24 23 25 35 15 24
3450.0 28 22 24 31 34 23 30 19 48 29
3490.0 28 39 24 52 40 46 47 42 75 78
3530.0 69 84 99 112 137 154 213 242 465 714
3570.0 1332 2193 2559 1950 1080 549 353 228 177 125
3610.0 133 94 117 81 73 118 56 103 57 81
3650.0 101 55 104 19 90 25 99 62 57 59
3690.0 55 78 28 53 31 47 82 39 51 103
3730.0 32 66 54 99 0 140 3 60 74 35
3770.0 70 31 70 43 50 26 60 31 76 1
3810.0 88 8 97 41 44 52 49 46 117 89
3850.0 49 106 81 53 98 63 94 37 106 37
3890.0 113 8 109 70 133 40 79 62 84 90
3930.0 66 108 68 62 62 96 25 82 83 78
##END=
