##TITLE=Acetic acid, nonyl ester
##JCAMP-DX=4.24
##DATA TYPE=INFRARED SPECTRUM
##ORIGIN=Sadtler Research Labs Under US-EPA Contract
##OWNER=NIST Standard Reference Data Program
##CAS REGISTRY NO=143-13-5
##MOLFORM=C 11 H 22 O 2
##XUNITS=1/CM
##YUNITS=ABSORBANCE
##XFACTOR=1.0
##YFACTOR=0.000069226
##DELTAX=4.0
##FIRSTX=450.0
##LASTX=3966.0
##FIRSTY=0.006576
##MAXX=3966
##MINX=450
##MAXY=0.69226
##MINY=0
##NPOINTS=880
##XYDATA=(X++(Y..Y))
450.0 95 112 123 121 114 115 148 144 150 132
490.0 163 166 126 131 62 99 84 93 85 90
530.0 129 125 94 58 119 71 60 32 91 79
570.0 62 58 99 110 130 150 183 157 251 231
610.0 196 200 211 224 228 260 191 183 157 155
650.0 131 90 57 47 0 33 42 81 35 29
690.0 43 65 62 58 60 92 145 170 151 142
730.0 102 115 69 163 115 108 119 93 117 108
770.0 81 67 74 97 77 74 90 111 104 89
810.0 108 115 123 133 130 137 165 142 170 171
850.0 179 180 174 158 164 175 172 156 157 185
890.0 172 175 186 178 155 174 157 173 175 205
930.0 198 236 228 249 235 228 219 246 243 266
970.0 307 295 289 273 263 292 321 375 449 555
1010.0 654 764 901 1040 1190 1336 1494 1646 1735 1753
1050.0 1678 1551 1444 1328 1229 1165 1096 1013 914 800
1090.0 681 575 486 397 340 301 280 258 252 232
1130.0 217 208 188 182 175 180 188 175 182 219
1170.0 228 256 287 323 380 457 550 691 900 1209
1210.0 1643 2266 3163 4523 6425 8553 10000 9916 8428 6530
1250.0 4795 3543 2710 2203 1838 1553 1298 1090 938 808
1290.0 696 625 579 526 479 437 385 349 303 288
1330.0 271 271 299 332 369 456 600 842 1244 1743
1370.0 1958 1728 1322 1119 1076 1054 981 800 602 434
1410.0 347 307 306 298 306 325 369 434 485 545
1450.0 635 741 853 918 939 882 796 651 479 369
1490.0 308 250 225 204 196 182 173 166 161 138
1530.0 126 136 126 133 126 102 104 120 103 91
1570.0 93 85 86 89 69 73 76 80 76 79
1610.0 63 73 74 78 85 75 91 77 74 90
1650.0 90 117 104 96 108 104 119 106 120 138
1690.0 133 147 191 206 234 271 331 405 481 572
1730.0 704 907 1174 1551 2112 2884 3990 5442 6375 5907
1770.0 4385 3100 2190 1594 1159 871 663 509 396 323
1810.0 250 214 176 157 128 122 92 97 81 90
1850.0 73 72 72 57 73 69 56 63 52 58
1890.0 46 59 54 54 43 44 51 44 45 43
1930.0 40 43 43 32 36 37 35 35 43 36
1970.0 35 35 36 34 34 36 45 43 47 51
2010.0 55 51 50 72 71 73 69 68 66 59
2050.0 74 60 58 62 67 65 65 65 64 64
2090.0 57 51 43 44 38 48 41 37 42 44
2130.0 35 43 37 37 37 37 37 32 37 33
2170.0 31 24 36 36 37 36 30 36 36 34
2210.0 33 32 37 28 33 35 36 37 45 36
2250.0 43 36 28 32 26 35 34 33 31 30
2290.0 25 21 16 14 8 9 5 0 3 13
2330.0 0 0 0 9 31 0 0 3 6 32
2370.0 61 60 44 37 37 43 40 38 40 38
2410.0 38 38 37 37 43 49 43 37 45 53
2450.0 40 46 46 53 45 55 58 51 47 43
2490.0 37 55 41 40 38 38 53 60 40 54
2530.0 64 65 62 57 55 50 55 47 52 47
2570.0 62 76 60 75 72 80 75 76 68 70
2610.0 72 81 55 54 62 68 76 73 84 79
2650.0 75 80 68 81 83 111 104 119 111 121
2690.0 116 109 109 92 102 102 104 104 103 112
2730.0 112 120 129 143 146 142 140 126 138 133
2770.0 141 136 128 134 149 159 168 176 193 205
2810.0 222 227 245 278 285 334 377 444 526 679
2850.0 946 1394 2026 2604 2916 2851 2516 2184 2007 1796
2890.0 1631 1518 1552 1745 1996 2337 2743 3303 4108 5233
2930.0 6405 7128 7170 6515 5570 4613 3890 3563 3627 3864
2970.0 3885 3386 2535 1825 1366 1067 857 674 561 488
3010.0 421 384 340 328 321 306 290 269 275 242
3050.0 218 205 204 182 202 173 201 179 180 155
3090.0 152 162 150 127 106 112 117 105 88 86
3130.0 112 125 77 95 112 68 98 86 91 70
3170.0 79 53 61 49 52 47 74 99 62 74
3210.0 53 76 62 41 44 51 59 56 69 79
3250.0 44 67 41 47 82 70 71 72 63 70
3290.0 70 64 64 86 77 76 77 68 79 82
3330.0 77 84 84 77 74 84 78 86 62 89
3370.0 76 77 80 82 89 84 97 86 48 97
3410.0 67 95 65 94 71 93 86 86 95 92
3450.0 102 57 99 98 86 62 71 74 92 79
3490.0 73 94 107 108 120 112 88 81 66 58
3530.0 56 55 32 71 60 41 52 47 53 67
3570.0 73 55 54 51 42 49 54 60 40 31
3610.0 24 22 37 34 65 41 51 48 53 52
3650.0 48 27 12 22 2 34 30 33 25 37
3690.0 9 24 32 25 2 21 11 18 18 8
3730.0 9 1 13 28 40 11 27 19 17 17
3770.0 7 8 16 11 2 9 27 12 16 3
3810.0 21 20 8 0 7 5 18 23 2 14
3850.0 3 12 21 19 35 20 11 3 3 10
3890.0 9 0 0 4 13 17 14 11 2 0
3930.0 12 31 36 35 41 33 30 17 18 40
##END=
