##TITLE=1-Nonanol
##JCAMP-DX=4.24
##DATA TYPE=INFRARED SPECTRUM
##ORIGIN=Sadtler Research Labs Under US-EPA Contract
##OWNER=NIST Standard Reference Data Program
##CAS REGISTRY NO=143-08-8
##MOLFORM=C 9 H 20 O
##XUNITS=1/CM
##YUNITS=ABSORBANCE
##XFACTOR=1.0
##YFACTOR=0.000161401
##DELTAX=4.0
##FIRSTX=450.0
##LASTX=3966.0
##FIRSTY=0.031312
##MAXX=3966
##MINX=450
##MAXY=1.61401
##MINY=0
##NPOINTS=880
##XYDATA=(X++(Y..Y))
450.0 194 159 227 164 215 169 134 215 190 225
490.0 219 210 145 236 244 164 203 64 224 88
530.0 159 250 210 140 0 178 189 156 177 139
570.0 121 139 146 142 121 138 135 137 125 134
610.0 128 116 123 109 157 135 138 124 128 122
650.0 126 122 139 140 127 133 126 142 125 145
690.0 143 156 154 175 189 217 251 260 268 239
730.0 251 232 232 208 214 198 201 203 225 228
770.0 147 26 179 148 160 170 165 152 156 164
810.0 159 149 149 169 151 180 181 166 173 184
850.0 177 190 194 204 206 216 219 222 227 237
890.0 246 248 264 275 295 303 316 316 320 318
930.0 311 312 306 308 301 313 320 340 348 371
970.0 390 412 447 473 513 550 592 630 669 692
1010.0 729 791 874 1000 1157 1333 1467 1572 1639 1713
1050.0 1777 1823 1780 1649 1489 1307 1153 1000 870 739
1090.0 633 550 490 444 415 391 369 349 318 303
1130.0 282 271 264 263 262 269 272 272 278 279
1170.0 283 284 290 290 296 300 308 318 326 337
1210.0 345 356 360 371 370 373 370 370 371 370
1250.0 374 374 377 376 378 373 376 374 374 378
1290.0 378 381 378 380 373 371 357 354 344 341
1330.0 350 373 407 435 464 481 491 485 489 493
1370.0 519 569 632 708 740 732 645 556 463 399
1410.0 348 317 298 284 284 300 342 378 455 519
1450.0 625 711 823 897 896 848 745 629 508 387
1490.0 291 224 191 162 142 132 127 113 106 103
1530.0 101 94 93 77 83 82 79 71 65 75
1570.0 74 68 69 72 72 68 67 64 66 64
1610.0 65 58 63 58 61 58 59 52 60 53
1650.0 58 40 53 61 54 53 53 51 57 45
1690.0 54 53 50 40 50 51 50 47 50 50
1730.0 47 48 43 50 47 48 46 52 44 47
1770.0 45 43 44 42 45 46 40 47 43 41
1810.0 42 43 45 43 44 40 43 41 43 37
1850.0 42 42 41 42 44 43 46 41 45 42
1890.0 44 43 35 42 42 39 39 41 37 39
1930.0 38 39 38 40 35 39 36 36 35 36
1970.0 39 37 34 35 36 36 37 36 36 38
2010.0 39 43 48 50 52 54 53 50 51 51
2050.0 50 50 47 49 45 41 39 36 32 32
2090.0 31 31 29 27 27 28 27 29 28 28
2130.0 29 28 29 29 26 25 26 24 27 28
2170.0 28 25 25 26 23 25 25 23 23 25
2210.0 23 26 22 24 25 22 21 23 24 22
2250.0 22 20 21 22 20 22 22 22 20 22
2290.0 22 21 18 21 22 23 25 24 28 24
2330.0 22 17 16 14 16 21 33 23 18 9
2370.0 4 3 3 8 10 16 19 18 21 20
2410.0 21 22 19 16 17 15 15 14 15 10
2450.0 11 11 11 9 8 5 5 4 3 5
2490.0 5 4 6 7 9 7 9 11 9 9
2530.0 14 14 12 13 13 18 16 19 18 21
2570.0 24 24 28 28 31 33 36 38 38 41
2610.0 44 46 47 54 57 59 59 62 64 67
2650.0 69 75 80 85 86 89 97 104 108 113
2690.0 115 111 112 110 107 109 110 117 123 124
2730.0 134 142 149 155 162 166 165 166 169 171
2770.0 177 183 188 201 214 233 249 261 280 298
2810.0 322 349 381 421 469 524 605 720 899 1199
2850.0 1654 2313 3098 3804 4223 4278 4048 3818 3595 3322
2890.0 3026 2783 2741 2914 3241 3721 4387 5325 6619 8129
2930.0 9418 10000 9846 9037 7657 6257 5056 4398 4210 4327
2970.0 4187 3588 2653 1760 1205 888 690 574 489 421
3010.0 367 326 290 263 236 215 192 174 157 137
3050.0 131 121 112 100 97 92 86 82 79 76
3090.0 73 67 62 56 56 52 49 51 50 47
3130.0 43 39 44 39 40 37 35 32 36 36
3170.0 34 35 32 38 32 31 34 27 24 25
3210.0 23 14 12 14 7 7 9 11 14 16
3250.0 13 10 12 10 7 8 5 5 8 14
3290.0 13 14 14 16 7 5 11 11 3 6
3330.0 8 8 9 9 10 13 12 10 4 5
3370.0 9 12 10 10 11 8 11 10 8 11
3410.0 13 11 14 9 10 17 14 13 16 8
3450.0 12 16 15 20 15 14 18 22 17 17
3490.0 14 14 14 18 20 12 20 20 19 12
3530.0 10 6 5 4 9 12 15 12 14 17
3570.0 14 16 13 15 22 11 22 27 28 26
3610.0 39 45 52 55 58 65 74 91 124 158
3650.0 215 288 357 423 474 515 489 434 330 252
3690.0 162 120 94 79 72 61 52 51 45 41
3730.0 41 46 42 36 42 24 26 32 33 41
3770.0 39 30 38 21 32 39 31 55 39 38
3810.0 55 30 25 36 66 43 73 54 40 37
3850.0 64 57 35 43 38 59 60 51 53 47
3890.0 56 61 59 20 41 49 45 28 60 37
3930.0 40 36 49 42 56 43 41 61 28 31
##END=
