##TITLE=Oleyl Alcohol
##JCAMP-DX=4.24
##DATA TYPE=INFRARED SPECTRUM
##ORIGIN=Sadtler Research Labs Under US-EPA Contract
##OWNER=NIST Standard Reference Data Program
##CAS REGISTRY NO=143-28-2
##MOLFORM=C 18 H 36 O
##XUNITS=1/CM
##YUNITS=ABSORBANCE
##XFACTOR=1.0
##YFACTOR=0.000190573
##DELTAX=4.0
##FIRSTX=450.0
##LASTX=3966.0
##FIRSTY=0.058697
##MAXX=3966
##MINX=450
##MAXY=1.90573
##MINY=0
##NPOINTS=880
##XYDATA=(X++(Y..Y))
450.0 308 96 334 359 41 161 10 167 274 184
490.0 0 87 39 81 90 132 126 74 44 107
530.0 55 101 40 34 115 176 26 90 65 78
570.0 83 55 75 90 88 94 91 90 90 78
610.0 79 75 64 88 84 72 83 77 83 94
650.0 81 99 92 110 103 126 148 159 182 192
690.0 213 230 254 274 309 335 354 370 368 353
730.0 320 287 256 237 201 183 158 163 145 252
770.0 135 141 136 122 116 125 102 102 111 119
810.0 137 96 68 116 101 100 101 109 112 125
850.0 132 129 142 129 133 128 136 141 145 147
890.0 153 153 147 158 155 156 158 166 168 173
930.0 178 186 198 210 230 244 269 308 359 388
970.0 399 370 355 347 348 355 361 384 408 449
1010.0 488 539 594 662 726 797 863 916 944 959
1050.0 956 925 872 795 717 645 578 517 467 418
1090.0 370 323 282 252 228 216 203 193 184 178
1130.0 170 165 161 155 156 150 150 154 156 163
1170.0 166 170 169 177 183 196 200 201 196 199
1210.0 197 200 201 200 204 208 209 218 223 223
1250.0 229 235 241 247 251 257 258 261 263 266
1290.0 276 280 288 297 304 308 307 302 293 290
1330.0 291 305 329 363 400 426 427 404 385 378
1370.0 371 371 380 403 404 386 358 344 343 330
1410.0 278 235 218 214 225 255 307 384 475 559
1450.0 646 722 802 824 773 664 530 412 313 236
1490.0 190 151 130 108 94 86 74 68 63 60
1530.0 51 53 47 46 47 44 44 39 40 38
1570.0 39 39 38 38 38 36 40 41 42 37
1610.0 37 40 37 38 42 43 43 48 57 65
1650.0 69 67 63 54 52 50 50 48 45 43
1690.0 42 44 40 38 39 34 33 35 32 31
1730.0 30 31 29 30 32 33 32 28 27 24
1770.0 23 23 24 21 23 23 22 23 22 22
1810.0 22 24 21 20 20 20 21 20 19 19
1850.0 20 19 20 16 16 18 18 17 18 20
1890.0 18 19 19 20 19 19 17 20 18 20
1930.0 21 19 20 19 17 16 17 15 16 15
1970.0 17 16 16 17 15 16 15 18 19 19
2010.0 22 22 25 26 29 30 31 31 33 31
2050.0 31 33 31 28 28 25 28 28 26 25
2090.0 22 20 19 18 20 17 19 17 17 18
2130.0 18 18 16 16 19 17 17 20 16 18
2170.0 18 18 18 19 18 20 19 17 20 19
2210.0 20 16 17 17 18 19 18 17 17 18
2250.0 16 19 18 17 16 19 22 21 22 22
2290.0 25 26 27 26 30 32 27 25 30 26
2330.0 20 24 18 15 24 25 20 19 17 16
2370.0 19 21 26 26 28 26 22 24 26 24
2410.0 25 27 23 26 25 28 26 26 25 25
2450.0 26 25 25 26 25 26 28 29 29 28
2490.0 33 31 31 32 34 37 36 35 38 40
2530.0 41 41 40 41 42 43 45 47 45 47
2570.0 49 48 48 53 51 53 56 57 57 62
2610.0 59 64 65 68 71 76 82 82 84 86
2650.0 90 92 99 105 107 109 117 119 122 125
2690.0 124 124 121 120 121 121 121 121 123 124
2730.0 127 135 140 143 147 152 156 162 164 169
2770.0 176 180 192 208 219 238 254 273 292 319
2810.0 346 383 419 469 526 603 703 845 1048 1346
2850.0 1798 2443 3289 4005 4189 3838 3327 2923 2695 2533
2890.0 2416 2406 2533 2816 3238 3764 4423 5300 6549 8078
2930.0 9354 10000 9651 8171 6560 5156 4109 3484 3185 2995
2970.0 2715 2249 1708 1298 1024 854 747 707 726 846
3010.0 1013 1095 976 743 529 395 314 263 228 203
3050.0 182 168 161 155 147 136 128 116 107 99
3090.0 94 89 86 80 78 76 79 69 69 68
3130.0 61 62 62 64 65 57 55 54 57 57
3170.0 55 50 51 49 49 54 50 45 43 44
3210.0 40 40 38 34 33 35 35 30 32 33
3250.0 37 25 30 32 32 33 28 27 34 34
3290.0 29 27 32 25 30 22 21 32 30 30
3330.0 19 23 17 24 26 23 28 25 30 26
3370.0 29 35 22 24 29 30 31 37 23 30
3410.0 37 26 34 40 41 30 34 37 47 38
3450.0 35 36 40 32 40 37 38 38 40 31
3490.0 42 40 46 36 39 36 41 41 40 30
3530.0 39 32 40 39 42 41 44 33 30 51
3570.0 45 44 48 39 51 50 52 52 42 53
3610.0 55 62 70 67 81 88 86 96 110 136
3650.0 153 198 221 255 271 286 271 235 182 154
3690.0 122 96 88 72 57 70 56 59 62 38
3730.0 54 64 50 69 68 59 67 47 41 57
3770.0 35 48 54 50 61 52 55 54 66 57
3810.0 59 51 57 47 57 66 62 53 68 60
3850.0 57 70 73 55 41 69 59 81 69 49
3890.0 47 51 42 50 63 60 55 44 41 66
3930.0 75 59 40 68 58 68 60 55 67 77
##END=
