##TITLE=Benzenemethanamine, N-ethyl-
##JCAMP-DX=4.24
##DATA TYPE=INFRARED SPECTRUM
##ORIGIN=Sadtler Research Labs Under US-EPA Contract
##OWNER=NIST Standard Reference Data Program
##CAS REGISTRY NO=14321-27-8
##MOLFORM=C 9 H 13 N
##XUNITS=1/CM
##YUNITS=ABSORBANCE
##XFACTOR=1.0
##YFACTOR=0.000043628
##DELTAX=4.0
##FIRSTX=450.0
##LASTX=3966.0
##FIRSTY=0.000000
##MAXX=3966
##MINX=450
##MAXY=0.43628
##MINY=0
##NPOINTS=880
##XYDATA=(X++(Y..Y))
450.0 0 309 330 352 303 391 364 517 485 329
490.0 323 433 491 357 395 286 340 285 297 304
530.0 250 405 606 446 509 545 555 820 809 956
570.0 1054 1200 1308 1428 1462 1486 1419 1285 1168 977
610.0 891 872 840 852 865 904 960 1019 1042 1262
650.0 1372 1575 1764 1939 2260 2709 3112 3663 4425 5577
690.0 6912 8048 8912 8706 8230 7526 7011 6578 6362 6440
730.0 6587 6993 7005 6459 5548 4497 3577 2779 2117 1603
770.0 1279 1008 911 894 926 980 1049 1087 1049 1049
810.0 990 936 895 868 759 669 589 488 467 417
850.0 442 398 420 413 406 401 405 429 415 447
890.0 474 539 626 750 779 746 659 542 474 404
930.0 396 350 368 366 391 403 444 514 585 688
970.0 801 923 913 879 811 747 714 705 760 810
1010.0 894 992 1177 1525 1840 1750 1580 1202 747 628
1050.0 638 755 931 1140 1358 1477 1492 1416 1329 1242
1090.0 1284 1424 1675 1978 2351 2816 3426 4297 5234 5993
1130.0 6419 6397 5938 5215 4413 3566 2795 2248 1872 1558
1170.0 1335 1140 1020 950 964 1047 1174 1275 1317 1257
1210.0 1132 1023 944 877 824 775 764 787 832 869
1250.0 887 892 918 946 988 1026 1025 1040 1057 1078
1290.0 1076 1089 1153 1275 1405 1505 1628 1761 1938 2127
1330.0 2279 2316 2306 2314 2323 2401 2541 2489 2345 2265
1370.0 2212 2410 2695 2766 2619 2177 1716 1343 1119 988
1410.0 949 928 996 1087 1225 1513 2001 2778 3706 4686
1450.0 5519 6006 6239 5976 5385 4399 3388 2547 2027 1945
1490.0 2301 2550 2491 2171 1585 926 630 534 511 485
1530.0 473 480 482 479 449 424 408 420 432 401
1570.0 432 448 536 579 638 737 831 963 1091 1166
1610.0 1062 914 699 505 446 402 435 428 457 520
1650.0 610 651 634 514 427 384 350 364 353 388
1690.0 341 349 371 401 385 376 398 402 372 359
1730.0 393 408 411 385 395 387 397 367 363 354
1770.0 387 382 380 410 432 512 614 700 751 717
1810.0 619 535 479 440 436 418 404 390 403 425
1850.0 423 451 487 515 539 560 573 561 548 503
1890.0 457 404 371 350 331 334 327 368 388 436
1930.0 478 558 612 660 689 719 693 627 560 453
1970.0 381 338 328 320 323 323 325 321 311 314
2010.0 310 313 312 300 303 290 286 274 277 275
2050.0 271 272 266 251 247 239 239 240 241 261
2090.0 267 273 282 282 287 289 301 294 304 293
2130.0 298 284 286 289 282 278 269 272 262 270
2170.0 267 255 261 247 253 251 256 248 264 255
2210.0 252 245 241 241 238 247 254 262 264 276
2250.0 268 276 283 272 281 268 265 266 268 266
2290.0 270 267 270 269 277 299 294 286 282 276
2330.0 282 294 291 329 347 289 236 240 365 412
2370.0 439 419 394 368 322 300 279 272 268 271
2410.0 268 279 279 272 284 273 285 276 279 275
2450.0 270 271 274 284 287 284 287 297 287 283
2490.0 281 279 276 279 278 279 282 270 277 264
2530.0 272 266 267 280 274 298 306 316 317 337
2570.0 354 375 393 409 434 445 475 481 497 514
2610.0 522 530 529 544 548 558 562 560 532 549
2650.0 573 566 592 595 582 578 591 617 650 698
2690.0 757 823 859 892 888 914 909 945 991 1024
2730.0 1073 1134 1205 1262 1315 1365 1415 1446 1511 1585
2770.0 1712 1888 2112 2369 2731 3155 3629 4142 4768 5426
2810.0 6119 6842 7422 7749 7774 7477 7001 6491 6002 5545
2850.0 5130 4733 4379 4141 4035 4211 4526 5020 5416 5617
2890.0 5655 5542 5487 5459 5441 5440 5484 5568 5756 5976
2930.0 6211 6337 6393 6353 6168 5890 5792 6038 6913 8206
2970.0 9439 10000 9614 8213 6409 4792 3455 2581 2131 1989
3010.0 1977 2167 2552 3183 4091 5009 5529 5645 5250 4374
3050.0 3600 3115 3074 3533 4559 5435 5572 5376 4426 3475
3090.0 3038 2712 2415 2050 1736 1462 1216 1032 812 651
3130.0 531 464 434 391 362 342 348 356 391 409
3170.0 400 442 385 390 370 336 322 322 309 317
3210.0 327 328 337 339 329 301 311 307 271 317
3250.0 298 293 286 262 311 326 297 299 262 262
3290.0 296 295 289 292 285 302 316 305 342 331
3330.0 324 306 293 337 335 323 362 322 357 349
3370.0 322 343 340 339 343 345 339 330 334 294
3410.0 336 338 334 312 289 300 325 319 351 368
3450.0 304 290 285 323 329 280 301 316 341 335
3490.0 294 293 314 375 301 332 303 338 270 294
3530.0 311 309 323 299 329 329 309 293 242 252
3570.0 309 298 294 305 289 236 244 302 317 292
3610.0 325 285 276 333 330 333 301 282 312 305
3650.0 331 317 308 349 299 295 303 330 264 278
3690.0 278 268 258 249 277 346 294 306 298 330
3730.0 309 266 299 262 308 294 357 285 258 248
3770.0 267 333 275 299 300 286 301 308 288 295
3810.0 296 247 254 320 263 280 290 231 248 299
3850.0 274 276 310 317 346 324 305 338 336 338
3890.0 314 296 296 294 344 309 350 348 406 340
3930.0 332 277 315 293 344 371 325 276 362 348
##END=
