##TITLE=Cyclobutanecarbonitrile, 1-phenyl-
##JCAMP-DX=4.24
##DATA TYPE=INFRARED SPECTRUM
##ORIGIN=Sadtler Research Labs Under US-EPA Contract
##OWNER=NIST Standard Reference Data Program
##CAS REGISTRY NO=14377-68-5
##MOLFORM=C 11 H 11 N
##XUNITS=1/CM
##YUNITS=ABSORBANCE
##XFACTOR=1.0
##YFACTOR=0.000053775
##DELTAX=4.0
##FIRSTX=450.0
##LASTX=3966.0
##FIRSTY=0.003227
##MAXX=3966
##MINX=450
##MAXY=0.53775
##MINY=0
##NPOINTS=880
##XYDATA=(X++(Y..Y))
450.0 60 27 92 29 60 100 124 191 228 324
490.0 386 479 557 669 764 678 620 492 373 387
530.0 441 631 810 947 1011 982 855 670 521 439
570.0 319 189 158 94 68 34 57 31 27 35
610.0 39 24 27 11 15 50 57 71 92 140
650.0 210 355 611 854 1076 1581 1939 2583 3437 4405
690.0 5516 6767 6892 5931 4924 3841 2813 2097 1649 1543
730.0 1652 2029 2570 3208 3941 4532 4549 4061 3320 2488
770.0 1721 1128 728 489 376 327 292 221 151 94
810.0 45 14 11 9 0 5 31 69 108 161
850.0 188 193 186 156 161 154 144 160 170 164
890.0 154 136 135 137 182 210 241 300 362 404
930.0 386 327 257 198 125 87 52 30 27 23
970.0 19 27 34 46 69 86 104 131 173 255
1010.0 435 798 1308 1589 1618 1338 797 410 218 136
1050.0 115 124 164 218 299 384 458 480 473 440
1090.0 390 331 302 271 240 222 195 155 133 122
1130.0 116 116 139 187 252 308 312 282 224 176
1170.0 176 215 290 357 363 331 259 173 108 77
1210.0 79 80 97 137 199 267 329 395 469 566
1250.0 664 710 736 759 827 965 1179 1418 1586 1628
1290.0 1496 1247 991 740 542 407 331 290 258 247
1330.0 234 208 180 128 82 58 41 41 46 55
1370.0 68 95 100 101 104 106 95 99 92 114
1410.0 151 209 327 497 720 1008 1360 1745 2020 2167
1450.0 2112 1951 1762 1532 1382 1242 1163 1063 1034 1303
1490.0 1999 2822 3206 3030 2404 1352 622 337 257 203
1530.0 180 161 147 128 88 58 55 66 65 81
1570.0 122 192 285 386 550 803 1130 1426 1554 1425
1610.0 1089 689 375 180 107 62 54 53 42 62
1650.0 88 133 120 116 99 75 53 28 33 50
1690.0 26 29 51 56 56 76 108 157 166 184
1730.0 202 230 214 198 171 145 102 71 55 48
1770.0 64 85 98 146 245 370 474 488 436 325
1810.0 212 156 123 93 71 53 39 36 43 62
1850.0 78 105 138 184 218 239 255 274 290 286
1890.0 253 190 112 50 31 31 35 55 82 107
1930.0 147 200 253 300 333 354 387 394 362 297
1970.0 205 110 44 22 16 16 16 9 7 8
2010.0 1 0 3 5 0 4 4 5 8 9
2050.0 13 14 18 19 22 21 20 15 17 15
2090.0 21 24 30 38 44 52 51 47 45 47
2130.0 43 49 55 67 73 84 98 107 118 125
2170.0 132 124 111 98 82 66 56 54 53 62
2210.0 85 122 188 290 439 598 706 740 687 544
2250.0 349 199 125 95 85 84 83 85 88 97
2290.0 100 106 107 114 115 140 151 162 168 153
2330.0 116 96 90 88 91 95 82 73 47 39
2370.0 42 45 52 57 49 41 35 33 36 33
2410.0 33 33 36 39 38 47 49 46 44 40
2450.0 36 31 30 26 27 26 25 26 24 22
2490.0 24 19 16 15 12 10 6 10 8 11
2530.0 9 4 8 6 7 7 0 2 0 4
2570.0 6 11 10 14 22 31 40 39 47 47
2610.0 52 54 51 56 56 53 48 52 56 56
2650.0 62 69 73 72 75 67 62 48 42 39
2690.0 40 43 45 51 56 61 66 66 66 60
2730.0 51 42 39 37 43 39 39 36 41 44
2770.0 47 55 59 65 74 70 74 75 75 83
2810.0 91 99 108 113 122 128 145 164 194 238
2850.0 304 399 539 716 904 1100 1287 1437 1677 1903
2890.0 1970 1955 1809 1553 1363 1236 1166 1179 1298 1473
2930.0 1640 1813 2018 2362 3008 4064 5499 6981 8136 8379
2970.0 7608 6590 5787 5417 5335 5694 6861 9073 10000 9628
3010.0 8313 5380 3072 2310 2241 2510 2975 3403 3559 3399
3050.0 2970 2481 2383 2773 3628 4637 5053 4905 4270 3232
3090.0 2565 2328 2144 1951 1711 1452 1188 931 674 459
3130.0 307 215 162 138 122 122 114 126 137 136
3170.0 143 135 119 102 94 95 76 71 72 59
3210.0 60 57 54 49 41 41 39 44 47 44
3250.0 48 54 47 56 51 48 51 46 50 47
3290.0 46 49 47 45 39 36 32 32 28 24
3330.0 18 25 30 21 24 14 16 33 38 28
3370.0 30 32 47 53 54 55 60 49 41 35
3410.0 30 36 31 27 27 20 23 23 22 32
3450.0 26 27 21 20 29 31 31 29 28 28
3490.0 40 38 42 32 29 28 42 41 49 32
3530.0 36 35 34 30 28 32 32 36 33 34
3570.0 31 32 17 25 19 15 11 11 0 9
3610.0 22 28 33 22 35 37 27 35 32 45
3650.0 66 67 73 59 66 80 69 65 49 61
3690.0 52 56 58 56 59 54 58 56 60 52
3730.0 62 55 74 61 68 66 53 60 49 38
3770.0 51 29 22 41 44 46 48 46 46 41
3810.0 45 51 43 44 41 55 45 66 59 58
3850.0 56 55 56 60 60 54 33 54 53 51
3890.0 52 74 51 52 34 44 48 62 43 42
3930.0 48 45 45 67 42 44 43 33 54 44
##END=
