##TITLE=Pyridine, 4-(cyclohexylamino)-5-ethyl-2-(1,3,4-oxadiazol-2-yl)-,
##JCAMP-DX=4.24
##DATA TYPE=INFRARED SPECTRUM
##ORIGIN=Sadtler Research Labs Under US-EPA Contract
##OWNER=NIST Standard Reference Data Program
##CAS REGISTRY NO=14418-80-5
##MOLFORM=C 15 H 20 N 4 O
##XUNITS=1/CM
##YUNITS=ABSORBANCE
##XFACTOR=1.0
##YFACTOR=0.000050305
##DELTAX=4.0
##FIRSTX=450.0
##LASTX=3966.0
##FIRSTY=0.000000
##MAXX=3966
##MINX=450
##MAXY=0.50305
##MINY=0
##NPOINTS=880
##XYDATA=(X++(Y..Y))
450.0 0 333 432 402 285 448 369 391 357 393
490.0 401 402 449 465 568 625 701 690 618 574
530.0 520 464 448 435 435 444 399 396 405 399
570.0 416 362 355 371 341 342 347 373 375 369
610.0 384 385 393 385 399 403 412 412 408 421
650.0 458 542 580 632 664 628 602 562 566 571
690.0 647 758 902 1226 1768 2423 2655 2328 1585 955
730.0 766 801 885 973 1037 1194 1389 1625 1802 1997
770.0 2048 1833 1660 1560 1447 1431 1450 1497 1453 1392
810.0 1301 1308 1331 1393 1630 1653 1211 982 771 580
850.0 489 453 445 434 458 481 473 530 543 594
890.0 600 563 529 495 468 461 455 476 548 649
930.0 821 962 1191 1155 1068 1050 988 1074 1297 1471
970.0 1522 1408 1261 1323 1444 1335 1097 818 719 792
1010.0 899 996 1064 1118 1084 996 843 695 612 592
1050.0 607 673 835 1040 1236 1272 1155 1015 1014 1128
1090.0 1275 1322 1244 1101 926 814 734 682 641 625
1130.0 624 604 572 542 534 507 483 460 462 475
1170.0 479 480 484 488 493 531 599 719 824 865
1210.0 855 848 827 798 731 641 602 591 583 613
1250.0 704 879 1125 1230 1127 867 603 503 472 455
1290.0 426 407 389 381 387 384 415 453 494 505
1330.0 516 537 582 660 718 776 780 789 787 816
1370.0 821 844 796 744 679 678 673 757 890 1116
1410.0 1374 1501 1481 1310 1115 981 935 933 932 1003
1450.0 1041 1286 1313 1081 1163 1156 1137 1148 1203 1236
1490.0 1119 980 750 651 695 860 998 1301 1696 2025
1530.0 2277 2569 2621 2509 2257 1754 1474 1373 1497 1678
1570.0 1739 1560 1304 954 827 858 906 991 1155 1367
1610.0 1433 1331 1107 922 805 728 674 600 539 517
1650.0 459 447 399 348 338 339 298 322 309 347
1690.0 340 356 348 365 333 320 340 358 366 378
1730.0 416 433 447 422 422 393 393 338 331 296
1770.0 304 282 284 292 287 279 277 258 256 262
1810.0 247 261 259 259 258 259 259 274 275 301
1850.0 284 280 281 287 303 340 376 385 391 366
1890.0 353 357 373 368 346 324 302 316 315 323
1930.0 340 356 371 365 358 330 326 322 320 305
1970.0 309 296 295 285 281 278 279 288 282 283
2010.0 281 279 284 289 287 285 286 289 295 294
2050.0 288 287 292 297 294 293 289 289 287 284
2090.0 283 283 285 281 281 284 280 282 287 285
2130.0 283 281 281 281 290 284 290 297 295 291
2170.0 295 296 293 299 297 295 296 297 298 294
2210.0 293 294 294 294 298 296 297 297 298 300
2250.0 300 310 317 320 322 325 323 323 323 320
2290.0 316 322 328 332 343 346 348 347 360 354
2330.0 357 349 331 352 328 336 366 349 369 352
2370.0 332 329 318 311 303 295 287 290 290 286
2410.0 286 287 285 289 289 296 303 301 304 293
2450.0 293 292 293 290 288 290 290 293 296 293
2490.0 293 294 297 298 295 300 299 297 303 309
2530.0 307 316 318 325 327 319 322 319 324 331
2570.0 329 332 338 343 350 352 358 362 365 371
2610.0 375 377 379 381 385 385 390 393 392 398
2650.0 417 431 447 458 470 476 477 458 446 436
2690.0 429 425 421 423 421 419 410 409 407 401
2730.0 404 404 407 407 407 406 403 412 417 421
2770.0 426 440 459 470 485 496 521 536 556 573
2810.0 600 633 678 735 807 901 1035 1243 1521 1900
2850.0 2310 2773 3148 3473 3507 3121 2791 2441 2087 1856
2890.0 1772 1832 2037 2430 2954 3663 4360 5167 6056 7123
2930.0 8828 10000 9279 8229 7383 6054 4554 3237 2116 1426
2970.0 1005 775 650 586 542 522 516 519 533 540
3010.0 550 559 566 575 604 664 749 878 1021 1135
3050.0 1133 1063 905 768 709 683 692 712 729 730
3090.0 686 625 547 491 469 502 529 515 484 395
3130.0 348 348 338 342 337 338 330 326 323 320
3170.0 322 313 312 314 310 308 302 302 304 302
3210.0 289 293 301 301 303 300 301 299 312 304
3250.0 302 309 313 306 314 309 303 302 298 299
3290.0 306 308 309 313 309 312 317 327 335 345
3330.0 351 355 367 359 355 348 338 321 316 317
3370.0 318 312 309 317 317 318 317 314 311 317
3410.0 318 317 305 303 304 306 307 300 296 297
3450.0 311 311 304 310 309 307 310 306 312 321
3490.0 315 299 302 295 291 318 305 307 303 298
3530.0 292 295 303 309 301 314 297 294 302 306
3570.0 322 298 297 307 294 327 301 295 298 286
3610.0 308 294 308 298 303 324 295 309 296 318
3650.0 308 307 326 289 325 285 301 294 306 323
3690.0 319 312 321 327 315 337 308 310 309 332
3730.0 322 332 311 340 340 327 328 299 320 318
3770.0 291 302 296 311 322 322 312 298 303 310
3810.0 312 295 300 322 306 315 299 301 311 302
3850.0 304 321 303 285 293 309 301 302 317 313
3890.0 308 311 306 344 320 323 314 310 294 300
3930.0 321 312 327 322 310 295 318 302 304 317
##END=
