##TITLE=Acetic acid, cyano-, 1-methylpropyl ester
##JCAMP-DX=4.24
##DATA TYPE=INFRARED SPECTRUM
##ORIGIN=Sadtler Research Labs Under US-EPA Contract
##OWNER=NIST Standard Reference Data Program
##CAS REGISTRY NO=14447-16-6
##MOLFORM=C 7 H 11 N O 2
##XUNITS=1/CM
##YUNITS=ABSORBANCE
##XFACTOR=1.0
##YFACTOR=0.000114246
##DELTAX=4.0
##FIRSTX=450.0
##LASTX=3966.0
##FIRSTY=0.013367
##MAXX=3966
##MINX=450
##MAXY=1.14246
##MINY=0
##NPOINTS=880
##XYDATA=(X++(Y..Y))
450.0 117 127 172 164 103 78 80 99 97 119
490.0 64 80 97 55 56 56 36 14 42 19
530.0 18 19 7 0 7 15 27 28 38 41
570.0 50 81 120 138 163 182 211 208 191 174
610.0 146 116 109 97 78 68 60 61 41 44
650.0 38 39 42 32 44 60 67 81 99 94
690.0 106 88 72 53 53 50 36 55 66 69
730.0 82 89 85 83 62 77 66 76 67 66
770.0 92 102 117 132 132 116 101 85 85 91
810.0 98 108 109 127 162 212 278 339 400 478
850.0 596 741 866 899 835 676 506 370 267 194
890.0 143 118 113 116 122 143 175 222 287 390
930.0 499 625 717 744 721 638 573 563 630 765
970.0 947 1108 1239 1344 1439 1497 1519 1449 1254 1021
1010.0 823 704 714 801 843 785 648 442 276 216
1050.0 191 188 197 207 216 249 291 374 537 835
1090.0 1269 1645 1849 1936 1885 1942 2180 2468 2666 2550
1130.0 2206 1846 1438 1119 1064 1230 1563 2034 2597 3149
1170.0 3608 3867 3930 3848 3721 3597 3428 3161 2759 2326
1210.0 1985 1777 1649 1597 1601 1656 1779 1996 2334 2848
1250.0 3614 4691 6088 7495 8477 8611 7821 6347 4754 3615
1290.0 2967 2644 2437 2269 2078 1896 1771 1747 1823 1930
1330.0 1948 1803 1531 1170 931 879 928 994 1000 937
1370.0 857 819 867 983 1097 1127 1038 875 705 612
1410.0 589 590 577 516 446 374 357 367 404 467
1450.0 565 669 780 837 848 799 671 518 376 264
1490.0 189 132 104 83 77 71 59 61 61 60
1530.0 57 54 58 62 56 56 54 61 57 51
1570.0 57 56 56 52 46 49 42 46 44 49
1610.0 44 42 45 41 46 41 53 54 57 59
1650.0 73 74 76 75 84 89 93 98 105 123
1690.0 128 149 176 211 254 308 381 463 549 615
1730.0 727 857 1106 1511 2322 3573 5370 7393 9089 10000
1770.0 9523 8140 5881 3991 2531 1625 1085 812 643 539
1810.0 454 389 322 273 230 193 165 140 129 112
1850.0 102 90 89 79 78 72 67 64 61 57
1890.0 55 59 55 55 52 49 45 40 40 33
1930.0 28 26 24 24 24 24 23 22 20 17
1970.0 16 14 13 11 5 7 3 6 4 3
2010.0 4 3 4 3 5 5 6 5 6 7
2050.0 5 3 2 4 1 3 1 1 3 4
2090.0 6 4 7 11 11 16 18 21 20 22
2130.0 22 15 12 10 7 6 1 1 1 2
2170.0 2 0 0 0 0 1 3 6 6 7
2210.0 6 8 8 4 8 9 8 11 14 20
2250.0 27 34 38 42 45 44 36 27 18 10
2290.0 10 9 13 14 14 17 11 17 14 13
2330.0 14 18 17 20 30 29 27 20 22 30
2370.0 31 25 26 26 23 15 10 11 9 8
2410.0 5 6 4 4 1 1 4 3 4 1
2450.0 3 6 4 5 7 7 8 9 6 4
2490.0 6 8 8 9 11 15 14 16 19 17
2530.0 22 21 18 14 12 10 8 4 3 4
2570.0 4 4 4 6 5 8 7 9 9 13
2610.0 15 15 17 13 14 12 12 11 12 10
2650.0 9 7 10 9 9 10 9 12 15 15
2690.0 21 20 20 25 23 20 25 26 30 33
2730.0 41 39 41 45 46 51 51 53 50 45
2770.0 43 38 39 33 33 36 37 39 43 50
2810.0 53 59 63 72 79 90 103 110 120 132
2850.0 149 171 203 241 278 321 368 441 546 689
2890.0 815 864 827 741 632 562 549 582 677 819
2930.0 1016 1243 1450 1626 1743 1745 1671 1533 1394 1392
2970.0 1622 2097 2801 3441 3730 3541 2908 2055 1350 860
3010.0 539 366 269 212 180 151 142 127 113 103
3050.0 98 90 86 85 82 77 77 79 72 73
3090.0 74 73 69 70 64 60 58 56 53 50
3130.0 46 43 45 43 47 44 46 48 46 50
3170.0 49 51 56 52 47 48 45 48 43 45
3210.0 39 38 37 35 37 37 36 31 31 22
3250.0 24 18 16 20 9 8 14 11 11 14
3290.0 12 11 8 11 4 7 9 9 14 12
3330.0 10 10 10 13 10 12 11 10 10 15
3370.0 12 14 15 16 17 15 16 18 12 12
3410.0 14 17 10 14 17 15 14 14 13 13
3450.0 14 17 16 13 17 9 19 16 22 25
3490.0 32 44 54 65 70 76 74 70 57 49
3530.0 41 35 28 16 9 11 3 5 5 13
3570.0 5 5 11 6 9 8 7 2 6 4
3610.0 4 6 5 1 2 12 12 8 13 10
3650.0 9 13 11 1 7 6 4 6 8 6
3690.0 15 11 4 6 9 8 17 14 9 14
3730.0 12 7 16 17 16 5 3 13 7 13
3770.0 5 21 11 13 11 2 6 8 14 9
3810.0 13 20 13 15 6 6 5 6 11 12
3850.0 10 8 17 15 21 8 8 12 8 20
3890.0 7 12 10 14 20 17 30 18 25 13
3930.0 7 17 15 18 0 17 17 2 7 23
##END=
