##TITLE=4-Undecanone
##JCAMP-DX=4.24
##DATA TYPE=INFRARED SPECTRUM
##ORIGIN=Sadtler Research Labs Under US-EPA Contract
##OWNER=NIST Standard Reference Data Program
##CAS REGISTRY NO=14476-37-0
##MOLFORM=C 11 H 22 O
##XUNITS=1/CM
##YUNITS=ABSORBANCE
##XFACTOR=1.0
##YFACTOR=0.000120984
##DELTAX=4.0
##FIRSTX=450.0
##LASTX=3966.0
##FIRSTY=0.000000
##MAXX=3966
##MINX=450
##MAXY=1.20984
##MINY=0
##NPOINTS=880
##XYDATA=(X++(Y..Y))
450.0 0 58 70 87 80 76 38 72 15 65
490.0 112 55 105 97 111 94 102 100 122 105
530.0 141 97 85 148 118 107 106 96 113 90
570.0 112 112 88 72 109 67 57 71 82 103
610.0 99 120 109 132 160 154 107 98 115 125
650.0 68 82 69 68 68 47 55 53 55 52
690.0 69 63 77 100 127 159 189 226 236 255
730.0 249 237 213 207 195 198 193 193 200 195
770.0 197 187 186 172 165 166 153 153 144 150
810.0 141 135 130 123 110 108 118 109 106 103
850.0 107 106 115 118 123 134 152 165 181 205
890.0 219 228 216 195 173 150 135 116 108 103
930.0 104 98 98 95 96 101 106 113 130 134
970.0 148 169 204 244 294 342 393 438 488 515
1010.0 547 546 536 513 487 483 496 528 566 601
1050.0 631 661 681 674 641 581 514 461 426 399
1090.0 389 379 386 414 453 527 621 736 869 1002
1130.0 1113 1151 1106 1020 948 906 879 847 796 725
1170.0 653 606 582 575 575 581 584 570 541 499
1210.0 454 422 410 413 411 407 402 397 402 410
1250.0 424 444 478 523 582 634 641 626 610 614
1290.0 642 668 682 673 642 612 579 557 541 551
1330.0 584 637 728 846 998 1186 1389 1569 1672 1658
1370.0 1537 1356 1173 1040 935 809 681 599 567 594
1410.0 661 740 806 803 774 745 754 778 837 935
1450.0 1081 1255 1441 1529 1500 1368 1146 869 624 466
1490.0 366 286 245 211 192 177 155 144 135 116
1530.0 109 101 102 104 95 86 81 92 82 74
1570.0 74 78 79 76 73 72 72 72 73 74
1610.0 79 81 87 84 92 86 99 104 104 108
1650.0 120 128 129 135 157 176 212 246 303 358
1690.0 417 511 647 856 1171 1668 2380 3341 4351 5090
1730.0 5156 4419 3264 2222 1435 996 729 582 481 431
1770.0 404 380 356 334 310 272 248 211 184 155
1810.0 138 125 107 97 85 80 69 65 62 62
1850.0 58 52 53 50 51 52 48 49 50 50
1890.0 49 49 47 50 47 48 46 49 48 44
1930.0 46 42 46 46 48 43 45 43 40 40
1970.0 43 42 41 40 38 40 36 35 37 39
2010.0 41 45 49 47 49 45 42 41 40 38
2050.0 36 40 48 45 36 40 38 43 46 51
2090.0 57 58 55 50 50 48 49 48 50 52
2130.0 50 55 54 54 54 57 58 57 57 57
2170.0 60 60 60 60 65 62 63 59 59 60
2210.0 58 59 59 59 57 57 51 49 54 52
2250.0 52 50 50 50 49 50 51 51 50 55
2290.0 58 63 68 76 80 89 89 95 101 79
2330.0 82 66 64 63 37 57 118 104 61 17
2370.0 19 19 19 19 21 35 41 44 47 43
2410.0 47 44 40 38 40 36 35 36 37 32
2450.0 30 33 34 33 31 35 30 32 29 32
2490.0 34 33 32 23 28 26 26 28 29 35
2530.0 33 34 36 34 32 29 29 28 23 25
2570.0 23 19 20 24 23 21 25 25 28 29
2610.0 32 32 36 37 39 43 47 44 41 50
2650.0 65 72 84 88 100 98 93 92 97 102
2690.0 109 107 110 107 100 102 102 107 110 113
2730.0 123 132 144 159 168 170 164 156 162 152
2770.0 161 172 179 197 207 231 263 287 320 346
2810.0 381 421 448 481 520 572 640 744 886 1116
2850.0 1467 2016 2734 3467 3943 4108 4041 3992 4072 4135
2890.0 3996 3761 3687 3818 4061 4444 4981 5732 6683 7906
2930.0 9080 9810 10000 9539 8772 7790 7069 6833 7100 7759
2970.0 8166 7439 5905 4250 3040 2217 1657 1276 1027 842
3010.0 696 589 516 442 391 360 320 285 263 234
3050.0 219 188 167 158 146 143 139 134 123 123
3090.0 115 112 108 104 99 90 91 88 83 93
3130.0 88 74 92 101 102 113 113 112 115 108
3170.0 105 106 107 102 102 96 104 101 98 93
3210.0 94 96 97 90 87 82 79 80 87 88
3250.0 72 77 86 86 85 78 76 62 50 53
3290.0 55 45 44 37 41 44 19 37 41 49
3330.0 36 19 20 28 39 29 35 33 41 35
3370.0 38 40 43 38 39 34 38 38 45 49
3410.0 52 63 73 82 90 96 113 102 116 89
3450.0 76 60 52 54 50 47 32 38 39 36
3490.0 35 24 40 33 24 30 29 44 29 37
3530.0 41 28 33 28 34 39 39 39 49 68
3570.0 75 99 98 94 92 77 54 64 42 33
3610.0 40 36 43 50 46 54 51 46 39 40
3650.0 41 27 52 55 52 50 40 57 44 48
3690.0 56 36 35 41 60 52 43 50 42 39
3730.0 48 42 29 44 52 40 38 37 29 27
3770.0 41 36 39 34 44 38 29 39 50 26
3810.0 59 25 32 49 46 33 37 37 28 25
3850.0 40 19 19 32 32 30 19 19 38 24
3890.0 31 50 34 19 33 27 19 53 52 56
3930.0 49 20 26 26 34 21 33 39 46 60
##END=
