##TITLE=Ethanone, 1-(5-chloro-2-hydroxyphenyl)-
##JCAMP-DX=4.24
##DATA TYPE=INFRARED SPECTRUM
##ORIGIN=Sadtler Research Labs Under US-EPA Contract
##OWNER=NIST Standard Reference Data Program
##CAS REGISTRY NO=1450-74-4
##MOLFORM=C 8 H 7 Cl O 2
##XUNITS=1/CM
##YUNITS=ABSORBANCE
##XFACTOR=1.0
##YFACTOR=0.000098911
##DELTAX=4.0
##FIRSTX=450.0
##LASTX=3966.0
##FIRSTY=0.000000
##MAXX=3966
##MINX=450
##MAXY=0.98911
##MINY=0
##NPOINTS=880
##XYDATA=(X++(Y..Y))
450.0 0 57 64 134 122 131 191 239 304 311
490.0 404 500 529 555 575 600 601 839 832 686
530.0 546 459 374 308 312 313 325 325 333 351
570.0 340 344 352 367 373 416 434 501 540 610
610.0 659 779 940 1194 1487 1752 1819 1781 1779 1727
650.0 1978 1983 1995 1385 985 533 469 470 456 472
690.0 478 500 523 574 640 707 798 865 929 985
730.0 1004 1029 1236 1648 2095 2391 2418 2230 1839 1606
770.0 1565 1522 1491 1402 1262 1020 835 629 520 436
810.0 472 542 797 1105 1434 1973 1864 1252 1079 750
850.0 593 589 654 719 781 781 920 783 549 467
890.0 320 247 218 203 203 194 214 218 246 267
930.0 304 348 404 500 673 945 1243 1372 1344 1193
970.0 838 545 385 304 266 246 243 236 228 233
1010.0 246 266 288 312 333 322 290 266 240 230
1050.0 232 248 283 323 351 357 359 351 385 507
1090.0 774 1093 1227 1249 1099 746 541 467 430 440
1130.0 470 503 544 583 621 663 706 730 731 733
1170.0 742 792 914 1194 1743 2740 4290 6164 7376 7387
1210.0 6928 5273 3408 2635 2591 2845 3011 3017 2775 2312
1250.0 1846 1442 1127 943 952 1122 1510 2291 3762 5843
1290.0 7452 7952 7238 5583 4254 4080 4090 3676 3026 2288
1330.0 1775 1786 2089 2281 2419 2470 2437 2509 2788 3119
1370.0 3337 3376 3072 2562 2124 1882 1735 1656 1549 1464
1410.0 1373 1243 1184 1080 1060 1094 1196 1232 1391 1654
1450.0 2328 3225 4664 5681 6106 6390 5983 5392 4652 4090
1490.0 3122 2230 1697 1400 1305 1221 1144 1069 983 863
1530.0 780 732 687 705 672 682 732 866 1033 1192
1570.0 1424 1549 1625 1570 1453 1317 1233 1246 1300 1443
1610.0 1580 1725 1737 1681 1565 1441 1375 1506 1932 2689
1650.0 4264 6373 9260 9975 10000 7854 5014 2717 1617 1031
1690.0 768 623 595 562 556 523 534 547 500 487
1730.0 502 529 486 479 439 401 320 260 215 193
1770.0 207 213 201 198 191 171 162 140 142 126
1810.0 130 135 128 138 137 139 120 108 108 111
1850.0 95 88 94 96 104 112 105 104 117 129
1890.0 149 176 205 227 223 210 179 148 130 116
1930.0 106 108 104 109 106 101 97 90 87 91
1970.0 88 88 87 88 89 100 95 94 91 93
2010.0 89 92 98 99 103 108 112 116 119 113
2050.0 107 101 97 96 95 90 85 78 67 68
2090.0 67 65 65 61 61 60 57 55 58 62
2130.0 59 63 66 71 75 79 79 77 72 68
2170.0 62 59 59 57 55 51 54 54 56 59
2210.0 64 66 68 70 70 74 69 68 64 65
2250.0 66 68 71 78 83 87 89 81 75 69
2290.0 66 65 62 66 65 66 70 79 83 88
2330.0 89 96 92 85 92 77 82 83 82 77
2370.0 87 82 87 80 79 82 88 91 91 96
2410.0 94 92 89 86 82 85 86 84 85 84
2450.0 83 83 87 90 94 96 94 96 97 97
2490.0 100 106 105 112 119 127 139 147 154 155
2530.0 156 151 149 147 147 149 150 153 156 162
2570.0 166 174 175 172 168 164 161 159 163 163
2610.0 168 166 166 165 164 164 166 168 168 174
2650.0 180 190 201 214 219 225 224 224 218 214
2690.0 211 212 214 213 212 216 216 219 220 222
2730.0 220 220 218 219 224 230 236 243 247 252
2770.0 252 252 246 243 238 234 230 234 238 243
2810.0 246 246 251 249 249 247 246 248 250 254
2850.0 261 265 268 269 272 274 274 272 271 276
2890.0 280 287 291 295 302 310 321 325 336 351
2930.0 370 387 397 401 401 395 392 404 417 441
2970.0 471 503 539 567 567 569 566 568 576 603
3010.0 642 692 733 767 781 785 782 780 778 779
3050.0 784 797 817 845 874 911 951 966 958 939
3090.0 917 898 894 899 907 904 897 876 861 849
3130.0 834 824 817 811 809 799 798 804 804 802
3170.0 804 803 803 796 793 789 783 771 759 757
3210.0 745 737 730 722 712 700 690 684 672 668
3250.0 658 656 656 643 637 640 635 628 614 610
3290.0 599 594 588 591 597 595 597 593 574 561
3330.0 529 507 493 478 459 454 439 436 421 417
3370.0 410 394 387 382 369 369 351 341 334 325
3410.0 321 305 306 297 283 274 269 258 249 250
3450.0 241 228 228 223 216 205 203 195 188 182
3490.0 179 177 170 168 162 157 148 146 144 137
3530.0 137 133 128 119 123 117 117 114 106 111
3570.0 103 104 101 101 103 96 100 102 85 87
3610.0 88 80 80 78 74 79 80 80 81 70
3650.0 66 76 66 68 67 63 54 59 64 58
3690.0 62 60 60 62 58 62 55 53 57 58
3730.0 55 51 60 50 57 51 51 51 51 51
3770.0 51 51 51 51 51 51 51 51 51 51
3810.0 51 51 51 51 51 51 51 51 51 51
3850.0 51 51 51 51 51 51 51 51 51 51
3890.0 51 51 51 51 51 51 51 51 51 51
3930.0 51 51 52 54 51 52 51 51 51 51
##END=
