##TITLE=Chloropyrazine
##JCAMP-DX=4.24
##DATA TYPE=INFRARED SPECTRUM
##ORIGIN=Sadtler Research Labs Under US-EPA Contract
##OWNER=NIST Standard Reference Data Program
##CAS REGISTRY NO=14508-49-7
##MOLFORM=C 4 H 3 Cl N 2
##XUNITS=1/CM
##YUNITS=ABSORBANCE
##XFACTOR=1.0
##YFACTOR=0.000094485
##DELTAX=4.0
##FIRSTX=450.0
##LASTX=3966.0
##FIRSTY=0.004724
##MAXX=3966
##MINX=450
##MAXY=0.94485
##MINY=0
##NPOINTS=880
##XYDATA=(X++(Y..Y))
450.0 50 72 90 121 149 183 192 251 261 132
490.0 112 95 69 31 25 6 11 15 15 23
530.0 12 11 19 23 18 10 10 25 11 38
570.0 34 28 38 27 25 31 25 27 25 26
610.0 26 22 27 36 58 35 43 53 61 68
650.0 56 46 52 27 23 32 18 23 28 29
690.0 36 49 56 67 72 82 92 109 125 155
730.0 187 210 250 344 461 515 915 1311 1224 1323
770.0 1270 1263 673 206 35 14 21 33 60 104
810.0 172 280 429 605 772 912 1108 1416 1770 1207
850.0 871 793 626 427 255 143 89 57 50 50
890.0 50 51 51 51 51 51 51 54 54 64
930.0 71 71 75 86 107 107 116 108 104 99
970.0 101 116 168 273 463 761 1177 1612 1868 1868
1010.0 1818 1764 1737 1306 865 685 738 925 1027 823
1050.0 770 984 800 425 250 215 261 354 460 556
1090.0 566 545 542 585 679 1016 1755 2906 4484 6601
1130.0 9153 10000 9052 7489 6250 3926 2041 1139 821 806
1170.0 679 516 494 555 648 656 689 659 639 534
1210.0 424 200 89 51 47 55 60 80 87 89
1250.0 85 83 79 68 74 128 238 337 297 332
1290.0 303 312 170 101 115 148 178 210 232 264
1330.0 254 227 217 216 226 217 289 454 741 1198
1370.0 1842 2658 3599 4235 3860 3597 3153 2469 1255 589
1410.0 337 255 182 128 148 217 313 451 658 1064
1450.0 1636 1927 1788 1732 1795 1485 765 399 328 269
1490.0 239 177 179 322 597 1060 1519 1763 1794 1723
1530.0 1678 1092 404 139 146 182 208 208 203 211
1570.0 187 161 110 77 45 33 28 29 30 29
1610.0 35 38 31 40 38 33 33 26 33 21
1650.0 20 14 19 33 42 55 65 71 74 56
1690.0 69 58 34 24 30 37 38 38 39 43
1730.0 45 39 44 61 81 91 114 135 139 129
1770.0 126 113 112 94 90 91 97 104 103 99
1810.0 87 76 65 50 44 41 44 47 49 50
1850.0 56 53 56 61 61 56 56 68 73 85
1890.0 95 102 108 108 102 102 97 102 118 123
1930.0 117 110 106 86 65 46 36 35 29 30
1970.0 29 30 30 30 31 33 39 39 39 35
2010.0 35 34 24 19 18 18 14 14 17 19
2050.0 23 23 23 29 22 23 23 23 23 23
2090.0 22 27 24 27 25 20 17 23 23 23
2130.0 23 28 27 27 21 29 21 24 27 21
2170.0 25 26 26 27 27 22 21 21 17 18
2210.0 21 21 21 21 21 21 21 21 20 22
2250.0 21 21 21 27 27 26 35 41 47 53
2290.0 61 63 70 72 78 83 82 80 82 67
2330.0 57 44 43 39 33 36 39 37 18 5
2370.0 1 7 12 16 17 24 28 28 28 29
2410.0 28 28 29 29 22 22 22 22 22 18
2450.0 18 18 18 22 23 23 26 22 19 17
2490.0 17 17 17 17 17 21 16 22 17 19
2530.0 19 19 13 11 5 6 9 11 15 9
2570.0 16 16 14 14 15 17 19 20 20 23
2610.0 24 20 24 25 19 19 24 24 30 29
2650.0 38 39 39 39 45 44 40 39 38 34
2690.0 28 29 31 28 28 28 28 28 29 28
2730.0 22 22 22 16 10 13 9 3 5 6
2770.0 3 6 1 1 1 1 1 2 7 7
2810.0 7 8 6 5 11 10 6 11 11 10
2850.0 10 10 10 10 9 10 11 5 11 17
2890.0 21 16 26 27 28 34 31 24 21 24
2930.0 22 16 21 21 22 26 26 23 26 28
2970.0 38 40 51 52 61 69 63 63 63 57
3010.0 57 52 42 46 58 71 92 128 192 298
3050.0 470 729 1034 1278 1661 1761 1651 1356 1274 963
3090.0 512 269 171 122 99 83 84 89 82 70
3130.0 63 55 45 30 18 17 12 6 5 16
3170.0 16 1 13 7 12 4 12 8 6 5
3210.0 1 6 11 5 12 6 12 4 9 9
3250.0 3 1 6 5 1 1 5 1 9 11
3290.0 5 11 8 8 6 6 6 1 5 1
3330.0 5 10 6 0 9 16 5 5 15 12
3370.0 11 11 11 11 10 6 11 1 9 5
3410.0 11 11 13 16 7 16 16 21 10 11
3450.0 14 14 17 9 12 14 1 14 15 10
3490.0 10 15 10 16 4 11 6 2 9 15
3530.0 10 16 10 11 6 1 6 6 10 7
3570.0 7 7 11 11 15 16 9 9 6 15
3610.0 10 9 9 14 11 5 1 10 11 4
3650.0 11 4 1 1 14 8 7 5 17 11
3690.0 10 13 14 25 10 14 10 4 9 13
3730.0 15 14 17 11 15 9 10 9 9 14
3770.0 9 9 15 10 10 23 22 12 16 18
3810.0 24 35 30 34 34 41 51 49 54 47
3850.0 39 36 29 25 19 23 30 29 25 25
3890.0 28 29 32 34 35 28 37 45 45 50
3930.0 55 55 54 60 54 52 49 44 49 55
##END=
