##TITLE=Ethanone, 1-(2-hydroxy-5-methylphenyl)-
##JCAMP-DX=4.24
##DATA TYPE=INFRARED SPECTRUM
##ORIGIN=Sadtler Research Labs Under US-EPA Contract
##OWNER=NIST Standard Reference Data Program
##CAS REGISTRY NO=1450-72-2
##MOLFORM=C 9 H 10 O 2
##XUNITS=1/CM
##YUNITS=ABSORBANCE
##XFACTOR=1.0
##YFACTOR=0.000140485
##DELTAX=4.0
##FIRSTX=450.0
##LASTX=3966.0
##FIRSTY=0.020651
##MAXX=3966
##MINX=450
##MAXY=1.40485
##MINY=0
##NPOINTS=880
##XYDATA=(X++(Y..Y))
450.0 147 132 200 226 242 204 92 29 2 11
490.0 15 63 88 136 199 244 291 372 598 518
530.0 348 280 167 100 49 22 26 47 41 39
570.0 64 56 71 71 87 80 112 134 163 203
610.0 257 356 606 1011 1357 1534 1548 1370 969 600
650.0 404 290 251 234 243 243 246 227 226 226
690.0 239 266 295 345 399 442 501 579 631 667
730.0 703 688 591 644 758 843 972 1076 1186 1274
770.0 1463 1662 1703 1604 1383 1020 610 422 297 312
810.0 391 610 875 1092 1757 1568 933 816 473 265
850.0 156 118 125 139 146 172 205 143 127 114
890.0 99 68 55 45 25 23 21 38 56 84
930.0 123 173 253 375 601 911 1204 1304 1268 1082
970.0 736 433 279 219 199 197 202 203 185 168
1010.0 154 144 146 171 186 165 141 129 111 107
1050.0 113 117 126 137 141 137 134 122 109 104
1090.0 101 98 93 98 91 99 113 146 200 280
1130.0 362 407 458 500 512 525 537 550 544 538
1170.0 573 677 889 1304 1985 2918 3868 4719 5344 5683
1210.0 5376 4466 3798 2951 2040 1649 1745 2164 2614 2762
1250.0 2810 2601 2051 1587 1273 1115 1135 1391 1927 2921
1290.0 4389 5731 6248 6019 5071 3512 2524 2443 2510 2402
1330.0 2173 1924 1815 1853 2071 2371 2612 2845 3114 3284
1370.0 3287 3165 2803 2294 1878 1616 1487 1391 1277 1185
1410.0 1126 1061 1092 1039 1018 974 965 934 885 879
1450.0 945 1066 1312 1554 1969 2525 3092 3812 4647 5296
1490.0 4935 4687 3917 2619 1773 1284 1052 938 926 846
1530.0 823 778 775 795 751 713 726 799 830 920
1570.0 1129 1361 1613 1774 1861 1919 1830 1717 1582 1535
1610.0 1475 1447 1502 1520 1607 1676 1914 2428 3456 5153
1650.0 7401 9249 10000 9453 7484 5225 3059 1801 1203 882
1690.0 658 541 515 465 411 362 368 392 342 327
1730.0 352 389 357 336 328 307 238 197 163 133
1770.0 135 131 99 102 91 90 87 75 80 51
1810.0 53 60 58 75 83 84 68 47 51 58
1850.0 40 27 31 29 32 45 26 22 25 32
1890.0 46 57 75 98 119 126 120 107 85 51
1930.0 38 33 34 47 44 37 35 29 20 23
1970.0 12 7 8 12 14 28 30 27 25 30
2010.0 30 33 41 39 34 31 25 20 13 12
2050.0 9 11 16 24 38 41 48 52 48 38
2090.0 31 22 13 9 7 5 5 2 2 2
2130.0 2 3 0 1 3 0 1 1 1 3
2170.0 4 1 3 3 3 7 6 6 6 9
2210.0 7 3 4 2 0 0 0 3 8 12
2250.0 19 24 33 43 46 50 51 48 39 37
2290.0 33 31 32 36 37 41 43 42 42 33
2330.0 31 35 32 39 38 41 50 47 51 57
2370.0 56 59 63 66 58 52 48 42 43 45
2410.0 46 43 40 47 45 46 48 47 46 44
2450.0 41 39 38 34 32 32 36 39 42 46
2490.0 51 53 56 59 61 63 68 71 73 82
2530.0 83 94 103 103 105 104 102 95 95 95
2570.0 100 104 108 113 116 117 119 117 110 115
2610.0 117 117 121 125 123 120 121 119 120 121
2650.0 124 123 124 129 135 142 151 161 167 176
2690.0 182 180 178 176 171 170 169 173 178 185
2730.0 189 192 200 207 213 217 216 213 204 201
2770.0 199 206 211 216 214 214 214 212 212 207
2810.0 207 211 220 222 227 235 250 257 270 294
2850.0 320 351 396 455 532 610 685 729 739 714
2890.0 668 618 592 587 601 651 720 816 946 1107
2930.0 1265 1345 1322 1217 1040 859 751 717 708 705
2970.0 726 751 771 784 768 748 740 747 780 844
3010.0 916 991 1061 1126 1203 1269 1312 1320 1307 1272
3050.0 1247 1256 1266 1267 1252 1194 1109 1046 969 898
3090.0 839 815 807 804 799 797 796 785 781 775
3130.0 761 747 744 728 715 710 695 695 687 685
3170.0 684 685 685 687 687 679 689 678 685 679
3210.0 672 659 652 637 626 613 605 596 587 585
3250.0 577 572 575 570 568 565 565 558 553 543
3290.0 541 532 528 525 523 518 503 485 471 457
3330.0 435 417 407 392 381 370 360 349 337 337
3370.0 321 313 311 298 300 288 281 276 267 258
3410.0 248 240 238 229 219 214 207 192 183 180
3450.0 169 161 159 152 145 143 135 130 133 122
3490.0 112 110 105 106 95 95 91 80 81 75
3530.0 72 67 64 62 53 63 57 53 45 43
3570.0 48 45 44 44 40 39 29 24 22 28
3610.0 26 18 19 19 17 20 12 19 19 19
3650.0 13 5 17 12 5 8 0 1 0 7
3690.0 2 1 3 1 2 1 3 0 2 1
3730.0 3 5 7 6 5 7 3 0 6 2
3770.0 0 0 0 2 0 0 0 0 0 0
3810.0 0 0 0 0 4 4 1 5 0 0
3850.0 0 0 0 0 0 0 1 0 4 0
3890.0 3 10 0 4 0 2 9 13 11 0
3930.0 0 7 5 6 9 12 7 10 7 9
##END=
