##TITLE=Pyridine, 2-ethoxy-
##JCAMP-DX=4.24
##DATA TYPE=INFRARED SPECTRUM
##ORIGIN=Sadtler Research Labs Under US-EPA Contract
##OWNER=NIST Standard Reference Data Program
##CAS REGISTRY NO=14529-53-4
##MOLFORM=C 7 H 9 N O
##XUNITS=1/CM
##YUNITS=ABSORBANCE
##XFACTOR=1.0
##YFACTOR=0.000183563
##DELTAX=4.0
##FIRSTX=450.0
##LASTX=3966.0
##FIRSTY=0.000000
##MAXX=3966
##MINX=450
##MAXY=1.83563
##MINY=0
##NPOINTS=880
##XYDATA=(X++(Y..Y))
450.0 0 171 306 195 251 245 278 247 268 242
490.0 206 245 213 293 262 294 311 340 373 394
530.0 378 364 280 277 270 227 217 227 195 201
570.0 213 232 210 255 253 230 272 330 368 412
610.0 429 401 395 376 360 316 294 291 249 225
650.0 196 194 182 183 185 183 205 201 215 208
690.0 217 214 223 215 223 245 290 374 537 685
730.0 751 1048 1045 861 781 754 770 915 1181 1541
770.0 1926 2449 2907 2899 2547 2087 1651 1188 857 627
810.0 522 470 469 479 467 441 421 382 346 341
850.0 334 334 346 337 305 286 277 265 266 273
890.0 310 392 550 716 845 953 1041 1112 1107 1011
930.0 918 790 557 405 354 340 346 332 325 338
970.0 361 413 495 619 738 782 802 813 722 639
1010.0 643 724 890 1167 1516 1853 2286 3008 3913 4415
1050.0 4373 4259 3596 2247 1363 1015 855 816 893 1092
1090.0 1283 1396 1395 1288 1072 867 732 655 632 675
1130.0 858 1220 1301 1219 1292 1065 641 483 423 391
1170.0 377 362 347 325 317 303 296 297 308 326
1210.0 354 391 429 483 564 681 865 1188 1688 2300
1250.0 2962 3892 5004 5702 5912 5931 6059 6604 8425 10000
1290.0 9390 9142 7690 5018 4458 5408 5918 6124 5038 3640
1330.0 2568 1523 910 636 517 507 565 648 720 783
1370.0 854 999 1211 1517 1869 2094 2153 2067 1745 1470
1410.0 1273 1161 1348 1908 3296 5250 6574 6670 6797 5201
1450.0 2866 1940 2256 3315 4752 5837 6524 7186 5851 4596
1490.0 3723 2563 1621 1135 968 854 686 575 534 462
1530.0 457 445 478 551 601 695 907 1267 1741 2329
1570.0 2859 3168 3674 4117 4295 5018 6019 6652 6567 5981
1610.0 4822 3574 2541 1757 1259 915 761 622 507 450
1650.0 426 387 327 295 283 273 284 249 288 308
1690.0 281 277 325 316 293 270 293 327 285 271
1730.0 282 310 267 253 256 263 234 227 222 204
1770.0 223 227 204 215 211 223 234 238 260 251
1810.0 264 270 264 271 275 283 277 263 270 274
1850.0 237 213 213 212 224 237 216 216 217 221
1890.0 233 242 257 267 275 282 290 285 296 286
1930.0 278 275 275 287 287 294 297 287 274 261
1970.0 227 201 190 183 175 175 176 167 167 167
2010.0 167 173 178 180 184 193 197 204 208 212
2050.0 212 213 217 222 234 238 247 250 254 254
2090.0 258 260 263 267 263 262 255 246 236 229
2130.0 224 219 215 210 206 194 183 175 174 170
2170.0 169 169 170 173 175 177 177 179 182 180
2210.0 181 185 186 189 191 190 191 190 191 193
2250.0 192 197 204 205 207 208 211 213 212 214
2290.0 219 215 213 204 205 198 187 176 172 165
2330.0 166 173 172 170 195 188 165 167 165 188
2370.0 217 220 223 224 220 214 214 213 213 215
2410.0 213 216 220 221 218 220 217 215 209 209
2450.0 208 208 205 200 198 195 193 191 193 196
2490.0 201 209 212 222 227 230 240 244 248 251
2530.0 253 253 257 262 269 277 287 301 308 317
2570.0 319 319 309 298 281 265 251 244 242 236
2610.0 232 227 222 220 214 206 203 200 194 192
2650.0 188 185 189 189 189 199 201 213 215 219
2690.0 222 224 225 224 228 233 242 252 260 262
2730.0 265 267 264 266 267 268 267 270 269 266
2770.0 270 269 266 265 262 271 278 277 284 289
2810.0 295 301 311 319 325 327 325 330 339 339
2850.0 349 355 370 389 413 459 537 617 679 737
2890.0 773 801 836 877 920 950 945 949 973 1014
2930.0 1107 1320 1558 1707 1781 1770 1665 1501 1397 1453
2970.0 1615 1894 2219 2500 2509 2695 2665 2246 1890 1636
3010.0 1393 1185 1089 1100 1119 1127 1085 1015 921 857
3050.0 856 904 941 961 1001 1060 1134 1254 1352 1303
3090.0 1252 1137 846 641 547 462 390 331 299 275
3130.0 264 261 263 272 273 269 271 265 259 253
3170.0 255 258 251 249 244 232 231 236 227 222
3210.0 217 209 208 205 204 203 200 200 195 196
3250.0 197 198 193 191 191 190 182 179 186 189
3290.0 187 184 188 183 194 191 189 194 198 199
3330.0 201 201 198 195 202 201 194 197 193 190
3370.0 190 187 188 194 187 188 191 186 203 197
3410.0 191 207 187 187 200 206 205 199 196 202
3450.0 201 196 195 199 197 181 191 195 188 186
3490.0 192 190 184 193 190 189 187 193 180 179
3530.0 181 183 176 184 185 180 182 190 199 178
3570.0 193 187 184 174 182 182 182 186 178 178
3610.0 189 186 180 181 181 177 182 189 192 180
3650.0 189 187 189 189 190 186 183 198 197 194
3690.0 200 196 199 207 187 189 198 195 190 188
3730.0 189 204 201 200 199 200 194 194 217 202
3770.0 191 182 188 200 190 186 201 200 199 211
3810.0 197 199 200 202 195 191 196 195 195 207
3850.0 197 204 209 201 206 193 200 210 206 184
3890.0 186 204 186 193 199 209 207 192 200 187
3930.0 178 191 190 207 202 196 196 210 212 224
##END=
