##TITLE=Spiro[4.5]dec-6-ene-8-one
##JCAMP-DX=4.24
##DATA TYPE=INFRARED SPECTRUM
##ORIGIN=Sadtler Research Labs Under US-EPA Contract
##OWNER=NIST Standard Reference Data Program
##CAS REGISTRY NO=14523-53-6
##MOLFORM=C 10 H 14 O
##XUNITS=1/CM
##YUNITS=ABSORBANCE
##XFACTOR=1.0
##YFACTOR=0.000128049
##DELTAX=4.0
##FIRSTX=450.0
##LASTX=3966.0
##FIRSTY=0.036750
##MAXX=3966
##MINX=450
##MAXY=1.28049
##MINY=0
##NPOINTS=880
##XYDATA=(X++(Y..Y))
450.0 287 253 289 284 198 162 70 58 46 21
490.0 7 8 3 43 53 104 105 99 65 40
530.0 70 32 17 6 38 52 62 77 58 60
570.0 55 43 42 43 20 15 28 24 29 44
610.0 43 42 43 46 41 29 22 21 21 13
650.0 30 19 5 12 9 11 12 21 29 31
690.0 50 37 50 63 77 83 96 105 112 98
730.0 91 99 131 205 275 323 341 301 225 200
770.0 223 294 420 568 710 776 757 673 554 433
810.0 343 262 208 174 157 148 143 145 151 147
850.0 136 126 130 122 119 114 108 99 101 102
890.0 109 132 154 185 193 208 223 268 333 412
930.0 448 425 372 283 212 163 139 133 137 139
970.0 138 148 175 226 281 308 301 258 187 138
1010.0 108 100 100 101 100 91 90 88 96 91
1050.0 86 82 83 93 99 117 130 149 164 181
1090.0 189 200 204 219 242 273 315 366 438 534
1130.0 637 703 703 634 512 373 266 201 168 172
1170.0 198 244 296 352 395 426 446 467 491 529
1210.0 590 687 808 895 933 906 835 742 673 604
1250.0 547 481 408 348 288 233 187 144 111 88
1290.0 82 82 92 104 123 142 167 193 230 262
1330.0 290 321 336 347 335 296 238 176 144 147
1370.0 185 243 335 429 481 484 429 334 261 219
1410.0 222 293 368 479 507 511 460 440 488 580
1450.0 683 722 669 589 476 367 292 266 260 219
1490.0 173 151 114 99 68 40 39 27 11 26
1530.0 21 30 19 8 11 30 25 5 24 34
1570.0 39 41 54 54 70 80 92 107 124 168
1610.0 223 290 310 318 269 224 193 196 231 255
1650.0 295 338 415 470 556 684 898 1256 1647 2184
1690.0 2901 4007 5591 7724 9328 10000 8764 6542 3778 2053
1730.0 1176 846 653 539 413 343 319 298 296 278
1770.0 244 192 166 125 106 80 67 63 45 58
1810.0 45 43 39 37 30 28 34 39 33 24
1850.0 35 33 34 31 29 19 29 31 27 25
1890.0 19 22 19 23 19 20 15 18 14 17
1930.0 19 17 17 9 13 17 21 20 27 27
1970.0 28 27 21 17 11 8 7 12 11 11
2010.0 11 9 9 10 12 10 13 11 10 11
2050.0 11 9 12 12 7 12 13 11 11 12
2090.0 12 11 13 13 14 11 13 9 12 11
2130.0 11 14 14 13 13 15 13 13 16 15
2170.0 15 19 18 19 18 20 19 18 15 14
2210.0 14 14 12 14 16 14 15 14 16 18
2250.0 16 16 18 17 20 22 19 21 19 17
2290.0 18 18 20 19 24 24 24 25 26 28
2330.0 28 29 27 34 20 29 35 28 23 25
2370.0 23 17 15 12 9 9 7 3 4 9
2410.0 10 9 7 8 7 4 2 5 3 2
2450.0 6 3 6 4 5 5 4 2 0 3
2490.0 3 1 1 3 0 2 0 0 0 0
2530.0 3 3 3 4 4 5 8 6 6 5
2570.0 9 7 10 9 10 15 13 17 20 20
2610.0 18 19 19 16 15 19 19 19 20 23
2650.0 25 26 30 31 30 32 32 31 29 26
2690.0 23 23 24 21 23 24 26 29 30 32
2730.0 33 35 35 35 35 40 45 47 48 54
2770.0 52 59 63 65 69 74 76 81 84 86
2810.0 90 98 109 133 167 201 232 263 297 345
2850.0 438 603 851 1169 1514 1816 1993 2061 2061 1979
2890.0 1806 1600 1394 1297 1330 1468 1697 1991 2357 2763
2930.0 3174 3525 3775 3937 4124 4353 4774 5407 6023 6152
2970.0 5655 4650 3324 2207 1445 986 723 573 486 443
3010.0 449 503 588 676 708 680 586 459 347 285
3050.0 284 303 297 278 220 145 102 78 68 56
3090.0 54 52 49 49 41 33 27 26 25 21
3130.0 21 21 18 20 21 19 15 16 15 13
3170.0 13 13 11 13 13 14 11 12 15 13
3210.0 19 23 22 26 24 20 18 20 17 16
3250.0 13 13 9 12 10 11 6 10 12 11
3290.0 14 11 18 17 19 17 23 23 23 27
3330.0 25 23 22 20 17 20 20 25 31 37
3370.0 49 65 85 107 119 137 135 130 114 90
3410.0 74 53 40 32 20 19 17 14 10 8
3450.0 9 14 15 11 10 13 9 8 13 17
3490.0 18 14 15 12 9 13 7 8 6 6
3530.0 7 13 7 5 3 3 6 10 8 6
3570.0 2 4 11 6 4 8 1 4 4 4
3610.0 1 2 4 5 4 7 14 11 6 9
3650.0 6 13 21 15 14 12 11 12 8 3
3690.0 11 5 8 8 7 1 3 9 16 9
3730.0 9 14 14 12 11 9 16 13 22 6
3770.0 12 16 15 16 18 13 15 8 14 11
3810.0 15 8 18 17 17 10 5 16 4 9
3850.0 22 22 15 17 13 19 13 19 10 14
3890.0 13 15 18 14 17 14 16 15 18 16
3930.0 28 15 23 12 8 14 10 13 14 19
##END=
