##TITLE=Benzenebutanoic acid, 2,5-dimethyl-
##JCAMP-DX=4.24
##DATA TYPE=INFRARED SPECTRUM
##ORIGIN=Sadtler Research Labs Under US-EPA Contract
##OWNER=NIST Standard Reference Data Program
##CAS REGISTRY NO=1453-06-1
##MOLFORM=C 12 H 16 O 2
##XUNITS=1/CM
##YUNITS=ABSORBANCE
##XFACTOR=1.0
##YFACTOR=0.000039615
##DELTAX=4.0
##FIRSTX=450.0
##LASTX=3966.0
##FIRSTY=0.031217
##MAXX=3966
##MINX=450
##MAXY=0.39615
##MINY=0
##NPOINTS=880
##XYDATA=(X++(Y..Y))
450.0 788 529 672 336 256 0 253 673 242 232
490.0 831 675 118 742 521 394 581 794 634 1051
530.0 993 902 948 944 1030 1554 1268 1475 1561 1383
570.0 1421 1374 1176 1102 1313 1413 1293 1439 1650 1520
610.0 1369 1459 1265 1404 1308 1269 1131 1100 1033 813
650.0 821 625 746 525 496 377 316 384 289 669
690.0 479 154 326 344 343 298 380 258 450 289
730.0 276 212 267 339 251 208 223 332 294 252
770.0 320 285 357 386 320 510 570 862 1312 1325
810.0 1332 1187 890 681 459 330 282 200 273 162
850.0 249 240 263 283 240 352 472 361 333 292
890.0 235 222 87 60 110 127 203 63 132 43
930.0 93 94 142 234 71 80 99 129 228 259
970.0 310 401 335 400 439 394 439 464 606 632
1010.0 699 746 832 915 981 1111 1156 1124 1098 1110
1050.0 917 1069 1181 1057 1079 1237 1235 1375 1460 1700
1090.0 2091 2594 3279 4151 4780 5461 6036 6200 6499 6466
1130.0 5913 5082 4168 3464 2972 2660 2443 2288 2209 2141
1170.0 2046 2084 2020 1973 1817 1735 1589 1518 1531 1465
1210.0 1404 1299 1105 1006 957 927 923 945 985 967
1250.0 916 906 868 885 837 770 789 745 723 698
1290.0 677 651 640 622 582 568 555 568 584 642
1330.0 697 810 828 877 968 1033 1099 1101 1185 1260
1370.0 1379 1511 1656 1723 1670 1554 1272 1025 880 738
1410.0 690 726 768 840 846 886 875 948 917 988
1450.0 1013 1134 1241 1258 1070 987 811 730 651 670
1490.0 852 1065 1337 1595 1741 1520 1078 762 581 399
1530.0 337 273 329 289 261 185 214 352 254 239
1570.0 222 239 284 197 252 217 249 228 285 374
1610.0 355 528 422 420 263 159 169 121 93 136
1650.0 91 304 115 101 128 169 157 191 162 289
1690.0 227 263 378 449 460 465 604 716 830 958
1730.0 1161 1455 1772 2130 2554 3022 3611 4208 5168 6421
1770.0 8050 9550 10000 9223 7486 5899 4730 3899 3283 2753
1810.0 2280 1817 1401 1041 756 591 435 329 299 206
1850.0 202 142 123 136 115 155 120 162 164 159
1890.0 147 119 94 88 67 65 58 64 53 42
1930.0 52 44 36 43 36 40 38 31 40 28
1970.0 45 31 39 36 22 37 32 30 29 29
2010.0 29 23 17 21 25 27 20 25 20 17
2050.0 16 14 25 26 16 22 13 16 19 25
2090.0 28 12 22 23 19 26 23 32 35 20
2130.0 26 27 14 17 26 28 19 20 31 22
2170.0 22 30 26 27 29 43 27 26 30 32
2210.0 38 36 39 38 40 49 45 29 38 36
2250.0 47 41 33 40 36 32 55 61 64 72
2290.0 69 84 114 124 140 135 156 133 158 141
2330.0 104 123 76 121 135 156 162 140 141 104
2370.0 85 88 114 112 81 44 27 23 30 25
2410.0 32 41 52 48 16 24 40 26 37 27
2450.0 36 19 26 50 32 30 29 25 38 46
2490.0 33 40 44 49 43 36 40 36 30 34
2530.0 37 30 50 47 44 45 48 31 47 24
2570.0 27 39 38 43 43 44 47 40 54 40
2610.0 50 43 50 51 60 52 61 59 65 60
2650.0 59 52 68 56 69 66 69 78 85 72
2690.0 76 89 84 87 90 94 100 113 107 118
2730.0 142 165 170 190 198 167 151 118 117 120
2770.0 125 123 125 140 136 138 159 172 179 176
2810.0 208 230 259 278 284 309 348 406 492 522
2850.0 627 750 920 1124 1421 1738 1989 2097 2063 1943
2890.0 1809 1691 1624 1609 1659 1768 1941 2196 2617 3174
2930.0 3686 4022 4092 3919 3645 3449 3264 3099 2954 2753
2970.0 2497 2289 2094 1908 1756 1670 1653 1740 1889 2090
3010.0 2203 2237 2078 1848 1627 1425 1290 1253 1266 1346
3050.0 1356 1276 1105 910 775 669 583 507 468 443
3090.0 378 348 312 285 267 269 250 269 263 250
3130.0 203 213 172 174 170 137 132 121 108 119
3170.0 126 116 112 107 103 109 133 115 94 115
3210.0 107 93 118 103 98 110 95 137 123 112
3250.0 101 111 81 87 127 117 106 111 99 109
3290.0 98 101 104 110 130 112 112 94 127 81
3330.0 97 97 107 106 107 116 83 98 92 118
3370.0 91 118 83 99 90 113 82 108 90 103
3410.0 118 123 107 60 94 110 63 101 70 86
3450.0 96 82 80 96 80 109 107 103 98 91
3490.0 94 160 99 64 82 146 119 167 161 182
3530.0 195 159 258 238 284 331 386 550 779 1409
3570.0 2848 4189 4639 3305 1848 762 500 399 314 279
3610.0 283 190 178 190 125 194 136 110 89 187
3650.0 142 203 90 133 88 153 217 174 144 84
3690.0 175 66 24 117 133 200 208 68 184 157
3730.0 141 232 181 245 250 410 125 175 69 103
3770.0 104 91 121 91 95 119 150 141 166 138
3810.0 125 159 71 280 186 86 169 202 260 181
3850.0 151 438 269 206 173 135 171 97 144 232
3890.0 152 248 226 248 229 127 155 243 168 241
3930.0 230 202 167 157 232 129 187 213 58 169
##END=
