##TITLE=1-Indanone, 6-bromo-,
##JCAMP-DX=4.24
##DATA TYPE=INFRARED SPECTRUM
##ORIGIN=Sadtler Research Labs Under US-EPA Contract
##OWNER=NIST Standard Reference Data Program
##CAS REGISTRY NO=14548-39-1
##MOLFORM=C 9 H 7 Br O
##XUNITS=1/CM
##YUNITS=ABSORBANCE
##XFACTOR=1.0
##YFACTOR=0.000106885
##DELTAX=4.0
##FIRSTX=450.0
##LASTX=3966.0
##FIRSTY=0.000000
##MAXX=3966
##MINX=450
##MAXY=1.06885
##MINY=0
##NPOINTS=880
##XYDATA=(X++(Y..Y))
450.0 0 147 370 117 239 609 945 556 597 537
490.0 447 468 605 567 331 404 373 394 241 312
530.0 407 474 538 534 779 970 1221 1336 1019 608
570.0 395 309 372 339 246 229 259 285 394 415
610.0 447 383 377 412 401 391 360 394 506 632
650.0 763 871 925 975 840 851 899 762 585 535
690.0 488 440 458 428 413 446 445 434 435 427
730.0 479 403 437 519 560 670 721 619 495 417
770.0 347 334 337 337 393 449 534 698 792 1144
810.0 1283 1311 1226 1282 1274 1539 1684 1538 1276 1082
850.0 673 517 443 371 381 446 389 362 390 442
890.0 459 589 563 498 441 449 329 362 330 304
930.0 296 298 362 365 382 370 358 348 363 395
970.0 405 386 386 375 348 306 337 332 336 361
1010.0 383 422 482 578 734 874 928 864 681 545
1050.0 500 534 569 602 611 632 622 636 676 674
1090.0 708 808 998 1239 1504 1718 1590 1359 1102 801
1130.0 653 609 555 563 645 796 910 1014 1185 1511
1170.0 1952 2160 2018 1713 1928 2204 2195 1841 1067 705
1210.0 626 632 760 1059 1635 2472 3021 3112 2634 2035
1250.0 2280 2827 2913 2612 1915 1513 1417 1251 1017 854
1290.0 765 668 593 603 745 962 1104 1060 825 603
1330.0 530 550 548 606 586 529 508 476 453 421
1370.0 441 470 477 491 532 571 687 800 1173 1703
1410.0 2138 2263 1863 1343 1046 953 931 1049 1462 1920
1450.0 2213 2181 1942 2023 2255 2365 2041 1525 1040 839
1490.0 705 663 583 591 563 609 609 697 714 671
1530.0 621 644 641 679 701 743 801 819 911 873
1570.0 945 977 928 972 999 1122 1237 1167 1168 988
1610.0 811 708 672 660 555 534 419 303 232 184
1650.0 216 218 245 214 264 281 287 318 322 403
1690.0 399 468 534 637 686 791 973 1321 1914 2827
1730.0 4460 6399 8892 10000 9773 8613 5975 3924 2301 1354
1770.0 955 749 722 683 655 647 549 518 430 389
1810.0 375 343 355 332 326 307 271 266 243 249
1850.0 234 232 241 222 227 225 234 232 239 252
1890.0 278 296 305 292 273 237 215 216 199 202
1930.0 210 204 212 211 208 212 205 205 204 198
1970.0 200 197 199 198 196 194 193 196 199 198
2010.0 203 196 200 207 204 203 205 202 195 196
2050.0 202 200 202 199 197 205 197 197 196 187
2090.0 190 186 184 192 191 188 187 186 187 186
2130.0 187 184 182 186 183 182 182 183 186 177
2170.0 177 178 178 178 176 185 183 185 186 188
2210.0 193 189 183 189 185 187 183 184 188 188
2250.0 187 184 188 189 188 198 193 201 206 210
2290.0 216 219 223 218 211 210 202 199 191 181
2330.0 170 170 187 165 200 189 205 192 217 180
2370.0 181 173 173 182 176 164 158 161 159 154
2410.0 162 157 160 162 154 160 159 155 156 156
2450.0 156 154 152 150 149 150 146 142 148 145
2490.0 147 150 146 152 144 147 149 148 149 142
2530.0 144 140 143 147 141 145 149 144 146 146
2570.0 150 158 154 159 157 162 158 157 158 150
2610.0 155 151 154 151 153 156 157 157 154 150
2650.0 159 158 150 149 150 149 151 152 152 155
2690.0 153 158 158 159 157 162 157 158 153 148
2730.0 152 154 156 155 155 162 167 160 170 171
2770.0 170 167 162 168 168 176 179 181 191 204
2810.0 216 232 239 250 249 267 266 269 287 301
2850.0 329 364 379 393 397 417 449 504 519 498
2890.0 455 397 355 354 341 359 388 420 498 598
2930.0 791 1057 1347 1650 1707 1472 1074 789 693 710
2970.0 765 798 659 576 503 438 415 402 399 408
3010.0 401 411 416 417 435 440 469 486 514 561
3050.0 601 657 686 697 678 638 598 571 569 558
3090.0 526 488 432 404 389 388 397 406 402 404
3130.0 391 384 369 358 367 362 360 376 376 396
3170.0 387 389 366 354 337 320 311 296 290 295
3210.0 292 309 330 342 354 351 334 304 297 305
3250.0 308 322 319 340 349 330 299 271 241 218
3290.0 205 199 193 175 186 178 192 187 182 186
3330.0 182 189 165 176 184 175 189 173 183 203
3370.0 193 196 187 192 193 195 198 190 187 192
3410.0 184 202 205 195 204 202 212 208 213 233
3450.0 258 270 293 326 332 329 313 275 255 236
3490.0 218 214 203 184 198 185 179 194 173 174
3530.0 192 194 186 188 175 176 201 179 179 162
3570.0 207 181 175 160 188 166 192 170 181 167
3610.0 179 176 175 191 186 210 203 184 176 195
3650.0 173 216 166 190 149 189 201 189 184 161
3690.0 195 173 192 163 178 189 185 168 185 158
3730.0 197 195 183 211 190 230 189 213 175 183
3770.0 183 157 170 189 166 160 150 195 186 232
3810.0 157 187 172 203 173 169 198 239 183 166
3850.0 165 224 199 145 203 214 186 181 192 191
3890.0 176 209 217 181 224 205 162 246 200 234
3930.0 191 157 227 196 210 196 219 138 163 209
##END=
