##TITLE=Benzene, (2-bromo-1-methylethyl)-
##JCAMP-DX=4.24
##DATA TYPE=INFRARED SPECTRUM
##ORIGIN=Sadtler Research Labs Under US-EPA Contract
##OWNER=NIST Standard Reference Data Program
##CAS REGISTRY NO=1459-00-3
##MOLFORM=C 9 H 11 Br
##XUNITS=1/CM
##YUNITS=ABSORBANCE
##XFACTOR=1.0
##YFACTOR=0.000076413
##DELTAX=4.0
##FIRSTX=450.0
##LASTX=3966.0
##FIRSTY=0.008940
##MAXX=3966
##MINX=450
##MAXY=0.76413
##MINY=0
##NPOINTS=880
##XYDATA=(X++(Y..Y))
450.0 117 33 77 76 74 98 111 205 232 261
490.0 310 364 423 590 689 869 1006 1116 1090 1194
530.0 1381 1669 1865 1973 1875 1886 2025 2096 1958 1437
570.0 825 527 428 372 307 248 225 154 101 110
610.0 119 131 162 146 172 223 296 434 612 833
650.0 1174 1857 2943 3979 4399 3992 3114 2649 2997 4222
690.0 6398 8717 10000 9711 7379 5081 3490 2436 1823 1509
730.0 1403 1445 1575 1811 2200 2856 3679 4173 4209 3694
770.0 3041 2578 1858 1338 981 697 445 284 172 96
810.0 54 24 15 11 60 118 204 257 282 254
850.0 250 296 311 320 358 409 494 596 733 963
890.0 1308 1866 2092 2050 1876 1581 1206 854 580 398
930.0 284 226 196 168 135 122 104 98 93 77
970.0 79 99 134 197 323 540 758 950 1187 1469
1010.0 1946 2225 2112 1717 1373 1214 1071 835 610 515
1050.0 461 442 449 502 558 593 586 507 423 419
1090.0 430 410 363 313 295 271 244 195 151 117
1130.0 85 73 66 78 109 163 215 264 316 385
1170.0 450 498 507 507 525 585 729 1003 1531 2037
1210.0 2269 2273 2192 2446 2790 2935 2733 2401 1923 1373
1250.0 994 830 784 827 948 1056 1034 980 947 1013
1290.0 1239 1510 1643 1569 1360 1038 827 742 694 650
1330.0 587 500 445 430 435 459 497 537 631 778
1370.0 1059 1432 1756 1933 1875 1487 1025 663 435 346
1410.0 318 356 461 590 776 1121 1633 2130 2482 2728
1450.0 2948 3139 3088 2634 2147 1658 1351 1224 1429 1931
1490.0 2559 2997 3037 2578 1806 910 466 331 304 276
1530.0 258 262 229 215 165 133 137 165 188 197
1570.0 266 324 442 551 723 943 1245 1566 1762 1687
1610.0 1358 940 623 468 439 433 410 394 338 296
1650.0 225 259 197 199 185 184 155 144 138 184
1690.0 202 286 393 452 434 423 407 363 256 224
1730.0 218 252 213 215 230 259 245 211 179 157
1770.0 185 206 232 314 452 578 693 689 619 460
1810.0 352 285 242 193 152 109 86 72 80 105
1850.0 122 164 218 273 305 337 348 366 367 336
1890.0 278 198 131 95 78 72 83 115 155 214
1930.0 290 372 430 451 450 448 443 404 326 216
1970.0 114 65 51 45 44 41 37 30 27 24
2010.0 19 18 19 11 16 14 14 12 13 6
2050.0 5 5 5 4 6 4 6 5 3 2
2090.0 4 0 3 2 1 2 4 2 0 1
2130.0 0 0 0 0 1 3 5 7 10 9
2170.0 9 9 8 12 8 12 11 10 9 11
2210.0 10 12 10 13 15 14 16 20 20 20
2250.0 24 26 25 27 30 30 31 33 34 38
2290.0 41 43 45 48 59 79 100 109 112 97
2330.0 92 85 93 92 95 85 92 75 78 56
2370.0 62 65 55 46 38 33 40 26 21 26
2410.0 29 50 35 43 40 43 58 32 28 24
2450.0 26 38 18 20 19 33 29 24 21 24
2490.0 49 26 28 26 33 35 24 19 22 32
2530.0 18 23 14 24 20 24 24 22 20 22
2570.0 25 34 35 39 48 60 59 54 54 77
2610.0 58 57 50 75 55 61 79 83 80 82
2650.0 104 82 81 97 78 72 83 75 63 62
2690.0 59 53 62 65 63 72 67 66 72 81
2730.0 98 100 112 121 121 119 111 102 92 91
2770.0 94 99 104 103 105 115 128 152 164 174
2810.0 185 203 210 237 247 269 296 315 344 379
2850.0 430 537 673 833 1010 1209 1451 1673 1804 1805
2890.0 1705 1571 1459 1410 1449 1552 1722 1922 2115 2327
2930.0 2546 2835 3061 3109 2973 2747 2741 3256 4469 5954
2970.0 7270 7844 7582 7355 6804 5456 3970 2502 2097 2292
3010.0 2566 2762 2904 3195 3861 4767 5496 5634 5103 4258
3050.0 3484 3125 3256 3887 4949 6025 6393 6059 5202 4452
3090.0 4039 3720 3243 2692 2125 1689 1373 1067 786 547
3130.0 402 316 266 248 228 217 207 214 208 197
3170.0 179 166 145 133 121 114 116 116 112 102
3210.0 95 85 77 67 64 60 56 57 46 44
3250.0 42 42 41 33 27 28 29 24 25 19
3290.0 26 19 23 25 23 25 25 15 21 17
3330.0 22 14 18 18 10 11 12 11 10 8
3370.0 10 16 11 14 25 13 17 19 21 11
3410.0 11 11 16 15 12 23 21 30 29 31
3450.0 23 21 21 23 23 20 30 24 29 17
3490.0 16 16 17 21 19 27 20 18 20 26
3530.0 29 19 13 27 28 24 26 22 34 46
3570.0 63 66 74 92 92 107 95 74 73 45
3610.0 62 46 46 53 51 92 72 69 79 76
3650.0 94 88 93 61 59 58 34 41 27 30
3690.0 32 29 41 36 38 34 36 36 31 40
3730.0 39 22 39 25 68 17 35 16 33 27
3770.0 24 18 29 15 50 38 34 38 36 40
3810.0 41 41 28 45 21 31 27 48 21 28
3850.0 21 44 32 29 19 27 9 14 15 22
3890.0 5 31 23 25 14 18 24 33 25 28
3930.0 33 29 39 34 32 17 18 3 28 43
##END=
