##TITLE=1,3-Benzenedicarboxylic acid, dimethyl ester
##JCAMP-DX=4.24
##DATA TYPE=INFRARED SPECTRUM
##ORIGIN=Sadtler Research Labs Under US-EPA Contract
##OWNER=NIST Standard Reference Data Program
##CAS REGISTRY NO=1459-93-4
##MOLFORM=C 10 H 10 O 4
##XUNITS=1/CM
##YUNITS=ABSORBANCE
##XFACTOR=1.0
##YFACTOR=0.000201044
##DELTAX=4.0
##FIRSTX=450.0
##LASTX=3966.0
##FIRSTY=0.000000
##MAXX=3966
##MINX=450
##MAXY=2.01044
##MINY=0
##NPOINTS=880
##XYDATA=(X++(Y..Y))
450.0 0 122 154 119 258 148 208 141 191 152
490.0 189 199 164 192 172 205 177 214 187 204
530.0 186 200 191 170 209 190 200 172 214 184
570.0 181 186 163 207 146 160 152 187 163 188
610.0 156 187 170 173 176 165 176 167 188 186
650.0 220 225 240 215 207 209 216 224 217 224
690.0 212 218 224 280 453 694 920 984 1048 1208
730.0 1606 1734 1255 915 559 360 274 245 224 204
770.0 194 192 182 181 181 187 209 248 293 304
810.0 309 286 261 250 239 219 203 204 217 239
850.0 262 283 284 287 271 253 237 218 211 205
890.0 204 204 202 196 193 190 195 206 213 233
930.0 242 256 253 239 232 225 235 252 277 302
970.0 322 337 373 453 584 752 891 932 851 693
1010.0 515 376 289 266 243 232 223 228 235 246
1050.0 270 304 363 448 583 760 948 1108 1250 1431
1090.0 1674 1876 1889 1675 1367 1128 1035 1052 1175 1323
1130.0 1424 1412 1286 1111 941 836 786 854 1030 1113
1170.0 1037 848 695 713 791 880 940 954 936 900
1210.0 932 1066 1397 2060 3252 5276 7563 9996 10000 9157
1250.0 6017 3597 2242 1609 1358 1261 1250 1305 1530 1811
1290.0 2112 2405 2773 3263 3508 3422 2810 2028 1320 916
1330.0 704 597 517 476 446 413 373 331 302 285
1370.0 278 263 273 272 283 280 292 288 315 327
1410.0 338 364 367 450 527 760 1112 1460 1490 1191
1450.0 722 531 415 401 390 370 336 328 328 304
1490.0 282 264 243 235 220 208 221 217 199 208
1530.0 198 202 198 195 194 215 224 217 240 253
1570.0 269 263 276 284 288 288 286 291 305 344
1610.0 364 354 309 257 229 211 218 208 229 224
1650.0 241 221 258 245 252 252 233 248 220 235
1690.0 257 325 363 496 577 623 607 563 599 650
1730.0 930 1459 3171 5373 9315 7082 6043 3649 2240 1236
1770.0 785 559 541 581 604 586 497 422 319 277
1810.0 231 208 191 185 182 175 182 187 179 167
1850.0 173 172 168 165 162 158 161 165 160 157
1890.0 153 155 154 156 158 166 170 183 189 195
1930.0 199 190 186 176 181 183 185 187 189 185
1970.0 180 176 167 162 156 149 148 145 145 140
2010.0 141 136 137 137 140 145 152 157 161 166
2050.0 165 166 162 159 156 158 157 156 158 159
2090.0 160 160 163 163 163 158 159 155 152 152
2130.0 148 148 145 149 144 146 144 142 141 140
2170.0 140 137 135 134 132 132 132 131 131 133
2210.0 131 131 128 128 125 126 125 124 127 126
2250.0 127 125 124 124 126 125 126 126 126 128
2290.0 127 131 129 131 128 126 125 127 126 125
2330.0 127 126 132 125 124 129 118 123 119 117
2370.0 119 125 125 127 126 127 126 127 128 126
2410.0 125 125 124 123 124 122 124 122 122 122
2450.0 119 121 118 122 121 122 121 121 122 119
2490.0 121 118 119 117 118 119 122 121 123 125
2530.0 125 128 128 130 127 129 126 124 122 121
2570.0 121 121 122 122 124 124 127 127 127 126
2610.0 128 127 124 121 117 117 116 116 116 116
2650.0 119 121 122 119 122 119 119 119 119 119
2690.0 122 121 117 121 119 122 121 124 124 125
2730.0 124 124 126 124 125 122 123 121 121 122
2770.0 123 124 123 124 124 126 124 127 126 129
2810.0 130 133 135 138 145 153 166 185 222 278
2850.0 327 333 295 239 200 188 185 188 192 202
2890.0 213 236 258 274 288 296 315 320 318 301
2930.0 290 282 293 317 374 493 732 1145 1425 1362
2970.0 997 579 384 324 313 327 353 387 409 410
3010.0 389 360 337 329 338 350 349 338 315 288
3050.0 270 255 242 233 238 256 293 332 354 350
3090.0 318 269 229 204 192 185 177 173 166 159
3130.0 157 154 149 148 145 141 143 141 140 142
3170.0 143 143 144 142 141 138 139 137 139 137
3210.0 135 133 134 131 132 130 131 131 131 129
3250.0 126 129 129 130 129 131 127 129 129 128
3290.0 130 129 128 130 132 130 129 130 128 133
3330.0 133 129 134 135 134 137 132 136 133 137
3370.0 133 131 131 131 129 131 130 129 132 129
3410.0 135 131 128 129 131 137 135 136 128 130
3450.0 135 136 136 142 160 175 181 185 183 156
3490.0 145 134 129 126 122 121 130 123 130 125
3530.0 128 131 126 133 127 128 134 123 132 127
3570.0 128 129 128 133 126 129 129 126 133 126
3610.0 134 128 136 129 126 143 127 139 130 134
3650.0 146 123 142 125 138 139 136 146 132 143
3690.0 133 140 136 139 140 142 146 135 134 144
3730.0 140 143 133 160 130 154 144 139 144 144
3770.0 139 137 142 148 136 137 148 132 161 128
3810.0 150 137 148 151 134 140 142 148 142 148
3850.0 131 153 134 136 145 150 148 133 144 132
3890.0 150 134 146 136 149 138 138 144 143 149
3930.0 141 142 139 148 140 153 144 153 146 144
##END=
