##TITLE=Cycloheptanecarboxylic acid
##JCAMP-DX=4.24
##DATA TYPE=INFRARED SPECTRUM
##ORIGIN=Sadtler Research Labs Under US-EPA Contract
##OWNER=NIST Standard Reference Data Program
##CAS REGISTRY NO=1460-16-8
##MOLFORM=C 8 H 14 O 2
##XUNITS=1/CM
##YUNITS=ABSORBANCE
##XFACTOR=1.0
##YFACTOR=0.000152225
##DELTAX=4.0
##FIRSTX=450.0
##LASTX=3966.0
##FIRSTY=0.039731
##MAXX=3966
##MINX=450
##MAXY=1.52225
##MINY=0
##NPOINTS=880
##XYDATA=(X++(Y..Y))
450.0 261 194 88 161 96 129 93 60 67 168
490.0 11 106 182 246 184 249 337 326 457 463
530.0 516 585 703 866 874 1015 1202 1247 1318 1378
570.0 1473 1645 1675 1581 1507 1331 1239 1111 980 959
610.0 943 946 872 912 977 1069 1199 1224 1131 931
650.0 726 565 392 349 309 197 250 232 289 310
690.0 327 361 412 492 495 481 439 451 409 381
730.0 391 333 412 436 402 417 429 365 344 314
770.0 276 211 175 143 122 118 89 91 102 110
810.0 133 155 177 201 228 224 225 224 221 197
850.0 186 195 182 164 155 147 183 142 138 98
890.0 80 44 61 94 61 69 84 88 146 151
930.0 176 194 208 259 287 303 349 357 357 339
970.0 297 276 227 210 196 208 215 220 231 254
1010.0 268 326 383 449 434 419 433 436 439 477
1050.0 567 628 735 821 890 993 1079 1204 1369 1631
1090.0 2159 2946 3741 4581 5177 5501 5994 5395 5052 4532
1130.0 4079 3733 3423 3234 3015 2768 2464 2180 1909 1671
1170.0 1572 1499 1451 1403 1306 1193 1037 881 729 617
1210.0 530 462 409 375 340 338 340 339 346 355
1250.0 386 400 417 461 496 542 574 593 602 602
1290.0 620 611 622 628 619 610 615 622 630 643
1330.0 666 694 717 765 801 795 776 718 648 583
1370.0 567 571 610 654 671 669 598 518 429 347
1410.0 287 255 231 233 219 260 301 446 639 883
1450.0 1108 1274 1312 1369 1212 991 792 568 412 298
1490.0 194 155 106 77 72 51 34 34 34 28
1530.0 19 22 29 16 20 5 17 34 20 19
1570.0 14 16 23 10 17 7 24 6 20 24
1610.0 0 36 9 30 16 19 20 24 22 30
1650.0 34 50 37 26 46 35 51 53 61 83
1690.0 92 111 146 194 231 297 398 540 708 899
1730.0 1131 1391 1751 2094 2453 3073 3878 5205 6780 7804
1770.0 9521 8530 7543 5971 4274 3107 2220 1714 1281 972
1810.0 747 530 420 315 234 206 152 134 115 90
1850.0 84 66 63 49 46 48 37 40 33 34
1890.0 37 28 30 27 19 25 16 21 15 14
1930.0 17 14 16 12 14 21 15 18 16 13
1970.0 18 16 16 16 12 9 8 12 11 8
2010.0 9 4 4 3 2 5 2 5 4 4
2050.0 7 5 7 10 10 12 11 9 10 9
2090.0 8 8 7 5 3 4 3 8 9 8
2130.0 10 14 15 17 14 17 17 18 21 19
2170.0 26 21 28 31 30 36 35 39 41 40
2210.0 43 46 44 45 42 40 37 34 33 31
2250.0 31 28 28 27 24 25 21 18 22 17
2290.0 17 13 7 9 6 3 13 11 20 19
2330.0 30 34 33 41 28 26 31 32 49 42
2370.0 38 28 29 21 18 23 25 28 29 27
2410.0 27 26 27 29 28 29 30 29 30 28
2450.0 29 32 34 38 38 37 37 37 34 37
2490.0 33 34 32 33 31 27 30 30 32 29
2530.0 32 31 31 36 34 37 37 37 39 40
2570.0 37 40 37 39 40 42 45 44 49 48
2610.0 49 53 54 57 60 64 68 69 73 75
2650.0 79 84 89 96 103 116 125 136 145 152
2690.0 158 161 158 156 147 137 128 119 109 104
2730.0 97 88 81 79 77 78 78 75 77 80
2770.0 86 93 97 105 117 129 145 158 178 199
2810.0 212 223 236 252 265 287 316 365 451 605
2850.0 876 1303 1855 2432 2840 2990 2865 2563 2176 1820
2890.0 1584 1514 1599 1844 2258 2835 3618 4615 5839 7354
2930.0 8719 9652 10000 9601 8579 7083 5594 4208 3052 2141
2970.0 1464 1029 738 551 437 347 287 247 215 190
3010.0 167 154 139 129 122 110 108 101 95 90
3050.0 84 84 81 79 78 76 73 71 69 67
3090.0 64 61 59 61 60 55 58 57 59 54
3130.0 54 59 55 57 52 49 49 51 49 48
3170.0 50 52 47 50 49 52 49 50 47 47
3210.0 49 44 45 47 46 47 42 43 47 41
3250.0 41 39 40 44 38 34 36 35 33 27
3290.0 30 32 29 34 28 23 24 29 21 28
3330.0 21 20 19 19 20 17 18 21 20 22
3370.0 15 20 23 20 19 25 22 25 21 16
3410.0 19 25 29 32 27 29 30 19 17 21
3450.0 14 14 13 16 18 18 16 20 27 23
3490.0 24 38 37 47 44 59 69 74 79 84
3530.0 91 85 78 88 91 129 185 316 797 1798
3570.0 2887 3317 3256 2831 1667 666 239 147 89 79
3610.0 71 75 76 42 43 49 45 27 16 28
3650.0 46 38 28 16 6 33 27 56 20 12
3690.0 36 18 14 13 12 22 31 24 15 29
3730.0 29 43 57 25 61 44 50 20 28 19
3770.0 15 28 8 26 28 16 6 16 37 37
3810.0 29 26 33 56 34 23 27 56 50 14
3850.0 22 55 43 32 41 42 35 46 44 54
3890.0 36 54 34 47 44 43 28 16 12 19
3930.0 46 24 31 51 32 43 39 30 18 11
##END=
