##TITLE=Cyanamide, dimethyl-
##JCAMP-DX=4.24
##DATA TYPE=INFRARED SPECTRUM
##ORIGIN=Sadtler Research Labs Under US-EPA Contract
##OWNER=NIST Standard Reference Data Program
##CAS REGISTRY NO=1467-79-4
##MOLFORM=C 3 H 6 N 2
##XUNITS=1/CM
##YUNITS=ABSORBANCE
##XFACTOR=1.0
##YFACTOR=0.000090479
##DELTAX=4.0
##FIRSTX=450.0
##LASTX=3966.0
##FIRSTY=0.000000
##MAXX=3966
##MINX=450
##MAXY=0.90479
##MINY=0
##NPOINTS=880
##XYDATA=(X++(Y..Y))
450.0 0 62 65 112 150 195 185 205 229 284
490.0 315 331 401 450 430 534 573 619 627 623
530.0 540 410 360 344 290 313 321 210 260 230
570.0 187 147 167 148 213 190 216 205 208 266
610.0 268 328 292 299 332 347 323 293 246 256
650.0 238 203 205 167 189 195 216 200 177 191
690.0 214 200 206 192 187 183 180 208 220 224
730.0 226 248 317 261 304 430 438 444 511 477
770.0 417 414 390 311 241 220 214 213 227 207
810.0 184 184 178 160 190 162 167 158 163 158
850.0 167 149 175 140 199 192 151 161 160 165
890.0 151 185 164 176 192 207 202 196 174 162
930.0 187 185 164 159 158 171 183 166 185 181
970.0 188 201 211 223 255 280 314 366 448 499
1010.0 622 756 916 1106 1335 1550 1817 2163 2543 2905
1050.0 3231 3256 3100 3005 2892 2919 2708 2289 1755 1342
1090.0 1055 877 772 665 601 571 540 540 545 550
1130.0 556 581 622 623 676 693 643 670 664 644
1170.0 623 613 625 653 724 776 859 934 1000 1062
1210.0 1063 1079 1095 1098 1071 1017 935 862 769 685
1250.0 606 555 512 455 443 435 409 399 389 394
1290.0 418 446 555 705 936 1240 1537 1729 1880 2005
1330.0 1935 1979 1943 1787 1534 1286 1059 858 756 633
1370.0 559 547 497 469 482 482 478 505 468 484
1410.0 485 522 639 702 778 856 926 1080 1094 1225
1450.0 1409 1534 1792 1940 1849 1610 1681 1586 1484 1389
1490.0 1329 1128 1064 902 867 792 634 604 595 517
1530.0 473 487 461 511 461 419 427 468 433 362
1570.0 386 350 380 324 317 317 312 306 295 295
1610.0 288 270 308 262 256 228 232 255 202 240
1650.0 219 313 188 186 179 224 197 190 215 253
1690.0 200 196 264 323 276 258 282 337 274 260
1730.0 271 313 237 227 214 239 196 191 187 158
1770.0 197 181 148 152 162 144 186 151 178 141
1810.0 141 139 147 129 163 155 144 130 136 167
1850.0 134 118 118 123 118 150 109 111 111 111
1890.0 126 116 116 112 110 121 116 131 125 119
1930.0 116 115 117 130 129 120 123 124 129 129
1970.0 134 129 124 128 124 136 137 122 120 117
2010.0 123 117 127 118 117 117 116 117 118 116
2050.0 116 116 119 120 126 121 125 124 129 130
2090.0 141 134 134 134 141 140 139 135 139 139
2130.0 139 138 150 150 161 178 197 221 253 279
2170.0 306 339 391 468 585 800 1125 1626 2409 3529
2210.0 4997 6692 8141 9044 9304 9709 10000 9248 8952 8038
2250.0 5480 2978 1509 900 647 496 409 351 327 298
2290.0 265 236 208 186 174 171 164 162 168 164
2330.0 171 180 184 195 201 200 213 222 230 220
2370.0 216 227 208 197 185 173 167 162 150 149
2410.0 137 128 120 111 110 104 102 100 100 100
2450.0 106 105 105 110 110 109 105 101 104 102
2490.0 99 93 88 93 93 92 93 93 97 97
2530.0 97 98 98 96 96 92 97 90 91 91
2570.0 85 85 89 88 88 90 87 84 84 84
2610.0 83 83 83 82 82 82 82 88 90 93
2650.0 87 86 86 86 83 75 75 70 65 63
2690.0 64 59 59 62 61 63 63 69 68 74
2730.0 79 79 84 89 96 99 108 113 117 140
2770.0 156 182 205 233 283 339 420 517 651 810
2810.0 965 1092 1225 1230 1185 1262 1361 1314 1206 1154
2850.0 1152 1210 1323 1393 1440 1553 1667 1747 1816 1921
2890.0 2091 2228 2425 2626 2776 2833 2814 2879 2953 3066
2930.0 3102 3065 3087 3058 3030 3029 3013 3008 2978 2857
2970.0 2635 2442 2178 1923 1790 1663 1552 1459 1370 1240
3010.0 1127 1112 999 952 868 729 598 480 407 360
3050.0 337 309 286 274 264 245 234 227 211 203
3090.0 202 188 181 172 166 159 148 142 142 129
3130.0 130 127 122 115 110 106 109 104 103 92
3170.0 92 86 92 81 84 79 84 81 75 80
3210.0 80 79 74 74 80 79 85 89 93 98
3250.0 103 110 116 131 136 152 164 174 179 179
3290.0 174 165 157 151 128 111 90 87 86 80
3330.0 81 73 80 73 73 75 75 76 85 80
3370.0 78 79 78 83 83 78 78 79 77 71
3410.0 68 75 67 66 67 65 71 76 70 77
3450.0 73 70 69 67 70 59 61 74 85 64
3490.0 69 73 74 89 99 94 91 96 103 134
3530.0 137 130 151 151 191 193 195 171 180 196
3570.0 206 138 120 112 112 144 96 97 85 76
3610.0 119 118 106 107 81 142 94 71 71 86
3650.0 141 99 88 71 72 107 104 122 81 82
3690.0 109 85 75 91 87 103 117 91 97 121
3730.0 110 129 148 107 146 125 114 84 78 79
3770.0 78 65 59 65 62 62 59 72 90 76
3810.0 73 71 86 87 75 75 83 95 88 77
3850.0 86 127 99 89 107 107 95 90 100 102
3890.0 93 102 96 116 107 84 82 93 88 88
3930.0 88 93 85 88 93 92 57 59 59 59
##END=
