##TITLE=Benzenamine, 2,4,6-tribromo-
##JCAMP-DX=4.24
##DATA TYPE=INFRARED SPECTRUM
##ORIGIN=Sadtler Research Labs Under US-EPA Contract
##OWNER=NIST Standard Reference Data Program
##CAS REGISTRY NO=147-82-0
##MOLFORM=C 6 H 4 Br 3 N
##XUNITS=1/CM
##YUNITS=ABSORBANCE
##XFACTOR=1.0
##YFACTOR=0.000095459
##DELTAX=4.0
##FIRSTX=450.0
##LASTX=3966.0
##FIRSTY=0.038947
##MAXX=3966
##MINX=450
##MAXY=0.95459
##MINY=0
##NPOINTS=880
##XYDATA=(X++(Y..Y))
450.0 408 419 404 466 467 530 611 574 511 483
490.0 393 333 436 356 396 339 207 229 262 151
530.0 209 327 297 435 483 233 262 303 170 257
570.0 197 112 200 69 160 264 173 183 286 204
610.0 272 307 288 293 366 341 464 575 550 699
650.0 731 803 938 1034 1296 2112 2468 2322 1569 687
690.0 347 451 475 514 709 611 537 713 1084 1686
730.0 2281 2345 1751 1078 691 529 460 418 489 550
770.0 431 422 430 370 355 346 259 342 295 183
810.0 229 251 139 180 158 116 297 463 815 1106
850.0 1108 1225 1678 1845 971 552 259 260 287 180
890.0 212 240 166 183 199 135 128 174 160 207
930.0 193 172 140 154 121 162 176 108 149 119
970.0 135 174 149 138 158 111 90 137 103 88
1010.0 158 97 129 163 151 211 270 301 371 410
1050.0 491 709 927 977 894 622 467 509 612 788
1090.0 1020 1109 974 727 418 245 193 113 101 150
1130.0 54 47 92 26 67 85 26 69 105 88
1170.0 148 166 167 188 240 250 211 182 140 157
1210.0 142 170 319 532 626 537 325 202 180 119
1250.0 144 164 139 139 176 188 308 470 543 561
1290.0 421 219 121 98 57 82 86 65 85 77
1330.0 59 78 91 92 122 131 140 189 202 178
1370.0 282 470 846 1193 1046 669 446 438 557 691
1410.0 678 623 513 430 494 601 667 831 1162 2069
1450.0 4183 7440 10000 8579 4536 1595 673 388 300 289
1490.0 222 179 196 146 204 207 174 219 307 371
1530.0 555 860 1190 1564 1558 1233 1023 1241 1512 1549
1570.0 1179 714 565 513 559 644 675 787 1098 1563
1610.0 2267 2926 3008 2516 2035 1513 1049 647 349 262
1650.0 211 240 134 141 101 133 128 87 105 141
1690.0 76 116 150 127 126 111 120 215 219 272
1730.0 341 320 200 167 133 121 116 93 87 87
1770.0 80 94 81 58 64 75 67 63 73 41
1810.0 56 65 45 58 68 56 65 61 52 74
1850.0 57 53 58 48 33 73 50 52 64 47
1890.0 55 60 48 48 72 50 66 87 60 61
1930.0 81 61 70 79 63 72 73 60 68 69
1970.0 42 54 45 44 54 56 52 57 54 49
2010.0 63 46 40 55 50 47 60 47 54 66
2050.0 46 48 61 46 55 65 48 53 73 46
2090.0 60 61 53 74 67 61 69 75 61 71
2130.0 66 61 66 48 45 64 51 46 64 41
2170.0 51 57 39 47 52 42 54 57 34 51
2210.0 58 40 52 55 41 55 56 41 56 59
2250.0 45 57 57 56 65 59 50 78 56 62
2290.0 88 73 89 103 82 102 126 103 129 126
2330.0 105 131 157 134 138 129 142 166 197 138
2370.0 131 101 54 67 47 26 42 28 31 53
2410.0 41 27 52 42 33 42 26 36 53 39
2450.0 43 51 34 45 53 32 41 49 32 46
2490.0 57 42 65 69 64 88 77 52 63 48
2530.0 31 48 36 29 54 33 36 61 56 55
2570.0 76 53 57 63 36 42 64 42 50 64
2610.0 42 52 53 30 54 45 32 54 50 24
2650.0 51 49 32 58 48 27 45 33 29 56
2690.0 26 27 43 17 34 43 21 36 48 25
2730.0 43 57 45 47 48 21 49 49 23 40
2770.0 44 18 37 24 24 50 43 40 53 47
2810.0 43 73 63 60 79 67 57 63 43 37
2850.0 51 19 32 46 26 39 48 26 47 61
2890.0 40 66 58 39 57 44 19 39 29 0
2930.0 29 16 19 43 31 21 37 18 27 68
2970.0 30 34 52 37 45 63 22 50 60 33
3010.0 51 57 22 52 48 36 62 51 30 62
3050.0 50 31 63 52 49 74 61 66 94 77
3090.0 80 91 69 69 91 60 66 89 60 77
3130.0 83 71 76 92 65 79 87 63 83 77
3170.0 59 89 75 61 73 64 50 58 59 43
3210.0 80 52 39 71 58 71 77 52 63 85
3250.0 44 59 96 44 57 84 52 66 79 46
3290.0 74 90 51 86 81 52 88 73 50 85
3330.0 69 67 103 76 59 99 82 68 118 97
3370.0 106 160 156 199 272 325 468 692 874 1046
3410.0 1044 914 834 692 481 335 202 144 154 154
3450.0 134 189 188 173 223 247 275 338 378 443
3490.0 651 807 1030 1215 1162 1093 1026 882 762 622
3530.0 427 339 243 159 134 162 117 134 128 118
3570.0 139 125 95 112 124 88 114 94 104 118
3610.0 102 95 119 78 95 148 86 91 104 79
3650.0 110 111 70 67 93 78 114 129 79 96
3690.0 132 68 70 66 62 79 85 35 82 73
3730.0 50 89 79 62 94 85 67 66 39 29
3770.0 58 33 6 32 12 19 47 24 57 58
3810.0 34 47 83 57 66 63 41 82 67 26
3850.0 69 83 52 89 72 51 67 35 14 55
3890.0 24 22 46 50 31 49 37 35 43 10
3930.0 22 28 9 17 27 1 2 2 2 2
##END=
