##TITLE=2-Hydroxy-5-methylbenzophenone
##JCAMP-DX=4.24
##DATA TYPE=INFRARED SPECTRUM
##ORIGIN=Sadtler Research Labs Under US-EPA Contract
##OWNER=NIST Standard Reference Data Program
##CAS REGISTRY NO=1470-57-1
##MOLFORM=C 14 H 12 O 2
##XUNITS=1/CM
##YUNITS=ABSORBANCE
##XFACTOR=1.0
##YFACTOR=0.000085666
##DELTAX=4.0
##FIRSTX=450.0
##LASTX=3966.0
##FIRSTY=0.000857
##MAXX=3966
##MINX=450
##MAXY=0.85666
##MINY=0
##NPOINTS=880
##XYDATA=(X++(Y..Y))
450.0 10 5 67 187 260 420 428 446 400 382
490.0 258 187 155 147 150 188 239 257 367 469
530.0 676 866 935 736 576 499 469 500 508 560
570.0 510 501 411 373 327 315 321 313 339 338
610.0 362 349 369 346 333 316 338 363 440 680
650.0 1363 2700 3753 3104 2409 1318 1130 1041 1067 1235
690.0 1784 2730 3730 3913 3202 2089 1430 1157 1042 1011
730.0 1009 1029 1055 1232 1565 1915 2052 1843 1601 1331
770.0 1167 1069 1104 1232 1359 1389 1223 1076 952 902
810.0 823 893 1209 1706 2303 2310 1532 1050 767 856
850.0 1323 1902 2150 1800 1174 762 587 472 404 379
890.0 418 408 381 327 311 316 362 431 463 446
930.0 406 394 441 578 936 1746 2889 3468 2998 1838
970.0 920 569 417 347 315 296 318 370 382 325
1010.0 246 201 239 315 410 416 354 273 228 234
1050.0 238 263 279 317 370 430 466 466 436 411
1090.0 401 397 413 457 534 668 886 1062 1133 1121
1130.0 1317 1894 2245 2058 1375 893 768 745 784 837
1170.0 980 1276 1712 1969 1975 1847 1943 2460 3293 4340
1210.0 5471 6893 7854 7971 6757 5044 3899 3814 4579 5310
1250.0 5283 4247 3032 2255 1939 1751 1673 1806 2235 3043
1290.0 4147 5495 6072 5607 4225 3230 3230 3954 5027 6101
1330.0 6733 6342 5501 4323 3501 2899 2484 2210 2004 1834
1370.0 1655 1564 1440 1403 1404 1414 1389 1304 1163 1052
1410.0 990 904 972 923 944 934 1002 1088 1235 1420
1450.0 1467 1416 1450 1503 1789 2385 3442 5022 5892 6827
1490.0 5815 4630 3416 2474 1835 1347 1170 1004 981 880
1530.0 879 878 871 975 974 955 958 1041 1067 1131
1570.0 1385 1730 2336 2981 3649 3968 3704 3364 3090 3147
1610.0 3115 3298 3388 3625 4043 5271 7313 9245 10000 8662
1650.0 6306 4026 2490 1975 1375 1175 992 863 827 733
1690.0 663 536 555 462 494 499 633 689 539 378
1730.0 320 365 252 262 266 303 272 303 308 289
1770.0 343 361 350 335 286 239 214 208 249 241
1810.0 242 236 175 156 137 144 118 113 154 172
1850.0 152 114 113 91 102 115 90 94 108 129
1890.0 144 160 170 198 224 238 215 163 132 90
1930.0 78 72 84 110 133 137 151 142 125 131
1970.0 113 90 61 49 42 58 53 48 43 42
2010.0 39 42 53 46 47 45 43 43 37 35
2050.0 28 35 34 44 50 52 55 60 60 56
2090.0 54 39 31 26 23 20 19 13 9 8
2130.0 4 7 2 8 9 13 12 14 14 11
2170.0 13 13 14 11 13 13 13 13 12 7
2210.0 3 5 0 2 3 5 8 12 20 24
2250.0 32 35 38 38 37 37 40 39 40 43
2290.0 42 48 43 46 47 60 65 60 67 57
2330.0 55 54 63 74 81 67 72 58 75 80
2370.0 75 77 75 74 60 51 41 39 38 46
2410.0 48 51 60 60 64 64 63 59 58 55
2450.0 55 53 49 53 51 54 49 51 53 54
2490.0 62 64 70 72 76 76 81 85 90 88
2530.0 89 95 98 104 104 105 99 95 93 96
2570.0 104 105 115 119 125 126 130 134 133 127
2610.0 122 126 126 127 124 122 114 112 112 110
2650.0 109 110 112 113 122 127 134 144 151 157
2690.0 162 168 176 185 183 188 192 200 207 213
2730.0 211 208 213 212 221 219 217 201 190 187
2770.0 188 196 200 204 209 211 217 226 233 243
2810.0 248 253 254 256 258 263 272 275 283 294
2850.0 313 346 392 456 534 626 704 752 757 724
2890.0 676 626 604 598 620 658 716 794 921 1094
2930.0 1267 1370 1316 1139 921 763 691 670 653 627
2970.0 623 627 647 641 633 611 610 634 675 733
3010.0 793 865 941 1058 1231 1453 1629 1681 1582 1415
3050.0 1299 1292 1393 1551 1881 2223 2252 1958 1566 1395
3090.0 1354 1238 1100 1009 962 914 850 780 732 708
3130.0 684 678 670 669 675 675 677 674 675 669
3170.0 664 663 670 671 681 689 697 708 713 715
3210.0 710 707 707 697 690 686 686 676 680 686
3250.0 682 673 671 659 654 656 632 626 615 616
3290.0 615 606 593 593 592 579 569 570 563 556
3330.0 546 533 527 515 505 498 478 476 466 447
3370.0 445 436 424 415 410 401 386 379 373 367
3410.0 357 344 337 329 316 310 300 289 280 271
3450.0 262 258 253 239 226 227 215 212 207 191
3490.0 186 179 176 174 165 151 153 143 139 142
3530.0 133 116 114 113 112 103 111 111 91 111
3570.0 101 87 92 101 102 107 110 99 87 66
3610.0 63 49 46 45 38 45 41 41 51 41
3650.0 57 55 52 38 28 22 7 21 18 32
3690.0 17 22 29 22 30 16 26 30 26 39
3730.0 22 24 11 21 3 4 14 11 8 20
3770.0 8 9 19 14 12 3 1 0 0 0
3810.0 3 1 0 7 0 4 0 3 4 19
3850.0 6 9 15 2 17 6 11 5 34 1
3890.0 16 15 17 18 27 22 25 27 31 23
3930.0 18 36 27 24 33 33 23 25 23 20
##END=
