##TITLE=2-Octenoic acid
##JCAMP-DX=4.24
##DATA TYPE=INFRARED SPECTRUM
##ORIGIN=Sadtler Research Labs Under US-EPA Contract
##OWNER=NIST Standard Reference Data Program
##CAS REGISTRY NO=1470-50-4
##MOLFORM=C 8 H 14 O 2
##XUNITS=1/CM
##YUNITS=ABSORBANCE
##XFACTOR=1.0
##YFACTOR=0.000076181
##DELTAX=4.0
##FIRSTX=450.0
##LASTX=3966.0
##FIRSTY=0.022169
##MAXX=3966
##MINX=450
##MAXY=0.76181
##MINY=0
##NPOINTS=880
##XYDATA=(X++(Y..Y))
450.0 291 240 275 132 0 132 317 87 294 268
490.0 205 273 505 510 394 558 413 651 793 781
530.0 799 982 935 1150 1267 1477 1704 1753 1701 1576
570.0 1569 1534 1577 1280 1081 911 808 654 596 637
610.0 635 745 937 1013 973 944 961 960 1083 1101
650.0 1119 1062 881 743 572 493 479 424 444 483
690.0 465 490 532 685 713 646 574 513 539 578
730.0 456 400 370 347 306 217 281 268 255 235
770.0 212 210 216 236 180 138 165 188 262 243
810.0 211 229 243 262 321 335 351 337 318 369
850.0 421 430 440 411 454 496 494 497 513 379
890.0 320 441 366 314 379 373 316 381 393 369
930.0 279 312 334 345 411 493 561 670 787 857
970.0 984 1039 1115 1167 1169 1125 1010 898 766 644
1010.0 597 572 567 570 521 574 680 784 823 813
1050.0 794 757 781 787 846 874 948 1047 1158 1299
1090.0 1760 2264 3191 4348 5094 5230 4930 4311 3865 3673
1130.0 3685 3746 3871 4002 3939 3841 3691 3523 3346 3017
1170.0 2618 2216 1836 1568 1400 1255 1144 1032 936 856
1210.0 814 799 762 772 796 825 844 860 896 925
1250.0 966 1015 1059 1072 1061 1008 965 926 937 972
1290.0 927 912 886 876 875 841 828 840 846 892
1330.0 970 1089 1266 1452 1662 1865 2026 2117 2169 2142
1370.0 1991 1681 1401 1142 915 784 660 546 453 410
1410.0 391 379 366 356 386 413 440 489 546 586
1450.0 617 627 700 687 703 633 591 443 355 275
1490.0 209 179 134 135 119 77 125 82 94 92
1530.0 62 103 30 52 58 64 66 30 56 70
1570.0 59 65 45 83 86 94 67 105 75 94
1610.0 153 77 180 146 225 301 377 565 767 1140
1650.0 1637 2074 2438 2233 1579 900 516 349 308 295
1690.0 312 342 349 416 533 643 818 936 1166 1403
1730.0 1694 2190 2898 3945 5280 7104 8351 9922 10000 8832
1770.0 7606 5667 4449 3465 2656 2130 1593 1294 979 778
1810.0 664 510 463 372 298 268 225 201 180 131
1850.0 149 120 127 104 95 83 94 76 85 67
1890.0 70 51 62 55 49 49 54 34 49 25
1930.0 43 43 45 37 36 42 38 53 48 40
1970.0 48 42 41 43 33 45 36 47 41 44
2010.0 45 52 53 49 49 54 46 54 53 49
2050.0 53 49 48 43 37 43 39 37 25 41
2090.0 29 20 28 27 21 27 25 23 18 19
2130.0 20 21 16 24 27 31 27 21 19 28
2170.0 24 23 31 29 35 29 39 40 24 29
2210.0 27 40 28 29 29 34 35 29 36 33
2250.0 27 28 30 29 25 27 25 33 27 23
2290.0 26 33 34 31 25 24 28 16 26 16
2330.0 16 16 16 16 16 16 16 16 16 16
2370.0 19 16 16 23 24 25 21 26 20 25
2410.0 27 22 21 20 22 26 24 21 21 21
2450.0 27 27 29 19 25 24 28 31 27 28
2490.0 31 25 26 28 26 29 33 29 34 31
2530.0 27 29 31 33 30 25 35 38 39 41
2570.0 41 46 46 39 43 41 39 39 41 41
2610.0 44 44 40 43 46 42 45 50 53 54
2650.0 55 62 60 64 64 72 73 75 71 75
2690.0 73 67 67 71 70 65 68 70 72 74
2730.0 78 83 90 91 91 97 90 88 86 87
2770.0 93 95 95 101 108 117 122 141 157 171
2810.0 178 194 211 232 253 292 343 400 485 602
2850.0 759 959 1212 1491 1740 1908 1971 1977 1960 1889
2890.0 1761 1612 1509 1520 1638 1823 2099 2471 2960 3594
2930.0 4282 4887 5214 5126 4655 3986 3443 3163 3256 3608
2970.0 3780 3536 2850 2045 1390 1003 773 621 533 474
3010.0 433 395 367 350 325 308 297 284 264 252
3050.0 257 251 250 255 241 233 207 185 166 149
3090.0 137 127 112 105 103 109 100 99 92 87
3130.0 91 93 82 80 71 71 79 70 72 69
3170.0 72 69 71 70 75 68 67 64 55 63
3210.0 58 55 46 48 37 49 43 44 31 39
3250.0 40 33 33 33 41 43 35 24 26 27
3290.0 22 30 35 25 30 27 17 33 28 23
3330.0 24 26 40 42 34 33 33 27 24 28
3370.0 42 30 44 29 39 40 43 42 42 23
3410.0 47 52 47 39 21 28 17 34 39 35
3450.0 29 54 38 40 41 48 39 47 58 55
3490.0 78 72 79 77 61 69 77 58 58 37
3530.0 46 44 60 69 61 84 79 122 204 294
3570.0 608 1210 2600 3872 4253 3591 2091 964 410 258
3610.0 123 114 67 88 79 62 69 87 67 59
3650.0 17 73 74 86 70 43 47 18 66 48
3690.0 31 47 83 65 83 67 52 69 51 59
3730.0 76 11 27 62 18 79 15 68 45 83
3770.0 71 72 104 89 72 90 74 84 58 65
3810.0 65 58 48 22 89 77 67 53 39 83
3850.0 65 42 42 47 106 62 86 20 58 47
3890.0 104 33 75 55 65 69 77 73 42 92
3930.0 64 46 75 77 53 36 90 95 74 84
##END=
