##TITLE=Valeric acid, 2-acetyl-5-chloro-, ethyl ester
##JCAMP-DX=4.24
##DATA TYPE=INFRARED SPECTRUM
##ORIGIN=Sadtler Research Labs Under US-EPA Contract
##OWNER=NIST Standard Reference Data Program
##CAS REGISTRY NO=14749-45-2
##MOLFORM=C 9 H 15 Cl O 3
##XUNITS=1/CM
##YUNITS=ABSORBANCE
##XFACTOR=1.0
##YFACTOR=0.000050116
##DELTAX=4.0
##FIRSTX=450.0
##LASTX=3966.0
##FIRSTY=0.001904
##MAXX=3966
##MINX=450
##MAXY=0.50116
##MINY=0
##NPOINTS=880
##XYDATA=(X++(Y..Y))
450.0 38 119 188 97 178 164 92 123 148 190
490.0 182 172 165 176 226 247 269 304 280 276
530.0 255 225 234 189 134 116 103 107 117 133
570.0 141 158 219 273 326 333 369 327 272 187
610.0 115 69 55 33 41 54 106 155 244 373
650.0 531 765 945 1048 1002 826 537 334 216 162
690.0 139 147 157 219 283 370 542 685 816 912
730.0 955 991 1067 1218 1345 1319 1184 896 683 494
770.0 372 315 282 273 271 267 293 340 387 400
810.0 366 320 294 270 252 243 229 215 230 234
850.0 261 255 287 308 336 341 334 353 355 319
890.0 307 314 314 288 275 255 247 249 275 318
930.0 378 434 508 572 637 681 686 674 641 597
970.0 558 520 497 477 472 482 508 539 579 633
1010.0 678 732 820 906 1024 1137 1251 1417 1529 1657
1050.0 1741 1782 1815 1792 1824 1727 1713 1674 1592 1501
1090.0 1391 1270 1180 1104 1040 968 941 943 986 1085
1130.0 1263 1533 1890 2259 2610 2942 3255 3593 3863 3889
1170.0 3740 3425 3044 2752 2516 2359 2251 2162 2090 2047
1210.0 2018 2002 1986 1954 1911 1870 1830 1789 1809 1827
1250.0 1897 1945 1983 2019 2053 2115 2265 2413 2506 2509
1290.0 2454 2311 2210 2122 2072 1991 1920 1824 1723 1615
1330.0 1544 1537 1604 1788 2113 2618 3307 4033 4584 4718
1370.0 4410 3760 3006 2364 1891 1591 1466 1307 1290 1372
1410.0 1420 1495 1517 1559 1547 1590 1622 1787 1883 2088
1450.0 2206 2166 2035 1636 1345 1041 828 604 473 329
1490.0 275 201 171 114 125 99 70 64 75 76
1530.0 43 84 59 82 71 91 93 109 137 110
1570.0 131 110 137 76 78 46 50 46 74 84
1610.0 114 153 202 225 210 220 169 176 157 211
1650.0 180 311 271 309 330 403 429 562 649 854
1690.0 1038 1287 1576 1954 2364 3018 3928 5193 6701 8282
1730.0 9488 10000 9624 8542 7026 5558 4303 3381 2749 2285
1770.0 1913 1620 1399 1147 911 735 647 543 505 460
1810.0 435 393 374 340 300 233 192 133 67 42
1850.0 18 12 6 8 0 7 2 4 6 0
1890.0 16 11 11 12 13 18 12 28 14 21
1930.0 25 30 31 33 34 38 38 37 45 40
1970.0 39 40 39 39 43 43 46 44 52 48
2010.0 50 52 55 56 59 56 58 56 55 60
2050.0 64 64 69 64 71 74 77 81 84 85
2090.0 87 92 92 95 91 90 92 90 90 89
2130.0 92 90 88 90 86 88 87 87 87 86
2170.0 93 92 89 88 85 84 81 85 84 81
2210.0 84 84 80 83 84 84 86 89 87 92
2250.0 94 98 106 105 108 110 112 115 117 118
2290.0 123 123 141 153 155 153 139 120 113 93
2330.0 83 80 92 104 134 103 79 71 98 105
2370.0 126 135 133 123 89 60 48 46 49 45
2410.0 45 37 33 37 38 40 46 53 62 63
2450.0 60 63 56 55 57 59 53 54 53 56
2490.0 59 58 59 59 63 66 63 61 59 55
2530.0 53 50 44 46 45 38 40 40 43 41
2570.0 36 36 39 42 46 44 42 43 44 43
2610.0 48 47 45 51 50 50 58 53 57 64
2650.0 60 70 75 80 86 89 89 102 103 104
2690.0 112 112 116 120 124 118 116 118 124 131
2730.0 130 142 148 148 155 162 171 174 178 177
2770.0 185 193 202 207 218 232 251 278 302 335
2810.0 364 400 439 477 512 562 637 738 864 1022
2850.0 1208 1413 1619 1826 2015 2184 2339 2494 2602 2681
2890.0 2771 2930 3143 3398 3566 3690 3749 3829 3976 4148
2930.0 4355 4625 4953 5292 5574 5817 6099 6239 6326 6219
2970.0 5831 5237 4549 4032 3657 3391 3196 3081 2880 2593
3010.0 2225 1872 1570 1292 1053 877 745 644 578 526
3050.0 494 463 437 429 403 392 365 344 326 302
3090.0 278 253 235 213 194 186 178 154 144 129
3130.0 120 118 113 104 107 102 96 100 92 93
3170.0 89 93 90 85 88 84 83 83 77 85
3210.0 75 80 78 72 68 71 71 62 68 63
3250.0 67 63 60 59 59 65 60 57 52 55
3290.0 52 55 51 50 53 55 56 51 54 62
3330.0 55 53 65 56 55 54 60 63 66 64
3370.0 67 70 77 71 76 67 71 74 78 84
3410.0 88 84 102 116 121 145 159 172 187 191
3450.0 203 202 189 167 134 119 97 86 77 76
3490.0 76 65 62 65 48 63 55 55 50 48
3530.0 50 51 45 45 62 51 64 31 54 48
3570.0 70 64 55 55 55 67 69 56 73 64
3610.0 93 69 80 111 99 154 127 154 170 192
3650.0 234 214 265 256 246 277 278 298 234 244
3690.0 239 216 197 171 133 120 97 82 65 69
3730.0 76 71 96 53 122 43 88 37 51 43
3770.0 40 44 43 53 47 49 45 41 57 52
3810.0 47 40 60 72 41 62 56 77 62 64
3850.0 42 103 73 55 67 80 58 48 46 80
3890.0 49 61 54 76 47 56 41 74 57 25
3930.0 50 61 42 64 42 62 57 44 45 55
##END=
