##TITLE=2,5-Dichloro-.alpha.-methylbenzyl alcohol
##JCAMP-DX=4.24
##DATA TYPE=INFRARED SPECTRUM
##ORIGIN=Sadtler Research Labs Under US-EPA Contract
##OWNER=NIST Standard Reference Data Program
##CAS REGISTRY NO=1475-12-3
##MOLFORM=C 8 H 8 Cl 2 O
##XUNITS=1/CM
##YUNITS=ABSORBANCE
##XFACTOR=1.0
##YFACTOR=0.000056833
##DELTAX=4.0
##FIRSTX=450.0
##LASTX=3966.0
##FIRSTY=0.037908
##MAXX=3966
##MINX=450
##MAXY=0.56833
##MINY=0
##NPOINTS=880
##XYDATA=(X++(Y..Y))
450.0 667 625 838 1089 1302 1110 1003 716 573 396
490.0 419 433 504 828 1221 1863 2377 2632 2342 1749
530.0 1033 754 590 502 479 476 478 523 619 597
570.0 601 508 518 552 570 575 490 480 461 513
610.0 705 951 1024 987 777 460 281 180 168 139
650.0 118 61 40 11 22 59 0 33 28 39
690.0 56 93 149 207 275 301 324 275 240 190
730.0 167 134 117 113 63 62 37 63 28 48
770.0 31 50 51 82 118 122 331 669 1547 2389
810.0 3920 4535 3428 2453 1735 1260 1260 1129 1007 660
850.0 407 271 246 261 303 394 513 750 1028 1354
890.0 1575 1689 1810 2058 2320 2414 2187 1700 1197 819
930.0 590 484 418 375 331 298 281 249 240 244
970.0 248 269 283 314 354 433 545 734 1015 1403
1010.0 1844 2198 2397 2468 2605 2905 3477 4285 5227 5976
1050.0 6238 5806 4824 3782 2925 2465 2379 2636 3279 4504
1090.0 6331 8295 9907 10000 8630 6426 4060 2397 1647 1469
1130.0 1731 2118 2295 2224 1823 1390 1152 1056 1046 1083
1170.0 1164 1288 1419 1565 1739 1915 2007 1928 1692 1362
1210.0 1120 1028 1020 1067 1135 1223 1339 1586 2019 2609
1250.0 3294 3938 4312 4266 3879 3111 2335 1723 1312 1047
1290.0 903 813 765 741 743 776 825 927 1072 1275
1330.0 1504 1735 1889 1958 1968 1935 1949 1942 1970 2002
1370.0 2114 2348 2711 2962 3088 3184 2999 2743 2316 1823
1410.0 1390 1154 972 919 939 1034 1202 1379 1889 2587
1450.0 3967 5316 6892 7510 6895 5594 3822 2406 1638 1148
1490.0 815 543 372 260 209 171 148 158 120 153
1530.0 144 171 154 172 228 314 446 548 702 681
1570.0 577 441 434 548 652 661 538 386 263 225
1610.0 232 276 315 343 309 265 170 98 80 55
1650.0 39 40 57 65 60 57 52 73 60 70
1690.0 84 103 98 132 195 288 359 392 410 343
1730.0 259 186 182 190 206 209 197 169 132 143
1770.0 120 118 121 114 106 88 69 65 60 53
1810.0 45 34 32 27 32 29 39 35 19 14
1850.0 8 10 14 29 46 86 152 231 269 247
1890.0 194 110 46 27 18 18 17 23 21 24
1930.0 20 22 15 8 4 5 8 2 7 5
1970.0 12 11 10 12 10 12 12 12 11 17
2010.0 14 14 12 11 9 10 8 2 2 6
2050.0 5 2 3 1 2 5 1 5 4 4
2090.0 5 4 9 10 5 10 11 10 5 4
2130.0 6 1 1 1 3 1 3 7 7 11
2170.0 14 15 15 14 11 9 10 8 9 2
2210.0 4 6 3 2 3 1 0 2 2 2
2250.0 4 10 11 12 22 33 39 46 48 50
2290.0 50 56 64 67 70 77 72 66 63 64
2330.0 52 55 46 58 70 74 74 62 84 65
2370.0 65 61 56 56 41 31 19 15 15 14
2410.0 10 15 12 17 17 18 28 24 25 23
2450.0 21 17 21 17 17 19 15 17 14 18
2490.0 20 21 27 30 27 32 29 27 28 25
2530.0 24 19 18 19 15 15 16 17 15 17
2570.0 18 20 24 28 31 33 37 40 42 43
2610.0 46 43 44 42 41 44 44 43 39 45
2650.0 43 43 38 35 38 36 34 31 31 31
2690.0 34 31 35 37 42 40 46 47 52 57
2730.0 59 52 50 48 52 49 49 52 56 52
2770.0 53 52 55 56 64 68 71 85 93 110
2810.0 114 125 137 143 153 150 153 160 157 163
2850.0 166 176 207 246 296 362 439 499 538 555
2890.0 556 563 561 584 610 663 725 811 952 1137
2930.0 1339 1522 1610 1551 1337 1052 820 676 670 823
2970.0 1167 1677 2268 2832 3220 3194 2759 2071 1327 769
3010.0 458 305 234 201 182 157 141 126 107 96
3050.0 89 87 99 107 142 205 275 329 338 303
3090.0 244 187 158 128 101 82 75 73 68 70
3130.0 68 62 58 47 40 43 35 30 34 31
3170.0 29 28 25 27 28 24 34 29 29 31
3210.0 33 29 27 31 28 29 24 15 20 2
3250.0 9 14 8 12 12 5 4 0 2 9
3290.0 2 9 4 13 14 18 17 13 12 13
3330.0 13 20 16 13 15 16 16 27 32 24
3370.0 18 32 30 27 17 25 33 32 38 36
3410.0 41 38 37 29 37 29 37 33 28 29
3450.0 25 31 29 22 20 23 27 10 23 18
3490.0 29 19 27 25 35 24 31 32 24 22
3530.0 29 28 31 20 27 32 35 29 38 33
3570.0 37 43 54 58 58 50 67 72 91 121
3610.0 133 182 226 307 416 511 673 864 1169 1511
3650.0 1804 1748 1610 1347 1018 710 436 277 189 162
3690.0 126 108 85 85 63 41 23 39 20 25
3730.0 29 4 8 15 0 0 0 7 15 19
3770.0 0 12 16 10 4 13 15 5 0 0
3810.0 4 0 0 0 7 22 0 2 2 0
3850.0 0 5 0 10 10 0 9 22 13 11
3890.0 15 9 23 11 13 27 29 24 20 4
3930.0 8 8 15 42 0 10 19 17 1 3
##END=
