##TITLE=1,3-Benzenedimethanamine
##JCAMP-DX=4.24
##DATA TYPE=INFRARED SPECTRUM
##ORIGIN=Sadtler Research Labs Under US-EPA Contract
##OWNER=NIST Standard Reference Data Program
##CAS REGISTRY NO=1477-55-0
##MOLFORM=C 8 H 12 N 2
##XUNITS=1/CM
##YUNITS=ABSORBANCE
##XFACTOR=1.0
##YFACTOR=0.000074625
##DELTAX=4.0
##FIRSTX=450.0
##LASTX=3966.0
##FIRSTY=0.047760
##MAXX=3966
##MINX=450
##MAXY=0.74625
##MINY=0
##NPOINTS=880
##XYDATA=(X++(Y..Y))
450.0 640 559 631 438 497 399 364 792 343 82
490.0 321 0 321 188 252 225 289 215 235 442
530.0 267 263 393 215 444 630 488 745 625 744
570.0 777 700 840 824 708 713 679 745 691 695
610.0 708 657 786 645 690 723 699 634 651 723
650.0 717 658 755 752 944 897 1150 1397 1732 2233
690.0 2879 3453 4542 4887 4906 5001 4906 4872 4772 4694
730.0 4541 4323 4499 4406 4645 5239 6292 6735 7780 8700
770.0 9167 9836 9922 10000 9792 9290 8911 8180 7396 6788
810.0 6229 5737 5175 4577 4038 3463 2948 2450 2090 1808
850.0 1520 1252 1054 1097 1023 990 1148 1018 1022 1152
890.0 955 946 953 734 693 667 596 596 539 634
930.0 713 609 502 405 384 393 474 395 592 744
970.0 596 362 400 380 383 402 433 422 405 502
1010.0 631 657 722 818 1015 1282 1483 1691 1693 1829
1050.0 1643 1496 1341 1093 1014 903 880 813 598 648
1090.0 430 436 381 321 345 243 284 326 336 340
1130.0 384 527 702 957 1140 1277 1389 1357 1169 842
1170.0 610 471 391 351 302 295 294 294 282 249
1210.0 258 281 262 255 279 284 309 338 356 370
1250.0 417 377 415 364 351 293 256 290 256 257
1290.0 238 314 405 374 472 503 589 662 716 834
1330.0 953 1031 1182 1290 1390 1458 1523 1601 1731 1924
1370.0 2113 2328 2452 2414 2246 1911 1578 1263 998 833
1410.0 748 673 661 672 710 836 1025 1241 1303 1317
1450.0 1289 1244 1145 1132 1114 1107 1071 1058 1133 1217
1490.0 1219 1103 899 610 408 386 334 386 331 293
1530.0 321 278 341 338 387 414 399 469 533 603
1570.0 698 809 1002 1140 1337 1584 1861 2164 2570 2958
1610.0 3218 3592 3445 3361 3093 2599 2300 1769 1494 1272
1650.0 1061 955 782 690 576 440 480 328 322 282
1690.0 206 229 177 152 134 109 145 103 107 89
1730.0 129 158 142 138 173 165 221 191 188 212
1770.0 210 248 249 248 256 258 276 267 276 243
1810.0 205 227 181 155 168 138 163 151 156 197
1850.0 192 208 230 240 254 236 206 167 153 136
1890.0 101 97 69 57 68 69 88 113 141 190
1930.0 206 209 202 177 144 96 89 68 48 60
1970.0 48 49 44 47 57 54 60 55 59 63
2010.0 60 64 62 65 79 65 69 61 57 66
2050.0 63 59 59 60 60 59 54 55 49 43
2090.0 44 47 50 45 51 34 46 46 36 41
2130.0 43 41 40 37 45 32 39 42 45 42
2170.0 34 34 40 34 45 36 46 42 42 39
2210.0 45 41 41 37 44 39 35 37 37 38
2250.0 34 37 42 42 44 45 42 42 41 42
2290.0 45 44 47 52 58 55 54 58 63 72
2330.0 70 84 81 82 86 72 78 65 54 47
2370.0 40 31 49 44 36 23 22 26 25 24
2410.0 25 22 25 23 22 23 30 28 28 33
2450.0 31 32 32 36 39 41 37 41 38 42
2490.0 44 40 39 43 43 48 46 50 47 48
2530.0 48 46 50 49 49 47 48 57 54 58
2570.0 58 64 66 71 75 84 87 93 98 108
2610.0 114 118 124 120 127 134 136 139 138 136
2650.0 143 149 149 156 153 157 156 164 163 175
2690.0 179 189 201 205 215 232 241 256 271 288
2730.0 313 332 363 382 407 424 425 430 424 413
2770.0 410 415 430 455 484 521 583 653 730 829
2810.0 946 1075 1228 1384 1562 1751 1961 2222 2504 2820
2850.0 3144 3474 3795 4047 4219 4284 4249 4134 3968 3837
2890.0 3769 3784 3844 3881 3889 3776 3630 3497 3392 3384
2930.0 3468 3613 3739 3768 3618 3311 2896 2442 2033 1710
2970.0 1453 1241 1082 953 862 825 841 936 1093 1300
3010.0 1542 1796 2072 2368 2674 2859 2890 2764 2561 2368
3050.0 2320 2430 2574 2589 2507 2331 1977 1523 1147 866
3090.0 699 623 588 565 537 489 413 333 252 185
3130.0 144 128 109 106 99 91 96 93 91 91
3170.0 95 103 97 100 93 97 100 95 100 93
3210.0 94 85 91 89 75 79 85 82 84 76
3250.0 70 75 81 65 70 83 85 80 73 73
3290.0 81 81 86 93 88 103 95 102 127 136
3330.0 189 229 282 322 364 370 334 289 225 176
3370.0 143 136 128 113 107 106 107 117 127 125
3410.0 122 133 143 134 122 115 116 109 80 77
3450.0 80 82 70 61 59 57 38 52 41 45
3490.0 52 48 44 42 38 41 45 42 51 37
3530.0 39 27 44 36 35 50 45 37 28 48
3570.0 46 56 41 44 43 60 43 35 63 54
3610.0 57 39 68 43 66 54 54 51 57 43
3650.0 79 56 74 59 62 48 46 43 25 41
3690.0 40 41 29 44 38 46 62 44 50 80
3730.0 56 47 73 36 54 49 101 37 55 36
3770.0 47 72 48 43 64 54 62 43 67 52
3810.0 57 45 23 68 54 69 79 32 45 61
3850.0 57 55 72 57 53 75 54 47 53 59
3890.0 75 112 74 78 81 76 49 37 70 67
3930.0 77 72 98 80 81 107 83 96 119 57
##END=
