##TITLE=Oxyquinoline
##JCAMP-DX=4.24
##DATA TYPE=INFRARED SPECTRUM
##ORIGIN=Sadtler Research Labs Under US-EPA Contract
##OWNER=NIST Standard Reference Data Program
##CAS REGISTRY NO=148-24-3
##MOLFORM=C 9 H 7 N O
##XUNITS=1/CM
##YUNITS=ABSORBANCE
##XFACTOR=1.0
##YFACTOR=0.000076758
##DELTAX=4.0
##FIRSTX=450.0
##LASTX=3966.0
##FIRSTY=0.004759
##MAXX=3966
##MINX=450
##MAXY=0.76758
##MINY=0
##NPOINTS=880
##XYDATA=(X++(Y..Y))
450.0 62 68 68 68 68 68 68 68 68 68
490.0 68 61 0 1362 1454 1375 1315 1122 759 574
530.0 531 457 521 554 624 595 663 674 801 961
570.0 1166 1446 1661 1688 1559 1539 1262 1250 1144 1311
610.0 1590 2145 2627 3319 4411 4002 4431 4420 2967 1958
650.0 1595 927 539 336 334 268 455 533 667 992
690.0 757 603 510 403 193 205 113 271 158 169
730.0 145 217 429 535 1042 1703 2319 2035 2075 1988
770.0 1252 759 693 1135 1652 1852 2776 2954 1468 1417
810.0 1232 1127 1402 2286 3208 3780 4734 7197 3505 3022
850.0 2704 2115 1974 2182 2407 3231 3587 1761 1670 1213
890.0 740 504 415 311 275 310 242 266 320 406
930.0 373 444 392 422 361 280 205 166 163 189
970.0 210 200 240 219 244 205 243 199 202 236
1010.0 236 207 214 238 249 248 236 282 277 317
1050.0 312 335 357 392 426 447 506 558 602 541
1090.0 554 602 651 572 599 548 487 439 499 698
1130.0 1102 1659 2195 2371 2622 2803 2673 2601 2618 2693
1170.0 2538 2269 1805 1189 834 690 601 606 729 938
1210.0 1215 1325 1237 1206 1136 987 1101 1441 1905 2551
1250.0 3037 3051 3183 3480 3522 3905 4418 4425 4396 4319
1290.0 3254 2493 2199 2381 3335 4595 5334 6745 8885 9452
1330.0 8834 8271 7491 5451 3110 1692 996 600 390 345
1370.0 350 429 475 542 656 949 1311 1617 1829 2026
1410.0 2243 2721 3722 4988 5873 5986 5654 4587 3137 2312
1450.0 2326 2697 2819 2738 2822 2337 1843 1522 1262 1287
1490.0 1356 1490 1559 1799 2207 3007 4120 5293 5649 6008
1530.0 6239 5308 5214 5727 6965 8635 9575 9877 10000 7874
1570.0 5371 3462 1934 1074 695 606 576 655 717 843
1610.0 1015 1335 1724 2213 2531 2562 2568 2413 1954 1489
1650.0 1181 985 857 736 676 653 680 688 718 660
1690.0 527 480 404 329 200 211 162 177 134 146
1730.0 151 175 224 284 317 305 291 252 247 205
1770.0 204 216 240 248 304 374 402 427 440 413
1810.0 341 299 261 248 216 216 197 191 166 167
1850.0 184 182 192 179 201 218 246 237 268 244
1890.0 222 151 140 118 110 112 139 192 225 283
1930.0 291 301 267 265 249 298 378 467 495 478
1970.0 444 370 287 250 272 285 288 256 239 197
2010.0 155 112 112 109 109 118 100 105 87 95
2050.0 80 83 68 85 62 75 62 69 63 73
2090.0 66 72 96 83 98 88 102 89 115 118
2130.0 120 119 104 104 97 91 75 84 71 80
2170.0 70 86 70 91 71 90 105 114 120 120
2210.0 127 103 114 98 120 102 109 95 95 89
2250.0 73 87 88 91 98 97 93 90 87 89
2290.0 82 101 96 127 124 131 141 131 153 134
2330.0 145 147 166 161 173 160 179 176 193 164
2370.0 173 196 164 221 198 233 180 213 231 277
2410.0 291 295 226 201 185 162 153 137 138 119
2450.0 122 104 104 79 98 94 95 98 108 110
2490.0 109 121 113 130 138 144 125 142 127 123
2530.0 126 127 120 134 138 128 149 119 138 125
2570.0 151 152 174 154 163 162 161 156 146 155
2610.0 141 132 126 125 100 119 107 115 123 141
2650.0 135 153 156 143 162 146 158 159 177 172
2690.0 175 155 152 140 134 107 121 126 104 119
2730.0 107 115 94 105 96 114 109 112 106 107
2770.0 100 110 108 102 101 97 107 94 117 102
2810.0 91 104 101 107 93 107 103 117 108 110
2850.0 97 122 93 127 117 120 113 130 126 117
2890.0 142 129 156 140 163 131 177 170 191 170
2930.0 178 165 177 167 169 169 154 180 156 182
2970.0 176 177 185 227 227 233 242 233 272 264
3010.0 323 316 332 337 356 336 342 327 321 303
3050.0 305 368 381 474 582 761 974 1223 1372 1561
3090.0 1669 1873 2143 2629 3056 3285 3496 3376 3001 2538
3130.0 2162 1746 1402 1095 952 812 713 615 532 446
3170.0 369 295 211 195 182 197 186 226 213 277
3210.0 306 364 389 416 449 396 373 309 285 194
3250.0 209 155 183 158 171 139 147 138 114 124
3290.0 87 117 89 128 69 102 81 93 86 84
3330.0 84 107 109 105 114 93 97 80 141 64
3370.0 108 107 124 66 99 118 73 105 91 87
3410.0 89 120 67 110 103 113 123 155 135 141
3450.0 157 186 259 280 367 489 730 961 1414 2072
3490.0 3088 4365 5629 6118 6043 5418 4311 3091 2178 1725
3530.0 1438 1271 1133 1032 776 635 463 388 337 256
3570.0 236 224 210 150 195 125 157 133 145 134
3610.0 145 144 147 156 151 186 132 153 86 135
3650.0 106 145 122 128 108 158 112 95 98 94
3690.0 137 98 144 71 94 103 132 104 135 89
3730.0 101 138 136 166 153 202 198 230 217 258
3770.0 245 258 235 204 171 136 110 104 120 91
3810.0 104 102 130 89 101 80 95 62 90 61
3850.0 71 84 60 88 58 72 96 103 55 72
3890.0 77 101 100 105 97 103 101 138 144 84
3930.0 130 112 119 60 79 80 84 80 89 67
##END=
