##TITLE=Benzaldehyde, 2-hydroxy-3-methoxy-
##JCAMP-DX=4.24
##DATA TYPE=INFRARED SPECTRUM
##ORIGIN=Sadtler Research Labs Under US-EPA Contract
##OWNER=NIST Standard Reference Data Program
##CAS REGISTRY NO=148-53-8
##MOLFORM=C 8 H 8 O 3
##XUNITS=1/CM
##YUNITS=ABSORBANCE
##XFACTOR=1.0
##YFACTOR=0.000082031
##DELTAX=4.0
##FIRSTX=450.0
##LASTX=3966.0
##FIRSTY=0.003363
##MAXX=3966
##MINX=450
##MAXY=0.82031
##MINY=0
##NPOINTS=880
##XYDATA=(X++(Y..Y))
450.0 41 46 64 64 66 47 41 19 34 50
490.0 30 30 33 46 9 11 136 200 233 321
530.0 326 300 338 223 195 226 134 93 68 22
570.0 46 64 98 238 227 226 198 194 195 182
610.0 158 166 175 205 214 234 241 335 278 349
650.0 252 211 193 212 195 389 381 467 633 950
690.0 1331 1682 1916 2007 2038 2111 2144 2315 2442 2607
730.0 2728 2857 2779 2125 1669 1340 980 806 678 648
770.0 615 623 641 603 572 485 339 233 168 137
810.0 120 114 134 176 228 358 527 693 812 832
850.0 727 566 386 217 140 138 104 140 148 154
890.0 174 189 182 205 202 172 185 160 166 159
930.0 194 222 333 503 776 1118 1431 1599 1537 1269
970.0 867 546 330 228 173 160 159 166 166 203
1010.0 202 218 275 334 400 507 592 654 675 671
1050.0 647 641 674 763 862 992 1082 1154 1119 1000
1090.0 883 717 589 483 415 354 367 390 446 497
1130.0 544 573 536 489 461 464 496 551 594 617
1170.0 600 591 600 637 723 821 949 1139 1425 1827
1210.0 2178 2407 2523 2550 2469 2511 2823 3356 4107 5232
1250.0 6653 8123 9549 10000 9478 8749 7362 6248 5281 4469
1290.0 3788 3193 2727 2376 2135 1924 1693 1487 1338 1207
1330.0 1098 1020 951 920 931 956 987 999 1000 1033
1370.0 1134 1364 1755 2211 2488 2537 2372 1976 1533 1205
1410.0 1065 1041 1057 1121 1245 1414 1731 2165 2823 3591
1450.0 4448 5116 5321 5303 4772 4122 3680 3515 3287 2978
1490.0 2514 1997 1380 980 696 575 511 424 342 329
1530.0 316 280 260 186 235 241 228 182 194 279
1570.0 310 418 523 698 806 863 868 829 801 797
1610.0 815 819 765 768 715 709 736 787 967 1153
1650.0 1513 1934 2713 3633 4786 5995 6851 7075 6674 5541
1690.0 4235 2929 2047 1823 1861 1819 1695 1350 861 596
1730.0 461 345 307 257 245 202 214 214 217 227
1770.0 213 178 198 180 165 145 110 119 118 106
1810.0 99 94 87 80 70 53 62 56 60 50
1850.0 68 76 70 63 69 52 65 70 79 89
1890.0 86 96 104 110 111 106 100 81 75 56
1930.0 51 39 37 32 28 33 33 40 45 40
1970.0 45 45 45 45 52 54 57 64 64 64
2010.0 52 47 39 34 27 34 34 33 41 36
2050.0 33 27 27 23 17 16 21 15 28 28
2090.0 33 40 48 54 57 65 57 58 51 46
2130.0 46 34 33 27 23 27 34 33 40 43
2170.0 45 45 45 40 46 40 39 34 34 33
2210.0 33 37 38 34 27 27 22 22 16 10
2250.0 9 9 9 7 10 10 13 22 26 38
2290.0 57 69 94 106 114 125 119 107 115 100
2330.0 84 87 89 87 111 106 111 125 128 107
2370.0 97 74 73 71 43 14 4 4 4 10
2410.0 10 15 22 23 27 34 34 38 33 38
2450.0 34 33 40 40 34 39 39 41 36 47
2490.0 47 47 51 57 58 64 70 77 82 84
2530.0 88 89 91 94 94 90 93 94 101 101
2570.0 101 101 94 94 95 96 99 105 103 106
2610.0 102 102 102 102 96 95 102 102 104 100
2650.0 108 108 108 108 114 114 115 121 121 126
2690.0 138 145 153 172 184 200 215 237 262 299
2730.0 361 431 530 595 634 635 586 503 433 364
2770.0 318 286 260 254 248 253 262 292 318 362
2810.0 412 493 626 828 1166 1682 2197 2481 2529 2351
2850.0 1872 1370 1030 790 658 559 493 450 423 417
2890.0 423 429 453 468 497 524 556 578 609 647
2930.0 704 804 951 1107 1197 1209 1139 1026 900 788
2970.0 713 695 661 654 641 639 645 686 724 794
3010.0 845 824 770 695 587 516 481 477 493 528
3050.0 578 640 708 770 812 833 821 785 726 650
3090.0 575 518 483 462 454 448 436 436 432 430
3130.0 435 448 447 462 470 482 507 513 520 540
3170.0 564 565 582 598 600 603 606 605 612 601
3210.0 605 599 593 580 583 573 564 557 545 540
3250.0 539 521 526 517 515 510 509 498 504 491
3290.0 480 475 464 458 453 446 440 439 444 444
3330.0 432 433 438 424 415 397 381 358 348 326
3370.0 314 301 283 282 277 265 272 263 263 250
3410.0 245 225 220 213 212 205 200 199 193 181
3450.0 181 179 178 166 166 160 158 157 164 158
3490.0 152 145 150 151 139 131 124 125 130 131
3530.0 129 122 128 129 134 153 167 234 319 409
3570.0 514 631 688 656 567 416 277 183 140 95
3610.0 68 60 55 46 56 19 47 52 50 41
3650.0 21 40 40 51 32 15 21 10 33 37
3690.0 17 24 40 34 45 27 23 38 27 34
3730.0 35 10 15 22 4 4 4 21 22 21
3770.0 26 28 28 33 32 41 38 33 13 17
3810.0 22 23 11 16 23 22 21 18 36 38
3850.0 34 9 38 47 42 34 48 52 48 47
3890.0 45 44 54 50 51 60 60 60 65 66
3930.0 59 60 66 59 60 58 0 4 4 4
##END=
