##TITLE=Propanenitrile, 3-(ethylphenylamino)-
##JCAMP-DX=4.24
##DATA TYPE=INFRARED SPECTRUM
##ORIGIN=Sadtler Research Labs Under US-EPA Contract
##OWNER=NIST Standard Reference Data Program
##CAS REGISTRY NO=148-87-8
##MOLFORM=C 11 H 14 N 2
##XUNITS=1/CM
##YUNITS=ABSORBANCE
##XFACTOR=1.0
##YFACTOR=0.000078067
##DELTAX=4.0
##FIRSTX=450.0
##LASTX=3966.0
##FIRSTY=0.111089
##MAXX=3966
##MINX=450
##MAXY=0.78067
##MINY=0
##NPOINTS=880
##XYDATA=(X++(Y..Y))
450.0 1423 823 628 479 505 824 638 586 491 922
490.0 144 576 577 758 831 271 741 616 808 604
530.0 780 780 760 772 732 703 665 535 586 549
570.0 551 716 624 658 603 569 478 495 440 444
610.0 387 363 349 386 365 352 317 354 438 400
650.0 403 435 509 538 689 745 937 1142 1623 2214
690.0 2922 3241 3163 2683 2047 1561 1253 1157 1157 1168
730.0 1262 1634 2169 3108 3838 3783 3329 2710 2072 1572
770.0 1275 1121 997 891 910 849 860 846 854 728
810.0 651 626 567 508 439 405 380 430 387 441
850.0 320 371 372 546 472 543 543 593 533 577
890.0 645 597 715 724 783 557 510 436 460 389
930.0 412 446 443 469 469 450 445 441 434 567
970.0 561 678 738 873 1014 1123 1315 1542 1727 1789
1010.0 1682 1563 1463 1447 1642 1782 1818 1801 1690 1616
1050.0 1508 1272 1094 972 988 1069 1092 1080 950 809
1090.0 765 748 806 806 907 1099 1296 1662 1950 2122
1130.0 2051 1782 1474 1259 1283 1373 1594 1823 2081 2419
1170.0 2778 3087 3339 3304 3109 2809 2453 2342 2351 2531
1210.0 2723 2802 2731 2578 2428 2373 2343 2484 2715 2940
1250.0 3118 3136 3307 3333 3451 3408 3078 2662 2299 1922
1290.0 1707 1518 1467 1472 1580 1603 1618 1730 1736 1795
1330.0 1920 2054 2401 2844 3370 3978 4512 4913 5051 4927
1370.0 4665 4329 4053 3760 3402 2965 2431 1935 1520 1171
1410.0 1035 904 951 1025 1124 1226 1275 1235 1134 1100
1450.0 1256 1315 1545 1644 1672 1845 1821 1974 2309 2976
1490.0 4644 6670 8972 10000 8880 6796 4352 2632 1762 1363
1530.0 1002 941 817 774 856 750 804 902 877 1069
1570.0 1252 1598 1913 2456 3121 4054 5832 6644 7458 6898
1610.0 4719 3623 2204 1503 1187 800 713 610 488 423
1650.0 396 429 333 337 337 288 339 299 319 306
1690.0 283 291 338 301 317 267 317 350 302 294
1730.0 301 360 284 264 287 282 285 253 242 240
1770.0 232 228 204 203 200 184 201 185 189 171
1810.0 167 179 183 177 188 197 184 185 171 187
1850.0 168 144 155 145 182 153 149 153 152 168
1890.0 170 180 195 201 230 244 272 288 287 274
1930.0 251 253 232 233 201 160 135 119 97 102
1970.0 85 79 75 70 78 70 75 67 67 63
2010.0 58 58 73 55 58 46 46 53 45 41
2050.0 36 39 38 42 43 50 51 55 43 49
2090.0 46 50 44 33 32 33 32 26 16 14
2130.0 18 12 18 9 12 12 6 8 1 6
2170.0 4 5 14 16 14 21 22 28 21 25
2210.0 30 37 48 49 58 65 82 118 174 258
2250.0 341 363 327 216 115 62 44 42 45 50
2290.0 52 65 68 71 75 92 81 90 60 39
2330.0 36 7 7 0 38 39 26 39 24 22
2370.0 32 31 55 58 63 57 43 52 46 44
2410.0 48 50 52 52 46 56 52 59 52 54
2450.0 55 53 59 55 53 57 60 60 63 50
2490.0 62 60 65 61 59 62 66 70 71 79
2530.0 84 83 85 87 87 99 89 100 98 99
2570.0 108 105 109 111 111 112 116 115 120 113
2610.0 115 105 109 99 101 98 102 95 95 104
2650.0 101 104 103 106 104 112 112 125 128 134
2690.0 147 152 161 163 170 173 181 179 189 190
2730.0 199 196 211 218 228 229 235 250 256 265
2770.0 273 292 297 312 329 359 372 414 468 544
2810.0 634 758 904 1074 1267 1445 1594 1691 1748 1742
2850.0 1711 1661 1635 1616 1620 1669 1785 1913 2045 2101
2890.0 2076 1974 1835 1735 1673 1661 1652 1672 1742 1917
2930.0 2219 2618 2998 3235 3203 2964 2684 2458 2473 2731
2970.0 3293 3993 4686 4999 4758 3959 2947 2005 1418 1107
3010.0 930 864 864 961 1111 1346 1586 1783 1873 1855
3050.0 1718 1565 1469 1525 1799 2149 2323 2215 1896 1520
3090.0 1360 1376 1379 1262 1102 893 705 544 429 339
3130.0 251 210 165 148 122 115 114 115 91 93
3170.0 81 90 83 83 81 73 89 84 76 62
3210.0 67 62 57 39 56 53 55 61 49 49
3250.0 34 44 35 40 31 46 42 41 21 49
3290.0 35 48 35 32 27 25 32 34 49 44
3330.0 42 35 34 39 36 41 37 36 28 33
3370.0 26 43 26 49 39 38 34 29 38 38
3410.0 38 46 52 35 44 41 44 36 42 50
3450.0 48 61 66 32 40 43 63 52 50 65
3490.0 32 42 61 64 50 63 52 55 52 71
3530.0 60 52 31 40 75 61 58 55 55 36
3570.0 48 42 69 44 62 57 49 58 54 57
3610.0 30 71 61 37 39 75 39 56 46 79
3650.0 61 68 77 51 86 63 54 38 62 62
3690.0 54 32 65 69 43 40 70 63 57 56
3730.0 59 63 38 31 62 69 49 43 64 73
3770.0 61 71 60 35 66 49 79 78 81 80
3810.0 74 79 79 65 48 63 75 58 40 68
3850.0 38 69 97 76 35 41 54 86 39 69
3890.0 45 65 85 40 63 42 76 68 92 51
3930.0 72 46 71 103 105 105 93 101 77 121
##END=
