##TITLE=m-Xylene, 2-methoxy-5-nitro-,
##JCAMP-DX=4.24
##DATA TYPE=INFRARED SPECTRUM
##ORIGIN=Sadtler Research Labs Under US-EPA Contract
##OWNER=NIST Standard Reference Data Program
##CAS REGISTRY NO=14804-39-8
##MOLFORM=C 9 H 11 N O 3
##XUNITS=1/CM
##YUNITS=ABSORBANCE
##XFACTOR=1.0
##YFACTOR=0.000088007
##DELTAX=4.0
##FIRSTX=450.0
##LASTX=3966.0
##FIRSTY=0.001144
##MAXX=3966
##MINX=450
##MAXY=0.88007
##MINY=0
##NPOINTS=880
##XYDATA=(X++(Y..Y))
450.0 13 276 101 139 230 448 643 402 216 249
490.0 285 307 497 539 351 265 258 503 656 631
530.0 363 325 378 197 254 434 318 55 101 386
570.0 395 300 341 399 250 425 232 219 192 189
610.0 57 204 193 168 260 104 124 224 317 251
650.0 226 139 221 153 244 320 114 423 646 615
690.0 1078 1259 1282 1018 577 393 262 313 247 248
730.0 549 446 1083 1331 1280 776 1015 1106 1301 1253
770.0 979 584 430 384 433 754 1447 1858 1793 1261
810.0 610 265 295 254 265 311 266 242 242 222
850.0 217 217 206 189 241 217 250 316 433 663
890.0 928 1209 1371 1247 885 647 492 425 473 569
930.0 733 873 912 823 663 612 507 455 395 345
970.0 399 367 416 497 532 716 991 1251 1611 2139
1010.0 2910 3662 3953 3708 2768 1869 1074 654 522 441
1050.0 408 354 469 344 504 496 531 691 858 1188
1090.0 1766 2632 3201 3189 2588 2029 1270 830 642 464
1130.0 414 385 364 383 415 385 437 496 606 723
1170.0 869 1038 1131 1187 1223 1304 1478 1665 2024 2426
1210.0 2938 3529 4075 4583 4718 4616 3911 2894 2046 1409
1250.0 1040 830 828 1062 1358 1700 2052 2123 1962 1678
1290.0 1405 1277 1224 1286 1336 1283 1251 1298 1541 1980
1330.0 2595 3464 4408 5517 6914 8117 9336 10000 9361 7717
1370.0 5314 3407 2235 1621 1309 1130 894 679 766 900
1410.0 1073 1317 1624 1805 1660 1558 1394 1249 1233 1256
1450.0 1391 1620 1828 2308 2671 3089 3340 3336 3049 2577
1490.0 2256 1917 1763 1827 1812 2188 2575 3080 4118 4960
1530.0 6111 7023 7297 7362 6912 6423 5787 5005 3961 3082
1570.0 2266 1763 1562 1419 1444 1435 1343 1186 938 729
1610.0 612 534 477 419 377 326 257 242 190 196
1650.0 195 163 212 166 183 179 155 143 129 124
1690.0 124 129 151 130 122 132 117 142 150 132
1730.0 158 123 165 162 184 239 240 269 278 284
1770.0 282 247 238 195 173 143 108 114 101 86
1810.0 94 83 87 63 69 65 57 66 47 61
1850.0 54 62 63 66 69 67 73 79 75 77
1890.0 96 96 102 112 113 115 106 121 115 118
1930.0 109 95 90 80 81 83 73 75 78 81
1970.0 82 89 83 80 74 76 78 85 95 105
2010.0 122 140 164 174 182 169 143 111 88 66
2050.0 58 45 38 34 34 43 45 45 48 35
2090.0 33 29 33 31 35 35 31 33 25 23
2130.0 24 13 23 28 22 33 37 34 36 31
2170.0 41 35 29 25 19 20 23 18 15 21
2210.0 30 23 27 26 23 31 24 20 20 20
2250.0 26 27 23 26 22 22 25 33 34 37
2290.0 46 41 46 51 39 43 48 48 61 62
2330.0 47 39 35 40 43 22 39 31 43 7
2370.0 24 20 17 34 40 35 31 33 39 43
2410.0 43 45 42 53 58 61 64 63 73 68
2450.0 68 72 59 62 54 45 52 47 45 47
2490.0 51 52 48 49 55 57 60 50 53 45
2530.0 47 56 54 57 40 48 54 43 62 54
2570.0 59 53 63 73 74 78 91 95 97 96
2610.0 95 100 91 97 93 95 98 98 96 90
2650.0 73 72 75 66 65 70 74 78 82 83
2690.0 81 88 87 79 76 78 80 70 75 72
2730.0 73 82 87 101 113 106 112 98 91 85
2770.0 93 91 93 110 110 116 131 140 168 199
2810.0 214 266 328 395 491 604 709 771 823 818
2850.0 782 777 794 838 915 1000 1066 1064 1047 1016
2890.0 984 967 966 973 1012 1042 1108 1213 1343 1543
2930.0 1830 2171 2496 2738 2871 2873 2660 2325 1985 1711
2970.0 1489 1345 1235 1152 1100 1074 1102 1119 1124 1100
3010.0 1019 908 788 702 641 608 582 545 541 508
3050.0 525 494 468 462 449 426 393 379 346 343
3090.0 296 261 206 187 175 150 144 131 125 110
3130.0 100 95 84 95 96 79 85 67 51 62
3170.0 75 67 72 60 52 66 53 57 51 53
3210.0 50 53 48 36 45 59 65 49 39 48
3250.0 37 43 41 49 55 37 45 44 41 33
3290.0 39 43 34 35 37 27 50 38 51 42
3330.0 40 39 28 60 43 37 57 56 29 41
3370.0 59 43 32 35 28 32 35 41 65 39
3410.0 14 43 63 57 50 48 51 45 35 55
3450.0 48 37 43 57 48 45 46 42 37 60
3490.0 69 54 50 52 60 50 35 33 45 57
3530.0 35 21 14 68 61 32 25 55 55 30
3570.0 50 70 29 35 55 41 84 75 37 56
3610.0 31 55 37 46 56 82 86 87 57 59
3650.0 77 76 23 51 44 58 59 36 74 63
3690.0 69 44 51 31 44 65 43 57 68 37
3730.0 74 81 45 84 48 91 24 77 57 32
3770.0 42 64 24 21 54 38 15 53 66 52
3810.0 71 30 31 37 40 73 29 79 48 48
3850.0 101 46 74 51 71 90 104 62 40 87
3890.0 144 27 34 68 15 38 84 40 62 81
3930.0 36 110 0 22 7 61 94 18 87 46
##END=
