##TITLE=1,3-Benzoxathiol-2-one, 5-methoxy-,
##JCAMP-DX=4.24
##DATA TYPE=INFRARED SPECTRUM
##ORIGIN=Sadtler Research Labs Under US-EPA Contract
##OWNER=NIST Standard Reference Data Program
##CAS REGISTRY NO=1483-20-1
##MOLFORM=C 8 H 6 O 3 S
##XUNITS=1/CM
##YUNITS=ABSORBANCE
##XFACTOR=1.0
##YFACTOR=0.000084589
##DELTAX=4.0
##FIRSTX=450.0
##LASTX=3966.0
##FIRSTY=0.001861
##MAXX=3966
##MINX=450
##MAXY=0.84589
##MINY=0
##NPOINTS=880
##XYDATA=(X++(Y..Y))
450.0 22 35 44 22 12 3 55 34 69 77
490.0 24 26 53 38 25 23 8 39 81 69
530.0 90 105 97 72 49 21 28 18 45 49
570.0 32 62 99 104 189 210 230 237 207 199
610.0 182 162 143 112 95 116 143 131 126 142
650.0 156 134 116 63 71 38 17 3 27 30
690.0 12 28 19 18 97 124 119 130 95 78
730.0 27 19 23 19 9 15 6 14 2 14
770.0 27 40 44 71 132 174 240 316 343 368
810.0 435 477 539 662 785 922 908 815 686 500
850.0 336 289 260 185 156 119 78 74 61 57
890.0 47 68 96 151 186 201 161 90 53 39
930.0 29 27 31 36 29 38 49 65 74 96
970.0 112 153 213 302 452 669 988 1385 1703 1836
1010.0 1735 1435 1085 850 727 664 602 515 416 314
1050.0 216 177 199 297 518 899 1312 1534 1504 1196
1090.0 821 552 373 292 262 252 281 312 310 282
1130.0 234 175 135 100 83 70 58 61 57 71
1170.0 82 105 132 170 190 216 245 338 545 998
1210.0 1628 2083 2296 2077 1599 1239 904 685 567 486
1250.0 453 472 555 703 942 1060 1015 806 498 298
1290.0 225 198 207 215 222 217 204 182 150 114
1330.0 75 51 18 25 35 34 30 31 29 31
1370.0 38 25 29 32 30 36 35 38 66 94
1410.0 131 183 171 237 266 340 402 544 700 725
1450.0 672 564 478 591 809 1214 2024 3088 3497 3171
1490.0 2099 995 398 222 135 80 84 71 42 54
1530.0 36 48 22 3 11 39 36 11 43 74
1570.0 99 150 255 401 554 640 634 526 425 353
1610.0 306 260 191 173 133 148 110 92 106 103
1650.0 86 97 122 128 120 91 55 67 24 17
1690.0 36 54 29 45 68 93 96 74 111 116
1730.0 104 88 121 142 162 218 286 329 341 355
1770.0 393 554 919 1699 3397 6378 9367 10000 8729 4838
1810.0 2132 1136 748 533 419 319 277 224 182 135
1850.0 129 118 105 95 78 70 79 79 75 72
1890.0 64 65 63 58 58 53 50 44 41 53
1930.0 47 46 42 33 36 45 50 50 51 63
1970.0 74 85 94 119 138 154 181 204 210 208
2010.0 185 147 114 87 70 60 61 60 57 56
2050.0 59 57 57 54 60 70 76 74 77 71
2090.0 62 54 50 54 50 44 40 42 41 35
2130.0 34 31 29 21 23 25 17 16 17 18
2170.0 15 14 14 11 11 12 17 14 15 13
2210.0 16 17 17 14 10 15 10 17 21 20
2250.0 20 19 24 25 18 13 17 18 16 27
2290.0 25 30 36 47 43 50 52 50 52 53
2330.0 39 33 48 50 53 55 44 47 32 18
2370.0 34 41 43 47 36 30 20 15 13 6
2410.0 6 5 5 4 6 0 4 3 8 10
2450.0 10 14 17 18 19 14 16 18 25 23
2490.0 21 23 15 12 13 14 14 15 16 21
2530.0 16 18 19 11 8 11 8 8 11 12
2570.0 19 16 12 15 16 13 6 11 13 8
2610.0 12 12 12 9 12 13 14 13 11 8
2650.0 13 19 20 15 9 6 7 7 12 12
2690.0 18 19 15 19 19 19 10 11 14 12
2730.0 18 14 12 9 15 15 18 20 15 18
2770.0 17 14 17 16 19 25 30 30 32 25
2810.0 31 36 47 50 64 83 109 149 201 213
2850.0 210 180 143 112 93 87 88 77 74 80
2890.0 81 96 107 125 140 165 175 174 170 168
2930.0 177 181 219 270 317 344 336 311 283 248
2970.0 210 171 145 126 116 108 117 130 171 233
3010.0 293 303 269 195 119 88 72 62 53 56
3050.0 49 45 46 42 46 46 48 47 53 56
3090.0 65 65 57 47 48 41 33 21 22 24
3130.0 22 20 15 15 11 12 18 17 8 9
3170.0 12 17 16 9 15 13 14 13 13 12
3210.0 6 10 12 3 7 11 8 12 0 8
3250.0 11 16 8 10 10 2 11 16 4 12
3290.0 18 14 10 13 10 17 11 13 16 13
3330.0 22 6 9 15 11 15 9 15 18 9
3370.0 12 20 14 12 21 32 13 16 17 13
3410.0 17 14 19 19 13 14 26 7 20 15
3450.0 17 12 16 14 21 22 19 16 15 12
3490.0 16 17 19 13 19 19 11 19 35 21
3530.0 23 17 25 29 35 31 39 37 61 70
3570.0 87 97 91 73 48 33 35 29 26 20
3610.0 17 12 24 17 27 30 14 10 23 16
3650.0 16 21 15 16 22 17 16 16 22 30
3690.0 14 21 18 11 28 25 19 21 23 21
3730.0 29 33 31 4 31 19 27 25 31 29
3770.0 22 20 5 17 28 22 25 30 49 21
3810.0 19 29 27 15 14 10 17 39 38 15
3850.0 15 32 14 11 10 32 32 35 38 29
3890.0 28 21 23 8 24 23 19 18 24 27
3930.0 32 32 37 39 11 18 4 33 41 20
##END=
