##TITLE=2-Ethylpiperidine
##JCAMP-DX=4.24
##DATA TYPE=INFRARED SPECTRUM
##ORIGIN=Sadtler Research Labs Under US-EPA Contract
##OWNER=NIST Standard Reference Data Program
##CAS REGISTRY NO=1484-80-6
##MOLFORM=C 7 H 15 N
##XUNITS=1/CM
##YUNITS=ABSORBANCE
##XFACTOR=1.0
##YFACTOR=0.000123715
##DELTAX=4.0
##FIRSTX=450.0
##LASTX=3966.0
##FIRSTY=0.036496
##MAXX=3966
##MINX=450
##MAXY=1.23715
##MINY=0
##NPOINTS=880
##XYDATA=(X++(Y..Y))
450.0 295 129 72 79 86 161 85 160 91 69
490.0 115 169 85 95 82 73 55 81 131 160
530.0 183 162 161 161 224 229 229 254 209 166
570.0 98 47 38 39 18 48 48 17 44 33
610.0 28 41 46 27 42 60 36 48 53 53
650.0 71 92 86 78 82 136 157 180 245 280
690.0 344 420 529 658 819 973 1133 1270 1355 1382
730.0 1322 1254 1080 970 776 608 475 359 294 251
770.0 266 273 269 256 204 259 214 182 169 141
810.0 120 109 102 113 145 180 253 312 398 449
850.0 461 425 368 325 267 193 149 131 115 110
890.0 112 121 147 177 204 221 228 230 209 170
930.0 141 110 91 74 67 59 54 56 57 61
970.0 67 77 110 136 153 187 212 243 256 255
1010.0 256 254 238 209 198 187 178 184 206 259
1050.0 298 325 322 327 290 244 243 290 359 401
1090.0 443 479 503 558 638 765 918 1048 1061 983
1130.0 865 713 519 404 353 335 312 277 244 224
1170.0 196 168 151 132 120 117 123 142 186 223
1210.0 233 236 222 189 144 122 127 156 185 213
1250.0 238 268 263 248 229 217 202 186 175 177
1290.0 195 233 304 381 465 537 633 741 849 967
1330.0 1004 997 911 773 593 448 396 384 394 412
1370.0 429 485 506 529 525 502 404 323 221 169
1410.0 134 159 188 314 458 644 790 990 1141 1339
1450.0 1357 1318 1320 1184 1031 892 701 543 405 299
1490.0 209 171 117 79 79 83 37 62 51 64
1530.0 39 62 53 67 50 58 42 54 67 32
1570.0 37 49 44 35 37 38 28 42 37 37
1610.0 27 44 34 43 27 40 32 46 30 44
1650.0 31 82 36 37 47 46 56 53 47 63
1690.0 38 30 49 52 41 35 42 35 34 31
1730.0 32 42 39 25 24 32 30 29 25 30
1770.0 28 37 23 30 30 30 28 29 30 24
1810.0 22 24 24 22 26 25 24 22 28 25
1850.0 23 20 21 18 17 16 14 9 11 8
1890.0 13 7 11 13 10 14 17 17 17 16
1930.0 17 20 15 18 22 24 21 23 20 21
1970.0 22 20 20 16 23 25 28 35 35 46
2010.0 51 57 61 68 66 66 68 61 59 59
2050.0 66 61 62 64 54 38 24 12 4 0
2090.0 1 6 9 15 17 14 14 19 19 18
2130.0 18 21 16 19 21 20 24 26 28 28
2170.0 30 35 31 32 33 33 35 34 37 36
2210.0 38 38 36 39 44 42 41 45 44 43
2250.0 45 45 45 47 46 47 49 44 48 45
2290.0 51 46 50 46 47 39 33 17 7 24
2330.0 14 9 27 8 23 38 0 0 3 57
2370.0 82 98 97 92 82 75 73 64 67 68
2410.0 66 67 67 66 66 69 67 68 72 69
2450.0 74 75 80 84 90 89 93 98 99 99
2490.0 98 96 91 94 86 90 92 93 96 100
2530.0 101 104 112 119 122 127 126 131 136 143
2570.0 152 162 181 198 217 229 243 249 258 257
2610.0 257 256 242 231 225 213 221 214 227 238
2650.0 247 262 266 265 256 252 247 253 270 289
2690.0 326 376 414 451 490 510 537 563 596 640
2730.0 679 718 740 751 749 739 717 713 716 744
2770.0 807 897 1022 1171 1351 1524 1694 1850 1930 1877
2810.0 1735 1547 1358 1177 1028 940 909 962 1110 1381
2850.0 1709 2118 2513 2773 2826 2717 2538 2369 2188 2066
2890.0 2024 2018 2072 2177 2439 2885 3505 4354 5411 6562
2930.0 7945 9183 9812 10000 9574 8086 6736 5406 4532 3963
2970.0 3556 3129 2653 2123 1520 1052 720 512 367 293
3010.0 243 217 203 186 183 179 181 169 164 167
3050.0 155 155 158 158 150 156 139 133 140 131
3090.0 126 129 128 120 116 108 101 96 90 95
3130.0 93 95 102 102 104 117 117 111 119 109
3170.0 101 94 94 91 82 93 82 84 91 95
3210.0 90 86 77 80 75 79 73 65 68 72
3250.0 63 64 58 51 53 54 53 47 44 46
3290.0 43 46 53 60 53 68 76 71 70 67
3330.0 66 62 58 55 65 53 54 59 55 56
3370.0 53 51 47 62 50 55 56 48 50 43
3410.0 43 48 51 52 59 45 41 47 40 40
3450.0 29 42 48 37 32 53 51 46 29 40
3490.0 50 50 47 31 39 39 38 26 45 33
3530.0 35 32 40 33 37 45 25 33 18 32
3570.0 55 29 34 27 46 51 49 46 55 42
3610.0 60 56 41 42 39 63 55 42 52 48
3650.0 62 56 48 61 38 54 35 59 25 37
3690.0 46 31 49 43 44 45 39 47 31 40
3730.0 38 41 47 43 89 26 78 46 37 26
3770.0 50 55 31 50 20 24 32 32 30 49
3810.0 7 44 12 47 10 22 29 47 49 5
3850.0 18 46 61 37 18 30 14 43 9 28
3890.0 20 82 12 40 43 30 35 46 32 66
3930.0 27 36 51 3 24 49 47 47 54 66
##END=
