##TITLE=Carbonic acid, bis(2-ethylhexyl) ester
##JCAMP-DX=4.24
##DATA TYPE=INFRARED SPECTRUM
##ORIGIN=Sadtler Research Labs Under US-EPA Contract
##OWNER=NIST Standard Reference Data Program
##CAS REGISTRY NO=14858-73-2
##MOLFORM=C 17 H 34 O 3
##XUNITS=1/CM
##YUNITS=ABSORBANCE
##XFACTOR=1.0
##YFACTOR=0.000125418
##DELTAX=4.0
##FIRSTX=450.0
##LASTX=3966.0
##FIRSTY=0.145610
##MAXX=3966
##MINX=450
##MAXY=1.25418
##MINY=0
##NPOINTS=880
##XYDATA=(X++(Y..Y))
450.0 1161 459 54 222 16 194 18 122 79 133
490.0 110 74 132 51 152 71 171 45 47 101
530.0 85 10 110 81 9 66 71 52 24 80
570.0 49 59 39 48 54 42 58 54 55 43
610.0 69 52 88 87 65 65 55 59 54 62
650.0 44 58 40 45 46 56 52 47 47 54
690.0 63 51 70 61 78 73 77 94 121 139
730.0 142 156 144 139 127 121 103 146 291 176
770.0 243 277 314 355 427 554 640 542 361 256
810.0 157 178 158 145 147 144 138 125 106 98
850.0 101 99 106 124 110 122 135 149 170 193
890.0 231 265 296 316 332 343 383 429 502 577
930.0 660 767 891 1016 1081 1089 1072 1047 1003 933
970.0 855 806 792 786 774 768 784 779 781 771
1010.0 679 637 600 606 607 570 486 400 331 285
1050.0 255 235 240 249 256 262 288 313 327 334
1090.0 327 307 288 272 271 273 273 279 263 257
1130.0 250 250 263 280 303 318 328 318 297 277
1170.0 259 262 275 303 341 389 475 618 746 901
1210.0 1042 1227 1472 1794 2245 2880 3835 5116 6696 8245
1250.0 9471 10000 9960 9422 8463 7149 5749 4561 3635 2943
1290.0 2370 1921 1569 1348 1186 1053 935 829 721 616
1330.0 555 541 573 579 550 496 468 472 480 478
1370.0 499 566 696 866 945 990 1247 1751 1756 1163
1410.0 650 423 342 294 275 276 299 333 405 519
1450.0 688 890 1140 1339 1421 1341 1096 789 540 380
1490.0 283 218 186 158 148 139 122 113 109 98
1530.0 89 85 81 85 80 70 69 78 75 70
1570.0 76 73 82 87 88 85 78 69 61 59
1610.0 59 60 62 57 58 56 58 66 61 62
1650.0 73 69 71 73 80 75 90 87 107 116
1690.0 125 139 163 191 215 253 290 332 345 390
1730.0 464 612 863 1283 1922 2565 3559 4739 4772 3029
1770.0 1620 1031 961 1033 885 594 391 289 244 208
1810.0 188 158 135 114 98 85 68 59 48 46
1850.0 36 38 30 29 30 30 22 22 23 19
1890.0 21 16 16 17 13 13 11 13 15 19
1930.0 17 20 14 10 11 8 7 4 5 4
1970.0 3 5 2 2 4 4 7 6 5 5
2010.0 3 6 6 13 8 12 11 13 13 13
2050.0 16 15 15 15 12 14 13 4 13 12
2090.0 9 9 10 6 7 10 8 10 8 9
2130.0 9 11 13 12 8 10 11 13 15 18
2170.0 21 18 21 21 21 20 19 20 20 22
2210.0 24 24 23 23 22 21 21 18 19 16
2250.0 14 12 12 8 6 8 6 7 8 6
2290.0 3 8 5 9 6 2 4 0 3 0
2330.0 1 1 11 16 33 14 5 6 12 22
2370.0 27 43 36 33 33 23 19 18 18 11
2410.0 13 15 12 14 15 10 13 12 8 4
2450.0 6 8 5 8 5 9 10 13 14 16
2490.0 15 18 16 17 15 16 15 16 15 15
2530.0 16 17 16 16 13 11 20 17 11 15
2570.0 14 22 20 20 26 33 32 32 31 36
2610.0 33 29 35 37 37 40 43 42 42 43
2650.0 42 46 50 51 55 56 56 58 62 57
2690.0 63 64 63 64 68 68 74 75 77 79
2730.0 83 93 98 105 109 108 106 104 102 97
2770.0 98 96 100 104 111 111 124 130 143 152
2810.0 168 190 208 224 251 284 319 363 428 518
2850.0 650 856 1156 1521 1916 2225 2323 2212 2169 2214
2890.0 2112 1910 1805 1833 1950 2142 2385 2685 3051 3480
2930.0 3940 4347 4590 4536 4212 3714 3396 3447 3961 4767
2970.0 5360 4987 3607 2358 1624 1211 935 727 570 465
3010.0 388 333 294 269 238 221 201 182 168 153
3050.0 150 133 126 124 115 108 104 99 99 93
3090.0 85 89 88 84 78 77 69 67 67 64
3130.0 61 60 67 56 63 58 63 60 58 54
3170.0 51 45 48 43 44 42 46 41 37 40
3210.0 37 32 28 32 25 29 24 17 11 18
3250.0 18 14 11 17 19 14 24 21 28 11
3290.0 19 8 13 7 18 9 21 21 23 16
3330.0 21 6 20 22 14 15 16 26 19 13
3370.0 16 17 4 11 10 19 15 19 15 7
3410.0 12 7 3 12 9 4 1 11 16 16
3450.0 16 24 25 21 19 17 14 21 23 19
3490.0 33 36 27 34 36 25 32 27 30 20
3530.0 18 27 21 13 23 12 16 27 18 21
3570.0 35 11 30 17 20 34 35 21 14 38
3610.0 28 25 25 29 23 40 36 51 33 26
3650.0 26 38 35 36 18 37 41 33 35 41
3690.0 34 19 44 42 44 44 41 47 49 28
3730.0 43 33 36 41 36 39 56 31 44 33
3770.0 23 33 41 43 60 29 36 42 40 19
3810.0 31 25 42 57 49 41 51 39 44 37
3850.0 16 21 38 50 26 44 39 44 31 65
3890.0 50 57 33 54 41 46 49 55 44 53
3930.0 31 38 28 30 37 56 53 96 113 48
##END=
