##TITLE=4-Octene, (E)-
##JCAMP-DX=4.24
##DATA TYPE=INFRARED SPECTRUM
##ORIGIN=Sadtler Research Labs Under US-EPA Contract
##OWNER=NIST Standard Reference Data Program
##CAS REGISTRY NO=14850-23-8
##MOLFORM=C 8 H 16
##XUNITS=1/CM
##YUNITS=ABSORBANCE
##XFACTOR=1.0
##YFACTOR=0.000120892
##DELTAX=4.0
##FIRSTX=450.0
##LASTX=3966.0
##FIRSTY=0.000000
##MAXX=3966
##MINX=450
##MAXY=1.20892
##MINY=0
##NPOINTS=880
##XYDATA=(X++(Y..Y))
450.0 0 424 485 504 349 510 410 491 386 475
490.0 407 432 443 452 459 407 484 436 452 410
530.0 453 428 442 434 424 434 396 439 413 439
570.0 396 421 425 402 403 411 430 411 429 405
610.0 416 407 414 411 412 416 404 418 403 411
650.0 408 416 410 405 419 416 410 411 419 413
690.0 427 417 430 426 431 438 443 449 457 471
730.0 474 497 501 526 526 544 567 570 599 628
770.0 626 650 613 630 620 595 547 487 507 480
810.0 464 472 466 465 460 468 477 474 485 491
850.0 507 504 525 525 534 540 557 570 581 595
890.0 601 596 579 577 566 562 550 555 554 557
930.0 582 620 694 811 989 1223 1537 1863 2180 2350
970.0 2347 2172 1843 1508 1211 996 845 752 698 668
1010.0 653 631 620 605 603 598 602 614 642 673
1050.0 714 769 805 821 801 763 710 680 674 687
1090.0 711 739 748 726 685 633 588 553 536 527
1130.0 525 528 530 530 525 521 507 496 489 485
1170.0 483 478 482 483 491 493 495 498 509 515
1210.0 517 517 515 510 511 512 510 507 510 519
1250.0 534 560 606 659 698 703 691 652 626 608
1290.0 609 611 620 630 626 629 625 623 621 646
1330.0 684 769 859 894 889 835 752 687 677 676
1370.0 720 792 909 980 998 983 862 754 671 627
1410.0 595 595 601 641 694 769 884 1013 1151 1258
1450.0 1389 1474 1552 1610 1561 1481 1310 1131 963 827
1490.0 731 643 604 548 532 505 484 476 456 457
1530.0 439 444 433 438 425 430 427 425 422 416
1570.0 424 415 421 413 418 411 415 414 411 416
1610.0 416 424 424 438 444 466 478 488 484 466
1650.0 453 441 436 435 448 445 454 461 471 487
1690.0 499 524 538 555 572 596 597 597 597 559
1730.0 515 500 483 481 472 470 454 451 441 437
1770.0 431 424 418 412 410 407 404 403 400 397
1810.0 396 394 395 394 395 398 398 401 401 404
1850.0 402 401 400 398 395 389 387 384 378 376
1890.0 375 370 368 366 367 367 363 363 361 361
1930.0 359 360 360 360 361 358 359 360 359 361
1970.0 360 359 363 360 362 362 360 360 359 362
2010.0 362 363 364 367 369 370 371 372 373 375
2050.0 372 371 369 370 368 366 364 362 361 361
2090.0 358 358 359 360 358 358 358 359 359 356
2130.0 358 357 357 357 357 358 358 358 358 361
2170.0 358 361 359 359 359 360 358 359 358 359
2210.0 359 358 358 359 359 359 358 356 359 358
2250.0 357 355 354 354 354 355 353 355 353 355
2290.0 355 353 352 355 358 358 360 360 361 361
2330.0 362 360 357 362 360 366 364 364 366 358
2370.0 356 358 356 356 359 359 361 362 364 363
2410.0 361 361 361 359 359 356 357 354 349 350
2450.0 347 345 341 340 339 337 337 336 336 336
2490.0 338 340 339 341 341 344 344 349 348 351
2530.0 352 353 357 358 360 360 360 359 356 358
2570.0 356 357 358 360 364 366 367 372 372 373
2610.0 372 375 377 375 376 373 377 381 382 386
2650.0 389 393 403 406 414 424 430 432 428 424
2690.0 421 420 422 424 429 435 438 440 445 453
2730.0 464 474 490 498 505 495 488 482 479 479
2770.0 485 494 502 515 534 555 572 587 608 625
2810.0 652 683 725 776 856 964 1128 1362 1670 2058
2850.0 2412 2671 2862 3033 3310 3683 4067 4620 4943 4811
2890.0 4644 4248 3950 3976 4271 4710 5187 5775 6392 7072
2930.0 7701 8296 8680 8672 8260 7796 7407 7315 7926 9089
2970.0 10000 9459 8748 6854 4872 3657 2956 2491 2182 1955
3010.0 1786 1666 1574 1499 1437 1372 1295 1203 1103 1000
3050.0 902 818 745 686 647 614 592 570 555 543
3090.0 525 510 496 487 476 469 459 450 443 438
3130.0 433 427 425 419 415 414 414 413 408 411
3170.0 408 409 407 404 404 401 398 396 386 385
3210.0 379 372 368 366 360 357 356 355 354 355
3250.0 351 350 357 356 354 352 353 355 356 356
3290.0 352 349 351 350 351 353 353 354 357 355
3330.0 354 358 354 354 353 355 360 358 360 362
3370.0 363 361 360 359 361 361 358 351 355 355
3410.0 355 352 354 355 350 349 348 349 350 349
3450.0 352 344 345 349 344 343 337 344 343 340
3490.0 342 339 344 338 339 347 338 341 343 338
3530.0 336 340 336 344 345 345 343 342 340 344
3570.0 343 343 347 347 345 342 345 350 351 345
3610.0 341 347 348 343 358 350 359 361 365 372
3650.0 373 371 370 358 357 355 357 356 351 355
3690.0 358 352 358 357 355 351 355 353 355 351
3730.0 347 360 349 345 355 355 360 355 358 357
3770.0 358 357 360 352 359 361 358 358 358 352
3810.0 347 350 346 352 345 345 355 338 339 347
3850.0 347 345 339 342 345 343 341 341 342 336
3890.0 338 344 351 354 348 356 347 346 338 337
3930.0 347 349 361 349 347 355 356 363 354 347
##END=
