##TITLE=2-Naphthaleneethanol
##JCAMP-DX=4.24
##DATA TYPE=INFRARED SPECTRUM
##ORIGIN=Sadtler Research Labs Under US-EPA Contract
##OWNER=NIST Standard Reference Data Program
##CAS REGISTRY NO=1485-07-0
##MOLFORM=C 12 H 12 O
##XUNITS=1/CM
##YUNITS=ABSORBANCE
##XFACTOR=1.0
##YFACTOR=0.000051639
##DELTAX=4.0
##FIRSTX=450.0
##LASTX=3966.0
##FIRSTY=0.049986
##MAXX=3966
##MINX=450
##MAXY=0.51639
##MINY=0
##NPOINTS=880
##XYDATA=(X++(Y..Y))
450.0 968 783 1126 1677 2394 2922 3236 2630 2059 1356
490.0 810 550 394 427 320 226 265 186 144 208
530.0 228 212 223 260 284 216 237 183 170 119
570.0 115 123 102 75 68 80 64 58 65 79
610.0 156 364 528 607 518 276 232 274 326 317
650.0 344 229 166 88 29 87 17 21 18 51
690.0 56 98 129 99 114 136 188 380 846 1636
730.0 2776 4046 5245 5491 4546 3396 2206 1348 865 581
770.0 485 413 407 465 625 949 1574 2543 3705 4832
810.0 5638 5207 3950 2789 1860 1462 1484 1796 2147 2266
850.0 2259 1900 1452 1084 771 619 571 604 737 830
890.0 822 751 626 479 342 272 248 255 273 336
930.0 453 591 690 780 821 811 853 892 819 732
970.0 670 607 617 647 748 883 1097 1396 1766 2169
1010.0 2571 3016 3420 3956 4715 5913 7567 9107 9992 10000
1050.0 9259 8257 7088 5681 4284 3099 2259 1700 1348 1122
1090.0 941 817 702 632 607 623 681 783 867 904
1130.0 920 919 928 924 919 873 845 837 873 898
1170.0 891 886 847 796 776 809 875 950 1019 1024
1210.0 1000 961 911 865 843 842 843 842 837 832
1250.0 833 888 989 1130 1221 1210 1161 1011 840 725
1290.0 668 635 625 643 648 676 716 759 816 881
1330.0 932 964 1008 1051 1082 1108 1136 1194 1295 1444
1370.0 1612 1840 2077 2279 2284 2089 1709 1297 986 774
1410.0 651 574 535 541 562 630 685 744 738 675
1450.0 583 485 419 396 412 509 584 597 554 476
1490.0 457 583 946 1548 2055 2040 1574 764 265 93
1530.0 54 48 68 63 70 72 68 47 56 55
1570.0 92 147 226 301 416 585 835 1098 1166 1026
1610.0 711 417 306 339 457 623 743 729 608 427
1650.0 271 193 154 116 113 129 154 207 236 250
1690.0 241 219 194 162 138 139 166 196 218 234
1730.0 235 258 292 325 358 376 375 338 299 252
1770.0 247 242 264 267 268 231 193 166 154 164
1810.0 181 193 196 183 141 116 100 99 86 82
1850.0 75 63 48 34 24 12 21 46 97 159
1890.0 232 311 383 425 439 420 386 348 303 274
1930.0 290 351 406 388 306 182 82 27 15 6
1970.0 4 0 2 6 9 14 21 26 23 28
2010.0 24 27 32 37 46 58 66 73 75 83
2050.0 84 84 91 87 80 77 71 77 69 73
2090.0 60 62 55 52 47 37 30 24 24 19
2130.0 24 16 14 10 11 10 6 7 8 6
2170.0 10 9 10 10 10 13 8 8 11 10
2210.0 20 11 15 15 17 21 14 19 18 20
2250.0 18 28 29 26 32 36 47 66 77 93
2290.0 101 108 117 125 126 129 116 112 106 90
2330.0 80 87 76 77 106 83 91 74 86 88
2370.0 98 97 105 99 80 64 53 51 62 61
2410.0 59 60 59 57 60 62 56 60 58 58
2450.0 54 54 48 45 47 41 48 45 46 52
2490.0 52 51 49 60 54 49 52 50 56 59
2530.0 51 48 41 40 41 31 35 31 33 33
2570.0 36 33 32 37 36 35 36 48 43 54
2610.0 56 63 63 62 62 73 73 89 96 105
2650.0 101 101 105 110 114 115 120 118 131 132
2690.0 138 146 156 163 177 183 195 206 219 222
2730.0 230 234 240 249 256 262 272 283 282 290
2770.0 292 289 301 302 322 327 337 360 375 394
2810.0 421 445 464 496 538 586 651 750 873 1023
2850.0 1196 1377 1566 1800 2105 2509 3026 3555 3905 3958
2890.0 3662 3260 2953 2826 2925 3243 3708 4263 4775 5122
2930.0 5267 5277 5290 5337 5372 5291 5092 4876 4647 4349
2970.0 3835 3153 2430 1884 1578 1412 1335 1308 1341 1462
3010.0 1693 2055 2453 2719 2781 2603 2377 2373 2763 3596
3050.0 4746 6050 7254 7841 7663 6656 5075 3729 2830 2284
3090.0 1889 1490 1093 761 523 400 328 264 215 172
3130.0 150 140 140 126 122 110 103 99 96 87
3170.0 81 90 75 79 76 70 62 53 56 56
3210.0 55 57 58 59 60 59 53 58 50 39
3250.0 34 35 32 20 19 17 11 20 21 18
3290.0 12 19 17 22 18 10 16 22 21 22
3330.0 23 32 31 42 30 29 34 32 31 29
3370.0 23 29 25 25 25 25 34 25 26 31
3410.0 38 28 31 22 37 36 29 37 33 24
3450.0 29 25 35 33 46 40 30 36 43 35
3490.0 26 29 33 22 45 30 39 30 53 50
3530.0 43 50 32 31 40 39 33 53 61 94
3570.0 95 95 80 92 89 98 85 100 120 144
3610.0 193 269 417 651 870 1047 1038 958 836 760
3650.0 811 978 1236 1453 1581 1555 1390 1135 778 535
3690.0 394 317 235 192 166 134 113 103 77 82
3730.0 83 74 56 59 83 68 87 54 43 25
3770.0 18 7 33 19 24 27 30 13 30 28
3810.0 16 43 33 36 25 25 48 25 17 22
3850.0 48 63 33 39 40 46 45 52 42 55
3890.0 48 50 52 80 57 60 53 65 56 57
3930.0 72 69 56 59 59 42 52 63 66 58
##END=
