##TITLE=Hexanoic acid, 2-ethyl-
##JCAMP-DX=4.24
##DATA TYPE=INFRARED SPECTRUM
##ORIGIN=Sadtler Research Labs Under US-EPA Contract
##OWNER=NIST Standard Reference Data Program
##CAS REGISTRY NO=149-57-5
##MOLFORM=C 8 H 16 O 2
##XUNITS=1/CM
##YUNITS=ABSORBANCE
##XFACTOR=1.0
##YFACTOR=0.000086459
##DELTAX=4.0
##FIRSTX=450.0
##LASTX=3966.0
##FIRSTY=0.011499
##MAXX=3966
##MINX=450
##MAXY=0.86459
##MINY=0
##NPOINTS=880
##XYDATA=(X++(Y..Y))
450.0 133 128 146 168 168 188 182 213 219 223
490.0 211 249 270 258 360 404 422 433 469 467
530.0 491 566 597 699 792 892 967 1049 1325 1323
570.0 1466 1802 2042 2188 2151 2042 1876 1725 1631 1501
610.0 1369 1183 1063 960 837 717 622 455 333 265
650.0 205 182 172 152 123 114 127 106 120 115
690.0 105 150 170 204 235 284 369 444 506 617
730.0 687 753 791 805 810 797 722 658 557 493
770.0 431 394 358 309 294 274 248 204 175 132
810.0 115 100 80 126 79 84 57 90 85 71
850.0 61 65 58 28 69 80 86 79 73 79
890.0 86 90 86 97 89 113 107 115 103 119
930.0 138 165 207 249 284 284 269 248 221 215
970.0 184 152 117 142 125 120 126 125 133 142
1010.0 172 193 221 263 311 350 401 444 489 562
1050.0 677 824 1012 1201 1370 1528 1691 1873 2157 2571
1090.0 3145 3840 4458 4823 4730 4359 3859 3423 3121 2899
1130.0 2661 2403 2201 2084 2069 2119 2209 2282 2321 2297
1170.0 2163 1923 1591 1240 947 738 620 571 570 558
1210.0 558 540 497 429 390 358 343 344 337 338
1250.0 332 332 353 366 402 443 492 542 581 610
1290.0 624 632 630 603 565 513 464 436 417 419
1330.0 443 465 486 505 544 551 529 532 532 541
1370.0 566 626 715 851 942 983 949 826 700 580
1410.0 478 394 316 268 243 243 263 298 382 496
1450.0 647 836 1017 1151 1189 1129 909 679 483 317
1490.0 201 153 110 100 89 64 74 61 58 67
1530.0 53 53 51 38 41 57 45 24 36 41
1570.0 35 33 34 34 51 41 49 41 38 36
1610.0 30 37 36 41 20 47 32 37 39 37
1650.0 27 34 46 58 58 57 57 77 69 77
1690.0 103 132 122 161 218 305 412 564 757 899
1730.0 996 1053 1152 1274 1450 1849 2723 4159 6112 8269
1770.0 10000 9804 7789 5509 3505 2200 1518 1246 1076 928
1810.0 775 613 473 360 268 205 159 141 110 85
1850.0 82 83 68 68 59 53 50 44 46 48
1890.0 43 41 41 41 34 22 27 26 17 22
1930.0 24 23 24 13 14 19 19 16 11 4
1970.0 10 12 12 13 16 16 8 12 12 11
2010.0 19 17 10 4 7 10 20 12 11 14
2050.0 12 14 16 17 15 16 16 12 16 5
2090.0 5 10 7 10 8 9 10 10 10 16
2130.0 10 10 10 9 15 17 10 10 16 14
2170.0 22 27 26 22 28 32 28 28 29 29
2210.0 27 27 34 26 26 26 26 26 21 21
2250.0 21 20 16 14 5 21 16 4 15 19
2290.0 20 23 20 25 23 31 30 24 19 10
2330.0 7 7 5 6 7 23 20 23 17 3
2370.0 0 0 0 16 17 30 29 34 29 29
2410.0 23 23 15 22 25 21 21 16 21 16
2450.0 19 23 17 17 17 19 25 19 19 16
2490.0 16 21 21 20 20 24 31 19 19 19
2530.0 26 26 19 22 27 28 25 21 25 32
2570.0 31 31 27 27 30 26 39 31 32 38
2610.0 49 43 43 44 38 38 46 47 49 46
2650.0 53 56 59 61 68 68 69 68 67 67
2690.0 63 62 70 62 67 66 60 67 75 68
2730.0 81 87 100 110 117 122 117 117 119 110
2770.0 105 105 122 116 128 146 152 156 169 175
2810.0 183 196 212 229 253 265 297 332 380 437
2850.0 541 701 946 1281 1686 2041 2291 2512 2649 2633
2890.0 2489 2207 1908 1708 1681 1769 1984 2255 2605 3059
2930.0 3622 4293 4986 5489 5645 5425 4967 4609 4750 5436
2970.0 6092 6272 5511 4210 2834 1811 1178 825 636 524
3010.0 436 388 342 319 304 283 257 241 222 210
3050.0 185 185 174 155 160 144 147 140 138 133
3090.0 128 130 127 122 122 116 111 109 110 100
3130.0 91 98 97 100 93 86 90 82 88 105
3170.0 87 87 94 89 90 73 74 71 72 60
3210.0 56 65 65 66 53 61 56 53 41 50
3250.0 43 25 38 42 43 27 26 26 16 16
3290.0 8 12 20 13 26 12 16 19 9 22
3330.0 16 16 21 17 12 16 26 8 12 9
3370.0 6 10 4 4 19 3 4 4 10 14
3410.0 21 16 11 16 15 5 5 11 13 3
3450.0 16 7 21 24 7 8 14 24 20 12
3490.0 30 19 31 31 27 37 53 82 87 87
3530.0 70 100 78 88 106 179 334 684 1280 1965
3570.0 2635 2878 2641 2015 1226 629 312 172 111 67
3610.0 50 34 27 20 28 48 28 22 36 43
3650.0 57 33 14 37 17 24 10 5 12 21
3690.0 15 15 15 33 28 58 45 38 40 38
3730.0 56 37 43 37 52 38 17 11 12 12
3770.0 23 35 29 41 48 43 41 51 42 14
3810.0 37 32 36 17 22 32 49 53 57 52
3850.0 54 67 77 68 79 60 59 46 43 31
3890.0 47 34 40 52 50 58 69 68 62 52
3930.0 51 38 38 46 43 29 21 27 37 40
##END=
