##TITLE=3-Buten-2-one, 4-(2,6,6-trimethyl-1-cyclohexen-1-yl)-
##JCAMP-DX=4.24
##DATA TYPE=INFRARED SPECTRUM
##ORIGIN=Sadtler Research Labs Under US-EPA Contract
##OWNER=NIST Standard Reference Data Program
##CAS REGISTRY NO=14901-07-6
##MOLFORM=C 13 H 20 O
##XUNITS=1/CM
##YUNITS=ABSORBANCE
##XFACTOR=1.0
##YFACTOR=0.000046835
##DELTAX=4.0
##FIRSTX=450.0
##LASTX=3966.0
##FIRSTY=0.000000
##MAXX=3966
##MINX=450
##MAXY=0.46835
##MINY=0
##NPOINTS=880
##XYDATA=(X++(Y..Y))
450.0 0 929 1294 750 1688 893 317 631 1577 1136
490.0 1509 803 1303 930 1209 752 830 837 1084 1155
530.0 1286 1311 1066 996 991 1066 897 1015 1125 1091
570.0 1347 1562 1988 1885 1753 1334 1194 1005 803 676
610.0 698 850 867 944 775 887 808 833 943 747
650.0 800 770 727 777 709 816 760 787 836 721
690.0 730 703 714 729 699 770 711 686 681 748
730.0 735 764 732 671 723 689 734 641 710 729
770.0 703 761 799 859 733 771 799 792 741 780
810.0 759 798 777 783 802 773 827 832 863 826
850.0 836 832 813 826 827 838 833 882 864 870
890.0 900 906 939 969 1027 1010 992 939 884 881
930.0 902 945 956 1005 1077 1234 1391 1668 1854 1965
970.0 2111 2326 2615 2647 2520 2160 1818 1645 1467 1357
1010.0 1293 1268 1267 1306 1338 1339 1304 1272 1197 1128
1050.0 1064 1002 946 917 892 870 857 846 853 842
1090.0 831 836 822 827 841 868 877 934 987 1038
1130.0 1071 1118 1141 1149 1222 1328 1559 1899 2357 2841
1170.0 3201 3207 2947 2523 2166 1949 1817 1780 1833 1900
1210.0 1804 1685 1611 1649 1836 2193 2892 3928 5269 6283
1250.0 6288 5398 4177 3298 2657 2111 1886 1908 1994 2055
1290.0 2071 2157 2224 2125 1866 1514 1248 1084 1045 1059
1330.0 1104 1197 1327 1496 1740 2213 3015 3954 4567 4611
1370.0 3873 3004 2454 2124 1975 1749 1506 1291 1127 1068
1410.0 1070 1085 1148 1224 1332 1486 1578 1645 1647 1685
1450.0 1784 1924 2148 2270 2246 2054 1770 1455 1207 1015
1490.0 904 831 808 784 791 802 780 788 793 787
1530.0 781 778 795 805 805 805 810 847 868 897
1570.0 943 1043 1153 1327 1566 1915 2347 2814 3320 3896
1610.0 4517 4856 4731 3982 3041 2234 1810 1566 1432 1343
1650.0 1296 1277 1298 1367 1482 1691 2095 2807 4040 5813
1690.0 7284 7632 6829 5767 5368 5112 4372 3220 2294 1735
1730.0 1474 1318 1198 1068 946 860 777 731 663 630
1770.0 610 600 573 563 548 533 550 535 541 525
1810.0 526 513 500 511 496 494 472 475 464 458
1850.0 454 441 433 435 443 430 427 416 412 403
1890.0 406 413 404 389 391 400 389 385 383 379
1930.0 371 384 385 393 391 387 397 386 382 382
1970.0 384 384 381 382 370 378 377 378 374 374
2010.0 368 373 377 357 338 334 331 329 322 319
2050.0 332 338 334 331 305 289 281 274 284 308
2090.0 326 327 343 348 336 338 341 337 334 331
2130.0 338 328 323 331 320 328 336 337 328 334
2170.0 338 336 329 335 328 319 322 316 314 311
2210.0 315 318 312 320 312 314 307 310 319 317
2250.0 317 309 317 307 307 301 303 305 284 299
2290.0 294 290 282 282 281 287 275 268 261 271
2330.0 264 260 266 261 297 267 261 263 307 333
2370.0 359 366 354 346 321 317 304 291 288 296
2410.0 297 291 293 289 298 286 283 291 288 279
2450.0 283 281 283 290 285 299 276 290 294 302
2490.0 309 282 301 295 291 290 314 297 297 292
2530.0 304 301 294 298 288 294 301 292 291 289
2570.0 293 282 299 294 291 290 301 317 324 343
2610.0 370 378 368 371 351 371 362 360 349 360
2650.0 376 396 427 435 424 403 387 355 355 374
2690.0 384 387 395 395 364 382 367 365 379 379
2730.0 386 430 437 443 430 411 411 380 395 386
2770.0 411 438 402 410 424 432 464 468 509 545
2810.0 573 584 640 732 918 1220 1614 1950 2088 2057
2850.0 1997 2175 2477 2775 3094 3614 4285 4686 4473 3881
2890.0 3354 3202 3345 3762 4456 5275 6071 6607 6861 6992
2930.0 7172 7771 8884 10000 9591 8137 6535 5813 5952 6366
2970.0 6487 5928 4779 3579 2589 2071 1840 1717 1619 1511
3010.0 1562 1543 1416 1200 1053 970 981 1039 1111 1050
3050.0 938 850 776 690 706 706 659 635 619 584
3090.0 531 523 527 490 466 459 452 420 425 428
3130.0 403 391 374 373 370 387 395 372 384 374
3170.0 372 373 351 348 340 370 360 347 337 330
3210.0 376 357 341 334 350 361 368 358 322 355
3250.0 351 320 339 348 311 325 326 330 348 360
3290.0 349 322 348 336 320 322 364 356 370 307
3330.0 343 354 365 354 342 348 343 363 419 387
3370.0 383 348 386 378 360 359 377 348 384 372
3410.0 369 330 308 315 322 310 310 311 349 343
3450.0 322 340 342 332 294 320 311 314 311 300
3490.0 326 288 319 323 314 302 300 328 289 314
3530.0 345 313 340 273 307 357 340 340 311 321
3570.0 360 346 311 360 358 300 328 297 350 304
3610.0 333 358 391 342 321 310 321 299 335 367
3650.0 357 347 359 350 405 386 377 331 349 309
3690.0 327 347 339 360 366 355 353 344 388 363
3730.0 335 372 379 348 364 363 315 363 358 362
3770.0 386 335 335 374 352 333 301 388 398 345
3810.0 333 356 389 374 356 286 366 374 347 382
3850.0 365 351 416 391 290 366 367 305 309 405
3890.0 253 342 388 399 383 368 383 474 364 357
3930.0 387 450 453 395 328 411 291 304 381 312
##END=
