##TITLE=Benzene, 1-fluoro-2-nitro-
##JCAMP-DX=4.24
##DATA TYPE=INFRARED SPECTRUM
##ORIGIN=Sadtler Research Labs Under US-EPA Contract
##OWNER=NIST Standard Reference Data Program
##CAS REGISTRY NO=1493-27-2
##MOLFORM=C 6 H 4 F N O 2
##XUNITS=1/CM
##YUNITS=ABSORBANCE
##XFACTOR=1.0
##YFACTOR=0.000108496
##DELTAX=4.0
##FIRSTX=450.0
##LASTX=3966.0
##FIRSTY=0.013996
##MAXX=3966
##MINX=450
##MAXY=1.08496
##MINY=0
##NPOINTS=880
##XYDATA=(X++(Y..Y))
450.0 129 116 183 102 33 128 118 89 140 80
490.0 195 200 283 241 242 321 267 282 260 255
530.0 359 369 492 476 411 397 173 119 134 128
570.0 126 112 96 81 33 63 17 43 50 70
610.0 101 65 65 72 70 75 83 150 209 434
650.0 764 1048 1199 1290 1192 836 465 439 473 493
690.0 539 376 327 250 172 191 165 274 462 847
730.0 1556 1877 2640 4007 3896 2510 2437 2152 1949 1879
770.0 2290 2458 1576 1200 921 633 487 525 815 1159
810.0 1228 1144 1130 878 471 259 178 134 200 335
850.0 694 1571 2559 2641 2804 2578 1762 710 283 164
890.0 132 143 109 86 87 116 90 68 69 73
930.0 111 132 171 225 271 295 235 149 171 100
970.0 82 93 69 83 63 82 67 85 90 95
1010.0 132 142 181 288 394 437 458 398 332 214
1050.0 148 137 146 161 189 242 273 344 481 573
1090.0 658 669 621 561 429 307 218 162 183 221
1130.0 307 403 430 401 427 425 368 343 300 283
1170.0 260 178 127 128 121 137 149 166 190 173
1210.0 205 194 199 274 323 508 818 1286 1886 2186
1250.0 2298 2531 2662 2743 2660 2289 2199 2240 1565 1037
1290.0 828 722 749 790 744 749 666 589 611 704
1330.0 1001 1474 2390 4012 6097 7727 8879 8914 7508 5370
1370.0 3207 1895 1211 870 610 475 413 361 380 363
1410.0 359 325 271 316 260 322 295 296 374 345
1450.0 407 468 476 661 741 946 1216 1665 2199 2586
1490.0 3043 3013 2800 2670 2229 1922 1877 1947 2384 2852
1530.0 3537 4346 5555 7770 9059 10000 9356 9171 7257 5686
1570.0 4877 4348 4062 3597 3125 2981 3257 4093 5575 6667
1610.0 7516 6327 4966 4064 2667 1740 1078 743 586 501
1650.0 373 314 278 216 197 170 130 167 131 139
1690.0 138 145 100 37 79 86 70 66 86 107
1730.0 75 27 73 42 34 18 35 36 29 36
1770.0 13 20 44 37 76 92 103 151 142 177
1810.0 165 128 123 86 60 55 54 73 45 49
1850.0 40 31 44 21 13 0 17 37 33 46
1890.0 42 50 54 55 71 91 110 138 140 159
1930.0 144 118 103 79 92 121 126 124 102 75
1970.0 40 25 27 18 18 14 9 19 18 15
2010.0 16 10 16 17 11 15 22 26 6 15
2050.0 27 36 31 37 33 37 44 53 42 48
2090.0 41 16 24 12 46 32 28 26 15 31
2130.0 34 4 20 29 37 31 22 29 20 1
2170.0 5 16 18 9 6 8 8 11 11 16
2210.0 20 26 14 23 25 21 21 20 26 18
2250.0 22 16 22 18 22 15 19 22 24 23
2290.0 30 33 44 42 43 49 39 41 32 36
2330.0 24 26 13 12 20 34 27 25 50 32
2370.0 41 27 19 24 30 35 31 44 57 66
2410.0 73 78 81 72 62 61 53 46 46 42
2450.0 39 35 33 35 31 30 25 28 40 45
2490.0 65 59 63 66 57 52 49 39 41 39
2530.0 41 30 23 28 24 33 29 26 30 47
2570.0 48 42 47 55 51 52 39 50 45 44
2610.0 36 33 36 40 31 34 36 35 35 33
2650.0 34 32 31 33 35 39 45 54 62 76
2690.0 90 93 105 107 102 94 76 70 65 56
2730.0 51 50 51 58 60 66 69 73 74 65
2770.0 60 49 37 37 42 41 43 44 47 55
2810.0 50 49 47 56 48 55 59 61 67 76
2850.0 83 88 93 101 108 125 143 158 182 205
2890.0 218 224 222 210 193 170 156 144 135 128
2930.0 121 107 88 82 77 75 72 67 76 69
2970.0 62 60 57 54 44 44 44 42 44 39
3010.0 47 49 52 61 73 86 105 114 126 132
3050.0 141 154 163 180 207 242 297 349 408 472
3090.0 504 501 469 397 294 201 130 84 61 47
3130.0 39 37 39 31 22 18 27 26 27 23
3170.0 19 20 20 21 22 24 23 25 26 28
3210.0 29 35 31 32 32 28 31 23 26 24
3250.0 19 13 22 20 21 24 19 13 19 22
3290.0 24 19 18 27 26 19 24 23 24 23
3330.0 25 27 25 27 28 28 22 27 18 27
3370.0 22 22 21 9 12 21 25 23 24 24
3410.0 19 31 19 19 27 30 26 27 21 17
3450.0 21 30 17 26 28 19 24 32 24 19
3490.0 26 31 23 20 23 29 30 17 20 22
3530.0 25 16 24 28 22 23 20 21 25 27
3570.0 22 22 30 23 30 19 30 18 25 29
3610.0 31 29 23 35 30 28 40 22 29 35
3650.0 32 34 37 27 35 33 34 47 36 32
3690.0 43 28 21 33 24 40 52 36 36 39
3730.0 51 46 41 46 53 49 48 50 49 54
3770.0 40 55 46 41 31 44 41 41 60 46
3810.0 29 37 35 32 29 44 49 51 26 53
3850.0 57 50 47 33 42 32 30 50 34 41
3890.0 37 50 54 35 41 52 42 55 34 48
3930.0 34 63 46 53 39 50 43 57 59 32
##END=
