##TITLE=3-Heptanol, 4-methyl-
##JCAMP-DX=4.24
##DATA TYPE=INFRARED SPECTRUM
##ORIGIN=Sadtler Research Labs Under US-EPA Contract
##OWNER=NIST Standard Reference Data Program
##CAS REGISTRY NO=14979-39-6
##MOLFORM=C 8 H 18 O
##XUNITS=1/CM
##YUNITS=ABSORBANCE
##XFACTOR=1.0
##YFACTOR=0.000066779
##DELTAX=4.0
##FIRSTX=450.0
##LASTX=3966.0
##FIRSTY=0.007880
##MAXX=3966
##MINX=450
##MAXY=0.66779
##MINY=0
##NPOINTS=880
##XYDATA=(X++(Y..Y))
450.0 118 151 135 121 103 92 101 102 81 111
490.0 111 129 98 77 123 80 107 101 113 84
530.0 80 121 22 75 52 59 65 86 80 64
570.0 53 101 77 68 63 90 41 47 66 97
610.0 112 105 96 119 97 113 43 52 44 50
650.0 77 59 62 55 18 20 41 55 55 61
690.0 67 47 61 50 47 59 62 67 75 99
730.0 121 113 103 164 171 151 139 114 109 122
770.0 134 120 91 107 109 38 93 90 95 101
810.0 109 104 121 122 128 128 129 123 109 135
850.0 147 141 152 166 152 188 196 196 219 210
890.0 226 217 232 242 255 257 262 275 310 343
930.0 426 540 702 872 1041 1200 1360 1539 1751 1961
970.0 2095 2072 1890 1582 1215 916 715 594 559 560
1010.0 588 610 637 657 679 667 691 695 702 701
1050.0 686 671 669 681 717 742 795 839 889 932
1090.0 962 956 948 902 840 777 720 688 662 640
1130.0 649 671 692 729 731 716 678 625 556 501
1170.0 438 407 374 363 364 376 410 441 502 564
1210.0 627 679 732 763 790 780 774 729 687 646
1250.0 606 584 550 528 512 489 490 484 485 505
1290.0 504 513 499 486 462 437 414 404 391 392
1330.0 395 400 403 428 448 476 512 555 615 705
1370.0 841 1001 1180 1326 1367 1311 1125 900 704 557
1410.0 446 381 329 313 304 316 351 421 519 672
1450.0 870 1100 1344 1512 1576 1518 1334 1069 784 555
1490.0 376 271 218 172 160 137 128 118 118 105
1530.0 90 100 87 102 76 78 82 78 79 66
1570.0 66 62 73 52 63 46 54 45 55 47
1610.0 47 43 56 51 49 55 47 55 43 56
1650.0 41 64 39 42 45 45 34 52 38 50
1690.0 39 41 47 62 51 66 85 116 128 140
1730.0 140 129 109 93 81 63 53 46 47 49
1770.0 44 43 46 31 42 29 33 23 28 20
1810.0 17 17 13 10 10 8 7 9 8 8
1850.0 5 13 6 5 9 13 6 9 6 8
1890.0 6 10 6 6 11 11 9 10 3 11
1930.0 11 8 11 8 9 11 11 10 9 4
1970.0 9 10 3 11 4 6 3 2 3 7
2010.0 11 1 9 8 9 9 16 15 15 12
2050.0 13 12 17 15 15 15 9 8 7 7
2090.0 0 1 1 1 1 0 0 0 0 0
2130.0 0 0 0 0 5 2 9 10 5 4
2170.0 9 7 6 14 20 13 14 14 14 12
2210.0 18 13 13 13 12 12 12 6 13 13
2250.0 12 12 6 11 12 13 8 16 13 12
2290.0 12 12 12 12 12 9 14 10 11 24
2330.0 22 16 24 28 38 15 8 18 27 27
2370.0 58 64 66 51 44 44 39 38 37 38
2410.0 38 45 44 39 35 39 39 39 31 32
2450.0 29 32 23 32 24 22 29 29 34 23
2490.0 23 33 32 25 33 33 33 34 41 34
2530.0 40 41 45 39 40 53 57 56 55 64
2570.0 71 79 86 94 93 102 102 102 102 107
2610.0 116 109 109 110 102 109 109 110 113 108
2650.0 109 109 119 116 116 117 125 140 139 140
2690.0 151 155 155 157 156 163 170 173 185 193
2730.0 201 224 233 245 255 241 244 236 223 224
2770.0 224 230 246 246 254 270 286 302 307 332
2810.0 355 376 422 452 502 563 647 762 925 1142
2850.0 1421 1738 2103 2464 2825 3178 3642 4211 4649 4797
2890.0 4670 4300 3840 3536 3452 3539 3756 4101 4541 5006
2930.0 5538 5973 6316 6397 6250 5980 5892 6268 7433 8963
2970.0 10000 9951 8520 6456 4470 2997 2022 1406 1023 802
3010.0 652 565 497 461 426 397 373 344 336 312
3050.0 282 259 250 236 220 211 209 208 195 188
3090.0 185 171 171 156 139 155 149 137 138 140
3130.0 120 125 134 125 126 126 124 133 125 126
3170.0 125 113 119 103 105 95 101 83 75 70
3210.0 73 60 52 52 45 37 45 39 35 31
3250.0 36 18 25 22 16 16 16 15 23 16
3290.0 25 31 27 22 36 22 22 23 39 16
3330.0 31 18 21 16 18 23 28 23 23 24
3370.0 37 17 33 24 23 23 32 28 33 23
3410.0 22 27 40 23 32 34 40 25 32 22
3450.0 26 23 28 35 20 34 24 18 31 40
3490.0 19 18 18 17 22 19 22 18 18 29
3530.0 18 31 20 11 31 16 19 22 19 15
3570.0 16 27 23 33 17 28 24 22 24 40
3610.0 55 62 68 93 118 138 159 197 244 302
3650.0 390 454 511 544 512 438 355 255 168 120
3690.0 93 66 62 57 43 48 59 49 39 29
3730.0 44 48 55 28 49 38 31 27 28 28
3770.0 27 36 43 29 37 47 37 48 31 27
3810.0 32 38 32 34 42 43 33 33 35 47
3850.0 50 63 73 65 55 46 46 48 43 53
3890.0 42 48 44 50 57 56 48 51 51 43
3930.0 36 34 40 35 37 36 38 26 35 39
##END=
