##TITLE=Ethyl 2-bromotetradecanoate
##JCAMP-DX=4.24
##DATA TYPE=INFRARED SPECTRUM
##ORIGIN=Sadtler Research Labs Under US-EPA Contract
##OWNER=NIST Standard Reference Data Program
##CAS REGISTRY NO=14980-92-8
##MOLFORM=C 16 H 31 Br O 2
##XUNITS=1/CM
##YUNITS=ABSORBANCE
##XFACTOR=1.0
##YFACTOR=0.000129419
##DELTAX=4.0
##FIRSTX=450.0
##LASTX=3966.0
##FIRSTY=0.030413
##MAXX=3966
##MINX=450
##MAXY=1.29419
##MINY=0
##NPOINTS=880
##XYDATA=(X++(Y..Y))
450.0 235 147 46 5 103 86 54 54 37 47
490.0 60 64 53 61 57 72 78 70 99 87
530.0 55 67 51 49 46 52 47 74 48 66
570.0 70 54 60 60 65 73 83 70 70 70
610.0 62 75 72 57 63 64 58 63 57 58
650.0 61 74 90 106 139 178 173 159 154 147
690.0 155 155 163 187 220 247 272 279 267 262
730.0 267 293 278 249 208 173 166 154 134 132
770.0 124 127 123 110 100 105 120 120 119 123
810.0 125 128 116 106 102 107 94 101 114 122
850.0 152 177 199 217 205 175 142 115 112 105
890.0 107 112 115 115 123 132 137 148 154 160
930.0 168 175 173 172 171 167 166 164 161 153
970.0 154 151 154 157 166 185 205 232 277 339
1010.0 423 535 659 805 937 1055 1128 1134 1097 1009
1050.0 897 791 694 626 584 562 557 565 593 630
1090.0 688 752 795 804 793 791 829 900 959 1032
1130.0 1162 1392 1755 2204 2616 2812 2787 2630 2443 2261
1170.0 2095 1960 1845 1726 1613 1531 1464 1420 1405 1397
1210.0 1408 1415 1432 1437 1451 1473 1523 1585 1689 1816
1250.0 1983 2157 2299 2366 2322 2150 1920 1688 1504 1376
1290.0 1298 1252 1224 1201 1155 1087 1005 915 842 786
1330.0 752 749 753 759 756 740 716 687 693 789
1370.0 957 1046 949 783 637 539 481 441 409 379
1410.0 360 355 351 367 396 452 527 627 737 843
1450.0 951 1037 1135 1185 1140 1019 827 640 499 406
1490.0 351 306 264 219 170 134 113 90 66 31
1530.0 7 0 14 28 49 65 72 71 73 71
1570.0 81 89 103 115 114 114 115 122 127 130
1610.0 125 119 114 110 107 106 106 105 109 111
1650.0 118 124 134 126 126 126 129 144 158 178
1690.0 200 219 247 287 339 398 476 557 666 785
1730.0 977 1251 1661 2183 2877 3561 3946 3759 3126 2332
1770.0 1741 1350 1050 803 606 466 361 294 234 189
1810.0 149 118 99 89 83 78 79 78 76 73
1850.0 73 73 69 70 68 68 69 69 69 69
1890.0 70 68 68 64 62 60 55 52 49 46
1930.0 47 46 46 41 40 38 37 37 35 34
1970.0 35 36 32 33 32 33 33 35 34 38
2010.0 40 40 39 41 37 37 37 38 35 35
2050.0 34 33 28 30 31 29 30 28 29 27
2090.0 27 27 26 26 23 20 19 19 17 16
2130.0 16 13 10 10 9 9 8 7 7 8
2170.0 8 7 5 7 3 5 3 2 3 0
2210.0 0 2 1 3 0 2 3 1 3 2
2250.0 3 2 5 4 6 6 11 11 13 17
2290.0 19 25 29 36 34 37 42 36 44 39
2330.0 36 38 35 42 43 49 55 37 50 38
2370.0 32 29 34 34 23 13 13 13 13 16
2410.0 13 13 14 13 12 13 12 11 13 11
2450.0 11 16 15 13 14 15 15 17 16 17
2490.0 15 18 18 17 17 20 23 23 24 27
2530.0 27 30 29 27 30 29 30 31 29 30
2570.0 36 38 36 36 37 41 41 41 44 45
2610.0 48 50 53 55 57 58 60 64 69 71
2650.0 73 76 79 82 88 92 95 99 101 102
2690.0 104 103 101 103 101 99 102 104 104 111
2730.0 118 116 122 124 128 134 135 132 136 143
2770.0 147 161 172 177 189 207 220 248 263 284
2810.0 304 335 371 416 461 527 605 713 883 1138
2850.0 1528 2140 2983 3750 3907 3492 2905 2442 2197 2078
2890.0 1973 1970 2097 2381 2799 3322 3955 4744 5903 7536
2930.0 9281 10000 9367 7967 6446 5096 4105 3583 3417 3379
2970.0 3206 2764 2269 2008 1934 1784 1496 1240 1051 890
3010.0 774 668 571 485 418 364 321 289 263 238
3050.0 218 203 192 181 166 156 143 132 122 114
3090.0 107 98 96 90 89 80 79 74 74 73
3130.0 72 68 68 65 63 61 62 57 56 56
3170.0 52 53 49 51 50 44 41 40 38 39
3210.0 35 32 33 26 27 25 23 19 18 16
3250.0 17 18 14 19 17 15 14 13 15 12
3290.0 15 13 16 16 15 10 11 10 14 11
3330.0 15 14 15 17 18 16 18 17 17 18
3370.0 22 24 17 17 15 15 21 18 19 18
3410.0 17 19 16 17 15 15 15 19 15 19
3450.0 21 16 17 21 20 23 23 27 31 30
3490.0 28 29 27 21 18 15 13 10 12 8
3530.0 9 8 9 2 4 2 0 3 7 15
3570.0 15 19 20 29 21 13 10 2 1 10
3610.0 6 7 8 7 11 12 16 10 11 10
3650.0 10 6 8 6 6 11 9 10 11 10
3690.0 9 13 5 15 17 14 13 10 18 22
3730.0 12 16 20 21 29 22 5 8 7 14
3770.0 5 9 8 11 0 9 12 19 13 14
3810.0 15 10 14 14 10 11 13 10 18 15
3850.0 17 21 21 9 15 12 15 22 9 9
3890.0 10 15 16 24 20 13 16 8 20 9
3930.0 11 14 20 11 13 14 18 20 21 18
##END=
