##TITLE=Benzene, 1,4-dimethoxy-
##JCAMP-DX=4.24
##DATA TYPE=INFRARED SPECTRUM
##ORIGIN=Sadtler Research Labs Under US-EPA Contract
##OWNER=NIST Standard Reference Data Program
##CAS REGISTRY NO=150-78-7
##MOLFORM=C 8 H 10 O 2
##XUNITS=1/CM
##YUNITS=ABSORBANCE
##XFACTOR=1.0
##YFACTOR=0.000211780
##DELTAX=4.0
##FIRSTX=450.0
##LASTX=3966.0
##FIRSTY=0.000000
##MAXX=3966
##MINX=450
##MAXY=2.1178
##MINY=0
##NPOINTS=880
##XYDATA=(X++(Y..Y))
450.0 0 62 188 79 17 101 115 117 142 29
490.0 107 94 193 158 177 255 238 211 264 292
530.0 283 278 257 243 191 215 175 163 201 193
570.0 147 119 102 81 72 104 67 51 72 41
610.0 64 40 50 52 39 30 45 21 43 51
650.0 36 35 53 47 35 85 63 62 115 115
690.0 153 215 372 668 1032 1303 1427 1332 1033 639
730.0 353 238 189 148 134 125 104 96 82 106
770.0 83 100 106 149 133 132 186 186 259 367
810.0 464 628 858 1051 1265 1351 1307 1139 959 740
850.0 554 396 297 197 174 138 128 98 94 91
890.0 116 75 76 65 56 64 56 63 64 64
930.0 71 59 74 72 73 71 84 112 100 125
970.0 147 162 189 227 266 284 323 365 410 444
1010.0 504 613 709 868 1097 1387 1809 2318 2787 3104
1050.0 3155 2868 2318 1681 1098 700 487 383 363 345
1090.0 373 410 422 413 394 397 334 286 253 208
1130.0 179 189 182 189 198 239 281 333 434 581
1170.0 834 1142 1371 1433 1440 1282 1109 1108 1262 1502
1210.0 1855 2435 3424 4891 6920 8291 9600 9333 8472 6479
1250.0 4840 3631 2547 1789 1357 1118 996 926 899 876
1290.0 817 756 685 595 493 421 355 290 259 232
1330.0 206 179 138 129 127 125 117 109 94 94
1370.0 109 85 97 116 102 117 117 122 160 186
1410.0 219 249 250 325 386 534 683 940 1117 1157
1450.0 1188 1127 1073 1248 1353 1338 1226 1153 1073 1054
1490.0 1367 2158 3861 6568 8810 10000 7782 6730 3233 1597
1530.0 895 606 435 281 246 225 195 143 155 192
1570.0 184 188 205 207 247 239 248 234 223 203
1610.0 189 194 159 174 156 164 137 124 125 114
1650.0 70 65 93 94 96 84 69 89 60 39
1690.0 60 65 17 23 42 67 53 30 76 93
1730.0 77 41 69 62 52 33 48 48 50 61
1770.0 40 32 53 45 50 43 38 42 38 57
1810.0 56 62 75 76 74 75 86 98 88 82
1850.0 94 106 100 98 92 84 100 100 92 84
1890.0 66 57 54 47 41 40 37 31 28 44
1930.0 47 51 58 58 72 88 100 111 117 121
1970.0 121 116 110 101 92 76 74 75 76 79
2010.0 81 77 78 86 92 96 108 118 127 145
2050.0 161 168 174 170 163 159 151 146 129 119
2090.0 108 93 78 64 51 40 33 28 24 22
2130.0 20 17 15 14 16 13 13 16 14 14
2170.0 12 12 12 12 13 12 12 14 16 13
2210.0 15 13 13 13 15 15 13 16 18 21
2250.0 21 25 27 29 35 37 35 40 41 43
2290.0 46 50 56 59 62 69 70 75 78 77
2330.0 65 62 59 33 56 46 49 33 41 29
2370.0 22 22 28 30 24 23 22 22 20 21
2410.0 20 21 21 19 19 19 19 19 20 24
2450.0 25 28 37 41 46 54 60 63 63 63
2490.0 61 58 54 51 43 41 40 38 38 41
2530.0 42 42 46 46 44 42 41 38 36 33
2570.0 35 31 32 32 31 33 37 37 33 35
2610.0 35 30 28 29 28 29 28 32 30 29
2650.0 32 26 24 21 24 21 21 24 23 22
2690.0 24 22 24 28 27 29 29 28 29 28
2730.0 31 32 31 36 40 44 45 50 55 59
2770.0 64 72 80 87 102 114 127 147 174 197
2810.0 229 269 314 377 476 648 897 1116 1197 1189
2850.0 1050 815 634 528 469 441 422 420 434 458
2890.0 498 556 633 728 848 978 1082 1134 1147 1152
2930.0 1202 1312 1468 1574 1612 1604 1523 1385 1228 1077
2970.0 938 819 746 708 729 835 1032 1323 1550 1546
3010.0 1398 1106 740 491 392 353 353 375 418 466
3050.0 495 503 490 458 416 385 358 331 300 275
3090.0 256 232 227 220 211 200 193 176 153 131
3130.0 116 96 82 74 62 58 51 49 43 43
3170.0 42 38 36 38 30 29 29 31 28 25
3210.0 26 25 19 24 22 19 22 22 17 16
3250.0 21 20 17 15 20 17 17 19 17 13
3290.0 14 19 19 16 16 17 13 16 22 17
3330.0 21 21 17 19 22 20 19 21 21 18
3370.0 16 23 18 20 24 23 16 18 23 17
3410.0 21 25 20 18 19 22 21 18 27 22
3450.0 22 23 24 21 23 28 24 23 27 25
3490.0 23 29 31 23 26 23 24 18 29 29
3530.0 21 22 27 25 21 24 31 24 27 26
3570.0 26 23 25 22 24 28 28 23 24 28
3610.0 28 26 26 30 23 27 25 27 28 30
3650.0 21 29 22 35 26 15 26 21 30 27
3690.0 36 21 26 23 29 24 23 24 26 17
3730.0 26 35 28 35 14 25 11 36 28 33
3770.0 37 29 23 29 37 27 24 30 20 28
3810.0 20 29 16 23 39 22 19 27 24 32
3850.0 21 38 21 35 39 36 32 38 38 40
3890.0 38 33 47 24 38 38 29 25 44 40
3930.0 14 41 33 26 40 40 31 35 50 37
##END=
