##TITLE=Mequinol
##JCAMP-DX=4.24
##DATA TYPE=INFRARED SPECTRUM
##ORIGIN=Sadtler Research Labs Under US-EPA Contract
##OWNER=NIST Standard Reference Data Program
##CAS REGISTRY NO=150-76-5
##MOLFORM=C 7 H 8 O 2
##XUNITS=1/CM
##YUNITS=ABSORBANCE
##XFACTOR=1.0
##YFACTOR=0.000094437
##DELTAX=4.0
##FIRSTX=450.0
##LASTX=3966.0
##FIRSTY=0.005477
##MAXX=3966
##MINX=450
##MAXY=0.94437
##MINY=0
##NPOINTS=880
##XYDATA=(X++(Y..Y))
450.0 58 33 28 81 68 152 152 182 210 246
490.0 330 386 448 507 597 683 730 663 622 590
530.0 522 459 393 377 344 313 326 288 289 276
570.0 269 236 238 214 218 220 195 194 174 187
610.0 179 179 172 176 178 180 188 199 190 169
650.0 177 166 170 166 160 185 185 188 190 181
690.0 183 195 216 227 267 335 477 770 1268 1759
730.0 1843 1893 1783 1293 691 425 323 275 253 252
770.0 249 262 277 309 339 383 419 504 623 785
810.0 993 1206 1482 1775 1960 1917 1614 1397 1173 897
850.0 677 487 355 276 247 232 218 207 198 182
890.0 162 154 149 141 141 141 147 142 140 142
930.0 141 154 157 171 172 182 187 197 205 212
970.0 228 239 250 261 284 297 322 352 391 441
1010.0 506 607 755 952 1200 1488 1774 2012 2147 2140
1050.0 1925 1653 1354 997 709 581 547 555 611 689
1090.0 762 769 746 743 685 589 504 450 424 413
1130.0 420 452 499 579 738 1027 1525 2285 3287 4291
1170.0 5057 5553 5592 5007 4165 3347 2570 1973 1655 1581
1210.0 1652 1897 2386 3223 4468 5931 7254 7973 8076 7248
1250.0 5853 4173 2810 1971 1414 1035 846 817 854 906
1290.0 930 938 927 866 815 765 776 803 904 977
1330.0 985 905 706 549 383 242 176 149 114 131
1370.0 144 110 123 140 136 140 148 141 214 255
1410.0 290 411 405 647 820 1041 1094 1208 1181 1028
1450.0 871 774 713 879 996 925 829 818 857 761
1490.0 1024 1875 3525 6442 9025 10000 9626 8756 5946 2687
1530.0 1246 745 461 247 146 195 172 122 177 193
1570.0 193 180 224 178 253 232 295 303 345 341
1610.0 321 328 233 251 165 207 132 126 114 120
1650.0 33 86 105 100 111 95 49 113 24 36
1690.0 53 80 5 29 25 75 39 0 75 105
1730.0 77 4 83 51 30 4 50 42 55 69
1770.0 32 36 58 55 46 56 37 53 26 81
1810.0 74 74 99 94 103 92 131 140 135 111
1850.0 137 152 137 125 103 77 107 117 110 114
1890.0 104 100 100 94 84 70 67 60 42 62
1930.0 67 64 67 51 62 80 83 91 104 108
1970.0 125 145 157 166 173 146 144 141 134 119
2010.0 115 106 100 110 111 110 108 102 99 108
2050.0 118 125 135 141 140 149 155 151 149 141
2090.0 128 121 106 90 79 66 56 53 47 46
2130.0 45 48 44 42 43 42 40 39 42 39
2170.0 39 40 40 39 40 44 40 44 41 43
2210.0 40 42 41 41 42 45 50 47 50 51
2250.0 52 52 56 54 53 59 52 52 49 46
2290.0 40 38 33 34 31 26 38 40 56 73
2330.0 85 96 100 107 98 84 84 74 66 66
2370.0 58 47 47 39 42 49 58 57 64 68
2410.0 76 81 84 86 84 83 77 75 63 61
2450.0 57 57 58 62 66 74 81 89 98 103
2490.0 108 111 108 101 89 81 74 72 71 71
2530.0 67 66 66 63 59 53 55 49 52 50
2570.0 49 50 55 54 55 58 59 61 64 66
2610.0 61 58 53 49 48 47 48 42 45 45
2650.0 46 45 43 43 46 46 49 48 45 49
2690.0 46 47 48 45 42 45 47 43 45 45
2730.0 46 42 48 48 49 51 53 63 66 69
2770.0 73 75 79 83 89 93 103 110 121 134
2810.0 154 177 203 245 319 442 601 713 739 758
2850.0 695 557 427 349 296 268 264 261 268 286
2890.0 318 354 415 475 557 638 701 756 723 704
2930.0 729 791 880 949 993 1018 1018 945 792 676
2970.0 570 477 443 423 447 516 655 864 1033 1097
3010.0 1091 1065 912 753 667 643 631 616 596 567
3050.0 541 496 448 406 391 379 369 361 338 321
3090.0 287 266 236 215 208 198 198 182 184 171
3130.0 157 144 128 119 106 99 91 86 84 80
3170.0 79 74 74 71 71 66 69 66 66 67
3210.0 65 70 67 62 61 59 59 63 62 62
3250.0 63 62 62 59 60 57 55 53 54 55
3290.0 57 56 53 56 52 51 53 58 59 50
3330.0 49 53 55 54 55 57 56 56 60 57
3370.0 61 59 65 63 69 73 71 68 73 74
3410.0 70 69 74 70 79 72 64 64 68 61
3450.0 56 62 59 54 52 52 58 58 51 46
3490.0 45 47 46 42 44 50 46 46 49 36
3530.0 45 40 34 35 32 36 41 28 40 35
3570.0 28 36 31 37 39 37 52 40 48 51
3610.0 61 56 80 87 121 183 263 400 650 1037
3650.0 1562 1961 1909 1757 1587 1070 497 255 133 97
3690.0 77 61 33 45 41 39 36 26 24 34
3730.0 37 46 25 38 50 54 50 21 31 28
3770.0 42 36 22 37 29 32 32 38 49 40
3810.0 31 40 49 60 35 39 53 58 51 51
3850.0 46 81 70 37 61 71 61 55 63 62
3890.0 57 62 53 58 56 42 51 50 42 56
3930.0 56 46 43 48 40 38 46 41 37 32
##END=
