##TITLE=Phenol, 3-methoxy-
##JCAMP-DX=4.24
##DATA TYPE=INFRARED SPECTRUM
##ORIGIN=Sadtler Research Labs Under US-EPA Contract
##OWNER=NIST Standard Reference Data Program
##CAS REGISTRY NO=150-19-6
##MOLFORM=C 7 H 8 O 2
##XUNITS=1/CM
##YUNITS=ABSORBANCE
##XFACTOR=1.0
##YFACTOR=0.000133939
##DELTAX=4.0
##FIRSTX=450.0
##LASTX=3966.0
##FIRSTY=0.052504
##MAXX=3966
##MINX=450
##MAXY=1.33939
##MINY=0
##NPOINTS=880
##XYDATA=(X++(Y..Y))
450.0 392 224 215 305 378 241 257 184 139 39
490.0 91 8 9 6 38 72 132 214 221 235
530.0 217 216 171 180 204 222 236 222 263 198
570.0 190 216 159 221 195 167 132 62 92 86
610.0 76 74 72 57 56 41 57 35 38 43
650.0 52 91 109 305 406 667 781 1093 1509 1259
690.0 942 854 687 592 445 352 288 269 280 310
730.0 342 373 531 658 828 1072 1289 1553 1576 1435
770.0 1321 1068 831 630 472 337 267 258 269 297
810.0 368 495 598 662 757 879 1065 1113 978 889
850.0 822 775 733 610 481 410 327 274 235 221
890.0 236 254 287 320 368 432 571 756 913 1078
930.0 1261 1423 1495 1460 1367 1234 995 647 389 281
970.0 251 242 252 274 329 384 402 401 416 401
1010.0 366 381 443 580 805 1132 1534 1933 2255 2396
1050.0 2348 2167 1866 1567 1403 1363 1384 1462 1504 1533
1090.0 1558 1667 1882 2133 2359 2506 2578 2482 2414 2581
1130.0 3270 4660 6595 8519 9513 10000 9203 7892 6095 5013
1170.0 4573 4459 4366 4181 4168 4321 4633 4710 4688 4636
1210.0 4320 3669 3022 2465 1969 1537 1187 957 868 907
1250.0 1045 1291 1633 2033 2456 2920 3464 3964 4490 4818
1290.0 5051 5231 5108 4665 4154 3878 3344 2791 2336 1953
1330.0 1615 1305 911 568 370 275 214 185 172 158
1370.0 162 156 188 183 215 227 253 261 290 327
1410.0 349 416 451 595 734 1076 1444 1800 2023 2146
1450.0 2333 2336 2552 3075 3540 3646 3744 3928 4026 4663
1490.0 5014 5558 5391 5290 4358 3179 2493 1742 1311 1042
1530.0 890 786 696 710 724 785 825 853 958 1062
1570.0 1298 1595 2143 3038 3913 5473 6355 8202 7936 8581
1610.0 8089 7055 6370 5214 4705 3297 2582 1589 1037 709
1650.0 562 489 405 390 348 335 306 303 287 263
1690.0 252 232 215 196 187 179 168 157 157 155
1730.0 135 116 100 88 78 65 66 52 51 46
1770.0 39 32 39 39 45 48 53 54 49 53
1810.0 46 41 37 31 25 21 19 17 14 13
1850.0 16 24 32 48 64 86 109 123 135 134
1890.0 128 124 125 115 106 100 84 66 53 46
1930.0 41 36 36 30 29 30 29 25 25 25
1970.0 25 26 24 24 22 20 21 20 22 26
2010.0 32 35 34 37 41 40 40 42 40 41
2050.0 42 41 40 45 48 52 59 63 69 67
2090.0 67 64 57 50 39 32 28 26 23 20
2130.0 18 15 12 14 15 14 17 17 18 18
2170.0 20 19 23 27 32 39 46 54 61 70
2210.0 73 80 77 75 69 60 51 42 34 26
2250.0 19 14 11 9 8 5 4 3 1 0
2290.0 1 0 1 4 6 7 14 19 29 35
2330.0 43 51 54 56 57 54 37 40 45 51
2370.0 59 55 55 50 48 46 48 47 47 49
2410.0 54 58 66 75 84 93 95 92 88 83
2450.0 76 72 65 60 57 59 57 57 62 60
2490.0 62 56 58 59 59 61 59 56 51 48
2530.0 40 37 30 28 23 18 19 17 17 18
2570.0 26 28 34 41 46 51 57 62 65 71
2610.0 72 69 68 66 60 54 52 45 44 36
2650.0 31 27 23 22 18 15 15 16 12 11
2690.0 9 12 12 11 12 14 17 17 21 26
2730.0 32 33 41 47 55 60 66 67 69 72
2770.0 74 80 84 93 95 102 105 110 122 134
2810.0 151 171 202 247 322 452 667 946 1149 1241
2850.0 1259 1164 932 708 581 532 525 535 554 582
2890.0 626 679 758 849 956 1062 1174 1276 1304 1295
2930.0 1322 1415 1591 1818 1997 2097 2119 2092 1999 1613
2970.0 1263 1076 896 779 721 754 872 1108 1414 1566
3010.0 1546 1471 1294 1025 835 778 786 805 822 838
3050.0 838 836 815 792 743 689 656 638 612 576
3090.0 537 489 442 388 341 297 255 218 178 143
3130.0 119 92 74 59 48 44 39 32 32 27
3170.0 21 25 23 20 16 14 16 16 18 18
3210.0 19 19 17 16 16 14 15 5 7 6
3250.0 4 5 7 5 2 6 5 3 0 2
3290.0 7 6 4 7 12 10 7 8 14 16
3330.0 27 31 32 40 40 40 41 38 36 36
3370.0 43 38 36 38 39 34 32 35 30 29
3410.0 26 31 22 26 31 31 32 34 27 20
3450.0 24 19 19 16 21 14 15 19 11 16
3490.0 19 20 12 17 12 19 18 18 18 8
3530.0 18 20 19 11 11 10 20 11 18 12
3570.0 18 31 28 38 17 37 38 33 42 39
3610.0 44 48 81 99 175 261 494 858 1603 2551
3650.0 3276 3306 3180 2792 1875 815 320 158 73 50
3690.0 21 39 15 24 18 17 2 9 1 1
3730.0 8 6 9 4 13 3 26 14 21 23
3770.0 14 25 15 24 12 15 14 12 7 30
3810.0 20 19 16 18 23 22 19 23 24 33
3850.0 18 24 40 33 20 32 33 39 24 36
3890.0 27 33 34 23 27 37 43 31 30 39
3930.0 32 23 24 22 30 30 30 37 36 37
##END=
