##TITLE=Cyclododecene
##JCAMP-DX=4.24
##DATA TYPE=INFRARED SPECTRUM
##ORIGIN=Sadtler Research Labs Under US-EPA Contract
##OWNER=NIST Standard Reference Data Program
##CAS REGISTRY NO=1501-82-2
##MOLFORM=C 12 H 22
##XUNITS=1/CM
##YUNITS=ABSORBANCE
##XFACTOR=1.0
##YFACTOR=0.000133575
##DELTAX=4.0
##FIRSTX=450.0
##LASTX=3966.0
##FIRSTY=0.000000
##MAXX=3966
##MINX=450
##MAXY=1.33575
##MINY=0
##NPOINTS=880
##XYDATA=(X++(Y..Y))
450.0 0 302 348 322 317 367 359 349 304 357
490.0 345 359 337 365 362 337 370 345 354 355
530.0 363 355 354 348 332 339 316 331 330 339
570.0 325 334 331 356 332 338 323 331 327 325
610.0 325 312 336 321 323 325 335 335 329 327
650.0 327 338 329 338 333 364 362 394 434 476
690.0 544 568 605 594 616 597 609 593 579 553
730.0 517 488 450 443 437 432 409 419 418 411
770.0 428 392 400 382 398 405 386 326 373 386
810.0 386 387 392 388 386 386 381 381 386 400
850.0 405 404 409 396 394 387 383 373 375 374
890.0 372 377 386 393 390 393 387 392 391 389
930.0 386 392 394 393 408 416 445 498 608 791
970.0 1005 1132 1123 990 761 595 514 484 476 480
1010.0 489 487 482 471 461 445 444 438 434 431
1050.0 430 428 423 419 408 404 401 403 402 400
1090.0 399 401 403 400 397 391 391 391 388 386
1130.0 385 377 373 371 370 376 377 381 387 393
1170.0 397 402 398 388 383 379 383 384 393 391
1210.0 394 392 390 395 400 412 418 430 433 436
1250.0 428 423 420 418 419 425 431 430 440 441
1290.0 446 452 461 465 468 468 462 455 443 438
1330.0 437 454 487 547 590 608 598 545 497 451
1370.0 430 406 394 383 373 371 361 376 369 381
1410.0 377 387 376 397 404 439 518 658 866 1091
1450.0 1258 1308 1262 1177 1115 1048 870 672 548 440
1490.0 401 367 364 349 353 348 335 346 330 339
1530.0 326 336 329 335 323 326 325 330 330 320
1570.0 324 319 320 317 321 321 321 327 324 328
1610.0 328 336 334 348 353 367 370 374 364 361
1650.0 356 361 347 346 353 352 361 364 374 385
1690.0 383 393 406 425 438 453 468 449 409 385
1730.0 379 380 382 386 383 373 356 349 344 342
1770.0 341 342 338 338 333 334 331 327 326 321
1810.0 320 318 315 318 317 319 315 313 313 314
1850.0 313 311 312 310 315 314 312 312 312 312
1890.0 312 309 309 308 308 309 310 306 307 304
1930.0 306 306 307 308 308 308 307 306 308 305
1970.0 306 306 306 308 308 310 309 307 309 308
2010.0 309 308 310 309 308 308 308 309 306 309
2050.0 310 311 309 310 308 309 309 310 310 309
2090.0 308 309 307 309 310 309 308 306 307 307
2130.0 309 308 309 309 311 310 311 310 311 309
2170.0 311 311 309 310 312 310 307 310 310 311
2210.0 311 309 310 311 310 310 312 311 312 312
2250.0 312 311 311 311 309 310 312 312 310 311
2290.0 311 314 313 313 315 316 316 319 317 318
2330.0 317 307 309 312 307 309 319 313 304 304
2370.0 304 304 304 304 306 307 307 308 308 310
2410.0 308 309 306 307 308 307 307 306 304 306
2450.0 305 305 304 305 307 306 309 307 308 309
2490.0 310 313 311 310 314 313 314 315 317 319
2530.0 318 321 323 324 325 326 325 327 327 325
2570.0 321 324 324 326 325 328 327 329 330 333
2610.0 333 336 338 341 344 346 347 354 358 361
2650.0 368 372 376 385 393 407 415 421 423 420
2690.0 412 406 395 390 385 380 375 373 372 369
2730.0 370 368 368 371 371 371 374 375 377 379
2770.0 380 384 387 393 405 416 432 443 452 460
2810.0 469 480 487 500 514 533 564 635 774 1065
2850.0 1609 2421 3260 3866 4136 3987 3592 3038 2493 2046
2890.0 1807 1795 2072 2658 3433 4398 5038 5591 6525 7884
2930.0 9176 10000 9643 8470 6993 5530 4299 3344 2640 2164
2970.0 1877 1678 1520 1368 1224 1086 987 945 957 1006
3010.0 973 897 796 698 634 583 528 480 443 414
3050.0 397 385 379 377 376 372 368 360 356 350
3090.0 345 343 341 342 338 338 335 337 338 336
3130.0 333 334 333 333 337 337 337 336 335 335
3170.0 329 332 331 329 325 328 322 327 327 327
3210.0 329 326 326 326 326 324 322 323 323 322
3250.0 315 316 320 316 315 320 317 318 316 316
3290.0 318 314 318 312 315 311 316 316 315 312
3330.0 316 319 316 317 316 315 317 319 315 318
3370.0 317 315 318 319 320 318 321 319 320 315
3410.0 321 318 321 314 312 312 313 316 313 313
3450.0 309 308 312 315 315 312 309 308 311 306
3490.0 309 305 309 308 309 311 306 311 309 306
3530.0 311 304 308 307 315 312 312 305 315 314
3570.0 316 315 320 316 320 319 314 320 319 320
3610.0 322 319 325 320 322 323 330 339 344 348
3650.0 353 348 333 327 330 323 318 318 315 320
3690.0 323 327 323 328 323 330 321 318 321 317
3730.0 326 327 318 326 325 318 322 321 322 323
3770.0 328 321 321 324 326 326 329 324 320 331
3810.0 326 321 331 323 327 324 330 332 330 323
3850.0 327 330 321 323 330 327 327 325 320 329
3890.0 320 333 318 331 333 337 334 335 333 334
3930.0 335 324 325 334 333 342 343 326 333 325
##END=
