##TITLE=Pentanedioic acid, monomethyl ester
##JCAMP-DX=4.24
##DATA TYPE=INFRARED SPECTRUM
##ORIGIN=Sadtler Research Labs Under US-EPA Contract
##OWNER=NIST Standard Reference Data Program
##CAS REGISTRY NO=1501-27-5
##MOLFORM=C 6 H 10 O 4
##XUNITS=1/CM
##YUNITS=ABSORBANCE
##XFACTOR=1.0
##YFACTOR=0.000061923
##DELTAX=4.0
##FIRSTX=450.0
##LASTX=3966.0
##FIRSTY=0.004768
##MAXX=3966
##MINX=450
##MAXY=0.61923
##MINY=0
##NPOINTS=880
##XYDATA=(X++(Y..Y))
450.0 77 9 209 105 190 132 149 180 183 418
490.0 331 380 518 551 407 421 548 494 442 561
530.0 494 691 638 650 803 863 919 886 1089 1121
570.0 1072 913 880 930 1017 1030 1045 1009 1032 1088
610.0 984 979 926 1017 1034 1118 1053 920 817 781
650.0 608 578 430 482 519 344 418 257 187 192
690.0 165 244 263 207 283 188 207 247 216 294
730.0 244 240 193 258 282 262 297 245 297 330
770.0 322 361 360 376 334 289 278 240 241 226
810.0 188 158 181 171 228 252 197 226 232 196
850.0 208 246 227 236 237 128 98 144 213 157
890.0 140 150 175 115 136 173 181 178 295 216
930.0 222 222 181 172 173 148 158 139 201 271
970.0 315 310 366 424 516 593 710 815 965 1097
1010.0 1185 1342 1504 1595 1857 1838 1954 1950 1896 1686
1050.0 1528 1499 1478 1475 1582 1624 1723 1686 1697 1705
1090.0 1769 1809 1951 2242 2735 3349 4107 4992 5549 5729
1130.0 5581 5231 4790 4540 4371 4268 4323 4424 4522 4635
1170.0 4676 4703 4486 4225 3963 3736 3615 3559 3534 3510
1210.0 3419 3336 3241 3085 3044 2934 2934 2851 2761 2703
1250.0 2552 2386 2166 1971 1796 1577 1464 1337 1220 1114
1290.0 1060 1068 1036 1037 1073 1127 1173 1238 1201 1208
1330.0 1226 1270 1340 1355 1395 1477 1527 1573 1608 1650
1370.0 1637 1642 1575 1544 1473 1400 1349 1193 1011 896
1410.0 795 771 803 838 929 1080 1304 1472 1525 1407
1450.0 1161 971 909 771 726 534 471 372 295 272
1490.0 209 184 147 111 165 164 160 126 136 105
1530.0 111 142 105 92 130 112 132 124 110 131
1570.0 98 104 111 89 138 112 113 143 125 162
1610.0 193 168 146 161 167 111 139 128 107 151
1650.0 86 123 167 137 183 200 233 244 351 368
1690.0 390 474 567 696 828 959 1130 1312 1452 1741
1730.0 2110 2587 3211 3831 4740 5665 6633 7769 8380 9161
1770.0 9544 9742 10000 9464 8531 7566 6074 4972 3993 2978
1810.0 2297 1729 1335 1154 957 813 680 597 494 372
1850.0 317 241 180 195 132 152 117 104 121 85
1890.0 95 97 84 93 81 73 47 68 79 63
1930.0 58 74 56 78 61 60 80 41 53 72
1970.0 69 71 49 63 52 76 69 56 64 50
2010.0 57 61 60 59 49 58 52 51 61 50
2050.0 65 50 50 49 41 49 42 41 48 33
2090.0 33 35 22 26 26 15 17 20 17 1
2130.0 11 8 16 25 7 13 17 19 21 14
2170.0 20 25 10 22 19 14 20 10 27 14
2210.0 16 30 25 21 17 22 27 19 22 20
2250.0 19 27 31 31 23 17 20 21 31 22
2290.0 21 37 25 42 38 32 39 25 36 23
2330.0 19 16 37 40 22 28 27 30 63 41
2370.0 43 39 35 44 38 31 26 25 24 27
2410.0 29 31 30 33 30 35 39 28 38 36
2450.0 36 31 33 42 36 29 34 34 32 31
2490.0 34 28 31 37 30 29 36 28 26 33
2530.0 25 36 26 31 31 30 29 26 30 32
2570.0 35 34 25 25 32 30 40 34 37 39
2610.0 46 32 29 44 39 32 32 29 34 34
2650.0 36 38 34 30 37 31 35 32 32 21
2690.0 25 31 32 38 33 25 29 29 31 40
2730.0 28 32 35 34 33 37 45 38 36 42
2770.0 48 53 52 44 50 49 63 64 65 62
2810.0 62 75 74 96 108 113 137 157 189 253
2850.0 275 297 301 270 255 253 263 284 292 312
2890.0 333 357 385 404 436 466 506 543 611 684
2930.0 762 857 936 1021 1126 1245 1462 1755 1858 1828
2970.0 1635 1341 1122 1007 908 827 779 698 633 579
3010.0 525 487 438 405 393 381 359 326 282 258
3050.0 224 227 198 190 180 168 172 150 152 171
3090.0 167 151 145 126 137 123 134 116 116 110
3130.0 115 115 112 94 106 93 91 68 79 93
3170.0 102 62 70 75 71 62 67 61 55 61
3210.0 63 64 76 45 59 59 58 61 53 58
3250.0 62 67 72 54 50 59 65 56 60 64
3290.0 54 70 65 59 62 65 60 51 57 59
3330.0 65 54 56 41 61 65 58 69 62 49
3370.0 31 68 60 50 58 37 61 53 51 58
3410.0 51 68 76 57 61 15 48 65 56 49
3450.0 59 47 42 85 54 67 58 79 67 73
3490.0 95 91 99 122 102 113 102 106 111 152
3530.0 129 139 158 177 221 243 281 421 610 1080
3570.0 2011 2660 2867 2623 1988 1015 516 367 200 176
3610.0 152 128 117 87 73 87 77 61 32 47
3650.0 75 43 54 23 23 21 44 55 38 22
3690.0 55 26 52 42 21 41 63 58 33 68
3730.0 65 71 87 27 94 45 32 44 2 38
3770.0 42 30 51 25 27 50 19 0 32 16
3810.0 56 10 60 9 26 41 29 1 3 25
3850.0 22 9 37 49 57 5 56 22 37 55
3890.0 26 8 31 107 39 54 24 28 0 22
3930.0 43 88 39 5 40 11 0 53 42 27
##END=
