##TITLE=2,3-Dimethylcyclohexanol
##JCAMP-DX=4.24
##DATA TYPE=INFRARED SPECTRUM
##ORIGIN=Sadtler Research Labs Under US-EPA Contract
##OWNER=NIST Standard Reference Data Program
##CAS REGISTRY NO=1502-24-5
##MOLFORM=C 8 H 16 O
##XUNITS=1/CM
##YUNITS=ABSORBANCE
##XFACTOR=1.0
##YFACTOR=0.000128711
##DELTAX=4.0
##FIRSTX=450.0
##LASTX=3966.0
##FIRSTY=0.051484
##MAXX=3966
##MINX=450
##MAXY=1.28711
##MINY=0
##NPOINTS=880
##XYDATA=(X++(Y..Y))
450.0 400 137 132 101 153 71 183 51 222 157
490.0 122 166 197 132 95 130 46 108 21 133
530.0 0 33 134 146 167 150 167 100 179 140
570.0 105 105 143 91 59 172 97 136 72 131
610.0 87 102 93 112 97 47 101 57 71 83
650.0 100 73 92 100 100 121 107 133 65 93
690.0 86 86 67 80 94 64 96 79 104 62
730.0 108 97 102 107 102 117 81 111 74 90
770.0 65 88 60 70 87 78 105 90 117 81
810.0 108 108 128 141 164 224 229 278 275 289
850.0 237 225 172 161 176 193 229 216 262 240
890.0 238 215 209 194 169 182 163 190 206 293
930.0 351 500 680 756 801 808 742 614 553 502
970.0 511 520 583 632 711 883 1004 1194 1399 1651
1010.0 1860 2105 2250 2329 2270 2100 1963 1805 1778 1780
1050.0 1765 1641 1427 1193 923 720 614 597 611 711
1090.0 805 904 956 957 885 784 704 616 586 583
1130.0 614 635 656 634 611 576 543 540 509 515
1170.0 494 494 475 464 458 457 485 508 562 588
1210.0 633 652 675 692 723 759 767 799 790 783
1250.0 737 717 672 632 605 563 532 492 487 457
1290.0 457 437 441 425 419 420 405 409 412 437
1330.0 437 468 474 495 520 553 606 652 743 820
1370.0 919 1009 1136 1215 1238 1191 1043 865 668 525
1410.0 392 319 271 261 263 326 447 583 819 988
1450.0 1234 1378 1506 1508 1418 1285 1037 805 567 378
1490.0 250 175 136 107 103 84 72 64 68 52
1530.0 53 42 53 47 42 33 42 49 50 37
1570.0 43 38 55 38 46 37 40 34 43 38
1610.0 35 40 47 42 44 46 45 53 42 58
1650.0 47 69 60 42 52 47 38 43 37 48
1690.0 37 43 45 53 37 38 44 53 48 53
1730.0 54 55 68 56 53 51 64 48 58 51
1770.0 48 39 28 29 18 28 20 22 16 26
1810.0 13 16 20 17 22 15 24 10 20 13
1850.0 21 18 19 14 13 16 15 19 8 16
1890.0 11 12 9 11 11 7 14 12 8 9
1930.0 14 8 10 12 13 12 16 13 13 14
1970.0 13 15 14 15 15 13 21 18 26 25
2010.0 29 31 29 35 31 38 32 38 31 37
2050.0 30 35 30 24 21 15 10 5 7 3
2090.0 7 11 9 12 14 18 15 20 15 18
2130.0 17 18 19 17 18 18 15 16 21 13
2170.0 16 13 16 14 15 18 16 18 17 21
2210.0 15 17 15 14 17 14 19 15 15 16
2250.0 18 15 18 19 16 24 20 27 24 27
2290.0 27 28 33 32 32 28 39 33 38 49
2330.0 52 46 46 84 47 68 40 57 73 85
2370.0 76 84 74 60 55 46 50 43 42 43
2410.0 38 38 39 38 35 36 34 39 35 39
2450.0 39 38 38 37 46 42 46 48 45 42
2490.0 48 46 40 44 47 49 45 52 48 52
2530.0 56 59 59 63 69 70 72 73 75 76
2570.0 80 86 88 96 101 107 113 122 129 134
2610.0 140 145 141 139 143 143 150 151 159 161
2650.0 166 167 167 170 168 176 170 176 168 170
2690.0 166 165 170 168 173 171 174 180 184 194
2730.0 200 208 211 217 210 210 203 204 202 209
2770.0 214 221 230 232 248 254 262 270 279 275
2810.0 288 306 329 361 394 455 528 656 844 1155
2850.0 1590 2162 2840 3574 4276 4765 5329 5504 5484 5274
2890.0 4971 4651 4143 3817 3724 3838 4260 5057 6045 7165
2930.0 8467 9402 9945 10000 8879 7704 6835 5931 5415 5367
2970.0 5047 4560 4025 3384 2749 2127 1549 1035 661 435
3010.0 307 239 200 175 170 155 151 136 137 138
3050.0 139 142 142 140 137 148 142 137 139 145
3090.0 146 138 140 138 127 134 134 121 132 121
3130.0 118 126 117 115 108 108 111 116 114 105
3170.0 101 93 99 89 87 83 79 70 67 53
3210.0 55 63 48 49 42 53 44 44 33 35
3250.0 43 40 36 27 49 25 36 26 35 26
3290.0 37 33 35 40 38 44 35 50 48 48
3330.0 57 47 64 52 60 50 52 49 47 44
3370.0 55 53 46 48 44 47 45 58 62 52
3410.0 56 50 51 61 61 53 55 50 56 52
3450.0 53 55 54 63 54 48 51 32 48 49
3490.0 39 51 51 45 53 44 47 39 39 37
3530.0 35 33 40 35 31 39 43 33 20 27
3570.0 13 24 30 20 49 30 52 37 29 12
3610.0 50 61 60 88 102 144 183 230 341 470
3650.0 608 673 706 642 500 356 230 162 70 76
3690.0 45 68 45 26 31 26 44 37 35 35
3730.0 52 37 27 54 22 34 67 32 26 37
3770.0 37 57 33 25 36 26 50 14 43 28
3810.0 55 38 65 66 49 56 67 39 58 65
3850.0 38 81 56 71 60 45 36 57 61 58
3890.0 62 53 46 32 54 48 26 17 30 39
3930.0 34 53 27 27 58 67 38 48 32 6
##END=
