##TITLE=1-Adamantanecarboxamide, N,N-dimethyl-,
##JCAMP-DX=4.24
##DATA TYPE=INFRARED SPECTRUM
##ORIGIN=Sadtler Research Labs Under US-EPA Contract
##OWNER=NIST Standard Reference Data Program
##CAS REGISTRY NO=1502-00-7
##MOLFORM=C 13 H 21 N O
##XUNITS=1/CM
##YUNITS=ABSORBANCE
##XFACTOR=1.0
##YFACTOR=0.000138385
##DELTAX=4.0
##FIRSTX=450.0
##LASTX=3966.0
##FIRSTY=0.010794
##MAXX=3966
##MINX=450
##MAXY=1.38385
##MINY=0
##NPOINTS=880
##XYDATA=(X++(Y..Y))
450.0 78 78 80 67 139 152 180 150 120 88
490.0 67 59 54 65 71 122 148 148 111 79
530.0 56 32 44 13 36 8 18 7 22 21
570.0 36 23 15 29 11 28 4 20 18 18
610.0 19 15 16 4 21 24 67 111 244 336
650.0 361 280 129 59 19 46 34 13 24 29
690.0 24 35 26 21 16 26 34 42 62 72
730.0 78 60 48 34 30 20 23 38 50 66
770.0 68 59 45 42 39 38 50 70 102 117
810.0 136 133 109 72 60 40 30 31 25 18
850.0 18 17 11 21 24 24 23 23 26 26
890.0 24 18 19 19 21 20 27 35 35 46
930.0 62 94 126 148 146 118 87 77 86 118
970.0 159 186 192 166 145 128 116 109 112 128
1010.0 156 200 242 300 364 448 554 704 939 1299
1050.0 1643 1791 1673 1322 933 626 433 318 262 240
1090.0 258 311 376 415 372 297 234 213 221 241
1130.0 263 299 360 470 639 857 1077 1191 1165 990
1170.0 766 575 455 416 414 416 393 343 290 270
1210.0 256 259 258 269 288 316 370 458 602 770
1250.0 895 893 815 710 640 584 480 372 300 272
1290.0 265 279 302 358 455 588 686 653 531 462
1330.0 500 612 800 1055 1347 1640 1968 2302 2539 2585
1370.0 2283 1832 1345 973 704 560 468 419 398 391
1410.0 372 352 326 312 323 359 420 514 665 848
1450.0 1130 1409 1583 1537 1276 987 771 693 670 642
1490.0 606 564 511 442 399 353 317 294 271 252
1530.0 236 227 223 207 213 203 198 166 176 158
1570.0 162 147 176 144 177 164 186 185 227 254
1610.0 278 344 378 460 514 714 920 1345 1923 2789
1650.0 3636 4244 4399 3740 2806 1950 1300 919 648 508
1690.0 433 384 330 297 275 233 203 175 173 169
1730.0 166 139 111 100 89 86 91 88 90 86
1770.0 79 59 59 42 46 26 38 20 21 22
1810.0 18 16 16 16 6 15 3 16 0 14
1850.0 5 11 10 11 8 4 12 5 12 4
1890.0 8 3 6 4 3 7 5 9 6 10
1930.0 9 8 7 3 5 1 4 3 7 1
1970.0 5 3 6 7 8 9 9 13 10 13
2010.0 9 10 3 5 5 7 7 8 10 9
2050.0 14 10 12 8 9 11 10 13 11 13
2090.0 8 11 8 8 6 9 9 9 9 10
2130.0 13 9 12 11 11 11 11 11 11 11
2170.0 12 13 13 16 12 12 12 12 9 8
2210.0 8 8 7 5 7 5 6 4 3 3
2250.0 4 4 2 7 6 10 12 16 18 26
2290.0 30 40 44 49 49 54 43 34 47 23
2330.0 25 27 21 3 76 15 57 24 23 8
2370.0 27 18 37 36 29 13 12 10 8 10
2410.0 11 13 14 16 18 20 17 17 12 11
2450.0 8 7 10 11 13 10 13 9 8 7
2490.0 9 12 13 17 13 16 14 18 16 20
2530.0 16 20 18 19 20 21 25 25 29 30
2570.0 35 34 35 30 30 27 27 30 33 39
2610.0 45 52 55 58 59 60 62 66 75 80
2650.0 92 104 120 131 136 131 127 127 120 111
2690.0 86 66 48 42 42 42 42 42 45 44
2730.0 51 51 56 58 65 71 77 79 79 83
2770.0 85 95 101 116 133 158 191 231 266 290
2810.0 307 315 332 346 364 384 404 450 558 797
2850.0 1265 1984 2667 2939 2673 2097 1591 1306 1194 1220
2890.0 1408 1886 2876 4422 6388 7997 9440 10000 9077 7288
2930.0 5079 3766 3433 3326 3328 3343 3168 2739 2166 1611
2970.0 1173 881 700 585 507 452 415 379 349 322
3010.0 299 271 255 243 234 225 220 215 207 203
3050.0 198 194 186 172 154 136 119 106 93 84
3090.0 77 71 62 59 54 48 47 43 38 36
3130.0 31 32 31 31 28 25 25 23 20 20
3170.0 22 19 19 20 22 19 15 15 16 16
3210.0 12 15 13 14 16 17 17 16 20 23
3250.0 30 32 34 30 28 26 24 33 33 42
3290.0 39 42 34 35 30 21 18 13 13 12
3330.0 12 14 18 19 17 16 17 22 17 22
3370.0 18 21 17 23 27 28 36 30 24 12
3410.0 17 13 12 12 11 9 12 12 14 13
3450.0 13 10 8 14 13 13 19 16 22 16
3490.0 17 13 14 24 23 11 15 8 19 26
3530.0 18 15 14 19 29 26 30 25 31 57
3570.0 53 42 29 32 38 39 38 21 24 12
3610.0 37 30 31 31 8 52 12 14 19 17
3650.0 54 26 26 17 9 39 23 55 6 36
3690.0 24 30 14 28 14 27 35 34 27 40
3730.0 31 60 47 49 69 29 56 16 28 24
3770.0 26 20 10 27 15 25 21 38 23 44
3810.0 3 36 21 42 30 17 33 46 40 24
3850.0 37 43 46 26 29 43 36 26 46 46
3890.0 15 43 19 63 42 31 9 26 27 11
3930.0 31 16 22 15 34 25 32 22 30 25
##END=
