##TITLE=2-Buten-1-ol, 3-phenyl-,
##JCAMP-DX=4.24
##DATA TYPE=INFRARED SPECTRUM
##ORIGIN=Sadtler Research Labs Under US-EPA Contract
##OWNER=NIST Standard Reference Data Program
##CAS REGISTRY NO=1504-54-7
##MOLFORM=C 10 H 12 O
##XUNITS=1/CM
##YUNITS=ABSORBANCE
##XFACTOR=1.0
##YFACTOR=0.000051041
##DELTAX=4.0
##FIRSTX=450.0
##LASTX=3966.0
##FIRSTY=0.000000
##MAXX=3966
##MINX=450
##MAXY=0.51041
##MINY=0
##NPOINTS=880
##XYDATA=(X++(Y..Y))
450.0 0 214 293 300 417 391 325 581 405 596
490.0 740 1003 1219 1446 1446 1413 1164 1027 812 607
530.0 490 442 429 301 359 362 478 585 804 936
570.0 957 853 506 439 282 323 236 271 222 266
610.0 269 242 305 289 277 289 339 317 376 371
650.0 387 367 403 498 507 734 891 1212 1640 2477
690.0 3451 4512 5338 4879 3941 2903 2169 1619 1569 1815
730.0 2374 2965 3551 3643 3247 2553 1795 1255 822 553
770.0 394 400 327 282 327 363 409 503 619 763
810.0 897 970 1045 1026 1182 1321 1464 1675 1764 1824
850.0 1786 1726 1535 1357 1123 935 820 722 666 632
890.0 622 622 700 787 960 1161 1349 1362 1249 1110
930.0 1033 1023 1053 1144 1212 1294 1313 1337 1342 1364
970.0 1392 1430 1516 1568 1702 1953 2433 3100 4056 5438
1010.0 7512 9377 10000 9369 7685 5769 4432 3501 2778 2438
1050.0 2351 2478 2740 3152 3638 3890 3803 3352 2708 2012
1090.0 1497 1163 975 842 783 744 680 664 651 653
1130.0 653 673 718 780 858 971 1091 1218 1377 1534
1170.0 1707 1853 1967 1952 1859 1669 1490 1310 1199 1143
1210.0 1088 1036 998 1031 1001 1014 994 976 934 888
1250.0 863 827 809 788 802 781 777 776 802 798
1290.0 825 845 870 912 952 1009 1046 1104 1128 1136
1330.0 1138 1172 1265 1414 1626 1885 2147 2371 2676 3080
1370.0 3641 4072 4157 3804 3219 2712 2344 2031 1731 1508
1410.0 1344 1220 1159 1114 1112 1187 1354 1557 1711 1788
1450.0 1778 1726 1622 1435 1278 1134 1106 1114 1204 1448
1490.0 1923 2361 2326 2026 1371 727 501 452 444 432
1530.0 440 445 462 474 447 433 429 463 476 484
1570.0 551 609 630 654 689 797 1037 1404 1506 1384
1610.0 1053 689 519 452 440 434 440 457 453 498
1650.0 537 594 578 578 566 540 495 450 427 463
1690.0 459 513 630 800 1053 1261 1343 1226 876 646
1730.0 597 578 526 533 632 699 711 647 571 528
1770.0 498 465 414 391 394 427 499 555 565 508
1810.0 421 352 323 316 312 302 276 257 245 261
1850.0 242 246 259 281 310 343 359 378 407 423
1890.0 451 432 387 322 273 250 245 257 273 299
1930.0 340 397 431 463 482 495 519 483 428 355
1970.0 278 253 251 245 242 238 238 231 229 238
2010.0 253 262 271 287 292 297 285 282 285 278
2050.0 267 270 265 247 263 266 264 257 256 251
2090.0 246 236 224 219 219 223 227 225 232 233
2130.0 233 239 238 240 231 220 230 221 227 225
2170.0 227 226 233 231 229 228 219 222 226 233
2210.0 225 221 220 218 226 227 238 228 228 229
2250.0 247 243 253 240 230 238 240 244 245 251
2290.0 254 258 269 265 288 302 323 324 326 304
2330.0 306 285 288 321 315 321 330 323 334 313
2370.0 279 270 259 275 278 284 263 270 270 271
2410.0 277 281 273 262 268 272 270 262 265 263
2450.0 265 275 269 271 276 273 278 282 278 275
2490.0 275 284 299 286 294 279 276 278 276 268
2530.0 259 261 262 266 275 275 260 263 271 284
2570.0 291 287 284 296 291 288 296 280 282 270
2610.0 259 254 264 257 269 276 294 289 262 257
2650.0 260 268 286 292 303 323 339 346 377 384
2690.0 403 413 429 431 451 458 463 461 471 494
2730.0 498 517 524 535 549 559 573 587 595 601
2770.0 632 651 659 662 685 695 719 726 741 758
2810.0 798 821 863 899 946 1017 1097 1247 1444 1699
2850.0 2076 2527 3007 3459 3807 3956 3978 3866 3642 3362
2890.0 3060 2825 2650 2616 2644 2797 3078 3485 3934 4321
2930.0 4568 4585 4379 4078 3814 3514 3195 2916 2645 2450
2970.0 2323 2190 2111 2066 2102 2228 2203 2076 1831 1586
3010.0 1516 1617 1846 2228 2712 3201 3462 3400 3078 2621
3050.0 2343 2346 2580 3195 4121 4502 4394 3802 2955 2677
3090.0 2517 2253 1969 1690 1464 1228 1034 801 605 494
3130.0 416 369 347 338 365 360 360 358 320 277
3170.0 261 260 259 261 252 257 239 243 249 233
3210.0 226 218 237 226 241 220 229 251 225 247
3250.0 231 266 244 245 267 271 264 250 262 278
3290.0 274 273 275 267 249 267 271 252 277 265
3330.0 301 253 303 300 282 288 291 321 320 307
3370.0 299 336 304 317 307 336 342 335 392 379
3410.0 374 382 328 335 338 396 388 368 362 380
3450.0 365 378 323 326 358 359 339 338 334 305
3490.0 328 318 338 328 309 321 302 325 311 294
3530.0 268 282 347 291 293 301 273 308 322 295
3570.0 285 308 290 323 326 338 341 268 378 340
3610.0 367 330 450 379 368 520 714 843 960 1199
3650.0 1451 1510 1487 1474 1454 1477 1327 1125 731 601
3690.0 545 416 486 495 340 411 324 315 285 298
3730.0 321 252 283 291 270 229 230 269 247 249
3770.0 246 275 269 304 223 263 255 278 244 269
3810.0 333 282 219 290 299 293 279 254 337 254
3850.0 303 311 364 280 358 352 305 467 277 214
3890.0 363 365 379 218 405 386 435 312 397 301
3930.0 339 402 413 339 368 420 297 337 469 347
##END=
