##TITLE=3-Pyridinecarboxylic acid, 2-methoxyphenyl ester
##JCAMP-DX=4.24
##DATA TYPE=INFRARED SPECTRUM
##ORIGIN=Sadtler Research Labs Under US-EPA Contract
##OWNER=NIST Standard Reference Data Program
##CAS REGISTRY NO=15057-98-4
##MOLFORM=C 13 H 11 N O 3
##XUNITS=1/CM
##YUNITS=ABSORBANCE
##XFACTOR=1.0
##YFACTOR=0.000155719
##DELTAX=4.0
##FIRSTX=450.0
##LASTX=3966.0
##FIRSTY=0.000000
##MAXX=3966
##MINX=450
##MAXY=1.55719
##MINY=0
##NPOINTS=880
##XYDATA=(X++(Y..Y))
450.0 0 2 20 52 59 62 58 46 56 57
490.0 67 60 57 68 48 66 54 85 94 156
530.0 186 202 182 169 154 152 155 149 150 123
570.0 111 98 102 105 110 135 151 136 104 94
610.0 103 153 208 208 149 101 84 72 86 89
650.0 98 96 106 113 113 179 196 195 230 311
690.0 516 711 862 803 649 500 497 627 881 1257
730.0 1590 1833 1944 2220 2275 2012 1536 1144 912 802
770.0 698 560 413 310 251 226 211 199 196 205
810.0 230 263 314 351 368 360 334 299 266 241
850.0 217 207 205 222 251 263 254 211 169 136
890.0 125 116 118 116 120 122 139 162 200 236
930.0 235 206 169 149 134 138 145 161 186 208
970.0 230 241 262 275 305 332 374 431 539 752
1010.0 1261 2370 3615 3732 2642 1714 1554 1574 1494 1345
1050.0 1195 1176 1401 1986 2644 3122 3504 4118 4514 3830
1090.0 2467 1531 1361 1777 2711 3585 3577 2828 2048 1541
1130.0 1095 711 532 465 454 506 655 896 1191 1686
1170.0 2526 3382 3719 3461 3226 3486 4156 4597 4353 3454
1210.0 2489 1849 1523 1421 1448 1577 1767 2065 2607 3541
1250.0 5036 6998 9275 9997 10000 8668 7711 6992 5959 4427
1290.0 3052 2305 1946 1787 1653 1474 1252 1061 944 852
1330.0 713 547 441 372 323 311 297 302 297 276
1370.0 268 267 263 241 258 242 248 261 278 339
1410.0 474 833 1276 1276 971 586 533 586 634 667
1450.0 681 783 1017 1126 1066 971 969 932 999 1257
1490.0 1981 3217 4498 5037 4158 2467 1652 1005 830 574
1530.0 492 356 317 327 290 292 301 386 404 496
1570.0 627 775 927 1173 1586 1919 1781 1407 1086 961
1610.0 828 646 473 331 251 190 155 159 122 127
1650.0 125 141 101 101 118 109 131 105 141 136
1690.0 139 140 182 183 176 196 209 303 305 381
1730.0 429 615 775 997 1371 1844 2740 3696 5154 5182
1770.0 4308 2791 1628 967 635 463 377 304 272 216
1810.0 208 187 166 156 144 130 103 93 96 104
1850.0 90 81 75 69 77 82 77 85 106 115
1890.0 128 126 122 118 113 113 123 151 179 166
1930.0 129 101 88 95 98 101 99 83 67 57
1970.0 54 49 50 46 43 50 49 51 53 61
2010.0 66 77 86 89 91 94 92 91 88 82
2050.0 76 69 66 62 62 59 55 52 48 46
2090.0 44 42 36 35 30 30 29 30 30 31
2130.0 32 31 30 29 25 25 25 21 18 13
2170.0 9 6 3 4 3 4 3 4 3 3
2210.0 2 2 4 6 8 8 6 7 8 8
2250.0 11 14 17 23 25 29 30 28 29 28
2290.0 31 34 40 39 43 46 44 44 46 41
2330.0 37 40 34 42 49 46 52 41 49 47
2370.0 46 49 48 42 31 17 10 7 6 7
2410.0 6 9 8 10 11 15 17 17 18 19
2450.0 20 18 17 15 13 12 11 11 9 11
2490.0 13 15 16 20 22 27 29 31 32 30
2530.0 31 32 33 33 37 37 40 40 40 42
2570.0 40 35 33 32 31 30 30 29 28 28
2610.0 30 28 28 27 24 19 17 15 14 14
2650.0 12 12 10 12 11 11 11 10 8 9
2690.0 7 7 8 7 9 9 8 8 8 11
2730.0 12 15 14 17 18 21 21 21 20 22
2770.0 20 21 24 25 29 31 35 40 41 47
2810.0 54 62 73 89 108 142 199 284 384 453
2850.0 452 386 292 218 177 156 146 146 153 164
2890.0 181 201 219 239 261 286 311 328 339 349
2930.0 371 416 488 581 671 713 692 634 583 543
2970.0 498 445 402 365 329 304 293 316 365 440
3010.0 500 502 437 359 312 297 319 386 510 663
3050.0 783 805 753 687 644 620 623 634 639 651
3090.0 652 593 446 289 189 145 119 104 90 78
3130.0 69 65 64 63 63 61 54 41 32 27
3170.0 24 22 23 21 21 19 16 17 13 13
3210.0 12 11 8 10 9 11 8 5 7 8
3250.0 4 5 5 3 4 4 2 2 2 3
3290.0 2 2 3 5 3 2 4 4 2 3
3330.0 5 4 6 3 8 9 11 9 5 6
3370.0 8 9 7 6 7 6 6 7 7 7
3410.0 6 8 7 9 9 9 3 10 7 9
3450.0 11 7 9 10 14 13 11 12 15 14
3490.0 15 22 29 32 35 34 33 19 15 11
3530.0 4 3 2 7 8 4 9 16 13 29
3570.0 36 51 62 83 96 99 96 83 66 46
3610.0 38 22 15 15 12 19 14 12 17 14
3650.0 23 17 15 12 10 22 11 17 6 19
3690.0 9 16 10 14 11 14 17 13 5 16
3730.0 12 14 9 23 7 20 15 4 5 11
3770.0 4 8 8 15 6 10 9 2 13 9
3810.0 10 4 10 14 7 8 12 12 12 13
3850.0 8 17 18 11 19 21 18 12 17 17
3890.0 19 16 21 20 25 21 16 18 23 23
3930.0 19 15 14 9 7 13 15 14 10 10
##END=
