##TITLE=Butyrophenone, 2'-hydroxy-3-phenyl-,
##JCAMP-DX=4.24
##DATA TYPE=INFRARED SPECTRUM
##ORIGIN=Sadtler Research Labs Under US-EPA Contract
##OWNER=NIST Standard Reference Data Program
##CAS REGISTRY NO=15074-16-5
##MOLFORM=C 16 H 16 O 2
##XUNITS=1/CM
##YUNITS=ABSORBANCE
##XFACTOR=1.0
##YFACTOR=0.000046542
##DELTAX=4.0
##FIRSTX=450.0
##LASTX=3966.0
##FIRSTY=0.000000
##MAXX=3966
##MINX=450
##MAXY=0.46542
##MINY=0
##NPOINTS=880
##XYDATA=(X++(Y..Y))
450.0 0 157 205 193 307 269 225 218 220 177
490.0 184 189 158 306 303 454 576 746 928 936
530.0 915 795 736 702 731 615 522 635 675 696
570.0 719 756 694 516 368 342 334 325 363 443
610.0 552 665 804 953 1087 1141 1045 794 595 531
650.0 530 647 760 950 1045 1183 1139 1132 1235 1423
690.0 2034 3161 4133 3612 2558 2011 1966 2006 2128 2303
730.0 2440 2480 2632 3372 4816 6473 6499 5028 3424 2413
770.0 1943 1682 1559 1485 1377 1297 1195 1096 1027 970
810.0 937 824 705 580 535 520 586 720 790 708
850.0 622 579 519 467 362 332 319 366 397 383
890.0 428 467 525 621 666 647 539 443 401 367
930.0 320 300 314 335 285 261 238 282 305 349
970.0 436 563 782 1078 1584 2079 2241 2008 1689 1461
1010.0 1271 1195 1221 1245 1209 1204 1136 931 661 483
1050.0 407 396 421 440 458 492 552 654 798 949
1090.0 1075 1091 969 826 745 728 739 835 991 1068
1130.0 954 854 982 1460 2482 4402 6410 6405 4201 2209
1170.0 1590 1443 1450 1621 1939 2465 3043 3384 3252 3098
1210.0 3084 3145 3106 3000 2858 2790 2961 3360 3976 4631
1250.0 5095 4965 4364 3741 3381 3162 2988 2892 2851 2976
1290.0 3327 3998 4712 5243 5481 5233 4421 3404 2873 2894
1330.0 3192 3403 3511 3482 3401 3335 3266 3149 2974 2810
1370.0 2587 2403 2240 2123 1912 1666 1424 1286 1238 1210
1410.0 1194 1164 1178 1200 1280 1454 1787 2348 3223 4208
1450.0 4832 4699 3983 3240 2762 2615 2828 3501 4475 5267
1490.0 5260 4697 3873 3009 2285 1710 1397 1177 1077 1002
1530.0 956 936 893 884 876 897 934 1032 1232 1533
1570.0 2107 2896 3710 3860 3458 2835 2582 2671 3016 3467
1610.0 4011 4500 4461 4051 3632 3992 4782 6175 7766 9269
1650.0 10000 9481 7890 5941 4163 2958 2080 1592 1223 1031
1690.0 904 782 695 619 617 554 546 493 465 425
1730.0 408 407 386 377 351 337 317 304 294 290
1770.0 301 295 314 333 403 461 534 493 431 350
1810.0 320 316 310 308 300 296 273 269 242 258
1850.0 247 262 283 303 315 319 344 329 343 311
1890.0 276 236 230 229 244 283 309 311 277 267
1930.0 289 336 390 440 464 442 391 327 284 228
1970.0 214 200 203 191 194 192 184 185 180 187
2010.0 183 178 176 177 182 185 176 180 182 182
2050.0 184 180 177 174 179 178 176 174 172 173
2090.0 171 176 171 175 172 171 168 166 173 168
2130.0 170 167 181 176 184 185 179 179 174 171
2170.0 169 168 170 166 161 166 168 164 166 167
2210.0 167 170 171 170 170 161 170 168 177 175
2250.0 181 183 184 189 187 190 202 210 220 222
2290.0 229 237 228 230 235 252 265 264 280 272
2330.0 277 276 259 269 288 243 237 222 221 225
2370.0 254 244 250 244 223 208 205 200 197 200
2410.0 196 203 209 222 222 223 219 225 222 223
2450.0 223 233 240 234 234 235 234 229 238 230
2490.0 232 233 235 242 238 244 252 257 261 262
2530.0 261 269 271 277 279 284 285 298 303 306
2570.0 318 319 320 321 322 334 342 346 364 367
2610.0 370 369 366 378 380 382 384 373 378 365
2650.0 364 355 356 355 353 341 337 349 343 345
2690.0 351 360 374 383 382 390 393 400 412 421
2730.0 434 448 461 463 474 474 480 475 471 466
2770.0 462 454 446 446 451 447 453 450 457 454
2810.0 467 481 492 512 526 542 554 568 573 588
2850.0 604 617 640 679 734 814 945 1113 1256 1308
2890.0 1278 1269 1284 1334 1361 1368 1394 1419 1468 1540
2930.0 1652 1810 1950 1945 1808 1652 1588 1701 2074 2642
2970.0 3207 3668 3729 3244 2476 1839 1489 1322 1286 1315
3010.0 1366 1423 1535 1756 2103 2534 2844 2868 2640 2387
3050.0 2280 2304 2462 2762 3245 3661 3659 3268 2872 2706
3090.0 2590 2382 2095 1850 1705 1631 1541 1438 1337 1265
3130.0 1196 1162 1136 1118 1098 1099 1090 1095 1103 1109
3170.0 1102 1101 1088 1088 1073 1060 1054 1034 1018 1002
3210.0 983 959 944 925 912 903 893 894 890 882
3250.0 887 887 870 861 846 842 820 828 815 783
3290.0 781 767 761 758 742 715 708 676 671 658
3330.0 662 648 638 628 621 605 594 586 568 573
3370.0 546 530 524 515 508 489 494 471 466 452
3410.0 461 444 439 421 413 403 385 388 384 364
3450.0 359 363 352 352 336 331 318 303 306 300
3490.0 292 282 279 280 266 265 262 255 256 262
3530.0 240 234 244 233 233 222 243 225 229 223
3570.0 217 222 199 193 205 211 198 184 202 185
3610.0 202 195 204 200 205 222 200 218 190 178
3650.0 203 204 207 179 192 183 162 196 181 180
3690.0 167 167 175 193 212 172 196 188 183 194
3730.0 193 186 195 181 203 190 194 161 161 176
3770.0 195 185 171 182 174 177 161 186 174 207
3810.0 165 189 172 181 169 163 171 197 198 193
3850.0 171 214 187 189 190 195 171 173 192 220
3890.0 196 196 190 226 230 224 213 194 217 190
3930.0 199 187 183 203 194 195 192 184 191 172
##END=
