##TITLE=3-Octanol, 3,6-dimethyl-
##JCAMP-DX=4.24
##DATA TYPE=INFRARED SPECTRUM
##ORIGIN=Sadtler Research Labs Under US-EPA Contract
##OWNER=NIST Standard Reference Data Program
##CAS REGISTRY NO=151-19-9
##MOLFORM=C 10 H 22 O
##XUNITS=1/CM
##YUNITS=ABSORBANCE
##XFACTOR=1.0
##YFACTOR=0.000065408
##DELTAX=4.0
##FIRSTX=450.0
##LASTX=3966.0
##FIRSTY=0.004775
##MAXX=3966
##MINX=450
##MAXY=0.65408
##MINY=0
##NPOINTS=880
##XYDATA=(X++(Y..Y))
450.0 73 67 86 94 81 106 95 95 107 60
490.0 78 97 54 76 86 84 67 82 79 75
530.0 73 69 32 55 67 74 60 33 11 67
570.0 56 110 81 87 4 56 61 56 57 62
610.0 65 60 62 58 79 70 72 80 84 66
650.0 75 81 85 88 65 89 86 91 104 86
690.0 89 99 100 82 101 109 101 108 133 148
730.0 158 185 194 193 181 178 183 182 174 191
770.0 207 229 228 238 225 198 177 157 140 137
810.0 118 125 127 118 104 121 111 113 108 120
850.0 115 119 128 144 172 206 257 342 451 578
890.0 678 691 650 571 500 503 559 646 772 892
930.0 939 927 842 691 558 441 385 367 391 425
970.0 463 512 561 569 609 648 687 693 685 658
1010.0 636 601 554 537 517 521 531 539 547 517
1050.0 499 461 423 409 408 428 455 486 512 544
1090.0 565 582 621 652 684 707 719 733 749 785
1130.0 840 881 955 1002 1058 1127 1191 1222 1214 1176
1170.0 1080 981 890 806 743 691 660 649 646 647
1210.0 647 647 631 614 585 583 574 579 594 620
1250.0 644 675 684 684 684 677 660 653 651 658
1290.0 664 671 683 683 682 676 669 654 651 644
1330.0 660 675 706 718 746 770 772 787 820 924
1370.0 1148 1473 1816 1982 1873 1502 1068 717 508 410
1410.0 359 322 320 299 306 328 372 436 534 686
1450.0 902 1177 1490 1738 1814 1690 1344 965 659 466
1490.0 327 252 206 182 170 139 131 133 120 107
1530.0 98 98 107 86 84 88 98 101 67 79
1570.0 80 79 65 70 68 69 68 69 69 61
1610.0 62 61 55 53 56 57 55 54 53 60
1650.0 65 55 53 61 60 58 56 57 54 50
1690.0 53 52 56 55 53 50 52 56 59 56
1730.0 59 58 58 50 51 46 42 42 42 33
1770.0 35 35 32 34 25 26 31 32 33 32
1810.0 24 30 31 31 23 25 18 24 21 22
1850.0 14 21 21 13 21 23 22 21 21 16
1890.0 16 20 20 20 12 12 12 12 12 17
1930.0 18 12 10 12 11 11 11 11 9 2
1970.0 1 1 9 2 6 10 10 5 1 10
2010.0 1 6 8 8 7 7 6 13 13 15
2050.0 14 13 13 14 14 13 13 13 14 12
2090.0 12 12 12 12 12 11 11 5 12 12
2130.0 12 11 11 10 11 11 11 5 10 9
2170.0 9 11 11 9 9 9 9 9 9 8
2210.0 8 8 12 10 7 16 8 8 9 9
2250.0 9 15 15 15 15 15 16 16 16 16
2290.0 16 16 23 16 16 15 15 12 13 9
2330.0 13 15 24 30 23 23 8 16 19 22
2370.0 31 31 41 37 31 32 33 32 32 24
2410.0 24 24 25 25 24 21 21 18 26 27
2450.0 25 17 17 18 17 17 17 17 17 17
2490.0 17 17 18 17 17 18 17 17 25 18
2530.0 17 26 27 22 26 26 34 34 34 41
2570.0 42 42 48 48 57 57 57 57 60 57
2610.0 65 65 72 73 64 65 66 72 72 72
2650.0 72 81 81 81 80 80 80 87 95 90
2690.0 88 92 91 101 100 104 109 110 127 142
2730.0 150 159 166 174 173 171 163 150 150 150
2770.0 149 151 159 166 174 191 197 214 231 251
2810.0 285 312 334 373 407 452 507 571 659 788
2850.0 975 1272 1647 2073 2459 2810 3119 3431 3737 3878
2890.0 3768 3467 3108 2949 3054 3431 3953 4512 5085 5640
2930.0 6174 6637 6903 6885 6529 6085 5787 6048 6926 8422
2970.0 9803 10000 8991 6966 4903 3331 2245 1490 1020 730
3010.0 571 457 395 345 312 299 270 260 246 230
3050.0 223 215 207 207 190 198 192 192 184 173
3090.0 161 162 148 147 132 132 123 115 116 101
3130.0 101 101 97 97 94 108 100 100 102 110
3170.0 109 101 102 95 102 89 82 74 69 65
3210.0 63 56 48 48 48 41 35 38 34 22
3250.0 24 31 21 28 18 20 19 18 21 17
3290.0 23 26 23 24 27 19 25 26 28 19
3330.0 20 20 26 22 25 10 24 28 25 28
3370.0 26 34 28 35 27 28 29 25 23 26
3410.0 32 28 27 35 22 28 21 29 28 27
3450.0 29 22 27 15 20 26 20 23 14 29
3490.0 29 21 13 23 13 21 26 27 19 19
3530.0 22 14 29 15 8 16 8 24 11 17
3570.0 19 28 12 21 24 39 24 17 24 32
3610.0 40 47 72 94 135 216 315 388 434 402
3650.0 349 245 181 119 73 54 40 51 31 34
3690.0 36 25 16 26 24 24 32 37 29 23
3730.0 22 25 35 19 26 13 18 18 24 16
3770.0 16 15 5 11 4 3 5 10 3 3
3810.0 11 16 1 11 0 8 23 13 11 2
3850.0 12 12 28 12 10 9 17 6 2 7
3890.0 0 7 10 13 14 2 3 9 18 1
3930.0 1 8 5 2 4 1 1 1 1 1
##END=
