##TITLE=Propane, 1,1,2,3,3-pentachloro-
##JCAMP-DX=4.24
##DATA TYPE=INFRARED SPECTRUM
##ORIGIN=Sadtler Research Labs Under US-EPA Contract
##OWNER=NIST Standard Reference Data Program
##CAS REGISTRY NO=15104-61-7
##MOLFORM=C 3 H 3 Cl 5
##XUNITS=1/CM
##YUNITS=ABSORBANCE
##XFACTOR=1.0
##YFACTOR=0.000053027
##DELTAX=4.0
##FIRSTX=450.0
##LASTX=3966.0
##FIRSTY=0.004242
##MAXX=3966
##MINX=450
##MAXY=0.53027
##MINY=0
##NPOINTS=880
##XYDATA=(X++(Y..Y))
450.0 80 74 121 103 92 82 114 129 138 130
490.0 79 16 5 36 36 94 139 147 136 115
530.0 112 118 164 219 388 760 1384 2220 2528 2101
570.0 1370 426 102 133 147 170 117 107 101 106
610.0 123 121 74 73 131 85 120 145 317 674
650.0 1232 1718 2451 2853 2512 1478 1029 483 426 390
690.0 296 353 442 699 1159 2202 3803 5750 6326 5567
730.0 4370 3265 3305 4877 6067 9105 10000 8931 5623 3043
770.0 1263 597 577 624 674 711 797 773 780 901
810.0 1101 1362 1589 1789 2280 3228 4535 5474 5293 3962
850.0 2373 1121 474 196 196 171 185 114 96 77
890.0 84 102 106 111 102 99 90 89 86 144
930.0 162 166 155 175 145 111 190 259 274 250
970.0 224 169 152 190 184 316 442 598 745 830
1010.0 931 873 591 379 223 158 219 369 458 584
1050.0 718 684 596 510 309 223 171 113 82 56
1090.0 77 40 63 52 15 14 38 51 41 40
1130.0 52 33 25 20 30 46 95 125 163 203
1170.0 232 321 450 654 709 724 621 556 618 879
1210.0 1272 1699 1761 1605 1206 936 998 1241 1386 1383
1250.0 1047 763 523 423 480 689 1000 1175 1082 799
1290.0 470 266 179 204 287 397 580 642 612 473
1330.0 305 191 97 64 44 52 52 35 34 52
1370.0 34 53 46 38 67 61 56 58 52 46
1410.0 58 67 48 68 69 79 87 101 84 88
1450.0 71 71 63 50 55 56 28 46 38 46
1490.0 28 31 39 25 14 9 13 13 14 21
1530.0 33 34 34 7 48 34 65 38 55 50
1570.0 51 44 50 54 35 43 35 43 25 21
1610.0 13 19 19 34 13 25 17 23 43 33
1650.0 34 23 45 34 28 22 29 32 30 14
1690.0 32 25 14 15 23 24 24 14 17 28
1730.0 34 27 31 33 34 42 33 33 33 29
1770.0 24 16 29 18 24 17 13 32 22 32
1810.0 23 22 21 24 13 14 18 22 16 12
1850.0 15 14 14 14 14 15 22 19 24 13
1890.0 12 18 14 21 23 13 13 13 13 14
1930.0 19 23 21 17 12 22 22 22 22 21
1970.0 22 22 22 13 21 22 11 22 22 22
2010.0 22 22 22 22 21 30 23 31 21 21
2050.0 25 30 30 31 31 20 21 30 21 21
2090.0 21 21 21 21 10 22 11 10 14 20
2130.0 21 20 21 10 19 22 22 16 15 20
2170.0 14 19 18 19 19 19 19 30 30 29
2210.0 29 39 40 28 28 20 29 20 19 19
2250.0 19 19 20 20 20 20 20 26 28 29
2290.0 19 20 19 18 17 18 10 10 4 4
2330.0 5 6 4 4 4 9 4 4 4 4
2370.0 4 10 14 17 27 37 36 46 56 55
2410.0 65 65 65 68 60 56 57 44 39 44
2450.0 45 45 37 36 36 34 38 39 55 54
2490.0 53 66 72 63 74 73 74 63 63 73
2530.0 57 50 46 47 35 36 37 34 36 26
2570.0 27 27 27 27 27 25 25 24 30 27
2610.0 15 26 25 26 17 15 26 26 19 25
2650.0 26 15 20 25 16 25 26 26 17 24
2690.0 15 27 26 26 27 14 8 16 24 15
2730.0 15 24 15 25 22 19 20 16 16 16
2770.0 24 23 25 24 16 24 24 25 25 19
2810.0 14 15 26 22 24 24 24 25 24 24
2850.0 36 24 18 24 24 23 35 27 24 35
2890.0 35 25 24 24 24 25 25 30 24 31
2930.0 34 26 36 33 44 53 73 135 227 315
2970.0 343 295 195 118 84 63 52 71 81 150
3010.0 258 385 460 379 250 131 47 37 36 24
3050.0 16 25 34 36 32 36 27 33 40 36
3090.0 30 34 34 17 25 35 34 24 34 17
3130.0 24 25 31 31 30 45 43 42 35 25
3170.0 25 25 27 31 25 30 24 32 17 15
3210.0 26 24 15 15 24 36 21 30 19 15
3250.0 25 25 25 14 25 25 24 15 23 35
3290.0 17 21 20 25 15 22 17 23 24 15
3330.0 15 16 33 25 25 17 30 25 32 16
3370.0 9 25 24 24 25 25 25 17 21 16
3410.0 21 14 25 25 25 15 16 25 15 24
3450.0 29 21 19 19 25 12 16 26 24 16
3490.0 16 16 7 24 5 20 24 25 15 15
3530.0 26 23 24 16 24 25 15 18 25 14
3570.0 15 37 28 14 18 24 7 16 16 16
3610.0 16 19 4 9 27 4 16 16 15 15
3650.0 7 6 7 25 25 14 25 24 20 15
3690.0 8 16 16 16 24 16 16 16 9 32
3730.0 25 25 24 20 13 15 24 35 24 35
3770.0 35 34 31 36 34 50 43 33 44 36
3810.0 43 35 25 24 35 35 34 31 29 29
3850.0 26 14 33 34 34 24 25 26 32 27
3890.0 33 39 40 36 23 17 25 25 25 35
3930.0 35 35 37 43 54 57 0 4 4 4
##END=
