##TITLE=Benzeneethanol, 2-nitro-
##JCAMP-DX=4.24
##DATA TYPE=INFRARED SPECTRUM
##ORIGIN=Sadtler Research Labs Under US-EPA Contract
##OWNER=NIST Standard Reference Data Program
##CAS REGISTRY NO=15121-84-3
##MOLFORM=C 8 H 9 N O 3
##XUNITS=1/CM
##YUNITS=ABSORBANCE
##XFACTOR=1.0
##YFACTOR=0.000092957
##DELTAX=4.0
##FIRSTX=450.0
##LASTX=3966.0
##FIRSTY=0.035138
##MAXX=3966
##MINX=450
##MAXY=0.92957
##MINY=0
##NPOINTS=880
##XYDATA=(X++(Y..Y))
450.0 378 198 143 50 126 47 59 95 54 117
490.0 111 178 265 347 378 319 266 169 132 57
530.0 28 12 14 10 8 39 45 71 86 95
570.0 95 151 183 208 172 154 141 99 82 68
610.0 57 13 29 24 13 11 22 47 49 80
650.0 106 248 401 647 698 654 483 328 246 235
690.0 261 371 501 657 731 684 629 639 737 999
730.0 1368 1801 2267 2536 1878 1285 889 590 567 708
770.0 993 1234 1479 1514 1099 671 395 226 168 204
810.0 263 292 279 236 184 163 183 276 410 644
850.0 994 1345 1521 1425 1157 823 582 453 346 247
890.0 158 109 92 92 95 95 93 105 130 140
930.0 155 173 200 230 262 281 269 252 248 243
970.0 247 269 307 342 391 465 564 676 801 922
1010.0 1021 1099 1188 1334 1581 1981 2607 3472 4301 4746
1050.0 4619 3844 2855 2082 1599 1300 1135 1031 932 811
1090.0 659 531 432 366 331 322 327 339 362 385
1130.0 409 425 438 446 458 478 536 606 638 627
1170.0 574 505 455 438 437 450 477 489 491 472
1210.0 452 437 433 439 450 466 486 504 520 539
1250.0 565 586 600 619 631 638 655 677 715 757
1290.0 824 899 978 1038 1065 1059 1049 1052 1084 1157
1330.0 1302 1543 1934 2593 3539 4729 5811 6349 6153 5114
1370.0 3524 2268 1585 1287 1146 1066 1009 938 897 847
1410.0 796 743 665 651 629 660 712 843 980 1077
1450.0 1113 1066 939 849 814 868 993 1163 1293 1307
1490.0 1308 1343 1425 1588 1829 2205 2647 3191 3817 4628
1530.0 5698 7258 8918 10000 9819 8375 6155 4315 3095 2473
1570.0 2059 1818 1589 1370 1182 996 862 826 941 1060
1610.0 1092 966 771 536 332 226 163 127 120 108
1650.0 79 81 86 59 49 36 23 30 26 25
1690.0 43 41 31 29 37 50 46 35 62 80
1730.0 69 69 69 58 40 32 51 40 40 35
1770.0 24 1 16 11 24 17 27 36 46 76
1810.0 82 87 98 92 78 61 50 52 38 34
1850.0 38 39 32 22 11 0 16 20 24 28
1890.0 36 41 50 52 50 46 53 80 95 121
1930.0 126 107 89 57 51 63 87 98 101 76
1970.0 54 30 12 11 8 6 0 9 8 12
2010.0 11 6 5 11 12 12 15 12 12 19
2050.0 17 20 27 30 27 35 34 39 35 35
2090.0 28 24 22 17 18 16 17 15 15 13
2130.0 8 13 12 8 9 9 10 9 7 9
2170.0 7 6 8 6 5 4 5 9 10 9
2210.0 11 9 13 17 16 14 15 14 14 11
2250.0 11 6 2 6 1 5 2 9 8 11
2290.0 13 18 20 24 27 30 30 36 40 35
2330.0 29 33 18 13 18 22 25 30 9 4
2370.0 18 25 42 41 48 44 49 48 46 43
2410.0 44 40 41 44 43 45 46 44 45 41
2450.0 31 32 32 25 23 20 23 24 24 27
2490.0 27 25 28 30 24 25 22 21 19 18
2530.0 18 20 18 20 17 17 22 20 24 21
2570.0 20 19 22 23 22 28 23 26 29 31
2610.0 31 31 31 34 40 41 43 49 49 49
2650.0 56 61 61 63 62 66 64 64 64 66
2690.0 69 76 81 85 84 87 84 87 91 91
2730.0 99 102 103 107 110 117 112 119 119 119
2770.0 124 121 133 139 136 143 148 147 154 159
2810.0 163 170 177 181 197 211 229 247 276 299
2850.0 335 382 432 506 599 715 849 1019 1196 1355
2890.0 1469 1515 1468 1343 1195 1057 968 942 976 1053
2930.0 1156 1253 1340 1426 1497 1545 1532 1442 1304 1156
2970.0 1038 943 859 762 650 542 428 336 267 225
3010.0 192 173 170 174 194 231 262 286 296 285
3050.0 268 266 304 380 502 647 794 893 881 763
3090.0 581 376 230 141 91 69 56 44 37 29
3130.0 19 22 17 13 13 12 23 22 20 12
3170.0 10 7 2 13 10 8 7 10 4 5
3210.0 8 1 10 4 3 3 5 10 11 2
3250.0 8 5 2 5 2 4 8 0 2 4
3290.0 9 8 10 5 3 3 14 10 10 12
3330.0 15 5 13 15 27 23 24 22 23 28
3370.0 31 29 37 42 37 37 42 49 56 48
3410.0 55 59 53 52 65 70 70 70 61 66
3450.0 67 78 65 63 68 76 75 67 63 63
3490.0 67 59 66 62 64 59 75 67 66 65
3530.0 64 63 62 67 75 68 70 76 72 87
3570.0 88 86 79 92 101 97 115 101 126 155
3610.0 216 238 238 227 204 191 166 155 189 223
3650.0 322 433 570 701 760 758 652 518 348 219
3690.0 148 72 45 31 18 7 0 0 0 0
3730.0 0 0 0 0 0 0 0 0 0 0
3770.0 0 0 0 0 0 0 0 0 0 0
3810.0 0 0 0 0 0 0 0 0 0 0
3850.0 0 0 0 0 0 0 0 0 0 0
3890.0 0 0 0 0 0 0 0 0 0 0
3930.0 0 0 0 1 2 2 0 0 0 0
##END=
