##TITLE=Naphtho[1,2-d]-1,3-oxathiol-2-one
##JCAMP-DX=4.24
##DATA TYPE=INFRARED SPECTRUM
##ORIGIN=Sadtler Research Labs Under US-EPA Contract
##OWNER=NIST Standard Reference Data Program
##CAS REGISTRY NO=15137-41-4
##MOLFORM=C 11 H 6 O 2 S
##XUNITS=1/CM
##YUNITS=ABSORBANCE
##XFACTOR=1.0
##YFACTOR=0.000111050
##DELTAX=4.0
##FIRSTX=450.0
##LASTX=3966.0
##FIRSTY=0.035869
##MAXX=3966
##MINX=450
##MAXY=1.1105
##MINY=0
##NPOINTS=880
##XYDATA=(X++(Y..Y))
450.0 323 194 16 52 55 103 84 57 40 11
490.0 1 13 35 37 76 115 75 84 131 97
530.0 135 129 91 72 66 81 88 69 65 49
570.0 82 87 87 151 173 156 141 76 56 54
610.0 58 56 55 99 106 151 199 216 173 150
650.0 141 191 230 271 352 352 316 224 86 58
690.0 26 64 36 58 64 74 55 54 85 107
730.0 195 246 404 390 298 217 192 171 264 307
770.0 239 228 278 371 400 477 564 661 916 840
810.0 560 423 224 143 91 91 95 102 104 99
850.0 128 127 125 113 99 84 76 73 72 79
890.0 66 64 72 76 75 77 78 85 95 94
930.0 109 122 149 153 191 234 344 526 822 1227
970.0 1497 1575 1442 1158 941 670 354 190 135 117
1010.0 136 167 197 211 210 178 149 140 140 164
1050.0 210 312 413 531 570 497 405 266 145 105
1090.0 84 80 69 67 65 73 79 84 94 103
1130.0 111 112 121 120 107 117 113 97 85 78
1170.0 65 55 39 27 26 40 72 104 139 161
1210.0 165 148 123 117 122 150 241 518 994 1413
1250.0 1509 1275 941 744 665 501 285 158 110 84
1290.0 88 94 105 103 106 95 93 87 113 129
1330.0 149 183 196 253 280 258 235 239 291 371
1370.0 449 433 369 269 144 100 76 54 77 73
1410.0 55 89 12 65 65 113 122 169 199 200
1450.0 218 298 319 322 239 121 42 71 127 93
1490.0 52 113 128 207 238 295 357 288 160 117
1530.0 88 91 57 13 40 85 77 21 68 100
1570.0 93 103 118 143 213 245 279 252 217 164
1610.0 153 172 167 246 269 319 267 217 201 164
1650.0 93 80 104 107 89 73 40 97 51 56
1690.0 100 117 49 55 94 142 160 150 250 296
1730.0 298 266 313 320 321 370 494 611 706 816
1770.0 863 980 1192 1572 2730 5436 9221 10000 9087 4402
1810.0 1652 817 493 339 279 211 204 186 168 134
1850.0 167 182 171 164 151 144 170 174 158 144
1890.0 125 125 131 142 155 164 173 186 202 238
1930.0 259 272 304 307 317 306 267 231 196 155
1970.0 122 105 96 95 92 81 81 88 93 92
2010.0 101 104 105 120 129 139 154 152 148 144
2050.0 131 108 84 73 62 67 64 66 62 61
2090.0 57 60 58 56 59 60 61 59 61 62
2130.0 62 61 56 57 53 49 53 54 48 50
2170.0 49 48 50 50 47 51 50 51 49 48
2210.0 52 51 53 51 52 56 56 54 47 47
2250.0 46 46 44 42 47 45 47 51 51 49
2290.0 53 53 53 53 55 63 63 66 62 55
2330.0 54 54 61 56 69 59 59 54 38 40
2370.0 40 49 50 54 49 41 35 31 29 34
2410.0 26 29 30 27 26 22 29 24 22 26
2450.0 22 25 21 27 26 21 22 20 19 21
2490.0 20 26 22 18 17 21 17 21 16 18
2530.0 20 17 15 13 13 11 17 13 10 14
2570.0 14 15 19 20 18 13 13 15 17 19
2610.0 21 12 16 14 10 8 10 14 12 7
2650.0 4 9 6 7 5 6 2 3 8 9
2690.0 7 5 6 4 7 9 9 7 3 9
2730.0 4 7 10 5 7 6 3 5 9 6
2770.0 4 8 8 5 7 6 5 6 7 9
2810.0 9 7 5 7 5 6 5 5 7 7
2850.0 7 8 6 9 8 5 8 7 6 7
2890.0 3 9 9 6 3 7 7 11 8 11
2930.0 12 15 16 19 14 22 27 21 22 25
2970.0 16 15 18 17 19 18 21 22 22 24
3010.0 34 41 46 53 57 61 66 76 73 68
3050.0 82 112 191 295 374 393 348 248 166 130
3090.0 111 110 89 78 56 37 22 19 15 13
3130.0 14 17 11 6 10 10 13 11 13 10
3170.0 9 14 9 11 13 9 15 10 14 8
3210.0 10 9 10 11 7 8 7 7 9 7
3250.0 11 2 12 3 8 11 7 8 10 8
3290.0 9 2 2 10 5 12 12 11 14 10
3330.0 14 6 6 14 13 8 8 14 7 9
3370.0 8 9 11 11 5 6 9 12 14 8
3410.0 0 10 6 16 17 20 11 15 16 18
3450.0 20 14 14 16 17 15 12 8 19 7
3490.0 10 15 17 17 14 22 20 21 22 18
3530.0 24 16 22 20 26 30 26 41 49 68
3570.0 82 94 93 72 46 28 25 22 13 15
3610.0 18 14 13 21 16 29 6 21 21 22
3650.0 26 27 29 29 28 26 17 16 14 11
3690.0 12 20 17 9 16 9 20 27 14 27
3730.0 27 17 7 20 24 20 13 24 9 8
3770.0 2 13 17 9 24 24 21 10 12 22
3810.0 30 20 18 6 9 17 22 17 22 9
3850.0 9 2 10 15 12 22 15 7 18 18
3890.0 10 24 24 28 22 24 22 24 21 17
3930.0 27 21 22 7 1 8 19 21 33 25
##END=
