##TITLE=Ethanol, 2-(4-methylphenoxy)-
##JCAMP-DX=4.24
##DATA TYPE=INFRARED SPECTRUM
##ORIGIN=Sadtler Research Labs Under US-EPA Contract
##OWNER=NIST Standard Reference Data Program
##CAS REGISTRY NO=15149-10-7
##MOLFORM=C 9 H 12 O 2
##XUNITS=1/CM
##YUNITS=ABSORBANCE
##XFACTOR=1.0
##YFACTOR=0.000100174
##DELTAX=4.0
##FIRSTX=450.0
##LASTX=3966.0
##FIRSTY=0.011620
##MAXX=3966
##MINX=450
##MAXY=1.00174
##MINY=0
##NPOINTS=880
##XYDATA=(X++(Y..Y))
450.0 116 183 165 146 158 193 181 230 293 297
490.0 355 413 492 538 568 563 537 474 413 384
530.0 343 283 285 275 291 276 320 338 342 324
570.0 275 203 136 102 72 59 35 37 39 31
610.0 17 22 34 14 16 27 31 35 26 9
650.0 24 6 3 2 0 25 24 21 45 54
690.0 77 90 120 147 186 201 223 240 251 269
730.0 315 377 386 367 301 219 160 112 86 86
770.0 100 133 155 226 318 455 626 842 1115 1348
810.0 1560 1732 1863 1754 1540 1307 1039 818 644 522
850.0 442 433 440 457 482 516 561 604 667 743
890.0 854 956 1046 1134 1199 1186 1074 932 738 599
930.0 500 428 375 336 318 295 283 265 264 270
970.0 278 301 318 346 387 433 487 569 678 861
1010.0 1104 1330 1607 1959 2427 3126 3854 4446 4717 4585
1050.0 4116 3503 2979 2601 2401 2311 2297 2285 2248 2163
1090.0 2027 1853 1679 1541 1410 1306 1205 1107 1022 939
1130.0 863 792 732 679 634 603 608 671 872 1362
1170.0 1878 2026 1925 1454 1019 968 1126 1390 1727 2163
1210.0 2666 3277 3937 4654 5430 6359 7594 8983 10000 9559
1250.0 8075 5532 3557 2685 2369 2301 2392 2536 2654 2625
1290.0 2408 2062 1680 1356 1126 942 830 743 716 696
1330.0 679 674 640 672 712 729 754 808 909 1096
1370.0 1202 1188 1111 972 846 799 760 718 736 718
1410.0 671 657 541 567 535 541 487 505 545 594
1450.0 718 963 1234 1386 1361 1128 814 738 834 852
1490.0 1023 1495 2420 4208 6670 8396 8615 6951 4258 2331
1530.0 1398 842 535 341 283 298 247 186 226 287
1570.0 310 388 494 613 743 802 865 894 1018 1192
1610.0 1424 1555 1467 1248 890 638 416 312 276 218
1650.0 122 98 129 115 92 72 29 76 19 3
1690.0 49 62 0 6 34 75 52 11 78 105
1730.0 77 32 93 113 113 107 151 144 133 130
1770.0 88 52 78 59 69 49 35 44 26 62
1810.0 50 47 61 57 46 40 60 82 63 57
1850.0 93 128 140 163 167 151 181 178 160 136
1890.0 115 105 101 99 92 85 80 78 68 86
1930.0 96 96 98 85 94 100 102 98 104 94
1970.0 104 112 114 112 108 86 78 81 78 74
2010.0 72 65 57 61 63 63 66 64 64 71
2050.0 78 82 87 85 81 92 89 91 89 86
2090.0 76 74 73 67 65 57 54 49 46 38
2130.0 37 31 26 24 22 18 13 13 10 6
2170.0 6 5 5 5 2 0 0 0 0 0
2210.0 2 1 3 5 7 8 7 6 8 11
2250.0 9 11 12 11 13 13 16 20 25 29
2290.0 36 40 46 52 54 60 57 55 54 44
2330.0 44 37 35 47 52 60 49 40 39 34
2370.0 37 35 41 41 37 31 28 30 34 36
2410.0 38 40 42 43 44 44 41 41 43 47
2450.0 51 54 55 58 58 60 65 64 65 63
2490.0 58 54 48 49 48 52 60 66 71 69
2530.0 69 67 62 54 49 45 39 35 32 29
2570.0 31 29 29 28 30 33 31 29 24 25
2610.0 22 18 17 15 14 14 16 19 16 19
2650.0 20 25 25 26 27 31 34 44 43 49
2690.0 50 59 66 71 81 85 98 105 115 125
2730.0 136 148 158 173 178 175 154 134 124 122
2770.0 122 128 131 138 147 155 162 174 180 193
2810.0 206 218 235 260 287 313 341 378 425 491
2850.0 577 691 840 1030 1276 1564 1856 2098 2229 2217
2890.0 2090 1939 1820 1739 1722 1765 1874 2055 2326 2690
2930.0 3082 3354 3396 3204 2887 2585 2397 2300 2220 2103
2970.0 1939 1726 1491 1287 1140 1035 976 942 920 904
3010.0 902 901 913 986 1150 1400 1600 1607 1433 1103
3050.0 823 698 637 614 608 596 580 527 460 398
3090.0 358 333 321 299 279 255 221 188 161 139
3130.0 122 104 86 66 48 34 29 21 17 12
3170.0 15 15 13 12 7 6 10 12 12 11
3210.0 5 9 7 6 9 8 5 6 5 9
3250.0 8 5 3 3 5 2 3 7 5 10
3290.0 10 7 9 7 12 9 8 9 5 8
3330.0 9 8 11 12 8 7 6 13 8 4
3370.0 4 4 3 5 6 2 4 8 7 0
3410.0 3 5 9 8 6 6 5 8 8 11
3450.0 9 12 12 12 16 13 12 12 14 10
3490.0 9 12 17 23 16 19 18 15 24 29
3530.0 29 34 36 30 36 30 31 27 23 37
3570.0 40 36 41 44 53 58 65 74 83 101
3610.0 122 159 199 247 322 462 619 715 737 679
3650.0 559 467 413 405 395 387 364 323 272 234
3690.0 187 135 106 80 69 62 55 49 44 43
3730.0 40 48 47 46 52 36 46 39 32 39
3770.0 24 25 19 24 20 14 13 19 7 9
3810.0 16 13 11 16 5 1 12 15 19 4
3850.0 11 13 13 8 13 16 13 9 17 14
3890.0 2 4 9 30 16 8 14 17 17 16
3930.0 27 23 13 13 25 23 20 17 10 6
##END=
