##TITLE=Disulfide, bis(2-methylpropyl)
##JCAMP-DX=4.24
##DATA TYPE=INFRARED SPECTRUM
##ORIGIN=Sadtler Research Labs Under US-EPA Contract
##OWNER=NIST Standard Reference Data Program
##CAS REGISTRY NO=1518-72-5
##MOLFORM=C 8 H 18 S 2
##XUNITS=1/CM
##YUNITS=ABSORBANCE
##XFACTOR=1.0
##YFACTOR=0.000132083
##DELTAX=4.0
##FIRSTX=450.0
##LASTX=3966.0
##FIRSTY=0.003830
##MAXX=3966
##MINX=450
##MAXY=1.32083
##MINY=0
##NPOINTS=880
##XYDATA=(X++(Y..Y))
450.0 29 120 103 114 100 108 119 132 2 0
490.0 257 44 58 96 114 116 115 90 130 99
530.0 117 119 113 137 130 103 82 109 110 116
570.0 92 117 94 113 126 97 38 89 107 82
610.0 117 108 98 92 69 127 110 106 83 100
650.0 86 116 102 98 109 151 132 108 105 101
690.0 125 125 140 151 162 167 155 162 139 127
730.0 128 149 110 175 142 134 136 108 120 93
770.0 123 111 117 120 160 184 266 325 324 291
810.0 232 204 164 166 156 168 181 185 195 204
850.0 266 288 316 267 207 149 125 118 100 103
890.0 96 108 100 114 116 127 165 233 288 300
930.0 302 271 293 310 332 303 245 203 172 147
970.0 115 119 96 108 92 95 102 93 98 101
1010.0 97 96 112 110 114 118 119 119 122 131
1050.0 134 162 191 228 272 321 339 323 290 241
1090.0 212 191 198 208 227 229 217 193 164 164
1130.0 157 174 179 205 221 254 318 432 635 842
1170.0 901 766 529 330 248 206 213 244 307 425
1210.0 542 595 565 528 537 727 1023 1239 1223 958
1250.0 641 416 297 232 207 180 166 157 154 150
1290.0 148 152 155 177 206 281 416 594 702 694
1330.0 594 485 417 342 292 264 300 395 576 843
1370.0 1092 1250 1265 1363 1461 1389 1104 706 480 442
1410.0 469 496 484 450 456 498 540 548 564 609
1450.0 741 904 1093 1297 1466 1522 1350 1058 748 521
1490.0 382 294 249 212 179 152 146 121 110 102
1530.0 98 96 86 85 86 90 85 83 76 83
1570.0 83 77 80 85 86 82 87 83 86 83
1610.0 85 79 79 81 84 83 84 84 88 85
1650.0 90 79 95 92 93 92 90 91 92 82
1690.0 88 85 74 79 76 77 70 69 65 67
1730.0 65 62 62 65 67 63 62 63 64 60
1770.0 57 56 58 59 54 56 53 56 58 56
1810.0 57 60 56 56 54 52 52 50 55 53
1850.0 54 56 54 60 54 57 58 59 57 54
1890.0 51 49 52 48 51 48 52 46 48 47
1930.0 44 47 46 45 45 47 44 49 45 44
1970.0 43 41 43 44 45 41 46 47 46 48
2010.0 50 46 48 50 45 46 43 40 39 44
2050.0 41 39 36 34 34 30 29 32 35 35
2090.0 39 42 40 45 45 47 42 48 47 45
2130.0 48 47 44 40 42 39 40 36 39 43
2170.0 45 49 48 51 48 50 46 43 36 38
2210.0 34 36 31 28 35 30 31 35 41 40
2250.0 37 39 41 39 35 39 35 38 40 34
2290.0 33 41 43 40 46 45 48 45 47 44
2330.0 41 43 41 43 44 36 33 39 56 34
2370.0 44 44 52 48 49 44 43 38 35 40
2410.0 38 41 35 35 33 33 32 28 21 22
2450.0 21 24 25 22 25 23 28 32 31 34
2490.0 27 25 29 32 33 25 24 19 19 21
2530.0 20 22 20 22 27 27 25 18 22 16
2570.0 13 18 8 8 11 9 9 12 21 28
2610.0 43 51 62 71 78 66 61 51 52 47
2650.0 56 62 65 66 55 54 43 27 20 21
2690.0 25 23 33 33 41 40 51 59 74 100
2730.0 118 128 126 126 112 99 88 90 99 107
2770.0 112 113 119 117 129 139 157 172 189 211
2810.0 244 271 278 289 288 295 294 328 354 402
2850.0 427 459 519 642 886 1335 2083 2885 3294 3216
2890.0 2789 2466 2392 2545 2801 2995 3046 3032 3004 3101
2930.0 3280 3584 3969 4162 4159 4230 4752 5879 7679 9543
2970.0 10000 8827 6419 4218 2507 1452 949 670 510 397
3010.0 312 261 219 193 167 153 132 137 131 129
3050.0 123 123 120 124 116 114 110 111 111 105
3090.0 106 108 105 101 91 90 97 95 89 96
3130.0 97 97 95 100 104 108 101 116 123 154
3170.0 143 149 139 130 139 139 145 124 125 123
3210.0 95 96 87 72 73 59 63 63 66 70
3250.0 67 63 61 55 50 56 44 33 31 36
3290.0 33 30 34 41 46 48 40 45 38 31
3330.0 27 32 34 36 29 35 40 32 48 46
3370.0 39 46 42 43 52 46 39 37 43 45
3410.0 43 29 28 16 25 32 28 28 17 25
3450.0 27 17 17 48 24 23 14 31 28 42
3490.0 47 37 27 28 29 18 41 32 42 33
3530.0 39 23 32 26 43 43 34 47 48 47
3570.0 48 40 39 43 49 36 44 51 41 47
3610.0 30 40 53 67 51 32 42 42 52 62
3650.0 65 55 62 52 66 52 49 56 54 49
3690.0 63 57 50 58 69 65 51 65 48 60
3730.0 52 62 66 65 50 60 62 67 67 69
3770.0 61 72 62 70 55 60 61 59 69 46
3810.0 69 74 63 81 80 79 90 73 53 60
3850.0 49 56 75 72 70 40 57 51 70 63
3890.0 58 57 84 91 63 68 74 67 51 48
3930.0 55 48 53 60 45 21 44 43 20 46
##END=
