##TITLE=Methan-d3-ol, sulfate (2:1)
##JCAMP-DX=4.24
##DATA TYPE=INFRARED SPECTRUM
##ORIGIN=Sadtler Research Labs Under US-EPA Contract
##OWNER=NIST Standard Reference Data Program
##CAS REGISTRY NO=15199-43-6
##MOLFORM=C 2 D 6 O 4 S
##XUNITS=1/CM
##YUNITS=ABSORBANCE
##XFACTOR=1.0
##YFACTOR=0.000138184
##DELTAX=4.0
##FIRSTX=450.0
##LASTX=3966.0
##FIRSTY=0.000000
##MAXX=3966
##MINX=450
##MAXY=1.38184
##MINY=0
##NPOINTS=880
##XYDATA=(X++(Y..Y))
450.0 0 55 37 60 106 94 87 147 247 288
490.0 304 368 357 356 332 305 289 257 273 287
530.0 311 375 423 500 565 621 639 570 494 481
570.0 498 489 612 678 688 554 371 298 311 230
610.0 141 102 80 71 75 68 62 71 61 60
650.0 67 81 83 81 65 97 114 107 134 138
690.0 161 175 246 334 487 677 945 1230 1523 1823
730.0 1961 1988 1774 1511 1255 1111 1147 1411 1854 2533
770.0 3240 3899 4371 4095 3879 3323 2505 1796 1233 825
810.0 553 427 350 302 259 246 234 212 217 208
850.0 215 223 228 226 229 246 269 290 306 333
890.0 359 387 410 429 426 437 435 444 482 542
930.0 639 737 854 948 1038 1073 1118 1178 1213 1285
970.0 1349 1487 1621 2052 2525 3071 4225 5752 7415 8922
1010.0 9436 10000 9251 8260 6686 5055 3869 3216 2904 2553
1050.0 1984 1476 1237 1122 1075 1099 1169 1263 1364 1401
1090.0 1420 1362 1254 1135 990 831 655 526 457 420
1130.0 526 470 418 458 471 490 487 489 512 443
1170.0 466 491 504 511 565 690 954 1451 2230 3320
1210.0 4488 5574 6384 6631 5846 5035 4035 2849 2067 1655
1250.0 1426 1275 1173 1107 1028 920 792 669 552 463
1290.0 393 361 333 289 261 260 242 245 232 230
1330.0 211 201 180 173 167 161 161 167 182 192
1370.0 243 302 393 522 723 1032 1430 1931 2460 3021
1410.0 3570 3975 4183 4330 4277 4067 4078 3053 2179 1714
1450.0 1023 533 262 181 145 121 105 94 96 78
1490.0 80 74 73 69 68 56 57 57 51 56
1530.0 48 56 50 49 46 57 57 56 58 58
1570.0 58 54 54 48 48 44 45 42 43 44
1610.0 41 41 37 37 32 35 29 29 30 27
1650.0 25 28 32 34 37 33 37 40 38 42
1690.0 47 52 55 64 73 88 98 109 132 152
1730.0 170 180 193 192 185 175 171 160 151 154
1770.0 153 158 153 145 138 137 144 155 147 147
1810.0 137 122 111 94 84 69 63 56 48 41
1850.0 41 43 41 42 40 40 41 43 44 46
1890.0 44 45 48 47 51 52 54 58 63 68
1930.0 77 82 89 91 97 100 99 97 97 92
1970.0 85 85 81 80 76 73 72 69 67 66
2010.0 67 65 71 80 92 108 128 146 162 177
2050.0 182 211 214 213 252 308 444 456 473 502
2090.0 522 524 507 469 418 368 330 304 291 293
2130.0 316 338 353 356 345 320 292 266 245 242
2170.0 255 268 282 311 349 379 430 468 508 517
2210.0 503 475 420 367 354 336 312 305 300 310
2250.0 328 348 384 404 451 451 440 422 386 354
2290.0 298 247 215 187 164 150 141 138 134 129
2330.0 129 116 107 108 90 87 84 98 89 84
2370.0 66 60 50 43 38 35 33 32 34 34
2410.0 33 33 34 36 38 38 39 40 38 36
2450.0 33 32 32 30 28 31 30 32 32 31
2490.0 31 35 33 31 33 32 32 31 33 31
2530.0 31 30 31 30 30 30 30 28 31 30
2570.0 30 31 33 31 34 34 36 37 40 41
2610.0 46 49 52 56 53 55 55 54 50 49
2650.0 46 38 36 33 30 28 30 30 28 29
2690.0 29 28 28 30 28 30 30 28 30 31
2730.0 28 29 29 31 30 27 29 27 28 27
2770.0 27 25 26 28 27 28 26 26 24 26
2810.0 28 28 27 27 27 25 24 27 26 26
2850.0 27 28 26 26 28 29 29 29 32 32
2890.0 33 36 41 40 41 41 38 41 39 38
2930.0 40 41 43 44 49 46 48 50 53 54
2970.0 55 51 50 47 47 47 43 45 43 41
3010.0 39 41 39 40 38 38 34 35 36 35
3050.0 33 33 36 35 34 35 36 37 32 33
3090.0 38 35 35 33 35 36 33 34 35 35
3130.0 34 32 32 34 32 34 36 34 34 36
3170.0 34 33 34 31 31 34 33 32 32 34
3210.0 34 32 33 31 33 30 28 28 27 27
3250.0 28 29 27 25 26 31 30 30 34 35
3290.0 32 33 32 29 32 34 38 41 38 44
3330.0 45 47 44 46 46 45 44 43 45 38
3370.0 35 36 35 32 38 37 34 36 34 36
3410.0 32 33 34 33 33 32 35 34 30 35
3450.0 30 33 35 33 33 37 35 31 35 38
3490.0 39 39 36 35 37 35 32 32 32 33
3530.0 33 35 35 37 36 34 40 38 35 36
3570.0 44 37 47 44 39 42 43 44 42 41
3610.0 40 36 37 38 49 53 60 59 64 73
3650.0 78 82 84 90 86 91 86 89 118 91
3690.0 75 83 96 89 94 98 93 92 86 76
3730.0 64 62 49 47 46 45 39 41 35 27
3770.0 41 42 36 26 35 36 33 39 41 36
3810.0 35 34 32 37 29 33 40 42 40 35
3850.0 35 34 32 35 38 36 32 29 33 28
3890.0 43 40 33 27 30 34 35 37 30 36
3930.0 34 35 39 42 35 34 29 33 30 25
##END=
