##TITLE=O,O,O-Trimethyl thiophosphate
##JCAMP-DX=4.24
##DATA TYPE=INFRARED SPECTRUM
##ORIGIN=Sadtler Research Labs Under US-EPA Contract
##OWNER=NIST Standard Reference Data Program
##CAS REGISTRY NO=152-18-1
##MOLFORM=C 3 H 9 O 3 P S
##XUNITS=1/CM
##YUNITS=ABSORBANCE
##XFACTOR=1.0
##YFACTOR=0.000142386
##DELTAX=4.0
##FIRSTX=450.0
##LASTX=3966.0
##FIRSTY=0.008828
##MAXX=3966
##MINX=450
##MAXY=1.42386
##MINY=0
##NPOINTS=880
##XYDATA=(X++(Y..Y))
450.0 62 77 171 58 118 164 98 141 111 119
490.0 87 14 33 9 73 35 0 48 2 40
530.0 50 45 74 63 55 42 44 62 80 84
570.0 81 55 66 62 61 83 99 138 145 160
610.0 136 148 137 118 107 113 81 72 55 59
650.0 59 59 57 30 39 18 44 47 51 43
690.0 15 20 30 26 30 21 19 24 47 31
730.0 27 46 60 54 86 92 110 152 157 188
770.0 214 230 266 315 365 415 528 680 875 1130
810.0 1419 1762 2225 2888 3667 4727 5389 5383 4711 3779
850.0 3070 2411 1790 1275 850 573 428 327 268 230
890.0 199 177 157 139 122 113 122 117 111 116
930.0 99 101 102 84 80 96 95 109 111 121
970.0 129 134 156 173 191 218 260 298 349 410
1010.0 480 587 756 989 1354 1918 2798 3983 5550 7143
1050.0 8828 9921 10000 9086 7158 5416 3819 2688 2074 1699
1090.0 1447 1247 1070 964 883 844 798 745 695 645
1130.0 613 564 501 486 466 452 455 453 483 532
1170.0 610 719 837 920 962 924 825 683 556 447
1210.0 381 346 315 289 263 257 227 206 191 172
1250.0 166 159 155 130 133 134 128 144 131 131
1290.0 127 126 106 92 98 87 80 81 63 60
1330.0 76 49 48 47 49 42 43 60 59 64
1370.0 61 59 64 74 82 87 76 80 64 65
1410.0 62 65 63 59 90 102 115 151 220 277
1450.0 354 357 348 335 308 275 255 224 205 167
1490.0 154 122 107 120 95 120 104 108 84 105
1530.0 112 105 99 110 111 110 101 74 79 79
1570.0 72 68 72 69 63 71 69 71 69 64
1610.0 73 52 57 46 65 67 51 65 50 67
1650.0 73 46 90 90 87 61 66 67 63 44
1690.0 49 41 21 28 30 40 43 31 30 28
1730.0 24 25 22 28 32 31 34 34 40 34
1770.0 26 27 26 42 37 39 39 40 35 37
1810.0 36 44 41 40 34 40 36 51 48 63
1850.0 63 67 76 88 87 102 112 98 115 130
1890.0 123 120 114 106 101 89 87 78 73 80
1930.0 76 72 64 53 54 49 50 47 43 41
1970.0 42 47 33 36 40 41 41 38 43 49
2010.0 43 36 47 47 36 46 39 35 35 34
2050.0 30 34 27 37 37 40 38 34 39 39
2090.0 33 36 45 49 43 47 46 43 37 42
2130.0 43 43 35 41 37 37 37 42 36 23
2170.0 31 30 25 29 36 31 32 32 21 27
2210.0 28 26 26 34 30 36 27 39 35 24
2250.0 35 36 39 40 32 32 32 31 33 38
2290.0 41 44 37 38 50 45 42 44 32 49
2330.0 34 23 37 40 37 22 42 38 36 10
2370.0 9 24 27 24 28 27 19 17 19 26
2410.0 17 18 20 11 8 17 15 18 18 18
2450.0 18 18 20 8 14 12 16 17 26 19
2490.0 11 12 18 10 18 17 12 11 14 18
2530.0 14 13 15 14 16 12 7 11 10 13
2570.0 3 1 7 12 13 12 13 6 16 6
2610.0 20 19 22 17 21 13 19 17 23 11
2650.0 21 18 14 7 8 10 13 10 11 7
2690.0 7 12 7 11 1 6 9 8 8 10
2730.0 1 12 7 1 14 14 10 9 15 14
2770.0 14 20 21 21 26 13 19 24 31 31
2810.0 35 38 46 47 57 62 84 101 154 276
2850.0 365 493 547 520 406 332 209 151 132 127
2890.0 146 141 162 172 196 220 236 264 255 245
2930.0 243 245 298 389 604 904 1123 1395 1386 1169
2970.0 965 687 459 393 371 384 422 425 429 425
3010.0 429 449 432 443 395 355 311 236 208 195
3050.0 176 156 147 148 143 138 146 134 132 122
3090.0 122 118 104 103 86 79 73 61 54 62
3130.0 66 52 41 42 43 37 40 32 33 30
3170.0 33 29 23 23 24 22 37 26 31 16
3210.0 22 29 32 20 24 32 19 23 32 26
3250.0 32 25 25 31 26 32 28 32 32 23
3290.0 17 32 31 35 30 17 36 30 25 22
3330.0 26 12 22 26 22 30 31 23 31 25
3370.0 31 19 28 24 24 31 30 28 24 34
3410.0 35 31 29 35 36 19 24 32 22 29
3450.0 28 29 27 38 40 31 32 32 43 32
3490.0 24 26 23 34 37 32 21 28 18 35
3530.0 32 34 38 25 25 24 31 31 18 35
3570.0 39 18 25 39 37 36 14 37 31 38
3610.0 45 41 27 22 27 0 17 25 22 16
3650.0 26 8 13 8 22 24 20 26 23 36
3690.0 36 26 28 48 34 41 40 62 50 46
3730.0 31 26 21 21 30 4 23 16 32 31
3770.0 49 48 46 32 31 36 33 35 53 33
3810.0 27 11 27 37 31 65 35 31 22 70
3850.0 56 4 12 30 43 42 17 16 43 20
3890.0 14 31 56 11 25 36 53 53 26 57
3930.0 37 42 13 56 55 37 21 42 47 2
##END=
