##TITLE=Ethanesulfonamide
##JCAMP-DX=4.24
##DATA TYPE=INFRARED SPECTRUM
##ORIGIN=Sadtler Research Labs Under US-EPA Contract
##OWNER=NIST Standard Reference Data Program
##CAS REGISTRY NO=1520-70-3
##MOLFORM=C 2 H 7 N O 2 S
##XUNITS=1/CM
##YUNITS=ABSORBANCE
##XFACTOR=1.0
##YFACTOR=0.000209442
##DELTAX=4.0
##FIRSTX=450.0
##LASTX=3966.0
##FIRSTY=0.012567
##MAXX=3966
##MINX=450
##MAXY=2.09442
##MINY=0
##NPOINTS=880
##XYDATA=(X++(Y..Y))
450.0 60 48 138 164 250 359 540 703 845 998
490.0 1195 1360 1366 1293 1219 1168 1137 1130 1124 1158
530.0 1311 1464 1602 1582 1578 1547 1356 1167 1092 897
570.0 752 654 639 659 683 724 758 799 807 822
610.0 816 837 802 779 754 723 707 682 660 625
650.0 610 585 585 569 595 616 669 747 878 1034
690.0 1214 1354 1535 1647 1683 1630 1550 1358 1114 911
730.0 739 613 539 486 466 456 461 481 505 537
770.0 570 603 619 635 653 665 673 690 724 777
810.0 856 960 1105 1297 1533 1821 2175 2568 2955 3321
850.0 3625 3850 3937 3863 3658 3325 2889 2422 1971 1560
890.0 1214 935 722 549 426 334 268 217 182 155
930.0 140 125 97 81 71 65 62 63 63 61
970.0 61 57 51 45 39 31 21 10 7 1
1010.0 0 5 17 35 65 94 130 180 229 270
1050.0 282 300 303 278 261 232 190 155 133 119
1090.0 108 97 91 92 95 108 128 172 247 383
1130.0 624 1049 1732 2709 3884 5013 5861 6632 7688 6832
1170.0 6285 5750 4534 3264 2172 1366 827 516 358 286
1210.0 261 265 283 312 342 369 396 404 390 368
1250.0 351 329 312 313 334 372 416 464 508 554
1290.0 591 597 554 525 512 495 485 486 521 596
1330.0 730 934 1246 1704 2372 3295 4482 5828 7020 8232
1370.0 8625 10000 9686 9141 7908 7110 5805 4101 2852 1991
1410.0 1386 941 683 545 447 395 377 381 395 416
1450.0 455 504 539 528 543 542 491 458 422 377
1490.0 332 307 291 290 303 321 352 404 480 602
1530.0 755 962 1183 1364 1536 1681 1732 1636 1494 1303
1570.0 1080 850 644 479 363 278 232 192 169 147
1610.0 136 127 121 116 112 111 107 105 106 105
1650.0 107 108 117 118 126 129 132 123 116 105
1690.0 100 95 90 85 89 97 104 111 122 130
1730.0 130 128 122 114 106 97 93 87 85 82
1770.0 80 74 74 69 67 57 52 48 43 43
1810.0 40 37 37 36 33 31 31 33 30 28
1850.0 27 29 28 27 25 23 25 23 22 21
1890.0 19 20 19 17 18 18 18 16 14 16
1930.0 15 15 15 13 14 14 14 14 15 14
1970.0 15 16 16 17 16 14 13 11 8 7
2010.0 5 2 1 0 0 0 0 0 0 1
2050.0 1 2 3 3 3 6 7 7 10 9
2090.0 8 10 12 12 12 11 12 10 10 8
2130.0 6 6 4 3 4 6 4 5 5 6
2170.0 7 9 7 8 10 9 8 8 8 6
2210.0 7 7 6 8 7 8 10 9 12 11
2250.0 11 11 12 10 10 9 7 5 4 1
2290.0 0 1 1 5 8 8 15 15 18 21
2330.0 15 18 16 9 5 9 1 7 2 0
2370.0 4 8 10 11 9 13 17 17 17 16
2410.0 18 18 19 17 19 20 19 20 18 18
2450.0 17 16 15 12 12 10 10 9 11 13
2490.0 15 19 23 29 35 41 51 56 62 65
2530.0 67 65 57 50 43 35 28 22 18 16
2570.0 13 13 12 13 11 12 13 12 12 13
2610.0 13 13 12 14 11 11 10 8 9 6
2650.0 5 3 3 1 2 0 0 0 1 2
2690.0 4 3 5 5 6 5 5 3 5 3
2730.0 1 3 2 5 8 9 9 9 9 9
2770.0 7 4 4 2 3 2 5 8 9 12
2810.0 15 20 23 25 29 31 31 29 30 27
2850.0 26 26 29 37 47 65 96 145 200 241
2890.0 259 302 318 297 291 271 232 208 206 241
2930.0 302 407 537 669 749 789 837 797 704 682
2970.0 623 561 555 599 669 779 830 801 809 770
3010.0 616 472 368 281 203 143 102 74 61 54
3050.0 52 50 53 54 57 62 65 71 72 77
3090.0 74 74 71 67 61 53 48 42 35 34
3130.0 30 29 25 25 24 25 24 25 28 29
3170.0 31 31 34 36 37 37 39 37 39 38
3210.0 42 45 49 54 58 66 70 75 80 84
3250.0 87 87 87 86 83 86 81 81 79 78
3290.0 80 83 84 86 86 92 95 101 109 120
3330.0 141 173 218 287 391 520 688 860 1023 1154
3370.0 1246 1288 1229 1112 985 818 638 484 363 278
3410.0 223 196 180 187 209 245 309 388 500 635
3450.0 782 933 1075 1192 1273 1306 1249 1148 1034 905
3490.0 757 612 489 388 308 244 195 156 125 106
3530.0 84 74 62 55 48 39 32 29 21 23
3570.0 17 15 11 8 9 4 6 0 4 2
3610.0 8 5 9 13 13 19 21 19 28 27
3650.0 38 35 32 34 27 31 17 19 7 9
3690.0 10 2 1 0 0 4 0 0 0 0
3730.0 0 4 0 0 3 0 0 0 0 0
3770.0 0 0 0 0 0 0 0 0 0 0
3810.0 0 0 0 0 0 0 0 0 0 0
3850.0 0 0 0 0 0 0 0 0 0 0
3890.0 0 0 0 0 0 0 0 0 0 0
3930.0 0 0 0 0 0 0 2 1 0 0
##END=
