##TITLE=2,3-Dimethoxybenzoic acid
##JCAMP-DX=4.24
##DATA TYPE=INFRARED SPECTRUM
##ORIGIN=Sadtler Research Labs Under US-EPA Contract
##OWNER=NIST Standard Reference Data Program
##CAS REGISTRY NO=1521-38-6
##MOLFORM=C 9 H 10 O 4
##XUNITS=1/CM
##YUNITS=ABSORBANCE
##XFACTOR=1.0
##YFACTOR=0.000066211
##DELTAX=4.0
##FIRSTX=450.0
##LASTX=3966.0
##FIRSTY=0.000199
##MAXX=3966
##MINX=450
##MAXY=0.66211
##MINY=0
##NPOINTS=880
##XYDATA=(X++(Y..Y))
450.0 3 8 16 38 126 90 129 90 184 121
490.0 192 179 180 202 178 143 259 238 273 249
530.0 331 385 446 455 557 490 609 653 644 690
570.0 591 705 779 948 970 1085 1056 1149 1079 1020
610.0 1072 899 1081 839 727 622 595 567 519 524
650.0 347 504 501 497 627 877 860 1079 1184 1381
690.0 1448 1331 1298 1111 935 881 886 921 905 973
730.0 872 1024 1241 1485 2324 2971 3372 2810 2191 1556
770.0 1070 726 510 472 413 489 544 730 927 931
810.0 849 795 606 517 393 330 236 272 217 210
850.0 223 201 211 241 256 228 281 379 388 411
890.0 419 388 302 301 257 229 234 264 250 207
930.0 225 199 200 238 237 239 260 252 331 374
970.0 433 543 712 995 1344 1751 2142 2398 2521 2515
1010.0 2486 2470 2481 2425 2513 2675 2830 2939 3035 3236
1050.0 3511 3853 4106 4125 3922 3672 3311 3000 2705 2375
1090.0 2033 1743 1561 1544 1632 1840 2179 2423 2589 2561
1130.0 2354 2069 1724 1479 1316 1234 1211 1257 1314 1428
1170.0 1536 1697 1927 2144 2350 2436 2486 2490 2600 2891
1210.0 3203 3517 3794 3858 3757 3578 3451 3533 3790 4233
1250.0 4886 5700 6702 7575 8006 7759 6782 5643 4533 3809
1290.0 3400 3249 3198 3211 3184 3155 3047 2953 2876 2866
1330.0 2930 3036 3164 3306 3446 3642 3860 4038 4164 4189
1370.0 4070 3806 3430 3045 2646 2313 2056 1832 1647 1563
1410.0 1562 1732 2144 2770 3412 3751 3653 3246 2593 2159
1450.0 2054 2172 2494 3021 3846 4900 5979 6455 6135 5099
1490.0 3652 2333 1498 1030 832 658 555 507 466 414
1530.0 375 375 374 372 342 372 396 482 533 692
1570.0 969 1345 1767 2005 1973 1727 1297 979 798 657
1610.0 534 423 373 320 301 276 271 261 244 244
1650.0 235 258 210 219 218 247 235 246 285 345
1690.0 373 420 498 559 656 749 866 995 1072 1183
1730.0 1337 1540 1847 2402 3228 4155 5068 5869 6487 7364
1770.0 8848 10000 9848 8545 6206 3838 2331 1544 1136 850
1810.0 686 564 482 435 405 380 352 317 273 239
1850.0 204 171 163 155 148 145 123 123 105 102
1890.0 93 103 103 103 107 117 146 147 162 162
1930.0 163 177 170 154 141 133 127 123 116 107
1970.0 116 107 116 114 108 107 102 113 113 111
2010.0 128 130 136 123 113 106 91 89 90 84
2050.0 88 83 84 77 68 60 60 52 52 45
2090.0 60 51 52 47 54 63 60 56 59 52
2130.0 58 59 59 49 58 53 61 65 61 54
2170.0 57 56 49 50 36 43 41 35 32 34
2210.0 19 23 21 23 25 34 33 33 27 33
2250.0 32 37 23 33 33 33 38 31 40 46
2290.0 62 79 79 94 103 101 107 119 130 132
2330.0 112 147 146 164 175 152 199 246 230 218
2370.0 185 148 116 95 60 26 29 22 23 22
2410.0 8 22 13 13 19 13 23 23 23 30
2450.0 23 31 30 31 47 47 38 47 47 47
2490.0 43 49 51 47 40 41 48 56 58 50
2530.0 47 51 65 62 85 76 73 89 81 81
2570.0 73 59 56 49 55 54 64 45 58 51
2610.0 52 51 45 38 53 52 41 50 51 51
2650.0 55 47 39 33 38 39 33 33 26 40
2690.0 44 44 54 48 50 57 57 63 56 50
2730.0 50 58 57 61 65 63 65 57 59 63
2770.0 61 76 76 68 83 82 99 100 118 138
2810.0 162 194 248 293 379 497 679 904 1122 1201
2850.0 1125 963 759 613 554 556 571 587 619 622
2890.0 636 643 677 707 743 790 845 893 941 996
2930.0 1113 1299 1618 1976 2316 2477 2426 2184 1883 1604
2970.0 1376 1195 1072 995 953 954 1012 1104 1236 1376
3010.0 1421 1343 1186 964 756 648 558 507 471 463
3050.0 433 425 410 425 450 490 545 636 683 702
3090.0 647 565 435 299 226 202 172 161 147 138
3130.0 125 131 127 124 118 121 126 122 120 114
3170.0 114 108 100 110 96 109 96 104 87 84
3210.0 102 94 100 100 110 106 96 115 122 124
3250.0 124 115 138 128 131 132 133 163 159 193
3290.0 195 218 254 276 311 342 389 421 522 578
3330.0 658 782 891 986 1102 1220 1296 1369 1432 1447
3370.0 1447 1412 1358 1281 1211 1147 1067 965 900 845
3410.0 774 708 637 586 531 502 479 439 387 350
3450.0 342 307 269 260 243 208 208 189 180 180
3490.0 156 150 150 146 135 138 145 155 149 149
3530.0 175 173 173 160 160 167 214 372 765 1243
3570.0 1643 1904 1717 1264 876 479 229 139 100 81
3610.0 78 62 61 63 39 48 38 29 37 27
3650.0 35 20 28 19 22 33 34 36 26 6
3690.0 28 25 15 22 16 9 14 16 26 40
3730.0 26 39 48 33 41 37 48 40 33 17
3770.0 9 19 36 27 24 10 22 24 33 25
3810.0 43 34 42 52 41 52 40 38 62 47
3850.0 46 49 53 59 53 53 69 68 77 90
3890.0 76 86 68 68 85 79 82 93 100 77
3930.0 54 63 62 72 79 108 0 8 8 8
##END=
