##TITLE=2-Naphthalenol, 6-bromo-
##JCAMP-DX=4.24
##DATA TYPE=INFRARED SPECTRUM
##ORIGIN=Sadtler Research Labs Under US-EPA Contract
##OWNER=NIST Standard Reference Data Program
##CAS REGISTRY NO=15231-91-1
##MOLFORM=C 10 H 7 Br O
##XUNITS=1/CM
##YUNITS=ABSORBANCE
##XFACTOR=1.0
##YFACTOR=0.000032452
##DELTAX=4.0
##FIRSTX=450.0
##LASTX=3966.0
##FIRSTY=0.066560
##MAXX=3966
##MINX=450
##MAXY=0.32452
##MINY=0
##NPOINTS=880
##XYDATA=(X++(Y..Y))
450.0 2051 1394 1303 750 2306 2552 1879 1946 693 1171
490.0 1040 1592 1958 1607 968 554 448 809 300 927
530.0 1116 495 594 699 712 957 11 485 354 412
570.0 228 26 477 589 353 399 514 620 153 390
610.0 194 340 512 420 655 551 708 797 930 811
650.0 500 618 460 483 253 351 432 267 334 431
690.0 378 343 202 188 255 251 328 279 272 406
730.0 316 400 449 427 324 355 355 398 397 366
770.0 418 553 805 1079 1459 1930 1924 1774 1699 1565
810.0 1248 1014 886 695 687 700 1007 1229 1478 1814
850.0 2049 1900 2067 2119 2335 2616 2452 2309 1849 1313
890.0 1241 1146 2076 5192 7300 6967 2992 976 741 801
930.0 722 781 650 507 479 399 373 463 436 503
970.0 389 408 399 338 349 375 370 350 309 349
1010.0 308 329 315 323 374 379 386 404 402 488
1050.0 572 807 1235 1761 2016 1603 1044 750 786 791
1090.0 645 615 585 701 860 983 1216 1724 2409 2731
1130.0 2777 2660 2917 3482 3958 3873 3175 2605 3022 4464
1170.0 5890 7400 9134 10000 8999 6665 5912 6822 7073 5686
1210.0 3508 2314 1908 1366 1071 924 799 817 843 967
1250.0 1233 1711 2447 3293 4140 4364 3400 2075 1117 894
1290.0 696 505 477 397 388 417 406 492 585 771
1330.0 994 1184 1368 1490 1466 1366 1493 1968 2367 2146
1370.0 1549 1310 1703 2022 2085 1678 1065 639 557 686
1410.0 761 856 942 952 840 655 490 445 425 389
1450.0 423 452 485 575 489 538 533 620 772 1069
1490.0 1529 1977 2942 3932 4576 4449 3466 2285 1138 568
1530.0 401 393 407 393 409 373 364 414 651 856
1570.0 1356 1841 2381 3088 3705 4902 6060 5982 5104 3218
1610.0 1966 1512 1469 1854 2474 3138 3202 2760 2145 1428
1650.0 1083 798 657 459 392 305 296 257 253 225
1690.0 267 284 293 332 295 299 265 287 325 336
1730.0 414 386 453 425 403 431 436 437 416 402
1770.0 395 403 410 390 356 324 297 291 259 244
1810.0 210 193 188 152 134 121 96 111 56 73
1850.0 54 79 82 73 105 96 138 141 150 178
1890.0 214 233 259 245 209 185 135 136 111 116
1930.0 94 67 65 69 45 40 38 41 37 37
1970.0 22 33 27 33 33 34 39 41 36 34
2010.0 34 36 30 26 36 37 36 24 28 26
2050.0 23 21 33 39 33 52 42 42 68 72
2090.0 83 58 47 45 37 42 44 53 53 57
2130.0 46 53 48 36 34 40 31 33 41 48
2170.0 46 37 33 23 28 28 25 29 29 9
2210.0 14 21 21 28 19 30 23 17 15 18
2250.0 25 21 28 33 29 43 62 59 78 86
2290.0 101 124 138 141 158 156 150 95 70 54
2330.0 31 23 12 16 140 60 7 14 5 9
2370.0 83 100 130 155 108 82 94 107 117 105
2410.0 104 91 82 79 65 78 60 61 55 60
2450.0 75 94 92 92 93 74 57 38 41 45
2490.0 48 55 55 61 56 61 53 48 58 62
2530.0 64 68 72 80 67 65 62 61 66 56
2570.0 54 59 50 61 47 53 53 53 57 55
2610.0 58 68 53 64 53 53 62 50 69 47
2650.0 37 45 38 50 34 37 29 31 50 41
2690.0 53 56 46 38 29 37 29 37 40 35
2730.0 40 44 53 55 54 48 47 73 62 64
2770.0 65 57 45 58 54 55 57 60 64 56
2810.0 54 55 61 41 55 56 66 59 70 52
2850.0 70 81 88 84 89 85 88 89 75 104
2890.0 101 107 93 120 106 107 121 129 132 143
2930.0 156 165 176 169 155 180 185 169 156 188
2970.0 204 200 198 189 200 241 250 242 282 301
3010.0 355 416 517 659 775 852 838 815 787 777
3050.0 822 975 1106 1228 1285 1270 1152 1028 827 595
3090.0 419 314 210 176 121 113 92 106 76 71
3130.0 84 87 87 77 89 80 85 92 57 64
3170.0 75 82 68 80 68 77 90 66 77 82
3210.0 90 67 96 74 85 84 79 97 88 99
3250.0 61 69 65 78 86 61 68 70 75 82
3290.0 82 83 77 87 114 94 108 91 105 109
3330.0 107 119 107 105 96 101 116 117 138 124
3370.0 126 147 119 132 149 118 103 112 122 125
3410.0 131 113 67 91 139 128 107 102 101 102
3450.0 94 117 94 103 97 106 123 117 106 86
3490.0 74 114 128 102 63 105 113 121 108 52
3530.0 105 125 144 165 82 148 222 338 383 340
3570.0 317 323 295 258 184 106 145 37 150 62
3610.0 93 68 88 209 142 323 679 1174 2717 4502
3650.0 5628 5358 3490 1980 781 226 55 63 73 20
3690.0 36 28 66 9 95 35 30 97 30 10
3730.0 90 21 6 20 6 22 5 32 9 45
3770.0 6 54 44 19 18 56 34 63 0 137
3810.0 24 117 72 98 76 56 2 109 41 97
3850.0 138 20 84 22 9 57 9 165 44 104
3890.0 49 11 32 78 164 70 37 39 31 122
3930.0 44 104 180 142 135 114 99 107 135 174
##END=
