##TITLE=Butane, 1,2,3,4-tetrabromo-
##JCAMP-DX=4.24
##DATA TYPE=INFRARED SPECTRUM
##ORIGIN=Sadtler Research Labs Under US-EPA Contract
##OWNER=NIST Standard Reference Data Program
##CAS REGISTRY NO=1529-68-6
##MOLFORM=C 4 H 6 Br 4
##XUNITS=1/CM
##YUNITS=ABSORBANCE
##XFACTOR=1.0
##YFACTOR=0.000072418
##DELTAX=4.0
##FIRSTX=450.0
##LASTX=3966.0
##FIRSTY=0.000000
##MAXX=3966
##MINX=450
##MAXY=0.72418
##MINY=0
##NPOINTS=880
##XYDATA=(X++(Y..Y))
450.0 0 51 150 22 76 80 80 136 161 208
490.0 120 134 102 132 101 162 142 130 118 126
530.0 180 155 183 153 205 205 211 207 215 224
570.0 194 266 209 172 263 219 208 247 352 393
610.0 433 393 347 276 249 209 218 198 219 256
650.0 273 297 334 381 377 589 642 447 515 597
690.0 718 784 806 728 606 483 401 368 364 355
730.0 371 394 423 473 495 532 547 544 544 579
770.0 633 713 856 1059 1402 1809 2419 3272 4529 5948
810.0 7017 7430 6672 5579 4398 3578 2945 2534 2193 1905
850.0 1654 1464 1332 1182 1076 978 890 803 739 684
890.0 626 580 536 494 470 444 432 398 380 364
930.0 342 325 317 308 310 325 319 315 327 333
970.0 345 378 417 479 554 698 914 1268 1846 2733
1010.0 3898 5240 6615 7707 8353 7993 7072 5668 4632 4126
1050.0 4169 4471 4967 5700 6538 7574 8494 9495 9900 10000
1090.0 9464 8603 7540 6468 5515 4541 3763 3072 2546 2110
1130.0 1783 1529 1331 1181 1065 966 869 778 675 590
1170.0 521 463 407 363 321 295 271 254 239 227
1210.0 232 232 241 260 278 313 366 461 596 812
1250.0 1154 1779 2894 4572 5921 5089 3227 1705 979 649
1290.0 485 402 345 330 298 241 215 194 171 159
1330.0 150 145 146 147 132 131 130 118 127 117
1370.0 127 119 133 132 145 167 187 215 238 254
1410.0 261 263 241 216 186 166 154 160 155 146
1450.0 139 136 117 108 107 96 97 96 96 82
1490.0 87 79 77 72 74 79 68 69 68 80
1530.0 83 92 90 104 116 128 116 123 108 109
1570.0 94 90 79 84 78 80 84 87 99 101
1610.0 112 102 104 91 95 85 87 75 74 54
1650.0 64 38 56 40 38 38 38 34 48 31
1690.0 45 43 45 51 54 55 49 48 49 45
1730.0 41 35 35 41 33 32 38 33 37 36
1770.0 44 39 48 46 56 44 55 46 45 43
1810.0 38 35 32 31 24 29 19 26 14 21
1850.0 18 18 18 19 16 16 17 18 22 17
1890.0 18 16 19 23 18 25 24 30 32 33
1930.0 35 38 41 42 50 49 50 44 41 40
1970.0 34 29 29 23 24 20 18 17 21 16
2010.0 16 12 15 15 14 13 17 14 19 20
2050.0 20 27 26 27 31 26 25 26 26 24
2090.0 23 24 24 23 23 20 20 22 18 23
2130.0 18 20 21 21 17 18 20 20 19 21
2170.0 19 20 18 19 20 21 20 22 20 19
2210.0 19 19 20 24 19 21 23 27 26 27
2250.0 28 29 28 29 29 30 34 47 49 63
2290.0 68 70 84 91 96 108 87 75 80 67
2330.0 58 58 53 74 88 100 87 85 104 63
2370.0 80 89 84 97 63 53 51 35 24 25
2410.0 31 62 37 19 31 26 82 20 33 18
2450.0 45 77 23 43 10 80 49 37 18 48
2490.0 68 53 20 36 45 74 15 32 26 64
2530.0 25 28 28 41 44 23 34 29 38 27
2570.0 36 52 45 33 40 60 51 43 39 77
2610.0 65 17 59 86 59 42 55 85 36 47
2650.0 105 58 51 69 78 22 76 83 49 54
2690.0 65 35 55 75 66 45 60 36 49 60
2730.0 85 31 52 44 42 77 100 39 51 56
2770.0 42 93 104 59 72 77 70 138 119 89
2810.0 105 91 108 161 113 104 111 100 140 145
2850.0 123 131 127 149 173 153 159 165 178 189
2890.0 203 228 263 299 379 405 379 374 296 319
2930.0 255 247 257 302 386 417 547 807 1316 1834
2970.0 2037 1737 1239 845 517 355 278 285 215 190
3010.0 202 260 253 163 155 183 178 153 179 198
3050.0 177 181 209 207 198 206 203 195 181 191
3090.0 175 163 169 147 160 145 153 127 122 103
3130.0 92 95 77 86 71 73 56 62 62 61
3170.0 60 55 57 44 50 46 43 44 43 43
3210.0 39 41 38 40 39 33 40 36 34 35
3250.0 34 35 36 30 30 32 36 37 32 29
3290.0 30 24 31 31 30 33 27 34 36 23
3330.0 32 36 36 27 28 25 31 31 28 24
3370.0 31 34 30 25 26 32 31 27 30 33
3410.0 29 18 26 32 26 25 39 31 27 28
3450.0 27 25 32 32 19 23 25 32 36 37
3490.0 26 26 41 38 35 26 27 27 25 36
3530.0 42 36 33 36 49 38 42 47 31 59
3570.0 46 41 42 41 50 51 61 43 56 37
3610.0 65 50 49 55 53 61 47 44 49 46
3650.0 77 57 62 58 44 59 28 74 50 62
3690.0 70 73 59 70 65 70 76 83 60 82
3730.0 76 83 90 95 90 78 89 69 63 58
3770.0 42 49 50 61 42 39 40 33 51 32
3810.0 38 48 21 42 29 11 30 33 33 43
3850.0 22 24 40 22 35 27 33 20 37 25
3890.0 22 31 14 12 46 25 20 27 54 25
3930.0 19 33 40 33 38 16 15 34 32 24
##END=
