##TITLE=3-Dodecanone
##JCAMP-DX=4.24
##DATA TYPE=INFRARED SPECTRUM
##ORIGIN=Sadtler Research Labs Under US-EPA Contract
##OWNER=NIST Standard Reference Data Program
##CAS REGISTRY NO=1534-27-6
##MOLFORM=C 12 H 24 O
##XUNITS=1/CM
##YUNITS=ABSORBANCE
##XFACTOR=1.0
##YFACTOR=0.000082648
##DELTAX=4.0
##FIRSTX=450.0
##LASTX=3966.0
##FIRSTY=0.004380
##MAXX=3966
##MINX=450
##MAXY=0.82648
##MINY=0
##NPOINTS=880
##XYDATA=(X++(Y..Y))
450.0 53 224 123 249 154 200 146 194 21 99
490.0 251 191 127 220 271 162 261 218 277 213
530.0 253 208 214 285 212 250 149 249 160 239
570.0 200 297 264 206 190 118 215 177 258 200
610.0 220 263 191 235 185 179 153 223 203 195
650.0 149 180 181 136 200 138 187 166 197 143
690.0 192 168 207 225 233 309 289 340 315 343
730.0 287 282 289 267 281 254 276 238 262 257
770.0 256 245 239 219 212 277 222 245 227 250
810.0 250 266 282 280 290 269 296 246 261 236
850.0 246 226 217 241 210 233 215 238 211 236
890.0 235 237 244 242 274 267 306 283 293 290
930.0 323 344 372 421 434 461 451 462 444 449
970.0 433 429 413 382 393 378 382 380 386 388
1010.0 430 467 489 521 526 540 497 485 444 437
1050.0 418 420 429 413 434 415 442 429 461 459
1090.0 502 575 657 805 838 941 820 829 795 795
1130.0 779 774 740 698 711 692 691 655 662 635
1170.0 641 659 658 644 599 579 536 520 473 459
1210.0 422 400 390 378 382 370 406 426 479 514
1250.0 510 483 452 431 409 414 419 424 408 418
1290.0 423 431 447 458 472 473 504 511 550 580
1330.0 637 706 782 907 1009 1093 1138 1130 1063 987
1370.0 890 815 759 747 707 620 537 481 471 479
1410.0 516 562 619 667 651 663 677 738 791 852
1450.0 987 1103 1315 1398 1332 1281 996 737 546 447
1490.0 340 329 316 295 373 422 302 281 249 196
1530.0 147 146 200 170 146 110 149 166 228 101
1570.0 153 138 194 109 145 137 125 153 151 184
1610.0 146 204 147 178 123 167 144 209 135 206
1650.0 141 301 152 135 204 192 235 257 263 413
1690.0 385 502 645 862 993 1313 1673 2266 2834 3328
1730.0 3551 3299 2654 2034 1431 1116 835 681 550 472
1770.0 445 396 339 294 259 232 222 188 152 143
1810.0 120 115 80 98 75 88 67 65 62 57
1850.0 66 48 55 39 63 48 60 41 49 45
1890.0 54 54 39 51 36 52 39 44 41 34
1930.0 49 36 49 33 54 35 40 36 43 35
1970.0 36 44 36 47 37 42 38 46 41 36
2010.0 40 37 44 35 45 41 45 43 47 46
2050.0 44 48 37 30 14 34 30 42 49 52
2090.0 55 48 46 29 35 23 26 17 23 24
2130.0 21 27 23 26 20 33 26 27 21 27
2170.0 31 20 29 24 27 26 31 28 27 34
2210.0 30 33 24 28 21 22 20 20 15 17
2250.0 24 18 22 14 26 17 22 14 13 9
2290.0 13 11 4 14 6 4 14 26 28 20
2330.0 40 16 16 5 3 3 35 20 5 3
2370.0 3 3 3 3 3 8 24 24 25 18
2410.0 31 25 31 24 29 21 21 22 20 20
2450.0 14 22 13 20 13 20 16 18 26 17
2490.0 19 23 23 18 18 24 18 26 27 34
2530.0 34 41 39 37 35 43 44 38 37 30
2570.0 33 27 36 31 35 40 36 38 34 42
2610.0 33 39 42 49 45 42 52 45 43 42
2650.0 58 69 93 98 116 117 113 111 103 110
2690.0 104 114 115 128 138 149 148 143 141 133
2730.0 141 136 150 152 162 160 156 163 151 158
2770.0 164 166 178 197 206 221 254 277 308 339
2810.0 384 410 440 482 525 583 651 741 872 1105
2850.0 1488 2091 2869 3582 3913 3797 3456 3096 2916 2812
2890.0 2761 2766 2899 3132 3499 3953 4554 5367 6507 7965
2930.0 9345 10000 9780 8910 7787 6614 5646 4990 4703 4715
2970.0 4612 4097 3367 2778 2391 2018 1623 1299 1048 870
3010.0 741 640 568 494 444 409 363 324 297 264
3050.0 242 216 207 196 179 182 171 180 164 175
3090.0 154 142 134 120 126 105 105 94 94 94
3130.0 91 90 87 86 81 105 87 94 92 97
3170.0 90 89 93 82 81 76 87 74 77 73
3210.0 88 77 79 80 77 85 88 86 71 75
3250.0 66 58 64 60 49 78 80 55 66 49
3290.0 60 62 49 67 43 50 53 40 37 38
3330.0 59 61 67 46 66 49 75 62 58 61
3370.0 71 57 74 68 73 72 59 72 62 72
3410.0 72 77 93 95 105 103 107 90 102 85
3450.0 85 91 77 83 68 64 48 63 54 39
3490.0 54 51 51 24 35 18 45 42 45 27
3530.0 56 54 50 46 6 59 44 37 57 81
3570.0 120 95 104 102 90 49 62 67 67 73
3610.0 41 44 57 66 47 80 60 44 41 54
3650.0 87 76 45 61 47 101 71 87 41 57
3690.0 62 47 3 30 42 85 52 50 58 0
3730.0 47 85 39 52 126 49 83 20 47 53
3770.0 50 49 10 82 24 31 50 85 28 108
3810.0 4 57 41 117 30 57 56 77 5 64
3850.0 22 128 58 69 61 46 36 18 65 51
3890.0 69 75 8 6 26 22 63 92 45 48
3930.0 84 27 68 63 59 103 99 44 11 26
##END=
