##TITLE=p-Anisic acid, 2-bromomethyl-, methyl ester
##JCAMP-DX=4.24
##DATA TYPE=INFRARED SPECTRUM
##ORIGIN=Sadtler Research Labs Under US-EPA Contract
##OWNER=NIST Standard Reference Data Program
##CAS REGISTRY NO=15365-25-0
##MOLFORM=C 10 H 11 Br O 3
##XUNITS=1/CM
##YUNITS=ABSORBANCE
##XFACTOR=1.0
##YFACTOR=0.000114291
##DELTAX=4.0
##FIRSTX=450.0
##LASTX=3966.0
##FIRSTY=0.014058
##MAXX=3966
##MINX=450
##MAXY=1.14291
##MINY=0
##NPOINTS=880
##XYDATA=(X++(Y..Y))
450.0 123 79 45 35 20 21 22 19 11 15
490.0 7 38 12 15 25 11 26 27 31 58
530.0 45 33 38 65 129 230 323 330 303 201
570.0 150 127 142 180 196 229 249 236 240 166
610.0 168 120 139 182 175 145 100 52 15 11
650.0 4 33 43 81 117 235 343 433 587 548
690.0 454 342 218 137 86 58 43 48 74 95
730.0 121 147 139 130 107 92 126 183 277 366
770.0 551 563 461 390 262 160 107 81 58 59
810.0 79 91 130 161 177 227 308 371 494 505
850.0 473 446 436 450 365 270 213 140 106 75
890.0 75 67 78 98 124 158 178 200 205 186
930.0 172 138 109 102 102 111 142 153 165 169
970.0 170 183 204 222 255 307 386 484 646 953
1010.0 1523 2518 3586 4459 4981 4789 4344 3996 3248 2398
1050.0 1665 1081 725 520 406 345 335 386 557 884
1090.0 1262 1553 1730 1711 1599 1552 1490 1386 1178 907
1130.0 629 441 483 758 1112 1225 1149 825 413 224
1170.0 170 157 163 185 233 280 315 341 344 317
1210.0 295 270 246 243 272 339 467 663 968 1478
1250.0 2270 3195 4011 4643 4882 4764 4507 4156 3595 2874
1290.0 2181 1463 831 545 569 671 881 1150 1339 1383
1330.0 1360 1283 1348 1596 1841 1951 1807 1398 882 532
1370.0 350 300 297 245 241 254 238 227 232 194
1410.0 195 224 224 214 290 349 470 633 714 723
1450.0 788 717 803 969 1036 1086 1088 1097 1422 2114
1490.0 2506 2410 2005 1153 606 408 296 246 254 181
1530.0 181 156 171 177 178 170 187 188 186 187
1570.0 197 233 306 395 558 814 1173 1685 2320 2953
1610.0 3323 3217 2770 2195 1785 1412 1116 809 590 461
1650.0 373 310 246 186 168 158 143 134 129 125
1690.0 110 110 132 148 152 152 179 211 233 250
1730.0 266 260 231 243 288 380 494 584 671 717
1770.0 786 906 1213 1763 2817 4392 6468 8338 9786 10000
1810.0 9188 7678 5829 4095 2738 1798 1187 795 538 375
1850.0 264 201 158 131 107 101 82 73 70 65
1890.0 66 62 62 64 69 73 84 98 106 99
1930.0 97 84 75 64 61 49 44 39 34 35
1970.0 32 31 26 25 21 21 26 28 34 42
2010.0 51 59 65 71 76 86 101 118 134 148
2050.0 156 162 155 144 123 103 81 64 49 34
2090.0 24 15 8 5 3 0 4 1 3 7
2130.0 6 11 10 10 12 14 14 17 17 21
2170.0 22 23 26 25 29 28 30 26 22 19
2210.0 15 14 15 18 19 21 19 18 15 12
2250.0 9 7 7 7 5 7 7 8 8 9
2290.0 8 7 4 3 1 0 3 4 8 14
2330.0 15 19 16 23 31 24 46 41 50 46
2370.0 46 43 37 32 27 26 30 35 37 34
2410.0 34 29 24 20 13 13 12 9 11 8
2450.0 8 11 11 16 12 13 15 15 15 15
2490.0 15 12 12 11 11 14 16 18 20 22
2530.0 26 28 29 30 25 24 25 28 35 38
2570.0 43 45 46 43 45 44 48 52 54 55
2610.0 54 49 48 39 35 33 29 24 24 23
2650.0 21 25 25 27 28 26 25 24 24 27
2690.0 30 32 32 30 27 25 24 21 23 24
2730.0 25 25 24 25 25 27 28 28 28 25
2770.0 29 29 29 32 34 35 43 46 50 55
2810.0 60 65 74 83 96 123 165 233 335 423
2850.0 458 442 370 279 228 220 242 299 384 500
2890.0 536 539 547 467 394 357 345 356 366 385
2930.0 413 485 603 824 1096 1345 1493 1446 1231 1010
2970.0 821 633 544 516 488 457 406 380 365 417
3010.0 522 602 582 504 356 223 209 177 177 165
3050.0 155 147 144 164 167 183 195 202 192 185
3090.0 172 154 149 134 128 121 110 89 73 70
3130.0 53 53 48 48 43 38 30 33 38 32
3170.0 34 36 42 37 37 32 28 21 22 22
3210.0 21 26 23 26 23 22 18 15 14 13
3250.0 13 9 14 11 12 13 10 9 12 14
3290.0 14 13 9 13 13 11 14 13 13 10
3330.0 14 17 17 12 12 14 13 17 13 13
3370.0 12 13 12 12 7 12 12 18 16 13
3410.0 14 12 13 12 16 12 9 9 11 8
3450.0 6 11 10 13 11 14 12 13 16 14
3490.0 12 9 8 19 11 10 13 10 12 18
3530.0 11 11 17 16 12 22 24 17 27 38
3570.0 50 52 66 85 88 105 94 71 60 38
3610.0 40 22 19 16 11 32 10 8 11 12
3650.0 23 8 18 12 13 11 18 27 2 21
3690.0 21 22 10 14 15 25 20 15 16 28
3730.0 22 35 21 29 32 18 33 7 17 14
3770.0 11 13 13 17 9 10 12 15 16 17
3810.0 9 15 16 19 5 14 22 18 11 14
3850.0 17 33 27 19 20 26 19 10 24 30
3890.0 24 33 20 36 25 25 14 28 27 17
3930.0 28 24 21 31 25 19 24 15 33 24
##END=
