##TITLE=3-n-Propyl-2,4-pentanedione
##JCAMP-DX=4.24
##DATA TYPE=INFRARED SPECTRUM
##ORIGIN=Sadtler Research Labs Under US-EPA Contract
##OWNER=NIST Standard Reference Data Program
##CAS REGISTRY NO=1540-35-8
##MOLFORM=C 8 H 14 O 2
##XUNITS=1/CM
##YUNITS=ABSORBANCE
##XFACTOR=1.0
##YFACTOR=0.000086316
##DELTAX=4.0
##FIRSTX=450.0
##LASTX=3966.0
##FIRSTY=0.038411
##MAXX=3966
##MINX=450
##MAXY=0.86316
##MINY=0
##NPOINTS=880
##XYDATA=(X++(Y..Y))
450.0 445 378 294 42 119 230 157 167 152 114
490.0 232 170 382 262 354 288 292 279 328 354
530.0 393 370 345 175 312 362 356 394 406 415
570.0 393 391 417 442 425 425 474 493 491 480
610.0 483 523 508 477 378 336 244 194 267 191
650.0 193 209 257 172 136 92 52 82 80 90
690.0 5 87 52 42 73 88 100 158 217 234
730.0 217 142 165 126 157 22 62 57 57 81
770.0 81 76 53 43 29 44 97 74 79 59
810.0 84 86 61 42 62 60 75 54 60 105
850.0 90 92 116 108 142 138 147 185 160 187
890.0 203 217 251 289 345 371 391 354 333 372
930.0 370 396 479 546 627 680 739 791 802 816
970.0 791 765 752 704 710 697 654 675 649 638
1010.0 660 625 592 540 472 447 441 450 445 446
1050.0 438 464 479 479 522 509 542 590 606 638
1090.0 699 752 921 1082 1172 1288 1199 1176 1151 1176
1130.0 1218 1382 1619 2010 2527 3044 3530 3837 3916 3747
1170.0 3456 3169 3009 3022 3022 2948 2792 2583 2361 2084
1210.0 1915 1803 1769 1818 1911 1991 2016 1987 1901 1800
1250.0 1704 1653 1566 1522 1452 1391 1318 1247 1187 1137
1290.0 1116 1086 1069 1092 1120 1127 1129 1154 1159 1197
1330.0 1225 1298 1462 1689 2101 2722 3585 4348 4906 4742
1370.0 4128 3329 2542 2147 1918 1782 1671 1540 1460 1376
1410.0 1359 1368 1419 1456 1476 1504 1516 1511 1468 1457
1450.0 1456 1506 1537 1582 1551 1532 1451 1252 1049 955
1490.0 825 772 732 728 734 758 723 739 776 733
1530.0 757 752 777 801 797 806 827 896 903 911
1570.0 950 980 1050 1079 1118 1185 1233 1274 1317 1347
1610.0 1380 1425 1392 1411 1363 1284 1254 1165 1083 1033
1650.0 970 955 891 872 882 935 1020 1083 1283 1447
1690.0 1745 2225 3147 4942 6438 8658 10000 9784 8786 7036
1730.0 5771 4639 4154 3634 3209 2726 2315 2084 1985 1936
1770.0 1954 1921 1818 1704 1501 1354 1357 1335 1186 1032
1810.0 856 643 453 315 226 191 128 111 103 89
1850.0 78 60 61 44 50 64 38 47 37 44
1890.0 43 36 40 33 26 31 21 31 28 19
1930.0 16 9 17 19 20 19 17 18 12 26
1970.0 25 17 20 11 19 28 16 17 13 9
2010.0 11 12 18 7 10 7 6 7 5 8
2050.0 8 6 6 0 2 4 2 7 2 1
2090.0 5 3 0 6 3 5 4 10 2 6
2130.0 5 3 4 6 5 7 5 7 8 4
2170.0 5 3 9 4 5 3 3 7 4 0
2210.0 4 4 5 6 4 7 2 7 3 5
2250.0 5 3 6 6 6 9 8 10 11 5
2290.0 9 10 12 9 9 15 14 15 16 26
2330.0 34 27 23 33 40 20 25 16 40 36
2370.0 25 35 27 27 23 24 19 24 25 24
2410.0 29 29 26 25 23 25 28 26 23 21
2450.0 22 23 25 31 29 28 27 30 30 32
2490.0 33 35 36 38 36 37 39 38 36 38
2530.0 38 39 41 40 41 46 45 41 47 45
2570.0 49 48 52 50 48 46 49 53 53 52
2610.0 54 60 57 57 55 59 58 59 60 59
2650.0 64 66 69 68 70 76 76 76 84 84
2690.0 81 77 83 78 76 84 84 79 87 93
2730.0 96 104 108 118 115 121 120 115 113 111
2770.0 104 109 115 123 133 134 140 148 154 164
2810.0 171 182 201 216 232 250 280 309 342 390
2850.0 443 522 624 763 954 1208 1539 1880 2122 2185
2890.0 2052 1816 1560 1408 1380 1464 1611 1784 1982 2209
2930.0 2484 2813 3169 3440 3553 3566 3611 3841 4417 5163
2970.0 5664 5373 4511 3304 2255 1524 1139 963 871 836
3010.0 839 826 785 712 638 552 497 448 421 390
3050.0 371 357 339 316 301 286 274 265 252 234
3090.0 225 211 194 195 175 164 151 145 144 132
3130.0 126 120 115 115 104 102 94 94 89 82
3170.0 94 89 83 81 85 82 81 83 70 69
3210.0 72 63 55 58 45 44 49 42 40 43
3250.0 44 40 38 34 34 30 32 35 36 28
3290.0 33 31 26 27 21 25 28 29 25 23
3330.0 25 28 20 22 18 24 26 36 23 37
3370.0 38 30 37 27 41 59 50 53 77 73
3410.0 102 111 130 138 168 188 191 184 176 174
3450.0 149 131 141 154 161 161 167 151 144 122
3490.0 109 96 97 83 85 80 69 79 70 73
3530.0 80 70 64 61 89 96 109 149 193 272
3570.0 306 279 326 341 308 216 208 181 155 129
3610.0 94 58 44 56 26 26 41 37 36 40
3650.0 36 63 30 40 5 27 41 51 30 12
3690.0 11 27 20 10 14 32 57 27 21 23
3730.0 23 40 52 31 46 38 43 55 29 44
3770.0 11 29 18 36 29 12 31 38 29 53
3810.0 27 53 11 64 38 48 23 61 43 43
3850.0 32 43 90 39 39 56 43 40 29 53
3890.0 54 22 85 57 60 47 49 69 58 46
3930.0 27 58 54 73 61 51 31 47 64 92
##END=
