##TITLE=Benzene, 1-fluoro-4-isothiocyanato-
##JCAMP-DX=4.24
##DATA TYPE=INFRARED SPECTRUM
##ORIGIN=Sadtler Research Labs Under US-EPA Contract
##OWNER=NIST Standard Reference Data Program
##CAS REGISTRY NO=1544-68-9
##MOLFORM=C 7 H 4 F N S
##XUNITS=1/CM
##YUNITS=ABSORBANCE
##XFACTOR=1.0
##YFACTOR=0.000096259
##DELTAX=4.0
##FIRSTX=450.0
##LASTX=3966.0
##FIRSTY=0.002406
##MAXX=3966
##MINX=450
##MAXY=0.96259
##MINY=0
##NPOINTS=880
##XYDATA=(X++(Y..Y))
450.0 25 44 62 25 85 72 58 88 97 133
490.0 170 261 334 459 648 670 752 702 567 464
530.0 387 355 317 291 269 243 225 181 133 118
570.0 93 111 91 110 111 118 116 136 185 187
610.0 210 200 196 183 160 136 127 81 98 109
650.0 134 139 120 93 64 37 37 23 31 34
690.0 30 19 14 20 8 26 26 22 16 13
730.0 1 9 24 33 31 32 32 26 23 23
770.0 29 36 30 22 37 46 50 48 58 87
810.0 134 214 334 472 620 772 1044 1073 787 682
850.0 510 329 210 156 145 127 117 98 86 76
890.0 73 71 87 98 107 106 118 132 161 223
930.0 317 416 475 481 432 359 271 188 124 102
970.0 79 59 52 44 36 35 34 30 38 40
1010.0 85 98 93 66 31 24 19 20 20 19
1050.0 20 23 24 30 34 42 64 86 112 152
1090.0 171 166 163 122 95 73 53 43 38 33
1130.0 29 26 32 44 140 365 356 377 148 43
1170.0 40 44 48 57 66 80 90 107 126 171
1210.0 265 373 410 475 745 1698 2733 2965 2480 1231
1250.0 763 696 638 507 323 163 99 75 65 58
1290.0 57 53 57 53 59 51 48 42 51 54
1330.0 64 64 39 32 34 34 32 24 17 21
1370.0 27 16 26 31 21 27 23 19 35 41
1410.0 38 59 23 51 59 120 156 158 148 81
1450.0 51 37 16 45 60 66 43 56 81 89
1490.0 160 490 1456 3668 5420 5013 3487 834 179 157
1530.0 155 164 137 91 68 75 58 24 53 83
1570.0 92 111 127 141 175 183 203 193 175 135
1610.0 106 99 79 96 83 110 93 84 91 77
1650.0 42 28 52 48 46 38 20 46 16 8
1690.0 27 35 1 3 19 40 29 3 37 50
1730.0 38 15 47 54 52 43 52 47 42 52
1770.0 40 38 54 54 58 53 50 55 50 66
1810.0 62 61 64 54 47 41 52 64 58 61
1850.0 84 105 120 136 147 153 177 182 184 173
1890.0 158 151 143 139 143 145 152 164 174 202
1930.0 230 263 304 343 400 468 540 623 712 805
1970.0 904 1005 1118 1265 1449 1676 1955 2271 2605 2917
2010.0 3191 3423 3632 3880 4228 4762 5631 6934 8797 10000
2050.0 9567 8014 6042 4353 3158 2442 2086 1991 2064 2237
2090.0 2479 2855 3480 4227 4722 4659 4054 3197 2372 1733
2130.0 1331 1129 1049 1018 972 955 984 1043 1074 1062
2170.0 1001 908 805 698 607 544 496 463 425 384
2210.0 340 291 247 216 191 173 156 144 131 115
2250.0 100 88 76 67 61 54 52 45 43 43
2290.0 42 43 47 46 50 54 54 52 50 40
2330.0 36 21 10 18 30 40 27 29 15 20
2370.0 24 27 31 38 37 33 32 34 38 48
2410.0 57 61 67 61 53 43 36 35 33 31
2450.0 35 33 34 40 46 55 62 68 71 74
2490.0 75 69 62 51 47 49 50 49 46 50
2530.0 53 52 54 51 57 62 73 83 90 82
2570.0 68 51 36 26 17 17 13 14 16 14
2610.0 15 16 18 20 20 17 16 17 18 18
2650.0 19 22 27 36 42 48 55 61 69 71
2690.0 77 90 107 126 147 142 119 85 54 36
2730.0 23 19 16 13 10 9 11 11 11 13
2770.0 13 7 5 5 4 5 1 3 4 4
2810.0 3 7 6 5 7 9 11 11 14 18
2850.0 21 19 23 22 21 16 14 14 10 10
2890.0 10 7 4 5 5 7 7 7 11 11
2930.0 15 15 14 14 17 21 19 20 26 23
2970.0 30 34 35 37 33 29 27 19 12 8
3010.0 11 12 6 7 10 13 17 23 27 31
3050.0 42 64 84 91 80 57 35 36 38 39
3090.0 38 34 23 22 17 18 18 19 20 20
3130.0 21 16 10 7 6 3 2 4 4 4
3170.0 0 0 0 2 4 0 2 3 3 3
3210.0 6 2 2 1 3 5 3 7 2 2
3250.0 0 3 4 4 7 2 6 1 10 7
3290.0 5 5 1 8 7 6 1 4 6 6
3330.0 9 6 6 5 9 7 7 11 5 11
3370.0 7 8 7 4 8 8 10 4 7 8
3410.0 5 6 10 7 7 4 10 8 8 6
3450.0 10 12 8 5 4 4 6 7 4 9
3490.0 2 11 14 8 7 11 10 1 8 9
3530.0 8 6 6 2 8 14 7 8 6 7
3570.0 7 8 10 7 10 2 1 4 5 7
3610.0 10 12 10 10 12 9 3 11 10 9
3650.0 14 12 18 17 11 12 12 16 12 19
3690.0 12 11 13 12 10 14 11 15 16 10
3730.0 13 8 16 12 9 14 6 19 14 17
3770.0 20 19 20 5 11 10 20 22 22 12
3810.0 15 14 8 14 14 16 9 20 24 18
3850.0 12 6 7 6 25 27 14 32 24 14
3890.0 31 15 15 11 20 27 20 16 16 21
3930.0 13 20 24 6 22 5 26 17 17 16
##END=
