##TITLE=3-Decenoic acid
##JCAMP-DX=4.24
##DATA TYPE=INFRARED SPECTRUM
##ORIGIN=Sadtler Research Labs Under US-EPA Contract
##OWNER=NIST Standard Reference Data Program
##CAS REGISTRY NO=15469-77-9
##MOLFORM=C 10 H 18 O 2
##XUNITS=1/CM
##YUNITS=ABSORBANCE
##XFACTOR=1.0
##YFACTOR=0.000051578
##DELTAX=4.0
##FIRSTX=450.0
##LASTX=3966.0
##FIRSTY=0.014751
##MAXX=3966
##MINX=450
##MAXY=0.51578
##MINY=0
##NPOINTS=880
##XYDATA=(X++(Y..Y))
450.0 286 171 30 394 49 197 84 76 355 67
490.0 92 227 338 467 393 436 489 338 495 574
530.0 594 634 621 744 814 943 1099 1221 1430 1629
570.0 1720 1811 1827 1783 1695 1653 1718 1712 1762 1701
610.0 1614 1639 1606 1581 1510 1333 1302 1187 1113 986
650.0 898 802 681 621 542 494 476 451 385 374
690.0 381 410 417 428 444 449 465 484 525 435
730.0 413 380 331 356 308 190 196 194 208 206
770.0 198 137 148 143 89 86 76 122 147 57
810.0 112 158 73 113 152 144 138 142 152 129
850.0 143 185 229 267 237 280 314 258 278 269
890.0 232 258 266 251 218 232 242 260 258 256
930.0 253 326 299 394 437 587 866 1117 1486 1705
970.0 1680 1455 1198 949 750 635 514 454 402 372
1010.0 385 383 360 416 412 412 447 498 547 637
1050.0 705 805 899 962 1054 1160 1267 1422 1601 1847
1090.0 2147 2654 3333 4292 5504 6544 7064 6891 6303 5612
1130.0 5019 4520 4012 3647 3290 2997 2734 2421 2165 1943
1170.0 1709 1572 1534 1449 1416 1287 1214 1185 1164 1127
1210.0 1137 1098 1047 932 882 810 781 715 715 718
1250.0 697 714 721 731 731 744 787 769 783 808
1290.0 813 844 834 814 865 851 847 816 812 863
1330.0 909 999 1087 1227 1349 1425 1509 1572 1553 1712
1370.0 1592 1616 1497 1282 1172 884 756 624 553 593
1410.0 491 612 588 705 662 651 696 716 778 822
1450.0 851 912 1007 978 964 867 773 533 382 306
1490.0 197 216 151 159 165 146 59 109 141 153
1530.0 48 115 105 188 67 9 100 97 198 15
1570.0 36 127 14 88 18 20 31 6 47 29
1610.0 57 67 136 104 120 142 152 209 293 321
1650.0 500 643 673 619 487 369 284 245 189 311
1690.0 204 259 311 439 449 438 563 661 756 897
1730.0 1080 1334 1641 2054 2629 3445 4462 5452 6151 6633
1770.0 6961 7501 8197 8564 8156 7273 5903 4771 3786 2908
1810.0 2245 1636 1212 881 671 495 337 294 244 193
1850.0 167 142 122 135 114 85 82 73 82 63
1890.0 91 54 48 67 54 43 36 54 57 15
1930.0 30 35 39 45 36 46 53 8 59 47
1970.0 42 41 46 43 38 16 46 22 36 29
2010.0 38 42 32 36 63 41 46 37 26 19
2050.0 41 14 11 31 15 21 52 14 21 29
2090.0 25 28 5 15 19 11 20 16 7 19
2130.0 16 17 19 17 22 24 36 19 24 22
2170.0 27 32 39 33 30 43 46 33 35 39
2210.0 46 33 39 42 48 55 40 45 45 41
2250.0 38 41 40 33 27 32 42 33 35 36
2290.0 48 45 37 36 35 20 36 28 46 25
2330.0 19 0 14 11 29 14 46 5 49 38
2370.0 53 64 42 30 39 49 51 30 44 45
2410.0 52 38 47 38 41 39 51 46 46 51
2450.0 40 37 40 48 41 56 49 50 49 49
2490.0 41 44 55 42 55 46 50 54 49 53
2530.0 48 50 46 58 59 56 66 63 61 62
2570.0 57 69 66 71 68 70 68 71 66 71
2610.0 75 75 80 86 86 83 90 85 98 107
2650.0 100 114 114 121 125 129 125 132 140 132
2690.0 135 135 125 126 127 122 131 126 135 135
2730.0 137 140 143 148 157 158 147 141 151 159
2770.0 162 163 167 175 195 193 214 243 256 274
2810.0 307 320 357 385 444 502 582 684 837 1102
2850.0 1479 2025 2717 3375 3763 3732 3394 3006 2795 2644
2890.0 2449 2261 2255 2459 2819 3302 3927 4732 5821 7297
2930.0 8861 9964 10000 8956 7390 5825 4697 4233 4400 4858
2970.0 5099 4577 3465 2388 1761 1413 1220 1081 982 892
3010.0 821 754 709 676 661 647 663 656 630 588
3050.0 524 466 408 357 325 287 261 245 221 203
3090.0 197 197 192 187 177 170 160 166 148 143
3130.0 158 147 137 130 140 124 124 138 132 150
3170.0 128 121 130 121 119 136 121 118 118 108
3210.0 107 96 113 102 96 97 99 98 87 88
3250.0 78 78 82 86 80 84 66 75 87 69
3290.0 88 73 71 73 59 76 76 77 65 72
3330.0 80 77 73 73 62 48 40 61 51 71
3370.0 64 55 75 65 61 51 61 64 47 63
3410.0 65 61 58 49 63 64 52 49 51 66
3450.0 71 41 59 62 49 61 42 57 62 60
3490.0 59 90 62 81 69 100 96 105 96 130
3530.0 126 154 183 191 203 280 333 513 715 1092
3570.0 1761 2927 3800 3867 2886 1913 1110 599 356 232
3610.0 216 183 183 91 124 146 136 63 87 99
3650.0 186 131 89 75 28 162 90 214 40 67
3690.0 133 73 60 60 74 119 116 72 59 105
3730.0 74 143 170 48 244 125 208 48 68 78
3770.0 89 90 31 78 60 31 70 113 159 110
3810.0 69 99 113 183 89 79 127 212 200 43
3850.0 161 167 223 87 133 206 95 147 135 142
3890.0 100 131 82 169 144 106 161 75 102 53
3930.0 146 108 147 125 151 147 90 125 148 132
##END=
