##TITLE=Butanoic acid, cyclohexyl ester
##JCAMP-DX=4.24
##DATA TYPE=INFRARED SPECTRUM
##ORIGIN=Sadtler Research Labs Under US-EPA Contract
##OWNER=NIST Standard Reference Data Program
##CAS REGISTRY NO=1551-44-6
##MOLFORM=C 10 H 18 O 2
##XUNITS=1/CM
##YUNITS=ABSORBANCE
##XFACTOR=1.0
##YFACTOR=0.000143591
##DELTAX=4.0
##FIRSTX=450.0
##LASTX=3966.0
##FIRSTY=0.000000
##MAXX=3966
##MINX=450
##MAXY=1.43591
##MINY=0
##NPOINTS=880
##XYDATA=(X++(Y..Y))
450.0 0 186 295 220 244 223 183 176 192 233
490.0 141 179 162 178 153 137 181 154 151 194
530.0 170 205 218 170 172 174 158 176 153 172
570.0 191 151 177 170 224 166 167 179 189 178
610.0 188 198 199 211 199 182 177 210 191 184
650.0 188 189 188 178 172 151 175 162 171 170
690.0 167 181 176 182 179 197 188 197 168 232
730.0 226 217 198 208 200 208 224 213 220 215
770.0 213 213 241 241 266 280 290 300 298 338
810.0 335 330 314 300 293 282 288 290 288 276
850.0 266 262 291 309 317 319 318 316 325 369
890.0 413 456 475 494 498 520 538 541 523 501
930.0 495 487 491 542 658 801 935 1049 1115 1132
970.0 1071 906 697 521 396 349 351 395 500 681
1010.0 884 1122 1399 1484 1472 1338 1375 1718 1969 2050
1050.0 1802 1475 1191 1007 969 1009 1123 1280 1494 1710
1090.0 1881 1932 1867 1724 1541 1374 1248 1259 1404 1528
1130.0 1479 1281 1055 975 1051 1235 1470 1715 2028 2510
1170.0 3353 4603 6108 7197 7335 6437 5136 4201 3592 3115
1210.0 2620 2239 1997 1901 1924 2039 2203 2310 2394 2543
1250.0 2833 3159 3280 3064 2628 2155 1772 1529 1405 1403
1290.0 1440 1470 1471 1401 1257 1083 958 892 880 892
1330.0 931 986 1053 1163 1275 1381 1486 1562 1553 1393
1370.0 1169 1005 951 945 889 773 638 515 445 407
1410.0 391 409 409 464 522 609 668 735 831 962
1450.0 1157 1318 1375 1323 1140 928 712 543 433 346
1490.0 293 276 248 232 208 191 193 190 174 192
1530.0 181 185 177 161 169 180 174 154 169 178
1570.0 174 175 178 177 185 180 186 181 185 181
1610.0 180 186 178 187 176 193 186 188 197 192
1650.0 182 185 197 200 207 207 204 225 220 232
1690.0 267 305 329 387 449 512 549 615 748 990
1730.0 1401 2141 3324 4812 6354 6983 6519 5048 3370 2111
1770.0 1322 894 691 564 495 426 390 351 315 292
1810.0 270 252 240 229 212 206 197 207 190 182
1850.0 184 185 178 172 170 160 167 163 159 161
1890.0 157 160 156 159 152 153 152 156 146 153
1930.0 156 154 155 149 154 151 156 156 156 149
1970.0 151 154 151 151 152 152 154 155 157 163
2010.0 165 169 173 172 175 175 175 174 175 172
2050.0 172 175 174 180 181 188 184 180 175 172
2090.0 167 166 165 161 160 153 151 147 147 145
2130.0 144 142 139 142 138 145 144 142 142 140
2170.0 144 141 142 142 143 142 143 140 142 140
2210.0 140 143 141 141 139 141 144 142 142 144
2250.0 145 140 143 143 145 147 147 150 149 149
2290.0 149 149 141 146 140 142 144 145 144 151
2330.0 148 145 153 152 153 156 165 162 157 149
2370.0 157 149 149 147 147 148 143 150 152 145
2410.0 147 145 148 145 145 142 142 142 142 143
2450.0 137 138 135 138 137 140 138 142 145 143
2490.0 147 146 146 142 147 147 147 146 149 147
2530.0 149 152 146 146 144 143 147 150 152 154
2570.0 149 147 144 146 148 149 153 151 149 143
2610.0 140 139 132 129 126 127 130 132 140 143
2650.0 147 149 163 179 196 205 212 210 206 203
2690.0 201 202 197 197 197 196 194 194 190 183
2730.0 187 184 183 186 191 191 191 195 196 193
2770.0 191 200 209 216 221 232 242 253 260 264
2810.0 267 270 276 284 298 312 323 350 379 447
2850.0 584 860 1370 2048 2625 2877 2685 2351 2039 1770
2890.0 1548 1339 1221 1198 1275 1422 1648 1975 2421 3044
2930.0 3883 5053 6740 8900 10000 9601 7520 5495 4215 3448
2970.0 3093 2914 2727 2367 1901 1442 1086 840 661 534
3010.0 443 386 343 309 295 281 265 251 239 223
3050.0 221 210 212 199 197 196 192 193 194 189
3090.0 180 182 179 183 172 173 176 175 168 168
3130.0 175 168 170 179 174 179 179 173 170 170
3170.0 168 167 163 153 159 160 159 156 156 155
3210.0 156 148 144 160 155 149 140 138 149 142
3250.0 126 131 133 143 138 134 140 137 144 142
3290.0 140 138 147 140 142 137 138 137 147 149
3330.0 146 144 140 146 149 146 138 136 146 141
3370.0 148 137 136 142 138 142 131 149 152 130
3410.0 140 155 156 150 141 150 159 152 146 142
3450.0 142 138 157 168 159 181 189 198 191 193
3490.0 181 175 150 153 149 132 144 138 144 127
3530.0 129 129 135 146 136 136 132 134 132 130
3570.0 140 140 141 147 147 147 140 141 141 138
3610.0 143 147 133 154 146 157 137 139 137 153
3650.0 152 143 137 144 177 130 141 146 154 154
3690.0 149 158 156 155 134 140 137 148 147 156
3730.0 146 152 153 157 154 152 150 157 148 146
3770.0 163 154 142 154 142 145 145 147 155 144
3810.0 147 141 152 147 159 141 151 162 158 139
3850.0 149 153 156 153 150 138 126 138 131 150
3890.0 150 143 147 147 150 134 143 138 155 127
3930.0 155 152 144 150 150 142 139 141 146 177
##END=
