##TITLE=Benzothiazin-4-one,(4H)1,3-, 2,3-dihydro-2-imino-3-isopropyl-
##JCAMP-DX=4.24
##DATA TYPE=INFRARED SPECTRUM
##ORIGIN=Sadtler Research Labs Under US-EPA Contract
##OWNER=NIST Standard Reference Data Program
##CAS REGISTRY NO=15568-03-3
##MOLFORM=C 11 H 12 N 2 O S
##XUNITS=1/CM
##YUNITS=ABSORBANCE
##XFACTOR=1.0
##YFACTOR=0.000139557
##DELTAX=4.0
##FIRSTX=450.0
##LASTX=3966.0
##FIRSTY=0.011444
##MAXX=3966
##MINX=450
##MAXY=1.39557
##MINY=0
##NPOINTS=880
##XYDATA=(X++(Y..Y))
450.0 82 86 50 54 115 159 151 190 218 238
490.0 233 249 290 296 263 166 106 80 59 60
530.0 85 118 117 109 63 45 5 18 12 13
570.0 14 14 26 10 7 2 17 26 48 80
610.0 117 150 156 119 88 55 45 48 61 68
650.0 109 171 226 205 192 134 130 170 251 264
690.0 215 156 102 84 54 63 49 66 112 304
730.0 769 1348 2223 2172 1411 833 369 221 227 260
770.0 378 493 638 717 740 711 700 669 642 573
810.0 489 417 336 315 285 272 242 253 310 397
850.0 469 498 529 601 718 710 598 366 175 96
890.0 60 52 46 61 65 91 104 110 98 76
930.0 61 43 42 43 53 49 55 51 45 36
970.0 32 35 35 39 39 46 46 55 60 68
1010.0 86 103 126 161 235 372 448 431 341 235
1050.0 257 327 451 643 887 1195 1576 1970 2256 2343
1090.0 2169 1841 1435 1061 798 668 645 672 727 729
1130.0 706 651 561 495 476 524 650 844 1041 1169
1170.0 1149 1025 883 848 981 1162 1177 992 690 437
1210.0 339 326 358 391 414 424 426 444 494 575
1250.0 630 671 717 848 1012 1114 1089 948 764 619
1290.0 575 598 685 780 903 1107 1544 2431 3971 6262
1330.0 8760 10000 9074 6099 3351 1883 1270 1013 958 953
1370.0 1057 1096 1094 1197 1223 1144 985 881 924 1062
1410.0 1187 1155 1023 802 704 833 1218 1828 2253 2243
1450.0 1761 1201 845 693 609 574 578 532 434 340
1490.0 283 240 229 214 220 233 224 257 302 337
1530.0 381 434 523 619 743 861 1058 1270 1616 1933
1570.0 2184 2379 2759 3465 4175 4730 4350 3627 2735 2054
1610.0 1508 1148 919 746 638 536 492 446 431 420
1650.0 449 452 487 549 681 888 1301 2067 3405 4755
1690.0 5533 5046 3829 2346 1377 922 671 577 468 449
1730.0 398 387 319 276 228 187 155 121 113 94
1770.0 104 87 79 71 63 53 49 48 47 52
1810.0 58 73 72 76 63 51 41 38 52 52
1850.0 45 26 21 15 21 19 14 15 13 14
1890.0 15 17 13 19 25 30 32 32 34 38
1930.0 50 59 60 47 38 28 35 40 43 39
1970.0 22 15 10 11 9 15 14 11 9 5
2010.0 2 1 4 2 1 1 2 0 3 2
2050.0 1 4 3 7 5 7 6 6 4 5
2090.0 4 2 4 2 3 0 3 0 0 1
2130.0 2 3 3 5 2 7 5 9 9 9
2170.0 11 13 13 12 16 14 17 16 18 18
2210.0 18 14 14 15 13 14 12 15 13 14
2250.0 14 16 19 21 20 20 21 20 26 28
2290.0 31 35 39 44 44 50 47 44 44 42
2330.0 35 28 25 35 35 43 41 37 35 23
2370.0 27 27 37 34 26 15 12 11 8 10
2410.0 8 10 8 7 6 3 2 2 3 1
2450.0 4 2 5 3 8 5 4 5 4 4
2490.0 6 10 10 12 12 9 9 11 13 13
2530.0 12 10 12 10 10 12 12 13 13 12
2570.0 13 14 15 17 16 16 18 20 19 18
2610.0 17 14 11 4 7 8 9 7 8 8
2650.0 13 18 22 22 19 18 16 14 10 11
2690.0 11 10 11 14 17 16 19 19 23 24
2730.0 29 29 28 28 25 24 21 23 23 24
2770.0 25 22 24 26 27 28 28 29 31 33
2810.0 36 40 46 48 53 62 64 70 73 76
2850.0 85 95 106 121 142 167 206 248 293 323
2890.0 338 339 339 333 330 323 315 323 339 385
2930.0 462 579 723 844 879 787 631 504 490 631
2970.0 950 1247 1265 1040 744 564 493 422 359 317
3010.0 312 320 306 258 198 150 123 114 109 106
3050.0 108 122 169 250 352 428 509 574 556 457
3090.0 280 132 90 71 60 57 58 58 59 62
3130.0 65 69 73 68 62 56 50 43 44 41
3170.0 40 37 37 33 27 28 23 22 21 15
3210.0 17 17 16 17 17 14 17 11 16 15
3250.0 16 18 19 18 21 22 20 17 20 18
3290.0 21 24 28 28 35 41 61 90 153 265
3330.0 380 467 444 342 222 116 77 73 73 69
3370.0 61 46 37 33 28 33 29 29 23 27
3410.0 26 22 20 19 14 18 16 14 13 13
3450.0 16 12 10 11 12 10 10 7 9 8
3490.0 12 10 6 7 4 7 9 5 8 10
3530.0 10 5 9 5 8 6 3 7 8 9
3570.0 10 8 13 9 10 6 6 7 6 9
3610.0 12 11 10 6 4 9 11 6 6 3
3650.0 4 5 5 10 12 7 8 8 8 16
3690.0 13 10 8 7 6 15 11 14 14 17
3730.0 21 19 12 12 25 8 20 17 13 15
3770.0 11 15 10 15 11 7 6 11 13 14
3810.0 18 14 25 21 17 17 16 13 21 18
3850.0 10 10 10 17 19 17 10 15 10 21
3890.0 14 16 14 13 12 21 17 11 13 27
3930.0 24 22 12 20 17 25 17 14 18 14
##END=
