##TITLE=Benzenethiol, 4-(1,1-dimethylethyl)-2-methyl-
##JCAMP-DX=4.24
##DATA TYPE=INFRARED SPECTRUM
##ORIGIN=Sadtler Research Labs Under US-EPA Contract
##OWNER=NIST Standard Reference Data Program
##CAS REGISTRY NO=15570-10-2
##MOLFORM=C 11 H 16 S
##XUNITS=1/CM
##YUNITS=ABSORBANCE
##XFACTOR=1.0
##YFACTOR=0.000070627
##DELTAX=4.0
##FIRSTX=450.0
##LASTX=3966.0
##FIRSTY=0.014408
##MAXX=3966
##MINX=450
##MAXY=0.70627
##MINY=0
##NPOINTS=880
##XYDATA=(X++(Y..Y))
450.0 204 186 401 310 137 112 114 52 149 319
490.0 136 288 218 301 432 394 131 145 334 317
530.0 462 369 123 178 324 284 267 455 213 266
570.0 64 164 416 438 387 495 574 515 571 562
610.0 345 347 170 141 268 287 158 189 183 160
650.0 308 238 283 187 139 63 287 336 254 211
690.0 21 284 490 643 623 506 495 352 542 334
730.0 357 328 200 72 235 236 196 255 35 147
770.0 241 227 258 201 210 198 355 470 891 1065
810.0 1090 1290 1248 1133 721 565 220 198 275 147
850.0 250 289 202 188 361 381 527 651 521 468
890.0 448 362 310 303 275 227 326 296 412 406
930.0 321 285 263 199 207 251 139 171 125 136
970.0 185 198 185 166 215 218 324 306 222 202
1010.0 132 195 233 252 216 297 324 413 584 580
1050.0 711 953 1259 1367 1296 802 451 317 182 200
1090.0 222 179 179 192 164 248 649 1050 1442 1395
1130.0 927 423 282 192 177 259 175 224 254 211
1170.0 217 205 160 160 271 301 461 632 634 630
1210.0 464 294 189 192 100 99 144 148 208 220
1250.0 266 425 837 1259 1468 1347 864 525 356 330
1290.0 379 416 363 256 201 140 184 136 116 101
1330.0 98 118 145 179 157 276 400 614 905 1071
1370.0 1153 1041 935 857 1005 1134 1310 1385 1206 912
1410.0 642 467 332 386 345 409 534 625 718 859
1450.0 1000 1131 1343 1415 1491 1631 1699 2072 2743 3239
1490.0 3188 2534 1531 820 594 387 327 272 233 207
1530.0 229 241 208 259 181 215 262 285 278 286
1570.0 259 209 285 228 261 273 285 344 403 384
1610.0 320 254 154 147 151 146 158 131 106 111
1650.0 105 108 116 104 60 113 65 108 110 116
1690.0 54 81 92 94 131 106 78 90 88 101
1730.0 137 152 102 157 155 186 244 219 178 173
1770.0 152 106 149 112 102 114 100 104 135 136
1810.0 92 119 98 92 147 125 99 110 98 86
1850.0 135 120 107 122 106 140 169 182 152 175
1890.0 152 150 171 142 131 118 96 94 108 115
1930.0 93 101 65 81 89 101 92 83 66 65
1970.0 103 81 99 84 56 68 91 88 91 93
2010.0 57 78 81 75 97 75 56 45 80 60
2050.0 90 76 44 64 60 77 83 90 46 57
2090.0 74 61 91 70 47 39 63 44 77 86
2130.0 35 56 47 51 75 76 46 48 78 41
2170.0 90 83 62 58 55 55 65 94 38 64
2210.0 48 45 70 65 47 35 52 21 64 68
2250.0 46 49 26 44 61 70 56 53 49 59
2290.0 92 91 115 99 100 95 122 124 109 123
2330.0 46 97 98 122 118 116 108 108 183 111
2370.0 124 88 45 65 83 74 63 84 35 34
2410.0 55 48 61 55 27 15 61 36 47 67
2450.0 15 28 27 35 39 60 12 15 40 15
2490.0 48 49 22 7 26 13 34 59 0 11
2530.0 19 24 30 44 22 10 41 19 62 64
2570.0 49 42 55 80 117 152 107 71 53 27
2610.0 49 53 38 10 28 15 44 58 31 48
2650.0 23 30 52 79 45 44 26 11 49 43
2690.0 38 29 25 11 54 68 51 90 43 69
2730.0 90 97 94 107 89 57 120 86 96 94
2770.0 34 31 69 85 71 128 74 62 107 100
2810.0 130 160 138 96 184 171 204 255 235 271
2850.0 362 469 580 867 1131 1478 1889 2105 2198 2144
2890.0 1942 1761 1726 1759 2001 2453 2681 2805 2715 2599
2930.0 2597 2626 2562 2542 2756 3193 4254 5919 7622 9183
2970.0 10000 9156 7416 5103 3201 2114 1396 954 750 630
3010.0 562 551 630 667 817 815 702 638 502 475
3050.0 498 549 535 618 647 667 772 745 688 579
3090.0 470 361 372 368 266 271 186 138 167 181
3130.0 138 146 137 56 139 122 121 131 85 51
3170.0 101 162 99 169 101 74 132 130 128 147
3210.0 132 45 115 108 116 143 85 64 79 112
3250.0 67 115 69 20 73 62 98 90 81 23
3290.0 65 64 69 115 33 54 30 46 71 80
3330.0 56 11 49 23 78 73 45 17 30 59
3370.0 72 127 32 52 38 14 74 79 65 40
3410.0 53 0 84 102 38 70 42 29 60 113
3450.0 48 68 58 3 83 96 73 69 92 2
3490.0 57 112 71 108 69 39 79 112 92 84
3530.0 88 23 89 106 94 97 101 42 74 123
3570.0 74 97 71 38 62 116 85 81 105 33
3610.0 89 98 91 121 78 57 49 88 91 108
3650.0 101 42 90 74 102 118 98 53 61 62
3690.0 76 92 59 63 28 52 75 91 86 47
3730.0 67 47 76 82 76 48 42 41 40 99
3770.0 63 59 39 18 49 76 71 36 68 25
3810.0 47 84 61 61 60 37 33 94 79 69
3850.0 73 28 45 73 92 64 81 54 58 130
3890.0 111 118 92 62 57 117 104 88 98 48
3930.0 66 108 102 108 103 62 49 101 84 99
##END=
