##TITLE=Butyric acid, heptafluoro-, butyl ester
##JCAMP-DX=4.24
##DATA TYPE=INFRARED SPECTRUM
##ORIGIN=Sadtler Research Labs Under US-EPA Contract
##OWNER=NIST Standard Reference Data Program
##CAS REGISTRY NO=1559-07-5
##MOLFORM=C 8 H 9 F 7 O 2
##XUNITS=1/CM
##YUNITS=ABSORBANCE
##XFACTOR=1.0
##YFACTOR=0.000083762
##DELTAX=4.0
##FIRSTX=450.0
##LASTX=3966.0
##FIRSTY=0.002597
##MAXX=3966
##MINX=450
##MAXY=0.83762
##MINY=0
##NPOINTS=880
##XYDATA=(X++(Y..Y))
450.0 31 41 30 81 34 0 66 55 48 54
490.0 79 70 46 65 91 91 98 137 159 203
530.0 222 249 212 177 115 92 35 31 25 30
570.0 49 29 48 47 69 131 179 178 148 161
610.0 181 337 420 315 235 167 169 206 248 282
650.0 329 301 274 181 155 125 120 108 84 76
690.0 52 44 37 51 74 130 269 508 732 747
730.0 613 523 576 696 790 723 583 472 347 211
770.0 128 109 113 132 169 230 287 342 377 353
810.0 343 351 389 451 470 459 405 362 340 291
850.0 241 176 117 99 81 83 80 75 77 81
890.0 92 111 142 175 227 309 409 510 617 733
930.0 885 1134 1388 1502 1471 1434 1488 1652 1881 2115
970.0 2197 2004 1570 1086 753 626 611 580 489 417
1010.0 414 460 461 413 366 313 272 235 181 188
1050.0 284 398 488 559 640 786 1056 1545 2274 2880
1090.0 2901 2332 1766 1535 1438 1364 1371 1467 1627 1829
1130.0 2040 2352 2849 3470 3874 3772 3261 2628 2126 1824
1170.0 1736 1825 2080 2428 2774 3016 3073 2953 2779 2864
1210.0 3506 4940 7007 8914 9593 9339 9442 10000 9952 8412
1250.0 6239 4534 3804 3668 3588 3253 2755 2316 2082 2120
1290.0 2429 2931 3379 3528 3322 2936 2488 1991 1519 1168
1330.0 986 911 875 908 985 1028 999 866 656 464
1370.0 325 242 202 201 214 254 265 236 184 133
1410.0 103 90 62 70 67 79 89 114 139 142
1450.0 158 196 251 323 375 403 365 308 226 154
1490.0 97 80 63 58 51 42 51 48 34 41
1530.0 32 32 25 9 8 18 10 4 12 15
1570.0 17 19 24 23 21 17 21 20 20 17
1610.0 16 17 18 16 13 13 11 7 7 5
1650.0 1 0 11 9 16 14 12 20 16 16
1690.0 20 24 18 19 25 33 30 29 51 63
1730.0 72 78 109 145 182 218 260 298 354 453
1770.0 588 839 1306 2190 3675 5255 5734 4592 2852 1611
1810.0 1010 731 584 455 357 270 221 184 153 123
1850.0 104 93 76 64 51 42 43 37 37 33
1890.0 28 28 28 24 25 22 20 17 13 17
1930.0 17 18 15 14 15 18 19 21 21 21
1970.0 24 23 24 23 24 16 16 19 21 17
2010.0 16 13 10 14 15 14 17 16 14 18
2050.0 17 19 19 17 15 20 18 15 16 13
2090.0 14 15 16 13 19 16 15 14 15 16
2130.0 16 13 15 17 19 19 13 13 15 14
2170.0 16 14 15 14 15 18 16 17 15 17
2210.0 18 16 21 22 25 33 40 46 54 58
2250.0 62 66 76 84 86 88 79 67 56 45
2290.0 38 35 30 25 29 30 30 32 35 40
2330.0 38 42 44 43 46 33 36 33 44 37
2370.0 32 40 36 30 29 30 28 26 27 27
2410.0 31 32 37 31 33 29 30 30 31 30
2450.0 32 32 30 31 30 30 28 28 25 27
2490.0 25 25 23 21 18 20 16 16 16 12
2530.0 9 11 11 10 14 12 11 13 12 13
2570.0 14 16 14 18 15 14 13 10 10 8
2610.0 5 5 6 4 2 3 0 1 2 0
2650.0 1 1 5 3 4 7 8 4 4 6
2690.0 6 6 4 5 9 9 8 13 11 9
2730.0 12 13 12 17 17 22 23 22 21 21
2770.0 24 24 25 26 30 29 28 29 28 32
2810.0 32 34 38 43 48 51 60 63 81 98
2850.0 124 151 183 202 221 258 326 421 525 604
2890.0 617 552 460 414 416 440 482 532 594 620
2930.0 628 664 759 909 1055 1093 1027 963 1036 1333
2970.0 1704 1943 1874 1496 1029 708 536 427 357 291
3010.0 237 186 156 129 114 100 91 87 75 68
3050.0 65 59 52 45 45 38 36 36 34 35
3090.0 35 34 27 25 31 28 24 22 23 27
3130.0 20 20 20 17 17 24 19 18 16 18
3170.0 21 20 25 21 25 20 19 18 18 13
3210.0 14 19 14 12 7 12 11 16 11 16
3250.0 20 13 12 9 9 6 8 11 9 6
3290.0 11 11 9 15 7 8 6 6 10 7
3330.0 6 6 9 9 11 12 10 10 7 13
3370.0 8 7 8 6 7 7 8 14 15 9
3410.0 12 9 5 11 10 13 13 8 1 10
3450.0 10 12 10 8 10 6 8 16 11 19
3490.0 5 3 5 4 11 10 13 13 6 9
3530.0 11 15 6 19 20 16 29 34 35 63
3570.0 93 108 97 60 27 12 0 1 13 7
3610.0 20 21 18 17 10 16 12 9 13 9
3650.0 10 19 20 24 17 16 22 27 23 26
3690.0 22 16 25 17 23 15 16 9 17 10
3730.0 18 23 27 14 21 21 28 14 22 23
3770.0 18 11 7 22 22 24 23 21 21 14
3810.0 25 22 19 20 26 26 22 22 20 16
3850.0 26 20 26 26 28 31 35 20 21 26
3890.0 21 13 20 34 15 30 16 21 25 24
3930.0 25 31 19 26 29 26 26 19 40 29
##END=
