##TITLE=1-Propanol, 3-amino-
##JCAMP-DX=4.24
##DATA TYPE=INFRARED SPECTRUM
##ORIGIN=Sadtler Research Labs Under US-EPA Contract
##OWNER=NIST Standard Reference Data Program
##CAS REGISTRY NO=156-87-6
##MOLFORM=C 3 H 9 N O
##XUNITS=1/CM
##YUNITS=ABSORBANCE
##XFACTOR=1.0
##YFACTOR=0.000040662
##DELTAX=4.0
##FIRSTX=450.0
##LASTX=3966.0
##FIRSTY=0.012564
##MAXX=3966
##MINX=450
##MAXY=0.40662
##MINY=0
##NPOINTS=880
##XYDATA=(X++(Y..Y))
450.0 309 401 433 268 533 196 161 639 806 817
490.0 617 66 377 231 426 892 866 827 395 774
530.0 790 622 634 799 857 808 271 288 598 621
570.0 628 784 823 695 810 614 620 525 663 492
610.0 603 258 373 372 356 292 264 153 270 306
650.0 321 310 269 265 324 544 530 431 432 545
690.0 546 691 793 802 925 930 1062 1388 1397 1719
730.0 2013 2057 2047 2431 3415 3117 3297 3496 3396 3529
770.0 3484 3537 3539 3486 3218 3100 3132 3033 3009 2697
810.0 2703 2760 2550 2594 2050 1990 1729 1242 1190 996
850.0 688 669 582 651 514 475 414 585 363 356
890.0 591 620 524 672 940 883 773 855 714 847
930.0 791 769 625 798 713 543 644 545 627 623
970.0 553 568 647 753 728 805 873 1072 1300 1428
1010.0 1526 1769 2110 2487 2927 3432 3960 4371 4925 5435
1050.0 5802 6126 6283 6458 6495 6373 6397 6346 6087 5429
1090.0 4776 4003 3366 2729 2158 1817 1508 1214 1004 1013
1130.0 908 904 972 875 860 734 706 651 589 597
1170.0 540 536 419 405 446 397 407 424 488 446
1210.0 502 487 487 515 486 497 538 539 392 383
1250.0 381 469 406 468 477 532 597 595 551 576
1290.0 569 591 600 554 532 485 527 528 523 534
1330.0 592 573 675 750 838 919 1004 1146 1296 1383
1370.0 1458 1550 1661 1711 1835 1797 1755 1672 1606 1536
1410.0 1421 1396 1394 1466 1481 1541 1542 1505 1425 1358
1450.0 1230 1183 1110 1080 1075 1009 949 886 818 779
1490.0 702 614 527 488 494 493 472 463 458 480
1530.0 460 508 464 501 494 471 492 445 448 398
1570.0 389 382 387 424 441 489 541 602 721 810
1610.0 940 1049 1137 1211 1196 1202 1132 1010 939 762
1650.0 677 537 396 324 255 186 161 105 92 88
1690.0 77 66 52 55 28 19 20 5 14 13
1730.0 21 30 31 51 46 62 63 66 57 57
1770.0 64 64 64 76 68 75 63 75 70 89
1810.0 85 80 87 87 109 99 92 92 96 113
1850.0 103 101 130 98 110 98 101 97 100 87
1890.0 87 91 83 87 85 77 71 86 84 79
1930.0 70 82 87 83 92 81 87 87 86 96
1970.0 96 100 102 104 102 99 111 108 111 117
2010.0 114 119 117 123 131 135 126 142 144 148
2050.0 149 155 149 148 152 149 144 137 146 141
2090.0 130 129 133 133 125 127 121 110 112 113
2130.0 121 111 110 105 115 109 107 105 101 96
2170.0 87 84 98 105 117 102 95 88 71 76
2210.0 75 72 65 71 74 81 76 76 65 68
2250.0 74 66 61 61 63 64 56 62 58 53
2290.0 50 50 47 38 36 32 40 62 47 55
2330.0 30 48 68 63 32 57 48 69 34 39
2370.0 21 23 25 29 39 32 38 48 43 43
2410.0 53 48 55 43 35 49 50 52 51 52
2450.0 52 50 58 48 53 61 55 60 70 63
2490.0 56 69 73 71 75 76 64 63 67 72
2530.0 62 60 61 49 50 47 39 40 41 47
2570.0 32 31 21 39 40 39 32 38 54 42
2610.0 54 59 65 66 57 60 79 88 86 94
2650.0 95 108 127 138 151 172 183 198 219 260
2690.0 270 292 313 341 346 366 384 422 444 453
2730.0 505 539 568 607 647 686 726 770 828 876
2770.0 918 958 1007 1011 1020 1085 1130 1159 1239 1360
2810.0 1482 1638 1800 1984 2226 2503 2816 3163 3543 3924
2850.0 4380 4833 5251 5632 5884 6104 6258 6358 6395 6293
2890.0 6238 6180 6171 6357 6615 7029 7550 8117 8699 8928
2930.0 9415 9913 10000 9462 9104 8468 7816 7126 6323 5417
2970.0 4617 3870 3208 2610 2034 1605 1259 992 782 646
3010.0 523 433 385 335 317 289 288 276 221 195
3050.0 189 186 166 179 160 159 132 127 138 137
3090.0 119 118 119 121 103 102 99 101 116 90
3130.0 102 109 106 95 87 82 100 93 83 65
3170.0 84 73 62 86 77 80 67 63 62 71
3210.0 58 57 64 64 72 51 72 82 59 67
3250.0 52 73 69 75 84 86 98 107 121 132
3290.0 146 155 152 148 150 159 152 131 162 153
3330.0 170 184 182 206 207 212 203 216 229 209
3370.0 219 214 204 201 197 215 200 227 211 215
3410.0 229 254 215 185 203 192 193 193 190 182
3450.0 163 198 244 313 476 770 1092 1389 1598 1725
3490.0 1798 1840 1777 1704 1594 1412 1255 1079 923 813
3530.0 694 606 545 487 450 384 353 288 262 219
3570.0 182 140 116 103 105 75 68 30 63 34
3610.0 49 29 76 80 58 97 150 174 235 326
3650.0 444 632 694 885 914 999 986 909 889 710
3690.0 569 389 250 156 90 36 32 3 4 12
3730.0 3 4 4 4 3 7 4 4 4 4
3770.0 4 4 4 4 4 4 3 8 1 62
3810.0 5 30 8 44 4 4 7 46 43 42
3850.0 9 1 48 4 19 4 13 37 46 3
3890.0 4 4 0 78 0 4 3 54 4 4
3930.0 4 4 2 54 30 7 4 4 4 4
##END=
