##TITLE=Benzenamine, 4-ethoxy-
##JCAMP-DX=4.24
##DATA TYPE=INFRARED SPECTRUM
##ORIGIN=Sadtler Research Labs Under US-EPA Contract
##OWNER=NIST Standard Reference Data Program
##CAS REGISTRY NO=156-43-4
##MOLFORM=C 8 H 11 N O
##XUNITS=1/CM
##YUNITS=ABSORBANCE
##XFACTOR=1.0
##YFACTOR=0.000168378
##DELTAX=4.0
##FIRSTX=450.0
##LASTX=3966.0
##FIRSTY=0.057922
##MAXX=3966
##MINX=450
##MAXY=1.68378
##MINY=0
##NPOINTS=880
##XYDATA=(X++(Y..Y))
450.0 344 272 389 370 248 321 344 303 308 326
490.0 317 341 370 356 340 387 309 284 253 257
530.0 223 211 205 196 198 214 196 183 175 164
570.0 134 140 122 147 143 157 184 189 222 237
610.0 256 284 311 353 402 454 537 675 843 1064
650.0 1244 1312 1351 1215 1078 848 733 711 683 695
690.0 710 673 664 652 648 641 627 593 570 561
730.0 540 499 496 439 450 463 466 409 346 262
770.0 179 158 160 181 237 308 391 505 650 852
810.0 1051 1283 1465 1465 1337 1177 983 775 595 453
850.0 344 276 231 195 164 157 137 133 145 169
890.0 217 276 329 372 380 393 396 395 381 333
930.0 265 195 131 76 45 32 19 17 11 5
970.0 8 8 25 29 33 48 59 86 123 180
1010.0 232 291 384 487 644 845 1108 1406 1680 1844
1050.0 1888 1765 1520 1238 984 801 726 717 744 796
1090.0 861 874 847 809 767 797 865 925 831 737
1130.0 598 449 348 277 240 234 246 315 404 461
1170.0 470 423 354 292 311 385 481 616 766 963
1210.0 1246 1735 2563 3864 5593 6893 8272 8621 7657 6603
1250.0 4551 3117 2437 2060 1766 1442 1162 940 829 767
1290.0 749 726 726 698 640 557 478 392 370 345
1330.0 309 257 158 140 135 127 126 124 129 162
1370.0 215 210 296 437 565 766 896 889 843 694
1410.0 453 345 154 203 176 222 181 209 271 274
1450.0 282 259 227 304 372 460 567 889 1169 1150
1490.0 1216 1345 2080 4026 6571 10000 8908 8960 5130 2520
1530.0 1250 746 460 261 211 237 240 154 232 263
1570.0 249 265 271 282 330 347 411 438 579 762
1610.0 1012 1182 1296 1385 1200 1170 898 652 508 348
1650.0 218 178 167 153 127 112 49 102 24 28
1690.0 62 89 2 6 28 73 61 10 103 110
1730.0 80 36 74 86 23 17 51 58 54 61
1770.0 39 21 66 63 62 52 38 63 33 104
1810.0 90 73 124 93 100 89 121 137 125 121
1850.0 141 155 144 135 118 76 103 94 91 80
1890.0 61 66 82 79 84 81 86 93 76 101
1930.0 106 100 105 93 96 110 116 120 120 106
1970.0 110 117 105 103 107 90 91 105 103 92
2010.0 84 77 71 76 81 77 83 68 65 77
2050.0 90 77 78 81 74 83 81 87 83 80
2090.0 71 69 60 47 51 44 50 38 47 34
2130.0 41 39 39 40 38 34 32 40 41 38
2170.0 31 31 36 28 36 29 26 26 28 28
2210.0 21 19 24 20 23 25 23 25 26 26
2250.0 23 29 27 30 23 34 29 27 23 24
2290.0 20 16 13 11 10 3 12 18 22 28
2330.0 39 32 43 37 25 44 64 52 33 33
2370.0 21 15 12 10 14 19 23 23 25 29
2410.0 29 30 27 27 27 29 28 34 36 39
2450.0 40 46 48 45 49 47 43 42 37 38
2490.0 33 25 28 28 33 36 36 40 41 43
2530.0 41 37 35 26 24 19 18 15 13 18
2570.0 13 16 15 17 15 23 27 28 21 24
2610.0 23 19 20 20 21 19 19 17 18 12
2650.0 15 18 20 21 20 16 21 21 19 22
2690.0 23 24 26 29 34 33 41 45 52 56
2730.0 58 60 62 65 65 67 62 65 65 60
2770.0 60 59 59 59 62 63 62 62 66 70
2810.0 74 81 92 101 108 122 133 151 172 193
2850.0 224 258 298 352 416 497 587 679 746 800
2890.0 827 841 850 855 876 866 823 761 711 673
2930.0 686 765 878 951 974 930 815 729 699 728
2970.0 822 975 1155 1320 1393 1422 1317 1153 987 910
3010.0 875 859 828 777 741 755 833 924 939 885
3050.0 736 539 385 324 318 317 312 304 278 250
3090.0 218 192 187 174 166 157 149 133 116 104
3130.0 85 68 56 47 39 31 27 20 18 18
3170.0 14 12 12 14 8 8 7 5 16 27
3210.0 27 33 35 27 27 26 26 19 23 24
3250.0 26 23 30 34 32 34 30 29 21 16
3290.0 17 22 23 23 20 18 19 20 22 17
3330.0 13 19 20 23 18 23 26 26 25 38
3370.0 44 51 63 78 95 128 162 214 241 235
3410.0 208 164 108 79 71 68 73 68 71 74
3450.0 83 87 103 121 140 155 174 194 203 199
3490.0 179 170 141 111 87 75 64 55 45 38
3530.0 35 33 33 28 27 23 23 23 20 20
3570.0 13 15 20 17 19 15 20 13 13 14
3610.0 13 13 17 13 10 16 20 13 13 14
3650.0 14 9 2 2 9 26 14 26 1 26
3690.0 20 2 15 13 7 14 2 9 3 2
3730.0 6 19 20 13 29 10 16 0 2 14
3770.0 0 0 4 0 0 0 8 8 18 25
3810.0 2 5 0 19 0 5 2 11 19 6
3850.0 18 16 2 2 20 33 4 17 15 13
3890.0 10 21 27 10 2 15 14 6 4 13
3930.0 37 14 11 5 6 5 8 23 10 12
##END=
