##TITLE=Ethene, 1,2-dichloro-, (E)-
##JCAMP-DX=4.24
##DATA TYPE=INFRARED SPECTRUM
##ORIGIN=Sadtler Research Labs Under US-EPA Contract
##OWNER=NIST Standard Reference Data Program
##CAS REGISTRY NO=156-60-5
##MOLFORM=C 2 H 2 Cl 2
##XUNITS=1/CM
##YUNITS=ABSORBANCE
##XFACTOR=1.0
##YFACTOR=0.000196710
##DELTAX=4.0
##FIRSTX=450.0
##LASTX=3966.0
##FIRSTY=0.000000
##MAXX=3966
##MINX=450
##MAXY=1.9671
##MINY=0
##NPOINTS=880
##XYDATA=(X++(Y..Y))
450.0 0 41 12 62 21 41 38 42 46 41
490.0 31 14 27 23 41 22 19 14 18 16
530.0 18 32 29 41 40 46 41 50 52 42
570.0 43 43 42 35 23 39 46 39 32 34
610.0 18 37 27 36 27 37 23 29 29 27
650.0 34 22 42 14 52 29 55 30 47 41
690.0 45 58 47 38 38 44 31 39 36 41
730.0 34 37 56 64 100 125 161 131 138 148
770.0 136 107 97 80 103 206 419 878 1756 3267
810.0 5410 7490 8874 9084 10000 8707 7507 2296 729 670
850.0 748 830 923 1010 1061 1145 1182 1306 1335 1361
890.0 1456 1674 2207 1788 1249 1574 1455 1484 1364 1311
930.0 1183 1046 954 817 724 578 512 414 372 315
970.0 283 226 206 238 211 141 89 72 57 55
1010.0 59 56 63 59 65 60 70 59 60 54
1050.0 58 59 52 63 63 71 63 74 67 65
1090.0 67 68 72 71 77 67 70 65 71 70
1130.0 73 83 90 102 109 137 144 161 169 186
1170.0 194 203 225 270 452 857 1438 1369 1115 1525
1210.0 1637 976 472 262 217 199 181 163 152 139
1250.0 121 112 97 89 76 70 66 61 60 55
1290.0 56 56 55 57 55 56 55 53 53 55
1330.0 55 55 47 46 54 50 53 46 50 41
1370.0 55 36 51 44 53 42 43 40 47 46
1410.0 50 55 34 46 50 51 48 46 54 59
1450.0 48 55 29 38 73 36 46 52 63 46
1490.0 58 53 43 60 44 15 60 34 27 44
1530.0 50 59 26 51 29 74 40 60 20 73
1570.0 51 74 41 89 64 75 78 77 81 74
1610.0 99 67 100 84 120 129 177 227 350 459
1650.0 638 489 462 561 459 268 179 115 132 66
1690.0 102 82 73 28 66 60 49 28 51 50
1730.0 35 44 24 55 42 39 43 57 42 52
1770.0 46 31 60 40 73 42 63 58 63 63
1810.0 63 57 63 65 49 62 49 72 39 46
1850.0 45 51 43 49 39 31 46 38 46 35
1890.0 39 35 40 39 37 38 36 33 36 34
1930.0 39 37 38 31 35 34 36 33 36 30
1970.0 35 34 35 36 38 34 33 37 36 38
2010.0 37 37 34 35 35 36 38 36 37 37
2050.0 40 38 39 38 37 38 39 44 53 63
2090.0 66 70 69 71 64 44 36 34 35 33
2130.0 34 32 33 31 31 32 32 32 32 33
2170.0 31 33 31 32 31 32 30 31 29 29
2210.0 31 29 31 30 30 28 30 30 30 31
2250.0 29 29 29 31 30 33 31 32 34 36
2290.0 41 45 51 53 61 67 67 69 74 66
2330.0 74 76 58 88 65 69 87 78 101 82
2370.0 71 60 52 45 35 29 26 25 25 25
2410.0 25 25 25 26 28 29 30 31 31 31
2450.0 31 32 35 36 33 33 35 34 31 32
2490.0 28 29 28 28 26 25 24 24 22 22
2530.0 21 19 19 19 20 18 18 16 16 16
2570.0 15 18 17 16 16 15 15 14 16 14
2610.0 13 15 14 14 15 13 14 12 12 13
2650.0 13 14 14 13 13 16 14 16 15 15
2690.0 15 15 17 18 18 19 19 20 20 23
2730.0 23 25 25 28 27 29 33 37 41 49
2770.0 50 43 44 47 33 25 23 25 24 24
2810.0 25 23 24 24 24 26 26 25 26 26
2850.0 25 25 26 26 27 26 27 27 27 27
2890.0 27 29 28 29 27 29 30 30 28 28
2930.0 30 31 29 31 29 32 32 31 32 32
2970.0 33 33 33 33 34 33 34 34 36 34
3010.0 37 36 37 39 39 43 43 48 51 54
3050.0 55 56 63 66 80 100 156 259 478 819
3090.0 1122 1049 901 1059 949 451 189 89 71 60
3130.0 57 56 50 50 46 46 41 46 39 41
3170.0 40 40 39 38 40 37 40 38 41 41
3210.0 39 41 39 42 41 42 39 42 41 41
3250.0 40 40 42 40 42 39 42 39 39 39
3290.0 41 41 39 43 42 44 40 41 42 41
3330.0 41 42 42 43 45 46 46 42 45 43
3370.0 47 46 45 47 45 49 47 49 45 49
3410.0 47 50 46 45 47 48 52 47 50 45
3450.0 52 47 53 50 48 49 45 53 48 50
3490.0 52 49 53 49 53 52 50 55 48 49
3530.0 50 50 53 49 53 55 45 67 49 55
3570.0 56 51 62 50 66 46 51 68 48 69
3610.0 49 63 48 58 72 24 79 46 72 63
3650.0 31 81 38 85 55 65 56 38 81 44
3690.0 71 46 75 57 64 71 52 62 81 49
3730.0 71 45 79 9 92 25 44 78 51 61
3770.0 62 67 62 55 70 65 49 84 15 84
3810.0 40 65 60 27 78 55 48 54 62 38
3850.0 88 28 47 71 41 49 51 66 23 83
3890.0 32 80 43 63 37 67 54 55 58 48
3930.0 62 56 64 68 75 47 78 59 60 46
##END=
