##TITLE=Benzene, 2-butenyl-
##JCAMP-DX=4.24
##DATA TYPE=INFRARED SPECTRUM
##ORIGIN=Sadtler Research Labs Under US-EPA Contract
##OWNER=NIST Standard Reference Data Program
##CAS REGISTRY NO=1560-06-1
##MOLFORM=C 10 H 12
##XUNITS=1/CM
##YUNITS=ABSORBANCE
##XFACTOR=1.0
##YFACTOR=0.000059842
##DELTAX=4.0
##FIRSTX=450.0
##LASTX=3966.0
##FIRSTY=0.000000
##MAXX=3966
##MINX=450
##MAXY=0.59842
##MINY=0
##NPOINTS=880
##XYDATA=(X++(Y..Y))
450.0 0 727 808 833 840 902 841 652 767 598
490.0 689 636 830 492 623 728 830 949 866 1106
530.0 1207 1332 1452 1433 1140 1051 1033 1084 938 1017
570.0 1159 1160 1182 1091 990 973 642 746 544 661
610.0 689 705 683 548 663 729 606 702 632 734
650.0 813 721 907 957 967 1389 1645 2300 2949 4135
690.0 5556 7571 8434 7693 6781 5339 4444 3942 3999 4099
730.0 4594 5691 6022 5980 5707 4807 3976 2918 2004 1357
770.0 1153 875 768 663 612 647 748 747 695 526
810.0 591 528 518 596 669 620 598 609 603 606
850.0 642 625 694 620 629 631 652 670 685 728
890.0 789 795 905 916 997 1015 992 1066 1060 1195
930.0 1325 1612 1940 2259 2919 3539 4442 5915 6876 7057
970.0 6774 5363 3755 2782 2192 1687 1440 1285 1201 1124
1010.0 1102 1153 1226 1548 1856 2039 1964 1894 1712 1621
1050.0 1714 1872 2042 2030 2014 1875 1575 1467 1293 1134
1090.0 1014 948 878 835 859 731 749 742 675 682
1130.0 711 659 661 657 660 660 647 692 719 741
1170.0 839 838 877 891 1020 1154 1183 1201 1133 997
1210.0 882 753 737 709 716 765 791 832 874 903
1250.0 935 919 938 952 1000 1095 1131 1106 1030 979
1290.0 924 917 949 975 1016 1072 1096 1100 1075 1011
1330.0 1016 979 972 934 895 883 878 928 994 1032
1370.0 1128 1194 1308 1372 1393 1326 1226 1155 1095 1051
1410.0 1081 1088 1227 1385 1570 1896 2209 2636 3047 3251
1450.0 3512 3480 3236 2892 2376 1873 1590 1430 1564 2227
1490.0 3433 4194 4179 3608 2454 1382 1105 939 857 830
1530.0 764 777 777 771 733 684 671 698 711 737
1570.0 808 881 919 1012 1073 1248 1568 1936 2542 2732
1610.0 2555 2234 1613 1163 960 823 776 755 726 728
1650.0 767 767 766 746 785 789 809 784 818 881
1690.0 919 956 1023 1016 981 971 983 997 923 868
1730.0 861 858 800 768 771 768 727 714 706 687
1770.0 721 749 771 825 897 994 1096 1120 1055 929
1810.0 796 704 668 643 630 627 613 617 629 675
1850.0 688 705 731 755 799 813 804 779 752 718
1890.0 689 656 620 593 585 582 597 637 684 733
1930.0 800 862 913 949 971 971 932 855 745 650
1970.0 572 541 536 537 552 562 571 581 592 587
2010.0 574 554 538 520 514 504 504 504 502 498
2050.0 494 493 495 497 503 494 501 497 497 496
2090.0 494 492 489 493 492 494 495 492 495 495
2130.0 495 496 500 500 503 498 498 497 499 498
2170.0 498 497 497 500 496 498 493 492 496 497
2210.0 500 504 504 495 499 494 499 500 510 508
2250.0 516 517 509 509 515 503 503 503 499 494
2290.0 495 495 490 496 513 520 538 538 533 548
2330.0 564 563 580 583 563 566 582 563 554 560
2370.0 555 544 538 537 530 536 533 538 540 548
2410.0 546 542 538 535 534 533 529 528 528 522
2450.0 521 520 510 510 512 519 519 522 529 522
2490.0 523 521 515 514 508 513 512 513 515 512
2530.0 506 507 505 506 511 511 514 514 515 511
2570.0 510 516 515 522 524 526 533 533 537 548
2610.0 544 545 546 538 548 548 547 538 543 530
2650.0 527 525 509 509 512 514 511 522 519 522
2690.0 524 529 538 551 557 562 581 591 599 610
2730.0 629 675 735 792 818 796 749 685 653 645
2770.0 641 651 653 662 660 675 683 673 697 723
2810.0 746 792 844 937 1061 1238 1465 1709 1985 2217
2850.0 2411 2594 2778 3225 3827 4165 4182 3938 3546 3396
2890.0 3665 4220 4786 5311 5718 6017 6351 6809 7512 8286
2930.0 8521 8195 7361 6427 5741 5409 5133 4801 4579 4582
2970.0 4671 4766 4657 4281 3906 3614 3397 3338 3459 3729
3010.0 4086 4607 5317 6276 7633 9128 10000 9974 9054 7369
3050.0 5559 4524 4255 4657 5792 6811 7066 6739 5725 4554
3090.0 4036 3655 3228 2826 2417 2096 1815 1541 1296 1081
3130.0 927 850 789 746 700 671 663 648 648 645
3170.0 643 624 603 584 567 555 547 533 531 519
3210.0 532 528 525 529 531 531 523 515 513 515
3250.0 509 511 512 513 516 520 512 509 512 512
3290.0 511 509 518 488 499 500 514 528 512 516
3330.0 508 518 510 515 515 524 518 515 523 529
3370.0 516 523 521 535 526 522 526 531 541 533
3410.0 527 529 515 538 540 516 527 533 527 533
3450.0 526 531 530 534 520 525 515 535 520 533
3490.0 528 525 539 527 542 516 529 538 531 520
3530.0 521 520 520 507 522 527 551 515 523 525
3570.0 540 518 555 524 535 557 549 540 557 552
3610.0 557 554 553 560 549 578 568 577 584 607
3650.0 622 611 577 586 583 557 565 549 538 541
3690.0 558 541 560 552 539 546 550 553 542 530
3730.0 549 541 543 544 545 561 545 541 539 518
3770.0 541 538 549 554 538 540 527 540 551 562
3810.0 543 554 572 589 536 596 569 581 533 549
3850.0 556 549 572 564 527 530 573 547 561 541
3890.0 583 576 566 540 545 563 569 563 517 563
3930.0 543 595 513 570 542 550 550 560 582 567
##END=
