##TITLE=1,2-Propanediol, 3-(dodecyloxy)-
##JCAMP-DX=4.24
##DATA TYPE=INFRARED SPECTRUM
##ORIGIN=Sadtler Research Labs Under US-EPA Contract
##OWNER=NIST Standard Reference Data Program
##CAS REGISTRY NO=1561-07-5
##MOLFORM=C 15 H 32 O 3
##XUNITS=1/CM
##YUNITS=ABSORBANCE
##XFACTOR=1.0
##YFACTOR=0.000101309
##DELTAX=4.0
##FIRSTX=450.0
##LASTX=3966.0
##FIRSTY=0.004154
##MAXX=3966
##MINX=450
##MAXY=1.01309
##MINY=0
##NPOINTS=880
##XYDATA=(X++(Y..Y))
450.0 41 17 90 141 98 52 134 101 81 84
490.0 104 96 84 92 95 83 98 83 103 131
530.0 92 79 93 64 79 85 76 94 76 79
570.0 69 73 83 69 63 62 37 44 31 32
610.0 33 21 18 20 23 21 32 41 48 59
650.0 73 82 114 101 125 130 85 66 54 62
690.0 48 53 51 78 94 106 127 141 146 138
730.0 128 116 102 99 94 85 79 66 69 71
770.0 74 72 75 76 77 84 93 109 113 104
810.0 109 112 113 129 123 142 152 174 180 189
850.0 205 211 217 223 215 201 194 179 180 192
890.0 196 206 226 238 253 276 294 312 326 333
930.0 341 339 339 331 327 326 341 353 367 386
970.0 410 435 460 473 489 509 529 561 609 666
1010.0 745 838 952 1067 1196 1322 1425 1513 1598 1670
1050.0 1731 1806 1873 1919 1873 1790 1720 1685 1675 1688
1090.0 1736 1829 1986 2166 2380 2594 2790 2950 3028 2960
1130.0 2704 2316 1861 1463 1150 932 787 697 634 595
1170.0 570 545 529 515 500 487 476 461 455 451
1210.0 447 449 457 470 488 499 513 526 539 546
1250.0 560 571 571 553 526 493 471 455 449 448
1290.0 457 469 484 502 507 506 509 519 532 552
1330.0 573 594 627 661 700 739 772 775 763 744
1370.0 730 719 706 709 687 651 617 586 545 506
1410.0 467 424 395 357 335 330 358 400 458 520
1450.0 621 730 875 953 927 826 667 524 404 310
1490.0 226 168 130 104 93 88 73 64 60 52
1530.0 44 38 38 34 32 29 31 23 28 18
1570.0 23 18 21 14 21 17 15 16 16 16
1610.0 13 17 15 16 13 15 16 15 13 20
1650.0 14 25 22 13 15 20 11 19 11 27
1690.0 17 25 27 39 38 44 55 61 66 76
1730.0 96 107 125 137 160 155 136 106 80 66
1770.0 54 46 36 39 31 30 21 19 18 15
1810.0 6 10 9 5 8 0 5 1 5 4
1850.0 5 3 4 5 7 6 4 4 1 1
1890.0 3 2 3 2 3 6 5 8 8 6
1930.0 8 6 10 12 9 9 13 13 13 14
1970.0 13 13 14 18 18 18 20 19 21 21
2010.0 23 24 25 28 30 33 33 36 36 37
2050.0 36 37 35 35 37 38 40 39 41 40
2090.0 38 38 38 38 37 37 35 33 32 30
2130.0 31 28 26 25 25 25 25 28 29 31
2170.0 30 30 28 30 29 30 28 27 27 24
2210.0 25 24 21 21 20 23 22 21 22 21
2250.0 21 22 20 23 22 24 27 33 36 39
2290.0 49 58 68 76 82 91 85 76 83 71
2330.0 68 60 50 67 69 84 87 72 70 47
2370.0 48 50 59 62 44 27 20 19 21 17
2410.0 15 18 20 19 19 20 22 22 21 21
2450.0 21 20 21 22 20 20 21 22 24 27
2490.0 28 26 28 27 28 30 33 36 39 39
2530.0 40 41 44 41 46 44 47 48 49 48
2570.0 51 54 58 60 61 62 64 67 68 71
2610.0 72 73 76 80 87 87 90 94 98 103
2650.0 108 111 117 119 128 133 141 147 153 160
2690.0 160 165 166 169 175 179 183 186 191 196
2730.0 204 211 219 226 234 233 237 243 249 258
2770.0 266 283 299 317 340 367 398 427 452 477
2810.0 508 538 578 626 685 760 855 998 1206 1518
2850.0 1990 2701 3626 4466 4772 4553 4128 3741 3483 3273
2890.0 3067 2942 2974 3157 3494 3956 4507 5243 6299 7784
2930.0 9270 10000 9558 8407 6961 5561 4452 3734 3378 3177
2970.0 2886 2344 1708 1225 918 716 578 483 413 353
3010.0 309 271 241 215 195 177 164 148 133 121
3050.0 111 105 96 89 80 78 73 66 67 62
3090.0 56 55 51 51 50 44 49 42 37 39
3130.0 32 34 35 31 32 30 30 31 28 31
3170.0 31 27 28 25 25 22 24 23 19 20
3210.0 18 19 18 15 19 20 16 20 16 20
3250.0 18 19 17 15 16 20 19 22 17 19
3290.0 22 21 19 23 26 29 25 20 26 26
3330.0 26 33 33 30 32 33 34 31 31 35
3370.0 32 32 35 40 42 42 41 43 42 44
3410.0 42 42 49 47 47 50 51 58 53 54
3450.0 62 57 59 59 60 64 64 65 67 65
3490.0 70 76 73 80 74 74 81 81 88 93
3530.0 91 98 102 112 120 134 162 193 233 273
3570.0 277 288 295 313 332 359 401 412 449 484
3610.0 526 563 594 608 600 568 496 420 353 309
3650.0 272 252 242 242 233 222 200 192 174 165
3690.0 144 112 98 77 72 66 55 54 47 50
3730.0 40 47 46 41 44 36 37 31 35 34
3770.0 34 26 21 24 25 27 26 33 21 26
3810.0 24 25 21 28 25 25 27 19 18 19
3850.0 26 38 31 25 29 43 27 26 34 25
3890.0 28 27 29 41 33 30 29 25 34 32
3930.0 37 29 30 36 35 31 40 37 37 36
##END=
