##TITLE=1-Propanol, 2-dodecyloxy-3-tetradecyloxy-,
##JCAMP-DX=4.24
##DATA TYPE=INFRARED SPECTRUM
##ORIGIN=Sadtler Research Labs Under US-EPA Contract
##OWNER=NIST Standard Reference Data Program
##CAS REGISTRY NO=1561-56-4
##MOLFORM=C 29 H 60 O 3
##XUNITS=1/CM
##YUNITS=ABSORBANCE
##XFACTOR=1.0
##YFACTOR=0.000039343
##DELTAX=4.0
##FIRSTX=450.0
##LASTX=3966.0
##FIRSTY=0.010583
##MAXX=3966
##MINX=450
##MAXY=0.39343
##MINY=0
##NPOINTS=880
##XYDATA=(X++(Y..Y))
450.0 269 370 325 379 356 317 428 390 428 400
490.0 392 465 458 419 382 432 400 473 432 445
530.0 428 429 364 431 398 375 377 298 389 362
570.0 463 400 389 426 418 397 387 400 408 356
610.0 348 370 359 329 368 347 373 381 367 385
650.0 370 404 367 388 443 419 425 360 381 396
690.0 383 398 381 392 455 492 542 607 612 561
730.0 525 469 447 429 409 391 417 381 341 340
770.0 345 323 308 293 293 316 362 354 396 435
810.0 448 449 451 460 458 451 434 427 438 470
850.0 430 444 437 435 423 452 451 457 444 484
890.0 486 491 484 477 504 479 475 492 479 476
930.0 479 505 532 535 516 524 545 570 579 609
970.0 636 673 700 696 683 704 724 737 766 817
1010.0 881 950 1022 1131 1243 1352 1483 1561 1592 1518
1050.0 1466 1444 1507 1632 1703 1766 1862 1974 2097 2218
1090.0 2358 2490 2648 2799 2882 2878 2819 2646 2427 2187
1130.0 1946 1679 1409 1136 914 737 614 535 466 404
1170.0 347 303 249 213 154 98 78 86 152 265
1210.0 323 329 348 340 357 371 394 432 453 475
1250.0 475 503 523 543 535 524 531 542 555 564
1290.0 585 611 631 651 656 651 632 627 612 627
1330.0 646 702 756 791 813 836 821 785 778 782
1370.0 754 769 801 766 684 663 658 648 611 592
1410.0 553 536 543 543 585 660 756 838 957 1090
1450.0 1266 1440 1614 1616 1455 1158 856 675 528 408
1490.0 342 296 280 255 251 254 243 235 227 236
1530.0 225 214 227 222 234 223 235 216 225 221
1570.0 220 231 234 227 235 229 237 241 230 241
1610.0 228 234 216 237 215 239 216 223 213 222
1650.0 201 215 194 217 214 216 214 227 210 233
1690.0 222 219 236 235 232 237 244 239 255 261
1730.0 266 274 272 262 265 264 245 242 237 241
1770.0 228 228 219 225 224 230 208 224 219 210
1810.0 209 210 210 197 204 196 203 197 203 195
1850.0 206 196 195 195 198 199 198 193 195 193
1890.0 196 199 194 189 188 187 193 183 189 182
1930.0 180 187 188 182 182 178 184 193 184 184
1970.0 175 184 188 182 182 187 188 180 181 179
2010.0 178 192 187 188 191 184 182 183 177 172
2050.0 174 169 177 180 188 179 172 168 168 167
2090.0 163 166 161 160 160 154 158 156 153 150
2130.0 143 148 151 147 144 149 157 157 153 151
2170.0 152 150 144 148 151 147 149 146 140 148
2210.0 154 141 136 139 136 129 130 135 137 129
2250.0 128 138 130 134 139 134 139 143 149 158
2290.0 165 180 192 198 225 228 217 210 231 202
2330.0 237 220 202 237 226 218 277 215 235 202
2370.0 222 176 163 162 133 105 99 99 91 90
2410.0 94 93 94 89 87 87 88 85 82 83
2450.0 88 84 80 84 80 78 80 78 76 80
2490.0 79 75 68 71 76 76 78 84 85 84
2530.0 81 82 89 80 84 86 80 74 77 83
2570.0 91 89 87 104 99 105 98 104 106 105
2610.0 111 115 107 113 105 120 128 128 136 137
2650.0 144 145 165 169 169 180 181 189 185 197
2690.0 186 195 186 184 186 210 214 223 232 251
2730.0 272 290 300 321 337 361 384 394 420 449
2770.0 475 514 553 605 657 708 754 811 863 926
2810.0 1010 1110 1203 1348 1522 1741 2060 2509 3148 4073
2850.0 5264 6213 6334 5791 5120 4593 4259 3956 3767 3762
2890.0 3928 4228 4643 5113 5645 6318 7231 8338 9424 10000
2930.0 9779 8848 7507 6130 4976 4148 3667 3337 2946 2390
2970.0 1795 1286 927 664 504 400 307 237 197 163
3010.0 146 121 103 94 99 87 82 72 76 68
3050.0 76 73 70 73 74 71 82 84 89 68
3090.0 80 82 73 82 84 81 70 67 67 66
3130.0 75 75 74 74 68 70 82 75 74 70
3170.0 69 61 72 84 85 78 72 59 57 68
3210.0 62 64 57 71 55 57 47 53 45 50
3250.0 50 64 69 66 51 51 53 55 67 54
3290.0 70 62 63 65 65 53 47 56 68 56
3330.0 69 69 58 50 71 65 73 73 74 75
3370.0 70 73 85 85 80 89 84 95 94 97
3410.0 107 90 89 86 92 105 107 123 119 123
3450.0 137 139 146 153 160 161 175 167 168 176
3490.0 167 176 199 183 195 198 209 203 216 225
3530.0 223 229 243 230 239 247 255 250 250 250
3570.0 249 264 260 238 250 250 272 286 283 250
3610.0 230 189 171 134 127 120 102 95 98 83
3650.0 70 67 60 31 23 18 13 13 5 14
3690.0 8 5 7 0 8 0 0 0 0 0
3730.0 0 5 6 3 0 0 0 0 0 0
3770.0 0 0 0 0 0 0 0 0 0 0
3810.0 0 0 0 0 0 0 0 0 0 0
3850.0 0 0 0 0 0 0 0 0 0 0
3890.0 0 0 0 0 0 0 0 0 0 0
3930.0 0 0 0 0 0 0 0 0 0 0
##END=
