##TITLE=Acetamide, N,N-dibutyl-
##JCAMP-DX=4.24
##DATA TYPE=INFRARED SPECTRUM
##ORIGIN=Sadtler Research Labs Under US-EPA Contract
##OWNER=NIST Standard Reference Data Program
##CAS REGISTRY NO=1563-90-2
##MOLFORM=C 10 H 21 N O
##XUNITS=1/CM
##YUNITS=ABSORBANCE
##XFACTOR=1.0
##YFACTOR=0.000096191
##DELTAX=4.0
##FIRSTX=450.0
##LASTX=3966.0
##FIRSTY=0.005771
##MAXX=3966
##MINX=450
##MAXY=0.96191
##MINY=0
##NPOINTS=880
##XYDATA=(X++(Y..Y))
450.0 60 106 88 132 146 93 93 17 80 46
490.0 49 104 213 218 284 209 307 251 265 313
530.0 293 207 230 178 262 257 266 164 264 180
570.0 301 238 328 387 481 439 516 406 486 444
610.0 402 315 352 313 323 324 232 204 291 248
650.0 239 246 202 266 206 216 241 232 248 277
690.0 221 190 230 236 221 235 243 324 293 332
730.0 264 359 332 386 303 288 264 307 255 273
770.0 245 308 255 273 215 256 233 274 241 214
810.0 198 239 203 247 193 208 201 231 205 193
850.0 166 227 190 225 216 208 216 240 218 223
890.0 219 230 249 279 263 254 242 280 295 330
930.0 383 358 369 365 403 413 458 483 539 555
970.0 564 477 491 442 438 415 426 413 393 366
1010.0 328 343 357 347 412 465 564 567 565 503
1050.0 460 457 472 418 437 430 435 386 396 386
1090.0 430 508 601 670 715 649 579 523 465 383
1130.0 357 356 367 407 450 544 575 591 594 562
1170.0 521 526 534 621 708 823 891 935 882 826
1210.0 815 994 1232 1490 1621 1594 1366 1170 1009 1002
1250.0 1032 1095 1130 1178 1120 1118 1058 1067 1077 1197
1290.0 1290 1367 1298 1206 1097 1014 950 870 769 685
1330.0 590 590 615 672 734 860 1035 1227 1399 1534
1370.0 1593 1651 1623 1551 1420 1267 1188 1215 1415 1814
1410.0 2301 2871 3334 3343 2968 2406 1940 1777 1624 1589
1450.0 1572 1543 1673 1566 1621 1576 1612 1371 1133 870
1490.0 751 565 583 474 589 469 403 412 457 360
1530.0 319 342 367 451 323 279 312 414 376 260
1570.0 306 257 326 242 248 259 273 270 278 286
1610.0 296 295 393 354 404 430 522 621 601 714
1650.0 769 1080 1150 1748 2934 5069 7906 10000 9648 7065
1690.0 4025 2138 1295 969 711 614 594 651 492 446
1730.0 402 482 375 373 336 391 350 388 411 415
1770.0 467 533 445 436 384 371 421 431 399 351
1810.0 313 260 197 161 154 158 107 117 109 145
1850.0 100 95 94 94 95 133 89 94 95 89
1890.0 100 94 94 83 88 90 88 103 94 88
1930.0 84 74 87 91 90 87 93 79 78 72
1970.0 88 82 87 69 83 77 87 73 74 59
2010.0 78 72 78 66 71 67 87 69 81 63
2050.0 76 71 77 66 78 60 77 61 71 60
2090.0 75 61 72 60 60 61 64 62 59 60
2130.0 72 66 59 56 63 61 67 56 57 64
2170.0 63 69 58 60 61 60 64 65 58 61
2210.0 56 66 52 61 51 60 51 59 44 58
2250.0 48 58 44 49 43 54 39 46 39 54
2290.0 44 59 49 58 48 73 55 72 56 71
2330.0 57 60 35 71 31 85 75 82 33 64
2370.0 37 21 27 36 40 51 48 49 42 42
2410.0 47 45 40 47 47 33 31 36 31 32
2450.0 35 21 20 19 25 18 19 13 21 11
2490.0 12 14 10 11 22 17 22 12 29 17
2530.0 31 20 27 23 27 23 34 24 45 40
2570.0 40 29 36 33 49 35 44 33 44 33
2610.0 46 25 37 39 48 34 46 41 47 49
2650.0 47 39 52 52 58 54 56 62 69 67
2690.0 68 65 67 73 75 80 74 81 69 83
2730.0 83 89 89 107 96 107 91 101 87 97
2770.0 91 103 96 122 106 134 124 146 143 169
2810.0 156 191 187 216 222 257 268 327 366 420
2850.0 482 618 776 1037 1352 1703 1944 2089 2174 2167
2890.0 2006 1754 1510 1466 1522 1694 1867 2072 2286 2551
2930.0 2900 3373 3751 3906 3709 3310 3007 3027 3545 4435
2970.0 5096 4814 3809 2630 1765 1319 1079 897 766 635
3010.0 566 487 463 409 382 328 320 279 270 225
3050.0 228 191 196 154 169 133 162 130 137 109
3090.0 120 111 128 98 100 89 108 83 89 70
3130.0 85 73 77 64 58 60 68 54 66 51
3170.0 49 53 58 53 58 54 54 52 39 46
3210.0 55 41 43 31 29 51 39 36 28 33
3250.0 23 36 28 29 19 49 27 28 22 30
3290.0 12 40 16 25 18 43 24 36 18 56
3330.0 41 84 78 89 60 89 36 52 26 42
3370.0 25 50 26 32 23 58 41 46 41 39
3410.0 42 42 28 55 31 56 34 40 36 44
3450.0 41 34 16 37 30 40 33 19 35 32
3490.0 37 29 23 32 42 30 44 20 40 30
3530.0 43 34 39 45 82 48 75 61 90 111
3570.0 138 87 109 112 126 125 124 89 98 69
3610.0 114 84 82 91 80 113 71 37 64 75
3650.0 154 59 79 44 73 103 131 109 86 83
3690.0 126 58 68 85 104 116 125 96 123 122
3730.0 123 166 168 171 208 194 158 127 116 118
3770.0 105 86 94 113 106 91 95 120 135 122
3810.0 104 124 139 151 117 133 124 166 139 146
3850.0 142 184 129 154 142 163 136 150 150 158
3890.0 130 139 143 174 148 128 111 150 119 128
3930.0 113 118 95 106 93 106 0 7 7 7
##END=
