##TITLE=Acrylophenone, 4'-fluoro-3-(2-furyl)-,
##JCAMP-DX=4.24
##DATA TYPE=INFRARED SPECTRUM
##ORIGIN=Sadtler Research Labs Under US-EPA Contract
##OWNER=NIST Standard Reference Data Program
##CAS REGISTRY NO=1565-90-8
##MOLFORM=C 13 H 9 F O 2
##XUNITS=1/CM
##YUNITS=ABSORBANCE
##XFACTOR=1.0
##YFACTOR=0.000096799
##DELTAX=4.0
##FIRSTX=450.0
##LASTX=3966.0
##FIRSTY=0.010841
##MAXX=3966
##MINX=450
##MAXY=0.96799
##MINY=0
##NPOINTS=880
##XYDATA=(X++(Y..Y))
450.0 112 75 11 28 22 8 24 79 138 167
490.0 188 228 229 223 242 194 159 98 81 72
530.0 49 134 92 94 51 62 24 58 90 138
570.0 172 311 677 1348 2401 3616 3618 2144 821 317
610.0 193 130 131 129 96 97 97 101 86 64
650.0 45 46 54 57 60 93 119 136 241 300
690.0 431 649 1022 1145 877 535 396 344 373 700
730.0 1301 2157 2765 2746 1913 1140 591 387 355 367
770.0 364 309 255 208 238 291 492 835 1267 1660
810.0 1568 1251 989 941 1199 1541 1795 1873 1747 1370
850.0 960 720 659 653 585 516 426 483 841 1316
890.0 955 379 187 165 129 146 160 252 372 514
930.0 577 584 527 465 465 489 600 755 1016 1264
970.0 1458 1466 1251 998 824 817 901 1178 1661 3044
1010.0 5734 7605 5546 2787 1761 1211 733 514 378 326
1050.0 289 311 390 497 548 491 380 339 416 491
1090.0 460 341 282 236 206 152 129 107 115 138
1130.0 152 206 268 435 677 1758 4115 5683 3713 1217
1170.0 527 537 600 800 1055 1391 1375 1163 1086 1477
1210.0 2403 3815 5489 6615 6558 5076 4584 5547 6261 4888
1250.0 2937 1998 1911 1964 1996 2157 2491 3087 3887 4414
1290.0 4516 4512 3942 3115 2721 2695 2951 3416 3510 2797
1330.0 1736 1002 586 417 382 359 331 257 177 158
1370.0 178 193 299 476 615 622 532 530 723 930
1410.0 1028 852 440 310 251 276 232 239 272 284
1450.0 281 256 209 293 462 758 1130 1571 1833 1684
1490.0 1204 942 1049 1739 2584 2744 1887 874 424 373
1530.0 333 414 487 633 858 1183 1661 2088 1966 1194
1570.0 760 788 937 1218 1727 2519 3808 5442 6787 7599
1610.0 8360 9320 10000 8940 6701 4521 3107 2018 1391 1044
1650.0 888 955 1291 1753 2431 3081 3882 4484 4473 3666
1690.0 2355 1364 666 393 301 324 273 252 369 415
1730.0 304 130 114 89 67 48 89 77 81 106
1770.0 88 88 128 92 70 43 26 38 18 56
1810.0 42 39 52 51 47 47 76 87 55 23
1850.0 47 53 37 35 18 10 59 80 88 83
1890.0 62 62 73 86 94 88 71 52 34 54
1930.0 60 54 52 28 30 36 29 25 31 22
1970.0 24 30 31 38 44 27 23 32 33 30
2010.0 37 40 49 66 80 86 85 73 67 70
2050.0 71 65 56 44 32 38 36 38 37 42
2090.0 54 62 61 51 31 15 9 6 1 2
2130.0 0 2 0 0 0 2 1 6 7 13
2170.0 16 16 18 18 17 15 12 10 10 12
2210.0 12 11 9 14 14 15 11 10 6 7
2250.0 12 18 19 18 20 12 13 13 15 19
2290.0 26 36 51 61 71 82 74 76 80 74
2330.0 74 73 58 65 71 69 73 58 52 54
2370.0 55 53 61 66 58 49 52 64 64 59
2410.0 54 54 48 46 43 39 37 39 41 42
2450.0 43 44 49 54 60 64 63 62 52 45
2490.0 33 32 31 29 31 26 28 28 32 31
2530.0 33 36 44 51 57 65 71 80 89 98
2570.0 98 94 88 84 75 72 65 58 51 51
2610.0 52 53 58 63 72 77 79 82 73 59
2650.0 47 43 42 42 37 33 31 33 35 37
2690.0 39 46 50 49 43 37 34 33 32 33
2730.0 35 39 44 45 49 48 40 34 32 34
2770.0 33 39 41 41 39 41 45 43 38 43
2810.0 45 42 46 44 43 40 38 36 34 41
2850.0 40 44 54 56 64 66 63 58 55 55
2890.0 52 49 42 40 38 37 37 38 40 39
2930.0 43 46 44 41 37 37 34 39 36 27
2970.0 29 33 29 28 32 35 34 43 41 39
3010.0 45 47 49 52 58 66 76 89 115 142
3050.0 199 269 290 267 245 255 255 288 346 345
3090.0 245 154 130 141 153 165 167 177 194 226
3130.0 244 172 90 54 46 41 46 46 45 41
3170.0 34 35 32 34 29 30 24 25 17 18
3210.0 21 19 18 19 17 22 24 24 22 26
3250.0 23 27 25 28 37 38 41 47 49 50
3290.0 48 52 48 43 46 41 36 40 43 38
3330.0 35 39 48 57 65 74 73 56 52 40
3370.0 30 25 21 23 28 28 20 20 25 27
3410.0 25 24 18 18 24 30 17 19 16 10
3450.0 15 16 18 18 21 18 23 20 16 18
3490.0 19 24 27 20 17 15 21 15 12 21
3530.0 24 18 20 18 18 17 15 21 22 6
3570.0 20 21 19 30 26 26 23 21 24 24
3610.0 10 22 17 18 16 11 26 25 25 25
3650.0 17 24 18 18 21 15 20 24 30 24
3690.0 25 26 17 22 18 19 27 21 17 22
3730.0 25 22 23 17 16 26 19 25 24 25
3770.0 15 14 23 12 22 19 11 9 17 12
3810.0 13 20 25 20 23 13 11 16 29 20
3850.0 14 15 20 24 24 20 17 20 10 16
3890.0 24 12 19 16 19 23 25 18 15 21
3930.0 29 25 19 11 14 16 12 13 14 9
##END=
