##TITLE=Benzofuro[2,3-b]benzofuran-10b-carboxylic acid, 5a,10b-dihydro-2,5a,8-trimethyl ether, ethyl ester
##JCAMP-DX=4.24
##DATA TYPE=INFRARED SPECTRUM
##ORIGIN=Sadtler Research Labs Under US-EPA Contract
##OWNER=NIST Standard Reference Data Program
##CAS REGISTRY NO=1569-28-4
##MOLFORM=C 20 H 20 O 4
##XUNITS=1/CM
##YUNITS=ABSORBANCE
##XFACTOR=1.0
##YFACTOR=0.000037332
##DELTAX=4.0
##FIRSTX=450.0
##LASTX=3966.0
##FIRSTY=0.038377
##MAXX=3966
##MINX=450
##MAXY=0.37332
##MINY=0
##NPOINTS=880
##XYDATA=(X++(Y..Y))
450.0 1028 665 462 226 303 119 35 57 16 136
490.0 142 128 138 232 337 355 410 423 435 307
530.0 232 178 154 85 136 184 249 356 347 320
570.0 284 345 413 512 665 610 968 1007 528 447
610.0 470 371 212 139 134 99 142 157 148 203
650.0 224 245 318 571 705 863 772 731 799 637
690.0 429 395 451 499 430 366 329 313 337 341
730.0 346 356 456 533 588 702 963 1459 1956 1818
770.0 1437 1343 1426 1536 1728 2151 3104 3839 3735 3306
810.0 2671 1744 1189 1024 987 1035 1124 1317 1618 2020
850.0 2585 3097 3110 2708 2555 2580 2710 2789 2881 2947
890.0 3020 3111 3050 2925 2686 2486 2314 2259 2398 2832
930.0 3456 4342 5403 5620 4874 3938 3260 2718 2198 1661
970.0 1400 1315 1323 1393 1526 1736 1849 1880 1785 1648
1010.0 1563 1660 1982 2498 3316 4307 5290 5797 5670 4965
1050.0 4002 3238 2770 2834 3560 5066 7146 9089 10000 9488
1090.0 7832 5909 4388 3332 2658 2220 1967 1840 1881 2166
1130.0 2420 2283 2060 1971 1981 2087 2206 2328 2374 2390
1170.0 2437 2589 2958 3638 4572 5535 6233 6276 5711 4864
1210.0 4206 3913 3978 4258 4618 5082 5614 6284 7135 8168
1250.0 8953 9124 8771 8122 7470 7052 7197 7627 7616 6561
1290.0 4955 3590 2843 2583 2543 2398 1983 1459 993 707
1330.0 533 449 391 370 379 401 470 570 838 1171
1370.0 1284 1213 1526 2493 3023 2292 1461 1010 940 1003
1410.0 1148 1477 1886 2412 2877 3270 3406 3279 3044 2808
1450.0 2511 2209 1949 1849 1859 1894 2013 2350 3179 4836
1490.0 6225 7127 6713 4676 2528 1339 979 801 720 652
1530.0 616 561 515 464 453 458 468 497 526 620
1570.0 714 857 1065 1423 1880 2332 2590 2566 2179 1777
1610.0 1692 1886 2405 2732 2462 1673 991 562 381 311
1650.0 269 273 276 288 302 304 330 357 413 439
1690.0 542 630 732 858 1010 1158 1237 1460 1822 2555
1730.0 3655 5264 6517 7004 7808 8464 7063 4558 2724 1846
1770.0 1186 814 559 452 369 299 263 216 196 157
1810.0 156 110 106 76 75 62 56 83 70 91
1850.0 103 150 177 225 234 207 169 133 125 96
1890.0 90 74 75 65 56 42 35 28 10 14
1930.0 3 7 7 8 4 10 15 12 18 19
1970.0 18 12 22 20 26 30 27 29 31 38
2010.0 36 37 40 48 43 49 54 51 57 54
2050.0 62 56 61 47 44 53 52 53 42 50
2090.0 42 46 49 44 39 28 29 24 28 25
2130.0 33 26 33 34 36 27 26 22 16 18
2170.0 21 25 27 39 36 40 39 52 48 49
2210.0 54 49 55 52 51 41 41 42 38 35
2250.0 30 43 38 45 42 37 39 38 44 52
2290.0 56 62 72 77 91 99 101 100 117 104
2330.0 98 112 89 115 101 136 160 135 131 86
2370.0 82 85 91 99 85 77 63 65 61 72
2410.0 58 76 73 70 63 64 55 51 53 48
2450.0 45 36 36 36 33 34 31 37 30 43
2490.0 33 39 43 39 48 52 65 58 64 52
2530.0 63 67 69 69 62 53 55 57 53 67
2570.0 58 56 48 48 47 45 40 37 39 34
2610.0 36 35 24 8 8 8 7 5 6 10
2650.0 11 9 16 15 14 10 12 25 25 29
2690.0 34 34 40 44 43 46 53 56 67 73
2730.0 86 123 137 165 156 135 105 86 78 73
2770.0 75 74 78 72 87 85 97 104 107 132
2810.0 135 154 176 188 203 219 247 275 302 348
2850.0 412 503 621 782 948 1114 1260 1324 1269 1177
2890.0 1094 1065 1073 1134 1215 1332 1467 1637 1881 2198
2930.0 2547 2769 2767 2566 2318 2046 1741 1509 1458 1494
2970.0 1546 1646 1879 2242 2572 2585 2346 2129 1967 1796
3010.0 1666 1575 1482 1418 1413 1423 1455 1492 1499 1428
3050.0 1286 1131 1014 929 811 719 636 568 500 439
3090.0 377 327 282 246 205 179 162 153 143 129
3130.0 98 87 68 60 51 47 59 47 33 47
3170.0 32 33 38 34 32 39 43 26 32 32
3210.0 25 29 25 35 29 20 17 1 2 9
3250.0 22 35 25 18 22 19 30 24 9 11
3290.0 25 16 14 19 13 25 17 38 24 11
3330.0 35 18 15 31 28 20 31 40 33 37
3370.0 20 17 25 36 25 32 31 40 44 44
3410.0 40 24 34 27 37 49 43 40 52 61
3450.0 71 74 63 75 60 87 74 84 79 58
3490.0 63 51 41 27 32 22 20 39 38 35
3530.0 27 47 37 34 33 33 28 34 51 34
3570.0 16 26 31 44 56 45 45 43 28 37
3610.0 46 31 16 39 29 47 31 41 44 54
3650.0 37 41 24 5 34 39 47 21 40 51
3690.0 41 34 29 44 38 25 13 39 52 72
3730.0 52 36 39 44 23 28 29 26 45 42
3770.0 49 25 10 35 26 35 46 29 20 22
3810.0 5 51 74 23 34 59 41 34 20 30
3850.0 54 66 32 64 75 42 0 34 26 38
3890.0 52 63 77 81 53 56 51 54 87 38
3930.0 37 91 57 34 50 77 66 58 71 67
##END=
