##TITLE=5-Hexen-3-ol, 3-methyl-
##JCAMP-DX=4.24
##DATA TYPE=INFRARED SPECTRUM
##ORIGIN=Sadtler Research Labs Under US-EPA Contract
##OWNER=NIST Standard Reference Data Program
##CAS REGISTRY NO=1569-44-4
##MOLFORM=C 7 H 14 O
##XUNITS=1/CM
##YUNITS=ABSORBANCE
##XFACTOR=1.0
##YFACTOR=0.000081122
##DELTAX=4.0
##FIRSTX=450.0
##LASTX=3966.0
##FIRSTY=0.036505
##MAXX=3966
##MINX=450
##MAXY=0.81122
##MINY=0
##NPOINTS=880
##XYDATA=(X++(Y..Y))
450.0 450 442 465 434 384 394 375 370 325 278
490.0 305 283 213 262 232 194 211 191 219 262
530.0 217 217 237 203 161 134 76 123 114 87
570.0 63 60 73 53 95 90 109 128 157 232
610.0 288 367 390 392 391 364 341 309 330 296
650.0 292 263 226 162 132 124 64 70 86 68
690.0 43 55 44 47 43 31 5 24 52 77
730.0 123 163 219 251 286 340 385 386 432 416
770.0 385 345 328 315 294 278 248 209 163 119
810.0 98 79 86 95 110 106 146 167 207 263
850.0 341 446 574 713 823 904 902 839 764 709
890.0 738 862 1158 1635 2345 3130 3996 4610 4674 4420
930.0 3838 3063 2353 1815 1429 1174 1013 910 817 769
970.0 766 852 1058 1403 1865 2385 2881 3124 3096 2890
1010.0 2497 2063 1685 1421 1246 1161 1130 1129 1131 1122
1050.0 1090 1032 960 912 897 902 933 975 1022 1056
1090.0 1095 1129 1169 1236 1331 1460 1608 1768 1902 2027
1130.0 2095 2136 2149 2166 2206 2271 2354 2416 2450 2420
1170.0 2336 2184 2027 1845 1669 1506 1358 1242 1146 1086
1210.0 1044 1029 1024 1034 1041 1056 1069 1092 1116 1140
1250.0 1180 1218 1271 1308 1343 1337 1305 1258 1213 1195
1290.0 1172 1168 1158 1160 1147 1132 1115 1109 1116 1128
1330.0 1135 1158 1185 1233 1300 1361 1448 1539 1659 1838
1370.0 2044 2316 2543 2646 2490 2195 1781 1351 998 807
1410.0 711 690 702 738 807 904 1055 1197 1357 1482
1450.0 1605 1700 1803 1852 1755 1585 1318 1047 771 535
1490.0 368 262 208 164 153 120 119 113 107 105
1530.0 98 106 97 91 77 98 79 86 88 75
1570.0 77 77 84 71 75 69 69 79 86 100
1610.0 114 143 178 253 367 597 848 1010 1106 1050
1650.0 910 634 308 171 98 73 54 45 37 41
1690.0 35 34 43 35 48 55 57 25 29 7
1730.0 0 12 20 28 25 29 30 29 28 35
1770.0 28 31 26 25 34 34 34 33 35 41
1810.0 48 55 87 127 186 249 300 324 327 298
1850.0 249 196 143 104 72 45 38 26 21 25
1890.0 21 21 25 25 26 28 24 25 20 23
1930.0 18 18 15 11 11 14 13 14 17 16
1970.0 22 27 29 33 37 35 30 32 27 22
2010.0 19 17 13 15 13 16 13 15 14 16
2050.0 15 12 13 15 9 11 15 14 17 10
2090.0 9 13 14 12 12 12 11 10 13 11
2130.0 14 11 12 13 7 3 9 12 10 8
2170.0 9 10 14 8 7 8 6 5 6 9
2210.0 6 5 8 11 9 9 13 7 7 11
2250.0 9 12 13 13 12 11 13 9 16 20
2290.0 22 23 22 28 31 38 47 47 56 68
2330.0 63 47 43 55 26 51 43 55 34 12
2370.0 9 20 17 26 23 24 25 24 22 15
2410.0 14 12 15 14 13 16 18 20 18 13
2450.0 10 16 14 15 13 13 11 18 12 13
2490.0 12 8 13 9 13 13 11 13 16 12
2530.0 14 18 14 23 19 13 13 22 22 19
2570.0 18 23 23 28 30 30 34 32 35 33
2610.0 34 35 34 31 34 29 31 33 30 35
2650.0 31 37 40 42 41 42 46 44 47 42
2690.0 47 52 56 62 65 69 75 82 93 100
2730.0 107 115 124 134 138 136 135 130 122 125
2770.0 123 128 129 132 145 152 165 186 201 222
2810.0 249 285 328 375 439 511 594 681 790 905
2850.0 1036 1178 1334 1474 1617 1724 1857 2068 2363 2686
2890.0 2963 3161 3293 3372 3415 3540 3797 4177 4687 5260
2930.0 5830 6202 6366 6247 5880 5353 4929 4831 5284 6353
2970.0 7788 9188 10000 9964 8974 7233 5381 3830 2656 1896
3010.0 1488 1293 1147 1010 866 695 566 479 441 430
3050.0 454 496 559 662 801 1020 1337 1770 2033 2215
3090.0 2054 1690 1296 752 427 268 188 159 143 137
3130.0 124 129 118 121 121 119 125 119 124 117
3170.0 121 110 110 99 98 89 93 88 80 78
3210.0 68 73 65 56 48 44 38 40 28 31
3250.0 28 24 34 26 36 27 32 28 19 32
3290.0 19 31 18 19 18 22 25 29 25 27
3330.0 26 25 28 28 25 23 23 27 20 26
3370.0 28 25 21 21 26 19 31 28 33 39
3410.0 28 30 29 37 33 34 32 36 32 22
3450.0 30 18 16 15 10 19 19 26 25 13
3490.0 20 19 15 8 7 11 15 20 20 16
3530.0 15 18 19 17 23 14 10 20 19 15
3570.0 26 30 50 56 87 120 203 304 421 510
3610.0 574 586 582 560 584 640 713 763 824 753
3650.0 624 498 337 227 143 87 71 40 45 38
3690.0 31 23 33 23 29 8 14 18 13 10
3730.0 9 1 4 3 27 1 1 2 1 5
3770.0 1 1 11 1 4 14 9 17 7 17
3810.0 9 31 13 19 3 13 19 30 6 13
3850.0 16 29 10 34 27 26 29 38 29 28
3890.0 20 22 21 17 10 25 30 3 21 25
3930.0 24 26 25 27 18 11 1 14 6 6
##END=
