##TITLE=Cyclohexanethiol
##JCAMP-DX=4.24
##DATA TYPE=INFRARED SPECTRUM
##ORIGIN=Sadtler Research Labs Under US-EPA Contract
##OWNER=NIST Standard Reference Data Program
##CAS REGISTRY NO=1569-69-3
##MOLFORM=C 6 H 12 S
##XUNITS=1/CM
##YUNITS=ABSORBANCE
##XFACTOR=1.0
##YFACTOR=0.000084802
##DELTAX=4.0
##FIRSTX=450.0
##LASTX=3966.0
##FIRSTY=0.001018
##MAXX=3966
##MINX=450
##MAXY=0.84802
##MINY=0
##NPOINTS=880
##XYDATA=(X++(Y..Y))
450.0 12 39 28 24 25 20 28 38 55 42
490.0 34 64 31 62 79 36 41 28 37 17
530.0 25 31 8 33 38 30 32 38 28 24
570.0 31 39 12 38 34 45 28 36 32 34
610.0 43 32 38 49 51 69 0 42 41 61
650.0 44 66 40 47 59 67 64 53 41 58
690.0 83 79 83 99 108 135 144 128 97 121
730.0 133 97 129 120 107 65 61 41 45 50
770.0 45 50 49 62 49 57 79 68 99 135
810.0 162 182 177 176 171 124 107 105 94 108
850.0 120 123 121 127 137 154 163 198 217 210
890.0 187 173 137 118 104 96 100 93 84 78
930.0 75 64 58 52 52 47 45 50 52 52
970.0 55 71 83 123 187 253 301 336 340 314
1010.0 291 231 201 190 170 153 122 93 79 62
1050.0 55 54 50 57 49 43 44 40 43 47
1090.0 43 50 54 60 55 59 59 66 72 76
1130.0 79 77 72 61 59 47 54 48 53 59
1170.0 60 75 86 98 106 118 167 231 297 347
1210.0 376 376 345 270 199 153 118 98 79 90
1250.0 126 191 278 374 475 451 451 357 264 195
1290.0 125 97 86 75 78 85 79 74 73 80
1330.0 98 129 162 192 214 200 175 143 106 85
1370.0 61 55 44 36 38 37 35 39 44 42
1410.0 48 55 57 64 101 160 265 408 594 753
1450.0 853 1007 938 728 580 415 264 172 105 63
1490.0 42 41 30 28 23 31 24 25 21 25
1530.0 25 23 24 15 25 23 22 17 19 26
1570.0 22 22 22 29 22 21 21 21 22 22
1610.0 22 22 19 21 22 20 22 16 21 15
1650.0 22 1 23 21 21 20 22 25 22 14
1690.0 20 21 17 11 20 20 20 15 19 22
1730.0 20 17 19 18 19 20 19 20 19 18
1770.0 20 19 19 22 17 20 19 19 19 18
1810.0 23 18 18 18 18 18 17 16 17 18
1850.0 16 16 16 17 16 16 16 15 22 16
1890.0 16 16 20 17 15 14 14 15 16 16
1930.0 14 14 15 15 15 15 14 14 14 15
1970.0 14 14 20 13 19 16 13 13 13 14
2010.0 12 12 12 12 13 12 12 12 12 12
2050.0 9 13 10 5 12 12 12 12 11 11
2090.0 17 11 11 11 11 15 10 15 16 11
2130.0 16 17 11 16 16 16 20 22 22 22
2170.0 22 22 22 22 22 21 21 22 22 17
2210.0 15 15 15 16 16 16 20 14 20 15
2250.0 14 13 10 12 11 8 7 9 9 9
2290.0 9 9 10 9 11 11 11 16 10 11
2330.0 14 4 11 16 11 10 10 10 24 8
2370.0 15 21 24 18 19 10 12 6 11 11
2410.0 6 5 11 9 9 5 5 9 4 4
2450.0 4 4 4 5 9 9 9 17 12 8
2490.0 16 11 5 9 3 3 3 3 2 9
2530.0 9 9 9 9 9 7 2 9 8 19
2570.0 32 51 70 114 113 116 112 101 81 62
2610.0 50 38 39 38 38 45 39 44 47 50
2650.0 59 65 78 90 97 98 97 91 78 68
2690.0 56 49 46 42 41 41 42 40 29 29
2730.0 29 23 23 24 17 18 20 23 26 32
2770.0 29 40 47 58 65 76 88 99 95 97
2810.0 98 91 83 75 82 98 139 234 391 650
2850.0 1052 1629 2169 2523 2615 2429 2065 1549 1097 819
2890.0 700 699 804 970 1194 1503 1871 2327 3146 4345
2930.0 6041 7935 9274 10000 8872 7399 5600 3513 1928 1005
2970.0 519 273 153 92 65 54 40 45 39 34
3010.0 29 22 18 27 16 24 20 18 18 23
3050.0 24 13 18 35 26 35 39 33 31 37
3090.0 31 23 28 19 13 14 14 14 14 14
3130.0 14 16 16 21 12 20 30 25 26 32
3170.0 25 28 26 17 18 18 22 14 20 21
3210.0 21 17 23 16 24 21 20 31 24 20
3250.0 19 18 20 28 21 20 15 19 15 19
3290.0 6 14 9 12 11 13 22 28 13 18
3330.0 24 22 35 3 25 25 27 35 7 14
3370.0 21 26 26 16 17 22 22 22 24 24
3410.0 20 30 36 30 25 30 31 31 26 28
3450.0 39 32 34 35 22 28 21 25 30 31
3490.0 25 30 32 33 28 22 28 31 29 34
3530.0 24 23 23 29 26 26 34 25 25 23
3570.0 23 30 26 25 45 34 35 20 29 36
3610.0 33 36 42 26 35 37 40 32 33 34
3650.0 32 42 41 40 47 40 31 32 36 43
3690.0 36 37 33 34 44 40 38 35 35 51
3730.0 42 46 34 34 29 37 29 35 34 39
3770.0 46 46 45 37 32 36 40 36 30 39
3810.0 38 38 32 41 40 34 33 30 25 31
3850.0 32 28 28 33 37 31 30 35 43 41
3890.0 38 30 27 29 30 36 38 40 47 47
3930.0 52 48 53 54 48 50 48 45 44 40
##END=
