##TITLE=1,4-Di-n-butylbenzene
##JCAMP-DX=4.24
##DATA TYPE=INFRARED SPECTRUM
##ORIGIN=Sadtler Research Labs Under US-EPA Contract
##OWNER=NIST Standard Reference Data Program
##CAS REGISTRY NO=1571-86-4
##MOLFORM=C 14 H 22
##XUNITS=1/CM
##YUNITS=ABSORBANCE
##XFACTOR=1.0
##YFACTOR=0.000145624
##DELTAX=4.0
##FIRSTX=450.0
##LASTX=3966.0
##FIRSTY=0.004951
##MAXX=3966
##MINX=450
##MAXY=1.45624
##MINY=0
##NPOINTS=880
##XYDATA=(X++(Y..Y))
450.0 34 35 16 13 37 23 40 36 26 34
490.0 17 22 20 17 7 12 33 31 14 11
530.0 15 21 26 32 59 81 129 193 292 393
570.0 560 663 733 724 610 489 331 230 152 104
610.0 76 46 46 46 31 28 14 28 21 20
650.0 29 10 17 18 28 54 42 35 39 49
690.0 48 52 43 30 14 12 17 25 23 20
730.0 16 29 14 12 16 5 8 18 14 18
770.0 23 26 28 39 43 54 78 91 129 182
810.0 233 329 464 668 917 1090 1053 813 542 336
850.0 203 125 74 53 37 34 33 31 33 39
890.0 36 34 36 33 44 51 58 65 68 70
930.0 73 66 55 41 36 30 24 25 23 25
970.0 21 28 29 36 41 40 42 54 91 180
1010.0 408 619 675 549 342 222 158 119 91 78
1050.0 72 69 64 63 61 54 49 49 49 48
1090.0 43 37 34 31 40 57 93 171 339 613
1130.0 824 821 595 352 216 143 105 85 72 65
1170.0 61 63 72 93 130 187 255 296 283 227
1210.0 171 148 158 172 170 149 122 121 139 176
1250.0 243 358 589 991 1493 1765 1575 1020 540 319
1290.0 210 149 110 85 70 56 42 29 20 11
1330.0 21 42 77 132 218 350 541 773 991 1134
1370.0 1120 983 803 673 617 691 861 928 823 577
1410.0 363 269 206 184 160 155 156 175 207 255
1450.0 332 426 548 668 763 851 931 982 934 801
1490.0 647 608 674 817 956 1017 974 841 713 611
1530.0 493 334 189 105 76 67 56 44 44 38
1570.0 23 13 0 0 6 15 23 29 33 31
1610.0 33 34 31 38 36 46 44 52 63 74
1650.0 74 81 81 73 65 54 43 44 34 34
1690.0 35 38 34 39 45 51 49 41 48 48
1730.0 42 36 42 42 42 45 55 65 78 102
1770.0 112 120 117 104 82 60 40 33 28 29
1810.0 25 27 27 26 24 22 24 27 25 25
1850.0 27 30 31 33 35 37 45 53 60 68
1890.0 74 81 85 84 78 66 54 43 34 30
1930.0 28 26 24 23 21 22 19 19 17 17
1970.0 15 17 17 17 15 14 13 15 16 16
2010.0 18 15 16 15 15 15 15 15 14 14
2050.0 12 11 11 9 8 9 7 8 9 8
2090.0 8 8 9 9 9 9 9 8 8 8
2130.0 7 7 10 8 8 9 7 8 5 8
2170.0 8 8 10 8 12 11 13 14 14 14
2210.0 13 12 13 12 10 8 6 2 2 3
2250.0 1 1 0 2 4 4 7 10 14 17
2290.0 18 20 23 22 24 23 24 23 25 27
2330.0 30 26 22 30 28 28 31 31 35 31
2370.0 25 28 34 36 34 32 27 22 18 14
2410.0 13 14 10 10 9 9 9 11 10 11
2450.0 9 9 11 9 9 9 9 10 9 11
2490.0 11 11 10 10 9 8 9 8 8 6
2530.0 8 9 10 13 13 15 19 24 27 29
2570.0 27 27 23 24 23 23 26 22 22 20
2610.0 19 20 20 20 21 22 24 25 26 30
2650.0 30 34 34 37 38 37 35 35 33 32
2690.0 34 36 36 41 48 56 66 78 87 89
2730.0 85 77 74 71 70 71 68 68 65 61
2770.0 61 62 68 77 90 96 95 92 97 108
2810.0 122 139 150 157 161 165 173 189 213 251
2850.0 311 404 554 781 1097 1465 1782 1956 1960 1889
2890.0 1803 1753 1753 1846 2050 2359 2631 2711 2565 2324
2930.0 2153 2095 2145 2333 2741 3515 4766 6422 8340 9898
2970.0 10000 8527 6027 4061 2737 1848 1240 860 626 493
3010.0 414 373 358 366 412 515 641 728 716 619
3050.0 513 459 444 437 430 424 426 436 450 466
3090.0 473 464 438 391 336 281 233 194 172 152
3130.0 137 125 113 99 86 77 70 69 68 65
3170.0 66 69 70 71 74 80 79 80 76 73
3210.0 70 71 69 66 65 65 63 58 55 54
3250.0 50 44 42 38 36 33 35 32 30 32
3290.0 30 27 23 20 18 21 24 20 21 20
3330.0 19 20 16 15 16 20 17 17 17 15
3370.0 17 18 19 17 19 21 15 15 20 19
3410.0 24 18 18 17 19 21 22 22 20 23
3450.0 20 16 17 19 13 17 14 14 12 16
3490.0 13 16 12 9 10 7 5 7 8 9
3530.0 3 11 9 10 7 4 7 8 9 8
3570.0 9 4 4 8 5 6 4 5 2 1
3610.0 8 2 4 4 1 8 5 6 3 1
3650.0 0 2 7 4 6 11 10 8 8 9
3690.0 9 8 7 5 10 1 9 10 5 13
3730.0 4 8 8 9 3 0 2 4 2 8
3770.0 4 10 7 10 5 11 11 9 16 13
3810.0 15 12 9 10 12 2 5 4 9 17
3850.0 6 5 8 7 1 8 11 9 14 17
3890.0 25 21 21 23 22 12 11 12 8 2
3930.0 6 7 7 8 3 8 7 12 10 2
##END=
