##TITLE=1,4-Butanediol, dipropionate
##JCAMP-DX=4.24
##DATA TYPE=INFRARED SPECTRUM
##ORIGIN=Sadtler Research Labs Under US-EPA Contract
##OWNER=NIST Standard Reference Data Program
##CAS REGISTRY NO=1572-92-5
##MOLFORM=C 10 H 18 O 4
##XUNITS=1/CM
##YUNITS=ABSORBANCE
##XFACTOR=1.0
##YFACTOR=0.000171448
##DELTAX=4.0
##FIRSTX=450.0
##LASTX=3966.0
##FIRSTY=0.029832
##MAXX=3966
##MINX=450
##MAXY=1.71448
##MINY=0
##NPOINTS=880
##XYDATA=(X++(Y..Y))
450.0 174 87 79 68 73 36 66 41 78 65
490.0 32 27 42 63 69 34 25 33 33 54
530.0 36 32 30 41 32 50 47 47 56 58
570.0 71 80 83 86 85 87 87 107 101 96
610.0 108 119 104 104 96 75 59 52 44 33
650.0 28 29 31 29 33 35 35 33 30 19
690.0 16 12 6 8 4 2 15 13 23 24
730.0 29 43 53 63 78 79 85 63 68 68
770.0 66 76 72 80 92 108 129 159 197 232
810.0 262 271 264 254 243 230 216 211 202 193
850.0 187 180 166 159 154 155 153 147 149 148
890.0 153 149 144 139 122 115 104 105 120 152
930.0 204 273 338 384 414 419 412 401 395 389
970.0 387 391 406 438 496 569 644 725 813 926
1010.0 1057 1211 1377 1522 1565 1525 1480 1477 1465 1435
1050.0 1446 1546 1744 1997 2241 2424 2541 2671 2848 2904
1090.0 2679 2271 1876 1585 1386 1266 1209 1185 1177 1177
1130.0 1184 1199 1245 1326 1459 1679 2011 2525 3346 4593
1170.0 6319 8257 9536 9800 9093 8087 7016 6193 5537 5059
1210.0 4588 4171 3760 3404 3071 2775 2537 2352 2230 2141
1250.0 2090 2038 1972 1904 1873 1883 1894 1860 1733 1534
1290.0 1307 1100 930 807 724 683 685 756 905 1140
1330.0 1395 1601 1767 1910 2079 2220 2182 1891 1474 1106
1370.0 859 746 705 750 845 899 859 742 577 451
1410.0 380 341 369 379 436 511 623 704 736 752
1450.0 791 834 912 1016 1228 1382 1274 947 633 469
1490.0 349 252 206 163 157 146 110 98 102 69
1530.0 61 46 58 66 51 31 37 57 41 20
1570.0 24 22 21 17 6 11 7 12 7 14
1610.0 13 15 34 17 35 12 36 35 30 35
1650.0 60 67 58 52 67 78 96 90 125 150
1690.0 157 182 245 296 355 431 561 714 857 1058
1730.0 1395 1842 2440 3291 4608 6376 8624 10000 9439 7246
1770.0 5055 3508 2455 1819 1390 1111 874 682 524 398
1810.0 311 249 196 161 137 117 93 75 72 69
1850.0 55 45 43 40 42 47 36 33 33 33
1890.0 35 34 32 31 31 33 33 34 39 32
1930.0 33 32 32 38 36 31 32 33 33 35
1970.0 33 36 35 36 36 41 42 38 39 39
2010.0 41 43 47 49 49 48 49 51 51 50
2050.0 46 45 43 40 39 35 35 32 28 28
2090.0 27 23 23 20 18 20 18 18 17 16
2130.0 16 16 15 15 14 14 12 12 14 11
2170.0 11 11 11 11 13 13 11 12 10 10
2210.0 9 9 7 9 7 8 10 10 10 9
2250.0 8 9 9 8 9 8 10 10 9 9
2290.0 10 8 9 11 11 11 13 12 13 18
2330.0 21 22 22 27 25 29 28 23 23 27
2370.0 23 25 24 19 14 12 12 12 10 10
2410.0 10 9 7 7 8 7 7 7 5 5
2450.0 6 7 7 6 7 6 5 4 5 2
2490.0 1 1 1 0 0 1 3 0 1 2
2530.0 4 4 4 4 4 4 4 4 4 7
2570.0 3 4 5 5 7 7 7 7 7 8
2610.0 10 8 9 12 10 11 13 14 13 14
2650.0 13 10 10 11 11 11 13 14 14 16
2690.0 18 20 21 25 26 28 28 31 31 33
2730.0 36 38 40 44 49 56 60 65 67 67
2770.0 67 69 71 70 72 70 69 73 74 76
2810.0 81 87 96 106 114 127 141 159 187 217
2850.0 261 317 389 456 507 533 565 626 708 807
2890.0 916 1030 1119 1156 1154 1146 1163 1224 1323 1417
2930.0 1505 1603 1745 1931 2184 2520 2821 2931 2867 2775
2970.0 2664 2514 2380 2383 2513 2512 2192 1686 1274 1006
3010.0 816 669 546 444 360 295 244 201 169 148
3050.0 126 111 99 87 80 71 67 61 59 57
3090.0 51 48 45 40 42 40 38 38 36 35
3130.0 36 33 32 31 32 29 28 31 29 28
3170.0 28 27 26 28 28 26 24 24 24 22
3210.0 20 18 14 13 13 8 9 7 8 6
3250.0 7 4 4 4 4 3 4 3 3 3
3290.0 5 3 5 1 1 2 1 4 5 1
3330.0 4 3 3 3 4 1 5 3 5 4
3370.0 3 1 1 2 2 3 0 5 3 3
3410.0 4 6 3 4 5 0 3 6 5 8
3450.0 9 9 9 13 17 17 23 31 40 55
3490.0 69 84 89 82 61 43 31 16 12 5
3530.0 10 6 5 0 6 7 6 15 23 47
3570.0 49 48 54 59 49 53 54 36 26 17
3610.0 18 12 16 14 9 19 14 11 15 22
3650.0 30 32 41 49 59 68 74 70 47 44
3690.0 29 17 8 5 0 0 4 4 1 2
3730.0 2 7 5 0 13 0 10 0 0 0
3770.0 1 0 0 0 0 0 0 0 0 0
3810.0 2 3 0 0 0 0 0 7 0 0
3850.0 0 3 0 0 0 0 0 2 0 1
3890.0 0 0 0 4 0 0 2 3 3 0
3930.0 0 0 0 0 0 0 9 0 0 0
##END=
