##TITLE=2-Butyne-1,4-diol, diacetate
##JCAMP-DX=4.24
##DATA TYPE=INFRARED SPECTRUM
##ORIGIN=Sadtler Research Labs Under US-EPA Contract
##OWNER=NIST Standard Reference Data Program
##CAS REGISTRY NO=1573-17-7
##MOLFORM=C 8 H 10 O 4
##XUNITS=1/CM
##YUNITS=ABSORBANCE
##XFACTOR=1.0
##YFACTOR=0.000245428
##DELTAX=4.0
##FIRSTX=450.0
##LASTX=3966.0
##FIRSTY=0.013499
##MAXX=3966
##MINX=450
##MAXY=2.45428
##MINY=0
##NPOINTS=880
##XYDATA=(X++(Y..Y))
450.0 55 58 39 55 25 73 76 114 126 163
490.0 184 191 187 179 186 149 174 135 133 138
530.0 178 295 284 160 152 172 164 210 191 202
570.0 166 161 228 290 191 227 304 346 402 386
610.0 383 361 330 330 340 299 266 263 325 285
650.0 264 377 343 240 182 190 150 152 158 126
690.0 102 70 58 38 35 32 16 18 13 6
730.0 8 26 17 18 14 17 15 20 27 27
770.0 34 31 50 38 80 59 68 94 110 145
810.0 171 209 243 268 285 281 271 233 207 167
850.0 145 129 129 134 129 154 159 174 174 191
890.0 198 210 218 234 246 248 249 226 209 186
930.0 171 167 173 189 226 289 382 549 765 958
970.0 1014 936 798 715 712 761 886 1077 1361 1702
1010.0 2124 2527 2928 3271 3467 3395 3068 2619 2121 1717
1050.0 1398 1168 1001 899 832 796 786 775 772 749
1090.0 714 659 594 526 472 434 404 404 421 482
1130.0 591 768 993 1265 1609 1997 2238 2202 1934 1526
1170.0 1262 1127 1123 1193 1357 1609 1992 2668 3796 5652
1210.0 7821 10000 9599 9535 8441 7607 6359 5049 3924 2944
1250.0 2313 1954 1773 1673 1620 1543 1377 1146 909 708
1290.0 556 461 391 347 308 274 256 240 235 237
1330.0 250 269 305 366 480 678 1065 1602 1938 1990
1370.0 1781 1658 1726 1797 1752 1543 1272 1014 814 660
1410.0 551 480 441 443 459 502 554 605 629 621
1450.0 576 512 436 368 306 261 225 200 184 173
1490.0 158 159 152 145 138 135 124 121 125 117
1530.0 112 101 109 92 89 82 86 81 90 75
1570.0 75 68 82 63 71 69 73 70 72 71
1610.0 66 71 71 71 66 69 69 71 67 80
1650.0 67 92 87 75 86 91 84 101 96 120
1690.0 121 141 156 195 216 260 303 367 439 534
1730.0 643 796 1004 1253 1652 2151 2910 3801 5198 6232
1770.0 7062 6951 6223 5175 4130 3229 2621 2152 1720 1425
1810.0 1142 853 620 443 342 271 234 203 183 160
1850.0 144 131 113 98 88 75 69 62 58 52
1890.0 51 47 45 45 45 46 45 51 49 57
1930.0 57 60 62 58 57 54 51 48 50 46
1970.0 46 50 50 56 57 59 58 62 61 61
2010.0 59 59 61 63 68 69 72 71 70 65
2050.0 62 57 52 44 37 40 35 35 34 39
2090.0 38 39 38 36 37 34 36 34 35 35
2130.0 35 36 38 37 34 33 31 29 27 24
2170.0 25 23 23 21 25 21 26 24 24 24
2210.0 22 18 17 19 19 19 19 21 20 20
2250.0 20 20 17 15 15 13 16 15 13 14
2290.0 17 19 22 26 26 30 30 29 32 30
2330.0 26 31 18 30 30 30 41 35 31 16
2370.0 11 11 14 18 14 14 14 17 18 19
2410.0 19 23 20 19 24 24 27 22 23 24
2450.0 25 26 25 25 23 24 20 18 14 14
2490.0 14 10 11 11 8 6 6 4 4 1
2530.0 2 3 4 2 0 2 1 2 3 3
2570.0 7 9 12 12 14 15 13 12 13 13
2610.0 7 9 7 8 7 9 9 9 6 7
2650.0 9 7 12 13 17 17 11 14 15 18
2690.0 9 13 10 15 12 9 9 11 13 13
2730.0 16 16 18 16 16 13 14 11 10 13
2770.0 11 13 13 18 19 22 24 28 33 33
2810.0 33 36 37 34 36 38 37 41 47 51
2850.0 64 76 92 107 116 129 140 148 163 166
2890.0 168 162 158 154 154 154 162 171 179 200
2930.0 226 276 328 416 494 572 616 605 573 494
2970.0 411 338 284 245 226 204 183 165 132 111
3010.0 111 100 97 97 98 103 105 102 90 92
3050.0 87 84 83 81 80 76 73 67 59 57
3090.0 53 48 49 48 42 43 36 33 33 28
3130.0 29 24 19 16 15 11 15 11 9 6
3170.0 9 6 4 5 7 7 8 6 6 3
3210.0 8 4 5 0 3 5 7 7 12 8
3250.0 7 17 4 13 9 8 11 17 14 10
3290.0 19 10 14 17 9 7 20 24 23 20
3330.0 17 15 17 22 14 12 11 3 17 12
3370.0 16 11 10 9 11 12 16 19 13 15
3410.0 10 14 13 13 11 13 15 13 17 16
3450.0 16 15 16 16 24 23 18 19 29 32
3490.0 35 43 40 46 52 65 74 77 81 77
3530.0 76 73 79 79 89 105 113 158 171 176
3570.0 172 158 174 242 172 144 184 172 165 124
3610.0 96 70 64 68 52 72 66 73 77 94
3650.0 98 98 109 108 104 105 100 95 83 76
3690.0 69 63 52 40 41 34 39 34 33 33
3730.0 38 43 35 40 40 48 26 20 31 25
3770.0 16 31 22 25 22 29 34 21 31 32
3810.0 28 22 38 28 30 22 40 25 21 18
3850.0 32 31 13 22 33 7 16 28 24 33
3890.0 27 31 22 38 39 27 31 30 39 39
3930.0 29 14 20 22 35 36 34 20 29 37
##END=
