##TITLE=3-Heptanol, 3,6-dimethyl-
##JCAMP-DX=4.24
##DATA TYPE=INFRARED SPECTRUM
##ORIGIN=Sadtler Research Labs Under US-EPA Contract
##OWNER=NIST Standard Reference Data Program
##CAS REGISTRY NO=1573-28-0
##MOLFORM=C 9 H 20 O
##XUNITS=1/CM
##YUNITS=ABSORBANCE
##XFACTOR=1.0
##YFACTOR=0.000161929
##DELTAX=4.0
##FIRSTX=450.0
##LASTX=3966.0
##FIRSTY=0.005668
##MAXX=3966
##MINX=450
##MAXY=1.61929
##MINY=0
##NPOINTS=880
##XYDATA=(X++(Y..Y))
450.0 35 66 117 96 111 93 78 88 72 74
490.0 110 184 175 210 125 99 105 90 60 74
530.0 75 46 86 21 60 75 31 51 76 74
570.0 80 72 60 83 53 66 16 3 46 27
610.0 43 12 45 30 43 25 22 39 22 40
650.0 27 33 36 39 22 40 41 44 47 41
690.0 39 39 38 53 46 52 54 67 54 105
730.0 105 110 126 105 129 116 103 104 102 99
770.0 93 98 106 106 119 117 104 93 89 73
810.0 67 65 68 71 76 83 89 84 80 75
850.0 71 85 89 103 110 152 202 276 374 484
890.0 581 617 590 523 456 452 506 612 736 843
930.0 912 896 801 663 548 447 374 324 285 252
970.0 230 229 246 298 373 439 501 570 591 593
1010.0 571 554 530 518 507 504 497 480 469 451
1050.0 431 412 396 389 396 418 450 491 521 551
1090.0 567 594 617 653 675 684 670 653 648 668
1130.0 721 777 836 887 929 983 1045 1110 1157 1176
1170.0 1154 1098 1007 898 786 694 626 577 549 535
1210.0 535 543 552 556 555 550 538 531 533 544
1250.0 557 577 595 604 606 600 593 587 580 576
1290.0 578 581 573 564 559 549 558 592 646 712
1330.0 763 783 769 741 706 683 675 702 803 993
1370.0 1238 1494 1677 1746 1663 1436 1126 801 548 412
1410.0 335 295 273 268 262 280 311 366 437 547
1450.0 704 891 1131 1329 1454 1482 1315 1038 741 501
1490.0 337 243 193 157 143 129 101 99 92 83
1530.0 72 68 68 69 62 56 58 60 70 52
1570.0 57 56 58 46 50 49 45 48 43 44
1610.0 38 48 41 42 34 39 36 40 34 41
1650.0 32 57 35 34 36 34 35 34 31 39
1690.0 27 28 35 34 23 23 29 24 22 18
1730.0 16 19 21 12 11 16 15 11 10 12
1770.0 12 14 7 13 9 13 13 15 16 15
1810.0 12 13 14 12 16 11 17 9 11 14
1850.0 13 9 9 10 13 9 9 9 6 9
1890.0 7 7 2 7 7 4 5 2 5 2
1930.0 3 5 4 7 3 1 2 1 3 2
1970.0 1 1 0 0 2 5 3 9 10 13
2010.0 19 22 24 30 29 28 31 31 31 31
2050.0 35 38 37 36 36 26 21 13 8 5
2090.0 0 2 0 1 3 4 3 4 4 4
2130.0 5 0 2 4 4 2 2 4 7 6
2170.0 7 8 5 6 10 12 10 9 10 9
2210.0 10 9 13 11 10 9 11 10 12 12
2250.0 10 14 15 16 11 13 11 19 19 17
2290.0 20 20 20 19 17 15 7 3 0 0
2330.0 0 1 3 9 24 21 0 0 1 48
2370.0 65 78 72 64 53 41 37 30 31 26
2410.0 24 26 31 31 29 26 29 31 27 28
2450.0 29 29 26 25 32 28 26 31 34 39
2490.0 33 41 40 34 38 39 38 34 38 41
2530.0 42 45 43 51 50 54 57 61 69 71
2570.0 73 76 75 80 82 82 81 88 92 90
2610.0 90 92 97 87 87 83 85 86 82 81
2650.0 82 83 77 72 71 67 70 68 74 78
2690.0 88 89 95 102 106 109 115 120 135 150
2730.0 152 167 173 163 153 151 147 148 149 147
2770.0 159 156 155 156 167 178 188 201 213 237
2810.0 260 282 304 324 364 389 429 481 565 689
2850.0 842 1040 1257 1497 1755 2087 2461 2807 3067 3179
2890.0 3109 2953 2803 2690 2727 2914 3202 3536 3939 4465
2930.0 5058 5626 6028 6100 5935 5734 5859 6721 8327 9490
2970.0 10000 8964 7296 5623 4086 2884 1990 1338 896 629
3010.0 465 381 320 282 252 237 227 208 193 180
3050.0 173 169 183 177 162 155 164 168 151 149
3090.0 152 145 137 134 129 117 107 107 112 95
3130.0 93 95 91 87 88 88 80 82 84 84
3170.0 82 86 84 76 77 73 61 56 56 55
3210.0 58 55 52 45 47 37 32 30 28 29
3250.0 22 22 26 21 24 19 17 19 16 15
3290.0 21 15 15 20 33 21 30 39 49 43
3330.0 36 27 30 21 22 46 23 22 21 27
3370.0 22 23 29 10 23 22 23 30 21 26
3410.0 24 25 28 25 26 35 36 29 30 43
3450.0 38 29 27 37 42 38 31 26 28 32
3490.0 29 37 20 23 26 25 18 22 29 15
3530.0 17 19 14 7 13 15 13 12 15 4
3570.0 17 13 12 13 3 11 2 4 10 23
3610.0 22 26 41 78 124 203 289 370 415 378
3650.0 327 226 170 85 59 43 35 18 26 6
3690.0 18 21 8 0 7 10 10 0 0 0
3730.0 3 4 1 8 16 5 17 14 2 0
3770.0 0 10 4 21 5 7 0 14 5 29
3810.0 17 15 27 13 36 38 18 31 7 38
3850.0 25 54 28 26 2 6 15 35 21 14
3890.0 18 34 22 29 27 9 4 10 5 0
3930.0 8 7 0 0 0 0 0 0 2 9
##END=
