##TITLE=Benzaldehyde, 2,4-dimethyl-
##JCAMP-DX=4.24
##DATA TYPE=INFRARED SPECTRUM
##ORIGIN=Sadtler Research Labs Under US-EPA Contract
##OWNER=NIST Standard Reference Data Program
##CAS REGISTRY NO=15764-16-6
##MOLFORM=C 9 H 10 O
##XUNITS=1/CM
##YUNITS=ABSORBANCE
##XFACTOR=1.0
##YFACTOR=0.000115695
##DELTAX=4.0
##FIRSTX=450.0
##LASTX=3966.0
##FIRSTY=0.005438
##MAXX=3966
##MINX=450
##MAXY=1.15695
##MINY=0
##NPOINTS=880
##XYDATA=(X++(Y..Y))
450.0 47 179 147 97 72 70 10 50 5 15
490.0 16 36 33 36 26 60 45 56 84 141
530.0 164 193 227 215 205 149 79 56 65 48
570.0 59 46 53 67 70 85 78 90 97 90
610.0 110 118 113 111 90 69 58 50 54 32
650.0 21 13 21 19 12 21 32 27 36 34
690.0 45 50 68 83 148 198 195 191 181 134
730.0 107 97 117 113 127 136 156 204 293 369
770.0 612 969 1254 1550 1623 1662 1524 1446 1347 1501
810.0 1753 1341 1201 940 597 443 244 163 96 81
850.0 69 67 73 71 107 121 172 177 146 114
890.0 102 83 72 63 66 70 74 90 113 141
930.0 199 293 381 387 386 326 181 74 71 83
970.0 71 53 63 70 79 78 91 98 86 84
1010.0 80 84 80 91 101 113 138 156 177 183
1050.0 189 187 180 163 161 142 139 132 130 140
1090.0 132 151 166 207 244 263 298 360 465 544
1130.0 582 578 506 399 332 290 267 236 204 187
1170.0 201 249 338 502 809 1264 1620 1782 1864 1542
1210.0 1012 791 578 414 494 655 726 726 650 467
1250.0 311 237 179 146 149 185 261 352 412 533
1290.0 684 716 679 597 425 226 120 102 102 108
1330.0 116 130 137 153 177 192 202 206 227 256
1370.0 295 365 483 577 645 674 642 568 537 520
1410.0 510 492 464 466 456 453 453 491 523 558
1450.0 603 642 649 651 614 556 493 453 436 421
1490.0 414 427 417 400 369 321 292 259 241 240
1530.0 227 234 241 261 284 339 389 459 570 694
1570.0 841 947 988 968 876 780 782 932 1310 1978
1610.0 2609 2847 2731 2197 1381 720 423 303 278 244
1650.0 229 220 212 212 239 267 313 372 423 524
1690.0 680 1143 2141 4133 6532 8788 10000 9615 7934 5167
1730.0 2978 1901 1197 747 532 486 461 426 373 306
1770.0 246 213 195 190 201 195 168 135 99 84
1810.0 63 60 53 50 47 36 36 29 31 22
1850.0 28 30 37 37 40 38 43 49 55 60
1890.0 61 62 59 59 58 54 52 59 52 55
1930.0 50 46 45 37 37 34 31 29 26 25
1970.0 27 29 31 34 31 29 24 22 25 25
2010.0 25 23 20 17 13 10 11 8 8 6
2050.0 4 6 7 7 10 14 17 20 21 19
2090.0 16 14 13 16 13 14 12 10 8 9
2130.0 12 14 17 17 15 18 12 13 11 10
2170.0 7 4 3 0 3 2 0 0 0 0
2210.0 0 0 3 3 3 3 4 2 0 2
2250.0 2 5 4 7 7 11 9 13 17 18
2290.0 20 24 32 36 39 47 49 59 59 58
2330.0 60 49 42 53 53 43 50 38 37 26
2370.0 28 24 30 32 26 24 25 24 25 24
2410.0 27 27 26 24 18 22 23 20 19 17
2450.0 17 15 15 11 13 12 12 16 19 22
2490.0 22 25 24 24 18 18 12 14 16 16
2530.0 16 17 15 18 21 22 23 23 28 28
2570.0 28 32 32 37 39 40 42 41 41 39
2610.0 40 39 41 41 39 39 38 40 45 47
2650.0 52 63 70 78 92 109 134 163 197 244
2690.0 300 367 449 558 704 908 1199 1560 1718 1677
2730.0 1637 1386 1039 858 795 764 706 633 518 390
2770.0 316 283 280 292 313 334 356 377 396 422
2810.0 452 494 548 615 693 779 862 925 942 926
2850.0 880 811 751 712 707 715 715 695 658 614
2890.0 571 538 520 514 523 544 593 670 798 974
2930.0 1177 1343 1397 1342 1230 1045 855 731 672 666
2970.0 676 703 738 755 751 753 735 722 735 782
3010.0 862 974 1039 1031 1017 931 806 733 703 694
3050.0 695 690 661 608 554 496 437 378 315 258
3090.0 213 182 162 162 157 156 156 149 139 122
3130.0 106 87 74 57 55 48 44 40 39 32
3170.0 33 29 23 25 23 20 18 17 14 15
3210.0 13 15 16 15 14 13 15 11 13 18
3250.0 17 20 17 17 18 15 27 21 17 21
3290.0 19 23 21 20 21 20 18 19 20 20
3330.0 23 23 24 26 23 20 22 24 19 23
3370.0 21 21 27 36 45 57 73 90 112 132
3410.0 141 133 119 96 69 39 27 23 17 14
3450.0 19 16 15 16 15 24 21 7 18 13
3490.0 14 18 13 6 3 8 11 9 7 10
3530.0 6 17 5 10 9 7 13 14 20 14
3570.0 22 27 31 29 22 28 19 12 4 8
3610.0 9 8 18 7 6 17 6 7 6 12
3650.0 12 4 13 10 10 7 15 8 4 6
3690.0 3 12 0 8 13 12 7 17 6 7
3730.0 10 14 6 13 18 15 22 7 11 9
3770.0 4 8 10 7 5 6 1 6 16 9
3810.0 16 11 19 9 4 4 17 14 11 21
3850.0 11 19 16 5 13 14 3 0 8 21
3890.0 16 16 14 32 24 20 12 17 20 25
3930.0 22 17 20 7 20 29 27 17 15 22
##END=
