##TITLE=Benzene, 1-bromo-4-ethyl-
##JCAMP-DX=4.24
##DATA TYPE=INFRARED SPECTRUM
##ORIGIN=Sadtler Research Labs Under US-EPA Contract
##OWNER=NIST Standard Reference Data Program
##CAS REGISTRY NO=1585-07-5
##MOLFORM=C 8 H 9 Br
##XUNITS=1/CM
##YUNITS=ABSORBANCE
##XFACTOR=1.0
##YFACTOR=0.000077399
##DELTAX=4.0
##FIRSTX=450.0
##LASTX=3966.0
##FIRSTY=0.010449
##MAXX=3966
##MINX=450
##MAXY=0.77399
##MINY=0
##NPOINTS=880
##XYDATA=(X++(Y..Y))
450.0 135 104 82 133 156 156 236 269 430 492
490.0 766 916 1269 1526 1679 1653 1624 1325 976 736
530.0 468 311 142 105 102 61 81 94 74 116
570.0 109 99 159 213 373 629 1099 1333 1309 888
610.0 356 241 150 145 99 115 70 62 61 37
650.0 29 25 51 16 62 37 31 20 45 39
690.0 67 68 114 152 180 232 236 220 187 165
730.0 141 187 241 299 379 407 423 465 658 1062
770.0 1490 1597 1400 933 728 821 925 1213 1599 2163
810.0 2773 3385 3909 4137 3944 3345 2596 1877 1283 819
850.0 541 315 216 71 124 113 82 92 77 83
890.0 67 78 64 69 55 55 45 27 29 8
930.0 18 18 38 28 80 126 190 259 388 515
970.0 548 514 403 336 229 259 273 451 851 2628
1010.0 5363 5988 5704 2638 897 596 399 383 369 413
1050.0 476 652 824 1169 1805 4047 6297 6971 5448 1918
1090.0 670 537 468 541 508 589 559 530 435 370
1130.0 283 216 168 133 115 96 96 90 96 95
1170.0 122 174 246 289 326 329 352 398 381 353
1210.0 302 276 341 469 514 466 333 202 167 168
1250.0 201 241 295 319 319 270 218 175 161 150
1290.0 143 165 187 217 253 305 385 522 664 696
1330.0 633 468 311 244 216 196 204 230 257 292
1370.0 329 367 450 559 648 755 833 917 976 989
1410.0 966 914 812 741 675 658 686 765 900 1030
1450.0 1153 1226 1293 1391 1553 1656 1799 2369 3960 7426
1490.0 10000 9863 6816 2816 1007 539 363 276 187 175
1530.0 129 118 88 73 79 115 127 122 147 170
1570.0 198 230 287 356 486 594 654 605 462 319
1610.0 202 162 136 165 172 239 264 297 313 305
1650.0 261 228 188 153 146 142 135 143 102 77
1690.0 83 110 129 215 289 317 272 184 149 117
1730.0 86 53 62 71 79 92 111 112 122 156
1770.0 227 278 266 190 86 26 16 14 6 21
1810.0 11 14 16 17 16 15 18 23 16 17
1850.0 20 32 39 55 81 113 181 258 337 408
1890.0 430 412 378 304 209 130 80 47 33 33
1930.0 25 20 24 16 22 21 22 18 14 11
1970.0 17 19 18 9 14 5 9 13 7 8
2010.0 10 11 13 18 22 20 23 15 8 10
2050.0 9 2 3 4 5 2 7 7 15 16
2090.0 12 20 17 14 7 9 12 9 4 0
2130.0 3 1 4 10 11 16 14 9 4 4
2170.0 0 1 0 2 6 10 16 24 23 19
2210.0 21 24 21 28 30 32 30 29 33 31
2250.0 29 31 31 34 33 35 35 40 54 58
2290.0 69 74 73 64 61 49 49 45 31 34
2330.0 26 29 38 32 46 31 31 36 20 26
2370.0 31 34 35 31 34 32 30 22 20 24
2410.0 23 27 31 32 24 24 24 28 25 24
2450.0 16 14 8 10 5 0 8 7 10 13
2490.0 13 15 19 22 21 31 37 31 35 40
2530.0 39 34 42 40 43 58 61 61 66 59
2570.0 53 45 39 41 53 49 51 56 59 59
2610.0 54 45 40 42 43 56 58 65 66 64
2650.0 47 51 60 55 56 54 51 43 42 36
2690.0 36 34 32 40 38 43 39 40 47 53
2730.0 55 66 82 86 84 82 79 77 88 100
2770.0 109 127 141 140 136 137 144 146 152 164
2810.0 180 190 199 216 236 251 293 329 398 457
2850.0 541 624 763 967 1238 1551 1867 2112 2315 2487
2890.0 2504 2363 2149 1976 1967 2030 2017 1957 1912 2049
2930.0 2315 2731 3220 3848 4324 4201 3829 3227 3227 3732
2970.0 5674 8707 9095 8278 5023 2887 2166 1661 1354 1103
3010.0 983 917 965 1165 1568 1902 1989 1879 1575 1373
3050.0 1267 1148 981 864 793 757 785 836 947 1004
3090.0 1031 1036 938 768 587 403 258 195 157 134
3130.0 114 118 117 130 148 143 159 161 156 151
3170.0 145 115 106 96 92 85 84 84 82 87
3210.0 71 71 68 60 49 46 50 37 35 35
3250.0 49 36 36 52 46 24 24 39 32 32
3290.0 38 30 30 44 20 31 24 28 23 37
3330.0 25 16 23 50 45 34 38 28 26 27
3370.0 31 20 22 12 18 25 30 29 39 31
3410.0 25 31 34 30 42 44 2 20 28 25
3450.0 39 34 32 34 27 20 30 37 23 33
3490.0 36 14 46 27 30 28 31 29 37 29
3530.0 54 41 24 23 42 51 32 33 26 52
3570.0 41 36 39 58 54 42 49 44 32 30
3610.0 68 66 63 35 51 48 41 47 40 51
3650.0 66 48 35 36 54 75 63 68 45 28
3690.0 34 35 50 53 58 69 53 88 63 74
3730.0 77 53 86 40 63 65 79 10 56 47
3770.0 14 38 23 27 56 37 26 79 62 38
3810.0 50 89 49 7 73 20 39 14 37 79
3850.0 74 82 40 85 73 48 22 88 99 26
3890.0 18 2 30 51 68 83 93 116 28 107
3930.0 57 77 55 81 74 95 135 39 18 18
##END=
