##TITLE=3-Bromobenzyl alcohol
##JCAMP-DX=4.24
##DATA TYPE=INFRARED SPECTRUM
##ORIGIN=Sadtler Research Labs Under US-EPA Contract
##OWNER=NIST Standard Reference Data Program
##CAS REGISTRY NO=15852-73-0
##MOLFORM=C 7 H 7 Br O
##XUNITS=1/CM
##YUNITS=ABSORBANCE
##XFACTOR=1.0
##YFACTOR=0.000056784
##DELTAX=4.0
##FIRSTX=450.0
##LASTX=3966.0
##FIRSTY=0.018228
##MAXX=3966
##MINX=450
##MAXY=0.56784
##MINY=0
##NPOINTS=880
##XYDATA=(X++(Y..Y))
450.0 321 257 316 130 205 257 151 249 147 158
490.0 138 163 242 260 319 312 335 215 205 174
530.0 213 147 140 110 30 121 2 117 42 79
570.0 27 62 130 150 203 320 613 869 1240 1282
610.0 1201 750 497 227 133 91 84 125 54 243
650.0 183 594 948 3042 4780 5514 5812 4693 3643 4196
690.0 4769 4670 3868 3034 2094 1462 908 637 541 456
730.0 383 344 461 454 588 785 1187 1902 3163 4905
770.0 6686 8721 9602 7837 5953 4109 2452 1449 935 821
810.0 781 865 1131 1554 2206 2844 3404 3584 3296 2660
850.0 1999 1506 1208 1120 1181 1369 1573 1726 1699 1538
890.0 1286 1002 761 572 448 387 361 355 395 432
930.0 511 564 634 701 786 931 1139 1493 1909 2262
970.0 2447 2467 2431 2476 2689 3199 3918 4565 5273 5788
1010.0 6220 6716 7306 8033 8887 9696 10000 9721 8853 7696
1050.0 6484 5690 5439 5897 7033 7386 7089 5875 3847 2872
1090.0 2546 2228 1905 1450 1136 956 888 844 838 853
1130.0 888 958 1041 1148 1275 1417 1572 1766 2003 2316
1170.0 2711 3155 3670 4224 4956 5853 6892 7700 7998 7542
1210.0 6275 4808 3542 2663 2131 1862 1694 1607 1520 1469
1250.0 1442 1391 1356 1316 1290 1218 1181 1141 1141 1143
1290.0 1196 1237 1250 1231 1182 1121 1096 1126 1150 1228
1330.0 1298 1357 1382 1421 1501 1659 1938 2349 2925 3633
1370.0 4461 5228 5615 5545 5055 4412 3904 3601 3361 3223
1410.0 3138 3319 3896 4938 5807 5834 5414 4085 2629 1858
1450.0 1568 1648 2200 3071 3796 4451 4923 4816 4068 3259
1490.0 1943 964 590 394 314 244 172 141 158 132
1530.0 142 140 239 314 455 654 1077 1708 2909 4569
1570.0 6461 7545 7500 6194 4373 3581 3586 3535 3095 2294
1610.0 1383 715 372 178 114 56 62 37 32 30
1650.0 48 53 87 77 162 214 264 214 199 132
1690.0 62 21 37 22 8 15 40 85 95 135
1730.0 162 227 212 231 249 252 276 263 276 258
1770.0 270 235 215 194 204 183 193 173 156 117
1810.0 80 48 23 21 25 37 39 69 81 118
1850.0 151 220 321 412 437 395 305 194 115 67
1890.0 46 33 23 23 27 41 65 108 167 237
1930.0 309 339 347 308 236 158 116 81 66 59
1970.0 67 63 60 69 67 78 77 88 96 105
2010.0 110 117 120 132 138 139 138 141 141 138
2050.0 129 132 132 126 122 120 111 112 102 99
2090.0 86 80 72 61 56 52 45 43 37 36
2130.0 30 33 36 37 37 40 40 43 47 47
2170.0 47 46 48 44 37 35 34 36 39 38
2210.0 34 34 33 38 40 42 47 41 45 44
2250.0 44 44 38 42 40 44 39 36 38 29
2290.0 26 19 7 16 12 11 22 29 41 54
2330.0 58 79 81 16 65 15 42 31 0 3
2370.0 26 26 44 44 65 74 91 96 90 83
2410.0 80 78 76 71 72 75 70 66 66 66
2450.0 57 68 71 72 78 79 88 78 81 81
2490.0 81 85 91 90 92 93 89 92 87 88
2530.0 85 85 88 88 80 84 86 90 93 83
2570.0 83 80 86 87 86 95 91 94 96 89
2610.0 78 84 86 91 97 102 117 126 131 132
2650.0 132 131 134 133 137 140 150 142 147 141
2690.0 140 146 147 158 155 164 164 174 183 190
2730.0 196 206 206 218 233 245 251 270 285 301
2770.0 313 322 341 360 377 398 415 429 459 474
2810.0 501 529 575 624 694 786 894 1029 1181 1345
2850.0 1548 1727 1926 2133 2397 2764 3246 3847 4336 4556
2890.0 4454 4125 3743 3478 3297 3178 3132 3127 3205 3340
2930.0 3455 3471 3404 3265 3092 2965 2852 2719 2502 2214
2970.0 1889 1598 1359 1157 982 841 746 671 641 645
3010.0 696 796 926 1029 1111 1151 1171 1176 1193 1244
3050.0 1326 1465 1706 2082 2484 2746 2846 2765 2456 2100
3090.0 1742 1397 1109 830 550 345 214 142 115 82
3130.0 74 69 69 60 60 55 54 43 46 39
3170.0 34 36 42 43 35 22 29 27 27 30
3210.0 27 26 30 19 26 27 26 21 27 30
3250.0 29 27 19 22 17 15 15 18 19 19
3290.0 20 23 11 15 10 17 21 9 17 18
3330.0 24 7 13 18 18 4 22 21 15 24
3370.0 42 42 39 49 44 35 38 34 38 46
3410.0 51 52 47 39 48 54 42 48 36 48
3450.0 46 68 48 52 47 55 64 45 45 34
3490.0 39 29 44 41 24 21 42 25 27 9
3530.0 13 12 6 12 19 10 20 15 29 21
3570.0 29 26 26 36 44 34 97 67 138 141
3610.0 219 268 341 434 517 685 919 1263 1680 2123
3650.0 2677 2731 2736 2774 2570 2398 2090 1868 1548 1317
3690.0 1051 812 618 470 341 261 184 157 108 73
3730.0 72 64 49 19 83 0 28 27 4 31
3770.0 11 5 4 14 4 11 4 19 4 8
3810.0 4 9 4 4 4 6 24 41 40 32
3850.0 53 41 31 42 22 38 33 51 14 44
3890.0 21 76 47 52 57 104 43 42 45 20
3930.0 44 37 20 5 4 3 14 4 4 3
##END=
