##TITLE=Benzenemethanol, 2-(phenylmethyl)-
##JCAMP-DX=4.24
##DATA TYPE=INFRARED SPECTRUM
##ORIGIN=Sadtler Research Labs Under US-EPA Contract
##OWNER=NIST Standard Reference Data Program
##CAS REGISTRY NO=1586-00-1
##MOLFORM=C 14 H 14 O
##XUNITS=1/CM
##YUNITS=ABSORBANCE
##XFACTOR=1.0
##YFACTOR=0.000062793
##DELTAX=4.0
##FIRSTX=450.0
##LASTX=3966.0
##FIRSTY=0.082322
##MAXX=3966
##MINX=450
##MAXY=0.62793
##MINY=0
##NPOINTS=880
##XYDATA=(X++(Y..Y))
450.0 1311 1125 1079 1183 1036 812 555 384 312 200
490.0 266 274 338 291 246 189 126 79 74 51
530.0 39 92 95 124 184 280 416 558 689 751
570.0 565 364 211 226 308 456 748 1104 1439 1623
610.0 1726 2005 1855 1550 1172 704 415 229 132 107
650.0 90 127 152 314 364 700 849 966 1325 2015
690.0 3408 4975 6163 5192 4160 3749 4343 5555 7243 8855
730.0 9431 9340 8971 9567 10000 9750 7718 5074 3051 1909
770.0 1433 1254 1202 1076 887 701 521 414 342 333
810.0 310 276 220 117 39 9 12 42 106 154
850.0 176 153 161 180 234 276 242 198 159 190
890.0 209 247 255 278 302 336 375 406 481 575
930.0 745 951 1190 1405 1510 1429 1370 1427 1545 1684
970.0 1824 2040 2310 2667 3159 3850 4724 5803 6902 7748
1010.0 8041 7682 6909 6234 6125 6036 5514 4776 4149 3702
1050.0 3114 2447 1901 1622 1567 1639 1549 1209 925 785
1090.0 754 813 851 832 732 592 458 378 326 300
1130.0 293 307 340 388 466 573 706 858 1003 1178
1170.0 1413 1694 1934 2078 2178 2212 2178 2073 1951 1859
1210.0 1773 1677 1521 1336 1157 1028 960 923 886 852
1250.0 817 789 781 783 802 839 886 957 1008 1010
1290.0 969 931 914 915 919 945 980 1041 1076 1089
1330.0 1057 1014 1009 981 978 1016 1088 1202 1394 1643
1370.0 1978 2379 2719 2890 2842 2573 2195 1854 1553 1337
1410.0 1193 1092 1071 1072 1145 1309 1588 1927 2443 3191
1450.0 4264 4440 3404 2418 1803 1515 1605 1770 2223 3175
1490.0 4836 6322 5241 3324 1589 588 354 202 173 100
1530.0 113 100 114 147 111 110 133 243 260 305
1570.0 376 485 601 730 869 1201 1765 2484 2714 2343
1610.0 1645 940 531 289 195 88 63 38 12 12
1650.0 46 55 22 15 12 10 41 17 74 89
1690.0 81 68 101 78 59 38 63 105 83 70
1730.0 85 118 81 83 103 128 130 156 182 193
1770.0 235 265 255 267 288 381 522 647 714 657
1810.0 549 426 322 255 211 202 198 199 228 234
1850.0 221 204 198 197 209 225 209 206 211 216
1890.0 214 214 205 228 284 351 409 424 403 369
1930.0 374 448 554 656 690 659 573 442 300 198
1970.0 128 105 98 98 95 99 97 100 104 99
2010.0 95 88 83 69 62 55 48 43 39 37
2050.0 34 42 45 47 43 41 38 30 25 22
2090.0 20 17 18 16 17 12 10 8 8 7
2130.0 7 8 6 8 8 3 1 4 1 2
2170.0 3 5 5 6 8 1 6 4 7 7
2210.0 14 13 17 17 15 15 16 15 18 18
2250.0 17 25 31 31 31 26 27 25 25 23
2290.0 24 21 22 29 41 58 80 91 101 111
2330.0 109 115 92 108 64 94 48 48 31 41
2370.0 26 47 53 52 49 50 47 45 46 53
2410.0 53 53 50 44 40 36 36 35 37 35
2450.0 36 40 39 37 34 39 37 35 38 36
2490.0 41 43 40 42 42 34 42 45 45 44
2530.0 44 40 35 36 32 30 31 34 34 35
2570.0 39 44 51 55 55 58 60 69 78 82
2610.0 80 74 80 79 81 86 89 85 78 81
2650.0 74 73 77 78 80 83 84 82 87 88
2690.0 97 100 108 108 116 124 130 135 141 153
2730.0 162 166 176 192 211 227 242 259 267 281
2770.0 297 311 327 340 350 361 361 372 374 398
2810.0 421 444 485 539 602 686 795 925 1088 1298
2850.0 1554 1820 2086 2301 2442 2545 2673 2862 3133 3451
2890.0 3733 3896 3907 3824 3766 3797 3950 4155 4354 4446
2930.0 4419 4296 4096 3835 3507 3135 2788 2513 2298 2142
2970.0 2008 1862 1700 1518 1353 1234 1193 1242 1396 1655
3010.0 2079 2763 3796 5108 6310 6966 6823 5994 4911 4017
3050.0 3625 3783 4413 5475 6878 8009 8185 7288 5757 4441
3090.0 3412 2639 2120 1758 1515 1275 1002 723 501 346
3130.0 251 198 179 174 181 187 195 201 182 159
3170.0 120 86 53 39 23 12 20 13 16 16
3210.0 14 14 18 14 12 10 7 13 10 16
3250.0 19 29 28 26 31 33 30 32 35 47
3290.0 56 59 57 63 71 70 80 92 92 97
3330.0 98 108 122 135 136 144 153 164 172 187
3370.0 202 211 225 234 246 259 273 283 298 319
3410.0 335 349 358 377 394 410 428 444 461 472
3450.0 492 509 522 535 549 565 581 583 595 611
3490.0 610 620 620 634 632 625 626 627 622 604
3530.0 615 620 615 633 638 650 697 724 767 802
3570.0 866 951 997 1060 1086 1109 1142 1138 1176 1227
3610.0 1278 1309 1325 1244 1172 1077 1079 1158 1332 1547
3650.0 1660 1617 1400 1178 940 759 633 519 445 364
3690.0 286 220 170 114 109 81 44 32 30 0
3730.0 1 1 1 1 1 1 1 1 1 1
3770.0 1 1 1 1 1 1 1 1 1 1
3810.0 1 1 1 1 1 1 2 11 1 5
3850.0 4 1 22 18 5 27 5 31 18 12
3890.0 19 12 20 24 34 36 39 18 7 1
3930.0 1 1 1 1 1 1 1 1 1 1
##END=
