##TITLE=Pentanal, 3-methyl-
##JCAMP-DX=4.24
##DATA TYPE=INFRARED SPECTRUM
##ORIGIN=Sadtler Research Labs Under US-EPA Contract
##OWNER=NIST Standard Reference Data Program
##CAS REGISTRY NO=15877-57-3
##MOLFORM=C 6 H 12 O
##XUNITS=1/CM
##YUNITS=ABSORBANCE
##XFACTOR=1.0
##YFACTOR=0.000075391
##DELTAX=4.0
##FIRSTX=450.0
##LASTX=3966.0
##FIRSTY=0.003920
##MAXX=3966
##MINX=450
##MAXY=0.75391
##MINY=0
##NPOINTS=880
##XYDATA=(X++(Y..Y))
450.0 52 85 131 25 27 34 117 84 83 93
490.0 88 121 110 136 166 198 221 230 235 255
530.0 259 277 282 288 263 277 256 250 229 211
570.0 200 155 113 99 87 97 113 110 112 123
610.0 143 140 157 157 162 162 163 163 151 153
650.0 156 178 197 216 259 258 255 251 219 188
690.0 175 161 146 136 128 97 82 71 67 52
730.0 61 53 47 53 55 58 66 71 89 99
770.0 115 115 134 124 115 96 88 73 60 56
810.0 43 44 38 35 43 53 43 52 65 73
850.0 90 118 138 166 190 194 199 201 176 144
890.0 123 101 92 86 100 105 110 124 140 174
930.0 194 236 273 310 328 344 344 333 335 345
970.0 362 382 401 435 464 495 541 601 676 764
1010.0 844 895 908 885 835 758 658 553 489 429
1050.0 377 350 331 326 343 361 394 431 472 516
1090.0 547 570 580 589 613 605 627 669 704 739
1130.0 773 803 827 854 899 935 939 913 879 826
1170.0 762 687 618 549 490 436 389 363 359 367
1210.0 367 359 351 325 295 277 264 267 278 301
1250.0 327 344 358 369 369 357 354 361 366 369
1290.0 371 374 380 379 378 369 370 368 383 406
1330.0 426 446 451 510 597 678 763 820 857 920
1370.0 1026 1152 1321 1460 1540 1569 1477 1267 1067 915
1410.0 808 791 734 759 726 694 629 617 663 758
1450.0 916 1115 1304 1492 1598 1541 1302 1078 861 608
1490.0 395 288 186 132 70 25 43 28 6 39
1530.0 21 41 20 0 10 46 37 7 36 52
1570.0 47 51 57 53 61 57 58 57 61 60
1610.0 55 69 50 76 56 90 77 83 109 109
1650.0 101 120 167 196 232 261 297 380 399 463
1690.0 538 626 650 759 886 1093 1350 1802 2669 3991
1730.0 5931 7843 9303 9864 10000 9157 7120 4751 3276 2529
1770.0 2089 1844 1679 1492 1312 1115 922 774 631 551
1810.0 459 385 329 275 230 192 176 161 137 107
1850.0 116 115 103 91 77 54 65 64 58 53
1890.0 46 43 45 48 42 42 38 35 29 39
1930.0 38 38 37 24 28 34 32 29 35 23
1970.0 24 27 27 27 25 20 21 24 27 25
2010.0 23 23 21 23 25 22 24 18 16 16
2050.0 19 16 16 11 9 11 10 10 11 10
2090.0 7 7 7 8 10 7 9 5 10 8
2130.0 11 13 14 15 12 15 16 18 15 16
2170.0 15 18 17 14 14 12 13 13 18 13
2210.0 15 17 15 18 20 17 18 18 15 18
2250.0 17 18 17 15 16 20 21 18 17 15
2290.0 16 15 20 23 27 29 39 44 54 61
2330.0 69 72 66 95 53 53 71 61 75 68
2370.0 61 51 39 25 19 22 25 23 24 27
2410.0 28 25 26 28 25 25 20 20 19 20
2450.0 23 24 25 23 23 19 21 25 20 22
2490.0 22 22 24 26 22 23 24 23 26 25
2530.0 28 28 26 29 34 37 42 42 49 54
2570.0 60 69 76 82 90 100 111 120 127 133
2610.0 145 156 170 180 194 218 244 270 299 321
2650.0 345 371 397 427 470 527 610 728 903 1144
2690.0 1466 1880 2401 3048 3487 3588 3481 3242 2790 2225
2730.0 1760 1469 1284 1174 1103 1054 1010 978 953 934
2770.0 934 941 984 1055 1170 1311 1487 1705 1970 2194
2810.0 2283 2305 2240 2060 1834 1577 1354 1221 1152 1161
2850.0 1248 1413 1664 1975 2359 2790 3308 3861 4281 4505
2890.0 4623 4597 4409 4151 3998 4062 4283 4602 4941 5280
2930.0 5521 5591 5585 5484 5344 5254 5379 5905 7001 8389
2970.0 9272 9336 8618 7453 5599 3808 2426 1523 1005 718
3010.0 567 476 421 379 347 324 308 290 277 267
3050.0 255 249 239 236 223 222 214 206 196 184
3090.0 171 161 155 143 144 143 142 139 146 141
3130.0 140 140 136 136 133 130 128 126 128 129
3170.0 123 116 116 109 110 100 95 83 82 79
3210.0 73 68 57 52 51 44 37 33 35 32
3250.0 32 26 25 25 26 23 22 17 16 16
3290.0 19 23 20 20 16 19 26 23 28 26
3330.0 21 25 21 23 26 25 26 24 20 27
3370.0 26 31 24 26 30 33 30 28 31 37
3410.0 37 31 35 40 46 52 60 65 82 105
3450.0 133 158 186 192 201 187 157 122 92 66
3490.0 51 39 26 24 31 25 23 24 23 23
3530.0 15 26 22 26 22 16 31 40 85 163
3570.0 255 282 297 267 178 96 42 33 27 25
3610.0 25 18 21 17 16 32 16 20 15 23
3650.0 20 18 27 21 21 17 28 28 26 28
3690.0 29 23 26 25 25 28 25 22 21 24
3730.0 31 28 24 27 21 28 21 21 23 20
3770.0 22 19 20 16 13 11 27 16 20 17
3810.0 17 26 12 27 21 25 26 24 25 42
3850.0 33 44 30 21 34 33 18 32 31 27
3890.0 36 30 27 23 25 21 23 23 39 27
3930.0 20 22 17 17 25 22 24 24 16 11
##END=
