##TITLE=Isobutyramide, N-tetrahydro-2-pyranyl-,
##JCAMP-DX=4.24
##DATA TYPE=INFRARED SPECTRUM
##ORIGIN=Sadtler Research Labs Under US-EPA Contract
##OWNER=NIST Standard Reference Data Program
##CAS REGISTRY NO=15879-39-7
##MOLFORM=C 9 H 17 N O 2
##XUNITS=1/CM
##YUNITS=ABSORBANCE
##XFACTOR=1.0
##YFACTOR=0.000090903
##DELTAX=4.0
##FIRSTX=450.0
##LASTX=3966.0
##FIRSTY=0.021817
##MAXX=3966
##MINX=450
##MAXY=0.90903
##MINY=0
##NPOINTS=880
##XYDATA=(X++(Y..Y))
450.0 240 252 275 290 336 330 363 397 405 408
490.0 385 340 342 322 344 342 344 387 387 411
530.0 375 363 348 311 333 305 311 272 244 222
570.0 217 197 172 179 157 138 146 153 141 176
610.0 194 217 175 130 106 87 63 78 103 100
650.0 100 77 63 38 24 94 85 14 28 32
690.0 21 29 25 33 29 44 49 54 71 98
730.0 79 52 76 80 93 100 94 95 101 100
770.0 88 87 69 74 81 94 121 169 250 328
810.0 357 326 281 224 220 212 225 240 263 311
850.0 392 485 559 618 625 623 603 588 587 628
890.0 701 753 776 756 696 645 621 630 642 647
930.0 632 575 516 496 500 554 609 655 653 625
970.0 595 610 689 782 821 788 691 593 538 525
1010.0 564 637 753 907 1130 1509 2225 3297 3979 4122
1050.0 3461 2467 2008 1890 2004 2437 3334 4810 6467 7290
1090.0 6853 5182 3247 2054 1508 1243 1104 1040 1043 1030
1130.0 961 860 783 765 824 957 1195 1525 2008 2733
1170.0 3710 4451 4606 4176 3536 3376 3734 4132 4198 3749
1210.0 3001 2290 1765 1467 1328 1262 1239 1221 1183 1136
1250.0 1080 1041 1025 1028 1008 996 962 904 836 757
1290.0 697 684 733 827 935 994 982 896 807 778
1330.0 805 879 950 996 986 998 1012 1066 1146 1308
1370.0 1547 1871 2032 2066 1974 1770 1575 1356 1123 1015
1410.0 929 932 942 980 1031 1194 1376 1662 1946 2193
1450.0 2577 2894 3510 3862 4293 4749 5234 6172 7207 8932
1490.0 9362 10000 9175 7742 6159 4356 3514 2492 2081 1565
1530.0 1305 1047 898 868 689 643 556 605 492 465
1570.0 459 446 434 410 467 435 479 472 453 384
1610.0 331 311 241 281 220 278 225 385 340 472
1650.0 529 749 753 922 1130 1184 1380 1413 1628 1824
1690.0 2157 2609 3369 4254 5244 6201 7134 7254 6877 5709
1730.0 4621 3435 2486 1953 1432 1246 934 835 625 560
1770.0 483 437 362 332 303 268 246 202 190 131
1810.0 128 109 81 84 71 77 51 49 58 60
1850.0 51 31 32 24 44 40 35 22 34 32
1890.0 46 49 42 40 37 38 37 37 47 35
1930.0 34 34 36 39 37 28 30 28 36 40
1970.0 44 44 47 48 41 47 34 34 25 28
2010.0 22 29 25 22 16 12 12 10 14 8
2050.0 8 6 8 9 11 13 12 15 14 17
2090.0 15 18 18 19 20 20 19 15 17 16
2130.0 20 19 24 22 21 21 20 21 18 21
2170.0 18 20 16 21 20 20 20 18 17 15
2210.0 15 12 16 16 17 17 17 21 21 23
2250.0 25 25 26 31 30 30 31 35 37 42
2290.0 55 61 73 79 86 97 93 89 84 74
2330.0 75 79 48 115 62 92 101 90 119 99
2370.0 82 77 68 63 39 23 7 6 8 7
2410.0 4 6 8 8 7 6 8 4 7 8
2450.0 8 7 11 9 12 13 13 15 17 17
2490.0 17 16 16 14 14 14 19 17 18 19
2530.0 20 21 21 23 26 28 29 30 31 32
2570.0 31 34 36 37 38 37 38 38 43 42
2610.0 49 53 55 60 63 72 80 87 86 90
2650.0 93 97 101 106 111 111 110 108 100 98
2690.0 103 107 112 120 126 142 154 167 183 198
2730.0 207 215 209 204 194 181 171 158 152 154
2770.0 158 160 166 165 173 184 193 210 231 256
2810.0 283 311 348 389 445 525 662 873 1179 1590
2850.0 2086 2556 2791 2752 2611 2473 2388 2344 2251 2102
2890.0 1992 1921 1921 1982 2085 2224 2420 2702 3066 3505
2930.0 4067 4791 5771 6798 7555 7603 6878 6011 5290 5216
2970.0 5859 6153 5865 4864 3455 2437 1769 1285 946 712
3010.0 552 439 354 300 261 233 207 186 172 161
3050.0 154 151 151 150 148 151 149 152 151 144
3090.0 145 135 131 125 121 119 114 111 110 110
3130.0 105 104 104 104 101 103 109 108 108 116
3170.0 114 115 118 115 114 115 112 109 108 101
3210.0 96 93 93 85 81 82 74 72 71 70
3250.0 71 76 75 71 77 77 74 73 71 78
3290.0 77 81 80 78 82 79 77 84 81 82
3330.0 84 84 91 88 94 97 92 100 105 112
3370.0 116 118 123 129 137 144 152 168 183 189
3410.0 217 224 237 234 251 271 290 320 372 449
3450.0 537 640 687 704 666 584 487 389 310 249
3490.0 208 183 157 144 115 117 113 97 98 71
3530.0 87 88 87 98 75 84 106 76 117 67
3570.0 75 100 88 104 50 75 56 50 72 54
3610.0 42 33 58 41 61 67 32 102 53 80
3650.0 55 46 122 49 143 33 124 32 98 68
3690.0 55 67 70 76 61 44 57 62 42 69
3730.0 49 52 20 98 10 99 0 66 73 56
3770.0 63 60 83 52 83 73 86 55 99 21
3810.0 127 28 101 40 74 82 69 42 85 74
3850.0 76 86 63 74 89 69 87 93 70 76
3890.0 113 74 119 57 96 91 119 90 104 97
3930.0 88 97 97 112 102 99 103 107 92 100
##END=
