##TITLE=Heptadecane, 6,12-diethyl-9-pentyl-,
##JCAMP-DX=4.24
##DATA TYPE=INFRARED SPECTRUM
##ORIGIN=Sadtler Research Labs Under US-EPA Contract
##OWNER=NIST Standard Reference Data Program
##CAS REGISTRY NO=15874-05-2
##MOLFORM=C 26 H 54
##XUNITS=1/CM
##YUNITS=ABSORBANCE
##XFACTOR=1.0
##YFACTOR=0.000120938
##DELTAX=4.0
##FIRSTX=450.0
##LASTX=3966.0
##FIRSTY=0.003023
##MAXX=3966
##MINX=450
##MAXY=1.20938
##MINY=0
##NPOINTS=880
##XYDATA=(X++(Y..Y))
450.0 25 22 68 47 27 47 51 18 15 36
490.0 34 48 28 51 48 44 35 52 62 36
530.0 44 37 57 45 50 49 48 59 58 52
570.0 36 52 59 61 62 63 57 45 54 44
610.0 32 50 44 40 27 37 33 37 34 37
650.0 30 28 39 36 29 76 36 41 49 39
690.0 42 51 54 56 73 90 107 144 167 169
730.0 160 158 152 138 133 136 140 134 138 150
770.0 166 165 157 143 125 114 117 113 108 106
810.0 96 88 82 70 60 51 45 35 38 31
850.0 37 34 32 33 35 38 32 40 46 44
890.0 51 54 55 55 57 55 50 51 46 49
930.0 48 49 52 56 59 68 69 71 71 78
970.0 75 76 74 77 82 81 85 94 105 115
1010.0 130 135 142 141 143 140 138 134 131 134
1050.0 132 135 131 135 135 135 137 143 147 152
1090.0 163 168 170 173 167 164 153 146 142 138
1130.0 142 142 143 143 139 133 120 114 113 111
1170.0 110 110 110 111 110 107 107 107 109 105
1210.0 105 109 109 108 112 116 120 123 129 132
1250.0 137 150 179 200 192 176 177 178 185 185
1290.0 194 202 209 215 221 217 217 213 214 222
1330.0 236 264 310 347 369 388 411 428 448 446
1370.0 448 467 558 655 578 403 281 224 194 189
1410.0 184 192 201 214 227 264 307 404 498 649
1450.0 828 1048 1288 1384 1327 1096 799 525 362 254
1490.0 202 158 132 105 101 90 70 62 54 46
1530.0 28 37 24 26 25 25 22 20 23 15
1570.0 18 15 25 18 24 21 27 25 31 29
1610.0 30 29 28 30 21 28 21 22 18 24
1650.0 4 27 8 15 14 24 14 28 28 40
1690.0 46 59 74 101 119 154 201 253 294 321
1730.0 312 289 243 212 177 152 132 122 115 108
1770.0 108 100 95 87 84 73 73 70 75 72
1810.0 62 49 39 22 21 9 5 5 1 5
1850.0 3 0 2 3 0 2 0 1 1 0
1890.0 2 1 1 0 2 4 2 6 2 5
1930.0 1 1 1 3 0 2 0 2 2 0
1970.0 2 1 0 1 1 0 2 2 2 2
2010.0 3 3 7 8 10 8 11 11 11 11
2050.0 10 9 11 9 9 8 7 8 7 7
2090.0 7 8 7 8 8 7 9 7 6 6
2130.0 6 5 5 4 6 6 7 9 10 9
2170.0 11 11 9 12 10 8 11 9 8 9
2210.0 9 8 9 9 9 10 8 11 10 10
2250.0 13 12 10 12 15 16 17 20 22 26
2290.0 31 37 47 50 54 61 59 54 63 53
2330.0 52 48 43 47 60 68 73 58 55 43
2370.0 47 45 52 53 39 28 21 23 24 22
2410.0 22 23 21 21 22 21 18 18 16 16
2450.0 16 18 18 17 16 20 21 19 22 22
2490.0 20 25 22 25 28 26 30 30 36 36
2530.0 40 43 44 44 50 51 52 55 58 60
2570.0 62 65 70 69 74 76 79 79 83 84
2610.0 87 84 86 91 89 93 94 98 102 105
2650.0 111 116 119 124 131 133 135 137 138 142
2690.0 142 144 144 146 148 151 155 160 165 171
2730.0 180 188 195 198 199 194 190 184 187 194
2770.0 201 210 225 240 258 278 301 328 354 384
2810.0 420 454 498 553 612 689 787 919 1124 1430
2850.0 1905 2571 3373 4028 4340 4332 4072 3820 3753 3603
2890.0 3272 3090 3187 3526 4064 4734 5522 6472 7551 8741
2930.0 9730 10000 9359 8235 6922 5711 5053 5121 5834 6707
2970.0 6664 5235 3551 2469 1844 1450 1176 980 833 725
3010.0 639 571 518 463 423 386 351 323 296 273
3050.0 256 242 229 220 204 199 190 186 176 170
3090.0 162 156 150 143 137 130 124 116 111 108
3130.0 101 97 94 89 86 82 80 78 73 73
3170.0 69 64 63 64 61 57 52 50 48 43
3210.0 42 38 34 28 28 25 24 21 20 25
3250.0 20 19 17 19 19 18 16 19 19 17
3290.0 16 19 17 15 15 14 16 18 20 17
3330.0 14 16 19 20 18 17 15 19 18 15
3370.0 18 21 19 16 22 15 19 20 16 19
3410.0 15 16 19 18 20 24 21 23 18 14
3450.0 15 18 17 16 15 17 14 14 16 9
3490.0 13 11 15 16 12 12 12 9 12 18
3530.0 10 11 17 11 23 12 20 17 30 27
3570.0 40 36 30 28 26 30 25 18 12 19
3610.0 25 22 16 29 25 40 28 27 26 27
3650.0 28 23 34 28 26 25 23 31 26 25
3690.0 23 24 24 28 18 23 19 17 23 27
3730.0 26 22 33 17 42 18 25 16 15 10
3770.0 16 17 14 17 14 6 16 22 20 20
3810.0 19 12 16 25 21 20 18 12 13 20
3850.0 14 23 26 20 22 14 20 19 24 28
3890.0 11 14 19 22 24 22 15 27 16 16
3930.0 17 21 16 14 18 24 23 21 26 22
##END=
