##TITLE=Hexadecane, 6,11-dipentyl-
##JCAMP-DX=4.24
##DATA TYPE=INFRARED SPECTRUM
##ORIGIN=Sadtler Research Labs Under US-EPA Contract
##OWNER=NIST Standard Reference Data Program
##CAS REGISTRY NO=15874-03-0
##MOLFORM=C 26 H 54
##XUNITS=1/CM
##YUNITS=ABSORBANCE
##XFACTOR=1.0
##YFACTOR=0.000094806
##DELTAX=4.0
##FIRSTX=450.0
##LASTX=3966.0
##FIRSTY=0.021331
##MAXX=3966
##MINX=450
##MAXY=0.94806
##MINY=0
##NPOINTS=880
##XYDATA=(X++(Y..Y))
450.0 225 96 6 73 102 66 52 48 87 74
490.0 90 80 79 67 59 49 36 51 56 60
530.0 57 43 64 82 59 40 49 62 44 55
570.0 41 46 51 51 45 57 58 45 57 58
610.0 49 57 60 41 48 47 48 33 39 39
650.0 37 31 51 41 34 68 41 39 51 45
690.0 58 60 69 72 95 99 123 156 184 197
730.0 202 191 173 155 136 122 121 115 119 116
770.0 120 108 92 79 58 56 51 49 56 56
810.0 60 60 69 69 65 64 71 61 72 72
850.0 66 68 67 65 67 65 64 61 67 66
890.0 66 70 72 70 69 69 64 60 58 55
930.0 45 51 50 54 55 59 57 66 62 60
970.0 64 54 51 48 48 50 49 52 55 51
1010.0 57 60 57 51 57 57 55 57 62 59
1050.0 61 60 62 61 66 63 64 69 71 68
1090.0 75 78 77 80 80 75 70 72 70 75
1130.0 74 83 89 84 76 70 66 63 66 68
1170.0 67 66 68 69 75 76 75 77 75 82
1210.0 83 83 84 89 93 101 105 110 109 104
1250.0 99 99 104 106 108 114 121 130 139 147
1290.0 156 162 169 173 179 177 170 167 161 166
1330.0 183 206 240 270 289 289 295 309 331 341
1370.0 337 328 346 387 351 250 187 157 137 134
1410.0 136 138 143 152 164 190 227 289 385 511
1450.0 642 781 921 1010 984 838 619 407 277 206
1490.0 162 131 114 100 86 78 68 59 52 46
1530.0 42 36 31 31 31 27 23 20 19 22
1570.0 23 25 18 22 23 22 20 24 24 23
1610.0 24 22 21 20 18 20 15 14 14 14
1650.0 14 10 11 10 10 9 12 13 14 16
1690.0 19 21 24 32 38 49 64 76 86 92
1730.0 87 80 70 62 60 57 55 49 42 38
1770.0 36 32 29 27 23 22 22 21 23 23
1810.0 18 14 10 10 7 3 2 1 3 1
1850.0 3 1 0 3 1 1 2 0 2 1
1890.0 1 3 3 2 4 1 2 0 4 1
1930.0 2 4 1 2 4 2 3 1 3 3
1970.0 4 3 5 5 5 7 6 8 8 8
2010.0 9 11 10 13 13 16 19 16 14 13
2050.0 13 12 13 13 12 11 11 14 10 11
2090.0 9 10 10 10 9 9 12 9 9 12
2130.0 10 10 11 10 11 10 12 13 11 9
2170.0 12 12 12 10 9 11 11 10 10 11
2210.0 10 11 13 9 11 10 8 7 10 9
2250.0 12 12 11 10 13 12 14 15 19 23
2290.0 28 33 42 43 43 48 43 39 34 28
2330.0 23 23 20 25 36 38 36 34 24 19
2370.0 24 32 39 45 40 27 24 23 22 22
2410.0 23 22 22 22 22 19 19 20 18 19
2450.0 19 20 18 19 19 18 20 21 20 20
2490.0 21 21 22 24 25 26 28 24 31 35
2530.0 37 39 40 39 42 41 44 47 47 47
2570.0 51 53 55 57 57 57 61 61 63 68
2610.0 67 70 69 74 71 77 77 82 86 85
2650.0 90 95 96 102 108 106 111 110 112 111
2690.0 112 110 108 112 114 113 116 120 121 127
2730.0 129 136 143 149 152 143 141 140 143 146
2770.0 154 161 171 187 200 215 234 257 278 302
2810.0 329 364 399 441 491 547 626 739 913 1193
2850.0 1660 2371 3211 3789 3941 3791 3408 3077 2978 2844
2890.0 2595 2501 2678 3080 3637 4246 4877 5640 6725 8145
2930.0 9499 10000 9336 7909 6273 4875 4077 3965 4395 4932
2970.0 4814 3674 2418 1668 1255 1000 824 696 601 527
3010.0 465 412 369 329 299 271 247 228 211 192
3050.0 176 166 157 152 142 134 127 129 120 115
3090.0 111 104 104 102 96 91 84 80 76 76
3130.0 70 69 70 65 64 63 61 56 57 53
3170.0 51 52 49 53 47 48 43 44 43 37
3210.0 33 30 29 29 23 23 23 19 22 17
3250.0 17 17 16 14 19 22 16 17 16 15
3290.0 14 22 15 14 17 17 13 18 17 16
3330.0 14 20 24 22 18 22 17 18 17 17
3370.0 19 19 19 21 20 23 23 20 21 17
3410.0 14 22 26 22 14 19 19 19 18 18
3450.0 11 15 18 12 14 18 22 15 18 14
3490.0 12 13 11 11 18 17 11 12 8 12
3530.0 11 17 11 11 15 15 15 14 21 18
3570.0 17 14 17 24 22 17 20 15 14 15
3610.0 17 21 17 24 25 17 28 24 29 21
3650.0 23 27 32 22 24 22 24 26 25 25
3690.0 28 26 23 23 20 23 16 23 18 17
3730.0 25 28 29 23 26 30 26 21 23 27
3770.0 16 27 25 23 20 27 17 36 20 25
3810.0 17 24 26 29 24 20 23 21 21 17
3850.0 21 24 22 22 24 23 25 23 18 18
3890.0 29 31 26 13 26 16 25 17 16 24
3930.0 22 30 25 17 25 24 26 22 17 33
##END=
