##TITLE=Butyramide, N-tetrahydro-2-pyranyl-,
##JCAMP-DX=4.24
##DATA TYPE=INFRARED SPECTRUM
##ORIGIN=Sadtler Research Labs Under US-EPA Contract
##OWNER=NIST Standard Reference Data Program
##CAS REGISTRY NO=15879-40-0
##MOLFORM=C 9 H 17 N O 2
##XUNITS=1/CM
##YUNITS=ABSORBANCE
##XFACTOR=1.0
##YFACTOR=0.000089764
##DELTAX=4.0
##FIRSTX=450.0
##LASTX=3966.0
##FIRSTY=0.026480
##MAXX=3966
##MINX=450
##MAXY=0.89764
##MINY=0
##NPOINTS=880
##XYDATA=(X++(Y..Y))
450.0 295 280 284 321 459 463 525 469 482 438
490.0 460 412 402 402 422 397 394 400 327 306
530.0 261 241 222 210 223 228 278 297 347 378
570.0 408 429 451 434 379 306 258 215 138 157
610.0 143 171 162 150 122 96 84 87 93 76
650.0 82 65 43 42 37 69 64 6 25 26
690.0 29 34 44 49 54 73 76 87 111 175
730.0 153 109 154 153 162 178 166 132 121 114
770.0 95 107 108 136 196 274 333 361 356 346
810.0 355 345 328 292 271 265 291 334 367 406
850.0 443 517 596 682 734 728 701 707 732 789
890.0 878 925 933 886 790 666 550 487 454 424
930.0 398 360 318 294 268 259 263 297 343 397
970.0 464 559 692 826 898 875 775 674 612 598
1010.0 650 760 932 1150 1450 1922 2695 3788 4496 4565
1050.0 3795 2747 2307 2243 2390 2859 3800 5343 7078 7913
1090.0 7320 5410 3328 2069 1516 1259 1147 1131 1204 1202
1130.0 1071 852 666 614 648 767 971 1250 1685 2438
1170.0 3596 4578 4826 4456 3895 3869 4267 4471 4344 3817
1210.0 3112 2418 1870 1564 1440 1387 1371 1372 1369 1364
1250.0 1361 1385 1423 1478 1492 1489 1478 1441 1400 1329
1290.0 1244 1180 1178 1245 1367 1442 1423 1313 1180 1155
1330.0 1209 1310 1376 1394 1362 1380 1411 1483 1572 1716
1370.0 1959 2330 2468 2386 2068 1703 1450 1312 1164 1123
1410.0 1060 1120 1158 1242 1336 1565 1806 2146 2452 2705
1450.0 3098 3426 4111 4521 5015 5517 5844 6604 7406 8964
1490.0 9400 10000 9219 7624 5999 4157 3329 2407 2027 1571
1530.0 1317 1099 930 920 727 678 583 638 531 491
1570.0 489 505 489 477 555 524 575 584 552 493
1610.0 437 428 330 409 331 430 357 564 507 650
1650.0 696 953 882 1046 1235 1242 1454 1461 1690 1884
1690.0 2199 2653 3457 4490 5735 7112 8417 8994 8810 7620
1730.0 6314 4785 3482 2804 2118 1850 1411 1258 948 832
1770.0 702 608 502 446 408 352 320 268 247 173
1810.0 171 151 110 122 98 110 69 65 73 65
1850.0 60 32 34 28 53 40 40 17 28 27
1890.0 40 41 32 33 32 38 41 39 59 41
1930.0 41 39 41 40 45 30 37 33 47 46
1970.0 52 50 50 47 43 50 37 37 22 29
2010.0 19 27 24 20 14 12 13 11 16 12
2050.0 14 11 13 18 18 22 17 23 21 26
2090.0 22 26 26 29 28 29 29 21 26 26
2130.0 28 25 27 26 26 25 25 28 23 27
2170.0 26 26 22 27 24 22 24 22 22 18
2210.0 20 17 18 13 15 16 18 24 24 28
2250.0 30 33 31 36 31 32 32 37 38 41
2290.0 52 59 72 78 92 103 107 110 115 114
2330.0 117 124 81 178 79 135 142 133 179 146
2370.0 112 103 83 69 37 20 3 2 4 3
2410.0 1 2 5 5 4 2 6 2 1 0
2450.0 1 2 5 4 5 6 6 8 10 11
2490.0 12 12 13 15 14 14 18 15 15 15
2530.0 17 16 19 20 19 22 21 24 22 26
2570.0 24 25 25 30 30 31 33 37 40 39
2610.0 49 51 53 63 65 75 81 95 99 105
2650.0 113 123 127 136 142 145 144 142 139 135
2690.0 141 142 149 158 168 183 192 206 218 230
2730.0 241 251 252 251 244 229 219 200 194 190
2770.0 193 198 205 213 227 247 257 281 307 337
2810.0 369 405 450 507 583 691 861 1112 1465 1905
2850.0 2426 2909 3172 3179 3065 2965 2905 2883 2813 2631
2890.0 2438 2244 2107 2091 2206 2457 2811 3262 3771 4328
2930.0 5014 5885 7027 8181 8994 9065 8289 7213 6192 5787
2970.0 6010 5982 5559 4592 3355 2425 1765 1304 986 770
3010.0 624 524 444 398 360 330 303 282 262 248
3050.0 237 233 228 231 226 220 220 215 210 199
3090.0 196 179 168 157 148 142 138 132 131 131
3130.0 125 124 127 126 129 127 130 126 125 127
3170.0 127 127 127 124 124 128 123 118 120 115
3210.0 111 111 107 105 101 105 99 93 98 99
3250.0 103 103 108 103 108 111 110 110 107 120
3290.0 117 121 123 123 127 123 124 128 128 132
3330.0 132 132 142 140 143 148 144 152 152 164
3370.0 165 166 178 182 190 205 216 238 263 279
3410.0 327 343 371 371 397 412 422 452 503 589
3450.0 685 795 820 804 726 606 489 380 315 259
3490.0 237 219 193 188 158 169 170 161 167 129
3530.0 150 154 155 167 133 155 186 140 204 119
3570.0 150 186 158 180 95 140 107 96 130 110
3610.0 84 81 105 88 116 109 70 183 95 147
3650.0 82 81 196 76 236 44 199 42 179 120
3690.0 111 120 135 138 124 107 110 119 93 132
3730.0 103 92 72 167 19 186 16 136 140 114
3770.0 121 131 168 107 163 136 164 112 168 60
3810.0 219 62 182 76 139 156 132 92 155 127
3850.0 139 130 102 143 147 110 149 175 129 127
3890.0 178 127 188 104 162 166 203 150 179 163
3930.0 161 178 179 193 186 178 183 202 190 195
##END=
