##TITLE=1,2,3-Propanetricarboxylic acid, 2-hydroxy-, tripropyl ester
##JCAMP-DX=4.24
##DATA TYPE=INFRARED SPECTRUM
##ORIGIN=Sadtler Research Labs Under US-EPA Contract
##OWNER=NIST Standard Reference Data Program
##CAS REGISTRY NO=1587-21-9
##MOLFORM=C 15 H 26 O 7
##XUNITS=1/CM
##YUNITS=ABSORBANCE
##XFACTOR=1.0
##YFACTOR=0.000092239
##DELTAX=4.0
##FIRSTX=450.0
##LASTX=3966.0
##FIRSTY=0.010700
##MAXX=3966
##MINX=450
##MAXY=0.92239
##MINY=0
##NPOINTS=880
##XYDATA=(X++(Y..Y))
450.0 116 348 602 125 107 158 0 289 129 152
490.0 145 399 262 169 244 99 266 114 274 182
530.0 209 202 146 135 131 192 219 225 162 203
570.0 230 231 169 223 202 178 218 207 247 238
610.0 192 179 180 215 213 190 229 153 162 142
650.0 134 117 117 116 110 106 113 64 36 53
690.0 20 11 17 28 36 0 66 63 50 96
730.0 125 91 37 75 121 124 60 116 112 140
770.0 132 153 134 170 154 201 149 174 180 148
810.0 202 239 238 191 213 175 163 184 185 171
850.0 208 221 215 221 227 299 259 291 319 444
890.0 417 473 448 500 585 583 580 563 596 582
930.0 572 639 723 793 841 891 963 1102 1396 1728
970.0 2058 2254 2175 1942 1686 1539 1534 1539 1438 1207
1010.0 928 744 658 666 745 882 1096 1278 1424 1542
1050.0 1705 2015 2298 2430 2342 2145 1975 1785 1703 1666
1090.0 1644 1689 1775 1868 1937 1984 2043 2001 1987 2114
1130.0 2192 2357 2527 2866 3222 3727 4299 5014 5876 6744
1170.0 7677 8389 8898 9298 9317 8969 8594 8171 7569 6964
1210.0 6425 5865 5354 5008 4626 4405 4245 4060 3943 3801
1250.0 3686 3579 3456 3375 3280 3189 3072 2945 2828 2735
1290.0 2634 2509 2366 2309 2239 2310 2415 2507 2618 2683
1330.0 2735 2842 2830 2775 2674 2550 2366 2044 1717 1459
1370.0 1356 1377 1464 1596 1651 1599 1663 1658 1511 1394
1410.0 1297 1247 1169 1127 1068 1004 920 830 776 775
1450.0 788 845 969 1101 1128 1108 994 813 628 494
1490.0 379 275 243 207 205 188 157 175 132 106
1530.0 115 117 106 74 83 116 102 111 83 87
1570.0 84 81 94 76 77 78 90 90 66 99
1610.0 67 80 69 77 81 96 93 100 116 118
1650.0 112 156 141 163 173 181 217 255 262 330
1690.0 380 417 518 636 767 936 1151 1481 1901 2449
1730.0 3039 3597 4734 5997 7741 9910 9864 10000 8528 6510
1770.0 4879 3322 2401 1748 1294 1010 768 631 510 424
1810.0 368 298 265 225 190 178 153 142 130 116
1850.0 106 92 89 80 72 78 64 63 53 59
1890.0 64 54 42 44 44 50 55 44 43 41
1930.0 50 45 43 40 44 42 35 38 34 34
1970.0 23 27 39 33 26 30 25 30 27 31
2010.0 29 30 25 29 36 35 36 35 33 44
2050.0 41 39 36 42 40 35 36 34 37 31
2090.0 37 34 27 31 37 34 33 28 31 31
2130.0 30 27 22 21 18 20 19 24 15 17
2170.0 15 14 13 15 16 18 10 12 11 15
2210.0 15 13 13 9 9 10 9 14 13 10
2250.0 10 13 12 14 15 13 19 13 12 12
2290.0 9 8 10 14 8 8 12 10 16 22
2330.0 18 30 22 41 31 34 29 24 43 47
2370.0 35 28 20 20 18 18 21 18 16 20
2410.0 21 21 20 20 19 16 15 12 11 15
2450.0 13 6 5 7 6 4 7 7 5 7
2490.0 8 10 6 9 5 6 10 7 5 5
2530.0 8 4 4 4 4 6 7 5 3 7
2570.0 10 10 13 12 10 12 10 10 15 16
2610.0 16 17 17 15 17 17 14 15 12 14
2650.0 11 15 13 17 19 22 24 27 23 28
2690.0 31 31 26 27 24 29 33 34 37 40
2730.0 52 58 62 70 75 83 89 90 84 86
2770.0 91 88 84 86 90 86 89 92 92 105
2810.0 106 119 124 131 145 158 178 202 221 252
2850.0 281 329 392 474 571 640 696 767 941 1218
2890.0 1486 1558 1471 1377 1312 1251 1220 1246 1354 1566
2930.0 1836 2050 2170 2345 2619 2787 2817 2902 3188 3521
2970.0 3789 4049 4199 4139 3700 2876 2098 1525 1137 880
3010.0 689 555 464 391 338 302 273 244 219 195
3050.0 177 170 151 146 138 130 124 121 112 116
3090.0 106 99 95 94 89 93 91 81 78 70
3130.0 71 62 63 64 64 67 57 60 61 54
3170.0 53 56 48 54 50 51 51 47 36 41
3210.0 42 35 37 29 34 30 28 36 23 27
3250.0 28 30 31 28 26 25 23 25 27 26
3290.0 19 29 36 34 25 27 19 24 30 34
3330.0 42 30 29 27 27 34 25 38 35 36
3370.0 47 40 53 46 45 52 64 64 68 75
3410.0 68 84 91 99 118 122 132 143 155 167
3450.0 180 190 209 218 237 235 245 259 274 270
3490.0 278 294 278 297 298 318 315 331 360 374
3530.0 405 426 446 483 519 520 507 512 468 457
3570.0 404 366 345 299 276 262 255 245 248 240
3610.0 224 195 181 153 127 110 86 52 35 50
3650.0 60 47 12 30 26 56 22 34 5 16
3690.0 35 15 31 9 20 40 38 17 21 28
3730.0 20 36 22 23 41 17 47 16 22 22
3770.0 23 35 22 6 13 13 31 42 12 35
3810.0 19 37 20 64 16 45 39 41 58 46
3850.0 71 23 35 37 62 41 30 57 41 47
3890.0 17 39 31 55 37 20 20 23 27 14
3930.0 27 23 30 37 16 3 37 23 22 15
##END=
