##TITLE=Citric acid, trimethyl ester
##JCAMP-DX=4.24
##DATA TYPE=INFRARED SPECTRUM
##ORIGIN=Sadtler Research Labs Under US-EPA Contract
##OWNER=NIST Standard Reference Data Program
##CAS REGISTRY NO=1587-20-8
##MOLFORM=C 9 H 14 O 7
##XUNITS=1/CM
##YUNITS=ABSORBANCE
##XFACTOR=1.0
##YFACTOR=0.000050195
##DELTAX=4.0
##FIRSTX=450.0
##LASTX=3966.0
##FIRSTY=0.005823
##MAXX=3966
##MINX=450
##MAXY=0.50195
##MINY=0
##NPOINTS=880
##XYDATA=(X++(Y..Y))
450.0 116 121 120 58 25 21 83 32 74 28
490.0 80 92 142 51 138 99 123 69 195 124
530.0 229 114 186 110 240 89 285 196 248 208
570.0 246 218 295 148 178 243 263 217 267 277
610.0 290 292 326 251 236 197 206 227 290 256
650.0 230 280 242 214 151 272 188 149 105 52
690.0 161 123 181 111 115 95 124 151 86 210
730.0 127 157 139 103 65 148 90 107 128 208
770.0 186 259 231 266 272 262 270 291 278 325
810.0 292 346 330 396 317 337 238 297 273 327
850.0 282 362 302 352 326 370 390 455 443 484
890.0 458 461 385 368 281 249 207 202 147 178
930.0 142 187 140 171 147 210 243 267 316 462
970.0 483 600 658 732 773 937 1132 1522 1852 2212
1010.0 2190 2048 1730 1441 1196 1030 931 898 913 999
1050.0 1072 1166 1219 1336 1357 1446 1443 1471 1427 1435
1090.0 1423 1484 1527 1628 1700 1773 1811 1828 1795 1827
1130.0 1893 2008 2155 2334 2541 2870 3327 3868 4471 5218
1170.0 5975 6646 7093 7121 7097 6989 7148 7249 7242 7251
1210.0 7017 6455 6072 5534 5165 4810 4513 4296 4115 3926
1250.0 3807 3592 3471 3293 3121 2936 2825 2717 2622 2513
1290.0 2421 2286 2187 2092 2076 2068 2103 2143 2254 2314
1330.0 2484 2597 2787 2870 2993 3012 2981 2727 2440 2053
1370.0 1795 1573 1463 1353 1293 1204 1177 1115 1109 1085
1410.0 1128 1136 1159 1120 1190 1427 2096 2909 3239 2668
1450.0 1735 1151 891 748 694 604 564 476 424 375
1490.0 357 295 264 205 185 130 190 170 179 142
1530.0 138 101 91 20 33 25 63 90 147 189
1570.0 207 234 226 220 197 188 188 185 192 175
1610.0 199 209 216 254 268 269 277 265 275 265
1650.0 267 252 283 269 282 294 312 309 347 353
1690.0 406 450 489 579 705 856 1046 1315 1676 2127
1730.0 2642 3165 3714 4373 5273 6542 7995 9375 10000 9858
1770.0 8590 6956 5245 3897 2962 2390 1954 1686 1397 1165
1810.0 950 788 630 519 410 357 301 284 249 251
1850.0 241 239 219 229 197 209 190 199 187 189
1890.0 172 164 148 148 140 148 130 138 130 137
1930.0 128 144 130 137 131 147 125 139 127 136
1970.0 118 137 124 139 125 141 134 145 151 159
2010.0 157 162 156 164 144 155 153 156 152 150
2050.0 142 149 147 142 146 144 144 143 133 142
2090.0 139 137 129 128 117 119 117 110 104 102
2130.0 103 93 92 83 90 83 83 82 82 82
2170.0 82 82 81 81 81 82 81 72 78 74
2210.0 81 67 75 71 70 70 80 70 80 70
2250.0 80 67 79 79 79 79 79 79 86 86
2290.0 116 136 166 167 196 206 223 207 247 213
2330.0 249 210 237 222 273 232 294 275 312 277
2370.0 250 186 167 142 101 65 63 54 75 63
2410.0 65 51 65 53 58 51 58 56 61 52
2450.0 52 53 53 51 53 41 55 46 54 41
2490.0 47 44 49 51 40 41 41 40 42 37
2530.0 41 48 34 39 38 44 38 49 38 39
2570.0 39 47 40 46 42 44 42 54 43 51
2610.0 45 46 37 46 47 45 38 51 36 44
2650.0 30 47 34 39 33 37 25 35 25 37
2690.0 26 40 17 36 23 36 24 33 24 44
2730.0 14 33 14 35 22 35 23 41 22 36
2770.0 24 51 25 45 34 55 35 45 44 55
2810.0 50 61 65 73 76 104 114 154 215 309
2850.0 377 423 368 305 228 194 160 163 166 182
2890.0 205 245 293 336 356 382 388 418 415 434
2930.0 433 455 507 592 734 1002 1500 2313 2880 2704
2970.0 1923 1081 666 540 527 544 598 666 708 728
3010.0 711 638 577 530 535 530 520 466 396 322
3050.0 282 220 198 171 177 151 150 123 139 122
3090.0 131 116 129 111 114 95 104 83 92 80
3130.0 75 62 72 55 62 48 59 46 56 27
3170.0 46 33 51 20 47 25 47 38 35 18
3210.0 48 9 28 8 30 15 32 6 32 1
3250.0 34 7 27 14 19 21 40 10 31 17
3290.0 38 12 29 10 41 24 37 16 31 13
3330.0 22 21 26 27 49 26 43 25 35 33
3370.0 29 33 52 33 45 32 46 54 50 59
3410.0 62 73 79 92 92 96 123 134 136 162
3450.0 177 199 219 248 241 274 275 283 290 301
3490.0 292 320 301 331 310 337 340 351 347 394
3530.0 388 397 418 480 501 539 528 559 520 526
3570.0 484 476 429 422 347 325 246 256 237 247
3610.0 205 214 176 179 151 145 95 91 62 72
3650.0 32 52 42 44 21 40 17 28 26 33
3690.0 18 40 15 23 34 34 15 45 27 37
3730.0 20 20 7 23 3 15 1 15 5 16
3770.0 14 16 12 11 12 3 7 13 4 6
3810.0 2 1 7 7 7 5 5 3 20 12
3850.0 15 8 28 27 19 10 47 40 47 30
3890.0 47 22 31 7 31 30 30 11 21 10
3930.0 30 22 42 29 37 46 0 2 2 2
##END=
