##TITLE=Heptadecane, 6,9,12-tripropyl-,
##JCAMP-DX=4.24
##DATA TYPE=INFRARED SPECTRUM
##ORIGIN=Sadtler Research Labs Under US-EPA Contract
##OWNER=NIST Standard Reference Data Program
##CAS REGISTRY NO=15874-06-3
##MOLFORM=C 26 H 54
##XUNITS=1/CM
##YUNITS=ABSORBANCE
##XFACTOR=1.0
##YFACTOR=0.000124817
##DELTAX=4.0
##FIRSTX=450.0
##LASTX=3966.0
##FIRSTY=0.003370
##MAXX=3966
##MINX=450
##MAXY=1.24817
##MINY=0
##NPOINTS=880
##XYDATA=(X++(Y..Y))
450.0 27 18 31 20 13 30 18 7 9 29
490.0 27 45 12 29 35 29 25 40 36 28
530.0 29 18 37 30 35 44 22 37 37 34
570.0 26 49 42 43 48 42 33 25 23 27
610.0 16 19 30 24 13 20 17 16 17 15
650.0 18 14 15 15 14 49 11 24 22 18
690.0 15 20 23 33 36 50 63 91 111 132
730.0 142 160 165 172 154 136 123 114 104 99
770.0 89 79 61 49 42 30 35 35 28 27
810.0 23 25 22 20 20 16 18 17 23 17
850.0 23 19 26 24 21 21 17 26 30 41
890.0 43 51 55 44 49 44 33 25 17 16
930.0 12 16 18 16 15 19 22 23 20 23
970.0 22 25 22 21 24 26 31 35 41 47
1010.0 51 54 58 54 60 59 56 55 54 55
1050.0 56 57 60 61 63 67 72 74 77 78
1090.0 84 80 80 80 80 75 73 72 69 73
1130.0 82 88 96 100 94 87 72 61 56 53
1170.0 53 56 59 62 63 65 66 70 72 69
1210.0 69 73 73 71 74 78 82 87 93 102
1250.0 108 113 128 135 132 126 129 134 139 143
1290.0 151 154 161 168 172 168 165 165 168 179
1330.0 193 221 257 287 304 315 337 363 394 403
1370.0 403 400 452 525 464 323 233 187 165 158
1410.0 153 155 159 168 179 213 251 339 439 582
1450.0 756 964 1184 1267 1219 1047 769 489 324 227
1490.0 176 141 119 97 90 79 65 57 49 45
1530.0 30 36 27 26 22 22 19 14 17 11
1570.0 14 11 16 10 13 10 16 15 17 15
1610.0 17 16 16 15 10 16 14 15 12 17
1650.0 3 17 5 8 6 11 7 17 14 22
1690.0 23 31 34 49 54 70 92 115 131 140
1730.0 133 122 99 88 73 67 64 61 58 57
1770.0 59 54 51 49 47 42 43 43 48 44
1810.0 36 29 24 14 14 8 8 7 3 6
1850.0 7 4 5 8 3 5 5 6 6 3
1890.0 4 5 3 3 3 2 2 3 2 1
1930.0 2 1 0 2 0 2 0 2 1 1
1970.0 3 1 1 0 1 0 0 1 2 1
2010.0 3 2 5 6 8 8 10 11 9 11
2050.0 10 8 9 8 6 6 4 4 4 3
2090.0 3 5 6 4 3 4 5 3 4 4
2130.0 4 2 3 1 1 2 4 5 6 5
2170.0 6 7 5 6 6 4 5 3 5 6
2210.0 3 3 3 3 3 5 3 5 5 5
2250.0 7 7 7 8 10 12 13 14 17 19
2290.0 23 25 32 35 38 42 45 39 45 39
2330.0 37 31 32 35 43 51 59 49 42 31
2370.0 31 27 36 39 29 20 16 18 19 18
2410.0 16 17 17 17 16 16 14 16 14 14
2450.0 14 16 16 15 14 16 15 15 18 18
2490.0 18 22 21 22 23 24 27 27 33 32
2530.0 35 38 39 39 45 46 48 51 53 56
2570.0 59 61 64 66 68 69 71 70 74 75
2610.0 77 78 75 80 81 83 87 89 90 97
2650.0 99 104 106 110 115 115 117 118 118 121
2690.0 124 124 124 127 131 132 137 140 146 153
2730.0 162 172 181 187 183 175 167 164 164 169
2770.0 176 185 197 209 227 244 267 287 310 335
2810.0 366 400 440 485 536 600 686 802 990 1300
2850.0 1798 2490 3212 3708 3963 4089 4053 4020 4048 3754
2890.0 3249 3031 3187 3644 4275 4942 5627 6462 7493 8637
2930.0 9627 10000 9479 8371 6888 5588 4989 5368 6639 7654
2970.0 7000 4882 3105 2115 1581 1257 1039 881 765 675
3010.0 602 545 501 454 417 383 347 315 285 260
3050.0 238 222 205 195 181 177 167 164 156 149
3090.0 143 136 131 129 122 115 110 106 100 96
3130.0 93 90 85 83 84 79 77 76 72 72
3170.0 69 67 63 63 60 56 55 54 49 44
3210.0 43 38 38 30 27 25 25 20 23 23
3250.0 20 20 21 23 20 20 19 18 18 16
3290.0 16 18 20 18 14 15 19 20 19 17
3330.0 18 20 21 21 18 15 14 17 17 19
3370.0 18 19 18 15 20 13 17 19 15 17
3410.0 15 13 14 16 17 18 16 21 14 13
3450.0 13 15 15 14 12 11 9 12 8 6
3490.0 9 11 12 13 11 13 5 3 6 7
3530.0 8 6 10 6 11 3 10 14 18 18
3570.0 25 21 21 22 19 21 16 12 15 15
3610.0 21 13 17 23 16 31 22 25 25 23
3650.0 21 21 27 24 24 18 16 21 17 21
3690.0 23 20 21 23 22 20 21 20 20 22
3730.0 25 25 26 21 33 16 24 13 15 18
3770.0 21 20 17 20 14 14 13 17 19 22
3810.0 18 12 15 21 16 20 15 14 11 11
3850.0 10 21 25 14 11 17 13 18 20 18
3890.0 2 12 10 17 10 14 8 20 13 12
3930.0 10 13 12 8 10 20 19 12 4 15
##END=
