##TITLE=Cyclohexanone, 5-methyl-2-(1-methylethylidene)-
##JCAMP-DX=4.24
##DATA TYPE=INFRARED SPECTRUM
##ORIGIN=Sadtler Research Labs Under US-EPA Contract
##OWNER=NIST Standard Reference Data Program
##CAS REGISTRY NO=15932-80-6
##MOLFORM=C 10 H 16 O
##XUNITS=1/CM
##YUNITS=ABSORBANCE
##XFACTOR=1.0
##YFACTOR=0.000058093
##DELTAX=4.0
##FIRSTX=450.0
##LASTX=3966.0
##FIRSTY=0.012664
##MAXX=3966
##MINX=450
##MAXY=0.58093
##MINY=0
##NPOINTS=880
##XYDATA=(X++(Y..Y))
450.0 218 117 32 165 87 142 158 195 175 159
490.0 140 199 131 76 132 114 180 187 264 332
530.0 425 283 115 283 163 158 135 167 108 96
570.0 136 162 115 60 182 171 11 108 85 77
610.0 137 147 184 204 304 390 476 594 581 749
650.0 685 585 433 371 345 408 383 354 333 269
690.0 205 162 175 174 152 136 104 70 61 70
730.0 35 62 81 45 46 34 37 14 16 28
770.0 26 47 40 68 58 58 5 27 13 21
810.0 23 21 38 36 35 59 73 79 87 92
850.0 108 120 160 197 239 316 353 392 372 343
890.0 314 278 274 240 237 207 218 241 269 304
930.0 360 410 416 408 370 359 354 359 347 332
970.0 311 305 321 338 388 436 475 533 612 712
1010.0 811 939 1084 1221 1275 1238 1096 899 711 566
1050.0 500 458 461 486 557 633 721 796 888 1014
1090.0 1149 1253 1300 1280 1231 1231 1302 1450 1671 1876
1130.0 1956 1897 1686 1424 1171 970 817 733 702 708
1170.0 739 774 812 883 996 1232 1648 2210 2757 3007
1210.0 2846 2383 1804 1407 1264 1237 1260 1254 1206 1097
1250.0 952 846 813 902 1093 1387 1894 2569 3076 3187
1290.0 2935 2201 1383 910 736 679 676 710 766 851
1330.0 936 1014 1046 1024 987 944 967 1071 1228 1414
1370.0 1648 1901 2138 2250 2180 1837 1426 1068 840 735
1410.0 748 844 969 1104 1178 1218 1274 1416 1637 1866
1450.0 2064 2159 2169 2097 1917 1651 1334 1061 835 652
1490.0 533 472 421 391 371 368 354 356 361 366
1530.0 359 379 405 405 437 464 494 515 569 599
1570.0 664 716 810 891 997 1089 1180 1277 1389 1514
1610.0 1685 1937 2198 2459 2613 2603 2399 2051 1632 1286
1650.0 1021 926 876 927 1030 1215 1497 1955 2656 3821
1690.0 5430 7139 8300 8440 7651 5881 4282 3327 2932 2675
1730.0 2415 1988 1549 1195 979 910 879 788 583 468
1770.0 382 387 432 506 596 680 688 621 493 324
1810.0 221 158 138 128 120 99 82 67 57 50
1850.0 49 52 48 49 47 39 48 48 45 47
1890.0 48 48 53 47 43 50 53 58 46 52
1930.0 48 46 42 34 38 37 38 28 32 32
1970.0 32 27 30 31 30 25 13 18 12 15
2010.0 14 5 4 10 10 7 19 7 14 15
2050.0 9 19 27 25 28 42 41 53 53 51
2090.0 48 41 29 23 28 30 33 24 32 37
2130.0 38 36 32 29 27 35 30 31 28 31
2170.0 30 28 35 38 37 44 43 47 48 50
2210.0 55 59 55 55 53 50 47 42 33 43
2250.0 38 36 41 37 41 37 38 45 45 49
2290.0 46 49 50 56 56 58 71 75 77 67
2330.0 65 44 36 23 3 21 106 94 18 1
2370.0 1 1 1 1 0 25 32 34 44 47
2410.0 45 40 37 28 30 29 30 38 25 28
2450.0 24 25 19 27 26 27 21 19 19 11
2490.0 13 12 5 3 7 2 10 17 13 15
2530.0 15 16 19 12 19 25 27 32 27 32
2570.0 36 31 31 31 22 23 18 20 11 15
2610.0 11 6 11 24 22 30 48 61 60 52
2650.0 71 72 88 80 84 73 74 90 83 92
2690.0 100 95 88 87 88 96 103 114 134 157
2730.0 202 234 263 266 260 233 204 192 186 181
2770.0 175 183 171 188 195 219 229 262 287 319
2810.0 343 389 454 520 605 680 796 999 1300 1748
2850.0 2296 2782 3110 3351 3476 3704 4162 4676 5029 5092
2890.0 4778 4332 4131 4260 4747 5509 6500 7650 8639 9441
2930.0 10000 9847 9108 8002 6831 6244 6641 7900 9632 9866
2970.0 8620 7111 5027 3446 2552 2004 1631 1392 1237 1164
3010.0 1114 1060 1005 939 870 790 737 641 584 514
3050.0 476 428 402 355 333 301 305 287 256 247
3090.0 199 191 166 154 140 125 123 88 112 123
3130.0 112 103 112 109 110 120 87 97 122 117
3170.0 101 94 110 121 110 111 104 117 106 99
3210.0 76 90 75 59 68 52 58 49 82 80
3250.0 92 101 83 72 81 72 70 48 46 50
3290.0 68 78 60 47 65 37 57 39 49 74
3330.0 43 78 41 78 66 84 70 57 57 84
3370.0 100 82 105 126 124 119 107 106 67 55
3410.0 38 43 36 26 49 32 71 45 39 28
3450.0 55 53 34 37 43 60 60 67 71 46
3490.0 53 45 32 44 29 2 22 45 33 46
3530.0 50 103 91 114 108 90 66 83 74 93
3570.0 104 117 94 79 40 21 71 42 21 27
3610.0 31 45 58 51 10 52 30 49 72 71
3650.0 110 71 62 62 64 43 20 35 31 39
3690.0 70 20 9 28 26 18 24 52 35 30
3730.0 20 51 11 17 93 75 53 47 46 47
3770.0 45 38 51 51 63 48 72 35 36 62
3810.0 81 69 25 33 51 94 51 78 70 97
3850.0 64 50 44 48 64 52 50 52 56 50
3890.0 91 66 33 110 24 61 32 74 99 26
3930.0 50 21 115 86 38 71 41 98 43 127
##END=
