##TITLE=Benzenesulfonyl chloride, 2,4,5-trichloro-
##JCAMP-DX=4.24
##DATA TYPE=INFRARED SPECTRUM
##ORIGIN=Sadtler Research Labs Under US-EPA Contract
##OWNER=NIST Standard Reference Data Program
##CAS REGISTRY NO=15945-07-0
##MOLFORM=C 6 H 2 Cl 4 O 2 S
##XUNITS=1/CM
##YUNITS=ABSORBANCE
##XFACTOR=1.0
##YFACTOR=0.000070462
##DELTAX=4.0
##FIRSTX=450.0
##LASTX=3966.0
##FIRSTY=0.008737
##MAXX=3966
##MINX=450
##MAXY=0.70462
##MINY=0
##NPOINTS=880
##XYDATA=(X++(Y..Y))
450.0 124 154 138 215 279 733 1212 1247 878 409
490.0 226 196 196 199 197 247 383 528 642 699
530.0 709 690 795 929 1192 1917 3627 5724 8343 10000
570.0 9215 4844 1834 792 541 409 414 530 641 651
610.0 624 684 1052 1841 2317 1775 1105 959 1281 1786
650.0 2437 2272 1563 671 394 254 293 433 1008 1553
690.0 1617 893 286 102 32 17 4 13 33 32
730.0 52 68 91 89 61 50 32 38 29 37
770.0 41 42 41 33 25 16 14 24 32 76
810.0 130 153 157 140 112 76 51 49 82 116
850.0 158 214 305 573 1057 1773 2532 2917 2631 1816
890.0 1042 720 730 768 595 341 144 71 36 40
930.0 36 27 29 31 32 29 19 18 6 1
970.0 2 2 10 10 11 18 19 26 32 37
1010.0 34 43 47 71 101 158 220 196 264 351
1050.0 542 942 1711 2643 3168 2964 2165 1289 671 378
1090.0 311 307 334 396 539 897 1378 1619 1553 1287
1130.0 1131 1123 1119 1144 1270 1515 1676 1657 1476 1230
1170.0 1102 1401 2414 4381 6915 8315 7143 4167 1924 982
1210.0 735 680 677 626 625 641 637 787 784 609
1250.0 495 392 350 307 274 236 169 135 148 180
1290.0 218 250 311 424 617 877 1168 1448 1615 1530
1330.0 1274 1034 973 949 859 808 773 902 793 610
1370.0 893 1172 1210 1212 1275 1400 1758 2630 4735 7325
1410.0 7833 5386 2738 1515 1771 2437 3354 4003 4143 3742
1450.0 3146 2535 2074 1545 1047 732 596 457 298 251
1490.0 252 208 241 225 292 338 324 418 587 708
1530.0 926 1053 1061 866 559 387 443 676 851 951
1570.0 922 732 540 411 307 250 185 142 91 72
1610.0 66 54 85 46 73 19 60 65 35 43
1650.0 89 91 42 21 33 49 77 26 90 107
1690.0 60 41 121 113 85 53 84 147 79 67
1730.0 109 182 138 139 165 171 137 127 132 111
1770.0 157 149 99 94 86 92 119 111 128 86
1810.0 67 53 29 36 36 49 27 18 36 56
1850.0 26 4 11 13 23 41 13 7 12 16
1890.0 27 21 16 15 13 15 13 19 25 7
1930.0 4 6 7 21 14 0 7 7 4 14
1970.0 11 8 6 9 8 21 16 7 1 5
2010.0 3 5 10 8 5 1 2 6 8 4
2050.0 5 7 5 6 11 9 5 10 3 5
2090.0 8 11 9 11 2 7 10 5 8 12
2130.0 12 9 6 0 4 0 5 4 3 9
2170.0 8 10 13 20 17 12 11 9 10 10
2210.0 11 10 10 10 8 3 0 4 4 5
2250.0 5 11 11 10 12 12 15 16 19 20
2290.0 26 30 34 40 45 58 67 74 84 95
2330.0 88 85 67 55 72 46 96 62 57 26
2370.0 18 6 14 18 9 4 4 2 3 4
2410.0 3 12 8 10 13 15 12 14 14 10
2450.0 12 14 17 19 22 21 24 28 28 32
2490.0 38 45 49 50 50 59 58 50 41 27
2530.0 19 13 12 12 16 15 20 25 27 30
2570.0 36 40 37 44 51 56 45 34 22 23
2610.0 12 14 15 14 18 15 14 15 18 9
2650.0 10 17 14 22 20 23 24 29 24 18
2690.0 22 19 20 23 18 17 19 13 15 20
2730.0 22 16 16 21 18 33 36 31 37 42
2770.0 41 57 55 46 38 35 30 42 37 34
2810.0 33 28 28 38 28 22 26 27 34 31
2850.0 25 23 24 27 33 29 33 31 31 33
2890.0 32 27 28 27 32 30 23 30 23 36
2930.0 31 32 35 38 50 36 39 41 60 53
2970.0 51 53 64 72 64 64 62 70 55 53
3010.0 51 54 45 40 41 41 38 34 40 43
3050.0 47 45 54 58 63 76 106 137 168 204
3090.0 270 391 487 440 281 123 68 52 52 41
3130.0 40 36 36 33 33 37 31 32 36 33
3170.0 31 35 29 31 31 32 32 34 35 30
3210.0 31 35 41 31 36 25 33 33 33 33
3250.0 20 27 23 29 24 24 22 23 24 22
3290.0 20 18 22 12 16 18 17 9 14 12
3330.0 10 13 15 9 10 13 10 14 9 13
3370.0 14 9 3 12 6 8 7 6 10 4
3410.0 3 6 10 9 5 7 11 7 9 6
3450.0 4 7 5 3 8 9 7 5 11 11
3490.0 13 8 10 11 6 6 4 6 4 16
3530.0 8 10 6 15 13 12 14 14 26 29
3570.0 40 51 50 58 55 45 31 23 29 24
3610.0 24 10 17 26 23 35 19 25 16 24
3650.0 28 23 28 8 19 21 21 34 22 32
3690.0 29 26 20 36 22 33 29 15 31 44
3730.0 27 21 24 22 33 18 36 12 14 23
3770.0 13 15 24 35 31 34 33 10 13 13
3810.0 9 15 16 9 9 7 11 25 13 17
3850.0 12 29 26 28 26 9 13 25 12 29
3890.0 15 0 6 28 38 11 21 25 23 10
3930.0 33 21 25 14 22 37 34 20 26 21
##END=
