##TITLE=Phenol, 2,3,4-trichloro-
##JCAMP-DX=4.24
##DATA TYPE=INFRARED SPECTRUM
##ORIGIN=Sadtler Research Labs Under US-EPA Contract
##OWNER=NIST Standard Reference Data Program
##CAS REGISTRY NO=15950-66-0
##MOLFORM=C 6 H 3 Cl 3 O
##XUNITS=1/CM
##YUNITS=ABSORBANCE
##XFACTOR=1.0
##YFACTOR=0.000103543
##DELTAX=4.0
##FIRSTX=450.0
##LASTX=3966.0
##FIRSTY=0.000000
##MAXX=3966
##MINX=450
##MAXY=1.03543
##MINY=0
##NPOINTS=880
##XYDATA=(X++(Y..Y))
450.0 0 223 365 372 283 222 178 274 224 261
490.0 352 428 586 663 560 506 279 350 285 186
530.0 382 485 589 1084 137 286 343 605 204 302
570.0 362 359 473 333 308 306 239 319 139 169
610.0 226 244 216 215 211 246 187 239 253 274
650.0 332 312 325 267 307 418 772 1214 1476 1399
690.0 1015 507 309 311 261 262 334 305 262 269
730.0 261 233 227 198 247 270 244 334 450 680
770.0 1107 1597 2068 2367 2265 1972 1484 1286 1277 1456
810.0 1969 1908 1295 825 586 366 248 269 222 241
850.0 222 192 205 175 187 166 201 206 209 226
890.0 268 253 320 381 454 646 963 1456 1705 1651
930.0 1534 950 488 297 243 231 212 228 213 213
970.0 212 211 223 245 231 246 226 222 189 206
1010.0 196 174 184 172 143 192 183 199 187 195
1050.0 188 192 211 226 245 293 309 349 348 393
1090.0 373 353 319 275 261 257 255 300 359 426
1130.0 500 530 539 519 492 544 645 760 856 1067
1170.0 1455 1840 2199 2624 3175 3948 4466 4424 3755 2664
1210.0 1916 1599 1474 1278 975 661 425 363 351 392
1250.0 473 601 882 1264 1826 2373 2754 2794 2428 1968
1290.0 1516 1128 992 936 959 1057 1028 957 779 511
1330.0 335 258 178 175 188 194 157 183 173 181
1370.0 238 237 319 426 552 792 1041 1284 1284 1082
1410.0 819 483 306 363 405 657 962 1996 4098 6978
1450.0 9950 10000 8409 4914 2203 1025 838 684 629 570
1490.0 436 409 278 241 215 209 282 233 189 186
1530.0 124 158 163 168 248 357 485 555 733 802
1570.0 824 871 901 1122 1297 1254 1168 870 703 573
1610.0 515 500 379 316 232 245 192 150 154 133
1650.0 97 100 126 132 151 142 116 167 119 108
1690.0 139 139 81 93 112 143 122 81 120 143
1730.0 133 100 163 154 140 112 129 117 104 131
1770.0 99 96 116 117 111 115 97 122 99 121
1810.0 122 113 126 120 111 101 120 136 122 114
1850.0 150 168 186 216 242 228 241 220 178 142
1890.0 128 121 126 131 125 129 121 120 105 124
1930.0 126 122 125 126 128 136 145 142 141 132
1970.0 139 131 133 130 130 129 129 136 131 123
2010.0 126 114 104 108 111 108 107 111 103 117
2050.0 120 116 111 116 108 108 110 113 104 106
2090.0 106 106 110 107 112 111 114 117 115 115
2130.0 112 112 113 103 100 102 98 103 108 114
2170.0 111 107 111 113 116 118 120 127 126 132
2210.0 120 108 104 112 110 108 107 110 111 110
2250.0 118 115 117 119 121 122 120 114 114 122
2290.0 125 133 138 135 133 141 129 141 142 120
2330.0 110 117 106 107 141 139 128 126 145 146
2370.0 163 164 150 147 136 121 99 94 89 88
2410.0 93 92 85 88 82 77 85 79 81 88
2450.0 91 92 95 91 94 104 108 114 110 105
2490.0 116 114 113 124 137 129 122 111 108 92
2530.0 94 91 99 95 97 85 89 81 77 79
2570.0 80 92 95 106 102 105 104 95 91 86
2610.0 81 71 76 78 75 72 74 83 93 89
2650.0 89 79 72 68 73 74 67 67 64 59
2690.0 55 49 65 61 58 69 72 71 64 62
2730.0 63 61 64 67 69 74 69 76 81 77
2770.0 81 82 76 72 65 69 69 63 64 69
2810.0 61 60 65 61 65 67 71 67 68 60
2850.0 54 58 64 68 72 73 68 63 64 57
2890.0 59 52 54 47 49 45 48 34 27 38
2930.0 43 50 60 72 85 77 80 82 82 83
2970.0 88 85 96 94 99 85 91 100 96 99
3010.0 99 100 102 107 116 115 115 116 114 105
3050.0 94 105 113 105 119 126 129 150 152 146
3090.0 138 127 121 116 97 95 99 96 105 96
3130.0 101 99 102 111 113 119 122 127 123 129
3170.0 120 113 110 103 105 114 121 125 116 110
3210.0 111 106 97 108 100 96 100 102 105 96
3250.0 100 101 96 108 108 111 121 133 130 115
3290.0 108 96 96 93 89 87 92 88 95 90
3330.0 84 98 95 105 99 93 96 100 93 101
3370.0 98 97 111 103 97 76 68 62 57 54
3410.0 74 95 87 97 98 101 100 87 96 99
3450.0 99 95 99 102 101 89 99 97 106 97
3490.0 118 116 106 116 105 130 114 121 131 110
3530.0 127 136 155 186 200 270 432 794 1656 2885
3570.0 3674 3890 3412 2156 1139 543 338 228 187 181
3610.0 158 160 147 156 165 142 177 208 257 311
3650.0 318 312 292 218 191 156 136 160 173 156
3690.0 146 175 164 162 158 162 148 155 160 164
3730.0 183 181 218 239 279 291 289 227 199 182
3770.0 173 181 169 193 185 180 186 169 174 168
3810.0 178 187 158 187 191 196 176 184 149 176
3850.0 191 193 193 198 195 207 193 180 199 203
3890.0 201 154 170 233 172 232 203 196 242 198
3930.0 174 155 155 213 158 177 162 173 215 262
##END=
