##TITLE=2-Thiazolamine, 4-methyl-
##JCAMP-DX=4.24
##DATA TYPE=INFRARED SPECTRUM
##ORIGIN=Sadtler Research Labs Under US-EPA Contract
##OWNER=NIST Standard Reference Data Program
##CAS REGISTRY NO=1603-91-4
##MOLFORM=C 4 H 6 N 2 S
##XUNITS=1/CM
##YUNITS=ABSORBANCE
##XFACTOR=1.0
##YFACTOR=0.000116998
##DELTAX=4.0
##FIRSTX=450.0
##LASTX=3966.0
##FIRSTY=0.071018
##MAXX=3966
##MINX=450
##MAXY=1.16998
##MINY=0
##NPOINTS=880
##XYDATA=(X++(Y..Y))
450.0 607 558 521 522 478 537 495 484 469 490
490.0 487 454 451 424 399 337 330 223 187 148
530.0 134 144 197 241 294 391 439 550 594 620
570.0 654 771 920 1142 1303 1311 1330 1252 1130 979
610.0 805 655 681 803 934 1145 1323 1343 1284 1257
650.0 1171 1087 1037 1064 1143 1353 1639 1822 2145 2230
690.0 2817 3471 2777 2082 1918 1706 1509 1269 1132 1131
730.0 1197 1273 1305 1296 1291 1192 1041 879 753 666
770.0 577 524 474 446 394 369 341 315 288 280
810.0 276 260 276 292 353 441 571 665 634 616
850.0 626 641 478 285 159 116 81 67 60 62
890.0 54 36 33 15 17 4 2 3 16 41
930.0 80 129 189 320 487 695 829 821 812 934
970.0 874 680 518 414 394 325 332 279 274 257
1010.0 183 129 99 89 87 95 108 120 100 112
1050.0 114 128 144 167 235 322 469 669 931 1198
1090.0 1346 1364 1441 1511 1404 1166 941 758 657 625
1130.0 661 718 708 668 614 554 505 361 244 173
1170.0 149 143 142 143 141 148 152 163 171 196
1210.0 216 232 260 277 312 340 386 430 502 587
1250.0 706 847 1025 1253 1515 1776 1907 1924 1940 2071
1290.0 2107 2078 2167 2522 3197 4105 5100 5802 6249 6353
1330.0 6264 5603 4712 3646 2778 2267 2027 1985 2018 2187
1370.0 2368 2452 2316 2245 2117 1775 1299 831 548 386
1410.0 335 336 356 421 481 557 579 681 807 919
1450.0 799 728 841 823 740 656 621 595 703 794
1490.0 1069 1514 2154 3180 4499 6545 7735 8931 9604 9945
1530.0 10000 8666 7354 5849 4918 4186 3471 2865 2393 2223
1570.0 2097 2125 2302 2718 3396 4280 5253 6035 6490 6731
1610.0 6556 6091 5159 3921 2795 1911 1361 988 774 630
1650.0 487 432 389 334 330 318 272 293 240 248
1690.0 203 201 145 149 100 97 84 70 80 78
1730.0 74 50 76 53 52 48 74 59 77 82
1770.0 81 84 86 105 88 113 83 88 72 82
1810.0 52 53 49 27 37 14 30 9 22 12
1850.0 21 20 27 26 25 30 29 32 23 25
1890.0 17 17 21 26 35 36 44 46 41 44
1930.0 40 39 36 35 30 38 42 51 53 67
1970.0 77 89 97 105 105 99 98 86 76 60
2010.0 54 46 43 40 40 41 41 48 48 54
2050.0 55 58 55 55 62 71 73 66 59 47
2090.0 48 53 59 65 69 70 63 62 50 39
2130.0 25 17 10 3 2 0 2 0 4 3
2170.0 6 7 13 15 16 25 27 35 32 33
2210.0 28 29 26 24 22 21 24 22 25 22
2250.0 25 26 30 33 35 44 53 58 60 68
2290.0 69 76 80 79 78 83 78 65 72 63
2330.0 61 57 52 74 84 83 95 73 81 76
2370.0 64 60 60 63 39 12 2 0 2 1
2410.0 6 3 8 5 6 9 8 9 6 5
2450.0 3 5 0 0 1 2 2 4 7 5
2490.0 3 2 4 1 0 2 3 4 5 8
2530.0 7 9 8 10 8 9 13 9 11 13
2570.0 16 16 20 24 31 44 49 60 69 83
2610.0 82 83 79 72 61 51 43 37 37 33
2650.0 36 35 41 41 43 47 52 58 63 68
2690.0 72 76 76 77 72 66 65 55 56 55
2730.0 62 68 75 78 76 78 76 70 65 66
2770.0 67 75 83 92 104 112 120 123 125 120
2810.0 124 114 113 116 121 137 155 176 197 231
2850.0 267 325 389 439 492 541 584 604 590 565
2890.0 543 501 457 413 387 393 453 607 886 1264
2930.0 1484 1612 1632 1603 1504 1243 917 777 719 909
2970.0 1065 926 933 1020 1036 927 813 797 692 526
3010.0 373 288 243 216 204 200 202 202 205 201
3050.0 202 201 211 223 228 233 225 214 197 190
3090.0 178 176 178 173 176 187 200 201 196 184
3130.0 167 148 122 85 63 56 53 52 52 58
3170.0 57 60 64 64 62 63 64 63 61 58
3210.0 59 54 55 58 59 68 70 71 64 74
3250.0 75 79 78 78 76 69 60 51 45 35
3290.0 31 22 19 20 20 15 13 14 12 17
3330.0 17 25 21 19 21 26 33 45 65 79
3370.0 113 153 215 311 455 678 999 1382 1680 1825
3410.0 1905 1984 1887 1566 1193 881 628 413 280 204
3450.0 171 150 151 153 171 196 249 335 466 673
3490.0 924 1161 1271 1344 1426 1437 1316 1082 859 678
3530.0 530 392 266 169 121 83 54 46 30 53
3570.0 44 27 23 18 36 29 25 1 9 4
3610.0 24 7 17 8 6 41 19 5 11 15
3650.0 41 25 29 37 23 52 35 68 31 45
3690.0 35 31 28 35 24 24 25 25 19 35
3730.0 31 43 29 42 47 16 32 6 6 11
3770.0 5 7 0 9 0 0 0 0 9 10
3810.0 0 6 0 11 0 1 6 9 5 21
3850.0 16 43 57 33 41 46 29 21 26 39
3890.0 24 21 7 43 32 15 11 27 14 12
3930.0 23 18 22 21 33 38 38 39 53 41
##END=
