##TITLE=Butanedioic acid, methyl-, dimethyl ester
##JCAMP-DX=4.24
##DATA TYPE=INFRARED SPECTRUM
##ORIGIN=Sadtler Research Labs Under US-EPA Contract
##OWNER=NIST Standard Reference Data Program
##CAS REGISTRY NO=1604-11-1
##MOLFORM=C 7 H 12 O 4
##XUNITS=1/CM
##YUNITS=ABSORBANCE
##XFACTOR=1.0
##YFACTOR=0.000145920
##DELTAX=4.0
##FIRSTX=450.0
##LASTX=3966.0
##FIRSTY=0.030351
##MAXX=3966
##MINX=450
##MAXY=1.4592
##MINY=0
##NPOINTS=880
##XYDATA=(X++(Y..Y))
450.0 208 96 98 66 110 54 102 17 96 0
490.0 84 67 63 83 60 111 68 93 62 98
530.0 38 51 107 91 70 51 72 45 77 53
570.0 75 44 109 70 99 66 34 70 37 68
610.0 57 60 70 77 97 124 192 204 212 160
650.0 137 105 79 75 48 63 39 58 23 45
690.0 42 43 40 38 42 31 37 23 42 25
730.0 53 46 38 56 62 96 101 140 142 151
770.0 137 132 125 110 117 104 102 91 107 104
810.0 135 155 189 248 307 392 430 468 443 400
850.0 323 272 228 195 189 187 209 213 245 246
890.0 248 240 232 220 201 198 166 156 135 133
930.0 117 107 93 77 76 66 63 43 57 59
970.0 75 97 137 203 284 397 489 578 671 802
1010.0 935 1046 1043 926 749 573 491 460 506 605
1050.0 790 1062 1338 1478 1426 1220 1030 957 916 920
1090.0 927 948 961 964 979 1014 1108 1206 1307 1366
1130.0 1424 1470 1559 1744 2071 2665 3595 4903 6172 7035
1170.0 7067 6429 5644 4903 4493 4308 4273 4242 4142 3906
1210.0 3632 3341 3078 2926 2829 2790 2744 2729 2724 2767
1250.0 2825 2862 2827 2699 2540 2396 2347 2395 2511 2563
1290.0 2493 2296 2011 1738 1499 1326 1213 1178 1138 1086
1330.0 1036 1033 1097 1191 1323 1432 1477 1447 1369 1246
1370.0 1142 1036 949 874 804 709 578 466 391 382
1410.0 396 427 492 526 625 855 1374 1837 2024 1848
1450.0 1273 972 950 976 1003 964 864 685 492 384
1490.0 317 256 230 201 205 202 181 180 185 166
1530.0 166 155 165 179 166 153 154 172 156 144
1570.0 140 135 132 127 124 115 116 116 107 103
1610.0 99 94 97 89 90 82 89 102 87 95
1650.0 111 117 100 96 107 112 128 119 153 173
1690.0 178 203 256 310 363 441 541 693 825 1034
1730.0 1308 1723 2297 3151 4519 6194 8139 9531 10000 8911
1770.0 7158 5209 3578 2442 1683 1187 850 618 461 348
1810.0 281 237 199 176 157 137 117 99 95 92
1850.0 80 70 68 65 69 75 61 60 61 65
1890.0 64 64 58 61 61 61 63 61 64 57
1930.0 53 57 56 61 61 61 64 65 64 71
1970.0 73 77 81 85 90 95 97 94 94 96
2010.0 98 102 105 110 110 108 105 111 110 111
2050.0 107 103 98 101 98 88 84 79 77 72
2090.0 74 71 70 71 66 62 57 55 52 49
2130.0 51 50 45 42 42 40 39 38 42 41
2170.0 45 42 40 44 43 41 38 38 36 37
2210.0 33 33 34 32 31 28 32 31 31 29
2250.0 30 33 32 32 32 33 30 32 34 32
2290.0 31 28 28 30 33 35 37 38 41 45
2330.0 45 44 40 41 37 39 45 42 36 31
2370.0 35 26 30 27 32 36 36 35 34 33
2410.0 38 37 31 34 32 33 31 31 29 28
2450.0 27 26 26 24 24 20 23 22 22 20
2490.0 22 22 18 23 22 20 23 22 22 23
2530.0 23 22 27 24 20 21 20 19 20 19
2570.0 27 28 27 32 34 34 35 41 41 43
2610.0 44 41 42 37 37 35 30 30 38 39
2650.0 38 38 28 27 15 10 6 4 5 10
2690.0 12 7 8 14 10 10 10 10 10 10
2730.0 15 16 15 17 22 22 24 22 22 25
2770.0 30 27 24 26 33 37 33 33 36 39
2810.0 40 48 54 58 72 91 105 146 214 299
2850.0 377 409 379 286 201 176 176 210 268 345
2890.0 408 464 494 498 495 499 525 548 580 611
2930.0 646 690 769 872 1028 1262 1670 2200 2398 2277
2970.0 1876 1328 1126 1173 1271 1347 1319 1211 1050 876
3010.0 742 635 566 536 528 514 466 413 342 277
3050.0 225 201 173 151 136 133 122 113 114 111
3090.0 111 99 109 100 102 87 86 82 71 62
3130.0 60 63 55 49 46 47 39 30 22 38
3170.0 36 33 35 29 36 33 30 31 31 33
3210.0 33 33 26 26 24 27 23 27 30 30
3250.0 34 36 34 32 27 28 23 24 28 30
3290.0 18 30 21 24 17 24 32 28 29 27
3330.0 30 32 26 16 24 17 27 26 20 26
3370.0 19 19 23 24 15 28 22 33 27 28
3410.0 33 32 37 31 45 31 22 28 14 19
3450.0 35 50 35 40 43 38 55 63 62 62
3490.0 96 102 102 117 107 93 82 75 64 52
3530.0 41 40 32 33 20 31 30 21 40 26
3570.0 27 18 24 21 27 34 26 25 27 25
3610.0 25 31 25 27 37 39 28 13 31 31
3650.0 31 35 29 30 23 15 42 37 9 19
3690.0 22 24 30 28 12 19 36 26 8 26
3730.0 27 28 24 18 4 16 14 26 14 49
3770.0 13 14 19 22 10 31 28 26 10 29
3810.0 31 13 7 21 12 29 11 7 4 5
3850.0 5 9 5 8 4 4 4 28 13 4
3890.0 8 10 4 4 4 6 15 19 4 4
3930.0 12 4 14 6 12 4 17 23 6 4
##END=
