##TITLE=Bis(dimethylamino)phosphinic chloride
##JCAMP-DX=4.24
##DATA TYPE=INFRARED SPECTRUM
##ORIGIN=Sadtler Research Labs Under US-EPA Contract
##OWNER=NIST Standard Reference Data Program
##CAS REGISTRY NO=1605-65-8
##MOLFORM=C 4 H 12 Cl N 2 O P
##XUNITS=1/CM
##YUNITS=ABSORBANCE
##XFACTOR=1.0
##YFACTOR=0.000065283
##DELTAX=4.0
##FIRSTX=450.0
##LASTX=3966.0
##FIRSTY=0.081669
##MAXX=3966
##MINX=450
##MAXY=0.65283
##MINY=0
##NPOINTS=880
##XYDATA=(X++(Y..Y))
450.0 1251 1154 1278 1355 1348 1246 1168 1042 949 911
490.0 867 789 685 599 536 533 534 694 869 1229
530.0 1825 2674 3661 4393 4461 4095 3266 2419 1483 840
570.0 498 458 371 272 257 162 164 166 129 160
610.0 128 167 138 183 201 232 294 287 359 547
650.0 765 1240 1938 2666 3421 3685 3339 2720 1954 1226
690.0 722 539 510 464 447 455 453 517 721 1020
730.0 1511 2349 3099 3629 3611 3165 2461 1771 993 590
770.0 436 306 242 164 116 79 79 63 43 52
810.0 8 35 45 46 61 53 46 55 69 73
850.0 77 70 103 103 130 127 168 214 261 349
890.0 398 512 636 770 938 1063 1151 1192 1210 1230
930.0 1273 1338 1470 1632 1897 2278 2859 3728 4791 6191
970.0 7375 8576 9178 9758 9721 10000 8548 7034 5298 3896
1010.0 2779 2123 1718 1422 1242 1106 1017 966 963 971
1050.0 1044 1137 1264 1377 1459 1449 1307 1101 922 736
1090.0 647 578 545 514 505 493 498 493 527 561
1130.0 604 694 826 996 1178 1380 1589 1786 1925 2114
1170.0 2188 2265 2256 2257 2199 2107 1958 1804 1569 1402
1210.0 1211 1108 1090 1110 1216 1368 1563 1898 2184 2605
1250.0 3107 3635 4161 4112 3888 3631 3529 3698 4189 4805
1290.0 5558 6027 6429 6280 6052 5323 4422 3523 2727 2066
1330.0 1617 1307 1096 960 853 748 634 551 477 430
1370.0 409 384 353 340 319 321 304 311 307 301
1410.0 315 337 359 362 411 467 565 695 870 1071
1450.0 1228 1394 1452 1523 1559 1532 1455 1361 1312 1199
1490.0 1041 883 718 558 474 347 328 296 270 227
1530.0 254 227 241 194 205 209 233 240 175 217
1570.0 221 217 179 191 182 182 176 168 176 159
1610.0 150 159 135 146 131 137 155 133 139 147
1650.0 119 113 106 101 82 85 64 60 62 31
1690.0 50 74 52 28 54 60 64 69 84 95
1730.0 99 92 80 70 70 40 33 39 25 34
1770.0 27 23 21 23 12 20 5 10 5 11
1810.0 5 12 13 13 7 17 18 14 15 0
1850.0 1 13 15 15 23 0 11 8 11 12
1890.0 13 19 14 20 17 25 25 18 20 26
1930.0 26 26 36 32 27 36 45 39 35 37
1970.0 38 31 38 29 31 19 16 15 29 17
2010.0 24 24 18 16 25 26 26 25 25 25
2050.0 33 19 16 20 18 13 13 21 14 14
2090.0 5 16 13 12 12 20 20 25 27 25
2130.0 25 25 25 31 32 24 34 23 23 22
2170.0 22 15 22 22 14 20 13 13 13 12
2210.0 15 10 20 16 10 10 17 16 16 8
2250.0 16 15 13 14 12 6 6 5 14 13
2290.0 22 21 21 32 38 39 41 57 67 62
2330.0 64 62 54 33 9 78 101 65 34 23
2370.0 7 1 6 14 23 32 25 26 34 26
2410.0 27 34 33 35 36 35 35 29 36 29
2450.0 45 36 36 36 37 37 37 40 42 38
2490.0 42 45 39 38 47 47 54 46 46 47
2530.0 47 48 48 51 51 53 55 55 56 56
2570.0 57 57 57 57 51 56 56 58 57 56
2610.0 59 58 58 66 59 57 60 50 60 55
2650.0 54 62 60 59 59 60 67 76 68 61
2690.0 68 75 80 98 101 97 101 98 115 123
2730.0 131 140 147 165 181 198 223 225 250 278
2770.0 307 364 394 423 481 577 691 903 1119 1418
2810.0 1689 1933 2017 2009 1822 1619 1428 1348 1367 1545
2850.0 1780 2109 2421 2630 2700 2635 2562 2540 2629 2825
2890.0 3092 3363 3635 3807 3970 3976 3968 3969 3991 4104
2930.0 4261 4405 4562 4524 4384 4018 3573 3027 2532 2044
2970.0 1644 1370 1174 1090 1024 1043 1118 1191 1208 1167
3010.0 1101 999 883 758 675 593 528 462 419 407
3050.0 376 336 336 312 311 289 277 262 245 244
3090.0 219 216 207 194 193 177 161 164 145 148
3130.0 133 128 117 118 109 110 96 96 80 88
3170.0 79 79 75 72 68 65 65 66 58 54
3210.0 49 53 58 51 51 36 38 25 37 33
3250.0 38 32 45 31 38 22 29 23 21 31
3290.0 17 23 25 20 21 14 20 17 16 25
3330.0 17 24 19 27 27 18 17 18 11 29
3370.0 24 28 26 35 26 12 17 21 12 13
3410.0 17 15 29 14 12 13 14 13 13 23
3450.0 15 18 38 23 40 35 38 33 32 31
3490.0 40 38 47 31 34 33 37 35 45 32
3530.0 39 47 49 41 33 36 41 55 50 36
3570.0 24 53 46 58 58 34 52 51 44 58
3610.0 50 48 68 51 65 36 56 60 60 68
3650.0 54 46 54 69 82 72 73 50 79 83
3690.0 78 76 85 70 77 78 56 79 78 76
3730.0 87 74 71 90 69 80 64 87 80 88
3770.0 87 95 96 89 89 94 93 96 82 92
3810.0 82 89 74 73 92 92 82 77 72 80
3850.0 83 79 80 83 93 84 93 101 92 77
3890.0 75 66 72 54 69 76 72 71 71 71
3930.0 80 71 72 74 83 94 21 26 26 26
##END=
