##TITLE=1H-Indole, 4-methyl-
##JCAMP-DX=4.24
##DATA TYPE=INFRARED SPECTRUM
##ORIGIN=Sadtler Research Labs Under US-EPA Contract
##OWNER=NIST Standard Reference Data Program
##CAS REGISTRY NO=16096-32-5
##MOLFORM=C 9 H 9 N
##XUNITS=1/CM
##YUNITS=ABSORBANCE
##XFACTOR=1.0
##YFACTOR=0.000112787
##DELTAX=4.0
##FIRSTX=450.0
##LASTX=3966.0
##FIRSTY=0.059551
##MAXX=3966
##MINX=450
##MAXY=1.12787
##MINY=0
##NPOINTS=880
##XYDATA=(X++(Y..Y))
450.0 528 702 534 536 389 197 87 43 19 92
490.0 92 141 175 188 133 110 83 36 54 11
530.0 97 44 84 49 59 58 64 99 64 144
570.0 72 142 181 226 177 221 258 266 294 426
610.0 533 320 292 266 178 118 88 105 58 112
650.0 110 209 175 259 272 286 322 254 306 247
690.0 598 796 1452 1362 2284 3580 2517 1572 2182 2419
730.0 3587 4507 4638 8233 10000 5296 5325 4386 2404 1190
770.0 558 426 369 492 625 958 1329 1702 2103 2303
810.0 2249 1942 1622 1146 767 574 693 792 970 1197
850.0 1334 1329 1247 1290 1164 967 773 704 626 881
890.0 1425 1635 1898 1839 1737 1305 763 463 292 223
930.0 187 180 174 213 218 215 208 197 185 157
970.0 128 103 90 78 86 84 98 103 109 121
1010.0 117 122 121 130 138 164 182 191 189 219
1050.0 252 319 473 868 1402 1820 2056 2105 1881 1469
1090.0 917 544 380 402 440 574 725 783 689 658
1130.0 609 443 332 322 430 551 659 613 589 545
1170.0 365 217 142 126 113 119 145 184 216 224
1210.0 255 257 256 315 526 741 753 739 819 634
1250.0 359 240 205 276 385 547 644 700 691 634
1290.0 477 292 238 263 383 526 711 977 1320 1662
1330.0 1947 2184 2311 2388 2351 2102 1680 1437 1305 1005
1370.0 783 709 681 706 870 1197 1537 1862 1993 2049
1410.0 2016 1754 1419 1280 1233 1189 1153 1083 1053 994
1450.0 987 1092 1133 1144 1042 912 739 540 562 651
1490.0 924 1381 1653 1807 1790 1799 1469 1035 774 640
1530.0 547 521 555 698 873 977 986 938 862 699
1570.0 601 629 766 962 1070 1204 1236 1259 1131 1025
1610.0 958 863 730 580 462 342 244 157 117 93
1650.0 75 69 74 72 82 124 194 318 418 469
1690.0 510 491 409 304 202 185 149 160 191 233
1730.0 230 211 195 136 88 52 50 50 68 74
1770.0 86 80 89 78 75 84 103 147 167 186
1810.0 173 150 112 67 37 11 13 4 7 0
1850.0 12 13 23 46 77 137 217 280 303 299
1890.0 267 208 132 70 42 25 27 20 16 14
1930.0 15 13 12 6 6 7 2 4 4 6
1970.0 5 5 3 3 2 1 3 2 5 3
2010.0 5 2 4 2 1 2 0 1 2 4
2050.0 5 6 5 5 6 8 8 7 14 13
2090.0 12 13 16 9 11 9 7 11 13 19
2130.0 24 33 34 38 34 31 27 21 19 14
2170.0 13 13 8 6 3 2 3 4 0 3
2210.0 9 13 17 21 25 31 31 29 27 23
2250.0 23 18 17 17 19 25 28 32 33 37
2290.0 35 42 42 48 58 63 61 59 50 37
2330.0 25 18 21 8 19 16 9 12 16 11
2370.0 6 13 15 21 22 25 27 31 33 39
2410.0 43 46 50 47 52 50 50 52 47 52
2450.0 52 58 72 87 100 112 113 110 106 93
2490.0 80 73 76 79 83 89 99 99 98 94
2530.0 87 77 67 62 64 72 78 79 85 78
2570.0 73 65 59 59 61 60 63 63 60 61
2610.0 61 65 64 64 65 63 60 57 55 57
2650.0 57 59 65 67 70 75 67 67 60 56
2690.0 57 55 59 62 65 73 82 88 99 109
2730.0 126 136 148 153 141 122 100 68 48 41
2770.0 40 47 42 49 65 67 76 86 94 100
2810.0 99 106 109 119 126 141 166 197 237 296
2850.0 376 480 622 781 892 942 954 942 876 822
2890.0 796 824 885 968 1038 1080 1171 1331 1544 1748
2930.0 1852 1872 1905 1723 1506 1427 1215 1015 972 984
2970.0 1083 1122 1130 1077 1019 906 740 655 621 592
3010.0 585 589 627 745 953 1214 1463 1624 1742 1873
3050.0 2052 2295 2574 2782 2781 2593 2256 1696 1122 735
3090.0 521 400 327 291 285 300 306 310 344 389
3130.0 441 485 479 441 399 294 157 70 38 32
3170.0 20 24 24 25 21 25 22 23 26 25
3210.0 22 27 28 26 32 31 28 28 27 20
3250.0 14 13 12 11 8 9 13 12 14 15
3290.0 17 17 17 15 21 16 19 18 16 20
3330.0 16 12 7 15 17 16 12 6 13 14
3370.0 15 15 13 19 15 22 21 25 26 22
3410.0 25 26 27 35 39 42 55 58 61 73
3450.0 103 125 157 204 266 356 412 490 609 835
3490.0 1046 1188 1274 1495 1958 2777 4013 4510 4429 4162
3530.0 3689 2144 799 282 129 74 63 50 53 42
3570.0 43 31 21 15 5 9 6 9 16 24
3610.0 20 24 18 26 27 20 31 38 36 40
3650.0 39 38 37 32 31 7 16 7 22 21
3690.0 25 23 27 27 29 26 35 25 29 32
3730.0 33 22 25 25 8 8 4 25 23 16
3770.0 20 27 23 20 14 15 28 20 21 20
3810.0 29 22 32 12 23 34 22 29 36 28
3850.0 34 37 48 47 50 47 66 81 93 84
3890.0 89 80 90 67 74 63 68 66 52 50
3930.0 27 45 37 45 45 33 33 41 46 46
##END=
