##TITLE=Benzoic acid, 5-(1,1-dimethylethyl)-2-hydroxy-
##JCAMP-DX=4.24
##DATA TYPE=INFRARED SPECTRUM
##ORIGIN=Sadtler Research Labs Under US-EPA Contract
##OWNER=NIST Standard Reference Data Program
##CAS REGISTRY NO=16094-31-8
##MOLFORM=C 11 H 14 O 3
##XUNITS=1/CM
##YUNITS=ABSORBANCE
##XFACTOR=1.0
##YFACTOR=0.000095264
##DELTAX=4.0
##FIRSTX=450.0
##LASTX=3966.0
##FIRSTY=0.001619
##MAXX=3966
##MINX=450
##MAXY=0.95264
##MINY=0
##NPOINTS=880
##XYDATA=(X++(Y..Y))
450.0 17 36 4 53 65 93 74 81 124 137
490.0 134 152 131 156 202 261 297 359 351 345
530.0 428 474 585 688 802 818 776 716 572 420
570.0 326 314 384 552 841 1170 1607 1851 1559 1212
610.0 865 624 469 364 318 279 301 380 470 638
650.0 863 966 1027 933 861 869 1001 1229 1408 1402
690.0 1255 934 740 554 406 308 235 229 207 170
730.0 121 95 76 61 54 78 124 215 325 366
770.0 359 302 253 311 418 555 704 616 472 370
810.0 295 337 505 720 924 1108 1198 966 622 387
850.0 198 105 77 63 44 42 33 26 28 27
890.0 40 57 75 83 81 84 84 81 87 91
930.0 94 84 70 56 49 48 50 51 50 46
970.0 39 35 33 25 26 41 53 64 80 91
1010.0 113 142 158 149 142 139 141 163 196 274
1050.0 429 740 1253 1838 2122 2109 1796 1161 709 526
1090.0 481 512 571 658 753 866 947 1065 1213 1378
1130.0 1609 1820 1954 2013 2079 2252 2757 3673 4870 5763
1170.0 5918 5287 3942 2673 2012 1789 1748 1783 1810 1772
1210.0 1637 1528 1647 1988 2282 2308 2075 1705 1481 1460
1250.0 1556 1710 1892 2037 2002 1750 1397 1109 927 836
1290.0 832 945 1121 1233 1249 1165 1005 854 765 724
1330.0 717 734 786 862 943 1030 1101 1198 1316 1543
1370.0 1749 1841 1829 1738 1636 1620 1682 1831 1950 1885
1410.0 1622 1213 909 797 795 798 768 702 631 596
1450.0 592 620 664 707 763 848 973 1193 1606 2212
1490.0 2704 2892 2682 2202 1734 1385 1066 779 599 433
1530.0 341 274 252 226 225 228 237 244 264 282
1570.0 327 407 548 723 888 989 958 831 657 564
1610.0 561 603 627 579 491 371 298 253 249 252
1650.0 261 262 283 299 343 394 452 532 615 766
1690.0 1000 1452 2286 4030 6774 9324 10000 8304 5158 2911
1730.0 1706 1140 816 642 526 490 538 644 721 708
1770.0 644 474 348 273 225 183 157 134 116 106
1810.0 89 81 71 69 56 47 37 36 35 39
1850.0 46 51 58 53 46 34 27 19 17 14
1890.0 17 17 21 31 37 48 57 59 59 50
1930.0 45 37 38 26 23 20 19 16 16 18
1970.0 15 15 12 10 8 10 7 3 4 1
2010.0 0 1 3 2 6 7 5 7 7 9
2050.0 8 11 11 17 19 21 17 16 12 10
2090.0 7 7 6 3 4 2 6 9 13 13
2130.0 19 19 17 12 6 5 4 6 6 6
2170.0 7 6 6 6 3 0 1 0 2 1
2210.0 1 3 3 3 4 2 5 4 5 5
2250.0 10 6 11 13 20 24 33 47 63 83
2290.0 113 143 175 198 211 239 202 174 178 124
2330.0 112 89 71 86 161 169 172 130 104 79
2370.0 94 97 143 163 125 58 27 16 15 14
2410.0 14 14 9 12 11 14 11 15 13 13
2450.0 15 10 14 16 20 22 24 26 25 21
2490.0 17 16 16 17 13 14 15 20 16 19
2530.0 20 24 23 25 25 25 27 29 32 30
2570.0 37 33 32 30 28 28 26 28 27 26
2610.0 32 27 31 29 28 30 30 26 30 35
2650.0 33 32 37 34 34 33 32 30 31 30
2690.0 28 24 28 30 30 37 37 43 47 49
2730.0 48 45 51 52 53 57 59 60 60 60
2770.0 58 59 58 62 64 68 69 71 72 71
2810.0 74 80 87 92 92 99 105 115 121 140
2850.0 160 198 253 338 447 566 665 733 755 748
2890.0 728 706 698 721 781 873 965 1014 1005 962
2930.0 933 934 949 1001 1103 1302 1656 2241 3019 3790
2970.0 4145 3811 2925 1913 1196 782 531 374 277 224
3010.0 189 175 165 165 172 185 206 230 251 260
3050.0 260 245 231 223 225 241 256 261 259 241
3090.0 208 182 157 134 127 126 124 120 122 121
3130.0 122 116 114 115 113 109 109 111 111 110
3170.0 114 118 122 126 127 135 144 155 159 172
3210.0 182 200 210 228 251 275 302 343 384 435
3250.0 491 559 630 709 783 864 931 997 1034 1043
3290.0 1030 1003 957 904 863 828 783 745 704 669
3330.0 634 596 571 546 522 497 475 458 441 429
3370.0 403 379 366 344 321 301 285 273 264 253
3410.0 253 244 235 221 201 190 178 165 155 143
3450.0 136 123 120 122 104 97 105 95 98 93
3490.0 87 85 96 101 93 91 98 101 120 167
3530.0 217 278 334 349 331 284 243 251 270 444
3570.0 841 1775 2888 3129 2831 1611 577 242 108 77
3610.0 75 66 64 52 49 72 55 50 75 122
3650.0 174 152 125 93 40 33 34 33 13 14
3690.0 23 12 2 15 3 10 26 6 15 18
3730.0 0 28 34 17 37 21 14 9 0 0
3770.0 0 0 0 0 0 0 0 1 8 1
3810.0 0 0 12 0 11 0 0 19 13 3
3850.0 6 29 2 0 2 6 13 4 14 12
3890.0 10 3 9 37 23 0 0 1 0 0
3930.0 10 10 0 0 0 1 0 0 0 0
##END=
