##TITLE=Triphenylene, 1,2,3,4,5,6,7,8,9,10,11,12-dodecahydro-
##JCAMP-DX=4.24
##DATA TYPE=INFRARED SPECTRUM
##ORIGIN=Sadtler Research Labs Under US-EPA Contract
##OWNER=NIST Standard Reference Data Program
##CAS REGISTRY NO=1610-39-5
##MOLFORM=C 18 H 24
##XUNITS=1/CM
##YUNITS=ABSORBANCE
##XFACTOR=1.0
##YFACTOR=0.000060440
##DELTAX=4.0
##FIRSTX=450.0
##LASTX=3966.0
##FIRSTY=0.000000
##MAXX=3966
##MINX=450
##MAXY=0.6044
##MINY=0
##NPOINTS=880
##XYDATA=(X++(Y..Y))
450.0 0 161 232 101 172 237 164 209 185 188
490.0 160 211 167 174 125 195 207 171 201 198
530.0 148 167 227 161 152 175 156 184 182 167
570.0 171 190 197 162 186 193 176 177 204 206
610.0 219 199 202 178 161 174 196 188 188 168
650.0 166 180 175 186 192 228 182 183 190 181
690.0 197 188 148 149 147 148 158 157 150 145
730.0 156 137 146 142 175 167 149 166 165 182
770.0 191 184 195 208 213 187 176 173 183 201
810.0 214 216 218 213 227 212 199 188 170 155
850.0 151 158 156 150 145 170 193 204 200 176
890.0 157 148 153 152 157 160 150 147 145 141
930.0 146 165 167 169 162 158 156 170 191 193
970.0 174 154 148 147 146 145 146 165 167 176
1010.0 200 222 242 255 260 259 242 206 176 154
1050.0 151 148 152 157 169 179 187 205 206 204
1090.0 194 190 180 161 151 142 147 138 142 161
1130.0 176 177 176 171 164 154 152 149 149 144
1170.0 150 149 150 146 137 138 132 141 146 150
1210.0 159 161 165 176 176 187 205 232 284 380
1250.0 485 536 499 408 334 297 268 237 206 181
1290.0 178 187 218 281 394 517 550 471 354 268
1330.0 239 230 220 214 225 248 270 247 219 181
1370.0 175 167 172 173 182 180 176 185 193 209
1410.0 227 264 299 354 440 628 838 906 875 836
1450.0 836 822 755 594 452 322 237 191 174 146
1490.0 135 128 136 130 133 130 124 118 120 122
1530.0 121 129 124 129 139 147 147 148 168 176
1570.0 214 246 235 187 136 120 126 136 139 139
1610.0 132 134 123 125 121 126 118 115 121 121
1650.0 112 117 115 112 112 111 121 128 130 129
1690.0 138 147 149 138 124 120 111 105 113 115
1730.0 120 122 125 119 114 113 114 116 114 120
1770.0 112 110 108 107 106 105 102 102 102 105
1810.0 104 104 104 102 104 99 101 101 100 98
1850.0 100 101 102 101 97 97 98 99 97 98
1890.0 98 97 99 99 97 100 98 102 97 101
1930.0 102 104 103 101 101 104 102 106 103 105
1970.0 107 105 104 108 107 106 108 105 106 108
2010.0 109 107 109 107 110 106 108 108 106 107
2050.0 107 106 106 108 106 107 102 105 109 106
2090.0 106 108 107 109 112 112 107 107 105 108
2130.0 109 111 109 109 110 110 108 113 112 113
2170.0 115 113 112 111 113 110 111 111 112 110
2210.0 116 114 115 117 116 117 119 119 121 120
2250.0 118 119 118 122 120 119 124 133 139 148
2290.0 163 173 185 195 205 217 209 202 203 188
2330.0 182 162 159 152 180 193 190 179 175 166
2370.0 160 159 173 185 169 144 128 132 133 137
2410.0 136 135 133 135 134 136 135 134 133 135
2450.0 130 133 132 136 137 142 138 138 141 139
2490.0 138 142 140 141 140 146 147 147 150 148
2530.0 150 153 150 150 151 148 148 148 151 151
2570.0 150 155 153 156 159 162 166 166 165 161
2610.0 167 169 174 167 174 172 177 186 192 198
2650.0 209 212 227 243 263 278 285 280 267 253
2690.0 240 229 224 220 217 220 219 210 210 214
2730.0 215 218 219 230 235 244 253 262 267 276
2770.0 287 303 322 343 367 382 403 421 453 478
2810.0 510 551 612 703 851 1032 1250 1540 1838 2016
2850.0 2039 2102 2337 2895 3600 3845 3479 2863 2386 2136
2890.0 1977 1820 1691 1638 1686 1846 2197 2790 3845 5508
2930.0 7406 9228 10000 9509 8268 5882 3376 1683 985 747
2970.0 627 570 516 488 444 417 378 362 345 325
3010.0 300 260 229 198 188 174 175 174 178 188
3050.0 194 192 191 183 172 160 148 143 133 129
3090.0 125 120 119 117 117 116 121 113 122 121
3130.0 113 112 112 112 110 116 114 114 109 116
3170.0 123 117 117 118 118 119 124 125 123 120
3210.0 125 126 123 128 131 130 133 134 123 125
3250.0 122 120 117 121 117 121 123 125 121 121
3290.0 121 124 122 118 124 121 120 128 121 127
3330.0 123 131 131 132 131 136 133 130 140 130
3370.0 135 136 135 137 138 149 148 149 149 154
3410.0 154 154 147 150 152 152 140 146 155 146
3450.0 144 146 153 152 155 150 155 155 152 157
3490.0 145 147 144 151 145 143 143 149 141 143
3530.0 145 146 151 153 147 143 142 142 149 144
3570.0 142 139 146 143 148 150 143 143 138 138
3610.0 137 147 141 144 143 141 146 147 145 139
3650.0 134 150 152 146 144 138 133 148 143 149
3690.0 139 149 137 140 156 147 140 158 158 140
3730.0 135 159 154 147 152 139 141 153 150 155
3770.0 156 150 139 149 142 159 153 138 149 146
3810.0 150 159 151 164 156 152 152 155 159 150
3850.0 151 159 153 147 142 138 145 151 166 145
3890.0 151 151 163 140 151 159 166 158 166 154
3930.0 163 166 164 176 167 163 168 166 154 145
##END=
