##TITLE=2H-Thiopyran, tetrahydro-
##JCAMP-DX=4.24
##DATA TYPE=INFRARED SPECTRUM
##ORIGIN=Sadtler Research Labs Under US-EPA Contract
##OWNER=NIST Standard Reference Data Program
##CAS REGISTRY NO=1613-51-0
##MOLFORM=C 5 H 10 S
##XUNITS=1/CM
##YUNITS=ABSORBANCE
##XFACTOR=1.0
##YFACTOR=0.000124850
##DELTAX=4.0
##FIRSTX=450.0
##LASTX=3966.0
##FIRSTY=0.018852
##MAXX=3966
##MINX=450
##MAXY=1.2485
##MINY=0
##NPOINTS=880
##XYDATA=(X++(Y..Y))
450.0 151 117 60 113 48 104 74 154 63 135
490.0 60 56 93 110 175 48 114 96 107 68
530.0 85 128 82 73 54 96 61 132 71 101
570.0 75 87 80 69 149 0 66 66 105 66
610.0 91 75 83 71 95 131 79 161 129 157
650.0 214 225 259 238 230 206 183 119 132 97
690.0 99 85 93 78 62 77 56 77 63 88
730.0 54 63 77 61 71 67 81 57 72 70
770.0 75 62 69 79 67 98 88 127 131 169
810.0 202 252 270 273 270 256 228 243 192 128
850.0 110 87 92 92 93 100 106 131 130 169
890.0 191 216 228 240 226 219 219 186 164 131
930.0 139 125 136 165 211 276 334 362 427 544
970.0 388 330 309 214 156 102 96 94 103 101
1010.0 113 119 114 109 113 120 100 112 110 123
1050.0 130 129 148 202 162 126 150 146 166 157
1090.0 163 156 153 146 130 127 97 95 70 71
1130.0 57 63 62 57 62 58 69 59 69 57
1170.0 63 61 74 69 79 96 112 155 216 303
1210.0 289 317 378 286 317 304 240 252 262 274
1250.0 364 477 652 809 918 947 827 899 856 684
1290.0 507 331 252 217 202 181 193 177 156 136
1330.0 140 131 124 124 113 120 107 100 92 83
1370.0 74 71 70 72 73 73 80 91 114 137
1410.0 201 296 432 612 787 1001 1179 992 1051 1874
1450.0 996 764 796 571 469 340 238 148 112 91
1490.0 67 71 59 58 48 56 45 50 49 50
1530.0 50 48 54 44 47 43 46 41 48 47
1570.0 43 48 50 49 46 50 47 52 48 49
1610.0 46 45 51 47 48 45 49 46 47 49
1650.0 44 47 46 46 44 50 38 48 40 48
1690.0 46 41 50 44 47 44 49 46 47 46
1730.0 49 48 50 53 45 49 47 48 43 46
1770.0 44 41 43 40 44 38 42 38 40 41
1810.0 43 42 41 42 36 37 37 44 38 36
1850.0 38 40 41 37 46 37 38 37 36 36
1890.0 38 42 36 46 41 41 43 40 42 40
1930.0 44 44 46 42 48 43 47 46 47 43
1970.0 42 43 42 41 35 38 32 31 30 28
2010.0 23 18 23 17 23 21 21 23 32 27
2050.0 18 18 18 23 24 37 44 51 52 55
2090.0 50 45 40 35 36 34 34 35 36 40
2130.0 37 40 38 44 44 44 46 48 45 47
2170.0 44 38 40 36 33 33 37 36 37 42
2210.0 42 44 45 50 44 47 40 42 42 47
2250.0 43 43 47 41 44 35 36 32 29 24
2290.0 19 19 12 19 18 20 31 34 42 44
2330.0 47 43 49 56 29 29 77 60 53 26
2370.0 5 5 5 5 5 14 17 20 20 20
2410.0 24 25 28 21 29 23 25 27 27 27
2450.0 22 28 20 24 19 23 18 20 18 16
2490.0 17 19 19 19 23 19 17 12 16 16
2530.0 9 12 10 6 5 8 6 9 11 10
2570.0 20 17 25 24 25 17 15 14 12 18
2610.0 11 17 15 20 14 19 22 22 24 26
2650.0 36 51 73 109 145 164 186 180 183 187
2690.0 131 105 88 79 61 52 51 44 45 36
2730.0 37 40 42 41 46 40 46 57 58 64
2770.0 70 84 82 103 103 104 109 115 119 135
2810.0 179 224 314 417 551 671 948 1228 1401 1749
2850.0 2124 2383 2371 2476 2315 2034 1878 1674 1477 1525
2890.0 1764 1839 2184 2864 3645 4454 4977 5833 6641 7581
2930.0 7515 9017 10000 8133 7013 6124 5932 4851 3322 2293
2970.0 1893 1301 798 430 244 133 79 56 51 35
3010.0 32 43 31 31 21 31 20 29 21 17
3050.0 30 20 21 24 28 20 23 22 28 31
3090.0 27 42 40 32 34 30 37 31 44 40
3130.0 38 47 53 48 52 61 56 56 48 59
3170.0 56 48 48 44 43 38 31 30 40 35
3210.0 42 34 37 47 49 45 46 54 67 52
3250.0 58 59 59 70 51 44 49 42 48 46
3290.0 34 36 45 48 46 36 29 49 27 23
3330.0 30 28 18 37 34 32 20 20 28 30
3370.0 22 17 17 9 9 10 17 21 17 36
3410.0 42 43 25 33 31 40 41 34 46 44
3450.0 43 41 27 23 25 21 27 30 17 24
3490.0 21 17 17 27 14 17 27 24 25 17
3530.0 17 16 9 14 12 20 21 17 25 28
3570.0 11 21 12 23 27 32 20 23 30 35
3610.0 43 21 34 37 25 32 24 33 25 24
3650.0 14 21 15 5 22 40 34 19 22 23
3690.0 35 30 26 20 33 37 16 36 54 20
3730.0 21 19 37 32 23 41 31 21 43 30
3770.0 32 24 23 37 28 33 6 9 38 35
3810.0 43 33 27 27 43 45 40 26 47 25
3850.0 30 18 18 36 73 50 11 56 42 36
3890.0 38 15 49 49 40 28 24 54 53 35
3930.0 45 48 38 36 19 40 43 15 14 35
##END=
