##TITLE=Salicylaldehyde, 5-nitro-, iso-butylmethyl hydrazone
##JCAMP-DX=4.24
##DATA TYPE=INFRARED SPECTRUM
##ORIGIN=Sadtler Research Labs Under US-EPA Contract
##OWNER=NIST Standard Reference Data Program
##CAS REGISTRY NO=1617-63-6
##MOLFORM=C 12 H 17 N 3 O 3
##XUNITS=1/CM
##YUNITS=ABSORBANCE
##XFACTOR=1.0
##YFACTOR=0.000027896
##DELTAX=4.0
##FIRSTX=450.0
##LASTX=3966.0
##FIRSTY=0.000000
##MAXX=3966
##MINX=450
##MAXY=0.27896
##MINY=0
##NPOINTS=880
##XYDATA=(X++(Y..Y))
450.0 0 270 430 325 324 399 424 347 365 378
490.0 295 273 276 307 338 248 312 328 287 321
530.0 287 372 419 353 323 263 256 288 304 289
570.0 301 341 378 367 375 332 329 321 341 333
610.0 309 256 309 333 376 414 541 844 1043 875
650.0 580 467 397 469 450 684 725 902 1162 1490
690.0 1654 1402 1208 999 911 877 937 974 983 852
730.0 685 640 644 730 931 1136 1113 900 727 579
770.0 521 504 529 559 652 661 618 532 524 529
810.0 550 551 656 854 1231 1462 1277 966 654 533
850.0 438 470 553 611 610 599 544 517 463 430
890.0 482 510 650 860 1037 1069 927 752 620 566
930.0 543 535 587 668 745 682 568 512 475 450
970.0 428 412 405 401 437 450 481 513 558 611
1010.0 665 744 822 938 1061 1252 1493 1706 1877 1915
1050.0 1735 1467 1170 982 870 832 852 941 1131 1473
1090.0 2005 2523 2626 2183 1610 1217 1035 969 959 917
1130.0 843 787 741 722 692 678 669 704 740 763
1170.0 815 890 957 1013 1057 1054 1087 1146 1148 1086
1210.0 968 860 786 773 778 844 958 1072 1093 1029
1250.0 991 1046 1120 1234 1402 1731 2273 3131 4120 4553
1290.0 4100 3224 2610 2269 2041 1931 1918 1992 2016 2035
1330.0 2210 2892 4284 6280 8504 10000 8846 5834 3625 2498
1370.0 2008 1772 1622 1507 1505 1615 1634 1558 1374 1294
1410.0 1312 1369 1397 1289 1170 1181 1314 1554 1655 1789
1450.0 1848 1952 2132 2299 2637 2999 3398 3748 3909 3991
1490.0 3662 3037 2360 1835 1585 1363 1249 1264 1350 1483
1530.0 1697 2117 2565 3051 3223 3105 2776 2583 2462 2410
1570.0 2262 1992 1783 1807 1929 2094 2117 1996 1699 1409
1610.0 1226 1183 1292 1445 1644 1616 1492 1260 1084 906
1650.0 776 632 514 490 509 518 577 535 579 546
1690.0 505 446 496 505 501 486 508 522 494 494
1730.0 524 577 542 503 453 393 372 367 397 379
1770.0 393 361 346 347 350 308 315 286 295 283
1810.0 272 280 261 256 247 261 227 225 226 247
1850.0 220 220 218 226 220 238 225 222 241 233
1890.0 261 258 279 287 287 284 255 243 236 225
1930.0 219 214 215 217 217 208 213 206 214 213
1970.0 220 200 211 214 213 211 219 214 211 214
2010.0 211 210 217 215 217 225 227 230 241 234
2050.0 234 230 230 218 232 225 216 232 228 227
2090.0 224 230 225 224 230 228 217 227 223 222
2130.0 220 224 227 220 212 221 217 219 232 225
2170.0 226 231 242 242 247 242 247 256 254 266
2210.0 253 256 252 253 250 267 271 276 282 283
2250.0 272 270 270 271 266 271 280 302 306 309
2290.0 327 342 362 367 377 393 371 362 369 369
2330.0 359 357 330 390 343 394 403 401 389 376
2370.0 363 373 355 365 321 299 285 283 285 286
2410.0 294 290 295 291 299 302 300 307 318 324
2450.0 323 313 310 312 309 313 304 310 316 322
2490.0 316 318 326 334 338 336 347 357 363 355
2530.0 354 361 362 365 374 373 380 382 386 398
2570.0 403 411 400 409 416 419 421 431 426 426
2610.0 419 431 431 423 449 459 452 474 472 486
2650.0 492 494 501 492 491 498 505 521 518 532
2690.0 554 564 562 564 590 583 593 604 613 624
2730.0 621 628 634 639 653 663 681 686 723 740
2770.0 785 821 875 939 984 1050 1124 1182 1247 1295
2810.0 1331 1329 1334 1333 1344 1381 1434 1492 1595 1648
2850.0 1707 1745 1786 1869 1976 2101 2248 2408 2560 2616
2890.0 2552 2484 2443 2432 2452 2476 2497 2501 2494 2551
2930.0 2631 2765 2890 3024 3061 3100 3223 3536 3994 4330
2970.0 4407 4335 3944 3251 2515 2074 1878 1751 1674 1515
3010.0 1334 1175 1070 985 944 900 875 863 849 834
3050.0 834 842 824 829 855 877 898 898 892 874
3090.0 856 867 851 857 836 838 823 818 823 817
3130.0 798 796 801 794 793 810 797 808 807 792
3170.0 791 815 816 791 789 781 785 776 769 759
3210.0 757 759 727 722 723 703 703 693 687 673
3250.0 662 651 643 633 641 617 612 604 601 600
3290.0 603 586 582 557 558 548 545 524 508 508
3330.0 492 484 494 471 470 471 451 456 428 445
3370.0 441 433 413 405 407 395 393 374 390 387
3410.0 362 367 361 365 334 354 344 349 330 334
3450.0 332 332 331 340 341 326 311 310 340 313
3490.0 314 313 289 304 313 299 299 291 295 286
3530.0 268 282 278 295 328 302 307 273 313 339
3570.0 357 334 303 298 289 300 304 271 303 277
3610.0 303 309 305 292 289 342 287 296 316 287
3650.0 352 305 332 314 279 323 298 360 262 313
3690.0 277 313 307 277 275 311 292 319 311 356
3730.0 308 341 288 311 375 313 328 245 287 294
3770.0 288 261 275 300 294 293 301 326 298 295
3810.0 288 305 269 313 320 283 290 304 312 310
3850.0 304 337 304 302 331 325 359 282 345 337
3890.0 347 305 302 325 349 348 321 300 287 317
3930.0 326 344 315 277 315 316 318 276 325 346
##END=
