##TITLE=Salicylaldehyde, 5-nitro-, methyl-pentyl hydrazone
##JCAMP-DX=4.24
##DATA TYPE=INFRARED SPECTRUM
##ORIGIN=Sadtler Research Labs Under US-EPA Contract
##OWNER=NIST Standard Reference Data Program
##CAS REGISTRY NO=1617-62-5
##MOLFORM=C 13 H 19 N 3 O 3
##XUNITS=1/CM
##YUNITS=ABSORBANCE
##XFACTOR=1.0
##YFACTOR=0.000030600
##DELTAX=4.0
##FIRSTX=450.0
##LASTX=3966.0
##FIRSTY=0.007007
##MAXX=3966
##MINX=450
##MAXY=0.306
##MINY=0
##NPOINTS=880
##XYDATA=(X++(Y..Y))
450.0 229 185 59 132 244 234 322 310 263 203
490.0 332 173 133 218 127 159 217 278 337 299
530.0 246 334 418 296 235 221 214 249 221 239
570.0 252 231 352 375 315 255 226 180 192 236
610.0 200 224 186 197 274 321 467 845 1211 777
650.0 444 372 287 376 402 588 701 888 1202 1536
690.0 1686 1369 1089 874 801 788 818 912 958 856
730.0 631 524 533 690 944 1390 1349 975 811 692
770.0 637 640 659 720 797 796 684 580 492 476
810.0 446 519 623 971 1466 1550 1249 896 564 390
850.0 378 418 513 582 592 535 456 385 369 361
890.0 403 530 758 1074 1213 1150 938 729 539 471
930.0 405 425 425 506 591 531 374 323 330 388
970.0 403 414 414 405 402 421 492 553 608 699
1010.0 775 857 920 978 1028 1101 1199 1345 1553 1743
1050.0 1818 1661 1353 1035 846 779 806 911 1141 1558
1090.0 2142 2666 2601 2043 1476 1109 949 870 884 836
1130.0 753 692 644 637 622 647 650 683 697 707
1170.0 775 887 1038 1186 1304 1344 1316 1235 1116 978
1210.0 824 701 645 647 699 795 909 1012 1027 968
1250.0 1017 1118 1281 1461 1722 2148 2894 4040 5198 5614
1290.0 4930 3832 3076 2626 2360 2276 2350 2547 2755 2970
1330.0 3477 4835 7053 8918 9810 10000 8225 5196 3224 2246
1370.0 1809 1638 1632 1710 1727 1581 1416 1285 1225 1225
1410.0 1303 1383 1415 1273 1194 1294 1541 1817 2011 2163
1450.0 2319 2483 2713 2949 3225 3576 3978 4339 4471 4451
1490.0 3927 3119 2364 1857 1618 1522 1545 1660 1819 1964
1530.0 2086 2308 2657 3009 3229 3183 3074 2952 2756 2530
1570.0 2284 2017 1942 2029 2213 2326 2208 1932 1601 1325
1610.0 1181 1192 1319 1472 1593 1478 1298 1063 912 720
1650.0 528 393 321 256 260 272 260 270 260 231
1690.0 204 183 175 204 199 211 223 238 245 291
1730.0 333 353 376 309 213 78 88 70 115 97
1770.0 138 120 132 137 136 115 109 101 90 110
1810.0 82 92 81 67 60 55 37 48 38 40
1850.0 29 35 42 44 34 39 44 49 58 60
1890.0 79 84 97 100 94 85 53 54 35 38
1930.0 31 28 19 18 24 16 21 12 22 18
1970.0 11 15 15 19 17 9 15 11 11 17
2010.0 22 17 25 16 25 25 35 32 43 43
2050.0 32 28 23 17 22 24 21 23 16 5
2090.0 9 12 15 12 18 19 18 22 12 10
2130.0 9 10 7 3 5 0 4 4 7 11
2170.0 11 13 23 28 27 23 26 29 36 39
2210.0 39 40 49 57 51 58 69 69 64 58
2250.0 69 57 53 50 56 50 60 77 90 103
2290.0 112 114 128 128 126 134 120 109 96 94
2330.0 60 62 75 36 110 93 94 88 53 78
2370.0 89 100 132 151 142 116 112 101 102 111
2410.0 116 108 126 124 136 143 145 153 155 147
2450.0 147 157 139 142 143 144 144 145 146 152
2490.0 151 161 157 173 183 187 203 198 201 213
2530.0 210 213 222 233 229 231 233 251 254 265
2570.0 264 269 278 280 286 277 279 294 304 298
2610.0 298 297 304 313 315 321 341 344 351 368
2650.0 375 363 371 369 383 375 385 380 396 404
2690.0 417 416 428 441 447 452 458 483 486 494
2730.0 502 498 522 536 539 555 564 580 599 624
2770.0 655 688 741 807 860 921 997 1069 1128 1168
2810.0 1212 1207 1217 1230 1254 1309 1372 1469 1585 1713
2850.0 1820 1937 2067 2230 2364 2484 2609 2741 2837 2884
2890.0 2860 2775 2696 2660 2695 2788 2911 3028 3119 3250
2930.0 3379 3471 3496 3462 3372 3317 3353 3606 3959 4329
2970.0 4550 4472 4019 3323 2641 2148 1845 1669 1540 1384
3010.0 1214 1052 949 878 820 788 762 744 741 729
3050.0 717 726 731 736 766 797 788 793 778 755
3090.0 751 735 744 727 701 700 685 689 669 668
3130.0 651 637 641 641 623 636 631 629 631 636
3170.0 627 614 618 609 602 587 593 590 572 575
3210.0 559 550 537 518 508 499 489 474 461 457
3250.0 440 442 430 420 416 405 409 410 405 384
3290.0 373 357 351 351 318 323 305 301 293 287
3330.0 281 270 275 285 268 267 229 238 227 221
3370.0 193 194 201 221 197 194 167 178 174 181
3410.0 179 149 149 147 130 121 141 134 127 120
3450.0 122 120 114 109 103 121 107 119 96 83
3490.0 98 72 86 105 68 69 83 75 75 77
3530.0 84 80 62 94 74 54 71 71 95 91
3570.0 100 109 78 101 57 70 60 47 46 42
3610.0 74 37 71 36 56 81 52 79 58 83
3650.0 66 69 91 39 78 48 63 36 86 53
3690.0 50 43 66 64 82 44 69 72 45 57
3730.0 50 54 63 70 66 93 51 37 49 52
3770.0 32 47 72 48 28 57 38 17 49 74
3810.0 77 35 52 14 27 49 59 42 36 47
3850.0 47 59 48 66 61 36 54 45 29 84
3890.0 97 64 93 96 52 59 74 48 79 85
3930.0 113 77 58 49 64 81 97 102 110 68
##END=
