##TITLE=Propanedioic acid, dimethyl-, diethyl ester
##JCAMP-DX=4.24
##DATA TYPE=INFRARED SPECTRUM
##ORIGIN=Sadtler Research Labs Under US-EPA Contract
##OWNER=NIST Standard Reference Data Program
##CAS REGISTRY NO=1619-62-1
##MOLFORM=C 9 H 16 O 4
##XUNITS=1/CM
##YUNITS=ABSORBANCE
##XFACTOR=1.0
##YFACTOR=0.000104105
##DELTAX=4.0
##FIRSTX=450.0
##LASTX=3966.0
##FIRSTY=0.000000
##MAXX=3966
##MINX=450
##MAXY=1.04105
##MINY=0
##NPOINTS=880
##XYDATA=(X++(Y..Y))
450.0 0 40 21 23 29 55 57 62 62 56
490.0 44 62 64 77 76 49 39 64 76 72
530.0 69 66 86 69 88 77 57 48 43 20
570.0 21 13 10 13 22 10 1 5 14 9
610.0 8 12 18 18 27 18 13 17 14 19
650.0 22 23 27 36 49 88 108 136 154 163
690.0 160 159 143 98 69 41 25 19 23 13
730.0 14 10 13 17 31 61 90 105 101 82
770.0 76 82 85 92 98 106 108 112 108 104
810.0 95 94 87 89 89 103 115 132 153 192
850.0 271 400 573 701 717 590 418 281 196 139
890.0 121 117 126 133 128 109 79 63 54 50
930.0 48 47 51 63 86 111 134 153 146 130
970.0 103 93 95 101 114 136 161 198 247 316
1010.0 412 574 814 1143 1507 1791 1869 1706 1371 1001
1050.0 688 477 360 300 278 278 302 346 422 529
1090.0 695 913 1169 1449 1817 2350 3199 4508 6321 8280
1130.0 9516 9327 7752 5752 4331 3793 4013 4783 5732 6445
1170.0 6610 6202 5431 4548 3659 2837 2143 1636 1312 1133
1210.0 1044 1019 1043 1102 1193 1329 1527 1829 2254 2824
1250.0 3478 4141 4742 5314 5857 6242 6183 5523 4456 3343
1290.0 2480 1933 1638 1455 1287 1065 834 620 478 379
1330.0 311 262 210 191 185 181 200 245 373 537
1370.0 674 732 722 863 1112 1328 1383 1166 837 567
1410.0 391 313 244 252 255 298 337 432 541 657
1450.0 758 851 928 1046 1215 1441 1549 1476 1205 779
1490.0 455 300 200 147 104 70 76 62 50 73
1530.0 71 79 65 40 45 57 46 15 31 38
1570.0 30 26 36 27 40 31 36 30 38 36
1610.0 31 37 24 35 19 41 25 28 39 40
1650.0 16 32 48 56 57 65 61 101 92 119
1690.0 163 214 245 327 423 543 645 748 939 1227
1730.0 1716 2590 4127 6216 8448 10000 9860 8653 7206 5690
1770.0 4212 2782 1719 1089 770 591 475 404 342 306
1810.0 264 222 196 158 130 101 87 74 56 41
1850.0 43 46 39 36 29 22 31 37 40 42
1890.0 41 41 44 43 35 29 26 22 17 20
1930.0 21 17 17 11 11 16 14 13 14 13
1970.0 20 22 28 30 34 30 34 37 34 28
2010.0 26 24 25 27 31 35 35 30 27 23
2050.0 18 16 11 10 7 11 10 12 14 16
2090.0 17 17 18 21 22 24 23 25 24 26
2130.0 27 25 24 22 23 20 17 14 12 10
2170.0 8 5 3 2 2 0 1 0 0 0
2210.0 0 2 3 2 5 5 7 5 5 5
2250.0 4 4 5 6 5 4 6 7 9 14
2290.0 15 17 22 24 26 24 15 15 14 13
2330.0 14 5 4 11 17 21 7 14 10 12
2370.0 25 32 32 32 29 24 23 26 25 26
2410.0 28 28 28 26 23 24 21 20 16 14
2450.0 13 13 15 12 9 10 10 7 6 4
2490.0 6 7 7 7 7 4 4 5 7 8
2530.0 8 11 11 9 8 8 8 7 9 8
2570.0 8 10 8 9 12 8 10 9 12 11
2610.0 14 11 13 17 16 17 15 13 12 14
2650.0 12 10 13 13 13 13 11 10 9 12
2690.0 10 9 10 13 15 13 16 21 25 29
2730.0 35 35 34 35 36 37 38 40 41 45
2770.0 48 52 51 52 48 46 48 47 50 51
2810.0 59 71 78 87 92 95 94 95 106 117
2850.0 131 141 155 175 204 258 345 462 581 653
2890.0 658 621 591 606 659 731 789 815 803 804
2930.0 864 1018 1276 1571 1786 1835 1698 1500 1377 1357
2970.0 1398 1534 1874 2482 3167 3562 3475 3038 2559 2120
3010.0 1641 1173 779 535 396 309 250 207 179 156
3050.0 138 120 106 97 87 83 79 77 75 69
3090.0 70 68 68 59 65 63 60 59 57 54
3130.0 53 51 51 54 50 50 49 48 49 44
3170.0 43 45 48 45 47 46 47 45 48 48
3210.0 45 45 44 41 36 36 32 30 26 26
3250.0 22 20 18 16 19 17 18 14 17 16
3290.0 24 18 14 14 17 14 17 19 16 24
3330.0 18 18 18 18 23 20 21 15 20 19
3370.0 18 20 19 16 14 21 21 18 22 18
3410.0 20 16 16 16 16 16 13 17 21 18
3450.0 22 19 17 20 24 31 36 42 45 49
3490.0 67 74 73 71 59 45 24 14 13 6
3530.0 6 3 1 5 8 6 9 8 10 9
3570.0 11 10 8 12 10 8 5 10 3 4
3610.0 9 14 12 11 9 12 19 15 7 5
3650.0 7 13 20 11 16 8 9 8 13 15
3690.0 8 6 12 17 16 12 17 16 17 12
3730.0 12 14 17 16 27 21 14 20 19 19
3770.0 21 19 23 18 18 7 15 22 21 11
3810.0 24 13 12 27 19 19 15 29 22 23
3850.0 20 20 15 9 12 23 5 5 20 25
3890.0 13 19 4 21 14 25 24 16 15 12
3930.0 16 20 16 22 21 11 22 25 13 16
##END=
