##TITLE=Butanoic acid, 2-cyano-2-ethyl-, ethyl ester
##JCAMP-DX=4.24
##DATA TYPE=INFRARED SPECTRUM
##ORIGIN=Sadtler Research Labs Under US-EPA Contract
##OWNER=NIST Standard Reference Data Program
##CAS REGISTRY NO=1619-56-3
##MOLFORM=C 9 H 15 N O 2
##XUNITS=1/CM
##YUNITS=ABSORBANCE
##XFACTOR=1.0
##YFACTOR=0.000111121
##DELTAX=4.0
##FIRSTX=450.0
##LASTX=3966.0
##FIRSTY=0.017113
##MAXX=3966
##MINX=450
##MAXY=1.11121
##MINY=0
##NPOINTS=880
##XYDATA=(X++(Y..Y))
450.0 154 144 245 215 249 244 185 221 79 67
490.0 102 83 219 89 94 67 21 106 80 87
530.0 32 58 120 43 124 70 19 172 56 109
570.0 108 99 126 75 152 106 112 76 92 135
610.0 107 83 108 71 108 102 41 68 48 85
650.0 73 57 84 47 61 54 62 71 78 99
690.0 97 64 67 68 79 76 84 81 59 94
730.0 105 125 160 286 478 322 277 238 201 186
770.0 198 229 266 297 347 330 299 332 299 285
810.0 289 252 298 321 361 390 382 355 294 260
850.0 320 415 494 558 508 451 319 200 171 135
890.0 122 122 137 108 95 121 118 135 200 257
930.0 328 405 469 478 497 473 434 399 353 310
970.0 254 208 207 212 242 257 300 386 482 669
1010.0 897 1213 1554 1818 1966 1915 1758 1534 1291 1086
1050.0 899 782 669 597 549 506 507 513 540 606
1090.0 690 808 938 995 1062 1117 1146 1257 1416 1696
1130.0 2126 2629 3113 3500 3673 3549 3241 2818 2361 2025
1170.0 1830 1734 1659 1538 1431 1329 1271 1264 1452 1801
1210.0 2364 3275 4616 6349 8239 9233 10000 9429 7556 5823
1250.0 4076 2831 2072 1570 1274 1116 1039 1028 1003 937
1290.0 909 903 905 946 993 980 918 851 808 781
1330.0 780 804 765 713 653 603 535 492 516 641
1370.0 749 804 781 710 734 829 904 868 703 522
1410.0 401 357 317 307 322 333 378 488 651 824
1450.0 1064 1246 1385 1481 1526 1425 1242 974 738 547
1490.0 408 334 243 215 203 159 146 137 122 134
1530.0 128 127 130 155 124 117 147 140 152 119
1570.0 117 130 113 113 102 88 101 100 76 97
1610.0 79 90 104 103 92 111 95 100 128 103
1650.0 114 132 138 125 125 141 142 168 178 172
1690.0 219 231 276 305 360 429 525 569 666 765
1730.0 911 1184 1737 2763 4411 6314 7988 8094 6927 4962
1770.0 3235 1926 1290 924 677 587 426 349 281 204
1810.0 196 158 134 126 111 105 92 91 88 79
1850.0 80 75 85 87 70 84 74 73 83 73
1890.0 76 65 58 56 46 47 43 44 46 31
1930.0 39 35 29 35 28 36 33 27 35 36
1970.0 43 37 38 40 32 42 41 40 44 42
2010.0 47 37 39 42 36 34 33 33 36 35
2050.0 35 33 35 37 34 44 42 50 55 57
2090.0 60 59 58 54 46 42 36 35 31 25
2130.0 30 24 25 25 23 29 29 27 29 28
2170.0 28 27 23 26 26 29 23 19 20 20
2210.0 20 15 14 21 20 27 37 43 57 57
2250.0 54 42 27 24 20 20 16 15 13 12
2290.0 12 9 5 9 3 1 4 6 13 22
2330.0 22 31 21 33 17 25 25 22 42 39
2370.0 38 41 33 33 32 35 38 35 37 34
2410.0 34 36 29 35 35 32 32 30 35 30
2450.0 30 31 27 28 29 28 28 24 24 20
2490.0 22 21 16 18 15 13 14 10 15 12
2530.0 9 12 9 13 13 14 13 7 13 10
2570.0 9 12 9 10 12 9 14 13 13 12
2610.0 16 17 18 21 18 15 19 14 15 15
2650.0 15 16 14 16 20 15 16 17 13 16
2690.0 19 22 16 18 23 20 27 22 26 31
2730.0 34 38 36 38 48 54 61 72 81 92
2770.0 98 97 89 89 84 83 90 82 85 86
2810.0 85 90 94 101 110 113 121 124 141 160
2850.0 181 207 242 290 347 409 482 563 697 883
2890.0 1085 1232 1235 1130 979 854 812 802 818 876
2930.0 1000 1254 1631 2081 2418 2528 2386 2100 1849 1770
2970.0 2010 2657 3651 4721 5244 4817 3810 2711 1858 1336
3010.0 1013 799 624 488 390 309 253 217 185 170
3050.0 150 141 132 127 126 124 127 130 120 117
3090.0 112 113 105 98 94 88 85 79 73 74
3130.0 72 77 74 71 80 68 68 76 66 73
3170.0 67 66 65 60 61 57 62 56 58 52
3210.0 44 40 40 35 32 33 29 33 28 24
3250.0 22 27 34 26 27 18 20 19 19 17
3290.0 16 22 20 22 20 19 21 23 16 14
3330.0 10 10 17 18 21 10 15 21 19 24
3370.0 24 24 16 17 26 20 15 24 24 28
3410.0 9 19 30 9 18 24 22 25 25 24
3450.0 31 13 21 37 37 28 32 52 57 75
3490.0 78 79 81 55 47 41 36 30 21 6
3530.0 20 12 14 12 18 4 20 26 7 7
3570.0 8 17 19 17 19 22 22 28 22 13
3610.0 14 7 18 16 25 19 23 11 10 2
3650.0 28 10 23 22 0 31 14 21 9 10
3690.0 25 23 21 26 25 28 18 31 29 30
3730.0 22 15 24 5 44 34 33 1 15 27
3770.0 18 14 12 26 26 14 12 9 25 17
3810.0 26 32 18 24 8 13 3 17 3 19
3850.0 46 45 44 23 11 22 1 30 22 19
3890.0 26 11 29 28 0 5 1 20 36 25
3930.0 21 26 28 13 20 28 13 8 39 39
##END=
