##TITLE=Diethylaminoacetone
##JCAMP-DX=4.24
##DATA TYPE=INFRARED SPECTRUM
##ORIGIN=Sadtler Research Labs Under US-EPA Contract
##OWNER=NIST Standard Reference Data Program
##CAS REGISTRY NO=1620-14-0
##MOLFORM=C 7 H 15 N O
##XUNITS=1/CM
##YUNITS=ABSORBANCE
##XFACTOR=1.0
##YFACTOR=0.000086804
##DELTAX=4.0
##FIRSTX=450.0
##LASTX=3966.0
##FIRSTY=0.015191
##MAXX=3966
##MINX=450
##MAXY=0.86804
##MINY=0
##NPOINTS=880
##XYDATA=(X++(Y..Y))
450.0 175 148 144 157 140 171 146 166 183 206
490.0 245 249 280 335 345 405 469 575 630 742
530.0 881 971 1016 877 720 536 374 283 250 230
570.0 196 177 175 166 160 169 219 273 304 306
610.0 285 248 223 211 202 180 166 121 100 65
650.0 51 47 46 11 21 27 23 19 32 27
690.0 29 34 34 40 29 34 33 39 41 48
730.0 61 75 87 128 158 215 295 390 486 577
770.0 611 570 521 463 404 356 322 318 334 348
810.0 358 342 307 257 207 156 122 112 101 98
850.0 107 132 145 169 180 190 168 148 118 94
890.0 86 75 86 96 106 125 146 166 179 194
930.0 206 217 229 262 321 389 456 493 502 470
970.0 432 414 420 435 459 489 504 503 507 501
1010.0 491 473 485 536 636 792 969 1136 1268 1363
1050.0 1437 1538 1686 1885 2081 2224 2281 2264 2196 2148
1090.0 2126 2071 1954 1805 1657 1545 1492 1477 1463 1375
1130.0 1252 1145 1084 1138 1351 1712 2121 2447 2616 2564
1170.0 2312 1972 1689 1526 1484 1560 1805 2236 2753 3281
1210.0 3703 3884 3753 3321 2709 2055 1534 1245 1182 1285
1250.0 1452 1560 1562 1436 1247 1046 927 904 963 1072
1290.0 1205 1294 1324 1302 1242 1152 1084 1036 1039 1077
1330.0 1164 1330 1627 2116 2748 3428 4003 4266 3984 3450
1370.0 3004 2807 2887 3086 3228 3122 2794 2310 1791 1402
1410.0 1181 1130 1135 1181 1216 1261 1256 1302 1261 1319
1450.0 1420 1525 1655 1618 1604 1488 1378 1236 1006 769
1490.0 607 451 373 297 296 274 252 252 261 252
1530.0 220 247 219 234 206 197 188 191 190 161
1570.0 169 155 178 147 149 131 131 119 127 122
1610.0 121 117 129 123 110 129 120 136 119 152
1650.0 128 216 175 215 254 335 390 505 589 722
1690.0 815 959 1145 1393 1703 2350 3294 4714 6244 7553
1730.0 8280 8157 7243 5820 4541 3586 2807 2206 1730 1355
1770.0 1106 910 758 639 543 445 397 336 293 234
1810.0 194 146 120 86 80 61 46 44 33 42
1850.0 29 26 22 25 18 23 13 13 13 11
1890.0 14 7 11 5 5 4 0 12 2 3
1930.0 0 1 2 5 3 6 7 6 10 10
1970.0 12 13 15 16 17 13 13 9 4 4
2010.0 5 1 6 3 2 2 4 4 5 5
2050.0 9 10 10 11 14 16 16 18 16 14
2090.0 14 13 17 19 20 25 30 33 32 35
2130.0 34 34 33 31 28 28 22 20 17 18
2170.0 21 20 20 18 19 19 16 16 14 14
2210.0 13 13 12 13 13 14 14 13 19 19
2250.0 21 23 23 20 19 19 22 27 37 42
2290.0 42 45 46 44 45 48 41 34 31 26
2330.0 17 16 15 9 21 32 17 26 9 25
2370.0 40 43 50 52 48 34 28 27 23 26
2410.0 27 26 28 31 30 36 34 34 34 35
2450.0 34 31 29 26 24 22 22 22 22 22
2490.0 21 22 24 26 26 27 30 34 35 38
2530.0 40 46 52 54 60 65 74 82 87 99
2570.0 104 106 110 110 115 112 116 112 115 118
2610.0 121 123 131 137 144 153 163 174 185 199
2650.0 218 233 250 270 284 304 319 339 360 380
2690.0 398 418 438 452 478 503 543 588 628 664
2730.0 699 732 743 751 760 788 840 919 1018 1107
2770.0 1186 1250 1312 1403 1539 1744 2028 2405 2856 3345
2810.0 3816 4212 4447 4525 4474 4267 3903 3504 3126 2806
2850.0 2571 2433 2383 2399 2481 2623 2833 3072 3269 3386
2890.0 3377 3281 3159 3085 3104 3191 3302 3451 3645 3912
2930.0 4262 4678 5029 5177 5062 4720 4333 4095 4390 5467
2970.0 7169 8954 10000 9801 8223 6105 4118 2697 1871 1446
3010.0 1221 1084 967 862 761 669 600 545 507 479
3050.0 463 445 425 408 392 367 346 323 303 282
3090.0 264 246 228 216 202 192 185 175 173 162
3130.0 157 147 140 131 125 116 111 109 105 103
3170.0 103 99 97 95 94 92 90 87 82 76
3210.0 73 68 62 56 54 49 48 50 44 45
3250.0 40 38 36 38 35 35 33 32 31 31
3290.0 31 26 25 28 33 29 25 28 27 27
3330.0 32 32 29 29 30 29 33 33 30 26
3370.0 31 30 31 32 35 36 39 39 44 38
3410.0 42 54 57 70 87 113 125 137 148 148
3450.0 126 118 99 87 76 73 59 54 55 42
3490.0 37 31 27 29 22 24 21 27 30 23
3530.0 25 22 34 23 29 20 41 11 45 31
3570.0 44 31 26 41 33 52 32 25 30 21
3610.0 41 27 23 31 17 48 16 21 23 22
3650.0 34 18 35 20 19 41 22 43 15 15
3690.0 30 23 20 34 31 23 39 29 17 30
3730.0 34 35 36 25 82 24 63 25 31 32
3770.0 21 35 26 27 22 30 27 33 30 35
3810.0 26 24 20 52 16 27 24 40 28 35
3850.0 26 73 37 30 30 35 37 32 28 43
3890.0 24 49 29 56 47 42 39 53 38 28
3930.0 35 37 39 43 63 53 39 50 53 46
##END=
