##TITLE=1-Piperidinesuccinic acid, dimethyl ester
##JCAMP-DX=4.24
##DATA TYPE=INFRARED SPECTRUM
##ORIGIN=Sadtler Research Labs Under US-EPA Contract
##OWNER=NIST Standard Reference Data Program
##CAS REGISTRY NO=16217-48-4
##MOLFORM=C 11 H 19 N O 4
##XUNITS=1/CM
##YUNITS=ABSORBANCE
##XFACTOR=1.0
##YFACTOR=0.000112601
##DELTAX=4.0
##FIRSTX=450.0
##LASTX=3966.0
##FIRSTY=0.022408
##MAXX=3966
##MINX=450
##MAXY=1.12601
##MINY=0
##NPOINTS=880
##XYDATA=(X++(Y..Y))
450.0 199 162 105 114 14 91 15 9 40 1
490.0 5 3 13 4 36 44 61 66 53 35
530.0 48 45 68 73 80 78 45 51 49 51
570.0 39 53 40 48 36 25 33 16 40 33
610.0 41 33 50 46 73 105 126 157 145 133
650.0 134 112 107 120 129 132 98 92 81 67
690.0 69 65 67 54 57 60 58 68 68 77
730.0 102 135 166 207 224 212 171 130 102 65
770.0 44 33 34 42 73 97 116 123 125 138
810.0 140 140 135 134 152 191 247 325 375 411
850.0 447 511 584 561 453 290 180 133 115 134
890.0 147 164 160 165 162 158 145 121 103 90
930.0 83 90 92 79 75 71 90 118 171 228
970.0 282 357 447 560 676 814 993 1255 1578 1889
1010.0 2093 2151 2088 1975 1892 1846 1730 1492 1233 1041
1050.0 957 940 933 883 811 779 807 853 882 894
1090.0 967 1108 1355 1687 2039 2283 2297 2127 1907 1768
1130.0 1784 2011 2494 3319 4475 5812 6939 7518 7543 7091
1170.0 6475 5807 5210 4730 4400 4230 4105 3998 3873 3790
1210.0 3769 3805 3829 3876 3896 3851 3691 3477 3329 3303
1250.0 3364 3397 3410 3331 3201 3083 2996 2982 3000 3006
1290.0 2933 2768 2571 2415 2298 2177 1987 1733 1494 1351
1330.0 1290 1306 1416 1600 1743 1750 1634 1443 1242 1059
1370.0 968 961 958 911 827 715 609 510 436 425
1410.0 441 491 538 607 728 1074 1705 2310 2445 2011
1450.0 1514 1337 1227 1085 901 735 611 468 345 261
1490.0 214 171 154 126 116 101 87 81 73 66
1530.0 59 54 56 56 51 50 51 55 51 47
1570.0 49 47 47 47 39 42 36 41 33 35
1610.0 29 30 36 37 44 38 47 51 58 59
1650.0 72 75 78 86 100 109 114 126 138 165
1690.0 183 227 289 381 492 622 784 972 1201 1463
1730.0 1873 2426 3407 4917 7026 8823 9973 10000 9132 7428
1770.0 5392 3610 2416 1742 1308 1018 796 644 535 448
1810.0 375 311 226 165 127 102 87 78 76 68
1850.0 66 57 49 45 41 35 25 23 17 14
1890.0 8 11 9 11 12 18 19 21 21 20
1930.0 23 21 24 21 24 23 24 24 26 30
1970.0 34 38 38 42 43 48 51 56 57 58
2010.0 61 64 66 66 67 64 65 64 66 68
2050.0 66 67 70 70 66 65 63 61 56 50
2090.0 49 43 41 36 37 32 29 30 26 24
2130.0 23 20 17 16 13 11 9 11 9 8
2170.0 8 8 8 7 7 9 9 9 8 8
2210.0 5 8 7 7 7 5 5 5 1 3
2250.0 0 0 0 2 1 3 6 9 14 17
2290.0 22 29 36 42 43 48 44 37 38 34
2330.0 26 18 15 23 35 48 40 33 27 34
2370.0 25 30 39 38 32 20 13 12 14 14
2410.0 16 17 17 18 16 13 12 9 10 9
2450.0 7 7 7 7 7 8 11 12 15 16
2490.0 18 18 20 21 22 20 19 17 15 15
2530.0 15 14 14 14 16 16 16 18 21 23
2570.0 28 27 28 38 43 46 54 63 72 78
2610.0 83 86 84 83 85 84 92 101 110 126
2650.0 137 148 153 158 170 183 196 208 218 231
2690.0 242 252 257 262 255 253 248 252 264 285
2730.0 314 347 384 409 423 445 485 520 546 539
2770.0 505 467 449 467 506 580 683 818 977 1149
2810.0 1313 1451 1545 1538 1430 1269 1130 1059 1078 1162
2850.0 1267 1389 1571 1793 1884 1695 1332 998 814 777
2890.0 810 900 996 1104 1194 1310 1505 1840 2342 2881
2930.0 3506 4383 6454 8832 9160 7292 5123 4242 3953 3263
2970.0 2276 1502 1127 964 908 914 935 967 950 881
3010.0 770 679 618 599 596 577 524 448 374 311
3050.0 269 243 221 200 187 176 172 165 158 151
3090.0 149 143 136 132 125 117 106 106 91 84
3130.0 79 73 65 61 60 54 49 49 49 46
3170.0 42 41 40 45 42 41 36 37 35 32
3210.0 29 24 28 23 22 20 22 18 22 19
3250.0 19 21 18 16 16 21 12 14 13 14
3290.0 12 11 11 7 13 9 11 15 15 19
3330.0 15 14 16 16 12 12 14 13 18 15
3370.0 16 14 20 19 19 17 21 18 17 15
3410.0 20 14 18 16 14 15 14 20 23 23
3450.0 27 29 27 28 42 48 55 66 77 79
3490.0 80 74 76 69 63 55 39 34 23 20
3530.0 16 14 8 9 9 3 1 8 9 8
3570.0 21 21 28 25 22 19 16 7 10 8
3610.0 4 3 1 3 3 6 9 7 13 4
3650.0 1 3 10 11 7 1 9 4 11 10
3690.0 13 11 12 6 13 7 5 7 5 14
3730.0 4 5 13 8 15 11 11 8 10 14
3770.0 9 21 4 9 9 8 3 13 9 5
3810.0 20 10 0 7 7 9 4 15 9 17
3850.0 11 9 6 1 8 1 0 2 10 9
3890.0 20 9 16 10 15 12 9 2 8 20
3930.0 10 15 1 18 30 9 20 23 21 11
##END=
