##TITLE=1,3-Propanediamine, N,N-diethyl-3-(2-pyridyl)-,
##JCAMP-DX=4.24
##DATA TYPE=INFRARED SPECTRUM
##ORIGIN=Sadtler Research Labs Under US-EPA Contract
##OWNER=NIST Standard Reference Data Program
##CAS REGISTRY NO=16273-79-3
##MOLFORM=C 12 H 21 N 3
##XUNITS=1/CM
##YUNITS=ABSORBANCE
##XFACTOR=1.0
##YFACTOR=0.000037360
##DELTAX=4.0
##FIRSTX=450.0
##LASTX=3966.0
##FIRSTY=0.000000
##MAXX=3966
##MINX=450
##MAXY=0.3736
##MINY=0
##NPOINTS=880
##XYDATA=(X++(Y..Y))
450.0 0 224 486 298 231 383 414 401 524 554
490.0 493 553 437 540 550 617 579 644 705 672
530.0 686 690 790 811 744 881 926 942 916 847
570.0 844 808 808 797 783 797 789 788 844 865
610.0 973 1067 1146 1162 1104 1044 988 963 973 951
650.0 966 996 1029 1003 961 1174 1090 1096 1168 1228
690.0 1354 1405 1451 1536 1576 1639 1743 1852 2039 2188
730.0 2382 2674 3249 4193 4981 4897 4158 3493 3125 2982
770.0 2920 2856 2860 2850 2746 2572 2395 2211 2083 1988
810.0 1876 1766 1631 1525 1485 1452 1421 1353 1281 1239
850.0 1214 1208 1158 1149 1161 1151 1121 1102 1070 1055
890.0 1044 1023 997 955 958 920 894 864 829 788
930.0 779 685 612 573 574 615 655 677 737 836
970.0 762 768 832 910 1053 1288 1417 1344 1202 1128
1010.0 1106 1111 1130 1167 1214 1304 1441 1598 1790 1975
1050.0 2045 2095 2187 2406 2651 2752 2777 2718 2649 2642
1090.0 2538 2456 2353 2295 2264 2245 2285 2386 2491 2571
1130.0 2657 2716 2793 2906 2865 2654 2296 2040 1854 1736
1170.0 1642 1550 1508 1466 1500 1607 1819 2056 2183 2133
1210.0 1923 1685 1461 1317 1224 1183 1140 1131 1121 1119
1250.0 1100 1101 1100 1096 1106 1140 1211 1323 1460 1606
1290.0 1761 1855 1902 1862 1800 1698 1636 1609 1614 1675
1330.0 1778 1932 2108 2266 2383 2479 2538 2549 2602 2672
1370.0 2917 3207 3415 3422 3202 2800 2311 1857 1539 1371
1410.0 1295 1336 1506 1889 2607 3699 4392 4241 3383 2816
1450.0 2772 2968 3323 3719 4381 4825 4583 3649 2646 1997
1490.0 1675 1448 1307 1140 1044 962 842 770 721 662
1530.0 619 661 669 751 833 944 1105 1360 1773 2286
1570.0 2851 3201 3579 4241 5214 5473 4616 3204 2166 1655
1610.0 1439 1312 1221 1148 1068 1029 959 940 888 841
1650.0 718 734 656 684 726 810 810 783 685 639
1690.0 606 656 750 906 992 1011 953 935 879 799
1730.0 693 682 572 452 363 339 329 323 326 314
1770.0 324 300 278 270 266 236 262 251 266 249
1810.0 238 229 232 215 241 239 252 265 255 259
1850.0 246 258 267 294 290 292 257 242 227 214
1890.0 220 212 228 247 278 300 290 280 260 259
1930.0 271 295 311 315 294 281 264 265 296 315
1970.0 318 301 276 246 228 213 215 211 208 198
2010.0 202 198 197 193 195 190 182 191 195 182
2050.0 188 190 189 189 196 190 187 190 187 182
2090.0 195 190 187 190 183 179 177 173 175 174
2130.0 175 178 178 177 180 178 179 177 179 183
2170.0 185 191 197 198 197 203 202 201 197 189
2210.0 189 192 179 185 193 196 196 189 195 195
2250.0 200 208 206 212 212 222 225 239 257 274
2290.0 297 310 324 319 316 334 300 292 274 248
2330.0 235 207 189 204 259 263 247 224 229 232
2370.0 226 234 253 267 247 216 201 201 203 204
2410.0 210 210 215 213 225 223 224 225 221 218
2450.0 213 218 214 215 220 222 215 226 227 220
2490.0 225 216 227 224 239 239 243 248 247 257
2530.0 258 266 272 274 277 281 293 305 325 330
2570.0 342 360 367 362 378 384 383 385 391 402
2610.0 408 420 430 441 452 458 477 500 513 539
2650.0 552 574 597 625 647 670 684 719 749 769
2690.0 798 823 866 901 939 982 1022 1059 1100 1151
2730.0 1187 1216 1238 1274 1338 1411 1498 1588 1692 1813
2770.0 1924 2061 2247 2480 2785 3188 3709 4309 4902 5321
2810.0 5522 5538 5418 5203 4932 4623 4307 4045 3842 3685
2850.0 3546 3450 3393 3378 3423 3566 3834 4134 4373 4474
2890.0 4406 4324 4336 4395 4517 4652 4867 5176 5577 6081
2930.0 6621 7186 7612 7750 7493 7047 6695 6653 7045 7926
2970.0 9120 10000 9898 8586 6682 4893 3639 2926 2565 2494
3010.0 2584 2666 2557 2214 1833 1547 1404 1348 1376 1487
3050.0 1662 1852 2050 2223 2438 2832 3151 3047 2526 1918
3090.0 1500 1176 925 753 640 571 541 511 475 476
3130.0 480 481 487 463 445 417 382 347 345 331
3170.0 325 319 318 312 303 299 289 280 265 283
3210.0 271 262 263 257 245 244 249 235 237 233
3250.0 242 250 248 253 233 241 231 241 266 266
3290.0 279 284 298 311 333 360 371 376 402 409
3330.0 430 435 416 382 357 339 317 324 332 308
3370.0 306 298 290 317 335 333 338 323 322 313
3410.0 303 312 306 310 289 296 287 291 280 255
3450.0 261 251 238 238 221 210 205 193 218 193
3490.0 204 175 184 201 192 191 189 202 206 218
3530.0 223 216 209 237 265 227 248 208 256 241
3570.0 218 184 202 205 192 202 208 188 200 180
3610.0 222 200 206 207 204 266 228 274 293 282
3650.0 287 251 253 234 182 206 195 200 197 201
3690.0 222 208 213 209 211 181 174 177 190 226
3730.0 200 192 214 182 271 206 215 200 214 210
3770.0 210 201 189 197 186 197 229 224 200 189
3810.0 208 208 193 213 185 232 210 239 205 212
3850.0 211 226 217 210 195 242 206 214 201 232
3890.0 198 258 226 253 259 230 201 217 245 246
3930.0 206 212 196 181 207 260 259 229 233 230
##END=
