##TITLE=Pyridine, 2-methoxy-
##JCAMP-DX=4.24
##DATA TYPE=INFRARED SPECTRUM
##ORIGIN=Sadtler Research Labs Under US-EPA Contract
##OWNER=NIST Standard Reference Data Program
##CAS REGISTRY NO=1628-89-3
##MOLFORM=C 6 H 7 N O
##XUNITS=1/CM
##YUNITS=ABSORBANCE
##XFACTOR=1.0
##YFACTOR=0.000109222
##DELTAX=4.0
##FIRSTX=450.0
##LASTX=3966.0
##FIRSTY=0.032002
##MAXX=3966
##MINX=450
##MAXY=1.09222
##MINY=0
##NPOINTS=880
##XYDATA=(X++(Y..Y))
450.0 293 225 180 185 178 176 67 111 54 85
490.0 29 81 95 138 162 185 255 234 362 321
530.0 240 221 208 150 146 120 120 96 72 80
570.0 62 75 78 142 213 331 387 401 435 464
610.0 444 352 287 241 218 191 139 81 41 26
650.0 14 22 5 14 18 48 25 48 68 51
690.0 67 64 105 114 118 154 261 386 525 678
730.0 666 1161 1345 780 799 802 895 1116 1428 1831
770.0 2222 2489 3495 4166 2699 2478 2256 2024 1784 1405
810.0 1217 1092 1060 820 626 457 396 302 258 214
850.0 189 200 200 229 122 133 98 78 54 44
890.0 28 18 34 21 38 29 54 49 62 72
930.0 78 86 93 115 104 123 151 164 141 191
970.0 242 336 466 565 536 590 774 811 878 1083
1010.0 1528 2131 2706 2976 3117 3511 4040 4051 3542 3347
1050.0 3145 2936 2006 1175 700 464 322 246 223 191
1090.0 195 185 212 207 250 256 294 298 331 484
1130.0 840 1208 1099 1102 1163 1074 692 342 216 141
1170.0 132 110 110 100 104 95 97 103 100 125
1210.0 146 186 214 285 363 505 710 1052 1519 2008
1250.0 2548 3237 3986 4707 5093 5373 6059 7218 9092 9812
1290.0 9836 9611 9784 10000 8658 7679 7271 6803 6297 4519
1330.0 2402 1116 585 375 276 227 203 198 221 255
1370.0 308 363 402 408 437 441 488 617 1063 2092
1410.0 4113 6423 7315 7083 7385 7276 5739 3670 3109 2701
1450.0 2500 2538 2082 1773 2577 4311 7758 9921 9922 9982
1490.0 9283 7891 4167 2130 1391 1133 870 566 352 282
1530.0 264 292 343 445 586 770 1063 1501 2173 2973
1570.0 3788 4351 5153 6270 6620 6314 6558 7497 7756 7562
1610.0 6733 5931 4806 3092 1754 1019 724 511 381 299
1650.0 227 197 128 95 71 75 61 79 69 95
1690.0 86 107 133 157 163 168 191 187 173 146
1730.0 134 106 85 64 46 35 31 25 19 18
1770.0 23 26 22 30 47 61 83 94 117 124
1810.0 121 113 118 126 135 142 135 136 129 130
1850.0 99 78 61 58 50 56 59 58 73 81
1890.0 104 128 166 186 199 209 222 207 185 160
1930.0 133 117 128 142 139 142 134 114 102 88
1970.0 61 29 17 5 8 5 9 10 12 15
2010.0 21 31 43 61 78 103 115 139 150 160
2050.0 160 162 165 162 160 159 165 164 163 159
2090.0 165 172 170 166 162 163 144 136 119 112
2130.0 96 85 60 45 33 21 16 8 10 7
2170.0 8 4 14 11 13 16 16 15 15 16
2210.0 9 17 20 27 32 40 46 43 45 44
2250.0 47 40 38 33 41 43 55 71 83 97
2290.0 110 116 109 106 95 82 72 68 65 52
2330.0 54 50 48 39 37 28 40 45 38 4
2370.0 4 5 4 13 20 38 43 54 59 62
2410.0 60 55 52 45 39 34 29 25 34 36
2450.0 34 39 34 35 24 21 11 10 9 10
2490.0 9 11 14 18 20 19 26 26 35 32
2530.0 38 43 45 59 78 99 119 142 156 168
2570.0 175 181 169 155 142 127 112 96 85 70
2610.0 61 53 46 34 32 26 18 13 9 12
2650.0 11 12 7 7 6 9 10 9 10 7
2690.0 9 7 19 11 17 19 19 20 29 37
2730.0 42 48 48 58 55 53 39 41 41 39
2770.0 40 37 36 35 46 53 55 51 52 55
2810.0 67 81 115 164 219 276 317 361 411 469
2850.0 481 483 502 538 602 628 641 659 659 675
2890.0 642 547 498 512 571 651 702 742 752 769
2930.0 752 769 873 1090 1421 1764 2085 2319 2385 2292
2970.0 2087 1888 1602 1417 1503 1417 1224 1214 1240 1401
3010.0 1656 1800 1818 1830 1729 1598 1313 1090 1009 995
3050.0 1051 1109 1175 1136 1121 1198 1338 1417 1397 1382
3090.0 1338 1261 1060 734 511 417 329 244 175 137
3130.0 112 103 101 95 90 87 88 86 78 73
3170.0 65 68 69 67 55 62 40 43 32 37
3210.0 35 29 20 27 33 13 19 17 19 21
3250.0 23 19 22 22 16 29 12 10 10 21
3290.0 12 20 22 23 30 23 23 17 26 18
3330.0 26 19 27 34 22 22 25 28 27 29
3370.0 35 35 28 36 16 29 33 31 37 40
3410.0 33 39 32 26 24 27 30 28 29 32
3450.0 19 36 23 33 22 36 45 24 41 44
3490.0 26 26 25 35 40 30 34 26 39 22
3530.0 32 35 37 39 23 30 27 29 21 19
3570.0 37 29 40 34 20 31 22 19 42 47
3610.0 32 40 21 36 21 34 9 26 12 33
3650.0 49 46 56 22 25 15 38 33 33 28
3690.0 50 52 32 29 34 56 47 28 31 21
3730.0 41 4 13 24 18 9 16 13 32 15
3770.0 3 30 12 48 32 10 17 15 22 40
3810.0 4 12 21 24 20 23 14 10 22 29
3850.0 39 58 20 3 8 15 29 60 8 4
3890.0 4 5 13 20 1 40 9 4 4 22
3930.0 21 3 4 10 19 5 0 55 2 4
##END=
