##TITLE=Benzenemethanol, 2,4-dimethyl-
##JCAMP-DX=4.24
##DATA TYPE=INFRARED SPECTRUM
##ORIGIN=Sadtler Research Labs Under US-EPA Contract
##OWNER=NIST Standard Reference Data Program
##CAS REGISTRY NO=16308-92-2
##MOLFORM=C 9 H 12 O
##XUNITS=1/CM
##YUNITS=ABSORBANCE
##XFACTOR=1.0
##YFACTOR=0.000075204
##DELTAX=4.0
##FIRSTX=450.0
##LASTX=3966.0
##FIRSTY=0.026998
##MAXX=3966
##MINX=450
##MAXY=0.75204
##MINY=0
##NPOINTS=880
##XYDATA=(X++(Y..Y))
450.0 359 331 240 40 211 126 53 80 1 81
490.0 51 160 282 318 284 297 242 163 110 109
530.0 115 124 141 146 148 211 262 335 444 558
570.0 759 844 967 798 603 430 266 153 87 74
610.0 47 19 24 22 21 21 29 61 60 33
650.0 42 47 24 48 7 49 65 51 76 95
690.0 145 205 267 361 445 469 422 366 300 245
730.0 173 156 180 232 366 559 857 1207 1527 1812
770.0 1772 1509 1252 1020 886 882 1036 1393 1927 2629
810.0 3478 4257 4606 4053 3106 2243 1438 868 529 370
850.0 324 344 408 501 577 719 887 680 533 491
890.0 393 349 357 409 476 546 647 770 882 961
930.0 1045 1142 1248 1329 1401 1418 1438 1574 1862 2258
970.0 2667 3069 3412 3711 4126 4784 5721 6937 8318 9529
1010.0 10000 9541 8381 6925 5613 4794 4471 4418 4320 4070
1050.0 3624 3050 2410 1921 1597 1399 1254 1154 1068 994
1090.0 930 887 861 848 874 937 1034 1099 1125 1103
1130.0 1021 926 859 844 888 974 1066 1132 1211 1252
1170.0 1280 1312 1360 1414 1478 1520 1550 1574 1584 1579
1210.0 1604 1636 1631 1617 1591 1567 1590 1651 1663 1615
1250.0 1536 1399 1264 1183 1148 1132 1146 1164 1175 1167
1290.0 1136 1088 1038 1001 995 1000 1019 1037 1044 1036
1330.0 1029 1024 1030 1082 1171 1295 1486 1765 2177 2732
1370.0 3319 3868 4254 4444 4351 4077 3703 3308 2941 2631
1410.0 2421 2256 2135 2036 1946 1875 1838 1851 1882 1909
1450.0 1967 2004 2029 2056 2040 2047 1969 1889 1819 1784
1490.0 1802 2018 2329 2565 2604 2453 2129 1634 1322 1125
1530.0 1036 941 905 838 803 781 753 731 738 728
1570.0 733 736 753 719 696 667 672 761 984 1403
1610.0 2008 2532 2706 2496 2064 1299 720 397 275 188
1650.0 134 98 100 50 61 56 60 63 75 80
1690.0 91 86 87 79 75 79 78 86 102 123
1730.0 144 199 222 236 231 219 219 179 157 126
1770.0 103 57 48 27 39 14 21 12 18 34
1810.0 47 62 72 72 60 41 20 24 10 23
1850.0 22 35 49 59 72 93 147 189 231 253
1890.0 257 236 214 165 129 105 93 83 74 71
1930.0 72 61 63 55 53 51 54 50 53 47
1970.0 56 57 64 78 86 93 97 111 112 111
2010.0 104 94 71 62 52 42 33 31 27 28
2050.0 24 24 28 27 26 33 35 38 38 40
2090.0 38 37 33 26 21 18 15 14 9 8
2130.0 7 8 9 10 15 16 16 16 15 16
2170.0 14 12 10 7 4 1 2 7 12 13
2210.0 12 15 14 17 17 17 19 15 19 21
2250.0 20 20 18 19 15 18 21 24 21 24
2290.0 22 20 18 26 19 18 18 18 22 8
2330.0 8 25 23 2 30 1 19 6 0 0
2370.0 21 24 37 37 55 62 77 74 78 80
2410.0 82 81 83 80 78 72 70 72 69 68
2450.0 64 68 70 66 69 68 71 71 73 71
2490.0 73 68 69 68 66 65 65 62 56 60
2530.0 60 61 65 66 58 58 54 46 48 47
2570.0 52 48 52 49 47 51 49 53 57 61
2610.0 65 68 70 81 85 86 84 83 81 76
2650.0 80 84 89 91 94 101 101 109 117 122
2690.0 128 137 143 159 165 180 188 209 230 258
2730.0 310 377 445 487 511 495 435 390 366 352
2770.0 359 368 385 403 424 449 468 495 520 549
2810.0 578 620 668 727 805 897 1007 1142 1320 1544
2850.0 1821 2179 2658 3255 3990 4774 5467 6059 6485 6769
2890.0 6877 6836 6623 6324 6044 5895 5977 6357 7071 7980
2930.0 8859 9305 9252 8698 7812 6836 6040 5545 5213 4996
2970.0 4801 4599 4378 4174 3954 3813 3851 4071 4490 5015
3010.0 5509 5731 5732 5446 4949 4404 3968 3700 3585 3492
3050.0 3321 3090 2791 2421 2041 1728 1483 1305 1152 1011
3090.0 882 769 671 586 530 499 477 460 451 422
3130.0 384 338 284 223 187 153 137 119 107 91
3170.0 80 66 68 67 57 49 52 46 44 44
3210.0 43 41 41 32 29 31 31 32 32 32
3250.0 33 34 30 27 34 26 25 31 30 26
3290.0 24 26 21 16 10 12 18 17 11 20
3330.0 21 8 15 17 15 10 20 14 14 13
3370.0 17 22 25 21 29 34 26 42 44 41
3410.0 50 62 49 50 58 68 70 68 68 51
3450.0 58 61 44 50 46 48 45 44 41 36
3490.0 37 28 36 26 37 19 39 27 36 9
3530.0 25 17 16 36 29 26 35 31 29 40
3570.0 48 53 45 43 56 37 68 31 72 63
3610.0 92 92 127 174 244 408 631 905 1277 1678
3650.0 2157 2184 1979 1748 1391 1067 758 626 488 419
3690.0 330 236 182 142 132 115 70 87 81 71
3730.0 84 86 86 59 119 25 59 40 25 39
3770.0 17 40 9 31 24 42 31 35 2 34
3810.0 4 49 25 22 31 35 43 54 48 43
3850.0 65 64 73 72 69 91 78 100 71 95
3890.0 70 91 56 86 69 92 48 51 51 35
3930.0 44 44 35 45 39 44 55 42 49 48
##END=
