##TITLE=N-Benzylmaleimide
##JCAMP-DX=4.24
##DATA TYPE=INFRARED SPECTRUM
##ORIGIN=Sadtler Research Labs Under US-EPA Contract
##OWNER=NIST Standard Reference Data Program
##CAS REGISTRY NO=1631-26-1
##MOLFORM=C 11 H 9 N O 2
##XUNITS=1/CM
##YUNITS=ABSORBANCE
##XFACTOR=1.0
##YFACTOR=0.000117383
##DELTAX=4.0
##FIRSTX=450.0
##LASTX=3966.0
##FIRSTY=0.004461
##MAXX=3966
##MINX=450
##MAXY=1.17383
##MINY=0
##NPOINTS=880
##XYDATA=(X++(Y..Y))
450.0 38 56 164 191 201 248 305 270 171 116
490.0 65 57 52 38 31 20 29 32 33 22
530.0 27 19 14 0 8 21 30 31 50 90
570.0 137 178 155 109 80 43 31 61 74 145
610.0 209 250 213 128 93 133 197 222 192 131
650.0 73 55 44 64 88 148 214 303 494 780
690.0 1283 1691 1928 1808 1449 1004 806 741 696 597
730.0 442 309 212 155 116 97 72 67 68 75
770.0 86 97 98 94 78 68 74 85 112 157
810.0 224 341 527 871 1302 1594 1461 1054 642 374
850.0 263 222 203 200 226 257 288 300 292 261
890.0 211 176 159 161 165 155 144 128 110 97
930.0 86 71 65 44 38 31 27 22 23 24
970.0 24 29 31 30 29 32 31 39 48 59
1010.0 71 83 115 171 284 400 436 371 249 140
1050.0 91 75 80 105 132 181 213 235 224 209
1090.0 182 167 176 189 203 204 216 225 260 344
1130.0 508 747 1003 1174 1196 1051 797 558 389 286
1170.0 216 183 181 172 156 128 107 93 98 101
1210.0 99 99 100 108 106 105 103 111 115 122
1250.0 133 147 160 167 170 172 190 220 263 300
1290.0 340 387 431 487 527 551 559 586 656 796
1330.0 976 1193 1491 1903 2358 2620 2530 2063 1494 1048
1370.0 822 890 1199 1683 2109 2386 2519 2641 2692 2525
1410.0 2086 1445 961 672 592 697 947 1233 1336 1158
1450.0 817 541 363 270 192 158 131 113 97 130
1490.0 187 278 333 308 249 141 84 65 66 53
1530.0 52 53 68 81 75 79 86 107 112 109
1570.0 132 144 175 175 202 204 225 237 247 226
1610.0 178 138 90 74 57 67 60 91 76 103
1650.0 106 142 130 124 164 164 205 233 308 366
1690.0 452 578 755 1028 1402 2100 2989 4436 5959 7503
1730.0 8985 10000 9400 8483 6156 3852 2170 1377 902 725
1770.0 603 547 499 459 410 329 304 262 267 249
1810.0 251 229 193 168 130 107 75 69 54 55
1850.0 46 42 42 38 50 43 49 44 57 52
1890.0 58 56 47 44 39 45 37 43 35 35
1930.0 30 35 38 38 47 46 51 43 42 26
1970.0 16 9 6 6 0 6 1 5 1 5
2010.0 2 3 7 5 7 5 9 5 11 9
2050.0 11 9 10 12 10 17 15 18 14 18
2090.0 15 15 15 16 18 11 15 6 9 9
2130.0 11 9 14 20 19 20 16 20 14 18
2170.0 13 12 11 9 9 7 7 4 5 4
2210.0 5 3 7 7 5 6 6 6 6 8
2250.0 7 11 10 13 15 13 17 16 23 21
2290.0 22 26 33 36 39 50 45 51 49 52
2330.0 46 49 41 48 52 50 57 41 47 26
2370.0 28 22 25 25 13 7 0 2 1 3
2410.0 1 2 2 2 5 3 5 2 6 6
2450.0 7 6 4 7 5 7 8 11 9 12
2490.0 11 14 15 14 17 14 19 18 21 22
2530.0 21 22 24 20 18 17 12 13 9 10
2570.0 7 7 7 8 6 6 8 7 9 8
2610.0 10 9 10 8 5 6 9 10 8 11
2650.0 12 11 8 8 10 9 11 10 13 10
2690.0 13 11 10 13 13 10 11 18 14 14
2730.0 12 15 13 13 15 14 13 13 15 13
2770.0 16 19 18 20 23 25 23 24 19 23
2810.0 20 21 24 22 25 23 22 22 27 21
2850.0 20 19 22 23 30 33 26 27 27 26
2890.0 30 28 30 34 38 42 49 50 61 77
2930.0 107 137 183 225 258 269 249 199 146 108
2970.0 79 69 62 60 62 58 64 60 70 72
3010.0 82 91 109 144 188 251 329 410 450 441
3050.0 378 303 272 296 382 492 551 520 424 312
3090.0 251 222 204 188 167 149 127 108 82 58
3130.0 43 36 30 26 24 24 24 22 29 24
3170.0 27 24 24 21 19 20 11 15 15 16
3210.0 14 14 12 11 14 14 12 13 13 14
3250.0 13 11 15 12 12 10 10 14 13 11
3290.0 11 8 5 7 13 11 8 7 7 9
3330.0 13 9 8 7 5 9 8 6 5 12
3370.0 9 4 4 4 5 5 8 7 8 0
3410.0 1 0 3 0 0 6 2 4 0 6
3450.0 6 11 11 15 26 25 34 51 74 85
3490.0 108 125 132 131 118 100 83 61 46 34
3530.0 29 26 19 20 19 22 26 17 21 20
3570.0 20 15 16 15 18 17 14 11 16 14
3610.0 16 12 10 11 13 18 13 8 10 9
3650.0 17 8 12 12 10 14 5 19 2 11
3690.0 8 15 6 5 11 9 11 6 13 10
3730.0 15 14 3 16 17 12 12 0 4 12
3770.0 10 11 8 12 0 6 14 14 24 23
3810.0 20 18 19 16 5 12 15 18 15 10
3850.0 7 25 14 10 18 4 8 6 21 8
3890.0 14 11 7 8 12 9 18 15 10 10
3930.0 13 12 8 13 4 17 16 15 11 2
##END=
