##TITLE=2,4,4-Trimethyl-1-pentanol
##JCAMP-DX=4.24
##DATA TYPE=INFRARED SPECTRUM
##ORIGIN=Sadtler Research Labs Under US-EPA Contract
##OWNER=NIST Standard Reference Data Program
##CAS REGISTRY NO=16325-63-6
##MOLFORM=C 8 H 18 O
##XUNITS=1/CM
##YUNITS=ABSORBANCE
##XFACTOR=1.0
##YFACTOR=0.000168497
##DELTAX=4.0
##FIRSTX=450.0
##LASTX=3966.0
##FIRSTY=0.034036
##MAXX=3966
##MINX=450
##MAXY=1.68497
##MINY=0
##NPOINTS=880
##XYDATA=(X++(Y..Y))
450.0 202 139 110 70 101 122 113 49 54 160
490.0 117 94 124 118 120 81 163 144 133 128
530.0 135 63 155 112 193 206 142 178 190 122
570.0 91 87 84 92 92 78 111 136 102 101
610.0 121 93 131 82 124 93 74 94 98 70
650.0 90 97 81 113 102 99 52 77 63 80
690.0 117 97 106 72 75 94 75 69 72 85
730.0 124 76 100 93 111 99 112 89 96 108
770.0 97 89 94 81 91 100 86 107 118 116
810.0 103 115 115 124 137 125 123 130 125 124
850.0 142 143 168 157 166 160 159 160 173 169
890.0 199 197 203 205 211 205 197 224 236 270
930.0 277 280 273 290 325 371 409 471 489 504
970.0 502 506 495 558 596 629 642 633 623 680
1010.0 777 976 1217 1537 2002 2583 3229 3607 3630 3198
1050.0 2449 1673 1110 800 696 661 681 678 673 644
1090.0 606 568 543 529 500 461 430 397 371 335
1130.0 312 294 288 282 281 295 301 319 339 362
1170.0 388 388 403 402 423 447 494 526 579 602
1210.0 610 625 617 628 626 637 651 689 724 732
1250.0 686 608 516 433 390 378 366 369 366 366
1290.0 362 346 334 318 309 297 295 290 290 299
1330.0 311 328 357 397 466 565 728 974 1278 1601
1370.0 1782 1752 1542 1299 1125 1036 1002 938 790 648
1410.0 453 329 268 240 227 238 255 303 366 444
1450.0 555 692 848 1058 1229 1437 1575 1555 1420 1170
1490.0 873 575 364 246 177 148 111 104 86 77
1530.0 67 65 61 59 58 49 53 51 53 39
1570.0 42 40 37 41 36 37 42 32 39 33
1610.0 32 39 35 38 30 36 29 33 31 29
1650.0 33 32 35 20 29 25 25 22 25 25
1690.0 24 19 22 26 17 18 16 19 16 8
1730.0 16 12 19 10 12 12 12 11 10 9
1770.0 12 10 8 9 11 11 8 10 6 11
1810.0 8 8 10 9 10 10 8 8 5 9
1850.0 6 7 8 7 8 6 7 8 8 8
1890.0 8 10 8 9 9 8 5 9 7 10
1930.0 11 9 10 11 12 10 11 11 12 14
1970.0 10 12 11 12 12 12 13 13 11 9
2010.0 10 8 7 7 9 12 12 11 12 16
2050.0 16 19 20 22 22 22 21 18 14 9
2090.0 7 6 3 5 5 5 5 6 3 1
2130.0 0 1 2 2 2 0 0 3 3 0
2170.0 0 1 3 2 1 2 2 1 3 0
2210.0 3 4 3 3 3 2 2 2 3 4
2250.0 4 6 5 7 7 7 8 9 11 10
2290.0 12 15 16 15 13 13 13 16 14 16
2330.0 16 15 22 14 21 17 29 29 35 23
2370.0 19 24 23 22 23 24 27 28 28 30
2410.0 31 30 29 29 29 26 27 26 27 28
2450.0 28 28 27 26 28 29 26 26 28 28
2490.0 26 27 27 26 28 26 29 27 29 29
2530.0 31 33 34 37 41 43 42 44 44 45
2570.0 47 50 49 50 51 52 52 52 51 54
2610.0 54 57 57 58 63 63 64 65 68 71
2650.0 74 77 80 82 86 87 93 98 102 107
2690.0 113 119 125 130 137 146 165 180 199 211
2730.0 221 223 224 222 224 227 230 236 238 236
2770.0 238 239 245 257 266 275 286 299 312 325
2810.0 348 371 396 432 478 541 629 733 868 1031
2850.0 1234 1470 1759 2127 2608 3137 3618 3909 3974 3898
2890.0 3834 3835 3927 4107 4322 4521 4628 4673 4634 4543
2930.0 4483 4540 4760 5158 5756 6712 7980 9264 10000 9884
2970.0 8728 6881 4997 3532 2480 1765 1268 915 675 505
3010.0 396 321 263 223 197 174 161 151 138 128
3050.0 125 119 111 108 105 105 101 98 95 93
3090.0 94 90 85 86 86 87 84 84 81 81
3130.0 86 84 88 86 88 89 89 90 94 100
3170.0 100 102 98 99 97 100 95 91 90 90
3210.0 87 85 82 81 71 73 67 60 60 54
3250.0 48 43 43 43 42 37 27 28 28 24
3290.0 24 18 21 23 22 20 21 20 26 27
3330.0 22 23 21 20 16 19 20 18 14 18
3370.0 17 18 23 17 15 13 14 17 11 9
3410.0 13 10 8 9 12 11 13 11 12 17
3450.0 14 17 17 17 19 19 18 21 17 14
3490.0 17 20 12 16 17 13 16 18 14 13
3530.0 13 13 12 4 4 11 12 3 13 3
3570.0 14 11 10 8 7 11 6 8 10 12
3610.0 23 20 22 28 22 43 52 75 110 156
3650.0 218 299 389 494 582 632 647 567 460 343
3690.0 219 131 93 61 54 39 23 22 18 11
3730.0 11 10 9 15 14 14 2 11 1 9
3770.0 4 3 6 13 0 11 10 12 14 21
3810.0 21 10 10 20 20 12 27 29 20 27
3850.0 21 37 31 23 30 33 34 29 34 37
3890.0 27 17 21 20 18 25 24 23 30 18
3930.0 10 17 16 0 4 9 11 15 21 14
##END=
