##TITLE=Heptane, 3-methylene-
##JCAMP-DX=4.24
##DATA TYPE=INFRARED SPECTRUM
##ORIGIN=Sadtler Research Labs Under US-EPA Contract
##OWNER=NIST Standard Reference Data Program
##CAS REGISTRY NO=1632-16-2
##MOLFORM=C 8 H 16
##XUNITS=1/CM
##YUNITS=ABSORBANCE
##XFACTOR=1.0
##YFACTOR=0.000149814
##DELTAX=4.0
##FIRSTX=450.0
##LASTX=3966.0
##FIRSTY=0.000000
##MAXX=3966
##MINX=450
##MAXY=1.49814
##MINY=0
##NPOINTS=880
##XYDATA=(X++(Y..Y))
450.0 0 247 295 362 484 399 447 434 356 343
490.0 419 432 352 347 395 329 362 434 396 425
530.0 427 336 376 462 469 509 419 354 320 421
570.0 401 388 440 361 364 390 406 430 405 395
610.0 367 383 362 371 401 382 371 317 308 328
650.0 344 313 343 329 347 292 314 328 309 324
690.0 313 355 335 287 299 318 361 360 352 386
730.0 418 319 448 451 444 390 447 362 333 416
770.0 438 408 465 456 501 453 445 504 504 472
810.0 433 428 415 406 388 360 395 378 368 349
850.0 382 401 404 469 561 682 882 1239 1690 2155
890.0 2579 2596 2323 1856 1338 926 667 524 470 464
930.0 469 468 451 435 417 384 372 352 340 359
970.0 356 351 364 359 347 372 387 396 398 407
1010.0 422 409 414 396 385 382 379 410 420 428
1050.0 461 483 483 492 516 496 519 505 479 455
1090.0 470 466 485 499 503 535 499 506 476 473
1130.0 443 399 400 347 336 322 319 337 337 349
1170.0 349 365 373 386 397 405 412 431 423 424
1210.0 395 386 389 387 409 411 446 452 453 453
1250.0 442 432 424 424 428 439 442 442 442 443
1290.0 439 442 443 435 436 447 450 457 468 479
1330.0 498 513 539 555 572 581 584 589 599 646
1370.0 720 837 961 1009 1036 967 844 735 661 635
1410.0 633 655 674 721 783 866 950 1084 1235 1378
1450.0 1559 1701 1827 1912 1886 1746 1539 1271 1014 791
1490.0 631 548 467 433 410 387 379 373 356 368
1530.0 350 350 347 344 334 329 327 324 331 320
1570.0 314 317 325 324 333 332 334 346 349 363
1610.0 387 412 468 525 623 765 926 1142 1308 1353
1650.0 1353 1233 1004 817 616 506 452 396 379 365
1690.0 353 359 350 365 357 365 364 348 352 331
1730.0 323 312 312 322 314 288 267 261 280 309
1770.0 346 376 406 432 443 446 429 400 368 337
1810.0 309 297 285 275 271 265 263 265 261 262
1850.0 256 252 250 253 251 248 254 251 255 253
1890.0 254 255 255 257 256 256 258 256 258 256
1930.0 255 258 255 254 254 251 256 250 249 251
1970.0 252 251 250 252 250 250 250 248 251 254
2010.0 253 254 252 256 257 258 260 258 260 259
2050.0 258 255 255 254 254 252 253 251 253 252
2090.0 248 253 252 251 254 253 254 253 255 255
2130.0 256 255 253 254 254 255 254 254 253 253
2170.0 254 255 253 255 256 254 254 256 255 253
2210.0 255 255 256 256 258 255 256 257 256 256
2250.0 254 256 253 254 255 256 256 253 254 253
2290.0 252 251 248 249 248 245 251 249 250 247
2330.0 248 253 249 256 253 261 252 256 256 272
2370.0 270 268 273 276 275 278 278 278 276 272
2410.0 270 273 270 271 271 272 270 272 271 272
2450.0 270 269 266 267 267 265 266 265 263 265
2490.0 265 267 267 265 268 270 269 271 275 274
2530.0 275 278 279 278 282 284 284 287 288 291
2570.0 290 292 289 290 295 291 290 289 291 293
2610.0 291 291 294 297 300 301 302 308 307 312
2650.0 314 319 322 323 326 330 332 334 335 337
2690.0 336 337 342 341 341 340 343 350 357 368
2730.0 383 397 413 423 426 421 415 407 404 407
2770.0 411 419 426 434 449 465 484 502 526 549
2810.0 582 620 669 733 811 912 1038 1191 1381 1613
2850.0 1905 2258 2673 3129 3582 3945 4278 4633 4863 4873
2890.0 4827 4670 4412 4265 4305 4490 4839 5337 6036 6916
2930.0 7758 8638 9116 9198 8777 8085 7605 7417 7987 9235
2970.0 10000 9908 8932 7264 5296 3870 2975 2394 1977 1673
3010.0 1446 1272 1132 1031 953 893 851 812 773 740
3050.0 715 709 720 770 875 1058 1281 1428 1544 1536
3090.0 1381 1171 961 749 590 500 443 419 402 394
3130.0 388 379 374 373 365 369 363 361 359 364
3170.0 362 359 358 356 355 352 350 348 340 337
3210.0 328 327 322 314 306 303 300 296 285 287
3250.0 283 277 271 271 276 278 275 271 271 274
3290.0 270 267 269 272 269 277 272 272 267 271
3330.0 273 264 267 266 263 261 260 257 257 261
3370.0 265 260 263 259 260 262 263 260 256 260
3410.0 262 255 253 253 252 253 250 247 248 253
3450.0 246 251 245 249 253 255 251 250 256 253
3490.0 256 259 256 251 247 252 255 253 250 248
3530.0 255 250 252 249 256 253 249 250 259 265
3570.0 276 275 283 291 285 271 265 257 264 261
3610.0 260 266 256 263 253 264 267 273 271 282
3650.0 266 292 272 281 272 274 276 268 275 261
3690.0 269 260 261 264 271 260 261 254 252 256
3730.0 274 267 266 266 262 274 256 276 268 265
3770.0 260 259 266 256 260 256 256 256 255 265
3810.0 248 271 261 261 253 265 262 278 272 272
3850.0 256 278 270 255 270 268 262 269 270 259
3890.0 264 249 256 263 260 252 263 269 267 273
3930.0 273 276 271 281 299 276 285 279 286 282
##END=
