##TITLE=Aniline, 4-chloro-N-methyl-3-nitro-,
##JCAMP-DX=4.24
##DATA TYPE=INFRARED SPECTRUM
##ORIGIN=Sadtler Research Labs Under US-EPA Contract
##OWNER=NIST Standard Reference Data Program
##CAS REGISTRY NO=16330-03-3
##MOLFORM=C 7 H 7 Cl N 2 O 2
##XUNITS=1/CM
##YUNITS=ABSORBANCE
##XFACTOR=1.0
##YFACTOR=0.000057819
##DELTAX=4.0
##FIRSTX=450.0
##LASTX=3966.0
##FIRSTY=0.003122
##MAXX=3966
##MINX=450
##MAXY=0.57819
##MINY=0
##NPOINTS=880
##XYDATA=(X++(Y..Y))
450.0 54 22 1 8 81 95 50 122 56 92
490.0 106 79 49 26 38 27 41 71 60 73
530.0 107 167 186 233 304 310 303 338 360 435
570.0 488 530 545 626 636 656 639 600 553 515
610.0 445 421 536 568 698 604 537 540 565 592
650.0 599 553 491 464 488 570 567 525 460 395
690.0 373 348 332 317 243 186 147 111 87 113
730.0 203 258 195 176 237 273 273 260 253 239
770.0 221 249 304 359 455 662 1064 1843 2794 3507
810.0 3653 2811 1695 970 495 350 332 430 530 679
850.0 783 801 708 524 350 208 116 67 51 44
890.0 34 30 46 91 154 236 234 178 113 106
930.0 94 85 79 68 56 41 52 44 53 59
970.0 50 44 31 37 33 47 53 70 82 68
1010.0 63 54 108 203 249 378 564 684 730 637
1050.0 469 396 399 448 521 579 615 613 577 539
1090.0 499 468 447 445 432 449 500 580 760 1068
1130.0 1574 1948 2037 1994 1680 1271 1056 1006 1021 974
1170.0 794 578 428 376 358 349 292 228 200 207
1210.0 246 264 301 344 431 605 842 1089 1288 1334
1250.0 1218 1145 1166 1343 1524 1585 1481 1213 1031 999
1290.0 1103 1277 1584 2028 2688 3478 4236 4635 4560 3984
1330.0 3176 2548 2254 2349 2745 3394 4100 4642 4692 4233
1370.0 3330 2334 1638 1287 1149 1113 1112 1085 1047 974
1410.0 874 828 745 801 858 1047 1146 1177 1133 1081
1450.0 1009 1023 1111 1238 1406 1604 1855 2237 2809 3471
1490.0 4348 5556 6763 7753 8045 7694 6944 6207 5956 6097
1530.0 6406 6587 6753 7006 7859 8983 10000 9720 8178 6430
1570.0 5040 4293 3945 3593 3112 2518 2138 2019 2239 2666
1610.0 3281 3743 3878 3560 2875 2023 1250 726 482 344
1650.0 228 189 199 157 146 129 107 130 121 121
1690.0 161 182 175 204 232 263 239 198 185 161
1730.0 92 26 19 4 0 5 68 80 114 113
1770.0 113 84 108 97 102 80 73 69 53 70
1810.0 48 48 55 52 47 38 43 52 37 37
1850.0 51 69 77 102 114 115 147 144 133 113
1890.0 94 78 79 82 75 71 69 66 51 62
1930.0 69 63 67 55 66 67 73 73 78 66
1970.0 69 73 70 70 67 60 55 62 51 52
2010.0 54 51 48 53 55 55 53 49 56 57
2050.0 60 67 63 69 65 71 66 72 68 70
2090.0 69 66 71 69 77 79 79 75 75 72
2130.0 70 66 68 62 62 67 60 63 62 68
2170.0 64 63 57 60 62 54 61 61 61 59
2210.0 58 58 62 61 61 61 60 61 49 48
2250.0 45 42 47 46 44 52 53 51 61 61
2290.0 70 81 82 84 89 105 91 92 101 93
2330.0 93 99 90 94 99 90 95 71 100 78
2370.0 77 75 79 79 57 51 50 49 51 52
2410.0 52 52 51 54 57 51 47 38 36 29
2450.0 27 28 31 31 23 24 20 28 28 25
2490.0 26 22 22 25 28 29 30 32 32 34
2530.0 42 53 53 48 46 46 43 43 42 50
2570.0 48 48 41 47 37 38 34 31 33 30
2610.0 35 35 23 24 24 23 23 20 15 8
2650.0 5 9 8 4 6 0 4 9 15 19
2690.0 17 21 24 26 29 37 29 38 38 42
2730.0 45 48 48 54 64 67 76 74 82 96
2770.0 92 104 112 119 122 148 162 184 213 250
2810.0 301 382 479 585 684 752 775 749 687 606
2850.0 516 455 427 418 436 449 480 528 593 652
2890.0 741 843 943 1013 1039 1025 1018 1000 994 997
2930.0 982 994 999 1007 1020 997 936 834 727 621
2970.0 541 471 426 450 517 655 779 790 704 524
3010.0 339 244 220 209 222 252 263 269 271 251
3050.0 221 200 187 182 184 194 217 236 243 241
3090.0 224 192 158 134 100 78 69 68 54 42
3130.0 38 42 43 37 38 40 31 24 20 27
3170.0 7 15 10 13 16 24 24 24 23 21
3210.0 23 29 26 21 21 29 32 33 44 46
3250.0 34 35 40 44 51 60 59 71 74 76
3290.0 81 93 99 103 111 110 107 125 126 141
3330.0 133 147 153 156 155 174 177 182 179 189
3370.0 180 186 195 193 210 214 226 229 244 253
3410.0 259 299 294 310 317 330 321 338 349 390
3450.0 500 620 741 837 831 756 619 452 307 199
3490.0 140 110 90 88 69 51 54 42 53 43
3530.0 28 26 30 28 25 9 33 21 31 36
3570.0 53 60 41 54 52 35 35 28 41 27
3610.0 44 11 22 8 28 34 19 19 3 6
3650.0 41 21 25 13 19 40 22 34 27 41
3690.0 26 27 22 36 19 34 42 25 63 57
3730.0 51 49 38 22 51 22 35 32 41 23
3770.0 24 44 31 43 26 48 38 40 29 44
3810.0 23 44 42 49 21 28 61 56 58 63
3850.0 43 52 23 33 80 60 37 31 34 53
3890.0 36 59 18 42 56 63 42 62 64 54
3930.0 42 37 43 41 53 38 67 38 20 63
##END=
