##TITLE=Acetamide, 2-methoxy-,
##JCAMP-DX=4.24
##DATA TYPE=INFRARED SPECTRUM
##ORIGIN=Sadtler Research Labs Under US-EPA Contract
##OWNER=NIST Standard Reference Data Program
##CAS REGISTRY NO=16332-06-2
##MOLFORM=C 3 H 7 N O 2
##XUNITS=1/CM
##YUNITS=ABSORBANCE
##XFACTOR=1.0
##YFACTOR=0.000142618
##DELTAX=4.0
##FIRSTX=450.0
##LASTX=3966.0
##FIRSTY=0.050059
##MAXX=3966
##MINX=450
##MAXY=1.42618
##MINY=0
##NPOINTS=880
##XYDATA=(X++(Y..Y))
450.0 351 377 423 387 424 430 412 363 378 354
490.0 263 238 207 189 159 158 134 125 115 125
530.0 154 170 227 259 268 289 316 319 317 310
570.0 298 251 218 209 157 146 124 111 105 123
610.0 124 121 121 143 151 137 120 114 122 84
650.0 81 60 62 48 1 89 95 37 62 55
690.0 67 74 89 96 107 115 136 134 160 185
730.0 189 219 229 267 313 344 390 430 455 451
770.0 457 463 474 471 454 426 406 394 395 400
810.0 413 440 464 504 540 586 603 640 654 666
850.0 663 662 648 622 600 576 553 524 511 504
890.0 507 509 519 534 553 572 590 614 629 651
930.0 654 661 651 636 621 622 623 626 638 652
970.0 657 653 639 626 627 610 561 497 444 396
1010.0 364 342 325 311 301 293 296 280 280 286
1050.0 301 308 329 356 395 444 508 585 692 842
1090.0 1042 1326 1690 2147 2661 3172 3628 3956 4090 4082
1130.0 3868 3451 2968 2280 1613 1207 989 871 796 744
1170.0 758 795 877 1017 1197 1358 1491 1534 1453 1401
1210.0 1315 1134 901 652 504 421 380 345 319 311
1250.0 305 311 322 343 361 377 393 408 422 436
1290.0 456 476 520 586 677 790 949 1157 1402 1617
1330.0 1727 1751 1768 1831 1844 1730 1582 1486 1441 1446
1370.0 1464 1469 1445 1370 1269 1176 1077 923 754 597
1410.0 475 393 326 310 303 324 323 340 372 414
1450.0 452 455 449 462 438 378 312 264 247 210
1490.0 174 155 130 116 104 101 109 116 127 173
1530.0 213 292 399 542 762 1058 1430 1811 2192 2404
1570.0 2568 2690 2738 2630 2375 2039 1680 1354 1061 821
1610.0 627 493 391 334 285 273 254 253 261 267
1650.0 280 298 334 356 396 426 472 539 597 691
1690.0 799 953 1123 1410 1769 2286 2950 3899 5110 6492
1730.0 7975 9173 9890 10000 9914 9284 8405 6665 4903 3443
1770.0 2382 1616 1123 774 558 405 319 260 218 202
1810.0 175 158 138 124 105 89 79 71 57 44
1850.0 45 41 38 31 30 19 26 23 26 22
1890.0 20 21 19 20 19 19 19 24 21 26
1930.0 30 33 35 31 36 37 37 34 34 29
1970.0 30 28 26 24 22 20 19 24 25 26
2010.0 28 28 31 34 39 40 46 44 47 45
2050.0 47 47 47 46 46 52 55 60 63 69
2090.0 70 73 73 72 68 64 61 57 52 49
2130.0 47 44 43 40 39 39 37 38 36 39
2170.0 38 41 41 42 42 41 40 41 43 40
2210.0 42 43 45 45 45 48 49 52 54 54
2250.0 52 54 52 48 45 43 45 47 47 44
2290.0 38 30 22 17 11 0 5 0 1 0
2330.0 2 5 8 16 1 4 0 9 17 19
2370.0 20 20 25 30 33 31 32 34 34 34
2410.0 37 37 37 37 37 37 37 38 39 37
2450.0 38 38 36 37 35 34 34 32 31 31
2490.0 31 30 30 29 27 30 29 29 29 30
2530.0 31 33 33 32 31 31 33 33 36 36
2570.0 36 37 37 39 42 40 41 42 43 44
2610.0 41 41 41 39 41 39 39 39 39 38
2650.0 40 41 43 43 44 47 46 46 44 46
2690.0 46 45 43 46 47 46 45 43 45 45
2730.0 48 50 52 53 57 62 68 73 80 89
2770.0 95 105 113 125 135 152 172 203 238 283
2810.0 344 429 544 695 841 923 981 993 1015 1033
2850.0 943 822 733 684 672 683 711 750 805 873
2890.0 960 1036 1123 1233 1314 1361 1405 1460 1535 1594
2930.0 1647 1683 1681 1658 1534 1373 1248 1114 984 850
2970.0 738 668 637 651 701 775 820 807 771 738
3010.0 712 635 493 367 287 234 203 178 164 151
3050.0 141 136 135 130 127 125 117 112 106 98
3090.0 88 82 73 70 65 56 54 53 47 44
3130.0 44 43 39 37 34 30 28 26 24 20
3170.0 17 15 13 15 13 13 11 13 14 13
3210.0 10 12 12 15 12 13 13 9 14 13
3250.0 14 17 16 19 15 19 22 18 20 21
3290.0 24 25 28 27 28 32 32 34 33 30
3330.0 28 29 27 28 28 30 30 33 33 41
3370.0 47 56 70 87 117 157 203 259 332 416
3410.0 514 623 732 825 899 916 849 796 792 717
3450.0 587 443 330 251 196 160 134 126 120 126
3490.0 138 164 196 234 273 323 395 494 620 740
3530.0 870 1037 1244 1497 1685 1706 1601 1466 1305 1133
3570.0 875 517 257 133 75 53 43 33 32 24
3610.0 19 12 12 15 21 13 10 18 14 14
3650.0 0 9 15 13 18 8 11 9 15 18
3690.0 15 20 22 19 24 19 13 20 16 19
3730.0 27 18 16 21 16 8 18 11 18 20
3770.0 20 29 29 26 30 31 26 26 20 24
3810.0 28 30 26 20 20 24 22 23 15 29
3850.0 27 19 23 19 16 21 22 26 17 21
3890.0 20 26 25 21 27 23 27 23 15 23
3930.0 24 17 28 23 28 21 34 34 31 32
##END=
