##TITLE=Propane, 2-methoxy-2-methyl-
##JCAMP-DX=4.24
##DATA TYPE=INFRARED SPECTRUM
##ORIGIN=Sadtler Research Labs Under US-EPA Contract
##OWNER=NIST Standard Reference Data Program
##CAS REGISTRY NO=1634-04-4
##MOLFORM=C 5 H 12 O
##XUNITS=1/CM
##YUNITS=ABSORBANCE
##XFACTOR=1.0
##YFACTOR=0.000153571
##DELTAX=4.0
##FIRSTX=450.0
##LASTX=3966.0
##FIRSTY=0.032711
##MAXX=3966
##MINX=450
##MAXY=1.53571
##MINY=0
##NPOINTS=880
##XYDATA=(X++(Y..Y))
450.0 213 141 202 220 134 159 129 145 44 120
490.0 104 172 150 137 158 145 153 134 132 110
530.0 167 28 51 103 124 113 110 110 135 96
570.0 75 127 151 85 137 155 137 134 135 133
610.0 131 121 128 122 114 148 141 127 132 143
650.0 120 121 114 116 114 115 122 121 124 127
690.0 134 145 163 213 262 317 365 396 496 494
730.0 356 370 346 267 199 159 149 134 139 132
770.0 135 129 133 129 118 130 128 129 131 137
810.0 149 161 190 226 306 427 581 733 875 1003
850.0 1210 1293 1065 914 858 636 398 249 180 186
890.0 188 145 133 133 140 140 134 132 126 124
930.0 119 119 118 118 119 120 120 124 124 129
970.0 131 136 148 151 162 170 196 227 269 329
1010.0 383 432 459 488 474 445 437 389 349 346
1050.0 378 461 620 895 1309 1928 2718 3579 4317 4893
1090.0 5413 5694 5288 4607 3895 2773 1674 1000 676 540
1130.0 475 448 436 435 451 476 515 554 606 674
1170.0 780 946 1202 1560 2038 2665 3320 3917 4522 5240
1210.0 5305 5086 5012 4336 3215 2499 2210 2017 1825 1702
1250.0 1587 1414 1246 1126 949 726 559 440 343 271
1290.0 215 185 160 149 143 141 146 145 148 148
1330.0 165 197 287 423 651 1035 1452 1773 1882 2744
1370.0 3356 2324 2259 2212 1763 1541 981 731 740 580
1410.0 386 259 261 239 248 253 297 338 383 448
1450.0 546 641 785 872 938 1000 1027 979 870 839
1490.0 708 569 480 368 324 274 209 205 209 177
1530.0 171 164 186 202 180 161 181 213 200 171
1570.0 186 183 179 149 139 132 114 109 100 105
1610.0 94 110 116 111 116 103 118 126 103 123
1650.0 127 149 101 98 108 106 126 109 129 154
1690.0 124 123 164 157 135 112 127 139 101 91
1730.0 109 135 112 105 118 122 103 93 92 80
1770.0 89 101 76 84 84 96 100 100 112 102
1810.0 106 108 103 98 98 95 82 66 75 80
1850.0 67 61 60 60 70 77 64 60 62 68
1890.0 73 71 72 75 82 86 96 107 120 121
1930.0 129 131 133 139 130 114 108 93 77 65
1970.0 57 50 48 45 47 49 48 43 40 42
2010.0 38 42 43 45 49 51 53 60 66 70
2050.0 74 76 75 77 70 67 64 67 66 69
2090.0 76 68 65 64 62 61 59 59 58 56
2130.0 58 60 64 67 77 82 94 106 116 123
2170.0 127 129 122 111 97 79 62 51 42 39
2210.0 38 35 36 33 35 35 35 33 33 34
2250.0 33 35 33 37 39 42 43 42 46 47
2290.0 53 52 59 63 70 71 77 84 87 77
2330.0 68 57 40 45 4 64 114 96 47 0
2370.0 2 2 2 2 2 12 18 22 26 26
2410.0 23 21 20 16 12 10 8 6 5 5
2450.0 6 6 4 6 6 9 3 6 4 4
2490.0 4 2 2 2 2 5 6 4 4 4
2530.0 2 8 7 9 10 13 14 15 17 17
2570.0 22 25 28 30 33 32 32 36 36 38
2610.0 40 43 41 42 42 44 40 39 33 34
2650.0 30 34 36 35 41 39 41 36 38 37
2690.0 35 37 37 36 40 48 55 64 69 79
2730.0 85 88 91 88 91 90 89 84 93 96
2770.0 103 108 119 130 145 171 196 236 295 388
2810.0 536 740 994 1198 1405 1564 1632 1678 1452 1316
2850.0 1215 1016 888 867 957 1084 1264 1457 1657 1863
2890.0 2079 2341 2569 2774 2947 3059 3174 3268 3363 3464
2930.0 3610 3715 3796 3880 3965 3973 4010 4371 5170 6301
2970.0 7263 8431 9084 9373 10000 8003 6414 5237 3721 2351
3010.0 1415 888 624 477 390 340 303 271 257 233
3050.0 219 210 205 197 191 186 183 181 173 169
3090.0 159 147 145 135 123 113 103 103 97 91
3130.0 91 86 90 87 79 82 85 77 82 77
3170.0 79 81 80 76 81 77 79 78 81 74
3210.0 76 78 81 77 81 88 87 81 78 67
3250.0 70 59 56 47 39 41 30 29 32 33
3290.0 25 32 36 31 40 48 48 59 59 67
3330.0 52 56 53 52 52 46 47 49 40 46
3370.0 50 53 50 51 63 61 64 50 47 55
3410.0 57 42 55 67 60 69 58 56 53 55
3450.0 62 53 56 59 46 58 60 50 57 46
3490.0 55 61 55 55 54 47 49 45 49 46
3530.0 37 38 42 41 47 51 51 49 46 37
3570.0 39 30 44 52 53 48 37 37 36 46
3610.0 23 20 34 24 53 34 17 20 21 38
3650.0 30 27 19 30 28 28 29 12 2 28
3690.0 36 15 24 31 20 22 7 3 37 3
3730.0 34 7 15 15 42 3 2 2 2 13
3770.0 11 2 2 2 3 18 15 21 5 14
3810.0 2 18 21 17 5 2 9 15 1 11
3850.0 21 27 2 12 23 22 20 9 13 24
3890.0 15 10 25 25 21 16 21 28 25 28
3930.0 19 17 29 17 15 19 27 12 7 33
##END=
