##TITLE=Decane, 1,10-diiodo-
##JCAMP-DX=4.24
##DATA TYPE=INFRARED SPECTRUM
##ORIGIN=Sadtler Research Labs Under US-EPA Contract
##OWNER=NIST Standard Reference Data Program
##CAS REGISTRY NO=16355-92-3
##MOLFORM=C 10 H 20 I 2
##XUNITS=1/CM
##YUNITS=ABSORBANCE
##XFACTOR=1.0
##YFACTOR=0.000070728
##DELTAX=4.0
##FIRSTX=450.0
##LASTX=3966.0
##FIRSTY=0.039042
##MAXX=3966
##MINX=450
##MAXY=0.70728
##MINY=0
##NPOINTS=880
##XYDATA=(X++(Y..Y))
450.0 552 337 176 896 340 461 1011 599 497 452
490.0 1334 650 0 568 600 412 592 252 456 569
530.0 512 401 422 509 380 453 413 643 427 492
570.0 543 575 832 345 622 642 687 778 771 636
610.0 604 519 498 471 459 451 414 480 407 452
650.0 398 457 430 417 447 513 465 385 474 434
690.0 489 474 535 517 541 631 637 717 674 708
730.0 680 679 636 620 598 544 575 501 551 452
770.0 485 426 532 480 502 473 483 510 412 488
810.0 413 453 417 509 433 403 386 429 432 406
850.0 480 394 447 349 448 455 439 450 426 465
890.0 401 481 414 516 476 568 525 553 508 467
930.0 478 425 478 395 473 409 467 419 462 466
970.0 460 455 422 456 402 488 438 473 422 449
1010.0 435 424 444 422 449 398 467 399 449 402
1050.0 454 419 432 440 421 451 425 482 433 512
1090.0 479 527 527 588 630 658 714 702 723 650
1130.0 651 591 598 565 599 618 672 784 925 1155
1170.0 1359 1510 1440 1360 1300 1335 1372 1440 1488 1484
1210.0 1451 1395 1351 1263 1232 1181 1146 1080 1036 990
1250.0 940 914 898 881 862 840 816 786 756 753
1290.0 728 720 700 692 643 619 576 544 501 488
1330.0 490 501 549 600 689 744 781 724 691 643
1370.0 619 570 489 442 397 379 346 357 336 359
1410.0 366 397 421 480 574 710 859 915 944 929
1450.0 1027 1113 1207 1183 1070 904 690 544 431 381
1490.0 323 312 277 275 255 256 249 239 238 226
1530.0 229 216 230 215 218 217 216 206 208 213
1570.0 204 207 201 210 198 202 206 204 203 211
1610.0 208 208 198 206 211 222 222 246 242 238
1650.0 227 207 201 185 190 185 190 185 187 179
1690.0 179 186 181 183 185 198 181 205 194 209
1730.0 197 210 193 202 208 208 222 185 203 172
1770.0 186 158 183 166 166 167 159 171 148 172
1810.0 144 168 144 166 146 166 159 151 155 134
1850.0 158 126 157 129 157 124 149 137 138 143
1890.0 126 148 111 151 117 141 109 141 120 124
1930.0 124 112 132 107 139 112 144 113 143 123
1970.0 130 128 125 128 110 136 105 131 112 130
2010.0 113 125 127 128 131 119 139 114 137 118
2050.0 131 121 136 130 126 139 122 134 111 128
2090.0 109 117 111 115 114 108 116 104 116 106
2130.0 113 105 111 104 102 108 99 107 103 110
2170.0 99 100 97 99 102 93 103 95 104 95
2210.0 100 95 90 94 92 97 81 98 86 90
2250.0 77 95 88 91 91 87 101 86 110 100
2290.0 129 128 155 157 171 192 168 183 159 190
2330.0 149 214 170 206 208 227 214 189 278 264
2370.0 310 212 239 171 157 91 97 74 68 79
2410.0 57 72 38 77 44 63 44 63 49 48
2450.0 53 44 56 40 59 30 60 28 53 41
2490.0 45 51 40 58 41 61 43 71 49 64
2530.0 53 57 54 48 63 52 65 44 69 51
2570.0 68 57 71 66 61 70 68 78 72 79
2610.0 71 80 67 75 73 83 84 83 104 102
2650.0 109 105 115 114 113 126 125 134 141 133
2690.0 146 133 131 126 127 106 121 104 105 114
2730.0 111 113 114 126 123 149 123 153 148 160
2770.0 162 163 169 164 203 200 236 231 263 260
2810.0 305 317 357 398 448 531 610 788 985 1297
2850.0 1607 2173 2908 3698 3974 3574 2934 2342 2012 1799
2890.0 1786 1790 1926 2059 2338 2714 3237 3984 4999 6556
2930.0 8261 9771 10000 8989 7027 5237 3740 2824 2348 2176
2970.0 2093 1810 1482 1139 918 735 651 579 566 582
3010.0 633 722 695 565 399 349 290 267 228 226
3050.0 203 200 178 182 194 154 167 174 191 199
3090.0 201 170 144 133 115 116 95 111 106 105
3130.0 118 99 94 94 90 105 78 103 83 89
3170.0 77 94 89 91 71 78 90 79 84 70
3210.0 78 58 77 61 70 78 77 85 68 110
3250.0 66 79 63 88 56 80 57 92 83 54
3290.0 105 69 85 50 89 57 86 89 61 70
3330.0 100 101 53 82 40 86 47 106 88 107
3370.0 86 87 95 67 101 86 114 54 98 69
3410.0 92 85 84 64 69 92 54 112 73 91
3450.0 80 78 55 85 72 69 116 103 49 67
3490.0 75 56 96 79 90 66 61 89 71 58
3530.0 80 89 35 90 71 73 73 61 70 71
3570.0 60 85 77 88 75 85 49 75 64 78
3610.0 58 81 64 58 112 76 82 56 74 54
3650.0 95 65 76 96 47 100 65 66 33 73
3690.0 60 40 99 80 102 33 46 29 104 54
3730.0 65 49 93 35 30 104 101 68 84 91
3770.0 23 78 24 88 22 43 58 91 88 63
3810.0 131 56 109 40 102 54 59 52 96 109
3850.0 99 66 74 91 54 86 90 107 80 55
3890.0 87 50 128 110 89 133 82 99 123 30
3930.0 87 66 100 51 63 136 80 55 28 184
##END=
