##TITLE=Octadecane-d38
##JCAMP-DX=4.24
##DATA TYPE=INFRARED SPECTRUM
##ORIGIN=Sadtler Research Labs Under US-EPA Contract
##OWNER=NIST Standard Reference Data Program
##CAS REGISTRY NO=16416-31-2
##MOLFORM=C 18 D 38
##XUNITS=1/CM
##YUNITS=ABSORBANCE
##XFACTOR=1.0
##YFACTOR=0.000082016
##DELTAX=4.0
##FIRSTX=450.0
##LASTX=3966.0
##FIRSTY=0.000000
##MAXX=3966
##MINX=450
##MAXY=0.82016
##MINY=0
##NPOINTS=880
##XYDATA=(X++(Y..Y))
450.0 0 77 153 139 92 131 114 127 113 76
490.0 127 104 145 120 161 176 169 183 221 237
530.0 271 290 289 274 277 265 226 225 237 220
570.0 223 197 209 190 204 186 210 179 170 141
610.0 161 137 155 143 140 138 141 135 159 140
650.0 155 145 150 148 154 151 154 147 151 155
690.0 155 154 172 171 170 183 189 190 185 169
730.0 155 146 148 147 158 158 166 166 171 172
770.0 164 168 171 169 168 164 165 145 145 139
810.0 142 137 129 115 113 116 109 129 139 139
850.0 157 156 163 172 180 172 170 169 157 156
890.0 148 154 145 146 130 130 128 127 134 137
930.0 155 162 175 196 215 245 267 294 312 317
970.0 326 327 330 325 302 276 247 222 213 209
1010.0 203 205 201 208 217 237 271 291 310 331
1050.0 381 468 594 672 653 628 655 772 997 1265
1090.0 1269 966 652 485 407 368 347 328 321 317
1130.0 311 307 301 298 296 301 294 286 286 284
1170.0 285 285 282 269 257 251 236 231 218 212
1210.0 200 195 191 184 177 171 168 158 153 156
1250.0 152 145 143 144 157 158 163 168 177 189
1290.0 204 219 234 251 266 255 210 173 144 131
1330.0 126 120 119 117 115 113 109 112 111 105
1370.0 107 104 107 106 106 107 105 100 100 101
1410.0 100 100 95 94 100 102 102 99 96 99
1450.0 96 94 94 94 100 99 104 110 115 109
1490.0 110 101 94 90 84 78 76 84 97 107
1530.0 106 105 108 112 111 111 110 110 109 109
1570.0 108 103 99 103 97 93 93 95 91 92
1610.0 92 96 93 95 92 93 94 96 96 94
1650.0 99 95 89 95 91 90 90 89 89 93
1690.0 94 96 98 97 94 97 94 94 96 97
1730.0 97 98 97 98 103 107 104 103 105 103
1770.0 101 102 102 106 106 109 105 109 112 112
1810.0 111 113 112 111 116 113 115 115 118 117
1850.0 118 120 119 121 119 121 125 122 122 120
1890.0 120 123 124 126 130 130 133 137 141 146
1930.0 154 164 173 180 187 197 197 198 200 201
1970.0 205 207 210 210 214 220 225 232 243 252
2010.0 265 275 293 306 323 348 377 409 453 511
2050.0 585 677 806 964 1172 1448 1792 2136 2447 2835
2090.0 3410 4161 4980 5608 5727 5241 4450 3718 3144 2712
2130.0 2398 2173 2021 1922 1866 1833 1825 1837 1873 1933
2170.0 2043 2232 2553 3054 3832 5007 6712 8695 10000 9554
2210.0 8090 6833 6239 5931 5100 3826 2774 2121 1711 1429
2250.0 1215 1052 920 807 711 631 564 501 452 412
2290.0 383 360 341 325 317 309 290 282 273 263
2330.0 249 237 218 231 213 219 207 217 212 205
2370.0 186 181 170 159 152 136 127 127 120 116
2410.0 112 114 108 105 102 99 100 97 95 94
2450.0 95 92 93 90 90 88 88 86 88 88
2490.0 87 86 85 86 87 83 86 84 86 85
2530.0 84 89 84 85 86 89 90 89 87 92
2570.0 94 95 98 100 99 97 95 91 91 94
2610.0 92 92 94 87 91 84 84 83 82 79
2650.0 80 80 79 81 78 79 79 79 77 78
2690.0 82 79 84 75 77 78 80 81 81 84
2730.0 84 82 82 82 85 83 84 81 81 81
2770.0 81 85 80 80 80 84 81 82 87 84
2810.0 86 86 85 91 90 87 92 93 97 102
2850.0 104 111 122 126 137 151 169 202 258 362
2890.0 514 661 809 933 874 710 586 496 392 309
2930.0 274 272 267 249 264 252 192 150 131 121
2970.0 112 111 102 100 98 90 98 93 93 95
3010.0 91 95 93 93 88 92 92 91 98 95
3050.0 97 94 96 102 106 102 101 106 112 112
3090.0 114 116 118 126 123 131 126 128 127 129
3130.0 132 132 139 140 135 152 157 159 169 169
3170.0 168 170 173 171 167 168 157 156 155 156
3210.0 156 150 148 145 140 134 133 133 130 125
3250.0 125 134 131 135 134 139 147 136 138 129
3290.0 120 116 109 109 108 106 112 110 110 105
3330.0 102 100 102 101 91 96 93 86 84 88
3370.0 94 84 88 85 89 88 82 75 85 92
3410.0 87 92 86 80 83 82 91 92 92 89
3450.0 88 85 89 83 95 87 87 84 88 89
3490.0 95 92 89 86 79 87 83 89 91 80
3530.0 88 89 87 80 89 87 85 85 97 82
3570.0 84 89 88 86 87 86 96 91 89 87
3610.0 95 97 91 88 91 91 85 98 93 87
3650.0 90 96 103 90 105 89 93 76 94 98
3690.0 99 94 93 97 92 105 97 93 90 86
3730.0 86 87 89 85 75 87 86 80 87 92
3770.0 93 102 91 92 95 103 94 89 93 83
3810.0 105 92 91 90 91 97 91 90 85 96
3850.0 86 99 85 96 95 106 98 82 97 77
3890.0 95 91 85 87 103 110 90 95 83 96
3930.0 103 95 90 75 85 78 101 99 100 102
##END=
