##TITLE=Tetracosane-d50
##JCAMP-DX=4.24
##DATA TYPE=INFRARED SPECTRUM
##ORIGIN=Sadtler Research Labs Under US-EPA Contract
##OWNER=NIST Standard Reference Data Program
##CAS REGISTRY NO=16416-32-3
##MOLFORM=C 24 D 50
##XUNITS=1/CM
##YUNITS=ABSORBANCE
##XFACTOR=1.0
##YFACTOR=0.000040906
##DELTAX=4.0
##FIRSTX=450.0
##LASTX=3966.0
##FIRSTY=0.009858
##MAXX=3966
##MINX=450
##MAXY=0.40906
##MINY=0
##NPOINTS=880
##XYDATA=(X++(Y..Y))
450.0 241 87 3 20 186 93 99 136 128 38
490.0 33 52 78 77 104 81 74 139 162 196
530.0 264 298 231 246 219 239 168 146 166 216
570.0 119 178 148 144 120 171 110 125 121 116
610.0 77 123 102 68 92 102 73 75 94 114
650.0 108 108 137 106 63 107 100 95 94 126
690.0 115 109 118 107 101 121 137 126 152 170
730.0 183 222 233 175 179 156 181 191 188 144
770.0 150 150 137 130 118 130 132 119 156 176
810.0 181 164 131 100 94 82 75 77 68 80
850.0 73 84 106 107 108 115 118 118 124 113
890.0 108 93 90 108 108 121 125 121 138 148
930.0 161 186 200 226 247 261 302 326 355 358
970.0 366 384 376 365 343 322 286 269 268 287
1010.0 283 292 294 299 318 337 351 368 381 398
1050.0 478 571 671 706 681 701 777 963 1287 1590
1090.0 1424 971 676 536 455 421 385 370 350 337
1130.0 327 319 313 308 307 303 300 291 286 281
1170.0 279 261 251 244 234 222 208 191 183 171
1210.0 171 163 159 156 150 140 139 127 123 118
1250.0 126 130 170 211 169 106 99 103 110 124
1290.0 142 159 172 187 190 159 132 105 86 75
1330.0 65 53 46 27 8 19 36 47 45 46
1370.0 46 53 43 43 44 39 43 36 34 42
1410.0 39 41 45 43 48 53 67 74 67 65
1450.0 86 85 94 83 57 52 46 53 43 46
1490.0 40 35 33 30 44 43 37 29 31 28
1530.0 35 41 48 50 49 46 51 38 56 46
1570.0 47 41 54 50 53 49 38 55 79 96
1610.0 90 81 69 72 77 82 99 95 73 68
1650.0 57 58 48 38 45 53 44 48 47 56
1690.0 50 59 71 84 90 103 122 149 174 187
1730.0 196 188 167 149 118 100 104 93 101 97
1770.0 108 104 98 90 88 79 83 76 77 74
1810.0 64 58 53 58 49 56 55 50 50 53
1850.0 51 50 56 56 55 51 53 58 59 59
1890.0 60 61 58 63 69 66 70 74 85 88
1930.0 97 112 115 124 136 138 142 152 150 152
1970.0 158 161 166 172 178 187 201 208 215 235
2010.0 249 259 278 294 332 356 394 437 499 572
2050.0 665 787 937 1128 1376 1689 2012 2357 2775 3327
2090.0 4032 4805 5498 5858 5644 4976 4208 3543 3020 2633
2130.0 2355 2155 2019 1944 1900 1886 1912 1942 2006 2101
2170.0 2259 2520 2947 3584 4520 5878 7653 9371 10000 9090
2210.0 7553 6345 5599 4928 4048 3096 2369 1888 1557 1315
2250.0 1129 969 847 736 643 563 494 434 391 354
2290.0 327 313 298 286 284 278 259 241 232 211
2330.0 183 174 164 179 181 167 173 172 162 140
2370.0 115 112 109 105 85 60 46 38 41 38
2410.0 31 24 23 22 25 17 19 12 14 13
2450.0 13 15 9 6 12 13 14 10 10 10
2490.0 9 7 3 3 12 6 8 4 6 8
2530.0 5 5 8 2 12 10 14 16 14 13
2570.0 18 23 20 22 21 18 20 18 20 19
2610.0 21 16 20 14 14 19 15 11 9 13
2650.0 15 13 15 14 8 21 12 21 10 7
2690.0 8 15 16 12 17 11 20 18 18 17
2730.0 24 26 24 19 28 25 25 31 30 33
2770.0 30 38 43 40 44 41 44 41 37 31
2810.0 31 38 36 52 38 38 47 40 43 51
2850.0 50 59 67 83 86 109 137 171 240 332
2890.0 433 525 593 621 553 439 359 291 228 192
2930.0 175 173 155 157 151 138 117 99 96 71
2970.0 65 61 62 46 53 52 46 49 35 45
3010.0 48 48 37 45 49 47 51 46 51 58
3050.0 65 68 69 71 73 85 92 87 77 81
3090.0 77 75 70 70 74 80 81 78 75 77
3130.0 86 84 83 91 94 100 106 107 117 118
3170.0 122 128 123 123 109 111 123 112 106 103
3210.0 109 105 104 93 91 85 81 84 86 73
3250.0 80 80 84 82 88 85 85 84 84 85
3290.0 71 53 61 57 51 49 51 49 43 49
3330.0 33 34 47 44 41 37 26 25 21 20
3370.0 21 15 14 21 25 31 23 19 24 28
3410.0 14 27 29 17 29 30 27 23 6 27
3450.0 14 29 22 17 19 17 11 10 7 14
3490.0 14 9 11 9 31 32 16 18 22 20
3530.0 8 10 27 19 11 11 16 3 31 21
3570.0 33 37 32 25 19 31 22 8 4 12
3610.0 10 10 13 32 43 30 17 29 20 30
3650.0 36 16 28 22 32 9 32 15 25 32
3690.0 16 24 12 1 11 29 32 26 26 21
3730.0 8 21 18 32 8 36 17 17 10 25
3770.0 29 25 23 10 22 19 21 7 28 26
3810.0 23 12 37 52 1 28 13 9 13 25
3850.0 11 18 25 22 22 24 20 28 8 8
3890.0 14 3 19 26 0 19 43 42 31 37
3930.0 9 34 24 22 12 32 20 14 31 26
##END=
