##TITLE=Cyclododecane-d24
##JCAMP-DX=4.24
##DATA TYPE=INFRARED SPECTRUM
##ORIGIN=Sadtler Research Labs Under US-EPA Contract
##OWNER=NIST Standard Reference Data Program
##CAS REGISTRY NO=16450-78-5
##MOLFORM=C 12 D 24
##XUNITS=1/CM
##YUNITS=ABSORBANCE
##XFACTOR=1.0
##YFACTOR=0.000111514
##DELTAX=4.0
##FIRSTX=450.0
##LASTX=3966.0
##FIRSTY=0.000000
##MAXX=3966
##MINX=450
##MAXY=1.11514
##MINY=0
##NPOINTS=880
##XYDATA=(X++(Y..Y))
450.0 0 58 53 85 33 53 65 54 67 69
490.0 36 36 63 71 76 96 121 166 165 155
530.0 191 207 283 312 371 400 421 382 315 249
570.0 187 137 87 83 71 71 86 77 77 62
610.0 71 70 72 81 74 82 89 89 92 98
650.0 105 87 79 88 80 97 91 85 90 88
690.0 84 89 70 77 70 73 65 69 66 67
730.0 71 73 73 97 113 140 161 169 157 127
770.0 103 83 80 74 70 67 68 61 66 66
810.0 70 65 61 62 58 69 70 71 75 74
850.0 71 59 65 55 65 61 64 61 71 75
890.0 80 88 82 80 83 74 72 80 77 93
930.0 99 117 127 142 163 172 184 209 262 344
970.0 454 566 683 758 745 650 485 332 233 174
1010.0 139 124 119 122 134 143 165 174 156 155
1050.0 145 151 180 220 290 391 536 711 871 1042
1090.0 1146 1203 1081 772 585 482 455 440 392 326
1130.0 250 210 188 187 201 237 287 338 348 317
1170.0 263 208 185 170 152 130 115 103 96 95
1210.0 91 94 90 86 83 79 80 77 77 75
1250.0 76 72 69 68 70 66 67 65 70 73
1290.0 76 83 93 97 100 101 95 81 74 64
1330.0 60 55 55 56 53 47 50 49 48 48
1370.0 48 47 50 47 47 47 48 47 45 46
1410.0 46 47 44 45 41 44 43 43 43 42
1450.0 46 45 50 46 45 46 46 46 45 48
1490.0 47 46 50 50 53 55 51 52 51 53
1530.0 48 49 51 50 50 48 51 48 50 49
1570.0 48 48 47 49 47 50 47 48 46 47
1610.0 48 50 52 49 49 52 52 53 53 51
1650.0 49 54 49 48 50 52 49 52 54 56
1690.0 55 60 65 68 71 80 95 106 116 120
1730.0 121 110 94 81 76 69 65 62 60 59
1770.0 61 60 58 56 53 54 53 54 52 53
1810.0 53 55 57 58 56 57 55 52 51 51
1850.0 52 51 52 50 53 56 59 57 58 56
1890.0 57 56 60 60 60 63 64 66 69 71
1930.0 73 75 79 83 88 97 108 117 127 136
1970.0 142 147 148 151 154 161 169 175 183 190
2010.0 192 194 197 200 207 214 227 242 269 302
2050.0 343 392 455 532 632 746 871 1048 1327 1825
2090.0 2628 3628 4521 5103 5259 5130 4944 4659 4278 3739
2130.0 3165 2683 2335 2124 2042 2020 2008 1997 1973 1944
2170.0 1939 2033 2321 2879 3775 5035 6570 8163 9465 10000
2210.0 9321 7714 5710 3942 2823 2190 1777 1499 1297 1136
2250.0 994 868 751 643 544 458 389 341 309 289
2290.0 270 264 258 250 246 245 233 225 223 218
2330.0 208 200 189 182 170 158 163 163 158 144
2370.0 136 135 123 115 104 93 84 82 80 81
2410.0 77 74 74 70 68 67 65 63 62 57
2450.0 57 52 55 52 49 48 49 47 43 43
2490.0 42 39 39 40 41 39 39 38 40 43
2530.0 43 39 39 40 39 40 42 43 40 40
2570.0 40 42 40 41 42 39 39 40 40 39
2610.0 44 42 42 42 41 42 40 38 40 38
2650.0 39 36 37 37 35 38 38 34 33 36
2690.0 39 35 37 36 38 36 37 37 38 39
2730.0 40 41 39 38 39 38 38 38 38 37
2770.0 37 40 38 36 37 36 35 37 36 38
2810.0 40 38 38 39 39 39 39 40 39 44
2850.0 45 47 50 49 49 53 54 57 66 89
2890.0 135 219 315 384 371 316 219 156 116 103
2930.0 104 103 91 78 67 55 56 53 49 51
2970.0 51 50 46 43 46 46 44 46 44 43
3010.0 41 41 44 44 44 44 46 47 49 51
3050.0 51 49 52 50 57 57 59 59 64 66
3090.0 66 67 70 73 71 73 75 76 74 78
3130.0 86 85 92 93 94 100 103 112 111 118
3170.0 119 120 118 117 116 106 105 97 94 96
3210.0 91 89 90 88 85 84 84 84 79 79
3250.0 79 80 81 89 90 98 96 104 97 94
3290.0 93 81 80 73 67 67 62 70 65 67
3330.0 55 63 55 55 51 51 47 46 46 46
3370.0 47 45 47 46 43 44 47 46 45 44
3410.0 46 46 45 40 46 47 47 43 40 41
3450.0 39 41 46 42 43 42 37 40 42 40
3490.0 44 42 39 41 47 42 40 44 40 42
3530.0 40 42 41 47 41 41 38 35 37 33
3570.0 42 41 47 37 40 42 38 42 37 36
3610.0 35 36 43 44 45 36 39 44 46 46
3650.0 38 45 46 45 47 41 48 34 46 44
3690.0 42 46 40 41 36 41 43 41 40 37
3730.0 45 34 48 53 46 48 37 41 43 41
3770.0 42 43 54 41 52 42 47 47 44 43
3810.0 54 39 42 39 50 46 46 43 49 48
3850.0 50 56 39 54 41 40 49 48 49 39
3890.0 46 41 49 36 54 51 48 43 35 47
3930.0 49 42 44 41 33 46 41 49 49 37
##END=
