##TITLE=Benzenamine, 2-((4-methylphenyl)thio)-
##JCAMP-DX=4.24
##DATA TYPE=INFRARED SPECTRUM
##ORIGIN=Sadtler Research Labs Under US-EPA Contract
##OWNER=NIST Standard Reference Data Program
##CAS REGISTRY NO=16452-09-8
##MOLFORM=C 13 H 13 N S
##XUNITS=1/CM
##YUNITS=ABSORBANCE
##XFACTOR=1.0
##YFACTOR=0.000037204
##DELTAX=4.0
##FIRSTX=450.0
##LASTX=3966.0
##FIRSTY=0.053425
##MAXX=3966
##MINX=450
##MAXY=0.37204
##MINY=0
##NPOINTS=880
##XYDATA=(X++(Y..Y))
450.0 1436 912 1082 562 293 123 388 421 553 774
490.0 945 1032 1225 1306 1193 993 723 510 314 286
530.0 150 188 263 352 399 280 212 180 117 1
570.0 14 66 97 171 160 228 202 217 243 282
610.0 281 343 414 488 482 459 385 371 381 378
650.0 374 416 441 441 474 659 746 842 950 901
690.0 814 788 832 832 888 921 982 1078 1184 1453
730.0 2022 3288 5693 8337 8676 6626 3856 2294 1563 1277
770.0 1195 1142 1235 1399 1651 2060 2792 3838 5012 4952
810.0 3675 2456 1641 1221 962 770 609 521 473 435
850.0 369 314 219 184 154 149 141 140 148 161
890.0 149 139 159 154 167 154 162 160 168 214
930.0 293 376 355 266 201 191 193 194 182 203
970.0 209 220 210 220 227 229 242 261 400 615
1010.0 1159 2051 2339 1969 1375 918 742 631 631 636
1050.0 628 622 649 767 940 1265 1679 2025 2110 1846
1090.0 1438 1059 806 659 582 559 603 606 501 410
1130.0 393 450 529 638 691 868 1338 1660 1309 627
1170.0 222 123 274 525 505 304 94 76 173 273
1210.0 308 267 273 311 395 467 513 625 884 1232
1250.0 1472 1342 914 560 393 369 398 483 685 1020
1290.0 1546 2233 2974 3524 3658 3211 2322 1430 789 433
1330.0 286 238 227 216 193 180 161 159 154 147
1370.0 172 242 311 390 448 507 595 689 716 712
1410.0 698 678 714 753 831 970 1284 1764 2402 2892
1450.0 2832 2407 2029 1961 2566 3985 5951 7739 7842 7950
1490.0 8167 7444 5788 3711 2209 1472 979 690 548 438
1530.0 394 382 424 448 508 584 701 838 1006 1175
1570.0 1345 1544 1830 2172 2503 2952 3512 4500 5989 7984
1610.0 9607 10000 9071 7078 5038 3279 2228 1504 1082 787
1650.0 609 478 378 309 295 288 300 314 323 308
1690.0 269 235 214 194 177 175 189 180 168 182
1730.0 216 237 224 224 232 240 262 266 290 321
1770.0 399 425 409 345 264 179 139 131 134 113
1810.0 84 62 40 38 29 37 42 60 70 99
1850.0 112 140 165 195 223 241 271 316 395 466
1890.0 521 500 433 331 238 189 182 211 247 245
1930.0 204 123 64 32 29 27 27 22 24 18
1970.0 26 31 29 28 32 25 24 31 32 33
2010.0 29 28 20 14 2 4 6 10 7 5
2050.0 3 8 0 3 8 9 15 14 22 16
2090.0 15 12 16 21 21 21 14 18 18 31
2130.0 26 30 24 30 31 28 24 29 34 25
2170.0 28 25 33 27 18 21 11 14 7 17
2210.0 10 6 8 1 8 11 8 13 12 8
2250.0 9 9 14 27 17 33 37 53 67 85
2290.0 96 124 149 163 175 184 176 177 173 159
2330.0 128 91 84 97 94 122 148 106 130 95
2370.0 65 75 67 82 75 51 44 50 51 44
2410.0 48 49 49 44 37 37 30 40 41 47
2450.0 51 52 48 45 43 41 32 23 21 13
2490.0 19 16 20 28 31 36 38 49 41 58
2530.0 54 62 64 69 78 77 81 80 67 65
2570.0 66 68 81 84 89 101 112 116 128 146
2610.0 151 143 133 103 83 74 71 68 60 58
2650.0 51 43 49 41 44 50 50 62 62 60
2690.0 67 71 62 66 69 58 57 61 62 71
2730.0 94 103 144 176 179 160 126 103 84 86
2770.0 90 92 97 91 89 98 97 98 108 106
2810.0 107 123 145 147 159 174 185 229 262 315
2850.0 385 476 586 729 900 1082 1218 1289 1286 1244
2890.0 1162 1060 971 929 953 1007 1103 1288 1506 1838
2930.0 2244 2522 2432 1973 1452 1071 891 812 777 781
2970.0 796 820 857 890 919 964 1022 1120 1274 1452
3010.0 1756 2182 2766 3401 3708 3430 2812 2334 2186 2219
3050.0 2336 2547 2742 2910 3092 3399 3652 3517 2906 2028
3090.0 1312 898 670 518 413 338 293 224 193 176
3130.0 184 182 173 178 153 140 118 130 136 136
3170.0 128 133 151 135 133 128 113 93 71 75
3210.0 66 68 52 45 43 56 53 45 34 26
3250.0 29 28 31 53 54 49 41 44 50 64
3290.0 61 63 79 96 93 104 115 129 142 180
3330.0 203 226 255 293 337 400 456 515 592 663
3370.0 744 840 961 1116 1354 1699 1963 1953 1617 1153
3410.0 760 529 430 372 338 333 383 376 413 472
3450.0 527 567 627 720 768 867 971 1019 1154 1312
3490.0 1485 1752 1940 1953 1699 1298 895 582 412 262
3530.0 203 138 118 76 109 88 58 80 62 70
3570.0 18 37 46 39 50 26 35 20 67 33
3610.0 47 43 37 29 11 53 31 46 40 33
3650.0 34 33 50 56 45 74 46 49 34 37
3690.0 38 48 58 45 39 57 47 38 30 36
3730.0 7 51 56 48 53 52 54 69 28 50
3770.0 53 48 26 54 56 57 11 33 40 17
3810.0 33 89 31 41 42 34 80 86 73 72
3850.0 92 101 109 93 102 95 58 68 50 97
3890.0 85 98 130 134 83 83 82 94 82 61
3930.0 73 73 85 72 81 84 93 45 54 37
##END=
