##TITLE=Cyclohexanol, 1-, 3-piperidino-2-ethoxy-1-propynyl-,
##JCAMP-DX=4.24
##DATA TYPE=INFRARED SPECTRUM
##ORIGIN=Sadtler Research Labs Under US-EPA Contract
##OWNER=NIST Standard Reference Data Program
##CAS REGISTRY NO=16464-43-0
##MOLFORM=C 16 H 27 N O 2
##XUNITS=1/CM
##YUNITS=ABSORBANCE
##XFACTOR=1.0
##YFACTOR=0.000083334
##DELTAX=4.0
##FIRSTX=450.0
##LASTX=3966.0
##FIRSTY=0.016834
##MAXX=3966
##MINX=450
##MAXY=0.83334
##MINY=0
##NPOINTS=880
##XYDATA=(X++(Y..Y))
450.0 202 101 75 94 77 77 40 57 42 77
490.0 80 86 89 103 86 124 118 153 154 118
530.0 138 147 165 147 151 144 125 120 89 73
570.0 89 66 72 81 82 66 64 68 81 73
610.0 89 60 73 82 36 39 38 41 27 47
650.0 50 53 47 64 71 73 43 23 19 20
690.0 32 30 27 38 31 2 26 19 17 15
730.0 24 24 44 53 76 110 154 178 173 138
770.0 137 138 126 114 94 66 62 55 59 62
810.0 75 84 98 110 125 122 119 145 171 210
850.0 238 235 249 245 203 151 126 122 124 143
890.0 177 219 274 320 307 268 244 255 271 305
930.0 352 404 448 475 525 629 813 1049 1169 1057
970.0 801 572 446 389 383 409 447 476 502 525
1010.0 557 586 618 675 756 798 855 935 1018 1111
1050.0 1260 1451 1641 1768 1831 1794 1677 1596 1642 1789
1090.0 2005 2325 2719 3057 3240 3188 2912 2525 2149 1833
1130.0 1551 1290 1054 884 780 779 882 1029 1090 1073
1170.0 1044 997 906 783 660 555 490 456 445 443
1210.0 447 439 423 409 408 419 439 470 524 593
1250.0 695 814 932 953 875 792 726 677 652 646
1290.0 663 704 773 859 909 920 921 936 967 1001
1330.0 1026 1044 1099 1198 1354 1491 1492 1356 1182 1046
1370.0 959 878 787 719 653 561 459 382 334 304
1410.0 274 268 271 279 308 371 455 607 766 936
1450.0 1031 1036 952 798 678 547 404 280 203 148
1490.0 120 92 80 63 66 55 45 38 46 37
1530.0 23 35 31 41 34 35 37 46 51 44
1570.0 49 47 55 42 45 45 52 50 53 50
1610.0 50 51 56 58 49 54 49 54 46 61
1650.0 49 77 50 50 45 55 49 59 59 77
1690.0 77 95 112 141 143 161 182 209 223 232
1730.0 229 212 151 111 102 106 105 97 86 72
1770.0 69 60 52 54 58 57 65 57 56 57
1810.0 54 46 43 24 16 9 4 1 0 2
1850.0 0 0 1 4 0 4 0 2 2 1
1890.0 7 5 5 4 9 12 13 19 11 15
1930.0 16 14 11 12 10 9 7 7 8 9
1970.0 10 10 11 12 11 9 13 13 14 13
2010.0 16 17 19 17 17 16 17 13 14 13
2050.0 16 15 14 11 13 11 15 11 11 12
2090.0 9 11 11 11 11 13 12 10 10 14
2130.0 13 8 10 12 6 8 8 8 10 9
2170.0 9 10 9 10 11 9 13 12 16 16
2210.0 17 19 24 25 30 26 25 25 27 24
2250.0 20 18 16 12 12 12 13 16 20 26
2290.0 32 38 43 43 51 58 48 35 27 18
2330.0 13 4 12 10 27 40 20 23 16 11
2370.0 23 29 35 35 27 15 9 5 8 7
2410.0 10 12 10 9 12 7 7 5 6 4
2450.0 6 5 4 5 8 8 13 15 16 17
2490.0 18 16 16 16 19 17 16 16 14 13
2530.0 13 12 13 12 11 15 15 18 18 20
2570.0 24 29 38 45 50 60 64 71 76 79
2610.0 82 86 88 93 97 102 103 117 128 144
2650.0 158 174 186 203 230 255 276 285 290 294
2690.0 304 316 332 344 358 370 381 397 428 462
2730.0 504 549 593 647 710 773 828 865 880 895
2770.0 923 975 1061 1150 1218 1237 1202 1136 1060 987
2810.0 928 885 863 856 849 850 864 914 1034 1255
2850.0 1592 2012 2447 2812 2914 2673 2234 1826 1552 1419
2890.0 1386 1439 1532 1625 1728 1848 2051 2397 2942 3707
2930.0 4724 6015 7782 9710 10000 7966 5343 3441 2220 1473
2970.0 1029 761 587 467 384 317 261 210 168 134
3010.0 111 99 84 71 66 58 52 47 41 38
3050.0 37 30 24 21 21 21 18 20 18 12
3090.0 11 11 12 16 12 8 6 10 7 13
3130.0 8 11 7 7 7 8 9 17 14 11
3170.0 11 10 18 17 11 8 13 10 12 10
3210.0 7 8 10 15 10 14 11 12 14 15
3250.0 11 12 6 13 11 13 5 9 10 8
3290.0 13 14 20 21 20 21 29 29 30 32
3330.0 30 31 26 27 21 21 33 30 30 34
3370.0 33 36 35 38 32 29 34 36 44 38
3410.0 42 41 38 44 40 37 41 47 45 47
3450.0 42 53 50 51 49 52 51 57 56 58
3490.0 50 55 60 55 62 50 57 54 45 47
3530.0 52 50 39 47 50 44 49 38 35 39
3570.0 38 27 34 27 37 40 41 38 39 46
3610.0 62 77 87 99 132 200 260 305 308 237
3650.0 163 96 55 34 21 32 21 21 27 18
3690.0 16 20 4 14 13 13 13 13 26 23
3730.0 18 7 17 7 35 8 27 14 22 11
3770.0 12 4 9 12 12 27 23 16 24 25
3810.0 10 21 16 21 11 8 18 25 25 30
3850.0 20 43 34 17 39 17 32 35 40 36
3890.0 23 33 25 30 41 25 21 20 21 25
3930.0 17 10 18 15 17 16 33 22 18 14
##END=
