##TITLE=Cyclohexanol, 1-, 3-diisopropylamino-2-ethoxy-1-propynyl-,
##JCAMP-DX=4.24
##DATA TYPE=INFRARED SPECTRUM
##ORIGIN=Sadtler Research Labs Under US-EPA Contract
##OWNER=NIST Standard Reference Data Program
##CAS REGISTRY NO=16464-42-9
##MOLFORM=C 17 H 31 N O 2
##XUNITS=1/CM
##YUNITS=ABSORBANCE
##XFACTOR=1.0
##YFACTOR=0.000083875
##DELTAX=4.0
##FIRSTX=450.0
##LASTX=3966.0
##FIRSTY=0.003523
##MAXX=3966
##MINX=450
##MAXY=0.83875
##MINY=0
##NPOINTS=880
##XYDATA=(X++(Y..Y))
450.0 42 87 114 101 80 109 80 110 124 124
490.0 124 141 161 163 130 150 155 174 205 213
530.0 215 255 269 254 253 230 196 188 174 176
570.0 161 149 115 117 100 83 81 83 104 103
610.0 107 97 78 69 35 23 9 19 10 18
650.0 40 41 53 82 81 86 52 36 31 32
690.0 37 36 33 32 39 19 33 22 16 10
730.0 1 15 14 5 11 20 11 0 12 8
770.0 15 15 19 30 34 23 26 26 27 24
810.0 29 41 46 51 74 79 94 137 175 196
850.0 191 155 113 98 89 109 137 166 190 217
890.0 248 303 348 390 370 314 286 276 283 302
930.0 334 385 432 519 637 831 1096 1421 1601 1467
970.0 1138 859 691 605 577 572 589 624 670 710
1010.0 716 732 773 852 942 1006 1033 1052 1111 1252
1050.0 1495 1807 2116 2322 2407 2389 2323 2319 2493 2843
1090.0 3360 3998 4696 5277 5506 5252 4570 3738 2960 2374
1130.0 1953 1694 1541 1454 1395 1325 1243 1214 1257 1371
1170.0 1506 1601 1650 1649 1611 1546 1466 1400 1390 1417
1210.0 1411 1312 1163 1042 967 932 922 941 1002 1095
1250.0 1207 1299 1352 1273 1098 935 843 795 785 796
1290.0 830 885 938 988 1044 1095 1147 1191 1231 1270
1330.0 1319 1365 1424 1493 1609 1849 2153 2336 2375 2309
1370.0 2128 1915 1781 1715 1613 1438 1265 1088 891 706
1410.0 555 460 399 374 371 407 462 584 731 936
1450.0 1119 1208 1189 1139 1111 996 804 621 472 346
1490.0 259 200 164 134 120 105 95 85 82 69
1530.0 60 62 59 57 51 52 52 54 53 49
1570.0 51 50 53 47 49 49 56 54 53 50
1610.0 52 52 53 53 53 54 51 53 47 54
1650.0 45 64 51 49 47 54 51 60 59 73
1690.0 73 86 92 105 106 112 123 129 133 141
1730.0 137 124 89 74 77 81 81 75 71 64
1770.0 62 53 44 38 37 29 27 20 15 14
1810.0 11 5 4 1 1 2 1 1 1 3
1850.0 2 2 4 7 3 7 5 6 6 6
1890.0 7 8 7 9 12 15 18 19 15 19
1930.0 17 16 13 16 15 16 14 16 14 13
1970.0 14 17 21 20 19 21 24 22 26 25
2010.0 28 30 32 30 31 30 29 31 28 25
2050.0 25 23 26 23 22 24 27 26 26 25
2090.0 23 24 23 23 19 23 21 19 15 20
2130.0 17 15 13 15 11 11 10 10 13 13
2170.0 11 10 11 12 14 12 18 18 22 23
2210.0 24 27 30 32 35 33 31 29 29 28
2250.0 24 20 18 15 15 16 20 23 23 27
2290.0 29 33 39 37 39 49 39 29 26 15
2330.0 9 2 9 9 13 29 12 19 12 10
2370.0 13 21 27 27 22 10 6 2 5 3
2410.0 4 5 6 4 2 4 3 1 4 3
2450.0 4 7 7 5 9 9 11 12 13 8
2490.0 8 7 5 6 7 7 7 2 4 5
2530.0 3 6 4 4 5 8 10 13 13 17
2570.0 19 25 29 34 40 47 57 69 76 92
2610.0 95 98 96 89 85 78 72 75 74 75
2650.0 77 81 88 94 102 106 111 112 113 115
2690.0 116 123 133 137 143 149 150 152 159 162
2730.0 165 165 168 171 178 186 197 209 219 232
2770.0 246 263 286 313 344 377 416 457 497 541
2810.0 583 620 659 696 731 799 891 1038 1257 1571
2850.0 1983 2423 2837 3209 3382 3275 3041 2786 2547 2363
2890.0 2248 2217 2247 2307 2367 2446 2564 2743 3104 3753
2930.0 4680 5850 7409 9232 10000 8642 6592 5285 4994 5439
2970.0 5979 5929 5256 4253 3201 2336 1658 1153 817 607
3010.0 478 405 341 297 261 232 205 186 161 144
3050.0 135 121 109 99 95 89 86 84 84 80
3090.0 76 71 70 74 66 63 57 61 60 57
3130.0 55 57 54 54 51 49 49 52 51 50
3170.0 49 42 45 46 42 43 43 37 42 35
3210.0 34 35 35 32 31 29 25 22 25 21
3250.0 18 17 16 18 13 17 12 14 9 12
3290.0 15 14 21 19 20 25 22 25 26 26
3330.0 24 23 20 22 18 17 30 26 28 31
3370.0 26 22 20 30 28 26 28 31 32 28
3410.0 30 28 30 38 34 33 31 41 37 41
3450.0 33 45 44 48 35 45 43 37 48 45
3490.0 36 47 44 43 47 40 44 40 36 37
3530.0 38 38 34 38 40 39 39 31 30 36
3570.0 33 26 22 14 32 32 37 34 34 48
3610.0 62 86 105 141 192 305 400 471 444 346
3650.0 230 126 82 50 26 25 22 18 27 22
3690.0 18 18 2 6 13 15 13 12 24 23
3730.0 18 7 13 1 26 11 18 31 23 15
3770.0 17 10 17 14 24 29 26 27 30 31
3810.0 23 33 27 34 20 17 26 33 36 47
3850.0 28 41 42 28 37 33 46 36 37 33
3890.0 29 44 39 29 43 29 19 18 17 30
3930.0 28 24 19 15 17 25 43 27 34 25
##END=
