##TITLE=4-Hexyn-3-ol, 3-methyl-6-(2-piperidinoethoxy)-,
##JCAMP-DX=4.24
##DATA TYPE=INFRARED SPECTRUM
##ORIGIN=Sadtler Research Labs Under US-EPA Contract
##OWNER=NIST Standard Reference Data Program
##CAS REGISTRY NO=16464-38-3
##MOLFORM=C 14 H 25 N O 2
##XUNITS=1/CM
##YUNITS=ABSORBANCE
##XFACTOR=1.0
##YFACTOR=0.000114563
##DELTAX=4.0
##FIRSTX=450.0
##LASTX=3966.0
##FIRSTY=0.000000
##MAXX=3966
##MINX=450
##MAXY=1.14563
##MINY=0
##NPOINTS=880
##XYDATA=(X++(Y..Y))
450.0 0 70 81 94 30 30 78 22 30 78
490.0 83 68 93 98 74 83 89 81 83 91
530.0 110 122 115 141 157 162 181 160 164 142
570.0 133 150 170 175 177 176 178 167 140 108
610.0 91 67 65 46 37 46 46 33 29 35
650.0 49 53 57 86 119 147 121 114 91 72
690.0 71 73 75 64 48 36 37 38 37 41
730.0 42 58 72 82 109 139 183 204 185 133
770.0 118 120 132 145 142 124 113 97 90 99
810.0 100 110 132 147 137 138 127 133 159 199
850.0 249 307 363 367 310 240 200 189 176 203
890.0 246 328 460 635 839 1031 1115 1059 920 764
930.0 653 587 551 497 444 410 401 435 492 558
970.0 632 724 829 914 974 1023 1067 1096 1117 1135
1010.0 1142 1132 1106 1084 1115 1185 1323 1461 1521 1458
1050.0 1381 1350 1369 1420 1480 1533 1576 1705 1992 2383
1090.0 2855 3443 4158 4871 5369 5500 5140 4494 3817 3263
1130.0 2829 2476 2173 1960 1851 1863 2000 2151 2089 1801
1170.0 1500 1288 1138 1043 1005 1010 1039 1067 1071 1059
1210.0 1021 970 907 848 796 757 743 754 788 845
1250.0 927 1029 1139 1190 1169 1090 1020 972 957 978
1290.0 1026 1104 1222 1348 1440 1469 1490 1525 1593 1648
1330.0 1665 1690 1822 2083 2418 2632 2567 2265 1908 1622
1370.0 1474 1439 1420 1350 1205 1002 785 614 504 438
1410.0 399 380 385 392 425 492 610 771 934 1091
1450.0 1184 1233 1267 1207 1099 938 744 542 392 288
1490.0 228 182 156 124 113 101 83 77 76 60
1530.0 55 55 54 58 53 48 51 56 55 47
1570.0 53 48 51 47 50 55 59 59 61 61
1610.0 63 69 77 81 86 83 73 69 58 57
1650.0 48 58 43 40 41 48 51 56 63 80
1690.0 84 99 122 136 131 140 159 186 199 220
1730.0 254 298 316 290 218 153 104 81 67 54
1770.0 52 47 41 38 40 37 41 38 47 41
1810.0 42 41 39 32 32 24 21 17 16 17
1850.0 16 16 17 17 18 23 20 22 24 27
1890.0 29 30 29 31 32 35 35 40 38 37
1930.0 38 36 35 35 30 31 26 23 24 26
1970.0 25 26 26 24 25 25 27 27 27 29
2010.0 29 32 34 35 35 34 35 35 37 37
2050.0 37 36 34 33 32 29 30 28 29 28
2090.0 29 27 27 28 27 27 28 26 24 26
2130.0 25 24 22 24 22 22 23 22 23 20
2170.0 19 21 20 21 23 23 26 26 26 27
2210.0 28 29 29 31 35 37 39 38 35 33
2250.0 33 34 29 25 24 23 24 27 29 34
2290.0 34 34 37 39 42 43 38 34 30 29
2330.0 26 20 16 22 27 32 31 29 28 24
2370.0 23 23 30 32 27 24 21 22 24 25
2410.0 25 25 28 25 25 25 27 23 23 23
2450.0 23 20 21 25 26 27 30 32 35 33
2490.0 33 33 34 35 36 34 34 35 34 32
2530.0 30 29 32 32 32 31 35 36 37 46
2570.0 51 56 61 72 80 89 100 108 111 121
2610.0 123 127 130 137 144 151 162 174 193 211
2650.0 230 248 262 283 313 350 384 407 422 438
2690.0 457 480 504 523 540 559 581 611 648 701
2730.0 765 840 916 1001 1098 1196 1282 1341 1365 1384
2770.0 1423 1503 1625 1763 1868 1906 1848 1736 1618 1510
2810.0 1410 1340 1304 1293 1289 1284 1289 1336 1476 1758
2850.0 2180 2667 3068 3312 3333 3107 2726 2380 2209 2186
2890.0 2259 2356 2433 2500 2574 2698 2968 3444 4155 5032
2930.0 5963 7070 8522 10000 9739 7756 5627 4221 3278 2713
2970.0 2520 2618 2827 2907 2766 2380 1827 1313 910 616
3010.0 436 325 257 218 197 183 168 152 138 130
3050.0 120 114 109 106 101 100 97 93 92 86
3090.0 84 77 70 72 67 60 58 54 50 48
3130.0 46 46 40 42 36 41 46 44 40 43
3170.0 47 47 48 49 50 47 48 42 40 39
3210.0 36 41 32 39 34 37 36 29 28 30
3250.0 33 27 26 25 25 24 28 26 23 24
3290.0 25 23 28 25 29 29 34 27 29 29
3330.0 33 35 37 34 33 31 31 39 39 36
3370.0 41 40 42 40 38 36 38 36 41 35
3410.0 39 39 38 35 37 30 33 31 30 32
3450.0 34 31 33 32 31 34 35 38 38 43
3490.0 38 40 47 42 39 41 37 38 42 46
3530.0 40 39 39 37 38 39 41 35 38 36
3570.0 39 35 32 34 39 39 35 40 41 41
3610.0 64 74 93 125 174 261 340 417 450 442
3650.0 378 267 185 111 73 49 28 28 28 26
3690.0 27 23 23 16 16 16 25 25 21 19
3730.0 24 18 20 19 32 23 25 16 16 16
3770.0 22 19 23 27 21 31 27 25 24 26
3810.0 23 20 16 16 24 28 25 34 23 23
3850.0 17 27 26 34 19 25 29 35 40 40
3890.0 40 41 21 36 35 35 31 43 21 27
3930.0 25 23 22 38 39 51 37 40 25 20
##END=
