##TITLE=Cyclohexane, (2-bromoethyl)-
##JCAMP-DX=4.24
##DATA TYPE=INFRARED SPECTRUM
##ORIGIN=Sadtler Research Labs Under US-EPA Contract
##OWNER=NIST Standard Reference Data Program
##CAS REGISTRY NO=1647-26-3
##MOLFORM=C 8 H 15 Br
##XUNITS=1/CM
##YUNITS=ABSORBANCE
##XFACTOR=1.0
##YFACTOR=0.000141519
##DELTAX=4.0
##FIRSTX=450.0
##LASTX=3966.0
##FIRSTY=0.000000
##MAXX=3966
##MINX=450
##MAXY=1.41519
##MINY=0
##NPOINTS=880
##XYDATA=(X++(Y..Y))
450.0 0 1346 1545 1206 1798 1679 1248 1549 1251 1406
490.0 1330 1614 1466 1675 1688 1462 1391 1234 1344 1334
530.0 1556 1390 1515 1310 1531 1428 1505 1447 1418 1518
570.0 1474 1555 1507 1546 1379 1407 1334 1371 1312 1364
610.0 1371 1342 1365 1327 1369 1327 1385 1389 1452 1480
650.0 1564 1607 1609 1576 1482 1404 1364 1371 1313 1362
690.0 1341 1380 1330 1359 1339 1305 1326 1292 1324 1302
730.0 1342 1323 1357 1320 1401 1410 1384 1372 1335 1330
770.0 1308 1324 1315 1305 1317 1332 1325 1317 1324 1323
810.0 1332 1339 1379 1371 1403 1367 1361 1369 1345 1371
850.0 1342 1324 1320 1350 1337 1368 1380 1375 1371 1386
890.0 1390 1386 1396 1371 1386 1385 1404 1427 1469 1468
930.0 1447 1403 1355 1333 1318 1333 1327 1371 1357 1346
970.0 1324 1328 1295 1305 1299 1300 1306 1298 1310 1297
1010.0 1313 1310 1342 1327 1317 1313 1327 1323 1315 1319
1050.0 1311 1318 1317 1319 1316 1320 1326 1332 1348 1352
1090.0 1364 1357 1362 1348 1339 1314 1314 1306 1305 1303
1130.0 1305 1307 1301 1308 1297 1302 1300 1308 1307 1311
1170.0 1315 1312 1327 1342 1363 1360 1362 1355 1368 1386
1210.0 1442 1544 1616 1612 1529 1452 1450 1512 1647 1801
1250.0 1845 1828 1783 1783 1805 1801 1752 1677 1634 1580
1290.0 1555 1511 1468 1409 1385 1386 1386 1401 1393 1391
1330.0 1394 1427 1452 1461 1453 1442 1423 1378 1350 1336
1370.0 1343 1325 1316 1298 1290 1285 1284 1290 1286 1296
1410.0 1293 1306 1309 1341 1371 1418 1483 1606 1794 1987
1450.0 2126 2165 2046 1881 1691 1533 1427 1345 1308 1284
1490.0 1277 1277 1272 1271 1262 1268 1258 1268 1260 1259
1530.0 1256 1255 1256 1254 1255 1248 1254 1249 1258 1248
1570.0 1252 1250 1256 1250 1246 1252 1246 1246 1241 1249
1610.0 1245 1246 1246 1247 1246 1245 1250 1245 1246 1242
1650.0 1246 1242 1246 1243 1246 1243 1247 1246 1243 1250
1690.0 1244 1244 1241 1249 1246 1243 1244 1245 1242 1239
1730.0 1242 1239 1244 1240 1245 1240 1241 1242 1241 1239
1770.0 1239 1240 1239 1240 1238 1245 1239 1239 1237 1237
1810.0 1237 1238 1238 1232 1237 1236 1239 1231 1238 1232
1850.0 1234 1237 1236 1238 1237 1240 1237 1242 1239 1243
1890.0 1241 1239 1243 1240 1241 1238 1241 1240 1241 1236
1930.0 1239 1232 1234 1232 1232 1233 1232 1234 1229 1234
1970.0 1230 1231 1228 1231 1231 1227 1229 1230 1229 1224
2010.0 1230 1225 1228 1224 1229 1227 1224 1225 1223 1224
2050.0 1221 1226 1228 1231 1229 1232 1230 1228 1232 1232
2090.0 1229 1226 1231 1226 1229 1224 1226 1226 1232 1229
2130.0 1226 1229 1227 1228 1225 1230 1225 1227 1226 1232
2170.0 1229 1228 1237 1236 1235 1232 1233 1232 1232 1230
2210.0 1231 1227 1226 1230 1226 1226 1226 1230 1226 1230
2250.0 1224 1228 1227 1227 1226 1224 1225 1223 1225 1224
2290.0 1226 1229 1227 1224 1227 1231 1224 1228 1224 1226
2330.0 1220 1228 1223 1224 1232 1232 1219 1224 1225 1224
2370.0 1237 1229 1237 1235 1234 1229 1229 1227 1224 1224
2410.0 1223 1226 1219 1221 1216 1217 1216 1214 1216 1211
2450.0 1212 1214 1220 1217 1218 1215 1215 1217 1218 1224
2490.0 1222 1220 1213 1216 1211 1211 1210 1206 1208 1210
2530.0 1215 1212 1211 1211 1217 1216 1217 1215 1216 1215
2570.0 1217 1219 1217 1219 1218 1224 1222 1228 1226 1232
2610.0 1232 1233 1234 1234 1238 1238 1246 1249 1250 1254
2650.0 1263 1274 1290 1299 1313 1316 1313 1307 1300 1291
2690.0 1278 1275 1268 1262 1256 1254 1254 1248 1251 1247
2730.0 1252 1244 1244 1243 1237 1235 1237 1240 1232 1239
2770.0 1243 1259 1258 1268 1284 1302 1318 1323 1331 1332
2810.0 1333 1332 1344 1353 1380 1423 1498 1622 1824 2115
2850.0 2498 2954 3532 4050 4077 3700 3040 2546 2277 2159
2890.0 2181 2286 2463 2666 2905 3172 3611 4212 5144 6505
2930.0 8423 9878 10000 8913 6879 5095 3311 2306 1901 1776
2970.0 1773 1812 1820 1761 1650 1524 1436 1379 1366 1376
3010.0 1408 1459 1472 1444 1388 1333 1293 1261 1255 1246
3050.0 1247 1249 1240 1244 1238 1235 1236 1230 1232 1233
3090.0 1231 1228 1235 1236 1240 1233 1225 1224 1229 1236
3130.0 1227 1241 1228 1236 1239 1240 1241 1238 1244 1236
3170.0 1244 1230 1242 1239 1238 1239 1237 1227 1222 1220
3210.0 1223 1225 1224 1229 1237 1231 1228 1234 1226 1236
3250.0 1244 1233 1232 1225 1241 1240 1241 1228 1222 1231
3290.0 1233 1226 1230 1228 1210 1223 1213 1217 1223 1224
3330.0 1219 1232 1215 1237 1230 1238 1239 1231 1232 1231
3370.0 1231 1230 1229 1226 1206 1217 1224 1235 1230 1243
3410.0 1232 1235 1240 1220 1231 1242 1239 1233 1239 1221
3450.0 1242 1242 1236 1235 1240 1246 1236 1249 1251 1254
3490.0 1246 1228 1232 1245 1241 1248 1245 1234 1239 1232
3530.0 1239 1241 1243 1242 1246 1248 1246 1239 1235 1246
3570.0 1241 1246 1242 1240 1256 1244 1232 1256 1250 1254
3610.0 1264 1252 1251 1244 1247 1251 1253 1246 1246 1246
3650.0 1253 1258 1254 1264 1254 1262 1251 1266 1263 1258
3690.0 1240 1253 1249 1254 1257 1255 1252 1240 1249 1248
3730.0 1263 1248 1254 1251 1249 1258 1251 1255 1258 1246
3770.0 1258 1275 1249 1242 1239 1244 1252 1259 1261 1264
3810.0 1257 1254 1251 1261 1257 1245 1257 1253 1237 1260
3850.0 1235 1226 1238 1246 1227 1255 1256 1264 1255 1232
3890.0 1247 1275 1254 1248 1265 1228 1230 1241 1247 1243
3930.0 1242 1244 1256 1276 1276 1281 1269 1259 1254 1251
##END=
