##TITLE=1,9-Decadiene
##JCAMP-DX=4.24
##DATA TYPE=INFRARED SPECTRUM
##ORIGIN=Sadtler Research Labs Under US-EPA Contract
##OWNER=NIST Standard Reference Data Program
##CAS REGISTRY NO=1647-16-1
##MOLFORM=C 10 H 18
##XUNITS=1/CM
##YUNITS=ABSORBANCE
##XFACTOR=1.0
##YFACTOR=0.000125220
##DELTAX=4.0
##FIRSTX=450.0
##LASTX=3966.0
##FIRSTY=0.000626
##MAXX=3966
##MINX=450
##MAXY=1.2522
##MINY=0
##NPOINTS=880
##XYDATA=(X++(Y..Y))
450.0 5 30 62 4 40 38 16 39 21 30
490.0 10 17 33 20 21 21 26 33 28 18
530.0 29 49 73 81 75 102 105 86 88 72
570.0 68 65 50 65 68 71 55 60 75 105
610.0 137 202 268 336 409 451 422 360 314 228
650.0 197 164 145 107 102 92 88 76 84 80
690.0 88 88 87 81 95 103 130 154 181 185
730.0 197 176 165 149 148 158 163 154 146 119
770.0 102 87 82 79 68 69 69 85 71 85
810.0 85 97 92 94 106 110 125 126 134 155
850.0 186 205 212 222 266 291 302 341 378 442
890.0 540 694 943 1360 2112 3013 3364 3069 2174 1415
930.0 1078 768 587 496 469 451 435 429 474 565
970.0 494 468 586 717 971 1232 1387 1287 1032 780
1010.0 596 493 408 380 356 337 341 290 277 278
1050.0 268 249 228 206 218 183 187 170 149 177
1090.0 124 138 111 128 119 104 112 113 131 109
1130.0 99 98 106 104 82 78 77 87 86 69
1170.0 83 83 100 83 84 76 82 82 74 73
1210.0 72 76 72 72 70 77 81 82 90 100
1250.0 103 97 93 89 99 107 117 130 139 150
1290.0 163 175 184 191 184 175 164 158 168 174
1330.0 177 181 191 208 255 293 311 299 270 234
1370.0 212 189 163 138 128 127 130 140 156 186
1410.0 231 277 321 345 354 369 438 574 727 859
1450.0 911 917 885 808 709 593 454 326 234 168
1490.0 126 94 86 69 75 60 59 56 60 61
1530.0 62 71 68 82 72 77 60 68 66 52
1570.0 51 53 55 56 54 59 70 77 89 111
1610.0 135 172 215 267 339 477 698 1085 1393 1399
1650.0 1085 633 338 229 153 118 89 75 56 56
1690.0 38 38 38 26 21 15 18 11 15 6
1730.0 8 11 11 3 2 7 6 8 9 10
1770.0 7 15 8 15 15 24 21 26 37 47
1810.0 61 92 138 205 287 314 294 213 145 95
1850.0 63 45 33 28 22 18 15 15 13 14
1890.0 13 10 12 7 9 6 7 7 4 3
1930.0 3 3 4 4 3 7 8 11 13 18
1970.0 26 31 35 35 30 24 18 13 13 10
2010.0 9 9 7 8 9 12 12 11 11 12
2050.0 9 11 12 11 11 7 6 8 9 6
2090.0 6 4 3 5 4 3 2 2 2 2
2130.0 2 3 2 1 0 2 4 4 4 2
2170.0 3 3 4 1 1 3 1 3 3 2
2210.0 2 2 2 0 1 3 5 4 4 5
2250.0 5 5 6 8 7 10 9 14 14 16
2290.0 19 23 33 35 35 37 29 36 35 25
2330.0 31 27 23 30 40 23 39 26 39 34
2370.0 31 31 33 27 16 9 2 4 3 4
2410.0 5 5 4 2 3 2 3 2 3 3
2450.0 7 7 9 6 6 7 9 10 7 8
2490.0 8 7 8 12 13 10 14 16 18 21
2530.0 22 22 21 23 23 23 23 24 25 22
2570.0 21 26 25 25 23 25 28 27 28 30
2610.0 33 33 36 39 41 44 44 47 53 53
2650.0 55 57 62 63 67 69 76 85 86 89
2690.0 88 87 83 77 75 68 64 65 64 65
2730.0 64 67 69 71 71 75 78 82 86 89
2770.0 99 101 103 106 114 123 135 150 168 187
2810.0 208 231 261 300 350 420 521 669 894 1230
2850.0 1695 2265 2897 3412 3621 3438 2945 2375 1913 1631
2890.0 1532 1585 1774 2081 2513 3068 3798 4708 5918 7389
2930.0 8977 10000 9997 8771 6883 4983 3480 2428 1788 1459
2970.0 1319 1312 1396 1524 1603 1577 1450 1321 1299 1310
3010.0 1263 1126 897 749 622 510 454 421 386 379
3050.0 382 419 465 550 659 812 993 1223 1652 1998
3090.0 1977 1583 978 584 378 264 217 182 162 140
3130.0 130 112 105 89 84 76 70 68 63 61
3170.0 59 56 51 47 44 42 43 39 38 36
3210.0 40 34 38 30 33 28 34 35 29 31
3250.0 30 33 25 31 31 29 39 34 35 31
3290.0 33 33 30 27 35 30 28 33 33 36
3330.0 43 43 37 38 35 33 33 31 36 37
3370.0 34 38 36 36 33 29 37 35 34 31
3410.0 27 33 28 25 21 27 26 27 20 20
3450.0 23 26 20 14 20 25 21 7 16 13
3490.0 17 16 13 10 6 12 11 11 11 11
3530.0 10 13 13 13 14 15 13 18 17 11
3570.0 13 8 11 9 6 11 3 9 4 2
3610.0 9 11 10 2 5 18 6 6 6 13
3650.0 17 11 14 13 13 10 18 16 11 11
3690.0 11 7 0 11 10 9 9 14 8 8
3730.0 8 9 7 12 12 16 17 5 7 6
3770.0 0 11 13 9 9 1 10 1 12 6
3810.0 8 3 12 15 3 7 13 10 8 13
3850.0 15 14 15 13 9 21 5 6 6 15
3890.0 12 10 3 18 12 6 13 22 20 22
3930.0 19 14 19 16 15 16 17 15 8 0
##END=
