##TITLE=3-Pentyn-2-ol, 2-methyl-5-(2-piperidinoethoxy)-,
##JCAMP-DX=4.24
##DATA TYPE=INFRARED SPECTRUM
##ORIGIN=Sadtler Research Labs Under US-EPA Contract
##OWNER=NIST Standard Reference Data Program
##CAS REGISTRY NO=16489-00-2
##MOLFORM=C 13 H 23 N O 2
##XUNITS=1/CM
##YUNITS=ABSORBANCE
##XFACTOR=1.0
##YFACTOR=0.000086389
##DELTAX=4.0
##FIRSTX=450.0
##LASTX=3966.0
##FIRSTY=0.006393
##MAXX=3966
##MINX=450
##MAXY=0.86389
##MINY=0
##NPOINTS=880
##XYDATA=(X++(Y..Y))
450.0 74 94 124 109 90 108 75 80 66 84
490.0 90 107 110 144 128 126 120 91 89 110
530.0 107 141 148 176 229 292 312 302 249 225
570.0 224 192 182 198 190 185 188 167 135 105
610.0 79 44 35 35 7 0 11 15 4 14
650.0 16 13 9 35 41 81 69 85 102 109
690.0 129 103 83 62 41 13 23 11 12 6
730.0 6 24 47 64 103 146 188 195 184 143
770.0 114 115 102 95 83 67 56 45 53 51
810.0 71 84 109 117 135 134 141 170 190 243
850.0 320 397 454 450 370 274 203 160 138 120
890.0 127 140 167 205 259 318 407 525 680 870
930.0 1114 1382 1610 1710 1648 1464 1226 994 800 658
970.0 548 472 445 452 492 556 631 700 762 825
1010.0 877 896 849 799 803 878 1036 1250 1386 1389
1050.0 1316 1236 1183 1186 1288 1424 1544 1746 2097 2562
1090.0 3123 3806 4647 5489 6101 6253 5862 5125 4306 3610
1130.0 3035 2588 2262 2099 2100 2266 2601 2959 3094 2921
1170.0 2610 2270 1895 1534 1262 1073 977 952 982 1049
1210.0 1147 1246 1342 1416 1443 1433 1398 1355 1340 1353
1250.0 1388 1456 1531 1554 1493 1384 1278 1204 1156 1141
1290.0 1164 1213 1314 1445 1553 1607 1652 1726 1824 1922
1330.0 1994 2033 2105 2285 2589 2838 2825 2581 2280 2009
1370.0 1811 1655 1552 1520 1421 1172 872 662 533 459
1410.0 412 391 389 398 428 497 596 753 893 1035
1450.0 1111 1139 1148 1068 954 813 662 493 364 269
1490.0 210 165 139 110 102 86 71 64 70 56
1530.0 47 57 55 64 54 51 53 63 65 56
1570.0 62 61 67 60 64 62 71 72 75 77
1610.0 82 90 104 109 116 117 113 112 96 97
1650.0 77 92 60 59 55 64 61 70 73 100
1690.0 103 128 160 182 171 164 165 177 172 172
1730.0 179 185 155 137 127 119 109 95 84 74
1770.0 74 68 58 55 56 53 57 48 49 44
1810.0 45 41 38 26 24 14 6 0 1 3
1850.0 0 0 3 6 6 12 10 11 14 15
1890.0 18 16 15 13 20 22 18 27 23 25
1930.0 24 24 21 20 16 15 12 10 11 11
1970.0 11 10 12 11 11 12 14 13 18 21
2010.0 21 24 27 26 26 20 22 25 28 25
2050.0 26 27 27 22 23 19 22 18 20 16
2090.0 19 20 21 20 18 20 19 19 16 18
2130.0 14 11 9 10 7 8 7 6 7 6
2170.0 8 8 6 6 7 3 8 9 13 12
2210.0 15 18 19 25 29 31 28 25 24 22
2250.0 19 15 13 8 7 9 12 14 21 28
2290.0 31 38 45 47 53 58 46 37 28 19
2330.0 12 8 16 14 15 33 15 19 23 18
2370.0 20 26 31 28 20 7 2 0 0 4
2410.0 7 7 8 8 9 7 7 5 7 3
2450.0 3 1 5 7 10 9 15 15 19 19
2490.0 21 21 20 20 20 21 20 19 16 19
2530.0 14 19 16 15 18 22 23 25 25 29
2570.0 34 42 56 63 70 80 89 101 103 114
2610.0 117 124 126 134 140 147 154 172 188 210
2650.0 236 254 269 292 328 368 405 436 453 471
2690.0 493 519 547 567 590 610 634 666 711 770
2730.0 842 924 1005 1102 1212 1322 1421 1489 1522 1546
2770.0 1588 1675 1810 1960 2087 2122 2062 1936 1795 1667
2810.0 1550 1457 1411 1386 1361 1338 1319 1339 1449 1693
2850.0 2077 2548 2987 3285 3353 3117 2693 2291 2046 1956
2890.0 1956 2030 2129 2219 2305 2428 2670 3096 3720 4498
2930.0 5415 6577 8258 10000 9947 7911 5575 4026 2997 2302
2970.0 1943 1848 1984 2342 2891 3132 2666 1815 1182 799
3010.0 543 374 263 189 148 126 110 103 90 83
3050.0 80 70 66 60 53 54 48 47 49 43
3090.0 42 37 34 35 33 31 23 25 27 24
3130.0 23 23 20 22 19 19 16 23 21 22
3170.0 24 24 34 34 34 32 33 28 35 29
3210.0 28 30 29 32 27 26 27 24 26 23
3250.0 22 16 18 21 22 15 7 11 4 1
3290.0 5 10 6 8 9 7 13 11 18 15
3330.0 20 19 21 14 14 18 30 27 28 31
3370.0 21 24 21 28 24 19 24 28 28 26
3410.0 22 22 19 25 16 15 15 21 21 23
3450.0 13 15 13 16 15 19 18 22 25 22
3490.0 19 29 24 24 25 16 22 20 15 20
3530.0 22 27 24 24 26 19 23 15 14 10
3570.0 11 6 14 7 20 26 21 9 25 36
3610.0 49 73 98 148 207 284 350 436 456 431
3650.0 388 306 230 151 89 70 44 29 26 26
3690.0 18 9 0 8 6 2 9 14 19 21
3730.0 21 6 13 3 31 8 25 9 12 5
3770.0 1 4 7 5 22 22 20 16 23 25
3810.0 14 25 24 12 3 8 16 31 15 27
3850.0 12 39 25 15 27 32 29 27 31 43
3890.0 25 33 32 35 34 28 21 18 10 30
3930.0 32 29 25 22 30 20 34 27 39 22
##END=
