##TITLE=3-Pentyn-2-ol, 5-diisopropylamino-2-ethoxy-2-methyl-,
##JCAMP-DX=4.24
##DATA TYPE=INFRARED SPECTRUM
##ORIGIN=Sadtler Research Labs Under US-EPA Contract
##OWNER=NIST Standard Reference Data Program
##CAS REGISTRY NO=16488-99-6
##MOLFORM=C 14 H 27 N O 2
##XUNITS=1/CM
##YUNITS=ABSORBANCE
##XFACTOR=1.0
##YFACTOR=0.000137097
##DELTAX=4.0
##FIRSTX=450.0
##LASTX=3966.0
##FIRSTY=0.015903
##MAXX=3966
##MINX=450
##MAXY=1.37097
##MINY=0
##NPOINTS=880
##XYDATA=(X++(Y..Y))
450.0 116 101 135 138 66 120 124 133 122 161
490.0 163 146 161 186 140 162 163 181 171 193
530.0 217 246 284 326 365 436 432 433 381 347
570.0 321 302 307 317 308 278 253 199 161 103
610.0 69 44 34 22 13 8 16 17 14 9
650.0 21 23 31 51 62 104 107 136 164 184
690.0 190 162 128 99 76 55 47 36 28 22
730.0 21 11 19 19 27 24 23 11 13 9
770.0 6 12 18 19 20 12 14 15 18 19
810.0 23 31 32 40 58 71 100 140 178 201
850.0 234 256 260 251 218 207 206 204 203 207
890.0 203 204 207 236 293 368 469 600 758 960
930.0 1210 1490 1765 1949 1957 1778 1504 1242 1024 869
970.0 778 726 714 719 737 753 791 857 948 1012
1010.0 1023 1017 1031 1051 1078 1110 1146 1187 1227 1261
1050.0 1276 1280 1294 1347 1468 1660 1928 2324 2875 3614
1090.0 4558 5702 7027 8210 8920 8805 7846 6428 5082 4048
1130.0 3364 2990 2853 2904 3037 3168 3272 3361 3419 3397
1170.0 3298 3132 2944 2780 2673 2575 2501 2468 2532 2671
1210.0 2784 2766 2655 2551 2473 2384 2277 2171 2116 2096
1250.0 2098 2075 1999 1868 1682 1495 1367 1295 1266 1268
1290.0 1308 1363 1435 1505 1596 1703 1837 1958 2083 2200
1330.0 2309 2393 2464 2571 2800 3173 3530 3725 3831 3791
1370.0 3521 3180 3035 3056 2925 2534 2093 1729 1384 1082
1410.0 832 680 580 530 497 523 546 663 713 832
1450.0 944 1049 1214 1298 1403 1346 1184 940 738 545
1490.0 420 314 260 202 195 179 144 131 133 117
1530.0 90 109 84 96 85 84 77 76 84 61
1570.0 71 61 85 63 77 70 78 74 80 74
1610.0 77 80 87 92 80 97 84 91 76 92
1650.0 55 114 66 72 65 88 69 99 92 121
1690.0 118 140 153 181 157 156 157 172 165 176
1730.0 179 198 172 166 149 151 145 141 137 129
1770.0 137 119 108 102 108 86 90 70 71 51
1810.0 40 27 30 11 21 6 6 5 3 11
1850.0 5 5 6 14 9 20 13 18 19 17
1890.0 20 17 19 16 17 20 16 27 17 21
1930.0 21 20 18 21 17 18 16 17 17 16
1970.0 18 17 19 23 23 26 32 29 34 35
2010.0 37 36 39 39 39 41 44 41 44 41
2050.0 40 40 37 35 36 37 39 38 38 38
2090.0 39 38 38 39 36 36 32 30 25 25
2130.0 20 19 17 15 12 11 11 12 13 12
2170.0 12 13 11 13 14 16 18 22 25 26
2210.0 27 29 30 32 33 33 30 27 26 23
2250.0 20 20 18 19 16 17 21 24 26 29
2290.0 33 38 42 44 48 50 42 36 29 25
2330.0 24 16 18 18 28 36 28 25 32 31
2370.0 31 37 38 36 25 13 9 6 6 7
2410.0 7 7 8 7 10 8 10 10 10 12
2450.0 13 13 15 16 17 18 19 18 17 18
2490.0 16 14 12 10 10 10 11 8 9 12
2530.0 11 15 14 15 15 19 18 22 22 27
2570.0 29 34 41 46 51 62 74 91 106 120
2610.0 129 130 123 116 108 101 93 91 88 86
2650.0 85 83 87 87 91 96 102 112 121 135
2690.0 149 165 178 189 199 209 219 230 236 242
2730.0 245 250 252 259 269 278 288 302 312 325
2770.0 338 358 383 418 455 501 556 618 685 755
2810.0 823 883 934 979 1022 1090 1201 1373 1630 1998
2850.0 2430 2792 2948 2935 2927 2986 3102 3204 3224 3165
2890.0 3079 3016 2999 2994 3015 3070 3165 3304 3506 3780
2930.0 4137 4491 4767 4918 4917 4871 4974 5416 6409 8015
2970.0 9505 10000 9562 8697 7913 6948 5353 3576 2376 1649
3010.0 1180 881 673 536 446 384 340 306 276 253
3050.0 233 213 198 183 175 166 159 155 149 144
3090.0 142 136 129 129 124 115 111 108 107 103
3130.0 97 96 92 91 88 86 85 88 86 84
3170.0 85 84 88 89 87 86 85 85 84 83
3210.0 81 79 76 72 66 62 56 54 53 49
3250.0 46 43 38 36 31 28 21 19 16 14
3290.0 17 17 20 20 19 21 21 21 23 24
3330.0 27 30 26 24 22 22 32 31 35 34
3370.0 31 31 30 36 33 28 28 27 25 25
3410.0 24 24 18 21 16 15 16 24 22 18
3450.0 16 20 17 21 21 21 20 19 27 22
3490.0 21 23 27 28 26 27 24 23 28 36
3530.0 32 27 28 28 44 27 36 14 29 29
3570.0 41 24 24 24 23 40 26 15 32 34
3610.0 69 84 118 181 248 388 459 544 562 533
3650.0 486 365 274 176 107 79 32 37 19 18
3690.0 15 13 7 16 7 6 10 5 8 17
3730.0 8 10 22 2 48 0 16 4 3 3
3770.0 4 9 6 16 11 13 23 15 20 24
3810.0 7 26 13 24 5 13 17 33 12 28
3850.0 18 48 29 26 30 35 27 30 24 46
3890.0 22 40 27 47 43 35 20 35 20 23
3930.0 21 29 16 25 25 28 26 26 31 18
##END=
