##TITLE=3-Pentyn-2-ol, 2-methyl-5-phenoxy-,
##JCAMP-DX=4.24
##DATA TYPE=INFRARED SPECTRUM
##ORIGIN=Sadtler Research Labs Under US-EPA Contract
##OWNER=NIST Standard Reference Data Program
##CAS REGISTRY NO=16488-98-5
##MOLFORM=C 12 H 14 O 2
##XUNITS=1/CM
##YUNITS=ABSORBANCE
##XFACTOR=1.0
##YFACTOR=0.000092218
##DELTAX=4.0
##FIRSTX=450.0
##LASTX=3966.0
##FIRSTY=0.000000
##MAXX=3966
##MINX=450
##MAXY=0.92218
##MINY=0
##NPOINTS=880
##XYDATA=(X++(Y..Y))
450.0 0 55 135 98 97 144 133 156 192 193
490.0 243 309 352 356 317 303 299 306 293 255
530.0 235 231 254 292 351 440 503 490 458 384
570.0 336 267 259 254 258 253 270 237 202 162
610.0 141 119 91 85 51 49 55 63 48 64
650.0 82 121 174 249 334 477 607 815 1164 1555
690.0 1734 1496 1056 740 543 416 329 284 258 268
730.0 328 469 728 1183 1836 2365 2417 1966 1445 1145
770.0 975 907 810 692 562 409 284 204 175 170
810.0 171 176 191 223 274 274 228 156 169 182
850.0 214 248 257 239 227 229 252 295 327 309
890.0 246 189 160 163 170 220 283 392 541 740
930.0 991 1289 1605 1859 1949 1823 1534 1218 962 793
970.0 724 769 934 1233 1639 1999 2131 2073 2110 2427
1010.0 2692 2592 2128 1850 1886 1926 1722 1324 1093 1147
1050.0 1493 2007 2299 2132 1713 1320 1079 930 798 685
1090.0 627 628 678 753 838 916 975 1028 1058 1079
1130.0 1109 1171 1276 1442 1688 2028 2411 2846 3369 3905
1170.0 4113 3802 3156 2521 2148 2083 2335 3053 4520 6860
1210.0 9190 10000 9296 7991 7047 6670 6316 5665 4576 3409
1250.0 2796 2739 2947 2952 2747 2471 2266 2255 2327 2362
1290.0 2346 2368 2374 2271 2076 1862 1766 1796 1883 2001
1330.0 2088 2080 2006 1846 1720 1703 1822 2124 2506 2743
1370.0 2845 2776 2469 2047 1607 1226 871 624 462 366
1410.0 323 284 319 288 299 306 366 423 479 574
1450.0 704 858 1033 1068 1044 1001 1068 1244 1708 2760
1490.0 4498 5893 5791 4275 2288 1170 672 463 372 277
1530.0 239 216 228 265 263 261 295 365 383 428
1570.0 542 711 979 1391 1991 2754 3567 4071 3704 2710
1610.0 1594 853 534 349 277 195 186 167 127 123
1650.0 134 135 91 81 85 95 112 96 138 168
1690.0 154 157 205 197 166 135 144 177 141 130
1730.0 144 175 123 105 104 123 114 132 152 150
1770.0 164 157 126 121 114 116 118 97 99 74
1810.0 72 74 71 83 101 119 116 106 116 121
1850.0 104 91 87 80 77 83 59 54 53 55
1890.0 59 60 62 72 88 108 130 154 170 163
1930.0 154 154 161 171 159 133 114 106 96 107
1970.0 111 121 136 155 173 190 191 181 165 153
2010.0 138 134 136 131 126 121 119 121 121 124
2050.0 127 126 122 122 120 115 102 90 84 79
2090.0 74 71 70 71 70 69 67 61 60 59
2130.0 55 53 53 51 51 47 46 44 45 44
2170.0 44 48 50 51 50 52 54 56 61 66
2210.0 73 79 90 100 111 114 120 118 111 103
2250.0 98 92 86 84 87 92 93 91 86 80
2290.0 77 79 80 81 82 87 80 70 68 56
2330.0 51 51 44 44 52 54 53 58 56 62
2370.0 63 78 87 91 84 71 65 62 64 69
2410.0 73 74 77 79 82 81 81 79 78 76
2450.0 80 79 81 77 78 77 74 69 68 69
2490.0 64 67 67 66 70 71 75 75 71 72
2530.0 70 67 69 67 66 69 66 67 68 70
2570.0 69 67 63 62 60 58 61 61 63 62
2610.0 64 63 63 57 57 52 52 52 49 45
2650.0 44 46 45 45 50 49 45 45 45 46
2690.0 48 47 56 60 66 71 77 76 77 72
2730.0 74 66 68 64 61 67 65 66 68 71
2770.0 74 75 72 75 78 87 87 90 98 104
2810.0 111 118 124 132 138 149 163 177 204 235
2850.0 280 338 398 486 606 756 899 990 995 934
2890.0 856 797 758 757 786 837 915 1022 1148 1272
2930.0 1348 1387 1401 1413 1340 1206 1082 1049 1144 1285
2970.0 1433 1623 1921 2510 3367 3868 3530 2563 1596 1078
3010.0 779 597 498 474 499 582 695 821 932 999
3050.0 972 888 817 820 883 977 1081 1150 1112 980
3090.0 817 714 676 638 568 468 360 259 185 143
3130.0 115 98 84 80 76 71 65 65 63 59
3170.0 61 60 56 62 58 60 59 65 69 71
3210.0 76 75 76 72 76 72 76 73 70 72
3250.0 62 66 62 65 54 58 54 47 47 49
3290.0 51 51 49 47 47 44 50 45 45 51
3330.0 48 51 60 61 65 64 63 63 73 70
3370.0 65 63 67 65 65 66 65 68 69 67
3410.0 66 66 65 58 67 64 61 56 58 60
3450.0 62 55 55 60 67 61 65 62 70 64
3490.0 69 63 62 61 61 69 68 63 66 67
3530.0 70 69 76 73 73 76 76 66 71 65
3570.0 68 72 69 71 74 79 85 98 110 121
3610.0 155 184 235 311 398 523 602 679 708 684
3650.0 618 497 373 269 186 128 98 81 68 66
3690.0 66 64 59 49 57 55 55 56 50 46
3730.0 44 53 50 48 60 59 56 49 54 58
3770.0 54 58 45 48 57 59 59 45 46 64
3810.0 65 69 62 58 49 50 62 62 61 70
3850.0 64 71 74 70 56 74 69 79 78 82
3890.0 60 75 67 77 81 76 75 78 71 73
3930.0 61 58 48 52 55 49 70 61 63 61
##END=
