##TITLE=4-Hexyn-3-ol, 6-diisopropylamino-2-ethoxy-3-methyl-,
##JCAMP-DX=4.24
##DATA TYPE=INFRARED SPECTRUM
##ORIGIN=Sadtler Research Labs Under US-EPA Contract
##OWNER=NIST Standard Reference Data Program
##CAS REGISTRY NO=16498-05-8
##MOLFORM=C 15 H 29 N O 2
##XUNITS=1/CM
##YUNITS=ABSORBANCE
##XFACTOR=1.0
##YFACTOR=0.000077509
##DELTAX=4.0
##FIRSTX=450.0
##LASTX=3966.0
##FIRSTY=0.006433
##MAXX=3966
##MINX=450
##MAXY=0.77509
##MINY=0
##NPOINTS=880
##XYDATA=(X++(Y..Y))
450.0 83 105 152 129 109 98 93 128 145 184
490.0 214 174 159 138 148 158 159 145 158 156
530.0 207 229 233 262 275 304 310 263 279 273
570.0 277 269 270 254 267 242 227 195 168 127
610.0 94 72 58 30 23 30 14 10 7 30
650.0 33 42 83 115 140 183 152 152 148 124
690.0 118 119 120 93 76 53 57 31 44 37
730.0 37 34 37 44 47 56 62 47 33 33
770.0 42 62 48 67 73 90 73 57 55 52
810.0 48 34 38 49 54 66 72 87 112 121
850.0 115 143 150 151 148 175 184 206 235 271
890.0 321 403 541 736 985 1222 1327 1238 1031 823
930.0 644 534 482 465 456 462 473 523 603 707
970.0 832 975 1114 1217 1254 1261 1263 1288 1327 1354
1010.0 1329 1288 1265 1281 1342 1441 1526 1541 1498 1431
1050.0 1399 1423 1510 1613 1696 1774 1946 2250 2732 3382
1090.0 4213 5224 6359 7391 7992 7821 6939 5701 4541 3685
1130.0 3164 2875 2740 2684 2656 2601 2486 2355 2201 2031
1170.0 1907 1867 1911 2044 2200 2334 2403 2441 2480 2518
1210.0 2475 2280 2010 1756 1595 1477 1400 1362 1371 1417
1250.0 1480 1524 1509 1436 1304 1157 1057 1017 1024 1071
1290.0 1148 1239 1324 1397 1472 1554 1640 1724 1806 1875
1330.0 1915 1973 2104 2328 2618 2954 3236 3329 3286 3153
1370.0 2916 2723 2669 2628 2453 2153 1841 1549 1251 975
1410.0 771 622 535 489 471 489 544 625 731 856
1450.0 983 1107 1241 1377 1457 1401 1195 941 717 545
1490.0 424 338 278 227 190 164 140 126 117 105
1530.0 97 87 83 83 79 73 68 67 64 62
1570.0 57 63 59 65 65 70 75 79 76 72
1610.0 62 56 57 55 58 51 52 53 49 50
1650.0 54 52 50 51 56 59 65 65 77 81
1690.0 91 98 110 110 111 107 104 106 100 93
1730.0 92 88 83 83 96 104 95 87 82 75
1770.0 70 63 51 45 45 42 43 44 50 57
1810.0 74 85 83 71 52 38 23 20 18 18
1850.0 17 14 17 15 21 17 20 19 22 22
1890.0 22 22 27 23 25 26 26 31 31 27
1930.0 26 27 26 28 30 28 27 28 27 24
1970.0 26 28 26 25 26 32 34 37 37 38
2010.0 38 37 42 39 43 44 44 45 46 47
2050.0 46 43 44 42 40 39 40 41 42 39
2090.0 35 38 36 36 34 31 30 28 28 29
2130.0 25 25 23 22 25 21 20 18 18 20
2170.0 22 22 22 22 25 27 29 30 33 31
2210.0 33 33 34 36 36 37 36 35 36 32
2250.0 32 31 29 26 28 28 28 24 23 21
2290.0 15 13 11 13 10 7 10 18 21 23
2330.0 31 34 35 35 40 22 35 31 53 36
2370.0 37 43 38 26 22 21 26 22 20 26
2410.0 22 23 18 23 23 22 21 20 25 21
2450.0 28 27 25 30 32 27 30 26 29 25
2490.0 22 20 18 23 18 22 23 21 22 21
2530.0 21 21 21 21 24 22 22 28 32 35
2570.0 37 45 46 51 60 67 79 92 105 118
2610.0 125 128 118 109 102 99 93 94 87 87
2650.0 87 88 88 91 97 101 102 111 114 129
2690.0 140 156 173 178 187 199 209 213 220 224
2730.0 232 234 245 247 261 269 277 286 302 311
2770.0 326 345 369 400 435 474 525 577 633 699
2810.0 761 823 872 919 960 1028 1123 1281 1517 1858
2850.0 2242 2572 2711 2711 2706 2775 2894 3019 3094 3113
2890.0 3093 3055 2988 2919 2874 2881 2958 3121 3387 3773
2930.0 4266 4718 5092 5332 5289 5107 5049 5319 6182 7697
2970.0 9246 10000 9738 8662 7180 5623 4073 2804 1904 1309
3010.0 957 740 604 514 456 412 376 343 310 281
3050.0 265 244 227 218 216 211 204 194 183 178
3090.0 171 165 155 150 142 132 121 115 106 102
3130.0 98 92 90 88 87 82 82 81 80 81
3170.0 78 81 79 79 78 76 75 74 66 62
3210.0 61 61 52 45 43 34 39 32 32 28
3250.0 27 22 16 14 12 12 13 12 11 9
3290.0 11 13 16 21 15 14 17 11 20 19
3330.0 18 15 15 15 14 20 22 18 18 21
3370.0 22 15 18 17 15 16 15 20 17 18
3410.0 15 13 9 9 18 14 14 7 13 17
3450.0 18 15 11 11 15 21 17 19 16 21
3490.0 17 28 19 22 21 22 26 28 24 21
3530.0 22 21 16 18 10 14 16 11 17 18
3570.0 6 8 5 3 6 1 14 4 21 30
3610.0 35 57 80 134 198 293 395 494 546 529
3650.0 438 307 196 112 54 28 2 16 4 1
3690.0 5 2 7 1 7 1 1 1 2 0
3730.0 8 1 1 4 1 1 1 1 1 6
3770.0 1 1 1 1 1 1 1 8 1 1
3810.0 8 8 1 1 1 1 2 7 1 1
3850.0 1 10 8 18 12 16 2 1 1 12
3890.0 14 6 7 12 5 2 1 1 3 1
3930.0 1 4 1 3 1 1 0 19 0 1
##END=
