##TITLE=1-Heptanol, 6-methyl-
##JCAMP-DX=4.24
##DATA TYPE=INFRARED SPECTRUM
##ORIGIN=Sadtler Research Labs Under US-EPA Contract
##OWNER=NIST Standard Reference Data Program
##CAS REGISTRY NO=1653-40-3
##MOLFORM=C 8 H 18 O
##XUNITS=1/CM
##YUNITS=ABSORBANCE
##XFACTOR=1.0
##YFACTOR=0.000131363
##DELTAX=4.0
##FIRSTX=450.0
##LASTX=3966.0
##FIRSTY=0.018391
##MAXX=3966
##MINX=450
##MAXY=1.31363
##MINY=0
##NPOINTS=880
##XYDATA=(X++(Y..Y))
450.0 140 125 19 100 136 34 160 78 172 47
490.0 136 83 106 120 127 102 77 127 81 120
530.0 107 127 114 102 102 96 99 84 98 53
570.0 67 72 88 47 76 54 107 112 84 95
610.0 78 81 89 80 78 83 90 83 93 93
650.0 104 99 105 102 93 123 109 107 99 109
690.0 95 101 96 110 115 124 139 153 172 173
730.0 186 178 162 148 134 133 125 133 134 125
770.0 127 143 130 99 114 128 121 114 122 116
810.0 138 133 138 140 153 160 165 172 174 179
850.0 190 207 215 219 227 232 232 234 243 246
890.0 254 252 255 256 266 287 316 352 377 411
930.0 419 432 442 451 454 448 455 451 457 470
970.0 495 537 573 614 638 668 687 731 793 889
1010.0 1004 1151 1317 1471 1634 1764 1938 2117 2339 2536
1050.0 2679 2690 2549 2344 2076 1848 1631 1457 1267 1096
1090.0 941 818 724 659 623 587 561 535 515 492
1130.0 477 459 445 437 431 433 441 474 518 572
1170.0 594 582 536 479 450 436 440 443 454 462
1210.0 473 481 488 498 510 527 534 544 543 544
1250.0 532 527 518 507 505 502 506 498 500 488
1290.0 481 463 458 446 436 435 431 438 442 476
1330.0 509 553 597 631 653 675 714 761 863 996
1370.0 1132 1243 1337 1456 1518 1489 1315 1049 765 612
1410.0 482 432 372 368 346 378 416 484 554 639
1450.0 785 898 1085 1216 1308 1353 1254 1113 878 660
1490.0 469 338 255 183 170 148 111 117 92 97
1530.0 67 84 62 70 61 57 56 55 61 45
1570.0 44 47 41 38 42 39 33 42 34 38
1610.0 30 43 24 45 24 42 23 44 28 39
1650.0 20 60 19 37 35 28 37 36 26 43
1690.0 30 30 37 36 32 27 32 28 31 27
1730.0 23 29 34 25 39 40 32 35 25 27
1770.0 21 31 16 23 15 22 10 21 19 14
1810.0 15 15 14 10 15 13 16 8 18 11
1850.0 15 10 10 11 10 12 12 11 10 11
1890.0 11 12 12 10 10 8 13 9 13 11
1930.0 10 10 12 12 9 13 10 8 7 9
1970.0 8 7 5 7 9 11 11 12 11 12
2010.0 14 16 14 17 18 20 18 22 22 23
2050.0 23 21 23 22 23 19 17 15 15 14
2090.0 12 11 11 11 8 8 7 7 4 7
2130.0 8 4 4 3 4 3 3 2 5 4
2170.0 5 4 3 7 3 5 3 5 4 3
2210.0 4 2 2 0 0 0 3 1 1 2
2250.0 3 3 3 5 6 9 9 9 10 13
2290.0 13 14 15 17 19 17 19 18 19 21
2330.0 23 25 22 29 38 14 31 22 40 43
2370.0 42 32 35 29 26 20 19 17 16 16
2410.0 19 20 18 19 17 19 17 18 18 16
2450.0 17 15 17 15 15 17 15 14 14 15
2490.0 16 18 17 19 20 23 23 24 23 24
2530.0 24 23 27 25 26 26 27 28 30 32
2570.0 35 38 40 43 47 52 57 63 67 69
2610.0 73 78 81 84 88 92 96 97 101 100
2650.0 101 103 106 107 108 111 114 119 122 126
2690.0 132 137 143 148 155 157 165 176 193 211
2730.0 226 234 238 235 232 232 234 238 241 254
2770.0 261 268 277 287 303 322 345 367 388 409
2810.0 438 470 510 560 612 689 793 955 1193 1543
2850.0 1989 2499 3037 3546 4011 4437 4904 5199 5266 5095
2890.0 4785 4547 4527 4755 5177 5701 6172 6726 7318 8082
2930.0 8946 9690 10000 9736 9143 8427 8076 8388 9292 9577
2970.0 8946 7124 4979 3145 1967 1342 966 745 598 498
3010.0 420 360 313 276 246 223 203 187 174 163
3050.0 155 146 141 133 127 122 117 114 108 104
3090.0 99 95 91 87 85 80 81 76 77 74
3130.0 72 72 75 76 75 77 76 82 83 84
3170.0 83 85 85 88 81 79 76 72 67 59
3210.0 50 44 38 30 26 19 12 14 11 13
3250.0 11 7 6 7 8 4 3 2 0 2
3290.0 3 5 3 1 1 6 2 6 7 10
3330.0 5 8 11 9 7 12 9 6 7 8
3370.0 9 6 4 1 7 8 12 13 8 13
3410.0 14 13 16 14 18 19 19 19 17 15
3450.0 21 16 19 18 21 18 22 25 22 20
3490.0 21 18 18 11 8 14 11 13 4 6
3530.0 12 9 6 9 10 10 10 16 5 8
3570.0 15 13 14 12 16 18 15 30 24 33
3610.0 32 48 56 66 82 70 122 125 181 223
3650.0 303 434 514 628 664 715 688 623 503 338
3690.0 247 150 127 90 75 70 51 43 48 25
3730.0 39 19 44 0 48 14 27 32 17 20
3770.0 18 29 26 28 30 29 26 44 14 45
3810.0 19 36 28 28 52 37 41 51 45 31
3850.0 48 29 44 48 30 34 34 47 24 56
3890.0 15 47 22 38 19 36 25 21 28 7
3930.0 23 10 23 16 19 6 23 13 21 13
##END=
