##TITLE=Benzeneacetonitrile, 4-bromo-
##JCAMP-DX=4.24
##DATA TYPE=INFRARED SPECTRUM
##ORIGIN=Sadtler Research Labs Under US-EPA Contract
##OWNER=NIST Standard Reference Data Program
##CAS REGISTRY NO=16532-79-9
##MOLFORM=C 8 H 6 Br N
##XUNITS=1/CM
##YUNITS=ABSORBANCE
##XFACTOR=1.0
##YFACTOR=0.000070410
##DELTAX=4.0
##FIRSTX=450.0
##LASTX=3966.0
##FIRSTY=0.049358
##MAXX=3966
##MINX=450
##MAXY=0.7041
##MINY=0
##NPOINTS=880
##XYDATA=(X++(Y..Y))
450.0 701 697 917 956 1032 1120 1129 1129 1098 973
490.0 929 876 789 721 620 487 422 342 292 221
530.0 152 118 99 78 48 45 34 28 33 24
570.0 54 31 69 49 46 28 6 30 37 69
610.0 70 63 94 107 148 178 229 361 577 661
650.0 609 423 273 197 185 179 158 130 154 180
690.0 166 180 148 160 138 145 141 172 148 162
730.0 155 166 184 236 293 305 365 384 468 580
770.0 807 1128 1583 2146 2880 3578 4086 4228 4089 3808
810.0 3364 2910 2417 2092 1822 1606 1343 1050 791 563
850.0 431 282 222 152 124 99 75 90 73 124
890.0 112 138 173 217 244 263 301 306 304 306
930.0 338 320 347 333 320 276 263 240 188 159
970.0 99 102 58 110 106 156 191 347 620 1514
1010.0 4556 6763 6531 4176 879 194 173 80 112 99
1050.0 196 242 495 1029 2356 4578 6211 6241 4158 1886
1090.0 1031 768 602 557 493 477 417 388 318 236
1130.0 182 145 114 81 80 64 76 66 61 63
1170.0 76 126 233 386 503 519 402 262 153 120
1210.0 138 201 305 370 383 301 221 165 153 150
1250.0 166 183 187 178 147 110 95 107 119 144
1290.0 182 219 246 251 238 210 201 169 149 122
1330.0 91 73 36 38 52 54 59 56 55 75
1370.0 94 134 188 288 360 493 613 781 993 1224
1410.0 1360 1495 1575 1783 2017 1959 1653 1138 748 631
1450.0 551 548 564 632 626 731 932 1618 3220 6663
1490.0 9746 10000 7388 3041 950 475 287 203 148 128
1530.0 101 84 102 49 63 78 95 71 132 128
1570.0 157 175 264 324 489 704 848 798 627 429
1610.0 328 324 307 304 275 250 213 167 149 134
1650.0 95 92 108 66 73 65 46 64 41 50
1690.0 51 64 57 77 85 98 90 83 93 97
1730.0 97 81 102 95 81 54 84 72 94 129
1770.0 197 262 307 260 181 77 44 22 5 18
1810.0 6 4 12 12 10 13 20 33 21 34
1850.0 39 59 71 96 118 136 172 187 202 206
1890.0 223 235 263 269 264 244 208 171 122 91
1930.0 71 45 39 16 15 15 16 16 19 11
1970.0 18 16 18 15 13 2 6 6 6 4
2010.0 5 1 0 5 9 14 16 13 11 12
2050.0 15 12 14 10 6 10 12 15 16 14
2090.0 17 17 18 20 18 21 19 21 21 19
2130.0 21 18 22 17 19 16 14 10 15 15
2170.0 11 8 11 8 7 9 6 14 12 12
2210.0 10 8 14 20 24 31 38 52 78 107
2250.0 146 189 216 217 183 143 110 94 82 83
2290.0 83 94 97 100 100 106 91 81 95 103
2330.0 96 93 77 82 112 58 92 67 58 62
2370.0 74 76 76 63 48 32 34 25 18 22
2410.0 26 23 20 16 14 15 18 13 12 9
2450.0 10 11 9 9 8 11 12 6 10 8
2490.0 8 8 5 3 2 7 11 9 12 15
2530.0 19 21 28 31 43 49 51 50 53 58
2570.0 52 49 57 63 69 68 75 77 79 81
2610.0 75 64 52 36 24 16 14 13 15 19
2650.0 16 20 16 22 26 27 28 24 22 14
2690.0 11 14 15 22 19 20 21 30 34 34
2730.0 36 31 38 39 38 30 33 33 31 32
2770.0 31 39 36 34 27 29 28 29 28 33
2810.0 40 48 57 69 87 100 115 117 114 99
2850.0 86 72 64 59 51 49 43 42 44 45
2890.0 41 47 45 51 74 98 143 202 277 384
2930.0 485 555 529 444 327 251 219 206 194 183
2970.0 178 187 187 195 186 175 159 150 148 158
3010.0 166 203 252 338 491 704 893 960 901 751
3050.0 648 607 567 530 485 465 433 416 419 441
3090.0 475 491 483 436 353 269 180 123 85 69
3130.0 59 51 51 49 53 45 55 54 63 57
3170.0 69 78 78 79 85 91 91 94 85 72
3210.0 63 61 51 38 33 38 21 24 24 30
3250.0 18 23 20 24 30 26 24 23 19 23
3290.0 25 21 25 11 15 24 24 25 19 24
3330.0 19 14 14 13 4 13 14 16 20 26
3370.0 10 16 8 7 23 18 12 11 7 14
3410.0 9 13 22 15 18 15 11 9 11 14
3450.0 17 21 10 16 10 17 22 10 20 16
3490.0 19 6 11 19 9 21 20 17 19 17
3530.0 28 13 6 14 25 25 31 12 15 19
3570.0 36 26 24 26 30 50 44 16 15 15
3610.0 48 25 20 29 9 62 18 12 25 28
3650.0 51 18 52 49 40 58 41 76 25 62
3690.0 45 45 37 38 30 38 60 60 65 59
3730.0 54 64 45 59 85 45 93 26 30 32
3770.0 39 46 27 21 7 12 5 28 41 54
3810.0 9 45 38 55 33 20 52 46 32 29
3850.0 51 97 77 21 56 86 59 53 44 52
3890.0 31 56 44 73 52 64 11 45 61 40
3930.0 47 33 14 31 56 34 44 19 18 19
##END=
