##TITLE=Heptane, 3-(iodomethyl)-
##JCAMP-DX=4.24
##DATA TYPE=INFRARED SPECTRUM
##ORIGIN=Sadtler Research Labs Under US-EPA Contract
##OWNER=NIST Standard Reference Data Program
##CAS REGISTRY NO=1653-16-3
##MOLFORM=C 8 H 17 I
##XUNITS=1/CM
##YUNITS=ABSORBANCE
##XFACTOR=1.0
##YFACTOR=0.000093961
##DELTAX=4.0
##FIRSTX=450.0
##LASTX=3966.0
##FIRSTY=0.032604
##MAXX=3966
##MINX=450
##MAXY=0.93961
##MINY=0
##NPOINTS=880
##XYDATA=(X++(Y..Y))
450.0 347 476 536 91 238 255 271 531 1301 365
490.0 1197 0 746 159 351 225 254 234 291 128
530.0 178 62 80 561 354 379 588 477 296 261
570.0 288 368 476 423 516 489 528 551 706 738
610.0 767 605 455 372 322 297 270 261 213 195
650.0 165 174 137 171 130 149 112 139 129 143
690.0 144 135 174 121 169 171 217 233 268 293
730.0 334 285 313 303 290 273 284 357 412 445
770.0 383 399 489 446 406 360 377 308 343 357
810.0 311 282 287 186 170 192 234 189 240 207
850.0 203 179 182 205 185 201 194 207 194 218
890.0 205 240 224 250 230 233 225 227 230 214
930.0 234 216 218 211 239 243 260 253 268 254
970.0 243 235 227 214 196 199 187 194 166 184
1010.0 196 213 185 192 182 189 190 184 196 190
1050.0 188 180 203 190 208 197 212 208 232 237
1090.0 238 231 208 214 205 232 222 242 231 249
1130.0 230 261 276 303 330 362 429 490 579 659
1170.0 764 863 1054 1376 1854 2153 2082 1640 1125 832
1210.0 720 769 773 776 658 588 537 586 651 731
1250.0 752 749 767 790 809 757 714 643 620 548
1290.0 526 471 451 423 413 397 377 362 346 366
1330.0 384 460 524 591 593 568 509 480 456 440
1370.0 451 504 662 851 976 882 656 427 328 274
1410.0 276 285 320 408 576 807 959 959 881 908
1450.0 1037 1253 1493 1727 1783 1675 1373 997 656 427
1490.0 319 255 238 203 203 176 178 163 162 159
1530.0 155 151 145 141 130 138 129 130 119 131
1570.0 117 131 126 126 125 124 125 129 127 124
1610.0 125 115 122 115 115 109 113 106 112 106
1650.0 108 112 111 112 105 114 97 113 94 104
1690.0 95 102 87 98 87 94 93 86 96 90
1730.0 90 82 99 85 93 79 96 85 89 89
1770.0 82 90 86 86 76 91 81 93 81 83
1810.0 78 86 84 81 78 73 84 79 84 77
1850.0 90 77 91 79 85 76 83 80 82 79
1890.0 82 85 75 84 75 78 79 83 75 80
1930.0 78 81 76 75 81 76 78 67 84 70
1970.0 81 69 80 71 75 71 74 68 67 70
2010.0 68 75 67 83 76 84 77 84 74 84
2050.0 76 84 83 84 90 81 89 79 90 73
2090.0 83 72 81 78 84 79 81 79 80 83
2130.0 74 85 72 89 78 91 79 85 74 85
2170.0 81 87 90 83 90 86 95 83 95 81
2210.0 94 83 94 84 87 85 87 87 83 90
2250.0 79 87 82 89 80 92 80 89 80 80
2290.0 78 74 74 69 75 62 75 62 76 60
2330.0 73 60 68 73 74 64 70 65 67 85
2370.0 66 86 72 82 77 95 83 91 90 84
2410.0 86 84 89 80 85 76 83 69 73 71
2450.0 79 70 74 67 71 78 67 77 67 76
2490.0 64 80 63 72 65 76 70 79 81 89
2530.0 84 78 83 77 85 78 89 85 102 92
2570.0 104 96 99 98 96 103 96 110 96 108
2610.0 103 116 110 121 119 118 117 119 117 112
2650.0 111 116 124 119 134 125 142 132 154 150
2690.0 159 146 153 149 141 138 133 144 131 149
2730.0 153 172 179 199 200 205 200 188 176 168
2770.0 179 169 190 186 222 227 256 268 291 305
2810.0 332 338 371 413 466 572 707 898 1039 1159
2850.0 1289 1595 2033 2635 3138 3474 3503 3508 3685 3763
2890.0 3607 3154 2762 2576 2686 2960 3453 4116 5060 6177
2930.0 7436 8489 8877 8518 7266 5883 4858 4907 6061 8233
2970.0 10000 9873 7595 4784 2793 1787 1295 1041 907 845
3010.0 860 857 845 730 623 479 427 362 337 307
3050.0 291 271 252 252 237 235 220 230 204 219
3090.0 202 205 192 194 186 186 187 171 185 165
3130.0 183 156 169 140 159 132 149 134 153 144
3170.0 158 152 139 149 136 146 130 144 127 142
3210.0 122 135 106 116 112 107 115 98 105 86
3250.0 116 87 113 94 112 85 91 87 86 103
3290.0 89 99 94 111 90 100 68 109 93 110
3330.0 87 99 94 84 97 101 87 77 97 85
3370.0 94 77 85 73 101 93 90 77 94 96
3410.0 69 94 74 98 93 90 75 107 72 100
3450.0 95 104 93 74 99 85 102 73 119 74
3490.0 116 73 93 80 100 78 91 93 97 101
3530.0 75 105 87 95 79 104 71 106 99 110
3570.0 95 68 97 82 100 89 107 68 134 90
3610.0 102 68 117 75 103 105 85 78 89 102
3650.0 84 98 68 115 76 109 64 101 89 99
3690.0 103 87 87 64 77 82 94 69 102 59
3730.0 82 66 98 72 73 84 82 70 62 85
3770.0 79 95 82 101 71 107 58 84 74 90
3810.0 80 62 62 95 90 98 108 69 117 71
3850.0 62 93 61 69 84 158 76 76 67 80
3890.0 83 158 59 82 80 96 64 119 80 89
3930.0 137 91 98 116 142 72 117 70 118 91
##END=
