##TITLE=Benzene, 1-methoxy-4-phenoxy-
##JCAMP-DX=4.24
##DATA TYPE=INFRARED SPECTRUM
##ORIGIN=Sadtler Research Labs Under US-EPA Contract
##OWNER=NIST Standard Reference Data Program
##CAS REGISTRY NO=1655-69-2
##MOLFORM=C 13 H 12 O 2
##XUNITS=1/CM
##YUNITS=ABSORBANCE
##XFACTOR=1.0
##YFACTOR=0.000112869
##DELTAX=4.0
##FIRSTX=450.0
##LASTX=3966.0
##FIRSTY=0.005643
##MAXX=3966
##MINX=450
##MAXY=1.12869
##MINY=0
##NPOINTS=880
##XYDATA=(X++(Y..Y))
450.0 50 37 90 124 0 54 51 45 68 135
490.0 156 189 242 249 210 248 230 207 171 170
530.0 162 171 124 121 122 97 68 51 71 85
570.0 42 57 15 56 43 73 86 54 66 69
610.0 59 59 53 50 42 46 29 45 39 50
650.0 63 41 57 99 101 139 145 230 327 439
690.0 509 496 439 382 314 255 207 171 187 225
730.0 267 315 383 443 481 563 651 624 620 580
770.0 534 502 437 395 338 335 336 342 321 266
810.0 235 231 242 302 405 496 627 739 774 719
850.0 585 463 403 476 726 975 919 621 341 220
890.0 181 160 161 138 123 119 99 86 102 67
930.0 73 63 65 61 70 64 61 73 73 62
970.0 75 83 79 100 104 111 119 149 177 246
1010.0 289 294 362 467 551 592 671 779 888 906
1050.0 804 630 459 357 299 281 242 213 212 196
1090.0 226 264 291 289 250 210 180 149 112 110
1130.0 115 126 132 166 205 271 378 504 583 617
1170.0 622 709 930 1062 1026 922 947 1068 1171 1306
1210.0 1729 2464 3528 5100 7398 9503 10000 8392 5641 3800
1250.0 2714 1967 1399 1093 943 828 826 815 808 754
1290.0 687 640 570 501 425 362 302 252 244 262
1330.0 286 263 170 152 150 127 123 89 98 93
1370.0 110 96 101 119 92 118 103 53 127 133
1410.0 121 189 73 223 201 280 276 331 544 601
1450.0 645 588 549 730 889 1047 1055 1224 2034 3596
1490.0 5685 5794 4894 4479 5258 5207 3243 1802 910 682
1530.0 469 397 299 218 186 210 215 154 281 294
1570.0 321 424 563 745 948 1204 1340 1219 1067 757
1610.0 592 472 363 294 199 247 174 154 168 139
1650.0 92 83 100 99 91 98 45 113 6 67
1690.0 90 101 46 71 64 111 77 13 91 102
1730.0 95 22 100 104 26 43 65 71 75 89
1770.0 80 87 108 82 78 69 45 77 14 88
1810.0 76 52 104 58 76 65 90 99 86 100
1850.0 98 126 120 136 129 98 125 113 107 96
1890.0 74 71 86 73 69 74 84 98 80 104
1930.0 108 103 109 92 104 104 101 113 101 100
1970.0 94 99 107 87 96 87 86 104 103 94
2010.0 101 92 92 112 125 134 143 129 116 109
2050.0 106 104 114 115 106 121 98 98 88 93
2090.0 74 63 70 48 52 44 52 40 36 34
2130.0 40 34 34 28 34 32 31 28 28 40
2170.0 27 25 36 33 38 31 31 28 34 34
2210.0 29 28 28 27 32 31 26 29 27 29
2250.0 25 27 29 28 27 33 30 23 27 25
2290.0 23 19 18 18 20 8 15 6 8 15
2330.0 28 23 20 15 7 11 12 13 9 4
2370.0 20 16 28 35 39 48 53 47 50 57
2410.0 62 56 57 64 60 68 70 68 65 67
2450.0 62 56 57 53 52 45 44 45 38 40
2490.0 38 37 37 34 36 32 32 33 36 34
2530.0 33 33 37 35 39 37 36 33 31 40
2570.0 31 33 33 28 28 31 31 30 27 27
2610.0 33 26 25 26 28 24 25 24 27 21
2650.0 23 23 25 22 24 22 20 18 20 20
2690.0 23 24 21 24 28 21 22 23 26 28
2730.0 23 25 28 30 26 28 27 34 32 32
2770.0 32 37 35 37 38 43 47 51 51 58
2810.0 62 73 84 94 110 144 195 279 378 403
2850.0 341 250 191 164 155 152 144 150 149 158
2890.0 166 176 191 211 251 297 336 359 350 337
2930.0 326 341 386 445 498 516 514 487 454 411
2970.0 334 279 251 224 204 209 223 280 382 501
3010.0 543 446 299 222 211 227 271 326 408 495
3050.0 538 504 432 386 367 388 432 503 515 462
3090.0 365 295 280 258 225 185 142 109 80 63
3130.0 45 31 29 28 27 22 16 17 15 13
3170.0 12 19 19 14 14 9 10 3 10 11
3210.0 6 12 13 11 14 15 10 7 13 11
3250.0 6 6 9 19 11 20 14 14 14 8
3290.0 15 18 13 14 15 12 12 18 21 12
3330.0 12 20 19 22 20 16 20 15 15 24
3370.0 28 23 24 29 24 30 25 19 26 25
3410.0 23 16 21 18 16 18 20 26 19 17
3450.0 26 18 22 25 25 27 24 13 29 18
3490.0 12 22 19 21 14 20 24 22 16 8
3530.0 18 22 19 24 18 30 21 18 6 16
3570.0 16 27 17 20 28 21 35 15 28 18
3610.0 33 22 35 33 34 39 44 25 28 26
3650.0 35 32 29 39 8 46 32 61 17 36
3690.0 47 25 35 41 35 42 35 28 12 17
3730.0 34 59 62 25 87 60 80 33 32 48
3770.0 36 33 53 38 31 27 56 39 77 104
3810.0 35 47 38 94 32 45 55 54 68 34
3850.0 62 60 99 46 65 73 43 60 39 55
3890.0 42 50 50 64 29 48 54 36 65 42
3930.0 61 32 36 50 60 53 63 46 26 39
##END=
