##TITLE=Cyclohexanone, 4-(1,1-dimethylpropyl)-
##JCAMP-DX=4.24
##DATA TYPE=INFRARED SPECTRUM
##ORIGIN=Sadtler Research Labs Under US-EPA Contract
##OWNER=NIST Standard Reference Data Program
##CAS REGISTRY NO=16587-71-6
##MOLFORM=C 11 H 20 O
##XUNITS=1/CM
##YUNITS=ABSORBANCE
##XFACTOR=1.0
##YFACTOR=0.000093378
##DELTAX=4.0
##FIRSTX=450.0
##LASTX=3966.0
##FIRSTY=0.009431
##MAXX=3966
##MINX=450
##MAXY=0.93378
##MINY=0
##NPOINTS=880
##XYDATA=(X++(Y..Y))
450.0 101 69 81 68 73 68 50 55 44 78
490.0 82 108 171 226 242 271 269 245 206 278
530.0 335 423 457 172 99 146 294 416 386 213
570.0 72 47 46 59 65 44 28 32 44 49
610.0 50 37 43 20 11 26 24 27 9 24
650.0 23 42 33 47 51 59 29 27 25 29
690.0 32 25 17 19 33 20 33 27 38 41
730.0 58 78 90 129 165 217 265 304 307 303
770.0 315 328 368 382 266 148 119 99 109 82
810.0 75 68 72 64 73 87 104 104 97 66
850.0 56 42 46 46 51 48 51 62 78 80
890.0 92 100 105 113 106 109 123 143 163 176
930.0 199 231 277 348 414 444 423 367 290 235
970.0 200 198 225 286 351 385 377 332 297 305
1010.0 347 374 374 336 289 269 278 342 481 857
1050.0 1164 1137 894 579 430 380 309 255 208 202
1090.0 210 251 315 444 553 557 526 492 462 429
1130.0 421 419 443 498 611 771 932 1059 1098 1063
1170.0 1000 986 1078 1297 1694 2296 2866 2992 2743 2464
1210.0 2220 1953 1652 1361 1097 878 736 631 553 502
1250.0 463 418 365 322 268 226 214 219 239 254
1290.0 263 268 271 275 284 300 339 397 509 628
1330.0 687 687 622 549 469 390 345 361 454 591
1370.0 767 857 854 873 915 947 879 736 532 375
1410.0 335 394 491 644 734 800 806 755 699 652
1450.0 663 700 780 893 1002 1099 1095 1003 796 561
1490.0 349 230 154 113 76 50 53 39 29 37
1530.0 26 27 21 0 10 23 22 5 28 35
1570.0 34 32 41 35 38 33 35 30 31 36
1610.0 30 39 34 43 39 50 53 58 73 80
1650.0 90 109 149 157 174 188 202 240 248 283
1690.0 343 406 439 499 564 657 823 1186 2138 4115
1730.0 7271 9204 9566 7281 4099 2175 1384 978 802 701
1770.0 651 602 568 497 425 350 281 237 189 180
1810.0 159 153 137 121 91 65 52 46 35 24
1850.0 30 30 27 24 20 12 18 17 16 14
1890.0 12 15 15 22 21 21 20 17 14 9
1930.0 11 9 9 4 5 7 9 9 10 9
1970.0 7 9 8 9 6 6 6 11 14 12
2010.0 9 5 2 4 5 5 7 4 6 9
2050.0 10 11 14 16 13 16 15 15 15 13
2090.0 13 11 10 6 6 6 7 5 7 7
2130.0 7 8 4 6 6 8 10 13 12 13
2170.0 10 11 10 8 9 6 9 10 11 13
2210.0 12 9 11 14 15 12 15 15 17 18
2250.0 18 19 17 15 15 14 16 17 20 22
2290.0 23 28 33 35 35 39 33 31 30 25
2330.0 21 18 22 14 41 22 16 15 29 26
2370.0 38 35 38 40 31 22 20 19 19 17
2410.0 17 15 12 14 12 14 15 18 20 19
2450.0 21 21 21 19 16 15 16 15 17 16
2490.0 17 19 16 17 18 16 18 15 17 14
2530.0 16 18 22 21 21 17 22 21 23 24
2570.0 28 29 31 31 32 35 38 40 46 51
2610.0 58 60 63 69 69 68 72 72 72 74
2650.0 78 78 78 79 78 78 78 74 75 74
2690.0 69 66 66 66 70 73 75 76 82 87
2730.0 93 99 109 115 114 114 110 101 104 99
2770.0 107 112 117 124 135 144 151 156 167 180
2810.0 197 215 238 274 329 398 483 559 635 708
2850.0 807 933 1082 1294 1600 1998 2395 2715 2892 2973
2890.0 2939 2839 2719 2627 2613 2711 2881 3057 3196 3321
2930.0 3499 3736 4025 4285 4502 4779 5293 6296 7750 9266
2970.0 10000 9763 8119 6028 3987 2430 1470 950 677 524
3010.0 443 388 355 324 293 266 241 211 192 181
3050.0 171 167 163 159 159 159 151 142 132 124
3090.0 119 111 108 105 95 96 97 97 92 92
3130.0 89 87 85 81 78 79 74 79 73 70
3170.0 70 67 59 61 60 61 55 55 58 58
3210.0 56 54 55 50 49 43 39 35 36 34
3250.0 32 28 27 31 32 27 22 25 23 23
3290.0 23 20 24 21 21 21 27 27 27 29
3330.0 25 23 28 20 24 22 22 30 25 22
3370.0 28 27 29 29 31 34 43 40 40 37
3410.0 35 38 32 38 39 41 47 59 75 95
3450.0 116 124 119 100 64 41 31 18 24 18
3490.0 15 15 20 22 22 16 17 14 20 16
3530.0 15 20 15 16 12 15 19 19 18 47
3570.0 67 86 82 66 44 22 32 16 19 10
3610.0 14 9 15 20 26 29 29 30 38 40
3650.0 53 61 50 34 25 30 23 26 25 27
3690.0 26 19 19 23 20 20 22 22 15 23
3730.0 25 24 29 16 33 22 21 18 18 20
3770.0 14 23 12 18 12 18 20 32 15 27
3810.0 19 22 23 25 19 16 17 24 16 11
3850.0 18 29 32 19 26 32 25 27 28 30
3890.0 32 24 32 23 29 22 26 36 31 21
3930.0 37 28 29 27 30 37 26 31 21 28
##END=
