##TITLE=Benzenamine, 4-chloro-2-nitro-N-phenyl-
##JCAMP-DX=4.24
##DATA TYPE=INFRARED SPECTRUM
##ORIGIN=Sadtler Research Labs Under US-EPA Contract
##OWNER=NIST Standard Reference Data Program
##CAS REGISTRY NO=16611-15-7
##MOLFORM=C 12 H 9 Cl N 2 O 2
##XUNITS=1/CM
##YUNITS=ABSORBANCE
##XFACTOR=1.0
##YFACTOR=0.000040927
##DELTAX=4.0
##FIRSTX=450.0
##LASTX=3966.0
##FIRSTY=0.000000
##MAXX=3966
##MINX=450
##MAXY=0.40927
##MINY=0
##NPOINTS=880
##XYDATA=(X++(Y..Y))
450.0 0 361 379 528 364 531 525 492 588 769
490.0 885 1054 1129 807 703 689 742 692 716 672
530.0 649 635 624 588 537 498 486 443 416 440
570.0 402 430 457 431 428 407 452 445 462 461
610.0 458 464 474 463 474 511 555 567 528 528
650.0 552 591 652 666 708 659 634 608 698 876
690.0 1264 1524 1458 1096 822 702 643 641 626 585
730.0 600 605 648 749 854 1027 1395 1891 2114 1791
770.0 1245 817 664 587 532 521 525 525 573 720
810.0 910 1064 1000 822 683 613 579 538 503 565
850.0 683 832 829 656 531 488 476 491 572 661
890.0 768 845 954 1041 932 689 528 424 399 381
930.0 370 383 391 369 368 375 370 363 362 365
970.0 373 354 369 365 368 358 380 389 423 413
1010.0 412 408 423 502 571 569 504 484 468 480
1050.0 494 532 588 660 775 833 819 729 628 558
1090.0 527 540 547 598 672 742 753 721 662 624
1130.0 589 611 668 807 1112 1405 1393 1072 728 545
1170.0 500 496 498 527 548 587 615 655 684 745
1210.0 833 967 1102 1177 1238 1292 1393 1506 1712 2017
1250.0 2517 3203 4010 4591 4616 4026 3093 2313 1803 1563
1290.0 1479 1469 1453 1401 1319 1226 1156 1098 1145 1274
1330.0 1561 2053 2744 3394 3499 2953 2082 1448 1115 983
1370.0 898 835 779 747 756 745 777 766 785 786
1410.0 884 1043 1266 1504 1560 1419 1185 1086 1020 1049
1450.0 1049 1120 1173 1285 1521 1806 2238 2634 3125 3652
1490.0 4588 6081 8261 10000 9395 6796 4788 3300 2710 2383
1530.0 2408 2773 3465 3910 3537 2616 1853 1754 1916 2364
1570.0 2708 2886 2743 2548 2437 2688 3237 3586 3288 2511
1610.0 1990 1974 2349 2434 2055 1446 1020 805 712 641
1650.0 589 523 508 473 459 436 425 408 411 376
1690.0 401 406 390 395 418 442 452 486 517 534
1730.0 512 502 472 454 438 431 447 443 453 459
1770.0 459 449 456 439 424 402 384 382 369 367
1810.0 356 356 354 342 347 344 346 349 356 350
1850.0 357 351 357 363 357 357 364 367 360 364
1890.0 364 370 374 374 372 374 373 360 364 364
1930.0 373 380 385 381 378 381 375 378 363 360
1970.0 350 352 352 350 349 347 347 344 351 347
2010.0 348 346 346 350 354 357 356 366 359 372
2050.0 368 371 364 368 370 378 383 372 367 350
2090.0 351 346 348 347 346 346 343 350 351 344
2130.0 344 344 344 342 346 344 345 345 351 346
2170.0 350 348 347 348 346 349 343 347 346 348
2210.0 347 344 345 349 352 346 350 344 350 346
2250.0 351 346 348 348 355 358 362 370 368 380
2290.0 377 393 404 414 410 424 413 391 400 390
2330.0 377 379 372 379 408 402 402 397 370 363
2370.0 389 403 415 419 404 374 372 366 365 365
2410.0 379 371 370 370 367 366 367 374 377 376
2450.0 374 375 372 370 373 367 373 366 370 364
2490.0 369 362 362 369 359 359 362 362 361 362
2530.0 366 368 372 377 384 383 387 384 386 383
2570.0 374 375 370 370 368 361 356 364 365 366
2610.0 367 367 364 365 360 364 365 361 357 359
2650.0 356 357 358 347 353 357 353 360 358 360
2690.0 362 363 361 370 371 368 371 370 373 369
2730.0 373 375 384 379 375 375 377 383 384 383
2770.0 382 384 386 387 387 392 392 391 394 394
2810.0 395 393 402 402 410 405 411 410 398 401
2850.0 391 382 383 385 394 393 387 394 397 402
2890.0 401 392 386 379 381 371 367 358 351 346
2930.0 350 359 370 385 387 380 382 374 382 384
2970.0 380 386 382 374 377 376 368 369 376 386
3010.0 393 409 429 448 480 507 555 609 677 704
3050.0 699 666 644 640 661 719 785 829 783 731
3090.0 700 685 659 616 569 531 487 452 418 401
3130.0 390 380 382 376 368 369 372 371 371 370
3170.0 362 373 368 355 367 357 356 360 367 355
3210.0 362 367 374 357 358 358 355 353 354 367
3250.0 367 376 375 369 366 371 376 377 379 379
3290.0 392 407 412 420 444 450 450 450 451 461
3330.0 478 509 528 556 592 651 709 779 901 1052
3370.0 1210 1310 1338 1279 1162 1050 913 802 707 627
3410.0 584 538 496 481 460 440 422 417 413 401
3450.0 397 381 387 382 387 388 383 373 372 373
3490.0 365 367 371 359 358 345 373 369 356 354
3530.0 358 370 362 357 364 354 353 364 360 365
3570.0 357 358 365 371 372 366 358 351 345 361
3610.0 358 357 362 373 369 371 368 362 373 356
3650.0 367 375 365 388 367 355 356 365 367 356
3690.0 368 373 370 369 362 353 363 370 396 390
3730.0 358 375 379 367 344 340 343 360 373 345
3770.0 355 353 366 341 344 355 356 356 341 341
3810.0 341 347 341 341 349 344 348 340 346 341
3850.0 354 346 357 346 360 361 346 355 341 341
3890.0 350 372 345 371 355 358 362 355 341 371
3930.0 367 348 388 366 382 370 367 363 372 382
##END=
