##TITLE=Ethene, (2-methoxyethoxy)-
##JCAMP-DX=4.24
##DATA TYPE=INFRARED SPECTRUM
##ORIGIN=Sadtler Research Labs Under US-EPA Contract
##OWNER=NIST Standard Reference Data Program
##CAS REGISTRY NO=1663-35-0
##MOLFORM=C 5 H 10 O 2
##XUNITS=1/CM
##YUNITS=ABSORBANCE
##XFACTOR=1.0
##YFACTOR=0.000069791
##DELTAX=4.0
##FIRSTX=450.0
##LASTX=3966.0
##FIRSTY=0.001675
##MAXX=3966
##MINX=450
##MAXY=0.69791
##MINY=0
##NPOINTS=880
##XYDATA=(X++(Y..Y))
450.0 24 39 31 39 40 47 60 71 76 96
490.0 91 128 111 108 123 144 140 121 116 108
530.0 87 91 48 47 34 67 51 31 38 37
570.0 21 32 39 52 45 42 80 82 91 76
610.0 100 76 67 40 41 22 25 15 31 16
650.0 0 22 21 26 0 96 80 83 118 133
690.0 156 152 160 134 121 103 100 78 86 81
730.0 61 67 62 95 93 105 116 133 127 151
770.0 184 192 222 280 341 465 628 810 1015 1253
810.0 1507 1731 1922 2005 2044 2000 1928 1855 1785 1677
850.0 1556 1453 1358 1261 1155 1028 934 866 814 799
890.0 799 787 801 817 834 847 859 899 943 1020
930.0 1112 1228 1366 1483 1605 1714 1812 1922 2072 2084
970.0 2050 1964 1843 1655 1493 1340 1251 1253 1306 1390
1010.0 1465 1530 1585 1620 1634 1656 1723 1765 1765 1700
1050.0 1598 1481 1420 1412 1512 1724 2085 2532 2980 3407
1090.0 3739 3960 4027 3969 3863 3892 4110 4559 5275 6278
1130.0 7332 8057 8261 7882 7060 5948 4962 4440 4340 4435
1170.0 4632 4917 5279 5732 6247 6924 7752 8633 9506 10000
1210.0 9527 8333 6819 5181 3480 2358 1855 1628 1520 1444
1250.0 1384 1314 1246 1188 1136 1098 1080 1081 1084 1112
1290.0 1118 1122 1133 1214 1413 1806 2359 2806 2806 2704
1330.0 2435 1911 1322 983 861 928 1115 1270 1297 1264
1370.0 1231 1053 797 670 633 614 615 599 595 590
1410.0 588 576 514 483 445 421 416 471 572 731
1450.0 947 1138 1246 1326 1313 1182 1013 864 737 627
1490.0 520 457 403 372 343 325 337 331 313 318
1530.0 302 306 293 268 260 266 255 245 263 294
1570.0 319 376 461 565 743 964 1280 1714 2363 3280
1610.0 4196 4651 4832 5056 4972 4707 4808 4966 4898 4757
1650.0 4419 3461 2575 2052 1682 1382 1088 842 653 529
1690.0 449 379 291 229 197 185 173 163 187 210
1730.0 206 217 256 302 338 322 336 351 340 306
1770.0 258 226 188 157 136 121 101 91 81 73
1810.0 65 64 66 50 48 46 50 43 38 31
1850.0 35 45 43 58 70 73 86 100 98 90
1890.0 77 68 80 76 84 91 97 103 102 105
1930.0 97 92 92 89 89 90 91 96 98 102
1970.0 104 105 104 110 112 117 116 116 126 117
2010.0 117 111 109 109 111 110 110 111 118 117
2050.0 120 116 117 116 107 110 101 101 100 107
2090.0 102 107 107 107 107 107 103 106 94 94
2130.0 93 85 78 84 85 85 82 86 85 90
2170.0 90 85 77 77 70 69 55 53 48 45
2210.0 41 41 40 36 33 33 33 33 40 38
2250.0 31 38 38 37 33 38 32 28 28 22
2290.0 19 20 16 14 7 1 0 6 16 23
2330.0 33 17 27 50 29 8 37 36 46 26
2370.0 36 38 25 32 33 34 43 44 39 37
2410.0 37 38 38 38 38 30 31 31 23 23
2450.0 24 24 23 24 23 25 22 28 32 34
2490.0 32 39 36 37 37 38 37 37 44 38
2530.0 38 38 41 37 37 31 33 39 31 37
2570.0 38 38 44 46 56 60 62 65 65 68
2610.0 71 67 74 66 73 66 72 64 70 71
2650.0 58 58 66 71 72 73 73 73 80 79
2690.0 87 107 122 140 161 184 203 211 233 255
2730.0 262 263 263 262 262 270 273 280 287 296
2770.0 317 345 365 403 446 491 550 624 746 887
2810.0 1104 1399 1755 2033 2233 2395 2398 2319 2232 2210
2850.0 2191 2222 2307 2443 2659 2923 3212 3494 3727 3896
2890.0 3972 3973 3884 3760 3669 3615 3607 3661 3827 4056
2930.0 4243 4385 4312 4159 3892 3550 3218 2929 2663 2453
2970.0 2292 2197 2148 2166 2263 2366 2334 2163 1966 1700
3010.0 1300 970 796 674 597 539 496 460 455 445
3050.0 465 494 488 488 478 455 420 397 383 370
3090.0 341 331 301 278 278 306 372 477 603 611
3130.0 572 578 456 274 179 139 109 82 68 67
3170.0 69 66 54 58 60 55 54 51 43 39
3210.0 47 47 32 40 32 31 41 37 37 24
3250.0 25 39 29 34 31 34 32 19 26 12
3290.0 16 14 18 14 19 19 25 19 4 19
3330.0 12 10 10 15 17 10 8 7 17 10
3370.0 13 0 0 18 20 14 25 17 5 10
3410.0 18 7 23 15 11 32 3 17 17 18
3450.0 11 15 12 13 16 24 11 7 22 15
3490.0 15 1 22 35 13 10 23 18 17 28
3530.0 23 21 20 20 6 18 20 34 17 11
3570.0 37 23 30 43 25 17 17 30 37 38
3610.0 28 39 42 54 52 63 73 80 74 65
3650.0 70 56 63 61 48 35 26 25 43 37
3690.0 54 38 41 39 54 33 38 45 34 40
3730.0 42 34 31 31 31 36 31 36 38 37
3770.0 37 33 35 20 29 36 35 29 29 35
3810.0 35 26 27 20 19 27 26 26 21 25
3850.0 20 26 31 25 25 39 30 30 22 27
3890.0 22 27 31 26 28 23 36 41 49 56
3930.0 56 56 56 56 58 62 62 69 64 54
##END=
