##TITLE=2-Chloro-para-acetotoluidide
##JCAMP-DX=4.24
##DATA TYPE=INFRARED SPECTRUM
##ORIGIN=Sadtler Research Labs Under US-EPA Contract
##OWNER=NIST Standard Reference Data Program
##CAS REGISTRY NO=16634-82-5
##MOLFORM=C 9 H 10 Cl N O
##XUNITS=1/CM
##YUNITS=ABSORBANCE
##XFACTOR=1.0
##YFACTOR=0.000071179
##DELTAX=4.0
##FIRSTX=450.0
##LASTX=3966.0
##FIRSTY=0.043063
##MAXX=3966
##MINX=450
##MAXY=0.71179
##MINY=0
##NPOINTS=880
##XYDATA=(X++(Y..Y))
450.0 605 441 541 557 425 256 189 117 168 212
490.0 385 518 664 783 625 470 322 232 161 137
530.0 137 172 172 195 187 210 194 196 185 150
570.0 150 120 96 112 97 90 76 115 173 186
610.0 208 196 203 150 122 95 89 68 47 59
650.0 40 53 47 32 1 49 46 40 15 18
690.0 54 72 109 110 101 67 49 45 26 25
730.0 48 42 53 144 168 257 373 621 936 1186
770.0 1219 1108 898 777 702 622 640 761 915 1071
810.0 1108 996 868 730 635 545 428 319 245 184
850.0 136 114 101 75 58 50 51 43 37 37
890.0 39 38 44 51 56 71 79 100 111 124
930.0 123 113 104 105 93 94 86 84 81 78
970.0 72 55 63 65 69 73 71 69 70 83
1010.0 105 175 229 239 203 148 139 132 138 150
1050.0 152 159 160 160 166 164 175 185 193 212
1090.0 232 261 284 303 316 343 385 440 466 446
1130.0 404 338 298 274 261 248 239 239 236 239
1170.0 243 256 274 304 349 392 442 498 572 612
1210.0 622 603 617 659 762 972 1333 1668 1794 1621
1250.0 1326 1237 1200 1090 948 791 795 930 1123 1255
1290.0 1226 1042 822 720 819 1119 1401 1461 1266 960
1330.0 784 682 607 528 455 402 364 336 311 295
1370.0 291 287 308 336 393 482 647 931 1328 1651
1410.0 1773 1627 1402 1217 1043 856 702 641 578 578
1450.0 586 650 688 724 757 804 880 1000 1164 1367
1490.0 1651 2027 2472 3002 3728 4892 6715 8727 10000 9627
1530.0 8104 6132 4636 3562 2770 2005 1356 989 805 713
1570.0 676 700 751 885 1100 1434 1772 1983 1862 1554
1610.0 1252 1108 979 838 671 555 472 426 403 376
1650.0 346 353 344 350 378 395 438 491 531 623
1690.0 747 996 1371 2049 3021 4330 5507 6080 6041 5202
1730.0 3937 2823 1957 1399 993 786 634 545 468 429
1770.0 372 331 301 272 246 220 197 181 168 159
1810.0 146 145 144 133 133 121 129 119 122 116
1850.0 127 131 134 132 133 127 140 149 153 145
1890.0 137 128 117 107 96 89 80 80 65 67
1930.0 59 56 49 43 42 42 37 36 36 33
1970.0 33 32 33 31 30 29 24 22 23 24
2010.0 26 25 22 21 21 22 27 25 28 25
2050.0 25 22 20 20 21 24 27 31 27 28
2090.0 25 27 27 27 25 24 26 24 22 25
2130.0 28 27 31 30 32 35 34 34 33 33
2170.0 31 32 30 30 31 27 23 24 22 21
2210.0 20 16 19 16 19 20 21 22 26 29
2250.0 28 32 36 39 41 48 56 59 64 58
2290.0 56 50 50 49 48 49 53 49 53 54
2330.0 53 52 49 52 53 57 52 48 44 61
2370.0 60 62 56 48 36 27 23 18 17 11
2410.0 12 13 11 17 14 14 15 15 18 22
2450.0 20 23 28 25 28 24 28 29 27 25
2490.0 23 19 16 20 16 14 12 13 12 12
2530.0 8 11 9 6 7 5 3 5 3 5
2570.0 3 7 7 12 10 9 9 8 4 4
2610.0 6 5 2 4 4 2 5 5 7 7
2650.0 10 12 17 22 25 24 24 22 18 16
2690.0 16 17 17 21 23 21 26 27 30 29
2730.0 33 38 44 55 61 60 52 37 30 25
2770.0 22 24 23 19 19 18 22 26 28 22
2810.0 28 28 39 47 46 50 53 59 72 79
2850.0 87 106 136 171 213 270 334 378 392 376
2890.0 349 317 297 286 290 301 322 359 424 526
2930.0 659 779 795 706 553 416 341 302 290 281
2970.0 269 271 281 295 302 330 359 385 404 416
3010.0 431 444 480 545 674 811 861 793 669 581
3050.0 551 532 505 451 399 326 251 193 150 132
3090.0 119 115 115 110 111 107 103 95 87 86
3130.0 74 67 49 44 36 29 23 15 13 10
3170.0 9 7 9 6 7 7 8 12 7 7
3210.0 10 9 11 12 8 10 10 13 7 7
3250.0 11 12 11 11 6 1 12 14 12 15
3290.0 10 8 8 10 11 14 20 19 16 16
3330.0 23 22 32 25 27 26 18 26 28 25
3370.0 26 34 31 36 54 61 73 103 142 192
3410.0 270 391 577 841 1180 1464 1524 1325 956 598
3450.0 359 217 138 98 73 67 52 49 52 42
3490.0 31 18 22 25 21 16 15 10 13 17
3530.0 15 9 10 11 23 16 14 8 11 16
3570.0 17 10 11 13 16 31 9 7 15 12
3610.0 19 11 21 13 5 37 14 11 4 12
3650.0 22 9 22 2 7 15 15 9 5 15
3690.0 18 14 7 11 8 8 3 9 5 19
3730.0 9 21 24 28 36 15 20 1 10 9
3770.0 9 14 0 7 1 17 12 8 3 12
3810.0 9 15 12 13 1 4 19 15 9 18
3850.0 15 33 21 10 7 15 10 19 26 30
3890.0 22 32 23 35 17 17 6 31 18 15
3930.0 32 18 18 11 25 13 24 22 17 15
##END=
