##TITLE=N,N-Diethyl-N'-phenylethylenediamine
##JCAMP-DX=4.24
##DATA TYPE=INFRARED SPECTRUM
##ORIGIN=Sadtler Research Labs Under US-EPA Contract
##OWNER=NIST Standard Reference Data Program
##CAS REGISTRY NO=1665-59-4
##MOLFORM=C 12 H 20 N 2
##XUNITS=1/CM
##YUNITS=ABSORBANCE
##XFACTOR=1.0
##YFACTOR=0.000097363
##DELTAX=4.0
##FIRSTX=450.0
##LASTX=3966.0
##FIRSTY=0.072536
##MAXX=3966
##MINX=450
##MAXY=0.97363
##MINY=0
##NPOINTS=880
##XYDATA=(X++(Y..Y))
450.0 745 770 759 761 756 772 762 745 777 832
490.0 853 1012 968 930 861 750 714 608 528 594
530.0 591 585 555 493 505 457 525 476 455 486
570.0 434 406 375 440 530 455 363 401 355 366
610.0 381 344 371 366 383 415 449 447 406 572
650.0 514 469 559 613 635 634 811 1053 1580 2132
690.0 2164 1977 1495 1039 775 684 693 764 797 979
730.0 1257 1697 2527 3159 3503 3152 2442 1589 1107 767
770.0 624 534 511 435 404 364 342 374 350 328
810.0 288 240 198 160 157 130 125 124 91 91
850.0 134 123 218 251 289 291 261 203 141 105
890.0 127 155 182 228 291 280 271 173 162 136
930.0 121 121 68 51 64 45 53 57 78 108
970.0 103 118 143 219 314 483 613 626 422 290
1010.0 316 293 340 412 499 555 623 668 763 940
1050.0 1156 1447 1846 2250 2444 2398 2240 2032 1902 1753
1090.0 1629 1486 1381 1286 1191 1153 1129 1040 944 781
1130.0 649 591 514 468 468 534 572 599 651 802
1170.0 1024 1313 1502 1466 1277 1202 1327 1645 1919 1930
1210.0 1641 1248 973 855 864 943 1088 1330 1702 2193
1250.0 2677 2847 2708 2394 2223 2248 2300 2311 2280 2204
1290.0 2207 2298 2511 2753 3019 3275 3369 3169 2706 2146
1330.0 1731 1498 1422 1391 1404 1465 1462 1425 1402 1415
1370.0 1544 1802 1977 2034 1900 1640 1348 1037 794 672
1410.0 613 645 831 1122 1519 1887 1880 1575 1100 968
1450.0 1037 1198 1482 1567 1837 2086 2437 2639 2934 3253
1490.0 3671 4425 6400 9031 10000 7937 4777 2709 1785 1244
1530.0 956 866 754 770 620 600 639 757 611 531
1570.0 614 673 895 1139 1656 2533 3931 5893 7712 7984
1610.0 6493 4420 2967 1979 1273 830 617 497 358 379
1650.0 315 444 209 230 221 286 240 206 214 255
1690.0 161 153 226 247 173 112 135 208 93 83
1730.0 102 202 103 114 103 136 85 70 41 5
1770.0 46 69 12 28 35 41 83 59 93 78
1810.0 111 115 118 111 128 134 85 67 58 77
1850.0 35 20 25 27 24 62 23 23 20 39
1890.0 64 71 94 116 146 178 165 165 141 133
1930.0 119 93 53 50 31 28 23 37 17 22
1970.0 28 20 20 20 24 28 28 17 22 17
2010.0 19 18 32 22 23 18 15 16 21 27
2050.0 29 26 22 28 24 20 21 27 18 20
2090.0 24 20 21 26 24 25 26 27 33 24
2130.0 25 21 26 28 28 19 26 28 26 23
2170.0 27 36 37 33 35 30 36 31 26 18
2210.0 26 24 27 24 25 31 31 28 34 36
2250.0 37 44 43 40 38 49 45 39 44 50
2290.0 55 50 56 50 59 69 60 61 55 58
2330.0 81 79 59 75 34 69 105 113 94 107
2370.0 77 81 59 69 73 72 66 72 61 61
2410.0 57 61 66 61 58 58 52 53 57 53
2450.0 48 49 54 54 60 54 60 54 64 63
2490.0 59 62 71 62 56 67 73 77 79 79
2530.0 89 97 103 110 120 125 141 151 156 159
2570.0 168 173 175 171 169 168 162 151 149 145
2610.0 147 150 151 156 167 172 174 183 196 209
2650.0 230 239 255 265 286 297 318 335 356 388
2690.0 408 422 439 455 475 496 522 537 563 588
2730.0 601 616 631 654 668 703 759 828 888 959
2770.0 1023 1102 1198 1318 1474 1703 2003 2424 2917 3405
2810.0 3828 4067 4106 3948 3718 3448 3173 2920 2672 2481
2850.0 2324 2206 2114 2047 2025 2055 2181 2366 2559 2687
2890.0 2699 2639 2581 2527 2474 2447 2416 2447 2526 2727
2930.0 3016 3437 3853 4128 4095 3889 3649 3571 3744 4312
2970.0 5344 6438 6846 6204 4667 3217 2147 1509 1198 1039
3010.0 1029 1098 1219 1397 1521 1497 1333 1150 1089 1166
3050.0 1409 1739 2028 2065 1830 1456 1202 1097 1081 1082
3090.0 1037 931 803 688 587 496 411 342 293 213
3130.0 183 143 127 106 87 89 71 76 65 60
3170.0 62 57 67 55 56 62 67 49 58 47
3210.0 50 64 37 38 43 37 28 30 27 32
3250.0 36 26 24 29 30 31 35 37 36 36
3290.0 42 49 49 54 80 83 89 93 104 132
3330.0 148 159 193 223 255 273 297 303 331 347
3370.0 368 414 502 657 796 842 819 715 613 539
3410.0 496 463 441 411 390 355 303 271 254 247
3450.0 207 209 183 168 143 116 110 95 99 78
3490.0 73 69 46 63 51 42 41 37 39 29
3530.0 33 29 44 34 55 43 40 30 30 54
3570.0 59 31 33 34 64 58 42 42 32 40
3610.0 88 71 71 77 68 134 73 58 69 79
3650.0 129 66 64 40 57 99 102 102 63 54
3690.0 85 31 32 59 38 81 71 50 60 68
3730.0 57 105 106 112 133 129 76 51 40 42
3770.0 57 34 35 35 21 27 32 56 86 50
3810.0 45 59 69 75 51 52 70 98 58 68
3850.0 84 130 74 76 78 99 87 75 79 81
3890.0 62 59 70 78 57 53 59 49 34 18
3930.0 20 31 34 28 28 37 0 2 2 2
##END=
