##TITLE=Ethanone, 1-(2,4,6-trimethylphenyl)-
##JCAMP-DX=4.24
##DATA TYPE=INFRARED SPECTRUM
##ORIGIN=Sadtler Research Labs Under US-EPA Contract
##OWNER=NIST Standard Reference Data Program
##CAS REGISTRY NO=1667-01-2
##MOLFORM=C 11 H 14 O
##XUNITS=1/CM
##YUNITS=ABSORBANCE
##XFACTOR=1.0
##YFACTOR=0.000136444
##DELTAX=4.0
##FIRSTX=450.0
##LASTX=3966.0
##FIRSTY=0.000000
##MAXX=3966
##MINX=450
##MAXY=1.36444
##MINY=0
##NPOINTS=880
##XYDATA=(X++(Y..Y))
450.0 0 117 210 190 163 89 143 124 85 54
490.0 188 158 56 85 216 254 298 466 725 863
530.0 845 676 442 152 174 150 178 188 199 217
570.0 184 237 300 478 719 997 1105 920 686 433
610.0 300 225 210 190 182 168 172 181 174 212
650.0 243 403 562 728 786 756 578 428 265 181
690.0 126 124 106 111 108 119 123 122 161 164
730.0 183 215 254 238 198 189 140 125 105 110
770.0 107 108 121 123 130 129 138 147 195 199
810.0 240 221 210 211 180 265 441 846 1106 1733
850.0 2058 1431 1027 685 363 276 210 221 198 194
890.0 167 173 160 158 174 189 223 253 308 366
930.0 474 597 729 815 862 905 936 972 961 906
970.0 795 705 631 566 543 534 541 534 547 557
1010.0 576 577 595 592 597 606 634 685 766 887
1050.0 1055 1268 1402 1386 1182 886 604 431 343 295
1090.0 275 254 245 233 232 225 239 254 284 327
1130.0 348 361 349 341 348 472 804 1263 1465 1466
1170.0 1126 650 347 286 273 295 302 318 325 328
1210.0 346 372 438 556 792 1215 1959 3060 4232 4982
1250.0 4987 4111 2841 1905 1376 1003 742 606 583 609
1290.0 643 633 577 498 426 402 414 445 500 577
1330.0 689 858 1106 1521 2164 2895 3479 3468 2821 2012
1370.0 1358 1049 995 1032 1057 1048 945 854 843 887
1410.0 982 1121 1267 1433 1546 1610 1606 1589 1547 1516
1450.0 1473 1426 1358 1298 1233 1184 1111 1071 1051 1028
1490.0 984 956 925 893 861 831 815 812 806 826
1530.0 823 833 826 821 812 815 810 818 860 891
1570.0 930 950 950 910 867 833 885 1074 1483 2076
1610.0 2531 2579 2193 1549 890 568 447 414 418 435
1650.0 449 501 553 621 706 779 859 955 1070 1272
1690.0 1621 2223 3179 4602 6518 8513 10000 9622 7571 5104
1730.0 3009 1629 936 669 560 562 566 552 502 446
1770.0 374 336 315 297 281 245 213 181 156 144
1810.0 133 124 116 109 102 97 94 94 91 89
1850.0 93 94 94 94 99 97 107 115 120 127
1890.0 135 144 148 156 158 160 160 158 148 148
1930.0 141 134 122 112 111 110 103 99 96 86
1970.0 88 84 84 83 79 76 74 79 78 81
2010.0 81 87 88 89 89 87 85 80 79 77
2050.0 80 75 77 72 73 74 72 74 72 74
2090.0 72 73 72 74 70 69 68 68 67 69
2130.0 69 69 69 66 66 66 66 70 70 69
2170.0 73 79 77 79 79 72 73 73 71 70
2210.0 71 68 66 62 64 66 65 64 61 60
2250.0 58 58 61 65 62 65 66 70 74 84
2290.0 93 96 109 111 115 117 110 107 103 92
2330.0 87 73 66 85 58 90 61 79 58 60
2370.0 58 68 76 92 97 100 102 107 114 118
2410.0 119 118 115 111 107 101 95 93 95 94
2450.0 88 90 91 87 91 92 94 98 99 101
2490.0 103 102 99 99 95 93 91 89 86 84
2530.0 78 76 79 79 80 78 80 72 71 71
2570.0 70 71 73 75 80 83 81 79 78 75
2610.0 75 71 77 74 78 75 76 75 78 75
2650.0 83 88 94 99 107 111 113 115 118 111
2690.0 103 102 106 103 107 108 109 114 126 132
2730.0 153 185 220 258 279 277 254 211 184 163
2770.0 153 148 148 150 146 151 156 166 179 192
2810.0 204 224 237 256 276 308 343 384 433 510
2850.0 600 729 895 1105 1354 1571 1712 1740 1662 1551
2890.0 1470 1435 1451 1502 1593 1737 1952 2293 2755 3292
2930.0 3732 3932 3801 3444 2990 2549 2254 2065 1971 1921
2970.0 1888 1912 1940 1976 2004 2068 2125 2211 2284 2336
3010.0 2386 2434 2419 2374 2295 2164 2024 1882 1744 1571
3050.0 1378 1178 1009 872 765 698 632 589 543 488
3090.0 452 413 382 346 315 282 258 235 225 200
3130.0 182 173 162 163 145 139 135 127 124 122
3170.0 125 123 113 113 104 101 98 103 103 96
3210.0 98 90 90 83 90 93 93 91 101 102
3250.0 102 96 96 95 99 93 98 91 98 95
3290.0 91 86 92 95 93 79 104 98 87 98
3330.0 96 92 97 113 92 94 99 97 103 106
3370.0 114 119 123 141 147 160 173 190 206 205
3410.0 215 224 207 190 157 137 112 102 94 106
3450.0 93 96 93 94 95 93 89 90 77 84
3490.0 85 87 78 79 84 80 58 62 59 75
3530.0 74 78 75 69 73 59 74 73 80 67
3570.0 71 74 76 71 72 80 81 76 79 77
3610.0 78 78 80 64 61 68 65 86 60 78
3650.0 83 74 75 60 74 72 94 72 71 75
3690.0 85 81 72 75 69 63 75 67 58 66
3730.0 67 64 87 65 76 61 78 74 70 89
3770.0 77 61 73 66 69 77 77 96 89 85
3810.0 70 84 58 58 78 74 59 87 62 58
3850.0 69 73 72 92 67 65 95 101 79 97
3890.0 68 69 75 93 76 94 83 86 100 85
3930.0 99 91 94 91 113 96 122 89 80 103
##END=
