##TITLE=Heptanophenone
##JCAMP-DX=4.24
##DATA TYPE=INFRARED SPECTRUM
##ORIGIN=Sadtler Research Labs Under US-EPA Contract
##OWNER=NIST Standard Reference Data Program
##CAS REGISTRY NO=1671-75-6
##MOLFORM=C 13 H 18 O
##XUNITS=1/CM
##YUNITS=ABSORBANCE
##XFACTOR=1.0
##YFACTOR=0.000073212
##DELTAX=4.0
##FIRSTX=450.0
##LASTX=3966.0
##FIRSTY=0.000000
##MAXX=3966
##MINX=450
##MAXY=0.73212
##MINY=0
##NPOINTS=880
##XYDATA=(X++(Y..Y))
450.0 0 189 234 276 288 332 286 266 248 259
490.0 259 327 310 299 305 269 280 269 295 271
530.0 288 283 287 288 326 352 378 470 607 763
570.0 795 759 641 605 554 575 638 718 774 689
610.0 550 441 418 351 329 315 348 396 476 615
650.0 742 848 873 886 880 971 1108 1367 1906 2615
690.0 3467 3472 3014 2235 1682 1343 1210 1196 1229 1297
730.0 1391 1529 1665 1809 1891 1874 1724 1512 1287 1105
770.0 967 865 783 711 636 574 515 458 425 400
810.0 376 351 342 327 330 327 341 357 364 377
850.0 390 397 408 405 418 429 414 409 409 440
890.0 452 465 451 426 404 416 433 465 503 542
930.0 550 574 642 744 889 1059 1214 1299 1359 1401
970.0 1463 1518 1545 1523 1464 1368 1286 1291 1362 1364
1010.0 1268 1247 1330 1311 1146 894 743 718 717 700
1050.0 659 619 566 531 520 527 524 497 467 446
1090.0 433 451 483 520 562 585 585 537 491 450
1130.0 428 419 435 461 497 566 652 755 864 1015
1170.0 1205 1669 2390 2675 2362 1783 1772 2160 2456 2584
1210.0 2621 2855 3248 3606 3680 3422 3073 2855 2763 2672
1250.0 2562 2458 2484 2635 2854 3016 3018 2879 2663 2412
1290.0 2178 2003 1852 1717 1628 1638 1739 1831 1845 1780
1330.0 1698 1642 1634 1674 1771 1911 2031 2049 1949 1807
1370.0 1638 1448 1272 1141 1013 864 717 642 620 648
1410.0 702 770 799 797 783 798 891 1092 1525 2166
1450.0 2610 2542 2145 1831 1676 1467 1219 964 769 619
1490.0 544 500 461 430 400 384 369 356 348 357
1530.0 359 361 355 333 330 334 342 340 374 419
1570.0 497 616 774 898 937 924 953 1073 1103 980
1610.0 760 601 519 458 409 376 377 372 397 414
1650.0 461 514 599 674 752 849 986 1277 1753 2736
1690.0 4377 6604 8761 10000 9393 7496 4866 2877 1733 1198
1730.0 892 750 659 614 577 557 550 522 506 476
1770.0 452 408 386 351 327 307 318 338 378 429
1810.0 442 412 352 312 285 272 258 249 242 235
1850.0 237 236 238 234 232 233 245 256 268 285
1890.0 303 319 323 324 318 311 296 274 255 242
1930.0 238 238 251 261 289 319 345 355 352 343
1970.0 336 319 283 247 226 219 215 216 210 208
2010.0 210 210 208 206 212 210 212 207 206 206
2050.0 205 207 206 206 201 204 200 200 199 198
2090.0 201 199 200 198 196 195 198 195 195 197
2130.0 198 196 198 200 201 201 200 205 206 202
2170.0 204 206 208 204 203 200 202 199 203 198
2210.0 201 204 202 198 202 203 204 205 203 207
2250.0 210 213 215 215 216 213 218 216 217 210
2290.0 203 195 190 191 198 199 218 238 238 242
2330.0 233 235 236 249 240 226 222 220 222 216
2370.0 225 222 221 209 207 213 220 219 218 219
2410.0 215 219 215 215 217 216 218 216 217 212
2450.0 209 213 211 209 212 210 212 211 209 209
2490.0 207 213 210 208 209 207 209 209 211 211
2530.0 215 218 218 217 221 221 224 228 229 229
2570.0 225 232 234 239 242 248 251 254 259 257
2610.0 249 248 250 254 261 257 256 257 263 261
2650.0 266 268 269 273 282 289 292 294 295 298
2690.0 298 299 294 290 289 283 286 286 292 296
2730.0 301 311 318 328 334 332 329 330 335 335
2770.0 339 348 358 367 383 399 420 446 476 498
2810.0 528 564 607 640 678 723 786 871 1000 1191
2850.0 1517 2029 2709 3384 3861 4047 3953 3805 3696 3591
2890.0 3347 3121 3141 3375 3693 4061 4525 5160 6027 7102
2930.0 8213 8959 9187 8869 8138 7184 6433 6257 6617 7239
2970.0 7371 6482 4825 3269 2307 1764 1432 1219 1069 960
3010.0 885 835 819 851 930 1033 1141 1239 1291 1241
3050.0 1148 1103 1210 1408 1672 2073 2321 2134 1689 1481
3090.0 1524 1468 1271 1032 856 728 587 479 395 357
3130.0 331 313 303 299 293 298 302 302 306 305
3170.0 291 273 267 255 256 246 241 241 235 229
3210.0 225 229 221 219 212 210 211 207 209 204
3250.0 203 203 204 200 204 207 201 197 202 200
3290.0 205 209 210 207 201 208 205 206 211 211
3330.0 207 204 212 213 216 219 222 236 249 262
3370.0 281 306 321 329 331 329 316 291 268 246
3410.0 225 217 218 210 206 215 211 214 209 216
3450.0 212 212 209 213 209 204 203 209 208 207
3490.0 213 203 203 210 200 203 202 209 209 208
3530.0 195 194 200 205 199 196 194 195 193 202
3570.0 204 205 199 197 208 207 214 196 201 199
3610.0 197 191 208 202 204 214 215 209 209 213
3650.0 212 220 228 220 204 210 218 213 209 218
3690.0 212 215 216 224 221 220 218 222 227 227
3730.0 219 222 217 209 220 212 218 209 202 218
3770.0 214 203 209 212 216 224 208 209 210 211
3810.0 194 204 204 210 209 212 206 222 218 213
3850.0 210 210 196 198 209 218 218 216 217 217
3890.0 209 218 213 225 225 213 220 209 205 211
3930.0 215 213 208 224 225 215 212 218 218 222
##END=
