##TITLE=1-Octanone, 1-phenyl-
##JCAMP-DX=4.24
##DATA TYPE=INFRARED SPECTRUM
##ORIGIN=Sadtler Research Labs Under US-EPA Contract
##OWNER=NIST Standard Reference Data Program
##CAS REGISTRY NO=1674-37-9
##MOLFORM=C 14 H 20 O
##XUNITS=1/CM
##YUNITS=ABSORBANCE
##XFACTOR=1.0
##YFACTOR=0.000081714
##DELTAX=4.0
##FIRSTX=450.0
##LASTX=3966.0
##FIRSTY=0.015035
##MAXX=3966
##MINX=450
##MAXY=0.81714
##MINY=0
##NPOINTS=880
##XYDATA=(X++(Y..Y))
450.0 184 77 2 41 91 71 16 23 24 59
490.0 76 95 106 89 95 93 83 38 112 59
530.0 76 124 85 110 119 126 188 247 347 482
570.0 508 485 407 355 347 359 414 464 484 416
610.0 319 233 185 151 126 131 149 184 235 357
650.0 475 578 601 611 615 723 886 1079 1513 2076
690.0 2801 2805 2456 1823 1381 1089 970 926 948 991
730.0 1073 1168 1274 1394 1465 1453 1304 1112 927 784
770.0 684 577 479 400 334 296 256 237 209 206
810.0 168 169 155 142 132 116 115 112 107 98
850.0 87 84 91 89 108 119 131 152 166 181
890.0 188 204 208 214 216 236 255 264 302 335
930.0 349 351 394 435 487 552 613 687 759 874
970.0 1004 1128 1228 1291 1292 1235 1155 1138 1184 1106
1010.0 899 775 753 749 696 540 406 366 370 351
1050.0 325 307 290 281 282 278 259 232 203 182
1090.0 166 179 189 204 220 234 236 214 192 169
1130.0 157 156 171 186 223 284 367 472 573 699
1170.0 847 1221 1810 2039 1724 1273 1282 1515 1747 2005
1210.0 2347 2743 2999 2992 2732 2398 2139 1986 1920 1904
1250.0 1942 2062 2265 2470 2600 2526 2284 2022 1832 1692
1290.0 1601 1531 1448 1347 1256 1254 1316 1374 1348 1284
1330.0 1226 1198 1221 1299 1423 1553 1623 1575 1440 1288
1370.0 1146 980 847 745 647 522 411 355 343 369
1410.0 408 468 477 487 488 533 624 813 1204 1740
1450.0 2099 2013 1699 1469 1324 1107 883 641 479 342
1490.0 279 240 204 174 123 110 98 110 95 117
1530.0 105 113 105 95 84 90 102 100 131 173
1570.0 248 353 485 570 587 579 617 708 699 589
1610.0 418 309 234 199 160 143 141 147 166 190
1650.0 239 282 355 430 508 611 759 1069 1529 2456
1690.0 3888 5741 7445 8247 7562 5874 3736 2198 1276 861
1730.0 588 463 375 331 284 254 242 213 201 181
1770.0 177 155 137 112 91 88 95 127 148 191
1810.0 190 156 103 74 57 45 31 20 17 6
1850.0 17 14 20 16 21 21 36 45 55 74
1890.0 82 102 99 100 92 85 73 58 45 36
1930.0 34 32 42 56 84 108 125 132 127 121
1970.0 119 99 63 39 24 23 18 14 12 14
2010.0 12 10 12 13 15 14 13 11 12 14
2050.0 13 14 15 13 7 7 6 4 3 5
2090.0 2 4 6 4 6 2 4 3 5 2
2130.0 3 1 1 2 5 3 3 6 5 9
2170.0 8 9 9 8 8 8 10 5 7 7
2210.0 7 7 5 6 2 6 6 10 8 9
2250.0 9 15 15 15 11 10 16 18 19 16
2290.0 20 17 23 23 22 27 32 36 38 25
2330.0 13 20 22 40 34 27 24 19 47 40
2370.0 45 46 52 47 37 28 25 20 23 24
2410.0 23 22 18 15 10 8 12 11 11 10
2450.0 12 6 11 11 14 9 13 16 10 9
2490.0 12 13 4 11 8 11 12 15 14 15
2530.0 20 18 20 22 26 25 26 25 29 30
2570.0 32 39 37 43 47 52 52 55 58 58
2610.0 58 53 58 62 65 64 68 66 70 76
2650.0 78 81 83 87 89 100 103 112 111 113
2690.0 110 111 109 106 109 104 104 102 111 113
2730.0 117 123 133 143 147 152 146 152 155 158
2770.0 165 172 180 197 212 233 258 284 312 344
2810.0 376 415 457 496 545 600 672 773 925 1163
2850.0 1545 2130 2906 3648 4095 4140 3899 3625 3442 3296
2890.0 3084 2943 3014 3275 3649 4105 4691 5482 6562 7886
2930.0 9222 9978 10000 9321 8245 7087 6221 5868 5997 6338
2970.0 6226 5303 3882 2674 1928 1461 1167 964 821 726
3010.0 655 620 611 640 694 774 865 931 963 914
3050.0 852 846 960 1124 1366 1689 1859 1665 1316 1186
3090.0 1193 1098 911 718 572 463 340 251 180 148
3130.0 123 112 97 97 98 103 105 105 105 102
3170.0 95 80 66 60 60 59 50 46 44 42
3210.0 41 35 30 24 29 19 18 17 20 8
3250.0 21 17 20 9 14 19 15 13 11 12
3290.0 14 25 21 15 20 14 14 8 15 15
3330.0 26 20 22 25 33 36 31 39 50 69
3370.0 84 93 117 120 121 118 100 73 62 41
3410.0 34 23 24 23 22 20 28 18 23 34
3450.0 16 20 13 16 16 11 18 21 13 10
3490.0 20 20 14 18 17 18 2 6 15 9
3530.0 9 11 12 10 9 11 13 7 21 1
3570.0 21 32 38 31 20 9 24 34 15 16
3610.0 14 23 12 31 22 37 28 34 30 34
3650.0 42 39 42 31 37 33 38 37 33 28
3690.0 42 38 24 40 23 48 40 31 49 36
3730.0 32 32 29 39 10 43 45 29 33 25
3770.0 42 26 32 35 37 40 35 23 24 28
3810.0 39 30 28 24 30 33 27 34 35 34
3850.0 24 0 24 22 39 27 19 12 10 4
3890.0 34 39 11 15 21 43 23 10 23 19
3930.0 23 12 31 24 15 25 18 12 14 30
##END=
