##TITLE=Dodecanophenone
##JCAMP-DX=4.24
##DATA TYPE=INFRARED SPECTRUM
##ORIGIN=Sadtler Research Labs Under US-EPA Contract
##OWNER=NIST Standard Reference Data Program
##CAS REGISTRY NO=1674-38-0
##MOLFORM=C 18 H 28 O
##XUNITS=1/CM
##YUNITS=ABSORBANCE
##XFACTOR=1.0
##YFACTOR=0.000075854
##DELTAX=4.0
##FIRSTX=450.0
##LASTX=3966.0
##FIRSTY=0.024122
##MAXX=3966
##MINX=450
##MAXY=0.75854
##MINY=0
##NPOINTS=880
##XYDATA=(X++(Y..Y))
450.0 318 181 69 137 37 4 33 82 103 106
490.0 114 76 130 116 114 137 119 106 102 109
530.0 150 153 164 145 140 162 157 168 221 302
570.0 322 321 280 243 244 235 236 272 280 243
610.0 184 149 149 109 90 106 134 117 183 229
650.0 284 332 328 345 363 402 474 541 751 1068
690.0 1460 1434 1219 922 735 617 563 567 570 588
730.0 610 642 691 714 742 758 667 566 500 442
770.0 369 326 270 257 200 170 159 140 139 124
810.0 108 94 99 90 71 79 89 86 87 85
850.0 80 92 75 77 82 83 83 89 103 98
890.0 95 105 117 126 127 142 148 168 169 190
930.0 194 200 207 241 257 298 356 398 432 473
970.0 505 537 551 547 545 527 507 526 601 620
1010.0 562 536 509 452 368 276 225 186 194 192
1050.0 186 214 192 202 213 225 214 209 185 175
1090.0 164 162 157 159 152 157 155 156 152 143
1130.0 135 137 139 155 182 219 265 309 335 373
1170.0 443 618 914 1082 883 691 714 831 1007 1172
1210.0 1300 1359 1378 1329 1246 1157 1065 1028 1018 1016
1250.0 1036 1083 1146 1213 1228 1182 1113 1032 965 905
1290.0 845 790 741 697 668 666 705 737 725 695
1330.0 669 663 680 738 820 893 934 899 822 747
1370.0 662 570 478 424 360 293 239 213 204 219
1410.0 245 274 281 291 283 313 370 496 716 1010
1450.0 1258 1211 1111 1030 915 775 579 411 298 227
1490.0 170 159 126 103 107 84 67 81 78 73
1530.0 75 73 77 63 65 60 72 76 100 105
1570.0 145 193 266 294 306 291 319 367 365 304
1610.0 215 174 133 119 94 98 81 99 88 124
1650.0 113 194 187 235 269 325 403 567 803 1246
1690.0 1946 2821 3711 4059 3716 2680 1748 1016 667 450
1730.0 358 286 266 230 214 199 195 191 164 161
1770.0 130 114 75 70 57 61 62 78 95 110
1810.0 111 87 68 51 40 31 30 18 17 15
1850.0 17 19 17 17 15 21 26 31 34 42
1890.0 51 53 57 55 56 48 46 40 27 26
1930.0 28 30 31 37 49 64 74 76 76 69
1970.0 69 63 48 34 29 27 24 24 20 23
2010.0 21 27 26 23 25 23 28 26 28 25
2050.0 27 25 23 21 22 21 23 19 20 20
2090.0 15 20 20 18 17 14 20 15 12 16
2130.0 19 14 16 15 16 16 14 20 23 23
2170.0 19 21 21 22 22 21 17 21 12 16
2210.0 17 14 17 19 18 14 13 14 14 16
2250.0 14 17 19 22 16 19 27 30 34 35
2290.0 40 51 59 65 72 85 91 98 101 90
2330.0 98 97 77 101 89 90 107 86 120 96
2370.0 90 66 64 61 36 16 9 8 10 8
2410.0 6 9 8 4 5 9 8 6 8 5
2450.0 4 3 7 0 0 2 1 5 5 9
2490.0 5 7 6 6 7 7 16 17 14 16
2530.0 21 19 22 20 20 24 25 27 27 26
2570.0 30 32 32 33 36 42 48 43 46 48
2610.0 53 48 53 53 56 58 57 62 60 69
2650.0 68 73 74 76 86 89 91 97 103 102
2690.0 105 101 98 96 99 94 97 93 98 95
2730.0 94 107 105 112 114 116 117 116 120 121
2770.0 127 136 145 153 168 182 208 225 246 270
2810.0 289 323 354 393 430 476 534 623 773 998
2850.0 1385 2035 2937 3721 3883 3514 2973 2538 2291 2142
2890.0 2018 2009 2156 2454 2847 3326 3913 4705 5885 7558
2930.0 9240 10000 9384 7990 6436 5104 4154 3655 3520 3515
2970.0 3331 2749 2008 1433 1074 841 688 578 502 452
3010.0 408 382 371 379 407 438 474 498 506 482
3050.0 440 440 495 575 693 839 925 810 633 589
3090.0 600 551 441 354 292 231 179 134 109 92
3130.0 81 71 72 69 66 66 74 68 75 67
3170.0 60 50 47 44 39 44 40 35 34 29
3210.0 26 29 24 19 22 21 17 18 22 18
3250.0 22 14 13 15 13 14 19 16 12 16
3290.0 14 15 12 9 16 13 14 8 12 16
3330.0 13 20 16 15 20 21 25 22 39 42
3370.0 37 51 54 64 57 60 53 38 37 28
3410.0 19 15 10 9 12 16 19 15 19 17
3450.0 15 10 15 15 15 13 14 15 22 12
3490.0 14 22 12 11 13 12 8 11 12 1
3530.0 7 15 10 20 8 10 13 5 10 18
3570.0 15 34 42 37 40 41 33 22 18 20
3610.0 29 22 34 36 22 38 27 24 32 32
3650.0 41 27 48 27 25 38 25 31 25 40
3690.0 31 32 21 25 28 29 36 28 15 16
3730.0 26 23 19 44 35 40 36 16 24 15
3770.0 10 12 19 8 18 16 25 22 28 23
3810.0 33 25 31 30 14 24 25 18 18 25
3850.0 12 46 22 22 21 15 28 24 33 27
3890.0 38 21 39 16 16 25 40 21 30 16
3930.0 32 36 30 21 16 26 11 30 21 31
##END=
