##TITLE=Hexane, 2,2,4-trimethyl-
##JCAMP-DX=4.24
##DATA TYPE=INFRARED SPECTRUM
##ORIGIN=Sadtler Research Labs Under US-EPA Contract
##OWNER=NIST Standard Reference Data Program
##CAS REGISTRY NO=16747-26-5
##MOLFORM=C 9 H 20
##XUNITS=1/CM
##YUNITS=ABSORBANCE
##XFACTOR=1.0
##YFACTOR=0.000135883
##DELTAX=4.0
##FIRSTX=450.0
##LASTX=3966.0
##FIRSTY=0.038183
##MAXX=3966
##MINX=450
##MAXY=1.35883
##MINY=0
##NPOINTS=880
##XYDATA=(X++(Y..Y))
450.0 281 90 45 101 31 102 72 57 39 77
490.0 86 5 55 34 60 57 60 98 64 35
530.0 29 46 54 69 57 51 59 65 54 61
570.0 46 46 77 61 74 12 0 65 42 59
610.0 55 58 36 33 42 51 57 68 63 27
650.0 40 44 45 47 59 51 38 57 40 37
690.0 39 48 36 45 42 42 48 49 52 34
730.0 47 24 87 44 59 67 58 66 69 80
770.0 81 89 103 77 159 113 74 67 61 52
810.0 56 49 54 47 47 47 49 56 48 60
850.0 54 59 65 64 59 62 60 60 65 63
890.0 71 67 66 57 56 61 69 80 89 99
930.0 92 96 86 91 93 97 106 117 135 156
970.0 171 165 167 167 152 159 165 166 147 130
1010.0 119 121 116 124 116 114 98 92 75 64
1050.0 62 55 52 49 51 51 51 60 59 70
1090.0 72 79 79 81 85 84 82 80 79 74
1130.0 73 72 78 88 116 136 144 145 129 113
1170.0 97 100 110 131 158 206 260 303 327 315
1210.0 271 209 172 153 163 194 242 293 335 347
1250.0 321 280 220 183 155 147 141 140 141 134
1290.0 132 121 122 112 108 102 102 100 104 113
1330.0 118 129 134 166 210 296 431 623 840 1056
1370.0 1197 1184 1072 944 850 791 712 597 485 379
1410.0 236 171 134 146 138 163 180 243 295 371
1450.0 489 632 843 1025 1196 1348 1378 1322 1144 925
1490.0 667 456 289 185 163 119 82 94 88 86
1530.0 64 70 76 78 62 61 65 76 90 54
1570.0 62 68 70 52 56 54 47 59 50 54
1610.0 44 66 60 60 48 62 52 71 49 62
1650.0 50 101 51 51 56 54 60 53 45 76
1690.0 45 46 73 66 51 46 52 52 53 40
1730.0 42 54 55 41 44 43 48 50 52 46
1770.0 43 53 38 40 37 43 41 39 35 41
1810.0 38 38 35 37 40 37 35 33 39 35
1850.0 37 36 35 33 36 36 38 33 35 33
1890.0 36 34 37 35 33 33 33 34 33 33
1930.0 36 36 38 33 38 33 36 36 33 30
1970.0 31 32 34 33 32 29 26 30 27 24
2010.0 22 20 20 21 19 21 22 19 17 16
2050.0 21 19 18 17 22 24 23 27 31 31
2090.0 29 27 31 32 34 30 28 30 28 30
2130.0 27 26 27 26 27 28 28 29 25 22
2170.0 24 24 21 24 24 25 25 24 25 22
2210.0 23 23 23 23 23 21 21 22 18 20
2250.0 21 20 20 21 19 19 20 17 15 18
2290.0 16 15 15 15 16 12 17 21 24 21
2330.0 20 19 22 22 3 17 34 35 36 15
2370.0 2 2 2 3 7 17 23 24 24 24
2410.0 20 21 22 19 18 15 14 14 9 9
2450.0 12 13 11 11 9 11 14 11 12 11
2490.0 12 10 9 7 4 8 7 7 2 6
2530.0 4 6 6 10 11 16 14 18 16 14
2570.0 19 18 21 24 23 23 22 27 25 25
2610.0 29 29 28 33 33 31 36 39 42 43
2650.0 41 44 46 48 52 61 64 67 62 63
2690.0 67 65 65 70 72 81 83 97 102 113
2730.0 111 115 116 112 112 107 109 102 97 90
2770.0 85 87 92 100 108 116 134 149 160 178
2810.0 199 219 241 269 301 348 402 476 578 700
2850.0 862 1069 1312 1596 1935 2274 2596 2876 3043 3109
2890.0 3143 3220 3367 3609 3901 4169 4282 4248 4135 4029
2930.0 3979 4066 4270 4640 5154 5994 7160 8450 9553 10000
2970.0 9342 7665 5819 4071 2703 1771 1188 832 607 466
3010.0 365 299 242 209 182 166 156 142 134 127
3050.0 126 113 110 107 104 94 94 91 81 82
3090.0 76 79 70 69 69 67 62 58 63 61
3130.0 66 62 65 67 58 69 63 67 58 70
3170.0 64 65 68 68 63 66 60 58 63 53
3210.0 54 54 51 56 44 41 51 36 39 31
3250.0 25 34 22 25 15 19 26 25 25 24
3290.0 14 14 20 22 23 26 24 11 27 22
3330.0 9 23 20 11 38 31 35 36 35 29
3370.0 28 32 19 29 21 14 23 29 24 26
3410.0 17 28 29 23 21 25 18 28 26 36
3450.0 27 32 31 26 33 30 29 31 28 24
3490.0 24 27 26 22 4 31 28 21 35 25
3530.0 34 23 19 23 26 27 24 26 29 21
3570.0 5 27 25 32 16 26 32 26 14 27
3610.0 22 25 12 18 38 28 15 13 21 24
3650.0 29 36 13 12 12 31 30 21 25 33
3690.0 39 34 20 4 2 4 15 12 11 2
3730.0 10 11 23 9 33 15 27 3 5 4
3770.0 10 2 4 10 2 3 2 6 3 15
3810.0 2 16 6 15 3 12 16 24 2 6
3850.0 17 11 17 36 38 2 2 2 2 15
3890.0 10 10 23 11 3 10 25 25 2 2
3930.0 22 2 5 1 2 2 10 2 2 2
##END=
