##TITLE=2,3-Dimethyl-1-hexene
##JCAMP-DX=4.24
##DATA TYPE=INFRARED SPECTRUM
##ORIGIN=Sadtler Research Labs Under US-EPA Contract
##OWNER=NIST Standard Reference Data Program
##CAS REGISTRY NO=16746-86-4
##MOLFORM=C 8 H 16
##XUNITS=1/CM
##YUNITS=ABSORBANCE
##XFACTOR=1.0
##YFACTOR=0.000132172
##DELTAX=4.0
##FIRSTX=450.0
##LASTX=3966.0
##FIRSTY=0.113403
##MAXX=3966
##MINX=450
##MAXY=1.32172
##MINY=0
##NPOINTS=880
##XYDATA=(X++(Y..Y))
450.0 858 303 7 203 55 177 156 109 281 260
490.0 125 147 160 176 142 136 179 172 213 235
530.0 225 270 261 351 360 459 477 466 458 407
570.0 333 229 232 191 184 155 132 159 109 156
610.0 151 134 123 156 131 93 107 111 115 122
650.0 119 124 128 126 98 111 105 144 123 162
690.0 134 157 161 180 212 215 227 220 231 223
730.0 263 238 240 219 208 195 182 182 170 178
770.0 167 181 173 185 180 171 166 156 159 148
810.0 152 152 157 170 186 189 185 196 197 213
850.0 207 229 244 275 325 452 668 1072 1748 2335
890.0 2627 2719 2374 1819 1153 739 537 421 362 313
930.0 272 246 239 251 269 285 298 290 264 229
970.0 209 178 180 189 195 193 196 202 195 195
1010.0 188 193 182 188 187 180 183 182 183 180
1050.0 185 185 190 182 185 182 203 232 273 328
1090.0 370 420 428 434 413 375 343 310 277 250
1130.0 229 222 233 240 259 263 253 234 203 179
1170.0 151 144 135 129 126 129 127 132 147 148
1210.0 172 189 213 219 235 245 234 230 224 222
1250.0 219 218 217 213 209 210 205 200 202 199
1290.0 205 200 212 215 223 235 246 248 249 253
1330.0 243 241 238 249 275 301 355 425 542 703
1370.0 926 1135 1294 1357 1287 1088 866 653 519 451
1410.0 410 403 398 430 482 559 658 777 950 1153
1450.0 1380 1550 1686 1756 1662 1463 1225 966 728 536
1490.0 392 300 243 222 195 173 173 157 148 144
1530.0 146 142 135 129 132 132 129 131 129 136
1570.0 133 145 143 157 163 175 180 185 194 196
1610.0 205 213 249 291 380 494 665 850 1020 1116
1650.0 1088 918 713 495 312 211 152 134 129 123
1690.0 124 125 120 106 114 114 112 99 104 99
1730.0 92 88 79 94 82 81 75 76 80 90
1770.0 101 125 162 181 210 211 199 166 132 105
1810.0 81 65 55 51 41 44 37 41 32 32
1850.0 35 36 37 27 34 29 33 32 33 30
1890.0 30 28 32 33 30 35 31 28 26 29
1930.0 28 28 27 28 30 26 27 29 26 27
1970.0 28 31 25 27 25 23 21 22 20 19
2010.0 16 14 12 10 11 12 20 10 11 17
2050.0 21 19 13 23 25 30 29 36 38 41
2090.0 40 39 36 34 32 27 27 27 28 26
2130.0 27 23 24 26 28 30 30 30 25 28
2170.0 28 23 28 27 29 26 26 24 22 25
2210.0 25 25 26 25 22 26 25 22 22 23
2250.0 22 23 21 18 17 15 12 12 14 15
2290.0 12 10 9 8 0 0 3 3 0 11
2330.0 6 0 6 7 1 4 0 0 0 0
2370.0 4 11 17 25 26 26 29 31 33 30
2410.0 29 29 31 22 27 24 21 22 19 17
2450.0 17 21 17 20 19 26 19 21 22 21
2490.0 17 21 20 18 24 24 20 21 22 23
2530.0 20 22 22 21 23 29 29 34 37 43
2570.0 46 45 46 50 51 51 51 53 46 50
2610.0 51 53 59 60 62 62 59 58 64 64
2650.0 59 69 87 93 92 95 112 113 104 102
2690.0 105 104 97 97 92 101 99 110 120 132
2730.0 149 163 173 176 169 156 146 135 133 131
2770.0 134 140 148 152 173 182 198 223 243 257
2810.0 278 305 333 359 391 425 468 530 637 799
2850.0 1024 1329 1667 2049 2440 2888 3411 3796 3975 3921
2890.0 3747 3458 3123 2974 3125 3444 3876 4397 4968 5544
2930.0 6030 6378 6452 6226 5982 5811 6022 6725 8028 9476
2970.0 10000 9458 8019 6175 4349 2948 2089 1594 1273 1035
3010.0 848 729 637 591 556 529 503 480 454 442
3050.0 443 445 500 589 774 994 1201 1346 1370 1286
3090.0 1079 836 635 454 303 227 195 173 151 145
3130.0 132 121 114 111 106 99 96 95 81 75
3170.0 77 81 84 80 80 84 75 69 70 57
3210.0 56 42 34 34 34 25 30 28 25 22
3250.0 21 16 24 19 15 18 16 16 22 17
3290.0 20 19 30 17 23 25 13 22 31 12
3330.0 9 11 16 11 7 12 9 15 6 9
3370.0 16 7 1 20 18 11 12 11 17 22
3410.0 15 24 25 22 16 20 18 27 12 19
3450.0 18 15 6 15 13 16 28 19 25 20
3490.0 25 29 23 18 20 11 20 24 21 33
3530.0 24 11 13 29 19 11 8 9 8 17
3570.0 12 25 7 33 18 22 24 22 25 26
3610.0 21 16 21 36 13 27 33 12 40 34
3650.0 31 29 33 42 42 32 15 24 13 14
3690.0 25 16 11 33 33 35 30 23 29 18
3730.0 28 18 24 32 17 40 6 10 12 13
3770.0 18 18 23 12 35 28 31 28 30 12
3810.0 17 16 13 11 9 0 26 10 14 8
3850.0 15 8 1 0 6 22 4 10 19 18
3890.0 26 6 6 16 13 30 40 31 29 0
3930.0 24 43 23 3 24 41 39 22 26 45
##END=
