##TITLE=Ethanone, 1-(4-ethoxyphenyl)-
##JCAMP-DX=4.24
##DATA TYPE=INFRARED SPECTRUM
##ORIGIN=Sadtler Research Labs Under US-EPA Contract
##OWNER=NIST Standard Reference Data Program
##CAS REGISTRY NO=1676-63-7
##MOLFORM=C 10 H 12 O 2
##XUNITS=1/CM
##YUNITS=ABSORBANCE
##XFACTOR=1.0
##YFACTOR=0.000114899
##DELTAX=4.0
##FIRSTX=450.0
##LASTX=3966.0
##FIRSTY=0.000000
##MAXX=3966
##MINX=450
##MAXY=1.14899
##MINY=0
##NPOINTS=880
##XYDATA=(X++(Y..Y))
450.0 0 32 75 55 47 15 42 27 55 68
490.0 98 85 103 99 101 85 83 77 89 113
530.0 129 121 87 89 103 142 184 265 326 410
570.0 556 806 1080 1256 1310 1113 797 526 314 198
610.0 131 100 93 93 92 112 123 129 107 103
650.0 126 167 102 124 156 162 150 120 106 111
690.0 117 115 137 123 112 170 268 422 699 1191
730.0 1934 2989 4217 4889 4642 3827 1972 980 513 268
770.0 190 115 89 71 118 163 199 237 285 313
810.0 340 390 456 619 805 983 1050 1060 949 728
850.0 547 374 262 177 159 157 182 213 285 402
890.0 557 776 1101 1677 2426 3737 3923 2516 1672 1152
930.0 775 533 429 502 734 958 1008 857 556 333
970.0 227 180 166 159 170 201 234 226 264 330
1010.0 369 370 362 410 524 714 987 1252 1469 1528
1050.0 1452 1250 998 776 601 499 446 437 445 498
1090.0 583 646 650 632 645 706 775 763 679 568
1130.0 441 338 292 266 279 319 434 717 1436 2901
1170.0 4251 4507 3546 1934 941 570 460 449 474 529
1210.0 614 766 1010 1411 2042 3005 4252 5710 7304 8798
1250.0 10000 9841 8560 6497 4730 3627 2508 1607 1292 1275
1290.0 1396 1540 1646 1699 1667 1585 1354 1010 697 484
1330.0 389 368 367 442 601 885 1398 1918 2093 1859
1370.0 1284 795 574 513 576 723 879 954 919 798
1410.0 696 725 723 724 630 534 419 392 388 366
1450.0 341 293 254 252 263 288 354 558 691 663
1490.0 525 514 771 1387 1932 1996 1605 837 387 306
1530.0 266 270 260 230 244 268 280 268 367 506
1570.0 731 1047 1328 1494 1571 1860 2664 4012 5186 5579
1610.0 4669 3043 1652 910 562 411 314 261 260 246
1650.0 237 242 287 298 317 342 392 581 800 1308
1690.0 2223 3722 4910 5131 4355 2713 1479 830 472 333
1730.0 215 167 167 177 170 170 213 209 190 186
1770.0 176 113 85 54 47 35 35 42 33 57
1810.0 45 44 42 38 30 20 26 34 25 20
1850.0 38 45 47 48 44 31 48 55 58 63
1890.0 66 76 82 85 83 78 71 68 63 72
1930.0 83 85 95 83 87 89 92 88 88 79
1970.0 73 70 67 65 60 53 51 52 49 47
2010.0 49 48 52 55 61 61 62 61 62 64
2050.0 68 73 75 74 68 71 64 59 54 50
2090.0 46 42 38 40 36 35 33 30 30 30
2130.0 30 27 24 25 23 25 26 26 25 28
2170.0 30 29 30 26 27 26 27 28 30 25
2210.0 24 22 22 20 21 18 16 17 17 17
2250.0 18 19 17 20 22 20 24 24 29 28
2290.0 31 32 34 35 36 36 34 32 34 31
2330.0 24 32 29 21 31 25 29 28 25 23
2370.0 29 30 34 35 36 35 43 43 46 48
2410.0 54 54 56 57 58 53 49 44 39 34
2450.0 36 40 39 41 48 46 51 53 53 56
2490.0 55 57 54 56 62 61 62 64 69 73
2530.0 77 82 85 90 98 105 110 108 103 97
2570.0 87 84 79 75 75 69 69 67 64 63
2610.0 59 56 55 51 48 44 41 41 37 41
2650.0 35 38 35 34 31 36 32 33 32 31
2690.0 32 32 28 32 33 33 37 38 39 46
2730.0 51 51 53 58 63 66 70 69 69 76
2770.0 77 82 80 75 70 71 69 69 69 71
2810.0 75 77 84 89 97 101 105 113 119 128
2850.0 140 151 163 182 208 244 297 361 429 478
2890.0 497 500 500 507 529 556 581 592 604 607
2930.0 611 643 705 750 774 722 611 521 476 496
2970.0 550 642 769 950 1149 1240 1263 1124 866 691
3010.0 582 519 456 383 301 258 245 248 283 329
3050.0 370 373 352 316 298 306 323 339 341 323
3090.0 286 268 264 260 244 219 189 167 144 118
3130.0 101 83 73 71 67 68 66 65 60 58
3170.0 51 50 46 38 40 36 37 32 37 39
3210.0 43 41 36 34 36 34 35 32 38 37
3250.0 26 35 31 30 29 36 29 35 33 29
3290.0 33 30 31 27 27 27 28 31 26 27
3330.0 32 36 38 36 35 35 32 42 44 51
3370.0 62 85 103 105 102 86 74 50 43 30
3410.0 32 23 31 29 32 25 29 37 32 30
3450.0 25 24 27 29 26 31 31 29 26 27
3490.0 27 22 21 28 23 29 28 22 23 31
3530.0 30 35 26 26 28 37 38 37 31 25
3570.0 30 40 57 58 57 55 61 44 29 26
3610.0 30 31 29 25 34 36 26 24 37 16
3650.0 30 24 26 25 27 29 24 39 22 24
3690.0 29 31 40 29 30 32 43 38 40 31
3730.0 27 40 31 33 46 36 35 30 27 33
3770.0 29 27 25 33 35 28 22 36 24 41
3810.0 23 23 46 33 35 30 28 23 35 39
3850.0 38 30 36 25 35 40 30 36 26 42
3890.0 34 31 24 39 42 38 33 34 40 34
3930.0 35 29 28 21 41 35 38 26 20 33
##END=
