##TITLE=Cyclohexane, butyl-
##JCAMP-DX=4.24
##DATA TYPE=INFRARED SPECTRUM
##ORIGIN=Sadtler Research Labs Under US-EPA Contract
##OWNER=NIST Standard Reference Data Program
##CAS REGISTRY NO=1678-93-9
##MOLFORM=C 10 H 20
##XUNITS=1/CM
##YUNITS=ABSORBANCE
##XFACTOR=1.0
##YFACTOR=0.000094812
##DELTAX=4.0
##FIRSTX=450.0
##LASTX=3966.0
##FIRSTY=0.004835
##MAXX=3966
##MINX=450
##MAXY=0.94812
##MINY=0
##NPOINTS=880
##XYDATA=(X++(Y..Y))
450.0 51 77 67 62 61 59 57 58 51 54
490.0 51 50 61 46 67 50 46 58 54 52
530.0 54 107 51 68 48 36 65 46 46 52
570.0 57 2 52 49 57 42 52 52 44 50
610.0 49 44 54 50 44 47 38 44 43 40
650.0 44 43 39 48 42 52 44 56 47 52
690.0 50 46 53 56 58 66 72 77 88 99
730.0 98 97 87 81 71 69 63 68 66 67
770.0 60 65 70 65 60 59 58 55 47 38
810.0 41 52 50 47 53 63 86 95 99 96
850.0 91 70 67 66 71 77 93 98 108 114
890.0 118 124 117 107 100 90 76 74 72 80
930.0 86 101 106 107 106 106 104 85 67 57
970.0 55 55 55 48 54 54 49 49 49 54
1010.0 58 62 60 63 68 74 77 77 84 83
1050.0 77 72 67 61 67 67 66 73 67 64
1090.0 61 65 72 71 76 75 75 71 69 61
1130.0 64 72 68 69 69 70 74 80 85 96
1170.0 101 106 110 104 105 105 99 100 99 93
1210.0 88 77 72 72 72 78 77 85 95 106
1250.0 116 133 148 158 164 158 146 124 108 94
1290.0 88 86 85 91 91 90 90 94 94 100
1330.0 107 118 139 160 177 179 165 139 125 124
1370.0 129 150 176 193 184 164 127 102 90 79
1410.0 76 78 79 81 96 125 173 268 412 591
1450.0 741 870 865 788 668 536 407 288 199 139
1490.0 102 78 67 60 53 48 47 48 40 42
1530.0 42 36 36 34 31 31 31 29 25 26
1570.0 26 25 31 25 32 26 26 26 25 24
1610.0 26 26 27 25 23 26 29 23 25 24
1650.0 23 22 24 24 24 24 22 27 21 27
1690.0 22 22 21 21 27 28 22 26 30 35
1730.0 40 49 61 77 87 97 104 98 91 71
1770.0 60 49 42 37 31 26 26 24 20 21
1810.0 20 20 21 19 20 19 19 19 16 19
1850.0 18 19 20 20 18 19 20 19 19 21
1890.0 24 18 18 18 18 19 19 18 17 23
1930.0 18 18 18 17 17 17 17 17 17 16
1970.0 17 17 17 17 17 17 17 17 17 15
2010.0 17 15 15 16 15 15 11 10 9 7
2050.0 8 6 5 8 5 0 0 5 5 9
2090.0 15 16 19 20 20 12 20 20 20 19
2130.0 19 18 18 19 19 20 21 19 21 17
2170.0 22 23 24 22 22 22 22 20 22 22
2210.0 22 22 22 16 20 21 17 22 21 21
2250.0 21 16 16 16 16 16 16 16 14 14
2290.0 15 14 19 18 23 23 23 23 26 24
2330.0 23 23 17 16 11 22 26 24 17 4
2370.0 1 0 2 5 13 13 18 18 14 18
2410.0 13 13 13 13 13 9 12 13 6 11
2450.0 6 6 6 7 7 7 7 8 11 11
2490.0 12 12 6 6 6 6 5 11 11 12
2530.0 16 14 10 13 17 12 11 11 10 10
2570.0 10 16 16 23 27 29 34 39 44 48
2610.0 53 53 53 52 52 52 52 52 60 70
2650.0 78 92 96 112 120 119 115 103 93 83
2690.0 72 68 68 68 68 62 62 62 58 63
2730.0 62 62 68 68 68 62 62 60 61 63
2770.0 66 78 88 103 120 137 156 172 183 192
2810.0 191 201 202 220 250 291 378 543 824 1282
2850.0 1889 2623 3467 3927 3850 3350 2663 2203 1921 1762
2890.0 1721 1743 1913 2234 2709 3368 4213 5266 6587 7984
2930.0 9414 10000 9448 8155 6253 4430 3036 2372 2275 2442
2970.0 2418 2095 1557 987 628 443 336 276 233 201
3010.0 179 170 155 138 134 126 116 102 92 85
3050.0 75 69 58 58 55 53 48 48 48 48
3090.0 48 48 44 49 44 39 38 33 38 35
3130.0 37 36 40 49 48 50 55 48 49 50
3170.0 43 43 39 37 42 35 41 33 33 34
3210.0 34 28 34 34 34 39 39 38 37 33
3250.0 30 29 29 29 24 30 20 13 14 15
3290.0 19 24 17 17 13 13 14 19 24 19
3330.0 19 19 20 24 22 21 22 19 22 19
3370.0 15 25 24 19 15 16 9 26 21 22
3410.0 27 13 21 25 16 19 15 15 20 25
3450.0 14 18 15 18 21 18 17 15 25 20
3490.0 25 26 15 21 16 18 13 16 22 13
3530.0 15 11 10 15 15 15 6 12 10 15
3570.0 12 12 15 15 16 17 17 17 16 16
3610.0 16 16 20 22 22 23 19 24 17 18
3650.0 17 17 22 13 17 16 21 19 19 23
3690.0 13 18 18 18 18 16 12 11 15 15
3730.0 9 6 3 5 13 12 8 8 12 7
3770.0 12 3 6 13 4 7 14 13 9 8
3810.0 9 9 9 3 4 5 5 8 11 6
3850.0 13 12 9 14 10 5 5 7 7 9
3890.0 13 15 15 16 11 12 14 9 5 12
3930.0 13 13 16 21 23 19 20 21 23 18
##END=
