##TITLE=Cyclohexane, ethyl-
##JCAMP-DX=4.24
##DATA TYPE=INFRARED SPECTRUM
##ORIGIN=Sadtler Research Labs Under US-EPA Contract
##OWNER=NIST Standard Reference Data Program
##CAS REGISTRY NO=1678-91-7
##MOLFORM=C 8 H 16
##XUNITS=1/CM
##YUNITS=ABSORBANCE
##XFACTOR=1.0
##YFACTOR=0.000195792
##DELTAX=4.0
##FIRSTX=450.0
##LASTX=3966.0
##FIRSTY=0.068135
##MAXX=3966
##MINX=450
##MAXY=1.95792
##MINY=0
##NPOINTS=880
##XYDATA=(X++(Y..Y))
450.0 348 233 42 169 62 167 6 109 211 100
490.0 81 92 107 88 136 103 119 107 100 125
530.0 109 129 98 117 55 66 68 124 91 81
570.0 112 55 169 137 104 137 107 105 104 113
610.0 121 96 132 127 100 91 95 98 82 95
650.0 90 102 92 102 84 73 89 98 92 92
690.0 91 92 93 104 100 92 98 89 103 101
730.0 97 84 102 102 103 109 134 139 129 103
770.0 73 61 122 95 110 123 141 110 93 113
810.0 79 82 98 87 108 114 168 152 135 148
850.0 139 110 97 106 126 125 148 166 205 206
890.0 204 211 192 167 141 135 122 122 112 107
930.0 99 93 95 89 93 84 106 89 71 76
970.0 105 123 139 174 184 180 170 151 131 107
1010.0 101 107 109 116 113 109 103 103 96 95
1050.0 88 93 90 87 91 91 87 85 90 90
1090.0 91 93 101 96 99 100 99 93 88 85
1130.0 81 78 76 78 79 81 82 81 80 79
1170.0 79 75 81 82 85 90 86 96 84 80
1210.0 72 73 82 90 104 112 113 114 113 105
1250.0 110 120 131 137 141 150 147 139 137 129
1290.0 125 117 106 96 91 91 90 91 98 102
1330.0 117 126 136 143 151 147 143 129 123 123
1370.0 137 169 201 226 234 233 196 161 124 110
1410.0 95 90 88 97 115 148 227 325 493 602
1450.0 759 909 930 786 713 589 481 346 252 175
1490.0 137 105 91 72 67 65 57 61 53 65
1530.0 54 62 53 55 58 57 57 47 55 51
1570.0 56 47 54 51 55 50 51 50 47 49
1610.0 45 49 41 47 42 47 40 44 44 44
1650.0 41 40 46 47 46 45 40 44 44 44
1690.0 40 40 38 41 37 38 35 36 36 35
1730.0 33 31 33 32 34 34 38 34 36 33
1770.0 33 33 33 33 31 32 32 32 31 30
1810.0 32 31 31 28 30 29 30 28 27 28
1850.0 27 29 27 27 28 27 28 28 28 30
1890.0 32 32 32 32 32 27 29 25 23 24
1930.0 30 24 29 24 27 24 23 23 21 21
1970.0 20 22 20 21 16 22 21 24 23 25
2010.0 21 20 21 22 21 18 22 20 22 21
2050.0 23 21 22 20 20 21 20 22 20 22
2090.0 20 19 18 21 20 21 20 19 21 20
2130.0 20 22 20 20 19 22 19 19 20 18
2170.0 19 20 21 20 22 21 22 22 21 22
2210.0 22 21 19 21 18 19 19 20 20 19
2250.0 16 18 18 18 18 18 17 16 17 15
2290.0 16 12 8 5 6 2 3 2 3 4
2330.0 5 5 3 10 5 12 5 14 17 13
2370.0 16 16 20 17 18 19 22 22 21 20
2410.0 22 21 22 20 20 19 20 21 19 19
2450.0 19 18 19 20 22 24 25 24 24 27
2490.0 22 21 18 19 19 19 19 20 21 21
2530.0 23 25 28 25 29 28 28 30 30 29
2570.0 34 36 40 39 41 48 49 57 56 61
2610.0 61 63 63 62 63 65 70 71 76 82
2650.0 92 102 122 134 142 143 141 137 126 114
2690.0 102 93 89 88 86 84 80 80 78 78
2730.0 78 76 81 79 79 74 73 71 74 74
2770.0 80 92 104 115 133 148 164 181 187 190
2810.0 195 195 196 206 232 278 377 564 898 1390
2850.0 2002 2755 3428 3758 3614 3234 2754 2243 1921 1728
2890.0 1693 1775 1969 2269 2815 3628 4520 5473 6719 8154
2930.0 9969 10000 8884 8003 6598 4888 3285 2413 2150 2305
2970.0 2317 2058 1798 1396 900 554 357 249 194 161
3010.0 146 133 125 113 105 97 98 93 92 91
3050.0 90 93 88 87 79 71 66 65 63 65
3090.0 61 62 66 59 59 50 44 40 39 40
3130.0 39 38 45 46 45 52 56 54 51 48
3170.0 44 42 35 35 33 33 29 28 23 21
3210.0 22 18 20 24 23 21 25 25 28 20
3250.0 20 15 20 19 23 15 18 20 17 19
3290.0 11 11 15 12 15 13 14 18 16 18
3330.0 11 15 20 14 14 17 22 17 22 16
3370.0 22 16 17 20 14 19 19 18 18 20
3410.0 15 16 17 19 18 21 13 25 20 23
3450.0 20 21 22 27 28 32 22 19 14 24
3490.0 18 10 15 16 10 10 16 16 14 14
3530.0 14 18 17 19 12 8 6 14 8 8
3570.0 18 15 18 7 14 10 7 7 7 17
3610.0 6 12 13 7 11 14 21 18 12 3
3650.0 10 17 14 25 15 14 11 5 16 15
3690.0 24 12 18 15 14 10 10 22 14 14
3730.0 16 21 15 8 13 21 18 14 12 19
3770.0 16 16 16 13 7 7 1 11 10 11
3810.0 30 21 31 17 15 30 7 1 10 11
3850.0 18 10 16 7 17 11 4 2 3 30
3890.0 14 15 0 19 16 0 15 30 18 17
3930.0 19 6 22 1 14 7 5 10 17 25
##END=
