##TITLE=Cyclohexane, propyl-
##JCAMP-DX=4.24
##DATA TYPE=INFRARED SPECTRUM
##ORIGIN=Sadtler Research Labs Under US-EPA Contract
##OWNER=NIST Standard Reference Data Program
##CAS REGISTRY NO=1678-92-8
##MOLFORM=C 9 H 18
##XUNITS=1/CM
##YUNITS=ABSORBANCE
##XFACTOR=1.0
##YFACTOR=0.000073755
##DELTAX=4.0
##FIRSTX=450.0
##LASTX=3966.0
##FIRSTY=0.002876
##MAXX=3966
##MINX=450
##MAXY=0.73755
##MINY=0
##NPOINTS=880
##XYDATA=(X++(Y..Y))
450.0 39 28 33 28 24 20 27 22 30 31
490.0 32 31 20 27 20 21 24 31 21 34
530.0 25 22 18 16 39 28 20 43 37 10
570.0 13 29 47 31 28 25 25 28 43 23
610.0 43 18 17 30 19 37 36 20 26 19
650.0 36 24 29 23 30 26 31 16 35 25
690.0 32 27 32 37 40 41 38 48 48 65
730.0 82 79 79 77 74 57 50 41 38 47
770.0 45 38 45 40 65 58 52 54 55 43
810.0 40 39 52 56 64 78 98 119 108 110
850.0 93 70 63 67 68 84 96 102 109 116
890.0 130 130 122 113 103 85 75 70 71 69
930.0 62 56 54 69 75 88 97 110 119 115
970.0 103 91 74 62 54 60 54 54 54 60
1010.0 62 74 74 74 77 80 68 67 59 53
1050.0 52 60 60 61 61 65 60 71 58 59
1090.0 64 59 71 71 71 72 70 64 53 48
1130.0 46 41 44 45 45 50 51 50 51 38
1170.0 44 37 39 43 43 43 43 43 43 43
1210.0 50 63 64 63 62 55 49 49 48 60
1250.0 68 87 101 114 121 134 134 119 104 80
1290.0 70 67 60 60 68 60 66 64 66 67
1330.0 75 89 100 119 133 133 121 102 97 90
1370.0 104 122 144 165 170 152 123 96 73 70
1410.0 63 66 61 68 80 119 171 283 422 587
1450.0 721 848 840 757 645 516 388 278 196 131
1490.0 93 73 55 44 50 31 34 34 39 35
1530.0 36 37 41 34 30 33 30 38 21 29
1570.0 23 25 29 20 30 21 29 27 23 23
1610.0 21 27 27 32 22 29 29 23 25 31
1650.0 18 42 19 25 21 32 26 24 30 34
1690.0 29 35 30 29 28 24 28 20 16 19
1730.0 18 28 20 24 19 24 22 21 22 17
1770.0 20 17 17 19 18 19 15 21 19 17
1810.0 17 15 16 16 14 22 16 18 12 7
1850.0 16 10 10 9 15 13 10 17 17 15
1890.0 15 16 15 15 16 15 15 14 13 16
1930.0 10 10 7 11 8 17 8 8 9 14
1970.0 8 8 8 9 15 13 14 11 7 7
2010.0 7 7 7 6 7 7 13 14 14 9
2050.0 13 13 14 12 13 14 12 13 12 12
2090.0 12 13 12 10 7 5 5 6 6 12
2130.0 12 13 11 11 11 12 12 12 10 11
2170.0 11 11 11 18 17 11 11 10 10 10
2210.0 10 10 10 10 10 10 10 17 10 10
2250.0 10 10 10 8 4 3 3 11 11 10
2290.0 11 12 14 14 16 17 16 17 19 14
2330.0 18 18 20 20 7 11 25 16 0 2
2370.0 4 5 3 12 9 15 13 13 14 13
2410.0 20 19 14 12 13 9 6 6 6 6
2450.0 6 0 7 6 6 13 13 13 13 13
2490.0 17 12 7 13 6 6 7 6 13 7
2530.0 12 13 16 20 12 12 13 19 19 26
2570.0 25 25 33 33 33 35 40 44 47 44
2610.0 46 47 52 53 53 52 52 52 60 66
2650.0 69 83 97 112 124 125 125 119 99 84
2690.0 83 71 66 62 59 63 61 60 65 59
2730.0 67 60 60 66 66 64 60 60 57 60
2770.0 65 65 79 92 113 128 148 162 168 172
2810.0 176 178 198 209 235 286 379 563 882 1358
2850.0 1955 2642 3356 3627 3474 3097 2584 2208 1992 1873
2890.0 1863 1884 2046 2367 2868 3504 4281 5245 6476 7946
2930.0 9545 10000 9331 8150 6340 4558 3249 2539 2437 2574
2970.0 2426 2140 1662 1070 650 428 303 228 200 173
3010.0 159 139 138 132 120 121 114 108 101 88
3050.0 86 67 67 60 58 54 42 47 47 48
3090.0 48 48 41 39 34 40 33 33 33 31
3130.0 32 28 31 34 42 39 40 41 34 35
3170.0 34 33 28 25 21 21 14 13 11 16
3210.0 14 14 8 8 1 8 9 17 11 15
3250.0 7 7 7 7 15 8 8 9 8 8
3290.0 9 1 5 8 8 9 9 9 14 8
3330.0 1 10 15 18 16 15 18 22 10 8
3370.0 10 14 22 22 16 15 20 23 14 17
3410.0 18 20 18 10 22 16 8 9 1 8
3450.0 12 15 10 19 7 16 12 11 20 15
3490.0 15 9 15 18 9 7 8 8 7 12
3530.0 9 2 0 2 6 0 9 5 12 10
3570.0 7 9 0 13 19 6 14 5 8 7
3610.0 16 5 4 10 9 17 10 9 15 6
3650.0 15 5 13 8 3 5 5 8 4 7
3690.0 13 9 1 0 8 19 9 9 7 3
3730.0 12 23 12 9 27 18 11 11 12 20
3770.0 19 13 11 6 17 9 10 19 16 11
3810.0 19 26 21 23 9 15 7 12 10 8
3850.0 4 11 3 10 0 9 15 19 14 16
3890.0 17 21 16 13 1 5 4 0 0 2
3930.0 3 9 16 16 18 21 28 30 22 18
##END=
