##TITLE=3-Oxatricyclo[4.1.1.02,4]octane, 2,7,7-trimethyl-
##JCAMP-DX=4.24
##DATA TYPE=INFRARED SPECTRUM
##ORIGIN=Sadtler Research Labs Under US-EPA Contract
##OWNER=NIST Standard Reference Data Program
##CAS REGISTRY NO=1686-14-2
##MOLFORM=C 10 H 16 O
##XUNITS=1/CM
##YUNITS=ABSORBANCE
##XFACTOR=1.0
##YFACTOR=0.000049463
##DELTAX=4.0
##FIRSTX=450.0
##LASTX=3966.0
##FIRSTY=0.010387
##MAXX=3966
##MINX=450
##MAXY=0.49463
##MINY=0
##NPOINTS=880
##XYDATA=(X++(Y..Y))
450.0 210 234 216 231 221 216 201 171 210 240
490.0 242 352 343 357 408 390 442 422 376 359
530.0 228 176 152 68 146 115 55 61 43 107
570.0 41 59 80 48 61 32 64 49 73 78
610.0 121 163 174 283 159 163 81 54 65 38
650.0 87 18 59 28 41 20 2 59 67 62
690.0 128 130 173 190 143 128 105 21 51 34
730.0 17 73 21 98 47 47 179 264 433 542
770.0 578 513 346 197 101 116 85 99 89 129
810.0 134 115 185 151 178 218 267 336 368 467
850.0 633 775 856 879 652 490 281 148 146 208
890.0 270 294 312 237 200 148 98 118 122 179
930.0 227 256 270 280 233 227 200 197 217 236
970.0 188 152 94 83 105 127 168 212 246 273
1010.0 230 260 223 240 249 248 309 327 383 423
1050.0 464 431 430 327 307 270 315 355 425 552
1090.0 633 670 731 577 469 316 245 221 211 234
1130.0 165 169 140 163 188 192 192 202 169 159
1170.0 148 172 194 241 304 353 386 421 365 324
1210.0 314 277 341 355 325 316 289 235 201 156
1250.0 182 174 273 355 429 404 413 330 282 239
1290.0 208 238 241 260 291 289 314 296 285 252
1330.0 235 241 241 241 224 226 224 265 359 529
1370.0 757 1021 1090 1274 1131 996 703 477 310 257
1410.0 238 291 372 444 572 646 770 836 879 877
1450.0 908 911 920 903 902 861 802 670 521 362
1490.0 269 154 116 112 87 62 45 67 31 46
1530.0 44 55 55 52 24 25 52 68 44 59
1570.0 40 70 46 52 54 44 66 47 65 53
1610.0 73 68 76 79 86 86 116 107 127 138
1650.0 140 110 100 72 76 56 56 51 69 71
1690.0 81 110 127 107 129 119 121 141 138 210
1730.0 295 422 491 526 461 387 210 166 140 107
1770.0 115 104 88 103 74 76 63 59 60 49
1810.0 59 38 38 39 40 14 36 29 46 23
1850.0 38 20 18 29 20 16 23 17 31 12
1890.0 17 36 17 36 17 41 20 21 21 21
1930.0 10 28 21 25 25 27 23 28 3 31
1970.0 20 21 30 23 26 24 17 25 24 26
2010.0 34 18 31 20 30 30 30 27 43 24
2050.0 43 23 39 23 28 33 30 31 32 30
2090.0 33 30 23 26 25 35 31 40 18 31
2130.0 30 31 11 40 22 34 29 34 28 29
2170.0 39 36 33 30 30 31 38 22 40 22
2210.0 37 32 44 29 39 29 32 30 30 30
2250.0 33 27 35 25 30 31 26 35 27 33
2290.0 30 31 11 30 20 31 4 29 5 0
2330.0 1 1 1 1 1 10 1 1 1 1
2370.0 1 1 10 18 45 37 39 29 29 18
2410.0 38 30 41 34 34 9 38 15 30 7
2450.0 20 16 17 37 30 24 28 35 27 34
2490.0 22 38 27 28 25 26 15 47 17 40
2530.0 18 40 28 34 34 33 26 36 36 35
2570.0 35 36 42 35 40 30 40 34 42 34
2610.0 34 35 44 25 34 34 34 41 40 50
2650.0 50 46 54 46 61 74 63 83 74 73
2690.0 84 110 106 148 152 180 174 165 147 132
2730.0 144 154 132 156 141 121 119 107 105 120
2770.0 113 114 123 112 132 123 151 151 179 201
2810.0 213 223 234 221 261 281 342 426 542 646
2850.0 727 772 790 863 1024 1294 1577 1860 1979 1980
2890.0 1883 1789 1709 1792 2170 3014 4402 6233 7896 10000
2930.0 9023 7585 6006 4571 3688 3311 3202 3216 3168 3067
2970.0 3145 3498 4152 4872 5529 5125 4229 3178 2351 1592
3010.0 1380 949 761 485 299 229 220 207 207 201
3050.0 197 178 167 154 159 147 179 188 171 169
3090.0 138 139 115 117 94 95 94 98 91 96
3130.0 87 106 98 105 89 101 89 94 94 84
3170.0 83 61 84 42 44 43 40 43 39 31
3210.0 40 32 41 32 30 40 34 25 27 12
3250.0 25 31 22 33 28 31 41 18 30 17
3290.0 28 25 24 30 28 28 31 39 20 29
3330.0 39 27 18 17 26 16 31 24 32 29
3370.0 29 36 27 37 29 16 39 17 39 31
3410.0 40 23 34 16 26 37 27 37 26 42
3450.0 42 31 45 29 37 37 23 54 25 26
3490.0 25 26 15 28 24 26 24 16 24 22
3530.0 39 32 15 35 35 34 26 30 32 23
3570.0 31 25 41 33 34 23 23 23 24 31
3610.0 25 24 31 39 53 54 81 81 85 72
3650.0 52 41 32 28 23 6 16 9 10 11
3690.0 11 12 9 1 1 1 1 1 1 1
3730.0 1 1 7 1 1 1 1 1 1 1
3770.0 1 1 1 1 1 1 1 1 1 1
3810.0 1 1 1 1 1 1 1 1 1 1
3850.0 1 1 1 1 1 1 1 1 1 1
3890.0 1 1 1 1 1 1 1 1 1 1
3930.0 1 1 1 1 1 1 1 1 1 1
##END=
