##TITLE=Hexadecanoic acid, octyl ester
##JCAMP-DX=4.24
##DATA TYPE=INFRARED SPECTRUM
##ORIGIN=Sadtler Research Labs Under US-EPA Contract
##OWNER=NIST Standard Reference Data Program
##CAS REGISTRY NO=16958-85-3
##MOLFORM=C 24 H 48 O 2
##XUNITS=1/CM
##YUNITS=ABSORBANCE
##XFACTOR=1.0
##YFACTOR=0.000064520
##DELTAX=4.0
##FIRSTX=450.0
##LASTX=3966.0
##FIRSTY=0.007162
##MAXX=3966
##MINX=450
##MAXY=0.6452
##MINY=0
##NPOINTS=880
##XYDATA=(X++(Y..Y))
450.0 111 62 151 113 134 83 79 72 37 58
490.0 50 81 63 72 41 42 57 67 43 74
530.0 77 64 25 45 27 45 48 33 0 39
570.0 20 42 51 43 39 72 70 52 49 58
610.0 57 39 46 30 40 28 71 26 35 42
650.0 34 27 36 14 52 45 36 25 45 73
690.0 83 103 145 144 222 248 323 362 375 336
730.0 299 254 207 207 191 171 139 147 140 142
770.0 142 102 102 104 87 82 90 83 89 84
810.0 92 91 89 82 95 88 84 85 110 108
850.0 105 104 116 121 125 127 141 137 132 137
890.0 136 137 130 122 119 126 124 123 128 132
930.0 144 159 174 199 228 268 307 327 344 363
970.0 368 376 386 412 428 444 446 461 480 487
1010.0 497 508 528 545 576 603 619 626 626 619
1050.0 623 624 637 670 697 723 746 747 759 769
1090.0 771 772 788 843 929 1022 1086 1090 1048 1021
1130.0 1067 1194 1400 1644 1891 2106 2281 2432 2541 2593
1170.0 2561 2441 2267 2078 1911 1788 1697 1626 1576 1544
1210.0 1538 1544 1571 1600 1635 1676 1700 1705 1688 1623
1250.0 1547 1446 1330 1209 1111 1030 967 930 894 869
1290.0 844 834 824 823 808 785 746 708 671 659
1330.0 680 723 787 854 900 934 918 868 800 724
1370.0 652 616 653 674 636 573 450 352 299 291
1410.0 303 352 406 477 542 619 726 833 981 1142
1450.0 1343 1565 1755 1787 1637 1270 826 523 340 225
1490.0 150 111 79 57 52 38 29 17 13 6
1530.0 8 3 8 0 5 9 7 0 15 15
1570.0 19 20 29 25 32 35 42 42 46 51
1610.0 50 58 61 61 66 68 80 77 90 93
1650.0 99 107 130 134 152 169 188 220 240 284
1690.0 333 400 467 538 629 754 916 1116 1396 1779
1730.0 2355 3079 3795 4054 3839 3414 2943 2202 1506 1058
1770.0 798 618 492 407 333 268 218 181 152 129
1810.0 112 94 84 75 66 62 54 51 46 44
1850.0 44 46 42 42 39 37 34 36 39 33
1890.0 37 37 38 36 32 35 32 34 33 35
1930.0 33 35 34 29 33 28 29 31 29 26
1970.0 26 25 25 25 25 24 24 22 23 23
2010.0 28 28 30 32 33 35 36 32 31 35
2050.0 29 27 21 25 23 24 22 20 22 19
2090.0 14 15 15 16 15 16 15 15 14 8
2130.0 9 10 10 7 9 11 12 11 10 8
2170.0 13 10 11 8 8 10 7 10 5 5
2210.0 7 8 6 2 0 4 5 3 9 6
2250.0 6 8 12 13 10 14 15 23 28 34
2290.0 44 52 62 68 72 76 69 64 67 52
2330.0 53 41 42 42 41 55 55 43 52 50
2370.0 42 48 53 58 44 36 35 33 32 31
2410.0 32 32 33 33 36 35 34 31 31 33
2450.0 34 30 33 35 32 34 35 36 41 40
2490.0 40 47 45 47 49 54 56 61 63 62
2530.0 70 73 78 78 77 77 82 85 83 90
2570.0 91 95 100 108 110 113 117 124 129 130
2610.0 138 145 149 151 154 161 172 176 186 196
2650.0 200 209 216 227 239 246 248 254 260 262
2690.0 262 258 257 258 258 259 263 265 273 285
2730.0 297 304 313 313 317 325 333 341 360 369
2770.0 386 413 437 469 503 543 583 629 679 745
2810.0 814 900 1001 1118 1268 1445 1687 2031 2516 3191
2850.0 3993 4717 5206 5338 5029 4538 4083 3715 3498 3482
2890.0 3579 3804 4142 4559 5042 5593 6240 6977 7856 8864
2930.0 9775 10000 9364 8223 7008 6017 5361 5018 4737 4389
2970.0 3844 3137 2442 1900 1506 1204 978 800 677 582
3010.0 501 433 386 340 309 277 248 222 197 179
3050.0 169 155 141 126 121 114 107 97 90 87
3090.0 81 74 67 66 61 65 60 54 61 52
3130.0 53 50 42 47 45 46 43 41 40 41
3170.0 41 35 40 35 36 32 33 29 29 25
3210.0 26 28 31 20 16 14 11 13 18 19
3250.0 11 13 17 14 20 9 10 15 16 14
3290.0 9 8 16 12 12 16 12 11 12 15
3330.0 15 15 24 14 13 14 15 12 20 12
3370.0 14 25 24 17 15 24 18 16 21 22
3410.0 22 17 23 26 17 28 24 18 33 33
3450.0 32 44 44 46 40 32 26 20 26 16
3490.0 21 18 0 10 11 5 6 2 11 5
3530.0 10 12 8 15 19 15 13 9 23 26
3570.0 22 31 38 35 28 31 33 15 24 18
3610.0 30 30 36 42 30 43 38 33 24 28
3650.0 39 28 33 26 29 35 22 24 18 28
3690.0 28 21 37 27 22 24 38 12 24 34
3730.0 26 38 37 34 57 31 41 21 23 28
3770.0 32 30 21 35 27 37 35 38 29 25
3810.0 13 27 25 31 24 38 48 51 34 25
3850.0 45 40 44 37 36 33 31 31 33 41
3890.0 34 49 32 62 56 48 39 46 45 6
3930.0 49 51 28 34 47 47 46 59 58 36
##END=
