##TITLE=Morpholine, 4-acetyl-
##JCAMP-DX=4.24
##DATA TYPE=INFRARED SPECTRUM
##ORIGIN=Sadtler Research Labs Under US-EPA Contract
##OWNER=NIST Standard Reference Data Program
##CAS REGISTRY NO=1696-20-4
##MOLFORM=C 6 H 11 N O 2
##XUNITS=1/CM
##YUNITS=ABSORBANCE
##XFACTOR=1.0
##YFACTOR=0.000084714
##DELTAX=4.0
##FIRSTX=450.0
##LASTX=3966.0
##FIRSTY=0.012029
##MAXX=3966
##MINX=450
##MAXY=0.84714
##MINY=0
##NPOINTS=880
##XYDATA=(X++(Y..Y))
450.0 142 173 162 131 109 97 51 64 46 29
490.0 50 4 32 21 45 59 25 44 46 49
530.0 57 32 63 85 142 278 413 540 593 593
570.0 625 473 341 291 195 282 194 194 206 168
610.0 205 257 245 233 183 150 104 49 48 29
650.0 24 43 27 64 32 38 58 23 33 34
690.0 18 40 21 33 50 50 65 45 39 41
730.0 7 14 18 8 20 1 21 20 10 30
770.0 12 19 19 1 37 32 20 30 14 33
810.0 21 18 29 15 53 64 100 198 298 400
850.0 425 392 341 235 123 82 40 48 46 63
890.0 94 90 127 140 127 131 115 100 78 59
930.0 81 112 167 252 372 560 691 747 764 742
970.0 726 735 907 1262 1619 1826 1833 1681 1449 1036
1010.0 719 579 518 501 438 385 344 283 272 258
1050.0 265 313 346 416 467 493 515 495 465 430
1090.0 397 428 524 738 1088 1558 2147 2722 3154 3227
1130.0 2822 2354 1714 1040 597 346 231 177 148 166
1170.0 169 183 201 199 218 228 249 294 340 418
1210.0 542 700 896 1166 1591 2309 3338 4383 4781 4699
1250.0 4235 3543 2431 1808 1716 1782 1809 1798 1682 1480
1290.0 1320 1154 1000 862 720 598 461 381 355 356
1330.0 368 392 434 504 598 749 911 950 995 1083
1370.0 1035 1012 1053 1207 1481 1901 2410 2963 3547 4180
1410.0 4729 5036 4910 4494 3907 3178 2388 1796 1522 1357
1450.0 1253 1198 1114 1069 967 803 647 517 418 353
1490.0 284 281 252 244 237 186 211 198 174 185
1530.0 165 158 153 83 111 120 109 99 74 113
1570.0 99 113 111 127 143 147 147 162 158 167
1610.0 178 190 196 225 238 294 317 363 420 443
1650.0 504 563 742 999 1504 2351 3798 6076 8334 9812
1690.0 10000 9629 7723 5127 3331 2056 1267 776 564 438
1730.0 368 303 277 257 222 185 166 141 140 123
1770.0 118 113 112 119 110 102 91 81 68 66
1810.0 47 47 38 33 27 10 31 24 21 18
1850.0 20 34 26 20 30 15 26 25 23 28
1890.0 22 25 32 26 33 26 33 38 30 39
1930.0 34 38 42 38 49 64 68 79 79 85
1970.0 85 73 79 60 47 38 22 26 19 18
2010.0 22 15 17 15 16 23 17 22 21 20
2050.0 24 14 22 22 19 23 22 29 29 23
2090.0 32 25 21 29 31 41 48 46 64 57
2130.0 58 58 51 51 42 31 33 23 30 25
2170.0 27 33 23 24 23 17 18 12 14 14
2210.0 6 14 15 18 15 12 23 22 18 23
2250.0 17 27 14 13 17 13 16 17 15 25
2290.0 17 16 25 13 21 7 9 13 0 14
2330.0 9 3 14 1 13 16 2 2 2 2
2370.0 8 5 22 22 19 29 31 35 36 35
2410.0 37 31 29 27 24 25 17 21 23 20
2450.0 24 18 25 26 19 30 27 29 28 24
2490.0 29 23 16 20 8 9 9 7 14 4
2530.0 2 12 8 9 11 8 13 8 15 14
2570.0 20 28 15 30 25 23 24 18 30 25
2610.0 16 28 20 20 33 26 40 36 44 58
2650.0 53 63 63 69 89 84 97 115 115 132
2690.0 114 120 121 111 130 129 133 148 137 145
2730.0 138 120 126 122 125 133 139 159 151 146
2770.0 139 117 111 92 92 99 94 116 127 144
2810.0 173 186 220 254 289 364 446 606 841 1168
2850.0 1609 2016 2391 2682 2715 2387 2000 1668 1423 1241
2890.0 1179 1166 1196 1277 1292 1276 1271 1252 1258 1248
2930.0 1216 1080 928 803 694 658 719 907 1330 1859
2970.0 2183 2346 2442 2194 1872 1430 1157 987 885 808
3010.0 699 548 387 295 243 186 160 128 113 119
3050.0 96 103 91 78 81 63 74 72 57 67
3090.0 59 60 67 52 64 58 51 57 45 62
3130.0 52 43 65 45 47 39 31 41 29 29
3170.0 34 25 28 22 15 34 12 23 23 15
3210.0 23 12 25 20 7 23 16 25 22 9
3250.0 28 14 16 25 8 32 26 13 32 16
3290.0 16 19 18 20 12 18 28 19 33 20
3330.0 36 40 32 66 68 87 103 93 109 99
3370.0 82 75 51 44 35 25 40 14 21 13
3410.0 13 18 13 15 27 10 29 12 11 25
3450.0 7 28 24 13 26 11 16 26 19 30
3490.0 19 12 16 10 29 9 17 24 6 21
3530.0 17 9 25 13 13 20 13 26 14 20
3570.0 26 11 20 19 17 24 15 33 15 20
3610.0 23 10 12 9 9 12 12 16 21 11
3650.0 18 17 16 17 5 9 14 11 16 12
3690.0 22 27 18 23 17 28 19 14 26 19
3730.0 18 13 7 18 5 10 13 7 12 12
3770.0 9 22 11 17 19 8 8 9 9 19
3810.0 7 12 14 11 14 5 20 8 7 14
3850.0 7 11 12 3 14 3 7 14 12 18
3890.0 6 15 12 9 16 13 9 14 8 13
3930.0 14 13 18 8 10 10 8 17 20 28
##END=
