##TITLE=1,3-Cyclooctadiene
##JCAMP-DX=4.24
##DATA TYPE=INFRARED SPECTRUM
##ORIGIN=Sadtler Research Labs Under US-EPA Contract
##OWNER=NIST Standard Reference Data Program
##CAS REGISTRY NO=1700-10-3
##MOLFORM=C 8 H 12
##XUNITS=1/CM
##YUNITS=ABSORBANCE
##XFACTOR=1.0
##YFACTOR=0.000146982
##DELTAX=4.0
##FIRSTX=450.0
##LASTX=3966.0
##FIRSTY=0.000000
##MAXX=3966
##MINX=450
##MAXY=1.46982
##MINY=0
##NPOINTS=880
##XYDATA=(X++(Y..Y))
450.0 0 153 265 214 283 313 286 289 250 290
490.0 193 253 147 194 150 183 186 210 277 240
530.0 317 270 286 226 246 194 199 187 209 229
570.0 234 293 305 381 250 302 254 222 192 181
610.0 192 152 219 172 229 189 264 236 294 368
650.0 554 821 1073 1451 1760 2833 2142 2314 2353 1704
690.0 1354 1033 698 525 426 407 378 414 444 482
730.0 497 505 527 523 507 529 448 570 747 627
770.0 779 940 1107 1078 1141 1215 1064 1071 938 964
810.0 871 804 644 624 541 388 339 290 271 253
850.0 239 213 204 196 190 211 208 207 207 238
890.0 266 321 385 453 516 556 613 528 408 374
930.0 322 262 218 208 194 194 196 206 202 204
970.0 199 196 201 211 215 221 234 241 253 252
1010.0 275 270 258 267 255 253 243 233 214 211
1050.0 196 193 188 193 197 209 222 236 251 261
1090.0 282 270 271 253 238 222 202 190 181 185
1130.0 181 189 191 211 233 274 298 326 394 357
1170.0 325 314 277 240 222 207 198 190 190 185
1210.0 190 188 183 190 187 197 202 212 223 255
1250.0 287 331 359 378 406 383 377 331 286 253
1290.0 216 189 178 175 180 187 195 203 207 217
1330.0 218 223 230 253 272 284 297 303 296 274
1370.0 261 238 221 203 210 206 208 212 213 224
1410.0 234 289 344 445 538 665 816 998 1133 1192
1450.0 1380 1664 1362 1159 891 767 552 416 305 266
1490.0 248 233 215 206 203 189 190 181 185 180
1530.0 184 181 185 184 187 190 187 191 183 188
1570.0 179 182 181 180 182 186 188 193 206 213
1610.0 232 261 307 347 387 437 459 461 446 400
1650.0 349 308 266 238 221 218 225 232 236 249
1690.0 253 258 263 261 271 262 262 256 252 248
1730.0 249 253 262 269 277 284 278 272 258 247
1770.0 233 217 205 200 190 184 182 173 174 174
1810.0 175 175 176 173 178 179 179 178 177 179
1850.0 179 178 178 180 183 189 188 192 194 188
1890.0 186 183 183 180 180 186 188 195 200 200
1930.0 195 190 186 183 180 179 176 176 176 173
1970.0 174 169 171 169 171 169 168 168 165 166
2010.0 165 163 161 166 164 166 164 166 163 162
2050.0 165 159 157 157 158 158 161 162 163 163
2090.0 161 161 162 163 167 171 169 173 172 176
2130.0 175 176 174 170 171 167 171 169 171 169
2170.0 167 163 166 166 164 165 164 163 164 164
2210.0 161 166 167 167 167 170 168 164 169 167
2250.0 161 166 166 164 166 164 164 163 160 166
2290.0 166 167 170 175 174 172 167 165 169 154
2330.0 162 164 167 170 168 166 175 168 184 177
2370.0 185 179 170 167 166 158 158 160 156 161
2410.0 161 161 162 163 160 156 156 155 156 158
2450.0 160 159 161 161 158 157 153 158 157 152
2490.0 155 155 154 150 155 152 157 153 159 161
2530.0 161 158 159 159 155 154 149 154 148 154
2570.0 153 151 156 157 158 165 170 174 174 175
2610.0 181 184 189 194 195 200 201 204 207 202
2650.0 198 207 216 235 255 273 288 286 287 286
2690.0 275 260 261 251 251 244 231 228 217 210
2730.0 203 202 204 206 206 206 209 220 222 232
2770.0 235 251 262 277 292 297 303 308 317 310
2810.0 319 331 359 416 524 619 699 824 926 1101
2850.0 1444 1905 2310 2802 2883 2851 2927 2638 2491 2200
2890.0 2015 2037 2072 2146 2256 2467 2884 4063 5447 6181
2930.0 7844 10000 9443 8429 7742 6461 4913 3027 2136 1672
2970.0 1288 1020 815 746 742 890 1201 1799 2497 3235
3010.0 3985 4692 4838 4415 3974 3003 2264 1555 949 619
3050.0 471 427 403 417 404 400 372 344 320 296
3090.0 262 241 239 227 222 212 205 196 193 186
3130.0 193 188 184 186 182 187 184 186 182 190
3170.0 185 178 180 184 187 193 193 190 192 178
3210.0 189 186 191 193 196 203 206 219 214 220
3250.0 219 220 206 208 207 209 198 188 182 178
3290.0 179 173 173 168 169 168 165 162 161 173
3330.0 171 177 168 178 182 166 164 182 181 176
3370.0 166 173 167 160 159 164 174 175 176 177
3410.0 181 181 166 164 160 173 178 168 175 176
3450.0 185 175 172 184 183 178 185 183 199 193
3490.0 194 195 189 195 187 180 199 184 196 195
3530.0 188 196 194 192 200 208 196 192 191 185
3570.0 194 200 198 197 182 206 195 196 180 185
3610.0 203 209 179 178 180 182 170 175 188 180
3650.0 183 193 190 203 180 154 157 193 148 164
3690.0 164 150 172 192 164 184 175 166 177 169
3730.0 201 173 163 171 184 176 188 157 185 182
3770.0 199 193 183 176 199 184 158 171 149 181
3810.0 168 175 182 180 180 183 146 204 179 165
3850.0 170 172 168 192 175 212 190 158 180 183
3890.0 193 200 179 218 200 167 177 167 183 194
3930.0 176 205 176 197 170 192 175 189 281 187
##END=
