##TITLE=Indole-2-carboxylic acid, 1-benzyl-, ethyl ester
##JCAMP-DX=4.24
##DATA TYPE=INFRARED SPECTRUM
##ORIGIN=Sadtler Research Labs Under US-EPA Contract
##OWNER=NIST Standard Reference Data Program
##CAS REGISTRY NO=17017-66-2
##MOLFORM=C 18 H 17 N O 2
##XUNITS=1/CM
##YUNITS=ABSORBANCE
##XFACTOR=1.0
##YFACTOR=0.000054675
##DELTAX=4.0
##FIRSTX=450.0
##LASTX=3966.0
##FIRSTY=0.035430
##MAXX=3966
##MINX=450
##MAXY=0.54675
##MINY=0
##NPOINTS=880
##XYDATA=(X++(Y..Y))
450.0 648 449 282 210 115 76 45 68 37 63
490.0 14 40 31 52 62 54 64 10 44 26
530.0 40 91 92 134 226 233 200 148 118 109
570.0 95 161 110 149 234 263 240 158 120 99
610.0 112 55 65 67 106 109 108 94 73 47
650.0 37 71 64 85 105 184 236 277 325 451
690.0 693 825 732 577 565 599 825 1188 1464 1747
730.0 2049 2149 1753 2150 2621 2011 1070 646 670 745
770.0 675 498 372 282 225 221 226 232 233 252
810.0 317 469 549 436 252 154 154 209 242 203
850.0 150 132 131 112 115 131 119 102 98 84
890.0 64 53 49 81 89 82 55 39 60 81
930.0 70 49 33 22 21 21 31 41 49 66
970.0 93 148 193 237 241 226 208 238 290 421
1010.0 603 703 711 778 948 1022 821 570 396 319
1050.0 285 294 327 387 492 632 811 1017 1372 1989
1090.0 2770 3348 3318 2669 1846 1325 1411 1746 1741 1376
1130.0 1231 1890 2954 2904 1807 993 964 1290 1751 2155
1170.0 2597 3362 4631 6816 9282 10000 8131 5721 3910 2529
1210.0 1619 1222 1107 1178 1435 1963 2864 4187 5689 6517
1250.0 6296 5298 4144 3003 2102 1522 1138 859 683 609
1290.0 617 690 798 906 1020 1335 1952 2475 2253 1545
1330.0 1084 966 1078 1417 1859 2105 1940 1529 1167 986
1370.0 1024 1217 1227 1037 870 851 973 1195 1439 1649
1410.0 1701 1437 1163 800 617 537 611 724 935 1198
1450.0 1630 2162 2589 2250 1511 1030 1036 1162 1177 1006
1490.0 799 818 878 724 633 800 1226 1889 2251 2057
1530.0 1678 1258 914 628 430 328 287 324 275 266
1570.0 313 295 250 218 170 188 195 259 355 497
1610.0 574 560 492 317 255 170 213 189 163 160
1650.0 239 275 292 256 241 247 309 331 465 586
1690.0 620 730 936 1168 1421 1788 2519 4028 6514 8683
1730.0 8691 6232 3577 1896 1145 820 632 502 440 365
1770.0 338 263 194 165 147 155 194 196 180 114
1810.0 83 74 48 50 49 54 34 26 47 72
1850.0 71 60 57 42 48 64 51 53 77 97
1890.0 91 53 26 17 17 27 57 99 120 77
1930.0 47 41 57 68 66 55 56 54 41 25
1970.0 5 5 2 1 0 6 6 3 0 3
2010.0 5 9 13 13 12 20 19 19 23 22
2050.0 17 17 18 14 14 9 14 7 6 7
2090.0 14 10 11 14 14 17 18 19 15 18
2130.0 18 15 16 10 11 12 14 14 12 15
2170.0 14 17 13 14 11 5 12 5 14 13
2210.0 14 18 25 25 29 30 31 31 32 32
2250.0 26 33 33 35 36 23 28 35 31 36
2290.0 37 38 47 45 48 51 47 49 42 54
2330.0 56 48 57 59 42 61 47 51 36 34
2370.0 49 50 54 62 59 48 46 46 48 39
2410.0 40 41 42 42 40 38 31 32 30 26
2450.0 29 28 27 26 29 31 25 27 35 36
2490.0 34 34 37 42 42 40 45 47 49 59
2530.0 49 48 47 51 47 54 47 49 46 48
2570.0 37 44 49 51 47 50 59 49 53 54
2610.0 49 47 44 44 43 39 44 50 53 50
2650.0 46 49 50 47 53 44 45 50 49 57
2690.0 49 55 62 70 69 66 71 71 76 73
2730.0 64 68 65 69 75 76 74 81 85 89
2770.0 92 92 90 91 94 95 96 104 101 104
2810.0 105 104 103 116 108 107 117 117 122 130
2850.0 138 150 164 185 209 231 256 285 325 354
2890.0 349 342 346 358 390 419 454 473 496 520
2930.0 590 683 785 894 948 865 743 668 660 696
2970.0 729 781 897 1120 1309 1272 1077 901 780 673
3010.0 587 527 505 526 609 753 912 973 932 811
3050.0 731 762 857 1019 1302 1609 1624 1313 976 783
3090.0 650 526 419 332 259 227 204 178 151 139
3130.0 130 109 97 82 79 66 62 70 62 69
3170.0 73 73 62 64 52 50 47 48 47 46
3210.0 45 49 47 47 53 49 49 47 48 59
3250.0 50 50 54 45 46 39 44 35 42 39
3290.0 39 32 28 27 29 24 29 21 33 43
3330.0 42 34 35 38 35 26 31 37 34 36
3370.0 32 36 40 17 24 23 26 36 38 35
3410.0 39 31 49 42 45 56 57 41 36 17
3450.0 13 28 22 21 27 23 23 21 25 23
3490.0 22 32 30 24 19 25 33 14 19 25
3530.0 23 23 15 19 8 24 34 33 22 26
3570.0 31 33 25 25 14 13 33 14 42 26
3610.0 35 27 36 36 23 48 30 19 25 17
3650.0 39 26 25 29 13 37 28 47 14 29
3690.0 30 38 52 39 34 35 29 29 19 18
3730.0 23 40 47 28 56 22 37 29 24 28
3770.0 33 27 26 43 13 25 22 46 53 38
3810.0 16 24 45 36 21 31 25 30 46 38
3850.0 28 49 50 33 59 53 48 40 9 29
3890.0 17 19 16 42 27 44 38 45 35 32
3930.0 23 14 32 37 32 36 62 28 20 19
##END=
