##TITLE=Benzeneacetic acid, .alpha.-methoxy-
##JCAMP-DX=4.24
##DATA TYPE=INFRARED SPECTRUM
##ORIGIN=Sadtler Research Labs Under US-EPA Contract
##OWNER=NIST Standard Reference Data Program
##CAS REGISTRY NO=1701-77-5
##MOLFORM=C 9 H 10 O 3
##XUNITS=1/CM
##YUNITS=ABSORBANCE
##XFACTOR=1.0
##YFACTOR=0.000057251
##DELTAX=4.0
##FIRSTX=450.0
##LASTX=3966.0
##FIRSTY=0.012366
##MAXX=3966
##MINX=450
##MAXY=0.57251
##MINY=0
##NPOINTS=880
##XYDATA=(X++(Y..Y))
450.0 216 84 32 383 347 374 490 517 552 651
490.0 642 693 631 683 662 723 713 712 730 807
530.0 857 853 1035 1158 1252 1416 1485 1536 1491 1385
570.0 1320 1223 1144 1137 1155 1214 1325 1444 1743 2164
610.0 2703 3200 3363 3241 2729 2323 1984 1972 2138 2267
650.0 2429 2272 2109 1805 1663 1575 1496 1545 1727 2106
690.0 2764 3365 3819 3469 3038 2703 2544 2487 2392 2154
730.0 1867 1611 1449 1426 1496 1627 1697 1634 1455 1200
770.0 941 755 629 592 517 507 491 471 462 447
810.0 433 414 413 427 436 414 431 455 466 491
850.0 538 572 600 607 617 615 621 654 686 698
890.0 735 762 781 767 720 700 706 731 789 852
930.0 895 882 836 767 683 652 664 679 745 842
970.0 995 1211 1474 1705 1850 1878 1735 1538 1308 1121
1010.0 961 896 882 962 1087 1256 1284 1050 854 851
1050.0 905 1025 1146 1343 1580 1913 2278 2661 3164 3917
1090.0 4959 6243 7693 8963 9827 10000 9581 8522 7276 6089
1130.0 5114 4424 4009 3848 3849 3921 3940 3814 3549 3249
1170.0 2987 2800 2692 2652 2715 2874 3093 3287 3301 3083
1210.0 2717 2299 1922 1682 1542 1462 1408 1386 1384 1395
1250.0 1441 1501 1556 1575 1552 1513 1508 1522 1553 1592
1290.0 1652 1737 1846 1968 2108 2245 2392 2559 2764 3016
1330.0 3316 3654 3994 4266 4489 4594 4602 4482 4267 3938
1370.0 3549 3096 2625 2172 1762 1469 1260 1100 986 886
1410.0 815 734 678 636 604 593 646 740 917 1144
1450.0 1368 1538 1480 1199 1016 869 758 669 627 694
1490.0 867 1088 1057 887 674 426 322 277 290 282
1530.0 292 294 319 304 308 310 322 338 359 353
1570.0 371 383 428 433 469 513 549 576 574 534
1610.0 466 419 399 367 350 328 343 320 306 321
1650.0 308 338 336 316 343 361 364 395 416 457
1690.0 479 528 582 661 728 828 954 1108 1245 1389
1730.0 1512 1611 1672 1736 1880 2116 2490 2923 3573 4252
1770.0 4972 5481 5797 5994 6305 6746 7025 7078 6689 6104
1810.0 5296 4384 3492 2694 2090 1632 1312 1056 862 723
1850.0 605 534 476 430 382 348 308 280 259 238
1890.0 226 204 193 171 161 148 124 128 106 114
1930.0 108 125 145 172 196 202 190 184 173 155
1970.0 133 113 92 82 79 74 75 73 66 65
2010.0 66 65 68 64 67 67 66 67 72 71
2050.0 78 82 91 88 87 94 100 102 100 105
2090.0 97 89 83 79 72 65 56 50 40 34
2130.0 30 30 27 23 25 23 24 23 21 26
2170.0 22 29 28 30 34 33 33 32 31 25
2210.0 25 20 17 13 15 15 9 4 1 4
2250.0 7 10 7 12 7 20 18 14 16 27
2290.0 34 44 58 70 73 80 92 76 74 57
2330.0 22 38 34 54 66 83 50 41 53 48
2370.0 56 65 81 86 59 28 20 17 22 27
2410.0 28 30 28 34 31 31 33 35 43 41
2450.0 44 46 54 52 56 58 60 67 64 67
2490.0 66 74 68 68 66 66 67 70 71 72
2530.0 68 66 69 68 65 64 65 62 71 67
2570.0 66 65 67 76 74 82 79 82 88 87
2610.0 81 80 74 75 78 76 79 75 71 68
2650.0 73 70 65 66 65 61 60 63 60 57
2690.0 62 63 63 54 63 64 67 69 77 85
2730.0 86 86 83 84 85 85 86 95 102 110
2770.0 119 132 144 155 172 193 218 246 269 300
2810.0 345 408 501 672 930 1266 1568 1698 1628 1386
2850.0 1051 791 641 580 584 632 722 837 984 1133
2890.0 1233 1291 1303 1294 1273 1280 1292 1304 1352 1431
2930.0 1535 1654 1779 1825 1806 1715 1598 1439 1247 1046
2970.0 857 710 669 684 733 836 1016 1210 1384 1420
3010.0 1314 1116 901 812 858 1018 1204 1375 1441 1364
3050.0 1217 1070 994 1052 1241 1493 1642 1635 1477 1218
3090.0 1004 911 843 750 649 556 477 410 352 307
3130.0 262 230 219 209 203 202 198 194 194 189
3170.0 191 195 188 177 171 158 153 157 150 157
3210.0 152 152 152 139 144 136 140 130 139 136
3250.0 145 134 132 131 133 131 129 132 118 130
3290.0 135 137 127 133 120 118 119 107 110 114
3330.0 108 98 98 99 115 109 94 92 97 103
3370.0 103 95 101 105 95 86 94 101 99 91
3410.0 91 95 100 108 115 123 130 150 175 194
3450.0 242 287 347 427 550 700 899 1115 1270 1352
3490.0 1325 1221 1056 893 732 603 497 394 316 252
3530.0 214 187 169 162 151 169 248 475 991 1810
3570.0 2619 2968 2694 1915 1074 472 215 119 72 49
3610.0 68 47 29 36 37 44 29 0 26 28
3650.0 32 39 26 30 29 32 36 46 24 21
3690.0 35 29 33 37 28 37 46 31 33 44
3730.0 38 57 51 23 77 22 34 23 9 22
3770.0 3 13 3 4 5 20 3 24 11 30
3810.0 3 24 32 10 34 21 36 39 21 10
3850.0 23 40 20 30 15 49 31 23 38 54
3890.0 29 24 15 50 23 36 23 29 38 27
3930.0 50 32 38 48 54 15 33 17 24 40
##END=
