##TITLE=3,5-Dichloro-4-hydroxy-acetophenone
##JCAMP-DX=4.24
##DATA TYPE=INFRARED SPECTRUM
##ORIGIN=Sadtler Research Labs Under US-EPA Contract
##OWNER=NIST Standard Reference Data Program
##CAS REGISTRY NO=17044-70-1
##MOLFORM=C 8 H 6 Cl 2 O 2
##XUNITS=1/CM
##YUNITS=ABSORBANCE
##XFACTOR=1.0
##YFACTOR=0.000077591
##DELTAX=4.0
##FIRSTX=450.0
##LASTX=3966.0
##FIRSTY=0.026148
##MAXX=3966
##MINX=450
##MAXY=0.77591
##MINY=0
##NPOINTS=880
##XYDATA=(X++(Y..Y))
450.0 337 328 132 121 95 137 24 45 0 349
490.0 225 301 179 120 162 353 151 224 173 258
530.0 269 214 72 83 329 281 619 887 1159 1296
570.0 964 485 437 317 379 360 662 737 933 1021
610.0 983 768 639 396 399 442 527 385 318 286
650.0 287 260 189 157 163 251 172 183 230 238
690.0 294 301 263 309 255 253 348 431 568 680
730.0 608 674 819 713 609 505 422 462 438 552
770.0 897 712 724 950 1341 1859 2209 2293 2057 1682
810.0 1436 1155 949 930 973 877 862 771 778 682
850.0 611 567 605 516 700 863 848 792 733 450
890.0 386 393 478 444 473 387 290 223 186 183
930.0 218 236 267 334 328 324 325 449 511 636
970.0 631 587 508 418 356 338 348 368 400 471
1010.0 448 467 484 518 549 614 727 725 644 604
1050.0 607 592 639 644 668 694 663 610 565 551
1090.0 563 580 617 663 705 708 794 808 714 726
1130.0 722 762 930 1198 1470 1670 1747 1886 1957 2351
1170.0 2989 3468 3505 2896 1993 1421 1159 1162 1206 1297
1210.0 1400 1691 2108 2473 3038 3750 4837 6574 8682 10000
1250.0 8971 6587 4007 2524 2152 2408 3393 5243 7052 7997
1290.0 7432 5573 3562 2070 1222 1018 974 1133 1334 1591
1330.0 1785 1888 1661 1261 1017 1101 1375 1815 2053 2009
1370.0 1697 1371 1221 1294 1490 1897 2431 2989 3165 2890
1410.0 2215 1488 1252 1054 1062 922 874 804 727 654
1450.0 560 547 525 687 941 1380 1917 2450 2681 2563
1490.0 2013 1283 962 738 700 659 508 385 341 357
1530.0 444 375 439 432 506 649 688 902 1174 1601
1570.0 2095 2215 2321 2202 2016 1955 1840 1763 1688 1518
1610.0 1244 1119 1064 1108 1061 943 833 745 616 623
1650.0 500 468 617 813 990 1075 1141 1079 1104 1105
1690.0 1344 1846 3066 4872 6489 6426 5057 2861 1519 1188
1730.0 1010 963 867 859 901 842 778 647 530 441
1770.0 356 299 290 292 258 197 204 171 205 149
1810.0 130 127 96 96 56 65 50 59 69 75
1850.0 70 69 61 58 41 59 35 41 35 38
1890.0 37 60 52 60 58 65 55 68 70 67
1930.0 55 51 57 60 60 55 56 64 53 72
1970.0 68 71 65 69 70 78 60 47 48 43
2010.0 42 50 60 45 43 35 36 43 40 35
2050.0 32 26 31 34 37 26 28 26 26 20
2090.0 26 23 25 28 26 27 20 28 25 22
2130.0 22 25 26 25 25 28 31 35 30 28
2170.0 20 14 12 6 8 11 13 21 28 37
2210.0 45 56 63 64 68 67 61 60 51 50
2250.0 48 47 49 45 50 46 51 53 49 56
2290.0 61 63 68 70 72 79 80 70 59 42
2330.0 31 31 53 4 44 39 48 47 31 22
2370.0 27 21 36 42 45 36 28 33 36 37
2410.0 39 36 40 35 35 37 34 35 35 42
2450.0 40 49 52 54 53 56 52 57 60 57
2490.0 55 46 39 36 33 36 38 42 46 45
2530.0 47 43 34 25 23 20 26 28 33 30
2570.0 37 37 33 27 23 11 17 18 4 12
2610.0 20 22 23 29 29 23 21 26 17 24
2650.0 33 38 45 50 42 44 41 34 33 26
2690.0 19 19 29 31 22 24 28 29 29 30
2730.0 30 26 28 32 31 28 30 26 34 30
2770.0 33 31 27 27 25 24 20 21 28 25
2810.0 23 24 24 33 31 21 23 20 22 22
2850.0 22 16 12 30 39 35 34 30 21 27
2890.0 28 26 27 37 31 35 28 44 45 42
2930.0 64 79 91 97 87 73 61 68 79 94
2970.0 104 120 129 126 98 81 84 81 86 119
3010.0 161 193 207 186 155 108 73 64 70 65
3050.0 63 75 69 75 94 105 116 148 202 216
3090.0 204 157 107 81 67 64 51 46 70 66
3130.0 71 63 56 61 61 40 57 55 49 50
3170.0 47 45 51 40 49 54 42 45 46 52
3210.0 50 58 45 43 54 49 57 54 47 51
3250.0 50 63 64 74 80 81 85 76 73 68
3290.0 64 62 47 57 61 52 65 48 58 48
3330.0 46 64 60 57 45 45 55 54 68 64
3370.0 64 70 78 94 106 127 153 168 168 127
3410.0 91 81 58 62 70 65 74 55 77 75
3450.0 48 45 51 71 62 67 59 72 78 85
3490.0 70 73 76 97 113 99 94 93 124 130
3530.0 145 175 218 364 782 1698 2983 4199 4531 3950
3570.0 2656 1423 726 338 238 157 138 114 111 92
3610.0 96 102 56 77 56 63 78 116 104 104
3650.0 30 59 73 112 91 64 81 7 105 97
3690.0 76 50 91 88 99 87 71 112 112 89
3730.0 87 44 63 113 4 77 0 125 87 82
3770.0 78 45 94 81 84 111 74 75 22 82
3810.0 50 61 56 45 90 88 36 67 70 101
3850.0 82 29 51 100 89 34 79 50 132 80
3890.0 119 41 108 55 37 83 114 121 72 82
3930.0 113 131 117 81 54 86 91 79 84 83
##END=
