##TITLE=v-Triazolo[4,5-d]pyrimidine, (3H), 3-cyclopentyl-7-metylthio-
##JCAMP-DX=4.24
##DATA TYPE=INFRARED SPECTRUM
##ORIGIN=Sadtler Research Labs Under US-EPA Contract
##OWNER=NIST Standard Reference Data Program
##CAS REGISTRY NO=17050-87-2
##MOLFORM=C 10 H 13 N 5 S
##XUNITS=1/CM
##YUNITS=ABSORBANCE
##XFACTOR=1.0
##YFACTOR=0.000046872
##DELTAX=4.0
##FIRSTX=450.0
##LASTX=3966.0
##FIRSTY=0.008671
##MAXX=3966
##MINX=450
##MAXY=0.46872
##MINY=0
##NPOINTS=880
##XYDATA=(X++(Y..Y))
450.0 185 189 96 140 54 20 111 39 125 42
490.0 134 115 72 73 82 74 98 48 109 97
530.0 170 193 299 429 648 608 528 399 346 313
570.0 183 198 211 158 167 159 148 114 97 104
610.0 114 104 106 110 115 131 151 137 115 63
650.0 53 65 53 44 101 119 155 179 212 163
690.0 122 90 49 64 75 89 93 109 77 85
730.0 57 49 37 69 69 56 69 92 110 100
770.0 89 98 108 103 135 161 281 337 314 311
810.0 325 353 383 426 448 494 548 649 776 1002
850.0 1437 2084 2568 2397 1627 841 380 199 120 102
890.0 106 124 144 185 190 193 180 171 171 189
930.0 210 241 287 317 407 525 717 961 1360 1736
970.0 1913 1943 2084 2545 2871 2533 1743 1100 823 717
1010.0 726 855 1066 1400 1848 2318 2650 2704 2479 2110
1050.0 1709 1305 955 682 530 447 413 419 409 388
1090.0 364 325 304 266 262 266 263 261 260 270
1130.0 300 375 488 663 884 1011 932 735 608 640
1170.0 797 1041 1384 1885 2576 3275 3510 3078 2292 1664
1210.0 1396 1377 1493 1641 1770 1906 2024 1942 1571 1090
1250.0 705 490 391 353 401 488 554 581 563 624
1290.0 871 1444 2328 2998 2963 2282 1602 1328 1404 1755
1330.0 2261 2584 2413 1923 1385 974 745 655 651 706
1370.0 787 814 804 741 624 511 435 433 503 658
1410.0 863 1096 1204 1191 1097 1066 1155 1314 1562 1877
1450.0 2273 2450 2176 1625 1065 705 584 566 585 513
1490.0 452 419 433 472 479 498 555 702 875 1175
1530.0 1502 1997 2615 3385 4394 5485 6745 7751 8739 9397
1570.0 10000 9912 8396 5931 3590 2096 1320 858 541 347
1610.0 249 195 148 136 117 112 96 95 98 88
1650.0 80 71 79 75 72 61 59 48 37 20
1690.0 23 25 8 12 21 31 23 14 34 48
1730.0 25 14 18 22 11 6 16 14 17 17
1770.0 12 13 21 18 20 18 17 19 15 22
1810.0 25 18 18 19 16 7 11 10 7 0
1850.0 11 12 14 9 11 9 14 18 23 36
1890.0 42 65 87 118 129 126 96 68 44 35
1930.0 32 29 30 28 26 33 30 33 33 35
1970.0 29 36 41 38 43 43 46 46 54 53
2010.0 54 47 44 39 38 38 41 34 36 29
2050.0 27 31 28 28 27 26 28 26 21 21
2090.0 22 18 14 16 19 14 15 13 11 13
2130.0 9 13 15 11 9 7 7 7 8 11
2170.0 12 20 20 16 20 23 16 22 14 14
2210.0 11 11 9 11 12 13 19 15 12 16
2250.0 13 18 20 31 35 39 46 44 53 53
2290.0 58 56 53 61 57 61 50 43 54 48
2330.0 42 41 48 51 61 55 45 46 30 12
2370.0 38 30 36 45 35 27 19 26 25 27
2410.0 27 26 28 22 27 25 22 27 31 27
2450.0 35 35 32 37 39 46 49 56 57 65
2490.0 67 65 70 68 71 69 73 77 83 86
2530.0 83 78 71 69 59 55 52 52 49 50
2570.0 55 55 64 67 69 76 77 82 76 75
2610.0 70 61 58 50 45 42 44 36 36 35
2650.0 29 24 18 25 26 28 30 33 34 46
2690.0 42 44 42 45 50 50 51 61 64 65
2730.0 70 72 73 80 79 87 89 95 87 88
2770.0 85 88 88 83 86 90 90 95 88 90
2810.0 90 96 109 111 130 155 176 214 235 265
2850.0 306 350 398 462 555 664 816 1007 1229 1346
2890.0 1271 1069 888 801 781 803 868 957 1090 1243
2930.0 1430 1690 2180 2647 2728 2440 2307 2492 2770 3040
2970.0 3252 3357 3339 3114 2629 2000 1438 1070 835 680
3010.0 584 517 467 399 338 290 252 214 205 211
3050.0 265 347 506 709 768 724 488 255 146 93
3090.0 77 66 60 69 65 55 59 49 34 35
3130.0 31 22 23 16 11 13 22 6 12 10
3170.0 24 27 14 24 20 19 22 17 21 21
3210.0 20 17 18 19 19 14 21 15 20 23
3250.0 10 19 15 12 23 27 11 13 14 15
3290.0 17 10 21 19 26 14 12 7 15 16
3330.0 16 18 21 15 18 26 29 25 19 10
3370.0 16 12 11 17 28 16 21 10 15 25
3410.0 24 18 16 27 16 21 15 18 25 24
3450.0 8 10 12 27 17 24 25 17 19 25
3490.0 36 33 23 21 15 23 19 26 11 22
3530.0 31 28 21 15 13 27 27 27 18 26
3570.0 14 30 23 30 34 12 32 25 20 15
3610.0 26 22 23 31 35 15 20 19 38 26
3650.0 21 17 21 33 31 32 23 11 18 8
3690.0 33 23 26 33 55 26 16 34 29 20
3730.0 0 16 37 17 24 26 15 24 25 6
3770.0 8 35 45 37 35 37 27 23 30 38
3810.0 30 22 27 36 14 45 27 29 51 23
3850.0 36 45 46 48 34 26 23 30 32 41
3890.0 55 59 34 20 38 43 47 55 32 51
3930.0 19 32 48 47 18 15 44 36 45 45
##END=
