##TITLE=v-Triazolo[4,5-d]pyrimidine,(3H),3-cyclopentyl-7-dimethylamino-
##JCAMP-DX=4.24
##DATA TYPE=INFRARED SPECTRUM
##ORIGIN=Sadtler Research Labs Under US-EPA Contract
##OWNER=NIST Standard Reference Data Program
##CAS REGISTRY NO=17050-86-1
##MOLFORM=C 11 H 16 N 6
##XUNITS=1/CM
##YUNITS=ABSORBANCE
##XFACTOR=1.0
##YFACTOR=0.000100037
##DELTAX=4.0
##FIRSTX=450.0
##LASTX=3966.0
##FIRSTY=0.007703
##MAXX=3966
##MINX=450
##MAXY=1.00037
##MINY=0
##NPOINTS=880
##XYDATA=(X++(Y..Y))
450.0 77 73 57 50 39 67 28 31 39 23
490.0 27 12 23 7 14 16 22 9 15 21
530.0 20 3 37 66 62 140 227 302 246 117
570.0 51 22 15 20 20 22 25 47 62 90
610.0 90 90 101 121 114 99 76 60 42 26
650.0 27 32 27 44 79 127 164 256 391 337
690.0 248 188 122 67 27 12 10 12 14 14
730.0 18 16 18 12 21 20 24 16 24 21
770.0 25 42 45 58 66 121 269 677 290 138
810.0 115 93 90 94 92 81 70 72 59 60
850.0 65 86 121 169 179 116 62 29 20 47
890.0 83 116 155 216 286 289 226 172 153 191
930.0 277 429 571 572 433 257 146 107 120 141
970.0 111 64 32 18 6 6 9 16 19 34
1010.0 50 75 113 188 306 402 461 553 753 1089
1050.0 1523 1896 1970 1752 1448 1184 954 749 587 480
1090.0 406 354 309 264 221 195 180 166 147 137
1130.0 134 147 179 205 198 175 162 172 184 199
1170.0 221 254 294 348 412 496 614 751 836 818
1210.0 719 597 487 427 412 395 356 321 321 357
1250.0 432 586 833 1017 1008 932 863 885 1022 1104
1290.0 1007 860 756 760 885 1188 1775 2781 3893 4335
1330.0 4380 4064 3134 1912 1054 666 514 483 506 541
1370.0 556 555 541 564 661 792 923 963 875 807
1410.0 794 687 677 780 1133 1402 1296 1072 838 707
1450.0 691 697 646 562 493 466 484 498 490 504
1490.0 517 519 568 624 723 836 924 1019 1075 1056
1530.0 1038 1013 1059 1186 1398 1720 2177 2704 3157 3343
1570.0 3119 2646 2300 2372 2940 4091 5870 8070 9874 10000
1610.0 8142 5475 3345 2078 1377 940 698 530 419 356
1650.0 336 299 259 228 207 195 195 163 166 150
1690.0 122 99 107 85 67 46 45 50 15 0
1730.0 7 23 15 18 27 36 27 28 28 26
1770.0 37 46 38 45 46 54 57 57 62 51
1810.0 51 49 42 44 44 50 44 38 47 49
1850.0 42 35 38 36 37 42 33 32 32 36
1890.0 40 42 42 42 45 54 59 71 85 86
1930.0 85 79 66 59 55 50 52 50 47 48
1970.0 40 39 35 31 25 28 25 24 20 20
2010.0 18 20 19 17 15 16 13 12 13 13
2050.0 10 10 10 9 10 11 11 13 10 9
2090.0 13 10 10 9 10 9 11 13 15 16
2130.0 15 11 10 8 5 6 3 3 3 4
2170.0 5 6 6 9 12 17 17 18 18 18
2210.0 19 20 22 22 25 24 24 24 21 17
2250.0 17 15 13 15 14 16 17 19 22 24
2290.0 22 26 27 26 26 26 18 18 19 14
2330.0 10 10 0 0 11 15 3 6 1 7
2370.0 9 24 22 26 24 16 12 9 4 2
2410.0 2 0 0 2 1 2 1 4 4 5
2450.0 11 17 25 33 39 45 43 40 34 27
2490.0 20 17 16 14 14 11 13 13 13 15
2530.0 15 16 17 19 21 27 24 31 29 33
2570.0 35 37 39 36 36 35 35 33 34 33
2610.0 33 32 33 33 35 34 32 34 34 37
2650.0 36 38 37 32 29 27 26 24 25 26
2690.0 32 31 33 32 35 38 36 40 43 43
2730.0 45 44 48 51 53 56 59 62 62 68
2770.0 76 82 90 107 121 136 160 170 184 201
2810.0 218 239 271 302 323 330 323 316 303 310
2850.0 339 383 451 540 651 781 892 955 977 976
2890.0 940 893 876 892 924 973 1037 1108 1182 1266
2930.0 1350 1435 1518 1590 1655 1698 1721 1728 1720 1699
2970.0 1639 1550 1416 1235 1020 792 609 489 407 355
3010.0 317 299 286 286 290 296 299 302 306 310
3050.0 314 300 270 229 186 145 118 103 86 74
3090.0 62 53 47 39 39 36 32 25 23 21
3130.0 17 16 16 14 9 15 16 13 10 5
3170.0 5 5 6 3 5 2 0 4 5 7
3210.0 6 2 2 6 9 7 4 7 8 10
3250.0 10 11 9 11 11 14 16 13 10 10
3290.0 11 12 13 11 8 7 7 11 13 12
3330.0 10 10 11 9 9 11 11 11 10 10
3370.0 10 11 9 13 10 7 13 15 14 10
3410.0 11 16 12 10 8 15 15 13 17 14
3450.0 14 13 14 12 14 16 15 16 11 14
3490.0 16 18 19 16 17 14 14 18 15 16
3530.0 10 17 14 13 15 18 16 15 16 18
3570.0 20 24 19 15 11 11 17 17 16 11
3610.0 11 15 12 18 18 14 18 17 13 10
3650.0 14 20 14 19 14 10 18 15 16 14
3690.0 12 18 20 11 11 10 15 13 18 17
3730.0 18 4 10 13 19 23 20 14 19 20
3770.0 26 12 12 20 16 22 24 24 24 15
3810.0 18 20 22 14 14 22 16 27 23 22
3850.0 21 14 25 25 24 24 19 23 24 25
3890.0 32 17 21 20 23 27 19 14 7 22
3930.0 37 24 21 14 26 28 33 35 21 24
##END=
