##TITLE=v-Triazolo[4,5-d]pyrimidine, (3H),3-cyclopentyl-
##JCAMP-DX=4.24
##DATA TYPE=INFRARED SPECTRUM
##ORIGIN=Sadtler Research Labs Under US-EPA Contract
##OWNER=NIST Standard Reference Data Program
##CAS REGISTRY NO=17050-88-3
##MOLFORM=C 9 H 11 N 5
##XUNITS=1/CM
##YUNITS=ABSORBANCE
##XFACTOR=1.0
##YFACTOR=0.000073938
##DELTAX=4.0
##FIRSTX=450.0
##LASTX=3966.0
##FIRSTY=0.000444
##MAXX=3966
##MINX=450
##MAXY=0.73938
##MINY=0
##NPOINTS=880
##XYDATA=(X++(Y..Y))
450.0 6 66 97 84 11 96 99 131 122 135
490.0 104 124 138 116 72 89 147 103 82 89
530.0 92 70 64 79 70 110 82 85 100 83
570.0 110 87 97 117 165 206 305 458 570 657
610.0 576 441 320 236 187 141 148 159 157 139
650.0 138 161 119 135 130 219 227 241 264 217
690.0 168 124 81 70 45 63 54 53 59 45
730.0 41 51 33 50 48 69 88 95 121 125
770.0 179 282 477 822 1211 1426 1458 1240 880 641
810.0 477 385 330 297 263 252 252 229 223 208
850.0 195 162 141 125 97 103 95 103 118 156
890.0 187 230 276 358 461 606 837 1199 1756 2168
930.0 2206 2076 1737 1479 1288 1087 858 629 457 334
970.0 274 240 228 228 252 288 340 438 590 806
1010.0 1101 1462 1842 2200 2512 2754 2824 2653 2255 1708
1050.0 1197 847 648 559 547 584 641 711 772 819
1090.0 810 749 631 482 367 312 293 295 301 293
1130.0 268 258 254 274 307 351 411 496 624 793
1170.0 973 1107 1147 1101 1009 934 922 962 1056 1142
1210.0 1181 1157 1045 878 704 544 425 385 439 603
1250.0 836 966 983 830 534 339 251 221 221 257
1290.0 353 515 719 921 1136 1355 1418 1309 1030 711
1330.0 583 606 790 1144 1809 2602 2973 2942 2426 1842
1370.0 1612 1574 1505 1359 1149 941 816 771 717 717
1410.0 770 885 1114 1240 1216 1023 786 615 551 590
1450.0 689 808 1036 1260 1465 1590 1505 1236 918 745
1490.0 576 406 315 238 232 230 183 197 226 210
1530.0 215 204 221 254 301 367 546 822 1303 2138
1570.0 3733 6131 8773 10000 8501 5584 3281 1966 1140 708
1610.0 463 340 281 214 198 152 157 143 115 121
1650.0 133 139 110 98 115 130 144 120 127 126
1690.0 88 80 113 115 97 79 92 120 80 68
1730.0 83 107 81 78 86 87 76 60 63 39
1770.0 55 53 34 34 27 25 32 24 29 17
1810.0 17 20 14 22 24 37 37 50 71 83
1850.0 56 34 20 21 25 35 26 26 48 75
1890.0 111 136 144 128 103 66 35 25 22 15
1930.0 15 19 30 43 57 70 92 94 76 55
1970.0 32 16 10 9 4 7 8 3 5 3
2010.0 2 0 7 8 7 8 10 14 19 18
2050.0 18 22 19 16 18 15 12 6 7 8
2090.0 9 9 9 9 10 7 10 10 12 16
2130.0 16 16 20 22 20 19 22 25 25 29
2170.0 31 30 30 27 30 26 27 26 28 31
2210.0 34 38 39 41 48 51 57 65 71 72
2250.0 70 69 62 58 54 53 53 59 63 63
2290.0 71 82 90 93 100 113 95 90 91 65
2330.0 74 68 59 75 124 85 106 79 109 113
2370.0 108 101 103 98 82 56 49 50 39 32
2410.0 23 23 20 15 17 20 26 27 33 31
2450.0 39 37 39 38 37 43 46 50 56 57
2490.0 61 64 68 70 70 72 66 59 54 47
2530.0 42 37 33 30 34 29 34 37 39 41
2570.0 45 48 49 51 53 58 62 70 82 85
2610.0 87 84 82 77 71 60 59 56 53 52
2650.0 52 51 51 51 50 55 55 54 49 48
2690.0 45 41 39 34 34 38 36 36 39 38
2730.0 39 39 42 40 40 44 46 47 54 60
2770.0 66 71 76 73 73 73 75 75 77 77
2810.0 80 81 90 98 110 120 137 156 173 204
2850.0 246 305 375 467 571 707 894 1151 1421 1573
2890.0 1540 1357 1134 989 936 940 1001 1096 1227 1382
2930.0 1534 1659 1755 1872 2029 2249 2538 2895 3283 3653
2970.0 3930 4092 4081 3785 3260 2595 1929 1424 1090 854
3010.0 676 546 457 405 377 375 389 419 450 489
3050.0 549 623 703 767 823 837 760 629 427 236
3090.0 139 97 80 71 64 60 58 52 42 47
3130.0 45 39 43 50 46 54 59 52 55 57
3170.0 53 47 41 40 38 36 34 35 35 36
3210.0 34 36 36 37 31 33 32 27 23 25
3250.0 20 28 29 25 23 29 30 29 26 28
3290.0 24 26 24 27 26 26 27 22 23 22
3330.0 29 25 25 26 31 28 21 27 22 26
3370.0 26 23 26 23 21 29 31 30 34 30
3410.0 28 30 32 24 27 33 33 34 31 32
3450.0 30 39 31 32 29 26 24 30 35 28
3490.0 37 35 33 36 35 39 35 42 31 34
3530.0 38 36 35 33 36 41 36 33 30 32
3570.0 39 30 32 37 29 44 29 37 37 29
3610.0 41 35 38 32 26 52 31 38 37 38
3650.0 38 39 51 25 41 21 40 44 26 40
3690.0 42 39 25 41 36 35 46 42 43 46
3730.0 40 47 31 54 42 49 40 41 41 43
3770.0 34 45 41 47 46 48 49 32 56 49
3810.0 59 55 50 59 59 45 45 62 53 67
3850.0 44 44 49 48 53 50 46 45 50 49
3890.0 47 44 30 35 45 43 37 49 44 50
3930.0 42 37 58 53 47 43 48 37 50 57
##END=
