##TITLE=2,5-Dimethylanisole
##JCAMP-DX=4.24
##DATA TYPE=INFRARED SPECTRUM
##ORIGIN=Sadtler Research Labs Under US-EPA Contract
##OWNER=NIST Standard Reference Data Program
##CAS REGISTRY NO=1706-11-2
##MOLFORM=C 9 H 12 O
##XUNITS=1/CM
##YUNITS=ABSORBANCE
##XFACTOR=1.0
##YFACTOR=0.000074866
##DELTAX=4.0
##FIRSTX=450.0
##LASTX=3966.0
##FIRSTY=0.063037
##MAXX=3966
##MINX=450
##MAXY=0.74866
##MINY=0
##NPOINTS=880
##XYDATA=(X++(Y..Y))
450.0 842 746 560 392 386 253 217 154 148 123
490.0 140 131 102 134 128 178 165 220 179 210
530.0 258 309 494 670 725 709 693 435 272 227
570.0 280 311 361 497 561 480 352 311 231 201
610.0 158 148 121 106 107 74 81 53 91 59
650.0 65 63 81 52 3 26 56 48 32 63
690.0 61 77 80 129 261 370 424 395 364 217
730.0 158 106 126 102 142 172 234 267 242 296
770.0 260 267 193 412 676 1362 1933 2615 4216 3526
810.0 1913 1904 989 548 327 470 516 705 963 852
850.0 750 617 539 396 332 252 227 173 167 170
890.0 168 200 217 284 356 513 666 783 808 769
930.0 633 447 332 247 230 209 238 252 314 385
970.0 469 590 755 942 1078 1136 1117 1008 824 699
1010.0 636 620 666 811 1106 1596 2287 3069 3872 4497
1050.0 4563 4074 3470 2438 1433 886 628 513 444 419
1090.0 391 406 416 460 534 684 999 1610 2726 4220
1130.0 5293 5479 5547 5264 4713 4572 4573 4469 3885 2853
1170.0 1842 1258 991 894 932 947 935 960 907 792
1210.0 755 706 625 588 658 849 1195 1724 2420 3380
1250.0 4613 6021 7587 9220 10000 9537 8880 7494 5580 4326
1290.0 3767 3259 2657 2275 1988 1691 1382 996 662 455
1330.0 345 311 241 238 239 228 221 212 213 251
1370.0 337 452 614 700 798 911 1074 1491 2248 3102
1410.0 3780 4114 3991 3499 2788 2178 1759 1508 1431 1457
1450.0 1697 2081 2736 3657 4239 4235 3982 3568 2739 1960
1490.0 1722 2018 2916 4678 6439 7461 7595 6771 4654 2641
1530.0 1672 1173 943 824 813 860 857 859 955 1093
1570.0 1276 1590 2026 2525 2919 3100 3035 2669 2159 1915
1610.0 2205 2680 2817 2593 2152 1412 701 376 306 248
1650.0 188 169 195 183 172 168 159 193 162 146
1690.0 168 158 90 79 86 100 70 36 90 122
1730.0 108 81 111 106 72 44 59 52 52 64
1770.0 48 41 72 59 67 55 44 47 29 56
1810.0 47 43 46 42 42 48 71 96 88 85
1850.0 117 157 185 224 228 209 205 155 100 54
1890.0 28 18 18 17 18 12 11 10 1 9
1930.0 13 12 17 11 26 39 49 63 76 71
1970.0 79 79 75 70 60 46 43 44 47 48
2010.0 50 55 59 68 79 80 82 81 76 73
2050.0 75 66 70 71 75 84 89 96 98 105
2090.0 107 115 113 102 85 67 49 37 36 34
2130.0 34 40 40 48 51 53 50 56 65 73
2170.0 79 92 101 107 108 101 96 89 76 66
2210.0 61 51 37 24 19 16 14 13 10 5
2250.0 4 6 13 11 18 17 20 21 21 21
2290.0 23 27 30 28 27 25 27 22 25 38
2330.0 38 41 41 35 41 42 14 25 7 9
2370.0 32 50 47 40 41 43 46 49 55 62
2410.0 66 65 72 72 75 70 70 68 65 65
2450.0 60 52 49 46 48 49 49 53 48 44
2490.0 41 41 39 39 39 40 46 45 52 63
2530.0 72 84 91 94 103 102 104 96 97 99
2570.0 96 95 95 84 82 71 72 70 73 71
2610.0 67 61 56 48 47 47 52 56 52 58
2650.0 63 67 73 70 66 64 65 57 61 57
2690.0 60 65 64 65 71 77 80 88 102 118
2730.0 146 192 247 274 279 248 191 140 118 113
2770.0 115 118 132 139 155 171 198 230 258 303
2810.0 352 421 516 657 880 1205 1605 1920 2101 2195
2850.0 2144 2022 2019 2197 2487 2768 2929 2950 2815 2620
2890.0 2434 2376 2410 2554 2774 3100 3567 4058 4594 5309
2930.0 6041 6573 6871 6865 6405 5827 5479 5297 4513 3727
2970.0 3266 2888 2663 2561 2595 2824 3237 3898 4365 4450
3010.0 4224 3704 3061 2741 2782 2768 2696 2607 2457 2344
3050.0 2413 2493 2450 2300 1961 1533 1191 950 780 671
3090.0 604 564 518 476 419 365 319 286 268 267
3130.0 257 249 226 200 166 134 108 100 86 79
3170.0 75 62 68 64 59 60 52 52 57 58
3210.0 55 46 41 39 34 34 34 31 25 37
3250.0 37 38 37 45 36 40 44 39 43 33
3290.0 30 31 36 25 25 24 32 26 30 32
3330.0 33 37 30 23 33 33 36 33 38 41
3370.0 34 31 28 28 35 38 39 36 32 27
3410.0 32 29 35 25 28 27 31 28 31 30
3450.0 29 22 26 18 20 33 32 28 24 37
3490.0 28 30 31 23 22 26 13 32 22 24
3530.0 26 30 18 23 21 11 23 21 20 11
3570.0 8 11 26 19 17 20 19 24 18 21
3610.0 25 11 20 16 12 15 19 12 19 18
3650.0 20 25 10 14 24 11 18 5 15 10
3690.0 15 22 14 10 14 14 12 23 17 14
3730.0 23 32 30 28 35 40 25 27 21 17
3770.0 28 22 26 17 28 22 18 10 14 22
3810.0 25 22 15 16 22 31 28 35 21 22
3850.0 0 15 20 16 18 29 38 39 31 20
3890.0 31 30 42 22 27 28 15 15 23 28
3930.0 22 29 25 17 31 28 33 17 24 37
##END=
