##TITLE=Benzoyl chloride, 3-fluoro-
##JCAMP-DX=4.24
##DATA TYPE=INFRARED SPECTRUM
##ORIGIN=Sadtler Research Labs Under US-EPA Contract
##OWNER=NIST Standard Reference Data Program
##CAS REGISTRY NO=1711-07-5
##MOLFORM=C 7 H 4 Cl F O
##XUNITS=1/CM
##YUNITS=ABSORBANCE
##XFACTOR=1.0
##YFACTOR=0.000124231
##DELTAX=4.0
##FIRSTX=450.0
##LASTX=3966.0
##FIRSTY=0.045096
##MAXX=3966
##MINX=450
##MAXY=1.24231
##MINY=0
##NPOINTS=880
##XYDATA=(X++(Y..Y))
450.0 363 221 139 184 194 242 204 214 173 145
490.0 148 132 199 264 361 417 551 482 433 340
530.0 281 165 112 81 50 105 70 102 40 91
570.0 2 43 47 61 94 83 102 12 49 24
610.0 74 20 97 94 117 154 153 162 127 273
650.0 255 466 601 1435 2117 2522 2507 2038 1101 815
690.0 1103 1167 2129 2077 1275 1205 649 359 265 191
730.0 230 190 250 233 398 473 566 550 484 452
770.0 572 895 1588 3194 6113 8330 8593 7816 4220 2591
810.0 2658 3232 4057 4460 4439 3698 2549 1598 966 602
850.0 480 372 330 319 304 367 461 651 775 1074
890.0 1208 1102 1006 736 613 509 444 418 396 415
930.0 503 682 902 1199 1493 1873 1911 1771 1634 1189
970.0 922 1097 1341 1374 1291 891 503 521 453 337
1010.0 331 364 422 459 497 481 470 457 454 435
1050.0 421 396 355 325 295 264 230 237 214 188
1090.0 164 160 167 186 243 313 469 666 969 1419
1130.0 2264 3764 5002 5186 4773 2897 1448 1228 1278 1340
1170.0 1317 800 427 334 277 261 229 215 220 229
1210.0 249 274 327 368 438 550 780 1287 2467 4614
1250.0 7320 9684 10000 8804 5242 3082 2137 1705 1453 904
1290.0 556 541 520 540 542 533 482 462 436 405
1330.0 376 334 312 258 201 159 149 139 151 139
1370.0 124 115 93 74 91 116 145 176 180 193
1410.0 197 226 321 481 808 1449 2300 2793 2900 2563
1450.0 1661 1045 718 548 508 634 996 1635 2165 2473
1490.0 2381 1790 1085 663 426 328 279 265 244 195
1530.0 190 158 139 138 114 101 117 154 175 229
1570.0 346 539 851 1334 1899 2602 2872 2863 2517 1872
1610.0 1296 901 626 411 283 204 181 166 148 150
1650.0 159 153 129 120 116 120 126 115 133 146
1690.0 145 165 205 224 227 226 254 304 353 413
1730.0 496 586 704 933 1402 2130 3086 3940 4367 4691
1770.0 4631 4551 4848 5839 6742 7102 6871 5782 3915 2404
1810.0 1523 1061 814 681 615 538 430 300 213 136
1850.0 85 52 47 44 63 84 93 120 127 129
1890.0 108 88 66 59 59 65 75 82 97 98
1930.0 105 111 124 133 133 126 118 95 68 50
1970.0 30 22 13 11 6 12 9 3 6 3
2010.0 4 5 12 7 9 7 11 16 21 25
2050.0 25 29 26 31 36 42 46 44 47 49
2090.0 49 46 45 40 37 29 31 32 29 26
2130.0 20 12 9 12 13 16 14 16 15 14
2170.0 13 11 11 11 14 13 16 15 20 16
2210.0 19 21 24 26 30 33 33 36 30 32
2250.0 32 37 37 43 49 52 59 58 60 54
2290.0 46 43 49 46 52 54 50 47 47 53
2330.0 43 38 34 38 34 38 27 33 33 29
2370.0 31 30 38 40 37 34 36 37 36 39
2410.0 42 46 43 42 35 35 35 35 34 32
2450.0 31 27 30 29 28 28 28 28 28 30
2490.0 33 37 44 55 57 59 57 56 51 45
2530.0 44 45 42 41 43 44 46 41 40 41
2570.0 42 44 47 49 47 49 49 54 50 49
2610.0 47 52 49 49 47 41 37 33 31 24
2650.0 30 28 20 21 21 21 21 34 27 30
2690.0 31 36 34 44 37 22 28 29 29 46
2730.0 61 36 44 45 44 60 66 25 28 21
2770.0 14 40 46 9 18 14 6 43 25 0
2810.0 9 2 11 54 12 10 13 12 42 40
2850.0 26 39 33 51 61 39 38 30 34 28
2890.0 32 25 27 34 46 42 21 28 27 62
2930.0 35 24 27 32 73 18 32 10 65 41
2970.0 28 17 44 55 35 24 37 59 49 20
3010.0 41 62 51 39 57 67 65 70 87 112
3050.0 112 118 126 117 110 132 180 273 395 472
3090.0 481 425 298 170 99 70 53 43 32 25
3130.0 21 16 14 15 11 12 12 15 12 10
3170.0 9 9 12 16 17 17 21 22 17 17
3210.0 14 12 17 11 13 12 16 15 11 13
3250.0 12 12 10 10 12 12 11 9 12 14
3290.0 11 11 7 8 13 6 6 7 7 6
3330.0 11 8 5 8 11 7 9 11 11 12
3370.0 14 13 19 14 20 14 18 17 16 12
3410.0 19 15 12 14 4 10 9 17 12 12
3450.0 15 15 13 19 12 13 13 10 15 19
3490.0 16 23 33 38 43 56 62 78 88 103
3530.0 110 120 115 106 87 63 52 45 35 31
3570.0 45 67 118 167 164 156 119 62 26 23
3610.0 15 17 17 18 17 2 8 14 8 15
3650.0 15 14 13 12 18 10 20 20 21 14
3690.0 24 14 15 10 10 20 19 15 20 29
3730.0 25 23 20 24 14 9 11 24 13 19
3770.0 26 19 27 29 12 15 16 7 20 17
3810.0 13 16 16 22 21 19 27 22 20 26
3850.0 13 13 20 24 23 23 23 25 20 19
3890.0 26 10 17 17 23 24 21 21 33 24
3930.0 12 15 1 15 19 25 27 38 11 4
##END=
