##TITLE=Benzene, 1-chloro-4-(1-methylethenyl)-
##JCAMP-DX=4.24
##DATA TYPE=INFRARED SPECTRUM
##ORIGIN=Sadtler Research Labs Under US-EPA Contract
##OWNER=NIST Standard Reference Data Program
##CAS REGISTRY NO=1712-70-5
##MOLFORM=C 9 H 9 Cl
##XUNITS=1/CM
##YUNITS=ABSORBANCE
##XFACTOR=1.0
##YFACTOR=0.000054309
##DELTAX=4.0
##FIRSTX=450.0
##LASTX=3966.0
##FIRSTY=0.005974
##MAXX=3966
##MINX=450
##MAXY=0.54309
##MINY=0
##NPOINTS=880
##XYDATA=(X++(Y..Y))
450.0 110 262 105 20 0 5 56 110 211 398
490.0 549 709 815 758 644 581 502 525 509 613
530.0 702 435 817 886 808 557 532 339 333 233
570.0 162 294 140 209 216 453 826 1083 1046 830
610.0 377 137 73 116 140 147 122 175 157 146
650.0 160 170 165 116 85 86 99 91 108 96
690.0 110 117 98 117 146 181 224 262 409 558
730.0 733 844 867 776 757 998 1863 2846 2675 2351
770.0 1107 323 203 191 181 197 246 352 540 821
810.0 1296 1990 3002 4194 5210 6233 7287 5185 4238 3005
850.0 1806 1065 685 585 588 689 882 1233 1796 2468
890.0 3128 3750 4294 3574 3029 2323 1655 1138 825 630
930.0 520 472 415 425 481 555 573 533 410 289
970.0 218 176 159 146 156 200 275 485 940 2175
1010.0 4569 4821 4625 2856 762 265 200 254 282 329
1050.0 357 383 374 408 460 592 794 1132 1745 2907
1090.0 5088 7281 7827 7296 4988 4083 4889 4838 4187 2469
1130.0 922 442 310 259 249 250 269 280 310 354
1170.0 403 427 391 364 285 251 226 215 242 279
1210.0 353 456 577 632 633 587 541 571 698 940
1250.0 1229 1437 1488 1298 1002 763 601 521 523 635
1290.0 870 1113 1298 1517 1501 1290 1068 666 404 341
1330.0 325 343 416 442 458 572 730 905 1026 1128
1370.0 1269 1666 1946 2076 2148 1861 1818 1791 1627 1397
1410.0 1201 1016 1057 923 987 1061 1289 1389 1432 1497
1450.0 1508 1634 1854 1936 1922 1984 2251 2753 3547 5237
1490.0 8061 10000 9376 7426 3889 1495 892 707 632 478
1530.0 444 415 473 515 490 456 507 659 592 624
1570.0 689 703 669 759 908 1258 1663 1957 1901 1657
1610.0 1195 959 1058 1218 1593 1810 2105 2002 1852 1580
1650.0 1258 977 745 616 495 421 413 289 419 430
1690.0 473 639 977 1262 1408 1364 1309 1008 588 421
1730.0 384 410 287 277 341 342 301 325 391 439
1770.0 532 498 406 357 339 445 567 647 682 566
1810.0 425 312 218 186 156 162 125 106 133 144
1850.0 125 123 144 134 173 192 187 234 301 382
1890.0 450 471 461 429 363 267 204 159 122 86
1930.0 78 75 67 102 82 79 73 67 52 75
1970.0 59 62 61 45 40 62 58 47 29 51
2010.0 44 48 47 48 52 52 59 54 60 62
2050.0 60 55 59 63 61 52 60 60 61 61
2090.0 73 57 48 43 25 33 31 28 24 31
2130.0 32 41 33 33 33 32 28 37 25 39
2170.0 25 30 31 41 32 40 49 41 43 42
2210.0 49 49 60 49 49 49 39 48 49 50
2250.0 49 39 50 51 55 53 64 67 95 99
2290.0 121 124 138 158 163 170 156 131 140 114
2330.0 98 66 60 52 44 84 144 114 48 21
2370.0 0 0 3 13 42 52 53 62 61 70
2410.0 62 63 60 61 61 57 48 33 33 32
2450.0 35 42 51 41 41 42 44 51 40 48
2490.0 31 42 41 41 57 49 49 39 58 51
2530.0 50 57 59 53 46 63 65 76 81 73
2570.0 83 74 72 71 61 65 64 48 46 47
2610.0 44 36 27 17 9 20 25 10 15 18
2650.0 16 31 44 43 56 62 63 72 63 81
2690.0 91 80 70 67 63 52 63 63 62 64
2730.0 73 99 89 82 103 96 85 79 76 73
2770.0 80 82 90 108 100 101 137 138 147 157
2810.0 176 180 174 180 190 197 216 207 244 274
2850.0 319 371 450 520 620 678 722 721 704 712
2890.0 719 757 794 814 883 936 1019 1110 1240 1431
2930.0 1621 1725 1770 1801 1783 1756 1756 1772 1666 1630
2970.0 1771 2320 3340 4040 4038 3453 2306 1595 1303 1166
3010.0 1072 1011 955 915 899 915 1047 1206 1318 1358
3050.0 1266 1162 1025 966 902 933 1051 1234 1609 2372
3090.0 3461 3738 3675 2776 1592 1042 726 469 321 240
3130.0 197 164 154 146 136 127 136 108 98 89
3170.0 89 87 88 58 59 58 47 49 45 53
3210.0 45 44 43 43 77 47 45 31 18 38
3250.0 14 32 15 44 24 17 24 0 26 25
3290.0 17 45 18 45 47 48 43 42 24 50
3330.0 31 54 51 65 70 64 53 28 54 84
3370.0 56 54 31 50 50 50 55 50 48 54
3410.0 84 61 67 25 74 76 65 56 74 62
3450.0 68 53 62 65 57 46 28 13 45 83
3490.0 56 71 63 76 68 61 65 74 74 62
3530.0 70 47 45 54 48 25 67 101 41 58
3570.0 73 58 72 59 89 49 81 46 89 98
3610.0 70 85 67 97 103 99 104 136 152 151
3650.0 122 90 95 108 124 132 109 89 85 116
3690.0 91 78 102 123 108 144 115 137 119 118
3730.0 108 92 103 101 91 89 50 93 72 97
3770.0 74 64 93 62 80 94 106 106 123 98
3810.0 94 79 91 94 79 119 115 136 102 122
3850.0 144 136 124 105 94 108 80 64 92 98
3890.0 92 86 93 92 77 69 68 73 91 96
3930.0 93 90 108 112 139 109 93 72 86 85
##END=
