##TITLE=2-Acetyl-1-tetralone
##JCAMP-DX=4.24
##DATA TYPE=INFRARED SPECTRUM
##ORIGIN=Sadtler Research Labs Under US-EPA Contract
##OWNER=NIST Standard Reference Data Program
##CAS REGISTRY NO=17216-08-9
##MOLFORM=C 12 H 12 O 2
##XUNITS=1/CM
##YUNITS=ABSORBANCE
##XFACTOR=1.0
##YFACTOR=0.000053745
##DELTAX=4.0
##FIRSTX=450.0
##LASTX=3966.0
##FIRSTY=0.015532
##MAXX=3966
##MINX=450
##MAXY=0.53745
##MINY=0
##NPOINTS=880
##XYDATA=(X++(Y..Y))
450.0 289 271 254 218 164 245 257 348 344 376
490.0 241 89 104 61 115 127 186 199 213 274
530.0 378 504 655 723 696 686 594 566 450 432
570.0 379 343 332 358 334 357 409 449 456 397
610.0 264 177 155 193 186 184 151 113 23 24
650.0 23 50 25 29 36 146 163 177 186 157
690.0 170 174 208 322 406 391 317 367 515 1012
730.0 1685 2666 3422 3205 2400 1753 1151 874 695 637
770.0 612 610 660 687 726 696 572 455 339 218
810.0 169 144 129 133 132 172 194 312 478 658
850.0 706 647 475 348 343 341 376 446 574 719
890.0 891 1125 1454 1783 1914 1801 1462 1182 1055 995
930.0 966 972 952 962 992 1019 1007 941 916 918
970.0 939 907 806 696 616 538 429 305 212 176
1010.0 182 231 308 418 543 694 799 722 525 287
1050.0 91 15 0 19 90 200 328 391 386 317
1090.0 225 166 160 211 323 455 559 546 467 350
1130.0 296 332 440 633 940 1430 1847 1940 1818 1462
1170.0 1257 1278 1290 1326 1341 1458 1650 1925 2231 2487
1210.0 2657 2724 2698 2578 2459 2313 2192 2169 2225 2289
1250.0 2370 2480 2589 2761 3042 3399 3810 4264 4664 5009
1290.0 5290 5513 5583 5432 5079 4552 4116 3906 3844 3741
1330.0 3514 3194 2949 2951 3196 3542 3809 3909 3760 3484
1370.0 3174 2909 2788 2788 2905 3094 3314 3520 3703 3839
1410.0 3887 3843 3744 3598 3507 3488 3553 3606 3571 3473
1450.0 3398 3330 3227 3047 2817 2667 2630 2615 2642 2672
1490.0 2722 2730 2758 2794 2863 2953 3014 3143 3273 3446
1530.0 3624 3849 4116 4401 4742 5046 5391 5656 5949 6022
1570.0 5979 5740 5511 5435 5680 6269 7076 8092 9067 9821
1610.0 10000 9697 9147 8514 7979 7400 6919 6294 5691 5049
1650.0 4499 3993 3534 3209 2920 2756 2657 2796 3133 3777
1690.0 4446 4927 4869 4288 3368 2562 2128 2099 2292 2615
1730.0 2868 2810 2389 1796 1325 1026 874 767 723 674
1770.0 631 565 498 445 396 359 349 328 321 308
1810.0 302 311 313 315 304 275 242 225 225 233
1850.0 226 203 174 136 120 118 108 98 92 92
1890.0 101 110 122 134 130 127 127 146 177 209
1930.0 229 220 203 169 162 163 186 193 191 161
1970.0 113 92 69 61 52 49 44 47 45 44
2010.0 46 38 37 38 37 35 38 41 40 42
2050.0 39 38 36 34 30 36 34 33 29 31
2090.0 30 29 29 28 34 34 35 34 36 37
2130.0 36 31 33 30 31 29 30 28 31 34
2170.0 33 31 27 31 31 28 30 29 30 27
2210.0 31 33 28 26 31 35 38 33 31 34
2250.0 33 33 32 32 38 39 38 39 45 40
2290.0 39 47 52 62 71 82 79 75 77 57
2330.0 53 52 39 58 85 52 64 37 48 43
2370.0 53 59 61 57 34 19 8 2 7 7
2410.0 0 2 6 2 5 4 4 8 10 8
2450.0 11 12 15 12 8 9 7 9 7 14
2490.0 12 7 10 10 13 17 18 16 13 10
2530.0 10 12 15 17 18 21 22 21 24 23
2570.0 20 20 19 16 17 14 18 16 23 23
2610.0 19 25 27 31 35 43 42 43 40 48
2650.0 46 46 47 53 55 54 57 60 56 55
2690.0 48 50 49 47 45 46 48 44 44 45
2730.0 36 38 40 38 34 32 37 43 38 38
2770.0 37 36 34 34 39 43 45 56 62 66
2810.0 64 68 78 89 133 195 318 532 874 1233
2850.0 1526 1661 1470 1177 903 702 583 531 525 555
2890.0 654 832 1066 1317 1474 1402 1160 955 835 877
2930.0 1060 1387 1917 2472 2764 2924 3034 2936 2673 2225
2970.0 1511 911 597 434 364 331 321 322 349 392
3010.0 454 523 594 711 840 953 1013 1032 1003 954
3050.0 944 993 1109 1243 1391 1587 1803 1919 1795 1427
3090.0 928 551 398 331 291 255 225 185 163 150
3130.0 131 115 122 121 118 115 108 103 106 106
3170.0 97 91 79 77 69 77 67 68 62 61
3210.0 59 54 56 63 53 53 54 52 52 50
3250.0 44 47 43 51 46 37 33 26 27 28
3290.0 26 24 23 20 25 16 11 18 16 5
3330.0 10 17 18 19 17 23 25 18 37 35
3370.0 35 38 31 32 18 23 25 20 33 23
3410.0 40 41 32 39 38 38 40 38 38 33
3450.0 39 30 22 8 12 20 9 22 16 13
3490.0 19 16 16 18 11 19 11 22 14 16
3530.0 33 31 17 17 27 31 37 30 39 42
3570.0 40 41 27 28 20 22 30 36 26 21
3610.0 31 33 47 31 23 43 48 48 40 33
3650.0 47 41 32 43 58 48 43 57 37 42
3690.0 42 54 32 41 42 49 57 35 59 68
3730.0 51 68 63 73 60 70 76 59 42 62
3770.0 61 49 52 70 45 38 44 49 55 47
3810.0 55 53 41 59 41 70 72 72 70 87
3850.0 73 96 90 66 76 83 74 74 59 56
3890.0 58 74 60 66 77 71 59 93 66 73
3930.0 66 80 81 66 67 76 52 50 63 69
##END=
