##TITLE=Diethyl 2-(2-cyanoethyl)-malonate
##JCAMP-DX=4.24
##DATA TYPE=INFRARED SPECTRUM
##ORIGIN=Sadtler Research Labs Under US-EPA Contract
##OWNER=NIST Standard Reference Data Program
##CAS REGISTRY NO=17216-62-5
##MOLFORM=C 10 H 15 N O 4
##XUNITS=1/CM
##YUNITS=ABSORBANCE
##XFACTOR=1.0
##YFACTOR=0.000098297
##DELTAX=4.0
##FIRSTX=450.0
##LASTX=3966.0
##FIRSTY=0.000000
##MAXX=3966
##MINX=450
##MAXY=0.98297
##MINY=0
##NPOINTS=880
##XYDATA=(X++(Y..Y))
450.0 0 95 156 145 97 124 118 94 121 48
490.0 58 58 40 47 40 27 28 27 45 32
530.0 46 40 61 54 97 100 114 120 138 110
570.0 116 106 81 96 100 117 121 116 108 100
610.0 98 73 65 48 56 44 37 35 49 54
650.0 48 55 58 56 80 89 91 95 100 104
690.0 107 109 109 100 108 90 84 90 86 89
730.0 92 91 95 92 96 104 110 132 159 165
770.0 187 201 225 225 225 217 209 197 186 172
810.0 165 168 168 162 165 169 178 185 215 257
850.0 322 406 507 595 634 604 510 400 294 234
890.0 191 172 166 164 153 162 170 188 203 213
930.0 210 191 183 179 178 181 194 197 208 206
970.0 201 197 207 219 245 286 349 426 523 656
1010.0 850 1112 1436 1747 1987 2137 2243 2368 2580 2840
1050.0 2959 2777 2342 1825 1441 1204 1118 1130 1212 1352
1090.0 1531 1736 1879 1887 1755 1564 1421 1355 1386 1518
1130.0 1783 2227 2876 3726 4719 5633 6302 6539 6422 6108
1170.0 5802 5531 5301 5073 4807 4564 4369 4279 4224 4203
1210.0 4176 4140 4084 4085 4173 4309 4496 4756 5039 5174
1250.0 5078 4766 4390 4007 3645 3302 3004 2783 2629 2549
1290.0 2530 2563 2627 2733 2875 3021 3120 3083 2878 2501
1330.0 2122 1871 1791 1770 1692 1517 1292 1127 1129 1425
1370.0 1876 2129 1978 1516 1101 884 784 721 669 614
1410.0 555 514 480 478 493 565 694 864 1010 1086
1450.0 1115 1077 972 878 854 868 833 747 613 472
1490.0 357 284 227 192 169 151 137 119 109 104
1530.0 100 95 91 82 81 86 84 72 78 78
1570.0 73 77 77 73 73 74 77 78 79 81
1610.0 82 80 78 80 78 81 87 81 86 84
1650.0 86 91 105 114 125 135 148 178 190 221
1690.0 258 306 350 425 515 623 745 872 1059 1306
1730.0 1739 2405 3552 5199 7351 9114 10000 9944 9557 8597
1770.0 6816 4785 3136 2126 1502 1111 851 687 560 478
1810.0 404 349 300 261 229 195 174 157 141 121
1850.0 115 108 102 94 91 86 89 94 90 92
1890.0 88 88 84 81 77 69 67 61 58 58
1930.0 57 53 53 46 51 51 48 46 48 46
1970.0 44 44 44 45 43 44 45 48 48 51
2010.0 54 55 58 57 57 57 57 53 53 53
2050.0 52 51 49 49 48 51 49 51 51 51
2090.0 51 51 50 48 47 47 46 44 43 40
2130.0 37 36 35 34 35 30 30 31 29 27
2170.0 26 25 26 26 27 26 28 27 30 28
2210.0 29 30 29 31 32 37 40 49 59 84
2250.0 104 116 108 85 65 52 50 47 47 47
2290.0 50 56 63 73 77 85 86 84 88 88
2330.0 81 70 66 69 71 82 76 68 59 50
2370.0 51 50 62 64 49 38 38 40 38 39
2410.0 38 44 43 40 41 38 42 39 39 38
2450.0 37 35 38 37 37 40 38 35 35 36
2490.0 36 36 32 31 32 27 29 28 28 29
2530.0 31 33 31 29 32 30 34 32 29 28
2570.0 25 25 27 27 26 27 29 31 35 34
2610.0 35 36 36 33 37 34 29 30 28 29
2650.0 31 29 28 28 27 29 29 28 27 30
2690.0 31 31 35 32 34 35 35 36 38 40
2730.0 45 45 47 48 50 51 52 52 55 60
2770.0 63 67 72 72 77 73 73 76 81 83
2810.0 86 94 99 106 111 116 118 124 134 140
2850.0 155 177 197 222 250 279 314 376 442 497
2890.0 513 498 490 513 562 622 678 704 706 707
2930.0 757 881 1074 1319 1524 1570 1461 1313 1243 1300
2970.0 1432 1589 1819 2258 2766 2951 2640 2080 1650 1370
3010.0 1141 927 738 584 461 376 309 263 227 200
3050.0 178 158 145 135 126 118 110 107 101 96
3090.0 94 92 89 90 85 88 86 88 83 81
3130.0 87 82 80 82 74 72 69 71 66 70
3170.0 67 67 67 67 68 63 61 61 60 61
3210.0 58 58 58 55 52 52 48 46 49 51
3250.0 46 50 47 42 43 41 38 35 33 35
3290.0 36 38 41 34 36 38 37 35 37 38
3330.0 38 36 33 38 42 40 34 37 39 37
3370.0 37 40 40 40 37 41 40 34 40 42
3410.0 42 38 38 37 36 38 39 38 42 41
3450.0 42 43 48 53 60 62 62 80 93 99
3490.0 109 107 110 102 86 76 66 62 57 48
3530.0 48 50 41 32 36 32 31 25 32 35
3570.0 35 38 38 44 46 41 44 35 34 34
3610.0 39 34 37 37 44 42 46 40 41 41
3650.0 43 47 50 40 29 38 40 50 49 52
3690.0 51 49 41 43 45 42 37 46 44 44
3730.0 44 41 47 38 48 46 39 34 36 44
3770.0 37 43 42 43 42 50 41 33 36 49
3810.0 32 39 43 41 35 44 39 48 40 27
3850.0 43 45 34 36 32 37 47 35 43 53
3890.0 32 33 38 40 33 38 40 41 46 34
3930.0 36 48 38 45 38 39 42 42 36 45
##END=
