##TITLE=Pyridazine, 3-chloro-6-methoxy-
##JCAMP-DX=4.24
##DATA TYPE=INFRARED SPECTRUM
##ORIGIN=Sadtler Research Labs Under US-EPA Contract
##OWNER=NIST Standard Reference Data Program
##CAS REGISTRY NO=1722-10-7
##MOLFORM=C 5 H 5 Cl N 2 O
##XUNITS=1/CM
##YUNITS=ABSORBANCE
##XFACTOR=1.0
##YFACTOR=0.000157458
##DELTAX=4.0
##FIRSTX=450.0
##LASTX=3966.0
##FIRSTY=0.002677
##MAXX=3966
##MINX=450
##MAXY=1.57458
##MINY=0
##NPOINTS=880
##XYDATA=(X++(Y..Y))
450.0 17 58 72 20 34 78 23 60 56 49
490.0 23 56 48 62 50 61 73 51 58 41
530.0 36 43 59 82 116 144 130 131 67 37
570.0 10 29 20 12 21 19 24 12 45 48
610.0 70 60 127 113 114 117 105 91 75 121
650.0 154 278 391 644 777 1016 1051 904 734 483
690.0 219 161 100 97 51 63 40 26 30 32
730.0 42 20 38 30 55 38 50 63 77 75
770.0 72 74 54 65 60 81 93 117 140 180
810.0 231 314 433 554 681 808 972 901 732 623
850.0 503 368 245 170 114 91 74 73 63 57
890.0 52 40 37 39 39 37 44 37 43 40
930.0 48 54 49 49 58 65 63 75 82 99
970.0 118 149 188 244 336 469 677 999 1479 2036
1010.0 2491 2588 2477 2075 1333 763 460 306 212 163
1050.0 133 123 116 113 131 155 181 189 186 168
1090.0 139 125 129 146 165 184 206 260 387 778
1130.0 1654 2585 2894 3114 2639 1539 792 537 545 678
1170.0 820 856 892 827 639 522 461 391 300 208
1210.0 147 129 116 121 120 128 133 149 170 203
1250.0 260 352 499 671 829 969 1150 1300 1539 1948
1290.0 2407 2569 2412 2195 1688 1380 1554 1764 1799 1706
1330.0 1334 795 483 364 316 274 250 228 233 294
1370.0 428 709 1105 1527 2288 4357 7393 10000 9266 9176
1410.0 5851 2230 803 493 389 385 400 516 788 1134
1450.0 1797 2856 4512 5085 5087 4589 2700 1467 1057 754
1490.0 497 368 301 260 207 165 165 151 137 191
1530.0 213 267 279 257 246 234 178 106 139 181
1570.0 249 384 652 995 1218 1236 1120 838 467 259
1610.0 175 146 109 111 81 94 62 51 67 60
1650.0 40 44 84 94 102 96 86 113 86 82
1690.0 107 132 111 141 182 227 230 220 255 249
1730.0 207 148 148 122 90 63 72 57 38 38
1770.0 20 15 34 30 40 38 36 41 30 42
1810.0 34 29 38 37 36 30 38 40 24 12
1850.0 22 30 25 22 13 0 15 18 17 14
1890.0 11 11 16 20 22 27 32 37 41 60
1930.0 69 72 80 76 73 72 65 60 59 55
1970.0 56 54 50 47 45 38 43 50 55 59
2010.0 65 65 60 59 53 42 33 24 20 19
2050.0 21 20 22 22 22 30 33 34 39 40
2090.0 39 41 41 41 41 39 34 35 37 40
2130.0 41 40 36 30 26 24 22 23 22 21
2170.0 20 17 18 16 19 21 26 32 38 40
2210.0 38 36 29 23 17 15 16 12 13 12
2250.0 12 14 19 25 29 31 33 31 25 21
2290.0 22 22 23 25 22 22 22 18 22 21
2330.0 18 18 23 22 36 41 33 30 24 20
2370.0 21 20 23 26 20 16 14 13 13 8
2410.0 4 3 1 0 0 0 0 1 3 4
2450.0 4 8 10 13 13 16 14 13 11 6
2490.0 5 4 4 3 5 2 7 7 10 12
2530.0 15 19 20 21 21 23 27 31 36 43
2570.0 49 54 56 56 55 54 53 51 50 50
2610.0 52 51 47 40 36 32 29 30 30 30
2650.0 26 23 20 18 18 17 18 17 17 17
2690.0 17 17 20 21 24 30 34 38 37 36
2730.0 34 31 25 23 19 19 18 19 19 16
2770.0 15 14 15 15 20 21 26 29 32 32
2810.0 30 30 34 39 45 52 60 71 86 99
2850.0 106 106 104 103 109 131 170 222 257 265
2890.0 267 242 218 213 209 205 187 153 132 117
2930.0 113 114 130 160 217 331 547 805 858 850
2970.0 809 554 370 320 309 315 318 340 328 293
3010.0 288 286 309 359 383 353 323 240 148 108
3050.0 86 76 66 67 67 70 73 77 71 66
3090.0 59 52 48 44 42 39 38 32 34 33
3130.0 31 30 26 27 24 23 19 19 15 20
3170.0 16 17 16 13 14 13 13 13 14 13
3210.0 12 11 12 13 12 11 8 10 7 8
3250.0 7 8 8 10 8 10 11 8 8 6
3290.0 7 10 10 8 7 6 8 11 7 6
3330.0 8 11 13 12 12 11 6 8 8 8
3370.0 8 10 12 7 8 10 6 10 14 12
3410.0 16 18 19 26 31 37 37 36 41 38
3450.0 31 27 21 17 15 12 11 8 8 11
3490.0 7 7 8 8 5 8 8 6 6 6
3530.0 8 11 7 8 10 6 6 6 8 6
3570.0 5 7 11 8 6 7 7 8 7 6
3610.0 8 6 2 5 8 5 12 7 7 2
3650.0 1 6 11 10 1 3 3 6 11 11
3690.0 7 10 10 8 15 10 10 10 12 8
3730.0 4 10 8 4 8 6 2 6 6 14
3770.0 13 11 1 5 4 11 6 2 4 1
3810.0 4 8 3 6 10 11 10 8 12 7
3850.0 7 4 4 10 6 5 5 11 14 10
3890.0 12 12 15 7 13 10 7 7 13 6
3930.0 15 14 16 11 8 20 17 18 17 8
##END=
