##TITLE=1-Oxa-6-thiacyclopentadecan-15-one
##JCAMP-DX=4.24
##DATA TYPE=INFRARED SPECTRUM
##ORIGIN=Sadtler Research Labs Under US-EPA Contract
##OWNER=NIST Standard Reference Data Program
##CAS REGISTRY NO=1725-16-2
##MOLFORM=C 13 H 24 O 2 S
##XUNITS=1/CM
##YUNITS=ABSORBANCE
##XFACTOR=1.0
##YFACTOR=0.000076849
##DELTAX=4.0
##FIRSTX=450.0
##LASTX=3966.0
##FIRSTY=0.006916
##MAXX=3966
##MINX=450
##MAXY=0.76849
##MINY=0
##NPOINTS=880
##XYDATA=(X++(Y..Y))
450.0 90 57 51 0 58 102 127 100 119 155
490.0 135 127 71 164 135 87 127 167 198 216
530.0 201 179 112 100 151 156 163 185 173 153
570.0 145 190 193 203 216 233 216 238 226 240
610.0 202 244 329 264 172 84 81 143 179 209
650.0 233 224 195 159 164 197 223 197 234 252
690.0 250 259 309 333 342 334 357 385 388 386
730.0 375 372 354 361 386 417 390 351 307 253
770.0 187 165 174 198 231 270 310 344 369 358
810.0 334 327 296 277 245 189 192 260 321 361
850.0 396 402 402 394 384 377 372 371 393 389
890.0 392 398 391 392 386 384 394 397 402 415
930.0 428 441 470 501 521 538 535 523 518 516
970.0 517 527 525 532 530 554 588 655 728 831
1010.0 930 994 1025 993 1010 1095 1219 1353 1447 1430
1050.0 1353 1285 1267 1212 1139 1242 1367 1454 1509 1506
1090.0 1450 1354 1249 1140 1100 1166 1294 1491 1768 2071
1130.0 2331 2519 2645 2771 2874 2995 3143 3353 3535 3599
1170.0 3520 3280 2983 2681 2456 2320 2281 2306 2355 2367
1210.0 2436 2707 2934 3108 3233 3342 3375 3353 3296 3247
1250.0 3179 3058 2921 2790 2670 2493 2287 2076 1891 1724
1290.0 1602 1510 1433 1360 1285 1196 1108 1044 1000 1001
1330.0 1071 1228 1396 1555 1643 1628 1534 1381 1208 1027
1370.0 891 803 790 835 857 805 682 571 495 459
1410.0 435 475 564 757 954 1134 1286 1386 1501 1572
1450.0 1692 1767 1809 1732 1522 1278 997 773 615 514
1490.0 462 447 418 376 358 360 370 386 370 332
1530.0 291 265 268 243 249 230 216 179 195 185
1570.0 192 179 199 207 256 240 225 216 238 237
1610.0 241 268 258 299 283 329 318 348 337 346
1650.0 276 281 229 211 203 201 203 252 254 278
1690.0 298 323 353 448 544 696 808 976 1161 1420
1730.0 1647 2032 2661 3801 5931 8278 9445 7919 5221 3143
1770.0 1987 1464 1145 954 764 611 485 383 314 249
1810.0 217 173 156 129 119 93 89 84 73 65
1850.0 63 67 58 56 52 44 48 46 49 41
1890.0 45 44 44 43 45 46 41 47 42 46
1930.0 43 50 48 47 48 51 49 46 55 46
1970.0 51 46 53 51 47 51 49 52 52 55
2010.0 54 60 56 59 65 67 73 69 71 74
2050.0 76 71 73 74 72 81 77 75 67 66
2090.0 54 54 49 51 48 49 47 44 43 37
2130.0 37 36 36 30 29 30 31 33 33 32
2170.0 32 33 35 33 32 31 30 27 26 23
2210.0 24 21 25 23 23 21 17 21 20 20
2250.0 20 23 20 25 21 24 27 33 39 41
2290.0 48 57 69 75 85 94 84 79 86 83
2330.0 83 78 58 77 103 76 122 85 120 97
2370.0 91 77 70 58 39 19 8 9 6 6
2410.0 0 4 4 8 3 6 10 7 8 7
2450.0 9 5 8 3 2 7 4 8 7 12
2490.0 7 14 14 18 16 15 20 20 22 19
2530.0 21 22 21 22 20 19 21 20 17 24
2570.0 20 23 21 29 30 32 33 37 44 41
2610.0 45 46 50 53 56 57 62 68 70 80
2650.0 82 88 86 90 94 101 107 113 120 126
2690.0 128 126 126 122 111 105 106 101 104 105
2730.0 102 107 107 110 110 114 121 120 127 128
2770.0 131 139 150 158 172 190 204 222 236 257
2810.0 279 317 364 428 502 576 643 714 827 1033
2850.0 1399 2002 2792 3493 3810 3644 3161 2610 2158 1902
2890.0 1838 1932 2189 2630 3291 4206 5297 6391 7269 8043
2930.0 8887 9718 10000 9646 8908 8002 7105 6244 5435 4615
2970.0 3774 2998 2379 1910 1514 1161 871 665 525 429
3010.0 363 312 275 241 215 196 182 172 163 155
3050.0 151 148 136 130 125 119 114 109 101 99
3090.0 98 90 86 82 77 71 71 67 63 62
3130.0 56 58 50 53 47 52 46 50 49 48
3170.0 46 47 52 47 46 45 46 37 37 41
3210.0 42 48 46 39 32 37 35 31 29 29
3250.0 27 33 32 29 21 26 29 27 20 14
3290.0 16 27 22 19 19 23 18 16 11 14
3330.0 13 8 11 10 14 5 10 13 12 14
3370.0 18 11 5 13 9 8 9 15 13 5
3410.0 7 8 6 10 8 14 20 14 17 16
3450.0 13 18 28 37 39 37 39 52 66 70
3490.0 73 54 42 21 24 10 17 14 7 18
3530.0 12 12 9 2 14 0 8 21 8 32
3570.0 20 15 19 11 27 28 29 12 28 14
3610.0 38 28 18 28 8 50 31 19 33 24
3650.0 49 21 34 25 7 47 13 52 11 37
3690.0 8 28 13 28 21 18 27 26 23 27
3730.0 26 34 34 51 46 18 47 20 13 9
3770.0 5 9 18 17 7 17 13 8 27 27
3810.0 16 12 10 27 2 16 29 26 27 39
3850.0 17 42 30 15 27 32 17 16 38 31
3890.0 38 18 25 40 29 16 11 26 30 37
3930.0 39 36 30 24 28 35 27 31 42 31
##END=
