##TITLE=Hexane, 1,3,5-triphenyl-,
##JCAMP-DX=4.24
##DATA TYPE=INFRARED SPECTRUM
##ORIGIN=Sadtler Research Labs Under US-EPA Contract
##OWNER=NIST Standard Reference Data Program
##CAS REGISTRY NO=17293-57-1
##MOLFORM=C 24 H 26
##XUNITS=1/CM
##YUNITS=ABSORBANCE
##XFACTOR=1.0
##YFACTOR=0.000062369
##DELTAX=4.0
##FIRSTX=450.0
##LASTX=3966.0
##FIRSTY=0.004241
##MAXX=3966
##MINX=450
##MAXY=0.62369
##MINY=0
##NPOINTS=880
##XYDATA=(X++(Y..Y))
450.0 68 145 203 175 216 325 334 436 410 466
490.0 430 407 387 418 466 622 723 814 824 890
530.0 1005 1171 1403 1480 1446 1224 896 705 560 406
570.0 336 375 345 349 316 326 262 228 226 232
610.0 258 211 239 177 178 134 148 162 213 251
650.0 297 399 483 645 753 1055 1137 1384 1686 2250
690.0 3627 6763 10000 7973 4259 2436 1722 1479 1497 1645
730.0 1925 2324 2746 3025 3124 3189 3384 3751 3460 2313
770.0 1290 754 524 388 292 252 187 140 103 68
810.0 62 35 40 38 43 56 92 125 103 63
850.0 25 15 14 9 29 63 71 91 103 133
890.0 184 274 424 635 673 458 270 185 132 93
930.0 60 50 44 51 71 90 107 117 135 123
970.0 129 153 195 220 245 286 333 358 384 492
1010.0 566 633 775 1016 1386 1511 1007 545 391 343
1050.0 334 362 419 479 506 519 548 563 513 426
1090.0 338 271 230 240 251 222 187 120 50 9
1130.0 0 1 16 51 93 155 216 208 170 166
1170.0 175 202 255 293 239 181 157 145 133 109
1210.0 82 77 72 78 74 81 101 121 130 115
1250.0 97 91 106 130 149 174 193 216 236 245
1290.0 249 264 312 344 334 308 305 333 395 455
1330.0 463 451 489 540 593 636 664 659 678 701
1370.0 785 1004 1109 853 545 340 248 209 178 179
1410.0 180 214 264 314 381 510 704 1065 1514 2243
1450.0 3270 3363 2334 1473 991 733 677 741 1054 1763
1490.0 3031 3842 2704 1286 615 359 227 175 166 156
1530.0 163 210 214 190 130 95 87 108 128 145
1570.0 222 332 531 712 809 1028 1456 1916 1956 1382
1610.0 760 372 198 112 69 50 37 40 30 59
1650.0 61 122 101 122 119 116 73 61 45 51
1690.0 25 30 53 67 41 52 70 102 100 134
1730.0 171 237 237 234 200 168 137 118 110 103
1770.0 136 156 176 196 269 378 506 501 413 298
1810.0 244 201 160 107 93 74 70 80 104 141
1850.0 174 236 307 373 389 382 353 345 313 247
1890.0 182 134 112 102 97 110 122 166 210 279
1930.0 390 528 594 538 449 422 404 317 204 132
1970.0 107 96 101 101 90 78 68 62 66 59
2010.0 53 48 52 46 47 49 44 43 38 37
2050.0 36 35 37 34 41 37 38 42 39 35
2090.0 31 24 28 26 21 20 20 18 15 14
2130.0 16 16 16 12 14 17 15 21 19 19
2170.0 21 26 30 28 32 29 32 30 28 28
2210.0 25 22 21 21 19 18 19 23 24 22
2250.0 22 27 25 22 21 20 24 27 31 37
2290.0 43 49 60 67 80 98 120 92 78 74
2330.0 95 92 116 102 89 83 115 84 90 58
2370.0 53 46 46 52 35 24 20 22 25 24
2410.0 21 17 15 12 14 11 13 12 8 12
2450.0 12 14 14 21 18 13 15 23 24 25
2490.0 23 26 26 29 32 34 30 29 33 31
2530.0 37 35 39 46 45 47 43 47 44 46
2570.0 58 65 71 67 67 70 74 85 84 88
2610.0 76 72 70 82 90 100 101 91 85 84
2650.0 83 85 80 83 77 80 86 85 81 84
2690.0 81 85 88 88 90 95 100 103 107 108
2730.0 116 118 118 113 113 109 108 115 126 133
2770.0 147 164 176 190 207 214 227 245 267 291
2810.0 311 338 366 399 447 503 598 734 954 1233
2850.0 1548 1836 2039 2096 2077 2043 1980 1963 1930 1913
2890.0 1946 2040 2195 2426 2729 3138 3653 4253 4850 5318
2930.0 5439 5178 4685 4125 3579 3157 3030 3200 3482 3530
2970.0 3282 2670 1842 1303 1085 1032 1083 1239 1379 1493
3010.0 1699 2085 2738 3620 4426 4702 4287 3403 2544 2145
3050.0 2138 2384 2829 3304 3649 3850 3597 3078 2791 2461
3090.0 1963 1522 1254 1122 989 798 589 438 334 272
3130.0 230 205 189 171 173 171 175 171 162 148
3170.0 132 113 96 93 88 81 81 78 72 72
3210.0 60 59 55 51 48 47 42 43 39 33
3250.0 31 38 34 31 24 32 24 24 18 21
3290.0 21 18 19 19 9 11 16 19 11 17
3330.0 9 11 17 18 12 20 15 12 12 17
3370.0 19 23 21 15 23 22 20 22 22 25
3410.0 23 18 12 11 28 32 33 41 32 30
3450.0 31 26 31 33 34 30 26 33 37 32
3490.0 29 24 20 23 20 15 10 24 28 33
3530.0 18 14 22 19 23 11 31 9 20 14
3570.0 40 30 28 31 45 53 46 38 52 36
3610.0 49 52 54 69 47 74 49 70 84 82
3650.0 100 58 62 40 40 52 33 35 37 45
3690.0 51 38 30 49 50 40 36 37 27 34
3730.0 41 58 77 35 64 33 40 28 35 35
3770.0 56 49 39 40 28 28 50 46 38 59
3810.0 52 46 37 79 50 44 58 64 29 31
3850.0 60 71 69 55 51 71 39 33 58 74
3890.0 66 76 32 65 63 63 75 75 63 73
3930.0 78 44 51 66 49 49 70 74 62 74
##END=
