##TITLE=Butane, 1,3-diphenyl-, (+)
##JCAMP-DX=4.24
##DATA TYPE=INFRARED SPECTRUM
##ORIGIN=Sadtler Research Labs Under US-EPA Contract
##OWNER=NIST Standard Reference Data Program
##CAS REGISTRY NO=17293-53-7
##MOLFORM=C 16 H 18
##XUNITS=1/CM
##YUNITS=ABSORBANCE
##XFACTOR=1.0
##YFACTOR=0.000083780
##DELTAX=4.0
##FIRSTX=450.0
##LASTX=3966.0
##FIRSTY=0.014326
##MAXX=3966
##MINX=450
##MAXY=0.8378
##MINY=0
##NPOINTS=880
##XYDATA=(X++(Y..Y))
450.0 171 81 35 98 43 33 122 238 252 298
490.0 349 422 386 360 416 435 566 640 707 827
530.0 968 1169 1136 911 577 410 344 331 295 266
570.0 184 194 176 180 212 209 177 122 98 59
610.0 74 53 52 16 31 35 41 52 71 115
650.0 162 232 260 440 490 798 1031 1192 1657 2387
690.0 4393 7040 10000 8661 5667 3486 2584 2211 2161 2270
730.0 2424 2611 2746 3025 3241 3498 3717 3929 3393 2272
770.0 1311 836 626 510 429 356 295 237 169 127
810.0 105 85 66 73 66 47 49 44 49 39
850.0 27 16 34 42 56 56 67 92 111 139
890.0 163 194 268 388 477 455 349 250 172 134
930.0 114 95 98 87 88 78 87 102 106 116
970.0 120 133 142 151 154 181 220 271 318 403
1010.0 555 769 992 1313 1689 1773 1446 914 602 508
1050.0 487 501 526 520 509 516 541 555 566 527
1090.0 476 417 397 380 366 318 250 174 130 97
1130.0 85 80 83 90 95 116 130 130 135 159
1170.0 172 177 192 197 182 154 150 160 166 158
1210.0 139 115 123 129 146 179 192 201 177 159
1250.0 137 132 125 140 153 172 189 192 201 215
1290.0 247 285 329 360 356 355 344 380 416 432
1330.0 413 389 417 472 551 605 648 653 635 611
1370.0 675 867 1085 1089 890 588 383 289 227 209
1410.0 211 235 272 306 359 445 564 755 1162 1706
1450.0 2341 2667 2531 2044 1551 1117 914 835 1030 1569
1490.0 2586 3555 3552 2566 1367 711 484 391 338 293
1530.0 280 275 259 251 179 140 138 177 153 178
1570.0 221 302 408 571 755 1011 1347 1796 2095 2022
1610.0 1518 889 462 267 201 147 133 133 112 128
1650.0 159 168 153 178 170 155 138 115 114 124
1690.0 90 97 117 116 112 110 129 163 133 135
1730.0 160 187 179 160 142 112 55 29 11 5
1770.0 25 78 102 159 238 405 516 503 386 262
1810.0 210 176 136 103 90 89 86 92 120 142
1850.0 167 199 249 287 322 336 313 300 267 223
1890.0 166 125 94 86 85 88 107 133 177 233
1930.0 315 409 456 446 410 409 390 307 176 93
1970.0 56 48 45 45 40 35 26 18 20 21
2010.0 19 17 23 18 21 20 20 20 18 14
2050.0 16 17 14 17 17 13 13 13 16 15
2090.0 15 9 14 6 9 7 7 7 11 11
2130.0 9 10 6 11 11 8 9 7 8 10
2170.0 13 12 12 14 14 14 11 9 8 7
2210.0 13 11 13 12 13 10 10 15 14 14
2250.0 16 15 16 15 16 17 21 25 26 37
2290.0 43 50 50 51 70 95 90 84 72 57
2330.0 55 52 58 56 74 57 52 39 49 36
2370.0 49 53 56 55 51 38 34 27 25 31
2410.0 30 34 33 31 32 30 34 34 32 28
2450.0 28 32 30 31 34 31 28 28 31 34
2490.0 30 30 33 34 37 33 39 38 40 40
2530.0 39 40 44 51 51 50 54 55 58 57
2570.0 62 63 65 73 72 74 75 82 85 90
2610.0 88 82 78 79 82 87 88 88 86 81
2650.0 78 78 78 77 74 76 76 77 81 80
2690.0 79 80 75 76 77 75 80 76 85 93
2730.0 102 107 117 118 114 112 110 106 108 116
2770.0 123 136 148 160 178 187 202 211 222 239
2810.0 251 264 283 300 330 359 402 452 530 664
2850.0 890 1242 1692 2143 2405 2486 2531 2645 2736 2757
2890.0 2667 2497 2318 2249 2338 2601 3113 3896 4944 5900
2930.0 6538 6703 6601 6252 5537 4635 3928 4020 4847 5924
2970.0 6777 6454 4719 2686 1473 1025 874 899 1062 1270
3010.0 1463 1666 2123 3041 4427 5894 6585 5961 4477 3214
3050.0 2608 2489 2811 3618 4965 6138 6035 4911 3865 3373
3090.0 3002 2511 2023 1650 1445 1250 1020 754 533 363
3130.0 266 213 179 155 146 143 147 155 154 158
3170.0 145 128 106 94 91 86 86 76 73 68
3210.0 66 54 44 43 42 40 37 31 33 35
3250.0 31 38 29 33 36 32 32 34 32 31
3290.0 33 28 33 23 30 17 17 17 24 26
3330.0 24 13 10 25 20 19 23 18 15 17
3370.0 23 21 24 17 23 24 25 17 21 28
3410.0 31 30 21 27 27 33 41 33 29 33
3450.0 35 24 28 22 27 23 21 15 27 25
3490.0 34 32 38 25 33 32 24 29 30 20
3530.0 30 30 22 18 18 25 39 36 52 16
3570.0 16 19 21 35 8 18 10 42 20 29
3610.0 13 35 28 42 41 30 32 57 51 64
3650.0 83 75 77 60 74 54 76 53 49 53
3690.0 59 37 34 40 30 47 33 31 20 11
3730.0 20 11 14 40 0 41 21 24 30 32
3770.0 40 18 29 19 38 32 32 43 46 39
3810.0 42 37 49 62 51 50 52 49 49 39
3850.0 33 22 55 38 32 40 30 34 42 30
3890.0 32 27 36 16 38 41 45 39 27 36
3930.0 21 32 28 32 9 20 9 26 21 34
##END=
