##TITLE=Butane, 1,3-diphenyl-, (-)
##JCAMP-DX=4.24
##DATA TYPE=INFRARED SPECTRUM
##ORIGIN=Sadtler Research Labs Under US-EPA Contract
##OWNER=NIST Standard Reference Data Program
##CAS REGISTRY NO=17293-55-9
##MOLFORM=C 16 H 18
##XUNITS=1/CM
##YUNITS=ABSORBANCE
##XFACTOR=1.0
##YFACTOR=0.000076035
##DELTAX=4.0
##FIRSTX=450.0
##LASTX=3966.0
##FIRSTY=0.004182
##MAXX=3966
##MINX=450
##MAXY=0.76035
##MINY=0
##NPOINTS=880
##XYDATA=(X++(Y..Y))
450.0 55 36 109 116 138 176 149 163 208 330
490.0 369 405 380 403 450 452 573 638 685 801
530.0 971 1157 1086 857 613 406 338 313 281 238
570.0 186 177 182 202 225 200 192 129 104 62
610.0 51 29 27 20 15 13 32 41 47 102
650.0 123 217 288 437 503 798 1048 1220 1697 2457
690.0 4487 7225 10000 8613 5693 3535 2650 2260 2194 2303
730.0 2463 2651 2804 3094 3292 3572 3797 3966 3420 2306
770.0 1345 872 643 512 424 352 284 213 145 110
810.0 89 82 69 53 53 37 50 35 40 28
850.0 19 10 3 16 36 49 48 67 96 116
890.0 131 180 265 374 463 444 350 233 155 116
930.0 94 84 79 72 62 63 68 78 85 88
970.0 97 108 115 130 131 163 201 245 296 376
1010.0 526 737 966 1284 1644 1713 1372 833 507 406
1050.0 379 410 428 441 442 458 483 508 517 499
1090.0 457 398 387 389 371 321 256 187 129 80
1130.0 61 52 49 56 62 84 102 114 125 147
1170.0 173 188 202 211 201 163 149 169 179 171
1210.0 140 121 121 122 133 156 182 192 182 176
1250.0 175 191 205 224 240 236 220 209 207 221
1290.0 248 290 325 366 371 366 353 390 420 427
1330.0 398 378 409 476 548 605 651 670 650 622
1370.0 665 864 1062 1075 862 566 364 253 197 185
1410.0 190 199 260 289 338 412 546 764 1156 1697
1450.0 2326 2659 2551 2074 1549 1123 894 824 1003 1553
1490.0 2556 3533 3552 2560 1359 676 454 334 297 240
1530.0 252 239 237 210 166 133 126 156 160 174
1570.0 219 290 412 569 755 1029 1379 1841 2145 2085
1610.0 1574 924 485 270 204 149 140 124 110 115
1650.0 141 154 156 152 160 143 142 109 125 133
1690.0 140 173 237 262 273 288 319 340 305 304
1730.0 322 343 294 261 230 206 174 153 139 129
1770.0 154 164 180 222 301 436 546 522 406 276
1810.0 214 181 140 107 91 85 80 92 110 139
1850.0 163 198 243 283 312 318 308 291 261 211
1890.0 159 117 91 80 77 79 96 125 166 221
1930.0 310 399 450 438 407 406 390 301 175 87
1970.0 52 42 36 37 31 23 20 13 12 14
2010.0 9 10 12 9 10 15 13 12 10 7
2050.0 8 9 9 9 8 9 6 8 7 5
2090.0 6 3 4 3 5 3 4 6 3 3
2130.0 8 3 7 2 3 2 0 0 3 4
2170.0 4 6 6 10 7 10 6 6 3 5
2210.0 4 5 9 5 5 6 6 12 11 8
2250.0 11 13 16 12 14 14 13 17 25 23
2290.0 30 29 28 36 45 62 74 63 52 37
2330.0 41 50 54 61 67 59 45 38 29 31
2370.0 33 34 44 39 42 35 30 26 22 26
2410.0 26 26 29 27 29 31 30 30 27 26
2450.0 24 26 29 33 28 30 27 25 25 27
2490.0 34 29 33 29 29 32 34 32 32 34
2530.0 40 42 41 42 49 47 50 53 53 53
2570.0 54 56 65 71 66 70 76 79 81 85
2610.0 79 78 70 73 84 85 87 88 84 79
2650.0 77 77 78 76 77 77 78 79 84 87
2690.0 87 84 84 83 86 86 91 103 107 116
2730.0 123 129 137 134 127 121 114 107 111 113
2770.0 118 135 153 164 184 194 211 228 239 256
2810.0 267 280 292 313 324 345 387 429 498 614
2850.0 826 1159 1597 2032 2298 2380 2428 2539 2641 2655
2890.0 2565 2399 2225 2144 2209 2454 2932 3688 4723 5650
2930.0 6254 6426 6339 6030 5368 4508 3811 3925 4753 5858
2970.0 6744 6461 4750 2728 1496 1030 880 903 1058 1277
3010.0 1481 1687 2141 3061 4462 5963 6680 6085 4597 3301
3050.0 2672 2555 2869 3683 5056 6242 6172 5059 3976 3474
3090.0 3080 2594 2090 1718 1490 1298 1057 786 549 382
3130.0 281 213 179 159 149 149 144 159 162 160
3170.0 142 129 108 97 94 86 84 76 72 67
3210.0 62 57 53 44 37 41 40 36 35 31
3250.0 29 31 29 32 27 30 30 27 33 28
3290.0 27 17 18 16 19 14 11 18 9 13
3330.0 12 17 13 4 10 11 5 12 13 7
3370.0 9 11 17 12 23 23 14 12 18 10
3410.0 11 19 16 19 23 23 18 25 22 26
3450.0 18 8 10 11 18 19 21 21 15 13
3490.0 17 16 23 31 15 18 10 8 19 15
3530.0 14 13 3 10 21 2 15 7 16 11
3570.0 13 9 20 20 28 26 29 19 9 7
3610.0 13 25 27 23 29 34 28 31 43 41
3650.0 58 58 51 42 25 32 21 23 25 23
3690.0 19 36 32 27 32 38 15 30 18 17
3730.0 10 26 18 16 37 8 27 14 16 20
3770.0 0 6 8 18 13 20 13 30 22 35
3810.0 25 27 40 24 34 32 29 22 24 19
3850.0 9 36 40 24 32 12 30 31 24 26
3890.0 30 9 27 13 26 23 42 29 23 25
3930.0 43 35 11 17 30 29 22 39 29 22
##END=
