##TITLE=Methyl 2,3-dibromopropionate
##JCAMP-DX=4.24
##DATA TYPE=INFRARED SPECTRUM
##ORIGIN=Sadtler Research Labs Under US-EPA Contract
##OWNER=NIST Standard Reference Data Program
##CAS REGISTRY NO=1729-67-5
##MOLFORM=C 4 H 6 Br 2 O 2
##XUNITS=1/CM
##YUNITS=ABSORBANCE
##XFACTOR=1.0
##YFACTOR=0.000175516
##DELTAX=4.0
##FIRSTX=450.0
##LASTX=3966.0
##FIRSTY=0.012813
##MAXX=3966
##MINX=450
##MAXY=1.75516
##MINY=0
##NPOINTS=880
##XYDATA=(X++(Y..Y))
450.0 73 192 196 198 304 260 316 232 261 174
490.0 110 0 119 57 98 102 109 161 129 143
530.0 166 161 194 194 250 271 310 365 426 521
570.0 696 913 1133 1290 1246 984 693 531 453 491
610.0 573 721 844 901 891 718 620 611 602 519
650.0 343 269 237 251 295 401 400 376 307 219
690.0 185 148 113 100 128 121 88 138 100 90
730.0 81 113 119 112 111 95 122 128 123 103
770.0 91 78 120 138 132 148 170 158 153 150
810.0 144 165 188 270 440 643 809 735 572 402
850.0 246 162 105 127 95 123 123 151 177 215
890.0 264 274 269 241 198 169 127 107 100 110
930.0 105 127 145 144 121 123 133 162 209 301
970.0 448 675 930 1088 1090 937 665 522 526 611
1010.0 765 886 929 847 679 500 383 300 294 342
1050.0 452 629 806 910 887 754 577 464 393 341
1090.0 292 291 334 366 419 477 552 640 777 989
1130.0 1349 1884 2653 3693 4535 4912 4783 4168 3319 2636
1170.0 2177 1830 1588 1470 1475 1609 1914 2404 3112 3751
1210.0 4016 3826 3259 2676 2252 2012 2017 2386 3127 4101
1250.0 4721 4939 4607 4085 3868 3834 3838 3520 2845 2076
1290.0 1492 1165 990 899 863 856 873 910 1005 1132
1330.0 1262 1389 1488 1571 1746 2013 2300 2374 2134 1751
1370.0 1265 882 643 483 374 320 278 250 241 227
1410.0 259 300 354 492 652 987 1399 1792 2053 1977
1450.0 1484 966 644 528 496 421 364 306 249 227
1490.0 199 186 171 166 165 143 131 128 131 132
1530.0 127 116 118 114 123 117 123 125 122 119
1570.0 131 127 137 132 126 121 114 104 101 112
1610.0 91 109 116 103 92 66 67 68 69 73
1650.0 65 66 79 63 84 72 73 77 80 106
1690.0 109 131 138 154 171 188 241 330 402 526
1730.0 633 708 857 951 1239 1763 2711 4321 6222 8399
1770.0 10000 8132 5959 3484 1779 1080 742 586 542 485
1810.0 449 372 272 214 163 139 122 111 115 112
1850.0 105 96 79 63 51 52 60 54 60 53
1890.0 55 54 52 59 54 58 51 46 41 38
1930.0 36 34 33 39 40 47 54 53 59 60
1970.0 61 63 64 66 59 54 45 39 39 34
2010.0 37 39 38 45 47 53 58 61 63 62
2050.0 61 55 50 51 49 49 51 55 60 57
2090.0 59 56 51 51 50 48 45 42 40 36
2130.0 37 33 30 31 27 29 31 30 31 25
2170.0 25 30 26 30 30 30 27 21 15 11
2210.0 8 10 9 11 10 8 8 5 7 4
2250.0 4 6 7 10 10 15 18 19 24 25
2290.0 25 29 32 32 31 33 30 29 30 25
2330.0 21 23 20 20 34 27 34 29 32 29
2370.0 33 33 27 34 30 27 26 24 26 23
2410.0 26 28 28 26 24 22 25 18 19 19
2450.0 20 21 17 16 17 15 14 16 18 21
2490.0 25 29 27 26 24 21 21 14 13 14
2530.0 13 14 12 14 18 16 17 18 19 19
2570.0 18 21 22 23 25 28 33 35 37 39
2610.0 34 30 24 21 23 21 21 21 23 23
2650.0 21 25 24 22 22 19 21 23 20 19
2690.0 19 19 18 18 19 14 17 15 15 16
2730.0 14 12 14 12 16 18 16 16 16 14
2770.0 14 15 18 17 19 16 18 20 18 19
2810.0 20 26 28 31 34 38 49 66 96 151
2850.0 221 276 286 243 172 109 84 79 76 90
2890.0 100 117 144 165 184 196 203 208 201 194
2930.0 179 167 174 189 243 355 586 1060 1559 1682
2970.0 1560 1055 578 372 336 370 410 429 450 470
3010.0 495 477 405 332 298 300 318 338 333 299
3050.0 249 203 162 137 122 111 108 98 100 95
3090.0 89 86 85 83 83 78 76 71 69 66
3130.0 58 54 47 45 41 35 39 33 28 30
3170.0 30 31 25 25 27 25 29 29 25 25
3210.0 24 29 30 27 19 16 18 19 17 20
3250.0 20 18 18 19 16 19 19 14 15 16
3290.0 11 18 19 15 12 15 17 13 17 17
3330.0 17 18 13 11 13 14 14 17 9 13
3370.0 17 16 12 13 13 11 9 15 10 12
3410.0 13 11 10 15 14 12 11 13 10 11
3450.0 10 9 18 19 19 19 18 19 23 21
3490.0 30 28 35 38 48 68 86 105 110 97
3530.0 76 48 27 18 21 13 20 13 17 17
3570.0 24 34 30 23 26 23 15 17 12 14
3610.0 10 13 13 9 12 13 19 17 14 13
3650.0 4 15 10 15 22 15 25 15 18 13
3690.0 9 19 7 12 16 14 10 8 10 6
3730.0 18 10 17 20 15 22 8 23 12 5
3770.0 18 17 14 20 15 21 21 14 13 24
3810.0 23 26 23 8 13 14 15 6 13 25
3850.0 5 18 15 18 10 10 28 14 30 25
3890.0 31 19 25 21 18 23 14 35 10 16
3930.0 31 14 11 4 28 24 20 15 6 22
##END=
