##TITLE=Undecanoic acid, methyl ester
##JCAMP-DX=4.24
##DATA TYPE=INFRARED SPECTRUM
##ORIGIN=Sadtler Research Labs Under US-EPA Contract
##OWNER=NIST Standard Reference Data Program
##CAS REGISTRY NO=1731-86-8
##MOLFORM=C 12 H 24 O 2
##XUNITS=1/CM
##YUNITS=ABSORBANCE
##XFACTOR=1.0
##YFACTOR=0.000058740
##DELTAX=4.0
##FIRSTX=450.0
##LASTX=3966.0
##FIRSTY=0.001586
##MAXX=3966
##MINX=450
##MAXY=0.5874
##MINY=0
##NPOINTS=880
##XYDATA=(X++(Y..Y))
450.0 27 95 180 197 279 222 157 194 204 302
490.0 166 224 209 93 145 142 198 151 97 221
530.0 159 90 94 197 159 128 425 4 228 25
570.0 298 308 99 136 114 251 167 167 119 26
610.0 266 121 244 198 65 186 102 300 137 60
650.0 200 69 254 90 105 159 128 182 163 152
690.0 198 214 203 176 310 342 323 363 211 336
730.0 251 333 300 418 276 199 317 257 313 208
770.0 205 247 187 342 247 252 242 307 385 339
810.0 366 378 327 430 286 358 358 345 398 359
850.0 374 309 370 319 339 337 319 340 281 296
890.0 259 183 228 236 203 211 166 224 152 255
930.0 162 205 209 209 294 176 220 199 256 231
970.0 202 247 257 319 361 359 405 409 528 563
1010.0 615 726 703 762 644 636 581 536 595 524
1050.0 611 549 595 617 580 635 585 600 599 594
1090.0 636 662 735 815 947 1110 1162 1249 1157 1160
1130.0 1144 1182 1321 1448 1784 2067 2516 2850 3107 3322
1170.0 3364 3411 3303 3108 2972 2845 2909 2917 2848 2752
1210.0 2583 2545 2409 2398 2290 2288 2313 2307 2358 2287
1250.0 2282 2160 2050 1904 1711 1557 1400 1307 1222 1143
1290.0 1132 1078 1081 1071 1022 1059 1015 1065 1013 1015
1330.0 1015 1020 1144 1136 1226 1255 1299 1363 1309 1240
1370.0 1104 990 863 758 684 522 484 424 366 407
1410.0 350 429 483 531 635 814 1164 1568 1713 1475
1450.0 1312 1289 1385 1416 1372 1227 1058 771 628 493
1490.0 466 373 356 369 392 474 475 593 608 555
1530.0 493 380 338 295 271 253 224 287 225 228
1570.0 240 211 238 193 227 201 188 201 201 240
1610.0 196 259 245 252 249 210 228 193 177 194
1650.0 183 249 176 181 170 192 215 192 243 207
1690.0 220 279 290 367 367 466 538 630 689 814
1730.0 1071 1388 1739 2199 2808 3674 4716 5743 5975 5154
1770.0 4074 3073 2406 1800 1332 949 665 522 383 328
1810.0 257 223 198 173 198 165 173 159 158 175
1850.0 134 150 152 143 159 125 156 126 132 144
1890.0 128 146 122 157 113 134 136 127 145 115
1930.0 132 143 132 140 124 146 128 136 147 127
1970.0 162 128 156 136 143 148 134 161 143 160
2010.0 155 152 173 156 173 162 152 184 165 174
2050.0 165 164 171 148 177 139 166 149 149 148
2090.0 130 148 126 132 123 122 121 117 115 118
2130.0 114 116 101 116 106 112 118 96 124 102
2170.0 115 110 101 118 110 118 108 113 113 114
2210.0 120 101 111 103 103 121 94 103 110 121
2250.0 110 99 121 84 123 102 110 112 96 112
2290.0 73 95 61 38 42 8 11 15 0 21
2330.0 4 12 3 3 3 30 36 3 149 124
2370.0 182 157 129 127 120 121 104 88 100 82
2410.0 99 98 89 106 82 115 100 108 105 91
2450.0 107 94 117 99 106 113 101 118 102 99
2490.0 104 104 132 106 109 103 103 119 86 122
2530.0 90 122 118 101 126 97 124 107 110 113
2570.0 105 119 111 118 125 114 131 107 139 120
2610.0 122 131 113 147 122 134 113 131 138 133
2650.0 152 132 158 153 155 173 150 167 172 164
2690.0 180 153 174 143 160 161 130 169 134 166
2730.0 142 161 168 166 181 177 187 164 167 192
2770.0 192 199 213 219 271 267 314 311 345 367
2810.0 345 416 388 464 478 552 608 695 880 1103
2850.0 1519 2160 2985 3818 4092 3878 3344 2824 2552 2306
2890.0 2139 1948 2041 2240 2590 3114 3675 4619 5793 7518
2930.0 9204 10000 9700 8510 7232 6030 5194 5006 5054 5022
2970.0 4543 3720 2737 1954 1569 1282 1177 1067 971 891
3010.0 768 749 670 664 630 612 569 486 448 359
3050.0 329 324 272 271 236 231 243 193 236 180
3090.0 224 188 188 196 145 180 135 157 138 119
3130.0 139 108 131 114 110 116 84 132 88 106
3170.0 93 82 146 59 107 65 90 96 72 94
3210.0 76 88 57 66 88 57 95 73 59 88
3250.0 31 78 61 73 61 65 91 22 95 37
3290.0 45 65 49 85 41 79 56 57 61 52
3330.0 88 46 39 85 36 81 49 85 70 47
3370.0 96 47 94 44 66 75 62 68 46 66
3410.0 64 64 52 44 88 64 28 71 38 91
3450.0 50 68 57 41 110 40 82 57 84 84
3490.0 82 92 88 121 110 83 111 48 85 58
3530.0 70 83 39 83 58 84 73 36 55 51
3570.0 89 43 53 62 36 64 61 59 41 32
3610.0 77 48 63 21 54 81 29 79 3 57
3650.0 46 36 33 2 33 39 60 26 16 39
3690.0 7 9 16 3 13 3 11 5 7 3
3730.0 1 25 2 47 10 19 7 3 3 3
3770.0 3 3 3 3 3 3 3 3 4 3
3810.0 3 3 3 3 3 3 3 3 3 3
3850.0 3 3 3 3 3 3 3 3 3 3
3890.0 3 3 3 3 3 3 3 3 3 3
3930.0 3 3 3 3 3 3 3 3 3 3
##END=
