##TITLE=Nonanoic acid, methyl ester
##JCAMP-DX=4.24
##DATA TYPE=INFRARED SPECTRUM
##ORIGIN=Sadtler Research Labs Under US-EPA Contract
##OWNER=NIST Standard Reference Data Program
##CAS REGISTRY NO=1731-84-6
##MOLFORM=C 10 H 20 O 2
##XUNITS=1/CM
##YUNITS=ABSORBANCE
##XFACTOR=1.0
##YFACTOR=0.000072266
##DELTAX=4.0
##FIRSTX=450.0
##LASTX=3966.0
##FIRSTY=0.004336
##MAXX=3966
##MINX=450
##MAXY=0.72266
##MINY=0
##NPOINTS=880
##XYDATA=(X++(Y..Y))
450.0 60 119 79 124 110 108 149 120 119 127
490.0 50 20 78 72 51 1 69 93 63 92
530.0 76 137 99 91 78 78 150 185 190 261
570.0 149 224 218 172 124 321 266 232 344 304
610.0 314 257 275 239 228 283 228 248 233 253
650.0 262 277 260 174 189 258 219 269 264 279
690.0 206 251 281 279 300 333 386 398 447 428
730.0 373 381 310 316 168 395 316 304 289 333
770.0 356 332 298 330 343 286 303 350 339 289
810.0 320 295 383 389 374 389 395 423 479 469
850.0 465 474 429 514 504 457 491 504 433 402
890.0 377 339 332 340 354 345 283 257 237 246
930.0 205 234 267 239 203 203 291 266 303 324
970.0 282 344 366 458 498 461 553 598 716 790
1010.0 904 952 952 965 958 934 942 907 892 866
1050.0 851 876 834 794 794 725 753 763 835 882
1090.0 979 1102 1248 1498 1681 1818 1915 1871 1737 1687
1130.0 1696 1775 1845 2113 2343 2831 3617 4181 4853 5307
1170.0 5426 5221 4927 4499 4200 4093 4251 4325 4261 4338
1210.0 4002 3776 3659 3517 3405 3285 3297 3338 3332 3518
1250.0 3357 3230 3160 2864 2534 2321 2089 1874 1725 1691
1290.0 1615 1536 1433 1491 1493 1440 1392 1379 1349 1315
1330.0 1299 1299 1372 1408 1522 1642 1769 1831 1835 1724
1370.0 1545 1392 1235 1099 954 769 655 552 521 492
1410.0 491 512 599 708 855 1137 1631 2218 2356 2090
1450.0 1745 1669 1773 1732 1683 1496 1325 1020 740 605
1490.0 528 400 379 342 399 331 306 289 338 273
1530.0 248 246 240 348 277 225 255 285 259 231
1570.0 210 173 249 189 188 164 186 156 188 169
1610.0 148 191 231 174 160 183 158 190 131 216
1650.0 185 279 179 184 199 209 204 236 241 306
1690.0 235 281 347 414 401 479 601 778 906 1144
1730.0 1488 1980 2541 3279 4222 5587 7142 8522 8996 8031
1770.0 6460 5053 3895 2980 2207 1571 1145 799 608 456
1810.0 355 299 235 204 190 186 142 136 126 157
1850.0 115 119 111 105 110 139 101 91 108 92
1890.0 102 102 101 92 93 78 84 106 83 89
1930.0 90 90 83 109 99 98 101 104 95 101
1970.0 108 101 107 102 106 109 112 111 106 118
2010.0 134 116 123 131 130 129 145 130 140 135
2050.0 134 131 128 125 125 111 112 111 104 103
2090.0 88 97 85 81 78 65 74 70 66 65
2130.0 64 56 56 56 63 52 56 55 54 54
2170.0 53 48 53 53 46 52 45 44 43 41
2210.0 45 35 36 35 40 36 33 27 32 33
2250.0 39 37 32 33 42 37 37 36 36 36
2290.0 34 42 55 49 42 56 68 75 87 97
2330.0 108 101 105 115 128 100 121 160 211 146
2370.0 143 94 73 57 40 32 33 32 31 25
2410.0 25 23 15 24 25 27 13 22 21 20
2450.0 19 20 12 13 18 12 12 10 7 16
2490.0 15 14 11 12 10 24 17 24 18 18
2530.0 13 17 13 23 18 23 21 23 25 32
2570.0 32 39 40 41 44 48 41 49 50 51
2610.0 55 54 54 61 67 61 60 74 68 68
2650.0 71 82 82 82 88 95 89 104 104 105
2690.0 104 102 91 92 89 85 78 82 89 90
2730.0 84 90 103 114 116 115 115 114 115 113
2770.0 115 119 120 125 147 162 189 202 210 239
2810.0 258 281 311 354 418 479 558 686 859 1141
2850.0 1577 2153 2877 3575 4024 4069 3761 3381 3084 2830
2890.0 2553 2317 2282 2458 2813 3327 4004 4920 6143 7598
2930.0 8994 9898 10000 9368 8382 7359 6670 6675 6914 7017
2970.0 6532 5414 4034 2808 2081 1670 1453 1300 1214 1086
3010.0 971 864 799 768 727 706 629 548 470 416
3050.0 355 324 274 239 239 233 209 199 185 184
3090.0 177 169 166 158 131 138 131 122 118 116
3130.0 110 95 100 92 69 63 75 81 76 63
3170.0 54 75 66 63 59 63 67 59 65 56
3210.0 43 43 28 28 40 24 31 33 26 33
3250.0 29 22 27 23 16 15 29 9 16 11
3290.0 13 28 19 14 9 20 14 9 23 23
3330.0 24 23 22 17 29 36 15 15 23 24
3370.0 39 23 31 24 31 17 12 3 29 20
3410.0 26 22 34 27 23 26 25 17 32 30
3450.0 21 30 33 35 19 32 24 44 57 66
3490.0 74 74 95 97 87 85 76 59 64 52
3530.0 36 32 35 40 48 27 41 40 42 71
3570.0 134 159 181 192 147 102 69 42 62 49
3610.0 68 68 74 68 41 91 66 57 46 68
3650.0 104 69 77 62 53 70 85 93 65 50
3690.0 80 73 43 55 57 58 67 37 44 59
3730.0 68 81 102 66 103 95 86 58 57 51
3770.0 50 34 39 40 27 25 41 42 57 51
3810.0 46 30 65 51 28 40 51 74 58 52
3850.0 69 87 70 46 46 39 45 24 41 48
3890.0 45 46 40 66 43 18 33 38 26 11
3930.0 19 12 20 27 29 40 0 3 3 3
##END=
