##TITLE=Dodecanedioic acid, dimethyl ester
##JCAMP-DX=4.24
##DATA TYPE=INFRARED SPECTRUM
##ORIGIN=Sadtler Research Labs Under US-EPA Contract
##OWNER=NIST Standard Reference Data Program
##CAS REGISTRY NO=1731-79-9
##MOLFORM=C 14 H 26 O 4
##XUNITS=1/CM
##YUNITS=ABSORBANCE
##XFACTOR=1.0
##YFACTOR=0.000036322
##DELTAX=4.0
##FIRSTX=450.0
##LASTX=3966.0
##FIRSTY=0.000000
##MAXX=3966
##MINX=450
##MAXY=0.36322
##MINY=0
##NPOINTS=880
##XYDATA=(X++(Y..Y))
450.0 0 116 190 118 177 182 227 178 288 292
490.0 258 302 298 369 264 291 322 279 359 269
530.0 299 361 317 292 339 354 398 363 432 353
570.0 396 437 367 430 459 386 439 444 425 411
610.0 413 446 402 375 389 369 352 296 300 278
650.0 286 279 247 250 289 278 231 254 247 260
690.0 287 288 291 320 358 389 421 471 445 410
730.0 384 387 349 341 353 336 326 288 288 294
770.0 301 286 274 289 255 217 225 231 230 268
810.0 282 260 249 262 243 230 222 226 213 231
850.0 241 230 223 214 235 257 244 237 253 248
890.0 256 250 239 245 239 264 261 245 235 241
930.0 234 214 219 196 201 198 197 171 182 192
970.0 187 186 175 205 193 206 218 224 222 220
1010.0 222 201 191 189 192 203 243 264 304 332
1050.0 362 395 404 399 407 458 498 527 553 607
1090.0 658 710 742 775 778 792 786 779 768 768
1130.0 784 787 783 752 745 732 715 710 685 674
1170.0 666 654 628 612 585 559 552 589 635 627
1210.0 599 584 583 582 574 583 584 575 582 584
1250.0 594 614 668 672 612 575 587 584 576 552
1290.0 537 528 499 497 483 465 430 412 409 411
1330.0 399 428 455 492 534 562 577 566 589 596
1370.0 581 580 611 612 590 591 589 602 624 640
1410.0 609 578 567 554 570 587 640 703 796 882
1450.0 995 1136 1276 1291 1133 819 508 351 266 237
1490.0 202 191 174 153 167 160 143 147 147 138
1530.0 135 139 156 144 152 145 159 159 174 151
1570.0 167 163 176 164 181 175 177 178 188 199
1610.0 186 207 198 219 212 225 218 254 245 275
1650.0 263 332 319 332 367 381 428 477 528 610
1690.0 690 813 982 1228 1526 1939 2335 2509 2324 1940
1730.0 1621 1407 1304 1263 1277 1310 1347 1388 1417 1372
1770.0 1277 1164 1059 942 791 652 545 465 406 340
1810.0 289 250 217 199 192 165 152 147 157 144
1850.0 143 142 136 131 140 139 126 126 134 130
1890.0 129 132 129 130 132 131 134 134 125 126
1930.0 123 132 134 131 129 134 138 134 135 130
1970.0 137 134 140 138 135 134 130 147 145 140
2010.0 139 148 144 139 144 149 143 140 145 143
2050.0 138 145 146 152 141 147 148 148 142 146
2090.0 142 149 145 146 149 159 147 145 148 150
2130.0 151 152 155 154 148 155 157 160 162 160
2170.0 158 167 170 166 174 164 174 168 168 163
2210.0 169 162 171 162 166 168 164 159 166 164
2250.0 165 170 171 172 176 172 180 180 182 188
2290.0 196 204 224 230 230 252 237 212 216 193
2330.0 208 178 186 208 214 240 224 215 228 185
2370.0 213 183 198 222 203 179 174 176 167 181
2410.0 170 162 163 150 146 152 144 147 141 144
2450.0 131 130 134 131 131 128 135 124 119 114
2490.0 112 114 118 116 119 122 120 121 120 117
2530.0 123 126 120 128 122 118 121 120 124 117
2570.0 116 120 118 120 116 122 121 121 126 121
2610.0 125 125 124 120 127 133 133 141 144 148
2650.0 152 158 158 159 165 167 160 158 157 161
2690.0 155 149 140 147 134 139 144 145 148 146
2730.0 146 150 149 155 168 176 177 179 197 202
2770.0 217 229 248 262 294 318 347 380 426 474
2810.0 530 581 651 742 854 989 1180 1472 1946 2750
2850.0 3909 4911 5020 4391 3590 2949 2542 2289 2214 2282
2890.0 2496 2842 3269 3782 4400 5135 6174 7522 9011 9999
2930.0 10000 9008 7370 5685 4299 3347 2745 2373 2077 1738
2970.0 1407 1097 859 675 549 457 380 322 272 245
3010.0 227 205 183 171 171 166 150 152 137 140
3050.0 144 139 142 132 139 129 128 142 141 132
3090.0 129 135 131 138 143 134 141 153 139 138
3130.0 149 145 150 141 150 145 138 150 134 147
3170.0 153 150 155 153 142 145 151 152 140 143
3210.0 148 139 140 140 143 140 144 135 143 137
3250.0 132 140 145 133 135 142 134 143 137 135
3290.0 126 126 113 138 141 132 130 144 126 138
3330.0 136 124 127 132 130 140 135 138 137 133
3370.0 146 131 129 134 124 129 121 129 135 129
3410.0 137 131 121 128 123 124 130 131 124 131
3450.0 128 135 124 136 153 153 157 157 165 156
3490.0 163 179 187 197 183 169 206 217 203 230
3530.0 255 303 346 351 348 310 261 232 224 250
3570.0 297 363 383 302 210 179 178 176 152 159
3610.0 146 153 154 155 151 172 145 141 128 159
3650.0 147 130 158 137 156 173 141 173 147 177
3690.0 178 152 126 155 142 147 141 150 156 148
3730.0 128 130 133 170 121 150 143 133 168 130
3770.0 122 151 145 182 118 136 167 187 171 155
3810.0 133 138 149 154 159 144 160 148 152 180
3850.0 175 206 194 171 166 168 165 170 189 150
3890.0 151 173 200 196 190 160 166 180 146 158
3930.0 151 197 135 173 178 175 198 201 185 177
##END=
