##TITLE=Nonanedioic acid, dimethyl ester
##JCAMP-DX=4.24
##DATA TYPE=INFRARED SPECTRUM
##ORIGIN=Sadtler Research Labs Under US-EPA Contract
##OWNER=NIST Standard Reference Data Program
##CAS REGISTRY NO=1732-10-1
##MOLFORM=C 11 H 20 O 4
##XUNITS=1/CM
##YUNITS=ABSORBANCE
##XFACTOR=1.0
##YFACTOR=0.000050259
##DELTAX=4.0
##FIRSTX=450.0
##LASTX=3966.0
##FIRSTY=0.008695
##MAXX=3966
##MINX=450
##MAXY=0.50259
##MINY=0
##NPOINTS=880
##XYDATA=(X++(Y..Y))
450.0 173 28 914 572 277 290 537 823 349 373
490.0 375 612 1046 281 762 579 407 485 379 709
530.0 359 315 575 514 744 951 929 1240 1399 1499
570.0 1332 826 711 393 395 609 611 751 727 903
610.0 1355 1643 1255 882 729 491 384 411 401 364
650.0 339 386 271 292 440 567 417 550 485 1081
690.0 1508 1116 898 588 423 404 429 460 671 1158
730.0 1100 584 448 660 675 1055 1260 733 502 468
770.0 425 253 349 309 2 230 508 276 402 343
810.0 498 632 462 412 349 402 511 561 615 595
850.0 408 473 462 489 236 463 569 465 457 430
890.0 391 450 484 374 353 374 374 333 339 297
930.0 269 309 298 274 298 323 299 274 340 431
970.0 438 496 591 639 792 890 1062 1345 1194 1254
1010.0 1311 1625 1774 1567 1353 1391 1395 1317 1144 1056
1050.0 932 862 885 948 1043 1076 1083 1196 1246 1434
1090.0 1482 1661 1786 1776 1846 2189 2155 2393 2905 3140
1130.0 3308 3334 3482 3740 4179 4722 5219 5744 6350 6755
1170.0 7297 7587 7678 8100 8574 8638 9104 9198 9035 8770
1210.0 8191 7870 7704 6952 6534 5993 5608 5279 5020 4810
1250.0 4508 4072 3740 3291 2929 2575 2343 2162 2008 1892
1290.0 1776 1673 1639 1604 1559 1514 1467 1461 1464 1358
1330.0 1345 1363 1413 1504 1545 1639 1761 1845 1813 1724
1370.0 1542 1320 1129 919 775 647 563 523 481 459
1410.0 430 504 625 782 913 1263 1800 2444 2882 2470
1450.0 1608 1469 1410 1343 1162 1046 895 676 546 433
1490.0 379 307 306 289 329 372 208 315 302 267
1530.0 235 208 341 328 292 193 228 329 296 208
1570.0 222 235 238 177 154 118 194 117 176 164
1610.0 112 178 126 177 107 92 97 105 49 57
1650.0 157 163 187 83 199 185 247 229 305 354
1690.0 368 385 521 663 670 756 928 1230 1426 1741
1730.0 2273 2814 3638 4286 5401 6810 8352 9833 10000 8849
1770.0 7371 6015 4970 3962 2972 2226 1604 1212 935 690
1810.0 556 448 344 311 262 268 198 192 177 201
1850.0 161 144 158 138 165 170 154 138 148 138
1890.0 148 146 126 123 120 138 110 157 134 138
1930.0 137 135 145 157 169 156 180 173 174 168
1970.0 172 175 167 169 167 167 181 172 167 165
2010.0 171 184 179 186 182 191 189 191 196 185
2050.0 191 186 188 191 187 183 171 173 167 162
2090.0 158 151 140 140 129 129 129 127 125 115
2130.0 118 111 118 128 122 133 127 119 127 132
2170.0 133 137 130 138 135 130 132 126 129 134
2210.0 143 127 133 138 157 139 153 145 144 134
2250.0 136 136 138 134 133 132 129 118 119 109
2290.0 109 83 81 69 62 51 28 42 42 54
2330.0 80 88 143 153 157 97 146 110 321 378
2370.0 364 336 270 232 195 169 155 154 150 158
2410.0 147 141 147 141 139 135 133 133 135 124
2450.0 125 130 126 133 132 137 138 132 140 145
2490.0 148 146 149 152 154 152 149 148 145 141
2530.0 150 149 141 142 147 149 162 153 149 162
2570.0 167 182 173 190 180 185 205 191 199 203
2610.0 189 205 196 195 204 196 199 197 196 193
2650.0 203 203 200 213 215 210 219 224 224 227
2690.0 237 247 244 243 236 227 241 235 232 237
2730.0 234 227 235 227 216 232 233 229 232 236
2770.0 232 252 249 260 273 260 274 297 295 302
2810.0 322 331 342 362 392 435 479 545 637 786
2850.0 977 1173 1387 1645 1861 1907 1807 1579 1369 1215
2890.0 1105 1087 1154 1287 1464 1727 2057 2445 2859 3293
2930.0 3759 4223 4574 4825 4874 4732 4598 4548 4378 3724
2970.0 2868 2246 1862 1615 1447 1334 1267 1232 1197 1136
3010.0 1065 1032 984 942 946 911 855 786 739 714
3050.0 682 677 618 560 504 475 450 429 419 411
3090.0 375 374 371 356 353 314 315 323 295 293
3130.0 267 268 276 261 245 251 243 229 207 212
3170.0 204 204 193 194 199 178 168 167 183 164
3210.0 165 156 161 169 165 140 138 157 138 151
3250.0 135 130 126 110 105 76 88 94 91 74
3290.0 81 88 83 74 67 66 89 87 92 97
3330.0 72 67 88 80 86 86 58 80 71 70
3370.0 39 74 61 41 50 45 46 50 27 37
3410.0 53 36 31 57 71 69 62 60 65 72
3450.0 65 68 70 62 71 89 59 65 93 99
3490.0 96 108 133 122 107 85 103 87 96 62
3530.0 78 89 71 80 79 80 116 90 147 201
3570.0 310 443 493 405 245 210 116 94 58 96
3610.0 82 78 120 79 99 113 110 78 91 118
3650.0 153 141 172 63 133 134 176 142 116 127
3690.0 101 139 86 85 92 111 97 96 81 77
3730.0 95 134 148 148 227 152 158 115 152 148
3770.0 120 144 104 98 103 104 98 93 156 67
3810.0 164 14 110 112 144 88 72 101 104 97
3850.0 124 209 99 149 150 138 155 179 148 152
3890.0 152 141 114 118 85 126 111 163 65 32
3930.0 63 0 52 71 43 62 94 100 141 87
##END=
