##TITLE=Acetanilide, 2-chloro-4'-nitro-
##JCAMP-DX=4.24
##DATA TYPE=INFRARED SPECTRUM
##ORIGIN=Sadtler Research Labs Under US-EPA Contract
##OWNER=NIST Standard Reference Data Program
##CAS REGISTRY NO=17329-87-2
##MOLFORM=C 8 H 7 Cl N 2 O 3
##XUNITS=1/CM
##YUNITS=ABSORBANCE
##XFACTOR=1.0
##YFACTOR=0.000032678
##DELTAX=4.0
##FIRSTX=450.0
##LASTX=3966.0
##FIRSTY=0.001830
##MAXX=3966
##MINX=450
##MAXY=0.32678
##MINY=0
##NPOINTS=880
##XYDATA=(X++(Y..Y))
450.0 56 543 409 63 262 63 244 60 313 111
490.0 396 767 578 637 254 320 321 516 389 397
530.0 592 565 427 399 400 600 692 370 573 1026
570.0 669 490 461 367 511 341 56 274 617 607
610.0 400 316 262 392 595 196 128 409 381 78
650.0 261 192 105 396 482 725 509 209 599 755
690.0 917 879 942 1178 1082 946 578 567 439 340
730.0 447 416 943 890 1007 1030 1041 581 591 933
770.0 763 1274 1001 978 654 525 546 440 331 331
810.0 448 612 649 604 495 878 1025 1275 1423 1625
850.0 2049 2008 1842 1682 1413 1070 752 498 366 232
890.0 225 220 229 212 166 205 126 123 351 191
930.0 204 191 226 246 101 284 334 217 269 141
970.0 202 256 308 274 253 261 340 156 391 350
1010.0 273 481 382 525 422 235 349 243 457 191
1050.0 196 398 378 441 524 453 446 607 544 567
1090.0 709 794 869 951 1290 1558 1566 1333 889 789
1130.0 777 668 669 626 613 611 679 719 721 803
1170.0 1194 1553 1755 1679 1362 1010 962 970 1047 1085
1210.0 1266 1395 1586 1697 1617 1679 1867 2269 2773 3066
1250.0 2716 2148 1841 1644 1403 1215 1045 953 1088 1209
1290.0 1445 2091 3002 3711 3536 2688 2123 2051 2523 2900
1330.0 3302 3850 5158 7017 8218 7710 5704 3689 2699 2001
1370.0 1686 1559 1257 1229 1062 1137 1268 1762 2407 2738
1410.0 2546 1711 1372 997 1181 1031 877 893 801 816
1450.0 802 949 880 976 1068 1300 1440 1608 1927 2529
1490.0 3233 3740 4771 5536 6149 7480 8558 9693 10000 9019
1530.0 7415 5721 5236 5225 6064 6407 5973 4670 2992 2386
1570.0 1827 1563 1661 1673 1992 2350 2859 3363 3536 3311
1610.0 2884 2429 1900 1478 1038 721 625 540 475 522
1650.0 422 369 517 535 588 578 689 742 914 892
1690.0 1100 1182 1299 1394 1723 2208 2700 3649 4209 4488
1730.0 4241 3306 2356 1591 1159 829 664 618 544 511
1770.0 438 395 398 378 369 300 297 239 285 211
1810.0 167 195 162 177 143 160 147 152 143 140
1850.0 149 138 160 157 133 157 119 154 149 166
1890.0 149 178 180 173 172 187 161 168 146 161
1930.0 144 133 134 113 116 123 108 115 104 122
1970.0 93 92 104 96 103 91 87 94 88 100
2010.0 84 94 98 86 94 81 90 89 91 89
2050.0 88 91 99 88 101 90 91 86 96 90
2090.0 92 81 87 79 87 84 84 87 84 89
2130.0 76 76 81 77 83 78 80 74 80 92
2170.0 79 89 80 84 84 85 81 83 69 70
2210.0 80 83 92 85 91 98 90 96 102 109
2250.0 112 151 182 202 241 254 252 245 225 202
2290.0 210 208 203 201 199 204 180 171 162 172
2330.0 138 117 153 91 204 167 220 142 183 173
2370.0 135 101 96 94 70 48 36 33 29 30
2410.0 29 38 29 38 48 35 37 42 48 47
2450.0 59 67 77 63 54 49 53 31 33 37
2490.0 35 22 27 17 8 16 18 28 30 9
2530.0 5 34 32 29 21 27 19 25 17 24
2570.0 33 38 33 26 21 27 22 14 18 21
2610.0 36 43 30 40 35 44 39 36 42 39
2650.0 48 43 31 37 52 45 35 70 46 38
2690.0 38 27 46 62 87 65 53 64 52 73
2730.0 63 64 52 57 46 63 86 39 56 46
2770.0 52 71 99 53 35 46 54 70 87 78
2810.0 47 34 53 91 54 51 37 49 58 78
2850.0 50 54 54 76 68 38 53 71 67 60
2890.0 65 56 29 58 62 62 37 28 45 37
2930.0 76 37 36 98 84 88 63 73 99 97
2970.0 90 82 93 85 42 23 66 63 26 10
3010.0 34 58 51 19 17 73 52 74 100 135
3050.0 86 80 74 71 78 93 122 160 166 129
3090.0 81 78 70 56 65 46 58 74 78 66
3130.0 61 48 59 37 43 21 20 14 6 23
3170.0 32 26 34 16 29 8 37 36 22 36
3210.0 43 45 36 45 18 51 38 37 47 45
3250.0 47 6 48 57 31 40 56 57 49 65
3290.0 64 52 62 50 50 87 67 70 58 72
3330.0 80 91 104 56 64 102 96 81 86 113
3370.0 119 85 99 80 96 131 143 143 197 279
3410.0 470 705 977 1293 1375 1208 873 555 327 205
3450.0 131 120 73 52 50 90 52 33 69 52
3490.0 65 63 84 93 99 65 86 83 66 115
3530.0 59 90 83 92 69 100 113 102 141 116
3570.0 156 105 154 114 140 99 166 139 137 145
3610.0 110 142 106 120 87 133 59 150 91 154
3650.0 87 87 90 96 171 69 137 0 127 88
3690.0 100 103 107 155 107 92 94 118 170 83
3730.0 162 94 72 198 1 180 3 186 97 79
3770.0 155 129 164 160 69 167 132 184 106 70
3810.0 106 128 115 107 121 177 76 97 103 228
3850.0 118 182 107 156 134 108 205 163 246 91
3890.0 152 166 203 190 103 202 268 165 119 212
3930.0 209 277 123 251 222 104 127 96 222 225
##END=
