##TITLE=1-Ethynylcyclopentanol
##JCAMP-DX=4.24
##DATA TYPE=INFRARED SPECTRUM
##ORIGIN=Sadtler Research Labs Under US-EPA Contract
##OWNER=NIST Standard Reference Data Program
##CAS REGISTRY NO=17356-19-3
##MOLFORM=C 7 H 10 O
##XUNITS=1/CM
##YUNITS=ABSORBANCE
##XFACTOR=1.0
##YFACTOR=0.000097510
##DELTAX=4.0
##FIRSTX=450.0
##LASTX=3966.0
##FIRSTY=0.097510
##MAXX=3966
##MINX=450
##MAXY=0.9751
##MINY=0
##NPOINTS=880
##XYDATA=(X++(Y..Y))
450.0 1000 1038 1022 947 907 878 890 863 795 756
490.0 672 654 580 649 697 806 854 937 892 898
530.0 765 725 613 621 601 620 517 549 569 601
570.0 547 552 467 536 437 449 395 487 617 973
610.0 1442 2170 2946 4008 5768 6514 5290 5750 5051 5277
650.0 5206 5773 3586 2908 2226 1131 808 478 284 179
690.0 132 110 104 100 88 94 111 82 87 69
730.0 84 81 59 64 64 24 94 60 119 91
770.0 154 121 169 133 204 180 259 210 247 258
810.0 307 286 308 304 341 281 301 277 303 292
850.0 257 296 290 331 347 406 421 516 570 613
890.0 616 630 645 672 658 664 620 607 560 538
930.0 550 633 697 810 835 829 809 790 772 795
970.0 944 1186 1573 2108 2692 3384 3991 4431 4507 4156
1010.0 3644 3051 2430 1986 1674 1591 1558 1628 1763 1954
1050.0 2150 2394 2583 2849 2958 2999 2885 2681 2449 2109
1090.0 1813 1552 1317 1106 962 806 737 642 639 600
1130.0 635 655 729 779 867 921 1048 1129 1237 1301
1170.0 1407 1426 1480 1488 1560 1634 1821 1993 2156 2320
1210.0 2370 2348 2194 2024 1855 1828 1942 2296 2681 2997
1250.0 2966 2824 2812 2553 2161 1980 1960 2038 2139 2190
1290.0 2251 2302 2389 2476 2487 2322 2235 2060 1870 1694
1330.0 1617 1629 1781 1962 2078 2185 2171 2052 1934 1660
1370.0 1376 1193 955 799 676 593 497 500 406 400
1410.0 366 381 401 434 502 618 712 864 913 993
1450.0 1008 958 992 775 717 619 659 540 492 431
1490.0 442 280 270 151 243 161 137 91 140 71
1530.0 59 81 68 110 69 42 50 91 70 33
1570.0 43 19 44 48 14 46 9 38 20 41
1610.0 26 61 68 38 31 19 41 52 31 42
1650.0 52 107 59 41 39 48 68 44 80 80
1690.0 80 33 101 111 56 43 62 92 41 55
1730.0 42 135 71 130 143 263 292 354 323 365
1770.0 392 369 312 280 150 90 93 56 57 31
1810.0 37 32 70 26 54 62 54 27 75 48
1850.0 56 22 56 32 56 51 52 42 65 31
1890.0 45 55 57 39 41 39 57 57 45 48
1930.0 45 53 38 63 18 33 32 70 37 51
1970.0 42 45 32 37 41 42 70 47 42 32
2010.0 52 46 62 41 62 48 62 44 50 36
2050.0 41 41 66 49 47 51 40 53 56 71
2090.0 52 94 91 107 91 144 118 149 108 115
2130.0 105 119 67 80 56 73 62 77 58 52
2170.0 73 64 84 63 75 66 81 68 99 58
2210.0 81 55 86 64 94 83 87 66 81 73
2250.0 89 88 71 97 71 80 65 80 69 84
2290.0 66 76 56 62 26 34 14 8 5 17
2330.0 7 20 10 2 16 3 3 3 12 8
2370.0 91 28 79 63 81 53 53 40 52 27
2410.0 38 48 68 47 44 58 28 50 34 77
2450.0 36 53 28 54 35 60 25 49 16 56
2490.0 39 46 33 45 25 49 34 50 59 57
2530.0 51 31 67 52 73 52 83 40 85 53
2570.0 64 47 69 58 88 74 74 72 73 55
2610.0 73 71 74 79 71 65 57 80 59 72
2650.0 67 63 69 86 62 75 77 78 72 82
2690.0 98 89 94 86 72 73 106 70 103 59
2730.0 85 55 75 67 91 71 95 99 97 94
2770.0 109 96 113 152 133 137 128 152 149 170
2810.0 146 173 182 206 194 236 241 322 366 457
2850.0 538 705 874 1080 1301 1631 2009 2388 2604 2759
2890.0 2770 2634 2457 2225 2083 2086 2174 2336 2529 2805
2930.0 3168 3596 4151 4739 5376 6027 6708 7442 8187 8952
2970.0 9626 10000 9819 9123 7653 6103 4534 3196 2216 1570
3010.0 1146 887 730 606 507 428 349 317 277 247
3050.0 224 174 209 158 164 138 135 112 115 78
3090.0 111 66 114 73 67 68 74 74 54 56
3130.0 71 62 56 80 54 80 60 79 66 77
3170.0 75 78 27 89 46 67 48 47 60 60
3210.0 35 56 28 55 59 56 69 61 55 62
3250.0 72 69 65 90 117 130 143 223 269 340
3290.0 482 732 1039 1248 1609 2069 3041 4284 4612 5170
3330.0 4866 4552 3761 2153 1067 603 409 307 272 194
3370.0 143 122 80 74 81 67 58 53 83 51
3410.0 72 30 46 34 79 19 56 51 57 38
3450.0 67 28 70 73 88 43 77 85 125 88
3490.0 89 55 107 99 95 83 78 66 65 102
3530.0 69 53 62 50 61 74 46 62 50 75
3570.0 73 44 47 46 36 87 42 88 103 93
3610.0 123 162 224 361 590 1022 1455 1843 2071 2141
3650.0 1907 1586 1115 682 379 248 142 140 58 52
3690.0 52 47 17 20 22 34 38 19 16 37
3730.0 27 61 84 66 111 66 109 60 59 39
3770.0 49 32 42 39 52 37 51 41 74 49
3810.0 51 3 47 32 21 9 7 3 3 3
3850.0 3 12 13 3 3 3 3 3 3 3
3890.0 3 3 3 3 3 3 3 3 3 3
3930.0 3 3 3 2 18 32 0 3 3 3
##END=
