##TITLE=Pyridine, 3-chloro-2,4,5,6-tetrafluoro-
##JCAMP-DX=4.24
##DATA TYPE=INFRARED SPECTRUM
##ORIGIN=Sadtler Research Labs Under US-EPA Contract
##OWNER=NIST Standard Reference Data Program
##CAS REGISTRY NO=1735-84-8
##MOLFORM=C 5 Cl F 4 N
##XUNITS=1/CM
##YUNITS=ABSORBANCE
##XFACTOR=1.0
##YFACTOR=0.000043976
##DELTAX=4.0
##FIRSTX=450.0
##LASTX=3966.0
##FIRSTY=0.011610
##MAXX=3966
##MINX=450
##MAXY=0.43976
##MINY=0
##NPOINTS=880
##XYDATA=(X++(Y..Y))
450.0 264 192 102 284 239 0 226 107 152 186
490.0 83 139 84 148 129 32 112 132 107 89
530.0 152 150 117 93 85 107 102 72 116 93
570.0 100 134 154 159 101 102 117 157 121 123
610.0 159 135 153 161 201 281 271 288 216 172
650.0 101 134 153 120 137 152 124 94 134 146
690.0 83 105 124 112 100 87 133 130 141 146
730.0 188 208 308 439 297 257 167 112 80 66
770.0 114 113 103 84 108 128 133 114 114 120
810.0 77 107 85 94 91 84 95 104 102 93
850.0 110 104 126 113 123 153 187 314 718 1399
890.0 2094 3024 3789 3385 2864 1740 605 247 218 199
930.0 197 164 191 208 246 241 268 255 221 194
970.0 140 133 111 128 111 134 128 151 144 170
1010.0 166 167 153 134 154 136 193 205 307 419
1050.0 832 1599 3141 4406 4226 4232 2837 1072 725 566
1090.0 640 692 874 1061 1073 971 633 247 106 110
1130.0 98 94 84 88 84 86 86 91 102 100
1170.0 119 109 113 107 112 94 104 104 113 116
1210.0 108 123 126 148 200 294 425 542 562 552
1250.0 445 330 315 339 404 391 357 267 189 136
1290.0 139 156 169 182 182 180 146 145 108 85
1330.0 87 85 94 85 114 121 164 197 289 355
1370.0 356 353 289 207 160 165 156 208 276 509
1410.0 898 1433 1835 1908 1737 1237 901 955 1940 4072
1450.0 6805 7822 7373 5243 2098 855 1021 1419 2424 4220
1490.0 6957 9394 10000 9482 6867 3778 2268 1435 829 484
1530.0 361 351 330 339 313 331 349 405 494 601
1570.0 731 759 716 594 479 408 475 627 882 1280
1610.0 1746 2323 2885 3257 3263 2623 1670 846 478 296
1650.0 239 197 148 119 105 94 82 84 85 81
1690.0 88 102 110 106 105 95 94 97 114 135
1730.0 167 200 200 176 140 94 66 65 59 63
1770.0 63 58 53 63 61 61 55 58 60 52
1810.0 54 53 54 54 66 58 57 49 48 50
1850.0 55 52 47 45 42 46 45 51 50 49
1890.0 52 47 47 51 50 44 47 42 36 42
1930.0 42 39 40 46 39 43 41 45 42 42
1970.0 42 41 39 40 41 36 41 35 35 40
2010.0 37 41 29 42 45 57 58 59 54 49
2050.0 50 44 37 44 42 47 57 64 72 69
2090.0 61 54 47 32 32 34 37 31 36 42
2130.0 42 45 38 50 44 47 49 52 51 46
2170.0 47 43 40 35 38 46 44 49 56 63
2210.0 59 51 45 39 34 29 30 25 21 25
2250.0 27 26 29 33 30 31 33 36 40 40
2290.0 50 58 61 74 83 86 94 91 96 95
2330.0 90 78 66 87 100 125 106 101 87 67
2370.0 60 64 73 65 68 56 53 48 54 47
2410.0 38 38 31 29 34 25 27 29 25 29
2450.0 31 46 43 49 57 55 72 77 81 83
2490.0 67 63 64 74 82 97 107 112 118 108
2530.0 81 69 60 56 61 61 68 72 68 70
2570.0 56 49 44 55 53 49 55 65 61 63
2610.0 59 49 51 42 39 37 49 44 42 44
2650.0 42 49 42 45 44 57 60 64 68 72
2690.0 76 73 60 54 54 54 63 70 64 65
2730.0 59 53 48 44 39 38 41 50 49 45
2770.0 41 43 43 40 45 46 41 38 49 47
2810.0 40 32 40 37 46 48 52 49 42 44
2850.0 47 57 60 54 66 66 69 65 62 57
2890.0 51 48 45 54 53 48 42 45 49 51
2930.0 52 58 57 49 47 47 51 39 45 32
2970.0 29 22 30 28 23 29 38 38 40 37
3010.0 38 41 42 43 45 44 48 50 51 42
3050.0 49 57 37 42 49 47 44 49 54 49
3090.0 42 35 47 55 51 50 51 52 43 39
3130.0 40 44 40 45 41 47 44 44 49 44
3170.0 44 48 42 41 32 40 47 45 42 42
3210.0 46 39 48 44 35 38 23 25 46 44
3250.0 42 55 43 51 55 52 53 40 43 52
3290.0 56 47 52 48 49 56 40 50 60 64
3330.0 46 68 59 64 53 43 39 46 42 53
3370.0 61 56 55 45 58 39 50 40 36 56
3410.0 56 42 62 59 52 43 43 68 69 54
3450.0 61 44 34 51 38 64 49 47 57 46
3490.0 49 65 41 45 43 61 49 55 54 53
3530.0 63 72 41 57 63 54 58 64 59 63
3570.0 60 48 55 54 67 76 50 43 73 72
3610.0 77 87 64 53 57 71 69 57 69 69
3650.0 74 69 72 61 64 60 95 56 57 51
3690.0 66 78 83 66 80 112 48 84 86 68
3730.0 75 53 73 74 84 77 81 81 54 84
3770.0 57 63 65 58 71 88 104 44 43 62
3810.0 49 82 121 86 23 55 91 70 66 83
3850.0 89 89 106 89 88 72 80 102 93 72
3890.0 84 92 96 72 91 56 74 78 46 71
3930.0 78 66 63 93 66 58 110 70 71 98
##END=
