##TITLE=Benzene, pentafluoro-2-propenyl-
##JCAMP-DX=4.24
##DATA TYPE=INFRARED SPECTRUM
##ORIGIN=Sadtler Research Labs Under US-EPA Contract
##OWNER=NIST Standard Reference Data Program
##CAS REGISTRY NO=1736-60-3
##MOLFORM=C 9 H 5 F 5
##XUNITS=1/CM
##YUNITS=ABSORBANCE
##XFACTOR=1.0
##YFACTOR=0.000062601
##DELTAX=4.0
##FIRSTX=450.0
##LASTX=3966.0
##FIRSTY=0.000000
##MAXX=3966
##MINX=450
##MAXY=0.62601
##MINY=0
##NPOINTS=880
##XYDATA=(X++(Y..Y))
450.0 0 79 81 103 158 55 94 122 90 117
490.0 95 54 124 88 126 83 121 98 91 126
530.0 108 147 148 216 162 160 153 136 128 113
570.0 95 90 122 120 125 95 117 106 134 124
610.0 146 166 192 245 247 215 173 139 111 111
650.0 115 135 127 124 144 169 162 195 277 347
690.0 393 393 349 274 207 160 142 133 134 140
730.0 144 171 222 269 323 348 327 240 196 176
770.0 189 178 167 139 192 141 147 141 151 162
810.0 157 147 133 177 139 153 154 150 154 156
850.0 164 155 182 163 190 209 223 244 293 376
890.0 573 759 875 914 902 933 951 974 976 917
930.0 785 587 434 378 398 428 538 726 1150 1760
970.0 2453 2917 3210 3285 3256 3266 2871 2323 1889 1620
1010.0 1574 1507 1367 1117 876 721 679 652 594 517
1050.0 446 424 418 432 445 461 446 441 419 420
1090.0 419 426 454 549 760 1080 1460 1900 2220 2189
1130.0 1846 1272 829 551 370 266 218 203 188 184
1170.0 192 192 203 210 223 241 247 269 316 372
1210.0 442 487 496 439 363 278 250 220 213 208
1250.0 199 205 204 228 230 243 275 284 287 260
1290.0 268 272 328 393 467 549 651 726 724 625
1330.0 503 419 342 334 337 325 326 307 282 290
1370.0 295 279 283 295 283 293 306 307 360 390
1410.0 394 471 426 491 484 480 389 391 434 479
1450.0 480 445 356 359 379 390 381 478 723 1080
1490.0 1924 3660 6288 9111 10000 9376 7705 6976 7021 6159
1530.0 3841 1608 737 500 447 469 419 347 375 406
1570.0 383 380 379 384 421 416 409 374 376 354
1610.0 350 374 347 403 372 435 430 503 624 730
1650.0 803 865 825 638 415 293 235 274 207 184
1690.0 227 241 173 184 219 280 282 219 217 165
1730.0 103 56 70 79 85 109 178 202 216 239
1770.0 215 210 246 231 238 229 224 228 213 246
1810.0 238 231 242 240 226 217 244 259 243 243
1850.0 269 292 279 255 221 186 222 224 218 212
1890.0 205 204 205 204 199 194 181 179 169 183
1930.0 185 183 181 161 167 174 171 172 177 170
1970.0 173 175 172 169 171 155 152 161 164 161
2010.0 158 158 145 151 154 152 147 147 144 146
2050.0 155 149 148 143 132 136 138 132 128 136
2090.0 126 126 122 122 116 119 120 111 110 109
2130.0 109 106 105 95 88 89 90 82 78 79
2170.0 69 71 67 73 65 67 59 61 58 59
2210.0 59 57 65 63 66 69 68 69 71 70
2250.0 63 66 63 61 61 68 64 60 59 58
2290.0 62 65 63 58 61 74 75 81 96 91
2330.0 97 97 112 109 90 94 106 105 113 101
2370.0 109 101 95 80 79 87 90 93 97 104
2410.0 115 105 100 105 112 107 111 109 105 103
2450.0 90 88 85 85 86 83 76 72 68 73
2490.0 70 77 74 70 74 70 67 72 71 71
2530.0 77 68 70 67 69 70 64 61 69 63
2570.0 68 61 69 67 70 68 71 68 75 74
2610.0 82 81 89 94 102 114 121 116 116 117
2650.0 120 121 104 96 96 88 89 73 72 74
2690.0 81 72 72 74 76 82 77 75 84 73
2730.0 84 84 88 85 87 81 77 84 81 80
2770.0 90 101 90 81 88 90 80 76 83 72
2810.0 74 77 90 82 76 85 84 89 91 100
2850.0 100 116 108 98 105 97 90 96 96 96
2890.0 86 91 81 91 102 97 103 114 117 149
2930.0 164 187 228 243 246 217 189 170 140 144
2970.0 126 120 119 140 171 211 239 235 206 176
3010.0 151 150 190 231 248 210 185 142 121 115
3050.0 117 118 125 135 139 155 165 192 194 245
3090.0 305 403 426 302 194 109 103 116 96 106
3130.0 110 94 86 99 98 86 85 88 81 77
3170.0 90 84 91 75 81 57 75 79 79 78
3210.0 72 63 74 77 66 86 90 72 85 77
3250.0 73 82 69 67 77 83 77 76 79 79
3290.0 81 66 70 65 76 91 81 86 72 88
3330.0 64 74 70 75 80 81 90 82 70 70
3370.0 79 79 84 83 84 74 87 73 76 90
3410.0 78 89 81 91 99 93 76 79 93 85
3450.0 84 84 82 90 97 79 102 92 87 77
3490.0 97 106 117 93 97 84 83 94 102 104
3530.0 89 84 87 69 96 94 83 95 105 74
3570.0 93 97 92 80 87 64 90 92 92 88
3610.0 96 127 91 104 86 91 67 95 107 70
3650.0 81 91 73 81 86 55 85 98 85 84
3690.0 108 95 75 81 93 69 97 84 60 63
3730.0 78 63 68 80 80 66 79 99 79 89
3770.0 70 87 75 78 88 87 63 66 76 91
3810.0 76 76 58 109 57 68 117 60 54 79
3850.0 73 105 80 91 92 158 185 110 78 72
3890.0 84 93 56 96 117 56 96 172 184 95
3930.0 157 78 54 161 102 132 97 79 124 94
##END=
