##TITLE=Benzene, (2-iodoethyl)-
##JCAMP-DX=4.24
##DATA TYPE=INFRARED SPECTRUM
##ORIGIN=Sadtler Research Labs Under US-EPA Contract
##OWNER=NIST Standard Reference Data Program
##CAS REGISTRY NO=17376-04-4
##MOLFORM=C 8 H 9 I
##XUNITS=1/CM
##YUNITS=ABSORBANCE
##XFACTOR=1.0
##YFACTOR=0.000097632
##DELTAX=4.0
##FIRSTX=450.0
##LASTX=3966.0
##FIRSTY=0.025872
##MAXX=3966
##MINX=450
##MAXY=0.97632
##MINY=0
##NPOINTS=880
##XYDATA=(X++(Y..Y))
450.0 265 183 214 367 495 666 927 1221 1313 1199
490.0 1193 1323 1596 1693 1686 1620 1797 2345 2603 1847
530.0 745 264 174 110 127 167 225 275 209 133
570.0 50 47 11 3 13 63 112 155 290 480
610.0 826 1385 2056 2347 2035 1318 723 485 379 346
650.0 322 371 411 549 567 781 967 1322 2177 3512
690.0 6175 8146 10000 7897 5758 4075 3024 2457 2319 2677
730.0 3382 4367 5101 5545 5296 4831 3662 2434 1660 1133
770.0 790 545 380 264 224 203 202 206 201 205
810.0 232 303 323 266 172 159 177 235 387 606
850.0 719 603 404 225 163 138 152 171 197 231
890.0 246 290 341 439 575 757 892 938 793 561
930.0 409 275 192 122 98 70 67 59 58 57
970.0 49 61 68 98 101 139 182 293 343 280
1010.0 195 173 287 471 1092 1623 1537 832 258 131
1050.0 171 232 334 437 548 556 491 432 397 386
1090.0 398 458 541 657 768 868 962 1028 1000 855
1130.0 740 646 648 716 957 1375 2037 2860 3944 6231
1170.0 8272 8194 4808 2343 1480 1079 856 819 747 647
1210.0 509 464 494 699 1142 2002 3201 4043 4155 3557
1250.0 2447 1527 1018 692 496 375 335 342 397 470
1290.0 517 545 567 679 936 1237 1269 1073 818 698
1330.0 623 556 497 405 339 284 235 190 181 160
1370.0 169 200 212 206 228 217 211 226 220 265
1410.0 332 427 628 829 1144 1480 1771 1816 1876 2037
1450.0 2431 2680 2223 1683 1299 871 686 500 508 706
1490.0 1456 3309 3886 3034 1671 586 360 276 310 268
1530.0 281 256 254 287 220 184 173 249 208 198
1570.0 233 277 344 430 499 613 847 1278 1680 1669
1610.0 1251 732 360 165 155 112 145 152 130 148
1650.0 213 247 212 161 126 93 107 49 97 101
1690.0 60 52 114 106 85 64 89 142 106 104
1730.0 139 199 173 187 207 218 182 154 137 110
1770.0 130 154 153 184 223 333 499 575 529 348
1810.0 237 212 181 160 137 121 99 84 100 122
1850.0 129 144 194 234 282 314 299 297 303 310
1890.0 271 196 124 91 76 73 78 98 144 182
1930.0 253 333 408 439 424 400 423 447 390 254
1970.0 107 58 53 62 71 78 71 49 38 33
2010.0 32 35 36 25 20 16 14 15 14 7
2050.0 4 4 3 7 10 7 7 8 13 15
2090.0 17 14 9 6 3 0 3 2 1 5
2130.0 5 9 14 21 22 25 25 28 30 28
2170.0 30 32 37 39 43 30 25 19 18 17
2210.0 16 18 23 23 19 17 18 21 20 24
2250.0 24 25 23 22 24 24 26 29 37 44
2290.0 54 66 80 87 102 131 160 172 156 121
2330.0 100 101 97 105 87 105 86 73 84 71
2370.0 67 72 67 72 62 51 45 43 37 35
2410.0 32 32 32 31 31 23 21 20 22 22
2450.0 19 13 12 10 11 8 8 9 5 4
2490.0 3 1 0 2 3 4 7 9 5 6
2530.0 7 6 10 9 14 15 16 16 16 19
2570.0 17 24 28 39 49 58 70 85 100 106
2610.0 95 74 57 49 53 56 60 61 62 59
2650.0 52 45 42 36 33 39 38 32 23 16
2690.0 16 13 11 8 8 8 11 13 12 18
2730.0 19 26 28 34 38 54 65 80 92 97
2770.0 92 86 91 90 100 102 104 101 108 110
2810.0 117 129 148 183 237 316 423 556 681 804
2850.0 875 888 847 788 752 741 734 722 751 829
2890.0 960 1121 1258 1326 1280 1168 1011 880 810 804
2930.0 887 1058 1315 1624 1901 2035 1998 1910 1909 1961
2970.0 2161 2386 2344 1841 1242 863 698 679 802 1070
3010.0 1455 1984 2453 3046 3882 4820 5872 6254 5611 4099
3050.0 2929 2339 2248 2596 3347 4629 5584 5286 4079 3075
3090.0 2681 2423 2210 1907 1614 1367 1107 828 559 374
3130.0 266 196 142 116 99 92 88 86 89 93
3170.0 97 91 78 48 36 24 22 19 23 20
3210.0 19 17 13 18 14 19 14 16 12 17
3250.0 17 16 11 14 15 13 18 14 12 13
3290.0 20 20 23 20 20 13 11 15 13 12
3330.0 10 11 8 10 13 9 5 9 7 15
3370.0 23 16 14 12 14 18 21 17 15 13
3410.0 7 11 9 9 14 15 17 15 13 12
3450.0 19 22 21 15 6 10 9 14 8 10
3490.0 16 16 22 19 8 13 13 13 7 0
3530.0 9 17 5 12 11 4 11 14 13 8
3570.0 6 18 16 13 15 8 8 6 3 7
3610.0 2 12 22 24 27 25 27 33 44 47
3650.0 50 60 47 50 44 32 31 30 31 31
3690.0 32 29 29 32 28 29 32 29 16 12
3730.0 12 2 6 14 23 20 25 27 31 11
3770.0 25 9 13 16 20 19 27 23 32 48
3810.0 48 27 46 43 47 27 21 28 21 20
3850.0 34 33 25 23 29 37 34 30 28 30
3890.0 29 24 22 15 15 29 28 17 21 34
3930.0 43 27 36 40 35 37 23 30 19 22
##END=
