##TITLE=Methoxyacetonitrile
##JCAMP-DX=4.24
##DATA TYPE=INFRARED SPECTRUM
##ORIGIN=Sadtler Research Labs Under US-EPA Contract
##OWNER=NIST Standard Reference Data Program
##CAS REGISTRY NO=1738-36-9
##MOLFORM=C 3 H 5 N O
##XUNITS=1/CM
##YUNITS=ABSORBANCE
##XFACTOR=1.0
##YFACTOR=0.000168027
##DELTAX=4.0
##FIRSTX=450.0
##LASTX=3966.0
##FIRSTY=0.000000
##MAXX=3966
##MINX=450
##MAXY=1.68027
##MINY=0
##NPOINTS=880
##XYDATA=(X++(Y..Y))
450.0 0 134 211 148 157 177 180 208 200 178
490.0 176 151 222 170 177 188 193 176 145 169
530.0 186 163 181 173 168 203 183 191 226 251
570.0 262 273 268 264 271 273 269 262 238 214
610.0 189 176 180 182 174 172 166 160 157 170
650.0 187 192 194 192 202 246 271 303 289 297
690.0 316 285 293 276 240 238 221 193 189 201
730.0 194 191 189 172 186 196 199 187 202 208
770.0 213 224 230 230 234 243 240 251 254 266
810.0 268 267 284 269 263 267 257 279 271 295
850.0 297 370 445 536 679 851 1048 1280 1418 1681
890.0 1884 1996 2181 2474 2578 2716 2881 3021 3088 2920
930.0 2750 2546 2282 1946 1550 1205 977 788 671 575
970.0 523 500 511 558 584 632 708 797 894 921
1010.0 994 1037 1030 942 933 823 698 600 526 502
1050.0 480 491 509 532 577 651 755 893 1108 1404
1090.0 1810 2394 3230 4287 5707 7327 8866 9797 9859 9997
1130.0 10000 9881 9518 8241 6507 4786 3623 2919 2472 2172
1170.0 2081 2178 2473 3019 3553 3736 3546 3652 3147 3384
1210.0 3299 2645 1941 1356 992 812 695 607 586 556
1250.0 534 558 568 612 665 724 760 750 736 740
1290.0 690 677 638 543 461 425 400 405 433 483
1330.0 593 747 937 1109 1225 1370 1579 1626 1602 1577
1370.0 1480 1318 1280 1012 807 703 560 450 364 310
1410.0 337 341 408 442 496 599 682 839 989 1157
1450.0 1477 1624 1563 1841 1682 1520 1350 1180 992 863
1490.0 729 608 526 448 420 385 345 325 305 283
1530.0 271 251 268 251 269 249 239 270 240 245
1570.0 241 230 248 229 238 223 232 223 216 231
1610.0 207 220 206 213 210 188 203 195 186 191
1650.0 193 205 188 174 182 178 191 177 193 190
1690.0 192 180 204 205 194 194 196 212 197 199
1730.0 208 219 224 215 229 234 229 227 228 225
1770.0 234 230 223 207 210 198 207 192 192 179
1810.0 169 175 164 170 167 169 164 163 168 172
1850.0 172 157 161 151 154 159 149 149 144 142
1890.0 140 150 147 147 147 144 152 157 154 154
1930.0 147 149 152 154 153 148 145 152 152 160
1970.0 153 161 164 174 187 200 211 222 243 262
2010.0 283 306 328 348 369 390 407 398 395 376
2050.0 362 346 324 301 281 259 250 248 244 244
2090.0 235 246 248 264 266 272 272 268 257 252
2130.0 244 236 222 209 195 193 178 176 171 171
2170.0 167 162 164 163 164 170 170 174 178 178
2210.0 187 202 215 236 260 286 306 321 337 351
2250.0 370 359 335 304 272 248 227 198 181 174
2290.0 179 179 181 188 191 196 196 195 196 202
2330.0 211 201 206 207 206 175 192 188 216 213
2370.0 217 215 202 194 188 181 183 185 182 187
2410.0 179 178 174 170 171 169 165 166 167 169
2450.0 169 172 174 174 173 174 175 170 166 164
2490.0 159 157 150 146 142 137 137 135 136 135
2530.0 137 141 140 143 145 151 152 153 158 161
2570.0 163 167 168 170 172 172 174 176 178 179
2610.0 179 182 180 174 174 174 169 171 175 173
2650.0 173 173 174 170 170 173 176 178 180 188
2690.0 189 193 198 199 204 205 205 206 210 209
2730.0 208 209 211 211 215 213 214 218 222 231
2770.0 240 252 273 294 325 364 419 482 560 670
2810.0 794 959 1151 1385 1662 1872 1998 2221 2243 2327
2850.0 2394 2380 2259 2167 2091 2070 2002 2046 2130 2223
2890.0 2356 2519 2628 2694 2822 3019 3025 3000 3115 3194
2930.0 3343 3425 3529 3584 3605 3156 2910 2667 2565 2394
2970.0 2141 1911 1648 1496 1450 1486 1579 1675 1805 1858
3010.0 1765 1772 1761 1593 1545 1366 1026 776 620 524
3050.0 476 434 405 390 369 360 347 342 334 325
3090.0 317 309 305 297 292 284 274 270 266 256
3130.0 247 241 234 226 226 222 216 219 214 214
3170.0 210 208 202 199 195 196 188 183 180 177
3210.0 175 172 170 165 164 167 170 170 168 163
3250.0 168 167 166 165 164 163 159 160 163 160
3290.0 159 159 157 159 160 165 162 161 158 160
3330.0 163 156 162 161 157 156 154 158 153 154
3370.0 153 151 154 152 152 152 151 153 151 153
3410.0 152 155 151 153 156 151 149 153 156 154
3450.0 155 157 152 149 154 155 153 157 153 150
3490.0 151 152 151 155 150 156 155 152 153 156
3530.0 151 157 155 159 163 148 151 153 152 157
3570.0 158 161 149 165 148 173 156 163 156 159
3610.0 152 141 158 145 165 148 163 153 162 141
3650.0 168 139 171 141 150 145 146 169 154 168
3690.0 147 164 144 158 154 159 156 157 142 161
3730.0 144 149 160 139 179 131 175 135 164 152
3770.0 147 153 141 139 148 147 158 134 169 138
3810.0 166 135 166 150 148 155 145 142 161 151
3850.0 158 146 156 162 152 161 149 162 157 158
3890.0 146 165 147 170 164 152 163 165 164 153
3930.0 162 167 183 180 148 159 167 166 154 171
##END=
