##TITLE=Cyclohexanol, 1-(p-chlorophenyl)-,
##JCAMP-DX=4.24
##DATA TYPE=INFRARED SPECTRUM
##ORIGIN=Sadtler Research Labs Under US-EPA Contract
##OWNER=NIST Standard Reference Data Program
##CAS REGISTRY NO=17380-83-5
##MOLFORM=C 12 H 15 Cl O
##XUNITS=1/CM
##YUNITS=ABSORBANCE
##XFACTOR=1.0
##YFACTOR=0.000097824
##DELTAX=4.0
##FIRSTX=450.0
##LASTX=3966.0
##FIRSTY=0.007043
##MAXX=3966
##MINX=450
##MAXY=0.97824
##MINY=0
##NPOINTS=880
##XYDATA=(X++(Y..Y))
450.0 72 48 85 94 122 183 160 220 184 184
490.0 202 211 196 209 209 208 290 374 492 550
530.0 604 716 797 754 610 446 334 279 199 131
570.0 71 65 59 58 79 52 39 11 14 14
610.0 19 0 6 20 23 27 34 34 23 6
650.0 11 24 22 50 53 70 70 77 56 41
690.0 38 46 64 66 71 77 77 100 116 170
730.0 341 541 548 373 165 113 150 182 194 151
770.0 146 145 148 138 149 199 266 371 532 757
810.0 1039 1378 1683 1857 1869 1673 1314 995 849 835
850.0 775 591 369 226 146 104 89 107 120 154
890.0 203 265 323 371 361 303 243 204 213 224
930.0 230 228 230 259 315 426 603 819 1065 1294
970.0 1410 1375 1139 824 559 414 350 394 588 1223
1010.0 2192 2507 1837 894 504 505 490 505 476 516
1050.0 543 580 543 509 478 474 552 621 741 1016
1090.0 1933 3262 3865 3127 1679 1033 930 819 754 693
1130.0 674 684 736 800 818 778 678 596 538 494
1170.0 463 425 404 387 382 374 375 419 469 537
1210.0 558 536 461 402 372 361 373 400 453 499
1250.0 539 562 579 574 568 559 523 481 452 448
1290.0 446 456 473 494 509 509 503 489 481 481
1330.0 490 511 582 646 735 839 890 871 805 708
1370.0 593 506 435 403 410 439 492 534 524 479
1410.0 414 326 326 286 307 346 451 566 665 776
1450.0 887 945 975 962 970 1057 1139 1204 1285 1686
1490.0 2513 3228 3019 1954 927 447 260 159 161 107
1530.0 117 97 130 114 110 85 92 94 99 86
1570.0 109 114 143 150 209 306 376 384 311 217
1610.0 143 125 121 115 116 112 130 140 133 161
1650.0 147 159 113 72 63 65 46 58 46 76
1690.0 46 65 84 115 90 74 84 92 79 72
1730.0 104 107 101 79 86 90 100 87 97 104
1770.0 119 123 95 94 56 64 38 33 37 30
1810.0 9 27 24 15 33 24 33 10 27 24
1850.0 19 7 23 26 35 48 45 57 68 81
1890.0 93 102 102 99 84 66 57 49 38 33
1930.0 27 26 18 23 18 14 12 13 6 10
1970.0 7 6 4 8 5 11 11 5 1 1
2010.0 4 0 3 1 3 4 6 5 1 4
2050.0 7 7 3 6 4 4 4 4 6 6
2090.0 7 8 7 7 9 8 6 7 6 8
2130.0 6 2 4 4 3 5 5 6 7 7
2170.0 7 10 10 10 12 14 16 17 17 19
2210.0 21 21 19 15 17 16 18 17 18 20
2250.0 18 20 18 23 21 20 25 29 33 39
2290.0 45 54 61 63 65 71 57 46 44 28
2330.0 24 8 10 12 35 37 30 18 7 14
2370.0 14 23 37 39 30 18 13 10 8 9
2410.0 15 9 11 11 8 3 1 1 2 1
2450.0 0 1 1 3 6 8 9 10 13 12
2490.0 14 13 16 16 18 20 20 18 19 17
2530.0 14 17 14 14 13 12 16 17 19 18
2570.0 18 24 27 31 31 33 32 38 41 45
2610.0 43 43 41 39 37 35 37 43 47 53
2650.0 59 67 74 87 95 99 100 92 86 79
2690.0 71 70 64 62 59 53 50 45 43 40
2730.0 36 37 34 34 34 40 44 43 50 56
2770.0 59 68 78 87 95 104 111 122 128 139
2810.0 143 154 160 177 201 235 290 389 550 808
2850.0 1097 1428 1791 2158 2420 2443 2218 1855 1515 1268
2890.0 1123 1066 1101 1187 1328 1502 1754 2167 2819 3684
2930.0 4616 5794 7375 9213 10000 8767 6107 3555 1989 1143
2970.0 687 452 327 261 221 201 184 165 152 142
3010.0 139 141 156 188 234 291 347 379 376 341
3050.0 299 263 243 219 213 207 217 252 301 359
3090.0 404 411 380 314 242 174 118 77 54 43
3130.0 34 26 28 27 26 25 25 27 23 22
3170.0 19 16 11 8 4 4 4 2 5 5
3210.0 2 3 8 8 5 4 8 1 6 11
3250.0 7 10 3 9 5 4 4 1 8 12
3290.0 6 7 10 10 10 8 4 9 4 9
3330.0 10 8 7 7 8 15 16 12 20 16
3370.0 10 18 15 20 20 19 21 23 29 19
3410.0 14 17 18 22 17 18 22 20 19 16
3450.0 16 26 27 20 25 18 17 9 15 13
3490.0 7 15 6 15 15 4 6 2 15 17
3530.0 7 15 9 13 28 12 12 11 2 32
3570.0 24 21 18 16 36 33 32 14 37 47
3610.0 88 91 149 211 288 386 395 375 317 250
3650.0 216 160 130 101 66 66 32 47 16 36
3690.0 26 25 13 16 23 16 21 18 21 33
3730.0 18 28 22 32 35 4 32 3 13 13
3770.0 13 14 8 19 8 8 13 11 22 19
3810.0 8 10 10 30 15 17 30 41 19 29
3850.0 21 44 28 28 37 33 20 26 31 33
3890.0 29 37 27 54 40 24 22 37 26 26
3930.0 25 25 32 31 49 44 27 23 31 26
##END=
