##TITLE=m-Nitropropiophenone
##JCAMP-DX=4.24
##DATA TYPE=INFRARED SPECTRUM
##ORIGIN=Sadtler Research Labs Under US-EPA Contract
##OWNER=NIST Standard Reference Data Program
##CAS REGISTRY NO=17408-16-1
##MOLFORM=C 9 H 9 N O 3
##XUNITS=1/CM
##YUNITS=ABSORBANCE
##XFACTOR=1.0
##YFACTOR=0.000075864
##DELTAX=4.0
##FIRSTX=450.0
##LASTX=3966.0
##FIRSTY=0.002352
##MAXX=3966
##MINX=450
##MAXY=0.75864
##MINY=0
##NPOINTS=880
##XYDATA=(X++(Y..Y))
450.0 31 109 106 127 0 74 20 110 84 90
490.0 82 94 55 54 71 65 64 59 83 103
530.0 110 85 89 130 129 152 157 182 262 296
570.0 314 378 415 391 355 249 193 134 122 112
610.0 87 90 118 120 152 180 183 215 239 249
650.0 265 329 387 501 582 820 1006 1165 1332 1330
690.0 1304 1142 1030 1049 1119 1220 1334 1426 1565 1639
730.0 1766 1636 1266 1016 838 795 853 952 973 944
770.0 838 681 552 482 502 591 731 896 978 940
810.0 843 685 501 334 229 162 140 127 138 167
850.0 216 278 369 497 651 871 957 883 757 475
890.0 307 267 294 356 399 434 391 365 364 384
930.0 460 552 654 748 831 921 1022 1107 1114 1019
970.0 849 665 542 431 359 328 365 473 590 718
1010.0 786 803 759 682 567 470 365 261 222 221
1050.0 248 297 380 510 668 849 993 1086 1137 1203
1090.0 1299 1420 1521 1576 1535 1398 1173 918 702 543
1130.0 441 381 334 322 318 328 373 443 520 577
1170.0 561 515 472 463 516 651 883 1281 1879 2752
1210.0 3817 4731 5105 4701 3701 2645 1865 1399 1159 1059
1250.0 1039 1063 1122 1214 1292 1301 1227 1148 1098 1100
1290.0 1099 1087 1130 1247 1390 1509 1578 1583 1616 1696
1330.0 1909 2347 3241 4796 6939 8992 9623 8692 6325 3997
1370.0 2448 1561 1123 941 858 770 660 567 514 522
1410.0 538 598 682 741 823 947 1038 1085 976 834
1450.0 763 775 873 972 1071 1169 1204 1123 1031 961
1490.0 917 933 1020 1108 1146 1156 1073 1090 1154 1386
1530.0 1912 3047 4985 7510 9890 10000 8803 5952 3424 2178
1570.0 1633 1479 1503 1562 1596 1592 1547 1468 1473 1632
1610.0 1956 2180 2132 1743 1206 749 549 452 395 391
1650.0 392 422 429 435 483 532 598 675 794 931
1690.0 1140 1569 2502 4095 5997 7299 7358 5851 3722 2018
1730.0 1267 942 792 723 689 613 533 451 390 319
1770.0 279 226 174 151 135 127 130 122 125 120
1810.0 117 112 104 100 95 97 84 79 82 95
1850.0 81 73 68 61 64 69 57 57 64 65
1890.0 70 71 74 73 71 74 72 82 90 79
1930.0 73 64 52 47 47 43 55 58 65 65
1970.0 64 60 55 48 41 33 25 17 12 10
2010.0 10 6 9 10 10 7 9 6 9 8
2050.0 6 8 5 6 9 8 10 11 10 10
2090.0 8 9 7 8 7 8 10 10 8 7
2130.0 7 7 6 5 4 6 7 9 8 11
2170.0 12 13 13 16 13 16 14 12 13 10
2210.0 12 12 14 16 15 18 17 16 14 11
2250.0 10 13 10 12 16 18 20 21 28 34
2290.0 41 51 70 81 81 92 79 78 82 83
2330.0 77 74 63 85 93 87 81 61 71 66
2370.0 66 75 82 84 60 41 32 31 30 39
2410.0 43 49 49 46 40 34 35 33 38 40
2450.0 43 43 44 47 43 39 35 30 25 23
2490.0 21 23 19 16 16 16 20 18 17 18
2530.0 19 19 20 23 21 19 23 24 20 23
2570.0 28 34 32 32 31 31 27 26 27 26
2610.0 30 26 26 27 26 27 24 26 26 31
2650.0 31 35 35 37 38 44 45 54 63 73
2690.0 78 85 85 84 85 77 72 69 69 70
2730.0 73 77 73 76 77 76 80 79 76 76
2770.0 79 82 87 89 94 99 101 108 114 123
2810.0 129 140 155 167 176 177 179 178 182 192
2850.0 192 202 224 246 281 317 373 454 545 669
2890.0 757 799 778 743 746 823 923 979 967 892
2930.0 811 748 757 838 1055 1277 1324 1214 959 763
2970.0 711 776 956 1245 1566 1700 1644 1351 956 682
3010.0 508 404 352 310 285 260 251 240 232 218
3050.0 218 212 212 222 241 303 414 572 695 741
3090.0 729 615 451 311 203 139 110 95 79 69
3130.0 65 61 57 53 52 53 51 45 39 42
3170.0 42 42 40 43 42 44 44 42 34 31
3210.0 33 27 27 25 26 27 29 25 24 23
3250.0 22 19 20 22 19 24 23 20 15 22
3290.0 22 20 18 19 22 12 19 17 13 16
3330.0 22 30 31 23 19 20 23 27 20 32
3370.0 31 36 40 52 64 83 103 110 122 115
3410.0 108 91 74 54 36 30 30 27 34 27
3450.0 25 31 20 22 26 18 16 25 26 16
3490.0 29 20 22 23 24 23 18 10 20 19
3530.0 23 26 16 15 15 22 22 14 17 15
3570.0 24 26 35 62 52 41 25 10 15 26
3610.0 18 18 14 10 16 32 19 27 21 24
3650.0 20 25 34 22 15 12 20 24 19 28
3690.0 30 23 22 29 30 30 32 31 34 29
3730.0 22 32 26 34 38 40 34 22 19 7
3770.0 17 31 19 19 21 25 16 26 8 21
3810.0 19 21 11 13 26 21 27 21 15 22
3850.0 8 17 17 10 24 16 24 18 12 21
3890.0 22 12 22 17 13 17 25 23 19 21
3930.0 27 18 17 12 6 18 29 17 23 30
##END=
