##TITLE=Benzenepropanoic acid, .beta.-oxo-.alpha.-(phenylmethylene)-, ethyl ester
##JCAMP-DX=4.24
##DATA TYPE=INFRARED SPECTRUM
##ORIGIN=Sadtler Research Labs Under US-EPA Contract
##OWNER=NIST Standard Reference Data Program
##CAS REGISTRY NO=17451-18-2
##MOLFORM=C 18 H 16 O 3
##XUNITS=1/CM
##YUNITS=ABSORBANCE
##XFACTOR=1.0
##YFACTOR=0.000044037
##DELTAX=4.0
##FIRSTX=450.0
##LASTX=3966.0
##FIRSTY=0.006694
##MAXX=3966
##MINX=450
##MAXY=0.44037
##MINY=0
##NPOINTS=880
##XYDATA=(X++(Y..Y))
450.0 152 133 0 166 199 111 106 214 241 223
490.0 231 253 187 117 122 75 115 151 103 94
530.0 161 225 256 286 432 479 407 458 384 379
570.0 326 409 483 524 445 344 251 187 165 167
610.0 137 170 189 209 193 191 201 212 217 242
650.0 319 431 467 610 713 989 1094 1096 1420 2179
690.0 2764 2221 1539 1165 960 879 896 952 914 749
730.0 625 604 688 864 1006 1137 1174 1124 991 876
770.0 815 729 630 537 431 382 354 336 334 350
810.0 364 342 284 242 222 248 259 297 358 407
850.0 429 402 369 329 313 355 418 486 517 453
890.0 353 293 308 301 342 366 428 485 592 711
930.0 824 957 1195 1548 1735 1558 1118 720 528 454
970.0 367 304 287 291 307 331 395 531 675 845
1010.0 1041 1308 1488 1513 1419 1219 927 672 548 516
1050.0 544 616 750 963 1212 1372 1504 1682 1939 2146
1090.0 2196 2141 2044 1915 1660 1269 910 691 580 523
1130.0 506 516 539 562 612 702 861 1027 1160 1347
1170.0 1794 2529 3365 4225 5324 6659 7547 7013 5209 3876
1210.0 3513 3749 4555 5690 6490 6784 7129 7915 9091 10000
1250.0 9813 8071 5765 3850 2558 1769 1342 1153 1077 1010
1290.0 921 868 883 938 952 943 932 924 830 695
1330.0 584 539 566 557 517 538 622 781 989 1217
1370.0 1307 1212 960 750 618 507 471 425 357 308
1410.0 292 255 310 265 285 291 375 476 708 1141
1450.0 1330 1036 697 490 472 489 518 448 359 365
1490.0 461 594 653 471 312 251 180 176 193 146
1530.0 151 136 160 192 176 156 191 261 273 293
1570.0 404 522 633 698 688 725 799 911 921 924
1610.0 941 1095 1362 1586 1784 1641 1328 927 707 645
1650.0 708 750 799 910 1118 1412 1768 2080 2722 3706
1690.0 4476 4077 3114 2269 1866 1722 1771 1997 2341 2983
1730.0 3999 5501 7115 7022 4395 2045 1176 918 733 589
1770.0 522 456 365 308 268 248 266 273 286 258
1810.0 232 206 148 127 108 109 77 62 66 68
1850.0 56 42 55 61 84 97 88 85 98 107
1890.0 119 124 107 111 103 108 97 85 83 66
1930.0 61 70 80 112 130 135 150 151 147 135
1970.0 111 81 62 41 26 43 33 27 21 24
2010.0 19 27 34 28 25 27 26 29 30 32
2050.0 29 34 30 35 32 33 35 41 35 37
2090.0 40 37 34 36 39 36 25 27 22 27
2130.0 24 22 21 32 20 17 19 24 22 26
2170.0 30 25 28 28 26 27 22 18 24 19
2210.0 23 25 29 27 22 26 26 29 35 30
2250.0 32 32 43 42 39 46 48 59 65 72
2290.0 95 101 128 147 161 177 162 153 161 122
2330.0 109 85 67 99 128 140 115 95 66 50
2370.0 62 87 121 126 90 41 40 25 22 34
2410.0 28 25 22 27 25 27 31 29 27 26
2450.0 31 28 29 23 25 20 19 11 10 12
2490.0 24 25 23 21 22 23 23 25 36 28
2530.0 25 35 35 23 27 33 30 33 35 39
2570.0 28 30 38 38 41 46 44 48 44 39
2610.0 39 41 39 33 35 31 37 36 35 33
2650.0 35 39 29 32 36 31 32 39 41 37
2690.0 47 40 32 38 48 45 48 62 55 57
2730.0 61 65 65 56 60 60 60 60 63 59
2770.0 74 81 82 87 92 87 94 105 104 116
2810.0 123 132 126 130 132 137 123 114 130 138
2850.0 143 156 166 174 187 198 212 236 269 304
2890.0 309 303 313 334 360 391 430 422 419 409
2930.0 450 518 591 706 775 700 586 522 550 612
2970.0 698 767 865 1103 1341 1320 1057 837 715 612
3010.0 537 497 483 503 581 700 809 812 695 567
3050.0 497 534 668 893 1239 1583 1652 1317 939 824
3090.0 817 724 566 440 367 296 225 172 125 105
3130.0 98 91 77 75 93 91 78 94 83 74
3170.0 57 66 56 46 47 41 43 50 48 40
3210.0 38 41 49 46 32 40 42 33 32 32
3250.0 24 14 33 32 26 35 34 28 40 38
3290.0 20 31 41 28 27 27 33 39 46 43
3330.0 44 44 57 61 53 57 67 95 87 89
3370.0 72 34 35 30 39 40 51 53 56 43
3410.0 46 44 44 46 41 56 62 38 46 31
3450.0 29 35 53 56 55 22 10 18 11 38
3490.0 39 40 28 24 33 23 34 26 42 44
3530.0 55 35 15 35 36 34 46 31 33 38
3570.0 36 37 28 49 45 53 47 44 55 32
3610.0 28 24 43 44 59 60 58 52 48 59
3650.0 55 55 45 52 65 46 71 50 54 68
3690.0 68 64 62 70 46 64 52 43 68 51
3730.0 40 45 50 51 47 49 37 41 25 45
3770.0 74 52 63 53 60 48 34 42 32 45
3810.0 33 62 61 43 32 42 46 48 68 70
3850.0 39 45 26 62 47 33 37 32 67 95
3890.0 41 69 60 45 48 53 33 65 48 54
3930.0 78 52 37 44 22 69 68 62 56 46
##END=
