##TITLE=Phenol, 2-(2-propenyl)-
##JCAMP-DX=4.24
##DATA TYPE=INFRARED SPECTRUM
##ORIGIN=Sadtler Research Labs Under US-EPA Contract
##OWNER=NIST Standard Reference Data Program
##CAS REGISTRY NO=1745-81-9
##MOLFORM=C 9 H 10 O
##XUNITS=1/CM
##YUNITS=ABSORBANCE
##XFACTOR=1.0
##YFACTOR=0.000067813
##DELTAX=4.0
##FIRSTX=450.0
##LASTX=3966.0
##FIRSTY=0.043333
##MAXX=3966
##MINX=450
##MAXY=0.67813
##MINY=0
##NPOINTS=880
##XYDATA=(X++(Y..Y))
450.0 639 658 611 509 395 326 270 200 176 197
490.0 109 0 86 45 190 190 180 242 233 235
530.0 357 321 263 324 425 405 517 523 528 479
570.0 413 288 238 151 152 97 57 62 37 47
610.0 72 131 163 287 369 527 693 777 868 842
650.0 750 619 489 377 303 284 256 205 187 214
690.0 237 296 382 507 706 945 1176 1436 1637 2041
730.0 2925 4310 5837 7439 10000 9917 6778 5399 3977 2615
770.0 1711 1194 1004 852 630 473 368 314 287 254
810.0 292 345 488 675 832 1032 1329 1484 1584 1598
850.0 1505 1381 1155 1021 856 714 632 590 603 699
890.0 895 1245 1737 2327 2993 3650 4087 4142 3828 3387
930.0 2813 2187 1670 1309 1052 875 762 673 631 656
970.0 705 834 1049 1344 1708 2038 2145 2045 1858 1518
1010.0 1115 870 801 855 1064 1349 1541 1544 1445 1292
1050.0 985 787 761 827 946 1152 1370 1639 1895 2110
1090.0 2239 2258 2239 2137 1993 1846 1666 1551 1419 1332
1130.0 1312 1410 1661 2072 2494 2786 3344 3946 4439 4713
1170.0 4931 5246 5396 5660 5957 6329 6980 7667 8201 8462
1210.0 8319 7658 6677 5562 4369 3460 3079 3323 4003 5065
1250.0 6030 6655 6753 6200 5069 3657 2404 1669 1355 1229
1290.0 1239 1311 1461 1689 2070 2624 3281 3766 3806 3675
1330.0 3259 2461 1707 1129 688 453 329 268 269 254
1370.0 258 289 317 338 383 407 449 510 555 639
1410.0 730 802 881 952 1111 1328 1668 2112 2560 3052
1450.0 3574 3859 3914 3991 3782 3545 3728 4265 5104 5812
1490.0 6247 6339 5804 4832 3933 3004 2174 1510 988 599
1530.0 409 330 308 330 343 376 449 589 736 987
1570.0 1389 1865 2415 2844 3109 3220 3086 2752 2379 2054
1610.0 1764 1535 1425 1367 1476 1690 1943 2066 2018 1730
1650.0 1317 882 532 377 310 312 333 321 317 312
1690.0 252 214 212 184 154 129 138 158 107 98
1730.0 106 136 113 122 143 171 194 234 258 268
1770.0 295 288 259 259 251 240 248 234 247 230
1810.0 232 251 269 307 350 376 391 406 400 408
1850.0 357 304 281 250 231 223 215 233 254 287
1890.0 316 329 314 281 251 226 212 236 262 280
1930.0 263 235 177 121 73 44 45 47 44 49
1970.0 65 70 71 71 78 68 68 55 41 41
2010.0 42 52 61 54 69 69 61 55 54 50
2050.0 34 36 28 35 37 20 21 29 30 38
2090.0 44 55 52 58 53 50 47 50 33 28
2130.0 25 25 19 13 12 12 8 13 14 14
2170.0 6 6 6 7 7 15 23 30 31 33
2210.0 33 35 31 34 32 37 48 47 48 53
2250.0 45 56 50 55 57 52 55 54 57 47
2290.0 60 54 58 72 75 86 104 98 109 113
2330.0 108 105 102 105 108 99 111 106 113 87
2370.0 66 73 77 65 66 77 83 84 91 99
2410.0 105 102 108 105 114 115 115 115 121 123
2450.0 122 129 123 123 131 123 123 129 111 112
2490.0 122 124 124 132 125 125 124 116 95 94
2530.0 84 72 68 63 63 59 57 49 49 42
2570.0 42 34 34 42 43 36 43 49 47 50
2610.0 58 58 58 66 67 68 66 58 58 67
2650.0 67 54 42 40 29 21 14 13 6 6
2690.0 15 17 21 26 30 24 32 32 32 32
2730.0 33 33 40 35 41 24 37 37 31 32
2770.0 30 33 43 28 42 37 52 59 56 70
2810.0 87 107 130 183 243 308 408 528 638 732
2850.0 770 788 773 727 671 615 590 590 637 694
2890.0 818 968 1128 1280 1453 1615 1741 1844 1875 1828
2930.0 1689 1523 1344 1160 986 836 750 684 673 689
2970.0 769 913 1095 1300 1404 1447 1382 1325 1340 1542
3010.0 1821 2079 2326 2534 2701 2783 2857 2900 2908 2798
3050.0 2625 2480 2529 2742 3064 3420 3737 3983 4159 4121
3090.0 3879 3285 2609 1928 1286 871 633 489 396 307
3130.0 232 201 174 141 117 105 93 94 103 88
3170.0 93 89 62 88 69 62 74 63 65 63
3210.0 51 50 36 36 35 31 33 21 10 23
3250.0 16 33 32 22 37 37 30 31 38 59
3290.0 49 49 42 36 43 51 32 41 31 39
3330.0 39 41 72 75 87 105 115 92 107 116
3370.0 103 88 78 87 58 62 66 73 67 54
3410.0 83 51 78 72 83 65 58 65 66 84
3450.0 72 78 48 71 77 97 86 99 124 115
3490.0 134 160 117 119 127 139 171 214 221 281
3530.0 334 395 461 509 547 572 635 626 696 741
3570.0 915 1137 1447 1833 2271 2612 2889 3096 3152 3097
3610.0 2879 2595 2270 1931 1676 1591 1698 2101 2750 3571
3650.0 3954 3812 3795 3151 2109 1314 823 526 289 207
3690.0 136 89 68 56 38 40 31 50 28 47
3730.0 66 69 48 34 57 57 70 57 62 44
3770.0 33 52 53 38 47 60 53 42 42 56
3810.0 44 81 67 96 89 104 89 88 98 128
3850.0 136 125 142 175 176 197 176 207 210 187
3890.0 172 189 178 167 160 182 186 202 235 248
3930.0 254 258 253 229 183 146 98 58 53 60
##END=
