##TITLE=Carbamic acid, 1-methylethyl ester
##JCAMP-DX=4.24
##DATA TYPE=INFRARED SPECTRUM
##ORIGIN=Sadtler Research Labs Under US-EPA Contract
##OWNER=NIST Standard Reference Data Program
##CAS REGISTRY NO=1746-77-6
##MOLFORM=C 4 H 9 N O 2
##XUNITS=1/CM
##YUNITS=ABSORBANCE
##XFACTOR=1.0
##YFACTOR=0.000085156
##DELTAX=4.0
##FIRSTX=450.0
##LASTX=3966.0
##FIRSTY=0.037298
##MAXX=3966
##MINX=450
##MAXY=0.85156
##MINY=0
##NPOINTS=880
##XYDATA=(X++(Y..Y))
450.0 438 463 457 399 338 302 271 226 217 250
490.0 250 256 228 195 135 151 93 125 122 256
530.0 295 387 440 448 442 442 480 336 355 192
570.0 234 172 156 109 19 78 62 107 37 19
610.0 4 62 38 62 95 76 68 90 94 119
650.0 182 130 206 142 131 256 189 222 223 303
690.0 277 255 242 251 269 307 395 465 598 685
730.0 745 770 804 741 754 490 448 441 510 634
770.0 629 678 702 822 708 718 491 887 761 538
810.0 769 571 619 596 566 440 536 548 510 448
850.0 388 371 350 380 304 327 336 304 312 341
890.0 363 338 370 323 320 326 282 256 243 236
930.0 258 239 271 238 220 226 224 203 200 205
970.0 210 201 217 190 273 275 424 426 600 886
1010.0 1198 1753 2520 3479 3397 5198 3481 3741 2338 1890
1050.0 746 485 355 238 490 263 528 386 692 847
1090.0 1047 1857 1765 2791 2964 3358 3910 4013 3737 3882
1130.0 3286 2867 2327 2057 1846 1589 1347 1094 940 779
1170.0 836 865 846 796 724 655 487 374 319 294
1210.0 300 395 448 519 613 658 777 828 959 1037
1250.0 1156 1203 1426 1415 1374 1274 1260 1247 1187 1242
1290.0 1399 1707 2235 3087 4212 5515 6532 7020 7510 7129
1330.0 6751 5572 4390 3522 3172 3087 3415 3951 4444 4722
1370.0 4708 4820 4408 3819 2580 1761 1283 890 636 450
1410.0 370 293 244 210 249 249 258 242 307 329
1450.0 350 398 361 489 486 516 463 465 404 332
1490.0 236 190 117 104 36 27 72 44 23 68
1530.0 128 136 176 148 253 341 377 437 707 1218
1570.0 1838 2403 2696 2996 3049 2978 2478 1879 1493 1171
1610.0 907 695 483 414 318 269 211 163 183 153
1650.0 133 45 160 160 174 133 165 171 190 136
1690.0 218 230 207 223 326 409 468 502 662 832
1730.0 1058 1398 2047 2934 4128 5501 7091 8294 9661 9800
1770.0 10000 8598 7273 5642 4104 2803 1795 1221 852 686
1810.0 559 500 447 404 349 311 294 271 260 213
1850.0 226 207 196 172 147 101 100 81 65 62
1890.0 44 57 53 63 65 74 84 79 86 85
1930.0 89 79 76 52 51 43 39 37 32 32
1970.0 31 38 31 37 32 32 28 29 30 28
2010.0 26 27 26 21 31 21 21 22 25 23
2050.0 23 30 22 26 20 21 14 15 14 9
2090.0 4 8 11 7 15 15 14 13 26 25
2130.0 32 32 26 32 25 33 25 26 19 19
2170.0 19 21 25 26 30 26 43 37 56 50
2210.0 63 68 77 93 111 134 151 181 205 229
2250.0 242 256 241 222 196 176 212 246 277 280
2290.0 270 228 186 145 121 117 105 96 100 91
2330.0 75 80 56 77 93 99 100 72 96 54
2370.0 56 42 59 58 47 30 29 28 23 28
2410.0 22 22 18 21 12 18 12 7 9 10
2450.0 10 5 17 5 16 12 15 13 13 20
2490.0 16 20 11 16 11 16 16 14 13 8
2530.0 11 13 10 10 15 3 10 4 15 9
2570.0 15 10 7 17 8 22 15 21 15 21
2610.0 19 21 21 26 32 22 27 26 24 30
2650.0 30 33 36 44 39 45 39 44 39 45
2690.0 39 38 36 29 38 28 34 34 33 33
2730.0 45 40 51 49 51 58 52 58 58 52
2770.0 57 63 58 59 64 58 65 62 71 65
2810.0 83 74 78 84 94 92 94 105 116 129
2850.0 130 154 157 187 214 244 287 334 386 412
2890.0 455 449 466 443 455 462 462 487 516 591
2930.0 632 715 793 867 881 861 833 815 821 892
2970.0 1093 1383 1783 2112 2465 2459 2311 1974 1536 1132
3010.0 754 488 308 226 151 136 107 105 90 86
3050.0 89 85 95 79 97 84 105 103 102 106
3090.0 99 112 97 107 97 96 80 89 83 89
3130.0 90 85 92 96 109 84 109 96 92 92
3170.0 95 93 89 100 88 96 82 86 75 76
3210.0 74 70 68 62 70 57 63 58 74 58
3250.0 66 57 59 72 64 75 45 69 57 62
3290.0 53 62 59 70 69 57 71 60 64 58
3330.0 75 70 85 60 73 79 71 76 76 80
3370.0 70 82 75 81 60 76 89 76 95 86
3410.0 114 115 166 187 232 305 379 487 566 622
3450.0 682 777 855 901 851 830 732 648 505 339
3490.0 246 186 176 156 182 187 210 246 274 291
3530.0 315 398 430 513 562 609 636 643 668 659
3570.0 670 729 811 817 814 726 663 562 404 282
3610.0 173 127 93 71 75 63 70 94 79 70
3650.0 26 73 74 78 65 20 22 11 55 49
3690.0 19 34 39 32 33 15 11 26 18 19
3730.0 20 3 6 8 4 4 4 10 22 16
3770.0 37 30 35 32 33 33 42 27 7 18
3810.0 9 17 5 4 35 24 25 3 15 12
3850.0 32 3 26 22 23 11 29 29 4 20
3890.0 35 35 27 28 24 41 44 42 58 58
3930.0 58 58 61 59 67 64 0 4 4 4
##END=
