##TITLE=3-Furoic acid, 5-formyl-2-trifluoromethyl, ethyl ester
##JCAMP-DX=4.24
##DATA TYPE=INFRARED SPECTRUM
##ORIGIN=Sadtler Research Labs Under US-EPA Contract
##OWNER=NIST Standard Reference Data Program
##CAS REGISTRY NO=17515-79-6
##MOLFORM=C 9 H 7 F 3 O 4
##XUNITS=1/CM
##YUNITS=ABSORBANCE
##XFACTOR=1.0
##YFACTOR=0.000135913
##DELTAX=4.0
##FIRSTX=450.0
##LASTX=3966.0
##FIRSTY=0.018892
##MAXX=3966
##MINX=450
##MAXY=1.35913
##MINY=0
##NPOINTS=880
##XYDATA=(X++(Y..Y))
450.0 139 114 92 63 35 109 75 37 66 51
490.0 49 64 47 69 49 84 79 94 82 105
530.0 114 144 145 150 152 170 145 131 108 99
570.0 94 96 85 71 44 49 45 37 38 37
610.0 44 31 60 75 70 48 57 32 30 19
650.0 30 23 15 15 0 39 14 26 31 49
690.0 58 78 83 100 95 98 119 109 131 135
730.0 148 171 315 711 1036 1062 834 635 569 558
770.0 609 758 937 989 841 680 524 395 287 217
810.0 178 156 161 195 249 335 402 429 409 370
850.0 340 314 317 328 302 251 169 103 60 34
890.0 24 17 17 16 18 20 18 19 20 33
930.0 36 42 51 65 76 92 116 158 220 316
970.0 384 443 440 401 334 293 343 440 550 645
1010.0 711 788 920 1146 1491 2033 2729 3295 3432 2968
1050.0 2208 1445 904 634 512 452 438 448 480 538
1090.0 621 730 861 985 1079 1102 1081 1038 1057 1139
1130.0 1269 1440 1635 1840 2084 2422 2959 3864 5297 7116
1170.0 8811 9893 10000 8826 6775 5039 4347 4485 4751 4483
1210.0 3697 2896 2609 2847 3377 3845 3900 3584 3319 3521
1250.0 4085 4537 4520 4006 3284 2596 2165 2054 2116 2168
1290.0 2276 2551 3080 3792 4444 4597 4057 3089 2159 1473
1330.0 992 729 608 558 527 510 520 578 708 807
1370.0 878 904 921 892 805 707 664 697 789 942
1410.0 1135 1339 1403 1336 1144 958 719 551 404 353
1450.0 329 311 325 309 354 368 373 337 300 232
1490.0 195 168 160 143 154 147 148 154 166 197
1530.0 224 304 346 389 402 428 464 507 556 528
1570.0 480 418 413 420 527 694 988 1333 1601 1642
1610.0 1475 1211 920 669 474 389 314 287 260 258
1650.0 213 244 205 205 197 224 240 317 347 406
1690.0 450 533 646 870 1303 2311 3588 4505 4459 3629
1730.0 2811 2337 2365 2732 3234 3472 3329 3043 2795 2445
1770.0 1772 1090 779 623 517 402 301 222 186 161
1810.0 142 123 121 99 99 86 84 85 73 65
1850.0 53 48 41 41 33 33 30 37 37 34
1890.0 34 33 37 38 36 38 35 39 30 31
1930.0 29 27 25 24 22 27 25 23 24 21
1970.0 21 20 21 14 13 7 9 6 7 7
2010.0 9 4 6 7 8 7 9 8 8 7
2050.0 10 9 10 9 11 10 14 12 9 10
2090.0 12 12 12 11 11 11 11 11 10 10
2130.0 9 10 10 11 8 10 12 11 11 12
2170.0 13 14 16 15 17 17 20 22 25 25
2210.0 25 26 25 24 22 21 20 18 17 14
2250.0 13 12 12 10 11 11 13 11 14 15
2290.0 16 20 26 30 33 34 38 37 48 45
2330.0 43 43 44 48 63 61 69 52 54 46
2370.0 49 48 50 49 36 29 25 25 22 19
2410.0 18 15 14 12 10 9 7 4 3 2
2450.0 0 0 2 5 3 2 2 4 3 3
2490.0 3 3 4 4 8 6 8 8 8 7
2530.0 7 7 7 9 10 9 9 11 12 14
2570.0 15 17 17 20 21 21 20 17 17 17
2610.0 18 19 18 18 19 19 22 20 21 21
2650.0 22 22 21 23 23 25 26 32 32 37
2690.0 40 48 58 68 80 86 83 77 73 72
2730.0 83 109 139 162 163 143 119 103 93 86
2770.0 80 77 73 75 79 82 88 102 115 144
2810.0 195 280 376 430 425 381 373 451 599 676
2850.0 589 392 233 167 143 134 136 146 160 171
2890.0 177 173 165 167 173 183 194 198 199 205
2930.0 221 250 286 336 379 391 359 316 300 320
2970.0 359 412 473 572 725 830 799 663 532 454
3010.0 395 348 299 254 214 181 157 136 121 109
3050.0 102 97 95 94 95 91 92 93 90 93
3090.0 92 89 87 87 87 87 90 97 99 107
3130.0 108 110 115 119 118 115 104 87 69 54
3170.0 43 43 39 34 31 28 22 22 22 23
3210.0 19 17 16 16 14 13 15 12 9 12
3250.0 7 9 7 5 5 5 3 4 3 1
3290.0 4 2 2 0 1 2 6 4 6 1
3330.0 5 3 4 5 3 4 6 3 6 6
3370.0 7 7 7 7 6 7 13 14 20 36
3410.0 55 71 74 58 44 28 21 17 12 15
3450.0 14 13 11 16 15 18 17 15 18 17
3490.0 8 9 13 14 11 17 11 2 2 4
3530.0 3 2 5 5 12 1 8 4 17 20
3570.0 40 54 76 87 71 50 23 5 8 6
3610.0 13 7 2 12 5 30 5 7 11 9
3650.0 17 8 15 12 8 24 10 22 15 11
3690.0 12 9 15 16 10 8 10 7 6 17
3730.0 17 17 22 10 35 0 15 5 7 7
3770.0 6 5 7 7 4 9 3 3 9 11
3810.0 7 15 8 13 0 3 11 16 7 11
3850.0 9 31 8 6 9 17 3 11 6 24
3890.0 11 16 10 32 20 13 7 20 6 11
3930.0 14 15 9 16 15 11 17 17 12 11
##END=
