##TITLE=Pyrazole, 5-(2-methyl-2,3-butadienyl)-1,3,4-trimethyl-,
##JCAMP-DX=4.24
##DATA TYPE=INFRARED SPECTRUM
##ORIGIN=Sadtler Research Labs Under US-EPA Contract
##OWNER=NIST Standard Reference Data Program
##CAS REGISTRY NO=17512-08-2
##MOLFORM=C 11 H 16 N 2
##XUNITS=1/CM
##YUNITS=ABSORBANCE
##XFACTOR=1.0
##YFACTOR=0.000045032
##DELTAX=4.0
##FIRSTX=450.0
##LASTX=3966.0
##FIRSTY=0.005989
##MAXX=3966
##MINX=450
##MAXY=0.45032
##MINY=0
##NPOINTS=880
##XYDATA=(X++(Y..Y))
450.0 133 174 246 204 28 118 11 31 41 110
490.0 71 66 70 44 52 71 167 254 286 260
530.0 297 187 164 129 121 185 277 389 481 623
570.0 676 689 637 663 619 566 534 511 487 538
610.0 539 528 520 469 399 313 241 252 323 422
650.0 549 545 455 320 264 230 277 230 207 152
690.0 152 124 119 105 105 101 113 135 167 206
730.0 281 376 470 585 630 661 634 616 577 582
770.0 601 588 527 439 354 290 248 243 233 288
810.0 368 523 670 811 869 948 1078 1570 2726 4328
850.0 5471 5464 4081 2497 1285 733 480 391 378 388
890.0 442 561 702 720 683 526 351 251 196 177
930.0 168 162 168 183 184 201 213 249 295 367
970.0 456 576 700 808 910 955 999 1031 982 882
1010.0 727 548 434 386 373 387 381 347 350 331
1050.0 312 295 289 279 263 270 271 260 259 253
1090.0 266 263 277 310 346 409 498 594 670 722
1130.0 737 728 726 739 733 695 642 585 566 563
1170.0 552 532 494 472 475 501 554 622 692 755
1210.0 815 845 806 727 633 581 558 569 597 630
1250.0 695 831 1081 1431 1742 1873 1783 1540 1405 1494
1290.0 1754 2072 2329 2423 2312 2047 1744 1492 1306 1113
1330.0 943 817 766 797 862 994 1186 1476 1920 2629
1370.0 3410 4168 4520 4393 3972 3447 2847 2333 1807 1534
1410.0 1465 1524 1637 1796 2005 2276 2635 3034 3444 3831
1450.0 4283 4566 4823 4961 4974 5013 4741 4279 3612 3040
1490.0 2480 2046 1722 1457 1319 1192 1076 999 968 911
1530.0 883 845 859 837 835 840 863 905 1012 1116
1570.0 1259 1320 1302 1110 887 685 543 443 384 342
1610.0 305 284 266 240 227 207 216 189 181 174
1650.0 172 167 181 129 151 161 159 173 204 259
1690.0 310 386 500 640 720 737 689 601 499 440
1730.0 393 354 290 241 212 179 182 140 131 103
1770.0 123 94 92 81 90 62 82 72 73 71
1810.0 55 51 47 46 29 36 18 28 13 27
1850.0 17 18 19 26 19 15 21 16 24 20
1890.0 32 28 46 51 59 71 82 104 123 147
1930.0 204 286 422 615 903 1254 1635 1872 1859 1543
1970.0 1051 585 306 185 140 116 103 88 70 64
2010.0 57 51 41 45 38 35 33 37 32 38
2050.0 41 50 54 48 42 47 38 38 34 35
2090.0 32 39 40 43 30 34 33 30 22 28
2130.0 22 21 19 10 18 12 19 13 10 13
2170.0 10 10 16 22 17 19 20 16 19 18
2210.0 19 13 7 10 5 5 5 5 4 4
2250.0 4 10 10 12 19 22 26 29 41 39
2290.0 46 54 49 61 60 69 81 69 83 89
2330.0 79 67 61 64 67 63 80 62 64 49
2370.0 28 33 46 52 37 28 32 34 37 27
2410.0 35 42 43 35 47 53 51 57 53 51
2450.0 55 56 52 58 56 59 57 69 65 63
2490.0 67 74 68 71 76 81 80 76 78 75
2530.0 67 70 64 66 64 70 65 69 69 73
2570.0 73 76 76 78 79 83 85 80 73 78
2610.0 62 66 64 61 70 69 70 76 81 80
2650.0 78 90 87 98 90 105 108 114 119 126
2690.0 130 133 140 153 161 177 190 210 241 287
2730.0 337 379 389 398 408 431 438 423 396 364
2770.0 357 367 374 398 423 452 480 517 556 598
2810.0 671 761 856 958 1069 1190 1335 1508 1705 1894
2850.0 2115 2394 2752 3196 3666 4109 4407 4503 4437 4298
2890.0 4172 4184 4328 4629 5046 5589 6302 7166 8137 9053
2930.0 9754 10000 9862 9415 8832 8171 7306 6196 5076 4158
2970.0 3475 3090 2974 3169 3653 4267 4454 4049 3251 2384
3010.0 1827 1619 1554 1553 1561 1548 1508 1450 1391 1353
3050.0 1324 1339 1360 1306 1190 1001 823 702 630 586
3090.0 541 495 453 410 361 320 283 256 232 212
3130.0 188 176 159 144 137 134 126 112 109 103
3170.0 89 84 85 81 75 74 77 70 69 63
3210.0 67 73 81 69 64 60 60 55 54 56
3250.0 46 50 50 60 62 54 52 51 59 54
3290.0 47 39 40 41 29 34 36 34 33 34
3330.0 29 27 32 20 24 22 21 24 19 25
3370.0 28 27 19 20 16 18 18 16 17 9
3410.0 12 6 13 18 16 18 18 26 28 28
3450.0 16 21 10 20 23 25 16 25 35 25
3490.0 36 25 23 32 23 23 23 27 34 33
3530.0 33 25 26 40 37 24 31 24 27 49
3570.0 45 28 19 33 59 58 51 3 49 24
3610.0 50 10 27 22 22 72 24 21 18 19
3650.0 50 32 29 17 4 48 25 58 2 21
3690.0 46 22 12 26 8 31 45 34 26 54
3730.0 24 64 36 27 80 22 51 11 20 30
3770.0 2 26 1 13 2 21 26 17 19 42
3810.0 11 32 32 18 32 11 34 49 11 23
3850.0 30 80 57 43 41 18 19 51 5 43
3890.0 23 39 0 64 61 25 28 24 33 2
3930.0 45 62 60 45 54 68 58 24 49 36
##END=
