##TITLE=1,2-Bis(3-cyclohexenyl)ethylene
##JCAMP-DX=4.24
##DATA TYPE=INFRARED SPECTRUM
##ORIGIN=Sadtler Research Labs Under US-EPA Contract
##OWNER=NIST Standard Reference Data Program
##CAS REGISTRY NO=17527-28-5
##MOLFORM=C 14 H 20
##XUNITS=1/CM
##YUNITS=ABSORBANCE
##XFACTOR=1.0
##YFACTOR=0.000103061
##DELTAX=4.0
##FIRSTX=450.0
##LASTX=3966.0
##FIRSTY=0.000000
##MAXX=3966
##MINX=450
##MAXY=1.03061
##MINY=0
##NPOINTS=880
##XYDATA=(X++(Y..Y))
450.0 0 33 40 37 38 59 45 19 58 50
490.0 81 73 69 52 65 63 70 72 53 73
530.0 52 58 67 74 44 45 38 55 73 65
570.0 73 62 75 81 92 99 115 115 142 148
610.0 163 199 214 232 269 319 438 626 958 1458
650.0 2038 2372 2295 1963 1630 1256 1036 817 623 474
690.0 381 330 334 331 288 269 279 301 333 387
730.0 432 472 464 436 393 335 289 245 219 179
770.0 150 130 118 102 107 104 95 103 107 106
810.0 118 114 123 123 122 116 105 98 101 99
850.0 111 130 169 212 266 305 308 288 253 234
890.0 236 257 300 364 456 551 605 582 541 532
930.0 527 484 429 412 458 599 841 1164 1497 1692
970.0 1692 1456 1097 760 522 393 321 282 247 226
1010.0 215 220 240 260 299 356 419 476 490 454
1050.0 380 312 264 226 208 211 216 198 171 155
1090.0 152 157 163 169 175 170 171 163 167 189
1130.0 225 280 349 375 332 258 198 166 156 168
1170.0 199 243 279 285 257 225 197 167 147 134
1210.0 122 121 126 139 162 202 257 304 341 352
1250.0 348 324 287 266 257 260 273 278 274 260
1290.0 257 250 255 264 284 300 318 331 353 369
1330.0 381 381 363 354 365 392 423 437 436 415
1370.0 394 364 327 299 298 301 271 214 183 186
1410.0 183 201 215 275 360 533 787 1135 1309 1267
1450.0 1079 946 783 566 388 265 192 142 131 106
1490.0 109 117 114 88 87 80 76 70 66 67
1530.0 58 66 56 60 60 70 71 71 85 86
1570.0 93 94 110 107 125 127 143 165 204 232
1610.0 267 301 325 331 315 319 305 337 408 587
1650.0 843 966 759 413 217 165 127 128 110 119
1690.0 127 150 176 220 231 221 176 135 117 120
1730.0 116 111 93 67 33 18 29 45 71 92
1770.0 110 121 128 129 132 123 120 106 102 93
1810.0 86 79 86 81 86 81 85 85 78 78
1850.0 78 82 84 89 91 99 110 111 108 98
1890.0 94 89 85 82 79 79 80 88 87 84
1930.0 78 71 68 64 64 64 61 63 63 60
1970.0 61 60 58 55 56 55 54 55 56 56
2010.0 55 55 53 52 54 52 50 49 49 49
2050.0 51 50 51 49 51 52 52 55 58 57
2090.0 59 63 70 74 74 68 61 57 54 52
2130.0 51 50 50 50 50 49 51 50 50 50
2170.0 50 49 49 49 52 51 53 55 56 57
2210.0 58 58 57 57 55 57 56 58 57 61
2250.0 59 62 64 61 60 58 58 59 59 57
2290.0 59 57 62 66 68 68 59 52 47 39
2330.0 33 34 33 39 54 41 29 29 40 56
2370.0 64 69 72 67 54 43 35 29 29 26
2410.0 24 19 18 18 21 23 25 26 29 27
2450.0 27 29 31 34 41 43 43 47 50 50
2490.0 43 37 35 35 36 33 34 36 38 35
2530.0 38 38 35 38 39 37 39 41 44 43
2570.0 48 50 55 53 55 57 59 65 68 73
2610.0 77 79 77 79 79 77 79 80 84 95
2650.0 105 123 139 150 153 146 135 123 113 108
2690.0 106 104 108 106 106 107 107 109 112 115
2730.0 112 113 110 104 108 113 123 135 148 173
2770.0 205 222 220 208 200 203 214 225 235 256
2810.0 282 320 373 464 624 889 1316 1961 2800 3654
2850.0 4119 4017 3617 3270 2963 2622 2375 2400 2717 3261
2890.0 3831 4257 4525 4717 4942 5430 6477 7975 9350 10000
2930.0 9297 7891 6608 5617 4553 3413 2612 2133 1846 1669
2970.0 1582 1534 1433 1266 1088 971 906 876 876 903
3010.0 968 1123 1471 2147 3587 6918 8105 6176 2420 1174
3050.0 791 642 618 642 634 564 460 369 317 282
3090.0 249 205 168 139 119 107 100 87 78 70
3130.0 67 62 59 56 53 50 44 44 42 38
3170.0 38 35 34 30 34 33 30 32 28 29
3210.0 31 30 30 27 29 29 31 29 30 30
3250.0 33 33 36 37 41 48 55 61 66 77
3290.0 84 92 85 80 72 68 60 58 55 54
3330.0 46 46 44 42 41 42 42 43 42 40
3370.0 37 37 34 34 41 36 36 31 29 32
3410.0 31 28 31 36 33 36 32 31 32 29
3450.0 30 30 33 26 22 26 20 22 23 27
3490.0 25 26 25 23 19 23 24 24 23 21
3530.0 24 31 32 27 35 28 37 26 30 29
3570.0 36 35 34 24 21 30 25 18 23 18
3610.0 24 21 22 28 25 44 25 26 30 30
3650.0 42 32 30 25 17 30 25 35 26 25
3690.0 27 24 23 20 18 19 28 25 22 21
3730.0 22 19 30 18 40 17 26 18 22 20
3770.0 23 25 24 20 18 18 30 24 29 20
3810.0 26 18 24 35 19 22 19 29 27 29
3850.0 20 29 23 21 20 27 22 20 18 32
3890.0 21 28 30 33 27 30 18 23 18 18
3930.0 25 25 20 26 21 18 18 18 18 18
##END=
