##TITLE=3-Buten-2-one, 4-(m-chlorophenyl)-1-cyclohexyl-,
##JCAMP-DX=4.24
##DATA TYPE=INFRARED SPECTRUM
##ORIGIN=Sadtler Research Labs Under US-EPA Contract
##OWNER=NIST Standard Reference Data Program
##CAS REGISTRY NO=1760-62-9
##MOLFORM=C 16 H 19 Cl O
##XUNITS=1/CM
##YUNITS=ABSORBANCE
##XFACTOR=1.0
##YFACTOR=0.000040451
##DELTAX=4.0
##FIRSTX=450.0
##LASTX=3966.0
##FIRSTY=0.004652
##MAXX=3966
##MINX=450
##MAXY=0.40451
##MINY=0
##NPOINTS=880
##XYDATA=(X++(Y..Y))
450.0 115 35 13 65 110 116 87 147 201 107
490.0 139 109 56 174 170 187 241 276 257 275
530.0 346 380 401 360 369 501 640 761 892 797
570.0 730 673 654 501 333 262 208 177 173 157
610.0 143 156 168 158 174 181 230 267 286 317
650.0 292 328 346 519 687 908 1216 1552 1613 1325
690.0 1118 945 795 662 507 474 399 426 341 353
730.0 400 585 817 794 532 361 295 368 538 948
770.0 1589 2205 2093 1698 1257 868 603 362 248 177
810.0 166 141 149 194 208 193 226 288 363 381
850.0 434 500 590 701 777 816 847 893 962 913
890.0 867 909 915 836 725 573 449 383 364 358
930.0 411 453 456 438 439 480 580 839 1248 1720
970.0 2084 2325 2210 1655 1030 570 468 416 273 260
1010.0 282 370 423 451 564 704 835 991 1304 1701
1050.0 1918 1972 1957 1801 1664 1715 1935 2088 2035 2008
1090.0 2094 2212 2214 1953 1578 1277 1078 959 875 850
1130.0 908 933 923 964 1066 1236 1435 1579 1509 1428
1170.0 1501 1628 1645 1467 1309 1450 1960 2269 2005 1704
1210.0 1422 1076 816 661 632 673 752 787 847 956
1250.0 996 957 902 842 797 836 891 1048 1299 1641
1290.0 1939 2109 2176 2174 2120 1956 1757 1530 1234 1083
1330.0 1022 1054 1141 1200 1258 1307 1203 972 761 674
1370.0 731 735 618 490 446 460 533 686 801 946
1410.0 1066 1262 1486 1459 1615 1471 1135 953 1082 1507
1450.0 1822 1503 1226 1081 1186 1539 1689 1477 1038 644
1490.0 455 261 194 138 130 184 181 165 154 192
1530.0 219 273 260 358 564 703 1001 1352 1944 2228
1570.0 1959 1614 1288 1378 1627 2189 2430 2280 2274 2840
1610.0 3820 4536 4698 4200 3084 2006 1311 995 924 941
1650.0 1094 1257 1594 2034 2279 2436 2646 2928 3198 3619
1690.0 3848 3703 3203 2765 2424 2010 1515 1023 760 612
1730.0 539 453 376 344 335 277 201 210 164 192
1770.0 192 160 175 197 180 184 143 168 165 119
1810.0 95 88 78 63 62 52 44 37 47 43
1850.0 59 48 74 108 115 117 75 53 34 33
1890.0 35 36 32 26 30 20 36 31 74 78
1930.0 100 120 106 101 80 65 56 51 43 52
1970.0 42 36 38 34 42 55 44 39 33 34
2010.0 33 37 48 37 28 35 29 33 35 31
2050.0 30 27 27 30 37 28 31 22 26 26
2090.0 31 31 31 31 26 30 28 32 28 29
2130.0 29 31 31 24 30 32 39 35 35 41
2170.0 46 53 50 49 47 42 41 39 36 31
2210.0 28 32 38 36 31 32 35 33 32 38
2250.0 39 38 35 36 42 37 35 55 56 80
2290.0 98 107 128 139 150 161 151 146 148 102
2330.0 118 101 83 111 146 120 184 136 153 143
2370.0 118 100 120 105 89 57 32 28 29 27
2410.0 24 16 19 22 13 17 19 20 12 10
2450.0 15 11 24 19 22 25 27 30 33 31
2490.0 33 40 30 30 28 38 40 34 39 41
2530.0 41 40 42 38 37 37 45 50 52 51
2570.0 47 49 58 71 78 77 79 87 89 88
2610.0 89 92 90 87 83 96 94 105 113 127
2650.0 143 156 174 186 190 192 172 169 155 137
2690.0 132 134 139 142 146 144 151 145 154 151
2730.0 137 138 130 122 134 139 142 153 160 177
2770.0 194 216 237 260 297 335 363 391 408 429
2810.0 450 485 527 591 680 808 1019 1377 1873 2497
2850.0 3154 3607 3700 3737 3545 2894 2320 2047 1991 2074
2890.0 2283 2588 2981 3424 3924 4502 5249 6256 7342 8468
2930.0 9550 10000 9264 7899 6142 4153 2740 1893 1321 961
2970.0 729 567 432 335 273 227 204 189 171 176
3010.0 199 228 263 291 324 364 416 459 477 483
3050.0 448 439 478 537 593 611 580 521 436 350
3090.0 304 270 215 160 117 96 74 73 70 52
3130.0 57 44 54 54 49 53 61 62 57 45
3170.0 36 31 23 23 32 30 28 24 19 34
3210.0 28 21 19 21 27 14 37 28 30 36
3250.0 35 24 38 27 37 44 38 39 40 41
3290.0 42 57 51 61 48 46 53 60 51 59
3330.0 63 68 59 69 70 66 63 68 72 72
3370.0 84 69 73 66 61 78 83 84 61 53
3410.0 66 52 45 53 49 47 45 41 55 59
3450.0 69 40 46 59 58 58 47 52 53 60
3490.0 48 63 50 73 74 60 76 65 64 101
3530.0 67 47 61 69 101 88 67 100 76 137
3570.0 110 79 80 91 110 114 79 77 84 65
3610.0 87 97 88 87 75 87 63 75 74 68
3650.0 86 59 86 62 89 93 57 41 70 91
3690.0 14 93 73 91 82 49 79 97 87 139
3730.0 70 72 96 111 0 37 34 75 83 81
3770.0 79 75 72 52 84 74 96 19 47 7
3810.0 72 55 38 21 55 52 51 36 56 72
3850.0 54 13 45 80 61 43 41 59 126 85
3890.0 116 36 106 66 124 60 99 101 95 82
3930.0 86 117 53 57 73 106 88 97 132 91
##END=
