##TITLE=Oxirane, 2,3-diphenyl-
##JCAMP-DX=4.24
##DATA TYPE=INFRARED SPECTRUM
##ORIGIN=Sadtler Research Labs Under US-EPA Contract
##OWNER=NIST Standard Reference Data Program
##CAS REGISTRY NO=17619-97-5
##MOLFORM=C 14 H 12 O
##XUNITS=1/CM
##YUNITS=ABSORBANCE
##XFACTOR=1.0
##YFACTOR=0.000043994
##DELTAX=4.0
##FIRSTX=450.0
##LASTX=3966.0
##FIRSTY=0.000000
##MAXX=3966
##MINX=450
##MAXY=0.43994
##MINY=0
##NPOINTS=880
##XYDATA=(X++(Y..Y))
450.0 0 171 298 223 322 257 284 390 345 409
490.0 399 424 435 432 490 540 721 910 1233 1575
530.0 1572 1337 943 633 464 384 400 393 425 448
570.0 497 556 797 1318 1877 2004 1663 1062 610 484
610.0 561 600 564 496 425 420 458 512 583 664
650.0 609 586 649 768 873 1240 1365 1595 1862 2798
690.0 5340 8506 10000 8151 4780 2973 2288 2116 2284 2640
730.0 3157 3963 5237 6219 6220 5015 3797 2996 2200 1424
770.0 995 772 561 472 438 485 508 506 470 434
810.0 384 351 358 369 394 428 508 563 549 500
850.0 501 623 848 1156 1434 1508 1365 1118 949 984
890.0 1266 1775 2295 2541 2334 1975 1576 1278 1055 842
930.0 613 443 381 354 344 334 351 366 392 406
970.0 397 419 429 453 456 453 462 463 480 479
1010.0 488 567 794 1206 1562 1552 1265 863 711 726
1050.0 752 733 664 632 686 775 882 877 712 563
1090.0 464 422 426 431 437 389 339 291 241 227
1130.0 196 196 226 249 291 344 389 449 486 577
1170.0 771 1062 1262 1238 970 716 559 484 454 434
1210.0 437 449 452 475 490 518 559 582 599 634
1250.0 671 716 757 792 809 821 800 737 654 581
1290.0 541 534 548 593 674 725 749 735 717 712
1330.0 720 686 653 615 613 700 966 1664 2320 2325
1370.0 1962 1419 996 813 749 773 881 1098 1371 1561
1410.0 1528 1282 927 659 534 510 548 679 899 1294
1450.0 1684 1837 1536 1118 789 592 518 487 544 705
1490.0 1090 1673 1994 1762 1284 730 421 327 309 304
1530.0 311 347 339 326 286 266 260 263 267 270
1570.0 312 350 435 507 588 649 736 875 1047 1120
1610.0 1009 777 540 369 299 269 259 254 253 263
1650.0 268 305 304 336 370 421 474 532 563 621
1690.0 659 736 785 777 684 600 558 550 547 594
1730.0 694 844 953 1014 1013 899 755 626 541 490
1770.0 472 432 381 358 358 411 514 605 634 587
1810.0 497 416 372 341 313 283 263 256 249 246
1850.0 245 251 269 300 331 375 414 436 443 455
1890.0 456 434 400 354 313 291 272 266 275 291
1930.0 333 394 478 555 579 543 519 511 474 402
1970.0 317 262 238 235 230 218 213 210 209 210
2010.0 211 209 206 209 199 197 195 198 193 196
2050.0 200 193 191 194 202 197 200 203 201 202
2090.0 194 195 201 204 208 206 211 213 214 223
2130.0 221 232 242 256 253 246 241 228 224 213
2170.0 213 214 212 215 214 206 206 207 206 209
2210.0 210 208 202 196 206 209 207 212 218 220
2250.0 228 225 220 221 221 224 231 233 232 230
2290.0 217 206 196 195 209 227 245 247 242 233
2330.0 239 242 242 233 215 206 208 200 186 187
2370.0 187 186 186 188 187 186 187 193 189 189
2410.0 189 193 194 183 178 179 186 182 186 189
2450.0 193 187 185 182 178 179 180 177 174 177
2490.0 181 172 176 181 178 176 184 174 177 179
2530.0 170 171 166 168 171 176 167 166 167 169
2570.0 165 171 176 184 182 184 186 191 202 203
2610.0 210 201 199 190 187 193 192 186 188 186
2650.0 183 186 185 191 187 192 193 191 195 200
2690.0 193 197 202 210 230 246 260 260 261 250
2730.0 235 228 219 213 213 212 211 213 211 220
2770.0 211 216 222 222 238 236 248 274 282 302
2810.0 313 313 300 276 259 245 238 234 242 243
2850.0 250 268 277 287 304 307 315 311 328 320
2890.0 332 341 346 351 359 368 364 378 399 425
2930.0 455 474 509 557 598 652 733 886 1132 1503
2970.0 2022 2669 3196 3350 3111 2596 1985 1465 1128 980
3010.0 963 1034 1179 1450 1915 2575 3210 3518 3334 2872
3050.0 2448 2307 2451 2867 3559 4288 4475 4002 3148 2476
3090.0 2238 2131 1888 1513 1211 1010 888 769 640 490
3130.0 383 307 275 253 239 241 246 243 264 266
3170.0 257 245 231 207 198 201 203 198 196 196
3210.0 198 203 190 185 188 185 187 183 183 184
3250.0 186 188 186 177 194 192 182 190 185 184
3290.0 187 191 187 186 189 179 169 179 175 183
3330.0 177 180 184 175 188 174 176 186 188 184
3370.0 186 201 195 186 181 197 193 195 197 188
3410.0 188 185 194 196 195 208 198 197 190 198
3450.0 200 191 198 213 195 192 198 180 186 173
3490.0 193 192 184 182 197 190 191 194 195 186
3530.0 179 185 176 186 180 174 193 187 199 201
3570.0 218 221 224 215 222 211 207 211 193 180
3610.0 189 192 182 178 169 185 174 172 189 190
3650.0 200 198 196 192 188 173 173 188 175 169
3690.0 174 166 178 178 182 176 181 174 189 166
3730.0 171 166 171 166 190 166 174 168 175 176
3770.0 170 177 178 164 175 211 202 191 210 239
3810.0 227 220 231 236 230 211 222 223 210 203
3850.0 184 220 203 205 191 212 187 185 202 201
3890.0 192 217 194 220 217 202 201 213 203 198
3930.0 209 242 218 227 218 217 237 192 232 234
##END=
