##TITLE=Methanol, tri-2-norbornyl-,
##JCAMP-DX=4.24
##DATA TYPE=INFRARED SPECTRUM
##ORIGIN=Sadtler Research Labs Under US-EPA Contract
##OWNER=NIST Standard Reference Data Program
##CAS REGISTRY NO=17687-75-1
##MOLFORM=C 22 H 34 N
##XUNITS=1/CM
##YUNITS=ABSORBANCE
##XFACTOR=1.0
##YFACTOR=0.000095108
##DELTAX=4.0
##FIRSTX=450.0
##LASTX=3966.0
##FIRSTY=0.054782
##MAXX=3966
##MINX=450
##MAXY=0.95108
##MINY=0
##NPOINTS=880
##XYDATA=(X++(Y..Y))
450.0 576 326 258 151 356 161 225 248 132 279
490.0 240 233 245 206 210 204 283 217 155 184
530.0 146 152 187 114 172 202 209 247 96 147
570.0 146 220 214 190 237 161 173 218 169 227
610.0 204 190 240 153 193 154 151 162 155 164
650.0 146 147 164 140 125 137 141 204 130 151
690.0 78 39 110 122 141 137 113 119 134 152
730.0 136 140 161 122 284 258 200 187 204 223
770.0 175 198 168 154 171 163 165 165 155 202
810.0 242 217 236 250 252 239 265 269 268 261
850.0 251 268 262 265 274 271 278 280 257 249
890.0 207 166 140 102 113 90 115 101 84 127
930.0 104 124 119 86 140 137 91 96 83 55
970.0 50 97 103 100 108 130 142 159 164 177
1010.0 173 206 244 232 242 229 221 196 182 177
1050.0 134 133 124 138 183 165 191 248 299 357
1090.0 375 352 336 299 278 255 257 228 262 196
1130.0 183 173 197 179 240 249 275 273 240 239
1170.0 231 209 195 167 174 139 141 153 155 193
1210.0 179 182 176 115 65 58 28 30 8 19
1250.0 58 85 118 172 184 208 230 251 247 326
1290.0 333 351 399 399 393 338 306 271 213 199
1330.0 175 161 164 161 147 164 157 143 185 178
1370.0 141 178 195 157 190 167 145 132 129 129
1410.0 117 141 134 153 122 151 156 175 227 258
1450.0 388 480 581 479 361 269 242 279 287 233
1490.0 202 148 111 124 209 227 182 134 108 118
1530.0 68 105 74 77 65 89 95 52 88 61
1570.0 74 93 42 88 60 55 72 91 92 74
1610.0 107 72 76 75 48 63 35 39 55 36
1650.0 54 45 88 73 63 72 41 104 61 80
1690.0 68 65 44 57 72 57 77 85 69 40
1730.0 71 92 72 51 69 69 73 55 70 76
1770.0 76 87 81 64 77 74 46 64 60 56
1810.0 67 31 64 47 75 47 54 52 48 60
1850.0 50 53 52 27 37 37 42 45 31 40
1890.0 32 39 41 36 38 31 30 36 45 36
1930.0 39 44 42 41 40 45 27 44 30 26
1970.0 43 29 19 39 43 43 39 28 19 45
2010.0 39 41 50 27 34 29 20 32 30 37
2050.0 33 33 30 23 60 45 38 54 46 35
2090.0 45 48 46 30 45 54 43 33 25 32
2130.0 35 40 33 25 43 39 33 29 35 49
2170.0 39 25 52 36 35 39 48 39 42 39
2210.0 49 44 31 27 36 36 33 40 42 44
2250.0 37 31 38 35 45 38 46 42 51 54
2290.0 43 59 51 56 64 56 58 37 32 37
2330.0 3 18 2 58 2 87 0 28 3 22
2370.0 29 30 51 66 59 53 52 50 48 54
2410.0 45 56 59 53 55 58 53 53 53 53
2450.0 47 49 51 49 49 43 51 49 48 47
2490.0 47 48 45 49 55 51 53 47 53 57
2530.0 55 48 52 52 58 65 68 63 67 65
2570.0 69 70 70 69 70 71 69 69 67 74
2610.0 65 66 67 66 60 63 65 68 64 60
2650.0 63 66 68 67 64 71 69 65 76 75
2690.0 73 76 77 79 75 77 79 82 82 75
2730.0 78 76 80 79 80 86 92 91 94 103
2770.0 108 98 101 104 104 102 104 110 108 109
2810.0 124 123 131 138 146 160 191 227 266 316
2850.0 341 395 460 626 940 1468 2208 2767 2667 2068
2890.0 1520 1223 1078 1052 1082 1176 1332 1520 1737 1975
2930.0 2194 2377 2572 2859 3421 4790 7510 10000 8927 6387
2970.0 4060 2727 1999 1510 1164 984 871 751 635 523
3010.0 453 393 341 288 261 230 217 220 225 227
3050.0 215 194 182 168 138 119 108 98 95 93
3090.0 99 93 93 89 88 85 91 84 81 88
3130.0 82 83 80 78 70 80 83 74 73 82
3170.0 80 83 85 79 75 81 84 73 72 80
3210.0 81 83 69 74 69 85 84 91 89 84
3250.0 87 80 84 88 75 87 89 92 84 80
3290.0 85 84 84 91 91 80 89 90 86 88
3330.0 90 106 102 89 98 84 97 95 98 99
3370.0 97 96 98 102 103 106 109 106 99 97
3410.0 97 103 107 107 102 95 96 109 109 94
3450.0 102 93 109 94 92 100 93 93 99 95
3490.0 89 83 88 94 105 84 81 89 87 91
3530.0 78 93 77 80 84 95 75 68 80 85
3570.0 95 90 82 108 67 114 73 82 56 88
3610.0 84 90 75 63 83 79 100 89 89 66
3650.0 79 27 93 47 92 56 76 70 65 73
3690.0 44 107 52 95 95 88 96 104 78 98
3730.0 98 83 98 90 113 52 109 74 89 83
3770.0 99 98 76 88 103 122 102 84 86 65
3810.0 126 67 106 80 143 118 121 86 103 117
3850.0 104 134 80 135 75 81 114 104 120 130
3890.0 85 108 104 151 116 133 54 115 116 98
3930.0 80 98 102 102 115 120 107 101 138 110
##END=
