##TITLE=2-Propanone, 1,1,1,3,3-pentachloro-
##JCAMP-DX=4.24
##DATA TYPE=INFRARED SPECTRUM
##ORIGIN=Sadtler Research Labs Under US-EPA Contract
##OWNER=NIST Standard Reference Data Program
##CAS REGISTRY NO=1768-31-6
##MOLFORM=C 3 H Cl 5 O
##XUNITS=1/CM
##YUNITS=ABSORBANCE
##XFACTOR=1.0
##YFACTOR=0.000062289
##DELTAX=4.0
##FIRSTX=450.0
##LASTX=3966.0
##FIRSTY=0.028778
##MAXX=3966
##MINX=450
##MAXY=0.62289
##MINY=0
##NPOINTS=880
##XYDATA=(X++(Y..Y))
450.0 462 254 241 104 310 118 278 161 221 141
490.0 162 176 146 180 154 258 235 301 332 375
530.0 369 287 312 163 197 155 213 137 203 218
570.0 124 176 122 255 130 274 300 243 272 318
610.0 376 332 471 503 726 941 1493 2068 2807 3510
650.0 3816 3833 3478 4053 4623 6122 7220 7781 6809 5005
690.0 2777 1246 573 524 383 466 404 430 446 428
730.0 401 370 418 411 490 504 553 451 405 374
770.0 358 302 572 618 687 709 672 686 706 758
810.0 896 1135 1633 2400 3529 5052 6828 8744 10000 9933
850.0 8397 6528 5351 4576 3915 3284 2842 2467 2012 1503
890.0 1037 695 487 328 254 165 132 102 94 81
930.0 62 58 32 37 21 20 3 11 0 5
970.0 9 23 30 20 34 36 39 24 32 22
1010.0 35 55 67 108 141 209 275 360 438 551
1050.0 696 930 1296 1738 2092 2138 1737 1066 523 283
1090.0 227 219 240 261 256 255 229 202 171 150
1130.0 134 125 137 136 147 131 136 113 106 108
1170.0 123 134 143 149 148 177 234 374 593 848
1210.0 1035 1049 849 568 330 194 143 139 157 168
1250.0 190 181 167 164 183 243 357 551 752 835
1290.0 730 497 284 194 163 153 151 146 131 105
1330.0 88 73 60 61 66 75 68 74 62 68
1370.0 66 71 70 71 71 65 71 60 62 55
1410.0 54 57 50 51 60 51 49 38 43 39
1450.0 36 36 28 47 51 54 40 31 44 37
1490.0 25 30 27 25 12 17 23 17 12 24
1530.0 29 25 23 2 26 27 30 1 12 24
1570.0 28 19 21 26 34 30 36 34 32 36
1610.0 30 34 20 32 24 35 25 19 32 23
1650.0 12 11 31 37 29 30 8 45 20 27
1690.0 34 46 26 47 66 98 121 135 202 240
1730.0 309 352 450 529 632 718 801 890 909 993
1770.0 1065 1291 1653 2374 3276 4061 4016 3095 1891 931
1810.0 478 316 268 219 190 131 111 75 66 34
1850.0 43 36 33 29 26 20 18 26 22 23
1890.0 15 23 27 20 26 23 28 31 37 39
1930.0 38 32 25 21 14 22 16 21 16 17
1970.0 14 13 13 14 12 9 8 10 10 5
2010.0 9 9 10 10 9 11 8 10 10 11
2050.0 10 11 13 13 16 12 18 17 19 12
2090.0 13 14 13 12 11 9 10 12 9 14
2130.0 10 12 14 13 16 13 17 10 12 13
2170.0 14 6 10 10 8 10 8 7 4 8
2210.0 5 6 11 10 11 8 6 8 10 8
2250.0 9 7 4 9 10 11 11 13 14 16
2290.0 13 15 18 19 25 28 23 27 23 20
2330.0 20 14 20 22 22 28 18 31 30 15
2370.0 15 13 19 20 20 17 17 14 12 17
2410.0 15 13 11 10 10 7 12 8 10 12
2450.0 10 10 12 14 12 11 12 14 16 14
2490.0 17 20 22 18 16 17 12 14 11 17
2530.0 12 16 18 15 12 15 18 14 14 12
2570.0 10 8 9 11 10 10 2 3 0 5
2610.0 3 9 3 5 6 5 5 2 6 6
2650.0 8 4 3 8 10 11 7 10 7 13
2690.0 9 9 7 4 9 5 9 5 8 3
2730.0 6 8 7 6 8 7 9 8 6 6
2770.0 11 4 9 8 15 13 13 14 17 17
2810.0 17 18 20 24 23 25 29 33 37 49
2850.0 45 50 54 53 53 43 32 27 26 23
2890.0 26 22 26 23 18 18 23 23 19 23
2930.0 23 25 25 35 45 44 53 49 57 54
2970.0 47 46 43 44 44 55 65 77 70 64
3010.0 62 68 94 129 172 181 153 99 56 33
3050.0 27 18 22 18 21 20 21 24 18 18
3090.0 14 11 12 12 14 14 11 5 14 13
3130.0 11 14 10 9 7 17 20 12 8 11
3170.0 10 11 11 11 12 9 15 9 7 10
3210.0 14 14 9 10 13 15 10 15 11 17
3250.0 14 10 10 15 11 11 12 13 17 14
3290.0 14 16 14 14 14 15 14 11 9 14
3330.0 17 19 13 16 12 5 11 15 15 12
3370.0 14 13 13 9 16 19 12 16 16 18
3410.0 25 15 15 17 9 13 12 21 16 24
3450.0 26 23 23 23 26 12 24 16 28 28
3490.0 30 32 31 38 42 47 47 49 60 69
3530.0 73 69 62 70 75 85 73 83 87 84
3570.0 85 68 74 87 67 44 43 48 33 30
3610.0 27 37 18 17 29 8 23 21 23 15
3650.0 6 21 13 23 22 15 26 3 26 25
3690.0 30 20 30 30 25 27 13 28 26 27
3730.0 32 29 38 34 8 16 5 28 19 25
3770.0 31 38 51 45 32 25 30 30 22 20
3810.0 27 31 47 20 40 27 21 6 23 24
3850.0 33 10 20 34 46 21 42 24 21 36
3890.0 36 21 39 50 32 30 38 25 39 24
3930.0 25 40 48 35 43 33 46 31 26 23
##END=
