##TITLE=1,4-Dioxaspiro[4.5]decane
##JCAMP-DX=4.24
##DATA TYPE=INFRARED SPECTRUM
##ORIGIN=Sadtler Research Labs Under US-EPA Contract
##OWNER=NIST Standard Reference Data Program
##CAS REGISTRY NO=177-10-6
##MOLFORM=C 8 H 14 O 2
##XUNITS=1/CM
##YUNITS=ABSORBANCE
##XFACTOR=1.0
##YFACTOR=0.000077100
##DELTAX=4.0
##FIRSTX=450.0
##LASTX=3966.0
##FIRSTY=0.003701
##MAXX=3966
##MINX=450
##MAXY=0.771
##MINY=0
##NPOINTS=880
##XYDATA=(X++(Y..Y))
450.0 48 100 33 3 33 105 204 276 271 313
490.0 241 242 180 128 82 80 70 106 116 128
530.0 87 83 49 54 47 36 13 38 18 46
570.0 32 53 34 72 36 61 26 49 28 64
610.0 57 82 59 75 67 74 100 148 159 197
650.0 206 241 208 195 134 146 127 109 111 87
690.0 80 78 77 71 75 62 62 51 63 41
730.0 61 61 74 63 94 64 125 147 199 207
770.0 223 178 151 90 86 65 84 68 79 81
810.0 118 164 222 273 361 382 411 483 514 531
850.0 423 340 232 150 112 98 81 99 112 131
890.0 146 200 270 393 540 745 992 1249 1508 1784
930.0 1926 1858 1776 1454 1075 753 510 315 208 189
970.0 164 166 151 164 161 169 176 195 196 214
1010.0 224 255 291 381 555 863 1349 1890 2305 2443
1050.0 2243 1787 1257 973 882 842 845 881 979 1139
1090.0 1488 2201 3406 5046 6244 6549 5944 4769 3087 1741
1130.0 1174 943 883 877 925 1055 1401 1807 2093 2181
1170.0 2025 1659 1171 811 637 525 466 413 406 422
1210.0 462 523 594 669 725 751 734 712 678 687
1250.0 662 663 618 591 578 709 976 1300 1464 1468
1290.0 1277 978 589 351 230 193 197 236 303 426
1330.0 548 622 646 625 554 543 628 860 1075 1153
1370.0 1112 998 709 421 264 184 138 138 121 121
1410.0 143 144 186 215 260 321 396 526 614 743
1450.0 843 918 903 800 668 542 470 336 234 175
1490.0 168 115 117 72 98 85 70 67 91 69
1530.0 63 67 68 92 77 54 60 82 72 40
1570.0 75 51 65 53 48 55 54 40 41 57
1610.0 49 53 61 43 42 41 51 61 48 61
1650.0 52 93 49 53 39 63 59 60 63 88
1690.0 65 83 92 116 98 112 150 214 245 295
1730.0 324 376 355 351 319 259 187 148 115 101
1770.0 91 97 74 69 62 65 72 65 65 59
1810.0 59 70 81 97 136 142 131 107 100 67
1850.0 59 52 58 58 65 65 65 56 64 43
1890.0 49 49 49 40 39 32 43 31 32 30
1930.0 34 34 41 38 26 31 30 38 38 43
1970.0 50 57 70 71 74 70 68 60 49 36
2010.0 27 29 32 30 30 32 29 31 30 32
2050.0 33 41 35 56 48 51 49 50 56 48
2090.0 55 48 43 40 39 39 33 42 35 42
2130.0 35 35 42 49 36 47 42 39 39 38
2170.0 40 30 28 23 22 22 16 22 29 20
2210.0 16 16 15 15 28 16 16 16 15 15
2250.0 22 15 22 14 26 21 24 25 42 40
2290.0 41 33 47 27 29 28 31 29 36 16
2330.0 28 29 4 13 27 33 41 45 92 38
2370.0 49 20 29 31 20 15 14 13 14 14
2410.0 13 15 21 15 12 13 10 8 8 8
2450.0 0 0 1 8 7 14 6 12 11 15
2490.0 12 14 10 9 9 8 10 15 16 16
2530.0 11 13 17 17 17 17 17 17 23 18
2570.0 18 17 17 17 25 22 29 27 29 32
2610.0 36 32 38 32 38 32 39 30 34 38
2650.0 54 56 82 91 116 128 137 123 123 104
2690.0 103 86 85 74 61 48 57 41 43 36
2730.0 36 30 42 38 35 47 51 46 54 62
2770.0 71 68 84 89 90 110 108 124 134 139
2810.0 141 159 172 201 231 262 289 342 409 520
2850.0 716 1102 1588 1980 2492 2898 3238 3393 3376 3194
2890.0 2814 2375 2014 1804 1694 1681 1715 1823 2115 2703
2930.0 3638 5006 6832 8944 9915 10000 8457 6910 4847 3283
2970.0 2305 1775 1551 1449 1362 1217 1055 849 694 561
3010.0 470 380 320 254 218 175 143 130 107 86
3050.0 89 69 82 62 71 65 59 48 40 35
3090.0 43 36 43 32 38 38 38 32 29 34
3130.0 39 35 35 39 24 25 28 20 27 28
3170.0 13 29 11 23 10 16 10 23 17 27
3210.0 11 28 17 30 24 30 28 42 33 35
3250.0 19 30 24 25 10 32 19 30 14 30
3290.0 25 33 23 32 29 30 26 34 26 34
3330.0 8 20 17 16 11 9 13 15 18 15
3370.0 26 9 16 9 17 14 18 11 27 10
3410.0 16 4 10 16 24 0 30 18 31 12
3450.0 19 11 34 28 33 17 29 26 40 13
3490.0 26 15 26 21 27 18 24 31 28 35
3530.0 32 32 24 15 22 42 25 22 25 24
3570.0 30 17 12 17 14 29 31 24 23 33
3610.0 22 25 12 25 17 42 1 19 7 18
3650.0 32 32 14 20 9 32 12 36 16 25
3690.0 28 37 26 28 29 35 42 46 40 46
3730.0 34 57 61 52 68 57 56 50 57 50
3770.0 52 42 52 33 50 43 48 42 49 39
3810.0 46 26 53 46 34 25 31 29 30 26
3850.0 50 53 49 40 41 35 47 29 40 34
3890.0 41 24 26 19 31 28 30 41 57 57
3930.0 63 69 68 63 71 79 6 12 12 13
##END=
