##TITLE=1,2,3-Trichloro-4-nitrobenzene
##JCAMP-DX=4.24
##DATA TYPE=INFRARED SPECTRUM
##ORIGIN=Sadtler Research Labs Under US-EPA Contract
##OWNER=NIST Standard Reference Data Program
##CAS REGISTRY NO=17700-09-3
##MOLFORM=C 6 H 2 Cl 3 N O 2
##XUNITS=1/CM
##YUNITS=ABSORBANCE
##XFACTOR=1.0
##YFACTOR=0.000048599
##DELTAX=4.0
##FIRSTX=450.0
##LASTX=3966.0
##FIRSTY=0.027313
##MAXX=3966
##MINX=450
##MAXY=0.48599
##MINY=0
##NPOINTS=880
##XYDATA=(X++(Y..Y))
450.0 562 469 539 0 87 241 485 250 219 196
490.0 200 228 308 627 492 660 573 509 395 146
530.0 238 147 121 160 287 323 502 606 771 1084
570.0 1623 1641 1479 820 628 572 602 658 542 384
610.0 395 423 385 337 265 185 152 124 143 74
650.0 123 75 172 55 133 168 111 87 171 108
690.0 126 108 107 147 170 214 210 222 313 330
730.0 477 616 857 1112 1240 1362 1309 1362 1876 2654
770.0 3148 2919 1927 1206 1129 1471 1696 1749 1482 1241
810.0 1289 1572 2358 2673 2078 1200 772 404 307 264
850.0 260 301 320 373 413 507 586 717 1031 1709
890.0 2892 3813 3887 3004 1566 672 376 267 237 216
930.0 201 180 133 149 128 128 111 96 89 75
970.0 63 46 32 52 54 40 48 48 56 60
1010.0 68 50 53 65 66 79 85 62 96 75
1050.0 79 89 75 80 72 107 90 99 126 124
1090.0 175 181 180 179 177 208 231 264 332 422
1130.0 579 781 895 894 793 708 805 1131 1773 2560
1170.0 3097 3102 2728 2240 1920 1645 1164 724 506 391
1210.0 339 308 304 329 346 393 428 484 641 794
1250.0 935 952 786 580 383 304 282 267 288 275
1290.0 325 365 400 469 516 586 699 793 1007 1289
1330.0 1746 2531 3735 5449 7446 9197 10000 9339 7617 5876
1370.0 4781 4119 3281 2367 1666 1338 1236 1113 1028 870
1410.0 779 818 1030 1702 2736 4183 4928 4192 2710 1238
1450.0 546 514 455 418 395 364 417 392 460 467
1490.0 519 621 656 882 983 1258 1504 1723 2264 2640
1530.0 3267 4263 5124 6504 7545 8388 9036 9121 9518 9112
1570.0 8808 8012 6815 6020 4868 3846 2862 2078 1507 1130
1610.0 933 726 671 508 449 443 410 460 414 380
1650.0 396 282 270 152 177 177 136 167 137 179
1690.0 128 121 158 128 105 77 84 112 74 65
1730.0 106 91 123 103 101 144 145 180 169 149
1770.0 135 114 85 67 65 80 58 86 43 59
1810.0 64 28 53 37 60 62 49 59 47 79
1850.0 56 62 81 71 113 123 156 195 218 215
1890.0 198 139 121 90 74 72 71 70 62 57
1930.0 61 53 71 73 70 73 68 79 77 73
1970.0 75 67 59 59 53 52 50 50 45 43
2010.0 51 42 48 48 45 44 41 42 41 45
2050.0 43 45 49 40 43 48 43 43 32 28
2090.0 28 30 32 39 35 45 44 49 47 42
2130.0 45 44 47 43 41 55 52 53 55 61
2170.0 55 55 52 54 45 47 51 48 45 44
2210.0 51 44 49 54 55 54 54 50 54 47
2250.0 44 49 51 58 60 82 83 86 91 97
2290.0 103 109 125 136 145 157 155 135 132 113
2330.0 101 99 83 107 78 155 116 119 97 67
2370.0 128 98 106 111 92 62 46 31 34 34
2410.0 37 42 50 54 59 62 61 73 70 61
2450.0 58 57 60 62 64 69 65 67 70 77
2490.0 80 88 99 104 99 92 84 72 62 54
2530.0 51 48 53 53 43 43 40 40 30 25
2570.0 35 31 28 32 29 37 37 37 44 35
2610.0 38 50 53 47 46 45 52 56 55 66
2650.0 68 70 67 70 66 74 83 88 95 104
2690.0 118 124 134 136 123 106 95 87 89 80
2730.0 81 81 82 92 94 88 78 73 75 66
2770.0 59 53 53 55 56 55 61 63 69 67
2810.0 66 62 59 52 45 55 62 64 70 79
2850.0 87 90 99 115 109 133 151 147 160 184
2890.0 201 221 225 235 227 209 208 202 193 178
2930.0 168 153 138 129 116 100 90 89 89 77
2970.0 85 81 63 68 70 72 68 64 68 77
3010.0 64 67 75 65 55 52 50 50 46 46
3050.0 45 52 56 64 56 58 74 85 110 113
3090.0 102 93 74 58 50 50 57 55 50 50
3130.0 63 66 70 57 52 53 46 37 39 36
3170.0 49 44 53 48 45 47 35 38 52 39
3210.0 50 64 58 49 57 53 64 61 64 60
3250.0 54 61 54 59 66 71 76 66 65 62
3290.0 48 54 61 57 48 49 56 53 64 46
3330.0 54 58 49 50 39 27 33 36 30 44
3370.0 40 41 30 32 43 37 46 46 24 39
3410.0 26 47 39 48 61 47 59 74 55 62
3450.0 65 60 67 76 61 67 62 73 70 70
3490.0 84 85 92 91 83 75 72 86 79 90
3530.0 85 69 72 93 91 96 97 87 95 102
3570.0 96 77 72 56 91 74 83 70 80 68
3610.0 96 72 45 75 72 78 52 45 65 83
3650.0 73 131 25 96 48 104 107 102 105 72
3690.0 136 66 94 100 118 105 91 89 116 82
3730.0 93 117 120 165 170 213 112 131 90 128
3770.0 110 83 74 90 95 72 67 122 105 143
3810.0 66 125 63 93 25 78 48 97 49 50
3850.0 110 101 87 29 83 39 24 66 50 88
3890.0 18 57 82 68 84 117 76 47 53 24
3930.0 73 66 55 113 91 118 166 180 144 194
##END=
