##TITLE=Benzene, 1-bromo-2,4-dimethoxy-
##JCAMP-DX=4.24
##DATA TYPE=INFRARED SPECTRUM
##ORIGIN=Sadtler Research Labs Under US-EPA Contract
##OWNER=NIST Standard Reference Data Program
##CAS REGISTRY NO=17715-69-4
##MOLFORM=C 8 H 9 Br O 2
##XUNITS=1/CM
##YUNITS=ABSORBANCE
##XFACTOR=1.0
##YFACTOR=0.000098727
##DELTAX=4.0
##FIRSTX=450.0
##LASTX=3966.0
##FIRSTY=0.037319
##MAXX=3966
##MINX=450
##MAXY=0.98727
##MINY=0
##NPOINTS=880
##XYDATA=(X++(Y..Y))
450.0 378 307 181 213 160 113 120 56 28 22
490.0 74 50 63 60 110 110 134 119 94 106
530.0 94 91 101 102 91 107 107 109 116 122
570.0 125 158 206 257 304 409 541 748 1027 1309
610.0 1435 1515 1254 1127 984 827 672 524 397 292
650.0 261 215 189 156 152 109 111 121 105 108
690.0 105 93 106 92 93 106 112 135 145 138
730.0 125 103 84 71 70 65 75 79 98 123
770.0 182 306 487 737 931 958 906 848 792 779
810.0 756 771 855 943 1045 1224 1430 1496 1333 1101
850.0 853 646 517 410 324 251 186 160 148 145
890.0 134 141 150 184 214 289 398 527 621 648
930.0 616 536 435 325 231 187 171 164 167 171
970.0 183 209 239 280 328 386 459 554 679 874
1010.0 1226 1861 2988 4297 5067 5175 4590 4213 4197 4100
1050.0 3875 3658 3630 3747 3723 3373 2675 1855 1269 946
1090.0 810 783 800 873 969 1132 1440 1898 2228 2318
1130.0 2212 2050 2021 2121 2381 3059 4375 6245 7995 8462
1170.0 7488 5487 3755 2790 2370 2391 2895 4010 5916 8381
1210.0 10000 9667 7517 4890 3257 2496 2136 2041 2135 2396
1250.0 2720 2997 3068 2982 2852 2906 3248 3687 4201 4785
1290.0 5429 6269 7022 7507 7298 6287 4692 3019 1809 1170
1330.0 845 674 596 505 421 372 344 355 400 444
1370.0 513 619 725 869 1110 1400 1745 2101 2317 2424
1410.0 2395 2181 1996 1734 1662 1872 2566 3589 4211 4109
1450.0 3636 3493 4464 5734 6657 7176 7715 8599 9090 9980
1490.0 8989 7108 4672 2731 1635 1101 804 670 619 537
1530.0 527 518 580 672 724 813 1062 1439 1891 2451
1570.0 3258 4234 5397 6653 7516 8321 8272 7747 6179 4474
1610.0 2922 1832 1245 859 677 496 439 382 312 298
1650.0 318 299 240 219 224 222 253 200 255 268
1690.0 217 197 248 224 185 144 155 202 144 131
1730.0 157 206 156 147 158 162 122 102 92 67
1770.0 91 94 57 63 53 61 68 65 75 54
1810.0 58 64 56 73 91 118 116 109 127 129
1850.0 98 76 84 88 104 119 90 80 78 81
1890.0 84 75 59 46 42 48 52 65 88 87
1930.0 96 103 101 108 95 79 72 65 56 61
1970.0 56 49 45 44 39 46 42 31 34 34
2010.0 37 43 54 56 56 62 57 56 62 66
2050.0 71 79 84 96 107 112 120 128 134 135
2090.0 132 122 111 98 89 83 79 73 67 60
2130.0 57 50 44 40 30 28 23 22 22 28
2170.0 33 39 47 55 66 75 89 92 97 97
2210.0 94 93 87 81 72 64 53 45 33 24
2250.0 17 9 4 1 2 0 3 5 9 12
2290.0 18 23 37 45 54 58 55 58 49 53
2330.0 40 36 32 23 21 15 11 15 23 31
2370.0 34 47 48 45 41 38 34 29 30 29
2410.0 30 31 33 37 39 40 44 50 53 52
2450.0 54 53 53 55 57 61 64 69 73 78
2490.0 80 86 84 87 93 93 95 93 83 69
2530.0 56 47 43 38 38 36 38 43 43 50
2570.0 55 58 63 67 64 66 66 65 69 74
2610.0 77 74 76 71 68 63 62 62 62 62
2650.0 56 57 59 63 63 64 66 68 67 63
2690.0 62 61 55 53 52 50 48 51 51 47
2730.0 53 56 61 64 68 71 71 70 72 79
2770.0 87 94 98 111 124 136 153 177 200 225
2810.0 257 306 362 451 575 770 1066 1470 1875 2100
2850.0 2058 1801 1499 1275 1133 1042 971 934 927 953
2890.0 1001 1061 1119 1181 1276 1415 1606 1763 1806 1790
2930.0 1821 1990 2386 2988 3539 3775 3732 3442 3139 2784
2970.0 2287 1798 1402 1131 992 962 1040 1272 1763 2561
3010.0 3198 3151 2506 1569 944 667 523 452 403 377
3050.0 355 340 329 311 311 320 351 402 458 499
3090.0 512 493 445 378 302 243 200 170 145 126
3130.0 112 105 99 93 88 87 76 70 67 63
3170.0 63 62 64 55 53 50 46 39 35 34
3210.0 37 31 33 31 34 35 31 26 30 25
3250.0 25 19 22 23 16 22 19 18 18 20
3290.0 22 21 17 20 22 19 17 18 20 20
3330.0 14 14 14 17 22 19 14 16 17 13
3370.0 17 18 17 17 13 10 11 17 15 13
3410.0 19 15 18 13 23 17 16 16 17 13
3450.0 20 15 11 13 16 13 19 12 16 14
3490.0 19 20 23 16 18 14 11 10 12 8
3530.0 10 15 18 13 8 10 16 7 13 3
3570.0 14 13 6 15 14 11 8 12 12 10
3610.0 11 17 13 11 10 15 14 21 8 10
3650.0 13 11 10 7 12 10 16 7 1 15
3690.0 18 17 12 16 8 7 0 2 12 16
3730.0 16 17 9 8 1 11 9 5 15 0
3770.0 7 3 9 14 10 2 0 11 13 10
3810.0 0 0 10 7 9 4 1 2 12 0
3850.0 0 0 12 0 0 9 5 8 0 13
3890.0 13 9 9 4 4 17 13 7 0 6
3930.0 0 0 9 4 0 0 2 4 12 11
##END=
