##TITLE=Propiophenone, 3'-bromo-2'-hydroxy-,
##JCAMP-DX=4.24
##DATA TYPE=INFRARED SPECTRUM
##ORIGIN=Sadtler Research Labs Under US-EPA Contract
##OWNER=NIST Standard Reference Data Program
##CAS REGISTRY NO=17764-91-9
##MOLFORM=C 9 H 9 Br O 2
##XUNITS=1/CM
##YUNITS=ABSORBANCE
##XFACTOR=1.0
##YFACTOR=0.000082010
##DELTAX=4.0
##FIRSTX=450.0
##LASTX=3966.0
##FIRSTY=0.001230
##MAXX=3966
##MINX=450
##MAXY=0.8201
##MINY=0
##NPOINTS=880
##XYDATA=(X++(Y..Y))
450.0 15 81 36 109 22 81 59 14 25 49
490.0 8 31 37 56 36 84 91 101 113 111
530.0 118 183 284 358 440 382 294 208 163 163
570.0 177 215 217 291 332 427 443 532 604 840
610.0 1129 1400 1370 1117 785 553 428 364 339 305
650.0 310 339 339 396 416 573 679 853 1077 1184
690.0 1177 1034 944 825 731 636 579 593 657 874
730.0 1257 1838 2498 3093 3161 3177 3159 3349 3660 3885
770.0 3764 3358 2844 2297 1903 1561 1337 1149 1018 934
810.0 890 870 890 940 1055 1092 1036 912 683 444
850.0 273 175 119 106 97 85 79 65 53 48
890.0 45 45 44 57 69 80 95 109 131 147
930.0 190 260 374 554 758 913 938 895 856 856
970.0 785 622 422 275 221 203 228 277 375 546
1010.0 769 958 1008 902 688 500 351 259 226 228
1050.0 267 343 477 697 1034 1486 1840 1910 1726 1440
1090.0 1324 1437 1537 1518 1334 1118 1005 1037 1202 1591
1130.0 2430 4233 7423 10000 9968 6581 2957 1231 734 717
1170.0 1007 1533 2194 2713 2840 2507 2017 1679 1637 1814
1210.0 2057 2395 2913 3769 4963 6101 6420 5727 4556 3764
1250.0 3556 3553 3571 3539 3563 3676 3889 4083 4163 4092
1290.0 3678 3074 2369 1854 1629 1650 1882 2302 2828 3349
1330.0 3692 3807 3785 3694 3611 3491 3354 3239 3194 3172
1370.0 3093 2941 2701 2423 2124 1828 1586 1484 1567 1855
1410.0 2364 3195 4365 5736 7111 8176 8586 7983 6565 4803
1450.0 3282 2458 1985 1986 2129 2387 2319 2035 1605 1280
1490.0 1088 945 899 826 844 805 805 790 798 770
1530.0 758 757 724 712 664 667 652 715 772 837
1570.0 911 958 1024 1041 1169 1358 1676 2006 2262 2249
1610.0 2007 1695 1447 1385 1438 1791 2237 3132 4300 5987
1650.0 7611 9046 9677 8859 7267 5146 3382 2199 1492 1105
1690.0 889 811 814 790 745 586 444 327 268 207
1730.0 185 180 138 124 109 117 107 112 102 103
1770.0 98 91 95 89 100 89 100 91 106 108
1810.0 124 129 135 131 115 101 80 73 69 92
1850.0 117 176 240 275 245 166 105 64 58 51
1890.0 58 59 83 113 147 159 151 121 75 50
1930.0 30 28 22 25 23 21 21 21 21 13
1970.0 15 12 17 14 15 15 11 14 9 12
2010.0 7 9 5 9 6 7 6 7 9 7
2050.0 9 6 6 5 8 6 6 9 6 11
2090.0 18 22 19 22 18 20 20 17 12 7
2130.0 3 0 2 0 1 2 4 1 2 7
2170.0 7 8 9 10 12 20 22 23 21 25
2210.0 21 13 13 10 10 13 18 20 27 32
2250.0 42 44 50 51 52 51 45 41 33 29
2290.0 26 23 26 32 36 36 45 41 54 46
2330.0 43 48 45 52 46 57 66 67 44 50
2370.0 50 68 74 77 75 73 76 80 86 85
2410.0 84 82 91 89 97 97 102 101 96 96
2450.0 90 93 91 94 93 98 99 100 101 113
2490.0 120 123 133 136 143 149 154 163 162 169
2530.0 176 188 193 211 222 232 246 257 267 274
2570.0 277 275 265 248 239 227 220 224 224 229
2610.0 231 229 224 221 220 214 218 222 227 225
2650.0 237 246 256 263 278 291 304 319 332 342
2690.0 352 369 383 395 405 410 406 400 382 374
2730.0 362 358 365 372 379 381 387 381 379 371
2770.0 369 373 373 375 378 386 390 400 412 425
2810.0 435 456 477 498 519 539 557 570 591 607
2850.0 621 636 660 682 708 754 806 882 978 1119
2890.0 1269 1365 1360 1287 1215 1191 1261 1374 1484 1540
2930.0 1540 1503 1511 1612 1904 2315 2494 2339 1936 1665
2970.0 1605 1687 1877 2255 2794 3124 3066 2663 2150 1836
3010.0 1645 1529 1472 1452 1441 1428 1419 1409 1402 1388
3050.0 1384 1391 1397 1415 1445 1492 1549 1663 1832 1929
3090.0 1904 1757 1532 1357 1260 1201 1173 1154 1149 1145
3130.0 1139 1128 1130 1138 1142 1138 1139 1136 1125 1098
3170.0 1083 1059 1034 1018 998 977 962 943 932 905
3210.0 884 865 853 832 822 816 813 803 803 803
3250.0 791 788 779 770 745 732 720 695 683 690
3290.0 683 682 677 678 678 658 646 622 607 586
3330.0 565 542 540 524 510 495 479 472 457 442
3370.0 432 411 407 391 373 369 353 349 345 328
3410.0 319 305 295 280 268 265 256 251 240 225
3450.0 214 206 202 189 194 185 180 178 171 162
3490.0 163 158 148 148 150 145 153 169 193 243
3530.0 299 320 300 258 211 163 133 104 92 82
3570.0 80 72 71 59 64 61 66 59 43 44
3610.0 50 35 32 39 46 56 45 34 38 35
3650.0 25 22 28 34 24 36 21 29 13 25
3690.0 28 22 23 23 27 21 20 18 17 40
3730.0 21 27 23 10 40 11 26 20 9 27
3770.0 14 19 15 11 10 15 10 22 3 34
3810.0 2 23 19 14 9 7 30 27 22 15
3850.0 27 45 43 20 30 44 24 24 28 41
3890.0 38 33 34 46 41 41 37 40 53 43
3930.0 48 41 41 38 43 43 57 22 29 36
##END=
