##TITLE=Propiophenone, 4-bromo-2-hydroxy-,
##JCAMP-DX=4.24
##DATA TYPE=INFRARED SPECTRUM
##ORIGIN=Sadtler Research Labs Under US-EPA Contract
##OWNER=NIST Standard Reference Data Program
##CAS REGISTRY NO=17764-92-0
##MOLFORM=C 9 H 9 Br O 2
##XUNITS=1/CM
##YUNITS=ABSORBANCE
##XFACTOR=1.0
##YFACTOR=0.000095087
##DELTAX=4.0
##FIRSTX=450.0
##LASTX=3966.0
##FIRSTY=0.012837
##MAXX=3966
##MINX=450
##MAXY=0.95087
##MINY=0
##NPOINTS=880
##XYDATA=(X++(Y..Y))
450.0 135 183 272 373 547 686 730 513 309 220
490.0 158 163 213 223 172 145 102 102 78 73
530.0 44 16 27 0 25 20 3 35 45 124
570.0 212 232 132 100 76 98 115 140 136 134
610.0 140 179 220 248 267 252 229 183 144 118
650.0 106 106 97 114 118 177 201 216 243 251
690.0 262 259 269 275 296 323 359 363 361 346
730.0 344 342 377 420 446 489 553 647 776 995
770.0 1285 1671 2105 2498 2680 2425 1988 1454 989 652
810.0 454 346 277 245 235 239 227 229 219 242
850.0 296 418 650 952 1355 1742 2008 2292 2287 1918
890.0 1329 831 546 373 296 259 253 273 329 448
930.0 707 1235 2122 3206 4083 4422 3886 2687 1400 660
970.0 393 288 259 249 280 332 451 647 965 1341
1010.0 1571 1497 1146 748 495 408 359 322 277 252
1050.0 267 375 669 1153 1669 1882 1608 1054 635 393
1090.0 275 213 184 175 170 194 218 265 311 409
1130.0 574 825 1099 1292 1266 1014 691 445 367 391
1170.0 538 800 1273 2050 3151 4377 5234 5360 4669 3653
1210.0 2706 2040 1679 1629 1832 2275 2724 2765 2364 1867
1250.0 1618 1644 1826 2018 2021 1801 1549 1484 1525 1547
1290.0 1504 1449 1395 1321 1210 1107 1128 1286 1585 1973
1330.0 2392 2729 2954 3051 3070 3041 2964 2897 2808 2681
1370.0 2469 2306 2208 2152 1983 1764 1624 1626 1719 1788
1410.0 1797 1700 1578 1343 1130 970 860 840 887 1006
1450.0 1171 1353 1539 1736 1930 2134 2307 2571 2861 3035
1490.0 2865 2394 1856 1466 1256 1150 1124 1127 1162 1206
1530.0 1249 1307 1380 1513 1758 2128 2605 3064 3449 3523
1570.0 3379 3027 2698 2473 2538 2852 3546 4609 5856 6593
1610.0 6166 4907 3511 2661 2223 2261 2490 3201 4360 6128
1650.0 8148 9650 10000 8304 6070 3986 2506 1613 1087 783
1690.0 612 503 434 373 355 308 306 289 294 282
1730.0 276 263 228 206 179 171 152 147 134 123
1770.0 110 93 89 70 71 59 62 57 68 74
1810.0 76 74 73 73 69 78 74 78 69 76
1850.0 66 68 70 79 93 108 126 117 111 82
1890.0 69 53 47 40 33 34 28 33 29 33
1930.0 32 30 30 33 36 33 34 28 31 21
1970.0 26 19 19 16 13 7 11 13 8 11
2010.0 9 8 10 9 10 11 12 7 11 9
2050.0 7 5 8 7 11 9 10 13 11 12
2090.0 11 12 10 10 8 8 9 10 9 10
2130.0 13 17 19 18 20 18 17 14 14 15
2170.0 15 16 15 12 6 5 2 1 0 4
2210.0 2 4 7 6 8 7 13 11 16 17
2250.0 19 19 20 24 23 25 27 32 32 37
2290.0 39 43 42 41 42 34 28 22 14 18
2330.0 14 26 19 31 45 40 30 33 40 68
2370.0 73 72 76 73 71 60 53 54 56 50
2410.0 45 43 41 41 42 46 52 60 61 70
2450.0 72 76 78 77 78 73 77 80 84 84
2490.0 90 92 91 89 87 85 81 84 88 92
2530.0 98 106 110 116 119 123 125 124 120 117
2570.0 120 118 120 123 130 134 141 149 150 156
2610.0 156 158 152 161 162 161 164 164 166 164
2650.0 173 173 180 188 199 207 217 225 226 227
2690.0 223 224 222 218 217 208 201 196 198 198
2730.0 203 206 208 216 220 226 229 229 225 221
2770.0 220 216 218 221 221 231 234 241 249 253
2810.0 260 268 274 275 285 286 290 296 302 312
2850.0 318 329 337 353 368 397 429 478 538 627
2890.0 732 795 798 745 703 699 744 819 909 942
2930.0 924 885 888 949 1119 1361 1483 1386 1151 997
2970.0 965 1017 1151 1383 1675 1828 1800 1598 1314 1094
3010.0 945 862 822 812 813 819 822 828 821 825
3050.0 818 809 809 810 820 840 868 895 900 877
3090.0 855 841 834 817 799 775 758 746 735 726
3130.0 721 720 721 726 727 735 733 735 731 722
3170.0 713 696 685 674 664 659 645 636 625 612
3210.0 593 585 574 563 555 554 556 552 551 551
3250.0 540 542 537 529 527 517 503 493 492 487
3290.0 491 486 490 485 476 465 446 433 413 401
3330.0 389 378 365 352 347 338 332 319 312 308
3370.0 292 288 279 276 259 260 247 233 232 225
3410.0 218 202 203 197 189 176 170 166 161 152
3450.0 151 150 142 134 127 123 118 112 112 108
3490.0 99 97 93 95 84 78 72 72 70 70
3530.0 72 69 62 56 58 54 46 44 40 41
3570.0 43 39 23 25 29 36 36 27 32 16
3610.0 33 21 31 22 17 36 20 26 27 23
3650.0 36 27 28 24 11 24 15 21 14 9
3690.0 8 9 0 5 2 5 10 0 12 17
3730.0 20 22 10 19 12 6 23 5 8 18
3770.0 7 8 12 12 11 16 0 0 0 1
3810.0 0 6 9 16 10 2 21 7 11 5
3850.0 6 4 8 5 4 0 4 4 13 22
3890.0 8 16 0 16 21 16 2 11 17 0
3930.0 9 27 23 22 25 1 23 13 33 36
##END=
