##TITLE=Benzenamine, 3-(methylthio)-
##JCAMP-DX=4.24
##DATA TYPE=INFRARED SPECTRUM
##ORIGIN=Sadtler Research Labs Under US-EPA Contract
##OWNER=NIST Standard Reference Data Program
##CAS REGISTRY NO=1783-81-9
##MOLFORM=C 7 H 9 N S
##XUNITS=1/CM
##YUNITS=ABSORBANCE
##XFACTOR=1.0
##YFACTOR=0.000149155
##DELTAX=4.0
##FIRSTX=450.0
##LASTX=3966.0
##FIRSTY=0.003580
##MAXX=3966
##MINX=450
##MAXY=1.49155
##MINY=0
##NPOINTS=880
##XYDATA=(X++(Y..Y))
450.0 24 201 275 426 170 156 306 238 233 239
490.0 233 197 332 254 233 263 350 263 247 291
530.0 224 185 162 107 9 38 111 148 122 135
570.0 207 200 107 184 156 156 124 148 155 97
610.0 79 182 171 212 277 439 487 659 900 1219
650.0 1646 2224 2784 3085 3380 3394 3297 3418 3485 3289
690.0 2614 2213 1755 1262 969 815 684 619 540 495
730.0 419 414 411 462 691 998 1392 1892 2410 2889
770.0 2872 2455 2019 1628 1261 920 690 560 449 419
810.0 412 400 415 411 422 486 560 596 722 813
850.0 876 913 878 832 817 839 997 1261 1544 1764
890.0 1738 1496 1033 528 235 124 51 46 12 0
930.0 33 43 53 100 138 183 255 405 537 626
970.0 615 577 494 362 349 433 406 356 321 178
1010.0 91 44 28 40 55 47 68 60 92 99
1050.0 112 147 213 294 399 588 805 1008 1076 1066
1090.0 972 766 593 470 364 296 236 201 146 102
1130.0 62 36 24 27 42 55 130 282 407 451
1170.0 459 366 234 111 55 24 16 30 34 35
1210.0 32 45 43 51 80 132 215 355 574 890
1250.0 1289 1672 1903 1983 2002 1831 1506 1398 1456 1612
1290.0 1654 1619 1433 1153 971 957 946 962 859 728
1330.0 554 399 313 222 134 106 82 109 106 58
1370.0 86 127 123 152 167 226 300 355 405 453
1410.0 602 679 963 1142 1379 1672 2003 2235 2352 2279
1450.0 2055 1828 1606 1378 1533 1998 2817 3644 3796 3765
1490.0 3266 2377 1527 1035 890 773 692 739 841 820
1530.0 870 818 830 851 822 806 883 1114 1337 1521
1570.0 2046 2621 3381 5398 5973 8009 10000 7039 7539 5721
1610.0 5378 6196 6407 7684 6583 6285 4684 2862 2220 1356
1650.0 1101 915 594 593 502 483 541 432 517 495
1690.0 435 413 452 427 373 313 329 355 267 210
1730.0 216 274 163 145 163 165 132 119 118 92
1770.0 121 130 87 108 102 104 132 109 143 102
1810.0 112 124 100 108 103 111 80 52 76 89
1850.0 62 40 43 47 61 87 54 55 63 79
1890.0 97 113 121 144 161 171 170 160 152 106
1930.0 76 66 50 62 53 34 34 33 22 31
1970.0 20 16 11 11 8 26 24 16 15 22
2010.0 22 30 39 31 29 32 30 38 41 36
2050.0 35 35 31 32 32 17 11 7 3 2
2090.0 3 3 1 1 5 8 11 11 11 19
2130.0 22 29 35 39 44 43 46 41 36 32
2170.0 26 22 20 18 17 14 12 7 7 5
2210.0 4 3 1 1 1 3 5 10 14 19
2250.0 19 26 29 29 32 32 31 29 28 24
2290.0 22 20 18 15 14 13 16 22 26 34
2330.0 27 34 44 33 45 30 46 42 51 44
2370.0 38 44 44 41 40 39 41 41 37 35
2410.0 30 29 24 19 17 14 13 11 10 14
2450.0 16 15 16 17 19 23 25 24 25 24
2490.0 23 22 26 30 34 37 40 39 38 35
2530.0 34 37 42 43 50 54 57 54 44 44
2570.0 44 40 41 38 36 35 33 35 35 33
2610.0 35 31 29 26 21 21 21 24 26 28
2650.0 31 30 33 35 37 41 39 40 41 39
2690.0 40 37 39 39 40 44 50 58 62 66
2730.0 67 67 64 60 55 53 53 48 42 39
2770.0 37 36 32 31 30 33 32 38 41 46
2810.0 60 74 90 109 134 161 195 234 280 326
2850.0 350 343 323 288 267 265 254 248 249 256
2890.0 265 273 289 324 376 448 555 709 971 1340
2930.0 1609 1570 1531 1299 922 645 524 435 375 365
2970.0 380 422 470 537 640 778 876 903 909 878
3010.0 840 840 885 938 976 1002 1031 1076 1157 1280
3050.0 1416 1498 1486 1388 1238 1114 1020 947 892 848
3090.0 750 644 531 422 321 236 176 143 106 96
3130.0 86 84 76 73 70 74 68 64 64 62
3170.0 59 57 60 59 54 65 71 85 91 105
3210.0 118 129 128 130 133 132 122 108 96 85
3250.0 68 64 58 52 50 43 42 40 39 41
3290.0 41 40 35 39 36 38 39 39 37 33
3330.0 40 44 49 55 58 62 72 78 95 101
3370.0 120 134 154 182 222 275 355 451 562 662
3410.0 721 768 750 656 561 462 352 260 196 158
3450.0 136 131 143 152 183 210 263 326 397 474
3490.0 527 551 556 539 488 411 359 297 223 166
3530.0 118 87 67 58 40 35 35 26 28 19
3570.0 32 29 28 28 27 28 21 21 23 24
3610.0 23 25 18 19 20 11 20 28 27 15
3650.0 15 8 22 13 23 19 26 14 18 21
3690.0 10 23 20 34 26 24 30 32 26 37
3730.0 31 29 24 31 20 23 21 29 26 13
3770.0 18 16 16 14 18 13 10 13 14 13
3810.0 28 8 24 8 22 21 28 35 35 51
3850.0 55 89 85 95 69 62 45 41 36 19
3890.0 30 29 35 30 36 22 21 49 35 30
3930.0 31 49 52 62 73 62 62 37 31 33
##END=
