##TITLE=Benzene, 1,2,4-tris-trimethylsilyl-,
##JCAMP-DX=4.24
##DATA TYPE=INFRARED SPECTRUM
##ORIGIN=Sadtler Research Labs Under US-EPA Contract
##OWNER=NIST Standard Reference Data Program
##CAS REGISTRY NO=17864-15-2
##MOLFORM=C 15 H 30 Si 3
##XUNITS=1/CM
##YUNITS=ABSORBANCE
##XFACTOR=1.0
##YFACTOR=0.000135236
##DELTAX=4.0
##FIRSTX=450.0
##LASTX=3966.0
##FIRSTY=0.058692
##MAXX=3966
##MINX=450
##MAXY=1.35236
##MINY=0
##NPOINTS=880
##XYDATA=(X++(Y..Y))
450.0 434 415 534 672 906 1062 973 576 291 155
490.0 77 67 34 30 24 15 15 28 41 47
530.0 83 104 84 63 30 18 5 23 2 3
570.0 6 13 18 14 13 12 18 24 47 78
610.0 196 387 588 781 1052 1399 1426 1010 583 376
650.0 282 263 229 262 318 479 641 755 902 991
690.0 1104 1094 1070 954 843 734 699 666 678 713
730.0 770 862 1003 1244 1549 1911 2135 2174 1994 1730
770.0 1464 1225 1058 945 894 892 930 1010 1167 1412
810.0 1817 2415 3145 3769 4394 5465 6881 8628 9621 10000
850.0 9379 8758 8336 7554 6433 4972 3721 2803 2198 1764
890.0 1465 1227 1040 882 754 634 538 456 384 327
930.0 276 231 198 173 146 128 108 92 82 68
970.0 60 55 50 45 42 39 39 35 31 34
1010.0 30 31 27 29 35 41 61 112 199 242
1050.0 177 95 63 63 72 69 78 87 114 173
1090.0 255 312 297 228 158 111 82 74 85 127
1130.0 229 454 859 1374 1640 1426 1021 728 522 325
1170.0 193 124 93 78 72 67 65 69 80 92
1210.0 108 124 148 188 250 359 549 856 1340 2060
1250.0 2946 3674 3720 3342 3184 2881 1995 1121 635 440
1290.0 371 355 346 340 323 308 285 254 228 204
1330.0 187 188 216 276 370 444 417 304 197 152
1370.0 134 129 127 131 141 162 186 214 243 268
1410.0 282 278 262 235 208 180 163 155 151 149
1450.0 152 152 143 126 99 81 69 60 50 45
1490.0 42 39 41 38 42 43 48 47 46 40
1530.0 39 34 33 35 31 33 32 42 51 72
1570.0 79 66 40 27 22 20 20 20 18 17
1610.0 16 13 15 13 17 19 25 27 24 16
1650.0 13 9 9 5 7 3 3 0 4 4
1690.0 2 0 5 2 6 5 7 7 10 9
1730.0 7 7 3 1 1 0 4 7 9 15
1770.0 22 28 28 21 18 18 20 22 20 17
1810.0 9 4 5 4 2 2 2 4 7 9
1850.0 14 20 30 40 46 49 50 48 46 44
1890.0 40 34 32 32 38 47 62 72 72 66
1930.0 60 61 61 60 56 50 43 38 34 30
1970.0 26 23 20 20 19 20 18 19 20 20
2010.0 20 20 19 19 18 16 15 13 13 11
2050.0 10 11 11 10 10 12 11 15 17 18
2090.0 22 24 25 27 26 26 26 23 21 18
2130.0 18 16 15 14 12 13 10 9 11 9
2170.0 9 9 11 9 12 9 11 9 10 9
2210.0 9 8 8 8 8 9 10 10 12 10
2250.0 7 8 6 8 6 5 4 5 3 4
2290.0 4 3 3 4 4 2 2 0 4 9
2330.0 3 6 8 9 1 13 0 3 0 0
2370.0 1 4 3 3 3 3 2 3 5 2
2410.0 2 2 2 2 2 2 2 0 0 1
2450.0 3 2 4 3 5 5 5 6 9 11
2490.0 14 14 16 14 9 8 6 6 3 4
2530.0 5 3 1 3 2 4 6 4 6 5
2570.0 3 2 4 5 5 6 4 6 9 13
2610.0 16 17 15 11 9 9 9 12 12 13
2650.0 15 18 19 19 19 19 16 16 17 19
2690.0 18 20 22 25 28 30 34 35 33 32
2730.0 31 32 31 29 30 36 39 43 48 52
2770.0 60 67 81 90 103 118 135 152 168 178
2810.0 184 187 189 188 192 199 206 217 230 242
2850.0 256 267 275 286 299 313 338 374 426 507
2890.0 622 785 989 1192 1302 1252 1088 892 733 638
2930.0 600 614 687 840 1116 1590 2309 3094 3375 2920
2970.0 2250 1734 1336 1053 875 773 718 684 666 645
3010.0 606 550 486 422 378 348 336 338 354 375
3050.0 402 442 498 560 594 576 501 399 315 259
3090.0 224 207 185 171 157 148 141 136 131 123
3130.0 117 109 100 90 82 73 68 61 57 52
3170.0 52 49 48 47 44 45 41 40 39 34
3210.0 34 30 31 26 26 24 24 23 20 19
3250.0 16 18 15 13 13 11 13 13 11 14
3290.0 14 12 11 8 9 9 10 11 10 7
3330.0 8 8 7 6 10 7 5 4 4 1
3370.0 3 7 2 6 5 2 5 9 5 5
3410.0 5 4 2 0 2 5 3 2 3 9
3450.0 5 2 4 5 5 2 3 9 5 7
3490.0 3 5 5 9 9 7 12 9 10 7
3530.0 12 11 11 12 14 7 10 13 15 18
3570.0 17 19 21 24 24 23 24 23 19 25
3610.0 30 27 26 32 35 38 44 41 43 43
3650.0 53 52 49 52 48 53 42 42 34 40
3690.0 42 38 40 38 41 43 46 54 54 52
3730.0 59 57 63 52 62 43 44 49 40 36
3770.0 39 37 28 31 33 32 38 35 28 32
3810.0 24 20 27 13 12 9 15 12 16 12
3850.0 13 6 9 10 9 4 5 5 3 9
3890.0 0 0 2 10 5 11 0 1 3 6
3930.0 11 2 2 0 1 4 4 13 9 5
##END=
