##TITLE=DL-Phenylalanine, ethyl ester
##JCAMP-DX=4.24
##DATA TYPE=INFRARED SPECTRUM
##ORIGIN=Sadtler Research Labs Under US-EPA Contract
##OWNER=NIST Standard Reference Data Program
##CAS REGISTRY NO=1795-96-6
##MOLFORM=C 11 H 15 N O 2
##XUNITS=1/CM
##YUNITS=ABSORBANCE
##XFACTOR=1.0
##YFACTOR=0.000089163
##DELTAX=4.0
##FIRSTX=450.0
##LASTX=3966.0
##FIRSTY=0.030048
##MAXX=3966
##MINX=450
##MAXY=0.89163
##MINY=0
##NPOINTS=880
##XYDATA=(X++(Y..Y))
450.0 337 214 183 310 315 175 239 180 33 215
490.0 279 283 229 189 318 337 387 437 253 241
530.0 427 402 355 318 402 341 254 462 359 293
570.0 259 289 253 209 121 138 157 157 122 90
610.0 131 59 172 131 194 211 223 220 273 195
650.0 309 337 371 346 424 528 668 924 1303 1858
690.0 2121 1823 1317 903 757 647 518 581 581 649
730.0 840 1041 1657 2123 2707 3353 2953 2027 1349 949
770.0 720 600 469 378 228 168 201 161 144 150
810.0 61 75 154 162 238 235 201 204 183 224
850.0 344 442 385 566 665 683 775 688 484 459
890.0 371 301 259 217 148 100 143 131 7 79
930.0 136 97 102 95 142 107 100 60 5 29
970.0 20 26 65 95 139 241 327 392 395 219
1010.0 318 695 1176 1467 1747 1785 1680 1549 1589 1873
1050.0 2286 2622 2853 2834 2684 2451 2206 2093 1979 1831
1090.0 1829 1921 2081 2038 1850 1677 1499 1535 1572 1808
1130.0 2193 2782 3674 4771 6119 7572 8604 9025 8568 7648
1170.0 6888 6625 6834 7237 7293 7194 7005 6792 6390 5679
1210.0 4854 4013 3448 3095 3055 3289 3699 4289 4756 4974
1250.0 5035 4804 4548 4320 3831 3566 3308 3039 2994 3105
1290.0 3513 3984 4709 5307 5658 5582 4992 4119 3275 2647
1330.0 2463 2293 2076 1725 1341 1087 921 882 945 1211
1370.0 1522 1817 1963 1836 1515 1156 872 720 661 596
1410.0 628 659 742 940 1197 1499 1596 1472 1248 1097
1450.0 1203 1233 1501 1620 1480 1548 1349 1344 1413 1496
1490.0 2523 3840 6051 7951 8219 7302 4874 3133 1926 1415
1530.0 956 844 706 547 596 516 554 583 550 615
1570.0 630 690 885 1196 1770 2568 4146 5081 6791 7328
1610.0 5452 4859 2725 1808 1354 848 692 480 421 368
1650.0 272 284 258 249 253 207 286 246 276 351
1690.0 342 408 467 543 649 783 863 995 1165 1432
1730.0 1762 2320 3422 4755 6803 9303 9505 10000 7929 5606
1770.0 4006 2614 1959 1446 1124 919 740 641 521 484
1810.0 417 352 345 282 271 241 210 199 149 137
1850.0 107 95 93 88 84 83 82 86 78 106
1890.0 108 115 143 155 185 215 221 222 191 178
1930.0 160 145 122 85 77 61 54 60 49 63
1970.0 58 54 59 57 56 62 67 70 66 72
2010.0 73 71 86 75 91 90 85 80 70 74
2050.0 74 63 72 67 57 58 53 52 49 54
2090.0 51 52 49 38 42 39 35 45 34 34
2130.0 40 31 30 21 21 16 13 18 10 11
2170.0 12 11 18 14 15 13 12 12 8 9
2210.0 10 3 7 5 7 6 5 8 2 5
2250.0 10 7 15 12 14 16 15 18 14 12
2290.0 16 13 21 20 29 31 37 41 38 43
2330.0 51 51 57 52 47 44 50 43 54 46
2370.0 46 29 33 34 21 25 25 36 37 39
2410.0 43 39 36 34 28 36 28 32 34 29
2450.0 27 28 33 28 26 32 27 23 25 25
2490.0 32 27 28 31 32 31 31 35 36 39
2530.0 49 46 50 57 63 77 77 81 80 76
2570.0 64 58 57 47 41 40 35 32 32 32
2610.0 32 27 28 30 26 26 24 28 28 27
2650.0 30 25 22 21 18 20 19 21 23 17
2690.0 16 12 9 17 14 13 14 18 23 24
2730.0 39 40 43 48 51 56 57 58 63 65
2770.0 71 73 73 82 79 78 82 87 99 103
2810.0 112 129 141 152 164 178 184 193 209 215
2850.0 230 250 280 310 354 421 506 625 761 857
2890.0 879 848 805 796 829 880 923 953 970 1005
2930.0 1118 1339 1626 1874 1962 1818 1583 1399 1359 1462
2970.0 1656 1982 2483 3192 3903 4280 4037 3341 2513 1888
3010.0 1550 1407 1335 1360 1426 1458 1421 1280 1166 1172
3050.0 1316 1591 1837 1946 1837 1557 1266 1041 949 943
3090.0 964 929 831 715 601 507 427 332 268 208
3130.0 153 121 99 83 71 60 53 57 56 43
3170.0 49 51 46 50 50 52 56 52 58 57
3210.0 49 45 40 38 30 31 29 22 29 26
3250.0 20 10 11 13 17 2 15 4 19 12
3290.0 5 9 6 10 14 3 3 5 14 23
3330.0 25 32 32 44 42 41 59 71 73 105
3370.0 118 125 143 163 189 228 282 333 409 501
3410.0 595 679 750 735 720 636 539 450 394 347
3450.0 302 266 219 199 163 147 139 133 132 135
3490.0 122 108 97 82 58 56 37 27 19 28
3530.0 8 21 20 3 16 18 10 21 18 21
3570.0 16 7 8 25 15 4 9 11 14 12
3610.0 14 3 4 5 27 10 18 15 17 9
3650.0 54 29 26 20 19 17 22 34 4 21
3690.0 5 30 17 16 4 6 6 5 3 13
3730.0 2 18 50 7 52 11 40 7 26 13
3770.0 2 2 2 2 2 2 2 2 17 8
3810.0 7 4 20 2 3 14 2 34 8 6
3850.0 20 7 14 9 22 2 3 18 2 28
3890.0 0 16 2 9 3 2 2 22 17 2
3930.0 2 2 8 4 12 2 2 19 5 17
##END=
