##TITLE=Heptanenitrile, 7-hydroxy-
##JCAMP-DX=4.24
##DATA TYPE=INFRARED SPECTRUM
##ORIGIN=Sadtler Research Labs Under US-EPA Contract
##OWNER=NIST Standard Reference Data Program
##CAS REGISTRY NO=17976-80-6
##MOLFORM=C 7 H 13 N O
##XUNITS=1/CM
##YUNITS=ABSORBANCE
##XFACTOR=1.0
##YFACTOR=0.000042679
##DELTAX=4.0
##FIRSTX=450.0
##LASTX=3966.0
##FIRSTY=0.023986
##MAXX=3966
##MINX=450
##MAXY=0.42679
##MINY=0
##NPOINTS=880
##XYDATA=(X++(Y..Y))
450.0 562 209 20 175 184 199 221 73 133 130
490.0 135 160 200 190 183 233 218 161 156 151
530.0 115 100 101 101 118 101 95 81 107 109
570.0 88 123 103 99 115 65 52 42 45 44
610.0 46 39 68 52 55 45 58 61 67 57
650.0 60 64 39 52 21 62 52 67 59 82
690.0 89 85 68 110 116 147 195 231 258 272
730.0 292 260 233 221 179 170 143 160 137 115
770.0 118 111 91 82 71 71 75 70 71 107
810.0 97 115 133 145 135 145 167 178 175 189
850.0 201 204 203 211 212 226 245 241 267 263
890.0 329 350 376 425 452 435 431 419 395 370
930.0 358 370 363 364 371 399 427 460 498 555
970.0 617 676 739 811 882 980 1075 1151 1233 1316
1010.0 1393 1512 1657 1876 2119 2391 2645 2879 3056 3237
1050.0 3383 3404 3268 2975 2636 2336 2152 2000 1868 1643
1090.0 1387 1171 944 811 666 597 507 461 450 452
1130.0 439 440 428 434 425 423 435 428 429 435
1170.0 443 447 449 471 485 512 527 558 589 623
1210.0 650 699 742 790 839 863 862 835 791 743
1250.0 725 698 692 671 679 682 698 692 678 664
1290.0 656 644 632 626 619 623 627 625 647 676
1330.0 693 706 714 739 780 807 840 845 848 846
1370.0 827 855 874 916 922 922 877 789 701 609
1410.0 546 515 519 574 671 859 1075 1207 1258 1209
1450.0 1167 1193 1235 1232 1131 1031 886 755 618 503
1490.0 362 280 228 171 161 122 110 83 98 71
1530.0 72 55 76 53 49 56 51 56 56 47
1570.0 50 42 65 50 43 46 45 42 38 38
1610.0 35 34 49 25 37 21 41 24 34 24
1650.0 35 36 54 15 32 24 33 16 29 32
1690.0 41 54 78 81 84 84 104 98 116 123
1730.0 110 116 99 100 98 108 145 155 181 185
1770.0 171 135 123 101 110 77 74 51 40 35
1810.0 26 21 26 24 17 14 12 16 9 9
1850.0 10 13 10 9 7 3 17 15 18 10
1890.0 14 9 15 12 12 9 9 7 5 7
1930.0 15 8 9 9 8 17 9 9 14 11
1970.0 11 10 16 12 13 10 14 18 13 16
2010.0 15 18 20 26 25 25 31 37 32 38
2050.0 43 42 40 33 31 27 31 26 21 21
2090.0 16 13 13 9 7 9 7 10 2 8
2130.0 6 5 4 3 9 3 7 6 8 9
2170.0 6 7 7 7 3 4 5 4 7 12
2210.0 7 14 11 12 24 29 37 65 98 154
2250.0 197 221 211 169 111 78 55 43 31 28
2290.0 23 22 18 19 14 13 18 14 28 21
2330.0 15 50 43 14 54 40 31 35 42 36
2370.0 42 39 41 25 30 26 28 25 27 26
2410.0 27 30 27 30 26 30 30 28 31 28
2450.0 29 30 26 24 13 20 23 20 19 20
2490.0 23 17 19 21 24 15 24 23 27 31
2530.0 35 32 34 38 28 36 29 34 36 36
2570.0 38 37 30 38 45 41 47 49 58 61
2610.0 63 66 64 70 71 72 77 83 83 91
2650.0 92 105 108 104 115 116 125 135 140 148
2690.0 152 161 161 161 159 163 164 175 179 188
2730.0 190 199 206 223 234 234 245 249 270 282
2770.0 289 294 306 322 328 346 354 372 394 400
2810.0 426 446 473 517 556 620 707 815 979 1205
2850.0 1517 1900 2381 2922 3462 3959 4298 4455 4382 4149
2890.0 3804 3491 3313 3324 3488 3788 4222 4749 5392 6148
2930.0 7120 8149 9130 9804 10000 9662 8836 7842 6687 5400
2970.0 4177 3102 2204 1602 1172 905 714 589 502 425
3010.0 380 333 288 263 248 222 199 171 160 156
3050.0 148 136 118 118 114 105 108 104 96 81
3090.0 83 82 77 75 76 65 72 56 56 67
3130.0 65 64 59 63 57 66 61 53 52 57
3170.0 61 59 64 65 57 58 53 52 45 47
3210.0 45 49 42 42 45 43 42 44 44 40
3250.0 37 34 40 38 37 39 40 41 36 27
3290.0 31 29 30 23 19 24 31 31 21 27
3330.0 30 33 38 14 26 14 26 6 15 26
3370.0 12 10 20 12 7 21 23 25 20 22
3410.0 37 22 28 34 28 24 30 40 43 29
3450.0 31 38 39 33 35 36 41 31 28 19
3490.0 24 37 43 24 24 26 36 6 21 18
3530.0 15 21 24 13 18 19 16 15 22 31
3570.0 40 56 39 51 49 40 53 22 34 51
3610.0 76 59 83 87 108 154 179 183 239 279
3650.0 408 550 727 911 1041 1202 1171 1082 832 614
3690.0 402 260 198 146 142 115 80 62 85 63
3730.0 57 68 52 2 81 3 52 5 7 32
3770.0 22 38 12 53 17 26 4 29 14 50
3810.0 24 50 30 45 54 31 33 49 30 25
3850.0 36 65 17 33 7 29 31 53 34 67
3890.0 39 56 32 62 32 27 23 21 35 21
3930.0 23 13 27 18 2 0 34 54 33 44
##END=
