##TITLE=Benzeneacetic acid, 2-propenyl ester
##JCAMP-DX=4.24
##DATA TYPE=INFRARED SPECTRUM
##ORIGIN=Sadtler Research Labs Under US-EPA Contract
##OWNER=NIST Standard Reference Data Program
##CAS REGISTRY NO=1797-74-6
##MOLFORM=C 11 H 12 O 2
##XUNITS=1/CM
##YUNITS=ABSORBANCE
##XFACTOR=1.0
##YFACTOR=0.000059720
##DELTAX=4.0
##FIRSTX=450.0
##LASTX=3966.0
##FIRSTY=0.000000
##MAXX=3966
##MINX=450
##MAXY=0.5972
##MINY=0
##NPOINTS=880
##XYDATA=(X++(Y..Y))
450.0 0 221 325 357 424 399 440 352 310 320
490.0 297 370 411 187 232 325 294 357 423 484
530.0 523 512 788 436 456 390 405 359 414 387
570.0 475 541 450 549 664 694 637 666 659 699
610.0 726 742 709 687 590 548 590 496 495 451
650.0 401 370 383 429 461 568 626 796 914 1259
690.0 1696 2060 2277 2301 2388 2433 2572 2488 2225 1865
730.0 1489 1174 974 825 709 650 589 552 485 397
770.0 313 227 245 145 358 216 185 188 183 185
810.0 197 190 229 243 258 258 291 307 270 311
850.0 306 313 318 363 358 367 395 392 426 443
890.0 473 522 581 648 736 880 1021 1233 1494 1815
930.0 2029 2034 1801 1454 1159 973 892 863 889 953
970.0 1080 1261 1579 2043 2717 3492 4025 4280 4254 4107
1010.0 3729 3152 2420 1833 1530 1317 1142 951 770 684
1050.0 652 621 639 670 717 789 845 892 931 997
1090.0 1077 1206 1365 1577 1852 2171 2580 3104 3850 4795
1130.0 5999 7273 8282 8806 8623 7920 6892 5888 4952 4185
1170.0 3642 3269 2967 2688 2478 2332 2296 2265 2299 2430
1210.0 2669 2967 3287 3704 4221 4864 5515 6118 6404 6356
1250.0 5954 5312 4599 3936 3457 3153 3007 2863 2739 2570
1290.0 2429 2295 2186 2082 1970 1903 1861 1841 1839 1815
1330.0 1754 1662 1529 1383 1239 1161 1175 1276 1389 1392
1370.0 1299 1129 991 864 770 679 603 578 574 598
1410.0 641 713 816 889 970 1030 1087 1106 1131 1196
1450.0 1265 1289 1226 1052 849 672 556 471 459 545
1490.0 774 1171 1360 1278 957 535 355 302 290 277
1530.0 283 280 289 286 280 262 268 283 277 265
1570.0 284 294 306 332 374 425 506 594 687 743
1610.0 691 587 461 377 344 331 354 383 431 497
1650.0 519 521 468 404 383 361 364 365 384 410
1690.0 440 502 594 704 814 920 1016 1140 1249 1470
1730.0 1800 2344 3207 4468 6254 8012 9485 10000 9650 8350
1770.0 6725 5118 3838 2957 2358 1957 1655 1405 1187 979
1810.0 817 681 581 525 468 436 406 390 390 390
1850.0 394 402 419 431 437 428 409 384 356 341
1890.0 332 318 307 301 289 292 287 294 297 309
1930.0 314 333 349 349 360 365 367 358 336 311
1970.0 283 270 265 269 271 270 267 255 250 244
2010.0 238 229 227 217 214 214 215 218 220 213
2050.0 221 229 227 220 201 210 222 226 238 252
2090.0 253 246 235 223 221 223 220 214 210 209
2130.0 212 214 205 210 206 206 205 201 201 197
2170.0 203 193 197 200 201 200 196 199 194 200
2210.0 194 203 195 194 191 198 191 194 197 190
2250.0 198 197 198 203 198 199 197 205 206 209
2290.0 224 239 248 260 287 299 303 327 336 307
2330.0 313 283 244 255 204 262 398 358 244 134
2370.0 138 138 138 138 137 163 168 179 186 178
2410.0 182 180 192 178 178 175 178 171 164 165
2450.0 163 167 162 170 163 160 161 160 157 162
2490.0 161 157 159 164 166 162 162 158 161 160
2530.0 161 153 154 157 156 156 163 155 158 157
2570.0 153 154 150 150 155 152 152 151 149 147
2610.0 150 153 160 162 160 170 177 164 154 160
2650.0 169 176 180 186 193 193 180 168 157 170
2690.0 159 152 144 150 151 148 150 155 161 161
2730.0 165 176 161 158 162 150 163 166 164 166
2770.0 161 162 160 172 180 177 174 178 179 172
2810.0 192 201 198 209 204 202 220 228 238 249
2850.0 261 265 262 279 292 312 329 357 395 434
2890.0 479 512 526 524 517 514 532 577 647 719
2930.0 817 908 1010 1129 1235 1324 1381 1369 1258 1091
2970.0 940 850 807 813 808 824 832 797 770 757
3010.0 754 778 852 1005 1204 1445 1658 1845 1823 1674
3050.0 1364 1107 1036 1093 1333 1669 1838 1824 1659 1427
3090.0 1383 1381 1312 1204 1031 873 691 554 439 348
3130.0 282 267 247 231 218 223 208 193 203 208
3170.0 202 192 195 191 187 192 175 183 177 170
3210.0 174 177 199 194 165 181 177 192 179 186
3250.0 183 174 193 181 169 171 175 176 180 209
3290.0 174 183 171 173 170 169 145 198 185 188
3330.0 172 203 179 183 188 190 192 179 201 228
3370.0 214 210 181 192 226 181 185 186 156 175
3410.0 177 208 175 195 212 181 188 191 194 189
3450.0 219 205 196 191 196 212 226 230 252 248
3490.0 241 271 267 280 270 235 256 245 216 198
3530.0 202 172 193 196 198 211 216 252 262 353
3570.0 431 493 513 481 427 304 281 244 220 210
3610.0 194 213 203 164 204 166 172 219 260 231
3650.0 210 179 226 177 203 234 188 174 197 201
3690.0 208 210 137 186 187 138 148 168 182 204
3730.0 176 149 138 138 185 167 141 138 138 152
3770.0 138 138 142 156 142 152 138 157 200 185
3810.0 145 140 159 155 167 169 148 168 172 209
3850.0 159 140 171 144 138 177 197 164 200 191
3890.0 159 157 203 155 138 139 151 183 189 167
3930.0 227 238 194 191 207 155 221 170 247 216
##END=
