##TITLE=Phenol, 2-chloro-5-methoxy-,
##JCAMP-DX=4.24
##DATA TYPE=INFRARED SPECTRUM
##ORIGIN=Sadtler Research Labs Under US-EPA Contract
##OWNER=NIST Standard Reference Data Program
##CAS REGISTRY NO=18113-04-7
##MOLFORM=C 7 H 7 Cl O 2
##XUNITS=1/CM
##YUNITS=ABSORBANCE
##XFACTOR=1.0
##YFACTOR=0.000087646
##DELTAX=4.0
##FIRSTX=450.0
##LASTX=3966.0
##FIRSTY=0.011131
##MAXX=3966
##MINX=450
##MAXY=0.87646
##MINY=0
##NPOINTS=880
##XYDATA=(X++(Y..Y))
450.0 127 117 147 134 54 14 37 57 124 76
490.0 35 36 22 147 96 76 81 31 135 131
530.0 143 124 52 132 178 186 183 78 179 209
570.0 186 203 135 153 164 170 239 180 180 203
610.0 283 567 780 1197 1617 1870 2226 1897 1541 1197
650.0 729 536 441 442 387 265 374 367 421 388
690.0 297 329 312 302 335 237 275 303 367 508
730.0 475 493 402 345 371 327 257 252 295 423
770.0 528 660 813 970 1107 1172 1249 1256 929 756
810.0 609 509 514 554 709 863 1174 1245 1149 1113
850.0 1022 1099 1095 836 669 449 338 261 206 200
890.0 158 167 203 198 228 193 215 252 283 358
930.0 395 539 732 968 1332 1550 1519 1405 1156 797
970.0 538 415 357 315 344 353 358 386 398 510
1010.0 685 1016 1605 2318 3013 3187 2823 2123 1220 786
1050.0 651 631 723 753 777 741 689 614 507 470
1090.0 449 440 520 532 573 616 720 1103 1720 2197
1130.0 2402 2456 2333 2520 3381 4987 6938 7925 8057 7051
1170.0 5069 3711 2843 2392 2492 2896 2954 2904 2892 2773
1210.0 3310 4267 4922 4838 4161 3020 2166 1863 1849 1963
1250.0 2143 2202 2130 1969 1818 1775 1822 1913 2026 2178
1290.0 2401 2743 3263 3803 3935 4191 4374 4403 4530 4154
1330.0 3492 2788 2108 1422 901 596 425 353 365 342
1370.0 353 347 336 340 328 338 325 318 311 329
1410.0 372 423 488 530 620 855 1172 1545 1822 2007
1450.0 2256 2367 2594 2801 3115 3252 3691 4391 5661 7177
1490.0 9146 10000 8394 6142 3689 1928 1184 878 794 678
1530.0 618 605 583 669 636 673 757 893 959 1030
1570.0 1251 1537 1997 2563 3245 3893 4408 4703 5153 5648
1610.0 5730 5099 3861 2650 1669 1074 856 696 554 514
1650.0 445 542 378 371 323 329 310 266 265 285
1690.0 212 235 279 305 244 198 226 271 208 193
1730.0 173 220 146 142 136 147 130 118 126 129
1770.0 150 161 119 137 159 154 172 134 133 122
1810.0 122 126 119 117 146 150 150 152 145 163
1850.0 147 162 169 151 151 145 118 125 123 131
1890.0 140 142 144 128 111 83 81 105 93 99
1930.0 83 87 92 99 117 111 100 104 96 112
1970.0 106 95 89 77 91 89 85 82 78 101
2010.0 106 110 110 88 93 98 98 109 102 104
2050.0 117 120 130 116 101 96 95 106 117 119
2090.0 121 117 117 100 85 73 64 74 70 63
2130.0 64 46 52 57 57 57 48 57 62 68
2170.0 75 62 66 61 71 82 71 72 65 72
2210.0 95 95 107 109 108 125 115 109 91 80
2250.0 87 79 81 74 61 65 61 71 68 55
2290.0 55 55 60 64 65 67 57 79 93 74
2330.0 81 47 66 97 52 115 116 73 65 34
2370.0 42 28 24 51 71 92 91 72 71 64
2410.0 77 76 71 71 69 84 87 85 88 80
2450.0 91 102 91 91 76 75 84 79 88 79
2490.0 73 77 78 89 78 64 64 65 83 81
2530.0 75 75 74 84 82 74 71 45 56 62
2570.0 62 61 53 64 69 68 72 59 62 65
2610.0 69 82 71 59 52 53 69 57 46 44
2650.0 38 54 47 35 36 28 33 39 39 31
2690.0 16 24 23 29 25 12 26 21 31 44
2730.0 32 33 38 45 68 49 59 55 60 83
2770.0 67 75 70 68 87 80 88 92 78 100
2810.0 106 130 137 146 195 256 386 590 801 934
2850.0 941 839 621 407 319 266 269 291 291 322
2890.0 346 381 451 496 559 613 664 755 777 774
2930.0 749 742 845 1014 1259 1399 1450 1446 1360 1168
2970.0 937 726 570 439 388 372 381 471 647 1006
3010.0 1294 1252 1104 726 380 268 221 215 186 177
3050.0 189 191 197 177 157 167 168 188 180 167
3090.0 182 178 206 205 182 164 136 131 112 80
3130.0 65 51 48 54 46 55 50 53 66 65
3170.0 78 48 40 45 53 71 54 47 48 48
3210.0 66 52 46 46 30 47 44 38 30 19
3250.0 38 29 30 29 10 20 26 33 36 17
3290.0 16 23 31 50 28 38 35 43 67 35
3330.0 34 33 26 38 27 34 28 16 33 33
3370.0 34 33 16 27 27 37 36 12 20 21
3410.0 31 47 27 28 24 33 51 29 29 28
3450.0 21 36 30 37 17 21 31 31 36 26
3490.0 10 31 32 51 38 23 34 21 39 60
3530.0 44 44 46 84 109 122 181 297 630 1628
3570.0 3560 4816 4909 4066 2272 999 471 252 165 144
3610.0 144 134 109 90 89 115 118 134 158 227
3650.0 277 254 240 195 153 129 115 111 70 79
3690.0 79 57 59 59 64 66 65 66 77 94
3730.0 75 89 98 103 138 125 98 79 67 85
3770.0 90 68 69 59 78 87 93 102 106 102
3810.0 105 116 138 121 108 123 142 159 127 110
3850.0 123 148 119 107 114 113 103 116 123 119
3890.0 107 93 116 127 110 101 88 99 105 105
3930.0 109 88 84 98 115 134 0 10 10 10
##END=
