##TITLE=Phenol, 2-chloro-4-methoxy-
##JCAMP-DX=4.24
##DATA TYPE=INFRARED SPECTRUM
##ORIGIN=Sadtler Research Labs Under US-EPA Contract
##OWNER=NIST Standard Reference Data Program
##CAS REGISTRY NO=18113-03-6
##MOLFORM=C 7 H 7 Cl O 2
##XUNITS=1/CM
##YUNITS=ABSORBANCE
##XFACTOR=1.0
##YFACTOR=0.000190878
##DELTAX=4.0
##FIRSTX=450.0
##LASTX=3966.0
##FIRSTY=0.041802
##MAXX=3966
##MINX=450
##MAXY=1.90878
##MINY=0
##NPOINTS=880
##XYDATA=(X++(Y..Y))
450.0 219 89 159 33 82 79 54 172 141 200
490.0 232 261 241 212 204 171 121 142 115 170
530.0 201 219 214 136 135 122 102 94 98 121
570.0 107 98 132 159 180 182 180 172 147 152
610.0 143 120 132 91 89 81 75 67 75 102
650.0 138 191 293 408 524 726 681 556 363 277
690.0 177 93 72 30 52 43 17 36 31 39
730.0 28 17 40 4 21 32 17 36 26 31
770.0 41 28 52 44 67 83 134 212 293 439
810.0 574 666 701 767 897 993 1062 1282 1324 1312
850.0 1464 1667 1853 2128 2241 2032 1726 1234 705 383
890.0 265 201 182 161 147 136 121 122 112 115
930.0 109 114 149 185 257 349 446 595 746 911
970.0 1014 1004 939 764 560 439 374 339 299 219
1010.0 173 158 157 182 224 307 452 683 1004 1389
1050.0 1751 1945 1904 1637 1225 830 591 557 636 755
1090.0 837 842 776 650 556 533 557 645 809 1040
1130.0 1383 1948 2852 4006 5116 5875 6097 5594 4492 3440
1170.0 2540 1928 1655 1605 1722 1944 2060 2050 1940 1524
1210.0 1038 683 451 313 257 245 246 284 366 527
1250.0 805 1146 1461 1596 1519 1293 946 691 610 650
1290.0 715 747 778 808 869 992 1109 1195 1159 1027
1330.0 843 623 490 351 244 223 206 231 278 280
1370.0 303 323 309 298 317 368 428 478 478 484
1410.0 564 613 908 1162 1522 1909 2220 2297 2261 2106
1450.0 1916 1841 1767 1694 1659 1794 2171 2524 2596 2526
1490.0 2148 1573 1026 652 554 525 436 472 525 465
1530.0 494 471 533 577 580 571 657 844 945 1078
1570.0 1464 1915 2433 3551 4112 5431 7743 6523 10000 7116
1610.0 5750 4813 3413 2730 1982 1488 1212 916 764 615
1650.0 592 521 389 353 332 307 346 247 321 307
1690.0 247 224 277 248 190 136 152 196 110 69
1730.0 116 170 111 93 125 138 89 82 84 59
1770.0 87 97 50 62 57 65 84 57 79 37
1810.0 37 42 21 38 39 56 29 18 40 61
1850.0 33 11 22 20 32 52 13 7 6 13
1890.0 19 22 17 19 22 25 26 31 35 15
1930.0 8 10 12 28 27 14 17 18 13 23
1970.0 20 13 15 14 17 37 41 38 44 56
2010.0 57 65 67 56 46 40 32 31 31 28
2050.0 28 27 28 26 31 25 22 23 23 24
2090.0 31 32 33 36 40 40 40 37 38 35
2130.0 32 28 25 23 22 20 18 17 19 20
2170.0 21 22 23 23 23 21 19 20 18 17
2210.0 15 15 16 11 11 12 10 12 13 16
2250.0 21 22 27 28 28 29 26 23 22 23
2290.0 29 33 41 44 46 55 49 53 54 49
2330.0 64 65 68 40 66 52 67 45 61 73
2370.0 78 75 52 45 36 20 14 11 12 16
2410.0 20 25 26 31 35 41 51 55 59 59
2450.0 54 51 48 41 39 37 34 30 30 23
2490.0 21 19 17 17 16 15 12 12 12 9
2530.0 8 7 2 3 2 2 4 3 2 3
2570.0 5 6 9 8 10 12 14 17 20 27
2610.0 29 29 30 28 24 20 15 14 11 12
2650.0 11 10 8 7 9 7 9 8 8 7
2690.0 7 11 9 10 9 10 13 16 18 22
2730.0 22 27 28 30 30 32 35 34 33 36
2770.0 38 38 38 35 33 35 37 39 42 42
2810.0 49 55 62 74 92 121 178 260 362 434
2850.0 458 439 364 277 218 193 185 188 194 209
2890.0 223 241 259 279 302 325 350 372 392 395
2930.0 398 422 476 587 704 777 818 799 748 698
2970.0 576 467 380 304 252 234 246 288 369 494
3010.0 589 595 544 426 278 182 143 124 117 111
3050.0 109 103 105 103 103 99 95 94 90 80
3090.0 73 67 60 56 50 48 45 40 34 31
3130.0 27 27 24 24 21 26 21 23 23 23
3170.0 24 20 22 18 21 26 26 28 31 28
3210.0 30 26 21 18 17 16 17 15 16 14
3250.0 15 15 14 13 14 14 13 14 15 18
3290.0 16 15 12 17 18 18 17 25 23 26
3330.0 27 27 33 33 37 36 41 43 47 39
3370.0 38 36 36 31 29 34 33 34 32 34
3410.0 31 30 35 32 34 33 33 28 28 26
3450.0 25 22 25 25 27 35 32 30 24 19
3490.0 29 18 20 15 16 25 30 26 24 13
3530.0 24 24 19 24 14 17 31 23 35 7
3570.0 10 31 26 42 19 27 24 28 36 38
3610.0 30 40 46 80 108 162 306 563 1037 1577
3650.0 1950 1952 1735 1190 624 209 83 45 21 46
3690.0 6 20 8 14 18 2 2 15 3 3
3730.0 9 2 2 5 6 0 12 2 12 2
3770.0 2 2 2 5 4 15 10 0 5 2
3810.0 24 2 2 2 14 24 2 2 2 25
3850.0 9 2 2 6 2 2 2 4 2 7
3890.0 17 15 2 6 4 18 22 2 7 9
3930.0 17 8 24 18 14 28 11 35 14 16
##END=
