##TITLE=4-Phenyl-3-butyn-2-one
##JCAMP-DX=4.24
##DATA TYPE=INFRARED SPECTRUM
##ORIGIN=Sadtler Research Labs Under US-EPA Contract
##OWNER=NIST Standard Reference Data Program
##CAS REGISTRY NO=1817-57-8
##MOLFORM=C 10 H 8 O
##XUNITS=1/CM
##YUNITS=ABSORBANCE
##XFACTOR=1.0
##YFACTOR=0.000127582
##DELTAX=4.0
##FIRSTX=450.0
##LASTX=3966.0
##FIRSTY=0.001148
##MAXX=3966
##MINX=450
##MAXY=1.27582
##MINY=0
##NPOINTS=880
##XYDATA=(X++(Y..Y))
450.0 9 67 63 150 261 241 185 151 44 53
490.0 65 93 136 212 286 368 407 364 314 287
530.0 307 271 210 194 140 126 110 77 110 145
570.0 206 303 433 555 792 1122 1100 959 501 206
610.0 107 77 64 51 50 49 56 97 152 194
650.0 195 175 181 234 358 619 896 1126 1246 1319
690.0 1409 1080 952 733 514 348 234 146 121 148
730.0 228 367 566 827 1116 1385 1689 1889 1407 1152
770.0 808 479 238 104 34 7 1 7 0 5
810.0 4 5 18 33 27 15 1 11 40 103
850.0 143 138 99 32 23 30 37 53 60 57
890.0 53 62 65 65 72 84 103 116 95 82
930.0 78 75 86 99 128 173 231 315 474 836
970.0 1367 1692 1681 1234 734 420 272 206 180 172
1010.0 173 208 288 448 526 508 437 338 333 347
1050.0 352 344 333 324 293 251 220 180 157 164
1090.0 184 189 173 154 137 127 131 153 189 249
1130.0 356 511 727 1116 2066 4036 5840 6386 5164 2947
1170.0 1627 1059 933 861 784 587 423 345 333 326
1210.0 324 326 336 354 399 430 411 372 351 431
1250.0 675 1179 1971 2851 3658 4380 4758 4645 4108 3049
1290.0 2188 1499 820 422 290 248 234 235 248 259
1330.0 264 290 314 378 490 669 1057 1672 2058 2123
1370.0 1626 1023 651 463 335 252 195 158 172 198
1410.0 230 291 302 366 376 422 436 482 541 510
1450.0 454 346 221 158 119 93 80 144 400 1014
1490.0 1664 1681 1350 506 217 138 152 142 116 117
1530.0 102 105 93 83 75 93 96 82 94 101
1570.0 104 109 123 118 152 185 256 326 333 281
1610.0 189 135 118 132 143 191 206 224 238 253
1650.0 253 346 437 564 715 906 1152 1562 2209 3732
1690.0 6406 8862 10000 8962 6439 4611 2791 1672 1204 904
1730.0 663 483 391 349 328 312 301 267 226 189
1770.0 136 118 115 113 117 120 131 151 137 123
1810.0 77 42 38 41 45 45 42 35 19 10
1850.0 23 35 37 39 36 34 50 60 63 67
1890.0 76 89 96 79 53 23 14 16 17 31
1930.0 41 50 63 67 81 89 95 102 113 113
1970.0 92 62 23 5 5 0 0 8 10 11
2010.0 13 9 4 4 6 6 9 8 5 6
2050.0 4 3 2 2 1 7 11 16 22 29
2090.0 40 62 95 143 202 256 295 308 297 277
2130.0 244 205 172 149 127 115 130 168 221 285
2170.0 355 439 576 836 1320 2116 3244 4571 5768 6363
2210.0 6113 5136 3722 2362 1197 500 279 220 194 174
2250.0 156 137 112 85 62 44 28 22 29 35
2290.0 42 38 30 27 26 32 39 46 44 43
2330.0 41 40 42 44 38 32 23 23 9 9
2370.0 11 15 14 18 16 16 16 16 14 14
2410.0 14 14 16 14 11 8 6 7 7 7
2450.0 7 9 12 15 21 25 32 40 50 58
2490.0 70 75 80 77 75 69 62 55 48 40
2530.0 36 37 37 39 37 37 35 29 26 24
2570.0 18 16 15 14 15 15 15 17 17 15
2610.0 12 11 9 8 8 8 9 7 7 8
2650.0 6 7 9 12 16 17 16 13 11 9
2690.0 7 3 2 0 0 1 2 0 2 3
2730.0 3 3 4 8 11 15 19 21 17 12
2770.0 9 7 7 9 8 7 8 6 6 6
2810.0 6 6 8 11 13 17 23 24 30 33
2850.0 37 39 41 46 51 53 58 63 67 69
2890.0 66 59 55 57 61 64 73 80 91 104
2930.0 114 120 121 115 109 103 102 103 108 121
2970.0 131 145 153 140 130 119 117 129 156 218
3010.0 359 473 475 412 288 265 308 393 466 476
3050.0 436 362 380 511 706 936 1092 1003 889 689
3090.0 639 630 613 555 472 376 268 170 107 76
3130.0 60 51 49 45 46 52 54 49 41 30
3170.0 24 23 23 22 20 16 16 12 9 7
3210.0 7 9 6 9 6 8 8 8 6 5
3250.0 6 7 8 4 8 9 4 6 8 7
3290.0 9 10 10 8 14 18 19 17 19 24
3330.0 27 33 38 44 51 62 79 100 126 162
3370.0 197 220 214 176 132 92 68 58 43 29
3410.0 24 17 18 19 17 16 13 9 11 10
3450.0 7 7 5 12 9 9 10 9 10 11
3490.0 9 9 6 4 3 1 8 6 5 0
3530.0 9 10 5 11 6 8 12 12 12 3
3570.0 2 12 11 14 6 3 10 4 11 4
3610.0 0 1 1 3 5 12 5 6 7 8
3650.0 20 11 13 12 13 17 17 17 16 14
3690.0 19 11 14 10 15 20 18 17 11 6
3730.0 8 10 9 15 17 20 20 6 13 9
3770.0 4 5 11 10 13 12 11 11 22 19
3810.0 15 15 18 16 7 9 6 21 11 7
3850.0 4 17 7 7 9 13 3 7 6 10
3890.0 12 12 15 16 14 18 18 15 16 16
3930.0 16 8 15 10 3 2 11 9 3 8
##END=
