##TITLE=p-Cresol, 2-(.alpha.-methylbenzyl)-,
##JCAMP-DX=4.24
##DATA TYPE=INFRARED SPECTRUM
##ORIGIN=Sadtler Research Labs Under US-EPA Contract
##OWNER=NIST Standard Reference Data Program
##CAS REGISTRY NO=1817-67-0
##MOLFORM=C 15 H 16 O
##XUNITS=1/CM
##YUNITS=ABSORBANCE
##XFACTOR=1.0
##YFACTOR=0.000034979
##DELTAX=4.0
##FIRSTX=450.0
##LASTX=3966.0
##FIRSTY=0.015636
##MAXX=3966
##MINX=450
##MAXY=0.34979
##MINY=0
##NPOINTS=880
##XYDATA=(X++(Y..Y))
450.0 447 591 858 737 815 660 813 752 723 860
490.0 851 746 788 904 883 893 786 719 613 610
530.0 528 468 351 348 355 473 407 323 250 247
570.0 267 274 275 355 457 571 493 368 177 101
610.0 69 86 30 22 20 53 84 167 233 180
650.0 169 119 87 152 103 304 415 521 841 1275
690.0 2278 3599 4916 4830 3865 2546 1568 935 622 614
730.0 703 802 945 1021 1100 1226 1417 1619 1640 1479
770.0 1206 940 919 1193 1762 2399 2896 3109 2968 2569
810.0 2408 2404 2198 1568 889 401 197 128 58 42
850.0 23 7 23 50 60 172 324 431 426 279
890.0 175 128 196 351 499 475 323 166 82 57
930.0 58 44 32 39 22 14 9 42 74 108
970.0 125 126 188 241 282 330 384 457 480 493
1010.0 440 386 398 670 1133 1383 1284 964 823 909
1050.0 986 1006 1009 961 858 772 751 789 857 955
1090.0 1073 1160 1235 1387 1661 1985 2161 2059 1698 1309
1130.0 1032 953 1065 1313 1601 1774 1812 1851 2104 2773
1170.0 3881 5176 6277 6807 6629 5951 5013 4071 3238 2701
1210.0 2462 2447 2470 2473 2452 2452 2558 2736 2995 3346
1250.0 3862 4340 4524 4283 3836 3370 2937 2495 2039 1641
1290.0 1372 1244 1186 1240 1432 1785 2192 2467 2442 2130
1330.0 1701 1307 1037 831 668 558 497 496 512 580
1370.0 734 1013 1254 1301 1094 862 706 655 650 718
1410.0 846 1014 1241 1357 1426 1384 1346 1336 1471 1792
1450.0 2241 2562 2670 2524 2297 2198 2190 2404 3054 4316
1490.0 6225 8509 10000 9990 8377 6003 4049 2472 1602 1033
1530.0 841 656 622 521 486 416 410 389 400 393
1570.0 440 500 638 770 974 1240 1526 1780 1899 1810
1610.0 1556 1254 1024 777 635 475 454 380 338 298
1650.0 259 221 228 158 176 186 178 156 189 166
1690.0 169 163 197 198 206 195 219 269 253 262
1730.0 292 350 356 399 415 431 444 388 345 264
1770.0 253 205 203 205 275 301 383 395 431 386
1810.0 344 317 279 263 245 260 239 253 228 253
1850.0 234 241 247 274 306 354 391 406 394 320
1890.0 244 169 130 97 90 86 95 100 113 122
1930.0 175 226 267 292 298 275 264 226 188 130
1970.0 104 87 75 81 75 71 62 66 55 63
2010.0 56 60 57 55 60 66 71 64 60 64
2050.0 57 53 36 37 37 36 28 29 33 32
2090.0 33 29 31 29 20 16 15 20 16 17
2130.0 19 19 15 18 13 9 16 10 15 17
2170.0 24 24 13 15 20 18 15 15 10 11
2210.0 17 12 19 16 18 16 21 22 29 31
2250.0 42 40 50 54 51 55 56 74 77 91
2290.0 109 126 131 146 145 170 160 144 127 62
2330.0 68 75 72 9 198 92 145 84 34 40
2370.0 101 110 156 147 127 90 89 80 81 79
2410.0 78 86 85 89 85 96 99 98 93 93
2450.0 96 91 89 92 91 82 93 90 93 97
2490.0 108 106 110 112 114 107 91 81 74 78
2530.0 57 59 57 45 52 40 48 40 50 44
2570.0 55 60 52 55 54 62 60 63 62 74
2610.0 69 63 63 67 77 79 79 76 69 70
2650.0 73 66 63 59 58 57 47 48 41 47
2690.0 47 50 41 52 45 48 56 57 66 72
2730.0 99 129 163 196 198 166 132 106 97 97
2770.0 91 92 93 88 92 103 112 112 127 124
2810.0 143 163 173 202 222 257 292 338 366 409
2850.0 483 591 750 977 1296 1712 2162 2553 2815 2878
2890.0 2704 2387 2082 1856 1778 1843 2022 2282 2653 3135
2930.0 3686 4064 4130 3840 3258 2609 2111 1858 1902 2357
2970.0 3508 5370 6581 5964 4096 2512 1865 1719 1830 2008
3010.0 2221 2476 2766 3171 3721 4248 4508 4337 3853 3369
3050.0 3100 3010 3035 3275 3796 4220 4017 3239 2472 2129
3090.0 1962 1686 1354 1093 933 826 706 565 443 346
3130.0 272 218 178 143 122 123 125 121 119 104
3170.0 106 80 72 58 78 67 49 59 59 66
3210.0 54 54 47 73 53 48 41 49 51 55
3250.0 54 52 42 45 33 50 41 34 16 20
3290.0 19 14 7 15 8 20 16 23 10 8
3330.0 25 12 10 18 20 26 36 40 32 49
3370.0 62 45 36 45 30 53 53 62 63 60
3410.0 50 32 39 11 22 57 31 45 26 33
3450.0 18 36 36 40 47 57 34 38 40 34
3490.0 43 57 72 70 101 107 118 135 152 160
3530.0 231 274 331 431 561 675 887 1092 1396 1950
3570.0 2547 3097 3369 3582 3734 3801 3719 3225 2595 1868
3610.0 1362 969 757 671 648 735 815 1026 1532 2344
3650.0 3239 3390 2705 1585 701 388 173 215 107 147
3690.0 44 54 49 38 37 54 7 67 16 10
3730.0 23 18 16 17 93 2 36 6 28 18
3770.0 13 39 7 24 11 32 16 44 7 61
3810.0 4 69 17 18 34 39 57 59 14 15
3850.0 57 26 31 18 55 67 18 50 40 93
3890.0 0 50 28 47 22 50 32 62 71 43
3930.0 114 59 49 49 149 54 66 22 57 40
##END=
