##TITLE=Bicyclo[3.1.1]heptane, 6,6-dimethyl-2-methylene-, (1S)-
##JCAMP-DX=4.24
##DATA TYPE=INFRARED SPECTRUM
##ORIGIN=Sadtler Research Labs Under US-EPA Contract
##OWNER=NIST Standard Reference Data Program
##CAS REGISTRY NO=18172-67-3
##MOLFORM=C 10 H 16
##XUNITS=1/CM
##YUNITS=ABSORBANCE
##XFACTOR=1.0
##YFACTOR=0.000146286
##DELTAX=4.0
##FIRSTX=450.0
##LASTX=3966.0
##FIRSTY=0.002926
##MAXX=3966
##MINX=450
##MAXY=1.46286
##MINY=0
##NPOINTS=880
##XYDATA=(X++(Y..Y))
450.0 20 50 65 24 23 3 33 34 27 23
490.0 34 28 33 45 51 91 127 140 186 207
530.0 162 127 84 57 41 34 36 42 44 38
570.0 22 43 45 64 79 97 126 141 129 108
610.0 72 40 18 20 23 28 29 26 31 35
650.0 27 21 18 12 10 13 21 23 19 24
690.0 30 20 17 31 38 37 44 42 40 33
730.0 26 24 23 22 36 53 78 119 127 150
770.0 130 118 87 70 68 68 66 61 66 49
810.0 42 42 42 48 50 49 70 104 177 246
850.0 321 449 490 613 935 1369 1716 2187 2449 1780
890.0 1413 909 479 264 201 156 156 158 145 159
930.0 160 162 148 144 138 133 131 119 119 121
970.0 114 121 95 85 70 53 48 46 50 51
1010.0 53 58 57 50 45 53 56 74 98 130
1050.0 163 167 165 129 106 71 55 52 59 68
1090.0 93 125 169 211 236 228 206 171 130 116
1130.0 127 158 187 207 203 173 132 80 55 47
1170.0 48 58 70 89 120 151 189 221 224 237
1210.0 218 204 195 174 162 156 154 152 156 174
1250.0 196 226 230 213 196 152 129 117 117 126
1290.0 126 129 121 119 126 144 146 155 139 121
1330.0 99 78 72 68 74 86 113 185 287 384
1370.0 511 731 680 784 828 837 633 563 377 238
1410.0 187 155 150 165 233 327 445 531 637 652
1450.0 724 770 817 1001 1065 1024 968 853 729 548
1490.0 394 284 178 126 78 64 64 54 46 49
1530.0 57 35 41 19 31 29 28 15 17 34
1570.0 32 46 38 61 60 71 72 79 81 96
1610.0 114 143 183 265 405 599 848 1091 1273 1319
1650.0 1231 965 740 487 311 188 140 101 94 71
1690.0 80 74 68 51 65 61 55 40 54 56
1730.0 58 48 61 64 78 84 112 143 160 185
1770.0 152 133 106 68 43 36 21 24 16 16
1810.0 13 15 9 15 8 12 15 11 13 5
1850.0 9 9 8 6 8 0 6 5 4 3
1890.0 0 3 2 6 4 4 6 0 5 4
1930.0 4 4 4 5 5 4 5 7 6 7
1970.0 6 5 5 7 5 6 5 7 6 9
2010.0 8 11 10 12 10 10 9 9 8 8
2050.0 9 11 12 11 10 11 10 10 11 12
2090.0 13 12 13 14 16 16 16 14 15 15
2130.0 13 14 12 12 10 10 9 11 10 11
2170.0 11 9 10 10 10 10 9 11 12 13
2210.0 14 14 14 14 12 12 10 9 10 10
2250.0 10 9 11 13 12 13 14 14 13 15
2290.0 15 17 18 19 21 24 23 21 24 19
2330.0 17 10 12 10 7 3 0 0 0 0
2370.0 0 0 0 0 0 0 0 0 3 1
2410.0 0 1 1 1 2 2 3 2 0 2
2450.0 2 4 3 5 4 5 4 4 3 4
2490.0 3 6 5 7 10 13 15 15 16 14
2530.0 13 13 11 13 13 16 16 18 20 18
2570.0 19 15 18 18 18 17 19 18 16 15
2610.0 14 12 12 12 13 16 18 20 19 23
2650.0 25 31 39 48 53 56 51 45 36 29
2690.0 26 24 26 29 32 38 45 55 69 84
2730.0 101 104 104 95 80 72 67 70 77 82
2770.0 90 89 87 83 84 89 95 102 108 116
2810.0 123 132 140 153 166 182 208 249 314 401
2850.0 502 617 766 997 1384 1914 2424 2930 3150 3084
2890.0 3043 2897 2835 2981 3487 4597 6063 7270 9230 9508
2930.0 10000 9837 8877 8370 8083 7133 6603 6224 5287 4602
2970.0 4047 3648 3817 3682 4017 4318 4075 4047 3004 2182
3010.0 1444 825 489 347 289 262 245 231 221 214
3050.0 219 240 287 404 645 917 1043 1370 1073 887
3090.0 622 323 177 130 118 113 105 101 93 90
3130.0 88 88 87 87 85 82 78 75 72 64
3170.0 57 52 43 39 33 26 23 18 16 16
3210.0 15 11 12 9 7 7 5 4 3 3
3250.0 0 3 1 0 3 6 4 5 5 7
3290.0 7 8 9 13 10 10 11 10 13 16
3330.0 16 17 22 21 23 24 23 24 21 25
3370.0 23 20 21 20 21 19 16 17 16 16
3410.0 18 18 13 18 17 23 24 17 17 18
3450.0 18 21 23 21 22 21 18 21 13 18
3490.0 11 14 12 10 15 13 16 15 13 15
3530.0 15 15 13 13 13 17 13 20 11 16
3570.0 12 14 17 11 15 5 8 17 13 16
3610.0 7 11 10 9 19 1 18 18 16 16
3650.0 8 21 12 21 19 4 16 4 21 18
3690.0 13 19 20 25 25 22 18 21 25 27
3730.0 17 18 20 24 0 22 10 27 25 21
3770.0 22 22 24 24 25 20 30 23 25 29
3810.0 28 27 35 25 40 38 38 31 43 29
3850.0 33 8 30 29 31 32 37 26 28 22
3890.0 34 23 32 14 21 22 27 16 19 24
3930.0 25 28 28 31 30 20 18 24 26 28
##END=
