##TITLE=2,4,5-Trimethoxyacetophenone
##JCAMP-DX=4.24
##DATA TYPE=INFRARED SPECTRUM
##ORIGIN=Sadtler Research Labs Under US-EPA Contract
##OWNER=NIST Standard Reference Data Program
##CAS REGISTRY NO=1818-28-6
##MOLFORM=C 11 H 14 O 4
##XUNITS=1/CM
##YUNITS=ABSORBANCE
##XFACTOR=1.0
##YFACTOR=0.000142026
##DELTAX=4.0
##FIRSTX=450.0
##LASTX=3966.0
##FIRSTY=0.007385
##MAXX=3966
##MINX=450
##MAXY=1.42026
##MINY=0
##NPOINTS=880
##XYDATA=(X++(Y..Y))
450.0 52 51 73 18 41 47 16 5 13 18
490.0 23 21 9 36 39 43 51 57 61 51
530.0 69 81 117 140 171 257 362 516 709 863
570.0 930 838 656 478 359 262 206 161 127 114
610.0 115 107 132 184 242 311 354 348 297 210
650.0 156 106 95 73 83 67 50 40 34 19
690.0 8 16 30 18 12 17 31 53 74 85
730.0 85 84 60 52 49 42 51 45 48 59
770.0 79 102 154 240 393 586 816 995 1076 1070
810.0 1001 879 716 553 427 367 324 292 293 289
850.0 264 236 219 214 232 273 336 395 453 463
890.0 437 396 348 304 257 219 195 172 172 185
930.0 220 272 337 394 406 379 338 321 334 376
970.0 448 540 633 717 766 770 747 750 785 894
1010.0 1089 1398 1867 2526 3326 4162 4817 5039 4731 3949
1050.0 3029 2211 1703 1443 1271 1093 881 696 562 484
1090.0 425 390 362 346 338 340 357 389 446 526
1130.0 656 869 1222 1757 2440 3088 3483 3504 3291 3096
1170.0 3089 3219 3296 3270 3227 3401 4063 5315 7061 8776
1210.0 9763 10000 9277 8351 7306 6117 4888 3813 3107 2736
1250.0 2609 2604 2684 2830 3024 3213 3323 3294 3113 2885
1290.0 2694 2635 2729 2937 3171 3317 3287 3058 2697 2274
1330.0 1880 1577 1365 1249 1240 1394 1771 2115 2177 1913
1370.0 1575 1536 1851 2502 3427 4455 4986 4623 3510 2297
1410.0 1541 1241 1136 1194 1301 1587 1968 2388 2545 2372
1450.0 2075 2006 2320 2816 3203 3210 2909 2519 2332 2637
1490.0 3539 5146 6876 8250 7930 6347 4512 3032 2152 1604
1530.0 1271 1046 905 823 801 831 895 984 1149 1322
1570.0 1500 1623 1663 1647 1636 1735 2008 2493 2932 3160
1610.0 2899 2287 1582 1074 771 614 519 474 463 470
1650.0 488 535 601 671 779 916 1150 1562 2281 3277
1690.0 4225 4464 4145 3195 2402 1878 1500 1180 951 826
1730.0 679 573 463 380 285 235 198 166 142 126
1770.0 111 89 93 83 83 72 63 60 50 51
1810.0 39 39 33 32 27 22 33 36 34 31
1850.0 41 46 48 46 46 39 45 44 44 38
1890.0 30 26 22 20 16 17 16 24 24 37
1930.0 41 42 43 41 44 43 46 46 53 53
1970.0 55 57 58 58 58 56 59 64 70 76
2010.0 82 85 88 86 88 86 89 85 86 84
2050.0 88 88 88 90 89 95 96 94 91 88
2090.0 83 78 71 63 56 44 41 34 29 24
2130.0 22 18 18 18 18 21 21 22 20 20
2170.0 16 16 15 14 16 16 18 18 18 18
2210.0 17 15 18 18 15 16 12 10 9 6
2250.0 5 5 3 3 1 3 5 7 12 15
2290.0 21 26 32 34 37 35 29 21 22 21
2330.0 18 18 12 15 18 16 17 15 17 5
2370.0 5 7 14 12 11 9 10 13 16 20
2410.0 23 24 22 22 22 22 22 22 20 19
2450.0 21 18 19 16 20 19 21 19 20 20
2490.0 24 22 20 24 26 26 27 31 35 34
2530.0 36 36 36 36 36 36 36 34 35 35
2570.0 40 42 46 51 60 67 76 83 90 90
2610.0 86 81 73 64 56 47 45 41 40 38
2650.0 35 34 32 35 35 35 32 27 25 22
2690.0 20 19 21 22 23 25 27 27 29 31
2730.0 31 31 33 34 38 39 43 50 55 61
2770.0 65 76 84 97 108 123 138 158 188 218
2810.0 262 317 394 488 615 778 961 1147 1306 1431
2850.0 1507 1506 1404 1210 998 836 742 707 715 749
2890.0 802 860 909 958 1024 1120 1240 1361 1453 1525
2930.0 1652 1893 2255 2649 2910 2950 2795 2547 2300 2034
2970.0 1752 1517 1346 1258 1238 1294 1442 1718 2078 2343
3010.0 2298 1926 1399 964 704 561 482 423 389 361
3050.0 347 337 332 329 328 330 324 322 310 294
3090.0 274 246 216 194 172 156 146 138 125 113
3130.0 103 94 83 77 71 67 63 56 53 55
3170.0 48 42 42 40 36 35 32 29 25 21
3210.0 23 20 17 18 15 13 12 14 15 14
3250.0 9 11 13 13 10 9 13 11 11 12
3290.0 16 15 10 11 9 13 15 14 17 15
3330.0 19 20 24 25 33 40 45 54 59 61
3370.0 61 48 45 38 33 33 29 27 25 28
3410.0 24 18 17 16 19 15 13 12 15 13
3450.0 13 11 11 15 9 11 14 10 12 5
3490.0 10 12 7 6 9 9 10 9 11 12
3530.0 13 10 8 8 6 7 6 7 8 3
3570.0 11 12 16 6 9 11 1 7 8 12
3610.0 7 6 4 3 6 7 6 7 6 3
3650.0 2 3 6 5 12 3 4 10 5 3
3690.0 5 2 7 8 1 1 1 11 4 13
3730.0 8 8 6 2 5 4 8 2 8 4
3770.0 4 4 6 1 3 6 4 3 7 5
3810.0 7 8 1 6 4 3 1 8 5 2
3850.0 0 15 6 3 8 9 3 7 12 8
3890.0 15 6 11 8 9 6 9 11 9 8
3930.0 1 1 1 6 18 19 14 15 7 14
##END=
