##TITLE=Anthranilic acid, 5-chloro-, butyl ester
##JCAMP-DX=4.24
##DATA TYPE=INFRARED SPECTRUM
##ORIGIN=Sadtler Research Labs Under US-EPA Contract
##OWNER=NIST Standard Reference Data Program
##CAS REGISTRY NO=18189-08-7
##MOLFORM=C 11 H 14 Cl N O 2
##XUNITS=1/CM
##YUNITS=ABSORBANCE
##XFACTOR=1.0
##YFACTOR=0.000137949
##DELTAX=4.0
##FIRSTX=450.0
##LASTX=3966.0
##FIRSTY=0.000000
##MAXX=3966
##MINX=450
##MAXY=1.37949
##MINY=0
##NPOINTS=880
##XYDATA=(X++(Y..Y))
450.0 0 15 22 51 66 94 141 137 150 195
490.0 227 301 332 415 472 544 646 745 795 764
530.0 642 526 429 333 273 237 206 190 159 150
570.0 133 114 132 119 116 116 135 132 148 143
610.0 149 158 181 198 247 302 373 443 547 662
650.0 704 544 317 132 95 131 137 158 186 230
690.0 283 349 391 459 598 778 901 853 630 386
730.0 233 173 169 186 204 197 153 109 70 34
770.0 32 26 57 93 128 162 163 189 303 588
810.0 1024 1456 1337 913 540 336 247 206 198 197
850.0 193 183 177 169 173 186 208 233 244 261
890.0 297 355 393 346 269 199 148 115 103 98
930.0 117 163 233 302 337 335 317 315 329 330
970.0 278 208 154 131 138 161 183 183 170 161
1010.0 166 171 167 151 135 120 120 134 167 236
1050.0 340 477 623 769 913 1104 1415 1924 2583 3068
1090.0 3073 2563 1922 1483 1368 1539 1943 2512 3169 3700
1130.0 3895 3641 3025 2317 1801 1637 1776 1741 1437 927
1170.0 614 500 460 452 470 526 632 829 1176 1742
1210.0 2523 3315 3859 4248 5066 6833 9077 10000 8310 5427
1250.0 3391 2375 1932 1735 1640 1770 2319 3391 4800 5748
1290.0 5492 4461 3494 2805 2209 1745 1495 1371 1275 1149
1330.0 968 749 566 444 372 323 292 270 244 215
1370.0 211 241 306 431 580 635 575 474 446 557
1410.0 733 835 812 645 475 364 328 335 354 411
1450.0 530 702 904 1073 1247 1461 1799 2295 2862 3066
1490.0 2673 1863 1127 705 507 399 313 257 227 204
1530.0 208 233 281 374 510 713 1006 1310 1443 1351
1570.0 1175 1116 1255 1543 1889 2127 2141 1999 1914 2065
1610.0 2468 2910 3087 2812 2208 1521 1000 661 462 353
1650.0 294 270 252 260 286 322 369 425 518 661
1690.0 868 1226 1897 3073 4759 6175 6236 4717 2915 1855
1730.0 1427 1242 1039 774 537 403 334 300 277 250
1770.0 228 201 174 159 154 153 148 125 96 64
1810.0 48 39 32 27 29 30 32 39 45 41
1850.0 28 19 16 18 21 32 41 63 83 82
1890.0 61 34 24 21 21 21 22 26 27 27
1930.0 29 29 27 29 28 24 26 27 25 25
1970.0 22 20 20 18 19 20 23 22 25 25
2010.0 26 27 30 32 34 35 35 36 37 36
2050.0 36 34 34 34 33 33 33 35 38 37
2090.0 41 40 41 42 42 43 43 40 39 37
2130.0 37 33 32 30 30 30 30 31 30 33
2170.0 33 37 38 37 36 38 35 34 36 35
2210.0 37 38 39 38 38 36 33 30 27 26
2250.0 27 29 33 32 34 36 36 35 35 33
2290.0 33 31 32 34 33 32 35 32 27 26
2330.0 22 21 24 31 39 27 21 22 31 40
2370.0 47 49 48 40 31 28 25 23 25 23
2410.0 22 18 16 16 17 17 19 18 20 20
2450.0 21 21 17 15 16 17 17 16 18 18
2490.0 16 19 19 20 20 20 24 24 25 23
2530.0 22 22 20 19 18 17 18 19 18 20
2570.0 18 20 21 22 25 25 24 27 28 29
2610.0 30 31 32 32 33 30 31 33 33 33
2650.0 31 32 30 32 32 32 34 33 37 36
2690.0 38 39 42 45 45 47 51 50 53 50
2730.0 50 50 50 52 56 61 63 66 68 69
2770.0 71 74 75 76 79 83 85 87 90 91
2810.0 93 95 101 105 114 123 137 155 183 218
2850.0 267 326 379 419 464 541 646 757 851 896
2890.0 879 804 743 737 766 816 890 975 1049 1110
2930.0 1190 1322 1496 1669 1744 1717 1697 1810 2098 2432
2970.0 2625 2491 2045 1505 1096 861 694 555 440 359
3010.0 308 280 266 271 290 314 330 333 315 283
3050.0 248 214 198 198 215 248 286 281 230 163
3090.0 129 114 104 98 96 91 82 71 65 60
3130.0 55 51 49 50 51 52 55 53 56 56
3170.0 59 60 60 57 53 55 52 48 48 46
3210.0 43 39 36 32 30 29 28 26 30 27
3250.0 27 34 37 39 41 46 54 55 60 64
3290.0 71 75 82 85 85 85 86 90 93 100
3330.0 105 108 105 109 112 125 145 172 218 291
3370.0 416 641 1037 1566 1948 1862 1412 941 634 462
3410.0 359 299 268 263 255 221 166 122 97 90
3450.0 91 88 98 106 115 134 156 185 220 258
3490.0 316 386 462 556 682 833 985 1089 1070 922
3530.0 699 487 321 211 143 107 86 71 57 49
3570.0 44 40 40 36 35 30 21 25 21 18
3610.0 19 20 20 22 16 19 19 20 16 18
3650.0 21 19 19 19 22 23 23 27 23 16
3690.0 22 24 26 19 25 17 20 20 20 23
3730.0 25 20 27 21 24 15 27 20 15 15
3770.0 18 15 15 15 20 18 15 15 15 18
3810.0 15 15 18 19 18 15 20 16 19 16
3850.0 15 15 15 21 21 19 22 18 16 19
3890.0 15 22 15 21 20 18 15 22 18 20
3930.0 15 21 20 22 15 18 24 20 26 24
##END=
