##TITLE=Anthranilic acid, 5-chloro-, heptyl ester
##JCAMP-DX=4.24
##DATA TYPE=INFRARED SPECTRUM
##ORIGIN=Sadtler Research Labs Under US-EPA Contract
##OWNER=NIST Standard Reference Data Program
##CAS REGISTRY NO=18189-09-8
##MOLFORM=C 14 H 20 Cl N O 2
##XUNITS=1/CM
##YUNITS=ABSORBANCE
##XFACTOR=1.0
##YFACTOR=0.000078552
##DELTAX=4.0
##FIRSTX=450.0
##LASTX=3966.0
##FIRSTY=0.002671
##MAXX=3966
##MINX=450
##MAXY=0.78552
##MINY=0
##NPOINTS=880
##XYDATA=(X++(Y..Y))
450.0 34 58 21 65 62 152 66 99 107 168
490.0 207 275 292 353 425 512 615 713 764 741
530.0 585 426 299 264 188 176 175 137 102 61
570.0 47 56 39 20 52 59 59 67 62 42
610.0 59 63 77 97 159 211 280 342 447 599
650.0 683 433 165 32 23 47 72 89 142 196
690.0 272 370 405 445 587 773 934 916 724 478
730.0 309 209 195 223 255 234 168 99 54 14
770.0 5 3 48 121 197 235 186 147 222 469
810.0 936 1437 1332 829 438 255 182 145 158 184
850.0 215 215 200 193 184 189 247 287 274 258
890.0 295 367 404 351 259 192 148 103 93 89
930.0 111 125 145 168 196 221 234 238 253 273
970.0 274 250 205 163 144 133 130 153 182 216
1010.0 244 246 240 223 203 186 190 203 239 308
1050.0 410 552 691 828 973 1175 1496 1985 2603 3066
1090.0 3032 2571 1998 1607 1514 1700 2110 2656 3253 3700
1130.0 3806 3524 2920 2204 1670 1412 1517 1666 1303 790
1170.0 538 451 439 462 516 617 767 1011 1417 2083
1210.0 3060 4157 4941 5311 5833 7302 9480 10000 7741 5015
1250.0 3390 2593 2304 2184 2064 2109 2527 3465 4802 5640
1290.0 5227 4352 3700 3017 2302 1782 1516 1381 1273 1146
1330.0 954 713 496 354 282 256 245 241 234 217
1370.0 225 271 378 533 661 635 507 389 368 492
1410.0 695 789 763 661 511 444 447 483 533 673
1450.0 930 1269 1569 1684 1723 1799 2012 2409 2929 3022
1490.0 2423 1586 962 611 434 333 252 198 177 172
1530.0 189 242 326 480 683 902 1171 1424 1480 1361
1570.0 1260 1284 1453 1736 2062 2230 2164 2000 1973 2227
1610.0 2718 3149 3191 2739 2031 1367 890 598 424 328
1650.0 269 261 247 268 306 375 459 599 792 1083
1690.0 1497 2115 2946 3933 5084 6027 5739 4179 2603 1726
1730.0 1379 1228 1012 748 549 438 375 323 278 233
1770.0 199 169 142 128 121 113 107 82 58 34
1810.0 21 14 10 3 2 5 8 15 21 17
1850.0 6 0 0 2 3 15 22 39 58 62
1890.0 40 16 11 8 9 10 9 13 13 15
1930.0 18 21 21 22 25 21 23 26 24 24
1970.0 26 26 26 25 28 32 33 37 40 38
2010.0 41 40 42 43 43 43 44 44 45 47
2050.0 43 43 43 45 41 41 44 44 46 46
2090.0 49 47 46 52 52 49 49 46 44 43
2130.0 42 41 41 39 39 40 42 42 40 40
2170.0 41 44 45 45 42 45 40 41 43 42
2210.0 40 42 41 38 34 33 34 32 33 33
2250.0 35 35 41 41 45 47 47 47 48 47
2290.0 49 46 56 56 56 56 48 38 23 14
2330.0 4 5 7 27 45 30 3 8 16 42
2370.0 54 59 57 52 40 26 18 13 17 16
2410.0 14 4 2 0 3 1 6 6 10 10
2450.0 12 13 9 6 7 8 9 10 11 12
2490.0 11 13 16 14 15 14 20 19 19 19
2530.0 18 18 18 19 16 12 16 14 16 17
2570.0 15 18 19 21 25 25 25 27 28 32
2610.0 32 32 35 39 39 37 40 43 42 44
2650.0 47 47 49 51 51 52 53 59 57 58
2690.0 60 58 62 65 64 64 67 67 71 72
2730.0 73 75 75 78 81 85 87 87 95 101
2770.0 105 110 114 121 126 135 145 155 162 172
2810.0 179 188 210 232 266 304 354 422 522 672
2850.0 888 1169 1486 1747 1876 1868 1749 1587 1490 1440
2890.0 1380 1356 1420 1553 1739 1971 2254 2613 3061 3624
2930.0 4194 4593 4661 4388 3906 3402 3127 3123 3280 3340
2970.0 3137 2609 1936 1427 1130 931 764 618 500 417
3010.0 359 321 298 291 297 309 316 314 297 270
3050.0 246 216 211 214 229 250 285 280 230 175
3090.0 148 133 119 118 110 99 87 78 71 65
3130.0 64 61 58 62 58 66 69 66 69 66
3170.0 70 69 73 67 62 62 57 56 54 52
3210.0 46 43 44 37 32 29 34 35 38 30
3250.0 37 49 52 44 51 64 72 73 75 85
3290.0 95 101 99 106 110 110 115 122 128 130
3330.0 143 141 152 166 185 223 271 344 452 581
3370.0 747 955 1273 1680 1906 1704 1236 840 598 462
3410.0 373 321 282 268 259 227 182 151 138 138
3450.0 158 163 183 204 233 282 331 384 452 508
3490.0 583 649 705 773 844 935 1030 1080 1024 855
3530.0 634 433 282 180 127 92 81 65 49 39
3570.0 33 33 22 14 14 18 9 9 5 7
3610.0 12 16 9 17 8 16 6 16 17 9
3650.0 16 15 19 19 11 21 18 20 9 4
3690.0 19 17 22 12 17 14 7 8 6 10
3730.0 9 9 24 18 23 7 27 11 9 0
3770.0 14 4 8 7 13 11 9 12 3 10
3810.0 7 0 19 20 12 3 7 5 21 18
3850.0 7 8 7 15 15 15 15 10 7 14
3890.0 14 28 5 11 13 13 12 7 0 17
3930.0 14 10 29 24 9 9 19 14 24 12
##END=
