##TITLE=Aniline, 2-ethyl-N-methyl-,
##JCAMP-DX=4.24
##DATA TYPE=INFRARED SPECTRUM
##ORIGIN=Sadtler Research Labs Under US-EPA Contract
##OWNER=NIST Standard Reference Data Program
##CAS REGISTRY NO=1821-38-1
##MOLFORM=C 9 H 13 N
##XUNITS=1/CM
##YUNITS=ABSORBANCE
##XFACTOR=1.0
##YFACTOR=0.000082465
##DELTAX=4.0
##FIRSTX=450.0
##LASTX=3966.0
##FIRSTY=0.000000
##MAXX=3966
##MINX=450
##MAXY=0.82465
##MINY=0
##NPOINTS=880
##XYDATA=(X++(Y..Y))
450.0 0 296 470 536 621 491 433 435 348 392
490.0 341 446 415 503 452 409 326 333 334 265
530.0 383 369 419 415 475 504 472 249 375 525
570.0 361 491 464 481 355 321 317 288 345 376
610.0 385 426 501 512 514 493 528 478 489 492
650.0 471 464 432 454 421 454 427 459 447 464
690.0 494 531 583 628 762 803 941 1054 1439 1951
730.0 3051 4541 5142 6732 7820 5163 3945 2911 1643 950
770.0 642 548 487 497 492 495 548 563 603 626
810.0 700 744 770 692 684 589 454 406 413 407
850.0 386 403 382 390 363 388 366 375 371 367
890.0 377 374 390 379 420 443 532 512 674 680
930.0 569 568 515 514 531 583 653 706 723 718
970.0 688 632 628 580 567 535 508 489 477 472
1010.0 480 501 526 594 639 723 814 987 1240 1516
1050.0 1701 1821 1846 1800 1683 1548 1425 1222 1031 847
1090.0 748 707 731 780 838 877 857 832 753 696
1130.0 643 657 681 757 904 1163 1557 2054 2516 2630
1170.0 2515 2200 1661 1136 865 743 684 657 632 644
1210.0 642 661 684 739 796 909 1052 1265 1592 2078
1250.0 2752 3449 3987 4174 3994 3421 2736 2229 2078 2263
1290.0 2708 3352 3963 4388 4539 4447 4076 3606 3131 2687
1330.0 2238 1774 1328 1034 923 856 843 810 801 799
1370.0 831 842 898 987 912 862 807 750 756 790
1410.0 838 978 1112 1450 1751 1913 1927 1930 2007 2208
1450.0 2743 3388 3875 4149 4298 4260 3955 3738 3517 3307
1490.0 3327 3896 4992 6656 8336 9482 10000 9111 7578 5488
1530.0 3821 2520 1721 1232 1009 931 871 860 964 1147
1570.0 1398 1807 2345 2978 3484 3916 4271 4731 5170 5493
1610.0 5322 4727 3751 2463 1436 963 738 641 608 573
1650.0 507 522 551 573 560 552 514 526 457 439
1690.0 457 470 469 589 735 825 806 614 507 443
1730.0 411 365 409 423 422 448 506 541 548 554
1770.0 506 462 438 404 402 405 408 414 398 409
1810.0 385 356 352 339 334 328 354 388 383 370
1850.0 387 382 360 362 383 430 523 561 568 539
1890.0 482 417 387 396 433 484 504 507 465 435
1930.0 368 333 316 295 293 301 299 291 299 283
1970.0 289 290 299 297 299 292 289 294 291 293
2010.0 283 278 268 271 267 266 268 261 265 267
2050.0 274 261 262 253 251 266 282 295 304 309
2090.0 311 317 313 313 311 318 319 327 333 331
2130.0 327 326 320 315 308 296 294 286 281 279
2170.0 278 282 279 278 277 281 276 278 280 281
2210.0 281 283 289 293 298 297 298 295 298 297
2250.0 293 290 290 290 283 285 278 279 276 280
2290.0 273 276 275 276 281 287 300 302 317 308
2330.0 309 306 292 286 273 289 291 285 250 249
2370.0 249 249 249 249 252 259 268 275 284 286
2410.0 289 296 307 308 311 312 300 294 276 268
2450.0 257 255 252 253 249 256 254 261 267 267
2490.0 267 264 262 261 259 255 256 253 254 261
2530.0 267 278 287 303 313 322 324 328 342 352
2570.0 362 366 370 370 368 361 358 353 345 342
2610.0 337 344 342 356 359 368 373 373 372 360
2650.0 352 353 353 357 366 352 357 341 342 342
2690.0 352 357 358 365 364 364 362 382 395 413
2730.0 436 463 482 509 521 521 526 534 552 562
2770.0 596 618 647 683 727 786 858 965 1098 1313
2810.0 1623 2054 2504 2811 2901 2799 2512 2124 1861 1762
2850.0 1813 1953 2189 2493 2895 3364 3921 4411 4813 5065
2890.0 5086 4963 4721 4503 4366 4361 4434 4574 4743 4893
2930.0 5052 5190 5294 5306 5205 4971 4772 4809 5376 6492
2970.0 7657 8207 8249 7322 5604 4113 3053 2268 1794 1643
3010.0 1732 1884 2040 2142 2196 2174 2159 2144 2197 2311
3050.0 2444 2534 2578 2619 2627 2642 2734 2756 2633 2391
3090.0 2044 1673 1370 1149 976 844 754 669 636 611
3130.0 572 539 496 466 432 431 419 415 406 403
3170.0 393 387 373 379 380 372 358 362 364 349
3210.0 344 328 340 329 326 324 326 323 313 321
3250.0 319 315 297 317 333 317 323 328 327 324
3290.0 321 304 308 293 298 297 301 309 298 302
3330.0 291 304 305 314 308 308 307 311 317 306
3370.0 313 317 327 310 329 318 322 307 315 330
3410.0 324 323 321 337 328 353 365 397 447 512
3450.0 634 806 1041 1237 1336 1339 1246 1022 814 620
3490.0 527 450 422 373 363 363 344 325 317 337
3530.0 332 316 323 326 315 314 287 306 307 307
3570.0 319 300 279 299 321 301 290 310 289 320
3610.0 293 300 303 292 292 293 297 269 283 296
3650.0 294 281 271 291 278 289 276 290 252 261
3690.0 251 270 272 263 266 249 266 269 262 267
3730.0 249 249 256 257 254 249 249 249 249 253
3770.0 268 256 263 263 249 269 253 271 255 249
3810.0 270 263 249 249 268 248 249 256 267 259
3850.0 249 258 249 258 253 259 270 279 260 315
3890.0 284 296 311 293 289 283 283 260 275 309
3930.0 283 312 298 290 287 298 251 248 292 282
##END=
