##TITLE=Spiro[5.5]undecane-3-carboxylic acid
##JCAMP-DX=4.24
##DATA TYPE=INFRARED SPECTRUM
##ORIGIN=Sadtler Research Labs Under US-EPA Contract
##OWNER=NIST Standard Reference Data Program
##CAS REGISTRY NO=18244-47-8
##MOLFORM=C 12 H 20 O 2
##XUNITS=1/CM
##YUNITS=ABSORBANCE
##XFACTOR=1.0
##YFACTOR=0.000127185
##DELTAX=4.0
##FIRSTX=450.0
##LASTX=3966.0
##FIRSTY=0.009793
##MAXX=3966
##MINX=450
##MAXY=1.27185
##MINY=0
##NPOINTS=880
##XYDATA=(X++(Y..Y))
450.0 77 40 0 9 10 41 62 74 99 129
490.0 137 170 186 208 215 271 321 357 379 412
530.0 444 477 499 586 677 796 890 956 1079 1152
570.0 1202 1135 1065 993 897 770 663 612 556 551
610.0 516 466 393 369 356 382 468 626 839 961
650.0 987 737 516 303 255 213 206 202 202 197
690.0 204 222 256 301 339 370 405 420 408 391
730.0 372 365 346 329 297 260 239 234 214 206
770.0 180 164 142 125 115 102 93 98 101 95
810.0 97 104 100 102 104 103 99 132 187 190
850.0 169 107 71 61 67 67 71 88 120 179
890.0 244 302 327 328 341 352 343 312 285 276
930.0 270 244 211 176 145 128 129 138 154 175
970.0 205 244 286 352 438 502 543 579 572 523
1010.0 438 370 369 367 357 360 379 403 413 399
1050.0 382 391 421 483 565 706 898 1135 1406 1723
1090.0 2082 2482 2895 3335 3821 4273 4497 4286 3657 2993
1130.0 2538 2340 2217 2110 1982 1846 1745 1655 1548 1394
1170.0 1207 1042 937 897 915 924 867 742 597 502
1210.0 452 432 431 408 360 312 294 307 325 348
1250.0 361 364 370 371 388 405 449 480 496 492
1290.0 489 498 496 488 465 446 445 459 474 488
1330.0 515 552 595 646 667 650 605 528 461 429
1370.0 430 465 530 603 657 674 599 481 368 305
1410.0 271 257 240 243 245 269 334 470 706 993
1450.0 1284 1398 1405 1370 1238 1027 704 383 216 123
1490.0 73 63 44 20 2 9 30 42 42 39
1530.0 30 27 29 15 22 30 31 16 26 24
1570.0 20 13 20 13 8 20 23 17 15 20
1610.0 26 28 23 26 26 28 30 31 36 32
1650.0 32 33 47 40 45 50 50 70 67 84
1690.0 103 128 151 191 241 293 359 441 578 725
1730.0 927 1127 1360 1578 1816 2101 2575 3441 4806 6322
1770.0 6933 6460 4901 3591 2690 2143 1710 1367 1033 772
1810.0 566 424 332 268 219 166 133 102 81 62
1850.0 58 48 41 36 30 25 25 23 22 20
1890.0 16 18 17 19 16 15 15 15 14 16
1930.0 20 20 22 16 19 18 17 15 13 10
1970.0 8 8 7 8 11 11 11 13 15 15
2010.0 17 16 14 16 15 14 14 14 10 12
2050.0 8 7 8 5 6 2 2 3 3 4
2090.0 4 4 5 3 6 5 8 7 7 6
2130.0 7 6 5 2 4 7 8 12 13 11
2170.0 11 12 16 16 16 17 20 18 19 21
2210.0 22 19 20 21 19 20 19 17 16 16
2250.0 16 15 16 12 16 18 20 25 29 32
2290.0 37 44 52 59 58 68 64 60 66 56
2330.0 50 43 37 34 59 57 47 38 25 9
2370.0 10 14 26 34 23 9 4 2 3 0
2410.0 3 3 6 8 8 10 10 8 8 6
2450.0 8 5 7 11 11 9 14 13 13 14
2490.0 13 13 14 13 14 13 13 8 9 10
2530.0 10 7 9 12 9 7 10 10 8 12
2570.0 9 13 14 17 21 25 29 30 34 38
2610.0 38 40 42 46 49 50 55 60 69 74
2650.0 82 95 110 120 129 132 130 116 103 90
2690.0 78 70 68 67 67 67 68 68 64 59
2730.0 57 55 53 56 57 63 70 76 80 85
2770.0 93 96 102 107 116 128 142 154 166 178
2810.0 189 208 222 248 289 355 473 693 1051 1549
2850.0 2092 2594 3062 3281 3275 3084 2752 2449 2122 1906
2890.0 1834 1918 2149 2519 3032 3660 4383 5111 5934 7118
2930.0 8796 9787 10000 9115 8162 7268 6081 4722 3281 2098
2970.0 1241 724 441 288 215 173 147 130 117 98
3010.0 86 73 64 61 63 69 69 60 50 47
3050.0 37 34 28 25 26 21 21 24 29 28
3090.0 29 31 25 26 22 24 18 18 17 21
3130.0 18 21 17 17 17 14 10 10 13 15
3170.0 16 14 16 19 17 19 16 16 14 15
3210.0 11 12 13 13 13 14 11 15 14 14
3250.0 11 15 12 14 15 21 23 16 14 19
3290.0 19 14 16 16 16 14 15 17 21 21
3330.0 22 19 20 13 19 17 17 15 15 9
3370.0 9 13 10 13 10 10 10 13 20 11
3410.0 11 5 13 12 11 2 7 9 8 13
3450.0 6 10 11 14 6 8 6 8 19 19
3490.0 16 21 21 24 37 32 41 42 51 62
3530.0 40 37 20 31 54 71 83 176 375 1083
3570.0 2435 3147 2926 1703 590 237 107 73 49 37
3610.0 59 32 48 50 55 70 51 21 30 29
3650.0 53 39 21 12 5 33 32 44 11 14
3690.0 39 19 15 20 22 33 46 18 38 47
3730.0 28 53 60 41 55 54 32 31 23 28
3770.0 34 18 19 17 18 4 18 35 40 28
3810.0 34 22 43 39 36 17 27 54 55 27
3850.0 28 72 32 34 40 42 34 24 38 36
3890.0 24 23 25 54 48 27 38 38 44 31
3930.0 33 51 22 27 43 21 26 30 19 12
##END=
