##TITLE=Pentane, 2,4-dibromo-,
##JCAMP-DX=4.24
##DATA TYPE=INFRARED SPECTRUM
##ORIGIN=Sadtler Research Labs Under US-EPA Contract
##OWNER=NIST Standard Reference Data Program
##CAS REGISTRY NO=1825-11-2
##MOLFORM=C 5 H 10 Br 2
##XUNITS=1/CM
##YUNITS=ABSORBANCE
##XFACTOR=1.0
##YFACTOR=0.000051691
##DELTAX=4.0
##FIRSTX=450.0
##LASTX=3966.0
##FIRSTY=0.011630
##MAXX=3966
##MINX=450
##MAXY=0.51691
##MINY=0
##NPOINTS=880
##XYDATA=(X++(Y..Y))
450.0 225 260 216 157 120 104 122 114 131 223
490.0 227 161 340 333 327 356 539 796 1376 1795
530.0 2178 2539 2545 2308 2386 1978 2323 2145 2194 1707
570.0 1504 1041 586 447 340 448 310 265 330 369
610.0 510 641 832 1104 1374 1585 1574 1265 867 572
650.0 327 307 327 328 335 359 292 235 235 199
690.0 206 143 166 163 152 144 90 97 120 165
730.0 71 118 171 147 132 136 104 130 143 140
770.0 147 129 117 112 137 163 152 154 241 180
810.0 175 188 194 261 202 203 241 273 411 560
850.0 876 1138 1142 1028 878 1159 1556 1721 1627 1160
890.0 737 546 449 451 485 566 718 920 1150 1370
930.0 1500 1527 1364 1069 697 421 310 323 354 442
970.0 588 756 946 1051 1096 1134 1172 1287 1612 2186
1010.0 2728 2711 2258 1635 1104 821 697 691 848 1081
1050.0 1207 1159 925 722 629 673 761 822 814 755
1090.0 714 731 778 874 1042 1291 1673 2245 3113 4109
1130.0 4629 4223 3073 1985 1425 1294 1413 1706 2089 2458
1170.0 2724 2912 3023 3050 2930 2725 2689 3077 4137 5848
1210.0 7772 9265 10000 9698 8590 6391 3944 2726 2211 1953
1250.0 1940 2217 2693 3108 3399 3418 3211 2828 2420 2050
1290.0 1761 1515 1236 949 740 592 518 486 510 552
1330.0 610 680 730 794 829 857 918 1008 1143 1302
1370.0 1532 2032 2931 3820 4166 3623 2458 1506 909 674
1410.0 653 796 979 1214 1416 1590 1753 2072 2477 3013
1450.0 3497 3754 3646 3202 2572 1780 1160 722 463 316
1490.0 242 195 179 155 157 119 105 104 92 87
1530.0 75 80 73 83 63 71 73 84 94 60
1570.0 72 58 80 66 56 59 54 59 62 56
1610.0 59 68 84 83 65 83 72 75 64 79
1650.0 60 122 82 88 90 101 105 111 106 155
1690.0 112 125 113 124 95 78 77 91 89 93
1730.0 77 100 109 137 158 218 317 385 408 353
1770.0 261 183 115 83 78 58 62 70 66 67
1810.0 64 61 56 44 45 37 43 50 36 40
1850.0 42 49 47 47 43 47 34 38 38 37
1890.0 40 40 33 38 35 43 42 43 38 42
1930.0 46 44 45 39 46 53 52 52 53 49
1970.0 50 52 54 52 61 60 73 68 81 68
2010.0 62 59 57 59 50 39 37 35 20 22
2050.0 38 50 40 24 26 1 0 8 27 26
2090.0 37 55 62 70 67 66 73 66 64 64
2130.0 64 62 63 62 61 72 72 72 76 70
2170.0 69 80 79 89 89 88 97 96 96 95
2210.0 94 101 95 95 94 94 105 103 113 113
2250.0 104 110 111 107 100 106 100 99 99 95
2290.0 104 99 87 94 81 76 75 51 45 41
2330.0 35 48 51 96 115 36 0 4 95 175
2370.0 220 216 210 188 154 147 138 141 132 140
2410.0 132 131 141 141 145 154 170 176 172 163
2450.0 171 180 170 189 189 182 188 182 165 160
2490.0 174 162 173 172 172 202 192 183 171 175
2530.0 177 187 181 194 205 201 201 185 185 184
2570.0 175 166 167 166 178 176 191 195 196 185
2610.0 203 207 205 216 216 214 223 197 195 178
2650.0 177 205 206 205 179 189 180 170 169 184
2690.0 191 180 170 166 166 172 170 198 228 246
2730.0 268 296 345 386 390 385 342 289 232 223
2770.0 193 194 194 193 223 223 234 241 251 271
2810.0 313 373 422 477 519 572 628 639 668 687
2850.0 678 701 762 953 1271 1668 2073 2347 2473 2461
2890.0 2457 2584 2870 3193 3405 3409 3457 3764 4398 5299
2930.0 6167 6402 5807 4577 3233 2292 1863 1927 2672 3780
2970.0 4532 5046 5393 6384 7341 8077 8435 7605 6313 4257
3010.0 2394 1250 680 424 323 280 249 231 214 209
3050.0 188 187 179 168 186 190 184 167 182 180
3090.0 168 174 179 170 182 172 162 151 163 157
3130.0 159 161 149 169 169 163 165 163 183 175
3170.0 192 185 193 183 191 204 246 278 261 261
3210.0 262 232 270 242 240 225 203 199 173 158
3250.0 163 185 195 192 199 198 197 180 166 162
3290.0 149 115 116 117 118 108 98 118 111 106
3330.0 138 103 111 122 100 98 115 108 119 131
3370.0 108 106 109 116 104 82 97 91 78 101
3410.0 76 64 93 84 86 87 73 78 84 100
3450.0 101 102 72 108 96 79 99 97 49 83
3490.0 73 68 112 81 92 91 56 97 99 104
3530.0 107 103 88 84 67 98 107 88 78 76
3570.0 68 79 47 90 71 56 83 90 54 77
3610.0 72 84 63 89 101 139 116 98 73 112
3650.0 118 103 103 114 114 116 121 113 80 89
3690.0 88 104 95 125 107 127 134 108 102 108
3730.0 82 103 100 104 136 136 155 123 116 115
3770.0 118 96 95 100 91 100 61 61 121 96
3810.0 85 79 92 97 91 114 103 114 96 97
3850.0 84 92 94 99 91 85 111 102 97 116
3890.0 105 107 110 113 89 94 106 91 87 86
3930.0 76 60 76 84 89 91 90 108 114 132
##END=
