##TITLE=3-Octadecanone
##JCAMP-DX=4.24
##DATA TYPE=INFRARED SPECTRUM
##ORIGIN=Sadtler Research Labs Under US-EPA Contract
##OWNER=NIST Standard Reference Data Program
##CAS REGISTRY NO=18261-92-2
##MOLFORM=C 18 H 36 O
##XUNITS=1/CM
##YUNITS=ABSORBANCE
##XFACTOR=1.0
##YFACTOR=0.000107379
##DELTAX=4.0
##FIRSTX=450.0
##LASTX=3966.0
##FIRSTY=0.000000
##MAXX=3966
##MINX=450
##MAXY=1.07379
##MINY=0
##NPOINTS=880
##XYDATA=(X++(Y..Y))
450.0 0 93 104 104 143 124 132 140 144 137
490.0 114 138 110 141 136 136 144 142 119 122
530.0 132 134 120 131 119 134 133 107 114 127
570.0 133 134 108 120 95 126 118 112 116 106
610.0 107 126 120 142 127 120 114 123 107 112
650.0 111 100 112 99 103 132 114 109 129 128
690.0 123 142 147 169 173 187 217 245 241 239
730.0 226 219 194 184 185 174 175 171 155 157
770.0 162 153 149 143 146 139 157 143 148 148
810.0 151 158 151 151 147 141 150 145 137 148
850.0 146 137 136 131 132 142 138 139 143 145
890.0 150 152 148 148 159 163 164 170 175 184
930.0 200 211 224 243 256 266 273 272 275 272
970.0 271 262 256 251 250 246 245 246 251 258
1010.0 277 287 300 311 315 318 310 307 301 297
1050.0 295 297 294 292 294 294 299 309 326 347
1090.0 366 395 442 492 538 558 556 540 514 493
1130.0 469 452 434 422 415 412 415 420 418 415
1170.0 403 393 377 362 352 339 328 318 313 306
1210.0 300 291 278 273 270 267 260 261 265 263
1250.0 272 274 282 285 289 293 296 300 304 309
1290.0 312 322 334 350 368 386 398 414 433 450
1330.0 475 512 565 631 691 750 777 766 727 670
1370.0 611 550 507 486 458 404 367 350 350 363
1410.0 387 406 437 454 457 457 482 522 576 657
1450.0 752 853 971 1039 1009 884 691 520 397 325
1490.0 278 241 215 187 184 167 156 148 145 140
1530.0 134 129 127 127 125 127 123 126 132 124
1570.0 128 131 130 131 118 122 121 119 117 118
1610.0 117 120 124 124 125 125 128 129 134 129
1650.0 136 144 150 145 158 165 185 201 227 264
1690.0 297 356 428 537 665 844 1064 1342 1646 1887
1730.0 1953 1757 1400 1075 816 640 505 414 345 300
1770.0 267 241 218 197 183 169 156 147 142 136
1810.0 128 124 117 112 108 100 98 96 94 94
1850.0 94 91 91 86 88 87 87 87 87 86
1890.0 87 86 84 85 85 85 84 86 85 85
1930.0 84 85 83 84 84 84 84 83 85 83
1970.0 83 85 84 84 85 85 85 84 87 86
2010.0 89 86 87 90 91 93 92 94 94 93
2050.0 94 93 94 93 94 94 94 95 95 94
2090.0 94 91 91 95 93 94 92 93 94 92
2130.0 92 91 90 91 91 91 92 95 94 97
2170.0 97 97 98 98 96 95 97 95 95 93
2210.0 94 91 92 92 91 92 92 93 93 95
2250.0 96 96 95 96 95 94 94 94 95 95
2290.0 95 96 100 100 103 104 101 101 101 95
2330.0 97 92 90 93 102 104 106 102 95 96
2370.0 93 96 104 103 95 91 90 89 88 87
2410.0 87 87 85 86 85 85 85 87 86 86
2450.0 86 84 90 89 87 89 89 89 89 86
2490.0 88 88 89 92 93 91 94 94 97 96
2530.0 99 100 101 100 101 100 101 102 104 103
2570.0 104 107 108 110 108 113 113 115 117 118
2610.0 121 125 124 127 131 133 137 137 140 144
2650.0 145 150 152 155 160 163 168 175 180 182
2690.0 181 181 178 180 181 181 179 180 182 182
2730.0 184 187 190 195 200 199 199 204 203 209
2770.0 214 217 226 238 250 267 285 308 329 352
2810.0 375 406 440 474 520 570 632 721 857 1077
2850.0 1454 2095 3014 3789 3866 3381 2799 2373 2155 2066
2890.0 2031 2087 2266 2557 2950 3436 4008 4777 5948 7608
2930.0 9387 10000 9288 7800 6282 4979 4012 3374 3057 2921
2970.0 2751 2401 1978 1693 1485 1260 1038 862 726 624
3010.0 544 479 433 390 357 329 302 281 261 243
3050.0 229 218 209 200 189 186 182 172 169 166
3090.0 163 157 154 150 150 147 148 140 138 135
3130.0 134 134 132 129 128 130 125 127 126 123
3170.0 124 121 120 120 120 119 116 116 110 108
3210.0 105 106 107 103 105 103 101 99 98 102
3250.0 96 99 99 96 98 97 99 96 94 95
3290.0 94 97 92 94 97 101 95 97 98 95
3330.0 98 99 100 100 99 100 98 103 97 96
3370.0 99 97 101 99 103 104 100 103 104 106
3410.0 109 109 110 109 113 117 116 111 114 114
3450.0 108 102 99 104 96 91 89 87 91 91
3490.0 89 92 86 86 92 86 90 92 94 87
3530.0 83 89 91 93 90 93 93 94 94 98
3570.0 106 101 104 105 101 108 101 104 102 94
3610.0 107 104 93 100 103 111 108 109 106 102
3650.0 99 100 102 106 104 102 104 106 101 99
3690.0 103 102 106 102 106 99 101 101 95 105
3730.0 98 107 102 100 110 96 100 94 90 98
3770.0 88 100 101 106 89 103 89 94 95 98
3810.0 93 93 92 83 98 99 104 93 84 93
3850.0 88 93 94 92 93 90 98 103 97 100
3890.0 95 87 94 94 98 92 101 106 105 88
3930.0 102 99 101 100 99 101 109 111 112 118
##END=
