##TITLE=Eicosanoic acid, ethyl ester
##JCAMP-DX=4.24
##DATA TYPE=INFRARED SPECTRUM
##ORIGIN=Sadtler Research Labs Under US-EPA Contract
##OWNER=NIST Standard Reference Data Program
##CAS REGISTRY NO=18281-05-5
##MOLFORM=C 22 H 44 O 2
##XUNITS=1/CM
##YUNITS=ABSORBANCE
##XFACTOR=1.0
##YFACTOR=0.000077219
##DELTAX=4.0
##FIRSTX=450.0
##LASTX=3966.0
##FIRSTY=0.000000
##MAXX=3966
##MINX=450
##MAXY=0.77219
##MINY=0
##NPOINTS=880
##XYDATA=(X++(Y..Y))
450.0 0 120 130 100 129 29 105 115 85 135
490.0 68 45 51 111 90 75 92 77 37 69
530.0 115 88 113 88 104 133 98 75 100 90
570.0 102 83 81 98 93 104 127 132 110 117
610.0 103 120 118 103 94 107 113 106 101 100
650.0 97 92 88 77 75 135 80 75 67 89
690.0 117 121 136 148 178 211 256 288 290 272
730.0 248 228 201 191 177 177 176 184 163 158
770.0 163 163 158 161 155 149 133 122 107 78
810.0 86 104 106 110 114 113 129 128 129 149
850.0 161 175 175 157 156 144 135 130 123 110
890.0 111 118 122 126 129 137 144 157 156 162
930.0 162 161 160 158 148 138 141 131 132 139
970.0 130 127 133 145 141 153 173 197 219 268
1010.0 310 356 415 478 561 633 699 707 684 625
1050.0 558 500 448 410 376 366 374 398 439 498
1090.0 564 647 716 750 767 785 807 812 803 791
1130.0 820 881 989 1115 1265 1420 1573 1715 1829 1889
1170.0 1914 1896 1852 1765 1665 1556 1459 1371 1297 1244
1210.0 1203 1184 1172 1174 1185 1205 1219 1236 1237 1212
1250.0 1158 1088 1009 897 758 686 682 663 654 641
1290.0 647 662 683 702 709 696 667 635 603 575
1330.0 569 585 630 678 724 741 721 678 680 761
1370.0 867 856 752 621 517 450 393 356 329 317
1410.0 309 320 342 381 418 461 509 570 662 770
1450.0 885 995 1136 1196 1134 944 699 515 387 304
1490.0 249 210 180 162 148 135 122 109 98 84
1530.0 80 73 72 75 66 70 69 74 73 77
1570.0 77 82 82 79 80 81 83 82 81 79
1610.0 74 70 76 68 69 60 63 53 48 45
1650.0 43 52 59 52 68 78 88 101 124 139
1690.0 169 202 253 296 346 417 494 602 714 894
1730.0 1137 1558 2089 2537 2729 2723 2636 2297 1824 1430
1770.0 1083 832 634 507 393 313 260 214 189 155
1810.0 139 116 104 91 80 71 63 62 51 55
1850.0 48 52 46 49 42 41 41 40 43 39
1890.0 44 39 41 37 36 38 31 34 32 38
1930.0 32 37 36 36 35 37 35 34 39 34
1970.0 35 35 39 35 38 35 35 36 35 36
2010.0 41 43 46 45 45 46 47 43 44 47
2050.0 44 39 43 43 46 46 41 45 40 43
2090.0 39 41 38 40 37 36 36 33 32 31
2130.0 35 35 33 34 33 33 35 36 34 33
2170.0 36 37 37 37 37 34 33 35 33 34
2210.0 36 33 35 31 31 32 33 34 33 36
2250.0 35 40 37 33 36 40 42 51 59 68
2290.0 80 93 106 117 130 145 131 119 120 105
2330.0 85 69 57 62 100 118 94 80 74 66
2370.0 61 81 103 104 82 54 43 39 39 40
2410.0 38 39 38 41 42 40 40 39 37 38
2450.0 39 43 44 41 41 43 46 43 41 47
2490.0 48 46 49 54 51 50 52 56 59 59
2530.0 63 64 70 70 70 70 72 69 69 72
2570.0 74 75 76 82 84 86 88 92 98 96
2610.0 101 98 105 109 107 112 112 114 117 126
2650.0 128 133 137 142 150 154 159 160 166 165
2690.0 157 156 155 151 152 149 150 152 153 153
2730.0 156 159 161 168 173 174 175 176 187 192
2770.0 199 207 217 231 249 267 281 302 328 357
2810.0 391 430 482 535 594 670 778 937 1189 1597
2850.0 2220 3019 3822 4269 4016 3365 2774 2356 2133 2046
2890.0 2056 2179 2420 2785 3239 3801 4471 5364 6587 8177
2930.0 9649 10000 8962 7334 5754 4491 3612 3093 2819 2618
2970.0 2396 2111 1832 1650 1501 1315 1110 935 795 685
3010.0 593 509 444 396 347 313 283 259 234 223
3050.0 204 192 180 169 161 158 150 144 135 128
3090.0 123 120 122 115 117 113 110 108 100 101
3130.0 99 95 91 91 90 93 89 84 83 78
3170.0 75 74 71 69 74 68 68 62 64 57
3210.0 55 53 55 56 44 43 49 41 35 41
3250.0 38 42 36 32 39 34 33 35 30 33
3290.0 31 31 31 32 34 35 35 32 32 37
3330.0 29 35 38 33 41 40 38 40 43 36
3370.0 42 39 36 36 40 42 41 35 36 39
3410.0 41 37 33 34 29 31 38 35 34 38
3450.0 35 42 39 40 39 43 43 41 44 39
3490.0 47 42 36 35 34 31 36 31 30 30
3530.0 38 40 40 47 46 45 43 50 49 50
3570.0 61 77 96 79 61 52 45 47 54 54
3610.0 44 44 50 45 51 58 56 52 60 60
3650.0 55 59 64 57 54 53 58 44 48 49
3690.0 57 49 52 47 43 46 48 48 40 39
3730.0 36 46 56 43 47 42 52 44 50 45
3770.0 48 51 47 49 56 54 49 48 60 52
3810.0 57 52 43 40 46 48 50 54 45 63
3850.0 56 56 41 48 67 50 48 55 49 57
3890.0 55 54 71 35 44 61 62 47 61 59
3930.0 59 40 59 72 65 58 54 49 48 59
##END=
