##TITLE=1-Cyclohexenylacetic acid
##JCAMP-DX=4.24
##DATA TYPE=INFRARED SPECTRUM
##ORIGIN=Sadtler Research Labs Under US-EPA Contract
##OWNER=NIST Standard Reference Data Program
##CAS REGISTRY NO=18294-87-6
##MOLFORM=C 8 H 12 O 2
##XUNITS=1/CM
##YUNITS=ABSORBANCE
##XFACTOR=1.0
##YFACTOR=0.000079938
##DELTAX=4.0
##FIRSTX=450.0
##LASTX=3966.0
##FIRSTY=0.012071
##MAXX=3966
##MINX=450
##MAXY=0.79938
##MINY=0
##NPOINTS=880
##XYDATA=(X++(Y..Y))
450.0 151 263 81 117 1 82 172 259 263 380
490.0 440 424 493 643 646 623 669 749 689 710
530.0 811 1023 1200 1257 1195 1111 985 871 776 829
570.0 855 877 866 970 1105 1234 1476 1715 1946 2323
610.0 2557 2823 3145 3309 3372 3317 3015 2551 1995 1614
650.0 1260 1006 937 731 728 632 496 402 425 332
690.0 303 191 172 250 257 285 236 234 226 204
730.0 318 242 217 307 312 99 139 147 151 104
770.0 62 128 134 126 197 186 157 251 247 109
810.0 117 80 94 69 79 71 107 61 80 147
850.0 170 243 198 208 201 235 220 191 205 207
890.0 216 271 179 218 216 265 268 296 363 311
930.0 284 205 192 166 140 143 167 186 193 174
970.0 159 131 121 127 140 159 132 103 92 45
1010.0 28 19 4 36 52 54 90 111 206 234
1050.0 268 347 456 582 764 1010 1240 1476 1713 2005
1090.0 2399 3212 4318 5839 7936 9506 10000 9667 8026 6040
1130.0 4868 4439 4122 3826 3514 3003 2462 2051 1719 1480
1170.0 1312 1191 1143 1092 1058 1049 1099 1127 1162 1227
1210.0 1165 1175 1189 1175 1147 1055 1046 983 955 934
1250.0 831 829 775 818 845 834 795 757 701 668
1290.0 634 615 643 670 721 776 809 859 905 955
1330.0 959 1058 1175 1311 1428 1497 1593 1642 1624 1608
1370.0 1431 1250 1081 997 910 881 834 760 687 615
1410.0 588 597 637 632 670 753 875 1015 1117 1147
1450.0 1127 1047 919 672 569 395 243 156 125 141
1490.0 59 88 72 52 97 37 111 105 45 85
1530.0 92 104 55 70 63 90 96 93 33 87
1570.0 55 88 111 71 126 97 101 132 79 143
1610.0 131 121 171 145 244 213 262 329 402 642
1650.0 696 826 813 714 486 348 342 345 323 349
1690.0 380 432 486 534 662 715 843 925 1054 1308
1730.0 1438 1792 2292 2851 3682 4291 4819 5549 6119 6984
1770.0 7982 8815 9579 9309 8512 7395 5789 4615 3615 2647
1810.0 2081 1523 1101 861 637 499 392 307 280 180
1850.0 192 141 127 147 87 112 86 79 89 68
1890.0 75 67 53 70 57 58 54 50 69 46
1930.0 66 70 65 74 58 67 59 49 53 40
1970.0 50 44 41 49 40 50 46 43 51 39
2010.0 45 41 35 41 29 28 26 29 32 23
2050.0 29 24 26 25 21 22 23 16 23 21
2090.0 19 20 13 17 11 14 15 11 16 12
2130.0 12 11 10 17 13 15 18 10 22 25
2170.0 25 30 27 31 37 37 43 41 47 42
2210.0 50 54 55 60 51 45 47 38 36 33
2250.0 32 33 25 30 25 22 25 16 18 10
2290.0 9 13 5 7 8 5 10 6 4 19
2330.0 21 26 4 35 4 28 11 24 29 12
2370.0 4 5 7 9 8 18 27 28 21 21
2410.0 19 22 24 23 22 20 25 19 16 14
2450.0 12 18 18 20 23 27 30 30 29 28
2490.0 29 30 28 32 30 31 32 34 30 36
2530.0 35 32 26 24 23 20 22 20 22 25
2570.0 28 33 32 34 35 36 36 42 35 39
2610.0 40 40 43 46 47 47 49 52 63 79
2650.0 87 107 119 125 132 134 135 126 114 110
2690.0 100 95 81 78 73 68 75 64 59 59
2730.0 49 55 50 53 58 59 61 50 62 67
2770.0 71 89 94 116 132 133 158 168 189 204
2810.0 217 231 255 303 383 517 745 1061 1526 2012
2850.0 2329 2499 2609 2709 2782 2800 2685 2437 2157 2042
2890.0 2029 2095 2195 2342 2527 2780 3170 3783 4491 5263
2930.0 6170 7228 8175 9149 9065 7963 6478 4325 2456 1528
2970.0 1159 952 823 715 636 600 593 623 670 699
3010.0 705 670 609 515 439 387 343 323 311 309
3050.0 327 331 321 299 258 215 178 152 141 117
3090.0 110 102 98 87 87 82 81 84 80 78
3130.0 73 75 78 75 75 79 76 73 73 74
3170.0 65 56 60 59 53 61 51 59 54 52
3210.0 47 49 56 49 50 52 49 47 44 40
3250.0 48 41 43 37 29 34 20 22 24 23
3290.0 36 17 22 23 27 28 13 29 25 24
3330.0 20 27 34 36 38 26 28 33 36 27
3370.0 33 31 28 37 30 22 32 34 38 41
3410.0 44 35 42 39 31 34 29 35 34 35
3450.0 28 28 41 32 34 38 42 57 71 66
3490.0 63 49 75 81 72 97 104 108 138 153
3530.0 175 171 197 225 265 294 347 558 888 1796
3570.0 3062 3927 4349 3797 2728 1512 730 400 189 161
3610.0 122 110 113 80 93 66 85 65 69 79
3650.0 94 24 76 48 43 73 12 66 32 49
3690.0 41 45 33 36 32 57 59 59 37 80
3730.0 30 44 89 24 71 6 60 4 42 33
3770.0 31 43 48 42 27 26 60 20 53 38
3810.0 56 16 52 40 61 67 28 31 64 16
3850.0 53 32 87 64 49 21 28 4 50 55
3890.0 33 18 55 84 37 49 89 28 72 4
3930.0 38 50 36 25 11 41 0 65 55 25
##END=
