##TITLE=Propiophenone, 3',4'-dimethoxy-
##JCAMP-DX=4.24
##DATA TYPE=INFRARED SPECTRUM
##ORIGIN=Sadtler Research Labs Under US-EPA Contract
##OWNER=NIST Standard Reference Data Program
##CAS REGISTRY NO=1835-04-7
##MOLFORM=C 11 H 14 O 3
##XUNITS=1/CM
##YUNITS=ABSORBANCE
##XFACTOR=1.0
##YFACTOR=0.000078433
##DELTAX=4.0
##FIRSTX=450.0
##LASTX=3966.0
##FIRSTY=0.012706
##MAXX=3966
##MINX=450
##MAXY=0.78433
##MINY=0
##NPOINTS=880
##XYDATA=(X++(Y..Y))
450.0 162 118 51 29 62 99 59 110 47 99
490.0 67 76 53 29 61 83 74 67 77 92
530.0 72 96 130 143 158 210 239 302 303 317
570.0 297 290 244 242 216 226 205 196 233 217
610.0 253 309 338 348 314 284 238 182 135 100
650.0 82 80 19 62 24 47 30 1 36 17
690.0 39 44 56 64 83 129 147 170 182 246
730.0 241 277 311 380 448 568 683 793 798 708
770.0 568 408 352 353 425 528 625 700 717 673
810.0 586 527 457 412 381 352 324 309 329 407
850.0 534 703 820 815 712 606 582 577 573 525
890.0 431 339 281 235 189 189 172 149 146 156
930.0 172 186 223 283 377 461 554 623 691 734
970.0 732 683 608 551 513 534 608 768 1003 1361
1010.0 1795 2226 2541 2724 2812 2844 2780 2500 2019 1480
1050.0 1051 757 591 513 474 483 502 555 596 656
1090.0 691 718 719 720 755 858 1069 1384 1778 2146
1130.0 2402 2478 2410 2306 2190 2129 2194 2475 2965 3392
1170.0 3464 3144 2616 2191 2014 2145 2467 2760 2802 2530
1210.0 2100 1771 1640 1673 1830 2067 2347 2633 2911 3180
1250.0 3568 4253 5412 7041 8810 9999 10000 8984 7399 5849
1290.0 4499 3462 2758 2353 2174 2094 2068 2031 1979 1907
1330.0 1842 1821 1802 1845 1845 1790 1630 1394 1111 882
1370.0 732 673 706 779 827 929 1090 1402 1870 2371
1410.0 2732 2754 2404 1853 1380 1120 1048 1171 1372 1500
1450.0 1630 1676 1823 2106 2289 2331 2030 1613 1341 1260
1490.0 1393 1806 2473 3381 4209 4639 4354 3352 2315 1459
1530.0 1016 712 619 476 506 496 568 572 775 994
1570.0 1283 1561 1862 2032 2212 2480 2802 2997 2812 2284
1610.0 1583 1021 684 508 421 368 360 316 335 326
1650.0 325 312 420 414 470 547 602 875 1247 2008
1690.0 3164 4358 5042 4783 3630 2367 1357 882 623 567
1730.0 466 409 374 384 341 326 367 334 329 276
1770.0 245 158 173 124 136 85 104 91 77 90
1810.0 78 77 70 88 64 75 63 91 53 55
1850.0 59 64 66 69 71 59 82 74 82 74
1890.0 78 80 76 80 69 73 58 54 52 48
1930.0 54 49 55 37 53 49 51 48 58 49
1970.0 56 61 65 74 76 81 87 103 107 119
2010.0 132 142 153 163 179 177 178 162 152 142
2050.0 141 137 131 131 116 113 103 98 84 83
2090.0 71 67 62 58 59 53 57 57 55 56
2130.0 56 58 52 55 52 53 50 54 52 57
2170.0 53 57 51 51 54 52 53 52 54 47
2210.0 48 47 49 48 49 48 48 53 57 54
2250.0 57 60 65 64 67 70 73 69 67 59
2290.0 54 48 37 39 22 24 9 7 11 5
2330.0 5 5 9 5 57 5 7 5 5 5
2370.0 5 4 22 28 41 38 50 48 45 46
2410.0 44 49 45 52 46 55 56 62 61 64
2450.0 68 69 70 70 74 65 70 67 69 63
2490.0 64 69 66 64 62 69 69 75 76 81
2530.0 88 90 91 95 102 102 105 104 111 113
2570.0 120 129 134 138 139 143 138 136 135 134
2610.0 124 117 108 101 98 92 94 88 87 85
2650.0 82 78 80 79 81 81 79 80 78 83
2690.0 76 80 76 78 73 76 81 79 85 86
2730.0 90 93 98 101 107 110 113 112 114 118
2770.0 116 124 126 134 144 150 157 178 195 211
2810.0 233 265 315 372 456 566 728 922 1124 1241
2850.0 1223 1094 936 816 752 728 725 749 807 884
2890.0 958 999 1019 1029 1097 1228 1400 1560 1621 1620
2930.0 1612 1729 2011 2430 2818 2958 2783 2421 2118 1943
2970.0 1817 1778 1841 1974 2025 1972 1819 1647 1629 1730
3010.0 1775 1622 1289 923 694 577 512 475 446 428
3050.0 419 422 430 451 484 529 568 571 544 476
3090.0 405 337 285 245 223 214 185 178 163 156
3130.0 138 132 120 117 110 106 106 95 97 93
3170.0 89 88 83 81 80 77 72 69 65 66
3210.0 59 63 61 58 62 57 58 50 57 52
3250.0 56 47 53 46 51 52 54 53 51 55
3290.0 47 52 49 48 48 44 43 42 52 45
3330.0 56 45 55 51 56 64 60 65 72 90
3370.0 96 101 90 92 89 75 60 63 57 42
3410.0 52 44 46 53 51 54 48 44 42 54
3450.0 38 51 44 52 44 54 44 49 55 47
3490.0 38 43 45 48 63 42 52 43 49 66
3530.0 51 38 50 54 71 47 47 64 54 105
3570.0 74 69 64 66 115 90 104 46 67 47
3610.0 88 58 71 75 48 104 75 36 65 38
3650.0 112 65 43 83 0 107 22 129 18 76
3690.0 64 59 49 69 62 82 73 64 76 68
3730.0 73 81 107 26 172 20 112 56 53 58
3770.0 62 51 33 57 41 50 23 101 7 108
3810.0 6 80 59 59 65 42 58 90 85 24
3850.0 65 63 68 74 52 69 59 58 65 112
3890.0 27 90 38 95 55 43 43 60 79 36
3930.0 65 65 69 43 73 55 66 48 52 62
##END=
