##TITLE=1-Propanone, 1-(4-hydroxy-3-methoxyphenyl)-
##JCAMP-DX=4.24
##DATA TYPE=INFRARED SPECTRUM
##ORIGIN=Sadtler Research Labs Under US-EPA Contract
##OWNER=NIST Standard Reference Data Program
##CAS REGISTRY NO=1835-14-9
##MOLFORM=C 10 H 12 O 3
##XUNITS=1/CM
##YUNITS=ABSORBANCE
##XFACTOR=1.0
##YFACTOR=0.000117624
##DELTAX=4.0
##FIRSTX=450.0
##LASTX=3966.0
##FIRSTY=0.098686
##MAXX=3966
##MINX=450
##MAXY=1.17624
##MINY=0
##NPOINTS=880
##XYDATA=(X++(Y..Y))
450.0 839 870 876 891 984 1090 1117 1037 971 869
490.0 744 596 460 374 295 223 189 172 139 128
530.0 121 138 173 204 280 370 455 509 568 581
570.0 522 431 365 289 250 201 185 178 176 212
610.0 272 365 387 401 333 259 189 132 78 45
650.0 32 25 17 6 5 12 20 10 10 10
690.0 27 32 43 53 84 110 152 196 210 214
730.0 207 209 208 230 235 251 273 322 417 560
770.0 798 1136 1552 1828 1930 1724 1431 1224 1066 926
810.0 834 742 684 624 530 452 380 315 271 272
850.0 315 423 554 657 731 751 754 745 749 715
890.0 629 528 425 346 285 248 223 209 206 202
930.0 214 230 245 264 295 329 377 413 447 451
970.0 433 410 370 338 313 303 322 382 479 631
1010.0 820 1039 1258 1460 1638 1782 1866 1808 1609 1278
1050.0 912 618 460 406 401 424 466 525 556 583
1090.0 583 577 565 581 661 835 1094 1351 1589 1620
1130.0 1485 1289 1045 933 992 1212 1596 2078 2566 2977
1170.0 3285 3518 3851 4441 5276 6112 6564 6520 6103 5604
1210.0 4993 4248 3344 2535 2067 1963 2119 2435 2832 3231
1250.0 3706 4437 5721 7503 9212 10000 9597 8243 6710 5250
1290.0 3879 2779 2080 1759 1681 1699 1727 1708 1655 1575
1330.0 1520 1546 1625 1792 1897 1840 1680 1516 1482 1585
1370.0 1746 1856 1940 1896 1706 1426 1129 870 793 836
1410.0 1018 1452 2006 2806 3350 3394 2894 2140 1538 1271
1450.0 1237 1376 1597 1963 2243 2318 2085 1745 1421 1264
1490.0 1357 1759 2426 3516 4686 5510 5526 4366 2838 1587
1530.0 941 643 466 351 332 371 351 322 422 522
1570.0 642 832 1114 1538 2082 2773 3352 3788 3715 3449
1610.0 2905 2341 1689 1146 736 564 433 376 380 365
1650.0 341 383 469 513 573 636 790 1189 1803 2839
1690.0 4154 5048 5423 4632 3342 2029 1137 691 583 545
1730.0 446 376 367 348 291 267 284 277 246 226
1770.0 157 113 125 103 102 85 65 69 48 72
1810.0 57 57 59 51 43 19 37 40 28 11
1850.0 46 70 81 85 76 46 63 59 51 44
1890.0 36 43 53 63 63 64 53 49 27 40
1930.0 39 31 32 18 26 33 34 29 34 27
1970.0 33 38 39 41 42 33 38 41 41 41
2010.0 43 43 45 52 64 70 82 85 95 105
2050.0 110 110 109 102 90 89 79 70 55 45
2090.0 34 32 29 30 31 27 31 28 28 26
2130.0 22 20 18 20 23 21 21 21 20 20
2170.0 13 15 11 14 12 11 8 11 14 13
2210.0 9 9 9 7 4 5 6 2 4 8
2250.0 9 8 9 6 12 16 21 25 34 42
2290.0 52 52 59 60 59 57 52 52 52 46
2330.0 45 55 44 47 69 68 70 56 68 67
2370.0 68 60 69 61 48 36 33 31 29 23
2410.0 22 21 19 16 14 17 21 27 26 34
2450.0 40 45 50 53 58 59 58 57 57 52
2490.0 50 50 52 53 49 53 63 73 80 84
2530.0 92 92 83 74 62 52 47 42 39 36
2570.0 35 32 27 25 24 23 20 20 21 27
2610.0 30 32 37 39 40 49 54 59 60 68
2650.0 72 75 72 66 63 62 57 52 47 43
2690.0 42 42 46 51 51 53 52 54 59 58
2730.0 63 64 70 74 81 88 92 94 90 93
2770.0 98 93 96 97 96 101 104 112 122 127
2810.0 136 145 163 181 208 237 272 314 369 439
2850.0 517 566 579 548 505 476 476 514 580 663
2890.0 720 726 699 665 672 732 844 971 1024 1033
2930.0 995 981 1095 1373 1772 1997 1995 1774 1483 1347
2970.0 1342 1425 1549 1698 1732 1635 1423 1128 979 981
3010.0 1076 1099 986 775 536 403 334 292 270 259
3050.0 260 274 302 324 377 443 527 592 583 480
3090.0 346 233 179 138 130 125 110 109 103 92
3130.0 87 77 72 60 53 49 44 44 37 37
3170.0 36 34 35 30 40 37 31 36 33 39
3210.0 36 29 27 16 17 17 23 14 17 19
3250.0 17 13 15 17 11 22 18 25 12 21
3290.0 19 12 13 8 10 8 5 4 7 11
3330.0 15 11 10 22 18 29 35 46 56 59
3370.0 72 74 67 58 48 38 19 18 21 12
3410.0 6 6 10 16 13 19 18 13 12 12
3450.0 14 7 14 24 9 10 8 13 11 15
3490.0 19 12 15 23 19 25 25 22 34 56
3530.0 61 65 82 106 169 245 346 590 1028 1796
3570.0 2822 3813 4376 4167 3271 2167 1197 626 327 211
3610.0 177 119 103 101 81 106 79 87 108 136
3650.0 135 82 55 11 16 11 40 27 8 16
3690.0 38 26 13 16 2 14 35 8 8 35
3730.0 31 29 37 25 25 36 14 7 18 12
3770.0 2 6 13 14 3 2 16 5 14 16
3810.0 16 2 10 16 6 12 13 24 36 34
3850.0 0 44 38 18 25 23 30 7 20 19
3890.0 18 27 27 61 41 15 7 28 23 8
3930.0 4 12 15 33 43 15 3 5 18 3
##END=
