##TITLE=Phenol, 2,4-bis(1-methylpropyl)-
##JCAMP-DX=4.24
##DATA TYPE=INFRARED SPECTRUM
##ORIGIN=Sadtler Research Labs Under US-EPA Contract
##OWNER=NIST Standard Reference Data Program
##CAS REGISTRY NO=1849-18-9
##MOLFORM=C 14 H 22 O
##XUNITS=1/CM
##YUNITS=ABSORBANCE
##XFACTOR=1.0
##YFACTOR=0.000160284
##DELTAX=4.0
##FIRSTX=450.0
##LASTX=3966.0
##FIRSTY=0.000000
##MAXX=3966
##MINX=450
##MAXY=1.60284
##MINY=0
##NPOINTS=880
##XYDATA=(X++(Y..Y))
450.0 0 127 58 258 257 239 443 373 307 286
490.0 315 433 416 417 422 312 380 256 98 266
530.0 137 229 312 322 220 138 124 264 225 321
570.0 214 172 223 155 139 114 144 163 131 151
610.0 177 156 112 159 196 259 290 345 325 283
650.0 236 175 160 150 130 140 157 150 208 190
690.0 212 199 179 142 132 135 166 167 186 205
730.0 240 318 429 570 603 580 521 469 408 384
770.0 346 299 330 372 425 470 567 761 1005 1137
810.0 1073 960 875 827 713 594 444 329 241 189
850.0 175 168 144 138 125 106 128 199 262 406
890.0 505 465 364 286 182 190 168 167 125 129
930.0 130 130 144 124 122 170 182 213 247 252
970.0 238 218 198 192 194 227 270 335 380 422
1010.0 449 477 470 408 313 248 212 216 222 237
1050.0 265 311 375 424 493 587 692 867 978 992
1090.0 934 788 693 625 585 575 605 704 805 871
1130.0 892 865 873 947 1154 1458 1744 2051 2327 2490
1170.0 2347 2132 2164 2380 2489 2254 1782 1382 1123 1034
1210.0 1077 1132 1147 1111 1013 988 1020 1191 1495 1941
1250.0 2340 2501 2323 1907 1476 1194 1044 950 869 810
1290.0 797 767 746 760 843 1004 1296 1614 1708 1501
1330.0 1164 873 733 621 533 484 433 436 434 462
1370.0 566 766 1014 1119 1041 780 521 380 336 323
1410.0 383 431 585 770 947 1017 925 803 717 773
1450.0 1018 1218 1540 1733 1676 1535 1313 1135 1149 1344
1490.0 1876 2581 3369 3486 3059 1947 1206 688 494 476
1530.0 377 347 277 204 192 174 159 149 149 170
1570.0 173 198 209 246 266 296 322 346 353 388
1610.0 400 383 330 251 209 155 146 127 135 133
1650.0 112 124 113 127 119 115 104 99 95 92
1690.0 86 87 90 86 92 79 86 73 76 87
1730.0 71 89 63 74 80 74 85 85 86 91
1770.0 93 93 97 95 89 79 72 65 70 68
1810.0 70 80 83 83 82 71 75 76 94 103
1850.0 114 108 92 85 76 81 84 92 89 80
1890.0 69 60 57 52 52 52 53 49 50 47
1930.0 47 48 47 48 48 46 45 48 48 49
1970.0 50 47 47 50 48 53 53 53 53 56
2010.0 55 52 54 49 51 49 44 50 50 50
2050.0 47 49 50 51 54 49 49 48 47 49
2090.0 46 46 44 44 43 42 42 42 41 39
2130.0 38 42 41 41 40 38 39 41 43 42
2170.0 42 40 40 39 38 41 39 40 38 40
2210.0 41 42 44 45 47 49 46 48 51 53
2250.0 53 54 55 52 55 57 55 58 59 63
2290.0 66 67 71 69 72 70 67 67 67 68
2330.0 71 72 62 72 67 77 74 76 78 77
2370.0 75 77 81 83 83 84 84 85 87 88
2410.0 89 89 89 87 87 89 89 89 86 85
2450.0 84 82 82 83 86 86 85 86 86 86
2490.0 87 86 86 89 87 83 83 82 76 76
2530.0 79 79 78 81 84 86 89 92 95 95
2570.0 102 102 106 106 105 105 102 102 103 101
2610.0 106 105 104 103 105 104 106 104 103 105
2650.0 104 106 110 113 118 121 122 125 120 122
2690.0 121 115 118 116 122 130 135 141 148 160
2730.0 174 189 203 211 205 195 182 170 168 165
2770.0 167 168 173 183 193 203 213 230 238 250
2810.0 262 273 295 317 343 379 419 457 503 556
2850.0 640 766 1002 1383 1870 2317 2708 3182 3678 3851
2890.0 3476 2834 2333 2125 2177 2423 2839 3350 3845 4239
2930.0 4529 4779 4859 4675 4147 3559 3517 4447 6438 8793
2970.0 10000 9293 7018 4486 2679 1734 1301 1055 925 884
3010.0 916 979 1012 1007 956 884 824 767 735 723
3050.0 711 702 666 615 553 492 431 376 342 318
3090.0 302 284 273 265 252 243 236 225 217 199
3130.0 188 179 171 168 167 162 161 163 163 160
3170.0 161 161 161 162 159 157 149 143 140 130
3210.0 124 116 112 111 99 100 93 89 86 87
3250.0 88 86 79 81 80 81 80 82 77 77
3290.0 78 77 80 78 72 78 80 75 79 75
3330.0 78 80 76 83 83 86 90 97 95 88
3370.0 87 90 95 102 97 101 96 93 96 91
3410.0 93 95 88 86 88 86 86 79 84 81
3450.0 82 78 76 78 74 72 75 78 73 68
3490.0 76 71 71 67 61 70 70 66 79 52
3530.0 69 77 70 84 64 88 114 128 157 127
3570.0 106 113 91 95 61 51 72 40 87 71
3610.0 64 88 73 125 163 207 390 666 1285 2029
3650.0 2530 2511 1795 998 567 292 122 129 80 94
3690.0 61 52 72 39 58 41 38 65 39 47
3730.0 49 38 38 38 38 38 38 41 38 42
3770.0 38 45 50 53 46 49 51 38 38 43
3810.0 49 52 38 38 40 55 38 38 38 39
3850.0 40 38 39 42 38 38 38 66 37 38
3890.0 38 48 37 38 38 40 52 39 38 38
3930.0 38 38 46 48 52 46 38 55 41 38
##END=
