##TITLE=1-Undecene, 2-methyl-
##JCAMP-DX=4.24
##DATA TYPE=INFRARED SPECTRUM
##ORIGIN=Sadtler Research Labs Under US-EPA Contract
##OWNER=NIST Standard Reference Data Program
##CAS REGISTRY NO=18516-37-5
##MOLFORM=C 12 H 24
##XUNITS=1/CM
##YUNITS=ABSORBANCE
##XFACTOR=1.0
##YFACTOR=0.000168314
##DELTAX=4.0
##FIRSTX=450.0
##LASTX=3966.0
##FIRSTY=0.094087
##MAXX=3966
##MINX=450
##MAXY=1.68314
##MINY=0
##NPOINTS=880
##XYDATA=(X++(Y..Y))
450.0 559 211 26 79 68 50 62 28 69 17
490.0 88 59 79 32 63 68 63 72 65 104
530.0 78 105 88 91 121 94 121 80 101 68
570.0 52 30 46 38 17 71 36 37 20 40
610.0 5 35 46 45 37 29 41 26 34 28
650.0 43 32 41 37 20 48 39 50 37 53
690.0 52 57 68 84 105 120 158 173 180 165
730.0 162 149 130 124 103 101 94 100 88 95
770.0 86 92 75 83 99 72 68 63 68 62
810.0 63 66 63 66 70 80 78 91 89 100
850.0 107 128 149 170 213 267 364 511 782 1193
890.0 1480 1353 917 558 380 281 219 184 149 133
930.0 108 105 96 93 83 78 84 78 85 76
970.0 81 72 78 81 77 78 80 86 86 91
1010.0 88 88 86 82 81 80 81 81 82 84
1050.0 84 79 82 86 83 81 77 77 64 72
1090.0 61 69 64 75 89 78 94 92 88 69
1130.0 70 63 66 61 55 60 60 70 67 73
1170.0 70 75 75 75 81 73 79 73 80 83
1210.0 87 87 93 102 110 120 118 124 118 123
1250.0 121 128 133 141 154 163 181 183 180 172
1290.0 172 175 178 185 183 181 167 160 149 149
1330.0 154 171 190 220 251 274 293 297 304 323
1370.0 370 446 527 542 465 352 262 213 187 182
1410.0 181 194 202 221 246 289 351 430 548 662
1450.0 788 898 1004 1040 982 854 673 492 347 250
1490.0 188 150 126 110 94 77 78 71 66 61
1530.0 61 59 51 50 53 53 51 51 49 53
1570.0 56 58 56 61 68 63 66 65 70 72
1610.0 81 89 99 117 134 167 203 265 351 449
1650.0 528 520 434 308 206 143 106 88 73 59
1690.0 58 58 50 55 62 66 61 50 50 53
1730.0 57 59 69 75 76 68 57 52 50 52
1770.0 53 61 72 92 99 93 75 60 47 38
1810.0 29 24 21 17 16 12 12 10 10 10
1850.0 10 11 11 9 7 10 8 11 8 9
1890.0 7 9 9 7 8 7 11 10 8 8
1930.0 6 7 7 8 5 8 6 8 7 6
1970.0 5 9 9 8 9 6 9 12 10 9
2010.0 10 10 10 10 14 15 15 13 12 13
2050.0 12 12 13 10 7 3 2 5 5 8
2090.0 11 14 10 9 10 7 7 8 5 8
2130.0 7 9 8 10 9 9 12 11 10 9
2170.0 9 11 9 11 9 11 9 10 9 10
2210.0 10 10 11 9 11 10 12 8 8 9
2250.0 10 10 9 9 9 12 10 8 9 7
2290.0 7 6 8 6 6 4 7 6 13 13
2330.0 11 21 21 29 20 10 7 5 19 26
2370.0 31 32 29 18 16 16 15 14 16 14
2410.0 16 17 16 14 13 14 15 9 9 11
2450.0 11 10 12 13 13 13 14 12 13 14
2490.0 12 13 14 16 16 16 17 16 16 18
2530.0 18 18 20 18 21 17 18 18 18 18
2570.0 19 21 26 28 26 27 31 34 36 36
2610.0 40 42 44 41 45 47 47 51 48 52
2650.0 58 67 72 78 80 81 79 82 85 87
2690.0 96 96 94 93 93 88 89 88 87 90
2730.0 99 106 115 116 113 112 107 108 104 106
2770.0 110 112 122 125 141 155 172 188 207 227
2810.0 250 276 305 345 393 459 540 639 784 1030
2850.0 1434 2053 2840 3544 3823 3609 3135 2713 2466 2339
2890.0 2194 2108 2168 2383 2709 3121 3631 4359 5501 7162
2930.0 8872 10000 9708 8599 6955 5325 4048 3383 3288 3527
2970.0 3715 3471 2856 2105 1531 1179 984 822 682 583
3010.0 497 427 370 330 305 285 266 248 228 221
3050.0 221 222 236 266 314 385 529 740 852 741
3090.0 552 399 291 201 157 124 110 98 94 82
3130.0 76 67 64 67 64 63 57 53 59 51
3170.0 56 55 51 48 45 49 47 44 44 36
3210.0 31 39 35 37 31 32 32 30 32 29
3250.0 30 27 27 28 32 31 18 22 30 26
3290.0 21 24 22 21 22 20 20 21 14 21
3330.0 27 25 13 21 19 17 19 17 20 23
3370.0 25 35 27 22 21 23 21 22 20 26
3410.0 27 15 19 18 21 20 23 17 13 21
3450.0 11 19 22 7 21 24 20 18 28 24
3490.0 24 20 19 24 25 13 17 20 15 24
3530.0 23 31 20 15 24 14 24 22 18 12
3570.0 24 19 27 32 28 27 22 22 30 37
3610.0 39 39 28 32 20 30 51 31 48 34
3650.0 34 39 36 29 39 40 30 20 34 27
3690.0 39 50 39 29 33 27 33 31 30 38
3730.0 35 22 28 35 27 31 38 20 26 32
3770.0 39 25 33 32 41 22 27 19 33 20
3810.0 42 35 45 20 26 28 25 22 29 40
3850.0 36 21 39 18 34 2 38 38 30 24
3890.0 37 10 35 17 77 18 2 15 18 17
3930.0 41 15 58 2 26 7 12 0 54 67
##END=
