##TITLE=Oxanilic acid, 4-methyl-, ethyl ester
##JCAMP-DX=4.24
##DATA TYPE=INFRARED SPECTRUM
##ORIGIN=Sadtler Research Labs Under US-EPA Contract
##OWNER=NIST Standard Reference Data Program
##CAS REGISTRY NO=18522-98-0
##MOLFORM=C 11 H 13 N O 3
##XUNITS=1/CM
##YUNITS=ABSORBANCE
##XFACTOR=1.0
##YFACTOR=0.000116525
##DELTAX=4.0
##FIRSTX=450.0
##LASTX=3966.0
##FIRSTY=0.011653
##MAXX=3966
##MINX=450
##MAXY=1.16525
##MINY=0
##NPOINTS=880
##XYDATA=(X++(Y..Y))
450.0 100 76 84 110 122 152 190 229 322 400
490.0 538 652 794 856 809 639 461 315 206 171
530.0 179 181 183 193 196 193 195 195 174 163
570.0 189 173 179 171 165 154 170 201 204 209
610.0 220 245 256 256 273 271 262 250 218 171
650.0 145 96 83 55 60 57 25 21 5 21
690.0 32 33 40 66 60 48 41 31 29 66
730.0 132 318 495 503 306 150 107 100 89 101
770.0 138 171 226 281 338 427 560 751 958 1116
810.0 1182 1116 963 804 652 534 433 375 371 407
850.0 424 390 325 268 235 212 200 175 132 95
890.0 77 74 78 92 102 129 168 215 284 345
930.0 372 330 242 161 116 95 94 101 97 100
970.0 108 117 128 146 171 198 236 288 375 521
1010.0 738 1062 1338 1406 1231 943 694 520 427 373
1050.0 347 325 302 286 278 276 283 301 332 383
1090.0 467 583 689 778 857 954 1117 1347 1546 1649
1130.0 1780 2057 2509 3165 4034 4861 5283 4910 3945 2890
1170.0 2135 1671 1439 1372 1226 988 776 710 718 772
1210.0 849 932 1021 1098 1171 1229 1305 1347 1357 1360
1250.0 1419 1574 1871 2386 3214 4472 6025 7525 8227 8028
1290.0 7072 5893 4721 3771 3052 2433 1931 1527 1228 965
1330.0 784 671 584 534 488 460 436 447 492 695
1370.0 1034 1208 1063 769 626 625 685 785 903 986
1410.0 1006 922 777 659 583 555 537 554 574 600
1450.0 630 650 666 702 755 807 852 882 935 984
1490.0 1095 1286 1536 1864 2283 2926 3886 5292 6755 7374
1530.0 6845 5364 3922 2734 1881 1327 947 737 601 541
1570.0 506 524 582 719 960 1313 1573 1528 1219 953
1610.0 866 863 846 740 584 452 382 350 347 340
1650.0 339 341 360 369 393 423 463 540 609 715
1690.0 847 1006 1154 1362 1602 1948 2428 3154 4251 5795
1730.0 7937 9492 10000 8665 6446 4246 2789 1942 1509 1258
1770.0 1120 1042 1084 1173 1222 1120 894 638 455 353
1810.0 272 224 181 157 123 105 93 85 71 64
1850.0 68 66 70 67 67 61 74 80 90 93
1890.0 92 82 69 60 45 41 34 31 24 19
1930.0 15 10 11 6 9 8 7 6 9 5
1970.0 8 9 7 6 3 0 0 4 4 5
2010.0 5 3 3 4 3 4 6 5 3 5
2050.0 4 9 13 10 10 15 15 16 16 16
2090.0 15 14 13 8 7 7 12 9 12 13
2130.0 14 15 15 12 13 15 13 12 11 8
2170.0 9 9 6 4 4 4 6 4 9 7
2210.0 10 9 9 10 12 13 12 16 12 17
2250.0 20 23 26 30 37 45 57 66 70 70
2290.0 72 73 72 73 74 81 71 60 61 53
2330.0 47 46 35 50 62 71 68 54 55 49
2370.0 47 47 62 64 46 28 22 17 17 21
2410.0 20 19 19 19 19 21 19 21 21 21
2450.0 21 21 24 20 20 22 21 18 19 14
2490.0 11 14 12 15 15 14 15 16 18 16
2530.0 17 15 14 16 18 17 16 16 20 22
2570.0 21 23 15 18 18 18 20 22 17 18
2610.0 18 17 17 16 21 17 22 23 26 28
2650.0 32 36 42 45 46 42 39 35 27 26
2690.0 30 27 27 25 27 25 28 29 30 30
2730.0 37 43 49 59 69 64 55 51 48 46
2770.0 41 43 45 44 45 45 46 46 48 54
2810.0 58 59 68 71 76 80 86 96 107 123
2850.0 139 168 197 235 279 335 401 454 485 492
2890.0 478 450 424 423 444 478 518 560 605 678
2930.0 788 924 988 957 887 796 675 568 520 539
2970.0 591 667 754 869 1069 1230 1206 1030 906 856
3010.0 813 768 724 724 778 862 884 777 633 550
3050.0 525 511 485 436 370 302 241 196 165 143
3090.0 137 137 135 135 132 125 120 115 105 97
3130.0 84 79 69 63 57 48 48 37 38 33
3170.0 36 33 32 36 33 32 32 37 34 34
3210.0 34 33 32 31 34 36 36 38 33 41
3250.0 39 39 39 43 54 47 44 46 43 46
3290.0 46 49 54 55 51 56 63 64 67 72
3330.0 71 76 82 84 81 83 81 84 81 94
3370.0 95 104 110 122 133 153 193 245 342 506
3410.0 743 1035 1232 1202 961 672 451 326 278 280
3450.0 303 290 251 188 143 106 78 58 51 34
3490.0 32 26 19 19 16 15 17 16 12 11
3530.0 14 23 14 11 19 10 10 10 18 10
3570.0 11 11 16 9 14 16 26 14 14 13
3610.0 13 18 13 22 13 24 12 14 21 19
3650.0 23 18 24 18 13 21 15 22 9 18
3690.0 26 24 21 19 18 14 17 11 18 17
3730.0 20 16 23 19 23 15 21 18 12 12
3770.0 12 17 20 23 21 20 20 18 24 32
3810.0 22 18 10 16 19 16 21 22 14 12
3850.0 16 17 16 18 20 26 14 26 12 29
3890.0 35 25 16 28 31 26 26 15 28 10
3930.0 10 29 33 17 15 35 21 21 25 31
##END=
