##TITLE=1-Cyclohexene-1-carbonitrile
##JCAMP-DX=4.24
##DATA TYPE=INFRARED SPECTRUM
##ORIGIN=Sadtler Research Labs Under US-EPA Contract
##OWNER=NIST Standard Reference Data Program
##CAS REGISTRY NO=1855-63-6
##MOLFORM=C 7 H 9 N
##XUNITS=1/CM
##YUNITS=ABSORBANCE
##XFACTOR=1.0
##YFACTOR=0.000089566
##DELTAX=4.0
##FIRSTX=450.0
##LASTX=3966.0
##FIRSTY=0.005732
##MAXX=3966
##MINX=450
##MAXY=0.89566
##MINY=0
##NPOINTS=880
##XYDATA=(X++(Y..Y))
450.0 64 52 99 137 154 113 107 66 64 28
490.0 47 47 39 36 53 52 104 143 237 377
530.0 548 775 701 660 550 386 278 163 129 83
570.0 81 45 41 25 25 30 33 21 28 16
610.0 0 15 3 10 18 7 13 26 29 19
650.0 24 27 33 40 29 35 28 53 59 65
690.0 75 76 125 107 84 105 95 94 87 98
730.0 99 93 108 124 120 116 126 125 106 104
770.0 97 102 109 157 222 314 427 497 565 552
810.0 448 372 314 250 241 243 280 348 431 592
850.0 576 602 606 435 367 269 173 130 90 101
890.0 96 131 188 288 402 536 665 703 769 886
930.0 726 559 442 342 260 196 159 127 107 95
970.0 90 73 59 63 69 74 92 110 136 165
1010.0 189 218 229 237 251 276 326 366 354 351
1050.0 369 353 308 305 350 412 455 466 464 445
1090.0 378 304 248 234 237 234 255 260 299 330
1130.0 377 422 438 453 440 369 291 219 167 131
1170.0 120 114 107 103 95 84 59 43 40 40
1210.0 39 43 43 50 60 90 119 137 150 172
1250.0 189 230 304 384 383 321 298 291 237 181
1290.0 137 106 95 92 89 89 95 97 96 108
1330.0 126 154 169 209 264 285 278 274 253 217
1370.0 161 133 91 61 49 49 51 56 70 82
1410.0 99 140 182 294 447 687 999 1229 1299 1426
1450.0 1433 1389 1214 925 716 590 446 280 164 94
1490.0 52 42 34 33 27 21 21 23 18 20
1530.0 18 21 20 12 9 18 14 6 11 12
1570.0 7 7 18 7 20 13 21 21 33 38
1610.0 42 50 61 84 119 210 315 403 442 440
1650.0 419 334 181 83 52 43 32 37 29 37
1690.0 35 45 39 44 50 60 62 65 79 85
1730.0 83 78 83 82 76 70 72 69 69 74
1770.0 78 80 86 86 81 78 71 68 63 68
1810.0 69 58 42 34 25 26 27 35 30 29
1850.0 31 35 31 29 26 20 25 24 27 24
1890.0 21 20 23 21 25 29 27 29 32 41
1930.0 42 42 41 37 34 33 30 25 21 20
1970.0 19 18 20 24 25 24 25 23 24 21
2010.0 16 13 10 10 11 14 14 12 13 17
2050.0 20 24 25 24 21 24 24 23 21 20
2090.0 19 20 18 18 16 18 17 19 15 17
2130.0 17 14 12 14 13 16 17 19 20 24
2170.0 28 25 29 32 37 43 60 86 133 225
2210.0 357 510 638 709 728 693 555 362 227 169
2250.0 143 130 131 133 135 130 125 109 93 73
2290.0 54 33 19 15 7 1 6 14 16 29
2330.0 23 37 44 20 31 16 34 47 36 21
2370.0 36 27 30 21 28 37 43 42 40 38
2410.0 38 37 35 32 29 26 21 18 15 10
2450.0 12 13 14 14 14 20 27 31 34 38
2490.0 37 39 38 38 39 34 31 29 26 26
2530.0 26 23 20 14 15 13 13 16 11 15
2570.0 19 21 19 21 25 26 28 29 34 36
2610.0 42 42 44 45 44 40 40 45 51 60
2650.0 68 81 92 106 117 122 129 128 129 117
2690.0 110 103 91 80 71 64 64 61 56 49
2730.0 54 52 53 53 51 61 62 73 77 85
2770.0 90 99 104 114 123 125 137 150 167 175
2810.0 186 200 213 250 305 405 560 814 1037 1188
2850.0 1407 1648 1795 1978 2334 2551 2738 2735 2550 2420
2890.0 2196 2137 1963 1953 1973 2030 2347 2811 3495 4045
2930.0 4680 5891 7392 8262 9970 10000 9743 8254 7343 5582
2970.0 3029 1436 778 475 363 287 259 233 221 196
3010.0 183 179 170 175 190 244 327 480 619 667
3050.0 622 641 605 416 241 166 126 100 87 82
3090.0 70 64 63 62 53 51 46 48 48 50
3130.0 46 44 41 36 32 30 23 19 18 12
3170.0 17 20 23 19 21 24 24 17 20 24
3210.0 27 28 27 28 29 26 21 18 21 19
3250.0 23 21 21 20 21 23 23 23 24 26
3290.0 24 25 23 28 31 24 20 19 28 29
3330.0 29 35 35 46 49 48 43 42 35 31
3370.0 17 16 18 19 15 12 15 28 23 23
3410.0 31 29 28 17 25 21 16 19 18 9
3450.0 11 14 13 11 8 9 14 15 16 18
3490.0 24 12 15 15 21 11 12 19 25 17
3530.0 19 15 18 10 13 12 19 12 13 19
3570.0 25 31 29 38 31 27 26 28 20 18
3610.0 19 19 12 24 26 36 27 31 16 18
3650.0 26 17 9 9 10 19 21 20 6 28
3690.0 35 32 27 30 25 26 13 19 29 29
3730.0 28 35 37 33 24 28 34 17 18 11
3770.0 13 2 8 18 21 25 10 30 27 39
3810.0 21 36 31 19 25 11 29 19 39 23
3850.0 32 31 37 28 29 36 20 25 18 42
3890.0 10 16 24 35 29 35 33 27 12 14
3930.0 9 4 15 18 11 9 17 5 13 14
##END=
