##TITLE=Benzopyran-3-carboxylic acid, (4H)-1-5,6,7,8-tetrahydro-2,4,4,7-tetramethyl-, ethyl ester
##JCAMP-DX=4.24
##DATA TYPE=INFRARED SPECTRUM
##ORIGIN=Sadtler Research Labs Under US-EPA Contract
##OWNER=NIST Standard Reference Data Program
##CAS REGISTRY NO=18600-02-7
##MOLFORM=C 16 H 24 O 3
##XUNITS=1/CM
##YUNITS=ABSORBANCE
##XFACTOR=1.0
##YFACTOR=0.000096735
##DELTAX=4.0
##FIRSTX=450.0
##LASTX=3966.0
##FIRSTY=0.006481
##MAXX=3966
##MINX=450
##MAXY=0.96735
##MINY=0
##NPOINTS=880
##XYDATA=(X++(Y..Y))
450.0 67 88 51 4 110 101 126 114 60 100
490.0 75 64 63 71 83 74 73 63 69 58
530.0 64 53 57 48 44 44 35 51 42 69
570.0 46 62 56 61 57 59 57 55 52 49
610.0 49 42 51 46 53 53 49 43 45 54
650.0 47 48 37 49 49 71 55 58 75 62
690.0 57 53 49 55 71 82 103 118 125 118
730.0 97 95 82 79 86 104 147 205 306 435
770.0 571 660 643 537 423 338 292 275 277 256
810.0 225 224 257 325 414 510 531 490 418 364
850.0 351 337 309 271 231 210 199 185 167 149
890.0 138 132 134 153 177 213 237 243 269 318
930.0 336 314 289 313 376 433 450 428 434 488
970.0 588 672 684 648 670 780 926 1000 985 931
1010.0 908 941 1023 1142 1227 1324 1572 2124 3119 4709
1050.0 6651 8006 7862 6423 4947 3765 2809 2135 1761 1597
1090.0 1605 1725 1762 1628 1399 1263 1239 1322 1529 1837
1130.0 2148 2396 2651 3076 3773 4630 5477 6238 7187 8613
1170.0 10000 9588 7069 4402 2802 2015 1621 1447 1412 1488
1210.0 1616 1721 1754 1732 1675 1615 1588 1534 1510 1637
1250.0 1986 2411 2700 2659 2339 1957 1699 1674 1875 2356
1290.0 3183 4480 6109 7625 8232 7721 6381 4783 3260 2041
1330.0 1346 1002 863 799 854 1061 1348 1638 1926 2092
1370.0 1958 1669 1524 1700 1887 1725 1250 823 613 525
1410.0 488 450 489 469 497 537 642 757 870 956
1450.0 1023 1094 1219 1282 1281 1186 1007 762 556 449
1490.0 383 296 273 236 248 251 206 214 229 204
1530.0 206 207 236 266 266 241 260 289 273 251
1570.0 280 292 320 344 367 426 484 550 617 711
1610.0 785 883 1007 1110 1264 1372 1525 1608 1634 1592
1650.0 1519 1307 1041 837 702 650 641 665 741 838
1690.0 909 1097 1426 1940 2591 3348 4225 5326 6554 7377
1730.0 7063 5587 3883 2613 1773 1266 929 704 559 433
1770.0 379 308 249 210 185 160 155 132 129 102
1810.0 96 93 75 78 74 83 65 55 59 68
1850.0 50 34 39 39 49 55 41 35 40 45
1890.0 50 52 46 51 56 60 60 65 70 59
1930.0 52 49 46 49 44 32 29 27 24 24
1970.0 21 22 18 20 19 25 23 23 24 25
2010.0 26 28 31 29 27 23 20 22 22 19
2050.0 15 15 15 16 20 22 22 24 25 25
2090.0 26 22 19 19 17 17 19 19 19 19
2130.0 19 21 24 21 20 21 23 24 20 25
2170.0 21 24 23 23 22 21 23 22 23 26
2210.0 23 25 26 27 25 25 24 23 23 23
2250.0 23 26 24 25 28 29 28 28 27 25
2290.0 26 26 26 28 22 23 19 17 12 5
2330.0 1 1 1 1 15 1 1 2 0 4
2370.0 14 17 25 25 22 16 17 14 14 13
2410.0 15 17 15 17 17 15 13 16 16 15
2450.0 16 16 21 17 23 21 24 17 19 17
2490.0 13 13 9 7 9 11 9 10 6 3
2530.0 3 2 1 1 1 2 7 6 6 4
2570.0 2 2 5 5 8 10 14 16 19 18
2610.0 18 17 17 15 13 13 14 17 21 29
2650.0 34 33 38 39 38 40 39 41 44 47
2690.0 46 46 47 44 42 45 53 54 65 70
2730.0 80 88 94 92 90 91 96 95 96 94
2770.0 91 93 95 99 109 118 128 143 156 174
2810.0 189 201 218 236 261 292 347 457 671 1018
2850.0 1404 1727 1877 1780 1543 1416 1538 1884 2168 2204
2890.0 2123 2097 2102 2134 2271 2628 3142 3659 4163 4846
2930.0 5843 6484 6012 4843 3798 3154 3060 3662 4531 4912
2970.0 4698 4180 3787 3631 3356 2832 2202 1697 1329 1052
3010.0 857 708 590 500 430 368 318 279 246 225
3050.0 206 194 182 164 161 162 158 153 146 139
3090.0 131 125 117 112 111 106 101 99 95 93
3130.0 90 90 85 86 83 83 82 80 79 78
3170.0 73 71 69 66 70 66 60 56 54 48
3210.0 39 34 38 28 27 28 23 23 21 17
3250.0 18 21 16 12 17 19 15 15 15 20
3290.0 19 13 15 23 19 16 16 18 20 24
3330.0 20 20 23 23 20 17 14 17 21 17
3370.0 16 25 21 21 24 22 27 29 29 19
3410.0 27 23 33 38 41 37 31 29 24 23
3450.0 14 10 11 10 1 5 4 10 12 2
3490.0 12 13 12 11 15 17 17 15 13 13
3530.0 12 16 13 15 17 14 15 16 11 18
3570.0 15 22 17 25 19 17 22 12 14 14
3610.0 19 15 12 24 12 13 21 15 19 12
3650.0 21 19 11 13 6 14 8 22 6 17
3690.0 19 16 19 18 22 21 18 9 18 21
3730.0 21 22 22 14 37 19 30 21 21 18
3770.0 26 17 18 29 19 22 16 22 10 31
3810.0 19 17 26 27 30 19 26 32 27 17
3850.0 26 24 17 24 16 27 30 15 23 21
3890.0 18 16 15 29 24 17 24 16 14 20
3930.0 24 18 20 9 24 17 30 12 8 33
##END=
