##TITLE=DCPA
##JCAMP-DX=4.24
##DATA TYPE=INFRARED SPECTRUM
##ORIGIN=Sadtler Research Labs Under US-EPA Contract
##OWNER=NIST Standard Reference Data Program
##CAS REGISTRY NO=1861-32-1
##MOLFORM=C 10 H 6 Cl 4 O 4
##XUNITS=1/CM
##YUNITS=ABSORBANCE
##XFACTOR=1.0
##YFACTOR=0.000115460
##DELTAX=4.0
##FIRSTX=450.0
##LASTX=3966.0
##FIRSTY=0.006119
##MAXX=3966
##MINX=450
##MAXY=1.1546
##MINY=0
##NPOINTS=880
##XYDATA=(X++(Y..Y))
450.0 53 62 70 0 151 39 134 56 146 65
490.0 99 121 98 115 68 96 73 112 66 101
530.0 78 79 76 53 85 68 73 54 47 55
570.0 48 93 127 48 49 83 112 148 215 353
610.0 537 857 994 939 753 630 528 438 441 446
650.0 451 369 303 196 169 155 101 83 65 86
690.0 84 96 86 87 78 81 79 56 56 42
730.0 49 34 41 35 36 44 56 64 55 75
770.0 82 121 161 213 197 133 76 35 17 8
810.0 21 25 73 145 269 299 193 90 57 60
850.0 42 38 16 14 10 20 20 33 61 99
890.0 170 198 170 98 62 42 42 37 37 37
930.0 46 66 60 80 98 153 252 447 764 1057
970.0 1133 845 447 199 117 86 95 105 118 111
1010.0 86 78 53 51 47 60 67 79 82 78
1050.0 73 64 76 74 89 101 135 172 245 367
1090.0 574 891 1237 1505 1623 1537 1185 730 412 266
1130.0 211 184 176 172 185 199 236 294 385 495
1170.0 596 631 618 635 703 835 984 1156 1380 1662
1210.0 2035 2557 3426 4851 6811 9016 10000 9549 7410 5175
1250.0 3400 2282 1672 1399 1288 1245 1217 1193 1127 1011
1290.0 864 714 588 493 441 422 463 562 736 958
1330.0 1212 1436 1570 1523 1343 1125 1017 1131 1374 1493
1370.0 1283 846 492 360 375 489 631 730 636 455
1410.0 309 227 232 202 226 324 641 1273 1577 1212
1450.0 592 378 340 294 275 240 242 203 179 178
1490.0 175 139 136 128 128 135 111 109 102 92
1530.0 85 77 89 106 102 99 129 141 125 98
1570.0 99 86 92 97 86 93 86 94 68 68
1610.0 58 56 64 51 65 33 60 49 62 43
1650.0 89 58 62 53 60 65 60 66 70 80
1690.0 58 84 80 102 109 122 196 317 458 457
1730.0 459 356 309 300 424 626 1065 2517 5311 8408
1770.0 7567 4099 1535 675 377 310 267 369 451 546
1810.0 401 244 115 91 89 93 110 91 92 59
1850.0 70 55 65 55 58 56 35 39 28 36
1890.0 25 36 20 21 21 19 19 17 33 21
1930.0 32 32 40 35 39 40 42 53 51 59
1970.0 41 44 35 39 37 45 43 35 37 27
2010.0 25 19 26 18 20 20 20 22 23 23
2050.0 16 22 20 24 22 22 22 18 22 24
2090.0 31 29 36 35 39 41 46 44 42 45
2130.0 40 42 36 32 23 21 19 16 17 16
2170.0 18 16 16 13 14 9 11 10 8 10
2210.0 5 11 6 8 7 8 8 8 8 7
2250.0 7 6 9 8 13 12 11 11 12 13
2290.0 13 20 18 24 20 28 21 23 26 19
2330.0 24 25 30 29 34 29 26 22 28 21
2370.0 21 30 28 31 24 21 14 16 15 14
2410.0 14 10 12 7 10 7 11 9 10 11
2450.0 8 9 9 10 5 8 7 9 8 6
2490.0 7 5 8 7 11 9 12 12 12 8
2530.0 7 7 7 9 6 9 9 8 9 6
2570.0 9 5 10 11 15 13 18 18 16 15
2610.0 17 12 9 14 13 14 13 14 13 11
2650.0 10 12 16 11 15 11 14 13 12 9
2690.0 11 10 6 8 8 9 7 10 10 10
2730.0 10 10 14 12 15 16 17 19 21 21
2770.0 21 24 22 25 20 23 18 19 18 20
2810.0 20 22 23 25 31 37 45 50 63 79
2850.0 109 135 141 113 77 57 43 44 45 57
2890.0 66 88 110 125 128 127 127 120 114 105
2930.0 98 93 98 115 138 201 338 689 1164 1241
2970.0 763 334 179 127 111 110 123 148 182 204
3010.0 205 186 156 133 129 132 144 161 160 141
3050.0 117 91 77 65 59 56 56 55 61 54
3090.0 53 54 50 52 48 47 43 42 36 36
3130.0 34 30 32 28 26 26 29 25 24 21
3170.0 23 21 23 21 21 20 22 23 23 26
3210.0 22 22 19 19 16 16 20 17 19 17
3250.0 16 14 20 16 15 16 19 17 14 16
3290.0 16 14 13 18 20 15 18 9 16 17
3330.0 18 13 16 15 15 18 17 16 14 16
3370.0 17 18 19 18 19 18 20 16 21 19
3410.0 23 20 20 21 22 20 16 17 13 16
3450.0 12 18 21 24 23 25 23 23 27 25
3490.0 26 26 34 41 62 73 82 64 43 39
3530.0 18 24 13 19 26 23 22 26 26 32
3570.0 33 16 13 6 10 9 26 21 17 16
3610.0 21 17 23 25 18 34 33 21 26 14
3650.0 35 24 27 23 14 27 17 32 18 27
3690.0 28 34 23 30 24 29 31 27 25 25
3730.0 28 31 35 26 40 25 40 28 37 39
3770.0 23 34 21 36 23 31 31 26 24 28
3810.0 21 19 27 41 23 27 30 24 25 36
3850.0 22 31 38 35 37 51 27 26 36 20
3890.0 39 30 35 23 41 29 25 40 40 28
3930.0 24 43 28 32 18 30 31 27 26 34
##END=
