##TITLE=p-Methylcinnamic acid
##JCAMP-DX=4.24
##DATA TYPE=INFRARED SPECTRUM
##ORIGIN=Sadtler Research Labs Under US-EPA Contract
##OWNER=NIST Standard Reference Data Program
##CAS REGISTRY NO=1866-39-3
##MOLFORM=C 10 H 10 O 2
##XUNITS=1/CM
##YUNITS=ABSORBANCE
##XFACTOR=1.0
##YFACTOR=0.000129263
##DELTAX=4.0
##FIRSTX=450.0
##LASTX=3966.0
##FIRSTY=0.003878
##MAXX=3966
##MINX=450
##MAXY=1.29263
##MINY=0
##NPOINTS=880
##XYDATA=(X++(Y..Y))
450.0 30 60 88 71 84 72 91 115 122 160
490.0 217 336 421 552 734 970 1079 1051 903 865
530.0 925 1018 1082 1166 1223 1284 1483 1503 1488 1433
570.0 1385 1281 1172 948 738 570 390 307 264 265
610.0 293 362 538 825 997 1078 1230 1382 1358 927
650.0 393 104 46 10 53 47 33 55 72 124
690.0 172 194 191 144 120 77 40 23 14 4
730.0 6 16 15 32 45 77 108 130 121 101
770.0 68 46 33 37 77 169 332 578 884 1150
810.0 1480 1516 1249 980 677 417 255 163 129 126
850.0 128 125 136 149 185 194 176 165 159 167
890.0 188 216 224 227 197 154 116 95 96 103
930.0 138 181 251 316 318 258 177 178 277 427
970.0 617 802 957 1031 925 720 517 323 184 110
1010.0 89 135 182 166 121 60 52 69 85 100
1050.0 97 106 103 127 153 199 252 326 415 533
1090.0 722 1023 1574 2475 4128 6600 8527 9095 7629 5493
1130.0 3854 2972 2602 2519 2826 3529 4171 4099 3300 2149
1170.0 1236 890 954 941 841 649 500 581 613 597
1210.0 520 477 458 435 461 482 515 537 541 517
1250.0 489 514 606 709 787 808 814 837 811 805
1290.0 798 848 921 948 902 779 651 565 531 539
1330.0 563 616 759 1006 1442 1932 2344 2559 2344 1909
1370.0 1278 800 553 421 364 311 284 270 296 360
1410.0 448 490 510 442 370 293 247 219 184 164
1450.0 140 135 132 113 108 96 101 84 78 84
1490.0 112 130 197 298 492 831 1038 977 695 290
1530.0 128 97 77 88 80 81 96 141 172 212
1570.0 264 280 272 223 201 206 249 337 492 690
1610.0 820 860 825 830 974 1384 2072 3088 3893 3765
1650.0 2723 1256 501 358 274 262 237 237 245 273
1690.0 289 323 370 421 517 628 776 915 1048 1265
1730.0 1658 2231 3210 4653 6669 8597 10000 9755 8002 5772
1770.0 3685 2448 1811 1483 1348 1271 1163 968 734 511
1810.0 356 259 190 160 133 119 103 100 108 113
1850.0 98 79 65 53 56 60 67 77 97 116
1890.0 132 133 118 99 82 65 45 38 31 25
1930.0 26 31 37 44 43 39 38 37 37 37
1970.0 37 30 22 16 11 15 15 19 20 23
2010.0 22 23 22 16 18 23 27 33 41 49
2050.0 57 62 62 56 44 31 20 15 8 6
2090.0 5 4 4 2 2 3 2 4 5 4
2130.0 2 3 4 6 4 5 3 1 0 1
2170.0 0 0 1 1 1 2 3 6 8 11
2210.0 14 17 22 23 24 23 22 20 17 17
2250.0 16 14 13 15 15 15 17 23 28 35
2290.0 44 55 72 84 90 93 80 68 68 55
2330.0 44 38 29 45 71 74 66 44 35 37
2370.0 45 44 61 61 40 17 7 3 5 3
2410.0 5 8 5 6 6 9 8 12 12 14
2450.0 13 15 18 19 22 19 19 20 20 16
2490.0 16 18 16 16 14 15 12 11 12 15
2530.0 15 15 15 13 11 11 10 13 16 16
2570.0 22 28 33 39 41 39 34 30 24 19
2610.0 16 16 13 18 16 16 16 13 12 13
2650.0 9 9 10 10 10 9 11 14 13 16
2690.0 18 24 26 29 29 34 34 37 41 42
2730.0 47 49 56 62 66 61 51 46 43 39
2770.0 37 38 38 42 46 48 49 52 51 52
2810.0 57 60 61 63 65 62 66 69 80 90
2850.0 102 123 149 184 228 284 341 378 381 358
2890.0 322 293 277 271 275 290 317 365 439 546
2930.0 669 751 742 645 504 387 311 272 252 245
2970.0 244 251 265 288 311 337 369 404 431 456
3010.0 481 504 547 637 823 991 1018 895 677 581
3050.0 576 581 597 591 566 524 489 450 412 373
3090.0 336 301 259 217 177 143 126 115 112 108
3130.0 104 95 83 70 56 45 41 40 38 36
3170.0 35 35 32 33 32 32 30 32 31 29
3210.0 27 30 28 28 31 28 29 30 28 27
3250.0 26 26 28 20 20 17 15 18 17 20
3290.0 19 23 22 24 26 25 25 26 25 23
3330.0 19 20 24 22 25 24 26 25 30 29
3370.0 27 32 32 28 33 34 37 39 37 35
3410.0 30 28 23 22 22 18 19 19 20 23
3450.0 19 28 24 31 32 37 40 45 52 56
3490.0 65 67 66 55 44 35 40 35 33 17
3530.0 25 30 16 26 15 24 33 46 70 108
3570.0 264 770 2042 3579 4200 3389 1811 684 209 100
3610.0 56 34 32 33 45 23 28 37 31 18
3650.0 5 19 28 30 31 24 10 19 23 30
3690.0 15 29 33 24 27 19 8 24 8 0
3730.0 17 2 3 12 3 0 8 11 13 7
3770.0 6 16 13 17 10 18 19 15 7 20
3810.0 14 27 9 11 7 18 9 6 3 16
3850.0 22 1 12 14 6 12 17 20 7 17
3890.0 12 25 16 22 15 30 23 24 26 27
3930.0 29 23 31 29 23 17 23 28 27 36
##END=
