##TITLE=Benzene, 1,3,5-trichloro-2-nitro-
##JCAMP-DX=4.24
##DATA TYPE=INFRARED SPECTRUM
##ORIGIN=Sadtler Research Labs Under US-EPA Contract
##OWNER=NIST Standard Reference Data Program
##CAS REGISTRY NO=18708-70-8
##MOLFORM=C 6 H 2 Cl 3 N O 2
##XUNITS=1/CM
##YUNITS=ABSORBANCE
##XFACTOR=1.0
##YFACTOR=0.000090479
##DELTAX=4.0
##FIRSTX=450.0
##LASTX=3966.0
##FIRSTY=0.006967
##MAXX=3966
##MINX=450
##MAXY=0.90479
##MINY=0
##NPOINTS=880
##XYDATA=(X++(Y..Y))
450.0 77 77 82 86 97 68 33 21 12 10
490.0 21 1 31 16 27 22 49 33 55 97
530.0 169 240 420 683 856 864 607 321 100 108
570.0 123 120 170 181 252 303 216 123 52 32
610.0 32 32 47 31 12 32 25 42 36 18
650.0 18 22 15 51 69 91 73 59 44 32
690.0 27 40 32 30 39 36 46 56 85 123
730.0 186 248 175 120 81 41 37 32 22 35
770.0 29 46 40 58 96 122 204 301 387 427
810.0 451 473 579 957 1499 1781 1826 1447 911 675
850.0 767 1190 1994 3212 3434 3080 2017 866 304 185
890.0 145 96 80 64 36 35 53 59 66 73
930.0 81 82 60 55 47 32 32 31 28 28
970.0 26 36 46 61 38 38 27 26 26 27
1010.0 27 17 18 10 16 18 8 26 36 53
1050.0 81 119 144 158 139 103 63 44 37 25
1090.0 39 43 46 41 36 37 54 95 200 423
1130.0 644 695 550 253 78 48 24 24 25 34
1170.0 36 46 74 115 216 292 286 247 128 68
1210.0 34 30 30 30 24 33 31 36 51 54
1250.0 55 66 56 39 51 49 39 43 41 51
1290.0 46 47 51 53 44 58 91 130 205 316
1330.0 452 655 925 1246 1546 1797 2067 2464 2748 2656
1370.0 2088 1365 910 822 917 951 859 664 456 386
1410.0 460 587 669 659 554 425 319 225 189 166
1450.0 165 169 143 146 134 146 134 146 122 134
1490.0 144 201 238 289 300 293 273 266 262 287
1530.0 337 403 567 898 1575 2667 4285 6378 8847 10000
1570.0 9136 6363 3791 2293 1400 837 533 464 529 643
1610.0 740 756 681 539 376 267 194 122 105 83
1650.0 67 43 53 56 46 46 36 46 35 23
1690.0 29 40 29 18 34 42 61 88 132 151
1730.0 136 105 81 46 29 18 18 17 16 24
1770.0 22 24 27 25 25 24 16 16 16 17
1810.0 16 16 16 17 17 17 17 15 16 14
1850.0 15 15 15 16 16 16 16 16 16 16
1890.0 16 16 16 16 16 16 16 15 15 15
1930.0 21 23 26 25 21 22 27 19 20 14
1970.0 15 15 14 14 14 20 20 20 20 20
2010.0 13 13 14 13 13 13 13 13 13 13
2050.0 13 13 13 13 13 13 13 13 13 12
2090.0 12 8 7 9 12 12 12 7 13 13
2130.0 13 12 12 12 12 12 9 12 12 12
2170.0 12 12 12 12 12 11 11 12 12 12
2210.0 12 12 12 12 12 12 10 10 11 11
2250.0 11 11 11 10 10 10 10 10 10 10
2290.0 10 21 16 20 20 21 21 23 15 10
2330.0 10 4 8 10 10 10 9 10 22 26
2370.0 20 9 12 11 15 10 9 9 9 8
2410.0 8 8 14 14 16 16 13 10 9 9
2450.0 9 9 9 8 8 8 8 8 8 8
2490.0 8 8 8 8 8 7 8 8 8 8
2530.0 8 8 8 8 8 5 6 6 6 6
2570.0 7 6 6 6 6 6 6 2 7 6
2610.0 8 6 12 12 13 17 17 16 13 9
2650.0 13 10 12 12 8 13 18 23 24 31
2690.0 37 40 46 46 43 37 36 30 20 15
2730.0 15 10 14 15 15 11 14 12 10 10
2770.0 10 10 10 10 11 11 11 11 12 15
2810.0 15 15 18 18 16 22 17 11 12 11
2850.0 16 13 16 23 23 29 37 37 43 55
2890.0 66 67 71 77 87 83 82 81 69 58
2930.0 46 41 41 30 18 24 18 18 19 13
2970.0 13 13 16 20 20 14 15 15 14 14
3010.0 14 15 15 15 15 9 12 6 17 9
3050.0 9 9 15 16 16 15 15 26 38 73
3090.0 97 94 73 40 28 17 17 27 28 20
3130.0 29 28 31 30 28 22 18 12 7 12
3170.0 12 12 13 6 15 15 16 7 9 8
3210.0 6 8 8 12 13 13 12 4 14 10
3250.0 12 6 8 14 13 9 9 14 10 9
3290.0 13 11 21 22 8 15 15 14 10 10
3330.0 9 10 14 15 19 18 15 9 12 16
3370.0 12 16 17 16 17 12 11 15 22 14
3410.0 17 7 19 12 22 23 23 17 7 12
3450.0 14 11 17 21 22 17 13 18 24 23
3490.0 19 19 19 22 19 19 15 21 21 10
3530.0 9 17 20 25 14 26 25 19 16 19
3570.0 20 13 17 19 16 15 9 15 16 15
3610.0 14 16 16 15 19 7 14 15 17 17
3650.0 6 22 20 17 17 11 10 2 12 12
3690.0 14 22 14 12 12 11 6 13 11 15
3730.0 9 13 9 14 1 9 7 13 19 19
3770.0 18 18 15 23 19 19 19 18 12 10
3810.0 19 25 14 9 14 13 10 10 10 16
3850.0 21 6 15 10 10 10 4 5 16 10
3890.0 16 16 19 18 20 21 27 17 17 16
3930.0 16 12 17 20 19 23 0 0 0 0
##END=
