##TITLE=Malonic acid, 3-chloropropyl-, diethyl ester
##JCAMP-DX=4.24
##DATA TYPE=INFRARED SPECTRUM
##ORIGIN=Sadtler Research Labs Under US-EPA Contract
##OWNER=NIST Standard Reference Data Program
##CAS REGISTRY NO=18719-43-2
##MOLFORM=C 10 H 17 Cl O 4
##XUNITS=1/CM
##YUNITS=ABSORBANCE
##XFACTOR=1.0
##YFACTOR=0.000090463
##DELTAX=4.0
##FIRSTX=450.0
##LASTX=3966.0
##FIRSTY=0.003980
##MAXX=3966
##MINX=450
##MAXY=0.90463
##MINY=0
##NPOINTS=880
##XYDATA=(X++(Y..Y))
450.0 44 81 135 102 49 46 27 2 5 31
490.0 29 0 64 26 87 69 74 61 23 21
530.0 3 8 1 4 13 12 11 10 27 16
570.0 18 43 47 50 45 62 52 88 69 52
610.0 60 41 48 52 45 42 51 51 64 96
650.0 137 198 304 396 406 344 233 181 157 166
690.0 177 180 149 146 135 133 128 145 159 189
730.0 232 270 322 370 399 392 388 388 386 384
770.0 387 375 377 379 362 346 334 310 286 262
810.0 255 236 230 210 213 218 223 241 275 312
850.0 370 411 456 491 482 446 389 308 231 175
890.0 160 160 178 198 210 204 200 184 186 161
930.0 168 181 190 213 218 213 203 201 200 194
970.0 202 205 205 225 260 286 321 375 439 539
1010.0 689 891 1160 1465 1784 2078 2288 2379 2389 2329
1050.0 2248 2203 2195 2149 1986 1720 1461 1294 1248 1296
1090.0 1426 1628 1800 1833 1736 1608 1551 1593 1763 2092
1130.0 2636 3432 4415 5365 5995 6122 5856 5408 4960 4616
1170.0 4428 4369 4393 4436 4479 4500 4499 4462 4379 4272
1210.0 4177 4143 4151 4172 4196 4242 4313 4373 4363 4271
1250.0 4152 4071 4051 4045 3997 3903 3821 3760 3671 3516
1290.0 3286 3020 2786 2630 2505 2342 2140 1972 1903 1923
1330.0 1991 2048 1988 1806 1533 1231 992 862 894 1212
1370.0 1628 1746 1484 1084 808 674 608 558 518 465
1410.0 418 386 327 343 355 409 491 622 782 940
1450.0 1089 1128 1009 932 888 859 763 654 531 394
1490.0 271 219 159 133 85 52 72 54 31 49
1530.0 50 44 36 13 23 42 34 10 26 42
1570.0 35 38 39 44 49 45 47 45 45 45
1610.0 49 49 36 52 47 66 53 50 66 57
1650.0 49 39 76 84 99 99 107 139 138 157
1690.0 210 255 279 340 441 560 666 770 947 1179
1730.0 1546 2158 3300 5085 7439 9526 10000 9047 8160 7668
1770.0 6632 4845 3162 2046 1419 1043 793 634 503 434
1810.0 363 306 262 224 182 153 139 122 97 77
1850.0 81 78 70 65 60 48 59 63 64 67
1890.0 60 63 64 62 57 50 49 38 37 39
1930.0 38 34 33 27 29 31 33 32 31 29
1970.0 32 33 33 35 34 31 31 40 39 40
2010.0 42 40 37 39 38 39 40 37 38 39
2050.0 41 40 39 37 34 39 40 38 39 38
2090.0 38 40 39 38 35 32 31 26 28 26
2130.0 25 23 24 22 20 21 17 19 17 18
2170.0 16 17 14 15 17 15 14 14 13 14
2210.0 14 15 15 17 17 17 16 18 16 18
2250.0 18 18 19 19 18 20 23 23 27 27
2290.0 24 29 33 35 41 37 40 34 37 40
2330.0 33 25 19 26 44 35 27 26 28 16
2370.0 35 36 36 34 25 21 16 16 12 17
2410.0 13 16 16 11 17 15 15 14 12 12
2450.0 12 13 14 13 15 12 13 10 11 8
2490.0 10 6 6 10 9 7 7 10 8 6
2530.0 6 9 5 2 5 4 4 5 3 2
2570.0 2 0 0 0 2 5 4 8 9 10
2610.0 10 13 14 11 11 11 7 11 11 8
2650.0 10 11 8 8 14 13 12 17 17 14
2690.0 14 16 20 22 26 22 24 24 30 32
2730.0 30 35 35 33 33 41 41 42 45 45
2770.0 53 55 59 60 57 61 59 62 64 69
2810.0 75 83 92 101 112 119 124 133 142 172
2850.0 211 245 280 313 334 380 443 532 635 677
2890.0 663 613 598 634 706 791 881 915 917 924
2930.0 988 1122 1337 1589 1784 1797 1714 1716 1896 2122
2970.0 2215 2182 2230 2543 2950 3011 2668 2259 1937 1570
3010.0 1204 925 708 548 434 357 299 254 218 190
3050.0 171 152 138 122 114 103 98 98 90 86
3090.0 81 77 79 72 72 64 69 64 62 60
3130.0 64 62 58 59 58 63 57 51 59 49
3170.0 50 54 47 45 43 45 45 40 42 44
3210.0 44 39 38 35 35 37 41 36 33 28
3250.0 29 25 25 30 27 29 28 24 25 25
3290.0 24 24 22 26 28 22 24 24 28 22
3330.0 22 20 21 25 31 27 29 27 31 24
3370.0 25 26 26 30 23 25 32 29 23 28
3410.0 26 22 18 27 22 23 25 24 28 34
3450.0 27 33 25 26 27 23 41 44 51 65
3490.0 71 80 76 72 59 41 41 27 22 15
3530.0 3 5 9 1 6 15 2 9 13 10
3570.0 17 30 29 26 10 7 5 14 11 20
3610.0 17 8 20 17 22 10 30 19 19 26
3650.0 20 29 19 20 18 20 24 17 28 27
3690.0 18 18 29 27 30 27 27 21 13 29
3730.0 22 19 20 34 11 29 18 14 19 20
3770.0 35 27 30 16 29 22 36 33 33 23
3810.0 21 37 20 12 27 31 25 24 28 34
3850.0 16 27 34 29 24 19 18 13 17 27
3890.0 36 23 34 32 29 24 3 0 32 17
3930.0 26 15 24 31 17 15 25 28 18 21
##END=
