##TITLE=3-Heptanol, 2-methyl-
##JCAMP-DX=4.24
##DATA TYPE=INFRARED SPECTRUM
##ORIGIN=Sadtler Research Labs Under US-EPA Contract
##OWNER=NIST Standard Reference Data Program
##CAS REGISTRY NO=18720-62-2
##MOLFORM=C 8 H 18 O
##XUNITS=1/CM
##YUNITS=ABSORBANCE
##XFACTOR=1.0
##YFACTOR=0.000131406
##DELTAX=4.0
##FIRSTX=450.0
##LASTX=3966.0
##FIRSTY=0.018003
##MAXX=3966
##MINX=450
##MAXY=1.31406
##MINY=0
##NPOINTS=880
##XYDATA=(X++(Y..Y))
450.0 137 84 51 19 110 20 105 45 111 79
490.0 120 100 114 85 59 73 44 68 54 55
530.0 65 76 54 51 42 40 58 39 53 63
570.0 59 55 63 54 71 53 44 46 44 31
610.0 32 39 35 35 34 28 44 39 52 42
650.0 38 39 39 40 26 51 45 49 41 50
690.0 45 54 56 62 56 66 92 96 116 141
730.0 157 171 172 187 173 181 146 155 132 133
770.0 146 154 152 199 227 223 190 181 178 99
810.0 90 71 65 54 54 57 44 58 52 62
850.0 67 84 103 137 187 242 309 388 495 593
890.0 662 688 653 599 553 584 665 814 969 1114
930.0 1165 1113 956 750 568 416 322 261 251 266
970.0 323 394 493 593 688 780 844 893 889 870
1010.0 813 749 679 602 547 501 504 519 553 563
1050.0 564 552 546 552 556 574 583 597 602 626
1090.0 630 631 615 590 582 595 650 739 861 972
1130.0 1087 1169 1220 1259 1299 1362 1424 1499 1514 1477
1170.0 1377 1261 1141 1033 946 862 799 742 718 697
1210.0 693 691 692 683 672 667 651 657 664 693
1250.0 716 747 767 772 765 744 728 705 707 700
1290.0 709 705 713 701 683 675 658 662 653 671
1330.0 687 727 777 816 833 828 837 841 907 1026
1370.0 1233 1490 1724 1841 1748 1512 1159 819 592 469
1410.0 384 349 326 322 321 341 399 458 577 694
1450.0 928 1118 1357 1562 1630 1575 1327 1053 767 520
1490.0 365 251 215 162 147 144 124 119 103 104
1530.0 88 90 82 69 76 64 70 49 62 55
1570.0 59 50 55 49 50 48 46 48 42 44
1610.0 38 44 34 43 33 38 31 35 32 34
1650.0 29 34 30 31 31 30 24 35 30 33
1690.0 28 26 24 30 23 22 20 21 19 16
1730.0 19 17 18 12 16 20 12 14 13 14
1770.0 12 17 11 16 10 17 12 17 21 14
1810.0 14 15 14 12 12 10 12 6 13 12
1850.0 8 9 9 10 10 13 11 10 8 8
1890.0 10 10 7 7 9 8 9 8 11 10
1930.0 7 9 6 9 7 6 5 4 4 5
1970.0 4 3 2 2 4 4 4 1 2 3
2010.0 1 3 5 8 5 8 6 12 12 10
2050.0 10 9 9 10 9 9 9 11 9 8
2090.0 11 9 8 8 7 8 5 6 8 6
2130.0 3 4 2 2 2 1 2 4 4 5
2170.0 3 3 5 6 4 6 7 8 8 8
2210.0 7 9 8 7 9 8 10 10 10 10
2250.0 13 13 13 16 15 15 13 13 12 12
2290.0 11 9 8 8 8 7 7 1 6 4
2330.0 6 6 8 8 18 13 8 14 23 26
2370.0 37 36 34 32 30 27 23 22 22 18
2410.0 18 17 15 15 16 16 16 16 14 15
2450.0 15 14 12 12 13 11 13 11 12 11
2490.0 12 14 12 14 13 13 18 19 20 21
2530.0 23 23 23 22 26 25 27 26 30 29
2570.0 29 30 32 33 36 37 36 37 39 40
2610.0 42 44 48 47 49 49 53 53 54 57
2650.0 58 59 67 66 66 71 71 72 75 73
2690.0 73 73 73 73 71 74 80 85 91 100
2730.0 110 120 130 139 145 143 140 129 127 125
2770.0 127 134 140 149 166 176 194 215 236 256
2810.0 281 308 333 364 406 455 521 610 730 892
2850.0 1094 1365 1700 2099 2516 2877 3179 3433 3626 3664
2890.0 3649 3461 3262 3137 3140 3331 3643 4104 4668 5416
2930.0 6267 7220 7992 8269 8099 7511 6897 6682 7324 8531
2970.0 9721 10000 9454 7846 5931 4242 2954 2017 1368 975
3010.0 746 616 535 480 438 402 365 327 300 273
3050.0 247 231 219 212 206 203 200 199 191 185
3090.0 177 171 165 156 148 139 136 131 125 119
3130.0 113 104 97 96 90 90 91 85 85 88
3170.0 90 91 88 90 87 88 86 79 71 69
3210.0 66 58 51 44 42 38 32 28 24 22
3250.0 16 17 12 12 9 13 11 11 7 7
3290.0 13 9 7 11 10 8 5 5 7 6
3330.0 7 6 9 11 13 9 10 12 12 13
3370.0 12 12 16 17 15 19 23 26 21 24
3410.0 26 27 24 24 23 26 26 26 27 24
3450.0 22 24 24 20 21 19 18 20 14 14
3490.0 9 13 11 10 7 10 5 14 12 7
3530.0 8 7 11 5 6 9 5 4 8 1
3570.0 8 8 11 13 1 12 7 15 13 26
3610.0 21 41 64 109 164 258 388 485 558 543
3650.0 456 349 251 146 107 47 51 15 38 21
3690.0 16 18 20 15 18 15 10 15 5 4
3730.0 8 0 7 6 4 15 6 18 11 16
3770.0 17 10 19 14 17 19 23 10 12 15
3810.0 33 16 24 25 29 26 22 24 30 25
3850.0 23 15 28 38 29 24 33 31 27 23
3890.0 18 25 30 14 22 24 20 11 19 8
3930.0 14 17 13 11 15 10 22 10 11 18
##END=
