##TITLE=Malonic acid, 2-cyanoethyl-, pentyl-, diethyl ester
##JCAMP-DX=4.24
##DATA TYPE=INFRARED SPECTRUM
##ORIGIN=Sadtler Research Labs Under US-EPA Contract
##OWNER=NIST Standard Reference Data Program
##CAS REGISTRY NO=18755-33-4
##MOLFORM=C 15 H 25 N O 4
##XUNITS=1/CM
##YUNITS=ABSORBANCE
##XFACTOR=1.0
##YFACTOR=0.000123065
##DELTAX=4.0
##FIRSTX=450.0
##LASTX=3966.0
##FIRSTY=0.008861
##MAXX=3966
##MINX=450
##MAXY=1.23065
##MINY=0
##NPOINTS=880
##XYDATA=(X++(Y..Y))
450.0 72 98 87 141 88 61 46 46 26 28
490.0 23 20 30 15 23 9 16 13 33 49
530.0 39 40 21 51 58 77 78 77 71 52
570.0 65 38 54 61 64 54 66 76 61 66
610.0 46 43 28 15 15 1 6 8 3 5
650.0 7 11 12 21 30 52 65 66 74 85
690.0 91 79 73 76 75 89 104 136 160 187
730.0 181 180 162 173 174 176 187 187 179 194
770.0 208 212 220 216 206 191 168 160 157 155
810.0 144 147 150 163 166 188 202 245 281 338
850.0 407 496 614 699 704 593 445 306 218 176
890.0 159 154 155 161 163 159 159 166 173 177
930.0 172 165 152 148 144 145 153 159 168 188
970.0 196 213 231 255 282 328 382 463 579 740
1010.0 963 1239 1519 1714 1794 1749 1633 1519 1485 1563
1050.0 1726 1919 2091 2209 2262 2216 2077 1881 1698 1609
1090.0 1660 1817 2043 2269 2504 2792 3078 3291 3342 3215
1130.0 2956 2668 2451 2313 2234 2169 2133 2185 2391 2825
1170.0 3521 4398 5307 6046 6495 6680 6654 6446 6122 5705
1210.0 5276 4945 4795 4813 4878 4891 4878 4807 4719 4568
1250.0 4388 4153 3875 3481 3070 2697 2404 2175 1990 1863
1290.0 1789 1751 1719 1665 1544 1380 1198 1042 913 821
1330.0 757 713 677 646 616 595 577 576 655 868
1370.0 1103 1143 985 840 759 681 599 544 493 457
1410.0 427 418 418 453 517 637 789 928 1071 1224
1450.0 1360 1386 1340 1290 1261 1215 1085 885 674 499
1490.0 370 284 237 197 170 153 137 127 114 108
1530.0 99 96 95 92 96 94 91 83 81 77
1570.0 71 71 65 61 63 63 62 57 54 59
1610.0 61 69 69 69 73 76 75 82 86 90
1650.0 95 102 114 127 141 157 174 206 231 277
1690.0 328 397 480 594 725 877 1061 1333 1754 2378
1730.0 3421 4961 7155 9067 10000 8885 7432 6085 4799 3361
1770.0 2177 1443 1050 813 647 538 446 390 331 289
1810.0 253 220 191 165 146 125 115 98 89 78
1850.0 73 67 63 60 58 60 58 59 59 56
1890.0 53 50 44 40 38 36 35 33 31 31
1930.0 28 27 26 24 24 25 24 22 22 21
1970.0 22 23 24 24 24 22 22 21 20 21
2010.0 23 22 22 25 28 28 32 35 35 35
2050.0 35 37 36 35 36 38 37 36 36 33
2090.0 34 32 33 31 28 26 25 23 23 21
2130.0 19 16 15 13 13 13 13 11 12 11
2170.0 11 9 9 9 8 8 9 7 8 7
2210.0 9 11 14 16 20 25 31 50 73 114
2250.0 146 150 114 67 40 27 21 19 17 16
2290.0 14 18 17 22 20 23 25 25 30 34
2330.0 28 36 37 35 44 27 43 36 37 27
2370.0 35 31 29 28 22 22 21 25 21 24
2410.0 26 24 20 20 19 19 17 13 14 12
2450.0 8 11 13 11 9 5 8 5 6 4
2490.0 4 1 2 2 4 3 0 0 2 3
2530.0 2 6 6 4 3 7 7 9 8 10
2570.0 10 8 10 13 13 13 17 19 18 20
2610.0 20 19 18 17 19 16 16 13 15 17
2650.0 18 20 20 25 26 27 28 29 31 30
2690.0 32 33 30 32 36 36 39 44 43 51
2730.0 53 57 59 66 71 69 70 68 70 74
2770.0 80 84 91 94 99 105 112 117 129 142
2810.0 154 171 188 207 224 245 269 302 347 412
2850.0 504 646 851 1077 1250 1374 1440 1485 1562 1582
2890.0 1450 1280 1213 1266 1407 1599 1806 2009 2239 2542
2930.0 2940 3313 3597 3796 3805 3540 3248 3276 3693 4252
2970.0 4498 4154 3548 3267 3363 3189 2613 2030 1621 1321
3010.0 1088 896 730 595 490 412 353 300 262 225
3050.0 198 173 160 149 143 129 120 116 110 104
3090.0 101 94 89 91 88 83 83 77 74 71
3130.0 71 67 63 63 62 59 57 57 54 53
3170.0 53 51 54 47 48 48 45 47 39 38
3210.0 33 32 27 24 21 20 16 17 14 13
3250.0 8 11 12 8 6 12 9 8 9 7
3290.0 9 9 5 5 10 6 11 4 7 8
3330.0 10 5 7 13 12 7 5 3 5 9
3370.0 5 11 10 11 9 10 12 15 10 9
3410.0 11 12 15 13 16 16 21 26 23 25
3450.0 27 29 37 48 53 55 60 63 70 65
3490.0 55 47 39 31 19 18 12 10 13 6
3530.0 5 6 7 0 4 7 9 1 3 0
3570.0 3 2 2 5 4 3 1 3 8 4
3610.0 6 3 6 0 2 3 6 4 3 6
3650.0 5 6 12 7 7 12 1 8 12 12
3690.0 3 5 11 8 15 11 4 7 2 10
3730.0 16 15 4 12 5 13 6 17 6 9
3770.0 12 12 8 13 14 4 7 16 14 4
3810.0 13 12 11 10 10 8 14 12 8 16
3850.0 7 14 11 7 9 10 15 13 19 15
3890.0 10 10 12 8 8 23 7 11 13 13
3930.0 6 9 17 9 1 9 20 14 16 22
##END=
