##TITLE=1,4-Butanediol, 2-hexyl-,
##JCAMP-DX=4.24
##DATA TYPE=INFRARED SPECTRUM
##ORIGIN=Sadtler Research Labs Under US-EPA Contract
##OWNER=NIST Standard Reference Data Program
##CAS REGISTRY NO=18755-31-2
##MOLFORM=C 10 H 22 O 2
##XUNITS=1/CM
##YUNITS=ABSORBANCE
##XFACTOR=1.0
##YFACTOR=0.000050940
##DELTAX=4.0
##FIRSTX=450.0
##LASTX=3966.0
##FIRSTY=0.011309
##MAXX=3966
##MINX=450
##MAXY=0.5094
##MINY=0
##NPOINTS=880
##XYDATA=(X++(Y..Y))
450.0 222 218 141 127 128 145 100 94 147 141
490.0 138 162 173 100 107 71 120 130 123 122
530.0 114 139 115 72 84 105 122 107 107 61
570.0 40 86 56 88 37 70 69 67 37 48
610.0 51 45 23 21 8 3 27 18 35 13
650.0 5 33 39 18 7 13 37 37 30 34
690.0 29 39 72 53 66 82 106 142 123 131
730.0 127 121 131 105 104 102 100 108 99 89
770.0 94 102 78 91 103 94 103 101 103 88
810.0 88 77 77 87 97 113 101 112 122 120
850.0 120 139 128 131 137 148 167 168 176 184
890.0 178 187 202 186 206 219 221 261 269 308
930.0 336 369 414 460 491 511 541 565 591 623
970.0 670 734 806 896 1014 1111 1215 1299 1391 1484
1010.0 1587 1743 1943 2219 2567 2952 3266 3435 3407 3246
1050.0 2997 2742 2480 2200 1946 1693 1461 1266 1104 969
1090.0 865 783 711 654 609 560 528 505 492 478
1130.0 463 451 438 428 423 417 414 424 425 429
1170.0 437 441 454 464 473 477 497 506 519 529
1210.0 540 557 572 585 593 599 599 598 594 589
1250.0 583 588 587 589 581 582 569 564 561 549
1290.0 543 536 527 515 509 498 490 485 484 499
1330.0 507 529 550 573 594 612 623 631 651 664
1370.0 678 712 766 831 852 833 765 691 624 563
1410.0 515 477 451 427 416 424 456 510 561 614
1450.0 681 751 823 883 884 878 813 718 583 453
1490.0 341 256 202 159 140 123 110 96 81 82
1530.0 72 63 59 53 56 54 52 46 49 49
1570.0 41 34 42 35 39 41 44 40 35 35
1610.0 29 29 32 26 24 23 21 19 19 18
1650.0 17 20 21 13 17 16 14 13 20 19
1690.0 24 24 25 25 22 30 30 37 34 34
1730.0 40 45 38 43 45 43 40 36 29 29
1770.0 32 28 30 29 27 25 26 30 27 27
1810.0 26 29 27 26 23 18 16 19 21 19
1850.0 19 20 19 19 22 22 18 21 25 26
1890.0 23 21 21 24 25 24 25 23 23 25
1930.0 30 24 24 23 27 26 27 28 28 26
1970.0 32 30 26 26 34 34 36 37 37 38
2010.0 36 38 44 43 46 49 46 51 52 54
2050.0 52 53 47 47 48 47 44 44 36 35
2090.0 34 29 34 35 32 34 31 29 33 29
2130.0 30 26 27 24 22 23 32 29 27 25
2170.0 29 27 29 31 27 30 26 29 29 31
2210.0 31 25 27 27 25 30 26 27 27 28
2250.0 27 23 26 28 26 30 33 25 21 19
2290.0 15 5 3 7 7 8 12 11 19 30
2330.0 27 35 46 41 41 21 39 37 31 35
2370.0 42 38 40 34 29 39 40 43 44 42
2410.0 39 44 40 39 43 42 42 41 45 45
2450.0 43 44 44 43 40 42 40 43 38 42
2490.0 43 38 37 43 39 44 49 47 51 46
2530.0 49 60 57 59 52 50 59 54 59 63
2570.0 59 59 65 68 66 68 67 73 77 75
2610.0 79 83 82 80 90 93 99 99 107 102
2650.0 109 114 119 123 127 134 146 142 148 153
2690.0 155 161 163 164 170 178 180 195 198 208
2730.0 216 229 241 252 250 258 266 270 276 286
2770.0 300 312 319 335 356 371 389 403 419 439
2810.0 465 496 533 578 630 708 794 917 1089 1350
2850.0 1730 2274 2921 3528 3950 4135 4149 4202 4267 4268
2890.0 4104 3897 3822 3955 4269 4760 5395 6205 7317 8521
2930.0 9600 10000 9628 8631 7313 6044 5100 4632 4554 4658
2970.0 4449 3783 2814 1950 1421 1107 892 748 649 561
3010.0 491 443 395 355 323 302 266 244 222 205
3050.0 190 175 168 157 146 137 137 127 120 120
3090.0 105 101 96 95 85 86 81 76 67 76
3130.0 78 66 67 67 63 52 57 59 57 50
3170.0 53 47 47 46 41 44 49 45 40 40
3210.0 44 39 40 26 24 27 27 23 21 22
3250.0 25 25 15 16 17 23 12 10 12 18
3290.0 23 17 18 11 3 11 15 12 2 14
3330.0 17 14 20 15 25 13 9 17 8 11
3370.0 9 9 6 17 12 8 12 17 12 7
3410.0 20 18 14 26 19 11 17 16 23 23
3450.0 25 22 16 28 32 35 40 43 52 42
3490.0 40 35 40 43 54 57 63 70 82 90
3530.0 100 129 170 214 254 292 312 320 302 288
3570.0 273 262 242 220 224 222 237 242 241 237
3610.0 229 208 193 188 176 190 180 201 238 289
3650.0 389 531 700 852 978 1037 962 792 560 377
3690.0 265 202 139 119 100 87 81 58 60 47
3730.0 49 36 51 26 21 33 54 21 6 16
3770.0 30 16 11 12 19 15 31 15 26 26
3810.0 23 30 18 27 20 38 33 22 33 14
3850.0 29 43 20 34 14 33 50 52 15 17
3890.0 8 16 16 11 1 23 4 8 32 2
3930.0 3 9 3 20 27 0 24 6 2 16
##END=
