##TITLE=Benzeneethanol, 3-methyl-
##JCAMP-DX=4.24
##DATA TYPE=INFRARED SPECTRUM
##ORIGIN=Sadtler Research Labs Under US-EPA Contract
##OWNER=NIST Standard Reference Data Program
##CAS REGISTRY NO=1875-89-4
##MOLFORM=C 9 H 12 O
##XUNITS=1/CM
##YUNITS=ABSORBANCE
##XFACTOR=1.0
##YFACTOR=0.000069031
##DELTAX=4.0
##FIRSTX=450.0
##LASTX=3966.0
##FIRSTY=0.050392
##MAXX=3966
##MINX=450
##MAXY=0.69031
##MINY=0
##NPOINTS=880
##XYDATA=(X++(Y..Y))
450.0 730 776 773 634 486 379 304 234 211 177
490.0 176 168 190 215 193 188 247 241 237 235
530.0 194 184 172 137 121 115 116 84 87 69
570.0 91 69 100 74 127 132 153 171 232 290
610.0 263 230 160 82 29 24 35 22 22 22
650.0 33 50 62 107 73 197 274 371 641 1056
690.0 1687 2229 3006 2886 2331 1811 1265 867 609 505
730.0 502 534 595 717 785 844 969 1294 1806 2576
770.0 3461 4283 4448 3642 2741 1811 1071 600 380 294
810.0 209 151 142 112 114 136 187 261 369 458
850.0 523 536 544 515 528 567 617 657 600 504
890.0 426 354 295 269 255 237 233 225 233 233
930.0 237 265 297 354 417 469 505 511 512 523
970.0 529 557 622 720 854 1011 1218 1470 1750 2025
1010.0 2266 2527 2880 3438 4282 5489 6995 8431 9446 10000
1050.0 9774 9044 8217 7006 5521 4130 3020 2295 1915 1774
1090.0 1711 1576 1413 1217 974 776 657 612 605 645
1130.0 678 702 708 692 662 645 631 648 692 743
1170.0 791 828 843 828 824 848 901 965 1009 1020
1210.0 978 908 816 747 705 696 696 707 719 728
1250.0 726 723 726 725 728 720 709 702 696 697
1290.0 697 705 716 726 744 761 784 807 840 879
1330.0 927 976 1019 1041 1047 1027 1007 1016 1095 1262
1370.0 1523 1887 2275 2583 2702 2606 2302 1895 1532 1269
1410.0 1094 981 958 966 1029 1152 1333 1511 1604 1597
1450.0 1524 1406 1271 1195 1221 1361 1574 1861 2137 2380
1490.0 2390 2241 1941 1595 1287 1009 847 731 684 637
1530.0 630 593 564 518 456 411 378 385 390 412
1570.0 481 570 711 882 1064 1278 1520 1896 2315 2794
1610.0 3025 2831 2338 1571 879 421 240 135 98 75
1650.0 78 85 83 78 102 114 128 96 86 51
1690.0 22 8 21 6 10 0 5 18 32 47
1730.0 64 96 96 107 113 132 141 152 148 154
1770.0 161 163 164 162 151 121 95 61 44 31
1810.0 27 29 31 32 40 48 66 92 133 166
1850.0 194 217 223 215 196 163 132 99 73 61
1890.0 59 63 68 80 83 95 112 142 180 224
1930.0 258 256 238 199 140 91 58 46 33 32
1970.0 29 28 26 20 22 23 27 28 30 32
2010.0 35 36 41 39 47 51 56 65 69 82
2050.0 88 92 91 91 89 84 77 73 68 68
2090.0 61 61 59 54 47 41 38 39 33 28
2130.0 27 24 23 22 18 17 15 12 16 12
2170.0 9 9 13 11 12 13 19 21 20 22
2210.0 21 21 25 28 23 28 28 27 29 26
2250.0 33 36 40 38 42 43 46 44 43 44
2290.0 44 49 49 62 62 65 58 58 60 67
2330.0 65 71 81 58 83 81 74 66 47 38
2370.0 46 52 59 63 58 55 64 62 69 73
2410.0 73 74 75 78 73 71 68 65 67 63
2450.0 65 64 63 66 62 68 68 68 69 66
2490.0 64 64 64 58 58 60 55 53 55 52
2530.0 52 60 55 57 53 40 45 47 43 39
2570.0 43 43 47 50 56 54 60 63 63 71
2610.0 74 81 82 82 80 83 88 92 94 98
2650.0 104 105 111 109 121 122 129 135 145 147
2690.0 146 149 157 160 160 175 185 197 225 253
2730.0 285 324 364 394 409 404 376 347 334 323
2770.0 320 320 335 339 352 371 382 393 407 431
2810.0 456 487 530 582 646 724 830 967 1145 1353
2850.0 1605 1892 2231 2671 3268 4031 4819 5394 5662 5585
2890.0 5149 4653 4277 4152 4265 4608 5181 5933 6818 7607
2930.0 8145 8332 8308 8117 7831 7357 6840 6336 5775 5157
2970.0 4454 3745 3037 2439 2065 1916 1890 1936 2081 2340
3010.0 2707 3143 3603 4058 4529 4846 4895 4678 4268 3766
3050.0 3399 3290 3319 3282 3138 2867 2330 1753 1342 1062
3090.0 899 807 764 738 709 654 573 470 366 272
3130.0 185 145 115 91 78 72 63 64 62 57
3170.0 59 53 52 54 49 49 42 31 34 30
3210.0 29 26 30 26 29 32 33 34 30 30
3250.0 33 28 24 30 27 22 20 23 19 19
3290.0 20 22 19 25 28 28 39 32 35 36
3330.0 36 39 32 35 35 33 31 33 31 32
3370.0 39 28 36 36 29 25 38 36 42 50
3410.0 29 32 34 40 33 34 37 31 29 33
3450.0 29 39 38 40 37 41 42 38 40 36
3490.0 30 37 34 23 23 26 31 21 32 24
3530.0 30 42 58 70 73 67 67 85 73 77
3570.0 81 74 72 74 81 86 85 83 94 135
3610.0 180 289 528 882 1142 1290 1264 1068 882 755
3650.0 797 982 1152 1332 1453 1457 1303 1095 834 557
3690.0 375 267 216 185 166 148 131 116 112 90
3730.0 75 63 74 52 89 45 52 40 40 43
3770.0 41 48 56 30 34 35 40 39 25 53
3810.0 40 29 27 43 32 29 22 38 29 47
3850.0 38 57 49 41 54 62 53 54 51 62
3890.0 53 41 59 75 66 52 52 68 73 57
3930.0 43 74 45 64 61 49 34 43 36 33
##END=
