##TITLE=3-Hexadecanone
##JCAMP-DX=4.24
##DATA TYPE=INFRARED SPECTRUM
##ORIGIN=Sadtler Research Labs Under US-EPA Contract
##OWNER=NIST Standard Reference Data Program
##CAS REGISTRY NO=18787-64-9
##MOLFORM=C 16 H 32 O
##XUNITS=1/CM
##YUNITS=ABSORBANCE
##XFACTOR=1.0
##YFACTOR=0.000162100
##DELTAX=4.0
##FIRSTX=450.0
##LASTX=3966.0
##FIRSTY=0.000000
##MAXX=3966
##MINX=450
##MAXY=1.621
##MINY=0
##NPOINTS=880
##XYDATA=(X++(Y..Y))
450.0 0 248 313 169 200 138 179 230 173 178
490.0 179 200 242 248 215 222 223 233 209 217
530.0 208 223 231 206 182 202 194 215 201 227
570.0 189 166 191 198 216 168 200 192 170 208
610.0 194 183 209 187 199 204 199 206 181 202
650.0 196 203 203 181 197 166 191 211 188 216
690.0 200 203 235 246 265 276 300 321 327 338
730.0 307 299 289 270 283 242 217 243 263 264
770.0 257 245 244 240 236 236 239 248 228 234
810.0 229 239 239 240 241 245 233 236 237 237
850.0 231 239 243 232 228 226 231 240 236 247
890.0 246 240 248 260 262 256 258 260 270 284
930.0 299 316 331 350 378 392 386 393 388 377
970.0 366 354 353 350 344 335 327 322 319 334
1010.0 345 354 368 371 391 380 374 390 380 372
1050.0 361 349 345 333 350 348 345 366 374 390
1090.0 413 435 494 559 605 629 632 615 591 568
1130.0 548 550 536 519 517 508 514 517 515 499
1170.0 493 479 459 446 438 427 420 411 396 380
1210.0 374 369 363 347 336 335 334 336 345 348
1250.0 351 354 362 366 377 381 375 379 385 393
1290.0 402 406 423 430 450 469 481 500 514 532
1330.0 568 625 686 750 822 886 907 879 817 774
1370.0 703 659 618 577 561 498 466 448 427 435
1410.0 458 501 517 536 542 566 582 627 698 758
1450.0 864 971 1073 1160 1142 1011 819 630 496 419
1490.0 343 321 308 278 287 272 243 226 225 231
1530.0 211 210 204 208 203 190 199 193 203 193
1570.0 194 199 180 187 185 187 193 192 197 190
1610.0 193 189 203 194 195 203 191 193 196 201
1650.0 218 209 215 206 221 244 261 285 304 363
1690.0 400 464 567 663 819 1025 1244 1590 1903 2134
1730.0 2221 1965 1600 1204 922 727 571 480 408 341
1770.0 306 273 264 243 229 214 207 210 191 194
1810.0 179 180 162 172 171 165 157 160 156 169
1850.0 171 156 152 148 156 150 152 148 152 146
1890.0 151 154 153 149 148 148 158 159 155 155
1930.0 150 155 153 148 154 155 148 151 155 156
1970.0 146 149 149 154 155 152 155 154 149 154
2010.0 160 159 159 152 158 160 162 162 164 157
2050.0 153 156 158 161 161 163 154 155 153 155
2090.0 157 158 157 154 153 154 147 160 165 154
2130.0 149 143 152 155 158 154 151 154 156 162
2170.0 160 157 153 154 148 149 152 155 154 151
2210.0 157 158 143 139 150 150 151 156 151 151
2250.0 150 150 153 154 142 154 152 158 149 145
2290.0 153 167 158 170 165 172 176 158 164 173
2330.0 163 158 160 167 170 162 160 157 166 168
2370.0 183 166 160 161 161 152 151 154 150 147
2410.0 155 155 156 154 148 150 155 153 153 154
2450.0 152 152 152 152 150 150 152 155 158 152
2490.0 148 154 154 158 159 159 155 161 159 164
2530.0 169 164 165 165 169 172 171 171 168 169
2570.0 171 172 171 175 178 181 186 187 183 186
2610.0 185 189 195 195 197 198 202 205 205 211
2650.0 210 218 220 227 232 233 234 236 242 249
2690.0 248 241 237 234 236 238 233 235 235 240
2730.0 245 251 254 255 261 264 268 269 270 273
2770.0 273 281 292 302 314 329 350 372 393 416
2810.0 443 472 511 553 596 646 713 810 951 1183
2850.0 1567 2190 3052 3763 3923 3555 3037 2629 2415 2332
2890.0 2296 2332 2494 2774 3174 3652 4248 5071 6193 7836
2930.0 9426 10000 9466 8093 6668 5410 4439 3800 3477 3353
2970.0 3169 2803 2338 1982 1730 1463 1215 1015 865 747
3010.0 654 584 532 486 448 414 382 356 336 325
3050.0 307 289 273 267 259 253 246 240 232 233
3090.0 232 227 225 217 213 213 210 208 204 203
3130.0 200 199 203 198 192 194 192 193 193 190
3170.0 188 186 189 183 182 182 177 175 176 174
3210.0 174 168 161 166 171 169 164 158 158 166
3250.0 164 163 160 158 158 162 168 160 161 158
3290.0 158 165 165 162 159 159 163 161 164 160
3330.0 162 160 167 169 163 159 157 168 172 166
3370.0 160 162 159 170 174 167 167 166 163 167
3410.0 175 172 176 181 191 190 188 185 181 182
3450.0 177 179 169 163 158 155 159 158 146 148
3490.0 144 154 161 154 144 144 144 149 146 146
3530.0 142 142 147 153 148 148 138 146 145 150
3570.0 151 150 153 155 152 147 147 145 152 146
3610.0 157 149 151 146 149 155 163 155 155 145
3650.0 155 157 161 155 142 151 152 169 148 146
3690.0 141 142 141 150 149 147 149 143 142 151
3730.0 145 140 146 148 171 146 160 138 143 149
3770.0 160 155 143 146 160 154 164 154 148 146
3810.0 142 160 155 158 140 151 148 162 153 151
3850.0 158 163 180 155 159 154 154 166 172 170
3890.0 145 150 151 169 175 160 154 158 178 167
3930.0 166 149 164 163 161 159 146 138 141 149
##END=
