##TITLE=4-Bromophenylacetic acid
##JCAMP-DX=4.24
##DATA TYPE=INFRARED SPECTRUM
##ORIGIN=Sadtler Research Labs Under US-EPA Contract
##OWNER=NIST Standard Reference Data Program
##CAS REGISTRY NO=1878-68-8
##MOLFORM=C 8 H 7 Br O 2
##XUNITS=1/CM
##YUNITS=ABSORBANCE
##XFACTOR=1.0
##YFACTOR=0.000054019
##DELTAX=4.0
##FIRSTX=450.0
##LASTX=3966.0
##FIRSTY=0.000000
##MAXX=3966
##MINX=450
##MAXY=0.54019
##MINY=0
##NPOINTS=880
##XYDATA=(X++(Y..Y))
450.0 0 106 135 356 359 548 679 881 1056 1220
490.0 1260 1197 1208 1180 1156 1203 1350 1526 1745 1755
530.0 1538 1269 1050 941 922 898 856 869 817 872
570.0 946 1051 1191 1397 1681 1982 2389 2717 3045 3388
610.0 3607 3812 3547 3172 2640 2239 1929 1738 1568 1403
650.0 1303 1193 1140 1045 1033 1045 1024 1014 1045 1065
690.0 1135 1135 1155 1061 1001 1040 1138 1325 1501 1661
730.0 1746 1788 1687 1495 1219 982 866 772 761 734
770.0 762 811 944 1125 1434 1755 2096 2356 2292 2037
810.0 1683 1389 1152 1023 966 982 1049 1138 1195 1176
850.0 1061 898 789 743 724 711 721 716 731 745
890.0 723 720 690 696 682 694 686 686 717 740
930.0 786 790 797 753 742 709 704 683 688 715
970.0 678 665 645 641 605 628 644 700 867 1363
1010.0 2831 3997 3875 2312 996 722 672 654 715 719
1050.0 828 915 1128 1485 2369 3743 4749 4717 3806 3104
1090.0 3217 3702 4437 5445 6761 8305 9640 10000 8921 7125
1130.0 5660 4796 4166 3641 3185 2782 2457 2212 2056 1947
1170.0 1900 1886 1907 1945 2027 2108 2158 2182 2182 2177
1210.0 2156 2142 2104 2022 1893 1730 1571 1433 1353 1277
1250.0 1234 1198 1151 1115 1075 1037 1004 990 985 999
1290.0 1013 1030 1048 1076 1094 1112 1139 1167 1210 1266
1330.0 1349 1443 1551 1631 1694 1761 1833 1893 1928 1936
1370.0 1851 1719 1524 1351 1245 1184 1158 1149 1174 1204
1410.0 1243 1228 1236 1216 1196 1150 1103 1047 932 862
1450.0 773 736 684 679 694 764 932 1300 2069 3644
1490.0 4796 5085 3694 1874 1028 678 613 467 487 417
1530.0 415 381 402 401 376 378 366 399 403 409
1570.0 433 447 502 537 628 693 736 692 628 558
1610.0 534 537 531 539 506 498 462 485 436 464
1650.0 444 481 469 451 496 493 523 545 587 626
1690.0 663 704 733 804 797 886 901 1151 1285 1456
1730.0 1600 1806 2091 2354 2890 3328 4053 4604 5572 6243
1770.0 7181 8267 9092 9683 9191 8705 7345 6353 5198 4186
1810.0 3233 2429 1869 1412 1133 896 744 625 541 488
1850.0 435 409 379 362 360 348 351 357 380 388
1890.0 416 416 409 392 368 337 308 300 277 268
1930.0 255 256 253 246 245 237 241 238 241 232
1970.0 232 230 223 222 216 223 212 216 205 207
2010.0 193 188 187 180 180 175 176 172 171 168
2050.0 162 158 157 153 143 151 145 143 141 147
2090.0 141 140 136 130 130 129 133 130 135 131
2130.0 135 125 121 118 112 115 111 113 111 115
2170.0 108 107 109 113 108 106 110 111 112 110
2210.0 112 117 120 124 124 120 118 121 119 115
2250.0 118 119 116 118 124 123 129 137 144 148
2290.0 159 167 173 178 175 186 173 166 161 158
2330.0 140 155 137 146 186 167 153 143 164 164
2370.0 175 175 188 180 160 137 127 132 127 133
2410.0 131 133 131 132 131 136 134 135 138 139
2450.0 142 145 144 146 146 149 147 148 146 152
2490.0 145 142 146 148 145 149 154 148 151 148
2530.0 152 151 154 151 150 152 148 149 152 155
2570.0 147 150 148 153 151 148 152 152 157 153
2610.0 156 150 145 143 140 135 138 143 139 136
2650.0 137 143 135 140 141 140 140 137 137 129
2690.0 135 134 129 137 139 134 141 151 146 152
2730.0 152 149 146 141 140 136 139 138 144 142
2770.0 145 154 155 151 151 156 156 163 158 167
2810.0 164 170 181 186 181 182 184 183 195 192
2850.0 198 195 201 199 200 194 197 194 195 202
2890.0 199 213 220 229 242 262 287 331 385 422
2930.0 453 476 491 506 500 478 446 421 394 377
2970.0 364 365 376 386 377 377 377 362 346 334
3010.0 332 338 355 389 451 544 628 675 644 582
3050.0 539 516 496 468 443 424 419 424 450 481
3090.0 492 487 469 421 364 303 255 230 216 211
3130.0 204 199 200 197 197 196 185 198 196 187
3170.0 188 189 183 187 183 182 183 180 175 183
3210.0 170 178 174 179 176 175 176 172 173 167
3250.0 166 171 167 165 166 166 168 170 161 168
3290.0 166 168 162 157 160 160 162 160 162 162
3330.0 157 157 160 153 164 155 147 148 149 155
3370.0 139 147 148 155 156 143 156 141 146 136
3410.0 142 140 147 142 145 146 148 145 134 142
3450.0 135 130 121 128 119 115 116 114 124 124
3490.0 124 119 133 140 142 142 152 145 169 212
3530.0 215 248 266 318 403 489 627 886 1296 2070
3570.0 3753 4967 4878 3372 1869 1167 778 514 380 284
3610.0 293 244 239 206 183 255 192 158 133 147
3650.0 214 162 148 138 112 155 171 185 137 117
3690.0 174 137 111 132 118 138 170 117 126 153
3730.0 123 172 173 150 172 192 162 124 109 109
3770.0 117 105 106 107 106 106 106 110 136 113
3810.0 106 106 155 165 121 113 144 168 170 126
3850.0 113 205 141 121 149 142 164 113 163 145
3890.0 145 143 153 188 185 125 124 153 147 141
3930.0 134 151 120 111 138 139 122 111 126 135
##END=
