##TITLE=Benzo[b]thiophene, 6-acetyl-3-methyl-,
##JCAMP-DX=4.24
##DATA TYPE=INFRARED SPECTRUM
##ORIGIN=Sadtler Research Labs Under US-EPA Contract
##OWNER=NIST Standard Reference Data Program
##CAS REGISTRY NO=18781-31-2
##MOLFORM=C 11 H 10 O S
##XUNITS=1/CM
##YUNITS=ABSORBANCE
##XFACTOR=1.0
##YFACTOR=0.000075336
##DELTAX=4.0
##FIRSTX=450.0
##LASTX=3966.0
##FIRSTY=0.000678
##MAXX=3966
##MINX=450
##MAXY=0.75336
##MINY=0
##NPOINTS=880
##XYDATA=(X++(Y..Y))
450.0 9 7 0 56 67 104 95 92 115 149
490.0 133 145 140 191 160 179 215 283 357 427
530.0 482 524 497 528 647 699 757 685 634 867
570.0 1011 1058 946 721 594 429 316 243 209 204
610.0 224 261 328 411 524 693 688 652 739 921
650.0 1041 905 674 314 240 217 212 171 164 157
690.0 147 167 145 149 146 175 219 349 442 455
730.0 374 243 196 182 168 166 201 289 524 749
770.0 1111 1378 1047 778 533 360 352 476 721 1028
810.0 1537 1771 1699 1743 1837 1685 1667 1824 1592 1344
850.0 866 433 295 279 322 384 413 327 303 277
890.0 293 334 368 379 338 292 228 201 180 177
930.0 201 269 388 585 775 863 846 753 698 684
970.0 625 538 427 401 390 384 363 327 279 253
1010.0 247 242 267 304 349 410 459 444 388 327
1050.0 286 267 269 285 324 397 496 589 665 699
1090.0 656 602 510 390 309 243 216 207 206 206
1130.0 222 235 254 261 263 268 278 304 324 368
1170.0 449 638 803 823 725 511 412 422 493 636
1210.0 841 1179 1559 2022 2661 3933 5680 7069 7732 6682
1250.0 5107 3563 2814 3463 4685 5556 5406 4306 2964 1748
1290.0 1140 878 757 694 703 810 970 1088 1052 866
1330.0 664 675 786 956 1215 1575 2219 2825 2994 2617
1370.0 1803 1162 974 1000 1103 1310 1530 1631 1558 1273
1410.0 860 607 437 477 487 555 569 641 742 816
1450.0 881 842 772 715 619 519 368 284 267 213
1490.0 151 202 203 263 333 467 620 688 624 552
1530.0 487 534 666 690 702 646 538 421 397 354
1570.0 313 312 391 485 722 1018 1274 1290 1071 699
1610.0 424 322 284 287 254 262 223 223 229 285
1650.0 282 427 544 641 674 664 636 792 976 1523
1690.0 2842 5194 8427 10000 9696 6575 3456 1511 801 492
1730.0 429 383 535 570 581 487 401 283 187 165
1770.0 117 131 151 171 162 149 122 101 77 89
1810.0 81 58 71 49 43 21 39 45 29 25
1850.0 42 68 53 56 41 34 71 87 101 100
1890.0 98 87 80 69 72 71 80 94 86 103
1930.0 90 77 57 35 26 33 27 24 26 14
1970.0 21 25 32 25 28 16 20 31 32 36
2010.0 38 39 33 38 36 32 30 27 25 24
2050.0 29 25 31 29 24 27 29 30 26 21
2090.0 12 20 18 21 18 22 18 14 12 8
2130.0 9 6 7 5 4 4 7 8 9 13
2170.0 12 20 21 22 18 19 19 16 11 15
2210.0 13 9 13 15 14 12 10 5 3 4
2250.0 1 2 2 7 9 11 13 22 25 33
2290.0 41 49 66 67 71 83 71 66 60 61
2330.0 54 51 33 32 54 72 69 63 46 31
2370.0 46 38 45 49 38 26 18 16 17 21
2410.0 21 26 25 25 25 27 23 24 21 19
2450.0 19 17 23 19 20 22 23 25 27 27
2490.0 28 25 28 29 28 31 29 33 35 29
2530.0 29 32 33 33 36 33 34 35 31 34
2570.0 32 35 34 37 34 33 29 27 27 32
2610.0 36 37 43 56 73 83 97 102 93 84
2650.0 64 49 40 36 32 32 33 37 32 30
2690.0 32 29 28 27 28 29 33 36 32 37
2730.0 45 45 51 63 71 79 71 68 53 46
2770.0 40 41 43 44 47 49 49 49 55 57
2810.0 64 67 77 86 95 104 109 125 138 158
2850.0 181 211 254 307 385 465 515 517 482 419
2890.0 375 339 317 308 316 341 399 509 684 931
2930.0 1123 1180 1088 914 765 712 715 657 584 548
2970.0 537 587 717 861 871 765 548 398 376 403
3010.0 481 530 524 464 387 343 327 322 325 330
3050.0 347 396 435 454 469 479 530 597 629 602
3090.0 520 399 298 235 207 179 163 152 139 123
3130.0 100 82 76 67 66 63 57 52 58 46
3170.0 46 40 41 43 45 43 42 39 42 35
3210.0 40 41 39 43 40 33 32 31 29 29
3250.0 22 29 34 26 32 28 28 26 26 23
3290.0 29 22 28 35 31 36 38 34 32 32
3330.0 34 29 33 37 44 44 39 42 52 59
3370.0 71 91 131 159 164 162 132 94 67 39
3410.0 38 21 27 23 26 28 35 27 31 23
3450.0 29 25 23 19 21 24 23 18 24 21
3490.0 16 18 12 12 20 13 22 26 23 13
3530.0 15 26 30 15 12 17 13 8 14 10
3570.0 1 20 16 12 21 15 13 13 17 20
3610.0 21 27 24 23 23 23 31 13 25 28
3650.0 43 34 24 22 9 33 35 47 25 24
3690.0 39 27 26 22 17 23 19 15 30 15
3730.0 24 17 26 8 60 24 45 18 16 15
3770.0 11 26 20 22 10 14 18 15 23 41
3810.0 16 35 14 30 23 14 31 38 23 17
3850.0 15 45 35 17 12 35 11 22 28 12
3890.0 28 57 25 38 40 19 25 31 24 34
3930.0 33 15 24 14 39 27 27 35 18 26
##END=
