##TITLE=Benzo[b]thiophene-6-carboxylic acid, 2-methyl-, methyl ester
##JCAMP-DX=4.24
##DATA TYPE=INFRARED SPECTRUM
##ORIGIN=Sadtler Research Labs Under US-EPA Contract
##OWNER=NIST Standard Reference Data Program
##CAS REGISTRY NO=18781-42-5
##MOLFORM=C 11 H 10 O 2 S
##XUNITS=1/CM
##YUNITS=ABSORBANCE
##XFACTOR=1.0
##YFACTOR=0.000121469
##DELTAX=4.0
##FIRSTX=450.0
##LASTX=3966.0
##FIRSTY=0.000000
##MAXX=3966
##MINX=450
##MAXY=1.21469
##MINY=0
##NPOINTS=880
##XYDATA=(X++(Y..Y))
450.0 0 64 62 81 83 57 93 85 115 138
490.0 149 181 215 264 231 188 167 157 164 143
530.0 155 160 133 126 121 96 107 132 143 140
570.0 136 128 123 120 103 105 103 89 84 90
610.0 91 91 97 78 81 89 92 76 74 80
650.0 76 90 92 125 140 224 238 215 170 124
690.0 117 111 110 128 139 199 278 378 451 373
730.0 359 470 595 676 550 493 516 677 771 642
770.0 467 325 211 164 127 131 144 183 258 355
810.0 424 409 369 324 300 395 546 766 1001 973
850.0 711 477 269 166 128 132 164 232 310 356
890.0 368 344 310 273 237 194 154 135 113 112
930.0 114 126 127 123 118 123 132 149 200 268
970.0 350 429 483 540 554 514 399 271 185 153
1010.0 139 133 138 140 142 141 150 155 178 215
1050.0 297 385 402 353 282 286 323 382 471 607
1090.0 825 1178 1748 2333 2651 2467 2017 1692 1701 1950
1130.0 2174 2069 1698 1313 1016 790 590 490 447 441
1170.0 439 466 524 630 808 1022 1316 1490 1410 1203
1210.0 946 951 1205 1655 2216 2888 3864 5041 5525 4674
1250.0 3290 2201 2275 3073 4099 5781 7976 9926 10000 8094
1290.0 5487 3224 2135 1757 1388 964 672 572 552 567
1330.0 585 571 518 446 399 387 386 382 377 365
1370.0 375 402 442 478 557 675 807 869 804 681
1410.0 535 439 369 357 412 739 1307 1727 1596 978
1450.0 597 529 496 520 513 497 444 364 287 249
1490.0 232 206 212 210 240 272 313 380 459 540
1530.0 614 611 537 419 309 267 253 286 302 318
1570.0 303 271 242 233 270 362 541 725 791 681
1610.0 470 317 256 222 203 177 152 149 140 149
1650.0 155 166 165 163 181 185 212 214 247 266
1690.0 320 381 452 483 471 478 493 631 820 1305
1730.0 2156 4003 6818 8154 7873 4789 2286 1262 712 522
1770.0 421 390 373 393 417 401 377 319 282 225
1810.0 200 155 129 108 94 88 81 93 94 105
1850.0 103 109 103 97 94 84 81 71 74 66
1890.0 78 82 96 106 120 126 119 122 114 112
1930.0 101 104 102 107 106 103 99 94 95 90
1970.0 92 89 89 83 78 81 79 81 78 80
2010.0 75 80 78 79 79 81 83 84 89 87
2050.0 90 85 86 88 92 99 103 107 108 112
2090.0 106 105 101 102 99 99 97 92 91 83
2130.0 82 74 71 66 65 68 67 72 72 75
2170.0 71 72 67 66 65 62 61 59 60 60
2210.0 62 59 61 59 59 59 57 60 60 62
2250.0 62 65 63 66 67 68 67 68 72 68
2290.0 71 70 76 74 74 77 75 75 74 83
2330.0 75 79 77 76 84 84 80 77 81 72
2370.0 79 74 79 77 70 68 65 67 67 68
2410.0 68 71 70 71 67 67 68 66 67 66
2450.0 70 63 68 66 68 70 73 77 77 82
2490.0 77 78 77 76 76 76 75 75 76 76
2530.0 75 74 75 74 76 77 78 81 77 80
2570.0 79 78 75 77 79 78 77 79 81 82
2610.0 82 79 85 90 97 99 103 102 94 92
2650.0 86 86 83 84 80 76 72 68 70 65
2690.0 68 67 67 65 66 65 68 73 70 75
2730.0 75 81 80 88 92 95 92 84 80 74
2770.0 73 73 75 73 76 75 75 83 83 86
2810.0 90 95 99 107 118 130 150 174 224 296
2850.0 355 346 308 272 284 320 352 363 352 340
2890.0 333 341 339 339 329 343 371 406 454 540
2930.0 732 894 894 710 556 595 865 1281 1510 1338
2970.0 874 541 443 414 424 430 427 420 410 386
3010.0 359 344 339 354 372 384 382 369 355 345
3050.0 348 367 396 414 411 382 354 328 312 289
3090.0 258 226 194 165 146 130 121 122 118 115
3130.0 110 104 100 98 94 87 84 81 85 77
3170.0 76 77 80 79 81 80 76 76 76 78
3210.0 73 71 72 73 70 63 64 61 60 66
3250.0 63 65 70 64 63 65 65 64 67 67
3290.0 68 65 68 68 65 62 68 71 64 73
3330.0 76 74 80 82 82 77 73 74 72 65
3370.0 65 65 71 68 67 67 65 68 70 68
3410.0 65 70 72 64 65 63 70 70 73 74
3450.0 81 88 96 111 114 105 92 78 67 60
3490.0 62 63 60 58 63 65 63 67 66 65
3530.0 64 68 66 64 63 63 61 63 62 62
3570.0 61 63 70 71 78 79 74 66 65 71
3610.0 63 74 61 63 57 67 71 68 63 72
3650.0 71 63 68 68 63 65 72 62 71 67
3690.0 75 72 71 70 66 64 70 71 78 72
3730.0 70 65 74 67 72 70 70 66 58 65
3770.0 57 70 66 63 59 61 58 58 60 60
3810.0 61 64 61 57 73 59 66 73 60 58
3850.0 58 60 57 67 57 71 57 67 61 57
3890.0 74 68 60 71 72 62 60 63 61 76
3930.0 68 70 64 61 76 73 71 79 73 66
##END=
