##TITLE=Benzene, 1,4-dimethoxy-2-(2-nitro-1-propenyl)-
##JCAMP-DX=4.24
##DATA TYPE=INFRARED SPECTRUM
##ORIGIN=Sadtler Research Labs Under US-EPA Contract
##OWNER=NIST Standard Reference Data Program
##CAS REGISTRY NO=18790-57-3
##MOLFORM=C 11 H 13 N O 4
##XUNITS=1/CM
##YUNITS=ABSORBANCE
##XFACTOR=1.0
##YFACTOR=0.000050186
##DELTAX=4.0
##FIRSTX=450.0
##LASTX=3966.0
##FIRSTY=0.012747
##MAXX=3966
##MINX=450
##MAXY=0.50186
##MINY=0
##NPOINTS=880
##XYDATA=(X++(Y..Y))
450.0 254 154 6 99 92 106 52 110 102 105
490.0 77 125 145 174 207 151 224 229 269 281
530.0 289 214 176 99 117 173 136 196 187 186
570.0 158 150 122 133 135 169 143 185 242 330
610.0 427 483 385 243 123 71 71 45 7 15
650.0 3 26 12 37 50 76 102 142 229 294
690.0 405 491 622 752 890 903 920 862 778 668
730.0 569 542 536 593 587 522 394 306 260 221
770.0 175 176 184 241 299 358 440 522 632 771
810.0 914 954 866 718 533 401 326 311 432 728
850.0 1256 1695 1635 1180 774 621 624 643 650 604
890.0 510 452 442 454 472 507 522 513 534 637
930.0 777 881 838 680 488 353 291 266 281 313
970.0 357 438 584 849 1254 1641 1738 1492 1150 976
1010.0 990 1132 1329 1566 1803 2073 2475 3023 3741 4367
1050.0 4575 4110 3168 2092 1259 775 533 412 354 322
1090.0 303 318 349 406 456 509 559 600 648 654
1130.0 657 625 595 576 620 754 999 1341 1657 1806
1170.0 1788 1763 1790 1797 1696 1560 1502 1597 1891 2472
1210.0 3481 4996 6910 8655 9376 8595 6742 4776 3421 2723
1250.0 2468 2452 2574 2763 2997 3294 3617 3866 3901 3678
1290.0 3319 3039 2830 2610 2374 2187 2107 2214 2653 3544
1330.0 4725 5664 5911 5399 4494 3423 2395 1658 1201 946
1370.0 808 763 806 978 1245 1466 1516 1406 1403 1636
1410.0 2030 2391 2584 2521 2320 2077 1909 1890 1979 2043
1450.0 1988 1937 2036 2393 2886 3196 3299 3386 3949 5400
1490.0 7504 9559 10000 8703 6373 4401 3417 3025 3005 3328
1530.0 4100 5408 6853 7626 6983 5439 3887 2980 2444 2203
1570.0 2063 2017 1935 1819 1571 1261 1010 888 887 887
1610.0 879 763 627 476 387 310 280 259 248 243
1650.0 233 247 266 328 390 399 336 214 163 141
1690.0 128 130 170 166 172 162 150 140 111 103
1730.0 111 115 94 93 91 98 90 95 97 95
1770.0 96 87 89 88 86 82 88 87 81 80
1810.0 78 76 64 64 62 68 61 72 80 86
1850.0 89 87 83 72 75 67 61 52 43 35
1890.0 32 26 26 23 21 32 26 28 31 26
1930.0 27 36 40 38 42 44 58 68 75 85
1970.0 91 89 85 86 89 92 96 100 102 114
2010.0 115 123 121 119 118 116 120 112 110 110
2050.0 116 114 115 118 120 118 116 108 99 89
2090.0 76 58 42 37 32 27 21 17 18 16
2130.0 15 10 15 15 20 24 25 29 24 28
2170.0 30 28 24 26 28 26 33 37 33 36
2210.0 42 32 38 37 34 36 28 25 37 36
2250.0 34 25 29 25 24 30 37 44 43 49
2290.0 41 43 46 42 47 44 33 26 28 38
2330.0 27 11 20 21 20 43 34 41 13 0
2370.0 1 22 29 34 30 22 17 16 16 14
2410.0 11 12 11 18 11 16 18 22 23 21
2450.0 26 28 31 35 34 37 43 39 48 51
2490.0 55 55 57 60 53 51 54 57 53 54
2530.0 50 45 40 37 33 29 24 22 23 24
2570.0 25 28 29 24 25 28 32 37 35 43
2610.0 37 40 39 36 41 40 43 38 41 47
2650.0 45 46 47 45 40 39 36 37 34 32
2690.0 29 31 33 35 36 38 42 42 58 45
2730.0 50 62 57 62 62 67 68 84 84 94
2770.0 99 108 109 116 134 133 151 168 191 222
2810.0 256 288 341 407 503 658 916 1300 1623 1711
2850.0 1535 1243 1042 926 864 802 750 704 677 670
2890.0 667 695 750 835 960 1113 1267 1372 1386 1349
2930.0 1356 1473 1748 2127 2473 2616 2505 2266 1948 1609
2970.0 1322 1110 983 906 853 856 936 1124 1498 1964
3010.0 2161 1891 1314 816 579 481 441 427 437 433
3050.0 414 397 397 405 400 396 399 399 373 351
3090.0 317 272 240 213 194 189 177 169 158 141
3130.0 124 103 96 87 82 79 69 72 57 62
3170.0 58 49 52 57 47 49 48 37 34 36
3210.0 37 41 27 36 27 28 29 24 29 30
3250.0 30 24 18 33 27 31 26 22 22 18
3290.0 21 25 35 27 32 16 23 22 12 24
3330.0 15 27 35 36 22 27 29 23 28 24
3370.0 23 32 31 21 26 39 50 36 20 20
3410.0 27 36 39 21 32 33 35 37 27 23
3450.0 21 28 28 33 26 33 34 25 34 27
3490.0 31 36 33 37 28 22 25 34 22 19
3530.0 27 30 28 22 13 35 17 36 32 30
3570.0 39 38 33 22 40 52 30 26 10 22
3610.0 36 26 28 22 23 24 25 35 19 35
3650.0 24 30 22 28 34 39 26 24 20 19
3690.0 34 16 29 25 19 38 41 44 41 23
3730.0 25 31 35 27 34 24 28 23 20 34
3770.0 24 53 50 32 42 36 33 20 1 31
3810.0 30 47 42 25 40 26 36 51 32 27
3850.0 29 34 35 31 47 44 15 43 41 59
3890.0 43 36 42 16 43 45 21 31 38 43
3930.0 13 58 45 21 54 52 59 70 61 52
##END=
