##TITLE=6-tert-Butyl-2,4-dimethylphenol
##JCAMP-DX=4.24
##DATA TYPE=INFRARED SPECTRUM
##ORIGIN=Sadtler Research Labs Under US-EPA Contract
##OWNER=NIST Standard Reference Data Program
##CAS REGISTRY NO=1879-09-0
##MOLFORM=C 12 H 18 O
##XUNITS=1/CM
##YUNITS=ABSORBANCE
##XFACTOR=1.0
##YFACTOR=0.000083530
##DELTAX=4.0
##FIRSTX=450.0
##LASTX=3966.0
##FIRSTY=0.022971
##MAXX=3966
##MINX=450
##MAXY=0.8353
##MINY=0
##NPOINTS=880
##XYDATA=(X++(Y..Y))
450.0 275 321 306 279 226 166 86 49 26 20
490.0 34 42 77 114 156 196 181 200 116 79
530.0 74 81 85 98 129 156 124 227 99 16
570.0 29 53 75 128 181 231 388 376 338 247
610.0 126 75 35 21 40 38 24 25 21 25
650.0 27 24 26 15 9 59 39 24 22 26
690.0 27 33 21 0 1 3 11 17 59 53
730.0 99 183 314 489 690 938 1041 1131 1121 977
770.0 718 411 295 337 457 536 527 400 211 111
810.0 82 49 65 109 69 93 155 304 592 1035
850.0 1462 2050 1565 1065 640 297 180 176 229 321
890.0 467 617 692 669 551 404 304 255 272 301
930.0 309 280 274 225 195 214 258 290 304 300
970.0 268 231 234 247 267 304 347 402 459 516
1010.0 537 537 537 506 458 415 355 303 296 296
1050.0 279 266 254 229 208 197 195 202 210 220
1090.0 233 249 273 304 346 416 504 640 847 1116
1130.0 1414 1669 1802 1783 1645 1509 1475 1671 2277 3471
1170.0 5155 6668 7160 6577 5186 3835 3091 2755 2653 2750
1210.0 3071 3503 3889 4206 4293 4095 3709 3189 2646 2216
1250.0 1951 1793 1766 1855 1909 1819 1546 1188 986 1008
1290.0 1153 1310 1423 1480 1533 1634 1726 1681 1450 1106
1330.0 769 546 480 447 470 534 723 1060 1518 1982
1370.0 1996 1812 1494 1261 1249 1379 1534 1589 1521 1305
1410.0 1118 1123 1326 1682 2273 3033 3864 4357 4392 4060
1450.0 3523 3147 2921 2877 2976 3243 3683 4130 4421 4270
1490.0 3589 2583 1693 1176 928 716 641 585 540 482
1530.0 447 406 411 356 327 327 336 347 273 301
1570.0 287 277 264 272 273 301 328 374 384 408
1610.0 392 333 287 238 220 223 254 261 280 276
1650.0 263 216 193 200 184 163 170 158 164 119
1690.0 120 136 156 160 169 195 233 236 273 329
1730.0 406 417 366 317 234 188 163 170 187 184
1770.0 186 164 139 123 105 97 102 97 97 76
1810.0 73 65 55 41 49 37 36 30 34 37
1850.0 32 31 24 25 33 43 37 37 34 52
1890.0 57 55 55 59 56 50 57 57 53 55
1930.0 56 49 53 52 47 45 34 40 38 39
1970.0 38 38 39 44 34 43 44 32 29 39
2010.0 32 22 28 28 28 21 21 23 22 27
2050.0 15 19 17 21 18 16 11 11 12 5
2090.0 5 4 8 10 9 12 9 12 18 17
2130.0 24 23 23 27 27 27 25 32 24 24
2170.0 12 17 10 15 8 8 19 14 5 8
2210.0 2 5 4 15 10 7 6 13 6 13
2250.0 13 6 13 10 17 13 17 19 21 27
2290.0 28 29 37 31 30 36 29 39 25 33
2330.0 39 50 67 74 72 71 55 52 99 116
2370.0 128 107 96 81 68 54 57 57 52 58
2410.0 52 53 58 60 64 61 65 64 60 61
2450.0 60 60 53 54 59 59 67 59 54 55
2490.0 52 55 44 44 44 37 37 26 25 28
2530.0 24 21 24 23 31 30 38 44 45 50
2570.0 50 49 40 46 39 43 42 45 46 46
2610.0 51 51 57 52 51 51 65 65 56 57
2650.0 66 62 59 65 70 70 70 64 71 83
2690.0 81 85 95 107 107 119 145 157 172 189
2730.0 208 239 282 318 337 326 273 218 191 173
2770.0 168 167 179 190 209 209 220 228 247 269
2810.0 293 325 360 387 424 460 501 567 653 790
2850.0 986 1281 1688 2256 2953 3693 4340 4744 4777 4541
2890.0 4213 3951 3842 3920 4198 4694 5333 6029 6611 7050
2930.0 7130 6870 6472 6072 5964 6347 7183 8223 9250 9875
2970.0 10000 9466 7951 6077 4497 3441 2862 2669 2752 2904
3010.0 2956 2876 2572 2184 1834 1550 1344 1222 1140 1105
3050.0 1055 1025 994 964 906 844 752 650 570 497
3090.0 453 410 368 316 291 254 224 195 176 158
3130.0 151 140 138 131 144 139 131 126 131 119
3170.0 109 124 113 117 118 112 109 99 101 102
3210.0 115 109 98 91 78 80 85 82 60 71
3250.0 82 85 83 81 86 74 74 74 62 77
3290.0 84 60 74 88 68 71 88 77 74 64
3330.0 57 59 57 59 64 59 64 54 59 70
3370.0 65 69 81 75 81 72 88 66 75 66
3410.0 63 84 80 68 63 77 64 51 64 62
3450.0 67 56 40 33 40 58 44 50 43 38
3490.0 39 46 35 18 39 31 31 39 19 25
3530.0 46 27 31 28 23 29 35 17 24 1
3570.0 32 49 39 60 34 55 76 56 97 103
3610.0 141 157 218 330 486 709 1062 1591 2172 2712
3650.0 2879 2795 2405 1928 1726 1722 1764 1734 1519 1231
3690.0 918 698 525 377 291 210 165 126 79 76
3730.0 55 37 54 54 52 24 74 57 50 51
3770.0 30 51 52 45 44 52 43 58 42 57
3810.0 56 58 35 37 30 38 31 32 42 59
3850.0 25 21 75 53 31 35 58 61 37 59
3890.0 58 68 57 58 57 71 83 67 53 54
3930.0 56 40 48 57 48 46 53 47 58 54
##END=
