##TITLE=Malonic acid, dimethylamino-methyl-, diethyl ester
##JCAMP-DX=4.24
##DATA TYPE=INFRARED SPECTRUM
##ORIGIN=Sadtler Research Labs Under US-EPA Contract
##OWNER=NIST Standard Reference Data Program
##CAS REGISTRY NO=18856-68-3
##MOLFORM=C 10 H 17 N O 4
##XUNITS=1/CM
##YUNITS=ABSORBANCE
##XFACTOR=1.0
##YFACTOR=0.000057529
##DELTAX=4.0
##FIRSTX=450.0
##LASTX=3966.0
##FIRSTY=0.006501
##MAXX=3966
##MINX=450
##MAXY=0.57529
##MINY=0
##NPOINTS=880
##XYDATA=(X++(Y..Y))
450.0 113 142 32 90 7 80 38 47 39 36
490.0 45 39 77 30 52 42 78 75 40 30
530.0 43 60 68 67 38 72 32 73 53 59
570.0 18 22 27 53 56 61 59 26 57 43
610.0 51 39 64 49 50 52 68 62 69 106
650.0 108 118 77 100 98 115 126 103 106 110
690.0 109 120 146 160 196 218 272 334 332 305
730.0 270 241 207 194 186 218 283 412 529 518
770.0 464 405 373 369 401 423 437 453 422 406
810.0 392 368 331 305 287 302 323 352 361 440
850.0 541 642 621 507 418 343 315 296 272 274
890.0 266 278 303 320 304 289 269 280 279 301
930.0 331 352 392 431 513 575 646 636 596 524
970.0 492 488 494 512 526 566 602 647 709 772
1010.0 831 904 1008 1157 1328 1474 1593 1694 1813 2003
1050.0 2344 2909 3723 4660 5546 6209 6408 6091 5524 5061
1090.0 5073 5661 6685 7748 8151 7518 6110 4596 3388 2575
1130.0 2110 1857 1733 1682 1687 1704 1741 1786 1855 1986
1170.0 2121 2284 2518 2886 3405 4098 4926 5769 6429 6816
1210.0 7034 7307 7795 8524 9291 9531 8813 7212 5411 4003
1250.0 3107 2603 2371 2352 2552 3031 3816 4852 5809 6278
1290.0 6058 5364 4417 3428 2533 1870 1436 1189 1037 953
1330.0 890 839 787 747 743 798 957 1232 1785 2198
1370.0 2138 1983 2020 2338 2668 2913 3009 2791 2413 2056
1410.0 1813 1648 1594 1679 1747 1907 2209 2507 2516 2238
1450.0 1804 1449 1276 1222 1223 1190 1139 1061 956 828
1490.0 712 581 496 434 398 401 368 381 372 382
1530.0 376 394 401 421 445 440 493 521 578 630
1570.0 720 827 1001 1197 1494 1917 2488 3244 4099 5130
1610.0 6311 7779 9294 10000 9472 7428 5532 3928 2945 2381
1650.0 2097 1928 1860 1901 1991 2183 2436 2793 3126 3491
1690.0 3769 4087 4392 4934 5566 6364 7255 7699 7681 7143
1730.0 5862 4421 3264 2603 2231 2002 1854 1695 1556 1359
1770.0 1190 988 824 652 495 378 299 243 193 156
1810.0 127 114 80 77 62 56 42 32 24 17
1850.0 21 6 11 9 20 23 19 21 22 25
1890.0 28 40 33 41 42 52 46 52 53 50
1930.0 52 53 57 55 61 54 52 46 43 42
1970.0 32 29 19 19 9 17 9 6 6 8
2010.0 6 7 17 6 14 7 12 14 20 24
2050.0 21 25 31 35 32 33 31 35 37 34
2090.0 32 35 29 28 27 20 24 21 21 17
2130.0 18 15 11 10 8 2 4 5 1 4
2170.0 0 6 4 2 6 6 4 7 12 7
2210.0 14 13 10 18 13 16 15 20 23 24
2250.0 22 30 25 29 30 25 27 26 27 19
2290.0 17 22 21 24 23 23 17 22 17 19
2330.0 11 29 39 2 76 0 56 23 29 27
2370.0 43 25 35 33 28 24 28 28 26 32
2410.0 29 32 32 35 33 31 29 33 30 29
2450.0 34 33 37 36 44 41 44 44 51 52
2490.0 48 49 43 52 45 45 46 43 40 35
2530.0 33 27 31 31 33 31 38 34 40 37
2570.0 35 44 46 46 43 46 44 44 45 46
2610.0 46 43 46 46 44 44 46 46 49 48
2650.0 50 51 54 50 52 57 57 66 65 72
2690.0 70 74 81 74 80 81 93 96 104 103
2730.0 108 113 111 116 115 121 128 136 143 152
2770.0 161 175 183 193 218 233 274 308 360 436
2810.0 510 571 595 577 550 528 507 496 483 489
2850.0 498 515 553 614 674 744 800 845 910 968
2890.0 1026 1081 1167 1273 1380 1485 1581 1683 1756 1813
2930.0 1876 1972 2108 2219 2221 2120 1974 1862 1792 1740
2970.0 1731 1825 2085 2391 2519 2365 2022 1674 1393 1141
3010.0 930 763 626 542 461 397 350 297 269 240
3050.0 217 202 189 179 173 160 149 140 136 129
3090.0 123 126 111 113 107 99 96 103 96 97
3130.0 90 87 80 78 76 70 69 61 58 54
3170.0 54 54 50 53 53 34 35 34 32 31
3210.0 34 30 27 22 21 14 25 15 12 10
3250.0 17 15 10 18 21 26 16 26 26 33
3290.0 28 31 36 45 48 34 33 33 47 40
3330.0 35 39 39 36 46 53 44 46 41 46
3370.0 43 45 53 46 56 40 47 52 52 46
3410.0 70 61 56 56 48 58 64 53 52 49
3450.0 36 33 44 54 54 52 42 52 57 54
3490.0 44 40 54 59 72 61 45 49 53 70
3530.0 56 52 52 52 45 56 48 48 56 58
3570.0 78 57 62 63 64 85 66 67 72 62
3610.0 59 75 75 74 38 69 50 64 54 59
3650.0 74 62 80 66 68 74 72 79 54 71
3690.0 65 65 49 69 72 79 65 71 85 91
3730.0 80 82 85 80 54 70 87 66 88 73
3770.0 81 63 65 81 75 62 55 74 71 72
3810.0 55 65 70 84 78 89 78 90 99 86
3850.0 87 48 70 71 75 100 101 69 89 93
3890.0 96 92 63 81 73 92 69 72 86 64
3930.0 93 97 91 53 92 108 76 88 95 78
##END=
