##TITLE=Benzonitrile, 3,4,5-trimethoxy-
##JCAMP-DX=4.24
##DATA TYPE=INFRARED SPECTRUM
##ORIGIN=Sadtler Research Labs Under US-EPA Contract
##OWNER=NIST Standard Reference Data Program
##CAS REGISTRY NO=1885-35-4
##MOLFORM=C 10 H 11 N O 3
##XUNITS=1/CM
##YUNITS=ABSORBANCE
##XFACTOR=1.0
##YFACTOR=0.000109512
##DELTAX=4.0
##FIRSTX=450.0
##LASTX=3966.0
##FIRSTY=0.007775
##MAXX=3966
##MINX=450
##MAXY=1.09512
##MINY=0
##NPOINTS=880
##XYDATA=(X++(Y..Y))
450.0 71 76 89 44 67 75 76 95 82 92
490.0 132 154 187 182 167 169 145 135 172 213
530.0 241 223 164 141 112 108 84 77 50 32
570.0 22 19 8 22 14 23 16 24 37 34
610.0 63 126 284 449 710 828 575 381 196 93
650.0 73 59 57 60 82 79 62 59 57 41
690.0 43 34 33 41 41 46 38 53 86 119
730.0 178 283 349 379 329 250 161 143 171 247
770.0 385 580 747 780 653 436 236 125 74 52
810.0 47 63 113 193 372 647 1008 1353 1336 1132
850.0 925 781 748 740 760 707 575 413 291 204
890.0 159 144 151 176 209 264 325 405 487 566
930.0 636 681 725 787 873 939 936 834 689 550
970.0 487 484 522 600 735 958 1308 1863 2659 3612
1010.0 4352 4429 3689 2643 1908 1694 1835 2015 2016 1771
1050.0 1431 1171 1060 1069 1159 1325 1577 1924 2344 2859
1090.0 3450 4125 4891 5794 6818 7847 8709 9342 9662 9833
1130.0 9964 10000 9638 8566 6902 4951 3304 2250 1685 1417
1170.0 1331 1384 1522 1687 1775 1750 1635 1512 1489 1642
1210.0 2021 2700 3732 5085 6544 7744 8408 8388 7850 6995
1250.0 5947 4826 3719 2782 2101 1682 1443 1309 1226 1149
1290.0 1076 1010 987 1010 1104 1292 1608 2128 2940 4195
1330.0 5806 7319 7841 6984 5073 3112 1864 1259 964 800
1370.0 720 685 686 726 857 1115 1626 2553 3982 5657
1410.0 6916 7027 6219 4892 4026 3840 3801 3526 2945 2408
1450.0 2474 2952 3526 4004 4258 4381 4434 4545 4890 5802
1490.0 6926 8021 8416 7848 6360 4472 2931 1924 1425 1150
1530.0 1035 990 1025 1110 1262 1504 1956 2638 3662 4964
1570.0 6402 7505 7751 7039 5468 3799 2534 1773 1331 1033
1610.0 844 719 637 568 517 472 440 420 397 391
1650.0 391 391 377 362 346 321 298 255 238 215
1690.0 184 165 166 150 135 123 122 128 117 120
1730.0 128 143 128 119 106 95 78 68 62 58
1770.0 66 68 67 68 71 72 71 65 59 49
1810.0 41 38 32 28 24 21 17 14 20 21
1850.0 20 18 22 21 27 29 23 19 17 13
1890.0 10 8 5 5 4 6 7 12 17 20
1930.0 25 31 41 56 76 103 137 171 202 222
1970.0 225 216 196 176 158 157 156 161 169 180
2010.0 194 200 198 180 157 132 112 98 88 84
2050.0 86 91 97 105 110 111 105 98 83 72
2090.0 63 53 50 44 42 40 39 38 39 36
2130.0 38 41 43 49 54 62 66 70 75 80
2170.0 83 89 93 94 88 77 68 63 65 73
2210.0 95 144 261 519 930 1323 1450 1239 748 342
2250.0 197 162 151 150 143 129 111 92 75 58
2290.0 46 37 31 27 19 19 15 16 21 21
2330.0 22 17 15 31 31 34 37 34 22 36
2370.0 43 44 45 38 26 14 6 3 4 7
2410.0 10 16 21 23 27 27 25 26 25 23
2450.0 29 32 40 44 50 55 62 68 69 66
2490.0 67 67 63 63 60 61 61 62 65 70
2530.0 74 80 86 92 97 101 105 112 118 123
2570.0 122 117 112 103 99 94 95 98 98 98
2610.0 91 86 76 71 68 65 66 70 73 79
2650.0 76 76 73 67 64 65 65 64 59 62
2690.0 62 67 70 75 80 89 93 98 106 108
2730.0 112 114 114 115 113 114 107 105 96 94
2770.0 96 96 105 113 123 134 147 166 188 217
2810.0 256 309 381 484 645 907 1297 1767 2162 2288
2850.0 2143 1840 1545 1371 1333 1362 1394 1388 1352 1324
2890.0 1316 1331 1347 1363 1390 1456 1562 1700 1841 1962
2930.0 2128 2432 3000 3870 4725 5110 4884 4211 3511 3141
2970.0 2883 2581 2304 2074 1908 1844 1881 2036 2314 2670
3010.0 2966 2928 2555 1976 1393 1020 819 693 611 550
3050.0 505 466 438 412 392 377 364 355 351 349
3090.0 342 333 309 281 245 208 181 161 144 127
3130.0 116 106 99 91 84 78 76 75 74 78
3170.0 80 82 83 79 70 64 54 47 40 34
3210.0 30 27 24 22 16 13 11 15 13 8
3250.0 8 9 9 8 9 6 8 8 6 5
3290.0 4 2 1 0 4 2 2 3 3 2
3330.0 1 2 0 8 9 9 9 13 16 18
3370.0 20 20 20 13 15 7 6 8 9 9
3410.0 5 8 10 9 6 9 12 10 6 9
3450.0 8 12 12 9 13 13 12 12 12 11
3490.0 11 17 14 12 10 9 15 16 19 16
3530.0 14 18 13 18 19 21 25 33 43 52
3570.0 53 46 41 27 15 9 13 15 9 11
3610.0 17 18 16 14 15 16 17 16 10 10
3650.0 11 13 11 6 10 8 5 6 15 14
3690.0 15 11 11 10 10 10 8 13 1 6
3730.0 12 11 8 9 12 15 12 10 9 2
3770.0 9 9 9 18 12 10 13 13 12 20
3810.0 17 28 30 25 22 25 24 22 21 22
3850.0 21 24 18 16 15 16 15 19 15 20
3890.0 18 17 10 17 20 19 11 14 19 11
3930.0 10 13 20 18 17 20 19 24 18 32
##END=
