##TITLE=Benzonitrile, 2-amino-
##JCAMP-DX=4.24
##DATA TYPE=INFRARED SPECTRUM
##ORIGIN=Sadtler Research Labs Under US-EPA Contract
##OWNER=NIST Standard Reference Data Program
##CAS REGISTRY NO=1885-29-6
##MOLFORM=C 7 H 6 N 2
##XUNITS=1/CM
##YUNITS=ABSORBANCE
##XFACTOR=1.0
##YFACTOR=0.000083807
##DELTAX=4.0
##FIRSTX=450.0
##LASTX=3966.0
##FIRSTY=0.030254
##MAXX=3966
##MINX=450
##MAXY=0.83807
##MINY=0
##NPOINTS=880
##XYDATA=(X++(Y..Y))
450.0 361 592 820 778 902 1004 1180 1301 1325 1809
490.0 2158 1090 1067 985 760 624 388 306 204 128
530.0 83 65 61 149 164 211 274 263 207 173
570.0 134 149 201 260 348 337 363 368 320 270
610.0 233 208 173 160 165 168 171 200 215 227
650.0 253 300 326 386 402 557 650 688 799 866
690.0 953 1028 1084 1130 1166 1248 1337 1478 1751 2315
730.0 3087 3947 4628 5515 8232 7951 5395 5060 4124 3111
770.0 2184 1521 1157 902 787 654 614 559 556 535
810.0 554 542 535 526 517 490 464 454 395 368
850.0 344 303 255 213 211 185 173 142 137 92
890.0 63 46 41 39 31 41 59 85 112 158
930.0 199 255 388 382 312 304 287 242 179 135
970.0 119 83 64 45 31 17 6 2 0 14
1010.0 33 75 144 218 249 276 332 344 288 226
1050.0 195 151 124 85 64 46 31 27 24 29
1090.0 31 36 43 63 80 107 154 205 255 272
1130.0 326 405 515 620 851 1200 1559 1668 1370 1457
1170.0 1426 867 482 269 173 131 121 125 121 137
1210.0 152 187 210 246 278 315 355 444 602 874
1250.0 1312 1800 2058 1962 2060 2085 1543 992 674 595
1290.0 726 1079 1555 2054 2506 3003 3353 3112 2930 2758
1330.0 2143 1440 899 543 343 205 128 86 75 48
1370.0 26 20 5 0 8 17 28 61 82 106
1410.0 123 145 172 194 230 318 465 711 1122 1611
1450.0 2158 2510 2913 2853 2637 2650 2403 2427 3186 4361
1490.0 5078 4983 5031 4981 3821 2184 1285 739 531 417
1530.0 391 343 341 364 351 384 483 670 904 1118
1570.0 1300 1435 1672 1733 1722 1814 2064 2429 2897 3529
1610.0 4401 5721 7531 9220 10000 9661 9766 8662 6673 4498
1650.0 2917 1870 1161 861 642 562 499 489 476 467
1690.0 421 374 339 273 239 196 183 187 164 146
1730.0 144 153 129 124 115 121 123 128 148 164
1770.0 194 222 224 215 211 192 179 141 134 122
1810.0 123 120 112 106 90 78 55 48 48 54
1850.0 50 53 66 84 108 124 133 130 138 136
1890.0 146 166 196 218 212 212 202 183 161 170
1930.0 200 217 216 198 175 124 68 37 31 27
1970.0 34 33 40 40 43 49 52 62 60 63
2010.0 59 59 53 50 50 47 47 44 48 46
2050.0 47 44 47 44 45 45 47 49 45 41
2090.0 38 37 32 34 30 26 25 21 20 18
2130.0 18 23 20 23 28 35 44 54 66 80
2170.0 82 84 84 83 81 95 134 220 380 660
2210.0 1067 1552 1981 2195 2213 2047 1620 998 433 166
2250.0 86 54 44 32 31 31 36 37 42 45
2290.0 50 54 61 65 70 77 84 93 102 106
2330.0 103 114 108 99 109 72 94 69 86 82
2370.0 97 70 66 54 49 37 33 30 29 31
2410.0 24 25 20 21 22 18 17 16 17 19
2450.0 25 30 35 38 43 46 43 39 34 24
2490.0 19 8 2 0 3 3 1 6 4 7
2530.0 5 5 2 5 10 16 28 33 43 49
2570.0 49 52 54 50 43 41 40 42 50 61
2610.0 70 75 80 82 86 88 89 80 76 69
2650.0 66 59 55 56 50 43 46 49 49 49
2690.0 48 41 36 35 34 39 41 37 38 36
2730.0 37 31 31 32 35 40 48 57 69 79
2770.0 84 86 86 87 83 76 65 60 59 48
2810.0 44 36 34 32 23 21 22 22 20 19
2850.0 17 26 25 35 44 51 57 57 64 67
2890.0 69 72 69 74 72 71 65 60 60 57
2930.0 59 61 62 69 70 68 64 60 51 40
2970.0 30 26 29 28 26 31 38 41 57 75
3010.0 107 153 212 310 444 622 811 954 1024 1089
3050.0 1117 1042 968 924 921 983 1064 1163 1252 1244
3090.0 1144 1038 941 766 514 319 223 170 135 103
3130.0 82 64 58 57 55 55 61 65 67 77
3170.0 85 91 96 105 111 117 118 126 129 128
3210.0 128 126 125 115 109 103 94 87 80 71
3250.0 67 58 47 47 37 35 32 27 26 32
3290.0 26 38 28 31 30 23 21 24 26 22
3330.0 23 26 34 35 33 39 39 50 64 76
3370.0 97 127 154 200 278 393 552 773 1074 1451
3410.0 1899 2231 2400 2534 2509 2134 1721 1340 960 614
3450.0 384 269 225 212 222 248 291 336 414 525
3490.0 647 782 940 1129 1363 1469 1483 1554 1601 1433
3530.0 1205 1060 881 683 498 331 206 137 121 87
3570.0 72 60 52 57 43 45 42 48 38 30
3610.0 31 28 26 18 23 40 20 34 26 30
3650.0 40 14 26 26 25 30 36 38 7 26
3690.0 37 31 19 34 33 36 42 47 36 37
3730.0 26 38 23 33 30 35 55 32 38 54
3770.0 48 47 41 52 55 64 48 58 72 60
3810.0 52 69 57 70 69 62 75 71 66 75
3850.0 61 84 91 73 82 93 93 85 91 93
3890.0 90 89 86 108 104 111 115 100 80 104
3930.0 95 86 69 76 71 62 69 62 35 47
##END=
