##TITLE=Carbonochloridic acid, phenyl ester
##JCAMP-DX=4.24
##DATA TYPE=INFRARED SPECTRUM
##ORIGIN=Sadtler Research Labs Under US-EPA Contract
##OWNER=NIST Standard Reference Data Program
##CAS REGISTRY NO=1885-14-9
##MOLFORM=C 7 H 5 Cl O 2
##XUNITS=1/CM
##YUNITS=ABSORBANCE
##XFACTOR=1.0
##YFACTOR=0.000050327
##DELTAX=4.0
##FIRSTX=450.0
##LASTX=3966.0
##FIRSTY=0.001459
##MAXX=3966
##MINX=450
##MAXY=0.50327
##MINY=0
##NPOINTS=880
##XYDATA=(X++(Y..Y))
450.0 29 40 28 29 37 52 72 94 127 155
490.0 185 197 221 168 102 68 29 18 24 28
530.0 26 25 26 11 31 35 30 125 18 181
570.0 278 450 558 503 440 126 19 0 12 31
610.0 31 62 70 69 49 38 24 23 22 20
650.0 44 69 97 144 196 357 394 465 515 538
690.0 440 346 260 181 139 114 116 154 218 331
730.0 505 726 908 964 881 674 456 327 248 174
770.0 140 106 85 74 66 75 85 104 113 117
810.0 125 124 136 146 168 212 300 465 725 1109
850.0 1415 1431 1222 818 449 285 225 201 201 180
890.0 169 183 204 264 347 416 410 347 230 145
930.0 88 56 35 34 33 34 25 26 17 24
970.0 30 32 66 56 65 87 129 207 313 347
1010.0 317 256 158 157 142 141 103 66 76 118
1050.0 161 227 281 312 343 353 368 412 479 598
1090.0 792 1125 1644 2517 4065 6645 9914 10000 7671 5317
1130.0 2247 758 460 409 491 815 1566 2743 3521 3472
1170.0 2928 2134 2032 2952 4243 4790 4415 3324 1809 1022
1210.0 725 597 532 480 449 400 353 292 226 187
1250.0 162 151 152 142 143 142 118 109 89 80
1290.0 81 81 80 79 79 91 105 117 114 122
1330.0 122 119 98 89 80 99 109 104 100 76
1370.0 53 59 65 62 76 75 76 70 48 43
1410.0 46 27 44 27 27 30 43 42 43 54
1450.0 77 84 110 122 151 209 270 303 384 619
1490.0 1119 1415 1323 1086 487 172 90 58 55 37
1530.0 39 22 29 45 46 28 30 39 61 53
1570.0 71 114 189 279 377 502 572 560 453 290
1610.0 176 111 85 46 43 17 19 31 15 18
1650.0 32 37 34 24 33 28 43 27 32 72
1690.0 52 37 58 76 56 56 42 73 70 62
1730.0 67 84 75 80 87 103 134 157 202 268
1770.0 364 493 637 844 1136 1538 2092 2618 3131 3538
1810.0 3395 2985 2502 1914 1353 925 531 293 175 119
1850.0 88 82 84 83 77 72 65 49 53 41
1890.0 44 43 42 41 41 53 65 66 79 73
1930.0 83 80 74 70 68 73 71 83 94 86
1970.0 84 72 62 49 48 45 43 37 30 30
2010.0 31 31 33 31 20 30 30 30 29 22
2050.0 19 20 19 22 22 20 10 10 11 10
2090.0 12 10 11 12 4 10 2 11 11 11
2130.0 11 12 12 12 11 11 11 11 11 10
2170.0 10 10 23 23 23 23 20 31 31 34
2210.0 41 47 58 61 74 74 74 63 41 31
2250.0 18 22 20 12 19 19 18 30 28 26
2290.0 34 29 37 46 43 58 60 46 43 38
2330.0 39 23 22 27 48 32 39 32 25 12
2370.0 16 25 32 41 24 11 12 12 12 11
2410.0 12 12 12 12 11 11 11 11 11 11
2450.0 13 13 13 13 13 13 11 11 11 12
2490.0 12 12 13 13 13 13 12 12 12 12
2530.0 12 12 12 12 12 12 12 12 12 12
2570.0 13 13 13 13 13 14 12 12 12 12
2610.0 12 13 13 12 12 14 13 4 12 12
2650.0 12 13 13 13 2 3 2 2 3 13
2690.0 14 14 14 14 14 14 14 14 14 14
2730.0 15 15 15 15 15 15 16 9 14 16
2770.0 16 16 16 16 15 17 15 15 15 15
2810.0 17 17 17 16 16 16 17 18 16 15
2850.0 17 18 19 11 17 17 17 17 17 17
2890.0 17 18 18 18 18 19 19 24 24 19
2930.0 19 19 18 18 20 19 19 19 19 19
2970.0 19 19 19 22 19 22 22 22 20 20
3010.0 20 20 22 32 43 53 69 83 114 144
3050.0 176 188 188 179 157 157 172 194 221 248
3090.0 246 217 186 129 108 85 75 53 31 25
3130.0 26 19 18 11 16 25 26 24 25 15
3170.0 15 15 15 6 15 19 19 15 15 14
3210.0 16 16 16 15 16 16 9 8 15 16
3250.0 16 16 17 17 17 18 17 16 18 20
3290.0 16 17 29 17 17 17 17 17 17 19
3330.0 29 9 19 10 18 15 14 19 6 18
3370.0 22 29 19 10 20 18 9 9 20 16
3410.0 16 20 9 20 22 20 19 22 22 30
3450.0 22 11 20 15 16 13 13 23 22 13
3490.0 22 22 23 23 13 14 23 23 23 12
3530.0 24 24 23 14 20 23 25 14 28 23
3570.0 26 23 35 35 32 43 35 33 34 33
3610.0 23 19 12 20 10 20 26 37 37 34
3650.0 42 33 47 45 35 34 30 37 25 27
3690.0 32 28 27 35 38 27 34 25 37 34
3730.0 28 18 23 5 23 10 34 25 37 37
3770.0 34 38 25 38 37 25 19 14 32 27
3810.0 26 16 24 35 35 35 34 33 27 25
3850.0 25 27 37 35 33 33 34 37 32 45
3890.0 32 35 34 32 32 35 34 34 34 44
3930.0 44 44 45 45 44 40 34 45 44 56
##END=
