##TITLE=N-Acetylcaprolactam
##JCAMP-DX=4.24
##DATA TYPE=INFRARED SPECTRUM
##ORIGIN=Sadtler Research Labs Under US-EPA Contract
##OWNER=NIST Standard Reference Data Program
##CAS REGISTRY NO=1888-91-1
##MOLFORM=C 8 H 13 N O 2
##XUNITS=1/CM
##YUNITS=ABSORBANCE
##XFACTOR=1.0
##YFACTOR=0.000084726
##DELTAX=4.0
##FIRSTX=450.0
##LASTX=3966.0
##FIRSTY=0.004660
##MAXX=3966
##MINX=450
##MAXY=0.84726
##MINY=0
##NPOINTS=880
##XYDATA=(X++(Y..Y))
450.0 55 42 75 100 43 12 26 103 64 71
490.0 80 117 95 83 89 89 112 123 141 122
530.0 114 139 149 142 174 229 324 402 469 476
570.0 487 438 446 452 430 429 381 316 229 210
610.0 186 165 135 120 102 101 98 119 98 97
650.0 112 157 177 175 166 158 160 118 117 102
690.0 116 106 135 125 125 136 126 106 92 78
730.0 79 74 87 90 70 71 52 70 63 58
770.0 56 88 96 98 99 96 82 57 62 66
810.0 66 76 77 79 91 106 148 222 287 295
850.0 285 234 144 111 119 181 257 289 293 266
890.0 186 123 95 84 75 84 88 106 125 137
930.0 144 154 165 202 285 440 681 1022 1403 1671
970.0 1640 1413 1049 631 344 227 176 142 129 116
1010.0 110 104 102 102 98 107 117 126 146 149
1050.0 138 133 134 164 233 334 446 536 577 570
1090.0 497 384 288 204 155 145 163 205 274 339
1130.0 370 377 345 315 337 428 568 683 757 776
1170.0 803 946 1408 2135 2846 3266 3322 3007 2634 2579
1210.0 2690 2648 2410 1858 1201 836 832 1051 1447 1935
1250.0 2508 3051 3282 3122 2680 2002 1288 829 638 555
1290.0 501 461 431 452 540 704 842 962 1083 1181
1330.0 1287 1315 1345 1339 1282 1209 1272 1388 1423 1685
1370.0 2046 2347 2529 2543 2150 1670 1419 1079 764 606
1410.0 554 539 582 579 614 691 819 869 872 852
1450.0 801 784 811 828 810 674 554 411 264 211
1490.0 176 134 128 110 129 143 106 115 125 94
1530.0 96 81 103 118 105 79 88 113 92 62
1570.0 71 67 71 68 51 63 58 70 61 81
1610.0 84 90 123 115 150 131 179 182 181 190
1650.0 235 249 259 278 319 370 436 466 551 632
1690.0 674 826 1167 1851 3189 5479 8392 9981 10000 8887
1730.0 5651 2834 1341 766 560 487 430 389 376 359
1770.0 388 400 385 367 315 274 269 268 250 222
1810.0 193 159 121 98 89 88 71 69 75 83
1850.0 67 58 54 49 56 60 41 37 40 40
1890.0 40 33 34 32 33 40 41 43 48 42
1930.0 40 36 34 36 30 29 31 29 27 33
1970.0 28 25 23 23 27 34 36 32 30 31
2010.0 31 31 30 29 30 33 36 40 44 45
2050.0 43 46 44 46 48 43 39 38 32 31
2090.0 31 27 24 24 19 18 16 15 12 10
2130.0 13 14 16 18 19 20 21 19 19 23
2170.0 21 21 19 18 17 16 15 17 16 16
2210.0 15 18 19 18 17 18 14 15 17 15
2250.0 17 15 14 12 10 8 10 13 14 18
2290.0 17 19 25 25 27 32 29 32 31 33
2330.0 35 26 18 23 28 27 35 22 11 15
2370.0 13 14 17 21 20 13 12 11 8 10
2410.0 9 7 6 7 6 8 5 6 7 8
2450.0 8 5 6 6 7 3 5 3 0 0
2490.0 0 4 1 1 0 3 1 4 4 6
2530.0 6 8 6 6 10 10 8 7 8 8
2570.0 9 10 11 9 6 9 8 9 9 11
2610.0 11 11 8 11 13 11 13 13 11 14
2650.0 13 15 16 19 19 22 24 24 29 26
2690.0 28 32 34 33 29 29 25 26 18 12
2730.0 11 10 7 10 13 15 15 15 17 14
2770.0 14 14 17 17 22 26 29 35 38 41
2810.0 45 45 48 50 55 57 59 72 88 115
2850.0 168 248 404 578 697 719 673 537 402 322
2890.0 275 255 266 295 346 400 479 596 749 973
2930.0 1322 1825 2450 3017 3122 2716 2152 1407 873 613
2970.0 490 475 474 447 405 335 243 199 201 234
3010.0 264 278 267 234 185 135 102 78 70 60
3050.0 54 48 49 43 40 34 29 35 27 22
3090.0 17 18 17 19 22 25 23 21 23 24
3130.0 21 20 13 13 11 16 15 14 10 11
3170.0 14 14 9 11 9 11 10 12 14 10
3210.0 10 15 10 17 12 12 9 9 14 12
3250.0 8 9 8 12 6 8 5 13 8 10
3290.0 11 8 8 12 14 14 9 11 9 8
3330.0 12 12 12 14 14 8 11 12 20 25
3370.0 14 15 15 23 12 22 26 25 43 52
3410.0 68 86 101 104 100 77 59 45 31 29
3450.0 23 23 25 25 23 19 21 22 18 16
3490.0 15 7 4 12 12 11 17 11 11 13
3530.0 20 22 11 12 10 9 25 23 29 33
3570.0 29 25 37 51 36 29 41 30 28 23
3610.0 29 14 24 13 11 21 8 14 11 13
3650.0 19 10 9 16 10 18 13 15 10 20
3690.0 9 6 0 0 9 25 23 17 15 4
3730.0 11 13 22 10 27 14 32 14 14 18
3770.0 25 22 17 17 9 9 17 18 23 22
3810.0 12 24 26 17 21 14 34 34 9 15
3850.0 23 29 16 11 19 29 25 12 13 32
3890.0 28 28 16 20 34 31 26 26 24 32
3930.0 29 18 33 22 21 22 31 19 25 12
##END=
