##TITLE=Ethanol, 2-(4-chlorophenoxy)-
##JCAMP-DX=4.24
##DATA TYPE=INFRARED SPECTRUM
##ORIGIN=Sadtler Research Labs Under US-EPA Contract
##OWNER=NIST Standard Reference Data Program
##CAS REGISTRY NO=1892-43-9
##MOLFORM=C 8 H 9 Cl O 2
##XUNITS=1/CM
##YUNITS=ABSORBANCE
##XFACTOR=1.0
##YFACTOR=0.000078976
##DELTAX=4.0
##FIRSTX=450.0
##LASTX=3966.0
##FIRSTY=0.030327
##MAXX=3966
##MINX=450
##MAXY=0.78976
##MINY=0
##NPOINTS=880
##XYDATA=(X++(Y..Y))
450.0 384 328 197 280 58 203 232 173 317 246
490.0 323 399 437 638 675 467 466 528 407 287
530.0 286 306 194 186 54 83 174 155 258 88
570.0 52 93 189 153 74 128 163 71 151 44
610.0 132 198 254 316 334 327 438 531 669 618
650.0 598 703 738 968 1140 1127 988 701 389 248
690.0 218 152 106 87 194 102 126 46 135 70
730.0 114 72 75 58 0 80 57 79 74 48
770.0 155 83 108 141 180 276 297 362 450 555
810.0 782 1015 1322 1680 1853 1761 1519 1207 920 668
850.0 518 442 372 382 379 416 407 471 547 599
890.0 661 742 809 871 934 888 834 689 476 366
930.0 330 238 227 256 216 216 189 199 192 172
970.0 235 226 249 300 259 306 456 539 931 1383
1010.0 1606 1547 1415 1538 1934 2550 3098 3571 3883 3729
1050.0 3133 2591 2077 1848 1684 1726 1802 1922 2081 2357
1090.0 2918 3386 3437 2767 1793 1190 865 695 549 481
1130.0 398 346 325 304 283 295 320 505 993 1504
1170.0 1685 1389 872 577 593 637 781 955 1142 1431
1210.0 1705 2046 2463 3038 3847 4689 5878 7309 8052 7887
1250.0 5948 3856 2772 2472 2468 2633 2822 2966 2904 2605
1290.0 2175 1733 1427 1132 892 723 586 541 493 443
1330.0 444 438 457 490 474 465 476 523 663 780
1370.0 890 966 838 666 552 532 508 511 525 532
1410.0 509 485 437 414 429 424 400 403 436 494
1450.0 677 1012 1516 1907 1686 1421 1433 1921 3240 5676
1490.0 8572 10000 7696 4505 2290 1131 907 726 526 468
1530.0 336 279 291 255 259 231 257 301 274 271
1570.0 320 412 541 758 873 1012 1195 1144 1193 923
1610.0 607 386 243 197 171 132 146 131 103 108
1650.0 118 112 104 56 71 71 74 42 82 82
1690.0 52 56 81 69 70 57 72 97 58 69
1730.0 84 93 122 103 126 123 104 84 76 74
1770.0 74 70 45 45 36 42 53 47 49 40
1810.0 39 39 31 39 44 58 48 56 73 88
1850.0 80 90 97 107 135 145 141 130 104 98
1890.0 82 76 58 50 49 49 44 53 45 49
1930.0 42 43 50 49 58 46 47 46 38 47
1970.0 36 30 32 29 28 30 36 35 29 33
2010.0 36 41 43 41 53 56 61 68 68 67
2050.0 63 58 58 66 70 69 71 73 62 61
2090.0 56 51 49 39 35 35 33 25 23 21
2130.0 18 17 13 12 13 11 10 11 7 6
2170.0 11 2 5 3 2 1 0 4 3 3
2210.0 6 3 7 6 6 6 0 3 6 12
2250.0 15 17 24 21 25 29 31 34 37 38
2290.0 37 34 28 26 25 31 30 39 35 44
2330.0 51 38 50 36 61 38 63 50 59 66
2370.0 46 41 37 33 32 32 37 41 39 38
2410.0 39 33 33 29 32 35 31 34 35 44
2450.0 42 38 36 44 48 45 46 52 52 50
2490.0 53 53 51 49 58 61 64 67 65 61
2530.0 64 55 56 51 42 42 32 32 31 36
2570.0 27 25 30 30 23 20 19 21 19 15
2610.0 19 11 16 17 14 16 15 15 17 14
2650.0 20 19 26 26 29 31 30 37 40 38
2690.0 45 49 50 56 52 62 63 77 78 81
2730.0 93 90 90 84 74 77 77 72 70 78
2770.0 83 85 84 88 93 92 92 103 107 115
2810.0 124 133 155 164 166 179 184 194 200 221
2850.0 247 286 341 417 499 606 731 869 980 1042
2890.0 1032 970 883 823 780 782 803 871 977 1119
2930.0 1275 1406 1495 1535 1505 1453 1396 1352 1313 1253
2970.0 1154 1030 868 710 547 408 302 230 179 148
3010.0 126 111 98 94 96 116 133 168 220 263
3050.0 275 252 211 172 156 155 162 174 185 200
3090.0 210 218 239 253 229 205 156 102 70 50
3130.0 37 34 31 24 26 23 29 26 32 23
3170.0 24 25 20 28 25 29 23 26 32 20
3210.0 25 21 24 19 22 28 22 19 23 21
3250.0 16 17 19 16 21 9 14 17 16 18
3290.0 17 15 15 22 12 24 22 19 21 28
3330.0 18 9 11 14 12 20 6 8 15 5
3370.0 14 9 0 11 11 20 15 8 11 15
3410.0 19 7 13 2 6 10 13 15 14 13
3450.0 20 17 8 4 5 18 13 14 24 13
3490.0 26 25 20 19 12 4 19 10 16 11
3530.0 18 24 19 35 25 27 25 18 15 24
3570.0 36 36 22 40 35 33 41 37 62 75
3610.0 74 92 113 134 160 209 298 410 526 556
3650.0 552 439 400 362 365 349 366 328 283 246
3690.0 173 169 96 76 69 50 69 53 48 58
3730.0 65 74 75 71 52 58 69 50 37 40
3770.0 31 28 41 34 32 21 35 46 36 42
3810.0 30 29 62 65 59 40 47 49 51 57
3850.0 42 48 49 57 70 57 48 30 58 84
3890.0 44 47 66 25 56 75 38 70 56 38
3930.0 70 48 66 34 68 83 60 65 61 92
##END=
