##TITLE=Phenol, 4-(pentyloxy)-
##JCAMP-DX=4.24
##DATA TYPE=INFRARED SPECTRUM
##ORIGIN=Sadtler Research Labs Under US-EPA Contract
##OWNER=NIST Standard Reference Data Program
##CAS REGISTRY NO=18979-53-8
##MOLFORM=C 11 H 16 O 2
##XUNITS=1/CM
##YUNITS=ABSORBANCE
##XFACTOR=1.0
##YFACTOR=0.000109796
##DELTAX=4.0
##FIRSTX=450.0
##LASTX=3966.0
##FIRSTY=0.000000
##MAXX=3966
##MINX=450
##MAXY=1.09796
##MINY=0
##NPOINTS=880
##XYDATA=(X++(Y..Y))
450.0 0 405 314 402 247 238 362 403 611 402
490.0 519 615 592 462 648 663 651 646 411 390
530.0 411 306 447 402 446 404 378 329 347 364
570.0 313 348 357 361 370 264 169 246 414 229
610.0 293 282 294 315 260 294 262 283 277 295
650.0 337 297 288 280 279 266 241 290 296 309
690.0 338 321 289 358 411 495 545 614 644 699
730.0 766 670 617 695 807 675 757 718 716 704
770.0 567 584 594 637 666 660 656 636 710 761
810.0 871 1070 1295 1488 1576 1428 1173 1035 831 661
850.0 556 516 453 401 425 390 384 411 381 408
890.0 376 397 416 411 463 460 431 389 455 398
930.0 407 404 399 300 310 338 320 351 347 396
970.0 447 470 503 536 642 735 828 864 990 1047
1010.0 1093 1047 1068 1081 1206 1315 1372 1423 1418 1390
1050.0 1324 1176 992 851 795 765 834 845 847 826
1090.0 852 877 881 830 760 684 599 572 558 556
1130.0 532 516 538 587 642 817 1015 1455 2232 3316
1170.0 4285 4674 4394 3662 2883 2311 2083 2108 2209 2393
1210.0 2622 2947 3504 4277 5333 6192 6621 6346 5243 3976
1250.0 2811 2018 1511 1208 1054 934 910 904 910 940
1290.0 934 915 905 860 842 850 856 909 1011 1016
1330.0 971 891 689 577 528 473 425 405 402 394
1370.0 423 457 563 746 797 809 666 543 471 426
1410.0 403 458 424 582 664 896 966 965 864 719
1450.0 633 615 588 741 835 1076 1167 1291 1211 1074
1490.0 1165 1528 2739 4787 7492 10000 7584 4751 2072 1291
1530.0 887 655 471 276 278 295 266 184 223 290
1570.0 262 271 274 263 326 307 349 344 382 372
1610.0 342 346 269 308 241 287 239 219 245 232
1650.0 166 163 226 212 227 201 173 228 161 143
1690.0 199 204 130 157 178 234 205 155 241 268
1730.0 229 153 228 218 191 167 196 201 198 218
1770.0 182 172 212 199 210 193 190 206 178 221
1810.0 217 213 235 226 237 236 262 290 260 249
1850.0 267 282 262 243 232 199 232 237 227 224
1890.0 212 211 214 212 209 206 200 203 187 210
1930.0 210 209 214 194 207 216 218 219 220 217
1970.0 225 228 230 233 236 221 225 233 237 236
2010.0 237 238 230 230 233 233 237 234 231 236
2050.0 237 236 237 232 224 231 228 225 222 221
2090.0 211 206 200 196 192 188 186 187 188 187
2130.0 182 181 183 176 180 176 176 178 175 174
2170.0 173 174 174 172 172 173 175 174 176 176
2210.0 174 177 170 174 178 182 176 181 181 179
2250.0 184 186 192 189 188 189 191 196 194 202
2290.0 204 203 213 215 218 221 222 223 228 223
2330.0 220 210 219 209 247 243 254 241 244 222
2370.0 213 211 220 219 217 203 198 202 199 203
2410.0 209 215 220 226 233 228 222 214 211 209
2450.0 207 203 208 210 212 211 215 217 217 221
2490.0 222 219 216 210 208 209 203 202 203 198
2530.0 199 199 198 193 190 188 185 191 187 184
2570.0 190 188 191 196 197 193 194 201 205 203
2610.0 201 199 194 193 192 192 193 195 194 196
2650.0 199 198 201 204 206 207 212 217 217 218
2690.0 218 211 217 214 212 215 216 218 225 224
2730.0 227 238 246 258 262 269 264 264 262 262
2770.0 260 255 254 249 253 257 259 265 265 273
2810.0 284 295 310 326 346 366 401 435 485 545
2850.0 626 738 893 1068 1237 1399 1498 1555 1578 1550
2890.0 1480 1386 1337 1358 1419 1505 1611 1726 1872 2064
2930.0 2293 2532 2741 2869 2874 2769 2616 2535 2535 2599
2970.0 2567 2285 1816 1332 994 796 668 597 563 551
3010.0 555 576 610 632 634 629 622 643 659 629
3050.0 571 501 462 440 434 420 408 399 389 368
3090.0 354 332 312 303 288 289 286 278 268 263
3130.0 255 243 235 236 221 214 214 216 212 212
3170.0 212 208 206 207 206 204 199 195 198 202
3210.0 200 194 199 208 201 196 197 201 194 195
3250.0 191 191 192 199 185 189 187 187 187 185
3290.0 185 198 194 191 204 204 195 194 190 187
3330.0 189 191 189 185 192 190 188 180 196 191
3370.0 200 196 209 213 209 208 207 204 206 205
3410.0 209 205 202 207 201 196 204 210 208 201
3450.0 202 196 204 201 191 194 198 196 201 193
3490.0 194 185 190 191 187 184 188 179 182 187
3530.0 190 187 180 184 191 194 187 183 191 188
3570.0 207 180 181 176 178 187 188 189 197 206
3610.0 212 232 238 255 252 319 325 400 578 746
3650.0 1128 1666 1781 1711 1135 602 383 313 247 201
3690.0 205 210 193 204 201 194 208 209 190 198
3730.0 209 214 219 198 183 225 187 203 174 176
3770.0 188 180 194 198 196 205 184 202 190 212
3810.0 181 194 220 192 198 186 194 202 196 201
3850.0 188 250 220 227 221 204 222 214 214 225
3890.0 212 180 212 224 212 198 165 205 176 199
3930.0 214 199 206 225 190 182 194 185 180 192
##END=
