##TITLE=8-Aminoquinaldine
##JCAMP-DX=4.24
##DATA TYPE=INFRARED SPECTRUM
##ORIGIN=Sadtler Research Labs Under US-EPA Contract
##OWNER=NIST Standard Reference Data Program
##CAS REGISTRY NO=18978-78-4
##MOLFORM=C 10 H 10 N 2
##XUNITS=1/CM
##YUNITS=ABSORBANCE
##XFACTOR=1.0
##YFACTOR=0.000077692
##DELTAX=4.0
##FIRSTX=450.0
##LASTX=3966.0
##FIRSTY=0.030921
##MAXX=3966
##MINX=450
##MAXY=0.77692
##MINY=0
##NPOINTS=880
##XYDATA=(X++(Y..Y))
450.0 398 525 554 361 351 333 212 186 144 110
490.0 125 158 146 185 303 372 288 340 241 195
530.0 178 88 69 103 142 166 219 241 304 305
570.0 303 318 344 393 436 485 489 531 558 615
610.0 675 745 771 814 862 844 834 777 810 725
650.0 736 656 615 557 498 498 459 464 437 468
690.0 435 495 507 520 578 661 810 873 1136 1356
730.0 1978 2230 3391 4262 3061 2235 1771 1025 769 548
770.0 575 616 756 1000 1180 1650 1970 1410 1047 931
810.0 832 1161 1635 2160 3165 3411 2140 1771 1172 671
850.0 441 363 371 315 300 235 194 137 128 103
890.0 88 91 82 114 117 141 136 131 107 84
930.0 83 65 70 76 84 81 87 81 98 120
970.0 80 67 66 67 95 140 176 205 200 183
1010.0 136 116 112 123 150 165 196 201 208 193
1050.0 186 181 194 241 295 348 387 451 532 571
1090.0 519 507 441 335 317 384 536 742 923 1014
1130.0 1131 1130 913 760 532 251 119 60 31 27
1170.0 29 53 58 57 49 28 1 9 53 110
1210.0 160 177 169 165 214 379 621 805 989 1122
1250.0 994 874 813 806 997 1234 1351 1342 1167 840
1290.0 534 376 320 325 383 504 772 1190 1590 1872
1330.0 2078 2080 1957 1766 1641 1557 1378 1410 1704 2180
1370.0 2727 3115 3323 3214 2757 2086 1529 1147 904 793
1410.0 774 846 1096 1561 2220 2739 2903 2963 2549 1890
1450.0 1535 1460 1626 2003 2600 3222 3578 3505 3172 2677
1490.0 2250 2314 2866 3515 3904 3884 3491 2716 1994 1481
1530.0 1227 1038 948 974 1065 1280 1631 2016 2233 2322
1570.0 2361 2529 3142 4396 6241 8358 9513 10000 9756 8646
1610.0 7463 6571 5791 4838 3803 2822 2038 1389 1030 822
1650.0 716 610 526 452 394 353 353 355 413 435
1690.0 410 374 352 308 292 294 305 313 270 228
1730.0 199 190 151 139 147 160 156 150 144 123
1770.0 116 106 94 105 123 139 162 182 215 219
1810.0 220 209 177 151 127 114 92 73 71 73
1850.0 63 57 59 58 64 73 67 78 100 153
1890.0 231 303 308 280 228 157 125 144 186 202
1930.0 189 172 142 97 64 47 36 32 32 33
1970.0 28 24 22 25 24 27 27 23 21 18
2010.0 21 21 27 25 27 29 29 26 24 20
2050.0 18 19 19 24 25 23 22 21 17 18
2090.0 20 18 17 15 16 17 18 17 15 19
2130.0 21 20 24 24 26 30 28 30 24 23
2170.0 16 12 8 9 9 9 14 18 17 14
2210.0 18 16 13 14 11 8 8 7 7 1
2250.0 2 5 6 9 12 17 16 12 12 11
2290.0 14 11 14 17 18 22 14 13 11 10
2330.0 15 10 17 18 25 18 8 4 9 11
2370.0 23 30 24 23 16 22 21 20 24 30
2410.0 33 33 31 26 24 18 20 20 22 25
2450.0 28 29 34 35 34 30 25 26 22 25
2490.0 23 31 33 38 38 45 49 43 37 30
2530.0 22 18 18 18 16 16 17 15 12 16
2570.0 17 21 23 31 37 49 48 51 51 49
2610.0 51 49 46 43 38 38 35 39 42 47
2650.0 45 45 39 35 29 29 27 28 25 29
2690.0 27 29 29 31 36 42 47 54 61 67
2730.0 69 68 64 55 45 42 36 38 31 27
2770.0 27 27 27 25 30 31 32 37 45 51
2810.0 59 67 75 83 92 105 126 149 177 217
2850.0 253 297 352 403 426 427 415 394 378 371
2890.0 367 366 372 390 423 472 563 708 938 1256
2930.0 1525 1620 1551 1330 1032 817 696 648 613 531
2970.0 454 398 349 317 304 313 340 399 461 537
3010.0 652 775 895 1050 1232 1437 1709 2101 2593 3108
3050.0 3568 3813 3745 3372 2897 2411 1868 1373 1011 766
3090.0 614 514 436 377 338 297 267 241 212 181
3130.0 153 126 116 106 102 104 103 98 92 90
3170.0 95 90 84 80 67 65 53 50 48 41
3210.0 44 41 45 29 31 25 23 11 13 13
3250.0 6 6 13 10 15 25 20 20 18 16
3290.0 17 14 16 16 19 8 15 11 14 15
3330.0 16 23 29 27 35 41 50 63 79 112
3370.0 150 224 353 582 949 1401 1704 1807 1723 1363
3410.0 920 586 371 229 147 104 88 76 80 77
3450.0 93 107 123 146 169 195 245 304 393 522
3490.0 723 1002 1363 1676 1834 1792 1588 1246 927 680
3530.0 478 331 224 145 100 82 68 58 56 47
3570.0 46 50 43 46 35 28 19 18 18 37
3610.0 25 33 28 31 22 24 16 12 15 4
3650.0 7 12 9 9 3 10 6 2 6 12
3690.0 6 16 13 16 16 29 22 23 27 23
3730.0 29 26 35 40 34 51 52 48 42 43
3770.0 39 42 16 10 14 16 16 23 5 6
3810.0 4 3 0 1 8 0 10 1 0 6
3850.0 3 0 2 13 27 22 25 25 27 23
3890.0 22 23 20 20 20 23 28 27 30 26
3930.0 33 20 20 16 18 12 13 9 14 22
##END=
