##TITLE=Phenol, 3-butoxy-
##JCAMP-DX=4.24
##DATA TYPE=INFRARED SPECTRUM
##ORIGIN=Sadtler Research Labs Under US-EPA Contract
##OWNER=NIST Standard Reference Data Program
##CAS REGISTRY NO=18979-72-1
##MOLFORM=C 10 H 14 O 2
##XUNITS=1/CM
##YUNITS=ABSORBANCE
##XFACTOR=1.0
##YFACTOR=0.000118317
##DELTAX=4.0
##FIRSTX=450.0
##LASTX=3966.0
##FIRSTY=0.000000
##MAXX=3966
##MINX=450
##MAXY=1.18317
##MINY=0
##NPOINTS=880
##XYDATA=(X++(Y..Y))
450.0 0 364 658 587 326 579 479 496 438 534
490.0 483 350 455 479 460 438 450 493 509 599
530.0 561 495 464 442 448 468 464 399 432 463
570.0 426 426 479 464 504 485 538 559 555 589
610.0 585 499 494 454 426 439 451 384 412 421
650.0 412 404 451 537 576 890 988 1246 1596 1590
690.0 1185 889 715 556 508 461 486 488 559 597
730.0 632 673 745 872 1085 1366 1572 1756 1737 1514
770.0 1301 995 801 604 570 531 482 520 520 584
810.0 615 703 764 841 928 1059 1191 1251 1215 1179
850.0 1137 1046 1012 898 783 667 577 529 519 507
890.0 502 501 522 543 540 578 616 656 706 781
930.0 867 953 989 1016 1022 1065 1167 1218 1246 1201
970.0 1179 1221 1327 1468 1516 1468 1339 1208 1112 1062
1010.0 1176 1399 1692 1934 2141 2189 2113 1953 1788 1676
1050.0 1485 1315 1284 1383 1523 1700 1737 1629 1438 1200
1090.0 1022 909 864 863 929 1050 1200 1411 1698 2186
1130.0 3032 4514 6635 8890 10000 9078 7051 5304 4514 4544
1170.0 4842 5186 5293 5325 5257 4845 4073 3172 2514 2306
1210.0 2158 1931 1647 1361 1163 1036 981 979 946 968
1250.0 1039 1162 1381 1599 1883 2269 2845 3603 4357 4821
1290.0 4660 4372 4152 3915 3618 3077 2610 2458 2346 2203
1330.0 1895 1483 1176 935 791 714 656 649 641 620
1370.0 672 747 897 1126 1400 1509 1423 1179 899 741
1410.0 671 603 690 663 701 811 929 1105 1291 1466
1450.0 1776 2028 2251 2644 2943 3423 3607 3615 3548 3833
1490.0 4587 4868 4780 4021 3113 2102 1427 1153 1086 965
1530.0 918 823 844 813 819 804 865 993 1094 1148
1570.0 1382 1599 1960 2720 3359 4644 6146 6433 7720 6676
1610.0 6131 5726 5223 5058 3904 2983 2011 1318 1053 837
1650.0 819 720 663 615 636 590 622 529 586 536
1690.0 506 492 525 523 481 461 461 504 443 406
1730.0 439 443 425 393 412 418 394 387 384 367
1770.0 384 406 363 379 375 381 399 387 407 370
1810.0 375 373 357 366 359 375 339 351 354 376
1850.0 352 349 359 359 387 405 395 392 403 421
1890.0 432 444 449 458 458 447 429 420 403 391
1930.0 372 369 370 370 371 355 356 363 350 362
1970.0 351 353 353 346 349 357 358 350 349 353
2010.0 355 361 365 363 364 362 363 366 368 368
2050.0 364 364 364 366 365 357 355 354 355 353
2090.0 353 351 352 351 351 345 345 344 345 344
2130.0 343 346 344 342 342 340 340 343 343 339
2170.0 340 337 338 337 339 340 343 347 350 352
2210.0 354 359 365 368 366 366 364 362 359 355
2250.0 354 353 352 348 345 344 342 343 343 342
2290.0 343 344 344 344 344 348 347 354 341 353
2330.0 356 339 370 335 392 346 403 365 385 368
2370.0 362 361 356 363 361 365 367 370 380 385
2410.0 393 399 406 413 416 420 422 417 418 415
2450.0 412 409 401 391 387 386 382 379 376 374
2490.0 373 373 372 374 368 363 354 353 348 342
2530.0 343 340 337 339 338 340 339 341 346 349
2570.0 351 356 359 369 373 375 377 381 384 381
2610.0 385 382 380 378 372 365 364 361 354 352
2650.0 353 352 353 353 353 352 356 359 358 356
2690.0 356 356 355 358 356 360 362 369 368 377
2730.0 386 396 406 421 436 447 450 447 439 438
2770.0 436 432 431 425 423 423 427 433 436 438
2810.0 454 457 466 479 492 516 539 578 636 709
2850.0 800 891 1002 1120 1296 1535 1790 2047 2262 2345
2890.0 2265 2058 1877 1829 1901 2034 2189 2323 2401 2463
2930.0 2585 2807 3107 3423 3602 3599 3438 3384 3576 3944
2970.0 4189 3968 3248 2355 1648 1246 1000 834 736 668
3010.0 632 620 620 645 706 769 809 821 827 846
3050.0 906 946 937 878 807 757 733 722 701 677
3090.0 654 626 600 570 541 518 491 463 440 416
3130.0 395 379 367 359 362 358 359 355 355 359
3170.0 354 357 359 361 364 366 366 366 370 367
3210.0 370 365 373 364 370 372 375 371 370 369
3250.0 370 367 379 375 372 377 384 386 390 387
3290.0 395 397 398 405 406 406 408 412 419 418
3330.0 428 436 435 448 458 460 460 457 466 468
3370.0 470 470 472 482 475 474 479 483 485 492
3410.0 489 486 492 501 502 500 510 505 499 502
3450.0 503 496 502 496 495 508 508 501 495 489
3490.0 503 490 500 483 492 495 502 492 488 484
3530.0 486 490 491 484 479 472 489 466 479 431
3570.0 465 446 457 440 432 423 433 417 431 413
3610.0 415 425 415 454 429 508 531 745 1052 1551
3650.0 2349 2984 2683 1979 1133 586 496 362 410 361
3690.0 352 346 349 338 343 337 337 337 337 337
3730.0 337 337 337 348 337 355 337 352 337 337
3770.0 337 337 343 337 337 339 337 338 337 348
3810.0 337 337 337 337 337 337 337 337 337 337
3850.0 334 344 337 337 337 337 337 337 337 337
3890.0 339 337 337 337 336 339 337 337 337 342
3930.0 337 337 337 337 337 337 337 337 337 343
##END=
