##TITLE=Benzonitrile, 2,6-difluoro-
##JCAMP-DX=4.24
##DATA TYPE=INFRARED SPECTRUM
##ORIGIN=Sadtler Research Labs Under US-EPA Contract
##OWNER=NIST Standard Reference Data Program
##CAS REGISTRY NO=1897-52-5
##MOLFORM=C 7 H 3 F 2 N
##XUNITS=1/CM
##YUNITS=ABSORBANCE
##XFACTOR=1.0
##YFACTOR=0.000086963
##DELTAX=4.0
##FIRSTX=450.0
##LASTX=3966.0
##FIRSTY=0.007914
##MAXX=3966
##MINX=450
##MAXY=0.86963
##MINY=0
##NPOINTS=880
##XYDATA=(X++(Y..Y))
450.0 91 68 56 57 26 31 57 37 68 84
490.0 112 213 390 440 440 409 348 230 155 115
530.0 152 174 230 285 201 253 206 123 162 200
570.0 143 206 134 137 182 98 191 259 151 235
610.0 215 180 197 126 152 193 175 355 627 916
650.0 1058 1069 907 775 404 142 186 179 189 218
690.0 188 220 306 486 832 1082 1108 2378 1577 1024
730.0 1034 692 413 347 230 287 286 258 341 480
770.0 842 1637 2494 3041 3575 5517 2323 2700 2037 1055
810.0 475 298 315 308 282 329 290 241 218 234
850.0 215 204 211 215 215 215 243 231 234 262
890.0 269 280 321 363 399 405 387 377 291 241
930.0 238 214 213 242 245 305 338 382 443 498
970.0 496 448 396 391 443 562 870 1342 1880 2594
1010.0 3965 5997 7715 7658 7802 6682 4064 1964 857 485
1050.0 456 517 523 527 535 402 293 217 192 200
1090.0 170 189 218 224 275 282 291 303 289 291
1130.0 282 255 291 336 408 489 520 566 534 521
1170.0 483 400 312 264 234 210 223 232 209 215
1210.0 204 193 185 187 216 385 762 1735 3420 4681
1250.0 4508 4754 4192 2303 978 540 454 435 506 765
1290.0 1295 2133 2642 2786 2668 2170 1241 656 419 389
1330.0 439 516 591 626 680 769 765 586 511 464
1370.0 402 344 309 281 271 247 210 183 176 193
1410.0 193 189 192 193 216 233 228 238 323 458
1450.0 783 1273 1965 3186 4695 6593 8623 9285 10000 9206
1490.0 6724 4979 2824 1271 613 395 344 322 287 318
1530.0 332 326 384 503 858 1348 1876 2242 2443 2428
1570.0 2412 2172 1858 1947 2223 2416 2689 3084 3465 3910
1610.0 4253 4664 5031 5148 5069 4333 3260 2264 1306 542
1650.0 316 231 315 323 313 294 272 227 222 163
1690.0 181 180 134 112 146 161 155 137 162 172
1730.0 174 135 172 197 218 253 271 253 239 209
1770.0 155 121 122 125 122 116 117 133 131 159
1810.0 147 147 153 138 138 139 167 199 196 180
1850.0 201 165 128 115 108 89 98 103 105 109
1890.0 104 116 123 124 129 119 123 157 212 275
1930.0 308 301 266 216 131 107 86 80 86 80
1970.0 80 85 74 78 78 78 77 74 72 75
2010.0 66 70 76 76 76 75 81 88 92 89
2050.0 91 80 73 73 74 70 72 71 82 93
2090.0 79 82 83 77 88 80 75 91 78 90
2130.0 96 79 84 77 66 67 60 56 60 55
2170.0 64 64 59 63 63 58 62 62 63 63
2210.0 67 66 69 72 79 98 130 182 229 247
2250.0 262 252 217 190 162 152 149 133 126 112
2290.0 90 95 94 100 143 150 169 185 160 148
2330.0 114 66 68 55 34 63 49 34 56 51
2370.0 45 54 54 67 71 63 70 77 69 75
2410.0 69 63 72 65 64 64 61 64 68 60
2450.0 71 65 54 70 64 60 66 69 83 95
2490.0 98 123 131 134 135 113 106 94 88 96
2530.0 99 107 123 132 136 138 123 103 87 64
2570.0 46 51 44 49 53 47 61 64 58 66
2610.0 54 48 59 41 47 53 45 59 57 55
2650.0 61 56 55 68 50 43 44 32 39 36
2690.0 31 30 32 32 29 31 33 41 40 45
2730.0 56 51 51 60 55 61 67 56 70 58
2770.0 56 65 53 70 64 34 40 25 16 18
2810.0 6 11 18 7 12 9 9 20 20 15
2850.0 23 9 19 22 20 20 28 29 51 57
2890.0 46 58 64 48 52 39 31 36 26 24
2930.0 37 27 44 50 39 69 69 74 105 101
2970.0 117 120 119 115 94 58 61 44 39 39
3010.0 31 41 41 39 51 61 65 76 80 79
3050.0 92 82 71 87 90 78 89 79 83 100
3090.0 96 121 122 96 96 63 46 57 37 37
3130.0 39 30 42 30 34 48 40 38 45 39
3170.0 41 46 42 50 46 44 51 50 46 48
3210.0 50 48 55 49 45 63 53 51 68 53
3250.0 62 55 51 65 52 52 59 53 55 61
3290.0 52 73 59 62 67 57 66 73 52 63
3330.0 68 58 66 66 59 65 55 63 62 60
3370.0 59 68 68 68 72 57 69 72 62 66
3410.0 63 67 77 63 70 88 66 72 77 65
3450.0 84 69 64 72 63 69 69 48 67 63
3490.0 52 70 68 58 60 60 64 71 56 59
3530.0 63 62 66 69 58 65 67 58 60 44
3570.0 45 62 54 58 52 25 55 62 45 62
3610.0 42 37 52 34 51 27 35 54 48 38
3650.0 15 37 31 51 47 24 29 21 36 40
3690.0 20 42 47 29 46 45 33 59 46 35
3730.0 42 23 20 33 0 12 21 28 46 34
3770.0 17 43 35 33 31 32 39 19 3 15
3810.0 15 16 22 15 30 27 14 2 11 18
3850.0 19 4 15 31 25 14 37 31 22 36
3890.0 31 29 32 5 18 23 17 23 7 13
3930.0 30 19 24 25 17 19 1 2 2 2
##END=
