##TITLE=Propanoic acid, 2,2-dimethyl-, chloromethyl ester
##JCAMP-DX=4.24
##DATA TYPE=INFRARED SPECTRUM
##ORIGIN=Sadtler Research Labs Under US-EPA Contract
##OWNER=NIST Standard Reference Data Program
##CAS REGISTRY NO=18997-19-8
##MOLFORM=C 6 H 11 Cl O 2
##XUNITS=1/CM
##YUNITS=ABSORBANCE
##XFACTOR=1.0
##YFACTOR=0.000118185
##DELTAX=4.0
##FIRSTX=450.0
##LASTX=3966.0
##FIRSTY=0.006027
##MAXX=3966
##MINX=450
##MAXY=1.18185
##MINY=0
##NPOINTS=880
##XYDATA=(X++(Y..Y))
450.0 51 49 36 15 15 1 53 10 34 31
490.0 29 38 45 83 99 115 117 96 45 34
530.0 24 28 18 13 12 8 24 25 23 24
570.0 21 30 43 70 89 80 71 49 32 21
610.0 13 15 24 27 21 23 27 18 16 22
650.0 30 28 36 32 41 59 57 64 75 92
690.0 124 158 215 273 390 497 695 929 1178 1339
730.0 1358 1234 976 743 561 444 389 413 503 595
770.0 658 643 556 421 308 237 199 177 161 156
810.0 146 155 159 159 163 178 171 183 187 190
850.0 193 187 169 134 110 88 78 78 68 62
890.0 58 61 66 61 65 65 65 64 66 72
930.0 83 107 126 140 136 130 109 88 79 80
970.0 75 84 97 113 144 197 281 393 503 610
1010.0 700 724 719 741 805 997 1303 1610 1745 1685
1050.0 1408 982 682 526 451 431 471 564 730 996
1090.0 1428 2187 3548 5755 8330 10000 9998 8648 5794 3399
1130.0 2146 1512 1130 884 715 598 513 467 425 394
1170.0 359 324 292 261 237 214 207 204 213 222
1210.0 233 242 248 252 253 250 245 246 256 287
1250.0 351 463 586 681 801 890 923 898 789 605
1290.0 407 266 186 141 115 108 109 120 140 176
1330.0 226 283 332 356 343 301 261 248 271 314
1370.0 373 399 373 315 254 222 262 333 350 342
1410.0 282 181 135 119 118 137 179 262 353 429
1450.0 473 472 436 408 397 400 460 631 798 834
1490.0 759 573 295 144 95 74 62 62 63 61
1530.0 61 60 55 58 47 37 31 33 27 22
1570.0 21 22 21 23 20 20 19 24 21 25
1610.0 24 27 29 27 25 21 21 23 20 17
1650.0 20 25 15 16 17 19 24 24 29 38
1690.0 36 43 55 66 74 82 100 118 137 156
1730.0 192 238 298 391 560 808 1167 1640 2190 2743
1770.0 3137 3257 2977 2425 1720 1127 692 440 298 214
1810.0 161 126 100 83 75 68 63 56 58 56
1850.0 57 55 57 59 59 58 49 45 36 32
1890.0 25 19 15 12 10 8 7 8 8 7
1930.0 8 10 13 17 21 28 33 34 36 32
1970.0 24 20 18 21 19 22 25 27 31 35
2010.0 38 44 49 52 52 49 47 49 48 47
2050.0 42 35 25 20 19 16 16 18 19 15
2090.0 16 16 17 20 27 32 35 36 34 30
2130.0 24 20 18 17 14 11 11 8 4 3
2170.0 1 2 1 1 4 3 3 6 7 8
2210.0 8 9 11 11 9 5 5 4 2 1
2250.0 0 3 3 3 1 5 5 7 7 7
2290.0 7 9 12 14 18 20 24 27 30 31
2330.0 37 38 33 59 35 33 51 41 59 48
2370.0 40 32 24 14 8 5 5 3 3 5
2410.0 3 1 1 3 1 1 1 3 5 7
2450.0 7 7 7 7 5 3 2 5 3 3
2490.0 2 2 4 4 3 4 5 4 6 6
2530.0 5 6 5 7 7 7 8 5 6 6
2570.0 5 9 5 7 8 7 7 9 10 8
2610.0 8 10 13 11 9 10 10 9 11 7
2650.0 8 9 9 10 11 14 13 12 10 11
2690.0 9 9 8 10 10 12 14 13 17 21
2730.0 20 21 21 20 18 18 19 20 22 22
2770.0 24 24 28 32 34 34 36 37 37 35
2810.0 33 33 38 41 41 40 41 47 50 52
2850.0 59 69 81 106 145 203 282 357 413 430
2890.0 414 384 364 350 365 408 461 500 520 528
2930.0 537 562 599 625 633 629 636 717 899 1128
2970.0 1349 1596 1819 1993 2106 2061 1762 1365 932 578
3010.0 354 233 158 116 89 76 68 62 60 58
3050.0 55 50 45 40 33 30 29 27 25 24
3090.0 23 22 24 21 24 24 27 23 25 22
3130.0 25 23 22 23 23 25 23 23 30 32
3170.0 29 28 29 28 30 29 31 28 30 29
3210.0 27 29 25 25 22 24 20 22 21 23
3250.0 20 15 16 15 15 12 12 8 12 12
3290.0 12 15 16 12 11 13 10 11 15 12
3330.0 11 14 11 13 15 13 13 10 10 15
3370.0 13 12 9 11 8 11 9 7 8 7
3410.0 11 7 9 10 5 6 5 7 6 8
3450.0 6 5 12 8 6 8 11 6 8 9
3490.0 10 10 11 12 12 15 17 22 25 29
3530.0 21 23 16 12 3 0 8 2 7 7
3570.0 9 8 14 10 7 12 12 4 8 13
3610.0 10 4 3 7 7 11 3 8 6 10
3650.0 10 4 11 6 8 3 10 10 9 13
3690.0 6 11 10 12 6 11 13 9 9 15
3730.0 12 15 8 20 10 22 10 6 14 17
3770.0 12 15 16 14 8 8 16 12 17 10
3810.0 12 15 9 23 11 13 14 10 12 16
3850.0 19 22 13 7 18 19 8 11 15 12
3890.0 18 21 12 13 15 14 16 22 21 14
3930.0 9 18 19 16 20 18 18 16 9 13
##END=
