##TITLE=2-Heptenoic acid
##JCAMP-DX=4.24
##DATA TYPE=INFRARED SPECTRUM
##ORIGIN=Sadtler Research Labs Under US-EPA Contract
##OWNER=NIST Standard Reference Data Program
##CAS REGISTRY NO=18999-28-5
##MOLFORM=C 7 H 12 O 2
##XUNITS=1/CM
##YUNITS=ABSORBANCE
##XFACTOR=1.0
##YFACTOR=0.000089877
##DELTAX=4.0
##FIRSTX=450.0
##LASTX=3966.0
##FIRSTY=0.000000
##MAXX=3966
##MINX=450
##MAXY=0.89877
##MINY=0
##NPOINTS=880
##XYDATA=(X++(Y..Y))
450.0 0 38 31 103 54 86 106 74 146 93
490.0 112 161 216 227 266 314 344 381 415 505
530.0 576 693 766 919 1013 1198 1411 1513 1595 1561
570.0 1540 1483 1370 1192 960 719 553 421 362 379
610.0 424 545 697 769 797 766 721 754 895 994
650.0 1063 913 749 513 411 346 328 335 337 343
690.0 379 406 508 558 518 514 455 394 341 288
730.0 243 217 220 197 190 143 114 81 61 54
770.0 45 46 56 76 66 83 97 114 102 113
810.0 116 98 83 84 94 100 130 144 191 239
850.0 285 321 334 340 325 313 300 281 269 272
890.0 269 265 251 242 244 231 221 206 194 208
930.0 235 260 278 302 315 320 334 372 432 521
970.0 645 793 944 1058 1079 1007 855 677 544 458
1010.0 436 449 493 550 621 662 640 560 449 370
1050.0 334 341 390 454 525 601 672 765 906 1162
1090.0 1589 2315 3366 4555 5274 5277 4679 3677 2979 2805
1130.0 2873 3077 3351 3640 3828 3871 3764 3526 3221 2913
1170.0 2523 2009 1535 1203 1018 923 878 853 802 738
1210.0 673 624 589 576 583 602 624 656 711 762
1250.0 816 840 838 804 776 773 816 862 882 866
1290.0 813 767 728 710 678 648 615 598 605 651
1330.0 746 878 1071 1270 1467 1653 1808 1936 2056 2095
1370.0 1977 1736 1384 1046 796 647 524 432 373 345
1410.0 332 315 330 320 323 332 364 390 418 447
1450.0 475 493 522 533 514 496 435 347 239 177
1490.0 130 91 78 51 63 55 36 35 44 25
1530.0 31 24 38 46 36 27 32 55 40 27
1570.0 41 32 42 31 36 39 36 35 43 46
1610.0 53 71 100 108 149 197 275 391 549 861
1650.0 1329 2011 2605 2615 2231 1302 606 379 302 289
1690.0 271 302 383 483 628 760 955 1070 1143 1200
1730.0 1420 1807 2425 3353 4596 6047 7656 9291 10000 9791
1770.0 8537 6583 4679 3327 2346 1720 1295 1022 805 641
1810.0 508 408 328 274 235 204 175 156 146 133
1850.0 115 101 93 83 79 77 63 58 61 56
1890.0 59 55 51 48 46 43 42 41 42 34
1930.0 35 36 38 41 42 42 44 43 46 44
1970.0 42 42 44 42 39 44 46 46 47 49
2010.0 48 49 45 49 46 47 51 53 54 56
2050.0 55 51 48 46 45 40 35 36 39 37
2090.0 36 38 36 34 31 31 30 28 30 30
2130.0 30 29 29 27 28 28 28 25 29 28
2170.0 32 29 30 29 32 32 31 36 37 37
2210.0 39 40 40 42 41 39 42 39 40 37
2250.0 38 36 31 32 30 30 27 32 30 27
2290.0 25 25 24 24 25 24 30 30 29 38
2330.0 38 40 41 42 45 39 44 41 51 39
2370.0 42 42 37 34 33 36 35 35 34 38
2410.0 35 33 34 38 36 35 34 36 36 36
2450.0 33 38 42 42 43 44 42 41 44 42
2490.0 42 42 42 43 46 48 50 53 52 51
2530.0 50 53 53 55 57 56 64 58 56 62
2570.0 62 59 57 56 57 57 56 57 59 62
2610.0 62 58 57 61 61 61 65 65 72 72
2650.0 77 77 84 81 81 82 85 92 93 91
2690.0 87 88 91 92 94 89 88 81 83 84
2730.0 86 87 96 100 108 109 108 105 101 105
2770.0 106 108 105 111 115 125 131 138 153 164
2810.0 176 179 191 199 214 236 267 311 369 447
2850.0 548 673 837 1038 1236 1425 1518 1587 1639 1597
2890.0 1507 1350 1179 1122 1147 1237 1401 1637 1972 2414
2930.0 2950 3477 3830 3898 3597 3147 2691 2505 2625 2980
2970.0 3393 3301 2787 2046 1301 905 675 548 472 425
3010.0 402 382 373 363 359 346 337 335 331 326
3050.0 318 313 316 315 308 295 276 255 231 212
3090.0 201 187 182 172 169 160 155 152 154 152
3130.0 149 143 137 135 131 132 138 132 131 131
3170.0 131 126 125 125 130 121 117 118 113 108
3210.0 106 110 103 97 96 97 96 90 90 90
3250.0 84 82 77 79 76 75 77 74 68 72
3290.0 66 58 63 62 59 54 52 51 53 52
3330.0 50 59 64 70 65 64 59 65 63 58
3370.0 63 52 59 63 59 61 68 65 69 59
3410.0 62 65 63 58 54 58 47 50 44 49
3450.0 45 56 51 45 48 42 46 48 46 54
3490.0 65 75 84 90 85 79 74 56 51 36
3530.0 44 52 50 64 41 51 69 92 128 183
3570.0 371 909 2295 3761 4249 3943 2463 1116 436 229
3610.0 141 85 80 65 72 63 71 72 84 57
3650.0 43 50 55 74 52 58 28 58 49 76
3690.0 46 53 58 51 64 64 55 69 53 39
3730.0 54 54 48 40 66 34 70 53 57 68
3770.0 51 69 55 66 53 56 68 61 43 70
3810.0 55 66 59 57 58 63 61 53 38 59
3850.0 58 54 50 61 55 55 51 58 43 53
3890.0 48 65 47 54 38 56 65 57 51 47
3930.0 57 56 55 49 70 67 81 63 62 64
##END=
