##TITLE=1-Oxa-6-thiacycloheptadecan-17-one
##JCAMP-DX=4.24
##DATA TYPE=INFRARED SPECTRUM
##ORIGIN=Sadtler Research Labs Under US-EPA Contract
##OWNER=NIST Standard Reference Data Program
##CAS REGISTRY NO=1899-05-4
##MOLFORM=C 15 H 28 O 2 S
##XUNITS=1/CM
##YUNITS=ABSORBANCE
##XFACTOR=1.0
##YFACTOR=0.000069806
##DELTAX=4.0
##FIRSTX=450.0
##LASTX=3966.0
##FIRSTY=0.022687
##MAXX=3966
##MINX=450
##MAXY=0.69806
##MINY=0
##NPOINTS=880
##XYDATA=(X++(Y..Y))
450.0 325 211 221 152 249 224 227 218 231 246
490.0 220 185 145 217 177 152 155 189 236 272
530.0 245 209 119 135 190 196 211 235 211 176
570.0 146 183 188 186 196 206 174 198 191 195
610.0 161 186 324 266 147 38 20 102 173 199
650.0 230 205 178 141 147 170 175 166 197 186
690.0 179 196 220 231 256 263 270 290 294 309
730.0 290 307 279 282 280 277 242 205 160 98
770.0 52 24 45 83 121 166 196 217 232 231
810.0 218 199 147 110 69 0 30 107 163 181
850.0 205 220 223 238 234 240 228 232 254 252
890.0 253 249 247 237 221 208 214 220 220 223
930.0 236 244 258 281 303 319 322 320 328 329
970.0 334 338 334 337 339 355 371 429 491 570
1010.0 656 729 747 698 711 787 852 920 1001 1013
1050.0 1003 996 972 844 705 739 799 858 943 1024
1090.0 1081 1074 1011 915 861 862 921 1041 1195 1355
1130.0 1494 1586 1688 1835 2003 2191 2391 2601 2721 2690
1170.0 2536 2318 2117 1965 1869 1817 1807 1811 1795 1682
1210.0 1623 1815 1977 2070 2172 2316 2399 2430 2377 2283
1250.0 2170 2056 1982 1937 1878 1770 1633 1482 1356 1248
1290.0 1168 1104 1050 991 929 862 784 715 659 643
1330.0 674 766 879 990 1082 1114 1074 976 857 728
1370.0 618 535 491 513 544 508 415 323 262 229
1410.0 203 218 295 437 583 722 857 943 1037 1101
1450.0 1223 1304 1380 1355 1171 953 693 497 364 298
1490.0 240 227 217 189 189 180 137 136 136 119
1530.0 111 101 130 108 117 91 94 65 92 58
1570.0 66 36 66 43 82 63 62 56 75 81
1610.0 86 130 122 152 125 146 131 148 120 152
1650.0 92 147 88 76 88 93 83 130 115 159
1690.0 153 183 219 304 353 467 559 700 851 1081
1730.0 1306 1609 2031 2676 4017 5770 6837 5773 3730 2233
1770.0 1457 1093 821 662 497 392 296 224 176 134
1810.0 110 83 72 53 49 31 33 19 24 16
1850.0 15 16 13 10 14 11 7 7 13 9
1890.0 15 17 13 16 20 21 20 26 20 28
1930.0 24 34 33 35 37 42 39 40 51 46
1970.0 49 51 55 56 51 60 60 68 64 69
2010.0 62 67 69 68 73 74 77 76 79 77
2050.0 77 77 78 77 75 78 80 80 72 70
2090.0 61 59 61 58 59 57 60 56 51 48
2130.0 45 45 45 39 43 40 42 42 43 43
2170.0 44 42 44 41 40 39 38 37 35 33
2210.0 36 33 32 34 36 30 28 33 30 31
2250.0 32 32 31 33 31 38 36 45 51 58
2290.0 67 79 92 100 110 125 110 102 114 100
2330.0 96 93 67 96 127 89 141 97 138 112
2370.0 96 88 84 70 48 22 9 10 4 10
2410.0 5 9 8 5 7 9 11 6 9 8
2450.0 8 8 10 9 10 12 7 10 11 16
2490.0 11 15 15 20 14 17 19 17 22 23
2530.0 24 24 25 22 23 25 23 22 23 29
2570.0 29 25 23 30 30 33 36 42 44 42
2610.0 45 47 55 54 56 60 61 71 73 81
2650.0 80 80 87 89 96 100 106 111 116 122
2690.0 124 123 119 117 108 104 107 104 105 104
2730.0 105 106 105 110 110 112 116 120 124 130
2770.0 133 140 148 158 167 184 196 215 233 254
2810.0 273 304 344 399 460 530 594 671 789 992
2850.0 1344 1954 2811 3592 3839 3488 2865 2267 1859 1660
2890.0 1624 1735 1974 2375 2953 3707 4581 5486 6387 7427
2930.0 8727 9876 10000 9109 7904 6779 5751 4814 3995 3282
2970.0 2655 2123 1709 1391 1123 875 674 533 431 358
3010.0 310 270 244 220 201 187 174 166 158 153
3050.0 152 143 134 126 115 111 103 100 94 93
3090.0 94 80 71 73 75 66 67 67 67 67
3130.0 57 57 53 57 51 48 52 48 54 53
3170.0 54 55 51 48 47 52 51 44 42 44
3210.0 46 49 45 42 39 43 38 37 35 35
3250.0 32 37 34 33 29 25 34 31 29 19
3290.0 25 32 27 22 21 20 22 15 17 14
3330.0 19 15 19 18 13 10 12 10 10 17
3370.0 15 12 4 21 15 11 14 13 8 14
3410.0 8 11 10 17 16 13 21 20 21 18
3450.0 20 25 30 36 36 34 34 40 54 58
3490.0 52 45 36 27 22 14 13 11 17 23
3530.0 29 21 19 18 23 3 12 31 19 51
3570.0 30 20 27 14 47 36 41 23 32 22
3610.0 56 37 40 38 16 59 36 26 35 23
3650.0 76 32 31 43 9 66 21 82 11 49
3690.0 24 47 18 36 23 28 35 32 26 37
3730.0 27 52 46 68 57 21 69 19 36 27
3770.0 12 24 17 28 8 14 15 13 38 44
3810.0 21 29 19 56 20 28 52 53 35 44
3850.0 20 59 46 24 33 38 25 22 51 39
3890.0 55 32 46 57 45 34 16 29 38 32
3930.0 39 52 33 32 19 40 39 27 48 55
##END=
