##TITLE=3-Buten-2-one, 3-methyl-4-phenyl-
##JCAMP-DX=4.24
##DATA TYPE=INFRARED SPECTRUM
##ORIGIN=Sadtler Research Labs Under US-EPA Contract
##OWNER=NIST Standard Reference Data Program
##CAS REGISTRY NO=1901-26-4
##MOLFORM=C 11 H 12 O
##XUNITS=1/CM
##YUNITS=ABSORBANCE
##XFACTOR=1.0
##YFACTOR=0.000065027
##DELTAX=4.0
##FIRSTX=450.0
##LASTX=3966.0
##FIRSTY=0.002146
##MAXX=3966
##MINX=450
##MAXY=0.65027
##MINY=0
##NPOINTS=880
##XYDATA=(X++(Y..Y))
450.0 33 109 16 50 106 137 129 112 175 216
490.0 270 363 401 491 483 429 370 266 177 187
530.0 235 329 319 267 194 144 80 59 60 62
570.0 165 387 700 754 693 419 196 157 153 140
610.0 132 169 175 183 156 107 63 14 0 29
650.0 41 67 95 125 160 310 432 576 814 1084
690.0 1463 1685 1825 1625 1443 1224 1134 1134 1221 1354
730.0 1348 1191 936 724 512 421 380 430 536 726
770.0 892 886 759 516 319 212 190 175 189 200
810.0 216 238 228 195 173 172 164 155 163 204
850.0 263 342 395 427 420 369 305 234 202 158
890.0 149 134 148 184 246 314 395 477 493 490
930.0 447 394 337 279 267 288 354 474 560 581
970.0 516 438 416 454 524 651 788 991 1239 1379
1010.0 1395 1266 1068 938 882 790 674 545 452 423
1050.0 425 442 478 516 580 642 709 789 909 1106
1090.0 1370 1637 1780 1722 1491 1159 862 639 498 403
1130.0 336 289 258 221 200 195 202 207 207 220
1170.0 241 285 331 394 480 617 836 1075 1274 1432
1210.0 1507 1557 1648 1761 2216 3180 4317 5157 5252 4480
1250.0 3234 2125 1455 1136 944 787 666 607 606 650
1290.0 700 725 727 721 731 777 812 818 796 771
1330.0 775 802 853 906 998 1179 1481 1856 2277 2557
1370.0 2501 2252 1869 1565 1505 1481 1353 1114 813 610
1410.0 522 514 546 617 690 785 859 918 941 925
1450.0 877 792 687 566 484 447 427 431 475 572
1490.0 746 899 876 729 483 278 208 179 187 169
1530.0 174 171 189 192 191 190 204 223 249 266
1570.0 294 331 354 372 400 472 579 671 699 676
1610.0 662 732 914 1113 1258 1283 1181 1027 858 797
1650.0 753 799 789 889 1062 1429 2069 3301 5364 8360
1690.0 10000 9852 7966 4980 3254 2299 1774 1300 1066 886
1730.0 810 720 641 562 491 427 342 276 206 175
1770.0 141 133 109 112 112 125 159 168 169 134
1810.0 103 69 62 54 56 52 50 51 52 50
1850.0 56 63 72 75 81 85 86 81 88 88
1890.0 100 99 93 77 58 36 30 35 38 54
1930.0 65 87 97 113 127 133 146 151 135 99
1970.0 63 35 27 21 20 19 16 17 18 21
2010.0 18 25 18 15 12 6 5 4 11 4
2050.0 9 9 8 5 8 11 5 7 5 8
2090.0 6 9 11 11 8 8 3 1 2 1
2130.0 7 5 8 6 5 1 5 9 8 13
2170.0 10 7 8 4 0 3 5 1 1 0
2210.0 3 5 4 2 2 9 5 8 9 12
2250.0 10 11 9 16 12 15 13 16 27 28
2290.0 41 42 52 57 67 85 84 77 80 66
2330.0 54 62 43 76 68 78 58 39 50 40
2370.0 37 57 59 54 36 16 9 6 6 3
2410.0 3 4 5 5 3 7 4 6 7 9
2450.0 8 10 8 10 7 13 12 15 13 14
2490.0 10 9 11 11 11 10 10 11 8 9
2530.0 9 12 16 13 14 18 16 13 20 22
2570.0 23 21 25 23 31 24 24 25 27 23
2610.0 22 23 21 21 16 17 15 16 13 13
2650.0 15 13 11 14 11 12 14 13 16 17
2690.0 19 17 20 18 22 20 18 23 27 30
2730.0 19 32 27 29 27 34 32 27 32 33
2770.0 30 34 40 34 41 44 46 53 61 65
2810.0 66 72 79 81 85 86 95 102 110 121
2850.0 131 145 169 199 226 246 261 276 273 268
2890.0 257 250 243 246 261 279 310 357 442 542
2930.0 656 739 797 804 767 720 678 663 676 704
2970.0 722 710 687 664 648 653 679 705 748 812
3010.0 890 937 979 1017 1091 1203 1264 1254 1163 1067
3050.0 1017 1032 1132 1371 1719 1885 1830 1578 1253 1109
3090.0 1040 947 845 727 615 507 406 315 239 185
3130.0 152 135 121 119 116 108 99 94 73 65
3170.0 53 39 43 41 35 26 35 34 25 35
3210.0 31 27 32 24 21 23 24 18 12 15
3250.0 16 15 17 16 23 13 22 18 21 31
3290.0 25 25 17 24 24 29 25 33 34 37
3330.0 38 39 46 61 81 105 123 144 156 145
3370.0 118 76 67 53 44 51 47 45 39 34
3410.0 28 23 22 27 20 21 26 21 21 19
3450.0 14 12 15 12 11 12 11 18 20 11
3490.0 15 12 6 7 6 6 14 14 10 14
3530.0 15 10 25 16 16 16 25 17 26 26
3570.0 12 26 15 24 18 8 10 14 20 8
3610.0 22 21 13 15 5 22 17 24 20 34
3650.0 32 23 49 26 22 14 20 20 28 27
3690.0 21 19 26 18 21 31 12 10 24 21
3730.0 21 22 13 7 12 19 6 9 4 12
3770.0 16 14 10 11 3 9 17 0 19 4
3810.0 23 0 23 19 14 29 28 27 14 22
3850.0 19 20 19 14 29 29 44 32 26 41
3890.0 31 29 26 30 18 15 22 29 34 36
3930.0 27 31 43 19 25 22 20 33 42 13
##END=
