##TITLE=Benzenesulfonamide, N-butyl-4-methyl-
##JCAMP-DX=4.24
##DATA TYPE=INFRARED SPECTRUM
##ORIGIN=Sadtler Research Labs Under US-EPA Contract
##OWNER=NIST Standard Reference Data Program
##CAS REGISTRY NO=1907-65-9
##MOLFORM=C 11 H 17 N O 2 S
##XUNITS=1/CM
##YUNITS=ABSORBANCE
##XFACTOR=1.0
##YFACTOR=0.000066113
##DELTAX=4.0
##FIRSTX=450.0
##LASTX=3966.0
##FIRSTY=0.029354
##MAXX=3966
##MINX=450
##MAXY=0.66113
##MINY=0
##NPOINTS=880
##XYDATA=(X++(Y..Y))
450.0 444 334 362 452 438 483 671 747 373 424
490.0 517 683 801 711 735 1174 967 713 744 910
530.0 1095 1478 1206 2104 3222 3246 2874 2143 1197 1308
570.0 896 648 1711 2265 2866 3758 2721 2506 1512 687
610.0 746 714 345 604 586 522 714 743 1299 2075
650.0 2630 4090 5186 5906 5490 3716 2787 2370 1563 1036
690.0 917 1059 1076 1080 952 875 841 579 230 464
730.0 464 495 415 315 502 605 388 391 255 157
770.0 165 159 212 264 207 435 607 842 1135 1556
810.0 2235 2376 1787 1276 958 1110 1279 1302 1599 2023
850.0 2241 2522 2402 2164 1955 1337 980 887 804 1301
890.0 1289 520 536 496 554 798 709 675 906 882
930.0 901 783 674 940 1113 1134 1366 1662 2008 2494
970.0 2852 3505 4555 4942 4864 4153 3038 2070 1393 848
1010.0 701 796 756 705 649 481 528 416 318 361
1050.0 305 214 318 184 286 337 401 666 1000 1640
1090.0 2941 3739 3579 2659 1431 924 848 566 590 604
1130.0 605 715 787 1139 2058 3442 5667 8462 10000 9349
1170.0 6962 4369 3117 2571 2227 1948 1965 2071 2304 2447
1210.0 2458 2399 2438 2403 2567 2294 1826 1280 929 684
1250.0 597 423 451 449 443 412 501 554 654 588
1290.0 608 664 772 850 892 842 931 979 1234 1643
1330.0 2442 3512 4808 5955 6529 5641 4476 3355 2722 2700
1370.0 2905 3063 3432 3709 4506 5497 5550 4610 3373 2587
1410.0 2794 2982 2736 2271 1765 1376 1181 917 910 957
1450.0 956 913 949 987 1139 1149 1111 1110 1142 1027
1490.0 1079 1166 1110 996 675 415 413 294 290 344
1530.0 280 206 258 129 304 257 162 217 331 239
1570.0 295 221 302 406 347 421 647 731 864 707
1610.0 565 485 411 300 365 314 354 373 363 347
1650.0 388 263 367 312 314 249 272 230 213 143
1690.0 154 121 129 26 69 116 100 76 90 130
1730.0 196 96 137 124 167 166 198 118 185 172
1770.0 143 123 143 191 217 184 266 254 245 184
1810.0 139 132 129 90 131 96 161 129 107 161
1850.0 167 107 147 126 141 126 87 119 184 140
1890.0 156 150 206 256 231 220 278 210 185 158
1930.0 113 145 154 127 148 139 143 150 175 121
1970.0 143 114 137 142 108 87 167 152 123 133
2010.0 127 174 178 85 124 153 135 134 96 100
2050.0 204 114 108 155 145 166 151 85 154 149
2090.0 104 121 109 107 161 108 149 155 128 145
2130.0 155 108 121 114 119 124 101 89 142 142
2170.0 118 113 142 153 161 99 99 140 123 81
2210.0 105 102 126 132 94 133 152 118 134 105
2250.0 135 144 122 130 149 131 143 147 151 166
2290.0 137 165 173 136 130 92 130 109 43 67
2330.0 126 126 147 28 103 77 24 24 24 34
2370.0 151 131 130 167 141 126 158 123 147 155
2410.0 145 175 146 108 131 154 144 136 123 149
2450.0 180 136 112 136 176 137 120 100 151 183
2490.0 127 133 183 193 197 160 114 192 173 100
2530.0 152 117 150 174 109 151 189 144 189 191
2570.0 130 195 168 154 195 127 170 214 156 153
2610.0 173 172 208 177 116 179 185 152 111 119
2650.0 154 184 144 134 188 211 187 181 177 204
2690.0 207 164 166 207 167 204 195 196 241 243
2730.0 257 288 245 259 293 252 256 218 201 266
2770.0 232 224 236 273 282 265 234 287 279 271
2810.0 266 270 341 349 321 397 397 464 469 502
2850.0 591 670 686 847 973 1121 1317 1448 1611 1697
2890.0 1601 1624 1650 1682 1742 1849 2059 2357 2429 2491
2930.0 2643 2884 3045 3148 3040 2730 2608 2597 2845 3458
2970.0 3990 4605 4950 4869 4186 3288 2463 2248 2032 1768
3010.0 1521 1198 1000 952 879 1059 1171 1108 1116 1101
3050.0 1024 1062 852 867 1017 965 852 806 707 853
3090.0 703 606 677 688 553 496 364 382 376 298
3130.0 197 283 226 259 223 226 235 293 242 265
3170.0 268 236 249 268 174 223 192 222 264 222
3210.0 160 294 259 275 244 209 293 299 176 226
3250.0 213 281 246 196 240 351 260 285 256 302
3290.0 285 227 223 263 216 235 209 268 281 261
3330.0 263 321 270 304 212 293 307 250 262 379
3370.0 364 439 379 462 626 752 846 1146 1229 1299
3410.0 999 701 495 443 318 312 280 274 279 307
3450.0 245 257 225 214 244 274 144 258 258 266
3490.0 259 209 220 359 198 198 213 209 254 201
3530.0 61 272 253 201 201 186 245 344 132 180
3570.0 252 214 216 182 140 274 199 210 218 203
3610.0 195 263 175 247 165 217 195 226 151 175
3650.0 218 242 214 230 203 279 244 176 198 225
3690.0 189 206 107 210 260 190 213 234 206 251
3730.0 178 126 230 179 151 158 164 201 201 194
3770.0 222 246 208 237 205 231 181 164 205 199
3810.0 182 189 204 278 237 206 228 281 254 228
3850.0 127 197 190 153 164 198 214 263 233 264
3890.0 276 284 265 279 209 217 176 221 221 236
3930.0 240 325 349 308 278 324 0 23 24 24
##END=
