##TITLE=Hexadecanedioic acid, dimethyl ester
##JCAMP-DX=4.24
##DATA TYPE=INFRARED SPECTRUM
##ORIGIN=Sadtler Research Labs Under US-EPA Contract
##OWNER=NIST Standard Reference Data Program
##CAS REGISTRY NO=19102-90-0
##MOLFORM=C 18 H 34 O 4
##XUNITS=1/CM
##YUNITS=ABSORBANCE
##XFACTOR=1.0
##YFACTOR=0.000093881
##DELTAX=4.0
##FIRSTX=450.0
##LASTX=3966.0
##FIRSTY=0.017931
##MAXX=3966
##MINX=450
##MAXY=0.93881
##MINY=0
##NPOINTS=880
##XYDATA=(X++(Y..Y))
450.0 191 175 17 100 73 101 90 78 80 76
490.0 56 54 46 69 84 27 54 56 51 63
530.0 51 34 23 0 38 54 46 49 43 43
570.0 69 65 79 76 93 81 110 102 102 106
610.0 108 114 108 94 106 83 129 103 101 86
650.0 95 78 75 73 56 100 73 74 91 105
690.0 118 123 143 169 226 251 275 314 311 307
730.0 280 275 251 241 238 219 214 212 215 211
770.0 206 214 205 190 205 193 205 204 222 247
810.0 272 298 327 347 363 377 392 416 418 417
850.0 411 414 411 399 390 380 373 356 329 297
890.0 258 232 199 187 166 160 143 137 136 130
930.0 119 121 119 126 134 134 148 160 185 212
970.0 242 282 325 373 428 498 567 651 735 817
1010.0 888 936 958 953 921 878 837 778 746 734
1050.0 732 741 766 787 799 812 814 815 832 862
1090.0 915 1001 1118 1244 1343 1398 1430 1465 1538 1640
1130.0 1768 1938 2150 2416 2741 3118 3532 3947 4312 4574
1170.0 4698 4641 4454 4199 3978 3862 3838 3828 3751 3639
1210.0 3512 3402 3307 3249 3219 3227 3241 3267 3274 3249
1250.0 3173 3021 2812 2568 2324 2112 1939 1790 1671 1583
1290.0 1517 1471 1437 1414 1398 1375 1360 1336 1296 1256
1330.0 1235 1248 1304 1390 1492 1600 1682 1691 1625 1489
1370.0 1307 1106 904 719 586 496 443 418 409 441
1410.0 477 554 647 778 960 1304 1834 2208 2083 1776
1450.0 1609 1583 1626 1603 1429 1157 852 632 485 396
1490.0 336 286 257 221 213 208 190 182 178 168
1530.0 158 147 155 146 151 139 143 138 141 133
1570.0 134 126 137 125 119 113 111 113 109 109
1610.0 95 102 105 96 104 94 104 101 108 109
1650.0 120 122 134 132 148 167 178 208 232 279
1690.0 316 377 452 547 644 764 947 1175 1470 1853
1730.0 2434 3143 4032 4893 5689 6212 6799 7138 6748 5596
1770.0 4449 3527 2754 2110 1543 1113 798 589 437 342
1810.0 272 226 181 158 137 118 105 95 89 85
1850.0 80 74 72 67 68 66 63 63 55 55
1890.0 58 56 53 54 49 50 50 53 55 51
1930.0 57 55 57 58 64 65 63 67 68 70
1970.0 68 74 77 79 80 82 86 89 91 93
2010.0 94 98 102 103 105 105 107 106 108 107
2050.0 102 103 96 97 95 87 87 82 76 70
2090.0 68 64 57 54 48 47 43 36 32 35
2130.0 32 32 33 32 32 28 28 29 33 30
2170.0 27 28 26 25 22 22 21 21 18 19
2210.0 16 19 16 16 19 19 12 12 13 10
2250.0 17 15 15 14 17 16 20 18 19 21
2290.0 23 27 28 34 30 31 25 23 24 13
2330.0 11 24 13 4 37 12 28 17 17 23
2370.0 31 26 42 34 25 15 14 13 16 10
2410.0 11 8 6 6 1 5 8 4 5 4
2450.0 8 7 7 6 3 8 7 6 8 6
2490.0 10 11 11 7 11 12 15 12 11 16
2530.0 20 19 22 22 26 25 22 27 31 25
2570.0 27 30 34 39 39 43 48 47 51 57
2610.0 54 55 59 61 64 60 72 75 78 79
2650.0 81 85 89 93 98 103 110 109 117 117
2690.0 117 113 112 107 102 102 102 101 97 98
2730.0 99 101 108 102 109 108 117 121 129 138
2770.0 142 150 164 172 188 209 230 251 282 308
2810.0 337 379 426 485 549 635 749 917 1178 1567
2850.0 2130 2859 3675 4258 4155 3527 2837 2308 1998 1862
2890.0 1853 1975 2221 2579 3045 3614 4295 5129 6291 7794
2930.0 9361 10000 9408 8137 6808 5738 4966 4424 3894 3174
2970.0 2441 1954 1623 1397 1232 1111 1028 962 901 828
3010.0 762 707 659 621 590 543 487 429 381 339
3050.0 298 269 242 219 203 193 180 169 159 155
3090.0 147 139 137 126 122 113 101 97 95 91
3130.0 81 69 63 66 60 54 54 49 51 38
3170.0 44 37 35 37 32 32 36 29 27 28
3210.0 21 21 14 20 15 12 8 14 8 14
3250.0 18 11 10 10 13 14 19 12 16 16
3290.0 20 13 14 13 12 15 11 13 14 13
3330.0 15 16 19 21 11 13 21 16 18 20
3370.0 21 24 13 16 21 20 18 22 26 23
3410.0 26 15 20 16 20 27 28 22 25 33
3450.0 29 37 42 53 54 55 53 52 58 60
3490.0 65 69 64 62 51 48 37 19 23 16
3530.0 9 9 10 1 8 9 14 13 6 28
3570.0 29 24 32 25 27 28 32 11 27 18
3610.0 38 28 37 23 26 45 32 41 35 28
3650.0 41 31 29 31 24 35 26 37 20 35
3690.0 24 28 28 24 43 39 24 22 27 33
3730.0 32 36 43 39 59 23 48 26 21 28
3770.0 23 25 29 35 20 20 25 44 37 46
3810.0 29 40 32 43 45 35 43 29 32 25
3850.0 39 57 47 45 37 34 32 35 31 43
3890.0 41 40 33 55 46 52 42 25 41 25
3930.0 37 34 51 51 50 32 47 41 47 64
##END=
