##TITLE=Atrazine
##JCAMP-DX=4.24
##DATA TYPE=INFRARED SPECTRUM
##ORIGIN=Sadtler Research Labs Under US-EPA Contract
##OWNER=NIST Standard Reference Data Program
##CAS REGISTRY NO=1912-24-9
##MOLFORM=C 8 H 14 Cl N 5
##XUNITS=1/CM
##YUNITS=ABSORBANCE
##XFACTOR=1.0
##YFACTOR=0.000050586
##DELTAX=4.0
##FIRSTX=450.0
##LASTX=3966.0
##FIRSTY=0.006677
##MAXX=3966
##MINX=450
##MAXY=0.50586
##MINY=0
##NPOINTS=880
##XYDATA=(X++(Y..Y))
450.0 132 115 126 146 167 184 195 211 256 295
490.0 325 321 321 300 319 280 263 259 211 179
530.0 189 188 184 165 175 155 134 125 105 124
570.0 94 83 56 78 67 69 56 36 43 35
610.0 36 37 38 24 35 25 25 33 22 32
650.0 31 5 29 17 17 47 36 34 37 20
690.0 29 49 44 29 45 29 39 47 19 37
730.0 36 40 17 23 16 24 19 19 8 19
770.0 28 18 29 48 59 77 84 135 195 288
810.0 391 438 293 193 120 118 127 119 122 108
850.0 106 85 92 98 126 141 173 224 244 254
890.0 234 225 212 220 227 256 276 294 317 318
930.0 297 257 207 187 185 182 189 206 235 276
970.0 315 373 439 500 520 472 393 310 232 193
1010.0 161 150 133 131 117 128 157 185 216 265
1050.0 276 243 206 178 137 128 121 105 121 114
1090.0 101 101 111 131 150 151 192 222 278 333
1130.0 392 445 544 630 678 672 572 502 516 612
1170.0 796 936 960 858 672 491 382 349 373 404
1210.0 426 455 472 463 416 369 317 309 317 371
1250.0 430 525 625 717 718 635 524 435 371 366
1290.0 381 437 528 685 864 1040 1193 1256 1266 1267
1330.0 1314 1407 1528 1615 1591 1453 1209 968 824 796
1370.0 892 1063 1164 1230 1200 1089 963 876 851 871
1410.0 889 896 888 823 702 581 514 537 562 634
1450.0 708 786 912 1008 1119 1209 1300 1411 1601 1916
1490.0 2297 2728 3109 3301 3288 3060 2864 2712 2598 2487
1530.0 2421 2458 2620 2864 3208 3759 4587 5580 6585 7376
1570.0 8351 9485 10000 8849 7222 5122 3553 2484 1784 1354
1610.0 1061 861 727 606 512 420 357 307 255 234
1650.0 205 195 156 147 132 128 128 110 119 120
1690.0 109 108 108 99 89 80 80 87 76 83
1730.0 76 80 73 71 71 71 62 50 51 41
1770.0 41 38 32 32 31 31 43 31 31 32
1810.0 31 33 33 33 33 33 33 33 33 33
1850.0 33 33 33 32 32 31 24 23 34 23
1890.0 23 23 23 23 23 24 24 23 23 23
1930.0 23 20 21 19 19 15 15 15 15 15
1970.0 14 14 13 16 15 15 15 15 15 15
2010.0 15 15 15 15 16 16 16 16 16 16
2050.0 16 16 16 16 16 16 16 16 17 17
2090.0 17 17 17 17 17 17 17 17 17 17
2130.0 17 16 16 17 16 13 18 18 18 18
2170.0 17 17 17 8 18 17 17 17 17 17
2210.0 17 17 17 17 17 17 17 17 16 25
2250.0 26 26 26 26 26 26 26 26 33 34
2290.0 35 35 45 43 44 43 40 34 32 39
2330.0 34 34 34 43 33 33 33 24 30 39
2370.0 34 33 33 33 34 22 22 22 22 23
2410.0 23 24 21 22 29 23 21 21 21 33
2450.0 30 31 31 32 30 31 31 34 40 40
2490.0 40 33 40 40 40 40 31 29 40 37
2530.0 38 30 30 30 30 31 19 19 20 20
2570.0 19 20 20 18 18 18 18 18 19 19
2610.0 19 19 19 18 19 18 18 7 18 18
2650.0 17 17 9 19 16 17 17 18 18 18
2690.0 18 18 18 18 19 24 27 29 29 29
2730.0 28 39 28 28 28 36 29 27 39 39
2770.0 39 38 38 38 30 40 30 36 41 40
2810.0 39 38 50 50 50 49 49 49 60 60
2850.0 69 71 81 95 108 139 181 231 282 314
2890.0 306 276 246 236 238 260 284 305 320 350
2930.0 382 426 476 511 512 460 410 371 379 452
2970.0 588 756 904 977 945 786 576 360 238 168
3010.0 129 113 91 79 69 59 56 43 44 34
3050.0 34 34 34 34 34 33 29 36 24 26
3090.0 33 25 34 35 35 26 35 35 45 36
3130.0 36 36 37 38 32 27 29 27 17 17
3170.0 18 28 16 17 17 18 18 18 18 18
3210.0 19 19 19 18 10 16 10 10 10 10
3250.0 10 10 10 10 10 10 10 10 9 10
3290.0 18 11 11 11 11 11 12 9 20 10
3330.0 1 11 12 12 12 12 12 11 11 11
3370.0 11 11 11 3 11 13 12 22 22 21
3410.0 32 31 50 61 78 108 158 240 322 433
3450.0 517 562 560 549 484 414 293 190 115 74
3490.0 63 43 34 34 34 24 25 13 26 14
3530.0 23 14 14 14 16 24 16 16 15 15
3570.0 28 20 25 25 25 17 16 7 17 16
3610.0 26 27 26 22 16 27 26 19 17 16
3650.0 27 17 26 16 19 21 27 27 27 21
3690.0 26 17 18 28 28 19 28 18 18 30
3730.0 32 33 29 29 29 37 30 28 28 19
3770.0 32 26 19 31 31 24 22 31 38 29
3810.0 39 29 40 30 30 30 30 30 41 35
3850.0 31 38 42 39 40 41 40 40 51 48
3890.0 42 41 51 45 42 41 52 42 42 41
3930.0 41 52 52 52 52 57 0 4 4 4
##END=
