##TITLE=Benzoic acid, 3,4,5-trimethoxy-, methyl ester
##JCAMP-DX=4.24
##DATA TYPE=INFRARED SPECTRUM
##ORIGIN=Sadtler Research Labs Under US-EPA Contract
##OWNER=NIST Standard Reference Data Program
##CAS REGISTRY NO=1916-07-0
##MOLFORM=C 11 H 14 O 5
##XUNITS=1/CM
##YUNITS=ABSORBANCE
##XFACTOR=1.0
##YFACTOR=0.000153857
##DELTAX=4.0
##FIRSTX=450.0
##LASTX=3966.0
##FIRSTY=0.010001
##MAXX=3966
##MINX=450
##MAXY=1.53857
##MINY=0
##NPOINTS=880
##XYDATA=(X++(Y..Y))
450.0 65 125 134 105 82 77 62 47 34 38
490.0 46 26 20 20 30 17 14 33 50 64
530.0 80 83 88 71 57 34 24 18 9 11
570.0 4 17 5 1 6 3 4 5 11 7
610.0 8 16 5 13 16 18 25 22 21 36
650.0 47 59 70 76 83 97 86 77 75 72
690.0 92 103 126 158 203 269 366 494 608 660
730.0 601 470 315 223 201 257 412 696 1081 1264
770.0 1182 952 671 426 273 190 138 80 47 36
810.0 28 31 28 28 28 34 37 44 62 88
850.0 115 144 170 201 240 265 282 310 365 461
890.0 598 680 657 513 332 229 187 186 205 227
930.0 244 234 219 186 162 151 150 151 160 171
970.0 191 226 274 349 468 640 901 1257 1715 2267
1010.0 2867 3225 3027 2355 1748 1612 1898 2318 2447 2107
1050.0 1504 1019 784 708 727 806 937 1137 1402 1746
1090.0 2170 2663 3176 3699 4197 4678 5050 5275 5266 5064
1130.0 4764 4375 3854 3190 2492 1916 1558 1407 1424 1628
1170.0 2026 2536 2951 3118 3015 2790 2598 2601 2904 3607
1210.0 4767 6361 8165 9555 10000 9091 7448 5802 4530 3622
1250.0 2929 2352 1854 1457 1185 1023 946 933 979 1058
1290.0 1159 1252 1334 1406 1513 1703 2049 2643 3604 5016
1330.0 6822 8542 9312 8377 6117 3866 2385 1577 1143 890
1370.0 741 646 608 603 642 743 943 1314 1948 2819
1410.0 3680 4066 3835 3184 2725 2740 3020 3040 2577 2003
1450.0 1771 1996 2292 2439 2349 2129 1850 1583 1490 1667
1490.0 2090 2600 2845 2642 2044 1350 891 624 503 459
1530.0 434 436 439 445 468 510 562 633 787 1007
1570.0 1332 1763 2270 2728 2887 2724 2241 1686 1216 890
1610.0 670 528 423 359 297 266 230 208 196 180
1650.0 165 156 162 158 156 149 138 140 136 160
1690.0 215 308 383 432 409 379 371 426 610 1041
1730.0 2154 4324 7119 8030 6702 3476 1636 891 601 450
1770.0 393 400 458 496 449 330 221 145 101 86
1810.0 67 52 37 27 14 6 7 12 16 17
1850.0 26 26 22 13 10 3 8 11 12 14
1890.0 11 14 12 9 5 2 2 1 0 4
1930.0 7 6 9 10 19 28 40 52 62 67
1970.0 72 69 62 57 54 56 60 69 77 85
2010.0 94 103 108 109 104 97 89 78 69 59
2050.0 47 37 31 26 21 23 23 22 26 30
2090.0 36 44 53 62 75 85 95 97 96 90
2130.0 79 69 62 59 56 51 46 41 31 24
2170.0 18 15 14 11 9 5 3 0 0 0
2210.0 0 1 4 5 5 6 3 3 5 6
2250.0 11 16 21 25 28 24 20 17 14 12
2290.0 13 11 9 10 10 11 13 13 18 21
2330.0 19 17 16 29 25 27 23 20 22 15
2370.0 18 21 21 18 12 9 3 3 0 2
2410.0 4 6 9 13 16 17 20 22 23 21
2450.0 21 23 23 22 20 23 21 20 20 22
2490.0 23 21 23 22 22 22 23 25 22 21
2530.0 22 21 22 24 28 34 36 39 42 43
2570.0 45 44 43 44 43 44 47 48 51 52
2610.0 52 50 51 51 54 56 57 57 55 51
2650.0 50 49 46 44 43 42 42 42 38 36
2690.0 32 29 28 28 26 27 30 31 33 34
2730.0 37 37 42 45 47 48 51 51 51 53
2770.0 56 59 66 72 82 90 99 113 127 149
2810.0 176 211 254 319 419 583 830 1109 1306 1351
2850.0 1252 1049 837 700 658 665 698 727 749 774
2890.0 808 840 862 869 884 928 997 1075 1133 1183
2930.0 1266 1438 1767 2250 2709 2941 3028 3055 2942 2553
2970.0 1937 1472 1239 1128 1105 1159 1282 1477 1698 1834
3010.0 1753 1469 1113 842 697 609 529 456 397 354
3050.0 326 306 289 279 274 271 271 271 263 252
3090.0 241 233 223 208 192 171 151 131 112 97
3130.0 88 76 69 64 56 53 53 49 45 40
3170.0 37 41 39 37 33 30 30 29 24 22
3210.0 21 18 18 17 15 14 12 11 9 11
3250.0 7 10 9 7 8 7 9 8 9 9
3290.0 10 4 9 9 12 10 11 13 16 12
3330.0 15 18 13 17 17 13 9 13 9 8
3370.0 8 8 12 6 9 7 9 8 5 8
3410.0 7 6 8 13 11 11 14 14 13 14
3450.0 20 35 45 53 52 38 23 17 10 3
3490.0 6 5 7 8 8 10 7 6 3 2
3530.0 6 8 5 1 3 3 4 2 8 7
3570.0 12 12 24 41 46 42 24 9 3 8
3610.0 4 4 2 3 3 8 8 5 4 5
3650.0 2 4 4 6 6 1 5 0 2 7
3690.0 7 3 6 1 0 3 3 7 2 1
3730.0 6 6 2 4 6 6 6 8 2 5
3770.0 3 3 2 1 4 4 4 4 4 7
3810.0 6 3 5 0 0 7 6 1 1 7
3850.0 5 14 8 7 5 2 8 8 11 3
3890.0 10 1 4 7 14 5 3 5 6 0
3930.0 0 4 6 7 2 5 16 13 8 16
##END=
