##TITLE=Pentanedioic acid, 3,3-dimethyl-, dimethyl ester
##JCAMP-DX=4.24
##DATA TYPE=INFRARED SPECTRUM
##ORIGIN=Sadtler Research Labs Under US-EPA Contract
##OWNER=NIST Standard Reference Data Program
##CAS REGISTRY NO=19184-67-9
##MOLFORM=C 9 H 16 O 4
##XUNITS=1/CM
##YUNITS=ABSORBANCE
##XFACTOR=1.0
##YFACTOR=0.000082227
##DELTAX=4.0
##FIRSTX=450.0
##LASTX=3966.0
##FIRSTY=0.012827
##MAXX=3966
##MINX=450
##MAXY=0.82227
##MINY=0
##NPOINTS=880
##XYDATA=(X++(Y..Y))
450.0 156 103 128 83 81 201 70 130 104 71
490.0 131 114 64 53 49 53 60 71 88 56
530.0 57 44 37 53 40 6 22 49 36 27
570.0 49 55 54 51 59 88 101 99 78 109
610.0 107 116 110 91 101 113 129 149 123 99
650.0 77 83 58 57 50 43 48 37 51 42
690.0 52 36 57 50 58 99 132 161 182 189
730.0 183 184 173 153 135 134 125 136 122 130
770.0 136 138 148 126 135 140 134 141 146 152
810.0 155 176 182 186 196 215 245 258 289 302
850.0 307 326 324 312 301 312 308 314 331 346
890.0 368 363 351 327 293 291 278 267 248 224
930.0 198 163 134 109 90 84 67 66 67 79
970.0 85 98 115 147 166 203 254 332 474 709
1010.0 1050 1466 1854 2095 2124 1956 1644 1303 1009 768
1050.0 594 459 366 322 299 292 295 317 352 410
1090.0 498 640 855 1151 1519 1880 2171 2390 2598 2855
1130.0 3238 3741 4298 4868 5374 5785 6077 6138 5883 5339
1170.0 4679 4075 3630 3370 3272 3305 3426 3615 3851 4156
1210.0 4486 4794 5035 5169 5150 4968 4639 4163 3605 3070
1250.0 2626 2281 2031 1834 1689 1586 1526 1515 1531 1514
1290.0 1448 1331 1198 1089 1018 1009 1061 1189 1390 1662
1330.0 1981 2291 2552 2704 2786 2840 2894 2821 2555 2191
1370.0 1867 1619 1307 982 724 585 526 499 447 415
1410.0 406 442 491 547 666 1003 1659 2301 2523 2079
1450.0 1437 1125 1009 965 984 1042 1063 983 797 587
1490.0 408 294 235 191 177 159 135 134 133 117
1530.0 113 109 124 123 118 113 116 127 127 113
1570.0 113 113 123 115 116 119 118 121 116 122
1610.0 109 105 112 96 103 82 101 93 95 93
1650.0 104 105 104 91 103 110 125 132 158 188
1690.0 207 246 312 375 450 534 651 797 979 1246
1730.0 1676 2259 3093 4238 5879 7744 9393 10000 9045 7223
1770.0 5354 3778 2569 1739 1155 788 542 402 298 238
1810.0 191 157 131 113 100 87 75 67 62 59
1850.0 50 49 46 48 52 53 48 50 48 49
1890.0 47 44 43 40 40 40 42 42 42 40
1930.0 41 44 45 45 46 49 56 53 55 57
1970.0 55 55 51 53 54 61 65 66 71 72
2010.0 84 91 100 108 114 119 124 122 118 114
2050.0 107 102 94 93 89 86 85 83 75 72
2090.0 68 62 55 51 46 44 44 40 37 36
2130.0 31 31 29 26 25 27 23 19 21 20
2170.0 21 18 19 18 14 10 9 11 10 6
2210.0 8 6 5 7 10 10 8 10 16 14
2250.0 14 9 8 5 7 6 11 12 12 16
2290.0 15 18 23 24 29 32 28 29 33 30
2330.0 37 24 22 22 29 29 34 20 11 28
2370.0 29 23 22 26 22 14 9 10 5 6
2410.0 8 5 7 8 6 5 6 6 6 5
2450.0 4 5 3 6 6 4 5 4 6 3
2490.0 6 7 5 5 0 3 3 1 5 3
2530.0 4 3 5 5 7 7 9 7 10 7
2570.0 9 11 14 14 13 16 21 21 25 25
2610.0 25 24 24 25 26 22 23 24 22 24
2650.0 26 26 25 30 27 23 23 20 20 17
2690.0 16 15 18 18 18 18 18 24 27 30
2730.0 33 36 40 39 41 45 46 44 45 42
2770.0 43 42 48 49 54 52 51 51 53 57
2810.0 64 76 85 102 122 148 177 229 326 450
2850.0 536 529 450 376 367 416 505 634 745 828
2890.0 864 879 884 904 935 998 1085 1167 1234 1277
2930.0 1333 1416 1546 1676 1845 2140 2797 3708 4286 4260
2970.0 3494 2635 2082 1754 1591 1466 1338 1207 1063 917
3010.0 789 696 634 615 605 577 527 446 370 304
3050.0 259 225 203 178 163 155 151 154 147 137
3090.0 137 136 131 121 114 106 101 96 87 81
3130.0 75 72 69 62 54 57 55 54 46 49
3170.0 49 48 51 47 48 52 53 49 47 41
3210.0 39 42 42 40 35 36 34 32 39 29
3250.0 28 25 26 28 25 22 21 24 25 22
3290.0 24 20 24 26 27 22 18 23 22 24
3330.0 19 23 26 29 26 17 23 20 27 30
3370.0 21 20 14 23 20 23 19 17 23 28
3410.0 25 20 19 18 23 24 21 22 20 23
3450.0 27 27 23 29 34 45 47 57 67 82
3490.0 86 75 70 60 48 32 26 13 5 7
3530.0 12 7 0 9 10 10 11 11 10 17
3570.0 20 24 24 18 16 10 13 6 6 7
3610.0 20 9 16 11 2 20 10 20 11 8
3650.0 23 16 5 22 12 23 17 26 10 24
3690.0 12 14 5 1 20 26 21 25 17 7
3730.0 18 31 30 15 35 19 44 30 27 25
3770.0 20 20 24 26 14 14 13 31 30 30
3810.0 19 26 42 37 24 15 32 43 30 18
3850.0 33 43 32 34 33 35 33 32 29 35
3890.0 27 25 35 37 41 37 23 22 27 21
3930.0 40 21 15 41 29 25 49 26 40 29
##END=
