##TITLE=2H-Pyran-2-carboxaldehyde, 3,4-dihydro-2,5-dimethyl-
##JCAMP-DX=4.24
##DATA TYPE=INFRARED SPECTRUM
##ORIGIN=Sadtler Research Labs Under US-EPA Contract
##OWNER=NIST Standard Reference Data Program
##CAS REGISTRY NO=1920-21-4
##MOLFORM=C 8 H 12 O 2
##XUNITS=1/CM
##YUNITS=ABSORBANCE
##XFACTOR=1.0
##YFACTOR=0.000093829
##DELTAX=4.0
##FIRSTX=450.0
##LASTX=3966.0
##FIRSTY=0.000000
##MAXX=3966
##MINX=450
##MAXY=0.93829
##MINY=0
##NPOINTS=880
##XYDATA=(X++(Y..Y))
450.0 0 439 412 686 561 413 659 574 397 207
490.0 194 295 240 320 442 503 563 532 598 545
530.0 408 406 403 441 372 206 201 241 437 424
570.0 315 347 392 442 523 498 421 408 491 460
610.0 476 512 401 450 448 390 393 345 348 345
650.0 328 353 388 449 475 568 727 784 966 964
690.0 989 937 773 669 585 520 519 523 585 722
730.0 821 1047 930 834 878 985 817 686 638 556
770.0 578 646 617 673 660 646 556 519 437 385
810.0 389 415 368 402 415 539 671 841 1051 1178
850.0 1216 1132 1010 955 947 1043 1165 1232 1319 1247
890.0 1101 941 810 771 779 827 901 915 901 888
930.0 839 815 799 803 771 703 664 607 574 553
970.0 526 579 596 674 804 955 1140 1304 1393 1393
1010.0 1290 1195 1051 979 909 843 754 662 606 545
1050.0 512 543 582 757 957 1120 1236 1287 1216 1205
1090.0 1055 1090 1283 1474 1644 1700 1729 1884 2336 3183
1130.0 4079 4914 5501 6033 6612 7529 8801 9935 10000 9252
1170.0 7671 5802 4114 2964 2475 2341 2311 2267 2122 1922
1210.0 1641 1323 1079 948 938 986 1099 1225 1329 1456
1250.0 1524 1576 1570 1460 1256 1050 861 677 555 479
1290.0 440 424 416 422 428 428 446 475 508 546
1330.0 559 549 516 491 501 521 575 661 790 993
1370.0 1219 1459 1640 1644 1519 1226 912 652 503 425
1410.0 404 429 438 520 621 797 988 1256 1512 1707
1450.0 1881 1929 1773 1611 1402 1117 849 627 481 409
1490.0 335 326 298 287 280 250 267 273 248 277
1530.0 263 268 269 246 268 272 270 252 275 292
1570.0 285 294 302 283 311 295 303 310 308 330
1610.0 332 336 357 373 407 470 519 624 722 859
1650.0 944 1090 1406 1834 2665 3362 3712 3775 3351 2628
1690.0 1869 1539 1316 1142 999 874 854 835 946 1272
1730.0 1802 2902 4641 6381 8154 9110 8213 6788 4469 2419
1770.0 1422 1013 815 708 658 662 677 675 665 621
1810.0 548 481 424 398 378 365 369 363 354 347
1850.0 346 333 310 304 282 274 282 280 274 269
1890.0 262 262 253 252 251 248 249 240 236 235
1930.0 236 240 240 237 239 237 239 233 232 229
1970.0 226 232 230 232 234 224 225 230 231 235
2010.0 236 240 238 251 260 260 261 260 260 251
2050.0 245 233 226 226 218 218 218 213 211 213
2090.0 212 212 207 207 207 208 206 207 206 204
2130.0 202 202 202 204 208 207 207 207 202 199
2170.0 196 198 201 205 201 204 206 203 204 204
2210.0 203 200 203 202 204 197 197 205 207 211
2250.0 206 206 206 211 219 219 222 220 221 223
2290.0 218 216 212 212 208 205 197 190 173 175
2330.0 177 182 185 165 184 191 190 196 197 218
2370.0 224 214 208 197 190 186 187 184 186 179
2410.0 176 175 173 170 166 165 164 167 167 168
2450.0 171 177 177 181 181 180 176 179 185 188
2490.0 187 186 183 184 179 180 178 182 183 184
2530.0 183 177 178 182 184 185 192 196 196 194
2570.0 200 203 204 206 209 208 213 212 214 214
2610.0 221 229 234 233 236 244 253 259 269 284
2650.0 292 312 334 361 408 481 562 663 741 793
2690.0 810 813 804 794 775 740 690 647 607 582
2730.0 570 579 614 662 707 744 748 722 680 665
2770.0 682 739 882 1157 1564 2061 2611 3136 3293 3026
2810.0 2656 2201 1714 1336 1075 934 899 956 1118 1371
2850.0 1681 1974 2210 2410 2521 2488 2407 2274 2157 2080
2890.0 2128 2250 2354 2441 2506 2646 2907 3347 3992 4697
2930.0 5222 5643 5582 4838 3880 3071 2530 2358 2535 2824
2970.0 3029 3053 2847 2654 2780 2573 2323 1963 1486 1001
3010.0 676 498 423 425 438 471 485 477 478 446
3050.0 441 469 534 686 905 1145 1270 1264 1113 900
3090.0 632 458 400 363 328 315 307 298 293 284
3130.0 270 262 255 248 243 228 222 228 230 219
3170.0 214 214 212 216 213 220 218 215 215 221
3210.0 223 226 220 218 212 214 204 198 203 203
3250.0 205 198 193 196 192 188 197 207 201 198
3290.0 200 197 195 198 192 198 204 199 205 200
3330.0 189 193 203 200 188 182 182 185 191 189
3370.0 191 187 192 194 193 191 196 193 196 194
3410.0 193 197 191 195 198 204 204 185 205 203
3450.0 210 218 237 267 294 311 327 335 333 313
3490.0 295 264 235 210 200 195 192 191 189 191
3530.0 186 187 190 181 184 188 202 192 185 192
3570.0 194 189 211 206 207 197 196 179 184 173
3610.0 173 175 180 183 180 180 169 174 183 188
3650.0 182 183 179 183 192 180 167 174 188 180
3690.0 186 172 176 183 186 180 181 181 177 169
3730.0 168 175 176 182 179 188 186 182 208 203
3770.0 195 183 192 180 178 168 168 176 201 193
3810.0 193 166 186 188 194 197 208 200 201 207
3850.0 214 211 212 203 206 227 190 186 204 209
3890.0 194 213 175 182 203 218 218 213 210 202
3930.0 220 219 198 181 199 187 210 214 192 217
##END=
