##TITLE=Pentadecane, 2,6,10,14-tetramethyl-
##JCAMP-DX=4.24
##DATA TYPE=INFRARED SPECTRUM
##ORIGIN=Sadtler Research Labs Under US-EPA Contract
##OWNER=NIST Standard Reference Data Program
##CAS REGISTRY NO=1921-70-6
##MOLFORM=C 19 H 40
##XUNITS=1/CM
##YUNITS=ABSORBANCE
##XFACTOR=1.0
##YFACTOR=0.000114496
##DELTAX=4.0
##FIRSTX=450.0
##LASTX=3966.0
##FIRSTY=0.191323
##MAXX=3966
##MINX=450
##MAXY=1.14496
##MINY=0
##NPOINTS=880
##XYDATA=(X++(Y..Y))
450.0 1671 984 172 409 236 555 58 563 533 539
490.0 7 211 684 717 379 563 605 495 509 463
530.0 469 535 457 500 472 531 448 656 452 470
570.0 535 520 589 429 532 437 508 468 517 474
610.0 499 491 466 481 497 488 460 490 469 475
650.0 452 485 464 450 471 487 467 443 485 458
690.0 469 459 484 468 483 488 482 518 512 541
730.0 534 560 548 538 531 494 501 476 482 433
770.0 424 417 475 440 466 457 461 461 430 481
810.0 437 452 489 487 448 478 464 490 446 454
850.0 479 443 447 437 465 424 432 425 430 424
890.0 424 436 430 448 451 475 471 501 498 507
930.0 501 503 498 476 479 463 467 445 447 449
970.0 453 444 447 435 422 419 403 404 392 402
1010.0 388 388 390 387 391 392 404 402 416 415
1050.0 417 406 412 400 395 393 383 391 384 396
1090.0 383 385 376 390 395 387 390 393 403 399
1130.0 424 433 458 484 519 536 554 571 591 620
1170.0 619 571 497 466 439 430 414 417 429 422
1210.0 423 411 412 399 410 395 404 404 412 412
1250.0 403 401 392 395 399 420 421 429 430 437
1290.0 432 431 439 444 452 457 475 474 498 517
1330.0 545 570 593 603 605 636 681 745 813 924
1370.0 1059 1179 1268 1339 1317 1143 859 620 510 445
1410.0 426 405 399 402 414 435 476 553 658 791
1450.0 941 1113 1323 1523 1619 1552 1319 1010 761 591
1490.0 496 432 393 349 328 309 288 272 264 255
1530.0 244 242 238 239 231 236 227 226 221 220
1570.0 220 216 219 214 217 211 214 209 208 208
1610.0 207 206 199 203 201 202 198 204 199 195
1650.0 195 193 192 190 193 185 189 185 186 180
1690.0 183 183 180 181 182 182 173 179 180 179
1730.0 175 178 175 168 172 164 164 156 159 153
1770.0 155 149 148 143 141 141 137 134 129 134
1810.0 130 128 125 121 111 119 120 114 115 114
1850.0 114 110 112 110 110 111 105 112 103 103
1890.0 101 103 101 104 100 99 97 97 96 91
1930.0 95 90 90 84 85 77 74 76 74 70
1970.0 72 70 68 70 65 65 64 70 66 64
2010.0 62 63 65 64 61 64 62 54 59 51
2050.0 53 49 45 51 48 51 47 47 42 42
2090.0 40 39 40 39 42 36 37 33 36 32
2130.0 30 30 32 32 25 27 23 27 23 26
2170.0 25 25 22 25 25 21 18 19 17 13
2210.0 13 9 7 8 5 7 2 4 0 4
2250.0 4 8 2 6 8 7 13 13 15 15
2290.0 16 15 25 21 24 21 28 21 29 37
2330.0 30 35 26 39 32 39 30 21 43 34
2370.0 31 27 44 35 27 20 23 21 21 17
2410.0 22 21 21 23 21 20 19 24 20 22
2450.0 20 21 23 21 22 23 23 23 27 27
2490.0 28 30 32 35 34 43 39 41 38 45
2530.0 43 48 46 45 51 50 52 50 61 53
2570.0 66 66 70 74 79 82 86 93 94 101
2610.0 100 103 103 109 107 110 114 113 111 107
2650.0 110 107 112 110 111 114 117 124 118 127
2690.0 126 129 129 135 137 142 149 161 174 188
2730.0 204 204 201 190 184 173 174 168 172 173
2770.0 183 188 193 210 222 243 265 292 316 338
2810.0 374 413 457 502 563 629 732 868 1105 1505
2850.0 2109 2716 3056 3121 3183 3430 3874 4346 4434 4086
2890.0 3797 3838 4164 4773 5475 6059 6351 6571 7108 7832
2930.0 8668 9085 8811 7942 6961 6387 6675 7943 9622 10000
2970.0 8419 5883 3625 2268 1561 1148 879 688 563 471
3010.0 404 357 325 286 270 251 235 223 218 200
3050.0 199 204 186 188 189 187 176 175 165 150
3090.0 160 155 145 142 129 140 132 131 136 132
3130.0 119 123 110 120 122 113 130 124 125 135
3170.0 130 126 127 118 118 107 102 104 97 86
3210.0 84 66 72 63 59 46 46 38 49 45
3250.0 41 39 43 29 39 31 44 42 40 40
3290.0 33 36 37 36 52 48 42 44 40 40
3330.0 47 43 49 50 39 47 34 35 38 38
3370.0 43 35 22 36 33 47 41 44 45 36
3410.0 20 49 23 47 31 47 36 19 50 26
3450.0 27 22 27 11 42 39 25 21 31 26
3490.0 23 30 29 32 18 13 33 10 38 47
3530.0 36 27 19 31 34 15 9 15 35 53
3570.0 56 44 34 74 69 52 51 53 30 35
3610.0 43 48 68 79 51 56 66 51 63 38
3650.0 56 50 48 65 48 42 37 58 60 68
3690.0 62 68 51 54 53 59 62 73 84 39
3730.0 46 36 45 24 48 65 69 60 48 48
3770.0 44 35 63 40 43 59 70 47 17 36
3810.0 38 75 52 63 79 70 66 61 75 60
3850.0 68 46 46 69 63 63 48 67 64 56
3890.0 94 69 94 51 78 61 29 46 31 47
3930.0 31 65 51 47 37 43 121 111 36 45
##END=
