##TITLE=Isothiocyanic acid, 3-chloro-o-tolyl ester
##JCAMP-DX=4.24
##DATA TYPE=INFRARED SPECTRUM
##ORIGIN=Sadtler Research Labs Under US-EPA Contract
##OWNER=NIST Standard Reference Data Program
##CAS REGISTRY NO=19241-35-1
##MOLFORM=C 8 H 6 Cl N S
##XUNITS=1/CM
##YUNITS=ABSORBANCE
##XFACTOR=1.0
##YFACTOR=0.000156842
##DELTAX=4.0
##FIRSTX=450.0
##LASTX=3966.0
##FIRSTY=0.018351
##MAXX=3966
##MINX=450
##MAXY=1.56842
##MINY=0
##NPOINTS=880
##XYDATA=(X++(Y..Y))
450.0 117 100 73 64 58 68 50 80 78 64
490.0 65 83 121 146 195 285 362 380 391 341
530.0 298 283 275 273 264 251 210 191 175 171
570.0 150 165 170 174 152 130 115 91 124 160
610.0 212 260 269 236 186 133 122 114 101 97
650.0 91 95 86 99 85 94 92 89 104 149
690.0 232 280 452 333 282 208 155 128 120 139
730.0 199 363 642 1147 1535 1726 1380 850 463 484
770.0 724 962 1357 1116 658 446 166 105 86 122
810.0 139 162 172 136 100 55 48 21 26 15
850.0 19 16 22 27 33 38 38 35 23 26
890.0 22 30 31 37 45 48 62 66 83 107
930.0 159 245 397 609 775 798 648 445 298 213
970.0 164 136 116 119 134 156 179 196 206 217
1010.0 253 313 395 478 525 508 436 345 285 255
1050.0 242 236 225 209 206 212 194 167 122 72
1090.0 52 44 46 36 27 25 18 12 6 9
1130.0 6 13 20 48 79 95 92 62 37 29
1170.0 29 37 46 57 58 49 41 32 49 83
1210.0 93 78 45 27 26 29 32 40 58 85
1250.0 111 122 117 111 120 157 200 204 162 98
1290.0 53 34 26 23 22 21 18 18 25 36
1330.0 39 34 25 16 13 11 11 10 13 12
1370.0 16 24 41 67 97 113 104 77 44 35
1410.0 26 39 57 89 152 270 461 730 1051 1256
1450.0 1348 1297 1153 944 667 456 335 267 268 307
1490.0 327 294 220 155 155 171 167 154 131 112
1530.0 108 107 127 150 183 218 283 375 571 942
1570.0 1513 1986 2065 1698 1236 981 777 559 398 295
1610.0 207 130 85 62 49 34 26 16 9 6
1650.0 8 11 16 25 43 44 32 10 5 5
1690.0 1 0 3 5 6 4 6 11 8 10
1730.0 14 22 20 19 21 17 18 19 21 27
1770.0 40 56 67 70 64 50 41 36 34 32
1810.0 27 25 19 15 13 11 10 15 25 45
1850.0 62 66 62 52 53 58 62 72 85 99
1890.0 116 127 136 141 149 161 183 217 243 265
1930.0 280 295 328 375 436 509 596 697 809 930
1970.0 1059 1182 1311 1452 1614 1808 2052 2346 2677 3012
2010.0 3341 3648 3939 4251 4614 5125 5882 6990 8394 9558
2050.0 10000 9502 8488 7648 7144 6979 7170 7508 7844 7921
2090.0 7813 7569 7288 6839 6187 5388 4598 3965 3509 3203
2130.0 3004 2881 2793 2712 2592 2434 2202 1909 1583 1278
2170.0 1030 840 704 616 564 536 535 546 561 567
2210.0 546 497 425 346 278 223 176 146 123 106
2250.0 99 90 88 86 86 87 91 89 83 71
2290.0 58 50 40 31 23 17 16 14 17 24
2330.0 23 28 34 27 27 18 30 29 20 24
2370.0 24 14 15 10 14 20 28 35 40 45
2410.0 50 53 57 59 62 65 70 73 72 68
2450.0 59 51 44 41 39 39 38 40 41 44
2490.0 43 46 49 51 55 57 59 62 66 69
2530.0 74 76 74 70 67 64 67 68 71 74
2570.0 72 67 57 45 40 37 37 40 43 44
2610.0 45 45 44 39 35 31 27 23 21 19
2650.0 21 21 24 29 32 35 31 25 17 12
2690.0 6 7 6 7 10 12 16 17 18 20
2730.0 18 17 15 16 17 20 21 22 23 20
2770.0 22 23 27 34 40 49 55 61 60 57
2810.0 51 50 47 46 49 52 54 57 60 57
2850.0 54 52 51 52 53 55 59 55 51 48
2890.0 44 42 41 44 46 53 57 64 77 93
2930.0 116 145 165 174 169 150 133 119 115 110
2970.0 103 95 88 84 81 80 84 87 87 90
3010.0 91 90 90 89 88 90 88 86 85 81
3050.0 83 85 90 101 117 138 158 178 188 175
3090.0 143 102 63 46 35 28 24 22 20 14
3130.0 15 12 13 12 12 15 11 9 9 9
3170.0 9 9 13 9 7 8 8 7 9 9
3210.0 10 8 10 10 10 7 7 7 8 8
3250.0 10 12 12 7 9 11 13 11 8 9
3290.0 9 11 12 10 11 12 9 9 13 13
3330.0 12 8 11 10 9 10 9 13 10 10
3370.0 14 10 8 13 13 10 11 9 10 5
3410.0 8 10 11 13 12 10 8 10 9 11
3450.0 10 10 11 8 9 12 9 12 13 11
3490.0 14 13 12 9 12 14 10 9 11 10
3530.0 12 10 9 14 13 12 11 12 9 14
3570.0 14 12 16 17 12 14 14 11 14 14
3610.0 17 14 14 13 9 18 14 18 14 11
3650.0 15 12 16 17 10 16 10 17 12 19
3690.0 16 19 15 17 16 15 14 18 17 16
3730.0 23 15 19 17 24 13 15 19 16 16
3770.0 16 15 11 18 16 14 15 15 16 21
3810.0 11 17 16 21 16 14 20 14 16 17
3850.0 16 21 16 17 16 21 27 18 28 23
3890.0 26 19 14 12 16 27 22 16 5 11
3930.0 12 18 23 18 18 20 17 20 20 11
##END=
