##TITLE=Benzophenone, 4,4'-dimethoxy-, O-methyloxime
##JCAMP-DX=4.24
##DATA TYPE=INFRARED SPECTRUM
##ORIGIN=Sadtler Research Labs Under US-EPA Contract
##OWNER=NIST Standard Reference Data Program
##CAS REGISTRY NO=19293-72-2
##MOLFORM=C 16 H 17 N O 3
##XUNITS=1/CM
##YUNITS=ABSORBANCE
##XFACTOR=1.0
##YFACTOR=0.000043195
##DELTAX=4.0
##FIRSTX=450.0
##LASTX=3966.0
##FIRSTY=0.000000
##MAXX=3966
##MINX=450
##MAXY=0.43195
##MINY=0
##NPOINTS=880
##XYDATA=(X++(Y..Y))
450.0 0 223 356 226 211 256 222 211 202 193
490.0 304 274 283 279 371 442 430 441 465 466
530.0 409 449 437 472 625 734 854 914 976 892
570.0 718 591 502 510 603 715 929 996 800 644
610.0 471 484 438 407 314 316 281 282 269 251
650.0 219 225 249 236 295 344 310 320 287 318
690.0 335 362 349 310 252 239 233 253 278 274
730.0 282 331 335 341 282 277 252 231 218 234
770.0 265 284 309 366 385 399 419 489 654 773
810.0 866 979 1091 1207 1420 1988 2743 2769 1963 1303
850.0 953 746 629 604 766 1114 1635 1952 1672 1023
890.0 587 396 330 283 269 248 253 262 283 297
930.0 326 338 334 311 332 369 397 431 512 659
970.0 1006 1603 2286 2481 1982 1263 842 737 768 937
1010.0 1222 1536 1802 2049 2369 2824 3300 3737 3986 3872
1050.0 3631 3818 4652 5371 4899 3272 1787 1135 910 797
1090.0 732 687 653 643 675 698 656 566 488 449
1130.0 452 461 490 538 627 781 1071 1593 2222 3096
1170.0 4514 5135 3647 2061 1389 1036 840 754 712 729
1210.0 769 846 938 1105 1395 1888 2804 4458 7019 9517
1250.0 10000 7959 5325 3578 2789 2495 2470 2612 2791 2875
1290.0 2805 2632 2392 2123 1866 1774 1885 2048 2126 2023
1330.0 1709 1305 960 764 673 605 558 517 481 453
1370.0 444 417 418 418 396 395 389 388 432 473
1410.0 519 575 538 579 636 696 665 714 906 1092
1450.0 1086 994 1005 1219 1461 1605 1449 1195 1023 959
1490.0 1024 1358 1987 3225 5027 6529 6201 4009 2069 1179
1530.0 808 639 548 472 469 506 530 564 697 825
1570.0 887 918 944 989 1106 1285 1575 2030 2710 3421
1610.0 3740 3446 2645 1769 1074 729 547 470 440 383
1650.0 316 305 303 288 275 262 229 245 198 186
1690.0 193 202 175 178 186 204 190 164 203 216
1730.0 202 186 211 218 221 215 246 266 270 270
1770.0 219 199 211 199 204 205 191 195 186 206
1810.0 198 200 204 202 193 190 214 222 222 221
1850.0 240 244 249 256 246 228 254 267 281 291
1890.0 279 270 268 254 240 236 234 230 220 239
1930.0 250 258 259 250 242 245 228 227 227 223
1970.0 222 219 224 218 218 207 206 206 214 208
2010.0 217 225 231 258 282 297 306 294 291 297
2050.0 299 307 316 322 326 329 330 326 313 291
2090.0 271 250 242 236 230 229 226 222 214 208
2130.0 191 191 193 190 186 179 180 185 185 189
2170.0 187 187 188 188 185 192 196 191 189 190
2210.0 191 185 190 190 191 192 193 189 193 196
2250.0 195 192 196 199 197 206 214 221 230 243
2290.0 251 260 265 265 270 278 271 271 282 282
2330.0 286 267 250 293 288 306 331 292 305 306
2370.0 292 272 268 253 234 219 209 207 217 208
2410.0 219 221 222 226 222 214 205 205 210 209
2450.0 207 214 218 216 219 223 218 219 219 222
2490.0 226 234 228 225 226 235 243 254 264 277
2530.0 286 291 294 297 287 277 267 250 235 231
2570.0 233 228 224 226 230 224 226 225 226 219
2610.0 225 217 216 212 214 210 204 215 213 217
2650.0 213 215 212 213 214 212 207 211 215 212
2690.0 211 210 209 216 211 217 216 217 220 225
2730.0 216 221 225 236 236 244 249 251 257 256
2770.0 261 267 277 290 296 303 318 340 367 407
2810.0 465 557 720 910 946 846 758 878 1203 1439
2850.0 1298 955 739 656 619 611 633 672 734 783
2890.0 830 912 1035 1218 1406 1521 1527 1471 1423 1380
2930.0 1423 1605 1984 2424 2623 2411 2091 1923 1836 1666
2970.0 1432 1209 1040 925 874 885 972 1144 1411 1721
3010.0 1825 1471 977 723 641 610 640 720 799 821
3050.0 768 674 604 567 578 620 674 703 683 617
3090.0 581 567 549 521 465 424 393 369 350 344
3130.0 327 305 285 273 266 261 247 241 246 232
3170.0 228 232 223 221 218 219 219 212 205 213
3210.0 219 213 209 205 207 210 207 214 211 200
3250.0 207 205 207 206 199 203 206 211 203 214
3290.0 204 205 209 192 201 206 218 209 210 200
3330.0 203 206 210 205 195 192 209 202 202 195
3370.0 210 205 197 198 200 202 200 212 214 217
3410.0 208 201 204 207 206 202 202 210 202 196
3450.0 192 192 204 201 207 213 207 204 204 203
3490.0 199 191 195 203 191 199 200 185 192 191
3530.0 203 210 211 200 194 189 198 187 209 196
3570.0 201 197 192 212 200 208 201 193 200 195
3610.0 198 185 197 212 211 212 196 208 201 200
3650.0 195 195 218 204 208 206 196 215 217 204
3690.0 203 205 190 209 215 224 203 214 208 215
3730.0 191 194 200 218 200 200 196 194 201 191
3770.0 185 208 211 198 192 196 205 198 204 200
3810.0 205 226 209 204 194 200 190 190 187 201
3850.0 177 204 183 189 214 214 203 194 234 230
3890.0 214 199 175 194 195 213 195 191 218 224
3930.0 203 197 209 191 199 196 196 218 223 210
##END=
