##TITLE=3-Hexanol, 3,4-diethyl-,
##JCAMP-DX=4.24
##DATA TYPE=INFRARED SPECTRUM
##ORIGIN=Sadtler Research Labs Under US-EPA Contract
##OWNER=NIST Standard Reference Data Program
##CAS REGISTRY NO=19398-78-8
##MOLFORM=C 10 H 22 O
##XUNITS=1/CM
##YUNITS=ABSORBANCE
##XFACTOR=1.0
##YFACTOR=0.000159207
##DELTAX=4.0
##FIRSTX=450.0
##LASTX=3966.0
##FIRSTY=0.012577
##MAXX=3966
##MINX=450
##MAXY=1.59207
##MINY=0
##NPOINTS=880
##XYDATA=(X++(Y..Y))
450.0 79 60 28 51 46 69 32 56 47 26
490.0 29 87 43 11 68 68 32 13 33 44
530.0 37 68 72 19 16 28 17 3 18 14
570.0 29 47 54 34 44 53 71 45 34 38
610.0 23 35 36 35 31 48 12 17 47 58
650.0 43 18 34 33 35 29 41 44 32 37
690.0 65 49 43 53 45 49 41 49 44 49
730.0 43 39 52 52 69 77 96 118 130 146
770.0 158 170 177 180 184 197 223 220 225 221
810.0 196 173 152 126 121 131 135 151 176 198
850.0 214 239 270 306 318 309 275 224 185 169
890.0 183 225 287 360 437 520 587 631 684 728
930.0 793 857 936 1062 1230 1417 1546 1562 1479 1300
970.0 1043 798 598 448 340 263 232 250 254 296
1010.0 343 396 422 429 413 394 377 362 342 323
1050.0 310 303 297 295 298 310 322 332 342 363
1090.0 397 445 490 532 562 585 605 620 638 661
1130.0 674 693 719 756 806 859 909 938 945 910
1170.0 830 720 602 499 422 369 330 303 291 280
1210.0 282 288 307 324 357 403 457 519 575 626
1250.0 646 651 642 614 587 572 565 567 579 582
1290.0 584 581 572 566 557 554 540 516 487 460
1330.0 439 430 436 455 479 504 522 540 568 599
1370.0 668 797 956 1115 1180 1084 865 632 459 353
1410.0 292 266 253 251 248 267 299 374 463 588
1450.0 759 967 1246 1504 1695 1770 1608 1319 982 686
1490.0 464 334 254 207 181 162 136 133 123 113
1530.0 100 102 95 95 87 83 82 84 83 69
1570.0 66 67 69 61 64 62 58 60 60 59
1610.0 54 62 59 61 56 62 56 59 55 55
1650.0 49 68 47 45 41 40 39 38 33 44
1690.0 32 31 41 42 42 45 57 64 63 57
1730.0 59 56 52 45 44 45 49 54 61 68
1770.0 71 78 69 66 57 58 62 63 58 54
1810.0 42 32 26 16 12 6 7 3 3 6
1850.0 4 3 1 2 1 3 2 2 2 3
1890.0 2 6 4 3 3 4 5 6 2 2
1930.0 2 0 2 1 3 3 3 3 2 2
1970.0 1 4 0 1 0 0 3 4 1 4
2010.0 3 3 5 3 5 7 5 6 7 10
2050.0 13 12 12 10 10 9 6 8 6 8
2090.0 10 10 7 4 5 4 5 4 2 1
2130.0 5 4 5 6 5 7 6 5 5 5
2170.0 4 7 7 7 6 4 2 3 3 0
2210.0 3 1 5 3 8 8 7 5 5 9
2250.0 7 4 7 6 2 3 5 4 5 6
2290.0 7 6 8 10 16 8 9 15 14 14
2330.0 18 13 10 19 0 16 13 33 10 0
2370.0 1 5 15 14 21 25 22 33 30 29
2410.0 27 22 27 23 22 16 15 10 9 8
2450.0 10 7 7 8 11 14 10 8 11 14
2490.0 10 10 8 7 8 11 9 3 8 10
2530.0 9 9 8 13 12 17 15 23 25 26
2570.0 31 39 37 39 46 49 50 57 58 60
2610.0 67 65 64 63 66 61 61 57 59 55
2650.0 60 61 68 73 68 67 63 64 72 75
2690.0 72 72 78 85 86 92 99 100 106 117
2730.0 133 149 174 188 196 186 172 160 154 152
2770.0 149 157 163 163 174 183 194 207 219 230
2810.0 241 260 275 293 320 348 390 432 475 533
2850.0 601 690 821 1012 1277 1626 2121 2811 3595 4276
2890.0 4589 4384 3878 3325 2917 2738 2760 2930 3253 3702
2930.0 4302 5030 5706 6307 6541 6467 6266 6355 6961 8153
2970.0 9615 10000 9278 7818 5980 4297 3011 2126 1521 1133
3010.0 886 727 617 537 477 426 392 359 334 311
3050.0 291 272 255 243 238 227 220 204 198 189
3090.0 177 180 167 161 154 143 143 141 127 132
3130.0 125 120 118 119 114 108 108 99 99 100
3170.0 91 84 80 79 65 64 52 50 36 33
3210.0 35 32 23 37 26 16 8 19 18 11
3250.0 2 5 9 0 18 18 4 13 26 15
3290.0 13 15 10 9 17 16 12 15 18 19
3330.0 10 23 17 18 11 12 13 19 16 16
3370.0 25 22 16 25 17 20 22 21 28 21
3410.0 26 27 25 28 32 36 23 22 19 25
3450.0 24 25 19 30 24 27 26 24 28 25
3490.0 34 31 27 35 21 19 22 27 24 15
3530.0 31 34 29 24 24 21 24 31 44 38
3570.0 46 38 44 45 39 54 49 44 48 47
3610.0 50 48 63 87 127 186 257 339 425 460
3650.0 405 326 243 152 122 77 73 62 51 44
3690.0 44 46 44 42 30 35 40 40 27 36
3730.0 35 38 52 34 41 24 32 26 26 22
3770.0 22 28 16 34 30 31 34 25 27 38
3810.0 35 31 39 46 48 35 20 40 30 41
3850.0 42 47 47 18 33 50 47 49 43 52
3890.0 48 40 22 31 33 44 23 12 18 15
3930.0 14 3 15 18 15 5 29 11 19 0
##END=
