##TITLE=Benzene, 1,4-dichloro-2-methyl-
##JCAMP-DX=4.24
##DATA TYPE=INFRARED SPECTRUM
##ORIGIN=Sadtler Research Labs Under US-EPA Contract
##OWNER=NIST Standard Reference Data Program
##CAS REGISTRY NO=19398-61-9
##MOLFORM=C 7 H 6 Cl 2
##XUNITS=1/CM
##YUNITS=ABSORBANCE
##XFACTOR=1.0
##YFACTOR=0.000081021
##DELTAX=4.0
##FIRSTX=450.0
##LASTX=3966.0
##FIRSTY=0.016852
##MAXX=3966
##MINX=450
##MAXY=0.81021
##MINY=0
##NPOINTS=880
##XYDATA=(X++(Y..Y))
450.0 208 164 71 107 144 38 167 6 139 25
490.0 89 31 27 21 101 206 366 828 911 1081
530.0 1066 881 711 897 585 410 349 249 442 1295
570.0 2753 3018 3055 2025 416 90 203 239 277 214
610.0 109 57 37 15 36 35 49 27 52 35
650.0 41 36 42 42 16 30 45 78 71 106
690.0 122 184 203 196 175 118 87 62 73 93
730.0 111 114 114 102 83 70 80 85 85 114
770.0 117 164 132 226 354 510 875 1468 2159 2722
810.0 4131 3391 2430 1886 1070 551 342 357 444 430
850.0 508 548 861 1283 1799 2967 3567 3168 3039 1960
890.0 756 244 125 101 81 92 78 86 78 83
930.0 87 78 91 97 108 106 120 120 134 151
970.0 166 191 211 249 290 376 490 569 536 456
1010.0 324 220 262 373 568 720 938 1269 2212 4236
1050.0 6890 8307 8062 6111 3044 1602 1305 2254 3716 4372
1090.0 5367 5646 5400 5305 4785 3734 2510 1988 1599 1229
1130.0 1156 1060 1035 901 877 680 410 305 234 306
1170.0 324 318 247 181 161 238 419 595 732 725
1210.0 579 395 275 184 181 188 180 187 177 173
1250.0 158 256 363 521 644 560 420 271 128 78
1290.0 73 70 86 82 95 89 90 81 86 102
1330.0 93 111 97 126 149 167 188 195 251 326
1370.0 491 597 827 1116 1432 1576 1544 1406 1060 974
1410.0 991 953 850 797 706 782 864 934 1080 1214
1450.0 1550 1817 3054 5511 8643 10000 9334 8092 5217 3784
1490.0 3005 2077 1072 626 524 410 387 370 333 394
1530.0 360 396 370 368 362 407 464 476 560 573
1570.0 588 555 646 877 1110 1394 1317 1206 884 554
1610.0 390 365 341 318 297 256 190 127 109 81
1650.0 65 42 86 73 83 75 81 87 73 67
1690.0 74 72 38 44 45 61 52 52 111 157
1730.0 218 244 291 319 301 203 161 82 54 50
1770.0 46 43 60 53 60 49 54 58 64 82
1810.0 81 62 61 44 36 32 35 45 30 33
1850.0 41 62 72 107 143 197 273 285 275 257
1890.0 191 125 102 81 78 72 64 59 43 45
1930.0 44 37 36 26 27 35 36 33 39 36
1970.0 37 37 37 31 31 22 26 28 31 30
2010.0 33 31 28 28 29 28 26 25 22 25
2050.0 24 21 23 24 20 26 29 29 30 28
2090.0 26 26 23 24 23 28 26 29 31 29
2130.0 35 38 36 35 36 36 37 37 36 38
2170.0 38 39 37 37 36 35 31 30 28 29
2210.0 27 27 26 24 25 26 27 30 35 37
2250.0 41 47 53 60 61 67 60 56 51 45
2290.0 40 30 20 16 13 2 5 3 9 13
2330.0 13 13 26 33 27 32 17 31 48 50
2370.0 54 56 53 47 46 47 47 43 41 41
2410.0 39 39 41 41 39 38 36 39 41 41
2450.0 48 48 51 59 63 67 62 52 44 40
2490.0 37 35 33 35 36 40 39 41 42 44
2530.0 42 38 40 31 28 26 30 29 26 27
2570.0 35 39 41 43 50 51 51 48 47 44
2610.0 43 42 41 42 41 39 44 45 48 51
2650.0 57 63 60 58 50 44 41 41 40 41
2690.0 39 41 36 33 33 38 38 39 45 48
2730.0 51 52 57 61 75 82 80 83 68 57
2770.0 53 53 54 55 54 52 52 50 56 62
2810.0 66 77 91 102 114 123 128 135 147 164
2850.0 187 218 262 311 359 388 403 402 376 354
2890.0 343 343 347 354 367 385 408 451 530 671
2930.0 888 1120 1252 1282 1210 1011 820 727 707 776
2970.0 845 825 797 834 884 937 891 829 682 518
3010.0 399 335 297 287 291 298 309 302 301 290
3050.0 281 272 265 266 261 273 297 328 347 381
3090.0 393 372 345 295 217 154 112 89 79 68
3130.0 63 55 50 45 35 32 30 27 26 22
3170.0 23 19 15 14 15 16 12 11 15 14
3210.0 13 19 16 11 18 20 12 16 13 17
3250.0 11 14 10 17 17 18 17 17 14 17
3290.0 15 16 18 13 17 13 15 17 11 17
3330.0 18 18 14 15 17 10 13 12 20 15
3370.0 15 13 16 20 12 14 9 15 16 12
3410.0 18 20 9 17 14 17 22 9 10 9
3450.0 6 9 11 9 14 14 9 9 14 7
3490.0 8 16 12 11 22 15 16 18 22 7
3530.0 15 16 12 11 11 12 17 13 7 20
3570.0 16 22 15 14 8 17 24 18 22 12
3610.0 16 2 22 18 16 39 17 25 14 10
3650.0 40 32 35 32 23 18 10 31 10 17
3690.0 18 16 3 11 13 9 21 12 12 16
3730.0 10 33 18 28 24 25 31 10 11 15
3770.0 21 10 19 38 22 32 35 24 31 25
3810.0 25 6 12 32 2 6 15 21 8 11
3850.0 0 22 30 6 15 17 20 11 9 3
3890.0 22 15 15 24 17 15 18 14 13 12
3930.0 19 22 33 39 25 40 42 46 31 27
##END=
