##TITLE=Cyclohexanol, 1-ethyl-
##JCAMP-DX=4.24
##DATA TYPE=INFRARED SPECTRUM
##ORIGIN=Sadtler Research Labs Under US-EPA Contract
##OWNER=NIST Standard Reference Data Program
##CAS REGISTRY NO=1940-18-7
##MOLFORM=C 8 H 16 O
##XUNITS=1/CM
##YUNITS=ABSORBANCE
##XFACTOR=1.0
##YFACTOR=0.000147870
##DELTAX=4.0
##FIRSTX=450.0
##LASTX=3966.0
##FIRSTY=0.012421
##MAXX=3966
##MINX=450
##MAXY=1.4787
##MINY=0
##NPOINTS=880
##XYDATA=(X++(Y..Y))
450.0 84 119 113 119 186 0 195 170 157 247
490.0 188 222 161 165 139 87 129 125 106 129
530.0 124 156 97 103 99 52 54 149 98 122
570.0 153 149 91 144 145 118 107 125 90 111
610.0 120 131 82 111 117 118 119 112 134 101
650.0 98 126 118 123 96 140 123 148 131 125
690.0 152 156 134 168 150 181 171 146 120 166
730.0 79 64 90 74 132 87 117 141 108 130
770.0 108 116 162 147 144 148 115 120 112 112
810.0 112 135 139 155 203 244 272 307 337 363
850.0 361 322 263 232 181 145 137 151 167 195
890.0 227 278 328 376 384 406 403 418 438 468
930.0 536 629 787 1021 1292 1609 1807 1681 1428 1180
970.0 850 586 440 351 341 334 353 380 404 403
1010.0 401 412 405 404 395 406 412 389 362 346
1050.0 327 308 315 333 357 366 398 403 412 430
1090.0 420 447 475 528 584 623 644 659 662 642
1130.0 622 607 610 643 669 712 739 781 805 796
1170.0 809 787 705 583 496 423 358 343 337 344
1210.0 358 373 389 407 435 471 507 542 564 589
1250.0 598 600 594 584 566 548 512 478 455 426
1290.0 397 380 369 358 357 356 345 340 341 341
1330.0 353 362 378 396 418 436 451 465 474 488
1370.0 505 516 531 522 503 464 409 341 284 242
1410.0 216 209 210 224 249 299 374 503 654 789
1450.0 948 1078 1123 1087 969 815 659 482 335 235
1490.0 174 138 117 102 96 91 82 85 81 79
1530.0 77 77 77 72 76 75 70 77 75 73
1570.0 71 66 68 65 63 59 61 54 60 54
1610.0 53 57 53 54 49 52 46 49 48 51
1650.0 49 49 55 44 50 47 43 43 44 42
1690.0 45 39 41 45 40 44 40 46 52 50
1730.0 54 50 58 50 47 47 43 42 40 35
1770.0 37 38 37 34 36 35 35 32 31 32
1810.0 29 28 26 26 24 24 23 25 21 23
1850.0 22 22 24 23 24 25 24 24 23 25
1890.0 27 29 28 31 31 29 29 31 24 27
1930.0 27 27 27 23 25 24 25 25 23 23
1970.0 22 20 21 22 20 20 22 19 19 19
2010.0 19 19 23 19 20 21 20 21 22 22
2050.0 21 17 20 18 19 20 19 21 21 21
2090.0 22 22 24 25 24 23 25 23 26 25
2130.0 26 24 24 26 25 23 25 26 23 24
2170.0 27 28 26 26 25 26 28 28 30 28
2210.0 31 30 29 29 28 28 27 26 27 26
2250.0 24 23 24 24 24 22 24 25 26 24
2290.0 22 19 18 15 15 15 16 17 17 17
2330.0 21 22 31 33 34 28 24 28 40 41
2370.0 45 41 38 34 32 30 29 30 30 30
2410.0 30 32 32 34 31 30 30 28 27 26
2450.0 27 25 25 24 26 29 29 30 30 30
2490.0 30 31 27 28 28 28 29 29 29 29
2530.0 28 28 28 25 23 24 26 26 24 24
2570.0 26 29 30 32 34 38 42 46 48 51
2610.0 55 58 60 59 62 63 63 65 69 79
2650.0 85 95 108 118 125 128 129 123 112 104
2690.0 96 91 84 80 81 82 79 82 83 82
2730.0 81 84 83 82 86 85 88 90 92 94
2770.0 100 107 114 125 135 145 156 163 168 170
2810.0 175 181 191 205 228 266 334 449 642 916
2850.0 1302 1759 2153 2503 2653 2618 2435 2205 1975 1822
2890.0 1753 1742 1814 1937 2087 2310 2699 3304 4168 5372
2930.0 6919 8436 9597 10000 9195 7791 6024 4303 3097 2485
2970.0 2279 2246 2117 1912 1507 1042 691 468 314 232
3010.0 180 153 138 123 114 109 102 98 94 88
3050.0 92 91 91 94 95 97 96 91 82 74
3090.0 69 64 67 62 62 65 61 58 59 57
3130.0 52 48 54 48 45 50 48 50 48 47
3170.0 45 47 47 46 41 34 39 38 34 34
3210.0 34 32 34 29 30 31 28 32 33 33
3250.0 29 31 30 28 29 22 22 29 21 20
3290.0 26 22 20 19 21 19 20 20 20 16
3330.0 22 18 20 21 23 20 23 25 22 24
3370.0 23 23 26 28 26 18 22 28 27 24
3410.0 30 31 35 31 35 34 29 32 34 29
3450.0 24 22 20 25 23 28 27 27 26 26
3490.0 30 25 31 27 34 30 23 24 20 23
3530.0 25 30 26 24 20 17 29 27 21 24
3570.0 24 17 22 25 17 32 27 22 26 37
3610.0 47 58 80 122 177 223 280 320 341 323
3650.0 282 217 169 123 82 60 47 43 28 26
3690.0 20 27 15 21 15 15 15 17 15 15
3730.0 15 15 17 15 16 15 15 15 15 15
3770.0 15 17 15 16 15 15 15 15 20 16
3810.0 20 15 15 23 15 20 16 29 25 15
3850.0 20 33 29 37 29 24 24 27 15 22
3890.0 14 26 22 30 23 15 15 15 34 39
3930.0 20 35 25 25 33 30 31 30 15 15
##END=
