##TITLE=di-2-Pyridyl ketone
##JCAMP-DX=4.24
##DATA TYPE=INFRARED SPECTRUM
##ORIGIN=Sadtler Research Labs Under US-EPA Contract
##OWNER=NIST Standard Reference Data Program
##CAS REGISTRY NO=19437-26-4
##MOLFORM=C 11 H 8 N 2 O
##XUNITS=1/CM
##YUNITS=ABSORBANCE
##XFACTOR=1.0
##YFACTOR=0.000051266
##DELTAX=4.0
##FIRSTX=450.0
##LASTX=3966.0
##FIRSTY=0.001077
##MAXX=3966
##MINX=450
##MAXY=0.51266
##MINY=0
##NPOINTS=880
##XYDATA=(X++(Y..Y))
450.0 21 129 123 176 100 140 32 145 106 83
490.0 46 95 82 98 82 21 70 49 123 17
530.0 44 55 81 52 74 102 59 122 76 201
570.0 174 305 357 401 382 362 364 340 610 1227
610.0 2251 2879 2719 1645 776 490 402 428 421 734
650.0 968 2152 4589 6900 7394 4702 2110 1298 955 1225
690.0 1444 1893 2106 2040 1600 1347 1014 855 911 1144
730.0 1919 3100 4940 6314 5837 4106 2586 1568 1095 951
770.0 1012 1204 1305 1251 1074 771 593 532 595 689
810.0 790 913 979 1011 902 693 510 378 319 254
850.0 255 228 220 241 256 284 302 323 339 396
890.0 412 402 365 314 306 346 435 579 807 1151
930.0 1809 3163 6044 9155 10000 8314 4964 2922 2275 1726
970.0 1072 548 545 696 1602 3297 3943 3120 1664 496
1010.0 329 263 286 264 290 325 391 535 703 817
1050.0 727 548 386 296 251 258 300 454 771 1222
1090.0 1489 1381 962 508 259 170 152 164 174 164
1130.0 194 296 467 681 796 803 598 358 264 230
1170.0 234 243 278 267 233 197 202 249 363 533
1210.0 721 878 984 1114 1321 1633 1936 1969 1708 1212
1250.0 796 619 598 711 921 1251 1790 2536 2918 2831
1290.0 2491 2202 2590 3842 5868 8105 9569 8966 6652 4016
1330.0 1855 845 509 349 274 224 201 185 174 168
1370.0 171 195 202 230 194 202 179 198 216 276
1410.0 306 463 677 1071 1529 1843 1836 1670 1257 848
1450.0 565 481 599 793 871 878 654 414 275 230
1490.0 147 160 137 121 125 140 130 168 210 234
1530.0 260 272 371 378 489 627 903 1210 1796 2300
1570.0 2755 3043 3399 3489 3130 2465 1678 1050 775 682
1610.0 614 572 515 462 449 415 453 418 422 432
1650.0 454 500 593 624 762 942 1141 1574 2070 2933
1690.0 3979 5604 7388 8805 9004 8006 5951 3985 2458 1627
1730.0 1125 883 751 668 605 510 513 389 358 292
1770.0 294 255 268 253 233 171 156 122 88 98
1810.0 68 65 66 78 83 114 138 175 184 220
1850.0 216 199 180 151 142 144 190 203 208 173
1890.0 138 109 107 111 115 134 145 164 164 147
1930.0 147 145 174 182 215 213 196 167 154 143
1970.0 187 221 227 194 137 78 47 36 20 14
2010.0 12 4 10 5 13 9 12 8 9 16
2050.0 14 17 17 15 3 7 5 8 2 5
2090.0 1 0 0 2 0 4 8 11 13 18
2130.0 20 19 18 14 8 3 1 6 15 21
2170.0 29 36 47 49 48 36 34 31 26 18
2210.0 16 13 19 25 31 40 40 35 38 31
2250.0 26 33 36 38 45 56 63 67 80 108
2290.0 138 151 147 122 110 112 95 101 120 121
2330.0 100 98 84 97 135 58 109 70 85 78
2370.0 89 61 86 66 44 18 18 18 9 20
2410.0 21 25 23 25 31 39 45 37 32 36
2450.0 43 42 54 54 59 67 75 72 71 72
2490.0 61 60 51 48 35 35 35 36 37 36
2530.0 38 34 33 27 33 32 29 37 38 45
2570.0 40 41 37 37 37 40 39 39 55 56
2610.0 58 62 59 56 53 54 53 67 78 88
2650.0 94 91 72 64 55 55 57 50 46 37
2690.0 35 41 52 52 49 58 56 61 58 61
2730.0 64 62 71 86 83 102 105 107 100 105
2770.0 100 102 100 91 72 68 71 68 66 63
2810.0 69 66 66 57 61 62 54 58 61 64
2850.0 66 75 90 113 125 118 126 134 140 138
2890.0 143 146 146 134 130 133 137 142 149 157
2930.0 144 133 114 99 108 96 109 108 132 140
2970.0 158 181 196 241 265 315 384 495 642 835
3010.0 1031 1168 1190 1094 938 776 717 751 912 1209
3050.0 1695 2315 2927 3488 3910 4286 4171 3567 2725 1823
3090.0 1419 1218 934 671 446 351 297 288 288 314
3130.0 340 371 397 388 355 277 214 164 152 146
3170.0 135 128 123 107 92 93 90 100 81 91
3210.0 85 83 79 83 76 75 73 63 78 81
3250.0 70 73 59 66 75 78 71 85 72 69
3290.0 78 63 62 50 68 65 75 55 71 67
3330.0 69 59 68 69 62 61 68 73 70 83
3370.0 87 113 125 139 183 179 159 136 112 94
3410.0 73 64 54 66 69 64 63 47 30 48
3450.0 26 42 38 60 41 37 54 50 58 27
3490.0 39 27 21 48 31 50 38 33 38 30
3530.0 33 28 14 13 40 46 49 25 45 40
3570.0 67 49 39 38 50 88 73 41 45 50
3610.0 101 58 65 46 24 98 37 42 62 65
3650.0 95 37 67 45 53 91 80 134 48 94
3690.0 89 87 33 58 39 64 102 75 56 74
3730.0 64 95 83 106 140 94 152 54 63 66
3770.0 72 86 46 49 26 41 31 72 94 119
3810.0 49 112 85 97 79 32 99 62 40 59
3850.0 88 121 98 36 66 101 81 64 65 85
3890.0 57 70 30 95 66 70 40 87 65 76
3930.0 43 50 40 69 94 84 94 77 57 81
##END=
