##TITLE=Butanoic acid, 3-chloro-
##JCAMP-DX=4.24
##DATA TYPE=INFRARED SPECTRUM
##ORIGIN=Sadtler Research Labs Under US-EPA Contract
##OWNER=NIST Standard Reference Data Program
##CAS REGISTRY NO=1951-12-8
##MOLFORM=C 4 H 7 Cl O 2
##XUNITS=1/CM
##YUNITS=ABSORBANCE
##XFACTOR=1.0
##YFACTOR=0.000079791
##DELTAX=4.0
##FIRSTX=450.0
##LASTX=3966.0
##FIRSTY=0.075961
##MAXX=3966
##MINX=450
##MAXY=0.79791
##MINY=0
##NPOINTS=880
##XYDATA=(X++(Y..Y))
450.0 952 932 910 871 858 851 837 841 818 874
490.0 897 913 983 1085 1007 1179 1231 1283 1297 1413
530.0 1398 1466 1455 1455 1469 1390 1408 1393 1168 1251
570.0 1267 1406 1431 1532 1979 1995 2304 2650 3155 3569
610.0 3706 3743 3719 3372 2909 2667 2458 2159 1877 1628
650.0 1415 1235 1087 919 820 722 610 607 594 580
690.0 545 474 442 394 379 356 372 369 370 352
730.0 321 284 233 199 162 108 92 56 47 41
770.0 41 29 23 16 17 14 9 6 2 7
810.0 20 31 34 35 73 118 163 202 243 260
850.0 284 315 286 293 275 238 234 243 256 269
890.0 263 264 270 274 282 313 364 342 355 353
930.0 348 330 305 272 249 230 230 215 218 249
970.0 249 220 210 178 166 171 184 205 266 392
1010.0 623 978 1326 1505 1566 1552 1315 990 825 797
1050.0 843 941 1120 1305 1521 1700 1844 1897 1937 1909
1090.0 1949 2034 2270 2634 3148 3668 4091 4479 4849 5289
1130.0 5772 6176 6413 6404 6063 5386 4546 3748 3153 2659
1170.0 2221 1844 1567 1360 1243 1191 1189 1233 1279 1328
1210.0 1362 1341 1301 1232 1151 1057 986 927 893 879
1250.0 860 852 880 907 944 987 1013 1049 1066 1068
1290.0 1093 1096 1108 1086 1066 1039 1011 950 899 873
1330.0 870 918 966 1002 1060 1103 1126 1194 1308 1489
1370.0 1806 2174 2535 2759 2825 2628 2207 1687 1271 985
1410.0 824 792 801 782 773 758 699 681 643 652
1450.0 646 645 599 535 498 419 331 252 214 157
1490.0 140 102 77 73 63 69 30 37 9 25
1530.0 19 45 16 15 25 28 15 13 12 13
1570.0 28 7 22 10 26 26 30 37 45 41
1610.0 52 53 48 63 58 76 63 87 91 107
1650.0 133 189 197 220 224 232 202 189 150 150
1690.0 159 171 200 254 281 341 413 512 645 831
1730.0 1045 1244 1488 1764 2083 2541 3154 3877 4689 5756
1770.0 7154 8503 9464 10000 9934 9011 7629 6098 4567 3244
1810.0 2285 1639 1232 964 795 669 593 567 606 689
1850.0 742 779 807 835 835 803 700 538 419 332
1890.0 293 227 171 137 112 103 96 87 78 70
1930.0 70 73 73 86 72 79 80 75 69 66
1970.0 68 63 52 51 52 54 51 52 52 52
2010.0 53 56 61 58 59 65 47 53 57 51
2050.0 42 48 45 46 46 43 37 19 5 0
2090.0 0 11 13 12 22 21 23 25 26 26
2130.0 25 26 25 31 31 30 26 23 20 19
2170.0 31 19 33 38 37 38 38 38 25 37
2210.0 44 45 44 50 51 57 56 57 55 62
2250.0 56 53 52 55 51 53 50 52 55 56
2290.0 70 90 100 120 141 152 168 145 165 133
2330.0 121 100 88 89 135 139 147 111 100 85
2370.0 90 101 105 112 72 49 40 39 40 41
2410.0 34 39 34 34 24 32 26 34 38 39
2450.0 34 47 46 47 47 46 46 44 48 40
2490.0 40 41 45 42 46 40 41 40 46 41
2530.0 43 39 37 42 35 27 35 40 35 46
2570.0 46 46 41 36 31 38 37 30 30 34
2610.0 41 41 40 28 28 29 29 31 31 31
2650.0 20 21 17 13 0 5 6 17 29 29
2690.0 27 24 28 32 27 31 35 34 33 33
2730.0 39 39 46 52 51 58 58 55 51 51
2770.0 46 44 45 44 38 44 50 47 54 57
2810.0 56 56 55 70 75 78 86 87 92 98
2850.0 105 111 119 137 169 204 245 273 307 318
2890.0 312 312 300 301 315 339 366 420 479 570
2930.0 658 745 799 803 799 735 670 608 565 595
2970.0 646 745 865 1046 1229 1381 1475 1413 1312 1006
3010.0 752 536 395 283 208 174 146 140 123 125
3050.0 123 112 117 136 115 110 120 114 110 105
3090.0 100 92 97 96 90 89 84 96 79 89
3130.0 95 84 76 89 84 72 66 69 77 64
3170.0 51 64 63 71 64 59 55 64 64 69
3210.0 74 81 62 67 67 75 67 65 50 55
3250.0 64 50 52 44 35 60 55 59 38 44
3290.0 53 42 41 35 40 36 46 50 40 45
3330.0 39 44 51 53 35 37 27 40 22 9
3370.0 8 38 37 50 36 13 33 41 21 28
3410.0 30 33 37 26 29 30 17 22 29 26
3450.0 4 1 22 13 27 5 6 22 37 37
3490.0 44 37 42 87 89 91 71 81 99 128
3530.0 119 133 134 159 184 200 308 545 1171 2283
3570.0 3403 3809 3989 3736 2883 1689 974 570 347 209
3610.0 129 98 60 48 37 56 57 65 46 79
3650.0 66 72 59 57 49 32 45 49 59 51
3690.0 49 68 57 68 58 67 73 50 67 68
3730.0 97 54 75 58 65 49 59 27 18 32
3770.0 30 23 30 33 40 25 38 40 21 21
3810.0 23 22 10 17 37 29 39 42 45 69
3850.0 83 86 94 77 66 69 65 66 50 37
3890.0 52 47 56 59 54 56 36 28 18 15
3930.0 18 18 24 27 40 69 77 75 69 57
##END=
