##TITLE=N-Isopropylethylenediamine
##JCAMP-DX=4.24
##DATA TYPE=INFRARED SPECTRUM
##ORIGIN=Sadtler Research Labs Under US-EPA Contract
##OWNER=NIST Standard Reference Data Program
##CAS REGISTRY NO=19522-67-9
##MOLFORM=C 5 H 14 N 2
##XUNITS=1/CM
##YUNITS=ABSORBANCE
##XFACTOR=1.0
##YFACTOR=0.000123117
##DELTAX=4.0
##FIRSTX=450.0
##LASTX=3966.0
##FIRSTY=0.013912
##MAXX=3966
##MINX=450
##MAXY=1.23117
##MINY=0
##NPOINTS=880
##XYDATA=(X++(Y..Y))
450.0 113 114 331 140 302 254 258 183 71 224
490.0 7 84 3 29 223 234 344 321 241 279
530.0 217 199 179 88 38 56 66 84 70 94
570.0 179 127 104 106 95 68 124 125 105 186
610.0 206 242 318 343 366 428 451 495 507 557
650.0 644 790 869 941 1038 1216 1220 1317 1477 1571
690.0 1583 1708 1740 1852 1924 2040 2112 2203 2250 2264
730.0 2287 2185 2383 2309 2324 2525 2864 2909 3305 3246
770.0 3252 3228 2896 2696 2464 2322 2240 2200 2223 2147
810.0 2073 1929 1847 1604 1415 1211 1037 867 737 698
850.0 680 655 665 753 723 708 689 695 664 623
890.0 566 528 478 416 383 312 282 278 247 224
930.0 181 154 156 147 139 143 162 192 195 207
970.0 194 197 187 167 167 176 197 212 238 266
1010.0 311 364 404 423 419 420 436 476 554 712
1050.0 872 1069 1292 1456 1558 1555 1471 1331 1155 1031
1090.0 1000 987 1019 1047 1115 1134 1204 1230 1214 1153
1130.0 1091 1023 943 887 894 946 1088 1405 1824 2338
1170.0 2781 3034 3049 2773 2294 1741 1228 871 622 466
1210.0 369 309 265 230 208 227 233 237 247 268
1250.0 287 300 303 304 298 276 261 252 277 289
1290.0 335 375 443 507 610 750 951 1186 1387 1612
1330.0 1825 1883 1849 1748 1665 1560 1533 1599 1704 1896
1370.0 2045 2404 2718 2607 2445 2115 1596 1073 673 502
1410.0 405 360 400 444 540 765 986 1224 1445 1592
1450.0 1772 1915 2039 2215 2339 2462 2415 2244 1938 1547
1490.0 1085 761 482 328 283 213 168 160 152 134
1530.0 107 101 94 92 102 71 66 87 88 114
1570.0 136 136 177 210 244 274 329 405 491 589
1610.0 706 798 885 979 929 889 796 628 554 394
1650.0 324 279 189 193 164 154 155 119 116 73
1690.0 68 58 60 74 65 76 94 124 152 160
1730.0 165 137 94 82 51 48 29 20 20 17
1770.0 27 14 18 32 32 34 35 39 41 38
1810.0 32 41 45 43 61 55 60 57 60 70
1850.0 57 54 50 48 62 58 57 49 55 51
1890.0 59 60 47 53 40 44 40 39 44 37
1930.0 38 36 35 26 25 21 21 15 12 18
1970.0 13 12 14 21 17 16 18 6 7 4
2010.0 2 7 5 6 9 8 8 9 8 8
2050.0 5 5 1 2 4 4 5 5 6 5
2090.0 8 10 10 8 5 4 5 6 6 9
2130.0 9 14 11 12 10 9 6 6 5 6
2170.0 5 9 9 8 16 11 12 11 7 7
2210.0 4 2 2 2 3 3 7 11 6 9
2250.0 8 6 6 4 5 4 7 7 9 10
2290.0 11 13 15 12 13 13 8 15 14 20
2330.0 16 28 34 35 27 28 30 23 27 11
2370.0 15 9 8 9 8 6 9 6 6 4
2410.0 1 1 0 2 3 11 10 15 14 17
2450.0 17 15 14 11 13 11 11 16 20 23
2490.0 25 28 31 31 30 30 31 31 33 38
2530.0 40 46 50 52 59 61 64 69 73 77
2570.0 88 99 114 132 153 181 208 237 269 302
2610.0 332 346 365 371 366 356 343 329 318 314
2650.0 309 314 321 324 337 343 357 377 387 402
2690.0 422 444 469 493 519 545 559 575 593 610
2730.0 623 641 661 679 709 741 786 849 919 1017
2770.0 1140 1285 1451 1638 1834 2039 2224 2408 2603 2782
2810.0 2965 3145 3325 3507 3663 3796 3890 3932 3908 3854
2850.0 3806 3784 3818 3923 4058 4201 4319 4373 4383 4390
2890.0 4375 4405 4490 4635 4820 5035 5243 5489 5743 6000
2930.0 6273 6528 6673 6765 6788 6822 7055 7553 8371 9412
2970.0 10000 9815 8972 7561 5797 4006 2625 1686 1131 802
3010.0 601 472 382 321 276 250 224 196 181 173
3050.0 164 162 156 152 142 135 128 120 114 109
3090.0 107 107 110 115 112 105 105 101 92 90
3130.0 87 89 85 82 94 96 98 100 106 106
3170.0 106 110 109 109 107 107 105 102 98 103
3210.0 98 84 81 73 59 47 37 35 27 29
3250.0 28 31 29 21 24 14 15 10 15 16
3290.0 17 22 24 31 43 45 54 74 83 116
3330.0 155 191 232 245 244 233 205 167 133 99
3370.0 81 60 51 50 65 75 83 98 110 125
3410.0 128 128 122 118 111 83 72 57 45 49
3450.0 50 41 45 42 38 28 32 22 24 26
3490.0 17 19 25 36 37 25 47 26 32 29
3530.0 21 11 20 6 30 19 26 24 28 30
3570.0 52 16 23 4 21 19 27 13 27 21
3610.0 32 36 38 34 17 24 17 16 15 13
3650.0 18 25 19 36 24 33 20 32 23 14
3690.0 0 3 22 21 24 25 31 39 29 51
3730.0 35 38 34 26 24 8 8 21 28 22
3770.0 27 45 27 26 25 30 20 21 26 10
3810.0 33 27 24 39 39 47 33 40 22 14
3850.0 14 19 32 31 34 52 56 67 60 61
3890.0 35 35 19 41 43 14 25 70 74 58
3930.0 51 50 56 30 31 20 37 14 30 47
##END=
