##TITLE=4-Heptanol, 3,5-dimethyl-,
##JCAMP-DX=4.24
##DATA TYPE=INFRARED SPECTRUM
##ORIGIN=Sadtler Research Labs Under US-EPA Contract
##OWNER=NIST Standard Reference Data Program
##CAS REGISTRY NO=19549-79-2
##MOLFORM=C 9 H 20 O
##XUNITS=1/CM
##YUNITS=ABSORBANCE
##XFACTOR=1.0
##YFACTOR=0.000183658
##DELTAX=4.0
##FIRSTX=450.0
##LASTX=3966.0
##FIRSTY=0.000000
##MAXX=3966
##MINX=450
##MAXY=1.83658
##MINY=0
##NPOINTS=880
##XYDATA=(X++(Y..Y))
450.0 0 141 172 182 296 202 154 211 227 235
490.0 245 196 192 164 199 191 175 220 203 217
530.0 239 209 243 221 196 185 165 176 188 195
570.0 180 176 166 158 148 156 171 177 147 162
610.0 159 161 203 208 194 181 179 189 196 224
650.0 211 219 229 195 191 204 166 156 159 150
690.0 136 160 161 138 159 170 139 154 154 148
730.0 113 152 208 103 152 268 243 248 304 301
770.0 289 337 353 331 339 294 294 311 266 276
810.0 270 248 276 229 233 231 245 225 225 226
850.0 214 215 215 233 223 235 226 219 227 208
890.0 216 226 215 220 209 245 245 266 312 347
930.0 397 445 506 588 704 853 1005 1142 1236 1291
970.0 1324 1373 1459 1555 1684 1753 1760 1675 1500 1329
1010.0 1172 1049 963 884 830 778 730 665 617 554
1050.0 514 469 451 465 485 510 542 606 658 732
1090.0 802 856 888 880 866 799 736 685 626 620
1130.0 632 672 727 798 853 891 872 817 725 652
1170.0 576 516 468 440 428 438 463 504 546 589
1210.0 645 678 703 702 708 687 658 632 603 583
1250.0 582 596 616 621 634 638 627 618 603 592
1290.0 573 552 527 520 500 488 473 465 458 452
1330.0 448 449 461 465 475 499 533 590 653 758
1370.0 922 1150 1425 1613 1742 1604 1328 1031 754 586
1410.0 497 429 403 371 378 383 392 447 524 642
1450.0 886 1118 1410 1683 1802 1767 1564 1242 935 652
1490.0 475 376 319 266 254 212 247 212 202 202
1530.0 198 204 170 164 173 182 167 162 143 165
1570.0 167 152 158 151 169 173 153 164 154 158
1610.0 157 148 151 144 161 144 156 142 145 155
1650.0 125 141 127 158 137 141 136 143 140 130
1690.0 143 145 135 133 168 193 216 228 240 242
1730.0 200 185 144 148 150 141 144 139 134 137
1770.0 138 128 139 131 134 124 119 117 128 114
1810.0 113 114 108 109 104 97 106 104 109 97
1850.0 110 101 106 105 98 100 99 101 100 99
1890.0 100 100 101 104 101 99 105 100 102 100
1930.0 100 104 101 100 102 102 99 97 100 98
1970.0 99 96 97 97 95 99 97 95 95 95
2010.0 95 94 96 92 95 92 89 91 93 92
2050.0 93 91 90 91 93 90 91 90 92 90
2090.0 91 90 90 90 91 89 90 88 88 89
2130.0 89 90 89 89 88 90 89 88 87 86
2170.0 86 85 85 86 86 84 86 85 86 85
2210.0 84 86 85 86 87 85 89 88 90 88
2250.0 88 89 92 92 92 89 89 91 91 91
2290.0 91 92 92 93 94 92 94 98 100 100
2330.0 92 99 101 103 100 103 105 102 104 103
2370.0 103 100 104 101 102 104 105 108 107 108
2410.0 112 110 110 110 110 109 109 109 107 106
2450.0 105 104 103 102 101 99 98 98 98 96
2490.0 97 96 96 96 94 94 98 97 98 100
2530.0 100 101 103 104 107 109 111 115 121 124
2570.0 130 133 138 141 145 151 153 157 159 163
2610.0 164 163 165 165 165 165 164 164 162 164
2650.0 164 166 167 170 173 177 179 186 190 195
2690.0 194 199 198 201 201 206 213 220 228 241
2730.0 254 265 279 288 288 288 279 270 263 260
2770.0 262 266 270 278 287 296 309 324 342 362
2810.0 382 404 434 468 513 574 651 743 846 962
2850.0 1099 1257 1476 1760 2118 2539 3018 3580 4108 4384
2890.0 4386 4128 3768 3572 3622 3825 4086 4340 4585 4805
2930.0 5045 5296 5500 5554 5381 5108 5059 5587 6947 8700
2970.0 10000 9967 8772 6915 4949 3349 2240 1560 1153 903
3010.0 741 631 559 503 461 425 399 379 362 345
3050.0 329 319 309 294 282 273 265 256 244 237
3090.0 231 226 221 213 212 208 208 207 205 201
3130.0 200 198 201 197 198 199 196 197 195 192
3170.0 190 182 177 174 167 157 150 145 142 130
3210.0 124 121 119 115 109 102 100 99 96 95
3250.0 97 97 97 91 87 89 91 89 86 89
3290.0 91 88 89 89 87 85 84 85 84 85
3330.0 86 86 89 88 86 89 87 87 86 88
3370.0 86 89 90 90 89 91 92 88 94 94
3410.0 97 91 94 98 94 101 96 99 98 98
3450.0 100 94 99 100 101 100 98 98 99 95
3490.0 93 95 96 100 94 97 93 86 94 98
3530.0 96 91 88 91 95 95 93 99 98 107
3570.0 99 97 99 104 99 101 88 95 96 90
3610.0 106 110 118 132 153 165 208 244 284 295
3650.0 358 399 468 513 515 479 398 340 255 214
3690.0 151 126 128 114 105 102 99 101 93 112
3730.0 97 84 88 83 87 84 85 84 89 84
3770.0 88 85 94 90 95 102 90 84 84 84
3810.0 93 84 91 84 92 102 95 97 98 92
3850.0 107 88 101 100 102 108 105 108 107 100
3890.0 105 85 90 87 97 94 92 93 89 84
3930.0 97 90 87 84 84 91 84 92 84 84
##END=
