##TITLE=3-Heptanol, 2,2-dimethyl-
##JCAMP-DX=4.24
##DATA TYPE=INFRARED SPECTRUM
##ORIGIN=Sadtler Research Labs Under US-EPA Contract
##OWNER=NIST Standard Reference Data Program
##CAS REGISTRY NO=19549-70-3
##MOLFORM=C 9 H 20 O
##XUNITS=1/CM
##YUNITS=ABSORBANCE
##XFACTOR=1.0
##YFACTOR=0.000110336
##DELTAX=4.0
##FIRSTX=450.0
##LASTX=3966.0
##FIRSTY=0.000000
##MAXX=3966
##MINX=450
##MAXY=1.10336
##MINY=0
##NPOINTS=880
##XYDATA=(X++(Y..Y))
450.0 0 137 180 130 71 159 126 177 170 189
490.0 153 146 182 146 122 152 197 204 186 180
530.0 172 169 159 149 129 152 162 201 189 188
570.0 178 158 159 117 121 86 109 92 106 94
610.0 89 82 89 96 85 81 87 86 82 86
650.0 85 85 90 83 103 84 91 81 87 83
690.0 87 88 87 103 99 106 100 114 120 126
730.0 123 143 149 144 155 168 186 190 193 171
770.0 153 134 178 155 148 153 158 160 139 140
810.0 131 121 104 105 108 105 108 117 125 136
850.0 151 156 187 200 217 217 216 213 217 241
890.0 269 306 340 370 395 426 462 483 470 429
930.0 385 341 311 288 278 274 285 298 331 377
970.0 425 475 541 641 780 981 1209 1421 1505 1462
1010.0 1273 1000 762 592 520 504 540 597 668 738
1050.0 810 867 900 928 933 938 922 901 850 787
1090.0 721 673 666 697 750 803 826 785 703 588
1130.0 487 414 367 347 342 355 377 413 448 486
1170.0 516 537 546 556 582 608 629 639 634 607
1210.0 587 576 570 580 597 629 647 671 673 662
1250.0 635 616 601 590 582 568 556 534 526 507
1290.0 493 485 476 466 442 427 407 385 366 351
1330.0 340 347 367 400 454 522 638 827 1086 1361
1370.0 1559 1517 1347 1156 999 979 1020 1061 986 858
1410.0 617 453 360 334 322 331 364 393 452 493
1450.0 606 703 845 1005 1132 1210 1275 1383 1295 1171
1490.0 912 624 417 291 247 192 188 165 153 151
1530.0 139 140 128 130 107 121 112 109 99 107
1570.0 110 99 105 106 101 99 104 96 99 99
1610.0 101 91 99 89 102 87 102 87 99 82
1650.0 104 64 106 90 91 90 92 83 95 77
1690.0 93 93 83 87 95 98 96 103 104 104
1730.0 102 94 86 90 79 77 83 79 83 81
1770.0 80 73 83 76 87 73 84 77 77 82
1810.0 82 79 81 77 76 79 73 81 67 78
1850.0 72 77 77 80 74 77 77 76 80 76
1890.0 76 73 75 75 74 76 71 73 71 73
1930.0 74 74 74 73 73 73 76 74 76 73
1970.0 75 71 75 74 76 72 74 76 74 75
2010.0 76 73 75 75 73 75 77 75 76 77
2050.0 75 72 73 72 70 70 71 72 69 69
2090.0 70 71 71 71 72 72 73 72 75 75
2130.0 70 73 70 70 72 68 71 72 73 71
2170.0 67 70 67 68 67 69 69 69 71 66
2210.0 68 66 67 66 67 69 68 67 65 66
2250.0 65 66 64 65 66 67 66 70 69 72
2290.0 73 73 77 77 74 75 76 71 71 76
2330.0 71 76 72 83 71 84 71 76 81 84
2370.0 84 78 82 84 81 79 82 80 81 82
2410.0 83 83 79 78 79 79 77 77 77 75
2450.0 74 73 74 74 77 74 71 72 72 70
2490.0 71 75 73 74 75 75 77 76 77 78
2530.0 81 82 84 86 86 89 89 89 95 96
2570.0 96 97 100 102 100 105 103 103 104 106
2610.0 106 110 114 117 122 126 128 130 137 139
2650.0 143 153 154 164 167 172 174 179 179 179
2690.0 174 172 166 165 167 171 179 184 195 201
2730.0 204 210 218 219 220 220 218 218 213 208
2770.0 205 205 206 212 226 239 256 272 290 306
2810.0 336 360 387 418 463 519 594 703 841 1036
2850.0 1288 1598 1971 2407 2885 3288 3607 3813 3827 3575
2890.0 3256 2865 2574 2504 2616 2874 3211 3602 3934 4248
2930.0 4550 4917 5368 5831 6274 6649 7171 7952 9056 9914
2970.0 10000 8838 6889 4800 3196 2165 1499 1080 808 645
3010.0 537 466 416 378 348 320 293 273 251 236
3050.0 220 206 194 182 175 172 169 168 164 166
3090.0 161 155 152 150 147 139 138 137 133 128
3130.0 130 131 130 130 129 134 132 135 133 137
3170.0 137 139 141 143 147 146 146 143 140 136
3210.0 135 128 126 117 113 109 105 100 94 89
3250.0 84 80 77 76 76 77 75 71 71 70
3290.0 71 68 72 69 72 77 78 75 74 73
3330.0 72 71 76 73 72 72 79 73 77 72
3370.0 76 75 71 74 76 76 78 72 73 73
3410.0 72 75 73 80 76 80 79 83 86 85
3450.0 86 85 84 86 82 84 80 81 80 81
3490.0 79 74 77 75 82 77 80 74 77 89
3530.0 75 72 73 73 86 73 76 72 63 91
3570.0 80 80 74 73 80 81 89 74 88 84
3610.0 102 94 113 115 120 169 182 186 230 249
3650.0 328 378 454 549 546 554 441 362 208 186
3690.0 133 126 101 106 103 96 102 96 86 97
3730.0 95 105 92 99 96 94 108 73 83 88
3770.0 83 75 71 84 74 78 80 81 91 99
3810.0 85 102 90 120 87 101 101 104 94 101
3850.0 82 104 107 84 106 102 101 89 113 89
3890.0 101 97 97 108 97 84 78 77 67 75
3930.0 76 67 77 79 79 84 69 78 72 77
##END=
