##TITLE=3,4-Dimethyl-3-hexanol
##JCAMP-DX=4.24
##DATA TYPE=INFRARED SPECTRUM
##ORIGIN=Sadtler Research Labs Under US-EPA Contract
##OWNER=NIST Standard Reference Data Program
##CAS REGISTRY NO=19550-08-4
##MOLFORM=C 8 H 18 O
##XUNITS=1/CM
##YUNITS=ABSORBANCE
##XFACTOR=1.0
##YFACTOR=0.000137543
##DELTAX=4.0
##FIRSTX=450.0
##LASTX=3966.0
##FIRSTY=0.079225
##MAXX=3966
##MINX=450
##MAXY=1.37543
##MINY=0
##NPOINTS=880
##XYDATA=(X++(Y..Y))
450.0 576 282 115 111 103 180 74 175 155 133
490.0 81 142 51 151 204 134 167 108 164 163
530.0 109 133 94 163 85 6 59 222 110 132
570.0 137 117 165 145 159 124 132 129 131 126
610.0 116 134 122 125 126 127 122 135 131 129
650.0 123 124 134 132 141 119 134 128 143 132
690.0 152 144 150 167 172 185 202 158 196 174
730.0 166 154 144 131 133 111 112 115 98 296
770.0 327 187 309 263 280 249 230 188 174 179
810.0 160 208 110 149 169 201 208 233 248 239
850.0 240 207 193 168 171 163 184 211 263 337
890.0 474 677 940 1218 1448 1564 1490 1273 983 701
930.0 485 355 312 304 344 406 516 630 748 838
970.0 916 988 1037 1070 1092 1080 1022 940 860 804
1010.0 766 752 744 732 717 700 682 652 626 580
1050.0 554 532 538 557 576 599 607 622 646 690
1090.0 744 805 864 914 941 962 990 1030 1079 1129
1130.0 1172 1203 1227 1234 1248 1258 1280 1310 1347 1387
1170.0 1391 1348 1237 1096 955 838 741 680 632 587
1210.0 545 513 494 475 472 478 500 523 566 613
1250.0 668 720 765 787 791 783 754 729 709 700
1290.0 699 701 700 692 679 663 645 619 597 571
1330.0 556 544 548 561 582 617 655 725 843 1053
1370.0 1312 1639 1926 2052 2006 1747 1377 1005 716 527
1410.0 424 368 340 332 330 350 396 476 598 768
1450.0 992 1233 1480 1632 1685 1634 1432 1163 898 650
1490.0 466 343 269 222 201 178 160 155 146 143
1530.0 133 137 127 129 115 114 109 108 109 96
1570.0 94 90 90 86 87 79 78 79 79 80
1610.0 80 85 79 85 81 84 79 82 77 83
1650.0 76 84 78 71 78 71 71 69 63 65
1690.0 60 62 56 57 52 54 52 51 51 53
1730.0 52 50 47 40 39 36 40 33 35 28
1770.0 31 29 31 30 29 31 29 31 29 38
1810.0 32 36 35 36 34 31 33 28 28 25
1850.0 26 24 27 21 26 26 29 25 27 27
1890.0 23 23 22 24 24 25 21 18 21 20
1930.0 25 21 21 20 22 18 19 19 18 15
1970.0 16 15 14 15 12 12 13 10 10 9
2010.0 7 8 9 8 10 10 13 11 15 15
2050.0 14 12 14 12 11 14 13 14 12 12
2090.0 9 8 7 6 7 5 8 5 3 4
2130.0 4 6 8 11 11 10 10 11 6 12
2170.0 8 10 9 9 6 5 2 2 2 1
2210.0 3 1 3 5 7 9 10 12 11 13
2250.0 9 13 10 11 11 11 11 14 15 14
2290.0 14 17 19 16 19 20 17 16 18 16
2330.0 17 20 15 13 19 25 20 18 21 20
2370.0 15 23 25 27 30 28 24 25 26 27
2410.0 27 26 27 29 28 30 26 25 24 26
2450.0 26 26 25 22 22 22 25 21 21 19
2490.0 20 18 15 18 18 17 15 17 17 19
2530.0 17 20 21 22 22 23 26 32 38 40
2570.0 43 48 51 55 58 62 61 68 65 71
2610.0 68 71 68 70 68 70 69 71 67 69
2650.0 69 70 67 64 67 67 65 69 71 71
2690.0 69 71 74 79 79 82 87 92 103 111
2730.0 129 140 154 158 166 156 153 144 143 138
2770.0 140 145 148 154 160 169 176 194 206 224
2810.0 240 261 280 302 331 358 397 442 505 569
2850.0 667 781 937 1132 1383 1706 2155 2768 3392 3871
2890.0 4090 3979 3642 3185 2850 2706 2749 2920 3229 3621
2930.0 4083 4574 5029 5319 5481 5414 5348 5582 6357 7596
2970.0 8940 9952 10000 9155 7700 5976 4351 3047 2093 1438
3010.0 1020 762 609 513 454 414 383 361 337 330
3050.0 305 285 267 250 234 218 207 195 187 185
3090.0 182 169 167 157 150 152 146 135 142 133
3130.0 132 140 135 130 132 128 128 133 131 125
3170.0 130 124 126 117 110 97 99 86 79 77
3210.0 67 70 63 52 45 52 33 37 31 32
3250.0 24 24 22 24 28 18 18 27 27 26
3290.0 17 30 28 20 15 14 17 25 18 21
3330.0 13 26 16 23 20 20 17 10 2 9
3370.0 18 10 14 18 19 22 24 22 18 32
3410.0 29 25 27 45 31 24 38 36 38 24
3450.0 30 29 31 28 42 35 33 30 24 14
3490.0 25 14 22 16 20 21 17 26 32 17
3530.0 27 19 14 7 32 33 43 21 23 20
3570.0 22 22 17 12 18 36 21 24 41 40
3610.0 47 64 84 122 160 235 327 420 489 508
3650.0 478 406 315 247 181 136 95 53 39 51
3690.0 58 51 38 58 57 50 38 30 50 49
3730.0 50 33 18 54 69 39 40 41 35 45
3770.0 55 48 45 11 34 39 40 43 45 19
3810.0 45 31 55 39 18 41 74 51 33 49
3850.0 53 39 57 60 45 47 57 67 94 81
3890.0 15 10 61 53 69 27 26 75 50 37
3930.0 74 74 75 106 123 37 56 31 0 75
##END=
