##TITLE=1,4-Benzenedicarboxylic acid, dibutyl ester
##JCAMP-DX=4.24
##DATA TYPE=INFRARED SPECTRUM
##ORIGIN=Sadtler Research Labs Under US-EPA Contract
##OWNER=NIST Standard Reference Data Program
##CAS REGISTRY NO=1962-75-0
##MOLFORM=C 16 H 22 O 4
##XUNITS=1/CM
##YUNITS=ABSORBANCE
##XFACTOR=1.0
##YFACTOR=0.000084668
##DELTAX=4.0
##FIRSTX=450.0
##LASTX=3966.0
##FIRSTY=0.009821
##MAXX=3966
##MINX=450
##MAXY=0.84668
##MINY=0
##NPOINTS=880
##XYDATA=(X++(Y..Y))
450.0 116 131 77 68 55 51 16 50 45 102
490.0 153 191 122 69 75 75 70 65 68 70
530.0 78 94 63 81 76 31 41 92 10 92
570.0 43 76 0 27 113 43 17 41 98 29
610.0 84 15 10 47 77 126 94 35 102 41
650.0 116 97 82 95 114 231 129 125 143 210
690.0 174 171 211 171 181 143 229 343 504 742
730.0 1009 1072 844 536 308 248 203 200 208 197
770.0 165 165 145 173 193 236 164 199 207 226
810.0 213 234 228 239 245 210 259 252 245 256
850.0 222 191 232 251 307 322 346 251 225 174
890.0 152 204 154 128 158 182 166 170 186 185
930.0 209 293 330 370 384 358 383 361 388 391
970.0 320 289 236 246 266 253 288 229 260 281
1010.0 338 604 1434 1650 783 336 208 211 211 236
1050.0 283 332 368 433 504 548 669 798 1034 1273
1090.0 1890 2969 4612 5748 5367 4244 3608 2911 2081 1455
1130.0 1115 922 786 688 646 541 483 458 394 385
1170.0 370 353 367 326 313 299 291 307 357 400
1210.0 431 485 611 805 1173 1729 2526 3368 3687 3423
1250.0 3227 3873 5815 8473 10000 8766 6151 4149 2818 1999
1290.0 1539 1259 1079 974 894 768 677 574 532 515
1330.0 482 433 404 388 364 335 343 338 365 350
1370.0 369 358 376 416 523 532 501 456 500 652
1410.0 639 513 362 278 241 235 235 301 266 299
1450.0 337 396 508 463 492 480 495 387 302 256
1490.0 234 214 251 242 346 307 229 226 226 181
1530.0 152 169 164 222 145 127 148 192 189 135
1570.0 166 185 222 172 109 103 92 96 84 88
1610.0 87 86 133 89 99 86 96 118 80 121
1650.0 118 205 106 126 118 162 146 159 156 217
1690.0 185 231 333 390 348 361 446 610 754 1139
1730.0 1958 3493 5511 6249 4674 2730 1492 910 631 477
1770.0 404 360 280 253 228 203 207 169 169 152
1810.0 151 139 126 112 114 109 79 70 60 81
1850.0 59 51 45 46 46 61 46 46 39 42
1890.0 45 45 45 45 45 44 44 56 51 51
1930.0 51 52 64 70 74 63 47 44 44 44
1970.0 43 31 32 25 21 32 22 23 26 30
2010.0 25 25 25 25 19 30 38 31 36 37
2050.0 40 36 37 41 42 42 35 30 35 35
2090.0 35 41 36 36 29 29 32 30 23 28
2130.0 17 18 17 23 21 18 18 17 14 16
2170.0 16 16 16 11 16 16 21 17 21 21
2210.0 28 27 25 19 21 22 22 21 15 16
2250.0 19 16 16 15 12 15 19 18 16 20
2290.0 25 31 37 37 52 68 79 85 111 119
2330.0 133 142 147 152 143 125 191 229 260 228
2370.0 197 127 107 60 34 32 23 19 19 18
2410.0 24 24 14 11 18 11 9 10 8 7
2450.0 5 5 12 6 6 6 6 0 0 6
2490.0 10 5 13 7 7 14 14 15 14 17
2530.0 21 21 26 17 21 24 18 24 24 26
2570.0 32 20 25 22 27 28 31 28 28 30
2610.0 30 24 31 37 25 25 32 31 28 27
2650.0 34 31 33 29 36 36 37 37 42 38
2690.0 33 39 34 42 41 46 42 41 46 47
2730.0 42 42 55 53 62 62 61 63 63 63
2770.0 63 59 64 60 66 66 65 71 69 66
2810.0 78 77 84 85 87 98 116 123 141 166
2850.0 197 236 273 291 317 379 460 561 618 662
2890.0 641 576 529 545 563 590 642 710 758 789
2930.0 849 943 1091 1237 1331 1290 1244 1325 1539 1846
2970.0 1999 1899 1576 1163 855 654 518 409 337 283
3010.0 231 201 180 162 149 133 132 107 104 104
3050.0 92 93 94 94 93 90 91 77 79 72
3090.0 77 85 96 99 81 75 70 64 59 68
3130.0 60 57 61 48 45 45 51 45 52 51
3170.0 52 53 48 36 39 43 39 44 44 45
3210.0 45 46 45 35 41 29 30 22 42 40
3250.0 40 21 36 28 28 39 40 28 41 32
3290.0 37 27 31 27 33 28 44 33 39 28
3330.0 34 40 34 24 14 30 30 20 40 38
3370.0 21 26 26 16 27 33 18 39 15 21
3410.0 24 24 29 22 31 26 16 22 21 30
3450.0 43 48 61 64 69 44 28 21 21 14
3490.0 16 28 11 28 15 28 14 17 14 23
3530.0 14 4 9 8 10 14 15 2 21 19
3570.0 37 7 16 22 39 56 32 20 32 26
3610.0 52 42 44 50 44 84 23 39 36 55
3650.0 101 66 55 45 64 107 103 126 92 93
3690.0 137 114 116 129 118 154 160 144 167 176
3730.0 181 208 210 206 244 225 225 199 199 212
3770.0 223 212 214 225 226 218 237 241 272 251
3810.0 253 257 275 264 259 281 281 294 280 274
3850.0 285 316 275 267 281 287 280 270 281 282
3890.0 278 264 269 274 257 254 250 245 240 240
3930.0 245 240 229 222 232 249 22 38 41 41
##END=
