##TITLE=Isoquinoline, 1-benzyl-1,2,3,4-tetrahydro-,
##JCAMP-DX=4.24
##DATA TYPE=INFRARED SPECTRUM
##ORIGIN=Sadtler Research Labs Under US-EPA Contract
##OWNER=NIST Standard Reference Data Program
##CAS REGISTRY NO=19716-56-4
##MOLFORM=C 16 H 17 N
##XUNITS=1/CM
##YUNITS=ABSORBANCE
##XFACTOR=1.0
##YFACTOR=0.000038324
##DELTAX=4.0
##FIRSTX=450.0
##LASTX=3966.0
##FIRSTY=0.020925
##MAXX=3966
##MINX=450
##MAXY=0.38324
##MINY=0
##NPOINTS=880
##XYDATA=(X++(Y..Y))
450.0 546 125 90 325 388 472 460 534 478 563
490.0 663 765 670 445 201 60 11 26 42 31
530.0 118 162 305 649 1108 1537 1733 1433 1216 959
570.0 799 687 603 575 723 932 1144 1232 1045 787
610.0 607 482 554 668 901 1019 1018 875 725 679
650.0 633 669 689 767 862 1220 1328 1411 1751 2354
690.0 3832 5926 8170 7737 6522 5641 5164 4683 4525 4973
730.0 5807 6929 7685 8648 9564 10000 8293 5769 3799 2636
770.0 2046 1695 1361 1079 883 751 704 734 729 687
810.0 599 524 492 492 428 349 312 228 183 141
850.0 127 126 140 196 235 233 225 163 100 86
890.0 88 87 122 180 191 181 159 143 135 140
930.0 200 246 339 377 377 419 522 632 633 550
970.0 455 478 540 587 537 452 394 374 379 376
1010.0 395 418 546 773 1267 1677 1507 1167 854 608
1050.0 426 357 375 422 545 716 912 892 665 443
1090.0 310 287 334 436 629 920 1345 1960 2662 2969
1130.0 2759 2243 1584 1017 645 505 504 518 486 441
1170.0 446 515 625 694 706 677 674 660 638 637
1210.0 649 636 583 530 482 445 415 393 392 408
1250.0 450 489 530 536 550 572 597 642 695 779
1290.0 884 967 989 1007 1138 1473 1823 1939 1796 1550
1330.0 1331 1198 1158 1091 1017 979 985 944 922 907
1370.0 990 1100 1188 1082 839 565 397 335 302 338
1410.0 368 465 652 971 1506 2044 2449 2722 3022 3549
1450.0 4636 5055 3989 2812 2082 1630 1486 1462 1825 2759
1490.0 4224 5606 4769 2845 1386 559 334 211 187 142
1530.0 131 140 129 148 124 149 176 282 327 382
1570.0 492 600 732 837 864 1030 1342 1886 2138 1856
1610.0 1327 915 827 852 790 623 450 281 171 115
1650.0 111 120 84 80 90 86 132 117 143 151
1690.0 121 98 132 123 105 99 124 143 169 177
1730.0 175 192 154 140 155 188 197 209 200 205
1770.0 225 221 196 227 280 377 446 481 452 372
1810.0 292 251 232 215 214 187 170 125 137 141
1850.0 136 145 178 204 238 276 284 288 265 247
1890.0 217 211 238 306 361 355 307 245 225 241
1930.0 310 428 524 545 480 398 334 262 163 94
1970.0 57 38 33 35 34 30 20 12 13 15
2010.0 14 13 8 8 7 11 9 16 12 6
2050.0 5 8 7 8 13 10 9 8 12 11
2090.0 11 12 13 5 9 5 6 5 1 0
2130.0 1 6 6 8 9 5 1 2 1 3
2170.0 8 8 8 6 13 5 10 12 13 7
2210.0 8 15 13 12 13 15 18 23 26 29
2250.0 27 33 30 38 39 42 47 55 60 52
2290.0 57 58 77 93 108 132 152 147 150 142
2330.0 148 143 130 201 113 138 155 135 194 181
2370.0 168 152 119 111 91 87 76 81 72 82
2410.0 88 89 95 89 84 86 97 97 98 96
2450.0 101 99 91 90 83 94 96 98 97 110
2490.0 119 122 121 128 125 133 133 137 130 138
2530.0 138 137 143 147 145 158 157 165 178 180
2570.0 181 200 209 219 225 230 247 257 266 279
2610.0 275 277 277 282 288 296 289 284 278 281
2650.0 289 291 299 313 336 364 374 395 423 432
2690.0 447 454 462 458 459 478 505 550 599 668
2730.0 730 775 786 781 749 729 711 722 751 806
2770.0 886 986 1115 1251 1421 1615 1843 2114 2405 2670
2810.0 2796 2782 2686 2576 2540 2599 2728 2860 2982 2983
2850.0 2896 2814 2743 2611 2452 2390 2417 2468 2519 2609
2890.0 2781 3053 3401 3773 4169 4675 5276 5953 6571 7067
2930.0 7551 7657 7219 6535 6225 6375 6561 6212 5179 3728
2970.0 2412 1589 1157 961 860 866 939 1106 1355 1667
3010.0 2127 2785 3746 4907 5905 6311 5968 5088 4018 3296
3050.0 3120 3355 3919 4778 5834 6620 6402 5284 4160 3368
3090.0 2669 2098 1696 1413 1239 1038 806 577 420 309
3130.0 245 208 190 179 184 189 191 195 172 159
3170.0 132 98 87 59 59 52 54 48 40 33
3210.0 36 31 34 40 43 45 50 40 49 51
3250.0 49 58 49 53 43 51 54 51 57 72
3290.0 71 74 85 74 96 109 105 107 118 133
3330.0 157 184 196 199 194 175 176 171 216 247
3370.0 239 182 144 124 94 92 81 81 82 87
3410.0 93 66 62 63 54 61 51 63 61 64
3450.0 61 46 42 42 45 33 26 28 26 24
3490.0 28 40 55 50 41 31 21 40 39 18
3530.0 20 50 42 36 35 39 22 32 36 11
3570.0 35 43 72 64 47 76 38 38 27 54
3610.0 36 19 12 38 70 37 48 49 38 43
3650.0 51 55 91 51 67 9 20 16 50 47
3690.0 49 52 71 51 73 71 43 44 6 54
3730.0 40 32 61 67 42 51 10 39 47 76
3770.0 86 62 28 18 59 63 65 43 54 68
3810.0 84 47 52 48 74 74 64 44 19 62
3850.0 46 69 64 74 96 93 61 53 72 91
3890.0 95 58 97 78 72 53 66 75 59 103
3930.0 50 19 34 80 59 101 73 63 98 86
##END=
