##TITLE=Benzene, 1-bromo-2-ethyl-
##JCAMP-DX=4.24
##DATA TYPE=INFRARED SPECTRUM
##ORIGIN=Sadtler Research Labs Under US-EPA Contract
##OWNER=NIST Standard Reference Data Program
##CAS REGISTRY NO=1973-22-4
##MOLFORM=C 8 H 9 Br
##XUNITS=1/CM
##YUNITS=ABSORBANCE
##XFACTOR=1.0
##YFACTOR=0.000070883
##DELTAX=4.0
##FIRSTX=450.0
##LASTX=3966.0
##FIRSTY=0.057274
##MAXX=3966
##MINX=450
##MAXY=0.70883
##MINY=0
##NPOINTS=880
##XYDATA=(X++(Y..Y))
450.0 808 634 90 220 138 167 253 68 104 37
490.0 0 97 129 135 216 191 217 312 419 259
530.0 151 179 156 159 144 217 167 403 370 460
570.0 500 391 391 323 238 54 128 80 81 135
610.0 100 183 129 135 155 114 215 208 254 595
650.0 1236 1888 2380 2225 1793 733 393 279 204 258
690.0 263 266 204 196 272 304 385 540 865 1364
730.0 2031 3481 5548 7299 10000 9255 6554 4427 2850 1384
770.0 940 946 1026 1132 1139 1150 1018 785 602 509
810.0 388 316 297 265 240 228 226 184 185 161
850.0 169 199 199 209 196 169 176 183 183 195
890.0 202 202 194 131 142 160 160 159 168 214
930.0 208 293 395 396 288 327 291 300 351 379
970.0 385 389 352 338 337 336 370 432 619 980
1010.0 1716 2909 4138 4880 5106 4466 3661 3281 3356 3600
1050.0 3786 3166 2471 2003 1556 1278 1028 745 546 385
1090.0 295 249 213 202 183 210 245 253 301 356
1130.0 384 367 327 243 175 149 153 146 165 171
1170.0 158 154 146 146 155 167 190 199 208 212
1210.0 220 205 209 236 293 382 444 447 416 337
1250.0 252 204 202 208 224 239 233 231 217 230
1290.0 262 301 327 333 325 315 323 371 442 469
1330.0 471 455 427 361 317 288 256 257 280 336
1370.0 422 513 674 709 624 534 448 375 351 390
1410.0 488 538 673 758 997 1488 2242 2935 3263 3299
1450.0 2964 2707 2751 3369 4491 5498 5569 5102 3912 2306
1490.0 1398 952 658 453 347 290 241 204 227 190
1530.0 192 186 200 223 228 233 325 530 858 1204
1570.0 1414 1467 1242 935 750 846 922 904 805 619
1610.0 406 265 195 145 155 112 133 129 101 114
1650.0 122 133 101 97 118 140 198 223 284 289
1690.0 247 198 196 171 170 163 181 194 141 108
1730.0 96 112 83 68 89 92 71 73 68 59
1770.0 79 96 112 179 263 320 331 289 237 139
1810.0 103 115 124 180 198 197 156 105 76 59
1850.0 41 29 40 56 80 120 126 125 113 90
1890.0 74 103 176 280 367 373 334 263 161 103
1930.0 118 162 231 277 272 222 147 70 30 32
1970.0 20 15 17 18 15 23 22 19 14 16
2010.0 15 20 28 27 26 22 23 23 20 17
2050.0 13 12 6 10 12 8 10 6 9 11
2090.0 11 12 14 11 15 16 9 10 9 5
2130.0 9 2 0 0 8 5 6 6 4 6
2170.0 9 6 9 12 6 4 3 1 0 3
2210.0 9 9 10 6 11 14 14 23 27 24
2250.0 24 26 27 22 20 20 24 28 41 55
2290.0 60 67 72 58 65 73 58 75 70 65
2330.0 62 45 47 35 63 45 57 40 40 51
2370.0 35 42 32 35 31 20 19 22 22 24
2410.0 26 28 30 31 38 46 48 45 40 32
2450.0 26 19 19 18 15 17 17 13 15 15
2490.0 20 23 24 33 38 43 42 40 42 43
2530.0 42 40 39 42 40 35 34 39 41 49
2570.0 52 54 57 52 52 54 54 58 60 65
2610.0 67 66 60 59 56 61 63 74 76 71
2650.0 63 44 31 18 16 19 12 12 19 17
2690.0 18 22 13 19 16 16 19 22 27 38
2730.0 54 67 86 99 94 89 76 65 67 70
2770.0 77 83 95 101 112 124 129 128 129 129
2810.0 135 134 139 159 177 196 223 245 285 313
2850.0 338 368 409 523 683 967 1390 1899 2457 2819
2890.0 2810 2545 2216 1910 1718 1644 1608 1601 1639 1780
2930.0 2101 2567 3186 3820 4051 3888 3556 3053 2866 3496
2970.0 5184 7220 8344 8027 6452 4089 2321 1427 1045 959
3010.0 1016 1201 1373 1444 1394 1221 981 802 730 754
3050.0 917 1223 1685 2322 2996 3597 3932 3591 2992 2206
3090.0 1417 936 800 598 376 248 184 180 183 192
3130.0 218 242 268 265 255 228 183 160 156 135
3170.0 141 118 108 88 63 47 44 53 45 48
3210.0 49 39 51 33 26 27 17 20 26 17
3250.0 26 22 16 18 14 11 11 13 13 8
3290.0 9 18 9 23 19 20 13 13 4 2
3330.0 10 10 16 17 11 11 13 10 17 17
3370.0 15 25 9 15 15 24 16 22 20 18
3410.0 25 9 15 15 16 17 25 26 17 15
3450.0 22 17 13 22 23 9 17 37 29 25
3490.0 23 38 18 27 24 38 19 33 30 19
3530.0 30 34 29 55 35 29 39 41 35 28
3570.0 26 43 33 34 22 32 24 42 24 26
3610.0 30 41 25 13 20 12 29 40 44 46
3650.0 39 25 60 30 29 31 40 33 6 39
3690.0 20 23 13 15 20 12 19 31 14 20
3730.0 24 19 38 12 59 12 32 13 37 23
3770.0 9 6 24 20 4 11 0 4 18 0
3810.0 20 0 28 10 27 26 13 16 37 47
3850.0 60 44 24 45 2 22 34 6 13 8
3890.0 9 25 18 34 54 41 22 14 26 37
3930.0 71 97 68 48 52 84 75 67 35 33
##END=
