##TITLE=Heptane, 2-bromo-
##JCAMP-DX=4.24
##DATA TYPE=INFRARED SPECTRUM
##ORIGIN=Sadtler Research Labs Under US-EPA Contract
##OWNER=NIST Standard Reference Data Program
##CAS REGISTRY NO=1974-04-5
##MOLFORM=C 7 H 15 Br
##XUNITS=1/CM
##YUNITS=ABSORBANCE
##XFACTOR=1.0
##YFACTOR=0.000093182
##DELTAX=4.0
##FIRSTX=450.0
##LASTX=3966.0
##FIRSTY=0.000000
##MAXX=3966
##MINX=450
##MAXY=0.93182
##MINY=0
##NPOINTS=880
##XYDATA=(X++(Y..Y))
450.0 0 239 223 323 218 273 198 282 130 273
490.0 239 275 353 420 432 409 437 382 508 459
530.0 616 675 682 738 872 778 634 560 392 347
570.0 308 365 345 353 407 347 363 347 353 329
610.0 431 529 652 744 809 719 489 376 280 270
650.0 227 231 240 223 233 258 265 194 250 204
690.0 230 220 241 253 240 283 316 386 450 533
730.0 554 563 559 415 367 342 355 347 368 349
770.0 365 351 357 326 285 296 277 292 267 288
810.0 281 306 305 312 322 327 360 366 386 377
850.0 413 403 404 404 383 361 367 390 363 398
890.0 393 417 434 453 454 402 376 328 315 290
930.0 302 296 302 324 341 359 366 374 346 336
970.0 314 311 303 320 360 409 479 543 601 593
1010.0 558 483 433 400 390 381 354 362 351 367
1050.0 373 398 409 417 413 391 389 384 415 432
1090.0 446 437 421 397 369 369 373 438 520 622
1130.0 724 847 963 1055 1088 1027 891 723 632 631
1170.0 738 893 1087 1244 1314 1276 1156 1019 905 898
1210.0 967 1096 1209 1313 1366 1363 1375 1342 1277 1195
1250.0 1096 964 844 774 739 750 750 776 791 807
1290.0 768 718 671 646 641 612 579 519 480 458
1330.0 461 480 503 532 532 526 511 514 520 570
1370.0 654 832 1149 1405 1492 1321 942 652 490 409
1410.0 383 381 397 440 509 618 745 903 1101 1322
1450.0 1548 1719 1833 1894 1823 1636 1366 1053 785 555
1490.0 431 353 330 306 292 277 261 250 233 231
1530.0 217 216 198 201 193 185 182 173 171 173
1570.0 177 175 164 171 167 173 172 188 193 201
1610.0 193 186 176 173 173 169 168 161 171 157
1650.0 169 150 160 164 159 160 163 154 159 157
1690.0 161 159 161 156 161 157 159 154 161 162
1730.0 161 159 158 164 160 162 153 158 145 152
1770.0 152 145 150 147 156 146 155 148 152 146
1810.0 153 146 145 149 140 142 139 150 142 147
1850.0 147 149 146 142 147 144 148 146 147 144
1890.0 149 150 146 144 144 147 145 146 145 145
1930.0 147 145 142 141 143 142 144 139 140 136
1970.0 136 138 139 139 138 145 140 146 146 150
2010.0 151 151 148 146 142 144 151 141 147 150
2050.0 155 151 143 136 126 125 120 120 120 130
2090.0 135 133 139 139 140 140 144 142 142 139
2130.0 141 145 143 144 142 147 146 144 145 147
2170.0 144 143 142 139 142 146 148 145 149 149
2210.0 150 148 150 152 152 154 152 157 153 152
2250.0 157 155 153 159 158 155 159 157 163 169
2290.0 168 169 172 172 161 169 163 164 157 160
2330.0 157 158 155 166 206 165 149 133 170 204
2370.0 209 203 203 190 186 175 165 167 169 170
2410.0 166 172 170 170 174 160 169 165 165 165
2450.0 160 163 163 163 163 162 168 167 171 167
2490.0 170 171 173 171 172 174 182 182 177 180
2530.0 177 179 184 184 179 189 186 191 183 187
2570.0 187 185 189 185 199 196 207 206 215 221
2610.0 228 231 235 233 227 231 229 228 228 229
2650.0 233 232 246 245 235 227 228 215 214 222
2690.0 232 235 240 255 251 254 253 255 261 270
2730.0 286 293 323 329 330 325 315 291 283 275
2770.0 276 282 279 292 312 330 346 373 401 426
2810.0 450 482 518 561 631 727 872 1040 1223 1434
2850.0 1694 2070 2570 3148 3721 4168 4325 4471 4519 4390
2890.0 4137 3737 3431 3370 3462 3722 4204 4976 6097 7413
2930.0 8679 9578 10000 9797 9002 8039 7063 6725 7108 8154
2970.0 9252 9166 7888 5892 4323 3594 3291 2833 2118 1504
3010.0 1059 810 681 618 567 543 509 476 437 396
3050.0 385 361 353 346 332 323 320 322 301 312
3090.0 313 301 299 283 271 267 272 277 271 263
3130.0 254 263 244 260 250 264 260 241 267 248
3170.0 257 234 249 247 256 239 245 231 250 254
3210.0 236 239 245 223 234 211 218 209 208 202
3250.0 198 196 179 198 194 187 188 175 192 178
3290.0 181 173 172 168 190 180 165 177 186 180
3330.0 196 197 178 183 175 174 185 185 176 187
3370.0 191 202 200 181 186 164 175 194 186 192
3410.0 153 172 187 195 178 153 190 181 199 186
3450.0 183 211 194 186 172 175 188 179 181 203
3490.0 183 185 178 199 200 211 205 192 200 221
3530.0 202 181 189 208 195 188 177 189 179 212
3570.0 203 219 199 194 194 196 197 197 208 194
3610.0 204 207 214 187 202 201 211 197 227 217
3650.0 227 230 219 246 229 225 207 213 207 171
3690.0 210 199 220 196 228 232 211 225 203 195
3730.0 205 216 216 220 212 196 180 229 196 207
3770.0 192 226 231 205 209 213 220 230 196 254
3810.0 222 242 208 185 186 201 195 193 204 231
3850.0 248 228 201 179 190 197 240 209 242 262
3890.0 248 185 256 241 211 228 218 194 231 186
3930.0 247 219 219 242 230 230 206 214 195 299
##END=
