##TITLE=3-Hexanol, 4-ethyl-
##JCAMP-DX=4.24
##DATA TYPE=INFRARED SPECTRUM
##ORIGIN=Sadtler Research Labs Under US-EPA Contract
##OWNER=NIST Standard Reference Data Program
##CAS REGISTRY NO=19780-44-0
##MOLFORM=C 8 H 18 O
##XUNITS=1/CM
##YUNITS=ABSORBANCE
##XFACTOR=1.0
##YFACTOR=0.000149030
##DELTAX=4.0
##FIRSTX=450.0
##LASTX=3966.0
##FIRSTY=0.000000
##MAXX=3966
##MINX=450
##MAXY=1.4903
##MINY=0
##NPOINTS=880
##XYDATA=(X++(Y..Y))
450.0 0 118 178 186 182 190 153 198 166 235
490.0 238 205 106 222 198 171 190 163 198 141
530.0 174 126 148 107 196 175 143 179 162 160
570.0 146 173 167 158 148 171 189 198 183 198
610.0 208 190 174 157 172 177 199 176 173 174
650.0 143 156 148 149 136 149 142 138 153 164
690.0 146 142 149 140 152 142 141 159 172 165
730.0 143 165 173 220 211 225 219 234 243 257
770.0 284 292 323 331 337 328 327 321 306 304
810.0 296 300 276 293 292 317 333 344 341 333
850.0 335 319 323 330 364 403 439 464 454 418
890.0 374 351 329 350 375 407 433 441 437 414
930.0 410 407 441 498 609 742 900 1056 1220 1366
970.0 1491 1573 1596 1582 1525 1468 1289 1201 1131 989
1010.0 884 790 735 712 736 763 784 772 738 701
1050.0 646 623 613 628 646 685 725 771 835 885
1090.0 931 943 945 914 879 840 812 781 764 758
1130.0 754 772 794 840 856 858 805 732 653 567
1170.0 507 459 438 426 436 455 491 535 590 650
1210.0 707 761 797 836 840 838 817 783 746 707
1250.0 687 663 646 634 626 614 623 629 641 648
1290.0 657 663 652 644 621 587 550 525 500 476
1330.0 466 460 472 479 495 507 525 545 584 646
1370.0 740 891 1059 1220 1335 1316 1149 949 753 611
1410.0 510 448 406 377 368 374 402 446 531 651
1450.0 832 1076 1356 1595 1710 1713 1529 1253 951 695
1490.0 503 385 321 280 258 246 231 221 210 207
1530.0 201 199 186 185 184 186 180 174 170 171
1570.0 167 164 160 156 159 156 153 150 151 151
1610.0 155 149 145 149 148 148 149 147 150 145
1650.0 143 134 142 139 140 137 135 134 134 124
1690.0 125 127 116 116 120 124 125 122 125 129
1730.0 127 125 122 119 119 119 116 114 115 118
1770.0 112 110 109 111 108 113 107 108 112 112
1810.0 110 108 112 108 108 103 109 107 109 105
1850.0 103 106 102 106 105 106 104 104 104 106
1890.0 105 105 103 103 105 104 107 108 108 106
1930.0 109 110 109 111 111 109 108 109 105 107
1970.0 104 106 107 107 108 109 113 113 114 113
2010.0 118 117 115 116 111 113 110 117 115 119
2050.0 126 123 120 108 104 100 100 104 110 113
2090.0 111 109 106 106 102 104 102 103 105 101
2130.0 103 102 102 102 104 105 103 101 104 105
2170.0 104 104 102 104 104 110 103 103 105 107
2210.0 108 105 108 109 111 108 108 108 112 107
2250.0 109 106 107 108 107 104 106 113 112 116
2290.0 119 123 129 124 129 127 132 125 125 118
2330.0 113 112 122 126 112 131 111 121 113 118
2370.0 121 127 135 136 135 131 133 133 136 135
2410.0 137 139 136 134 132 130 129 124 120 121
2450.0 119 118 120 119 121 124 125 121 124 124
2490.0 125 124 121 123 123 125 126 132 131 128
2530.0 131 133 132 137 138 139 145 142 151 154
2570.0 155 158 170 170 172 178 181 185 196 208
2610.0 207 208 210 200 200 200 199 197 187 188
2650.0 188 204 208 212 214 213 204 198 203 204
2690.0 211 224 236 242 244 249 253 252 262 279
2730.0 287 301 314 332 343 341 331 325 322 320
2770.0 315 323 335 338 346 348 369 374 390 404
2810.0 420 439 454 494 527 581 651 739 848 981
2850.0 1150 1354 1630 1982 2423 2954 3631 4449 5111 5416
2890.0 5325 4802 4114 3492 3147 3105 3296 3662 4090 4658
2930.0 5237 5804 6216 6394 6307 5990 5850 6221 7301 8922
2970.0 9977 10000 8650 6688 4605 3060 2103 1531 1162 929
3010.0 770 675 602 555 515 482 452 430 416 401
3050.0 384 367 362 344 333 329 315 301 302 285
3090.0 279 269 269 261 253 240 242 238 232 229
3130.0 228 232 226 227 225 228 224 211 214 211
3170.0 200 202 203 183 170 169 170 152 154 144
3210.0 136 130 120 129 125 128 121 123 126 123
3250.0 115 111 112 112 121 125 119 121 121 119
3290.0 119 108 115 110 116 117 119 114 117 113
3330.0 118 126 118 123 124 122 119 123 116 114
3370.0 120 130 129 127 128 136 127 137 136 137
3410.0 133 133 146 143 134 135 143 137 132 146
3450.0 141 132 129 124 134 135 116 139 130 121
3490.0 116 131 126 128 130 106 118 122 128 114
3530.0 127 120 108 110 119 114 110 126 116 125
3570.0 114 105 109 116 113 122 115 112 116 123
3610.0 133 149 145 169 192 214 251 277 333 406
3650.0 515 608 659 661 609 497 395 296 227 184
3690.0 158 142 142 118 117 120 116 109 110 106
3730.0 110 124 120 104 109 100 100 118 107 101
3770.0 100 100 100 111 114 112 105 107 106 107
3810.0 114 111 103 106 100 100 115 129 127 112
3850.0 104 123 124 115 105 119 120 125 110 116
3890.0 100 126 143 115 126 106 109 118 115 117
3930.0 111 107 106 103 128 116 108 107 122 100
##END=
