##TITLE=2,3-Dimethyl-4-penten-2-ol
##JCAMP-DX=4.24
##DATA TYPE=INFRARED SPECTRUM
##ORIGIN=Sadtler Research Labs Under US-EPA Contract
##OWNER=NIST Standard Reference Data Program
##CAS REGISTRY NO=19781-52-3
##MOLFORM=C 7 H 14 O
##XUNITS=1/CM
##YUNITS=ABSORBANCE
##XFACTOR=1.0
##YFACTOR=0.000104163
##DELTAX=4.0
##FIRSTX=450.0
##LASTX=3966.0
##FIRSTY=0.019895
##MAXX=3966
##MINX=450
##MAXY=1.04163
##MINY=0
##NPOINTS=880
##XYDATA=(X++(Y..Y))
450.0 191 66 127 112 179 148 126 102 89 97
490.0 209 127 63 74 74 85 9 15 6 25
530.0 19 65 17 59 141 133 134 133 145 116
570.0 101 93 131 141 103 87 71 43 23 54
610.0 21 40 49 51 86 121 53 227 296 355
650.0 423 529 565 593 569 508 401 308 213 149
690.0 119 87 49 31 49 49 49 40 77 63
730.0 99 148 221 254 312 316 279 233 197 139
770.0 93 73 64 38 44 32 38 37 50 43
810.0 56 80 119 148 213 268 327 422 495 517
850.0 500 529 475 416 356 331 358 451 589 772
890.0 997 1204 1475 1839 2264 2649 3034 3267 3203 3030
930.0 2771 2504 2370 2376 2337 2113 1798 1443 1098 801
970.0 658 594 651 742 945 1134 1226 1322 1415 1332
1010.0 1206 1030 892 841 884 983 1087 1166 1190 1196
1050.0 1151 1086 1031 972 946 907 900 901 942 1021
1090.0 1148 1301 1486 1683 1875 2029 2154 2241 2273 2257
1130.0 2206 2141 2072 2013 1971 1968 1999 2059 2148 2273
1170.0 2424 2590 2708 2743 2675 2497 2247 2002 1763 1588
1210.0 1458 1367 1284 1184 1108 1039 972 914 864 842
1250.0 834 848 870 908 945 989 1033 1077 1097 1099
1290.0 1106 1088 1075 1057 1047 1050 1069 1101 1138 1197
1330.0 1237 1267 1250 1221 1159 1146 1225 1463 1889 2410
1370.0 3074 3545 3670 3538 3202 2654 1966 1482 1145 903
1410.0 806 817 845 872 848 776 711 719 695 790
1450.0 942 1101 1293 1381 1382 1339 1145 957 736 553
1490.0 380 288 218 167 161 165 99 129 114 112
1530.0 82 93 99 94 91 85 93 96 129 78
1570.0 99 102 123 94 106 104 100 105 108 128
1610.0 139 201 250 358 463 618 717 810 785 747
1650.0 587 491 302 208 179 156 131 138 130 212
1690.0 242 314 368 396 365 276 253 241 243 229
1730.0 250 278 319 316 336 351 345 324 297 285
1770.0 257 274 246 257 273 304 314 326 307 279
1810.0 227 203 197 202 245 257 287 276 293 261
1850.0 222 174 141 109 90 72 57 49 42 42
1890.0 35 29 33 32 29 29 28 31 30 26
1930.0 24 23 21 19 19 19 19 23 21 23
1970.0 29 24 32 34 37 44 42 38 41 41
2010.0 32 28 22 24 17 16 15 10 10 18
2050.0 13 15 12 7 1 1 4 10 10 22
2090.0 24 25 36 30 30 29 36 32 29 31
2130.0 29 27 35 26 26 27 28 26 26 26
2170.0 26 25 24 20 21 24 24 24 25 28
2210.0 32 30 29 29 31 30 21 22 26 21
2250.0 18 19 28 31 30 35 27 37 35 35
2290.0 36 39 33 39 34 42 40 39 36 60
2330.0 33 53 32 33 25 30 54 51 23 16
2370.0 21 12 15 10 22 27 28 35 38 33
2410.0 34 36 38 33 35 40 37 32 36 39
2450.0 29 32 39 31 25 19 31 29 26 20
2490.0 21 26 24 24 15 15 9 14 15 24
2530.0 25 30 29 25 26 26 30 32 34 33
2570.0 26 27 30 32 32 32 29 34 42 38
2610.0 44 55 56 55 59 52 57 47 39 52
2650.0 57 44 52 45 44 26 21 16 7 11
2690.0 18 24 30 38 49 64 81 91 111 122
2730.0 131 142 143 136 140 123 116 114 112 105
2770.0 104 95 96 89 85 95 107 124 139 145
2810.0 155 178 195 220 249 275 301 339 374 412
2850.0 449 506 593 724 937 1194 1513 1869 2206 2477
2890.0 2630 2659 2597 2446 2272 2136 2067 2067 2138 2335
2930.0 2533 2780 2994 3138 3183 3180 3222 3532 4143 5180
2970.0 6760 8403 9526 10000 9663 8487 6793 5070 3561 2497
3010.0 1782 1296 991 812 656 542 457 413 349 345
3050.0 376 357 419 477 604 778 1052 1267 1412 1626
3090.0 1407 1138 957 602 362 221 162 130 130 115
3130.0 106 102 108 117 103 113 110 118 113 123
3170.0 131 131 132 139 136 132 128 125 117 114
3210.0 107 106 99 81 86 85 72 71 58 52
3250.0 45 53 50 59 41 61 51 73 53 58
3290.0 68 54 41 28 29 1 35 38 15 5
3330.0 48 21 24 37 29 27 27 19 17 26
3370.0 22 28 33 23 45 51 57 42 34 17
3410.0 20 35 38 25 29 23 28 29 27 24
3450.0 32 29 28 31 35 25 23 13 32 24
3490.0 34 35 17 21 17 24 26 7 31 24
3530.0 23 22 33 42 38 27 59 67 94 68
3570.0 104 118 113 134 140 218 276 347 426 490
3610.0 513 495 473 408 416 458 537 634 666 705
3650.0 685 521 404 253 165 89 69 36 36 13
3690.0 4 6 12 1 7 13 16 5 1 1
3730.0 1 1 1 1 1 1 1 1 1 1
3770.0 1 1 1 1 1 1 1 1 1 1
3810.0 1 1 1 1 1 1 1 1 1 1
3850.0 1 36 42 16 35 15 1 9 0 29
3890.0 8 17 14 14 23 31 9 2 15 28
3930.0 36 46 22 8 14 8 19 2 16 1
##END=
