##TITLE=o-Xylene, decafluoro-,
##JCAMP-DX=4.24
##DATA TYPE=INFRARED SPECTRUM
##ORIGIN=Sadtler Research Labs Under US-EPA Contract
##OWNER=NIST Standard Reference Data Program
##CAS REGISTRY NO=1978-04-7
##MOLFORM=C 8 F 10
##XUNITS=1/CM
##YUNITS=ABSORBANCE
##XFACTOR=1.0
##YFACTOR=0.000174289
##DELTAX=4.0
##FIRSTX=450.0
##LASTX=3966.0
##FIRSTY=0.001569
##MAXX=3966
##MINX=450
##MAXY=1.74289
##MINY=0
##NPOINTS=880
##XYDATA=(X++(Y..Y))
450.0 9 37 14 58 61 76 70 51 79 19
490.0 22 54 64 81 93 35 18 35 48 59
530.0 84 93 107 85 80 90 33 60 68 48
570.0 69 55 8 48 33 59 64 53 45 10
610.0 26 48 31 48 35 21 15 28 63 42
650.0 46 56 144 161 135 74 40 57 22 57
690.0 65 55 63 118 188 619 1314 1691 1626 1154
730.0 840 351 150 122 82 36 62 40 59 74
770.0 36 29 72 96 70 48 43 43 56 37
810.0 46 54 41 79 71 75 94 66 118 235
850.0 453 794 994 888 551 285 205 139 167 220
890.0 343 806 1399 1704 1243 573 230 153 134 133
930.0 162 193 188 141 99 78 79 71 75 72
970.0 61 62 62 64 75 72 83 91 100 101
1010.0 85 85 84 97 101 97 131 158 293 706
1050.0 1212 1401 1013 472 222 166 144 150 152 146
1090.0 155 175 195 189 207 229 286 281 272 254
1130.0 274 344 409 494 548 609 686 836 1103 1514
1170.0 2168 3193 4727 7069 9423 10000 8379 6140 4597 3820
1210.0 3499 3385 3179 2938 2835 3040 3640 4466 5443 6120
1250.0 5933 4972 3549 2371 1652 1229 944 693 507 383
1290.0 318 290 266 256 252 254 270 258 291 400
1330.0 714 1506 2603 3142 2513 1324 670 575 590 672
1370.0 882 1210 1871 3029 4460 4946 3768 1950 833 430
1410.0 300 229 215 201 209 227 244 289 341 493
1450.0 770 1020 1051 889 860 1210 2151 3602 4736 4674
1490.0 3266 1894 1128 808 693 730 814 965 1169 1393
1530.0 1481 1183 805 529 400 327 275 246 194 149
1570.0 142 141 159 160 170 178 178 193 223 263
1610.0 323 421 583 794 945 985 892 740 578 404
1650.0 330 287 220 156 111 79 75 50 60 58
1690.0 47 45 59 61 49 46 48 61 52 42
1730.0 55 54 56 45 42 44 45 44 49 44
1770.0 48 51 40 38 31 34 39 36 34 31
1810.0 33 32 30 31 33 32 28 31 35 37
1850.0 30 28 31 36 36 37 36 32 31 29
1890.0 29 31 31 28 29 25 24 25 24 24
1930.0 23 23 21 24 23 23 26 26 27 29
1970.0 28 28 27 24 23 23 24 21 22 21
2010.0 21 19 20 19 21 22 23 23 25 29
2050.0 28 26 25 27 29 28 29 25 27 26
2090.0 29 33 36 40 39 37 33 30 28 25
2130.0 23 23 23 21 19 19 19 18 19 18
2170.0 16 14 15 13 15 18 18 20 21 19
2210.0 17 19 18 19 22 23 25 24 26 24
2250.0 21 21 24 23 24 27 26 26 24 29
2290.0 30 31 34 37 36 37 38 37 41 47
2330.0 48 44 48 44 47 45 44 43 48 45
2370.0 42 40 39 41 40 36 32 27 24 22
2410.0 24 21 23 26 27 28 29 30 29 30
2450.0 30 28 25 22 21 18 15 18 13 16
2490.0 16 17 15 17 19 19 18 21 21 24
2530.0 25 26 30 28 25 26 24 20 23 23
2570.0 27 30 31 27 24 21 21 18 18 18
2610.0 17 13 13 14 14 15 18 20 23 22
2650.0 19 20 19 16 16 16 15 18 18 16
2690.0 13 11 9 11 7 8 10 10 14 17
2730.0 14 13 13 14 10 5 4 6 4 3
2770.0 2 1 0 2 1 1 2 4 5 4
2810.0 6 6 9 11 13 12 11 13 13 14
2850.0 14 14 14 13 11 12 10 12 9 8
2890.0 6 5 6 6 6 5 3 6 6 6
2930.0 6 5 3 2 6 0 4 4 4 4
2970.0 5 4 2 4 7 4 6 6 10 8
3010.0 13 13 11 5 6 9 9 7 7 6
3050.0 6 5 4 5 8 7 5 8 9 9
3090.0 7 5 9 10 6 9 11 8 11 9
3130.0 9 9 8 13 14 11 11 11 11 9
3170.0 9 8 6 9 11 13 9 7 7 11
3210.0 11 10 9 10 6 10 8 11 13 14
3250.0 11 9 11 16 12 13 13 19 17 16
3290.0 15 14 11 14 16 14 14 17 15 12
3330.0 15 14 16 12 13 16 14 15 13 15
3370.0 18 12 18 15 13 15 12 13 15 14
3410.0 16 13 12 13 12 14 12 19 19 18
3450.0 15 16 14 15 11 14 14 14 19 14
3490.0 18 16 12 12 14 11 12 14 16 14
3530.0 10 14 9 9 9 13 14 6 9 11
3570.0 16 10 10 7 6 5 9 11 10 9
3610.0 2 9 9 13 6 7 11 9 7 4
3650.0 9 7 8 5 7 1 14 9 9 9
3690.0 6 12 0 5 0 1 5 5 7 3
3730.0 9 12 5 13 14 5 5 8 14 6
3770.0 4 9 11 13 11 9 12 12 13 10
3810.0 20 17 19 23 18 9 4 6 11 15
3850.0 17 30 19 9 11 9 12 11 16 21
3890.0 6 5 7 3 17 11 10 2 0 31
3930.0 20 5 15 0 0 3 26 19 9 8
##END=
