##TITLE=2-Heptanol, 5-ethyl-
##JCAMP-DX=4.24
##DATA TYPE=INFRARED SPECTRUM
##ORIGIN=Sadtler Research Labs Under US-EPA Contract
##OWNER=NIST Standard Reference Data Program
##CAS REGISTRY NO=19780-40-6
##MOLFORM=C 9 H 20 O
##XUNITS=1/CM
##YUNITS=ABSORBANCE
##XFACTOR=1.0
##YFACTOR=0.000134143
##DELTAX=4.0
##FIRSTX=450.0
##LASTX=3966.0
##FIRSTY=0.004427
##MAXX=3966
##MINX=450
##MAXY=1.34143
##MINY=0
##NPOINTS=880
##XYDATA=(X++(Y..Y))
450.0 33 41 55 21 12 32 27 6 40 28
490.0 39 47 55 51 38 31 3 22 26 35
530.0 33 33 31 22 38 44 28 25 21 33
570.0 42 22 11 4 14 10 8 11 20 20
610.0 18 18 16 24 25 11 18 24 26 29
650.0 27 26 27 26 42 62 21 44 26 24
690.0 21 28 31 36 29 36 37 43 57 64
730.0 69 76 84 107 116 116 132 141 153 163
770.0 173 192 200 197 168 152 128 112 100 110
810.0 118 139 134 125 155 162 172 198 221 241
850.0 264 261 249 232 210 168 173 173 186 211
890.0 255 290 339 354 360 353 347 347 376 441
930.0 522 618 711 802 893 974 1017 1005 909 765
970.0 613 483 389 315 291 290 297 320 353 404
1010.0 464 519 564 616 661 725 793 850 904 940
1050.0 960 978 996 1006 1006 991 975 985 1040 1129
1090.0 1234 1302 1309 1248 1143 1038 963 916 911 933
1130.0 964 1001 1025 1022 975 899 807 693 587 496
1170.0 426 385 370 371 383 408 438 478 512 535
1210.0 551 568 581 611 654 716 792 880 946 973
1250.0 957 887 798 719 657 605 570 541 515 493
1290.0 474 454 445 443 443 443 439 434 432 440
1330.0 463 495 546 599 655 724 798 858 922 1004
1370.0 1159 1413 1709 1929 1966 1778 1454 1135 883 702
1410.0 568 475 410 375 348 355 385 453 534 693
1450.0 903 1173 1470 1649 1682 1532 1251 908 617 410
1490.0 294 226 180 151 143 120 103 104 91 88
1530.0 68 77 66 74 66 65 57 63 70 49
1570.0 53 51 53 43 48 45 40 45 38 41
1610.0 33 42 35 42 31 39 28 38 26 40
1650.0 27 49 35 26 34 35 28 39 27 44
1690.0 23 29 28 34 22 18 24 34 33 33
1730.0 43 44 45 32 27 25 32 16 25 23
1770.0 29 24 20 22 19 19 19 15 13 17
1810.0 13 14 10 12 7 10 7 9 7 14
1850.0 7 9 8 8 11 10 10 7 12 10
1890.0 14 8 7 5 3 6 9 11 8 2
1930.0 4 2 4 4 6 5 8 6 7 8
1970.0 9 7 7 10 8 10 9 11 9 13
2010.0 14 16 15 11 14 13 16 16 15 18
2050.0 21 21 22 22 18 18 18 19 15 17
2090.0 17 17 14 16 18 19 18 17 17 19
2130.0 21 21 22 23 23 23 25 24 27 25
2170.0 23 22 24 24 27 29 27 29 28 33
2210.0 34 31 31 32 32 33 29 35 29 28
2250.0 29 29 31 32 34 34 31 29 29 29
2290.0 26 20 15 13 11 2 4 7 8 9
2330.0 10 15 12 14 8 2 2 10 25 26
2370.0 23 25 27 29 39 45 55 55 56 61
2410.0 62 59 56 53 52 47 44 43 42 39
2450.0 40 44 44 46 48 44 46 42 49 49
2490.0 46 46 46 46 45 45 41 44 45 48
2530.0 49 47 48 52 53 58 59 62 65 67
2570.0 74 77 79 85 92 96 101 106 111 117
2610.0 118 116 118 117 116 116 117 120 122 127
2650.0 134 137 140 140 146 150 150 152 153 155
2690.0 156 157 160 161 165 160 164 170 175 182
2730.0 190 205 218 224 234 235 225 217 213 212
2770.0 220 226 228 239 256 269 283 303 324 344
2810.0 365 401 432 468 511 560 629 718 844 1009
2850.0 1270 1631 2181 2881 3618 4264 4705 4944 5035 4859
2890.0 4490 3952 3485 3326 3508 4015 4755 5656 6473 7252
2930.0 7802 8091 8116 7742 7019 6201 5675 5834 6945 8628
2970.0 10000 9986 8627 6365 4269 2779 1783 1196 880 701
3010.0 590 516 449 395 358 328 302 285 272 257
3050.0 249 230 220 213 204 190 189 185 178 172
3090.0 166 168 166 154 144 138 131 122 119 108
3130.0 101 106 104 101 104 107 106 105 99 100
3170.0 97 99 94 87 85 85 78 81 75 74
3210.0 71 66 55 48 45 45 38 35 35 31
3250.0 24 32 31 28 26 22 20 27 21 24
3290.0 26 24 22 16 20 21 14 24 15 16
3330.0 23 27 21 31 19 24 15 17 28 20
3370.0 20 26 29 18 31 23 29 23 28 44
3410.0 34 37 36 35 39 28 34 29 38 35
3450.0 41 32 29 33 25 34 24 18 18 27
3490.0 21 23 24 14 14 18 21 10 21 18
3530.0 11 17 12 6 14 15 20 13 22 2
3570.0 22 3 7 9 10 18 7 16 24 33
3610.0 37 35 49 81 117 157 187 226 274 340
3650.0 458 576 598 533 390 254 172 112 81 56
3690.0 45 42 28 33 34 18 29 18 2 21
3730.0 13 18 16 6 24 49 29 8 2 11
3770.0 6 23 1 6 2 4 9 14 28 11
3810.0 37 13 50 34 19 11 18 24 32 23
3850.0 0 14 17 40 41 49 29 28 34 36
3890.0 24 41 5 39 36 35 45 42 36 6
3930.0 24 41 16 5 2 4 9 1 25 21
##END=
