##TITLE=3-Octanol, 6-ethyl-
##JCAMP-DX=4.24
##DATA TYPE=INFRARED SPECTRUM
##ORIGIN=Sadtler Research Labs Under US-EPA Contract
##OWNER=NIST Standard Reference Data Program
##CAS REGISTRY NO=19781-27-2
##MOLFORM=C 10 H 22 O
##XUNITS=1/CM
##YUNITS=ABSORBANCE
##XFACTOR=1.0
##YFACTOR=0.000126135
##DELTAX=4.0
##FIRSTX=450.0
##LASTX=3966.0
##FIRSTY=0.097755
##MAXX=3966
##MINX=450
##MAXY=1.26135
##MINY=0
##NPOINTS=880
##XYDATA=(X++(Y..Y))
450.0 775 358 251 504 446 333 363 96 0 546
490.0 624 329 162 130 247 107 251 277 244 272
530.0 271 279 301 412 447 225 114 234 206 201
570.0 240 131 240 241 233 217 251 243 221 234
610.0 176 215 190 189 193 222 163 171 167 152
650.0 164 166 180 160 183 141 164 150 162 158
690.0 143 145 154 166 155 172 145 180 164 212
730.0 200 179 232 217 243 221 253 261 298 265
770.0 308 372 395 390 337 279 222 212 185 203
810.0 181 232 278 257 185 189 194 224 218 221
850.0 230 231 246 265 283 284 298 294 298 308
890.0 326 359 379 417 441 463 492 552 642 748
930.0 850 913 926 898 850 803 791 820 860 906
970.0 946 1004 1014 1017 1014 975 930 885 858 843
1010.0 853 878 887 875 864 826 806 785 789 793
1050.0 790 771 753 738 730 731 739 770 791 841
1090.0 881 933 967 997 997 963 917 873 852 837
1130.0 844 841 831 795 749 689 621 563 514 481
1170.0 463 461 465 478 492 524 532 544 562 582
1210.0 606 641 686 713 743 758 761 753 750 745
1250.0 721 696 659 639 615 609 609 607 598 586
1290.0 572 565 556 546 546 537 527 516 502 490
1330.0 478 480 492 519 563 616 687 768 830 881
1370.0 945 1054 1240 1431 1524 1436 1209 960 770 633
1410.0 531 457 409 383 374 384 424 493 599 747
1450.0 960 1231 1550 1815 1901 1772 1456 1063 739 505
1490.0 376 296 258 219 199 187 170 161 146 150
1530.0 136 136 131 134 122 129 129 121 120 118
1570.0 118 108 108 103 103 100 100 99 97 95
1610.0 93 93 86 90 87 89 85 84 82 82
1650.0 80 80 78 78 83 73 74 72 70 72
1690.0 66 71 68 73 71 75 79 89 95 104
1730.0 108 110 105 96 93 91 107 122 148 167
1770.0 193 193 163 139 115 89 74 67 60 62
1810.0 55 54 51 51 41 42 44 42 38 38
1850.0 38 33 34 38 38 31 39 39 32 34
1890.0 33 31 31 35 33 31 34 34 35 34
1930.0 35 32 35 27 31 26 25 20 26 22
1970.0 23 25 22 22 18 20 16 19 17 19
2010.0 18 17 19 19 20 20 23 26 26 28
2050.0 31 31 35 33 32 28 25 27 24 25
2090.0 22 15 16 16 17 15 16 16 14 14
2130.0 11 13 12 12 13 16 15 16 12 15
2170.0 13 12 11 13 11 12 15 12 11 12
2210.0 13 17 17 16 17 16 16 16 15 15
2250.0 18 20 13 16 19 17 13 17 22 21
2290.0 26 25 26 27 29 30 30 29 35 25
2330.0 20 34 17 22 22 22 38 26 22 16
2370.0 18 10 22 25 29 31 34 34 35 39
2410.0 37 35 33 39 35 31 32 31 24 25
2450.0 25 23 26 25 25 25 25 26 26 20
2490.0 22 22 26 27 23 24 24 26 25 27
2530.0 28 27 29 32 35 38 41 49 56 59
2570.0 69 72 75 75 83 85 89 94 100 100
2610.0 97 99 92 93 95 93 99 100 103 105
2650.0 112 111 120 128 136 137 138 147 149 153
2690.0 159 164 164 173 166 163 163 164 164 166
2730.0 178 192 207 223 233 225 222 212 206 202
2770.0 211 220 222 238 251 263 274 295 315 336
2810.0 358 391 425 462 510 571 657 768 925 1134
2850.0 1453 1884 2484 3222 3922 4451 4675 4797 4933 4907
2890.0 4587 4028 3485 3287 3483 3995 4791 5705 6620 7370
2930.0 7938 8332 8514 8291 7736 6853 6072 5959 6836 8518
2970.0 10000 9821 8047 5560 3506 2263 1555 1137 883 707
3010.0 597 522 467 418 381 347 320 310 290 278
3050.0 270 262 247 237 226 228 213 212 202 193
3090.0 188 176 167 161 151 142 133 134 129 124
3130.0 115 110 98 99 98 107 105 101 100 96
3170.0 92 89 80 74 75 69 64 62 58 45
3210.0 44 41 28 27 26 21 24 22 14 21
3250.0 21 19 15 14 17 11 10 15 15 18
3290.0 19 26 27 16 16 25 16 26 22 13
3330.0 20 21 22 17 22 23 13 19 37 30
3370.0 29 26 17 29 28 29 27 28 28 31
3410.0 34 43 29 34 33 33 48 49 51 38
3450.0 31 30 33 30 27 32 28 28 15 19
3490.0 12 30 19 28 23 22 12 16 10 16
3530.0 31 21 22 23 24 23 39 29 40 58
3570.0 79 82 58 46 50 44 28 37 33 37
3610.0 51 71 71 104 141 160 171 199 248 331
3650.0 410 507 556 509 417 290 192 132 114 64
3690.0 76 72 60 39 42 48 46 45 48 32
3730.0 27 33 33 18 34 37 45 46 22 30
3770.0 29 12 30 35 29 31 46 43 51 28
3810.0 42 39 26 63 41 39 23 72 48 46
3850.0 57 67 58 26 13 25 57 50 41 37
3890.0 57 51 68 45 26 55 46 15 20 24
3930.0 52 48 50 50 80 101 82 66 62 11
##END=
