##TITLE=3-Decanol, 6-ethyl-,
##JCAMP-DX=4.24
##DATA TYPE=INFRARED SPECTRUM
##ORIGIN=Sadtler Research Labs Under US-EPA Contract
##OWNER=NIST Standard Reference Data Program
##CAS REGISTRY NO=19780-31-5
##MOLFORM=C 12 H 26 O
##XUNITS=1/CM
##YUNITS=ABSORBANCE
##XFACTOR=1.0
##YFACTOR=0.000106772
##DELTAX=4.0
##FIRSTX=450.0
##LASTX=3966.0
##FIRSTY=0.012279
##MAXX=3966
##MINX=450
##MAXY=1.06772
##MINY=0
##NPOINTS=880
##XYDATA=(X++(Y..Y))
450.0 115 103 72 167 58 130 50 101 88 127
490.0 145 80 110 42 136 68 74 89 70 115
530.0 70 109 73 98 80 99 124 95 97 102
570.0 18 50 54 96 90 124 73 105 68 86
610.0 91 61 85 47 81 58 58 66 53 82
650.0 55 93 59 87 60 87 68 66 84 70
690.0 84 71 70 79 72 77 98 99 102 163
730.0 186 169 172 146 168 141 167 164 180 201
770.0 218 265 227 246 215 205 171 146 134 112
810.0 123 111 112 119 114 128 125 168 152 188
850.0 192 170 171 174 216 213 247 236 240 248
890.0 255 289 283 329 331 362 390 415 467 478
930.0 535 526 539 541 551 588 607 684 739 812
970.0 830 822 825 778 791 755 756 722 715 698
1010.0 677 694 686 702 668 664 643 635 651 646
1050.0 668 647 642 629 634 647 649 690 704 754
1090.0 781 827 879 897 899 848 804 738 718 711
1130.0 702 705 684 673 615 580 518 476 455 406
1170.0 408 387 402 404 413 426 428 452 458 497
1210.0 518 555 582 606 639 627 640 616 608 591
1250.0 578 570 542 532 507 511 501 496 490 477
1290.0 491 475 488 480 483 471 457 460 443 444
1330.0 433 452 478 517 565 595 660 705 771 810
1370.0 857 949 1103 1295 1342 1219 967 771 635 537
1410.0 474 402 376 342 337 348 381 458 552 713
1450.0 896 1149 1447 1695 1788 1634 1322 913 605 403
1490.0 313 255 210 197 171 168 145 141 126 120
1530.0 115 103 103 91 90 85 78 90 79 84
1570.0 70 79 74 68 78 65 75 63 78 67
1610.0 66 72 59 72 56 74 59 66 56 56
1650.0 60 60 63 51 62 58 56 64 51 71
1690.0 48 69 58 65 62 58 75 67 78 78
1730.0 89 93 89 93 79 92 93 108 138 158
1770.0 193 176 156 113 92 64 55 54 40 53
1810.0 36 44 33 32 33 26 36 22 33 23
1850.0 27 30 24 30 22 36 23 32 25 23
1890.0 29 21 32 20 33 30 25 32 23 33
1930.0 25 36 30 29 31 26 31 20 30 17
1970.0 25 19 17 26 16 26 17 25 18 18
2010.0 24 15 27 16 29 21 18 21 13 26
2050.0 13 21 14 22 18 13 15 6 22 14
2090.0 21 22 20 29 18 28 21 28 17 24
2130.0 27 20 29 21 34 22 28 30 24 32
2170.0 22 34 22 25 24 19 29 17 27 17
2210.0 29 22 22 22 13 25 15 23 21 19
2250.0 28 20 30 17 23 21 24 24 13 22
2290.0 7 15 7 10 11 9 32 17 30 20
2330.0 43 27 27 56 4 41 39 56 26 6
2370.0 12 4 9 4 19 28 44 45 38 47
2410.0 37 48 40 42 36 36 39 32 41 27
2450.0 38 31 33 36 25 41 24 34 31 28
2490.0 34 23 39 27 38 27 30 34 19 36
2530.0 25 42 34 41 44 41 53 39 56 46
2570.0 57 58 56 63 52 71 60 78 73 81
2610.0 88 78 99 80 98 85 85 95 91 103
2650.0 89 103 101 116 127 110 124 111 128 114
2690.0 121 126 133 145 138 157 141 157 156 160
2730.0 180 182 208 201 226 207 201 201 188 204
2770.0 194 222 215 230 244 261 291 297 341 351
2810.0 391 417 455 502 549 630 703 821 983 1226
2850.0 1588 2087 2832 3649 4420 4818 4841 4730 4764 4731
2890.0 4310 3744 3310 3339 3672 4282 5113 6057 7096 8097
2930.0 9104 9783 10000 9592 8528 7081 5922 5717 6679 8489
2970.0 9858 9179 6920 4507 2948 2034 1487 1138 889 747
3010.0 618 562 467 432 398 347 334 284 293 257
3050.0 250 226 213 219 183 200 171 191 168 162
3090.0 160 145 158 131 140 123 133 135 118 129
3130.0 95 119 94 117 121 109 125 108 127 95
3170.0 117 107 92 104 93 105 88 104 92 96
3210.0 94 73 96 62 79 71 61 70 53 80
3250.0 50 87 60 62 53 36 62 27 47 9
3290.0 39 22 16 39 20 44 22 43 24 28
3330.0 34 17 46 14 47 18 47 27 6 36
3370.0 15 45 11 44 51 27 54 24 59 28
3410.0 45 40 39 56 38 81 27 56 22 33
3450.0 62 23 61 52 58 22 50 55 28 54
3490.0 8 50 21 50 27 17 38 23 47 26
3530.0 62 32 39 34 7 66 36 68 70 99
3570.0 106 118 143 82 127 99 103 80 74 82
3610.0 64 81 86 117 158 151 198 175 258 260
3650.0 342 432 451 479 319 248 148 123 127 80
3690.0 93 57 107 35 68 57 44 55 60 53
3730.0 31 78 54 46 54 2 74 48 38 4
3770.0 38 65 19 71 9 64 38 59 52 61
3810.0 70 22 24 22 40 39 88 67 34 118
3850.0 39 46 61 60 57 57 122 27 105 23
3890.0 59 66 44 95 0 25 13 106 25 5
3930.0 108 3 186 77 94 58 5 37 10 80
##END=
