##TITLE=Benzeneethanol, 2-methyl-
##JCAMP-DX=4.24
##DATA TYPE=INFRARED SPECTRUM
##ORIGIN=Sadtler Research Labs Under US-EPA Contract
##OWNER=NIST Standard Reference Data Program
##CAS REGISTRY NO=19819-98-8
##MOLFORM=C 9 H 12 O
##XUNITS=1/CM
##YUNITS=ABSORBANCE
##XFACTOR=1.0
##YFACTOR=0.000084381
##DELTAX=4.0
##FIRSTX=450.0
##LASTX=3966.0
##FIRSTY=0.061936
##MAXX=3966
##MINX=450
##MAXY=0.84381
##MINY=0
##NPOINTS=880
##XYDATA=(X++(Y..Y))
450.0 734 791 915 804 667 553 453 319 281 294
490.0 267 242 238 300 256 274 299 280 252 224
530.0 187 210 218 263 293 320 350 314 247 218
570.0 185 161 160 173 209 241 261 258 256 289
610.0 269 278 211 177 121 82 83 71 74 43
650.0 63 37 48 45 8 88 88 68 52 94
690.0 80 109 112 150 253 401 706 1139 1673 2440
730.0 3290 3836 4889 5569 5394 5600 4413 3280 2326 1396
770.0 822 477 329 255 230 206 179 172 151 153
810.0 153 149 152 150 150 176 212 258 326 352
850.0 393 408 418 424 420 404 349 314 267 236
890.0 218 215 213 207 230 242 283 328 403 473
930.0 527 575 588 561 527 478 441 425 424 451
970.0 490 556 640 768 937 1159 1398 1598 1775 1925
1010.0 2073 2297 2668 3261 4178 5537 7128 8542 9570 10000
1050.0 9440 8443 7225 5740 4242 2932 2000 1418 1096 928
1090.0 861 850 905 995 1097 1169 1183 1145 1040 934
1130.0 827 769 738 730 715 703 687 686 704 737
1170.0 786 827 880 904 907 901 890 894 897 917
1210.0 913 894 848 801 749 700 667 648 645 648
1250.0 661 679 708 727 738 730 719 703 690 685
1290.0 685 695 707 720 725 734 742 755 781 809
1330.0 853 901 937 967 981 970 947 936 977 1089
1370.0 1288 1613 1973 2263 2355 2279 1985 1560 1207 966
1410.0 829 736 722 721 732 778 897 1060 1248 1465
1450.0 1701 1847 1953 1966 1905 1888 1897 1952 2057 2362
1490.0 2546 2577 2375 2021 1460 829 546 378 336 266
1530.0 251 221 212 194 175 183 160 170 170 158
1570.0 186 216 263 304 335 386 437 509 544 542
1610.0 499 413 312 188 138 82 86 51 58 44
1650.0 53 73 78 54 82 86 121 103 130 117
1690.0 113 92 111 82 77 63 76 67 75 64
1730.0 50 67 45 33 21 33 43 50 44 58
1770.0 67 77 90 125 173 181 182 169 156 125
1810.0 101 99 117 126 145 135 131 104 84 63
1850.0 51 55 63 84 97 101 114 111 110 115
1890.0 146 190 257 299 309 294 261 198 144 130
1930.0 143 173 212 223 208 178 119 72 44 29
1970.0 28 29 29 26 28 26 26 25 25 24
2010.0 27 30 29 32 38 44 47 58 56 66
2050.0 73 76 78 78 76 75 67 60 52 49
2090.0 42 44 43 41 34 31 24 22 13 13
2130.0 9 12 10 8 9 7 11 6 7 2
2170.0 0 1 3 3 1 5 8 8 9 11
2210.0 10 11 9 10 9 13 14 11 14 11
2250.0 16 14 14 12 15 16 18 18 16 20
2290.0 14 13 12 19 18 24 32 43 48 50
2330.0 50 48 46 19 41 39 25 22 4 10
2370.0 14 17 19 23 23 30 32 32 35 39
2410.0 44 43 47 48 51 50 54 51 51 49
2450.0 47 48 42 35 28 32 32 30 31 29
2490.0 31 30 36 29 32 34 31 31 32 29
2530.0 29 28 27 27 27 25 29 34 33 36
2570.0 40 39 41 43 49 44 51 53 47 50
2610.0 50 50 49 49 49 52 54 64 62 70
2650.0 79 76 81 80 93 90 95 97 106 108
2690.0 109 110 110 119 125 136 147 160 178 199
2730.0 218 239 262 287 303 310 312 295 289 275
2770.0 272 275 280 287 293 300 306 318 325 340
2810.0 357 380 413 445 485 536 595 661 757 872
2850.0 1032 1230 1501 1856 2330 2929 3640 4346 4826 5025
2890.0 4831 4416 3932 3567 3367 3353 3522 3806 4213 4664
2930.0 5144 5508 5806 5975 6047 6057 6058 6108 6011 5715
2970.0 5229 4595 3853 3128 2514 2043 1701 1497 1434 1540
3010.0 1865 2408 3057 3540 3762 3674 3260 2698 2267 2040
3050.0 2017 2184 2481 2867 3211 3458 3489 3295 2805 2178
3090.0 1607 1164 890 756 689 620 534 435 338 259
3130.0 199 173 155 139 136 136 128 129 113 100
3170.0 88 69 57 50 44 36 29 22 23 23
3210.0 19 17 18 15 16 20 12 12 11 8
3250.0 11 8 12 12 10 8 10 15 11 12
3290.0 18 12 13 14 18 20 23 25 26 24
3330.0 29 25 19 22 19 10 18 24 23 31
3370.0 34 31 40 32 19 28 28 29 30 31
3410.0 21 30 24 22 28 26 28 28 28 30
3450.0 22 36 35 36 29 32 37 35 37 37
3490.0 37 40 27 19 25 32 28 22 27 8
3530.0 27 31 51 50 55 44 41 64 50 48
3570.0 71 55 70 67 84 84 80 75 89 117
3610.0 172 236 411 639 807 925 895 783 676 626
3650.0 708 919 1099 1298 1421 1400 1218 999 739 492
3690.0 321 223 191 147 138 104 99 99 70 58
3730.0 54 46 47 24 87 14 25 14 16 19
3770.0 10 29 17 16 14 21 17 15 4 25
3810.0 19 22 18 17 19 23 19 17 11 40
3850.0 31 59 37 33 51 51 47 71 57 72
3890.0 83 49 58 57 51 42 40 25 30 30
3930.0 25 38 20 34 3 0 3 1 7 11
##END=
