##TITLE=Benzeneacetic acid, .alpha.-cyclopentyl-.alpha.-hydroxy-, methyl ester
##JCAMP-DX=4.24
##DATA TYPE=INFRARED SPECTRUM
##ORIGIN=Sadtler Research Labs Under US-EPA Contract
##OWNER=NIST Standard Reference Data Program
##CAS REGISTRY NO=19833-96-6
##MOLFORM=C 14 H 18 O 3
##XUNITS=1/CM
##YUNITS=ABSORBANCE
##XFACTOR=1.0
##YFACTOR=0.000056458
##DELTAX=4.0
##FIRSTX=450.0
##LASTX=3966.0
##FIRSTY=0.000000
##MAXX=3966
##MINX=450
##MAXY=0.56458
##MINY=0
##NPOINTS=880
##XYDATA=(X++(Y..Y))
450.0 0 149 202 101 177 273 242 211 256 252
490.0 283 361 422 428 367 381 337 200 167 182
530.0 128 134 99 89 77 77 102 111 113 79
570.0 64 85 101 89 143 153 157 258 364 478
610.0 586 633 591 508 386 279 241 229 184 172
650.0 152 184 220 291 299 341 406 419 520 754
690.0 1402 2379 3331 3307 2497 1614 1161 972 1183 1749
730.0 2252 2368 2073 1712 1362 1133 924 758 640 501
770.0 402 349 316 372 491 566 539 422 288 219
810.0 171 162 137 113 107 93 97 97 102 123
850.0 153 192 253 321 392 383 341 304 271 277
890.0 310 348 398 411 422 460 495 496 468 401
930.0 362 359 427 499 587 640 639 566 487 463
970.0 534 711 939 1134 1155 1024 856 759 712 733
1010.0 801 965 1200 1476 1723 1921 2053 2024 1862 1637
1050.0 1433 1325 1325 1474 1706 1857 1786 1570 1421 1408
1090.0 1524 1705 1854 1884 1804 1693 1687 1712 1652 1497
1130.0 1305 1176 1110 1089 1146 1243 1414 1698 2207 2929
1170.0 3770 4496 4961 5209 5385 5576 5556 5072 4386 3924
1210.0 3983 4482 5188 5875 6394 6783 7197 7729 8334 8815
1250.0 8925 8270 6894 5217 3803 2858 2318 1984 1766 1580
1290.0 1444 1342 1282 1246 1247 1233 1200 1135 1058 1020
1330.0 1005 1006 1005 966 916 880 863 872 905 916
1370.0 917 903 849 745 634 538 480 443 414 425
1410.0 435 450 486 518 617 904 1436 1979 2250 2147
1450.0 1951 1689 1417 1174 995 900 861 833 814 856
1490.0 989 1159 1205 1002 669 373 239 202 193 161
1530.0 155 162 173 175 167 143 148 166 169 171
1570.0 196 208 230 261 299 366 442 525 533 464
1610.0 331 235 203 174 183 178 240 237 185 156
1650.0 171 163 168 177 207 238 285 318 359 406
1690.0 422 487 565 657 702 780 931 1190 1601 2334
1730.0 3901 6199 8923 10000 8449 5867 4192 3546 3285 2711
1770.0 1977 1304 896 689 603 578 598 614 601 534
1810.0 433 343 253 216 182 168 145 129 126 124
1850.0 117 105 111 108 121 134 136 149 165 178
1890.0 183 187 169 162 144 135 117 118 121 113
1930.0 119 133 163 200 242 249 235 223 209 191
1970.0 157 137 129 135 131 141 131 129 129 130
2010.0 125 128 138 139 133 134 137 139 136 136
2050.0 136 130 130 132 125 126 124 129 121 125
2090.0 121 117 116 115 117 114 112 116 119 116
2130.0 117 120 118 123 115 120 120 122 121 124
2170.0 123 122 124 126 126 121 130 125 125 118
2210.0 119 116 113 112 111 109 109 110 104 104
2250.0 102 104 105 99 97 95 91 90 90 86
2290.0 87 82 76 84 74 70 65 65 64 64
2330.0 64 64 80 102 110 104 76 79 93 132
2370.0 145 135 138 133 123 115 108 111 113 116
2410.0 118 119 110 106 101 102 99 97 103 99
2450.0 100 103 104 99 102 100 104 105 106 108
2490.0 103 106 103 102 97 106 105 105 105 109
2530.0 115 108 108 105 108 107 107 104 110 114
2570.0 117 115 119 119 122 130 130 133 134 131
2610.0 127 130 131 126 133 132 131 127 128 132
2650.0 132 125 124 125 115 125 119 120 120 121
2690.0 124 128 126 129 122 124 132 125 133 136
2730.0 138 139 142 142 137 141 143 150 149 160
2770.0 159 169 167 171 179 183 185 191 200 199
2810.0 210 226 237 261 285 323 362 433 535 678
2850.0 837 952 1023 1142 1423 1998 2826 3531 3586 2979
2890.0 2200 1715 1534 1510 1593 1760 2023 2303 2531 2679
2930.0 2804 2968 3247 3680 4322 5285 6611 8212 9508 9704
2970.0 8679 6704 4594 3056 2082 1604 1391 1330 1337 1326
3010.0 1255 1142 1055 1055 1144 1282 1388 1422 1393 1287
3050.0 1139 1065 1142 1397 1730 2020 2084 1785 1315 985
3090.0 935 1001 998 852 667 519 427 364 315 281
3130.0 263 235 214 209 199 196 198 202 197 203
3170.0 199 195 183 176 164 154 152 144 149 144
3210.0 138 147 149 134 140 131 134 130 131 128
3250.0 120 122 130 116 115 128 126 121 124 125
3290.0 130 120 125 122 128 127 130 125 130 128
3330.0 117 122 125 130 127 130 134 131 124 116
3370.0 129 139 135 135 150 140 131 138 143 140
3410.0 147 142 152 150 146 152 152 158 173 176
3450.0 182 198 209 214 216 192 186 202 211 230
3490.0 239 272 281 296 342 370 426 486 603 775
3530.0 1092 1564 2131 2540 2680 2500 2161 1764 1381 1057
3570.0 821 652 518 417 358 319 282 260 242 219
3610.0 232 281 347 558 842 1065 942 622 328 192
3650.0 160 150 145 135 114 109 76 84 86 66
3690.0 66 64 78 73 84 82 73 81 79 67
3730.0 69 63 85 69 70 64 69 76 64 67
3770.0 69 74 72 80 65 71 67 75 65 68
3810.0 64 76 71 68 64 74 65 64 68 67
3850.0 64 63 84 85 64 70 64 69 77 66
3890.0 64 75 87 93 85 72 86 81 88 72
3930.0 85 102 71 86 75 64 82 65 83 77
##END=
