##TITLE=Malonic acid, phenylpropyl-, diethyl ester
##JCAMP-DX=4.24
##DATA TYPE=INFRARED SPECTRUM
##ORIGIN=Sadtler Research Labs Under US-EPA Contract
##OWNER=NIST Standard Reference Data Program
##CAS REGISTRY NO=19846-06-1
##MOLFORM=C 16 H 22 O 4
##XUNITS=1/CM
##YUNITS=ABSORBANCE
##XFACTOR=1.0
##YFACTOR=0.000087482
##DELTAX=4.0
##FIRSTX=450.0
##LASTX=3966.0
##FIRSTY=0.013297
##MAXX=3966
##MINX=450
##MAXY=0.87482
##MINY=0
##NPOINTS=880
##XYDATA=(X++(Y..Y))
450.0 152 94 33 66 91 27 11 25 21 22
490.0 56 24 73 54 91 39 56 34 43 86
530.0 88 109 119 129 150 196 184 202 242 300
570.0 404 474 501 398 301 254 230 184 171 150
610.0 116 137 152 154 142 146 130 132 126 116
650.0 121 128 125 151 165 183 207 208 241 281
690.0 618 1560 2648 2367 1212 482 269 181 142 142
730.0 170 223 286 412 544 717 876 946 863 650
770.0 450 306 231 207 207 211 217 227 240 253
810.0 229 218 198 177 172 169 164 169 193 214
850.0 223 272 354 433 486 531 500 392 268 182
890.0 129 137 170 204 181 147 120 118 113 122
930.0 141 158 172 165 147 133 140 160 191 217
970.0 236 237 225 225 232 265 331 427 547 681
1010.0 804 915 1040 1276 1717 2353 2986 3323 3266 2922
1050.0 2514 2146 1836 1543 1352 1280 1290 1311 1350 1446
1090.0 1639 1939 2257 2557 2705 2869 3049 3107 3122 3307
1130.0 3736 4211 4573 4792 5032 5375 5779 5998 5960 5731
1170.0 5467 5308 5214 4909 4287 3647 3349 3406 3573 3716
1210.0 3898 4139 4248 4205 4107 4125 4298 4539 4763 4902
1250.0 5047 5116 4974 4513 3878 3313 2953 2794 2761 2789
1290.0 2831 2899 3007 3181 3355 3361 3119 2782 2545 2374
1330.0 2127 1763 1382 1118 969 852 788 797 946 1390
1370.0 1881 1926 1556 1254 1080 928 774 659 581 501
1410.0 426 393 312 320 311 341 347 400 508 653
1450.0 898 1080 1086 1037 1087 1099 977 818 691 568
1490.0 538 676 717 553 272 116 88 63 32 60
1530.0 60 75 66 34 25 42 34 5 31 49
1570.0 50 64 94 125 173 185 209 253 312 323
1610.0 248 150 72 61 43 58 47 40 60 61
1650.0 53 58 95 108 120 127 120 169 153 185
1690.0 223 277 286 370 471 589 681 765 957 1205
1730.0 1674 2431 3935 6128 8881 10000 9042 7381 6447 6172
1770.0 5812 4655 3042 1876 1218 903 719 632 506 433
1810.0 352 301 251 212 172 142 130 120 103 80
1850.0 94 98 99 103 102 90 107 113 112 106
1890.0 93 92 85 80 71 69 55 50 49 58
1930.0 68 88 120 116 98 89 98 94 74 48
1970.0 41 40 38 44 43 36 36 37 42 42
2010.0 40 39 37 37 36 38 40 30 31 32
2050.0 33 32 33 30 26 32 29 30 30 28
2090.0 28 28 27 27 24 22 19 20 19 14
2130.0 17 13 11 12 10 11 9 7 3 6
2170.0 6 5 5 1 3 1 3 0 2 2
2210.0 1 3 2 6 6 8 8 13 8 11
2250.0 13 12 14 14 13 11 12 11 10 8
2290.0 11 11 11 13 11 17 20 23 18 15
2330.0 9 16 29 20 27 16 15 11 15 14
2370.0 21 21 25 16 17 17 20 18 19 20
2410.0 23 22 21 23 22 21 18 20 19 14
2450.0 21 17 17 15 15 14 13 14 13 10
2490.0 9 13 7 9 10 10 12 11 9 12
2530.0 13 12 15 11 14 15 17 17 13 14
2570.0 17 14 16 15 16 16 18 17 19 23
2610.0 23 23 20 19 22 20 20 21 20 21
2650.0 15 17 16 19 18 23 22 24 28 25
2690.0 28 30 27 30 30 33 37 38 42 41
2730.0 49 51 55 60 66 73 68 65 66 70
2770.0 74 85 86 91 92 88 91 95 101 104
2810.0 111 124 128 135 142 147 153 167 182 201
2850.0 218 239 266 317 397 524 688 893 1158 1352
2890.0 1277 1034 874 866 935 1029 1099 1111 1102 1155
2930.0 1343 1705 2190 2626 2737 2401 1965 1787 1984 2531
2970.0 3237 3747 3924 3981 3906 3430 2668 2082 1721 1439
3010.0 1207 991 826 759 834 1060 1343 1432 1155 785
3050.0 562 493 505 607 860 1166 1189 900 646 613
3090.0 630 576 442 330 281 270 254 216 169 135
3130.0 120 111 102 101 99 98 92 88 85 83
3170.0 83 79 73 64 61 57 57 48 44 45
3210.0 47 43 44 44 42 40 35 27 31 33
3250.0 32 26 25 24 23 20 25 24 19 18
3290.0 23 23 19 20 26 20 17 21 19 24
3330.0 19 19 18 22 25 24 22 22 19 22
3370.0 20 24 26 28 23 21 21 24 22 23
3410.0 22 17 21 19 30 24 22 19 31 28
3450.0 27 28 30 30 41 43 56 58 64 65
3490.0 63 63 59 54 42 29 24 21 17 10
3530.0 8 8 14 11 1 4 12 11 13 8
3570.0 15 15 14 20 16 17 12 18 23 19
3610.0 16 27 24 28 21 24 26 35 25 29
3650.0 31 37 25 19 27 33 34 29 20 36
3690.0 39 32 28 38 38 35 30 32 37 36
3730.0 42 35 37 32 35 32 43 35 33 29
3770.0 31 14 24 39 33 31 26 37 32 37
3810.0 27 27 39 33 25 14 28 34 45 19
3850.0 20 16 27 30 20 35 30 21 24 34
3890.0 18 24 21 28 31 33 25 24 20 25
3930.0 39 19 29 33 24 27 27 31 23 20
##END=
