##TITLE=Benzene, 1,2-dichloro-3-methoxy-
##JCAMP-DX=4.24
##DATA TYPE=INFRARED SPECTRUM
##ORIGIN=Sadtler Research Labs Under US-EPA Contract
##OWNER=NIST Standard Reference Data Program
##CAS REGISTRY NO=1984-59-4
##MOLFORM=C 7 H 6 Cl 2 O
##XUNITS=1/CM
##YUNITS=ABSORBANCE
##XFACTOR=1.0
##YFACTOR=0.000053967
##DELTAX=4.0
##FIRSTX=450.0
##LASTX=3966.0
##FIRSTY=0.000000
##MAXX=3966
##MINX=450
##MAXY=0.53967
##MINY=0
##NPOINTS=880
##XYDATA=(X++(Y..Y))
450.0 0 990 1160 1455 1114 1304 1052 1138 1133 1101
490.0 893 1047 1174 1157 1074 1083 1239 1213 1277 1157
530.0 1231 1070 1093 1213 1145 1261 1318 1213 1212 1311
570.0 1243 1242 1277 1261 1213 1147 1177 1303 1393 1384
610.0 1534 1632 1746 1727 1642 1573 1477 1312 1270 1207
650.0 1172 1056 1089 1081 1064 1154 1179 1176 1198 1319
690.0 1437 1586 1687 2028 2492 2722 2783 2473 2113 1869
730.0 1791 1793 1773 1763 1764 1851 2111 2496 3079 4051
770.0 4098 3841 3602 3078 2451 2029 1619 1429 1265 1187
810.0 1225 1144 1181 1218 1202 1283 1350 1490 1634 1949
850.0 2512 3152 3706 3920 3701 3073 2250 1721 1472 1347
890.0 1313 1249 1222 1222 1163 1137 1109 1098 1085 1055
930.0 1090 1055 1062 1098 1091 1108 1113 1126 1120 1109
970.0 1143 1152 1173 1236 1305 1391 1534 1733 1984 2260
1010.0 2615 3016 3560 4334 5240 6139 6931 7710 8412 8759
1050.0 8678 8374 7852 7075 6481 5815 4764 3620 2734 2198
1090.0 1957 1846 1878 2009 2118 2173 2079 1907 1640 1412
1130.0 1295 1240 1226 1255 1284 1388 1441 1501 1482 1411
1170.0 1398 1409 1505 1699 1803 1805 1741 1582 1395 1260
1210.0 1251 1243 1271 1306 1369 1487 1619 1852 2234 2801
1250.0 3790 5246 7111 8908 9991 10000 8885 7369 6212 5783
1290.0 5719 5460 4890 3970 2849 2102 1764 1631 1586 1526
1330.0 1555 1560 1469 1327 1235 1224 1182 1200 1243 1193
1370.0 1256 1242 1219 1269 1241 1329 1362 1432 1625 1836
1410.0 2385 3045 4069 5261 6541 8134 9165 8979 8421 7076
1450.0 5618 5318 6986 9226 9981 9696 7631 4680 2914 2210
1490.0 1924 1773 1708 1645 1600 1530 1522 1419 1440 1363
1530.0 1385 1412 1414 1490 1560 1812 2102 2575 3516 4595
1570.0 6566 8282 8526 8230 6103 4199 2837 2192 1832 1690
1610.0 1522 1382 1321 1232 1250 1186 1204 1150 1139 1203
1650.0 1120 1120 1100 1136 1099 1084 1073 1063 1063 1027
1690.0 1019 1041 1048 975 1034 1061 1081 1078 1053 1086
1730.0 1042 1052 1014 1026 1046 1036 1028 1017 1018 1034
1770.0 1018 1004 1028 1025 1028 1021 1029 1021 1066 1065
1810.0 1075 1080 1069 1067 1041 1036 1031 1023 1028 1011
1850.0 1010 999 1006 1007 992 1019 1012 1045 1054 1091
1890.0 1122 1161 1204 1226 1218 1211 1171 1122 1082 1050
1930.0 1024 993 991 981 967 967 970 971 962 967
1970.0 968 953 962 957 956 971 970 965 967 979
2010.0 978 977 989 997 1001 1007 1012 1014 1016 1022
2050.0 1025 1016 1016 1010 1005 997 1002 1010 1014 1029
2090.0 1038 1044 1052 1068 1074 1085 1110 1128 1133 1145
2130.0 1137 1117 1102 1074 1052 1045 1035 1034 1015 1007
2170.0 1000 986 982 980 966 960 964 964 956 960
2210.0 954 943 945 949 946 936 940 939 934 941
2250.0 946 942 943 952 952 949 958 969 969 985
2290.0 1013 1021 1028 1047 1051 1049 1047 1045 1052 1057
2330.0 1059 1066 1045 991 964 1009 1005 977 943 1021
2370.0 1020 984 966 965 946 926 918 924 920 924
2410.0 936 931 938 946 959 967 973 990 992 981
2450.0 978 970 956 960 955 954 955 958 957 956
2490.0 967 966 966 972 976 983 999 1019 1028 1044
2530.0 1060 1056 1062 1065 1071 1065 1071 1069 1055 1024
2570.0 1019 994 975 980 981 971 968 976 973 967
2610.0 976 977 971 975 980 968 970 973 968 964
2650.0 973 971 963 960 968 957 959 958 962 955
2690.0 965 961 960 962 971 967 967 980 990 995
2730.0 1010 1004 996 1001 994 996 994 995 1000 988
2770.0 985 987 980 989 1000 1012 1015 1027 1040 1047
2810.0 1081 1114 1145 1204 1278 1377 1536 1769 2011 2148
2850.0 2170 2064 1845 1644 1543 1505 1494 1516 1533 1539
2890.0 1530 1536 1536 1600 1704 1807 1897 1960 1963 1910
2930.0 1903 1991 2285 2759 3155 3300 3263 2978 2662 2499
2970.0 2388 2213 2032 1866 1754 1705 1689 1771 1912 2116
3010.0 2353 2449 2367 2188 1895 1605 1424 1346 1297 1264
3050.0 1246 1254 1300 1373 1499 1649 1782 1876 1908 1829
3090.0 1680 1506 1341 1201 1121 1102 1075 1049 1045 1049
3130.0 1051 1052 1052 1050 1050 1059 1039 1019 1033 1008
3170.0 990 1010 1009 1001 1002 1004 988 979 1012 998
3210.0 981 988 987 989 984 991 979 969 979 991
3250.0 982 986 976 970 969 992 978 962 979 961
3290.0 961 963 977 961 953 985 991 947 958 978
3330.0 955 962 970 965 959 983 965 956 967 970
3370.0 958 963 969 975 957 975 969 959 960 968
3410.0 967 946 967 964 965 970 967 944 959 962
3450.0 953 949 968 971 962 977 953 953 955 955
3490.0 955 962 969 976 976 977 947 941 952 979
3530.0 970 948 976 969 968 982 957 970 951 990
3570.0 970 975 956 985 961 979 946 976 979 989
3610.0 956 965 963 966 992 953 981 959 984 965
3650.0 981 928 985 949 985 982 943 961 943 1000
3690.0 939 978 964 975 949 961 956 983 966 1002
3730.0 962 954 978 942 984 916 994 951 985 979
3770.0 972 974 954 966 955 960 995 944 1025 973
3810.0 1041 979 993 948 970 989 989 961 961 1001
3850.0 987 915 948 1001 956 968 968 986 984 977
3890.0 975 942 997 1009 931 955 969 937 975 1006
3930.0 1003 1019 1007 991 975 972 947 1017 978 1013
##END=
