##TITLE=Benzene, 1,3-dichloro-2-methoxy-
##JCAMP-DX=4.24
##DATA TYPE=INFRARED SPECTRUM
##ORIGIN=Sadtler Research Labs Under US-EPA Contract
##OWNER=NIST Standard Reference Data Program
##CAS REGISTRY NO=1984-65-2
##MOLFORM=C 7 H 6 Cl 2 O
##XUNITS=1/CM
##YUNITS=ABSORBANCE
##XFACTOR=1.0
##YFACTOR=0.000060449
##DELTAX=4.0
##FIRSTX=450.0
##LASTX=3966.0
##FIRSTY=0.017349
##MAXX=3966
##MINX=450
##MAXY=0.60449
##MINY=0
##NPOINTS=880
##XYDATA=(X++(Y..Y))
450.0 287 301 268 283 234 192 155 103 92 112
490.0 115 98 89 150 167 118 132 201 217 441
530.0 481 592 601 570 602 401 440 187 208 180
570.0 80 139 131 418 550 665 695 741 745 496
610.0 380 203 243 117 142 64 97 66 39 148
650.0 82 101 83 91 85 26 48 67 125 46
690.0 59 133 190 136 119 161 214 454 545 831
730.0 1181 1684 2142 2333 2050 1578 1609 1807 2551 3528
770.0 5756 8244 6597 8084 8015 8377 7629 6152 4351 3054
810.0 2104 1287 786 466 341 262 193 180 118 153
850.0 188 196 208 195 199 156 138 79 97 55
890.0 86 66 69 89 116 133 106 89 117 156
930.0 166 196 196 197 217 150 174 168 218 254
970.0 280 373 498 775 1174 1914 3075 4645 6536 7302
1010.0 7406 6025 4162 2479 1386 950 786 732 593 473
1050.0 433 594 1019 1637 2316 2704 2831 2406 1859 1233
1090.0 885 787 794 837 753 656 474 295 185 105
1130.0 114 143 239 343 545 616 680 662 533 469
1170.0 409 377 310 330 392 584 1023 1521 1735 1651
1210.0 1429 915 629 620 759 997 1320 1982 2981 4598
1250.0 6815 8722 10000 9765 8518 6013 3830 2324 1465 992
1290.0 728 574 459 409 330 325 321 331 365 345
1330.0 329 271 269 241 228 232 215 248 267 258
1370.0 222 256 240 232 283 339 562 923 1444 2195
1410.0 3519 5590 7742 8088 7883 7533 6326 6163 5891 5385
1450.0 4358 3608 4416 6119 8706 9862 9745 8141 5198 3036
1490.0 1844 1214 988 768 832 674 535 487 490 357
1530.0 309 389 446 616 566 719 1109 1867 2494 2792
1570.0 2785 2145 1227 650 485 389 330 271 247 226
1610.0 217 191 248 201 207 199 212 234 132 235
1650.0 234 454 264 279 254 278 160 103 107 195
1690.0 67 77 165 209 101 21 49 146 48 11
1730.0 23 142 53 61 24 65 8 24 55 57
1770.0 149 224 179 171 146 87 128 86 109 83
1810.0 101 100 94 88 99 142 146 214 288 362
1850.0 320 252 203 116 93 134 83 80 52 67
1890.0 87 89 101 120 170 222 258 266 216 144
1930.0 77 37 6 23 11 22 13 34 17 41
1970.0 51 44 62 71 113 138 163 175 205 230
2010.0 219 203 161 126 102 84 62 60 90 100
2050.0 128 144 168 196 202 185 144 127 85 76
2090.0 44 24 31 21 23 14 15 15 26 16
2130.0 10 11 10 20 11 13 6 19 20 7
2170.0 10 8 25 10 19 11 18 20 20 20
2210.0 23 42 49 58 61 63 70 54 46 29
2250.0 38 50 72 87 100 132 143 137 107 84
2290.0 72 65 65 47 73 76 90 66 79 83
2330.0 85 105 75 99 76 92 102 121 145 159
2370.0 149 106 82 62 54 42 28 26 26 35
2410.0 27 25 20 24 22 17 14 5 18 15
2450.0 21 20 19 36 36 43 41 55 65 79
2490.0 77 97 123 134 161 171 179 180 168 135
2530.0 104 83 64 54 40 27 29 31 38 23
2570.0 30 23 39 34 28 24 23 38 25 25
2610.0 22 23 24 24 24 16 34 32 36 29
2650.0 34 38 36 40 25 51 42 42 34 32
2690.0 30 25 33 16 33 34 46 50 52 69
2730.0 62 61 43 33 25 28 23 13 27 25
2770.0 38 29 30 29 38 48 46 72 78 124
2810.0 149 198 285 411 582 708 766 700 587 505
2850.0 500 594 715 851 897 863 745 640 553 537
2890.0 584 663 775 851 876 840 796 799 834 958
2930.0 1088 1284 1514 1817 2160 2512 2643 2408 2102 1752
2970.0 1506 1337 1197 1038 862 796 758 808 869 1006
3010.0 1165 1262 1258 1174 984 781 665 570 516 479
3050.0 464 505 541 646 792 962 1047 1110 990 782
3090.0 622 421 296 219 185 185 166 177 161 166
3130.0 173 185 148 114 93 74 57 29 38 21
3170.0 38 21 14 17 12 30 9 19 15 27
3210.0 24 8 16 9 25 18 4 11 8 30
3250.0 12 14 1 20 19 21 13 13 32 18
3290.0 10 8 14 22 15 18 0 22 16 40
3330.0 16 14 27 32 38 6 28 26 33 17
3370.0 13 16 11 44 11 10 16 23 22 13
3410.0 18 18 34 20 25 28 23 40 30 34
3450.0 17 49 25 25 17 16 43 19 34 9
3490.0 42 44 33 30 29 43 45 34 20 43
3530.0 45 31 44 22 72 46 62 34 49 102
3570.0 124 100 69 69 84 98 57 59 50 61
3610.0 110 90 89 72 73 147 79 52 52 91
3650.0 144 95 78 52 59 119 134 128 75 81
3690.0 119 67 57 82 58 101 80 74 93 99
3730.0 88 134 153 127 192 158 125 85 77 62
3770.0 68 62 64 69 37 49 58 88 121 81
3810.0 74 80 122 114 71 70 105 143 101 100
3850.0 117 196 129 124 141 150 157 136 132 126
3890.0 124 120 111 103 74 71 62 63 38 46
3930.0 64 64 52 39 66 69 19 23 23 24
##END=
