##TITLE=3-Octanol, 2,2-dimethyl-
##JCAMP-DX=4.24
##DATA TYPE=INFRARED SPECTRUM
##ORIGIN=Sadtler Research Labs Under US-EPA Contract
##OWNER=NIST Standard Reference Data Program
##CAS REGISTRY NO=19841-72-6
##MOLFORM=C 10 H 22 O
##XUNITS=1/CM
##YUNITS=ABSORBANCE
##XFACTOR=1.0
##YFACTOR=0.000144202
##DELTAX=4.0
##FIRSTX=450.0
##LASTX=3966.0
##FIRSTY=0.014997
##MAXX=3966
##MINX=450
##MAXY=1.44202
##MINY=0
##NPOINTS=880
##XYDATA=(X++(Y..Y))
450.0 104 42 38 36 37 18 23 76 41 18
490.0 13 37 49 32 32 36 65 51 50 60
530.0 51 56 57 63 52 50 63 74 83 70
570.0 81 67 61 42 24 44 17 30 29 22
610.0 32 29 30 30 28 23 22 18 21 21
650.0 29 29 29 26 23 19 15 31 24 20
690.0 34 32 38 45 53 63 78 86 98 104
730.0 107 114 97 93 89 86 86 89 82 78
770.0 72 78 61 64 80 53 43 56 40 33
810.0 47 53 51 60 57 67 68 91 87 86
850.0 76 71 78 77 89 103 118 125 139 148
890.0 152 150 143 141 137 147 169 208 260 319
930.0 371 415 440 433 400 346 296 252 226 218
970.0 208 207 218 242 267 316 377 465 545 606
1010.0 604 546 459 376 326 303 306 312 327 353
1050.0 393 433 478 512 525 537 527 521 489 445
1090.0 403 370 349 351 379 412 441 433 396 331
1130.0 270 222 187 173 171 178 189 214 236 258
1170.0 274 285 289 295 308 317 327 321 320 310
1210.0 312 311 318 327 338 357 361 365 356 351
1250.0 338 337 336 338 338 335 332 322 319 309
1290.0 308 296 290 276 256 240 225 212 202 202
1330.0 201 221 249 288 328 370 418 499 646 822
1370.0 945 919 809 682 584 549 563 622 576 481
1410.0 325 245 198 194 188 202 244 306 420 545
1450.0 733 854 956 1000 1009 991 922 912 824 709
1490.0 524 332 223 149 128 101 85 76 61 66
1530.0 48 50 36 42 31 32 27 24 28 24
1570.0 23 19 22 19 19 16 18 15 14 15
1610.0 11 14 12 15 12 13 12 15 12 10
1650.0 10 11 13 10 11 9 12 10 8 12
1690.0 11 9 7 10 8 7 6 6 10 8
1730.0 8 4 8 10 8 4 5 7 7 7
1770.0 4 6 5 4 4 2 3 2 4 3
1810.0 2 1 3 0 2 0 4 2 0 2
1850.0 0 0 0 0 0 0 4 0 2 3
1890.0 2 1 2 0 1 1 0 0 2 1
1930.0 0 2 4 2 4 3 3 2 2 3
1970.0 3 1 0 0 2 0 2 1 2 4
2010.0 3 1 2 5 5 6 5 6 4 3
2050.0 5 4 4 1 2 0 0 1 1 2
2090.0 1 1 3 3 3 4 4 6 6 6
2130.0 7 6 5 3 7 7 8 6 8 5
2170.0 5 6 6 5 5 6 5 3 3 4
2210.0 5 3 5 4 4 6 6 5 5 6
2250.0 4 3 5 5 3 5 4 7 7 8
2290.0 10 10 9 9 9 8 7 3 3 5
2330.0 1 3 6 8 12 6 3 4 10 18
2370.0 18 20 23 23 18 15 16 14 13 13
2410.0 16 13 13 13 13 13 13 10 10 11
2450.0 9 9 8 9 12 10 10 12 12 14
2490.0 11 12 11 13 12 11 13 14 13 15
2530.0 16 19 21 22 24 23 25 25 26 31
2570.0 31 33 36 39 41 44 48 50 53 56
2610.0 58 61 62 61 64 68 72 75 81 85
2650.0 93 101 109 118 129 136 135 130 122 116
2690.0 110 105 106 103 106 105 110 109 116 119
2730.0 121 122 126 130 130 129 126 128 124 124
2770.0 124 129 135 147 166 187 208 231 247 265
2810.0 285 308 335 369 412 469 558 699 927 1301
2850.0 1848 2561 3403 4087 4328 4090 3738 3480 3300 3083
2890.0 2854 2659 2656 2886 3260 3804 4470 5373 6502 7932
2930.0 9240 10000 9775 8792 7672 6493 5838 5879 6491 7051
2970.0 7091 6109 4579 3104 2071 1431 1017 756 587 474
3010.0 399 347 308 274 248 222 201 182 165 149
3050.0 138 128 122 113 107 103 99 98 91 90
3090.0 88 83 81 81 78 69 72 68 68 71
3130.0 67 68 71 73 72 76 75 74 74 72
3170.0 68 68 64 66 67 62 65 59 58 55
3210.0 54 53 49 45 43 41 40 37 31 29
3250.0 29 26 22 23 23 17 14 16 14 14
3290.0 12 14 12 13 15 13 12 16 13 16
3330.0 16 15 18 17 18 19 16 20 14 18
3370.0 16 18 17 18 22 18 17 11 14 18
3410.0 14 18 14 14 18 19 19 19 17 14
3450.0 21 14 15 12 13 10 16 15 10 18
3490.0 11 14 9 10 11 11 10 8 8 6
3530.0 12 5 8 2 7 8 7 4 3 3
3570.0 7 7 3 2 8 12 11 15 17 19
3610.0 25 24 20 36 44 62 79 80 101 111
3650.0 142 185 227 282 289 275 212 156 96 68
3690.0 52 40 32 27 30 28 26 25 13 25
3730.0 10 21 21 16 26 24 21 22 13 19
3770.0 20 22 18 18 16 16 21 19 17 25
3810.0 19 18 21 30 18 24 22 24 26 29
3850.0 25 30 33 26 25 18 28 29 29 30
3890.0 19 28 14 30 26 25 20 17 21 13
3930.0 19 18 12 9 9 14 21 17 15 14
##END=
