##TITLE=2,6-Pyridinedicarboxylic acid, 4-methoxy-, dimethyl ester
##JCAMP-DX=4.24
##DATA TYPE=INFRARED SPECTRUM
##ORIGIN=Sadtler Research Labs Under US-EPA Contract
##OWNER=NIST Standard Reference Data Program
##CAS REGISTRY NO=19872-93-6
##MOLFORM=C 10 H 11 N O 5
##XUNITS=1/CM
##YUNITS=ABSORBANCE
##XFACTOR=1.0
##YFACTOR=0.000047452
##DELTAX=4.0
##FIRSTX=450.0
##LASTX=3966.0
##FIRSTY=0.000000
##MAXX=3966
##MINX=450
##MAXY=0.47452
##MINY=0
##NPOINTS=880
##XYDATA=(X++(Y..Y))
450.0 0 92 130 178 101 177 175 104 86 80
490.0 59 22 64 73 115 131 100 92 51 91
530.0 66 62 94 98 79 142 104 68 88 105
570.0 113 169 135 139 153 140 162 148 124 140
610.0 108 104 114 88 73 65 68 66 54 38
650.0 39 31 38 41 85 113 49 35 41 75
690.0 93 61 92 81 123 127 109 107 146 250
730.0 684 1147 1142 781 350 218 175 210 212 198
770.0 196 253 462 928 1591 1739 1375 811 406 272
810.0 237 245 234 225 188 176 143 123 136 150
850.0 177 207 246 312 384 480 624 827 1028 1208
890.0 1275 1163 991 738 556 409 289 205 159 129
930.0 106 101 102 105 113 99 106 133 154 185
970.0 254 341 468 612 720 802 863 1009 1262 1486
1010.0 1509 1315 1032 813 716 772 908 1185 1810 2850
1050.0 4000 4474 3837 2461 1341 887 788 813 926 1109
1090.0 1421 1936 2735 3807 4872 5397 5052 4032 2923 2142
1130.0 1699 1504 1566 1976 2701 3370 3427 2740 1830 1228
1170.0 1011 1007 1119 1297 1497 1653 1692 1596 1507 1592
1210.0 2030 2817 3724 4340 4359 3930 3602 3686 4201 5024
1250.0 5929 6454 6173 5153 3924 3017 2494 2072 1658 1305
1290.0 1066 951 920 928 974 1022 1045 1085 1162 1348
1330.0 1714 2326 3244 4422 5800 7308 8839 10000 9976 8367
1370.0 5768 3435 2077 1464 1180 991 867 787 747 756
1410.0 823 945 1145 1392 1713 1947 2141 2395 2711 2857
1450.0 2615 2254 2194 2343 2271 1836 1382 991 717 588
1490.0 508 453 427 404 405 386 364 355 368 366
1530.0 377 380 427 469 516 569 689 876 1129 1439
1570.0 1789 2061 2292 2624 3236 4144 4799 4727 3749 2484
1610.0 1504 973 727 554 464 362 321 269 239 218
1650.0 228 215 205 190 212 226 256 261 302 346
1690.0 380 451 558 676 814 966 1108 1239 1367 1713
1730.0 2766 4854 7287 8243 6942 4396 2532 1727 1556 1801
1770.0 2449 3091 3181 2632 1777 1156 857 721 614 475
1810.0 349 257 194 179 160 141 114 93 93 87
1850.0 79 67 67 70 74 77 75 68 69 73
1890.0 72 73 71 65 62 55 48 48 48 39
1930.0 42 37 35 38 41 40 48 48 54 59
1970.0 71 73 80 86 86 83 84 75 66 71
2010.0 72 71 69 70 72 76 80 81 77 66
2050.0 60 50 46 47 57 63 65 73 72 82
2090.0 83 93 101 107 98 102 105 107 113 116
2130.0 125 137 140 135 120 112 97 86 77 74
2170.0 62 56 48 43 38 37 29 27 26 26
2210.0 25 25 23 27 31 30 33 29 35 42
2250.0 38 39 42 41 42 40 46 59 67 82
2290.0 110 129 156 185 205 223 194 159 189 147
2330.0 127 95 81 100 188 215 203 150 126 92
2370.0 87 100 155 180 126 65 44 33 31 32
2410.0 29 31 31 30 27 35 33 36 33 44
2450.0 45 40 45 47 45 40 49 46 48 43
2490.0 40 49 51 49 52 54 56 57 57 67
2530.0 62 67 57 54 55 48 52 51 46 60
2570.0 55 51 48 55 55 56 65 69 79 81
2610.0 73 67 65 62 58 55 56 55 52 48
2650.0 54 55 54 48 50 51 45 50 55 58
2690.0 55 59 56 58 55 46 48 46 50 48
2730.0 47 44 43 48 46 45 52 49 54 52
2770.0 56 56 57 64 72 74 79 84 84 97
2810.0 104 110 110 121 132 151 174 224 306 409
2850.0 516 582 601 563 502 426 371 341 328 337
2890.0 345 381 399 423 432 464 489 496 505 485
2930.0 484 486 543 640 889 1268 1802 2435 2682 2389
2970.0 1677 1111 902 726 623 578 592 643 688 707
3010.0 693 744 816 848 781 665 563 477 395 319
3050.0 268 236 222 211 204 200 199 196 197 208
3090.0 222 233 244 227 201 170 136 128 121 110
3130.0 101 94 102 98 82 76 80 74 69 65
3170.0 60 57 57 52 45 47 52 49 44 44
3210.0 53 48 42 45 55 47 49 43 43 33
3250.0 37 31 42 49 43 49 39 43 29 24
3290.0 35 44 48 39 43 43 58 45 44 39
3330.0 40 40 35 28 38 35 38 40 47 42
3370.0 43 46 43 22 27 33 42 40 44 32
3410.0 36 54 32 37 32 36 40 52 51 61
3450.0 51 70 88 70 68 53 43 28 39 35
3490.0 46 44 57 44 43 44 48 31 43 42
3530.0 33 45 44 30 38 43 36 35 39 28
3570.0 33 43 49 42 38 48 54 39 33 39
3610.0 35 41 35 43 39 55 33 36 40 60
3650.0 44 41 37 44 33 46 39 38 56 63
3690.0 50 42 33 49 60 54 43 42 50 50
3730.0 45 67 65 53 69 42 39 44 30 52
3770.0 51 24 33 50 22 33 33 49 58 49
3810.0 29 39 28 36 47 56 66 55 43 27
3850.0 52 47 52 30 43 42 28 47 54 58
3890.0 40 29 36 47 54 67 59 50 37 32
3930.0 37 47 35 50 29 50 57 66 55 70
##END=
