##TITLE=Phenol, 4-(1-phenylethyl)-
##JCAMP-DX=4.24
##DATA TYPE=INFRARED SPECTRUM
##ORIGIN=Sadtler Research Labs Under US-EPA Contract
##OWNER=NIST Standard Reference Data Program
##CAS REGISTRY NO=1988-89-2
##MOLFORM=C 14 H 14 O
##XUNITS=1/CM
##YUNITS=ABSORBANCE
##XFACTOR=1.0
##YFACTOR=0.000112488
##DELTAX=4.0
##FIRSTX=450.0
##LASTX=3966.0
##FIRSTY=0.072330
##MAXX=3966
##MINX=450
##MAXY=1.12488
##MINY=0
##NPOINTS=880
##XYDATA=(X++(Y..Y))
450.0 643 288 234 23 53 144 209 206 300 280
490.0 559 551 734 629 568 399 386 371 394 574
530.0 836 1229 1680 1905 2026 1654 1241 863 584 540
570.0 453 447 383 289 238 266 296 402 516 590
610.0 537 369 299 210 192 253 185 236 276 224
650.0 198 167 244 245 267 407 483 614 834 1101
690.0 1744 2300 2638 2444 1884 1406 1108 895 733 695
730.0 654 617 735 687 753 1044 1152 1113 1198 1302
770.0 1343 1316 1206 1126 1047 988 882 829 859 856
810.0 894 953 1108 1489 1972 2357 2305 2005 1553 1071
850.0 707 519 399 277 283 204 211 194 161 209
890.0 224 217 233 245 236 224 174 144 142 129
930.0 141 147 170 135 141 134 147 152 163 189
970.0 196 210 236 230 223 182 179 180 221 325
1010.0 530 672 703 778 925 1026 851 624 527 590
1050.0 672 695 627 523 437 397 419 409 437 478
1090.0 530 627 752 862 909 889 839 762 776 841
1130.0 876 826 729 679 759 918 1208 1856 3282 6000
1170.0 9081 10000 8345 5703 4028 3316 2772 2311 1934 1573
1210.0 1299 1094 1010 939 914 996 1093 1308 1692 2358
1250.0 3505 4785 5255 4676 2982 1637 994 821 719 653
1290.0 622 602 620 638 689 756 783 856 928 1001
1330.0 1175 1304 1278 1091 777 548 412 371 328 357
1370.0 456 532 660 656 515 380 244 193 235 232
1410.0 290 373 382 605 788 1029 1061 1023 949 906
1450.0 1054 1077 1066 1039 850 740 564 635 854 1086
1490.0 1651 2188 2657 3288 4572 7010 6504 5466 2894 1379
1530.0 801 628 467 327 293 307 297 208 254 323
1570.0 355 417 518 676 930 1162 1558 1719 1907 1997
1610.0 1944 2117 1661 1268 845 507 383 282 233 208
1650.0 109 118 138 157 157 108 88 121 40 29
1690.0 75 99 21 19 73 104 69 18 100 134
1730.0 101 72 138 166 155 142 171 155 127 152
1770.0 109 94 131 128 150 161 160 169 121 134
1810.0 110 95 102 82 67 57 77 104 82 87
1850.0 126 174 184 206 224 216 264 267 246 214
1890.0 166 141 132 112 97 89 79 75 76 110
1930.0 141 157 169 163 166 175 168 154 124 95
1970.0 76 71 76 67 68 48 51 53 56 60
2010.0 67 61 63 63 70 64 70 67 59 60
2050.0 61 54 60 54 53 53 48 48 48 56
2090.0 62 72 78 73 66 54 43 40 35 31
2130.0 33 31 32 27 28 26 26 25 23 25
2170.0 28 31 38 38 39 37 30 29 23 24
2210.0 28 29 35 35 34 39 39 39 38 39
2250.0 40 42 52 49 50 54 51 53 54 51
2290.0 55 57 67 70 81 86 95 103 97 103
2330.0 111 107 121 127 138 122 119 102 118 102
2370.0 101 96 90 86 79 72 70 72 70 77
2410.0 85 101 124 143 160 171 162 140 116 102
2450.0 94 85 85 80 76 72 69 71 69 67
2490.0 71 80 88 98 107 110 107 99 87 77
2530.0 69 66 66 62 61 61 58 59 56 52
2570.0 59 63 68 76 82 86 85 84 85 81
2610.0 77 71 74 73 74 79 74 79 78 73
2650.0 76 71 71 75 79 74 70 70 67 63
2690.0 59 60 60 63 65 73 68 73 69 70
2730.0 74 76 78 79 76 77 73 75 77 76
2770.0 82 83 83 90 89 92 91 86 86 78
2810.0 81 82 87 94 99 114 120 121 120 123
2850.0 136 153 178 224 273 364 501 689 898 1051
2890.0 1108 1052 925 788 674 612 585 564 554 573
2930.0 665 821 974 1031 958 816 673 645 788 1144
2970.0 1996 3157 3774 3105 1854 917 600 575 639 814
3010.0 1025 1260 1466 1659 1934 2196 2347 2233 1939 1630
3050.0 1415 1373 1425 1627 2012 2267 2235 1908 1509 1268
3090.0 1115 961 820 703 616 536 458 368 294 235
3130.0 196 166 153 133 120 112 110 106 99 83
3170.0 83 77 72 76 84 90 91 85 91 82
3210.0 75 71 68 75 70 73 77 74 71 61
3250.0 66 71 72 72 66 77 72 68 69 61
3290.0 48 50 52 46 51 52 52 59 58 69
3330.0 60 67 70 80 85 97 104 99 91 81
3370.0 70 67 77 84 96 97 92 92 88 94
3410.0 79 80 78 70 81 83 82 66 65 61
3450.0 47 65 57 65 68 62 81 74 73 53
3490.0 77 64 53 37 31 48 61 73 62 38
3530.0 60 73 70 85 52 83 105 97 124 78
3570.0 103 168 168 207 175 182 213 187 189 157
3610.0 117 108 119 166 208 263 443 718 1355 2229
3650.0 3473 4058 3312 1890 802 341 191 136 142 133
3690.0 55 99 79 53 65 30 11 48 32 6
3730.0 38 0 1 18 8 0 49 26 52 67
3770.0 39 71 53 38 54 56 55 38 21 54
3810.0 68 73 23 28 59 54 71 43 47 92
3850.0 64 0 43 64 17 55 86 101 83 96
3890.0 68 93 61 37 15 93 73 63 79 72
3930.0 80 22 97 58 78 80 99 157 114 123
##END=
