##TITLE=Benzonitrile, 3,5-bis(1,1-dimethylethyl)-4-hydroxy-
##JCAMP-DX=4.24
##DATA TYPE=INFRARED SPECTRUM
##ORIGIN=Sadtler Research Labs Under US-EPA Contract
##OWNER=NIST Standard Reference Data Program
##CAS REGISTRY NO=1988-88-1
##MOLFORM=C 15 H 21 N O
##XUNITS=1/CM
##YUNITS=ABSORBANCE
##XFACTOR=1.0
##YFACTOR=0.000094138
##DELTAX=4.0
##FIRSTX=450.0
##LASTX=3966.0
##FIRSTY=0.026829
##MAXX=3966
##MINX=450
##MAXY=0.94138
##MINY=0
##NPOINTS=880
##XYDATA=(X++(Y..Y))
450.0 285 220 153 141 172 125 121 141 116 135
490.0 126 151 164 146 144 138 139 137 158 185
530.0 192 226 239 289 335 320 280 269 236 196
570.0 172 188 161 141 142 126 105 111 136 153
610.0 257 376 356 237 148 109 114 127 196 255
650.0 280 232 197 113 102 50 53 60 48 40
690.0 53 68 87 89 88 88 106 132 180 212
730.0 241 270 301 401 577 775 866 803 681 608
770.0 636 600 408 241 128 75 68 103 154 186
810.0 175 127 77 61 49 52 55 47 50 40
850.0 47 55 67 81 111 172 286 581 1076 1666
890.0 1942 1424 888 481 287 227 202 232 262 323
930.0 354 364 305 210 136 102 95 84 80 80
970.0 81 85 90 90 86 88 91 95 94 110
1010.0 127 155 201 247 257 231 183 155 147 140
1050.0 133 135 140 148 150 162 164 176 194 212
1090.0 224 243 270 317 367 431 575 796 984 1026
1130.0 915 790 793 947 1279 1799 2467 3096 3349 3072
1170.0 2426 1832 1519 1492 1632 1809 1899 1951 2044 2099
1210.0 1955 1638 1409 1515 2002 2784 3602 4078 4095 3797
1250.0 3463 3074 2516 1881 1353 1045 875 771 724 700
1290.0 671 641 660 749 957 1302 1752 2071 2037 1617
1330.0 1077 683 489 406 376 399 474 670 1019 1633
1370.0 2121 2130 1816 1362 1110 1156 1481 1946 2171 2030
1410.0 1718 1690 2069 2902 4108 5504 6396 6159 4892 3344
1450.0 2195 1643 1407 1310 1228 1210 1267 1382 1476 1471
1490.0 1258 942 659 502 430 381 345 308 272 242
1530.0 221 202 183 165 153 150 149 146 148 158
1570.0 172 201 230 270 316 355 381 367 322 251
1610.0 192 155 138 131 126 126 121 121 116 113
1650.0 106 110 111 115 122 122 119 118 113 116
1690.0 117 121 118 121 117 115 109 104 104 109
1730.0 108 109 110 106 106 106 111 122 143 177
1770.0 225 267 292 289 263 216 159 116 87 75
1810.0 68 61 56 51 47 43 40 38 38 35
1850.0 32 32 32 28 26 27 29 29 29 27
1890.0 26 28 24 28 27 28 26 29 27 27
1930.0 25 25 26 25 25 26 23 29 28 27
1970.0 25 27 27 26 29 31 29 26 24 24
2010.0 20 14 13 12 12 14 12 10 12 9
2050.0 9 6 3 2 0 0 3 0 2 3
2090.0 1 1 0 0 0 0 1 5 12 17
2130.0 20 21 22 24 26 31 35 38 42 49
2170.0 59 72 82 84 79 73 73 83 102 135
2210.0 194 293 470 759 1177 1599 1729 1440 860 383
2250.0 176 106 76 62 52 46 41 41 41 40
2290.0 45 49 52 53 51 49 53 47 52 44
2330.0 45 46 40 49 41 38 43 45 45 42
2370.0 36 38 41 48 50 52 57 58 58 53
2410.0 53 51 50 50 56 57 57 53 50 45
2450.0 46 46 50 59 64 66 70 69 64 61
2490.0 56 55 52 53 51 49 52 51 55 57
2530.0 60 60 60 63 61 60 64 69 74 72
2570.0 67 65 67 71 73 73 71 66 63 58
2610.0 55 57 59 65 70 75 81 86 89 84
2650.0 79 73 72 72 70 70 72 68 66 63
2690.0 66 65 68 70 71 73 80 94 105 115
2730.0 118 115 111 110 113 113 118 124 126 127
2770.0 125 123 127 136 149 159 165 171 177 181
2810.0 188 207 228 248 269 284 301 324 352 388
2850.0 437 509 620 781 1021 1363 1793 2253 2627 2831
2890.0 2832 2711 2566 2485 2512 2676 2952 3272 3502 3563
2930.0 3506 3413 3409 3542 3885 4466 5369 6541 7714 8715
2970.0 9529 10000 9368 7420 4945 3079 2050 1606 1507 1559
3010.0 1525 1294 952 657 495 406 349 310 290 267
3050.0 253 237 222 213 207 206 204 202 201 211
3090.0 218 233 246 238 216 189 174 161 157 156
3130.0 151 153 151 152 149 148 152 152 151 152
3170.0 154 152 151 152 150 144 137 129 124 115
3210.0 108 105 100 99 98 93 92 89 93 92
3250.0 90 87 84 88 94 92 92 93 91 95
3290.0 101 97 95 93 96 97 101 99 104 105
3330.0 106 101 105 106 104 103 105 109 108 109
3370.0 111 109 108 112 107 110 103 104 100 101
3410.0 99 94 97 92 94 92 86 81 78 63
3450.0 58 55 48 49 52 48 49 49 47 46
3490.0 46 49 46 49 47 56 58 65 59 45
3530.0 50 52 53 50 41 43 58 43 54 40
3570.0 44 74 75 92 85 96 126 136 171 191
3610.0 208 245 294 371 485 629 918 1410 2291 3822
3650.0 6093 7896 7862 5898 3522 1946 1161 737 500 352
3690.0 245 208 178 135 123 106 73 87 62 41
3730.0 56 36 29 36 20 7 33 35 43 40
3770.0 35 38 40 45 46 44 45 47 44 54
3810.0 56 67 45 50 69 69 59 51 35 41
3850.0 41 7 30 39 15 22 31 44 25 42
3890.0 46 62 59 47 49 66 63 53 45 46
3930.0 51 50 49 50 37 31 58 58 51 51
##END=
