##TITLE=Pipecolamide
##JCAMP-DX=4.24
##DATA TYPE=INFRARED SPECTRUM
##ORIGIN=Sadtler Research Labs Under US-EPA Contract
##OWNER=NIST Standard Reference Data Program
##CAS REGISTRY NO=19889-77-1
##MOLFORM=C 6 H 12 N 2 O
##XUNITS=1/CM
##YUNITS=ABSORBANCE
##XFACTOR=1.0
##YFACTOR=0.000090317
##DELTAX=4.0
##FIRSTX=450.0
##LASTX=3966.0
##FIRSTY=0.053377
##MAXX=3966
##MINX=450
##MAXY=0.90317
##MINY=0
##NPOINTS=880
##XYDATA=(X++(Y..Y))
450.0 591 622 587 562 462 473 459 373 375 322
490.0 325 244 242 258 244 222 260 332 354 421
530.0 405 415 376 272 179 133 83 65 41 45
570.0 57 70 79 109 120 143 168 209 190 195
610.0 164 128 102 99 97 89 69 60 53 26
650.0 21 8 22 17 24 48 49 76 105 145
690.0 184 205 254 278 306 349 430 500 553 598
730.0 608 604 555 532 493 474 456 460 495 532
770.0 592 684 791 875 951 958 970 893 802 710
810.0 627 564 475 407 358 344 330 370 433 540
850.0 673 811 940 1034 1041 947 853 714 556 430
890.0 365 335 317 316 338 372 403 426 430 439
930.0 428 373 336 288 248 219 183 149 136 133
970.0 112 84 84 75 75 77 81 84 102 150
1010.0 190 237 271 293 293 283 271 252 262 301
1050.0 359 384 402 344 287 233 184 170 174 220
1090.0 274 390 529 687 799 842 826 771 681 577
1130.0 498 440 396 335 281 242 209 175 144 109
1170.0 83 75 79 99 147 200 246 304 341 375
1210.0 359 333 326 318 319 341 364 376 400 437
1250.0 488 545 597 652 668 686 693 691 685 706
1290.0 801 952 1154 1387 1648 1819 1875 1778 1622 1439
1330.0 1246 1160 1193 1266 1334 1394 1491 1534 1526 1460
1370.0 1336 1177 1029 862 720 571 467 366 304 255
1410.0 252 251 302 383 486 634 777 932 1013 1090
1450.0 1058 957 833 659 518 368 250 142 86 51
1490.0 42 34 46 48 71 83 80 105 128 190
1530.0 256 418 643 958 1338 1797 2324 2742 3049 3088
1570.0 2966 2675 2313 1945 1613 1331 1075 853 646 509
1610.0 413 366 328 313 293 289 288 310 336 392
1650.0 466 552 609 662 738 758 831 887 987 1082
1690.0 1118 1157 1197 1428 1867 2752 4075 6020 8099 9471
1730.0 10000 9974 8681 6291 3972 2508 1581 1080 807 655
1770.0 562 461 406 359 330 284 253 215 174 131
1810.0 91 77 50 48 40 30 32 27 30 25
1850.0 26 17 18 3 11 0 4 5 7 6
1890.0 8 9 9 14 9 12 8 22 15 19
1930.0 17 21 22 17 16 16 19 16 19 19
1970.0 19 19 19 19 15 16 17 15 11 12
2010.0 14 15 19 15 17 16 18 9 12 10
2050.0 10 10 11 11 11 13 7 11 8 11
2090.0 9 7 4 10 9 5 5 6 11 8
2130.0 11 10 11 10 14 13 11 17 16 19
2170.0 13 16 17 20 16 16 18 14 17 18
2210.0 21 16 17 15 18 23 20 21 19 19
2250.0 22 24 27 26 21 24 23 25 20 22
2290.0 29 36 41 48 51 54 51 42 46 41
2330.0 38 43 33 45 44 60 58 59 48 43
2370.0 51 61 65 56 45 27 24 23 23 25
2410.0 16 17 13 13 8 9 12 12 14 12
2450.0 19 21 18 17 19 18 23 25 21 23
2490.0 23 23 23 23 23 24 19 19 17 17
2530.0 18 18 16 16 17 18 21 20 25 25
2570.0 29 29 34 39 40 45 51 49 49 50
2610.0 51 50 54 57 52 54 59 61 68 76
2650.0 87 93 112 117 118 122 122 121 122 124
2690.0 123 129 137 144 155 166 173 170 177 173
2730.0 175 174 171 172 170 169 167 172 183 203
2770.0 229 263 308 374 436 500 562 605 625 629
2810.0 626 622 625 653 703 766 842 914 992 1146
2850.0 1328 1532 1753 1932 2014 1935 1745 1513 1260 1076
2890.0 969 931 961 1037 1174 1368 1635 1979 2434 3077
2930.0 3744 4457 5322 5875 5971 5736 5056 4134 3013 2174
2970.0 1460 950 628 414 273 184 143 111 104 97
3010.0 94 82 81 73 70 62 67 67 65 71
3050.0 65 69 70 71 68 62 66 61 56 51
3090.0 57 56 58 62 60 58 63 67 61 59
3130.0 57 63 61 60 63 63 66 70 76 81
3170.0 83 79 77 71 72 72 70 77 77 74
3210.0 75 80 72 70 68 69 66 66 70 67
3250.0 71 74 80 76 76 79 77 87 89 92
3290.0 91 95 97 103 98 95 92 89 87 89
3330.0 92 104 101 106 109 99 100 104 109 121
3370.0 115 138 142 168 193 248 348 485 636 795
3410.0 892 914 869 772 609 458 359 287 260 215
3450.0 194 170 139 125 113 101 96 111 113 127
3490.0 143 176 207 249 318 427 565 754 991 1265
3530.0 1535 1723 1775 1628 1354 1043 707 438 290 208
3570.0 161 99 72 51 43 46 27 25 28 26
3610.0 25 20 16 11 28 33 24 17 19 28
3650.0 28 15 27 12 27 20 41 10 13 20
3690.0 14 11 15 30 20 31 26 32 24 33
3730.0 26 32 25 37 25 35 35 16 22 24
3770.0 10 27 38 31 22 26 17 24 30 21
3810.0 20 25 20 31 21 26 22 11 16 22
3850.0 15 48 39 35 28 8 19 35 37 22
3890.0 30 14 15 24 9 27 33 31 6 38
3930.0 30 31 42 36 12 17 45 42 44 24
##END=
