##TITLE=Thiocyanic acid, octyl ester
##JCAMP-DX=4.24
##DATA TYPE=INFRARED SPECTRUM
##ORIGIN=Sadtler Research Labs Under US-EPA Contract
##OWNER=NIST Standard Reference Data Program
##CAS REGISTRY NO=19942-78-0
##MOLFORM=C 9 H 17 N S
##XUNITS=1/CM
##YUNITS=ABSORBANCE
##XFACTOR=1.0
##YFACTOR=0.000104916
##DELTAX=4.0
##FIRSTX=450.0
##LASTX=3966.0
##FIRSTY=0.016577
##MAXX=3966
##MINX=450
##MAXY=1.04916
##MINY=0
##NPOINTS=880
##XYDATA=(X++(Y..Y))
450.0 158 90 64 55 31 53 93 81 55 58
490.0 79 63 79 73 75 48 71 60 54 68
530.0 63 62 57 59 79 72 67 65 59 55
570.0 67 51 56 64 51 60 63 58 55 53
610.0 72 74 72 76 80 85 84 76 66 54
650.0 57 59 61 56 61 57 64 66 57 70
690.0 76 100 136 164 217 260 282 290 299 295
730.0 273 251 230 224 222 203 189 185 182 179
770.0 174 163 150 144 135 134 124 116 111 113
810.0 113 99 88 89 78 71 71 79 74 72
850.0 75 77 70 73 72 75 76 79 82 80
890.0 83 88 90 95 99 104 108 113 108 108
930.0 106 96 92 89 89 76 77 72 69 60
970.0 61 59 57 58 57 57 60 62 63 62
1010.0 65 68 75 81 88 96 97 92 94 88
1050.0 85 84 76 77 74 72 70 68 68 72
1090.0 75 80 88 95 99 98 96 95 87 74
1130.0 65 58 55 55 53 54 59 63 62 62
1170.0 61 60 59 59 64 71 80 86 93 109
1210.0 121 129 144 172 207 251 296 335 354 343
1250.0 321 310 322 360 414 470 518 547 553 543
1290.0 540 543 535 511 466 414 359 302 255 223
1330.0 201 196 217 252 292 335 359 363 347 320
1370.0 314 315 321 345 345 301 227 182 156 151
1410.0 157 176 222 303 403 474 504 535 608 700
1450.0 789 901 1027 1114 1109 1008 820 602 414 289
1490.0 215 173 153 136 124 112 102 91 82 77
1530.0 79 76 73 69 67 66 64 60 58 58
1570.0 55 53 51 49 49 53 48 51 52 48
1610.0 48 48 45 49 48 45 45 44 47 43
1650.0 43 43 43 41 39 40 38 36 36 37
1690.0 34 32 34 30 28 26 20 17 14 9
1730.0 4 2 0 3 11 19 24 26 32 33
1770.0 34 34 31 30 29 31 31 30 33 34
1810.0 33 34 33 32 35 35 36 34 32 32
1850.0 34 32 34 33 29 30 31 30 31 32
1890.0 31 31 31 30 32 32 31 33 33 32
1930.0 34 32 32 32 33 33 33 33 32 32
1970.0 30 31 30 34 33 35 35 34 37 37
2010.0 38 38 41 43 49 51 55 56 59 60
2050.0 60 63 65 64 64 62 61 61 56 54
2090.0 50 48 46 47 49 48 53 52 51 52
2130.0 59 70 86 110 151 215 321 484 684 762
2170.0 662 414 222 136 94 74 60 51 44 43
2210.0 37 37 36 35 34 36 36 36 35 32
2250.0 33 35 38 34 36 36 35 35 36 37
2290.0 36 37 39 40 39 38 37 37 38 40
2330.0 33 32 34 38 39 39 31 30 29 43
2370.0 37 41 41 40 41 38 37 36 33 34
2410.0 36 32 29 29 28 30 29 29 28 28
2450.0 28 27 29 27 27 26 29 28 28 29
2490.0 27 28 26 27 23 28 26 30 31 34
2530.0 34 39 41 44 50 55 56 53 48 46
2570.0 45 45 43 44 47 47 48 49 54 55
2610.0 57 61 64 64 66 67 69 70 74 73
2650.0 77 78 83 88 94 97 101 106 109 109
2690.0 109 105 103 100 98 94 94 95 97 99
2730.0 101 104 112 119 127 124 119 115 115 116
2770.0 119 122 125 132 147 161 178 195 209 227
2810.0 245 267 295 331 372 431 499 573 681 852
2850.0 1170 1713 2509 3374 3928 3964 3558 3063 2738 2497
2890.0 2228 1950 1861 1984 2260 2663 3190 3934 5051 6619
2930.0 8370 9683 10000 9325 8021 6422 5025 4232 4128 4487
2970.0 4871 4500 3487 2331 1618 1193 905 714 580 486
3010.0 420 369 326 296 274 252 235 216 196 182
3050.0 168 156 147 141 132 127 122 117 113 111
3090.0 105 99 96 90 87 84 81 76 75 75
3130.0 72 75 73 69 73 70 69 70 68 66
3170.0 67 65 65 64 63 62 62 61 53 51
3210.0 52 50 47 47 42 41 38 36 38 37
3250.0 31 30 34 37 37 40 29 35 31 34
3290.0 34 34 31 33 31 32 35 33 32 33
3330.0 36 31 38 37 39 36 37 32 37 39
3370.0 40 38 40 33 34 39 39 38 41 38
3410.0 43 36 43 40 42 42 34 32 35 36
3450.0 35 41 36 35 31 32 28 32 32 36
3490.0 31 35 29 27 26 25 26 29 30 33
3530.0 37 28 27 31 28 29 26 30 29 31
3570.0 29 25 27 28 33 41 33 36 34 34
3610.0 38 42 38 41 41 38 41 40 43 39
3650.0 43 47 40 51 41 40 43 44 43 48
3690.0 48 41 38 34 40 42 40 45 34 43
3730.0 44 38 44 48 42 39 46 32 44 47
3770.0 51 49 46 43 45 38 37 40 44 47
3810.0 45 47 45 39 41 48 40 42 52 46
3850.0 37 44 54 41 56 43 41 41 40 42
3890.0 44 42 50 47 47 40 40 40 45 42
3930.0 46 53 42 31 43 50 64 45 49 44
##END=
