##TITLE=Benzofuran, 2,3-dihydro-2,2,6-trimethyl-,
##JCAMP-DX=4.24
##DATA TYPE=INFRARED SPECTRUM
##ORIGIN=Sadtler Research Labs Under US-EPA Contract
##OWNER=NIST Standard Reference Data Program
##CAS REGISTRY NO=19956-97-9
##MOLFORM=C 11 H 14 O
##XUNITS=1/CM
##YUNITS=ABSORBANCE
##XFACTOR=1.0
##YFACTOR=0.000082956
##DELTAX=4.0
##FIRSTX=450.0
##LASTX=3966.0
##FIRSTY=0.019163
##MAXX=3966
##MINX=450
##MAXY=0.82956
##MINY=0
##NPOINTS=880
##XYDATA=(X++(Y..Y))
450.0 231 157 130 175 177 124 115 87 98 85
490.0 64 78 60 28 44 47 49 30 2 14
530.0 11 24 49 34 50 32 19 46 38 81
570.0 113 186 307 438 569 535 358 283 152 87
610.0 54 44 47 38 42 37 44 44 61 123
650.0 243 258 258 169 84 52 31 26 25 34
690.0 36 56 104 124 171 176 158 126 110 102
730.0 124 181 335 704 1174 1421 1419 1089 591 665
770.0 752 1028 1362 1745 2257 2564 3187 2808 2142 1558
810.0 943 543 344 251 233 219 257 303 475 717
850.0 1054 1430 1624 1627 1765 1857 1879 1705 1379 968
890.0 627 422 299 261 252 282 309 319 358 480
930.0 763 1448 2895 4554 5134 4772 3270 1741 1140 1055
970.0 1072 1086 1077 1087 1114 1170 1141 1027 837 663
1010.0 553 470 415 341 274 244 232 225 224 230
1050.0 237 242 246 267 314 399 564 867 1424 2307
1090.0 3223 3964 4263 3951 3380 2714 2085 1831 2086 2390
1130.0 2470 2331 1702 1166 980 964 1058 1153 1195 1111
1170.0 937 832 958 1619 2149 2302 2105 1365 953 1110
1210.0 1503 2080 2394 2389 2007 1496 1193 1175 1244 1337
1250.0 1501 1769 2370 3404 5140 7562 9790 10000 8433 5444
1290.0 2811 1741 1392 1088 968 1088 1396 1822 2056 2027
1330.0 1765 1230 806 557 438 410 478 657 1026 1404
1370.0 1811 2421 2205 2379 2224 1823 1312 784 609 619
1410.0 688 872 1273 1986 2919 3844 4375 4325 3746 3107
1450.0 2560 2311 2170 2012 1921 1843 1792 1722 1804 2317
1490.0 3639 5715 7306 7291 6015 3556 1846 1156 920 674
1530.0 578 521 519 522 499 478 492 540 542 576
1570.0 675 857 1176 1655 2123 2528 2640 2560 2362 2227
1610.0 2234 2519 3214 3610 3473 2624 1512 759 529 472
1650.0 468 430 358 300 255 231 226 188 193 191
1690.0 176 187 250 277 283 272 284 289 247 224
1730.0 224 235 198 179 169 160 121 102 88 77
1770.0 93 98 85 91 81 79 74 67 68 58
1810.0 67 75 69 79 82 91 93 97 125 156
1850.0 164 171 176 165 148 132 101 88 78 75
1890.0 74 70 66 63 57 48 41 31 31 22
1930.0 21 25 22 26 19 15 15 15 13 18
1970.0 13 14 12 11 10 16 16 17 18 18
2010.0 20 27 36 39 40 37 33 27 19 13
2050.0 10 11 11 16 23 27 33 39 37 31
2090.0 22 13 7 4 5 3 3 7 8 9
2130.0 10 10 10 6 5 2 5 6 9 7
2170.0 6 4 2 5 3 5 9 12 16 20
2210.0 30 39 51 58 61 56 46 42 37 35
2250.0 37 36 37 35 36 36 31 24 15 13
2290.0 10 5 8 8 4 0 0 5 5 15
2330.0 18 21 34 34 30 37 33 45 42 57
2370.0 67 82 79 70 64 62 63 66 73 77
2410.0 79 73 61 47 45 39 38 38 38 37
2450.0 34 34 30 27 24 25 25 24 25 26
2490.0 22 22 25 25 27 27 37 38 47 49
2530.0 52 55 60 64 67 68 69 66 64 57
2570.0 58 55 55 54 57 60 69 73 74 66
2610.0 56 48 41 36 35 37 36 41 40 39
2650.0 35 33 32 35 36 38 39 43 42 43
2690.0 50 56 63 73 75 76 70 71 74 82
2730.0 101 128 161 173 165 139 107 91 88 83
2770.0 82 80 76 72 70 73 76 84 98 115
2810.0 142 170 197 224 254 285 308 352 422 522
2850.0 682 934 1320 1782 2167 2425 2471 2312 2095 1882
2890.0 1726 1662 1654 1703 1806 2004 2295 2714 3292 4033
2930.0 4787 5284 5502 5163 4481 3699 2888 2211 1894 2090
2970.0 3028 4802 6917 7847 7194 5413 3238 1851 1298 1072
3010.0 1036 1067 1169 1323 1522 1717 1842 1913 1883 1793
3050.0 1666 1544 1419 1312 1164 957 770 621 521 463
3090.0 422 387 341 291 234 194 170 148 135 128
3130.0 111 91 71 57 42 34 33 30 33 32
3170.0 39 40 43 52 64 72 87 89 89 81
3210.0 68 56 42 37 33 31 32 35 30 32
3250.0 26 24 16 10 12 12 10 11 13 18
3290.0 20 21 17 19 20 19 11 12 12 11
3330.0 18 15 17 10 15 15 15 11 13 12
3370.0 14 11 10 12 13 14 11 9 12 16
3410.0 15 7 20 18 19 23 21 23 26 15
3450.0 19 22 19 20 22 18 22 21 18 13
3490.0 11 10 13 11 13 11 12 11 5 11
3530.0 11 19 1 0 7 7 13 7 1 5
3570.0 7 2 9 5 5 5 5 15 9 12
3610.0 10 7 3 0 14 8 1 9 15 4
3650.0 8 14 6 13 11 3 16 3 17 15
3690.0 20 9 18 15 18 8 0 5 18 13
3730.0 17 11 12 8 7 11 4 10 10 6
3770.0 10 7 11 19 15 16 18 17 11 13
3810.0 14 10 20 16 19 18 19 21 14 30
3850.0 22 22 22 19 26 5 0 25 11 18
3890.0 12 8 3 8 7 15 17 7 15 11
3930.0 11 17 11 7 7 15 21 8 10 3
##END=
