##TITLE=2-Chloro-4-fluorophenol
##JCAMP-DX=4.24
##DATA TYPE=INFRARED SPECTRUM
##ORIGIN=Sadtler Research Labs Under US-EPA Contract
##OWNER=NIST Standard Reference Data Program
##CAS REGISTRY NO=1996-41-4
##MOLFORM=C 6 H 4 Cl F O
##XUNITS=1/CM
##YUNITS=ABSORBANCE
##XFACTOR=1.0
##YFACTOR=0.000079327
##DELTAX=4.0
##FIRSTX=450.0
##LASTX=3966.0
##FIRSTY=0.000000
##MAXX=3966
##MINX=450
##MAXY=0.79327
##MINY=0
##NPOINTS=880
##XYDATA=(X++(Y..Y))
450.0 0 123 364 237 334 144 343 427 314 318
490.0 372 192 271 351 474 385 463 695 721 745
530.0 608 463 335 290 348 253 364 401 333 457
570.0 523 414 417 457 400 298 261 251 273 288
610.0 282 240 234 167 206 225 236 216 226 286
650.0 280 307 291 271 260 324 285 362 449 413
690.0 416 449 366 283 265 234 311 328 361 364
730.0 379 542 513 785 930 696 583 671 774 1638
770.0 2369 2620 2499 2505 1295 624 493 575 703 907
810.0 1261 1405 1209 764 976 780 545 521 595 793
850.0 932 1154 1716 1377 973 873 726 590 610 541
890.0 543 556 679 1129 1458 1584 1581 1310 764 427
930.0 345 306 304 282 267 242 204 208 217 199
970.0 212 198 196 192 199 198 196 222 232 242
1010.0 258 237 241 237 269 432 659 847 930 995
1050.0 861 588 380 326 303 313 317 331 338 299
1090.0 288 283 272 256 263 288 290 307 312 304
1130.0 305 302 314 350 371 429 531 728 952 1231
1170.0 1377 1447 1473 1610 1663 1921 2559 3686 4893 4879
1210.0 4658 4565 3360 2437 2170 1959 1838 1657 1318 1384
1250.0 1964 2425 2543 2505 1999 1057 652 638 714 804
1290.0 807 753 626 439 399 428 457 573 733 934
1330.0 1144 1139 1043 924 643 366 259 240 230 238
1370.0 229 275 313 303 311 292 263 252 235 280
1410.0 346 470 658 714 733 687 586 455 368 339
1450.0 339 380 421 462 444 527 641 1047 2056 4046
1490.0 6615 8247 9679 10000 8594 6347 4452 3014 1836 1048
1530.0 572 406 341 273 263 223 235 278 267 244
1570.0 247 258 259 267 304 319 386 410 481 584
1610.0 690 784 727 643 494 341 258 226 208 206
1650.0 229 235 230 194 239 219 232 207 219 212
1690.0 191 187 224 258 242 240 252 277 245 221
1730.0 244 238 236 197 202 205 182 177 172 164
1770.0 178 170 151 161 169 165 178 168 163 167
1810.0 157 165 157 160 167 173 162 167 177 209
1850.0 208 227 264 249 258 249 210 172 157 158
1890.0 151 148 145 141 142 152 139 154 148 148
1930.0 145 150 153 155 167 153 156 156 150 147
1970.0 144 143 144 141 143 146 150 141 141 145
2010.0 145 145 146 140 138 139 142 147 155 160
2050.0 174 181 189 191 185 168 154 143 140 140
2090.0 139 140 141 143 146 146 143 144 140 141
2130.0 133 131 135 129 129 130 132 138 133 135
2170.0 136 135 133 128 131 132 126 123 123 124
2210.0 128 126 130 129 133 138 135 127 132 132
2250.0 133 131 132 131 135 137 138 139 140 142
2290.0 143 149 151 152 148 153 145 143 145 145
2330.0 150 144 134 146 156 153 163 159 164 164
2370.0 155 160 161 165 168 159 151 153 155 157
2410.0 162 161 156 152 154 155 157 154 152 148
2450.0 148 147 143 143 141 150 151 156 168 169
2490.0 175 175 175 168 157 151 148 145 145 142
2530.0 143 148 154 156 155 154 147 143 136 134
2570.0 142 143 139 141 141 144 141 140 142 146
2610.0 145 140 134 135 137 138 140 138 135 138
2650.0 142 144 150 144 149 149 150 144 142 137
2690.0 146 138 136 138 134 135 144 140 136 137
2730.0 140 142 136 135 135 140 138 140 144 144
2770.0 152 152 157 158 158 158 157 154 154 152
2810.0 151 151 146 146 145 147 145 148 153 148
2850.0 154 156 155 164 164 173 171 176 180 168
2890.0 171 171 174 174 169 174 174 185 181 186
2930.0 189 193 189 190 187 193 186 181 177 181
2970.0 182 175 169 169 160 160 152 151 149 145
3010.0 155 154 155 164 170 187 194 196 199 205
3050.0 203 213 216 219 231 228 224 218 215 213
3090.0 207 203 198 184 160 149 146 149 153 152
3130.0 145 154 147 143 140 147 138 136 145 155
3170.0 141 147 139 144 153 146 160 159 160 154
3210.0 148 150 153 149 148 149 158 153 161 152
3250.0 157 147 149 160 154 156 162 155 159 153
3290.0 152 140 140 149 145 143 142 145 146 152
3330.0 145 150 154 143 161 158 148 160 153 160
3370.0 146 149 159 158 136 142 147 152 147 137
3410.0 149 150 146 141 153 146 153 142 141 141
3450.0 130 147 143 144 140 145 147 144 145 138
3490.0 152 145 140 130 133 126 151 146 147 143
3530.0 137 150 160 141 158 152 177 179 201 239
3570.0 390 804 1711 2638 2748 2898 2411 1440 599 308
3610.0 203 155 148 158 177 191 183 195 249 274
3650.0 388 430 444 409 398 315 236 172 144 134
3690.0 134 138 119 148 140 124 121 129 123 120
3730.0 129 127 127 126 147 128 145 134 141 121
3770.0 143 137 130 129 120 145 143 126 129 121
3810.0 172 146 144 145 121 140 147 145 131 139
3850.0 133 146 134 155 153 128 136 127 153 131
3890.0 140 175 175 174 151 184 188 181 137 134
3930.0 177 133 142 138 146 158 170 156 167 147
##END=
