##TITLE=Benzenepropanol, .gamma.-phenyl-
##JCAMP-DX=4.24
##DATA TYPE=INFRARED SPECTRUM
##ORIGIN=Sadtler Research Labs Under US-EPA Contract
##OWNER=NIST Standard Reference Data Program
##CAS REGISTRY NO=20017-67-8
##MOLFORM=C 15 H 16 O
##XUNITS=1/CM
##YUNITS=ABSORBANCE
##XFACTOR=1.0
##YFACTOR=0.000047000
##DELTAX=4.0
##FIRSTX=450.0
##LASTX=3966.0
##FIRSTY=0.367024
##MAXX=3966
##MINX=450
##MAXY=0.47
##MINY=0
##NPOINTS=880
##XYDATA=(X++(Y..Y))
450.0 7809 2433 817 1571 0 306 273 926 1135 524
490.0 1313 672 1037 771 748 551 693 711 709 1394
530.0 1236 1406 1375 1349 1288 920 789 1496 1611 1551
570.0 1550 1196 1213 1294 1599 1526 1506 1271 1140 879
610.0 912 1086 1144 1234 1225 1299 1094 1072 944 826
650.0 853 960 1015 1119 1340 1511 1773 1935 2450 3189
690.0 5046 7686 10000 9705 7687 5085 3410 2733 2441 2659
730.0 2804 3184 3453 3766 3822 3600 3119 2565 2328 2130
770.0 2349 1920 1485 1124 985 797 781 790 667 571
810.0 577 514 1015 694 747 620 638 698 659 648
850.0 684 677 778 785 792 869 907 945 892 885
890.0 872 917 876 892 877 909 826 771 704 648
930.0 637 627 653 641 689 705 745 746 792 792
970.0 880 938 996 1126 1241 1482 1696 1956 2191 2518
1010.0 2898 3355 3826 4416 5157 5784 6159 6346 6510 6466
1050.0 6093 5395 4741 4173 3615 3116 2601 2140 1785 1561
1090.0 1363 1243 1116 1086 1066 1053 1025 985 979 974
1130.0 1053 1081 1077 1013 1012 977 968 977 964 993
1170.0 984 1015 1056 1133 1165 1152 1111 1093 1081 1036
1210.0 1027 973 910 795 803 837 885 907 984 1066
1250.0 1092 1138 1130 1141 1113 1118 1070 1069 1068 1075
1290.0 1096 1098 1134 1129 1161 1145 1178 1183 1223 1266
1330.0 1294 1288 1289 1307 1298 1307 1272 1271 1230 1234
1370.0 1271 1363 1451 1532 1608 1621 1580 1461 1308 1131
1410.0 1052 964 962 929 958 1061 1214 1492 1831 2190
1450.0 2445 2383 1923 1441 1169 1168 1320 1447 1725 2326
1490.0 3479 4345 4116 2936 1707 1004 755 662 630 581
1530.0 579 613 601 610 544 522 501 549 539 549
1570.0 630 723 904 1113 1371 1707 2110 2473 2426 2063
1610.0 1451 956 672 545 496 435 433 434 413 429
1650.0 467 478 449 429 446 436 439 411 425 412
1690.0 389 382 393 396 379 370 371 398 381 396
1730.0 434 478 479 472 489 477 453 403 407 380
1770.0 408 412 442 472 533 668 769 783 678 557
1810.0 467 440 402 379 349 333 315 306 336 340
1850.0 359 367 407 429 466 494 488 504 506 493
1890.0 463 426 366 337 321 324 323 349 382 428
1930.0 514 603 691 705 672 646 639 583 462 347
1970.0 269 272 269 262 251 245 229 214 216 218
2010.0 221 229 225 217 234 237 241 236 240 239
2050.0 237 237 238 245 231 247 217 215 219 219
2090.0 204 190 191 178 179 156 170 154 166 165
2130.0 171 163 169 168 163 158 143 149 139 146
2170.0 135 141 131 145 140 130 127 126 128 112
2210.0 124 120 125 124 129 129 127 135 133 146
2250.0 142 154 141 149 155 161 160 167 182 189
2290.0 200 219 255 267 294 316 334 311 313 287
2330.0 251 259 264 267 249 302 310 295 234 175
2370.0 171 143 168 189 214 187 197 190 204 197
2410.0 204 206 202 206 194 209 193 199 198 184
2450.0 196 195 191 183 185 178 190 170 183 172
2490.0 179 178 184 182 170 177 175 176 168 174
2530.0 174 167 168 163 162 146 155 152 155 150
2570.0 162 167 155 166 177 172 158 181 189 196
2610.0 202 205 203 206 201 224 213 208 219 202
2650.0 215 214 234 234 242 245 249 247 260 258
2690.0 256 261 262 263 279 282 278 281 290 293
2730.0 299 299 315 333 335 333 344 358 370 372
2770.0 386 419 413 440 458 465 469 469 470 466
2810.0 465 465 489 491 521 540 588 632 715 801
2850.0 923 1072 1232 1347 1518 1791 2069 2437 2877 3324
2890.0 3453 3176 2701 2285 2075 2049 2180 2370 2691 3049
2930.0 3469 3834 4173 4476 4723 4614 4121 3462 2795 2274
2970.0 1821 1481 1203 968 820 760 759 784 906 1053
3010.0 1206 1448 1890 2624 3672 4678 5128 4805 3975 3220
3050.0 2786 2712 2981 3785 5098 6181 6098 5075 3884 3321
3090.0 3056 2658 2198 1789 1493 1268 1028 797 566 450
3130.0 341 321 286 255 273 267 272 286 277 265
3170.0 267 233 225 190 187 175 194 168 172 169
3210.0 187 207 175 189 146 171 171 134 138 185
3250.0 141 134 120 154 140 112 168 153 141 149
3290.0 166 162 140 150 144 134 162 180 170 185
3330.0 139 163 168 172 184 162 196 174 207 208
3370.0 238 223 204 220 220 245 194 222 246 266
3410.0 240 295 264 253 281 294 272 264 249 287
3450.0 305 254 261 277 256 295 298 272 242 288
3490.0 266 259 294 246 261 250 260 277 246 239
3530.0 237 233 270 242 265 253 267 219 263 270
3570.0 289 314 237 251 227 256 254 290 282 324
3610.0 324 357 452 546 679 771 783 777 763 736
3650.0 815 976 1108 1329 1450 1461 1367 1158 719 634
3690.0 476 363 277 339 365 348 298 204 255 327
3730.0 318 368 286 294 267 256 226 227 207 243
3770.0 255 334 298 336 311 310 278 256 376 345
3810.0 384 362 396 389 352 344 393 312 357 362
3850.0 362 378 259 340 313 269 339 356 351 284
3890.0 408 364 330 395 338 337 267 270 297 442
3930.0 336 344 249 434 456 200 375 419 295 337
##END=
