##TITLE=4-Chlorophenyl benzoate
##JCAMP-DX=4.24
##DATA TYPE=INFRARED SPECTRUM
##ORIGIN=Sadtler Research Labs Under US-EPA Contract
##OWNER=NIST Standard Reference Data Program
##CAS REGISTRY NO=2005-08-5
##MOLFORM=C 13 H 9 Cl O 2
##XUNITS=1/CM
##YUNITS=ABSORBANCE
##XFACTOR=1.0
##YFACTOR=0.000125385
##DELTAX=4.0
##FIRSTX=450.0
##LASTX=3966.0
##FIRSTY=0.000000
##MAXX=3966
##MINX=450
##MAXY=1.25385
##MINY=0
##NPOINTS=880
##XYDATA=(X++(Y..Y))
450.0 0 561 912 662 715 780 528 626 879 704
490.0 698 875 893 1063 1050 1072 955 881 765 704
530.0 779 624 489 679 639 611 518 543 678 561
570.0 606 736 655 648 622 642 569 573 616 598
610.0 683 676 663 658 680 652 658 683 716 717
650.0 746 669 666 732 735 799 913 1013 1317 1475
690.0 1670 1977 2229 2687 2923 2719 2158 1519 1178 1029
730.0 865 845 878 842 624 705 669 633 644 699
770.0 698 732 702 767 794 831 961 1005 1034 1045
810.0 974 1008 1014 1004 1018 957 942 870 866 887
850.0 900 934 967 1072 1150 1143 1156 1021 890 791
890.0 762 720 720 676 681 708 701 687 637 651
930.0 710 721 706 702 677 646 692 697 673 681
970.0 724 734 710 732 758 805 808 896 1042 1379
1010.0 1995 2853 3126 3165 3378 2283 1361 1161 1515 2268
1050.0 3748 5744 6519 5215 3748 3518 3726 3108 2300 1940
1090.0 2183 2478 2235 1725 1292 1079 963 893 874 839
1130.0 809 815 824 844 894 970 1085 1577 2344 2724
1170.0 2151 2371 3257 3697 3007 3148 4613 7456 10000 9883
1210.0 7413 5556 4828 3981 3157 2825 2995 3382 3632 3915
1250.0 4843 6724 8752 9020 6751 4155 2756 2183 1868 1600
1290.0 1402 1273 1166 1144 1129 1177 1206 1157 1051 1019
1330.0 970 999 964 934 893 868 805 754 750 721
1370.0 706 720 713 698 696 699 692 690 691 697
1410.0 692 693 683 712 703 792 893 990 989 984
1450.0 1134 1242 1060 914 885 972 1259 1869 3104 4934
1490.0 5632 4646 2793 1688 1295 1050 929 875 789 781
1530.0 748 734 719 705 689 668 669 661 660 661
1570.0 663 698 735 796 832 879 906 881 881 857
1610.0 788 702 671 648 640 629 641 647 641 642
1650.0 633 628 637 634 649 667 669 676 673 689
1690.0 666 669 684 712 730 733 762 795 794 852
1730.0 876 980 1134 1371 1848 2501 3506 4736 5452 5029
1770.0 3733 2419 1599 1127 862 791 734 724 735 725
1810.0 745 732 700 672 643 631 623 623 630 630
1850.0 634 623 610 614 613 628 634 638 647 631
1890.0 624 610 606 602 601 607 609 617 620 603
1930.0 589 576 573 580 573 579 579 585 591 591
1970.0 594 588 579 558 551 555 561 563 566 565
2010.0 566 564 561 569 563 567 568 566 558 552
2050.0 551 551 557 555 558 559 557 552 549 540
2090.0 539 538 536 543 542 546 547 545 543 538
2130.0 538 534 531 526 519 521 518 515 514 516
2170.0 515 518 517 516 511 510 508 511 512 510
2210.0 509 508 508 509 511 508 510 511 514 514
2250.0 516 520 522 525 525 531 534 533 538 544
2290.0 549 551 562 571 571 582 576 572 575 563
2330.0 539 535 529 537 538 551 557 548 562 541
2370.0 530 526 535 550 542 533 533 533 537 529
2410.0 519 516 513 511 508 507 504 499 497 498
2450.0 495 494 492 494 492 495 494 496 494 496
2490.0 499 498 496 496 501 498 499 496 496 493
2530.0 491 495 491 491 495 492 495 497 498 498
2570.0 496 494 490 490 490 484 490 489 493 492
2610.0 491 488 487 484 493 490 488 488 488 485
2650.0 485 484 484 479 484 481 484 480 483 483
2690.0 484 489 485 480 479 480 481 476 478 480
2730.0 476 480 480 485 482 487 489 487 488 484
2770.0 486 484 487 485 487 485 489 482 486 489
2810.0 492 490 490 494 499 497 506 514 520 521
2850.0 523 525 529 529 524 519 519 522 513 515
2890.0 520 516 516 519 515 515 523 523 527 534
2930.0 539 541 541 539 537 528 525 524 531 539
2970.0 541 536 534 525 514 516 509 511 510 516
3010.0 524 537 549 547 555 576 613 651 691 743
3050.0 768 750 719 731 801 889 997 1082 1036 864
3090.0 752 742 772 750 721 674 621 570 531 518
3130.0 503 498 499 500 497 497 499 500 498 506
3170.0 502 498 500 495 493 491 486 487 490 486
3210.0 490 490 483 484 492 485 483 490 482 485
3250.0 485 486 483 479 479 485 487 486 485 483
3290.0 479 480 486 479 483 476 476 486 485 482
3330.0 487 490 483 479 485 486 489 486 495 498
3370.0 492 483 485 489 483 489 489 482 480 483
3410.0 492 494 483 489 492 493 494 485 487 497
3450.0 493 496 487 490 490 497 498 489 504 506
3490.0 505 517 522 516 527 524 507 502 497 495
3530.0 502 498 491 487 499 487 492 498 496 503
3570.0 507 507 524 522 541 535 521 505 504 497
3610.0 492 502 504 500 504 500 495 508 522 527
3650.0 558 551 540 537 528 531 504 513 502 498
3690.0 505 498 502 491 485 506 500 490 490 504
3730.0 509 496 508 500 517 485 502 492 491 499
3770.0 496 494 489 484 487 494 488 476 498 478
3810.0 480 496 483 483 476 482 504 513 492 505
3850.0 497 485 492 493 479 496 510 512 488 497
3890.0 506 483 486 488 515 479 490 479 512 498
3930.0 497 489 505 506 502 495 488 485 479 480
##END=
