##TITLE=1-Hexanol, 6-chloro-
##JCAMP-DX=4.24
##DATA TYPE=INFRARED SPECTRUM
##ORIGIN=Sadtler Research Labs Under US-EPA Contract
##OWNER=NIST Standard Reference Data Program
##CAS REGISTRY NO=2009-83-8
##MOLFORM=C 6 H 13 Cl O
##XUNITS=1/CM
##YUNITS=ABSORBANCE
##XFACTOR=1.0
##YFACTOR=0.000097348
##DELTAX=4.0
##FIRSTX=450.0
##LASTX=3966.0
##FIRSTY=0.003310
##MAXX=3966
##MINX=450
##MAXY=0.97348
##MINY=0
##NPOINTS=880
##XYDATA=(X++(Y..Y))
450.0 34 83 61 46 39 0 14 28 40 41
490.0 33 63 136 53 129 111 74 122 80 81
530.0 64 45 59 53 50 18 43 89 41 57
570.0 51 38 19 22 72 35 42 37 59 63
610.0 55 58 64 79 94 147 186 249 309 438
650.0 609 799 1004 1077 1001 771 538 345 234 203
690.0 190 200 236 260 308 360 470 586 737 914
730.0 1088 1257 1445 1486 1335 1115 888 744 645 553
770.0 482 419 393 347 337 311 302 278 272 278
810.0 286 288 281 236 259 244 260 239 241 261
850.0 269 280 291 293 284 292 291 305 321 347
890.0 389 421 424 445 446 439 434 428 433 436
930.0 446 463 488 535 578 635 687 728 751 768
970.0 807 826 911 1001 1070 1158 1241 1300 1352 1414
1010.0 1470 1565 1718 1926 2198 2510 2805 3101 3326 3535
1050.0 3654 3652 3463 3138 2797 2504 2305 2131 1913 1652
1090.0 1376 1128 938 795 718 680 681 683 680 649
1130.0 600 548 504 473 456 439 429 429 414 424
1170.0 422 437 447 455 475 492 507 528 551 587
1210.0 603 619 645 672 691 708 741 774 814 849
1250.0 889 946 1002 1070 1132 1194 1249 1323 1398 1492
1290.0 1553 1599 1596 1557 1507 1454 1381 1289 1199 1091
1330.0 979 881 828 817 839 869 872 860 841 825
1370.0 840 877 921 962 988 968 907 790 673 582
1410.0 489 455 436 425 470 555 671 819 962 1163
1450.0 1347 1434 1421 1251 1104 953 810 668 570 442
1490.0 328 236 179 138 129 96 83 84 70 60
1530.0 50 69 45 45 39 32 45 43 34 29
1570.0 29 23 34 17 27 24 21 14 16 13
1610.0 15 11 16 18 9 11 3 15 8 8
1650.0 1 18 9 10 11 17 10 22 15 24
1690.0 20 7 8 15 15 12 18 15 14 18
1730.0 16 19 26 29 26 37 34 29 25 23
1770.0 21 22 20 16 22 10 27 16 18 20
1810.0 19 13 20 17 24 20 19 15 11 22
1850.0 25 17 15 16 12 24 20 22 24 22
1890.0 23 21 25 28 31 35 25 29 22 31
1930.0 25 25 29 31 31 34 26 34 37 30
1970.0 31 35 36 31 33 35 39 39 30 39
2010.0 40 36 39 45 46 41 36 36 38 41
2050.0 38 38 41 42 29 26 20 26 26 26
2090.0 36 40 46 43 44 38 36 41 40 36
2130.0 35 41 34 41 34 34 36 41 39 40
2170.0 41 39 40 41 40 35 31 35 30 36
2210.0 39 39 37 34 30 35 35 34 28 35
2250.0 34 37 35 32 34 37 30 29 29 26
2290.0 21 22 16 10 5 2 12 8 11 25
2330.0 31 27 38 39 39 10 9 13 36 42
2370.0 60 52 46 36 39 36 34 39 34 35
2410.0 35 35 35 35 37 34 34 40 34 39
2450.0 39 40 39 39 36 36 30 30 31 34
2490.0 29 36 36 36 35 35 30 31 31 30
2530.0 30 30 30 36 33 35 21 21 21 20
2570.0 21 16 26 22 28 33 42 44 51 61
2610.0 65 72 76 81 81 87 87 88 96 110
2650.0 117 131 123 131 138 133 133 138 143 157
2690.0 162 173 180 182 180 182 180 193 202 208
2730.0 225 235 241 240 251 261 258 269 279 277
2770.0 298 300 313 329 346 361 377 392 408 420
2810.0 435 458 491 535 580 670 779 939 1175 1491
2850.0 1897 2375 2913 3505 4027 4461 4718 4791 4673 4411
2890.0 4082 3820 3727 3817 4054 4394 4795 5325 5924 6661
2930.0 7604 8559 9512 10000 9846 9194 8143 7086 6149 5239
2970.0 4402 3533 2752 2166 1789 1621 1640 1692 1584 1330
3010.0 975 675 478 364 284 242 203 178 159 143
3050.0 122 106 96 91 84 71 64 52 47 45
3090.0 37 43 33 28 33 17 17 20 14 19
3130.0 18 8 15 16 21 26 27 27 28 29
3170.0 38 28 39 30 34 27 30 29 28 23
3210.0 35 38 39 40 34 34 38 39 37 36
3250.0 33 39 35 29 11 30 26 5 15 21
3290.0 25 20 8 5 12 12 6 16 11 5
3330.0 11 12 15 16 2 18 20 17 5 15
3370.0 35 22 2 2 18 17 28 32 26 40
3410.0 31 30 38 42 43 47 38 38 51 37
3450.0 52 50 37 57 49 64 71 73 72 68
3490.0 63 61 77 74 57 71 45 73 63 51
3530.0 53 51 53 55 57 63 82 73 54 42
3570.0 87 67 52 69 77 93 74 92 106 96
3610.0 125 123 135 163 155 205 201 257 302 365
3650.0 487 648 794 922 1019 1110 1106 1043 870 664
3690.0 487 360 271 214 174 145 131 111 92 95
3730.0 95 92 93 85 86 74 93 78 70 68
3770.0 63 60 57 50 60 56 54 53 56 51
3810.0 66 64 59 62 72 65 67 60 62 68
3850.0 56 35 54 69 54 51 60 72 63 65
3890.0 76 78 80 74 80 86 86 88 87 85
3930.0 80 72 80 72 82 79 78 83 99 99
##END=
