##TITLE=Benzene, methoxymethyl-pentamethyl-,
##JCAMP-DX=4.24
##DATA TYPE=INFRARED SPECTRUM
##ORIGIN=Sadtler Research Labs Under US-EPA Contract
##OWNER=NIST Standard Reference Data Program
##CAS REGISTRY NO=20145-50-0
##MOLFORM=C 13 H 20 O
##XUNITS=1/CM
##YUNITS=ABSORBANCE
##XFACTOR=1.0
##YFACTOR=0.000064987
##DELTAX=4.0
##FIRSTX=450.0
##LASTX=3966.0
##FIRSTY=0.000000
##MAXX=3966
##MINX=450
##MAXY=0.64987
##MINY=0
##NPOINTS=880
##XYDATA=(X++(Y..Y))
450.0 0 127 205 154 181 172 161 179 201 226
490.0 222 198 188 172 129 108 106 130 146 121
530.0 116 136 135 132 143 178 168 163 146 124
570.0 127 142 142 153 154 138 142 118 107 123
610.0 109 122 123 129 130 131 122 150 171 196
650.0 284 373 419 390 369 241 194 158 164 148
690.0 152 154 129 141 134 136 129 120 131 128
730.0 166 181 194 199 184 176 166 155 158 164
770.0 161 190 225 258 286 316 337 359 408 522
810.0 703 844 844 710 502 351 291 255 224 211
850.0 210 200 202 198 206 216 240 262 294 335
890.0 424 566 723 855 873 771 598 459 399 414
930.0 489 598 754 923 1038 1044 926 787 676 602
970.0 566 527 498 471 471 471 488 505 523 547
1010.0 566 592 623 664 701 805 935 1038 1202 1377
1050.0 1575 1826 2102 2400 2650 2800 2834 2849 3028 3537
1090.0 4529 6042 7873 9495 10000 8930 6795 4485 2876 2048
1130.0 1626 1383 1217 1103 1029 988 950 913 861 839
1170.0 854 948 1148 1437 1735 1872 1710 1326 934 662
1210.0 527 471 468 492 521 544 556 549 558 574
1250.0 569 530 484 471 484 511 544 598 668 733
1290.0 752 708 619 518 443 401 391 388 385 394
1330.0 407 438 473 535 626 776 985 1185 1360 1532
1370.0 1732 1900 1891 1721 1489 1341 1274 1219 1141 1094
1410.0 1086 1149 1254 1368 1460 1517 1548 1555 1564 1586
1450.0 1614 1641 1682 1726 1745 1727 1630 1521 1419 1358
1490.0 1306 1257 1210 1139 1072 987 902 818 764 712
1530.0 680 650 629 607 602 598 597 597 615 615
1570.0 613 596 584 545 505 469 442 416 396 373
1610.0 353 349 335 318 305 289 279 265 257 252
1650.0 243 235 233 218 217 210 204 200 196 196
1690.0 194 200 216 246 270 283 264 216 165 149
1730.0 147 159 173 197 219 208 199 182 184 185
1770.0 192 188 196 214 245 249 248 218 184 164
1810.0 145 135 129 125 115 119 118 123 120 124
1850.0 119 119 114 120 114 112 115 112 115 113
1890.0 114 114 115 113 114 114 113 114 115 118
1930.0 124 123 125 127 130 131 134 136 139 135
1970.0 141 146 151 159 166 174 182 192 189 186
2010.0 187 186 184 187 192 200 207 213 216 220
2050.0 219 208 198 180 169 162 160 158 155 156
2090.0 156 152 148 143 139 134 133 133 136 135
2130.0 138 139 141 144 140 139 141 139 139 139
2170.0 143 142 147 149 147 147 150 148 148 144
2210.0 142 132 130 123 119 115 116 114 115 114
2250.0 115 115 111 118 112 113 112 111 108 111
2290.0 112 108 108 114 109 106 119 117 126 140
2330.0 136 141 141 145 139 139 154 152 142 141
2370.0 138 138 143 145 142 145 145 143 145 140
2410.0 142 141 141 147 148 146 151 151 149 152
2450.0 155 153 153 151 152 151 151 148 151 149
2490.0 151 146 146 147 146 148 146 144 146 146
2530.0 146 145 141 143 146 144 145 146 146 147
2570.0 151 150 153 161 163 169 172 170 169 170
2610.0 167 170 176 174 176 176 168 173 173 175
2650.0 177 178 178 179 182 187 189 196 198 210
2690.0 213 218 227 243 255 267 285 309 340 390
2730.0 448 499 529 527 500 470 449 444 451 467
2770.0 488 517 550 595 639 709 801 954 1236 1647
2810.0 2102 2535 2842 2948 2811 2479 2156 1954 1920 1961
2850.0 2073 2253 2518 2904 3408 4048 4699 5279 5702 5982
2890.0 6166 6374 6550 6606 6519 6374 6342 6434 6732 7120
2930.0 7466 7618 7556 7302 6938 6558 6135 5687 5189 4742
2970.0 4387 4190 4180 4366 4581 4596 4252 3687 3215 2918
3010.0 2765 2678 2608 2533 2462 2376 2274 2167 2048 1926
3050.0 1793 1668 1544 1429 1318 1208 1112 1014 937 856
3090.0 784 723 670 620 575 534 498 462 435 408
3130.0 382 363 338 319 303 283 269 251 247 232
3170.0 221 215 204 198 196 188 175 170 171 164
3210.0 159 155 157 153 144 142 142 138 138 143
3250.0 132 135 131 133 133 130 129 133 132 138
3290.0 135 128 130 133 128 133 129 132 127 129
3330.0 129 129 129 128 127 131 125 132 135 127
3370.0 130 133 133 134 131 128 134 129 131 128
3410.0 137 136 132 126 131 134 131 127 133 132
3450.0 121 126 125 131 135 136 130 123 126 126
3490.0 123 120 122 121 123 114 122 123 126 131
3530.0 125 127 123 130 121 126 128 131 125 129
3570.0 124 119 114 121 132 125 121 108 120 114
3610.0 131 123 121 120 115 129 119 117 119 120
3650.0 133 123 133 127 118 133 113 131 107 113
3690.0 106 114 117 128 123 121 132 123 124 131
3730.0 120 127 132 129 136 106 135 116 117 112
3770.0 109 106 111 126 116 123 117 112 108 124
3810.0 109 126 107 123 113 128 125 135 130 135
3850.0 116 137 136 125 139 142 131 119 126 136
3890.0 124 140 134 149 135 147 146 146 149 135
3930.0 150 138 158 146 143 126 125 124 139 126
##END=
