##TITLE=Benzene, 1,3-dichloro-2-(chloromethyl)-
##JCAMP-DX=4.24
##DATA TYPE=INFRARED SPECTRUM
##ORIGIN=Sadtler Research Labs Under US-EPA Contract
##OWNER=NIST Standard Reference Data Program
##CAS REGISTRY NO=2014-83-7
##MOLFORM=C 7 H 5 Cl 3
##XUNITS=1/CM
##YUNITS=ABSORBANCE
##XFACTOR=1.0
##YFACTOR=0.000083496
##DELTAX=4.0
##FIRSTX=450.0
##LASTX=3966.0
##FIRSTY=0.002672
##MAXX=3966
##MINX=450
##MAXY=0.83496
##MINY=0
##NPOINTS=880
##XYDATA=(X++(Y..Y))
450.0 32 35 30 22 33 70 95 111 108 65
490.0 94 87 101 27 34 49 31 62 21 59
530.0 93 76 77 94 119 124 82 115 83 102
570.0 56 150 80 118 126 122 181 348 409 421
610.0 422 373 321 244 190 184 161 195 206 236
650.0 270 326 308 376 365 566 573 469 433 449
690.0 439 421 387 330 304 300 264 232 256 245
730.0 248 268 289 356 390 412 464 547 644 799
770.0 1032 1529 1682 1933 2068 2063 2087 2113 2523 3295
810.0 4013 4529 4424 3709 2949 2287 1857 1620 1432 1228
850.0 1067 936 888 835 811 806 664 614 548 479
890.0 420 376 322 311 304 299 298 300 296 271
930.0 240 268 234 240 253 239 253 260 264 256
970.0 276 298 326 398 472 672 938 1374 2089 3212
1010.0 4797 6472 8090 9720 10000 9264 7353 5074 3336 2366
1050.0 1963 1905 1955 2065 2244 2486 2823 3078 3260 3273
1090.0 3036 2705 2351 2089 1799 1528 1341 1186 994 869
1130.0 779 689 558 454 400 358 314 289 251 195
1170.0 176 158 138 103 110 103 123 135 103 101
1210.0 108 90 93 139 160 139 177 237 322 487
1250.0 712 1202 1926 2787 3213 2690 1749 967 551 359
1290.0 270 237 216 174 162 127 92 121 90 112
1330.0 109 71 61 68 56 47 67 70 90 70
1370.0 92 124 115 148 179 215 249 264 306 336
1410.0 341 297 269 260 241 236 223 211 224 243
1450.0 347 527 705 793 837 830 640 457 369 282
1490.0 195 191 159 142 113 59 51 46 32 43
1530.0 68 57 80 71 129 177 229 303 409 562
1570.0 801 1110 1271 1190 924 579 310 201 145 148
1610.0 128 110 103 102 71 80 60 57 58 40
1650.0 23 10 39 40 51 38 27 15 17 0
1690.0 32 21 13 3 37 30 40 17 41 56
1730.0 51 41 44 45 42 17 24 24 29 24
1770.0 24 19 35 34 32 36 35 21 20 27
1810.0 27 28 15 29 14 23 19 33 29 27
1850.0 40 37 41 41 35 25 29 27 26 30
1890.0 32 27 28 28 32 38 39 34 39 40
1930.0 45 45 41 38 35 42 42 42 30 31
1970.0 30 30 32 25 27 26 33 26 20 28
2010.0 28 21 17 22 11 16 30 22 30 27
2050.0 24 28 24 29 20 24 32 25 31 26
2090.0 25 26 19 18 28 27 25 21 22 23
2130.0 23 29 23 24 24 18 28 27 19 33
2170.0 25 25 26 32 31 37 26 31 30 37
2210.0 30 24 23 26 34 30 27 33 33 32
2250.0 28 29 28 33 30 34 33 40 40 50
2290.0 45 63 70 75 89 99 95 99 116 110
2330.0 105 130 117 144 124 118 150 165 205 171
2370.0 147 113 91 76 63 27 23 42 23 31
2410.0 25 31 34 25 25 27 34 25 23 23
2450.0 24 25 31 25 26 28 24 23 24 33
2490.0 31 27 35 26 33 33 39 20 20 19
2530.0 19 19 21 18 33 32 32 34 27 27
2570.0 34 45 32 33 37 27 31 39 32 29
2610.0 33 29 29 35 53 37 26 28 38 36
2650.0 40 60 39 35 35 35 35 90 39 41
2690.0 30 32 39 73 60 23 25 38 36 75
2730.0 95 17 32 33 38 77 120 37 29 39
2770.0 45 88 121 46 46 53 54 135 120 53
2810.0 71 72 73 196 80 73 68 74 122 156
2850.0 95 99 99 114 176 121 142 127 136 133
2890.0 139 164 182 209 293 272 263 229 217 317
2930.0 225 223 226 257 400 323 382 510 808 1093
2970.0 1179 1073 835 661 349 236 178 252 164 143
3010.0 138 230 198 124 118 177 125 98 124 174
3050.0 122 129 178 181 168 189 212 204 180 190
3090.0 162 144 128 114 109 84 92 83 69 75
3130.0 73 52 55 51 41 56 56 59 46 41
3170.0 53 36 49 37 40 31 38 27 32 44
3210.0 46 27 46 40 40 28 26 31 28 40
3250.0 37 32 37 30 15 38 27 27 38 34
3290.0 23 16 11 36 35 28 28 15 20 24
3330.0 25 29 14 20 32 18 33 31 29 45
3370.0 28 11 22 29 29 25 24 23 33 38
3410.0 45 33 24 20 33 26 21 40 15 22
3450.0 21 28 26 29 26 12 30 14 14 18
3490.0 25 26 21 23 26 31 31 57 40 27
3530.0 31 29 28 36 30 49 42 38 22 35
3570.0 20 35 41 40 23 39 21 53 40 49
3610.0 49 31 32 32 40 17 48 55 50 55
3650.0 43 61 58 69 64 47 62 45 69 58
3690.0 49 49 60 65 71 84 90 74 72 85
3730.0 82 89 81 103 74 86 82 98 112 107
3770.0 95 105 117 90 96 93 108 103 92 98
3810.0 91 117 112 85 101 123 95 89 113 115
3850.0 119 105 119 127 110 110 122 132 112 117
3890.0 118 120 126 129 113 125 125 131 132 125
3930.0 109 109 128 133 143 162 35 44 44 46
##END=
