##TITLE=1-Butanol, 2,3-dimethyl-,
##JCAMP-DX=4.24
##DATA TYPE=INFRARED SPECTRUM
##ORIGIN=Sadtler Research Labs Under US-EPA Contract
##OWNER=NIST Standard Reference Data Program
##CAS REGISTRY NO=20281-85-0
##MOLFORM=C 6 H 14 O
##XUNITS=1/CM
##YUNITS=ABSORBANCE
##XFACTOR=1.0
##YFACTOR=0.000147830
##DELTAX=4.0
##FIRSTX=450.0
##LASTX=3966.0
##FIRSTY=0.024835
##MAXX=3966
##MINX=450
##MAXY=1.4783
##MINY=0
##NPOINTS=880
##XYDATA=(X++(Y..Y))
450.0 168 117 74 87 68 116 136 77 165 152
490.0 71 66 59 134 130 115 108 131 77 93
530.0 90 94 142 127 78 110 104 117 123 83
570.0 86 74 58 75 72 67 80 101 58 80
610.0 74 87 74 70 78 0 106 80 73 59
650.0 93 78 69 67 66 57 54 59 54 71
690.0 50 72 53 69 60 75 79 68 68 64
730.0 67 32 45 89 70 84 73 85 89 100
770.0 86 104 93 89 85 60 90 94 77 75
810.0 74 62 73 61 79 70 82 86 93 112
850.0 127 154 169 192 200 207 213 208 200 198
890.0 205 213 241 255 283 306 338 357 372 388
930.0 386 385 373 371 365 378 407 454 510 578
970.0 629 665 728 791 872 956 1059 1216 1360 1582
1010.0 1908 2280 2732 3212 3573 3861 3919 3907 3643 3264
1050.0 2932 2546 2194 1794 1411 1104 895 755 669 631
1090.0 621 640 652 677 681 691 685 670 650 616
1130.0 593 565 550 531 536 541 547 557 570 582
1170.0 586 595 590 588 572 566 550 553 569 592
1210.0 620 633 642 639 623 598 576 550 521 499
1250.0 481 474 465 462 454 463 459 465 467 463
1290.0 465 457 465 463 464 460 460 454 456 457
1330.0 461 475 482 512 531 581 655 762 906 1060
1370.0 1284 1468 1538 1627 1646 1584 1432 1194 982 791
1410.0 593 465 376 341 306 315 339 420 507 632
1450.0 804 977 1185 1329 1455 1531 1479 1351 1169 970
1490.0 737 549 382 266 210 172 119 123 114 100
1530.0 82 82 82 81 74 65 66 69 80 49
1570.0 53 52 61 45 51 51 44 49 48 50
1610.0 39 51 48 49 39 46 43 52 43 55
1650.0 37 81 43 39 42 44 43 48 33 58
1690.0 36 38 54 55 42 36 49 50 53 48
1730.0 63 73 83 85 97 108 110 107 102 106
1770.0 106 118 92 83 63 54 38 31 24 23
1810.0 18 19 17 16 19 15 15 8 14 15
1850.0 10 11 10 9 9 9 10 11 5 11
1890.0 11 7 9 9 10 9 10 11 10 10
1930.0 13 11 11 11 10 13 14 11 13 12
1970.0 16 13 13 14 13 14 20 18 20 25
2010.0 28 28 29 32 36 42 43 43 46 45
2050.0 46 45 43 38 25 21 17 16 14 17
2090.0 17 17 18 15 13 15 13 12 12 11
2130.0 10 9 11 8 7 8 5 7 8 10
2170.0 8 8 8 8 7 9 11 8 10 8
2210.0 10 14 13 13 14 15 18 15 14 15
2250.0 19 16 14 15 13 12 15 19 20 19
2290.0 19 19 20 20 17 19 14 18 13 16
2330.0 15 20 22 20 27 22 5 12 16 34
2370.0 37 52 49 49 46 42 39 39 41 39
2410.0 41 38 43 41 38 39 41 39 39 39
2450.0 39 37 35 35 31 33 30 34 29 28
2490.0 29 32 34 27 31 32 31 28 31 36
2530.0 35 37 37 38 41 43 44 46 49 54
2570.0 57 60 66 65 73 77 80 86 90 96
2610.0 103 102 104 101 96 95 92 87 85 90
2650.0 103 104 101 97 100 94 86 94 91 101
2690.0 108 118 122 134 143 156 166 188 206 224
2730.0 242 260 269 273 278 275 274 271 283 287
2770.0 290 301 309 319 321 330 332 342 365 374
2810.0 395 410 436 464 487 520 566 623 704 818
2850.0 969 1184 1470 1884 2428 3157 3942 4644 5293 5674
2890.0 5779 5514 5174 4785 4498 4321 4241 4308 4457 4653
2930.0 4819 4971 5119 5280 5479 5952 6668 7627 8734 9805
2970.0 10000 9277 8297 6857 5134 3741 2681 1839 1249 851
3010.0 605 466 387 334 301 275 256 235 216 199
3050.0 184 184 168 161 164 153 143 146 142 147
3090.0 137 137 128 127 131 124 126 126 118 111
3130.0 112 128 120 116 120 124 129 134 129 132
3170.0 135 126 130 124 126 123 116 110 94 81
3210.0 82 73 69 62 55 46 49 38 52 35
3250.0 37 30 28 22 28 25 28 18 12 23
3290.0 25 15 21 15 8 19 29 20 20 15
3330.0 18 23 16 10 21 26 18 16 13 16
3370.0 16 17 16 22 16 20 29 23 23 21
3410.0 17 23 20 38 27 20 22 23 24 34
3450.0 38 26 27 19 24 25 41 33 28 42
3490.0 28 23 40 43 29 25 33 30 30 22
3530.0 30 27 36 18 15 13 12 19 40 37
3570.0 43 45 36 38 27 36 26 17 29 16
3610.0 22 23 39 33 50 74 85 114 159 224
3650.0 314 436 591 736 840 900 913 849 730 560
3690.0 403 265 160 90 63 48 35 14 9 39
3730.0 21 16 30 23 20 7 14 5 24 25
3770.0 11 29 10 16 10 8 23 11 15 41
3810.0 27 17 5 27 25 24 45 33 40 45
3850.0 31 53 45 29 22 43 31 37 41 40
3890.0 24 38 35 68 40 24 19 20 36 24
3930.0 29 25 45 32 25 18 26 42 38 39
##END=
