##TITLE=Ethane, 2-bromo-1,1-diethoxy-
##JCAMP-DX=4.24
##DATA TYPE=INFRARED SPECTRUM
##ORIGIN=Sadtler Research Labs Under US-EPA Contract
##OWNER=NIST Standard Reference Data Program
##CAS REGISTRY NO=2032-35-1
##MOLFORM=C 6 H 13 Br O 2
##XUNITS=1/CM
##YUNITS=ABSORBANCE
##XFACTOR=1.0
##YFACTOR=0.000096121
##DELTAX=4.0
##FIRSTX=450.0
##LASTX=3966.0
##FIRSTY=0.000000
##MAXX=3966
##MINX=450
##MAXY=0.96121
##MINY=0
##NPOINTS=880
##XYDATA=(X++(Y..Y))
450.0 0 249 498 320 262 218 337 325 400 297
490.0 421 345 518 384 410 323 369 340 413 418
530.0 341 309 361 367 409 406 432 287 217 432
570.0 433 324 360 468 365 336 286 269 306 331
610.0 332 333 366 422 447 476 470 414 445 357
650.0 383 314 383 418 342 644 645 857 1188 1594
690.0 1666 1456 981 628 495 585 528 532 521 495
730.0 448 459 339 369 431 376 304 331 320 320
770.0 362 308 328 378 372 339 380 380 409 458
810.0 461 504 494 444 331 370 349 413 423 408
850.0 391 359 405 373 352 410 461 466 508 529
890.0 506 497 504 498 437 440 512 531 460 470
930.0 420 414 404 431 404 446 478 497 516 637
970.0 694 852 1071 1385 1726 2099 2434 2737 2909 3041
1010.0 3087 3104 3008 2823 2600 2530 2686 3009 3505 4115
1050.0 5029 6252 7745 9197 9959 10000 9554 8579 7572 6696
1090.0 6114 5730 5573 5378 5315 5434 5570 5911 6303 6732
1130.0 6901 6926 6738 6275 5681 4910 4177 3558 3059 2755
1170.0 2519 2305 2183 2101 2144 2221 2233 2214 2082 1908
1210.0 1748 1608 1452 1352 1246 1103 960 820 747 714
1250.0 697 684 657 633 625 625 639 641 659 627
1290.0 665 698 728 751 741 748 730 772 837 984
1330.0 1184 1416 1647 1794 1917 1899 1763 1524 1258 1162
1370.0 1328 1595 1749 1778 1685 1484 1385 1313 1206 1089
1410.0 991 916 974 1147 1326 1404 1340 1158 1062 1022
1450.0 957 925 779 712 631 603 590 576 582 570
1490.0 562 474 438 376 352 368 299 326 296 300
1530.0 292 268 319 284 302 259 273 274 289 256
1570.0 262 258 271 255 259 242 263 237 254 251
1610.0 235 264 261 263 260 264 255 263 265 249
1650.0 290 250 288 226 280 259 274 239 273 276
1690.0 267 266 278 285 252 263 261 298 299 285
1730.0 367 385 473 461 482 516 533 524 487 439
1770.0 408 396 357 346 323 313 310 316 296 293
1810.0 284 271 269 259 259 259 244 261 246 264
1850.0 241 243 251 247 256 255 266 260 262 271
1890.0 276 272 276 282 281 290 274 283 280 286
1930.0 283 287 294 301 305 311 306 310 297 308
1970.0 294 295 293 282 289 279 275 272 269 267
2010.0 265 266 265 257 260 254 256 252 249 248
2050.0 247 249 248 248 249 247 245 251 252 253
2090.0 252 253 251 248 251 247 251 255 255 253
2130.0 256 255 256 256 258 263 262 263 263 261
2170.0 258 256 259 256 252 256 256 252 250 254
2210.0 255 253 249 249 249 253 249 251 248 245
2250.0 245 247 247 252 255 250 248 243 238 226
2290.0 220 211 204 203 194 188 194 199 202 224
2330.0 226 226 260 193 268 184 256 197 257 238
2370.0 243 225 234 225 223 237 242 245 245 241
2410.0 249 253 249 253 251 256 254 254 252 248
2450.0 249 245 244 243 239 244 245 241 243 242
2490.0 243 239 235 239 234 235 235 234 234 235
2530.0 229 230 231 233 234 236 235 238 240 236
2570.0 245 243 242 243 249 253 252 260 263 268
2610.0 273 277 287 290 291 299 303 301 310 311
2650.0 311 312 311 303 302 302 302 302 306 305
2690.0 303 303 311 315 324 322 329 335 342 356
2730.0 372 381 391 405 418 420 425 432 440 450
2770.0 461 471 478 492 512 531 549 561 583 593
2810.0 596 604 615 629 650 672 710 750 800 865
2850.0 963 1082 1252 1446 1685 1966 2287 2608 2861 2995
2890.0 2971 2801 2589 2448 2458 2605 2817 2965 2988 2885
2930.0 2752 2776 2888 2961 2888 2640 2324 2098 2012 2084
2970.0 2370 2958 3843 4925 5702 5480 4346 3011 1945 1385
3010.0 1154 997 898 822 741 706 679 647 593 525
3050.0 459 410 389 368 351 342 326 317 311 294
3090.0 288 286 281 276 273 272 268 267 263 264
3130.0 266 263 259 260 256 257 251 256 258 254
3170.0 268 260 261 258 255 262 259 260 264 260
3210.0 256 262 262 250 251 243 242 238 240 231
3250.0 231 231 233 219 227 223 219 223 221 215
3290.0 217 216 223 218 215 215 226 217 216 213
3330.0 211 226 217 223 213 211 223 224 215 219
3370.0 217 219 229 219 213 215 226 217 215 215
3410.0 213 218 223 222 214 218 218 210 212 209
3450.0 208 212 215 231 218 213 212 216 217 216
3490.0 204 209 215 216 220 208 212 206 208 208
3530.0 214 205 212 207 224 217 216 199 224 204
3570.0 228 204 217 193 232 199 220 205 220 198
3610.0 206 218 197 223 188 240 204 213 209 245
3650.0 198 269 182 249 215 222 256 223 257 200
3690.0 260 223 230 199 214 219 235 183 231 214
3730.0 228 232 187 270 172 290 179 246 184 211
3770.0 213 190 200 198 194 230 191 226 198 249
3810.0 187 249 184 246 194 196 196 208 219 229
3850.0 193 249 220 199 227 222 210 209 207 208
3890.0 237 190 219 199 236 216 196 224 192 216
3930.0 200 242 206 214 229 224 224 217 243 256
##END=
