##TITLE=Benzene, 1-(2-bromoethoxy)-4-chloro-
##JCAMP-DX=4.24
##DATA TYPE=INFRARED SPECTRUM
##ORIGIN=Sadtler Research Labs Under US-EPA Contract
##OWNER=NIST Standard Reference Data Program
##CAS REGISTRY NO=2033-76-3
##MOLFORM=C 8 H 8 Br Cl O
##XUNITS=1/CM
##YUNITS=ABSORBANCE
##XFACTOR=1.0
##YFACTOR=0.000166095
##DELTAX=4.0
##FIRSTX=450.0
##LASTX=3966.0
##FIRSTY=0.000000
##MAXX=3966
##MINX=450
##MAXY=1.66095
##MINY=0
##NPOINTS=880
##XYDATA=(X++(Y..Y))
450.0 0 22 51 81 97 99 102 65 109 146
490.0 175 235 251 306 326 321 336 335 320 314
530.0 288 267 233 205 172 146 127 117 106 118
570.0 134 164 188 219 243 227 183 151 144 139
610.0 171 227 306 416 516 598 663 687 636 569
650.0 567 589 630 663 647 588 545 541 575 606
690.0 675 824 994 1010 845 619 404 289 239 209
730.0 192 187 199 213 221 218 210 206 211 200
770.0 190 184 193 222 269 334 406 481 539 617
810.0 753 967 1258 1566 1743 1664 1440 1139 855 625
850.0 469 365 300 259 239 237 241 218 173 132
890.0 117 102 98 93 88 89 98 96 101 108
930.0 120 140 159 171 177 182 186 193 210 224
970.0 224 226 238 274 329 425 587 867 1367 2120
1010.0 2529 2474 2183 2080 1942 1807 1643 1443 1215 1007
1050.0 857 778 760 804 890 966 997 981 989 1196
1090.0 1745 2384 2481 1898 1219 834 629 492 390 317
1130.0 266 230 213 207 220 247 316 501 1003 1670
1170.0 1877 1440 950 804 839 909 982 1124 1472 2090
1210.0 2909 3627 3937 4024 4435 5459 6783 7706 7329 5539
1250.0 3641 2618 2242 2200 2276 2338 2306 2139 1893 1672
1290.0 1546 1493 1410 1215 952 720 557 440 362 314
1330.0 274 246 225 210 201 197 198 198 207 219
1370.0 259 334 439 515 498 395 277 217 214 225
1410.0 238 267 314 407 516 570 540 525 577 720
1450.0 871 940 1062 1190 1254 1314 1697 2379 3444 5542
1490.0 8770 10000 7026 3280 1588 966 692 549 452 378
1530.0 308 270 235 217 207 205 206 210 233 267
1570.0 344 461 644 837 1001 1115 1168 1103 908 654
1610.0 433 278 206 181 165 161 149 148 146 148
1650.0 133 140 122 117 108 107 96 102 92 89
1690.0 72 60 50 53 48 46 40 40 37 44
1730.0 45 54 58 63 59 48 35 25 22 25
1770.0 28 30 34 39 52 59 74 79 85 84
1810.0 86 86 91 91 98 100 110 120 127 136
1850.0 143 151 162 179 187 194 190 178 164 149
1890.0 139 127 117 105 96 88 81 77 74 76
1930.0 79 81 84 85 83 83 81 77 73 71
1970.0 69 69 68 68 71 73 79 83 87 91
2010.0 99 106 112 119 124 124 124 121 119 115
2050.0 113 113 111 112 111 107 103 99 91 83
2090.0 79 73 70 67 61 59 56 55 51 48
2130.0 45 44 42 39 41 42 40 38 38 38
2170.0 39 37 38 40 40 40 42 43 45 46
2210.0 48 49 48 49 47 45 46 48 50 50
2250.0 53 53 56 59 61 65 68 67 67 66
2290.0 63 67 66 66 67 65 60 55 55 48
2330.0 46 43 42 42 52 53 43 48 50 51
2370.0 51 54 60 62 60 54 53 53 52 52
2410.0 52 52 51 48 50 51 51 52 54 55
2450.0 58 60 61 62 61 61 59 58 58 55
2490.0 53 54 56 58 60 59 59 59 59 57
2530.0 56 54 51 49 44 39 37 37 36 34
2570.0 35 34 34 33 33 30 29 28 26 26
2610.0 24 25 23 24 22 25 24 25 27 29
2650.0 29 31 34 35 38 34 33 32 32 32
2690.0 34 33 32 35 33 34 37 39 43 47
2730.0 53 57 58 59 58 57 53 47 44 42
2770.0 41 42 44 42 46 47 51 52 58 63
2810.0 72 77 89 95 102 105 117 129 150 170
2850.0 197 231 272 310 346 371 377 368 355 342
2890.0 339 340 341 339 342 347 357 370 381 390
2930.0 404 410 414 408 392 375 370 384 413 448
2970.0 484 521 552 568 545 466 358 272 219 191
3010.0 183 198 229 267 281 279 278 285 307 332
3050.0 326 296 264 240 218 210 208 222 229 226
3090.0 223 237 249 249 227 183 135 97 69 56
3130.0 46 45 39 38 35 36 37 34 35 31
3170.0 31 31 29 30 28 29 29 27 28 27
3210.0 28 29 27 26 27 26 29 28 26 28
3250.0 27 30 30 28 29 27 29 27 28 31
3290.0 30 28 28 28 25 27 27 31 30 28
3330.0 29 29 30 31 34 33 30 30 32 29
3370.0 28 31 30 28 30 33 32 32 31 31
3410.0 32 33 32 33 31 35 33 33 29 32
3450.0 24 27 31 24 27 26 25 26 27 25
3490.0 26 30 27 25 23 27 27 24 24 25
3530.0 27 29 26 28 27 22 31 26 25 29
3570.0 32 25 26 25 25 30 24 22 28 25
3610.0 28 26 24 23 24 34 25 28 34 36
3650.0 37 37 41 41 38 38 26 33 32 30
3690.0 32 32 33 30 25 32 31 29 32 34
3730.0 30 31 36 29 40 24 33 26 24 27
3770.0 25 26 26 26 26 25 24 22 22 22
3810.0 26 27 25 32 26 29 30 37 32 32
3850.0 25 36 29 26 28 28 27 29 28 33
3890.0 28 36 24 36 35 31 28 33 26 30
3930.0 28 28 34 30 32 35 28 26 23 28
##END=
