##TITLE=Triethyl .gamma.-phosphonocrotonate
##JCAMP-DX=4.24
##DATA TYPE=INFRARED SPECTRUM
##ORIGIN=Sadtler Research Labs Under US-EPA Contract
##OWNER=NIST Standard Reference Data Program
##CAS REGISTRY NO=20345-62-4
##MOLFORM=C 10 H 19 O 5 P
##XUNITS=1/CM
##YUNITS=ABSORBANCE
##XFACTOR=1.0
##YFACTOR=0.000154672
##DELTAX=4.0
##FIRSTX=450.0
##LASTX=3966.0
##FIRSTY=0.045319
##MAXX=3966
##MINX=450
##MAXY=1.54672
##MINY=0
##NPOINTS=880
##XYDATA=(X++(Y..Y))
450.0 293 254 249 224 269 262 302 321 377 391
490.0 447 471 499 549 567 611 570 518 457 466
530.0 469 489 511 503 477 418 349 296 229 176
570.0 122 88 73 59 46 25 15 11 13 1
610.0 0 15 16 18 24 36 47 58 71 95
650.0 105 134 148 185 203 301 369 419 480 495
690.0 477 406 359 324 306 281 294 314 340 381
730.0 429 464 478 480 466 482 519 589 690 857
770.0 1055 1250 1370 1371 1322 1246 1186 1135 1091 1033
810.0 973 901 827 770 744 766 800 845 834 772
850.0 686 601 539 500 485 495 509 515 495 454
890.0 428 410 421 436 485 555 651 780 965 1213
930.0 1568 2072 2729 3469 4115 4540 4675 4566 4275 3839
970.0 3378 2937 2543 2159 1813 1564 1449 1449 1569 1824
1010.0 2231 2850 3705 4890 6301 7892 9150 9907 10000 9418
1050.0 8683 7676 6927 6209 5555 4765 3936 3179 2654 2380
1090.0 2345 2502 2638 2507 2127 1766 1546 1441 1432 1533
1130.0 1781 2101 2286 2262 2166 2102 2064 2024 2043 2151
1170.0 2375 2718 3191 3780 4323 4570 4313 3715 3083 2661
1210.0 2473 2389 2227 1993 1781 1665 1641 1694 1833 2113
1250.0 2583 3233 3982 4591 4989 5230 5345 5152 4556 3793
1290.0 3082 2604 2291 2098 1985 1992 2140 2258 2081 1591
1330.0 1104 791 605 491 424 384 375 403 505 743
1370.0 978 994 815 725 791 950 1099 1129 1041 916
1410.0 797 684 582 512 451 410 388 387 399 413
1450.0 419 411 394 401 420 435 412 368 314 262
1490.0 215 180 146 123 103 85 77 66 56 55
1530.0 45 43 35 30 32 33 30 23 27 30
1570.0 29 29 30 29 36 37 45 51 62 72
1610.0 85 105 127 173 220 292 365 464 607 798
1650.0 979 1090 1053 832 572 405 313 279 253 257
1690.0 277 312 344 396 455 538 655 840 1130 1604
1730.0 2387 3479 4666 5129 4428 3212 2374 1849 1439 1091
1770.0 819 618 480 381 321 280 255 237 224 221
1810.0 220 212 198 188 156 133 119 113 103 98
1850.0 91 88 82 75 71 63 64 63 61 61
1890.0 58 58 55 53 49 45 40 35 30 27
1930.0 25 22 18 14 14 12 13 11 12 10
1970.0 12 10 12 12 10 10 10 12 10 8
2010.0 10 7 6 4 6 6 8 8 9 9
2050.0 14 13 15 16 14 14 14 15 16 16
2090.0 18 19 17 18 19 17 16 15 15 16
2130.0 16 14 13 12 13 10 9 9 7 5
2170.0 3 3 3 3 0 1 0 1 2 0
2210.0 1 0 3 1 3 5 3 4 2 4
2250.0 4 2 4 3 7 8 8 10 9 8
2290.0 11 10 14 15 16 17 14 13 17 16
2330.0 14 14 16 15 24 21 13 9 7 14
2370.0 19 17 19 17 14 9 6 4 5 7
2410.0 9 8 7 7 7 8 9 11 10 10
2450.0 10 10 13 12 12 10 10 11 9 7
2490.0 6 6 6 6 6 6 5 4 7 8
2530.0 6 6 6 8 8 7 5 6 5 7
2570.0 6 6 5 7 5 7 7 7 9 10
2610.0 11 13 13 11 9 9 7 9 8 6
2650.0 8 8 10 9 8 12 12 14 12 13
2690.0 13 15 15 16 16 16 19 21 27 31
2730.0 37 39 40 39 41 46 47 50 55 60
2770.0 62 69 74 72 69 67 67 67 67 71
2810.0 74 79 86 92 102 109 112 117 125 137
2850.0 152 168 188 213 251 299 362 438 516 565
2890.0 581 587 623 701 806 923 1019 1054 1032 1014
2930.0 1065 1221 1455 1652 1679 1530 1350 1268 1299 1399
2970.0 1529 1713 2030 2534 2929 2856 2425 2012 1677 1388
3010.0 1148 948 780 643 530 441 374 318 277 248
3050.0 230 217 207 193 174 153 128 107 97 88
3090.0 82 76 73 70 66 65 61 58 57 56
3130.0 54 54 52 53 52 52 49 44 45 43
3170.0 44 42 39 40 41 39 37 36 36 35
3210.0 33 33 33 31 29 29 28 27 24 23
3250.0 23 21 19 17 14 13 13 13 9 12
3290.0 9 11 10 9 8 8 13 14 12 12
3330.0 13 17 16 14 14 15 18 15 14 15
3370.0 20 18 15 20 19 19 22 20 17 11
3410.0 12 15 16 13 13 14 16 17 20 24
3450.0 28 29 33 37 38 33 31 24 18 14
3490.0 14 13 13 9 7 8 4 3 5 6
3530.0 5 8 5 5 4 6 2 6 0 2
3570.0 6 5 2 2 5 2 0 0 2 2
3610.0 6 3 1 0 0 2 5 5 2 3
3650.0 5 9 7 10 10 7 12 6 8 8
3690.0 6 7 7 9 8 6 10 9 5 6
3730.0 7 10 10 11 9 11 9 12 11 9
3770.0 12 10 9 14 9 15 12 9 9 5
3810.0 12 13 5 8 4 7 7 9 10 1
3850.0 3 4 3 5 7 5 0 7 8 6
3890.0 8 7 7 7 6 12 9 8 6 7
3930.0 2 5 3 0 5 8 10 4 7 7
##END=
