##TITLE=Octanoic acid, 3-methylbutyl ester
##JCAMP-DX=4.24
##DATA TYPE=INFRARED SPECTRUM
##ORIGIN=Sadtler Research Labs Under US-EPA Contract
##OWNER=NIST Standard Reference Data Program
##CAS REGISTRY NO=2035-99-6
##MOLFORM=C 13 H 26 O 2
##XUNITS=1/CM
##YUNITS=ABSORBANCE
##XFACTOR=1.0
##YFACTOR=0.000045419
##DELTAX=4.0
##FIRSTX=450.0
##LASTX=3966.0
##FIRSTY=0.000000
##MAXX=3966
##MINX=450
##MAXY=0.45419
##MINY=0
##NPOINTS=880
##XYDATA=(X++(Y..Y))
450.0 0 474 570 797 833 462 488 421 702 766
490.0 530 402 263 483 277 308 373 600 702 433
530.0 365 440 400 767 503 658 377 286 621 391
570.0 439 442 480 576 551 509 575 521 503 666
610.0 692 598 586 571 474 547 452 446 515 540
650.0 483 592 446 617 516 450 444 522 548 578
690.0 619 554 618 570 428 521 661 708 737 596
730.0 684 669 475 595 572 481 561 523 595 574
770.0 521 500 589 587 532 672 695 515 496 544
810.0 522 564 575 598 533 551 548 611 614 575
850.0 589 637 586 639 585 627 680 626 618 634
890.0 654 680 624 666 657 681 705 718 810 792
930.0 749 804 831 851 829 888 872 995 1099 1173
970.0 1219 1262 1268 1318 1382 1296 1286 1252 1315 1268
1010.0 1165 1049 1016 1026 1050 1052 1123 1166 1209 1216
1050.0 1330 1446 1429 1416 1351 1185 1099 1050 1085 1143
1090.0 1226 1445 1678 1954 2209 2270 2326 2265 2121 1974
1130.0 1915 2011 2179 2489 2972 3685 4688 5652 6426 6608
1170.0 6129 5371 4673 4209 3880 3596 3456 3359 3291 3159
1210.0 3108 3116 3098 3159 3262 3289 3284 3252 3272 3273
1250.0 3281 3151 2960 2767 2547 2341 2232 2093 2010 1902
1290.0 1820 1790 1752 1745 1707 1657 1632 1563 1484 1411
1330.0 1373 1424 1520 1658 1775 1854 1903 1892 1868 1782
1370.0 1709 1662 1581 1569 1577 1579 1478 1251 1028 889
1410.0 822 783 815 865 968 1058 1107 1166 1194 1258
1450.0 1376 1562 1792 2026 2124 2089 1897 1582 1257 991
1490.0 821 691 617 580 548 488 510 476 456 457
1530.0 458 450 467 404 446 466 447 454 425 481
1570.0 461 455 466 443 504 480 486 481 442 456
1610.0 420 439 406 417 420 405 431 410 410 438
1650.0 382 420 414 443 455 435 444 464 482 470
1690.0 512 554 576 615 702 790 888 975 1085 1308
1730.0 1516 1861 2527 3655 5695 7904 9055 8211 5983 3840
1770.0 2515 1783 1399 1152 965 824 738 646 615 557
1810.0 531 505 466 460 431 426 412 405 404 380
1850.0 388 384 378 380 370 370 368 376 364 358
1890.0 362 354 350 350 353 359 351 356 353 358
1930.0 357 353 353 347 344 344 352 339 327 320
1970.0 339 330 333 333 336 325 321 324 325 338
2010.0 334 341 362 359 359 349 352 358 351 352
2050.0 348 349 345 343 346 351 343 334 338 338
2090.0 331 325 332 335 341 335 336 342 334 336
2130.0 342 343 335 330 327 328 317 319 308 316
2170.0 317 310 314 311 311 305 315 312 306 303
2210.0 313 313 319 302 306 308 306 303 304 308
2250.0 311 305 309 310 313 318 319 331 338 344
2290.0 366 388 401 397 422 459 405 417 403 388
2330.0 405 376 404 368 439 387 458 393 441 450
2370.0 421 431 382 372 358 316 291 279 286 288
2410.0 291 285 289 289 286 280 277 285 279 274
2450.0 274 274 282 270 276 290 276 264 268 274
2490.0 277 269 273 284 276 275 268 276 278 268
2530.0 269 276 277 277 272 275 277 275 269 285
2570.0 290 284 287 295 298 297 300 304 314 313
2610.0 323 329 348 344 334 348 357 346 346 349
2650.0 356 348 360 361 376 377 375 392 392 387
2690.0 393 401 407 401 389 407 407 406 408 436
2730.0 454 452 451 451 446 427 405 409 399 398
2770.0 390 389 403 402 407 417 442 459 479 493
2810.0 524 542 562 596 641 692 766 847 978 1143
2850.0 1403 1791 2347 2971 3472 3737 3793 3817 3874 3801
2890.0 3500 3171 3034 3155 3471 3997 4608 5266 6036 7016
2930.0 8080 8853 9095 8841 8191 7371 6848 7086 8139 9468
2970.0 10000 8712 6387 4487 3279 2473 1890 1502 1234 1042
3010.0 897 793 713 646 594 580 563 515 495 488
3050.0 468 460 438 434 442 433 417 401 405 396
3090.0 392 371 373 372 357 350 355 355 344 347
3130.0 348 357 338 341 344 351 347 347 349 348
3170.0 349 359 342 360 350 350 342 343 350 331
3210.0 336 345 323 313 322 322 318 313 316 322
3250.0 310 310 288 307 304 300 297 318 310 301
3290.0 310 322 312 321 329 342 329 319 324 329
3330.0 350 330 331 348 345 326 339 321 324 325
3370.0 345 362 343 347 331 353 357 338 335 334
3410.0 328 329 346 359 344 323 322 324 334 335
3450.0 330 332 325 336 341 351 352 354 373 378
3490.0 391 366 337 336 338 332 324 311 325 331
3530.0 321 297 328 296 322 324 329 322 291 330
3570.0 322 319 307 342 329 328 312 342 324 320
3610.0 330 341 336 316 320 278 312 321 321 314
3650.0 370 295 345 292 334 302 290 286 309 349
3690.0 266 341 315 314 313 310 335 355 305 350
3730.0 302 320 318 290 385 293 361 319 364 350
3770.0 315 368 360 358 346 368 402 338 348 325
3810.0 397 323 325 311 391 333 325 354 369 328
3850.0 350 331 349 406 324 312 319 318 331 366
3890.0 316 340 363 315 323 337 307 315 346 311
3930.0 341 329 302 312 270 322 335 318 307 358
##END=
