##TITLE=Benzenepropanamine
##JCAMP-DX=4.24
##DATA TYPE=INFRARED SPECTRUM
##ORIGIN=Sadtler Research Labs Under US-EPA Contract
##OWNER=NIST Standard Reference Data Program
##CAS REGISTRY NO=2038-57-5
##MOLFORM=C 9 H 13 N
##XUNITS=1/CM
##YUNITS=ABSORBANCE
##XFACTOR=1.0
##YFACTOR=0.000071295
##DELTAX=4.0
##FIRSTX=450.0
##LASTX=3966.0
##FIRSTY=0.013617
##MAXX=3966
##MINX=450
##MAXY=0.71295
##MINY=0
##NPOINTS=880
##XYDATA=(X++(Y..Y))
450.0 191 169 240 210 145 238 314 320 402 467
490.0 508 496 480 477 448 444 374 328 221 109
530.0 108 32 1 10 36 69 129 244 369 446
570.0 571 595 504 444 366 330 247 200 161 138
610.0 140 124 132 153 178 180 214 228 244 268
650.0 317 389 419 536 527 808 1027 1281 1894 2709
690.0 3906 4889 6031 5629 5047 4139 3579 3309 3454 4044
730.0 4915 5918 6579 7008 6487 5824 5137 4829 4763 4926
770.0 5190 5404 5459 5107 4533 3681 2879 2336 1927 1631
810.0 1410 1215 1073 927 826 735 697 696 712 734
850.0 736 715 650 576 528 485 434 408 380 363
890.0 370 386 406 445 469 445 398 370 326 291
930.0 290 260 224 207 187 166 142 137 134 163
970.0 138 138 154 154 181 205 238 261 294 333
1010.0 385 449 577 825 1203 1399 1385 1312 1065 961
1050.0 985 1045 1170 1344 1529 1653 1719 1645 1460 1241
1090.0 996 770 576 445 337 274 228 213 193 176
1130.0 153 136 110 92 68 52 43 40 34 36
1170.0 50 62 78 83 93 94 109 129 131 120
1210.0 102 94 80 78 77 80 86 91 92 77
1250.0 72 69 79 87 102 111 127 138 152 172
1290.0 187 218 229 244 252 260 263 269 289 320
1330.0 367 426 496 550 620 691 719 738 740 717
1370.0 703 760 830 911 940 926 835 684 526 384
1410.0 294 233 240 255 296 399 592 843 1144 1419
1450.0 1652 1712 1685 1517 1286 1115 976 870 810 961
1490.0 1429 2149 2393 2287 1793 847 369 235 220 193
1530.0 194 197 209 206 183 188 180 205 231 241
1570.0 298 353 463 552 662 851 1096 1460 1843 2094
1610.0 2134 2057 1907 1771 1736 1516 1321 1028 819 627
1650.0 530 433 356 271 243 223 218 161 141 109
1690.0 85 76 109 86 84 69 80 82 93 88
1730.0 102 140 125 127 105 104 96 80 74 71
1770.0 81 95 102 123 190 260 334 346 335 258
1810.0 190 151 134 120 108 98 93 95 104 124
1850.0 136 161 178 198 210 213 226 213 186 149
1890.0 111 64 43 31 25 25 35 59 88 132
1930.0 190 237 264 283 296 296 271 215 146 70
1970.0 28 15 14 19 19 12 12 12 8 8
2010.0 5 7 3 6 7 11 11 12 9 11
2050.0 10 10 11 9 5 4 6 9 9 10
2090.0 7 8 8 9 2 7 9 6 3 10
2130.0 7 9 8 7 7 6 8 4 7 4
2170.0 6 10 12 11 12 12 12 8 6 12
2210.0 13 10 7 7 7 4 6 2 4 6
2250.0 8 7 8 8 10 8 10 12 10 15
2290.0 10 10 7 15 22 28 34 33 26 10
2330.0 5 3 11 0 19 11 1 2 2 2
2370.0 2 2 5 15 11 12 14 18 15 15
2410.0 16 16 20 22 20 20 25 19 21 20
2450.0 19 21 27 22 25 24 25 21 27 24
2490.0 24 25 26 26 29 30 24 33 30 35
2530.0 34 37 39 42 45 48 51 54 57 53
2570.0 62 61 68 73 81 83 90 89 94 105
2610.0 107 105 106 106 109 119 125 128 139 143
2650.0 148 148 156 167 178 183 194 203 213 220
2690.0 228 229 228 229 228 230 236 250 265 281
2730.0 303 320 337 352 372 381 387 398 403 406
2770.0 401 405 409 416 431 442 458 478 504 538
2810.0 584 655 740 857 1024 1241 1504 1822 2223 2711
2850.0 3315 3961 4581 5054 5249 5115 4740 4214 3677 3224
2890.0 2894 2734 2742 2950 3345 3948 4747 5741 6882 8052
2930.0 9136 9797 10000 9576 8672 7404 6046 4780 3681 2791
2970.0 2091 1574 1190 926 758 648 603 617 709 855
3010.0 1032 1267 1623 2198 3139 4190 4849 4936 4367 3226
3050.0 2238 1842 1856 2302 3124 3835 3980 3851 3136 2448
3090.0 2117 1868 1647 1375 1124 938 774 619 450 302
3130.0 199 142 105 93 79 82 81 78 79 84
3170.0 85 81 72 55 47 41 44 37 40 39
3210.0 43 36 43 42 31 32 35 28 27 29
3250.0 29 31 27 40 32 29 37 32 33 37
3290.0 41 35 32 35 35 33 39 41 45 56
3330.0 61 91 123 156 185 190 168 130 110 85
3370.0 73 67 55 62 56 48 55 58 61 72
3410.0 78 97 98 86 78 59 60 51 38 33
3450.0 39 33 25 31 30 36 22 35 18 20
3490.0 27 28 25 13 18 24 29 20 18 2
3530.0 12 17 19 21 2 18 19 26 10 18
3570.0 13 18 23 20 24 7 21 11 18 29
3610.0 38 23 17 34 40 39 51 37 53 43
3650.0 52 66 59 71 47 59 32 51 46 23
3690.0 44 36 30 35 43 22 39 44 30 11
3730.0 32 34 33 5 66 15 24 27 17 32
3770.0 21 30 27 25 47 31 31 38 22 38
3810.0 42 37 35 18 28 34 38 38 22 26
3850.0 36 75 49 58 53 35 40 37 17 63
3890.0 59 41 37 48 24 57 57 62 68 52
3930.0 49 41 39 19 43 39 48 56 55 54
##END=
