##TITLE=Cyclopentane, butyl-
##JCAMP-DX=4.24
##DATA TYPE=INFRARED SPECTRUM
##ORIGIN=Sadtler Research Labs Under US-EPA Contract
##OWNER=NIST Standard Reference Data Program
##CAS REGISTRY NO=2040-95-1
##MOLFORM=C 9 H 18
##XUNITS=1/CM
##YUNITS=ABSORBANCE
##XFACTOR=1.0
##YFACTOR=0.000164136
##DELTAX=4.0
##FIRSTX=450.0
##LASTX=3966.0
##FIRSTY=0.000000
##MAXX=3966
##MINX=450
##MAXY=1.64136
##MINY=0
##NPOINTS=880
##XYDATA=(X++(Y..Y))
450.0 0 25 42 78 46 58 49 65 35 40
490.0 45 49 45 56 53 52 55 37 41 48
530.0 52 55 55 59 54 64 53 54 53 45
570.0 54 55 54 52 53 52 50 54 53 45
610.0 57 56 50 49 56 55 51 49 45 53
650.0 52 46 57 55 51 55 47 53 55 54
690.0 49 54 59 55 58 61 72 84 99 111
730.0 128 129 130 127 123 109 108 95 91 83
770.0 85 91 96 92 94 85 80 72 68 68
810.0 65 63 62 62 59 63 62 63 60 62
850.0 68 66 70 71 75 80 86 98 113 135
890.0 155 163 157 146 129 119 115 116 115 120
930.0 125 127 131 133 133 132 125 124 120 119
970.0 115 108 100 95 88 85 79 76 74 73
1010.0 72 70 74 73 75 77 80 82 87 89
1050.0 90 93 92 94 98 100 103 105 103 101
1090.0 97 90 86 84 85 83 85 88 93 98
1130.0 98 97 96 97 98 102 108 118 126 136
1170.0 145 147 143 135 129 126 120 120 120 121
1210.0 123 127 131 133 136 140 140 144 148 149
1250.0 149 147 142 140 136 130 129 127 130 135
1290.0 143 157 163 171 170 164 159 155 155 162
1330.0 175 192 214 229 236 238 231 217 208 207
1370.0 215 241 285 309 314 291 227 180 156 144
1410.0 141 143 150 161 178 200 242 302 386 488
1450.0 614 732 803 855 839 775 687 587 471 371
1490.0 281 209 161 130 110 96 86 78 71 65
1530.0 62 55 50 44 37 33 29 22 18 18
1570.0 20 22 24 29 32 35 38 41 41 43
1610.0 45 45 45 46 47 46 45 43 43 40
1650.0 43 37 43 41 42 41 44 44 45 49
1690.0 50 52 56 59 66 77 89 105 121 138
1730.0 147 152 148 141 135 133 135 134 129 121
1770.0 110 97 83 73 65 61 54 50 47 43
1810.0 41 39 36 36 32 32 31 31 32 30
1850.0 31 31 32 31 29 29 31 30 29 31
1890.0 31 29 29 29 30 30 30 28 29 30
1930.0 30 28 27 28 28 28 28 28 27 28
1970.0 26 27 25 25 25 27 25 27 27 28
2010.0 28 30 29 31 33 35 35 34 35 33
2050.0 33 33 33 33 31 32 32 34 30 30
2090.0 31 31 31 30 32 31 31 34 33 34
2130.0 33 32 33 32 32 35 34 36 37 39
2170.0 39 41 41 39 39 40 38 40 39 37
2210.0 36 37 37 36 38 36 37 37 37 38
2250.0 36 36 36 36 36 36 36 36 36 37
2290.0 34 38 37 39 39 39 41 42 45 46
2330.0 43 45 48 50 49 48 46 44 43 37
2370.0 34 39 39 38 34 32 33 35 34 32
2410.0 33 32 32 30 32 30 29 30 28 29
2450.0 27 28 26 27 27 27 29 27 28 29
2490.0 27 27 29 29 31 30 32 34 34 37
2530.0 38 38 38 40 41 41 41 43 46 48
2570.0 51 54 55 58 63 66 68 70 71 70
2610.0 72 72 73 74 74 75 77 75 77 78
2650.0 78 79 77 79 82 83 85 91 93 95
2690.0 94 95 94 94 93 94 96 99 102 105
2730.0 111 118 124 131 131 133 131 127 129 132
2770.0 136 142 153 164 179 191 206 222 239 258
2810.0 278 304 333 367 417 490 598 753 984 1306
2850.0 1715 2203 2775 3364 3874 4283 4636 4841 4728 4389
2890.0 3945 3462 3246 3368 3746 4332 5084 5960 6775 7402
2930.0 7777 7911 7959 8079 8340 8716 9139 9553 10000 9582
2970.0 8639 7196 5386 3610 2409 1714 1296 1029 846 713
3010.0 605 525 458 403 362 329 296 270 244 223
3050.0 203 183 170 155 143 135 131 125 119 115
3090.0 113 108 104 102 99 95 92 88 84 80
3130.0 77 74 72 74 72 71 69 68 67 70
3170.0 66 66 68 65 66 67 62 63 62 57
3210.0 57 49 46 44 42 39 36 37 37 34
3250.0 38 32 35 33 33 33 31 32 33 33
3290.0 33 32 33 31 33 33 33 33 35 34
3330.0 39 38 32 35 36 36 34 36 33 38
3370.0 32 33 38 35 34 32 30 29 34 38
3410.0 32 32 31 32 31 32 35 30 33 33
3450.0 30 32 30 30 32 36 31 31 30 33
3490.0 31 34 33 32 35 35 33 34 34 35
3530.0 31 32 34 33 29 29 32 33 30 32
3570.0 30 35 36 33 37 32 29 32 32 32
3610.0 28 27 31 31 29 30 34 37 34 35
3650.0 35 34 33 32 40 35 42 33 37 33
3690.0 39 36 36 34 34 36 39 37 39 41
3730.0 42 44 37 38 33 35 34 40 40 38
3770.0 40 41 45 48 50 43 42 44 42 46
3810.0 47 37 45 43 41 48 44 46 44 45
3850.0 41 39 46 42 36 38 45 40 32 35
3890.0 34 38 34 39 41 38 36 35 33 36
3930.0 38 36 35 38 35 35 39 39 40 34
##END=
