##TITLE=4-Methyl-3-nitrophenol
##JCAMP-DX=4.24
##DATA TYPE=INFRARED SPECTRUM
##ORIGIN=Sadtler Research Labs Under US-EPA Contract
##OWNER=NIST Standard Reference Data Program
##CAS REGISTRY NO=2042-14-0
##MOLFORM=C 7 H 7 N O 3
##XUNITS=1/CM
##YUNITS=ABSORBANCE
##XFACTOR=1.0
##YFACTOR=0.000096967
##DELTAX=4.0
##FIRSTX=450.0
##LASTX=3966.0
##FIRSTY=0.038011
##MAXX=3966
##MINX=450
##MAXY=0.96967
##MINY=0
##NPOINTS=880
##XYDATA=(X++(Y..Y))
450.0 392 252 0 280 84 258 504 265 373 398
490.0 326 434 393 528 501 362 445 252 465 224
530.0 359 292 299 296 248 203 191 301 181 251
570.0 233 353 291 203 250 360 399 291 282 209
610.0 243 244 178 157 146 151 122 151 139 105
650.0 124 160 130 161 169 231 332 301 410 445
690.0 404 330 284 181 138 227 242 215 207 257
730.0 424 422 471 500 491 471 435 379 399 468
770.0 480 451 462 486 445 487 617 814 1414 2518
810.0 3551 3616 3673 3032 1793 788 498 367 341 447
850.0 546 655 696 724 709 650 667 628 528 421
890.0 345 286 215 202 197 195 201 221 300 419
930.0 546 647 659 627 525 363 263 187 166 132
970.0 151 154 154 154 154 165 173 192 220 216
1010.0 208 205 183 181 185 187 179 178 181 163
1050.0 169 194 177 202 232 263 272 253 251 227
1090.0 237 270 273 289 286 321 321 327 403 462
1130.0 573 745 1014 1226 1358 1538 1738 1907 2237 2672
1170.0 3289 4080 4662 4785 4696 4257 3548 2938 2516 2157
1210.0 1743 1341 1017 811 689 654 709 781 978 1243
1250.0 1423 1486 1468 1347 1182 1246 1610 2120 2610 2789
1290.0 2752 2545 2076 1691 1590 1636 1714 1696 1704 1661
1330.0 1604 1620 1705 2002 2496 3172 3874 4288 4347 3869
1370.0 3032 2211 1621 1302 1101 966 908 838 798 723
1410.0 751 865 921 996 987 978 916 830 832 820
1450.0 883 930 926 964 944 867 848 815 899 1031
1490.0 1339 1827 2424 2993 3266 3502 3660 3545 4004 4659
1530.0 5578 7226 8518 9805 10000 9356 8173 6226 4713 3831
1570.0 3330 2944 2624 2312 2023 1722 1359 1143 896 790
1610.0 816 812 932 1052 1133 1173 1086 920 762 571
1650.0 409 293 270 240 190 171 119 137 103 97
1690.0 94 105 67 43 94 130 115 97 100 106
1730.0 96 83 87 106 100 107 114 114 115 113
1770.0 98 57 73 67 64 60 56 76 72 68
1810.0 80 74 71 67 70 49 51 51 52 54
1850.0 61 75 84 86 82 74 78 87 85 89
1890.0 92 94 96 86 72 56 42 33 35 43
1930.0 45 40 45 37 35 37 44 44 50 53
1970.0 58 49 56 63 62 59 70 66 65 72
2010.0 72 58 51 46 46 40 41 33 33 34
2050.0 39 37 40 33 41 40 33 43 35 34
2090.0 41 42 44 47 42 55 44 39 39 49
2130.0 43 46 44 45 45 47 45 51 47 52
2170.0 48 53 56 66 58 64 57 57 46 40
2210.0 36 37 38 30 28 24 31 20 26 28
2250.0 29 25 26 22 25 33 33 31 25 33
2290.0 43 48 53 54 54 60 63 63 77 83
2330.0 72 54 98 117 110 101 129 101 85 54
2370.0 56 43 43 52 52 62 58 56 59 58
2410.0 67 83 84 94 104 104 104 113 109 101
2450.0 95 93 85 98 88 89 86 81 81 68
2490.0 63 62 66 52 52 48 43 39 40 49
2530.0 58 42 45 43 43 45 53 59 67 71
2570.0 67 61 71 72 72 74 70 77 82 85
2610.0 77 80 79 79 91 84 86 87 95 83
2650.0 90 86 78 82 80 88 74 75 83 88
2690.0 84 89 88 84 84 78 83 77 71 68
2730.0 79 73 78 83 91 103 110 110 109 106
2770.0 101 91 82 84 85 85 78 82 94 85
2810.0 93 98 101 116 118 124 126 143 152 170
2850.0 174 195 221 234 265 285 308 333 338 343
2890.0 339 324 320 312 304 306 306 309 324 353
2930.0 392 471 581 674 716 698 657 551 452 388
2970.0 377 407 446 493 529 520 491 446 377 325
3010.0 285 263 252 254 286 334 386 437 477 468
3050.0 446 430 398 396 408 422 416 386 344 295
3090.0 242 202 176 148 131 115 110 94 91 80
3130.0 79 82 78 76 73 78 68 69 75 72
3170.0 70 71 66 69 67 71 64 57 61 61
3210.0 66 66 70 75 68 68 77 74 74 75
3250.0 79 67 74 74 82 84 85 82 84 83
3290.0 90 90 95 78 81 93 83 77 89 89
3330.0 88 96 103 113 116 107 109 115 126 109
3370.0 124 107 108 101 121 98 95 104 99 90
3410.0 84 106 95 83 92 88 92 86 78 83
3450.0 92 102 108 108 107 110 95 77 59 51
3490.0 27 57 64 67 54 53 71 46 57 50
3530.0 60 67 53 37 47 37 56 50 57 26
3570.0 39 42 55 55 42 36 68 34 71 60
3610.0 55 73 73 140 213 316 555 1008 1733 2687
3650.0 3376 3422 3313 2507 1420 525 211 128 69 68
3690.0 66 51 98 64 78 77 59 54 61 60
3730.0 80 37 44 62 28 59 19 60 37 32
3770.0 54 64 75 81 57 61 56 83 47 91
3810.0 79 130 141 118 69 45 81 26 20 20
3850.0 34 30 39 106 76 79 134 100 120 89
3890.0 94 77 102 47 22 110 83 95 50 65
3930.0 92 65 79 91 128 132 125 60 85 78
##END=
