##TITLE=Propanamide, 2-hydroxy-
##JCAMP-DX=4.24
##DATA TYPE=INFRARED SPECTRUM
##ORIGIN=Sadtler Research Labs Under US-EPA Contract
##OWNER=NIST Standard Reference Data Program
##CAS REGISTRY NO=2043-43-8
##MOLFORM=C 3 H 7 N O 2
##XUNITS=1/CM
##YUNITS=ABSORBANCE
##XFACTOR=1.0
##YFACTOR=0.000156650
##DELTAX=4.0
##FIRSTX=450.0
##LASTX=3966.0
##FIRSTY=0.023967
##MAXX=3966
##MINX=450
##MAXY=1.5665
##MINY=0
##NPOINTS=880
##XYDATA=(X++(Y..Y))
450.0 153 200 197 111 76 89 68 70 53 69
490.0 96 109 155 259 324 387 435 525 500 525
530.0 520 430 312 231 212 186 124 108 97 91
570.0 76 57 32 29 25 29 63 54 13 4
610.0 0 23 45 71 68 73 83 92 90 88
650.0 89 99 97 89 101 123 89 61 81 103
690.0 143 145 140 138 145 161 199 240 258 263
730.0 253 289 344 349 333 343 340 352 351 367
770.0 375 377 376 380 380 374 378 391 390 392
810.0 385 377 364 349 348 338 320 303 290 290
850.0 295 309 298 290 305 316 333 358 403 454
890.0 517 567 600 624 634 645 633 597 550 496
930.0 464 415 361 331 310 294 279 268 274 293
970.0 241 221 217 217 222 237 267 299 345 415
1010.0 511 607 698 793 848 895 945 956 940 907
1050.0 854 810 794 799 860 941 1067 1205 1391 1610
1090.0 1817 2031 2187 2260 2208 2117 2029 1956 1863 1779
1130.0 1694 1646 1597 1543 1467 1394 1268 1110 924 760
1170.0 645 582 571 582 606 627 645 663 667 675
1210.0 667 657 633 621 615 625 647 680 725 771
1250.0 830 883 943 1003 1073 1151 1230 1342 1477 1655
1290.0 1869 2130 2413 2708 2951 3117 3199 3189 3079 2863
1330.0 2626 2316 2006 1728 1521 1402 1326 1316 1345 1394
1370.0 1414 1465 1417 1416 1344 1253 1132 958 743 584
1410.0 462 376 362 313 286 278 317 367 347 347
1450.0 368 394 439 373 290 271 239 187 118 116
1490.0 89 70 73 56 76 107 71 98 153 168
1530.0 219 245 341 464 684 929 1294 1625 1979 2229
1570.0 2498 2686 2861 2894 2739 2571 2277 1968 1684 1454
1610.0 1187 938 750 580 497 397 373 324 288 290
1650.0 296 324 334 335 408 495 581 697 838 1019
1690.0 1158 1358 1685 2159 2788 3697 4966 6411 7871 8904
1730.0 9917 9614 10000 9874 9431 7649 5897 4050 2759 1949
1770.0 1482 1172 968 868 761 658 568 481 411 324
1810.0 236 173 131 103 85 78 58 52 49 65
1850.0 41 33 28 32 25 31 17 9 15 8
1890.0 17 7 9 4 3 5 1 8 8 0
1930.0 3 2 6 9 11 5 11 11 15 16
1970.0 20 20 24 26 28 36 37 35 34 36
2010.0 34 32 29 29 24 23 21 23 22 22
2050.0 21 20 17 18 18 17 13 14 10 12
2090.0 11 12 10 11 12 11 9 11 10 8
2130.0 9 8 9 6 7 7 7 7 9 7
2170.0 7 7 7 7 7 7 7 6 8 7
2210.0 9 9 12 12 12 15 16 19 23 24
2250.0 26 29 28 30 28 30 33 38 41 43
2290.0 43 42 44 45 43 44 38 32 31 26
2330.0 26 26 24 38 52 43 49 45 53 56
2370.0 58 56 56 52 39 26 21 19 17 17
2410.0 15 12 11 8 5 7 6 7 7 7
2450.0 10 10 10 12 11 11 9 9 10 8
2490.0 9 7 9 7 4 3 5 3 3 3
2530.0 3 1 3 3 3 4 2 0 0 1
2570.0 2 0 2 2 4 4 4 5 7 7
2610.0 8 9 10 12 13 13 13 12 13 13
2650.0 15 12 14 14 14 16 13 13 14 12
2690.0 11 10 10 9 11 10 11 9 13 12
2730.0 15 15 15 16 19 17 18 21 23 22
2770.0 25 30 31 34 40 45 50 58 65 75
2810.0 87 95 106 118 127 136 144 151 160 174
2850.0 189 215 244 279 322 368 415 463 505 531
2890.0 544 559 573 582 595 608 626 667 729 761
2930.0 752 746 741 733 701 661 640 638 663 717
2970.0 790 884 1060 1253 1187 1047 1154 999 804 665
3010.0 501 364 259 175 124 87 71 56 49 44
3050.0 42 40 37 37 31 29 26 24 21 20
3090.0 20 20 19 21 19 20 20 21 21 20
3130.0 22 22 21 22 21 22 20 22 25 22
3170.0 25 27 27 28 26 28 27 28 27 27
3210.0 24 23 19 14 14 15 13 10 9 7
3250.0 5 3 3 1 0 3 3 1 3 5
3290.0 8 10 11 13 13 16 17 17 22 21
3330.0 20 28 24 24 28 27 32 34 41 46
3370.0 50 65 78 91 107 139 176 235 308 412
3410.0 549 704 857 994 1093 1141 1158 1125 1061 941
3450.0 786 633 494 382 295 250 225 228 252 291
3490.0 354 425 505 600 687 795 912 1024 1175 1325
3530.0 1487 1642 1787 1896 1953 1943 1840 1686 1511 1272
3570.0 1040 793 586 425 306 258 190 144 137 116
3610.0 130 102 98 86 92 140 122 171 222 291
3650.0 346 371 425 417 412 399 357 295 218 163
3690.0 112 73 43 39 27 14 14 7 1 12
3730.0 0 13 5 5 12 4 17 0 0 0
3770.0 0 0 0 0 0 0 0 0 0 0
3810.0 0 0 0 0 0 0 0 0 0 0
3850.0 0 1 0 0 0 0 0 0 0 0
3890.0 0 0 0 0 0 0 0 0 0 0
3930.0 0 0 0 0 0 0 0 0 0 0
##END=
