##TITLE=Benzenamine, N-methyl-2,4-dinitro-
##JCAMP-DX=4.24
##DATA TYPE=INFRARED SPECTRUM
##ORIGIN=Sadtler Research Labs Under US-EPA Contract
##OWNER=NIST Standard Reference Data Program
##CAS REGISTRY NO=2044-88-4
##MOLFORM=C 7 H 7 N 3 O 4
##XUNITS=1/CM
##YUNITS=ABSORBANCE
##XFACTOR=1.0
##YFACTOR=0.000041855
##DELTAX=4.0
##FIRSTX=450.0
##LASTX=3966.0
##FIRSTY=0.012263
##MAXX=3966
##MINX=450
##MAXY=0.41855
##MINY=0
##NPOINTS=880
##XYDATA=(X++(Y..Y))
450.0 293 169 39 187 253 125 21 114 169 221
490.0 208 237 280 384 451 472 475 378 363 281
530.0 298 155 290 158 169 200 244 240 313 283
570.0 428 336 372 337 351 354 307 341 316 375
610.0 318 360 345 385 445 505 576 703 679 521
650.0 385 261 169 158 125 220 282 310 469 580
690.0 730 831 954 889 659 380 266 237 197 214
730.0 261 364 580 870 731 482 390 304 253 167
770.0 110 83 78 59 87 113 158 169 203 340
810.0 497 783 942 700 696 820 839 690 469 217
850.0 90 38 3 42 58 59 63 70 75 86
890.0 116 141 169 238 384 594 861 1035 1011 708
930.0 412 246 159 102 89 88 80 90 107 106
970.0 116 104 107 100 103 116 133 131 137 143
1010.0 161 178 198 220 238 250 279 320 399 473
1050.0 502 483 436 392 419 537 677 768 766 682
1090.0 553 496 513 616 806 1005 1077 1066 1039 1058
1130.0 1177 1354 1432 1278 1007 698 470 380 410 571
1170.0 836 1114 1192 982 648 441 352 328 335 350
1210.0 370 388 418 453 517 630 803 1030 1159 1151
1250.0 1096 1093 1136 1232 1360 1553 1780 2034 2275 2478
1290.0 2633 2773 2892 3036 3208 3346 3303 2990 2715 2871
1330.0 3713 5174 7124 9157 10000 9029 6448 3798 2221 1472
1370.0 1100 927 802 669 552 486 464 472 491 532
1410.0 607 727 817 947 1114 1350 1586 1923 2165 2141
1450.0 2011 1765 1376 1100 946 896 928 997 1112 1203
1490.0 1303 1423 1577 1847 2180 2719 3363 4188 4841 5034
1530.0 4887 4439 3860 3248 2607 2367 2484 2552 2472 2232
1570.0 1990 1957 2118 2486 3050 3667 4218 4700 4968 5044
1610.0 5278 6188 7731 8353 7624 5560 3533 2070 1310 847
1650.0 582 456 354 277 227 179 138 125 115 122
1690.0 120 110 110 100 91 89 96 111 119 134
1730.0 147 151 147 118 89 72 65 50 48 51
1770.0 41 35 34 26 19 10 9 7 0 11
1810.0 14 14 12 19 23 32 37 46 48 43
1850.0 44 40 29 16 21 12 15 15 15 14
1890.0 10 15 18 20 33 46 55 61 64 57
1930.0 51 44 36 36 37 36 39 39 46 43
1970.0 40 38 33 28 19 24 20 20 23 19
2010.0 22 17 26 20 20 27 35 33 40 43
2050.0 40 39 40 36 35 34 28 26 20 23
2090.0 25 35 30 30 31 34 32 26 24 43
2130.0 36 30 30 41 47 52 45 47 48 49
2170.0 47 47 44 42 53 45 48 44 36 46
2210.0 47 35 38 37 39 31 44 40 48 52
2250.0 56 49 54 58 55 52 50 49 48 54
2290.0 48 43 45 38 39 47 31 10 4 0
2330.0 0 0 6 26 90 25 28 19 88 83
2370.0 107 113 130 115 100 82 78 77 80 79
2410.0 83 90 89 88 89 94 85 88 82 80
2450.0 89 93 91 90 90 83 82 84 79 82
2490.0 71 63 65 57 46 46 38 46 47 54
2530.0 44 55 61 56 54 51 63 58 73 74
2570.0 83 77 83 88 91 90 90 91 92 88
2610.0 84 82 92 91 98 98 97 81 79 75
2650.0 80 90 99 95 100 100 93 90 81 75
2690.0 79 74 83 71 77 83 91 99 100 88
2730.0 96 100 105 107 105 107 114 123 120 123
2770.0 136 125 126 137 138 138 157 152 169 183
2810.0 192 193 209 225 259 290 311 330 325 315
2850.0 320 314 324 328 338 321 311 298 300 298
2890.0 300 303 318 354 393 413 438 460 513 572
2930.0 606 583 546 518 514 563 601 618 555 488
2970.0 409 341 276 230 206 197 203 230 278 303
3010.0 290 228 167 133 109 98 95 100 111 95
3050.0 101 98 102 101 107 106 127 142 162 203
3090.0 249 317 407 469 484 451 354 243 170 124
3130.0 97 87 76 83 75 71 68 73 62 62
3170.0 66 70 50 67 64 64 67 61 66 61
3210.0 47 47 46 44 50 54 49 31 39 38
3250.0 41 39 49 40 39 51 56 51 54 49
3290.0 59 52 62 64 77 83 98 99 100 119
3330.0 129 135 140 157 164 216 245 279 342 432
3370.0 519 646 792 975 1156 1293 1369 1402 1360 1228
3410.0 1063 887 734 574 445 335 266 183 140 119
3450.0 101 93 66 56 72 43 55 48 59 41
3490.0 46 55 47 49 54 47 48 47 47 48
3530.0 42 39 51 32 55 57 29 43 32 31
3570.0 44 45 46 42 52 44 62 53 62 54
3610.0 73 60 61 58 35 43 22 12 0 13
3650.0 36 45 64 37 17 42 34 42 35 61
3690.0 36 26 25 62 75 66 73 45 24 50
3730.0 37 73 63 73 77 36 70 34 34 47
3770.0 52 36 50 51 42 45 43 59 46 59
3810.0 31 19 35 71 47 45 52 83 43 66
3850.0 50 63 79 66 43 76 50 46 56 55
3890.0 45 85 52 43 76 48 51 60 53 53
3930.0 63 51 54 42 69 70 55 70 54 49
##END=
