##TITLE=Dinonylamine
##JCAMP-DX=4.24
##DATA TYPE=INFRARED SPECTRUM
##ORIGIN=Sadtler Research Labs Under US-EPA Contract
##OWNER=NIST Standard Reference Data Program
##CAS REGISTRY NO=2044-21-5
##MOLFORM=C 18 H 39 N
##XUNITS=1/CM
##YUNITS=ABSORBANCE
##XFACTOR=1.0
##YFACTOR=0.000168344
##DELTAX=4.0
##FIRSTX=450.0
##LASTX=3966.0
##FIRSTY=0.005892
##MAXX=3966
##MINX=450
##MAXY=1.68344
##MINY=0
##NPOINTS=880
##XYDATA=(X++(Y..Y))
450.0 35 20 6 43 45 64 57 33 28 43
490.0 35 51 29 49 32 27 34 51 32 36
530.0 38 29 30 32 38 40 43 42 35 36
570.0 48 46 34 36 46 46 37 46 46 37
610.0 59 60 71 73 72 77 91 92 106 121
650.0 139 139 155 179 187 216 209 222 231 239
690.0 247 261 266 267 280 294 305 305 296 285
730.0 266 246 230 215 196 178 162 150 151 136
770.0 136 123 112 115 109 105 107 112 109 106
810.0 99 92 84 79 71 67 65 61 66 60
850.0 61 59 58 58 60 58 62 61 60 63
890.0 67 67 68 69 64 62 63 61 66 67
930.0 68 67 63 61 57 60 59 60 64 68
970.0 65 66 70 74 75 80 84 89 95 102
1010.0 113 118 120 128 134 139 141 144 141 149
1050.0 150 156 160 163 167 169 173 176 178 188
1090.0 197 212 237 270 309 348 386 429 493 580
1130.0 680 737 698 587 457 352 279 234 204 186
1170.0 173 162 151 144 138 130 129 125 122 120
1210.0 118 118 116 116 119 120 123 127 128 131
1250.0 136 145 157 173 172 165 161 161 167 172
1290.0 185 195 208 219 228 226 223 211 206 214
1330.0 237 278 330 376 407 435 454 447 439 416
1370.0 392 362 344 334 305 251 205 174 155 150
1410.0 144 156 165 190 216 276 349 472 558 672
1450.0 800 935 1069 1093 1068 951 779 583 440 332
1490.0 282 239 215 179 156 128 100 85 73 65
1530.0 47 54 39 39 36 35 31 27 33 20
1570.0 26 20 27 20 24 21 23 17 21 18
1610.0 19 20 21 25 17 27 24 32 34 53
1650.0 43 68 44 48 53 75 67 64 40 46
1690.0 47 62 85 130 143 134 104 78 54 51
1730.0 44 49 42 39 32 31 25 20 18 17
1770.0 17 13 13 12 16 6 10 5 10 7
1810.0 8 6 11 6 11 5 6 5 5 9
1850.0 7 5 5 6 2 5 2 4 2 2
1890.0 4 1 2 2 1 2 0 3 0 1
1930.0 2 1 1 2 2 2 2 3 1 2
1970.0 3 4 2 3 4 3 6 6 5 5
2010.0 8 9 11 12 13 13 15 13 15 14
2050.0 12 12 11 10 12 9 10 9 9 9
2090.0 7 7 7 7 8 6 7 7 7 7
2130.0 5 7 7 6 7 9 9 9 9 7
2170.0 8 8 8 10 9 7 8 7 7 6
2210.0 8 8 8 6 6 6 8 7 9 8
2250.0 9 7 9 11 11 13 14 16 16 19
2290.0 21 24 26 27 28 29 28 25 29 25
2330.0 22 20 20 22 28 29 28 25 30 24
2370.0 23 23 28 28 24 17 15 15 15 15
2410.0 15 18 16 14 16 14 14 15 15 13
2450.0 14 15 13 14 14 14 16 16 18 16
2490.0 17 18 20 20 23 21 23 25 27 28
2530.0 31 31 33 37 35 35 37 39 41 41
2570.0 43 47 48 52 54 58 57 60 63 66
2610.0 68 72 74 78 80 85 90 93 98 104
2650.0 109 117 123 133 139 145 152 160 165 170
2690.0 174 175 176 178 179 182 188 190 195 202
2730.0 212 220 232 247 257 263 269 275 281 289
2770.0 301 318 344 381 435 500 584 681 791 907
2810.0 1025 1124 1190 1199 1175 1146 1147 1187 1290 1507
2850.0 1898 2515 3295 3897 3965 3602 3134 2792 2639 2537
2890.0 2425 2386 2501 2772 3184 3720 4392 5282 6474 8007
2930.0 9433 10000 9474 8131 6535 5079 4068 3575 3494 3556
2970.0 3396 2791 2019 1448 1089 854 694 580 494 431
3010.0 380 339 303 277 251 229 212 193 178 164
3050.0 154 142 132 124 114 111 105 102 96 91
3090.0 86 85 81 76 74 71 67 64 64 59
3130.0 58 59 56 55 51 53 52 50 51 44
3170.0 47 44 43 44 42 38 37 34 32 31
3210.0 31 32 28 25 21 18 22 20 18 19
3250.0 20 17 16 16 17 16 17 17 16 17
3290.0 18 16 15 15 17 17 15 19 17 18
3330.0 18 19 20 20 22 20 20 22 21 19
3370.0 18 19 22 20 19 21 22 23 20 18
3410.0 17 18 20 18 17 19 16 18 18 18
3450.0 16 19 19 18 18 19 19 16 18 15
3490.0 11 13 14 10 9 11 9 7 8 13
3530.0 10 9 8 9 15 9 19 10 13 14
3570.0 22 18 16 14 14 20 14 10 22 15
3610.0 26 23 21 23 21 39 21 23 28 26
3650.0 30 27 28 24 22 31 19 31 24 24
3690.0 23 23 29 29 17 21 26 21 21 22
3730.0 24 27 34 22 44 19 27 20 20 20
3770.0 18 18 17 20 17 18 21 16 25 18
3810.0 21 23 19 30 20 25 25 29 16 25
3850.0 19 32 26 27 26 29 23 25 25 24
3890.0 14 31 16 28 24 21 22 27 21 29
3930.0 24 25 24 26 18 31 22 20 18 25
##END=
