##TITLE=Benzenebutanoic acid, methyl ester
##JCAMP-DX=4.24
##DATA TYPE=INFRARED SPECTRUM
##ORIGIN=Sadtler Research Labs Under US-EPA Contract
##OWNER=NIST Standard Reference Data Program
##CAS REGISTRY NO=2046-17-5
##MOLFORM=C 11 H 14 O 2
##XUNITS=1/CM
##YUNITS=ABSORBANCE
##XFACTOR=1.0
##YFACTOR=0.000057150
##DELTAX=4.0
##FIRSTX=450.0
##LASTX=3966.0
##FIRSTY=0.072181
##MAXX=3966
##MINX=450
##MAXY=0.5715
##MINY=0
##NPOINTS=880
##XYDATA=(X++(Y..Y))
450.0 1263 389 184 146 321 253 363 232 678 463
490.0 671 521 477 418 174 327 46 184 8 273
530.0 14 250 239 66 188 102 412 227 355 226
570.0 254 60 135 177 220 184 96 241 137 253
610.0 171 195 219 223 255 109 228 182 270 219
650.0 242 202 271 293 255 457 485 684 730 1085
690.0 1611 2250 2663 2524 2088 1501 1222 994 1040 1103
730.0 1371 1710 1931 2138 1914 1623 1198 1100 833 764
770.0 635 583 493 419 485 393 362 362 421 377
810.0 457 465 497 507 487 529 445 513 438 472
850.0 460 534 585 595 681 581 617 549 583 506
890.0 475 408 407 371 355 362 271 263 190 225
930.0 163 189 181 171 201 188 243 207 272 266
970.0 306 311 376 414 463 590 706 887 1019 1170
1010.0 1196 1232 1295 1391 1596 1730 1786 1592 1474 1340
1050.0 1287 1166 1073 994 905 883 867 907 848 852
1090.0 774 747 750 799 874 949 1118 1273 1556 1862
1130.0 2332 2884 3570 4327 4927 5294 5413 5488 5347 5241
1170.0 5092 5032 4966 4829 4732 4693 4901 5171 5451 5447
1210.0 5345 5137 4885 4682 4540 4477 4408 4479 4435 4345
1250.0 4124 3819 3455 3101 2823 2553 2355 2124 1979 1810
1290.0 1714 1638 1582 1561 1570 1593 1565 1574 1567 1619
1330.0 1639 1705 1764 1758 1780 1779 1873 1967 2091 2030
1370.0 1888 1632 1361 1071 847 695 578 546 484 521
1410.0 534 597 724 836 1041 1368 1993 2524 2776 2524
1450.0 2165 2031 1911 1683 1378 1107 923 781 682 717
1490.0 909 1256 1472 1325 944 506 406 320 329 287
1530.0 305 293 278 318 285 278 257 297 254 269
1570.0 287 302 302 350 395 432 546 661 778 793
1610.0 708 518 355 269 231 216 195 232 204 202
1650.0 232 235 207 198 228 201 240 209 285 289
1690.0 329 397 532 651 741 889 1005 1186 1317 1600
1730.0 1967 2603 3331 4213 5494 6957 8740 9881 10000 8633
1770.0 6869 5277 4059 3066 2248 1629 1217 917 705 516
1810.0 407 334 273 240 215 194 178 157 159 165
1850.0 158 155 170 183 194 217 210 198 195 178
1890.0 150 135 115 111 109 106 114 120 137 143
1930.0 170 205 221 235 230 230 220 202 161 139
1970.0 117 116 121 129 134 134 150 138 150 147
2010.0 153 160 167 173 166 166 161 172 172 173
2050.0 164 158 160 155 168 142 132 114 103 87
2090.0 76 57 60 59 53 61 52 63 56 55
2130.0 54 57 49 46 56 44 44 33 49 48
2170.0 41 37 38 39 40 38 36 45 41 30
2210.0 40 32 37 33 39 33 36 36 43 32
2250.0 27 36 31 41 28 39 40 48 43 44
2290.0 47 33 41 30 35 29 27 0 10 6
2330.0 0 9 39 66 76 51 0 2 12 115
2370.0 185 200 167 139 119 85 79 62 61 64
2410.0 58 66 59 65 52 76 67 71 63 55
2450.0 69 55 74 66 72 73 74 74 77 74
2490.0 66 76 72 89 79 95 94 88 85 79
2530.0 86 76 84 64 87 86 89 82 84 79
2570.0 90 96 96 109 106 117 124 133 127 113
2610.0 124 112 111 104 104 110 94 98 116 100
2650.0 80 86 60 60 59 78 79 89 99 99
2690.0 118 109 122 101 110 100 115 106 118 119
2730.0 114 122 121 115 112 119 125 113 132 135
2770.0 125 135 167 151 168 165 183 182 167 194
2810.0 196 225 212 252 275 318 351 428 551 692
2850.0 860 953 1019 1055 1105 1156 1169 1138 1060 980
2890.0 951 944 969 1029 1129 1261 1465 1720 2026 2308
2930.0 2572 2754 2893 3058 3275 3518 3894 4358 4393 3888
2970.0 2961 2165 1733 1450 1280 1157 1106 1114 1136 1150
3010.0 1172 1226 1337 1607 1973 2416 2725 2637 2176 1616
3050.0 1252 1163 1150 1324 1711 2100 2143 1889 1481 1245
3090.0 1181 1027 903 738 681 591 527 435 364 276
3130.0 211 224 190 171 177 171 154 144 166 134
3170.0 143 138 128 122 117 126 93 100 108 92
3210.0 76 73 79 110 94 85 78 81 77 59
3250.0 97 86 80 79 44 56 88 61 45 74
3290.0 44 67 65 33 62 66 44 39 72 42
3330.0 58 74 79 44 31 31 76 62 29 40
3370.0 34 47 24 91 28 43 58 63 49 35
3410.0 53 70 31 21 44 45 40 51 34 29
3450.0 17 51 29 56 76 56 59 86 89 65
3490.0 116 104 111 114 112 80 75 97 55 42
3530.0 3 64 58 41 50 36 12 17 26 5
3570.0 74 65 86 51 42 70 53 41 43 67
3610.0 59 69 46 72 78 45 65 96 65 67
3650.0 83 91 98 84 52 81 54 90 85 101
3690.0 91 103 109 97 82 93 120 86 107 91
3730.0 128 97 114 135 69 91 89 132 77 97
3770.0 98 80 135 112 145 123 49 121 125 100
3810.0 128 135 137 100 138 109 99 128 94 149
3850.0 116 76 137 124 153 154 124 85 128 59
3890.0 76 121 144 146 166 133 78 127 90 80
3930.0 114 108 130 117 167 89 147 122 103 115
##END=
