##TITLE=Propanedioic acid, 2-propenyl-, diethyl ester
##JCAMP-DX=4.24
##DATA TYPE=INFRARED SPECTRUM
##ORIGIN=Sadtler Research Labs Under US-EPA Contract
##OWNER=NIST Standard Reference Data Program
##CAS REGISTRY NO=2049-80-1
##MOLFORM=C 10 H 16 O 4
##XUNITS=1/CM
##YUNITS=ABSORBANCE
##XFACTOR=1.0
##YFACTOR=0.000054980
##DELTAX=4.0
##FIRSTX=450.0
##LASTX=3966.0
##FIRSTY=0.006598
##MAXX=3966
##MINX=450
##MAXY=0.5498
##MINY=0
##NPOINTS=880
##XYDATA=(X++(Y..Y))
450.0 120 131 109 55 36 3 13 45 58 26
490.0 34 58 94 58 56 85 61 44 70 92
530.0 118 71 45 51 41 138 74 143 249 233
570.0 182 180 196 235 292 198 206 247 226 227
610.0 224 274 298 286 297 330 329 436 417 395
650.0 392 379 359 334 289 290 332 264 337 383
690.0 374 336 289 295 299 296 269 268 215 195
730.0 212 213 188 173 140 208 209 173 233 202
770.0 239 258 285 231 283 302 282 268 237 269
810.0 271 284 272 246 270 300 307 330 357 418
850.0 537 664 766 796 724 643 500 494 450 403
890.0 376 381 389 413 520 710 995 1352 1522 1302
930.0 978 687 562 488 462 464 460 449 466 465
970.0 550 569 614 678 768 818 891 961 927 909
1010.0 962 1083 1263 1469 1754 2106 2482 2762 2853 2764
1050.0 2488 2294 2123 1929 1737 1535 1351 1193 1155 1219
1090.0 1355 1649 1841 2019 2101 2175 2331 2473 2553 2670
1130.0 2827 3257 3795 4461 5230 5684 5767 5592 5274 5147
1170.0 5013 5034 5043 4972 5088 4955 4865 4691 4407 4202
1210.0 4005 3981 4055 4214 4555 4914 5072 5222 4984 4544
1250.0 4201 3990 3989 4011 4038 3987 3706 3485 3217 2995
1290.0 2682 2455 2262 2169 2075 1930 1786 1810 1916 2199
1330.0 2598 2745 2651 2204 1705 1306 1011 869 981 1385
1370.0 1758 1806 1602 1142 881 767 722 689 672 632
1410.0 583 589 591 606 626 637 730 874 1050 1090
1450.0 1017 894 748 782 829 874 857 778 658 546
1490.0 417 341 284 265 230 211 197 202 177 199
1530.0 183 165 163 164 166 182 172 152 153 176
1570.0 155 158 148 170 152 170 161 179 177 175
1610.0 177 177 180 202 191 239 296 401 531 578
1650.0 522 347 279 253 230 220 224 237 269 285
1690.0 308 334 361 398 501 595 686 793 928 1145
1730.0 1478 2040 3090 4735 6779 8984 10000 9477 8702 8067
1770.0 7141 5508 3758 2429 1626 1168 871 725 592 508
1810.0 443 388 351 323 296 273 268 280 283 273
1850.0 257 232 192 174 165 163 154 147 151 144
1890.0 144 155 155 154 146 135 145 135 127 127
1930.0 115 114 108 107 106 100 107 114 107 105
1970.0 114 114 114 114 114 114 104 105 103 103
2010.0 103 95 104 102 102 111 103 102 99 92
2050.0 98 93 92 85 84 93 91 92 99 90
2090.0 99 91 91 91 79 74 74 73 73 80
2130.0 80 71 71 70 70 69 69 64 70 69
2170.0 70 66 61 67 60 58 58 67 58 65
2210.0 52 48 54 57 49 56 58 65 57 55
2250.0 55 55 55 55 60 55 55 55 50 63
2290.0 62 72 70 70 80 80 82 101 105 105
2330.0 104 115 112 114 105 104 123 140 146 129
2370.0 97 90 71 51 43 46 39 48 57 57
2410.0 47 46 46 46 47 47 45 40 37 36
2450.0 47 35 35 35 35 35 35 35 34 34
2490.0 34 34 33 33 33 25 33 33 33 33
2530.0 32 25 26 33 32 30 30 31 31 31
2570.0 30 29 28 31 23 19 30 18 23 19
2610.0 28 28 27 28 27 19 16 17 17 13
2650.0 19 16 16 17 17 17 15 16 6 6
2690.0 17 4 16 4 15 15 22 16 25 26
2730.0 25 36 26 27 27 27 29 28 39 39
2770.0 45 47 58 58 58 59 50 41 42 42
2810.0 53 57 60 71 88 98 98 99 109 128
2850.0 139 155 167 186 205 229 272 329 398 460
2890.0 470 453 463 504 571 648 715 765 773 795
2930.0 862 974 1157 1354 1468 1421 1280 1148 1137 1225
2970.0 1369 1525 1815 2393 2961 3166 2837 2266 1793 1489
3010.0 1243 1041 842 677 517 397 327 267 232 193
3050.0 184 176 176 167 177 198 234 285 388 569
3090.0 700 656 457 234 120 83 74 80 68 72
3130.0 66 62 63 70 65 60 62 61 60 62
3170.0 53 51 54 43 56 45 36 48 38 38
3210.0 49 39 39 31 41 39 36 32 20 26
3250.0 24 23 16 19 26 26 36 37 19 19
3290.0 21 21 11 12 13 21 13 21 24 15
3330.0 24 24 19 16 19 23 18 19 14 28
3370.0 30 28 11 20 29 23 28 23 23 13
3410.0 14 14 7 25 35 34 17 17 28 27
3450.0 25 15 31 33 39 34 31 55 65 84
3490.0 86 87 94 83 84 61 47 29 32 19
3530.0 18 26 19 9 10 10 10 4 19 2
3570.0 19 18 23 12 17 14 15 25 24 7
3610.0 6 0 10 3 20 3 17 19 31 21
3650.0 4 22 22 24 30 10 16 19 23 34
3690.0 27 32 52 52 45 44 37 57 64 61
3730.0 62 56 49 74 65 68 77 85 95 103
3770.0 94 98 103 97 97 103 103 106 109 119
3810.0 116 128 119 119 119 119 120 117 107 109
3850.0 112 105 120 124 131 132 133 135 141 122
3890.0 117 121 132 125 137 136 136 129 129 130
3930.0 130 129 121 121 123 133 5 16 16 17
##END=
