##TITLE=Ethanedioic acid, dibutyl ester
##JCAMP-DX=4.24
##DATA TYPE=INFRARED SPECTRUM
##ORIGIN=Sadtler Research Labs Under US-EPA Contract
##OWNER=NIST Standard Reference Data Program
##CAS REGISTRY NO=2050-60-4
##MOLFORM=C 10 H 18 O 4
##XUNITS=1/CM
##YUNITS=ABSORBANCE
##XFACTOR=1.0
##YFACTOR=0.000052686
##DELTAX=4.0
##FIRSTX=450.0
##LASTX=3966.0
##FIRSTY=0.001686
##MAXX=3966
##MINX=450
##MAXY=0.52686
##MINY=0
##NPOINTS=880
##XYDATA=(X++(Y..Y))
450.0 32 31 121 175 176 82 28 37 87 149
490.0 122 197 96 87 10 53 66 140 123 142
530.0 98 41 13 33 153 191 193 96 85 53
570.0 24 71 128 236 153 75 65 69 53 137
610.0 196 168 195 95 84 105 128 157 216 250
650.0 219 136 112 124 175 434 211 228 178 148
690.0 197 198 241 197 260 220 205 164 222 217
730.0 279 331 316 322 349 349 422 472 527 530
770.0 491 430 342 343 326 328 356 313 296 279
810.0 275 257 258 304 294 264 236 231 281 279
850.0 262 297 271 223 186 240 203 222 261 271
890.0 278 249 238 289 314 328 350 407 442 575
930.0 671 838 920 957 854 764 666 642 605 569
970.0 516 503 453 404 429 401 429 452 466 487
1010.0 480 478 449 415 394 391 386 393 388 408
1050.0 448 538 623 686 687 644 586 513 503 527
1090.0 563 632 691 769 880 1065 1417 1747 2154 2643
1130.0 3299 4198 5281 6380 7615 8529 9481 9985 10000 9953
1170.0 8978 7739 6420 4983 3840 2859 2195 1689 1341 1116
1210.0 984 845 769 730 706 702 714 745 753 778
1250.0 754 723 760 790 840 918 1000 1106 1221 1369
1290.0 1605 1872 2076 2259 2316 2196 1976 1671 1382 1129
1330.0 912 772 684 599 512 458 413 368 365 364
1370.0 364 383 393 425 472 476 469 445 393 346
1410.0 299 258 237 247 265 286 315 354 375 401
1450.0 449 543 630 714 760 774 710 611 502 392
1490.0 325 260 225 182 161 139 159 163 149 137
1530.0 118 108 107 107 117 127 115 112 102 91
1570.0 87 86 104 97 106 96 85 77 86 105
1610.0 104 114 109 93 93 91 103 112 130 121
1650.0 121 112 109 116 124 133 145 140 140 154
1690.0 156 186 224 273 311 354 428 530 665 827
1730.0 1041 1341 1836 2476 3193 4118 5188 5756 5458 4598
1770.0 3782 3355 3337 3525 3714 3586 3073 2320 1645 1162
1810.0 844 640 514 420 342 283 237 198 170 160
1850.0 150 150 142 120 102 89 93 95 101 101
1890.0 96 85 83 71 79 80 90 81 70 62
1930.0 59 61 58 69 69 69 63 58 49 49
1970.0 58 59 69 58 59 47 51 57 63 78
2010.0 66 67 46 47 55 66 67 64 72 62
2050.0 55 53 59 53 65 73 64 53 44 42
2090.0 53 64 63 63 50 46 43 49 52 61
2130.0 61 50 50 40 34 43 49 61 48 44
2170.0 40 40 39 39 49 59 47 38 38 39
2210.0 39 43 46 46 40 37 39 37 36 55
2250.0 55 54 52 45 49 52 70 81 111 127
2290.0 148 178 228 265 298 346 345 307 318 283
2330.0 284 272 290 326 359 330 328 341 363 373
2370.0 323 289 248 208 131 54 39 38 49 38
2410.0 38 30 29 31 48 47 46 46 40 46
2450.0 35 45 46 54 55 45 32 38 29 34
2490.0 45 44 44 35 15 14 24 34 35 32
2530.0 31 20 26 18 23 40 41 42 32 22
2570.0 23 23 30 41 37 31 31 13 21 20
2610.0 29 39 38 29 18 10 29 40 32 38
2650.0 38 33 23 20 30 38 49 60 40 38
2690.0 38 30 44 63 55 50 52 48 50 51
2730.0 62 72 80 80 78 72 75 92 85 102
2770.0 90 83 73 72 82 91 113 112 111 107
2810.0 113 117 126 148 176 179 190 218 239 289
2850.0 352 442 538 590 653 755 922 1126 1324 1434
2890.0 1429 1330 1223 1177 1204 1288 1431 1571 1691 1765
2930.0 1836 1993 2225 2472 2627 2635 2555 2554 2853 3445
2970.0 3965 4034 3560 2787 2050 1518 1163 901 712 573
3010.0 475 385 324 255 221 194 200 190 181 161
3050.0 130 112 101 91 105 101 99 90 68 60
3090.0 62 71 84 85 74 65 46 55 48 68
3130.0 71 70 61 39 47 48 55 67 76 57
3170.0 46 39 38 35 58 74 62 53 31 34
3210.0 21 40 40 49 39 32 22 11 12 28
3250.0 42 41 34 16 14 24 24 35 42 40
3290.0 32 14 14 15 18 45 52 45 26 15
3330.0 15 26 36 45 42 36 21 17 15 18
3370.0 37 47 46 27 18 20 16 32 41 47
3410.0 43 35 22 16 28 48 58 68 47 27
3450.0 21 24 33 57 50 46 49 43 21 49
3490.0 61 80 89 79 69 70 80 91 102 92
3530.0 73 55 35 42 42 53 65 65 47 44
3570.0 28 36 41 59 62 67 53 45 35 44
3610.0 46 54 74 50 46 45 40 43 55 74
3650.0 85 66 66 67 67 68 98 96 90 87
3690.0 80 67 68 77 86 87 77 68 55 49
3730.0 75 82 99 99 100 63 61 61 60 71
3770.0 82 81 75 67 57 69 84 78 91 82
3810.0 82 72 64 63 83 98 100 98 78 64
3850.0 64 87 102 121 122 92 74 73 77 86
3890.0 106 120 103 81 71 70 101 123 123 134
3930.0 113 92 83 86 101 133 0 10 10 10
##END=
