##TITLE=1,1'-Biphenyl, 4,4'-dichloro-
##JCAMP-DX=4.24
##DATA TYPE=INFRARED SPECTRUM
##ORIGIN=Sadtler Research Labs Under US-EPA Contract
##OWNER=NIST Standard Reference Data Program
##CAS REGISTRY NO=2050-68-2
##MOLFORM=C 12 H 8 Cl 2
##XUNITS=1/CM
##YUNITS=ABSORBANCE
##XFACTOR=1.0
##YFACTOR=0.000077005
##DELTAX=4.0
##FIRSTX=450.0
##LASTX=3966.0
##FIRSTY=0.000000
##MAXX=3966
##MINX=450
##MAXY=0.77005
##MINY=0
##NPOINTS=880
##XYDATA=(X++(Y..Y))
450.0 0 222 393 258 226 196 124 275 203 252
490.0 308 437 599 781 930 806 735 521 436 323
530.0 326 309 320 309 258 215 140 171 129 145
570.0 143 192 57 157 98 73 69 81 93 79
610.0 117 103 119 122 157 154 192 212 190 189
650.0 167 161 136 144 151 162 189 226 285 248
690.0 267 239 443 1128 2291 1856 773 317 280 233
730.0 247 244 246 249 242 279 294 350 359 356
770.0 336 309 314 289 346 387 536 847 1422 2156
810.0 2822 3578 3288 2812 2106 1467 1033 856 741 647
850.0 531 385 293 222 206 190 214 229 250 244
890.0 205 180 159 166 139 142 127 133 140 141
930.0 146 129 143 133 159 164 214 204 179 146
970.0 140 142 118 168 134 183 241 810 2080 3317
1010.0 2337 1152 1478 1685 1021 374 244 295 327 367
1050.0 334 308 243 253 246 296 326 467 687 1632
1090.0 5014 10000 9149 3958 1165 740 655 544 397 269
1130.0 238 196 210 196 198 159 156 149 146 162
1170.0 176 202 226 269 259 215 156 131 128 129
1210.0 161 198 261 308 319 273 221 196 190 203
1250.0 183 164 141 137 126 122 112 117 120 119
1290.0 133 135 153 152 155 161 167 175 173 184
1330.0 180 183 190 198 199 212 221 214 233 212
1370.0 234 248 312 359 424 432 425 384 321 286
1410.0 247 223 190 193 182 184 237 279 390 523
1450.0 732 770 853 1101 2056 3330 4012 4901 5921 6784
1490.0 4179 1700 745 463 431 369 335 263 211 188
1530.0 157 174 169 215 188 208 219 250 220 218
1570.0 198 177 204 273 366 510 568 560 393 285
1610.0 217 160 185 199 267 305 366 322 310 243
1650.0 273 206 247 236 215 190 165 130 141 94
1690.0 110 111 107 100 105 100 107 104 100 102
1730.0 118 124 109 121 119 129 141 162 177 212
1770.0 254 282 241 170 142 115 133 129 146 133
1810.0 122 104 102 102 100 106 95 111 91 107
1850.0 93 103 104 125 130 145 157 176 226 264
1890.0 320 335 335 293 245 195 153 123 110 99
1930.0 95 97 93 100 97 94 97 94 95 91
1970.0 93 83 86 84 88 83 86 80 80 86
2010.0 84 86 88 91 86 87 87 86 83 81
2050.0 82 80 82 79 84 80 79 74 79 77
2090.0 77 80 78 80 79 80 77 76 75 74
2130.0 73 74 79 74 74 74 74 72 71 73
2170.0 69 69 71 72 69 73 73 74 77 79
2210.0 80 80 82 75 75 77 79 79 81 81
2250.0 80 84 81 87 87 93 93 100 98 105
2290.0 108 107 110 110 112 108 111 104 110 105
2330.0 104 100 86 107 80 102 98 105 90 79
2370.0 89 87 82 81 82 80 81 80 79 80
2410.0 76 77 73 75 68 66 69 67 66 68
2450.0 68 67 66 69 67 72 71 69 68 71
2490.0 76 75 78 81 83 82 82 83 79 76
2530.0 75 77 78 72 79 77 81 89 92 94
2570.0 96 96 93 95 90 95 95 97 99 97
2610.0 94 87 81 79 76 69 71 69 74 73
2650.0 78 81 79 80 79 76 81 87 86 90
2690.0 90 86 83 83 80 78 78 75 76 77
2730.0 76 74 74 76 73 76 74 75 79 81
2770.0 82 81 87 84 77 78 80 87 90 93
2810.0 98 95 92 91 81 84 76 82 83 88
2850.0 82 86 90 92 94 92 93 89 88 83
2890.0 86 75 84 78 78 78 80 79 72 71
2930.0 73 71 72 77 75 76 82 84 89 90
2970.0 96 100 104 107 111 114 113 110 113 118
3010.0 126 138 156 191 269 394 588 733 717 554
3050.0 432 399 387 369 369 384 403 451 514 578
3090.0 609 598 532 449 366 296 242 192 153 124
3130.0 110 102 93 92 89 93 88 87 86 90
3170.0 86 83 79 78 78 77 78 80 80 79
3210.0 76 76 80 76 79 79 77 80 78 74
3250.0 73 82 77 77 76 75 80 84 86 83
3290.0 83 81 83 80 81 87 86 88 82 82
3330.0 79 82 81 87 81 82 87 83 82 81
3370.0 82 76 80 93 81 83 87 86 82 78
3410.0 82 81 81 81 82 84 79 79 84 89
3450.0 83 81 86 88 83 82 83 87 91 94
3490.0 72 81 83 92 96 80 86 86 88 102
3530.0 96 88 86 83 105 79 79 93 73 128
3570.0 100 82 92 87 109 92 120 92 89 87
3610.0 113 105 102 103 83 131 102 71 89 92
3650.0 125 105 80 117 75 151 81 151 74 106
3690.0 88 97 99 104 106 114 124 117 118 109
3730.0 114 129 126 108 149 91 140 100 99 99
3770.0 96 97 88 114 98 103 98 111 105 145
3810.0 79 126 69 131 92 110 113 125 109 112
3850.0 112 122 118 96 118 149 109 93 119 118
3890.0 97 119 83 143 112 98 90 131 102 117
3930.0 111 94 111 113 93 104 110 89 104 111
##END=
