##TITLE=1,2-Diethoxybenzene
##JCAMP-DX=4.24
##DATA TYPE=INFRARED SPECTRUM
##ORIGIN=Sadtler Research Labs Under US-EPA Contract
##OWNER=NIST Standard Reference Data Program
##CAS REGISTRY NO=2050-46-6
##MOLFORM=C 10 H 14 O 2
##XUNITS=1/CM
##YUNITS=ABSORBANCE
##XFACTOR=1.0
##YFACTOR=0.000090222
##DELTAX=4.0
##FIRSTX=450.0
##LASTX=3966.0
##FIRSTY=0.001263
##MAXX=3966
##MINX=450
##MAXY=0.90222
##MINY=0
##NPOINTS=880
##XYDATA=(X++(Y..Y))
450.0 14 13 30 25 20 30 41 30 35 11
490.0 8 23 18 31 50 38 28 8 20 25
530.0 23 20 9 19 30 15 13 81 56 48
570.0 91 130 115 157 203 137 192 198 182 145
610.0 104 63 46 34 40 32 30 32 15 17
650.0 12 17 17 22 11 44 21 38 32 40
690.0 48 56 55 69 88 124 186 296 474 780
730.0 1264 1965 2662 3277 3206 2660 2020 1381 931 658
770.0 514 427 364 334 284 261 252 251 257 281
810.0 300 319 319 304 280 252 213 183 168 161
850.0 158 155 145 155 147 149 156 198 265 368
890.0 506 640 742 798 832 841 840 844 861 836
930.0 774 663 508 360 240 176 145 127 117 116
970.0 119 127 144 145 167 196 229 276 340 441
1010.0 579 769 1046 1418 1918 2581 3408 4323 4996 5176
1050.0 4746 3810 2760 1872 1293 966 815 796 878 1042
1090.0 1225 1437 1704 2012 2356 2656 2889 2982 2925 2652
1130.0 2220 1675 1160 796 628 599 633 655 653 624
1170.0 587 592 651 818 1113 1584 2229 2995 3714 4248
1210.0 4512 4483 4288 3944 3588 3311 3291 3710 4690 6241
1250.0 8106 9706 10000 9025 7312 5591 4216 3306 2716 2367
1290.0 2178 2086 1983 1834 1616 1363 1138 952 781 649
1330.0 536 445 385 325 293 297 313 355 411 452
1370.0 525 661 881 1282 1780 2171 2293 2043 1551 1069
1410.0 724 542 496 407 421 447 514 620 816 1176
1450.0 1513 1575 1460 1222 1082 1273 1799 2382 2928 3631
1490.0 4715 5942 7018 6943 5891 3996 2664 1739 1188 866
1530.0 667 557 497 397 345 326 347 403 297 372
1570.0 469 583 771 997 1248 1493 1647 1629 1404 1063
1610.0 675 397 255 187 159 130 163 124 119 151
1650.0 146 145 86 110 100 118 109 88 130 108
1690.0 90 106 118 86 87 71 106 119 72 77
1730.0 103 130 85 90 95 106 78 84 88 80
1770.0 98 90 75 77 80 83 77 69 75 59
1810.0 59 61 56 55 65 72 58 64 81 88
1850.0 80 83 84 89 100 114 101 101 104 104
1890.0 97 88 84 88 99 110 129 141 139 120
1930.0 109 96 94 92 80 72 71 65 64 66
1970.0 65 64 64 59 59 68 61 59 58 63
2010.0 69 70 77 76 80 81 74 76 70 63
2050.0 63 64 67 59 61 63 58 58 63 63
2090.0 58 47 41 37 31 24 20 20 20 13
2130.0 13 8 8 8 8 9 9 9 2 2
2170.0 2 4 2 9 3 8 8 8 8 8
2210.0 8 8 7 7 7 7 7 7 8 13
2250.0 19 24 25 29 28 31 24 24 24 24
2290.0 19 24 24 24 35 41 37 40 40 33
2330.0 32 21 12 8 7 18 34 29 15 1
2370.0 0 0 0 1 12 23 24 30 37 37
2410.0 41 41 42 42 36 37 30 34 31 31
2450.0 37 36 36 36 36 37 37 37 37 36
2490.0 36 36 47 52 54 58 59 59 59 59
2530.0 60 61 67 69 70 77 80 81 75 75
2570.0 69 58 53 46 38 36 25 23 21 21
2610.0 20 20 20 15 15 15 10 10 4 0
2650.0 8 11 11 11 10 10 6 5 7 8
2690.0 14 13 19 24 28 33 45 56 73 85
2730.0 86 97 97 103 107 114 111 109 106 108
2770.0 115 115 114 114 109 110 104 111 117 125
2810.0 138 151 175 185 204 221 238 261 290 325
2850.0 371 426 490 573 690 854 1086 1361 1633 1810
2890.0 1845 1771 1674 1621 1634 1663 1683 1674 1609 1592
2930.0 1707 1923 2149 2253 2218 1999 1719 1523 1464 1553
2970.0 1800 2216 2793 3443 3885 3815 3363 2426 1706 1201
3010.0 898 716 607 550 523 550 633 736 827 848
3050.0 794 730 697 757 912 1051 1148 1141 1015 831
3090.0 617 436 324 270 240 223 195 166 138 105
3130.0 84 71 62 52 49 54 49 50 44 50
3170.0 44 51 49 46 43 38 39 32 39 38
3210.0 36 37 36 37 31 26 24 20 21 15
3250.0 16 10 3 6 11 5 12 5 7 11
3290.0 19 10 13 13 12 10 11 13 14 14
3330.0 9 8 14 8 13 9 11 3 11 15
3370.0 18 11 6 7 7 12 7 7 8 8
3410.0 10 16 12 8 14 14 10 9 10 10
3450.0 9 5 11 14 10 11 12 6 12 13
3490.0 18 12 13 13 13 12 11 14 14 13
3530.0 15 15 15 11 21 15 16 10 18 25
3570.0 13 11 19 20 18 19 18 18 20 20
3610.0 18 18 20 8 20 29 1 14 17 20
3650.0 20 5 11 11 19 22 21 23 24 31
3690.0 19 15 19 20 20 20 18 24 29 28
3730.0 30 30 18 34 34 36 21 20 21 29
3770.0 29 24 26 31 32 36 41 40 40 34
3810.0 35 41 40 41 43 44 36 35 37 46
3850.0 47 53 45 47 46 41 37 38 44 47
3890.0 43 44 46 46 37 43 38 39 34 39
3930.0 41 39 37 37 39 40 35 36 38 46
##END=
