##TITLE=5-Nonanone, 2,8-dimethyl-
##JCAMP-DX=4.24
##DATA TYPE=INFRARED SPECTRUM
##ORIGIN=Sadtler Research Labs Under US-EPA Contract
##OWNER=NIST Standard Reference Data Program
##CAS REGISTRY NO=2050-99-9
##MOLFORM=C 11 H 22 O
##XUNITS=1/CM
##YUNITS=ABSORBANCE
##XFACTOR=1.0
##YFACTOR=0.000131812
##DELTAX=4.0
##FIRSTX=450.0
##LASTX=3966.0
##FIRSTY=0.006986
##MAXX=3966
##MINX=450
##MAXY=1.31812
##MINY=0
##NPOINTS=880
##XYDATA=(X++(Y..Y))
450.0 53 18 81 60 71 66 88 50 101 81
490.0 102 47 88 47 30 80 48 68 61 116
530.0 60 152 122 85 98 102 124 73 102 98
570.0 80 71 78 56 69 70 26 48 38 66
610.0 52 71 78 94 72 34 84 92 52 79
650.0 91 74 57 65 32 96 30 58 18 29
690.0 15 10 22 24 25 7 31 10 39 22
730.0 41 29 31 47 47 54 45 82 73 92
770.0 84 108 90 87 84 54 57 31 51 36
810.0 30 30 32 39 35 56 37 56 50 57
850.0 52 73 82 88 109 104 117 107 114 94
890.0 94 90 87 91 94 128 137 170 179 179
930.0 155 150 148 136 132 115 114 106 117 116
970.0 122 120 124 131 129 151 159 182 189 207
1010.0 204 209 209 215 233 252 294 313 361 428
1050.0 549 704 874 1004 1015 925 740 563 425 356
1090.0 325 322 321 339 357 379 423 461 519 579
1130.0 652 706 737 752 741 750 762 796 812 829
1170.0 795 692 549 417 347 300 295 295 319 338
1210.0 359 377 378 375 366 375 388 424 456 480
1250.0 493 517 558 601 637 630 606 557 507 453
1290.0 405 356 319 305 316 369 433 537 640 768
1330.0 891 1002 1042 1001 929 860 867 946 1095 1249
1370.0 1356 1340 1211 1091 1113 1151 1045 763 533 478
1410.0 474 508 539 533 525 509 527 551 601 671
1450.0 776 875 982 1081 1172 1243 1175 978 710 504
1490.0 352 255 197 151 124 99 88 72 68 56
1530.0 51 48 49 52 42 44 42 47 38 38
1570.0 37 37 41 34 39 35 39 35 42 42
1610.0 47 46 49 55 53 56 57 64 59 66
1650.0 72 81 87 87 107 118 141 162 198 225
1690.0 261 312 386 521 737 1123 1671 2407 3143 3649
1730.0 3654 3133 2296 1516 929 595 415 321 268 238
1770.0 222 212 200 187 171 152 134 116 103 94
1810.0 82 78 66 55 49 42 35 28 28 27
1850.0 22 20 18 16 17 18 21 17 14 17
1890.0 13 12 10 10 11 8 10 8 8 8
1930.0 10 7 6 9 6 7 8 9 10 8
1970.0 10 11 11 7 5 7 12 7 10 9
2010.0 10 9 7 11 10 10 7 9 7 5
2050.0 2 1 6 13 14 17 17 11 7 3
2090.0 7 9 9 10 11 11 12 14 12 10
2130.0 13 16 16 17 16 14 17 14 15 18
2170.0 16 17 14 13 16 18 11 13 14 14
2210.0 12 13 16 13 15 9 12 12 15 10
2250.0 12 10 10 9 10 11 10 13 13 13
2290.0 17 19 23 22 27 25 33 29 41 42
2330.0 41 39 33 48 26 35 45 41 47 21
2370.0 10 5 10 9 11 14 19 17 17 16
2410.0 14 14 12 13 8 12 10 8 5 10
2450.0 9 4 12 8 8 7 9 11 11 9
2490.0 7 8 6 10 10 8 7 12 5 5
2530.0 2 2 3 4 4 3 8 11 7 6
2570.0 14 17 17 24 23 22 25 31 33 31
2610.0 31 35 35 36 38 39 42 46 48 57
2650.0 52 47 39 35 34 34 41 42 47 47
2690.0 52 55 56 56 54 57 64 72 80 97
2730.0 114 128 130 125 116 113 105 97 99 108
2770.0 111 117 124 120 131 137 150 165 183 207
2810.0 222 247 268 294 302 320 343 381 449 538
2850.0 675 843 1044 1242 1470 1807 2329 2883 3169 3107
2890.0 2866 2720 2707 2769 2887 3103 3336 3559 3727 3889
2930.0 4046 4249 4500 4640 4683 4786 5273 6414 8273 10000
2970.0 9453 7188 4470 2691 1754 1187 828 610 466 364
3010.0 294 237 208 184 160 143 129 120 114 107
3050.0 104 110 101 100 94 87 93 86 89 77
3090.0 84 87 71 71 76 62 64 73 80 54
3130.0 63 62 63 70 70 67 67 72 90 95
3170.0 96 102 92 94 103 104 98 90 83 90
3210.0 77 67 66 53 57 50 41 38 36 35
3250.0 36 31 39 31 43 22 18 10 20 21
3290.0 19 7 22 34 36 19 21 22 32 20
3330.0 34 30 31 28 33 36 26 22 32 30
3370.0 36 39 21 29 39 29 30 29 29 34
3410.0 38 39 34 41 51 73 67 66 71 49
3450.0 47 44 30 9 23 20 14 22 19 11
3490.0 10 7 12 14 18 19 13 17 8 13
3530.0 6 22 18 26 10 13 30 26 30 33
3570.0 34 49 38 48 37 33 18 2 20 28
3610.0 11 17 24 18 16 28 15 11 18 16
3650.0 28 20 29 22 18 19 21 29 28 26
3690.0 25 19 12 18 26 0 25 26 34 14
3730.0 24 8 30 38 18 27 9 22 15 14
3770.0 12 25 42 25 33 36 31 34 53 37
3810.0 42 34 28 7 26 22 26 34 37 44
3850.0 44 45 34 23 22 13 20 47 37 46
3890.0 33 30 45 20 27 46 29 33 42 24
3930.0 24 8 15 61 45 18 44 34 48 19
##END=
