##TITLE=Decane, 1-iodo-
##JCAMP-DX=4.24
##DATA TYPE=INFRARED SPECTRUM
##ORIGIN=Sadtler Research Labs Under US-EPA Contract
##OWNER=NIST Standard Reference Data Program
##CAS REGISTRY NO=2050-77-3
##MOLFORM=C 10 H 21 I
##XUNITS=1/CM
##YUNITS=ABSORBANCE
##XFACTOR=1.0
##YFACTOR=0.000157855
##DELTAX=4.0
##FIRSTX=450.0
##LASTX=3966.0
##FIRSTY=0.000000
##MAXX=3966
##MINX=450
##MAXY=1.57855
##MINY=0
##NPOINTS=880
##XYDATA=(X++(Y..Y))
450.0 0 89 130 132 137 120 173 117 151 148
490.0 137 119 238 254 219 215 192 187 151 157
530.0 155 143 125 128 134 140 117 102 21 54
570.0 109 148 154 165 178 231 296 339 326 281
610.0 216 190 145 139 122 129 109 125 125 126
650.0 122 125 133 128 123 139 132 130 137 138
690.0 145 157 170 206 230 278 320 355 367 364
730.0 347 329 295 275 260 245 229 216 214 208
770.0 211 196 196 179 149 241 191 182 166 164
810.0 161 155 143 145 161 142 154 156 151 160
850.0 149 142 167 159 153 148 155 155 157 162
890.0 162 160 152 151 152 152 146 148 143 142
930.0 138 137 140 139 140 142 147 149 145 143
970.0 132 131 130 126 120 122 123 126 125 135
1010.0 133 136 137 140 142 140 143 137 137 134
1050.0 138 135 133 141 142 143 143 141 143 144
1090.0 143 142 143 152 151 150 153 150 146 142
1130.0 153 156 171 183 213 249 292 356 458 590
1170.0 694 708 662 655 682 709 721 728 734 724
1210.0 708 688 664 645 635 628 611 583 541 499
1250.0 470 444 433 432 427 417 406 390 385 379
1290.0 377 371 373 357 345 324 295 276 254 243
1330.0 253 271 305 343 395 436 446 420 384 363
1370.0 352 332 321 323 319 270 225 200 184 185
1410.0 189 200 220 251 308 401 499 558 591 632
1450.0 718 831 945 998 960 851 686 504 374 279
1490.0 228 191 172 154 143 131 123 113 108 106
1530.0 102 101 96 100 91 92 90 89 86 90
1570.0 83 83 89 80 82 79 80 78 78 73
1610.0 79 81 77 76 72 74 73 73 65 71
1650.0 67 72 71 63 68 73 66 67 71 73
1690.0 67 70 69 68 67 68 61 66 67 69
1730.0 65 68 63 65 64 61 64 62 67 64
1770.0 67 63 64 59 61 59 61 57 58 60
1810.0 57 58 58 59 55 54 58 56 53 55
1850.0 54 56 59 57 56 55 57 62 54 54
1890.0 54 53 59 58 56 56 53 58 54 57
1930.0 59 59 54 54 57 53 55 50 53 50
1970.0 51 49 48 52 48 45 47 49 50 49
2010.0 51 51 52 54 53 56 52 48 52 55
2050.0 54 50 45 45 42 41 37 36 36 36
2090.0 39 37 36 38 39 39 36 38 41 43
2130.0 41 41 41 40 43 40 45 46 44 43
2170.0 42 44 40 37 41 44 40 42 38 39
2210.0 36 37 38 36 37 38 35 33 33 32
2250.0 36 35 38 36 36 36 34 32 36 33
2290.0 36 31 33 40 43 57 50 43 55 51
2330.0 60 51 51 64 50 51 60 44 44 37
2370.0 35 21 21 23 24 22 23 23 24 23
2410.0 21 23 24 22 18 21 20 18 18 18
2450.0 20 19 18 17 14 13 21 21 18 15
2490.0 17 15 20 22 18 21 18 19 23 21
2530.0 19 25 26 33 35 29 27 29 23 25
2570.0 33 35 37 35 41 46 45 48 52 54
2610.0 58 66 62 66 65 66 71 72 67 70
2650.0 76 75 84 87 80 85 92 87 84 84
2690.0 84 83 75 71 70 62 60 60 65 69
2730.0 64 73 75 88 82 84 86 83 84 85
2770.0 89 98 101 110 121 137 157 174 190 202
2810.0 231 263 288 322 374 444 532 650 844 1092
2850.0 1473 2059 2886 3668 3943 3665 3146 2674 2424 2265
2890.0 2112 2003 2034 2203 2512 2942 3526 4403 5675 7350
2930.0 9034 10000 9704 8510 6771 5180 4068 3498 3528 3783
2970.0 3861 3336 2388 1624 1152 869 692 575 513 475
3010.0 487 503 472 382 292 210 186 168 150 126
3050.0 118 105 96 85 76 69 57 58 50 50
3090.0 42 37 40 37 27 36 29 32 27 18
3130.0 34 27 21 22 29 27 35 37 35 40
3170.0 36 31 32 41 34 29 43 28 32 30
3210.0 39 30 29 30 31 23 34 30 25 27
3250.0 33 27 25 26 36 31 30 23 18 20
3290.0 24 30 27 27 28 19 26 31 28 20
3330.0 34 28 32 27 24 23 20 25 25 17
3370.0 21 35 39 27 26 20 28 33 38 33
3410.0 37 34 29 34 35 35 35 39 43 34
3450.0 41 31 30 33 39 29 36 23 40 45
3490.0 38 18 27 38 34 39 49 38 54 45
3530.0 49 42 39 48 46 31 41 43 36 39
3570.0 31 36 45 47 43 41 44 37 51 35
3610.0 43 34 49 49 51 58 44 46 45 46
3650.0 53 41 34 40 31 37 32 33 49 46
3690.0 43 51 53 37 40 45 40 30 29 31
3730.0 63 34 55 48 15 39 48 39 47 76
3770.0 49 51 36 27 31 29 69 56 61 31
3810.0 62 33 52 75 62 77 54 49 52 85
3850.0 64 64 48 80 71 68 76 45 69 71
3890.0 53 74 61 44 72 63 44 54 51 62
3930.0 85 90 48 44 92 55 59 67 52 14
##END=
