##TITLE=Acenaphthylene, 5-bromo-1,2-dihydro-
##JCAMP-DX=4.24
##DATA TYPE=INFRARED SPECTRUM
##ORIGIN=Sadtler Research Labs Under US-EPA Contract
##OWNER=NIST Standard Reference Data Program
##CAS REGISTRY NO=2051-98-1
##MOLFORM=C 12 H 9 Br
##XUNITS=1/CM
##YUNITS=ABSORBANCE
##XFACTOR=1.0
##YFACTOR=0.000035291
##DELTAX=4.0
##FIRSTX=450.0
##LASTX=3966.0
##FIRSTY=0.005505
##MAXX=3966
##MINX=450
##MAXY=0.35291
##MINY=0
##NPOINTS=880
##XYDATA=(X++(Y..Y))
450.0 156 131 123 163 134 510 680 741 505 119
490.0 86 99 109 163 367 693 965 923 614 280
530.0 169 135 141 96 40 77 77 112 117 132
570.0 180 185 155 177 132 133 168 153 166 229
610.0 243 248 198 219 221 285 377 568 718 724
650.0 624 344 183 106 70 168 258 327 492 587
690.0 846 1147 1404 1305 912 510 328 317 401 450
730.0 449 479 579 816 1313 2089 3239 4528 5574 6176
770.0 6223 5400 4384 3243 2292 1567 1127 1063 1417 2242
810.0 3320 4805 5075 4413 4177 4390 5182 5312 4007 3135
850.0 2615 2382 2127 1660 1122 692 482 451 481 532
890.0 556 431 338 264 229 208 186 185 145 141
930.0 112 104 108 98 105 111 92 122 165 169
970.0 166 159 148 175 249 329 462 646 948 1188
1010.0 1344 1547 1869 2115 1982 1498 914 611 478 443
1050.0 520 665 972 1935 3609 4620 4393 2767 1150 788
1090.0 578 511 734 1199 1514 1432 1081 552 375 229
1130.0 185 91 52 42 23 70 118 401 656 750
1170.0 589 280 154 215 257 372 578 873 1150 1147
1210.0 1042 923 889 848 728 673 1102 1920 2197 1860
1250.0 870 159 134 251 434 492 483 347 134 45
1290.0 26 81 112 129 122 112 126 221 357 579
1330.0 791 953 1095 1207 1465 2145 3582 5028 5544 4556
1370.0 2909 1896 1484 1431 1636 2128 2539 2346 1734 1120
1410.0 1122 1785 2388 2615 2291 1604 1093 910 774 729
1450.0 795 897 967 1022 957 882 781 803 1031 1375
1490.0 1669 1647 1360 842 358 160 146 112 108 151
1530.0 163 187 164 156 185 200 175 123 146 221
1570.0 288 472 755 1180 1610 2003 2343 2714 2874 2753
1610.0 2219 1633 1276 1039 837 693 591 492 490 449
1650.0 429 339 347 263 169 104 47 41 29 12
1690.0 79 111 96 116 164 198 186 169 204 203
1730.0 176 172 300 440 459 359 234 218 261 375
1770.0 454 458 447 355 234 152 134 153 186 230
1810.0 251 269 262 253 254 316 443 644 852 992
1850.0 1012 831 537 304 185 143 145 153 167 186
1890.0 196 190 173 159 163 201 267 381 496 540
1930.0 489 382 237 138 104 80 68 70 74 80
1970.0 84 77 66 58 58 48 63 70 75 75
2010.0 78 70 67 76 76 70 76 86 86 83
2050.0 84 90 90 84 76 85 74 72 68 69
2090.0 59 65 64 58 54 59 57 57 61 64
2130.0 64 65 67 62 72 74 84 85 80 78
2170.0 88 93 93 92 82 72 67 76 85 89
2210.0 94 89 88 84 82 84 78 75 73 63
2250.0 64 76 81 90 104 110 119 122 122 124
2290.0 128 134 133 145 139 154 149 145 161 142
2330.0 151 154 129 132 167 149 157 132 131 117
2370.0 115 114 108 99 76 72 59 59 75 90
2410.0 94 100 110 114 114 123 117 103 99 81
2450.0 65 56 50 66 60 54 50 41 53 51
2490.0 60 57 51 43 41 24 29 32 30 35
2530.0 40 47 48 31 33 36 35 38 32 35
2570.0 40 37 37 37 42 52 48 52 58 43
2610.0 42 29 27 36 32 40 41 40 37 37
2650.0 31 36 39 54 58 56 64 52 40 32
2690.0 29 22 22 23 24 15 12 18 37 43
2730.0 38 39 45 35 31 28 42 39 41 26
2770.0 19 32 46 56 48 85 75 98 112 140
2810.0 177 200 232 248 272 288 328 408 680 1246
2850.0 1812 2074 1915 1495 1120 953 770 679 662 807
2890.0 1084 1420 1680 1619 1447 1207 1226 1375 2013 3188
2930.0 4965 7159 9084 10000 8925 8636 7002 4262 2681 1265
2970.0 561 370 219 221 155 195 135 163 185 260
3010.0 385 553 789 1080 1622 2265 3045 3720 4456 4822
3050.0 4496 3684 2759 2503 2756 3201 3417 3344 3013 2406
3090.0 1876 1456 1077 788 532 329 197 106 65 36
3130.0 26 19 13 18 0 32 24 50 68 76
3170.0 79 72 75 55 55 57 49 54 68 79
3210.0 73 62 55 51 57 81 66 71 54 51
3250.0 59 42 39 35 39 26 36 11 36 53
3290.0 52 61 40 46 47 65 47 60 59 81
3330.0 75 78 79 76 92 74 85 96 103 94
3370.0 88 128 101 102 124 112 141 137 151 128
3410.0 122 112 92 107 121 131 149 116 123 107
3450.0 139 135 146 148 138 136 125 156 154 160
3490.0 153 141 147 169 160 167 183 182 179 208
3530.0 200 176 197 213 229 179 189 219 227 221
3570.0 221 182 185 175 164 178 167 194 159 171
3610.0 164 162 129 170 147 157 168 148 182 163
3650.0 169 179 146 125 131 146 102 144 150 133
3690.0 167 133 151 149 146 133 184 180 183 200
3730.0 205 177 197 147 111 161 200 164 192 155
3770.0 153 154 137 193 160 152 143 174 143 181
3810.0 186 170 184 153 171 192 203 193 186 255
3850.0 214 173 232 230 245 228 235 227 232 275
3890.0 188 207 236 218 250 255 252 260 230 248
3930.0 233 227 257 277 264 226 190 213 247 240
##END=
