##TITLE=o-Toluidine, 5-isopropyl-
##JCAMP-DX=4.24
##DATA TYPE=INFRARED SPECTRUM
##ORIGIN=Sadtler Research Labs Under US-EPA Contract
##OWNER=NIST Standard Reference Data Program
##CAS REGISTRY NO=2051-53-8
##MOLFORM=C 10 H 15 N
##XUNITS=1/CM
##YUNITS=ABSORBANCE
##XFACTOR=1.0
##YFACTOR=0.000102069
##DELTAX=4.0
##FIRSTX=450.0
##LASTX=3966.0
##FIRSTY=0.125035
##MAXX=3966
##MINX=450
##MAXY=1.02069
##MINY=0
##NPOINTS=880
##XYDATA=(X++(Y..Y))
450.0 1225 897 552 512 501 107 330 76 263 347
490.0 212 169 204 178 113 12 179 113 142 86
530.0 121 200 193 143 209 123 241 273 242 259
570.0 152 136 194 138 170 123 138 157 197 256
610.0 159 186 294 324 469 617 702 873 898 954
650.0 1041 1130 1254 1338 1436 1308 1319 1135 1002 944
690.0 804 713 680 644 714 697 725 665 583 491
730.0 392 324 357 267 241 142 162 136 137 129
770.0 85 98 152 169 395 663 1014 1511 1969 2039
810.0 1593 1254 912 590 438 265 233 221 248 505
850.0 657 886 1076 1003 839 610 413 277 186 167
890.0 147 99 83 60 97 76 83 135 155 220
930.0 262 339 383 386 351 259 182 128 76 108
970.0 120 144 227 330 565 870 1000 980 793 444
1010.0 167 63 30 13 27 17 51 128 187 372
1050.0 523 613 653 539 415 325 280 297 299 298
1090.0 288 292 314 293 299 280 243 228 173 168
1130.0 150 136 158 174 214 244 251 256 204 198
1170.0 180 203 278 280 296 249 149 99 60 92
1210.0 140 140 152 116 101 85 111 183 263 426
1250.0 627 840 1099 1263 1435 1556 1573 1560 1508 1454
1290.0 1563 1760 1880 1846 1669 1329 991 836 708 684
1330.0 698 687 767 796 843 902 891 953 919 937
1370.0 900 745 781 731 777 702 623 537 491 596
1410.0 779 1106 1493 1951 2241 2321 2232 1901 1689 1538
1450.0 1509 1635 1640 1843 1745 1738 1519 1394 1374 1228
1490.0 1318 1284 1456 1758 2038 2881 2950 3210 2724 2212
1530.0 1824 1394 1423 1317 1419 1365 1234 1183 1329 1399
1570.0 1594 1685 1796 1828 1796 1717 1646 1700 1944 2237
1610.0 2828 3426 4240 5134 5550 5315 4808 3631 2559 1753
1650.0 1172 668 644 374 440 153 340 115 213 135
1690.0 150 225 147 201 211 265 197 179 214 192
1730.0 245 94 197 101 117 47 94 64 53 81
1770.0 14 68 45 71 72 45 53 48 42 63
1810.0 39 49 56 52 31 79 22 128 33 117
1850.0 100 158 179 159 181 116 138 94 66 68
1890.0 29 51 43 43 43 56 24 63 7 53
1930.0 35 36 49 15 50 25 42 46 24 52
1970.0 19 36 31 16 35 12 22 19 23 26
2010.0 21 28 19 24 29 19 28 24 21 29
2050.0 27 27 33 23 34 30 28 29 22 27
2090.0 18 22 21 14 20 13 14 15 14 20
2130.0 21 16 26 13 16 18 17 18 12 15
2170.0 12 12 18 12 13 17 15 17 12 12
2210.0 12 10 19 18 20 26 29 30 34 38
2250.0 36 31 39 31 33 33 33 40 40 50
2290.0 61 66 90 86 94 121 103 125 115 126
2330.0 134 105 170 60 222 64 217 118 225 184
2370.0 155 154 111 101 78 52 41 43 44 44
2410.0 49 49 48 52 49 51 55 55 57 62
2450.0 63 62 66 69 73 75 71 75 77 71
2490.0 73 72 66 69 69 65 61 66 67 67
2530.0 66 69 77 77 79 89 96 100 98 100
2570.0 108 110 109 115 124 131 133 135 131 123
2610.0 123 116 111 106 105 105 106 107 109 105
2650.0 107 113 111 112 112 116 116 119 122 123
2690.0 129 126 128 136 145 158 177 198 222 242
2730.0 262 276 293 303 295 277 255 230 221 217
2770.0 215 209 204 206 215 226 233 248 267 284
2810.0 310 327 342 361 371 397 424 465 532 616
2850.0 745 920 1177 1582 2122 2716 3262 3605 3644 3445
2890.0 3215 3070 3057 3131 3230 3294 3307 3347 3467 3745
2930.0 4123 4526 4780 4693 4379 4097 4285 5492 7597 9122
2970.0 10000 9181 6851 4778 3313 2400 1996 1881 1943 2088
3010.0 2232 2378 2408 2340 2187 1976 1743 1513 1343 1231
3050.0 1153 1156 1157 1156 1128 1043 950 838 741 652
3090.0 584 529 489 452 416 380 358 339 318 322
3130.0 313 309 306 296 289 279 259 243 232 228
3170.0 222 225 220 232 237 242 242 247 256 260
3210.0 257 253 247 248 234 231 219 210 209 199
3250.0 194 184 192 181 182 169 171 162 158 160
3290.0 159 158 158 158 157 157 156 150 152 153
3330.0 160 158 169 170 172 163 167 172 176 175
3370.0 183 183 197 226 255 292 362 462 545 601
3410.0 618 569 481 405 337 288 261 235 235 213
3450.0 227 227 251 255 302 332 402 524 623 739
3490.0 765 755 676 578 460 413 306 286 247 251
3530.0 223 222 180 203 187 212 149 259 136 259
3570.0 157 236 148 243 142 276 145 214 174 180
3610.0 213 159 263 109 278 101 254 134 230 114
3650.0 338 53 280 133 167 295 52 359 80 280
3690.0 116 216 189 189 200 201 171 264 114 298
3730.0 151 195 338 36 469 0 435 48 278 169
3770.0 146 231 129 201 218 139 255 126 268 123
3810.0 207 161 193 231 172 255 194 199 264 119
3850.0 339 81 328 188 221 270 136 289 181 272
3890.0 164 309 122 268 246 174 270 135 289 147
3930.0 227 170 213 191 185 273 160 196 234 176
##END=
