##TITLE=4-Decanol
##JCAMP-DX=4.24
##DATA TYPE=INFRARED SPECTRUM
##ORIGIN=Sadtler Research Labs Under US-EPA Contract
##OWNER=NIST Standard Reference Data Program
##CAS REGISTRY NO=2051-31-2
##MOLFORM=C 10 H 22 O
##XUNITS=1/CM
##YUNITS=ABSORBANCE
##XFACTOR=1.0
##YFACTOR=0.000155981
##DELTAX=4.0
##FIRSTX=450.0
##LASTX=3966.0
##FIRSTY=0.067696
##MAXX=3966
##MINX=450
##MAXY=1.55981
##MINY=0
##NPOINTS=880
##XYDATA=(X++(Y..Y))
450.0 434 124 8 88 42 83 81 73 86 73
490.0 95 61 80 70 83 81 66 70 65 72
530.0 49 61 41 66 55 70 78 65 87 61
570.0 43 22 54 35 65 81 66 69 49 53
610.0 49 55 57 41 38 54 74 73 60 45
650.0 65 40 43 52 45 79 57 50 53 73
690.0 53 72 72 83 99 107 129 154 171 170
730.0 180 169 173 181 182 177 163 150 136 123
770.0 119 118 114 101 99 98 105 105 116 104
810.0 111 117 124 138 149 168 210 240 273 296
850.0 292 294 257 234 225 220 215 216 217 226
890.0 234 253 274 285 282 276 265 249 234 227
930.0 218 217 221 219 225 246 272 304 347 389
970.0 428 472 529 591 661 707 710 704 688 699
1010.0 726 781 833 868 865 820 757 674 620 582
1050.0 575 592 622 648 650 650 634 617 598 587
1090.0 589 589 606 615 621 620 628 647 678 715
1130.0 752 757 724 656 568 473 393 342 310 308
1170.0 309 327 341 358 374 386 406 427 451 477
1210.0 495 503 504 503 499 497 495 498 501 502
1250.0 506 515 518 521 528 525 516 494 468 441
1290.0 416 393 381 373 364 353 337 330 327 328
1330.0 343 367 398 435 464 489 515 549 598 654
1370.0 713 777 853 916 916 840 725 627 544 470
1410.0 404 348 316 297 297 327 380 446 534 598
1450.0 715 835 996 1109 1132 1081 896 674 466 331
1490.0 234 184 160 135 120 109 89 86 85 75
1530.0 70 61 68 58 56 43 50 45 55 34
1570.0 43 34 47 26 32 31 28 28 23 28
1610.0 20 32 27 27 20 25 22 27 12 26
1650.0 13 41 21 13 21 24 16 25 13 34
1690.0 14 16 21 26 16 16 18 21 23 23
1730.0 23 23 26 12 13 12 14 9 9 9
1770.0 3 15 6 9 4 13 4 6 4 3
1810.0 2 6 3 2 3 1 6 0 7 3
1850.0 2 1 2 1 1 2 4 5 3 3
1890.0 4 5 7 5 4 5 4 4 4 6
1930.0 8 6 5 3 3 1 2 2 1 1
1970.0 2 1 0 1 2 0 1 1 0 2
2010.0 1 3 4 4 8 11 6 7 8 11
2050.0 10 9 8 9 7 5 5 3 4 2
2090.0 2 2 1 2 6 7 7 7 4 5
2130.0 3 3 4 3 6 3 5 5 5 6
2170.0 6 6 6 9 7 10 8 8 8 7
2210.0 7 9 7 8 8 11 10 10 9 11
2250.0 11 13 11 11 13 15 15 15 15 15
2290.0 16 14 17 15 13 13 13 11 10 11
2330.0 12 20 18 29 33 19 4 4 18 49
2370.0 55 55 54 48 39 35 31 27 29 31
2410.0 31 30 32 33 33 34 33 33 32 30
2450.0 32 31 32 29 30 31 32 31 33 36
2490.0 33 34 35 35 39 39 40 40 41 42
2530.0 46 45 51 48 53 52 49 54 55 56
2570.0 59 62 62 64 68 72 73 75 79 81
2610.0 82 81 84 87 92 93 101 103 107 110
2650.0 115 121 127 135 138 145 144 148 150 151
2690.0 149 148 147 143 142 144 142 150 150 154
2730.0 158 169 181 190 198 193 189 183 178 186
2770.0 188 194 206 217 227 242 257 277 297 321
2810.0 347 380 410 452 510 579 679 808 1009 1291
2850.0 1685 2188 2795 3390 3828 4032 4035 4021 3998 3855
2890.0 3474 3023 2822 2958 3311 3837 4486 5277 6306 7632
2930.0 8976 9855 10000 9343 8089 6647 5517 5202 5716 6790
2970.0 7276 6371 4567 2830 1816 1290 991 812 683 592
3010.0 521 463 414 382 353 324 303 284 259 235
3050.0 214 201 184 174 164 155 150 142 135 135
3090.0 126 122 118 116 108 103 101 97 96 90
3130.0 92 94 84 87 85 85 84 82 84 81
3170.0 82 77 76 79 76 76 79 82 73 68
3210.0 61 64 55 45 44 40 42 41 44 37
3250.0 36 32 39 28 34 27 23 23 22 21
3290.0 20 19 22 27 20 25 25 22 18 13
3330.0 18 17 16 19 20 16 7 16 16 23
3370.0 20 14 14 15 23 16 19 14 25 22
3410.0 28 29 31 35 39 34 29 30 25 31
3450.0 30 37 38 26 34 39 34 24 30 19
3490.0 27 29 32 31 27 27 19 22 26 25
3530.0 30 27 26 26 17 26 29 31 37 27
3570.0 30 29 28 30 27 45 31 43 53 45
3610.0 58 73 84 104 131 157 173 191 228 285
3650.0 382 457 498 439 338 249 195 137 120 81
3690.0 81 75 57 74 64 50 44 45 45 31
3730.0 45 43 50 45 59 65 56 57 54 48
3770.0 55 46 33 53 53 40 47 38 56 57
3810.0 50 40 39 52 46 45 52 65 60 59
3850.0 48 56 78 32 36 46 55 60 48 68
3890.0 65 65 39 58 28 55 35 52 39 33
3930.0 39 45 23 46 24 25 47 49 28 20
##END=
