##TITLE=Butanoic acid, 2-propenyl ester
##JCAMP-DX=4.24
##DATA TYPE=INFRARED SPECTRUM
##ORIGIN=Sadtler Research Labs Under US-EPA Contract
##OWNER=NIST Standard Reference Data Program
##CAS REGISTRY NO=2051-78-7
##MOLFORM=C 7 H 12 O 2
##XUNITS=1/CM
##YUNITS=ABSORBANCE
##XFACTOR=1.0
##YFACTOR=0.000067334
##DELTAX=4.0
##FIRSTX=450.0
##LASTX=3966.0
##FIRSTY=0.008282
##MAXX=3966
##MINX=450
##MAXY=0.67334
##MINY=0
##NPOINTS=880
##XYDATA=(X++(Y..Y))
450.0 123 107 136 114 24 30 24 37 71 39
490.0 19 6 46 133 119 113 72 77 126 104
530.0 123 143 142 170 193 236 128 122 296 283
570.0 200 97 333 349 337 308 365 394 365 301
610.0 320 415 361 342 342 340 391 281 303 276
650.0 287 254 240 287 262 286 278 270 281 205
690.0 243 235 234 250 271 200 231 251 281 273
730.0 235 270 172 226 238 320 237 240 259 277
770.0 269 293 330 309 366 400 393 354 380 266
810.0 303 250 325 306 295 334 361 318 358 339
850.0 366 385 457 453 479 425 475 409 426 440
890.0 471 526 585 654 764 840 1092 1333 1633 1938
930.0 2004 1936 1676 1324 1037 841 773 729 754 883
970.0 1035 1248 1665 2198 2900 3381 3506 3338 2805 2243
1010.0 1776 1434 1181 1046 959 1002 1086 1236 1332 1423
1050.0 1451 1391 1321 1296 1323 1423 1566 1783 2062 2366
1090.0 2617 2803 2900 2836 2642 2416 2200 1921 1725 1578
1130.0 1574 1652 1753 1991 2383 2883 3646 4595 5813 7460
1170.0 8890 9835 10000 9170 7791 6448 5559 4890 4342 3792
1210.0 3240 2819 2537 2420 2420 2479 2574 2754 2931 3141
1250.0 3260 3258 3125 2903 2682 2505 2360 2236 2121 2067
1290.0 2053 2094 2088 1994 1827 1567 1292 1052 916 874
1330.0 926 1014 1161 1281 1389 1407 1412 1438 1526 1660
1370.0 1754 1813 1751 1639 1445 1256 1056 916 782 732
1410.0 719 742 797 865 932 985 1039 1027 1044 1103
1450.0 1167 1242 1261 1262 1149 1027 873 726 582 497
1490.0 406 357 318 290 257 222 215 205 189 190
1530.0 189 172 172 158 173 172 163 149 157 163
1570.0 155 156 153 155 162 161 162 162 170 164
1610.0 181 177 182 200 205 223 238 280 335 387
1650.0 409 406 389 336 286 252 237 235 246 257
1690.0 277 293 346 400 469 568 660 787 953 1184
1730.0 1527 2096 3003 4249 5791 7379 8619 9142 8941 7920
1770.0 6251 4558 3193 2264 1684 1336 1070 875 730 591
1810.0 483 415 347 310 273 248 236 234 230 224
1850.0 232 239 247 254 246 230 206 193 167 151
1890.0 153 147 143 140 133 126 124 125 130 134
1930.0 125 131 116 126 132 126 123 136 143 129
1970.0 128 128 128 127 125 121 118 113 114 114
2010.0 117 110 117 109 109 118 124 116 119 106
2050.0 117 101 111 108 101 106 98 91 98 92
2090.0 96 97 81 90 91 83 90 82 79 80
2130.0 80 72 73 73 78 69 73 63 64 68
2170.0 70 70 63 55 70 70 61 59 62 54
2210.0 59 59 54 59 59 58 58 58 51 56
2250.0 56 57 58 61 65 54 69 55 57 62
2290.0 62 62 62 61 53 61 53 51 56 64
2330.0 75 77 79 80 65 42 20 49 65 86
2370.0 87 66 58 44 37 41 32 40 38 39
2410.0 38 46 51 44 46 47 39 38 39 36
2450.0 36 35 35 34 26 36 26 26 22 23
2490.0 19 23 19 17 18 17 23 16 24 25
2530.0 19 23 27 23 14 20 22 13 21 21
2570.0 21 20 27 18 25 19 23 19 10 16
2610.0 17 10 24 24 32 24 24 30 25 22
2650.0 22 24 28 26 32 32 18 32 40 40
2690.0 35 33 30 46 32 36 47 35 49 49
2730.0 57 57 63 65 73 66 83 84 71 75
2770.0 66 73 65 72 80 73 87 96 107 110
2810.0 117 134 134 149 152 163 184 191 207 230
2850.0 267 285 312 370 458 571 740 964 1241 1409
2890.0 1475 1430 1284 1140 1057 1041 1061 1144 1247 1401
2930.0 1580 1872 2201 2546 2840 3006 3071 3045 3054 3166
2970.0 3379 3589 3609 3430 3011 2474 1990 1589 1269 1027
3010.0 846 717 631 599 555 531 492 404 329 273
3050.0 257 226 212 212 224 262 284 328 382 455
3090.0 539 590 607 606 511 396 320 234 149 113
3130.0 98 99 77 77 73 52 59 68 66 58
3170.0 44 49 45 52 46 39 48 43 35 49
3210.0 52 38 29 46 45 20 22 29 22 33
3250.0 38 13 32 27 23 16 30 32 5 10
3290.0 20 23 39 29 23 23 24 26 25 17
3330.0 10 25 32 16 26 26 20 34 16 28
3370.0 25 19 33 18 35 41 24 8 37 21
3410.0 18 25 38 24 30 25 50 34 36 49
3450.0 39 27 31 45 54 64 71 74 81 95
3490.0 110 131 118 131 119 70 74 57 63 56
3530.0 44 45 29 58 44 47 59 70 86 109
3570.0 129 154 155 151 135 122 112 69 59 37
3610.0 31 23 34 29 40 27 26 26 31 37
3650.0 39 31 24 38 34 38 16 30 14 29
3690.0 26 25 33 3 18 26 18 10 18 7
3730.0 3 3 12 12 2 7 12 12 4 20
3770.0 12 6 9 4 4 4 4 8 15 12
3810.0 14 13 3 6 7 5 8 5 4 3
3850.0 3 4 3 3 3 8 7 3 3 3
3890.0 3 3 3 5 4 26 21 24 16 24
3930.0 31 15 16 29 37 41 0 3 3 3
##END=
