##TITLE=1-Hexanol, 5-methyl-2-(1-methylethyl)-
##JCAMP-DX=4.24
##DATA TYPE=INFRARED SPECTRUM
##ORIGIN=Sadtler Research Labs Under US-EPA Contract
##OWNER=NIST Standard Reference Data Program
##CAS REGISTRY NO=2051-33-4
##MOLFORM=C 10 H 22 O
##XUNITS=1/CM
##YUNITS=ABSORBANCE
##XFACTOR=1.0
##YFACTOR=0.000152451
##DELTAX=4.0
##FIRSTX=450.0
##LASTX=3966.0
##FIRSTY=0.004726
##MAXX=3966
##MINX=450
##MAXY=1.52451
##MINY=0
##NPOINTS=880
##XYDATA=(X++(Y..Y))
450.0 31 77 24 141 54 95 152 71 88 22
490.0 32 186 132 121 126 126 102 84 89 109
530.0 71 97 73 93 51 72 119 75 74 91
570.0 107 130 96 102 106 93 65 70 84 63
610.0 76 85 69 70 77 52 65 69 73 75
650.0 46 42 59 75 57 71 53 53 65 60
690.0 47 50 40 62 50 53 55 57 85 87
730.0 89 93 73 123 106 104 89 98 83 96
770.0 87 90 85 87 92 92 86 91 90 81
810.0 70 86 79 79 73 85 100 67 71 74
850.0 86 90 82 99 108 125 134 133 134 141
890.0 145 141 145 162 179 191 222 235 256 272
930.0 269 250 253 256 267 275 313 340 381 424
970.0 467 515 528 537 544 572 600 635 681 762
1010.0 836 921 1004 1113 1222 1345 1497 1641 1755 1811
1050.0 1738 1564 1295 1020 782 607 503 419 375 341
1090.0 327 319 322 331 338 345 358 360 373 381
1130.0 367 352 329 321 327 347 374 409 466 515
1170.0 549 539 501 466 430 382 355 357 349 351
1210.0 348 340 361 351 358 364 363 359 360 364
1250.0 350 353 337 322 323 313 304 309 321 317
1290.0 324 330 329 327 336 340 336 348 366 383
1330.0 386 415 441 438 451 464 475 522 639 817
1370.0 1001 1109 1111 1088 1169 1149 1029 789 525 385
1410.0 301 250 229 205 214 211 223 264 291 368
1450.0 482 606 798 1030 1187 1334 1323 1140 903 652
1490.0 451 332 225 181 147 112 112 81 77 66
1530.0 55 62 46 37 46 46 41 36 23 41
1570.0 41 30 31 28 41 36 36 38 24 37
1610.0 28 22 25 29 32 23 30 26 29 30
1650.0 19 35 25 31 31 24 30 32 31 23
1690.0 22 25 31 24 29 29 34 26 26 40
1730.0 24 27 34 35 46 50 44 57 49 72
1770.0 72 66 57 48 47 31 30 27 24 19
1810.0 14 18 14 15 12 8 15 13 13 7
1850.0 16 12 12 8 5 11 11 19 10 11
1890.0 6 7 12 9 11 12 10 8 9 12
1930.0 11 12 14 13 5 7 6 11 7 10
1970.0 12 16 14 3 9 10 7 9 6 4
2010.0 13 15 18 14 22 19 19 25 16 10
2050.0 14 15 13 18 16 18 11 18 13 15
2090.0 21 12 3 15 14 0 4 8 5 13
2130.0 6 2 3 5 5 0 5 5 7 6
2170.0 7 7 6 10 8 8 6 11 6 8
2210.0 8 6 10 10 12 10 7 8 9 13
2250.0 14 11 12 11 12 12 14 19 16 15
2290.0 14 14 12 13 14 13 16 17 18 24
2330.0 30 16 35 27 26 23 39 34 39 45
2370.0 33 28 27 26 26 21 24 26 21 25
2410.0 22 24 23 22 22 24 22 23 19 23
2450.0 23 17 21 19 22 19 19 19 24 21
2490.0 20 20 24 23 27 23 21 27 25 24
2530.0 22 24 27 26 31 29 35 34 36 38
2570.0 41 46 47 51 59 61 64 67 70 71
2610.0 78 78 78 82 82 84 85 86 84 84
2650.0 84 84 82 82 83 82 83 85 88 90
2690.0 93 94 100 105 109 116 121 132 147 166
2730.0 180 189 195 193 189 185 179 178 184 192
2770.0 202 207 209 211 219 229 235 245 256 271
2810.0 286 309 332 360 393 426 470 536 633 781
2850.0 996 1251 1534 1812 2124 2594 3265 3937 4418 4516
2890.0 4246 3886 3640 3591 3741 3950 4160 4323 4523 4789
2930.0 5101 5399 5528 5467 5294 5240 5828 7153 9070 10000
2970.0 9140 7111 4798 3112 2086 1446 1029 758 579 456
3010.0 380 321 272 246 220 199 178 159 148 138
3050.0 132 123 117 114 112 104 105 104 96 91
3090.0 93 90 89 88 82 80 81 77 77 73
3130.0 77 77 76 77 77 81 81 87 89 90
3170.0 88 89 90 84 86 87 77 74 70 61
3210.0 57 49 41 39 33 30 23 19 24 15
3250.0 18 14 14 14 12 11 9 12 9 7
3290.0 10 8 7 10 11 9 16 13 14 9
3330.0 10 16 15 17 17 17 18 14 19 14
3370.0 14 15 9 16 7 10 8 11 12 9
3410.0 16 8 13 9 11 14 11 11 18 13
3450.0 17 14 10 13 12 12 15 15 20 19
3490.0 21 17 12 25 17 21 13 13 18 15
3530.0 12 15 15 15 12 18 11 17 17 29
3570.0 23 19 15 20 13 16 19 21 16 15
3610.0 26 23 21 27 33 28 57 57 96 117
3650.0 179 234 328 427 496 554 510 430 292 210
3690.0 124 67 59 23 29 18 4 14 0 6
3730.0 0 0 0 0 2 0 0 0 0 0
3770.0 0 0 0 0 0 0 0 0 0 0
3810.0 0 0 0 0 0 1 0 1 10 0
3850.0 11 0 0 0 0 8 0 5 0 5
3890.0 5 1 0 1 1 0 0 0 12 0
3930.0 0 0 6 6 0 8 4 0 0 5
##END=
