##TITLE=Disulfide, bis(3-methylbutyl)
##JCAMP-DX=4.24
##DATA TYPE=INFRARED SPECTRUM
##ORIGIN=Sadtler Research Labs Under US-EPA Contract
##OWNER=NIST Standard Reference Data Program
##CAS REGISTRY NO=2051-04-9
##MOLFORM=C 10 H 22 S 2
##XUNITS=1/CM
##YUNITS=ABSORBANCE
##XFACTOR=1.0
##YFACTOR=0.000146512
##DELTAX=4.0
##FIRSTX=450.0
##LASTX=3966.0
##FIRSTY=0.041463
##MAXX=3966
##MINX=450
##MAXY=1.46512
##MINY=0
##NPOINTS=880
##XYDATA=(X++(Y..Y))
450.0 283 171 101 142 106 149 111 133 113 164
490.0 141 160 124 127 139 149 142 138 149 123
530.0 164 60 0 157 138 155 141 131 136 132
570.0 128 122 136 104 121 69 132 128 120 124
610.0 120 129 134 125 128 134 136 124 151 166
650.0 135 128 124 130 130 122 140 120 139 140
690.0 146 155 163 168 179 163 166 170 178 184
730.0 197 244 257 297 304 288 256 221 197 164
770.0 158 152 164 128 127 157 143 140 136 131
810.0 132 126 140 140 147 148 145 141 156 149
850.0 163 183 223 253 251 245 235 233 224 218
890.0 199 176 165 169 175 195 229 262 282 259
930.0 219 198 192 196 200 198 184 170 159 144
970.0 133 128 130 126 127 123 127 127 127 128
1010.0 134 147 155 158 157 161 147 139 129 122
1050.0 116 123 121 119 127 135 136 141 142 142
1090.0 148 153 155 167 174 181 179 179 171 164
1130.0 162 166 172 186 202 235 285 368 471 563
1170.0 581 524 437 384 373 366 344 317 294 296
1210.0 350 465 609 679 610 464 346 282 257 252
1250.0 272 305 368 468 612 740 792 757 664 563
1290.0 474 421 421 436 433 404 360 311 286 295
1330.0 329 380 440 507 584 633 618 572 572 689
1370.0 846 940 914 898 995 1061 934 650 451 380
1410.0 369 409 444 470 480 513 596 682 733 748
1450.0 774 826 925 1060 1194 1287 1220 1001 731 531
1490.0 407 327 272 231 191 169 147 137 123 118
1530.0 112 110 106 103 100 102 99 100 98 98
1570.0 95 91 93 96 95 92 93 96 93 92
1610.0 91 91 91 90 89 91 89 90 91 89
1650.0 89 87 88 94 90 91 94 91 89 87
1690.0 87 89 87 86 87 87 84 83 85 81
1730.0 80 79 77 75 77 77 78 75 71 69
1770.0 68 69 68 63 64 63 62 64 62 59
1810.0 58 62 63 60 56 58 58 60 60 59
1850.0 59 59 59 57 58 57 57 54 56 54
1890.0 54 54 52 53 55 54 52 55 52 48
1930.0 51 48 49 49 48 48 50 46 45 47
1970.0 46 46 45 44 45 45 42 43 46 48
2010.0 46 49 49 49 51 58 57 60 58 58
2050.0 60 56 51 49 49 55 55 56 52 49
2090.0 46 41 39 37 40 42 42 42 41 40
2130.0 41 40 42 40 42 42 40 42 41 39
2170.0 39 35 33 37 35 34 36 33 32 30
2210.0 29 31 31 34 32 33 30 31 34 35
2250.0 36 35 33 34 36 34 40 43 44 50
2290.0 53 63 66 63 67 71 64 62 59 50
2330.0 47 38 36 30 35 47 48 34 20 20
2370.0 10 11 25 36 32 30 20 22 18 20
2410.0 20 19 22 20 19 18 18 19 18 23
2450.0 23 25 27 25 25 25 23 24 21 22
2490.0 20 20 19 18 14 15 16 13 14 12
2530.0 13 11 12 12 10 12 10 11 10 13
2570.0 18 19 23 24 28 28 28 30 32 29
2610.0 27 27 29 33 37 43 49 64 56 54
2650.0 52 48 45 41 48 49 48 49 48 44
2690.0 49 54 57 59 65 67 74 82 93 108
2730.0 123 134 133 129 125 117 115 112 109 120
2770.0 121 117 122 124 134 148 166 177 191 207
2810.0 228 262 298 334 364 396 435 505 621 759
2850.0 904 1009 1094 1173 1322 1607 2102 2687 3060 3026
2890.0 2752 2542 2519 2694 3028 3424 3679 3844 3989 4155
2930.0 4319 4419 4470 4422 4368 4508 5121 6431 8453 10000
2970.0 9467 7007 4258 2494 1617 1135 829 614 466 359
3010.0 290 246 216 186 157 153 143 132 122 120
3050.0 117 114 112 108 113 106 115 113 108 106
3090.0 101 98 92 89 85 83 82 81 75 79
3130.0 81 80 83 76 86 80 89 84 89 94
3170.0 95 102 102 106 95 91 98 89 82 76
3210.0 84 68 63 56 61 49 48 46 48 47
3250.0 45 42 61 53 50 52 48 43 42 37
3290.0 37 36 42 39 45 47 48 49 48 41
3330.0 47 50 65 71 61 50 52 56 54 50
3370.0 57 51 57 57 62 49 52 54 54 45
3410.0 46 49 41 46 48 45 44 49 43 43
3450.0 41 50 48 40 52 54 42 34 42 39
3490.0 35 40 35 42 24 39 48 41 35 28
3530.0 35 43 33 51 35 20 46 45 27 48
3570.0 41 35 15 31 47 34 18 26 47 31
3610.0 30 17 25 15 16 11 30 28 29 34
3650.0 30 35 37 23 21 11 25 21 32 39
3690.0 42 19 13 27 24 10 15 22 11 18
3730.0 11 14 14 25 20 18 21 10 23 12
3770.0 26 25 11 28 27 30 25 38 39 27
3810.0 38 28 18 44 26 29 41 40 43 49
3850.0 21 20 26 46 33 35 10 10 22 33
3890.0 24 31 36 39 35 40 13 38 33 30
3930.0 29 17 43 40 19 24 40 48 47 44
##END=
