##TITLE=Hydantoin, 5,5-dimethyl-2,4-dithio-
##JCAMP-DX=4.24
##DATA TYPE=INFRARED SPECTRUM
##ORIGIN=Sadtler Research Labs Under US-EPA Contract
##OWNER=NIST Standard Reference Data Program
##CAS REGISTRY NO=20513-25-1
##MOLFORM=C 5 H 8 N 2 S 2
##XUNITS=1/CM
##YUNITS=ABSORBANCE
##XFACTOR=1.0
##YFACTOR=0.000131464
##DELTAX=4.0
##FIRSTX=450.0
##LASTX=3966.0
##FIRSTY=0.019457
##MAXX=3966
##MINX=450
##MAXY=1.31464
##MINY=0
##NPOINTS=880
##XYDATA=(X++(Y..Y))
450.0 148 259 210 125 117 112 111 125 148 176
490.0 195 154 94 53 55 65 76 37 63 60
530.0 84 113 115 148 203 256 288 288 276 237
570.0 189 162 121 104 99 109 103 120 124 136
610.0 186 269 350 474 712 773 743 795 778 610
650.0 485 355 268 185 188 147 143 168 176 161
690.0 156 111 72 48 64 55 69 61 56 51
730.0 47 49 32 34 43 38 51 43 38 37
770.0 33 26 26 16 12 11 15 19 16 32
810.0 43 56 61 66 72 75 91 91 102 112
850.0 112 111 108 91 84 82 92 91 118 149
890.0 202 236 243 237 225 198 165 139 121 106
930.0 99 95 89 85 94 95 100 121 167 233
970.0 288 306 287 251 189 145 127 130 139 151
1010.0 151 147 145 140 132 132 143 163 194 224
1050.0 252 277 295 310 325 358 415 521 741 1165
1090.0 1821 2530 3051 3411 3773 4044 4106 3998 3542 2560
1130.0 1584 1062 824 661 525 425 380 378 395 415
1170.0 431 437 436 435 443 462 481 503 518 542
1210.0 585 664 790 980 1259 1550 1732 1725 1579 1287
1250.0 1000 853 810 817 880 1024 1187 1290 1328 1257
1290.0 1043 816 655 525 452 428 426 451 511 623
1330.0 745 794 808 777 626 511 481 518 578 642
1370.0 729 844 1150 1651 2126 2572 3218 3787 3971 3956
1410.0 3633 2624 1666 1084 849 739 712 702 751 878
1450.0 1174 1645 2134 2247 2206 2104 1965 2132 2895 4394
1490.0 6386 8737 9833 10000 8357 5794 3329 1828 1291 1017
1530.0 873 751 685 654 639 637 639 670 667 647
1570.0 609 524 410 327 288 261 238 213 199 190
1610.0 183 157 137 110 108 99 104 103 100 97
1650.0 102 106 103 94 102 100 109 94 104 100
1690.0 95 94 114 115 114 105 104 101 99 95
1730.0 98 111 102 98 97 98 91 88 90 93
1770.0 111 119 115 112 104 89 75 60 55 43
1810.0 34 31 28 27 30 30 32 28 32 31
1850.0 28 25 23 19 16 12 11 10 10 13
1890.0 13 14 14 15 15 16 15 18 19 19
1930.0 21 24 28 31 31 33 33 32 32 34
1970.0 38 39 41 46 47 55 61 68 70 68
2010.0 63 56 45 37 28 26 22 22 22 24
2050.0 26 29 29 31 29 30 29 29 29 28
2090.0 24 22 18 14 9 7 5 3 2 1
2130.0 1 0 0 0 0 1 0 2 3 3
2170.0 4 5 7 10 9 10 12 12 15 15
2210.0 14 15 16 13 11 11 13 12 14 15
2250.0 17 17 17 14 13 13 16 14 18 20
2290.0 24 30 35 38 36 38 36 32 32 29
2330.0 29 27 29 28 37 40 37 32 23 23
2370.0 26 32 33 37 34 27 24 26 24 24
2410.0 23 22 22 26 29 30 32 35 37 40
2450.0 40 40 41 35 33 35 36 37 39 41
2490.0 44 46 49 48 42 40 36 34 31 32
2530.0 30 29 29 29 27 28 29 28 30 32
2570.0 32 33 33 34 32 34 37 38 41 44
2610.0 49 51 55 57 56 56 56 52 51 47
2650.0 45 43 43 43 42 41 39 38 37 39
2690.0 39 40 42 41 43 46 48 51 56 58
2730.0 65 66 65 61 59 55 51 52 49 52
2770.0 55 52 53 54 53 56 57 56 57 61
2810.0 59 61 64 63 67 69 72 72 75 79
2850.0 87 98 108 123 137 150 157 158 159 155
2890.0 157 157 164 174 189 205 219 238 268 302
2930.0 337 373 391 373 335 292 241 204 193 214
2970.0 282 378 522 586 610 653 586 464 358 250
3010.0 171 130 119 112 114 113 113 108 112 115
3050.0 113 115 116 121 123 123 123 126 129 132
3090.0 132 137 143 145 150 153 155 160 165 167
3130.0 171 172 172 176 182 186 187 192 195 199
3170.0 200 203 206 207 210 210 214 215 216 214
3210.0 220 221 216 215 209 208 204 203 200 201
3250.0 201 199 193 192 189 185 188 182 182 176
3290.0 176 172 170 165 166 166 162 160 157 155
3330.0 155 149 147 143 137 136 133 133 128 124
3370.0 120 120 112 108 104 100 96 92 90 91
3410.0 86 87 86 93 102 126 158 210 297 435
3450.0 651 907 1133 1184 1181 1074 849 678 564 450
3490.0 350 239 143 73 44 28 24 21 22 20
3530.0 16 17 22 21 20 21 17 21 20 26
3570.0 31 34 42 33 27 25 18 14 21 21
3610.0 29 19 20 17 24 25 21 12 13 14
3650.0 17 19 20 26 21 19 14 20 20 22
3690.0 16 21 25 18 24 21 18 22 23 30
3730.0 19 24 30 20 35 21 20 19 19 26
3770.0 30 33 25 27 25 29 32 29 24 29
3810.0 26 30 22 27 30 30 29 28 30 31
3850.0 23 37 33 29 33 31 32 36 37 43
3890.0 38 28 38 43 38 42 45 34 41 39
3930.0 43 36 33 36 36 34 38 43 40 48
##END=
