##TITLE=1,1'-Biphenyl, 4-chloro-
##JCAMP-DX=4.24
##DATA TYPE=INFRARED SPECTRUM
##ORIGIN=Sadtler Research Labs Under US-EPA Contract
##OWNER=NIST Standard Reference Data Program
##CAS REGISTRY NO=2051-62-9
##MOLFORM=C 12 H 9 Cl
##XUNITS=1/CM
##YUNITS=ABSORBANCE
##XFACTOR=1.0
##YFACTOR=0.000055634
##DELTAX=4.0
##FIRSTX=450.0
##LASTX=3966.0
##FIRSTY=0.000000
##MAXX=3966
##MINX=450
##MAXY=0.55634
##MINY=0
##NPOINTS=880
##XYDATA=(X++(Y..Y))
450.0 0 476 670 738 1011 1712 2778 3010 2205 1953
490.0 1444 1505 1918 1830 1801 1608 1154 1004 878 863
530.0 1024 1187 1164 1101 1172 999 793 783 734 633
570.0 612 510 648 545 488 613 722 713 575 675
610.0 560 512 602 572 518 687 605 591 622 597
650.0 620 651 856 988 1047 1040 1138 1327 1905 2384
690.0 2931 3697 4080 3876 3204 2756 1942 1509 1249 1182
730.0 1211 1122 1679 2295 3025 3929 5681 7249 7646 5468
770.0 3580 2320 1654 1162 978 766 794 784 827 831
810.0 1201 1559 2205 2715 3553 4172 3952 3174 2328 1567
850.0 1093 878 725 641 649 633 586 588 693 756
890.0 803 687 641 630 646 650 618 597 580 545
930.0 556 531 544 539 521 559 595 650 617 555
970.0 556 573 519 553 617 742 915 1293 2251 3990
1010.0 4616 3952 2599 1734 1341 880 924 1082 995 849
1050.0 776 679 755 821 957 1114 1372 1752 1983 3279
1090.0 6326 9611 9960 5401 2034 864 958 772 782 800
1130.0 772 909 1053 1029 878 732 706 707 647 600
1170.0 561 610 645 656 644 604 585 538 527 540
1210.0 548 626 687 767 790 739 707 640 588 571
1250.0 576 558 547 532 501 488 504 528 570 584
1290.0 572 575 587 591 618 624 632 645 657 658
1330.0 676 669 673 657 666 655 656 668 656 659
1370.0 671 684 719 760 848 929 1026 1080 1020 962
1410.0 845 722 703 677 691 739 864 1066 1232 1336
1450.0 1307 1271 1291 1418 2130 3984 6312 8835 10000 9278
1490.0 6855 3952 2151 1967 2007 1545 1130 855 814 781
1530.0 714 763 803 812 768 666 682 723 741 771
1570.0 802 811 796 814 847 935 1206 1504 2014 2028
1610.0 1528 1045 646 524 535 551 593 701 745 800
1650.0 874 880 834 772 776 728 710 616 591 577
1690.0 548 533 574 588 560 530 551 589 573 573
1730.0 611 655 694 667 676 696 690 695 732 733
1770.0 785 805 736 673 650 692 769 805 759 670
1810.0 623 616 610 595 573 554 527 518 530 568
1850.0 571 587 616 632 664 699 730 753 837 937
1890.0 986 970 901 810 735 667 609 590 588 603
1930.0 615 658 688 714 728 724 747 758 705 624
1970.0 543 514 505 505 509 515 508 508 497 505
2010.0 497 493 500 499 498 496 502 494 493 495
2050.0 484 486 493 491 492 491 488 487 498 487
2090.0 484 492 494 486 494 494 484 486 479 479
2130.0 484 484 484 489 484 484 487 482 481 492
2170.0 487 478 487 484 484 484 484 484 487 492
2210.0 489 487 495 494 496 490 485 493 500 496
2250.0 502 510 505 511 511 513 512 518 524 522
2290.0 521 510 510 508 516 520 548 546 542 538
2330.0 527 520 542 552 536 541 560 550 574 548
2370.0 529 535 519 511 507 500 503 513 513 504
2410.0 503 495 491 494 499 499 493 487 483 482
2450.0 485 485 488 482 476 473 480 474 485 491
2490.0 490 493 503 502 493 500 498 492 498 492
2530.0 500 502 497 494 502 504 504 511 503 503
2570.0 511 515 511 521 526 518 521 528 531 538
2610.0 539 531 525 515 495 503 504 495 490 493
2650.0 492 495 500 488 496 497 494 498 502 504
2690.0 509 509 499 499 491 484 484 485 489 488
2730.0 490 481 484 485 488 498 494 498 494 501
2770.0 505 497 508 503 496 502 506 510 512 511
2810.0 513 516 521 515 505 511 504 504 512 518
2850.0 531 548 543 545 548 556 566 588 575 559
2890.0 571 556 546 536 524 523 530 513 512 529
2930.0 534 527 538 550 538 556 561 554 567 564
2970.0 567 577 584 601 612 610 625 639 674 707
3010.0 756 850 982 1223 1585 2184 2968 3436 3282 2560
3050.0 1992 1901 2098 2548 3310 4048 4130 3626 2967 2747
3090.0 2642 2431 2175 1900 1639 1409 1152 938 780 697
3130.0 650 633 624 605 603 590 564 561 556 536
3170.0 537 528 523 505 512 501 498 499 490 488
3210.0 506 497 486 491 492 497 495 480 491 511
3250.0 492 495 499 494 499 504 476 480 492 490
3290.0 506 500 499 495 494 504 486 491 504 491
3330.0 508 497 485 484 495 499 493 471 477 491
3370.0 494 478 488 477 482 512 494 479 476 506
3410.0 493 476 487 501 508 520 499 489 495 502
3450.0 497 514 516 487 503 484 482 497 507 505
3490.0 500 512 486 507 511 503 506 518 494 498
3530.0 515 509 516 510 494 500 521 501 515 511
3570.0 508 507 490 498 511 523 508 507 523 509
3610.0 515 531 504 533 530 529 512 509 518 537
3650.0 551 537 542 529 545 520 570 526 511 511
3690.0 529 550 537 576 540 549 543 528 556 575
3730.0 590 574 561 548 559 524 504 502 536 569
3770.0 556 502 505 500 519 494 537 537 540 551
3810.0 536 537 551 546 546 509 547 538 551 505
3850.0 489 500 553 503 503 577 523 566 506 540
3890.0 511 556 530 577 563 553 496 502 505 604
3930.0 559 552 505 541 563 566 566 517 527 532
##END=
