##TITLE=Pentyl sulfite
##JCAMP-DX=4.24
##DATA TYPE=INFRARED SPECTRUM
##ORIGIN=Sadtler Research Labs Under US-EPA Contract
##OWNER=NIST Standard Reference Data Program
##CAS REGISTRY NO=2051-05-0
##MOLFORM=C 10 H 22 O 3 S
##XUNITS=1/CM
##YUNITS=ABSORBANCE
##XFACTOR=1.0
##YFACTOR=0.000076361
##DELTAX=4.0
##FIRSTX=450.0
##LASTX=3966.0
##FIRSTY=0.000153
##MAXX=3966
##MINX=450
##MAXY=0.76361
##MINY=0
##NPOINTS=880
##XYDATA=(X++(Y..Y))
450.0 2 21 7 63 65 49 78 48 83 135
490.0 112 149 178 153 144 173 154 116 86 76
530.0 74 50 43 25 32 26 6 10 0 44
570.0 16 90 112 176 274 325 319 269 269 215
610.0 186 135 154 126 158 168 195 226 253 365
650.0 396 595 707 1052 1217 1837 2388 2872 3588 4145
690.0 4933 5421 6114 6311 6304 5843 5369 4869 4358 3996
730.0 3754 3669 3562 3469 3222 3003 2728 2417 2154 1933
770.0 1853 1894 2001 2077 2143 2194 2259 2224 2059 1808
810.0 1485 1165 902 731 624 572 572 614 664 718
850.0 725 723 731 819 979 1290 1797 2569 3596 4832
890.0 5847 6109 5645 4854 4105 3464 2934 2496 2169 1977
930.0 1964 2158 2594 3385 4665 6382 7967 8594 7954 6722
970.0 5744 5218 4979 4772 4428 3885 3254 2691 2272 1965
1010.0 1821 1841 1940 2016 2046 2125 2273 2455 2509 2277
1050.0 1798 1334 1002 868 872 930 940 841 672 511
1090.0 396 329 294 261 248 248 259 281 295 293
1130.0 275 259 246 238 237 236 237 250 261 286
1170.0 320 367 442 567 776 1121 1643 2375 3272 4082
1210.0 4386 4082 3537 3236 3386 3810 3883 3282 2309 1490
1250.0 1009 717 532 413 352 321 310 305 306 296
1290.0 283 275 270 263 259 244 230 230 243 266
1330.0 312 367 426 492 528 534 545 605 586 572
1370.0 807 1125 1361 1456 1343 1090 766 520 366 294
1410.0 253 241 238 255 285 341 426 518 618 686
1450.0 797 947 1148 1335 1490 1587 1491 1236 898 640
1490.0 461 348 272 217 183 147 127 115 102 97
1530.0 89 81 78 72 60 60 51 57 51 45
1570.0 49 49 52 46 49 54 51 52 54 54
1610.0 51 49 54 45 48 45 44 44 45 44
1650.0 48 46 46 43 47 45 47 38 40 44
1690.0 36 37 42 35 33 31 32 30 30 26
1730.0 27 28 26 26 21 18 17 17 17 15
1770.0 11 13 14 17 12 13 12 13 9 10
1810.0 11 7 10 10 8 12 16 17 15 16
1850.0 23 24 29 29 28 28 28 31 28 29
1890.0 28 27 30 28 26 25 27 27 26 26
1930.0 29 29 29 29 27 29 31 27 29 30
1970.0 24 20 15 15 12 11 10 13 11 9
2010.0 10 10 11 8 12 11 10 10 12 11
2050.0 12 8 8 6 5 7 6 6 7 6
2090.0 6 3 3 4 5 3 6 6 2 5
2130.0 5 4 6 9 6 8 12 12 10 11
2170.0 10 12 11 12 10 9 9 8 8 9
2210.0 9 8 6 7 6 7 7 10 7 9
2250.0 9 8 7 9 8 10 9 9 8 6
2290.0 7 6 7 6 8 1 2 3 7 8
2330.0 2 9 12 9 9 16 11 19 30 36
2370.0 26 33 30 30 29 33 33 33 36 38
2410.0 36 35 34 33 32 28 28 31 32 37
2450.0 38 36 34 29 25 22 24 24 18 22
2490.0 23 20 18 16 16 20 21 22 18 14
2530.0 14 13 14 13 18 18 19 21 24 27
2570.0 28 31 34 39 41 44 45 43 39 40
2610.0 42 42 38 41 46 46 46 47 55 53
2650.0 55 57 61 66 71 78 84 94 100 102
2690.0 107 103 99 95 97 93 94 103 111 122
2730.0 130 145 165 182 188 186 176 166 162 154
2770.0 149 153 158 164 170 186 199 213 235 252
2810.0 274 299 328 359 400 457 531 635 767 950
2850.0 1186 1490 1860 2325 2862 3401 3740 3953 4188 4374
2890.0 4186 3714 3329 3218 3329 3584 3957 4404 4954 5571
2930.0 6331 7184 8025 8588 8687 8345 7811 7702 8259 9306
2970.0 10000 9323 7345 5129 3507 2475 1793 1352 1046 849
3010.0 704 598 527 474 431 390 355 321 288 256
3050.0 232 213 194 183 169 156 151 149 143 133
3090.0 127 123 118 113 109 99 104 96 91 91
3130.0 88 86 84 81 81 76 79 79 73 73
3170.0 74 73 70 70 73 69 69 66 68 63
3210.0 56 53 49 44 42 38 32 36 25 32
3250.0 32 33 26 26 24 25 25 23 23 20
3290.0 22 20 23 21 22 18 13 21 19 23
3330.0 19 21 17 23 23 28 16 20 22 27
3370.0 32 26 27 26 25 21 26 25 22 25
3410.0 22 25 24 26 23 29 28 26 19 17
3450.0 23 26 23 17 19 18 18 21 19 16
3490.0 18 20 17 13 8 8 14 18 14 7
3530.0 14 9 7 9 8 11 10 11 17 5
3570.0 8 13 14 16 10 1 13 19 10 9
3610.0 0 12 16 18 23 32 30 34 37 37
3650.0 42 50 62 69 76 80 78 74 60 55
3690.0 53 43 40 40 26 30 28 24 13 25
3730.0 24 14 9 17 15 19 22 24 29 17
3770.0 26 16 12 17 21 26 23 20 27 31
3810.0 31 18 22 15 23 22 28 14 21 29
3850.0 28 31 21 31 26 27 24 25 27 23
3890.0 28 27 22 28 17 23 26 22 17 24
3930.0 34 13 15 24 13 17 13 16 12 17
##END=
