##TITLE=Benzoic acid, 2-hydroxy-, butyl ester
##JCAMP-DX=4.24
##DATA TYPE=INFRARED SPECTRUM
##ORIGIN=Sadtler Research Labs Under US-EPA Contract
##OWNER=NIST Standard Reference Data Program
##CAS REGISTRY NO=2052-14-4
##MOLFORM=C 11 H 14 O 3
##XUNITS=1/CM
##YUNITS=ABSORBANCE
##XFACTOR=1.0
##YFACTOR=0.000122763
##DELTAX=4.0
##FIRSTX=450.0
##LASTX=3966.0
##FIRSTY=0.000000
##MAXX=3966
##MINX=450
##MAXY=1.22763
##MINY=0
##NPOINTS=880
##XYDATA=(X++(Y..Y))
450.0 0 51 83 62 69 68 54 74 114 119
490.0 141 122 172 170 194 199 206 252 322 417
530.0 504 465 396 319 246 179 152 166 161 163
570.0 125 101 72 49 71 65 82 64 82 78
610.0 92 87 109 104 93 88 74 76 57 98
650.0 119 214 308 558 697 716 613 508 509 571
690.0 763 1029 1357 1582 1581 1462 1252 1104 848 584
730.0 520 417 491 784 1287 1990 2621 2482 1680 1050
770.0 543 315 190 153 125 137 161 198 232 219
810.0 217 215 220 225 243 232 236 225 236 262
850.0 312 366 415 437 382 308 239 187 145 112
890.0 92 77 73 73 71 66 65 69 86 116
930.0 184 265 357 429 450 443 424 424 407 375
970.0 302 234 182 165 172 197 210 203 199 193
1010.0 209 228 270 358 535 700 726 652 451 345
1050.0 313 347 396 476 593 808 1223 1954 3232 4465
1090.0 4796 3658 2093 1217 1011 1012 1079 1161 1369 1777
1130.0 2318 2916 2968 2598 1938 2620 5361 7057 6426 3601
1170.0 2135 2181 2215 2073 1781 1648 1804 2377 3526 5257
1210.0 6809 7017 5847 4259 3436 3194 3194 3344 3794 4876
1250.0 6163 6401 5318 3667 2655 2278 2140 2231 2472 2855
1290.0 3649 5439 8173 10000 9252 6570 4640 4119 4107 3875
1330.0 3419 2931 2572 2168 1802 1513 1306 1167 1058 962
1370.0 902 905 977 1140 1418 1792 2082 2232 2234 2171
1410.0 2092 1948 1763 1519 1261 1024 862 773 752 776
1450.0 890 1057 1344 1696 2064 2421 2732 3080 3309 3303
1490.0 2836 2207 1485 1122 935 772 622 461 350 297
1530.0 246 232 205 196 199 229 267 293 373 440
1570.0 564 714 986 1307 1503 1554 1399 1242 1174 1415
1610.0 1882 2391 2451 1986 1301 747 519 453 465 510
1650.0 593 678 813 939 1159 1497 2166 3167 4794 6407
1690.0 8094 7653 7184 4985 3314 2068 1342 900 654 573
1730.0 481 500 565 716 799 805 700 507 354 260
1770.0 211 157 145 114 110 91 95 100 112 149
1810.0 165 155 110 90 74 77 78 80 67 50
1850.0 50 47 48 43 49 40 47 45 48 48
1890.0 54 63 64 65 60 68 77 115 143 144
1930.0 116 85 80 89 110 112 96 67 48 41
1970.0 38 36 35 37 34 36 35 38 35 35
2010.0 35 35 35 36 41 42 48 44 49 47
2050.0 48 48 49 49 46 48 46 43 44 45
2090.0 42 44 46 48 50 49 53 50 52 50
2130.0 52 47 49 48 48 48 50 52 48 48
2170.0 46 48 47 45 45 45 40 39 39 38
2210.0 40 41 42 39 44 45 42 45 47 51
2250.0 48 47 44 45 44 46 50 52 56 55
2290.0 58 57 59 53 54 55 56 56 59 60
2330.0 55 62 54 64 57 64 70 72 73 61
2370.0 58 56 61 63 67 66 68 63 61 62
2410.0 62 63 61 63 61 67 66 67 65 63
2450.0 62 62 65 64 64 60 62 61 61 61
2490.0 63 64 65 68 65 65 64 66 64 66
2530.0 67 73 76 78 82 83 84 82 81 79
2570.0 79 77 76 77 77 77 75 77 79 84
2610.0 86 90 95 98 99 99 101 98 96 92
2650.0 89 88 84 80 79 83 83 85 88 94
2690.0 98 105 110 112 110 106 109 114 116 111
2730.0 113 117 123 130 139 145 151 155 158 160
2770.0 163 163 165 161 164 167 165 168 169 167
2810.0 171 174 182 188 199 211 220 239 259 295
2850.0 342 408 467 512 566 654 787 938 1089 1181
2890.0 1169 1078 977 946 972 1026 1112 1200 1281 1350
2930.0 1432 1579 1799 2045 2185 2152 2078 2124 2456 2951
2970.0 3353 3404 2967 2291 1660 1270 1019 847 725 623
3010.0 551 499 472 461 462 462 457 445 437 452
3050.0 488 546 610 673 731 786 821 805 732 649
3090.0 600 577 558 508 446 386 345 317 297 287
3130.0 282 280 282 289 295 302 319 333 352 375
3170.0 403 437 468 497 525 559 606 659 726 798
3210.0 882 982 1100 1232 1371 1489 1586 1653 1686 1686
3250.0 1657 1618 1561 1492 1406 1321 1239 1169 1112 1069
3290.0 1026 989 949 911 878 839 811 784 757 739
3330.0 715 698 681 654 633 607 586 565 544 523
3370.0 510 494 472 454 431 411 393 369 354 339
3410.0 329 312 294 293 282 276 270 263 259 263
3450.0 278 300 338 416 499 566 574 531 469 400
3490.0 343 309 291 267 254 242 220 198 188 172
3530.0 154 149 140 136 125 121 116 108 111 106
3570.0 100 101 92 97 91 91 88 82 84 80
3610.0 78 74 73 70 66 65 58 59 55 58
3650.0 57 52 53 46 46 49 48 47 39 42
3690.0 43 42 42 40 43 43 39 35 37 42
3730.0 34 45 39 37 41 35 35 40 34 34
3770.0 34 36 34 34 34 34 34 35 34 34
3810.0 34 34 34 34 34 35 35 37 39 35
3850.0 43 43 34 34 48 50 44 41 47 47
3890.0 48 49 50 49 49 51 53 48 57 54
3930.0 48 57 56 56 49 57 63 52 57 51
##END=
