##TITLE=1-Propene, 1,2,3,3-tetrachloro-
##JCAMP-DX=4.24
##DATA TYPE=INFRARED SPECTRUM
##ORIGIN=Sadtler Research Labs Under US-EPA Contract
##OWNER=NIST Standard Reference Data Program
##CAS REGISTRY NO=20589-85-9
##MOLFORM=C 3 H 2 Cl 4
##XUNITS=1/CM
##YUNITS=ABSORBANCE
##XFACTOR=1.0
##YFACTOR=0.000081738
##DELTAX=4.0
##FIRSTX=450.0
##LASTX=3966.0
##FIRSTY=0.026810
##MAXX=3966
##MINX=450
##MAXY=0.81738
##MINY=0
##NPOINTS=880
##XYDATA=(X++(Y..Y))
450.0 328 235 504 680 660 827 975 730 798 660
490.0 534 479 504 239 255 339 248 66 230 157
530.0 179 208 34 182 677 698 1045 822 1111 884
570.0 548 441 446 1006 1360 1570 1259 993 629 251
610.0 43 482 461 520 665 742 761 991 909 729
650.0 761 1081 644 686 741 590 1155 1279 1236 1239
690.0 1117 1062 826 1066 1432 2124 3209 4207 5329 5675
730.0 5624 5620 5473 6179 7463 7408 8380 9235 9081 9259
770.0 8748 7156 5657 4600 3161 1950 1752 1544 1742 2772
810.0 4062 6130 8871 10000 9862 9679 9665 7440 5134 2362
850.0 958 803 732 573 627 565 548 538 525 922
890.0 1341 1997 2599 2739 2449 1783 1055 660 665 737
930.0 580 577 510 344 385 359 242 308 360 306
970.0 253 266 280 192 283 147 188 256 233 211
1010.0 221 211 293 235 232 231 310 300 309 313
1050.0 380 468 507 528 794 1102 1474 2122 2469 2688
1090.0 2646 2014 1388 945 882 1015 1216 1461 1418 1461
1130.0 1200 820 607 485 342 350 306 306 334 336
1170.0 336 336 414 450 435 590 768 1212 1644 2199
1210.0 2623 2984 2262 1995 1668 1587 1577 1281 990 790
1250.0 656 526 526 456 506 714 763 796 903 784
1290.0 747 655 548 418 395 364 256 284 260 226
1330.0 231 183 200 220 207 214 197 218 260 226
1370.0 192 248 210 230 187 230 169 233 248 155
1410.0 194 231 179 232 204 217 225 305 203 194
1450.0 263 216 228 200 189 176 252 154 172 175
1490.0 209 172 175 189 201 214 181 156 245 179
1530.0 209 160 161 293 214 173 238 245 281 284
1570.0 322 379 598 742 937 1323 1726 1907 2138 2238
1610.0 2247 2382 2328 2048 1697 1408 1196 1026 747 516
1650.0 404 426 288 295 305 309 258 197 163 252
1690.0 139 155 199 217 205 199 199 188 246 205
1730.0 195 285 224 222 254 204 235 259 261 211
1770.0 248 235 201 186 183 115 195 165 130 119
1810.0 96 116 93 62 103 71 93 85 64 98
1850.0 93 100 39 75 81 84 61 84 29 86
1890.0 86 32 47 79 54 48 56 56 37 103
1930.0 29 32 75 63 65 60 65 57 83 65
1970.0 60 63 83 60 58 50 87 65 43 58
2010.0 61 34 90 24 36 66 61 36 51 59
2050.0 49 63 72 27 76 95 46 58 89 69
2090.0 88 63 56 66 80 71 35 89 63 75
2130.0 58 45 83 59 60 65 49 92 72 55
2170.0 48 74 65 56 56 67 63 101 69 27
2210.0 106 66 57 75 62 71 74 74 43 57
2250.0 94 36 63 56 65 74 77 49 79 71
2290.0 92 67 68 108 98 96 89 107 144 131
2330.0 177 117 173 228 104 90 122 149 158 223
2370.0 122 157 175 112 47 91 65 56 103 90
2410.0 91 139 95 83 66 111 91 80 103 86
2450.0 114 101 102 103 110 118 97 66 104 114
2490.0 94 117 125 124 148 113 100 79 141 74
2530.0 82 107 71 110 99 69 86 114 87 63
2570.0 89 91 86 102 74 68 101 81 53 90
2610.0 57 102 57 69 76 80 94 80 70 89
2650.0 100 111 41 113 104 85 116 97 83 141
2690.0 121 77 117 115 97 79 107 85 107 116
2730.0 60 88 109 74 108 67 113 95 103 84
2770.0 92 106 122 97 90 114 145 107 95 142
2810.0 119 132 152 90 135 169 140 138 151 197
2850.0 139 210 160 149 215 204 146 208 217 213
2890.0 211 186 172 202 193 170 159 224 191 219
2930.0 175 195 254 185 215 196 197 247 216 183
2970.0 203 223 187 172 199 147 230 288 268 286
3010.0 362 236 246 275 298 310 278 228 149 183
3050.0 180 112 191 200 257 343 439 537 572 658
3090.0 776 855 1065 993 778 484 295 224 146 150
3130.0 155 97 185 175 67 165 134 138 127 145
3170.0 110 133 178 84 110 143 107 108 128 94
3210.0 153 158 110 110 149 168 130 109 168 119
3250.0 181 107 153 133 149 175 89 108 194 123
3290.0 89 139 108 125 156 96 91 148 155 52
3330.0 128 163 86 197 94 112 156 184 125 110
3370.0 159 163 149 155 97 147 145 126 111 117
3410.0 117 143 57 123 129 86 125 84 121 127
3450.0 167 107 80 184 121 106 169 94 144 162
3490.0 129 70 167 119 114 84 123 79 141 108
3530.0 31 105 105 74 75 64 129 77 88 92
3570.0 103 114 89 98 63 156 129 87 83 125
3610.0 89 140 105 80 99 167 51 72 87 87
3650.0 71 109 63 72 130 79 79 134 107 67
3690.0 114 75 101 122 121 92 114 128 130 118
3730.0 95 146 185 81 209 104 133 125 89 60
3770.0 99 97 65 70 92 60 108 136 79 110
3810.0 176 108 131 175 136 165 167 175 138 228
3850.0 175 165 162 149 172 154 104 123 119 128
3890.0 92 60 86 152 99 82 118 142 136 154
3930.0 151 135 238 196 169 244 0 19 20 20
##END=
