##TITLE=Diethyl bis(hydroxymethyl)malonate
##JCAMP-DX=4.24
##DATA TYPE=INFRARED SPECTRUM
##ORIGIN=Sadtler Research Labs Under US-EPA Contract
##OWNER=NIST Standard Reference Data Program
##CAS REGISTRY NO=20605-01-0
##MOLFORM=C 9 H 16 O 6
##XUNITS=1/CM
##YUNITS=ABSORBANCE
##XFACTOR=1.0
##YFACTOR=0.000092441
##DELTAX=4.0
##FIRSTX=450.0
##LASTX=3966.0
##FIRSTY=0.003235
##MAXX=3966
##MINX=450
##MAXY=0.92441
##MINY=0
##NPOINTS=880
##XYDATA=(X++(Y..Y))
450.0 35 107 43 16 150 145 84 157 42 75
490.0 118 109 142 107 111 125 143 82 115 107
530.0 127 119 121 119 95 95 72 64 93 94
570.0 112 126 140 184 157 183 159 142 118 97
610.0 92 76 45 29 0 11 9 11 7 19
650.0 9 9 3 8 34 58 56 71 75 87
690.0 104 129 151 164 148 133 98 90 59 63
730.0 46 39 35 36 32 46 59 54 69 60
770.0 73 81 102 101 116 97 99 104 112 120
810.0 111 124 117 121 122 131 150 182 230 301
850.0 434 604 785 912 898 746 558 389 273 228
890.0 208 192 181 179 170 184 213 245 287 347
930.0 374 366 340 309 270 270 281 293 311 332
970.0 358 393 428 486 563 672 799 957 1156 1435
1010.0 1771 2208 2725 3374 4177 5169 6281 7277 7802 7655
1050.0 6953 5927 4970 4221 3790 3635 3723 3910 4062 4135
1090.0 4173 4267 4363 4355 4154 3852 3563 3379 3232 3081
1130.0 2897 2684 2489 2348 2293 2298 2362 2490 2697 2972
1170.0 3325 3729 4166 4583 4961 5312 5665 6062 6474 6923
1210.0 7278 7545 7662 7779 7829 7810 7673 7405 7130 6887
1250.0 6764 6641 6451 6113 5695 5203 4774 4472 4292 4231
1290.0 4169 4065 3877 3622 3302 2946 2566 2199 1897 1605
1330.0 1366 1188 1057 974 919 889 900 973 1172 1531
1370.0 1885 2062 1992 1803 1657 1645 1661 1655 1599 1518
1410.0 1413 1283 1147 991 846 737 673 656 674 710
1450.0 775 847 978 1143 1288 1396 1319 1134 866 628
1490.0 437 329 253 219 189 147 129 113 111 100
1530.0 98 89 90 71 71 71 66 53 56 40
1570.0 38 32 41 29 32 31 32 33 37 41
1610.0 42 45 52 50 58 57 70 70 78 84
1650.0 93 111 142 143 178 215 247 311 368 457
1690.0 552 673 813 984 1205 1500 1949 2628 3651 5001
1730.0 6644 8073 9295 9719 10000 9502 8963 8000 6556 5023
1770.0 3691 2664 1941 1478 1148 917 742 611 497 414
1810.0 342 285 238 201 167 140 115 101 85 78
1850.0 67 64 59 54 53 49 50 52 54 47
1890.0 49 44 44 35 34 30 27 26 22 21
1930.0 23 22 26 23 26 26 27 27 28 24
1970.0 22 24 19 20 16 15 12 14 14 15
2010.0 16 15 16 20 23 22 27 31 33 39
2050.0 40 48 53 58 59 63 69 72 70 73
2090.0 70 65 62 62 55 51 45 42 37 34
2130.0 33 29 26 22 21 20 18 16 15 12
2170.0 12 7 7 8 4 0 1 2 1 4
2210.0 4 4 5 6 5 7 8 8 10 8
2250.0 5 9 7 7 7 6 9 15 15 26
2290.0 28 31 46 52 54 61 56 52 57 50
2330.0 54 47 38 39 62 59 72 57 50 43
2370.0 43 36 53 58 43 26 25 23 25 27
2410.0 29 30 27 25 26 23 19 23 20 20
2450.0 21 18 23 21 20 17 18 15 13 14
2490.0 9 14 7 11 9 6 5 4 1 6
2530.0 8 4 3 0 4 5 4 2 5 7
2570.0 5 5 7 4 6 12 6 8 7 9
2610.0 13 12 15 12 11 10 11 10 11 9
2650.0 15 19 17 13 24 30 37 29 34 43
2690.0 45 46 50 65 71 77 85 82 94 109
2730.0 145 141 148 147 168 180 175 162 165 194
2770.0 209 166 219 224 160 165 182 239 290 270
2810.0 284 273 288 317 288 290 297 283 269 302
2850.0 309 331 349 424 489 526 602 720 877 1045
2890.0 1148 1306 1397 1294 1230 1189 1152 1120 1113 1164
2930.0 1217 1383 1643 1935 2140 2191 2081 1954 1942 2032
2970.0 2185 2403 2699 3121 3495 3506 3114 2528 2031 1667
3010.0 1356 1092 869 691 551 435 352 290 249 218
3050.0 190 170 147 136 129 121 114 99 92 92
3090.0 82 83 81 75 75 66 71 69 62 64
3130.0 62 60 55 48 47 44 47 44 45 42
3170.0 40 35 36 34 30 29 25 27 28 19
3210.0 21 24 21 21 19 18 17 14 12 12
3250.0 8 6 5 7 7 7 6 6 4 6
3290.0 3 1 3 1 8 10 10 14 12 10
3330.0 9 14 16 19 13 14 17 19 19 18
3370.0 17 25 27 26 28 26 33 31 35 43
3410.0 45 49 55 60 70 68 71 86 88 97
3450.0 103 105 106 120 126 135 129 132 135 130
3490.0 124 118 124 129 113 111 110 106 104 122
3530.0 121 136 155 173 208 241 300 375 494 655
3570.0 798 940 1046 1140 1209 1250 1245 1201 1145 1062
3610.0 988 910 879 889 888 862 778 687 599 532
3650.0 489 444 420 390 343 314 262 240 179 154
3690.0 132 112 98 102 94 94 91 81 68 95
3730.0 81 87 81 80 93 68 69 39 48 44
3770.0 47 39 27 45 32 40 35 26 25 35
3810.0 22 30 33 30 17 13 32 28 19 19
3850.0 12 36 31 16 17 30 6 24 27 34
3890.0 30 29 9 28 29 7 1 33 28 26
3930.0 14 23 20 3 22 30 40 12 33 32
##END=
