##TITLE=Pyran, 4-phenyltetrahydro-,
##JCAMP-DX=4.24
##DATA TYPE=INFRARED SPECTRUM
##ORIGIN=Sadtler Research Labs Under US-EPA Contract
##OWNER=NIST Standard Reference Data Program
##CAS REGISTRY NO=20638-52-2
##MOLFORM=C 11 H 14 O
##XUNITS=1/CM
##YUNITS=ABSORBANCE
##XFACTOR=1.0
##YFACTOR=0.000072021
##DELTAX=4.0
##FIRSTX=450.0
##LASTX=3966.0
##FIRSTY=0.012316
##MAXX=3966
##MINX=450
##MAXY=0.72021
##MINY=0
##NPOINTS=880
##XYDATA=(X++(Y..Y))
450.0 171 172 239 226 305 247 181 173 205 216
490.0 219 244 257 321 380 518 671 881 1044 1225
530.0 1473 1695 1708 1579 1135 660 353 188 112 87
570.0 68 51 56 65 31 19 8 27 18 11
610.0 17 28 19 32 36 34 78 131 170 190
650.0 190 189 207 312 348 547 646 841 1291 1985
690.0 2986 3708 4232 3888 3170 2296 1644 1260 1094 1064
730.0 1143 1327 1611 1968 2268 2431 2300 1970 1486 1050
770.0 726 508 395 328 299 296 272 279 287 269
810.0 273 257 249 290 394 654 966 1092 1065 790
850.0 451 301 209 178 154 180 221 294 466 787
890.0 1251 1658 1803 1566 1144 795 613 533 439 340
930.0 251 189 135 112 98 101 116 152 211 320
970.0 461 640 818 915 912 803 694 673 839 1147
1010.0 1576 2318 2768 2750 2491 1743 1054 747 598 547
1050.0 577 713 920 1203 1525 1828 2081 2302 2536 2752
1090.0 2932 2985 2903 2685 2438 2304 2380 2794 3541 4452
1130.0 5242 5656 5431 4706 3723 2759 1974 1440 1133 968
1170.0 893 833 793 748 721 716 719 707 654 620
1210.0 608 654 769 1007 1358 1799 2224 2481 2460 2216
1250.0 1951 1770 1730 1624 1416 1081 757 610 562 567
1290.0 594 653 684 683 623 528 448 404 390 405
1330.0 426 427 437 429 461 539 636 724 834 927
1370.0 990 1154 1565 2418 2742 2560 1909 813 307 219
1410.0 193 222 276 342 406 508 645 934 1296 1532
1450.0 1652 1541 1280 1095 1033 978 922 826 776 1045
1490.0 1446 1668 1697 1449 1051 737 468 262 207 162
1530.0 170 150 159 146 120 83 84 106 107 99
1570.0 138 182 253 335 433 579 776 1077 1308 1290
1610.0 1029 616 285 136 110 87 122 137 152 156
1650.0 161 140 106 74 82 88 93 81 101 116
1690.0 108 122 166 171 159 143 159 191 179 196
1730.0 247 308 333 397 471 479 446 380 344 324
1770.0 368 390 406 442 465 471 456 388 305 203
1810.0 157 143 121 106 88 85 71 75 89 121
1850.0 119 130 138 150 163 181 180 160 143 119
1890.0 118 109 106 100 93 95 97 118 147 171
1930.0 208 238 263 269 270 268 265 238 202 154
1970.0 119 99 84 71 56 45 35 23 17 21
2010.0 23 27 33 42 42 39 34 30 26 20
2050.0 9 8 9 6 6 2 1 2 2 0
2090.0 4 6 6 9 7 10 8 13 15 14
2130.0 11 12 9 7 8 6 5 7 5 3
2170.0 2 2 10 13 17 20 21 22 21 24
2210.0 19 18 22 20 20 19 21 28 31 31
2250.0 34 33 34 28 28 34 39 42 44 45
2290.0 44 52 63 72 84 102 100 93 82 58
2330.0 55 47 58 60 73 71 70 64 64 45
2370.0 53 57 66 63 52 37 28 25 28 25
2410.0 26 21 15 11 8 8 11 12 12 21
2450.0 25 32 27 25 18 18 24 22 18 18
2490.0 18 19 24 22 21 24 28 34 35 42
2530.0 37 33 28 29 26 25 31 29 35 43
2570.0 46 59 65 70 82 84 91 93 97 100
2610.0 102 105 99 94 91 93 91 91 101 103
2650.0 107 109 116 131 151 182 231 289 363 449
2690.0 535 597 613 599 567 541 515 483 444 396
2730.0 356 341 359 415 519 651 792 865 851 739
2770.0 574 436 352 306 283 284 307 345 408 506
2810.0 649 879 1242 1824 2694 3929 5586 7654 9455 10000
2850.0 9234 7195 5333 4162 3415 2957 2649 2414 2154 1885
2890.0 1621 1443 1386 1487 1775 2276 2992 3879 4873 5712
2930.0 6539 7358 8107 8745 8803 8119 7323 6980 7572 9265
2970.0 9671 8720 6634 3724 2033 1238 827 680 645 694
3010.0 783 933 1173 1559 2117 2681 3015 3036 2752 2292
3050.0 1891 1694 1718 2104 2828 3364 3432 3081 2388 1855
3090.0 1647 1485 1314 1120 938 774 622 476 339 229
3130.0 152 119 95 85 77 81 81 88 95 101
3170.0 103 100 94 86 76 65 56 54 57 62
3210.0 61 61 53 47 40 34 34 31 27 19
3250.0 19 25 20 19 18 18 17 18 12 19
3290.0 25 27 27 30 22 29 27 25 32 25
3330.0 30 29 28 27 24 29 27 26 24 27
3370.0 27 34 29 32 39 38 44 45 42 47
3410.0 47 43 37 36 38 35 40 35 41 35
3450.0 40 35 29 28 35 38 43 51 55 44
3490.0 46 39 39 37 31 24 28 24 23 21
3530.0 27 28 23 33 33 24 19 22 24 35
3570.0 35 36 39 41 35 36 37 10 14 18
3610.0 30 26 33 29 33 46 31 29 35 43
3650.0 63 59 53 42 30 49 41 49 16 47
3690.0 40 41 37 39 36 38 45 38 34 49
3730.0 43 54 51 46 70 42 52 22 26 32
3770.0 35 39 38 35 22 22 25 23 19 46
3810.0 38 46 39 41 40 38 31 48 35 32
3850.0 33 55 46 35 48 54 44 40 32 32
3890.0 29 43 24 50 36 40 34 51 58 35
3930.0 55 35 45 43 54 40 51 33 50 52
##END=
