##TITLE=Benzoic acid, 2,6-dimethoxy-, methyl ester
##JCAMP-DX=4.24
##DATA TYPE=INFRARED SPECTRUM
##ORIGIN=Sadtler Research Labs Under US-EPA Contract
##OWNER=NIST Standard Reference Data Program
##CAS REGISTRY NO=2065-27-2
##MOLFORM=C 10 H 12 O 4
##XUNITS=1/CM
##YUNITS=ABSORBANCE
##XFACTOR=1.0
##YFACTOR=0.000130740
##DELTAX=4.0
##FIRSTX=450.0
##LASTX=3966.0
##FIRSTY=0.175061
##MAXX=3966
##MINX=450
##MAXY=1.3074
##MINY=0
##NPOINTS=880
##XYDATA=(X++(Y..Y))
450.0 1339 637 93 230 489 307 473 147 273 402
490.0 310 403 346 344 300 240 355 280 367 295
530.0 379 256 119 298 223 9 225 329 144 332
570.0 280 249 302 277 287 280 336 286 333 353
610.0 351 408 428 448 441 417 380 343 317 303
650.0 284 333 288 245 275 257 295 228 235 234
690.0 264 336 344 411 504 617 795 926 1166 1326
730.0 1425 1247 1158 919 697 518 525 482 514 557
770.0 509 523 489 499 572 629 732 776 763 692
810.0 614 651 695 877 937 792 560 419 298 248
850.0 257 232 240 235 245 239 254 239 248 259
890.0 229 221 237 237 250 242 260 275 283 256
930.0 246 247 232 243 263 281 316 372 412 491
970.0 532 491 427 378 382 411 449 507 579 655
1010.0 732 794 864 893 913 959 982 1021 1048 1117
1050.0 1225 1453 1854 2521 3237 3732 3818 3660 3468 3581
1090.0 4125 4948 6384 8009 9377 9928 9423 8119 6474 4966
1130.0 3677 2727 2008 1512 1224 1045 923 844 807 849
1170.0 893 939 964 944 941 935 916 871 816 766
1210.0 779 835 942 1132 1436 1881 2572 3650 5159 7068
1250.0 8802 9894 10000 8951 7557 6084 5100 4724 4685 4894
1290.0 5057 4973 4689 4058 3343 2622 1998 1531 1200 993
1330.0 870 773 719 652 588 542 506 496 497 476
1370.0 465 475 454 452 459 464 493 518 552 602
1410.0 697 759 978 1266 1813 2626 3338 3484 3073 2345
1450.0 1736 1625 1912 2509 3518 4939 5913 5840 4715 3115
1490.0 1943 1276 956 793 716 681 628 611 625 574
1530.0 578 588 602 671 705 727 826 1008 1190 1383
1570.0 1725 2109 2488 3227 3711 4547 5473 5147 4730 3253
1610.0 2061 1378 1025 804 699 571 550 505 471 462
1650.0 465 458 414 422 429 440 471 430 446 441
1690.0 424 414 469 506 589 660 789 900 903 956
1730.0 996 1150 1426 2093 3453 5151 7044 8175 6750 4716
1770.0 2881 1620 1073 902 803 739 642 516 424 319
1810.0 298 272 264 265 262 272 245 227 228 207
1850.0 178 159 157 143 134 155 128 124 137 155
1890.0 187 191 193 204 202 194 178 198 211 210
1930.0 223 234 227 223 193 159 145 124 112 115
1970.0 103 101 103 113 111 110 101 89 84 74
2010.0 80 86 92 93 91 97 98 94 93 89
2050.0 88 83 84 92 105 112 120 122 122 112
2090.0 109 97 89 93 84 83 90 98 94 99
2130.0 98 114 115 124 135 138 147 154 158 156
2170.0 146 157 167 165 167 162 157 158 155 138
2210.0 136 122 104 88 79 65 57 50 46 41
2250.0 35 33 34 34 31 35 34 28 32 28
2290.0 39 50 60 56 66 71 70 62 57 71
2330.0 69 64 74 68 107 85 31 34 71 100
2370.0 128 130 133 116 86 65 56 46 44 32
2410.0 27 20 21 21 17 18 22 18 16 17
2450.0 15 19 18 23 32 18 22 16 20 21
2490.0 16 13 11 7 10 13 9 14 13 33
2530.0 41 31 20 24 26 37 46 57 70 74
2570.0 76 71 66 69 61 62 55 52 52 50
2610.0 53 45 43 43 49 47 50 49 48 47
2650.0 41 46 43 35 23 25 18 24 33 38
2690.0 42 44 49 56 58 58 54 54 62 69
2730.0 63 63 64 56 52 62 60 65 72 72
2770.0 68 64 59 63 67 65 70 85 107 124
2810.0 144 169 206 252 305 391 544 824 1158 1371
2850.0 1363 1144 842 616 506 458 449 471 500 559
2890.0 630 709 776 819 856 902 935 963 974 972
2930.0 1014 1161 1433 1813 2182 2513 2767 2806 2630 2279
2970.0 1763 1313 1050 894 843 866 942 1075 1256 1438
3010.0 1523 1467 1289 1035 838 705 623 540 477 416
3050.0 379 358 347 360 386 414 441 466 489 513
3090.0 517 498 448 366 285 219 168 146 125 111
3130.0 104 92 83 76 57 55 48 49 47 38
3170.0 41 45 46 37 32 31 27 18 12 6
3210.0 14 13 17 6 16 14 10 26 34 30
3250.0 37 45 43 44 38 44 40 39 46 57
3290.0 55 56 58 63 63 63 69 61 68 61
3330.0 54 65 68 67 69 70 73 76 77 73
3370.0 70 83 71 66 79 84 69 58 81 66
3410.0 85 73 85 78 63 69 73 70 75 63
3450.0 75 72 58 52 54 77 76 75 55 73
3490.0 97 116 117 91 81 78 68 41 50 47
3530.0 55 61 43 43 57 52 61 67 43 63
3570.0 64 79 39 43 18 45 30 33 61 30
3610.0 17 29 32 47 36 34 39 66 37 7
3650.0 16 23 56 56 27 13 61 44 26 31
3690.0 19 52 46 40 35 18 32 27 37 33
3730.0 23 26 43 35 21 17 56 74 59 27
3770.0 31 39 38 30 39 35 43 37 26 31
3810.0 29 12 54 44 64 29 30 38 74 83
3850.0 13 19 58 77 45 1 33 35 61 33
3890.0 38 40 23 21 24 24 0 48 1 1
3930.0 1 0 42 69 70 1 2 4 4 7
##END=
