##TITLE=Ether, o-bromophenyl 3-nitro-.alpha.,.alpha.,.alpha.-trifluoro-p-tolyl-,
##JCAMP-DX=4.24
##DATA TYPE=INFRARED SPECTRUM
##ORIGIN=Sadtler Research Labs Under US-EPA Contract
##OWNER=NIST Standard Reference Data Program
##CAS REGISTRY NO=2069-14-9
##MOLFORM=C 13 H 7 Br F 3 N O 3
##XUNITS=1/CM
##YUNITS=ABSORBANCE
##XFACTOR=1.0
##YFACTOR=0.000117947
##DELTAX=4.0
##FIRSTX=450.0
##LASTX=3966.0
##FIRSTY=0.000000
##MAXX=3966
##MINX=450
##MAXY=1.17947
##MINY=0
##NPOINTS=880
##XYDATA=(X++(Y..Y))
450.0 0 114 268 298 367 170 198 312 322 211
490.0 285 246 308 376 275 277 384 321 245 282
530.0 213 252 262 236 345 204 117 223 295 248
570.0 195 276 172 151 253 283 164 214 231 244
610.0 337 256 226 258 293 368 317 339 362 323
650.0 279 318 377 367 275 180 266 427 560 536
690.0 416 278 243 200 293 225 244 230 289 295
730.0 337 408 548 744 886 745 711 626 569 524
770.0 630 772 726 519 356 254 274 287 307 355
810.0 338 337 398 515 661 671 576 469 431 413
850.0 486 610 813 847 580 398 254 209 207 230
890.0 230 307 315 455 537 468 339 279 233 245
930.0 229 273 226 237 198 176 220 207 262 248
970.0 242 200 234 203 213 198 162 215 184 251
1010.0 246 242 314 388 507 569 590 572 763 1080
1050.0 1147 810 499 387 432 528 657 730 724 890
1090.0 1233 1869 2669 2852 2167 1329 1014 913 931 889
1130.0 937 1088 1445 2089 3245 4767 5593 4497 2990 2127
1170.0 1960 2315 3095 3450 2766 1820 1242 1065 1110 1297
1210.0 1438 1292 1060 947 955 1030 1134 1312 1573 1996
1250.0 2422 2667 2909 3501 4483 5310 5380 4335 3059 2288
1290.0 1932 1787 1688 1622 1680 1930 2907 5210 8868 10000
1330.0 5763 2787 1545 1297 1269 1425 1639 1694 1534 1202
1370.0 949 792 662 583 517 468 453 448 464 473
1410.0 515 565 583 575 534 511 526 643 923 995
1450.0 744 574 697 1003 1674 2588 2922 1926 1132 798
1490.0 848 907 976 1129 1154 1107 980 897 892 985
1530.0 1083 1245 1356 1599 2004 2563 3201 3357 2843 2214
1570.0 1914 1833 1890 1948 1923 1814 1610 1364 1109 903
1610.0 892 942 1219 1533 1749 1603 1201 830 642 566
1650.0 539 457 541 567 586 579 605 581 537 439
1690.0 380 355 292 309 340 328 275 207 194 181
1730.0 157 123 125 144 148 139 155 157 167 195
1770.0 176 188 192 194 183 182 166 179 173 166
1810.0 163 154 146 138 127 129 125 136 121 119
1850.0 122 136 127 120 133 126 134 137 139 145
1890.0 139 149 162 170 183 193 188 172 157 151
1930.0 145 150 150 152 152 148 140 133 126 125
1970.0 124 123 122 121 124 123 125 129 128 131
2010.0 130 130 134 137 138 135 134 134 133 136
2050.0 136 141 141 145 153 150 151 147 143 137
2090.0 136 134 134 129 128 129 130 133 136 137
2130.0 133 129 128 125 121 122 120 120 122 122
2170.0 125 126 126 121 122 126 120 121 117 120
2210.0 119 124 125 128 128 128 129 131 135 137
2250.0 139 137 141 134 132 131 139 142 146 146
2290.0 145 154 158 161 164 165 168 163 161 156
2330.0 165 164 162 154 160 153 161 156 166 162
2370.0 156 151 147 149 146 132 134 134 133 135
2410.0 143 141 142 141 144 140 142 138 144 148
2450.0 148 150 154 156 157 157 160 161 159 156
2490.0 149 146 145 147 145 147 146 148 152 150
2530.0 155 152 153 156 154 155 154 153 156 153
2570.0 153 148 152 151 151 152 155 152 152 148
2610.0 144 145 145 144 145 140 145 148 146 149
2650.0 153 147 145 138 140 143 142 147 143 142
2690.0 143 144 145 147 149 149 146 146 145 150
2730.0 148 151 147 146 152 147 147 149 156 151
2770.0 154 152 152 155 156 148 155 160 157 151
2810.0 158 159 161 168 172 169 170 169 172 173
2850.0 178 180 180 184 184 184 184 188 192 195
2890.0 196 193 204 204 209 206 205 197 191 194
2930.0 194 192 191 187 189 187 178 177 175 171
2970.0 175 172 167 168 170 168 167 169 176 173
3010.0 181 182 186 180 180 181 184 183 184 187
3050.0 187 188 202 213 233 273 323 389 419 386
3090.0 331 275 220 191 171 166 155 160 157 157
3130.0 157 150 156 152 150 155 154 148 149 147
3170.0 151 148 148 146 150 151 142 144 148 143
3210.0 157 149 144 153 148 149 153 147 148 145
3250.0 147 149 155 143 142 143 151 148 151 152
3290.0 156 152 149 153 155 158 147 155 167 160
3330.0 161 164 159 151 154 168 164 159 167 159
3370.0 153 151 162 159 161 157 160 155 160 156
3410.0 164 161 145 147 149 150 143 145 141 153
3450.0 154 147 168 157 141 141 149 161 142 147
3490.0 145 150 154 146 149 152 137 144 144 159
3530.0 153 149 159 165 159 145 142 161 145 163
3570.0 156 151 158 152 154 170 151 164 158 153
3610.0 160 161 150 144 156 137 154 161 156 148
3650.0 155 133 159 156 159 156 120 139 144 174
3690.0 148 158 172 161 172 152 144 175 165 177
3730.0 159 144 174 146 147 111 163 131 175 150
3770.0 154 159 143 148 173 169 180 146 164 146
3810.0 150 130 132 137 161 163 177 132 154 149
3850.0 174 123 126 171 148 143 153 151 167 142
3890.0 117 114 141 148 151 176 176 146 152 148
3930.0 130 168 139 144 155 165 119 126 154 160
##END=
