##TITLE=Benzene, 1,2,4-trichloro-3-methyl-
##JCAMP-DX=4.24
##DATA TYPE=INFRARED SPECTRUM
##ORIGIN=Sadtler Research Labs Under US-EPA Contract
##OWNER=NIST Standard Reference Data Program
##CAS REGISTRY NO=2077-46-5
##MOLFORM=C 7 H 5 Cl 3
##XUNITS=1/CM
##YUNITS=ABSORBANCE
##XFACTOR=1.0
##YFACTOR=0.000037509
##DELTAX=4.0
##FIRSTX=450.0
##LASTX=3966.0
##FIRSTY=0.021380
##MAXX=3966
##MINX=450
##MAXY=0.37509
##MINY=0
##NPOINTS=880
##XYDATA=(X++(Y..Y))
450.0 570 224 794 513 268 421 745 1022 1265 1436
490.0 1157 464 631 200 172 20 101 530 210 242
530.0 107 363 237 298 598 560 866 934 627 754
570.0 1321 1106 1301 1186 939 1136 1742 2575 2792 2520
610.0 1444 830 467 385 272 67 44 41 159 290
650.0 285 349 473 514 453 39 118 137 32 60
690.0 204 24 210 141 161 100 45 207 159 288
730.0 239 179 72 70 307 189 234 206 572 768
770.0 1361 2340 3100 3670 3882 3478 3803 3995 5614 6295
810.0 5440 2910 2249 941 234 222 170 270 237 326
850.0 544 704 851 745 1053 1308 1639 1760 1667 1287
890.0 671 319 341 211 223 291 200 133 142 148
930.0 177 204 205 194 181 213 289 358 390 510
970.0 701 890 1111 1415 1842 2174 2516 2959 3205 3312
1010.0 3303 3059 2637 2102 1745 1522 1382 1515 1492 1424
1050.0 1396 1365 1370 1317 1268 1326 1525 2212 3284 5105
1090.0 6197 6400 5662 3822 2243 1617 1210 872 773 572
1130.0 633 575 548 485 344 358 407 540 810 1234
1170.0 1917 2756 3799 4586 4577 3899 2731 1586 971 707
1210.0 535 426 354 302 278 241 191 210 226 185
1250.0 195 173 221 282 313 279 216 143 111 112
1290.0 137 119 125 167 162 190 169 175 216 244
1330.0 287 388 525 613 626 717 860 1083 1404 1882
1370.0 2691 3671 4434 4773 4536 3666 2799 2195 1737 1512
1410.0 1577 1747 2319 3351 4996 7471 9471 10000 9058 6950
1450.0 4715 3385 2721 2104 1806 1476 1354 1297 1196 1178
1490.0 1104 1051 949 781 660 511 510 447 446 440
1530.0 476 522 558 687 835 1027 1177 1254 1213 1159
1570.0 958 792 685 541 478 414 347 387 360 420
1610.0 439 368 345 228 170 94 100 82 65 116
1650.0 66 79 85 121 91 96 76 74 75 59
1690.0 74 79 66 49 95 70 106 112 107 171
1730.0 191 248 222 228 193 131 86 90 71 67
1770.0 67 47 54 53 63 58 40 43 54 39
1810.0 49 44 42 46 40 26 43 37 54 58
1850.0 86 97 152 217 298 393 377 349 261 156
1890.0 86 46 32 26 21 22 24 12 16 20
1930.0 27 31 27 28 20 26 34 30 27 18
1970.0 28 27 26 28 19 34 20 34 31 21
2010.0 34 28 33 39 20 22 15 18 29 22
2050.0 30 22 16 15 18 18 12 9 27 11
2090.0 9 11 10 14 21 16 15 13 13 14
2130.0 17 19 20 16 14 24 22 28 28 22
2170.0 31 20 14 17 25 23 19 21 14 14
2210.0 25 29 29 23 15 18 22 30 30 32
2250.0 38 45 46 51 63 66 59 54 54 55
2290.0 56 58 74 86 90 101 91 67 73 60
2330.0 81 55 47 98 0 124 71 111 24 16
2370.0 30 18 36 55 54 45 29 20 23 41
2410.0 43 37 40 37 40 36 36 47 57 54
2450.0 54 54 42 40 46 44 33 31 47 41
2490.0 44 37 37 42 41 40 37 31 29 21
2530.0 22 10 10 10 14 17 15 25 36 25
2570.0 30 32 30 30 30 29 31 31 34 44
2610.0 43 22 32 29 40 42 45 50 57 58
2650.0 55 54 45 41 27 26 31 23 30 28
2690.0 25 33 29 23 33 25 35 30 38 37
2730.0 44 47 48 70 79 80 68 64 74 71
2770.0 82 58 62 50 60 62 77 87 100 108
2810.0 99 101 92 78 80 86 81 91 100 100
2850.0 125 139 154 181 212 231 248 247 237 238
2890.0 224 227 221 232 238 269 288 315 372 447
2930.0 546 676 820 939 979 951 871 768 672 578
2970.0 497 407 342 288 254 242 220 214 204 200
3010.0 188 197 218 219 225 246 242 256 263 277
3050.0 274 269 280 275 259 270 294 293 292 249
3090.0 212 153 132 114 104 86 81 77 66 86
3130.0 65 78 50 43 50 44 52 49 45 57
3170.0 34 33 25 42 47 34 34 31 33 28
3210.0 43 32 41 35 33 20 20 33 34 32
3250.0 18 28 23 33 13 26 23 31 31 29
3290.0 15 34 12 40 44 38 37 35 23 34
3330.0 28 44 24 34 33 25 27 32 29 21
3370.0 48 49 23 9 52 52 24 28 22 13
3410.0 11 41 27 28 15 24 34 27 32 28
3450.0 29 42 37 53 18 16 35 33 44 50
3490.0 32 30 52 75 45 34 20 20 39 63
3530.0 75 48 41 64 63 62 39 66 51 73
3570.0 33 46 62 41 35 68 48 47 31 36
3610.0 39 55 71 38 62 35 58 44 101 36
3650.0 76 25 84 55 87 99 49 105 61 72
3690.0 44 105 89 52 64 87 86 108 93 102
3730.0 58 31 95 70 129 8 76 95 77 109
3770.0 154 140 72 110 125 92 113 87 103 70
3810.0 139 98 112 52 96 64 66 125 116 94
3850.0 129 95 107 72 112 107 84 173 152 156
3890.0 76 101 119 140 91 8 80 195 201 95
3930.0 79 23 83 180 89 149 172 51 29 24
##END=
