##TITLE=Propofol
##JCAMP-DX=4.24
##DATA TYPE=INFRARED SPECTRUM
##ORIGIN=Sadtler Research Labs Under US-EPA Contract
##OWNER=NIST Standard Reference Data Program
##CAS REGISTRY NO=2078-54-8
##MOLFORM=C 12 H 18 O
##XUNITS=1/CM
##YUNITS=ABSORBANCE
##XFACTOR=1.0
##YFACTOR=0.000132965
##DELTAX=4.0
##FIRSTX=450.0
##LASTX=3966.0
##FIRSTY=0.000000
##MAXX=3966
##MINX=450
##MAXY=1.32965
##MINY=0
##NPOINTS=880
##XYDATA=(X++(Y..Y))
450.0 0 175 240 170 219 187 217 210 207 221
490.0 224 230 221 285 270 316 295 313 317 365
530.0 349 353 339 327 299 272 244 307 226 260
570.0 285 345 372 404 444 309 264 273 248 216
610.0 218 216 222 202 220 228 213 223 228 232
650.0 248 266 271 306 311 346 316 289 249 223
690.0 224 213 221 207 226 211 236 244 236 279
730.0 530 1025 1707 2514 2997 2156 1438 800 414 311
770.0 290 330 480 586 771 1013 1009 843 710 539
810.0 545 647 885 1037 1059 871 581 361 260 221
850.0 215 209 214 216 215 226 235 267 290 291
890.0 279 251 239 238 261 303 393 516 648 717
930.0 677 572 456 389 351 336 327 333 320 310
970.0 304 281 301 310 312 315 322 327 336 336
1010.0 355 365 387 407 426 456 495 590 717 816
1050.0 859 861 852 824 774 700 626 630 662 712
1090.0 798 904 1049 1194 1289 1274 1141 964 834 789
1130.0 813 927 1154 1528 1949 2157 2038 1686 1363 1368
1170.0 1587 1740 1828 1824 1912 2253 2771 3312 3571 3448
1210.0 2941 2254 1631 1221 962 814 731 691 703 776
1250.0 955 1227 1519 1726 1690 1414 1101 830 714 746
1290.0 887 1131 1430 1749 1959 1959 1722 1361 1005 772
1330.0 678 679 739 819 873 892 908 938 1042 1168
1370.0 1224 1107 949 942 1014 1041 911 672 490 446
1410.0 439 479 525 615 742 957 1312 1821 2539 3199
1450.0 3773 3933 3797 3371 2898 2480 2042 1667 1267 938
1490.0 708 540 451 392 358 323 300 282 274 269
1530.0 260 263 254 241 219 219 211 213 219 224
1570.0 242 269 307 357 421 469 479 450 381 321
1610.0 285 262 245 236 233 245 274 302 304 284
1650.0 246 231 217 219 225 224 227 234 254 288
1690.0 294 284 265 238 221 209 203 196 198 196
1730.0 192 190 197 197 196 200 202 199 199 200
1770.0 197 203 205 214 223 240 236 231 212 202
1810.0 191 185 186 186 189 189 201 216 256 310
1850.0 339 324 280 226 200 195 194 192 193 191
1890.0 196 207 229 255 281 285 273 246 213 196
1930.0 188 186 182 180 177 178 178 181 183 181
1970.0 185 187 183 185 184 181 183 184 187 185
2010.0 185 182 184 183 182 180 176 173 174 174
2050.0 171 163 162 165 169 179 185 188 191 187
2090.0 183 180 178 181 187 187 187 186 189 193
2130.0 189 190 188 185 188 188 186 191 192 193
2170.0 191 189 188 186 185 185 183 183 182 184
2210.0 182 181 186 183 185 186 187 186 189 192
2250.0 194 194 197 202 206 208 209 205 204 199
2290.0 196 193 187 180 175 168 167 162 162 170
2330.0 168 179 183 189 202 184 164 181 193 215
2370.0 219 229 230 226 224 222 223 224 225 227
2410.0 228 225 223 219 214 208 205 204 203 205
2450.0 210 210 211 216 217 220 222 216 212 208
2490.0 204 201 202 202 201 203 201 198 197 196
2530.0 195 197 196 197 201 205 206 206 207 208
2570.0 212 214 212 215 218 220 226 228 230 231
2610.0 233 230 229 224 219 218 222 229 236 234
2650.0 230 233 238 243 251 259 259 259 252 246
2690.0 242 240 242 243 244 249 257 268 280 294
2730.0 302 299 295 288 276 273 272 278 287 289
2770.0 293 287 281 284 288 295 304 321 340 361
2810.0 387 412 438 456 474 488 502 519 549 589
2850.0 650 740 860 1046 1316 1740 2343 2967 3339 3294
2890.0 2931 2565 2353 2311 2332 2347 2343 2342 2415 2572
2930.0 2859 3241 3659 3975 4086 4076 4240 4975 6581 8618
2970.0 10000 9860 8073 5572 3516 2234 1560 1178 922 752
3010.0 664 619 607 616 654 729 834 944 1017 1038
3050.0 998 957 936 961 1034 1135 1226 1239 1156 984
3090.0 789 618 508 439 386 345 326 306 292 285
3130.0 277 281 281 280 278 277 279 278 282 289
3170.0 290 306 318 327 327 319 317 304 294 288
3210.0 287 279 280 279 278 269 273 274 265 259
3250.0 247 237 236 235 233 240 240 252 247 245
3290.0 247 228 223 224 212 213 207 208 207 203
3330.0 198 195 193 192 197 208 210 229 238 232
3370.0 239 241 248 249 248 246 248 247 239 236
3410.0 232 233 225 228 220 215 221 205 213 196
3450.0 206 211 209 204 197 199 201 203 196 191
3490.0 197 208 197 196 179 201 207 202 190 174
3530.0 188 189 182 185 179 177 192 191 194 162
3570.0 173 211 204 209 185 197 205 190 217 233
3610.0 234 249 279 332 421 534 790 1233 1951 2761
3650.0 3028 2792 2134 1487 1201 995 718 476 336 278
3690.0 207 206 188 165 165 162 162 164 162 161
3730.0 178 161 162 162 162 162 162 162 162 162
3770.0 162 162 165 173 162 173 167 165 162 173
3810.0 162 185 162 162 162 183 161 162 163 193
3850.0 193 167 171 170 162 172 174 197 164 165
3890.0 175 168 184 191 184 225 225 213 231 192
3930.0 190 162 175 162 162 168 217 210 220 202
##END=
