##TITLE=4-Ethyl-3-methylpyridine
##JCAMP-DX=4.24
##DATA TYPE=INFRARED SPECTRUM
##ORIGIN=Sadtler Research Labs Under US-EPA Contract
##OWNER=NIST Standard Reference Data Program
##CAS REGISTRY NO=20815-29-6
##MOLFORM=C 8 H 11 N
##XUNITS=1/CM
##YUNITS=ABSORBANCE
##XFACTOR=1.0
##YFACTOR=0.000075049
##DELTAX=4.0
##FIRSTX=450.0
##LASTX=3966.0
##FIRSTY=0.012683
##MAXX=3966
##MINX=450
##MAXY=0.75049
##MINY=0
##NPOINTS=880
##XYDATA=(X++(Y..Y))
450.0 169 276 361 122 60 209 92 91 48 252
490.0 323 415 436 507 487 307 203 128 102 72
530.0 72 60 55 62 81 163 226 391 450 583
570.0 640 675 471 386 316 379 303 325 413 425
610.0 348 309 208 129 84 48 5 22 14 2
650.0 7 15 13 31 22 1 14 12 12 37
690.0 35 57 70 108 121 158 215 247 311 428
730.0 517 610 610 588 470 297 224 150 128 126
770.0 117 151 208 302 276 309 379 413 463 678
810.0 1033 1634 2312 3009 3817 4152 3433 2732 1935 1239
850.0 743 438 282 204 169 151 135 125 119 105
890.0 93 92 84 95 103 119 119 142 120 105
930.0 106 110 110 122 136 163 183 209 224 229
970.0 249 279 307 365 435 503 532 512 471 406
1010.0 319 274 274 336 414 490 567 577 564 538
1050.0 541 574 605 655 722 816 866 814 741 666
1090.0 520 329 220 163 137 125 113 114 115 118
1130.0 123 130 134 135 145 153 171 182 195 222
1170.0 247 288 381 607 887 993 1060 987 922 706
1210.0 553 523 529 520 490 422 339 308 302 331
1250.0 379 435 478 469 441 347 250 198 182 181
1290.0 215 239 316 393 472 530 581 610 563 508
1330.0 464 412 421 380 317 326 331 328 412 405
1370.0 481 575 792 953 1118 1357 1687 2036 2279 2205
1410.0 2184 2159 1848 1425 1193 1121 1196 1307 1485 1670
1450.0 1938 2108 2335 2348 2350 2248 2141 2026 1906 1908
1490.0 1890 1719 1494 1221 963 635 404 344 268 294
1530.0 273 307 355 433 662 823 1100 1193 1425 1482
1570.0 1556 1569 1918 2638 3353 4331 4477 4587 3794 3003
1610.0 1967 1165 782 566 462 375 338 305 288 285
1650.0 278 230 254 208 182 185 139 147 149 124
1690.0 139 142 151 251 311 369 397 416 379 315
1730.0 270 226 238 230 240 203 216 150 154 121
1770.0 160 124 153 179 184 172 187 180 163 139
1810.0 109 104 92 105 103 110 86 85 59 78
1850.0 39 32 35 56 70 118 132 142 157 144
1890.0 145 101 82 62 66 98 113 179 217 230
1930.0 221 216 178 129 103 61 62 53 50 42
1970.0 42 28 32 28 29 32 46 33 31 33
2010.0 29 19 25 20 11 11 14 13 22 25
2050.0 25 28 33 30 35 26 23 19 11 13
2090.0 14 10 10 9 12 12 8 13 9 14
2130.0 13 14 12 15 21 18 22 25 19 20
2170.0 20 11 13 14 19 18 19 20 27 29
2210.0 34 38 37 37 38 39 34 33 29 19
2250.0 18 18 18 14 13 18 17 19 23 21
2290.0 23 28 23 17 17 9 11 4 1 6
2330.0 0 4 11 0 7 23 0 10 1 3
2370.0 0 12 19 24 30 34 37 34 36 37
2410.0 39 45 48 50 51 58 63 69 74 80
2450.0 84 91 88 89 84 78 75 65 58 56
2490.0 48 48 45 42 37 33 26 29 28 27
2530.0 27 27 22 24 24 27 22 22 24 25
2570.0 26 24 32 33 32 32 35 37 41 44
2610.0 43 51 55 62 64 67 62 61 66 59
2650.0 51 55 49 50 58 53 55 55 54 55
2690.0 51 56 58 58 62 67 76 82 92 105
2730.0 123 137 168 198 222 226 228 215 191 168
2770.0 158 156 163 168 178 182 190 193 195 211
2810.0 219 234 260 285 325 368 413 467 529 594
2850.0 672 766 884 1059 1300 1641 2093 2634 3172 3611
2890.0 3822 3675 3465 3191 2927 2778 2724 2741 2852 3065
2930.0 3420 3898 4443 5026 5400 5476 5439 5399 5499 6155
2970.0 7756 9084 10000 9973 9088 7286 5275 4165 3706 3598
3010.0 3645 3660 3725 3677 3503 3143 2911 2834 2738 2693
3050.0 2768 2917 2984 2914 2705 2383 1964 1566 1264 1063
3090.0 951 870 806 720 633 531 433 354 290 251
3130.0 234 217 196 189 175 180 172 169 167 166
3170.0 157 153 145 125 118 102 89 76 72 59
3210.0 54 53 50 45 50 49 46 44 46 46
3250.0 42 46 42 42 44 46 41 40 35 45
3290.0 44 45 45 42 42 45 37 33 34 33
3330.0 30 35 40 34 38 35 42 37 38 39
3370.0 36 27 36 39 33 33 42 38 45 41
3410.0 42 40 43 36 40 34 36 40 31 37
3450.0 35 44 37 41 36 37 35 34 42 34
3490.0 36 43 28 46 38 27 41 19 46 61
3530.0 48 38 41 44 62 54 63 32 49 90
3570.0 94 55 46 70 56 82 71 44 62 25
3610.0 61 39 75 49 46 73 34 61 28 50
3650.0 60 35 71 21 57 8 38 30 54 38
3690.0 21 36 38 62 55 35 77 57 46 91
3730.0 64 59 75 89 27 53 36 51 58 50
3770.0 42 41 54 38 43 33 44 30 28 11
3810.0 55 7 17 21 18 56 45 21 46 73
3850.0 41 51 49 60 45 50 67 65 82 56
3890.0 67 47 71 89 93 56 69 70 86 90
3930.0 77 108 84 94 93 106 91 90 99 112
##END=
