##TITLE=1-Methyl-2-piperidinemethanol
##JCAMP-DX=4.24
##DATA TYPE=INFRARED SPECTRUM
##ORIGIN=Sadtler Research Labs Under US-EPA Contract
##OWNER=NIST Standard Reference Data Program
##CAS REGISTRY NO=20845-34-5
##MOLFORM=C 7 H 15 N O
##XUNITS=1/CM
##YUNITS=ABSORBANCE
##XFACTOR=1.0
##YFACTOR=0.000153006
##DELTAX=4.0
##FIRSTX=450.0
##LASTX=3966.0
##FIRSTY=0.037333
##MAXX=3966
##MINX=450
##MAXY=1.53006
##MINY=0
##NPOINTS=880
##XYDATA=(X++(Y..Y))
450.0 244 227 229 159 156 184 166 182 171 185
490.0 206 196 213 208 196 172 151 138 108 108
530.0 99 84 78 83 111 110 109 100 88 80
570.0 78 84 68 60 50 49 63 63 44 51
610.0 45 63 67 67 80 108 138 163 209 207
650.0 163 132 103 65 52 40 32 33 28 24
690.0 17 35 37 16 18 33 50 59 68 82
730.0 92 104 122 143 179 201 233 279 307 360
770.0 360 245 191 131 73 41 17 19 7 11
810.0 14 30 57 91 146 198 224 271 245 178
850.0 157 127 137 168 197 232 266 228 176 169
890.0 133 130 131 146 172 201 260 245 240 240
930.0 221 179 157 135 120 109 103 114 149 223
970.0 295 381 480 579 690 768 854 900 841 794
1010.0 788 810 954 1205 1548 1841 1998 2025 1850 1625
1050.0 1356 1221 1239 1316 1384 1490 1547 1671 1844 1730
1090.0 1675 1552 1330 1182 1104 1170 1322 1465 1612 1594
1130.0 1446 1286 1120 1007 989 953 886 820 685 591
1170.0 533 507 529 564 597 583 556 537 501 476
1210.0 446 438 447 516 604 685 738 711 624 531
1250.0 452 432 475 562 705 862 972 1033 1040 1000
1290.0 938 847 806 782 688 660 651 633 624 601
1330.0 574 565 560 553 547 541 524 497 530 633
1370.0 760 842 892 903 872 848 862 942 1024 1092
1410.0 1077 973 892 803 767 802 824 890 959 1046
1450.0 1251 1302 1327 1334 1217 1094 858 701 570 461
1490.0 388 324 271 197 142 43 19 42 58 50
1530.0 43 44 35 34 26 37 25 36 35 24
1570.0 30 28 28 26 24 27 25 27 21 16
1610.0 12 14 23 22 25 22 29 26 25 22
1650.0 25 34 32 23 32 29 41 31 37 33
1690.0 30 24 34 29 26 20 19 11 19 7
1730.0 5 13 11 8 6 10 15 16 13 19
1770.0 14 16 8 14 16 19 15 15 17 15
1810.0 11 10 11 5 11 5 9 4 9 7
1850.0 9 11 10 11 10 12 13 14 14 16
1890.0 17 15 17 15 14 12 16 12 9 8
1930.0 7 5 5 5 1 5 6 6 5 4
1970.0 4 4 5 7 8 5 8 9 10 7
2010.0 8 7 9 8 11 11 12 12 9 10
2050.0 9 9 8 6 7 6 8 7 9 4
2090.0 7 7 6 5 7 7 5 5 2 3
2130.0 0 2 0 1 1 1 4 3 6 4
2170.0 5 7 6 7 8 10 10 8 8 11
2210.0 9 10 9 7 5 7 11 12 16 15
2250.0 20 19 21 20 22 23 25 27 28 31
2290.0 29 33 33 40 43 46 51 53 56 53
2330.0 50 51 55 54 57 53 45 38 32 28
2370.0 28 29 29 28 23 21 18 14 13 12
2410.0 12 11 12 12 15 17 20 23 24 27
2450.0 28 32 34 38 41 44 49 53 55 58
2490.0 60 59 61 60 62 62 64 63 66 65
2530.0 66 66 68 67 70 76 79 83 87 95
2570.0 101 108 116 123 131 141 153 162 171 179
2610.0 186 188 193 198 201 214 229 252 271 282
2650.0 291 298 301 307 318 326 340 353 367 382
2690.0 404 429 471 529 612 699 783 856 865 850
2730.0 805 746 699 682 695 738 814 951 1157 1448
2770.0 1844 2296 2825 3336 3783 4061 4069 3709 3119 2532
2810.0 1954 1494 1170 976 866 816 818 862 968 1130
2850.0 1381 1763 2232 2557 2806 2902 2720 2618 2487 2489
2890.0 2498 2428 2333 2232 2171 2202 2360 2700 3273 4113
2930.0 5394 6939 8301 9328 10000 8550 6966 5416 3763 2650
2970.0 2014 1632 1356 1230 1182 1143 1079 949 769 538
3010.0 346 240 185 158 134 122 116 107 100 93
3050.0 85 78 71 69 66 66 63 65 65 59
3090.0 57 55 55 54 58 57 56 53 51 48
3130.0 45 44 43 45 43 42 46 45 42 45
3170.0 43 41 42 45 44 40 40 40 39 38
3210.0 38 36 34 32 32 32 32 33 34 34
3250.0 35 40 40 40 39 36 42 43 40 37
3290.0 35 34 33 24 24 27 26 27 26 27
3330.0 29 33 35 33 30 28 26 23 24 20
3370.0 19 20 20 19 22 25 29 31 35 41
3410.0 42 60 75 80 86 87 87 90 95 95
3450.0 88 77 63 55 48 54 63 71 73 73
3490.0 69 65 56 50 44 46 54 67 107 165
3530.0 302 465 593 626 590 528 435 345 257 196
3570.0 168 131 121 97 83 71 55 40 34 24
3610.0 27 16 16 15 20 27 29 26 24 35
3650.0 38 61 91 126 160 166 165 152 117 74
3690.0 44 21 6 0 0 0 0 0 0 0
3730.0 0 0 0 0 0 0 0 0 0 0
3770.0 0 0 0 0 0 0 0 0 0 0
3810.0 0 0 0 0 0 0 0 0 0 0
3850.0 0 0 0 0 0 0 0 0 0 0
3890.0 0 0 0 0 0 0 0 0 0 0
3930.0 0 0 0 0 0 0 0 0 0 0
##END=
