##TITLE=1-Penten-3-ol, 2-methyl-
##JCAMP-DX=4.24
##DATA TYPE=INFRARED SPECTRUM
##ORIGIN=Sadtler Research Labs Under US-EPA Contract
##OWNER=NIST Standard Reference Data Program
##CAS REGISTRY NO=2088-07-5
##MOLFORM=C 6 H 12 O
##XUNITS=1/CM
##YUNITS=ABSORBANCE
##XFACTOR=1.0
##YFACTOR=0.000058014
##DELTAX=4.0
##FIRSTX=450.0
##LASTX=3966.0
##FIRSTY=0.023554
##MAXX=3966
##MINX=450
##MAXY=0.58014
##MINY=0
##NPOINTS=880
##XYDATA=(X++(Y..Y))
450.0 406 524 654 501 255 453 714 473 451 558
490.0 544 619 648 526 441 456 465 633 745 854
530.0 789 726 892 683 767 657 786 817 624 529
570.0 546 554 480 362 224 257 337 239 148 169
610.0 240 244 303 326 196 218 278 205 124 40
650.0 140 118 38 30 142 87 96 77 92 101
690.0 156 50 87 85 57 126 159 130 85 137
730.0 43 92 48 113 51 144 101 110 146 171
770.0 163 136 139 154 147 135 167 183 176 212
810.0 307 338 346 432 494 551 558 562 551 539
850.0 497 472 499 513 502 621 812 1155 1659 2452
890.0 3446 4362 5196 5841 5587 4767 3862 2843 1893 1232
930.0 970 877 926 1124 1454 1847 2264 2674 3092 3454
970.0 3708 3914 4023 4006 4015 3969 3879 3825 3765 3754
1010.0 3687 3604 3465 3188 2965 2808 2665 2639 2757 2826
1050.0 2824 2712 2527 2310 2052 1887 1858 1974 2143 2362
1090.0 2570 2764 2861 2894 2859 2724 2478 2271 2004 1731
1130.0 1472 1232 1009 848 707 649 611 614 653 684
1170.0 714 759 826 874 941 1035 1141 1280 1402 1567
1210.0 1725 1887 2016 2116 2194 2214 2196 2085 1963 1826
1250.0 1707 1601 1525 1453 1388 1346 1330 1356 1399 1461
1290.0 1522 1521 1507 1460 1387 1321 1287 1271 1270 1297
1330.0 1316 1338 1338 1343 1337 1353 1407 1546 1730 1966
1370.0 2157 2372 2574 2608 2550 2386 2115 1876 1632 1401
1410.0 1253 1157 1120 1127 1176 1294 1435 1696 1972 2265
1450.0 2592 2790 2900 2921 2746 2499 2071 1654 1296 989
1490.0 738 576 458 387 335 308 292 276 245 242
1530.0 227 222 206 199 209 211 207 219 228 229
1570.0 223 229 246 217 236 241 249 257 252 274
1610.0 293 311 317 353 418 527 678 868 1053 1246
1650.0 1369 1379 1243 1075 836 578 393 239 179 129
1690.0 110 100 86 107 83 88 92 82 97 97
1730.0 96 113 127 135 153 153 158 143 131 115
1770.0 119 125 136 146 177 210 270 315 358 379
1810.0 388 368 311 257 188 133 83 52 41 16
1850.0 12 11 14 13 14 14 16 7 9 7
1890.0 7 9 3 6 9 17 13 16 18 21
1930.0 27 20 30 30 29 28 26 25 35 26
1970.0 18 14 16 20 23 18 29 27 28 26
2010.0 24 23 20 24 19 16 16 16 14 9
2050.0 7 10 13 15 15 17 15 12 12 10
2090.0 9 14 13 13 6 7 8 8 3 4
2130.0 9 15 8 9 11 10 14 11 11 14
2170.0 12 15 12 10 16 19 16 20 15 19
2210.0 16 16 11 15 16 8 8 10 11 12
2250.0 3 11 14 12 22 31 27 35 42 47
2290.0 47 61 67 65 73 76 60 52 27 19
2330.0 2 16 12 15 23 42 4 31 6 43
2370.0 35 50 66 73 71 60 49 54 56 58
2410.0 60 62 66 58 57 55 54 51 45 46
2450.0 46 48 46 39 46 45 40 37 37 41
2490.0 36 33 26 25 24 29 28 26 30 31
2530.0 32 36 42 40 47 54 62 67 75 89
2570.0 90 94 97 101 107 103 109 109 106 105
2610.0 102 102 99 99 100 98 99 107 106 108
2650.0 113 118 128 129 134 132 139 150 145 158
2690.0 162 164 172 173 171 183 190 200 210 230
2730.0 244 268 287 295 298 301 291 291 274 265
2770.0 277 281 293 304 310 334 352 374 386 418
2810.0 451 496 558 628 735 880 1056 1284 1551 1847
2850.0 2188 2538 2910 3252 3612 3978 4439 4923 5179 5274
2890.0 5198 4908 4508 4079 3651 3500 3572 3913 4409 5080
2930.0 5906 6726 7397 7793 7922 7874 7616 7598 7844 8281
2970.0 9623 10000 9847 9201 8337 6998 5527 4078 3009 2298
3010.0 1788 1409 1131 958 856 794 759 711 685 664
3050.0 677 696 756 899 1141 1496 1729 1984 2378 2177
3090.0 2029 1865 1414 1080 868 583 418 322 251 243
3130.0 200 186 169 164 169 164 152 146 139 147
3170.0 127 124 108 106 107 90 70 72 56 62
3210.0 47 49 43 33 40 23 23 24 18 31
3250.0 16 12 14 23 24 14 27 20 31 19
3290.0 12 21 25 15 16 8 20 21 4 13
3330.0 9 30 24 25 29 22 34 41 36 37
3370.0 39 38 41 27 31 43 43 41 43 41
3410.0 49 33 40 51 47 50 45 39 47 46
3450.0 58 71 28 35 47 58 55 43 42 40
3490.0 30 25 25 44 40 43 35 26 46 39
3530.0 33 33 26 24 32 32 30 34 51 63
3570.0 55 56 41 70 41 74 51 58 63 100
3610.0 116 145 183 244 360 523 837 1124 1426 1699
3650.0 1881 1849 1731 1441 1102 792 502 343 205 122
3690.0 96 64 49 19 26 45 24 13 1 28
3730.0 1 2 31 0 6 1 24 2 11 4
3770.0 27 14 2 10 2 5 34 3 4 2
3810.0 31 31 2 18 3 20 10 35 33 15
3850.0 43 1 4 36 46 30 36 3 9 65
3890.0 82 6 2 33 67 24 2 29 23 39
3930.0 23 37 27 7 42 31 3 2 3 44
##END=
