##TITLE=Ether, 2,6-dichlorophenyl p-nitrophenyl-,
##JCAMP-DX=4.24
##DATA TYPE=INFRARED SPECTRUM
##ORIGIN=Sadtler Research Labs Under US-EPA Contract
##OWNER=NIST Standard Reference Data Program
##CAS REGISTRY NO=2093-28-9
##MOLFORM=C 12 H 7 Cl 2 N O 3
##XUNITS=1/CM
##YUNITS=ABSORBANCE
##XFACTOR=1.0
##YFACTOR=0.000070361
##DELTAX=4.0
##FIRSTX=450.0
##LASTX=3966.0
##FIRSTY=0.010695
##MAXX=3966
##MINX=450
##MAXY=0.70361
##MINY=0
##NPOINTS=880
##XYDATA=(X++(Y..Y))
450.0 152 187 236 211 161 75 43 205 354 403
490.0 421 369 255 238 205 300 316 263 288 264
530.0 184 86 133 92 108 88 187 186 100 210
570.0 238 237 222 239 273 190 225 328 280 305
610.0 216 299 161 203 360 269 399 685 749 489
650.0 272 273 307 293 269 463 451 374 337 440
690.0 322 308 296 324 408 378 360 486 580 778
730.0 895 1072 1109 1280 1482 1287 735 528 750 1354
770.0 2167 2363 1750 1256 1248 1378 1567 1484 1298 1049
810.0 760 689 589 556 544 661 737 994 1535 2103
850.0 2202 1724 1003 624 616 966 1904 2719 1977 807
890.0 352 299 248 236 254 284 220 218 262 225
930.0 229 229 277 321 340 325 324 292 293 316
970.0 329 296 295 268 285 275 290 302 345 411
1010.0 485 425 397 332 365 407 418 409 430 451
1050.0 479 465 452 545 607 649 601 593 573 547
1090.0 628 750 899 1119 1443 1684 1475 895 555 449
1130.0 440 440 475 500 558 708 955 1366 1896 2024
1170.0 1683 1219 913 770 786 858 1009 1300 1755 2018
1210.0 1810 1340 1105 1171 1355 1576 2014 2710 3728 5450
1250.0 8071 10000 8463 4868 2553 1650 1290 1116 1067 1043
1290.0 1045 1049 968 920 912 937 1063 1256 1416 1441
1330.0 1552 2054 3094 4586 5776 5648 4040 2460 1863 1584
1370.0 1340 1111 912 754 663 653 640 613 591 633
1410.0 726 812 893 973 1166 1522 2203 3473 5215 6316
1450.0 5622 3710 1917 1158 974 995 1108 1465 2139 2956
1490.0 3450 3331 2662 1926 1559 1599 1787 1942 2065 2096
1530.0 2267 2823 3806 4236 3545 2366 1619 1394 1556 1887
1570.0 2102 1980 1695 1654 1903 2322 2677 2762 2384 1862
1610.0 1599 1571 1330 992 640 453 376 322 293 282
1650.0 242 171 209 210 190 171 181 185 185 130
1690.0 171 170 132 96 114 120 117 86 112 127
1730.0 138 104 120 118 116 123 151 157 159 160
1770.0 166 128 136 135 119 98 63 66 65 56
1810.0 49 46 52 61 60 52 60 66 63 78
1850.0 98 113 98 89 87 79 74 61 71 97
1890.0 105 110 127 147 140 133 130 129 121 118
1930.0 109 82 60 49 51 52 55 61 65 64
1970.0 63 55 63 61 67 76 60 54 57 54
2010.0 55 64 64 55 62 66 65 88 86 101
2050.0 99 104 82 71 59 62 60 73 65 63
2090.0 57 54 45 49 49 35 35 38 38 25
2130.0 37 35 28 19 17 17 10 2 6 4
2170.0 14 8 8 7 12 18 23 23 23 36
2210.0 32 41 39 36 38 32 34 42 47 48
2250.0 27 25 30 31 29 50 49 52 51 51
2290.0 51 51 65 72 72 66 49 36 50 27
2330.0 18 28 5 10 13 47 47 22 54 39
2370.0 31 13 39 53 63 55 53 60 66 74
2410.0 80 80 80 74 68 73 72 77 84 114
2450.0 132 126 134 133 117 97 88 72 68 76
2490.0 70 71 78 81 75 87 74 73 73 69
2530.0 65 57 71 70 61 64 72 65 63 56
2570.0 62 70 59 63 67 62 57 73 70 74
2610.0 72 82 75 74 68 72 74 74 85 82
2650.0 96 83 77 67 65 57 63 63 69 72
2690.0 70 81 94 81 81 80 79 87 74 75
2730.0 82 67 66 71 71 54 61 61 75 80
2770.0 70 72 79 85 71 83 84 88 74 81
2810.0 88 81 75 85 81 87 96 103 110 105
2850.0 128 138 129 134 143 153 162 155 149 166
2890.0 136 135 128 142 147 126 140 132 131 140
2930.0 146 154 153 139 154 146 138 134 140 144
2970.0 138 129 124 129 133 123 127 136 136 136
3010.0 140 137 125 126 127 114 117 110 127 119
3050.0 111 118 132 161 178 199 269 317 332 331
3090.0 315 265 199 159 151 129 128 134 125 104
3130.0 107 117 118 106 102 112 120 104 98 97
3170.0 97 100 116 100 113 109 93 101 100 99
3210.0 91 116 107 94 101 111 111 107 118 126
3250.0 123 94 96 107 105 104 98 97 113 105
3290.0 100 116 115 113 107 121 128 127 117 115
3330.0 130 108 109 103 120 114 116 136 111 125
3370.0 136 143 139 118 117 134 135 118 122 108
3410.0 105 116 119 103 113 118 115 137 115 128
3450.0 115 135 139 123 129 129 111 116 155 134
3490.0 113 112 124 132 114 102 119 127 130 126
3530.0 124 118 115 102 116 111 93 95 109 101
3570.0 91 81 102 96 93 94 121 112 91 90
3610.0 106 89 81 86 82 70 70 85 76 65
3650.0 53 60 67 67 84 67 51 57 48 55
3690.0 23 56 37 22 41 28 11 12 17 16
3730.0 2 0 3 9 1 0 0 0 0 0
3770.0 0 0 0 0 0 0 0 0 0 0
3810.0 0 0 0 0 0 0 0 0 0 0
3850.0 0 0 0 0 0 0 0 0 0 0
3890.0 0 0 0 0 0 0 0 0 0 0
3930.0 0 0 0 0 0 0 0 0 0 0
##END=
