##TITLE=Benzene, 2-chloro-1,4-dimethoxy-
##JCAMP-DX=4.24
##DATA TYPE=INFRARED SPECTRUM
##ORIGIN=Sadtler Research Labs Under US-EPA Contract
##OWNER=NIST Standard Reference Data Program
##CAS REGISTRY NO=2100-42-7
##MOLFORM=C 8 H 9 Cl O 2
##XUNITS=1/CM
##YUNITS=ABSORBANCE
##XFACTOR=1.0
##YFACTOR=0.000094907
##DELTAX=4.0
##FIRSTX=450.0
##LASTX=3966.0
##FIRSTY=0.041474
##MAXX=3966
##MINX=450
##MAXY=0.94907
##MINY=0
##NPOINTS=880
##XYDATA=(X++(Y..Y))
450.0 437 167 139 53 158 80 185 0 158 80
490.0 110 73 135 96 77 147 44 111 45 153
530.0 33 73 67 92 80 62 150 71 131 97
570.0 139 91 151 157 156 199 140 251 173 214
610.0 192 203 179 161 188 161 172 97 131 54
650.0 131 81 105 94 87 164 155 206 191 286
690.0 257 265 227 209 209 208 271 312 424 544
730.0 766 1007 1211 1262 1121 903 605 438 262 218
770.0 179 232 228 230 377 453 499 575 680 658
810.0 666 597 542 442 407 400 419 485 541 604
850.0 534 583 607 667 817 829 919 988 1086 1039
890.0 927 702 473 310 232 197 156 143 117 143
930.0 105 120 118 121 129 132 145 137 157 148
970.0 175 183 213 241 285 347 400 493 579 741
1010.0 914 1131 1292 1433 1551 1743 2119 2582 3064 3365
1050.0 3486 3422 3287 3068 2734 2265 1718 1205 793 577
1090.0 446 373 313 291 263 247 259 278 337 388
1130.0 471 488 502 463 424 382 363 392 419 530
1170.0 700 951 1155 1252 1234 1129 1071 1214 1679 2470
1210.0 3546 4518 5120 5096 4443 3555 2643 2016 1734 1752
1250.0 1967 2436 3072 3699 4081 4061 3598 2902 2261 1731
1290.0 1408 1183 1024 867 726 610 500 433 357 313
1330.0 264 243 244 227 205 207 218 211 231 221
1370.0 219 224 231 224 268 325 400 468 492 523
1410.0 522 521 592 654 818 1091 1522 1922 2129 2052
1450.0 1794 1500 1429 1579 1770 1842 1918 1981 2236 3168
1490.0 4943 7534 9619 10000 8458 5450 2954 1612 1024 683
1530.0 553 455 421 418 393 381 407 484 484 513
1570.0 550 611 646 689 689 677 660 683 725 762
1610.0 757 672 582 445 368 274 246 232 193 192
1650.0 207 215 180 172 168 161 180 145 178 173
1690.0 153 129 169 161 152 139 153 190 158 156
1730.0 166 193 154 151 153 158 142 130 133 115
1770.0 137 135 126 132 133 138 140 132 124 106
1810.0 100 102 97 105 112 124 115 112 125 132
1850.0 118 100 105 109 110 123 100 98 92 96
1890.0 94 99 94 102 99 97 107 101 109 92
1930.0 99 94 95 100 95 92 90 96 99 115
1970.0 112 118 119 124 128 135 143 146 157 162
2010.0 171 179 190 200 198 196 183 183 174 178
2050.0 172 179 169 168 175 157 151 140 141 132
2090.0 140 140 145 148 149 141 135 130 117 119
2130.0 112 110 110 111 112 108 112 109 109 105
2170.0 111 104 112 109 105 105 102 104 100 103
2210.0 100 104 105 100 106 112 112 111 115 113
2250.0 112 112 113 108 109 114 118 125 115 110
2290.0 103 98 86 78 60 44 41 18 18 22
2330.0 42 56 78 102 158 79 18 21 90 242
2370.0 303 324 299 257 204 165 143 129 121 109
2410.0 114 112 106 120 120 126 120 127 123 124
2450.0 129 131 127 127 134 128 133 137 146 146
2490.0 146 155 157 158 160 163 165 168 164 165
2530.0 166 159 155 147 143 134 130 130 134 126
2570.0 130 138 137 138 143 150 149 155 151 153
2610.0 144 145 139 130 134 127 130 130 143 132
2650.0 129 110 101 94 86 85 80 97 106 118
2690.0 126 131 138 130 137 127 121 112 118 109
2730.0 122 126 139 153 135 153 146 156 149 159
2770.0 156 172 165 172 178 191 208 212 232 243
2810.0 261 296 322 371 443 555 751 1005 1193 1265
2850.0 1174 975 777 627 536 478 456 443 459 479
2890.0 504 562 619 707 792 907 996 1056 1049 1018
2930.0 1023 1113 1267 1474 1640 1728 1741 1678 1499 1256
2970.0 1045 866 724 638 601 620 671 823 1083 1387
3010.0 1518 1409 1112 745 526 423 375 356 346 326
3050.0 316 337 348 332 312 330 312 313 289 288
3090.0 273 267 242 227 202 189 170 162 159 148
3130.0 154 141 142 130 114 98 101 94 93 103
3170.0 95 89 89 86 94 76 92 88 78 79
3210.0 91 92 76 96 91 94 100 93 104 100
3250.0 101 102 99 79 84 71 99 86 89 80
3290.0 99 119 109 121 100 104 84 86 77 88
3330.0 83 55 84 86 77 81 86 98 77 85
3370.0 91 88 81 85 67 61 64 106 94 85
3410.0 75 63 77 64 76 70 78 91 72 56
3450.0 62 69 59 64 67 70 48 58 67 68
3490.0 69 60 60 48 68 69 67 66 62 56
3530.0 63 66 46 70 42 59 48 42 56 62
3570.0 46 58 68 43 57 54 44 38 53 37
3610.0 41 48 40 43 33 58 75 76 73 65
3650.0 54 78 57 35 32 28 34 42 58 76
3690.0 44 61 31 46 26 57 60 50 47 41
3730.0 47 57 59 65 61 52 40 22 70 64
3770.0 53 41 31 45 39 53 41 29 42 49
3810.0 49 49 42 38 25 25 27 36 51 22
3850.0 18 51 35 21 18 23 38 20 18 19
3890.0 34 30 17 24 20 18 18 43 19 26
3930.0 18 24 21 18 21 18 22 44 26 79
##END=
