##TITLE=Benzaldehyde, 2,3,4-trimethoxy-
##JCAMP-DX=4.24
##DATA TYPE=INFRARED SPECTRUM
##ORIGIN=Sadtler Research Labs Under US-EPA Contract
##OWNER=NIST Standard Reference Data Program
##CAS REGISTRY NO=2103-57-3
##MOLFORM=C 10 H 12 O 4
##XUNITS=1/CM
##YUNITS=ABSORBANCE
##XFACTOR=1.0
##YFACTOR=0.000091193
##DELTAX=4.0
##FIRSTX=450.0
##LASTX=3966.0
##FIRSTY=0.012858
##MAXX=3966
##MINX=450
##MAXY=0.91193
##MINY=0
##NPOINTS=880
##XYDATA=(X++(Y..Y))
450.0 141 59 2 81 38 108 118 112 163 159
490.0 210 221 261 315 465 616 716 671 516 319
530.0 244 200 174 185 168 184 141 154 148 133
570.0 126 132 138 143 136 106 117 96 116 113
610.0 117 133 136 140 147 149 165 176 177 190
650.0 202 221 245 263 279 269 283 270 294 331
690.0 427 499 548 503 400 296 220 184 164 151
730.0 145 160 162 171 180 207 243 342 501 732
770.0 1092 1416 1559 1458 1243 1035 948 994 1106 1073
810.0 859 685 557 480 418 353 278 209 167 139
850.0 130 109 110 120 129 132 147 162 190 235
890.0 276 327 352 328 279 234 203 192 215 258
930.0 363 523 746 870 844 687 498 396 386 401
970.0 398 383 347 335 338 385 458 582 757 1003
1010.0 1370 1812 2243 2498 2518 2464 2449 2441 2328 2060
1050.0 1708 1432 1339 1455 1722 2087 2443 2757 3099 3578
1090.0 4310 5254 6255 6919 6810 5858 4250 2863 2024 1444
1130.0 1030 782 655 615 647 765 979 1287 1645 1862
1170.0 1837 1644 1408 1307 1363 1576 1951 2318 2483 2318
1210.0 1951 1608 1462 1502 1674 1884 2022 2106 2229 2593
1250.0 3265 4125 4798 4907 4462 3943 3942 4685 6240 8295
1290.0 9866 10000 8446 6119 3890 2417 1641 1234 982 818
1330.0 697 618 553 514 487 465 462 459 490 504
1370.0 608 851 1477 2420 2982 2925 2263 1487 1170 1259
1410.0 1710 2381 2829 2725 2275 1695 1409 1369 1384 1420
1450.0 1529 1833 2514 3502 4330 4446 3779 2836 2317 2587
1490.0 3245 3601 3156 2233 1331 804 612 522 483 443
1530.0 432 421 437 457 493 546 669 832 1089 1406
1570.0 1819 2305 2993 3969 5023 5989 6110 5571 4365 3173
1610.0 2163 1463 1012 718 561 452 414 378 360 343
1650.0 377 401 458 539 655 768 884 1017 1162 1409
1690.0 1877 3295 5851 7812 8066 6550 4320 3337 2707 1961
1730.0 1162 710 450 316 232 180 164 141 147 142
1770.0 154 143 131 122 110 104 103 100 90 87
1810.0 73 67 53 49 46 43 44 39 45 39
1850.0 38 32 38 36 49 58 66 75 79 79
1890.0 73 75 70 75 79 87 92 105 113 111
1930.0 121 118 116 108 102 94 91 92 89 92
1970.0 93 96 98 100 98 97 88 79 72 65
2010.0 66 66 69 72 79 78 82 80 72 65
2050.0 56 50 45 43 40 42 38 43 39 40
2090.0 40 37 38 40 42 47 54 62 66 68
2130.0 67 64 58 54 51 47 44 42 43 41
2170.0 42 39 37 36 41 38 35 31 28 26
2210.0 24 23 24 26 29 31 33 33 28 22
2250.0 18 12 12 11 10 13 13 13 13 11
2290.0 9 8 5 5 0 2 1 0 4 4
2330.0 5 5 10 12 17 17 19 26 18 24
2370.0 29 36 37 43 42 43 41 38 30 24
2410.0 22 20 18 15 16 17 22 23 25 27
2450.0 28 32 33 43 44 44 43 45 46 50
2490.0 51 49 51 53 54 59 64 67 66 63
2530.0 61 58 53 51 54 55 60 66 74 84
2570.0 92 109 116 118 111 103 89 79 69 65
2610.0 62 57 57 57 56 50 51 54 51 54
2650.0 57 56 57 62 59 65 70 78 84 91
2690.0 108 127 171 232 326 395 417 386 307 235
2730.0 214 234 292 396 488 502 438 322 225 174
2770.0 153 150 156 174 192 213 235 254 268 284
2810.0 306 361 456 600 808 1084 1427 1774 2072 2326
2850.0 2573 2691 2515 2072 1536 1135 956 920 938 950
2890.0 949 933 922 944 990 1049 1101 1151 1197 1246
2930.0 1353 1558 1929 2442 2946 3116 2876 2450 2034 1841
2970.0 1758 1652 1532 1399 1281 1226 1244 1351 1519 1673
3010.0 1740 1611 1331 999 731 588 506 455 421 396
3050.0 375 366 357 345 334 329 325 346 361 365
3090.0 357 322 287 252 213 171 136 114 99 90
3130.0 82 77 70 65 60 57 50 46 43 33
3170.0 28 29 24 20 18 17 13 16 16 15
3210.0 10 12 11 10 12 11 14 12 9 14
3250.0 13 12 12 12 14 14 11 17 16 18
3290.0 14 20 16 16 15 17 14 24 14 13
3330.0 18 19 18 22 26 21 25 28 36 41
3370.0 50 57 74 89 106 110 92 77 47 29
3410.0 21 24 26 26 28 23 19 16 7 12
3450.0 11 13 14 9 16 14 13 14 12 11
3490.0 6 12 11 12 12 16 7 10 12 9
3530.0 7 14 11 9 6 5 14 9 5 10
3570.0 12 13 14 7 5 10 12 10 14 6
3610.0 10 6 9 9 9 12 15 4 8 10
3650.0 7 18 18 20 9 2 6 15 5 10
3690.0 18 13 13 18 21 17 11 9 18 12
3730.0 7 10 9 9 26 10 19 24 9 17
3770.0 9 15 10 16 13 19 4 16 8 21
3810.0 15 10 9 15 17 9 17 18 11 13
3850.0 9 23 17 17 18 10 14 27 11 20
3890.0 9 14 7 10 20 24 19 2 13 8
3930.0 13 20 12 23 30 24 20 19 20 14
##END=
