##TITLE=Nonanedioic acid, monomethyl ester
##JCAMP-DX=4.24
##DATA TYPE=INFRARED SPECTRUM
##ORIGIN=Sadtler Research Labs Under US-EPA Contract
##OWNER=NIST Standard Reference Data Program
##CAS REGISTRY NO=2104-19-0
##MOLFORM=C 10 H 18 O 4
##XUNITS=1/CM
##YUNITS=ABSORBANCE
##XFACTOR=1.0
##YFACTOR=0.000099045
##DELTAX=4.0
##FIRSTX=450.0
##LASTX=3966.0
##FIRSTY=0.000000
##MAXX=3966
##MINX=450
##MAXY=0.99045
##MINY=0
##NPOINTS=880
##XYDATA=(X++(Y..Y))
450.0 0 1806 2936 1698 2157 1643 2223 2051 1865 1817
490.0 1700 1824 1700 1860 1889 2019 1709 1908 1791 2032
530.0 1944 1979 2015 2034 2200 2161 2312 2233 2399 2269
570.0 2363 2364 2297 2329 2381 2429 2433 2504 2464 2536
610.0 2474 2536 2437 2509 2447 2440 2389 2316 2254 2153
650.0 2114 2050 2045 2000 1968 2001 1944 1930 1919 1928
690.0 1907 1911 1921 1945 1922 1958 1956 2053 2037 1971
730.0 2009 1946 1941 1891 1885 1853 1838 1811 1782 1603
770.0 1876 1819 1818 1815 1792 1797 1763 1811 1803 1821
810.0 1814 1656 1844 1833 1848 1859 1877 1901 1911 1908
850.0 1912 1893 1883 1963 1922 1897 1895 1869 1861 1841
890.0 1819 1802 1791 1771 1764 1755 1744 1733 1730 1724
930.0 1714 1717 1719 1719 1729 1745 1753 1765 1776 1817
970.0 1838 1864 1906 1960 2000 2058 2111 2170 2226 2303
1010.0 2376 2438 2493 2523 2538 2529 2519 2503 2504 2531
1050.0 2586 2676 2798 2950 3122 3324 3508 3701 3852 3948
1090.0 4005 4023 4043 4123 4298 4585 4964 5322 5572 5645
1130.0 5557 5446 5367 5390 5493 5643 5810 5945 6061 6139
1170.0 6160 6078 5933 5708 5486 5317 5228 5151 5050 4895
1210.0 4738 4591 4459 4360 4285 4266 4242 4247 4262 4245
1250.0 4180 4085 3934 3768 3581 3428 3294 3174 3074 2993
1290.0 2932 2878 2832 2793 2773 2756 2740 2729 2723 2709
1330.0 2722 2758 2816 2901 2982 3080 3164 3216 3222 3172
1370.0 3106 3022 2928 2818 2716 2584 2453 2335 2239 2183
1410.0 2155 2164 2218 2293 2410 2610 2887 3152 3171 2958
1450.0 2760 2710 2702 2659 2548 2391 2236 2088 1969 1895
1490.0 1852 1812 1788 1759 1760 1746 1730 1727 1722 1709
1530.0 1703 1703 1700 1709 1700 1697 1698 1707 1697 1687
1570.0 1689 1685 1690 1679 1681 1681 1682 1677 1675 1679
1610.0 1677 1678 1677 1682 1687 1685 1689 1702 1695 1707
1650.0 1717 1723 1721 1719 1743 1745 1770 1778 1807 1833
1690.0 1864 1904 1959 2039 2109 2224 2349 2561 2771 3085
1730.0 3484 4012 4607 5289 6209 7208 8448 9356 10000 9925
1770.0 9840 9799 9533 8749 7454 6255 5252 4516 3929 3424
1810.0 3006 2664 2394 2197 2062 1960 1890 1841 1800 1777
1850.0 1745 1734 1717 1708 1700 1699 1688 1680 1677 1671
1890.0 1671 1665 1667 1660 1659 1663 1658 1659 1661 1655
1930.0 1651 1651 1658 1661 1665 1672 1673 1681 1681 1678
1970.0 1682 1682 1683 1681 1682 1685 1685 1681 1682 1682
2010.0 1681 1683 1684 1687 1685 1688 1686 1690 1692 1685
2050.0 1684 1679 1687 1681 1681 1676 1675 1672 1672 1664
2090.0 1660 1660 1652 1647 1643 1646 1640 1639 1635 1632
2130.0 1628 1630 1630 1628 1630 1632 1628 1631 1633 1630
2170.0 1630 1639 1637 1636 1641 1640 1643 1649 1647 1644
2210.0 1641 1644 1641 1640 1640 1639 1639 1641 1639 1643
2250.0 1638 1637 1639 1639 1638 1637 1635 1636 1642 1644
2290.0 1646 1652 1656 1661 1661 1667 1667 1667 1665 1660
2330.0 1660 1649 1646 1652 1641 1651 1653 1650 1646 1626
2370.0 1622 1622 1623 1630 1630 1628 1630 1627 1628 1629
2410.0 1630 1629 1625 1626 1625 1622 1626 1628 1629 1622
2450.0 1625 1625 1625 1629 1629 1625 1625 1626 1622 1623
2490.0 1624 1622 1626 1627 1625 1627 1625 1624 1626 1626
2530.0 1628 1635 1633 1628 1633 1634 1635 1636 1637 1637
2570.0 1636 1634 1632 1628 1635 1635 1635 1639 1635 1633
2610.0 1633 1631 1634 1635 1637 1637 1640 1637 1640 1641
2650.0 1639 1642 1644 1645 1653 1656 1656 1657 1660 1659
2690.0 1659 1658 1661 1656 1655 1655 1646 1648 1648 1647
2730.0 1651 1649 1646 1653 1658 1665 1667 1672 1675 1685
2770.0 1686 1687 1685 1694 1703 1714 1728 1731 1737 1747
2810.0 1756 1765 1785 1809 1838 1879 1930 1994 2077 2207
2850.0 2379 2582 2842 3114 3331 3390 3292 3104 2899 2733
2890.0 2624 2598 2632 2733 2910 3169 3490 3870 4294 4763
2930.0 5236 5675 6007 6168 6143 5961 5691 5401 5052 4474
2970.0 3835 3346 3024 2796 2618 2492 2405 2327 2264 2213
3010.0 2153 2114 2072 2044 2022 1991 1960 1918 1888 1854
3050.0 1831 1811 1792 1786 1781 1765 1748 1742 1739 1734
3090.0 1735 1734 1722 1724 1720 1712 1711 1706 1707 1703
3130.0 1693 1685 1692 1685 1685 1683 1686 1687 1686 1672
3170.0 1670 1664 1661 1665 1657 1665 1658 1661 1657 1658
3210.0 1654 1660 1666 1666 1652 1661 1663 1662 1654 1652
3250.0 1652 1659 1661 1649 1665 1656 1651 1651 1654 1656
3290.0 1651 1661 1668 1660 1648 1666 1660 1659 1660 1664
3330.0 1651 1671 1657 1665 1662 1665 1670 1671 1674 1672
3370.0 1662 1667 1675 1663 1663 1670 1672 1673 1670 1667
3410.0 1684 1667 1672 1671 1662 1656 1648 1683 1665 1677
3450.0 1675 1667 1679 1681 1686 1692 1691 1689 1715 1718
3490.0 1721 1715 1729 1734 1740 1742 1729 1716 1729 1748
3530.0 1760 1745 1753 1771 1801 1836 1872 1975 2171 2501
3570.0 3077 3819 4007 3387 2618 2167 1973 1849 1792 1732
3610.0 1722 1707 1703 1693 1662 1699 1684 1653 1664 1645
3650.0 1693 1678 1657 1643 1679 1667 1687 1655 1649 1623
3690.0 1651 1638 1645 1622 1624 1629 1635 1622 1660 1675
3730.0 1656 1650 1646 1623 1623 1665 1643 1632 1622 1661
3770.0 1663 1633 1625 1632 1636 1622 1624 1622 1632 1622
3810.0 1624 1622 1622 1622 1662 1620 1622 1637 1641 1638
3850.0 1622 1648 1663 1621 1622 1622 1627 1622 1651 1637
3890.0 1653 1647 1626 1656 1625 1622 1622 1621 1650 1634
3930.0 1622 1632 1660 1682 1660 1631 1622 1634 1662 1622
##END=
