##TITLE=Glutarimide, 3-[2-(3,5-dimethyl-2-oxocyclohexyl)-2-hydroxyethyl]-
##JCAMP-DX=4.24
##DATA TYPE=INFRARED SPECTRUM
##ORIGIN=Sadtler Research Labs Under US-EPA Contract
##OWNER=NIST Standard Reference Data Program
##CAS REGISTRY NO=21059-09-6
##MOLFORM=C 15 H 23 N O 4
##XUNITS=1/CM
##YUNITS=ABSORBANCE
##XFACTOR=1.0
##YFACTOR=0.000035455
##DELTAX=4.0
##FIRSTX=450.0
##LASTX=3966.0
##FIRSTY=0.040915
##MAXX=3966
##MINX=450
##MAXY=0.35455
##MINY=0
##NPOINTS=880
##XYDATA=(X++(Y..Y))
450.0 1154 1379 463 133 105 428 1066 557 400 329
490.0 445 766 413 513 417 265 206 245 445 471
530.0 459 502 271 597 443 591 625 441 602 517
570.0 426 842 584 475 489 320 460 469 612 507
610.0 357 292 380 437 286 199 477 468 431 252
650.0 187 253 384 384 306 328 434 356 609 493
690.0 401 612 666 950 1007 988 1150 1085 1120 1024
730.0 842 797 818 699 577 369 475 478 479 479
770.0 540 345 328 403 269 452 384 425 442 317
810.0 410 348 390 344 349 404 404 426 521 446
850.0 430 359 375 366 386 466 404 412 391 401
890.0 389 409 389 391 434 479 500 447 472 487
930.0 440 373 351 360 321 349 378 334 334 388
970.0 364 359 339 380 415 419 440 442 435 453
1010.0 434 516 466 478 478 456 445 488 477 427
1050.0 441 444 478 482 478 521 558 488 539 574
1090.0 586 543 593 630 719 790 873 1035 1207 1299
1130.0 1514 1803 2010 2099 2000 1676 1338 991 813 690
1170.0 675 641 642 697 704 725 729 782 835 960
1210.0 1082 1292 1495 1756 2034 2301 2561 2750 2803 2731
1250.0 2424 2108 1738 1397 1163 1018 988 996 1061 1116
1290.0 1098 1040 973 942 965 1038 1118 1183 1224 1308
1330.0 1421 1541 1685 1749 1745 1704 1563 1445 1354 1408
1370.0 1443 1656 1828 1826 1904 1652 1437 1157 854 759
1410.0 638 684 669 798 780 794 886 858 826 746
1450.0 766 906 909 905 789 743 616 521 421 344
1490.0 329 289 264 268 295 382 247 293 285 275
1530.0 229 298 285 308 334 277 336 311 395 288
1570.0 316 359 322 359 336 341 425 330 441 437
1610.0 446 523 520 574 526 596 559 628 619 599
1650.0 736 727 838 738 936 1009 1136 1282 1457 1660
1690.0 1824 1980 2248 2547 2737 3077 3567 4578 5740 6974
1730.0 8465 9231 10000 9733 8790 7991 6855 5810 4721 3662
1770.0 2844 2069 1605 1315 1084 988 798 726 610 544
1810.0 467 407 390 332 345 317 267 274 229 288
1850.0 221 204 215 178 211 157 196 152 165 152
1890.0 144 129 129 127 124 117 115 127 108 102
1930.0 95 102 96 104 110 86 96 85 78 80
1970.0 77 85 78 85 72 79 94 80 76 85
2010.0 85 89 78 83 72 79 81 72 80 77
2050.0 69 65 63 76 69 76 57 68 65 67
2090.0 63 67 68 60 58 65 67 64 54 55
2130.0 63 50 55 45 49 51 56 59 58 60
2170.0 66 61 67 63 76 59 66 62 70 64
2210.0 54 53 56 48 50 48 43 50 45 46
2250.0 48 47 44 42 40 54 49 66 57 69
2290.0 93 95 108 124 131 122 104 104 93 76
2330.0 37 36 29 0 138 66 105 45 91 106
2370.0 95 98 101 100 75 43 28 25 15 7
2410.0 14 6 15 25 12 19 13 19 17 16
2450.0 24 15 23 30 26 25 26 30 28 31
2490.0 18 19 29 17 18 30 26 21 30 15
2530.0 26 37 23 27 32 44 42 35 45 43
2570.0 48 39 50 47 46 63 59 61 63 61
2610.0 68 70 70 75 69 92 89 88 85 85
2650.0 85 95 102 113 107 120 135 134 125 143
2690.0 154 175 204 229 253 320 390 456 502 487
2730.0 445 376 325 277 256 239 214 213 216 211
2770.0 209 206 210 205 240 255 282 298 333 377
2810.0 432 498 569 603 611 584 529 507 521 559
2850.0 646 774 917 1022 1113 1246 1366 1387 1396 1401
2890.0 1437 1440 1466 1585 1703 1907 2114 2279 2533 2746
2930.0 2908 2904 2780 2511 2258 2066 1965 2053 2386 2453
2970.0 2453 2366 2019 1581 1208 912 660 470 349 241
3010.0 187 164 156 137 128 125 133 130 128 132
3050.0 114 115 134 123 145 138 133 123 144 138
3090.0 137 135 150 145 139 150 135 139 157 133
3130.0 139 128 142 130 138 122 143 137 136 130
3170.0 143 140 144 125 131 154 144 136 130 130
3210.0 153 151 142 134 135 148 151 154 144 155
3250.0 160 161 153 157 154 164 160 162 150 156
3290.0 143 147 139 142 136 113 112 110 128 111
3330.0 106 105 99 111 98 94 83 89 102 95
3370.0 101 114 100 113 142 195 268 404 588 733
3410.0 818 755 582 363 210 109 133 112 101 135
3450.0 107 113 144 123 138 147 151 137 166 146
3490.0 119 130 115 89 111 98 114 65 73 95
3530.0 78 49 70 69 87 37 70 28 79 63
3570.0 137 77 85 39 112 69 129 44 87 77
3610.0 98 71 117 139 28 168 49 81 77 127
3650.0 56 165 22 137 62 72 147 69 146 27
3690.0 108 119 70 120 80 100 165 59 119 73
3730.0 88 159 112 173 44 220 46 165 66 101
3770.0 128 62 31 122 88 126 51 141 70 155
3810.0 49 144 64 149 40 71 77 102 71 137
3850.0 97 205 111 105 144 94 75 110 101 170
3890.0 104 150 132 116 146 115 48 182 75 161
3930.0 117 118 188 109 247 106 225 151 246 143
##END=
