##TITLE=Piperazine, 1-cyclopropylmethyl-4-phenyl-,
##JCAMP-DX=4.24
##DATA TYPE=INFRARED SPECTRUM
##ORIGIN=Sadtler Research Labs Under US-EPA Contract
##OWNER=NIST Standard Reference Data Program
##CAS REGISTRY NO=21057-48-7
##MOLFORM=C 14 H 20 N 2
##XUNITS=1/CM
##YUNITS=ABSORBANCE
##XFACTOR=1.0
##YFACTOR=0.000110974
##DELTAX=4.0
##FIRSTX=450.0
##LASTX=3966.0
##FIRSTY=0.036510
##MAXX=3966
##MINX=450
##MAXY=1.10974
##MINY=0
##NPOINTS=880
##XYDATA=(X++(Y..Y))
450.0 329 275 197 207 166 187 164 133 151 179
490.0 201 207 194 209 265 333 418 562 651 700
530.0 640 520 421 317 258 214 182 151 122 83
570.0 76 46 41 41 40 38 13 6 1 5
610.0 14 16 28 20 22 41 47 74 121 135
650.0 149 168 204 265 338 538 680 955 1362 1817
690.0 2137 2001 1601 1167 851 649 535 469 421 426
730.0 482 656 947 1334 1814 2322 2700 2742 2327 1741
770.0 1242 892 675 588 575 607 647 681 680 641
810.0 580 536 552 696 934 995 814 543 375 262
850.0 206 179 171 174 201 235 269 299 326 350
890.0 360 386 440 513 645 966 1559 2210 2374 1936
930.0 1389 1126 967 800 656 576 526 497 476 461
970.0 446 448 491 575 739 1082 1647 2232 2961 4236
1010.0 5630 6041 5400 4288 3057 1886 1196 879 796 871
1050.0 919 822 652 540 486 435 395 385 389 409
1090.0 472 605 800 1013 1146 1164 1202 1391 1736 2189
1130.0 2744 3393 3994 4211 3987 3595 3183 2710 2238 1806
1170.0 1456 1223 1117 1113 1171 1236 1324 1482 1740 2068
1210.0 2527 3270 4428 6114 8285 10000 9618 7202 4768 3319
1250.0 2662 2344 2080 1788 1529 1354 1281 1296 1372 1523
1290.0 1803 2242 2695 2800 2473 2011 1745 1744 1986 2452
1330.0 3111 3680 3728 3137 2372 1865 1613 1541 1637 1877
1370.0 2381 3216 4043 4138 3333 2272 1577 1248 1151 1133
1410.0 1028 831 709 629 632 691 800 989 1282 1843
1450.0 2559 3293 3540 3076 2263 1668 1405 1429 1811 2675
1490.0 4047 5717 7465 8267 6977 4328 2302 1394 985 728
1530.0 591 522 487 498 495 504 547 634 717 831
1570.0 1026 1255 1548 1933 2572 3641 5266 7087 7736 6299
1610.0 3842 2002 1126 705 497 373 326 302 264 246
1650.0 208 200 136 113 101 108 119 126 159 189
1690.0 182 189 225 242 246 256 277 302 268 270
1730.0 284 311 262 236 212 206 184 181 177 155
1770.0 151 121 86 77 70 61 68 51 56 31
1810.0 35 35 40 48 65 70 69 65 75 80
1850.0 62 46 35 21 15 18 2 1 6 14
1890.0 29 44 68 95 124 152 176 194 197 194
1930.0 198 205 190 155 106 70 56 52 57 68
1970.0 70 64 55 45 36 35 28 17 11 5
2010.0 6 4 6 6 9 13 15 21 21 24
2050.0 31 46 63 81 93 93 87 78 67 62
2090.0 65 63 63 56 48 42 39 37 35 36
2130.0 29 26 25 25 23 23 17 13 9 3
2170.0 2 0 2 1 4 2 3 2 2 2
2210.0 4 9 17 21 26 31 34 35 37 31
2250.0 29 29 26 28 28 30 30 34 37 39
2290.0 41 48 56 62 65 77 76 76 76 68
2330.0 67 69 71 83 94 98 83 70 66 70
2370.0 67 72 81 86 74 60 56 58 57 58
2410.0 59 56 58 62 65 70 73 73 78 85
2450.0 95 102 107 108 109 108 114 117 117 109
2490.0 104 103 102 107 107 106 111 114 121 125
2530.0 129 135 141 147 161 168 182 191 201 205
2570.0 204 198 189 184 184 183 187 185 191 192
2610.0 199 203 209 211 215 231 246 265 292 319
2650.0 348 382 419 453 491 532 580 628 680 730
2690.0 776 808 830 839 842 842 853 872 904 954
2730.0 1021 1114 1235 1389 1562 1738 1906 2049 2167 2277
2770.0 2425 2623 2857 3108 3344 3579 3825 4104 4434 4792
2810.0 5179 5614 6106 6581 6850 6677 5910 4779 3662 2770
2850.0 2157 1758 1517 1396 1387 1477 1648 1870 2098 2258
2890.0 2322 2313 2297 2347 2471 2635 2803 2944 3039 3116
2930.0 3213 3393 3635 3763 3614 3334 3165 3142 3087 2905
2970.0 2614 2257 1914 1684 1539 1441 1384 1452 1677 2064
3010.0 2497 2767 2735 2490 2253 2102 2052 2098 2172 2056
3050.0 1726 1411 1379 1631 2126 2723 3040 2975 2949 3059
3090.0 2811 2226 1688 1324 1050 842 666 517 384 283
3130.0 221 183 152 138 124 118 106 100 87 76
3170.0 67 67 62 62 65 64 60 58 61 64
3210.0 55 49 51 49 45 44 45 45 40 40
3250.0 40 40 37 40 36 35 28 33 31 31
3290.0 30 30 31 28 29 29 26 27 29 27
3330.0 27 23 21 21 17 24 20 13 14 17
3370.0 19 19 19 20 19 17 12 11 15 15
3410.0 11 12 10 10 16 17 10 19 18 18
3450.0 18 17 18 24 16 12 15 10 15 12
3490.0 8 8 7 5 4 8 11 7 3 2
3530.0 5 6 9 10 15 14 17 10 22 19
3570.0 20 19 16 18 20 21 27 15 24 12
3610.0 17 15 13 20 18 31 15 21 22 27
3650.0 34 25 34 27 31 39 25 29 21 20
3690.0 19 19 18 21 23 26 25 23 24 30
3730.0 17 14 37 16 35 22 27 17 21 20
3770.0 12 20 21 18 21 24 19 24 25 27
3810.0 10 25 19 35 31 20 24 24 30 25
3850.0 26 35 22 25 13 29 20 13 17 25
3890.0 24 24 24 33 22 22 23 25 24 20
3930.0 16 11 25 16 12 22 13 17 33 24
##END=
