##TITLE=3-Hepten-1-ol, (E)-
##JCAMP-DX=4.24
##DATA TYPE=INFRARED SPECTRUM
##ORIGIN=Sadtler Research Labs Under US-EPA Contract
##OWNER=NIST Standard Reference Data Program
##CAS REGISTRY NO=2108-05-6
##MOLFORM=C 7 H 14 O
##XUNITS=1/CM
##YUNITS=ABSORBANCE
##XFACTOR=1.0
##YFACTOR=0.000065823
##DELTAX=4.0
##FIRSTX=450.0
##LASTX=3966.0
##FIRSTY=0.002633
##MAXX=3966
##MINX=450
##MAXY=0.65823
##MINY=0
##NPOINTS=880
##XYDATA=(X++(Y..Y))
450.0 40 127 220 226 91 139 158 78 140 206
490.0 170 186 209 182 151 156 123 174 168 156
530.0 143 192 180 150 137 147 113 81 82 71
570.0 62 62 60 44 87 37 31 50 27 41
610.0 41 38 40 31 24 38 11 25 11 23
650.0 26 17 16 4 32 21 16 5 15 26
690.0 40 7 7 41 26 20 18 26 49 51
730.0 61 87 65 80 127 123 130 134 144 144
770.0 151 182 164 162 141 127 120 114 94 95
810.0 103 103 107 131 147 174 194 216 247 274
850.0 319 319 351 374 390 390 392 391 394 379
890.0 364 369 354 324 323 316 310 325 321 358
930.0 395 475 601 780 1024 1357 1767 2222 2703 3066
970.0 3199 3101 2798 2347 1938 1644 1492 1468 1570 1694
1010.0 1840 1988 2141 2352 2657 3160 3936 4950 5840 6407
1050.0 6402 5821 5064 4273 3601 2987 2479 2116 1859 1629
1090.0 1427 1238 1054 891 770 689 639 615 606 602
1130.0 582 562 549 541 539 547 576 617 679 730
1170.0 781 815 838 846 846 836 819 807 793 778
1210.0 746 719 675 638 610 592 564 549 543 543
1250.0 560 576 620 661 708 740 753 746 727 708
1290.0 686 679 672 674 681 688 688 690 704 731
1330.0 779 849 942 979 982 945 880 843 865 940
1370.0 1091 1310 1564 1783 1883 1862 1677 1418 1185 986
1410.0 845 767 738 766 827 922 1017 1111 1157 1169
1450.0 1168 1165 1165 1159 1120 1053 961 836 691 552
1490.0 422 326 255 190 167 123 102 83 77 63
1530.0 53 55 50 53 28 46 33 43 37 27
1570.0 26 30 35 29 26 23 21 21 14 20
1610.0 20 20 23 22 21 28 37 31 36 34
1650.0 30 44 36 36 46 45 52 46 50 61
1690.0 56 69 80 86 94 112 131 152 174 188
1730.0 197 206 205 208 228 235 243 212 178 147
1770.0 116 95 73 71 54 54 43 40 34 34
1810.0 27 25 28 28 33 25 31 25 31 28
1850.0 25 24 28 25 21 16 18 20 17 17
1890.0 16 9 12 12 12 14 13 15 10 13
1930.0 9 6 9 10 7 7 3 8 5 5
1970.0 3 8 7 2 2 5 6 5 9 8
2010.0 15 10 16 16 19 24 28 33 30 36
2050.0 43 43 44 42 41 37 35 31 28 28
2090.0 28 21 20 23 21 16 14 8 10 9
2130.0 5 0 1 1 1 5 2 5 6 8
2170.0 3 7 5 5 3 5 7 3 4 3
2210.0 6 8 7 9 7 5 2 3 6 1
2250.0 8 3 3 7 4 8 4 0 4 5
2290.0 9 11 8 7 13 22 20 33 39 48
2330.0 48 46 47 49 41 38 48 36 42 28
2370.0 40 34 26 29 27 33 35 38 35 36
2410.0 36 37 37 33 36 35 35 33 30 31
2450.0 29 29 27 27 20 23 21 19 21 17
2490.0 20 22 23 26 28 28 31 33 36 36
2530.0 36 33 36 34 34 32 32 35 32 35
2570.0 39 31 32 34 41 45 48 51 54 55
2610.0 62 63 64 67 71 72 74 81 83 94
2650.0 101 103 114 120 123 130 143 145 148 151
2690.0 147 147 160 168 172 182 188 204 209 218
2730.0 231 243 260 274 290 291 305 303 312 322
2770.0 329 346 364 375 395 413 434 457 477 507
2810.0 537 579 635 716 826 989 1209 1485 1827 2224
2850.0 2631 2989 3345 3721 4169 4724 5279 5919 6249 6114
2890.0 5825 5407 5115 5226 5607 6179 6767 7356 7921 8489
2930.0 9147 9662 10000 9919 9410 8692 8111 7907 8217 9092
2970.0 9648 9094 8166 6507 4637 3524 2856 2413 2098 1861
3010.0 1686 1550 1465 1407 1362 1307 1235 1126 995 856
3050.0 726 600 495 415 353 311 280 254 230 212
3090.0 194 182 165 154 145 128 121 113 106 108
3130.0 105 95 92 84 79 71 74 74 71 77
3170.0 64 66 67 71 71 67 65 56 51 54
3210.0 48 40 36 35 34 35 30 28 29 26
3250.0 24 18 22 20 19 17 16 21 18 16
3290.0 10 6 10 13 19 8 24 14 7 12
3330.0 5 8 9 6 11 13 19 3 6 1
3370.0 12 16 11 24 9 6 18 17 10 16
3410.0 12 14 20 24 19 18 19 20 20 22
3450.0 16 29 23 26 32 23 26 32 26 28
3490.0 20 14 22 12 10 18 13 16 15 13
3530.0 21 26 41 25 38 34 36 40 34 49
3570.0 52 62 62 70 78 86 91 105 161 263
3610.0 425 589 668 676 632 541 457 420 419 438
3650.0 485 602 711 805 917 924 892 783 644 458
3690.0 321 230 179 140 117 105 77 56 55 60
3730.0 48 38 32 32 39 50 53 26 28 27
3770.0 24 32 33 34 17 28 23 33 43 43
3810.0 28 18 22 51 41 38 36 46 44 34
3850.0 32 41 40 40 26 38 26 38 31 43
3890.0 41 44 33 35 21 22 25 40 16 11
3930.0 29 38 8 29 29 28 22 18 20 18
##END=
