##TITLE=Biphenyl, 2-nitro-3,3',4,4'-tetramethyl-,
##JCAMP-DX=4.24
##DATA TYPE=INFRARED SPECTRUM
##ORIGIN=Sadtler Research Labs Under US-EPA Contract
##OWNER=NIST Standard Reference Data Program
##CAS REGISTRY NO=21113-36-0
##MOLFORM=C 16 H 17 N O 2
##XUNITS=1/CM
##YUNITS=ABSORBANCE
##XFACTOR=1.0
##YFACTOR=0.000052185
##DELTAX=4.0
##FIRSTX=450.0
##LASTX=3966.0
##FIRSTY=0.014716
##MAXX=3966
##MINX=450
##MAXY=0.52185
##MINY=0
##NPOINTS=880
##XYDATA=(X++(Y..Y))
450.0 282 193 162 90 113 102 106 97 92 127
490.0 11 49 28 47 145 183 110 75 110 109
530.0 30 91 120 133 173 119 103 175 126 216
570.0 261 250 274 258 226 355 397 470 433 365
610.0 276 183 127 81 55 63 63 29 23 69
650.0 67 77 75 85 83 127 108 104 107 101
690.0 77 89 103 125 186 279 424 498 587 723
730.0 761 578 361 250 221 186 206 225 278 296
770.0 321 386 540 823 969 873 739 748 954 1404
810.0 2170 2990 3228 2770 1915 1163 756 610 398 183
850.0 120 117 129 160 194 269 438 742 1042 1057
890.0 781 494 274 163 117 112 95 96 91 98
930.0 99 106 119 116 130 123 122 136 164 199
970.0 233 294 391 509 636 740 738 659 541 437
1010.0 415 409 416 415 390 356 315 302 308 318
1050.0 312 300 287 256 242 227 227 224 231 259
1090.0 323 445 524 454 310 232 204 214 249 360
1130.0 520 575 489 371 306 295 294 297 314 312
1170.0 318 347 369 327 283 253 228 213 206 215
1210.0 230 257 297 301 292 284 292 310 344 403
1250.0 477 562 620 624 572 513 464 427 401 377
1290.0 342 311 300 303 307 326 348 370 410 448
1330.0 516 581 671 828 1043 1377 1858 2536 3217 3498
1370.0 3162 2563 2117 1898 1734 1543 1346 1150 994 851
1410.0 779 737 702 752 784 870 957 1118 1275 1460
1450.0 1638 1786 1839 1829 1812 1918 2244 2794 3230 3234
1490.0 2811 2295 1893 1722 1715 1777 1959 2292 2909 3903
1530.0 5143 6820 8653 10000 9632 7458 4665 2778 1722 1270
1570.0 992 864 734 695 695 724 779 831 850 813
1610.0 734 624 483 363 268 245 206 204 190 161
1650.0 104 111 97 88 69 48 25 36 10 10
1690.0 23 31 17 21 34 55 58 33 77 88
1730.0 85 75 109 111 118 135 165 189 208 219
1770.0 175 130 99 79 68 50 23 25 10 13
1810.0 6 8 15 10 17 8 27 30 27 17
1850.0 30 36 38 33 31 36 60 93 115 144
1890.0 161 175 154 114 79 48 30 23 13 9
1930.0 13 6 11 13 11 16 10 7 14 14
1970.0 15 12 14 17 13 5 4 4 5 4
2010.0 3 2 0 8 5 6 9 15 11 12
2050.0 15 11 14 12 5 10 5 6 3 6
2090.0 14 7 7 4 3 11 11 14 16 15
2130.0 15 15 19 11 10 10 13 10 13 11
2170.0 13 11 2 5 9 1 2 9 3 11
2210.0 14 15 20 19 24 22 18 20 20 19
2250.0 25 25 27 33 29 29 36 32 38 38
2290.0 45 48 54 68 61 73 82 76 94 85
2330.0 89 85 85 105 89 87 100 73 97 90
2370.0 63 68 78 81 62 53 56 58 53 63
2410.0 69 70 64 69 62 64 58 64 59 62
2450.0 59 64 64 68 60 67 69 63 68 67
2490.0 61 60 71 62 63 56 55 51 63 60
2530.0 63 62 66 67 74 80 78 87 86 87
2570.0 87 81 78 79 70 72 76 77 71 72
2610.0 71 68 64 70 74 69 66 74 73 72
2650.0 67 72 70 67 64 66 74 73 76 82
2690.0 85 83 95 93 99 108 123 126 139 150
2730.0 167 186 217 237 241 222 198 176 164 156
2770.0 169 174 174 167 161 163 167 167 175 182
2810.0 190 189 216 239 250 273 304 344 390 431
2850.0 515 617 733 900 1084 1295 1521 1697 1751 1693
2890.0 1591 1509 1467 1440 1418 1427 1478 1615 1858 2278
2930.0 2916 3505 3647 3185 2636 2341 2220 2088 1873 1674
2970.0 1594 1663 1817 1892 1746 1496 1249 1082 1009 986
3010.0 1011 1070 1190 1387 1640 1792 1739 1487 1200 1024
3050.0 957 976 1022 1092 1137 1107 972 804 650 519
3090.0 423 370 321 280 256 236 221 207 192 158
3130.0 148 124 97 91 74 62 53 52 45 43
3170.0 54 40 42 42 25 15 14 22 25 19
3210.0 26 29 9 19 19 9 9 10 2 12
3250.0 10 11 16 14 13 11 16 23 19 18
3290.0 18 18 16 14 16 23 28 29 22 17
3330.0 21 18 18 16 20 27 22 25 25 30
3370.0 26 10 18 40 37 24 28 24 33 20
3410.0 16 18 19 36 35 33 30 28 18 13
3450.0 23 33 29 37 38 35 17 12 17 15
3490.0 13 21 23 30 22 15 16 22 27 27
3530.0 27 33 20 19 38 29 26 11 2 32
3570.0 25 19 17 30 30 31 18 29 22 16
3610.0 37 30 22 25 19 32 12 37 32 37
3650.0 23 36 30 6 25 9 29 24 39 38
3690.0 25 20 31 44 38 42 42 25 27 48
3730.0 37 37 23 25 41 22 20 11 37 47
3770.0 40 39 42 16 21 19 41 40 18 23
3810.0 16 26 29 33 21 6 46 49 24 27
3850.0 18 38 25 29 36 59 47 34 60 31
3890.0 34 40 40 71 59 33 45 38 31 32
3930.0 64 42 24 57 42 32 46 32 35 58
##END=
