##TITLE=Benzene, 2-(1,1-dimethylethyl)-1,4-dimethoxy-
##JCAMP-DX=4.24
##DATA TYPE=INFRARED SPECTRUM
##ORIGIN=Sadtler Research Labs Under US-EPA Contract
##OWNER=NIST Standard Reference Data Program
##CAS REGISTRY NO=21112-37-8
##MOLFORM=C 12 H 18 O 2
##XUNITS=1/CM
##YUNITS=ABSORBANCE
##XFACTOR=1.0
##YFACTOR=0.000069730
##DELTAX=4.0
##FIRSTX=450.0
##LASTX=3966.0
##FIRSTY=0.055993
##MAXX=3966
##MINX=450
##MAXY=0.6973
##MINY=0
##NPOINTS=880
##XYDATA=(X++(Y..Y))
450.0 803 594 801 466 1019 1241 977 319 80 27
490.0 1069 65 321 859 1572 891 956 795 684 542
530.0 576 639 912 765 695 868 571 521 598 607
570.0 623 666 699 617 619 549 516 603 567 617
610.0 570 610 629 657 646 621 625 581 613 577
650.0 593 553 562 563 572 593 590 635 679 766
690.0 788 791 706 592 608 622 665 680 914 1251
730.0 1729 1978 1872 1425 1054 813 720 643 652 608
770.0 562 648 692 689 759 891 1081 1292 1429 1442
810.0 1425 1203 927 814 615 578 622 547 543 585
850.0 640 707 711 718 729 769 851 909 833 727
890.0 645 593 629 685 786 848 863 778 676 620
930.0 580 550 520 482 474 489 483 487 477 483
970.0 484 463 501 556 570 620 652 678 703 753
1010.0 848 943 1106 1334 1653 2043 2360 2613 2795 3074
1050.0 3384 3706 3806 3726 3366 2780 2144 1732 1756 1882
1090.0 1863 1631 1227 908 742 668 635 617 618 625
1130.0 639 681 739 807 829 843 840 871 959 1146
1170.0 1444 1841 2204 2290 2124 1819 1678 1779 2104 2713
1210.0 3863 5716 7986 9742 10000 8797 6835 5174 3890 2932
1250.0 2263 1817 1589 1513 1554 1634 1871 2278 2730 2896
1290.0 2738 2390 2078 1834 1569 1305 1035 850 698 614
1330.0 551 530 520 493 489 507 617 747 1033 1173
1370.0 1049 868 710 692 873 1148 1405 1609 1781 1950
1410.0 2112 2092 1949 1733 1496 1299 1243 1357 1620 1852
1450.0 2081 2278 2511 2833 3191 3414 3541 3587 3962 4803
1490.0 5607 6035 5815 5134 4109 2942 1948 1317 967 755
1530.0 649 574 539 520 490 469 462 485 509 560
1570.0 686 874 1140 1353 1420 1319 1148 1065 1068 1095
1610.0 1090 1015 886 720 587 476 417 385 359 354
1650.0 359 376 417 466 468 405 351 300 286 278
1690.0 271 260 276 276 272 256 259 268 249 245
1730.0 250 270 259 254 258 266 252 247 239 234
1770.0 239 242 234 234 224 222 219 217 219 211
1810.0 202 212 205 210 212 217 208 200 201 204
1850.0 190 172 166 160 160 167 156 150 154 154
1890.0 150 149 160 159 166 164 158 163 164 157
1930.0 153 158 151 157 162 167 181 188 185 187
1970.0 185 181 174 164 167 164 163 165 159 159
2010.0 153 143 138 141 149 151 148 165 158 154
2050.0 151 151 151 155 156 154 158 156 156 155
2090.0 152 144 144 135 138 137 137 146 150 153
2130.0 150 143 129 119 98 87 76 73 79 83
2170.0 78 80 84 86 77 77 72 72 64 63
2210.0 65 66 68 65 53 53 49 49 48 41
2250.0 42 40 40 43 40 41 33 35 33 29
2290.0 27 19 21 20 9 8 24 17 28 40
2330.0 35 55 56 62 30 29 29 35 25 31
2370.0 33 26 18 13 10 21 28 31 28 24
2410.0 29 26 26 27 23 23 12 19 26 35
2450.0 33 28 33 37 34 32 42 45 44 44
2490.0 47 47 42 38 39 40 38 37 28 29
2530.0 18 12 19 19 18 15 22 25 11 13
2570.0 14 10 16 18 20 23 26 28 26 30
2610.0 25 31 27 30 38 32 40 44 52 50
2650.0 47 52 46 49 53 49 55 60 54 46
2690.0 44 46 56 45 50 64 74 88 84 77
2730.0 69 65 62 61 71 79 80 75 82 80
2770.0 90 93 97 117 128 141 147 166 200 230
2810.0 263 295 344 417 550 835 1288 1710 1861 1702
2850.0 1344 1093 1015 1051 1165 1345 1542 1670 1702 1695
2890.0 1667 1666 1720 1886 2157 2499 2864 3084 3086 2969
2930.0 2854 2856 3040 3392 3825 4221 4621 4898 5020 5016
2970.0 4795 4349 3347 2264 1697 1631 1956 2484 2865 2775
3010.0 2186 1432 834 548 421 372 365 391 404 407
3050.0 411 404 399 413 425 439 431 421 391 363
3090.0 322 279 252 203 202 193 187 193 189 180
3130.0 175 159 126 119 107 102 99 90 92 99
3170.0 97 103 89 74 77 79 75 62 71 68
3210.0 74 67 65 63 67 54 61 66 69 54
3250.0 64 63 70 56 52 52 43 54 66 63
3290.0 70 62 69 66 58 45 63 62 63 42
3330.0 54 44 31 25 48 59 50 48 44 47
3370.0 43 39 44 51 55 50 49 45 50 32
3410.0 36 45 58 45 43 38 36 30 48 43
3450.0 31 19 47 31 41 52 30 28 51 46
3490.0 32 35 51 26 31 49 9 23 27 69
3530.0 30 34 37 43 57 33 29 14 23 27
3570.0 59 24 39 32 42 53 51 43 11 26
3610.0 49 13 40 21 45 33 41 50 56 60
3650.0 84 113 82 37 29 15 52 40 44 16
3690.0 30 20 24 35 56 12 18 12 28 31
3730.0 8 8 26 29 0 32 44 78 27 49
3770.0 55 46 29 4 16 29 43 19 17 29
3810.0 86 23 4 28 90 33 42 13 20 95
3850.0 14 78 66 103 82 4 29 66 74 35
3890.0 18 2 21 57 114 26 35 54 4 90
3930.0 104 93 11 40 30 16 32 127 84 19
##END=
