##TITLE=1,1'-Biphenyl, 3-nitro-
##JCAMP-DX=4.24
##DATA TYPE=INFRARED SPECTRUM
##ORIGIN=Sadtler Research Labs Under US-EPA Contract
##OWNER=NIST Standard Reference Data Program
##CAS REGISTRY NO=2113-58-8
##MOLFORM=C 12 H 9 N O 2
##XUNITS=1/CM
##YUNITS=ABSORBANCE
##XFACTOR=1.0
##YFACTOR=0.000050558
##DELTAX=4.0
##FIRSTX=450.0
##LASTX=3966.0
##FIRSTY=0.000000
##MAXX=3966
##MINX=450
##MAXY=0.50558
##MINY=0
##NPOINTS=880
##XYDATA=(X++(Y..Y))
450.0 0 302 285 396 383 399 394 483 458 478
490.0 513 517 531 522 524 490 474 466 489 492
530.0 476 486 470 490 509 511 469 483 464 445
570.0 438 436 433 425 399 439 401 405 423 547
610.0 790 940 831 603 454 409 412 422 389 434
650.0 443 478 504 675 828 1371 1620 1602 1565 1753
690.0 2114 2404 2522 2151 1699 1333 1182 1393 1907 2626
730.0 3417 3426 2399 1728 1180 1098 1471 2046 2484 2380
770.0 1949 1426 1005 790 672 685 785 942 1069 1080
810.0 859 678 528 436 416 423 432 444 450 440
850.0 424 457 466 553 742 1097 1244 1195 864 610
890.0 604 642 723 757 688 608 572 542 533 500
930.0 444 419 388 380 370 360 366 384 389 413
970.0 405 385 387 383 375 374 388 402 422 439
1010.0 460 489 578 655 652 576 487 489 539 589
1050.0 589 554 519 532 600 673 756 826 849 826
1090.0 788 766 835 932 961 864 682 544 476 440
1130.0 423 417 407 405 405 406 417 437 507 578
1170.0 592 521 435 399 381 385 377 374 371 370
1210.0 364 372 382 389 397 400 403 408 422 446
1250.0 504 587 689 766 796 803 817 839 827 791
1290.0 742 724 730 722 702 672 708 758 858 982
1330.0 1155 1396 1815 2614 4027 6181 7963 8200 6370 3742
1370.0 2018 1184 822 669 593 559 543 528 521 503
1410.0 499 516 524 562 558 543 499 506 531 588
1450.0 657 734 787 855 979 1193 1425 1438 1256 991
1490.0 1006 1222 1518 1747 1668 1439 1233 1229 1444 1987
1530.0 2810 4323 6729 9026 10000 8329 5599 3517 2689 2483
1570.0 2420 2351 2152 1934 1710 1486 1221 995 868 762
1610.0 698 639 594 557 515 505 463 453 448 447
1650.0 437 435 442 454 433 407 394 386 378 356
1690.0 367 362 343 351 370 379 377 381 413 432
1730.0 416 391 371 373 376 367 367 359 355 346
1770.0 343 342 362 366 384 408 431 451 435 419
1810.0 394 399 404 401 392 376 370 366 356 346
1850.0 346 348 350 352 357 362 384 403 411 419
1890.0 418 440 448 424 385 346 337 324 327 339
1930.0 347 366 398 422 444 457 456 447 427 396
1970.0 359 335 322 320 317 309 311 305 303 308
2010.0 306 302 298 302 304 309 308 306 300 305
2050.0 308 303 302 302 303 299 303 302 299 303
2090.0 302 297 303 299 302 302 301 297 301 302
2130.0 301 296 297 297 297 294 301 298 305 306
2170.0 303 304 304 308 302 305 307 311 309 311
2210.0 310 308 306 307 302 303 309 306 296 300
2250.0 300 300 300 297 300 300 300 308 308 321
2290.0 328 331 343 350 366 377 375 372 376 357
2330.0 347 335 328 350 336 371 357 343 312 300
2370.0 285 298 302 320 307 299 295 290 303 302
2410.0 303 301 302 304 297 297 300 304 302 300
2450.0 300 311 309 303 300 299 287 280 278 283
2490.0 284 283 287 285 284 281 283 287 291 282
2530.0 288 292 294 288 291 291 288 289 290 292
2570.0 302 295 298 299 299 295 293 298 299 304
2610.0 304 305 308 308 309 306 310 301 307 302
2650.0 299 293 298 303 300 298 303 309 312 311
2690.0 311 319 323 328 327 321 314 309 303 300
2730.0 297 296 301 298 297 289 294 301 299 297
2770.0 303 305 302 305 310 305 304 302 309 311
2810.0 321 320 321 312 320 323 325 324 324 331
2850.0 339 344 350 355 370 377 392 406 421 428
2890.0 431 427 419 388 368 367 351 351 343 346
2930.0 350 343 342 341 339 331 337 329 334 332
2970.0 332 325 328 340 333 347 355 367 384 403
3010.0 420 433 457 514 597 728 909 1094 1187 1125
3050.0 972 843 830 924 1175 1523 1754 1752 1523 1301
3090.0 1143 996 867 752 649 577 517 469 423 393
3130.0 360 338 335 327 323 319 326 315 313 314
3170.0 302 301 306 303 302 296 301 301 308 307
3210.0 300 291 292 303 297 287 301 299 293 283
3250.0 287 290 286 300 291 295 288 286 293 297
3290.0 302 291 290 294 298 298 289 294 288 299
3330.0 293 288 297 288 302 289 286 298 296 286
3370.0 293 278 294 298 287 290 302 303 296 296
3410.0 302 305 302 300 293 293 304 299 301 302
3450.0 301 300 292 301 295 306 304 304 289 308
3490.0 300 297 302 288 306 293 313 308 321 321
3530.0 311 302 303 313 317 320 298 310 327 312
3570.0 323 324 305 304 321 318 293 307 292 320
3610.0 324 324 311 313 307 302 309 311 314 321
3650.0 310 310 321 313 314 314 332 301 307 304
3690.0 315 312 316 305 326 330 302 322 306 305
3730.0 287 297 318 308 293 295 300 304 292 308
3770.0 304 299 327 296 307 304 306 328 293 286
3810.0 295 287 298 301 300 317 295 306 318 307
3850.0 306 302 327 307 299 310 310 324 300 300
3890.0 286 299 307 325 314 316 313 302 315 331
3930.0 334 323 305 332 301 329 306 334 302 298
##END=
