##TITLE=Cyclohexanol, 3-tert-butyl-5-phenyl-, cis,cis-
##JCAMP-DX=4.24
##DATA TYPE=INFRARED SPECTRUM
##ORIGIN=Sadtler Research Labs Under US-EPA Contract
##OWNER=NIST Standard Reference Data Program
##CAS REGISTRY NO=21152-33-0
##MOLFORM=C 16 H 24 O
##XUNITS=1/CM
##YUNITS=ABSORBANCE
##XFACTOR=1.0
##YFACTOR=0.000081018
##DELTAX=4.0
##FIRSTX=450.0
##LASTX=3966.0
##FIRSTY=0.000000
##MAXX=3966
##MINX=450
##MAXY=0.81018
##MINY=0
##NPOINTS=880
##XYDATA=(X++(Y..Y))
450.0 0 49 78 104 145 128 211 257 257 314
490.0 282 321 326 349 351 338 360 362 384 459
530.0 566 674 850 1065 1250 1305 1104 769 554 418
570.0 351 349 330 312 300 299 308 303 317 340
610.0 439 510 479 384 315 286 273 286 303 311
650.0 303 333 320 387 419 577 699 745 777 881
690.0 1609 2558 3348 2748 1620 971 776 713 667 636
730.0 661 677 686 797 1119 1648 2045 1963 1433 903
770.0 621 509 426 369 319 304 308 306 304 321
810.0 371 428 435 375 325 294 303 358 449 585
850.0 672 642 556 541 526 450 382 351 369 425
890.0 511 633 722 759 723 638 544 480 471 475
930.0 464 451 452 464 455 430 422 438 493 585
970.0 714 846 891 836 728 642 615 667 818 1069
1010.0 1384 1579 1550 1365 1355 1578 1855 2345 3252 4398
1050.0 5028 4672 3537 2409 1727 1387 1169 1014 946 942
1090.0 987 1072 1176 1214 1117 936 802 764 771 755
1130.0 691 601 540 504 497 500 529 563 597 652
1170.0 705 753 804 852 884 896 913 950 998 1065
1210.0 1132 1196 1237 1297 1415 1584 1706 1694 1543 1366
1250.0 1235 1135 1068 1044 1069 1122 1152 1144 1126 1089
1290.0 1026 939 844 791 768 738 694 691 752 815
1330.0 812 781 807 892 1011 1179 1423 1761 2256 3003
1370.0 3646 3695 2974 2230 1797 1687 1783 1808 1568 1150
1410.0 804 658 583 542 537 546 560 596 710 803
1450.0 939 1056 1242 1370 1406 1394 1433 1527 1514 1487
1490.0 1590 1787 1622 1112 688 470 411 308 285 257
1530.0 262 243 209 203 178 182 162 173 150 176
1570.0 181 205 238 312 403 523 673 887 972 905
1610.0 615 406 294 249 198 162 144 145 148 144
1650.0 165 160 173 175 168 152 159 145 167 152
1690.0 173 182 191 206 221 251 278 350 425 522
1730.0 597 594 474 380 285 254 213 204 180 179
1770.0 178 170 189 202 248 291 310 274 222 184
1810.0 175 165 148 141 132 130 126 130 133 144
1850.0 151 156 173 184 186 189 185 179 174 160
1890.0 140 121 110 106 106 109 116 123 135 142
1930.0 168 207 224 219 199 200 215 197 148 108
1970.0 92 88 87 87 85 86 80 78 76 73
2010.0 74 73 74 72 74 72 73 71 72 73
2050.0 72 76 75 74 76 73 73 75 75 74
2090.0 76 76 76 79 78 75 74 74 72 72
2130.0 69 64 63 63 63 66 66 66 68 69
2170.0 68 70 70 68 71 65 66 64 61 63
2210.0 58 57 57 58 55 55 54 54 51 54
2250.0 52 54 51 51 49 50 49 53 59 62
2290.0 68 73 78 76 82 92 94 85 76 68
2330.0 68 76 73 82 78 91 91 84 91 88
2370.0 85 77 85 94 84 78 76 75 76 81
2410.0 80 80 78 76 78 72 70 69 70 69
2450.0 69 71 73 71 71 69 71 73 69 69
2490.0 70 68 70 71 73 74 77 74 79 82
2530.0 83 84 88 91 92 95 93 98 98 102
2570.0 106 112 113 118 119 121 122 125 131 128
2610.0 134 135 140 142 149 157 161 166 168 166
2650.0 166 160 162 159 159 157 157 161 164 168
2690.0 169 171 172 176 179 179 185 190 200 211
2730.0 211 207 195 190 194 200 216 227 230 232
2770.0 229 237 241 250 255 265 278 288 308 325
2810.0 357 384 411 434 466 514 590 697 871 1165
2850.0 1626 2267 2921 3468 3902 4212 4427 4408 4080 3519
2890.0 2981 2681 2688 2938 3300 3614 3756 3841 4039 4513
2930.0 5174 5881 6433 6927 7410 7958 8631 9336 9972 10000
2970.0 9556 8397 6621 4278 2316 1345 939 778 744 747
3010.0 760 767 845 1050 1394 1785 1974 1817 1491 1213
3050.0 1033 935 964 1188 1630 2041 2014 1558 1163 1051
3090.0 991 867 723 606 537 475 416 340 261 201
3130.0 169 150 133 128 124 118 117 122 124 127
3170.0 130 128 123 120 120 117 116 112 114 111
3210.0 110 110 110 107 104 101 99 90 87 83
3250.0 79 79 78 75 73 74 71 74 67 71
3290.0 67 67 63 65 64 62 56 61 65 62
3330.0 59 64 66 70 65 70 72 81 80 85
3370.0 82 80 77 81 88 82 84 87 96 93
3410.0 99 105 108 108 115 113 121 119 128 124
3450.0 121 122 123 119 116 114 109 116 119 109
3490.0 113 108 106 110 107 105 111 113 110 109
3530.0 115 116 111 110 103 103 111 108 110 97
3570.0 96 107 105 119 101 95 104 103 94 102
3610.0 93 97 110 126 157 181 272 359 526 761
3650.0 904 848 578 303 186 93 84 58 70 66
3690.0 50 51 64 64 59 49 49 49 49 49
3730.0 49 49 49 49 49 49 49 49 49 49
3770.0 49 53 54 48 58 55 51 50 49 52
3810.0 70 62 51 49 54 66 54 49 49 55
3850.0 67 49 50 68 56 53 54 62 49 76
3890.0 65 69 59 49 49 51 55 54 62 54
3930.0 61 52 49 54 54 58 63 52 55 51
##END=
