##TITLE=Pentanedioic acid, 2,4-dimethyl-, dimethyl ester
##JCAMP-DX=4.24
##DATA TYPE=INFRARED SPECTRUM
##ORIGIN=Sadtler Research Labs Under US-EPA Contract
##OWNER=NIST Standard Reference Data Program
##CAS REGISTRY NO=2121-68-8
##MOLFORM=C 9 H 16 O 4
##XUNITS=1/CM
##YUNITS=ABSORBANCE
##XFACTOR=1.0
##YFACTOR=0.000122693
##DELTAX=4.0
##FIRSTX=450.0
##LASTX=3966.0
##FIRSTY=0.099381
##MAXX=3966
##MINX=450
##MAXY=1.22693
##MINY=0
##NPOINTS=880
##XYDATA=(X++(Y..Y))
450.0 810 223 7 91 65 70 78 47 146 74
490.0 83 67 87 48 74 76 71 72 69 87
530.0 94 125 118 83 101 108 78 49 91 52
570.0 85 75 83 47 93 127 58 85 53 82
610.0 74 91 87 98 86 61 88 87 115 109
650.0 96 74 72 80 78 75 97 78 76 82
690.0 83 74 77 85 101 92 92 92 112 84
730.0 77 107 125 140 169 211 250 287 297 269
770.0 236 189 187 82 135 178 203 183 216 226
810.0 292 361 476 566 587 549 484 431 369 320
850.0 261 244 217 205 221 218 217 202 209 197
890.0 203 212 219 212 202 193 189 199 221 254
930.0 278 314 321 300 265 209 185 164 162 160
970.0 186 208 272 343 420 520 586 578 500 427
1010.0 409 440 488 526 566 625 710 780 810 768
1050.0 702 666 680 770 918 1141 1416 1722 1936 2022
1090.0 1921 1719 1526 1384 1313 1320 1424 1584 1813 2102
1130.0 2444 2789 3061 3232 3322 3415 3645 4134 4867 5712
1170.0 6341 6480 6126 5477 5009 4766 4654 4449 4071 3602
1210.0 3243 3031 2918 2855 2826 2840 2875 2925 2935 2916
1250.0 2889 2844 2759 2572 2337 2071 1839 1635 1452 1257
1290.0 1065 902 812 773 777 802 839 883 926 962
1330.0 986 994 977 947 921 918 931 962 1017 1052
1370.0 1060 1066 1100 1110 1082 931 724 540 416 354
1410.0 328 315 335 366 454 714 1190 1609 1769 1505
1450.0 1246 1233 1370 1560 1653 1601 1355 981 664 500
1490.0 396 330 301 267 265 254 221 229 240 219
1530.0 216 197 217 213 197 178 188 199 197 159
1570.0 170 152 168 136 138 127 125 124 116 119
1610.0 109 121 124 111 112 111 117 132 109 134
1650.0 125 171 135 117 136 141 146 154 168 207
1690.0 201 232 289 357 404 513 635 833 1014 1284
1730.0 1615 2079 2740 3758 5617 7823 9984 10000 8521 6134
1770.0 4212 2974 2149 1568 1103 786 577 426 338 263
1810.0 221 185 154 138 129 116 101 91 90 87
1850.0 78 68 69 61 70 62 61 56 58 57
1890.0 60 62 58 58 57 60 58 64 64 66
1930.0 62 60 59 61 62 62 67 70 80 81
1970.0 90 98 104 108 109 112 107 102 101 98
2010.0 94 96 95 90 87 85 86 81 86 84
2050.0 88 87 82 78 79 81 81 85 83 82
2090.0 73 66 59 54 53 50 55 51 49 46
2130.0 47 48 46 42 40 44 37 44 44 42
2170.0 40 35 35 30 33 30 26 25 25 25
2210.0 25 24 20 20 20 22 20 19 19 18
2250.0 16 16 21 22 23 21 22 23 25 28
2290.0 29 34 42 44 52 55 49 49 39 36
2330.0 27 22 27 10 26 42 37 34 11 6
2370.0 3 9 20 31 37 31 33 27 33 33
2410.0 32 30 30 30 27 24 23 20 19 20
2450.0 20 20 20 22 21 21 16 19 19 18
2490.0 20 19 20 19 19 17 19 20 21 21
2530.0 21 22 20 22 24 24 24 28 32 31
2570.0 34 36 36 34 34 32 28 26 24 24
2610.0 18 16 11 11 11 9 8 17 7 1
2650.0 4 9 27 33 40 45 39 41 35 34
2690.0 37 41 43 41 40 39 37 36 35 36
2730.0 37 40 36 42 46 50 46 43 43 45
2770.0 39 39 40 42 48 48 50 51 53 60
2810.0 64 78 85 104 119 135 167 214 296 404
2850.0 486 501 437 364 327 328 371 457 593 751
2890.0 847 855 804 748 725 746 825 926 1021 1092
2930.0 1151 1216 1363 1578 1833 2101 2476 2900 3013 2705
2970.0 2162 1934 2304 2805 2930 2528 1925 1432 1109 906
3010.0 741 648 587 568 561 540 492 421 344 293
3050.0 258 224 203 183 178 176 163 154 148 144
3090.0 143 145 130 125 128 116 110 105 96 90
3130.0 85 78 73 73 69 66 62 57 57 51
3170.0 61 58 58 51 52 55 59 54 43 41
3210.0 43 46 37 36 32 32 28 20 16 25
3250.0 21 23 29 24 18 18 28 26 23 20
3290.0 28 35 30 35 28 21 24 26 22 16
3330.0 28 31 31 36 34 31 28 28 21 26
3370.0 27 26 16 21 21 28 11 8 20 14
3410.0 21 18 17 20 18 23 17 30 25 30
3450.0 30 37 47 43 51 71 72 70 82 96
3490.0 113 119 97 84 68 67 49 43 44 34
3530.0 40 41 30 24 26 34 27 16 39 23
3570.0 27 26 14 22 26 26 20 9 32 21
3610.0 22 22 22 32 16 26 10 27 10 18
3650.0 20 11 18 22 11 8 12 19 9 14
3690.0 20 12 5 3 1 1 4 2 1 1
3730.0 1 1 1 10 11 35 6 1 1 1
3770.0 1 1 1 1 16 14 1 21 19 1
3810.0 25 2 5 41 1 1 7 23 35 16
3850.0 1 24 18 17 34 1 10 16 1 14
3890.0 0 1 9 19 11 30 1 1 3 1
3930.0 21 11 43 25 21 12 0 14 31 54
##END=
