##TITLE=Acetic acid, bromo-, pentachlorophenyl ester
##JCAMP-DX=4.24
##DATA TYPE=INFRARED SPECTRUM
##ORIGIN=Sadtler Research Labs Under US-EPA Contract
##OWNER=NIST Standard Reference Data Program
##CAS REGISTRY NO=21219-23-8
##MOLFORM=C 8 H 2 Br Cl 5 O 2
##XUNITS=1/CM
##YUNITS=ABSORBANCE
##XFACTOR=1.0
##YFACTOR=0.000056696
##DELTAX=4.0
##FIRSTX=450.0
##LASTX=3966.0
##FIRSTY=0.010092
##MAXX=3966
##MINX=450
##MAXY=0.56696
##MINY=0
##NPOINTS=880
##XYDATA=(X++(Y..Y))
450.0 178 149 139 173 301 390 438 487 469 478
490.0 506 507 351 221 156 70 62 64 75 57
530.0 85 57 164 259 208 183 56 13 11 30
570.0 12 6 56 61 96 136 216 298 290 222
610.0 120 49 50 28 11 0 38 21 73 146
650.0 208 211 164 177 136 184 239 273 371 405
690.0 455 504 617 844 1321 2029 3047 3704 3312 2244
730.0 1265 809 624 548 513 472 481 490 525 552
770.0 549 564 663 920 1389 2011 2500 2428 1833 1221
810.0 825 645 517 450 392 343 290 296 299 353
850.0 448 604 847 1076 1175 1074 998 988 1022 1025
890.0 1022 1008 938 880 847 791 645 481 374 345
930.0 302 264 236 216 203 195 215 247 262 307
970.0 417 644 1124 1779 2005 1458 776 489 380 346
1010.0 326 318 316 334 374 412 458 521 603 702
1050.0 824 1002 1285 1708 2387 3480 5110 7189 9029 9577
1090.0 8650 7326 6167 4978 3870 3101 2580 2230 1990 1862
1130.0 1856 1824 1616 1320 1140 1060 1020 1001 1004 1043
1170.0 1138 1293 1516 1805 2183 2642 3172 3788 4471 4998
1210.0 4890 4226 3609 3244 3047 3059 3345 3842 4228 4013
1250.0 3300 2610 2173 1928 1790 1642 1438 1231 1085 967
1290.0 847 790 843 967 1073 1130 1163 1210 1226 1192
1330.0 1126 1091 1140 1302 1698 2486 3837 5602 6876 6760
1370.0 5938 6071 7737 9901 10000 6937 3670 1939 1240 974
1410.0 883 876 942 1003 967 763 534 369 280 243
1450.0 227 219 244 254 247 261 248 228 216 224
1490.0 214 181 153 165 211 248 251 276 290 290
1530.0 301 315 368 397 432 426 454 438 444 440
1570.0 464 460 476 449 439 432 419 402 397 387
1610.0 371 363 361 354 359 338 342 322 300 289
1650.0 268 238 231 204 212 220 223 243 267 284
1690.0 300 324 339 356 358 358 364 390 369 371
1730.0 395 421 429 464 502 533 573 611 684 772
1770.0 924 1098 1362 1751 2349 3157 4051 4518 4175 3246
1810.0 2445 2048 1876 1576 1064 607 368 276 228 212
1850.0 183 155 131 111 98 88 69 59 48 36
1890.0 32 23 20 11 13 16 17 11 20 20
1930.0 19 22 25 34 47 47 49 59 62 68
1970.0 66 56 45 38 31 30 26 23 17 14
2010.0 12 11 8 2 2 6 9 11 19 21
2050.0 19 20 14 14 14 18 16 13 13 19
2090.0 18 21 21 30 34 33 31 27 25 24
2130.0 24 24 25 28 33 39 38 39 38 39
2170.0 36 31 29 30 32 30 27 30 31 28
2210.0 30 29 32 35 36 37 41 44 45 43
2250.0 50 44 45 48 52 43 47 43 37 31
2290.0 22 23 10 25 10 8 25 28 61 71
2330.0 63 67 90 16 115 32 92 56 13 0
2370.0 47 43 47 42 36 35 49 48 47 45
2410.0 43 43 40 36 34 38 38 35 38 43
2450.0 44 45 45 48 47 48 43 41 45 40
2490.0 47 47 53 55 59 58 47 56 54 58
2530.0 43 44 38 37 37 38 38 38 42 38
2570.0 41 39 42 45 39 38 45 53 44 48
2610.0 47 48 48 54 54 53 56 55 57 54
2650.0 57 52 51 50 49 44 45 51 43 48
2690.0 48 42 40 41 40 36 40 40 44 40
2730.0 49 41 55 54 49 54 61 56 58 57
2770.0 49 49 47 47 49 52 44 49 43 34
2810.0 39 36 43 42 39 33 36 31 30 33
2850.0 25 30 20 20 22 27 21 24 23 22
2890.0 26 24 16 14 19 12 14 13 13 18
2930.0 14 18 31 35 48 58 63 84 120 150
2970.0 163 171 180 187 178 144 103 82 74 57
3010.0 58 59 52 38 36 42 43 41 42 45
3050.0 43 40 43 42 39 38 33 34 32 34
3090.0 36 34 29 29 26 29 36 42 34 27
3130.0 33 32 29 22 23 28 24 25 24 30
3170.0 25 26 25 22 24 23 20 18 23 22
3210.0 25 17 24 12 18 19 22 22 19 25
3250.0 23 23 22 22 20 21 18 32 22 13
3290.0 27 12 16 13 9 12 12 18 16 2
3330.0 6 10 14 17 13 24 25 27 21 29
3370.0 20 24 29 25 21 14 18 18 24 20
3410.0 26 23 30 25 25 38 32 26 23 18
3450.0 25 35 27 45 36 25 38 31 24 27
3490.0 20 30 33 26 33 30 38 23 23 23
3530.0 30 32 38 38 64 97 147 177 184 171
3570.0 100 74 55 47 49 42 37 30 35 32
3610.0 37 43 38 65 40 51 18 32 26 10
3650.0 37 19 19 24 5 43 14 49 2 38
3690.0 16 20 41 28 2 20 22 24 35 31
3730.0 26 43 34 12 61 26 44 18 33 14
3770.0 8 2 1 23 17 14 6 13 11 40
3810.0 1 14 24 28 30 14 20 9 23 8
3850.0 36 39 26 38 36 17 38 20 43 42
3890.0 20 50 45 37 25 28 17 24 33 36
3930.0 47 28 45 16 19 40 27 24 26 9
##END=
