##TITLE=Benzene, 1-chloro-2-(trichloromethyl)-
##JCAMP-DX=4.24
##DATA TYPE=INFRARED SPECTRUM
##ORIGIN=Sadtler Research Labs Under US-EPA Contract
##OWNER=NIST Standard Reference Data Program
##CAS REGISTRY NO=2136-89-2
##MOLFORM=C 7 H 4 Cl 4
##XUNITS=1/CM
##YUNITS=ABSORBANCE
##XFACTOR=1.0
##YFACTOR=0.000111688
##DELTAX=4.0
##FIRSTX=450.0
##LASTX=3966.0
##FIRSTY=0.193221
##MAXX=3966
##MINX=450
##MAXY=1.11688
##MINY=0
##NPOINTS=880
##XYDATA=(X++(Y..Y))
450.0 1730 1231 890 691 296 190 104 135 265 153
490.0 109 124 103 12 93 73 54 173 142 167
530.0 189 216 134 158 218 168 0 54 59 108
570.0 118 47 121 141 148 150 213 189 84 111
610.0 174 179 463 907 1266 1364 1135 588 345 232
650.0 223 190 187 183 167 259 311 390 598 848
690.0 1253 1907 2605 3135 3151 2229 1404 917 925 1563
730.0 2986 5241 7989 10000 9311 6235 3607 1804 1074 962
770.0 987 1214 1732 2759 4739 7290 9130 7934 4907 2603
810.0 1329 739 543 486 470 471 533 612 692 749
850.0 773 955 1353 2337 3675 4037 3642 2292 1022 432
890.0 304 274 270 264 239 213 180 140 100 101
930.0 104 92 95 105 106 120 108 121 122 106
970.0 104 110 123 128 115 104 108 103 104 119
1010.0 140 174 209 225 262 340 457 663 923 1199
1050.0 1556 1894 2003 1830 1327 762 429 330 271 243
1090.0 236 282 342 354 304 247 209 251 348 541
1130.0 824 1012 1004 808 525 396 388 474 610 728
1170.0 805 947 1213 1496 1620 1340 816 459 309 268
1210.0 244 244 242 224 196 177 181 193 217 218
1250.0 229 274 371 513 702 897 1005 958 770 541
1290.0 361 272 221 187 159 137 126 125 114 110
1330.0 108 100 111 105 92 89 85 86 86 80
1370.0 93 112 128 153 177 199 218 218 209 212
1410.0 286 429 664 858 978 1065 1336 1753 2056 1980
1450.0 1543 1156 1195 1536 1762 1689 1315 822 532 424
1490.0 379 327 252 183 157 136 125 99 105 91
1530.0 88 92 86 100 105 110 140 192 275 378
1570.0 510 625 662 714 704 689 616 473 346 253
1610.0 190 138 114 76 87 67 66 66 64 73
1650.0 82 82 73 71 61 70 91 107 139 162
1690.0 146 120 108 85 93 86 99 112 112 122
1730.0 127 153 141 162 173 181 180 193 202 203
1770.0 204 188 169 164 156 166 198 250 311 333
1810.0 315 247 171 114 97 98 107 113 115 97
1850.0 71 45 35 38 38 42 37 36 46 60
1890.0 74 74 71 65 64 80 115 155 187 175
1930.0 138 98 69 76 98 125 137 133 105 74
1970.0 49 37 32 33 27 32 27 29 27 28
2010.0 28 28 29 30 32 37 38 42 48 49
2050.0 57 57 49 38 28 21 22 21 20 22
2090.0 19 16 20 21 20 19 21 21 24 23
2130.0 24 27 26 28 28 26 25 21 23 22
2170.0 22 21 22 20 21 21 22 22 22 25
2210.0 23 26 29 29 31 31 39 43 46 48
2250.0 44 37 28 25 26 28 30 30 31 34
2290.0 38 38 37 40 37 33 27 25 22 25
2330.0 27 30 34 28 35 31 19 28 35 39
2370.0 39 42 40 34 32 29 25 23 26 27
2410.0 25 26 25 28 29 30 32 32 35 35
2450.0 38 35 38 35 30 25 26 24 25 24
2490.0 24 26 24 24 24 25 27 27 29 29
2530.0 28 30 30 34 33 33 31 28 29 28
2570.0 30 29 24 25 23 25 28 30 36 33
2610.0 32 34 33 40 51 46 52 58 59 62
2650.0 65 67 34 33 29 16 35 37 37 12
2690.0 23 28 18 60 39 26 23 26 31 43
2730.0 70 18 26 29 15 65 72 43 23 42
2770.0 25 81 79 32 21 27 26 74 68 5
2810.0 41 4 52 87 51 9 42 15 79 69
2850.0 47 38 49 54 91 48 39 37 29 32
2890.0 32 36 32 40 73 57 42 52 58 132
2930.0 89 73 71 84 137 67 37 70 98 113
2970.0 69 43 97 119 85 42 68 123 71 52
3010.0 65 96 86 46 79 89 92 48 79 85
3050.0 85 88 171 286 495 730 951 1014 929 730
3090.0 464 260 143 103 92 92 80 75 65 64
3130.0 72 86 100 106 110 101 78 55 41 28
3170.0 29 26 22 19 16 15 16 15 18 21
3210.0 16 18 20 20 21 15 15 16 24 20
3250.0 16 20 20 20 16 16 22 20 21 13
3290.0 16 15 15 24 19 18 21 19 19 16
3330.0 23 22 13 19 25 24 18 18 21 26
3370.0 28 23 20 20 22 26 24 26 20 14
3410.0 14 23 23 25 25 27 21 22 16 19
3450.0 30 28 25 22 22 20 23 23 24 25
3490.0 27 29 36 32 32 31 30 35 31 33
3530.0 32 31 27 35 30 37 34 32 37 57
3570.0 55 69 72 59 55 39 35 15 24 29
3610.0 26 25 27 30 25 25 20 25 13 11
3650.0 11 9 0 7 9 7 18 18 27 26
3690.0 23 30 33 23 14 31 25 24 23 31
3730.0 14 19 33 27 10 32 8 28 30 18
3770.0 23 30 41 24 23 28 28 21 7 12
3810.0 22 21 4 4 21 21 26 15 18 24
3850.0 22 23 24 34 26 27 31 30 28 20
3890.0 29 21 24 30 19 34 33 38 18 42
3930.0 22 9 38 34 68 38 47 32 27 36
##END=
