##TITLE=Heptanophenone, 2-phenyl-,
##JCAMP-DX=4.24
##DATA TYPE=INFRARED SPECTRUM
##ORIGIN=Sadtler Research Labs Under US-EPA Contract
##OWNER=NIST Standard Reference Data Program
##CAS REGISTRY NO=21383-06-2
##MOLFORM=C 19 H 22 O
##XUNITS=1/CM
##YUNITS=ABSORBANCE
##XFACTOR=1.0
##YFACTOR=0.000050714
##DELTAX=4.0
##FIRSTX=450.0
##LASTX=3966.0
##FIRSTY=0.008064
##MAXX=3966
##MINX=450
##MAXY=0.50714
##MINY=0
##NPOINTS=880
##XYDATA=(X++(Y..Y))
450.0 159 75 18 25 2 59 36 76 102 81
490.0 107 131 182 230 332 355 447 400 439 399
530.0 381 350 340 320 285 283 278 303 244 328
570.0 463 683 907 1076 1027 832 658 461 357 176
610.0 118 98 154 133 95 90 97 143 199 373
650.0 565 891 1085 1154 1177 1336 1511 1631 2052 2770
690.0 4293 6578 8965 7598 4637 2673 1970 1708 1610 1569
730.0 1567 1678 1945 2305 2648 2870 2571 1885 1260 972
770.0 840 737 596 459 350 290 233 210 186 180
810.0 141 130 111 151 217 322 398 388 323 256
850.0 256 249 262 269 272 272 256 233 204 198
890.0 214 250 250 269 264 282 302 316 358 401
930.0 419 448 527 680 920 1249 1614 1810 1758 1606
970.0 1466 1341 1192 1069 942 839 769 826 966 950
1010.0 800 698 755 897 1064 1104 898 542 311 267
1050.0 266 273 283 367 499 637 630 478 330 248
1090.0 239 260 285 304 324 311 292 232 174 109
1130.0 62 68 86 117 152 234 350 512 627 860
1170.0 1342 2169 3038 3249 2691 2220 2305 2643 2762 2705
1210.0 2654 2857 3120 3227 3022 2661 2420 2407 2464 2458
1250.0 2382 2282 2228 2222 2290 2358 2387 2246 1999 1748
1290.0 1552 1407 1274 1149 1048 1015 1056 1136 1202 1237
1330.0 1283 1387 1524 1690 1751 1637 1441 1203 988 833
1370.0 730 627 630 666 584 416 250 157 149 142
1410.0 125 161 113 198 244 343 465 760 1429 2303
1450.0 2807 2496 1812 1417 1256 1081 849 678 678 795
1490.0 1153 1607 1529 1043 454 140 91 30 0 45
1530.0 70 82 78 11 8 43 39 5 75 171
1570.0 274 472 747 992 1074 1117 1343 1671 1647 1216
1610.0 725 429 299 239 171 151 128 107 157 173
1650.0 205 292 418 535 607 784 1011 1549 2115 3198
1690.0 5044 7884 10000 9067 5811 3462 2104 1411 998 769
1730.0 568 424 419 388 380 350 416 400 369 362
1770.0 339 251 198 149 136 172 237 335 345 359
1810.0 290 214 165 120 84 39 42 38 26 1
1850.0 36 53 60 76 95 107 144 159 158 177
1890.0 181 184 168 149 142 129 114 89 77 89
1930.0 119 153 219 249 263 284 311 310 263 207
1970.0 170 141 95 67 53 39 30 29 32 27
2010.0 31 24 27 32 33 34 36 33 28 28
2050.0 27 26 30 29 19 21 21 16 18 13
2090.0 17 13 14 13 12 9 10 9 7 6
2130.0 6 7 2 7 6 6 9 15 14 14
2170.0 17 15 19 18 16 14 12 8 8 7
2210.0 7 6 5 10 5 5 5 6 9 12
2250.0 18 17 19 16 16 18 18 23 29 27
2290.0 23 25 28 30 33 50 68 89 78 52
2330.0 47 52 75 84 71 70 49 47 35 44
2370.0 58 62 67 68 61 58 58 55 53 53
2410.0 55 47 48 45 43 40 37 33 36 34
2450.0 34 33 32 30 26 26 28 28 28 30
2490.0 26 25 26 24 27 26 30 33 35 35
2530.0 35 40 44 43 48 47 46 47 49 54
2570.0 56 64 71 74 76 81 83 85 86 82
2610.0 82 78 77 83 87 90 92 93 91 94
2650.0 97 100 101 105 110 116 126 120 123 123
2690.0 120 119 118 120 121 121 123 128 138 145
2730.0 147 159 169 173 175 173 169 165 170 173
2770.0 183 196 210 231 246 261 287 300 321 345
2810.0 367 399 426 462 499 547 608 691 812 1002
2850.0 1317 1858 2605 3285 3664 3722 3498 3250 3198 3105
2890.0 2812 2558 2539 2752 3126 3588 4087 4710 5608 6726
2930.0 7801 8391 8410 7962 7261 6546 5991 5842 6145 6690
2970.0 6599 5310 3527 2284 1685 1351 1164 1052 1020 1025
3010.0 1037 1053 1179 1510 2064 2647 2841 2541 2057 1690
3050.0 1505 1586 1928 2539 3450 4406 4573 3617 2606 2364
3090.0 2394 2087 1601 1241 1054 874 671 478 351 278
3130.0 228 209 190 179 178 179 183 185 188 162
3170.0 148 115 105 85 79 79 75 71 64 59
3210.0 56 53 48 51 41 37 37 34 36 30
3250.0 32 27 31 31 31 30 31 25 22 27
3290.0 33 28 32 24 29 30 30 26 21 27
3330.0 29 34 37 35 44 42 55 58 74 87
3370.0 108 116 117 104 90 70 45 40 24 23
3410.0 23 19 23 18 28 26 29 28 22 20
3450.0 21 26 16 19 21 13 23 17 13 18
3490.0 23 16 24 17 25 18 25 22 17 8
3530.0 13 13 15 19 13 15 10 19 3 26
3570.0 28 50 75 84 85 83 58 37 23 26
3610.0 21 30 34 28 36 33 29 33 54 61
3650.0 51 56 49 62 41 37 36 35 34 44
3690.0 33 32 32 32 48 51 40 26 44 35
3730.0 20 27 40 26 32 10 27 36 40 37
3770.0 25 33 18 22 32 12 17 10 6 17
3810.0 10 12 29 20 19 24 17 31 30 12
3850.0 25 24 8 38 20 7 14 11 12 30
3890.0 30 13 29 42 36 20 21 23 22 30
3930.0 29 13 17 29 20 0 25 18 39 23
##END=
