##TITLE=Octane, 3,6-dimethyl-3,6-diphenyl
##JCAMP-DX=4.24
##DATA TYPE=INFRARED SPECTRUM
##ORIGIN=Sadtler Research Labs Under US-EPA Contract
##OWNER=NIST Standard Reference Data Program
##CAS REGISTRY NO=21411-35-8
##MOLFORM=C 22 H 30
##XUNITS=1/CM
##YUNITS=ABSORBANCE
##XFACTOR=1.0
##YFACTOR=0.000046017
##DELTAX=4.0
##FIRSTX=450.0
##LASTX=3966.0
##FIRSTY=0.000000
##MAXX=3966
##MINX=450
##MAXY=0.46017
##MINY=0
##NPOINTS=880
##XYDATA=(X++(Y..Y))
450.0 0 76 140 225 196 144 127 167 146 103
490.0 126 143 165 186 133 121 64 108 181 149
530.0 194 240 320 427 578 707 747 792 833 861
570.0 660 354 308 263 216 214 215 216 207 163
610.0 134 138 126 117 101 111 116 130 130 165
650.0 175 209 261 334 374 496 574 632 733 922
690.0 1830 4004 6577 5581 2984 1501 937 645 533 528
730.0 524 510 556 655 885 1351 2199 2999 2713 1797
770.0 1042 640 542 579 563 512 460 372 303 242
810.0 193 175 167 148 159 169 188 182 182 162
850.0 151 148 143 160 162 140 151 143 142 146
890.0 135 163 178 230 274 359 435 432 331 240
930.0 206 170 157 157 144 144 145 164 177 193
970.0 175 196 216 246 272 316 397 531 687 742
1010.0 674 554 515 572 780 1030 1043 718 442 328
1050.0 290 273 252 245 264 318 404 424 377 314
1090.0 257 239 231 235 234 213 186 165 158 151
1130.0 161 164 175 198 219 249 277 297 283 287
1170.0 280 278 280 268 247 261 271 252 217 202
1210.0 194 195 188 185 188 193 207 226 237 239
1250.0 251 257 261 272 286 296 320 352 393 432
1290.0 466 515 552 576 584 590 572 534 490 471
1330.0 472 470 469 436 390 381 392 443 525 588
1370.0 685 977 1472 1895 1862 1322 760 462 337 285
1410.0 269 259 300 296 331 376 511 737 1106 1381
1450.0 1381 1361 1568 1797 1971 1987 1792 1490 1210 1140
1490.0 1389 1878 2041 1489 831 498 367 303 293 264
1530.0 277 266 262 239 202 178 170 193 175 173
1570.0 201 236 311 385 446 546 722 931 997 847
1610.0 549 334 246 183 177 135 147 136 126 131
1650.0 152 158 154 155 153 156 161 126 133 133
1690.0 117 110 138 137 127 118 126 149 135 137
1730.0 161 196 181 169 168 166 149 136 128 119
1770.0 135 150 159 183 212 274 337 330 274 213
1810.0 195 170 138 123 118 118 105 102 111 127
1850.0 128 143 168 191 206 216 216 219 202 185
1890.0 169 148 127 114 108 107 110 117 128 143
1930.0 187 253 314 308 254 239 245 212 138 103
1970.0 87 90 90 86 80 79 72 73 71 70
2010.0 72 72 77 79 69 72 67 67 67 72
2050.0 75 70 66 67 70 72 70 69 73 71
2090.0 69 65 70 67 66 67 65 63 70 68
2130.0 60 69 65 67 66 63 68 65 72 71
2170.0 72 70 66 67 69 70 71 67 65 67
2210.0 63 67 64 66 69 68 78 73 72 70
2250.0 70 70 69 74 73 69 73 80 81 81
2290.0 75 82 86 87 90 101 110 119 112 92
2330.0 99 86 101 99 107 123 131 125 95 95
2370.0 97 96 101 103 97 96 87 80 74 78
2410.0 82 82 83 80 80 83 80 86 87 77
2450.0 82 77 74 76 73 77 78 76 80 75
2490.0 80 81 78 78 80 81 80 81 84 79
2530.0 80 83 89 83 84 87 92 92 91 86
2570.0 91 92 98 100 102 101 103 108 109 111
2610.0 110 105 114 113 121 118 123 130 126 128
2650.0 126 120 121 114 116 112 113 111 110 109
2690.0 112 114 107 111 110 115 123 123 125 131
2730.0 144 156 168 186 187 183 171 162 166 173
2770.0 166 175 182 193 199 210 204 216 229 235
2810.0 251 274 290 304 340 383 413 457 511 577
2850.0 683 855 1129 1481 1789 1991 2175 2457 2837 3297
2890.0 3509 3195 2693 2455 2480 2676 3047 3555 4151 4668
2930.0 5094 5417 5833 6349 6624 6226 5372 4773 5006 6390
2970.0 8577 10000 9467 7657 5348 3217 1922 1321 1039 910
3010.0 885 958 1133 1403 1696 1894 2035 2094 1905 1572
3050.0 1445 1633 2103 2761 3249 3144 2461 1738 1521 1718
3090.0 1957 1909 1502 1081 870 761 670 549 429 354
3130.0 308 275 253 231 226 211 212 216 220 191
3170.0 167 151 145 137 137 137 129 130 127 121
3210.0 118 125 115 123 121 116 114 113 120 109
3250.0 110 113 109 110 103 99 100 101 103 112
3290.0 106 90 97 92 73 92 100 91 82 89
3330.0 86 79 90 80 90 92 87 84 86 81
3370.0 77 78 82 79 89 89 92 82 89 76
3410.0 87 87 89 101 93 80 77 92 96 93
3450.0 78 74 73 96 95 92 91 87 81 81
3490.0 65 81 84 82 81 74 75 96 88 97
3530.0 85 80 66 73 82 81 78 80 75 81
3570.0 78 78 86 70 69 81 81 83 82 74
3610.0 94 82 79 72 75 78 97 101 102 94
3650.0 117 99 98 92 96 104 92 98 102 86
3690.0 96 83 89 93 102 104 89 97 101 99
3730.0 108 85 68 109 92 92 92 83 107 104
3770.0 91 102 100 114 89 99 84 71 80 91
3810.0 69 94 79 91 85 90 103 81 90 67
3850.0 65 85 92 96 85 87 94 98 101 111
3890.0 123 100 81 96 113 103 104 93 102 111
3930.0 108 88 108 107 109 88 69 77 98 117
##END=
