##TITLE=Octane, 3,6-diphenyl-,
##JCAMP-DX=4.24
##DATA TYPE=INFRARED SPECTRUM
##ORIGIN=Sadtler Research Labs Under US-EPA Contract
##OWNER=NIST Standard Reference Data Program
##CAS REGISTRY NO=21411-33-6
##MOLFORM=C 20 H 26
##XUNITS=1/CM
##YUNITS=ABSORBANCE
##XFACTOR=1.0
##YFACTOR=0.000088739
##DELTAX=4.0
##FIRSTX=450.0
##LASTX=3966.0
##FIRSTY=0.013311
##MAXX=3966
##MINX=450
##MAXY=0.88739
##MINY=0
##NPOINTS=880
##XYDATA=(X++(Y..Y))
450.0 150 122 71 11 215 76 75 126 104 151
490.0 207 182 189 194 243 317 356 386 500 672
530.0 835 1119 1249 1292 1186 875 604 484 388 368
570.0 312 264 207 172 178 191 185 163 154 140
610.0 141 157 157 137 130 128 134 154 151 177
650.0 214 285 376 471 551 614 633 623 737 938
690.0 1959 4769 9352 8724 4625 2111 1323 1022 1004 1104
730.0 1186 1252 1299 1532 1912 2662 3393 3458 2580 1582
770.0 977 706 566 444 373 342 338 331 306 296
810.0 263 246 236 225 232 246 255 276 283 267
850.0 232 199 206 252 285 297 292 294 326 350
890.0 404 468 502 492 431 327 233 176 161 145
930.0 135 133 128 127 128 126 141 150 163 162
970.0 166 174 181 174 172 170 172 186 206 205
1010.0 199 223 289 471 770 962 774 456 300 262
1050.0 248 271 311 393 497 570 580 566 567 573
1090.0 579 559 523 482 451 413 362 311 262 228
1130.0 196 172 154 151 158 177 205 214 220 238
1170.0 238 239 251 261 263 265 266 251 224 188
1210.0 174 163 166 163 166 173 169 151 123 86
1250.0 49 46 56 94 136 175 211 224 231 263
1290.0 301 356 413 471 498 516 517 528 565 592
1330.0 576 520 475 458 454 479 552 673 793 838
1370.0 843 903 1027 1152 1117 886 633 480 408 373
1410.0 362 367 371 390 415 456 530 647 924 1429
1450.0 2152 2531 2372 2080 1806 1497 1183 982 1019 1368
1490.0 2051 2447 1964 1116 568 354 239 160 99 32
1530.0 0 17 58 89 114 136 156 165 172 181
1570.0 212 275 391 546 679 824 999 1218 1331 1200
1610.0 844 505 329 257 215 191 175 164 159 162
1650.0 173 188 203 198 182 158 137 126 124 125
1690.0 130 138 154 158 161 154 149 145 133 112
1730.0 104 130 153 152 131 95 65 55 62 83
1770.0 114 149 163 167 212 306 397 400 315 223
1810.0 178 142 109 86 78 80 93 102 114 137
1850.0 160 192 223 248 263 270 265 259 240 211
1890.0 180 153 137 125 118 113 116 129 153 192
1930.0 263 359 403 357 291 289 291 230 142 92
1970.0 72 70 70 72 63 54 48 44 44 48
2010.0 45 40 40 40 38 40 39 37 37 35
2050.0 33 30 27 29 29 27 28 30 30 26
2090.0 24 24 22 19 16 12 13 16 13 13
2130.0 11 12 10 8 9 7 7 7 5 6
2170.0 9 7 7 8 6 6 7 5 6 2
2210.0 0 4 4 4 3 4 2 3 7 7
2250.0 12 10 10 7 6 6 11 8 9 10
2290.0 8 11 8 12 17 30 57 51 43 41
2330.0 48 66 80 82 74 48 65 49 54 47
2370.0 44 39 41 37 31 29 32 30 31 33
2410.0 35 36 34 37 34 34 35 35 35 34
2450.0 32 32 32 29 29 28 28 29 29 30
2490.0 29 32 34 38 36 40 41 44 46 44
2530.0 49 52 54 58 59 65 63 68 65 68
2570.0 72 76 77 78 80 80 80 83 88 88
2610.0 82 80 80 82 90 88 95 97 93 92
2650.0 90 91 96 98 105 111 113 117 118 118
2690.0 120 120 120 124 126 129 129 136 140 143
2730.0 154 158 174 186 195 182 179 169 172 177
2770.0 181 197 212 223 239 263 277 297 317 346
2810.0 366 387 402 415 441 483 532 613 734 909
2850.0 1181 1593 2159 2834 3438 3807 4084 4656 5328 5235
2890.0 4263 3341 2884 2834 3039 3435 4086 5041 6378 7884
2930.0 9255 10000 9913 8914 7330 5768 4752 4780 5912 7638
2970.0 8514 7915 6040 3799 2291 1545 1213 1084 1081 1123
3010.0 1170 1259 1603 2290 3299 4239 4413 3660 2621 1947
3050.0 1663 1642 1893 2517 3466 4191 3939 3155 2691 2501
3090.0 2116 1599 1207 1017 918 798 641 483 378 305
3130.0 255 215 190 169 156 149 150 147 142 135
3170.0 114 94 74 69 63 55 52 56 48 51
3210.0 48 42 40 32 29 25 22 20 15 16
3250.0 13 10 12 12 12 15 11 8 13 9
3290.0 12 11 20 14 12 11 7 14 18 16
3330.0 17 14 14 18 19 17 19 14 19 18
3370.0 25 27 19 21 20 21 23 21 21 26
3410.0 22 21 22 29 22 25 26 32 26 24
3450.0 29 24 23 25 32 29 25 23 22 23
3490.0 17 20 23 20 12 17 21 18 16 6
3530.0 10 16 15 18 13 10 8 12 6 1
3570.0 3 6 4 7 9 9 1 7 9 5
3610.0 0 16 12 13 13 11 14 13 21 32
3650.0 40 32 25 18 23 13 16 17 18 10
3690.0 16 25 26 33 29 27 26 14 30 24
3730.0 19 27 16 19 10 28 3 15 18 12
3770.0 6 12 0 11 8 10 8 15 12 20
3810.0 12 14 11 16 0 6 15 6 6 12
3850.0 10 10 15 0 5 11 6 17 7 5
3890.0 9 19 17 0 19 22 9 13 12 19
3930.0 8 1 20 9 9 12 10 15 20 34
##END=
