##TITLE=Ethanone, 1-(2,5-dimethylphenyl)-
##JCAMP-DX=4.24
##DATA TYPE=INFRARED SPECTRUM
##ORIGIN=Sadtler Research Labs Under US-EPA Contract
##OWNER=NIST Standard Reference Data Program
##CAS REGISTRY NO=2142-73-6
##MOLFORM=C 10 H 12 O
##XUNITS=1/CM
##YUNITS=ABSORBANCE
##XFACTOR=1.0
##YFACTOR=0.000091446
##DELTAX=4.0
##FIRSTX=450.0
##LASTX=3966.0
##FIRSTY=0.014266
##MAXX=3966
##MINX=450
##MAXY=0.91446
##MINY=0
##NPOINTS=880
##XYDATA=(X++(Y..Y))
450.0 156 107 124 172 335 310 377 380 372 278
490.0 215 132 132 103 131 130 176 213 239 286
530.0 265 213 160 98 85 87 93 132 158 165
570.0 176 199 207 222 240 289 341 482 745 1158
610.0 1459 1519 1352 1016 556 272 149 78 48 44
650.0 30 28 11 16 36 4 13 35 28 32
690.0 60 100 149 140 140 140 164 202 259 203
730.0 149 126 90 78 57 41 34 34 28 29
770.0 33 29 31 41 60 121 300 597 1064 1415
810.0 2235 2467 1616 1191 776 388 224 120 111 81
850.0 78 71 106 138 205 306 423 533 562 474
890.0 380 300 188 145 118 115 113 124 145 179
930.0 238 344 548 832 1130 1296 1345 1221 944 669
970.0 496 391 332 307 292 300 305 273 269 314
1010.0 354 369 362 344 335 342 366 370 383 402
1050.0 428 464 503 569 623 639 616 551 442 342
1090.0 272 226 201 176 166 170 191 193 198 206
1130.0 202 187 207 235 261 279 299 337 420 608
1170.0 960 1578 2366 2987 3145 2979 2433 1717 1344 1297
1210.0 1318 1280 1175 1024 862 811 933 1260 1788 2474
1250.0 3130 3551 3588 3232 2600 2040 1750 1780 2220 2880
1290.0 3265 3255 2822 1972 1098 620 440 381 378 407
1330.0 469 571 712 966 1383 2008 2580 2843 2846 2437
1370.0 1752 1246 1025 1011 1058 1134 1164 1079 990 929
1410.0 861 817 804 846 915 997 1039 1096 1159 1187
1450.0 1190 1161 1114 1027 959 907 898 925 1031 1211
1490.0 1424 1595 1571 1452 1222 886 634 501 441 428
1530.0 425 432 456 480 526 587 693 795 907 960
1570.0 942 855 737 610 523 475 429 388 352 355
1610.0 372 397 421 416 390 340 303 272 278 301
1650.0 366 441 566 691 837 989 1164 1429 1803 2458
1690.0 3481 5166 7373 9375 10000 9566 7580 5059 3226 2381
1730.0 1855 1527 1209 979 781 638 540 436 360 274
1770.0 227 154 125 98 88 77 80 72 64 70
1810.0 66 77 77 91 92 100 96 93 87 78
1850.0 76 63 68 60 62 54 54 60 72 93
1890.0 119 154 167 166 146 119 82 60 49 40
1930.0 39 33 33 23 26 20 25 22 24 29
1970.0 28 23 25 21 21 21 21 19 16 16
2010.0 13 14 16 13 15 13 11 6 7 6
2050.0 8 8 8 12 8 10 7 6 5 4
2090.0 1 3 0 1 1 1 3 5 9 13
2130.0 14 12 9 11 3 2 4 5 2 3
2170.0 1 6 3 2 4 2 2 2 5 1
2210.0 3 6 8 6 12 13 16 19 18 20
2250.0 17 17 12 10 13 10 13 11 13 8
2290.0 15 12 16 19 19 14 15 17 19 20
2330.0 10 22 20 1 16 6 13 12 16 10
2370.0 15 16 15 12 14 18 24 26 26 24
2410.0 25 28 31 29 27 28 27 26 26 22
2450.0 23 22 26 21 29 24 27 25 24 21
2490.0 20 19 17 19 22 18 18 19 23 23
2530.0 26 29 33 36 37 40 41 40 42 38
2570.0 35 40 35 29 32 29 26 27 32 29
2610.0 25 24 25 29 26 28 29 30 33 37
2650.0 36 40 39 41 36 40 37 37 37 38
2690.0 32 30 28 30 28 29 36 34 38 44
2730.0 58 69 97 131 159 171 164 143 110 88
2770.0 71 70 64 67 68 77 80 87 94 99
2810.0 109 118 130 141 163 181 202 235 262 307
2850.0 361 438 535 671 828 985 1114 1194 1214 1191
2890.0 1152 1119 1091 1072 1076 1109 1200 1359 1635 2053
2930.0 2531 2920 3078 2943 2606 2148 1721 1450 1349 1344
2970.0 1399 1516 1638 1677 1654 1618 1566 1552 1617 1720
3010.0 1820 1903 1991 2065 2046 1978 1901 1774 1677 1668
3050.0 1667 1628 1515 1343 1143 946 771 622 511 428
3090.0 381 351 335 332 324 322 314 298 266 230
3130.0 193 152 125 110 97 91 82 76 75 71
3170.0 62 65 56 54 57 50 45 46 43 35
3210.0 38 35 30 27 24 23 30 27 32 27
3250.0 20 27 23 22 17 23 24 25 27 24
3290.0 22 22 20 22 18 20 24 26 30 25
3330.0 29 31 37 33 35 40 34 48 50 63
3370.0 65 87 109 128 146 143 156 138 118 91
3410.0 84 66 58 46 42 44 38 39 28 25
3450.0 23 20 22 24 22 12 18 13 17 12
3490.0 16 18 14 18 12 12 6 11 17 20
3530.0 19 18 4 15 17 28 19 23 13 12
3570.0 16 16 28 21 33 20 23 17 12 9
3610.0 12 11 16 9 18 24 16 11 12 3
3650.0 7 4 9 7 0 5 6 19 4 5
3690.0 5 14 24 6 8 14 28 25 33 40
3730.0 35 39 25 17 29 19 19 14 18 21
3770.0 22 11 10 27 28 18 7 18 6 20
3810.0 8 13 20 22 22 20 23 17 18 27
3850.0 16 19 26 21 25 29 18 22 12 18
3890.0 24 30 15 23 41 37 35 26 32 34
3930.0 34 24 29 20 41 29 15 18 30 27
##END=
