##TITLE=3-Chloro-4-methylbenzonitrile
##JCAMP-DX=4.24
##DATA TYPE=INFRARED SPECTRUM
##ORIGIN=Sadtler Research Labs Under US-EPA Contract
##OWNER=NIST Standard Reference Data Program
##CAS REGISTRY NO=21423-81-4
##MOLFORM=C 8 H 6 Cl N
##XUNITS=1/CM
##YUNITS=ABSORBANCE
##XFACTOR=1.0
##YFACTOR=0.000037729
##DELTAX=4.0
##FIRSTX=450.0
##LASTX=3966.0
##FIRSTY=0.076099
##MAXX=3966
##MINX=450
##MAXY=0.37729
##MINY=0
##NPOINTS=880
##XYDATA=(X++(Y..Y))
450.0 2017 1703 1173 836 618 319 117 73 137 146
490.0 139 164 100 71 82 121 135 98 199 132
530.0 59 148 156 140 216 192 316 430 424 471
570.0 394 540 779 1470 1809 2792 3490 2408 1518 1329
610.0 622 394 123 143 79 76 50 47 71 50
650.0 75 82 138 172 219 327 444 705 1111 1509
690.0 2064 2229 2789 2403 1932 1837 1662 1888 2289 2189
730.0 1983 1796 1062 474 459 327 351 244 171 88
770.0 49 81 47 160 157 405 583 924 1695 2937
810.0 4659 5951 8889 9369 6515 5630 4123 2819 2155 1771
850.0 1725 1686 2142 3144 5101 7541 8698 9449 8818 8406
890.0 6989 4497 3505 2539 1436 892 468 356 257 253
930.0 206 197 216 208 250 256 309 288 330 376
970.0 418 495 596 732 911 1277 1676 1870 1806 1620
1010.0 1134 723 580 512 554 603 854 1285 2069 3503
1050.0 6230 8705 8519 9033 7536 3703 1751 890 499 380
1090.0 297 279 243 302 323 378 427 454 412 404
1130.0 374 349 440 523 677 804 783 666 557 410
1170.0 347 418 625 1153 2295 4098 5057 5206 5464 4149
1210.0 2984 2630 2341 1551 799 500 415 340 261 215
1250.0 203 213 260 291 318 375 383 395 382 400
1290.0 369 288 230 180 164 157 168 172 197 213
1330.0 231 292 342 374 353 353 311 334 412 633
1370.0 1180 2315 3803 4724 5142 4921 3900 2714 1872 1458
1410.0 1268 1177 1200 1186 1247 1414 1693 1951 2129 2245
1450.0 2308 2228 2328 2552 3221 4621 6026 6769 7874 9651
1490.0 10000 9473 8727 6401 3566 2314 1926 1496 1378 1422
1530.0 1709 2139 2650 2981 3295 3508 3654 3785 3801 3607
1570.0 3216 2683 2147 1732 1471 1370 1355 1342 1284 1200
1610.0 1091 931 857 799 880 887 924 844 719 589
1650.0 445 332 223 148 126 117 124 78 129 126
1690.0 94 77 131 111 100 80 111 162 130 123
1730.0 134 166 117 124 152 235 341 526 772 958
1770.0 1039 921 743 532 305 172 113 71 57 45
1810.0 45 43 44 55 73 99 108 114 129 143
1850.0 126 100 96 92 96 99 90 114 153 230
1890.0 348 480 609 640 596 529 373 218 132 97
1930.0 72 70 67 67 52 35 20 19 11 17
1970.0 7 15 16 21 29 47 46 43 37 41
2010.0 34 26 24 15 8 3 4 0 6 0
2050.0 14 11 9 18 13 19 17 26 21 21
2090.0 19 26 31 37 43 51 59 43 31 18
2130.0 19 15 6 8 5 8 5 13 3 3
2170.0 5 17 28 42 54 48 38 36 41 50
2210.0 89 152 300 644 1333 2334 3244 3578 3276 2371
2250.0 1039 227 90 65 63 59 65 59 57 63
2290.0 42 53 53 64 67 72 70 85 98 116
2330.0 129 142 128 130 141 139 149 140 117 100
2370.0 91 105 114 137 137 144 129 113 88 73
2410.0 87 101 105 119 104 93 83 64 58 55
2450.0 49 61 69 70 82 102 110 111 109 99
2490.0 87 82 72 75 75 83 83 91 114 130
2530.0 159 177 185 200 186 172 148 115 92 73
2570.0 57 57 52 56 73 92 103 114 101 77
2610.0 59 31 19 23 16 29 57 69 95 110
2650.0 126 137 128 126 104 84 59 53 49 57
2690.0 58 47 38 38 27 35 43 39 48 64
2730.0 62 82 101 122 154 176 188 174 150 119
2770.0 110 108 111 137 151 163 166 164 159 141
2810.0 142 147 158 174 194 203 225 245 273 322
2850.0 374 458 551 665 789 900 983 1001 970 907
2890.0 822 779 756 765 773 796 861 945 1091 1340
2930.0 1827 2503 2988 3068 2905 2390 1768 1545 1506 1694
2970.0 1911 1866 1858 1929 2072 2200 2135 2077 1854 1499
3010.0 1223 1023 927 941 1029 1149 1331 1472 1489 1420
3050.0 1327 1189 1118 1174 1339 1479 1539 1572 1517 1244
3090.0 1035 817 589 483 427 377 329 303 272 217
3130.0 201 178 152 153 129 123 134 127 112 94
3170.0 84 94 97 85 88 80 77 80 69 57
3210.0 59 56 55 54 68 67 72 40 51 55
3250.0 35 52 34 23 20 39 21 42 42 41
3290.0 47 42 46 48 38 31 39 53 47 39
3330.0 35 33 39 43 45 39 41 55 50 47
3370.0 43 41 49 65 54 51 42 49 66 73
3410.0 80 101 142 200 255 283 254 225 171 87
3450.0 89 71 37 55 38 42 46 43 34 41
3490.0 30 48 47 63 31 55 40 18 61 45
3530.0 55 49 33 43 31 32 44 57 36 53
3570.0 44 30 40 26 33 58 41 21 46 32
3610.0 23 32 45 40 59 74 37 47 37 18
3650.0 62 32 50 23 37 20 35 58 40 62
3690.0 47 70 37 64 98 78 67 126 133 120
3730.0 154 104 100 94 114 84 97 62 53 72
3770.0 65 48 70 39 78 50 67 70 51 78
3810.0 81 106 63 105 102 84 116 127 134 118
3850.0 73 99 105 82 76 46 36 14 43 31
3890.0 76 52 46 99 74 32 54 61 79 89
3930.0 76 80 121 81 39 70 61 74 103 97
##END=
