##TITLE=p-Xylene, .alpha.,.alpha.,.alpha.',.alpha.',2,3,5,6-octachloro-,
##JCAMP-DX=4.24
##DATA TYPE=INFRARED SPECTRUM
##ORIGIN=Sadtler Research Labs Under US-EPA Contract
##OWNER=NIST Standard Reference Data Program
##CAS REGISTRY NO=2142-31-6
##MOLFORM=C 8 H 2 Cl 8
##XUNITS=1/CM
##YUNITS=ABSORBANCE
##XFACTOR=1.0
##YFACTOR=0.000036017
##DELTAX=4.0
##FIRSTX=450.0
##LASTX=3966.0
##FIRSTY=0.026004
##MAXX=3966
##MINX=450
##MAXY=0.36017
##MINY=0
##NPOINTS=880
##XYDATA=(X++(Y..Y))
450.0 722 299 118 320 360 324 463 637 927 1037
490.0 1054 1257 1389 1265 786 348 202 56 95 44
530.0 22 120 97 109 243 357 195 142 150 139
570.0 83 189 225 328 641 1259 1222 689 585 677
610.0 628 594 717 1191 1894 2302 1773 1313 1510 1784
650.0 1653 1196 964 976 892 786 740 851 1306 1931
690.0 2155 1454 677 375 337 319 334 361 388 400
730.0 394 458 506 641 921 1347 1905 2745 3582 4175
770.0 4928 6605 9018 10000 7898 4394 2180 1301 932 793
810.0 746 812 998 1094 1018 771 526 433 494 729
850.0 1141 1482 1722 2201 2385 1780 1160 919 632 357
890.0 175 125 112 95 94 113 144 235 323 325
930.0 263 184 157 156 151 133 132 147 181 176
970.0 157 115 94 103 104 94 138 173 213 219
1010.0 184 167 146 150 140 149 147 141 144 148
1050.0 142 129 136 131 137 152 182 193 210 221
1090.0 233 245 257 284 326 384 431 499 606 905
1130.0 1657 3685 7214 9481 7184 3265 1351 866 608 479
1170.0 402 391 398 393 421 473 580 698 779 744
1210.0 683 718 975 1548 2267 2644 1947 1047 631 522
1250.0 555 734 1282 2503 4398 5809 5400 3703 2250 1516
1290.0 1046 666 432 331 275 258 264 242 258 270
1330.0 307 376 475 590 739 960 1307 1877 2682 3653
1370.0 4368 4324 3330 2212 1683 1512 1226 853 568 396
1410.0 310 255 212 183 150 137 136 150 202 226
1450.0 243 181 118 113 95 110 101 101 102 111
1490.0 104 127 118 136 138 160 170 147 120 94
1530.0 100 78 89 63 79 80 92 71 88 82
1570.0 84 68 86 79 88 71 72 59 76 55
1610.0 65 59 56 41 41 21 19 10 33 18
1650.0 29 5 54 31 55 64 80 82 104 96
1690.0 128 121 125 109 133 139 157 180 218 241
1730.0 266 271 247 234 204 193 187 186 186 201
1770.0 206 201 202 165 166 134 145 148 151 150
1810.0 131 116 110 108 102 107 95 114 96 103
1850.0 107 118 115 120 113 112 122 113 112 99
1890.0 102 100 100 97 97 97 98 96 104 103
1930.0 110 106 103 90 87 89 92 88 95 93
1970.0 94 103 96 96 96 98 95 98 91 94
2010.0 98 96 94 96 95 96 94 93 89 91
2050.0 98 103 94 96 103 95 99 97 93 99
2090.0 100 88 92 96 93 97 89 93 93 91
2130.0 85 88 87 87 95 88 92 90 92 90
2170.0 90 83 85 83 79 89 83 88 81 87
2210.0 86 77 93 95 83 88 87 82 90 86
2250.0 93 77 81 71 64 65 65 64 67 77
2290.0 70 69 72 67 49 45 25 5 2 4
2330.0 2 2 2 2 2 9 0 2 2 2
2370.0 2 10 44 71 96 85 91 93 96 96
2410.0 98 94 100 108 103 109 120 150 157 141
2450.0 112 103 97 101 97 100 94 90 99 97
2490.0 98 88 101 99 92 90 94 98 92 87
2530.0 84 75 76 89 98 110 109 106 107 102
2570.0 89 94 92 89 89 84 86 99 96 103
2610.0 96 97 87 91 92 92 89 91 103 112
2650.0 113 110 106 107 107 98 106 113 107 102
2690.0 99 94 90 103 109 93 100 90 107 93
2730.0 102 96 97 99 93 98 108 92 92 87
2770.0 91 97 107 82 96 81 96 107 109 84
2810.0 99 81 90 119 93 92 89 90 98 115
2850.0 79 86 89 86 112 95 102 97 109 111
2890.0 96 89 89 101 103 102 98 102 110 129
2930.0 124 122 114 115 142 110 102 91 114 121
2970.0 111 103 140 155 128 129 136 145 162 138
3010.0 143 160 152 123 154 180 195 207 226 231
3050.0 226 335 540 610 447 253 148 128 95 91
3090.0 90 84 87 91 68 78 76 74 73 75
3130.0 71 71 77 69 73 74 50 69 73 54
3170.0 59 68 64 71 60 68 79 59 63 62
3210.0 62 63 56 69 71 84 85 68 61 77
3250.0 58 42 47 58 61 54 59 61 44 50
3290.0 48 44 65 55 59 47 52 66 41 58
3330.0 58 57 83 80 59 57 62 60 86 58
3370.0 64 58 74 64 61 85 91 77 72 65
3410.0 53 83 88 55 67 65 83 69 73 62
3450.0 61 72 73 72 65 62 78 74 76 74
3490.0 54 65 61 85 60 59 59 67 72 44
3530.0 67 79 77 62 58 54 38 81 77 83
3570.0 97 115 96 56 80 41 40 63 36 59
3610.0 71 41 52 35 50 24 74 57 57 57
3650.0 25 77 27 66 48 59 15 39 61 47
3690.0 48 28 56 52 50 52 68 66 53 18
3730.0 28 32 83 18 69 32 34 68 61 43
3770.0 34 60 68 78 67 33 43 59 27 71
3810.0 86 54 67 40 71 52 54 69 44 52
3850.0 75 39 28 20 42 50 46 66 45 100
3890.0 62 51 48 36 89 47 42 35 24 20
3930.0 38 92 51 47 62 87 109 76 81 63
##END=
