##TITLE=Ethanone, 1-(3-bromophenyl)-
##JCAMP-DX=4.24
##DATA TYPE=INFRARED SPECTRUM
##ORIGIN=Sadtler Research Labs Under US-EPA Contract
##OWNER=NIST Standard Reference Data Program
##CAS REGISTRY NO=2142-63-4
##MOLFORM=C 8 H 7 Br O
##XUNITS=1/CM
##YUNITS=ABSORBANCE
##XFACTOR=1.0
##YFACTOR=0.000052383
##DELTAX=4.0
##FIRSTX=450.0
##LASTX=3966.0
##FIRSTY=0.010634
##MAXX=3966
##MINX=450
##MAXY=0.52383
##MINY=0
##NPOINTS=880
##XYDATA=(X++(Y..Y))
450.0 203 240 231 209 190 163 145 156 15 129
490.0 167 151 126 163 179 188 183 165 184 201
530.0 195 190 221 224 177 301 264 239 335 318
570.0 508 669 980 1416 1700 1761 1439 1050 661 377
610.0 267 184 149 145 143 124 159 194 234 326
650.0 526 1018 1401 1336 1271 685 751 1010 1293 1275
690.0 991 679 407 224 134 44 119 122 91 43
730.0 77 59 60 85 130 161 246 409 664 1075
770.0 1585 2018 2388 2216 1842 1663 1067 673 384 188
810.0 107 98 107 28 47 57 65 48 39 42
850.0 43 76 65 136 166 200 245 308 324 266
890.0 247 239 250 262 286 264 214 166 119 98
930.0 97 134 210 328 466 589 653 637 537 393
970.0 273 175 137 109 125 201 307 317 336 245
1010.0 172 153 152 167 167 161 159 168 193 252
1050.0 370 539 743 867 923 864 739 642 600 585
1090.0 551 486 417 340 272 242 203 168 138 123
1130.0 121 139 159 185 206 209 209 210 232 301
1170.0 326 308 266 208 211 232 273 301 340 397
1210.0 476 574 755 1042 1515 2289 3611 5714 8270 10000
1250.0 9588 7168 4484 2708 1943 1945 2099 2114 1764 1264
1290.0 781 486 348 254 193 150 146 142 148 160
1330.0 172 220 278 389 589 930 1391 1865 2055 1961
1370.0 1593 1090 764 570 467 445 480 592 776 1037
1410.0 1338 1711 2004 1920 1572 993 600 511 436 368
1450.0 334 305 336 370 529 670 683 598 398 226
1490.0 171 134 128 116 142 129 142 167 207 223
1530.0 224 266 309 392 462 590 785 1071 1446 1793
1570.0 1990 1842 1468 947 641 459 355 275 231 189
1610.0 167 146 141 134 123 137 126 142 128 154
1650.0 149 248 243 336 438 547 569 578 588 719
1690.0 962 1556 2819 4992 7317 8198 7482 4943 2523 1344
1730.0 792 590 525 541 572 609 559 435 327 227
1770.0 163 139 103 93 85 82 102 95 99 99
1810.0 98 87 82 83 86 94 109 112 113 102
1850.0 82 76 64 85 91 104 110 106 95 84
1890.0 83 90 85 80 67 49 47 48 44 60
1930.0 71 77 89 94 100 92 89 89 80 68
1970.0 60 51 52 60 64 63 70 65 71 65
2010.0 64 62 61 53 43 43 25 25 26 15
2050.0 13 8 7 7 18 8 8 9 0 0
2090.0 1 9 8 19 20 18 23 29 27 29
2130.0 30 39 29 29 30 30 30 31 31 31
2170.0 31 39 40 40 40 41 41 42 44 52
2210.0 40 41 35 43 43 43 43 43 42 44
2250.0 44 34 34 34 35 35 36 32 35 37
2290.0 36 38 39 39 39 40 41 31 32 32
2330.0 32 32 52 53 63 52 26 28 50 78
2370.0 70 76 81 75 61 53 48 29 30 30
2410.0 31 31 33 29 31 31 31 31 31 31
2450.0 24 24 24 33 33 33 26 26 33 38
2490.0 44 33 42 33 34 43 35 43 43 43
2530.0 54 35 35 31 33 26 26 26 26 26
2570.0 28 29 27 30 37 37 37 48 48 47
2610.0 58 66 57 58 49 47 59 61 71 77
2650.0 80 65 58 53 41 31 31 31 31 21
2690.0 33 22 16 23 13 14 6 15 14 6
2730.0 15 15 15 15 23 17 17 16 18 18
2770.0 25 17 17 17 10 18 18 27 26 30
2810.0 30 25 28 40 40 40 40 40 41 41
2850.0 43 40 41 49 43 42 36 34 42 42
2890.0 34 44 44 46 46 46 49 65 63 95
2930.0 129 149 159 161 132 113 96 94 118 141
2970.0 155 189 180 177 165 145 125 125 165 204
3010.0 266 333 364 344 281 206 170 136 109 100
3050.0 119 110 160 230 349 455 553 614 595 531
3090.0 426 313 244 184 124 77 58 58 59 48
3130.0 60 56 39 48 26 43 31 22 24 23
3170.0 33 25 31 21 23 21 32 21 16 17
3210.0 25 35 47 27 46 36 46 33 54 41
3250.0 39 47 38 38 31 21 12 21 21 34
3290.0 27 21 16 23 18 4 11 8 22 25
3330.0 16 16 6 12 16 35 18 26 42 46
3370.0 38 35 56 75 75 94 114 151 151 138
3410.0 114 80 56 13 32 30 22 12 13 30
3450.0 33 27 12 48 46 36 50 44 23 31
3490.0 63 43 72 62 52 81 48 56 52 56
3530.0 65 46 58 75 52 53 56 55 47 38
3570.0 44 47 47 21 42 62 29 44 50 48
3610.0 53 32 30 32 30 76 39 41 64 37
3650.0 50 67 69 64 73 88 83 89 70 75
3690.0 79 77 73 74 56 71 60 58 61 52
3730.0 43 54 55 77 78 70 76 49 62 75
3770.0 91 69 50 57 55 43 57 59 74 56
3810.0 68 56 50 65 51 51 36 41 26 33
3850.0 27 9 12 10 20 8 22 42 39 40
3890.0 43 36 38 48 37 57 42 47 42 41
3930.0 59 63 74 62 69 63 87 88 79 83
##END=
