##TITLE=Ethanone, 1-(2-chlorophenyl)-
##JCAMP-DX=4.24
##DATA TYPE=INFRARED SPECTRUM
##ORIGIN=Sadtler Research Labs Under US-EPA Contract
##OWNER=NIST Standard Reference Data Program
##CAS REGISTRY NO=2142-68-9
##MOLFORM=C 8 H 7 Cl O
##XUNITS=1/CM
##YUNITS=ABSORBANCE
##XFACTOR=1.0
##YFACTOR=0.000090228
##DELTAX=4.0
##FIRSTX=450.0
##LASTX=3966.0
##FIRSTY=0.046919
##MAXX=3966
##MINX=450
##MAXY=0.90228
##MINY=0
##NPOINTS=880
##XYDATA=(X++(Y..Y))
450.0 520 436 515 525 486 371 193 97 22 7
490.0 25 48 55 51 86 88 177 217 225 289
530.0 216 191 256 219 58 167 144 200 247 394
570.0 500 668 994 1479 2068 2359 2377 2040 1344 637
610.0 283 226 132 187 164 158 117 163 168 123
650.0 166 152 239 379 509 570 629 411 180 75
690.0 85 48 55 49 82 159 258 392 510 907
730.0 809 1218 1961 3229 4656 6106 7995 5778 3747 2369
770.0 1083 369 107 24 56 66 66 86 90 81
810.0 95 104 112 117 117 134 152 118 106 75
850.0 76 59 99 70 71 16 54 49 26 38
890.0 23 57 61 60 84 79 121 138 160 211
930.0 270 363 478 621 792 880 1018 1162 1186 1114
970.0 935 736 538 443 405 394 393 418 413 474
1010.0 548 623 732 859 1074 1472 1921 2389 2584 2532
1050.0 2279 1777 1236 892 656 540 505 593 843 1270
1090.0 1787 2131 2215 1990 1472 967 683 593 618 711
1130.0 782 762 714 586 398 332 315 326 333 358
1170.0 349 309 312 355 376 394 390 418 429 458
1210.0 559 715 999 1535 2545 3968 4927 5387 4961 3886
1250.0 2335 1659 1660 2170 3150 4394 5469 6003 5640 4462
1290.0 3005 1764 951 549 375 299 275 290 320 344
1330.0 404 496 625 845 1210 1838 2674 3401 3764 3497
1370.0 2790 1802 1140 816 681 647 660 662 686 740
1410.0 840 1001 1285 1797 2428 2962 3137 3060 2657 1919
1450.0 1375 1124 1184 1421 1623 1622 1517 1197 781 495
1490.0 375 333 303 307 293 298 263 258 234 215
1530.0 226 255 261 266 296 333 381 418 501 567
1570.0 624 693 815 1054 1427 1782 1931 1812 1484 1038
1610.0 661 515 458 397 334 282 244 222 223 218
1650.0 256 264 360 457 602 747 928 1151 1371 1666
1690.0 2054 2656 3730 5327 7121 8849 10000 9913 8517 6433
1730.0 4547 3226 2327 1784 1415 1143 938 773 655 537
1770.0 453 358 277 223 209 188 201 218 238 247
1810.0 229 205 181 174 157 173 164 157 142 94
1850.0 77 67 49 64 53 49 52 51 63 75
1890.0 88 87 86 105 122 146 180 207 217 200
1930.0 165 126 109 110 116 148 174 154 125 82
1970.0 42 19 27 18 21 19 10 18 11 4
2010.0 13 17 19 24 37 49 47 49 50 49
2050.0 44 45 46 37 46 53 46 64 35 36
2090.0 16 4 4 8 10 16 18 18 18 8
2130.0 18 18 17 12 18 10 7 0 18 3
2170.0 2 12 17 17 12 12 18 12 17 16
2210.0 16 16 16 19 17 15 17 11 17 18
2250.0 19 23 25 31 30 31 39 41 31 47
2290.0 64 61 78 90 100 112 97 90 109 88
2330.0 77 72 79 67 89 85 64 59 55 82
2370.0 107 116 114 99 88 65 61 69 63 52
2410.0 48 45 56 48 43 54 49 63 60 52
2450.0 53 48 58 41 53 46 41 53 56 54
2490.0 48 51 61 53 60 63 70 59 48 48
2530.0 48 59 57 52 63 63 67 60 75 86
2570.0 80 71 79 59 76 73 77 81 74 65
2610.0 70 64 54 49 54 54 69 66 77 49
2650.0 36 27 18 29 42 64 91 91 81 86
2690.0 91 99 98 88 94 97 83 87 84 92
2730.0 85 81 104 105 106 102 88 79 82 89
2770.0 83 83 90 81 97 89 85 82 74 68
2810.0 75 86 99 116 118 140 129 152 142 147
2850.0 152 152 152 143 168 161 161 148 143 136
2890.0 145 146 147 163 181 186 197 204 219 258
2930.0 277 304 325 311 299 298 286 285 276 304
2970.0 316 318 354 370 398 414 423 463 491 519
3010.0 569 614 617 580 547 521 460 414 379 358
3050.0 361 418 555 735 987 1316 1587 1662 1540 1394
3090.0 1096 737 524 404 299 213 208 176 170 190
3130.0 191 202 200 198 188 163 146 125 74 109
3170.0 92 122 101 89 71 72 81 67 63 65
3210.0 66 73 85 68 65 57 56 59 65 55
3250.0 60 61 53 72 71 77 56 76 66 54
3290.0 67 72 65 59 76 83 84 56 44 54
3330.0 58 64 70 47 58 75 77 73 74 60
3370.0 66 51 69 91 118 110 106 160 160 160
3410.0 179 179 181 146 118 82 133 110 83 84
3450.0 76 59 74 78 49 55 8 48 33 32
3490.0 66 81 92 64 13 46 72 19 31 69
3530.0 43 43 54 36 38 57 70 59 55 105
3570.0 36 58 85 76 47 72 85 43 61 55
3610.0 61 78 55 47 75 42 91 85 40 46
3650.0 81 107 114 57 80 60 78 96 101 116
3690.0 116 126 111 136 129 120 114 108 119 117
3730.0 133 133 162 145 131 172 205 197 203 167
3770.0 135 157 112 118 162 148 207 186 194 192
3810.0 184 198 219 221 242 234 215 226 215 191
3850.0 176 190 195 164 188 191 153 127 121 131
3890.0 142 152 147 146 175 163 150 157 161 149
3930.0 132 115 114 115 142 157 173 180 172 179
##END=
