##TITLE=Benzoic acid, 2,4-dimethoxy-, methyl ester
##JCAMP-DX=4.24
##DATA TYPE=INFRARED SPECTRUM
##ORIGIN=Sadtler Research Labs Under US-EPA Contract
##OWNER=NIST Standard Reference Data Program
##CAS REGISTRY NO=2150-41-6
##MOLFORM=C 10 H 12 O 4
##XUNITS=1/CM
##YUNITS=ABSORBANCE
##XFACTOR=1.0
##YFACTOR=0.000078085
##DELTAX=4.0
##FIRSTX=450.0
##LASTX=3966.0
##FIRSTY=0.004685
##MAXX=3966
##MINX=450
##MAXY=0.78085
##MINY=0
##NPOINTS=880
##XYDATA=(X++(Y..Y))
450.0 60 73 81 75 72 64 64 72 78 68
490.0 63 20 11 12 8 45 82 91 119 109
530.0 151 154 193 229 236 229 209 180 228 239
570.0 249 251 254 258 322 355 415 459 537 600
610.0 641 659 626 554 509 471 430 404 346 300
650.0 228 196 176 128 145 215 155 163 208 221
690.0 245 290 325 364 378 353 316 258 243 224
730.0 201 171 172 137 162 171 247 365 516 709
770.0 852 805 681 523 408 330 333 353 375 489
810.0 579 644 677 722 786 884 948 994 904 790
850.0 670 561 474 416 332 296 256 221 202 183
890.0 184 192 178 199 224 295 390 501 595 638
930.0 645 590 520 429 366 299 294 285 323 374
970.0 418 435 428 372 356 317 349 356 402 462
1010.0 564 717 972 1377 1942 2712 3557 4333 4682 4334
1050.0 3426 2397 1601 1186 1076 1205 1508 2030 2817 3605
1090.0 4152 4105 3603 2906 2338 2083 2146 2633 3541 4599
1130.0 5554 6096 6071 5694 5101 4637 4535 4916 5349 5398
1170.0 4700 3739 2964 2629 2593 2745 2954 3332 3883 4791
1210.0 5484 5608 5037 4309 3966 4270 5059 6294 7634 8795
1250.0 9400 9319 9247 8912 9449 9457 10000 9349 8458 7028
1290.0 6057 5156 4601 4016 3629 3241 3050 2843 2645 2265
1330.0 1802 1312 967 748 620 537 487 442 421 408
1370.0 406 414 426 460 523 631 798 1050 1362 1671
1410.0 1919 2026 1962 1785 1752 2203 3168 3653 3438 2341
1450.0 1785 1776 2099 2556 2898 2859 2555 2105 1742 1680
1490.0 1934 2393 2976 3286 3220 2562 1823 1227 892 702
1530.0 607 566 567 585 617 682 798 978 1287 1704
1570.0 2298 2965 3518 3731 3698 3626 3867 4716 5976 7905
1610.0 8617 8410 6367 4417 2773 1834 1284 934 738 628
1650.0 543 502 447 424 409 418 428 453 506 574
1690.0 635 712 818 936 1100 1345 1731 2348 3346 4448
1730.0 5528 5876 5845 5748 6336 6611 6250 4663 3005 1993
1770.0 1514 1207 951 714 524 381 287 235 198 169
1810.0 143 136 115 117 103 108 96 90 80 89
1850.0 80 91 85 91 92 100 99 111 128 147
1890.0 154 155 155 141 135 127 120 121 121 119
1930.0 127 132 131 129 125 111 99 85 69 58
1970.0 56 45 43 44 50 50 57 59 62 66
2010.0 75 74 75 81 73 81 85 94 107 122
2050.0 127 146 144 159 152 154 153 147 134 126
2090.0 108 94 83 78 72 64 60 53 47 45
2130.0 51 57 52 51 46 38 38 36 37 31
2170.0 31 31 38 37 44 50 57 56 61 59
2210.0 63 55 51 48 44 42 36 35 29 30
2250.0 22 28 23 15 16 8 3 16 7 1
2290.0 5 10 8 15 12 12 11 10 24 31
2330.0 30 34 40 44 31 27 19 25 43 41
2370.0 47 42 43 32 29 26 25 18 20 18
2410.0 25 32 30 28 24 30 34 30 32 32
2450.0 32 34 34 34 34 34 34 36 40 41
2490.0 44 46 47 47 47 47 47 53 54 54
2530.0 61 61 61 61 54 50 54 48 43 49
2570.0 48 56 56 57 64 67 83 78 81 81
2610.0 76 69 70 56 51 44 43 39 36 32
2650.0 33 33 34 34 32 33 34 34 28 28
2690.0 27 27 35 35 39 41 41 41 41 42
2730.0 41 41 43 36 42 42 49 53 52 54
2770.0 55 55 55 68 75 95 105 120 125 149
2810.0 164 202 239 296 377 501 685 974 1322 1572
2850.0 1577 1372 1062 841 704 637 609 601 630 665
2890.0 738 820 886 943 1004 1085 1222 1326 1380 1365
2930.0 1388 1478 1697 2028 2416 2805 3309 3687 3602 3039
2970.0 2167 1566 1217 1011 933 942 1033 1186 1431 1782
3010.0 2101 2076 1757 1260 903 702 575 473 413 364
3050.0 339 314 301 282 276 263 263 279 300 323
3090.0 343 357 341 313 261 215 176 160 136 134
3130.0 119 114 98 96 83 87 81 80 67 74
3170.0 62 54 57 49 49 47 44 32 38 33
3210.0 26 26 27 21 27 13 21 10 24 7
3250.0 13 10 6 4 6 12 11 6 8 8
3290.0 0 10 14 10 10 15 15 14 10 15
3330.0 22 23 22 28 18 20 18 17 12 26
3370.0 6 19 13 12 13 24 20 14 19 25
3410.0 17 13 13 22 25 28 33 27 27 25
3450.0 33 24 50 42 49 47 58 58 59 51
3490.0 53 34 51 35 24 24 26 18 25 25
3530.0 23 18 17 23 19 21 23 16 22 16
3570.0 21 20 16 13 32 31 28 19 23 20
3610.0 31 23 22 32 14 31 24 24 21 26
3650.0 26 37 29 21 25 20 24 33 29 23
3690.0 29 28 28 26 22 19 22 15 6 11
3730.0 12 11 13 21 21 15 29 29 30 38
3770.0 28 46 31 33 30 39 31 34 37 42
3810.0 37 31 31 32 35 41 35 39 39 37
3850.0 39 36 49 39 41 42 48 39 40 42
3890.0 48 49 47 44 46 44 43 41 39 39
3930.0 40 38 40 34 34 37 43 46 46 45
##END=
