##TITLE=Benzoic acid, 3,5-dimethoxy-, methyl ester
##JCAMP-DX=4.24
##DATA TYPE=INFRARED SPECTRUM
##ORIGIN=Sadtler Research Labs Under US-EPA Contract
##OWNER=NIST Standard Reference Data Program
##CAS REGISTRY NO=2150-37-0
##MOLFORM=C 10 H 12 O 4
##XUNITS=1/CM
##YUNITS=ABSORBANCE
##XFACTOR=1.0
##YFACTOR=0.000115491
##DELTAX=4.0
##FIRSTX=450.0
##LASTX=3966.0
##FIRSTY=0.003465
##MAXX=3966
##MINX=450
##MAXY=1.15491
##MINY=0
##NPOINTS=880
##XYDATA=(X++(Y..Y))
450.0 30 236 148 55 112 264 124 58 103 71
490.0 70 31 101 110 107 142 101 53 154 137
530.0 117 118 104 115 62 99 40 48 49 65
570.0 116 125 91 105 94 86 73 95 95 52
610.0 87 148 134 139 103 101 100 89 89 55
650.0 54 39 80 196 190 428 426 527 515 403
690.0 285 189 116 75 46 34 12 7 32 47
730.0 22 28 67 115 216 587 1249 1920 2267 2450
770.0 2035 1347 797 413 201 160 117 129 124 130
810.0 149 145 153 160 147 205 307 444 634 806
850.0 807 784 822 921 1012 1137 1305 1449 1488 1303
890.0 945 564 338 263 200 213 251 312 455 557
930.0 621 573 471 385 299 249 199 178 199 200
970.0 234 265 312 428 588 806 1063 1338 1500 1483
1010.0 1276 947 694 620 659 826 1115 1581 2307 3282
1050.0 4467 5705 6571 6673 5868 4581 3287 2280 1664 1460
1090.0 1643 2112 2668 3042 3021 2659 2210 1843 1611 1504
1130.0 1574 1865 2422 3415 4955 6956 8875 9512 8628 6555
1170.0 4464 3226 2797 2978 3523 4398 5480 6401 7138 7186
1210.0 6714 6079 5617 5966 7316 8943 10000 9804 8259 6420
1250.0 4815 3574 2640 2044 1733 1627 1610 1679 1900 2377
1290.0 3211 4354 5473 6029 5956 5576 5645 6396 7436 8345
1330.0 8550 8197 7490 6677 5940 5074 4049 3029 2103 1461
1370.0 1112 899 778 714 717 739 781 851 937 1069
1410.0 1320 1595 2168 2968 3895 4955 5632 5515 4843 3938
1450.0 3324 3488 4115 4836 5064 4792 3983 2967 2058 1476
1490.0 1138 897 782 709 691 712 574 646 653 636
1530.0 653 649 728 732 693 618 693 819 930 963
1570.0 1278 1618 2109 3137 4008 5683 7701 8095 9953 8271
1610.0 6953 5443 3878 2865 1949 1394 1052 841 699 581
1650.0 635 527 484 355 409 355 415 342 434 475
1690.0 471 554 743 878 873 832 857 958 1088 1473
1730.0 2494 4271 7294 9599 9589 8034 4725 2840 1892 1359
1770.0 1103 928 833 818 726 609 428 313 222 151
1810.0 137 103 85 72 68 95 47 70 57 111
1850.0 68 72 84 62 82 71 50 28 28 25
1890.0 27 18 15 12 14 24 20 41 36 31
1930.0 23 20 23 34 45 46 54 74 66 95
1970.0 85 89 89 89 97 99 98 82 68 57
2010.0 49 49 47 45 51 55 71 82 98 99
2050.0 98 94 89 80 74 69 76 88 96 109
2090.0 124 132 150 169 193 204 201 184 162 138
2130.0 117 94 84 71 60 55 47 46 40 35
2170.0 32 23 17 15 15 20 24 28 29 32
2210.0 31 32 36 38 38 33 33 33 29 27
2250.0 22 21 20 17 17 12 10 11 7 12
2290.0 18 19 26 33 48 61 53 53 50 57
2330.0 38 19 66 0 122 25 114 25 75 63
2370.0 66 72 72 81 67 58 46 43 45 38
2410.0 41 35 33 31 27 32 34 35 35 33
2450.0 30 32 34 38 39 44 41 44 48 43
2490.0 47 41 42 46 41 43 41 39 37 38
2530.0 40 40 41 42 39 45 44 40 43 42
2570.0 43 46 46 48 48 54 61 62 69 70
2610.0 79 83 87 93 88 94 94 99 103 103
2650.0 102 95 89 79 68 60 52 46 48 43
2690.0 42 35 34 37 37 39 37 36 38 33
2730.0 40 45 50 53 62 72 79 83 89 98
2770.0 108 119 125 133 140 149 160 169 185 194
2810.0 211 236 263 311 374 475 654 949 1371 1742
2850.0 1870 1679 1289 943 751 675 651 660 696 750
2890.0 822 894 973 1045 1113 1194 1294 1364 1384 1367
2930.0 1379 1482 1734 2178 2701 3145 3616 3971 3989 3503
2970.0 2592 1766 1313 1096 1020 1065 1209 1470 1883 2338
3010.0 2525 2327 1795 1243 912 768 665 573 490 427
3050.0 384 347 330 327 316 310 303 305 311 317
3090.0 338 360 367 366 343 297 253 214 194 173
3130.0 161 155 145 140 132 135 136 131 130 128
3170.0 123 124 122 115 117 112 109 106 101 97
3210.0 92 87 86 86 77 71 66 65 68 64
3250.0 61 67 66 65 60 56 52 51 65 64
3290.0 52 54 48 50 60 55 53 62 64 67
3330.0 77 74 78 87 86 91 86 89 82 76
3370.0 77 85 81 68 64 64 75 72 72 64
3410.0 62 67 65 64 71 60 79 75 76 84
3450.0 79 90 102 125 135 134 127 100 92 78
3490.0 69 66 69 62 87 63 82 66 83 78
3530.0 87 79 89 81 91 78 109 69 99 62
3570.0 97 82 105 58 115 58 104 64 87 72
3610.0 95 102 75 123 49 118 61 94 55 123
3650.0 40 148 4 105 41 54 126 40 108 28
3690.0 129 31 68 70 80 89 109 44 108 40
3730.0 90 130 69 189 36 229 30 167 61 115
3770.0 100 70 94 104 82 105 72 147 80 166
3810.0 34 161 87 160 88 86 110 125 60 122
3850.0 46 132 94 49 96 60 96 50 71 66
3890.0 111 62 99 53 126 98 97 131 85 135
3930.0 78 86 93 94 122 86 152 122 109 119
##END=
