##TITLE=Benzene, 1-iodo-2,4,6-tribromo-,
##JCAMP-DX=4.24
##DATA TYPE=INFRARED SPECTRUM
##ORIGIN=Sadtler Research Labs Under US-EPA Contract
##OWNER=NIST Standard Reference Data Program
##CAS REGISTRY NO=21521-51-7
##MOLFORM=C 6 H 2 Br 3 I
##XUNITS=1/CM
##YUNITS=ABSORBANCE
##XFACTOR=1.0
##YFACTOR=0.000039001
##DELTAX=4.0
##FIRSTX=450.0
##LASTX=3966.0
##FIRSTY=0.000000
##MAXX=3966
##MINX=450
##MAXY=0.39001
##MINY=0
##NPOINTS=880
##XYDATA=(X++(Y..Y))
450.0 0 766 253 140 114 137 167 189 229 79
490.0 134 181 182 157 141 116 121 159 253 568
530.0 969 701 334 277 162 163 169 125 184 149
570.0 137 138 113 155 97 114 132 121 128 142
610.0 124 119 90 112 145 196 238 304 379 252
650.0 191 201 180 211 274 627 866 915 542 406
690.0 272 266 227 230 254 394 448 449 728 1505
730.0 3538 6226 7287 4842 1790 959 1275 2446 4157 4271
770.0 2007 490 313 197 195 191 216 305 330 323
810.0 257 228 162 174 178 232 279 350 529 718
850.0 1156 1930 3229 3554 2376 1143 482 261 204 151
890.0 180 169 201 157 116 86 101 105 79 81
930.0 81 108 100 98 111 118 100 127 142 145
970.0 151 161 211 295 552 952 1858 3615 5080 3821
1010.0 1589 1101 1061 611 262 173 197 216 208 213
1050.0 282 521 826 921 672 444 333 281 267 244
1090.0 245 283 399 633 1360 2996 4350 3456 1596 721
1130.0 658 674 628 444 361 394 611 1007 1557 2152
1170.0 2517 2265 1359 577 494 819 1043 773 366 211
1210.0 256 372 580 707 668 430 226 125 87 88
1250.0 83 74 84 93 64 68 64 69 76 79
1290.0 79 93 117 109 105 115 135 184 252 369
1330.0 665 1453 3068 5367 7102 6800 5086 3351 2591 3006
1370.0 4687 6772 7146 5127 2845 1661 1809 2493 2495 1590
1410.0 831 494 352 233 164 119 124 138 144 199
1450.0 239 261 258 235 268 299 349 380 396 446
1490.0 549 645 751 835 947 1248 1949 3292 5452 8154
1530.0 10000 9101 7232 7398 7205 4305 1522 696 590 452
1570.0 319 246 231 208 156 123 105 108 94 113
1610.0 122 126 133 122 126 109 121 116 117 119
1650.0 130 134 113 122 141 128 134 105 138 149
1690.0 150 148 187 227 239 268 333 428 511 611
1730.0 620 554 422 371 343 300 258 259 278 276
1770.0 264 240 192 177 164 150 137 132 138 121
1810.0 122 118 108 121 118 113 106 101 102 114
1850.0 115 117 128 126 117 109 106 107 99 105
1890.0 98 94 93 93 97 93 93 86 90 88
1930.0 87 93 82 81 85 87 90 82 83 82
1970.0 84 80 77 73 80 78 84 84 83 88
2010.0 88 84 88 82 76 70 73 78 78 80
2050.0 81 78 75 80 83 74 78 81 89 87
2090.0 86 80 84 85 94 99 103 97 86 88
2130.0 89 87 82 88 77 80 77 81 80 83
2170.0 82 83 85 78 77 90 84 92 90 85
2210.0 84 95 93 101 111 103 96 97 102 94
2250.0 83 91 99 94 93 101 108 113 122 132
2290.0 133 135 148 163 180 193 171 153 161 161
2330.0 159 159 123 166 185 198 185 154 155 154
2370.0 147 160 148 157 132 109 97 87 99 89
2410.0 89 92 92 82 77 89 87 90 86 94
2450.0 97 107 106 115 101 97 95 93 93 95
2490.0 91 93 97 100 103 98 98 99 105 116
2530.0 119 123 121 123 127 131 126 112 121 124
2570.0 126 125 125 106 118 122 124 123 121 113
2610.0 118 126 123 124 124 121 137 138 129 132
2650.0 130 125 130 122 119 94 93 96 100 100
2690.0 98 98 101 116 110 116 130 115 121 134
2730.0 135 136 138 154 171 162 151 140 133 128
2770.0 122 132 123 109 93 94 99 99 91 98
2810.0 104 114 114 107 102 102 102 107 118 111
2850.0 115 104 111 130 132 157 144 160 147 148
2890.0 144 136 131 130 127 137 142 149 157 152
2930.0 149 152 134 132 138 144 149 137 132 135
2970.0 131 126 130 124 111 121 128 123 118 102
3010.0 124 130 129 130 130 136 137 126 135 155
3050.0 164 162 154 152 142 141 157 174 188 223
3090.0 287 366 499 528 411 267 176 141 116 121
3130.0 111 113 128 125 114 124 109 107 111 115
3170.0 123 115 116 106 113 117 128 117 115 106
3210.0 114 112 127 115 105 117 103 115 110 116
3250.0 108 107 109 121 111 130 140 130 127 120
3290.0 111 122 121 128 122 109 124 150 137 124
3330.0 115 113 113 129 122 117 114 124 121 106
3370.0 140 132 116 120 129 137 141 152 125 153
3410.0 150 131 103 100 120 116 113 105 137 156
3450.0 116 129 136 138 150 125 129 116 127 138
3490.0 131 139 130 112 132 139 122 151 121 124
3530.0 114 124 120 116 123 120 124 144 131 140
3570.0 116 132 129 123 136 135 137 125 86 92
3610.0 107 105 132 137 138 124 113 111 140 121
3650.0 124 124 143 121 125 133 98 128 157 132
3690.0 123 115 121 84 121 130 152 187 164 131
3730.0 101 105 134 141 84 98 94 151 156 136
3770.0 130 137 154 156 110 133 119 105 127 178
3810.0 175 177 165 120 122 120 114 135 158 114
3850.0 128 163 154 176 132 124 130 143 135 155
3890.0 154 131 205 144 140 118 126 96 201 133
3930.0 119 166 202 105 140 136 162 117 152 194
##END=
