##TITLE=Dibutyl itaconate
##JCAMP-DX=4.24
##DATA TYPE=INFRARED SPECTRUM
##ORIGIN=Sadtler Research Labs Under US-EPA Contract
##OWNER=NIST Standard Reference Data Program
##CAS REGISTRY NO=2155-60-4
##MOLFORM=C 13 H 22 O 4
##XUNITS=1/CM
##YUNITS=ABSORBANCE
##XFACTOR=1.0
##YFACTOR=0.000054633
##DELTAX=4.0
##FIRSTX=450.0
##LASTX=3966.0
##FIRSTY=0.000000
##MAXX=3966
##MINX=450
##MAXY=0.54633
##MINY=0
##NPOINTS=880
##XYDATA=(X++(Y..Y))
450.0 0 1244 1444 1772 1756 1911 1931 1394 1792 1819
490.0 1586 1763 1461 1771 1496 1925 2187 1865 2049 2049
530.0 1978 1823 1659 1944 1516 1743 1912 1577 1500 1542
570.0 1580 1515 1366 1636 1609 1625 1599 1472 1533 1670
610.0 1471 1543 1550 1680 1569 1605 1576 1528 1642 1571
650.0 1633 1560 1551 1660 1646 1560 1656 1387 1498 1580
690.0 1445 1609 1482 1392 1362 1369 1523 1557 1525 1531
730.0 1416 1696 1290 1543 1708 1959 1600 1609 1720 1607
770.0 1622 1560 1414 1493 1468 1564 1623 1703 1688 1747
810.0 1894 2075 2080 1917 1796 1681 1677 1773 1825 1880
850.0 1829 1880 1777 1876 1748 1798 1938 1931 1820 1903
890.0 1858 1901 1873 1826 1729 1745 1825 1684 1801 1795
930.0 1947 2056 2329 2704 2720 2778 2591 2407 2419 2265
970.0 2200 2144 2021 1998 2002 1944 2075 2207 2363 2472
1010.0 2668 2794 2865 2917 2700 2387 2069 2007 1849 1805
1050.0 1848 2178 2281 2517 2561 2547 2447 2356 2439 2488
1090.0 2573 2676 2570 2624 2827 3149 3627 4171 4974 6047
1130.0 7324 8615 9423 9717 9463 8893 8531 7998 7874 7797
1170.0 7905 8189 8238 8155 8019 7669 7007 6447 5853 5229
1210.0 4735 4460 4165 4086 4080 4238 4509 4798 5174 5407
1250.0 5393 5431 5216 4980 4848 4803 4699 4722 5003 5310
1290.0 5225 5042 4965 4866 5079 5053 4824 4397 4089 3911
1330.0 3899 3817 3572 3303 3045 2763 2571 2399 2273 2189
1370.0 2104 2105 2159 2242 2396 2416 2476 2407 2385 2386
1410.0 2371 2461 2483 2605 2534 2488 2352 2287 2238 2210
1450.0 2222 2359 2424 2552 2493 2523 2409 2224 2047 1827
1490.0 1721 1692 1600 1567 1555 1543 1432 1500 1444 1474
1530.0 1432 1417 1472 1465 1438 1381 1445 1458 1498 1404
1570.0 1402 1430 1416 1423 1391 1379 1441 1383 1451 1442
1610.0 1458 1548 1583 1645 1673 1822 1909 2033 2037 1852
1650.0 1784 1653 1594 1463 1535 1510 1556 1563 1604 1693
1690.0 1719 1819 1928 2073 2137 2286 2543 2967 3592 4635
1730.0 6235 7485 8564 9010 9489 10000 9979 9672 8371 6349
1770.0 4715 3626 3019 2652 2354 2226 2023 1909 1778 1695
1810.0 1638 1560 1526 1492 1467 1475 1416 1428 1389 1414
1850.0 1381 1390 1398 1383 1388 1383 1407 1394 1409 1411
1890.0 1430 1419 1419 1416 1402 1400 1374 1378 1359 1353
1930.0 1352 1347 1346 1338 1340 1343 1347 1341 1344 1347
1970.0 1344 1349 1347 1346 1349 1339 1342 1340 1341 1337
2010.0 1340 1340 1333 1333 1340 1339 1343 1331 1340 1335
2050.0 1331 1328 1322 1324 1321 1327 1320 1318 1317 1312
2090.0 1312 1312 1305 1309 1306 1304 1301 1298 1294 1292
2130.0 1303 1297 1291 1288 1290 1286 1284 1284 1283 1282
2170.0 1277 1277 1280 1277 1272 1269 1269 1270 1273 1270
2210.0 1264 1260 1263 1261 1263 1274 1268 1271 1276 1271
2250.0 1272 1274 1276 1274 1277 1277 1284 1282 1286 1287
2290.0 1288 1294 1303 1300 1310 1316 1305 1309 1296 1306
2330.0 1306 1290 1344 1259 1391 1281 1363 1296 1384 1355
2370.0 1332 1325 1312 1309 1294 1283 1279 1283 1288 1279
2410.0 1277 1280 1278 1286 1275 1278 1280 1275 1274 1273
2450.0 1279 1276 1271 1277 1272 1269 1274 1272 1272 1273
2490.0 1279 1277 1274 1270 1275 1269 1276 1271 1270 1271
2530.0 1272 1277 1275 1283 1283 1277 1278 1284 1285 1285
2570.0 1291 1288 1291 1286 1287 1289 1291 1298 1290 1286
2610.0 1289 1293 1292 1288 1290 1284 1286 1284 1284 1282
2650.0 1282 1292 1291 1295 1297 1295 1305 1301 1296 1305
2690.0 1300 1308 1306 1311 1310 1312 1313 1322 1321 1319
2730.0 1331 1334 1335 1348 1354 1364 1360 1365 1367 1361
2770.0 1358 1363 1358 1361 1374 1373 1381 1391 1401 1408
2810.0 1419 1439 1450 1465 1488 1512 1534 1576 1640 1707
2850.0 1824 1938 2048 2146 2263 2458 2727 3007 3251 3357
2890.0 3304 3148 3031 3006 3073 3203 3385 3597 3763 3929
2930.0 4163 4508 4925 5284 5482 5502 5511 5763 6368 7052
2970.0 7384 7049 6090 4944 4031 3411 2950 2599 2352 2161
3010.0 2009 1898 1791 1729 1695 1653 1624 1590 1562 1539
3050.0 1525 1479 1476 1452 1439 1428 1423 1402 1394 1396
3090.0 1395 1396 1406 1410 1444 1474 1479 1427 1387 1363
3130.0 1359 1360 1360 1360 1361 1360 1347 1344 1347 1355
3170.0 1352 1360 1359 1360 1353 1350 1348 1350 1347 1352
3210.0 1344 1342 1342 1342 1335 1337 1332 1347 1330 1328
3250.0 1333 1333 1325 1330 1331 1325 1316 1330 1328 1323
3290.0 1329 1331 1331 1318 1326 1330 1332 1329 1331 1332
3330.0 1340 1327 1317 1333 1330 1327 1324 1330 1333 1333
3370.0 1340 1332 1326 1333 1332 1334 1324 1334 1344 1329
3410.0 1342 1345 1333 1332 1327 1336 1347 1346 1355 1359
3450.0 1364 1375 1355 1351 1362 1381 1374 1362 1373 1366
3490.0 1361 1358 1369 1334 1342 1320 1333 1343 1312 1299
3530.0 1313 1318 1316 1317 1312 1284 1333 1289 1321 1284
3570.0 1321 1323 1329 1298 1333 1279 1310 1299 1298 1284
3610.0 1308 1290 1292 1321 1289 1357 1300 1315 1277 1322
3650.0 1286 1369 1283 1329 1293 1284 1380 1287 1338 1288
3690.0 1346 1332 1291 1308 1295 1301 1325 1263 1331 1253
3730.0 1326 1349 1287 1397 1293 1458 1284 1361 1272 1315
3770.0 1339 1312 1306 1308 1292 1325 1309 1349 1306 1347
3810.0 1284 1336 1311 1338 1319 1312 1352 1342 1338 1354
3850.0 1302 1405 1367 1314 1333 1326 1360 1310 1346 1332
3890.0 1347 1292 1356 1333 1368 1340 1310 1351 1320 1327
3930.0 1291 1324 1370 1312 1322 1326 1335 1313 1344 1344
##END=
