##TITLE=2,2'-(tert-Butylimino)diethanol
##JCAMP-DX=4.24
##DATA TYPE=INFRARED SPECTRUM
##ORIGIN=Sadtler Research Labs Under US-EPA Contract
##OWNER=NIST Standard Reference Data Program
##CAS REGISTRY NO=2160-93-2
##MOLFORM=C 8 H 19 N O 2
##XUNITS=1/CM
##YUNITS=ABSORBANCE
##XFACTOR=1.0
##YFACTOR=0.000116470
##DELTAX=4.0
##FIRSTX=450.0
##LASTX=3966.0
##FIRSTY=0.032379
##MAXX=3966
##MINX=450
##MAXY=1.1647
##MINY=0
##NPOINTS=880
##XYDATA=(X++(Y..Y))
450.0 278 362 340 208 198 130 344 189 293 173
490.0 210 200 180 208 223 175 223 163 246 198
530.0 177 167 136 199 205 156 214 83 136 60
570.0 82 82 83 87 33 0 36 13 19 6
610.0 16 25 17 64 43 30 104 57 91 129
650.0 136 152 186 208 243 259 272 237 325 295
690.0 280 368 313 327 303 269 308 269 273 226
730.0 213 248 127 334 351 289 9 178 190 192
770.0 228 267 341 319 363 407 389 391 411 404
810.0 392 341 370 326 307 324 362 404 434 517
850.0 559 625 689 803 852 897 883 832 795 770
890.0 757 766 793 864 909 938 964 939 923 892
930.0 871 881 881 902 911 941 984 1044 1149 1260
970.0 1427 1607 1836 2090 2325 2598 2849 3014 3249 3506
1010.0 3796 4188 4623 4959 5168 5340 5212 4943 4538 4117
1050.0 3784 3708 3920 4310 4708 5017 4997 4471 3696 2916
1090.0 2294 1834 1559 1499 1483 1500 1570 1663 1766 1840
1130.0 1893 1901 1864 1802 1708 1556 1437 1335 1294 1311
1170.0 1376 1527 1735 2094 2538 3009 3493 3850 4103 4183
1210.0 4088 3882 3531 3089 2669 2295 2046 1867 1770 1762
1250.0 1800 1848 1867 1909 1906 1865 1779 1656 1575 1470
1290.0 1397 1332 1296 1255 1218 1189 1193 1209 1201 1232
1330.0 1253 1328 1458 1561 1705 1907 2185 2505 2926 3282
1370.0 3289 3043 2717 2463 2530 2783 3014 3102 2840 2379
1410.0 1862 1430 1154 954 838 757 724 736 771 839
1450.0 951 1033 1164 1293 1418 1559 1707 1728 1662 1440
1490.0 1149 848 619 466 351 321 289 208 161 181
1530.0 163 161 103 111 104 123 95 28 53 72
1570.0 72 77 52 74 79 83 69 66 62 62
1610.0 77 42 43 45 65 54 41 35 54 45
1650.0 32 21 53 63 39 41 35 72 67 60
1690.0 57 59 23 39 70 95 96 75 101 112
1730.0 96 102 83 126 122 114 112 123 98 126
1770.0 132 112 150 156 165 140 94 92 89 67
1810.0 46 51 43 39 47 35 26 35 24 28
1850.0 24 27 34 26 36 16 16 33 38 18
1890.0 22 23 31 33 25 29 37 42 50 41
1930.0 43 46 38 35 38 35 27 30 18 31
1970.0 16 17 17 22 14 11 27 14 19 24
2010.0 14 27 26 34 26 36 37 42 48 48
2050.0 52 49 48 48 44 43 42 40 39 33
2090.0 33 35 33 34 33 34 33 35 31 36
2130.0 32 34 34 31 31 21 26 20 19 20
2170.0 17 18 14 9 11 10 6 5 6 6
2210.0 4 5 5 2 2 7 3 3 2 10
2250.0 10 16 17 22 20 23 19 27 25 22
2290.0 19 24 27 26 25 24 24 22 7 23
2330.0 11 9 12 10 37 25 28 24 29 22
2370.0 27 15 36 38 26 20 18 15 17 17
2410.0 16 19 16 12 15 18 14 11 11 8
2450.0 15 13 15 11 13 12 10 8 7 3
2490.0 3 4 5 2 4 6 7 7 10 11
2530.0 10 10 10 14 16 17 20 19 21 28
2570.0 32 38 37 44 45 49 43 51 51 55
2610.0 59 60 61 64 70 74 80 85 94 99
2650.0 110 124 129 143 156 169 176 196 208 222
2690.0 245 259 274 287 307 315 327 344 352 362
2730.0 368 376 381 381 400 410 427 445 461 488
2770.0 512 541 576 620 662 719 801 902 1025 1172
2810.0 1349 1558 1785 2007 2202 2328 2409 2406 2394 2390
2850.0 2401 2497 2671 2936 3292 3705 4200 4657 5032 5237
2890.0 5270 5207 5030 4854 4756 4719 4813 4990 5233 5551
2930.0 5825 6084 6211 6264 6212 6075 6091 6302 6797 7687
2970.0 8648 9564 10000 9618 8793 7250 5581 4184 3090 2209
3010.0 1546 1095 804 630 507 429 365 313 273 241
3050.0 215 188 163 147 132 118 109 102 87 86
3090.0 72 67 65 60 57 52 46 40 38 36
3130.0 33 36 28 32 32 32 27 31 33 37
3170.0 40 41 38 26 35 28 25 23 28 28
3210.0 26 18 15 12 11 16 9 1 7 10
3250.0 6 8 6 10 6 5 5 7 10 6
3290.0 9 12 18 20 13 15 17 20 22 21
3330.0 23 40 35 38 40 41 45 41 51 65
3370.0 69 79 75 83 93 93 95 104 111 117
3410.0 125 136 144 158 160 162 160 172 171 186
3450.0 179 174 181 190 186 187 189 203 219 218
3490.0 228 234 250 285 320 332 388 428 504 595
3530.0 629 673 705 727 756 725 694 695 658 653
3570.0 621 561 527 473 435 400 341 302 261 232
3610.0 209 200 162 165 159 151 162 169 191 232
3650.0 285 454 568 699 767 771 720 605 486 318
3690.0 189 78 37 1 1 1 1 1 1 1
3730.0 1 1 1 1 1 1 1 1 1 1
3770.0 1 1 1 1 1 1 1 1 1 1
3810.0 1 1 1 1 1 1 1 1 1 1
3850.0 1 1 1 1 1 1 1 1 1 1
3890.0 1 1 1 1 1 1 1 1 1 1
3930.0 1 1 1 1 1 1 1 1 1 1
##END=
