##TITLE=1,10-Dichlorodecane
##JCAMP-DX=4.24
##DATA TYPE=INFRARED SPECTRUM
##ORIGIN=Sadtler Research Labs Under US-EPA Contract
##OWNER=NIST Standard Reference Data Program
##CAS REGISTRY NO=2162-98-3
##MOLFORM=C 10 H 20 Cl 2
##XUNITS=1/CM
##YUNITS=ABSORBANCE
##XFACTOR=1.0
##YFACTOR=0.000109442
##DELTAX=4.0
##FIRSTX=450.0
##LASTX=3966.0
##FIRSTY=0.014009
##MAXX=3966
##MINX=450
##MAXY=1.09442
##MINY=0
##NPOINTS=880
##XYDATA=(X++(Y..Y))
450.0 128 158 9 211 19 79 97 43 54 82
490.0 29 71 72 41 51 7 135 30 16 100
530.0 18 48 80 35 52 48 44 61 24 86
570.0 63 13 105 35 42 42 31 55 64 51
610.0 76 48 96 96 91 162 151 200 284 334
650.0 466 653 893 1079 1065 787 564 319 334 245
690.0 223 253 245 297 339 422 531 645 752 885
730.0 937 1118 1204 1257 1239 1063 901 833 728 619
770.0 498 334 320 285 303 265 216 249 215 235
810.0 242 220 188 215 186 232 186 196 192 156
850.0 203 168 154 164 188 191 198 179 197 186
890.0 180 206 168 183 174 153 165 160 156 163
930.0 149 164 156 146 171 142 163 167 145 171
970.0 167 163 174 161 168 174 160 181 147 167
1010.0 170 141 157 156 138 152 146 149 153 128
1050.0 158 139 134 146 113 116 106 89 96 80
1090.0 74 88 55 72 61 41 63 44 51 59
1130.0 46 55 47 42 63 44 50 63 48 72
1170.0 52 61 73 57 75 85 74 102 93 100
1210.0 116 104 140 139 153 190 200 236 280 308
1250.0 363 392 438 512 539 596 631 697 839 998
1290.0 1156 1222 1164 1129 1083 1032 976 877 801 704
1330.0 567 471 407 398 436 453 481 479 420 386
1370.0 341 307 260 179 150 117 103 111 91 93
1410.0 110 102 139 154 191 278 370 519 660 841
1450.0 1123 1268 1244 1197 1069 887 644 409 286 179
1490.0 139 110 86 79 75 70 72 48 56 54
1530.0 29 46 39 37 47 32 38 38 29 37
1570.0 23 25 36 12 31 19 13 25 8 12
1610.0 19 15 29 22 20 37 17 33 28 12
1650.0 35 24 18 23 18 24 25 19 38 20
1690.0 26 32 16 33 21 12 21 20 20 16
1730.0 10 31 18 21 32 15 30 28 14 19
1770.0 19 15 21 7 20 14 13 22 4 14
1810.0 16 9 16 13 7 18 11 13 13 7
1850.0 21 4 6 17 3 10 11 4 14 5
1890.0 11 13 2 19 7 7 19 3 7 13
1930.0 3 14 9 12 17 3 16 13 6 20
1970.0 6 9 18 3 15 15 10 19 11 22
2010.0 16 8 29 16 18 30 15 25 28 21
2050.0 28 19 24 25 15 29 16 16 28 15
2090.0 20 28 18 24 20 14 26 12 25 21
2130.0 14 29 17 12 27 13 21 23 17 27
2170.0 19 27 25 12 27 17 6 27 18 15
2210.0 25 15 20 16 20 22 10 22 19 13
2250.0 24 19 16 30 18 24 21 20 25 16
2290.0 28 30 16 33 27 18 35 29 23 38
2330.0 30 34 19 28 29 14 36 27 0 46
2370.0 16 8 35 25 31 30 31 32 23 31
2410.0 34 18 31 30 18 32 30 30 29 26
2450.0 34 25 29 39 20 34 36 21 36 35
2490.0 33 42 35 39 36 41 46 32 40 49
2530.0 31 47 44 35 49 42 39 36 38 49
2570.0 31 40 52 30 44 50 39 58 54 55
2610.0 59 60 68 61 65 86 67 79 93 74
2650.0 90 94 90 102 104 112 111 107 121 116
2690.0 125 141 113 127 126 108 117 111 109 115
2730.0 110 120 109 111 133 103 116 134 110 122
2770.0 121 119 127 124 140 149 155 193 191 212
2810.0 245 239 277 319 339 404 462 549 685 897
2850.0 1293 1848 2710 3725 4270 4089 3451 2746 2248 1884
2890.0 1649 1621 1749 2047 2415 2820 3289 3901 4891 6378
2930.0 8075 9474 10000 9579 8262 6631 5103 4123 3779 3583
2970.0 2898 2172 1647 1266 1125 1184 1403 1686 1611 1138
3010.0 713 472 389 312 249 254 206 184 184 144
3050.0 131 132 109 109 82 97 82 62 88 64
3090.0 58 79 50 53 74 43 57 44 53 52
3130.0 24 50 46 39 68 43 38 61 38 42
3170.0 48 53 62 41 68 67 39 62 51 40
3210.0 67 44 51 51 40 62 38 51 56 27
3250.0 49 46 36 68 45 33 58 30 54 28
3290.0 35 62 28 67 57 14 68 61 35 58
3330.0 44 41 45 40 52 27 30 60 25 43
3370.0 47 22 52 38 35 61 33 55 34 46
3410.0 52 26 45 59 19 58 40 35 60 32
3450.0 42 52 38 57 29 49 58 17 44 45
3490.0 11 60 28 42 52 43 54 32 35 45
3530.0 25 53 48 17 47 39 35 26 35 34
3570.0 22 29 61 37 39 56 9 58 63 23
3610.0 52 35 55 68 32 60 48 64 82 38
3650.0 57 68 57 83 55 54 60 39 65 57
3690.0 40 70 49 80 94 43 56 74 41 80
3730.0 72 77 79 67 64 38 48 78 34 54
3770.0 58 63 50 64 45 66 66 105 71 42
3810.0 86 44 71 90 46 74 62 14 90 69
3850.0 86 75 43 65 54 45 68 83 63 101
3890.0 38 104 72 71 94 83 77 128 64 141
3930.0 62 47 95 59 94 55 83 75 81 37
##END=
