##TITLE=N,N'-Bis-(2,6-diethylphenyl)-carbodiimide
##JCAMP-DX=4.24
##DATA TYPE=INFRARED SPECTRUM
##ORIGIN=Sadtler Research Labs Under US-EPA Contract
##OWNER=NIST Standard Reference Data Program
##CAS REGISTRY NO=2162-75-6
##MOLFORM=C 21 H 26 N 2
##XUNITS=1/CM
##YUNITS=ABSORBANCE
##XFACTOR=1.0
##YFACTOR=0.000143915
##DELTAX=4.0
##FIRSTX=450.0
##LASTX=3966.0
##FIRSTY=0.008635
##MAXX=3966
##MINX=450
##MAXY=1.43915
##MINY=0
##NPOINTS=880
##XYDATA=(X++(Y..Y))
450.0 60 38 5 25 28 79 73 45 37 42
490.0 52 91 79 84 107 148 173 203 214 188
530.0 176 184 181 198 205 222 242 271 322 370
570.0 438 486 531 544 500 452 393 338 272 215
610.0 183 139 117 101 79 71 68 74 81 88
650.0 105 111 116 122 104 97 76 60 54 49
690.0 37 39 46 41 40 51 52 80 107 148
730.0 222 352 586 959 1335 1458 1202 879 610 440
770.0 341 298 297 314 322 322 304 266 222 184
810.0 182 189 237 309 257 140 68 36 31 32
850.0 51 74 121 196 271 304 273 187 112 62
890.0 39 25 21 19 13 9 5 6 2 0
930.0 2 4 5 8 12 18 29 51 53 39
970.0 25 24 24 20 24 28 36 42 36 38
1010.0 35 36 41 52 73 96 129 137 128 126
1050.0 148 190 226 234 220 209 201 199 187 176
1090.0 180 212 305 483 580 437 243 135 98 74
1130.0 67 68 70 77 96 121 157 218 319 510
1170.0 853 1495 2314 2504 1746 912 472 288 205 164
1210.0 138 128 125 138 153 181 221 285 390 543
1250.0 744 941 1016 879 633 439 325 265 230 206
1290.0 190 171 161 157 162 178 203 238 259 269
1330.0 264 255 241 213 181 160 145 141 146 158
1370.0 192 250 287 274 229 195 176 176 174 190
1410.0 204 234 283 331 411 546 810 1325 2058 2549
1450.0 2637 2320 1732 1191 919 776 626 457 328 263
1490.0 233 200 190 169 172 170 153 153 154 135
1530.0 130 122 124 119 115 102 118 132 149 175
1570.0 235 323 481 739 985 947 618 326 183 135
1610.0 113 96 87 67 70 61 78 84 86 90
1650.0 95 80 72 57 60 58 55 42 54 54
1690.0 47 49 65 69 62 49 40 47 30 23
1730.0 26 36 25 25 26 26 21 18 19 16
1770.0 24 26 29 39 58 65 62 37 28 16
1810.0 15 17 12 18 17 25 22 29 44 68
1850.0 84 86 73 52 38 36 29 28 30 33
1890.0 38 40 45 53 70 106 154 176 134 79
1930.0 61 55 53 57 60 61 66 69 69 74
1970.0 82 85 90 96 104 116 127 135 146 157
2010.0 169 181 193 206 223 245 266 295 327 362
2050.0 401 447 500 561 637 722 824 937 1052 1164
2090.0 1269 1365 1455 1532 1594 1647 1705 1794 1921 2103
2130.0 2356 2703 3142 3694 4369 5169 6095 7132 8202 9115
2170.0 9754 10000 9859 9290 8721 8040 7418 6831 6324 5804
2210.0 5305 4849 4418 4038 3690 3385 3087 2822 2573 2341
2250.0 2117 1903 1695 1501 1339 1201 1092 996 924 862
2290.0 808 756 700 637 571 518 452 414 383 356
2330.0 346 336 332 308 317 291 300 309 277 256
2370.0 239 206 184 162 136 112 97 86 78 70
2410.0 64 60 55 50 46 43 42 38 34 32
2450.0 28 26 24 20 19 16 15 13 10 7
2490.0 7 5 2 1 0 1 0 0 1 3
2530.0 1 3 5 6 5 6 5 8 9 9
2570.0 11 9 12 14 11 12 14 15 16 16
2610.0 16 16 18 23 23 24 28 28 25 26
2650.0 25 25 27 29 30 33 37 44 46 51
2690.0 52 56 63 67 69 71 76 78 80 84
2730.0 92 95 98 100 99 97 97 99 102 108
2770.0 112 115 119 126 130 134 134 139 149 154
2810.0 159 171 183 195 206 218 225 236 246 257
2850.0 274 300 342 399 490 609 749 886 984 1015
2890.0 958 860 774 726 713 726 742 774 835 942
2930.0 1102 1309 1523 1661 1647 1487 1302 1238 1376 1774
2970.0 2438 2954 2701 1988 1315 874 628 494 419 377
3010.0 361 366 388 411 428 422 399 374 359 365
3050.0 410 494 592 643 613 571 542 492 382 241
3090.0 142 97 75 61 53 46 40 38 40 38
3130.0 37 37 37 37 37 39 42 43 42 44
3170.0 42 40 37 32 31 27 25 22 27 27
3210.0 29 32 35 39 41 46 46 47 48 50
3250.0 49 46 44 46 46 46 42 38 36 38
3290.0 37 33 34 30 29 29 23 24 17 16
3330.0 12 12 15 12 9 4 1 7 8 3
3370.0 3 5 7 4 9 3 8 4 10 9
3410.0 9 13 11 12 10 13 6 9 7 11
3450.0 9 1 0 9 4 11 9 7 9 5
3490.0 4 11 3 10 13 10 14 12 15 17
3530.0 11 14 18 16 18 20 22 23 26 34
3570.0 34 33 32 34 38 36 45 31 33 31
3610.0 35 37 34 32 30 37 29 23 24 24
3650.0 41 38 26 29 28 46 31 34 26 35
3690.0 37 29 29 38 33 37 30 34 35 33
3730.0 32 32 35 23 42 24 33 22 21 24
3770.0 29 21 20 29 14 24 13 20 10 28
3810.0 4 22 23 19 18 12 20 22 14 9
3850.0 20 21 19 16 20 19 12 12 15 20
3890.0 12 13 10 24 20 12 11 8 21 19
3930.0 6 7 7 12 26 11 20 5 10 7
##END=
