##TITLE=Hexane, 1,6-dichloro-
##JCAMP-DX=4.24
##DATA TYPE=INFRARED SPECTRUM
##ORIGIN=Sadtler Research Labs Under US-EPA Contract
##OWNER=NIST Standard Reference Data Program
##CAS REGISTRY NO=2163-00-0
##MOLFORM=C 6 H 12 Cl 2
##XUNITS=1/CM
##YUNITS=ABSORBANCE
##XFACTOR=1.0
##YFACTOR=0.000076361
##DELTAX=4.0
##FIRSTX=450.0
##LASTX=3966.0
##FIRSTY=0.023596
##MAXX=3966
##MINX=450
##MAXY=0.76361
##MINY=0
##NPOINTS=880
##XYDATA=(X++(Y..Y))
450.0 309 78 28 43 86 36 67 42 104 56
490.0 77 120 82 66 81 97 28 134 68 43
530.0 20 7 160 32 29 22 17 10 61 12
570.0 11 29 24 71 27 119 35 19 45 101
610.0 65 114 137 174 231 215 369 421 628 791
650.0 1149 1655 2252 2669 2684 2223 1713 1055 748 653
690.0 551 528 496 582 594 732 882 1133 1387 1704
730.0 2225 2666 3339 3742 3670 3301 2679 2155 1698 1260
770.0 958 728 567 548 469 455 493 484 467 458
810.0 452 486 511 521 494 470 419 399 371 379
850.0 369 396 414 430 424 438 439 411 411 396
890.0 388 390 437 482 527 561 560 552 518 501
930.0 463 447 430 418 417 403 389 372 370 361
970.0 346 335 333 331 343 335 322 311 292 292
1010.0 300 330 342 350 369 392 439 474 473 439
1050.0 415 374 358 336 301 281 249 247 220 222
1090.0 212 206 192 184 175 192 207 230 245 231
1130.0 205 185 170 165 154 171 172 191 198 221
1170.0 221 231 258 262 277 261 253 239 244 244
1210.0 241 245 247 274 316 389 478 580 657 703
1250.0 759 816 923 1115 1383 1681 1971 2220 2461 2628
1290.0 2738 2764 2738 2673 2605 2567 2460 2314 2074 1790
1330.0 1457 1163 917 809 791 807 837 796 727 631
1370.0 540 456 399 338 280 226 191 171 168 178
1410.0 186 213 234 323 434 612 838 1091 1397 1850
1450.0 2343 2544 2476 2090 1740 1402 1062 772 553 398
1490.0 305 245 201 187 150 137 121 88 69 53
1530.0 45 48 50 38 28 41 32 33 27 33
1570.0 32 26 37 35 52 69 80 97 107 103
1610.0 90 78 63 43 31 22 16 15 15 20
1650.0 13 18 25 19 26 19 14 15 14 14
1690.0 23 25 24 30 18 19 13 16 18 25
1730.0 20 19 28 27 28 37 52 45 39 27
1770.0 20 22 13 10 5 5 5 9 8 9
1810.0 1 6 6 3 7 4 8 4 8 7
1850.0 4 4 8 5 3 0 1 10 5 2
1890.0 8 6 6 13 6 3 11 12 5 11
1930.0 13 13 11 16 9 13 9 12 15 22
1970.0 13 17 21 18 20 14 26 24 32 34
2010.0 37 39 47 50 52 57 66 61 61 63
2050.0 53 52 50 53 53 43 38 33 25 15
2090.0 15 19 21 18 23 29 22 26 20 23
2130.0 26 26 20 24 21 22 24 26 25 32
2170.0 26 29 27 31 27 36 28 31 32 32
2210.0 28 29 31 32 29 32 27 36 33 26
2250.0 29 23 28 28 25 31 32 28 30 26
2290.0 27 27 18 6 2 7 6 8 12 12
2330.0 15 16 17 19 21 20 24 33 33 33
2370.0 28 44 70 73 63 58 53 46 38 45
2410.0 44 47 38 45 49 51 54 50 45 56
2450.0 49 40 52 47 55 45 45 44 51 49
2490.0 57 57 51 57 64 63 66 71 73 74
2530.0 64 63 57 54 49 46 39 45 43 40
2570.0 43 48 45 48 51 53 51 62 62 60
2610.0 69 71 63 67 70 59 60 66 83 84
2650.0 81 74 73 77 78 94 113 120 129 134
2690.0 144 157 167 166 169 175 163 170 171 170
2730.0 176 172 173 169 178 167 171 173 171 173
2770.0 169 165 165 172 186 191 213 236 252 262
2810.0 284 301 338 367 415 480 579 728 949 1247
2850.0 1632 2050 2531 3009 3460 3799 3931 3859 3613 3263
2890.0 2886 2657 2672 2856 3161 3519 3840 4159 4522 5037
2930.0 5740 6694 7851 8998 9790 10000 9528 8932 8363 7717
2970.0 6809 5516 4285 3394 2904 2841 3230 3685 3601 2983
3010.0 2027 1266 860 620 502 423 374 328 305 279
3050.0 240 231 216 208 188 183 159 145 134 126
3090.0 127 126 118 112 111 99 83 74 82 80
3130.0 75 72 68 66 57 80 73 76 74 68
3170.0 73 73 59 62 54 57 58 61 59 64
3210.0 55 52 63 49 35 60 39 49 47 26
3250.0 34 15 37 22 20 29 42 29 24 43
3290.0 30 24 23 22 26 35 29 31 20 28
3330.0 37 37 48 41 16 46 51 29 22 26
3370.0 42 47 48 24 14 28 54 17 35 52
3410.0 51 49 47 20 9 33 43 13 51 71
3450.0 40 48 35 37 15 19 28 44 29 41
3490.0 23 37 55 15 34 26 7 16 18 23
3530.0 17 22 16 11 15 26 16 18 48 34
3570.0 23 21 57 43 27 27 45 10 40 36
3610.0 25 1 31 67 51 67 65 76 113 88
3650.0 99 118 89 119 101 94 101 95 46 58
3690.0 77 41 38 55 68 60 61 56 12 0
3730.0 51 43 50 57 58 81 78 51 47 60
3770.0 58 66 44 38 50 44 5 39 74 44
3810.0 16 20 56 62 43 45 98 98 69 104
3850.0 48 64 68 34 59 57 98 131 32 29
3890.0 85 94 69 56 120 92 100 110 99 75
3930.0 109 123 107 87 79 67 81 115 126 137
##END=
