##TITLE=Azoxybenzene, 4,4'-dichloro-, trans-,
##JCAMP-DX=4.24
##DATA TYPE=INFRARED SPECTRUM
##ORIGIN=Sadtler Research Labs Under US-EPA Contract
##OWNER=NIST Standard Reference Data Program
##CAS REGISTRY NO=21650-66-8
##MOLFORM=C 12 H 8 Cl 2 N 2 O
##XUNITS=1/CM
##YUNITS=ABSORBANCE
##XFACTOR=1.0
##YFACTOR=0.000081522
##DELTAX=4.0
##FIRSTX=450.0
##LASTX=3966.0
##FIRSTY=0.028533
##MAXX=3966
##MINX=450
##MAXY=0.81522
##MINY=0
##NPOINTS=880
##XYDATA=(X++(Y..Y))
450.0 350 273 281 216 176 195 181 203 194 201
490.0 214 242 309 363 469 647 936 1482 1616 1160
530.0 1035 1130 1189 949 510 288 183 99 59 61
570.0 59 46 41 42 25 9 26 10 29 21
610.0 35 54 91 125 204 188 162 164 235 500
650.0 614 507 468 721 1002 865 474 298 196 191
690.0 169 176 166 219 324 337 501 533 315 225
730.0 204 196 201 175 191 188 171 150 160 173
770.0 181 205 219 252 306 366 436 559 700 885
810.0 1126 1408 1744 2319 3172 4028 4445 4566 3771 2531
850.0 1596 990 661 494 408 342 284 263 246 233
890.0 236 253 287 361 512 829 1156 1027 636 414
930.0 301 223 198 202 227 219 193 162 151 140
970.0 130 129 128 143 150 185 205 335 593 1839
1010.0 4308 4254 1535 341 157 143 120 154 173 214
1050.0 225 272 325 432 591 809 1160 1986 3860 6188
1090.0 6791 5645 4479 2974 1810 1271 887 615 454 374
1130.0 313 309 323 326 317 445 686 870 1054 720
1170.0 333 197 149 137 154 169 181 201 224 257
1210.0 285 310 313 322 316 266 204 181 172 169
1250.0 189 239 335 462 616 752 880 947 972 1030
1290.0 854 693 663 662 662 645 726 916 1048 978
1330.0 815 663 591 534 490 454 386 344 320 305
1370.0 278 312 321 361 440 622 888 1130 1337 1048
1410.0 698 586 590 580 637 687 815 954 1231 1625
1450.0 2271 3017 3872 4385 4613 4825 5301 6895 9037 10000
1490.0 6202 2857 1478 1014 797 661 540 523 533 480
1530.0 473 422 409 416 422 437 536 655 659 647
1570.0 826 1167 1570 1893 2106 2066 1721 1196 647 386
1610.0 278 239 250 217 247 220 271 275 261 270
1650.0 300 280 218 161 135 121 128 83 118 129
1690.0 83 60 98 84 52 15 38 86 52 55
1730.0 93 136 100 109 129 136 136 150 187 206
1770.0 258 248 183 127 84 64 69 54 63 48
1810.0 45 47 37 42 43 52 38 31 35 46
1850.0 21 10 22 26 41 64 53 60 84 116
1890.0 163 206 248 268 262 228 172 130 98 60
1930.0 42 33 26 33 27 16 20 19 14 13
1970.0 13 4 4 2 2 11 10 3 3 5
2010.0 2 4 16 18 16 12 6 4 5 0
2050.0 0 1 0 1 3 2 3 5 6 4
2090.0 9 7 4 6 6 10 10 10 9 5
2130.0 7 5 4 1 3 2 1 1 1 0
2170.0 1 1 2 1 4 7 5 8 8 5
2210.0 11 10 16 14 17 19 22 27 30 35
2250.0 42 47 60 71 73 75 81 79 80 74
2290.0 73 69 65 64 59 57 50 44 49 40
2330.0 34 35 38 48 63 66 75 71 71 74
2370.0 89 92 97 87 77 61 56 52 51 42
2410.0 37 34 28 29 27 27 26 22 22 23
2450.0 24 23 26 24 25 28 29 31 34 41
2490.0 46 52 49 48 44 41 38 41 41 49
2530.0 53 65 75 87 102 109 112 103 96 92
2570.0 92 96 98 92 85 80 71 67 61 58
2610.0 52 50 45 45 44 42 45 45 51 51
2650.0 56 55 60 63 64 69 74 74 77 76
2690.0 71 70 69 67 71 76 82 89 94 100
2730.0 101 103 105 108 109 104 104 104 101 101
2770.0 102 93 88 83 75 71 67 59 54 48
2810.0 45 44 38 38 31 27 29 31 29 30
2850.0 33 34 34 38 38 36 31 30 28 25
2890.0 26 26 27 24 23 23 18 15 12 14
2930.0 14 10 12 15 16 16 13 17 24 24
2970.0 25 27 24 25 27 38 38 42 41 45
3010.0 54 59 69 80 94 110 118 136 139 153
3050.0 165 184 208 235 260 300 347 404 463 479
3090.0 487 465 397 319 249 195 164 151 152 145
3130.0 137 123 109 93 79 76 70 61 54 53
3170.0 48 43 47 37 40 41 33 32 27 25
3210.0 20 22 23 19 19 18 16 19 11 11
3250.0 12 10 11 16 12 11 8 8 10 9
3290.0 11 10 7 5 7 8 8 12 8 14
3330.0 13 13 10 16 15 13 6 14 18 13
3370.0 15 14 11 11 16 17 19 17 17 17
3410.0 17 20 19 18 28 31 23 26 25 15
3450.0 17 23 26 23 20 22 19 25 18 22
3490.0 24 23 10 13 15 14 14 15 14 16
3530.0 15 11 19 8 17 15 13 12 12 20
3570.0 30 15 7 17 22 33 20 14 17 13
3610.0 23 12 16 14 27 37 18 24 15 18
3650.0 23 21 23 22 14 19 15 26 10 19
3690.0 25 33 27 33 26 41 41 40 41 38
3730.0 37 57 48 28 41 18 31 19 19 30
3770.0 25 15 9 17 12 18 11 14 15 31
3810.0 15 29 27 34 22 20 16 21 28 26
3850.0 27 40 34 24 26 13 22 15 29 22
3890.0 31 47 27 46 32 45 25 38 28 27
3930.0 26 17 24 27 12 14 29 33 27 30
##END=
