##TITLE=2-(Dimethylaminomethyl)-3-hydroxypyridine
##JCAMP-DX=4.24
##DATA TYPE=INFRARED SPECTRUM
##ORIGIN=Sadtler Research Labs Under US-EPA Contract
##OWNER=NIST Standard Reference Data Program
##CAS REGISTRY NO=2168-13-0
##MOLFORM=C 8 H 12 N 2 O
##XUNITS=1/CM
##YUNITS=ABSORBANCE
##XFACTOR=1.0
##YFACTOR=0.000083817
##DELTAX=4.0
##FIRSTX=450.0
##LASTX=3966.0
##FIRSTY=0.056995
##MAXX=3966
##MINX=450
##MAXY=0.83817
##MINY=0
##NPOINTS=880
##XYDATA=(X++(Y..Y))
450.0 680 684 571 477 231 227 150 112 87 70
490.0 59 95 75 108 105 96 96 115 113 77
530.0 84 127 152 161 247 334 405 473 480 464
570.0 419 361 285 238 188 167 150 173 180 224
610.0 315 430 598 730 781 747 623 458 365 312
650.0 304 310 340 330 363 391 408 410 431 450
690.0 490 495 533 592 620 679 775 944 1112 1266
730.0 1436 1347 1146 1047 916 876 866 897 946 964
770.0 970 999 1121 1357 1759 2208 2588 2997 2774 2095
810.0 1667 1217 923 824 895 1112 1444 1885 2166 2232
850.0 2027 1662 1150 727 528 457 476 524 520 483
890.0 394 289 222 198 211 205 203 201 196 180
930.0 175 183 194 218 293 452 631 793 1018 1259
970.0 1214 1113 960 643 381 312 315 405 588 923
1010.0 1473 2188 2785 3024 2901 2448 1842 1460 1299 1183
1050.0 1012 816 615 450 335 279 259 267 313 396
1090.0 529 703 848 923 914 812 677 562 491 474
1130.0 507 574 668 815 986 1212 1461 1611 1705 1801
1170.0 1810 1756 1639 1418 1138 862 653 560 564 606
1210.0 676 760 878 1096 1409 1777 2099 2376 2577 2743
1250.0 3128 3900 5031 6201 6870 6782 6170 4914 3408 2355
1290.0 1731 1346 1107 932 795 684 607 603 617 671
1330.0 745 888 1113 1435 1874 2332 2562 2615 2486 2167
1370.0 1894 1790 1679 1540 1377 1198 1020 907 790 757
1410.0 760 841 1050 1349 1860 2715 4143 6241 8477 9607
1450.0 10000 9163 7163 5420 4424 3857 3420 2947 2441 2014
1490.0 1584 1210 1018 860 807 732 636 561 533 446
1530.0 425 373 370 364 363 368 446 568 758 996
1570.0 1366 1675 1841 1783 1539 1151 798 595 458 370
1610.0 294 235 215 149 139 117 162 173 184 189
1650.0 217 194 162 108 116 122 147 128 168 176
1690.0 167 170 223 229 218 207 223 244 193 159
1730.0 142 153 102 85 92 101 107 91 92 69
1770.0 91 67 52 50 61 51 63 54 72 63
1810.0 78 98 117 135 129 122 88 61 54 68
1850.0 53 58 80 101 121 139 134 115 101 79
1890.0 69 51 47 49 65 97 127 143 143 117
1930.0 84 59 36 21 14 2 6 0 6 8
1970.0 9 10 18 23 27 37 40 41 40 42
2010.0 40 44 47 47 43 43 40 38 36 32
2050.0 29 27 26 33 37 40 42 44 50 52
2090.0 52 51 49 52 54 52 50 51 51 47
2130.0 49 55 61 68 77 74 78 69 68 65
2170.0 64 61 61 63 66 74 82 94 101 107
2210.0 106 101 91 81 73 61 61 57 57 58
2250.0 58 60 61 70 71 76 77 83 88 95
2290.0 102 108 116 125 125 137 140 142 157 149
2330.0 163 170 160 161 176 158 169 155 168 182
2370.0 180 188 194 202 206 206 214 219 233 239
2410.0 246 250 258 255 263 267 265 263 263 267
2450.0 270 273 278 285 292 298 304 316 329 335
2490.0 348 359 369 380 390 398 413 424 435 450
2530.0 460 472 481 486 489 496 498 505 511 525
2570.0 545 557 579 599 623 650 677 699 726 740
2610.0 758 774 796 810 816 836 851 848 848 834
2650.0 831 821 815 819 823 832 856 880 910 940
2690.0 978 1016 1055 1110 1152 1202 1262 1323 1391 1451
2730.0 1503 1547 1577 1598 1623 1651 1692 1762 1877 2016
2770.0 2181 2389 2640 2936 3329 3843 4244 4444 4479 4236
2810.0 3766 3366 3147 3128 3325 3725 4297 4835 5092 5092
2850.0 4830 4333 4035 3992 4077 4143 4099 3983 3760 3561
2890.0 3439 3389 3382 3412 3474 3506 3489 3456 3386 3237
2930.0 3130 3055 3062 3159 3394 3792 4241 4570 4594 4359
2970.0 3941 3604 3568 3872 4238 4194 3903 3454 2801 2295
3010.0 2114 2040 2030 2058 2119 2188 2275 2347 2395 2439
3050.0 2484 2544 2675 2862 3059 3223 3263 3138 2903 2614
3090.0 2335 2112 1981 1906 1860 1826 1808 1793 1782 1777
3130.0 1785 1782 1770 1776 1762 1766 1762 1764 1754 1746
3170.0 1735 1720 1714 1702 1702 1688 1691 1685 1683 1682
3210.0 1665 1656 1633 1620 1591 1573 1556 1531 1508 1486
3250.0 1471 1442 1431 1396 1372 1349 1327 1305 1274 1252
3290.0 1226 1207 1183 1164 1123 1098 1074 1053 1025 1000
3330.0 982 957 930 894 878 846 823 795 777 746
3370.0 722 702 684 662 636 620 586 576 554 537
3410.0 518 492 476 460 454 432 424 404 396 383
3450.0 358 342 325 326 312 305 287 276 262 252
3490.0 238 225 219 215 207 193 196 171 177 170
3530.0 158 153 148 150 140 129 124 125 111 126
3570.0 121 111 101 99 112 111 123 85 93 84
3610.0 91 84 86 99 111 165 180 202 216 216
3650.0 228 225 209 175 120 103 68 91 54 72
3690.0 74 73 58 60 63 54 68 64 60 59
3730.0 59 83 79 74 132 73 84 56 65 68
3770.0 68 69 54 56 41 61 52 81 72 96
3810.0 65 81 85 82 72 67 91 106 96 78
3850.0 99 84 103 85 98 88 90 96 96 126
3890.0 102 110 108 131 136 125 101 116 136 80
3930.0 124 123 119 134 144 127 161 126 101 99
##END=
