##TITLE=Butane, 1,1'-sulfinylbis-
##JCAMP-DX=4.24
##DATA TYPE=INFRARED SPECTRUM
##ORIGIN=Sadtler Research Labs Under US-EPA Contract
##OWNER=NIST Standard Reference Data Program
##CAS REGISTRY NO=2168-93-6
##MOLFORM=C 8 H 18 O S
##XUNITS=1/CM
##YUNITS=ABSORBANCE
##XFACTOR=1.0
##YFACTOR=0.000066776
##DELTAX=4.0
##FIRSTX=450.0
##LASTX=3966.0
##FIRSTY=0.055223
##MAXX=3966
##MINX=450
##MAXY=0.66776
##MINY=0
##NPOINTS=880
##XYDATA=(X++(Y..Y))
450.0 827 354 368 130 290 253 310 38 342 25
490.0 325 254 216 355 284 278 218 431 223 301
530.0 154 222 438 298 338 296 308 47 330 127
570.0 172 136 209 95 44 78 171 371 268 492
610.0 410 366 332 316 301 280 431 313 347 252
650.0 262 224 227 257 212 241 178 271 89 511
690.0 391 365 314 309 352 256 381 328 379 353
730.0 493 324 301 492 436 453 366 386 321 283
770.0 263 259 251 206 336 211 248 193 258 189
810.0 208 221 186 186 152 199 125 184 148 161
850.0 140 179 236 221 313 336 464 449 590 654
890.0 735 875 950 1090 1043 1458 1432 1288 1253 1256
930.0 1148 1104 991 891 805 710 654 583 596 558
970.0 574 562 575 614 617 647 679 691 657 622
1010.0 548 532 502 473 467 490 597 641 811 937
1050.0 1069 1126 1162 1213 1232 1307 1377 1519 1544 1536
1090.0 1460 1295 1115 911 756 592 536 490 532 585
1130.0 832 1084 1284 1468 1474 1345 1099 982 911 824
1170.0 660 525 437 355 379 262 341 220 282 194
1210.0 293 336 323 372 335 361 276 271 245 236
1250.0 213 234 274 304 396 440 505 495 526 545
1290.0 574 586 597 591 576 552 538 552 585 679
1330.0 798 938 1129 1203 1214 1160 1049 958 861 668
1370.0 670 728 766 787 826 808 751 702 657 659
1410.0 703 639 784 755 784 782 944 1021 1057 1074
1450.0 1215 1329 1499 1571 1425 1394 1206 1030 743 678
1490.0 519 440 374 289 308 336 223 181 228 146
1530.0 149 89 162 107 143 108 124 79 166 52
1570.0 79 38 130 38 80 84 104 90 140 169
1610.0 167 257 286 381 394 473 472 501 419 517
1650.0 396 584 479 293 234 190 75 162 41 180
1690.0 46 87 64 174 61 62 98 89 98 74
1730.0 135 123 177 102 119 134 153 98 104 112
1770.0 74 101 30 103 35 122 37 75 87 114
1810.0 67 131 143 105 180 99 159 82 172 131
1850.0 118 68 66 46 37 64 20 36 22 37
1890.0 34 28 30 24 27 15 33 23 40 22
1930.0 27 17 27 34 26 26 29 34 30 35
1970.0 38 35 33 36 38 37 48 38 33 38
2010.0 37 38 32 50 30 40 34 43 28 46
2050.0 35 40 39 31 33 21 27 20 22 24
2090.0 30 45 33 43 38 41 36 50 33 39
2130.0 33 39 49 37 49 35 39 33 47 39
2170.0 38 46 37 40 38 43 21 31 29 34
2210.0 37 35 31 17 25 15 29 24 31 33
2250.0 33 37 37 51 39 44 34 42 30 38
2290.0 40 44 51 53 61 59 69 55 74 75
2330.0 46 63 58 71 46 65 74 64 58 62
2370.0 53 30 44 46 45 41 45 39 37 40
2410.0 36 44 38 41 41 41 41 44 47 49
2450.0 49 37 48 37 42 40 40 34 42 35
2490.0 36 41 32 39 36 41 28 35 37 32
2530.0 38 41 47 47 48 41 53 50 45 54
2570.0 62 63 55 65 61 75 70 71 70 79
2610.0 78 77 79 72 82 76 89 80 86 89
2650.0 90 95 92 97 95 86 80 88 88 99
2690.0 114 108 121 112 124 131 136 149 160 167
2730.0 174 190 199 214 224 231 232 221 216 204
2770.0 205 204 213 221 232 255 278 306 332 360
2810.0 394 436 480 536 583 648 727 834 965 1105
2850.0 1288 1496 1769 2081 2461 2904 3347 3756 4039 4153
2890.0 4121 3967 3849 3902 4007 4176 4416 4712 5051 5496
2930.0 6044 6624 7131 7423 7498 7473 7488 7780 8480 9348
2970.0 10000 9918 8872 7320 5867 4833 3954 3286 2767 2362
3010.0 2041 1740 1557 1361 1188 1070 962 860 764 725
3050.0 688 674 692 715 771 844 905 969 896 903
3090.0 893 844 846 801 750 637 517 444 387 312
3130.0 268 274 225 217 200 182 190 176 183 149
3170.0 169 163 172 158 169 163 156 149 134 139
3210.0 150 124 99 123 100 100 89 82 117 82
3250.0 80 83 66 66 67 84 56 63 81 97
3290.0 45 76 52 67 38 37 60 36 61 48
3330.0 87 78 82 69 27 52 81 77 36 90
3370.0 96 85 43 63 74 88 87 76 86 67
3410.0 67 61 68 50 56 67 88 86 21 68
3450.0 53 74 43 62 61 90 87 54 53 25
3490.0 63 53 46 90 41 66 48 51 61 65
3530.0 49 55 64 67 94 65 101 40 105 88
3570.0 100 67 63 25 64 165 79 44 105 82
3610.0 189 98 142 110 72 194 54 102 55 75
3650.0 139 63 136 52 85 74 64 95 64 100
3690.0 114 107 110 108 92 61 74 110 72 134
3730.0 90 127 128 124 140 107 98 80 51 82
3770.0 91 61 75 79 42 74 69 73 51 88
3810.0 63 82 68 99 34 86 68 86 60 83
3850.0 59 116 129 80 102 99 80 87 37 146
3890.0 94 174 0 180 128 174 73 111 156 22
3930.0 197 78 155 156 196 94 192 77 200 221
##END=
