##TITLE=Benzene, 2,4-dibromo-1-methoxy-
##JCAMP-DX=4.24
##DATA TYPE=INFRARED SPECTRUM
##ORIGIN=Sadtler Research Labs Under US-EPA Contract
##OWNER=NIST Standard Reference Data Program
##CAS REGISTRY NO=21702-84-1
##MOLFORM=C 7 H 6 Br 2 O
##XUNITS=1/CM
##YUNITS=ABSORBANCE
##XFACTOR=1.0
##YFACTOR=0.000097998
##DELTAX=4.0
##FIRSTX=450.0
##LASTX=3966.0
##FIRSTY=0.025185
##MAXX=3966
##MINX=450
##MAXY=0.97998
##MINY=0
##NPOINTS=880
##XYDATA=(X++(Y..Y))
450.0 257 267 291 318 313 212 153 148 58 62
490.0 199 183 225 311 247 118 134 88 47 167
530.0 334 385 409 390 461 359 262 418 380 347
570.0 276 291 215 116 230 192 228 255 390 519
610.0 831 1246 1673 1517 1026 444 274 270 264 251
650.0 250 223 209 239 422 952 1400 1792 1593 1299
690.0 793 462 426 400 402 372 334 239 287 239
730.0 218 201 295 274 296 227 231 192 212 171
770.0 170 235 368 434 450 646 892 1240 1526 1713
810.0 1718 1426 1025 700 521 352 300 285 280 267
850.0 281 252 315 467 579 803 893 609 462 295
890.0 223 187 194 165 179 217 190 243 264 299
930.0 271 241 231 259 232 211 315 305 268 281
970.0 260 237 288 328 391 397 561 593 698 819
1010.0 930 1164 1306 1402 1314 1190 939 994 1264 2000
1050.0 2836 3705 3625 3215 2267 1483 945 990 1077 1095
1090.0 913 712 637 505 445 225 263 364 354 409
1130.0 468 455 466 458 430 365 342 316 362 358
1170.0 395 397 481 560 511 468 424 420 465 472
1210.0 492 509 530 649 842 1144 1539 2086 2628 3086
1250.0 3353 3685 4156 4476 4413 4032 3869 3921 4224 4131
1290.0 3490 2338 1312 823 578 461 376 305 253 251
1330.0 256 284 300 314 356 349 362 381 449 542
1370.0 735 897 945 824 637 459 373 340 375 419
1410.0 541 694 913 1065 1104 1106 1277 1753 2291 2298
1450.0 1905 1452 1560 2126 3169 4891 7623 10000 9890 6931
1490.0 3507 1608 994 711 601 488 412 379 348 282
1530.0 261 269 290 307 339 405 496 608 678 721
1570.0 768 842 953 953 845 638 420 306 245 229
1610.0 216 212 242 216 237 205 193 193 174 190
1650.0 180 230 175 173 167 174 155 149 160 184
1690.0 171 169 187 186 154 149 152 181 187 200
1730.0 205 252 243 226 191 173 151 146 158 149
1770.0 152 136 119 118 124 134 158 157 163 154
1810.0 141 127 119 123 145 150 159 162 159 179
1850.0 172 165 165 164 170 174 168 162 152 139
1890.0 142 134 142 141 140 142 131 115 120 108
1930.0 115 128 137 133 122 115 110 100 102 117
1970.0 123 121 117 117 108 103 103 104 113 117
2010.0 126 133 134 124 123 128 129 138 149 149
2050.0 158 155 148 148 146 156 166 192 182 181
2090.0 172 154 140 121 115 123 117 117 113 107
2130.0 96 90 79 91 97 104 110 104 98 91
2170.0 82 87 91 97 103 106 101 91 85 75
2210.0 86 88 89 97 95 86 78 72 68 73
2250.0 84 92 99 103 94 94 100 99 115 125
2290.0 141 153 141 135 130 128 120 116 127 128
2330.0 133 122 121 107 97 102 113 156 182 193
2370.0 159 121 107 100 91 92 94 88 89 82
2410.0 66 52 56 56 57 71 70 70 60 55
2450.0 54 54 58 69 74 77 76 70 57 50
2490.0 56 71 74 92 101 106 100 105 113 116
2530.0 119 123 126 120 107 99 81 63 62 66
2570.0 72 67 70 59 50 44 38 41 52 70
2610.0 67 69 64 58 47 52 45 54 69 72
2650.0 66 60 46 42 38 39 45 52 51 46
2690.0 45 42 37 39 46 45 69 71 70 56
2730.0 51 56 45 60 59 78 74 71 68 57
2770.0 53 65 75 92 103 118 119 118 120 121
2810.0 136 146 169 194 212 249 310 411 551 689
2850.0 734 684 555 433 348 285 258 251 253 290
2890.0 328 356 387 416 429 427 441 470 487 489
2930.0 537 641 840 1071 1208 1211 1101 978 902 853
2970.0 753 618 491 406 353 333 337 364 417 511
3010.0 669 830 860 706 464 318 266 228 199 170
3050.0 153 157 169 196 244 291 299 285 256 213
3090.0 185 157 157 146 137 126 106 85 81 87
3130.0 93 109 99 108 98 81 64 64 59 65
3170.0 70 91 86 70 61 56 51 62 72 78
3210.0 89 86 75 59 43 43 51 70 82 85
3250.0 68 54 41 19 33 42 59 76 90 85
3290.0 68 44 50 43 53 74 76 69 68 59
3330.0 53 28 40 54 68 76 83 79 67 42
3370.0 37 55 64 79 89 79 69 50 57 51
3410.0 53 51 76 83 73 70 37 38 38 53
3450.0 67 75 86 87 83 58 37 51 57 67
3490.0 85 85 77 47 40 35 37 59 70 81
3530.0 102 78 68 47 49 54 77 95 101 104
3570.0 99 70 50 56 64 71 88 99 85 73
3610.0 84 53 70 77 91 115 103 103 88 77
3650.0 84 63 78 85 93 104 104 96 75 61
3690.0 78 87 96 117 125 115 107 102 92 90
3730.0 91 140 149 134 147 128 109 107 98 109
3770.0 126 126 133 131 114 101 106 123 132 131
3810.0 145 155 151 128 87 84 93 119 138 154
3850.0 156 170 132 123 114 124 146 169 200 206
3890.0 180 153 129 118 127 117 128 137 134 107
3930.0 99 98 107 133 175 226 0 17 18 18
##END=
