##TITLE=2,4-Dimethylbenzonitrile
##JCAMP-DX=4.24
##DATA TYPE=INFRARED SPECTRUM
##ORIGIN=Sadtler Research Labs Under US-EPA Contract
##OWNER=NIST Standard Reference Data Program
##CAS REGISTRY NO=21789-36-6
##MOLFORM=C 9 H 9 N
##XUNITS=1/CM
##YUNITS=ABSORBANCE
##XFACTOR=1.0
##YFACTOR=0.000079523
##DELTAX=4.0
##FIRSTX=450.0
##LASTX=3966.0
##FIRSTY=0.009781
##MAXX=3966
##MINX=450
##MAXY=0.79523
##MINY=0
##NPOINTS=880
##XYDATA=(X++(Y..Y))
450.0 123 195 292 432 500 622 762 1092 1109 736
490.0 613 437 276 155 162 176 191 177 186 164
530.0 136 149 156 163 214 373 634 1068 1457 1830
570.0 3093 1838 1449 1096 654 340 219 191 230 201
610.0 214 215 182 174 181 138 75 62 60 99
650.0 112 126 114 115 94 102 52 72 54 71
690.0 20 19 11 20 25 51 96 156 218 261
730.0 256 196 164 80 75 100 132 163 152 132
770.0 137 138 144 171 199 246 427 933 1989 3488
810.0 4756 5821 10000 5947 4695 3586 2061 897 349 176
850.0 168 230 258 362 499 624 791 948 625 519
890.0 418 312 238 215 214 199 199 232 282 317
930.0 301 296 252 164 156 214 328 282 275 254
970.0 214 191 189 195 209 220 221 221 223 238
1010.0 269 295 305 312 313 338 399 487 605 671
1050.0 661 616 558 476 401 319 234 178 132 105
1090.0 97 104 136 200 296 400 399 398 391 293
1130.0 198 148 119 112 126 166 232 220 212 208
1170.0 128 87 80 87 101 127 151 162 154 136
1210.0 118 120 162 300 553 871 1083 1186 1149 887
1250.0 538 353 244 188 233 341 457 517 562 577
1290.0 487 376 277 193 136 107 100 99 98 109
1330.0 135 166 210 251 292 333 373 409 442 465
1370.0 495 599 768 988 1169 1220 1172 1032 894 879
1410.0 971 1087 1239 1373 1500 1601 1682 1728 1818 1921
1450.0 2011 2074 2041 2023 1962 1869 1744 1678 1820 2353
1490.0 3216 3973 4289 4238 3617 2663 2048 1822 1737 1682
1530.0 1642 1531 1410 1296 1223 1125 1055 984 935 919
1570.0 878 847 775 709 615 626 776 1218 2204 4009
1610.0 6120 7177 6934 5866 3714 1748 931 647 519 289
1650.0 156 46 57 41 52 42 58 50 76 82
1690.0 121 114 118 109 99 76 63 46 46 53
1730.0 70 85 129 181 237 255 281 316 339 320
1770.0 283 215 116 38 15 10 1 11 11 5
1810.0 0 2 17 46 72 74 74 59 33 7
1850.0 10 13 23 33 38 39 39 43 65 108
1890.0 174 279 389 444 402 426 347 216 141 93
1930.0 60 41 28 23 15 9 5 8 5 4
1970.0 0 0 4 7 9 15 16 22 21 20
2010.0 20 13 14 8 4 0 1 5 8 12
2050.0 12 10 12 18 34 39 46 49 45 42
2090.0 41 42 42 44 46 47 50 54 54 53
2130.0 49 38 36 33 25 24 26 28 35 43
2170.0 55 66 74 76 70 61 61 71 107 183
2210.0 364 743 1402 2319 3326 4015 3952 3295 2213 953
2250.0 303 136 80 58 54 53 46 44 43 34
2290.0 37 36 47 61 81 107 152 161 172 158
2330.0 138 115 110 98 75 49 103 77 70 42
2370.0 35 27 28 32 49 79 103 113 121 123
2410.0 123 125 119 116 111 99 94 87 84 77
2450.0 69 56 51 48 46 51 57 55 58 56
2490.0 52 49 48 52 53 55 57 55 50 43
2530.0 41 36 39 44 49 52 52 52 54 51
2570.0 47 43 37 28 18 11 13 18 28 39
2610.0 53 66 69 71 59 57 49 48 48 57
2650.0 59 55 54 46 42 40 38 40 42 44
2690.0 50 57 64 70 77 79 83 93 104 117
2730.0 129 156 198 238 273 292 277 237 207 175
2770.0 138 120 108 105 110 117 126 144 164 181
2810.0 193 212 228 239 264 289 323 369 431 512
2850.0 625 781 1004 1302 1655 1987 2227 2335 2324 2237
2890.0 2157 2113 2108 2128 2174 2258 2435 2755 3306 4120
2930.0 5038 5704 5891 5634 4983 4137 3318 2800 2512 2380
2970.0 2229 2091 2062 2128 2226 2370 2533 2717 2861 2983
3010.0 3144 3274 3394 3638 3921 4035 4068 4035 3767 3425
3050.0 3106 2775 2439 2041 1748 1644 1599 1534 1427 1275
3090.0 1061 844 694 610 574 577 588 565 515 447
3130.0 361 280 228 193 162 135 109 90 76 74
3170.0 64 59 58 57 48 51 40 41 33 25
3210.0 19 20 16 17 15 13 12 7 3 7
3250.0 5 10 12 14 17 18 17 17 18 19
3290.0 16 17 13 14 15 14 10 16 21 27
3330.0 30 35 49 56 60 54 42 35 26 30
3370.0 24 22 23 24 19 18 27 25 26 30
3410.0 46 51 75 91 108 122 126 126 110 82
3450.0 65 62 57 38 44 40 46 37 37 28
3490.0 16 15 23 19 26 19 22 24 22 36
3530.0 23 27 30 26 30 20 21 24 15 27
3570.0 22 20 19 28 32 42 31 31 23 34
3610.0 27 30 25 30 28 28 31 28 41 20
3650.0 12 20 22 31 23 21 18 17 23 27
3690.0 19 28 31 43 45 45 43 65 87 96
3730.0 90 100 91 75 49 40 43 66 54 62
3770.0 44 52 43 47 45 44 48 44 38 33
3810.0 42 39 38 19 37 36 52 53 72 77
3850.0 93 60 55 55 44 14 31 43 43 31
3890.0 36 41 47 63 58 46 43 53 54 46
3930.0 42 56 38 42 36 51 61 54 67 79
##END=
