##TITLE=p-Cresyl glycidyl ether
##JCAMP-DX=4.24
##DATA TYPE=INFRARED SPECTRUM
##ORIGIN=Sadtler Research Labs Under US-EPA Contract
##OWNER=NIST Standard Reference Data Program
##CAS REGISTRY NO=2186-24-5
##MOLFORM=C 10 H 12 O 2
##XUNITS=1/CM
##YUNITS=ABSORBANCE
##XFACTOR=1.0
##YFACTOR=0.000093524
##DELTAX=4.0
##FIRSTX=450.0
##LASTX=3966.0
##FIRSTY=0.012252
##MAXX=3966
##MINX=450
##MAXY=0.93524
##MINY=0
##NPOINTS=880
##XYDATA=(X++(Y..Y))
450.0 131 118 213 240 200 212 291 349 354 505
490.0 628 590 538 599 557 539 396 360 360 319
530.0 272 269 293 256 238 256 254 236 146 149
570.0 195 192 210 91 59 71 199 90 63 11
610.0 86 31 47 21 9 64 81 112 89 70
650.0 105 89 115 70 56 29 93 63 128 92
690.0 115 140 174 187 229 261 293 313 335 395
730.0 306 299 304 363 355 326 328 343 324 360
770.0 391 494 534 635 705 756 990 1225 1626 1890
810.0 2128 2330 2443 2288 2113 1920 1883 1828 1805 1751
850.0 1643 1488 1282 1019 846 621 486 403 317 402
890.0 374 413 515 556 633 679 744 744 770 654
930.0 611 559 518 481 463 447 473 536 586 651
970.0 702 678 684 687 687 707 777 854 951 1052
1010.0 1280 1488 1739 1978 2310 2802 3249 3591 3706 3561
1050.0 3156 2614 2043 1635 1403 1241 1147 1042 989 927
1090.0 939 893 912 956 973 981 986 961 898 838
1130.0 766 681 595 517 479 493 579 678 833 1208
1170.0 1752 2037 1956 1454 999 837 927 1123 1499 2095
1210.0 2982 4140 5311 6318 6954 7442 7952 8833 9338 8797
1250.0 7130 5037 3746 2974 2529 2300 2298 2442 2680 2747
1290.0 2589 2201 1809 1419 1173 936 819 714 678 675
1330.0 652 646 636 684 755 761 781 769 690 601
1370.0 535 482 515 556 562 568 543 501 528 530
1410.0 548 593 523 538 534 528 472 438 503 533
1450.0 609 773 809 994 1010 1017 899 913 923 907
1490.0 986 1382 2160 3813 6434 9412 10000 8162 4693 2411
1530.0 1339 821 530 273 299 300 268 133 199 308
1570.0 332 407 484 666 798 873 908 933 1069 1290
1610.0 1573 1815 1689 1452 940 652 430 293 298 213
1650.0 112 51 132 135 110 80 42 85 42 5
1690.0 81 85 0 12 77 129 98 23 139 188
1730.0 182 119 173 191 172 148 196 192 184 179
1770.0 113 67 98 68 69 55 22 56 33 72
1810.0 67 66 86 77 66 62 80 93 81 63
1850.0 101 148 167 169 174 150 188 185 157 137
1890.0 117 114 117 112 111 91 95 66 75 94
1930.0 112 110 112 87 96 103 102 94 90 88
1970.0 91 94 100 113 115 98 93 107 104 99
2010.0 99 95 92 94 113 112 112 111 123 119
2050.0 124 128 136 137 136 140 131 147 135 140
2090.0 138 116 97 87 85 89 77 73 77 67
2130.0 75 71 64 46 50 48 44 52 54 37
2170.0 31 33 42 30 40 40 33 36 35 36
2210.0 54 44 54 57 59 57 58 61 72 76
2250.0 69 81 81 89 79 75 72 84 94 106
2290.0 121 147 155 172 186 216 192 175 198 151
2330.0 173 138 105 183 204 255 208 177 113 110
2370.0 90 119 119 132 100 73 65 43 47 47
2410.0 57 47 51 58 56 70 51 64 63 69
2450.0 54 59 71 59 62 53 76 73 64 55
2490.0 54 47 45 41 50 40 61 67 72 69
2530.0 77 75 50 76 51 58 40 38 37 36
2570.0 36 35 29 31 32 33 35 34 17 40
2610.0 22 27 27 27 6 10 17 10 6 8
2650.0 7 15 13 20 24 17 32 34 32 25
2690.0 34 30 18 29 28 30 40 34 40 51
2730.0 56 74 69 140 140 150 121 97 89 75
2770.0 82 63 74 80 75 95 111 125 124 142
2810.0 145 149 162 183 193 232 241 278 289 319
2850.0 371 472 563 707 892 1114 1349 1554 1638 1608
2890.0 1519 1415 1334 1300 1335 1381 1466 1663 1901 2220
2930.0 2612 2867 2874 2564 2139 1775 1557 1408 1320 1269
2970.0 1269 1242 1214 1238 1278 1347 1431 1539 1648 1757
3010.0 1770 1715 1600 1520 1544 1750 1971 2063 1991 1772
3050.0 1600 1561 1462 1309 1177 1034 913 778 611 505
3090.0 431 385 364 342 327 311 256 241 204 183
3130.0 156 133 108 94 75 78 53 44 54 38
3170.0 44 43 43 39 46 52 39 34 35 32
3210.0 12 17 4 5 1 11 24 31 31 40
3250.0 56 15 21 27 21 43 27 37 35 53
3290.0 57 34 48 48 39 47 54 36 25 38
3330.0 42 49 34 50 52 57 30 35 47 52
3370.0 65 63 63 31 66 45 74 66 52 71
3410.0 71 42 58 51 81 56 79 68 52 80
3450.0 46 74 66 76 68 58 63 55 59 76
3490.0 59 28 83 100 91 50 69 64 73 89
3530.0 75 84 83 67 84 98 69 96 66 87
3570.0 70 100 93 145 128 123 162 184 207 220
3610.0 234 223 262 277 296 299 313 300 276 235
3650.0 177 191 207 182 167 167 148 126 157 151
3690.0 121 94 114 137 126 126 113 102 98 107
3730.0 81 78 81 103 83 69 70 102 129 127
3770.0 113 131 118 120 110 131 130 123 114 131
3810.0 138 143 150 122 130 117 121 116 114 119
3850.0 125 94 107 90 99 83 84 85 112 134
3890.0 130 119 121 118 112 119 129 129 124 113
3930.0 109 105 112 127 131 139 133 139 136 118
##END=
