##TITLE=Benzene, octyl-
##JCAMP-DX=4.24
##DATA TYPE=INFRARED SPECTRUM
##ORIGIN=Sadtler Research Labs Under US-EPA Contract
##OWNER=NIST Standard Reference Data Program
##CAS REGISTRY NO=2189-60-8
##MOLFORM=C 14 H 22
##XUNITS=1/CM
##YUNITS=ABSORBANCE
##XFACTOR=1.0
##YFACTOR=0.000152176
##DELTAX=4.0
##FIRSTX=450.0
##LASTX=3966.0
##FIRSTY=0.016739
##MAXX=3966
##MINX=450
##MAXY=1.52176
##MINY=0
##NPOINTS=880
##XYDATA=(X++(Y..Y))
450.0 110 132 169 207 247 276 298 308 358 369
490.0 368 355 378 383 397 390 330 107 16 183
530.0 107 130 272 309 328 343 335 339 347 394
570.0 406 387 358 346 338 341 318 295 287 275
610.0 265 254 256 249 250 251 257 261 262 265
650.0 264 270 289 321 351 444 472 557 673 877
690.0 1257 1776 2081 1845 1399 1143 1056 1210 1230 1202
730.0 1233 1332 1467 1470 1360 1134 888 718 629 566
770.0 502 452 417 387 386 386 381 374 366 356
810.0 351 351 347 351 358 360 362 355 360 358
850.0 350 352 347 346 348 342 338 340 336 334
890.0 333 334 335 350 350 334 305 282 259 239
930.0 242 262 301 326 325 310 293 282 290 321
970.0 379 452 522 595 652 706 729 657 629 709
1010.0 763 785 792 797 837 904 898 778 679 636
1050.0 597 546 556 583 638 689 736 729 702 673
1090.0 651 637 633 621 613 610 597 576 559 559
1130.0 568 547 511 507 524 501 458 443 434 417
1170.0 401 386 371 368 362 355 351 353 352 341
1210.0 321 280 194 97 127 238 280 299 435 578
1250.0 659 702 727 735 734 721 696 674 655 637
1290.0 611 587 562 539 522 516 503 492 477 476
1330.0 487 506 545 579 606 631 639 627 606 598
1370.0 597 595 597 611 612 566 517 488 463 448
1410.0 447 437 459 455 474 485 495 575 824 946
1450.0 1095 1222 1278 1267 1185 1063 900 734 608 594
1490.0 687 918 1060 902 538 336 248 206 186 168
1530.0 169 160 162 156 156 146 145 152 149 157
1570.0 167 183 191 225 258 315 374 439 516 571
1610.0 505 348 234 187 177 159 166 164 165 153
1650.0 161 132 133 119 114 104 114 102 121 117
1690.0 124 125 144 151 173 192 227 246 234 215
1730.0 211 218 218 224 230 225 208 201 196 198
1770.0 220 236 243 247 242 252 259 246 208 167
1810.0 143 128 113 106 97 95 92 89 94 97
1850.0 101 105 114 121 128 132 128 124 114 101
1890.0 92 82 78 76 77 80 84 88 101 108
1930.0 123 141 152 150 145 144 141 121 92 76
1970.0 69 63 66 64 63 65 63 60 58 58
2010.0 60 60 61 63 63 63 62 62 61 60
2050.0 57 57 55 56 56 51 51 50 50 50
2090.0 48 49 47 46 45 47 44 45 45 44
2130.0 43 44 43 45 44 42 44 44 43 43
2170.0 43 43 44 42 43 40 42 40 41 39
2210.0 40 40 40 40 40 38 36 35 34 36
2250.0 34 34 35 33 34 32 30 31 29 30
2290.0 30 28 29 28 30 34 39 37 38 36
2330.0 32 28 19 22 21 16 16 12 15 10
2370.0 8 10 10 12 9 9 9 10 10 7
2410.0 7 8 6 6 5 6 5 4 1 2
2450.0 0 0 0 1 1 0 2 3 4 3
2490.0 3 3 3 5 4 4 7 8 10 11
2530.0 11 12 15 13 13 12 14 15 15 15
2570.0 18 19 18 18 18 20 23 23 26 26
2610.0 26 27 27 28 33 34 34 38 41 40
2650.0 43 43 44 47 48 48 51 56 55 55
2690.0 55 50 43 40 37 31 31 33 32 36
2730.0 39 43 50 54 54 54 52 49 49 51
2770.0 56 57 69 77 91 102 114 128 143 155
2810.0 174 197 225 262 305 357 418 501 628 849
2850.0 1242 1897 2785 3596 3933 3680 3128 2619 2338 2152
2890.0 1958 1830 1882 2105 2451 2897 3486 4333 5589 7295
2930.0 8995 10000 9767 8524 6842 5131 3893 3331 3338 3599
2970.0 3632 3051 2127 1394 994 775 649 579 549 556
3010.0 565 586 648 811 1086 1431 1677 1573 1193 827
3050.0 642 592 635 763 1003 1287 1312 1071 815 723
3090.0 668 590 484 392 335 297 256 197 142 102
3130.0 80 66 54 48 46 47 43 45 45 44
3170.0 39 37 32 29 26 26 21 19 18 18
3210.0 14 14 13 11 12 13 9 11 8 10
3250.0 10 8 8 9 10 8 11 8 9 10
3290.0 8 11 9 7 7 8 7 7 9 7
3330.0 8 8 11 9 10 12 9 8 9 12
3370.0 11 10 14 12 11 11 7 11 10 8
3410.0 10 13 8 10 8 8 7 7 8 11
3450.0 8 4 9 5 6 3 5 1 4 10
3490.0 6 4 0 7 4 3 3 5 3 3
3530.0 0 3 1 2 6 8 4 7 10 13
3570.0 21 33 37 35 23 9 6 8 5 6
3610.0 10 13 15 11 15 13 23 20 20 12
3650.0 16 14 12 16 11 10 14 3 12 11
3690.0 3 8 7 5 9 0 6 7 10 8
3730.0 0 0 3 5 0 0 0 10 0 5
3770.0 2 0 0 0 2 0 0 2 0 0
3810.0 0 1 0 0 1 0 0 0 0 0
3850.0 0 0 2 0 0 0 0 0 0 0
3890.0 0 0 0 0 0 0 0 0 0 0
3930.0 0 0 0 0 0 1 0 0 0 0
##END=
