##TITLE=Phosphine oxide, dimethylhexa-decyl-,
##JCAMP-DX=4.24
##DATA TYPE=INFRARED SPECTRUM
##ORIGIN=Sadtler Research Labs Under US-EPA Contract
##OWNER=NIST Standard Reference Data Program
##CAS REGISTRY NO=2190-97-8
##MOLFORM=C 18 H 39 O P
##XUNITS=1/CM
##YUNITS=ABSORBANCE
##XFACTOR=1.0
##YFACTOR=0.000059106
##DELTAX=4.0
##FIRSTX=450.0
##LASTX=3966.0
##FIRSTY=0.005379
##MAXX=3966
##MINX=450
##MAXY=0.59106
##MINY=0
##NPOINTS=880
##XYDATA=(X++(Y..Y))
450.0 91 58 0 105 63 54 135 118 61 62
490.0 39 73 68 61 57 59 85 82 70 78
530.0 75 100 57 71 74 58 93 113 97 42
570.0 6 33 35 34 25 29 15 41 56 36
610.0 17 50 41 15 51 40 42 33 25 23
650.0 31 30 60 72 83 101 85 102 130 133
690.0 187 246 319 352 414 455 518 623 748 831
730.0 856 848 742 649 529 435 369 327 298 278
770.0 270 258 238 230 193 177 173 180 202 215
810.0 237 242 250 270 274 298 337 402 507 676
850.0 828 910 900 815 721 617 547 510 498 500
890.0 529 533 541 521 534 560 635 782 1069 1508
930.0 1849 1691 1248 853 576 420 318 254 212 185
970.0 143 130 123 116 110 105 85 91 97 102
1010.0 105 122 133 129 123 129 126 129 132 142
1050.0 178 213 163 115 134 144 157 157 167 180
1090.0 184 184 187 191 200 203 207 228 232 221
1130.0 227 247 283 311 345 391 444 512 611 744
1170.0 903 1071 1239 1398 1552 1709 1858 1918 1861 1691
1210.0 1507 1398 1369 1358 1283 1114 917 721 559 437
1250.0 357 312 301 304 306 346 413 533 742 1138
1290.0 1370 1319 1349 1258 950 688 508 403 325 283
1330.0 254 256 273 288 310 326 323 300 296 275
1370.0 261 249 255 241 213 201 202 226 259 308
1410.0 365 418 456 459 451 421 419 446 522 605
1450.0 730 851 979 1010 904 653 401 247 161 110
1490.0 86 53 43 31 30 21 18 12 14 11
1530.0 16 22 20 27 31 31 26 25 23 29
1570.0 29 25 25 26 22 26 25 23 22 21
1610.0 17 16 17 20 16 14 13 15 16 9
1650.0 12 2 10 11 10 12 15 17 18 17
1690.0 21 23 24 26 27 29 30 33 36 39
1730.0 45 55 63 68 56 42 37 37 44 45
1770.0 48 43 45 44 43 38 43 42 44 41
1810.0 32 32 32 31 33 30 25 26 25 26
1850.0 24 22 19 25 25 22 25 27 22 25
1890.0 25 23 26 26 26 28 26 27 26 31
1930.0 28 31 29 32 32 35 34 32 32 34
1970.0 29 31 31 31 31 33 34 31 37 37
2010.0 38 44 43 46 41 41 39 39 35 34
2050.0 36 36 32 32 30 32 34 30 30 30
2090.0 27 22 27 26 25 26 28 25 26 28
2130.0 32 27 29 25 28 27 25 31 24 23
2170.0 28 25 25 21 23 26 26 26 26 24
2210.0 22 22 24 22 23 19 21 23 21 21
2250.0 19 16 18 19 17 19 18 19 23 24
2290.0 21 27 29 32 32 36 26 31 29 29
2330.0 28 28 29 30 23 39 35 32 11 9
2370.0 13 18 24 25 19 15 10 12 13 7
2410.0 10 12 6 6 4 6 3 5 3 3
2450.0 4 2 6 11 7 9 9 5 5 6
2490.0 5 8 11 8 11 16 15 17 22 20
2530.0 24 24 27 25 29 26 27 25 33 36
2570.0 37 39 36 39 41 46 50 47 47 52
2610.0 58 54 55 62 58 64 65 71 71 77
2650.0 77 83 86 87 91 100 103 107 107 106
2690.0 100 95 89 83 78 81 82 82 78 77
2730.0 77 80 78 75 79 78 84 93 97 99
2770.0 104 120 136 149 171 195 220 245 284 320
2810.0 361 409 459 523 601 712 866 1117 1525 2179
2850.0 3092 3956 4317 4137 3636 3065 2616 2295 2149 2176
2890.0 2334 2617 2998 3438 3956 4631 5556 6776 8203 9485
2930.0 10000 9476 8068 6376 4870 3760 3050 2638 2352 2080
2970.0 1786 1465 1190 1014 878 765 641 512 401 326
3010.0 270 230 201 175 157 146 133 117 110 99
3050.0 91 84 81 84 76 79 81 73 72 73
3090.0 69 75 76 76 78 78 79 83 84 81
3130.0 80 79 74 75 69 70 63 67 62 60
3170.0 61 59 56 55 46 41 44 42 42 38
3210.0 40 36 28 36 37 28 25 26 26 22
3250.0 28 23 24 26 21 23 26 20 22 21
3290.0 20 19 14 14 11 17 13 15 16 24
3330.0 18 20 23 24 18 16 20 14 10 15
3370.0 16 17 18 22 14 22 20 15 16 10
3410.0 10 14 22 13 12 13 16 8 16 15
3450.0 13 14 4 7 14 19 14 11 6 7
3490.0 11 6 6 12 7 4 15 18 11 18
3530.0 2 13 14 16 5 6 8 12 6 6
3570.0 17 14 16 12 14 21 14 23 26 24
3610.0 29 16 20 15 21 23 25 17 9 16
3650.0 6 11 19 16 23 11 20 22 19 18
3690.0 13 26 35 20 19 14 17 27 23 31
3730.0 21 35 41 26 20 17 11 20 9 15
3770.0 25 12 17 16 10 22 22 7 14 11
3810.0 7 17 4 21 14 13 21 23 10 9
3850.0 26 21 27 27 17 3 9 23 4 19
3890.0 10 2 1 20 8 35 19 19 37 3
3930.0 11 13 10 2 14 13 2 17 29 29
##END=
