##TITLE=Phosphine oxide, dimethyltetra-decyl
##JCAMP-DX=4.24
##DATA TYPE=INFRARED SPECTRUM
##ORIGIN=Sadtler Research Labs Under US-EPA Contract
##OWNER=NIST Standard Reference Data Program
##CAS REGISTRY NO=2190-96-7
##MOLFORM=C 16 H 35 O P
##XUNITS=1/CM
##YUNITS=ABSORBANCE
##XFACTOR=1.0
##YFACTOR=0.000044440
##DELTAX=4.0
##FIRSTX=450.0
##LASTX=3966.0
##FIRSTY=0.005955
##MAXX=3966
##MINX=450
##MAXY=0.4444
##MINY=0
##NPOINTS=880
##XYDATA=(X++(Y..Y))
450.0 134 53 138 193 175 117 97 128 80 126
490.0 82 89 105 100 85 97 63 106 135 143
530.0 123 138 98 116 103 126 152 97 148 90
570.0 74 94 88 94 103 114 75 118 77 86
610.0 99 137 90 67 101 103 78 100 83 88
650.0 74 87 77 122 140 152 136 134 152 193
690.0 253 307 403 452 477 502 608 726 863 965
730.0 939 835 769 649 540 466 431 378 338 320
770.0 323 315 286 276 241 225 212 226 228 240
810.0 243 262 280 293 279 336 391 477 572 748
850.0 884 932 897 830 775 685 608 578 567 569
890.0 592 586 581 562 573 618 705 885 1252 1766
930.0 2094 1803 1254 830 596 460 379 333 300 268
970.0 247 233 214 192 186 181 164 174 182 183
1010.0 190 208 220 216 208 212 187 165 157 163
1050.0 184 229 214 170 163 174 184 183 185 191
1090.0 188 181 180 189 190 187 201 216 212 192
1130.0 198 225 244 276 297 336 366 423 466 542
1170.0 617 701 789 863 959 1060 1181 1296 1385 1461
1210.0 1596 1785 2010 2174 2132 1884 1539 1195 918 707
1250.0 565 471 407 388 392 417 484 595 792 1117
1290.0 1375 1423 1444 1388 1118 849 639 512 413 351
1330.0 319 296 316 325 335 350 356 324 309 285
1370.0 271 258 257 247 243 216 210 224 253 291
1410.0 344 392 436 442 437 410 407 420 472 533
1450.0 639 751 869 905 834 667 465 325 226 168
1490.0 141 110 102 75 77 71 58 50 54 47
1530.0 45 37 45 31 47 35 37 32 37 30
1570.0 36 24 33 28 27 25 28 22 19 21
1610.0 12 19 11 9 10 11 14 17 8 17
1650.0 12 14 11 0 6 16 11 23 15 26
1690.0 20 24 23 34 31 29 42 45 49 62
1730.0 78 91 109 90 56 21 25 28 56 65
1770.0 75 72 67 73 66 61 63 60 55 65
1810.0 58 53 53 49 45 41 42 43 39 43
1850.0 42 34 37 35 38 43 40 37 39 37
1890.0 39 37 35 41 40 45 46 50 48 48
1930.0 49 49 49 54 53 49 50 54 51 55
1970.0 52 51 52 56 53 56 62 56 53 58
2010.0 69 65 69 68 69 62 63 63 66 65
2050.0 59 59 54 63 60 63 60 62 64 58
2090.0 54 58 58 58 59 64 61 56 58 62
2130.0 55 65 61 56 55 58 59 61 58 60
2170.0 56 54 61 60 56 56 61 64 59 58
2210.0 53 52 59 55 56 51 56 59 52 52
2250.0 54 62 61 55 56 60 59 62 69 71
2290.0 82 86 96 95 99 102 89 81 85 71
2330.0 74 70 70 52 101 73 88 78 58 64
2370.0 72 77 100 96 88 80 65 65 74 70
2410.0 69 69 67 74 70 69 70 70 67 67
2450.0 70 67 67 67 71 69 73 75 72 74
2490.0 72 76 77 80 77 80 84 83 89 88
2530.0 91 89 94 95 95 93 95 96 94 99
2570.0 104 106 105 112 108 108 117 110 119 124
2610.0 118 122 123 129 128 137 135 136 147 145
2650.0 153 149 149 157 166 166 171 176 184 178
2690.0 181 181 181 178 180 182 177 182 181 185
2730.0 190 186 189 199 195 195 197 204 217 213
2770.0 219 224 238 259 278 289 318 348 366 400
2810.0 429 472 498 545 599 672 771 923 1165 1551
2850.0 2144 2892 3590 3992 3852 3367 2834 2424 2209 2115
2890.0 2121 2262 2537 2904 3333 3868 4589 5581 6906 8505
2930.0 9795 10000 8985 7358 5708 4378 3448 2914 2652 2495
2970.0 2289 1937 1536 1282 1141 1069 957 789 627 513
3010.0 431 383 351 315 288 269 256 242 228 215
3050.0 206 198 195 186 178 176 173 165 157 164
3090.0 157 148 150 138 141 137 137 131 125 122
3130.0 117 117 119 113 118 118 120 121 117 102
3170.0 102 108 113 98 105 95 99 97 91 96
3210.0 86 81 86 77 80 70 71 74 81 76
3250.0 75 63 72 76 81 66 71 75 65 68
3290.0 65 69 65 56 66 70 74 71 59 66
3330.0 68 55 78 75 69 66 73 68 69 66
3370.0 66 80 71 66 70 74 76 81 70 78
3410.0 68 71 69 62 75 76 74 75 68 73
3450.0 72 75 73 71 76 73 70 60 70 70
3490.0 71 59 52 62 63 75 75 72 73 70
3530.0 69 63 76 67 73 71 65 73 71 79
3570.0 87 74 92 81 75 94 75 81 72 97
3610.0 97 85 80 79 93 99 91 83 86 101
3650.0 88 81 72 90 100 95 94 90 99 80
3690.0 101 86 102 115 94 77 85 97 79 89
3730.0 107 105 109 68 110 70 111 107 88 83
3770.0 91 78 67 72 92 84 73 67 56 105
3810.0 88 79 79 85 111 88 100 83 84 81
3850.0 106 82 89 86 59 83 92 102 75 80
3890.0 70 84 53 86 88 88 96 83 122 114
3930.0 90 73 115 101 86 107 95 106 113 86
##END=
