##TITLE=Acetamide, N-(2,6-dimethylphenyl)-
##JCAMP-DX=4.24
##DATA TYPE=INFRARED SPECTRUM
##ORIGIN=Sadtler Research Labs Under US-EPA Contract
##OWNER=NIST Standard Reference Data Program
##CAS REGISTRY NO=2198-53-0
##MOLFORM=C 10 H 13 N O
##XUNITS=1/CM
##YUNITS=ABSORBANCE
##XFACTOR=1.0
##YFACTOR=0.000123370
##DELTAX=4.0
##FIRSTX=450.0
##LASTX=3966.0
##FIRSTY=0.044167
##MAXX=3966
##MINX=450
##MAXY=1.2337
##MINY=0
##NPOINTS=880
##XYDATA=(X++(Y..Y))
450.0 358 315 328 398 417 441 412 402 390 320
490.0 314 302 334 427 557 569 568 447 293 234
530.0 209 227 278 330 315 230 165 104 36 23
570.0 11 26 34 54 82 138 215 290 363 431
610.0 445 457 431 382 306 224 160 112 75 63
650.0 65 57 49 39 43 20 18 10 14 57
690.0 77 81 102 91 43 21 22 1 9 3
730.0 9 0 27 63 133 289 636 1072 1539 2214
770.0 2067 1456 1029 558 285 164 139 145 148 162
810.0 143 139 115 107 106 103 95 91 79 63
850.0 49 35 30 20 20 21 22 31 31 42
890.0 49 65 83 112 142 172 177 178 161 141
930.0 119 106 108 104 115 132 155 179 200 227
970.0 255 287 331 389 441 473 472 451 406 365
1010.0 330 299 283 272 285 299 319 325 316 296
1050.0 274 255 240 232 222 212 199 196 202 243
1090.0 332 427 463 440 358 245 161 115 91 78
1130.0 68 60 62 66 69 81 94 116 134 143
1170.0 145 146 136 146 172 209 274 378 551 794
1210.0 1097 1469 1945 2515 3056 3321 3164 2637 1907 1276
1250.0 974 953 1059 1170 1238 1239 1162 1123 1173 1306
1290.0 1522 1804 2148 2491 2702 2665 2346 1853 1313 897
1330.0 638 510 477 470 511 636 875 1253 1716 2135
1370.0 2423 2486 2309 2042 1801 1563 1374 1226 1086 1009
1410.0 989 1025 1176 1324 1545 1800 2130 2472 2854 3229
1450.0 3616 3959 4346 4645 4911 5099 5127 4942 4477 3894
1490.0 3180 2474 1908 1473 1216 1038 885 806 762 699
1530.0 677 647 636 627 574 515 488 492 443 401
1570.0 385 367 356 360 367 410 432 456 434 407
1610.0 351 294 268 228 229 205 237 267 301 356
1650.0 436 458 454 446 464 499 567 626 756 931
1690.0 1146 1542 2139 2948 3971 5491 7458 9259 10000 9976
1730.0 8220 5684 3821 2603 1722 1169 831 651 578 540
1770.0 548 524 478 432 381 335 303 267 240 200
1810.0 175 152 121 114 104 109 104 107 129 143
1850.0 135 116 105 85 75 74 55 53 53 54
1890.0 55 51 44 45 50 61 70 86 102 102
1930.0 99 88 70 55 36 23 19 16 13 17
1970.0 15 11 11 9 7 13 8 6 5 6
2010.0 6 8 10 9 8 7 6 8 11 11
2050.0 10 10 13 17 17 15 13 14 10 9
2090.0 9 7 7 5 7 6 8 6 4 2
2130.0 4 3 0 0 2 4 5 7 7 11
2170.0 12 14 13 14 13 10 9 10 9 6
2210.0 6 3 3 3 2 1 1 1 1 1
2250.0 0 0 1 5 7 4 5 7 8 7
2290.0 7 9 12 9 9 9 6 7 5 12
2330.0 9 22 21 22 24 12 5 8 7 9
2370.0 22 24 24 21 19 20 18 19 21 20
2410.0 20 20 18 17 12 10 10 8 8 10
2450.0 10 8 9 6 6 6 6 6 7 6
2490.0 5 4 3 8 5 5 7 4 4 5
2530.0 7 5 5 3 5 3 6 5 7 4
2570.0 3 5 7 7 4 7 8 8 9 9
2610.0 4 3 7 7 8 10 15 15 17 18
2650.0 19 21 22 23 24 24 25 26 27 27
2690.0 27 28 29 30 30 29 29 29 34 39
2730.0 51 72 96 111 110 96 76 58 45 39
2770.0 36 34 33 31 35 36 42 47 52 61
2810.0 68 78 91 104 117 133 145 163 189 222
2850.0 264 323 394 475 551 602 625 617 591 556
2890.0 525 511 516 539 585 659 757 898 1082 1291
2930.0 1483 1590 1586 1480 1310 1153 1049 993 967 954
2970.0 957 974 1004 1005 964 883 772 656 575 538
3010.0 542 589 668 762 851 924 973 1002 1030 1063
3050.0 1102 1133 1142 1128 1089 1034 958 859 744 620
3090.0 496 389 301 230 182 145 121 104 89 77
3130.0 69 62 59 51 48 42 39 41 39 35
3170.0 34 33 35 34 34 31 31 27 24 17
3210.0 16 15 16 14 14 14 13 14 12 13
3250.0 12 15 17 17 20 20 16 19 20 18
3290.0 20 18 20 23 22 23 25 28 23 28
3330.0 31 33 35 38 43 48 50 58 55 59
3370.0 59 60 67 77 98 129 174 230 291 348
3410.0 383 385 354 301 252 228 229 254 302 363
3450.0 418 450 446 371 269 186 122 83 61 50
3490.0 48 47 41 31 28 30 25 21 18 17
3530.0 11 8 10 13 8 8 12 11 13 19
3570.0 14 17 20 17 9 15 18 15 19 14
3610.0 14 10 8 8 5 10 8 6 9 4
3650.0 4 5 2 7 2 4 3 0 0 1
3690.0 8 4 3 9 10 4 1 3 9 9
3730.0 8 7 12 9 11 1 5 10 8 7
3770.0 9 11 6 8 5 4 4 9 4 7
3810.0 7 10 14 13 11 9 12 7 13 10
3850.0 6 9 14 15 17 16 13 25 14 15
3890.0 14 13 13 17 14 16 14 13 18 10
3930.0 17 11 11 14 13 14 16 13 16 25
##END=
