##TITLE=1-Phenyl-1-cyclohexanecarbonitrile
##JCAMP-DX=4.24
##DATA TYPE=INFRARED SPECTRUM
##ORIGIN=Sadtler Research Labs Under US-EPA Contract
##OWNER=NIST Standard Reference Data Program
##CAS REGISTRY NO=2201-23-2
##MOLFORM=C 13 H 15 N
##XUNITS=1/CM
##YUNITS=ABSORBANCE
##XFACTOR=1.0
##YFACTOR=0.000166995
##DELTAX=4.0
##FIRSTX=450.0
##LASTX=3966.0
##FIRSTY=0.006179
##MAXX=3966
##MINX=450
##MAXY=1.66995
##MINY=0
##NPOINTS=880
##XYDATA=(X++(Y..Y))
450.0 37 121 120 83 97 68 0 14 18 55
490.0 68 80 99 132 176 248 286 337 362 320
530.0 294 256 224 216 195 168 145 118 93 75
570.0 79 93 81 96 96 81 66 40 53 38
610.0 38 39 41 38 38 50 87 139 151 153
650.0 127 118 140 209 266 417 524 621 803 1083
690.0 1467 1825 1894 1547 1214 881 635 507 398 350
730.0 362 435 569 827 1127 1441 1564 1337 978 659
770.0 435 308 226 164 115 77 55 55 48 48
810.0 41 45 48 42 67 99 165 196 183 142
850.0 75 50 44 46 41 52 58 71 99 145
890.0 208 270 279 256 216 152 113 97 92 102
930.0 125 149 180 185 169 157 134 113 92 65
970.0 54 45 42 41 51 62 83 132 256 438
1010.0 561 564 452 293 244 274 283 264 212 158
1050.0 121 105 96 99 108 121 139 144 138 122
1090.0 103 88 84 88 95 90 79 71 65 65
1130.0 73 88 114 143 165 178 170 138 96 76
1170.0 67 64 71 92 123 142 148 146 147 158
1210.0 155 137 107 89 83 75 67 66 61 61
1250.0 72 90 128 176 219 235 228 193 155 133
1290.0 119 110 102 93 87 83 84 85 95 111
1330.0 135 158 174 189 209 251 300 317 287 225
1370.0 155 110 89 75 65 56 48 49 49 55
1410.0 63 80 103 132 171 228 327 487 785 1131
1450.0 1473 1679 1557 1286 952 653 498 402 424 525
1490.0 688 840 914 887 738 518 327 177 106 77
1530.0 64 56 52 40 36 33 34 37 39 46
1570.0 58 75 106 148 206 288 395 496 521 448
1610.0 302 167 100 70 55 47 40 41 41 42
1650.0 45 44 47 42 47 46 41 32 29 27
1690.0 25 26 28 27 28 29 32 39 44 47
1730.0 50 54 54 56 58 56 58 50 44 38
1770.0 41 46 56 72 97 131 160 160 133 93
1810.0 61 47 38 32 24 24 22 24 24 31
1850.0 39 49 55 54 61 69 76 82 78 69
1890.0 64 59 55 45 32 23 24 29 32 37
1930.0 49 62 84 97 105 103 104 104 101 82
1970.0 54 29 17 15 14 12 11 9 6 6
2010.0 4 2 3 1 4 4 2 3 1 0
2050.0 2 3 2 4 4 4 3 5 5 7
2090.0 5 6 6 6 6 5 3 4 4 4
2130.0 4 4 2 4 4 4 2 4 5 5
2170.0 6 5 9 10 7 8 8 10 13 17
2210.0 22 28 35 45 59 76 87 91 83 68
2250.0 50 36 27 21 14 13 10 11 10 13
2290.0 11 12 14 12 10 11 15 18 21 20
2330.0 22 18 20 22 30 35 38 34 31 32
2370.0 29 33 36 35 28 25 22 18 19 17
2410.0 19 21 21 17 16 13 9 6 6 2
2450.0 3 1 2 3 3 5 6 7 13 17
2490.0 17 17 16 16 15 12 11 11 12 9
2530.0 10 8 8 6 3 3 4 1 2 0
2570.0 3 3 4 9 14 16 21 24 27 30
2610.0 34 36 37 38 40 36 38 39 44 45
2650.0 51 55 58 62 68 75 81 81 73 68
2690.0 58 50 41 36 31 29 28 26 22 21
2730.0 23 24 25 25 27 28 32 34 36 42
2770.0 46 52 60 67 77 83 93 104 109 114
2810.0 114 117 118 127 131 143 151 163 200 265
2850.0 419 727 1272 1851 2218 2384 2264 2006 1642 1249
2890.0 961 798 777 814 876 948 998 1045 1188 1582
2930.0 2351 3520 5259 7713 9704 10000 8653 5962 3485 1925
2970.0 1057 604 382 272 210 175 156 147 146 152
3010.0 170 199 243 308 397 520 669 805 858 817
3050.0 711 625 660 818 1068 1353 1434 1305 1021 736
3090.0 625 612 575 523 442 371 302 244 180 123
3130.0 86 58 48 40 34 34 33 37 41 40
3170.0 44 44 40 40 38 39 36 41 38 37
3210.0 34 29 23 19 17 15 12 10 7 7
3250.0 9 7 8 9 8 10 7 5 11 6
3290.0 5 7 8 8 8 5 4 5 7 7
3330.0 4 7 13 14 11 15 16 16 12 12
3370.0 10 13 14 17 13 14 14 7 10 10
3410.0 8 3 7 10 12 10 14 14 16 13
3450.0 14 12 18 18 18 20 14 15 13 16
3490.0 13 4 5 9 8 7 4 9 6 7
3530.0 10 7 6 7 0 3 6 2 2 7
3570.0 7 7 9 13 11 15 10 4 5 8
3610.0 6 4 8 3 1 9 11 0 9 11
3650.0 16 16 11 15 10 14 11 12 10 15
3690.0 19 14 17 17 14 19 25 23 20 25
3730.0 21 25 24 18 22 17 22 13 17 21
3770.0 14 10 12 19 16 11 12 6 2 10
3810.0 10 15 7 11 7 13 11 10 11 15
3850.0 15 15 8 14 13 19 14 21 22 18
3890.0 13 12 15 17 9 17 8 11 16 9
3930.0 14 10 12 16 23 23 31 30 29 31
##END=
