##TITLE=Cyclohexylamine, N,N-dimethyl-1-phenyl-,
##JCAMP-DX=4.24
##DATA TYPE=INFRARED SPECTRUM
##ORIGIN=Sadtler Research Labs Under US-EPA Contract
##OWNER=NIST Standard Reference Data Program
##CAS REGISTRY NO=2201-17-4
##MOLFORM=C 14 H 21 N
##XUNITS=1/CM
##YUNITS=ABSORBANCE
##XFACTOR=1.0
##YFACTOR=0.000108502
##DELTAX=4.0
##FIRSTX=450.0
##LASTX=3966.0
##FIRSTY=0.008138
##MAXX=3966
##MINX=450
##MAXY=1.08502
##MINY=0
##NPOINTS=880
##XYDATA=(X++(Y..Y))
450.0 75 125 42 83 36 120 43 117 18 55
490.0 44 71 38 36 75 53 91 105 146 122
530.0 158 178 207 226 275 392 430 354 305 234
570.0 75 117 156 155 140 94 74 34 42 21
610.0 38 31 67 58 67 53 35 41 42 76
650.0 76 113 133 213 233 313 327 345 449 583
690.0 941 1420 2050 2223 1885 1238 674 372 286 267
730.0 233 272 315 450 561 1376 1367 1317 967 588
770.0 333 189 138 111 101 117 160 192 210 178
810.0 112 79 55 66 81 124 189 245 239 192
850.0 106 62 68 65 86 112 162 185 200 206
890.0 211 237 298 368 409 393 341 298 264 218
930.0 170 146 133 123 125 138 171 233 345 533
970.0 779 1003 1129 1118 1011 847 679 538 443 435
1010.0 466 482 460 440 469 584 734 868 974 1006
1050.0 967 856 723 572 434 347 300 292 299 313
1090.0 301 294 268 237 215 199 185 177 180 202
1130.0 246 301 360 415 449 449 412 380 380 414
1170.0 448 473 501 492 469 460 466 447 390 290
1210.0 210 182 187 222 269 326 374 412 427 412
1250.0 379 355 364 407 444 457 461 487 531 560
1290.0 556 520 461 395 320 245 195 175 164 164
1330.0 172 200 244 317 392 452 452 392 304 232
1370.0 186 164 139 134 126 125 119 124 130 152
1410.0 164 179 193 206 246 330 470 637 872 1117
1450.0 1387 1616 1658 1543 1356 1160 1008 866 745 683
1490.0 701 724 672 523 343 215 160 128 114 102
1530.0 100 102 103 93 86 71 65 55 61 55
1570.0 66 81 109 134 167 212 259 295 283 233
1610.0 159 104 77 62 62 56 61 58 61 61
1650.0 68 70 74 71 77 82 92 107 135 162
1690.0 168 158 133 108 96 92 86 82 79 75
1730.0 73 70 59 57 59 54 57 54 52 47
1770.0 53 57 60 65 78 95 120 130 124 103
1810.0 80 64 51 44 36 31 27 30 30 36
1850.0 39 43 45 50 53 60 63 65 64 61
1890.0 56 52 46 37 31 24 22 22 26 35
1930.0 51 72 91 101 99 94 87 71 48 24
1970.0 12 8 9 5 7 3 1 0 0 1
2010.0 2 0 3 5 4 7 6 6 6 6
2050.0 6 7 7 7 11 12 7 6 9 11
2090.0 6 8 9 5 7 7 6 7 9 8
2130.0 7 9 7 6 6 2 6 3 4 6
2170.0 6 6 8 6 7 8 10 9 9 11
2210.0 13 12 11 9 10 11 13 11 13 11
2250.0 14 14 13 11 11 13 14 14 17 17
2290.0 14 16 13 11 12 18 16 13 12 0
2330.0 0 0 0 1 12 0 1 4 0 0
2370.0 11 17 26 32 29 26 28 24 23 22
2410.0 21 24 22 21 23 22 20 21 21 20
2450.0 18 21 19 22 26 25 27 29 35 35
2490.0 40 42 41 44 43 44 40 36 39 37
2530.0 37 38 38 35 35 37 35 35 36 39
2570.0 44 51 54 61 62 64 63 64 66 71
2610.0 71 72 73 77 80 77 82 82 88 91
2650.0 97 102 108 121 135 146 152 146 141 141
2690.0 146 147 149 160 162 171 176 181 180 183
2730.0 190 196 210 223 245 270 306 347 400 472
2770.0 576 750 1053 1486 1961 2271 2216 1862 1439 1113
2810.0 943 901 1008 1260 1599 1843 1860 1661 1448 1351
2850.0 1462 1836 2458 3122 3546 3652 3396 2975 2519 2129
2890.0 1851 1713 1700 1765 1880 2083 2428 2981 3806 4919
2930.0 6417 7925 9221 10000 9709 8516 6852 5253 3951 3024
2970.0 2329 1837 1548 1485 1594 1743 1754 1528 1164 855
3010.0 667 605 625 679 755 832 911 949 909 824
3050.0 748 787 976 1249 1431 1421 1222 961 810 810
3090.0 884 896 787 612 465 357 275 219 166 133
3130.0 110 98 89 85 86 85 84 84 73 70
3170.0 65 52 56 55 50 44 49 47 43 46
3210.0 42 43 45 41 41 41 39 37 32 32
3250.0 31 28 30 26 25 24 23 24 27 25
3290.0 27 27 28 29 21 29 27 26 21 16
3330.0 23 25 20 28 21 23 23 25 20 21
3370.0 25 20 22 24 23 27 25 24 33 27
3410.0 28 26 30 28 33 29 28 26 27 29
3450.0 35 35 33 29 30 25 29 27 26 30
3490.0 16 20 19 27 23 18 21 19 22 20
3530.0 15 12 13 20 22 22 13 23 20 24
3570.0 29 23 24 28 25 14 22 7 20 9
3610.0 21 23 27 22 17 27 24 20 23 22
3650.0 33 28 31 30 23 22 23 30 24 29
3690.0 23 16 29 37 25 29 38 36 30 33
3730.0 22 29 35 26 41 33 35 20 37 33
3770.0 26 31 25 23 30 23 27 19 27 37
3810.0 23 21 20 29 30 22 29 26 20 21
3850.0 31 22 35 37 33 26 30 33 38 32
3890.0 24 26 34 28 19 34 28 26 30 28
3930.0 25 16 33 37 37 15 30 30 58 22
##END=
