##TITLE=6-Tridecanone
##JCAMP-DX=4.24
##DATA TYPE=INFRARED SPECTRUM
##ORIGIN=Sadtler Research Labs Under US-EPA Contract
##OWNER=NIST Standard Reference Data Program
##CAS REGISTRY NO=22026-12-6
##MOLFORM=C 13 H 26 O
##XUNITS=1/CM
##YUNITS=ABSORBANCE
##XFACTOR=1.0
##YFACTOR=0.000101617
##DELTAX=4.0
##FIRSTX=450.0
##LASTX=3966.0
##FIRSTY=0.014531
##MAXX=3966
##MINX=450
##MAXY=1.01617
##MINY=0
##NPOINTS=880
##XYDATA=(X++(Y..Y))
450.0 143 79 100 111 26 111 126 103 122 120
490.0 46 66 93 11 151 118 110 91 91 82
530.0 152 112 163 138 95 85 80 101 111 112
570.0 97 71 40 105 112 64 111 19 41 45
610.0 70 140 78 96 162 96 84 110 96 79
650.0 58 61 82 74 39 176 48 2 39 117
690.0 71 56 125 194 164 178 211 211 266 310
730.0 244 210 237 186 111 145 221 153 159 204
770.0 134 187 115 78 163 100 130 112 94 81
810.0 96 81 137 73 111 106 116 103 81 103
850.0 70 132 152 119 88 119 107 125 129 110
890.0 150 123 123 136 125 156 164 138 163 174
930.0 180 172 190 183 162 187 190 194 215 229
970.0 235 235 240 247 256 260 274 291 322 355
1010.0 353 364 372 353 345 339 355 367 413 488
1050.0 536 609 647 691 675 664 585 551 458 409
1090.0 387 365 334 346 386 402 422 526 576 676
1130.0 740 774 774 743 670 606 571 535 468 418
1170.0 403 407 393 398 419 455 452 468 499 513
1210.0 514 491 498 460 440 412 394 412 404 400
1250.0 392 386 398 399 424 432 443 446 439 469
1290.0 498 545 561 567 566 534 537 529 517 532
1330.0 550 614 713 801 900 993 1082 1152 1179 1171
1370.0 1067 959 853 775 710 589 496 454 414 464
1410.0 535 587 668 639 626 624 637 662 728 799
1450.0 955 1068 1222 1304 1286 1171 964 723 513 406
1490.0 269 249 181 163 169 144 124 119 123 105
1530.0 98 80 105 57 65 61 65 63 63 33
1570.0 57 51 63 42 39 57 45 63 44 44
1610.0 51 49 50 57 70 59 62 65 74 68
1650.0 78 84 87 108 108 138 160 188 225 264
1690.0 312 351 473 589 807 1214 1657 2662 3393 3850
1730.0 4061 3026 2125 1344 821 612 427 351 287 250
1770.0 233 211 193 171 159 140 116 99 82 75
1810.0 61 55 47 40 42 27 27 19 28 23
1850.0 19 23 22 16 22 20 19 16 12 12
1890.0 15 19 14 11 18 8 19 13 13 7
1930.0 6 10 5 4 4 12 8 3 6 3
1970.0 7 11 6 3 2 6 8 6 3 7
2010.0 6 10 9 9 10 18 10 15 12 12
2050.0 12 11 11 10 13 10 8 9 2 6
2090.0 6 4 4 5 3 6 5 3 6 5
2130.0 3 6 9 5 8 6 7 11 5 11
2170.0 11 13 12 4 9 7 8 6 4 6
2210.0 6 5 3 4 2 3 3 8 5 8
2250.0 7 8 7 8 11 12 12 12 14 18
2290.0 16 18 20 16 19 23 18 16 12 7
2330.0 7 2 3 2 3 12 9 12 4 10
2370.0 11 3 16 16 13 12 9 8 11 13
2410.0 10 11 11 11 10 5 4 9 8 8
2450.0 9 6 6 6 6 5 7 5 6 7
2490.0 7 6 6 4 6 8 6 9 13 14
2530.0 15 15 19 19 18 18 21 20 23 21
2570.0 26 28 30 34 35 34 32 34 33 36
2610.0 38 40 45 43 52 55 55 55 59 63
2650.0 70 74 76 83 88 92 99 104 100 104
2690.0 100 96 96 93 86 86 90 97 96 99
2730.0 108 118 126 139 144 139 135 138 132 134
2770.0 135 142 154 168 185 204 230 257 283 313
2810.0 352 386 417 455 503 568 643 744 898 1127
2850.0 1481 2023 2771 3563 4085 4228 4089 3859 3774 3726
2890.0 3541 3337 3312 3460 3725 4134 4696 5418 6471 7722
2930.0 9032 9925 10000 9548 8689 7624 6870 6548 6769 7205
2970.0 7217 6232 4477 2958 2041 1485 1141 923 758 635
3010.0 547 475 422 382 345 315 288 263 238 207
3050.0 191 168 164 154 143 133 128 121 114 111
3090.0 107 104 97 99 88 86 81 75 66 65
3130.0 72 67 72 60 54 61 59 59 63 58
3170.0 60 59 44 58 51 51 51 41 48 41
3210.0 31 28 26 23 26 24 25 17 10 17
3250.0 19 14 12 14 13 8 16 3 5 3
3290.0 12 7 10 7 13 4 10 4 13 23
3330.0 15 9 4 14 12 15 11 16 22 16
3370.0 22 19 17 18 17 15 19 21 23 23
3410.0 29 34 44 57 51 63 73 72 66 51
3450.0 50 28 24 23 14 3 8 14 16 12
3490.0 14 12 10 12 5 13 4 9 12 15
3530.0 10 5 8 17 11 17 16 18 14 38
3570.0 40 39 32 35 39 34 23 14 13 17
3610.0 17 11 19 19 28 26 28 21 31 19
3650.0 31 24 30 38 23 26 16 19 25 24
3690.0 17 22 21 10 11 20 3 18 9 18
3730.0 15 20 12 2 22 4 9 8 24 18
3770.0 4 12 2 20 21 7 9 18 10 2
3810.0 8 13 10 2 6 18 13 6 6 2
3850.0 22 11 2 11 28 11 2 14 10 5
3890.0 2 27 0 19 12 21 2 2 11 15
3930.0 2 2 5 9 2 14 11 2 16 2
##END=
