##TITLE=Acetic acid, 3-chlorobutyl ester
##JCAMP-DX=4.24
##DATA TYPE=INFRARED SPECTRUM
##ORIGIN=Sadtler Research Labs Under US-EPA Contract
##OWNER=NIST Standard Reference Data Program
##CAS REGISTRY NO=2203-36-3
##MOLFORM=C 6 H 11 Cl O 2
##XUNITS=1/CM
##YUNITS=ABSORBANCE
##XFACTOR=1.0
##YFACTOR=0.000146109
##DELTAX=4.0
##FIRSTX=450.0
##LASTX=3966.0
##FIRSTY=0.006575
##MAXX=3966
##MINX=450
##MAXY=1.46109
##MINY=0
##NPOINTS=880
##XYDATA=(X++(Y..Y))
450.0 45 78 70 100 82 50 48 53 44 87
490.0 88 61 50 38 39 29 36 36 33 36
530.0 36 33 32 21 14 20 21 24 33 23
570.0 26 21 35 53 56 73 102 160 215 268
610.0 316 358 410 449 479 475 436 380 328 269
650.0 226 204 178 135 112 104 116 143 171 185
690.0 177 136 103 69 47 26 15 3 7 7
730.0 0 3 4 7 13 14 12 15 24 31
770.0 50 69 97 125 159 192 226 248 254 243
810.0 219 186 151 128 118 109 117 133 163 174
850.0 182 178 162 155 133 119 114 105 97 96
890.0 100 100 101 101 113 127 149 173 199 214
930.0 208 192 167 149 156 178 197 219 234 237
970.0 244 249 251 242 240 254 284 329 382 443
1010.0 502 550 588 651 763 958 1251 1615 1988 2274
1050.0 2407 2335 2101 1814 1541 1311 1123 973 857 772
1090.0 714 678 653 629 592 539 485 448 444 473
1130.0 514 527 508 456 385 319 276 257 251 257
1170.0 274 298 324 358 409 492 616 815 1109 1521
1210.0 2100 2957 4178 5833 7766 9347 10000 9377 7536 5272
1250.0 3536 2517 1962 1651 1475 1394 1342 1251 1123 959
1290.0 794 652 560 511 479 443 395 349 301 264
1330.0 242 228 222 225 244 287 381 588 990 1472
1370.0 1779 1834 1581 1279 1130 1069 958 800 614 465
1410.0 350 295 279 299 324 355 382 424 464 511
1450.0 550 565 575 556 529 480 420 357 299 234
1490.0 184 150 128 112 106 97 91 85 81 78
1530.0 71 72 67 61 54 56 54 50 52 46
1570.0 44 39 42 36 39 36 36 36 36 34
1610.0 33 35 35 35 34 42 39 44 47 56
1650.0 52 66 65 69 68 72 72 81 81 92
1690.0 100 113 123 143 163 194 235 292 355 432
1730.0 516 633 811 1086 1506 2135 3064 4274 5443 5922
1770.0 5650 4623 3192 2144 1454 1021 772 615 496 410
1810.0 333 263 208 167 142 124 114 105 92 85
1850.0 77 69 63 57 51 47 43 42 37 36
1890.0 34 32 30 30 28 27 24 22 18 19
1930.0 16 14 14 13 10 10 11 11 12 11
1970.0 13 13 12 14 15 16 19 21 26 28
2010.0 30 32 34 36 36 35 34 29 28 26
2050.0 27 26 28 28 29 31 34 35 38 34
2090.0 35 31 28 25 22 20 21 17 16 13
2130.0 12 12 12 13 13 13 15 17 15 16
2170.0 14 12 10 11 8 8 6 8 7 7
2210.0 5 7 5 6 6 5 5 4 5 4
2250.0 6 7 5 5 6 4 4 4 4 2
2290.0 3 2 3 3 1 0 3 6 8 12
2330.0 14 16 16 13 17 12 17 13 12 8
2370.0 12 6 6 2 0 2 3 4 6 7
2410.0 6 6 4 6 5 5 6 7 9 11
2450.0 12 16 17 18 16 16 14 14 11 9
2490.0 8 10 8 6 7 5 6 5 5 4
2530.0 3 2 2 2 4 5 4 7 8 6
2570.0 7 8 8 11 10 8 12 12 13 12
2610.0 12 11 11 12 10 11 11 9 9 9
2650.0 10 10 10 9 11 10 11 12 13 14
2690.0 12 13 15 15 13 14 17 19 21 20
2730.0 26 27 28 33 33 34 31 28 27 24
2770.0 25 24 24 23 26 26 27 27 28 30
2810.0 32 36 40 48 57 66 75 87 95 103
2850.0 108 118 131 145 163 187 213 237 253 262
2890.0 269 279 298 328 370 415 456 497 541 599
2930.0 674 753 806 838 832 805 787 797 838 913
2970.0 1022 1199 1376 1459 1456 1370 1218 1063 845 595
3010.0 397 272 201 162 142 131 124 115 111 104
3050.0 96 94 90 87 85 81 77 72 68 62
3090.0 56 54 51 48 45 39 38 34 32 32
3130.0 30 28 26 24 24 25 20 17 18 21
3170.0 17 19 17 18 19 18 19 19 18 21
3210.0 21 20 19 20 19 18 15 18 14 11
3250.0 12 9 13 13 11 12 11 10 14 13
3290.0 15 16 15 15 10 11 12 14 15 14
3330.0 14 13 13 12 15 14 12 11 10 9
3370.0 10 13 11 12 11 10 12 12 12 8
3410.0 12 11 11 12 16 11 9 8 12 13
3450.0 12 11 14 14 11 13 11 13 17 16
3490.0 24 27 33 37 46 51 52 46 37 26
3530.0 13 11 8 0 3 5 13 15 17 18
3570.0 21 21 23 35 25 24 20 24 24 17
3610.0 21 17 20 18 16 22 17 19 20 18
3650.0 21 16 19 20 26 25 28 24 23 23
3690.0 18 18 20 19 17 18 16 11 15 18
3730.0 15 19 23 18 23 16 20 12 19 23
3770.0 18 20 14 17 17 22 20 17 17 18
3810.0 21 18 21 21 23 17 14 21 24 25
3850.0 29 30 28 23 20 21 14 18 23 25
3890.0 23 25 26 27 30 31 27 27 26 25
3930.0 22 32 21 20 29 28 33 42 33 34
##END=
