##TITLE=Methane-d3-, sulfinylbis-
##JCAMP-DX=4.24
##DATA TYPE=INFRARED SPECTRUM
##ORIGIN=Sadtler Research Labs Under US-EPA Contract
##OWNER=NIST Standard Reference Data Program
##CAS REGISTRY NO=2206-27-1
##MOLFORM=C 2 D 6 O S
##XUNITS=1/CM
##YUNITS=ABSORBANCE
##XFACTOR=1.0
##YFACTOR=0.000103186
##DELTAX=4.0
##FIRSTX=450.0
##LASTX=3966.0
##FIRSTY=0.000929
##MAXX=3966
##MINX=450
##MAXY=1.03186
##MINY=0
##NPOINTS=880
##XYDATA=(X++(Y..Y))
450.0 9 51 69 54 71 39 57 9 17 23
490.0 10 34 24 25 17 40 20 18 15 27
530.0 33 28 33 6 24 15 23 43 62 116
570.0 134 206 300 424 528 634 709 779 859 905
610.0 802 780 675 529 341 192 116 73 78 74
650.0 73 81 84 81 81 93 78 80 88 81
690.0 71 70 75 76 101 94 128 174 279 420
730.0 584 755 862 986 1095 1209 1119 1053 1064 907
770.0 669 446 324 306 368 462 603 727 803 848
810.0 959 1122 1072 851 740 677 538 393 249 167
850.0 119 92 80 76 77 70 73 70 71 67
890.0 72 70 76 70 75 76 77 81 79 74
930.0 77 74 68 72 61 62 67 62 72 87
970.0 102 111 149 191 259 347 443 553 745 1045
1010.0 1353 1602 1516 1595 1661 1566 1416 1284 1537 1637
1050.0 1403 1372 1460 1800 2410 3327 4603 6069 7518 8569
1090.0 9335 9859 10000 9792 8612 7594 6700 4961 2997 1574
1130.0 754 381 212 147 117 115 110 109 112 120
1170.0 129 137 145 148 151 158 162 156 144 144
1210.0 121 96 87 76 61 49 40 47 41 33
1250.0 39 53 41 50 47 43 55 43 49 41
1290.0 40 43 45 38 50 53 53 62 67 79
1330.0 83 90 86 88 104 105 86 88 76 69
1370.0 59 45 30 33 27 27 24 14 20 20
1410.0 31 26 21 46 23 20 38 42 23 18
1450.0 32 35 24 27 11 30 18 20 15 30
1490.0 23 20 23 36 18 19 18 6 19 16
1530.0 3 14 24 15 5 32 9 37 35 30
1570.0 41 54 71 74 83 92 100 109 111 108
1610.0 109 92 88 56 44 28 33 19 21 16
1650.0 22 30 26 11 19 14 24 10 18 22
1690.0 21 20 36 30 39 45 55 57 76 80
1730.0 77 77 70 78 86 89 94 84 72 61
1770.0 51 41 34 27 31 25 24 20 20 27
1810.0 21 20 23 25 23 22 22 24 24 27
1850.0 26 28 25 21 17 12 15 11 11 8
1890.0 8 4 6 5 7 6 8 8 4 7
1930.0 7 8 6 4 6 9 7 7 11 5
1970.0 11 13 14 15 20 17 24 29 29 30
2010.0 28 28 20 21 22 25 23 27 28 27
2050.0 29 28 31 30 34 38 36 38 43 44
2090.0 46 57 69 83 111 152 186 212 224 244
2130.0 268 259 238 238 233 196 168 145 150 158
2170.0 166 175 184 188 177 163 144 129 97 74
2210.0 52 43 43 59 95 129 199 245 289 312
2250.0 529 679 447 317 355 329 277 175 109 57
2290.0 39 29 29 29 27 40 30 34 32 42
2330.0 40 42 31 44 34 42 46 53 58 51
2370.0 49 40 34 31 24 21 20 20 19 20
2410.0 16 16 14 14 14 13 6 2 7 6
2450.0 5 7 6 5 5 6 6 6 8 11
2490.0 11 11 11 12 15 14 14 17 16 13
2530.0 12 10 11 10 12 10 11 8 10 12
2570.0 12 13 14 11 11 10 10 9 8 10
2610.0 11 2 5 8 6 1 1 5 3 6
2650.0 5 2 4 5 4 2 2 6 5 4
2690.0 4 3 0 3 5 4 11 13 21 5
2730.0 6 5 5 5 3 4 6 6 4 5
2770.0 5 3 5 8 10 5 6 9 11 7
2810.0 8 14 5 9 10 9 10 10 8 12
2850.0 10 12 14 16 17 20 15 14 13 16
2890.0 16 10 12 14 12 11 12 11 16 22
2930.0 19 18 18 21 26 27 27 30 31 38
2970.0 39 36 38 39 41 44 43 37 39 37
3010.0 34 32 33 31 23 21 23 22 22 23
3050.0 23 31 36 34 31 32 34 30 27 24
3090.0 21 21 18 16 14 17 15 14 16 13
3130.0 14 12 16 17 15 18 19 19 19 19
3170.0 15 18 17 17 19 14 17 18 18 19
3210.0 20 21 22 24 25 27 29 34 43 49
3250.0 47 50 62 61 61 62 65 58 59 56
3290.0 54 52 43 36 29 26 28 24 21 24
3330.0 17 17 19 22 21 18 22 19 12 16
3370.0 22 19 17 16 18 21 18 14 13 22
3410.0 22 20 21 16 15 20 26 18 15 13
3450.0 17 18 18 16 17 13 19 20 15 14
3490.0 15 13 12 6 7 14 24 20 15 5
3530.0 13 21 19 21 19 19 24 21 19 22
3570.0 15 20 21 23 28 8 26 10 6 25
3610.0 27 2 11 21 14 16 29 21 27 12
3650.0 15 12 20 24 20 23 22 21 21 15
3690.0 29 26 24 33 17 19 13 18 4 16
3730.0 18 13 26 15 46 13 30 24 22 21
3770.0 28 42 24 22 25 39 25 29 28 27
3810.0 34 23 16 24 23 30 24 16 24 26
3850.0 23 40 3 17 33 18 11 26 3 23
3890.0 26 24 15 23 23 24 27 22 26 12
3930.0 26 15 27 21 27 13 14 22 16 23
##END=
