##TITLE=2,3-Epoxypropyl para-methoxyphenyl ether
##JCAMP-DX=4.24
##DATA TYPE=INFRARED SPECTRUM
##ORIGIN=Sadtler Research Labs Under US-EPA Contract
##OWNER=NIST Standard Reference Data Program
##CAS REGISTRY NO=2211-94-1
##MOLFORM=C 10 H 12 O 3
##XUNITS=1/CM
##YUNITS=ABSORBANCE
##XFACTOR=1.0
##YFACTOR=0.000058490
##DELTAX=4.0
##FIRSTX=450.0
##LASTX=3966.0
##FIRSTY=0.003451
##MAXX=3966
##MINX=450
##MAXY=0.5849
##MINY=0
##NPOINTS=880
##XYDATA=(X++(Y..Y))
450.0 59 87 88 94 85 85 100 97 95 123
490.0 146 148 146 156 174 200 200 202 202 184
530.0 198 149 186 154 160 148 147 157 165 125
570.0 129 88 79 96 79 59 23 33 51 55
610.0 25 40 40 43 26 39 47 58 26 22
650.0 40 24 26 16 1 43 42 58 44 86
690.0 100 135 178 252 343 452 517 536 501 458
730.0 487 539 587 546 480 377 354 318 287 286
770.0 291 318 378 405 371 351 351 363 427 495
810.0 608 754 936 1149 1331 1449 1440 1358 1281 1135
850.0 997 838 694 558 427 337 279 250 233 224
890.0 227 251 265 312 356 407 444 428 401 346
930.0 306 272 253 243 238 253 266 306 337 365
970.0 377 367 362 365 374 399 435 472 534 606
1010.0 695 821 999 1217 1516 1881 2298 2732 3107 3240
1050.0 3070 2539 1890 1292 921 718 642 594 578 554
1090.0 541 541 567 568 550 513 453 403 377 377
1130.0 384 366 335 312 314 340 393 429 466 538
1170.0 672 885 1140 1279 1313 1307 1523 1983 2641 3394
1210.0 4131 5027 5964 6854 7461 7732 7374 6504 5206 3984
1250.0 3031 2332 1895 1612 1442 1313 1250 1176 1118 1027
1290.0 941 844 769 674 595 497 419 342 336 320
1330.0 315 308 260 298 358 378 393 377 331 294
1370.0 272 230 247 272 244 251 227 207 259 281
1410.0 282 350 251 350 361 431 432 549 765 874
1450.0 888 869 847 1010 1139 1175 1050 982 967 972
1490.0 1190 1884 3256 5876 9242 10000 8007 4153 1771 1002
1530.0 655 495 342 186 187 217 192 80 149 197
1570.0 186 198 213 220 284 279 291 246 238 211
1610.0 205 219 151 189 130 183 112 97 133 108
1650.0 29 25 87 109 87 71 27 94 17 6
1690.0 66 87 0 11 54 107 74 5 108 155
1730.0 128 49 119 118 78 39 74 69 68 85
1770.0 33 22 69 48 56 43 28 43 22 75
1810.0 67 63 79 78 70 62 87 110 80 66
1850.0 102 126 116 117 89 53 94 101 100 90
1890.0 70 69 70 71 68 63 59 56 42 63
1930.0 68 65 67 51 56 73 78 76 81 67
1970.0 81 86 96 92 96 84 86 97 98 96
2010.0 99 91 77 90 103 102 111 116 110 123
2050.0 133 142 137 136 122 138 128 127 118 108
2090.0 103 87 73 59 56 49 39 36 28 26
2130.0 25 24 14 13 14 12 12 12 11 9
2170.0 10 8 8 8 7 6 5 5 3 3
2210.0 3 2 7 5 8 9 9 17 17 18
2250.0 26 28 27 27 27 27 27 27 27 27
2290.0 27 28 29 29 31 28 31 31 35 40
2330.0 35 14 31 24 40 40 24 31 33 16
2370.0 14 23 16 21 21 10 10 11 11 12
2410.0 12 12 11 11 11 11 16 12 12 18
2450.0 21 28 28 29 36 36 47 47 51 46
2490.0 37 39 40 37 29 29 30 30 28 28
2530.0 28 35 29 29 29 29 29 21 21 21
2570.0 22 22 22 22 22 21 21 21 21 21
2610.0 21 21 21 14 13 13 14 14 16 22
2650.0 13 14 21 13 22 13 14 22 23 15
2690.0 20 24 23 22 34 28 31 32 40 40
2730.0 40 40 49 49 51 58 48 53 56 67
2770.0 56 66 65 65 75 82 94 101 110 128
2810.0 141 164 186 222 262 323 433 582 677 690
2850.0 586 487 435 418 423 444 466 497 520 532
2890.0 548 558 593 629 700 783 870 943 996 1038
2930.0 1079 1122 1173 1192 1193 1157 1094 1023 941 842
2970.0 778 704 675 654 657 695 787 942 1169 1296
3010.0 1232 997 706 537 439 401 387 422 512 630
3050.0 781 846 811 686 574 484 413 339 280 226
3090.0 201 180 169 161 153 152 135 127 107 100
3130.0 76 63 56 44 33 33 26 26 26 25
3170.0 25 24 19 23 21 21 17 22 15 17
3210.0 11 8 8 9 9 8 8 8 12 6
3250.0 6 11 11 16 14 8 7 16 7 17
3290.0 10 1 3 12 10 13 7 8 6 7
3330.0 16 24 22 24 14 15 19 23 14 13
3370.0 15 15 15 22 14 21 7 13 14 18
3410.0 11 17 20 13 13 14 13 21 12 11
3450.0 20 20 22 26 19 15 25 20 21 20
3490.0 21 10 29 23 22 17 25 21 10 17
3530.0 19 13 19 10 18 11 27 19 13 18
3570.0 28 33 27 32 20 35 44 44 45 35
3610.0 44 43 53 57 56 49 61 55 50 43
3650.0 43 51 42 41 33 23 35 23 35 24
3690.0 24 26 24 15 25 24 23 15 15 15
3730.0 15 11 11 14 13 13 7 15 14 23
3770.0 14 24 16 19 18 21 23 20 19 22
3810.0 22 14 21 21 21 21 21 31 20 22
3850.0 18 18 20 20 21 20 29 29 29 29
3890.0 27 24 25 18 28 21 19 18 27 20
3930.0 19 27 17 18 22 26 26 26 26 36
##END=
