##TITLE=4-Bromophenyl 2,3-epoxypropyl ether
##JCAMP-DX=4.24
##DATA TYPE=INFRARED SPECTRUM
##ORIGIN=Sadtler Research Labs Under US-EPA Contract
##OWNER=NIST Standard Reference Data Program
##CAS REGISTRY NO=2212-06-8
##MOLFORM=C 9 H 9 Br O 2
##XUNITS=1/CM
##YUNITS=ABSORBANCE
##XFACTOR=1.0
##YFACTOR=0.000094061
##DELTAX=4.0
##FIRSTX=450.0
##LASTX=3966.0
##FIRSTY=0.000000
##MAXX=3966
##MINX=450
##MAXY=0.94061
##MINY=0
##NPOINTS=880
##XYDATA=(X++(Y..Y))
450.0 0 70 74 51 37 49 54 140 161 205
490.0 246 292 352 364 368 321 283 235 198 149
530.0 135 109 106 100 90 69 80 82 93 78
570.0 44 56 78 110 136 190 293 416 465 410
610.0 349 293 285 299 360 468 580 613 519 339
650.0 224 162 140 136 121 132 63 77 69 71
690.0 64 59 54 50 48 42 32 40 30 23
730.0 32 27 42 56 73 90 104 131 167 217
770.0 276 328 362 388 389 414 484 570 684 851
810.0 1087 1397 1706 1972 2011 1872 1659 1460 1296 1203
850.0 1116 974 816 650 506 402 323 253 215 199
890.0 193 228 273 324 410 508 577 576 504 426
930.0 377 321 289 275 269 277 301 353 402 440
970.0 443 420 389 379 403 479 599 853 1394 1970
1010.0 1993 1563 1363 1579 1944 2313 2558 2562 2330 1935
1050.0 1495 1123 926 918 1180 1756 2091 1771 1015 685
1090.0 612 591 581 565 543 520 483 455 435 434
1130.0 439 417 361 307 297 349 449 566 816 1417
1170.0 1913 1771 1173 724 584 601 695 861 1112 1467
1210.0 1964 2678 3717 5061 6280 6911 7065 7152 6879 5674
1250.0 4042 3080 2673 2458 2382 2463 2724 2990 2980 2603
1290.0 2069 1675 1401 1151 909 694 554 479 440 409
1330.0 385 380 368 401 442 452 459 461 407 341
1370.0 302 289 298 308 305 311 311 311 336 349
1410.0 372 421 423 459 443 413 364 349 403 470
1450.0 588 790 994 1196 1333 1634 2113 3007 4873 8014
1490.0 10000 8240 4283 1875 1005 643 506 396 291 245
1530.0 198 160 140 99 115 143 154 150 225 342
1570.0 493 743 1038 1279 1403 1387 1261 990 691 466
1610.0 345 282 224 205 169 168 134 116 119 95
1650.0 72 36 64 57 54 41 35 52 33 27
1690.0 57 73 54 69 103 128 113 88 124 146
1730.0 163 152 184 181 164 129 123 105 85 80
1770.0 52 39 48 38 35 34 24 36 27 43
1810.0 39 38 44 44 36 37 47 56 53 46
1850.0 63 83 87 102 115 114 129 122 111 93
1890.0 75 64 56 48 40 32 29 25 23 29
1930.0 29 30 30 23 24 30 30 31 31 28
1970.0 31 32 35 35 38 38 38 49 55 61
2010.0 67 72 73 79 81 82 86 88 87 92
2050.0 95 97 101 103 101 106 104 96 87 81
2090.0 67 61 59 55 54 49 45 42 36 30
2130.0 31 23 21 22 24 24 20 19 19 19
2170.0 19 19 19 21 20 19 21 21 23 24
2210.0 24 25 22 22 25 23 26 29 36 40
2250.0 44 48 57 57 56 64 65 63 67 62
2290.0 59 55 53 54 48 47 56 44 57 54
2330.0 53 48 57 58 58 47 82 65 80 62
2370.0 60 56 60 57 50 48 51 48 46 49
2410.0 52 51 50 42 46 41 41 42 45 41
2450.0 41 45 44 45 43 45 49 47 48 48
2490.0 51 53 58 58 60 67 67 69 67 67
2530.0 59 56 53 50 47 47 42 42 44 43
2570.0 43 40 36 35 33 34 33 32 35 33
2610.0 36 31 35 37 30 28 29 31 34 34
2650.0 37 36 39 39 41 46 39 39 41 41
2690.0 42 41 45 52 50 50 53 53 59 64
2730.0 67 69 73 77 76 76 75 77 80 84
2770.0 77 78 76 80 85 90 92 99 105 117
2810.0 121 126 138 140 144 147 152 152 155 161
2850.0 169 187 208 239 283 332 388 442 482 501
2890.0 499 483 467 454 457 480 516 574 659 760
2930.0 861 930 929 861 768 694 641 607 584 568
2970.0 566 579 592 599 602 609 628 672 745 803
3010.0 798 732 632 534 452 407 408 445 504 587
3050.0 689 800 815 709 606 527 477 419 360 316
3090.0 299 303 303 277 228 175 119 97 70 66
3130.0 54 47 48 40 46 43 39 35 36 35
3170.0 34 31 31 34 30 34 29 28 26 32
3210.0 33 32 33 29 29 33 34 31 27 26
3250.0 33 27 28 27 29 30 28 30 28 29
3290.0 35 34 32 33 29 29 35 28 30 34
3330.0 36 31 32 28 30 35 32 30 36 35
3370.0 32 34 30 28 38 27 25 21 37 37
3410.0 32 37 30 34 31 29 35 31 30 26
3450.0 36 34 26 26 34 30 30 33 36 32
3490.0 34 33 37 33 30 35 33 26 28 36
3530.0 40 34 41 29 36 36 35 40 40 45
3570.0 40 50 41 47 54 50 59 71 72 83
3610.0 85 89 102 106 118 102 120 120 128 131
3650.0 141 144 127 107 90 62 69 65 71 56
3690.0 53 58 55 54 45 51 46 51 51 50
3730.0 53 44 36 45 32 47 38 41 41 44
3770.0 48 33 39 38 43 42 36 35 31 40
3810.0 44 40 45 41 54 40 30 37 42 30
3850.0 48 29 50 46 31 33 31 36 54 50
3890.0 49 43 46 36 37 53 52 39 38 32
3930.0 46 38 32 39 51 33 38 46 42 41
##END=
