##TITLE=4-Picoline, 2-chloro-6-(2-thienyl)-.alpha.,.alpha.,.alpha.-trifluoro-,
##JCAMP-DX=4.24
##DATA TYPE=INFRARED SPECTRUM
##ORIGIN=Sadtler Research Labs Under US-EPA Contract
##OWNER=NIST Standard Reference Data Program
##CAS REGISTRY NO=22123-15-5
##MOLFORM=C 10 H 5 Cl F 3 N S
##XUNITS=1/CM
##YUNITS=ABSORBANCE
##XFACTOR=1.0
##YFACTOR=0.000116962
##DELTAX=4.0
##FIRSTX=450.0
##LASTX=3966.0
##FIRSTY=0.014503
##MAXX=3966
##MINX=450
##MAXY=1.16962
##MINY=0
##NPOINTS=880
##XYDATA=(X++(Y..Y))
450.0 124 169 114 63 51 111 88 90 45 45
490.0 11 11 26 22 40 33 47 27 26 18
530.0 33 37 27 12 39 55 58 38 11 4
570.0 16 32 39 59 62 77 79 85 75 88
610.0 96 101 79 152 262 306 345 337 298 170
650.0 86 80 74 100 129 317 375 318 307 764
690.0 1777 2591 2994 3470 3445 2057 833 297 116 197
730.0 272 329 241 174 166 206 250 253 243 307
770.0 496 919 1521 1735 1277 573 225 190 170 179
810.0 137 162 200 362 657 1204 1827 2354 2207 1326
850.0 590 404 535 740 1017 1208 1008 819 624 390
890.0 216 117 76 65 55 58 52 40 27 22
930.0 20 16 18 14 18 20 29 29 29 42
970.0 36 40 53 70 74 82 88 95 96 119
1010.0 192 367 716 1109 1191 803 352 144 117 117
1050.0 137 141 149 140 138 135 135 161 230 354
1090.0 579 904 1162 1099 753 469 356 349 389 447
1130.0 528 626 862 1422 2541 4337 6597 8849 10000 8363
1170.0 6185 5422 6016 7152 6937 4957 2707 1382 988 1025
1210.0 1356 1622 1515 1215 1098 1179 1267 1439 1606 1810
1250.0 2123 2445 2395 1814 1116 651 473 458 538 640
1290.0 713 719 746 861 1189 1942 3500 5942 7995 8399
1330.0 6876 4906 3100 2127 1953 2102 2440 2631 2218 1365
1370.0 818 831 1239 1891 2732 3607 3847 3069 1857 1110
1410.0 1040 1533 2079 2170 1884 2203 3312 4106 3553 2129
1450.0 1039 616 412 361 310 275 237 222 221 208
1490.0 201 201 193 191 188 224 328 497 763 1138
1530.0 1475 1622 1477 1217 1237 1681 2592 3848 4789 4218
1570.0 2510 1109 596 461 492 609 862 1277 1746 1925
1610.0 1552 932 472 287 202 177 140 124 134 143
1650.0 153 158 170 144 131 120 117 132 134 144
1690.0 159 158 134 136 136 149 141 138 167 188
1730.0 201 215 232 215 189 170 167 145 126 109
1770.0 91 75 81 84 97 109 107 87 51 44
1810.0 44 38 32 20 9 7 12 18 10 4
1850.0 7 9 5 7 3 2 12 15 14 11
1890.0 7 7 4 4 5 5 6 7 6 5
1930.0 6 5 7 3 4 0 1 1 4 0
1970.0 4 7 11 15 22 27 31 34 30 26
2010.0 26 22 21 20 18 20 19 14 11 9
2050.0 7 5 0 3 3 8 12 14 19 21
2090.0 22 19 18 13 14 13 14 12 9 8
2130.0 12 13 13 12 11 10 10 14 17 21
2170.0 29 26 25 19 20 15 15 14 16 17
2210.0 19 25 27 27 24 21 19 17 17 18
2250.0 20 22 20 20 18 16 17 17 18 18
2290.0 19 26 30 30 26 26 27 24 20 25
2330.0 22 25 26 24 19 20 13 14 2 1
2370.0 8 15 17 18 19 21 20 17 19 17
2410.0 17 19 17 19 13 14 12 15 18 20
2450.0 20 24 30 26 21 16 14 11 8 8
2490.0 6 6 5 5 3 6 6 7 9 11
2530.0 12 12 17 18 18 16 18 19 16 16
2570.0 17 16 17 18 19 20 19 22 24 23
2610.0 17 16 16 15 15 15 13 13 16 18
2650.0 22 33 34 36 31 27 27 24 22 23
2690.0 18 18 16 15 16 15 17 18 23 21
2730.0 21 24 25 26 28 26 26 24 24 26
2770.0 26 27 28 28 28 28 28 30 32 34
2810.0 34 36 33 37 39 42 41 45 47 44
2850.0 44 50 53 59 68 67 67 63 55 49
2890.0 46 47 44 42 42 44 42 45 44 42
2930.0 49 51 56 62 60 63 64 65 69 69
2970.0 67 67 67 67 67 68 62 61 63 59
3010.0 60 63 65 59 59 57 55 54 53 55
3050.0 57 55 59 57 59 77 107 167 248 314
3090.0 295 244 190 150 113 81 78 78 74 61
3130.0 51 47 50 49 56 59 59 59 64 62
3170.0 61 58 55 46 39 41 36 35 37 39
3210.0 36 37 32 41 37 38 40 39 37 39
3250.0 35 40 35 37 33 36 39 31 32 37
3290.0 32 27 28 26 25 23 25 22 31 30
3330.0 25 25 25 22 24 25 22 21 22 21
3370.0 24 19 14 20 22 22 22 24 17 19
3410.0 23 18 17 16 17 13 17 17 22 15
3450.0 14 13 16 14 11 15 17 15 6 8
3490.0 7 8 11 13 5 6 9 4 7 11
3530.0 5 8 13 7 9 2 9 15 11 11
3570.0 14 14 5 10 17 18 22 16 18 7
3610.0 15 21 15 9 14 16 4 7 7 16
3650.0 19 4 8 13 12 13 8 20 11 15
3690.0 10 18 10 12 14 9 14 13 21 15
3730.0 22 26 23 18 27 13 15 17 18 12
3770.0 6 3 6 20 14 14 14 26 3 13
3810.0 4 16 20 19 5 11 28 26 24 19
3850.0 24 25 2 24 25 12 12 7 20 17
3890.0 14 21 14 13 3 19 4 18 24 15
3930.0 21 5 12 22 37 6 21 12 7 14
##END=
