##TITLE=Propane, 1-(2,4-dichlorophenoxy)-
##JCAMP-DX=4.24
##DATA TYPE=INFRARED SPECTRUM
##ORIGIN=Sadtler Research Labs Under US-EPA Contract
##OWNER=NIST Standard Reference Data Program
##CAS REGISTRY NO=2212-07-9
##MOLFORM=C 9 H 8 Cl 2 O 2
##XUNITS=1/CM
##YUNITS=ABSORBANCE
##XFACTOR=1.0
##YFACTOR=0.000142172
##DELTAX=4.0
##FIRSTX=450.0
##LASTX=3966.0
##FIRSTY=0.024311
##MAXX=3966
##MINX=450
##MAXY=1.42172
##MINY=0
##NPOINTS=880
##XYDATA=(X++(Y..Y))
450.0 171 120 67 112 74 78 73 102 117 157
490.0 217 286 343 375 385 366 323 287 241 201
530.0 171 148 123 123 103 83 80 86 58 44
570.0 18 23 19 3 16 3 8 13 26 22
610.0 42 58 107 166 291 447 629 702 676 591
650.0 527 544 600 726 769 699 504 342 273 239
690.0 206 149 96 78 65 53 42 37 29 22
730.0 22 28 39 45 71 82 99 141 178 223
770.0 272 337 373 370 373 392 453 534 640 787
810.0 1008 1320 1706 2107 2324 2219 2019 1792 1588 1411
850.0 1250 1078 908 723 551 425 340 281 247 233
890.0 236 257 303 363 434 525 580 578 530 459
930.0 404 362 330 305 297 300 331 381 428 476
970.0 488 470 445 442 462 503 584 730 1071 1591
1010.0 1738 1733 1584 1758 2110 2458 2672 2663 2430 2030
1050.0 1605 1235 991 865 819 829 883 972 1127 1449
1090.0 2052 2654 2776 2323 1607 1170 956 832 746 689
1130.0 651 604 534 460 421 444 511 664 1044 1544
1170.0 1717 1422 913 635 552 577 668 837 1109 1508
1210.0 2050 2773 3710 4771 5688 6264 6642 6902 6643 5607
1250.0 4086 2996 2506 2347 2365 2453 2584 2684 2634 2371
1290.0 1967 1602 1322 1070 845 660 534 452 411 386
1330.0 378 373 385 415 445 467 485 483 452 384
1370.0 333 321 319 322 320 322 325 327 328 344
1410.0 359 389 406 419 408 398 388 416 460 545
1450.0 678 863 1054 1178 1295 1473 1806 2452 3818 6372
1490.0 9391 10000 7642 4069 1900 1021 671 507 418 356
1530.0 300 271 240 224 204 195 190 195 218 253
1570.0 327 455 654 851 1031 1161 1211 1147 948 675
1610.0 427 273 195 157 128 118 100 91 79 72
1650.0 51 58 35 31 22 23 16 25 20 33
1690.0 38 54 69 88 96 102 95 102 108 130
1730.0 169 208 218 215 191 151 117 89 69 48
1770.0 36 20 12 6 9 4 8 9 14 13
1810.0 13 11 15 15 23 23 31 39 45 57
1850.0 64 74 85 101 112 117 114 105 89 74
1890.0 60 48 38 30 22 19 15 15 13 15
1930.0 16 15 14 11 13 11 9 11 14 14
1970.0 11 15 14 16 18 18 21 23 26 30
2010.0 36 42 50 54 60 65 68 71 74 75
2050.0 76 77 77 80 81 79 77 72 66 60
2090.0 51 44 40 38 35 32 29 24 20 16
2130.0 11 9 5 2 3 2 0 1 0 1
2170.0 0 0 1 2 3 1 1 2 4 5
2210.0 7 8 7 9 9 12 14 16 21 25
2250.0 29 34 39 41 41 42 46 50 54 62
2290.0 64 64 64 65 65 67 60 51 58 50
2330.0 45 39 37 43 51 49 50 45 51 45
2370.0 38 43 50 56 46 38 35 33 35 33
2410.0 31 31 31 29 30 30 32 34 34 31
2450.0 31 31 31 33 32 34 35 34 37 36
2490.0 35 37 40 45 48 49 53 56 53 50
2530.0 44 42 39 33 31 29 30 26 25 27
2570.0 28 27 27 25 24 24 21 20 22 21
2610.0 18 19 20 21 17 15 13 14 15 17
2650.0 17 19 19 22 23 25 27 28 30 31
2690.0 33 32 36 38 40 39 43 44 50 53
2730.0 57 60 63 65 65 71 69 71 69 71
2770.0 72 74 72 75 77 81 84 91 94 106
2810.0 116 129 141 150 159 165 169 177 186 195
2850.0 216 240 274 317 371 430 488 542 578 598
2890.0 597 583 570 557 559 581 620 684 766 864
2930.0 966 1029 1034 976 887 805 745 703 672 653
2970.0 649 650 648 646 644 647 660 704 758 800
3010.0 796 728 632 533 454 409 407 446 526 638
3050.0 767 847 835 727 614 515 440 370 308 282
3090.0 269 273 278 271 242 199 146 103 74 54
3130.0 43 39 38 29 27 27 27 26 24 23
3170.0 22 18 19 20 16 17 15 13 15 17
3210.0 15 15 16 15 13 16 18 17 16 14
3250.0 16 14 15 16 17 18 18 16 16 17
3290.0 17 16 17 19 17 17 19 21 19 20
3330.0 19 18 16 16 20 18 18 21 21 24
3370.0 23 20 21 24 25 18 22 19 25 25
3410.0 27 25 29 26 32 33 29 30 31 29
3450.0 27 30 30 30 25 31 29 30 31 30
3490.0 31 29 28 29 30 34 31 32 24 30
3530.0 37 33 29 37 31 32 37 31 34 40
3570.0 45 40 38 47 53 60 59 58 68 80
3610.0 91 88 94 101 102 113 108 105 97 96
3650.0 96 80 75 62 49 42 23 28 26 19
3690.0 15 12 3 7 4 2 0 0 0 0
3730.0 1 3 5 0 13 0 0 0 0 0
3770.0 1 0 0 0 0 0 0 0 0 0
3810.0 0 0 0 0 0 0 0 1 0 0
3850.0 0 11 6 1 0 0 0 0 0 4
3890.0 0 1 1 1 0 2 9 6 0 0
3930.0 0 0 0 0 2 1 0 0 0 0
##END=
