##TITLE=1-(2-Chlorophenoxy)-2,3-epoxypropane
##JCAMP-DX=4.24
##DATA TYPE=INFRARED SPECTRUM
##ORIGIN=Sadtler Research Labs Under US-EPA Contract
##OWNER=NIST Standard Reference Data Program
##CAS REGISTRY NO=2212-04-6
##MOLFORM=C 9 H 9 Cl O 2
##XUNITS=1/CM
##YUNITS=ABSORBANCE
##XFACTOR=1.0
##YFACTOR=0.000105490
##DELTAX=4.0
##FIRSTX=450.0
##LASTX=3966.0
##FIRSTY=0.014347
##MAXX=3966
##MINX=450
##MAXY=1.0549
##MINY=0
##NPOINTS=880
##XYDATA=(X++(Y..Y))
450.0 136 306 101 180 137 218 129 165 111 100
490.0 138 199 251 280 196 157 126 202 231 225
530.0 190 284 211 133 175 259 243 229 209 113
570.0 208 206 167 192 246 354 252 356 256 190
610.0 121 107 146 102 73 37 148 102 105 5
650.0 55 96 126 164 222 452 706 958 1171 1311
690.0 1317 1096 928 728 667 649 763 866 1000 1086
730.0 1348 1907 2803 3991 4830 4920 4111 3127 2305 1669
770.0 1324 1119 959 820 748 778 782 821 883 940
810.0 1014 1046 1081 1122 1220 1373 1493 1662 1810 1930
850.0 2037 1934 1719 1392 1036 824 638 536 507 488
890.0 488 537 637 745 840 1008 1153 1202 1137 1044
930.0 933 833 715 611 582 610 691 803 890 893
970.0 947 841 797 758 796 880 1042 1257 1555 1987
1010.0 2600 3210 3744 4009 4131 4266 4412 4450 4094 3295
1050.0 2722 2731 3460 4455 5086 4852 4004 2966 2306 1864
1090.0 1558 1295 1078 891 793 738 698 759 918 1196
1130.0 1396 1401 1216 880 609 544 578 620 622 574
1170.0 516 464 452 461 475 499 552 618 731 933
1210.0 1255 1753 2477 3408 4548 5783 6802 7540 7775 7657
1250.0 7038 6250 5648 5401 5546 5801 5773 5647 5251 4918
1290.0 4600 4167 3550 2705 1944 1421 1052 839 673 580
1330.0 551 565 619 665 694 789 807 826 757 693
1370.0 595 594 617 621 606 572 583 568 549 533
1410.0 608 589 731 748 786 862 1000 1472 2232 2653
1450.0 2869 2789 2536 2669 3144 4209 5857 8337 9785 10000
1490.0 7982 5487 3460 2311 1783 1308 956 741 579 453
1530.0 354 320 322 371 339 294 342 453 593 656
1570.0 1002 1452 1859 2890 3101 3394 3215 2081 1349 764
1610.0 486 354 319 228 235 170 185 189 149 156
1650.0 209 214 186 147 180 183 223 179 207 234
1690.0 165 135 204 194 159 109 123 178 118 87
1730.0 125 187 164 149 163 195 175 173 173 152
1770.0 170 180 130 125 114 118 129 118 116 91
1810.0 88 85 76 70 79 94 70 66 83 121
1850.0 88 78 94 88 101 121 98 103 125 150
1890.0 176 170 157 133 115 102 100 126 156 163
1930.0 167 155 126 102 72 48 31 35 31 36
1970.0 31 31 35 31 35 48 50 48 48 51
2010.0 56 67 82 87 94 105 107 116 114 110
2050.0 106 104 99 104 110 105 106 105 98 97
2090.0 99 94 93 92 89 79 71 61 51 46
2130.0 41 32 26 23 22 21 18 20 17 18
2170.0 18 12 11 7 8 6 0 3 1 3
2210.0 6 6 7 6 10 16 18 22 29 36
2250.0 46 51 59 64 64 61 61 63 62 58
2290.0 49 38 27 20 10 7 11 15 6 8
2330.0 2 2 0 0 0 0 0 0 11 14
2370.0 34 19 13 8 5 13 18 18 19 24
2410.0 27 27 28 26 27 30 24 24 24 21
2450.0 24 23 29 38 35 43 43 45 47 46
2490.0 51 55 60 63 62 67 67 74 79 83
2530.0 98 113 118 123 120 115 107 99 93 87
2570.0 86 72 68 58 49 37 34 28 27 26
2610.0 34 34 37 32 26 25 21 20 23 21
2650.0 21 20 18 21 21 19 26 23 29 29
2690.0 36 34 39 41 39 43 45 47 49 56
2730.0 60 69 76 84 85 83 86 86 76 78
2770.0 80 70 74 69 71 71 74 72 81 86
2810.0 93 102 108 122 140 151 160 164 175 187
2850.0 208 234 269 324 388 474 571 671 755 807
2890.0 814 768 707 684 681 715 782 889 1053 1244
2930.0 1470 1630 1669 1584 1412 1256 1139 1062 1017 983
2970.0 990 1014 1054 1100 1142 1167 1199 1276 1388 1488
3010.0 1523 1457 1322 1155 1017 915 871 868 922 1062
3050.0 1291 1492 1605 1606 1606 1714 1877 1932 1775 1428
3090.0 1035 730 548 427 321 237 175 126 98 78
3130.0 70 61 57 59 53 62 63 57 67 59
3170.0 46 48 40 36 34 31 27 26 30 32
3210.0 31 24 26 24 28 29 29 24 31 26
3250.0 25 31 24 28 23 27 21 21 27 28
3290.0 26 32 21 21 21 21 26 30 23 24
3330.0 27 26 24 24 26 36 25 26 27 31
3370.0 19 18 20 37 22 16 26 20 21 16
3410.0 20 23 17 24 20 19 20 23 17 14
3450.0 17 27 20 14 19 14 18 22 25 21
3490.0 10 16 10 11 12 17 21 19 11 12
3530.0 22 23 13 23 24 33 25 13 27 25
3570.0 35 44 62 66 79 99 136 149 167 154
3610.0 159 164 177 195 166 162 120 93 66 58
3650.0 41 57 39 25 28 16 27 17 14 10
3690.0 13 24 1 13 15 27 19 8 21 10
3730.0 31 29 14 31 20 65 23 10 13 39
3770.0 45 35 23 26 31 30 27 26 36 50
3810.0 18 29 27 46 40 19 41 31 31 22
3850.0 30 55 36 31 44 61 37 31 23 33
3890.0 33 24 40 30 30 27 40 32 25 25
3930.0 48 20 48 8 15 19 42 12 27 35
##END=
