##TITLE=Phthalimide, N-(2-bromo-1-isobutoxyethyl)-,
##JCAMP-DX=4.24
##DATA TYPE=INFRARED SPECTRUM
##ORIGIN=Sadtler Research Labs Under US-EPA Contract
##OWNER=NIST Standard Reference Data Program
##CAS REGISTRY NO=22158-93-6
##MOLFORM=C 14 H 16 Br N O 3
##XUNITS=1/CM
##YUNITS=ABSORBANCE
##XFACTOR=1.0
##YFACTOR=0.000105048
##DELTAX=4.0
##FIRSTX=450.0
##LASTX=3966.0
##FIRSTY=0.000000
##MAXX=3966
##MINX=450
##MAXY=1.05048
##MINY=0
##NPOINTS=880
##XYDATA=(X++(Y..Y))
450.0 0 17 25 23 96 53 105 117 181 170
490.0 185 212 216 232 256 330 349 419 483 520
530.0 542 534 471 453 498 476 468 452 434 402
570.0 343 306 292 300 360 411 403 429 543 711
610.0 805 871 858 755 566 412 316 266 256 231
650.0 238 242 260 275 290 404 417 462 553 635
690.0 647 583 543 597 772 1249 2000 2677 2846 2063
730.0 947 533 401 321 294 268 277 267 278 308
770.0 341 377 409 422 417 403 324 243 229 220
810.0 193 175 191 194 194 200 210 221 251 302
850.0 386 413 381 362 455 629 695 586 474 457
890.0 453 433 415 376 360 374 381 417 450 497
930.0 520 544 542 558 584 589 557 498 461 433
970.0 437 458 481 492 479 467 466 497 530 583
1010.0 638 657 657 697 766 852 987 1106 1226 1348
1050.0 1472 1619 1838 2215 2697 3081 3098 2865 2576 2404
1090.0 2371 2428 2531 2573 2510 2296 2026 1764 1558 1370
1130.0 1186 1017 904 821 758 723 708 716 700 693
1170.0 726 742 731 703 647 579 554 583 665 754
1210.0 824 824 810 848 882 864 843 835 764 629
1250.0 532 495 462 444 434 455 537 634 770 910
1290.0 1073 1252 1511 1844 2187 2572 2919 3012 2755 2359
1330.0 2181 2524 3173 3736 4020 4114 4296 4404 4424 4460
1370.0 4544 4585 4330 3575 2531 1807 1429 1192 1005 818
1410.0 656 596 503 555 577 658 722 750 652 503
1450.0 444 442 469 582 715 870 786 618 434 294
1490.0 206 203 165 154 111 68 87 77 56 87
1530.0 84 89 81 57 67 103 99 80 108 143
1570.0 146 159 177 175 201 201 222 206 237 266
1610.0 327 344 297 275 229 251 220 248 255 250
1650.0 182 165 148 149 164 163 173 216 225 232
1690.0 320 391 476 615 815 1082 1336 1783 2362 3288
1730.0 4747 7220 9620 10000 9003 7069 4562 3078 2207 1947
1770.0 1866 1678 1456 1458 1723 1931 1798 1383 1000 707
1810.0 529 389 330 261 215 174 163 181 156 144
1850.0 130 140 120 122 119 109 137 132 124 96
1890.0 92 85 93 89 93 94 86 84 68 77
1930.0 76 90 100 101 101 90 75 64 74 66
1970.0 87 92 91 66 57 48 44 50 49 54
2010.0 49 51 48 53 55 58 65 61 67 69
2050.0 69 69 72 69 68 76 81 82 80 80
2090.0 73 78 75 78 76 78 75 73 71 66
2130.0 69 57 55 47 47 50 54 66 66 78
2170.0 80 82 81 84 81 75 74 66 65 56
2210.0 55 50 48 41 40 39 36 39 35 39
2250.0 37 43 40 45 43 44 44 44 43 46
2290.0 51 53 59 62 65 69 68 71 71 58
2330.0 48 57 47 58 58 56 67 51 61 32
2370.0 39 35 41 37 27 22 20 19 19 23
2410.0 17 21 19 20 23 22 25 29 31 29
2450.0 30 30 34 29 30 27 27 24 26 22
2490.0 20 21 20 26 22 23 24 22 22 25
2530.0 26 24 25 24 24 23 24 25 21 22
2570.0 23 21 22 24 22 24 26 25 23 23
2610.0 25 25 28 29 33 31 34 39 40 44
2650.0 41 44 41 44 46 47 45 45 47 45
2690.0 53 56 54 59 56 55 58 61 63 67
2730.0 71 79 78 81 81 81 79 81 84 86
2770.0 92 91 101 100 105 107 109 114 114 120
2810.0 123 132 134 142 148 155 173 186 208 235
2850.0 268 310 365 424 501 582 678 783 881 926
2890.0 901 899 902 869 849 866 912 952 961 962
2930.0 996 1055 1133 1162 1166 1168 1206 1330 1543 1753
2970.0 1764 1606 1388 1193 1024 839 654 491 349 254
3010.0 210 189 173 141 133 130 130 134 145 163
3050.0 184 223 259 298 311 283 248 253 288 348
3090.0 372 335 247 165 123 99 89 86 86 87
3130.0 73 64 55 54 47 47 45 45 45 45
3170.0 46 42 48 37 37 39 41 40 42 41
3210.0 40 43 41 37 36 32 32 25 29 27
3250.0 26 17 22 19 21 22 27 22 18 27
3290.0 19 23 17 22 20 25 26 23 29 26
3330.0 31 27 28 27 36 27 27 31 23 27
3370.0 29 32 26 30 26 29 26 32 26 24
3410.0 27 22 21 25 31 34 31 28 26 32
3450.0 34 44 54 70 93 116 126 131 125 102
3490.0 86 69 72 88 105 111 116 115 91 84
3530.0 70 67 58 51 46 43 42 34 33 23
3570.0 25 27 33 32 35 30 35 27 34 35
3610.0 30 30 22 26 29 40 36 39 44 49
3650.0 50 46 63 55 63 60 61 73 62 54
3690.0 58 44 28 27 25 48 25 27 31 27
3730.0 25 27 33 30 35 36 41 27 28 32
3770.0 30 25 30 24 18 30 31 31 34 36
3810.0 21 31 28 40 39 28 33 33 37 34
3850.0 30 29 42 25 35 43 32 23 37 30
3890.0 34 26 28 40 37 45 49 52 33 29
3930.0 33 49 34 47 28 34 40 49 41 29
##END=
