##TITLE=2-Bromononane
##JCAMP-DX=4.24
##DATA TYPE=INFRARED SPECTRUM
##ORIGIN=Sadtler Research Labs Under US-EPA Contract
##OWNER=NIST Standard Reference Data Program
##CAS REGISTRY NO=2216-35-5
##MOLFORM=C 9 H 19 Br
##XUNITS=1/CM
##YUNITS=ABSORBANCE
##XFACTOR=1.0
##YFACTOR=0.000115805
##DELTAX=4.0
##FIRSTX=450.0
##LASTX=3966.0
##FIRSTY=0.020497
##MAXX=3966
##MINX=450
##MAXY=1.15805
##MINY=0
##NPOINTS=880
##XYDATA=(X++(Y..Y))
450.0 177 131 171 119 23 12 90 70 21 104
490.0 49 104 212 148 151 143 152 158 209 257
530.0 370 358 292 303 532 440 405 352 147 44
570.0 143 143 109 205 155 106 152 110 139 118
610.0 181 238 276 386 461 366 194 139 101 104
650.0 64 43 82 72 44 50 75 105 89 62
690.0 36 76 112 73 146 149 206 276 252 217
730.0 262 218 209 190 227 213 221 201 175 195
770.0 188 167 180 191 172 130 141 139 146 149
810.0 126 121 138 152 128 145 135 114 139 133
850.0 114 158 135 155 158 179 165 167 201 191
890.0 217 196 225 190 188 199 165 137 132 127
930.0 120 133 132 110 144 131 131 145 169 163
970.0 183 221 235 258 238 269 283 275 259 252
1010.0 271 252 252 250 205 174 187 169 140 146
1050.0 139 172 168 183 179 186 196 198 170 165
1090.0 167 168 160 192 166 179 182 226 270 304
1130.0 364 420 460 496 476 433 399 383 384 430
1170.0 512 532 545 519 531 528 577 581 633 663
1210.0 672 701 704 710 709 692 643 593 553 539
1250.0 539 546 540 502 457 424 397 387 381 402
1290.0 407 414 407 392 390 359 324 295 275 249
1330.0 251 245 269 285 311 331 350 366 363 379
1370.0 419 499 674 880 934 699 449 294 221 193
1410.0 178 180 192 221 265 349 430 541 679 828
1450.0 1015 1162 1281 1346 1288 1133 905 647 436 297
1490.0 219 171 141 125 111 98 90 89 81 77
1530.0 65 60 64 61 51 47 54 50 51 42
1570.0 41 43 38 36 35 34 35 31 33 34
1610.0 37 35 38 39 32 38 35 39 28 35
1650.0 40 39 40 30 34 34 32 33 34 41
1690.0 37 32 38 38 33 28 32 32 23 21
1730.0 27 25 21 23 22 22 23 22 21 20
1770.0 17 22 14 17 15 17 17 16 12 15
1810.0 12 12 12 13 13 10 9 11 8 12
1850.0 9 8 11 10 10 12 8 11 8 10
1890.0 10 11 10 10 9 11 9 9 11 8
1930.0 8 7 7 9 8 10 9 10 11 10
1970.0 13 13 12 10 9 12 12 12 9 11
2010.0 10 7 8 7 14 12 13 12 10 12
2050.0 11 9 10 7 6 7 7 6 5 3
2090.0 0 0 1 1 0 4 1 1 0 2
2130.0 1 2 4 3 4 7 6 5 4 7
2170.0 5 8 8 7 7 7 6 7 10 7
2210.0 7 7 8 9 7 7 5 6 5 7
2250.0 5 6 8 5 7 5 6 7 5 4
2290.0 0 0 2 2 4 1 6 9 6 13
2330.0 2 2 4 2 0 8 14 17 0 0
2370.0 2 0 0 0 5 8 9 11 11 10
2410.0 12 12 9 13 16 16 13 14 10 13
2450.0 14 13 14 11 14 13 10 13 15 16
2490.0 18 17 21 21 18 21 22 26 23 25
2530.0 28 29 29 31 33 34 37 36 39 41
2570.0 42 42 46 48 47 50 51 51 55 56
2610.0 56 54 52 55 62 61 64 64 61 63
2650.0 63 68 72 71 79 80 84 88 87 85
2690.0 90 89 89 87 88 88 86 89 92 92
2730.0 100 113 126 141 145 139 130 119 113 115
2770.0 112 116 119 128 140 154 174 193 211 228
2810.0 248 275 311 355 410 485 587 720 885 1085
2850.0 1382 1874 2593 3368 3899 4000 3719 3371 3158 3031
2890.0 2817 2575 2478 2567 2785 3139 3673 4493 5780 7491
2930.0 9197 10000 9789 8870 7585 6219 5147 4680 4863 5471
2970.0 6026 5794 4646 3268 2377 2108 2079 1795 1257 823
3010.0 576 451 383 332 294 262 236 212 187 176
3050.0 164 148 137 127 122 118 113 106 108 100
3090.0 98 99 92 89 84 74 74 76 71 69
3130.0 69 67 67 69 63 68 68 70 66 64
3170.0 68 66 62 64 66 64 62 65 61 59
3210.0 60 56 55 46 42 43 35 35 32 30
3250.0 30 26 20 24 28 27 23 24 20 16
3290.0 12 5 11 8 10 9 2 0 1 8
3330.0 6 6 8 9 5 11 18 10 10 3
3370.0 13 15 14 16 13 12 8 13 7 10
3410.0 11 14 15 14 11 12 11 7 13 9
3450.0 8 11 15 11 11 17 11 19 12 12
3490.0 13 11 6 15 7 9 13 14 13 12
3530.0 16 15 15 13 9 16 17 16 14 11
3570.0 15 12 13 15 19 21 26 20 19 26
3610.0 30 15 13 14 25 25 16 20 16 20
3650.0 23 21 23 18 20 27 17 12 19 23
3690.0 16 23 14 15 14 18 22 24 14 11
3730.0 15 5 15 22 16 22 20 17 20 26
3770.0 18 26 29 26 22 18 32 37 21 26
3810.0 32 26 25 24 29 21 27 32 30 19
3850.0 17 39 18 31 30 26 31 23 44 36
3890.0 24 16 40 24 28 28 22 12 51 30
3930.0 41 31 29 34 25 30 26 47 15 20
##END=
