##TITLE=Naphthalene, 1-methoxy-
##JCAMP-DX=4.24
##DATA TYPE=INFRARED SPECTRUM
##ORIGIN=Sadtler Research Labs Under US-EPA Contract
##OWNER=NIST Standard Reference Data Program
##CAS REGISTRY NO=2216-69-5
##MOLFORM=C 11 H 10 O
##XUNITS=1/CM
##YUNITS=ABSORBANCE
##XFACTOR=1.0
##YFACTOR=0.000094949
##DELTAX=4.0
##FIRSTX=450.0
##LASTX=3966.0
##FIRSTY=0.031238
##MAXX=3966
##MINX=450
##MAXY=0.94949
##MINY=0
##NPOINTS=880
##XYDATA=(X++(Y..Y))
450.0 329 286 80 215 208 39 198 211 442 244
490.0 395 213 132 85 89 58 3 125 23 99
530.0 34 147 69 85 116 108 199 328 486 538
570.0 901 772 680 528 383 331 464 367 346 383
610.0 304 198 142 97 104 108 142 131 130 105
650.0 88 76 59 67 43 62 52 52 54 72
690.0 103 141 253 468 863 1140 1295 1257 1014 638
730.0 395 303 305 372 590 1278 2662 4588 6055 10000
770.0 9651 6664 6162 4294 4214 4575 3576 2667 1859 1113
810.0 615 301 211 141 166 166 196 219 223 252
850.0 308 359 396 404 403 342 232 177 155 121
890.0 108 97 97 95 98 99 106 110 120 130
930.0 146 153 166 181 246 279 356 427 363 295
970.0 297 278 318 407 614 834 976 1032 1030 1091
1010.0 1461 2040 2278 2208 1868 1220 776 646 656 719
1050.0 846 1038 1321 1754 2032 2036 1880 1622 1325 1519
1090.0 2190 3329 5222 7327 8465 7875 6819 3815 1592 871
1130.0 612 510 557 585 792 1366 2122 2393 2557 2645
1170.0 2167 1823 1710 1395 1051 868 806 782 863 1015
1210.0 1238 1375 1494 1711 2172 3498 5466 7007 7125 6601
1250.0 5120 4219 5286 7387 8904 9071 7994 5337 3151 1861
1290.0 1245 990 894 851 776 687 603 493 364 295
1330.0 245 279 341 438 550 624 688 642 665 666
1370.0 752 976 1589 2716 4113 6256 8251 9097 7985 6654
1410.0 4188 2342 1511 1318 1155 1224 1364 1827 2174 2344
1450.0 2405 2355 3075 4026 4517 4464 3629 2302 1353 869
1490.0 803 951 1378 2049 2542 2841 2744 2310 1483 814
1530.0 500 317 254 188 211 231 404 482 1050 1664
1570.0 2622 3522 4613 5702 5462 5562 4579 3465 2483 1818
1610.0 1232 886 733 797 912 1010 1027 925 765 523
1650.0 371 262 205 195 175 189 216 281 284 277
1690.0 269 224 164 182 238 338 383 379 383 323
1730.0 235 167 178 178 167 166 210 205 196 171
1770.0 137 90 75 69 91 117 149 173 170 180
1810.0 186 220 288 325 329 302 265 213 161 120
1850.0 90 68 35 27 16 8 19 32 50 80
1890.0 137 219 315 356 360 351 295 255 231 233
1930.0 218 200 213 232 251 254 239 195 156 129
1970.0 124 124 126 122 114 92 80 60 47 33
2010.0 27 17 16 21 19 21 21 25 30 36
2050.0 41 58 71 74 75 73 74 71 84 108
2090.0 140 178 203 205 183 146 101 71 57 58
2130.0 51 40 28 14 10 11 17 25 33 41
2170.0 46 51 49 41 28 13 5 0 2 6
2210.0 15 24 32 33 33 34 35 33 33 31
2250.0 33 40 48 54 52 46 39 38 40 40
2290.0 44 41 34 34 27 27 28 24 25 23
2330.0 26 19 18 13 11 8 2 0 9 10
2370.0 6 16 3 3 0 0 0 0 7 13
2410.0 21 30 38 39 34 28 25 23 15 14
2450.0 15 17 22 25 25 30 36 34 41 44
2490.0 40 41 47 54 55 58 50 46 39 41
2530.0 42 41 43 41 36 31 27 23 23 22
2570.0 28 28 31 43 43 46 48 49 55 57
2610.0 58 58 54 50 48 43 51 54 58 57
2650.0 60 57 55 48 44 40 33 32 28 28
2690.0 28 31 31 30 34 40 43 48 50 51
2730.0 55 49 51 44 43 40 36 34 39 47
2770.0 52 59 76 84 100 117 126 141 149 163
2810.0 198 238 303 399 559 778 994 1170 1302 1403
2850.0 1493 1560 1576 1481 1227 943 740 603 547 558
2890.0 613 700 818 946 1079 1200 1352 1534 1592 1538
2930.0 1497 1509 1846 2533 3144 3472 3505 3182 2811 2204
2970.0 1713 1386 1095 927 875 948 1154 1532 2085 2479
3010.0 2464 2366 1950 1382 1110 1019 1064 1202 1466 1923
3050.0 2727 3904 4942 5493 5513 4856 3874 3050 2498 2189
3090.0 1993 1862 1730 1487 1186 861 558 331 207 142
3130.0 108 92 76 72 56 62 54 55 59 67
3170.0 75 74 79 68 66 60 57 46 42 43
3210.0 50 56 59 65 67 68 56 44 35 25
3250.0 17 11 11 8 0 5 14 9 11 16
3290.0 14 8 5 6 11 10 10 9 9 13
3330.0 14 10 15 7 8 6 7 11 11 13
3370.0 15 9 7 9 16 14 13 22 10 9
3410.0 11 11 8 7 16 14 22 9 15 14
3450.0 8 10 5 5 0 8 7 14 3 11
3490.0 10 11 5 10 11 17 24 25 19 10
3530.0 17 23 17 19 15 9 22 19 22 11
3570.0 13 33 25 27 24 32 26 19 30 22
3610.0 22 27 25 35 32 50 43 71 126 194
3650.0 231 221 215 149 81 38 36 27 24 15
3690.0 23 26 16 18 11 13 13 17 10 24
3730.0 16 17 25 22 11 16 25 8 14 6
3770.0 15 9 11 14 0 2 2 3 3 9
3810.0 7 2 26 10 8 0 7 17 11 28
3850.0 28 26 33 25 15 23 1 10 5 9
3890.0 2 13 11 6 15 8 14 17 23 25
3930.0 18 26 27 26 11 27 35 23 23 41
##END=
