##TITLE=Benzene, 1-nitro-2-phenoxy-
##JCAMP-DX=4.24
##DATA TYPE=INFRARED SPECTRUM
##ORIGIN=Sadtler Research Labs Under US-EPA Contract
##OWNER=NIST Standard Reference Data Program
##CAS REGISTRY NO=2216-12-8
##MOLFORM=C 12 H 9 N O 3
##XUNITS=1/CM
##YUNITS=ABSORBANCE
##XFACTOR=1.0
##YFACTOR=0.000125256
##DELTAX=4.0
##FIRSTX=450.0
##LASTX=3966.0
##FIRSTY=0.029560
##MAXX=3966
##MINX=450
##MAXY=1.25256
##MINY=0
##NPOINTS=880
##XYDATA=(X++(Y..Y))
450.0 236 127 69 252 158 252 212 337 424 512
490.0 493 410 349 305 180 69 158 101 98 70
530.0 33 43 15 22 6 1 33 6 16 71
570.0 44 17 6 24 35 24 28 48 38 36
610.0 39 40 57 51 67 46 70 72 90 136
650.0 220 388 584 738 746 648 513 542 800 1113
690.0 1290 1222 979 759 624 540 484 461 492 584
730.0 849 1345 2001 2799 3161 2949 2460 1869 1495 1401
770.0 1372 1230 1015 884 828 810 741 653 520 401
810.0 332 292 281 254 308 510 995 1635 1841 1584
850.0 936 428 256 248 302 460 871 1613 2010 1846
890.0 1230 596 337 250 185 150 112 82 60 55
930.0 50 52 65 71 78 57 38 20 18 27
970.0 29 60 58 38 42 36 37 48 71 90
1010.0 110 163 311 453 484 440 372 337 286 184
1050.0 111 85 120 191 270 344 367 384 475 584
1090.0 614 543 388 270 206 160 130 111 109 119
1130.0 146 173 207 238 297 402 725 1237 1547 1491
1170.0 1092 706 651 787 1089 1655 2372 2771 2570 1838
1210.0 1197 1001 1058 1247 1574 2122 3055 4610 6826 8986
1250.0 10000 9291 7831 6834 6273 5516 4283 2998 2124 1613
1290.0 1327 1173 1071 998 936 914 934 975 998 999
1330.0 1008 1067 1265 1610 2195 3014 3843 4258 3993 3062
1370.0 1964 1169 747 539 452 383 345 320 288 272
1410.0 279 279 317 308 311 317 360 432 563 782
1450.0 1036 1221 1393 1522 1774 2289 3300 4989 6919 8652
1490.0 8713 7052 4833 2986 2060 1869 1858 1980 2168 2440
1530.0 2872 3514 4479 5631 6657 6897 6127 4841 3671 3001
1570.0 2809 3027 3609 4662 5919 6999 6692 5300 3629 2612
1610.0 2030 1599 1227 904 726 586 514 442 366 318
1650.0 287 244 195 170 156 159 164 150 165 157
1690.0 141 127 150 150 144 128 140 154 122 108
1730.0 113 130 102 103 104 108 94 97 108 113
1770.0 142 151 137 129 119 109 116 101 107 92
1810.0 93 90 81 86 86 99 101 104 118 126
1850.0 115 105 102 101 105 110 103 100 107 107
1890.0 107 99 93 103 120 145 169 181 194 181
1930.0 168 159 154 166 180 178 155 119 86 67
1970.0 54 46 50 55 56 66 67 68 69 63
2010.0 56 55 54 53 56 66 78 94 103 110
2050.0 105 90 74 61 58 55 57 61 64 63
2090.0 56 45 37 32 30 30 26 25 26 28
2130.0 30 28 31 37 36 33 30 29 28 24
2170.0 24 24 18 15 15 15 13 17 13 13
2210.0 13 17 19 21 26 28 31 32 32 29
2250.0 22 19 19 19 22 24 27 30 31 32
2290.0 28 22 24 23 34 36 42 49 53 57
2330.0 46 42 37 50 30 56 42 63 37 33
2370.0 29 41 52 65 73 77 76 72 71 67
2410.0 64 62 62 61 63 69 74 90 97 101
2450.0 96 85 82 72 65 60 59 59 58 61
2490.0 63 61 57 50 48 45 41 38 37 35
2530.0 31 28 23 27 28 28 35 41 40 42
2570.0 36 34 29 28 22 19 22 20 14 14
2610.0 18 26 28 31 35 35 37 35 29 23
2650.0 27 36 52 52 57 53 48 41 36 32
2690.0 34 39 36 37 38 38 35 32 29 28
2730.0 31 30 32 27 34 32 27 23 22 18
2770.0 14 11 5 8 1 0 3 10 10 18
2810.0 23 27 34 33 34 38 48 49 59 67
2850.0 72 75 81 86 90 101 99 107 118 124
2890.0 134 137 141 138 132 120 102 92 94 87
2930.0 86 85 83 82 75 61 62 52 50 43
2970.0 40 45 33 38 44 43 45 54 55 69
3010.0 88 118 152 196 238 295 364 446 535 615
3050.0 650 628 584 580 619 696 835 1023 1166 1191
3090.0 1048 830 622 469 353 251 179 122 91 75
3130.0 57 50 45 38 41 38 40 38 35 37
3170.0 38 46 49 37 39 46 47 43 46 33
3210.0 30 40 41 41 32 34 38 34 43 40
3250.0 36 37 35 34 36 35 31 42 29 34
3290.0 27 31 32 46 42 44 37 51 49 53
3330.0 49 47 55 55 54 53 53 62 69 71
3370.0 67 74 80 65 73 72 52 52 59 53
3410.0 50 51 58 50 31 41 33 32 37 40
3450.0 48 41 34 45 39 42 40 35 48 46
3490.0 43 47 47 46 46 46 37 34 28 42
3530.0 38 34 34 38 30 26 29 19 29 23
3570.0 28 19 30 28 29 24 36 28 24 7
3610.0 25 22 13 9 11 5 20 25 32 20
3650.0 1 28 37 23 28 22 28 12 36 32
3690.0 26 33 25 28 37 23 32 28 26 24
3730.0 12 18 21 41 34 20 35 43 36 41
3770.0 37 22 33 34 34 34 29 26 36 24
3810.0 41 46 40 57 67 35 46 42 41 52
3850.0 28 33 52 12 48 30 38 23 43 45
3890.0 54 57 50 51 49 41 32 52 47 53
3930.0 75 68 73 33 46 62 98 79 112 43
##END=
