##TITLE=Ethyl N,N-dibutylcarbamate
##JCAMP-DX=4.24
##DATA TYPE=INFRARED SPECTRUM
##ORIGIN=Sadtler Research Labs Under US-EPA Contract
##OWNER=NIST Standard Reference Data Program
##CAS REGISTRY NO=2217-88-1
##MOLFORM=C 11 H 23 N O 2
##XUNITS=1/CM
##YUNITS=ABSORBANCE
##XFACTOR=1.0
##YFACTOR=0.000149139
##DELTAX=4.0
##FIRSTX=450.0
##LASTX=3966.0
##FIRSTY=0.030574
##MAXX=3966
##MINX=450
##MAXY=1.49139
##MINY=0
##NPOINTS=880
##XYDATA=(X++(Y..Y))
450.0 205 92 60 68 85 60 9 28 37 50
490.0 27 47 66 48 64 42 33 18 15 25
530.0 16 21 13 25 9 32 34 42 43 39
570.0 50 42 48 42 31 50 42 42 23 22
610.0 22 25 18 21 22 23 22 30 26 25
650.0 41 44 49 26 30 3 9 12 0 5
690.0 5 1 10 22 10 10 19 25 35 45
730.0 73 97 116 148 184 195 189 171 187 275
770.0 414 515 494 389 286 202 162 131 123 101
810.0 83 79 79 71 72 71 65 69 71 71
850.0 73 74 68 61 63 71 88 114 153 191
890.0 217 232 225 211 177 138 94 70 62 73
930.0 97 134 172 198 196 169 130 100 85 81
970.0 84 82 78 73 71 84 90 107 126 158
1010.0 212 299 412 504 522 454 360 303 327 416
1050.0 529 619 658 647 615 612 678 820 969 1075
1090.0 1137 1238 1383 1449 1343 1112 878 696 547 450
1130.0 421 456 560 756 1070 1507 1999 2402 2563 2419
1170.0 2081 1678 1308 1036 909 910 974 1039 1090 1192
1210.0 1484 2112 3012 3781 3934 3345 2486 1827 1475 1361
1250.0 1389 1464 1505 1464 1382 1328 1294 1302 1383 1561
1290.0 1770 1899 1865 1722 1512 1300 1130 1012 903 780
1330.0 653 569 564 564 580 631 688 731 769 810
1370.0 913 1088 1261 1432 1548 1438 1177 937 831 942
1410.0 1248 1706 2288 2546 2411 1894 1425 1121 1007 1015
1450.0 1077 1170 1313 1454 1695 1992 2186 2066 1657 1264
1490.0 929 658 519 410 387 361 290 264 263 204
1530.0 196 180 199 238 216 177 169 196 146 106
1570.0 106 98 86 85 62 73 64 73 64 72
1610.0 72 73 105 84 113 85 122 128 118 128
1650.0 175 172 151 154 183 225 302 320 390 423
1690.0 424 501 685 958 1455 2567 4804 8043 10000 9233
1730.0 5806 2894 1463 937 724 627 525 439 372 297
1770.0 277 241 192 171 153 147 145 128 129 100
1810.0 92 88 68 70 65 66 48 35 46 52
1850.0 35 18 22 21 28 37 17 13 14 16
1890.0 20 19 13 16 15 18 19 21 28 15
1930.0 15 16 16 28 26 19 20 20 18 23
1970.0 19 17 15 15 12 20 20 14 13 12
2010.0 15 17 21 19 17 17 16 19 20 17
2050.0 15 16 16 15 18 16 18 16 14 16
2090.0 17 14 12 12 11 9 9 8 9 8
2130.0 6 7 4 5 2 4 2 4 3 4
2170.0 3 4 5 5 7 5 6 5 4 3
2210.0 5 4 2 4 2 3 4 8 6 9
2250.0 8 11 9 9 8 7 8 9 9 10
2290.0 13 12 17 15 18 20 15 11 8 7
2330.0 3 1 0 6 2 20 7 12 0 5
2370.0 1 11 16 17 16 11 8 9 7 7
2410.0 6 3 4 4 2 0 1 2 1 1
2450.0 3 4 3 3 4 4 4 4 5 2
2490.0 5 4 4 4 7 7 8 8 8 7
2530.0 9 7 6 8 7 8 10 10 11 13
2570.0 15 13 12 14 13 14 14 13 12 14
2610.0 15 12 14 17 17 17 18 20 20 20
2650.0 20 21 24 26 28 29 32 35 37 38
2690.0 39 39 43 41 44 46 47 51 55 57
2730.0 60 63 66 70 75 74 69 65 64 63
2770.0 65 67 70 74 78 84 92 102 110 121
2810.0 131 140 148 157 169 184 207 229 260 298
2850.0 349 434 566 761 1028 1322 1509 1603 1702 1739
2890.0 1598 1340 1163 1155 1265 1437 1615 1775 1933 2113
2930.0 2360 2669 3020 3230 3132 2799 2487 2524 3055 3866
2970.0 4369 4025 3144 2387 1965 1688 1400 1142 926 744
3010.0 590 472 386 326 283 252 225 198 176 155
3050.0 137 121 107 95 89 84 81 77 75 75
3090.0 70 67 63 61 60 58 56 51 51 48
3130.0 50 51 54 53 56 53 51 49 44 45
3170.0 43 42 39 39 40 40 41 39 35 31
3210.0 29 23 22 19 21 18 17 17 16 13
3250.0 14 11 11 13 11 11 12 6 10 12
3290.0 14 11 12 9 10 11 10 13 14 13
3330.0 13 11 14 16 15 12 14 11 16 11
3370.0 13 13 15 12 16 15 12 15 16 15
3410.0 18 22 27 33 34 33 28 19 11 13
3450.0 5 6 9 12 11 12 15 12 13 10
3490.0 6 10 11 9 5 7 9 8 4 5
3530.0 10 10 9 4 5 7 5 9 8 13
3570.0 10 13 14 13 14 12 9 6 7 6
3610.0 3 0 5 5 6 8 8 7 12 12
3650.0 14 9 12 14 12 8 9 8 14 12
3690.0 10 10 13 11 5 12 10 13 6 8
3730.0 5 10 8 8 19 4 17 15 8 16
3770.0 16 9 14 19 14 14 17 12 6 11
3810.0 17 16 19 12 9 15 13 24 21 15
3850.0 13 19 22 11 11 9 15 20 12 19
3890.0 14 6 10 17 12 16 15 17 19 4
3930.0 10 13 11 9 8 17 20 14 9 13
##END=
