##TITLE=Malonic acid, piperonyl-, diethyl ester
##JCAMP-DX=4.24
##DATA TYPE=INFRARED SPECTRUM
##ORIGIN=Sadtler Research Labs Under US-EPA Contract
##OWNER=NIST Standard Reference Data Program
##CAS REGISTRY NO=22180-30-9
##MOLFORM=C 15 H 18 O 6
##XUNITS=1/CM
##YUNITS=ABSORBANCE
##XFACTOR=1.0
##YFACTOR=0.000052469
##DELTAX=4.0
##FIRSTX=450.0
##LASTX=3966.0
##FIRSTY=0.012173
##MAXX=3966
##MINX=450
##MAXY=0.52469
##MINY=0
##NPOINTS=880
##XYDATA=(X++(Y..Y))
450.0 232 350 312 373 203 257 189 235 283 252
490.0 285 315 346 452 617 604 484 288 120 118
530.0 67 29 37 44 75 80 73 102 96 160
570.0 174 231 243 262 307 317 329 386 424 438
610.0 391 353 335 389 458 545 563 520 418 326
650.0 277 247 242 157 272 344 269 258 308 312
690.0 370 345 358 326 323 316 340 368 392 395
730.0 325 315 305 342 363 364 371 416 464 536
770.0 594 633 717 796 930 1093 1335 1702 2112 2320
810.0 2219 1791 1330 1019 869 813 784 809 886 1038
850.0 1316 1635 1826 1760 1525 1212 972 844 802 742
890.0 686 647 672 713 795 944 1163 1515 1972 2136
930.0 1995 2024 2061 1899 1730 1547 1310 1087 975 907
970.0 888 922 949 986 1037 1123 1238 1383 1575 1841
1010.0 2148 2480 2814 3201 3720 4318 5008 5625 5961 5896
1050.0 5472 4857 4206 3610 3113 2695 2379 2181 2134 2287
1090.0 2633 3085 3327 3178 2910 2779 2847 3073 3366 3594
1130.0 3886 4417 5103 5752 6157 6225 6051 5756 5483 5244
1170.0 5098 5034 5063 5235 5601 5980 5980 5634 5384 5418
1210.0 5678 6069 6488 6873 7138 7300 7519 8104 9153 10000
1250.0 9554 7867 6192 5167 4612 4306 4110 3972 3767 3416
1290.0 3049 2755 2571 2410 2252 2120 2094 2191 2390 2656
1330.0 2911 3028 2874 2499 2096 1856 1817 1964 2270 2740
1370.0 2975 2528 1857 1404 1239 1198 1201 1113 990 904
1410.0 885 941 1009 1181 1425 1838 2412 3256 4170 4508
1450.0 3703 2573 1921 1787 1909 2052 2311 2805 3747 5345
1490.0 6825 6626 4695 3681 3351 2355 1321 683 461 383
1530.0 329 295 204 165 117 122 87 93 80 105
1570.0 115 147 145 187 210 244 286 359 440 515
1610.0 497 413 335 331 324 343 312 299 314 309
1650.0 329 353 367 433 454 498 555 645 718 840
1690.0 976 1142 1300 1498 1719 2016 2393 2872 3508 4158
1730.0 4799 5220 5599 6136 7236 8118 8071 7144 6221 5415
1770.0 4315 3000 1957 1326 935 706 521 434 340 284
1810.0 228 198 167 161 158 143 160 149 147 118
1850.0 123 115 111 101 97 86 79 77 64 56
1890.0 41 41 28 17 14 16 11 6 5 4
1930.0 1 0 1 2 2 6 3 7 10 10
1970.0 5 10 8 19 18 26 32 40 45 59
2010.0 61 58 71 71 75 78 75 78 76 82
2050.0 71 70 63 59 55 54 49 45 42 40
2090.0 41 35 30 18 23 18 18 18 21 16
2130.0 18 19 18 18 12 14 13 12 10 11
2170.0 12 13 13 14 19 24 25 24 25 20
2210.0 24 27 28 24 29 32 32 34 36 38
2250.0 40 36 38 44 44 45 56 68 90 120
2290.0 154 189 237 263 285 305 271 226 211 152
2330.0 127 83 72 179 144 281 200 190 222 203
2370.0 169 211 234 250 181 105 69 58 63 63
2410.0 50 44 52 45 49 47 51 49 51 50
2450.0 51 44 44 50 43 46 45 43 39 40
2490.0 33 41 41 31 37 33 44 45 54 59
2530.0 67 70 79 78 69 70 68 67 65 68
2570.0 68 69 70 69 75 77 83 90 90 94
2610.0 91 85 82 63 64 55 53 59 60 53
2650.0 56 62 63 68 77 82 89 88 99 99
2690.0 105 102 100 111 110 113 115 124 133 141
2730.0 150 162 168 177 187 203 229 266 316 381
2770.0 492 591 591 472 353 296 281 272 284 300
2810.0 321 341 368 404 434 479 528 589 652 717
2850.0 795 891 1027 1186 1371 1580 1771 1898 1960 1960
2890.0 1937 1902 1891 1920 1939 1964 1943 1926 1921 1969
2930.0 2063 2193 2325 2387 2359 2241 2128 2090 2154 2261
2970.0 2391 2535 2755 3057 3255 3093 2617 2211 1912 1655
3010.0 1451 1271 1142 1021 882 775 697 643 582 521
3050.0 459 416 384 371 363 356 350 342 322 274
3090.0 233 209 200 187 174 171 160 150 142 133
3130.0 126 116 114 105 99 95 89 84 83 83
3170.0 79 76 73 73 70 63 62 68 58 57
3210.0 66 63 60 63 60 56 52 58 62 55
3250.0 46 53 48 54 43 35 47 41 46 51
3290.0 46 47 48 34 43 49 44 51 50 52
3330.0 46 46 53 50 61 70 51 58 49 43
3370.0 61 44 46 56 56 52 50 54 53 62
3410.0 60 60 57 72 69 93 89 86 91 109
3450.0 98 123 131 130 124 115 119 108 109 102
3490.0 84 90 83 85 65 69 64 49 59 47
3530.0 57 53 53 47 50 47 44 55 50 39
3570.0 47 55 74 47 54 47 44 35 43 57
3610.0 34 25 46 44 60 35 79 61 68 71
3650.0 55 64 76 69 96 50 84 46 91 77
3690.0 81 64 96 73 56 58 42 41 47 41
3730.0 66 41 65 74 27 62 10 47 56 65
3770.0 53 49 52 42 60 52 55 40 67 32
3810.0 76 55 62 57 49 68 66 48 48 91
3850.0 77 51 60 68 57 33 34 43 47 38
3890.0 96 58 57 22 72 70 74 13 45 73
3930.0 49 85 110 97 82 89 68 89 53 74
##END=
