##TITLE=Phenol, 2-(1,1-dimethylethyl)-6-methyl-
##JCAMP-DX=4.24
##DATA TYPE=INFRARED SPECTRUM
##ORIGIN=Sadtler Research Labs Under US-EPA Contract
##OWNER=NIST Standard Reference Data Program
##CAS REGISTRY NO=2219-82-1
##MOLFORM=C 11 H 16 O
##XUNITS=1/CM
##YUNITS=ABSORBANCE
##XFACTOR=1.0
##YFACTOR=0.000060901
##DELTAX=4.0
##FIRSTX=450.0
##LASTX=3966.0
##FIRSTY=0.004202
##MAXX=3966
##MINX=450
##MAXY=0.60901
##MINY=0
##NPOINTS=880
##XYDATA=(X++(Y..Y))
450.0 69 63 92 85 85 82 144 174 236 270
490.0 240 351 283 146 39 73 142 227 193 212
530.0 181 145 142 120 149 127 277 331 395 362
570.0 461 474 286 125 78 0 55 37 36 27
610.0 55 24 52 92 117 178 221 210 207 131
650.0 113 89 87 68 95 35 47 64 66 81
690.0 75 72 86 69 92 109 162 232 434 796
730.0 1425 2230 3066 3930 2991 2029 1309 760 673 996
770.0 1418 2033 2190 1643 1360 912 618 349 232 144
810.0 139 178 221 356 596 874 1012 961 822 485
850.0 253 133 84 107 137 182 271 400 617 778
890.0 800 722 504 310 205 183 168 196 235 275
930.0 312 295 271 228 172 145 164 162 141 142
970.0 150 146 153 194 166 197 222 255 264 275
1010.0 272 278 280 296 281 269 238 224 199 190
1050.0 172 175 211 247 360 511 670 832 1015 1246
1090.0 1611 2005 2097 1988 1652 1175 876 827 941 1202
1130.0 1619 2014 2116 1942 1541 1094 890 949 1218 1574
1170.0 1904 2241 2384 2667 3244 4198 5468 6552 7170 6955
1210.0 5842 4478 3130 2311 1990 1903 1820 1713 1539 1362
1250.0 1279 1346 1599 2096 2737 3218 3114 2410 1641 1128
1290.0 896 860 970 1168 1424 1611 1714 1782 1732 1535
1330.0 1265 935 588 367 316 387 586 919 1378 1885
1370.0 1980 1863 1529 1228 1104 1181 1298 1284 1204 1023
1410.0 866 1033 1495 2399 3555 4719 5289 5371 4837 4000
1450.0 3363 3171 3199 3067 2978 2722 2480 2381 2490 2478
1490.0 2276 1774 1146 659 553 347 301 307 278 254
1530.0 187 258 226 234 179 227 232 265 162 169
1570.0 209 195 287 324 469 544 616 585 520 417
1610.0 359 312 297 262 237 276 270 250 195 196
1650.0 121 194 127 227 256 345 280 236 181 176
1690.0 138 147 144 137 102 69 77 102 45 78
1730.0 68 87 36 56 39 61 42 61 80 70
1770.0 90 110 118 144 151 138 143 89 79 77
1810.0 82 69 82 64 82 89 114 183 229 283
1850.0 240 195 114 56 39 65 38 49 52 58
1890.0 63 77 120 167 201 202 183 140 93 58
1930.0 48 36 26 29 22 21 24 24 18 29
1970.0 23 26 26 34 30 32 39 24 23 24
2010.0 26 22 20 40 43 49 51 56 38 39
2050.0 25 30 34 40 46 49 42 50 42 32
2090.0 15 17 17 13 13 14 10 16 18 24
2130.0 17 24 24 32 27 33 33 38 41 36
2170.0 24 27 26 24 32 25 31 24 23 21
2210.0 18 28 28 31 32 32 23 23 23 15
2250.0 22 30 41 36 50 44 34 42 34 36
2290.0 25 28 30 27 23 15 22 34 35 29
2330.0 22 9 18 6 24 31 41 61 24 5
2370.0 5 7 15 37 48 64 78 71 80 70
2410.0 71 72 72 70 73 79 69 85 77 87
2450.0 87 78 79 54 55 43 47 46 41 36
2490.0 33 36 35 31 36 38 45 38 29 22
2530.0 17 10 5 5 13 19 28 37 29 37
2570.0 45 45 52 52 55 53 49 45 52 36
2610.0 31 37 37 38 37 44 54 62 60 53
2650.0 48 41 43 38 45 54 53 62 53 62
2690.0 64 52 57 64 77 86 108 111 134 151
2730.0 143 142 152 179 185 194 181 159 138 122
2770.0 108 117 118 135 159 160 167 170 166 179
2810.0 192 208 252 265 295 312 339 380 422 509
2850.0 641 850 1149 1557 2114 2727 3283 3672 3795 3695
2890.0 3544 3409 3344 3386 3537 3803 4181 4588 4914 5065
2930.0 5004 4842 4682 4659 4947 5617 6639 7879 9019 9793
2970.0 10000 9543 8204 6186 4411 3111 2285 1883 1847 1878
3010.0 1809 1707 1456 1236 1102 1082 1127 1208 1337 1440
3050.0 1510 1552 1553 1569 1544 1428 1256 1096 972 994
3090.0 1076 1118 1084 930 713 485 317 229 181 171
3130.0 152 134 134 144 145 141 136 134 126 151
3170.0 152 153 169 143 155 140 120 114 108 120
3210.0 107 87 87 86 78 82 95 63 70 84
3250.0 71 68 52 64 77 78 63 84 77 86
3290.0 88 102 81 92 89 91 98 77 80 62
3330.0 62 59 32 59 57 72 74 70 77 76
3370.0 72 78 70 62 95 103 71 73 72 82
3410.0 94 86 70 62 60 46 60 49 55 57
3450.0 66 70 29 57 49 39 56 58 46 5
3490.0 59 52 44 45 33 16 33 29 38 16
3530.0 51 49 29 25 33 22 57 34 57 36
3570.0 57 27 52 82 65 73 84 101 136 127
3610.0 164 187 267 400 537 899 1327 2009 2780 3333
3650.0 3386 3125 2588 2105 1988 2137 2182 2104 1787 1369
3690.0 986 663 464 323 240 194 129 126 107 82
3730.0 103 92 50 45 74 29 61 35 37 49
3770.0 11 40 35 28 8 26 34 43 61 74
3810.0 54 68 33 40 10 37 17 43 32 84
3850.0 100 91 99 101 82 82 91 129 104 120
3890.0 94 124 93 60 20 44 49 53 51 61
3930.0 43 19 70 62 73 79 87 80 63 56
##END=
