##TITLE=3,8-Diazabicyclo[3.2.1]octan-2-one, 8-methyl-3-(3-methyl-2-butenyl)-,
##JCAMP-DX=4.24
##DATA TYPE=INFRARED SPECTRUM
##ORIGIN=Sadtler Research Labs Under US-EPA Contract
##OWNER=NIST Standard Reference Data Program
##CAS REGISTRY NO=22315-31-7
##MOLFORM=C 12 H 20 N 2 O
##XUNITS=1/CM
##YUNITS=ABSORBANCE
##XFACTOR=1.0
##YFACTOR=0.000140338
##DELTAX=4.0
##FIRSTX=450.0
##LASTX=3966.0
##FIRSTY=0.021893
##MAXX=3966
##MINX=450
##MAXY=1.40338
##MINY=0
##NPOINTS=880
##XYDATA=(X++(Y..Y))
450.0 156 138 71 64 48 68 57 43 87 83
490.0 104 136 199 285 396 446 454 400 352 311
530.0 237 204 150 135 91 93 81 86 81 65
570.0 55 39 35 28 30 18 18 4 16 4
610.0 9 4 8 15 15 34 57 91 103 89
650.0 58 29 8 11 11 38 46 66 89 89
690.0 91 74 67 85 107 140 173 198 201 197
730.0 211 257 272 245 179 117 96 97 120 154
770.0 177 162 154 153 167 176 181 188 196 207
810.0 191 164 130 111 123 156 195 219 223 205
850.0 193 193 202 212 230 217 198 184 185 204
890.0 185 161 114 99 98 139 190 218 207 171
930.0 156 179 222 254 267 244 216 202 225 300
970.0 420 537 586 558 527 598 777 967 1025 917
1010.0 693 488 353 278 243 220 213 206 206 207
1050.0 211 207 192 176 166 179 212 258 267 246
1090.0 229 244 297 368 438 471 477 469 490 575
1130.0 719 859 956 1000 1006 1017 1082 1243 1450 1683
1170.0 1797 1685 1362 984 726 588 547 548 588 681
1210.0 802 928 1042 1123 1130 1071 991 966 1019 1121
1250.0 1215 1284 1440 1802 2292 2565 2396 1939 1566 1402
1290.0 1320 1196 1101 1090 1100 1036 890 785 795 899
1330.0 1026 1121 1147 1130 1106 1066 970 844 713 613
1370.0 568 571 616 652 623 541 456 422 439 526
1410.0 658 851 1033 1213 1377 1532 1672 1756 1750 1646
1450.0 1499 1365 1289 1289 1354 1468 1513 1573 1656 1772
1490.0 1648 1316 910 567 399 320 264 226 205 176
1530.0 157 142 140 129 129 128 130 125 133 131
1570.0 140 146 164 164 164 164 152 150 143 150
1610.0 152 161 177 187 214 238 293 341 420 500
1650.0 600 712 898 1154 1614 2362 3671 5539 7885 9769
1690.0 10000 8669 6205 3909 2212 1396 929 717 537 441
1730.0 343 285 239 200 178 145 141 114 115 103
1770.0 110 97 104 113 118 117 108 98 74 66
1810.0 47 42 33 31 25 22 20 18 18 20
1850.0 20 19 17 18 19 15 17 15 13 12
1890.0 11 10 6 7 5 5 4 4 6 3
1930.0 7 5 9 7 10 9 11 12 13 13
1970.0 14 15 13 14 12 11 11 9 8 8
2010.0 9 7 8 5 8 6 6 5 5 5
2050.0 4 5 4 7 3 3 3 1 0 0
2090.0 1 1 2 1 3 5 8 9 12 12
2130.0 12 13 16 15 17 16 16 16 14 14
2170.0 13 10 13 11 14 12 12 12 14 13
2210.0 14 16 16 13 11 9 8 7 5 6
2250.0 6 7 6 5 8 5 5 2 3 0
2290.0 0 1 4 8 7 8 10 8 15 19
2330.0 17 19 19 19 25 25 29 23 23 20
2370.0 26 24 28 23 18 14 11 9 10 13
2410.0 13 14 13 15 13 12 12 11 9 10
2450.0 11 12 9 13 10 11 10 9 7 8
2490.0 6 5 6 7 8 8 10 10 11 12
2530.0 11 12 12 11 13 13 14 13 13 14
2570.0 14 17 17 20 17 18 16 16 16 18
2610.0 15 15 15 15 16 18 17 20 22 22
2650.0 24 26 28 25 28 32 32 36 37 39
2690.0 42 42 44 44 48 53 56 60 65 78
2730.0 92 113 132 143 150 154 160 168 179 193
2770.0 203 206 212 221 249 314 430 631 878 999
2810.0 939 743 571 511 511 552 614 693 812 996
2850.0 1242 1517 1745 1902 2000 2100 2214 2301 2359 2402
2890.0 2440 2478 2479 2421 2346 2308 2344 2506 2774 3102
2930.0 3375 3481 3430 3429 3530 3643 3603 3379 3190 3164
2970.0 3388 3663 3902 3998 3507 2686 1701 1119 870 708
3010.0 616 540 484 437 396 365 338 323 302 292
3050.0 274 261 246 234 220 203 187 174 158 147
3090.0 139 124 115 106 102 92 88 78 72 67
3130.0 65 65 62 56 52 51 45 44 41 38
3170.0 37 34 32 30 27 25 23 22 17 17
3210.0 15 15 13 12 8 9 8 11 8 8
3250.0 9 10 11 11 12 11 15 15 15 16
3290.0 13 16 16 14 14 15 15 13 18 17
3330.0 25 26 37 44 57 63 73 77 74 66
3370.0 53 39 33 25 19 14 10 9 8 8
3410.0 9 8 8 10 7 5 9 6 10 8
3450.0 9 3 7 10 5 4 6 8 12 5
3490.0 6 4 7 8 3 4 8 3 6 4
3530.0 4 4 2 11 8 1 5 1 6 11
3570.0 7 5 6 7 7 11 12 2 6 4
3610.0 14 7 11 8 3 15 4 3 7 0
3650.0 15 8 11 10 6 13 4 13 3 10
3690.0 8 11 11 11 11 10 10 9 16 11
3730.0 10 17 16 12 24 13 18 10 9 13
3770.0 12 12 6 13 7 12 10 14 7 19
3810.0 7 10 11 11 8 11 15 13 9 9
3850.0 14 19 18 11 18 15 18 17 10 22
3890.0 11 17 11 26 16 13 6 16 14 25
3930.0 21 14 15 21 20 13 26 16 22 12
##END=
