##TITLE=Malonic acid, allyl-1-methylbutyl-, diethyl ester
##JCAMP-DX=4.24
##DATA TYPE=INFRARED SPECTRUM
##ORIGIN=Sadtler Research Labs Under US-EPA Contract
##OWNER=NIST Standard Reference Data Program
##CAS REGISTRY NO=22328-93-4
##MOLFORM=C 15 H 26 O 4
##XUNITS=1/CM
##YUNITS=ABSORBANCE
##XFACTOR=1.0
##YFACTOR=0.000063931
##DELTAX=4.0
##FIRSTX=450.0
##LASTX=3966.0
##FIRSTY=0.031838
##MAXX=3966
##MINX=450
##MAXY=0.63931
##MINY=0
##NPOINTS=880
##XYDATA=(X++(Y..Y))
450.0 498 270 0 629 39 204 182 245 201 239
490.0 172 418 268 151 138 117 324 288 246 381
530.0 210 246 101 196 254 160 424 296 79 238
570.0 383 267 92 318 262 148 176 217 233 208
610.0 251 158 265 288 137 150 288 299 309 321
650.0 374 382 376 336 253 185 228 253 299 306
690.0 196 231 213 253 288 301 249 196 170 166
730.0 162 341 217 212 286 312 194 311 302 222
770.0 258 218 240 295 302 280 246 100 216 202
810.0 228 181 176 196 179 274 270 242 341 388
850.0 372 564 595 658 706 694 565 538 442 383
890.0 336 356 301 351 493 871 1223 1500 1344 902
930.0 634 447 369 268 230 211 248 245 324 414
970.0 459 476 541 612 788 896 905 959 997 1060
1010.0 1071 1187 1316 1566 1802 2075 2411 2669 2841 2882
1050.0 2835 2678 2495 2313 2110 1856 1656 1475 1412 1434
1090.0 1562 1850 2151 2447 2680 2877 3214 3384 3536 3641
1130.0 3612 3553 3435 3274 3079 2864 2588 2341 2238 2253
1170.0 2328 2560 3034 3644 4383 5058 5651 6173 6618 7246
1210.0 7877 8438 8687 8266 7597 6636 5661 4877 4095 3502
1250.0 2980 2617 2336 2157 2188 2295 2284 2243 2058 1828
1290.0 1683 1581 1577 1537 1490 1312 1191 995 884 790
1330.0 681 637 631 586 606 569 535 530 660 909
1370.0 1118 1145 1033 1044 1107 1133 965 734 619 517
1410.0 524 511 507 526 548 658 765 862 906 931
1450.0 972 971 995 1067 1193 1243 1174 989 737 550
1490.0 453 317 247 212 194 152 184 145 131 136
1530.0 123 127 96 90 92 115 109 93 83 110
1570.0 74 96 89 80 104 92 81 100 88 112
1610.0 101 101 114 138 167 215 330 446 501 401
1650.0 244 200 156 181 175 186 207 223 239 267
1690.0 321 397 460 569 678 774 944 1143 1613 2524
1730.0 4087 6209 8751 10000 9585 8390 6651 5131 3720 2491
1770.0 1668 1121 862 668 530 458 358 317 288 240
1810.0 231 207 192 190 177 191 202 206 196 153
1850.0 138 107 83 81 63 78 69 68 72 76
1890.0 76 76 80 81 77 72 70 64 68 59
1930.0 59 55 53 50 46 46 48 49 53 48
1970.0 54 50 56 55 57 54 56 56 49 47
2010.0 52 46 45 47 43 45 46 51 53 53
2050.0 58 62 63 66 68 75 72 76 67 68
2090.0 70 60 61 57 52 47 45 48 51 40
2130.0 44 48 45 48 43 41 46 36 45 41
2170.0 45 43 45 51 42 42 43 45 46 41
2210.0 45 40 42 47 42 46 44 43 45 45
2250.0 49 38 36 44 47 41 42 45 38 37
2290.0 40 48 46 47 45 46 34 38 37 35
2330.0 32 33 38 29 33 58 27 38 19 37
2370.0 42 34 30 46 45 39 40 39 44 45
2410.0 46 41 41 43 42 34 36 30 27 30
2450.0 24 24 23 26 20 23 26 23 21 22
2490.0 21 22 20 16 17 11 12 15 15 20
2530.0 13 20 17 11 20 15 18 20 18 17
2570.0 18 23 24 24 27 28 25 19 25 42
2610.0 38 30 31 28 28 30 26 23 22 25
2650.0 27 24 26 29 32 22 25 32 31 26
2690.0 38 39 41 38 42 48 52 52 62 65
2730.0 72 76 86 92 95 94 95 92 86 87
2770.0 96 103 100 98 106 110 103 114 123 133
2810.0 147 157 183 186 204 222 245 261 287 317
2850.0 347 397 465 562 718 926 1173 1459 1729 1826
2890.0 1683 1471 1337 1319 1386 1506 1628 1724 1835 2009
2930.0 2282 2644 3075 3486 3623 3403 3084 3121 3691 4583
2970.0 5122 4922 4518 4430 4482 4072 3267 2507 1947 1560
3010.0 1280 1072 909 758 654 559 472 406 349 309
3050.0 284 264 252 258 270 307 341 428 639 848
3090.0 800 497 246 164 147 125 122 118 105 95
3130.0 106 102 93 87 91 92 82 82 80 76
3170.0 85 74 74 70 69 60 69 68 68 51
3210.0 64 47 43 41 41 34 35 38 43 34
3250.0 36 36 33 30 15 28 29 13 21 27
3290.0 32 26 23 26 28 22 30 34 31 20
3330.0 22 24 24 29 33 30 28 25 32 19
3370.0 45 35 19 40 38 34 37 34 54 46
3410.0 42 28 44 43 35 53 45 48 57 54
3450.0 58 63 78 85 110 105 92 94 88 75
3490.0 77 65 57 66 40 58 44 36 42 39
3530.0 49 43 37 45 45 47 28 45 28 49
3570.0 44 50 28 42 37 56 34 55 44 35
3610.0 43 36 43 44 36 48 46 27 53 28
3650.0 42 18 59 35 28 47 27 38 24 52
3690.0 23 29 52 44 51 42 24 41 31 41
3730.0 47 31 45 25 56 26 69 12 51 40
3770.0 23 39 33 44 43 21 43 20 39 29
3810.0 86 33 31 9 13 71 45 28 48 47
3850.0 42 12 46 33 27 70 44 37 46 42
3890.0 61 13 26 27 14 62 69 29 20 33
3930.0 46 42 57 45 29 34 20 37 42 28
##END=
