##TITLE=Ethanone, 1-(2,4-dichlorophenyl)-
##JCAMP-DX=4.24
##DATA TYPE=INFRARED SPECTRUM
##ORIGIN=Sadtler Research Labs Under US-EPA Contract
##OWNER=NIST Standard Reference Data Program
##CAS REGISTRY NO=2234-16-4
##MOLFORM=C 8 H 6 Cl 2 O
##XUNITS=1/CM
##YUNITS=ABSORBANCE
##XFACTOR=1.0
##YFACTOR=0.000052344
##DELTAX=4.0
##FIRSTX=450.0
##LASTX=3966.0
##FIRSTY=0.016070
##MAXX=3966
##MINX=450
##MAXY=0.52344
##MINY=0
##NPOINTS=880
##XYDATA=(X++(Y..Y))
450.0 307 257 359 357 348 288 191 182 212 262
490.0 399 518 674 916 1085 1214 1130 882 632 441
530.0 244 116 93 48 65 179 164 280 284 490
570.0 588 665 733 692 697 684 515 561 526 407
610.0 355 464 478 642 735 567 380 209 136 121
650.0 91 136 106 139 40 246 409 411 343 373
690.0 226 158 116 32 31 46 93 122 117 116
730.0 145 124 98 37 222 165 163 81 72 118
770.0 116 134 274 372 544 749 988 1483 2422 3927
810.0 5707 7555 8383 7534 5464 3405 1772 929 586 429
850.0 434 526 727 1082 1404 1780 1488 1071 725 388
890.0 214 162 114 99 76 74 95 122 119 161
930.0 244 339 497 685 924 1175 1430 1588 1607 1521
970.0 1313 1012 749 589 512 468 459 450 470 552
1010.0 602 656 754 811 936 1152 1362 1509 1494 1340
1050.0 1090 789 637 570 598 674 845 1151 1703 2758
1090.0 4074 5240 5607 5187 4360 3423 2549 1787 1171 880
1130.0 894 1095 1320 1394 1232 878 528 350 294 305
1170.0 335 367 419 446 487 533 559 578 608 691
1210.0 907 1350 2209 3630 5368 6398 6255 4725 2883 1855
1250.0 1683 2302 3717 5530 6778 6463 4557 2553 1310 754
1290.0 542 433 376 351 354 349 360 379 429 502
1330.0 589 687 828 1001 1293 1825 2726 3880 4899 5543
1370.0 5598 5164 4469 3424 2452 1799 1385 1136 960 866
1410.0 810 816 869 921 1009 1107 1207 1282 1325 1391
1450.0 1467 1611 1892 2326 2743 2815 2445 1759 1073 702
1490.0 552 468 431 424 436 454 494 536 592 637
1530.0 698 814 1023 1354 1774 2120 2355 2417 2241 2219
1570.0 2638 3712 5720 8099 9545 8809 6325 3361 1531 843
1610.0 603 544 523 535 556 558 558 542 520 501
1650.0 493 513 569 677 826 1004 1201 1427 1662 1927
1690.0 2285 2781 3586 4886 6675 8731 10000 9932 8289 6216
1730.0 4589 3527 2766 2180 1719 1368 1081 872 695 562
1770.0 453 360 299 264 240 207 177 148 127 108
1810.0 98 89 88 86 91 77 69 64 68 68
1850.0 78 87 87 88 88 88 90 100 113 144
1890.0 170 172 176 166 165 146 126 115 106 87
1930.0 87 88 75 77 68 57 51 41 40 39
1970.0 38 38 38 38 50 49 37 35 19 19
2010.0 19 19 19 9 10 17 20 21 29 30
2050.0 27 27 22 19 18 29 19 27 19 19
2090.0 9 19 7 8 9 0 0 6 8 8
2130.0 0 8 9 0 6 7 0 0 0 5
2170.0 8 8 9 9 17 18 9 15 19 18
2210.0 18 18 5 11 7 18 9 8 8 8
2250.0 9 6 18 20 26 25 31 37 36 36
2290.0 46 45 55 56 57 54 52 46 51 39
2330.0 35 30 32 25 36 55 45 34 52 41
2370.0 23 16 21 25 19 16 16 15 15 24
2410.0 25 15 13 14 7 11 10 12 8 16
2450.0 16 6 16 16 16 15 15 11 20 35
2490.0 35 41 42 54 54 62 54 62 55 62
2530.0 63 53 58 48 34 35 23 16 15 15
2570.0 14 14 14 14 14 14 9 16 15 11
2610.0 12 24 23 24 33 42 34 33 29 36
2650.0 27 33 35 31 33 23 34 33 42 34
2690.0 42 50 43 38 33 33 22 21 23 23
2730.0 22 22 21 15 11 12 9 4 9 12
2770.0 13 13 23 23 22 24 24 26 22 35
2810.0 35 35 35 43 34 35 45 54 54 65
2850.0 65 57 54 50 51 57 51 43 38 46
2890.0 57 56 57 56 67 80 90 110 119 151
2930.0 177 192 192 193 183 164 163 166 167 187
2970.0 193 210 219 228 241 250 280 308 339 388
3010.0 417 438 432 409 364 320 291 250 237 206
3050.0 186 197 197 226 247 267 288 297 299 279
3090.0 254 221 190 181 162 131 113 103 96 84
3130.0 75 65 66 61 64 75 67 58 67 59
3170.0 57 59 59 52 47 56 39 45 42 38
3210.0 41 40 42 42 40 58 51 45 51 56
3250.0 56 53 54 50 52 43 43 43 54 54
3290.0 53 65 53 64 63 56 65 81 65 55
3330.0 65 56 54 64 62 70 70 81 83 94
3370.0 107 106 114 115 134 163 175 175 182 181
3410.0 188 183 177 157 156 156 136 126 118 118
3450.0 105 95 97 92 75 62 72 62 68 62
3490.0 53 43 52 70 61 46 58 52 52 63
3530.0 58 55 63 45 55 45 43 44 47 50
3570.0 44 47 48 36 54 50 48 47 46 48
3610.0 57 38 38 30 35 34 13 10 21 18
3650.0 21 11 20 20 20 20 22 22 23 13
3690.0 2 13 5 4 12 13 13 5 5 5
3730.0 0 2 1 0 5 7 0 5 0 7
3770.0 0 0 0 0 0 0 0 0 0 0
3810.0 0 0 0 0 0 0 0 0 0 0
3850.0 0 0 0 0 0 0 0 0 0 0
3890.0 0 2 0 0 0 0 0 0 0 0
3930.0 0 0 0 0 0 0 0 0 0 0
##END=
