##TITLE=Propiophenone, 4-tert-butyl-2-hydroxy-,
##JCAMP-DX=4.24
##DATA TYPE=INFRARED SPECTRUM
##ORIGIN=Sadtler Research Labs Under US-EPA Contract
##OWNER=NIST Standard Reference Data Program
##CAS REGISTRY NO=22362-62-5
##MOLFORM=C 13 H 18 O 2
##XUNITS=1/CM
##YUNITS=ABSORBANCE
##XFACTOR=1.0
##YFACTOR=0.000126746
##DELTAX=4.0
##FIRSTX=450.0
##LASTX=3966.0
##FIRSTY=0.031306
##MAXX=3966
##MINX=450
##MAXY=1.26746
##MINY=0
##NPOINTS=880
##XYDATA=(X++(Y..Y))
450.0 247 259 318 253 251 199 201 125 73 23
490.0 23 14 28 33 11 45 60 103 113 109
530.0 142 101 103 115 123 136 168 167 131 97
570.0 88 77 129 207 214 181 105 64 70 62
610.0 64 81 98 114 132 174 196 231 232 228
650.0 235 260 317 342 363 346 328 328 349 451
690.0 582 687 703 678 641 600 614 627 647 675
730.0 695 673 638 585 553 531 520 532 546 581
770.0 630 737 863 1057 1288 1483 1619 1502 1215 889
810.0 612 416 301 211 171 135 117 112 102 93
850.0 94 88 100 142 208 335 475 618 617 465
890.0 337 253 236 293 421 603 815 953 962 842
930.0 655 512 468 549 826 1396 2092 2514 2303 1590
970.0 840 399 264 223 220 252 320 435 638 900
1010.0 1101 1102 900 638 420 293 211 167 148 158
1050.0 176 205 259 326 442 581 705 738 717 707
1090.0 779 892 911 784 555 377 286 257 261 271
1130.0 284 287 297 329 412 564 826 1042 1064 885
1170.0 689 654 775 1051 1545 2273 3056 3578 3658 3620
1210.0 3832 4077 3879 3212 2503 2099 1897 1729 1588 1527
1250.0 1548 1522 1434 1334 1336 1445 1691 2076 2489 2783
1290.0 2773 2515 2152 1886 1764 1690 1590 1474 1498 1675
1330.0 2002 2422 2876 3329 3718 3934 4006 4016 3966 3855
1370.0 3493 3001 2614 2359 2101 1892 1767 1738 1753 1681
1410.0 1599 1517 1345 1225 1058 920 777 724 746 801
1450.0 874 962 1039 1225 1384 1497 1485 1499 1500 1410
1490.0 1332 1382 1464 1545 1514 1373 1258 1072 939 921
1530.0 898 927 938 988 1147 1423 1756 2103 2490 2597
1570.0 2421 2036 1629 1291 1168 1097 1176 1305 1575 1897
1610.0 2337 2925 3461 3915 3963 4010 4010 4688 6083 8175
1650.0 9704 10000 8686 6314 4169 2630 1620 1119 741 537
1690.0 450 378 271 218 220 212 186 129 185 197
1730.0 186 147 177 171 143 137 154 151 125 119
1770.0 78 65 86 72 74 60 51 46 36 53
1810.0 44 36 49 45 32 21 29 39 20 10
1850.0 25 41 40 42 44 41 77 93 101 95
1890.0 79 62 51 44 35 31 23 26 14 27
1930.0 31 29 26 17 19 24 22 18 20 13
1970.0 16 15 17 15 17 4 1 9 11 11
2010.0 10 10 4 6 7 8 7 2 0 2
2050.0 5 2 5 2 1 5 3 6 8 8
2090.0 5 7 8 7 5 3 4 4 6 5
2130.0 4 2 4 3 5 5 5 5 6 10
2170.0 11 12 13 13 15 20 16 14 14 13
2210.0 18 14 14 11 12 11 8 9 10 11
2250.0 11 13 16 17 20 21 23 27 32 36
2290.0 42 46 48 48 55 58 53 60 64 61
2330.0 61 60 57 65 61 67 61 57 66 57
2370.0 55 65 64 62 60 59 54 52 52 50
2410.0 51 54 52 53 56 55 54 56 58 58
2450.0 58 62 60 60 59 62 63 64 65 67
2490.0 64 65 71 73 75 77 83 85 85 85
2530.0 87 88 88 87 89 90 95 98 99 104
2570.0 108 105 105 106 112 113 120 121 125 128
2610.0 135 138 138 148 150 152 153 153 154 152
2650.0 150 148 150 154 154 156 160 165 169 174
2690.0 183 188 194 201 205 209 214 216 219 223
2730.0 217 214 212 211 216 221 224 227 227 227
2770.0 226 230 229 231 236 244 241 247 250 260
2810.0 271 287 299 312 322 332 345 357 375 403
2850.0 432 474 536 636 778 980 1187 1366 1475 1546
2890.0 1589 1588 1555 1533 1598 1762 1938 2028 2016 1944
2930.0 1891 1881 1924 2064 2378 2828 3284 3810 4458 5439
2970.0 6374 6532 5682 4444 3515 2884 2329 1798 1370 1087
3010.0 909 818 766 737 731 740 757 784 810 844
3050.0 870 884 882 867 851 846 863 904 955 1008
3090.0 1036 1033 997 933 865 809 770 747 733 730
3130.0 716 712 711 707 704 697 695 691 685 682
3170.0 682 675 673 670 663 656 639 634 624 617
3210.0 597 586 579 574 574 571 567 564 558 551
3250.0 549 547 545 542 545 546 539 526 517 507
3290.0 496 491 480 469 453 435 429 413 402 391
3330.0 378 363 358 347 343 332 322 319 315 307
3370.0 298 292 285 281 269 265 256 250 248 239
3410.0 227 216 220 201 199 191 186 181 172 166
3450.0 156 155 150 145 143 135 129 125 112 121
3490.0 119 108 96 102 98 90 85 81 81 82
3530.0 81 79 75 69 63 67 60 62 52 47
3570.0 52 47 43 41 37 42 39 40 35 35
3610.0 36 34 34 40 36 30 34 31 34 34
3650.0 28 30 25 26 32 21 25 24 27 20
3690.0 21 20 8 17 22 20 19 23 17 20
3730.0 11 27 23 21 19 14 17 24 20 15
3770.0 7 8 21 32 20 21 19 19 21 24
3810.0 13 14 23 19 18 26 23 22 14 24
3850.0 13 26 31 23 29 24 16 16 15 32
3890.0 18 25 26 35 31 37 32 24 18 24
3930.0 28 16 8 20 18 21 23 30 23 23
##END=
