##TITLE=Cyclohexanecarboxylic acid, 2-hydroxy-, methyl ester
##JCAMP-DX=4.24
##DATA TYPE=INFRARED SPECTRUM
##ORIGIN=Sadtler Research Labs Under US-EPA Contract
##OWNER=NIST Standard Reference Data Program
##CAS REGISTRY NO=2236-11-5
##MOLFORM=C 8 H 14 O 3
##XUNITS=1/CM
##YUNITS=ABSORBANCE
##XFACTOR=1.0
##YFACTOR=0.000080389
##DELTAX=4.0
##FIRSTX=450.0
##LASTX=3966.0
##FIRSTY=0.021705
##MAXX=3966
##MINX=450
##MAXY=0.80389
##MINY=0
##NPOINTS=880
##XYDATA=(X++(Y..Y))
450.0 270 234 144 432 39 161 272 350 390 217
490.0 343 540 327 356 391 288 275 287 289 203
530.0 261 269 285 355 333 309 394 221 315 286
570.0 224 239 193 177 140 171 110 145 141 120
610.0 151 164 86 101 93 111 132 124 168 181
650.0 174 226 219 229 153 141 143 146 165 156
690.0 131 122 77 105 144 161 146 141 114 144
730.0 157 86 88 184 167 164 283 277 210 199
770.0 178 142 78 95 122 99 31 85 93 71
810.0 122 126 143 161 175 241 253 255 306 355
850.0 332 280 265 225 226 261 255 298 300 274
890.0 269 255 234 263 229 238 254 254 251 257
930.0 235 227 225 257 294 319 419 514 633 787
970.0 979 1202 1393 1514 1466 1343 1173 1002 943 940
1010.0 1048 1230 1411 1611 1843 2143 2361 2371 2301 2051
1050.0 1723 1608 1670 1816 1981 2132 2243 2223 2096 1876
1090.0 1652 1391 1289 1351 1474 1614 1892 2058 2257 2364
1130.0 2431 2509 2584 2711 2867 3117 3559 4094 4787 5496
1170.0 6124 6868 7144 7138 6592 5985 5416 5036 4687 4398
1210.0 4001 3599 3268 3013 2861 2866 2954 3083 3453 3824
1250.0 4014 3919 3503 2923 2505 2216 1996 1825 1715 1581
1290.0 1560 1612 1766 1905 1984 2029 2129 2247 2301 2273
1330.0 2134 1968 1870 1788 1714 1670 1588 1500 1450 1422
1370.0 1415 1420 1404 1364 1326 1329 1345 1331 1290 1229
1410.0 1108 961 873 770 804 1052 1468 1829 2186 2217
1450.0 2023 1893 1740 1462 1258 1017 816 663 524 478
1490.0 372 292 248 209 208 183 172 145 118 115
1530.0 117 107 122 101 119 104 90 124 87 128
1570.0 86 118 146 131 140 113 121 132 115 143
1610.0 136 177 156 142 124 77 106 102 92 128
1650.0 101 149 112 134 154 171 229 303 388 506
1690.0 650 698 803 833 941 1106 1403 1931 2606 3552
1730.0 4549 5014 5635 5714 5566 5686 5361 5196 4664 3859
1770.0 3124 2351 1810 1376 1053 828 609 442 334 233
1810.0 190 156 104 103 81 86 73 31 48 38
1850.0 54 47 43 41 38 57 29 38 19 30
1890.0 38 39 31 23 31 42 26 43 34 27
1930.0 29 39 50 59 41 62 41 42 44 39
1970.0 33 46 38 52 37 37 41 50 41 49
2010.0 52 64 56 61 53 55 67 54 60 58
2050.0 59 67 67 58 63 68 62 58 63 59
2090.0 60 57 53 48 45 46 44 32 39 37
2130.0 37 49 50 45 40 48 48 40 41 37
2170.0 41 47 40 36 39 36 37 31 29 31
2210.0 42 40 40 38 38 37 42 41 39 40
2250.0 37 48 40 39 43 45 51 40 41 36
2290.0 34 28 24 34 22 44 45 52 59 66
2330.0 71 62 94 97 84 59 81 71 78 84
2370.0 36 47 41 43 35 28 35 37 36 35
2410.0 38 36 33 40 37 31 32 24 29 28
2450.0 24 23 26 29 27 29 33 33 33 23
2490.0 27 29 30 30 34 32 35 30 29 37
2530.0 37 34 35 28 33 34 37 36 28 30
2570.0 39 44 46 47 48 51 54 58 62 66
2610.0 73 67 67 67 68 71 73 77 84 100
2650.0 106 114 126 137 147 152 152 140 131 122
2690.0 105 103 98 88 83 77 73 71 72 72
2730.0 67 62 71 68 74 76 79 86 90 94
2770.0 105 114 126 132 145 159 164 170 174 184
2810.0 190 196 214 230 261 292 349 440 584 792
2850.0 1085 1475 1947 2377 2730 2992 3027 2879 2628 2341
2890.0 2060 1910 1879 1951 2113 2294 2497 2786 3135 3590
2930.0 4287 5369 6919 8582 9780 10000 9156 7582 5795 4324
2970.0 3030 1994 1286 905 698 593 560 536 525 506
3010.0 475 455 427 413 407 397 378 340 293 258
3050.0 215 193 172 161 149 143 140 131 133 118
3090.0 115 114 113 107 100 89 75 79 71 60
3130.0 64 55 52 49 39 37 39 42 41 41
3170.0 36 26 39 39 37 41 40 47 36 42
3210.0 49 50 54 58 59 64 74 76 78 78
3250.0 77 79 78 69 68 66 50 47 49 44
3290.0 53 40 42 47 38 34 43 45 34 31
3330.0 45 36 35 41 40 35 36 49 42 34
3370.0 40 48 38 39 48 49 43 44 47 35
3410.0 47 46 52 50 56 58 58 80 72 73
3450.0 101 79 87 87 89 97 83 105 94 82
3490.0 90 91 90 95 83 91 87 112 114 120
3530.0 158 201 268 340 393 463 508 650 848 1128
3570.0 1336 1473 1479 1347 1108 915 780 705 650 668
3610.0 694 686 695 647 643 580 542 486 451 408
3650.0 391 279 293 209 174 151 60 111 25 36
3690.0 22 26 4 1 1 1 1 9 1 11
3730.0 1 0 24 1 18 1 12 1 1 1
3770.0 1 1 1 1 1 1 1 1 1 1
3810.0 1 1 1 1 1 1 1 1 1 1
3850.0 1 1 1 1 1 1 1 1 1 1
3890.0 1 1 1 1 1 1 1 1 1 1
3930.0 1 1 1 1 1 1 1 1 1 1
##END=
