##TITLE=Phosphorothioic acid, O-ethyl O-isopropyl O-(4-nitro-m-tolyl) ester
##JCAMP-DX=4.24
##DATA TYPE=INFRARED SPECTRUM
##ORIGIN=Sadtler Research Labs Under US-EPA Contract
##OWNER=NIST Standard Reference Data Program
##CAS REGISTRY NO=22371-93-3
##MOLFORM=C 12 H 18 N O 5 P S
##XUNITS=1/CM
##YUNITS=ABSORBANCE
##XFACTOR=1.0
##YFACTOR=0.000073746
##DELTAX=4.0
##FIRSTX=450.0
##LASTX=3966.0
##FIRSTY=0.009218
##MAXX=3966
##MINX=450
##MAXY=0.73746
##MINY=0
##NPOINTS=880
##XYDATA=(X++(Y..Y))
450.0 125 164 182 223 273 195 216 325 318 361
490.0 440 467 376 357 388 346 287 244 181 158
530.0 93 46 22 36 7 5 66 105 60 60
570.0 62 78 93 97 96 100 77 136 125 96
610.0 99 106 134 132 115 96 101 145 245 389
650.0 521 567 530 426 344 277 223 194 194 209
690.0 235 277 286 272 289 402 592 785 792 577
730.0 339 200 148 155 204 336 464 435 333 298
770.0 333 400 517 694 905 1132 1344 1521 1701 1952
810.0 2335 3036 4114 5150 5295 4480 3260 2371 1998 1949
850.0 2028 2152 2319 2511 2813 3139 3357 3439 3485 3551
890.0 3282 2470 1652 1121 880 793 796 792 799 822
930.0 901 1015 1211 1529 2010 2606 3307 4285 5601 7059
970.0 7708 6545 4564 3160 2489 2256 2328 2645 3230 4125
1010.0 5384 6907 8393 9392 9890 10000 9501 8381 7125 6186
1050.0 5677 5470 5292 4940 4332 3562 2885 2527 2385 2128
1090.0 1826 1633 1482 1310 1120 973 862 780 734 713
1130.0 704 723 782 908 1045 1187 1460 1896 2261 1978
1170.0 1323 892 710 633 592 551 520 490 469 467
1210.0 494 547 660 861 1257 1981 3214 4758 5304 3987
1250.0 2296 1422 1186 1365 1820 2141 1883 1362 1014 858
1290.0 800 812 859 895 859 776 673 592 550 583
1330.0 689 890 1257 1855 2683 3581 3998 3467 2387 1540
1370.0 1110 924 839 825 876 957 1047 1028 875 704
1410.0 604 518 488 447 450 460 506 544 619 700
1450.0 774 840 894 963 1065 1259 1543 1968 2521 2856
1490.0 2516 1841 1387 1211 1211 1328 1517 1810 2166 2509
1530.0 2842 3128 3269 3097 2669 2158 1778 1562 1448 1426
1570.0 1497 1709 2070 2483 2613 2284 1679 1248 1122 1228
1610.0 1439 1547 1413 1083 765 514 375 278 209 171
1650.0 163 121 106 90 83 69 80 58 73 72
1690.0 60 57 70 60 61 51 54 57 42 35
1730.0 44 53 49 50 63 69 67 67 73 73
1770.0 81 84 72 66 54 52 50 49 48 42
1810.0 45 46 44 53 54 66 66 65 79 82
1850.0 86 86 93 95 102 106 105 110 117 120
1890.0 119 110 97 87 77 67 59 49 46 34
1930.0 31 34 29 33 35 30 33 31 31 31
1970.0 22 18 14 13 15 14 14 11 7 4
2010.0 3 3 3 5 5 2 2 7 8 6
2050.0 5 7 7 5 3 3 3 3 3 2
2090.0 3 5 9 9 10 8 9 14 13 17
2130.0 14 12 8 10 7 10 8 12 11 13
2170.0 15 12 14 11 12 12 15 17 18 25
2210.0 21 19 18 18 11 11 11 8 8 7
2250.0 6 11 10 12 7 8 11 13 13 14
2290.0 16 19 23 27 24 27 24 18 22 19
2330.0 26 24 20 25 37 34 31 29 28 34
2370.0 42 41 42 45 45 41 41 43 42 42
2410.0 42 44 47 48 49 46 46 41 34 29
2450.0 25 23 22 21 21 20 21 24 23 23
2490.0 24 29 28 28 26 23 25 23 22 18
2530.0 21 23 27 27 32 33 34 36 36 35
2570.0 33 34 35 31 36 35 36 34 32 31
2610.0 30 28 29 32 31 30 31 31 34 33
2650.0 29 33 28 33 31 30 36 34 30 32
2690.0 33 31 33 36 40 43 46 51 53 62
2730.0 71 77 82 84 84 85 85 81 80 78
2770.0 77 76 74 78 78 79 83 84 85 91
2810.0 96 110 118 124 138 148 159 177 191 209
2850.0 233 266 301 356 416 496 601 734 874 981
2890.0 999 982 962 940 931 938 956 974 994 1028
2930.0 1110 1246 1436 1627 1745 1777 1788 1836 1989 2233
2970.0 2452 2570 2545 2370 2107 1762 1387 1104 869 661
3010.0 523 432 368 326 275 239 215 191 173 160
3050.0 146 145 130 134 137 139 141 141 140 137
3090.0 129 123 108 96 93 90 84 82 76 70
3130.0 61 67 66 62 56 55 58 53 49 49
3170.0 54 52 52 52 56 54 55 52 51 43
3210.0 39 37 35 27 27 27 29 27 28 21
3250.0 26 19 24 22 20 25 24 20 22 18
3290.0 23 21 16 21 20 16 18 24 28 23
3330.0 21 27 28 22 27 27 16 21 27 27
3370.0 23 23 27 24 23 27 28 32 26 35
3410.0 31 20 24 20 16 29 28 28 24 21
3450.0 22 21 23 21 19 18 29 25 27 25
3490.0 22 19 32 26 24 21 11 15 21 27
3530.0 14 14 18 23 12 16 19 29 20 21
3570.0 8 15 20 26 20 5 12 15 12 21
3610.0 21 21 17 20 22 14 33 69 98 116
3650.0 111 101 85 48 28 11 22 13 27 28
3690.0 27 23 9 13 17 18 17 21 25 19
3730.0 10 9 0 16 10 29 27 29 19 29
3770.0 34 17 16 19 25 12 13 24 17 29
3810.0 20 19 20 20 21 28 20 17 42 26
3850.0 19 9 22 14 24 14 14 20 35 15
3890.0 16 18 23 4 11 29 29 17 30 30
3930.0 19 17 7 34 32 34 28 17 22 21
##END=
