##TITLE=5-Benzyloxy-2-nitrotoluene
##JCAMP-DX=4.24
##DATA TYPE=INFRARED SPECTRUM
##ORIGIN=Sadtler Research Labs Under US-EPA Contract
##OWNER=NIST Standard Reference Data Program
##CAS REGISTRY NO=22424-58-4
##MOLFORM=C 14 H 13 N O 3
##XUNITS=1/CM
##YUNITS=ABSORBANCE
##XFACTOR=1.0
##YFACTOR=0.000029343
##DELTAX=4.0
##FIRSTX=450.0
##LASTX=3966.0
##FIRSTY=0.000939
##MAXX=3966
##MINX=450
##MAXY=0.29343
##MINY=0
##NPOINTS=880
##XYDATA=(X++(Y..Y))
450.0 32 54 286 146 363 462 282 151 376 467
490.0 566 438 467 462 425 398 386 501 456 471
530.0 494 462 522 476 565 591 567 548 550 588
570.0 589 555 606 627 658 716 725 716 820 848
610.0 921 960 927 873 902 812 871 854 825 1012
650.0 1285 1426 1271 874 748 898 967 1043 1293 1542
690.0 2188 2639 2669 2023 1596 1419 1413 1559 1604 1811
730.0 2145 2583 2750 2569 2291 2391 2249 1725 1152 782
770.0 582 466 449 426 405 430 508 605 674 908
810.0 1101 1287 1351 1442 1644 2235 3206 3212 2295 1553
850.0 1311 1100 929 888 949 1019 846 610 470 382
890.0 360 365 429 515 573 552 514 493 547 581
930.0 660 719 772 781 733 720 679 666 616 650
970.0 726 805 952 1144 1336 1565 1741 1856 1929 1876
1010.0 1835 1893 2150 2609 3151 3197 2979 2901 2770 2408
1050.0 1915 1498 1267 1232 1411 1820 2631 3535 3884 3223
1090.0 2161 1342 910 724 585 473 364 332 326 334
1130.0 366 383 477 615 858 1154 1592 2213 2769 3151
1170.0 3243 2552 1683 1223 1013 944 982 1031 1084 1134
1210.0 1222 1398 1740 2292 3250 4668 6374 7881 9080 9914
1250.0 10000 8857 7056 5257 4149 3714 3749 4079 4914 6121
1290.0 6486 5418 3987 3300 3195 3365 3680 4016 4280 4522
1330.0 4732 4963 5660 6760 8256 9343 8560 6208 4005 2737
1370.0 2186 2093 2150 2151 1907 1493 1295 1127 1013 995
1410.0 1063 1004 1092 963 960 935 1086 1239 1376 1579
1450.0 1921 2226 2344 2338 2464 2523 2601 2896 3734 4976
1490.0 5599 5408 4912 4423 4389 4724 4856 5005 5280 5845
1530.0 6643 6932 6575 5438 4344 3555 3216 3174 3211 3426
1570.0 3926 4830 5970 6753 6878 6440 5632 5053 4700 4717
1610.0 4707 4300 3536 2594 1831 1196 828 553 365 300
1650.0 216 200 129 51 74 103 41 66 39 107
1690.0 44 78 100 155 73 75 140 186 142 120
1730.0 189 215 141 94 107 102 130 57 95 73
1770.0 122 92 55 107 58 115 122 164 191 196
1810.0 121 148 124 96 100 56 54 0 52 71
1850.0 63 18 47 52 84 113 75 82 92 100
1890.0 91 76 60 51 45 33 25 40 33 31
1930.0 31 48 62 105 100 111 117 130 117 121
1970.0 89 60 55 72 68 82 94 80 88 89
2010.0 101 109 127 127 151 162 169 187 197 202
2050.0 205 209 183 180 207 209 219 193 160 120
2090.0 107 102 86 67 86 77 75 71 53 56
2130.0 48 53 45 45 43 51 59 71 75 78
2170.0 73 75 70 77 71 75 72 73 76 77
2210.0 75 72 72 63 65 65 59 66 62 51
2250.0 49 53 48 52 48 60 71 85 97 123
2290.0 136 154 173 196 218 253 247 229 244 185
2330.0 188 194 145 162 238 195 265 201 239 168
2370.0 129 126 152 161 134 89 82 77 86 113
2410.0 111 117 127 129 126 128 119 103 98 87
2450.0 95 90 67 78 76 76 74 82 85 99
2490.0 105 110 120 98 101 109 115 121 105 100
2530.0 111 116 121 112 109 113 118 127 130 138
2570.0 133 146 143 147 157 157 143 140 143 148
2610.0 137 141 132 124 124 121 112 108 109 105
2650.0 115 111 119 113 123 116 119 122 111 104
2690.0 102 109 108 118 116 115 124 129 147 158
2730.0 168 152 158 153 156 155 156 142 151 129
2770.0 120 127 130 128 146 151 172 174 188 199
2810.0 208 221 246 277 282 284 314 328 344 375
2850.0 403 449 489 546 634 704 774 824 876 926
2890.0 934 906 841 774 757 776 790 833 870 952
2930.0 1042 1132 1233 1315 1325 1305 1232 1179 1147 1017
2970.0 895 818 799 784 765 760 724 638 555 524
3010.0 524 580 639 666 800 1012 1155 1246 1227 1137
3050.0 993 908 900 935 1054 1266 1463 1472 1256 1076
3090.0 931 824 720 596 515 450 404 341 298 232
3130.0 171 145 138 130 104 102 110 118 108 101
3170.0 114 108 125 115 116 125 121 132 129 119
3210.0 123 111 91 89 107 92 97 100 85 94
3250.0 85 80 94 94 96 81 102 88 89 91
3290.0 120 98 88 84 102 107 90 92 78 94
3330.0 93 114 87 99 93 101 129 103 110 103
3370.0 98 112 87 111 101 117 127 133 116 147
3410.0 91 123 118 103 103 96 116 121 102 90
3450.0 119 87 85 96 88 118 96 95 78 95
3490.0 66 81 64 104 109 99 84 100 126 108
3530.0 87 60 93 105 135 100 69 98 70 137
3570.0 145 99 105 53 131 138 112 88 52 102
3610.0 165 80 85 67 127 145 115 81 143 155
3650.0 192 178 129 117 60 113 62 139 57 94
3690.0 66 120 79 98 107 65 103 108 113 120
3730.0 111 128 93 64 162 23 85 63 65 76
3770.0 47 65 41 91 60 56 86 109 65 111
3810.0 34 60 45 111 56 97 75 87 80 88
3850.0 102 110 105 95 49 109 74 88 128 152
3890.0 76 118 93 168 111 138 117 139 101 108
3930.0 106 86 101 105 172 97 164 80 106 58
##END=
