##TITLE=Nonanenitrile
##JCAMP-DX=4.24
##DATA TYPE=INFRARED SPECTRUM
##ORIGIN=Sadtler Research Labs Under US-EPA Contract
##OWNER=NIST Standard Reference Data Program
##CAS REGISTRY NO=2243-27-8
##MOLFORM=C 9 H 17 N
##XUNITS=1/CM
##YUNITS=ABSORBANCE
##XFACTOR=1.0
##YFACTOR=0.000148239
##DELTAX=4.0
##FIRSTX=450.0
##LASTX=3966.0
##FIRSTY=0.031871
##MAXX=3966
##MINX=450
##MAXY=1.48239
##MINY=0
##NPOINTS=880
##XYDATA=(X++(Y..Y))
450.0 215 182 102 7 80 75 63 164 145 204
490.0 166 160 93 158 149 160 54 74 78 35
530.0 66 83 113 103 96 101 122 138 150 147
570.0 92 44 82 91 82 48 64 96 93 84
610.0 93 93 53 106 68 45 55 65 55 0
650.0 59 91 57 89 120 85 48 87 73 101
690.0 44 63 124 141 109 196 208 270 258 231
730.0 280 262 254 205 194 132 127 156 117 126
770.0 127 139 107 104 141 80 104 88 82 103
810.0 67 46 81 52 47 82 121 110 71 95
850.0 109 95 66 89 71 81 81 44 40 72
890.0 74 78 91 77 92 82 90 85 78 63
930.0 79 90 84 94 100 99 83 77 79 74
970.0 61 46 56 49 42 49 52 45 41 45
1010.0 63 59 49 71 81 74 76 76 62 70
1050.0 60 59 60 78 74 77 72 84 87 65
1090.0 63 64 53 70 68 71 87 99 86 82
1130.0 81 56 54 59 56 53 50 57 57 57
1170.0 58 64 56 73 70 84 82 88 82 72
1210.0 82 86 71 77 72 73 78 97 96 108
1250.0 102 110 116 123 123 135 149 142 157 163
1290.0 163 185 191 202 210 219 217 231 231 245
1330.0 251 272 294 316 343 352 361 352 338 319
1370.0 308 309 346 349 362 326 241 204 184 162
1410.0 165 170 200 253 314 472 630 773 836 830
1450.0 903 999 1105 1225 1223 1107 926 713 509 368
1490.0 260 207 161 154 129 101 96 88 65 74
1530.0 52 65 70 56 48 45 47 48 30 36
1570.0 40 38 33 31 39 37 31 37 36 36
1610.0 28 36 38 27 28 28 31 28 20 18
1650.0 29 26 26 13 21 20 29 23 27 33
1690.0 27 17 16 25 19 23 26 26 28 27
1730.0 28 40 45 40 46 45 48 42 35 26
1770.0 19 17 17 14 15 15 23 16 13 15
1810.0 11 10 15 12 16 7 8 11 6 11
1850.0 7 9 12 10 15 14 12 13 5 10
1890.0 5 3 9 8 11 6 13 13 7 11
1930.0 7 8 12 6 3 4 4 7 5 4
1970.0 5 9 7 8 7 10 9 7 9 8
2010.0 9 12 11 14 17 18 23 23 22 21
2050.0 18 16 17 14 13 10 11 12 9 13
2090.0 11 11 13 10 9 7 13 13 10 9
2130.0 9 11 13 13 14 14 15 18 15 15
2170.0 12 11 14 14 12 9 13 12 13 15
2210.0 12 18 16 16 24 28 35 48 72 108
2250.0 143 159 147 116 80 54 44 36 33 31
2290.0 28 26 28 26 27 25 27 26 30 31
2330.0 27 31 36 33 31 35 34 32 38 30
2370.0 26 18 22 20 15 16 16 15 16 18
2410.0 16 14 14 11 11 9 9 9 8 6
2450.0 8 7 7 8 7 6 7 7 5 2
2490.0 4 5 7 8 7 8 10 13 15 16
2530.0 17 16 18 19 18 16 17 17 21 23
2570.0 26 30 31 33 33 35 40 40 40 43
2610.0 45 47 46 50 54 58 58 63 67 68
2650.0 71 74 76 71 76 81 84 92 94 99
2690.0 100 96 97 93 88 83 82 82 82 83
2730.0 87 92 101 107 114 119 117 116 117 117
2770.0 120 118 120 130 143 156 171 189 206 227
2810.0 249 279 309 345 384 439 499 588 725 956
2850.0 1323 1873 2602 3356 3916 4143 4027 3739 3428 3079
2890.0 2713 2378 2202 2270 2530 2966 3603 4483 5722 7159
2930.0 8646 9776 10000 9762 9056 7940 7054 6431 6181 6162
2970.0 5878 5031 3828 2539 1670 1186 908 729 613 521
3010.0 456 399 347 310 284 255 235 212 197 177
3050.0 166 155 138 134 123 118 109 104 95 89
3090.0 86 81 80 76 76 76 76 70 72 67
3130.0 68 63 57 56 54 55 58 53 60 57
3170.0 58 55 60 59 61 60 49 47 48 39
3210.0 35 35 31 30 28 25 26 26 25 23
3250.0 23 22 15 22 15 9 11 13 11 13
3290.0 17 17 19 25 14 17 13 14 15 10
3330.0 10 8 6 11 13 9 13 16 15 15
3370.0 13 10 11 10 7 7 5 11 11 15
3410.0 11 10 9 15 13 8 9 10 5 8
3450.0 6 5 6 7 8 10 14 9 16 8
3490.0 19 7 5 5 8 7 7 2 10 18
3530.0 11 14 16 16 10 9 10 17 8 9
3570.0 13 12 2 12 17 11 20 24 20 20
3610.0 14 6 13 14 15 24 20 16 18 17
3650.0 23 26 25 28 23 24 23 25 20 8
3690.0 6 9 11 10 14 21 21 14 24 17
3730.0 14 25 12 10 8 16 21 12 13 25
3770.0 17 28 14 24 24 18 16 21 22 18
3810.0 10 4 17 19 8 14 24 20 36 22
3850.0 24 12 31 14 11 6 24 32 7 10
3890.0 5 9 29 21 34 35 29 35 42 35
3930.0 32 10 4 24 5 9 26 37 29 64
##END=
