##TITLE=Undecanenitrile
##JCAMP-DX=4.24
##DATA TYPE=INFRARED SPECTRUM
##ORIGIN=Sadtler Research Labs Under US-EPA Contract
##OWNER=NIST Standard Reference Data Program
##CAS REGISTRY NO=2244-07-7
##MOLFORM=C 11 H 21 N
##XUNITS=1/CM
##YUNITS=ABSORBANCE
##XFACTOR=1.0
##YFACTOR=0.000146780
##DELTAX=4.0
##FIRSTX=450.0
##LASTX=3966.0
##FIRSTY=0.039484
##MAXX=3966
##MINX=450
##MAXY=1.4678
##MINY=0
##NPOINTS=880
##XYDATA=(X++(Y..Y))
450.0 269 130 81 210 167 90 185 0 67 100
490.0 71 242 44 129 139 43 110 62 69 115
530.0 145 124 100 176 90 48 123 134 111 149
570.0 79 112 78 90 87 98 83 56 73 103
610.0 93 100 62 114 99 58 73 40 102 74
650.0 102 126 56 66 59 97 128 85 93 99
690.0 122 124 109 144 195 217 252 215 272 274
730.0 274 260 200 228 174 137 177 119 122 127
770.0 92 112 116 102 85 80 58 81 82 91
810.0 79 103 58 65 76 68 79 73 87 78
850.0 84 84 67 58 65 95 83 75 84 74
890.0 48 79 89 80 74 80 96 83 63 66
930.0 71 82 62 71 69 53 69 59 56 55
970.0 58 54 56 71 73 83 62 75 82 52
1010.0 84 83 66 66 88 72 83 96 97 104
1050.0 93 101 96 85 97 95 98 97 96 75
1090.0 82 81 71 43 52 87 51 59 77 98
1130.0 61 90 70 69 79 73 79 83 83 109
1170.0 83 88 75 84 91 74 96 83 88 98
1210.0 93 95 89 93 108 99 103 96 101 115
1250.0 112 115 122 127 133 133 142 133 141 150
1290.0 154 170 181 190 207 214 216 204 207 216
1330.0 225 244 264 282 315 348 360 346 328 310
1370.0 290 291 290 290 278 242 187 160 153 147
1410.0 147 152 186 220 270 359 474 587 640 662
1450.0 729 839 953 1048 1022 898 758 532 386 287
1490.0 209 177 146 124 123 98 87 78 79 72
1530.0 59 57 66 53 63 41 51 67 46 44
1570.0 41 45 52 33 46 34 41 28 30 41
1610.0 21 43 30 37 34 31 34 39 30 37
1650.0 33 50 34 21 33 30 35 34 29 41
1690.0 33 38 55 60 59 52 56 69 68 72
1730.0 80 81 86 75 78 76 76 79 70 64
1770.0 60 53 43 30 31 26 26 18 18 17
1810.0 16 15 14 10 15 17 15 14 10 13
1850.0 11 10 11 6 12 16 8 14 6 11
1890.0 12 12 12 10 11 14 9 9 7 10
1930.0 10 6 10 7 9 10 9 11 10 10
1970.0 9 8 7 9 9 10 9 11 10 14
2010.0 12 13 15 18 18 20 19 21 18 18
2050.0 19 17 17 17 15 14 11 15 11 11
2090.0 11 10 12 8 9 12 10 12 12 12
2130.0 14 11 13 13 12 12 14 14 13 15
2170.0 13 12 15 14 13 14 12 14 13 12
2210.0 16 14 15 16 18 26 30 44 61 80
2250.0 101 110 102 79 55 44 33 30 29 27
2290.0 27 26 24 26 26 24 23 26 27 18
2330.0 22 17 20 31 23 32 26 32 27 23
2370.0 37 30 27 21 23 23 23 21 21 24
2410.0 21 24 24 29 24 25 23 24 23 20
2450.0 19 20 18 20 21 20 18 22 23 22
2490.0 22 21 22 28 27 28 26 33 32 31
2530.0 38 37 38 40 38 38 37 41 40 38
2570.0 43 45 47 51 52 53 53 60 58 59
2610.0 66 67 66 71 71 74 74 76 79 83
2650.0 85 89 90 95 97 99 104 112 114 108
2690.0 112 115 108 112 103 100 102 103 108 111
2730.0 114 120 126 135 135 140 141 147 155 167
2770.0 183 192 195 199 211 223 232 245 257 276
2810.0 295 323 355 401 441 490 552 642 780 1002
2850.0 1373 1973 2760 3521 3940 3883 3518 3073 2731 2463
2890.0 2208 2040 2023 2204 2523 2967 3610 4472 5738 7431
2930.0 8996 10000 9939 9091 7867 6578 5557 4906 4642 4516
2970.0 4188 3481 2538 1746 1252 959 767 630 537 458
3010.0 398 357 314 285 262 239 224 204 190 171
3050.0 160 157 141 131 126 122 112 110 103 99
3090.0 98 96 91 85 84 86 81 78 78 73
3130.0 69 74 72 73 70 67 71 67 68 65
3170.0 65 65 63 60 63 60 54 56 52 49
3210.0 44 48 45 40 41 39 39 37 34 33
3250.0 31 30 32 27 28 23 29 25 31 26
3290.0 24 29 26 21 26 26 33 24 25 30
3330.0 21 22 23 27 29 24 22 27 21 24
3370.0 19 24 23 23 23 21 27 23 22 21
3410.0 23 26 21 19 26 30 25 29 21 18
3450.0 26 27 18 26 24 15 22 17 17 28
3490.0 17 25 21 18 16 17 20 21 18 13
3530.0 23 26 15 24 13 14 17 25 21 20
3570.0 25 17 28 24 26 25 25 19 25 21
3610.0 26 31 42 30 38 31 32 28 33 33
3650.0 39 40 37 28 32 50 40 54 34 20
3690.0 38 32 24 32 25 27 33 32 33 35
3730.0 30 34 48 39 33 41 42 32 38 35
3770.0 22 28 26 24 26 30 32 40 29 48
3810.0 28 29 33 52 25 26 23 39 34 34
3850.0 34 40 45 19 34 60 29 39 30 35
3890.0 22 30 16 21 47 27 14 28 37 33
3930.0 40 33 47 28 31 31 19 21 30 50
##END=
