##TITLE=2-Cyclohexen-1-one, 2-methyl-5-(1-methylethenyl)-, (S)-
##JCAMP-DX=4.24
##DATA TYPE=INFRARED SPECTRUM
##ORIGIN=Sadtler Research Labs Under US-EPA Contract
##OWNER=NIST Standard Reference Data Program
##CAS REGISTRY NO=2244-16-8
##MOLFORM=C 10 H 14 O
##XUNITS=1/CM
##YUNITS=ABSORBANCE
##XFACTOR=1.0
##YFACTOR=0.000168857
##DELTAX=4.0
##FIRSTX=450.0
##LASTX=3966.0
##FIRSTY=0.000000
##MAXX=3966
##MINX=450
##MAXY=1.68857
##MINY=0
##NPOINTS=880
##XYDATA=(X++(Y..Y))
450.0 0 104 87 159 173 183 268 261 340 290
490.0 317 285 253 274 304 316 283 316 258 238
530.0 222 236 215 193 190 195 227 233 319 338
570.0 333 299 245 178 141 150 148 135 118 136
610.0 134 143 137 151 144 154 151 142 148 131
650.0 140 139 147 143 151 181 197 215 234 254
690.0 267 277 278 279 261 241 220 189 179 158
730.0 144 130 136 118 121 113 110 106 104 109
770.0 111 114 112 130 142 179 216 264 298 288
810.0 263 212 179 155 148 141 143 157 159 169
850.0 177 193 192 208 221 252 291 396 587 905
890.0 1327 1710 1907 1805 1448 1045 692 473 353 301
930.0 263 252 230 224 222 230 249 267 268 251
970.0 224 201 198 212 242 284 316 341 339 326
1010.0 311 309 319 341 366 390 408 419 437 459
1050.0 485 485 461 428 394 349 322 319 353 423
1090.0 528 679 886 1152 1388 1477 1421 1190 873 627
1130.0 476 427 428 427 419 384 337 292 269 249
1170.0 238 231 226 226 226 235 249 285 322 347
1210.0 354 345 327 337 387 484 621 757 823 815
1250.0 741 625 550 512 457 402 346 301 278 277
1290.0 285 290 293 287 295 292 306 317 364 393
1330.0 422 449 459 524 628 767 941 1139 1303 1425
1370.0 1477 1425 1364 1281 1113 948 775 612 545 505
1410.0 480 525 522 637 701 809 900 1032 1113 1127
1450.0 1125 1086 987 921 741 568 380 291 290 218
1490.0 185 187 174 155 123 100 124 118 87 145
1530.0 124 156 130 112 123 166 160 113 161 180
1570.0 182 172 197 191 217 210 229 232 238 255
1610.0 243 268 242 318 315 438 519 679 878 983
1650.0 1072 963 875 785 730 787 881 1370 1934 3279
1690.0 5569 7774 10000 9267 7110 4127 2078 1134 683 619
1730.0 441 392 344 322 259 225 248 218 228 223
1770.0 222 191 236 224 237 244 265 296 268 286
1810.0 241 211 178 162 135 117 125 125 112 91
1850.0 116 115 116 110 103 87 107 113 104 108
1890.0 98 108 106 114 111 109 108 107 106 108
1930.0 119 115 121 108 116 115 112 109 106 100
1970.0 99 107 101 105 104 99 98 105 109 104
2010.0 109 102 104 104 111 108 111 111 109 114
2050.0 114 119 115 117 110 118 115 113 112 111
2090.0 108 105 111 105 107 104 105 103 102 106
2130.0 102 106 102 106 100 102 100 99 99 98
2170.0 100 96 100 96 99 97 101 100 100 105
2210.0 105 108 107 113 110 111 109 109 106 105
2250.0 106 104 105 103 105 102 104 103 99 99
2290.0 98 99 96 100 97 99 97 98 96 96
2330.0 101 97 107 103 112 100 102 97 109 114
2370.0 111 110 109 111 109 110 109 109 110 110
2410.0 110 110 112 111 113 109 111 108 108 108
2450.0 107 106 107 108 108 112 110 113 113 114
2490.0 116 115 114 109 110 107 106 104 107 107
2530.0 106 105 104 106 105 108 108 109 110 110
2570.0 111 112 112 111 112 111 114 114 115 118
2610.0 118 116 117 121 117 118 114 116 113 114
2650.0 115 113 114 115 119 117 121 123 124 123
2690.0 124 122 123 125 125 129 128 134 137 141
2730.0 146 155 165 169 174 166 162 156 154 150
2770.0 148 148 146 149 152 159 163 172 179 191
2810.0 204 222 239 262 296 340 413 501 591 654
2850.0 702 739 785 839 898 935 940 952 1002 1111
2890.0 1280 1483 1642 1706 1667 1547 1415 1381 1487 1759
2930.0 2204 2509 2512 2297 1842 1442 1277 1263 1351 1532
2970.0 1743 1989 2247 2312 2156 1863 1503 1222 1041 902
3010.0 813 764 767 777 770 733 659 564 469 403
3050.0 353 328 319 326 343 391 493 631 734 834
3090.0 874 791 684 534 347 250 204 187 174 163
3130.0 158 149 144 137 134 127 125 123 124 120
3170.0 122 118 117 118 114 116 111 113 113 115
3210.0 114 114 113 113 112 113 115 109 111 110
3250.0 110 113 111 113 110 116 117 120 118 118
3290.0 116 116 112 108 108 104 104 104 106 109
3330.0 110 109 112 113 110 120 129 144 158 193
3370.0 216 234 244 229 207 175 146 118 114 98
3410.0 106 102 100 99 102 108 105 103 99 106
3450.0 105 103 104 103 104 101 104 102 100 101
3490.0 102 100 95 97 98 102 103 108 106 105
3530.0 98 102 104 99 105 105 106 108 109 106
3570.0 116 109 115 114 110 112 109 108 105 108
3610.0 105 104 95 104 99 105 111 106 108 103
3650.0 106 112 112 106 104 100 99 102 104 100
3690.0 98 103 102 100 102 98 100 97 99 101
3730.0 102 95 104 98 107 98 107 110 103 109
3770.0 105 106 101 104 102 103 103 98 101 101
3810.0 104 94 104 103 104 101 104 104 100 101
3850.0 99 103 107 108 101 101 101 103 108 105
3890.0 103 105 97 102 102 103 101 108 104 104
3930.0 101 100 100 105 110 105 103 98 101 109
##END=
