##TITLE=Ether, 4-chloro-m-tolyl p-nitro-
##JCAMP-DX=4.24
##DATA TYPE=INFRARED SPECTRUM
##ORIGIN=Sadtler Research Labs Under US-EPA Contract
##OWNER=NIST Standard Reference Data Program
##CAS REGISTRY NO=22532-72-5
##MOLFORM=C 13 H 10 Cl N O 3
##XUNITS=1/CM
##YUNITS=ABSORBANCE
##XFACTOR=1.0
##YFACTOR=0.000047040
##DELTAX=4.0
##FIRSTX=450.0
##LASTX=3966.0
##FIRSTY=0.000659
##MAXX=3966
##MINX=450
##MAXY=0.4704
##MINY=0
##NPOINTS=880
##XYDATA=(X++(Y..Y))
450.0 14 95 109 98 76 45 20 63 77 76
490.0 111 121 136 137 177 187 157 139 132 74
530.0 50 48 53 73 104 130 152 165 216 268
570.0 248 200 115 82 43 19 41 12 27 10
610.0 20 53 111 140 117 44 40 87 108 257
650.0 460 584 602 739 812 549 244 179 169 221
690.0 224 194 155 155 89 73 42 87 88 95
730.0 147 190 243 272 333 360 379 302 231 178
770.0 111 75 56 53 69 94 138 241 377 492
810.0 589 608 573 536 518 452 441 500 701 1023
850.0 1315 1701 2414 2643 1673 897 879 1002 998 716
890.0 371 210 116 97 63 41 32 28 18 27
930.0 51 82 148 246 430 660 733 531 287 174
970.0 127 110 112 127 138 173 211 282 370 485
1010.0 540 478 402 403 435 466 479 514 623 887
1050.0 1323 1772 1831 1326 752 470 375 333 341 366
1090.0 398 451 519 615 783 993 1081 1043 1159 1295
1130.0 1068 716 592 668 988 1534 1737 1625 2113 2396
1170.0 1586 785 472 365 335 318 341 383 488 647
1210.0 894 1273 1627 1722 1808 2400 3740 6142 9165 10000
1250.0 7244 4280 3189 3257 3572 3688 3701 3698 3404 2875
1290.0 2309 1829 1418 1123 955 885 887 915 938 963
1330.0 1079 1432 2138 3318 4833 6098 5855 4128 2464 1586
1370.0 1181 974 835 724 639 572 551 620 829 1010
1410.0 978 794 662 571 525 506 510 528 569 621
1450.0 688 735 886 1206 1902 3294 5119 6175 5536 5054
1490.0 5146 4932 3691 2468 1762 1407 1288 1342 1586 2062
1530.0 2742 3483 3953 3927 3464 2799 2117 1679 1469 1562
1570.0 1931 2471 2854 2951 2987 3359 3421 2922 2234 1886
1610.0 1750 1577 1315 919 643 430 325 251 200 169
1650.0 159 148 133 112 106 99 105 70 90 89
1690.0 74 60 87 64 59 53 48 61 51 50
1730.0 52 71 48 61 59 66 67 74 90 93
1770.0 112 104 79 50 43 27 37 34 32 35
1810.0 30 33 24 26 12 12 10 9 9 22
1850.0 17 22 36 47 67 80 90 84 84 73
1890.0 60 67 70 88 106 110 104 85 67 42
1930.0 28 22 16 19 13 18 22 27 32 38
1970.0 44 44 41 40 30 31 26 26 21 28
2010.0 31 31 35 48 42 38 34 32 25 36
2050.0 36 41 35 34 28 27 31 27 22 27
2090.0 25 32 28 32 37 25 20 24 26 20
2130.0 16 10 6 6 8 8 4 7 10 14
2170.0 9 9 9 6 3 8 7 10 5 14
2210.0 21 11 19 16 11 15 9 9 3 7
2250.0 4 8 6 5 8 12 22 20 35 46
2290.0 53 67 100 111 121 123 109 80 85 56
2330.0 41 28 34 39 90 135 87 88 0 26
2370.0 36 59 106 128 115 79 75 66 68 66
2410.0 71 67 61 65 56 53 58 63 66 77
2450.0 93 109 115 112 98 79 57 47 37 46
2490.0 41 34 38 44 37 36 32 41 37 31
2530.0 32 37 33 38 35 27 27 30 32 31
2570.0 32 36 28 35 33 41 44 41 50 48
2610.0 54 42 46 40 33 38 42 41 43 36
2650.0 30 31 21 23 22 19 22 22 16 21
2690.0 24 30 35 39 40 40 38 40 48 42
2730.0 41 31 40 45 34 42 42 42 36 34
2770.0 37 31 35 38 35 39 32 34 27 36
2810.0 35 36 37 55 54 61 69 82 91 98
2850.0 94 115 129 147 146 167 171 176 165 151
2890.0 148 148 136 134 129 135 142 148 171 188
2930.0 223 276 314 310 281 226 192 175 193 214
2970.0 223 218 188 184 184 194 198 168 147 117
3010.0 97 97 95 84 106 119 135 127 134 121
3050.0 110 107 110 111 119 148 173 192 204 219
3090.0 239 209 143 111 80 76 61 57 48 47
3130.0 36 32 30 41 36 27 21 15 25 25
3170.0 27 15 17 30 28 26 32 37 36 25
3210.0 33 38 41 42 43 33 31 39 31 37
3250.0 27 20 33 41 48 37 21 26 28 37
3290.0 39 31 41 36 45 23 37 32 27 35
3330.0 24 30 30 37 43 27 37 30 40 31
3370.0 42 37 22 24 38 38 43 41 43 30
3410.0 56 11 26 31 54 32 38 28 22 33
3450.0 50 48 21 24 35 42 41 24 30 25
3490.0 35 55 42 18 27 52 20 34 25 25
3530.0 47 34 20 32 6 35 30 21 25 32
3570.0 14 41 39 37 51 12 33 47 25 26
3610.0 14 26 34 40 22 36 40 25 25 13
3650.0 32 39 54 45 39 7 44 51 25 35
3690.0 56 38 39 65 43 40 42 53 51 24
3730.0 35 46 31 14 62 48 56 23 13 31
3770.0 56 35 46 25 50 35 44 43 3 30
3810.0 10 85 90 6 26 48 8 21 52 87
3850.0 42 55 25 57 41 31 4 15 3 56
3890.0 20 25 43 19 21 76 27 28 48 24
3930.0 19 22 16 1 62 61 59 16 34 71
##END=
