##TITLE=Cyclobutaneacetic acid, 3-carboxy-2,2-dimethyl-, dimethyl ester
##JCAMP-DX=4.24
##DATA TYPE=INFRARED SPECTRUM
##ORIGIN=Sadtler Research Labs Under US-EPA Contract
##OWNER=NIST Standard Reference Data Program
##CAS REGISTRY NO=22571-83-1
##MOLFORM=C 11 H 18 O 4
##XUNITS=1/CM
##YUNITS=ABSORBANCE
##XFACTOR=1.0
##YFACTOR=0.000121155
##DELTAX=4.0
##FIRSTX=450.0
##LASTX=3966.0
##FIRSTY=0.003513
##MAXX=3966
##MINX=450
##MAXY=1.21155
##MINY=0
##NPOINTS=880
##XYDATA=(X++(Y..Y))
450.0 29 57 86 71 73 77 55 66 88 70
490.0 44 36 31 45 40 28 32 29 14 37
530.0 32 20 11 10 20 23 14 5 17 27
570.0 5 17 38 39 52 71 62 63 72 71
610.0 68 70 87 90 91 109 114 114 92 99
650.0 71 68 36 50 57 45 65 96 74 42
690.0 29 46 76 93 76 78 63 41 35 41
730.0 46 58 58 62 78 91 111 169 195 213
770.0 194 153 140 133 128 131 121 118 127 135
810.0 139 141 139 149 156 170 170 175 176 170
850.0 162 154 168 185 207 226 243 242 226 204
890.0 194 184 182 167 154 130 110 104 104 106
930.0 108 105 114 132 131 126 115 95 83 74
970.0 85 104 144 215 322 435 541 668 813 947
1010.0 1037 1089 1133 1192 1243 1296 1283 1170 1004 848
1050.0 752 713 725 763 800 837 847 824 785 765
1090.0 782 820 862 917 1011 1162 1363 1574 1773 1947
1130.0 2130 2308 2502 2704 2935 3287 3852 4707 5891 7229
1170.0 8230 8417 7937 7096 6361 5924 5652 5258 4689 4113
1210.0 3678 3342 3145 3137 3397 3845 4204 4211 3955 3713
1250.0 3520 3332 3089 2791 2460 2161 1964 1848 1764 1674
1290.0 1527 1381 1285 1308 1418 1593 1762 1871 1846 1706
1330.0 1525 1377 1285 1250 1236 1189 1102 1025 1015 1155
1370.0 1372 1558 1617 1555 1401 1188 945 699 514 413
1410.0 392 403 446 518 653 956 1705 2463 2519 1725
1450.0 1115 965 952 1037 1085 1062 905 692 492 356
1490.0 261 211 166 144 117 93 103 84 76 80
1530.0 85 72 80 71 73 76 80 75 73 83
1570.0 80 85 79 81 70 60 52 47 42 38
1610.0 36 29 28 27 31 26 34 31 36 33
1650.0 46 31 53 54 69 64 82 93 112 136
1690.0 175 224 292 380 502 636 773 925 1101 1325
1730.0 1684 2297 3427 5184 7337 9160 10000 9549 7963 5983
1770.0 4323 3168 2332 1695 1226 896 646 469 334 253
1810.0 195 155 122 104 78 68 60 52 46 39
1850.0 38 36 35 31 30 26 30 26 25 24
1890.0 21 21 19 20 19 18 17 16 18 20
1930.0 25 26 28 27 29 34 34 35 38 39
1970.0 44 47 50 54 55 60 66 72 75 77
2010.0 76 76 72 74 72 75 75 76 76 77
2050.0 78 77 76 77 74 75 70 67 64 59
2090.0 56 52 52 49 48 49 47 45 44 41
2130.0 37 35 30 26 23 19 18 14 12 13
2170.0 12 10 8 7 8 7 10 7 7 3
2210.0 2 2 0 0 0 0 0 1 3 3
2250.0 4 4 3 5 4 4 3 4 3 4
2290.0 3 4 8 8 10 9 10 10 8 7
2330.0 8 10 9 11 10 11 3 8 15 10
2370.0 18 22 19 18 17 15 12 11 8 12
2410.0 11 8 9 7 7 5 4 6 6 3
2450.0 2 4 3 3 1 3 1 1 1 3
2490.0 3 3 5 5 5 5 5 5 7 8
2530.0 5 4 5 3 3 1 3 6 5 5
2570.0 5 7 7 11 13 13 18 21 21 21
2610.0 23 21 19 19 16 16 13 13 15 16
2650.0 18 19 18 18 17 17 16 16 13 13
2690.0 19 18 14 15 17 18 16 19 22 27
2730.0 33 38 42 42 39 32 28 27 29 30
2770.0 30 30 32 29 32 34 36 40 43 50
2810.0 62 75 89 109 127 150 182 235 327 467
2850.0 582 591 504 448 497 607 728 819 870 886
2890.0 894 903 927 959 1008 1093 1210 1334 1447 1550
2930.0 1653 1742 1812 1908 2128 2586 3504 4842 5604 5213
2970.0 4022 3102 2599 2306 2069 1828 1581 1327 1093 894
3010.0 736 643 599 591 588 566 500 417 342 288
3050.0 247 217 195 180 167 161 154 150 143 137
3090.0 135 129 126 120 113 107 99 92 82 75
3130.0 70 65 63 62 53 54 53 49 47 48
3170.0 45 45 41 42 40 39 35 34 34 31
3210.0 27 23 24 24 20 21 21 20 18 17
3250.0 20 21 16 14 16 14 14 15 11 9
3290.0 10 8 12 11 14 9 11 14 17 11
3330.0 13 11 11 20 18 12 12 11 12 14
3370.0 13 17 16 19 17 17 17 14 16 15
3410.0 17 18 12 17 16 22 24 17 19 22
3450.0 27 27 31 38 42 44 55 63 70 82
3490.0 83 80 69 62 50 45 34 25 17 12
3530.0 8 15 11 11 6 10 8 11 8 5
3570.0 6 13 10 9 14 10 15 16 7 11
3610.0 10 14 9 8 14 4 13 12 11 12
3650.0 9 15 13 21 17 15 18 9 15 17
3690.0 16 10 14 8 17 10 11 13 21 15
3730.0 6 7 10 10 1 17 5 11 20 14
3770.0 13 12 19 14 14 9 15 18 16 15
3810.0 21 14 9 2 15 14 20 12 21 14
3850.0 13 0 20 21 6 4 11 13 9 12
3890.0 23 19 23 7 10 18 14 8 6 4
3930.0 0 9 1 14 11 9 7 12 4 3
##END=
