##TITLE=Benzene, 1-(1-cyclohexen-1-yl)-2-methyl-
##JCAMP-DX=4.24
##DATA TYPE=INFRARED SPECTRUM
##ORIGIN=Sadtler Research Labs Under US-EPA Contract
##OWNER=NIST Standard Reference Data Program
##CAS REGISTRY NO=22618-51-5
##MOLFORM=C 13 H 16
##XUNITS=1/CM
##YUNITS=ABSORBANCE
##XFACTOR=1.0
##YFACTOR=0.000080887
##DELTAX=4.0
##FIRSTX=450.0
##LASTX=3966.0
##FIRSTY=0.073122
##MAXX=3966
##MINX=450
##MAXY=0.80887
##MINY=0
##NPOINTS=880
##XYDATA=(X++(Y..Y))
450.0 904 561 340 217 181 93 146 51 88 69
490.0 125 141 208 159 215 207 125 132 139 176
530.0 85 371 302 222 228 200 214 153 176 171
570.0 201 180 91 141 39 82 93 66 95 101
610.0 92 69 88 78 62 35 23 56 109 201
650.0 270 287 270 229 152 163 93 106 78 107
690.0 111 111 120 115 180 247 478 770 1154 1413
730.0 1240 1154 1233 1642 2230 2907 3118 2407 1577 885
770.0 429 277 238 250 263 293 300 324 338 311
810.0 282 216 165 147 177 207 282 355 432 488
850.0 468 392 281 176 139 112 112 93 101 114
890.0 107 124 144 192 273 375 485 572 596 557
930.0 438 306 203 135 121 108 114 106 119 130
970.0 145 147 156 158 163 174 207 297 423 496
1010.0 459 347 217 161 159 172 214 273 350 412
1050.0 440 405 332 267 227 244 277 276 241 190
1090.0 149 134 133 154 186 231 300 333 346 338
1130.0 380 462 494 472 352 229 170 143 140 153
1170.0 174 180 176 147 115 109 114 111 101 98
1210.0 101 99 102 99 112 129 178 236 260 239
1250.0 188 158 166 207 258 293 310 278 238 196
1290.0 169 163 157 167 169 163 152 150 150 173
1330.0 199 265 379 518 602 566 432 296 217 184
1370.0 182 222 279 322 335 306 240 197 186 202
1410.0 205 228 251 268 306 380 533 750 1017 1212
1450.0 1332 1350 1314 1142 951 824 797 876 1014 1131
1490.0 1054 894 650 430 331 261 204 190 185 156
1530.0 134 120 129 121 109 100 108 113 135 106
1570.0 139 152 191 166 180 185 208 277 310 325
1610.0 271 224 154 126 97 101 91 115 89 125
1650.0 121 190 151 152 163 133 120 116 119 172
1690.0 166 181 197 179 149 162 194 242 279 290
1730.0 286 258 209 152 122 114 103 103 117 119
1770.0 124 132 109 112 108 137 158 155 146 123
1810.0 102 91 95 104 127 126 119 93 82 79
1850.0 74 73 73 69 69 75 89 96 103 105
1890.0 103 101 114 144 182 196 182 150 113 94
1930.0 99 124 166 182 165 129 84 62 55 46
1970.0 56 49 51 48 58 51 47 49 47 48
2010.0 40 36 36 37 29 25 20 16 15 7
2050.0 11 7 19 22 15 5 2 5 8 10
2090.0 19 26 36 37 46 44 43 40 40 42
2130.0 42 42 43 43 46 41 44 43 42 42
2170.0 48 50 53 48 51 54 54 51 52 53
2210.0 52 49 53 50 49 50 48 54 52 51
2250.0 52 55 51 51 56 55 59 59 52 54
2290.0 49 46 42 40 43 50 59 61 68 58
2330.0 46 39 46 30 2 31 56 64 4 2
2370.0 2 2 2 2 12 27 42 45 44 48
2410.0 50 45 43 43 44 35 37 31 31 25
2450.0 26 24 22 25 26 31 34 33 34 37
2490.0 36 38 38 34 36 43 46 50 48 43
2530.0 43 39 40 36 32 34 29 30 30 29
2570.0 36 33 33 37 39 36 47 49 50 58
2610.0 63 72 71 75 78 76 67 69 85 99
2650.0 96 91 88 95 103 95 108 111 102 91
2690.0 81 76 66 66 55 54 45 48 46 49
2730.0 45 56 53 66 70 65 58 61 66 66
2770.0 66 76 76 97 114 127 142 160 174 192
2810.0 200 213 238 262 322 430 671 1107 1811 2520
2850.0 2831 2705 2523 2750 3109 3184 2898 2411 2175 2185
2890.0 2236 2253 2206 2176 2249 2477 3064 4013 5162 6324
2930.0 7319 7997 8880 10000 9740 8029 5466 2766 1593 1262
2970.0 1121 1063 958 890 819 790 802 835 886 925
3010.0 1054 1295 1676 2043 2240 2172 1856 1451 1121 948
3050.0 919 1020 1239 1609 1954 2092 1926 1517 1105 778
3090.0 593 493 432 371 308 241 192 155 131 131
3130.0 132 125 123 114 116 117 111 100 75 72
3170.0 68 56 54 57 51 68 64 72 69 72
3210.0 78 81 86 76 76 72 67 60 36 22
3250.0 22 35 30 34 31 39 52 57 49 52
3290.0 44 30 39 53 46 54 57 56 49 39
3330.0 38 41 43 32 27 49 53 64 45 34
3370.0 38 42 46 41 32 43 48 47 58 69
3410.0 60 51 46 38 48 48 48 43 21 32
3450.0 37 35 49 41 39 49 57 54 41 34
3490.0 52 39 47 52 46 51 40 37 27 35
3530.0 27 37 53 57 59 41 53 44 47 41
3570.0 46 57 45 49 68 42 55 52 56 53
3610.0 45 45 71 64 64 58 34 40 56 76
3650.0 70 78 47 60 59 79 79 119 54 63
3690.0 50 35 42 64 76 80 35 63 69 88
3730.0 76 89 50 35 91 59 71 51 84 74
3770.0 34 53 84 82 46 51 90 95 69 90
3810.0 43 63 41 101 55 33 66 84 36 43
3850.0 75 124 94 52 51 67 46 57 97 71
3890.0 102 74 39 48 0 37 59 105 57 46
3930.0 32 34 110 67 104 45 62 36 89 44
##END=
