##TITLE=4,4,6-Trimethyl-2-vinyl-1,3-dioxane
##JCAMP-DX=4.24
##DATA TYPE=INFRARED SPECTRUM
##ORIGIN=Sadtler Research Labs Under US-EPA Contract
##OWNER=NIST Standard Reference Data Program
##CAS REGISTRY NO=22634-89-5
##MOLFORM=C 9 H 16 O 2
##XUNITS=1/CM
##YUNITS=ABSORBANCE
##XFACTOR=1.0
##YFACTOR=0.000058838
##DELTAX=4.0
##FIRSTX=450.0
##LASTX=3966.0
##FIRSTY=0.013356
##MAXX=3966
##MINX=450
##MAXY=0.58838
##MINY=0
##NPOINTS=880
##XYDATA=(X++(Y..Y))
450.0 227 297 178 153 143 148 209 280 315 330
490.0 345 412 313 334 282 169 39 39 86 155
530.0 120 137 61 15 40 153 134 158 146 80
570.0 80 147 236 177 98 10 97 218 188 201
610.0 115 158 169 106 151 225 146 126 116 162
650.0 166 145 61 69 152 254 192 239 164 164
690.0 269 313 375 375 417 487 476 421 334 275
730.0 171 235 277 100 104 152 227 274 157 158
770.0 206 235 286 286 313 340 315 204 281 212
810.0 233 190 197 238 213 274 265 283 351 405
850.0 589 755 881 913 819 731 741 918 1195 1502
890.0 1698 1624 1449 1207 1099 1040 1052 1142 1489 2016
930.0 2397 2702 2479 1861 1463 1173 1075 1039 1141 1289
970.0 1427 1824 2411 3112 3819 4519 4880 5152 5296 5400
1010.0 5549 5727 5696 5603 5211 4457 3613 2994 2681 2519
1050.0 2449 2473 2748 3289 3865 4499 4827 4845 4614 4405
1090.0 4459 4749 4901 4771 4133 3334 2655 2202 2066 2048
1130.0 2137 2250 2323 2388 2476 2726 3362 4416 5714 7106
1170.0 7716 7572 6817 5646 4612 3736 3109 2684 2578 2817
1210.0 3073 3201 3201 3078 2834 2392 1960 1497 1063 815
1250.0 775 885 1144 1487 1733 1803 1649 1385 1057 863
1290.0 857 959 1092 1211 1451 1892 2409 2842 2992 2710
1330.0 2064 1578 1466 1615 1799 1961 2059 2262 2723 3382
1370.0 4155 4942 4869 4544 3843 2837 1999 1294 931 877
1410.0 1017 1275 1580 1843 2055 2185 2180 2104 1902 1707
1450.0 1499 1247 1158 1062 1028 934 844 676 545 415
1490.0 320 269 259 221 214 208 181 176 204 176
1530.0 153 160 170 193 156 163 169 187 173 152
1570.0 148 164 165 140 157 156 164 153 164 155
1610.0 155 147 173 161 157 153 172 195 176 194
1650.0 201 246 211 183 177 171 159 166 164 182
1690.0 141 155 173 163 154 154 147 172 151 134
1730.0 124 140 129 135 136 133 134 125 136 136
1770.0 154 163 157 148 152 136 141 142 131 122
1810.0 122 112 121 111 124 119 115 119 127 135
1850.0 149 175 209 262 271 278 264 237 198 162
1890.0 140 132 126 116 121 123 122 130 113 113
1930.0 112 109 117 110 110 129 134 125 143 134
1970.0 117 117 116 109 101 104 103 97 108 103
2010.0 98 106 105 105 104 105 102 105 101 97
2050.0 109 93 102 110 113 101 110 100 100 100
2090.0 99 83 97 91 91 96 89 96 87 90
2130.0 89 80 80 87 87 86 92 87 91 79
2170.0 76 68 67 66 57 49 48 48 57 57
2210.0 46 52 47 53 46 60 45 54 44 53
2250.0 52 50 51 47 51 51 51 43 50 41
2290.0 50 67 65 74 50 68 70 48 63 68
2330.0 63 87 64 62 62 61 61 107 128 70
2370.0 54 73 61 37 41 26 34 32 32 24
2410.0 24 32 39 37 34 38 33 29 39 36
2450.0 38 46 36 37 26 43 42 41 42 26
2490.0 16 26 18 18 15 16 15 24 23 13
2530.0 24 16 14 25 15 23 22 22 39 31
2570.0 40 40 48 61 87 96 98 124 129 136
2610.0 159 184 218 237 236 234 204 174 151 136
2650.0 121 134 160 167 185 203 204 179 177 172
2690.0 169 184 211 230 246 266 264 258 249 240
2730.0 248 258 257 250 266 269 271 286 297 322
2770.0 321 325 342 350 350 352 380 393 412 439
2810.0 482 534 608 711 845 1031 1233 1478 1731 1932
2850.0 2121 2256 2435 2643 2955 2981 2674 2423 2079 1768
2890.0 1535 1394 1355 1383 1561 1899 2337 2697 2895 2744
2930.0 2772 3077 3812 4352 5207 4001 3207 2199 1595 1650
2970.0 2540 4507 7063 9606 10000 8595 5626 3277 1644 939
3010.0 680 520 399 341 343 361 439 515 533 500
3050.0 431 344 273 231 206 221 220 266 342 455
3090.0 609 768 857 869 746 597 421 292 185 138
3130.0 128 117 120 122 109 104 101 107 100 108
3170.0 110 95 113 101 101 92 92 108 102 92
3210.0 102 85 86 56 51 40 37 40 29 38
3250.0 40 44 40 46 36 18 43 19 28 36
3290.0 40 44 29 36 41 29 26 28 36 36
3330.0 28 27 18 31 33 26 13 24 30 23
3370.0 30 15 30 39 31 23 28 48 30 30
3410.0 32 37 31 32 23 22 31 41 40 33
3450.0 33 22 34 20 10 29 7 18 32 17
3490.0 33 33 34 34 9 21 26 33 1 25
3530.0 20 24 28 9 18 19 34 19 24 36
3570.0 55 40 50 53 37 37 45 37 44 1
3610.0 32 30 17 38 38 39 13 14 20 36
3650.0 39 21 39 28 41 32 38 31 8 25
3690.0 47 30 16 22 23 23 37 24 16 35
3730.0 41 35 26 5 34 39 42 24 32 35
3770.0 33 22 17 7 9 23 34 29 18 8
3810.0 16 34 35 35 33 45 37 43 44 33
3850.0 0 17 11 10 20 28 10 4 14 39
3890.0 45 43 34 39 29 31 29 22 4 1
3930.0 1 1 1 4 1 1 1 1 1 1
##END=
