##TITLE=Benzylamine, N,N-dioctyl-,
##JCAMP-DX=4.24
##DATA TYPE=INFRARED SPECTRUM
##ORIGIN=Sadtler Research Labs Under US-EPA Contract
##OWNER=NIST Standard Reference Data Program
##CAS REGISTRY NO=22643-20-5
##MOLFORM=C 23 H 41 N
##XUNITS=1/CM
##YUNITS=ABSORBANCE
##XFACTOR=1.0
##YFACTOR=0.000125412
##DELTAX=4.0
##FIRSTX=450.0
##LASTX=3966.0
##FIRSTY=0.000000
##MAXX=3966
##MINX=450
##MAXY=1.25412
##MINY=0
##NPOINTS=880
##XYDATA=(X++(Y..Y))
450.0 0 245 187 342 282 274 384 296 331 310
490.0 303 341 292 368 258 338 326 294 343 288
530.0 274 280 313 295 263 291 259 245 275 306
570.0 334 293 262 253 233 331 283 282 346 293
610.0 327 386 301 337 334 275 283 284 287 264
650.0 233 266 288 319 310 428 353 404 459 607
690.0 788 1243 1543 1327 1043 948 938 996 1061 1198
730.0 1413 1430 1346 1204 940 666 627 543 469 436
770.0 376 420 381 361 340 332 295 329 362 332
810.0 350 383 359 388 380 339 348 370 341 367
850.0 354 359 334 386 361 349 378 347 348 372
890.0 363 397 398 427 457 437 409 407 394 396
930.0 382 426 414 440 443 486 503 518 533 519
970.0 502 504 484 480 457 421 436 450 449 491
1010.0 517 558 605 693 873 881 724 672 662 653
1050.0 675 693 714 730 767 838 838 800 820 857
1090.0 921 973 988 971 940 857 793 716 702 683
1130.0 696 742 811 865 870 851 783 732 674 637
1170.0 627 648 648 647 653 649 685 676 687 620
1210.0 606 589 569 571 558 561 583 616 628 630
1250.0 670 661 675 685 685 676 664 674 689 692
1290.0 718 708 728 736 726 727 722 712 701 696
1330.0 699 726 805 875 942 989 1032 1064 1087 1078
1370.0 1048 975 954 890 784 704 607 564 516 488
1410.0 506 462 523 519 568 612 666 835 977 1131
1450.0 1432 1655 1615 1630 1494 1357 1069 866 787 774
1490.0 867 920 823 621 551 484 427 400 350 294
1530.0 336 275 328 213 287 287 257 282 227 281
1570.0 274 259 323 290 342 307 361 370 388 369
1610.0 300 308 249 285 297 282 310 318 291 345
1650.0 332 313 366 314 364 331 387 351 431 421
1690.0 519 560 661 754 781 734 631 556 474 456
1730.0 452 408 425 363 403 399 419 426 415 426
1770.0 429 416 369 371 357 327 347 315 338 292
1810.0 270 261 235 244 211 235 200 218 203 217
1850.0 209 210 216 225 227 234 223 227 220 222
1890.0 205 207 202 199 192 205 197 207 202 213
1930.0 218 232 252 252 245 234 232 234 208 210
1970.0 195 197 195 192 195 195 192 191 188 193
2010.0 193 193 193 194 198 193 197 195 196 194
2050.0 190 193 190 189 193 187 188 188 187 189
2090.0 186 186 188 187 184 187 184 186 187 188
2130.0 185 193 191 187 189 190 191 193 195 197
2170.0 198 195 196 197 198 197 197 196 194 197
2210.0 193 194 198 193 197 198 194 199 203 203
2250.0 204 202 208 208 208 209 209 212 206 208
2290.0 211 203 211 213 217 229 234 240 235 255
2330.0 259 248 286 224 296 212 304 248 294 257
2370.0 250 238 232 224 214 213 211 215 218 213
2410.0 213 217 215 216 214 212 212 212 215 215
2450.0 212 213 210 215 212 215 215 217 221 218
2490.0 221 224 221 226 228 228 230 232 232 234
2530.0 237 237 243 244 248 248 251 255 261 263
2570.0 266 271 275 279 285 291 291 296 302 301
2610.0 306 313 311 323 325 331 335 342 349 353
2650.0 366 371 383 394 405 414 422 431 445 457
2690.0 466 473 490 506 524 539 550 566 580 593
2730.0 613 626 641 665 679 696 715 735 762 796
2770.0 843 897 980 1097 1256 1459 1672 1846 1945 1939
2810.0 1880 1802 1735 1684 1649 1636 1650 1722 1886 2201
2850.0 2703 3352 4008 4417 4333 3982 3595 3287 3130 3073
2890.0 3031 3079 3273 3610 4048 4604 5273 6137 7281 8575
2930.0 9699 10000 9373 8367 7186 6167 5410 4995 4807 4613
2970.0 4180 3373 2504 1894 1510 1264 1093 973 896 833
3010.0 801 794 818 895 1003 1085 1056 940 816 727
3050.0 690 688 744 832 937 1013 957 808 732 710
3090.0 654 570 496 451 427 402 378 354 336 319
3130.0 303 306 297 295 292 292 293 290 290 287
3170.0 286 284 280 273 276 271 270 264 262 262
3210.0 258 257 251 256 253 249 246 248 244 237
3250.0 240 244 241 238 236 240 236 239 238 235
3290.0 231 235 235 237 240 235 241 238 237 240
3330.0 234 235 233 240 244 240 240 237 237 241
3370.0 241 246 245 251 244 250 247 249 249 251
3410.0 250 249 242 249 248 255 254 253 253 255
3450.0 251 260 256 254 259 261 264 255 260 254
3490.0 258 252 250 240 254 235 259 250 255 258
3530.0 246 245 255 255 263 249 265 235 290 245
3570.0 292 305 337 323 318 297 287 295 269 292
3610.0 254 273 255 293 266 302 251 325 295 307
3650.0 258 288 282 265 323 207 332 196 323 275
3690.0 257 292 276 307 278 275 280 264 302 250
3730.0 302 291 232 341 206 329 194 308 271 282
3770.0 298 251 312 284 280 324 260 292 254 260
3810.0 306 251 296 216 309 270 293 294 254 324
3850.0 214 321 204 336 275 240 315 254 324 255
3890.0 304 259 330 251 247 323 269 328 265 324
3930.0 265 304 290 288 291 290 318 292 283 319
##END=
