##TITLE=1,1,1,3-Tetrachlorotetrafluoropropane
##JCAMP-DX=4.24
##DATA TYPE=INFRARED SPECTRUM
##ORIGIN=Sadtler Research Labs Under US-EPA Contract
##OWNER=NIST Standard Reference Data Program
##CAS REGISTRY NO=2268-46-4
##MOLFORM=C 3 Cl 4 F 4
##XUNITS=1/CM
##YUNITS=ABSORBANCE
##XFACTOR=1.0
##YFACTOR=0.000164331
##DELTAX=4.0
##FIRSTX=450.0
##LASTX=3966.0
##FIRSTY=0.004108
##MAXX=3966
##MINX=450
##MAXY=1.64331
##MINY=0
##NPOINTS=880
##XYDATA=(X++(Y..Y))
450.0 25 30 21 24 0 46 32 56 64 54
490.0 44 83 71 54 53 31 33 15 27 59
530.0 56 48 59 48 43 45 39 60 47 33
570.0 26 44 38 49 95 185 317 410 438 420
610.0 445 459 436 316 194 108 110 142 213 280
650.0 290 256 156 162 166 607 1004 1107 935 515
690.0 219 223 259 455 946 1788 2945 3994 4649 4560
730.0 3674 2405 1285 684 507 513 676 943 1347 1709
770.0 1808 1481 886 431 243 177 163 166 187 212
810.0 228 245 275 338 441 586 818 1254 2156 3889
850.0 6573 8491 7472 3693 1526 696 423 307 248 205
890.0 192 182 187 201 233 272 341 433 640 1111
930.0 1928 2932 3506 3238 2193 1280 980 1109 1510 2097
970.0 2538 2496 1879 1114 589 353 252 187 144 112
1010.0 101 87 82 77 80 83 85 88 94 106
1050.0 125 156 200 275 389 569 857 1275 1793 2265
1090.0 2574 2686 2846 3368 4180 4664 4201 3074 1958 1354
1130.0 1209 1225 1228 1217 1283 1537 2052 2872 3934 4983
1170.0 5789 6665 8177 9658 10000 7639 4523 2194 937 502
1210.0 381 336 338 373 457 577 761 958 1070 993
1250.0 772 542 383 294 236 190 151 121 91 70
1290.0 61 56 53 52 50 51 48 45 42 37
1330.0 36 33 31 33 36 36 39 40 43 45
1370.0 50 51 53 51 47 43 39 33 33 32
1410.0 34 38 39 39 36 35 33 33 36 39
1450.0 41 40 37 36 33 29 28 27 27 27
1490.0 25 25 23 24 23 23 25 22 24 22
1530.0 18 22 18 19 19 22 23 24 20 18
1570.0 15 16 14 16 15 14 13 13 10 10
1610.0 12 13 14 14 16 14 15 16 19 21
1650.0 21 20 19 18 15 15 15 14 16 16
1690.0 17 21 23 25 26 26 24 24 26 25
1730.0 18 17 15 11 10 10 9 7 5 4
1770.0 5 10 15 18 19 19 17 15 15 13
1810.0 14 14 12 12 14 12 13 14 15 14
1850.0 18 19 18 16 14 9 8 7 6 8
1890.0 7 7 6 6 6 5 6 4 5 7
1930.0 7 7 7 5 5 4 6 6 6 6
1970.0 7 6 8 7 4 7 6 7 9 9
2010.0 9 12 13 14 15 16 14 11 12 10
2050.0 8 6 6 6 5 5 4 4 5 5
2090.0 7 6 5 7 7 9 7 8 6 7
2130.0 7 7 7 6 6 6 6 6 7 6
2170.0 6 9 9 10 11 12 11 12 12 10
2210.0 10 12 12 12 12 11 11 14 16 19
2250.0 21 23 22 22 22 25 26 28 31 30
2290.0 30 26 23 22 20 20 25 26 31 37
2330.0 37 35 41 47 51 57 50 43 34 32
2370.0 25 23 22 21 20 17 19 22 20 23
2410.0 23 23 25 27 27 30 31 29 27 22
2450.0 15 10 7 5 6 5 5 4 5 2
2490.0 2 3 5 5 4 3 4 3 4 4
2530.0 4 2 4 3 2 4 3 2 4 2
2570.0 3 1 2 2 2 2 4 2 2 1
2610.0 2 2 4 1 3 3 1 3 3 3
2650.0 2 2 3 4 3 3 4 2 0 1
2690.0 2 1 3 2 1 2 2 2 3 3
2730.0 3 1 3 3 3 3 3 2 2 2
2770.0 3 4 1 0 3 4 2 3 3 2
2810.0 4 2 5 3 3 4 3 1 0 2
2850.0 3 3 4 3 5 4 5 5 5 5
2890.0 3 4 4 4 4 7 6 5 4 7
2930.0 6 4 7 6 7 5 6 6 7 4
2970.0 5 5 8 6 7 5 3 3 5 2
3010.0 2 1 5 2 4 5 2 4 4 4
3050.0 2 2 2 3 1 1 1 2 4 3
3090.0 6 5 2 0 3 4 2 4 4 3
3130.0 3 1 2 3 2 5 3 3 5 2
3170.0 4 3 4 4 4 0 4 3 0 2
3210.0 5 5 4 3 3 4 3 5 4 3
3250.0 5 4 5 2 5 5 5 6 5 2
3290.0 4 4 7 4 5 7 6 2 2 3
3330.0 6 3 4 3 3 6 7 5 3 4
3370.0 5 5 5 6 5 5 7 5 7 5
3410.0 6 5 7 7 1 6 2 4 5 7
3450.0 2 4 6 5 5 5 8 11 4 6
3490.0 5 1 6 1 4 5 0 3 1 4
3530.0 11 3 6 3 3 8 4 0 6 2
3570.0 3 8 1 6 1 4 4 8 4 4
3610.0 0 5 6 10 10 3 4 3 10 9
3650.0 6 4 1 5 6 3 6 2 8 11
3690.0 7 5 10 5 7 5 9 3 5 9
3730.0 10 8 5 6 3 8 3 4 8 5
3770.0 3 6 8 7 6 8 1 12 12 11
3810.0 5 6 11 8 5 4 11 9 8 10
3850.0 10 5 0 6 4 7 4 5 8 9
3890.0 7 8 11 9 12 17 12 11 10 9
3930.0 6 5 11 6 13 12 13 11 0 0
##END=
