##TITLE=Pyridine, 2-(p-chloroanilino)-,
##JCAMP-DX=4.24
##DATA TYPE=INFRARED SPECTRUM
##ORIGIN=Sadtler Research Labs Under US-EPA Contract
##OWNER=NIST Standard Reference Data Program
##CAS REGISTRY NO=22681-77-2
##MOLFORM=C 11 H 9 Cl N 2
##XUNITS=1/CM
##YUNITS=ABSORBANCE
##XFACTOR=1.0
##YFACTOR=0.000106772
##DELTAX=4.0
##FIRSTX=450.0
##LASTX=3966.0
##FIRSTY=0.079759
##MAXX=3966
##MINX=450
##MAXY=1.06772
##MINY=0
##NPOINTS=880
##XYDATA=(X++(Y..Y))
450.0 747 691 643 690 628 624 558 573 578 638
490.0 703 805 781 552 393 306 291 233 150 66
530.0 40 49 44 43 31 7 0 29 24 20
570.0 19 53 50 53 79 82 119 168 221 237
610.0 229 205 174 168 171 146 134 135 130 142
650.0 146 135 122 126 131 152 170 168 194 211
690.0 228 229 243 242 269 320 405 457 494 575
730.0 705 804 784 738 692 730 854 1105 1454 1726
770.0 1629 1246 909 689 605 600 690 832 959 1020
810.0 1035 1068 1086 1104 1016 874 699 561 463 377
850.0 305 234 195 153 138 117 114 129 148 181
890.0 193 178 135 111 92 100 110 119 132 139
930.0 144 146 150 154 171 175 192 190 198 205
970.0 218 260 329 525 698 654 424 290 309 506
1010.0 813 837 636 334 241 237 240 257 292 329
1050.0 336 318 297 296 314 349 413 546 840 1367
1090.0 1911 2142 1905 1324 898 711 629 568 504 458
1130.0 435 453 525 711 1012 1169 875 491 349 342
1170.0 408 525 519 417 325 293 295 307 334 370
1210.0 427 520 670 852 1007 1013 879 764 741 736
1250.0 719 706 699 706 712 741 825 978 1110 1128
1290.0 1119 1255 1600 2142 2809 3491 4137 4265 3745 3026
1330.0 2556 2221 1809 1369 998 784 660 612 568 510
1370.0 466 456 482 528 623 713 819 851 806 785
1410.0 844 1089 1628 2287 2261 2258 2507 3508 5318 6102
1450.0 5030 2959 1832 1781 2069 2761 3803 4728 4970 5315
1490.0 5957 6826 8058 9391 10000 8420 6131 3854 2545 1722
1530.0 1341 1093 1004 980 957 953 1004 1159 1392 1856
1570.0 2633 3552 4452 5160 5421 5671 5535 5028 4479 4074
1610.0 3387 2298 1344 768 520 376 319 271 223 199
1650.0 186 168 137 112 118 122 131 111 137 138
1690.0 120 106 130 122 107 88 82 86 32 8
1730.0 2 25 17 40 76 110 124 118 116 90
1770.0 95 77 60 55 59 63 72 76 83 75
1810.0 79 84 74 80 76 85 75 75 79 85
1850.0 80 78 87 97 117 139 149 154 151 142
1890.0 129 122 113 115 114 110 97 89 87 87
1930.0 91 88 85 84 85 78 76 68 58 55
1970.0 47 42 39 38 35 38 35 32 29 27
2010.0 23 26 29 30 30 31 34 34 32 27
2050.0 25 26 27 28 28 29 29 26 26 30
2090.0 32 33 35 34 37 37 38 38 40 35
2130.0 35 31 29 26 23 23 19 21 17 15
2170.0 12 9 11 9 10 9 13 14 12 10
2210.0 11 6 5 3 0 3 6 5 8 10
2250.0 10 10 11 11 15 18 21 23 27 33
2290.0 41 45 49 62 64 66 60 62 65 61
2330.0 56 52 45 41 53 47 65 53 58 48
2370.0 57 53 59 52 42 34 29 28 24 26
2410.0 24 24 22 21 22 20 22 22 22 19
2450.0 23 26 29 34 38 42 47 53 60 69
2490.0 69 71 63 60 51 44 37 41 38 39
2530.0 43 46 49 49 53 55 58 60 54 48
2570.0 40 35 25 24 21 21 21 20 19 19
2610.0 21 22 23 25 22 21 19 18 16 17
2650.0 14 15 14 17 17 20 22 21 23 25
2690.0 28 28 31 32 36 37 42 44 44 52
2730.0 54 52 51 52 47 44 42 40 38 34
2770.0 29 32 33 35 42 44 53 56 58 57
2810.0 61 60 58 57 60 60 63 66 68 67
2850.0 64 61 56 54 57 55 53 50 48 51
2890.0 56 61 57 56 58 61 61 59 59 62
2930.0 63 69 74 78 83 91 92 85 94 94
2970.0 98 96 108 108 118 134 160 186 231 280
3010.0 336 397 461 520 546 553 532 512 497 497
3050.0 514 531 530 512 498 482 479 502 575 671
3090.0 706 620 473 343 254 191 146 116 98 75
3130.0 65 56 51 44 45 43 45 44 44 46
3170.0 50 51 52 50 48 46 43 47 43 39
3210.0 39 34 38 29 32 32 36 36 32 36
3250.0 36 36 38 35 39 46 42 44 48 44
3290.0 43 47 45 49 50 59 58 58 57 56
3330.0 63 59 72 79 86 90 96 106 114 121
3370.0 127 136 146 155 176 194 209 234 256 278
3410.0 311 344 374 409 431 437 413 371 309 248
3450.0 200 176 165 156 147 118 95 68 44 24
3490.0 17 12 5 6 13 7 3 2 4 6
3530.0 6 5 7 8 9 4 15 12 20 20
3570.0 19 18 14 19 19 23 8 5 2 14
3610.0 20 18 14 4 9 16 14 12 9 10
3650.0 28 23 21 11 12 26 12 24 10 24
3690.0 17 18 21 16 21 22 21 17 25 27
3730.0 23 24 25 22 26 10 21 10 17 26
3770.0 2 11 16 18 14 3 11 13 23 27
3810.0 20 26 17 11 12 0 10 25 21 15
3850.0 14 19 21 16 21 30 20 7 12 17
3890.0 12 2 13 23 20 23 22 21 19 8
3930.0 16 17 23 14 32 16 19 3 17 20
##END=
