##TITLE=1H-Isoindole-1,3(2H)-dione, 2-(2-chlorophenyl)-
##JCAMP-DX=4.24
##DATA TYPE=INFRARED SPECTRUM
##ORIGIN=Sadtler Research Labs Under US-EPA Contract
##OWNER=NIST Standard Reference Data Program
##CAS REGISTRY NO=22698-95-9
##MOLFORM=C 14 H 8 Cl N O 2
##XUNITS=1/CM
##YUNITS=ABSORBANCE
##XFACTOR=1.0
##YFACTOR=0.000032321
##DELTAX=4.0
##FIRSTX=450.0
##LASTX=3966.0
##FIRSTY=0.000000
##MAXX=3966
##MINX=450
##MAXY=0.32321
##MINY=0
##NPOINTS=880
##XYDATA=(X++(Y..Y))
450.0 0 525 478 476 421 438 324 388 398 377
490.0 478 433 424 489 492 456 530 583 719 842
530.0 781 613 545 502 554 513 441 385 414 452
570.0 444 411 389 441 380 460 415 478 459 494
610.0 509 578 764 1174 1591 1248 722 452 406 373
650.0 402 394 431 440 482 602 686 986 1153 914
690.0 916 804 765 899 1349 2413 4138 5366 4294 2221
730.0 1015 642 609 841 1292 1918 2109 1635 1004 573
770.0 409 381 410 493 637 650 475 351 249 255
810.0 228 285 370 400 378 398 399 426 523 728
850.0 1167 1448 1114 693 544 576 763 1105 1713 1883
890.0 1193 658 433 330 346 321 323 322 319 311
930.0 316 334 341 358 351 356 379 371 388 385
970.0 393 383 389 375 376 374 392 392 413 466
1010.0 484 478 504 564 625 687 703 681 715 821
1050.0 1086 1564 1799 1724 1693 1740 1960 2241 2400 2139
1090.0 1806 1819 1900 2016 1974 1679 1392 1225 1117 946
1130.0 803 703 589 498 442 401 435 541 531 480
1170.0 491 552 549 478 404 379 403 469 543 687
1210.0 931 1306 1627 1605 1153 660 481 442 458 527
1250.0 619 695 904 1241 1269 909 630 572 558 558
1290.0 550 513 505 480 491 514 557 626 686 740
1330.0 797 838 934 1019 1154 1391 1818 2635 4112 6342
1370.0 8706 10000 8809 6012 3432 1731 965 689 585 601
1410.0 740 857 1053 918 787 640 646 698 839 1087
1450.0 1074 913 860 916 1222 1562 2125 3424 4723 4364
1490.0 2849 1543 891 771 811 817 714 652 586 402
1530.0 404 448 510 573 555 497 488 556 477 437
1570.0 459 520 564 652 673 729 684 672 613 606
1610.0 560 465 480 415 454 384 438 447 439 446
1650.0 515 530 503 526 567 608 690 692 848 960
1690.0 977 1034 1283 1645 2097 2501 3078 4072 5254 5626
1730.0 5268 5213 5391 5903 6668 7343 8238 7918 5794 3335
1770.0 1826 1148 940 1088 1401 1405 1266 1304 1239 878
1810.0 544 361 280 261 267 264 244 226 268 275
1850.0 245 210 213 213 225 259 250 241 236 237
1890.0 245 248 248 261 292 307 314 297 292 266
1930.0 264 273 297 329 329 308 278 265 261 282
1970.0 288 292 278 265 249 261 262 248 247 252
2010.0 246 257 267 259 263 262 259 260 263 257
2050.0 261 265 261 267 272 264 265 266 270 263
2090.0 273 263 265 259 265 266 255 260 253 261
2130.0 262 254 259 265 271 279 261 289 293 291
2170.0 290 290 293 290 285 281 276 288 283 279
2210.0 284 284 289 293 284 282 287 297 292 292
2250.0 290 295 296 296 294 280 281 294 297 302
2290.0 308 309 327 328 329 326 334 318 324 320
2330.0 301 286 264 330 286 337 289 302 329 303
2370.0 305 323 322 328 303 288 267 259 263 266
2410.0 269 275 270 280 274 293 281 285 290 296
2450.0 299 292 291 287 280 286 281 277 276 268
2490.0 275 280 284 277 261 265 260 261 257 259
2530.0 261 267 273 260 267 271 264 271 272 271
2570.0 268 258 262 261 255 255 260 251 250 253
2610.0 260 255 258 263 264 266 272 256 271 263
2650.0 252 254 257 261 257 271 268 263 269 264
2690.0 264 265 260 251 253 245 241 251 233 236
2730.0 227 238 236 232 236 236 245 236 254 253
2770.0 259 256 255 247 260 242 236 240 242 247
2810.0 237 246 244 245 246 232 245 246 250 232
2850.0 243 235 243 248 251 237 234 233 247 244
2890.0 232 240 238 239 243 258 241 236 258 264
2930.0 253 249 242 240 254 240 261 246 251 256
2970.0 262 264 259 271 262 267 264 272 272 293
3010.0 288 307 315 324 337 357 362 378 393 437
3050.0 449 484 537 610 633 688 708 764 777 781
3090.0 748 653 527 431 364 318 298 281 287 283
3130.0 276 274 261 272 263 269 276 285 283 265
3170.0 261 258 259 257 238 255 264 255 271 274
3210.0 279 279 273 263 260 262 250 257 248 251
3250.0 240 254 247 254 252 246 263 245 262 262
3290.0 254 254 262 277 269 272 260 276 276 274
3330.0 273 288 263 282 271 263 271 273 276 281
3370.0 278 282 276 259 281 274 276 270 263 269
3410.0 252 266 257 282 276 279 294 268 263 271
3450.0 269 273 277 275 286 282 298 286 302 297
3490.0 304 300 301 298 276 303 330 349 356 355
3530.0 336 343 317 316 308 292 291 298 289 268
3570.0 259 299 279 262 274 261 268 271 251 254
3610.0 254 255 258 275 263 268 287 256 262 257
3650.0 262 260 256 262 294 272 284 221 280 273
3690.0 263 266 298 253 266 261 276 260 261 270
3730.0 286 225 267 262 239 265 302 290 286 271
3770.0 269 274 271 261 299 287 275 301 261 255
3810.0 298 265 283 293 242 215 248 261 257 280
3850.0 264 276 268 287 279 282 282 296 291 254
3890.0 244 261 331 283 233 264 278 276 305 305
3930.0 297 263 307 329 333 318 317 311 259 322
##END=
