##TITLE=Benzoic acid, 2-hydroxy-5-methyl-, methyl ester
##JCAMP-DX=4.24
##DATA TYPE=INFRARED SPECTRUM
##ORIGIN=Sadtler Research Labs Under US-EPA Contract
##OWNER=NIST Standard Reference Data Program
##CAS REGISTRY NO=22717-57-3
##MOLFORM=C 9 H 10 O 3
##XUNITS=1/CM
##YUNITS=ABSORBANCE
##XFACTOR=1.0
##YFACTOR=0.000175595
##DELTAX=4.0
##FIRSTX=450.0
##LASTX=3966.0
##FIRSTY=0.069360
##MAXX=3966
##MINX=450
##MAXY=1.75595
##MINY=0
##NPOINTS=880
##XYDATA=(X++(Y..Y))
450.0 395 209 50 310 254 230 374 258 197 207
490.0 85 316 145 0 155 155 160 248 342 483
530.0 688 947 1023 863 538 380 237 178 221 224
570.0 224 281 159 158 160 160 227 177 201 179
610.0 231 274 232 243 223 206 220 200 197 207
650.0 221 255 244 296 378 494 713 873 1020 1074
690.0 1047 1027 1024 1025 957 769 599 392 263 216
730.0 174 194 76 190 316 313 270 530 730 846
770.0 825 702 530 424 434 507 628 706 551 458
810.0 485 686 835 1279 1556 1333 802 676 348 204
850.0 180 142 175 165 136 129 172 195 183 224
890.0 201 259 277 235 219 165 104 114 80 129
930.0 134 110 153 132 159 153 175 189 215 278
970.0 336 362 371 371 363 380 414 486 496 475
1010.0 430 349 265 200 223 210 209 227 221 250
1050.0 259 287 347 421 563 754 1018 1436 2031 2612
1090.0 2861 2663 2073 1242 727 538 443 445 447 465
1130.0 534 601 653 674 706 753 818 872 902 935
1170.0 1015 1211 1519 1890 2419 3240 4324 5726 7529 8834
1210.0 10000 9214 7954 6221 4681 3764 3257 2974 2759 2690
1250.0 2733 2628 2423 2052 1588 1392 1446 1813 2376 3447
1290.0 4884 5755 5896 4899 3271 2293 2243 2728 3273 3595
1330.0 3799 3782 3628 3290 2764 2188 1549 1202 1073 1116
1370.0 1221 1361 1518 1604 1709 1710 1576 1409 1112 857
1410.0 726 637 681 772 943 1206 1728 2506 3042 3269
1450.0 2618 1838 1089 936 856 953 1105 1479 2033 2614
1490.0 3306 3687 3478 3026 2402 1536 989 741 594 548
1530.0 502 483 486 421 389 335 326 383 358 392
1570.0 484 576 686 825 995 1174 1326 1352 1338 1223
1610.0 1110 1111 1099 1056 989 799 678 566 488 483
1650.0 517 521 581 602 727 967 1261 2069 3058 4529
1690.0 6729 6763 7449 6379 4794 3446 2316 1595 1048 759
1730.0 597 554 572 631 784 798 794 748 571 465
1770.0 368 315 266 225 204 165 155 127 116 109
1810.0 84 90 75 66 85 82 82 94 108 136
1850.0 124 115 109 88 92 82 68 65 51 59
1890.0 49 59 67 74 100 103 93 87 67 53
1930.0 47 49 53 55 63 53 56 58 46 58
1970.0 53 60 60 54 55 53 49 46 43 47
2010.0 43 52 54 47 49 41 42 47 46 59
2050.0 68 75 89 93 93 80 63 51 38 41
2090.0 36 37 44 42 49 45 41 38 32 29
2130.0 28 22 22 17 20 18 16 17 16 17
2170.0 17 13 21 18 20 20 16 18 14 15
2210.0 13 12 17 12 14 13 10 14 12 14
2250.0 13 12 13 10 10 14 13 14 9 11
2290.0 12 12 14 9 7 5 3 7 5 12
2330.0 22 17 33 26 24 20 23 28 34 29
2370.0 26 22 22 24 26 29 27 29 26 24
2410.0 26 25 26 23 21 20 14 12 9 7
2450.0 7 6 6 7 9 11 9 14 18 21
2490.0 29 31 36 39 39 41 33 33 30 33
2530.0 36 32 37 37 37 34 34 31 34 29
2570.0 34 41 48 52 56 60 52 51 43 37
2610.0 38 36 33 38 36 36 37 35 38 34
2650.0 35 37 38 36 33 36 37 37 42 43
2690.0 50 51 53 55 53 56 56 60 63 64
2730.0 66 67 72 80 85 89 87 80 78 71
2770.0 74 74 80 81 77 79 76 73 73 75
2810.0 79 84 88 94 102 113 125 141 161 187
2850.0 233 295 356 409 446 472 484 502 507 500
2890.0 468 443 435 443 456 501 555 618 700 803
2930.0 910 969 958 898 810 776 914 1243 1503 1513
2970.0 1359 999 635 492 450 435 452 483 534 594
3010.0 621 628 621 635 678 763 834 823 755 616
3050.0 485 434 428 441 449 447 423 383 350 312
3090.0 287 281 278 279 275 277 277 267 262 255
3130.0 235 228 210 198 188 182 176 168 167 162
3170.0 168 174 180 191 200 207 223 236 257 282
3210.0 307 340 378 424 488 544 612 708 803 929
3250.0 1060 1191 1305 1405 1472 1494 1506 1478 1432 1374
3290.0 1291 1223 1151 1075 1013 944 892 838 795 760
3330.0 714 694 661 636 624 599 577 562 550 537
3370.0 519 509 495 469 458 433 411 391 376 364
3410.0 343 334 316 301 296 271 258 240 220 212
3450.0 199 193 176 172 165 165 173 189 225 301
3490.0 362 406 420 391 340 298 258 226 198 177
3530.0 168 158 136 115 109 91 88 79 74 78
3570.0 64 62 63 56 63 55 48 50 47 45
3610.0 39 42 44 26 38 36 35 22 17 17
3650.0 33 13 16 8 10 26 11 24 3 8
3690.0 3 10 8 7 9 13 10 10 14 17
3730.0 10 12 27 5 34 1 29 3 16 11
3770.0 12 13 13 3 3 3 13 9 18 14
3810.0 20 14 20 24 5 15 16 7 20 3
3850.0 32 16 31 13 8 35 3 16 3 11
3890.0 10 14 12 29 12 18 20 22 16 10
3930.0 26 21 27 38 30 37 18 14 30 14
##END=
