##TITLE=1,3-Benzodioxan, 6-amino-,
##JCAMP-DX=4.24
##DATA TYPE=INFRARED SPECTRUM
##ORIGIN=Sadtler Research Labs Under US-EPA Contract
##OWNER=NIST Standard Reference Data Program
##CAS REGISTRY NO=22791-64-6
##MOLFORM=C 8 H 9 N O 2
##XUNITS=1/CM
##YUNITS=ABSORBANCE
##XFACTOR=1.0
##YFACTOR=0.000121512
##DELTAX=4.0
##FIRSTX=450.0
##LASTX=3966.0
##FIRSTY=0.052372
##MAXX=3966
##MINX=450
##MAXY=1.21512
##MINY=0
##NPOINTS=880
##XYDATA=(X++(Y..Y))
450.0 431 412 452 439 455 490 452 432 405 379
490.0 299 235 141 124 61 39 48 35 64 52
530.0 43 46 79 71 121 171 230 219 135 104
570.0 65 94 155 233 287 268 227 191 155 132
610.0 127 133 179 198 261 345 468 613 809 981
650.0 1126 1155 1139 1011 937 880 879 903 910 911
690.0 905 924 941 936 860 711 547 448 390 345
730.0 348 349 377 437 560 670 723 729 756 809
770.0 939 1011 964 864 674 550 615 843 1083 1516
810.0 1643 1253 1017 807 608 536 588 699 930 1044
850.0 859 743 573 406 277 188 131 94 65 34
890.0 19 6 11 8 26 67 149 284 484 651
930.0 695 682 599 569 702 1039 1454 1810 1943 1801
970.0 1503 1120 906 884 1049 1407 1949 2597 3246 3906
1010.0 4818 5956 6642 6763 6315 5140 3219 1727 973 613
1050.0 467 451 523 698 1000 1433 1971 2429 2510 2429
1090.0 2249 1682 1141 835 624 508 432 411 396 417
1130.0 477 593 727 743 713 669 517 359 272 241
1170.0 249 258 260 245 212 189 197 253 363 607
1210.0 1139 2218 3817 5179 6026 7084 8361 8975 8882 7751
1250.0 6260 3607 2037 1676 1658 1749 1906 1928 1938 1989
1290.0 1830 1495 1227 976 700 517 444 383 327 270
1330.0 229 239 318 572 932 1102 1114 1085 792 451
1370.0 302 212 175 165 170 220 303 429 558 578
1410.0 555 508 364 343 348 414 500 693 1035 1447
1450.0 1882 2166 2216 1885 1550 1336 1372 1529 1840 2280
1490.0 3223 5136 7597 9529 10000 9245 7398 4509 2796 1542
1530.0 872 561 422 324 277 279 242 209 207 222
1570.0 221 239 266 286 328 347 406 469 605 809
1610.0 1136 1429 1629 1741 1768 1680 1526 1302 1103 789
1650.0 492 353 299 253 216 190 157 169 139 121
1690.0 132 119 74 53 59 69 57 39 81 107
1730.0 103 86 103 88 56 37 59 58 71 85
1770.0 88 79 105 92 96 70 60 55 43 59
1810.0 49 45 53 57 56 67 90 126 138 155
1850.0 172 179 165 139 105 66 67 57 50 43
1890.0 39 37 39 41 40 41 41 47 44 59
1930.0 64 66 74 67 76 81 83 76 77 68
1970.0 72 78 85 92 101 101 107 115 114 119
2010.0 124 131 139 148 151 150 144 129 115 100
2050.0 83 64 52 39 32 33 32 36 35 37
2090.0 36 41 43 43 39 32 24 13 6 2
2130.0 0 0 0 3 4 7 9 15 15 19
2170.0 15 15 15 16 15 11 12 10 8 7
2210.0 7 6 8 6 8 11 13 19 24 30
2250.0 36 40 40 39 33 29 28 26 28 26
2290.0 27 28 28 28 32 35 31 29 26 20
2330.0 13 9 6 12 13 28 8 13 9 9
2370.0 12 19 20 24 23 21 19 16 18 19
2410.0 18 20 19 19 19 22 21 22 23 21
2450.0 22 23 26 31 35 38 43 48 46 44
2490.0 37 26 18 13 13 14 15 14 11 12
2530.0 15 17 21 22 26 26 29 28 26 29
2570.0 30 31 32 34 33 35 34 34 33 31
2610.0 32 33 35 35 37 37 36 37 39 40
2650.0 40 39 41 42 45 52 59 70 83 97
2690.0 102 108 107 99 95 86 89 82 84 81
2730.0 83 87 101 118 139 168 190 219 253 319
2770.0 405 546 710 879 974 890 697 543 394 317
2810.0 265 249 245 270 332 454 671 1029 1555 2155
2850.0 2772 3442 4027 3923 3277 2523 1750 1202 832 622
2890.0 501 434 419 428 454 479 519 525 473 415
2930.0 387 365 376 423 498 603 746 913 952 872
2970.0 818 689 487 356 284 273 307 399 592 979
3010.0 1749 2551 2783 2802 2548 1706 1009 753 585 455
3050.0 383 354 331 315 299 273 259 244 214 171
3090.0 142 114 101 87 80 72 65 62 58 55
3130.0 54 51 45 38 32 28 28 20 20 20
3170.0 19 18 19 22 24 25 28 30 34 39
3210.0 45 47 48 43 37 39 36 32 31 33
3250.0 33 36 41 45 48 50 42 40 37 30
3290.0 31 32 33 30 27 33 28 33 34 32
3330.0 41 39 43 43 47 48 58 62 68 81
3370.0 81 92 110 125 156 194 251 308 340 321
3410.0 282 218 154 117 110 103 104 97 99 100
3450.0 111 119 133 151 177 211 248 291 304 296
3490.0 266 222 169 122 92 69 64 57 52 46
3530.0 41 34 31 28 26 16 28 18 19 24
3570.0 20 13 13 17 18 17 20 9 13 16
3610.0 30 13 17 13 15 32 16 15 19 9
3650.0 27 20 14 21 5 24 14 26 13 23
3690.0 13 18 11 8 11 21 17 22 19 16
3730.0 18 21 20 15 51 13 30 21 17 22
3770.0 19 25 10 16 11 13 14 24 8 33
3810.0 10 24 24 20 17 14 21 27 27 17
3850.0 27 41 25 16 26 30 22 18 19 29
3890.0 34 41 36 58 37 40 34 38 38 25
3930.0 37 30 30 23 24 13 34 22 20 12
##END=
