##TITLE=3,4-Xylenol, 6-bromo-,
##JCAMP-DX=4.24
##DATA TYPE=INFRARED SPECTRUM
##ORIGIN=Sadtler Research Labs Under US-EPA Contract
##OWNER=NIST Standard Reference Data Program
##CAS REGISTRY NO=22802-39-7
##MOLFORM=C 8 H 9 Br O
##XUNITS=1/CM
##YUNITS=ABSORBANCE
##XFACTOR=1.0
##YFACTOR=0.000064294
##DELTAX=4.0
##FIRSTX=450.0
##LASTX=3966.0
##FIRSTY=0.018388
##MAXX=3966
##MINX=450
##MAXY=0.64294
##MINY=0
##NPOINTS=880
##XYDATA=(X++(Y..Y))
450.0 286 322 723 885 918 839 423 135 49 19
490.0 44 15 38 28 39 30 77 102 116 83
530.0 157 193 257 360 383 316 214 121 51 21
570.0 15 30 16 33 48 134 161 171 203 154
610.0 142 110 59 73 85 110 155 151 151 112
650.0 58 36 13 32 18 62 87 124 187 245
690.0 318 360 354 290 236 188 179 258 612 1173
730.0 1296 1273 890 395 274 354 512 767 1254 1735
770.0 1831 1683 1145 545 397 345 325 276 207 136
810.0 98 71 44 57 20 58 110 162 249 342
850.0 469 700 1100 1431 1924 2571 1783 1298 869 416
890.0 206 105 69 41 38 42 37 45 53 59
930.0 69 100 124 172 220 284 365 466 662 964
970.0 1408 1709 1790 1641 1247 925 849 914 1083 1243
1010.0 1289 1206 1011 799 617 484 382 307 267 248
1050.0 219 204 182 164 153 152 173 192 213 214
1090.0 199 186 153 150 179 222 353 588 918 1303
1130.0 1757 2431 3229 3630 3522 2764 1585 856 639 735
1170.0 985 1181 1443 1757 2217 3055 4262 5661 6406 6823
1210.0 6517 5300 4058 2886 2045 1425 1004 781 696 720
1250.0 887 1200 1442 1743 2124 2503 3142 3695 3848 3700
1290.0 3292 3153 3835 4715 5067 4861 3894 2608 1597 970
1330.0 622 432 330 262 230 231 255 274 309 336
1370.0 407 540 577 609 637 581 579 534 426 343
1410.0 298 270 331 347 394 441 549 668 868 1177
1450.0 1643 2152 2691 2935 2970 2918 2917 3233 4364 6561
1490.0 8786 10000 9370 7426 4681 2630 1610 1102 904 718
1530.0 672 642 718 805 890 959 1089 1221 1307 1410
1570.0 1543 1688 1792 1787 1628 1438 1199 1082 1083 1172
1610.0 1201 1053 860 550 322 161 133 106 89 98
1650.0 131 133 109 80 80 79 93 60 96 98
1690.0 82 87 153 187 230 299 431 541 501 414
1730.0 321 274 168 128 108 103 77 62 54 31
1770.0 49 38 26 22 30 24 36 27 34 13
1810.0 15 15 2 10 12 18 6 4 13 29
1850.0 17 11 21 22 33 49 35 31 33 31
1890.0 27 23 20 19 25 25 30 34 34 20
1930.0 12 7 3 11 12 8 10 12 10 18
1970.0 17 18 22 26 23 35 29 28 28 37
2010.0 32 34 32 29 24 25 31 33 36 39
2050.0 38 37 30 22 22 13 10 10 5 4
2090.0 7 4 3 7 9 11 13 12 13 10
2130.0 13 14 20 22 19 23 30 29 23 21
2170.0 20 17 14 21 19 21 26 26 25 27
2210.0 29 36 34 35 35 26 18 15 12 9
2250.0 20 18 20 19 22 15 18 22 30 33
2290.0 33 41 36 34 34 34 31 23 29 18
2330.0 22 16 31 2 48 28 27 36 8 2
2370.0 11 22 45 48 51 44 56 62 71 69
2410.0 66 66 52 46 43 45 49 45 55 63
2450.0 66 63 65 68 73 78 80 76 71 70
2490.0 68 62 52 50 55 51 45 44 35 32
2530.0 23 21 26 26 25 22 33 40 49 44
2570.0 48 52 49 56 53 52 45 36 31 26
2610.0 24 16 11 10 6 4 7 9 2 3
2650.0 8 9 11 9 20 28 29 31 36 37
2690.0 38 47 46 51 62 62 71 84 90 87
2730.0 97 104 138 168 176 158 131 103 97 101
2770.0 112 118 124 121 104 102 108 113 118 125
2810.0 129 142 152 168 184 208 230 256 288 321
2850.0 371 453 568 743 994 1262 1488 1611 1590 1494
2890.0 1383 1302 1248 1222 1222 1244 1290 1401 1645 2093
2930.0 2710 3207 3366 3193 2749 2363 2156 1965 1752 1616
2970.0 1580 1650 1735 1708 1604 1362 1078 869 725 640
3010.0 605 584 605 628 694 766 870 934 936 887
3050.0 790 672 582 520 485 448 406 371 340 308
3090.0 281 261 250 235 227 214 195 182 156 127
3130.0 115 101 89 87 71 76 73 81 88 90
3170.0 90 83 81 71 76 71 76 84 78 83
3210.0 84 78 73 71 63 60 54 62 64 58
3250.0 63 56 56 53 57 60 62 61 56 64
3290.0 72 77 89 89 92 97 95 86 84 79
3330.0 74 83 78 76 80 70 83 91 86 85
3370.0 100 129 141 155 151 122 95 102 95 95
3410.0 84 89 77 68 73 83 80 79 79 73
3450.0 65 78 82 69 85 91 93 78 68 65
3490.0 87 97 90 79 60 114 116 138 133 103
3530.0 149 214 297 412 605 1191 3373 6736 8321 8590
3570.0 6366 3480 1876 1002 561 311 292 195 234 166
3610.0 101 99 75 94 93 53 111 230 285 369
3650.0 320 349 354 254 176 108 20 37 51 94
3690.0 13 73 79 63 68 48 6 85 24 14
3730.0 73 23 23 65 81 0 62 59 71 93
3770.0 65 106 83 85 83 111 103 75 16 90
3810.0 73 144 36 68 88 95 73 51 21 82
3850.0 71 3 60 96 31 52 69 121 36 66
3890.0 52 107 93 72 54 141 141 116 83 97
3930.0 106 89 108 124 108 97 141 124 142 127
##END=
