##TITLE=Cyclopropanecarboxylic acid, 2-nitro-, trans-,
##JCAMP-DX=4.24
##DATA TYPE=INFRARED SPECTRUM
##ORIGIN=Sadtler Research Labs Under US-EPA Contract
##OWNER=NIST Standard Reference Data Program
##CAS REGISTRY NO=22882-43-5
##MOLFORM=C 4 H 5 N O 4
##XUNITS=1/CM
##YUNITS=ABSORBANCE
##XFACTOR=1.0
##YFACTOR=0.000107547
##DELTAX=4.0
##FIRSTX=450.0
##LASTX=3966.0
##FIRSTY=0.009357
##MAXX=3966
##MINX=450
##MAXY=1.07547
##MINY=0
##NPOINTS=880
##XYDATA=(X++(Y..Y))
450.0 87 72 20 50 26 64 81 126 240 393
490.0 470 490 513 443 340 237 227 229 261 287
530.0 367 452 570 641 750 875 1023 1201 1424 1669
570.0 1970 2212 2516 2721 2649 2392 2004 1513 1084 901
610.0 1014 1283 1414 1404 1337 1041 635 384 282 257
650.0 281 351 418 497 530 497 449 359 250 159
690.0 74 63 27 32 4 15 24 33 28 61
730.0 74 117 186 249 354 430 450 442 406 321
770.0 228 156 124 102 107 132 162 216 274 334
810.0 372 378 345 286 183 128 101 98 120 170
850.0 259 399 538 645 686 632 506 352 289 285
890.0 306 326 331 315 297 270 234 226 230 250
930.0 309 411 569 772 1044 1326 1508 1541 1478 1260
970.0 889 557 359 258 211 193 193 215 244 305
1010.0 374 470 535 559 542 484 399 331 332 363
1050.0 416 479 555 599 622 666 726 810 889 954
1090.0 990 1020 1080 1207 1484 1936 2496 3146 4115 5553
1130.0 7359 8932 9755 10000 9235 7366 5516 4217 3339 2756
1170.0 2370 2147 1967 1755 1471 1250 1113 1015 948 895
1210.0 835 768 722 675 638 609 591 574 566 576
1250.0 597 637 671 698 719 727 728 737 791 879
1290.0 1011 1144 1273 1350 1361 1293 1172 1024 900 831
1330.0 834 940 1156 1493 1947 2590 3457 4495 5401 5802
1370.0 5527 4800 3577 2364 1867 1797 1917 2143 2403 2611
1410.0 2737 2770 2681 2487 2266 2131 2066 2020 1942 1835
1450.0 1669 1442 1202 1003 841 697 594 511 470 441
1490.0 437 456 498 547 592 670 725 809 898 1032
1530.0 1171 1356 1622 1964 2478 3161 4203 5400 6967 8326
1570.0 9350 9387 8454 6838 4855 3182 1994 1283 982 860
1610.0 833 809 787 725 660 577 505 431 366 311
1650.0 269 237 220 207 212 213 236 243 271 291
1690.0 313 338 381 433 491 568 655 768 881 996
1730.0 1108 1210 1308 1411 1615 1940 2490 3293 4446 5882
1770.0 7422 8864 9443 9674 8751 7251 5502 3835 2349 1477
1810.0 1039 823 711 642 581 508 432 356 295 239
1850.0 203 170 148 124 112 93 84 74 67 61
1890.0 54 57 52 54 53 53 52 54 51 49
1930.0 48 45 48 48 52 55 57 53 47 40
1970.0 34 29 27 24 17 17 14 16 17 21
2010.0 22 22 19 16 15 12 14 9 7 6
2050.0 6 2 1 0 0 1 2 2 3 10
2090.0 12 13 17 19 22 25 34 36 40 38
2130.0 38 29 24 18 15 10 5 7 3 3
2170.0 2 0 0 2 5 5 6 6 8 3
2210.0 0 3 1 1 1 3 3 6 8 12
2250.0 16 21 24 27 25 26 24 20 19 18
2290.0 18 12 17 19 19 19 18 14 12 11
2330.0 1 0 7 2 1 27 0 12 0 0
2370.0 8 22 33 37 36 33 34 35 35 35
2410.0 38 39 42 47 51 56 55 55 55 52
2450.0 48 46 44 41 40 42 42 40 40 37
2490.0 36 34 35 35 34 36 39 42 45 47
2530.0 47 49 50 47 45 43 42 39 37 35
2570.0 33 34 34 33 35 34 35 33 33 34
2610.0 33 34 35 36 35 34 37 34 35 33
2650.0 35 33 35 31 35 34 36 38 37 40
2690.0 42 43 47 52 55 59 61 62 66 68
2730.0 63 56 52 51 44 43 42 43 43 43
2770.0 43 47 48 51 51 55 54 55 57 56
2810.0 60 60 65 67 72 77 81 85 88 89
2850.0 88 89 87 92 97 99 105 116 126 136
2890.0 146 160 179 193 212 228 244 252 262 258
2930.0 253 242 228 211 197 182 170 156 151 144
2970.0 140 139 137 141 139 143 146 142 140 138
3010.0 137 130 130 133 137 143 138 138 132 126
3050.0 121 116 111 115 125 132 152 165 178 189
3090.0 198 204 209 218 233 252 269 262 237 208
3130.0 171 135 108 99 91 90 83 79 84 77
3170.0 76 75 75 73 73 72 71 68 66 64
3210.0 63 66 65 62 60 57 56 55 55 52
3250.0 53 51 48 44 49 46 46 43 43 42
3290.0 42 40 40 42 39 43 39 38 41 38
3330.0 36 34 36 39 43 34 39 38 39 38
3370.0 39 39 37 42 45 42 45 41 36 39
3410.0 38 35 32 27 29 25 26 28 31 37
3450.0 34 31 28 28 24 24 23 28 28 26
3490.0 27 24 28 35 40 37 50 51 73 87
3530.0 94 95 97 92 97 111 128 268 568 1494
3570.0 2973 3953 4117 4360 3566 2006 1077 577 212 134
3610.0 90 74 57 61 56 68 58 37 39 37
3650.0 57 37 26 12 20 23 40 33 28 21
3690.0 41 30 31 33 26 35 41 28 35 33
3730.0 32 46 50 36 49 65 35 42 37 30
3770.0 40 29 29 17 25 26 27 26 40 26
3810.0 38 19 50 31 30 19 38 38 53 28
3850.0 30 63 39 33 46 43 42 32 39 35
3890.0 42 24 43 47 49 25 37 27 44 47
3930.0 32 40 31 35 42 45 28 34 28 35
##END=
