##TITLE=Pyridine, 2-pentyl-
##JCAMP-DX=4.24
##DATA TYPE=INFRARED SPECTRUM
##ORIGIN=Sadtler Research Labs Under US-EPA Contract
##OWNER=NIST Standard Reference Data Program
##CAS REGISTRY NO=2294-76-0
##MOLFORM=C 10 H 15 N
##XUNITS=1/CM
##YUNITS=ABSORBANCE
##XFACTOR=1.0
##YFACTOR=0.000071582
##DELTAX=4.0
##FIRSTX=450.0
##LASTX=3966.0
##FIRSTY=0.034717
##MAXX=3966
##MINX=450
##MAXY=0.71582
##MINY=0
##NPOINTS=880
##XYDATA=(X++(Y..Y))
450.0 485 498 512 545 613 614 528 489 574 543
490.0 495 435 523 601 635 620 615 590 508 395
530.0 267 319 207 188 270 239 193 266 154 310
570.0 403 316 339 425 369 390 366 316 389 416
610.0 335 261 251 327 297 338 200 171 162 110
650.0 115 54 10 133 160 0 114 92 135 30
690.0 114 187 159 214 282 337 501 525 682 910
730.0 1317 1835 2462 3139 3636 3590 3124 2453 1979 1610
770.0 1186 938 697 596 464 392 227 223 228 191
810.0 257 198 199 162 235 159 216 162 198 133
850.0 214 117 157 91 82 78 141 104 125 98
890.0 165 176 172 156 151 182 115 161 77 124
930.0 76 145 114 158 177 233 190 233 271 282
970.0 272 364 364 361 432 493 485 534 312 263
1010.0 204 162 197 143 207 178 251 277 426 541
1050.0 620 524 495 348 354 337 316 245 213 189
1090.0 194 190 208 217 248 238 217 218 164 170
1130.0 169 283 401 660 651 653 432 286 187 189
1170.0 121 153 171 216 239 223 226 251 292 356
1210.0 457 528 647 651 577 460 415 342 313 259
1250.0 259 227 245 215 272 274 316 317 358 369
1290.0 383 446 477 505 519 464 389 349 293 298
1330.0 297 357 391 464 443 475 461 471 448 487
1370.0 462 540 552 623 607 583 461 410 347 384
1410.0 385 447 662 931 1512 2521 3464 3664 3237 2187
1450.0 1765 1668 1991 2155 2949 3884 4412 3925 2817 1578
1490.0 990 638 538 375 467 368 248 303 300 256
1530.0 194 313 277 502 360 439 609 1024 1333 1721
1570.0 2304 2774 3328 3767 4605 5276 5307 4608 3448 2215
1610.0 1338 800 699 418 379 271 311 259 170 220
1650.0 188 377 109 100 93 153 151 121 144 264
1690.0 119 158 289 367 253 267 248 377 189 147
1730.0 112 261 123 168 101 213 122 175 166 124
1770.0 152 214 80 102 83 59 134 62 86 41
1810.0 97 49 75 79 128 93 141 109 140 139
1850.0 130 90 132 147 149 160 78 45 55 28
1890.0 44 81 62 105 114 171 114 149 108 114
1930.0 106 164 141 181 134 140 100 118 106 176
1970.0 171 130 87 85 52 38 47 24 44 15
2010.0 44 17 62 19 47 40 61 38 74 29
2050.0 60 21 57 19 33 37 41 42 29 33
2090.0 43 40 20 54 18 52 32 52 10 44
2130.0 37 37 9 60 17 61 28 57 27 42
2170.0 53 61 63 57 67 60 67 40 86 29
2210.0 81 34 78 44 63 33 54 27 68 33
2250.0 61 53 67 49 52 53 38 57 47 72
2290.0 87 106 44 82 69 95 63 121 80 92
2330.0 57 114 77 105 116 72 49 75 86 144
2370.0 102 99 70 67 72 48 77 52 67 33
2410.0 75 34 96 58 66 19 88 54 63 40
2450.0 55 29 41 48 52 48 42 57 28 66
2490.0 32 62 41 51 11 44 23 79 33 69
2530.0 31 65 40 61 51 60 56 67 67 66
2570.0 72 70 99 86 93 54 87 69 97 73
2610.0 90 83 117 62 87 74 94 84 122 121
2650.0 111 127 124 108 134 171 157 189 152 158
2690.0 135 172 112 127 115 120 89 128 98 122
2730.0 123 140 122 164 178 173 165 162 138 158
2770.0 166 167 192 208 251 246 281 251 310 289
2810.0 344 346 406 386 523 536 633 743 941 1190
2850.0 1613 2197 2867 3561 4104 4402 4358 4325 4217 3996
2890.0 3645 3269 3019 3165 3483 4029 4750 5728 6817 8004
2930.0 8959 9719 10000 9874 9237 8356 7616 7368 7719 8370
2970.0 8394 7370 5603 3720 2486 1791 1470 1283 1375 1525
3010.0 1928 2328 2516 2363 1926 1351 1085 918 892 910
3050.0 1013 1144 1312 1564 1869 2406 2943 3066 2904 2243
3090.0 1654 1244 837 605 366 295 196 213 162 193
3130.0 163 224 229 239 206 196 158 137 158 123
3170.0 150 105 128 86 87 85 109 84 108 72
3210.0 82 69 62 40 57 60 36 49 40 41
3250.0 50 45 46 22 34 65 38 52 30 43
3290.0 39 51 36 64 46 34 26 45 12 33
3330.0 67 47 21 50 30 47 24 58 62 54
3370.0 69 40 49 56 57 43 55 32 46 29
3410.0 57 33 49 28 45 74 65 39 43 73
3450.0 50 71 41 41 53 39 34 69 61 47
3490.0 33 63 25 36 59 41 16 40 31 55
3530.0 81 44 59 29 86 56 64 38 62 70
3570.0 88 43 76 47 60 103 68 52 68 66
3610.0 110 77 85 114 66 113 88 57 62 39
3650.0 158 81 90 41 41 91 96 124 31 21
3690.0 85 42 4 2 2 10 26 2 2 2
3730.0 1 27 75 12 101 61 52 2 2 2
3770.0 2 2 2 2 2 2 2 2 2 2
3810.0 2 2 2 2 2 2 2 2 2 2
3850.0 2 2 2 2 2 2 2 2 2 2
3890.0 2 2 2 2 2 2 2 2 2 2
3930.0 2 2 2 2 2 2 2 2 2 2
##END=
