##TITLE=2,4-Thiazolidinedione
##JCAMP-DX=4.24
##DATA TYPE=INFRARED SPECTRUM
##ORIGIN=Sadtler Research Labs Under US-EPA Contract
##OWNER=NIST Standard Reference Data Program
##CAS REGISTRY NO=2295-31-0
##MOLFORM=C 3 H 3 N O 2 S
##XUNITS=1/CM
##YUNITS=ABSORBANCE
##XFACTOR=1.0
##YFACTOR=0.000160751
##DELTAX=4.0
##FIRSTX=450.0
##LASTX=3966.0
##FIRSTY=0.000000
##MAXX=3966
##MINX=450
##MAXY=1.60751
##MINY=0
##NPOINTS=880
##XYDATA=(X++(Y..Y))
450.0 0 28 48 40 82 133 146 243 363 400
490.0 419 494 575 541 305 151 90 73 70 47
530.0 75 85 143 188 146 87 105 101 103 130
570.0 168 241 248 272 317 361 536 754 617 554
610.0 685 780 603 420 331 290 271 262 250 260
650.0 288 360 497 745 765 895 1023 999 907 864
690.0 785 547 368 300 215 170 130 94 78 64
730.0 62 48 55 46 42 40 39 49 56 87
770.0 122 167 188 206 211 195 158 113 52 23
810.0 13 10 9 10 12 11 12 19 25 27
850.0 31 43 58 97 138 161 174 181 191 211
890.0 163 162 158 76 57 52 44 37 21 18
930.0 11 21 12 4 9 7 8 13 14 18
970.0 17 18 20 18 17 17 30 45 42 36
1010.0 34 32 31 24 15 20 35 57 87 99
1050.0 107 118 125 132 130 139 164 210 285 409
1090.0 573 791 1036 1329 1619 1896 2052 2038 1952 1758
1130.0 1547 1234 862 664 570 506 452 390 303 243
1170.0 198 175 192 220 269 325 397 488 592 692
1210.0 726 759 747 698 585 451 351 320 310 339
1250.0 385 437 478 510 555 578 599 634 670 727
1290.0 824 973 1157 1341 1431 1412 1409 1422 1292 1068
1330.0 838 704 673 743 907 969 949 905 859 764
1370.0 554 342 209 141 98 83 72 79 91 115
1410.0 126 124 98 117 137 120 98 73 63 61
1450.0 53 42 39 48 47 63 53 63 59 61
1490.0 53 54 53 47 29 21 69 84 77 77
1530.0 76 79 69 74 73 80 71 67 65 83
1570.0 79 81 78 82 102 89 113 107 124 118
1610.0 135 140 137 156 143 166 152 187 189 224
1650.0 238 285 317 365 427 465 570 688 868 1045
1690.0 1326 1598 1860 2047 2068 1974 1842 1960 2216 2783
1730.0 3470 4413 5552 6691 8430 9423 10000 9213 8567 8008
1770.0 6827 4735 3415 2791 2606 2553 2468 2207 1945 1708
1810.0 1502 1263 982 714 515 373 273 218 161 130
1850.0 102 85 69 53 47 25 31 26 30 23
1890.0 31 29 29 32 33 34 25 28 19 20
1930.0 14 17 12 9 11 5 11 5 13 6
1970.0 7 6 10 10 11 14 9 15 11 19
2010.0 16 18 23 32 45 55 73 84 100 105
2050.0 101 88 71 65 89 128 129 113 71 42
2090.0 15 13 11 9 10 7 9 5 9 5
2130.0 8 5 5 5 6 10 8 12 7 12
2170.0 11 12 12 14 16 16 24 21 27 28
2210.0 33 35 41 46 48 54 52 60 61 60
2250.0 59 56 50 51 48 46 57 66 81 80
2290.0 92 84 84 82 86 87 70 72 76 65
2330.0 52 66 57 69 80 80 74 64 89 68
2370.0 66 55 62 65 48 37 32 34 30 41
2410.0 39 40 41 41 41 35 37 25 27 26
2450.0 23 22 21 18 17 17 12 10 8 8
2490.0 4 7 5 8 8 7 10 8 11 7
2530.0 13 12 12 10 12 19 9 14 11 17
2570.0 13 14 15 14 14 11 16 12 17 17
2610.0 23 20 20 24 25 31 31 32 31 35
2650.0 31 32 32 34 41 40 43 39 44 41
2690.0 46 41 43 40 47 48 48 50 48 47
2730.0 45 49 49 44 49 44 44 37 41 38
2770.0 36 35 36 34 30 27 26 27 18 29
2810.0 20 28 27 29 26 25 22 20 24 26
2850.0 27 23 24 18 19 23 19 24 24 25
2890.0 17 19 18 23 11 21 25 16 24 26
2930.0 37 29 52 65 86 107 109 110 111 113
2970.0 97 67 57 46 42 33 32 32 22 26
3010.0 24 20 23 21 24 19 23 22 20 23
3050.0 12 11 11 18 22 17 29 21 22 12
3090.0 18 20 24 18 19 30 25 29 24 25
3130.0 30 29 33 30 24 24 25 25 30 13
3170.0 18 12 18 8 13 22 18 16 18 19
3210.0 14 19 17 15 12 6 14 11 22 16
3250.0 21 13 22 9 27 4 6 13 12 18
3290.0 2 17 7 16 20 19 14 19 12 25
3330.0 13 15 12 17 18 10 19 21 13 13
3370.0 15 16 18 14 7 21 30 25 36 35
3410.0 55 70 124 226 363 570 788 999 1063 1016
3450.0 974 979 863 594 356 205 124 96 79 64
3490.0 68 64 84 83 80 93 95 93 88 80
3530.0 58 54 41 46 55 46 24 41 30 31
3570.0 45 45 28 34 27 22 12 27 30 36
3610.0 20 22 17 25 9 18 23 32 16 20
3650.0 23 25 38 17 16 16 18 21 19 30
3690.0 10 29 28 46 37 23 14 29 27 29
3730.0 29 17 37 20 13 25 8 41 33 47
3770.0 18 28 7 8 12 35 31 28 8 12
3810.0 16 0 37 17 33 41 34 22 29 30
3850.0 36 40 11 23 11 27 40 34 52 19
3890.0 20 9 28 41 49 37 10 18 5 12
3930.0 25 46 0 36 10 31 39 38 51 51
##END=
