##TITLE=Piperidine, 1-trichloroacetyl-,
##JCAMP-DX=4.24
##DATA TYPE=INFRARED SPECTRUM
##ORIGIN=Sadtler Research Labs Under US-EPA Contract
##OWNER=NIST Standard Reference Data Program
##CAS REGISTRY NO=2296-53-9
##MOLFORM=C 7 H 10 Cl 3 N O
##XUNITS=1/CM
##YUNITS=ABSORBANCE
##XFACTOR=1.0
##YFACTOR=0.000140811
##DELTAX=4.0
##FIRSTX=450.0
##LASTX=3966.0
##FIRSTY=0.008871
##MAXX=3966
##MINX=450
##MAXY=1.40811
##MINY=0
##NPOINTS=880
##XYDATA=(X++(Y..Y))
450.0 63 75 88 196 230 265 182 145 107 112
490.0 92 122 82 86 93 59 99 34 56 30
530.0 39 29 59 62 69 79 62 49 19 33
570.0 0 31 28 15 35 45 59 50 72 43
610.0 85 42 108 90 124 157 285 531 783 1011
650.0 1024 1092 1244 1771 2096 2104 1588 1024 555 329
690.0 185 220 153 167 134 166 163 194 205 188
730.0 177 158 178 175 188 202 269 377 623 1084
770.0 1514 1670 1322 697 376 392 537 854 1382 2041
810.0 2591 2575 1940 1321 1147 1644 2544 3219 3439 3080
850.0 2474 1734 1088 623 331 231 194 197 200 230
890.0 287 416 575 654 614 453 288 180 139 134
930.0 170 259 434 651 806 812 664 465 298 192
970.0 142 120 109 110 118 126 141 150 166 201
1010.0 306 499 683 726 644 517 422 327 219 130
1050.0 94 80 74 79 85 94 101 104 105 110
1090.0 102 100 105 115 144 188 255 349 497 725
1130.0 1073 1357 1317 965 483 209 135 126 140 149
1170.0 158 160 171 192 213 230 244 273 323 402
1210.0 509 684 1029 1726 2676 3380 3589 3495 3393 3174
1250.0 2620 1838 1251 1019 868 715 605 632 707 687
1290.0 570 390 268 202 176 151 139 133 146 157
1330.0 164 182 177 240 365 513 625 623 535 454
1370.0 446 421 420 447 534 742 1007 1297 1595 1864
1410.0 2132 2470 2743 2972 2820 2289 1563 1027 862 906
1450.0 1024 1085 1008 940 803 679 535 452 370 224
1490.0 139 145 121 132 103 71 105 75 32 72
1530.0 50 70 46 12 32 76 46 2 21 50
1570.0 47 47 60 59 88 77 95 96 116 122
1610.0 122 135 99 133 95 141 111 127 179 212
1650.0 225 290 402 456 504 538 623 858 1132 1787
1690.0 3218 5657 8754 10000 9231 6314 3720 2047 1280 899
1730.0 611 424 355 307 249 250 296 309 292 284
1770.0 228 173 165 130 121 99 83 88 72 102
1810.0 91 84 82 65 46 26 39 46 28 9
1850.0 30 42 38 31 22 3 32 38 36 33
1890.0 27 32 36 38 36 32 23 23 10 26
1930.0 30 29 28 13 16 21 22 18 23 17
1970.0 21 27 29 27 28 18 21 33 36 38
2010.0 38 34 25 27 28 23 25 20 19 20
2050.0 23 22 26 24 21 25 24 22 18 18
2090.0 15 17 17 18 18 16 19 20 19 19
2130.0 19 16 17 16 17 19 18 20 21 20
2170.0 21 21 22 25 26 27 27 25 24 20
2210.0 16 16 16 16 16 19 20 22 21 20
2250.0 20 22 22 23 23 24 23 22 23 23
2290.0 27 27 33 35 39 41 40 31 38 32
2330.0 24 22 19 38 41 43 49 38 38 31
2370.0 27 26 34 32 25 14 15 13 13 10
2410.0 10 8 7 8 6 4 0 0 0 2
2450.0 5 8 8 13 15 16 18 17 17 13
2490.0 14 11 9 9 8 12 12 16 12 11
2530.0 9 9 8 7 10 6 6 4 7 5
2570.0 7 9 8 9 12 13 13 16 16 15
2610.0 17 18 17 18 23 28 32 35 37 39
2650.0 42 48 47 44 43 48 55 61 60 51
2690.0 46 45 50 61 66 59 53 45 44 49
2730.0 56 50 46 40 31 29 27 23 24 27
2770.0 29 37 43 38 45 50 57 71 86 94
2810.0 113 122 134 138 132 124 125 130 155 202
2850.0 275 429 707 1190 1889 2468 2587 2149 1457 947
2890.0 664 531 490 493 515 525 547 601 729 948
2930.0 1243 1608 2145 3171 4782 5807 5074 3195 1464 619
2970.0 338 212 163 133 111 104 117 134 150 163
3010.0 198 243 238 187 120 77 60 57 71 89
3050.0 110 123 128 115 89 63 42 32 29 25
3090.0 23 24 25 28 28 31 33 36 38 35
3130.0 30 28 24 17 18 17 16 14 16 16
3170.0 16 15 15 13 14 16 18 17 14 13
3210.0 13 14 17 13 12 16 15 9 10 13
3250.0 12 12 13 10 9 11 14 11 7 10
3290.0 11 15 12 10 12 14 13 15 17 16
3330.0 22 15 20 16 16 15 14 16 23 24
3370.0 33 48 61 73 77 71 58 40 31 20
3410.0 17 14 16 12 19 14 11 6 15 9
3450.0 9 8 10 13 12 14 11 15 15 11
3490.0 17 13 18 20 15 13 13 8 9 11
3530.0 4 8 10 2 7 10 6 12 7 4
3570.0 9 8 1 6 11 16 6 8 8 7
3610.0 11 6 6 7 3 17 8 11 10 6
3650.0 11 7 6 5 7 7 12 11 5 10
3690.0 8 8 4 12 10 7 10 18 14 16
3730.0 13 17 11 10 19 12 15 5 12 8
3770.0 12 6 12 14 13 14 6 9 7 8
3810.0 4 11 12 12 16 12 10 13 8 16
3850.0 12 13 13 8 14 12 7 14 15 15
3890.0 13 17 9 5 17 18 15 2 10 19
3930.0 12 6 8 11 19 17 14 13 16 15
##END=
