##TITLE=2-Butene-1,4-diamine, trans-N,N-diethyl
##JCAMP-DX=4.24
##DATA TYPE=INFRARED SPECTRUM
##ORIGIN=Sadtler Research Labs Under US-EPA Contract
##OWNER=NIST Standard Reference Data Program
##CAS REGISTRY NO=23028-85-5
##MOLFORM=C 8 H 18 N 2
##XUNITS=1/CM
##YUNITS=ABSORBANCE
##XFACTOR=1.0
##YFACTOR=0.000093927
##DELTAX=4.0
##FIRSTX=450.0
##LASTX=3966.0
##FIRSTY=0.006951
##MAXX=3966
##MINX=450
##MAXY=0.93927
##MINY=0
##NPOINTS=880
##XYDATA=(X++(Y..Y))
450.0 74 61 97 99 81 95 51 25 68 100
490.0 37 9 79 176 246 199 237 239 170 187
530.0 119 104 60 104 96 85 111 127 183 169
570.0 208 183 138 165 109 170 182 280 288 291
610.0 395 393 485 425 495 537 613 569 614 698
650.0 701 858 964 1102 1238 1554 1745 2029 2301 2556
690.0 2755 2875 2966 2990 2954 2896 2891 2820 2581 2313
730.0 2128 1882 1565 1462 1218 986 863 755 689 647
770.0 575 572 486 475 448 436 301 391 344 317
810.0 273 229 229 179 146 106 122 153 112 123
850.0 133 88 140 133 108 166 150 128 160 204
890.0 198 162 190 180 186 199 214 230 248 282
930.0 336 392 485 586 742 986 1301 1738 2215 2686
970.0 3008 2997 2668 2171 1713 1396 1194 1069 989 886
1010.0 802 706 655 598 556 578 604 664 748 836
1050.0 865 943 945 913 896 862 860 874 869 913
1090.0 975 1097 1328 1600 1991 2419 2849 3281 3763 4364
1130.0 5095 5740 6049 5844 5180 4262 3354 2643 2054 1652
1170.0 1284 1031 820 670 590 530 513 495 521 570
1210.0 573 579 584 596 588 600 584 575 551 556
1250.0 584 631 704 797 864 922 967 1027 1081 1136
1290.0 1126 1137 1133 1114 1106 1115 1180 1331 1555 1791
1330.0 2001 2071 2177 2247 2321 2352 2310 2216 2093 1955
1370.0 2057 2319 2534 2504 2170 1715 1337 1082 866 774
1410.0 689 695 687 754 901 1129 1499 2154 2961 3690
1450.0 4189 4349 4433 4234 3722 2900 2104 1512 1176 936
1490.0 779 612 503 409 370 312 268 236 242 200
1530.0 150 186 155 179 121 107 112 124 115 75
1570.0 89 64 69 56 63 38 50 49 61 64
1610.0 57 61 81 70 70 73 99 76 86 79
1650.0 84 160 109 134 141 178 184 172 149 153
1690.0 130 132 155 211 220 213 208 197 155 146
1730.0 144 173 147 135 129 113 105 95 102 108
1770.0 100 99 79 81 85 85 99 77 98 74
1810.0 84 68 86 83 109 108 94 104 95 106
1850.0 93 92 96 96 80 82 45 58 60 47
1890.0 57 56 50 50 55 47 48 47 46 66
1930.0 53 51 55 66 46 58 65 55 39 36
1970.0 48 39 54 53 42 54 31 30 24 31
2010.0 48 56 56 51 53 34 34 38 29 23
2050.0 25 31 39 53 44 39 25 26 9 16
2090.0 4 14 35 24 33 50 26 44 45 38
2130.0 45 34 45 43 28 59 31 51 40 23
2170.0 39 31 16 14 32 25 18 33 57 30
2210.0 40 31 52 25 8 33 32 50 45 48
2250.0 52 65 66 63 56 42 61 66 58 52
2290.0 56 54 73 81 88 98 85 54 98 98
2330.0 133 101 31 71 110 105 97 61 137 80
2370.0 101 115 47 71 84 62 60 64 60 50
2410.0 49 62 75 74 71 80 79 72 68 68
2450.0 69 79 85 68 44 68 81 76 68 87
2490.0 98 87 60 81 69 62 57 78 82 79
2530.0 93 75 106 100 80 89 98 101 128 138
2570.0 161 171 180 172 189 207 241 241 252 255
2610.0 242 264 273 268 270 285 281 293 328 306
2650.0 318 345 326 340 347 386 413 464 531 575
2690.0 619 679 692 715 730 727 766 794 837 894
2730.0 955 1021 1097 1151 1209 1252 1308 1377 1473 1615
2770.0 1787 1983 2211 2527 2857 3279 3770 4302 4950 5628
2810.0 6252 6842 7291 7408 7269 6792 6212 5686 5159 4711
2850.0 4365 4008 3831 3738 3764 4064 4424 4872 5210 5385
2890.0 5385 5314 5344 5422 5484 5594 5691 5805 5873 5958
2930.0 6094 6179 6193 6122 6014 5839 5793 6116 6970 8364
2970.0 9638 10000 9396 8103 6542 4963 3770 2979 2467 2152
3010.0 1935 1753 1606 1516 1414 1296 1206 1101 966 877
3050.0 776 605 554 454 409 347 320 313 313 297
3090.0 246 283 267 264 217 254 243 200 221 240
3130.0 200 209 170 198 167 187 189 155 111 147
3170.0 124 154 127 151 137 146 143 164 164 189
3210.0 112 139 130 118 97 118 97 114 79 76
3250.0 93 91 115 80 67 57 90 60 72 92
3290.0 61 84 79 88 67 88 85 93 119 89
3330.0 68 84 87 81 111 106 99 101 114 82
3370.0 113 110 109 95 64 94 89 129 99 97
3410.0 88 85 102 106 107 84 95 107 119 43
3450.0 102 90 69 69 84 74 97 77 84 94
3490.0 119 104 113 86 92 72 81 56 85 111
3530.0 84 80 68 86 66 83 76 81 102 92
3570.0 115 87 49 92 66 73 71 98 88 59
3610.0 72 37 74 64 100 106 77 57 105 51
3650.0 82 48 41 19 38 60 56 53 29 58
3690.0 47 55 13 33 23 25 25 38 46 53
3730.0 64 68 51 43 38 26 36 0 10 37
3770.0 34 45 43 48 31 34 34 10 53 25
3810.0 20 17 11 30 11 17 39 48 0 12
3850.0 0 24 27 47 25 43 47 33 12 26
3890.0 18 23 14 19 18 29 16 35 30 25
3930.0 9 0 0 2 24 39 31 18 23 22
##END=
