##TITLE=Formamide, N-(2-phenylethyl)-
##JCAMP-DX=4.24
##DATA TYPE=INFRARED SPECTRUM
##ORIGIN=Sadtler Research Labs Under US-EPA Contract
##OWNER=NIST Standard Reference Data Program
##CAS REGISTRY NO=23069-99-0
##MOLFORM=C 9 H 11 N O
##XUNITS=1/CM
##YUNITS=ABSORBANCE
##XFACTOR=1.0
##YFACTOR=0.000041901
##DELTAX=4.0
##FIRSTX=450.0
##LASTX=3966.0
##FIRSTY=0.000000
##MAXX=3966
##MINX=450
##MAXY=0.41901
##MINY=0
##NPOINTS=880
##XYDATA=(X++(Y..Y))
450.0 0 651 826 887 984 699 813 558 839 1013
490.0 842 873 749 564 746 859 821 764 799 739
530.0 1133 1076 808 1048 907 623 792 1068 743 650
570.0 778 590 913 835 852 807 705 677 608 640
610.0 781 764 696 751 853 667 784 740 816 768
650.0 724 772 755 884 867 996 961 879 929 1003
690.0 1225 1391 1509 1282 1254 1110 886 751 765 679
730.0 983 902 678 927 997 989 1121 1271 1235 1160
770.0 1030 938 944 891 753 761 802 819 843 910
810.0 1053 1151 1194 1133 1012 918 818 740 802 797
850.0 792 795 809 862 742 746 727 760 732 733
890.0 751 772 735 804 759 755 703 757 782 777
930.0 694 739 730 773 766 758 728 752 737 711
970.0 737 725 757 759 742 794 819 774 843 884
1010.0 861 897 943 983 1029 1030 1013 964 865 792
1050.0 760 778 757 795 776 757 864 868 893 934
1090.0 924 912 880 839 788 826 914 1100 1256 1459
1130.0 1543 1465 1324 1075 912 837 806 786 779 748
1170.0 796 762 765 776 785 795 767 801 840 865
1210.0 904 911 958 933 966 1051 1167 1397 1706 2136
1250.0 2584 2866 2994 2824 2388 1980 1691 1509 1394 1341
1290.0 1319 1263 1209 1153 1089 1080 1040 1025 1014 1006
1330.0 1061 1151 1317 1554 1862 2106 2170 2066 1783 1480
1370.0 1290 1186 1167 1170 1134 1063 963 895 834 799
1410.0 802 788 789 758 748 762 758 779 783 845
1450.0 902 945 941 943 865 858 813 811 868 1016
1490.0 1464 1964 2201 2162 1845 1347 1095 1002 914 839
1530.0 769 756 726 684 693 713 696 683 674 729
1570.0 741 763 836 931 1108 1331 1587 1755 1786 1600
1610.0 1337 1115 889 822 750 730 720 705 720 722
1650.0 701 706 748 826 835 910 909 929 987 992
1690.0 1265 1737 3051 5843 8907 10000 9963 7237 3481 1959
1730.0 1392 1036 908 809 784 755 722 730 691 694
1770.0 677 661 696 691 705 673 674 670 650 649
1810.0 633 632 624 619 614 610 610 610 605 599
1850.0 600 597 602 599 602 598 599 615 605 606
1890.0 601 596 595 591 588 594 594 597 598 606
1930.0 615 623 629 626 633 628 632 622 625 619
1970.0 625 606 607 602 597 606 604 603 597 603
2010.0 598 590 592 584 584 574 576 571 563 567
2050.0 561 564 566 562 566 559 560 564 565 566
2090.0 565 559 565 564 564 575 576 578 580 572
2130.0 573 578 581 577 575 579 575 580 580 584
2170.0 577 573 582 573 569 574 574 572 571 570
2210.0 573 571 572 570 574 570 571 571 569 573
2250.0 582 575 581 584 575 579 587 591 591 597
2290.0 603 606 617 623 630 647 635 637 638 624
2330.0 628 602 603 595 652 622 654 637 648 631
2370.0 620 608 608 609 603 588 585 582 587 579
2410.0 572 581 585 583 580 577 586 582 578 576
2450.0 586 586 579 588 582 575 581 583 582 582
2490.0 584 583 584 583 584 583 583 589 579 582
2530.0 583 587 583 580 579 588 583 583 585 594
2570.0 584 576 583 589 586 592 592 592 595 590
2610.0 593 592 597 592 590 590 592 591 591 584
2650.0 587 590 589 584 584 582 596 585 590 579
2690.0 583 580 584 577 583 589 583 587 591 590
2730.0 595 599 610 618 638 649 654 650 656 653
2770.0 664 657 656 663 669 673 679 689 688 685
2810.0 683 677 672 675 688 704 717 727 747 776
2850.0 806 860 959 1102 1206 1251 1234 1157 1048 965
2890.0 912 863 832 795 780 771 774 773 784 811
2930.0 834 879 936 991 1008 1001 952 896 870 885
2970.0 941 1045 1178 1267 1269 1198 1105 1010 925 833
3010.0 778 739 727 723 729 751 788 837 885 933
3050.0 941 927 882 848 841 881 932 941 935 907
3090.0 847 800 796 780 763 733 709 689 668 656
3130.0 635 629 632 633 625 622 622 623 624 616
3170.0 618 616 613 616 604 620 614 603 611 604
3210.0 611 608 615 596 605 601 614 603 607 599
3250.0 606 606 616 611 596 602 588 608 610 586
3290.0 605 599 616 622 605 598 604 616 599 609
3330.0 620 632 606 612 613 630 621 621 618 610
3370.0 629 637 635 638 638 651 686 697 719 710
3410.0 693 686 660 624 630 638 649 644 617 625
3450.0 628 647 650 664 649 630 617 624 637 652
3490.0 650 630 642 647 651 635 636 630 654 650
3530.0 630 639 634 627 652 629 667 646 642 650
3570.0 660 648 640 659 662 638 637 644 635 646
3610.0 636 631 647 615 652 604 625 615 641 585
3650.0 622 601 648 609 627 596 596 571 600 592
3690.0 580 609 568 575 595 598 564 569 582 608
3730.0 586 558 581 556 590 559 605 571 592 566
3770.0 558 581 588 570 558 595 597 563 573 560
3810.0 560 562 559 559 584 588 557 566 583 556
3850.0 588 597 616 559 569 578 598 588 601 600
3890.0 573 596 559 560 591 624 628 580 616 585
3930.0 601 599 617 658 576 616 576 624 703 673
##END=
