##TITLE=1,3-Dithienyl-2-propen-1-one
##JCAMP-DX=4.24
##DATA TYPE=INFRARED SPECTRUM
##ORIGIN=Sadtler Research Labs Under US-EPA Contract
##OWNER=NIST Standard Reference Data Program
##CAS REGISTRY NO=2309-48-0
##MOLFORM=C 11 H 8 O S 2
##XUNITS=1/CM
##YUNITS=ABSORBANCE
##XFACTOR=1.0
##YFACTOR=0.000049753
##DELTAX=4.0
##FIRSTX=450.0
##LASTX=3966.0
##FIRSTY=0.010199
##MAXX=3966
##MINX=450
##MAXY=0.49753
##MINY=0
##NPOINTS=880
##XYDATA=(X++(Y..Y))
450.0 205 202 27 91 200 238 127 125 220 175
490.0 141 171 151 162 112 99 141 91 19 61
530.0 32 34 8 19 44 83 73 155 202 373
570.0 587 761 868 1037 1050 795 572 459 300 159
610.0 124 102 77 69 106 116 102 59 48 53
650.0 130 210 218 330 326 505 616 641 675 954
690.0 1625 2360 3376 3732 3775 3941 3840 2995 2035 1215
730.0 647 441 465 539 568 524 450 290 186 125
770.0 87 78 105 147 157 190 233 312 383 576
810.0 946 1380 1838 1683 1162 769 536 466 567 659
850.0 943 1488 1884 1496 751 426 293 191 161 104
890.0 93 73 72 74 74 84 89 102 112 123
930.0 163 220 326 431 508 645 897 1208 1575 1950
970.0 2197 2077 1504 854 545 472 493 592 752 948
1010.0 991 864 667 555 559 738 1294 1952 2139 1676
1050.0 1222 1321 1530 1332 754 386 394 600 834 761
1090.0 459 210 152 121 125 139 160 177 193 200
1130.0 211 218 224 248 276 312 376 524 810 1150
1170.0 1290 1092 796 747 922 1090 1310 1740 2326 2667
1210.0 2338 1686 1239 1311 1802 2808 3700 3474 2232 1255
1250.0 1111 1369 1670 1863 1853 1819 1858 2267 2974 3192
1290.0 2537 1744 1453 1619 1902 1974 1755 1424 1059 676
1330.0 430 319 320 392 638 1150 1767 2165 2283 2060
1370.0 1547 940 594 461 465 530 660 793 1050 1565
1410.0 2533 3646 4069 3336 2193 1314 837 536 374 303
1450.0 258 250 211 213 184 171 133 127 132 135
1490.0 138 191 276 411 686 1206 2076 2631 2376 1393
1530.0 708 454 413 364 394 411 373 382 424 468
1570.0 510 612 772 1059 1417 1996 3004 5092 7998 10000
1610.0 8652 5064 2901 2033 1461 1129 978 1012 1194 1534
1650.0 1989 2573 3215 3861 4501 4700 4227 3096 1982 1157
1690.0 700 466 339 265 262 264 275 230 238 207
1730.0 177 163 149 134 106 117 116 122 109 129
1770.0 110 113 119 148 209 254 260 220 181 158
1810.0 150 159 180 173 174 136 129 95 78 60
1850.0 69 78 76 90 84 75 83 89 86 84
1890.0 86 88 93 93 93 84 85 92 75 85
1930.0 84 91 83 80 67 73 61 54 47 39
1970.0 43 47 50 46 48 40 46 53 57 61
2010.0 65 67 60 63 65 65 62 53 50 51
2050.0 54 51 53 51 47 49 54 56 66 63
2090.0 72 72 68 75 70 62 57 52 54 55
2130.0 52 55 52 55 54 48 55 63 88 94
2170.0 87 75 62 53 53 51 51 50 44 53
2210.0 52 52 53 58 56 58 58 58 55 57
2250.0 56 62 59 60 64 72 76 86 87 87
2290.0 69 58 50 49 39 31 18 3 8 11
2330.0 2 3 3 0 5 55 2 3 3 3
2370.0 3 5 37 64 67 62 60 57 64 59
2410.0 63 59 65 57 62 66 67 72 68 71
2450.0 75 86 95 96 96 89 74 77 75 71
2490.0 65 58 66 62 57 57 64 63 58 60
2530.0 67 70 66 70 61 67 69 73 71 76
2570.0 83 90 93 89 85 81 81 78 77 77
2610.0 79 86 80 85 82 78 84 87 88 79
2650.0 88 77 80 75 77 71 69 70 72 68
2690.0 68 58 62 66 63 67 60 62 71 64
2730.0 62 63 67 63 62 64 68 56 58 58
2770.0 62 53 60 63 60 63 59 69 77 86
2810.0 97 92 95 99 103 103 98 101 103 89
2850.0 79 81 74 83 85 86 82 90 91 92
2890.0 93 96 95 104 99 105 108 94 95 96
2930.0 95 94 101 96 99 95 99 97 99 105
2970.0 109 112 104 100 100 87 86 88 91 88
3010.0 98 103 122 132 132 141 142 148 165 180
3050.0 186 181 170 158 157 173 247 387 549 617
3090.0 573 503 428 300 209 176 172 173 157 114
3130.0 86 79 70 75 72 69 59 59 52 59
3170.0 58 57 60 61 56 50 53 48 48 54
3210.0 52 50 56 57 59 60 67 73 70 73
3250.0 76 77 89 92 103 99 96 87 72 75
3290.0 79 82 74 67 70 70 78 88 88 91
3330.0 96 93 91 80 71 59 50 68 64 72
3370.0 58 55 55 65 48 46 50 54 53 61
3410.0 48 56 46 33 49 40 62 46 40 39
3450.0 45 46 36 52 44 40 45 53 34 48
3490.0 40 38 40 37 46 44 33 44 46 22
3530.0 30 41 44 38 38 29 41 39 39 25
3570.0 35 28 40 45 39 47 24 25 23 16
3610.0 41 20 20 17 41 38 23 41 21 40
3650.0 7 26 38 36 48 24 53 7 55 24
3690.0 49 40 44 40 53 41 37 50 34 46
3730.0 40 42 53 51 48 44 28 36 36 48
3770.0 31 56 55 44 50 52 58 31 22 24
3810.0 53 56 43 31 26 58 59 57 37 65
3850.0 49 61 32 35 28 10 14 38 34 25
3890.0 60 6 26 65 47 31 43 47 3 33
3930.0 53 48 68 95 53 64 56 55 58 41
##END=
