##TITLE=Phthalimide, N-(1-formylethyl)-,
##JCAMP-DX=4.24
##DATA TYPE=INFRARED SPECTRUM
##ORIGIN=Sadtler Research Labs Under US-EPA Contract
##OWNER=NIST Standard Reference Data Program
##CAS REGISTRY NO=23101-87-3
##MOLFORM=C 11 H 9 N O 3
##XUNITS=1/CM
##YUNITS=ABSORBANCE
##XFACTOR=1.0
##YFACTOR=0.000110239
##DELTAX=4.0
##FIRSTX=450.0
##LASTX=3966.0
##FIRSTY=0.022489
##MAXX=3966
##MINX=450
##MAXY=1.10239
##MINY=0
##NPOINTS=880
##XYDATA=(X++(Y..Y))
450.0 204 164 155 90 47 126 96 105 121 133
490.0 163 165 133 153 158 197 237 276 344 418
530.0 459 458 439 425 433 428 393 386 323 262
570.0 201 200 180 197 214 230 206 230 219 230
610.0 234 253 274 266 253 239 257 290 315 272
650.0 216 163 126 109 89 107 84 88 95 95
690.0 129 172 287 455 770 1368 2155 2774 2471 1709
730.0 948 478 255 188 142 117 85 55 48 39
770.0 41 48 77 116 165 182 145 96 58 38
810.0 50 55 61 61 79 76 71 78 91 91
850.0 97 85 87 119 176 273 394 494 527 410
890.0 291 234 224 250 300 363 406 421 404 371
930.0 353 362 354 314 246 171 135 116 95 80
970.0 68 67 69 65 75 101 139 198 283 369
1010.0 458 618 841 1057 1193 1196 1094 851 604 440
1050.0 368 364 389 446 517 594 650 688 702 670
1090.0 603 512 425 370 355 363 380 413 454 500
1130.0 550 583 608 634 668 699 698 691 673 671
1170.0 688 682 623 560 514 486 475 487 481 452
1210.0 396 321 251 208 176 160 151 158 161 171
1250.0 182 197 205 209 224 220 224 246 294 370
1290.0 438 476 490 488 466 463 530 651 807 980
1330.0 1127 1266 1378 1492 1590 1695 1851 2120 2564 3254
1370.0 4226 5429 6383 6570 5558 3870 2286 1268 776 536
1410.0 415 378 364 363 325 279 224 202 208 241
1450.0 294 339 373 399 456 416 293 202 102 54
1490.0 18 13 13 18 28 36 51 61 76 79
1530.0 86 79 86 66 66 58 51 35 50 53
1570.0 62 71 96 107 135 154 166 174 202 237
1610.0 265 260 218 173 148 134 136 133 147 154
1650.0 160 172 205 211 241 280 310 378 436 536
1690.0 660 835 1066 1385 1783 2248 2756 3251 3848 4805
1730.0 6500 8549 9980 10000 8669 6539 5116 4386 3811 3311
1770.0 3138 2755 2471 2643 2913 2894 2402 1699 1084 740
1810.0 547 437 350 277 214 169 145 130 113 98
1850.0 80 68 58 59 58 63 67 56 44 30
1890.0 24 22 24 28 30 32 32 24 18 19
1930.0 28 35 42 36 34 25 15 7 9 18
1970.0 30 37 33 21 14 6 5 5 2 2
2010.0 3 3 2 0 4 4 4 5 7 8
2050.0 9 9 7 11 13 16 18 23 23 24
2090.0 22 23 24 24 26 25 22 22 20 16
2130.0 16 12 9 1 2 8 13 19 24 29
2170.0 36 37 36 37 35 33 30 29 25 26
2210.0 22 18 14 10 10 11 12 12 13 15
2250.0 17 21 20 18 24 18 19 20 22 29
2290.0 33 42 48 55 59 66 61 62 69 65
2330.0 61 55 54 51 76 60 80 60 77 67
2370.0 75 64 67 69 54 43 38 39 38 34
2410.0 36 33 25 26 30 28 29 32 34 35
2450.0 36 34 36 34 37 34 37 34 33 38
2490.0 36 37 36 34 33 32 32 34 39 38
2530.0 37 35 37 40 40 42 40 41 38 41
2570.0 42 39 40 40 39 38 38 36 35 38
2610.0 38 39 40 43 49 52 52 54 57 55
2650.0 57 58 64 67 71 79 86 99 107 121
2690.0 140 169 197 216 219 207 185 170 167 161
2730.0 166 162 164 162 153 144 134 133 135 142
2770.0 143 148 149 155 165 175 203 245 323 415
2810.0 499 538 520 455 364 281 220 185 160 144
2850.0 133 124 117 118 117 117 117 128 139 158
2890.0 174 188 197 207 226 252 267 264 246 237
2930.0 220 216 223 252 294 321 314 268 212 172
2970.0 152 144 152 180 222 266 294 317 311 281
3010.0 222 176 138 110 101 106 109 118 132 140
3050.0 156 173 208 236 250 239 229 232 274 318
3090.0 329 300 237 175 135 108 93 91 88 83
3130.0 79 79 77 75 74 74 74 70 71 72
3170.0 73 70 72 77 80 77 67 74 79 74
3210.0 74 81 75 77 76 74 77 77 70 68
3250.0 66 67 67 66 62 63 62 66 65 64
3290.0 65 58 63 62 58 61 56 54 51 60
3330.0 56 61 53 51 48 52 54 51 47 50
3370.0 48 47 45 40 38 38 36 43 38 41
3410.0 33 30 43 36 38 33 38 47 47 48
3450.0 63 79 100 133 165 201 216 220 211 188
3490.0 150 117 102 123 130 119 123 92 88 76
3530.0 67 64 50 50 54 56 57 51 51 88
3570.0 136 219 317 330 253 142 86 57 51 36
3610.0 53 42 35 24 26 53 24 19 21 21
3650.0 41 39 28 15 9 23 30 40 35 36
3690.0 32 37 22 26 21 39 33 25 21 40
3730.0 29 40 51 44 62 34 36 34 36 35
3770.0 32 39 29 34 29 34 35 37 37 49
3810.0 37 41 34 31 38 30 44 45 40 37
3850.0 58 53 32 39 59 37 42 36 40 59
3890.0 40 57 39 68 60 47 36 56 52 38
3930.0 46 41 34 52 58 47 47 51 54 55
##END=
