##TITLE=2-Hexanol, 3-methyl-
##JCAMP-DX=4.24
##DATA TYPE=INFRARED SPECTRUM
##ORIGIN=Sadtler Research Labs Under US-EPA Contract
##OWNER=NIST Standard Reference Data Program
##CAS REGISTRY NO=2313-65-7
##MOLFORM=C 7 H 16 O
##XUNITS=1/CM
##YUNITS=ABSORBANCE
##XFACTOR=1.0
##YFACTOR=0.000135822
##DELTAX=4.0
##FIRSTX=450.0
##LASTX=3966.0
##FIRSTY=0.000000
##MAXX=3966
##MINX=450
##MAXY=1.35822
##MINY=0
##NPOINTS=880
##XYDATA=(X++(Y..Y))
450.0 0 493 733 652 625 559 674 721 748 738
490.0 582 657 566 631 558 626 598 595 567 596
530.0 541 506 543 533 558 519 542 500 521 506
570.0 536 514 524 505 574 606 557 559 531 529
610.0 536 502 514 506 529 470 488 477 484 478
650.0 465 471 465 494 465 501 449 505 470 470
690.0 472 477 472 466 481 463 501 497 514 521
730.0 564 577 573 587 571 562 534 529 503 502
770.0 503 498 497 501 521 497 514 508 517 503
810.0 506 512 499 508 500 512 497 518 526 548
850.0 566 598 622 632 673 687 716 727 772 786
890.0 849 930 1006 1078 1090 1090 1053 1069 1099 1183
930.0 1267 1313 1297 1191 1065 918 823 757 763 776
970.0 825 866 921 1048 1108 1167 1188 1192 1171 1166
1010.0 1177 1211 1285 1380 1477 1559 1626 1640 1645 1645
1050.0 1651 1667 1709 1767 1842 1968 2079 2195 2247 2261
1090.0 2202 2069 1909 1740 1603 1489 1426 1377 1339 1309
1130.0 1301 1292 1312 1328 1335 1343 1315 1274 1201 1124
1170.0 1044 960 894 838 813 788 792 804 840 874
1210.0 927 985 1052 1126 1204 1287 1356 1435 1485 1520
1250.0 1516 1476 1404 1299 1202 1097 1020 957 918 882
1290.0 865 862 862 878 890 910 915 923 915 914
1330.0 911 926 943 963 1003 1034 1085 1146 1251 1419
1370.0 1654 1948 2218 2429 2492 2389 2129 1812 1512 1279
1410.0 1099 976 907 850 824 822 863 938 1064 1207
1450.0 1410 1584 1774 1876 1848 1784 1623 1413 1180 1002
1490.0 837 738 676 630 619 600 580 574 571 561
1530.0 554 547 552 542 538 528 525 523 538 513
1570.0 513 510 522 500 511 504 506 505 507 507
1610.0 499 512 503 514 502 511 505 513 503 518
1650.0 502 535 513 506 517 516 509 519 502 524
1690.0 505 507 508 517 501 502 510 510 515 513
1730.0 518 518 520 498 503 505 504 497 498 496
1770.0 492 497 485 492 484 497 485 490 489 496
1810.0 491 492 496 490 494 490 495 488 498 495
1850.0 494 495 493 497 494 497 497 497 498 499
1890.0 501 497 500 496 497 497 500 499 499 499
1930.0 498 500 501 497 497 500 501 503 502 499
1970.0 503 499 503 501 506 501 503 500 499 495
2010.0 493 487 478 479 469 472 466 466 463 469
2050.0 467 461 454 448 449 450 458 466 477 484
2090.0 492 497 498 501 498 503 499 502 500 499
2130.0 500 502 502 498 499 497 498 497 497 503
2170.0 496 498 494 500 497 497 495 492 492 490
2210.0 491 488 489 486 489 488 488 488 490 485
2250.0 484 486 480 484 478 479 479 478 472 472
2290.0 471 463 460 454 456 448 457 463 465 477
2330.0 472 477 468 481 448 455 470 483 471 450
2370.0 448 448 448 448 456 476 484 488 487 488
2410.0 480 480 478 479 477 472 468 469 469 468
2450.0 466 462 469 461 467 465 465 462 460 464
2490.0 459 460 460 459 458 458 457 457 457 456
2530.0 459 455 456 457 454 448 455 458 456 452
2570.0 450 453 455 458 461 468 476 482 489 500
2610.0 512 518 532 538 549 554 552 556 554 551
2650.0 549 550 558 558 555 542 529 515 505 499
2690.0 508 509 524 532 541 557 563 574 579 588
2730.0 595 612 612 627 632 627 622 607 606 606
2770.0 614 617 621 624 640 650 669 684 703 729
2810.0 750 777 807 843 888 942 1015 1089 1207 1363
2850.0 1579 1846 2179 2558 3005 3501 4118 4761 5192 5361
2890.0 5320 5041 4653 4354 4251 4269 4381 4583 4872 5207
2930.0 5568 5914 6123 6120 5923 5773 5859 6354 7436 8759
2970.0 9712 10000 9427 8039 6339 4774 3480 2505 1815 1378
3010.0 1121 976 885 836 789 766 744 721 693 672
3050.0 649 633 614 598 589 580 571 570 568 548
3090.0 557 544 552 543 537 538 531 527 529 528
3130.0 536 538 536 536 539 542 555 556 561 564
3170.0 567 570 563 564 558 554 548 548 537 528
3210.0 517 513 506 501 496 487 491 496 494 491
3250.0 489 491 494 488 490 497 486 489 479 473
3290.0 469 456 452 455 451 449 455 448 458 456
3330.0 467 472 465 473 463 459 462 455 456 458
3370.0 460 462 459 451 462 464 477 449 459 462
3410.0 451 471 461 464 456 463 466 471 477 473
3450.0 468 467 476 470 465 477 478 470 472 461
3490.0 479 480 462 470 474 477 463 467 473 469
3530.0 481 475 473 469 477 472 477 469 482 478
3570.0 486 485 481 486 491 516 491 498 506 505
3610.0 520 524 539 548 595 620 659 712 795 895
3650.0 1013 1126 1175 1154 1088 946 822 695 599 564
3690.0 538 512 524 506 500 507 507 481 476 496
3730.0 494 491 486 499 493 493 479 472 461 484
3770.0 490 496 468 474 487 481 484 482 474 474
3810.0 477 482 506 485 491 478 468 479 464 488
3850.0 478 469 476 495 475 481 461 459 459 462
3890.0 457 482 480 484 451 464 463 449 454 477
3930.0 449 497 464 448 469 479 475 493 479 483
##END=
