##TITLE=Acetamide, 2-chloro-N,N-diethyl-
##JCAMP-DX=4.24
##DATA TYPE=INFRARED SPECTRUM
##ORIGIN=Sadtler Research Labs Under US-EPA Contract
##OWNER=NIST Standard Reference Data Program
##CAS REGISTRY NO=2315-36-8
##MOLFORM=C 6 H 12 Cl N O
##XUNITS=1/CM
##YUNITS=ABSORBANCE
##XFACTOR=1.0
##YFACTOR=0.000086923
##DELTAX=4.0
##FIRSTX=450.0
##LASTX=3966.0
##FIRSTY=0.003651
##MAXX=3966
##MINX=450
##MAXY=0.86923
##MINY=0
##NPOINTS=880
##XYDATA=(X++(Y..Y))
450.0 42 43 73 87 82 90 70 93 92 90
490.0 21 37 90 42 75 66 19 37 26 49
530.0 26 86 90 105 167 146 180 240 276 288
570.0 275 242 212 231 194 126 121 102 105 125
610.0 125 79 136 129 114 167 218 326 404 532
650.0 565 504 424 322 185 96 100 57 78 75
690.0 75 108 153 176 272 365 437 481 421 380
730.0 310 281 212 117 188 161 107 153 146 144
770.0 238 302 458 610 736 820 810 726 563 382
810.0 294 209 118 108 85 44 56 62 56 49
850.0 35 40 59 42 35 27 28 36 22 33
890.0 14 30 20 21 36 38 61 49 59 64
930.0 80 94 111 129 134 125 118 103 69 47
970.0 38 26 34 34 22 44 55 51 78 77
1010.0 119 148 200 242 247 260 212 176 141 140
1050.0 146 192 243 325 407 468 521 542 559 572
1090.0 629 729 825 923 1084 1337 1572 1723 1706 1527
1130.0 1171 800 522 354 246 198 162 157 144 146
1170.0 144 145 133 156 160 165 198 241 314 438
1210.0 613 823 1010 1096 1073 958 811 709 718 798
1250.0 986 1116 1137 1082 1019 970 1076 1337 1600 1696
1290.0 1613 1354 1070 873 844 924 1003 1014 911 749
1330.0 556 444 437 500 612 718 809 895 940 961
1370.0 1003 1126 1239 1366 1416 1323 1178 1000 918 1005
1410.0 1243 1565 1906 2199 2328 2351 2306 2216 2199 2307
1450.0 2409 2523 2538 2428 2146 1840 1442 1143 884 713
1490.0 567 457 367 312 279 256 249 224 223 190
1530.0 171 136 124 70 98 85 95 70 51 79
1570.0 75 93 77 102 112 117 114 123 127 145
1610.0 162 167 159 201 226 253 305 329 410 460
1650.0 593 746 1152 1787 2985 4696 6995 9219 10000 9644
1690.0 7961 5593 3376 2077 1481 1095 834 596 453 349
1730.0 284 223 197 169 174 161 152 151 140 147
1770.0 142 119 132 134 132 137 118 130 109 108
1810.0 92 88 84 79 65 60 53 51 46 32
1850.0 36 33 22 28 14 9 11 10 17 9
1890.0 7 14 9 18 12 6 12 1 10 6
1930.0 6 19 11 6 6 5 1 7 5 8
1970.0 6 7 11 6 6 9 11 12 14 8
2010.0 6 8 8 8 2 1 1 6 7 5
2050.0 1 6 5 7 9 8 8 13 8 8
2090.0 9 14 9 10 13 13 14 14 15 14
2130.0 13 15 15 15 15 15 21 15 21 20
2170.0 16 21 22 15 16 15 10 10 9 11
2210.0 6 10 10 10 12 10 17 17 17 15
2250.0 16 11 10 10 14 11 9 9 9 8
2290.0 7 4 7 7 3 7 10 12 9 16
2330.0 18 21 13 14 8 11 18 17 12 3
2370.0 6 1 16 13 7 14 14 18 19 19
2410.0 14 13 12 13 11 14 13 13 16 19
2450.0 14 14 14 9 14 8 14 10 9 9
2490.0 9 9 9 9 9 9 9 15 15 15
2530.0 22 22 21 24 26 17 21 15 16 22
2570.0 17 17 17 16 16 16 14 16 10 13
2610.0 12 5 12 12 12 12 17 18 14 17
2650.0 17 19 16 18 23 23 24 25 30 36
2690.0 43 46 46 46 48 42 35 42 41 42
2730.0 42 47 43 49 53 54 54 50 51 49
2770.0 47 44 48 55 61 65 73 77 79 89
2810.0 91 103 112 121 127 133 150 151 163 169
2850.0 189 200 235 266 319 392 502 630 766 863
2890.0 918 924 901 877 866 860 863 862 877 918
2930.0 1013 1173 1382 1589 1681 1615 1466 1293 1220 1324
2970.0 1634 2049 2424 2627 2555 2283 1950 1606 1342 1104
3010.0 887 687 522 395 312 264 236 216 193 180
3050.0 164 152 133 123 123 111 101 90 84 85
3090.0 74 84 80 80 79 68 69 68 68 68
3130.0 64 64 60 60 58 64 63 59 52 54
3170.0 53 53 54 47 44 49 43 38 36 31
3210.0 27 21 21 20 26 22 22 22 21 21
3250.0 23 22 27 22 28 23 23 22 24 29
3290.0 23 26 29 29 36 27 36 29 47 41
3330.0 53 64 82 93 99 95 84 75 66 51
3370.0 37 42 38 32 38 31 31 28 31 26
3410.0 28 31 26 30 34 33 28 39 29 34
3450.0 36 33 35 36 36 28 36 35 37 32
3490.0 31 30 37 33 33 29 31 34 33 40
3530.0 32 33 33 32 39 38 31 40 40 43
3570.0 50 51 49 53 51 48 43 40 36 37
3610.0 30 24 20 26 25 16 26 28 27 21
3650.0 11 21 17 32 24 14 16 4 15 19
3690.0 19 23 23 26 23 21 21 24 26 20
3730.0 15 13 16 24 0 13 5 24 22 22
3770.0 25 25 29 27 27 25 16 9 5 10
3810.0 11 15 14 5 14 9 8 1 10 7
3850.0 5 1 4 2 10 3 13 13 16 12
3890.0 12 14 25 22 24 13 15 12 18 18
3930.0 16 20 15 17 21 19 18 23 17 15
##END=
