##TITLE=n-Propyl benzoate
##JCAMP-DX=4.24
##DATA TYPE=INFRARED SPECTRUM
##ORIGIN=Sadtler Research Labs Under US-EPA Contract
##OWNER=NIST Standard Reference Data Program
##CAS REGISTRY NO=2315-68-6
##MOLFORM=C 10 H 12 O 2
##XUNITS=1/CM
##YUNITS=ABSORBANCE
##XFACTOR=1.0
##YFACTOR=0.000150598
##DELTAX=4.0
##FIRSTX=450.0
##LASTX=3966.0
##FIRSTY=0.000000
##MAXX=3966
##MINX=450
##MAXY=1.50598
##MINY=0
##NPOINTS=880
##XYDATA=(X++(Y..Y))
450.0 0 535 822 544 645 788 688 761 834 764
490.0 717 592 642 690 709 725 738 796 680 716
530.0 693 775 712 706 709 692 763 701 750 730
570.0 670 675 711 693 677 705 703 702 685 686
610.0 696 717 710 704 704 688 697 690 708 694
650.0 709 720 718 760 786 948 989 1062 1035 1024
690.0 1083 1236 1578 1926 2464 2807 2403 1982 1512 1137
730.0 950 834 805 768 764 735 738 721 700 842
770.0 752 725 706 697 701 696 710 735 738 721
810.0 725 710 748 745 753 731 723 725 730 729
850.0 718 726 721 729 720 727 715 730 734 742
890.0 750 752 764 758 768 772 792 796 805 802
930.0 824 875 965 1050 1058 1014 910 843 828 838
970.0 870 883 870 819 775 734 723 718 719 708
1010.0 721 765 862 1185 1428 1446 1251 936 816 816
1050.0 832 905 1011 1228 1431 1466 1360 1196 1154 1388
1090.0 1923 2532 3078 3758 4330 4598 4288 3308 2316 1679
1130.0 1370 1227 1171 1128 1098 1055 1030 1001 990 1000
1170.0 1177 1528 1654 1569 1207 882 815 780 768 777
1210.0 779 792 812 870 950 1117 1380 1744 2029 2170
1250.0 2247 2485 3240 4803 7109 9281 10000 8482 5703 3519
1290.0 2408 1782 1460 1343 1370 1572 1709 1658 1419 1069
1330.0 890 838 791 799 824 836 826 792 757 753
1370.0 781 818 887 934 974 996 982 936 867 792
1410.0 742 730 693 708 708 730 737 779 852 977
1450.0 1126 1194 1196 1121 1041 997 930 874 838 789
1490.0 757 742 714 698 668 645 649 641 623 641
1530.0 636 643 635 625 639 663 666 650 667 675
1570.0 679 688 705 730 749 748 756 770 812 836
1610.0 818 770 697 685 658 665 647 658 669 665
1650.0 643 630 634 636 641 640 645 672 675 690
1690.0 722 754 746 755 765 795 829 958 1250 1807
1730.0 2699 3987 5249 5436 5269 3992 2543 1631 1093 883
1770.0 788 764 763 763 761 749 736 718 699 695
1810.0 694 689 685 657 635 615 612 614 603 599
1850.0 601 607 604 605 600 593 600 604 608 606
1890.0 607 609 622 622 631 630 636 639 632 625
1930.0 610 603 605 603 605 616 620 627 623 624
1970.0 621 614 605 592 585 578 579 577 579 578
2010.0 580 579 577 578 578 582 581 583 580 586
2050.0 588 589 588 586 587 588 589 585 590 590
2090.0 590 587 582 578 573 571 566 564 560 558
2130.0 552 551 550 548 546 548 550 550 550 546
2170.0 545 544 548 550 556 555 559 558 557 556
2210.0 556 557 556 558 556 554 554 553 553 555
2250.0 553 551 553 551 550 550 550 550 552 557
2290.0 559 562 567 570 573 581 586 593 598 590
2330.0 583 570 565 562 552 573 592 582 554 522
2370.0 513 513 515 527 532 536 534 535 534 539
2410.0 534 534 531 532 530 532 531 529 527 525
2450.0 524 523 520 517 519 519 516 514 515 518
2490.0 516 520 518 517 519 521 528 528 531 534
2530.0 534 533 531 529 531 534 536 538 535 537
2570.0 530 527 520 519 514 515 514 515 515 515
2610.0 514 516 519 518 519 515 519 514 517 515
2650.0 519 518 520 519 520 517 516 517 519 518
2690.0 518 519 520 519 521 520 524 523 519 521
2730.0 521 525 527 531 531 536 539 542 542 545
2770.0 540 540 540 534 536 536 537 537 546 542
2810.0 541 543 542 545 547 557 562 570 573 584
2850.0 593 606 625 653 682 713 734 765 820 910
2890.0 982 1010 996 959 929 900 875 871 883 933
2930.0 1019 1103 1153 1207 1268 1323 1364 1402 1465 1558
2970.0 1675 1817 2004 1984 1790 1450 1101 914 808 746
3010.0 708 678 666 657 661 671 690 721 750 787
3050.0 791 784 766 780 841 914 1020 1052 993 888
3090.0 772 745 746 733 706 654 627 601 581 563
3130.0 557 550 549 540 543 540 537 542 544 550
3170.0 547 550 550 547 542 541 527 534 537 531
3210.0 525 527 522 524 520 514 520 523 526 521
3250.0 529 519 518 519 524 517 527 524 530 526
3290.0 527 529 530 523 523 526 525 515 530 535
3330.0 537 529 530 530 528 529 533 532 536 521
3370.0 532 528 525 532 537 541 538 530 530 539
3410.0 536 525 542 541 539 532 535 534 538 547
3450.0 554 563 567 580 572 564 551 550 549 545
3490.0 534 532 517 524 531 536 537 540 538 530
3530.0 520 532 529 540 537 545 529 522 537 530
3570.0 535 537 538 533 543 533 540 539 545 538
3610.0 536 531 535 529 529 536 525 537 542 557
3650.0 530 533 528 544 545 535 559 551 537 546
3690.0 541 526 543 547 544 530 538 515 530 545
3730.0 552 552 537 529 528 540 520 533 547 528
3770.0 520 516 519 522 542 530 541 563 522 537
3810.0 515 523 522 543 522 522 534 541 525 519
3850.0 554 514 515 513 534 526 528 526 547 530
3890.0 516 546 523 521 519 526 535 549 527 513
3930.0 553 524 561 561 580 537 533 515 539 535
##END=
