##TITLE=3-Rhodanineacetic acid, ethyl ester
##JCAMP-DX=4.24
##DATA TYPE=INFRARED SPECTRUM
##ORIGIN=Sadtler Research Labs Under US-EPA Contract
##OWNER=NIST Standard Reference Data Program
##CAS REGISTRY NO=23176-01-4
##MOLFORM=C 7 H 9 N O 3 S 2
##XUNITS=1/CM
##YUNITS=ABSORBANCE
##XFACTOR=1.0
##YFACTOR=0.000057730
##DELTAX=4.0
##FIRSTX=450.0
##LASTX=3966.0
##FIRSTY=0.000115
##MAXX=3966
##MINX=450
##MAXY=0.5773
##MINY=0
##NPOINTS=880
##XYDATA=(X++(Y..Y))
450.0 2 62 82 23 17 28 0 19 53 63
490.0 25 136 185 229 360 470 487 427 331 302
530.0 254 298 337 354 312 268 171 126 119 115
570.0 72 62 34 51 28 20 9 38 35 22
610.0 7 18 21 28 61 68 103 160 239 325
650.0 379 334 267 190 150 140 92 79 73 51
690.0 70 92 92 122 105 122 115 120 142 150
730.0 143 137 106 111 71 44 44 46 56 81
770.0 118 172 208 200 155 78 43 33 27 28
810.0 26 36 33 48 57 85 125 202 276 300
850.0 303 247 212 211 209 233 231 229 223 186
890.0 156 107 83 73 77 95 118 164 187 198
930.0 192 167 137 116 119 143 200 306 475 671
970.0 796 751 559 352 227 191 186 204 237 289
1010.0 363 484 681 934 1171 1260 1239 1122 1040 962
1050.0 848 672 489 352 272 246 229 232 251 284
1090.0 329 400 467 525 574 575 535 439 348 285
1130.0 267 276 292 329 375 447 532 654 822 1050
1170.0 1328 1656 2117 2808 3945 5511 7185 8471 8952 8416
1210.0 7772 7730 7712 7162 5516 3717 2629 2184 2059 2048
1250.0 2030 1915 1694 1415 1168 974 860 791 770 776
1290.0 823 899 1020 1174 1370 1681 2196 3101 4447 5978
1330.0 7051 7030 6036 4572 3638 3479 3685 3546 2946 2125
1370.0 1632 1548 1434 1213 882 683 726 895 1158 1418
1410.0 1559 1342 1049 660 445 314 292 263 249 252
1450.0 246 242 243 234 233 253 268 244 189 168
1490.0 158 122 126 122 148 155 143 131 139 111
1530.0 110 106 108 137 105 72 48 69 39 40
1570.0 37 39 31 30 32 27 35 41 50 56
1610.0 71 77 83 86 89 81 84 99 86 89
1650.0 100 107 98 93 111 99 119 94 132 128
1690.0 141 157 199 238 268 333 369 487 517 612
1730.0 683 884 1124 1592 2733 4558 7225 8875 10000 9052
1770.0 7574 5806 3775 2130 1166 673 516 392 351 271
1810.0 267 247 225 228 210 210 175 174 156 158
1850.0 131 123 110 98 105 92 82 76 78 67
1890.0 71 67 56 50 42 41 30 42 37 34
1930.0 29 31 28 25 29 25 26 19 26 21
1970.0 19 17 14 21 13 27 20 18 17 19
2010.0 12 19 26 31 33 36 52 51 66 68
2050.0 73 69 67 68 72 74 70 62 50 48
2090.0 37 35 31 30 30 23 26 21 19 15
2130.0 17 12 12 16 10 11 11 14 14 16
2170.0 17 17 19 21 20 15 19 19 19 18
2210.0 24 27 23 31 21 21 21 18 18 20
2250.0 20 21 19 20 19 27 32 39 47 54
2290.0 67 71 78 87 91 100 88 94 95 80
2330.0 73 59 54 60 77 75 86 72 87 55
2370.0 59 63 67 68 54 40 29 27 28 28
2410.0 20 19 15 14 14 12 14 16 18 18
2450.0 17 14 19 22 22 20 16 13 12 8
2490.0 6 8 7 4 9 10 7 12 14 16
2530.0 22 16 19 18 21 25 20 21 21 18
2570.0 13 17 14 9 7 8 8 8 10 4
2610.0 12 12 8 8 7 7 9 11 5 11
2650.0 10 12 17 19 24 23 23 26 27 25
2690.0 27 27 25 22 19 23 19 17 14 15
2730.0 14 20 20 22 23 19 18 14 22 19
2770.0 18 21 22 24 26 27 22 24 23 28
2810.0 28 29 34 33 32 30 31 33 40 35
2850.0 39 44 43 53 59 67 79 92 106 125
2890.0 130 123 123 129 148 158 180 185 195 197
2930.0 214 255 328 428 540 622 632 574 483 415
2970.0 400 431 494 612 721 758 699 586 482 407
3010.0 350 289 236 195 156 122 101 85 77 71
3050.0 60 56 44 39 33 35 34 32 34 27
3090.0 30 30 32 30 29 27 30 25 26 26
3130.0 23 30 26 26 24 24 24 23 18 22
3170.0 20 21 21 20 18 23 21 18 11 18
3210.0 20 25 16 20 17 14 13 18 18 15
3250.0 19 18 20 14 17 20 14 16 22 19
3290.0 15 11 14 9 16 13 20 21 18 20
3330.0 14 13 23 16 13 19 6 14 13 14
3370.0 19 22 13 18 17 23 26 9 18 17
3410.0 16 15 24 15 23 17 16 12 4 14
3450.0 14 21 24 24 22 25 30 27 35 48
3490.0 67 86 97 101 80 67 58 49 46 36
3530.0 24 22 3 9 19 15 4 11 23 29
3570.0 28 22 29 17 17 25 15 19 14 14
3610.0 14 18 15 14 19 11 8 18 22 11
3650.0 19 9 16 4 17 15 16 14 11 20
3690.0 10 15 24 21 16 25 8 16 31 29
3730.0 26 17 33 25 21 32 13 13 7 19
3770.0 32 33 14 41 13 1 13 22 28 21
3810.0 11 14 22 12 17 18 11 18 3 12
3850.0 19 2 26 21 21 28 19 17 20 21
3890.0 33 20 20 13 32 24 25 16 36 29
3930.0 15 15 4 28 30 29 14 8 14 20
##END=
