##TITLE=Malonic acid, fluoro-p-isobutylphenyl-, diethyl ester
##JCAMP-DX=4.24
##DATA TYPE=INFRARED SPECTRUM
##ORIGIN=Sadtler Research Labs Under US-EPA Contract
##OWNER=NIST Standard Reference Data Program
##CAS REGISTRY NO=23197-71-9
##MOLFORM=C 17 H 23 F O 4
##XUNITS=1/CM
##YUNITS=ABSORBANCE
##XFACTOR=1.0
##YFACTOR=0.000044193
##DELTAX=4.0
##FIRSTX=450.0
##LASTX=3966.0
##FIRSTY=0.008839
##MAXX=3966
##MINX=450
##MAXY=0.44193
##MINY=0
##NPOINTS=880
##XYDATA=(X++(Y..Y))
450.0 200 162 139 207 160 171 91 84 107 113
490.0 46 90 114 110 158 172 225 275 269 256
530.0 217 131 130 105 102 121 82 78 61 91
570.0 24 0 35 24 33 22 28 79 106 144
610.0 199 315 394 399 311 281 292 286 202 120
650.0 64 74 51 69 42 107 170 159 261 337
690.0 447 506 578 573 560 528 531 549 559 584
730.0 595 708 892 1080 1096 1073 942 859 817 865
770.0 880 872 839 803 757 694 608 510 436 381
810.0 376 349 360 347 354 338 346 406 495 584
850.0 658 713 836 984 1019 867 614 405 266 184
890.0 120 76 62 40 30 19 33 55 102 127
930.0 130 119 112 153 183 205 254 353 502 740
970.0 896 862 683 505 414 422 463 525 628 804
1010.0 1085 1542 2162 2600 2604 2834 3450 4151 4870 5551
1050.0 6048 6090 5641 4914 4276 3834 3497 3191 2998 3006
1090.0 3270 3745 4174 4342 4134 3685 3216 2842 2507 2230
1130.0 2081 1962 1732 1449 1260 1188 1185 1249 1405 1594
1170.0 1759 1895 2081 2407 2993 3760 4125 4174 4539 5189
1210.0 5762 6245 6649 6945 7124 7345 7782 8410 9023 9410
1250.0 9697 9872 10000 9998 9791 9134 8077 6917 5856 4972
1290.0 4243 3676 3240 2860 2428 1949 1498 1160 922 746
1330.0 635 579 540 507 470 447 441 489 636 997
1370.0 1409 1479 1193 1026 1075 1118 940 718 605 557
1410.0 557 594 621 570 494 460 498 597 723 854
1450.0 993 1092 1203 1349 1503 1659 1561 1311 1035 863
1490.0 709 613 544 515 591 788 930 767 455 247
1530.0 178 128 140 110 138 138 163 138 172 187
1570.0 197 190 207 181 168 164 182 206 244 276
1610.0 286 302 279 218 154 104 97 49 50 25
1650.0 33 18 74 56 83 98 113 147 152 163
1690.0 182 214 233 288 363 434 528 638 840 1078
1730.0 1451 1930 2698 3642 4748 5791 6771 7332 7800 8791
1770.0 9771 9835 8675 7222 5783 4353 2894 1869 1237 906
1810.0 670 535 424 358 292 248 207 186 148 131
1850.0 117 101 89 83 73 60 69 76 77 80
1890.0 86 97 110 129 139 134 116 98 69 59
1930.0 50 34 37 22 35 32 28 23 25 20
1970.0 17 14 10 18 17 15 14 18 17 23
2010.0 18 18 19 18 26 24 29 28 27 28
2050.0 30 32 34 39 41 46 51 55 52 51
2090.0 55 53 53 52 56 51 52 49 49 45
2130.0 46 49 46 46 39 31 33 23 20 22
2170.0 14 15 13 10 13 14 14 17 15 15
2210.0 23 19 26 27 24 31 32 28 24 24
2250.0 28 30 23 19 21 22 24 23 28 43
2290.0 52 67 72 79 78 86 61 41 48 9
2330.0 0 0 0 0 46 8 23 1 0 0
2370.0 0 7 50 71 69 35 31 20 18 17
2410.0 22 23 12 19 17 12 14 11 11 11
2450.0 16 14 15 12 11 13 11 10 13 13
2490.0 14 11 8 8 4 4 0 5 6 2
2530.0 2 11 11 8 11 14 9 13 13 13
2570.0 14 13 17 16 19 25 26 38 39 45
2610.0 44 46 41 42 46 48 47 49 45 45
2650.0 45 42 39 43 44 43 45 47 40 48
2690.0 47 48 52 57 52 56 67 72 86 106
2730.0 125 129 134 123 123 115 117 120 115 127
2770.0 138 143 152 154 157 166 168 182 191 198
2810.0 212 244 275 309 344 383 417 471 559 688
2850.0 903 1166 1389 1544 1643 1804 2145 2574 2689 2454
2890.0 2234 2208 2245 2375 2634 2995 3350 3704 4085 4400
2930.0 4645 4818 4937 4942 4761 4391 4294 4834 5871 6727
2970.0 6702 6063 5062 4312 4239 4075 3305 2568 2162 1905
3010.0 1675 1470 1279 1115 1021 999 1049 1044 959 831
3050.0 722 627 554 540 555 580 591 577 529 448
3090.0 401 379 380 362 339 311 280 259 251 236
3130.0 239 228 219 213 215 205 195 190 195 177
3170.0 175 175 178 184 173 162 159 149 145 134
3210.0 135 127 125 124 114 114 107 110 102 98
3250.0 100 100 94 101 95 95 91 77 86 90
3290.0 89 76 84 80 77 84 87 98 92 90
3330.0 82 88 89 80 84 88 81 78 86 74
3370.0 57 66 77 72 67 84 81 78 79 81
3410.0 73 69 65 67 61 52 67 60 55 57
3450.0 54 49 65 44 58 58 58 61 70 79
3490.0 85 82 92 102 98 95 136 134 145 140
3530.0 134 139 125 121 114 71 41 29 9 32
3570.0 24 21 20 16 41 15 36 9 5 20
3610.0 49 36 18 44 18 41 15 13 23 0
3650.0 38 33 23 61 18 68 23 52 22 52
3690.0 38 44 42 44 47 42 37 51 42 34
3730.0 41 65 76 6 123 26 71 60 53 65
3770.0 51 54 37 85 50 44 32 67 29 92
3810.0 22 49 61 53 63 65 67 75 61 37
3850.0 69 54 43 84 53 85 72 63 68 93
3890.0 61 80 56 91 58 79 69 65 59 61
3930.0 63 86 64 81 67 64 70 77 64 82
##END=
