##TITLE=Benzoic acid, 2-hydroxy-3-methyl-, methyl ester
##JCAMP-DX=4.24
##DATA TYPE=INFRARED SPECTRUM
##ORIGIN=Sadtler Research Labs Under US-EPA Contract
##OWNER=NIST Standard Reference Data Program
##CAS REGISTRY NO=23287-26-5
##MOLFORM=C 9 H 10 O 3
##XUNITS=1/CM
##YUNITS=ABSORBANCE
##XFACTOR=1.0
##YFACTOR=0.000162637
##DELTAX=4.0
##FIRSTX=450.0
##LASTX=3966.0
##FIRSTY=0.007969
##MAXX=3966
##MINX=450
##MAXY=1.62637
##MINY=0
##NPOINTS=880
##XYDATA=(X++(Y..Y))
450.0 49 66 79 97 120 164 137 92 68 23
490.0 40 84 44 51 32 10 19 69 82 111
530.0 91 110 62 102 127 175 278 449 607 613
570.0 564 393 208 151 130 124 92 92 123 109
610.0 157 164 216 223 384 534 513 473 320 147
650.0 119 96 96 99 83 119 135 125 155 206
690.0 303 352 471 574 662 752 804 836 792 831
730.0 903 869 948 1327 1933 2447 4051 3515 2416 1875
770.0 1053 554 338 198 144 57 57 22 62 88
810.0 152 212 263 249 264 315 410 584 633 601
850.0 520 305 143 86 74 73 101 99 87 63
890.0 32 7 5 5 12 24 28 28 20 10
930.0 2 1 0 4 13 20 42 63 87 101
970.0 126 173 233 315 325 320 296 286 341 453
1010.0 612 799 939 970 872 663 433 261 171 121
1050.0 104 102 118 159 232 385 617 935 1145 1179
1090.0 1200 1061 926 915 921 950 958 1000 1108 1326
1130.0 1691 2298 3275 4718 6403 7551 7321 5957 4111 2679
1170.0 2064 1868 1755 1769 2000 2479 3153 3588 3578 3122
1210.0 2305 1672 1363 1204 1184 1356 1785 2655 4171 6382
1250.0 7929 7924 6740 4183 2559 2062 2164 2746 4016 6128
1290.0 8811 10000 9153 6535 3763 2554 2496 2966 3914 5252
1330.0 6366 6670 5976 4567 3281 2535 2039 1606 1260 1019
1370.0 901 864 912 1118 1246 1303 1267 1120 1073 1159
1410.0 1248 1368 1509 1753 2129 2690 3478 4626 5877 6220
1450.0 5859 4450 3400 3006 2759 2457 2103 1702 1323 1084
1490.0 947 787 619 487 428 385 352 341 328 313
1530.0 310 303 302 304 297 286 281 290 298 303
1570.0 319 337 359 383 436 527 662 825 1030 1308
1610.0 1544 1705 1715 1514 1223 929 720 591 516 511
1650.0 560 651 752 918 1143 1491 2102 3157 4864 6958
1690.0 8327 8311 7909 5571 3787 2462 1699 1186 885 681
1730.0 544 464 421 450 537 609 619 552 404 271
1770.0 187 140 114 102 96 87 91 80 77 67
1810.0 62 60 60 66 64 60 49 39 34 36
1850.0 36 39 48 60 90 118 133 119 96 58
1890.0 34 21 16 19 21 35 45 68 75 71
1930.0 60 36 19 12 11 11 13 18 23 27
1970.0 30 29 30 29 31 42 47 55 59 62
2010.0 58 53 53 55 61 59 59 49 45 38
2050.0 29 27 28 32 26 26 27 28 30 24
2090.0 22 17 16 12 9 11 11 15 17 20
2130.0 24 26 25 23 14 14 16 18 24 30
2170.0 38 37 35 29 20 12 12 10 12 19
2210.0 25 24 21 19 14 14 10 10 12 15
2250.0 15 16 17 16 16 15 15 18 15 11
2290.0 6 7 5 4 0 0 1 3 2 10
2330.0 3 12 24 20 43 13 0 0 3 56
2370.0 76 86 69 55 39 22 17 19 17 15
2410.0 16 17 22 26 28 31 38 42 44 49
2450.0 47 47 46 45 48 51 51 52 55 58
2490.0 56 53 50 45 40 39 38 42 42 44
2530.0 45 50 55 62 67 64 64 63 64 61
2570.0 61 64 68 68 69 67 64 62 63 64
2610.0 67 68 67 69 68 71 68 76 78 86
2650.0 93 87 91 94 86 83 77 74 78 72
2690.0 79 73 74 75 70 70 71 80 79 84
2730.0 85 91 97 103 112 114 118 113 99 89
2770.0 89 88 84 78 83 83 84 86 93 101
2810.0 108 120 130 141 159 161 178 191 218 264
2850.0 337 443 547 595 586 520 451 413 390 374
2890.0 368 379 400 415 443 483 541 608 700 799
2930.0 890 961 976 930 861 846 982 1468 2005 2146
2970.0 1949 1393 914 762 727 708 678 656 660 683
3010.0 720 722 745 773 811 862 903 922 911 874
3050.0 846 835 824 833 813 785 720 657 610 581
3090.0 577 547 519 479 422 360 329 312 289 274
3130.0 271 283 289 296 317 349 369 414 450 499
3170.0 539 591 654 730 811 916 1042 1172 1315 1468
3210.0 1621 1783 1919 2023 2102 2124 2145 2095 2013 1940
3250.0 1836 1733 1598 1473 1363 1262 1158 1080 1003 954
3290.0 901 864 823 789 758 729 704 687 673 628
3330.0 610 595 558 546 519 506 488 480 469 461
3370.0 461 460 459 439 424 393 379 364 333 317
3410.0 291 269 244 240 218 201 182 168 162 146
3450.0 141 147 159 198 250 313 316 312 301 258
3490.0 246 204 181 177 160 158 137 124 110 98
3530.0 97 81 85 79 70 72 65 57 63 54
3570.0 69 51 53 52 32 50 42 25 40 42
3610.0 29 25 34 12 18 22 27 13 7 18
3650.0 18 17 15 23 16 13 21 10 18 24
3690.0 15 10 3 33 28 0 12 4 0 0
3730.0 20 13 14 26 16 15 27 3 6 24
3770.0 25 26 16 0 15 19 10 8 12 25
3810.0 20 0 7 18 12 4 4 21 9 19
3850.0 18 19 10 5 9 2 10 5 2 13
3890.0 2 0 4 12 7 26 12 0 0 0
3930.0 0 0 0 0 0 0 0 16 2 0
##END=
