##TITLE=4-Octanol, 4-methyl-
##JCAMP-DX=4.24
##DATA TYPE=INFRARED SPECTRUM
##ORIGIN=Sadtler Research Labs Under US-EPA Contract
##OWNER=NIST Standard Reference Data Program
##CAS REGISTRY NO=23418-37-3
##MOLFORM=C 9 H 20 O
##XUNITS=1/CM
##YUNITS=ABSORBANCE
##XFACTOR=1.0
##YFACTOR=0.000159720
##DELTAX=4.0
##FIRSTX=450.0
##LASTX=3966.0
##FIRSTY=0.011979
##MAXX=3966
##MINX=450
##MAXY=1.5972
##MINY=0
##NPOINTS=880
##XYDATA=(X++(Y..Y))
450.0 75 38 64 30 25 53 63 54 44 52
490.0 65 83 79 78 67 59 48 32 26 26
530.0 26 22 21 14 18 14 21 18 16 6
570.0 27 21 27 23 24 17 19 7 6 2
610.0 7 6 3 5 2 5 5 1 5 0
650.0 6 0 5 9 7 10 8 11 8 13
690.0 15 21 23 18 32 39 45 48 63 82
730.0 99 126 140 164 168 154 140 132 129 131
770.0 138 133 133 140 149 155 151 137 118 94
810.0 79 64 54 51 46 43 42 51 61 80
850.0 105 141 173 199 211 222 235 264 303 362
890.0 419 469 478 446 405 391 414 458 492 527
930.0 564 607 638 626 565 476 391 309 234 178
970.0 143 125 118 125 142 164 198 249 320 408
1010.0 499 575 606 580 506 422 354 309 304 316
1050.0 356 406 458 508 544 566 575 571 559 543
1090.0 520 496 471 446 426 426 455 523 618 730
1130.0 840 933 993 1033 1065 1108 1157 1201 1203 1152
1170.0 1058 955 861 779 704 637 581 535 507 495
1210.0 491 493 498 504 512 521 532 544 553 566
1250.0 581 597 614 626 628 620 606 591 583 577
1290.0 575 569 563 555 550 548 553 555 560 566
1330.0 578 603 636 660 664 647 630 640 706 829
1370.0 1018 1245 1451 1520 1424 1177 877 631 475 386
1410.0 328 299 277 274 277 308 350 421 492 592
1450.0 725 889 1086 1247 1332 1288 1128 865 606 394
1490.0 266 194 158 133 125 110 100 93 92 87
1530.0 81 80 71 68 61 57 54 49 50 41
1570.0 41 37 40 34 36 35 34 34 35 32
1610.0 31 34 36 36 32 33 31 31 29 31
1650.0 22 35 24 25 24 28 23 27 23 27
1690.0 23 24 25 26 18 18 14 15 10 10
1730.0 5 8 1 1 0 4 5 10 12 14
1770.0 16 15 15 15 17 16 19 15 17 17
1810.0 13 12 14 11 14 11 12 10 8 11
1850.0 9 8 10 11 8 10 11 9 10 8
1890.0 10 8 9 7 7 8 7 8 5 4
1930.0 6 5 5 4 4 5 4 4 2 3
1970.0 2 2 0 2 2 1 1 1 3 1
2010.0 2 2 3 3 4 6 8 7 9 9
2050.0 9 8 7 7 6 5 6 5 5 5
2090.0 3 2 4 3 4 3 4 2 3 3
2130.0 3 3 2 1 1 1 1 3 1 1
2170.0 3 4 2 3 2 2 2 2 2 0
2210.0 0 1 0 2 0 1 0 0 3 1
2250.0 2 4 4 4 4 3 3 1 2 3
2290.0 2 2 4 4 5 3 4 3 3 7
2330.0 7 6 4 8 5 8 2 6 5 12
2370.0 12 15 16 16 17 16 16 18 15 15
2410.0 16 16 14 12 10 9 8 8 7 7
2450.0 7 3 5 3 4 4 6 5 5 4
2490.0 3 5 5 7 5 7 7 11 10 11
2530.0 12 13 12 15 17 15 16 18 20 23
2570.0 24 25 27 27 29 31 33 33 36 36
2610.0 37 38 39 44 45 47 48 48 51 50
2650.0 52 51 52 54 57 60 61 62 65 64
2690.0 65 63 65 65 68 70 75 80 87 98
2730.0 109 122 138 151 153 145 131 120 112 110
2770.0 112 118 123 130 143 154 170 187 205 229
2810.0 253 280 307 339 376 423 491 588 725 902
2850.0 1099 1306 1531 1808 2174 2591 3022 3512 3812 3761
2890.0 3481 2992 2670 2641 2822 3144 3519 3876 4202 4614
2930.0 5269 6197 7113 7559 7288 6504 5865 6083 7348 9188
2970.0 10000 9210 7274 5128 3583 2543 1804 1269 920 712
3010.0 590 514 465 426 400 372 342 308 273 244
3050.0 214 193 173 161 147 138 132 127 121 119
3090.0 112 108 103 100 97 90 87 83 82 81
3130.0 77 77 73 70 70 68 67 68 69 65
3170.0 65 64 66 66 66 68 68 67 63 57
3210.0 55 48 43 37 30 24 19 20 20 16
3250.0 13 13 16 15 14 12 10 13 10 13
3290.0 10 12 9 11 11 7 9 11 7 11
3330.0 8 10 9 11 12 11 11 11 12 14
3370.0 16 17 17 16 19 17 21 20 19 18
3410.0 22 21 24 20 19 21 21 19 21 19
3450.0 20 20 19 17 13 13 13 13 11 11
3490.0 13 12 6 10 6 3 4 7 5 5
3530.0 5 6 4 2 3 2 4 5 6 1
3570.0 6 5 3 4 9 15 9 9 8 10
3610.0 25 31 48 78 127 219 311 406 461 435
3650.0 356 243 155 96 62 48 33 32 23 20
3690.0 20 16 13 14 13 13 13 12 9 10
3730.0 10 12 10 10 22 11 17 6 10 13
3770.0 16 15 17 14 15 16 17 15 22 22
3810.0 19 23 25 22 13 26 27 26 25 27
3850.0 19 35 25 23 35 26 18 21 15 18
3890.0 20 17 23 19 15 10 11 10 16 9
3930.0 8 7 0 12 17 10 15 7 9 6
##END=
