##TITLE=Thiazole, 4,5-dihydro-2-methyl-
##JCAMP-DX=4.24
##DATA TYPE=INFRARED SPECTRUM
##ORIGIN=Sadtler Research Labs Under US-EPA Contract
##OWNER=NIST Standard Reference Data Program
##CAS REGISTRY NO=2346-00-1
##MOLFORM=C 4 H 7 N S
##XUNITS=1/CM
##YUNITS=ABSORBANCE
##XFACTOR=1.0
##YFACTOR=0.000040573
##DELTAX=4.0
##FIRSTX=450.0
##LASTX=3966.0
##FIRSTY=0.000000
##MAXX=3966
##MINX=450
##MAXY=0.40573
##MINY=0
##NPOINTS=880
##XYDATA=(X++(Y..Y))
450.0 0 580 852 642 681 611 724 633 703 666
490.0 792 847 871 980 1047 983 802 827 845 702
530.0 615 604 883 815 749 686 769 715 740 734
570.0 697 715 780 981 1214 1642 2293 2919 3148 3255
610.0 3296 3663 3632 2941 1968 1445 1328 1283 1283 1293
650.0 1221 1303 1191 1080 993 849 748 687 677 707
690.0 704 754 811 860 876 833 832 831 783 777
730.0 698 714 752 787 796 818 832 811 746 706
770.0 692 688 609 616 702 703 699 677 703 718
810.0 714 751 768 781 848 879 962 1055 1133 1186
850.0 1194 1192 1190 1096 1061 1039 1116 1303 1698 2243
890.0 2886 3368 3515 3543 3670 3742 3442 2722 2088 1862
930.0 1954 2276 2778 3281 3627 3689 3752 3837 3716 3178
970.0 2543 1972 1679 1535 1514 1534 1601 1713 1751 1694
1010.0 1684 1666 1618 1565 1520 1482 1495 1571 1658 1737
1050.0 1763 1738 1699 1671 1606 1493 1344 1243 1152 1144
1090.0 1145 1163 1215 1299 1459 1663 1909 2270 2777 3460
1130.0 4403 5552 6934 8458 9571 10000 9823 9581 9196 8097
1170.0 6387 4737 3699 3182 3027 2967 2958 3055 3178 3208
1210.0 3133 2994 2843 2718 2524 2243 1895 1670 1567 1525
1250.0 1534 1535 1534 1458 1346 1150 1081 1027 979 947
1290.0 975 1043 1150 1251 1218 1288 1261 1205 1246 1152
1330.0 1024 972 954 1027 1117 1207 1283 1388 1582 1982
1370.0 2237 2255 2563 2446 2454 2287 1668 1219 1031 1015
1410.0 1021 1122 1199 1403 1629 1895 2102 2226 2483 2546
1450.0 2486 2335 2095 1875 1649 1475 1298 1224 1204 1199
1490.0 1203 1282 1309 1280 1162 1021 975 910 889 940
1530.0 988 1043 1076 1066 1074 1077 1032 971 984 980
1570.0 950 954 964 990 1035 1094 1207 1292 1418 1527
1610.0 1697 2083 2746 3833 5297 7151 8683 9285 8902 8932
1650.0 9248 8221 6160 4017 2419 1540 1036 858 758 791
1690.0 883 1003 1085 1209 1342 1511 1620 1588 1591 1524
1730.0 1362 1172 1104 1045 1009 988 974 954 936 938
1770.0 895 861 835 794 767 741 737 724 690 681
1810.0 658 637 621 603 595 579 580 579 569 560
1850.0 577 587 586 580 579 573 587 591 597 582
1890.0 577 583 581 579 579 590 588 586 576 574
1930.0 592 596 600 591 597 603 601 600 605 585
1970.0 588 587 583 586 580 580 572 572 575 572
2010.0 570 570 569 573 572 573 567 551 547 547
2050.0 542 536 539 545 561 559 560 558 549 559
2090.0 561 571 588 590 589 593 589 591 588 589
2130.0 588 591 594 597 594 589 585 588 590 593
2170.0 577 585 584 585 577 584 581 576 579 582
2210.0 581 589 582 584 587 574 574 579 578 579
2250.0 584 602 587 595 599 603 603 615 608 597
2290.0 593 590 578 569 569 560 569 571 574 579
2330.0 594 602 597 600 595 577 578 571 596 628
2370.0 633 665 626 612 606 608 617 610 620 616
2410.0 615 613 615 611 609 613 607 610 608 607
2450.0 607 612 617 607 615 613 601 606 608 603
2490.0 608 624 627 619 632 636 628 647 652 668
2530.0 671 689 677 669 649 640 638 633 625 613
2570.0 616 614 624 632 635 635 656 661 683 683
2610.0 684 678 673 664 659 651 641 641 653 660
2650.0 667 661 633 625 615 615 619 615 619 612
2690.0 612 614 612 603 616 612 611 626 632 637
2730.0 640 645 644 646 663 651 665 675 669 678
2770.0 681 691 713 704 701 708 720 741 762 751
2810.0 771 789 779 801 827 873 924 1024 1206 1497
2850.0 1954 2577 3182 3489 3740 3786 3691 3595 3288 2927
2890.0 2646 2472 2435 2474 2549 2736 2948 3317 3844 4310
2930.0 4761 5256 5766 6209 6688 6732 6789 6551 6236 6135
2970.0 5499 5410 4925 4288 3941 3567 3098 2692 2435 2182
3010.0 1952 1803 1603 1438 1276 1181 1097 1041 999 965
3050.0 965 962 989 973 976 967 972 982 958 920
3090.0 888 882 843 837 788 782 768 750 744 732
3130.0 725 730 722 694 717 707 715 706 697 712
3170.0 705 699 710 708 705 712 713 711 721 719
3210.0 725 722 741 768 756 760 756 752 793 795
3250.0 825 844 865 882 877 880 860 842 802 741
3290.0 687 647 633 655 649 602 610 620 607 615
3330.0 588 591 612 571 558 593 579 570 580 594
3370.0 590 595 581 598 607 580 607 608 604 593
3410.0 590 582 588 608 599 596 615 624 645 609
3450.0 611 628 657 680 673 674 685 686 679 657
3490.0 655 654 692 625 603 638 673 690 662 621
3530.0 668 686 654 659 652 657 683 663 647 663
3570.0 698 739 780 848 841 804 764 718 711 705
3610.0 756 709 714 712 758 746 727 733 740 762
3650.0 747 686 709 779 744 736 747 741 734 758
3690.0 711 689 786 811 780 719 743 708 760 720
3730.0 733 749 792 808 774 797 763 712 700 762
3770.0 769 762 773 784 788 829 802 763 794 775
3810.0 752 740 753 773 699 745 734 715 691 726
3850.0 800 777 749 704 756 771 713 722 694 823
3890.0 807 800 791 737 750 779 764 829 722 721
3930.0 772 737 765 779 781 764 763 718 794 756
##END=
