##TITLE=Benzothiazin-2-one,(2H)1,3-, 3,4-dihydro-3-methyl-4-methylimino-
##JCAMP-DX=4.24
##DATA TYPE=INFRARED SPECTRUM
##ORIGIN=Sadtler Research Labs Under US-EPA Contract
##OWNER=NIST Standard Reference Data Program
##CAS REGISTRY NO=23588-66-1
##MOLFORM=C 10 H 10 N 2 O S
##XUNITS=1/CM
##YUNITS=ABSORBANCE
##XFACTOR=1.0
##YFACTOR=0.000131116
##DELTAX=4.0
##FIRSTX=450.0
##LASTX=3966.0
##FIRSTY=0.014947
##MAXX=3966
##MINX=450
##MAXY=1.31116
##MINY=0
##NPOINTS=880
##XYDATA=(X++(Y..Y))
450.0 114 143 127 156 247 251 201 150 122 122
490.0 122 139 129 129 136 96 73 63 56 55
530.0 51 43 26 0 18 15 4 9 29 63
570.0 111 178 230 243 195 127 65 34 24 16
610.0 27 19 16 10 13 20 40 58 90 177
650.0 289 461 619 609 585 508 473 452 377 293
690.0 175 115 66 51 38 60 60 112 207 408
730.0 676 1075 1264 1129 922 762 717 779 980 959
770.0 626 369 155 65 47 25 37 31 54 42
810.0 72 90 149 262 431 527 492 370 191 109
850.0 100 111 113 127 117 94 71 55 51 44
890.0 52 49 60 62 58 50 40 38 37 51
930.0 65 97 138 185 230 255 291 380 463 473
970.0 388 248 146 124 158 213 299 395 487 556
1010.0 559 513 434 383 411 506 619 708 773 844
1050.0 892 898 813 662 506 417 482 707 1115 1521
1090.0 1713 1648 1297 894 614 449 381 389 418 435
1130.0 420 382 341 303 273 242 224 210 212 224
1170.0 248 295 386 545 743 919 1005 986 846 694
1210.0 559 443 353 301 281 283 303 338 404 509
1250.0 693 967 1284 1550 1693 1753 1844 1957 2051 2174
1290.0 2327 2526 2731 2977 3364 3973 4660 5039 4995 4398
1330.0 3575 2688 1917 1367 1012 766 603 482 378 324
1370.0 292 254 260 281 289 342 423 564 836 1161
1410.0 1480 1620 1477 1253 1038 1079 1278 1525 1612 1469
1450.0 1106 800 576 566 571 595 533 489 418 291
1490.0 211 207 175 156 112 62 96 84 63 110
1530.0 103 130 104 72 94 149 148 119 203 262
1570.0 308 362 495 688 1045 1332 1433 1276 975 701
1610.0 580 606 626 792 917 1307 1724 2644 4209 6557
1650.0 8833 9678 9110 6425 3855 2736 2454 3087 4231 6418
1690.0 8812 10000 9618 7192 4497 2728 1627 1004 703 552
1730.0 389 292 279 265 224 203 219 203 197 210
1770.0 199 203 255 252 257 234 221 210 175 177
1810.0 138 107 92 75 61 62 76 89 60 34
1850.0 38 40 34 31 20 0 29 32 37 38
1890.0 36 39 40 43 46 59 71 85 75 80
1930.0 67 49 49 47 66 78 79 61 50 30
1970.0 30 30 29 27 23 13 11 18 20 20
2010.0 20 14 10 14 18 20 23 21 23 26
2050.0 31 29 31 26 22 29 24 22 15 16
2090.0 12 17 17 16 18 19 20 17 19 21
2130.0 22 20 21 20 19 16 13 13 10 12
2170.0 9 9 7 9 8 9 9 9 10 9
2210.0 11 13 16 18 23 26 28 33 36 43
2250.0 45 52 52 57 58 59 64 71 73 77
2290.0 77 74 75 79 86 93 87 76 80 64
2330.0 58 55 40 46 53 52 46 35 36 22
2370.0 24 27 34 33 23 10 6 4 2 3
2410.0 3 4 5 5 3 1 1 0 1 2
2450.0 2 2 4 5 4 2 5 3 1 3
2490.0 2 2 0 3 1 3 3 6 6 9
2530.0 11 13 13 12 14 13 16 16 16 17
2570.0 17 15 14 13 16 17 17 18 18 18
2610.0 21 19 17 14 14 12 11 11 11 9
2650.0 10 12 13 14 12 15 12 10 10 12
2690.0 9 11 11 10 12 10 12 10 14 10
2730.0 15 12 17 17 17 22 25 29 32 36
2770.0 45 59 79 109 141 164 167 147 117 89
2810.0 76 69 66 66 66 69 72 79 87 97
2850.0 112 134 164 208 269 360 460 542 582 579
2890.0 547 508 491 507 553 619 683 716 714 693
2930.0 686 694 703 713 750 851 1005 1134 1175 1151
2970.0 1084 976 823 638 496 411 387 377 363 329
3010.0 288 254 230 217 204 196 181 165 144 131
3050.0 126 149 201 304 444 596 718 712 594 440
3090.0 301 243 213 179 137 103 86 80 80 82
3130.0 83 88 88 84 76 61 50 39 34 27
3170.0 26 24 20 21 18 17 15 16 18 17
3210.0 17 18 17 20 21 21 21 14 17 15
3250.0 16 18 19 22 27 32 35 46 54 67
3290.0 74 69 58 51 38 25 23 26 33 44
3330.0 54 68 82 87 81 76 58 53 50 64
3370.0 62 65 60 51 37 30 25 17 9 3
3410.0 11 6 5 7 6 7 10 7 11 7
3450.0 3 7 3 9 9 4 12 7 9 5
3490.0 6 2 4 5 8 2 0 3 6 3
3530.0 6 5 1 7 5 7 5 1 5 4
3570.0 6 8 3 4 9 5 8 5 3 2
3610.0 4 6 6 12 3 9 4 0 8 0
3650.0 5 13 11 10 10 11 5 9 2 11
3690.0 9 12 10 12 3 7 11 13 8 14
3730.0 10 21 8 16 29 17 14 21 14 15
3770.0 16 10 10 10 15 15 6 18 14 20
3810.0 12 10 8 13 12 10 11 10 15 8
3850.0 10 7 9 11 10 8 9 7 15 13
3890.0 12 11 14 13 19 11 6 7 15 12
3930.0 14 8 11 7 10 7 20 15 5 15
##END=
