##TITLE=2,2',4',5'-Tetrachloroacetanilide
##JCAMP-DX=4.24
##DATA TYPE=INFRARED SPECTRUM
##ORIGIN=Sadtler Research Labs Under US-EPA Contract
##OWNER=NIST Standard Reference Data Program
##CAS REGISTRY NO=23595-42-8
##MOLFORM=C 8 H 5 Cl 4 N O
##XUNITS=1/CM
##YUNITS=ABSORBANCE
##XFACTOR=1.0
##YFACTOR=0.000069293
##DELTAX=4.0
##FIRSTX=450.0
##LASTX=3966.0
##FIRSTY=0.000000
##MAXX=3966
##MINX=450
##MAXY=0.69293
##MINY=0
##NPOINTS=880
##XYDATA=(X++(Y..Y))
450.0 0 392 458 725 116 628 685 540 378 357
490.0 257 416 499 185 210 716 597 478 557 453
530.0 783 819 867 818 798 864 1023 888 656 597
570.0 692 632 656 628 578 748 732 726 767 872
610.0 893 772 902 874 747 618 493 547 556 535
650.0 404 416 502 387 579 604 616 692 794 962
690.0 926 652 471 374 372 269 536 449 494 604
730.0 310 680 597 552 99 510 422 353 595 686
770.0 1150 1517 1978 2260 1768 1446 1033 798 628 491
810.0 472 516 453 481 326 273 300 329 344 291
850.0 323 393 408 506 526 656 943 1192 1459 1383
890.0 1153 804 532 393 307 288 267 294 286 277
930.0 408 428 457 408 351 329 279 270 248 271
970.0 234 209 238 269 237 233 235 235 314 244
1010.0 242 293 274 298 258 292 328 336 330 370
1050.0 424 490 684 954 1471 2381 3008 2835 2039 1280
1090.0 899 743 707 783 738 789 932 1027 1256 1732
1130.0 2033 2033 1794 1302 919 769 767 691 767 714
1170.0 789 781 845 869 898 976 985 1084 1160 1251
1210.0 1320 1466 1683 1967 2066 1883 1565 1346 1293 1231
1250.0 1211 1349 1559 1744 1700 1539 1510 1401 1178 972
1290.0 877 752 740 705 669 737 703 743 718 737
1330.0 811 892 978 1125 1357 1845 2662 3808 4891 5244
1370.0 4395 2921 1814 1357 1071 1043 938 895 897 861
1410.0 956 1009 1173 1247 1276 1297 1293 1527 1955 2387
1450.0 3045 3170 3031 2831 2796 2864 3259 3983 5007 5909
1490.0 7140 8080 9360 9946 10000 9374 7500 5214 3353 2315
1530.0 1789 1534 1320 1359 1438 1691 1846 2183 3258 4390
1570.0 6051 6837 5961 4743 3337 2449 1809 1516 1103 1014
1610.0 942 818 854 778 867 805 828 755 765 817
1650.0 648 732 719 830 752 780 772 916 940 1047
1690.0 1260 1425 1625 1784 2232 2701 3360 4472 5039 4970
1730.0 4052 2965 2147 1804 1531 1261 1079 916 769 650
1770.0 527 427 443 398 393 337 308 280 293 258
1810.0 247 258 244 237 219 186 233 200 231 160
1850.0 199 182 183 190 163 176 159 183 167 172
1890.0 171 177 186 174 176 162 174 151 162 159
1930.0 150 160 156 151 138 151 149 153 148 146
1970.0 156 155 152 153 151 161 151 164 159 166
2010.0 159 161 167 160 163 165 163 179 172 180
2050.0 172 164 158 159 167 163 162 164 155 155
2090.0 151 147 157 154 159 159 151 150 150 154
2130.0 158 153 159 161 168 165 161 162 161 164
2170.0 167 172 178 175 181 177 175 175 178 182
2210.0 180 187 186 181 186 187 179 193 196 201
2250.0 208 218 244 274 317 378 430 455 431 366
2290.0 321 279 259 243 225 209 208 185 180 160
2330.0 160 165 134 195 106 223 126 209 144 165
2370.0 166 143 164 157 153 146 135 142 143 140
2410.0 150 145 150 145 147 152 149 151 158 152
2450.0 152 146 156 154 158 157 160 160 155 156
2490.0 157 158 167 165 163 173 164 165 169 164
2530.0 163 160 160 164 161 162 163 174 168 170
2570.0 170 165 175 176 175 181 187 189 184 181
2610.0 178 188 184 185 194 193 185 190 185 195
2650.0 214 205 207 203 203 211 212 233 218 205
2690.0 208 206 212 215 222 204 202 214 213 227
2730.0 232 214 210 215 196 213 219 192 185 184
2770.0 188 198 220 184 186 184 195 220 215 190
2810.0 185 190 197 243 203 206 204 210 228 246
2850.0 204 201 199 225 233 240 230 232 227 230
2890.0 237 244 242 256 271 263 261 247 265 270
2930.0 304 302 342 387 406 407 392 404 438 439
2970.0 424 411 412 403 353 310 311 303 288 249
3010.0 270 270 263 240 241 262 236 233 234 248
3050.0 233 236 235 241 228 237 238 235 235 243
3090.0 264 273 302 323 365 425 466 462 401 323
3130.0 272 236 232 225 211 227 221 211 212 220
3170.0 223 221 214 215 219 218 215 208 203 199
3210.0 221 199 215 210 206 211 207 205 222 209
3250.0 212 198 217 217 218 219 218 224 231 216
3290.0 235 237 238 240 247 267 273 264 277 269
3330.0 274 273 291 299 312 332 339 372 410 443
3370.0 491 556 643 805 1030 1357 1591 1658 1532 1272
3410.0 1015 820 701 608 547 516 472 401 390 375
3450.0 339 312 307 300 286 272 248 255 262 269
3490.0 257 267 261 294 283 282 258 261 274 307
3530.0 272 274 266 273 269 298 241 285 229 312
3570.0 267 265 239 274 258 275 240 266 265 264
3610.0 281 258 263 244 271 169 280 233 269 216
3650.0 252 190 276 254 235 305 147 281 207 281
3690.0 233 220 287 242 262 274 215 304 246 336
3730.0 235 230 302 179 321 114 296 178 279 261
3770.0 236 303 254 235 287 262 273 217 251 208
3810.0 252 245 277 196 245 298 219 208 300 195
3850.0 326 146 295 229 251 239 242 272 234 285
3890.0 269 330 241 300 294 263 322 273 292 244
3930.0 262 315 294 295 290 340 219 292 277 272
##END=
