##TITLE=2-Ethoxyethyl methacrylate
##JCAMP-DX=4.24
##DATA TYPE=INFRARED SPECTRUM
##ORIGIN=Sadtler Research Labs Under US-EPA Contract
##OWNER=NIST Standard Reference Data Program
##CAS REGISTRY NO=2370-63-0
##MOLFORM=C 8 H 14 O 3
##XUNITS=1/CM
##YUNITS=ABSORBANCE
##XFACTOR=1.0
##YFACTOR=0.000088336
##DELTAX=4.0
##FIRSTX=450.0
##LASTX=3966.0
##FIRSTY=0.032066
##MAXX=3966
##MINX=450
##MAXY=0.88336
##MINY=0
##NPOINTS=880
##XYDATA=(X++(Y..Y))
450.0 363 289 227 302 239 282 125 313 209 421
490.0 33 188 270 306 290 218 270 238 354 225
530.0 313 238 212 289 309 286 182 260 219 237
570.0 126 298 227 186 177 42 103 305 243 233
610.0 214 131 179 160 155 202 190 218 238 313
650.0 279 331 284 287 237 217 197 151 171 136
690.0 137 105 132 97 111 101 117 87 109 178
730.0 87 163 128 123 123 125 140 126 124 128
770.0 153 139 185 184 196 248 296 354 408 520
810.0 573 614 571 550 485 435 420 422 437 433
850.0 471 448 457 438 429 404 412 444 435 436
890.0 394 372 325 342 344 398 464 583 738 906
930.0 1139 1320 1479 1436 1289 1068 904 774 659 547
970.0 443 418 391 416 456 476 520 559 624 710
1010.0 821 886 955 943 943 970 1026 1132 1263 1360
1050.0 1314 1189 986 853 765 765 785 822 890 969
1090.0 1098 1254 1476 1737 2070 2442 2942 3598 4471 5616
1130.0 6879 8004 8511 8302 7458 6843 6978 7940 9175 10000
1170.0 9972 8935 7439 5781 4468 3438 2692 2111 1663 1331
1210.0 1079 910 775 710 651 639 645 683 729 782
1250.0 819 825 834 836 877 921 1044 1210 1508 2046
1290.0 2862 3625 3862 3617 3085 2923 3185 3326 3048 2415
1330.0 1698 1207 1019 933 891 846 828 826 847 860
1370.0 864 928 1029 1205 1355 1401 1318 1221 1192 1213
1410.0 1191 1076 893 757 693 682 702 756 853 962
1450.0 1100 1289 1385 1392 1228 1023 812 669 569 477
1490.0 401 349 304 255 220 186 192 169 155 161
1530.0 141 152 138 133 127 146 138 128 139 146
1570.0 156 155 174 171 195 178 203 203 219 235
1610.0 262 298 319 390 430 525 608 723 750 694
1650.0 565 408 316 251 242 218 228 258 263 300
1690.0 335 388 391 451 503 643 821 1221 1893 2897
1730.0 4317 5746 6773 6928 6148 4717 3254 2088 1308 848
1770.0 580 418 360 322 311 298 291 282 248 215
1810.0 181 159 139 128 118 108 109 111 106 102
1850.0 113 120 128 140 144 157 177 189 196 190
1890.0 178 167 153 139 132 126 133 126 129 133
1930.0 126 128 127 126 130 133 134 140 136 135
1970.0 139 141 145 141 144 138 146 143 137 137
2010.0 126 123 112 103 99 91 89 100 100 94
2050.0 85 67 66 58 52 53 68 78 88 96
2090.0 96 106 97 103 99 99 94 97 92 94
2130.0 94 91 92 95 95 87 89 90 89 85
2170.0 88 86 85 84 83 82 73 76 77 76
2210.0 70 75 77 82 77 77 76 77 80 74
2250.0 73 80 78 74 73 69 68 62 61 63
2290.0 58 53 52 50 43 43 58 51 50 69
2330.0 62 56 48 68 27 28 31 38 31 30
2370.0 2 2 14 8 24 31 38 39 46 49
2410.0 44 46 46 45 39 44 44 38 35 32
2450.0 39 37 38 32 42 36 41 34 38 29
2490.0 27 26 26 32 20 34 17 28 22 20
2530.0 25 24 28 24 26 19 10 14 11 16
2570.0 11 5 2 7 9 20 19 30 30 28
2610.0 34 42 48 53 59 57 65 50 56 58
2650.0 55 61 54 67 68 66 60 43 37 30
2690.0 36 48 61 80 86 97 106 109 121 120
2730.0 127 144 149 152 159 172 173 168 169 178
2770.0 176 181 197 213 232 244 260 269 290 325
2810.0 344 368 405 430 453 461 515 559 623 757
2850.0 918 1121 1350 1608 1844 2058 2192 2221 2141 2000
2890.0 1834 1691 1568 1480 1377 1295 1214 1167 1132 1162
2930.0 1262 1482 1716 1864 1928 1891 1869 1892 1933 1957
2970.0 2015 2148 2319 2555 2687 2516 2105 1618 1240 993
3010.0 788 636 509 445 391 352 297 252 231 210
3050.0 199 187 163 148 129 103 91 91 78 78
3090.0 86 109 136 131 180 211 222 164 104 70
3130.0 57 45 49 40 53 43 28 31 48 58
3170.0 58 53 43 39 35 45 49 40 30 35
3210.0 32 27 32 28 22 29 38 38 25 46
3250.0 30 36 39 34 40 44 40 46 40 40
3290.0 35 41 11 41 12 31 7 30 12 6
3330.0 15 17 22 9 27 21 40 17 20 26
3370.0 34 9 24 25 33 16 21 26 17 27
3410.0 39 11 33 29 50 3 16 34 16 50
3450.0 61 74 65 69 95 88 59 56 51 26
3490.0 26 40 50 33 34 15 16 23 32 36
3530.0 24 37 34 24 20 19 27 34 40 24
3570.0 34 35 45 27 38 46 52 17 36 40
3610.0 22 40 40 49 50 37 43 0 32 40
3650.0 45 62 42 44 6 33 33 51 42 23
3690.0 41 62 42 42 57 71 33 22 57 44
3730.0 15 35 30 38 56 46 24 44 22 17
3770.0 37 49 33 35 32 40 43 32 21 34
3810.0 49 29 30 33 35 3 49 39 32 26
3850.0 38 6 15 5 2 17 23 29 30 53
3890.0 13 25 33 15 28 31 30 51 34 25
3930.0 13 33 46 55 30 19 17 20 64 26
##END=
