##TITLE=N-(n-Propyl)-1,3-propanediamine
##JCAMP-DX=4.24
##DATA TYPE=INFRARED SPECTRUM
##ORIGIN=Sadtler Research Labs Under US-EPA Contract
##OWNER=NIST Standard Reference Data Program
##CAS REGISTRY NO=23764-31-0
##MOLFORM=C 6 H 16 N 2
##XUNITS=1/CM
##YUNITS=ABSORBANCE
##XFACTOR=1.0
##YFACTOR=0.000064111
##DELTAX=4.0
##FIRSTX=450.0
##LASTX=3966.0
##FIRSTY=0.006475
##MAXX=3966
##MINX=450
##MAXY=0.64111
##MINY=0
##NPOINTS=880
##XYDATA=(X++(Y..Y))
450.0 101 98 91 70 35 59 65 42 39 78
490.0 100 68 51 46 61 69 98 156 137 127
530.0 150 140 115 133 155 125 132 78 141 143
570.0 120 78 141 131 196 172 141 241 154 242
610.0 250 249 287 340 414 448 445 511 571 575
650.0 714 807 779 911 1004 1092 1104 1129 1188 1352
690.0 1414 1449 1554 1547 1672 1787 1796 1855 1862 1951
730.0 2054 2117 2179 2366 2462 2617 2714 2835 2900 2919
770.0 2919 2969 3038 2928 2802 2610 2345 2060 1827 1589
810.0 1417 1231 1129 1007 945 876 838 806 770 712
850.0 712 686 652 612 580 569 546 521 507 500
890.0 490 477 437 432 425 404 370 376 363 371
930.0 363 320 289 266 265 246 277 280 290 325
970.0 309 344 351 372 398 361 377 369 344 341
1010.0 351 388 432 444 450 477 525 579 602 705
1050.0 738 825 908 994 1079 1158 1217 1281 1293 1317
1090.0 1283 1318 1250 1250 1234 1273 1368 1641 2008 2483
1130.0 2923 3240 3250 2947 2463 1946 1517 1216 992 810
1170.0 671 560 490 423 370 340 320 309 301 293
1210.0 303 311 313 314 314 317 327 336 339 346
1250.0 349 344 349 359 368 369 384 399 406 430
1290.0 463 487 521 526 522 491 476 460 470 513
1330.0 627 767 925 1037 1095 1118 1109 1122 1138 1140
1370.0 1179 1226 1289 1316 1277 1189 1017 836 665 559
1410.0 471 443 486 556 655 821 999 1233 1382 1585
1450.0 1848 2168 2526 2668 2710 2552 2268 1853 1426 1066
1490.0 793 568 447 350 342 297 243 229 227 189
1530.0 168 174 168 197 173 148 157 192 184 163
1570.0 182 178 215 205 236 269 310 366 424 514
1610.0 608 724 852 890 899 852 749 638 509 424
1650.0 345 337 216 183 149 152 148 131 122 123
1690.0 75 66 83 99 62 47 45 73 38 23
1730.0 28 67 27 39 25 40 33 34 37 20
1770.0 39 44 22 23 34 29 51 34 50 37
1810.0 38 38 44 41 64 60 52 58 63 76
1850.0 59 54 53 47 41 55 32 28 20 20
1890.0 31 18 17 15 9 10 3 11 13 5
1930.0 8 2 0 10 6 3 3 4 5 6
1970.0 6 0 9 2 10 13 16 13 13 13
2010.0 14 16 23 16 18 26 21 25 30 29
2050.0 31 26 25 33 34 25 27 28 29 30
2090.0 23 30 32 33 29 33 34 38 36 36
2130.0 38 38 38 38 38 38 38 38 38 38
2170.0 44 37 37 38 45 46 37 44 45 38
2210.0 38 38 37 37 37 32 37 37 38 38
2250.0 31 37 35 40 39 39 39 39 39 46
2290.0 38 54 62 62 71 78 93 93 100 107
2330.0 122 116 113 123 132 124 132 171 172 157
2370.0 137 121 106 81 66 50 49 48 48 50
2410.0 50 50 50 50 50 49 49 49 49 49
2450.0 51 51 50 51 51 52 49 59 59 59
2490.0 59 65 57 67 66 66 74 75 76 82
2530.0 85 90 86 94 96 106 105 114 114 121
2570.0 137 137 144 153 164 161 179 187 190 204
2610.0 205 220 220 229 245 253 262 276 297 317
2650.0 333 349 379 402 433 450 481 498 514 545
2690.0 562 584 608 627 650 684 711 753 799 847
2730.0 911 958 1020 1076 1118 1185 1229 1285 1339 1401
2770.0 1482 1565 1680 1830 2034 2305 2634 3021 3453 3866
2810.0 4226 4509 4665 4710 4637 4501 4361 4233 4186 4159
2850.0 4221 4369 4528 4689 4841 4962 5104 5263 5408 5454
2890.0 5417 5322 5222 5285 5530 5962 6557 7220 7972 8715
2930.0 9403 9936 10000 9739 9146 8330 7548 7053 6875 6847
2970.0 6828 6302 5518 4466 3323 2429 1744 1290 1006 824
3010.0 718 626 553 504 465 422 382 357 319 287
3050.0 262 239 230 207 193 192 178 178 175 171
3090.0 163 158 157 149 142 133 126 125 119 116
3130.0 117 112 108 109 103 105 105 104 105 97
3170.0 103 98 91 88 89 89 89 86 74 74
3210.0 74 74 68 61 62 51 50 51 45 50
3250.0 46 52 44 32 39 38 53 47 38 47
3290.0 46 43 48 52 51 54 74 91 108 138
3330.0 171 209 231 246 246 231 208 176 145 117
3370.0 105 94 79 78 72 80 78 98 109 118
3410.0 117 114 96 83 73 58 49 49 34 45
3450.0 32 41 32 28 28 32 28 30 43 35
3490.0 36 35 34 38 41 42 33 33 36 46
3530.0 36 37 36 30 45 43 36 38 43 42
3570.0 65 34 35 35 41 56 45 46 45 38
3610.0 61 47 52 55 45 76 59 46 47 53
3650.0 78 62 63 47 56 76 78 83 63 54
3690.0 78 58 56 55 56 64 70 54 73 75
3730.0 73 90 99 76 99 85 81 72 72 65
3770.0 74 70 76 81 72 72 81 94 109 96
3810.0 90 88 103 104 89 96 97 103 112 103
3850.0 112 135 115 105 105 113 112 107 112 113
3890.0 105 94 97 122 116 102 104 114 107 113
3930.0 123 129 129 129 127 131 31 38 38 39
##END=
