##TITLE=3-Decyne
##JCAMP-DX=4.24
##DATA TYPE=INFRARED SPECTRUM
##ORIGIN=Sadtler Research Labs Under US-EPA Contract
##OWNER=NIST Standard Reference Data Program
##CAS REGISTRY NO=2384-85-2
##MOLFORM=C 10 H 18
##XUNITS=1/CM
##YUNITS=ABSORBANCE
##XFACTOR=1.0
##YFACTOR=0.000114975
##DELTAX=4.0
##FIRSTX=450.0
##LASTX=3966.0
##FIRSTY=0.038977
##MAXX=3966
##MINX=450
##MAXY=1.14975
##MINY=0
##NPOINTS=880
##XYDATA=(X++(Y..Y))
450.0 339 124 15 133 96 183 46 128 95 164
490.0 136 68 102 66 96 70 82 88 73 123
530.0 135 110 153 114 127 115 127 132 84 78
570.0 115 89 90 91 75 86 113 120 93 112
610.0 103 99 101 71 68 78 84 63 76 89
650.0 43 71 58 70 43 129 72 88 134 123
690.0 120 103 111 84 83 102 163 207 188 211
730.0 184 196 201 155 245 149 89 87 110 94
770.0 89 85 107 90 106 88 89 110 102 101
810.0 86 91 115 87 74 62 65 81 89 78
850.0 76 70 81 87 100 95 75 80 81 65
890.0 90 97 90 93 78 78 76 78 86 85
930.0 100 103 98 88 88 77 60 69 82 80
970.0 90 83 72 88 92 92 99 99 112 116
1010.0 112 130 121 102 98 92 98 87 92 80
1050.0 95 104 112 102 96 96 111 72 87 79
1090.0 90 108 96 107 111 114 94 103 91 105
1130.0 111 75 107 89 95 93 104 112 118 127
1170.0 128 120 114 120 113 110 107 112 116 122
1210.0 115 111 118 125 126 136 129 139 142 154
1250.0 160 163 181 167 175 170 173 185 193 202
1290.0 233 233 234 253 260 267 291 313 335 395
1330.0 490 540 541 489 471 472 437 411 417 431
1370.0 402 427 505 491 487 428 333 248 214 234
1410.0 221 216 284 325 280 315 446 565 665 735
1450.0 781 834 856 983 918 827 702 555 444 323
1490.0 278 247 237 238 179 205 153 166 135 155
1530.0 148 116 139 135 138 94 102 92 95 70
1570.0 95 88 84 90 74 61 85 46 72 44
1610.0 50 64 66 58 45 55 40 70 54 36
1650.0 98 34 82 22 79 58 90 82 139 168
1690.0 204 212 191 186 128 107 84 78 73 44
1730.0 78 44 80 55 56 53 54 65 61 56
1770.0 45 65 57 58 47 46 44 61 43 39
1810.0 35 40 45 10 23 41 21 45 6 38
1850.0 14 22 7 19 33 12 16 13 23 8
1890.0 10 15 16 13 29 19 17 22 15 27
1930.0 20 11 17 18 17 14 8 14 4 11
1970.0 17 18 10 13 17 12 19 17 15 19
2010.0 19 16 18 17 24 21 18 29 36 38
2050.0 37 44 43 39 31 28 21 18 13 15
2090.0 18 12 16 14 20 18 16 17 19 19
2130.0 22 16 22 18 18 18 16 20 23 21
2170.0 26 27 26 28 33 43 47 45 50 56
2210.0 58 65 68 71 72 66 56 49 45 34
2250.0 33 31 31 29 31 29 29 29 31 28
2290.0 37 32 36 35 36 37 31 36 28 20
2330.0 22 11 29 0 38 6 25 8 28 13
2370.0 35 35 38 41 36 33 24 26 28 23
2410.0 24 28 28 31 28 28 31 29 33 31
2450.0 33 32 33 37 35 35 31 33 33 32
2490.0 33 32 36 38 37 41 38 41 42 41
2530.0 47 41 42 40 39 42 38 44 46 49
2570.0 55 55 54 58 61 62 62 61 56 57
2610.0 59 61 61 65 70 77 77 83 86 93
2650.0 98 98 99 102 101 103 107 108 111 110
2690.0 115 109 107 108 107 110 103 110 113 108
2730.0 121 134 150 168 186 192 187 168 158 148
2770.0 148 149 152 160 166 181 193 205 220 232
2810.0 252 278 303 335 376 433 492 595 759 1014
2850.0 1400 1945 2593 3198 3621 3730 3584 3297 2958 2625
2890.0 2342 2106 2062 2236 2559 3024 3628 4427 5548 6955
2930.0 8486 9692 10000 9441 8104 6430 5098 4275 4077 4219
2970.0 4167 3689 2824 1915 1325 1028 841 711 690 643
3010.0 559 475 423 397 372 365 385 340 290 269
3050.0 240 229 227 213 208 181 155 158 145 149
3090.0 151 136 128 124 117 115 112 112 105 96
3130.0 92 87 93 87 88 90 84 88 90 92
3170.0 95 91 90 90 86 80 83 76 77 75
3210.0 71 67 63 69 72 71 68 70 72 72
3250.0 65 65 65 60 60 57 63 62 64 71
3290.0 70 73 74 74 80 82 79 70 76 70
3330.0 71 70 71 73 76 77 80 84 80 84
3370.0 84 80 75 82 81 75 70 67 68 68
3410.0 66 68 74 75 75 75 74 83 88 95
3450.0 86 83 81 82 79 78 74 75 80 77
3490.0 59 72 71 77 84 82 67 59 71 73
3530.0 77 65 69 62 68 68 74 70 70 88
3570.0 93 59 89 63 94 65 85 51 85 57
3610.0 81 92 58 96 49 104 91 80 63 110
3650.0 65 147 24 112 30 101 84 83 82 34
3690.0 125 44 91 69 79 84 92 68 90 63
3730.0 84 99 68 104 59 156 57 114 65 96
3770.0 88 86 79 87 94 81 68 123 53 145
3810.0 11 129 35 139 80 110 92 114 112 99
3850.0 117 111 147 70 130 85 97 100 84 104
3890.0 104 85 116 98 135 88 103 115 99 117
3930.0 70 102 83 72 91 85 86 107 85 79
##END=
