##TITLE=2,4-Hexadienoic acid, ethyl ester
##JCAMP-DX=4.24
##DATA TYPE=INFRARED SPECTRUM
##ORIGIN=Sadtler Research Labs Under US-EPA Contract
##OWNER=NIST Standard Reference Data Program
##CAS REGISTRY NO=2396-84-1
##MOLFORM=C 8 H 12 O 2
##XUNITS=1/CM
##YUNITS=ABSORBANCE
##XFACTOR=1.0
##YFACTOR=0.000127933
##DELTAX=4.0
##FIRSTX=450.0
##LASTX=3966.0
##FIRSTY=0.030704
##MAXX=3966
##MINX=450
##MAXY=1.27933
##MINY=0
##NPOINTS=880
##XYDATA=(X++(Y..Y))
450.0 240 195 235 225 228 154 115 95 50 56
490.0 44 52 4 16 54 45 36 65 35 47
530.0 45 57 58 60 111 114 140 117 94 99
570.0 145 169 176 149 92 73 58 55 46 46
610.0 36 40 49 29 35 25 20 16 34 24
650.0 24 24 10 15 12 41 45 50 52 113
690.0 145 155 182 176 163 179 179 181 165 154
730.0 136 103 89 86 83 85 72 78 71 79
770.0 76 93 107 140 187 225 262 303 309 285
810.0 266 223 199 174 153 143 143 138 139 176
850.0 212 288 357 434 482 509 489 442 376 315
890.0 272 248 251 276 296 324 391 520 681 775
930.0 737 632 546 518 515 519 506 508 507 526
970.0 584 698 913 1207 1554 1868 2117 2128 1880 1554
1010.0 1225 942 765 734 850 1160 1561 1903 2107 2176
1050.0 2105 1930 1583 1196 946 836 871 1039 1204 1251
1090.0 1208 1165 1243 1275 1181 1030 953 1036 1342 2179
1130.0 3935 6723 8378 8182 5232 2784 1875 1685 1807 2089
1170.0 2551 3259 4282 5222 5276 4315 2749 1715 1345 1322
1210.0 1494 1759 1946 2036 2082 2295 3088 5207 8571 9968
1250.0 10000 8122 7560 7237 6066 4359 2735 1738 1275 1178
1290.0 1249 1494 1752 1939 2034 2138 2420 3198 4769 5593
1330.0 5078 3117 1410 776 573 464 437 459 688 1218
1370.0 1525 1503 1151 734 683 701 675 628 579 497
1410.0 427 404 352 365 363 397 419 466 525 577
1450.0 617 648 644 661 685 684 628 536 441 343
1490.0 280 249 208 187 156 130 128 110 91 103
1530.0 94 100 87 79 76 90 81 72 90 103
1570.0 112 124 153 167 211 252 313 363 427 518
1610.0 695 1048 1523 1871 1842 1483 1131 1174 1492 2258
1650.0 3132 3384 2904 1641 830 594 457 429 371 380
1690.0 405 476 512 624 760 1013 1392 2042 3081 4545
1730.0 6779 8725 9608 9004 6784 4626 3048 1933 1169 723
1770.0 465 322 273 232 219 195 190 168 154 145
1810.0 131 117 110 110 105 112 117 127 111 98
1850.0 97 97 94 93 90 75 76 67 67 66
1890.0 74 82 88 95 92 84 71 65 52 56
1930.0 52 54 55 51 51 51 51 48 51 44
1970.0 47 48 53 55 56 52 52 55 60 60
2010.0 56 53 46 43 40 42 44 41 44 47
2050.0 50 52 50 48 43 41 36 36 37 41
2090.0 42 46 51 55 56 59 55 52 47 39
2130.0 36 31 29 28 28 27 26 25 23 24
2170.0 22 22 22 22 19 22 22 25 26 24
2210.0 27 26 24 25 26 22 20 16 16 16
2250.0 15 14 13 17 16 17 19 22 23 24
2290.0 25 28 30 29 29 28 31 26 33 37
2330.0 31 29 25 31 36 33 32 28 23 31
2370.0 35 40 41 35 29 27 22 16 16 16
2410.0 17 16 15 16 17 23 23 19 16 15
2450.0 16 19 22 27 28 26 27 22 22 18
2490.0 19 18 16 15 14 14 12 15 12 14
2530.0 14 18 17 19 19 19 19 16 16 16
2570.0 16 17 17 17 17 11 11 12 15 13
2610.0 12 14 13 14 11 12 10 9 4 3
2650.0 7 8 8 7 8 11 12 12 10 13
2690.0 14 16 16 18 16 15 18 20 19 28
2730.0 33 33 48 68 83 83 73 53 46 49
2770.0 49 54 60 65 61 61 57 53 55 57
2810.0 61 70 78 86 98 103 111 119 131 150
2850.0 170 206 270 395 523 592 594 573 597 658
2890.0 700 698 668 649 658 692 750 827 1018 1269
2930.0 1410 1420 1329 1316 1380 1369 1272 1178 1176 1234
2970.0 1322 1442 1669 2030 2237 2164 1855 1492 1265 1138
3010.0 1027 955 935 977 1017 1003 932 789 648 539
3050.0 458 414 395 372 346 297 236 189 158 128
3090.0 117 105 101 101 102 96 90 85 77 72
3130.0 65 57 53 53 48 44 42 43 40 41
3170.0 41 39 38 33 30 30 29 31 28 29
3210.0 22 25 19 18 16 13 15 15 15 12
3250.0 12 13 16 14 16 13 12 9 3 3
3290.0 4 0 1 1 5 5 6 8 10 13
3330.0 14 15 17 17 20 16 23 19 23 24
3370.0 22 18 26 28 28 33 31 20 19 17
3410.0 13 8 8 11 19 19 22 30 44 52
3450.0 61 75 71 69 58 47 36 22 12 13
3490.0 12 9 5 6 6 5 9 7 9 8
3530.0 12 7 9 8 9 12 9 12 8 7
3570.0 4 7 19 31 30 33 34 9 10 11
3610.0 13 7 9 9 11 10 5 10 8 9
3650.0 6 14 11 14 13 9 9 7 7 11
3690.0 2 7 13 2 8 14 9 7 8 9
3730.0 12 15 13 15 19 14 11 9 23 18
3770.0 10 13 10 18 17 18 9 13 15 19
3810.0 10 14 19 14 14 19 24 17 23 19
3850.0 11 18 12 11 22 4 12 12 15 9
3890.0 17 16 11 20 15 9 7 13 11 12
3930.0 9 15 18 2 16 22 14 5 1 7
##END=
