##TITLE=Benzene, (1-ethyldecyl)-
##JCAMP-DX=4.24
##DATA TYPE=INFRARED SPECTRUM
##ORIGIN=Sadtler Research Labs Under US-EPA Contract
##OWNER=NIST Standard Reference Data Program
##CAS REGISTRY NO=2400-00-2
##MOLFORM=C 18 H 30
##XUNITS=1/CM
##YUNITS=ABSORBANCE
##XFACTOR=1.0
##YFACTOR=0.000158075
##DELTAX=4.0
##FIRSTX=450.0
##LASTX=3966.0
##FIRSTY=0.000000
##MAXX=3966
##MINX=450
##MAXY=1.58075
##MINY=0
##NPOINTS=880
##XYDATA=(X++(Y..Y))
450.0 0 27 7 20 45 37 49 64 44 52
490.0 57 68 74 76 71 74 77 87 108 117
530.0 126 164 177 214 207 182 194 202 186 176
570.0 138 116 89 68 66 69 72 44 47 46
610.0 45 48 47 45 44 45 47 42 53 61
650.0 73 83 103 129 133 150 160 168 215 298
690.0 506 1162 2169 2097 1215 672 491 418 386 393
730.0 386 406 422 482 576 740 874 864 660 455
770.0 323 236 191 163 152 136 119 117 109 103
810.0 90 89 91 92 87 91 90 86 85 85
850.0 84 79 81 78 85 83 90 92 98 108
890.0 121 135 138 135 124 107 96 78 75 72
930.0 71 61 66 63 62 62 69 72 75 82
970.0 80 82 77 76 67 68 65 72 76 80
1010.0 83 98 122 168 229 261 226 151 113 102
1050.0 105 113 128 141 155 160 161 152 139 133
1090.0 122 119 111 103 101 96 92 83 81 80
1130.0 78 72 66 60 56 54 54 58 59 60
1170.0 58 62 66 67 67 64 62 60 63 62
1210.0 65 65 69 72 75 80 86 91 91 95
1250.0 95 97 100 101 108 112 120 126 134 144
1290.0 161 173 192 210 222 228 222 223 225 230
1330.0 233 238 256 281 308 330 343 348 354 355
1370.0 349 341 363 410 407 327 236 186 155 145
1410.0 134 142 139 148 160 188 229 295 432 612
1450.0 839 996 1067 1056 1005 867 682 509 433 453
1490.0 554 624 545 373 228 161 122 113 94 96
1530.0 94 101 96 92 74 63 63 64 59 62
1570.0 67 79 99 126 160 199 240 288 315 298
1610.0 221 138 88 66 56 51 44 48 42 47
1650.0 51 50 48 54 50 46 44 44 42 46
1690.0 39 45 45 48 43 45 42 49 39 43
1730.0 49 51 52 51 51 46 37 34 32 30
1770.0 33 40 40 44 49 75 95 98 76 59
1810.0 50 46 35 29 24 25 24 22 26 30
1850.0 38 44 50 58 61 62 58 57 52 46
1890.0 38 33 28 24 23 23 24 26 33 42
1930.0 59 81 93 83 68 67 65 54 35 22
1970.0 16 15 17 15 14 16 14 12 13 14
2010.0 14 14 17 16 18 20 19 17 19 19
2050.0 17 17 18 16 13 13 14 11 13 13
2090.0 13 13 13 12 12 12 13 12 11 12
2130.0 12 10 9 11 13 13 14 12 13 13
2170.0 13 14 14 14 14 14 15 11 14 14
2210.0 14 12 13 13 11 13 14 15 13 16
2250.0 14 16 15 12 13 11 13 13 13 11
2290.0 11 10 12 13 13 13 12 7 7 7
2330.0 7 7 10 16 16 9 9 8 17 17
2370.0 21 27 27 26 24 23 25 22 22 25
2410.0 25 24 21 18 17 17 18 19 17 18
2450.0 19 17 17 17 19 17 20 21 20 19
2490.0 20 23 19 23 22 24 25 27 28 31
2530.0 32 33 34 36 38 38 38 38 41 42
2570.0 44 45 47 48 49 51 51 52 54 56
2610.0 58 57 60 64 65 66 71 70 71 73
2650.0 77 81 81 84 90 95 97 101 102 103
2690.0 102 101 99 97 95 95 95 96 99 101
2730.0 106 111 120 126 130 131 126 129 128 131
2770.0 137 142 154 164 180 194 212 232 251 273
2810.0 294 317 347 376 419 467 531 616 745 959
2850.0 1342 1997 2904 3697 3906 3622 3185 2964 2962 2891
2890.0 2579 2323 2289 2486 2841 3321 3935 4805 6142 7881
2930.0 9525 10000 9475 8012 6330 4810 3833 3524 3808 4388
2970.0 4570 4010 2975 2018 1372 1002 796 678 614 579
3010.0 553 547 597 737 955 1177 1234 1068 814 624
3050.0 530 507 557 696 904 1076 1042 873 748 690
3090.0 601 474 369 316 287 257 216 174 141 117
3130.0 106 96 87 83 78 77 77 76 73 68
3170.0 68 60 53 51 51 48 44 42 42 40
3210.0 39 34 32 29 32 25 24 26 24 19
3250.0 24 22 22 15 19 20 20 17 15 16
3290.0 19 20 19 18 19 21 18 15 16 21
3330.0 21 18 20 20 22 22 16 15 17 20
3370.0 19 21 24 23 21 21 19 22 23 22
3410.0 21 21 19 21 22 19 22 22 21 22
3450.0 21 17 18 18 19 16 19 18 15 16
3490.0 23 17 15 20 15 16 9 14 14 13
3530.0 15 16 18 12 13 14 12 14 21 13
3570.0 12 22 23 18 8 9 18 24 21 26
3610.0 21 27 24 31 29 31 28 35 30 34
3650.0 38 36 40 31 31 30 32 31 31 33
3690.0 40 38 29 32 24 31 30 27 29 29
3730.0 30 30 27 32 23 38 36 35 38 30
3770.0 36 29 30 31 30 34 28 30 29 34
3810.0 34 28 34 39 38 30 29 28 23 25
3850.0 28 17 30 27 32 33 28 20 23 19
3890.0 40 34 25 21 26 39 33 24 25 29
3930.0 30 25 29 24 27 30 26 27 38 36
##END=
