##TITLE=Acetamide, N-(1-heptyl-3-piperidyl)-,
##JCAMP-DX=4.24
##DATA TYPE=INFRARED SPECTRUM
##ORIGIN=Sadtler Research Labs Under US-EPA Contract
##OWNER=NIST Standard Reference Data Program
##CAS REGISTRY NO=24026-79-7
##MOLFORM=C 14 H 28 N 2 O
##XUNITS=1/CM
##YUNITS=ABSORBANCE
##XFACTOR=1.0
##YFACTOR=0.000087189
##DELTAX=4.0
##FIRSTX=450.0
##LASTX=3966.0
##FIRSTY=0.017699
##MAXX=3966
##MINX=450
##MAXY=0.87189
##MINY=0
##NPOINTS=880
##XYDATA=(X++(Y..Y))
450.0 203 76 55 32 50 52 70 58 96 123
490.0 170 183 106 100 69 95 119 137 130 104
530.0 63 59 65 72 96 105 120 118 123 78
570.0 53 50 72 79 62 29 25 31 49 47
610.0 88 121 72 16 22 42 42 39 33 1
650.0 15 20 43 5 82 6 48 59 36 35
690.0 39 19 24 13 29 44 86 115 143 142
730.0 96 78 94 123 148 152 164 137 117 117
770.0 114 111 125 113 117 99 86 66 64 59
810.0 59 61 51 52 55 72 84 122 159 203
850.0 211 215 224 253 300 330 349 346 316 275
890.0 225 203 214 216 208 175 148 133 134 136
930.0 134 139 136 145 161 191 232 296 367 429
970.0 453 435 417 404 391 380 384 409 449 525
1010.0 579 598 563 511 514 522 527 489 448 433
1050.0 430 417 408 420 446 479 531 571 603 643
1090.0 740 898 1073 1236 1322 1314 1238 1156 1093 1065
1130.0 1052 1018 910 788 732 774 982 1353 1677 1698
1170.0 1431 1149 966 880 855 823 689 537 460 487
1210.0 587 727 894 1077 1244 1384 1488 1518 1463 1368
1250.0 1337 1464 1753 2030 2032 1760 1408 1191 1084 1058
1290.0 1066 1118 1206 1309 1401 1453 1435 1357 1244 1187
1330.0 1166 1134 1154 1189 1290 1479 1631 1810 2049 2288
1370.0 2395 2335 2039 1679 1410 1204 1100 1034 932 891
1410.0 910 910 1073 1100 1222 1355 1644 1979 2349 2624
1450.0 2792 2889 3051 3197 3529 3983 4493 5095 5852 6928
1490.0 7484 7270 6268 4866 3720 2852 2266 1806 1587 1271
1530.0 1139 955 874 833 708 605 546 590 473 437
1570.0 435 431 416 432 383 405 398 413 411 433
1610.0 464 463 542 497 569 523 628 666 715 787
1650.0 969 1035 1121 1180 1271 1331 1432 1444 1655 1815
1690.0 1979 2350 3372 5557 8702 10000 7861 5053 3160 2115
1730.0 1618 1409 1108 922 779 654 520 434 379 305
1770.0 313 265 216 195 180 160 167 147 160 112
1810.0 105 98 74 82 76 89 60 50 68 92
1850.0 63 38 48 52 65 86 59 50 54 60
1890.0 73 67 60 61 63 65 68 71 84 60
1930.0 57 56 57 64 64 48 50 49 48 55
1970.0 54 55 51 51 50 68 62 55 52 57
2010.0 52 59 66 61 55 56 50 55 55 54
2050.0 50 49 47 52 56 53 53 54 52 59
2090.0 59 57 59 59 59 60 61 60 60 60
2130.0 62 60 63 61 61 62 63 64 62 66
2170.0 68 66 67 70 72 69 74 71 73 71
2210.0 74 72 73 76 72 71 72 70 66 67
2250.0 62 61 62 60 62 60 63 63 66 67
2290.0 64 63 58 52 44 34 19 5 3 3
2330.0 3 3 3 3 3 18 2 3 3 3
2370.0 3 3 20 53 74 80 79 75 77 73
2410.0 74 76 72 70 67 68 64 65 63 64
2450.0 62 64 65 62 61 62 63 60 64 62
2490.0 65 64 67 67 71 71 71 76 73 76
2530.0 80 79 83 84 87 90 93 95 101 104
2570.0 111 112 122 126 133 138 148 159 166 179
2610.0 191 203 211 222 229 239 250 266 280 295
2650.0 316 339 362 381 410 434 456 477 503 526
2690.0 553 571 591 612 633 666 703 743 789 837
2730.0 887 940 996 1051 1125 1225 1355 1519 1666 1768
2770.0 1814 1830 1851 1903 1992 2142 2339 2513 2593 2585
2810.0 2505 2327 2059 1772 1548 1399 1340 1347 1435 1606
2850.0 1903 2360 2942 3499 3765 3641 3210 2819 2652 2620
2890.0 2571 2558 2654 2865 3176 3575 4068 4700 5594 6777
2930.0 8134 9124 9644 9880 9520 8315 6784 5835 5254 4747
2970.0 4099 3201 2252 1568 1187 937 766 642 559 491
3010.0 443 402 366 348 334 316 303 290 280 264
3050.0 253 248 231 222 209 192 184 175 163 152
3090.0 141 135 127 117 112 109 101 96 93 90
3130.0 88 90 83 86 87 85 83 86 87 89
3170.0 88 88 91 94 90 90 89 93 92 93
3210.0 91 89 89 93 91 90 89 91 90 101
3250.0 105 102 105 107 112 114 112 115 120 122
3290.0 130 137 135 135 133 135 136 143 141 145
3330.0 144 146 141 134 139 135 125 128 124 123
3370.0 123 120 122 127 141 161 184 199 206 195
3410.0 196 199 214 244 284 343 476 707 974 1030
3450.0 788 505 337 257 190 143 118 89 77 59
3490.0 43 44 28 42 30 24 25 3 26 29
3530.0 19 16 20 19 38 29 33 22 22 63
3570.0 54 35 34 32 45 43 50 20 25 17
3610.0 48 28 46 32 18 59 25 17 34 29
3650.0 69 45 27 35 0 71 12 68 10 53
3690.0 30 32 24 28 20 39 27 22 28 38
3730.0 38 52 49 29 84 5 65 17 20 23
3770.0 29 2 8 36 17 17 15 43 9 49
3810.0 1 37 18 23 33 9 15 39 28 13
3850.0 63 43 24 31 22 34 29 26 43 57
3890.0 16 52 25 73 26 22 22 37 30 24
3930.0 38 50 27 14 54 45 32 23 28 6
##END=
