##TITLE=Pyridine, 2,6-dichloro-
##JCAMP-DX=4.24
##DATA TYPE=INFRARED SPECTRUM
##ORIGIN=Sadtler Research Labs Under US-EPA Contract
##OWNER=NIST Standard Reference Data Program
##CAS REGISTRY NO=2402-78-0
##MOLFORM=C 5 H 3 Cl 2 N
##XUNITS=1/CM
##YUNITS=ABSORBANCE
##XFACTOR=1.0
##YFACTOR=0.000120038
##DELTAX=4.0
##FIRSTX=450.0
##LASTX=3966.0
##FIRSTY=0.039012
##MAXX=3966
##MINX=450
##MAXY=1.20038
##MINY=0
##NPOINTS=880
##XYDATA=(X++(Y..Y))
450.0 325 299 256 175 80 57 26 34 33 39
490.0 42 29 48 32 40 27 18 39 36 17
530.0 7 27 37 38 31 66 27 29 5 36
570.0 30 40 38 18 51 21 40 38 54 33
610.0 44 36 45 45 32 44 51 69 95 187
650.0 315 508 479 360 498 364 155 122 87 95
690.0 79 94 81 115 171 202 248 456 365 275
730.0 261 203 170 139 129 152 211 268 369 591
770.0 915 1404 2027 3276 4908 5602 6361 6569 5623 4151
810.0 2112 775 338 182 97 74 56 52 57 61
850.0 110 171 247 291 306 269 194 118 82 69
890.0 55 54 38 34 22 18 16 19 18 19
930.0 22 21 25 32 37 37 50 56 72 116
970.0 167 230 305 293 278 302 219 129 76 51
1010.0 45 47 57 58 75 78 82 74 76 81
1050.0 79 87 106 142 169 202 178 182 182 135
1090.0 79 65 64 84 139 202 304 449 727 1246
1130.0 2183 3235 3864 4122 4451 5222 6179 6258 5914 5578
1170.0 3545 1152 418 313 285 279 271 290 289 295
1210.0 287 271 205 178 165 126 94 85 87 88
1250.0 89 86 81 67 59 44 39 27 25 26
1290.0 27 36 50 74 100 178 286 343 310 289
1330.0 228 108 53 51 73 98 152 223 326 416
1370.0 444 434 436 411 399 521 662 1030 2058 4372
1410.0 8000 9770 10000 8918 6308 2206 632 478 463 526
1450.0 504 406 304 243 145 73 55 51 71 56
1490.0 73 105 132 148 168 208 235 281 323 404
1530.0 466 573 764 1198 2078 3347 5164 6947 8949 8925
1570.0 7215 4776 2765 1307 615 357 245 199 174 174
1610.0 183 203 200 183 163 135 95 68 64 54
1650.0 50 46 66 62 74 65 56 43 25 12
1690.0 14 12 5 7 6 12 6 4 13 19
1730.0 17 15 22 29 33 39 67 81 103 111
1770.0 110 102 100 83 76 75 78 80 78 83
1810.0 78 76 72 61 55 42 29 30 27 31
1850.0 42 57 72 76 66 54 41 23 11 6
1890.0 6 7 10 11 12 13 16 17 21 31
1930.0 46 56 69 77 85 92 93 81 74 69
1970.0 47 32 27 20 16 9 7 10 9 8
2010.0 11 11 12 12 14 13 14 10 11 12
2050.0 9 12 12 12 18 26 31 30 25 17
2090.0 10 6 9 8 10 11 14 14 17 20
2130.0 24 25 29 31 31 26 20 16 11 8
2170.0 9 4 8 7 10 10 14 21 31 42
2210.0 59 73 79 78 66 52 33 22 14 10
2250.0 5 6 8 11 13 19 21 25 29 32
2290.0 32 36 44 51 57 67 62 56 50 34
2330.0 19 11 15 14 32 42 40 40 35 23
2370.0 23 32 41 46 46 42 45 42 41 34
2410.0 26 14 7 6 5 6 5 5 1 3
2450.0 0 3 3 6 2 4 3 2 3 3
2490.0 1 5 5 10 6 12 16 26 34 48
2530.0 57 67 72 67 59 46 33 24 24 21
2570.0 19 16 16 12 12 14 12 11 17 24
2610.0 39 46 58 68 74 77 70 55 44 31
2650.0 19 13 14 11 10 9 9 8 10 14
2690.0 20 26 30 33 32 29 23 19 12 16
2730.0 10 10 11 9 7 12 12 13 10 14
2770.0 14 20 21 25 31 41 45 47 41 31
2810.0 18 6 3 4 2 2 5 0 4 3
2850.0 6 3 11 11 14 11 10 5 5 7
2890.0 8 5 4 8 10 11 10 12 11 17
2930.0 16 19 20 22 21 19 21 21 30 25
2970.0 25 26 21 20 17 17 12 15 15 11
3010.0 8 11 12 10 9 9 15 22 34 53
3050.0 84 117 156 153 145 160 127 82 70 64
3090.0 68 68 62 51 46 32 31 37 37 40
3130.0 39 36 38 31 23 17 14 11 15 11
3170.0 9 7 9 9 7 12 7 9 8 8
3210.0 7 7 7 7 5 8 7 5 4 6
3250.0 7 8 4 7 7 6 8 7 11 4
3290.0 10 9 8 5 7 8 11 4 7 2
3330.0 8 9 8 8 10 3 7 5 6 10
3370.0 10 6 5 5 6 10 9 4 5 11
3410.0 9 5 5 4 4 6 6 10 4 9
3450.0 8 6 5 10 4 7 6 10 4 2
3490.0 5 6 5 5 4 3 10 6 12 13
3530.0 10 7 13 12 15 9 10 5 9 15
3570.0 20 20 26 22 18 22 18 7 7 12
3610.0 18 10 8 17 6 23 6 14 7 9
3650.0 15 9 8 10 3 15 5 12 2 9
3690.0 12 11 9 9 19 24 21 20 26 23
3730.0 21 29 11 11 34 8 23 9 7 18
3770.0 11 3 4 22 13 12 9 17 11 19
3810.0 2 16 14 8 9 6 10 17 4 3
3850.0 13 17 16 16 14 23 13 22 30 40
3890.0 25 20 4 10 13 15 9 16 22 8
3930.0 23 30 21 14 6 14 23 9 19 6
##END=
