##TITLE=Propanoic acid, 2-propenyl ester
##JCAMP-DX=4.24
##DATA TYPE=INFRARED SPECTRUM
##ORIGIN=Sadtler Research Labs Under US-EPA Contract
##OWNER=NIST Standard Reference Data Program
##CAS REGISTRY NO=2408-20-0
##MOLFORM=C 6 H 10 O 2
##XUNITS=1/CM
##YUNITS=ABSORBANCE
##XFACTOR=1.0
##YFACTOR=0.000119791
##DELTAX=4.0
##FIRSTX=450.0
##LASTX=3966.0
##FIRSTY=0.086369
##MAXX=3966
##MINX=450
##MAXY=1.19791
##MINY=0
##NPOINTS=880
##XYDATA=(X++(Y..Y))
450.0 721 410 213 236 153 304 174 202 220 156
490.0 115 266 20 163 368 418 292 165 162 277
530.0 300 290 316 317 350 380 349 362 300 442
570.0 243 237 527 412 445 435 451 428 423 427
610.0 429 395 406 443 383 368 334 326 321 299
650.0 281 288 277 268 255 280 225 233 223 223
690.0 195 202 205 189 179 175 177 161 152 162
730.0 152 169 174 172 161 164 154 171 173 122
770.0 179 183 202 202 221 226 278 283 297 349
810.0 324 138 409 401 451 444 464 449 446 435
850.0 405 413 385 386 370 378 365 364 365 361
890.0 370 371 427 491 612 756 970 1223 1550 1798
930.0 1857 1808 1632 1357 1065 906 851 889 963 1078
970.0 1188 1270 1330 1407 1539 1636 1732 1801 1912 1976
1010.0 2126 2302 2431 2421 2264 2014 1711 1488 1360 1370
1050.0 1456 1635 1864 2090 2283 2424 2536 2570 2576 2482
1090.0 2393 2195 1979 1797 1683 1626 1603 1619 1635 1664
1130.0 1677 1727 1812 1950 2152 2494 2949 3563 4498 5792
1170.0 7309 8582 9674 10000 9706 8663 7518 6570 5881 5381
1210.0 4875 4408 3836 3382 2962 2650 2401 2222 2089 1973
1250.0 1884 1797 1750 1739 1829 1935 2039 2031 1937 1760
1290.0 1515 1263 1048 895 776 738 757 866 1044 1257
1330.0 1473 1696 1866 1901 1849 1758 1633 1533 1548 1603
1370.0 1649 1628 1563 1385 1162 1010 882 750 664 649
1410.0 650 676 725 790 839 889 939 990 1025 1057
1450.0 1092 1125 1189 1280 1302 1218 1124 970 737 547
1490.0 431 368 317 289 267 246 227 219 201 192
1530.0 182 181 169 160 157 155 153 152 149 145
1570.0 144 146 147 147 150 147 150 150 154 156
1610.0 157 164 170 180 187 210 240 281 334 385
1650.0 403 404 392 340 287 255 241 233 241 251
1690.0 271 297 335 390 446 525 601 724 869 1110
1730.0 1442 1984 2751 3757 5113 6558 8013 8744 9121 8835
1770.0 7883 6223 4563 3266 2395 1888 1504 1166 910 720
1810.0 597 494 419 358 320 279 254 247 243 244
1850.0 241 256 257 260 255 249 229 209 192 177
1890.0 172 158 155 142 142 135 129 132 124 124
1930.0 118 119 116 112 112 116 117 119 122 125
1970.0 128 127 134 131 136 136 140 139 142 142
2010.0 143 144 139 142 139 136 127 131 123 125
2050.0 122 120 114 112 111 102 106 100 106 98
2090.0 98 97 93 97 93 93 86 83 83 82
2130.0 80 82 78 86 86 85 90 84 79 78
2170.0 88 87 97 101 105 106 101 95 88 89
2210.0 83 86 80 77 74 74 75 72 73 74
2250.0 74 70 70 69 73 70 70 70 70 78
2290.0 81 85 90 98 109 111 114 121 120 108
2330.0 112 101 88 102 86 115 165 137 108 62
2370.0 22 19 23 45 54 58 59 64 60 61
2410.0 56 54 53 48 50 49 49 46 46 46
2450.0 46 42 47 41 42 44 34 33 32 30
2490.0 22 22 19 12 12 10 9 10 13 14
2530.0 17 18 25 19 11 13 20 30 35 42
2570.0 41 40 30 30 27 19 20 21 22 21
2610.0 24 24 24 21 24 23 21 17 19 20
2650.0 17 18 14 12 12 17 16 16 13 17
2690.0 18 22 27 24 30 31 37 37 38 38
2730.0 42 44 45 52 57 62 65 72 74 74
2770.0 79 74 73 72 78 74 79 80 84 85
2810.0 87 90 98 102 112 121 126 139 146 161
2850.0 172 182 196 218 249 283 329 391 475 588
2890.0 702 775 810 818 784 737 700 712 739 810
2930.0 922 1064 1226 1441 1722 1954 2039 2029 1949 1749
2970.0 1555 1506 1613 1815 2005 2078 2089 1957 1655 1380
3010.0 1156 1001 874 787 708 618 536 450 363 293
3050.0 255 221 213 209 221 240 277 320 365 433
3090.0 525 575 588 594 514 400 302 224 152 112
3130.0 98 83 68 66 60 59 59 50 50 45
3170.0 43 42 30 43 42 42 41 48 38 36
3210.0 33 29 35 35 25 20 28 19 27 19
3250.0 18 16 23 19 10 17 8 17 23 26
3290.0 21 19 26 28 26 39 39 21 34 30
3330.0 37 35 35 37 32 43 39 33 32 38
3370.0 36 44 49 47 48 37 43 52 52 44
3410.0 48 47 50 58 54 42 54 57 48 47
3450.0 54 57 51 54 52 63 63 73 89 109
3490.0 114 126 131 135 137 121 109 100 96 73
3530.0 58 70 61 81 66 69 73 104 153 203
3570.0 219 195 235 218 195 216 201 137 96 62
3610.0 51 48 38 51 38 41 19 21 34 34
3650.0 46 34 45 39 41 41 42 23 17 44
3690.0 37 2 23 36 27 39 20 26 23 31
3730.0 43 24 11 36 30 4 22 19 24 14
3770.0 20 15 41 30 29 0 16 24 20 29
3810.0 3 15 10 3 17 30 24 22 22 36
3850.0 26 31 25 22 8 25 7 8 13 24
3890.0 27 65 50 63 41 36 3 44 53 56
3930.0 10 61 56 1 72 25 31 5 37 75
##END=
