##TITLE=Phenol, 2-(1,1-dimethylethyl)-4-methyl-
##JCAMP-DX=4.24
##DATA TYPE=INFRARED SPECTRUM
##ORIGIN=Sadtler Research Labs Under US-EPA Contract
##OWNER=NIST Standard Reference Data Program
##CAS REGISTRY NO=2409-55-4
##MOLFORM=C 11 H 16 O
##XUNITS=1/CM
##YUNITS=ABSORBANCE
##XFACTOR=1.0
##YFACTOR=0.000076849
##DELTAX=4.0
##FIRSTX=450.0
##LASTX=3966.0
##FIRSTY=0.015754
##MAXX=3966
##MINX=450
##MAXY=0.76849
##MINY=0
##NPOINTS=880
##XYDATA=(X++(Y..Y))
450.0 205 179 286 434 362 367 498 542 836 974
490.0 1125 932 817 771 706 629 603 528 337 335
530.0 240 230 204 213 208 238 255 315 402 469
570.0 519 473 437 402 420 364 273 223 183 124
610.0 93 121 87 95 94 99 73 59 65 37
650.0 48 36 40 16 48 72 8 19 26 68
690.0 68 78 73 52 29 50 30 32 48 42
730.0 67 89 124 182 302 540 916 1172 1233 1151
770.0 853 597 460 587 882 1352 1909 2590 3109 2822
810.0 2491 2224 1691 1136 735 472 302 230 185 164
850.0 136 139 137 218 280 348 436 448 377 347
890.0 331 250 284 346 443 488 495 456 390 338
930.0 295 257 212 179 122 114 103 103 111 130
970.0 156 166 203 214 251 275 279 273 259 265
1010.0 286 367 420 474 471 450 397 380 370 375
1050.0 397 448 537 677 901 1122 1338 1586 1755 1704
1090.0 1544 1302 928 625 453 388 365 384 461 613
1130.0 897 1286 1679 1907 2073 2192 2247 2598 3347 4672
1170.0 6457 7781 8294 7631 6194 4405 3398 2964 2856 2821
1210.0 2768 2737 2643 2559 2588 2979 3644 4449 4737 4523
1250.0 3751 2515 1729 1519 1578 1721 1890 1983 1953 1791
1290.0 1519 1227 1020 906 1000 1341 1918 2523 2873 2913
1330.0 2555 1849 1321 841 617 651 817 1195 1695 2204
1370.0 2329 2157 1844 1521 1443 1684 1932 2227 2340 2413
1410.0 2429 2313 2267 1897 1666 1310 1177 1017 1036 1097
1450.0 1387 1577 1981 2109 2193 2236 2368 2556 2879 3667
1490.0 4104 4965 5067 5468 5113 3797 3200 1959 1409 815
1530.0 720 539 434 356 332 295 241 240 204 221
1570.0 252 252 342 355 442 492 538 535 546 551
1610.0 528 496 412 365 270 231 201 207 218 260
1650.0 230 206 200 150 124 159 92 143 114 116
1690.0 87 93 62 121 103 140 162 188 146 160
1730.0 157 124 161 160 203 184 179 123 121 76
1770.0 91 55 72 101 81 122 137 177 165 166
1810.0 134 118 100 76 85 80 119 117 169 187
1850.0 178 140 129 111 95 112 90 101 85 78
1890.0 63 50 45 29 40 33 28 39 34 36
1930.0 30 39 29 52 39 33 32 36 31 42
1970.0 49 41 49 53 59 64 74 58 60 50
2010.0 45 30 38 19 13 15 15 15 17 17
2050.0 13 14 16 11 25 14 11 11 15 9
2090.0 20 12 12 13 10 10 8 10 8 18
2130.0 13 19 23 31 30 25 31 21 26 23
2170.0 29 26 26 24 28 23 18 15 8 12
2210.0 11 12 11 11 9 10 12 15 18 15
2250.0 21 19 22 27 23 30 29 25 29 33
2290.0 29 30 22 28 25 16 32 32 39 44
2330.0 40 42 56 65 62 62 61 68 32 36
2370.0 46 48 56 66 63 71 78 77 83 86
2410.0 94 102 105 97 84 70 60 53 49 50
2450.0 43 54 61 67 71 74 77 82 84 84
2490.0 78 73 69 66 65 66 64 67 64 60
2530.0 52 46 38 44 40 41 50 58 59 59
2570.0 63 60 59 60 60 64 61 61 62 63
2610.0 58 54 49 51 54 56 59 66 70 71
2650.0 78 73 74 76 68 67 67 63 57 57
2690.0 58 57 61 65 75 95 111 135 156 166
2730.0 178 183 202 214 228 216 197 174 159 152
2770.0 143 156 157 176 187 201 208 210 226 233
2810.0 258 278 306 326 354 382 420 459 521 623
2850.0 756 950 1239 1659 2232 2875 3501 3955 4106 4044
2890.0 3879 3697 3569 3582 3750 4077 4524 5019 5481 5815
2930.0 5977 5946 5824 5671 5732 6126 6955 8036 9113 9851
2970.0 10000 9326 7677 5666 4088 3187 2788 2702 2753 2719
3010.0 2636 2497 2294 2175 2110 2067 2007 1930 1952 2023
3050.0 2033 1934 1729 1437 1144 916 753 618 513 449
3090.0 392 364 348 349 351 358 355 348 329 297
3130.0 264 226 201 175 161 164 161 158 150 150
3170.0 141 143 133 130 123 118 111 106 111 107
3210.0 101 98 101 91 92 85 83 78 67 65
3250.0 62 64 65 65 70 71 66 65 67 72
3290.0 61 63 65 66 61 62 58 57 56 66
3330.0 58 56 70 65 75 86 85 89 81 86
3370.0 88 71 88 85 81 58 79 70 65 64
3410.0 62 70 74 72 59 60 48 60 60 62
3450.0 55 39 51 53 47 36 27 36 54 34
3490.0 34 23 14 69 29 56 21 11 48 61
3530.0 50 43 67 78 174 279 283 194 137 83
3570.0 97 51 62 68 47 77 27 87 46 70
3610.0 39 87 126 178 378 603 1333 2306 3369 3647
3650.0 3581 2998 2081 1458 1299 1240 1291 1162 1058 836
3690.0 655 490 399 338 244 217 131 125 120 108
3730.0 109 70 111 36 95 0 58 81 55 37
3770.0 49 66 58 39 60 52 17 54 13 84
3810.0 54 67 52 19 76 56 48 20 74 26
3850.0 76 11 62 83 35 90 63 100 55 114
3890.0 46 99 85 87 68 101 109 63 85 66
3930.0 90 92 83 90 103 89 74 76 94 63
##END=
