##TITLE=Benzene, 2,2-dichlorocyclopropyl-
##JCAMP-DX=4.24
##DATA TYPE=INFRARED SPECTRUM
##ORIGIN=Sadtler Research Labs Under US-EPA Contract
##OWNER=NIST Standard Reference Data Program
##CAS REGISTRY NO=2415-80-7
##MOLFORM=C 9 H 8 Cl 2
##XUNITS=1/CM
##YUNITS=ABSORBANCE
##XFACTOR=1.0
##YFACTOR=0.000071375
##DELTAX=4.0
##FIRSTX=450.0
##LASTX=3966.0
##FIRSTY=0.048035
##MAXX=3966
##MINX=450
##MAXY=0.71375
##MINY=0
##NPOINTS=880
##XYDATA=(X++(Y..Y))
450.0 673 555 383 391 449 430 385 312 205 145
490.0 145 123 146 94 86 5 21 5 79 136
530.0 203 374 786 1562 2406 2660 2351 1422 685 409
570.0 428 784 1473 2375 3248 3403 2817 1843 932 386
610.0 142 89 122 103 90 67 68 102 119 183
650.0 204 302 305 504 568 964 1300 1746 2798 4400
690.0 6810 7539 7730 5793 3922 2508 1773 1675 2417 3951
730.0 4798 4907 3633 2619 3099 4424 5508 5908 5798 6254
770.0 7812 9661 10000 8351 5364 2791 1364 714 458 351
810.0 284 245 231 215 218 218 207 193 195 211
850.0 232 275 313 356 435 558 699 853 911 880
890.0 709 547 486 519 552 525 424 321 308 415
930.0 595 787 949 1056 1081 1020 877 664 455 322
970.0 256 224 205 191 162 135 131 155 183 215
1010.0 258 362 575 1027 1640 2054 2405 2671 3053 3697
1050.0 4412 4775 4304 3421 2395 1855 1893 1846 1630 1239
1090.0 875 683 761 1088 1690 2805 4681 6490 6703 5668
1130.0 3405 1747 1034 698 480 332 264 239 243 267
1170.0 320 405 546 709 832 896 854 715 564 459
1210.0 461 637 1024 1622 2142 2347 2166 1692 1199 798
1250.0 526 386 321 279 238 197 184 178 166 154
1290.0 139 129 135 156 174 189 190 190 181 178
1330.0 176 171 150 132 124 113 105 109 125 148
1370.0 177 184 181 164 145 128 112 118 138 202
1410.0 320 543 862 1276 1667 1897 1902 1735 1685 1840
1450.0 2060 2103 1787 1289 843 536 412 385 449 633
1490.0 1160 2359 3742 4079 3527 1873 687 335 259 217
1530.0 195 162 132 115 95 110 116 139 134 136
1570.0 142 175 227 311 442 603 792 1099 1517 1883
1610.0 1834 1411 788 313 175 135 127 116 100 86
1650.0 85 85 76 76 78 78 86 82 97 109
1690.0 81 65 56 44 44 50 59 76 85 104
1730.0 140 183 212 229 229 203 173 139 114 101
1770.0 108 139 169 231 301 398 460 449 377 283
1810.0 222 205 187 165 142 121 103 87 84 82
1850.0 93 119 153 200 241 265 274 273 280 276
1890.0 254 205 147 97 70 64 63 71 92 130
1930.0 190 270 345 389 379 357 360 355 307 224
1970.0 126 62 49 54 62 75 83 80 72 58
2010.0 41 24 14 9 7 13 16 22 35 44
2050.0 48 47 49 51 57 68 77 93 106 123
2090.0 138 151 156 143 113 83 53 40 31 23
2130.0 22 16 11 8 4 9 11 16 18 26
2170.0 34 40 42 38 25 16 11 1 0 1
2210.0 0 3 6 14 22 36 45 50 51 45
2250.0 43 35 35 34 30 28 28 27 25 22
2290.0 22 17 12 14 26 42 64 75 67 51
2330.0 47 57 64 76 67 80 65 67 64 49
2370.0 47 38 31 25 22 20 17 16 19 25
2410.0 34 34 33 33 27 23 18 18 16 14
2450.0 22 25 27 30 30 35 36 35 35 27
2490.0 21 21 18 17 22 19 18 19 24 23
2530.0 26 26 30 37 42 42 44 44 38 37
2570.0 28 26 26 33 29 30 29 34 40 42
2610.0 47 44 40 35 39 34 36 38 34 31
2650.0 24 22 20 23 22 18 13 12 16 10
2690.0 9 12 5 14 8 13 14 14 13 6
2730.0 10 7 9 12 8 10 11 10 13 19
2770.0 22 30 30 31 34 28 25 29 28 24
2810.0 25 25 22 26 25 25 28 38 41 46
2850.0 55 62 66 71 72 77 78 87 91 91
2890.0 95 102 108 112 115 121 121 120 120 115
2930.0 121 134 149 152 166 168 163 155 149 138
2970.0 140 138 136 135 144 161 184 216 274 390
3010.0 614 976 1459 1892 2269 2672 3262 3953 4267 4096
3050.0 3478 2789 2477 2663 3539 4690 5059 4666 3568 2625
3090.0 2406 2448 2292 1930 1471 1142 986 880 724 517
3130.0 313 196 133 111 93 99 90 87 88 87
3170.0 85 80 70 47 31 25 26 17 11 15
3210.0 16 16 10 14 10 16 19 19 19 17
3250.0 20 20 16 10 13 13 17 18 12 9
3290.0 14 14 15 21 19 15 13 11 16 17
3330.0 7 16 11 14 15 11 16 12 14 11
3370.0 11 13 17 17 11 6 22 23 21 21
3410.0 20 16 18 14 17 15 20 22 24 16
3450.0 15 22 20 13 8 12 17 13 11 20
3490.0 17 25 18 15 21 23 16 21 19 8
3530.0 12 18 12 8 7 0 9 11 21 2
3570.0 12 13 4 13 13 30 18 24 20 31
3610.0 27 33 29 29 34 39 38 40 30 49
3650.0 41 54 63 53 63 43 50 27 29 42
3690.0 46 33 39 28 20 25 24 17 30 29
3730.0 26 28 17 29 9 27 22 16 24 7
3770.0 14 6 1 33 24 36 38 51 55 39
3810.0 25 24 30 34 31 12 18 3 25 15
3850.0 0 4 14 14 9 19 7 20 6 23
3890.0 23 22 28 31 38 39 39 45 28 20
3930.0 24 30 49 46 43 47 48 34 27 30
##END=
