##TITLE=Propanenitrile, 3-bromo-
##JCAMP-DX=4.24
##DATA TYPE=INFRARED SPECTRUM
##ORIGIN=Sadtler Research Labs Under US-EPA Contract
##OWNER=NIST Standard Reference Data Program
##CAS REGISTRY NO=2417-90-5
##MOLFORM=C 3 H 4 Br N
##XUNITS=1/CM
##YUNITS=ABSORBANCE
##XFACTOR=1.0
##YFACTOR=0.000093408
##DELTAX=4.0
##FIRSTX=450.0
##LASTX=3966.0
##FIRSTY=0.039605
##MAXX=3966
##MINX=450
##MAXY=0.93408
##MINY=0
##NPOINTS=880
##XYDATA=(X++(Y..Y))
450.0 424 407 529 454 303 54 30 139 255 286
490.0 261 139 283 387 415 398 431 686 894 1094
530.0 941 894 1056 951 876 848 786 850 808 1380
570.0 2030 2364 2367 2306 2386 2462 1911 957 882 723
610.0 959 1050 1120 927 784 721 732 798 810 886
650.0 1153 1731 2316 2702 3132 3566 4275 5553 7259 7456
690.0 7058 6720 4764 2504 1507 1241 921 767 762 728
730.0 690 579 511 552 590 717 656 591 572 553
770.0 680 729 652 574 578 605 659 563 474 397
810.0 423 484 474 366 268 314 326 315 297 315
850.0 203 313 385 435 462 453 501 617 798 1030
890.0 1444 1905 2365 2664 2486 2480 1928 1319 875 703
930.0 564 546 603 789 1055 1219 1213 1012 1144 1224
970.0 1108 764 644 508 457 422 362 363 334 344
1010.0 392 640 780 712 711 710 802 639 430 307
1050.0 225 271 316 309 288 202 240 286 309 341
1090.0 330 321 322 444 475 433 577 646 701 780
1130.0 817 811 797 778 787 765 731 731 832 930
1170.0 995 1027 1024 999 1107 1239 1560 2058 2477 3092
1210.0 4462 7440 10000 8889 8934 8949 5206 2587 1674 1466
1250.0 1449 1502 1938 2750 4650 7526 8920 8324 7729 8734
1290.0 6653 3519 1886 1476 1558 2041 2766 2901 3021 3437
1330.0 2573 1798 1520 1362 1146 936 748 585 533 514
1370.0 540 618 580 581 575 605 715 832 1013 1362
1410.0 1825 2456 3232 3783 4292 4925 4644 4479 4087 3785
1450.0 3049 2809 2615 2073 1705 1427 1229 985 823 703
1490.0 579 426 393 351 445 306 258 254 288 197
1530.0 136 136 148 118 115 152 157 151 41 92
1570.0 152 132 85 48 67 131 114 106 97 96
1610.0 134 153 152 134 97 122 208 151 126 140
1650.0 85 154 58 92 45 72 56 68 135 105
1690.0 74 111 136 171 167 146 189 237 205 244
1730.0 292 358 373 497 674 843 937 1043 1118 1098
1770.0 1067 912 796 749 726 690 595 477 352 248
1810.0 208 183 154 120 99 98 99 99 105 65
1850.0 68 65 85 85 65 58 40 65 77 83
1890.0 63 50 79 117 104 99 81 112 128 126
1930.0 92 71 54 67 68 55 52 32 15 50
1970.0 71 71 53 49 51 82 88 85 68 74
2010.0 95 123 116 98 81 87 94 106 92 67
2050.0 51 62 56 71 50 25 31 57 64 60
2090.0 48 41 49 69 68 68 51 38 63 78
2130.0 74 47 37 66 85 90 102 88 91 129
2170.0 162 161 139 135 142 147 151 137 99 96
2210.0 93 118 136 119 113 124 161 184 180 190
2250.0 218 256 293 322 295 258 209 159 134 119
2290.0 87 65 70 99 104 108 75 88 118 133
2330.0 141 91 83 89 77 206 238 114 107 167
2370.0 205 160 144 117 143 159 180 182 150 150
2410.0 164 173 192 156 150 147 193 197 208 192
2450.0 145 146 134 149 125 97 90 116 111 93
2490.0 72 50 46 51 62 58 46 36 53 86
2530.0 84 57 48 47 65 72 52 44 17 26
2570.0 54 60 55 38 43 72 104 109 93 109
2610.0 120 162 170 175 175 164 172 192 165 137
2650.0 130 132 163 185 170 123 84 95 91 88
2690.0 71 39 48 64 92 95 91 75 94 133
2730.0 129 111 78 72 106 149 157 136 120 127
2770.0 121 127 87 59 33 59 81 82 64 35
2810.0 59 98 145 160 163 163 225 274 290 282
2850.0 297 309 352 415 452 499 502 519 548 558
2890.0 447 340 334 341 379 433 488 591 776 946
2930.0 945 942 1019 1008 954 932 920 981 1129 1337
2970.0 1656 2116 2634 3065 3297 3427 3419 3257 2495 1699
3010.0 1281 1050 908 793 718 617 622 629 555 435
3050.0 339 286 290 262 219 158 114 109 147 135
3090.0 114 76 86 92 119 110 58 30 77 114
3130.0 111 121 68 63 117 160 137 116 108 151
3170.0 162 191 194 141 155 197 225 220 187 153
3210.0 160 167 199 160 109 65 74 106 131 79
3250.0 69 57 93 117 108 108 91 90 127 173
3290.0 145 76 94 90 125 93 74 45 80 99
3330.0 131 110 48 49 65 113 111 75 27 60
3370.0 102 95 72 66 36 80 104 84 84 37
3410.0 53 94 118 96 76 18 68 121 128 117
3450.0 60 69 125 161 132 82 43 50 111 144
3490.0 107 65 64 80 126 145 100 70 78 140
3530.0 150 159 87 83 121 124 169 169 171 258
3570.0 321 390 392 344 321 254 244 212 179 139
3610.0 100 128 205 167 151 97 94 158 152 180
3650.0 111 105 101 139 161 154 131 86 144 221
3690.0 170 120 94 129 165 170 131 128 111 150
3730.0 178 207 125 155 126 181 168 158 126 117
3770.0 143 147 164 137 120 106 143 171 178 110
3810.0 85 149 171 190 159 139 106 137 190 190
3850.0 168 116 105 160 163 167 108 72 126 166
3890.0 154 135 149 161 196 217 199 150 134 155
3930.0 178 196 178 128 123 194 0 15 16 16
##END=
