##TITLE=Phenol, 2,6-dimethyl-4-nitro-
##JCAMP-DX=4.24
##DATA TYPE=INFRARED SPECTRUM
##ORIGIN=Sadtler Research Labs Under US-EPA Contract
##OWNER=NIST Standard Reference Data Program
##CAS REGISTRY NO=2423-71-4
##MOLFORM=C 8 H 9 N O 3
##XUNITS=1/CM
##YUNITS=ABSORBANCE
##XFACTOR=1.0
##YFACTOR=0.000070636
##DELTAX=4.0
##FIRSTX=450.0
##LASTX=3966.0
##FIRSTY=0.003037
##MAXX=3966
##MINX=450
##MAXY=0.70636
##MINY=0
##NPOINTS=880
##XYDATA=(X++(Y..Y))
450.0 43 33 47 9 41 100 66 12 45 70
490.0 135 139 172 284 230 229 367 477 469 584
530.0 467 341 240 202 222 283 238 284 259 332
570.0 371 412 395 351 319 268 278 275 294 280
610.0 275 263 261 250 238 223 238 268 272 261
650.0 235 235 212 169 179 195 176 146 164 165
690.0 206 194 234 265 394 574 943 1560 2080 2413
730.0 2288 2020 1396 1499 1889 1287 986 772 547 469
770.0 435 406 347 316 256 283 267 295 493 657
810.0 640 575 381 222 197 201 208 180 190 188
850.0 213 249 259 255 233 233 238 307 443 679
890.0 939 1282 1611 1807 1606 1610 2091 1672 1386 1622
930.0 1673 1839 2148 2158 1773 1148 637 422 346 321
970.0 327 321 330 341 366 386 432 481 542 614
1010.0 707 824 922 978 938 851 713 593 513 455
1050.0 402 386 392 411 461 500 561 608 699 834
1090.0 1161 1851 2663 3077 2928 2270 1359 797 561 483
1130.0 445 410 380 363 377 383 426 495 659 857
1170.0 1095 1450 2087 3359 5195 6644 6920 6443 4897 3531
1210.0 2875 2543 2512 2766 2987 2903 2580 2030 1722 1985
1250.0 2450 2694 2764 2558 2422 2694 3088 3337 3373 3293
1290.0 2955 2512 2307 2325 2462 2631 2904 3236 3722 4453
1330.0 5238 5909 6577 7144 7831 8824 9629 10000 9234 7683
1370.0 5719 3911 2604 1996 1769 1549 1342 1078 734 625
1410.0 601 714 1035 1381 1803 2274 2739 3015 2823 2667
1450.0 2494 2378 2385 2275 2308 2689 3101 3500 3481 3419
1490.0 2883 2319 1922 1696 1753 2116 2161 2743 3474 4357
1530.0 5252 5941 6463 6467 6813 6695 6614 5870 4987 3541
1570.0 2300 1589 1401 1361 1598 1911 2143 2282 2277 2133
1610.0 1811 1740 1669 1638 1506 1284 1126 1085 1151 1527
1650.0 1931 2997 4395 6059 7292 7971 7520 6678 4474 2649
1690.0 1366 955 708 700 472 396 402 380 325 282
1730.0 376 411 451 401 433 472 443 404 416 436
1770.0 426 447 346 420 316 390 288 304 330 291
1810.0 236 294 302 272 379 311 363 273 370 367
1850.0 328 262 269 216 222 147 162 196 60 215
1890.0 250 317 361 386 431 433 477 448 456 396
1930.0 357 323 285 281 218 180 139 114 63 70
1970.0 42 29 19 24 16 32 44 22 23 26
2010.0 31 35 38 38 29 32 27 49 38 45
2050.0 26 25 14 23 28 17 18 16 18 20
2090.0 28 30 22 25 17 23 18 22 14 14
2130.0 11 15 20 12 22 20 34 35 49 44
2170.0 47 55 59 66 68 84 81 97 101 106
2210.0 99 100 99 78 71 90 108 106 109 85
2250.0 67 40 25 13 2 11 15 24 25 46
2290.0 51 65 80 86 86 91 100 76 93 83
2330.0 93 79 67 93 88 96 117 100 76 63
2370.0 52 41 62 73 58 35 36 31 40 40
2410.0 48 44 49 50 46 51 52 62 56 66
2450.0 69 71 68 62 67 57 65 63 64 51
2490.0 44 35 34 30 28 31 26 40 37 43
2530.0 43 50 53 50 54 48 44 44 45 40
2570.0 48 51 49 43 44 40 29 31 27 30
2610.0 25 37 38 40 46 54 68 70 83 89
2650.0 92 97 101 98 89 84 68 66 55 59
2690.0 49 48 46 45 49 47 51 51 62 61
2730.0 69 74 91 102 110 123 127 132 109 98
2770.0 86 78 78 74 77 80 89 92 106 118
2810.0 131 146 160 175 192 220 245 290 341 410
2850.0 461 528 595 672 738 792 828 823 812 774
2890.0 739 693 673 672 700 762 856 999 1179 1423
2930.0 1665 1832 1834 1754 1587 1298 1043 891 828 797
2970.0 883 902 863 912 983 1025 982 912 781 613
3010.0 476 402 356 332 329 335 367 396 428 455
3050.0 464 461 440 400 365 343 315 304 283 274
3090.0 249 231 205 176 155 140 127 122 113 101
3130.0 97 94 85 82 76 74 76 76 69 73
3170.0 68 69 73 78 75 79 79 77 70 71
3210.0 73 74 77 76 78 80 78 82 84 85
3250.0 87 85 93 92 95 102 112 127 142 165
3290.0 184 199 209 212 207 184 167 160 155 163
3330.0 154 163 160 134 114 101 91 87 81 83
3370.0 77 81 67 81 74 74 70 81 73 75
3410.0 73 77 79 67 63 70 71 76 78 65
3450.0 69 69 72 76 67 68 62 47 80 66
3490.0 59 68 51 95 72 56 82 15 85 86
3530.0 65 55 64 74 95 59 87 33 91 162
3570.0 167 132 72 89 88 126 121 27 115 69
3610.0 183 128 255 350 535 992 1411 2243 3234 3653
3650.0 3491 2901 1771 807 432 219 103 125 13 75
3690.0 33 44 46 77 40 30 47 60 11 67
3730.0 19 60 44 76 77 25 76 3 34 21
3770.0 5 9 2 20 0 2 5 2 12 18
3810.0 6 9 2 32 3 10 20 13 0 33
3850.0 5 72 63 25 41 42 34 45 106 53
3890.0 74 44 62 98 99 50 88 90 77 81
3930.0 67 105 61 50 100 85 62 107 84 87
##END=
