##TITLE=4-Isoxazolecarboxylic acid, 3-(2,6-dichlorophenyl)-5-methyl-, ethyl ester
##JCAMP-DX=4.24
##DATA TYPE=INFRARED SPECTRUM
##ORIGIN=Sadtler Research Labs Under US-EPA Contract
##OWNER=NIST Standard Reference Data Program
##CAS REGISTRY NO=24248-21-3
##MOLFORM=C 13 H 11 Cl 2 N O 3
##XUNITS=1/CM
##YUNITS=ABSORBANCE
##XFACTOR=1.0
##YFACTOR=0.000094147
##DELTAX=4.0
##FIRSTX=450.0
##LASTX=3966.0
##FIRSTY=0.034552
##MAXX=3966
##MINX=450
##MAXY=0.94147
##MINY=0
##NPOINTS=880
##XYDATA=(X++(Y..Y))
450.0 367 329 264 227 103 137 89 88 105 92
490.0 63 102 142 135 141 90 78 25 59 44
530.0 46 40 33 70 33 51 55 71 81 155
570.0 216 255 184 98 51 28 42 35 67 48
610.0 64 52 37 30 43 46 31 32 15 30
650.0 10 37 15 61 71 122 231 241 253 161
690.0 107 82 67 52 57 56 81 128 213 366
730.0 472 485 366 280 229 226 231 245 305 497
770.0 1237 2449 3446 3159 2582 2093 1846 1567 1184 812
810.0 589 456 360 317 308 342 359 349 300 243
850.0 193 144 141 153 171 193 195 217 291 459
890.0 678 736 558 316 154 95 71 65 59 59
930.0 63 62 70 80 96 110 135 167 240 348
970.0 489 621 670 560 400 280 234 231 240 269
1010.0 318 380 418 409 369 321 302 294 321 365
1050.0 447 520 590 665 738 853 998 1241 1631 2302
1090.0 3285 4237 4589 4811 5788 7031 6749 4898 2988 1817
1130.0 1224 923 771 754 935 1363 1967 2660 3370 3641
1170.0 3119 2216 1540 1190 1105 1287 1496 1301 834 454
1210.0 306 243 216 206 210 235 283 372 534 736
1250.0 820 751 677 707 741 711 665 662 793 1127
1290.0 1873 3218 5013 6256 5755 3907 2194 1251 842 633
1330.0 511 447 391 378 360 343 339 380 479 631
1370.0 734 734 732 795 927 1126 1271 1369 1475 1556
1410.0 1551 1582 1655 1841 2154 2767 3331 3246 2631 2062
1450.0 1743 1523 1252 1060 896 838 769 712 647 571
1490.0 534 559 582 597 602 592 514 377 276 233
1530.0 225 232 264 275 359 465 746 1103 1613 1667
1570.0 1249 813 722 740 843 951 1140 1521 2220 3306
1610.0 4290 4448 3493 2084 1126 647 482 360 326 286
1650.0 291 259 330 309 330 302 286 298 326 379
1690.0 455 540 564 652 719 841 968 1239 1783 2900
1730.0 5290 8084 10000 8720 6094 3602 2043 1232 891 713
1770.0 633 528 498 394 342 261 246 219 199 193
1810.0 169 150 119 114 91 95 87 112 99 113
1850.0 138 146 133 107 95 76 91 84 91 83
1890.0 80 81 74 78 73 81 84 103 120 147
1930.0 161 135 106 71 74 77 85 79 86 80
1970.0 80 80 80 77 76 70 62 68 63 70
2010.0 69 69 70 70 69 67 72 67 66 71
2050.0 72 69 68 71 66 71 69 73 66 71
2090.0 68 68 68 68 68 71 73 75 81 79
2130.0 79 78 78 78 76 71 69 68 67 67
2170.0 66 70 71 74 71 69 67 66 68 69
2210.0 69 72 73 74 74 71 74 78 78 77
2250.0 76 80 80 82 83 81 86 79 85 76
2290.0 69 60 52 52 40 29 25 10 7 10
2330.0 7 7 7 6 10 16 5 8 7 7
2370.0 7 7 22 40 63 70 82 85 89 88
2410.0 91 90 92 94 87 89 87 87 84 83
2450.0 84 87 87 89 86 83 87 84 86 79
2490.0 81 80 78 78 77 80 74 79 74 77
2530.0 74 75 73 74 76 72 73 67 76 73
2570.0 74 73 74 76 73 76 72 75 72 72
2610.0 67 69 71 71 72 69 68 66 68 68
2650.0 70 74 74 72 70 72 74 75 74 74
2690.0 74 74 74 79 80 78 78 77 76 73
2730.0 76 73 77 78 80 81 76 77 76 80
2770.0 78 82 77 84 80 86 84 85 88 92
2810.0 95 101 107 109 118 111 117 121 126 125
2850.0 136 145 156 173 186 206 217 237 263 287
2890.0 284 271 267 279 310 337 365 374 366 372
2930.0 413 516 686 846 874 755 608 562 592 636
2970.0 669 722 865 1118 1337 1289 1051 805 640 529
3010.0 460 401 349 295 256 226 211 204 195 190
3050.0 195 205 232 284 334 332 286 241 210 192
3090.0 177 158 135 122 118 114 116 119 125 135
3130.0 131 123 103 89 81 78 73 72 69 67
3170.0 68 67 71 69 68 66 61 63 59 63
3210.0 55 52 53 49 50 49 51 51 54 53
3250.0 50 50 54 47 50 56 49 52 50 50
3290.0 47 48 49 49 49 52 48 51 52 50
3330.0 48 45 50 55 53 59 52 58 47 47
3370.0 48 44 51 50 45 51 46 48 50 44
3410.0 47 43 49 51 48 55 63 57 66 72
3450.0 77 76 70 71 64 49 46 48 43 42
3490.0 33 36 42 38 44 30 39 41 32 28
3530.0 37 48 44 43 33 39 37 36 27 34
3570.0 30 55 65 49 54 31 50 23 37 40
3610.0 37 29 24 34 35 24 43 17 51 30
3650.0 23 33 13 62 17 49 18 38 39 31
3690.0 40 23 42 38 31 36 26 32 39 16
3730.0 46 26 47 0 70 12 25 33 22 34
3770.0 34 32 30 39 42 42 15 50 9 42
3810.0 22 30 45 6 31 34 35 19 30 15
3850.0 37 26 16 30 25 12 23 38 14 39
3890.0 19 23 29 12 19 38 44 13 27 24
3930.0 21 10 33 24 20 34 47 43 25 34
##END=
