##TITLE=O,O-Diethyl O-(4-nitro-m-tolyl) phosphorothioate
##JCAMP-DX=4.24
##DATA TYPE=INFRARED SPECTRUM
##ORIGIN=Sadtler Research Labs Under US-EPA Contract
##OWNER=NIST Standard Reference Data Program
##CAS REGISTRY NO=2425-15-2
##MOLFORM=C 11 H 16 N O 5 P S
##XUNITS=1/CM
##YUNITS=ABSORBANCE
##XFACTOR=1.0
##YFACTOR=0.000096304
##DELTAX=4.0
##FIRSTX=450.0
##LASTX=3966.0
##FIRSTY=0.038907
##MAXX=3966
##MINX=450
##MAXY=0.96304
##MINY=0
##NPOINTS=880
##XYDATA=(X++(Y..Y))
450.0 404 462 449 468 506 513 491 477 452 448
490.0 426 412 319 290 262 261 225 155 109 83
530.0 34 18 19 14 6 3 51 69 56 37
570.0 76 99 106 98 108 99 96 109 115 138
610.0 169 194 230 207 201 244 338 490 609 612
650.0 520 450 387 288 180 123 97 111 148 216
690.0 326 399 375 354 399 584 883 1100 958 570
730.0 289 164 133 166 259 469 701 594 474 484
770.0 572 752 1005 1313 1658 1961 2256 2533 2801 3191
810.0 3812 4890 6343 7525 7690 6855 5281 3502 2165 1407
850.0 1049 945 1078 1449 2006 2560 2955 3270 3631 3931
890.0 3708 2768 1736 1093 780 679 657 700 794 936
930.0 1155 1468 1921 2567 3409 4427 5494 6655 7940 9297
970.0 10000 8917 6629 4678 3481 2845 2617 2693 3052 3707
1010.0 4680 5902 7029 7727 8236 8803 9461 9720 9478 8826
1050.0 8086 7505 7077 6635 5970 5078 4155 3494 3100 2728
1090.0 2436 2306 2175 1870 1501 1235 1066 957 881 837
1130.0 835 888 1032 1259 1465 1680 2080 2722 3190 2771
1170.0 1845 1209 903 768 696 655 619 585 569 578
1210.0 624 713 884 1202 1769 2742 4286 6111 6755 5188
1250.0 3041 1856 1514 1733 2362 2775 2408 1706 1246 1045
1290.0 989 1026 1099 1149 1120 1008 871 778 733 790
1330.0 973 1329 1939 2811 3849 4783 5068 4322 2982 1893
1370.0 1282 1013 948 1044 1220 1360 1403 1267 1063 902
1410.0 785 677 645 603 618 646 727 807 900 978
1450.0 1015 1015 999 987 1055 1273 1728 2445 3284 3688
1490.0 3230 2412 1892 1728 1819 2083 2466 2988 3519 3890
1530.0 4126 4251 4231 3922 3376 2750 2284 2037 1902 1910
1570.0 2071 2443 3012 3537 3578 3028 2252 1745 1631 1840
1610.0 2159 2261 1974 1471 1035 703 521 390 301 247
1650.0 232 198 166 145 140 134 143 120 146 148
1690.0 134 130 155 144 134 110 115 126 104 97
1730.0 108 130 117 120 132 139 133 136 141 138
1770.0 153 154 137 131 119 117 116 113 121 108
1810.0 112 115 114 122 129 142 142 146 159 167
1850.0 159 149 147 137 135 136 127 124 127 128
1890.0 127 118 106 96 83 72 66 56 53 42
1930.0 39 36 37 43 45 44 44 46 41 34
1970.0 24 19 15 15 14 18 12 7 4 2
2010.0 0 1 2 3 3 0 1 4 6 6
2050.0 5 6 3 2 4 0 0 0 1 0
2090.0 5 5 8 9 10 9 10 12 11 13
2130.0 12 14 10 10 9 11 9 11 12 9
2170.0 10 9 10 10 10 11 14 17 18 18
2210.0 19 15 11 11 6 3 3 1 0 1
2250.0 2 0 3 3 1 2 4 5 7 11
2290.0 13 15 17 20 24 25 22 22 26 27
2330.0 31 28 28 29 35 36 34 29 22 27
2370.0 31 32 33 37 36 34 38 41 45 45
2410.0 44 45 48 51 54 53 52 47 38 35
2450.0 30 27 24 25 23 21 20 18 22 22
2490.0 24 20 22 18 17 17 16 12 9 8
2530.0 9 11 17 21 25 28 28 28 29 25
2570.0 21 26 23 24 22 22 18 24 24 23
2610.0 23 22 22 20 19 17 13 14 13 12
2650.0 17 17 18 18 18 20 20 21 19 17
2690.0 20 22 26 29 29 33 33 36 39 48
2730.0 52 57 58 59 62 64 67 67 64 63
2770.0 62 65 67 68 62 64 64 67 71 79
2810.0 86 94 102 119 131 142 149 161 183 201
2850.0 226 250 284 322 364 409 450 485 510 526
2890.0 533 552 589 649 722 784 820 815 809 841
2930.0 933 1082 1259 1384 1381 1279 1142 1052 1047 1120
2970.0 1234 1391 1591 1874 2157 2235 2047 1779 1463 1127
3010.0 887 730 612 521 445 376 324 286 250 223
3050.0 202 186 170 167 170 174 170 173 168 160
3090.0 148 133 119 109 101 97 93 89 78 70
3130.0 65 61 55 52 47 43 41 40 38 33
3170.0 39 35 32 34 35 36 36 36 31 31
3210.0 29 28 29 23 23 24 23 18 16 15
3250.0 15 12 10 9 10 8 9 6 6 6
3290.0 7 8 2 3 4 7 8 6 6 5
3330.0 2 3 4 8 5 6 3 5 9 8
3370.0 7 9 3 6 3 0 2 7 2 9
3410.0 8 10 5 8 7 9 14 5 8 5
3450.0 1 3 4 12 8 10 9 11 11 9
3490.0 10 6 9 8 9 6 7 9 8 14
3530.0 15 12 6 11 7 7 7 10 8 10
3570.0 4 3 5 7 9 7 3 3 11 5
3610.0 3 9 10 7 13 10 32 71 122 154
3650.0 147 131 99 44 23 9 8 10 15 16
3690.0 12 15 11 2 8 8 11 8 10 13
3730.0 2 6 10 8 5 13 2 11 9 4
3770.0 10 21 11 13 13 13 13 5 1 6
3810.0 16 6 4 0 21 4 1 4 6 10
3850.0 4 2 12 3 8 13 8 7 13 11
3890.0 0 1 8 10 9 2 0 4 15 8
3930.0 2 18 12 10 20 18 27 14 4 22
##END=
