##TITLE=Oxirane, (butoxymethyl)-
##JCAMP-DX=4.24
##DATA TYPE=INFRARED SPECTRUM
##ORIGIN=Sadtler Research Labs Under US-EPA Contract
##OWNER=NIST Standard Reference Data Program
##CAS REGISTRY NO=2426-08-6
##MOLFORM=C 7 H 14 O 2
##XUNITS=1/CM
##YUNITS=ABSORBANCE
##XFACTOR=1.0
##YFACTOR=0.000074658
##DELTAX=4.0
##FIRSTX=450.0
##LASTX=3966.0
##FIRSTY=0.019187
##MAXX=3966
##MINX=450
##MAXY=0.74658
##MINY=0
##NPOINTS=880
##XYDATA=(X++(Y..Y))
450.0 257 154 102 100 121 117 140 58 150 54
490.0 65 41 4 93 77 87 89 145 85 56
530.0 61 75 73 83 98 69 53 57 78 68
570.0 62 48 54 87 50 94 61 74 72 109
610.0 93 119 138 107 106 88 89 71 74 69
650.0 41 48 61 61 64 83 53 60 38 46
690.0 56 52 49 63 65 71 97 101 118 151
730.0 200 222 285 358 390 450 486 572 685 829
770.0 922 916 826 733 587 481 480 554 661 729
810.0 873 991 1087 1195 1305 1544 1797 2140 2449 2654
850.0 2626 2387 1985 1524 1176 910 765 675 652 658
890.0 715 830 968 1124 1255 1369 1402 1417 1390 1383
930.0 1387 1398 1431 1435 1433 1395 1369 1296 1271 1221
970.0 1195 1159 1150 1157 1158 1200 1216 1237 1203 1152
1010.0 1082 1020 976 945 947 987 1079 1161 1271 1362
1050.0 1458 1540 1595 1679 1759 1890 2048 2268 2554 3058
1090.0 3807 4857 6105 7383 8480 9069 9588 9764 10000 9872
1130.0 9885 9543 8682 7565 6124 5032 4504 4286 3953 3469
1170.0 2698 2083 1698 1436 1237 1064 943 842 788 739
1210.0 716 713 740 776 853 957 1075 1210 1333 1462
1250.0 1554 1603 1582 1495 1351 1191 1048 921 838 766
1290.0 723 701 714 702 685 654 610 609 667 827
1330.0 1092 1413 1695 1921 1953 1817 1658 1444 1325 1249
1370.0 1233 1208 1260 1324 1379 1401 1299 1147 963 806
1410.0 697 642 607 597 592 622 707 765 861 926
1450.0 1067 1187 1346 1491 1570 1590 1531 1458 1285 1131
1490.0 921 715 550 381 312 233 213 179 156 157
1530.0 144 144 130 121 107 109 95 75 69 69
1570.0 71 54 61 55 59 56 65 64 63 70
1610.0 70 64 71 77 89 84 87 69 76 71
1650.0 100 77 101 83 80 73 69 72 66 49
1690.0 57 70 56 100 113 132 134 149 171 190
1730.0 244 283 370 449 549 567 617 620 551 456
1770.0 381 322 254 201 178 154 135 116 88 72
1810.0 54 36 22 18 8 8 3 7 5 6
1850.0 4 3 4 2 2 0 5 4 4 5
1890.0 3 4 7 12 13 18 18 21 27 31
1930.0 37 38 39 35 33 34 36 39 42 45
1970.0 49 52 57 56 52 54 50 45 47 45
2010.0 48 48 52 52 57 61 66 71 74 80
2050.0 80 83 84 87 89 88 90 92 95 94
2090.0 96 96 95 93 93 87 86 80 80 73
2130.0 68 62 53 51 45 41 36 34 34 34
2170.0 33 31 34 33 31 33 33 34 36 41
2210.0 42 45 46 47 49 53 59 63 71 80
2250.0 85 87 83 77 72 64 61 61 58 59
2290.0 57 57 50 43 44 36 28 21 22 31
2330.0 29 24 25 31 30 25 17 19 34 35
2370.0 44 33 33 29 27 23 19 22 22 23
2410.0 20 14 19 16 10 8 7 5 6 4
2450.0 5 4 0 7 3 1 0 3 0 2
2490.0 2 5 2 7 5 6 10 9 8 8
2530.0 11 11 11 10 14 18 18 24 28 32
2570.0 34 34 41 45 48 56 59 67 73 83
2610.0 89 93 90 86 80 79 81 77 79 83
2650.0 87 94 106 116 124 139 147 161 164 177
2690.0 190 206 221 242 262 283 310 334 361 378
2730.0 401 438 470 507 538 559 565 569 566 571
2770.0 578 578 588 607 634 669 716 772 843 923
2810.0 1014 1114 1237 1376 1536 1712 1918 2190 2536 3012
2850.0 3626 4337 5110 5907 6661 7271 7744 8067 8173 7778
2890.0 7230 6472 5747 5369 5318 5527 5884 6388 6911 7473
2930.0 8062 8737 9365 9781 9720 9355 8919 8650 8923 9466
2970.0 9800 9236 8144 6635 5235 4400 3900 3643 3471 3279
3010.0 2973 2591 2181 1798 1506 1331 1284 1352 1548 1862
3050.0 2069 2133 2016 1734 1425 1147 898 653 448 343
3090.0 281 243 219 193 174 158 150 138 125 118
3130.0 118 109 104 101 97 90 89 84 84 84
3170.0 79 79 74 77 76 74 70 62 61 56
3210.0 54 51 42 35 36 29 27 28 26 23
3250.0 16 19 14 17 11 11 18 17 13 12
3290.0 11 18 15 11 15 8 9 7 6 5
3330.0 8 6 4 15 4 5 5 0 2 5
3370.0 6 2 7 7 5 6 7 6 7 4
3410.0 7 11 7 4 6 15 13 12 11 9
3450.0 8 14 12 8 17 11 9 8 14 15
3490.0 5 5 8 15 14 14 9 1 9 9
3530.0 19 21 7 9 18 21 16 23 27 46
3570.0 52 46 48 59 59 62 58 48 48 44
3610.0 68 52 55 62 58 65 59 45 52 49
3650.0 71 73 67 71 73 87 75 91 61 68
3690.0 58 54 45 50 37 40 48 36 38 31
3730.0 35 42 42 36 44 5 51 38 36 43
3770.0 49 44 49 38 40 35 37 32 36 40
3810.0 33 54 44 55 42 46 43 56 53 56
3850.0 45 41 56 55 45 46 44 26 26 21
3890.0 40 44 42 31 32 24 12 17 30 24
3930.0 24 26 32 36 26 4 19 22 40 44
##END=
