##TITLE=Heptanoic acid, 2-acetyl-, ethyl ester
##JCAMP-DX=4.24
##DATA TYPE=INFRARED SPECTRUM
##ORIGIN=Sadtler Research Labs Under US-EPA Contract
##OWNER=NIST Standard Reference Data Program
##CAS REGISTRY NO=24317-94-0
##MOLFORM=C 11 H 20 O 3
##XUNITS=1/CM
##YUNITS=ABSORBANCE
##XFACTOR=1.0
##YFACTOR=0.000111462
##DELTAX=4.0
##FIRSTX=450.0
##LASTX=3966.0
##FIRSTY=0.027420
##MAXX=3966
##MINX=450
##MAXY=1.11462
##MINY=0
##NPOINTS=880
##XYDATA=(X++(Y..Y))
450.0 246 170 119 77 74 59 87 67 76 105
490.0 107 119 124 139 113 119 135 129 135 123
530.0 154 183 207 184 192 182 168 156 146 118
570.0 91 90 81 100 109 127 163 203 197 174
610.0 141 117 87 65 39 21 28 27 41 30
650.0 37 46 37 11 0 36 1 13 13 7
690.0 18 9 8 14 21 47 83 114 154 161
730.0 176 167 157 141 110 90 86 85 95 93
770.0 104 101 100 91 87 83 78 79 84 79
810.0 78 77 79 91 100 120 152 181 219 251
850.0 278 308 324 335 324 274 204 149 108 85
890.0 85 90 97 111 129 161 183 194 209 218
930.0 226 242 265 301 342 379 385 369 345 319
970.0 307 294 291 293 295 313 329 369 425 508
1010.0 623 787 999 1240 1491 1736 1922 2004 1942 1802
1050.0 1676 1635 1642 1591 1486 1329 1189 1097 1064 1084
1090.0 1187 1376 1619 1861 2133 2444 2750 2915 2924 2883
1130.0 2950 3235 3734 4319 4816 5205 5515 5825 6071 6116
1170.0 5976 5719 5444 5141 4841 4576 4389 4313 4329 4387
1210.0 4405 4318 4135 3945 3853 3887 4014 4169 4260 4217
1250.0 4058 3853 3723 3666 3599 3444 3194 2893 2590 2315
1290.0 2107 1992 1972 2004 2010 1951 1856 1762 1719 1732
1330.0 1785 1840 1863 1847 1834 1930 2230 2634 2906 2936
1370.0 2741 2395 1960 1575 1329 1137 985 889 831 779
1410.0 730 699 684 704 726 757 800 880 990 1121
1450.0 1247 1332 1392 1468 1526 1490 1316 1043 775 568
1490.0 429 344 277 237 208 185 173 157 147 145
1530.0 137 136 124 111 117 121 116 103 112 114
1570.0 112 113 118 116 124 130 141 152 174 199
1610.0 225 257 280 287 267 254 228 221 230 245
1650.0 268 316 360 381 390 394 401 440 476 556
1690.0 664 801 966 1189 1480 1919 2609 3708 5354 7384
1730.0 9232 10000 9266 7930 7068 6895 6899 6548 5814 4855
1770.0 3732 2676 1897 1390 1065 849 721 639 542 470
1810.0 389 311 248 196 160 127 110 95 81 69
1850.0 64 61 55 53 46 43 46 49 49 50
1890.0 51 49 50 46 40 38 33 29 23 24
1930.0 21 19 17 16 13 16 16 16 18 16
1970.0 18 18 19 17 17 19 20 18 19 20
2010.0 22 20 23 23 26 28 29 28 27 26
2050.0 23 22 19 16 16 16 17 17 19 18
2090.0 18 20 19 17 17 16 17 14 13 11
2130.0 9 6 8 7 4 5 5 6 4 3
2170.0 2 4 3 3 2 5 3 0 1 2
2210.0 0 0 1 3 2 6 6 5 7 6
2250.0 8 8 9 7 7 8 8 11 13 15
2290.0 18 28 39 48 55 62 60 51 56 44
2330.0 34 27 19 31 48 55 51 33 51 55
2370.0 60 62 66 61 38 20 14 15 12 16
2410.0 16 14 13 15 14 11 10 8 8 8
2450.0 8 8 10 11 10 9 12 11 13 11
2490.0 10 6 10 8 8 6 12 8 9 11
2530.0 12 11 10 13 10 11 13 14 17 14
2570.0 18 19 21 20 21 19 21 22 20 24
2610.0 27 23 25 28 29 28 29 30 36 34
2650.0 36 41 40 48 49 53 60 65 66 63
2690.0 64 59 59 57 57 57 61 63 65 70
2730.0 78 86 93 101 106 106 99 99 100 101
2770.0 109 114 120 127 136 141 154 169 183 200
2810.0 216 236 257 285 315 349 386 431 490 580
2850.0 737 1021 1466 1981 2422 2663 2661 2566 2555 2506
2890.0 2281 1962 1824 1910 2151 2477 2854 3292 3833 4526
2930.0 5249 5774 6018 6020 5727 5130 4535 4419 4944 5820
2970.0 6295 5696 4513 3622 3414 3243 2767 2225 1843 1587
3010.0 1376 1183 998 825 675 558 468 402 351 313
3050.0 282 257 239 227 210 201 193 188 179 170
3090.0 158 150 143 132 126 122 108 103 100 94
3130.0 93 90 82 79 74 75 73 71 73 68
3170.0 70 61 62 61 59 55 52 52 50 45
3210.0 37 33 34 28 29 25 28 18 17 14
3250.0 11 14 10 11 9 15 7 3 8 8
3290.0 9 5 7 7 4 5 0 4 3 6
3330.0 8 8 11 8 7 9 5 9 7 7
3370.0 13 11 13 13 12 10 13 14 17 17
3410.0 19 21 22 27 35 41 43 56 60 67
3450.0 74 85 101 96 105 103 90 75 68 57
3490.0 51 46 36 38 28 32 32 37 35 40
3530.0 43 46 42 33 34 30 31 32 42 47
3570.0 57 47 47 67 43 31 27 37 24 18
3610.0 22 11 9 14 12 7 16 10 16 14
3650.0 18 10 14 11 9 11 13 15 14 19
3690.0 14 17 17 17 12 0 11 6 2 2
3730.0 10 13 14 10 7 5 9 0 10 2
3770.0 1 4 12 5 5 8 3 1 4 1
3810.0 8 0 3 0 0 0 0 4 0 0
3850.0 1 2 3 0 5 7 0 0 3 6
3890.0 0 2 0 4 0 5 1 5 0 4
3930.0 8 6 0 12 2 2 8 10 6 8
##END=
