##TITLE=Decanoic acid, 2-acetyl-, ethyl ester
##JCAMP-DX=4.24
##DATA TYPE=INFRARED SPECTRUM
##ORIGIN=Sadtler Research Labs Under US-EPA Contract
##OWNER=NIST Standard Reference Data Program
##CAS REGISTRY NO=24317-95-1
##MOLFORM=C 14 H 26 O 3
##XUNITS=1/CM
##YUNITS=ABSORBANCE
##XFACTOR=1.0
##YFACTOR=0.000064655
##DELTAX=4.0
##FIRSTX=450.0
##LASTX=3966.0
##FIRSTY=0.014030
##MAXX=3966
##MINX=450
##MAXY=0.64655
##MINY=0
##NPOINTS=880
##XYDATA=(X++(Y..Y))
450.0 217 189 162 61 117 157 130 112 111 178
490.0 143 156 117 155 120 134 166 127 152 149
530.0 150 184 211 193 200 225 207 180 180 166
570.0 124 106 100 121 124 139 165 213 206 182
610.0 153 131 96 83 68 40 62 54 53 50
650.0 45 50 45 45 15 85 30 50 45 52
690.0 79 73 73 91 123 163 221 262 303 273
730.0 233 211 192 190 171 178 165 173 179 175
770.0 172 160 150 144 146 137 123 118 117 121
810.0 117 117 110 129 134 140 158 189 221 272
850.0 310 375 403 402 348 283 209 167 140 130
890.0 127 134 139 149 161 178 190 201 210 232
930.0 248 266 301 331 360 385 397 403 404 389
970.0 383 363 357 347 354 380 409 466 545 637
1010.0 777 968 1188 1412 1580 1667 1703 1702 1706 1707
1050.0 1696 1654 1583 1499 1444 1375 1313 1256 1225 1239
1090.0 1342 1502 1646 1716 1792 1969 2238 2462 2545 2550
1130.0 2648 2945 3437 3974 4404 4685 4843 4866 4761 4588
1170.0 4449 4385 4361 4320 4248 4159 4044 3917 3800 3704
1210.0 3634 3572 3517 3480 3494 3570 3693 3834 3906 3861
1250.0 3710 3526 3366 3244 3115 2943 2729 2480 2237 2049
1290.0 1950 1911 1914 1902 1844 1734 1629 1549 1522 1545
1330.0 1591 1656 1696 1699 1709 1851 2213 2625 2746 2655
1370.0 2514 2156 1761 1460 1234 1074 965 869 805 754
1410.0 709 710 716 758 779 834 892 1037 1186 1367
1450.0 1506 1610 1744 1816 1849 1641 1270 932 677 469
1490.0 356 274 225 182 163 139 125 111 103 109
1530.0 90 106 84 78 85 98 90 77 96 100
1570.0 109 103 126 118 141 143 165 182 217 240
1610.0 274 309 328 339 309 316 290 312 333 369
1650.0 369 436 454 481 490 521 539 621 679 813
1690.0 970 1177 1436 1848 2423 3250 4216 5191 6048 6805
1730.0 7572 7981 7603 6848 6323 6052 5618 4856 4031 3276
1770.0 2531 1876 1427 1112 880 689 566 473 399 340
1810.0 277 222 181 131 105 69 51 43 30 23
1850.0 16 14 13 13 6 9 7 16 16 15
1890.0 19 14 18 14 14 15 6 11 0 10
1930.0 4 4 3 3 1 7 7 6 13 9
1970.0 11 11 14 15 16 16 20 20 24 22
2010.0 23 25 31 26 30 33 35 32 33 33
2050.0 32 31 31 28 28 28 30 28 31 25
2090.0 26 29 31 26 27 27 26 26 25 24
2130.0 22 19 23 21 16 21 20 22 20 18
2170.0 14 18 13 15 15 19 19 17 17 19
2210.0 16 18 20 21 19 24 24 25 26 25
2250.0 25 26 27 25 25 22 24 25 26 26
2290.0 28 34 45 52 54 60 69 62 67 69
2330.0 69 64 61 72 84 93 100 73 98 103
2370.0 105 95 96 86 58 45 46 44 46 49
2410.0 44 45 42 44 44 38 35 34 36 36
2450.0 36 36 36 40 35 34 40 40 45 42
2490.0 39 35 43 42 45 44 49 48 49 51
2530.0 51 52 53 52 48 51 52 60 60 55
2570.0 63 61 64 62 64 66 70 74 69 75
2610.0 84 81 84 89 89 89 94 98 103 104
2650.0 106 113 119 121 126 134 136 145 148 144
2690.0 144 141 140 139 138 140 143 147 152 160
2730.0 166 178 177 184 187 187 189 192 196 206
2770.0 210 223 231 242 257 282 298 324 348 379
2810.0 414 455 500 557 620 698 796 934 1147 1493
2850.0 2049 2810 3674 4342 4471 4151 3673 3193 2942 2856
2890.0 2722 2659 2814 3125 3574 4115 4750 5588 6702 8141
2930.0 9531 10000 9393 8271 7080 6033 5318 5111 5235 5431
2970.0 5284 4513 3531 3033 2938 2732 2291 1883 1585 1364
3010.0 1165 993 828 690 575 489 425 377 331 298
3050.0 271 253 237 219 206 200 187 187 174 163
3090.0 149 146 141 130 120 116 109 102 98 94
3130.0 92 90 82 82 74 75 74 76 78 71
3170.0 69 66 73 67 60 61 60 63 60 49
3210.0 40 46 43 36 41 35 38 29 20 26
3250.0 21 34 26 24 17 29 28 19 27 25
3290.0 28 24 21 24 17 23 22 25 22 28
3330.0 28 23 33 28 39 39 29 26 28 30
3370.0 45 32 28 35 39 37 38 38 45 45
3410.0 47 59 53 68 71 79 70 90 85 93
3450.0 94 96 101 96 106 106 98 86 86 75
3490.0 73 70 70 75 67 78 67 76 77 90
3530.0 83 70 68 65 69 50 52 40 62 80
3570.0 100 110 125 126 75 58 38 45 36 35
3610.0 51 36 34 39 33 58 53 42 37 34
3650.0 56 36 38 30 31 46 35 44 35 38
3690.0 28 40 44 49 43 26 29 28 21 19
3730.0 41 45 46 27 48 29 53 30 29 15
3770.0 17 36 39 30 23 33 24 16 29 32
3810.0 38 34 26 22 18 13 28 44 14 18
3850.0 21 39 30 15 26 32 24 28 28 29
3890.0 10 33 6 50 33 33 31 51 30 42
3930.0 44 48 31 51 21 33 50 49 42 45
##END=
