##TITLE=Phenol, 2,6-dibromo-4-methyl-
##JCAMP-DX=4.24
##DATA TYPE=INFRARED SPECTRUM
##ORIGIN=Sadtler Research Labs Under US-EPA Contract
##OWNER=NIST Standard Reference Data Program
##CAS REGISTRY NO=2432-14-6
##MOLFORM=C 7 H 6 Br 2 O
##XUNITS=1/CM
##YUNITS=ABSORBANCE
##XFACTOR=1.0
##YFACTOR=0.000075949
##DELTAX=4.0
##FIRSTX=450.0
##LASTX=3966.0
##FIRSTY=0.000000
##MAXX=3966
##MINX=450
##MAXY=0.75949
##MINY=0
##NPOINTS=880
##XYDATA=(X++(Y..Y))
450.0 0 1273 1827 1777 1723 1939 1779 1700 1742 1656
490.0 1678 1570 1626 1639 1570 1728 1581 1712 1704 1618
530.0 1695 1872 1929 2220 1463 1845 2229 2735 2089 1940
570.0 1879 1777 1754 1668 1694 1729 1596 1666 1643 1630
610.0 1659 1666 1661 1619 1623 1613 1653 1638 1594 1574
650.0 1635 1584 1656 1620 1615 1710 1733 1735 1737 1761
690.0 1757 1742 1744 2005 2107 2167 2060 1904 1799 2033
730.0 2697 3962 5084 5291 4498 3479 2763 2639 2659 2651
770.0 2873 3137 3214 3017 2371 1892 1724 1689 1603 1591
810.0 1630 1593 1616 1614 1642 1628 1669 1879 2256 2675
850.0 3162 2792 2325 1936 1687 1618 1609 1628 1601 1610
890.0 1623 1664 1733 1747 1715 1655 1602 1599 1591 1562
930.0 1588 1573 1573 1577 1584 1581 1610 1602 1642 1636
970.0 1652 1673 1681 1701 1756 1783 1834 1836 1801 1752
1010.0 1683 1614 1596 1585 1597 1589 1626 1659 1715 1710
1050.0 1732 1756 1771 1827 1810 1803 1757 1717 1725 1707
1090.0 1734 1759 1831 1883 1889 1843 1757 1663 1640 1646
1130.0 1653 1671 1728 1796 1988 2416 3099 4282 5709 6598
1170.0 6341 5031 3578 2634 2187 2056 2198 2445 2591 2643
1210.0 2627 2745 2964 3138 3222 3514 3798 3787 3397 2760
1250.0 2333 2245 2404 2853 3594 4527 5193 5111 4269 3103
1290.0 2133 1798 1708 1760 1991 2437 3204 4018 4297 4085
1330.0 3341 2698 2351 2134 1946 1744 1609 1589 1590 1596
1370.0 1637 1678 1738 1868 2013 2235 2495 2667 2735 2683
1410.0 2539 2383 2260 2127 2053 1965 1922 1870 1909 1956
1450.0 2040 2219 2571 3236 4415 6427 8713 10000 9328 7109
1490.0 4123 2505 1988 1858 1823 1815 1791 1753 1769 1731
1530.0 1731 1749 1780 1899 1981 2165 2395 2613 2729 2644
1570.0 2284 1889 1630 1538 1554 1541 1528 1536 1486 1483
1610.0 1475 1438 1456 1431 1452 1442 1455 1467 1457 1460
1650.0 1436 1423 1404 1420 1401 1408 1415 1427 1420 1418
1690.0 1443 1449 1460 1435 1442 1440 1483 1519 1581 1661
1730.0 1699 1656 1540 1501 1482 1476 1466 1470 1471 1459
1770.0 1445 1427 1401 1396 1396 1388 1379 1380 1391 1381
1810.0 1386 1384 1387 1381 1381 1381 1387 1382 1392 1392
1850.0 1396 1376 1368 1366 1388 1382 1352 1364 1376 1383
1890.0 1374 1374 1374 1373 1379 1374 1368 1367 1375 1362
1930.0 1367 1365 1362 1369 1355 1353 1349 1347 1338 1343
1970.0 1332 1337 1341 1341 1336 1339 1338 1335 1341 1344
2010.0 1341 1352 1353 1352 1353 1353 1362 1353 1361 1374
2050.0 1368 1365 1357 1343 1334 1335 1329 1327 1330 1330
2090.0 1329 1322 1326 1319 1321 1328 1324 1328 1321 1321
2130.0 1329 1336 1328 1328 1340 1335 1344 1342 1344 1347
2170.0 1343 1339 1338 1338 1341 1327 1330 1325 1319 1314
2210.0 1311 1318 1321 1320 1333 1332 1337 1331 1343 1347
2250.0 1341 1340 1338 1333 1325 1321 1323 1327 1324 1328
2290.0 1333 1328 1338 1334 1336 1343 1336 1333 1315 1328
2330.0 1323 1316 1316 1314 1314 1334 1336 1339 1326 1349
2370.0 1333 1336 1361 1371 1363 1344 1343 1333 1327 1327
2410.0 1333 1329 1328 1334 1335 1337 1341 1345 1347 1343
2450.0 1342 1341 1341 1338 1344 1347 1354 1354 1359 1359
2490.0 1362 1358 1355 1352 1352 1346 1340 1332 1328 1330
2530.0 1328 1325 1329 1340 1334 1330 1334 1333 1330 1334
2570.0 1330 1333 1322 1329 1339 1337 1336 1341 1343 1342
2610.0 1345 1342 1348 1341 1348 1354 1353 1354 1352 1347
2650.0 1339 1334 1332 1329 1325 1324 1327 1326 1326 1333
2690.0 1328 1334 1331 1330 1338 1344 1352 1348 1354 1354
2730.0 1358 1374 1391 1396 1413 1409 1401 1388 1371 1359
2770.0 1358 1352 1349 1353 1352 1352 1354 1362 1353 1356
2810.0 1359 1357 1360 1357 1373 1371 1378 1384 1403 1419
2850.0 1449 1489 1536 1596 1656 1703 1726 1733 1729 1719
2890.0 1710 1710 1704 1694 1687 1710 1745 1798 1884 2019
2930.0 2205 2355 2410 2331 2165 1966 1797 1703 1639 1605
2970.0 1580 1543 1516 1507 1519 1566 1590 1608 1623 1628
3010.0 1630 1650 1663 1682 1672 1630 1572 1546 1562 1570
3050.0 1576 1569 1570 1580 1587 1580 1544 1492 1439 1412
3090.0 1397 1380 1363 1368 1369 1373 1368 1374 1370 1354
3130.0 1352 1361 1361 1362 1368 1369 1368 1373 1367 1360
3170.0 1368 1358 1356 1356 1358 1355 1362 1359 1361 1365
3210.0 1365 1366 1367 1373 1369 1381 1368 1369 1379 1379
3250.0 1369 1379 1373 1385 1378 1419 1420 1435 1418 1399
3290.0 1399 1401 1401 1388 1390 1394 1389 1381 1378 1385
3330.0 1386 1401 1401 1399 1401 1409 1416 1420 1419 1406
3370.0 1384 1370 1354 1366 1362 1381 1389 1394 1396 1394
3410.0 1415 1415 1421 1409 1417 1405 1383 1389 1394 1379
3450.0 1401 1399 1377 1380 1371 1375 1386 1374 1381 1375
3490.0 1374 1383 1373 1394 1365 1385 1415 1395 1460 1464
3530.0 1531 1706 2006 3078 5562 7483 7831 6402 4440 3272
3570.0 2367 1878 1693 1512 1443 1406 1386 1368 1359 1353
3610.0 1348 1334 1346 1356 1352 1338 1340 1368 1358 1347
3650.0 1321 1338 1336 1348 1329 1346 1316 1357 1351 1354
3690.0 1340 1355 1362 1354 1360 1353 1338 1386 1427 1444
3730.0 1457 1438 1418 1395 1360 1344 1330 1334 1362 1347
3770.0 1342 1349 1347 1365 1361 1361 1366 1364 1376 1363
3810.0 1356 1393 1374 1414 1395 1419 1365 1398 1393 1388
3850.0 1398 1354 1355 1361 1370 1352 1328 1381 1365 1361
3890.0 1347 1371 1360 1352 1318 1331 1356 1409 1397 1423
3930.0 1423 1404 1428 1380 1373 1375 1393 1371 1388 1382
##END=
