##TITLE=Hexanenitrile, 6-amino-
##JCAMP-DX=4.24
##DATA TYPE=INFRARED SPECTRUM
##ORIGIN=Sadtler Research Labs Under US-EPA Contract
##OWNER=NIST Standard Reference Data Program
##CAS REGISTRY NO=2432-74-8
##MOLFORM=C 6 H 12 N 2
##XUNITS=1/CM
##YUNITS=ABSORBANCE
##XFACTOR=1.0
##YFACTOR=0.000078690
##DELTAX=4.0
##FIRSTX=450.0
##LASTX=3966.0
##FIRSTY=0.080342
##MAXX=3966
##MINX=450
##MAXY=0.7869
##MINY=0
##NPOINTS=880
##XYDATA=(X++(Y..Y))
450.0 1021 426 0 60 389 136 384 555 476 342
490.0 439 408 462 359 378 277 258 309 298 282
530.0 173 195 227 157 251 210 166 213 201 269
570.0 194 256 279 220 248 266 213 210 185 207
610.0 258 233 235 199 217 234 277 283 267 273
650.0 217 307 330 396 413 378 469 400 406 602
690.0 661 722 741 736 821 1038 1160 1325 1476 1594
730.0 1774 2069 1960 1895 2114 2933 2764 3119 3321 3341
770.0 3498 3408 3242 2930 2624 2393 2116 1851 1524 1282
810.0 1200 1059 961 805 786 776 689 655 642 638
850.0 542 524 535 536 511 525 447 500 453 378
890.0 436 354 338 302 330 301 287 303 285 330
930.0 351 319 320 312 321 337 330 319 334 359
970.0 306 271 292 298 326 306 316 319 336 352
1010.0 375 395 442 449 513 555 584 659 725 800
1050.0 836 913 937 960 1039 1089 1164 1189 1173 1209
1090.0 1120 1010 925 800 628 553 459 404 410 338
1130.0 324 252 228 127 151 131 118 118 100 123
1170.0 121 107 178 198 202 245 243 268 248 216
1210.0 215 197 198 175 226 204 226 229 245 223
1250.0 223 233 241 261 261 244 233 239 230 253
1290.0 288 310 419 423 476 502 493 518 504 496
1330.0 508 527 566 647 737 836 852 922 916 948
1370.0 926 906 954 900 926 884 830 759 632 529
1410.0 442 441 484 622 762 993 1176 1332 1442 1408
1450.0 1433 1422 1439 1413 1323 1229 1114 880 719 557
1490.0 397 311 215 145 150 155 78 82 75 67
1530.0 56 65 70 84 78 60 74 134 146 109
1570.0 119 147 163 200 189 224 305 364 520 562
1610.0 700 850 1004 1152 1077 1110 923 759 656 445
1650.0 475 329 283 248 237 300 297 388 451 587
1690.0 687 836 1222 1669 2067 2352 2383 2452 2076 1630
1730.0 950 455 265 161 137 128 101 96 84 75
1770.0 76 89 65 66 63 68 73 99 52 78
1810.0 57 60 68 56 71 67 62 58 42 69
1850.0 48 64 46 44 60 41 50 36 38 36
1890.0 37 35 36 29 30 33 30 37 35 43
1930.0 36 41 31 47 48 36 47 45 42 44
1970.0 40 43 46 40 41 48 49 44 45 48
2010.0 44 47 48 45 51 57 55 51 51 52
2050.0 52 51 45 47 46 47 44 45 41 42
2090.0 39 38 42 38 42 37 33 36 36 36
2130.0 35 34 32 31 33 34 35 34 33 35
2170.0 35 34 35 33 33 32 32 34 34 35
2210.0 30 30 31 37 39 49 61 90 123 171
2250.0 204 217 212 183 134 89 64 55 48 40
2290.0 32 27 25 24 22 21 15 21 31 25
2330.0 31 27 32 26 32 22 30 33 28 14
2370.0 18 25 21 23 21 18 20 23 24 26
2410.0 26 26 32 30 26 28 33 30 27 29
2450.0 26 27 23 23 24 21 22 26 29 24
2490.0 27 25 25 31 31 32 32 32 36 39
2530.0 39 41 45 43 44 46 48 49 50 54
2570.0 49 51 51 57 60 66 69 75 82 81
2610.0 85 91 95 97 103 105 107 118 122 129
2650.0 134 138 147 158 163 168 178 186 203 209
2690.0 218 225 233 233 240 242 237 239 252 265
2730.0 286 293 305 321 335 347 360 370 373 374
2770.0 376 375 386 383 388 403 421 450 479 503
2810.0 549 604 673 769 876 1043 1256 1527 1889 2325
2850.0 2840 3406 3924 4335 4642 4734 4649 4407 4034 3634
2890.0 3287 3044 2981 3120 3425 3928 4603 5409 6328 7319
2930.0 8293 9136 9887 10000 9647 8967 8123 7092 6071 4942
2970.0 3874 2981 2240 1646 1210 902 696 545 436 372
3010.0 304 279 246 221 201 180 168 148 144 136
3050.0 121 108 105 94 102 89 80 90 80 78
3090.0 79 78 71 67 67 59 60 59 63 70
3130.0 60 63 59 57 61 65 64 67 59 58
3170.0 54 53 57 59 62 58 57 62 56 48
3210.0 40 49 54 53 58 44 54 49 37 38
3250.0 26 27 35 39 47 36 26 37 24 30
3290.0 24 28 29 22 41 29 38 42 50 48
3330.0 46 71 84 104 111 94 109 92 75 79
3370.0 62 50 43 61 52 51 67 63 86 73
3410.0 87 103 114 115 133 138 143 159 158 173
3450.0 163 161 137 108 104 61 55 38 32 32
3490.0 44 31 34 32 32 37 42 44 36 17
3530.0 39 34 37 21 35 36 43 17 30 35
3570.0 37 41 40 41 51 50 68 45 59 30
3610.0 60 50 49 69 56 80 74 71 82 105
3650.0 113 156 102 128 115 166 155 151 88 81
3690.0 90 66 48 36 41 43 50 33 16 14
3730.0 29 53 46 25 61 58 34 20 14 34
3770.0 25 52 12 14 14 14 31 24 40 53
3810.0 15 38 27 83 14 30 33 44 80 33
3850.0 29 46 70 33 30 68 16 47 27 21
3890.0 20 30 50 69 90 14 17 34 47 37
3930.0 47 54 21 33 92 50 72 65 81 39
##END=
