##TITLE=Cyclohexanemethanol, 2-hydroxy-.alpha.-methyl-,
##JCAMP-DX=4.24
##DATA TYPE=INFRARED SPECTRUM
##ORIGIN=Sadtler Research Labs Under US-EPA Contract
##OWNER=NIST Standard Reference Data Program
##CAS REGISTRY NO=24337-52-8
##MOLFORM=C 8 H 16 O 2
##XUNITS=1/CM
##YUNITS=ABSORBANCE
##XFACTOR=1.0
##YFACTOR=0.000083273
##DELTAX=4.0
##FIRSTX=450.0
##LASTX=3966.0
##FIRSTY=0.000000
##MAXX=3966
##MINX=450
##MAXY=0.83273
##MINY=0
##NPOINTS=880
##XYDATA=(X++(Y..Y))
450.0 0 362 607 388 533 618 664 679 397 731
490.0 601 569 563 574 569 663 653 597 558 540
530.0 445 501 508 532 538 503 548 496 447 485
570.0 384 387 423 452 505 435 408 430 452 458
610.0 445 469 455 486 476 504 494 454 479 509
650.0 471 487 542 521 553 465 574 558 542 520
690.0 495 520 485 458 471 506 512 430 452 489
730.0 479 531 395 418 587 570 529 595 570 536
770.0 519 479 544 521 514 536 502 560 606 651
810.0 710 723 772 796 789 776 747 754 732 701
850.0 698 671 635 700 729 744 758 801 887 926
890.0 951 954 930 861 809 777 808 876 998 1138
930.0 1258 1311 1308 1189 1078 1047 1130 1326 1582 1842
970.0 2065 2067 1839 1633 1402 1243 1202 1188 1223 1239
1010.0 1230 1228 1202 1209 1254 1321 1384 1424 1451 1451
1050.0 1427 1403 1382 1375 1376 1399 1430 1488 1556 1639
1090.0 1737 1832 1895 1969 2000 2073 2100 2125 2155 2188
1130.0 2187 2153 2047 1907 1732 1545 1394 1284 1206 1175
1170.0 1181 1235 1300 1421 1512 1562 1564 1513 1415 1333
1210.0 1256 1217 1220 1250 1288 1312 1360 1397 1435 1462
1250.0 1482 1496 1488 1470 1453 1439 1439 1433 1419 1377
1290.0 1316 1277 1237 1220 1199 1188 1166 1148 1134 1139
1330.0 1160 1170 1190 1181 1167 1164 1174 1211 1256 1361
1370.0 1488 1641 1772 1871 1865 1784 1700 1581 1539 1492
1410.0 1450 1394 1276 1166 1083 1044 1090 1167 1371 1497
1450.0 1608 1653 1523 1344 1255 992 900 733 653 615
1490.0 524 537 508 516 503 486 543 481 452 470
1530.0 447 480 407 431 439 454 452 370 418 432
1570.0 423 444 415 459 443 465 444 467 459 454
1610.0 484 424 466 412 449 433 422 416 437 412
1650.0 399 368 399 435 400 410 405 428 417 412
1690.0 431 446 417 408 454 468 491 470 496 505
1730.0 471 479 440 480 471 471 478 475 464 474
1770.0 441 433 442 445 430 439 396 427 415 419
1810.0 416 405 425 405 403 394 402 417 404 403
1850.0 397 406 405 408 403 381 401 395 401 396
1890.0 396 394 401 397 404 396 405 398 400 405
1930.0 403 406 405 406 393 403 402 395 397 394
1970.0 392 391 391 385 386 385 384 384 381 384
2010.0 383 385 387 380 383 384 378 382 384 384
2050.0 384 381 380 383 381 382 381 382 378 380
2090.0 383 377 379 383 378 378 378 381 379 384
2130.0 379 378 379 377 383 380 383 381 381 382
2170.0 380 380 383 382 380 386 380 384 381 384
2210.0 384 382 382 391 383 385 388 382 382 382
2250.0 382 386 384 379 381 383 382 383 383 389
2290.0 388 383 388 385 388 379 379 371 370 362
2330.0 351 353 362 350 355 374 347 361 355 353
2370.0 378 389 391 396 400 394 393 390 389 389
2410.0 389 390 396 393 388 388 389 390 385 384
2450.0 385 381 386 387 387 388 390 392 394 394
2490.0 392 393 393 392 394 396 396 395 396 397
2530.0 400 403 404 399 401 405 403 405 412 414
2570.0 417 418 419 419 423 428 426 432 434 435
2610.0 447 441 453 457 466 470 475 483 492 503
2650.0 512 528 546 558 570 575 573 563 557 540
2690.0 533 527 523 514 515 511 503 504 504 503
2730.0 505 505 506 501 502 507 510 517 521 532
2770.0 537 546 560 561 582 596 604 624 634 650
2810.0 665 682 699 722 750 797 865 970 1148 1429
2850.0 1828 2346 2913 3356 3685 3882 3864 3757 3600 3382
2890.0 3212 3101 3081 3152 3320 3537 3828 4268 4849 5595
2930.0 6756 7996 9245 10000 9386 8045 6277 4463 3205 2603
2970.0 2414 2437 2497 2435 2162 1795 1404 1036 770 634
3010.0 566 527 502 483 478 472 464 462 463 459
3050.0 454 443 446 430 424 432 423 413 416 410
3090.0 416 413 411 413 408 411 404 400 404 396
3130.0 398 391 387 389 394 397 391 396 391 391
3170.0 391 388 393 391 403 393 395 393 389 390
3210.0 395 390 390 395 385 387 382 378 389 378
3250.0 378 378 378 376 380 381 379 370 377 373
3290.0 378 373 389 379 383 387 387 384 392 388
3330.0 390 385 382 379 372 381 381 373 374 378
3370.0 388 385 379 391 393 386 378 388 397 397
3410.0 404 400 394 408 417 410 399 412 430 416
3450.0 421 431 428 428 426 428 424 425 439 415
3490.0 426 415 440 438 448 454 447 446 449 443
3530.0 451 459 455 493 520 578 642 791 988 1196
3570.0 1505 1738 1949 2031 1983 1811 1556 1387 1095 973
3610.0 829 740 709 676 665 671 726 831 910 986
3650.0 1078 1133 1146 982 909 650 607 509 503 465
3690.0 378 471 444 434 427 401 405 442 404 414
3730.0 409 352 386 400 362 396 405 415 408 419
3770.0 430 392 440 428 418 404 423 404 414 379
3810.0 474 363 448 364 468 431 401 427 429 452
3850.0 441 431 431 447 411 450 438 403 457 441
3890.0 442 423 437 467 427 429 432 462 417 408
3930.0 438 384 442 419 422 448 436 414 461 398
##END=
