##TITLE=1,1'-Biphenyl, 2,2'-dinitro-
##JCAMP-DX=4.24
##DATA TYPE=INFRARED SPECTRUM
##ORIGIN=Sadtler Research Labs Under US-EPA Contract
##OWNER=NIST Standard Reference Data Program
##CAS REGISTRY NO=2436-96-6
##MOLFORM=C 12 H 8 N 2 O 4
##XUNITS=1/CM
##YUNITS=ABSORBANCE
##XFACTOR=1.0
##YFACTOR=0.000113870
##DELTAX=4.0
##FIRSTX=450.0
##LASTX=3966.0
##FIRSTY=0.068550
##MAXX=3966
##MINX=450
##MAXY=1.1387
##MINY=0
##NPOINTS=880
##XYDATA=(X++(Y..Y))
450.0 602 310 245 61 110 43 107 77 117 7
490.0 28 127 127 233 226 214 203 361 344 423
530.0 360 406 321 286 186 223 123 194 501 479
570.0 431 582 460 417 358 287 228 182 353 224
610.0 345 419 404 280 318 245 272 306 406 434
650.0 479 639 832 744 614 831 961 1405 1504 1278
690.0 1325 1496 1643 1597 1208 939 664 757 829 890
730.0 1041 1335 1893 2808 3612 3771 2955 2140 1522 1031
770.0 935 1321 1761 2285 1928 1026 459 185 153 149
810.0 112 146 187 272 313 304 416 517 934 1674
850.0 2543 2708 2423 1054 462 276 154 142 125 61
890.0 94 87 33 82 80 72 66 40 72 59
930.0 51 76 109 123 243 298 342 244 189 107
970.0 79 66 85 114 128 127 121 180 348 571
1010.0 479 226 123 83 98 112 104 146 187 174
1050.0 174 148 112 145 117 111 137 149 226 234
1090.0 304 411 482 491 307 216 150 107 89 100
1130.0 117 122 170 253 263 195 158 210 291 334
1170.0 242 155 123 121 96 73 85 71 70 77
1210.0 73 74 98 111 115 158 185 227 293 331
1250.0 367 417 452 490 520 548 608 695 790 958
1290.0 1072 1095 1037 975 899 897 963 1033 1211 1483
1330.0 1900 2587 3531 4872 6327 7197 6972 5592 3699 2049
1370.0 1172 728 487 415 302 279 263 217 222 176
1410.0 157 143 131 147 209 288 385 458 516 460
1450.0 444 469 555 777 966 1001 1020 1017 1153 1266
1490.0 1385 1582 1763 2065 2377 2915 3750 4463 5649 6278
1530.0 6992 8007 8867 10000 9312 7584 5588 4272 3630 3232
1570.0 2990 2660 2241 1843 1479 1277 1249 1563 1944 2028
1610.0 1756 1325 882 587 437 310 243 153 147 153
1650.0 74 90 88 149 94 105 68 110 76 52
1690.0 88 86 43 3 53 65 67 48 94 159
1730.0 129 153 137 167 152 139 140 142 129 136
1770.0 115 89 124 119 120 108 95 109 134 143
1810.0 173 197 235 262 238 198 191 160 162 136
1850.0 170 152 144 134 101 101 85 98 94 86
1890.0 95 104 126 132 133 136 135 139 173 201
1930.0 234 237 223 193 166 162 170 192 213 191
1970.0 170 138 120 108 97 88 73 78 73 64
2010.0 67 59 63 64 57 55 53 53 50 47
2050.0 45 46 42 46 40 41 43 43 41 39
2090.0 42 36 41 39 36 38 42 44 45 38
2130.0 37 35 37 39 38 40 38 33 37 35
2170.0 37 38 39 42 46 45 46 44 37 37
2210.0 38 33 38 41 40 44 39 41 38 38
2250.0 41 36 35 36 40 41 39 39 46 55
2290.0 60 67 78 80 89 104 90 83 91 92
2330.0 101 80 62 66 70 84 74 80 83 77
2370.0 83 91 88 96 88 73 64 52 47 43
2410.0 44 42 40 45 43 41 45 43 40 34
2450.0 33 31 24 18 16 14 13 19 23 30
2490.0 29 32 29 24 13 9 6 8 4 4
2530.0 5 6 3 3 3 4 9 10 9 11
2570.0 16 21 31 34 36 33 34 31 37 35
2610.0 32 31 29 26 23 20 20 16 16 21
2650.0 17 23 26 26 28 34 42 41 45 51
2690.0 51 53 53 44 40 35 31 26 24 19
2730.0 14 15 15 16 14 18 16 15 18 13
2770.0 14 18 16 24 28 27 31 26 27 34
2810.0 34 40 45 51 63 71 86 105 119 143
2850.0 164 186 213 230 234 237 233 228 224 206
2890.0 177 156 130 111 104 95 91 83 77 66
2930.0 58 46 32 31 29 20 23 21 18 19
2970.0 21 21 22 20 24 28 37 37 40 45
3010.0 47 56 61 69 89 109 131 148 164 177
3050.0 199 240 303 407 561 741 876 890 790 619
3090.0 437 300 208 157 136 121 106 88 79 67
3130.0 57 56 53 53 51 59 54 40 41 44
3170.0 37 37 36 38 38 37 39 36 33 31
3210.0 35 27 26 32 31 33 30 22 28 24
3250.0 19 27 25 28 31 30 24 24 24 28
3290.0 28 26 24 30 34 33 28 22 20 30
3330.0 39 31 35 23 31 36 33 35 26 30
3370.0 31 34 29 37 40 38 35 36 30 31
3410.0 34 37 42 36 37 34 43 44 41 36
3450.0 41 28 40 48 40 42 32 47 42 48
3490.0 32 41 39 54 31 46 33 41 39 44
3530.0 52 38 38 36 56 58 26 58 42 75
3570.0 47 49 46 49 61 55 46 68 49 39
3610.0 52 49 37 43 50 20 49 41 61 41
3650.0 31 28 43 46 33 62 2 40 33 62
3690.0 42 34 69 31 47 37 30 61 47 60
3730.0 48 5 57 14 34 6 59 36 45 41
3770.0 39 37 29 42 50 49 42 15 28 25
3810.0 14 26 29 17 32 62 30 31 56 28
3850.0 50 0 21 51 45 4 15 39 27 23
3890.0 30 47 34 62 46 55 48 40 83 46
3930.0 62 80 47 33 42 53 34 43 34 29
##END=
