##TITLE=1-Tridecene
##JCAMP-DX=4.24
##DATA TYPE=INFRARED SPECTRUM
##ORIGIN=Sadtler Research Labs Under US-EPA Contract
##OWNER=NIST Standard Reference Data Program
##CAS REGISTRY NO=2437-56-1
##MOLFORM=C 13 H 26
##XUNITS=1/CM
##YUNITS=ABSORBANCE
##XFACTOR=1.0
##YFACTOR=0.000094727
##DELTAX=4.0
##FIRSTX=450.0
##LASTX=3966.0
##FIRSTY=0.003221
##MAXX=3966
##MINX=450
##MAXY=0.94727
##MINY=0
##NPOINTS=880
##XYDATA=(X++(Y..Y))
450.0 34 45 17 10 3 0 6 19 24 33
490.0 32 39 23 25 30 30 41 58 35 21
530.0 56 34 57 71 40 37 45 54 59 51
570.0 39 39 23 31 51 52 47 24 46 46
610.0 58 101 105 123 140 116 137 100 82 71
650.0 47 43 48 62 64 72 34 69 67 48
690.0 65 62 53 98 106 143 145 172 170 160
730.0 132 153 121 112 64 82 67 57 77 102
770.0 72 83 62 50 63 55 57 50 60 44
810.0 56 39 52 55 66 71 56 56 69 76
850.0 74 72 90 94 95 109 126 128 137 158
890.0 179 231 291 414 618 869 952 764 504 337
930.0 260 216 184 179 161 157 155 141 142 159
970.0 155 181 196 239 306 355 387 363 275 224
1010.0 187 161 135 123 100 106 104 110 100 93
1050.0 78 89 82 76 82 86 86 85 75 78
1090.0 78 67 82 77 88 77 78 81 84 79
1130.0 83 76 80 74 76 72 67 62 77 82
1170.0 82 74 72 61 66 70 61 61 55 51
1210.0 56 66 60 61 66 60 66 61 72 70
1250.0 76 75 74 85 91 87 100 99 108 111
1290.0 115 135 144 151 157 152 142 137 130 125
1330.0 127 134 160 183 214 240 256 246 229 218
1370.0 213 207 193 202 195 172 133 112 103 103
1410.0 117 128 143 156 161 166 204 265 361 447
1450.0 518 582 662 701 703 620 488 339 226 147
1490.0 122 85 75 70 67 55 51 45 46 41
1530.0 34 40 40 46 39 33 29 38 25 30
1570.0 29 25 34 24 23 24 23 29 29 40
1610.0 45 48 67 77 101 122 182 280 377 388
1650.0 279 168 96 67 55 44 38 35 32 38
1690.0 28 32 38 43 49 54 72 81 52 46
1730.0 40 46 48 42 52 52 52 58 62 58
1770.0 59 68 62 62 56 46 43 36 37 37
1810.0 36 42 48 60 84 91 78 56 40 28
1850.0 19 15 15 15 15 9 5 8 6 9
1890.0 9 9 9 9 9 3 4 8 4 4
1930.0 4 4 4 4 7 3 2 3 8 8
1970.0 14 14 13 7 12 8 8 7 7 7
2010.0 9 8 7 6 12 13 13 7 12 11
2050.0 11 9 6 12 12 6 6 6 7 7
2090.0 5 6 0 6 3 1 4 0 5 5
2130.0 0 5 5 5 4 6 6 4 4 4
2170.0 7 5 5 5 9 0 5 5 0 4
2210.0 4 4 4 4 4 5 5 5 4 4
2250.0 4 11 4 11 11 10 6 12 9 6
2290.0 11 11 10 10 15 10 18 20 21 21
2330.0 20 23 27 26 26 22 27 41 43 40
2370.0 29 27 19 11 12 4 6 12 11 5
2410.0 6 7 11 11 12 12 9 8 10 7
2450.0 7 7 7 6 6 6 6 6 6 9
2490.0 13 9 12 12 13 13 17 18 18 17
2530.0 13 17 23 23 23 21 18 23 17 17
2570.0 22 22 28 28 28 34 34 34 34 37
2610.0 34 39 43 39 44 45 46 49 51 54
2650.0 55 58 60 64 70 75 76 81 80 80
2690.0 81 75 76 70 71 71 65 66 71 65
2730.0 65 76 76 81 86 81 78 82 82 85
2770.0 87 91 96 101 107 118 134 150 166 178
2810.0 195 213 242 271 309 360 419 498 623 842
2850.0 1221 1863 2752 3578 3808 3389 2745 2182 1878 1729
2890.0 1595 1531 1631 1878 2217 2654 3209 3974 5141 6972
2930.0 8933 10000 9239 7564 5642 4091 3029 2549 2501 2653
2970.0 2702 2342 1727 1264 1013 848 720 625 577 557
3010.0 517 443 370 309 267 235 215 193 189 171
3050.0 177 181 177 198 220 249 290 345 438 566
3090.0 567 413 255 170 126 104 78 79 72 63
3130.0 62 59 54 48 49 41 43 38 37 32
3170.0 43 39 33 39 30 28 32 25 27 27
3210.0 23 23 17 12 17 13 14 14 12 12
3250.0 9 14 7 12 13 2 7 13 7 7
3290.0 8 7 7 4 5 8 10 9 13 8
3330.0 9 9 8 2 13 9 8 17 13 9
3370.0 10 3 9 14 13 9 13 13 12 9
3410.0 8 8 5 3 10 10 14 14 10 9
3450.0 8 6 9 9 9 12 10 9 9 15
3490.0 5 9 9 0 4 13 6 3 10 9
3530.0 6 13 9 9 5 5 9 6 10 10
3570.0 19 23 35 30 32 26 15 16 20 16
3610.0 14 8 19 13 22 14 22 25 22 22
3650.0 26 21 21 21 10 22 13 22 16 22
3690.0 22 12 12 11 6 12 16 12 13 17
3730.0 11 11 12 12 10 21 18 6 6 6
3770.0 7 6 11 7 7 7 10 3 5 6
3810.0 13 7 12 6 13 13 12 10 8 10
3850.0 13 7 13 17 13 7 12 7 17 18
3890.0 17 16 10 9 16 17 13 13 13 14
3930.0 8 14 24 18 13 8 0 0 0 0
##END=
