##TITLE=1-Octadecanamine, N-methyl-
##JCAMP-DX=4.24
##DATA TYPE=INFRARED SPECTRUM
##ORIGIN=Sadtler Research Labs Under US-EPA Contract
##OWNER=NIST Standard Reference Data Program
##CAS REGISTRY NO=2439-55-6
##MOLFORM=C 19 H 41 N
##XUNITS=1/CM
##YUNITS=ABSORBANCE
##XFACTOR=1.0
##YFACTOR=0.000098108
##DELTAX=4.0
##FIRSTX=450.0
##LASTX=3966.0
##FIRSTY=0.009026
##MAXX=3966
##MINX=450
##MAXY=0.98108
##MINY=0
##NPOINTS=880
##XYDATA=(X++(Y..Y))
450.0 92 98 156 39 103 64 0 56 69 70
490.0 61 68 76 71 65 46 53 73 78 60
530.0 62 70 64 68 75 67 81 79 66 54
570.0 63 57 70 59 74 81 75 81 70 57
610.0 55 73 95 93 80 89 91 110 100 117
650.0 117 114 131 139 151 207 171 197 221 251
690.0 275 290 319 347 405 452 495 531 519 482
730.0 446 406 351 311 269 223 209 206 188 173
770.0 164 156 142 130 141 143 135 139 142 135
810.0 141 123 115 123 112 115 105 98 85 83
850.0 71 76 75 75 77 80 85 85 87 86
890.0 92 81 71 75 87 79 80 76 83 89
930.0 94 92 81 86 81 83 85 91 98 112
970.0 102 94 94 96 94 98 100 104 110 118
1010.0 123 132 138 150 155 166 170 174 188 192
1050.0 179 180 179 177 180 175 177 179 185 186
1090.0 193 208 215 224 239 255 285 316 350 367
1130.0 377 378 383 390 388 382 362 322 281 241
1170.0 216 193 176 156 154 142 139 133 131 133
1210.0 133 135 137 138 143 146 153 154 158 161
1250.0 173 177 199 218 211 202 211 218 222 232
1290.0 242 255 264 278 284 283 274 265 258 255
1330.0 260 278 312 343 379 423 474 488 493 484
1370.0 471 447 428 387 336 287 264 245 243 248
1410.0 262 269 293 316 340 395 491 610 750 876
1450.0 1000 1124 1264 1324 1284 1118 856 638 475 380
1490.0 319 279 261 239 237 211 185 175 182 165
1530.0 171 183 212 208 203 185 177 173 185 166
1570.0 175 163 175 165 166 173 171 171 159 150
1610.0 135 142 144 141 147 139 155 144 139 144
1650.0 139 140 131 93 100 109 99 118 109 126
1690.0 111 113 95 94 64 54 54 56 48 36
1730.0 40 20 20 2 2 3 31 26 46 53
1770.0 67 65 53 52 40 44 42 47 55 66
1810.0 59 65 67 62 69 64 66 62 64 68
1850.0 61 62 63 59 57 61 57 56 57 52
1890.0 55 53 53 52 50 49 46 53 44 46
1930.0 43 44 41 41 41 40 40 40 35 37
1970.0 37 35 32 35 36 33 33 30 31 35
2010.0 37 36 37 38 41 38 38 37 40 33
2050.0 33 33 30 30 28 29 29 28 21 23
2090.0 23 19 20 21 16 16 15 14 16 17
2130.0 12 11 12 10 11 10 9 11 9 11
2170.0 10 9 9 9 7 6 8 8 7 6
2210.0 4 4 4 1 2 3 8 6 8 9
2250.0 9 7 9 10 13 14 20 24 29 40
2290.0 49 59 73 88 93 107 103 90 98 87
2330.0 69 64 60 64 96 113 108 93 90 75
2370.0 77 82 99 106 87 63 57 57 61 64
2410.0 61 60 64 60 62 63 59 59 57 56
2450.0 56 58 57 57 58 54 56 59 60 61
2490.0 61 62 62 65 67 66 73 71 75 79
2530.0 82 89 87 90 88 90 93 94 97 102
2570.0 108 114 112 119 123 126 133 141 139 147
2610.0 152 156 162 163 171 176 183 189 196 205
2650.0 217 223 234 244 254 261 273 284 292 302
2690.0 310 310 314 312 314 318 321 332 338 345
2730.0 354 365 377 390 407 433 465 531 601 678
2770.0 747 803 860 951 1039 1140 1201 1208 1171 1126
2810.0 1092 1098 1114 1119 1146 1186 1275 1455 1770 2293
2850.0 3107 4001 4604 4704 4235 3529 2953 2566 2383 2355
2890.0 2427 2611 2901 3272 3734 4303 5044 6072 7425 8913
2930.0 10000 9968 8662 6960 5383 4194 3422 2983 2721 2505
2970.0 2242 1894 1509 1176 933 755 623 532 464 416
3010.0 377 337 312 287 267 247 229 221 204 185
3050.0 179 167 151 142 136 132 124 124 119 108
3090.0 103 94 88 84 82 79 76 71 68 62
3130.0 61 58 54 57 56 50 49 49 49 44
3170.0 48 44 43 39 39 41 32 29 30 27
3210.0 29 25 24 16 19 19 15 15 17 17
3250.0 13 12 13 13 11 14 10 10 14 13
3290.0 9 10 13 12 11 10 13 16 13 15
3330.0 19 17 18 14 13 8 14 11 11 12
3370.0 8 15 12 11 14 16 15 16 11 13
3410.0 12 4 8 12 11 3 11 12 12 10
3450.0 11 11 11 6 9 10 8 5 12 7
3490.0 13 7 5 8 6 10 5 3 7 1
3530.0 2 5 5 6 5 4 9 12 12 9
3570.0 15 8 17 7 16 21 23 16 20 22
3610.0 24 18 18 21 20 41 30 17 25 26
3650.0 27 26 28 31 21 29 23 32 18 16
3690.0 24 17 28 28 31 18 26 17 20 17
3730.0 23 30 36 17 61 16 27 20 9 25
3770.0 13 21 18 23 20 10 14 36 17 22
3810.0 12 28 11 26 29 24 26 21 17 22
3850.0 19 31 30 29 22 20 17 24 20 40
3890.0 26 39 23 38 16 26 22 27 27 17
3930.0 31 24 30 30 23 28 42 28 25 15
##END=
