##TITLE=Dibenzotellurophene
##JCAMP-DX=4.24
##DATA TYPE=INFRARED SPECTRUM
##ORIGIN=Sadtler Research Labs Under US-EPA Contract
##OWNER=NIST Standard Reference Data Program
##CAS REGISTRY NO=244-98-4
##MOLFORM=C 12 H 8 Te
##XUNITS=1/CM
##YUNITS=ABSORBANCE
##XFACTOR=1.0
##YFACTOR=0.000066644
##DELTAX=4.0
##FIRSTX=450.0
##LASTX=3966.0
##FIRSTY=0.009064
##MAXX=3966
##MINX=450
##MAXY=0.66644
##MINY=0
##NPOINTS=880
##XYDATA=(X++(Y..Y))
450.0 136 43 150 135 284 537 308 135 41 25
490.0 47 29 12 73 98 60 98 49 59 60
530.0 108 91 105 80 53 94 49 73 68 88
570.0 61 92 92 87 85 63 97 84 131 116
610.0 399 506 365 157 110 94 122 115 107 167
650.0 253 421 325 283 364 271 258 179 226 171
690.0 204 188 208 269 306 389 352 568 775 2117
730.0 4268 8138 10000 7704 4141 1830 444 258 58 162
770.0 117 114 64 45 26 22 73 48 85 43
810.0 100 103 119 162 150 139 117 127 95 131
850.0 181 224 189 176 159 121 112 92 100 61
890.0 59 59 55 61 60 74 66 93 107 142
930.0 221 281 224 144 133 108 114 124 159 158
970.0 165 150 144 128 136 164 200 321 440 769
1010.0 1275 1704 1502 1349 1742 1593 1139 926 577 455
1050.0 327 245 150 93 92 87 100 103 123 122
1090.0 126 123 124 145 182 208 207 213 202 203
1130.0 208 189 167 157 146 168 254 412 460 341
1170.0 188 102 79 70 62 49 45 69 93 115
1210.0 104 126 170 314 600 1044 1348 1065 547 246
1250.0 159 216 282 311 283 289 317 376 444 379
1290.0 278 278 233 186 175 123 115 129 151 156
1330.0 122 99 87 91 93 91 79 80 83 75
1370.0 98 129 182 216 240 239 281 396 588 785
1410.0 962 1243 1638 1992 1714 1565 1767 1360 892 652
1450.0 635 1230 1509 1149 688 251 67 36 38 21
1490.0 13 27 32 60 80 99 86 38 9 17
1530.0 21 25 28 11 83 136 264 360 425 355
1570.0 308 308 434 476 460 387 290 195 138 103
1610.0 81 104 91 124 76 89 41 48 69 75
1650.0 22 31 48 83 136 174 145 157 65 60
1690.0 70 114 117 182 177 157 109 42 67 79
1730.0 80 55 107 91 79 47 59 50 64 89
1770.0 115 161 228 261 210 163 76 69 68 120
1810.0 152 215 228 180 126 57 46 26 27 17
1850.0 34 52 96 149 171 155 115 69 57 81
1890.0 139 224 285 282 221 136 86 82 97 165
1930.0 244 301 290 213 123 65 40 34 28 26
1970.0 21 19 17 16 13 12 9 10 11 9
2010.0 13 9 15 11 12 11 11 12 11 11
2050.0 13 13 12 10 7 12 12 13 15 10
2090.0 10 6 7 5 8 7 7 9 6 5
2130.0 3 2 3 2 3 3 6 5 5 5
2170.0 10 8 8 7 7 6 5 6 5 3
2210.0 2 7 7 7 5 10 9 12 15 18
2250.0 23 25 27 30 36 38 46 58 66 79
2290.0 92 95 106 121 129 151 150 151 176 150
2330.0 136 119 102 124 166 134 170 123 160 132
2370.0 131 98 105 95 67 37 24 22 19 19
2410.0 17 19 25 26 22 23 24 24 26 26
2450.0 29 31 33 32 29 29 29 28 30 30
2490.0 32 33 32 30 23 29 36 35 38 42
2530.0 46 53 56 56 52 50 55 62 65 73
2570.0 79 90 97 100 98 91 88 83 76 71
2610.0 64 61 64 54 50 45 41 40 34 35
2650.0 37 35 38 37 37 33 34 44 43 38
2690.0 41 40 43 47 47 42 46 49 48 51
2730.0 51 58 57 55 54 52 44 42 37 42
2770.0 42 44 45 43 49 50 51 57 61 63
2810.0 64 71 70 76 80 82 88 103 120 137
2850.0 157 158 156 163 176 185 178 176 175 172
2890.0 169 177 181 191 201 214 239 267 290 302
2930.0 310 301 287 266 264 248 253 253 258 258
2970.0 258 259 256 267 285 304 334 383 423 452
3010.0 466 463 451 427 426 450 505 583 675 833
3050.0 1062 1386 1834 2445 3024 3286 3029 2311 1533 874
3090.0 475 335 279 292 314 343 346 326 269 190
3130.0 131 87 75 69 67 65 72 75 70 71
3170.0 67 62 54 51 50 41 36 37 31 35
3210.0 28 36 25 27 33 24 30 29 24 29
3250.0 28 24 31 29 22 20 28 25 18 26
3290.0 19 20 18 21 21 24 25 25 22 21
3330.0 26 32 23 21 18 20 14 19 25 19
3370.0 26 17 17 15 17 21 17 29 9 5
3410.0 15 23 13 23 12 19 16 18 12 16
3450.0 16 13 12 19 14 15 13 25 23 22
3490.0 13 23 17 31 27 19 20 14 22 26
3530.0 27 13 23 14 41 32 15 27 8 55
3570.0 45 13 10 19 35 37 34 24 28 31
3610.0 39 28 18 27 25 61 33 18 28 16
3650.0 46 28 35 27 23 51 23 58 30 54
3690.0 22 47 14 32 39 28 53 53 65 71
3730.0 45 60 73 60 45 11 29 23 27 28
3770.0 10 40 9 2 18 20 22 17 26 28
3810.0 26 53 19 50 30 21 19 28 29 18
3850.0 11 16 21 15 25 22 2 6 41 39
3890.0 24 26 22 46 44 23 25 38 30 22
3930.0 33 18 20 32 42 44 19 0 42 48
##END=
