##TITLE=2H-1-Benzopyran-2-one, 3-methyl-
##JCAMP-DX=4.24
##DATA TYPE=INFRARED SPECTRUM
##ORIGIN=Sadtler Research Labs Under US-EPA Contract
##OWNER=NIST Standard Reference Data Program
##CAS REGISTRY NO=2445-82-1
##MOLFORM=C 10 H 8 O 2
##XUNITS=1/CM
##YUNITS=ABSORBANCE
##XFACTOR=1.0
##YFACTOR=0.000150699
##DELTAX=4.0
##FIRSTX=450.0
##LASTX=3966.0
##FIRSTY=0.031195
##MAXX=3966
##MINX=450
##MAXY=1.50699
##MINY=0
##NPOINTS=880
##XYDATA=(X++(Y..Y))
450.0 207 90 120 30 87 66 106 67 44 62
490.0 88 62 49 85 47 66 63 77 67 83
530.0 80 70 74 48 72 77 64 99 162 171
570.0 188 182 100 49 36 73 60 123 188 222
610.0 199 198 131 67 40 36 45 28 44 37
650.0 44 43 39 47 33 69 41 51 32 47
690.0 29 29 39 43 73 88 181 217 308 460
730.0 390 441 649 897 1069 1631 1554 910 808 463
770.0 234 117 69 56 40 50 37 45 22 27
810.0 12 1 0 12 21 44 70 115 189 229
850.0 275 290 183 130 95 64 45 39 63 79
890.0 129 183 234 349 370 345 396 367 338 330
930.0 273 221 248 207 152 124 99 78 76 77
970.0 95 112 151 213 315 491 726 924 951 888
1010.0 665 395 250 211 213 261 365 509 731 1017
1050.0 1356 1747 2063 2216 1987 1581 987 478 220 145
1090.0 110 106 106 121 151 196 312 361 346 389
1130.0 333 235 222 217 222 206 186 187 236 471
1170.0 880 1170 1209 1109 726 319 179 163 158 162
1210.0 196 235 291 399 545 602 615 624 488 428
1250.0 399 357 266 131 91 135 195 278 401 458
1290.0 456 442 369 266 236 259 280 328 313 283
1330.0 218 160 149 121 96 108 138 181 264 270
1370.0 267 263 210 129 125 108 107 119 79 89
1410.0 82 86 165 158 179 186 270 281 386 500
1450.0 698 777 921 773 604 403 314 268 281 346
1490.0 370 322 267 189 211 206 162 171 203 141
1530.0 146 122 132 179 135 93 102 177 132 121
1570.0 150 189 205 256 249 300 319 407 517 725
1610.0 919 903 923 688 523 393 464 488 448 392
1650.0 366 284 123 138 120 141 178 134 219 200
1690.0 203 167 268 232 286 298 362 507 504 636
1730.0 784 1318 1794 2395 3264 5144 8449 9408 10000 9481
1770.0 5791 2458 1092 767 498 383 313 228 213 124
1810.0 173 134 138 118 132 114 87 103 115 161
1850.0 129 125 91 96 86 98 62 51 58 43
1890.0 61 48 66 62 81 76 68 66 61 50
1930.0 41 76 69 85 66 45 27 19 24 24
1970.0 30 17 26 14 16 24 21 15 9 18
2010.0 6 18 15 18 6 17 16 20 31 30
2050.0 36 33 46 46 48 36 37 35 31 37
2090.0 35 39 34 40 37 45 49 47 47 38
2130.0 39 20 24 17 20 18 18 18 13 21
2170.0 21 31 29 35 29 26 21 19 19 17
2210.0 21 18 17 13 18 16 16 18 13 11
2250.0 7 7 0 7 10 16 13 16 14 14
2290.0 19 19 28 22 29 28 23 23 20 24
2330.0 12 17 14 28 22 29 12 17 30 17
2370.0 28 29 28 16 21 16 15 13 14 14
2410.0 11 16 14 18 14 19 15 15 14 15
2450.0 18 15 21 17 21 26 35 37 37 36
2490.0 27 22 16 18 12 16 16 21 22 21
2530.0 26 21 28 22 22 19 18 19 12 15
2570.0 15 14 10 14 13 13 16 18 19 16
2610.0 21 13 15 10 13 11 14 13 12 11
2650.0 11 15 11 15 13 14 14 16 15 14
2690.0 15 12 13 9 12 11 14 12 13 15
2730.0 12 16 15 18 17 22 19 20 18 15
2770.0 12 10 15 12 18 13 19 16 22 23
2810.0 23 31 28 31 26 30 27 32 35 40
2850.0 50 56 70 74 81 76 73 64 62 67
2890.0 69 83 82 97 94 98 96 98 110 141
2930.0 214 290 304 296 259 168 117 111 120 134
2970.0 165 170 174 203 217 212 206 197 156 121
3010.0 103 91 103 123 169 219 281 313 330 328
3050.0 294 266 240 238 237 272 312 338 348 326
3090.0 274 213 153 97 72 56 53 44 40 34
3130.0 23 29 20 20 17 26 15 18 13 15
3170.0 15 12 14 7 13 9 11 12 15 12
3210.0 12 13 7 17 13 16 7 9 6 14
3250.0 14 10 16 10 13 15 19 10 10 13
3290.0 15 16 15 19 12 15 15 13 11 14
3330.0 14 16 19 13 20 18 21 16 17 22
3370.0 20 24 23 18 16 20 17 28 20 23
3410.0 22 16 13 7 19 13 18 19 23 13
3450.0 14 17 19 24 22 30 26 41 55 78
3490.0 102 120 121 104 86 62 48 29 29 13
3530.0 3 10 5 13 4 6 6 9 14 3
3570.0 6 10 15 17 10 10 11 5 14 7
3610.0 6 9 15 18 10 12 11 20 13 19
3650.0 11 7 22 5 23 2 26 2 23 10
3690.0 18 17 12 26 10 18 10 20 10 15
3730.0 20 14 16 14 7 16 19 16 18 12
3770.0 26 9 9 22 15 27 14 6 9 16
3810.0 26 4 18 1 22 17 32 14 20 14
3850.0 11 30 18 18 6 13 11 17 15 26
3890.0 13 16 22 2 28 28 34 18 30 10
3930.0 14 9 28 31 12 20 4 21 5 23
##END=
