##TITLE=Cycloheptane, chloro-
##JCAMP-DX=4.24
##DATA TYPE=INFRARED SPECTRUM
##ORIGIN=Sadtler Research Labs Under US-EPA Contract
##OWNER=NIST Standard Reference Data Program
##CAS REGISTRY NO=2453-46-5
##MOLFORM=C 7 H 13 Cl
##XUNITS=1/CM
##YUNITS=ABSORBANCE
##XFACTOR=1.0
##YFACTOR=0.000104233
##DELTAX=4.0
##FIRSTX=450.0
##LASTX=3966.0
##FIRSTY=0.005420
##MAXX=3966
##MINX=450
##MAXY=1.04233
##MINY=0
##NPOINTS=880
##XYDATA=(X++(Y..Y))
450.0 52 33 16 19 21 24 26 29 32 34
490.0 37 40 43 53 18 15 12 9 4 42
530.0 32 44 97 78 57 53 67 49 107 77
570.0 100 53 64 52 82 0 5 7 8 8
610.0 45 38 59 44 98 120 157 201 260 270
650.0 274 210 131 96 81 74 114 142 156 173
690.0 191 203 218 234 278 286 298 295 310 321
730.0 355 437 554 654 697 686 588 523 398 372
770.0 355 346 295 271 171 108 113 100 111 127
810.0 172 210 247 293 313 343 336 346 339 315
850.0 288 263 235 196 165 115 115 82 98 100
890.0 119 136 164 168 191 200 213 244 271 324
930.0 356 402 444 450 440 400 348 242 180 130
970.0 106 100 113 127 152 198 222 246 240 228
1010.0 201 174 162 154 129 111 86 68 66 56
1050.0 51 39 45 43 35 44 35 41 34 40
1090.0 39 41 48 59 73 81 95 100 103 99
1130.0 104 94 85 83 86 99 93 122 134 150
1170.0 155 154 146 134 140 132 162 185 225 251
1210.0 271 277 285 316 401 545 664 746 734 633
1250.0 482 331 236 190 191 210 262 317 377 401
1290.0 393 342 269 201 146 120 104 106 110 131
1330.0 146 169 209 256 298 337 364 345 305 230
1370.0 182 139 108 87 68 64 55 54 48 63
1410.0 67 83 107 147 203 277 396 542 774 985
1450.0 1158 1280 1377 1406 1299 1051 803 594 408 275
1490.0 180 119 91 71 60 44 45 40 37 33
1530.0 28 28 23 22 24 18 23 24 17 18
1570.0 13 14 12 12 11 11 15 13 17 12
1610.0 12 13 10 11 15 15 11 14 10 16
1650.0 14 16 17 11 13 16 20 18 23 20
1690.0 21 31 31 44 47 65 78 94 101 99
1730.0 91 80 63 58 63 56 46 38 36 31
1770.0 26 28 24 24 21 18 16 15 15 11
1810.0 14 13 12 11 11 10 6 7 7 13
1850.0 11 8 10 12 8 9 9 9 11 7
1890.0 6 5 8 5 12 5 7 5 9 9
1930.0 8 10 6 8 6 9 10 13 11 13
1970.0 10 10 11 11 11 13 13 13 15 13
2010.0 14 14 12 14 14 13 6 15 16 17
2050.0 17 11 10 8 6 3 6 13 14 13
2090.0 13 15 15 15 12 13 12 15 16 14
2130.0 20 15 18 17 17 17 22 26 24 27
2170.0 25 24 26 33 29 33 31 31 30 28
2210.0 28 31 31 29 26 23 20 17 18 16
2250.0 15 14 12 15 10 15 13 12 17 18
2290.0 16 16 12 14 5 5 5 4 6 6
2330.0 6 6 7 7 8 6 8 13 11 11
2370.0 9 6 6 16 27 26 21 26 26 22
2410.0 26 26 22 26 25 29 28 23 25 25
2450.0 30 27 31 29 27 29 29 29 27 18
2490.0 24 27 24 22 22 23 28 26 29 32
2530.0 39 38 37 35 39 40 41 44 48 49
2570.0 48 46 48 53 48 50 48 53 56 51
2610.0 56 54 61 54 59 61 64 72 71 80
2650.0 77 84 91 107 117 125 130 137 148 156
2690.0 159 167 169 167 160 152 145 130 119 112
2730.0 102 93 93 82 78 78 79 79 85 87
2770.0 94 97 109 119 128 137 154 174 194 206
2810.0 220 223 236 238 239 261 288 338 439 598
2850.0 862 1250 1727 2277 2723 2909 2836 2569 2215 1839
2890.0 1561 1457 1507 1699 1980 2380 2964 3778 4832 6206
2930.0 7892 9235 9838 10000 9698 8680 7328 6326 4967 3461
2970.0 2395 1592 1028 666 458 348 277 234 191 164
3010.0 153 133 131 115 120 106 109 101 93 82
3050.0 78 76 72 80 55 57 56 56 50 59
3090.0 60 57 54 50 48 48 55 44 53 48
3130.0 44 49 46 42 51 51 43 41 50 45
3170.0 45 49 53 44 47 42 38 50 40 31
3210.0 42 48 46 48 45 32 40 33 40 30
3250.0 48 43 43 39 34 36 35 46 46 44
3290.0 41 41 39 34 47 31 37 30 48 42
3330.0 30 35 33 41 51 46 34 43 34 43
3370.0 37 25 19 19 33 34 52 45 40 22
3410.0 40 43 57 36 42 25 48 48 32 38
3450.0 53 41 37 38 34 26 24 30 34 30
3490.0 33 31 30 36 28 35 32 18 23 8
3530.0 20 40 22 17 52 46 36 16 26 25
3570.0 13 42 18 29 17 39 9 13 45 51
3610.0 69 54 34 29 26 29 7 19 11 18
3650.0 39 23 46 23 53 35 31 49 53 43
3690.0 19 37 18 8 43 13 34 29 30 46
3730.0 33 8 38 46 45 14 69 25 19 36
3770.0 44 55 60 58 63 30 31 49 52 14
3810.0 43 45 76 15 36 63 49 50 54 27
3850.0 26 24 38 49 39 34 58 57 77 66
3890.0 58 26 75 55 21 66 33 55 34 45
3930.0 54 37 83 71 40 66 86 42 47 41
##END=
