##TITLE=Benzenamine, 2-ethyl-6-methyl-
##JCAMP-DX=4.24
##DATA TYPE=INFRARED SPECTRUM
##ORIGIN=Sadtler Research Labs Under US-EPA Contract
##OWNER=NIST Standard Reference Data Program
##CAS REGISTRY NO=24549-06-2
##MOLFORM=C 9 H 13 N
##XUNITS=1/CM
##YUNITS=ABSORBANCE
##XFACTOR=1.0
##YFACTOR=0.000104697
##DELTAX=4.0
##FIRSTX=450.0
##LASTX=3966.0
##FIRSTY=0.048998
##MAXX=3966
##MINX=450
##MAXY=1.04697
##MINY=0
##NPOINTS=880
##XYDATA=(X++(Y..Y))
450.0 468 344 346 340 364 387 294 479 174 18
490.0 56 0 18 91 64 111 125 140 231 301
530.0 345 346 299 236 123 80 99 166 132 192
570.0 275 339 365 394 408 510 527 575 639 704
610.0 756 824 907 965 1069 1123 1252 1326 1443 1494
650.0 1561 1586 1592 1587 1577 1586 1557 1538 1497 1511
690.0 1470 1439 1369 1345 1302 1287 1312 1489 1805 2298
730.0 3018 3968 5112 5813 5842 5862 5273 4652 4251 4142
770.0 3537 2646 2194 1737 1411 1216 1112 1071 996 961
810.0 921 869 834 822 827 826 752 658 589 480
850.0 369 335 365 420 472 531 539 520 451 374
890.0 319 285 265 257 248 237 249 249 245 248
930.0 266 293 325 352 398 485 447 491 530 545
970.0 563 596 598 609 639 697 733 715 665 577
1010.0 467 390 364 381 419 502 618 752 893 1030
1050.0 1167 1287 1314 1266 1168 1020 865 774 782 852
1090.0 1031 1308 1605 1748 1757 1638 1338 963 684 559
1130.0 530 564 607 602 559 470 393 366 356 340
1170.0 310 257 188 144 148 157 200 252 355 506
1210.0 695 813 839 834 755 646 611 625 679 781
1250.0 978 1345 1999 2799 3405 3634 3629 3175 2344 1680
1290.0 1345 1142 1020 1004 1022 1053 1034 972 858 735
1330.0 627 542 479 430 422 420 424 408 417 422
1370.0 484 592 746 864 865 764 624 485 423 409
1410.0 432 480 582 756 1057 1605 2392 3246 3956 4689
1450.0 5365 5783 6215 6702 7350 7778 7838 7403 6521 5496
1490.0 4390 3214 2089 1306 916 699 593 543 522 502
1530.0 491 485 475 476 447 446 438 460 471 481
1570.0 517 553 602 672 783 931 1141 1432 1854 2458
1610.0 3251 4304 5546 6697 7286 7260 6785 5598 4266 3061
1650.0 2218 1660 1283 1027 859 719 604 520 462 424
1690.0 369 341 324 295 262 239 232 216 197 184
1730.0 183 178 166 156 151 140 133 121 125 134
1770.0 163 201 236 265 258 256 219 164 133 110
1810.0 99 97 101 127 179 275 358 394 383 330
1850.0 242 140 99 88 88 97 109 139 191 263
1890.0 344 373 363 349 276 189 146 123 124 114
1930.0 109 98 84 75 68 63 57 52 48 42
1970.0 43 42 42 41 40 38 37 37 40 41
2010.0 42 39 40 38 37 35 34 37 41 42
2050.0 42 40 45 48 43 40 42 45 52 55
2090.0 65 63 64 60 56 55 48 44 41 41
2130.0 42 36 36 32 30 27 20 17 15 17
2170.0 23 19 19 21 19 16 15 14 12 12
2210.0 7 10 10 11 13 16 15 19 22 25
2250.0 29 34 34 37 40 40 37 42 43 45
2290.0 44 50 52 57 66 74 71 68 70 61
2330.0 57 42 37 37 21 40 67 52 32 2
2370.0 2 2 2 2 2 2 2 2 2 4
2410.0 6 15 27 36 50 64 71 67 61 43
2450.0 34 28 31 38 43 45 48 52 53 44
2490.0 33 24 16 16 14 14 21 27 28 31
2530.0 41 46 49 56 58 58 57 53 47 48
2570.0 46 43 43 42 44 49 46 53 59 73
2610.0 81 91 101 111 115 120 115 103 89 82
2650.0 67 65 59 58 47 42 42 37 42 46
2690.0 53 53 58 64 67 70 74 82 95 124
2730.0 166 232 300 338 340 319 263 211 170 164
2770.0 173 182 198 212 224 246 259 266 284 302
2810.0 325 353 384 423 476 547 641 769 961 1212
2850.0 1520 1981 2631 3377 4071 4708 5284 5584 5639 5570
2890.0 5236 4786 4349 4037 3922 4052 4352 4732 5083 5391
2930.0 5650 5880 6103 6266 6175 5783 5426 5338 5916 7393
2970.0 9145 10000 9720 8502 6039 3974 2620 1772 1348 1205
3010.0 1264 1527 2041 2748 3311 3577 3601 3375 2998 2775
3050.0 2793 2811 2843 2793 2674 2544 2426 2270 2079 1840
3090.0 1550 1249 965 713 511 383 311 262 247 228
3130.0 208 195 190 186 188 188 200 193 204 204
3170.0 199 184 184 174 172 163 164 166 156 161
3210.0 161 160 158 141 132 128 106 95 90 93
3250.0 80 75 64 72 70 69 66 72 57 59
3290.0 58 54 51 49 69 63 54 59 53 43
3330.0 59 58 45 48 46 55 47 50 65 48
3370.0 75 63 59 79 89 107 136 177 267 386
3410.0 531 627 668 670 607 476 346 265 202 178
3450.0 162 163 157 171 219 256 333 472 649 935
3490.0 1280 1586 1756 1706 1517 1205 849 593 424 320
3530.0 249 207 156 127 113 107 101 68 75 75
3570.0 63 56 64 47 62 47 52 42 53 32
3610.0 47 33 26 8 19 10 22 35 31 33
3650.0 18 2 23 9 24 13 20 12 18 28
3690.0 27 12 17 20 14 25 21 15 15 12
3730.0 11 16 13 26 31 22 21 28 33 38
3770.0 15 28 28 22 2 16 36 47 34 10
3810.0 34 6 27 10 1 21 9 15 39 46
3850.0 65 53 54 65 57 50 68 56 57 101
3890.0 56 52 86 57 61 50 30 64 90 98
3930.0 51 50 49 63 48 56 26 31 49 42
##END=
