##TITLE=Benzenamine, 2,6-bis(1-methylethyl)-
##JCAMP-DX=4.24
##DATA TYPE=INFRARED SPECTRUM
##ORIGIN=Sadtler Research Labs Under US-EPA Contract
##OWNER=NIST Standard Reference Data Program
##CAS REGISTRY NO=24544-04-5
##MOLFORM=C 12 H 19 N
##XUNITS=1/CM
##YUNITS=ABSORBANCE
##XFACTOR=1.0
##YFACTOR=0.000107510
##DELTAX=4.0
##FIRSTX=450.0
##LASTX=3966.0
##FIRSTY=0.024405
##MAXX=3966
##MINX=450
##MAXY=1.0751
##MINY=0
##NPOINTS=880
##XYDATA=(X++(Y..Y))
450.0 227 96 184 49 142 50 70 103 220 165
490.0 208 86 206 165 255 336 154 308 209 385
530.0 368 260 168 121 99 214 292 160 24 195
570.0 124 117 87 123 186 139 143 144 137 249
610.0 186 193 205 208 224 261 251 268 298 230
650.0 236 276 214 229 243 235 203 150 162 160
690.0 124 130 134 138 132 139 73 57 175 385
730.0 729 1139 1655 2085 2154 1516 1042 689 470 393
770.0 349 392 411 444 547 571 459 352 242 238
810.0 190 288 305 198 180 177 120 114 67 64
850.0 109 112 128 95 91 114 145 129 178 193
890.0 160 131 148 128 129 212 218 237 251 226
930.0 190 164 159 117 164 171 158 162 147 133
970.0 151 123 138 123 123 135 135 135 149 139
1010.0 148 145 153 185 207 236 264 375 499 619
1050.0 734 843 867 776 623 488 422 458 499 588
1090.0 649 715 704 634 638 554 497 459 387 320
1130.0 259 245 259 222 237 227 188 195 240 311
1170.0 279 228 171 137 187 167 195 222 230 268
1210.0 294 295 297 263 254 238 247 296 347 472
1250.0 609 984 1499 1855 1767 1283 709 443 337 292
1290.0 280 300 347 361 384 384 367 370 357 370
1330.0 400 433 534 657 809 924 992 1058 1044 1084
1370.0 1078 921 713 719 800 827 713 480 313 284
1410.0 299 338 394 502 638 926 1293 1790 2308 2658
1450.0 2840 2809 2526 2229 1975 1718 1510 1268 1005 779
1490.0 579 461 437 453 437 365 255 249 208 205
1530.0 176 156 170 158 146 120 139 173 197 164
1570.0 183 205 240 247 281 321 376 424 532 691
1610.0 931 1288 1678 2112 2306 2343 2072 1592 1251 815
1650.0 657 505 371 312 284 245 253 204 225 242
1690.0 203 182 162 152 95 85 79 77 67 33
1730.0 51 48 52 30 27 33 29 28 36 34
1770.0 40 56 34 40 43 60 70 67 44 39
1810.0 25 25 20 20 32 40 43 77 121 166
1850.0 136 105 65 35 36 26 33 22 28 38
1890.0 58 88 108 108 103 64 40 26 17 8
1930.0 6 7 5 3 5 2 5 5 8 7
1970.0 4 0 1 3 3 0 3 2 5 3
2010.0 0 1 0 1 4 6 2 1 3 0
2050.0 0 0 1 6 4 1 5 5 8 11
2090.0 5 12 11 7 9 8 9 10 8 8
2130.0 6 5 10 10 11 10 13 13 12 13
2170.0 12 14 15 17 17 14 14 15 16 14
2210.0 14 18 16 19 18 18 22 22 24 28
2250.0 29 34 29 35 41 42 39 35 33 28
2290.0 23 21 13 14 10 0 10 16 18 23
2330.0 32 41 48 52 35 39 34 47 57 37
2370.0 35 41 35 33 35 45 57 56 55 61
2410.0 58 58 56 54 55 53 51 51 52 57
2450.0 58 59 61 64 65 62 64 59 55 56
2490.0 53 54 54 51 49 52 49 49 49 50
2530.0 50 52 51 54 58 67 69 76 79 79
2570.0 87 90 90 94 98 94 92 83 80 78
2610.0 71 76 73 73 73 75 74 79 85 89
2650.0 93 95 97 103 104 102 102 102 101 103
2690.0 105 108 114 108 105 105 105 118 137 154
2730.0 157 154 144 136 124 114 115 116 132 151
2770.0 154 151 137 136 131 138 146 158 168 181
2810.0 203 227 247 263 270 285 294 307 329 367
2850.0 424 503 603 758 999 1401 1979 2616 3046 3061
2890.0 2786 2473 2281 2227 2243 2254 2227 2199 2255 2406
2930.0 2685 3041 3424 3735 3878 3910 4065 4856 6635 8756
2970.0 10000 9551 7321 4781 2820 1633 1039 749 600 530
3010.0 485 482 486 503 555 622 691 751 784 789
3050.0 776 743 726 759 842 963 1081 1133 1065 894
3090.0 663 455 307 215 169 147 135 129 118 119
3130.0 115 113 113 110 110 114 109 113 116 119
3170.0 125 131 140 136 143 139 131 131 122 118
3210.0 110 108 108 107 104 94 99 98 87 87
3250.0 78 74 70 59 62 57 52 50 49 53
3290.0 50 40 41 40 41 39 36 44 38 30
3330.0 30 33 29 31 34 32 38 39 35 38
3370.0 35 29 40 39 45 49 51 76 90 111
3410.0 122 156 180 174 172 149 115 85 77 65
3450.0 56 53 63 66 84 101 121 170 232 316
3490.0 452 575 635 624 552 455 360 275 189 127
3530.0 109 87 75 63 44 38 40 30 43 15
3570.0 29 27 31 26 18 14 16 20 14 18
3610.0 18 19 19 16 14 31 15 20 3 13
3650.0 15 30 11 18 9 11 35 11 16 10
3690.0 32 30 14 24 27 21 25 14 21 12
3730.0 27 37 22 49 31 56 31 34 19 34
3770.0 28 9 29 27 27 24 13 41 41 68
3810.0 32 40 32 68 44 49 73 77 64 67
3850.0 50 92 74 32 27 35 62 52 39 65
3890.0 58 52 29 34 29 45 45 52 37 30
3930.0 29 38 35 53 25 27 50 33 37 48
##END=
