##TITLE=Benzenamine, 2,6-diethyl-4-methyl-
##JCAMP-DX=4.24
##DATA TYPE=INFRARED SPECTRUM
##ORIGIN=Sadtler Research Labs Under US-EPA Contract
##OWNER=NIST Standard Reference Data Program
##CAS REGISTRY NO=24544-08-9
##MOLFORM=C 11 H 17 N
##XUNITS=1/CM
##YUNITS=ABSORBANCE
##XFACTOR=1.0
##YFACTOR=0.000071997
##DELTAX=4.0
##FIRSTX=450.0
##LASTX=3966.0
##FIRSTY=0.261637
##MAXX=3966
##MINX=450
##MAXY=0.71997
##MINY=0
##NPOINTS=880
##XYDATA=(X++(Y..Y))
450.0 3634 1525 117 902 337 430 673 301 594 1042
490.0 154 524 538 266 306 234 384 206 509 337
530.0 443 278 466 417 417 423 398 428 293 438
570.0 245 291 408 501 301 431 411 428 394 413
610.0 507 464 548 546 494 504 585 569 596 588
650.0 620 628 556 625 562 579 525 554 476 520
690.0 463 436 414 413 417 366 390 375 416 339
730.0 406 438 502 489 527 571 597 629 622 584
770.0 403 341 514 393 452 444 526 540 595 566
810.0 549 461 422 382 328 348 285 345 406 666
850.0 1074 1520 2215 2216 1511 1167 713 482 397 360
890.0 359 313 351 334 346 309 344 379 397 423
930.0 417 420 365 378 340 369 360 436 471 488
970.0 499 516 494 453 435 396 393 371 393 374
1010.0 364 379 397 408 429 468 508 585 694 885
1050.0 1094 1274 1328 1248 1059 805 627 500 451 410
1090.0 389 363 358 353 346 357 346 357 358 389
1130.0 401 463 520 609 686 789 841 813 729 571
1170.0 438 336 300 275 269 259 276 282 327 358
1210.0 417 542 718 957 1124 1199 1148 1020 862 755
1250.0 714 732 827 968 1132 1245 1383 1570 1839 2035
1290.0 2022 1848 1472 1119 924 849 800 758 708 643
1330.0 576 539 532 540 550 535 520 482 477 482
1370.0 545 657 805 887 817 719 591 519 478 499
1410.0 520 559 596 640 689 753 865 972 1183 1480
1450.0 2009 2646 3369 3996 4557 5095 5650 5987 5634 4867
1490.0 3671 2397 1468 1029 850 739 676 623 568 507
1530.0 458 429 417 401 383 398 404 424 429 447
1570.0 456 493 523 581 661 794 975 1206 1446 1654
1610.0 1768 1872 2031 2317 2655 2790 2631 2143 1568 1071
1650.0 768 581 462 381 327 296 259 236 215 212
1690.0 205 194 181 173 175 175 181 176 186 209
1730.0 258 336 397 416 377 305 218 183 159 165
1770.0 170 162 146 127 102 88 86 82 73 65
1810.0 65 72 70 66 70 70 66 69 60 65
1850.0 66 74 66 72 62 64 59 48 62 59
1890.0 62 62 66 62 70 70 67 70 59 64
1930.0 64 65 62 66 62 54 52 53 50 48
1970.0 48 43 49 42 42 39 41 44 41 41
2010.0 44 56 54 59 50 61 58 57 46 44
2050.0 43 38 36 28 33 33 29 27 25 20
2090.0 21 17 14 14 14 22 14 18 16 19
2130.0 14 11 10 14 14 5 6 7 16 7
2170.0 5 3 14 11 2 5 9 12 5 6
2210.0 8 11 16 13 12 17 18 14 15 12
2250.0 14 17 15 15 15 13 15 15 20 22
2290.0 30 31 28 33 38 37 28 21 15 9
2330.0 13 0 17 28 34 26 19 22 27 45
2370.0 63 85 83 79 60 48 40 40 29 31
2410.0 33 35 38 34 45 51 57 54 54 54
2450.0 52 47 40 46 43 44 40 34 35 42
2490.0 47 46 42 48 54 56 62 69 71 67
2530.0 68 68 72 85 75 74 75 71 66 65
2570.0 60 62 63 71 67 81 92 85 100 90
2610.0 91 91 97 91 102 101 110 113 106 99
2650.0 87 92 76 72 70 74 73 76 80 84
2690.0 99 91 88 89 96 98 98 106 136 159
2730.0 189 241 285 307 301 266 223 192 202 202
2770.0 209 217 243 243 256 270 287 306 325 348
2810.0 380 402 415 472 515 586 692 828 989 1198
2850.0 1433 1697 2047 2526 3217 3995 4782 5341 5586 5427
2890.0 4947 4313 3758 3406 3287 3410 3705 4183 4810 5479
2930.0 5977 6306 6461 6448 6155 5640 5138 4983 5682 7356
2970.0 9313 10000 9176 7012 4540 3105 2482 2393 2566 2880
3010.0 3063 3026 2711 2292 1909 1657 1496 1370 1267 1155
3050.0 1040 934 830 726 651 581 520 454 412 368
3090.0 344 325 288 258 243 237 216 205 198 194
3130.0 180 187 181 187 189 179 187 182 178 168
3170.0 132 133 116 107 87 81 85 85 92 79
3210.0 77 81 80 93 80 82 85 95 88 69
3250.0 49 65 63 39 42 29 49 35 52 42
3290.0 23 44 27 20 34 16 45 33 48 39
3330.0 24 10 33 28 45 39 19 39 50 16
3370.0 28 46 71 44 53 59 93 122 180 222
3410.0 281 308 267 239 215 165 116 123 124 107
3450.0 50 84 77 142 159 190 323 456 592 688
3490.0 835 799 736 561 467 343 239 169 146 123
3530.0 106 89 66 75 58 89 40 54 60 74
3570.0 60 52 50 55 66 52 46 65 68 36
3610.0 34 52 35 63 61 73 71 26 45 50
3650.0 56 78 76 55 29 34 56 50 58 51
3690.0 61 49 62 58 51 82 94 66 27 49
3730.0 98 72 105 51 75 77 83 91 88 57
3770.0 57 59 68 81 54 70 39 70 71 76
3810.0 53 47 88 40 49 62 80 18 56 48
3850.0 55 52 64 31 80 30 26 92 72 52
3890.0 63 16 103 23 69 21 49 54 130 110
3930.0 125 59 121 74 60 152 104 93 21 115
##END=
