##TITLE=Phenyl .beta.-chloropropionate
##JCAMP-DX=4.24
##DATA TYPE=INFRARED SPECTRUM
##ORIGIN=Sadtler Research Labs Under US-EPA Contract
##OWNER=NIST Standard Reference Data Program
##CAS REGISTRY NO=24552-27-0
##MOLFORM=C 9 H 9 Cl O 2
##XUNITS=1/CM
##YUNITS=ABSORBANCE
##XFACTOR=1.0
##YFACTOR=0.000123123
##DELTAX=4.0
##FIRSTX=450.0
##LASTX=3966.0
##FIRSTY=0.000000
##MAXX=3966
##MINX=450
##MAXY=1.23123
##MINY=0
##NPOINTS=880
##XYDATA=(X++(Y..Y))
450.0 0 105 153 142 121 197 147 214 146 212
490.0 223 456 564 396 201 223 381 381 252 264
530.0 358 326 274 251 222 195 183 232 198 222
570.0 193 149 226 157 182 199 201 183 196 192
610.0 224 205 215 191 214 254 201 215 235 224
650.0 211 249 314 370 449 625 758 989 1301 1571
690.0 1683 1470 1126 758 532 451 400 400 390 470
730.0 546 744 936 1053 1102 1124 935 854 662 575
770.0 519 457 427 469 512 577 614 590 629 670
810.0 644 603 601 561 506 378 326 270 270 250
850.0 244 236 285 267 272 240 220 260 266 271
890.0 297 348 329 363 402 453 489 555 615 677
930.0 809 846 813 694 594 555 545 537 457 407
970.0 387 342 333 304 287 290 271 299 329 395
1010.0 401 381 408 537 695 677 543 397 326 306
1050.0 302 314 338 370 403 405 433 421 404 401
1090.0 428 475 557 674 806 1037 1357 1781 2347 3269
1130.0 4268 5130 5415 5112 4608 3985 3462 3543 4100 4031
1170.0 3407 2722 2834 3860 5057 6535 8791 9888 10000 7589
1210.0 5185 3982 3462 3245 3017 2661 2158 1699 1444 1291
1250.0 1227 1186 1244 1304 1312 1226 1016 843 767 745
1290.0 744 762 775 821 855 844 801 712 639 646
1330.0 765 926 1070 1199 1313 1545 1777 1886 1826 1572
1370.0 1318 1072 852 713 595 515 442 428 439 455
1410.0 494 520 554 558 550 521 505 498 505 539
1450.0 531 494 484 460 521 632 658 667 711 1140
1490.0 2233 3019 2775 1709 792 487 396 302 303 233
1530.0 213 230 206 227 230 210 243 263 246 259
1570.0 269 321 386 528 738 1062 1523 1555 1329 814
1610.0 447 363 278 240 227 185 208 195 192 184
1650.0 187 182 166 161 169 164 189 152 184 199
1690.0 171 191 206 219 235 237 274 305 325 355
1730.0 406 487 525 629 741 889 1119 1373 1780 2287
1770.0 2953 3670 4256 4568 4322 3668 2674 1869 1229 837
1810.0 645 487 426 366 314 307 256 245 232 218
1850.0 211 196 192 186 190 196 178 179 167 163
1890.0 162 146 146 139 140 150 151 158 170 176
1930.0 191 199 200 196 193 199 198 189 168 158
1970.0 158 155 157 163 161 168 168 167 168 169
2010.0 170 171 173 168 161 157 149 142 138 134
2050.0 140 140 137 137 134 135 133 130 135 127
2090.0 124 118 120 118 115 116 111 111 112 110
2130.0 109 109 106 106 104 106 106 106 108 107
2170.0 108 107 104 106 106 109 106 104 109 107
2210.0 108 104 105 108 106 111 111 111 113 113
2250.0 116 118 117 122 127 127 129 131 129 132
2290.0 129 127 128 123 122 128 132 127 119 116
2330.0 117 115 106 108 119 119 116 117 127 123
2370.0 126 125 120 131 135 139 147 139 136 128
2410.0 124 120 120 119 120 116 113 114 113 115
2450.0 113 111 109 111 110 106 109 108 109 109
2490.0 110 112 110 111 108 105 109 110 107 105
2530.0 104 106 104 106 105 105 105 109 109 109
2570.0 106 107 106 108 108 108 105 104 106 106
2610.0 107 106 107 109 111 109 110 108 108 111
2650.0 107 108 109 105 104 104 102 103 103 106
2690.0 107 111 106 102 105 105 107 108 107 109
2730.0 108 111 109 110 114 113 114 113 112 111
2770.0 110 111 114 109 110 107 111 112 106 108
2810.0 112 112 111 114 115 116 116 112 117 112
2850.0 115 120 122 124 133 137 144 146 145 148
2890.0 152 148 154 155 156 159 172 184 187 200
2930.0 200 193 189 191 199 195 196 200 215 247
2970.0 308 392 471 472 421 340 286 245 225 223
3010.0 233 244 271 294 311 321 345 378 442 530
3050.0 609 627 564 487 453 481 519 593 676 688
3090.0 618 513 425 396 378 330 276 227 182 162
3130.0 142 132 128 122 121 119 119 119 116 116
3170.0 117 117 116 117 111 111 119 117 113 115
3210.0 109 110 116 116 116 113 118 113 111 116
3250.0 114 112 113 117 115 113 109 110 113 112
3290.0 113 113 111 113 112 109 105 110 111 109
3330.0 114 108 114 112 115 110 110 108 111 115
3370.0 114 113 110 104 111 114 115 109 109 102
3410.0 105 106 113 109 112 110 111 109 111 102
3450.0 115 113 104 111 119 110 107 109 110 111
3490.0 117 109 111 108 117 119 120 122 127 132
3530.0 135 142 146 146 144 138 139 144 151 179
3570.0 199 206 199 207 188 169 143 130 125 119
3610.0 109 109 112 112 109 127 130 137 162 174
3650.0 187 178 178 190 172 151 127 126 107 120
3690.0 113 114 113 112 107 105 112 114 110 115
3730.0 122 116 117 110 125 102 114 114 116 109
3770.0 115 123 109 116 120 114 108 102 118 125
3810.0 110 114 113 131 119 129 126 128 128 110
3850.0 120 126 131 115 109 129 130 125 118 139
3890.0 121 128 124 122 107 102 107 114 128 111
3930.0 132 107 114 125 110 114 125 120 132 118
##END=
