##TITLE=Benzocyclooctene-1,8(2H),(7H)-dione, 3,4,5,6,9,10-hexahydro-4- methyl-,
##JCAMP-DX=4.24
##DATA TYPE=INFRARED SPECTRUM
##ORIGIN=Sadtler Research Labs Under US-EPA Contract
##OWNER=NIST Standard Reference Data Program
##CAS REGISTRY NO=24569-29-7
##MOLFORM=C 13 H 18 O 2
##XUNITS=1/CM
##YUNITS=ABSORBANCE
##XFACTOR=1.0
##YFACTOR=0.000051563
##DELTAX=4.0
##FIRSTX=450.0
##LASTX=3966.0
##FIRSTY=0.000000
##MAXX=3966
##MINX=450
##MAXY=0.51563
##MINY=0
##NPOINTS=880
##XYDATA=(X++(Y..Y))
450.0 0 83 191 72 67 133 141 95 166 148
490.0 165 144 174 288 277 347 367 459 429 410
530.0 372 369 282 222 214 193 154 128 151 154
570.0 92 73 82 44 74 87 69 103 88 77
610.0 66 90 121 130 148 148 157 135 116 90
650.0 85 77 78 60 64 156 153 149 150 150
690.0 130 154 148 132 159 173 180 178 147 105
730.0 98 86 94 138 194 283 348 419 371 316
770.0 202 130 67 59 64 45 63 62 61 53
810.0 62 86 108 160 222 231 197 177 153 223
850.0 315 393 453 494 562 585 599 531 438 333
890.0 223 132 68 27 36 86 169 286 358 386
930.0 329 249 194 175 178 151 99 63 54 39
970.0 46 74 104 136 164 174 203 263 340 419
1010.0 441 391 299 249 228 203 159 110 103 137
1050.0 210 298 357 351 314 291 326 401 436 443
1090.0 435 484 564 667 699 659 605 561 576 603
1130.0 654 668 677 684 710 734 741 734 741 782
1170.0 865 1052 1329 1603 1745 1690 1513 1336 1228 1161
1210.0 1092 1023 959 914 878 862 835 810 742 686
1250.0 628 608 591 582 583 630 756 988 1354 1759
1290.0 2020 2015 1792 1483 1245 1083 1031 1117 1303 1620
1330.0 1973 2289 2398 2166 1738 1321 1096 1089 1197 1235
1370.0 1163 1033 910 819 722 597 509 485 450 484
1410.0 512 627 821 1059 1322 1516 1640 1740 1939 2110
1450.0 2294 2285 2188 2044 1936 1829 1606 1336 1084 942
1490.0 864 753 626 517 466 442 408 402 408 394
1530.0 386 377 361 362 370 362 379 393 407 451
1570.0 460 480 488 542 574 628 653 691 756 835
1610.0 946 1020 1100 1150 1146 1077 976 897 866 933
1650.0 1008 1145 1254 1492 1718 2165 2933 4590 6819 9319
1690.0 10000 9226 6940 5024 4277 4887 6085 6807 6772 5311
1730.0 3836 2631 1857 1403 1078 899 710 607 461 418
1770.0 345 298 243 227 181 150 130 108 107 82
1810.0 81 75 81 73 81 75 75 74 81 89
1850.0 82 71 68 70 68 69 59 51 55 47
1890.0 57 49 56 52 57 55 57 55 58 56
1930.0 53 56 52 61 55 49 51 51 54 51
1970.0 49 43 45 36 39 46 44 40 32 33
2010.0 35 45 40 33 29 34 31 38 37 33
2050.0 40 34 36 34 41 34 33 42 31 35
2090.0 33 40 33 31 32 38 39 38 35 37
2130.0 42 34 32 31 32 33 37 38 35 45
2170.0 37 42 42 47 45 43 41 43 42 37
2210.0 41 38 36 40 42 35 33 37 37 35
2250.0 35 43 43 40 48 48 54 63 72 85
2290.0 94 113 130 137 151 168 157 147 151 122
2330.0 112 100 59 104 85 113 121 96 85 55
2370.0 38 39 64 75 60 40 24 23 19 24
2410.0 19 26 28 30 32 31 33 33 35 33
2450.0 34 40 43 47 43 46 49 44 39 38
2490.0 37 36 40 41 40 43 40 41 39 42
2530.0 40 39 49 47 51 47 43 43 47 51
2570.0 53 56 52 61 55 54 61 61 60 58
2610.0 60 56 62 57 62 66 69 70 75 85
2650.0 85 82 81 86 89 96 96 103 103 97
2690.0 94 90 95 88 90 81 75 82 78 89
2730.0 91 91 93 100 99 102 97 98 103 100
2770.0 103 112 120 125 133 139 140 152 157 162
2810.0 171 187 199 245 293 371 458 563 643 683
2850.0 719 776 929 1194 1521 1800 1941 1956 1981 2062
2890.0 2169 2154 2006 1840 1833 1982 2220 2457 2732 3138
2930.0 3757 4743 5894 6522 6356 5511 4593 4319 4533 4964
2970.0 5306 4933 3940 2872 2009 1394 951 627 444 351
3010.0 315 289 281 259 237 224 203 192 177 167
3050.0 151 146 146 140 124 124 113 110 105 93
3090.0 92 80 80 82 79 71 72 66 60 61
3130.0 57 68 67 69 68 73 69 69 78 73
3170.0 67 68 66 59 65 75 67 67 65 71
3210.0 58 66 53 62 65 66 63 60 63 62
3250.0 63 66 65 70 70 88 92 89 94 85
3290.0 91 89 98 101 100 97 102 101 98 102
3330.0 106 110 125 130 154 181 188 200 186 179
3370.0 152 129 113 107 97 101 98 105 105 121
3410.0 147 161 173 161 141 119 96 86 72 71
3450.0 64 58 58 60 62 50 49 40 50 40
3490.0 52 39 39 48 38 38 45 36 44 51
3530.0 46 43 29 45 52 39 45 38 46 49
3570.0 52 42 36 41 51 54 39 25 49 31
3610.0 52 39 40 46 28 53 39 55 45 43
3650.0 54 36 56 34 60 20 47 25 44 54
3690.0 23 47 32 43 43 43 55 58 59 53
3730.0 46 49 60 67 19 62 31 59 66 45
3770.0 39 51 56 33 49 57 79 68 61 50
3810.0 78 51 60 57 62 64 65 47 58 63
3850.0 48 52 33 65 58 50 60 62 75 52
3890.0 80 68 85 59 87 47 82 76 68 66
3930.0 63 92 66 86 65 74 69 92 96 58
##END=
