##TITLE=Decane, 1,1'-oxybis-
##JCAMP-DX=4.24
##DATA TYPE=INFRARED SPECTRUM
##ORIGIN=Sadtler Research Labs Under US-EPA Contract
##OWNER=NIST Standard Reference Data Program
##CAS REGISTRY NO=2456-28-2
##MOLFORM=C 20 H 42 O
##XUNITS=1/CM
##YUNITS=ABSORBANCE
##XFACTOR=1.0
##YFACTOR=0.000049799
##DELTAX=4.0
##FIRSTX=450.0
##LASTX=3966.0
##FIRSTY=0.002739
##MAXX=3966
##MINX=450
##MAXY=0.49799
##MINY=0
##NPOINTS=880
##XYDATA=(X++(Y..Y))
450.0 55 120 92 203 269 230 133 196 203 156
490.0 2 145 276 185 103 144 129 138 94 108
530.0 68 85 209 182 147 144 161 130 135 113
570.0 115 279 226 40 269 118 58 68 149 93
610.0 130 112 127 50 91 278 115 144 117 117
650.0 111 80 125 65 123 73 119 82 89 81
690.0 129 124 168 157 181 206 244 261 226 229
730.0 291 236 210 184 193 180 202 143 156 168
770.0 131 169 98 173 216 181 111 151 129 128
810.0 115 118 102 120 126 100 126 117 131 135
850.0 150 135 140 123 140 152 146 161 139 168
890.0 161 177 168 161 166 167 169 161 164 168
930.0 173 180 178 187 177 180 173 178 162 173
970.0 176 198 172 195 233 221 247 241 250 253
1010.0 270 267 266 282 291 303 307 326 328 346
1050.0 355 379 407 407 435 452 501 536 582 641
1090.0 780 915 1175 1567 1840 2222 2342 2298 2164 2051
1130.0 1852 1568 1235 945 735 603 534 470 447 417
1170.0 424 387 372 348 322 313 282 282 262 256
1210.0 259 255 256 254 268 252 276 271 279 270
1250.0 261 252 262 275 257 275 274 265 263 283
1290.0 292 298 302 310 314 301 292 275 259 258
1330.0 258 281 335 388 451 526 586 625 648 674
1370.0 676 650 578 496 416 326 272 255 224 227
1410.0 222 227 215 204 229 263 312 372 437 520
1450.0 606 696 780 868 900 818 694 539 441 328
1490.0 299 224 181 176 151 131 161 129 89 114
1530.0 106 124 59 89 95 123 87 69 31 107
1570.0 78 103 50 114 89 106 104 110 101 98
1610.0 118 75 81 72 91 85 87 65 104 59
1650.0 96 12 79 98 75 60 87 67 112 21
1690.0 96 83 61 33 89 96 96 83 103 116
1730.0 102 121 105 169 185 201 173 169 136 134
1770.0 139 122 150 135 156 104 115 97 99 77
1810.0 87 77 80 88 64 76 66 94 66 64
1850.0 63 68 61 72 71 67 69 61 62 60
1890.0 64 62 62 69 59 69 58 58 63 56
1930.0 53 57 59 61 64 62 56 65 55 56
1970.0 58 57 59 57 54 56 58 53 55 50
2010.0 46 54 63 57 57 61 75 74 65 62
2050.0 50 45 40 43 63 74 76 76 56 48
2090.0 32 25 32 37 41 44 44 38 42 51
2130.0 52 47 44 48 46 43 38 50 41 51
2170.0 49 33 41 35 38 40 38 36 43 44
2210.0 44 51 34 43 34 40 39 40 37 32
2250.0 32 35 36 34 30 30 37 41 35 35
2290.0 39 46 34 34 36 29 17 7 1 1
2330.0 1 1 1 0 41 2 1 1 5 34
2370.0 69 90 90 76 56 40 29 31 28 31
2410.0 33 31 31 29 29 33 31 25 29 21
2450.0 23 18 25 33 22 33 23 18 22 27
2490.0 28 27 30 28 35 25 23 34 41 35
2530.0 39 43 41 42 49 44 42 49 60 52
2570.0 50 52 55 53 45 57 53 58 58 63
2610.0 66 68 69 64 79 79 82 103 113 93
2650.0 77 67 66 72 94 115 141 164 162 144
2690.0 142 147 145 152 157 167 167 168 175 185
2730.0 190 203 196 195 200 198 199 201 195 208
2770.0 217 236 259 266 308 349 377 402 403 400
2810.0 407 422 455 503 556 638 738 890 1111 1461
2850.0 1999 2842 3952 4975 5267 4847 4095 3373 2915 2572
2890.0 2297 2134 2203 2437 2861 3384 3984 4765 5889 7445
2930.0 9071 10000 9661 8569 7227 5715 4435 3717 3458 3466
2970.0 3317 2740 1953 1356 989 780 658 526 444 391
3010.0 335 307 266 256 225 225 191 173 165 165
3050.0 151 113 125 115 94 89 82 84 81 94
3090.0 86 58 71 81 65 72 72 73 65 63
3130.0 69 38 60 80 75 64 47 64 37 38
3170.0 38 55 51 61 67 74 66 67 88 84
3210.0 62 70 68 55 59 54 27 38 27 54
3250.0 51 49 52 41 17 26 42 38 25 24
3290.0 54 19 34 59 54 25 35 42 60 43
3330.0 34 22 37 39 49 15 43 45 47 42
3370.0 58 56 59 47 23 49 39 26 37 34
3410.0 37 47 71 54 49 41 32 52 78 32
3450.0 51 47 62 45 28 46 30 40 83 107
3490.0 19 48 45 76 31 44 30 89 50 51
3530.0 67 65 75 70 93 84 33 112 64 111
3570.0 106 70 91 67 48 78 99 127 111 47
3610.0 52 95 44 82 88 59 94 48 72 79
3650.0 72 117 67 37 82 70 75 3 81 85
3690.0 76 71 80 42 47 105 114 86 87 102
3730.0 102 23 95 84 75 6 29 106 93 76
3770.0 102 19 101 67 70 40 91 89 72 108
3810.0 75 92 55 59 80 59 38 17 86 137
3850.0 63 2 53 86 103 134 96 43 63 8
3890.0 78 39 63 30 81 139 103 134 117 121
3930.0 57 150 47 83 61 83 95 75 74 24
##END=
