##TITLE=2-Norbornanethiol, acetate
##JCAMP-DX=4.24
##DATA TYPE=INFRARED SPECTRUM
##ORIGIN=Sadtler Research Labs Under US-EPA Contract
##OWNER=NIST Standard Reference Data Program
##CAS REGISTRY NO=24584-23-4
##MOLFORM=C 9 H 14 O S
##XUNITS=1/CM
##YUNITS=ABSORBANCE
##XFACTOR=1.0
##YFACTOR=0.000094678
##DELTAX=4.0
##FIRSTX=450.0
##LASTX=3966.0
##FIRSTY=0.015054
##MAXX=3966
##MINX=450
##MAXY=0.94678
##MINY=0
##NPOINTS=880
##XYDATA=(X++(Y..Y))
450.0 159 149 174 182 253 249 204 154 236 121
490.0 192 159 198 200 178 128 184 193 173 212
530.0 136 120 145 134 145 198 141 180 117 71
570.0 209 231 179 265 187 207 199 311 268 550
610.0 605 1049 1527 2230 3102 3368 2859 2089 963 538
650.0 420 388 219 242 253 114 128 149 138 174
690.0 179 145 141 57 96 84 55 64 59 2
730.0 69 72 34 76 56 49 130 144 209 166
770.0 215 158 230 35 105 67 89 136 145 120
810.0 93 103 126 88 94 71 184 117 137 105
850.0 53 55 91 73 98 142 96 157 102 133
890.0 129 253 227 323 283 261 270 353 401 553
930.0 679 1015 1375 1823 2149 2192 1862 1397 910 614
970.0 491 403 342 280 276 208 304 302 416 507
1010.0 645 733 791 705 639 488 450 419 506 499
1050.0 554 459 380 337 300 297 350 338 418 519
1090.0 656 990 1387 1989 2734 3171 3244 2946 2484 2264
1130.0 2770 3729 4413 4616 3933 2590 1470 860 577 422
1170.0 325 280 277 193 205 190 199 224 220 247
1210.0 253 229 198 151 114 140 131 210 259 329
1250.0 377 448 433 450 427 421 331 325 201 209
1290.0 226 277 317 351 309 350 326 317 273 191
1330.0 158 145 191 228 425 667 996 1110 1052 676
1370.0 434 237 249 190 210 192 244 207 227 205
1410.0 245 252 300 281 270 292 255 372 373 571
1450.0 729 913 1015 866 724 586 481 414 365 373
1490.0 308 260 214 187 231 212 179 226 222 210
1530.0 178 181 205 240 184 146 170 219 183 116
1570.0 147 118 131 71 107 71 107 67 83 61
1610.0 97 76 136 104 126 146 146 183 130 188
1650.0 175 317 152 223 275 364 400 453 567 875
1690.0 1331 2295 4109 6491 8204 8459 7566 5231 3035 1693
1730.0 1032 777 579 461 428 337 308 260 262 235
1770.0 249 271 264 247 225 212 135 106 81 58
1810.0 33 42 31 44 49 51 22 54 25 104
1850.0 26 47 42 53 42 77 26 37 36 33
1890.0 54 30 36 30 35 1 32 26 28 27
1930.0 27 2 51 19 54 18 36 29 44 1
1970.0 37 27 27 26 31 28 44 35 19 37
2010.0 18 36 28 28 33 33 22 37 23 40
2050.0 25 54 0 67 36 35 50 43 32 69
2090.0 30 37 47 22 53 20 26 20 26 24
2130.0 29 34 27 29 35 24 41 29 47 47
2170.0 32 46 44 38 41 57 37 55 27 52
2210.0 29 57 19 51 33 30 51 33 33 34
2250.0 46 39 60 38 60 37 43 49 64 43
2290.0 87 57 109 93 129 89 144 92 154 128
2330.0 151 139 177 142 142 169 150 257 191 139
2370.0 113 109 75 88 43 56 33 69 38 76
2410.0 22 52 11 52 34 47 23 41 42 36
2450.0 39 35 51 39 41 43 52 20 42 46
2490.0 28 23 55 23 60 26 31 24 42 25
2530.0 40 25 39 39 25 29 41 50 41 60
2570.0 39 50 34 44 33 35 42 56 46 49
2610.0 51 44 35 61 42 49 71 45 62 51
2650.0 60 49 72 42 68 29 47 15 44 30
2690.0 42 14 34 43 39 39 40 25 41 60
2730.0 38 57 38 44 11 53 17 67 40 59
2770.0 47 72 53 74 26 77 44 57 55 55
2810.0 64 79 64 69 85 84 105 106 127 128
2850.0 176 150 235 338 578 915 1511 2125 2542 2441
2890.0 2042 1378 959 703 656 685 836 1030 1206 1344
2930.0 1488 1608 1778 2097 2569 3307 4562 6715 8772 10000
2970.0 9183 6787 4399 2564 1541 1073 760 596 385 334
3010.0 274 221 216 214 204 211 212 188 189 176
3050.0 134 129 108 119 116 99 96 102 86 97
3090.0 95 84 82 64 57 87 83 62 75 78
3130.0 42 80 45 53 66 43 71 40 46 46
3170.0 52 55 73 63 60 66 76 44 73 47
3210.0 66 61 63 43 91 18 85 60 73 84
3250.0 67 62 64 64 32 63 53 53 71 49
3290.0 46 79 33 44 49 59 40 72 23 63
3330.0 30 72 30 86 55 95 56 68 62 72
3370.0 72 98 86 117 144 158 185 207 141 159
3410.0 118 77 97 83 63 61 80 33 67 24
3450.0 62 28 38 58 59 52 66 43 37 57
3490.0 56 22 92 23 36 47 49 20 66 40
3530.0 7 47 21 32 50 46 60 63 44 78
3570.0 101 39 62 52 84 80 79 66 55 75
3610.0 58 106 59 87 63 89 67 63 51 95
3650.0 109 88 72 51 30 110 59 84 62 68
3690.0 64 90 22 52 52 62 101 59 68 85
3730.0 77 91 100 88 101 110 64 63 84 55
3770.0 53 46 44 39 61 20 80 36 73 69
3810.0 55 53 75 74 58 70 64 65 87 42
3850.0 66 77 57 49 71 27 58 23 32 22
3890.0 23 23 34 28 10 29 2 9 22 2
3930.0 18 11 1 14 12 10 0 1 1 1
##END=
