##TITLE=Nonane, 1,9-diiodo-
##JCAMP-DX=4.24
##DATA TYPE=INFRARED SPECTRUM
##ORIGIN=Sadtler Research Labs Under US-EPA Contract
##OWNER=NIST Standard Reference Data Program
##CAS REGISTRY NO=24613-65-8
##MOLFORM=C 9 H 18 I 2
##XUNITS=1/CM
##YUNITS=ABSORBANCE
##XFACTOR=1.0
##YFACTOR=0.000119943
##DELTAX=4.0
##FIRSTX=450.0
##LASTX=3966.0
##FIRSTY=0.000000
##MAXX=3966
##MINX=450
##MAXY=1.19943
##MINY=0
##NPOINTS=880
##XYDATA=(X++(Y..Y))
450.0 0 1157 1225 1498 1651 1157 1651 1453 1372 1952
490.0 1635 1309 1434 1407 1691 1514 1574 1629 1507 1625
530.0 1521 1564 1470 1517 1456 1495 1468 1520 1469 1419
570.0 1492 1430 1528 1764 1696 1787 1853 1871 1878 1772
610.0 1677 1591 1534 1510 1468 1474 1449 1468 1455 1464
650.0 1453 1469 1472 1454 1469 1478 1466 1443 1475 1473
690.0 1491 1506 1539 1578 1608 1683 1730 1784 1781 1790
730.0 1768 1755 1731 1709 1673 1658 1626 1597 1591 1588
770.0 1600 1556 1584 1574 1564 1546 1547 1531 1515 1517
810.0 1514 1491 1468 1504 1499 1491 1495 1479 1500 1494
850.0 1485 1496 1494 1483 1509 1491 1487 1485 1489 1492
890.0 1488 1503 1483 1495 1486 1498 1481 1474 1468 1466
930.0 1464 1458 1469 1455 1464 1458 1469 1462 1468 1458
970.0 1457 1457 1455 1455 1450 1457 1449 1453 1444 1458
1010.0 1438 1437 1438 1439 1447 1450 1461 1456 1458 1448
1050.0 1452 1438 1442 1444 1447 1453 1450 1462 1461 1465
1090.0 1454 1448 1445 1446 1443 1446 1454 1464 1477 1483
1130.0 1505 1522 1547 1567 1613 1670 1753 1889 2105 2419
1170.0 2808 3091 3081 2878 2659 2568 2569 2670 2739 2754
1210.0 2740 2680 2641 2614 2575 2527 2492 2460 2416 2361
1250.0 2265 2175 2091 2039 1987 1954 1931 1927 1920 1906
1290.0 1899 1874 1854 1816 1768 1711 1666 1626 1592 1571
1330.0 1574 1590 1629 1687 1759 1837 1841 1788 1726 1683
1370.0 1646 1597 1529 1476 1445 1424 1418 1413 1419 1428
1410.0 1449 1476 1517 1591 1703 1882 2044 2107 2068 2045
1450.0 2098 2205 2271 2245 2109 1927 1739 1585 1503 1439
1490.0 1410 1385 1379 1362 1356 1343 1336 1328 1318 1322
1530.0 1311 1313 1308 1310 1307 1304 1306 1302 1301 1297
1570.0 1300 1297 1301 1298 1302 1296 1297 1295 1295 1297
1610.0 1295 1295 1289 1289 1286 1286 1281 1281 1281 1280
1650.0 1279 1274 1275 1275 1278 1271 1274 1271 1273 1271
1690.0 1272 1272 1266 1269 1269 1272 1270 1272 1275 1278
1730.0 1271 1266 1269 1264 1263 1263 1265 1260 1262 1259
1770.0 1259 1257 1257 1256 1255 1256 1256 1256 1251 1256
1810.0 1248 1251 1250 1248 1249 1245 1243 1243 1246 1242
1850.0 1246 1242 1245 1241 1242 1242 1242 1241 1236 1238
1890.0 1238 1240 1235 1237 1233 1233 1233 1234 1234 1228
1930.0 1235 1228 1230 1227 1233 1228 1228 1230 1230 1230
1970.0 1227 1229 1226 1230 1227 1229 1226 1228 1228 1231
2010.0 1231 1230 1234 1233 1238 1235 1238 1235 1238 1236
2050.0 1235 1234 1233 1233 1230 1231 1225 1226 1222 1223
2090.0 1221 1222 1221 1221 1217 1216 1217 1213 1217 1214
2130.0 1217 1213 1214 1213 1215 1218 1217 1217 1216 1215
2170.0 1212 1216 1213 1212 1211 1209 1210 1212 1211 1207
2210.0 1209 1205 1205 1204 1205 1202 1198 1202 1200 1200
2250.0 1200 1201 1195 1195 1195 1195 1195 1197 1198 1195
2290.0 1200 1200 1207 1205 1208 1209 1213 1203 1203 1203
2330.0 1196 1195 1195 1203 1203 1207 1200 1192 1207 1204
2370.0 1197 1195 1201 1198 1194 1182 1180 1174 1173 1169
2410.0 1170 1169 1165 1166 1160 1160 1157 1163 1162 1157
2450.0 1161 1158 1162 1160 1160 1157 1160 1163 1163 1160
2490.0 1163 1165 1162 1164 1165 1167 1165 1172 1168 1166
2530.0 1169 1171 1174 1176 1180 1176 1177 1178 1178 1176
2570.0 1179 1180 1185 1187 1188 1194 1195 1201 1199 1205
2610.0 1207 1210 1210 1211 1210 1209 1210 1212 1211 1211
2650.0 1215 1215 1224 1223 1228 1234 1236 1243 1245 1244
2690.0 1244 1246 1242 1238 1233 1231 1229 1228 1230 1228
2730.0 1229 1228 1232 1232 1237 1236 1246 1243 1243 1248
2770.0 1252 1263 1267 1275 1286 1297 1304 1321 1333 1347
2810.0 1371 1394 1428 1461 1514 1579 1679 1813 2017 2260
2850.0 2534 2918 3510 4151 4425 4138 3582 3096 2792 2673
2890.0 2649 2699 2763 2860 3023 3294 3721 4350 5269 6550
2930.0 8055 9405 10000 9215 7532 5820 4463 3598 3183 3084
2970.0 3076 2851 2496 2176 1918 1751 1658 1607 1602 1635
3010.0 1722 1840 1843 1665 1493 1397 1349 1321 1305 1287
3050.0 1271 1258 1247 1246 1240 1230 1228 1229 1234 1215
3090.0 1215 1215 1211 1208 1210 1207 1201 1199 1200 1200
3130.0 1195 1200 1195 1195 1192 1188 1197 1193 1195 1196
3170.0 1190 1191 1191 1186 1182 1179 1171 1174 1183 1181
3210.0 1174 1180 1178 1187 1181 1184 1181 1183 1165 1171
3250.0 1174 1171 1174 1179 1179 1181 1179 1174 1179 1181
3290.0 1185 1170 1170 1173 1191 1179 1178 1190 1174 1179
3330.0 1190 1195 1189 1182 1189 1185 1188 1192 1189 1188
3370.0 1191 1196 1192 1193 1181 1195 1190 1191 1191 1188
3410.0 1174 1185 1186 1183 1183 1194 1178 1177 1191 1194
3450.0 1197 1189 1195 1194 1187 1172 1165 1157 1194 1185
3490.0 1174 1186 1170 1158 1167 1175 1180 1181 1176 1168
3530.0 1191 1181 1172 1180 1176 1173 1180 1179 1178 1172
3570.0 1182 1177 1181 1186 1190 1182 1187 1180 1179 1182
3610.0 1192 1199 1179 1187 1195 1198 1178 1183 1194 1185
3650.0 1195 1188 1172 1202 1187 1179 1187 1187 1183 1191
3690.0 1179 1200 1196 1206 1190 1203 1180 1188 1180 1186
3730.0 1200 1180 1197 1157 1180 1201 1189 1196 1195 1181
3770.0 1190 1179 1210 1197 1206 1187 1180 1189 1201 1186
3810.0 1191 1195 1189 1175 1216 1176 1204 1197 1183 1203
3850.0 1172 1195 1206 1204 1180 1191 1198 1190 1207 1190
3890.0 1211 1210 1176 1213 1187 1196 1216 1178 1199 1193
3930.0 1196 1229 1190 1197 1188 1205 1174 1189 1173 1218
##END=
