##TITLE=(Chloromethyl)ethylene carbonate
##JCAMP-DX=4.24
##DATA TYPE=INFRARED SPECTRUM
##ORIGIN=Sadtler Research Labs Under US-EPA Contract
##OWNER=NIST Standard Reference Data Program
##CAS REGISTRY NO=2463-45-8
##MOLFORM=C 4 H 5 Cl O 3
##XUNITS=1/CM
##YUNITS=ABSORBANCE
##XFACTOR=1.0
##YFACTOR=0.000131445
##DELTAX=4.0
##FIRSTX=450.0
##LASTX=3966.0
##FIRSTY=0.010253
##MAXX=3966
##MINX=450
##MAXY=1.31445
##MINY=0
##NPOINTS=880
##XYDATA=(X++(Y..Y))
450.0 78 53 0 33 15 26 31 35 39 50
490.0 37 49 53 31 40 42 48 66 54 48
530.0 56 63 68 74 58 60 53 54 45 48
570.0 35 33 45 39 41 30 44 30 52 44
610.0 49 39 52 42 50 47 47 46 44 53
650.0 57 65 58 67 67 72 67 60 65 70
690.0 66 69 83 100 142 207 236 233 234 195
730.0 159 160 172 188 215 266 338 399 480 533
770.0 536 520 492 438 377 279 194 147 107 94
810.0 84 83 79 82 75 72 74 74 75 85
850.0 78 81 78 71 70 70 85 106 146 200
890.0 233 246 260 246 220 212 218 230 229 219
930.0 210 183 156 127 114 111 108 101 103 104
970.0 104 108 108 115 121 131 137 146 162 180
1010.0 201 235 288 363 434 497 562 601 616 625
1050.0 639 705 897 1289 1856 2494 3138 3626 3784 3707
1090.0 3461 3057 2557 2095 1841 1723 1677 1755 1925 2153
1130.0 2352 2447 2396 2188 1859 1475 1108 809 605 479
1170.0 410 373 345 327 300 266 245 223 206 192
1210.0 183 180 189 197 204 204 199 185 174 176
1250.0 193 226 253 262 271 246 206 177 165 155
1290.0 144 132 121 111 107 107 119 147 184 217
1330.0 235 255 269 288 326 378 435 439 415 389
1370.0 329 260 232 218 209 197 174 149 121 96
1410.0 75 70 56 68 85 106 111 115 136 155
1450.0 169 163 158 143 122 100 100 119 154 167
1490.0 156 149 127 97 67 60 65 78 84 100
1530.0 96 93 69 47 41 38 32 18 22 26
1570.0 24 25 29 26 34 33 38 39 42 40
1610.0 37 33 23 29 24 34 28 33 34 34
1650.0 26 28 37 49 53 56 50 60 48 45
1690.0 47 52 43 57 73 83 79 69 63 64
1730.0 64 57 69 74 83 91 101 114 131 154
1770.0 177 203 227 242 254 271 293 317 341 367
1810.0 405 445 493 545 617 706 847 1078 1425 1979
1850.0 2786 4020 5755 7877 9348 10000 9260 7436 4627 2497
1890.0 1440 957 689 541 442 372 327 297 272 247
1930.0 226 203 185 169 164 163 162 166 167 169
1970.0 165 161 153 144 135 125 111 98 90 81
2010.0 73 65 61 54 51 47 45 42 39 39
2050.0 36 35 33 33 30 28 29 28 28 27
2090.0 27 26 25 24 23 22 21 19 19 19
2130.0 20 21 22 24 24 25 27 27 26 28
2170.0 28 32 32 33 38 44 46 51 52 53
2210.0 55 58 60 63 68 70 74 76 72 70
2250.0 67 69 67 66 61 58 52 46 39 34
2290.0 30 30 26 29 30 30 25 21 20 17
2330.0 11 13 15 4 25 9 16 17 6 7
2370.0 16 14 16 18 16 13 13 13 13 14
2410.0 12 13 11 10 10 11 8 11 10 9
2450.0 12 13 17 15 16 13 12 13 15 15
2490.0 15 15 13 15 13 13 10 10 11 9
2530.0 8 6 8 6 4 6 9 9 10 10
2570.0 12 14 19 19 19 17 14 9 7 3
2610.0 5 0 4 4 3 2 4 6 5 4
2650.0 2 2 3 1 0 3 2 3 3 5
2690.0 6 6 9 7 11 14 14 16 15 13
2730.0 12 12 11 13 14 16 18 22 22 23
2770.0 21 21 20 16 15 11 13 11 9 10
2810.0 8 10 9 10 13 10 10 13 17 22
2850.0 22 27 28 33 36 38 42 50 55 58
2890.0 62 61 60 66 79 106 137 176 205 222
2930.0 221 203 180 164 162 171 183 204 229 255
2970.0 289 301 307 311 299 290 291 286 264 244
3010.0 211 173 143 121 92 69 55 37 30 24
3050.0 21 17 18 14 14 12 10 10 11 11
3090.0 10 9 2 6 7 8 5 7 5 7
3130.0 7 6 6 4 6 5 3 4 3 3
3170.0 2 0 3 3 3 1 2 2 0 0
3210.0 4 3 4 1 0 1 1 0 0 0
3250.0 3 2 0 1 0 1 0 1 0 0
3290.0 2 4 4 2 4 0 3 4 8 8
3330.0 7 4 1 3 5 5 5 3 5 10
3370.0 7 7 8 6 6 4 5 6 6 5
3410.0 12 8 9 9 3 7 7 9 8 8
3450.0 10 7 11 11 14 7 3 7 9 14
3490.0 11 5 10 9 12 15 12 10 8 12
3530.0 9 8 11 10 5 12 13 8 9 11
3570.0 14 6 8 10 10 17 14 16 18 12
3610.0 10 20 17 18 11 14 14 15 12 15
3650.0 11 14 15 10 12 15 11 14 17 15
3690.0 17 21 23 26 36 49 50 47 41 34
3730.0 24 13 6 11 0 0 0 0 9 1
3770.0 5 2 2 6 10 12 6 6 11 5
3810.0 6 5 10 17 9 14 9 15 26 17
3850.0 12 0 4 12 16 18 11 7 9 12
3890.0 13 14 4 4 8 19 11 9 8 10
3930.0 10 15 15 0 11 16 10 8 3 8
##END=
