##TITLE=Phthalimide, N-o-tolyl-,
##JCAMP-DX=4.24
##DATA TYPE=INFRARED SPECTRUM
##ORIGIN=Sadtler Research Labs Under US-EPA Contract
##OWNER=NIST Standard Reference Data Program
##CAS REGISTRY NO=2464-33-7
##MOLFORM=C 15 H 11 N O 2
##XUNITS=1/CM
##YUNITS=ABSORBANCE
##XFACTOR=1.0
##YFACTOR=0.000047610
##DELTAX=4.0
##FIRSTX=450.0
##LASTX=3966.0
##FIRSTY=0.000381
##MAXX=3966
##MINX=450
##MAXY=0.4761
##MINY=0
##NPOINTS=880
##XYDATA=(X++(Y..Y))
450.0 8 194 192 123 38 11 39 104 45 23
490.0 38 54 32 59 84 152 199 326 334 334
530.0 371 233 248 305 384 426 224 94 52 55
570.0 93 104 73 68 80 113 109 67 112 94
610.0 137 132 192 336 758 1228 1011 445 126 102
650.0 72 62 48 83 57 140 162 160 180 236
690.0 360 412 512 589 871 1631 3146 4485 3800 1954
730.0 817 411 317 407 684 1012 1197 1062 653 322
770.0 263 332 367 281 300 321 238 154 91 25
810.0 30 70 103 120 125 150 149 162 198 310
850.0 534 859 924 679 434 384 522 813 1303 1250
890.0 745 417 245 165 147 149 159 148 142 151
930.0 169 185 202 193 155 149 159 179 186 186
970.0 176 174 180 177 187 188 189 206 235 264
1010.0 286 277 305 320 351 391 444 502 507 488
1050.0 502 554 632 760 898 1055 1252 1511 1698 1629
1090.0 1454 1441 1546 1639 1664 1535 1285 1062 909 822
1130.0 766 733 610 472 403 348 358 420 412 366
1170.0 373 432 432 390 310 270 270 293 330 395
1210.0 544 840 1160 1260 1032 674 445 369 351 373
1250.0 406 419 424 436 429 443 466 536 652 712
1290.0 619 475 401 391 395 411 452 529 628 734
1330.0 801 852 913 1085 1355 1749 2408 3505 5127 7203
1370.0 9181 10000 8356 5275 2648 1256 690 486 475 516
1410.0 597 698 705 667 565 512 475 509 564 668
1450.0 847 1026 1120 1140 1093 896 698 653 778 1093
1490.0 1565 1844 1740 1611 1342 918 552 277 101 19
1530.0 18 52 69 60 77 84 91 68 121 155
1570.0 197 207 248 292 377 397 416 417 463 470
1610.0 419 359 311 279 235 249 278 300 327 339
1650.0 354 392 469 480 484 473 483 552 583 662
1690.0 737 823 953 1352 1886 2509 3090 3783 4519 5004
1730.0 5606 6177 6558 6751 7211 7272 6720 4944 2916 1521
1770.0 881 651 736 931 1006 1013 1177 1119 780 469
1810.0 293 219 181 169 135 121 117 125 108 106
1850.0 101 98 96 105 103 105 126 116 102 97
1890.0 97 97 104 126 134 146 132 118 101 106
1930.0 105 121 137 147 151 132 102 87 93 94
1970.0 105 112 107 89 72 69 62 66 67 65
2010.0 62 59 54 59 67 65 65 67 64 67
2050.0 75 77 70 75 73 79 76 76 65 60
2090.0 67 67 68 62 67 66 62 60 57 56
2130.0 61 63 67 69 68 75 78 81 76 79
2170.0 87 82 76 78 85 80 83 82 80 83
2210.0 76 84 84 76 86 81 76 87 91 87
2250.0 87 92 93 89 86 81 81 87 89 98
2290.0 98 109 113 116 116 118 103 113 129 94
2330.0 68 69 56 33 101 86 97 65 60 73
2370.0 67 64 83 87 80 61 55 52 49 57
2410.0 58 63 68 72 68 71 66 78 85 83
2450.0 87 79 80 84 82 75 70 66 63 58
2490.0 52 58 61 58 52 44 42 43 39 39
2530.0 38 38 37 46 52 50 45 37 46 48
2570.0 41 46 43 45 38 28 31 28 24 23
2610.0 29 27 29 31 29 35 37 41 41 32
2650.0 27 30 24 28 27 27 29 36 35 38
2690.0 32 43 27 21 21 15 12 6 8 4
2730.0 7 7 10 18 16 17 13 19 15 25
2770.0 21 28 30 33 26 20 17 28 27 8
2810.0 8 13 24 21 28 20 32 40 40 40
2850.0 50 54 53 66 77 92 109 108 110 106
2890.0 109 105 86 91 97 106 117 133 175 213
2930.0 237 256 263 271 232 195 174 151 167 193
2970.0 202 208 223 240 245 223 181 152 133 134
3010.0 129 136 155 188 239 312 366 431 456 454
3050.0 426 422 455 506 537 549 577 630 663 661
3090.0 595 457 296 193 136 104 87 74 62 51
3130.0 40 18 25 29 20 18 15 13 16 27
3170.0 14 21 24 9 13 17 13 14 21 24
3210.0 20 26 15 18 8 1 2 6 9 10
3250.0 7 5 17 3 20 0 4 12 10 17
3290.0 9 14 15 12 31 34 44 39 27 29
3330.0 31 25 43 34 42 19 42 32 30 30
3370.0 44 46 29 45 33 23 35 32 37 24
3410.0 51 47 64 45 31 37 50 54 40 45
3450.0 51 54 45 49 51 64 57 79 77 66
3490.0 87 85 93 89 102 125 134 135 132 131
3530.0 99 90 72 86 78 61 62 68 63 61
3570.0 46 40 46 44 60 48 54 65 42 53
3610.0 73 55 65 68 46 83 55 56 75 60
3650.0 73 59 75 67 47 79 50 55 58 73
3690.0 64 56 47 51 37 52 54 59 47 54
3730.0 65 82 69 48 89 59 69 67 48 74
3770.0 75 86 71 75 79 67 61 66 68 61
3810.0 52 68 80 53 75 78 86 62 86 71
3850.0 94 66 68 94 87 75 79 74 79 75
3890.0 74 99 94 73 67 89 54 96 76 41
3930.0 71 95 99 93 84 84 86 117 77 83
##END=
