##TITLE=Tris(2-ethylhexyl) borate
##JCAMP-DX=4.24
##DATA TYPE=INFRARED SPECTRUM
##ORIGIN=Sadtler Research Labs Under US-EPA Contract
##OWNER=NIST Standard Reference Data Program
##CAS REGISTRY NO=2467-13-2
##MOLFORM=C 24 H 51 B O 3
##XUNITS=1/CM
##YUNITS=ABSORBANCE
##XFACTOR=1.0
##YFACTOR=0.000082861
##DELTAX=4.0
##FIRSTX=450.0
##LASTX=3966.0
##FIRSTY=0.014832
##MAXX=3966
##MINX=450
##MAXY=0.82861
##MINY=0
##NPOINTS=880
##XYDATA=(X++(Y..Y))
450.0 179 194 129 107 80 83 87 140 130 198
490.0 173 187 147 150 132 137 181 205 165 170
530.0 164 114 160 201 145 96 118 78 44 162
570.0 184 180 53 32 92 82 144 156 131 84
610.0 179 136 120 113 146 165 171 116 128 122
650.0 144 185 241 329 378 684 568 428 350 302
690.0 335 306 327 342 278 215 211 267 311 361
730.0 471 635 588 540 524 463 431 381 410 457
770.0 480 480 456 411 400 360 262 276 258 259
810.0 239 246 265 265 254 211 207 220 220 207
850.0 220 185 219 220 268 270 292 282 280 268
890.0 313 382 346 347 361 363 387 413 429 450
930.0 450 485 469 487 499 518 588 581 639 660
970.0 632 664 656 670 726 749 762 799 898 974
1010.0 1121 1280 1407 1576 1913 2279 2628 2820 2723 2473
1050.0 2046 1691 1387 1210 1091 1021 1004 1028 1062 1007
1090.0 964 881 794 709 680 648 682 679 626 628
1130.0 556 564 545 529 539 540 495 477 439 420
1170.0 394 391 392 405 423 438 452 485 539 556
1210.0 581 588 637 663 677 758 858 972 1080 1171
1250.0 1270 1322 1393 1432 1493 1589 1653 1738 1776 1879
1290.0 2027 2221 2417 2695 3018 3427 3937 4587 5558 6744
1330.0 7936 8653 8884 8592 8344 7883 7285 6709 6076 5423
1370.0 4688 3988 3400 3089 2804 2486 2263 2210 2464 3089
1410.0 4367 6198 7497 7784 7298 6222 5386 4258 3344 2762
1450.0 2454 2395 2299 2469 2530 2603 2510 2774 3063 2901
1490.0 2219 1608 1085 816 610 505 532 499 486 485
1530.0 447 364 337 208 231 269 250 157 157 218
1570.0 188 211 167 209 196 188 183 188 174 172
1610.0 156 173 111 141 131 137 138 83 140 103
1650.0 107 0 118 121 133 90 97 94 92 37
1690.0 95 105 61 15 78 105 91 45 96 108
1730.0 102 49 90 92 90 77 95 106 117 130
1770.0 105 88 119 101 91 97 71 88 75 92
1810.0 86 88 79 79 69 70 77 79 73 45
1850.0 73 84 84 78 72 54 74 76 78 78
1890.0 67 76 73 80 78 70 77 70 71 71
1930.0 75 71 76 69 73 75 70 74 69 69
1970.0 75 74 74 74 74 74 67 70 80 83
2010.0 79 77 78 84 78 84 91 89 87 94
2050.0 86 87 86 88 88 88 89 88 94 88
2090.0 93 92 95 89 86 93 93 93 93 98
2130.0 91 91 91 98 91 91 91 92 86 89
2170.0 84 85 83 79 85 78 77 77 83 75
2210.0 81 84 77 77 81 71 77 76 70 71
2250.0 75 68 64 64 64 64 60 62 63 68
2290.0 63 57 62 56 60 56 56 56 56 46
2330.0 32 37 43 42 42 55 60 54 55 71
2370.0 60 58 64 65 69 70 71 64 64 63
2410.0 64 69 65 63 63 60 58 56 52 51
2450.0 51 51 51 50 50 49 49 47 43 51
2490.0 46 49 49 50 50 51 51 58 59 54
2530.0 65 60 65 66 70 72 73 79 85 91
2570.0 85 93 94 93 102 98 105 108 108 114
2610.0 111 108 108 114 114 109 122 121 121 127
2650.0 125 138 136 139 151 154 160 167 178 173
2690.0 173 174 176 183 190 191 194 206 216 224
2730.0 231 255 269 283 292 292 291 289 290 299
2770.0 303 309 328 347 366 396 416 434 455 475
2810.0 504 530 574 615 675 736 810 913 1050 1246
2850.0 1547 1982 2590 3344 4102 4671 4844 4990 5214 5286
2890.0 5027 4661 4478 4549 4800 5243 5824 6553 7384 8277
2930.0 9162 9790 10000 9611 8683 7577 6861 7006 7941 9173
2970.0 9493 8069 5928 4109 2841 2044 1556 1242 1045 892
3010.0 780 696 621 570 535 483 453 416 391 373
3050.0 336 318 312 288 283 265 263 245 227 236
3090.0 226 223 215 217 210 204 193 181 176 181
3130.0 171 168 166 149 151 148 145 155 143 150
3170.0 144 137 135 122 125 126 119 118 118 113
3210.0 107 112 102 89 90 91 79 83 93 86
3250.0 94 81 76 73 71 83 83 65 78 75
3290.0 83 72 70 70 83 79 84 80 86 82
3330.0 82 81 82 70 80 90 86 80 84 84
3370.0 66 80 81 81 86 86 76 82 73 80
3410.0 80 78 77 80 79 90 73 85 79 81
3450.0 82 94 84 86 92 85 82 80 73 77
3490.0 79 91 86 88 70 77 77 74 85 64
3530.0 68 81 70 77 53 67 65 73 73 60
3570.0 43 92 94 85 67 38 65 51 77 82
3610.0 56 55 62 63 96 43 81 121 131 145
3650.0 139 213 262 339 370 346 332 293 280 247
3690.0 195 225 215 175 157 119 86 99 96 84
3730.0 87 54 45 71 21 33 55 90 79 103
3770.0 89 107 114 104 111 104 117 99 88 89
3810.0 99 101 89 73 108 115 86 86 85 92
3850.0 86 52 78 76 81 76 94 101 100 88
3890.0 85 74 80 66 70 91 87 75 74 69
3930.0 81 82 75 57 65 71 39 42 42 43
##END=
