##TITLE=2-Propanone, 1-fluoren-9-yl-,
##JCAMP-DX=4.24
##DATA TYPE=INFRARED SPECTRUM
##ORIGIN=Sadtler Research Labs Under US-EPA Contract
##OWNER=NIST Standard Reference Data Program
##CAS REGISTRY NO=2470-85-1
##MOLFORM=C 16 H 14 O
##XUNITS=1/CM
##YUNITS=ABSORBANCE
##XFACTOR=1.0
##YFACTOR=0.000028693
##DELTAX=4.0
##FIRSTX=450.0
##LASTX=3966.0
##FIRSTY=0.000947
##MAXX=3966
##MINX=450
##MAXY=0.28693
##MINY=0
##NPOINTS=880
##XYDATA=(X++(Y..Y))
450.0 33 0 160 24 66 44 156 189 286 242
490.0 291 253 267 342 381 490 481 577 582 664
530.0 803 1278 2265 2976 2889 1926 1104 833 767 623
570.0 484 482 444 455 511 605 627 759 772 644
610.0 518 594 885 1143 1026 598 347 321 326 302
650.0 346 362 336 348 358 466 349 317 305 346
690.0 323 367 377 308 344 344 539 891 1892 3879
730.0 6363 8793 10000 8764 7411 8047 6480 3713 1915 791
770.0 577 436 413 376 333 311 248 281 251 293
810.0 275 295 260 217 233 235 247 259 242 237
850.0 218 245 268 289 259 300 314 320 309 280
890.0 222 236 217 235 250 206 252 251 263 303
930.0 363 498 578 526 447 412 452 504 513 483
970.0 429 407 405 410 423 431 451 488 631 785
1010.0 872 938 1028 1066 1017 849 655 465 375 308
1050.0 273 261 252 273 289 304 273 274 276 284
1090.0 323 375 462 488 464 396 365 381 417 515
1130.0 643 855 1187 1642 2296 3091 3678 3680 3116 2425
1170.0 1937 1688 1665 1782 1849 1737 1503 1411 1585 1787
1210.0 1840 1731 1527 1340 1128 930 765 651 585 595
1250.0 661 775 944 1097 1151 1026 812 626 584 595
1290.0 659 705 772 829 970 1147 1250 1240 1154 1172
1330.0 1316 1505 1648 1745 1888 2218 2868 3580 3893 3520
1370.0 2680 1882 1376 1087 930 855 831 883 1024 1246
1410.0 1418 1496 1385 1310 1247 1258 1367 1832 2830 4032
1450.0 4794 4288 2935 1551 793 772 1061 1304 1179 777
1490.0 430 297 259 243 210 172 197 167 146 159
1530.0 152 145 83 64 82 115 83 70 82 161
1570.0 187 271 377 505 540 498 464 449 486 490
1610.0 478 375 246 176 112 125 80 112 106 118
1650.0 119 157 246 344 427 467 545 637 757 860
1690.0 1108 1319 1520 1740 1994 2378 2905 3843 5176 6957
1730.0 8831 9549 7886 5295 3084 1921 1324 1134 919 903
1770.0 790 702 666 604 576 493 484 448 428 387
1810.0 371 320 317 297 280 260 238 226 160 140
1850.0 132 148 156 183 213 210 222 184 174 145
1890.0 167 216 314 418 463 427 322 231 150 153
1930.0 201 338 468 509 435 291 166 111 97 60
1970.0 60 47 48 45 45 39 43 50 48 50
2010.0 48 48 39 48 42 48 54 48 53 45
2050.0 45 49 48 45 45 53 58 56 61 53
2090.0 46 55 54 70 67 63 73 52 61 53
2130.0 52 55 50 41 43 46 50 55 59 57
2170.0 60 57 53 60 58 51 59 56 52 46
2210.0 49 37 41 45 34 30 34 31 26 33
2250.0 33 46 49 56 50 38 35 38 43 41
2290.0 54 56 76 90 115 139 141 139 132 124
2330.0 79 86 60 91 112 86 82 56 58 10
2370.0 18 36 63 68 42 24 10 1 1 13
2410.0 10 14 22 18 8 15 15 10 15 27
2450.0 44 31 33 35 35 38 37 43 45 57
2490.0 41 47 52 45 44 39 50 37 41 32
2530.0 25 27 22 37 32 36 32 31 36 42
2570.0 35 33 27 33 41 42 47 35 46 49
2610.0 54 58 66 54 56 59 55 55 45 39
2650.0 29 27 25 27 26 30 38 17 28 33
2690.0 28 33 17 18 29 12 17 22 25 26
2730.0 15 21 16 29 35 41 43 44 41 50
2770.0 44 52 59 57 57 59 82 92 101 102
2810.0 109 121 113 115 127 127 144 145 155 178
2850.0 181 183 212 240 288 335 412 507 607 733
2890.0 931 1129 1261 1299 1278 1250 1211 1180 1167 1200
2930.0 1204 1108 943 752 626 585 590 658 734 768
2970.0 713 613 488 423 404 400 444 526 696 940
3010.0 1274 1664 2031 2268 2340 2258 2147 2175 2320 2484
3050.0 2544 2502 2645 3327 4513 5695 5963 4997 3475 2341
3090.0 1777 1452 1125 768 486 313 215 182 138 109
3130.0 100 116 112 110 120 140 142 172 161 137
3170.0 124 81 60 49 25 41 42 28 29 29
3210.0 36 39 21 8 20 14 29 30 20 23
3250.0 14 1 8 8 6 16 9 25 11 22
3290.0 29 39 32 34 44 39 39 19 38 28
3330.0 40 27 45 34 42 58 30 42 43 53
3370.0 74 67 69 58 71 74 83 78 80 103
3410.0 90 99 99 118 142 126 144 147 146 147
3450.0 166 150 118 108 88 79 88 75 65 92
3490.0 83 81 70 77 63 61 71 52 63 62
3530.0 46 53 47 50 72 70 73 68 81 90
3570.0 88 59 74 75 85 91 97 82 92 68
3610.0 71 57 56 66 70 87 79 81 92 67
3650.0 65 84 60 56 81 64 81 43 61 62
3690.0 64 38 64 48 81 53 56 55 82 64
3730.0 81 80 59 45 46 36 42 22 49 54
3770.0 43 23 31 45 45 59 61 48 14 52
3810.0 62 19 36 41 61 46 52 67 77 76
3850.0 57 30 39 63 48 71 51 76 88 70
3890.0 65 67 76 104 79 78 47 80 69 93
3930.0 96 83 60 62 87 72 103 120 75 92
##END=
