##TITLE=1-Chloroundecane
##JCAMP-DX=4.24
##DATA TYPE=INFRARED SPECTRUM
##ORIGIN=Sadtler Research Labs Under US-EPA Contract
##OWNER=NIST Standard Reference Data Program
##CAS REGISTRY NO=2473-03-2
##MOLFORM=C 11 H 23 Cl
##XUNITS=1/CM
##YUNITS=ABSORBANCE
##XFACTOR=1.0
##YFACTOR=0.000089160
##DELTAX=4.0
##FIRSTX=450.0
##LASTX=3966.0
##FIRSTY=0.002764
##MAXX=3966
##MINX=450
##MAXY=0.8916
##MINY=0
##NPOINTS=880
##XYDATA=(X++(Y..Y))
450.0 31 44 78 77 77 74 57 69 55 43
490.0 17 14 17 54 71 86 69 22 67 75
530.0 58 77 65 58 51 54 74 59 70 73
570.0 74 64 78 35 88 71 86 83 67 68
610.0 78 90 82 81 111 124 122 137 159 206
650.0 262 343 411 469 425 284 213 168 167 176
690.0 152 166 195 228 262 278 353 415 450 518
730.0 534 598 625 594 547 473 388 347 331 303
770.0 267 250 215 182 181 181 161 167 171 166
810.0 164 152 154 160 164 147 147 131 155 135
850.0 137 141 149 151 154 140 132 130 136 140
890.0 129 136 146 133 143 136 143 124 142 145
930.0 136 120 122 133 131 125 120 130 128 129
970.0 129 128 131 131 141 120 119 124 120 123
1010.0 118 114 118 120 124 124 124 118 118 118
1050.0 123 118 118 118 115 108 105 103 102 93
1090.0 95 84 88 78 82 91 79 83 83 83
1130.0 82 79 70 76 80 81 81 81 81 91
1170.0 92 89 89 95 87 96 90 95 101 96
1210.0 102 107 101 120 117 127 140 145 155 177
1250.0 197 218 237 260 271 289 327 363 404 458
1290.0 516 545 554 534 525 508 480 440 401 359
1330.0 319 289 287 306 330 345 358 353 329 302
1370.0 295 289 272 277 270 224 179 160 140 140
1410.0 131 134 151 166 181 222 275 372 442 575
1450.0 739 856 956 966 947 833 690 484 334 244
1490.0 199 156 156 119 147 128 96 101 118 91
1530.0 80 84 85 121 82 67 74 106 98 66
1570.0 77 64 80 50 50 50 50 54 55 48
1610.0 54 55 79 55 61 54 55 78 47 70
1650.0 57 120 52 52 47 62 53 56 51 84
1690.0 52 49 78 89 56 49 46 75 47 45
1730.0 39 74 52 55 49 59 54 48 49 37
1770.0 50 59 36 43 37 40 49 36 42 31
1810.0 30 36 31 31 39 42 35 32 32 41
1850.0 30 28 29 29 28 39 28 29 27 28
1890.0 31 27 27 27 27 27 26 27 26 26
1930.0 26 26 26 25 29 26 26 25 25 25
1970.0 24 24 24 24 24 24 24 23 23 30
2010.0 30 29 34 28 34 34 34 33 35 33
2050.0 33 29 34 31 27 28 26 26 27 27
2090.0 27 20 20 23 26 21 22 24 26 19
2130.0 25 20 19 24 24 23 22 20 23 23
2170.0 23 23 23 23 23 22 23 23 23 18
2210.0 22 19 22 22 19 16 22 22 16 21
2250.0 15 21 21 21 20 20 20 20 20 18
2290.0 20 24 20 19 19 23 23 24 29 27
2330.0 37 41 41 33 39 22 22 27 46 47
2370.0 37 36 26 18 15 15 10 16 15 15
2410.0 15 14 20 15 15 15 15 8 8 9
2450.0 9 7 7 8 8 8 8 8 6 6
2490.0 6 6 6 6 6 12 12 6 11 17
2530.0 18 13 17 17 18 18 18 18 18 18
2570.0 19 24 26 30 30 30 30 30 30 37
2610.0 36 43 43 48 49 48 48 55 55 54
2650.0 54 64 65 67 72 77 78 83 88 90
2690.0 91 89 84 82 73 73 73 69 79 79
2730.0 79 86 86 92 98 90 99 91 92 96
2770.0 97 100 103 114 126 132 150 167 179 201
2810.0 211 240 263 299 338 390 451 536 663 886
2850.0 1268 1908 2829 3717 4099 3818 3222 2677 2343 2151
2890.0 1933 1796 1859 2088 2441 2874 3417 4199 5439 7239
2930.0 9188 10000 9700 8511 6836 5377 4201 3691 3740 3939
2970.0 3901 3237 2278 1546 1147 988 966 985 906 698
3010.0 492 378 317 268 237 218 199 177 161 148
3050.0 131 120 108 103 93 90 86 81 72 68
3090.0 68 60 66 62 55 50 51 51 51 45
3130.0 45 45 43 40 37 39 41 41 47 41
3170.0 47 36 36 41 36 42 35 31 31 31
3210.0 33 32 28 33 33 27 28 23 19 19
3250.0 22 19 23 19 17 12 12 19 7 14
3290.0 14 20 17 14 14 11 16 19 14 21
3330.0 15 14 14 9 16 19 14 18 16 21
3370.0 15 23 23 16 23 16 17 16 20 24
3410.0 17 17 19 18 14 18 19 13 19 20
3450.0 13 6 6 16 14 17 15 14 16 15
3490.0 10 15 16 11 15 13 16 15 9 15
3530.0 13 12 12 18 17 24 18 19 17 15
3570.0 26 17 15 21 19 31 30 24 30 20
3610.0 37 37 38 40 36 51 37 43 37 37
3650.0 54 49 38 38 39 53 49 47 35 43
3690.0 51 41 40 39 41 46 46 35 41 45
3730.0 46 55 55 49 72 56 54 48 47 49
3770.0 49 42 42 43 43 44 47 55 64 54
3810.0 56 55 61 61 56 57 61 62 56 56
3850.0 55 80 58 57 57 57 57 53 57 58
3890.0 58 58 59 59 59 59 53 54 48 49
3930.0 54 49 48 50 52 61 0 4 4 4
##END=
