##TITLE=3,3-Dimethyl-2-butanone oxime
##JCAMP-DX=4.24
##DATA TYPE=INFRARED SPECTRUM
##ORIGIN=Sadtler Research Labs Under US-EPA Contract
##OWNER=NIST Standard Reference Data Program
##CAS REGISTRY NO=2475-93-6
##MOLFORM=C 6 H 13 N O
##XUNITS=1/CM
##YUNITS=ABSORBANCE
##XFACTOR=1.0
##YFACTOR=0.000089468
##DELTAX=4.0
##FIRSTX=450.0
##LASTX=3966.0
##FIRSTY=0.004652
##MAXX=3966
##MINX=450
##MAXY=0.89468
##MINY=0
##NPOINTS=880
##XYDATA=(X++(Y..Y))
450.0 52 236 232 223 190 109 146 133 65 51
490.0 26 10 20 11 34 35 67 40 25 30
530.0 40 66 101 143 245 355 560 703 788 801
570.0 734 633 381 170 87 51 41 49 56 59
610.0 72 70 72 70 87 92 102 85 109 130
650.0 137 150 170 166 186 228 234 243 266 270
690.0 291 303 316 315 317 338 432 549 740 897
730.0 1008 1070 1002 940 736 495 359 270 211 184
770.0 174 164 163 163 166 166 152 133 117 95
810.0 75 68 62 51 65 76 82 87 96 91
850.0 104 104 102 103 137 177 237 354 563 921
890.0 1461 2204 3240 4424 5601 6556 6905 6827 6013 4758
930.0 3354 2067 1351 1057 940 876 840 861 928 1047
970.0 1154 1272 1381 1412 1387 1285 1125 922 727 571
1010.0 471 447 490 614 755 874 954 898 812 686
1050.0 473 316 222 155 121 80 63 37 26 24
1090.0 10 13 11 25 32 47 70 112 162 253
1130.0 391 643 1032 1565 2047 2386 2579 2478 2226 1704
1170.0 1103 724 541 473 466 497 551 601 621 594
1210.0 522 446 347 252 192 157 126 100 88 80
1250.0 97 137 205 305 420 535 620 683 690 661
1290.0 578 497 432 377 356 360 439 622 983 1547
1330.0 2287 2992 3531 3853 3863 3680 3305 2917 2691 2964
1370.0 3077 2875 2711 2370 1864 1397 1023 811 665 594
1410.0 545 486 458 444 435 430 471 519 583 680
1450.0 824 983 1160 1355 1470 1559 1594 1548 1399 1237
1490.0 1037 834 611 429 336 277 247 209 206 178
1530.0 179 159 166 160 157 152 150 154 154 155
1570.0 157 149 139 117 95 85 76 69 67 62
1610.0 65 72 89 101 126 147 177 201 215 208
1650.0 195 168 131 81 52 37 28 21 30 32
1690.0 36 43 70 87 109 130 154 181 195 200
1730.0 200 207 193 177 165 155 141 128 113 100
1770.0 96 79 70 60 59 50 55 53 61 59
1810.0 59 61 58 60 54 50 37 32 24 23
1850.0 11 10 7 7 5 7 7 4 7 4
1890.0 8 8 9 6 6 5 5 6 5 6
1930.0 6 10 14 14 19 16 13 14 14 13
1970.0 12 12 11 9 8 10 6 12 9 8
2010.0 12 11 11 13 13 14 15 19 20 18
2050.0 22 20 19 18 18 19 19 19 15 15
2090.0 16 18 14 20 19 19 20 13 12 10
2130.0 9 3 4 2 3 4 3 4 5 7
2170.0 7 7 12 14 13 18 22 23 24 28
2210.0 27 22 17 15 16 17 22 26 32 33
2250.0 32 28 26 22 17 20 23 31 36 40
2290.0 43 49 50 44 44 41 29 18 16 5
2330.0 6 13 12 17 25 33 15 17 34 43
2370.0 46 51 56 52 38 24 20 19 18 15
2410.0 17 15 10 9 6 4 6 5 9 6
2450.0 6 7 8 8 10 9 15 13 19 23
2490.0 21 23 26 22 22 23 21 24 25 25
2530.0 26 26 29 33 34 37 38 41 41 40
2570.0 38 39 42 43 48 55 63 72 76 81
2610.0 84 82 75 69 63 60 56 50 54 57
2650.0 61 67 76 83 89 94 96 92 89 82
2690.0 72 67 62 60 64 73 80 93 104 111
2730.0 111 107 101 98 93 92 92 96 92 94
2770.0 91 96 102 110 121 134 149 161 173 180
2810.0 183 190 200 211 219 238 258 286 323 376
2850.0 449 561 722 967 1261 1575 1876 2137 2266 2244
2890.0 2187 2172 2236 2382 2606 2811 2980 3116 3214 3293
2930.0 3386 3511 3679 3909 4168 4563 5238 6223 7344 8735
2970.0 9766 10000 9760 8517 7336 5744 3876 2750 2055 1539
3010.0 1149 889 725 609 533 475 438 404 375 348
3050.0 334 316 298 282 268 254 237 233 217 212
3090.0 193 190 184 173 170 152 151 141 137 135
3130.0 129 131 127 127 130 127 119 117 112 100
3170.0 103 100 98 99 102 102 104 105 105 103
3210.0 104 101 99 101 97 96 90 91 78 77
3250.0 75 74 75 82 81 88 95 98 88 84
3290.0 78 73 63 58 59 63 58 51 43 42
3330.0 38 39 34 23 25 26 20 22 18 14
3370.0 12 16 12 8 14 20 19 20 23 17
3410.0 20 21 22 19 19 20 16 16 13 8
3450.0 11 15 13 8 7 11 8 4 10 6
3490.0 9 3 8 9 8 10 20 20 21 14
3530.0 16 22 22 16 24 14 23 23 25 21
3570.0 24 25 32 42 47 64 86 93 121 153
3610.0 193 251 359 562 914 1606 2672 3952 4901 5241
3650.0 5283 4695 3862 2524 1260 624 337 226 164 135
3690.0 117 96 91 77 76 61 36 36 23 17
3730.0 16 26 19 19 20 0 16 9 3 8
3770.0 9 14 14 18 19 14 16 13 2 26
3810.0 30 40 22 21 21 27 17 21 10 32
3850.0 29 29 29 30 26 27 41 47 33 45
3890.0 40 46 37 55 46 52 36 45 47 38
3930.0 47 40 37 43 59 47 43 48 49 56
##END=
