##TITLE=Ethanone, 1-(2,5-dichlorophenyl)-
##JCAMP-DX=4.24
##DATA TYPE=INFRARED SPECTRUM
##ORIGIN=Sadtler Research Labs Under US-EPA Contract
##OWNER=NIST Standard Reference Data Program
##CAS REGISTRY NO=2476-37-1
##MOLFORM=C 8 H 6 Cl 2 O
##XUNITS=1/CM
##YUNITS=ABSORBANCE
##XFACTOR=1.0
##YFACTOR=0.000057510
##DELTAX=4.0
##FIRSTX=450.0
##LASTX=3966.0
##FIRSTY=0.011962
##MAXX=3966
##MINX=450
##MAXY=0.5751
##MINY=0
##NPOINTS=880
##XYDATA=(X++(Y..Y))
450.0 208 152 247 315 414 482 467 393 279 179
490.0 140 123 131 310 355 557 807 1170 1515 1763
530.0 1742 1533 1197 1067 1206 1331 1497 1459 1293 1044
570.0 781 427 423 417 386 403 525 765 992 1217
610.0 1249 1294 1116 899 600 311 159 44 28 3
650.0 10 45 61 26 47 91 100 208 239 269
690.0 225 161 100 89 94 140 153 213 170 121
730.0 74 54 93 57 55 38 29 46 32 30
770.0 68 52 53 100 104 155 271 442 892 1712
810.0 2839 4037 4844 3170 1923 931 403 193 181 166
850.0 162 185 199 268 365 457 677 949 1235 1343
890.0 1139 809 519 312 200 166 158 153 158 147
930.0 192 203 248 275 332 415 505 589 675 706
970.0 676 602 511 406 351 324 307 343 372 427
1010.0 503 579 704 861 1087 1500 2205 3088 3682 3690
1050.0 3088 2150 1456 1097 921 860 917 1101 1398 1917
1090.0 2803 4175 5689 6267 5652 4042 2387 1423 983 794
1130.0 801 947 1072 1108 985 766 656 639 658 685
1170.0 681 673 666 699 727 772 858 979 1206 1677
1210.0 2424 3514 4857 6182 6890 6505 5112 3386 2156 1806
1250.0 2145 2845 3991 5549 6979 7440 6563 4513 2517 1489
1290.0 1006 732 550 423 360 344 350 373 407 464
1330.0 510 608 694 877 1195 1719 2460 3106 3404 3323
1370.0 3131 3396 4241 5004 5045 4162 2741 1681 1242 1047
1410.0 976 994 1048 1159 1256 1381 1475 1660 1888 2331
1450.0 3083 4186 5415 5838 5228 3818 2233 1250 816 592
1490.0 467 399 372 323 315 280 263 253 243 248
1530.0 223 272 308 381 479 671 899 1058 1030 833
1570.0 662 603 723 777 799 724 612 486 424 425
1610.0 452 505 565 592 609 638 601 576 505 457
1650.0 420 478 476 543 632 820 1042 1383 1688 2031
1690.0 2278 2577 2961 3614 4745 6597 8645 10000 9833 8041
1730.0 5719 4043 2954 2353 1916 1569 1287 1075 890 748
1770.0 657 618 600 561 539 470 383 275 216 184
1810.0 164 145 150 130 140 146 145 155 147 148
1850.0 113 98 89 80 77 89 102 137 166 222
1890.0 257 249 223 171 124 87 77 68 67 63
1930.0 56 66 69 74 72 82 78 77 85 75
1970.0 69 87 70 73 64 63 79 86 86 89
2010.0 93 91 83 85 77 70 70 59 55 56
2050.0 58 47 48 65 40 31 7 7 1 1
2090.0 20 27 52 56 54 68 78 76 77 69
2130.0 76 59 59 59 59 59 58 64 64 54
2170.0 57 52 52 50 68 68 76 68 59 66
2210.0 78 57 58 57 61 51 49 66 66 75
2250.0 69 63 76 74 80 93 89 94 86 72
2290.0 74 51 43 29 13 20 12 7 2 10
2330.0 28 52 66 69 71 13 1 1 74 134
2370.0 138 145 151 112 90 75 87 72 64 63
2410.0 55 55 55 55 65 65 55 72 64 67
2450.0 83 82 83 91 83 84 89 87 94 84
2490.0 84 93 93 96 101 103 94 112 104 100
2530.0 87 97 88 77 94 103 88 97 72 72
2570.0 72 63 91 94 114 115 120 139 135 153
2610.0 166 161 170 152 152 128 137 119 148 168
2650.0 169 146 105 84 72 69 60 69 80 96
2690.0 115 117 99 108 96 102 100 96 98 115
2730.0 81 82 88 90 87 89 90 89 95 98
2770.0 102 88 102 110 111 127 123 117 128 148
2810.0 141 136 131 140 144 138 138 139 165 163
2850.0 168 163 161 157 146 148 134 140 154 149
2890.0 133 134 136 148 154 158 180 182 205 232
2930.0 262 292 292 284 257 264 243 260 259 268
2970.0 284 303 303 284 277 302 302 337 364 400
3010.0 437 454 457 431 397 341 319 286 267 227
3050.0 227 229 229 236 269 305 343 360 346 319
3090.0 283 265 252 231 190 162 190 160 147 142
3130.0 144 131 112 112 108 96 96 97 96 80
3170.0 98 103 75 104 89 75 81 67 77 87
3210.0 64 81 83 75 64 64 68 69 70 83
3250.0 52 55 52 47 76 61 69 43 91 61
3290.0 70 87 63 72 81 75 85 71 45 46
3330.0 37 72 80 32 50 36 50 55 29 83
3370.0 74 75 74 83 68 77 76 103 107 112
3410.0 118 130 133 121 124 110 103 102 79 57
3450.0 53 36 36 22 46 16 19 17 53 56
3490.0 38 48 86 14 88 60 2 49 61 72
3530.0 74 7 47 42 48 32 56 50 30 10
3570.0 46 33 55 53 5 38 60 69 60 79
3610.0 64 51 26 9 79 81 100 104 66 60
3650.0 86 79 111 94 61 71 65 71 85 79
3690.0 122 77 53 58 81 44 81 71 33 46
3730.0 53 68 64 89 122 68 116 115 122 84
3770.0 102 73 56 59 56 85 55 46 61 111
3810.0 80 64 51 51 25 42 48 43 42 20
3850.0 4 8 27 37 44 80 122 103 66 69
3890.0 60 74 55 40 59 86 69 40 30 21
3930.0 1 1 9 0 1 1 1 1 37 42
##END=
