##TITLE=Ethanone, 1-(4-hydroxy-3,5-dimethoxyphenyl)-
##JCAMP-DX=4.24
##DATA TYPE=INFRARED SPECTRUM
##ORIGIN=Sadtler Research Labs Under US-EPA Contract
##OWNER=NIST Standard Reference Data Program
##CAS REGISTRY NO=2478-38-8
##MOLFORM=C 10 H 12 O 4
##XUNITS=1/CM
##YUNITS=ABSORBANCE
##XFACTOR=1.0
##YFACTOR=0.000149768
##DELTAX=4.0
##FIRSTX=450.0
##LASTX=3966.0
##FIRSTY=0.055115
##MAXX=3966
##MINX=450
##MAXY=1.49768
##MINY=0
##NPOINTS=880
##XYDATA=(X++(Y..Y))
450.0 368 312 461 511 658 582 632 531 415 534
490.0 495 551 455 357 295 320 278 292 232 280
530.0 261 252 211 128 171 107 69 270 101 172
570.0 168 305 380 548 674 840 1021 1017 1037 978
610.0 770 647 522 387 310 258 252 352 371 360
650.0 373 310 223 182 137 121 48 46 12 50
690.0 92 56 25 59 35 25 56 2 9 58
730.0 60 148 141 237 328 379 428 362 310 346
770.0 474 609 699 694 633 462 320 185 152 110
810.0 99 93 100 148 237 327 351 377 333 328
850.0 375 464 570 660 667 639 571 523 492 488
890.0 430 370 350 324 406 481 528 558 503 427
930.0 335 269 217 227 237 255 273 329 433 500
970.0 544 546 480 400 339 318 324 315 340 371
1010.0 415 459 515 613 690 754 770 734 688 636
1050.0 624 654 718 783 916 1127 1361 1645 1981 2380
1090.0 2774 3258 3866 4434 4961 5085 4897 4559 3940 3218
1130.0 2475 1802 1311 1052 909 809 775 785 864 981
1170.0 1210 1541 1958 2322 2576 2803 3220 3981 5035 6169
1210.0 6777 6805 6243 5168 4103 3061 2235 1753 1491 1402
1250.0 1404 1430 1494 1596 1676 1722 1710 1641 1575 1496
1290.0 1536 1746 2247 3025 4304 6119 8190 10000 9913 8714
1330.0 6421 4356 2910 2098 1873 2197 2853 3415 3505 3180
1370.0 2666 2245 2010 1760 1452 1220 1054 1028 1193 1484
1410.0 1994 2611 3126 3309 3067 2489 1853 1451 1224 1207
1450.0 1409 1717 2094 2317 2318 2137 1855 1687 1599 1591
1490.0 1751 2079 2486 2740 2807 2633 2276 1864 1389 1128
1530.0 871 678 486 313 301 354 369 372 448 587
1570.0 681 809 1010 1247 1538 1895 2302 2571 2951 2999
1610.0 2856 2547 1996 1539 1044 750 545 463 464 507
1650.0 487 531 624 637 629 649 653 809 937 1388
1690.0 2465 3731 4605 4283 3128 1620 776 342 275 254
1730.0 192 199 234 269 268 198 171 117 84 83
1770.0 53 31 47 37 38 25 10 12 18 32
1810.0 16 25 27 29 16 5 34 35 28 9
1850.0 21 37 27 34 26 19 35 38 32 21
1890.0 0 9 17 21 23 29 35 37 36 47
1930.0 61 59 64 60 61 60 65 61 52 41
1970.0 35 36 32 45 46 36 40 52 55 58
2010.0 53 55 55 58 65 58 56 54 41 34
2050.0 33 28 30 28 31 35 30 41 48 63
2090.0 65 68 72 67 73 71 73 71 65 66
2130.0 67 66 55 55 44 29 30 33 29 32
2170.0 26 20 23 28 30 32 38 37 33 35
2210.0 24 23 32 33 38 41 34 35 30 23
2250.0 20 14 18 14 20 25 28 28 29 32
2290.0 30 36 32 31 34 34 22 14 13 13
2330.0 8 0 0 0 1 11 23 15 12 12
2370.0 0 0 10 5 7 0 0 2 4 4
2410.0 4 6 9 7 8 10 8 14 15 17
2450.0 14 18 25 22 32 34 36 41 41 34
2490.0 33 29 30 26 23 29 34 35 40 40
2530.0 33 34 31 29 30 33 33 30 27 25
2570.0 19 15 23 18 16 16 14 20 21 17
2610.0 18 18 31 34 44 49 46 58 58 57
2650.0 48 51 42 34 30 27 24 24 22 29
2690.0 31 32 27 26 35 32 33 37 45 51
2730.0 51 55 60 50 47 52 47 41 38 27
2770.0 25 24 19 27 34 43 53 65 78 100
2810.0 118 138 168 190 230 274 342 445 584 719
2850.0 784 765 677 557 474 431 415 417 417 409
2890.0 402 392 388 392 421 463 527 599 661 706
2930.0 769 848 992 1188 1383 1496 1473 1336 1188 1086
2970.0 1029 985 918 822 731 672 670 734 872 1078
3010.0 1251 1293 1141 867 584 407 309 248 219 192
3050.0 176 177 187 184 184 204 228 248 272 287
3090.0 285 266 247 219 192 171 150 138 117 104
3130.0 99 88 69 61 59 67 60 68 58 47
3170.0 55 73 74 81 85 87 92 67 61 53
3210.0 44 41 40 36 26 37 41 32 37 52
3250.0 52 61 67 70 71 78 69 72 69 74
3290.0 72 71 66 64 68 58 58 55 62 62
3330.0 63 75 78 78 94 100 111 115 125 137
3370.0 149 164 168 152 123 94 71 43 38 40
3410.0 62 71 92 97 97 119 119 117 121 131
3450.0 134 137 145 142 115 123 133 130 133 127
3490.0 124 127 128 134 129 138 152 167 182 177
3530.0 195 228 254 303 395 586 873 1302 1834 2382
3570.0 2675 2746 2378 1769 1210 725 427 262 169 125
3610.0 87 65 62 59 71 49 42 38 58 59
3650.0 37 36 36 36 31 30 1 14 23 34
3690.0 37 44 63 52 52 57 65 102 111 145
3730.0 161 213 280 302 311 282 258 186 156 80
3770.0 63 52 42 47 57 70 74 74 61 61
3810.0 81 103 114 83 79 94 88 113 85 68
3850.0 74 46 61 68 58 56 62 35 54 69
3890.0 73 82 70 61 104 108 123 106 75 80
3930.0 64 54 12 37 20 17 22 13 22 73
##END=
