##TITLE=2-Decenoic acid, methyl ester
##JCAMP-DX=4.24
##DATA TYPE=INFRARED SPECTRUM
##ORIGIN=Sadtler Research Labs Under US-EPA Contract
##OWNER=NIST Standard Reference Data Program
##CAS REGISTRY NO=2482-39-5
##MOLFORM=C 11 H 20 O 2
##XUNITS=1/CM
##YUNITS=ABSORBANCE
##XFACTOR=1.0
##YFACTOR=0.000063675
##DELTAX=4.0
##FIRSTX=450.0
##LASTX=3966.0
##FIRSTY=0.000000
##MAXX=3966
##MINX=450
##MAXY=0.63675
##MINY=0
##NPOINTS=880
##XYDATA=(X++(Y..Y))
450.0 0 29 10 9 28 12 16 27 41 35
490.0 67 59 87 69 69 93 104 48 92 84
530.0 107 119 126 130 114 140 103 61 124 76
570.0 79 71 47 103 105 38 60 61 44 75
610.0 62 53 40 76 57 9 57 46 53 56
650.0 66 90 8 47 45 107 103 128 111 185
690.0 187 225 284 324 361 401 434 399 392 330
730.0 302 234 210 178 171 163 128 161 158 140
770.0 137 163 54 101 118 114 138 174 185 129
810.0 173 193 236 304 309 324 340 368 403 438
850.0 444 410 390 361 328 302 293 294 306 292
890.0 293 297 281 292 260 290 305 307 330 322
930.0 315 278 253 269 270 311 364 421 552 692
970.0 852 1015 1184 1179 1024 798 678 568 545 553
1010.0 610 678 809 939 1128 1311 1473 1589 1705 1804
1050.0 1715 1472 1207 1004 899 797 718 643 567 543
1090.0 495 492 493 548 628 759 904 1095 1323 1456
1130.0 1435 1299 1164 1168 1341 1727 2328 3072 3721 4190
1170.0 4336 4320 4156 3947 3771 3749 3912 4153 4112 3753
1210.0 3210 2706 2290 2013 1856 1814 1853 1988 2131 2357
1250.0 2642 3155 3951 4952 5788 5748 4953 3894 3171 2754
1290.0 2525 2378 2348 2348 2431 2520 2618 2648 2593 2435
1330.0 2221 1986 1894 1803 1602 1333 1090 909 777 670
1370.0 608 539 503 509 483 427 354 318 313 325
1410.0 340 363 364 415 523 763 1275 2111 2378 1843
1450.0 1257 1090 1041 1068 1075 1000 804 610 478 350
1490.0 278 240 193 175 177 116 149 132 106 117
1530.0 124 114 122 87 102 117 113 104 88 103
1570.0 105 112 98 105 112 108 111 108 111 123
1610.0 126 137 151 207 216 294 365 468 641 879
1650.0 1201 1610 2128 2429 2122 1385 773 497 397 348
1690.0 369 412 465 557 660 789 924 1081 1361 1713
1730.0 2304 3245 5153 7764 10000 9550 6753 4545 3207 2380
1770.0 1831 1378 1057 777 581 441 338 276 218 195
1810.0 161 138 123 106 105 93 81 76 69 56
1850.0 56 73 57 65 53 48 41 54 52 57
1890.0 56 54 45 53 49 49 48 48 46 40
1930.0 34 36 32 24 40 40 51 41 45 34
1970.0 43 37 44 44 42 40 38 35 46 50
2010.0 52 60 56 60 60 68 67 77 66 77
2050.0 71 75 76 82 81 83 83 91 83 99
2090.0 91 91 88 90 89 87 79 72 61 61
2130.0 55 46 40 45 38 40 41 26 35 30
2170.0 32 39 30 25 32 32 31 30 30 37
2210.0 32 23 20 21 23 33 24 23 31 23
2250.0 16 26 15 23 20 20 17 16 16 25
2290.0 16 18 18 9 26 19 10 26 24 21
2330.0 24 30 32 18 41 34 36 40 40 17
2370.0 28 18 28 31 26 28 22 28 21 30
2410.0 29 16 24 28 27 23 26 30 31 29
2450.0 30 31 30 23 31 33 25 23 24 32
2490.0 38 21 25 33 34 40 34 42 41 28
2530.0 46 37 37 42 38 40 43 50 50 50
2570.0 52 43 51 46 49 47 56 62 64 61
2610.0 52 53 60 62 54 63 62 69 72 82
2650.0 87 86 85 94 94 95 102 95 112 102
2690.0 99 95 91 92 88 83 87 85 82 88
2730.0 97 97 99 115 125 118 104 120 104 114
2770.0 116 115 123 137 138 163 163 189 200 215
2810.0 226 262 275 306 365 413 476 588 735 994
2850.0 1375 1836 2384 2974 3375 3382 3028 2605 2366 2223
2890.0 2068 1909 1907 2037 2313 2654 3133 3748 4637 5881
2930.0 7466 8795 9288 8490 7133 5659 4813 4855 5237 5233
2970.0 4822 4033 2977 2020 1505 1237 1116 1060 996 908
3010.0 828 751 732 703 721 688 647 572 505 445
3050.0 436 412 428 421 372 325 279 260 226 211
3090.0 196 199 176 154 140 139 122 131 113 121
3130.0 102 109 90 99 85 85 84 95 94 94
3170.0 64 61 76 76 70 68 64 59 52 44
3210.0 55 59 51 50 50 49 43 36 45 34
3250.0 42 39 43 29 30 15 37 30 40 42
3290.0 31 17 29 17 39 34 27 24 27 33
3330.0 33 40 38 48 23 44 43 43 49 42
3370.0 43 51 35 50 38 51 54 50 52 41
3410.0 46 36 33 33 45 9 37 37 17 23
3450.0 24 49 73 65 88 69 76 92 94 55
3490.0 55 56 34 45 51 22 22 41 49 49
3530.0 29 30 22 49 41 50 50 51 58 55
3570.0 62 77 69 101 87 89 59 66 60 59
3610.0 67 63 53 75 55 62 57 47 61 60
3650.0 57 76 61 61 62 66 78 60 66 58
3690.0 68 52 55 64 63 55 45 35 24 50
3730.0 68 68 68 71 67 61 57 64 59 66
3770.0 57 68 67 67 63 70 69 66 73 69
3810.0 67 61 58 68 68 70 64 71 67 64
3850.0 61 66 62 64 60 53 61 70 71 71
3890.0 69 51 52 52 61 42 58 58 49 57
3930.0 50 42 43 53 42 45 60 59 68 68
##END=
