##TITLE=Acetophenone, 2'-hydroxy-2-phenyl-,
##JCAMP-DX=4.24
##DATA TYPE=INFRARED SPECTRUM
##ORIGIN=Sadtler Research Labs Under US-EPA Contract
##OWNER=NIST Standard Reference Data Program
##CAS REGISTRY NO=2491-31-8
##MOLFORM=C 14 H 12 O 2
##XUNITS=1/CM
##YUNITS=ABSORBANCE
##XFACTOR=1.0
##YFACTOR=0.000070178
##DELTAX=4.0
##FIRSTX=450.0
##LASTX=3966.0
##FIRSTY=0.000000
##MAXX=3966
##MINX=450
##MAXY=0.70178
##MINY=0
##NPOINTS=880
##XYDATA=(X++(Y..Y))
450.0 0 141 281 261 441 439 476 397 325 251
490.0 199 176 196 354 426 616 666 579 436 272
530.0 220 183 203 190 220 167 195 275 370 410
570.0 523 638 663 552 438 466 547 702 934 1294
610.0 1654 1752 1565 1459 1489 1360 1045 702 561 494
650.0 488 526 583 757 805 1001 1021 1107 1359 1631
690.0 2035 2430 2758 2971 3365 3402 3184 2897 2836 2960
730.0 3096 3211 3384 3940 4809 5912 5490 3923 2512 1695
770.0 1424 1406 1425 1333 1156 936 756 605 499 416
810.0 364 323 308 312 396 500 637 774 839 772
850.0 651 528 493 504 405 287 198 176 153 142
890.0 142 143 146 163 174 189 200 207 242 289
930.0 334 362 361 345 275 211 170 186 207 248
970.0 307 399 572 789 1074 1291 1372 1270 1083 896
1010.0 792 796 855 963 1187 1387 1342 1042 659 409
1050.0 250 191 191 209 249 284 315 300 288 267
1090.0 270 280 300 335 375 447 568 825 1117 1280
1130.0 1239 1276 1702 2530 3554 4535 4926 4306 2958 1804
1170.0 1328 1174 1194 1398 1720 2026 2107 2073 2133 2490
1210.0 3019 3584 3882 3771 3415 3144 3265 3763 4442 4875
1250.0 4805 4239 3561 3050 2830 2829 2925 2979 2879 2722
1290.0 2617 2752 3232 4054 4840 4983 4381 3447 2931 2932
1330.0 3166 3314 3399 3397 3274 3025 2745 2477 2149 1837
1370.0 1571 1394 1246 1114 995 924 893 911 943 969
1410.0 973 975 1001 1062 1175 1391 1752 2287 3004 3682
1450.0 4019 3854 3242 2634 2300 2275 2595 3233 3986 4592
1490.0 4734 4588 3943 2960 2029 1395 1195 1049 951 865
1530.0 806 791 755 768 758 781 810 917 1121 1457
1570.0 2055 2805 3447 3528 3211 2748 2588 2703 2973 3233
1610.0 3484 3736 3665 3331 2841 2905 3495 4975 6982 9003
1650.0 10000 9606 8067 6204 4561 3348 2421 1829 1397 1134
1690.0 961 809 700 592 549 479 450 402 370 332
1730.0 310 303 280 275 268 274 262 260 254 258
1770.0 267 266 276 282 321 351 406 414 396 338
1810.0 287 260 250 247 239 243 230 227 208 211
1850.0 200 206 215 231 243 255 272 265 266 243
1890.0 224 200 192 192 210 246 266 267 245 236
1930.0 245 275 321 376 415 410 375 317 268 221
1970.0 193 177 174 171 170 169 166 170 164 165
2010.0 165 165 161 156 163 160 160 160 165 161
2050.0 162 160 162 159 164 170 169 168 161 162
2090.0 158 163 156 156 149 149 147 146 151 148
2130.0 152 150 159 161 168 169 165 166 161 162
2170.0 158 159 156 157 153 155 151 150 151 152
2210.0 152 150 149 145 143 144 145 141 147 152
2250.0 156 160 159 165 170 176 182 189 196 195
2290.0 200 201 199 197 197 204 212 207 216 212
2330.0 217 210 203 216 235 201 205 189 189 198
2370.0 213 217 216 207 197 188 180 179 175 178
2410.0 177 181 182 191 191 189 190 193 191 193
2450.0 196 199 204 204 202 202 201 197 204 200
2490.0 203 209 209 216 216 222 225 231 225 230
2530.0 230 234 232 237 243 249 254 259 265 267
2570.0 283 279 284 283 289 296 301 308 311 316
2610.0 322 325 328 337 342 342 340 335 332 323
2650.0 316 311 306 305 300 295 293 293 291 297
2690.0 305 312 330 344 350 352 358 363 367 368
2730.0 374 376 382 380 393 395 401 399 405 405
2770.0 400 391 389 389 389 386 388 385 383 372
2810.0 379 388 399 412 416 420 424 432 444 453
2850.0 465 473 469 468 467 469 467 473 479 493
2890.0 512 548 585 632 672 707 728 738 751 773
2930.0 792 822 840 841 821 801 790 790 793 809
2970.0 825 830 837 836 846 856 871 885 926 983
3010.0 1055 1139 1228 1382 1608 1908 2240 2444 2425 2242
3050.0 2066 2041 2159 2399 2794 3205 3320 3034 2616 2353
3090.0 2253 2141 1959 1769 1604 1502 1412 1326 1225 1151
3130.0 1092 1055 1034 1019 1003 1003 1003 1009 1009 1014
3170.0 1019 1010 1010 999 992 984 968 960 953 935
3210.0 909 897 888 871 856 844 842 840 836 829
3250.0 837 831 823 818 813 806 795 791 780 769
3290.0 756 753 743 732 714 689 686 659 649 638
3330.0 630 620 612 590 583 580 571 552 538 540
3370.0 524 512 494 478 472 467 455 450 435 426
3410.0 424 413 407 400 386 369 355 357 351 348
3450.0 339 335 324 313 308 309 282 280 271 273
3490.0 269 266 256 255 239 244 244 234 223 228
3530.0 213 221 217 205 207 204 209 193 200 197
3570.0 193 201 189 189 196 197 180 166 169 174
3610.0 173 174 171 173 173 187 161 173 174 166
3650.0 172 164 175 154 157 149 161 157 149 157
3690.0 146 150 152 162 158 141 154 150 141 155
3730.0 149 153 144 146 156 145 147 141 152 155
3770.0 152 141 141 141 141 141 141 142 143 147
3810.0 142 162 141 141 142 141 142 145 155 151
3850.0 141 162 173 160 158 157 141 142 150 163
3890.0 155 163 168 160 176 171 183 158 152 151
3930.0 167 149 149 153 143 141 148 155 159 145
##END=
