##TITLE=Benzenesulfonic acid, 3,5-dichlorophenyl ester
##JCAMP-DX=4.24
##DATA TYPE=INFRARED SPECTRUM
##ORIGIN=Sadtler Research Labs Under US-EPA Contract
##OWNER=NIST Standard Reference Data Program
##CAS REGISTRY NO=2493-57-4
##MOLFORM=C 12 H 8 Cl 2 O 3 S
##XUNITS=1/CM
##YUNITS=ABSORBANCE
##XFACTOR=1.0
##YFACTOR=0.000082919
##DELTAX=4.0
##FIRSTX=450.0
##LASTX=3966.0
##FIRSTY=0.015340
##MAXX=3966
##MINX=450
##MAXY=0.82919
##MINY=0
##NPOINTS=880
##XYDATA=(X++(Y..Y))
450.0 185 166 109 147 23 88 55 69 57 100
490.0 77 85 105 104 122 125 172 180 260 294
530.0 395 422 418 500 669 1073 2194 3953 4049 2618
570.0 1594 1443 2037 3323 4630 3846 2056 847 414 306
610.0 271 258 264 310 406 570 808 1055 1076 803
650.0 512 408 358 493 593 996 1403 1567 1784 1852
690.0 1533 958 823 921 1252 1721 1839 1473 1055 868
730.0 825 971 1356 2524 4841 6592 5546 5139 6588 7219
770.0 5260 2987 1795 1277 1053 1017 1123 1423 1963 2439
810.0 2365 1850 1408 1229 1147 999 820 683 671 796
850.0 1171 1775 2375 2176 1387 927 1025 1260 1110 725
890.0 510 457 481 570 684 889 1263 1941 3019 4504
930.0 6484 8880 10000 8349 5117 2617 1414 895 648 508
970.0 379 294 223 194 168 175 215 290 283 224
1010.0 199 182 196 242 271 216 178 146 135 131
1050.0 148 191 266 399 490 502 479 599 947 1911
1090.0 3442 4055 3105 1719 831 444 274 214 173 151
1130.0 141 135 135 145 173 219 289 403 580 823
1170.0 1231 1865 2611 3527 4711 5499 5500 4602 3526 3187
1210.0 3212 2976 2385 1737 1265 953 737 566 417 311
1250.0 243 207 186 176 185 194 208 224 242 249
1290.0 244 217 185 161 154 201 237 221 209 248
1330.0 313 382 411 385 357 389 476 630 848 1069
1370.0 1287 1606 2102 2792 3406 3668 3609 3629 4316 5737
1410.0 6479 5109 3867 3667 3791 3387 2760 2042 1492 1470
1450.0 1674 1198 651 383 260 284 353 409 378 354
1490.0 312 246 242 219 255 273 258 281 326 308
1530.0 332 317 358 390 393 417 567 857 1348 2216
1570.0 3919 6601 9194 8789 5259 2612 1370 851 594 486
1610.0 415 357 298 192 158 91 93 82 62 67
1650.0 99 93 60 28 40 42 79 45 89 86
1690.0 51 33 86 86 77 75 115 168 139 127
1730.0 143 189 158 137 117 101 82 73 79 61
1770.0 84 79 52 48 43 47 61 69 98 107
1810.0 118 104 74 59 53 54 37 29 35 46
1850.0 32 25 31 33 42 54 40 37 40 52
1890.0 70 82 93 94 87 82 79 72 70 48
1930.0 42 37 35 39 44 47 63 82 84 86
1970.0 79 83 80 74 55 51 45 37 34 35
2010.0 32 32 37 35 39 37 38 38 34 29
2050.0 23 24 22 22 24 24 25 26 25 30
2090.0 32 35 38 39 42 44 49 53 54 53
2130.0 54 49 50 50 44 42 44 39 35 37
2170.0 34 34 34 36 39 37 39 37 33 30
2210.0 29 27 25 22 23 25 25 27 27 28
2250.0 28 28 30 31 32 36 44 46 51 53
2290.0 53 53 54 54 58 60 60 62 76 84
2330.0 74 71 61 72 70 72 84 75 74 52
2370.0 64 64 73 74 64 52 44 42 40 37
2410.0 35 35 38 36 35 35 35 34 35 32
2450.0 30 26 25 27 27 30 29 29 35 34
2490.0 32 36 38 42 44 41 50 43 42 33
2530.0 35 35 35 31 37 37 36 41 40 43
2570.0 50 55 54 57 60 61 63 60 58 54
2610.0 52 50 50 49 50 49 51 52 52 55
2650.0 54 55 56 51 53 55 51 51 48 47
2690.0 41 37 36 39 38 35 35 33 32 29
2730.0 29 29 28 28 28 32 31 28 31 33
2770.0 32 35 37 33 38 37 37 37 37 35
2810.0 29 33 29 34 32 33 36 40 43 52
2850.0 53 49 56 56 54 47 42 46 44 42
2890.0 42 43 41 36 38 32 22 9 0 3
2930.0 23 44 58 61 60 57 59 57 54 51
2970.0 61 64 67 63 70 70 73 76 83 87
3010.0 92 90 87 91 97 106 108 112 107 110
3050.0 118 137 184 248 333 423 532 640 657 528
3090.0 403 371 352 302 234 168 132 102 91 76
3130.0 77 75 73 71 76 78 82 87 92 83
3170.0 74 64 57 51 48 43 41 40 39 34
3210.0 32 35 31 34 31 24 29 29 27 27
3250.0 25 27 26 29 28 31 27 33 25 32
3290.0 30 29 28 22 31 28 27 25 27 23
3330.0 27 26 33 24 26 24 24 27 31 31
3370.0 27 34 33 32 32 28 28 26 34 31
3410.0 28 29 22 26 30 28 33 30 20 24
3450.0 29 31 28 31 32 27 33 32 25 33
3490.0 36 32 25 30 30 26 27 25 30 36
3530.0 32 26 38 27 32 36 44 37 29 27
3570.0 26 40 24 28 32 35 34 24 24 26
3610.0 31 24 25 37 29 33 29 33 42 46
3650.0 57 54 49 47 41 49 38 36 28 43
3690.0 47 31 32 33 28 31 30 27 38 30
3730.0 30 32 30 30 50 23 31 16 16 40
3770.0 29 31 23 29 23 32 30 26 20 39
3810.0 20 25 23 17 25 23 28 42 30 22
3850.0 32 36 35 34 31 31 11 10 14 23
3890.0 32 40 24 35 31 38 30 24 27 12
3930.0 15 22 23 26 45 31 24 42 22 39
##END=
