##TITLE=Benzyl methacrylate
##JCAMP-DX=4.24
##DATA TYPE=INFRARED SPECTRUM
##ORIGIN=Sadtler Research Labs Under US-EPA Contract
##OWNER=NIST Standard Reference Data Program
##CAS REGISTRY NO=2495-37-6
##MOLFORM=C 11 H 12 O 2
##XUNITS=1/CM
##YUNITS=ABSORBANCE
##XFACTOR=1.0
##YFACTOR=0.000138599
##DELTAX=4.0
##FIRSTX=450.0
##LASTX=3966.0
##FIRSTY=0.000000
##MAXX=3966
##MINX=450
##MAXY=1.38599
##MINY=0
##NPOINTS=880
##XYDATA=(X++(Y..Y))
450.0 0 104 177 190 239 231 249 188 130 138
490.0 112 128 104 96 109 76 145 153 245 208
530.0 200 204 197 188 137 119 152 166 120 251
570.0 113 65 297 224 250 215 212 230 198 199
610.0 164 183 142 162 119 122 132 146 170 177
650.0 203 196 199 189 193 198 265 341 456 596
690.0 777 965 993 858 711 601 558 532 552 569
730.0 599 637 721 821 889 855 705 517 335 168
770.0 165 101 126 102 119 125 173 236 276 364
810.0 404 481 483 418 366 291 224 176 153 135
850.0 128 123 126 142 126 144 158 183 204 225
890.0 233 228 243 289 369 426 438 437 475 572
930.0 720 864 971 963 839 659 517 435 430 480
970.0 572 683 761 777 744 684 607 572 575 683
1010.0 897 1074 1080 886 626 450 336 246 189 166
1050.0 160 154 155 161 179 199 217 235 249 264
1090.0 266 284 303 337 371 398 441 522 644 846
1130.0 1191 1764 2721 4279 6470 8619 10000 9806 8585 6868
1170.0 5243 3865 2891 2261 1863 1576 1324 1132 1042 1067
1210.0 1089 989 782 563 441 381 352 338 337 345
1250.0 369 423 464 483 487 508 572 714 1005 1574
1290.0 2312 2786 2717 2217 1883 2096 2508 2668 2364 1684
1330.0 1070 709 533 435 373 323 300 300 320 361
1370.0 414 468 514 544 524 489 462 484 587 698
1410.0 742 676 548 464 407 397 405 439 506 591
1450.0 723 863 975 999 908 748 573 438 347 278
1490.0 269 344 424 427 343 193 142 127 119 127
1530.0 114 127 114 114 103 120 115 114 126 131
1570.0 138 144 160 166 181 183 198 203 216 240
1610.0 263 282 282 319 332 399 446 529 552 512
1650.0 404 296 228 185 183 168 180 195 209 220
1690.0 253 286 293 326 360 460 567 860 1298 2067
1730.0 3101 4303 5169 5210 4499 3357 2243 1420 840 560
1770.0 379 303 263 254 255 252 272 280 277 242
1810.0 207 157 147 130 124 116 108 110 106 108
1850.0 114 128 129 142 153 163 180 190 196 187
1890.0 178 158 141 123 116 112 111 107 108 118
1930.0 124 132 137 144 151 160 165 171 168 154
1970.0 134 118 109 104 106 99 101 95 94 92
2010.0 92 87 86 85 82 82 85 86 85 84
2050.0 84 82 82 85 83 86 93 93 93 96
2090.0 94 96 95 93 93 90 88 91 88 88
2130.0 90 91 88 87 88 89 84 83 82 80
2170.0 83 81 78 81 79 83 79 78 77 80
2210.0 78 79 78 80 79 80 82 81 83 85
2250.0 84 82 85 84 84 87 87 89 90 95
2290.0 98 103 101 110 108 116 115 115 107 100
2330.0 96 89 86 87 97 96 89 84 77 86
2370.0 83 88 88 88 82 81 80 82 81 83
2410.0 86 84 86 85 85 83 85 82 83 88
2450.0 86 86 88 88 84 88 85 83 85 82
2490.0 79 81 79 74 76 77 80 82 85 83
2530.0 85 86 86 88 84 88 84 87 86 81
2570.0 81 85 84 85 88 84 85 86 83 86
2610.0 90 89 91 89 87 86 85 89 90 83
2650.0 83 83 86 82 83 85 84 89 90 84
2690.0 89 91 89 91 93 93 91 95 94 99
2730.0 90 88 97 101 105 99 101 96 94 93
2770.0 90 91 97 99 103 97 105 106 105 111
2810.0 109 119 126 131 131 134 142 139 145 139
2850.0 148 154 164 180 195 211 223 240 256 281
2890.0 306 325 337 342 333 321 308 303 309 338
2930.0 393 477 598 664 680 666 673 723 761 774
2970.0 748 704 661 685 735 734 654 547 481 437
3010.0 408 376 383 416 469 552 663 783 849 834
3050.0 745 624 543 524 563 701 815 802 690 530
3090.0 461 432 420 421 420 424 383 329 247 188
3130.0 151 133 120 110 103 104 106 112 104 102
3170.0 100 105 105 97 94 93 97 95 98 91
3210.0 92 94 96 93 98 85 93 91 79 83
3250.0 83 96 91 97 92 94 95 92 87 88
3290.0 90 87 88 91 85 87 87 90 93 95
3330.0 90 96 92 85 99 93 95 90 90 89
3370.0 95 95 95 95 95 89 102 97 98 83
3410.0 110 93 99 90 103 107 96 105 100 115
3450.0 131 134 137 131 135 127 122 124 110 96
3490.0 97 93 104 96 100 91 99 92 91 94
3530.0 100 107 92 77 99 108 86 98 113 95
3570.0 97 94 101 108 90 79 108 104 141 105
3610.0 93 94 99 100 78 101 96 96 132 128
3650.0 97 101 106 111 100 110 121 115 119 98
3690.0 87 110 114 105 102 114 117 120 117 116
3730.0 116 129 128 109 120 123 121 114 95 106
3770.0 121 108 100 122 97 112 108 115 122 134
3810.0 140 108 129 139 114 106 116 132 124 109
3850.0 114 113 139 110 113 119 134 128 113 143
3890.0 137 129 110 117 150 126 153 141 136 135
3930.0 131 160 149 160 148 115 110 137 140 117
##END=
