##TITLE=Octadecanoic acid, 9,10-epoxy-, allyl ester
##JCAMP-DX=4.24
##DATA TYPE=INFRARED SPECTRUM
##ORIGIN=Sadtler Research Labs Under US-EPA Contract
##OWNER=NIST Standard Reference Data Program
##CAS REGISTRY NO=24969-16-2
##MOLFORM=C 21 H 38 O 3
##XUNITS=1/CM
##YUNITS=ABSORBANCE
##XFACTOR=1.0
##YFACTOR=0.000045697
##DELTAX=4.0
##FIRSTX=450.0
##LASTX=3966.0
##FIRSTY=0.030663
##MAXX=3966
##MINX=450
##MAXY=0.45697
##MINY=0
##NPOINTS=880
##XYDATA=(X++(Y..Y))
450.0 671 276 190 35 217 193 173 59 143 38
490.0 115 10 52 48 251 171 58 168 109 39
530.0 189 99 138 142 131 224 315 220 222 119
570.0 1 79 91 115 75 166 90 94 64 139
610.0 138 99 125 131 132 129 94 130 76 96
650.0 71 111 94 116 64 223 113 77 83 85
690.0 128 145 151 148 193 218 234 247 290 326
730.0 325 275 307 274 267 276 265 284 294 291
770.0 294 315 318 316 302 283 322 316 336 324
810.0 349 359 375 369 388 373 378 372 357 371
850.0 363 348 357 374 371 369 369 396 406 396
890.0 410 433 458 486 539 599 693 795 908 1060
930.0 1144 1099 946 785 675 619 586 586 632 683
970.0 745 837 958 1119 1310 1443 1489 1450 1358 1286
1010.0 1216 1170 1091 1011 934 857 803 754 707 674
1050.0 676 667 668 670 680 706 723 755 809 857
1090.0 895 937 986 1041 1099 1147 1196 1238 1303 1408
1130.0 1582 1796 2071 2417 2762 3054 3240 3291 3242 3163
1170.0 3059 2918 2765 2595 2443 2288 2139 2013 1928 1873
1210.0 1849 1831 1863 1907 1945 1977 2000 2008 1938 1799
1250.0 1651 1505 1382 1303 1266 1253 1240 1197 1125 1052
1290.0 1001 952 919 900 896 866 841 806 790 773
1330.0 767 801 859 907 933 945 958 972 1010 1045
1370.0 1087 1096 1083 1082 1065 913 694 548 455 429
1410.0 438 455 495 554 622 710 778 866 933 1075
1450.0 1215 1351 1470 1467 1336 1103 833 605 450 337
1490.0 278 242 217 186 172 174 146 140 121 125
1530.0 110 110 88 96 89 85 80 70 96 74
1570.0 74 70 81 74 76 76 77 80 74 67
1610.0 63 79 82 85 87 107 126 145 159 205
1650.0 199 198 168 136 136 129 125 132 156 174
1690.0 179 206 245 312 361 434 512 640 756 907
1730.0 1104 1405 1838 2429 3204 4008 4617 4542 3872 2970
1770.0 2145 1509 1069 785 600 460 371 303 266 220
1810.0 185 162 150 134 121 113 109 114 109 117
1850.0 109 115 114 113 109 115 101 87 82 73
1890.0 80 75 65 61 65 68 61 56 61 62
1930.0 57 53 66 60 61 58 57 55 70 49
1970.0 58 60 67 55 64 66 69 67 60 67
2010.0 65 65 62 67 54 50 46 53 52 38
2050.0 36 49 46 35 19 20 29 20 28 34
2090.0 35 36 37 35 40 47 46 42 44 50
2130.0 57 47 43 46 51 54 48 49 50 43
2170.0 49 52 58 54 56 56 50 53 47 47
2210.0 44 45 44 43 38 40 48 42 38 40
2250.0 42 36 44 49 48 41 45 65 65 80
2290.0 91 106 123 134 146 150 152 149 147 122
2330.0 136 123 76 167 152 107 179 144 186 153
2370.0 110 91 101 97 73 50 37 34 30 32
2410.0 20 21 28 21 27 17 20 18 21 13
2450.0 20 23 17 11 17 22 12 12 12 12
2490.0 6 4 9 11 14 4 6 15 17 11
2530.0 11 15 15 26 13 15 23 23 22 27
2570.0 29 25 22 33 46 48 42 41 59 70
2610.0 62 44 69 73 74 75 80 91 70 56
2650.0 80 94 93 88 78 85 88 79 75 80
2690.0 95 96 102 101 104 103 94 88 87 91
2730.0 90 98 101 115 118 110 121 126 145 134
2770.0 144 148 153 164 175 192 212 237 258 287
2810.0 320 352 376 418 467 527 595 699 858 1076
2850.0 1405 1955 2773 3642 4097 3925 3433 2934 2595 2398
2890.0 2242 2218 2336 2601 3037 3595 4209 4978 6043 7461
2930.0 9018 10000 9877 8929 7681 6473 5616 5145 5053 5132
2970.0 4984 4476 3764 3022 2356 1803 1409 1134 930 779
3010.0 669 583 540 489 463 445 387 326 278 267
3050.0 258 230 218 196 221 218 227 248 267 293
3090.0 315 331 348 334 276 207 172 150 119 93
3130.0 82 103 84 82 98 87 81 68 63 81
3170.0 66 66 59 72 73 63 70 47 64 72
3210.0 43 56 64 73 56 62 79 49 47 65
3250.0 54 45 49 50 51 28 57 45 44 42
3290.0 64 29 27 42 32 20 31 31 27 27
3330.0 19 59 71 60 50 22 51 53 27 44
3370.0 58 57 52 46 40 66 64 35 51 61
3410.0 50 43 43 72 67 52 79 61 56 24
3450.0 12 53 37 62 80 44 64 95 79 92
3490.0 113 93 85 88 63 62 53 53 87 64
3530.0 44 53 27 37 46 57 56 37 69 74
3570.0 94 84 108 83 6 109 79 80 51 42
3610.0 81 59 78 99 78 95 58 64 112 100
3650.0 71 54 78 45 66 73 53 90 60 48
3690.0 56 71 63 22 1 41 41 80 22 28
3730.0 42 46 43 76 38 51 13 10 26 114
3770.0 0 9 37 38 38 59 48 88 75 9
3810.0 1 1 1 46 76 119 39 85 37 102
3850.0 76 59 1 1 66 19 4 61 0 24
3890.0 83 103 19 119 128 147 128 153 219 127
3930.0 42 96 82 113 170 87 127 53 138 88
##END=
