##TITLE=1-Butanol, 3-methoxy-
##JCAMP-DX=4.24
##DATA TYPE=INFRARED SPECTRUM
##ORIGIN=Sadtler Research Labs Under US-EPA Contract
##OWNER=NIST Standard Reference Data Program
##CAS REGISTRY NO=2517-43-3
##MOLFORM=C 5 H 12 O 2
##XUNITS=1/CM
##YUNITS=ABSORBANCE
##XFACTOR=1.0
##YFACTOR=0.000079031
##DELTAX=4.0
##FIRSTX=450.0
##LASTX=3966.0
##FIRSTY=0.066070
##MAXX=3966
##MINX=450
##MAXY=0.79031
##MINY=0
##NPOINTS=880
##XYDATA=(X++(Y..Y))
450.0 836 808 830 892 805 758 821 808 792 680
490.0 616 527 462 414 379 358 329 347 310 326
530.0 336 320 297 278 240 202 177 133 91 109
570.0 103 84 61 71 74 65 83 67 61 78
610.0 76 66 53 57 50 35 30 39 22 16
650.0 32 19 26 22 19 22 13 32 34 23
690.0 17 30 36 43 35 39 38 31 44 51
730.0 62 63 59 77 74 115 131 192 285 350
770.0 447 509 507 487 430 354 268 212 163 155
810.0 151 159 174 213 256 304 350 385 423 456
850.0 489 517 551 584 622 637 643 606 542 462
890.0 392 336 303 305 322 353 380 409 416 431
930.0 447 465 517 607 734 888 1022 1134 1221 1227
970.0 1195 1137 1069 1042 1036 1074 1101 1118 1126 1106
1010.0 1082 1113 1266 1538 1950 2482 3085 3690 4221 4628
1050.0 4737 4528 4262 4090 4101 4429 5114 6157 7524 8790
1090.0 9586 9892 10000 9617 8559 7315 6280 5677 5351 5286
1130.0 5364 5545 5715 5746 5523 5055 4573 3992 3392 2951
1170.0 2720 2632 2645 2678 2708 2716 2673 2571 2417 2258
1210.0 2104 1961 1811 1665 1515 1358 1206 1056 926 816
1250.0 735 676 638 628 626 625 635 636 643 637
1290.0 635 621 613 610 616 632 655 689 733 798
1330.0 891 1046 1249 1501 1759 1935 2100 2208 2351 2599
1370.0 2961 3226 3223 3276 3067 2624 2239 1941 1759 1673
1410.0 1679 1723 1788 1805 1706 1558 1468 1328 1236 1217
1450.0 1293 1380 1451 1498 1526 1503 1371 1222 1052 872
1490.0 669 498 369 269 221 177 157 142 140 124
1530.0 114 113 109 105 103 89 88 83 79 66
1570.0 65 56 61 49 55 49 50 48 47 46
1610.0 47 50 51 54 54 54 59 57 54 54
1650.0 52 44 45 27 30 24 22 17 17 17
1690.0 11 12 16 15 10 12 12 17 16 20
1730.0 26 30 29 33 39 46 61 61 63 55
1770.0 48 36 29 18 13 7 3 4 2 3
1810.0 1 0 4 5 9 12 12 15 18 21
1850.0 25 30 30 42 40 42 44 38 41 40
1890.0 39 42 44 43 48 50 49 53 58 60
1930.0 62 68 70 75 78 75 79 79 74 77
1970.0 70 68 66 66 63 59 57 57 58 62
2010.0 60 60 56 56 57 57 54 58 59 58
2050.0 61 62 58 56 55 49 47 45 43 41
2090.0 42 41 40 40 39 40 45 44 44 47
2130.0 46 50 53 54 59 64 70 76 83 82
2170.0 84 81 77 70 64 60 47 42 40 37
2210.0 34 34 30 28 32 31 27 23 22 19
2250.0 15 12 12 11 8 5 5 7 7 7
2290.0 8 7 8 8 11 12 5 4 9 7
2330.0 8 12 14 1 14 0 7 2 0 1
2370.0 9 7 12 17 23 25 29 25 23 31
2410.0 31 30 28 29 33 29 31 34 26 29
2450.0 26 26 29 20 23 23 21 24 26 27
2490.0 27 26 24 25 30 28 30 28 30 28
2530.0 30 34 36 34 39 42 42 48 53 55
2570.0 58 61 66 74 84 96 106 116 122 127
2610.0 130 129 127 135 138 144 150 160 177 196
2650.0 209 220 228 238 249 248 253 247 242 236
2690.0 225 211 203 205 203 208 214 226 242 252
2730.0 267 283 293 310 317 332 343 357 372 392
2770.0 411 436 474 522 568 629 713 821 963 1172
2810.0 1471 1907 2476 3103 3626 3939 4011 3824 3521 3224
2850.0 3041 3059 3291 3607 3881 4151 4427 4717 4959 5173
2890.0 5318 5413 5403 5421 5519 5676 5918 6257 6776 7280
2930.0 7802 8163 8479 8716 7991 7323 6636 6001 5562 5608
2970.0 6218 7189 8089 8243 7711 6805 5333 3928 2739 1844
3010.0 1271 916 708 582 501 445 414 382 358 340
3050.0 328 314 293 281 264 249 233 217 202 188
3090.0 175 164 151 138 135 124 121 111 102 100
3130.0 91 83 84 83 80 82 83 83 84 75
3170.0 74 74 76 74 67 66 64 57 53 48
3210.0 37 35 28 24 27 23 19 18 12 20
3250.0 16 11 7 16 10 12 12 14 15 13
3290.0 14 11 6 9 15 9 8 3 6 7
3330.0 11 14 9 12 11 10 12 15 10 11
3370.0 20 20 22 26 24 23 26 37 41 49
3410.0 61 70 87 96 106 115 118 109 115 121
3450.0 117 115 113 106 105 96 93 86 81 76
3490.0 72 71 68 79 86 95 110 115 123 128
3530.0 124 119 126 111 124 134 155 194 281 485
3570.0 865 1539 2178 2617 2848 2890 2733 2293 1837 1412
3610.0 1074 812 613 472 361 319 271 245 268 317
3650.0 406 496 608 762 893 969 941 861 706 539
3690.0 371 233 156 129 86 72 75 70 69 81
3730.0 60 84 84 77 100 92 89 69 46 52
3770.0 32 28 22 27 15 16 15 28 8 30
3810.0 5 22 26 19 30 0 20 41 29 15
3850.0 46 41 36 30 27 30 43 24 29 27
3890.0 42 31 26 47 46 25 31 39 15 21
3930.0 19 20 13 26 3 23 24 11 4 0
##END=
