##TITLE=Encyprate
##JCAMP-DX=4.24
##DATA TYPE=INFRARED SPECTRUM
##ORIGIN=Sadtler Research Labs Under US-EPA Contract
##OWNER=NIST Standard Reference Data Program
##CAS REGISTRY NO=2521-01-9
##MOLFORM=C 13 H 17 N O 2
##XUNITS=1/CM
##YUNITS=ABSORBANCE
##XFACTOR=1.0
##YFACTOR=0.000132291
##DELTAX=4.0
##FIRSTX=450.0
##LASTX=3966.0
##FIRSTY=0.027649
##MAXX=3966
##MINX=450
##MAXY=1.32291
##MINY=0
##NPOINTS=880
##XYDATA=(X++(Y..Y))
450.0 209 146 126 146 100 106 83 45 22 18
490.0 27 19 7 4 24 11 46 35 54 75
530.0 81 72 71 79 61 101 161 212 197 172
570.0 138 146 152 166 160 137 100 48 42 35
610.0 46 42 69 87 84 111 132 157 169 187
650.0 170 177 182 214 217 263 311 355 427 532
690.0 776 1068 1367 1261 981 717 565 496 486 513
730.0 543 557 553 537 499 474 454 419 398 427
770.0 552 696 724 588 433 321 282 269 266 281
810.0 292 312 338 440 541 539 383 218 130 108
850.0 104 110 129 148 177 206 225 219 204 207
890.0 241 313 385 404 352 269 193 145 119 116
930.0 136 168 192 213 213 205 201 181 152 125
970.0 112 106 105 116 119 134 158 193 243 313
1010.0 419 589 843 1197 1545 1637 1377 936 645 584
1050.0 644 808 1060 1339 1547 1605 1510 1299 1072 914
1090.0 856 899 987 1045 1042 1035 1138 1468 2115 2995
1130.0 3731 3925 3483 2775 2146 1692 1394 1225 1151 1146
1170.0 1208 1297 1366 1380 1349 1350 1449 1601 1668 1635
1210.0 1620 1833 2361 3201 4076 4507 4293 3621 2974 2576
1250.0 2425 2416 2514 2676 2903 3160 3382 3536 3581 3523
1290.0 3325 3039 2737 2550 2483 2433 2263 1944 1593 1355
1330.0 1251 1207 1232 1339 1642 2106 2382 2285 1968 1819
1370.0 2123 2937 3988 4676 4437 3573 2852 2723 3049 3407
1410.0 3416 2889 2279 1715 1422 1284 1297 1357 1474 1639
1450.0 1785 1802 1701 1496 1369 1291 1227 1066 876 770
1490.0 772 862 914 767 540 357 275 251 247 211
1530.0 208 203 223 251 241 215 210 227 187 153
1570.0 154 148 151 159 154 177 183 217 249 295
1610.0 283 229 194 152 166 136 163 168 163 172
1650.0 216 222 226 241 281 323 389 425 505 588
1690.0 640 746 904 1178 1629 2494 3993 6114 8154 9367
1730.0 10000 9248 7351 4604 2515 1495 1058 809 664 541
1770.0 491 416 351 305 273 257 262 259 252 217
1810.0 190 177 152 151 134 126 107 90 96 98
1850.0 92 81 88 85 92 98 85 80 79 74
1890.0 69 67 56 55 56 62 67 78 91 87
1930.0 92 96 105 116 111 96 91 87 77 65
1970.0 50 45 42 41 42 53 51 51 51 49
2010.0 43 38 37 28 27 25 24 23 25 24
2050.0 24 26 29 33 37 41 40 37 33 34
2090.0 34 36 32 28 22 16 15 13 15 16
2130.0 17 16 18 19 19 20 18 17 15 17
2170.0 15 14 14 15 18 15 13 15 16 14
2210.0 13 15 15 14 12 14 16 17 22 23
2250.0 26 30 31 32 30 32 31 28 29 27
2290.0 27 30 32 33 35 43 40 38 38 32
2330.0 30 25 23 25 28 25 28 17 21 12
2370.0 20 13 13 14 11 7 9 5 4 6
2410.0 6 6 3 4 3 2 4 4 4 2
2450.0 3 5 4 5 8 8 12 10 8 9
2490.0 7 5 2 4 4 3 3 5 2 2
2530.0 3 1 3 3 3 1 2 0 0 1
2570.0 1 3 6 9 12 13 14 17 15 18
2610.0 18 15 15 15 16 14 18 18 18 15
2650.0 13 12 11 11 10 13 10 11 11 11
2690.0 12 11 11 13 13 16 17 19 21 20
2730.0 23 23 25 25 26 30 33 34 33 33
2770.0 36 39 39 44 49 52 56 58 61 62
2810.0 66 67 70 70 73 77 81 88 91 101
2850.0 116 132 150 172 201 233 275 326 374 399
2890.0 395 379 376 398 440 487 537 575 614 667
2930.0 740 855 1010 1153 1194 1118 995 923 925 954
2970.0 996 1082 1262 1495 1665 1684 1561 1409 1276 1137
3010.0 991 898 934 1064 1200 1274 1268 1166 979 774
3050.0 604 505 485 542 711 924 1007 900 713 622
3090.0 646 701 771 777 663 477 309 200 137 98
3130.0 77 60 57 49 44 44 42 40 37 36
3170.0 41 38 36 31 27 24 25 21 18 19
3210.0 20 17 20 12 9 11 12 12 11 5
3250.0 10 9 5 7 5 7 3 6 8 10
3290.0 8 6 6 9 7 9 6 8 6 5
3330.0 11 8 11 13 14 11 7 9 7 12
3370.0 11 10 13 12 10 11 18 14 14 17
3410.0 25 22 26 32 35 36 35 34 33 33
3450.0 30 29 24 23 18 15 9 5 7 1
3490.0 6 8 5 9 5 4 6 6 1 3
3530.0 4 10 5 6 5 2 9 10 2 6
3570.0 9 10 9 7 10 12 7 5 3 5
3610.0 9 9 0 9 8 12 8 14 13 6
3650.0 10 12 14 12 12 7 11 6 10 13
3690.0 12 17 11 4 7 13 10 9 7 9
3730.0 5 6 13 6 8 2 4 11 12 7
3770.0 10 9 9 14 6 14 8 14 14 14
3810.0 10 14 9 10 24 16 7 20 21 11
3850.0 12 9 10 19 11 17 17 16 16 11
3890.0 12 13 13 7 15 25 18 10 5 14
3930.0 21 21 17 6 17 12 16 14 12 18
##END=
