##TITLE=1,2-Benzenedicarboxylic acid, mono(phenylmethyl) ester
##JCAMP-DX=4.24
##DATA TYPE=INFRARED SPECTRUM
##ORIGIN=Sadtler Research Labs Under US-EPA Contract
##OWNER=NIST Standard Reference Data Program
##CAS REGISTRY NO=2528-16-7
##MOLFORM=C 15 H 12 O 4
##XUNITS=1/CM
##YUNITS=ABSORBANCE
##XFACTOR=1.0
##YFACTOR=0.000060693
##DELTAX=4.0
##FIRSTX=450.0
##LASTX=3966.0
##FIRSTY=0.000000
##MAXX=3966
##MINX=450
##MAXY=0.60693
##MINY=0
##NPOINTS=880
##XYDATA=(X++(Y..Y))
450.0 0 21 55 87 135 158 157 135 115 89
490.0 68 71 60 58 92 175 269 324 360 330
530.0 337 341 292 269 269 195 254 123 198 187
570.0 176 218 213 249 206 222 193 178 260 213
610.0 224 176 192 99 178 127 183 177 157 193
650.0 229 158 179 264 231 322 378 417 583 707
690.0 981 1442 1889 1967 2324 4142 1868 1758 1525 1118
730.0 928 868 883 861 754 570 494 394 299 272
770.0 274 324 341 402 449 329 285 252 216 169
810.0 129 153 165 191 210 219 249 237 250 248
850.0 252 268 309 360 425 564 720 954 1249 1652
890.0 2224 2925 3671 4396 5010 5244 4731 4089 2980 1685
930.0 802 400 311 289 306 359 374 408 454 460
970.0 453 448 464 486 486 542 625 751 862 951
1010.0 1067 1123 1104 1068 1022 944 882 743 698 655
1050.0 597 570 557 514 498 479 446 461 490 559
1090.0 694 894 1108 1160 1150 1004 822 569 423 322
1130.0 278 267 263 266 272 301 368 384 405 409
1170.0 430 388 371 375 396 442 475 486 488 497
1210.0 496 520 555 610 728 979 1390 1899 2385 2889
1250.0 3489 3868 3755 3422 3018 2084 1269 797 520 421
1290.0 366 317 297 283 305 351 440 541 647 691
1330.0 701 709 694 669 659 644 641 611 556 533
1370.0 555 580 588 578 553 522 500 437 396 378
1410.0 365 364 358 329 320 328 321 360 364 391
1450.0 415 434 483 527 543 481 464 401 294 245
1490.0 254 242 256 235 251 222 156 145 140 107
1530.0 116 123 116 131 113 99 115 127 118 124
1570.0 154 160 179 184 195 210 203 200 193 181
1610.0 155 153 145 136 132 120 120 122 104 120
1650.0 103 111 90 99 101 130 122 126 132 144
1690.0 118 126 142 158 177 184 228 259 252 271
1730.0 296 305 282 284 308 364 448 568 753 996
1770.0 1340 1728 2103 2655 3640 4927 6429 7812 9156 10000
1810.0 9604 8103 6609 4735 2874 1702 1068 784 732 856
1850.0 1065 1469 2039 2542 2786 2788 2566 2052 1432 1121
1890.0 929 723 538 403 289 220 176 159 152 166
1930.0 168 172 176 179 178 175 160 152 142 133
1970.0 133 142 150 167 184 189 199 189 184 182
2010.0 173 157 149 124 107 91 76 73 73 65
2050.0 61 59 57 59 66 65 74 65 65 57
2090.0 56 49 40 40 40 48 57 57 56 63
2130.0 56 64 64 71 73 82 87 96 96 95
2170.0 87 79 64 54 46 45 46 38 45 54
2210.0 54 54 52 47 52 51 53 60 61 68
2250.0 75 77 78 83 83 78 85 74 77 82
2290.0 82 83 83 90 98 93 89 91 93 93
2330.0 94 105 121 130 105 106 122 79 67 53
2370.0 36 30 44 47 48 39 39 32 32 30
2410.0 30 30 30 30 36 30 39 37 31 32
2450.0 30 30 30 30 30 28 28 28 28 29
2490.0 29 29 29 27 28 28 36 36 27 37
2530.0 29 31 27 27 27 26 26 26 26 26
2570.0 25 34 25 25 25 25 25 30 23 33
2610.0 40 32 41 33 23 31 23 30 33 31
2650.0 35 41 30 30 31 31 31 23 23 32
2690.0 37 37 46 55 45 46 38 29 28 28
2730.0 20 36 37 36 43 40 44 42 34 38
2770.0 45 44 45 61 62 69 68 71 70 61
2810.0 61 72 76 77 95 101 110 126 144 152
2850.0 175 188 195 237 255 298 337 357 383 394
2890.0 393 377 360 336 326 319 319 332 337 342
2930.0 339 331 304 306 282 273 264 250 239 218
2970.0 194 168 150 118 108 99 88 89 105 113
3010.0 138 176 219 280 346 409 445 479 493 485
3050.0 469 444 460 496 534 560 587 570 584 559
3090.0 495 438 392 335 270 186 136 103 73 45
3130.0 52 32 28 36 25 29 34 26 27 27
3170.0 19 27 27 26 32 30 29 36 25 28
3210.0 27 26 26 28 27 36 43 29 37 38
3250.0 27 22 25 20 28 28 27 44 28 34
3290.0 28 28 28 24 20 22 29 28 28 45
3330.0 45 35 29 26 27 24 28 29 40 41
3370.0 46 52 37 45 30 30 30 31 38 58
3410.0 45 47 50 51 39 44 38 29 30 32
3450.0 42 39 53 59 51 36 45 37 38 38
3490.0 39 39 53 57 53 64 54 50 43 30
3530.0 31 38 39 48 64 39 47 57 46 52
3570.0 53 47 57 67 77 98 96 96 104 114
3610.0 101 114 113 115 146 175 192 223 262 295
3650.0 330 323 329 305 280 272 227 204 167 158
3690.0 129 102 81 74 66 58 50 57 59 74
3730.0 70 70 69 58 43 35 34 34 42 50
3770.0 43 40 53 44 43 35 33 37 35 35
3810.0 42 34 42 59 50 49 43 34 21 38
3850.0 32 35 50 59 68 67 51 43 36 27
3890.0 28 31 33 62 65 61 60 45 29 28
3930.0 20 19 19 19 32 48 17 19 19 19
##END=
