##TITLE=Formic acid, phenylformyl-, 2-chlorocyclohexyl ester
##JCAMP-DX=4.24
##DATA TYPE=INFRARED SPECTRUM
##ORIGIN=Sadtler Research Labs Under US-EPA Contract
##OWNER=NIST Standard Reference Data Program
##CAS REGISTRY NO=25309-23-3
##MOLFORM=C 14 H 15 Cl O 3
##XUNITS=1/CM
##YUNITS=ABSORBANCE
##XFACTOR=1.0
##YFACTOR=0.000101419
##DELTAX=4.0
##FIRSTX=450.0
##LASTX=3966.0
##FIRSTY=0.025051
##MAXX=3966
##MINX=450
##MAXY=1.01419
##MINY=0
##NPOINTS=880
##XYDATA=(X++(Y..Y))
450.0 247 278 215 256 261 345 328 246 191 157
490.0 90 93 105 105 95 69 99 91 85 77
530.0 97 134 188 201 142 107 74 89 60 43
570.0 0 36 33 30 16 22 27 20 38 40
610.0 65 86 126 87 96 98 127 150 171 230
650.0 245 316 333 508 638 1443 2150 2182 1815 1477
690.0 1380 1294 1273 1293 1311 1309 1222 1046 858 774
730.0 763 774 825 885 911 897 808 666 546 448
770.0 391 364 357 371 396 432 461 470 462 460
810.0 500 571 670 724 686 571 452 341 263 254
850.0 272 268 262 310 345 323 306 317 312 288
890.0 274 283 309 325 361 406 430 419 452 546
930.0 703 903 1004 922 751 630 586 639 755 975
970.0 1352 1968 2995 4189 4555 3445 2087 1590 1742 1824
1010.0 2033 2536 2917 2687 2100 1708 1467 1069 718 580
1050.0 493 507 550 513 420 384 383 380 358 323
1090.0 306 305 316 307 312 336 420 577 696 686
1130.0 669 798 946 1055 1184 1704 2560 3030 3050 3637
1170.0 5865 8869 10000 7734 6264 7451 8376 6510 4178 2744
1210.0 1999 1573 1369 1213 1070 984 947 907 838 786
1250.0 766 795 870 971 1095 1255 1394 1485 1532 1566
1290.0 1569 1509 1384 1240 1120 1009 937 914 908 841
1330.0 739 681 656 617 533 454 381 318 276 260
1370.0 254 238 201 169 144 127 106 102 91 96
1410.0 97 113 131 143 161 210 304 432 604 894
1450.0 1301 1318 988 673 495 367 247 162 128 121
1490.0 111 105 88 71 73 84 69 75 90 85
1530.0 87 77 91 81 93 92 109 110 139 154
1570.0 208 275 386 454 472 529 631 722 660 510
1610.0 344 257 228 185 170 147 169 161 180 196
1650.0 226 255 301 326 381 447 512 642 797 1095
1690.0 1493 2062 2783 3627 4090 3874 3141 2431 1978 1834
1730.0 1914 2130 2474 2941 3539 4033 4329 4023 3414 2723
1770.0 2116 1542 1109 809 597 460 369 323 287 280
1810.0 261 237 199 168 143 125 106 91 76 69
1850.0 59 49 43 42 40 42 37 37 42 45
1890.0 51 59 68 75 74 76 77 76 66 52
1930.0 49 40 36 33 42 50 67 78 82 73
1970.0 66 65 54 37 25 18 15 14 12 10
2010.0 11 7 11 10 8 7 6 5 2 5
2050.0 2 3 2 4 3 3 2 3 5 5
2090.0 7 8 9 8 9 11 9 9 11 7
2130.0 9 12 8 7 9 9 13 14 17 16
2170.0 18 18 18 16 14 12 10 9 10 7
2210.0 7 7 11 7 8 6 9 9 8 10
2250.0 12 13 16 17 17 18 21 23 25 29
2290.0 32 40 47 48 54 63 60 62 73 65
2330.0 57 50 50 34 66 54 54 38 36 34
2370.0 40 35 42 44 25 11 4 4 4 2
2410.0 2 2 2 4 4 7 7 11 15 21
2450.0 21 26 26 34 34 34 35 34 35 29
2490.0 29 27 25 23 22 20 15 15 14 13
2530.0 9 8 9 7 11 12 13 12 13 16
2570.0 17 21 25 22 23 25 24 22 22 19
2610.0 19 14 12 14 17 16 17 21 21 23
2650.0 29 34 38 44 49 47 45 46 44 38
2690.0 35 32 25 23 22 19 18 19 22 22
2730.0 21 24 25 25 21 26 27 27 31 29
2770.0 33 38 40 45 49 55 56 58 56 57
2810.0 56 57 55 57 60 65 76 84 101 127
2850.0 162 223 318 454 674 967 1181 1153 890 602
2890.0 401 318 291 294 312 346 391 442 525 657
2930.0 886 1183 1546 2004 2720 3679 4248 3945 2999 2024
2970.0 1335 893 609 412 285 203 157 136 123 126
3010.0 121 123 128 133 157 182 209 226 236 225
3050.0 213 224 273 347 444 580 725 739 557 396
3090.0 336 310 258 207 160 129 99 75 55 47
3130.0 46 35 35 32 33 38 37 38 38 35
3170.0 31 23 22 21 15 16 16 17 15 11
3210.0 13 13 13 13 11 12 12 10 12 12
3250.0 15 15 13 15 13 17 16 20 17 15
3290.0 13 17 18 20 11 12 18 16 15 13
3330.0 12 15 20 22 29 22 27 30 33 35
3370.0 36 31 31 40 50 57 52 52 47 34
3410.0 30 30 30 28 22 24 29 29 21 30
3450.0 26 32 35 37 36 34 29 30 33 26
3490.0 23 21 20 19 16 14 23 2 10 12
3530.0 10 7 9 9 8 2 13 8 11 21
3570.0 17 14 11 22 21 21 21 9 16 8
3610.0 26 13 20 15 13 37 16 7 10 9
3650.0 31 13 20 20 10 24 12 26 2 16
3690.0 18 24 21 31 21 26 25 24 19 32
3730.0 23 44 29 31 54 16 36 14 15 24
3770.0 15 19 6 18 12 14 13 10 9 27
3810.0 7 20 16 30 15 10 23 20 26 10
3850.0 21 36 29 22 20 21 20 15 16 33
3890.0 19 25 12 34 27 22 7 21 27 6
3930.0 31 22 16 18 24 27 28 22 23 17
##END=
