##TITLE=Diethyl cyanomethylphosphonate
##JCAMP-DX=4.24
##DATA TYPE=INFRARED SPECTRUM
##ORIGIN=Sadtler Research Labs Under US-EPA Contract
##OWNER=NIST Standard Reference Data Program
##CAS REGISTRY NO=2537-48-6
##MOLFORM=C 6 H 12 N O 3 P
##XUNITS=1/CM
##YUNITS=ABSORBANCE
##XFACTOR=1.0
##YFACTOR=0.000063965
##DELTAX=4.0
##FIRSTX=450.0
##LASTX=3966.0
##FIRSTY=0.012409
##MAXX=3966
##MINX=450
##MAXY=0.63965
##MINY=0
##NPOINTS=880
##XYDATA=(X++(Y..Y))
450.0 194 191 167 184 174 146 149 134 158 174
490.0 193 183 280 324 333 331 287 290 305 291
530.0 348 417 248 465 659 903 1064 1324 1229 1083
570.0 767 574 428 309 240 144 156 165 164 79
610.0 197 223 143 118 138 144 179 178 205 132
650.0 118 118 31 113 60 127 155 142 137 227
690.0 230 329 373 355 373 368 344 316 363 350
730.0 302 311 222 318 398 425 573 759 863 879
770.0 779 704 569 564 627 683 832 825 883 871
810.0 860 793 679 596 686 760 842 932 986 846
850.0 751 560 424 325 281 268 268 242 250 242
890.0 296 279 265 294 325 394 470 508 580 725
930.0 903 1159 1513 1934 2353 2672 2913 3180 3315 3421
970.0 3411 3182 2776 2278 1861 1491 1293 1224 1294 1520
1010.0 1916 2644 3669 5263 7081 8836 9879 10000 9342 8051
1050.0 7021 6465 6047 5892 5466 4745 3897 3001 2293 1912
1090.0 1707 1668 1609 1511 1363 1151 1025 889 847 822
1130.0 803 784 806 766 799 824 861 902 909 900
1170.0 925 819 741 651 592 542 516 470 484 515
1210.0 563 636 825 993 1141 1141 1013 869 738 569
1250.0 512 482 537 561 626 759 1014 1478 2166 3064
1290.0 3965 4496 4079 3259 2441 1732 1264 961 735 567
1330.0 445 375 340 294 269 270 258 291 305 359
1370.0 426 483 511 556 609 791 981 1120 1087 875
1410.0 638 476 360 286 308 332 332 275 347 363
1450.0 332 354 257 272 260 303 242 245 253 250
1490.0 167 208 184 180 143 150 181 146 124 124
1530.0 134 112 103 50 82 103 105 65 32 119
1570.0 81 99 58 95 103 118 134 112 124 135
1610.0 128 156 88 129 116 116 130 91 116 92
1650.0 97 0 122 110 112 79 100 84 111 45
1690.0 121 125 77 54 107 136 145 97 143 165
1730.0 165 126 146 160 170 146 161 161 156 169
1770.0 138 111 135 137 143 152 134 159 136 152
1810.0 167 168 175 159 151 144 164 154 161 126
1850.0 143 144 151 135 128 120 118 123 118 121
1890.0 113 127 118 122 134 119 118 111 111 113
1930.0 116 118 106 101 95 112 93 93 86 86
1970.0 87 87 87 93 86 86 86 86 86 91
2010.0 92 94 102 93 101 100 93 98 88 83
2050.0 84 85 85 86 84 84 69 76 84 77
2090.0 69 76 79 80 80 89 84 81 83 83
2130.0 92 91 91 100 98 86 101 93 98 92
2170.0 88 89 97 90 82 98 88 82 82 82
2210.0 81 81 81 81 91 88 88 96 113 128
2250.0 144 172 194 200 171 132 90 74 66 73
2290.0 73 79 72 79 73 77 72 74 37 36
2330.0 32 4 2 2 2 39 44 2 2 2
2370.0 2 2 2 16 44 54 54 60 60 61
2410.0 70 61 78 78 77 76 76 85 79 77
2450.0 83 77 77 77 67 67 67 56 54 46
2490.0 36 36 28 28 21 20 28 35 36 37
2530.0 31 33 34 24 38 42 50 60 71 71
2570.0 63 48 55 56 55 51 56 46 48 56
2610.0 63 62 71 71 71 81 89 82 83 71
2650.0 77 72 85 84 70 72 88 81 73 75
2690.0 68 73 68 82 80 80 77 90 88 95
2730.0 105 105 105 119 109 113 109 107 112 113
2770.0 111 112 111 112 113 121 107 109 104 103
2810.0 113 118 118 118 127 143 136 161 147 162
2850.0 162 168 171 183 201 221 269 287 337 348
2890.0 356 365 365 407 459 518 582 610 621 634
2930.0 645 720 854 931 999 941 835 730 680 707
2970.0 773 867 1040 1292 1523 1715 1682 1574 1332 1118
3010.0 924 773 645 549 456 386 337 289 268 254
3050.0 227 211 186 186 156 157 157 146 134 147
3090.0 134 135 125 107 117 126 133 117 122 120
3130.0 136 150 158 144 142 156 156 173 156 158
3170.0 127 139 162 151 154 132 139 148 146 145
3210.0 147 165 158 166 166 163 156 152 162 150
3250.0 155 165 173 173 151 158 158 136 137 111
3290.0 119 142 133 124 111 129 134 136 118 120
3330.0 151 167 149 152 162 174 169 173 167 161
3370.0 144 165 144 144 153 154 125 130 128 118
3410.0 141 122 141 140 144 152 160 153 139 142
3450.0 147 150 148 146 160 155 150 120 115 83
3490.0 92 98 116 119 81 90 96 97 91 93
3530.0 97 100 93 115 115 111 97 113 124 124
3570.0 84 108 79 85 73 42 53 45 53 54
3610.0 57 25 49 33 68 34 49 82 91 72
3650.0 38 62 55 105 110 68 87 67 83 97
3690.0 65 81 109 86 86 87 67 111 103 98
3730.0 103 76 80 113 91 126 115 163 164 166
3770.0 168 185 189 176 164 202 174 151 160 142
3810.0 132 158 127 106 127 149 149 164 176 178
3850.0 188 163 165 174 159 159 183 166 141 105
3890.0 89 109 88 66 48 56 62 65 42 42
3930.0 43 52 36 53 45 67 27 31 33 33
##END=
