##TITLE=Propiophenone, 5-tert-butyl-2-hydroxy-,
##JCAMP-DX=4.24
##DATA TYPE=INFRARED SPECTRUM
##ORIGIN=Sadtler Research Labs Under US-EPA Contract
##OWNER=NIST Standard Reference Data Program
##CAS REGISTRY NO=25441-52-5
##MOLFORM=C 13 H 18 O 2
##XUNITS=1/CM
##YUNITS=ABSORBANCE
##XFACTOR=1.0
##YFACTOR=0.000122684
##DELTAX=4.0
##FIRSTX=450.0
##LASTX=3966.0
##FIRSTY=0.012636
##MAXX=3966
##MINX=450
##MAXY=1.22684
##MINY=0
##NPOINTS=880
##XYDATA=(X++(Y..Y))
450.0 103 60 58 27 33 38 9 50 41 52
490.0 99 156 207 271 278 231 185 143 94 91
530.0 115 115 152 115 127 98 101 91 126 169
570.0 232 282 331 378 386 400 380 407 430 518
610.0 601 706 710 666 556 462 389 334 308 314
650.0 369 464 546 524 503 387 286 270 271 297
690.0 314 343 363 390 393 412 439 471 522 571
730.0 622 689 779 853 918 957 969 1001 987 943
770.0 889 827 786 748 681 642 573 510 468 487
810.0 571 758 973 1107 1263 1438 1779 1622 1094 669
850.0 341 238 218 262 374 520 620 605 503 373
890.0 273 186 142 106 109 110 119 144 175 213
930.0 250 302 364 472 616 774 891 977 1030 1020
970.0 912 706 463 287 227 226 289 402 570 715
1010.0 742 640 447 277 167 112 86 72 69 79
1050.0 101 136 172 198 220 242 281 322 361 405
1090.0 432 428 397 371 372 392 401 395 367 341
1130.0 349 400 495 601 686 741 797 879 1034 1292
1170.0 1726 2366 3186 3987 4441 4412 3985 3603 3465 3481
1210.0 3309 2902 2448 2220 2325 2751 3405 4057 4462 4444
1250.0 4256 4122 4208 4208 3919 3342 2730 2399 2395 2578
1290.0 2763 2898 2960 2923 2589 2008 1427 1122 1129 1270
1330.0 1504 1771 2047 2293 2485 2623 2744 2888 3062 3259
1370.0 3212 2925 2506 2132 1780 1515 1408 1379 1307 1119
1410.0 920 859 864 914 905 847 785 803 930 1109
1450.0 1325 1525 1729 2004 2319 2728 3205 4008 5065 6124
1490.0 6153 5348 3918 2756 2007 1479 1192 964 822 734
1530.0 672 628 574 531 508 517 512 541 631 758
1570.0 948 1209 1538 1812 1968 1903 1684 1404 1253 1197
1610.0 1240 1323 1362 1416 1428 1623 1909 2623 3820 5858
1650.0 8182 10000 9966 7756 5032 3016 1852 1254 863 674
1690.0 575 521 464 421 401 361 320 266 264 238
1730.0 219 201 220 238 258 272 266 263 243 235
1770.0 198 173 157 131 124 103 83 63 50 52
1810.0 47 39 40 37 34 33 40 50 41 36
1850.0 34 32 23 19 12 5 19 20 23 24
1890.0 28 33 45 63 84 101 110 101 71 57
1930.0 41 34 30 28 26 28 31 27 29 21
1970.0 19 13 10 7 7 1 2 5 6 9
2010.0 9 10 6 8 8 10 10 9 8 5
2050.0 10 7 7 4 5 5 7 7 8 8
2090.0 7 9 6 4 5 9 10 10 11 11
2130.0 11 6 6 2 0 0 2 0 1 1
2170.0 2 2 3 6 5 3 2 1 0 0
2210.0 1 1 4 4 7 9 10 12 12 10
2250.0 13 14 14 18 16 19 21 25 28 32
2290.0 38 42 48 50 57 59 52 48 50 43
2330.0 45 34 32 44 49 56 51 51 52 51
2370.0 50 59 64 66 63 58 57 53 55 53
2410.0 52 51 51 51 49 49 49 47 45 45
2450.0 42 43 45 43 43 43 47 48 47 49
2490.0 51 52 56 55 55 57 60 64 67 72
2530.0 74 75 77 78 75 80 89 94 97 101
2570.0 106 106 106 104 106 112 115 118 119 121
2610.0 119 117 114 111 113 112 117 119 122 124
2650.0 129 135 143 150 155 160 162 159 161 161
2690.0 160 162 166 175 179 185 186 193 198 202
2730.0 202 203 206 212 223 234 240 241 239 239
2770.0 231 228 228 231 239 244 246 248 248 257
2810.0 270 285 299 310 322 330 347 359 380 414
2850.0 457 523 623 771 971 1200 1410 1571 1669 1734
2890.0 1764 1752 1736 1750 1838 1989 2162 2281 2319 2258
2930.0 2179 2142 2222 2450 2876 3437 4105 5036 6183 7354
2970.0 7779 7046 5488 4147 3375 2906 2434 1860 1373 1073
3010.0 907 812 764 740 737 752 787 838 896 938
3050.0 953 956 966 995 1048 1124 1175 1185 1134 1045
3090.0 942 867 824 805 802 803 804 801 794 788
3130.0 775 761 745 732 723 714 708 708 706 707
3170.0 709 716 724 726 724 725 722 721 716 708
3210.0 702 694 681 669 658 645 630 621 609 603
3250.0 589 588 586 581 581 577 569 556 541 533
3290.0 519 513 508 501 490 477 470 454 441 430
3330.0 419 408 395 378 372 361 343 338 330 319
3370.0 310 307 298 284 281 275 270 265 257 248
3410.0 242 239 228 222 215 203 196 188 181 175
3450.0 169 162 157 153 150 142 135 129 126 121
3490.0 113 108 101 96 91 88 80 78 77 66
3530.0 66 64 60 58 54 45 47 48 52 45
3570.0 54 50 51 50 44 39 33 26 24 24
3610.0 19 14 14 14 17 16 12 17 20 20
3650.0 20 13 5 8 8 5 1 3 2 0
3690.0 4 3 13 5 5 7 7 9 8 6
3730.0 5 1 7 9 10 5 2 4 7 0
3770.0 2 0 1 4 0 0 1 1 10 11
3810.0 7 7 1 9 3 0 2 5 0 2
3850.0 4 7 5 7 6 2 8 7 18 16
3890.0 13 13 17 16 14 27 22 10 17 20
3930.0 13 23 17 13 17 13 18 8 16 17
##END=
