##TITLE=Toluene, .alpha.-fluoro-,
##JCAMP-DX=4.24
##DATA TYPE=INFRARED SPECTRUM
##ORIGIN=Sadtler Research Labs Under US-EPA Contract
##OWNER=NIST Standard Reference Data Program
##CAS REGISTRY NO=25496-08-6
##MOLFORM=C 7 H 7 F
##XUNITS=1/CM
##YUNITS=ABSORBANCE
##XFACTOR=1.0
##YFACTOR=0.000074902
##DELTAX=4.0
##FIRSTX=450.0
##LASTX=3966.0
##FIRSTY=0.012359
##MAXX=3966
##MINX=450
##MAXY=0.74902
##MINY=0
##NPOINTS=880
##XYDATA=(X++(Y..Y))
450.0 165 93 131 177 228 300 293 205 312 307
490.0 233 83 124 223 119 82 60 27 160 237
530.0 127 56 160 306 329 222 252 179 325 494
570.0 439 650 1215 1990 2586 2255 2409 2393 1961 901
610.0 379 444 566 477 465 323 361 441 379 238
650.0 281 384 574 690 970 1371 2019 2912 3679 3973
690.0 4887 6533 5330 4659 4457 4267 4081 4153 4366 4707
730.0 5598 6736 7428 6505 5334 4807 3995 2943 2132 1537
770.0 1212 977 699 615 674 660 762 781 994 1233
810.0 1358 1451 1460 1384 1247 936 761 612 509 605
850.0 534 518 552 533 618 654 663 703 701 773
890.0 821 773 917 1040 1154 1064 988 986 961 856
930.0 842 769 788 870 912 968 1023 1163 1285 1431
970.0 1629 1938 2346 2933 3561 4353 5350 6456 7573 8405
1010.0 9195 9792 10000 9803 9405 8733 7891 6545 5414 4463
1050.0 3794 3422 3011 2610 2298 1984 1731 1488 1249 1106
1090.0 970 850 779 629 592 559 487 492 410 426
1130.0 432 421 420 387 389 431 426 411 388 458
1170.0 513 503 522 559 656 773 953 1273 1744 2229
1210.0 2501 2503 2380 2150 1585 973 690 578 598 546
1250.0 536 491 462 490 482 445 432 427 456 470
1290.0 449 496 516 559 585 528 533 564 583 575
1330.0 557 586 634 638 723 756 848 1013 1245 1716
1370.0 2612 3637 3897 3894 3482 3186 1899 912 527 386
1410.0 385 387 404 373 422 537 663 798 1069 1330
1450.0 1572 1612 1309 1516 1517 1299 983 817 761 752
1490.0 856 1058 998 1043 936 803 563 311 230 289
1530.0 315 284 281 163 273 307 291 221 186 347
1570.0 327 366 288 374 416 396 360 375 353 352
1610.0 324 309 249 299 273 269 295 248 319 290
1650.0 265 131 261 265 242 217 197 204 251 140
1690.0 223 261 228 208 266 302 337 273 365 374
1730.0 367 331 357 348 330 338 330 300 261 252
1770.0 228 206 248 262 298 368 423 507 491 502
1810.0 467 415 336 247 216 201 220 218 192 184
1850.0 256 288 326 327 365 362 399 431 399 369
1890.0 334 282 217 181 164 158 137 149 185 205
1930.0 276 306 339 370 378 451 481 457 406 359
1970.0 290 241 152 142 152 131 128 128 160 153
2010.0 121 138 135 148 134 112 118 110 114 114
2050.0 77 75 97 91 81 63 58 70 69 67
2090.0 44 38 54 47 42 23 29 50 21 21
2130.0 27 26 32 29 15 28 29 37 19 13
2170.0 35 36 32 35 27 34 41 43 44 34
2210.0 55 67 62 55 44 59 70 51 63 65
2250.0 82 93 70 66 84 90 92 75 78 101
2290.0 98 111 97 109 151 158 160 168 169 193
2330.0 157 106 85 68 93 210 213 148 70 45
2370.0 14 13 13 38 69 90 77 98 97 90
2410.0 90 90 106 111 103 100 91 97 111 99
2450.0 97 83 92 117 104 83 83 95 115 102
2490.0 80 103 107 106 90 85 112 111 110 91
2530.0 98 121 114 99 94 103 118 110 100 105
2570.0 100 124 116 96 108 118 138 133 122 124
2610.0 129 132 139 112 123 134 130 118 96 122
2650.0 127 104 101 104 112 125 106 105 121 119
2690.0 146 115 109 129 120 142 127 117 144 150
2730.0 171 159 142 191 204 196 171 150 157 147
2770.0 127 107 112 146 146 124 131 146 155 157
2810.0 142 176 205 222 227 216 245 284 297 328
2850.0 319 366 446 502 578 648 756 902 1056 1222
2890.0 1490 1846 2109 2315 2374 2345 2229 2093 1972 1931
2930.0 2001 2087 2174 2259 2362 2575 2780 2911 3038 3134
2970.0 3137 2968 2701 2432 2145 1894 1642 1367 1167 1036
3010.0 1001 1047 1176 1455 1920 2536 3204 3676 3906 3991
3050.0 3880 3531 3042 2899 3134 3363 3448 3548 3482 3335
3090.0 2783 2266 1887 1734 1664 1400 1093 909 728 598
3130.0 477 321 224 181 164 152 115 133 173 166
3170.0 156 146 169 163 150 147 132 138 168 124
3210.0 124 126 161 167 135 142 148 147 167 139
3250.0 137 163 173 159 139 127 168 173 159 141
3290.0 154 187 171 165 145 143 198 187 144 154
3330.0 176 193 147 144 165 160 168 168 124 148
3370.0 164 164 163 155 163 163 154 159 143 144
3410.0 181 174 138 141 147 177 142 115 143 154
3450.0 172 135 116 165 164 162 118 97 139 154
3490.0 122 115 125 138 120 135 142 98 152 131
3530.0 98 122 113 143 123 109 110 126 126 129
3570.0 68 108 131 146 114 48 111 129 121 120
3610.0 98 88 137 104 146 40 110 174 134 132
3650.0 64 118 140 167 168 123 135 89 136 129
3690.0 98 137 132 117 116 148 120 147 126 96
3730.0 134 110 68 108 6 76 72 111 111 117
3770.0 115 141 137 118 117 140 145 98 76 110
3810.0 95 124 66 81 121 107 85 34 61 113
3850.0 97 27 59 117 129 111 110 108 100 143
3890.0 137 106 120 134 152 149 124 136 143 150
3930.0 156 145 159 183 180 171 0 13 13 13
##END=
