##TITLE=2-Butanone, 4-phenyl-
##JCAMP-DX=4.24
##DATA TYPE=INFRARED SPECTRUM
##ORIGIN=Sadtler Research Labs Under US-EPA Contract
##OWNER=NIST Standard Reference Data Program
##CAS REGISTRY NO=2550-26-7
##MOLFORM=C 10 H 12 O
##XUNITS=1/CM
##YUNITS=ABSORBANCE
##XFACTOR=1.0
##YFACTOR=0.000040451
##DELTAX=4.0
##FIRSTX=450.0
##LASTX=3966.0
##FIRSTY=0.003398
##MAXX=3966
##MINX=450
##MAXY=0.40451
##MINY=0
##NPOINTS=880
##XYDATA=(X++(Y..Y))
450.0 84 101 175 228 324 342 444 399 591 766
490.0 916 1023 1208 1288 961 844 745 834 770 611
530.0 709 745 823 862 910 817 826 473 378 136
570.0 332 139 220 90 129 307 296 256 311 285
610.0 266 251 129 120 83 106 101 101 138 109
650.0 153 102 123 208 315 373 565 829 1163 1625
690.0 2351 3170 3687 3532 3037 2294 1823 1446 1294 1411
730.0 1530 1857 2218 2565 2664 2582 2223 1727 1217 826
770.0 614 422 337 239 216 192 149 152 141 119
810.0 78 106 92 89 123 93 93 90 93 121
850.0 155 140 176 165 110 99 122 157 151 171
890.0 187 234 235 286 325 373 392 425 426 420
930.0 454 495 523 506 516 519 508 513 512 469
970.0 394 380 308 291 288 289 288 290 315 364
1010.0 421 494 544 625 788 839 801 697 514 405
1050.0 364 355 363 391 436 518 558 576 541 505
1090.0 438 398 374 372 385 377 435 447 497 567
1130.0 725 929 1226 1641 2180 2750 3318 3586 3511 3088
1170.0 2508 2059 1870 1775 1732 1622 1504 1398 1393 1427
1210.0 1431 1452 1436 1372 1249 1131 1018 951 859 800
1250.0 778 818 835 835 883 958 1018 1055 1052 989
1290.0 882 766 720 669 652 652 681 727 783 891
1330.0 1046 1244 1428 1682 2046 2533 3174 3811 4264 4344
1370.0 3907 3243 2451 1836 1366 1065 943 888 859 936
1410.0 1018 1217 1308 1345 1386 1394 1409 1423 1553 1709
1450.0 1774 1741 1508 1273 1011 787 635 499 593 670
1490.0 1028 1706 1901 1851 1472 589 390 319 283 330
1530.0 313 316 363 313 276 296 332 272 241 248
1570.0 334 219 345 311 408 462 621 880 1010 1172
1610.0 990 788 492 347 261 203 262 181 249 172
1650.0 362 132 344 291 422 304 528 478 655 681
1690.0 854 1150 1085 1624 1800 2485 2784 4212 5443 7123
1730.0 8998 10000 9818 8281 6075 4517 2921 2237 1471 1262
1770.0 1033 681 637 498 549 400 528 464 482 321
1810.0 330 253 199 218 159 177 109 173 118 121
1850.0 119 181 153 148 232 186 221 204 242 189
1890.0 200 147 142 106 110 112 89 132 102 179
1930.0 158 241 220 254 255 271 252 199 204 127
1970.0 88 41 73 55 44 26 63 41 11 38
2010.0 34 69 22 44 29 48 51 60 65 22
2050.0 59 67 98 92 110 90 94 59 61 67
2090.0 58 60 46 67 59 75 61 72 63 58
2130.0 57 52 59 49 61 33 59 43 49 31
2170.0 21 25 34 38 32 59 30 48 44 46
2210.0 40 41 52 39 46 37 49 36 49 30
2250.0 42 49 56 56 48 56 48 71 57 84
2290.0 75 92 102 118 127 148 160 143 136 100
2330.0 139 79 95 117 98 105 159 124 83 44
2370.0 14 20 26 48 64 50 58 55 61 42
2410.0 59 47 56 43 55 44 50 46 45 55
2450.0 46 57 60 66 64 68 58 63 68 67
2490.0 73 69 76 62 84 81 84 79 91 90
2530.0 77 84 70 80 67 76 76 80 74 80
2570.0 86 76 81 78 93 75 86 81 87 85
2610.0 76 76 62 76 60 71 66 80 68 63
2650.0 84 95 66 55 76 69 93 97 121 114
2690.0 131 112 92 85 95 96 75 92 89 98
2730.0 91 113 113 96 102 119 124 112 132 142
2770.0 155 155 188 183 195 200 203 214 213 225
2810.0 238 259 268 280 291 305 326 339 380 416
2850.0 460 512 617 703 781 849 883 869 869 916
2890.0 1042 1187 1341 1508 1619 1743 1824 1946 2084 2244
2930.0 2411 2503 2479 2374 2216 2084 1995 1957 1957 1939
2970.0 1777 1541 1293 1072 902 823 790 837 933 1156
3010.0 1379 1551 1689 1923 2340 2891 3347 3387 3055 2408
3050.0 1825 1552 1526 1754 2266 2825 2974 2845 2320 1804
3090.0 1617 1470 1321 1150 976 835 719 580 460 355
3130.0 290 253 207 212 193 190 181 204 172 205
3170.0 190 203 182 170 161 151 157 157 149 138
3210.0 155 140 153 158 152 143 135 143 142 163
3250.0 143 161 128 165 198 159 148 137 172 145
3290.0 158 158 175 140 133 149 144 140 140 175
3330.0 161 129 121 141 188 185 156 137 109 131
3370.0 190 169 134 146 215 208 165 176 168 178
3410.0 199 150 173 230 179 246 250 256 290 314
3450.0 346 321 280 284 252 203 170 166 120 130
3490.0 109 125 118 178 109 135 160 167 134 105
3530.0 119 219 162 82 108 162 164 121 141 182
3570.0 184 147 106 132 183 143 94 173 123 99
3610.0 71 115 116 60 137 152 115 135 99 124
3650.0 59 68 171 33 138 86 116 89 54 128
3690.0 76 72 111 121 69 116 44 60 131 103
3730.0 133 187 19 146 65 105 14 58 113 160
3770.0 183 121 63 171 150 162 194 212 202 182
3810.0 125 127 206 229 157 89 98 162 94 155
3850.0 167 306 89 232 276 181 163 96 136 276
3890.0 248 110 106 93 117 123 103 233 214 250
3930.0 195 90 103 231 217 212 0 164 276 251
##END=
