##TITLE=Sulfur hexafluoride
##JCAMP-DX=4.24
##DATA TYPE=INFRARED SPECTRUM
##ORIGIN=Sadtler Research Labs Under US-EPA Contract
##OWNER=NIST Standard Reference Data Program
##CAS REGISTRY NO=2551-62-4
##MOLFORM=F 6 S
##XUNITS=1/CM
##YUNITS=ABSORBANCE
##XFACTOR=1.0
##YFACTOR=0.000155820
##DELTAX=4.0
##FIRSTX=450.0
##LASTX=3966.0
##FIRSTY=0.029917
##MAXX=3966
##MINX=450
##MAXY=1.5582
##MINY=0
##NPOINTS=880
##XYDATA=(X++(Y..Y))
450.0 192 72 16 54 2 63 46 59 50 36
490.0 40 31 46 22 45 29 26 26 38 49
530.0 28 42 39 63 14 59 22 39 16 48
570.0 40 16 67 21 68 34 172 154 207 155
610.0 227 478 274 77 295 219 200 91 84 38
650.0 34 44 42 40 24 39 38 41 32 45
690.0 32 31 38 35 37 30 36 33 31 36
730.0 36 39 35 35 42 35 36 35 39 38
770.0 37 34 42 38 38 42 33 33 31 43
810.0 36 37 39 37 34 42 39 34 47 39
850.0 50 37 50 40 62 58 44 50 46 65
890.0 45 50 35 50 36 58 96 184 387 636
930.0 1040 1929 4619 7901 10000 3397 572 0 115 37
970.0 86 65 131 109 109 98 96 61 39 48
1010.0 28 41 30 43 28 37 32 33 36 36
1050.0 40 32 39 34 36 31 35 32 31 35
1090.0 35 36 31 37 35 37 32 37 34 34
1130.0 35 34 36 32 36 30 33 32 33 33
1170.0 33 35 32 32 32 36 31 34 33 34
1210.0 32 33 33 32 33 33 35 35 38 37
1250.0 40 41 38 38 35 34 31 33 32 33
1290.0 31 32 32 31 33 32 33 30 31 29
1330.0 32 30 31 31 30 30 29 30 30 31
1370.0 31 30 30 33 32 30 32 29 30 30
1410.0 30 28 27 31 29 31 28 29 28 29
1450.0 29 29 28 29 28 29 27 26 29 28
1490.0 28 28 28 27 27 28 26 27 27 30
1530.0 28 29 31 30 31 35 37 41 44 45
1570.0 48 47 52 49 49 45 43 40 36 31
1610.0 31 31 29 28 29 26 30 28 28 27
1650.0 29 27 29 25 27 24 27 24 27 27
1690.0 26 28 31 37 41 48 50 45 33 26
1730.0 25 26 25 25 24 24 25 24 26 26
1770.0 25 25 25 24 24 24 23 24 23 23
1810.0 23 24 23 23 22 24 22 22 24 22
1850.0 24 25 24 21 21 22 21 21 23 22
1890.0 23 22 24 25 23 23 22 21 21 23
1930.0 21 20 21 23 21 22 23 20 20 22
1970.0 22 22 21 19 21 20 21 20 22 19
2010.0 21 22 21 20 21 20 19 22 20 20
2050.0 20 22 20 20 20 21 21 19 21 20
2090.0 20 20 20 20 19 21 19 20 20 18
2130.0 19 20 19 20 18 19 17 19 21 19
2170.0 19 17 18 19 18 18 17 19 20 19
2210.0 17 17 17 19 16 18 16 17 19 16
2250.0 17 18 17 16 18 15 16 15 13 13
2290.0 10 8 5 5 5 2 4 9 16 19
2330.0 21 24 20 20 19 18 22 19 18 15
2370.0 17 16 14 12 10 14 16 16 16 17
2410.0 16 16 16 16 16 15 17 16 16 15
2450.0 17 17 16 15 16 18 16 15 15 14
2490.0 15 14 17 16 18 16 15 14 17 15
2530.0 16 16 16 15 15 14 16 15 14 16
2570.0 16 14 14 14 16 13 16 16 14 17
2610.0 15 16 14 14 14 15 14 15 14 15
2650.0 16 15 15 14 16 15 14 15 15 13
2690.0 14 16 17 14 16 15 15 17 17 15
2730.0 15 14 16 14 16 14 15 16 13 15
2770.0 16 15 15 14 15 14 16 14 13 15
2810.0 16 15 13 15 13 13 13 13 12 14
2850.0 12 12 14 10 11 13 13 14 12 12
2890.0 11 13 15 14 14 16 15 11 12 12
2930.0 10 11 12 11 12 11 14 12 11 13
2970.0 13 11 12 11 12 11 10 13 15 13
3010.0 10 10 12 11 12 11 12 13 9 14
3050.0 10 10 14 10 12 11 13 13 12 12
3090.0 11 12 12 10 12 12 11 12 12 11
3130.0 11 11 11 11 11 11 11 10 14 14
3170.0 9 10 12 9 11 11 11 12 14 11
3210.0 12 14 12 11 9 12 11 11 11 13
3250.0 8 8 14 11 13 8 12 11 9 10
3290.0 9 9 9 12 10 8 7 9 10 11
3330.0 10 8 8 6 8 7 8 6 7 7
3370.0 8 9 8 7 8 8 11 10 6 9
3410.0 6 4 6 7 8 10 11 8 8 6
3450.0 5 9 8 5 6 8 5 6 8 7
3490.0 7 7 6 6 8 8 4 5 4 6
3530.0 3 4 6 6 6 8 12 11 5 7
3570.0 7 8 5 8 7 7 9 6 5 5
3610.0 9 7 9 9 10 7 8 10 7 7
3650.0 8 10 2 5 4 11 6 12 8 8
3690.0 6 12 12 7 9 7 7 8 10 6
3730.0 8 7 9 11 10 3 9 7 2 3
3770.0 7 6 6 6 5 8 2 3 8 7
3810.0 3 7 13 13 4 5 6 6 3 6
3850.0 2 10 6 13 9 6 4 2 11 6
3890.0 6 6 2 5 8 2 7 3 6 5
3930.0 10 4 2 3 9 11 4 2 2 7
##END=
