##TITLE=Acetonitrile, diisobutylamino-,
##JCAMP-DX=4.24
##DATA TYPE=INFRARED SPECTRUM
##ORIGIN=Sadtler Research Labs Under US-EPA Contract
##OWNER=NIST Standard Reference Data Program
##CAS REGISTRY NO=25553-97-3
##MOLFORM=C 10 H 20 N 2
##XUNITS=1/CM
##YUNITS=ABSORBANCE
##XFACTOR=1.0
##YFACTOR=0.000156668
##DELTAX=4.0
##FIRSTX=450.0
##LASTX=3966.0
##FIRSTY=0.033684
##MAXX=3966
##MINX=450
##MAXY=1.56668
##MINY=0
##NPOINTS=880
##XYDATA=(X++(Y..Y))
450.0 215 146 118 80 50 82 103 66 36 20
490.0 20 25 9 20 18 28 21 40 36 54
530.0 66 70 76 77 64 66 56 51 50 44
570.0 35 33 33 35 33 33 32 38 48 49
610.0 43 65 70 69 75 77 72 66 62 61
650.0 60 67 70 74 85 104 97 101 93 102
690.0 106 103 132 135 107 120 681 274 121 109
730.0 113 119 117 120 112 99 97 87 83 82
770.0 78 75 66 60 61 63 64 69 92 120
810.0 167 217 259 281 274 271 312 414 548 664
850.0 705 698 693 739 770 722 572 380 256 193
890.0 166 158 160 165 171 181 197 218 251 304
930.0 364 391 379 337 304 322 400 521 680 824
970.0 886 827 660 463 297 203 149 113 98 89
1010.0 83 87 88 92 98 108 118 131 149 170
1050.0 203 255 345 479 667 930 1285 1749 2316 2878
1090.0 3196 3108 2611 1967 1439 1084 882 775 726 700
1130.0 668 625 564 509 485 507 558 614 647 640
1170.0 591 521 455 408 395 427 488 540 534 464
1210.0 356 261 198 166 156 155 158 163 175 191
1250.0 212 240 259 270 281 300 333 370 403 419
1290.0 428 435 445 461 493 545 642 767 889 940
1330.0 913 823 704 606 538 501 514 591 752 969
1370.0 1209 1291 1198 1138 1197 1328 1371 1216 907 620
1410.0 442 364 350 427 551 719 878 932 895 871
1450.0 914 1067 1329 1651 2002 2164 2075 1631 1099 650
1490.0 403 290 234 194 166 134 116 97 80 74
1530.0 59 59 47 39 33 37 35 27 32 28
1570.0 27 22 29 22 28 25 27 26 29 27
1610.0 25 27 27 28 23 30 25 26 25 28
1650.0 15 35 28 31 29 36 32 44 36 44
1690.0 49 66 80 108 117 119 96 71 60 54
1730.0 46 42 38 33 28 16 17 15 16 17
1770.0 16 14 17 16 17 13 13 11 10 10
1810.0 7 6 9 5 7 2 2 3 0 1
1850.0 3 5 3 4 2 3 6 6 7 7
1890.0 7 9 11 13 15 13 14 19 17 21
1930.0 23 22 20 18 14 12 9 7 6 4
1970.0 4 5 5 5 8 7 8 8 10 10
2010.0 9 8 8 6 7 7 6 8 6 7
2050.0 7 6 4 4 3 2 3 2 3 2
2090.0 0 2 3 1 3 3 2 2 4 5
2130.0 7 8 10 10 12 14 15 16 18 18
2170.0 18 20 19 20 21 20 19 17 16 16
2210.0 16 16 17 17 19 18 20 21 21 20
2250.0 21 21 21 20 22 23 25 27 29 31
2290.0 31 30 26 24 20 15 13 10 11 12
2330.0 14 10 15 18 20 18 23 25 31 30
2370.0 25 28 31 29 28 31 32 33 33 33
2410.0 30 28 26 23 22 21 19 16 13 13
2450.0 12 12 12 13 13 14 16 17 16 17
2490.0 18 18 20 20 18 20 22 21 24 24
2530.0 25 24 26 30 30 33 35 35 39 43
2570.0 47 54 62 67 74 81 87 90 90 92
2610.0 96 100 104 104 105 108 112 112 114 114
2650.0 117 122 127 131 134 138 141 145 150 157
2690.0 164 176 188 202 218 240 262 292 330 371
2730.0 407 429 439 440 436 441 452 469 495 525
2770.0 560 602 655 717 783 866 967 1096 1235 1370
2810.0 1470 1570 1705 1865 2034 2148 2154 2035 1833 1613
2850.0 1429 1305 1248 1271 1414 1762 2372 3047 3495 3474
2890.0 3163 2843 2738 2855 3108 3397 3620 3728 3777 3839
2930.0 3993 4251 4567 4792 4948 5243 5879 7188 8832 10000
2970.0 9838 8569 6470 4442 2808 1713 1091 782 619 519
3010.0 446 386 338 301 275 251 232 212 190 172
3050.0 159 149 142 139 139 144 144 142 140 141
3090.0 139 137 133 128 124 118 112 109 108 108
3130.0 108 106 107 109 109 114 111 116 116 121
3170.0 123 122 123 121 119 113 108 99 92 86
3210.0 74 66 64 58 54 51 52 51 56 56
3250.0 62 67 65 67 71 76 75 74 75 70
3290.0 72 67 62 57 52 43 46 58 72 81
3330.0 90 95 97 96 96 91 85 81 75 67
3370.0 63 57 54 51 47 42 46 40 38 37
3410.0 32 30 29 27 25 25 24 23 20 22
3450.0 20 18 22 21 15 18 20 16 22 16
3490.0 17 18 21 18 19 22 18 16 19 16
3530.0 17 16 20 17 18 18 18 18 19 17
3570.0 20 19 18 18 16 16 16 10 17 12
3610.0 14 15 16 21 18 25 15 16 20 17
3650.0 21 15 21 19 17 20 19 19 18 20
3690.0 18 19 17 19 20 23 20 21 21 22
3730.0 23 25 28 20 34 19 26 16 22 27
3770.0 26 21 25 26 28 23 29 31 35 33
3810.0 32 31 33 31 26 31 33 42 33 31
3850.0 31 32 29 29 31 27 27 25 26 27
3890.0 26 31 29 30 28 26 21 30 30 28
3930.0 24 20 20 20 18 18 18 24 15 17
##END=
