##TITLE=Naphtho[1,2-b]furan, 2,3-dihydro-2,2-dimethyl-,
##JCAMP-DX=4.24
##DATA TYPE=INFRARED SPECTRUM
##ORIGIN=Sadtler Research Labs Under US-EPA Contract
##OWNER=NIST Standard Reference Data Program
##CAS REGISTRY NO=25594-14-3
##MOLFORM=C 14 H 14 O
##XUNITS=1/CM
##YUNITS=ABSORBANCE
##XFACTOR=1.0
##YFACTOR=0.000065186
##DELTAX=4.0
##FIRSTX=450.0
##LASTX=3966.0
##FIRSTY=0.021902
##MAXX=3966
##MINX=450
##MAXY=0.65186
##MINY=0
##NPOINTS=880
##XYDATA=(X++(Y..Y))
450.0 336 276 201 116 107 132 37 159 145 181
490.0 305 275 230 175 130 210 258 201 193 104
530.0 72 110 87 101 151 319 587 879 1303 1343
570.0 890 597 320 159 105 56 67 29 42 43
610.0 79 40 83 57 92 144 282 420 539 840
650.0 1191 1487 1428 936 671 304 155 89 95 59
690.0 76 66 102 130 119 93 100 163 415 800
730.0 1254 1805 1551 1569 2849 3682 3863 3069 2107 1918
770.0 3110 3158 2778 2981 3452 4351 5672 7081 5256 3512
810.0 1982 833 437 267 238 229 284 367 601 990
850.0 1467 1714 1619 1260 960 1320 2658 4176 4460 3560
890.0 1776 708 478 426 473 432 398 316 293 312
930.0 357 440 470 494 462 451 405 341 360 482
970.0 723 1012 1308 1708 2213 2455 2261 1598 869 486
1010.0 317 321 392 357 293 197 122 171 303 636
1050.0 1224 2163 3671 5374 6696 7669 7747 6760 5132 2983
1090.0 1453 678 387 301 335 475 766 1309 2093 2940
1130.0 3596 3965 4092 4058 3792 3230 2535 1915 1469 1167
1170.0 959 788 686 618 548 446 355 329 339 388
1210.0 457 533 570 616 647 691 764 860 974 1069
1250.0 1120 1106 1144 1278 1519 1842 2448 3506 5130 7140
1290.0 8896 9681 8524 6283 3695 1895 1009 638 497 464
1330.0 538 756 1080 1330 1421 1347 1381 1884 3165 5200
1370.0 7174 8315 7453 7043 7457 9060 10000 8990 6630 3486
1410.0 1494 791 528 512 571 842 1466 2373 3005 3122
1450.0 2698 2362 2512 2828 2892 2519 1873 992 447 231
1490.0 148 179 234 365 560 965 1524 1854 1803 1430
1530.0 824 437 292 179 163 178 279 442 848 1524
1570.0 2565 3788 4509 4415 3472 2424 1901 1610 1255 802
1610.0 393 224 148 166 221 313 370 374 323 245
1650.0 164 109 114 100 86 61 65 130 177 183
1690.0 145 80 55 93 120 144 149 186 261 316
1730.0 315 254 196 131 81 47 35 26 43 62
1770.0 53 38 21 0 1 8 25 50 91 151
1810.0 170 168 164 161 192 193 165 111 52 33
1850.0 55 91 133 168 172 164 145 133 127 117
1890.0 112 113 127 145 146 144 164 195 208 198
1930.0 180 192 231 236 201 135 68 32 16 7
1970.0 6 10 10 16 18 12 17 21 26 26
2010.0 28 32 31 28 28 28 29 27 30 30
2050.0 27 22 19 17 12 8 8 8 11 14
2090.0 18 22 19 17 15 19 25 30 39 42
2130.0 43 47 51 54 57 52 46 44 41 44
2170.0 46 48 39 32 28 24 24 24 22 30
2210.0 26 31 30 36 36 38 36 40 41 41
2250.0 44 36 41 41 43 54 64 71 77 79
2290.0 75 75 75 77 76 70 68 68 83 71
2330.0 79 71 72 79 101 106 120 98 91 79
2370.0 90 88 89 87 75 68 63 60 50 48
2410.0 40 34 39 40 40 42 48 53 56 55
2450.0 62 65 67 71 62 62 54 52 44 40
2490.0 40 42 40 46 50 51 53 54 57 62
2530.0 66 63 60 62 59 53 54 53 58 58
2570.0 68 73 73 75 78 68 62 57 54 53
2610.0 51 54 54 61 66 68 80 91 93 90
2650.0 91 89 86 86 79 85 82 76 75 72
2690.0 71 68 65 69 76 84 89 96 95 111
2730.0 120 127 124 119 113 103 91 92 100 101
2770.0 104 103 99 95 101 102 115 126 146 179
2810.0 207 234 267 286 310 340 369 416 476 568
2850.0 750 1090 1662 2280 2591 2512 2104 1695 1460 1345
2890.0 1310 1329 1382 1452 1555 1726 1971 2351 2882 3585
2930.0 4336 4922 4986 4485 3711 2832 2091 1660 1620 1944
2970.0 2992 5141 7880 8877 7641 5045 2598 1277 770 627
3010.0 684 795 938 1084 1203 1268 1272 1273 1330 1573
3050.0 2179 3271 4441 5121 5286 4877 4104 3351 2418 1568
3090.0 1081 824 674 540 426 320 236 186 139 114
3130.0 97 91 95 81 86 103 114 113 117 109
3170.0 109 111 102 115 118 121 129 129 127 129
3210.0 121 108 103 101 107 109 117 112 97 84
3250.0 70 61 52 41 41 44 46 42 47 52
3290.0 46 49 40 35 36 35 36 29 29 36
3330.0 30 30 33 30 32 21 23 32 31 34
3370.0 37 51 30 39 35 40 42 45 41 39
3410.0 41 39 44 45 43 34 37 35 34 39
3450.0 42 48 37 33 34 44 36 34 29 39
3490.0 38 39 38 34 37 33 34 32 35 33
3530.0 33 33 37 36 40 33 22 30 27 21
3570.0 38 39 33 22 28 29 23 25 37 37
3610.0 31 29 37 28 24 39 35 40 37 33
3650.0 29 34 33 37 31 29 27 27 35 30
3690.0 27 37 30 27 33 40 36 45 28 43
3730.0 28 26 25 48 40 18 43 39 36 45
3770.0 46 30 35 43 40 53 48 52 42 44
3810.0 47 44 52 60 45 30 27 35 32 34
3850.0 37 50 35 38 31 35 24 33 40 55
3890.0 53 52 44 41 50 54 59 62 77 57
3930.0 56 80 67 64 60 34 55 25 34 10
##END=
