##TITLE=1,2-Diphenylethylamine
##JCAMP-DX=4.24
##DATA TYPE=INFRARED SPECTRUM
##ORIGIN=Sadtler Research Labs Under US-EPA Contract
##OWNER=NIST Standard Reference Data Program
##CAS REGISTRY NO=25611-78-3
##MOLFORM=C 14 H 15 N
##XUNITS=1/CM
##YUNITS=ABSORBANCE
##XFACTOR=1.0
##YFACTOR=0.000065576
##DELTAX=4.0
##FIRSTX=450.0
##LASTX=3966.0
##FIRSTY=0.000000
##MAXX=3966
##MINX=450
##MAXY=0.65576
##MINY=0
##NPOINTS=880
##XYDATA=(X++(Y..Y))
450.0 0 601 461 893 821 916 970 1244 1105 690
490.0 1181 1188 1000 1016 1133 1210 1546 1551 1348 1475
530.0 2166 1934 2179 2277 2216 2049 1673 1627 1430 1278
570.0 1122 1257 1073 933 790 904 942 939 1015 1169
610.0 1076 952 953 957 920 973 828 789 825 946
650.0 1010 1128 1104 1275 1592 1744 1980 2136 2460 3210
690.0 4938 8020 10000 9184 7183 5268 3682 3122 3197 3355
730.0 3688 3711 4737 4700 5004 5196 5954 5533 4880 4046
770.0 3236 2838 2478 2329 2359 2371 2407 2419 2331 2265
810.0 2190 2039 1848 1728 1755 1541 1364 1465 1268 1116
850.0 1008 1010 1040 922 956 995 936 966 924 931
890.0 1100 987 1044 1052 1125 1187 1036 992 911 824
930.0 913 825 868 888 1000 868 883 850 804 809
970.0 793 805 844 797 818 850 830 877 934 923
1010.0 923 936 1117 1371 1764 1901 1601 1219 934 990
1050.0 1137 1275 1442 1618 1769 1830 1841 1702 1524 1311
1090.0 1147 994 841 827 770 674 690 653 506 439
1130.0 510 686 723 653 581 608 648 643 614 660
1170.0 650 752 877 926 988 979 1024 1078 1030 1028
1210.0 1129 1145 1099 1113 1139 1118 1075 1044 1015 938
1250.0 1004 964 1018 1043 977 1096 1049 1032 1009 980
1290.0 946 1000 1036 1047 1052 1133 1159 1185 1236 1279
1330.0 1283 1285 1272 1211 1215 1173 1145 1173 1192 1254
1370.0 1353 1384 1351 1256 1129 1010 870 804 750 705
1410.0 731 702 800 768 843 945 1049 1316 1581 1871
1450.0 2242 2332 2024 1498 1200 986 1008 1115 1278 1675
1490.0 2552 3424 3443 2682 1788 1148 1083 955 948 965
1530.0 1001 1016 1011 991 1015 983 962 977 948 1072
1570.0 1060 1154 1266 1383 1581 1813 2161 2566 2945 2887
1610.0 2564 2298 2084 2000 1933 1730 1589 1372 1261 1163
1650.0 1019 968 828 859 752 714 714 667 689 651
1690.0 661 653 657 631 672 651 663 658 653 686
1730.0 677 741 718 750 762 766 758 723 685 647
1770.0 653 638 648 672 709 770 870 911 922 810
1810.0 746 711 655 644 603 584 570 550 570 565
1850.0 597 589 645 692 707 758 742 755 746 734
1890.0 705 664 610 578 561 558 571 579 619 654
1930.0 716 790 847 868 852 839 834 787 693 606
1970.0 550 524 521 516 509 513 499 485 482 474
2010.0 470 480 479 480 480 480 484 478 480 473
2050.0 469 465 466 461 465 462 462 460 462 468
2090.0 468 462 461 459 458 454 447 452 450 452
2130.0 454 447 457 457 461 461 464 458 461 453
2170.0 446 450 448 454 455 455 453 454 456 456
2210.0 451 457 441 440 440 453 456 451 449 453
2250.0 457 461 465 461 463 450 460 460 467 474
2290.0 485 495 505 523 535 574 569 559 544 514
2330.0 499 480 494 481 500 505 509 481 523 537
2370.0 528 514 487 496 489 473 455 461 454 457
2410.0 479 474 472 471 469 471 475 476 472 467
2450.0 464 470 468 474 484 485 486 483 486 489
2490.0 489 490 484 490 493 491 499 503 506 516
2530.0 517 520 524 518 515 518 519 517 518 528
2570.0 538 554 561 563 573 571 582 588 601 581
2610.0 592 574 565 564 574 575 579 582 576 564
2650.0 549 550 544 537 543 530 532 533 543 537
2690.0 546 550 543 550 546 547 546 542 550 551
2730.0 553 556 559 574 570 578 593 598 595 591
2770.0 590 607 620 631 651 661 665 676 696 726
2810.0 754 774 811 848 877 908 947 1021 1135 1293
2850.0 1516 1728 1884 1931 1837 1709 1569 1433 1354 1318
2890.0 1345 1384 1456 1551 1679 1842 2044 2268 2487 2594
2930.0 2609 2525 2478 2384 2218 1918 1611 1311 1106 967
2970.0 885 844 840 831 834 848 899 984 1132 1300
3010.0 1483 1701 2084 2773 3846 4936 5542 5279 4368 3397
3050.0 2794 2634 2853 3536 4665 5705 5745 4849 3803 3270
3090.0 3015 2626 2223 1877 1626 1416 1234 1016 856 743
3130.0 695 640 614 589 585 577 572 560 583 584
3170.0 567 553 535 527 507 520 523 524 500 493
3210.0 493 483 479 484 477 496 495 483 499 493
3250.0 481 483 491 483 475 480 473 466 473 477
3290.0 494 484 493 492 488 490 486 495 499 507
3330.0 519 533 568 566 563 544 517 526 523 515
3370.0 504 490 492 497 504 500 523 538 565 587
3410.0 588 565 550 534 511 505 490 497 510 488
3450.0 504 497 496 498 488 499 503 493 484 487
3490.0 481 465 470 479 482 490 482 493 505 502
3530.0 500 494 489 483 493 493 481 490 483 492
3570.0 502 502 487 511 499 511 483 496 482 492
3610.0 488 485 499 494 517 491 528 530 557 533
3650.0 553 503 543 502 515 486 453 494 486 524
3690.0 458 504 498 502 505 457 462 502 461 495
3730.0 454 449 468 448 481 435 504 468 483 451
3770.0 466 489 471 456 493 473 495 459 493 447
3810.0 506 469 501 438 480 464 455 447 488 473
3850.0 496 460 485 522 488 481 482 447 469 457
3890.0 452 499 454 482 494 520 540 523 554 473
3930.0 475 483 481 484 442 466 448 517 518 504
##END=
