##TITLE=Benzofuran, 2,5-dimethyl-3-(6-methoxy-m-tolyl)-,
##JCAMP-DX=4.24
##DATA TYPE=INFRARED SPECTRUM
##ORIGIN=Sadtler Research Labs Under US-EPA Contract
##OWNER=NIST Standard Reference Data Program
##CAS REGISTRY NO=25633-57-2
##MOLFORM=C 18 H 18 O 2
##XUNITS=1/CM
##YUNITS=ABSORBANCE
##XFACTOR=1.0
##YFACTOR=0.000035837
##DELTAX=4.0
##FIRSTX=450.0
##LASTX=3966.0
##FIRSTY=0.000000
##MAXX=3966
##MINX=450
##MAXY=0.35837
##MINY=0
##NPOINTS=880
##XYDATA=(X++(Y..Y))
450.0 0 129 145 133 127 209 155 155 186 146
490.0 56 120 103 205 161 158 316 386 453 408
530.0 392 402 363 298 343 366 417 457 463 382
570.0 316 381 525 776 821 495 307 211 160 160
610.0 138 137 123 102 92 107 137 110 139 157
650.0 182 349 786 1196 1274 617 256 262 212 243
690.0 195 215 184 198 186 183 200 225 302 453
730.0 754 1154 1270 980 586 465 561 743 767 684
770.0 628 681 778 892 1280 2464 4551 5752 4526 3135
810.0 2200 1777 1547 1353 1107 825 672 591 598 643
850.0 694 814 953 1094 1433 1759 1584 1110 784 790
890.0 826 644 398 300 292 305 326 383 491 653
930.0 854 1127 1517 1903 1945 1520 1011 759 708 794
970.0 954 1082 1070 956 874 844 868 915 1026 1177
1010.0 1401 1703 2133 2580 2923 3045 3088 3150 3216 3052
1050.0 2568 1942 1359 962 766 650 570 534 507 509
1090.0 500 502 520 563 669 891 1253 1546 1632 1625
1130.0 1543 1379 1321 1394 1508 1532 1459 1493 1822 2541
1170.0 3622 4634 4983 4536 3709 3069 3184 3594 3295 2459
1210.0 1903 1864 2158 2741 3600 4453 4874 5168 6098 7820
1250.0 9524 10000 8923 7058 5898 5593 5050 4010 3177 2693
1290.0 2194 1607 1113 794 625 538 487 469 452 453
1330.0 457 502 604 708 761 762 675 602 540 498
1370.0 494 554 675 817 920 878 826 879 1025 1216
1410.0 1347 1381 1390 1350 1409 1593 1894 2294 2742 3037
1450.0 3097 2942 2985 3503 4681 6316 7138 6322 4660 3922
1490.0 4533 6094 7635 8073 6674 4354 2781 1769 1313 992
1530.0 867 744 660 629 583 542 520 509 464 491
1570.0 520 610 712 883 1045 1187 1210 1191 1212 1255
1610.0 1248 1185 1183 1227 1289 1243 1086 853 635 461
1650.0 361 269 212 224 197 165 150 125 155 149
1690.0 151 137 156 147 169 188 242 304 328 329
1730.0 315 318 258 208 167 133 101 113 113 121
1770.0 135 131 133 135 133 142 155 176 169 136
1810.0 140 171 187 210 210 199 169 157 196 273
1850.0 380 441 395 279 188 162 138 134 124 121
1890.0 107 96 81 76 81 74 69 63 74 60
1930.0 56 61 60 64 57 62 62 71 76 94
1970.0 109 118 133 145 150 147 136 114 115 121
2010.0 117 130 129 133 129 131 125 133 139 132
2050.0 123 123 119 120 125 122 122 122 120 103
2090.0 100 92 91 88 86 87 88 94 92 90
2130.0 82 76 75 68 67 65 71 71 81 75
2170.0 80 72 70 73 69 71 70 66 60 56
2210.0 68 65 75 65 69 79 81 88 86 79
2250.0 76 79 76 80 77 79 80 83 77 84
2290.0 80 77 83 86 77 75 86 80 90 96
2330.0 86 62 64 80 93 89 94 95 64 83
2370.0 91 88 97 96 82 77 82 76 77 77
2410.0 81 89 86 87 85 85 95 100 101 108
2450.0 112 120 119 124 123 124 135 143 141 142
2490.0 149 151 150 157 156 147 154 154 150 154
2530.0 155 153 152 149 138 139 133 130 128 120
2570.0 125 117 115 114 116 116 114 114 109 113
2610.0 114 119 113 125 133 135 145 145 144 140
2650.0 126 115 112 109 105 96 106 93 97 96
2690.0 106 107 111 117 117 117 126 137 144 161
2730.0 185 222 271 330 338 309 276 256 232 219
2770.0 211 219 227 225 248 267 280 288 312 336
2810.0 388 449 523 614 778 994 1333 1682 1873 1812
2850.0 1627 1528 1584 1757 2005 2259 2489 2617 2596 2447
2890.0 2276 2171 2157 2246 2432 2656 2922 3306 3941 4973
2930.0 6197 6758 6240 5200 4310 3799 3486 3201 2824 2368
2970.0 1983 1765 1716 1733 1810 1957 2198 2492 2726 2761
3010.0 2557 2321 2302 2550 2896 3109 3162 3131 2954 2527
3050.0 1991 1571 1366 1333 1390 1418 1401 1296 1140 972
3090.0 875 793 737 664 568 484 404 342 292 254
3130.0 207 187 177 150 137 144 134 121 126 126
3170.0 109 101 97 102 97 105 101 98 92 94
3210.0 97 89 96 84 95 84 86 82 74 70
3250.0 74 78 70 73 78 73 76 61 65 77
3290.0 64 75 72 83 72 72 78 66 74 72
3330.0 74 73 74 84 76 80 69 87 76 82
3370.0 83 68 74 73 79 89 77 73 70 79
3410.0 77 79 78 74 90 84 76 67 56 82
3450.0 73 67 72 73 91 94 80 63 68 72
3490.0 63 70 87 94 85 83 78 79 84 87
3530.0 88 82 91 77 86 77 82 89 77 93
3570.0 95 73 89 106 107 90 84 103 105 101
3610.0 101 82 74 96 104 101 89 98 94 100
3650.0 87 75 108 88 86 82 68 83 76 94
3690.0 83 117 107 93 95 78 73 95 128 116
3730.0 109 125 105 96 88 87 82 92 72 87
3770.0 92 96 127 92 99 86 74 55 68 61
3810.0 77 87 100 90 64 74 85 119 124 95
3850.0 74 57 65 88 112 128 132 118 113 118
3890.0 115 78 105 132 115 121 135 100 136 125
3930.0 119 130 109 97 117 103 121 121 102 92
##END=
