##TITLE=Acetanilide, 2,3'-dichloro-,
##JCAMP-DX=4.24
##DATA TYPE=INFRARED SPECTRUM
##ORIGIN=Sadtler Research Labs Under US-EPA Contract
##OWNER=NIST Standard Reference Data Program
##CAS REGISTRY NO=2564-05-8
##MOLFORM=C 8 H 7 Cl 2 N O
##XUNITS=1/CM
##YUNITS=ABSORBANCE
##XFACTOR=1.0
##YFACTOR=0.000089819
##DELTAX=4.0
##FIRSTX=450.0
##LASTX=3966.0
##FIRSTY=0.000000
##MAXX=3966
##MINX=450
##MAXY=0.89819
##MINY=0
##NPOINTS=880
##XYDATA=(X++(Y..Y))
450.0 0 441 743 616 866 850 1169 1562 1701 1576
490.0 1490 1405 1155 1157 967 1026 886 1039 1059 1029
530.0 1163 1149 1268 1250 1084 979 746 746 929 934
570.0 1022 1083 1014 938 874 849 802 848 869 784
610.0 763 753 723 719 653 635 621 597 613 594
650.0 700 815 940 1079 1194 1484 1705 1947 1914 1443
690.0 1288 1007 969 890 816 924 941 975 977 918
730.0 965 822 1170 910 698 783 1318 1469 2016 2957
770.0 3967 4927 4547 3440 2390 1540 1272 934 855 638
810.0 735 614 644 706 694 654 668 714 740 834
850.0 1011 1166 1104 1121 1126 1140 1220 1221 1252 1222
890.0 1215 1124 1046 1038 1112 1298 1468 1419 1183 925
930.0 835 761 726 723 685 709 741 771 838 871
970.0 843 746 651 591 553 609 680 759 748 669
1010.0 606 596 597 558 541 592 569 523 526 578
1050.0 586 619 642 677 837 1085 1223 1394 1446 1437
1090.0 1522 1711 1726 1661 1354 1125 1039 1038 934 884
1130.0 901 855 839 862 811 855 824 816 854 930
1170.0 958 933 928 943 975 1080 1140 1281 1451 1581
1210.0 1831 2067 2114 2102 2120 2176 2126 2098 2082 2050
1250.0 1998 2102 2316 2351 2387 2322 2176 2075 1892 1877
1290.0 2135 2351 2392 2197 1761 1376 1166 1020 981 936
1330.0 936 911 809 769 705 703 711 678 680 657
1370.0 708 743 740 861 989 1250 1617 2048 2555 2970
1410.0 3563 4207 4472 4649 4261 3600 3005 2259 1776 1580
1450.0 1501 1599 1748 1923 2168 2621 3418 4331 5183 5523
1490.0 5192 4729 4584 5050 5702 7092 8103 9211 10000 9704
1530.0 9501 8759 7748 6281 4780 3457 2605 2183 1976 1945
1570.0 2112 2376 2937 4165 5282 7411 8891 8747 7894 5165
1610.0 3234 2071 1589 1337 1172 1105 1012 994 930 940
1650.0 968 961 994 1005 1086 1212 1245 1412 1482 1726
1690.0 1839 2026 2356 2611 3085 3866 4753 6625 7813 8397
1730.0 8159 6355 4712 3418 2569 2068 1693 1458 1287 1172
1770.0 1091 1008 953 867 804 755 687 671 620 624
1810.0 605 591 599 584 602 590 607 589 582 578
1850.0 566 576 579 561 570 547 538 538 528 534
1890.0 536 540 543 542 555 560 567 569 556 543
1930.0 548 544 540 532 522 509 509 497 497 482
1970.0 484 474 479 480 470 475 475 483 478 478
2010.0 486 481 488 487 485 491 478 480 470 473
2050.0 473 471 479 477 477 487 480 480 474 480
2090.0 483 480 480 477 479 485 485 486 482 488
2130.0 486 484 495 490 499 500 503 511 508 509
2170.0 508 507 512 507 508 509 501 498 491 494
2210.0 495 488 491 482 487 492 492 496 495 502
2250.0 509 522 538 550 571 592 590 592 572 552
2290.0 545 538 539 535 533 539 547 538 541 547
2330.0 553 561 534 558 520 553 547 567 533 515
2370.0 506 498 513 523 507 492 485 488 486 485
2410.0 489 491 496 492 490 491 490 489 484 478
2450.0 486 482 481 486 488 485 487 487 488 492
2490.0 492 485 489 490 485 486 488 477 477 472
2530.0 469 467 463 461 464 465 458 457 458 455
2570.0 459 455 459 456 455 462 465 457 461 456
2610.0 456 457 458 463 463 469 471 473 471 467
2650.0 475 477 477 482 492 497 500 506 501 496
2690.0 497 493 491 494 489 484 482 486 484 495
2730.0 491 493 492 497 497 493 502 489 487 478
2770.0 478 485 482 477 478 477 470 489 479 478
2810.0 476 482 483 504 484 489 488 479 492 484
2850.0 476 480 479 492 493 491 490 487 494 492
2890.0 486 485 485 494 493 497 504 499 512 520
2930.0 535 548 556 577 594 592 600 617 635 654
2970.0 638 626 630 634 620 606 601 596 578 576
3010.0 576 584 594 608 638 681 718 731 737 740
3050.0 732 727 744 753 741 740 750 763 796 823
3090.0 840 801 761 701 660 621 624 619 618 613
3130.0 603 578 572 556 540 536 532 528 527 527
3170.0 528 537 532 530 535 536 538 533 531 532
3210.0 523 522 528 529 522 530 535 537 543 543
3250.0 548 544 539 552 548 561 566 557 561 566
3290.0 566 575 569 568 574 583 588 589 594 605
3330.0 609 607 609 613 613 606 606 600 588 591
3370.0 620 618 614 632 668 689 726 763 827 908
3410.0 1031 1265 1644 2197 2771 3031 2822 2208 1578 1154
3450.0 910 787 710 639 593 579 558 561 540 524
3490.0 528 517 506 501 505 518 499 508 507 500
3530.0 501 502 491 498 494 490 492 513 484 512
3570.0 493 517 489 510 501 523 506 508 514 503
3610.0 492 495 515 494 522 505 521 472 485 464
3650.0 521 488 506 479 480 509 492 539 454 509
3690.0 501 516 492 500 502 502 499 496 481 535
3730.0 509 522 534 498 584 464 553 461 511 503
3770.0 496 501 477 480 481 462 516 456 512 486
3810.0 509 473 519 515 477 498 515 497 496 465
3850.0 517 516 553 514 455 521 480 509 479 500
3890.0 481 514 494 559 486 477 492 497 570 517
3930.0 554 515 492 517 501 512 521 527 492 531
##END=
