##TITLE=Pentadecylamine
##JCAMP-DX=4.24
##DATA TYPE=INFRARED SPECTRUM
##ORIGIN=Sadtler Research Labs Under US-EPA Contract
##OWNER=NIST Standard Reference Data Program
##CAS REGISTRY NO=2570-26-5
##MOLFORM=C 15 H 33 N
##XUNITS=1/CM
##YUNITS=ABSORBANCE
##XFACTOR=1.0
##YFACTOR=0.000043652
##DELTAX=4.0
##FIRSTX=450.0
##LASTX=3966.0
##FIRSTY=0.000000
##MAXX=3966
##MINX=450
##MAXY=0.43652
##MINY=0
##NPOINTS=880
##XYDATA=(X++(Y..Y))
450.0 0 246 409 393 320 450 402 276 478 357
490.0 391 412 390 454 374 417 372 424 359 430
530.0 417 386 397 350 378 395 425 372 384 392
570.0 410 423 383 427 393 403 391 382 386 373
610.0 387 391 398 401 399 379 369 382 377 402
650.0 393 406 379 402 412 463 406 394 423 411
690.0 470 473 493 489 522 534 575 618 637 657
730.0 638 662 695 707 741 777 785 830 841 868
770.0 902 889 901 887 826 750 669 638 607 574
810.0 560 532 528 492 480 452 453 437 421 435
850.0 415 417 397 409 392 394 393 373 379 388
890.0 368 376 379 373 366 353 368 379 374 380
930.0 383 376 371 366 364 366 359 366 382 399
970.0 377 368 365 372 375 370 378 387 393 387
1010.0 387 405 410 414 411 418 426 434 425 452
1050.0 450 458 467 485 514 525 527 517 522 514
1090.0 504 495 479 470 451 432 437 421 415 411
1130.0 407 394 390 382 386 372 371 373 372 365
1170.0 369 374 366 364 365 363 371 374 373 377
1210.0 377 379 384 385 384 390 398 409 407 404
1250.0 413 422 440 448 443 436 443 450 454 460
1290.0 472 482 502 511 513 514 506 488 483 486
1330.0 497 505 540 568 598 634 660 655 656 651
1370.0 642 617 618 610 604 578 551 531 493 482
1410.0 473 472 487 499 513 544 597 657 740 805
1450.0 894 981 1090 1144 1117 1013 859 717 637 574
1490.0 551 539 542 549 549 547 549 532 528 514
1530.0 511 504 497 491 478 476 468 469 467 466
1570.0 469 464 473 480 492 495 500 506 520 542
1610.0 561 589 615 626 640 603 583 542 514 501
1650.0 496 489 504 505 526 530 501 486 465 463
1690.0 446 440 427 429 413 397 368 337 290 268
1730.0 258 266 263 273 266 264 279 278 280 269
1770.0 271 255 254 262 277 287 297 306 308 320
1810.0 317 321 332 332 338 339 339 335 334 338
1850.0 337 339 344 342 342 340 338 339 342 338
1890.0 339 339 338 337 330 334 336 335 331 331
1930.0 332 330 327 326 327 323 326 320 323 323
1970.0 322 316 321 321 316 319 315 315 317 317
2010.0 317 316 319 318 317 319 316 315 312 309
2050.0 309 309 303 303 307 304 305 300 298 296
2090.0 292 295 287 286 286 288 284 280 282 285
2130.0 280 283 278 276 279 278 274 279 273 270
2170.0 266 270 262 270 269 266 263 265 258 263
2210.0 259 260 255 252 257 260 260 257 255 260
2250.0 265 266 268 266 266 272 271 282 291 302
2290.0 311 330 340 355 374 390 377 374 373 362
2330.0 338 320 301 307 305 339 325 307 271 265
2370.0 253 262 286 307 288 269 256 256 263 258
2410.0 267 264 267 271 267 272 271 270 272 273
2450.0 279 279 277 282 273 276 273 283 278 280
2490.0 282 283 286 289 286 287 299 297 293 298
2530.0 302 302 300 304 307 303 311 308 314 313
2570.0 315 313 316 316 318 326 327 325 324 326
2610.0 333 341 338 342 342 344 349 347 359 357
2650.0 362 367 369 372 378 379 387 393 392 398
2690.0 395 385 388 388 380 389 385 384 392 392
2730.0 398 408 412 411 426 419 432 435 440 444
2770.0 449 453 461 465 487 502 518 547 570 602
2810.0 632 671 726 792 855 940 1037 1179 1402 1747
2850.0 2301 3032 3811 4291 4150 3574 2960 2509 2287 2165
2890.0 2116 2156 2341 2650 3083 3595 4250 5174 6469 8184
2930.0 9666 10000 8880 7120 5425 4080 3208 2721 2521 2422
2970.0 2242 1878 1435 1117 923 795 713 646 602 560
3010.0 534 508 481 467 455 443 431 419 413 395
3050.0 394 389 380 377 372 370 359 358 345 352
3090.0 345 339 344 336 332 326 329 329 327 322
3130.0 336 325 326 318 316 323 324 325 320 325
3170.0 319 317 312 315 310 310 312 310 308 314
3210.0 306 304 309 303 308 305 307 303 296 303
3250.0 297 300 302 295 303 306 293 298 296 296
3290.0 302 302 288 292 295 286 301 313 316 312
3330.0 300 304 311 326 320 308 304 296 296 298
3370.0 301 303 304 300 295 302 302 297 289 279
3410.0 303 301 288 286 278 278 269 282 288 285
3450.0 287 276 284 271 278 261 270 270 272 267
3490.0 256 260 264 264 255 265 263 258 260 264
3530.0 266 258 268 270 263 273 268 267 266 279
3570.0 270 263 275 277 278 271 264 271 271 262
3610.0 268 267 263 279 290 286 284 292 282 282
3650.0 252 276 281 276 278 272 290 251 274 270
3690.0 273 275 283 272 285 279 268 265 285 281
3730.0 264 271 278 279 263 252 263 266 264 272
3770.0 256 254 259 277 266 264 259 270 263 268
3810.0 265 262 258 256 265 264 252 254 282 278
3850.0 271 268 254 265 266 265 267 252 273 263
3890.0 256 272 275 275 251 281 264 261 273 252
3930.0 266 268 265 283 269 261 270 252 261 281
##END=
