##TITLE=Heptanenitrile, 3-ethyl-,
##JCAMP-DX=4.24
##DATA TYPE=INFRARED SPECTRUM
##ORIGIN=Sadtler Research Labs Under US-EPA Contract
##OWNER=NIST Standard Reference Data Program
##CAS REGISTRY NO=2571-05-3
##MOLFORM=C 9 H 17 N
##XUNITS=1/CM
##YUNITS=ABSORBANCE
##XFACTOR=1.0
##YFACTOR=0.000142099
##DELTAX=4.0
##FIRSTX=450.0
##LASTX=3966.0
##FIRSTY=0.000000
##MAXX=3966
##MINX=450
##MAXY=1.42099
##MINY=0
##NPOINTS=880
##XYDATA=(X++(Y..Y))
450.0 0 90 154 90 186 295 285 133 189 258
490.0 242 214 236 230 202 156 175 201 191 250
530.0 209 153 156 186 209 199 176 135 188 202
570.0 192 173 186 175 156 164 171 163 172 158
610.0 187 178 169 176 172 190 160 143 218 227
650.0 121 150 183 192 152 178 158 160 180 202
690.0 170 169 187 177 225 173 227 266 322 349
730.0 352 367 334 327 220 281 261 307 334 306
770.0 350 374 389 365 348 304 283 232 230 251
810.0 210 236 198 207 166 200 197 197 193 183
850.0 213 199 237 241 240 228 251 255 263 289
890.0 261 243 236 235 244 268 288 292 294 299
930.0 301 327 309 296 277 252 257 243 252 259
970.0 257 243 252 257 267 259 231 234 229 200
1010.0 191 205 212 200 192 212 199 196 197 202
1050.0 219 216 203 201 186 206 216 227 235 193
1090.0 200 220 212 219 228 271 255 251 228 177
1130.0 186 182 178 209 213 206 199 217 202 188
1170.0 168 173 169 184 183 189 190 203 220 219
1210.0 232 229 261 285 299 309 308 297 289 280
1250.0 275 273 265 271 268 286 301 303 310 303
1290.0 318 325 336 358 380 384 392 396 412 421
1330.0 430 423 439 440 481 513 514 528 513 503
1370.0 511 524 630 775 883 895 794 616 458 378
1410.0 356 365 419 556 699 962 1141 1200 1158 1112
1450.0 1161 1345 1583 1894 1951 1898 1658 1235 890 641
1490.0 470 369 303 288 262 243 205 213 202 202
1530.0 181 198 203 176 171 163 167 169 174 152
1570.0 166 171 164 155 151 156 163 142 155 146
1610.0 143 144 153 144 134 148 136 140 134 126
1650.0 149 129 149 116 140 130 127 126 133 133
1690.0 126 129 135 138 122 132 130 148 156 148
1730.0 164 144 155 133 122 126 122 117 115 112
1770.0 109 120 104 101 103 106 107 110 101 103
1810.0 105 104 103 103 104 102 94 103 96 100
1850.0 94 101 102 92 100 97 96 96 99 99
1890.0 97 92 96 95 95 90 88 95 88 93
1930.0 89 87 93 86 90 88 88 87 86 87
1970.0 84 87 88 85 86 85 86 84 85 84
2010.0 86 87 88 88 90 88 92 90 93 93
2050.0 89 89 93 91 89 89 90 89 90 91
2090.0 91 94 94 94 94 90 92 94 96 102
2130.0 113 126 136 137 130 115 102 97 92 90
2170.0 91 88 88 89 86 87 89 91 88 88
2210.0 89 90 94 96 100 108 126 155 200 254
2250.0 295 303 279 225 171 138 120 109 103 100
2290.0 98 95 91 91 90 92 92 99 96 108
2330.0 106 100 118 101 110 101 130 119 133 116
2370.0 111 104 106 105 100 105 107 106 107 108
2410.0 106 109 110 108 107 107 103 100 101 99
2450.0 97 101 99 93 94 93 96 95 97 95
2490.0 95 94 93 95 97 99 98 102 101 104
2530.0 109 110 110 111 115 118 117 120 123 124
2570.0 127 130 131 135 141 145 143 147 148 152
2610.0 152 155 155 154 151 150 151 153 149 154
2650.0 153 155 161 164 166 172 181 184 191 191
2690.0 190 191 192 190 190 189 193 193 193 197
2730.0 205 215 229 244 256 263 263 250 240 236
2770.0 232 232 240 246 256 274 290 308 330 349
2810.0 376 393 423 451 487 531 585 663 768 913
2850.0 1137 1476 1971 2583 3216 3719 3986 4185 4352 4459
2890.0 4383 4063 3619 3307 3245 3431 3904 4640 5626 6886
2930.0 8333 9453 10000 9954 9049 7767 6747 6319 6825 8168
2970.0 9695 9781 8492 6236 3942 2428 1634 1219 983 839
3010.0 735 656 601 553 515 483 456 420 392 362
3050.0 345 326 314 300 289 283 277 266 264 261
3090.0 254 247 245 238 238 226 219 212 214 205
3130.0 197 195 186 181 191 184 183 180 187 186
3170.0 182 185 185 182 182 183 174 174 172 165
3210.0 153 147 147 137 140 134 127 127 119 116
3250.0 115 115 118 112 106 109 108 109 107 106
3290.0 110 108 104 109 108 104 109 107 108 107
3330.0 113 103 98 106 105 104 103 104 101 102
3370.0 100 102 102 98 95 90 99 102 93 101
3410.0 98 93 97 99 104 96 102 99 97 97
3450.0 98 97 101 96 95 100 100 94 92 97
3490.0 99 94 93 92 95 98 99 90 99 96
3530.0 99 95 100 93 101 93 97 87 98 97
3570.0 105 95 96 96 105 100 110 106 105 89
3610.0 96 105 96 110 96 119 93 108 97 115
3650.0 87 125 95 106 105 111 111 98 118 98
3690.0 122 109 103 105 105 97 106 91 99 87
3730.0 105 113 89 120 81 134 83 114 87 99
3770.0 103 90 99 112 85 102 91 106 102 114
3810.0 87 109 97 117 105 96 107 102 86 95
3850.0 99 115 104 94 95 88 93 85 94 100
3890.0 122 84 84 85 102 122 108 93 84 100
3930.0 105 115 97 92 90 101 98 84 86 85
##END=
