##TITLE=3,4-Dimethylbenzophenone
##JCAMP-DX=4.24
##DATA TYPE=INFRARED SPECTRUM
##ORIGIN=Sadtler Research Labs Under US-EPA Contract
##OWNER=NIST Standard Reference Data Program
##CAS REGISTRY NO=2571-39-3
##MOLFORM=C 15 H 14 O
##XUNITS=1/CM
##YUNITS=ABSORBANCE
##XFACTOR=1.0
##YFACTOR=0.000056641
##DELTAX=4.0
##FIRSTX=450.0
##LASTX=3966.0
##FIRSTY=0.001586
##MAXX=3966
##MINX=450
##MAXY=0.56641
##MINY=0
##NPOINTS=880
##XYDATA=(X++(Y..Y))
450.0 28 21 54 10 19 38 72 62 50 60
490.0 62 128 89 127 119 99 72 153 238 331
530.0 348 283 132 109 79 89 99 46 205 93
570.0 110 193 278 227 232 210 174 196 279 237
610.0 318 518 774 1255 1372 1145 710 400 216 294
650.0 291 382 321 407 460 707 795 1166 1733 2234
690.0 2889 3688 4053 3233 2128 1400 1217 1404 1910 2375
730.0 2309 1647 1125 927 613 459 512 437 367 310
770.0 387 482 704 882 1123 1061 971 879 1051 1014
810.0 1014 1162 1353 1560 1652 1554 1328 1297 1487 1755
850.0 1649 1255 1152 1439 1614 1340 900 563 418 435
890.0 484 587 669 613 510 395 382 410 480 479
930.0 448 439 451 544 705 1014 1358 1734 1854 1886
970.0 1822 1604 1175 886 707 618 617 757 1049 1054
1010.0 999 827 980 904 864 932 803 578 709 562
1050.0 550 659 585 664 706 772 793 706 949 908
1090.0 857 812 1009 1149 1026 1374 2159 1945 1647 1160
1130.0 806 699 716 754 787 877 765 663 572 589
1170.0 702 1069 1602 1647 1297 785 571 502 522 675
1210.0 852 1131 1433 1438 1299 1116 1114 1258 1446 1612
1250.0 1910 2404 3493 5337 8182 10000 8549 5461 3354 2941
1290.0 3441 4320 4924 4706 3915 3279 2849 2326 1628 1030
1330.0 740 658 595 520 466 429 390 367 389 398
1370.0 459 533 596 658 717 763 837 986 1187 1336
1410.0 1198 943 745 633 610 675 750 959 1199 1505
1450.0 1600 1444 1262 1003 857 713 687 593 527 555
1490.0 609 624 658 541 532 457 400 429 469 437
1530.0 437 490 518 612 565 564 610 723 800 871
1570.0 1030 1104 1160 1058 1009 1016 1184 1439 1764 2037
1610.0 2022 1695 1278 910 728 648 638 720 735 873
1650.0 1000 1269 1443 1898 2721 4103 5841 7047 6956 5470
1690.0 3670 2336 1541 1112 835 666 590 587 501 456
1730.0 413 415 325 291 261 267 222 230 243 222
1770.0 258 286 243 233 238 227 246 230 248 238
1810.0 247 225 197 160 152 139 114 102 100 128
1850.0 96 102 111 92 101 119 97 110 127 144
1890.0 173 190 208 208 218 201 181 161 125 103
1930.0 104 96 98 121 143 161 180 180 180 170
1970.0 141 114 83 68 67 73 62 56 57 51
2010.0 46 44 51 43 41 41 39 36 39 39
2050.0 31 35 35 40 42 42 31 49 39 30
2090.0 37 37 28 35 23 34 32 42 29 31
2130.0 30 37 28 26 26 21 25 23 17 11
2170.0 15 19 19 18 18 18 8 15 15 13
2210.0 12 12 10 20 19 18 20 20 19 29
2250.0 29 29 29 26 25 29 29 29 28 30
2290.0 38 48 47 57 57 59 68 77 89 90
2330.0 81 102 94 93 110 94 103 134 138 149
2370.0 140 105 108 82 70 68 58 56 58 59
2410.0 59 66 59 56 54 44 39 45 48 57
2450.0 48 59 50 49 50 50 42 40 51 51
2490.0 51 51 51 40 43 42 41 41 52 41
2530.0 41 48 41 51 44 59 58 67 70 78
2570.0 79 79 85 79 79 83 78 68 80 70
2610.0 60 60 52 51 61 51 42 54 43 43
2650.0 53 53 42 55 41 53 53 53 53 62
2690.0 61 57 51 58 64 62 73 70 87 81
2730.0 90 107 126 145 141 128 113 108 90 110
2770.0 105 107 107 107 108 118 109 110 115 102
2810.0 107 119 123 143 151 163 171 198 217 254
2850.0 294 349 407 492 574 667 774 852 878 871
2890.0 817 789 759 735 726 725 758 815 977 1229
2930.0 1544 1811 1842 1634 1382 1217 1181 1130 1034 949
2970.0 931 972 1053 1077 1023 887 744 641 575 539
3010.0 561 616 766 957 1192 1346 1359 1253 1111 1004
3050.0 946 934 1035 1196 1480 1816 1847 1632 1299 1155
3090.0 1033 879 700 576 473 389 306 234 180 161
3130.0 136 118 104 100 93 104 105 103 95 86
3170.0 77 67 61 39 48 42 41 38 26 43
3210.0 32 41 41 41 32 35 34 23 29 29
3250.0 36 30 26 9 42 24 33 42 33 28
3290.0 37 24 29 36 29 43 53 52 53 70
3330.0 80 107 110 133 101 106 81 61 40 52
3370.0 47 35 35 36 36 34 46 32 28 17
3410.0 32 32 29 38 27 35 37 27 26 30
3450.0 28 20 26 33 22 28 21 10 20 29
3490.0 29 20 27 39 29 21 39 28 29 34
3530.0 25 18 37 37 47 36 28 11 27 36
3570.0 44 30 36 36 35 57 48 39 47 21
3610.0 50 64 60 51 48 74 62 40 32 54
3650.0 101 74 74 56 50 83 82 92 60 56
3690.0 89 79 68 93 93 85 94 70 70 88
3730.0 94 107 116 86 117 113 97 85 102 94
3770.0 95 54 61 84 62 73 70 83 103 92
3810.0 96 94 103 111 95 88 111 109 94 99
3850.0 111 142 120 95 95 114 121 113 135 131
3890.0 124 124 99 112 111 104 104 131 132 132
3930.0 123 96 86 97 97 105 0 8 8 8
##END=
