##TITLE=Morpholine, 4-hexadecyl-
##JCAMP-DX=4.24
##DATA TYPE=INFRARED SPECTRUM
##ORIGIN=Sadtler Research Labs Under US-EPA Contract
##OWNER=NIST Standard Reference Data Program
##CAS REGISTRY NO=25727-91-7
##MOLFORM=C 20 H 41 N O
##XUNITS=1/CM
##YUNITS=ABSORBANCE
##XFACTOR=1.0
##YFACTOR=0.000094708
##DELTAX=4.0
##FIRSTX=450.0
##LASTX=3966.0
##FIRSTY=0.008903
##MAXX=3966
##MINX=450
##MAXY=0.94708
##MINY=0
##NPOINTS=880
##XYDATA=(X++(Y..Y))
450.0 94 96 110 21 52 49 9 27 28 73
490.0 43 50 64 70 35 49 56 49 42 31
530.0 51 41 52 48 46 33 50 31 17 29
570.0 23 21 39 29 45 32 35 43 62 91
610.0 126 152 127 109 105 110 64 51 32 31
650.0 42 33 30 32 26 35 43 35 28 42
690.0 48 45 63 77 115 141 165 187 177 168
730.0 149 147 117 118 117 116 104 97 100 101
770.0 91 89 87 93 102 107 111 99 78 65
810.0 64 50 38 39 34 34 40 47 61 94
850.0 118 179 271 395 479 459 358 266 205 175
890.0 157 151 157 178 204 235 262 235 188 147
930.0 121 104 99 97 98 99 104 110 123 135
970.0 143 154 165 174 190 220 255 319 387 440
1010.0 441 385 318 269 248 250 258 215 162 132
1050.0 119 119 135 157 200 249 255 229 224 236
1090.0 265 315 404 524 703 940 1258 1636 1940 2021
1130.0 1853 1609 1443 1251 991 729 507 360 266 203
1170.0 162 134 116 103 98 94 100 110 128 142
1210.0 135 120 112 109 120 134 157 179 204 233
1250.0 268 303 338 375 409 449 478 470 441 424
1290.0 423 439 466 498 487 445 394 349 325 315
1330.0 340 360 363 386 439 528 610 619 566 507
1370.0 463 405 336 289 249 239 244 237 192 155
1410.0 128 125 130 141 162 198 262 356 500 657
1450.0 796 894 980 988 883 698 483 313 203 141
1490.0 103 75 63 52 43 37 28 28 24 19
1530.0 17 15 16 11 11 8 12 5 8 2
1570.0 6 2 5 1 3 3 5 4 5 7
1610.0 6 7 7 6 5 6 6 7 7 10
1650.0 9 10 12 4 6 5 7 7 6 8
1690.0 10 11 13 16 19 21 25 29 28 30
1730.0 36 38 42 45 45 38 29 25 23 18
1770.0 19 14 13 12 13 10 9 7 6 5
1810.0 4 5 3 3 2 5 1 1 0 3
1850.0 2 1 3 2 2 6 3 5 4 5
1890.0 5 6 7 9 8 9 11 11 12 12
1930.0 14 16 16 15 14 10 9 12 13 17
1970.0 20 21 21 23 22 19 18 16 13 13
2010.0 10 11 13 12 12 12 13 12 14 15
2050.0 11 11 11 9 10 11 9 11 9 9
2090.0 9 9 10 9 9 7 10 9 10 8
2130.0 10 10 10 10 13 10 10 11 9 9
2170.0 9 7 9 10 12 9 9 10 7 10
2210.0 10 11 13 13 14 14 15 15 18 17
2250.0 21 19 16 18 20 22 22 24 22 25
2290.0 27 28 33 35 39 41 39 43 51 49
2330.0 44 41 38 46 52 46 64 49 49 39
2370.0 47 34 36 36 33 31 31 33 28 30
2410.0 30 30 26 25 26 29 30 29 27 28
2450.0 30 28 32 33 33 32 35 34 33 35
2490.0 34 37 41 40 44 45 46 47 46 47
2530.0 53 53 54 53 57 60 62 62 66 72
2570.0 70 70 76 76 78 81 86 87 90 93
2610.0 98 102 108 115 122 131 144 154 165 177
2650.0 190 206 218 227 234 247 271 294 313 328
2690.0 328 328 318 316 319 326 334 343 363 381
2730.0 404 424 446 469 502 550 598 659 716 759
2770.0 786 804 832 888 970 1092 1242 1430 1642 1828
2810.0 1909 1835 1635 1423 1270 1194 1189 1255 1414 1704
2850.0 2201 3002 4115 4975 4754 3909 3141 2621 2329 2184
2890.0 2149 2228 2442 2739 3110 3551 4089 4820 5957 7573
2930.0 9287 10000 9315 7860 6245 4861 3870 3304 3128 3305
2970.0 3528 2930 1856 1197 848 635 502 400 334 281
3010.0 242 214 190 162 144 128 114 106 96 89
3050.0 81 73 67 64 59 52 46 48 47 42
3090.0 37 37 37 34 34 35 34 36 35 34
3130.0 33 31 32 29 27 29 33 33 26 27
3170.0 26 27 23 26 25 26 28 25 22 23
3210.0 19 24 18 22 21 18 20 16 16 13
3250.0 11 9 14 12 13 14 15 9 20 20
3290.0 14 12 15 10 14 12 13 13 9 10
3330.0 11 11 14 16 14 17 14 8 13 17
3370.0 14 18 15 17 14 18 14 18 18 20
3410.0 15 18 16 17 20 16 19 15 18 17
3450.0 16 12 17 20 16 8 14 14 14 13
3490.0 11 10 9 10 10 12 15 14 14 15
3530.0 12 18 20 24 17 11 14 14 17 21
3570.0 19 23 23 21 22 19 23 30 27 30
3610.0 25 29 32 23 26 33 33 24 27 30
3650.0 31 21 23 23 30 30 30 24 22 29
3690.0 30 29 33 25 26 21 23 29 30 35
3730.0 27 25 24 27 34 34 30 36 19 18
3770.0 23 25 25 29 23 24 33 27 33 30
3810.0 24 29 27 21 19 28 30 24 23 19
3850.0 32 40 36 34 28 30 35 27 22 37
3890.0 27 25 26 26 29 24 34 30 23 32
3930.0 28 28 28 29 27 43 33 35 34 33
##END=
