##TITLE=Benzoxazine, (1H)2,3-, 7-chloro-4-dimethylamino-,
##JCAMP-DX=4.24
##DATA TYPE=INFRARED SPECTRUM
##ORIGIN=Sadtler Research Labs Under US-EPA Contract
##OWNER=NIST Standard Reference Data Program
##CAS REGISTRY NO=25804-89-1
##MOLFORM=C 10 H 11 Cl N 2 O
##XUNITS=1/CM
##YUNITS=ABSORBANCE
##XFACTOR=1.0
##YFACTOR=0.000059415
##DELTAX=4.0
##FIRSTX=450.0
##LASTX=3966.0
##FIRSTY=0.000000
##MAXX=3966
##MINX=450
##MAXY=0.59415
##MINY=0
##NPOINTS=880
##XYDATA=(X++(Y..Y))
450.0 0 139 74 54 156 164 164 244 311 352
490.0 406 462 517 638 653 616 440 271 238 205
530.0 131 72 110 96 99 103 134 143 223 402
570.0 656 755 602 346 167 138 127 120 113 143
610.0 179 262 418 749 1032 1110 954 723 654 750
650.0 901 862 642 442 376 526 656 598 420 240
690.0 131 102 97 97 104 139 160 202 242 378
730.0 673 935 951 730 445 261 190 145 175 186
770.0 233 335 368 334 251 183 159 156 166 186
810.0 282 491 963 1707 2562 3121 2787 1975 1361 1085
850.0 1398 2323 3424 3926 3663 3011 2373 2067 2269 2752
890.0 3034 2826 2124 1243 731 535 486 539 690 973
930.0 1341 1577 1517 1208 822 560 458 423 392 339
970.0 298 299 363 493 730 1092 1506 1795 1826 1653
1010.0 1444 1536 2129 2944 3178 2657 1722 1073 966 1119
1050.0 1470 1825 2177 2456 2527 2381 2130 2123 2925 4713
1090.0 6084 5965 4305 2432 1540 1117 835 695 637 698
1130.0 936 1428 1861 2072 1964 1714 1488 1206 941 755
1170.0 660 644 694 814 1032 1399 1962 2718 3493 3883
1210.0 3480 2498 1511 964 795 820 1014 1328 1539 1481
1250.0 1205 959 903 901 849 767 675 631 605 585
1290.0 559 528 520 533 525 508 514 557 625 757
1330.0 1014 1398 1683 1739 1676 1777 2202 2900 4039 5793
1370.0 7996 9898 10000 8305 5727 3895 2882 2341 2202 2509
1410.0 2992 3066 2705 1919 1436 1377 1664 2283 3010 3498
1450.0 3566 3259 2942 2690 2604 2661 2780 2900 2843 2659
1490.0 2210 1758 1483 1296 1289 1403 1559 1918 2363 2647
1530.0 2664 2299 1767 1267 983 869 874 937 1002 1130
1570.0 1437 1916 2705 3594 4197 4357 3959 3726 3518 2951
1610.0 2064 1302 912 687 595 504 491 466 437 448
1650.0 480 506 508 474 474 460 458 423 451 442
1690.0 417 424 496 538 536 531 555 583 537 517
1730.0 491 494 442 425 427 401 399 393 419 399
1770.0 413 368 323 285 261 219 212 183 196 174
1810.0 153 146 122 123 110 113 87 87 90 109
1850.0 92 87 93 96 97 102 86 79 91 91
1890.0 107 111 121 141 164 193 194 183 152 108
1930.0 90 78 84 93 101 90 93 87 83 84
1970.0 79 79 82 87 90 105 108 111 111 118
2010.0 121 127 128 129 117 108 97 91 88 88
2050.0 80 76 66 64 63 61 60 62 62 66
2090.0 64 71 79 81 85 89 88 82 82 79
2130.0 76 77 75 71 69 69 62 61 58 53
2170.0 50 53 50 51 52 54 51 59 61 64
2210.0 67 67 66 72 82 84 83 75 70 60
2250.0 59 52 53 50 53 55 57 65 65 70
2290.0 69 79 89 94 100 112 100 97 98 96
2330.0 90 93 85 100 128 108 115 105 101 74
2370.0 85 91 102 99 84 70 62 61 65 61
2410.0 62 62 65 62 66 71 76 74 69 69
2450.0 70 63 63 60 63 59 64 58 60 57
2490.0 57 63 63 71 77 81 82 84 86 89
2530.0 90 85 82 80 86 87 93 94 98 95
2570.0 103 99 94 93 90 92 89 92 87 83
2610.0 83 88 89 92 98 94 95 97 107 111
2650.0 127 148 158 166 170 161 149 140 129 127
2690.0 128 129 137 132 138 143 152 159 168 185
2730.0 200 206 232 246 264 279 284 290 303 336
2770.0 378 421 471 533 599 712 879 1135 1449 1683
2810.0 1758 1694 1662 1732 2018 2545 3241 3710 3585 3169
2850.0 2978 2887 2883 2806 2744 2694 2792 3034 3368 3555
2890.0 3372 3001 2654 2404 2297 2268 2202 2119 2027 1946
2930.0 1859 1804 1823 1941 2270 2827 3583 4188 4339 3904
2970.0 3402 3103 2657 2181 1494 1058 1071 1285 1662 1920
3010.0 1866 1460 998 689 526 454 417 413 400 401
3050.0 386 382 364 353 342 332 338 379 426 455
3090.0 456 419 361 308 274 222 193 169 150 142
3130.0 133 130 128 125 121 113 117 112 110 109
3170.0 109 101 103 104 110 106 101 104 94 93
3210.0 85 89 86 93 84 80 85 80 84 81
3250.0 77 79 80 80 77 72 78 76 71 74
3290.0 74 70 81 80 82 70 77 78 82 77
3330.0 81 87 78 73 70 69 68 62 74 74
3370.0 70 74 80 82 82 71 72 68 67 67
3410.0 68 61 69 67 73 65 62 70 65 55
3450.0 68 71 75 75 78 91 95 89 93 83
3490.0 82 73 69 70 73 57 63 58 69 72
3530.0 67 60 54 68 67 70 67 64 66 88
3570.0 83 68 68 65 60 76 72 60 53 53
3610.0 76 65 69 67 54 96 54 67 66 70
3650.0 86 64 81 73 67 78 77 94 61 70
3690.0 68 66 58 77 66 76 94 81 78 83
3730.0 70 93 86 92 102 71 96 63 63 73
3770.0 57 66 63 74 47 66 62 66 68 71
3810.0 70 73 77 87 84 64 84 73 73 84
3850.0 85 97 105 97 87 99 58 84 82 75
3890.0 85 116 70 106 94 83 81 100 84 67
3930.0 99 93 76 76 85 77 85 80 99 110
##END=
