##TITLE=Phenol, 3-methyl-4-nitro-
##JCAMP-DX=4.24
##DATA TYPE=INFRARED SPECTRUM
##ORIGIN=Sadtler Research Labs Under US-EPA Contract
##OWNER=NIST Standard Reference Data Program
##CAS REGISTRY NO=2581-34-2
##MOLFORM=C 7 H 7 N O 3
##XUNITS=1/CM
##YUNITS=ABSORBANCE
##XFACTOR=1.0
##YFACTOR=0.000049228
##DELTAX=4.0
##FIRSTX=450.0
##LASTX=3966.0
##FIRSTY=0.000000
##MAXX=3966
##MINX=450
##MAXY=0.49228
##MINY=0
##NPOINTS=880
##XYDATA=(X++(Y..Y))
450.0 0 96 202 347 285 255 366 370 319 404
490.0 588 423 433 619 580 559 637 697 624 621
530.0 581 595 567 540 607 602 599 657 697 700
570.0 704 767 807 777 852 818 829 904 996 1370
610.0 1926 2483 2533 2415 1657 955 716 674 668 675
650.0 648 619 619 578 602 717 730 748 887 1075
690.0 1104 972 862 744 642 560 527 533 581 649
730.0 704 759 806 929 994 1218 1442 1173 1001 966
770.0 829 743 688 620 630 628 652 756 869 982
810.0 1235 1354 1310 1385 1608 2059 2702 2956 2982 2854
850.0 2235 1659 1624 1511 1510 1494 1209 1042 898 755
890.0 629 565 545 536 508 544 579 575 603 631
930.0 695 768 936 1161 1489 1800 1901 1735 1360 970
970.0 693 580 540 529 511 532 589 623 679 773
1010.0 902 961 974 968 890 780 741 752 714 693
1050.0 688 713 758 858 1047 1395 1878 2134 2007 1769
1090.0 1395 947 726 670 675 690 700 753 812 890
1130.0 1011 1222 1537 1909 2360 2990 3849 4780 5382 5474
1170.0 5088 4475 4113 4429 5162 5865 6304 6131 5440 4624
1210.0 3685 2782 2104 1723 1570 1536 1604 1714 1977 2419
1250.0 3295 4445 5282 5392 5047 4022 3022 2976 3743 5005
1290.0 6066 6507 6285 5358 3990 3189 2839 2537 2344 2310
1330.0 2607 3282 4568 6509 8567 9894 10000 8888 6118 3634
1370.0 2331 1774 1548 1490 1430 1326 1313 1265 1127 1104
1410.0 1165 1357 1722 2029 2306 2506 2572 2531 2318 2175
1450.0 2084 2093 2171 2049 1936 1917 2104 2514 3161 3817
1490.0 4103 4143 3947 3779 3824 4192 4393 4927 5623 6710
1530.0 8152 9449 9923 9497 8888 7042 5457 4545 4093 4009
1570.0 4196 4498 5009 5619 6372 7080 7309 7137 6318 5418
1610.0 4627 4228 4125 3997 3755 3244 2659 2005 1409 1017
1650.0 698 623 466 388 391 402 377 373 356 407
1690.0 304 308 337 354 256 210 222 234 196 181
1730.0 239 290 300 316 358 398 359 314 302 289
1770.0 294 300 235 265 223 253 214 222 230 210
1810.0 192 211 199 179 215 178 194 148 201 194
1850.0 178 156 173 169 188 217 193 205 198 227
1890.0 238 243 246 242 244 231 226 204 199 168
1930.0 157 145 142 144 135 126 118 115 105 124
1970.0 117 112 114 120 112 119 126 115 106 100
2010.0 114 112 117 124 121 127 122 130 117 111
2050.0 97 95 83 92 99 88 83 92 95 86
2090.0 93 101 96 103 110 115 108 109 107 104
2130.0 98 100 100 97 103 105 104 105 117 110
2170.0 100 100 105 101 108 114 115 119 125 134
2210.0 137 139 141 131 123 122 130 125 123 120
2250.0 113 100 90 86 86 89 92 105 119 141
2290.0 167 201 231 244 266 299 284 271 293 253
2330.0 260 256 217 267 296 337 301 276 271 265
2370.0 241 263 296 306 253 181 158 151 156 168
2410.0 178 184 203 218 224 223 219 208 191 195
2450.0 181 175 180 178 169 171 183 175 166 174
2490.0 179 165 169 178 168 153 142 147 133 137
2530.0 151 146 144 165 168 161 174 166 166 163
2570.0 175 168 154 152 154 148 136 143 141 135
2610.0 136 152 148 157 161 152 144 140 139 136
2650.0 136 134 134 135 135 146 145 148 147 146
2690.0 147 140 151 137 127 132 134 131 126 137
2730.0 147 149 159 169 164 168 175 184 170 171
2770.0 173 165 158 163 169 166 169 168 169 167
2810.0 169 174 174 176 183 193 204 226 231 236
2850.0 261 287 314 346 385 426 441 444 455 421
2890.0 383 355 335 318 329 343 355 383 421 481
2930.0 543 647 757 833 843 831 785 669 582 511
2970.0 474 485 546 623 677 737 735 677 626 554
3010.0 509 499 530 608 664 683 706 663 602 562
3050.0 540 506 481 483 468 465 468 480 452 427
3090.0 374 350 277 237 217 198 189 189 182 178
3130.0 159 162 168 145 151 152 146 140 147 144
3170.0 136 142 149 134 139 160 149 124 153 169
3210.0 158 149 171 172 161 151 182 166 146 153
3250.0 170 140 148 156 153 137 160 159 149 167
3290.0 161 155 156 174 182 178 180 203 166 183
3330.0 198 192 182 180 194 163 171 181 181 177
3370.0 176 174 171 173 164 163 138 170 173 155
3410.0 142 155 146 128 140 150 139 132 160 142
3450.0 131 143 150 124 122 129 134 127 128 136
3490.0 124 119 119 129 122 128 129 84 135 138
3530.0 144 113 130 141 127 105 127 114 135 127
3570.0 137 137 98 114 113 136 139 86 168 122
3610.0 156 148 213 238 403 749 1387 2576 4332 5498
3650.0 5370 4825 3622 1682 760 385 216 159 151 160
3690.0 103 142 165 136 97 151 134 136 103 169
3730.0 124 149 125 138 153 100 134 111 101 134
3770.0 95 108 117 128 99 106 131 119 92 135
3810.0 119 131 103 108 105 114 135 124 111 124
3850.0 99 161 163 136 99 119 142 118 124 142
3890.0 133 113 115 155 148 153 132 143 172 130
3930.0 124 167 169 161 160 128 110 131 131 178
##END=
