##TITLE=Naphthalene, 1-bromo-2-methyl-
##JCAMP-DX=4.24
##DATA TYPE=INFRARED SPECTRUM
##ORIGIN=Sadtler Research Labs Under US-EPA Contract
##OWNER=NIST Standard Reference Data Program
##CAS REGISTRY NO=2586-62-1
##MOLFORM=C 11 H 9 Br
##XUNITS=1/CM
##YUNITS=ABSORBANCE
##XFACTOR=1.0
##YFACTOR=0.000057028
##DELTAX=4.0
##FIRSTX=450.0
##LASTX=3966.0
##FIRSTY=0.000000
##MAXX=3966
##MINX=450
##MAXY=0.57028
##MINY=0
##NPOINTS=880
##XYDATA=(X++(Y..Y))
450.0 0 475 592 166 455 411 466 430 508 683
490.0 770 560 456 304 477 555 698 945 1453 1815
530.0 2154 1652 1056 809 500 448 336 345 353 399
570.0 357 370 347 394 397 350 367 345 368 364
610.0 407 424 471 516 658 856 1167 1790 2174 2102
650.0 1607 984 686 477 428 337 309 297 298 318
690.0 347 399 417 488 503 727 759 863 888 1287
730.0 2130 2860 4682 3163 2153 1786 1610 2248 3224 4486
770.0 3249 1958 1401 655 802 1297 3235 4878 8187 10000
810.0 6739 5299 3292 1876 1128 818 502 436 501 538
850.0 722 768 991 908 686 585 656 703 858 1114
890.0 1482 1615 1549 1186 724 638 569 564 493 507
930.0 528 626 716 719 793 886 1297 1909 2566 2905
970.0 2794 2183 1484 1013 874 873 848 867 837 876
1010.0 929 1024 1169 1337 1593 1952 2029 1860 1384 876
1050.0 704 599 564 516 494 438 409 387 357 351
1090.0 344 356 329 352 345 349 336 373 445 598
1130.0 964 1292 1524 1462 1161 915 747 575 514 475
1170.0 467 451 417 398 360 375 377 433 468 554
1210.0 649 870 1323 1496 1510 1272 855 633 601 693
1250.0 1079 1598 1843 1919 1639 1151 855 609 439 395
1290.0 404 430 448 478 528 667 990 1483 2081 2393
1330.0 2299 1952 1663 1745 1908 1881 1699 1461 1397 1334
1370.0 1183 1042 929 931 932 897 769 586 512 507
1410.0 518 572 632 726 782 840 879 940 1010 1065
1450.0 1049 1024 1009 994 945 904 819 733 721 762
1490.0 1086 1725 2648 3175 3138 2580 1620 931 727 649
1530.0 674 707 784 841 984 1283 1712 2045 2078 1716
1570.0 1171 763 617 579 634 759 932 1049 1091 1007
1610.0 875 794 847 989 1105 1065 886 639 457 393
1650.0 365 381 408 424 432 432 396 400 441 524
1690.0 597 591 548 465 423 420 408 392 358 343
1730.0 357 426 551 683 723 654 521 382 324 326
1770.0 347 375 390 372 355 343 366 391 423 459
1810.0 492 491 482 476 489 523 513 477 385 319
1850.0 302 288 286 278 271 270 287 312 354 411
1890.0 490 554 584 567 563 537 528 524 478 458
1930.0 423 434 458 508 536 513 449 334 278 246
1970.0 250 248 249 243 260 248 246 240 240 233
2010.0 230 236 238 249 236 246 256 243 240 238
2050.0 247 243 257 252 255 248 248 241 243 246
2090.0 251 263 265 272 263 260 252 245 242 237
2130.0 237 233 227 227 236 228 233 231 226 222
2170.0 227 231 225 230 230 238 238 237 226 230
2210.0 226 223 230 222 233 230 237 230 239 231
2250.0 234 235 237 237 242 247 255 271 269 288
2290.0 285 291 291 283 281 274 280 267 274 265
2330.0 296 280 271 290 333 266 260 265 294 287
2370.0 313 309 308 297 281 275 270 272 273 270
2410.0 275 279 270 270 272 268 269 267 271 266
2450.0 276 282 279 283 280 282 277 283 279 283
2490.0 290 279 276 268 276 277 281 281 285 281
2530.0 281 279 274 262 260 267 264 276 272 277
2570.0 274 276 268 264 274 280 282 275 278 275
2610.0 283 273 264 258 257 246 261 251 249 264
2650.0 246 258 252 257 250 262 257 265 278 282
2690.0 292 284 266 268 274 279 256 280 282 293
2730.0 300 306 316 343 368 380 377 357 334 308
2770.0 303 291 291 295 296 293 296 291 297 303
2810.0 320 313 316 349 349 383 383 404 440 490
2850.0 532 590 683 800 962 1039 1082 1058 988 922
2890.0 877 849 858 859 864 915 975 1101 1319 1673
2930.0 2238 2633 2708 2441 1962 1563 1393 1359 1383 1421
2970.0 1390 1369 1405 1456 1470 1421 1331 1215 1165 1206
3010.0 1300 1427 1522 1503 1472 1452 1543 1766 2047 2516
3050.0 3343 4765 6186 6603 6226 4948 3860 3356 2922 2332
3090.0 1676 1308 1108 1056 946 866 803 696 630 504
3130.0 466 408 399 348 358 350 311 318 330 328
3170.0 343 326 337 321 322 306 321 319 302 290
3210.0 303 302 302 325 328 294 294 293 291 310
3250.0 277 291 295 289 274 297 294 281 268 284
3290.0 268 281 283 300 263 256 287 322 299 311
3330.0 273 246 255 290 292 275 253 293 311 309
3370.0 291 274 282 272 286 268 265 267 277 302
3410.0 294 264 286 285 260 283 300 299 293 274
3450.0 268 274 286 292 289 289 280 294 249 312
3490.0 311 285 308 239 247 315 291 307 254 273
3530.0 267 251 233 272 309 270 286 314 293 302
3570.0 302 304 287 251 268 220 304 301 306 314
3610.0 338 305 289 302 257 279 280 283 300 277
3650.0 276 296 334 303 299 276 305 265 317 279
3690.0 301 307 270 312 343 328 277 312 299 339
3730.0 295 362 334 361 356 312 352 353 331 324
3770.0 352 339 347 316 291 299 326 295 253 323
3810.0 294 341 314 309 349 343 342 392 359 308
3850.0 347 330 345 325 392 360 303 330 338 382
3890.0 365 343 291 327 349 363 346 305 337 372
3930.0 309 313 344 330 402 382 407 424 410 357
##END=
