##TITLE=2-Pyridinamine, 5-nitro-N-propyl-
##JCAMP-DX=4.24
##DATA TYPE=INFRARED SPECTRUM
##ORIGIN=Sadtler Research Labs Under US-EPA Contract
##OWNER=NIST Standard Reference Data Program
##CAS REGISTRY NO=25948-11-2
##MOLFORM=C 8 H 11 N 3 O 2
##XUNITS=1/CM
##YUNITS=ABSORBANCE
##XFACTOR=1.0
##YFACTOR=0.000163803
##DELTAX=4.0
##FIRSTX=450.0
##LASTX=3966.0
##FIRSTY=0.033416
##MAXX=3966
##MINX=450
##MAXY=1.63803
##MINY=0
##NPOINTS=880
##XYDATA=(X++(Y..Y))
450.0 204 177 224 189 199 203 191 159 163 162
490.0 125 138 124 114 120 119 120 131 144 155
530.0 158 156 152 139 133 124 132 126 102 124
570.0 92 75 70 62 40 39 56 41 54 53
610.0 63 92 122 138 165 173 189 203 232 301
650.0 331 380 426 448 456 387 289 204 106 68
690.0 26 24 10 33 40 87 125 182 218 197
730.0 143 96 84 88 128 184 242 311 445 500
770.0 378 289 238 178 143 129 148 181 269 410
810.0 586 769 919 902 787 674 566 524 533 570
850.0 658 731 697 570 403 266 203 183 174 173
890.0 165 160 151 150 141 136 130 128 132 134
930.0 143 157 180 217 247 245 232 212 198 189
970.0 180 182 189 203 237 293 368 441 478 454
1010.0 400 347 308 274 251 233 209 190 174 173
1050.0 177 193 219 261 316 384 432 452 445 437
1090.0 447 484 590 779 1166 1688 1875 1569 1068 778
1130.0 769 843 907 882 781 649 536 470 401 314
1170.0 245 217 207 207 208 215 225 236 253 272
1210.0 305 343 417 518 616 675 679 654 644 670
1250.0 726 830 974 1152 1341 1538 1798 2286 3168 4046
1290.0 4272 3445 2070 1369 1224 1296 1553 2037 2735 3593
1330.0 4624 5802 7319 8966 10000 9435 7056 4193 2385 1525
1370.0 1089 859 738 699 702 673 664 672 751 914
1410.0 1082 1104 1014 778 636 612 686 778 820 844
1450.0 857 910 1006 1093 1223 1375 1555 1663 1736 1874
1490.0 2169 2700 3440 4089 4396 4383 4287 4319 4497 4468
1530.0 4384 4102 3706 3096 2369 1738 1363 1241 1259 1472
1570.0 1928 2668 3707 5155 6392 7523 7595 8177 8634 9108
1610.0 7610 4949 2628 1344 864 602 484 391 303 243
1650.0 205 181 127 106 88 81 83 58 75 78
1690.0 59 52 81 73 61 44 56 76 56 52
1730.0 60 80 56 51 53 58 43 44 45 42
1770.0 55 63 53 54 47 38 33 25 28 15
1810.0 14 12 5 9 10 11 5 0 6 15
1850.0 9 5 11 11 20 30 21 21 27 31
1890.0 39 40 38 36 32 34 36 44 49 44
1930.0 40 33 25 22 16 9 9 10 8 13
1970.0 13 13 16 12 14 21 21 20 22 22
2010.0 18 16 16 12 6 4 2 2 3 1
2050.0 3 1 1 2 4 2 1 2 1 4
2090.0 6 5 7 9 8 11 12 14 14 14
2130.0 16 16 18 19 19 20 18 15 13 13
2170.0 11 10 8 8 11 10 13 12 15 14
2210.0 13 13 12 12 12 14 13 13 13 11
2250.0 8 8 9 9 11 10 12 14 18 20
2290.0 23 27 33 35 39 42 38 33 35 35
2330.0 34 32 32 42 48 51 57 49 53 52
2370.0 52 51 52 50 44 40 36 36 39 41
2410.0 44 46 47 50 53 59 61 70 76 84
2450.0 91 97 102 103 100 92 85 80 77 79
2490.0 80 83 85 87 84 82 78 77 75 67
2530.0 61 55 50 48 47 45 49 51 52 49
2570.0 50 48 49 47 48 48 48 49 50 48
2610.0 50 49 48 46 44 42 41 39 38 36
2650.0 32 32 32 32 32 34 34 34 35 36
2690.0 37 37 39 36 37 37 40 42 45 48
2730.0 52 54 58 59 60 63 66 66 68 68
2770.0 70 67 69 69 72 76 82 88 94 102
2810.0 113 124 135 145 155 166 178 193 213 239
2850.0 271 310 366 433 509 590 662 716 761 795
2890.0 793 750 679 618 587 581 604 645 718 805
2930.0 906 1007 1085 1132 1142 1107 1066 1043 1086 1185
2970.0 1280 1351 1306 1124 849 575 405 303 234 192
3010.0 165 146 136 126 127 126 131 139 143 141
3050.0 139 131 126 124 122 124 124 128 136 152
3090.0 167 165 144 111 81 67 57 48 41 41
3130.0 36 32 33 29 30 29 29 29 32 36
3170.0 44 46 51 56 62 64 62 54 44 31
3210.0 28 24 24 23 23 24 26 26 29 33
3250.0 32 34 35 41 43 46 49 53 52 57
3290.0 57 60 65 65 68 71 75 75 75 77
3330.0 84 86 91 92 100 104 106 115 119 131
3370.0 138 148 155 167 178 187 197 208 215 224
3410.0 233 247 268 300 343 387 435 460 454 426
3450.0 402 396 412 437 448 435 389 323 252 187
3490.0 132 97 72 51 45 43 39 34 29 24
3530.0 23 20 17 20 18 19 18 19 16 16
3570.0 18 16 15 12 17 18 11 8 15 16
3610.0 15 12 11 10 11 16 18 14 7 15
3650.0 12 11 10 10 15 13 15 13 12 10
3690.0 11 15 13 20 14 13 17 14 12 19
3730.0 11 12 10 11 18 15 15 16 13 9
3770.0 13 19 12 13 7 10 9 3 12 12
3810.0 13 12 11 6 10 13 15 15 10 11
3850.0 9 9 18 4 13 13 13 18 16 10
3890.0 13 11 14 14 15 16 13 10 12 14
3930.0 20 7 10 19 21 19 18 9 14 15
##END=
