##TITLE=Pyridine, 2-(3-methoxypropylamino)-5-nitro-
##JCAMP-DX=4.24
##DATA TYPE=INFRARED SPECTRUM
##ORIGIN=Sadtler Research Labs Under US-EPA Contract
##OWNER=NIST Standard Reference Data Program
##CAS REGISTRY NO=25948-13-4
##MOLFORM=C 9 H 13 N 3 O 3
##XUNITS=1/CM
##YUNITS=ABSORBANCE
##XFACTOR=1.0
##YFACTOR=0.000048184
##DELTAX=4.0
##FIRSTX=450.0
##LASTX=3966.0
##FIRSTY=0.007758
##MAXX=3966
##MINX=450
##MAXY=0.48184
##MINY=0
##NPOINTS=880
##XYDATA=(X++(Y..Y))
450.0 161 100 158 212 188 281 335 365 386 385
490.0 391 329 316 356 350 324 379 388 469 549
530.0 531 564 521 507 435 437 431 406 395 379
570.0 351 359 382 375 335 365 355 307 332 349
610.0 344 294 271 347 354 395 393 408 422 471
650.0 505 544 559 571 599 598 492 395 329 274
690.0 215 206 223 257 265 293 302 373 418 416
730.0 314 260 254 227 243 279 343 414 658 721
770.0 501 343 289 224 228 233 260 275 329 451
810.0 645 883 1086 1111 974 788 653 599 566 593
850.0 672 793 814 688 503 363 282 241 245 271
890.0 275 305 332 359 394 413 422 438 433 422
930.0 425 419 424 487 513 501 461 430 441 442
970.0 452 451 449 463 501 564 633 727 744 685
1010.0 600 559 582 616 644 704 780 766 798 866
1050.0 842 837 834 899 967 1032 1102 1190 1277 1362
1090.0 1492 1654 1894 2238 2713 3301 3814 4033 3934 3644
1130.0 3165 2527 1892 1406 1136 1002 949 909 804 715
1170.0 682 707 759 837 901 917 893 827 774 774
1210.0 774 794 831 883 907 916 918 907 930 990
1250.0 1104 1261 1437 1635 1827 2012 2243 2667 3565 4857
1290.0 5601 4667 2770 1740 1570 1718 2139 2788 3720 4734
1330.0 5751 6644 7618 8792 9636 8827 6195 3654 2190 1463
1370.0 1078 919 836 843 888 863 844 834 815 912
1410.0 1106 1171 1139 855 726 716 832 980 1036 1072
1450.0 1085 1129 1229 1305 1451 1623 1817 1906 1954 2023
1490.0 2286 2728 3427 4096 4500 4479 4169 4118 4448 4655
1530.0 4748 4565 4210 3482 2552 1873 1449 1363 1361 1630
1570.0 2102 2839 3790 4926 6220 7248 7547 8176 9371 10000
1610.0 7972 4914 2384 1174 717 443 339 246 183 114
1650.0 110 53 43 4 0 9 33 32 67 74
1690.0 76 95 129 160 171 166 198 225 207 195
1730.0 225 251 206 197 204 216 217 200 203 213
1770.0 232 211 203 217 197 205 193 188 208 187
1810.0 167 179 173 158 171 163 164 140 164 170
1850.0 161 145 157 166 167 187 164 167 168 179
1890.0 188 184 180 178 172 170 180 185 196 191
1930.0 180 178 169 176 160 151 152 154 145 154
1970.0 150 149 150 154 144 160 162 151 157 157
2010.0 152 153 156 154 147 144 143 144 140 145
2050.0 138 137 138 132 140 141 140 133 139 136
2090.0 138 130 133 133 133 132 136 133 130 130
2130.0 125 126 131 128 128 127 124 125 130 120
2170.0 117 115 115 119 119 116 116 112 109 112
2210.0 113 114 109 105 110 106 111 107 106 102
2250.0 102 107 105 106 107 109 113 116 117 130
2290.0 126 136 146 157 161 171 170 152 171 159
2330.0 148 171 158 187 170 166 217 195 184 166
2370.0 150 150 159 157 139 124 117 113 120 127
2410.0 130 127 124 126 127 138 143 158 166 173
2450.0 175 180 177 173 174 168 157 161 157 152
2490.0 161 161 167 160 156 153 155 158 153 147
2530.0 143 140 133 137 140 136 137 133 132 127
2570.0 138 136 137 137 141 151 156 152 155 152
2610.0 152 154 155 149 143 141 138 146 131 128
2650.0 130 131 129 121 124 127 128 130 137 142
2690.0 143 152 149 153 157 171 184 184 200 201
2730.0 233 236 239 247 245 255 250 253 255 259
2770.0 265 274 287 297 326 364 400 450 510 575
2810.0 655 742 833 899 959 1007 1043 1077 1067 1058
2850.0 1053 1105 1181 1285 1386 1468 1553 1634 1669 1633
2890.0 1520 1393 1307 1270 1274 1279 1297 1346 1447 1579
2930.0 1685 1759 1747 1714 1673 1615 1526 1399 1270 1124
2970.0 1010 928 859 815 787 751 732 662 557 447
3010.0 356 307 261 249 253 265 271 273 274 283
3050.0 263 264 261 273 297 314 320 305 299 310
3090.0 303 290 269 224 207 185 165 157 154 143
3130.0 149 144 141 139 141 144 156 144 148 158
3170.0 168 173 184 183 187 189 172 175 168 169
3210.0 164 165 174 171 180 190 201 214 214 221
3250.0 225 241 240 253 267 260 279 281 295 316
3290.0 320 318 325 341 349 352 359 358 360 364
3330.0 368 369 382 399 409 399 423 446 456 468
3370.0 488 514 528 536 553 578 601 638 693 738
3410.0 734 741 743 802 902 1035 1041 972 837 706
3450.0 606 536 478 436 424 407 379 324 279 218
3490.0 206 161 147 149 149 128 129 123 128 142
3530.0 128 109 118 113 137 132 122 124 98 153
3570.0 130 115 115 107 137 152 132 113 121 120
3610.0 142 116 122 111 114 145 129 106 113 117
3650.0 119 134 127 117 106 117 110 116 122 147
3690.0 116 131 147 134 133 138 140 147 147 156
3730.0 131 155 144 159 117 113 112 102 103 106
3770.0 119 109 105 107 105 119 125 116 118 95
3810.0 107 116 99 113 110 102 122 107 123 152
3850.0 152 137 137 133 133 190 158 144 148 156
3890.0 157 160 152 191 180 147 148 174 156 168
3930.0 169 180 181 153 178 201 179 182 181 176
##END=
