##TITLE=.alpha.-Bromo-.gamma.-valerolactone
##JCAMP-DX=4.24
##DATA TYPE=INFRARED SPECTRUM
##ORIGIN=Sadtler Research Labs Under US-EPA Contract
##OWNER=NIST Standard Reference Data Program
##CAS REGISTRY NO=25966-39-6
##MOLFORM=C 5 H 7 Br O 2
##XUNITS=1/CM
##YUNITS=ABSORBANCE
##XFACTOR=1.0
##YFACTOR=0.000183566
##DELTAX=4.0
##FIRSTX=450.0
##LASTX=3966.0
##FIRSTY=0.017255
##MAXX=3966
##MINX=450
##MAXY=1.83566
##MINY=0
##NPOINTS=880
##XYDATA=(X++(Y..Y))
450.0 94 135 198 140 147 179 135 255 227 210
490.0 155 91 89 20 68 46 75 52 28 47
530.0 67 72 105 124 177 238 263 323 288 266
570.0 193 119 88 77 71 97 100 58 57 117
610.0 93 119 162 149 121 75 85 100 87 97
650.0 127 171 233 264 309 233 223 192 153 73
690.0 94 29 25 25 14 10 5 26 17 59
730.0 61 57 62 79 163 185 165 119 108 62
770.0 37 10 6 9 8 5 7 13 38 56
810.0 119 150 187 216 235 224 170 101 50 40
850.0 53 55 67 89 133 159 213 255 283 324
890.0 370 378 399 396 433 544 689 798 915 968
930.0 978 1018 1253 1495 1643 1690 1579 1292 958 662
970.0 460 352 293 245 222 262 291 319 389 430
1010.0 407 374 337 298 238 245 276 347 463 598
1050.0 674 714 734 716 669 735 879 1130 1468 1659
1090.0 1776 1869 1760 1619 1631 1662 1687 1667 1604 1493
1130.0 1438 1446 1495 1587 1779 2061 2489 2981 3495 4222
1170.0 4827 5255 5101 4410 3455 2357 1549 1169 1003 892
1210.0 801 747 698 656 623 572 504 442 376 321
1250.0 290 268 273 275 279 285 280 303 356 465
1290.0 545 562 523 441 312 222 187 205 253 353
1330.0 533 739 909 983 883 723 551 479 456 427
1370.0 416 410 449 588 758 808 769 682 439 250
1410.0 164 119 146 125 156 187 250 324 385 404
1450.0 414 428 390 340 311 243 216 156 110 104
1490.0 95 72 71 56 89 82 74 54 59 45
1530.0 39 32 39 41 37 34 35 60 41 35
1570.0 31 24 30 21 24 22 19 31 10 24
1610.0 30 34 46 32 54 29 59 55 54 69
1650.0 72 87 72 68 77 72 91 69 87 106
1690.0 97 100 132 148 154 145 179 203 200 214
1730.0 229 272 288 295 325 340 368 422 481 564
1770.0 630 745 830 956 1173 1377 1886 2645 3599 5517
1810.0 7160 8103 10000 8767 8762 6307 4283 2780 1773 1158
1850.0 818 564 445 359 278 273 211 204 171 153
1890.0 146 129 115 108 100 95 75 76 70 47
1930.0 47 42 45 53 40 32 36 33 33 30
1970.0 35 31 31 28 24 37 35 34 37 30
2010.0 31 30 31 28 20 19 14 17 18 18
2050.0 19 15 21 19 20 18 13 16 17 17
2090.0 20 20 20 24 18 18 18 20 23 16
2130.0 15 13 11 15 10 10 8 12 13 14
2170.0 15 16 13 15 13 14 13 13 19 15
2210.0 18 23 24 23 21 22 22 23 22 25
2250.0 29 33 38 41 43 44 42 45 46 46
2290.0 50 52 47 47 45 46 44 41 42 40
2330.0 50 46 39 52 54 55 47 37 46 32
2370.0 21 30 26 31 26 20 17 15 14 13
2410.0 14 13 9 13 12 11 14 16 19 22
2450.0 20 20 21 26 23 22 25 23 21 20
2490.0 20 21 19 18 21 20 20 14 15 13
2530.0 10 9 5 5 7 4 5 2 6 4
2570.0 5 5 5 5 5 5 4 3 1 3
2610.0 0 3 2 5 4 7 9 8 14 16
2650.0 17 19 15 19 16 12 12 8 8 6
2690.0 6 7 9 15 14 17 20 21 23 22
2730.0 18 19 18 18 19 19 23 23 26 30
2770.0 29 28 24 21 22 20 18 18 21 22
2810.0 21 23 23 30 35 40 44 46 53 62
2850.0 76 91 104 120 129 132 148 163 176 185
2890.0 183 184 180 198 238 289 357 424 487 545
2930.0 620 738 805 776 705 625 529 439 404 408
2970.0 456 572 736 922 1137 1291 1298 1161 919 617
3010.0 375 212 135 113 97 89 80 65 57 46
3050.0 42 36 33 32 28 29 32 30 28 30
3090.0 30 31 29 30 22 23 22 17 18 14
3130.0 14 14 14 19 21 18 20 19 21 19
3170.0 12 16 14 15 14 16 18 16 20 21
3210.0 17 24 24 16 19 14 15 8 10 7
3250.0 4 3 4 5 6 10 9 6 8 9
3290.0 6 7 4 5 8 3 1 2 5 4
3330.0 7 9 14 11 11 9 4 6 6 0
3370.0 5 4 5 5 5 11 14 12 11 11
3410.0 14 16 9 7 8 10 6 9 8 9
3450.0 12 18 15 17 17 18 18 19 21 11
3490.0 5 7 9 13 12 14 14 15 20 19
3530.0 18 28 21 22 30 26 22 33 35 51
3570.0 76 89 99 107 108 102 88 93 97 104
3610.0 109 113 117 109 109 84 76 63 51 43
3650.0 42 28 37 29 32 18 21 20 17 21
3690.0 16 17 25 20 20 22 25 32 30 33
3730.0 29 13 19 10 17 16 23 19 14 20
3770.0 20 30 30 25 33 38 33 18 17 25
3810.0 33 19 16 2 23 20 21 21 23 33
3850.0 33 25 38 31 29 33 34 21 21 23
3890.0 13 9 29 41 42 45 38 42 42 56
3930.0 39 18 19 23 18 18 14 38 33 42
##END=
