##TITLE=Thioxanthene
##JCAMP-DX=4.24
##DATA TYPE=INFRARED SPECTRUM
##ORIGIN=Sadtler Research Labs Under US-EPA Contract
##OWNER=NIST Standard Reference Data Program
##CAS REGISTRY NO=261-31-4
##MOLFORM=C 13 H 10 S
##XUNITS=1/CM
##YUNITS=ABSORBANCE
##XFACTOR=1.0
##YFACTOR=0.000065689
##DELTAX=4.0
##FIRSTX=450.0
##LASTX=3966.0
##FIRSTY=0.000000
##MAXX=3966
##MINX=450
##MAXY=0.65689
##MINY=0
##NPOINTS=880
##XYDATA=(X++(Y..Y))
450.0 0 182 206 241 254 316 324 384 330 281
490.0 222 189 222 271 401 500 492 340 285 207
530.0 163 132 141 154 105 143 130 164 144 144
570.0 120 136 195 208 223 201 155 168 214 236
610.0 392 540 736 814 673 497 342 226 190 182
650.0 174 165 146 173 173 242 309 469 811 1025
690.0 1163 857 506 338 326 319 375 382 426 734
730.0 1659 3859 6517 10000 9873 6691 3934 1915 797 436
770.0 279 240 187 197 184 218 226 210 165 131
810.0 120 134 168 211 284 320 335 312 259 220
850.0 213 226 221 225 233 206 176 150 139 143
890.0 132 128 142 148 148 157 159 165 184 193
930.0 221 264 300 342 399 399 324 275 230 184
970.0 166 161 175 192 206 204 210 208 241 313
1010.0 409 497 547 538 510 720 1021 1088 982 669
1050.0 553 957 1227 1227 998 611 468 436 381 313
1090.0 265 262 334 455 640 948 1311 1592 1546 1195
1130.0 749 439 345 308 299 348 384 403 374 341
1170.0 346 340 318 282 273 309 439 588 604 548
1210.0 392 255 224 222 224 230 232 249 275 321
1250.0 342 342 326 344 447 611 681 692 588 398
1290.0 275 193 167 155 154 173 183 203 206 235
1330.0 257 270 258 216 173 158 162 183 236 257
1370.0 273 274 251 227 242 249 253 260 248 264
1410.0 300 383 549 690 802 929 1196 1648 2104 2211
1450.0 2377 2613 3706 4795 4698 3803 2273 1474 1245 1022
1490.0 773 467 329 235 232 237 211 220 223 200
1530.0 193 196 204 228 226 232 300 444 627 782
1570.0 849 796 718 754 828 829 738 625 499 394
1610.0 295 238 210 183 186 171 191 193 170 167
1650.0 191 211 217 227 246 260 304 304 340 327
1690.0 273 231 230 215 204 196 216 231 193 166
1730.0 170 195 176 175 183 188 172 179 189 206
1770.0 248 277 285 314 327 336 324 292 269 239
1810.0 234 242 259 275 287 269 226 190 207 224
1850.0 221 201 178 154 155 185 201 233 260 273
1890.0 279 290 307 312 307 291 262 246 246 261
1930.0 317 400 434 394 282 176 133 122 115 118
1970.0 113 115 115 117 115 120 121 117 116 115
2010.0 112 117 116 109 115 112 113 116 112 109
2050.0 108 106 107 104 106 108 108 109 107 109
2090.0 111 107 109 109 111 109 109 109 107 107
2130.0 108 108 108 109 111 116 115 112 113 112
2170.0 111 109 110 109 110 110 112 111 107 108
2210.0 106 104 108 109 113 121 123 120 116 122
2250.0 118 119 120 122 127 126 128 134 138 140
2290.0 143 150 156 162 169 176 193 202 208 203
2330.0 189 174 152 169 159 163 167 152 134 131
2370.0 136 138 136 130 127 124 121 126 128 131
2410.0 131 134 126 125 134 141 149 153 152 144
2450.0 135 126 124 124 123 120 121 123 127 121
2490.0 121 124 121 122 120 124 126 124 126 130
2530.0 134 138 141 148 148 156 166 173 179 185
2570.0 174 160 145 141 130 127 134 136 137 139
2610.0 137 140 134 145 142 139 138 139 136 144
2650.0 144 150 152 151 146 144 139 135 129 127
2690.0 124 124 124 127 127 129 130 130 131 125
2730.0 124 126 122 125 127 134 131 136 136 134
2770.0 138 141 138 143 149 152 158 176 198 239
2810.0 298 384 468 530 542 473 385 316 270 261
2850.0 273 319 422 555 693 814 728 577 438 318
2890.0 250 211 197 187 183 181 177 176 183 192
2930.0 205 244 315 460 694 1030 1256 1262 1133 799
2970.0 484 330 251 234 233 258 298 375 506 726
3010.0 1027 1337 1519 1504 1307 1018 805 697 688 740
3050.0 843 1064 1517 2396 3767 4994 5186 4350 2830 1634
3090.0 1035 719 508 374 295 252 230 224 219 222
3130.0 231 237 257 276 277 253 213 186 166 157
3170.0 157 160 160 157 156 148 149 137 132 129
3210.0 128 126 127 130 132 127 130 133 125 126
3250.0 126 129 125 122 126 119 118 129 132 123
3290.0 127 118 121 117 121 116 118 123 115 113
3330.0 109 109 112 115 115 118 118 116 119 118
3370.0 115 121 118 108 112 108 109 115 110 111
3410.0 105 104 111 108 115 110 112 121 121 123
3450.0 118 126 118 121 117 128 119 121 121 119
3490.0 113 127 123 120 116 110 121 124 121 118
3530.0 118 129 117 115 120 120 120 121 122 129
3570.0 134 124 125 121 111 108 115 126 123 127
3610.0 125 115 124 120 127 120 124 131 127 131
3650.0 136 137 127 121 129 129 120 128 131 130
3690.0 141 140 148 152 144 131 129 124 120 126
3730.0 135 128 132 131 131 138 151 149 144 137
3770.0 133 131 129 129 137 137 135 135 130 120
3810.0 127 137 143 138 125 130 128 132 128 133
3850.0 130 138 131 130 117 129 137 139 135 156
3890.0 156 166 173 181 163 150 133 137 137 140
3930.0 124 135 140 136 123 128 123 125 123 136
##END=
