##TITLE=1-Heptadecyne
##JCAMP-DX=4.24
##DATA TYPE=INFRARED SPECTRUM
##ORIGIN=Sadtler Research Labs Under US-EPA Contract
##OWNER=NIST Standard Reference Data Program
##CAS REGISTRY NO=26186-00-5
##MOLFORM=C 17 H 32
##XUNITS=1/CM
##YUNITS=ABSORBANCE
##XFACTOR=1.0
##YFACTOR=0.000104459
##DELTAX=4.0
##FIRSTX=450.0
##LASTX=3966.0
##FIRSTY=0.008566
##MAXX=3966
##MINX=450
##MAXY=1.04459
##MINY=0
##NPOINTS=880
##XYDATA=(X++(Y..Y))
450.0 82 45 6 1 15 18 32 37 44 45
490.0 12 39 71 50 24 36 44 58 66 47
530.0 56 55 30 64 68 59 62 46 49 52
570.0 27 41 38 44 48 55 58 80 90 110
610.0 182 291 456 711 1106 2009 2406 1657 1056 617
650.0 357 208 138 95 82 59 58 57 49 41
690.0 36 33 33 43 81 87 118 140 144 111
730.0 104 77 62 58 38 23 22 0 5 13
770.0 25 29 30 34 29 36 38 30 27 14
810.0 12 21 19 18 16 17 15 16 6 5
850.0 7 6 10 14 22 23 21 26 25 28
890.0 36 25 28 30 33 27 27 24 19 16
930.0 23 22 26 31 34 35 39 40 33 31
970.0 29 29 29 31 34 31 33 33 30 29
1010.0 26 25 29 27 23 25 27 27 19 23
1050.0 25 21 25 29 30 34 35 34 34 37
1090.0 38 31 30 35 32 34 36 41 40 42
1130.0 35 36 34 35 37 35 37 39 39 41
1170.0 37 40 41 43 43 46 43 47 49 49
1210.0 54 63 69 80 92 120 166 247 379 529
1250.0 582 460 297 197 153 133 124 117 109 103
1290.0 105 111 119 133 144 156 160 160 165 178
1330.0 188 193 202 226 251 277 292 281 255 237
1370.0 222 202 180 171 157 125 96 81 74 72
1410.0 67 71 77 77 90 112 164 238 319 377
1450.0 459 533 634 712 700 613 465 314 214 153
1490.0 120 97 82 70 67 59 47 47 42 41
1530.0 38 37 37 33 32 25 31 27 24 23
1570.0 23 22 27 21 19 17 19 17 20 18
1610.0 18 19 18 12 15 13 13 16 15 20
1650.0 17 15 18 17 15 16 17 15 18 19
1690.0 19 23 23 24 29 30 28 30 25 26
1730.0 29 27 24 27 22 18 19 18 17 17
1770.0 18 16 20 17 14 9 12 9 9 7
1810.0 8 6 5 5 4 7 6 8 5 5
1850.0 7 5 3 4 6 2 4 5 5 6
1890.0 5 5 3 4 4 1 2 4 5 4
1930.0 3 3 2 5 3 3 3 5 2 1
1970.0 4 2 6 5 4 4 2 4 4 5
2010.0 7 10 10 7 10 12 12 14 11 11
2050.0 13 10 12 9 11 9 12 13 14 14
2090.0 16 21 24 35 50 64 84 105 113 108
2130.0 78 44 26 20 14 13 10 8 8 7
2170.0 7 7 7 7 7 7 6 6 7 6
2210.0 4 4 6 5 7 4 5 5 4 5
2250.0 3 1 5 3 6 5 7 5 6 6
2290.0 7 7 7 12 12 9 11 8 14 12
2330.0 11 13 11 0 20 14 20 15 0 4
2370.0 7 16 15 12 10 9 9 10 8 6
2410.0 7 7 8 7 7 8 6 7 5 7
2450.0 7 6 6 3 6 5 5 8 6 5
2490.0 8 8 10 9 8 13 14 13 15 17
2530.0 18 21 22 19 19 16 20 21 19 19
2570.0 20 21 24 24 26 30 29 30 35 36
2610.0 37 40 41 41 45 44 52 52 55 59
2650.0 55 58 63 66 73 75 79 79 81 81
2690.0 84 86 86 77 64 65 63 62 63 63
2730.0 66 68 76 81 83 78 77 82 84 87
2770.0 90 91 90 103 113 123 136 145 160 179
2810.0 191 216 237 264 310 353 411 488 609 819
2850.0 1194 1840 2829 3721 3875 3365 2660 2103 1784 1623
2890.0 1489 1458 1577 1837 2226 2714 3295 4042 5221 7023
2930.0 9090 10000 9407 7972 6372 4831 3563 2762 2408 2311
2970.0 2179 1788 1270 899 677 543 441 371 315 281
3010.0 241 216 196 180 163 147 138 129 117 107
3050.0 99 89 81 79 75 73 70 63 60 59
3090.0 56 55 43 45 44 39 43 42 37 35
3130.0 35 35 34 31 33 31 30 30 28 28
3170.0 27 26 30 24 23 20 22 24 18 18
3210.0 20 17 13 17 15 15 11 11 11 17
3250.0 13 13 22 20 35 33 38 42 57 79
3290.0 102 109 124 170 283 378 352 338 459 783
3330.0 1044 825 417 252 174 149 123 109 89 71
3370.0 56 38 35 33 20 19 21 22 21 17
3410.0 24 19 16 21 15 11 11 22 12 15
3450.0 18 18 15 18 11 16 16 13 21 21
3490.0 15 10 21 11 16 24 11 10 11 10
3530.0 12 21 1 6 7 10 14 11 14 21
3570.0 17 25 20 19 19 21 17 14 19 21
3610.0 22 25 25 20 29 29 31 29 30 29
3650.0 32 31 21 26 19 30 28 34 30 27
3690.0 29 32 19 33 34 31 35 34 27 32
3730.0 29 31 35 34 42 28 37 33 32 39
3770.0 36 31 28 35 28 22 34 34 46 45
3810.0 21 18 33 29 21 25 31 35 35 29
3850.0 33 22 17 34 39 42 37 23 31 36
3890.0 18 35 20 42 48 27 34 34 18 41
3930.0 32 49 46 48 28 15 32 23 25 22
##END=
