##TITLE=1-Tridecyne
##JCAMP-DX=4.24
##DATA TYPE=INFRARED SPECTRUM
##ORIGIN=Sadtler Research Labs Under US-EPA Contract
##OWNER=NIST Standard Reference Data Program
##CAS REGISTRY NO=26186-02-7
##MOLFORM=C 13 H 24
##XUNITS=1/CM
##YUNITS=ABSORBANCE
##XFACTOR=1.0
##YFACTOR=0.000094559
##DELTAX=4.0
##FIRSTX=450.0
##LASTX=3966.0
##FIRSTY=0.015413
##MAXX=3966
##MINX=450
##MAXY=0.94559
##MINY=0
##NPOINTS=880
##XYDATA=(X++(Y..Y))
450.0 163 77 53 8 15 54 32 25 36 26
490.0 58 46 53 64 60 83 52 63 90 66
530.0 71 70 64 83 66 80 103 101 104 66
570.0 79 70 77 69 74 62 97 121 133 160
610.0 233 433 665 1026 1708 3177 3817 2549 1569 892
650.0 505 281 216 158 133 97 83 96 77 87
690.0 91 77 86 86 107 119 157 175 184 180
730.0 161 136 121 114 111 84 77 73 79 76
770.0 65 59 61 52 49 45 40 50 41 40
810.0 37 39 38 34 31 41 44 40 40 37
850.0 39 36 34 36 37 41 44 48 41 50
890.0 51 40 46 47 54 45 46 57 50 43
930.0 50 54 46 50 47 52 53 49 45 54
970.0 46 47 53 47 51 53 58 58 61 61
1010.0 64 66 76 71 80 84 81 88 87 88
1050.0 93 95 97 105 106 110 115 118 114 116
1090.0 114 117 115 115 115 116 115 119 116 115
1130.0 117 113 112 113 110 101 97 104 104 110
1170.0 110 109 109 105 101 98 95 96 99 103
1210.0 108 115 124 134 152 187 249 364 563 800
1250.0 893 734 476 321 253 225 210 200 187 180
1290.0 178 185 190 196 205 211 208 209 222 235
1330.0 253 257 261 273 301 325 341 332 311 293
1370.0 287 275 260 264 248 201 156 126 110 104
1410.0 107 106 116 130 150 198 286 400 491 521
1450.0 574 644 745 825 824 735 577 404 269 181
1490.0 134 107 89 73 66 51 44 35 38 29
1530.0 26 27 26 26 19 26 20 21 21 17
1570.0 19 18 21 19 17 20 18 19 17 19
1610.0 18 19 21 20 19 14 20 19 19 19
1650.0 19 24 23 20 24 24 31 36 46 60
1690.0 79 107 141 159 153 127 103 77 69 64
1730.0 64 66 64 61 60 64 70 75 79 92
1770.0 101 118 122 120 107 88 66 57 51 48
1810.0 43 37 29 19 15 11 10 5 6 4
1850.0 5 4 3 3 2 2 5 4 2 5
1890.0 3 0 3 3 3 0 0 2 1 1
1930.0 3 3 2 2 2 1 3 2 1 3
1970.0 2 1 1 4 5 3 4 5 5 5
2010.0 6 7 6 8 12 15 14 14 13 16
2050.0 16 16 16 14 14 14 18 22 31 35
2090.0 43 55 67 75 82 100 125 156 179 180
2130.0 137 80 43 28 20 18 15 13 13 9
2170.0 9 9 8 9 11 11 11 12 10 14
2210.0 13 12 15 15 9 10 12 8 7 8
2250.0 8 6 7 5 8 6 10 9 7 5
2290.0 5 3 0 4 5 2 8 14 11 15
2330.0 19 6 8 3 5 7 19 21 8 0
2370.0 0 0 0 0 0 6 9 12 11 10
2410.0 12 9 9 13 9 10 13 10 11 12
2450.0 10 10 13 12 10 9 10 9 9 12
2490.0 12 15 10 15 17 17 18 23 20 22
2530.0 24 23 26 24 25 25 23 26 25 27
2570.0 32 31 31 35 36 38 40 35 38 41
2610.0 45 49 48 46 53 56 57 59 62 66
2650.0 70 67 74 76 81 86 87 92 93 97
2690.0 100 102 104 93 81 77 76 73 76 76
2730.0 83 90 94 97 101 100 98 93 98 99
2770.0 97 105 109 116 124 140 158 167 185 202
2810.0 219 239 264 292 329 375 438 509 635 850
2850.0 1242 1911 2864 3745 4110 3847 3236 2633 2254 2038
2890.0 1828 1702 1746 1976 2347 2833 3430 4230 5428 7148
2930.0 9028 10000 9878 8929 7589 6003 4555 3612 3262 3290
2970.0 3231 2711 1885 1233 873 671 539 455 381 330
3010.0 287 261 235 215 195 180 168 159 146 133
3050.0 123 114 106 102 92 92 90 81 76 78
3090.0 72 67 60 61 58 58 53 50 51 46
3130.0 47 45 43 42 39 43 38 41 38 42
3170.0 37 37 31 32 33 33 34 31 33 27
3210.0 31 25 29 23 21 21 19 17 21 23
3250.0 21 24 29 36 35 43 54 59 76 108
3290.0 138 140 173 247 408 526 519 525 713 1282
3330.0 1690 1394 739 357 259 196 181 148 135 102
3370.0 70 53 34 34 27 24 21 23 23 25
3410.0 20 15 22 21 17 17 17 15 8 16
3450.0 13 14 14 17 20 16 15 17 3 11
3490.0 9 16 11 8 12 12 6 4 7 4
3530.0 10 7 9 9 0 11 9 14 17 16
3570.0 31 46 56 54 42 24 19 22 22 21
3610.0 26 22 22 19 25 23 27 19 25 29
3650.0 35 35 33 27 37 23 26 31 32 17
3690.0 25 22 27 27 25 20 27 22 31 15
3730.0 20 27 25 22 27 15 16 12 23 19
3770.0 20 24 30 27 30 30 33 22 35 20
3810.0 26 24 26 23 13 11 17 14 22 21
3850.0 25 29 29 23 22 15 14 17 16 26
3890.0 35 21 22 29 25 29 26 34 35 24
3930.0 37 42 55 44 49 56 30 36 41 25
##END=
