##TITLE=Butanoic acid, 3-bromo-
##JCAMP-DX=4.24
##DATA TYPE=INFRARED SPECTRUM
##ORIGIN=Sadtler Research Labs Under US-EPA Contract
##OWNER=NIST Standard Reference Data Program
##CAS REGISTRY NO=2623-86-1
##MOLFORM=C 4 H 7 Br O 2
##XUNITS=1/CM
##YUNITS=ABSORBANCE
##XFACTOR=1.0
##YFACTOR=0.000096240
##DELTAX=4.0
##FIRSTX=450.0
##LASTX=3966.0
##FIRSTY=0.042923
##MAXX=3966
##MINX=450
##MAXY=0.9624
##MINY=0
##NPOINTS=880
##XYDATA=(X++(Y..Y))
450.0 446 454 383 353 279 310 313 300 314 295
490.0 464 467 448 570 538 665 696 824 907 1015
530.0 1151 1214 1311 1503 1657 1881 1978 2263 2461 2921
570.0 3213 3489 3062 2743 1949 1437 1127 1248 1086 1318
610.0 1203 1504 1564 1710 1628 1837 1759 1866 1516 1333
650.0 1173 1097 1018 964 738 671 671 734 620 775
690.0 673 735 585 547 542 517 409 465 354 341
730.0 224 302 123 140 97 163 115 88 93 167
770.0 82 86 23 44 87 40 70 120 91 99
810.0 129 121 176 222 187 170 277 252 332 268
850.0 324 375 342 365 357 351 392 320 383 315
890.0 349 324 341 349 372 351 416 340 413 360
930.0 408 397 438 431 477 574 707 765 912 994
970.0 1060 889 792 701 628 578 579 619 802 923
1010.0 1073 1025 968 730 581 543 577 633 718 804
1050.0 977 1162 1418 1589 1824 1990 2228 2391 2557 2687
1090.0 2896 3188 3566 3869 4009 4122 4346 4502 4741 5271
1130.0 5876 6486 6680 6505 6214 5711 5070 4337 3636 3323
1170.0 2987 2861 2826 2700 2631 2464 2387 2278 2050 1899
1210.0 1672 1573 1460 1394 1391 1378 1313 1366 1395 1464
1250.0 1433 1479 1395 1374 1257 1154 1072 1040 1040 1085
1290.0 1145 1259 1244 1268 1166 1180 1156 1148 1126 1148
1330.0 1208 1269 1341 1434 1517 1671 1713 1820 1935 2068
1370.0 2207 2389 2481 2488 2332 2067 1732 1354 1049 877
1410.0 813 787 787 785 788 792 790 739 800 831
1450.0 823 797 695 724 613 551 389 347 308 284
1490.0 262 210 189 201 168 187 203 161 111 145
1530.0 180 119 190 9 162 188 163 79 73 148
1570.0 116 126 81 138 146 141 166 162 163 183
1610.0 183 192 125 197 216 223 279 264 425 484
1650.0 630 615 887 908 929 845 811 601 466 268
1690.0 372 381 347 352 528 619 744 791 1054 1302
1730.0 1633 1939 2475 3067 3872 4829 5919 6622 7004 7682
1770.0 8920 9770 10000 9618 8837 7634 6149 4769 3517 2534
1810.0 1865 1440 1137 939 754 629 532 468 436 371
1850.0 372 372 342 358 324 302 271 249 214 198
1890.0 172 163 144 154 122 138 116 127 118 126
1930.0 122 128 122 131 120 131 114 140 109 117
1970.0 101 116 112 114 112 120 112 120 112 119
2010.0 112 117 115 111 116 115 105 106 95 103
2050.0 91 98 91 88 94 81 84 80 74 72
2090.0 65 74 68 65 75 69 82 74 79 79
2130.0 67 72 69 65 71 58 80 65 83 74
2170.0 75 79 77 79 88 78 90 71 95 84
2210.0 98 91 96 95 104 90 97 84 104 84
2250.0 98 81 87 80 81 81 87 79 97 92
2290.0 120 119 144 157 171 193 187 178 201 148
2330.0 192 121 172 131 152 223 268 260 198 108
2370.0 103 61 90 82 90 69 62 60 45 50
2410.0 55 45 49 35 46 46 45 51 43 50
2450.0 53 55 59 50 52 48 45 49 40 51
2490.0 45 50 49 59 54 54 43 50 41 64
2530.0 31 50 39 46 44 43 40 42 28 48
2570.0 32 54 27 38 23 27 22 26 24 31
2610.0 16 37 6 37 12 31 15 26 23 18
2650.0 19 24 11 34 10 23 21 26 27 31
2690.0 23 31 20 34 21 40 19 30 30 27
2730.0 37 36 44 47 47 56 36 43 34 27
2770.0 27 16 16 16 16 25 19 27 24 30
2810.0 36 21 39 37 47 50 59 65 67 60
2850.0 83 77 131 137 201 230 279 298 315 321
2890.0 314 284 292 289 338 340 427 483 594 677
2930.0 751 766 817 755 696 548 523 514 528 572
2970.0 645 709 756 791 915 950 1014 929 871 679
3010.0 543 422 341 260 220 167 181 149 176 151
3050.0 167 161 172 169 167 157 168 151 157 119
3090.0 127 127 112 111 98 104 93 104 104 94
3130.0 98 95 90 101 71 106 73 92 82 61
3170.0 70 77 72 83 61 94 66 114 85 95
3210.0 86 85 71 83 80 102 70 97 68 103
3250.0 85 96 92 77 87 100 63 102 56 80
3290.0 58 85 72 86 79 77 57 82 30 80
3330.0 34 67 51 59 49 58 51 69 47 78
3370.0 37 69 65 62 60 56 72 79 60 83
3410.0 78 95 81 81 93 72 103 82 73 78
3450.0 78 91 84 89 94 92 110 77 116 119
3490.0 119 130 122 152 141 144 167 138 167 166
3530.0 172 175 204 211 240 249 343 548 1096 2112
3570.0 3352 3996 4262 3810 2884 1972 1579 1123 754 435
3610.0 282 187 185 122 154 59 90 107 116 97
3650.0 49 65 73 73 90 37 44 9 59 68
3690.0 25 50 93 57 84 42 39 82 72 75
3730.0 65 14 36 41 5 6 16 40 46 63
3770.0 57 68 72 52 73 65 78 44 17 41
3810.0 44 61 6 6 44 33 32 4 15 26
3850.0 18 6 10 28 7 18 40 33 28 29
3890.0 23 37 30 41 36 61 63 67 81 82
3930.0 86 95 73 86 63 89 0 6 6 6
##END=
