##TITLE=2-Bromoheptanoic acid
##JCAMP-DX=4.24
##DATA TYPE=INFRARED SPECTRUM
##ORIGIN=Sadtler Research Labs Under US-EPA Contract
##OWNER=NIST Standard Reference Data Program
##CAS REGISTRY NO=2624-01-3
##MOLFORM=C 7 H 13 Br O 2
##XUNITS=1/CM
##YUNITS=ABSORBANCE
##XFACTOR=1.0
##YFACTOR=0.000094263
##DELTAX=4.0
##FIRSTX=450.0
##LASTX=3966.0
##FIRSTY=0.000000
##MAXX=3966
##MINX=450
##MAXY=0.94263
##MINY=0
##NPOINTS=880
##XYDATA=(X++(Y..Y))
450.0 0 31 85 30 45 101 66 152 125 143
490.0 167 190 223 264 284 320 373 412 490 569
530.0 668 778 889 991 1133 1262 1332 1396 1335 1236
570.0 1203 1212 1277 1334 1433 1460 1460 1495 1506 1529
610.0 1547 1609 1600 1715 1716 1769 1807 1790 1700 1452
650.0 1208 980 887 845 815 747 629 516 406 325
690.0 245 236 184 198 206 233 269 347 416 470
730.0 497 482 434 372 332 315 299 283 272 236
770.0 215 204 178 168 152 149 145 135 138 136
810.0 137 124 119 97 84 75 74 71 83 97
850.0 114 116 123 124 138 148 148 164 150 149
890.0 134 125 117 113 126 114 112 108 100 86
930.0 83 77 79 83 88 101 125 149 169 195
970.0 220 240 249 260 260 254 255 257 268 282
1010.0 299 312 329 328 335 340 351 370 409 450
1050.0 493 546 593 648 723 836 990 1191 1508 1963
1090.0 2631 3459 4303 4885 4926 4535 4088 3894 3876 3958
1130.0 3882 3635 3292 3001 2866 2862 2906 2844 2626 2285
1170.0 1960 1688 1478 1300 1161 1065 1028 1029 1049 1064
1210.0 1069 1067 1048 1016 979 942 906 863 815 758
1250.0 716 692 692 699 717 743 779 819 857 893
1290.0 921 939 955 978 1005 1040 1068 1096 1139 1198
1330.0 1267 1324 1339 1290 1204 1132 1103 1123 1153 1174
1370.0 1158 1165 1190 1255 1268 1199 1006 775 579 445
1410.0 363 321 298 287 292 336 417 500 564 599
1450.0 654 723 819 879 865 804 652 481 327 227
1490.0 157 128 115 98 96 83 72 63 65 54
1530.0 53 41 51 34 36 33 36 28 37 25
1570.0 29 23 36 30 29 29 28 29 30 33
1610.0 29 29 36 31 38 27 44 35 45 44
1650.0 56 60 78 59 66 63 60 65 74 87
1690.0 101 117 139 168 201 236 301 385 525 666
1730.0 858 1039 1227 1391 1576 1803 2169 2782 3733 5207
1770.0 7009 9054 10000 9965 8135 6116 4370 3246 2482 1979
1810.0 1627 1373 1156 952 760 568 422 319 252 202
1850.0 171 147 127 108 94 82 74 69 63 58
1890.0 52 51 48 47 42 42 40 39 39 37
1930.0 40 38 40 35 35 33 35 34 29 33
1970.0 30 31 30 30 29 29 28 29 33 30
2010.0 33 31 31 31 31 33 33 34 33 26
2050.0 28 29 24 26 21 24 22 22 19 21
2090.0 19 20 19 19 20 20 20 20 20 22
2130.0 22 23 25 26 24 25 26 27 30 33
2170.0 34 33 34 39 43 42 44 43 45 46
2210.0 43 45 43 43 44 43 41 40 38 35
2250.0 34 34 35 36 31 34 35 36 39 47
2290.0 49 58 62 64 66 70 58 56 53 38
2330.0 34 29 28 21 67 47 52 43 29 35
2370.0 47 48 58 64 60 51 48 44 43 48
2410.0 47 49 45 46 45 47 48 49 49 51
2450.0 51 55 52 54 52 52 54 53 54 52
2490.0 53 50 53 53 54 51 48 50 50 51
2530.0 53 51 50 48 50 49 51 53 55 55
2570.0 53 54 54 51 53 55 58 54 55 57
2610.0 54 56 61 59 60 63 64 67 66 69
2650.0 69 71 77 75 81 82 87 90 91 89
2690.0 90 88 88 88 87 87 88 89 92 96
2730.0 101 101 110 116 121 124 120 116 110 110
2770.0 109 115 119 127 136 143 157 167 181 195
2810.0 204 221 238 252 277 305 338 383 452 548
2850.0 698 926 1262 1655 2023 2282 2345 2306 2239 2112
2890.0 1904 1643 1479 1492 1623 1820 2099 2450 2923 3529
2930.0 4227 4795 5119 5107 4781 4289 3819 3697 3986 4557
2970.0 4947 4575 3538 2327 1478 1086 883 754 652 564
3010.0 489 433 396 367 338 316 289 264 241 223
3050.0 207 195 184 179 172 167 164 163 153 148
3090.0 148 144 133 129 128 129 126 120 119 112
3130.0 114 114 112 110 112 109 108 109 104 99
3170.0 98 99 93 93 94 91 93 91 89 86
3210.0 83 83 83 79 77 73 72 70 67 67
3250.0 63 70 64 65 60 62 59 57 61 57
3290.0 55 55 59 54 51 54 56 51 54 55
3330.0 51 50 49 53 47 47 48 44 51 44
3370.0 46 42 52 53 48 42 46 42 45 45
3410.0 45 46 51 55 53 51 48 51 39 42
3450.0 53 47 54 56 54 53 65 69 102 104
3490.0 120 145 183 225 241 225 205 184 193 230
3530.0 204 216 225 212 241 229 232 344 616 1356
3570.0 2754 4372 5096 4685 3128 1537 672 326 188 153
3610.0 188 163 155 134 102 159 108 73 63 71
3650.0 137 96 60 61 38 87 103 107 63 53
3690.0 109 61 48 60 48 67 106 51 77 109
3730.0 59 109 127 74 144 133 100 82 56 61
3770.0 70 52 41 63 53 53 38 82 87 78
3810.0 60 58 100 76 70 40 71 94 106 48
3850.0 75 166 91 64 107 91 92 64 103 87
3890.0 73 65 67 114 113 43 58 63 76 72
3930.0 71 84 50 61 75 63 51 59 61 57
##END=
