##TITLE=5,6-Dimethyl-2,1,3-benzoselenadiazole
##JCAMP-DX=4.24
##DATA TYPE=INFRARED SPECTRUM
##ORIGIN=Sadtler Research Labs Under US-EPA Contract
##OWNER=NIST Standard Reference Data Program
##CAS REGISTRY NO=2626-34-8
##MOLFORM=C 8 H 8 N 2 Se
##XUNITS=1/CM
##YUNITS=ABSORBANCE
##XFACTOR=1.0
##YFACTOR=0.000080444
##DELTAX=4.0
##FIRSTX=450.0
##LASTX=3966.0
##FIRSTY=0.000000
##MAXX=3966
##MINX=450
##MAXY=0.80444
##MINY=0
##NPOINTS=880
##XYDATA=(X++(Y..Y))
450.0 0 172 257 147 153 174 143 135 175 216
490.0 332 415 591 708 593 516 388 277 190 146
530.0 122 102 101 70 77 80 87 75 138 191
570.0 483 969 1158 1115 707 184 141 162 198 217
610.0 203 167 133 129 106 103 89 102 81 114
650.0 130 123 107 84 68 60 119 82 163 239
690.0 451 777 1278 1664 1795 1678 1423 916 546 433
730.0 552 1132 2376 5384 8855 10000 8488 4334 1688 944
770.0 585 386 327 314 309 276 249 230 238 248
810.0 247 216 192 187 229 385 742 1373 2250 3126
850.0 4216 4530 3586 2842 2047 1272 801 505 346 231
890.0 187 169 150 148 140 153 158 217 282 306
930.0 275 222 157 130 128 131 147 171 200 218
970.0 239 238 242 269 316 455 774 1544 2541 3134
1010.0 3183 2447 1631 1252 1045 906 732 588 460 347
1050.0 288 236 210 183 164 137 126 112 107 107
1090.0 101 107 106 129 153 213 280 351 376 386
1130.0 365 294 240 201 187 182 181 179 185 204
1170.0 211 217 202 184 183 203 217 229 223 207
1210.0 194 186 190 194 209 214 216 210 227 259
1250.0 294 336 410 584 993 1826 3083 4451 5532 5874
1290.0 5171 3832 2312 1064 467 328 289 278 285 295
1330.0 347 422 592 901 1393 1807 1815 1471 884 575
1370.0 630 842 946 947 989 850 653 546 499 579
1410.0 645 728 821 936 1111 1441 1979 2740 3676 4350
1450.0 4605 4401 3955 3307 2619 2043 1613 1540 1747 2007
1490.0 2150 2022 1737 1488 1292 1069 782 515 385 320
1530.0 290 281 297 314 315 306 283 285 263 248
1570.0 245 233 230 230 225 244 258 280 298 323
1610.0 346 359 405 436 468 444 423 361 273 205
1650.0 179 156 149 154 181 206 220 197 186 179
1690.0 192 244 345 457 571 660 708 726 667 534
1730.0 392 307 228 185 151 139 122 121 120 120
1770.0 123 131 127 136 142 138 133 123 117 102
1810.0 90 81 75 69 70 66 64 61 69 72
1850.0 75 75 81 84 95 107 119 135 150 164
1890.0 165 151 133 110 96 83 72 63 60 59
1930.0 56 54 53 51 50 50 51 57 62 67
1970.0 74 82 83 91 93 97 100 98 98 99
2010.0 98 93 89 82 74 64 63 69 69 70
2050.0 73 75 73 72 72 71 74 79 82 86
2090.0 83 78 74 69 68 65 61 62 65 66
2130.0 69 76 72 76 74 74 76 77 76 76
2170.0 76 77 82 91 106 127 142 147 131 105
2210.0 84 72 66 64 64 60 62 65 64 60
2250.0 57 51 55 50 51 54 54 52 59 60
2290.0 64 67 72 71 67 66 63 57 56 60
2330.0 50 50 50 49 51 93 50 72 50 50
2370.0 50 53 64 81 86 94 100 101 103 100
2410.0 103 97 93 87 88 84 87 90 95 101
2450.0 103 105 104 100 98 96 99 99 104 102
2490.0 104 110 114 120 127 127 119 109 106 97
2530.0 88 82 78 81 84 88 96 102 103 109
2570.0 103 98 97 92 90 83 86 85 87 92
2610.0 96 101 107 115 128 146 159 168 163 151
2650.0 136 122 114 116 115 115 118 126 134 142
2690.0 160 179 193 191 179 162 151 145 150 165
2730.0 186 208 255 323 353 341 288 221 198 208
2770.0 236 256 262 244 222 222 227 232 238 247
2810.0 258 274 293 316 331 355 387 426 491 581
2850.0 697 864 1100 1402 1727 1990 2089 2028 1844 1632
2890.0 1473 1389 1356 1373 1427 1593 1954 2579 3369 4310
2930.0 5156 5392 5098 4298 3562 3239 3361 3524 3377 3171
2970.0 3049 3075 3323 3593 3513 3339 2857 2109 1548 1148
3010.0 931 838 833 900 1004 1139 1232 1269 1241 1215
3050.0 1214 1416 1653 1639 1432 1016 713 639 615 619
3090.0 615 613 599 569 525 472 427 392 373 355
3130.0 345 328 314 297 275 257 235 211 195 173
3170.0 162 142 142 125 119 114 111 106 102 99
3210.0 96 92 98 92 95 98 94 100 105 107
3250.0 108 115 118 114 109 103 89 82 85 83
3290.0 86 77 73 65 63 63 64 61 60 68
3330.0 71 68 65 66 69 69 68 64 61 63
3370.0 57 55 57 57 60 61 55 61 62 59
3410.0 56 61 61 67 59 63 63 63 62 65
3450.0 72 72 68 76 67 70 71 76 61 68
3490.0 70 68 70 74 71 74 68 66 71 67
3530.0 71 62 57 66 67 71 67 65 73 71
3570.0 78 67 74 88 81 69 70 71 73 62
3610.0 61 64 66 66 76 69 65 72 68 69
3650.0 63 72 63 54 58 58 68 54 67 56
3690.0 64 59 61 50 59 64 61 63 55 65
3730.0 68 62 51 56 58 68 68 76 61 60
3770.0 58 61 63 64 65 64 64 72 72 76
3810.0 84 80 73 75 68 65 57 68 71 76
3850.0 65 69 71 72 62 63 55 67 75 67
3890.0 73 74 77 67 72 61 76 76 74 78
3930.0 91 75 79 81 77 75 66 72 65 82
##END=
