##TITLE=Ethanone, 2-bromo-1-(4-methoxyphenyl)-
##JCAMP-DX=4.24
##DATA TYPE=INFRARED SPECTRUM
##ORIGIN=Sadtler Research Labs Under US-EPA Contract
##OWNER=NIST Standard Reference Data Program
##CAS REGISTRY NO=2632-13-5
##MOLFORM=C 9 H 9 Br O 2
##XUNITS=1/CM
##YUNITS=ABSORBANCE
##XFACTOR=1.0
##YFACTOR=0.000100330
##DELTAX=4.0
##FIRSTX=450.0
##LASTX=3966.0
##FIRSTY=0.000000
##MAXX=3966
##MINX=450
##MAXY=1.0033
##MINY=0
##NPOINTS=880
##XYDATA=(X++(Y..Y))
450.0 0 3 18 58 92 84 120 145 179 204
490.0 247 285 286 316 350 384 436 517 563 588
530.0 589 554 544 523 530 556 616 665 749 818
570.0 902 990 1118 1219 1422 1552 1573 1549 1320 1042
610.0 767 637 559 524 515 508 488 455 392 351
650.0 343 334 318 301 327 355 377 412 426 413
690.0 401 371 361 333 308 277 265 238 245 255
730.0 255 254 273 265 269 264 295 324 337 341
770.0 316 299 291 308 338 402 506 638 753 772
810.0 712 645 685 819 980 1203 1431 1606 1621 1431
850.0 1101 784 523 372 304 277 263 245 245 237
890.0 246 233 233 224 213 211 199 212 208 207
930.0 221 244 271 316 398 466 491 487 448 410
970.0 438 505 592 679 727 757 770 877 1021 1085
1010.0 1109 1228 1435 1553 1527 1526 1653 1764 1688 1416
1050.0 1054 727 546 459 413 387 380 372 355 346
1090.0 342 357 406 512 688 846 890 846 779 719
1130.0 683 635 627 644 680 762 930 1272 2023 3561
1170.0 5493 6426 5738 3700 2121 1497 1285 1197 1182 1171
1210.0 1140 1092 1113 1210 1412 1711 2204 3037 4175 5738
1250.0 7614 9325 10000 9326 7423 5726 4763 4203 3788 3384
1290.0 3014 2851 2811 2785 2675 2535 2377 2089 1679 1231
1330.0 911 769 691 662 662 703 786 884 902 832
1370.0 676 499 405 346 338 341 363 415 502 635
1410.0 780 958 1077 1241 1463 1587 1408 1103 893 848
1450.0 802 767 746 840 993 1063 984 813 636 539
1490.0 571 694 1014 1585 2400 2990 2831 1908 1009 579
1530.0 465 401 398 399 426 465 509 576 730 993
1570.0 1370 1854 2258 2528 2739 3303 4239 5440 6275 6408
1610.0 5346 3895 2531 1560 1006 698 535 438 413 406
1650.0 406 438 468 519 563 673 821 1191 1723 2704
1690.0 3797 4670 4800 4196 3339 2391 1703 1189 886 624
1730.0 473 337 297 243 221 198 202 191 183 186
1770.0 158 142 123 117 97 90 84 85 83 89
1810.0 84 74 74 62 61 49 54 55 51 50
1850.0 55 66 65 73 68 67 67 72 74 77
1890.0 86 94 99 98 105 96 93 94 91 101
1930.0 105 111 109 105 97 91 80 77 73 70
1970.0 76 80 81 78 76 65 65 64 60 58
2010.0 61 63 62 66 68 72 75 87 93 108
2050.0 122 131 141 145 147 141 132 122 105 90
2090.0 77 69 61 61 56 53 48 45 39 33
2130.0 28 22 18 13 13 15 19 19 20 26
2170.0 31 35 37 42 41 39 36 30 24 22
2210.0 19 17 15 10 8 5 4 4 3 5
2250.0 6 8 8 10 13 13 18 25 28 38
2290.0 48 56 64 68 70 71 63 51 43 40
2330.0 30 31 17 27 38 46 52 37 24 33
2370.0 38 39 42 48 42 31 32 32 40 40
2410.0 39 40 38 40 39 43 40 33 25 23
2450.0 23 24 22 24 24 23 30 28 32 31
2490.0 32 34 35 41 44 49 52 56 59 60
2530.0 63 64 68 77 86 94 110 123 130 135
2570.0 127 118 108 99 92 80 76 71 69 66
2610.0 61 59 60 57 52 49 47 45 38 37
2650.0 34 25 24 23 21 18 19 20 21 24
2690.0 26 25 26 26 26 27 25 23 25 28
2730.0 31 27 31 32 34 41 47 44 50 51
2770.0 55 60 62 61 63 58 65 74 76 82
2810.0 88 101 114 133 149 180 228 315 463 638
2850.0 725 686 509 344 264 219 199 187 192 196
2890.0 207 227 257 290 336 404 465 516 543 553
2930.0 540 555 625 760 898 964 971 930 931 911
2970.0 840 740 645 562 489 433 397 413 463 591
3010.0 796 950 915 691 435 326 294 295 321 333
3050.0 328 321 310 299 296 308 323 356 376 360
3090.0 304 270 263 256 245 221 192 168 147 128
3130.0 112 101 86 77 76 81 70 66 58 53
3170.0 49 48 38 33 34 35 29 26 30 29
3210.0 24 26 22 20 16 22 14 23 18 12
3250.0 16 17 11 12 14 13 16 23 16 16
3290.0 17 17 13 16 16 11 17 15 19 16
3330.0 18 11 17 15 20 19 25 35 52 61
3370.0 66 64 59 50 46 46 34 26 18 16
3410.0 16 18 22 14 19 12 15 17 10 5
3450.0 8 8 6 4 10 5 4 9 10 3
3490.0 12 13 7 8 18 11 12 5 8 9
3530.0 17 15 14 20 33 26 11 24 15 23
3570.0 21 6 9 24 25 14 13 15 8 16
3610.0 29 17 12 10 9 9 24 43 50 67
3650.0 62 53 34 19 15 15 16 24 22 14
3690.0 20 12 26 19 10 13 18 19 14 13
3730.0 24 23 26 17 31 7 18 9 3 13
3770.0 7 8 3 4 5 9 14 3 12 18
3810.0 6 6 3 3 5 3 10 8 10 10
3850.0 17 4 19 20 19 23 22 16 27 35
3890.0 27 10 16 35 22 13 29 29 3 28
3930.0 24 11 24 52 26 33 28 20 14 21
##END=
