##TITLE=Phenol, 2,6-diallyl-,
##JCAMP-DX=4.24
##DATA TYPE=INFRARED SPECTRUM
##ORIGIN=Sadtler Research Labs Under US-EPA Contract
##OWNER=NIST Standard Reference Data Program
##CAS REGISTRY NO=26338-58-9
##MOLFORM=C 12 H 14 O
##XUNITS=1/CM
##YUNITS=ABSORBANCE
##XFACTOR=1.0
##YFACTOR=0.000090347
##DELTAX=4.0
##FIRSTX=450.0
##LASTX=3966.0
##FIRSTY=0.018702
##MAXX=3966
##MINX=450
##MAXY=0.90347
##MINY=0
##NPOINTS=880
##XYDATA=(X++(Y..Y))
450.0 207 454 314 244 201 218 266 301 385 446
490.0 586 574 559 591 517 547 524 556 681 686
530.0 706 469 1532 666 630 640 634 583 613 688
570.0 366 482 34 307 320 371 479 554 586 573
610.0 478 435 385 358 313 382 423 466 471 545
650.0 585 626 609 578 518 579 596 573 504 389
690.0 255 119 68 29 17 15 6 61 120 358
730.0 823 1750 3210 4969 6430 6331 4586 2957 1693 1137
770.0 1138 1394 1567 1554 1416 1039 677 418 286 219
810.0 226 284 439 717 1191 1556 1719 1588 1245 801
850.0 503 354 335 376 473 641 746 870 1002 1154
890.0 1400 1807 2448 3454 4950 6710 8030 8511 7747 6167
930.0 4430 2920 1961 1415 1100 962 944 1016 1100 1232
970.0 1318 1454 1651 2072 2780 3815 4755 4897 4169 2829
1010.0 1516 850 573 463 422 403 389 390 396 442
1050.0 473 566 743 996 1325 1624 1748 1696 1561 1424
1090.0 1332 1356 1415 1498 1483 1377 1146 906 668 553
1130.0 492 422 443 467 495 605 743 969 1267 1598
1170.0 2109 2749 3658 4799 5982 7049 7947 8607 8924 8702
1210.0 7768 6312 4804 3569 2831 2344 2110 2141 2477 3200
1250.0 4215 5434 6171 6062 5135 3796 2695 2056 1788 1736
1290.0 1803 1884 1971 2020 2047 2100 2258 2531 2766 2776
1330.0 2446 1852 1266 765 468 327 254 218 208 163
1370.0 160 185 186 205 247 271 342 440 586 813
1410.0 1085 1294 1461 1588 1980 2625 3573 4304 4496 4362
1450.0 4466 5574 7699 9649 10000 8917 6142 3657 2267 1615
1490.0 1296 1163 1186 1214 1148 941 642 432 297 200
1530.0 192 150 158 117 122 115 123 138 70 112
1570.0 147 221 281 482 742 1032 1209 1245 1058 822
1610.0 687 685 739 916 1335 2098 3257 4194 4345 3539
1650.0 2232 1181 717 551 512 516 535 454 444 297
1690.0 232 206 200 151 164 139 129 112 34 7
1730.0 47 56 44 57 109 126 111 138 135 135
1770.0 178 174 170 165 147 149 140 147 164 159
1810.0 205 260 333 427 552 632 666 669 684 684
1850.0 644 568 481 372 271 216 148 105 102 79
1890.0 71 82 118 171 237 289 282 209 121 54
1930.0 24 26 23 41 47 29 28 15 19 43
1970.0 47 58 63 79 69 79 70 52 50 30
2010.0 35 29 32 32 36 28 12 29 28 15
2050.0 16 6 12 22 22 20 22 1 13 15
2090.0 45 54 52 47 45 49 35 36 29 7
2130.0 16 21 33 15 11 16 24 24 13 7
2170.0 27 34 45 49 48 59 52 57 55 51
2210.0 56 50 39 30 28 6 18 28 28 17
2250.0 17 24 23 29 28 36 24 32 37 55
2290.0 71 78 91 94 106 104 103 104 93 115
2330.0 108 71 47 46 54 67 105 85 36 2
2370.0 1 0 20 36 66 55 84 79 84 90
2410.0 89 78 76 72 76 75 73 63 70 72
2450.0 64 64 60 53 64 62 77 87 73 84
2490.0 96 98 96 101 113 135 125 130 112 115
2530.0 110 87 85 78 60 76 58 61 57 45
2570.0 32 40 32 18 29 29 39 29 38 55
2610.0 46 71 58 71 69 77 79 83 100 112
2650.0 111 111 81 81 42 32 29 29 8 23
2690.0 48 27 37 41 44 37 38 49 49 44
2730.0 66 66 55 63 67 57 54 60 53 38
2770.0 42 48 42 42 37 55 67 94 146 171
2810.0 202 240 278 334 438 585 803 1073 1389 1594
2850.0 1709 1698 1568 1385 1183 1036 952 948 1017 1157
2890.0 1384 1667 2004 2378 2731 3112 3448 3700 3862 3858
2930.0 3580 3079 2540 2043 1697 1465 1295 1182 1110 1100
2970.0 1224 1497 1948 2567 3017 3012 2567 2014 1817 2200
3010.0 2963 3546 3574 3190 2772 2874 3081 3087 2824 2575
3050.0 2579 2816 3101 3428 3673 3873 3983 4074 4544 5332
3090.0 5740 4914 3532 2086 1183 767 525 377 298 241
3130.0 209 183 165 164 140 123 98 107 108 101
3170.0 107 123 106 106 117 117 106 83 97 74
3210.0 76 48 49 71 55 42 44 29 40 25
3250.0 22 22 18 20 47 47 53 34 29 47
3290.0 41 37 37 8 21 17 16 37 55 23
3330.0 17 39 19 44 25 37 20 38 38 33
3370.0 33 59 84 59 66 55 63 68 54 70
3410.0 63 81 71 77 88 96 125 104 121 129
3450.0 112 131 132 133 140 164 212 233 208 259
3490.0 274 259 286 331 356 441 503 626 759 915
3530.0 993 1088 1185 1293 1400 1460 1541 1682 1932 2379
3570.0 3109 4190 5420 6499 7102 7485 7441 7112 6543 5598
3610.0 4548 3449 2516 1862 1439 1163 1091 1071 1190 1399
3650.0 1631 1675 1507 1180 830 624 411 267 191 158
3690.0 142 93 94 125 88 88 79 88 89 96
3730.0 68 72 51 33 21 4 5 22 1 18
3770.0 26 50 32 18 22 17 54 43 56 37
3810.0 43 25 34 36 55 52 67 68 60 80
3850.0 102 108 109 102 123 129 139 136 136 162
3890.0 146 138 154 158 139 120 99 90 80 59
3930.0 61 86 88 109 110 112 118 126 89 63
##END=
