##TITLE=Ethanone, 1-(3,4-dichlorophenyl)-
##JCAMP-DX=4.24
##DATA TYPE=INFRARED SPECTRUM
##ORIGIN=Sadtler Research Labs Under US-EPA Contract
##OWNER=NIST Standard Reference Data Program
##CAS REGISTRY NO=2642-63-9
##MOLFORM=C 8 H 6 Cl 2 O
##XUNITS=1/CM
##YUNITS=ABSORBANCE
##XFACTOR=1.0
##YFACTOR=0.000060938
##DELTAX=4.0
##FIRSTX=450.0
##LASTX=3966.0
##FIRSTY=0.002316
##MAXX=3966
##MINX=450
##MAXY=0.60938
##MINY=0
##NPOINTS=880
##XYDATA=(X++(Y..Y))
450.0 38 71 35 39 131 247 367 372 269 181
490.0 45 0 129 227 391 595 608 718 835 695
530.0 749 744 607 522 538 380 371 460 498 603
570.0 574 396 304 198 87 93 19 150 285 441
610.0 656 930 1076 961 696 356 266 99 140 211
650.0 103 107 148 176 351 845 1415 1820 1596 1030
690.0 427 222 231 320 357 293 248 161 47 87
730.0 181 94 123 174 84 55 71 133 128 83
770.0 107 63 130 189 205 234 252 308 487 855
810.0 1350 2094 2328 2479 2556 2182 1602 934 445 212
850.0 158 106 219 254 266 374 437 542 654 504
890.0 499 494 446 490 452 356 313 259 217 238
930.0 241 235 279 387 598 875 1126 1268 1224 1010
970.0 798 565 388 305 274 280 280 262 250 266
1010.0 273 356 549 978 1761 2751 3004 2811 1883 897
1050.0 507 338 336 380 412 527 729 942 1073 1032
1090.0 830 615 435 391 416 494 632 867 1109 1412
1130.0 1715 1906 1833 1593 1114 772 578 444 353 299
1170.0 297 310 322 307 295 290 284 307 340 449
1210.0 543 744 1118 1833 3541 6303 8392 10000 9020 6427
1250.0 4793 3684 3831 5043 6466 6726 5630 3651 1962 1005
1290.0 563 374 316 261 267 284 261 252 226 188
1330.0 197 238 298 415 603 929 1378 1715 1920 2106
1370.0 2456 3153 3859 4216 4072 3398 2552 1681 1067 767
1410.0 652 609 586 620 653 671 693 681 658 641
1450.0 635 755 964 1336 1668 1732 1446 1029 642 380
1490.0 275 223 187 204 188 198 221 223 245 265
1530.0 318 376 484 691 983 1276 1496 1540 1386 1216
1570.0 1118 1238 1527 1794 1893 1747 1393 1028 725 522
1610.0 429 383 327 333 336 298 272 241 200 191
1650.0 217 218 339 449 568 663 663 614 613 703
1690.0 1046 1758 3336 6041 8724 9736 8974 6095 3252 1672
1730.0 959 653 585 597 653 714 713 613 467 335
1770.0 227 162 138 149 148 159 179 159 141 125
1810.0 92 84 92 85 90 88 86 81 66 57
1850.0 75 83 108 125 107 91 88 78 97 129
1890.0 135 148 143 111 86 77 67 76 83 93
1930.0 109 87 85 52 36 42 41 34 50 42
1970.0 35 43 34 36 43 34 38 43 28 42
2010.0 35 26 34 34 26 42 36 34 48 46
2050.0 44 60 46 40 44 40 41 42 41 51
2090.0 41 33 33 26 26 35 24 34 34 18
2130.0 17 16 17 19 32 33 36 24 17 17
2170.0 17 22 39 41 48 40 24 30 32 18
2210.0 36 40 39 45 32 17 16 15 16 32
2250.0 32 39 38 20 20 19 22 46 63 62
2290.0 56 48 32 38 40 51 69 70 75 66
2330.0 19 33 17 13 69 38 46 74 36 36
2370.0 86 69 83 83 56 48 34 23 30 23
2410.0 30 47 37 37 34 25 30 29 23 29
2450.0 38 29 29 37 23 29 37 23 39 28
2490.0 37 46 39 52 54 53 61 53 44 71
2530.0 85 87 105 104 101 96 64 53 44 37
2570.0 45 36 26 30 19 16 35 26 30 51
2610.0 36 28 28 11 21 35 35 44 41 24
2650.0 25 14 11 33 42 43 52 35 27 18
2690.0 12 13 36 39 47 41 27 11 12 18
2730.0 27 34 43 41 24 10 10 6 16 24
2770.0 25 45 36 12 11 13 13 30 43 43
2810.0 54 40 39 36 28 53 63 62 86 73
2850.0 54 68 59 53 71 62 60 69 57 48
2890.0 42 49 59 64 67 78 70 78 114 125
2930.0 151 179 174 164 149 125 127 133 143 182
2970.0 199 222 244 205 198 178 152 159 186 195
3010.0 298 389 418 410 340 233 166 119 90 106
3050.0 115 130 148 180 244 318 348 369 339 291
3090.0 274 238 186 162 127 86 101 110 106 105
3130.0 87 71 54 34 51 60 65 88 65 48
3170.0 49 19 25 51 52 66 72 39 29 29
3210.0 11 35 35 51 77 50 36 28 16 31
3250.0 48 33 62 74 38 30 30 24 40 47
3290.0 44 54 45 43 37 18 41 57 42 49
3330.0 57 42 43 34 31 45 51 58 64 56
3370.0 43 68 53 93 103 134 197 228 214 214
3410.0 174 112 105 72 47 56 47 56 72 65
3450.0 63 55 41 40 38 50 65 58 58 67
3490.0 34 19 44 36 52 80 66 57 43 28
3530.0 27 47 44 69 69 77 48 32 38 34
3570.0 46 78 77 55 58 59 16 40 56 50
3610.0 67 69 58 56 27 15 38 53 65 76
3650.0 59 59 59 18 42 43 53 82 83 60
3690.0 55 48 36 62 63 72 78 69 64 55
3730.0 50 54 59 64 90 63 72 66 65 67
3770.0 66 82 91 88 70 71 57 52 64 68
3810.0 76 84 68 69 83 54 69 79 69 75
3850.0 65 68 79 79 79 79 79 72 74 71
3890.0 80 98 96 112 106 75 75 74 74 91
3930.0 122 133 124 102 76 57 17 20 20 21
##END=
