##TITLE=Pyridine, 4,4'-dithiobis-
##JCAMP-DX=4.24
##DATA TYPE=INFRARED SPECTRUM
##ORIGIN=Sadtler Research Labs Under US-EPA Contract
##OWNER=NIST Standard Reference Data Program
##CAS REGISTRY NO=2645-22-9
##MOLFORM=C 10 H 8 N 2 S 2
##XUNITS=1/CM
##YUNITS=ABSORBANCE
##XFACTOR=1.0
##YFACTOR=0.000068665
##DELTAX=4.0
##FIRSTX=450.0
##LASTX=3966.0
##FIRSTY=0.000000
##MAXX=3966
##MINX=450
##MAXY=0.68665
##MINY=0
##NPOINTS=880
##XYDATA=(X++(Y..Y))
450.0 0 236 328 403 413 546 625 787 965 1034
490.0 953 856 748 649 521 494 527 581 686 835
530.0 881 826 784 663 548 458 368 288 253 269
570.0 243 239 226 225 229 208 207 199 224 184
610.0 212 187 193 182 199 208 212 207 211 204
650.0 197 227 264 259 280 361 402 426 511 648
690.0 905 1132 1378 1553 1759 1786 1601 1138 692 439
730.0 312 286 275 288 283 291 286 292 298 313
770.0 347 384 465 589 830 1157 1626 2083 2195 2037
810.0 1801 1497 1243 1011 765 583 483 434 371 357
850.0 297 254 234 220 212 221 208 218 224 222
890.0 237 243 245 241 243 242 242 241 244 248
930.0 247 245 245 239 245 243 243 245 247 249
970.0 267 295 341 405 438 434 381 316 265 233
1010.0 206 187 179 184 176 168 171 167 163 155
1050.0 168 199 286 547 751 747 603 362 310 357
1090.0 414 466 468 441 400 384 379 388 388 390
1130.0 387 382 385 384 353 331 345 339 362 371
1170.0 349 345 344 359 372 382 373 381 419 481
1210.0 607 717 725 671 553 433 366 323 319 311
1250.0 313 313 307 306 301 329 313 310 314 322
1290.0 334 344 341 354 396 442 489 499 481 474
1330.0 484 508 569 604 561 533 523 565 536 460
1370.0 548 674 703 732 778 894 1081 1359 1574 1590
1410.0 1412 1161 962 675 531 447 445 436 393 383
1450.0 399 434 527 592 792 1203 1607 1773 1540 1230
1490.0 904 672 577 503 530 578 536 572 631 667
1530.0 801 997 1291 1583 1880 2252 3265 5232 8464 10000
1570.0 9122 6195 3409 2162 1575 1199 957 848 743 629
1610.0 560 501 473 397 386 343 371 366 350 370
1650.0 401 397 367 338 358 375 386 340 346 319
1690.0 267 245 282 278 250 221 238 278 228 219
1730.0 245 279 232 223 235 244 259 243 255 231
1770.0 265 246 234 235 237 231 245 229 240 222
1810.0 215 222 221 239 239 262 239 234 234 245
1850.0 215 195 188 184 185 194 178 170 181 177
1890.0 192 194 205 213 231 256 281 312 336 332
1930.0 323 300 274 254 238 210 207 196 185 177
1970.0 179 169 170 167 167 175 168 168 164 166
2010.0 169 177 186 195 198 210 224 243 260 267
2050.0 269 256 243 238 267 305 307 282 232 194
2090.0 172 163 162 159 160 159 161 159 161 161
2130.0 162 166 170 171 168 170 167 167 169 173
2170.0 174 177 176 176 172 168 169 166 167 163
2210.0 165 161 158 158 155 157 158 156 160 159
2250.0 160 160 166 165 169 174 181 192 201 213
2290.0 218 224 240 245 248 256 239 233 236 215
2330.0 202 200 188 191 216 224 222 218 210 200
2370.0 208 211 229 237 224 206 201 205 219 232
2410.0 244 259 255 243 228 208 198 190 182 172
2450.0 166 166 168 165 168 167 170 173 170 170
2490.0 170 173 167 169 170 167 177 173 175 172
2530.0 169 169 168 172 175 172 176 175 173 172
2570.0 171 168 168 171 172 171 167 174 180 182
2610.0 180 186 187 191 199 205 210 199 196 186
2650.0 182 184 184 186 189 184 179 185 180 178
2690.0 174 174 175 176 170 171 172 173 173 175
2730.0 170 172 173 172 173 173 169 174 168 173
2770.0 171 171 168 169 169 166 168 167 171 173
2810.0 170 173 174 173 177 181 177 178 188 193
2850.0 197 198 195 203 205 210 209 202 198 192
2890.0 193 183 186 187 190 187 192 196 194 198
2930.0 203 215 245 273 300 320 319 317 303 280
2970.0 266 261 251 252 262 279 308 356 427 506
3010.0 586 635 656 664 697 799 951 1084 1173 1243
3050.0 1328 1386 1360 1297 1228 1210 1239 1192 1061 851
3090.0 636 476 361 301 256 240 223 215 197 189
3130.0 186 186 186 181 181 173 173 171 172 170
3170.0 171 167 173 171 171 174 169 172 167 166
3210.0 168 165 168 164 171 173 168 172 169 165
3250.0 167 169 170 163 162 168 169 176 171 169
3290.0 164 169 165 164 165 160 166 168 162 168
3330.0 163 164 159 165 167 163 163 160 166 164
3370.0 162 161 160 166 161 163 165 161 161 161
3410.0 165 168 167 161 167 161 162 165 155 160
3450.0 158 160 165 166 160 157 165 160 164 157
3490.0 160 162 160 179 169 172 166 160 164 161
3530.0 167 158 160 161 176 162 170 157 167 180
3570.0 190 169 165 176 174 176 167 164 168 159
3610.0 179 169 180 174 193 249 226 252 230 244
3650.0 249 244 232 194 174 188 170 187 157 183
3690.0 174 173 173 179 162 167 176 171 161 185
3730.0 184 201 193 200 216 180 188 155 165 174
3770.0 166 171 161 171 166 160 161 169 159 167
3810.0 155 160 155 181 158 162 165 179 160 164
3850.0 156 170 164 160 169 190 164 167 166 185
3890.0 173 184 162 185 180 170 155 155 172 160
3930.0 191 169 172 170 160 155 158 159 159 155
##END=
