##TITLE=Ethanol, 2-[(1-methylheptyl)amino]-
##JCAMP-DX=4.24
##DATA TYPE=INFRARED SPECTRUM
##ORIGIN=Sadtler Research Labs Under US-EPA Contract
##OWNER=NIST Standard Reference Data Program
##CAS REGISTRY NO=26535-68-2
##MOLFORM=C 10 H 23 N O
##XUNITS=1/CM
##YUNITS=ABSORBANCE
##XFACTOR=1.0
##YFACTOR=0.000134143
##DELTAX=4.0
##FIRSTX=450.0
##LASTX=3966.0
##FIRSTY=0.000000
##MAXX=3966
##MINX=450
##MAXY=1.34143
##MINY=0
##NPOINTS=880
##XYDATA=(X++(Y..Y))
450.0 0 174 267 249 150 141 68 97 182 186
490.0 268 130 76 229 51 56 147 158 153 156
530.0 148 131 129 202 154 103 154 102 157 111
570.0 118 142 62 153 198 135 106 86 121 117
610.0 198 127 91 158 184 205 190 151 195 218
650.0 240 280 249 316 342 381 384 392 440 479
690.0 529 569 540 584 601 643 652 661 657 667
730.0 640 583 514 468 486 434 392 269 298 255
770.0 243 226 190 194 173 168 170 158 154 111
810.0 126 134 135 149 125 137 146 166 170 167
850.0 169 179 229 275 271 332 391 421 422 401
890.0 381 345 347 315 296 265 262 245 229 252
930.0 219 220 205 245 231 191 211 221 229 232
970.0 229 238 249 296 303 340 340 345 409 460
1010.0 471 573 660 788 956 1102 1289 1509 1769 1982
1050.0 2127 2246 2315 2329 2190 1906 1560 1270 1064 943
1090.0 834 796 798 844 905 944 905 899 881 860
1130.0 844 859 892 1000 1096 1185 1220 1208 1120 990
1170.0 836 723 643 618 618 625 632 633 635 639
1210.0 649 624 604 595 590 601 562 505 496 469
1250.0 448 430 428 420 415 424 419 408 378 402
1290.0 411 438 438 478 498 536 575 632 683 770
1330.0 857 936 1011 1032 1001 972 984 977 1015 1074
1370.0 1148 1312 1399 1370 1286 1111 1004 981 963 951
1410.0 859 783 700 646 648 685 764 889 1032 1152
1450.0 1326 1464 1632 1783 1837 1732 1510 1219 929 715
1490.0 518 404 321 247 263 208 215 166 135 142
1530.0 120 128 120 92 130 99 87 76 70 90
1570.0 68 64 80 74 93 89 76 88 80 96
1610.0 87 95 96 116 143 124 136 145 154 178
1650.0 127 151 179 174 207 192 189 211 229 192
1690.0 189 179 195 187 186 147 140 129 143 140
1730.0 156 120 104 118 123 101 73 62 68 54
1770.0 62 52 71 68 83 75 81 70 85 67
1810.0 67 72 68 57 57 61 69 61 61 57
1850.0 64 60 62 63 66 60 64 58 51 55
1890.0 53 65 57 50 53 56 60 55 61 58
1930.0 55 63 63 60 59 57 57 58 55 54
1970.0 52 50 54 49 50 49 53 52 46 47
2010.0 49 49 58 56 52 56 55 55 55 55
2050.0 48 52 59 54 53 49 50 54 49 49
2090.0 54 54 58 50 49 51 54 54 54 57
2130.0 51 51 51 53 54 49 46 53 51 53
2170.0 47 50 52 55 52 51 48 48 52 55
2210.0 47 50 54 54 55 46 47 49 52 53
2250.0 54 51 54 55 58 57 56 54 54 59
2290.0 57 61 60 62 66 67 64 62 59 64
2330.0 69 74 65 67 73 80 73 76 61 73
2370.0 79 75 72 67 66 67 65 67 63 64
2410.0 70 71 71 67 69 69 69 69 67 64
2450.0 65 69 69 62 63 66 72 70 72 71
2490.0 68 72 77 74 73 75 80 86 88 83
2530.0 88 92 96 99 97 93 100 107 110 112
2570.0 114 119 127 130 133 134 139 149 154 156
2610.0 159 162 171 173 178 180 181 188 193 201
2650.0 208 213 223 233 242 246 248 257 261 265
2690.0 272 270 272 279 284 288 293 303 315 320
2730.0 329 330 339 349 362 362 366 378 396 425
2770.0 452 490 529 584 653 719 789 857 927 1016
2810.0 1104 1191 1294 1403 1529 1650 1769 1911 2093 2360
2850.0 2726 3216 3773 4205 4424 4394 4168 4001 3899 3822
2890.0 3669 3506 3503 3666 4005 4459 5001 5756 6764 8075
2930.0 9320 10000 9841 8904 7750 6613 5787 5571 5944 6623
2970.0 6867 6145 4787 3401 2365 1660 1201 927 750 633
3010.0 555 487 435 388 350 327 301 286 256 235
3050.0 220 214 211 195 182 177 177 176 168 161
3090.0 156 155 150 151 138 134 133 135 135 132
3130.0 125 124 121 126 123 117 115 124 119 121
3170.0 112 113 109 113 116 111 108 111 108 105
3210.0 102 82 82 86 77 72 69 70 72 67
3250.0 63 55 49 61 55 53 48 51 63 53
3290.0 54 47 47 52 56 57 52 50 53 54
3330.0 62 63 67 66 72 68 67 67 75 64
3370.0 70 67 66 65 66 64 68 73 64 64
3410.0 73 64 57 58 58 68 71 69 52 60
3450.0 69 75 72 73 72 76 75 79 74 69
3490.0 80 84 83 84 80 86 91 107 123 140
3530.0 159 188 210 230 257 305 318 355 353 347
3570.0 325 282 254 212 181 161 152 136 121 113
3610.0 98 91 99 88 88 85 93 126 152 154
3650.0 185 198 237 249 249 239 254 248 248 216
3690.0 150 117 97 107 78 62 68 70 62 76
3730.0 61 46 55 61 67 52 60 45 59 55
3770.0 56 50 45 45 56 65 56 45 45 45
3810.0 65 45 45 45 57 54 53 46 45 48
3850.0 56 44 56 45 45 59 72 45 46 70
3890.0 63 50 51 58 45 61 72 61 45 62
3930.0 77 86 70 46 47 82 73 57 56 61
##END=
