##TITLE=Pyrimidine, 2-(p-chlorophenylthio)-,
##JCAMP-DX=4.24
##DATA TYPE=INFRARED SPECTRUM
##ORIGIN=Sadtler Research Labs Under US-EPA Contract
##OWNER=NIST Standard Reference Data Program
##CAS REGISTRY NO=26547-31-9
##MOLFORM=C 10 H 7 Cl N 2 S
##XUNITS=1/CM
##YUNITS=ABSORBANCE
##XFACTOR=1.0
##YFACTOR=0.000118634
##DELTAX=4.0
##FIRSTX=450.0
##LASTX=3966.0
##FIRSTY=0.010440
##MAXX=3966
##MINX=450
##MAXY=1.18634
##MINY=0
##NPOINTS=880
##XYDATA=(X++(Y..Y))
450.0 88 142 77 71 78 109 83 69 72 99
490.0 123 166 249 354 450 529 498 410 250 149
530.0 90 73 53 68 69 106 138 132 114 59
570.0 39 7 18 26 32 48 89 90 65 44
610.0 26 40 73 194 372 400 303 96 40 25
650.0 26 23 31 24 28 28 23 17 15 14
690.0 30 27 33 52 50 45 50 57 73 100
730.0 160 296 627 1087 1298 1139 730 486 423 435
770.0 524 579 560 516 576 681 788 713 622 596
810.0 699 1057 1420 1459 1128 623 358 228 159 117
850.0 98 71 51 35 22 16 7 5 0 9
890.0 6 8 9 13 22 23 44 59 58 49
930.0 52 48 58 49 41 22 25 24 7 17
970.0 17 70 138 200 149 39 8 14 60 156
1010.0 825 1809 1859 1089 187 45 44 22 28 26
1050.0 45 39 66 92 144 208 322 529 855 1345
1090.0 2131 2848 2705 1675 897 686 536 357 243 195
1130.0 205 189 182 164 196 229 289 358 470 665
1170.0 1048 1605 2251 2869 3056 2771 2304 2215 2539 2575
1210.0 1988 1125 558 349 240 168 142 142 164 189
1250.0 211 228 213 169 121 87 58 44 40 46
1290.0 50 53 52 48 45 53 68 82 81 88
1330.0 96 107 161 180 188 245 324 463 684 1068
1370.0 1860 3508 6381 9490 10000 7223 4003 2134 1173 673
1410.0 459 302 316 291 339 337 340 329 336 358
1450.0 346 328 324 305 454 897 1869 2669 2324 1272
1490.0 509 286 275 256 311 356 341 367 433 461
1530.0 601 876 1363 2094 2889 3437 3781 4381 5461 5834
1570.0 4715 3061 1903 1321 818 504 337 253 202 178
1610.0 172 159 189 160 194 158 188 188 150 137
1650.0 158 144 90 70 68 67 88 37 89 94
1690.0 60 51 112 102 83 55 85 130 83 74
1730.0 98 137 77 64 76 96 79 88 102 100
1770.0 134 124 69 54 35 34 38 27 39 13
1810.0 17 21 14 27 38 50 34 19 29 39
1850.0 18 5 11 12 26 46 29 35 57 82
1890.0 107 106 86 62 43 34 31 35 44 32
1930.0 31 40 52 77 92 100 104 92 60 41
1970.0 22 12 8 6 3 13 12 5 4 4
2010.0 3 6 8 5 3 2 0 6 9 10
2050.0 9 7 4 3 7 2 0 1 0 1
2090.0 4 3 3 3 5 7 10 12 18 25
2130.0 30 31 26 20 17 19 17 17 14 11
2170.0 13 12 10 9 8 8 10 11 14 13
2210.0 14 14 14 18 23 28 30 31 30 23
2250.0 21 20 20 22 24 30 35 43 45 42
2290.0 35 28 25 28 27 30 31 31 30 30
2330.0 25 17 15 29 24 40 33 30 32 35
2370.0 25 21 19 22 22 21 20 21 24 28
2410.0 31 27 25 21 19 18 13 11 12 19
2450.0 26 33 32 24 12 9 7 4 5 7
2490.0 6 8 11 8 13 10 15 17 21 24
2530.0 24 27 30 31 31 29 26 27 31 33
2570.0 33 31 28 25 23 22 20 19 17 16
2610.0 16 17 18 19 20 18 16 13 10 12
2650.0 10 13 18 20 19 19 19 13 13 12
2690.0 15 13 13 15 12 7 7 8 5 3
2730.0 3 7 8 9 8 5 2 2 2 1
2770.0 1 0 0 2 4 5 8 14 15 18
2810.0 15 14 9 6 5 4 5 4 4 3
2850.0 5 1 4 4 2 4 3 5 4 4
2890.0 6 6 6 12 14 17 23 30 42 55
2930.0 68 73 75 70 59 49 43 51 60 73
2970.0 81 79 65 48 36 29 30 33 40 42
3010.0 59 67 86 111 176 273 441 717 912 930
3050.0 745 478 304 204 204 211 214 217 240 273
3090.0 284 252 210 198 203 223 222 190 155 134
3130.0 125 109 90 63 45 30 24 17 14 9
3170.0 8 11 9 7 8 9 8 8 7 11
3210.0 12 4 5 7 6 3 5 6 9 8
3250.0 4 6 2 8 5 7 5 6 4 8
3290.0 5 3 3 5 5 4 6 8 8 7
3330.0 5 7 4 8 5 1 6 8 5 8
3370.0 3 9 7 7 4 5 6 6 4 5
3410.0 7 9 3 8 5 4 11 6 2 4
3450.0 3 0 4 9 3 6 8 5 6 5
3490.0 5 2 4 8 7 9 1 3 4 7
3530.0 0 4 7 5 7 5 2 5 6 4
3570.0 3 6 10 6 10 9 9 8 6 7
3610.0 6 10 8 10 7 4 7 1 10 12
3650.0 10 11 15 7 10 10 13 9 12 12
3690.0 13 10 9 11 14 16 14 14 13 12
3730.0 10 4 3 11 10 9 5 8 6 6
3770.0 5 7 11 9 11 12 8 7 10 15
3810.0 14 16 15 12 16 11 26 28 15 15
3850.0 9 8 10 5 8 9 8 12 7 10
3890.0 6 4 3 1 15 2 9 7 8 6
3930.0 0 11 1 1 1 3 1 0 0 10
##END=
