##TITLE=Hexadecane, 1-(5,6,7,8-tetrahydro-2-naphthyl)-,
##JCAMP-DX=4.24
##DATA TYPE=INFRARED SPECTRUM
##ORIGIN=Sadtler Research Labs Under US-EPA Contract
##OWNER=NIST Standard Reference Data Program
##CAS REGISTRY NO=2655-96-1
##MOLFORM=C 26 H 44
##XUNITS=1/CM
##YUNITS=ABSORBANCE
##XFACTOR=1.0
##YFACTOR=0.000041501
##DELTAX=4.0
##FIRSTX=450.0
##LASTX=3966.0
##FIRSTY=0.002158
##MAXX=3966
##MINX=450
##MAXY=0.41501
##MINY=0
##NPOINTS=880
##XYDATA=(X++(Y..Y))
450.0 52 42 73 141 108 131 76 85 108 102
490.0 52 55 95 84 59 47 26 30 28 94
530.0 68 35 78 73 72 54 30 90 65 59
570.0 51 99 69 77 68 70 87 64 56 71
610.0 93 106 66 74 68 59 53 23 42 40
650.0 64 39 50 53 58 102 72 66 101 92
690.0 123 129 155 178 197 217 241 263 262 245
730.0 246 221 209 175 166 159 175 156 164 137
770.0 149 152 163 151 147 169 208 262 329 398
810.0 380 322 325 369 377 306 246 165 166 171
850.0 153 142 139 145 145 150 166 191 201 177
890.0 159 147 160 172 199 229 208 181 151 143
930.0 123 134 150 146 150 144 119 121 110 115
970.0 113 104 102 100 115 123 109 94 88 65
1010.0 64 60 60 51 59 55 55 59 72 77
1050.0 71 73 82 92 94 93 88 92 77 80
1090.0 90 82 88 100 105 109 117 127 139 146
1130.0 143 151 157 153 147 160 163 142 136 129
1170.0 123 121 119 123 123 125 134 146 155 160
1210.0 154 152 149 155 156 162 169 184 212 235
1250.0 219 188 174 166 166 187 213 240 269 271
1290.0 264 266 269 267 264 261 255 256 257 260
1330.0 281 300 339 367 408 456 437 377 350 325
1370.0 295 290 294 271 235 206 199 200 201 209
1410.0 231 259 318 335 361 414 541 695 821 893
1450.0 983 1057 1116 1144 990 740 510 390 323 325
1490.0 361 459 642 746 523 325 215 164 135 109
1530.0 108 87 98 95 106 103 95 98 90 130
1570.0 144 166 132 126 101 99 100 119 128 149
1610.0 176 192 154 115 101 73 67 50 52 28
1650.0 49 1 31 20 29 22 40 27 54 47
1690.0 71 72 74 67 83 82 90 85 84 79
1730.0 77 81 83 83 93 98 84 76 71 69
1770.0 69 65 67 70 62 61 47 51 53 44
1810.0 45 50 42 52 45 44 42 36 42 41
1850.0 47 41 41 45 42 43 37 34 40 47
1890.0 53 62 50 38 31 27 28 18 28 24
1930.0 18 25 18 21 23 16 17 15 15 23
1970.0 17 13 16 10 9 16 16 15 10 12
2010.0 15 18 20 21 16 20 21 21 22 20
2050.0 13 16 21 14 15 16 13 17 19 12
2090.0 10 11 9 11 8 11 15 12 11 13
2130.0 8 14 17 18 15 12 16 14 15 10
2170.0 14 9 14 15 12 15 12 15 6 11
2210.0 12 13 21 11 16 21 17 14 16 14
2250.0 18 20 16 17 20 20 27 35 41 53
2290.0 62 77 93 94 88 102 71 66 53 26
2330.0 15 9 0 2 23 56 16 25 0 7
2370.0 3 33 56 76 70 50 33 32 30 28
2410.0 32 30 31 28 29 30 29 29 19 24
2450.0 29 30 28 27 31 28 31 28 35 29
2490.0 31 36 33 37 38 39 40 32 39 45
2530.0 48 42 52 45 49 44 53 52 50 54
2570.0 57 61 64 64 67 63 65 72 66 79
2610.0 78 87 84 88 85 96 93 105 106 106
2650.0 121 129 140 144 148 145 148 147 143 135
2690.0 137 134 126 124 130 119 119 126 121 132
2730.0 129 132 147 149 153 156 161 165 176 189
2770.0 203 216 224 244 262 283 297 332 368 394
2810.0 429 482 544 619 717 860 1084 1406 1806 2352
2850.0 3174 4003 4434 4366 3874 3310 2821 2482 2332 2336
2890.0 2443 2656 2974 3356 3854 4497 5362 6492 7842 9170
2930.0 10000 9880 8783 7237 5756 4472 3443 2828 2470 2164
2970.0 1833 1455 1134 919 791 732 718 763 787 761
3010.0 675 581 507 452 405 362 346 361 370 366
3050.0 328 284 247 218 195 175 160 150 125 111
3090.0 101 85 94 82 77 96 85 80 72 73
3130.0 58 59 63 52 43 47 49 49 47 39
3170.0 38 35 41 43 38 37 34 41 37 34
3210.0 30 33 34 31 32 21 28 21 28 22
3250.0 29 22 18 20 19 32 28 25 14 16
3290.0 25 22 13 13 19 19 18 19 16 18
3330.0 12 21 23 17 15 28 23 26 8 13
3370.0 18 21 24 18 25 24 32 33 17 19
3410.0 26 29 26 29 18 28 34 32 27 25
3450.0 19 17 36 30 27 26 30 32 28 30
3490.0 22 23 22 26 31 34 29 28 25 26
3530.0 19 28 22 38 41 42 32 39 33 28
3570.0 29 30 23 36 49 29 35 29 23 35
3610.0 31 48 42 26 53 31 43 55 48 50
3650.0 42 58 44 41 43 32 47 33 63 57
3690.0 39 38 35 50 30 30 33 51 33 30
3730.0 49 38 28 56 52 61 42 55 55 47
3770.0 42 52 50 55 46 49 46 46 43 41
3810.0 36 37 50 46 58 40 61 48 38 35
3850.0 34 28 45 47 51 28 70 65 58 46
3890.0 62 69 51 26 63 39 64 70 56 86
3930.0 41 73 48 50 84 57 39 32 53 68
##END=
