##TITLE=Undecane, 6-pentyl-1-(5,6,7,8-tetrahydro-2-naphthyl)-,
##JCAMP-DX=4.24
##DATA TYPE=INFRARED SPECTRUM
##ORIGIN=Sadtler Research Labs Under US-EPA Contract
##OWNER=NIST Standard Reference Data Program
##CAS REGISTRY NO=2656-02-2
##MOLFORM=C 26 H 44
##XUNITS=1/CM
##YUNITS=ABSORBANCE
##XFACTOR=1.0
##YFACTOR=0.000084930
##DELTAX=4.0
##FIRSTX=450.0
##LASTX=3966.0
##FIRSTY=0.007559
##MAXX=3966
##MINX=450
##MAXY=0.8493
##MINY=0
##NPOINTS=880
##XYDATA=(X++(Y..Y))
450.0 89 47 62 95 57 53 81 51 28 49
490.0 68 32 65 61 31 45 33 37 69 61
530.0 65 71 79 84 78 59 77 89 90 111
570.0 108 87 109 119 83 89 101 97 117 111
610.0 88 111 83 73 66 54 58 52 57 54
650.0 54 49 59 47 59 95 83 76 97 92
690.0 123 146 157 169 190 205 226 258 303 323
730.0 336 319 278 246 212 179 190 180 189 184
770.0 201 187 187 187 193 218 272 358 489 590
810.0 561 450 430 503 523 395 280 197 150 133
850.0 112 115 113 101 86 96 145 175 157 130
890.0 109 98 96 108 143 194 175 114 75 58
930.0 48 54 64 65 79 64 35 28 24 20
970.0 21 11 16 22 41 63 44 31 26 17
1010.0 26 30 25 20 23 15 17 24 30 30
1050.0 37 41 49 53 67 56 51 54 49 48
1090.0 52 51 50 56 58 61 69 85 100 107
1130.0 104 111 112 109 115 130 119 90 76 66
1170.0 57 56 56 62 66 68 77 95 109 108
1210.0 101 99 98 105 114 122 132 160 197 233
1250.0 211 170 161 164 165 179 209 252 287 283
1290.0 267 265 263 261 252 243 240 252 268 287
1330.0 310 346 395 426 464 519 486 419 398 393
1370.0 383 409 483 428 317 247 224 221 223 236
1410.0 271 317 401 444 479 564 762 1041 1217 1298
1450.0 1436 1575 1679 1650 1389 1006 671 497 415 417
1490.0 485 636 912 1022 679 380 235 167 133 104
1530.0 96 73 77 80 79 70 71 83 80 105
1570.0 134 165 126 95 69 67 68 91 111 150
1610.0 195 208 155 94 67 44 41 30 26 13
1650.0 27 3 12 5 8 6 20 11 33 40
1690.0 58 53 54 40 42 34 37 38 31 29
1730.0 35 41 45 47 58 62 52 43 38 34
1770.0 34 34 29 31 25 26 18 18 18 12
1810.0 11 15 12 16 14 13 10 6 12 13
1850.0 16 15 21 20 18 18 16 17 25 36
1890.0 49 53 38 22 14 9 9 5 7 4
1930.0 3 5 0 4 4 0 1 0 1 2
1970.0 2 0 1 0 0 6 0 4 5 4
2010.0 6 8 11 11 11 12 14 13 14 14
2050.0 9 9 10 10 10 10 9 10 10 8
2090.0 6 5 5 5 5 7 10 5 7 7
2130.0 5 8 11 11 11 9 11 15 12 13
2170.0 13 13 14 14 14 15 12 13 11 12
2210.0 13 14 17 14 16 20 15 15 17 18
2250.0 20 18 19 18 20 21 23 24 29 33
2290.0 40 48 57 55 57 58 47 46 35 24
2330.0 16 19 15 19 31 43 24 33 19 32
2370.0 34 48 56 64 58 49 41 40 41 39
2410.0 39 40 37 34 36 34 31 34 33 33
2450.0 33 35 35 32 37 36 37 38 40 39
2490.0 42 42 43 49 49 51 56 52 55 59
2530.0 61 59 63 64 66 69 71 73 76 81
2570.0 84 85 89 95 97 97 100 104 104 109
2610.0 110 112 117 122 123 132 135 142 148 154
2650.0 169 184 198 203 203 198 196 192 186 182
2690.0 180 174 172 171 172 173 178 183 186 195
2730.0 205 208 215 214 220 221 228 236 249 266
2770.0 280 296 316 340 369 396 429 468 511 561
2810.0 618 693 784 903 1066 1305 1647 2120 2650 3259
2850.0 4059 4811 5267 5286 4897 4472 4077 3709 3532 3550
2890.0 3684 3959 4366 4824 5345 5971 6733 7598 8500 9354
2930.0 9952 10000 9386 8218 6944 5852 5095 4719 4389 3877
2970.0 3188 2445 1859 1499 1302 1214 1195 1237 1245 1150
3010.0 999 865 763 685 616 570 561 573 582 555
3050.0 486 419 361 322 294 271 251 229 195 168
3090.0 154 143 141 136 133 137 134 126 116 106
3130.0 94 88 84 78 70 68 68 66 66 61
3170.0 58 59 60 59 54 51 51 51 49 43
3210.0 41 38 39 38 32 31 28 27 31 26
3250.0 23 26 19 20 24 25 25 22 20 20
3290.0 22 21 14 18 17 19 25 26 19 22
3330.0 21 26 29 20 19 21 24 26 21 23
3370.0 26 24 24 18 22 26 25 26 22 23
3410.0 19 21 25 25 19 20 24 19 20 17
3450.0 14 13 22 22 20 19 20 20 22 16
3490.0 21 22 16 9 22 19 18 15 13 19
3530.0 13 23 17 19 19 19 18 21 19 17
3570.0 18 17 18 21 26 18 22 21 19 28
3610.0 24 35 34 27 36 20 29 35 34 30
3650.0 29 36 27 27 33 22 33 28 29 22
3690.0 29 23 30 26 25 26 17 29 25 19
3730.0 24 31 29 36 37 40 31 34 32 27
3770.0 34 30 28 28 35 24 24 35 27 31
3810.0 30 20 21 29 29 19 25 25 17 24
3850.0 23 16 30 21 30 13 29 29 29 21
3890.0 33 28 26 12 28 15 30 31 21 25
3930.0 26 36 21 25 32 27 21 29 22 28
##END=
