##TITLE=Hexadecane, 6-(5,6,7,8-tetrahydro-2-naphthyl)-
##JCAMP-DX=4.24
##DATA TYPE=INFRARED SPECTRUM
##ORIGIN=Sadtler Research Labs Under US-EPA Contract
##OWNER=NIST Standard Reference Data Program
##CAS REGISTRY NO=2657-50-3
##MOLFORM=C 26 H 44
##XUNITS=1/CM
##YUNITS=ABSORBANCE
##XFACTOR=1.0
##YFACTOR=0.000041956
##DELTAX=4.0
##FIRSTX=450.0
##LASTX=3966.0
##FIRSTY=0.017202
##MAXX=3966
##MINX=450
##MAXY=0.41956
##MINY=0
##NPOINTS=880
##XYDATA=(X++(Y..Y))
450.0 410 157 98 128 123 99 66 65 31 95
490.0 70 79 114 75 69 67 80 25 60 40
530.0 30 39 29 26 68 61 33 82 75 66
570.0 63 59 82 56 60 75 98 71 69 75
610.0 70 109 90 102 83 68 49 32 42 48
650.0 54 30 47 21 45 88 59 34 82 64
690.0 104 112 99 117 144 199 229 252 216 202
730.0 201 204 190 161 155 115 111 107 136 102
770.0 118 117 122 104 77 81 119 138 197 296
810.0 380 329 294 334 389 308 216 141 130 134
850.0 135 119 91 80 93 79 109 147 144 125
890.0 105 113 102 102 124 164 165 122 83 67
930.0 51 65 69 63 71 71 55 64 56 53
970.0 75 69 63 71 82 90 66 58 66 55
1010.0 68 59 64 42 55 41 41 53 53 52
1050.0 43 55 48 60 76 67 58 73 67 65
1090.0 76 76 80 88 90 81 83 92 100 101
1130.0 101 105 101 73 65 79 81 77 64 61
1170.0 56 51 50 58 57 65 67 75 78 86
1210.0 76 75 74 78 85 87 86 109 132 165
1250.0 176 142 138 142 129 133 143 166 187 198
1290.0 188 181 180 185 185 188 187 197 200 204
1330.0 214 236 272 310 360 418 416 360 309 296
1370.0 271 265 269 275 244 189 161 152 144 147
1410.0 168 185 241 260 274 277 335 427 588 696
1450.0 754 831 882 927 853 690 502 376 304 308
1490.0 346 448 573 595 418 255 165 121 99 80
1530.0 84 56 69 63 72 68 60 69 70 95
1570.0 114 145 105 97 66 65 64 81 95 130
1610.0 148 137 101 74 68 52 56 42 43 25
1650.0 48 5 29 19 19 17 39 23 41 35
1690.0 47 44 54 49 61 55 63 56 56 52
1730.0 51 50 56 56 67 73 66 65 61 50
1770.0 50 45 42 45 42 48 37 38 36 33
1810.0 33 34 30 40 35 36 35 28 34 29
1850.0 34 33 40 39 36 36 29 29 31 44
1890.0 48 59 51 40 37 29 30 23 34 32
1930.0 24 33 27 27 29 24 26 29 26 33
1970.0 27 22 26 26 23 36 26 29 30 31
2010.0 32 29 34 33 31 33 37 32 31 31
2050.0 27 26 29 25 23 27 22 28 28 23
2090.0 19 16 21 17 15 18 24 17 17 19
2130.0 18 15 18 16 19 17 19 22 19 11
2170.0 11 11 18 13 12 17 15 14 7 12
2210.0 11 12 15 12 13 12 8 5 7 7
2250.0 16 11 12 12 15 13 18 23 33 45
2290.0 61 78 96 94 96 106 79 66 48 16
2330.0 1 2 1 0 18 50 7 12 1 1
2370.0 3 31 56 74 67 43 27 27 23 24
2410.0 28 25 26 20 24 24 23 22 19 24
2450.0 21 26 22 21 25 17 22 19 20 19
2490.0 25 28 24 28 26 29 34 24 26 34
2530.0 39 34 40 34 36 36 41 42 42 47
2570.0 45 47 51 51 54 49 49 55 55 63
2610.0 59 68 66 69 64 72 66 76 80 77
2650.0 88 95 107 111 116 111 113 117 108 106
2690.0 106 100 96 94 99 93 88 96 95 99
2730.0 100 106 120 121 129 123 124 123 133 140
2770.0 150 155 174 185 195 207 223 253 269 289
2810.0 306 349 387 431 488 563 681 874 1140 1533
2850.0 2099 2726 3350 3763 3735 3428 2965 2596 2431 2336
2890.0 2264 2305 2457 2702 3118 3612 4234 5131 6467 8143
2930.0 9562 10000 9231 7947 6678 5288 3932 3289 3189 3205
2970.0 2954 2296 1614 1186 945 818 754 754 788 807
3010.0 745 645 555 485 420 371 341 341 360 367
3050.0 347 300 263 225 209 192 176 161 140 120
3090.0 114 102 107 101 91 104 94 82 73 74
3130.0 65 64 54 54 51 49 41 47 47 40
3170.0 37 38 38 45 33 35 32 35 25 23
3210.0 27 20 25 24 16 21 23 14 23 13
3250.0 8 10 5 8 14 15 8 5 11 5
3290.0 15 17 7 9 13 6 13 16 6 18
3330.0 11 18 20 22 13 23 18 15 1 9
3370.0 15 23 10 23 22 26 26 32 17 21
3410.0 16 25 25 24 16 9 31 29 25 17
3450.0 11 22 31 29 19 18 40 25 18 26
3490.0 11 19 18 13 32 29 25 13 19 34
3530.0 16 25 19 29 27 25 23 26 24 13
3570.0 22 23 22 32 36 14 25 27 20 20
3610.0 31 33 28 20 26 6 35 41 46 36
3650.0 32 57 43 30 40 29 43 30 39 30
3690.0 38 28 29 32 35 40 28 36 17 13
3730.0 35 25 23 50 47 56 24 59 43 46
3770.0 42 40 45 51 32 25 45 57 29 30
3810.0 36 30 35 54 52 35 14 40 40 35
3850.0 48 27 48 44 36 13 47 56 47 34
3890.0 48 42 36 13 46 3 49 45 41 59
3930.0 51 55 50 41 63 49 18 44 32 45
##END=
