##TITLE=p-Chlorophenyl 2-chloro-1,1,2-trifluoroethyl sulfone
##JCAMP-DX=4.24
##DATA TYPE=INFRARED SPECTRUM
##ORIGIN=Sadtler Research Labs Under US-EPA Contract
##OWNER=NIST Standard Reference Data Program
##CAS REGISTRY NO=26574-59-4
##MOLFORM=C 8 H 5 Cl 2 F 3 O 2 S
##XUNITS=1/CM
##YUNITS=ABSORBANCE
##XFACTOR=1.0
##YFACTOR=0.000050558
##DELTAX=4.0
##FIRSTX=450.0
##LASTX=3966.0
##FIRSTY=0.035543
##MAXX=3966
##MINX=450
##MAXY=0.50558
##MINY=0
##NPOINTS=880
##XYDATA=(X++(Y..Y))
450.0 703 667 941 1501 2156 2328 1961 1346 1045 790
490.0 554 351 171 92 121 94 88 127 189 215
530.0 287 418 581 609 684 773 1154 1479 1920 2466
570.0 2901 2669 2043 1549 1809 2627 4158 6709 7614 6164
610.0 3536 2971 3296 3540 2988 2347 2341 2671 2953 2252
650.0 1207 505 380 243 282 208 153 116 39 75
690.0 81 161 406 776 1036 872 453 181 99 81
730.0 145 307 886 2242 4178 5961 6134 4361 2043 847
770.0 657 693 844 1048 1269 1455 1685 1924 1995 1732
810.0 1270 902 862 1349 2230 2619 2128 1408 1058 1149
850.0 1377 1452 1232 887 610 424 275 179 129 108
890.0 78 55 53 30 31 29 8 24 29 9
930.0 33 43 46 52 77 87 100 105 128 150
970.0 194 284 389 540 750 977 1188 1309 1355 1290
1010.0 1367 1889 2032 1404 626 413 396 371 392 428
1050.0 502 625 799 1024 1272 1557 2008 2938 4671 6715
1090.0 8109 8337 7441 5780 4118 2983 2350 2131 2188 2274
1130.0 2309 2384 2713 3300 3791 3669 3037 2635 3108 4724
1170.0 7345 9661 10000 8401 6025 3770 2099 1341 1096 1019
1210.0 1042 1170 1440 1779 2042 2031 1789 1414 1054 786
1250.0 623 558 577 672 833 1031 1189 1203 999 683
1290.0 432 332 282 238 199 199 209 222 244 272
1330.0 315 365 482 622 727 769 815 1010 1429 2314
1370.0 4136 6869 9013 8707 6353 4036 2655 1919 1346 812
1410.0 465 247 201 153 145 155 208 231 222 191
1450.0 165 174 196 236 363 732 1549 2342 1940 979
1490.0 367 269 236 205 203 201 169 154 165 154
1530.0 202 248 326 409 469 534 588 663 734 856
1570.0 1103 1518 2180 2985 3230 2580 1441 708 427 320
1610.0 285 278 305 299 308 296 309 325 363 408
1650.0 463 449 370 284 221 185 185 155 167 166
1690.0 138 116 138 120 119 102 111 110 94 80
1730.0 71 81 46 30 25 30 25 31 29 32
1770.0 60 82 98 114 123 123 102 55 30 13
1810.0 11 8 10 21 36 50 59 55 61 56
1850.0 34 23 18 12 11 16 6 0 4 8
1890.0 11 17 21 40 72 118 169 191 166 103
1930.0 55 31 18 19 15 12 19 20 19 20
1970.0 21 18 16 13 16 23 18 20 16 19
2010.0 19 24 26 21 17 22 20 22 20 25
2050.0 23 22 15 20 21 17 19 17 16 22
2090.0 19 22 26 29 32 31 27 29 26 30
2130.0 30 33 34 39 48 53 55 57 63 61
2170.0 66 66 59 58 63 60 54 51 49 39
2210.0 38 38 39 37 42 40 40 40 44 43
2250.0 39 34 38 30 37 40 38 38 42 33
2290.0 46 48 50 43 31 27 24 16 21 27
2330.0 42 46 45 70 20 83 42 60 51 54
2370.0 49 56 65 69 64 61 56 53 54 51
2410.0 52 52 49 44 33 26 15 13 13 15
2450.0 19 18 17 18 18 17 20 22 17 20
2490.0 22 26 23 18 21 26 30 28 33 51
2530.0 60 74 92 100 112 110 102 97 75 66
2570.0 64 62 64 56 55 49 43 45 34 33
2610.0 33 27 32 33 30 33 29 31 32 37
2650.0 38 42 48 53 58 53 56 53 55 36
2690.0 29 24 22 29 29 28 25 27 27 30
2730.0 27 28 31 33 37 33 37 38 36 36
2770.0 36 39 35 30 24 19 19 23 23 24
2810.0 19 20 28 28 32 28 28 31 33 32
2850.0 43 38 46 45 47 42 45 45 45 48
2890.0 53 46 59 58 56 53 64 72 79 80
2930.0 80 82 83 78 77 79 75 82 90 97
2970.0 106 116 117 107 99 103 112 115 140 170
3010.0 151 127 97 88 89 88 84 87 86 81
3050.0 68 78 78 83 93 114 148 202 263 256
3090.0 173 98 93 74 70 73 74 79 76 82
3130.0 86 87 86 88 81 76 61 58 55 42
3170.0 43 52 49 57 54 52 50 47 56 53
3210.0 60 54 46 60 62 52 54 60 53 51
3250.0 48 50 47 44 44 55 51 52 51 35
3290.0 49 48 42 40 35 43 50 32 40 43
3330.0 44 44 44 47 57 53 36 32 46 38
3370.0 45 29 40 50 56 35 47 32 34 29
3410.0 31 39 29 38 29 35 42 42 40 28
3450.0 18 29 31 34 34 29 37 38 26 40
3490.0 29 29 21 30 28 34 38 31 40 31
3530.0 39 33 27 24 25 16 28 36 24 27
3570.0 21 35 40 40 42 40 40 13 26 47
3610.0 29 32 14 36 44 26 43 29 37 24
3650.0 16 43 46 38 38 33 28 20 33 28
3690.0 32 10 42 55 35 45 58 68 58 53
3730.0 42 30 39 46 53 23 21 50 31 42
3770.0 34 11 38 31 35 38 61 50 27 45
3810.0 49 49 43 9 20 39 25 23 15 59
3850.0 32 56 54 39 67 32 37 37 20 49
3890.0 50 22 42 27 31 48 42 37 50 50
3930.0 39 40 47 40 58 29 55 26 47 37
##END=
