##TITLE=Benzene, 1,4-dichloro-2,5-dimethoxy-
##JCAMP-DX=4.24
##DATA TYPE=INFRARED SPECTRUM
##ORIGIN=Sadtler Research Labs Under US-EPA Contract
##OWNER=NIST Standard Reference Data Program
##CAS REGISTRY NO=2675-77-6
##MOLFORM=C 8 H 8 Cl 2 O 2
##XUNITS=1/CM
##YUNITS=ABSORBANCE
##XFACTOR=1.0
##YFACTOR=0.000110849
##DELTAX=4.0
##FIRSTX=450.0
##LASTX=3966.0
##FIRSTY=0.000000
##MAXX=3966
##MINX=450
##MAXY=1.10849
##MINY=0
##NPOINTS=880
##XYDATA=(X++(Y..Y))
450.0 0 313 409 250 188 507 212 337 334 124
490.0 298 253 373 341 231 279 231 216 170 188
530.0 275 176 346 390 475 275 315 449 325 687
570.0 733 608 448 387 311 345 277 310 278 252
610.0 351 213 244 236 215 199 192 222 204 213
650.0 251 191 203 174 200 230 263 275 256 247
690.0 257 260 211 255 266 269 295 244 259 277
730.0 322 238 323 339 419 487 621 806 1079 1626
770.0 2447 3296 3723 3415 2562 1520 902 626 460 392
810.0 392 354 350 343 369 435 499 560 627 665
850.0 730 766 820 877 984 1113 1079 989 830 623
890.0 480 373 323 318 301 284 307 326 305 324
930.0 359 364 349 358 348 346 331 316 307 317
970.0 316 346 353 397 438 516 617 734 906 1156
1010.0 1514 2079 2879 3871 4836 5520 5462 4839 3998 3150
1050.0 2404 1807 1390 1175 1218 1654 2607 3885 4615 4498
1090.0 3555 2222 1346 930 692 618 546 491 461 471
1130.0 469 484 515 539 578 628 681 759 869 1054
1170.0 1293 1589 1833 1992 2035 2112 2370 2958 3959 5346
1210.0 6863 7904 8089 7145 5616 4152 3139 2509 2130 1892
1250.0 1714 1552 1410 1268 1135 1042 937 837 727 655
1290.0 601 576 563 542 538 520 476 457 431 413
1330.0 413 452 547 694 937 1400 2148 3126 4027 4346
1370.0 3874 2803 1692 1015 705 606 563 564 590 587
1410.0 643 659 803 940 1197 1713 2550 3645 4458 4421
1450.0 3635 2740 2325 2518 2931 3623 4653 6209 7998 9382
1490.0 10000 9341 8386 7227 6272 5066 3749 2661 1821 1319
1530.0 1004 834 723 637 577 506 478 475 413 396
1570.0 382 386 366 351 350 358 350 357 320 327
1610.0 301 287 297 253 260 214 232 227 205 235
1650.0 247 255 227 256 250 266 294 277 288 287
1690.0 263 242 274 258 255 223 238 250 225 213
1730.0 214 236 206 215 217 215 193 181 178 168
1770.0 175 186 164 169 173 172 177 175 179 160
1810.0 155 171 161 159 166 175 161 151 160 167
1850.0 152 140 151 144 147 154 131 125 121 125
1890.0 121 127 121 122 128 133 136 135 145 145
1930.0 155 147 150 159 156 156 169 172 171 181
1970.0 168 155 145 147 140 147 142 134 133 142
2010.0 142 147 153 148 146 154 154 176 189 200
2050.0 215 228 242 254 270 280 296 304 304 290
2090.0 272 244 221 193 173 157 146 152 146 150
2130.0 153 160 166 169 164 168 163 153 144 132
2170.0 134 133 134 131 127 132 134 127 130 132
2210.0 131 125 122 120 114 109 114 109 112 106
2250.0 108 112 116 114 113 118 130 125 131 132
2290.0 147 151 156 148 133 132 123 96 95 107
2330.0 98 108 122 105 151 117 95 97 135 165
2370.0 174 174 169 166 152 138 136 131 141 147
2410.0 151 156 158 154 157 156 153 150 148 152
2450.0 148 146 150 149 143 140 147 143 152 158
2490.0 165 161 180 181 185 191 196 199 194 193
2530.0 182 174 162 156 150 149 140 142 147 146
2570.0 153 149 152 155 156 156 158 158 166 162
2610.0 162 153 160 166 164 164 169 174 182 183
2650.0 184 189 196 194 189 185 179 172 163 160
2690.0 153 152 154 150 150 149 154 151 152 153
2730.0 155 153 155 160 155 162 172 176 182 184
2770.0 191 201 206 220 229 247 258 276 298 323
2810.0 350 375 401 440 476 542 646 821 1126 1454
2850.0 1603 1537 1273 948 733 624 570 552 563 589
2890.0 628 688 774 857 955 1055 1104 1135 1156 1159
2930.0 1181 1296 1523 1843 2105 2246 2212 2067 1898 1742
2970.0 1530 1290 1081 931 822 794 813 884 1027 1283
3010.0 1576 1722 1596 1269 894 647 519 444 395 366
3050.0 339 328 317 311 304 289 287 276 269 257
3090.0 243 242 231 219 219 211 203 201 190 185
3130.0 181 169 166 161 158 155 156 147 142 136
3170.0 137 129 133 136 135 137 127 130 126 126
3210.0 125 122 122 120 116 110 114 106 112 110
3250.0 116 120 112 111 113 109 111 111 108 111
3290.0 106 105 109 106 99 102 108 103 101 104
3330.0 101 103 101 102 100 109 108 106 106 109
3370.0 102 103 104 110 111 97 97 108 107 110
3410.0 111 109 118 104 106 118 113 114 108 108
3450.0 115 108 111 115 109 119 114 110 111 103
3490.0 115 114 113 111 118 126 121 113 119 115
3530.0 124 127 123 123 113 117 117 126 127 120
3570.0 122 126 119 125 115 122 128 130 131 132
3610.0 132 127 116 129 148 138 154 154 152 137
3650.0 136 144 162 157 137 132 126 132 139 143
3690.0 128 154 141 136 137 128 142 153 132 128
3730.0 130 134 145 121 123 113 150 145 153 127
3770.0 126 133 141 145 139 127 120 108 127 120
3810.0 141 109 114 142 150 132 112 120 146 122
3850.0 121 159 158 123 119 161 158 146 149 148
3890.0 139 133 129 163 177 150 128 137 154 104
3930.0 110 135 156 152 167 163 159 153 132 187
##END=
