##TITLE=2-Hydroxyethyl heptyl sulfide
##JCAMP-DX=4.24
##DATA TYPE=INFRARED SPECTRUM
##ORIGIN=Sadtler Research Labs Under US-EPA Contract
##OWNER=NIST Standard Reference Data Program
##CAS REGISTRY NO=26901-97-3
##MOLFORM=C 9 H 20 O S
##XUNITS=1/CM
##YUNITS=ABSORBANCE
##XFACTOR=1.0
##YFACTOR=0.000099692
##DELTAX=4.0
##FIRSTX=450.0
##LASTX=3966.0
##FIRSTY=0.000000
##MAXX=3966
##MINX=450
##MAXY=0.99692
##MINY=0
##NPOINTS=880
##XYDATA=(X++(Y..Y))
450.0 0 1306 1474 1589 1198 1678 1342 1611 1357 1644
490.0 1451 1464 1472 1453 1511 1365 1559 1392 1516 1403
530.0 1496 1412 1446 1469 1416 1464 1410 1509 1371 1466
570.0 1395 1438 1380 1432 1439 1380 1471 1421 1452 1377
610.0 1433 1409 1407 1402 1405 1412 1392 1426 1390 1419
650.0 1403 1437 1405 1411 1436 1419 1422 1401 1434 1407
690.0 1441 1424 1442 1428 1448 1475 1473 1522 1523 1557
730.0 1529 1537 1511 1512 1509 1514 1503 1488 1533 1538
770.0 1521 1500 1516 1448 1440 1433 1413 1441 1426 1437
810.0 1424 1425 1420 1446 1436 1444 1449 1432 1433 1428
850.0 1434 1412 1440 1428 1448 1448 1451 1461 1456 1479
890.0 1480 1502 1494 1504 1499 1520 1546 1581 1646 1704
930.0 1756 1744 1698 1633 1588 1551 1530 1517 1514 1511
970.0 1520 1549 1567 1607 1636 1676 1712 1763 1816 1885
1010.0 1969 2040 2135 2236 2391 2554 2751 2908 3025 3062
1050.0 3074 3137 3256 3449 3592 3547 3205 2755 2375 2123
1090.0 1971 1887 1844 1826 1843 1873 1934 1991 2040 2050
1130.0 2030 1977 1898 1811 1738 1699 1676 1676 1692 1753
1170.0 1820 1879 1887 1831 1769 1718 1688 1657 1640 1632
1210.0 1624 1612 1606 1617 1633 1664 1685 1702 1715 1732
1250.0 1745 1750 1767 1794 1853 1938 2024 2040 2012 1943
1290.0 1892 1845 1818 1808 1782 1744 1696 1667 1652 1663
1330.0 1683 1732 1796 1851 1870 1874 1879 1858 1851 1844
1370.0 1889 1948 2058 2208 2346 2410 2326 2186 2027 1932
1410.0 1883 1884 1864 1864 1843 1829 1813 1840 1869 1896
1450.0 1934 2001 2074 2126 2126 2096 1950 1796 1653 1537
1490.0 1472 1413 1386 1357 1354 1333 1321 1322 1295 1305
1530.0 1285 1304 1273 1289 1265 1281 1263 1273 1263 1262
1570.0 1259 1263 1251 1259 1258 1253 1251 1252 1250 1245
1610.0 1248 1248 1243 1247 1240 1248 1237 1243 1243 1238
1650.0 1237 1244 1233 1235 1242 1231 1243 1231 1235 1234
1690.0 1233 1233 1236 1229 1234 1235 1231 1231 1241 1237
1730.0 1238 1243 1235 1237 1243 1240 1240 1243 1234 1237
1770.0 1234 1239 1236 1237 1234 1234 1225 1227 1222 1219
1810.0 1217 1218 1218 1212 1214 1212 1213 1212 1212 1211
1850.0 1213 1214 1212 1215 1214 1214 1217 1213 1212 1216
1890.0 1214 1213 1210 1208 1211 1204 1204 1197 1202 1195
1930.0 1197 1197 1197 1198 1196 1200 1199 1196 1192 1191
1970.0 1193 1197 1202 1204 1206 1208 1206 1207 1204 1206
2010.0 1207 1207 1207 1213 1212 1216 1213 1212 1212 1217
2050.0 1213 1213 1207 1207 1207 1205 1205 1202 1206 1204
2090.0 1200 1201 1204 1202 1199 1199 1199 1202 1199 1198
2130.0 1199 1197 1196 1192 1194 1194 1190 1189 1191 1190
2170.0 1191 1190 1189 1189 1187 1188 1188 1188 1187 1187
2210.0 1185 1185 1187 1186 1186 1185 1184 1182 1184 1181
2250.0 1180 1179 1179 1177 1179 1177 1174 1176 1172 1176
2290.0 1174 1173 1170 1174 1176 1176 1180 1177 1180 1173
2330.0 1176 1172 1167 1170 1168 1168 1177 1173 1180 1178
2370.0 1165 1167 1164 1166 1165 1167 1170 1170 1169 1167
2410.0 1166 1165 1167 1166 1164 1167 1166 1167 1164 1164
2450.0 1163 1164 1158 1155 1154 1150 1152 1149 1150 1149
2490.0 1148 1145 1148 1146 1144 1148 1145 1146 1140 1144
2530.0 1141 1147 1146 1147 1148 1148 1150 1149 1149 1147
2570.0 1152 1151 1156 1159 1165 1167 1167 1169 1171 1174
2610.0 1172 1178 1177 1184 1185 1185 1192 1192 1197 1201
2650.0 1205 1208 1215 1219 1223 1230 1238 1241 1242 1243
2690.0 1243 1247 1244 1244 1248 1249 1254 1263 1267 1271
2730.0 1276 1280 1289 1294 1295 1290 1298 1299 1305 1311
2770.0 1307 1309 1312 1314 1326 1341 1358 1376 1396 1417
2810.0 1444 1471 1506 1547 1604 1661 1736 1829 1967 2170
2850.0 2504 3016 3659 4305 4702 4831 4708 4516 4335 4109
2890.0 3832 3559 3465 3560 3838 4259 4848 5668 6775 8086
2930.0 9292 10000 9759 8982 7946 7052 6334 6040 6032 6103
2970.0 5936 5192 4064 3040 2433 2088 1877 1738 1638 1568
3010.0 1508 1461 1422 1396 1369 1347 1326 1312 1297 1283
3050.0 1272 1256 1249 1237 1236 1225 1220 1218 1213 1207
3090.0 1199 1198 1193 1197 1190 1191 1185 1184 1184 1183
3130.0 1180 1181 1180 1177 1177 1174 1171 1175 1172 1175
3170.0 1169 1171 1167 1171 1164 1164 1164 1159 1159 1162
3210.0 1156 1156 1150 1148 1151 1145 1149 1148 1145 1145
3250.0 1146 1149 1148 1156 1155 1148 1144 1144 1151 1151
3290.0 1143 1143 1148 1147 1148 1144 1147 1156 1160 1160
3330.0 1156 1157 1156 1159 1161 1153 1155 1157 1164 1164
3370.0 1165 1163 1160 1151 1153 1156 1156 1156 1152 1152
3410.0 1154 1162 1154 1156 1159 1157 1154 1157 1156 1153
3450.0 1162 1156 1154 1160 1167 1161 1164 1164 1169 1170
3490.0 1178 1174 1175 1180 1179 1189 1191 1201 1194 1196
3530.0 1203 1210 1229 1243 1263 1290 1333 1382 1423 1419
3570.0 1420 1411 1400 1389 1377 1377 1347 1343 1322 1314
3610.0 1296 1284 1283 1274 1292 1272 1298 1303 1298 1300
3650.0 1284 1332 1380 1430 1466 1425 1416 1335 1311 1259
3690.0 1230 1209 1202 1188 1180 1172 1173 1172 1172 1165
3730.0 1166 1153 1164 1159 1148 1152 1140 1169 1155 1157
3770.0 1150 1148 1151 1149 1159 1155 1156 1145 1140 1141
3810.0 1164 1141 1147 1140 1145 1142 1141 1143 1148 1144
3850.0 1145 1140 1140 1151 1140 1144 1156 1154 1146 1149
3890.0 1152 1146 1153 1143 1157 1154 1152 1147 1149 1147
3930.0 1155 1153 1151 1157 1156 1153 1164 1172 1170 1176
##END=
