##TITLE=[1,1'-Biphenyl]-ar,ar'-diol
##JCAMP-DX=4.24
##DATA TYPE=INFRARED SPECTRUM
##ORIGIN=Sadtler Research Labs Under US-EPA Contract
##OWNER=NIST Standard Reference Data Program
##CAS REGISTRY NO=26983-52-8
##MOLFORM=C 12 H 10 O 2
##XUNITS=1/CM
##YUNITS=ABSORBANCE
##XFACTOR=1.0
##YFACTOR=0.000069196
##DELTAX=4.0
##FIRSTX=450.0
##LASTX=3966.0
##FIRSTY=0.023734
##MAXX=3966
##MINX=450
##MAXY=0.69196
##MINY=0
##NPOINTS=880
##XYDATA=(X++(Y..Y))
450.0 343 390 272 150 166 98 194 162 171 204
490.0 286 271 228 178 131 190 136 270 235 348
530.0 338 429 354 311 284 251 262 200 221 178
570.0 245 261 193 122 71 114 82 108 88 114
610.0 157 309 402 457 379 242 175 115 136 107
650.0 148 139 142 126 146 182 186 162 158 171
690.0 187 223 288 367 380 392 426 438 536 594
730.0 725 1022 1617 2845 4366 6068 6551 5775 3996 2304
770.0 1175 624 457 371 345 331 343 390 496 640
810.0 862 1037 1100 1039 874 757 709 717 689 596
850.0 500 419 357 300 223 149 84 48 46 22
890.0 47 36 34 27 64 81 113 176 214 324
930.0 388 451 421 344 240 147 67 37 47 30
970.0 37 36 56 61 109 155 267 462 704 855
1010.0 817 654 420 299 314 407 502 563 573 466
1050.0 362 231 212 190 202 210 224 248 281 358
1090.0 414 492 519 535 506 491 466 438 412 399
1130.0 452 525 740 1090 1561 1997 2186 2201 2213 2521
1170.0 3109 3759 4288 4586 4906 5056 5124 4785 4203 3465
1210.0 2826 2450 2429 2700 3059 3377 3431 3338 3064 2709
1250.0 2347 2106 1986 1999 2181 2476 2905 3285 3546 3401
1290.0 2924 2158 1443 958 769 727 819 954 1137 1400
1330.0 1724 2003 2063 1801 1318 843 503 315 236 174
1370.0 149 111 128 93 129 122 142 140 164 207
1410.0 188 270 298 432 487 683 851 1013 1371 1582
1450.0 2022 2119 2516 2615 3032 3866 4721 5594 4800 4279
1490.0 3164 2728 2395 2160 1880 1219 986 620 450 279
1530.0 237 220 233 252 282 306 416 445 741 946
1570.0 1317 1607 1868 1990 1769 1574 1301 1188 1159 1223
1610.0 1175 998 736 462 238 138 70 47 41 43
1650.0 29 7 38 17 33 40 57 93 118 193
1690.0 185 199 138 155 85 118 109 117 91 86
1730.0 60 27 37 3 17 0 20 5 23 29
1770.0 38 53 62 100 116 168 188 197 159 118
1810.0 85 66 75 80 102 78 79 34 26 10
1850.0 14 21 15 30 40 65 62 78 74 75
1890.0 84 112 163 214 255 239 198 139 108 112
1930.0 141 192 206 192 133 80 29 21 11 12
1970.0 12 16 20 15 28 22 28 25 29 22
2010.0 22 27 29 28 31 42 35 40 42 47
2050.0 44 44 45 43 47 42 51 41 44 37
2090.0 40 40 40 40 32 34 33 26 28 31
2130.0 29 31 27 19 24 25 25 22 26 23
2170.0 32 30 25 32 28 34 29 37 33 35
2210.0 35 30 31 38 38 36 41 37 46 41
2250.0 46 48 47 51 57 58 58 63 59 65
2290.0 59 66 67 68 77 77 85 76 66 57
2330.0 59 49 52 43 51 43 27 50 55 42
2370.0 51 61 64 70 71 74 74 71 72 70
2410.0 71 70 77 82 87 95 95 96 94 95
2450.0 89 88 94 89 94 93 93 90 92 83
2490.0 82 85 86 87 87 95 92 99 85 76
2530.0 70 60 53 43 38 35 33 31 36 35
2570.0 36 43 40 38 33 36 33 43 37 40
2610.0 42 42 48 54 53 38 47 35 35 32
2650.0 31 32 35 39 50 41 39 42 35 28
2690.0 31 29 24 32 34 35 40 37 46 44
2730.0 51 45 45 42 44 37 35 27 24 32
2770.0 28 27 29 29 28 22 30 25 25 15
2810.0 22 25 32 27 26 26 26 31 32 37
2850.0 39 43 50 50 56 67 78 75 93 92
2890.0 99 104 112 105 103 113 110 106 102 109
2930.0 107 110 113 127 131 131 141 141 148 167
2970.0 177 195 185 153 128 107 110 108 108 145
3010.0 184 229 289 371 490 645 831 992 1126 1181
3050.0 1162 1105 1060 1134 1403 1701 1831 1751 1492 1248
3090.0 1064 883 689 516 388 301 244 200 155 137
3130.0 117 104 110 111 108 112 108 98 93 78
3170.0 65 59 44 39 38 33 38 32 28 30
3210.0 34 37 22 33 28 21 34 40 34 39
3250.0 33 48 47 57 55 56 44 49 46 42
3290.0 37 37 41 50 48 54 54 55 57 60
3330.0 47 51 60 48 46 43 43 52 61 62
3370.0 61 60 70 85 87 85 83 81 73 76
3410.0 68 69 59 71 65 65 69 69 78 81
3450.0 81 76 92 83 108 90 118 120 153 192
3490.0 216 241 239 252 218 195 189 218 223 261
3530.0 264 250 294 292 383 403 505 652 864 1313
3570.0 2768 5467 8847 10000 9162 5955 3233 1713 1115 774
3610.0 601 454 387 308 238 343 330 442 638 879
3650.0 1014 832 624 380 258 197 222 143 131 60
3690.0 153 87 75 95 67 106 109 82 98 121
3730.0 88 139 151 79 152 136 116 75 66 68
3770.0 103 68 76 62 70 61 32 90 82 95
3810.0 63 33 105 75 80 57 101 109 137 51
3850.0 98 185 127 97 126 115 97 75 114 142
3890.0 118 131 107 166 174 66 83 100 115 106
3930.0 75 112 94 63 86 90 73 65 63 66
##END=
