##TITLE=1-Cyclohexene, 3-methoxy-,
##JCAMP-DX=4.24
##DATA TYPE=INFRARED SPECTRUM
##ORIGIN=Sadtler Research Labs Under US-EPA Contract
##OWNER=NIST Standard Reference Data Program
##CAS REGISTRY NO=2699-13-0
##MOLFORM=C 7 H 12 O
##XUNITS=1/CM
##YUNITS=ABSORBANCE
##XFACTOR=1.0
##YFACTOR=0.000114737
##DELTAX=4.0
##FIRSTX=450.0
##LASTX=3966.0
##FIRSTY=0.013424
##MAXX=3966
##MINX=450
##MAXY=1.14737
##MINY=0
##NPOINTS=880
##XYDATA=(X++(Y..Y))
450.0 117 88 100 152 164 140 187 195 201 193
490.0 200 195 164 116 109 50 50 9 36 56
530.0 34 57 80 118 153 172 177 165 175 163
570.0 151 128 104 83 73 69 65 41 47 23
610.0 9 0 19 4 8 16 49 81 122 161
650.0 218 292 353 381 370 341 286 248 212 196
690.0 215 258 331 446 591 713 779 971 1057 1031
730.0 828 634 508 356 246 155 111 72 49 39
770.0 37 48 50 71 101 147 197 236 260 273
810.0 279 272 280 259 242 238 227 221 206 213
850.0 233 235 234 223 206 196 185 203 222 262
890.0 310 388 481 611 735 876 1105 1389 1660 1905
930.0 2040 1996 1758 1421 1045 740 509 364 279 246
970.0 237 241 258 278 320 366 431 503 576 623
1010.0 641 637 608 584 521 547 604 587 670 799
1050.0 952 1092 1183 1307 1462 1683 2019 2537 3255 4195
1090.0 5417 6771 8012 9132 9566 9708 8763 7579 5923 4315
1130.0 3042 2220 1743 1492 1319 1235 1133 1071 1022 1039
1170.0 1103 1282 1552 1811 2018 2107 2068 1896 1630 1329
1210.0 1067 932 822 765 718 678 628 561 529 528
1250.0 525 524 541 515 441 342 272 229 210 202
1290.0 208 234 275 347 457 629 825 1001 1177 1353
1330.0 1464 1465 1375 1310 1239 1080 909 726 544 403
1370.0 314 279 312 413 570 718 781 796 756 651
1410.0 493 357 305 330 421 581 759 898 1076 1173
1450.0 1279 1345 1258 1149 1068 942 764 582 447 336
1490.0 262 208 175 145 132 117 96 90 85 81
1530.0 75 73 69 73 59 63 58 65 59 55
1570.0 54 54 61 55 64 71 79 85 85 85
1610.0 83 85 89 93 106 127 165 221 283 339
1650.0 369 366 349 299 228 170 143 139 150 163
1690.0 160 164 175 158 134 130 113 108 95 67
1730.0 54 55 58 63 66 65 60 50 44 41
1770.0 41 39 30 27 25 23 20 23 22 20
1810.0 19 15 10 7 3 2 0 0 1 4
1850.0 6 11 16 21 22 21 22 19 17 18
1890.0 17 18 23 21 21 23 21 24 25 28
1930.0 28 27 25 22 16 15 11 5 5 2
1970.0 8 5 7 12 14 15 20 24 33 42
2010.0 49 58 66 76 85 90 89 85 81 74
2050.0 66 55 46 37 31 26 23 21 24 23
2090.0 25 29 35 41 45 54 55 61 61 63
2130.0 61 56 51 48 46 46 48 44 43 45
2170.0 44 39 39 37 37 37 40 40 41 42
2210.0 38 36 30 27 23 17 16 14 13 13
2250.0 14 12 12 11 11 10 10 10 10 8
2290.0 8 5 4 6 4 2 4 3 5 5
2330.0 2 6 12 2 4 0 3 10 7 11
2370.0 18 19 21 18 19 18 20 16 17 12
2410.0 11 9 6 4 4 2 5 5 5 4
2450.0 9 11 10 9 10 10 13 14 16 18
2490.0 20 23 23 24 26 25 23 20 21 22
2530.0 21 20 22 21 20 22 25 30 29 35
2570.0 42 45 54 60 68 78 88 96 104 110
2610.0 118 129 137 147 156 162 173 183 188 197
2650.0 203 212 217 219 212 201 184 169 161 147
2690.0 142 137 131 131 127 127 128 132 130 131
2730.0 137 142 150 160 173 186 199 212 229 248
2770.0 272 302 336 375 422 479 549 647 798 1052
2810.0 1489 2158 2798 3238 3649 3817 3973 3784 3618 3676
2850.0 3709 3829 3923 3949 3842 3767 3796 3796 3826 3811
2890.0 3824 3922 3997 4058 4236 4521 5068 5687 6049 6548
2930.0 7179 7914 9054 9611 10000 9549 8698 7771 6143 4504
2970.0 3389 2784 2624 2670 2695 2693 2470 2151 1754 1334
3010.0 1122 1084 1223 1506 1915 2341 2497 2459 2419 2288
3050.0 1848 1337 975 754 618 534 475 424 362 296
3090.0 237 198 172 149 134 118 103 93 87 81
3130.0 75 68 67 64 62 63 56 57 52 49
3170.0 48 48 47 42 42 43 41 35 30 32
3210.0 33 28 26 23 18 20 17 13 15 15
3250.0 12 15 13 15 15 15 18 20 20 21
3290.0 25 25 23 23 25 20 16 16 17 17
3330.0 8 13 12 15 17 16 17 18 16 19
3370.0 17 15 17 15 15 15 18 21 17 15
3410.0 20 15 18 11 17 15 11 10 11 8
3450.0 7 7 5 6 4 4 6 5 8 11
3490.0 11 12 12 11 10 9 6 5 4 1
3530.0 5 4 7 2 2 1 7 6 7 4
3570.0 8 12 6 8 9 15 14 12 15 16
3610.0 18 19 15 18 23 28 29 31 27 31
3650.0 28 31 28 27 25 29 27 31 18 19
3690.0 25 23 25 23 22 17 15 20 22 19
3730.0 20 24 17 21 23 21 20 18 20 7
3770.0 6 1 9 20 16 6 1 13 5 6
3810.0 4 3 8 1 1 0 4 0 7 0
3850.0 0 0 2 1 0 5 3 7 5 16
3890.0 0 11 7 13 11 10 25 13 19 24
3930.0 23 22 36 39 26 26 35 28 17 16
##END=
