##TITLE=Butane, 1-bromo-2,4-diphenyl-,
##JCAMP-DX=4.24
##DATA TYPE=INFRARED SPECTRUM
##ORIGIN=Sadtler Research Labs Under US-EPA Contract
##OWNER=NIST Standard Reference Data Program
##CAS REGISTRY NO=27041-04-9
##MOLFORM=C 16 H 17 Br
##XUNITS=1/CM
##YUNITS=ABSORBANCE
##XFACTOR=1.0
##YFACTOR=0.000068591
##DELTAX=4.0
##FIRSTX=450.0
##LASTX=3966.0
##FIRSTY=0.005282
##MAXX=3966
##MINX=450
##MAXY=0.68591
##MINY=0
##NPOINTS=880
##XYDATA=(X++(Y..Y))
450.0 77 71 73 72 185 267 257 421 570 701
490.0 674 605 455 468 447 524 629 637 567 516
530.0 597 775 849 777 649 588 517 421 336 237
570.0 201 248 214 241 275 310 276 240 178 141
610.0 121 63 83 101 126 139 182 260 299 347
650.0 495 768 1162 1439 1428 1492 1483 1670 1984 2649
690.0 4256 7385 10000 8928 5843 3801 2898 2556 2595 2845
730.0 3319 3915 4543 4882 4750 4178 3422 2772 2247 1817
770.0 1382 960 652 463 350 282 256 242 209 179
810.0 168 166 184 205 185 143 110 91 67 37
850.0 16 1 7 31 71 82 106 113 128 158
890.0 196 248 329 434 515 523 452 355 277 234
930.0 226 221 211 218 244 301 396 516 616 642
970.0 594 513 448 399 354 324 313 331 405 451
1010.0 428 412 498 728 1173 1486 1258 711 389 302
1050.0 311 360 422 499 605 718 796 758 608 452
1090.0 338 262 211 187 184 164 130 102 91 103
1130.0 129 155 167 180 196 209 235 274 341 451
1170.0 524 553 602 624 599 584 592 580 565 581
1210.0 650 766 895 947 920 853 834 868 909 920
1250.0 878 837 830 851 851 792 734 686 652 613
1290.0 591 570 581 597 621 605 583 538 510 502
1330.0 492 491 532 556 560 568 557 540 528 440
1370.0 408 390 355 310 255 209 177 174 149 164
1410.0 158 207 286 368 478 720 1034 1450 1668 2010
1450.0 2445 2652 2299 1485 974 716 700 761 1087 1729
1490.0 2796 3906 4071 2825 1349 618 326 232 206 177
1530.0 154 201 169 177 129 100 95 129 159 153
1570.0 229 305 477 620 839 1071 1404 1797 2082 1940
1610.0 1388 787 436 262 178 158 127 135 106 145
1650.0 113 213 138 143 125 150 107 124 107 132
1690.0 98 114 146 190 152 160 179 225 195 217
1730.0 244 310 284 311 329 377 392 385 354 345
1770.0 397 330 277 285 366 468 607 582 492 334
1810.0 265 226 198 134 126 90 84 81 88 122
1850.0 124 152 189 244 273 308 291 286 274 233
1890.0 190 131 98 80 74 90 95 133 150 194
1930.0 264 378 466 478 431 415 418 353 221 109
1970.0 59 41 36 32 29 21 23 13 12 9
2010.0 11 2 12 5 8 9 10 10 10 8
2050.0 10 8 4 4 9 12 12 14 8 6
2090.0 8 2 4 7 6 4 7 4 1 3
2130.0 3 2 3 3 2 4 4 0 6 5
2170.0 10 9 14 11 12 9 9 10 6 8
2210.0 5 9 9 8 7 7 2 4 6 7
2250.0 10 11 16 17 17 18 22 27 41 45
2290.0 55 69 80 95 114 154 164 149 151 128
2330.0 122 108 108 125 143 149 153 97 103 89
2370.0 85 90 84 83 59 29 49 17 16 17
2410.0 22 66 18 18 19 23 65 17 19 13
2450.0 22 57 15 16 14 52 39 17 16 17
2490.0 77 17 17 18 43 51 25 22 22 62
2530.0 22 21 20 45 26 22 21 17 21 24
2570.0 27 42 48 39 47 73 64 57 61 108
2610.0 69 56 54 112 57 62 92 93 64 64
2650.0 110 61 57 99 66 55 74 73 54 68
2690.0 67 49 66 64 56 69 56 54 62 53
2730.0 63 54 54 62 59 67 65 65 70 72
2770.0 83 95 112 119 134 141 146 161 166 170
2810.0 173 188 206 229 256 297 362 462 601 775
2850.0 943 1143 1381 1629 1807 1800 1619 1382 1206 1133
2890.0 1149 1235 1361 1563 1803 2051 2308 2630 3033 3489
2930.0 3883 4091 4085 4039 3952 3795 3371 2788 2394 2273
2970.0 2031 1607 1229 970 795 729 761 887 1111 1467
3010.0 1851 2215 2628 3353 4519 5931 6746 6161 4608 3300
3050.0 2713 2628 2955 3775 5176 6548 6579 5211 3972 3532
3090.0 3227 2727 2147 1734 1498 1297 1047 753 504 344
3130.0 247 194 158 138 127 124 126 126 117 110
3170.0 95 72 56 40 35 32 23 20 21 22
3210.0 22 20 20 18 17 28 28 13 10 11
3250.0 17 15 15 20 21 20 19 15 16 13
3290.0 13 10 11 10 9 11 14 16 11 11
3330.0 5 3 10 12 11 4 4 7 8 12
3370.0 16 6 1 9 12 13 15 8 6 16
3410.0 12 10 13 6 12 14 12 13 12 23
3450.0 13 7 12 14 9 13 20 10 14 5
3490.0 12 10 4 24 8 23 7 17 15 21
3530.0 14 11 22 8 29 6 29 3 33 40
3570.0 74 64 76 95 93 112 76 49 33 15
3610.0 50 28 35 50 26 94 34 60 78 85
3650.0 137 93 124 82 53 61 23 54 29 51
3690.0 41 32 35 49 44 47 42 26 28 50
3730.0 51 32 57 6 80 8 45 24 11 36
3770.0 14 18 10 15 18 28 20 19 7 29
3810.0 33 48 23 51 12 29 17 37 26 16
3850.0 6 56 39 62 40 44 29 19 32 56
3890.0 24 62 15 47 31 45 28 65 49 46
3930.0 32 33 26 24 25 40 31 13 35 30
##END=
