##TITLE=Benzoic acid, 3,5-dichloropentyl
##JCAMP-DX=4.24
##DATA TYPE=INFRARED SPECTRUM
##ORIGIN=Sadtler Research Labs Under US-EPA Contract
##OWNER=NIST Standard Reference Data Program
##CAS REGISTRY NO=27070-22-0
##MOLFORM=C 12 H 14 Cl 2 O 2
##XUNITS=1/CM
##YUNITS=ABSORBANCE
##XFACTOR=1.0
##YFACTOR=0.000106006
##DELTAX=4.0
##FIRSTX=450.0
##LASTX=3966.0
##FIRSTY=0.026819
##MAXX=3966
##MINX=450
##MAXY=1.06006
##MINY=0
##NPOINTS=880
##XYDATA=(X++(Y..Y))
450.0 253 124 0 76 41 85 29 56 53 70
490.0 49 37 5 47 52 22 36 18 25 19
530.0 29 30 25 25 25 12 29 44 29 17
570.0 12 58 29 45 30 49 60 59 54 67
610.0 105 111 159 141 115 110 116 124 118 153
650.0 168 235 275 375 435 645 759 768 706 671
690.0 718 794 1017 1472 2211 2610 2222 1460 924 634
730.0 487 413 385 384 380 365 329 294 260 242
770.0 225 208 178 170 170 172 190 201 203 202
810.0 201 200 194 189 189 190 181 182 171 171
850.0 167 148 133 124 112 110 104 98 99 110
890.0 126 128 140 149 152 148 151 159 166 184
930.0 198 207 208 196 189 198 200 218 238 257
970.0 270 278 283 287 297 310 329 343 361 356
1010.0 351 390 512 907 1446 1520 995 622 525 495
1050.0 524 618 793 1080 1350 1357 1103 979 1174 1718
1090.0 2635 3523 3837 3982 4411 4545 3781 2696 1795 1217
1130.0 887 686 575 502 458 429 413 413 428 474
1170.0 608 1030 1477 1359 804 461 406 394 410 449
1210.0 498 564 641 744 911 1217 1671 2187 2514 2645
1250.0 2989 3906 5579 7881 10000 9977 7545 4788 3014 2084
1290.0 1583 1324 1176 1081 1038 1114 1239 1183 922 713
1330.0 604 526 468 426 397 376 356 342 337 340
1370.0 338 334 337 350 362 333 285 237 198 168
1410.0 152 162 177 236 287 338 364 404 489 652
1450.0 878 957 749 497 363 284 235 201 174 135
1490.0 125 118 93 67 50 39 37 38 32 47
1530.0 41 52 49 53 53 66 67 63 67 66
1570.0 74 92 119 155 175 174 175 227 281 298
1610.0 223 147 102 91 71 71 66 78 88 85
1650.0 73 63 59 60 61 63 70 92 95 127
1690.0 145 188 204 244 263 321 417 597 885 1308
1730.0 2083 3219 4689 5539 5163 3656 2216 1312 835 574
1770.0 436 333 281 238 212 189 175 159 144 142
1810.0 139 135 108 81 57 47 42 34 28 22
1850.0 26 23 23 19 21 16 21 23 25 28
1890.0 31 40 48 60 66 72 70 73 67 57
1930.0 43 37 39 36 41 48 59 65 66 60
1970.0 56 51 38 25 12 13 7 6 8 9
2010.0 8 7 7 7 8 10 12 9 11 10
2050.0 16 14 18 20 19 22 22 22 19 25
2090.0 22 23 23 22 23 19 17 16 16 12
2130.0 10 9 8 8 9 7 7 5 5 5
2170.0 7 7 7 8 9 8 9 11 8 8
2210.0 10 9 11 11 9 8 8 11 10 13
2250.0 12 13 12 13 10 16 20 20 28 30
2290.0 36 40 48 49 58 61 59 58 59 49
2330.0 47 36 37 52 57 47 40 31 43 60
2370.0 65 57 55 52 38 19 10 8 8 10
2410.0 8 8 8 10 7 8 7 6 6 5
2450.0 7 8 6 7 7 6 7 8 7 9
2490.0 9 10 9 10 9 13 9 10 13 13
2530.0 14 13 13 11 13 12 13 12 12 17
2570.0 17 18 19 19 20 23 18 27 24 22
2610.0 23 22 19 20 25 20 17 20 21 17
2650.0 23 28 16 19 18 19 22 35 27 18
2690.0 26 22 27 41 45 24 33 29 32 41
2730.0 59 27 34 35 39 53 74 36 44 42
2770.0 42 57 74 29 37 33 38 59 64 26
2810.0 47 38 50 93 69 66 87 92 125 151
2850.0 129 167 165 182 200 179 180 183 193 187
2890.0 189 184 194 212 267 310 370 427 461 483
2930.0 459 454 464 493 538 521 565 635 807 937
2970.0 1029 1081 1043 845 588 427 369 354 348 324
3010.0 337 321 263 178 176 193 193 217 256 286
3050.0 282 258 256 292 355 460 562 616 530 352
3090.0 265 280 278 236 186 152 123 89 67 50
3130.0 40 38 32 31 28 29 34 33 35 38
3170.0 37 37 33 24 22 27 24 21 23 17
3210.0 21 21 19 21 22 18 18 20 21 18
3250.0 17 18 18 16 18 16 12 19 21 16
3290.0 18 14 19 20 21 14 11 24 19 26
3330.0 22 20 20 26 24 25 28 26 26 25
3370.0 23 20 17 14 19 16 14 13 14 20
3410.0 18 12 16 21 25 18 14 23 17 22
3450.0 27 35 37 38 49 39 30 21 18 7
3490.0 5 7 5 8 16 19 12 17 20 16
3530.0 11 14 21 12 17 12 13 24 25 19
3570.0 23 20 28 32 32 33 24 28 13 13
3610.0 14 24 14 14 14 18 14 26 18 21
3650.0 20 21 42 27 24 23 25 22 30 29
3690.0 29 22 11 31 30 23 26 32 26 26
3730.0 25 25 24 27 26 26 24 27 24 29
3770.0 22 22 28 36 27 34 43 22 23 24
3810.0 30 29 39 29 23 22 35 28 18 28
3850.0 23 33 33 21 39 31 23 33 43 37
3890.0 32 16 9 29 34 33 35 27 24 41
3930.0 40 22 30 31 30 19 35 27 26 25
##END=
