##TITLE=Cyclohexanol, 1-(tetrahydro-4-pyranyl)-
##JCAMP-DX=4.24
##DATA TYPE=INFRARED SPECTRUM
##ORIGIN=Sadtler Research Labs Under US-EPA Contract
##OWNER=NIST Standard Reference Data Program
##CAS REGISTRY NO=27070-20-8
##MOLFORM=C 11 H 20 O 2
##XUNITS=1/CM
##YUNITS=ABSORBANCE
##XFACTOR=1.0
##YFACTOR=0.000131467
##DELTAX=4.0
##FIRSTX=450.0
##LASTX=3966.0
##FIRSTY=0.000000
##MAXX=3966
##MINX=450
##MAXY=1.31467
##MINY=0
##NPOINTS=880
##XYDATA=(X++(Y..Y))
450.0 0 71 158 101 115 148 159 178 189 234
490.0 252 232 211 178 111 98 96 100 99 95
530.0 123 107 125 158 265 352 377 292 182 111
570.0 81 75 71 70 74 65 50 40 34 26
610.0 17 32 27 20 19 15 37 29 27 20
650.0 30 33 40 36 53 45 37 41 33 41
690.0 36 52 62 60 64 49 56 43 56 46
730.0 46 45 42 41 43 49 58 69 79 100
770.0 99 85 69 61 51 50 54 72 97 119
810.0 171 226 278 300 303 316 318 340 336 314
850.0 285 264 226 223 254 379 545 623 605 452
890.0 294 227 227 247 280 304 328 336 336 342
930.0 340 369 400 465 543 682 880 1117 1309 1348
970.0 1276 1083 915 796 677 558 420 338 344 424
1010.0 554 713 853 940 978 924 794 657 562 514
1050.0 480 462 468 509 573 661 752 848 966 1106
1090.0 1229 1306 1345 1383 1441 1533 1653 1780 1913 2061
1130.0 2165 2164 1993 1689 1377 1123 989 930 897 859
1170.0 807 739 669 595 521 454 403 375 357 353
1210.0 355 364 381 423 504 639 846 1065 1237 1293
1250.0 1261 1182 1115 1066 1021 968 909 861 822 816
1290.0 819 803 736 637 542 478 453 433 424 414
1330.0 425 461 521 582 626 661 673 671 636 580
1370.0 526 519 543 693 848 862 731 477 273 214
1410.0 177 176 185 205 237 290 370 481 636 806
1450.0 953 977 910 793 678 601 484 356 239 168
1490.0 118 101 90 78 80 66 44 30 30 17
1530.0 14 10 18 10 19 23 29 23 34 25
1570.0 29 23 36 23 25 28 33 30 33 36
1610.0 33 38 41 41 44 37 45 34 37 38
1650.0 42 43 63 48 66 76 77 75 67 61
1690.0 53 56 59 69 72 84 107 131 151 174
1730.0 194 209 213 225 230 202 180 129 110 88
1770.0 91 70 75 68 73 59 61 58 60 63
1810.0 57 50 44 40 30 33 24 31 22 26
1850.0 20 22 21 23 21 20 22 18 25 20
1890.0 25 23 27 29 29 32 32 33 32 32
1930.0 36 34 38 35 41 37 39 36 37 32
1970.0 33 31 32 33 32 32 36 35 35 37
2010.0 38 35 32 30 24 26 25 25 25 23
2050.0 25 24 22 23 22 25 24 24 25 24
2090.0 20 23 25 25 24 24 23 26 24 22
2130.0 23 22 22 20 21 20 21 23 23 25
2170.0 26 27 26 26 28 28 29 30 29 29
2210.0 30 27 27 26 24 23 25 24 25 25
2250.0 25 27 28 27 29 31 30 29 27 26
2290.0 24 22 20 23 21 16 16 13 11 10
2330.0 12 20 20 22 24 27 20 26 29 27
2370.0 32 38 39 35 29 27 28 28 29 29
2410.0 29 27 26 23 22 21 20 22 21 19
2450.0 19 20 20 22 23 22 25 24 28 27
2490.0 29 26 27 24 26 27 30 31 32 35
2530.0 34 36 33 31 31 30 28 29 29 31
2570.0 32 37 38 45 47 53 59 63 65 68
2610.0 72 75 75 79 77 82 84 88 92 96
2650.0 102 110 119 127 138 148 157 169 190 211
2690.0 238 262 276 282 276 269 261 251 236 216
2730.0 191 177 168 176 195 241 299 361 400 398
2770.0 353 293 251 227 220 219 226 240 256 281
2810.0 320 387 494 701 1055 1607 2330 3160 3882 4044
2850.0 3772 3381 3171 3138 3084 2893 2543 2148 1776 1512
2890.0 1373 1349 1414 1543 1718 1951 2295 2811 3584 4602
2930.0 5929 7480 8951 10000 9899 8862 7328 5981 5526 5257
2970.0 4657 3654 2248 1134 654 431 335 269 226 192
3010.0 176 166 156 145 133 124 108 98 89 85
3050.0 83 79 77 73 74 67 64 63 58 56
3090.0 50 45 42 40 39 37 30 35 32 36
3130.0 32 33 32 33 35 35 35 33 35 35
3170.0 35 32 37 38 37 35 40 36 35 32
3210.0 32 31 29 25 24 23 24 25 24 25
3250.0 27 24 24 20 22 21 23 27 21 21
3290.0 21 25 25 27 24 28 25 30 27 26
3330.0 30 27 25 24 27 28 26 26 25 25
3370.0 30 30 30 32 33 33 35 35 37 38
3410.0 34 35 38 41 45 36 33 35 39 38
3450.0 34 31 30 30 24 31 28 25 32 26
3490.0 25 28 30 36 28 26 26 20 22 25
3530.0 20 21 17 19 17 19 18 16 19 31
3570.0 28 26 23 23 28 31 37 16 26 23
3610.0 48 46 68 89 110 177 199 241 263 257
3650.0 239 173 132 84 57 56 37 44 15 27
3690.0 27 25 25 32 23 29 27 28 18 29
3730.0 31 42 27 26 48 22 38 16 25 23
3770.0 25 20 15 24 16 20 19 33 24 34
3810.0 22 28 22 30 31 20 32 42 27 18
3850.0 25 40 36 24 33 37 32 29 25 42
3890.0 18 27 10 48 32 20 11 30 23 14
3930.0 23 19 26 22 27 23 34 20 29 24
##END=
