##TITLE=Benzenamine, 2,4-dimethoxy-
##JCAMP-DX=4.24
##DATA TYPE=INFRARED SPECTRUM
##ORIGIN=Sadtler Research Labs Under US-EPA Contract
##OWNER=NIST Standard Reference Data Program
##CAS REGISTRY NO=2735-04-8
##MOLFORM=C 8 H 11 N O 2
##XUNITS=1/CM
##YUNITS=ABSORBANCE
##XFACTOR=1.0
##YFACTOR=0.000127261
##DELTAX=4.0
##FIRSTX=450.0
##LASTX=3966.0
##FIRSTY=0.019726
##MAXX=3966
##MINX=450
##MAXY=1.27261
##MINY=0
##NPOINTS=880
##XYDATA=(X++(Y..Y))
450.0 155 347 342 190 254 106 454 448 261 421
490.0 227 102 227 280 262 366 309 272 250 238
530.0 333 325 324 344 248 200 234 358 375 268
570.0 207 300 294 379 328 413 436 387 412 431
610.0 448 589 679 678 725 760 780 875 838 870
650.0 884 807 818 711 589 629 608 505 537 486
690.0 469 498 541 558 487 485 406 325 271 189
730.0 297 166 336 342 132 16 224 230 232 289
770.0 291 501 632 780 994 978 1015 1039 937 777
810.0 678 655 661 639 714 743 826 865 801 727
850.0 609 517 386 288 254 175 135 116 117 131
890.0 100 132 119 125 189 242 399 551 643 652
930.0 596 440 307 213 170 140 122 123 125 135
970.0 132 151 180 204 250 283 335 401 460 532
1010.0 646 821 1071 1378 1747 2169 2572 2779 2789 2698
1050.0 2424 2034 1654 1326 1102 959 907 888 876 860
1090.0 802 739 698 633 614 591 632 728 895 1192
1130.0 1667 2213 2741 3343 3990 4643 5122 5036 4512 3494
1170.0 2413 1679 1389 1337 1488 1856 2470 3244 3962 4337
1210.0 4290 3836 3255 2901 2901 3152 3384 3423 3253 2891
1250.0 2466 2203 2228 2461 2799 3075 3207 3159 2942 2655
1290.0 2354 2002 1674 1442 1287 1120 968 807 686 583
1330.0 520 466 408 376 364 322 275 232 189 166
1370.0 151 114 127 143 125 153 146 164 230 294
1410.0 380 499 525 682 780 957 1116 1378 1537 1605
1450.0 1645 1621 1676 1959 2079 2052 1857 1761 1682 1561
1490.0 1755 2318 3245 4877 6832 9198 10000 9388 7597 4865
1530.0 2698 1449 854 531 473 483 430 349 450 578
1570.0 680 851 1111 1482 1977 2454 2884 2984 2838 2406
1610.0 1885 1505 1168 1026 879 817 658 537 450 338
1650.0 194 117 187 168 154 116 83 149 71 53
1690.0 105 131 23 28 66 110 69 3 83 112
1730.0 78 3 65 61 50 23 70 64 48 80
1770.0 29 21 62 67 75 60 51 69 62 95
1810.0 83 89 104 106 96 82 99 119 84 68
1850.0 92 109 110 110 91 69 96 94 81 68
1890.0 54 55 62 65 68 66 66 68 52 67
1930.0 76 68 72 56 63 71 71 67 66 57
1970.0 58 60 62 59 61 48 53 66 63 62
2010.0 61 53 47 53 57 58 66 70 77 87
2050.0 94 100 111 113 114 124 123 125 120 116
2090.0 110 100 96 89 84 78 72 71 66 61
2130.0 59 56 53 51 50 48 52 51 53 52
2170.0 52 49 49 50 55 56 60 65 63 63
2210.0 59 53 53 51 49 45 38 39 34 32
2250.0 32 32 36 33 36 35 31 34 36 41
2290.0 45 51 62 66 73 75 67 61 63 54
2330.0 39 47 39 54 58 53 61 55 63 44
2370.0 49 41 42 47 33 20 17 14 14 13
2410.0 17 20 19 25 23 24 27 24 22 14
2450.0 12 8 1 1 4 4 5 9 8 10
2490.0 16 17 17 16 11 11 13 11 8 8
2530.0 12 11 9 16 12 18 18 18 17 16
2570.0 19 16 16 20 22 21 24 30 31 36
2610.0 43 41 38 37 33 30 27 22 28 27
2650.0 29 28 29 28 27 24 28 22 24 22
2690.0 19 18 19 18 21 19 20 25 27 26
2730.0 24 25 30 28 29 32 37 42 49 54
2770.0 61 69 81 95 101 124 144 159 183 215
2810.0 246 292 349 439 582 796 1074 1313 1430 1409
2850.0 1260 1028 835 724 664 629 630 639 660 694
2890.0 725 777 840 921 1021 1138 1263 1357 1400 1422
2930.0 1467 1584 1796 2045 2203 2262 2209 2001 1733 1456
2970.0 1225 1050 933 899 940 1094 1371 1711 1926 1912
3010.0 1708 1376 992 748 666 667 693 700 667 603
3050.0 513 410 337 304 294 307 333 345 340 340
3090.0 302 269 233 207 185 167 152 137 125 113
3130.0 95 90 81 71 69 61 53 45 50 48
3170.0 46 47 50 45 42 36 34 32 30 38
3210.0 35 34 42 28 28 31 30 28 20 18
3250.0 16 13 6 8 9 9 7 5 2 14
3290.0 7 1 4 1 6 1 5 3 1 4
3330.0 8 8 7 10 10 12 9 15 23 28
3370.0 32 45 72 91 133 197 255 309 329 304
3410.0 252 187 129 106 81 64 58 63 67 71
3450.0 78 95 117 150 183 222 272 327 413 441
3490.0 426 392 340 265 210 157 114 97 76 85
3530.0 64 44 49 33 55 44 29 26 24 52
3570.0 46 25 22 15 29 34 34 32 27 16
3610.0 41 27 30 29 29 38 39 21 26 31
3650.0 30 24 34 43 31 43 4 35 37 32
3690.0 19 15 34 30 36 46 34 47 45 80
3730.0 47 33 38 20 47 17 31 29 24 15
3770.0 25 23 17 38 24 8 20 18 17 4
3810.0 12 7 9 7 0 19 26 6 16 39
3850.0 20 0 22 6 19 24 24 48 50 57
3890.0 31 6 34 18 32 26 23 23 27 61
3930.0 0 39 4 0 31 31 19 41 0 49
##END=
