##TITLE=1,3-Benzodioxole
##JCAMP-DX=4.24
##DATA TYPE=INFRARED SPECTRUM
##ORIGIN=Sadtler Research Labs Under US-EPA Contract
##OWNER=NIST Standard Reference Data Program
##CAS REGISTRY NO=274-09-9
##MOLFORM=C 7 H 6 O 2
##XUNITS=1/CM
##YUNITS=ABSORBANCE
##XFACTOR=1.0
##YFACTOR=0.000117569
##DELTAX=4.0
##FIRSTX=450.0
##LASTX=3966.0
##FIRSTY=0.011404
##MAXX=3966
##MINX=450
##MAXY=1.17569
##MINY=0
##NPOINTS=880
##XYDATA=(X++(Y..Y))
450.0 97 93 114 83 93 97 37 89 34 61
490.0 59 65 64 60 102 75 88 110 125 126
530.0 171 171 164 155 142 135 113 130 90 85
570.0 65 71 65 58 58 52 62 45 59 42
610.0 59 48 77 65 74 68 72 74 54 71
650.0 51 67 48 52 13 82 85 69 63 78
690.0 86 73 116 133 279 407 795 1246 1801 2113
730.0 2447 4134 3672 2267 2051 1633 1073 545 267 138
770.0 99 88 121 182 323 449 504 537 522 473
810.0 364 252 232 243 256 288 324 380 461 613
850.0 675 524 528 604 425 251 143 104 91 93
890.0 123 152 180 208 366 364 315 382 468 578
930.0 752 982 1289 1590 1850 1783 1711 1771 1436 906
970.0 564 364 278 242 245 279 324 345 349 370
1010.0 404 448 552 768 1002 1300 1633 2166 2771 3045
1050.0 3243 3182 3281 2740 2041 1700 1360 1095 951 884
1090.0 742 690 776 726 648 620 651 675 636 573
1130.0 512 435 398 357 383 390 340 306 274 218
1170.0 160 141 124 129 142 170 205 250 317 426
1210.0 675 1258 2581 4769 7428 9171 10000 9756 9018 6544
1250.0 3532 2087 1680 1402 1125 960 847 550 300 224
1290.0 171 142 123 111 118 116 146 139 161 170
1330.0 176 169 171 340 702 1345 1757 1971 1818 1838
1370.0 1465 553 138 114 108 214 218 221 233 233
1410.0 173 116 35 62 62 82 104 171 244 292
1450.0 376 488 621 896 1697 3799 7341 9446 9606 9035
1490.0 8710 6219 2862 1485 1243 1112 1083 866 525 314
1530.0 128 60 27 0 24 82 101 105 184 245
1570.0 235 214 215 193 169 140 148 154 182 174
1610.0 175 209 198 219 205 239 206 189 172 93
1650.0 10 11 30 42 41 45 28 64 24 18
1690.0 46 58 30 46 71 98 81 41 78 91
1730.0 92 93 157 153 140 144 149 121 100 105
1770.0 76 66 79 68 71 65 58 67 68 90
1810.0 83 78 80 66 47 29 43 62 62 73
1850.0 119 160 155 154 165 144 138 135 134 139
1890.0 143 156 176 183 167 132 110 88 46 35
1930.0 38 44 60 50 57 61 60 49 44 34
1970.0 40 45 55 58 65 64 78 104 123 128
2010.0 130 124 110 96 84 82 86 81 77 71
2050.0 70 66 62 61 52 56 54 52 52 55
2090.0 51 55 56 52 48 44 39 35 38 36
2130.0 35 35 36 37 40 36 37 38 33 33
2170.0 27 26 26 27 24 27 27 27 28 27
2210.0 29 30 32 32 33 31 31 30 33 36
2250.0 37 41 41 46 51 64 68 71 70 67
2290.0 68 68 73 79 86 85 84 73 68 62
2330.0 58 49 40 45 49 47 49 39 44 47
2370.0 42 35 36 32 27 25 19 18 15 15
2410.0 16 16 18 20 19 21 21 21 24 30
2450.0 40 50 64 68 73 69 61 40 32 26
2490.0 29 26 29 33 33 36 34 38 31 30
2530.0 28 27 31 35 44 47 58 61 60 63
2570.0 63 67 80 98 118 131 138 135 120 97
2610.0 71 54 49 45 42 39 35 29 26 25
2650.0 27 25 28 28 28 34 39 41 46 50
2690.0 54 56 60 68 72 84 90 92 89 85
2730.0 72 56 64 73 79 92 111 149 205 296
2770.0 394 463 489 488 443 361 257 188 150 129
2810.0 118 117 124 141 165 187 229 275 314 364
2850.0 448 583 735 887 1039 1229 1441 1651 1663 1579
2890.0 1572 1379 1092 859 820 869 956 1044 1083 1128
2930.0 1101 1017 873 795 760 706 667 620 572 543
2970.0 527 479 450 473 448 397 385 357 338 346
3010.0 361 416 471 526 538 523 490 443 388 353
3050.0 359 400 466 593 808 918 903 891 782 680
3090.0 464 377 333 269 240 226 204 162 126 88
3130.0 68 45 37 32 27 23 19 18 19 19
3170.0 16 21 19 15 14 21 20 17 17 15
3210.0 18 18 17 17 19 17 15 17 19 19
3250.0 19 20 17 16 19 16 19 20 17 16
3290.0 17 18 19 14 15 18 18 18 20 17
3330.0 22 19 17 15 20 15 19 16 18 23
3370.0 17 17 23 22 20 23 21 14 18 20
3410.0 20 20 17 16 22 22 16 15 16 18
3450.0 14 21 15 21 21 19 17 16 19 23
3490.0 21 19 14 20 19 18 20 17 21 25
3530.0 26 20 21 23 20 20 20 22 25 19
3570.0 14 15 24 23 22 27 24 28 28 30
3610.0 28 30 25 24 25 29 28 30 30 25
3650.0 31 28 33 30 31 31 30 31 24 22
3690.0 20 27 25 25 24 22 24 21 24 29
3730.0 30 29 24 28 29 28 27 22 24 27
3770.0 21 25 19 32 26 26 15 23 34 27
3810.0 20 29 21 29 29 26 35 29 24 34
3850.0 33 36 32 23 35 20 20 30 36 39
3890.0 45 47 41 59 50 48 36 46 55 49
3930.0 61 61 70 57 52 48 42 36 34 43
##END=
