##TITLE=1,3,4-Thiadiazole, 2,5-dimethyl-
##JCAMP-DX=4.24
##DATA TYPE=INFRARED SPECTRUM
##ORIGIN=Sadtler Research Labs Under US-EPA Contract
##OWNER=NIST Standard Reference Data Program
##CAS REGISTRY NO=27464-82-0
##MOLFORM=C 4 H 6 N 2 S
##XUNITS=1/CM
##YUNITS=ABSORBANCE
##XFACTOR=1.0
##YFACTOR=0.000053976
##DELTAX=4.0
##FIRSTX=450.0
##LASTX=3966.0
##FIRSTY=0.012900
##MAXX=3966
##MINX=450
##MAXY=0.53976
##MINY=0
##NPOINTS=880
##XYDATA=(X++(Y..Y))
450.0 239 139 66 75 15 52 13 40 75 99
490.0 20 43 73 84 85 183 181 167 188 207
530.0 192 139 107 94 131 84 80 70 79 81
570.0 109 82 85 93 80 105 104 118 194 238
610.0 325 406 731 1460 2539 3667 3866 4032 4138 4104
650.0 3431 1471 645 385 394 330 235 192 122 132
690.0 80 76 46 36 21 42 33 35 20 22
730.0 22 9 3 9 45 23 33 38 38 36
770.0 29 27 22 8 21 16 28 24 12 28
810.0 34 30 25 20 41 27 26 27 30 31
850.0 26 30 35 29 35 29 33 37 54 37
890.0 49 63 74 89 121 174 208 300 448 619
930.0 829 1054 1203 1363 1489 1503 1404 1276 1137 938
970.0 706 540 423 338 279 256 243 225 199 196
1010.0 193 189 176 194 226 267 318 358 406 445
1050.0 475 470 477 461 433 380 324 278 246 221
1090.0 208 212 213 233 248 297 359 448 557 622
1130.0 690 808 989 1233 1385 1485 1686 2058 2758 3927
1170.0 5473 6979 8118 9107 9764 10000 8867 6572 5200 5244
1210.0 5723 5383 4349 3544 3470 3346 2571 1800 1237 899
1250.0 679 556 513 535 578 590 614 616 662 681
1290.0 664 602 534 484 439 393 346 326 322 335
1330.0 343 367 383 403 426 457 481 517 601 711
1370.0 932 1151 1303 1392 1445 1428 1209 1025 1019 1100
1410.0 1187 1274 1485 1794 2060 2344 2625 2595 2562 3139
1450.0 3484 3189 3156 3217 3274 3326 3349 3391 3236 2944
1490.0 2515 2068 1607 1205 863 618 530 499 504 485
1530.0 480 486 475 476 446 445 416 431 408 379
1570.0 363 369 333 310 276 262 230 217 187 178
1610.0 162 151 149 137 125 124 120 121 108 106
1650.0 93 120 69 63 55 47 50 37 39 62
1690.0 43 44 79 74 63 63 75 66 61 48
1730.0 48 59 46 27 27 34 27 30 26 35
1770.0 32 41 33 51 44 60 42 40 34 18
1810.0 10 13 14 12 25 16 24 18 33 29
1850.0 24 19 19 13 11 12 8 10 12 22
1890.0 30 37 41 40 42 35 18 15 4 1
1930.0 2 2 3 6 4 6 10 12 13 17
1970.0 14 19 23 24 29 39 41 44 51 52
2010.0 53 49 50 42 40 33 23 9 9 7
2050.0 12 11 7 9 12 16 19 14 20 19
2090.0 28 37 45 55 63 72 81 89 90 85
2130.0 87 73 74 77 68 71 64 61 57 52
2170.0 45 32 19 16 10 2 2 0 1 5
2210.0 5 2 5 8 11 12 12 13 12 12
2250.0 14 11 12 9 10 6 12 13 14 19
2290.0 28 37 50 61 73 89 86 86 108 99
2330.0 109 95 88 108 120 115 141 120 154 167
2370.0 164 162 158 151 131 124 111 104 105 102
2410.0 97 94 86 89 90 89 93 95 85 85
2450.0 85 82 78 80 83 85 85 85 82 83
2490.0 76 73 74 72 67 68 68 71 76 79
2530.0 86 90 99 112 125 138 145 148 154 153
2570.0 146 133 114 93 86 82 79 63 59 55
2610.0 47 40 30 24 23 28 30 36 40 43
2650.0 47 56 65 68 69 72 69 67 58 58
2690.0 56 51 49 48 40 40 43 42 40 48
2730.0 62 71 77 87 85 83 71 57 47 43
2770.0 43 38 35 46 51 61 67 78 90 104
2810.0 122 124 136 148 165 173 193 228 270 332
2850.0 429 562 686 799 870 910 928 913 828 750
2890.0 700 669 657 654 699 746 819 910 1128 1537
2930.0 2256 3027 3256 3288 3292 3202 2944 2075 1493 1239
2970.0 1187 1187 1478 1445 1134 1067 1018 993 950 822
3010.0 711 683 674 578 504 447 440 432 451 467
3050.0 499 539 540 534 521 520 500 489 478 439
3090.0 379 325 273 236 194 154 134 119 106 103
3130.0 95 94 88 79 68 58 48 43 37 35
3170.0 27 28 19 20 23 27 22 24 25 18
3210.0 24 22 18 26 22 22 18 15 18 24
3250.0 18 24 21 22 24 27 33 31 32 32
3290.0 37 43 46 49 41 38 38 29 38 38
3330.0 13 29 24 22 20 27 25 22 28 28
3370.0 36 25 32 24 24 16 27 30 22 30
3410.0 33 32 23 24 18 30 26 26 28 36
3450.0 34 31 29 37 39 29 38 34 41 37
3490.0 38 40 34 41 38 36 29 17 28 30
3530.0 33 20 34 14 13 28 19 16 28 20
3570.0 42 32 25 34 19 40 14 12 28 21
3610.0 31 5 7 24 21 42 6 26 6 19
3650.0 27 14 26 7 26 22 17 23 6 25
3690.0 25 31 26 32 32 18 23 27 14 25
3730.0 18 50 28 31 32 30 29 19 18 9
3770.0 2 18 17 29 21 37 20 8 27 33
3810.0 34 24 12 33 17 8 29 17 39 37
3850.0 34 45 30 23 32 32 16 19 26 29
3890.0 43 35 43 45 40 42 18 40 35 33
3930.0 28 40 38 46 45 31 52 60 51 44
##END=
