##TITLE=Azulene
##JCAMP-DX=4.24
##DATA TYPE=INFRARED SPECTRUM
##ORIGIN=Sadtler Research Labs Under US-EPA Contract
##OWNER=NIST Standard Reference Data Program
##CAS REGISTRY NO=275-51-4
##MOLFORM=C 10 H 8
##XUNITS=1/CM
##YUNITS=ABSORBANCE
##XFACTOR=1.0
##YFACTOR=0.000147147
##DELTAX=4.0
##FIRSTX=450.0
##LASTX=3966.0
##FIRSTY=0.000000
##MAXX=3966
##MINX=450
##MAXY=1.47147
##MINY=0
##NPOINTS=880
##XYDATA=(X++(Y..Y))
450.0 0 85 94 153 198 184 235 289 295 303
490.0 341 284 211 210 170 178 142 172 145 195
530.0 205 311 426 543 702 683 1225 1180 573 697
570.0 481 348 259 194 197 203 207 167 191 166
610.0 158 131 144 137 137 142 143 144 126 155
650.0 145 159 152 219 232 315 335 329 335 291
690.0 312 313 389 458 556 590 762 1053 787 648
730.0 675 776 1082 1790 2907 4303 5281 6415 10000 7518
770.0 5486 4860 3610 2113 1050 548 353 300 295 331
810.0 398 448 469 404 338 282 198 144 138 143
850.0 150 175 185 215 221 262 278 284 283 330
890.0 471 584 586 609 540 521 346 300 401 542
930.0 760 959 1207 1544 1436 1113 1004 870 692 530
970.0 405 356 317 283 264 281 296 302 293 283
1010.0 269 240 221 196 191 195 227 289 396 553
1050.0 628 650 615 546 393 257 195 157 149 135
1090.0 134 126 131 141 150 157 163 165 153 147
1130.0 144 151 153 160 162 158 155 144 139 128
1170.0 130 126 141 154 201 270 383 491 409 426
1210.0 501 357 249 181 141 125 119 117 114 122
1250.0 128 143 160 182 202 225 244 274 325 409
1290.0 432 421 459 425 353 284 219 193 169 165
1330.0 158 164 192 212 233 268 332 445 621 811
1370.0 1056 1503 2113 2902 3663 4166 4185 3866 3299 2460
1410.0 1717 1321 1199 1191 1348 1621 1872 2070 2189 2149
1450.0 1924 1538 1231 1081 945 914 923 885 906 929
1490.0 821 662 564 495 453 422 442 555 693 815
1530.0 926 1020 1016 965 945 1032 1190 1523 2125 2775
1570.0 3474 3692 3579 3170 2389 1384 660 461 421 429
1610.0 448 464 525 528 540 505 498 458 403 366
1650.0 337 321 282 271 270 281 304 325 373 402
1690.0 376 373 382 329 275 230 224 218 188 177
1730.0 181 188 166 160 163 170 160 163 164 165
1770.0 183 210 226 262 284 316 340 357 398 459
1810.0 558 603 601 535 501 401 270 231 235 234
1850.0 219 198 193 184 198 219 239 263 283 298
1890.0 309 311 298 291 303 327 338 339 340 332
1930.0 324 301 269 265 296 333 354 354 336 311
1970.0 268 199 149 138 137 145 142 136 130 127
2010.0 124 125 125 126 125 125 125 127 131 135
2050.0 141 148 156 163 168 172 177 183 192 204
2090.0 221 234 244 251 250 242 227 208 187 175
2130.0 163 160 161 168 179 185 184 181 175 158
2170.0 146 135 126 122 119 117 120 120 122 124
2210.0 122 124 123 123 128 137 150 169 194 216
2250.0 230 228 220 206 178 154 141 135 128 134
2290.0 139 143 148 152 150 150 141 135 138 137
2330.0 141 143 152 169 178 189 202 203 202 185
2370.0 174 173 180 193 204 213 213 205 190 169
2410.0 144 124 118 112 112 108 106 105 102 100
2450.0 100 101 102 104 104 106 107 106 104 105
2490.0 108 112 118 123 121 117 116 109 106 101
2530.0 98 93 91 91 87 87 86 85 86 86
2570.0 88 93 98 103 108 117 124 124 126 122
2610.0 117 112 108 108 112 113 111 106 105 102
2650.0 99 97 98 97 94 96 93 96 96 94
2690.0 94 97 98 96 93 91 92 92 91 93
2730.0 92 93 93 96 101 101 102 100 99 97
2770.0 97 99 100 103 104 107 108 105 108 106
2810.0 108 108 112 118 121 128 135 141 143 144
2850.0 142 139 137 134 137 145 147 148 150 152
2890.0 149 150 150 151 153 156 159 159 164 167
2930.0 180 192 208 231 263 303 343 389 432 466
2970.0 494 508 517 536 573 624 732 911 1154 1430
3010.0 1680 1855 2014 2176 2226 2157 2073 2033 2061 2097
3050.0 2133 2176 2200 2167 2127 2020 1945 1989 2179 2347
3090.0 2381 2454 2349 1982 1529 1201 713 338 226 193
3130.0 176 167 159 157 155 156 156 155 153 146
3170.0 144 137 131 127 120 113 115 112 110 115
3210.0 112 109 111 110 107 105 101 103 104 102
3250.0 99 98 98 92 94 92 91 93 89 90
3290.0 89 87 90 91 92 89 88 90 89 87
3330.0 87 87 88 93 91 88 88 88 90 90
3370.0 92 89 92 96 89 89 89 92 98 92
3410.0 91 90 93 93 94 94 93 93 90 96
3450.0 97 97 91 97 96 92 97 94 90 89
3490.0 89 93 91 88 90 89 91 96 91 87
3530.0 90 92 99 99 101 94 91 91 97 89
3570.0 98 98 100 94 96 101 96 91 91 88
3610.0 89 89 86 85 86 90 86 88 88 89
3650.0 92 96 97 97 100 91 96 99 97 93
3690.0 99 100 96 90 90 98 94 93 91 97
3730.0 89 85 92 88 91 92 97 94 91 85
3770.0 86 94 86 88 93 87 89 86 90 85
3810.0 91 85 85 86 85 85 85 90 85 89
3850.0 89 90 94 93 101 99 99 114 126 139
3890.0 157 186 190 189 186 180 159 142 124 119
3930.0 107 108 120 119 108 106 116 109 103 102
##END=
