##TITLE=Isobornyl propionate
##JCAMP-DX=4.24
##DATA TYPE=INFRARED SPECTRUM
##ORIGIN=Sadtler Research Labs Under US-EPA Contract
##OWNER=NIST Standard Reference Data Program
##CAS REGISTRY NO=2756-56-1
##MOLFORM=C 13 H 22 O 2
##XUNITS=1/CM
##YUNITS=ABSORBANCE
##XFACTOR=1.0
##YFACTOR=0.000065820
##DELTAX=4.0
##FIRSTX=450.0
##LASTX=3966.0
##FIRSTY=0.017311
##MAXX=3966
##MINX=450
##MAXY=0.6582
##MINY=0
##NPOINTS=880
##XYDATA=(X++(Y..Y))
450.0 263 258 272 277 283 321 243 227 346 264
490.0 321 262 308 341 256 201 228 212 86 217
530.0 159 135 201 233 195 179 157 257 256 160
570.0 329 261 236 275 140 202 184 200 176 319
610.0 182 226 291 158 186 206 157 150 197 111
650.0 213 185 139 199 295 189 134 153 93 186
690.0 151 86 185 54 104 131 87 155 104 84
730.0 118 153 80 181 65 86 98 118 107 124
770.0 85 71 150 80 186 191 209 269 258 221
810.0 254 244 202 201 186 192 336 287 315 356
850.0 298 287 321 232 294 285 209 284 295 312
890.0 316 277 224 277 256 329 383 333 280 316
930.0 397 509 560 538 549 476 441 457 568 653
970.0 776 682 625 622 701 698 846 784 902 1172
1010.0 1574 2058 2389 2316 1999 1502 1118 950 948 1274
1050.0 2054 2753 3231 3367 3160 3093 3008 2936 2757 2480
1090.0 1898 1512 1166 1192 1397 1465 1383 1202 1015 948
1130.0 975 995 1005 1118 1285 1514 1809 2264 2986 4006
1170.0 5253 6753 8353 9091 8737 7276 6204 5493 4963 4452
1210.0 4063 3683 3369 2953 2661 2420 2224 2165 2102 2062
1250.0 1971 1875 1755 1739 1746 1841 1821 1859 1610 1361
1290.0 1081 930 771 721 605 734 780 929 1097 1328
1330.0 1524 1670 1723 1818 2080 2101 1991 1661 1260 1063
1370.0 1198 1286 1502 1505 1523 1534 1483 1254 975 647
1410.0 518 445 453 447 470 556 591 753 775 981
1450.0 1125 1442 1785 1942 2055 1977 1679 1386 1153 959
1490.0 745 583 430 291 297 245 198 239 216 200
1530.0 165 139 219 228 207 121 172 177 196 82
1570.0 152 141 157 92 150 105 125 104 132 123
1610.0 136 129 179 130 110 157 99 176 109 209
1650.0 151 339 139 182 186 236 213 245 197 297
1690.0 273 311 388 475 471 560 633 765 786 842
1730.0 1033 1432 2134 3430 5719 8320 10000 8986 6248 3411
1770.0 1768 1060 777 631 572 548 474 389 333 266
1810.0 230 214 197 209 193 164 138 156 111 173
1850.0 81 109 102 116 85 133 85 85 79 77
1890.0 102 80 84 83 90 47 82 81 82 99
1930.0 83 53 97 64 103 69 83 80 95 55
1970.0 93 92 78 87 80 89 95 93 50 99
2010.0 71 95 81 89 104 105 81 102 84 106
2050.0 88 115 26 130 85 82 100 92 77 111
2090.0 84 69 99 48 116 60 82 68 85 70
2130.0 88 72 68 59 79 53 89 61 90 85
2170.0 74 92 82 72 92 99 72 104 50 99
2210.0 67 105 46 104 66 72 93 82 51 84
2250.0 67 86 92 86 105 88 86 100 97 87
2290.0 109 88 126 118 167 121 189 130 230 236
2330.0 243 284 319 307 298 230 233 386 382 345
2370.0 368 299 201 187 95 86 60 103 73 121
2410.0 58 101 36 88 75 79 68 82 97 57
2450.0 89 71 87 88 95 81 99 42 97 78
2490.0 60 50 101 56 102 55 70 53 77 46
2530.0 79 64 77 101 52 81 82 98 64 105
2570.0 61 105 63 115 74 93 80 124 78 105
2610.0 91 105 67 114 79 104 123 96 112 95
2650.0 105 89 134 73 134 66 106 54 115 65
2690.0 106 56 106 93 108 97 110 90 112 156
2730.0 155 201 195 170 159 178 118 182 148 162
2770.0 158 179 166 178 117 175 139 142 143 161
2810.0 169 194 185 202 244 251 286 294 316 330
2850.0 375 342 429 512 688 937 1435 2002 2710 3246
2890.0 3638 3602 3247 2733 2376 2206 2191 2365 2577 2933
2930.0 3361 3844 4473 5389 6280 6952 7355 8385 9430 9273
2970.0 8000 6439 5319 4570 3954 3617 3298 2757 2015 1459
3010.0 1192 1101 1157 1053 848 591 441 304 310 264
3050.0 239 199 216 217 222 192 201 195 190 187
3090.0 201 169 187 145 149 202 163 151 178 186
3130.0 140 205 160 186 175 169 199 172 143 159
3170.0 138 161 167 174 123 168 135 116 127 118
3210.0 123 126 112 99 157 74 107 113 99 124
3250.0 99 95 93 85 48 107 83 94 100 97
3290.0 93 107 72 62 88 78 62 95 48 83
3330.0 45 70 66 108 81 99 76 67 90 55
3370.0 92 117 95 102 125 86 114 97 39 134
3410.0 95 55 101 98 81 64 102 33 118 56
3450.0 66 78 58 107 73 101 118 116 111 197
3490.0 149 130 166 79 55 79 56 32 87 48
3530.0 0 85 7 41 42 79 91 78 26 73
3570.0 143 61 80 55 86 94 99 81 73 54
3610.0 61 106 59 98 66 102 91 69 73 74
3650.0 105 69 98 54 35 102 81 90 62 48
3690.0 69 110 39 44 39 24 111 26 54 56
3730.0 45 73 98 64 93 100 34 39 55 30
3770.0 25 22 24 46 58 9 67 44 71 58
3810.0 45 40 49 74 46 53 32 56 50 19
3850.0 25 60 54 34 57 5 26 3 3 3
3890.0 3 3 3 3 2 14 3 3 3 3
3930.0 3 3 3 6 28 3 3 3 3 3
##END=
