##TITLE=2-Cyclopenten-1-one, 3-methyl-
##JCAMP-DX=4.24
##DATA TYPE=INFRARED SPECTRUM
##ORIGIN=Sadtler Research Labs Under US-EPA Contract
##OWNER=NIST Standard Reference Data Program
##CAS REGISTRY NO=2758-18-1
##MOLFORM=C 6 H 8 O
##XUNITS=1/CM
##YUNITS=ABSORBANCE
##XFACTOR=1.0
##YFACTOR=0.000141028
##DELTAX=4.0
##FIRSTX=450.0
##LASTX=3966.0
##FIRSTY=0.003667
##MAXX=3966
##MINX=450
##MAXY=1.41028
##MINY=0
##NPOINTS=880
##XYDATA=(X++(Y..Y))
450.0 26 125 146 99 172 198 268 208 178 237
490.0 238 179 90 58 62 63 32 40 50 57
530.0 62 45 62 39 61 74 88 92 102 101
570.0 102 115 106 91 86 84 81 111 137 144
610.0 156 150 146 118 87 56 48 33 38 40
650.0 35 44 32 44 37 20 40 17 28 36
690.0 26 20 31 27 31 33 38 37 30 40
730.0 50 46 43 50 61 48 56 44 43 65
770.0 82 83 58 40 50 47 55 63 77 120
810.0 187 280 406 559 665 684 750 1041 873 620
850.0 516 428 359 267 197 139 103 92 74 70
890.0 69 58 57 58 66 67 73 78 79 89
930.0 83 92 98 112 137 175 207 240 276 345
970.0 446 398 312 294 260 221 185 171 145 127
1010.0 120 117 108 90 83 78 76 74 74 72
1050.0 67 69 69 75 80 88 96 106 113 121
1090.0 130 142 151 163 185 210 261 312 373 442
1130.0 504 543 563 590 653 717 788 922 1167 1459
1170.0 1578 1532 1508 1479 1361 974 591 374 267 218
1210.0 202 207 228 281 339 349 303 330 386 346
1250.0 302 303 367 480 628 759 794 771 769 760
1290.0 626 458 377 393 446 501 545 572 605 570
1330.0 501 438 358 292 268 274 302 345 369 405
1370.0 425 479 468 455 425 470 466 375 307 345
1410.0 417 438 449 490 578 652 712 753 770 715
1450.0 691 713 629 463 345 264 220 167 130 119
1490.0 108 96 100 92 98 96 88 91 108 96
1530.0 99 90 110 126 105 102 107 141 130 122
1570.0 130 130 138 134 128 139 148 174 196 254
1610.0 335 492 773 1108 1471 1645 1754 1737 1651 1386
1650.0 998 604 445 396 408 398 401 400 461 534
1690.0 594 701 812 940 1101 1427 2058 3260 4896 6317
1730.0 7415 8617 9747 10000 9001 7207 5829 4700 3083 1614
1770.0 841 481 339 258 224 183 170 138 123 104
1810.0 100 90 79 87 85 102 98 106 107 112
1850.0 106 91 83 67 65 60 57 48 51 48
1890.0 48 48 43 39 36 35 32 36 38 38
1930.0 41 45 48 50 55 52 53 50 47 42
1970.0 41 37 38 36 32 36 32 31 27 29
2010.0 26 28 25 26 26 26 24 24 26 25
2050.0 27 25 28 27 25 26 27 27 27 26
2090.0 26 28 29 31 29 31 34 34 36 34
2130.0 36 36 36 36 39 36 35 35 37 36
2170.0 34 35 34 37 37 38 37 39 40 37
2210.0 37 37 35 36 40 38 39 40 44 45
2250.0 45 51 52 52 52 52 47 47 46 41
2290.0 39 32 29 25 21 12 12 1 0 0
2330.0 0 0 0 0 0 16 0 0 0 0
2370.0 0 0 1 12 27 34 39 38 41 38
2410.0 40 37 35 31 35 35 33 36 35 38
2450.0 41 41 40 41 37 35 33 29 32 31
2490.0 35 32 33 33 33 33 33 34 32 31
2530.0 32 35 32 32 36 36 36 34 35 33
2570.0 34 32 34 35 34 33 34 32 33 31
2610.0 29 31 29 32 30 32 30 29 30 29
2650.0 31 30 31 27 29 27 28 28 29 28
2690.0 28 32 29 29 30 35 35 35 37 40
2730.0 44 47 60 60 61 58 66 63 54 48
2770.0 44 40 40 45 42 47 53 62 61 69
2810.0 81 94 107 113 125 135 170 209 282 346
2850.0 374 407 460 517 536 534 491 449 440 427
2890.0 373 326 327 364 483 660 975 1278 1482 1753
2930.0 1647 1589 1526 1209 971 916 883 797 706 684
2970.0 645 872 828 689 596 557 536 468 340 269
3010.0 216 193 166 157 150 143 137 137 139 139
3050.0 146 149 160 173 193 214 234 250 242 234
3090.0 227 211 173 135 103 84 68 57 51 47
3130.0 43 41 42 39 35 34 32 32 30 34
3170.0 31 32 30 28 26 28 28 28 25 26
3210.0 30 26 27 24 23 24 25 25 24 26
3250.0 28 26 26 27 27 27 25 27 21 21
3290.0 28 23 27 28 27 27 26 29 30 29
3330.0 25 26 30 30 32 33 31 33 35 35
3370.0 33 35 39 38 41 43 45 42 50 54
3410.0 58 59 61 57 62 64 75 87 106 122
3450.0 134 150 156 153 149 131 108 91 66 53
3490.0 47 36 32 29 27 21 25 26 25 16
3530.0 20 25 25 23 14 21 18 26 14 4
3570.0 11 25 24 26 17 0 13 20 14 21
3610.0 4 2 7 16 20 6 17 23 12 16
3650.0 8 17 19 16 28 4 21 6 28 9
3690.0 15 8 21 12 19 19 17 14 13 11
3730.0 12 24 6 21 6 36 12 23 34 32
3770.0 21 25 26 17 29 21 26 21 32 15
3810.0 28 15 21 18 16 23 12 15 19 23
3850.0 21 16 13 17 16 13 14 18 17 19
3890.0 35 17 19 13 23 25 30 15 16 21
3930.0 15 15 27 15 11 10 18 28 16 21
##END=
