##TITLE=1,2-Cyclopentanediol, 3-methyl-
##JCAMP-DX=4.24
##DATA TYPE=INFRARED SPECTRUM
##ORIGIN=Sadtler Research Labs Under US-EPA Contract
##OWNER=NIST Standard Reference Data Program
##CAS REGISTRY NO=27583-37-5
##MOLFORM=C 6 H 12 O 2
##XUNITS=1/CM
##YUNITS=ABSORBANCE
##XFACTOR=1.0
##YFACTOR=0.000078522
##DELTAX=4.0
##FIRSTX=450.0
##LASTX=3966.0
##FIRSTY=0.003691
##MAXX=3966
##MINX=450
##MAXY=0.78522
##MINY=0
##NPOINTS=880
##XYDATA=(X++(Y..Y))
450.0 47 45 20 80 38 109 4 98 43 125
490.0 76 83 36 51 81 33 48 74 122 145
530.0 167 201 263 205 207 311 293 234 213 236
570.0 165 172 157 160 178 172 161 154 167 171
610.0 186 165 192 174 168 156 171 168 167 170
650.0 139 146 147 151 123 161 156 158 138 146
690.0 152 140 147 151 183 154 182 165 216 135
730.0 152 184 149 221 174 31 252 233 286 285
770.0 305 292 313 321 340 374 414 449 466 508
810.0 510 532 533 509 487 491 485 482 489 492
850.0 489 469 453 442 422 411 424 436 447 463
890.0 466 459 448 431 406 373 356 344 342 334
930.0 361 409 459 526 601 720 841 980 1141 1320
970.0 1488 1628 1724 1779 1844 1873 1869 1859 1900 1921
1010.0 1958 2003 2074 2160 2246 2425 2587 2799 2954 3097
1050.0 3114 3150 3167 3178 3241 3327 3539 3752 4117 4459
1090.0 4890 5164 5368 5368 5138 4762 4255 3770 3303 2984
1130.0 2686 2468 2254 2086 1908 1758 1637 1528 1463 1418
1170.0 1417 1406 1430 1450 1487 1511 1548 1567 1553 1544
1210.0 1528 1511 1487 1486 1480 1487 1484 1492 1503 1492
1250.0 1494 1483 1481 1457 1456 1439 1434 1438 1428 1420
1290.0 1411 1415 1393 1404 1415 1453 1468 1516 1562 1581
1330.0 1595 1588 1594 1556 1555 1519 1520 1500 1518 1555
1370.0 1598 1688 1736 1845 1795 1777 1661 1520 1367 1254
1410.0 1130 996 891 774 705 659 696 704 841 929
1450.0 1149 1269 1474 1543 1531 1472 1216 1030 764 561
1490.0 406 279 226 163 156 124 103 91 83 76
1530.0 60 53 59 34 44 37 48 25 53 28
1570.0 43 19 48 18 36 32 38 28 33 32
1610.0 22 29 27 32 39 27 48 26 29 27
1650.0 37 16 47 17 23 32 29 26 29 26
1690.0 32 24 16 26 19 13 13 30 32 43
1730.0 61 61 71 89 93 85 107 99 101 92
1770.0 96 79 74 48 48 22 31 15 17 18
1810.0 17 13 11 14 10 13 0 15 7 17
1850.0 13 17 15 14 9 8 11 4 8 3
1890.0 11 4 5 5 7 8 5 3 13 9
1930.0 14 11 13 10 15 14 13 12 12 12
1970.0 10 10 15 19 17 8 10 6 3 3
2010.0 5 5 5 6 5 5 7 9 8 10
2050.0 11 11 10 9 10 13 11 9 17 13
2090.0 15 13 15 22 17 17 19 24 23 19
2130.0 24 29 30 29 31 28 32 32 31 29
2170.0 29 33 34 33 30 32 32 33 25 21
2210.0 21 22 20 17 16 16 16 16 16 14
2250.0 13 12 16 17 14 14 15 17 16 15
2290.0 15 17 14 16 12 13 4 3 1 1
2330.0 1 1 4 1 25 5 1 2 9 23
2370.0 37 39 42 39 34 27 21 22 21 18
2410.0 20 21 24 22 24 27 26 26 21 21
2450.0 23 23 22 21 20 22 21 20 20 20
2490.0 16 18 19 16 16 15 14 14 17 15
2530.0 18 24 22 21 25 26 31 37 39 40
2570.0 48 47 49 50 55 54 58 56 58 64
2610.0 63 69 69 70 71 72 71 75 72 77
2650.0 80 81 82 84 88 87 88 96 95 98
2690.0 104 105 106 111 114 117 116 121 130 142
2730.0 153 157 170 171 178 175 169 168 164 162
2770.0 162 166 165 167 174 181 183 200 213 226
2810.0 248 278 321 375 429 486 540 581 633 689
2850.0 772 908 1130 1469 1974 2653 3360 4009 4472 4810
2890.0 4959 5052 5098 5284 5573 5892 6183 6356 6383 6198
2930.0 6131 6085 6212 6369 6696 7259 8017 8806 9469 10000
2970.0 9685 8534 6993 5473 3921 2658 1789 1226 869 636
3010.0 491 392 327 276 241 209 186 171 151 142
3050.0 138 133 118 112 108 102 97 92 91 82
3090.0 79 75 80 75 71 67 59 65 59 64
3130.0 61 64 64 64 68 67 69 72 75 79
3170.0 75 76 73 75 74 66 69 56 54 49
3210.0 46 37 31 30 26 25 21 15 20 15
3250.0 15 20 13 13 9 9 19 10 14 15
3290.0 16 18 16 19 15 24 23 21 18 20
3330.0 17 20 20 18 24 23 18 25 20 16
3370.0 16 13 10 9 2 8 7 3 7 11
3410.0 11 14 17 13 26 21 16 27 28 34
3450.0 29 32 44 44 49 48 54 71 62 73
3490.0 88 102 105 115 122 133 145 145 166 167
3530.0 190 198 210 224 242 262 302 337 382 463
3570.0 543 655 766 904 1057 1196 1360 1443 1543 1543
3610.0 1565 1465 1396 1265 1159 1065 991 933 927 929
3650.0 1008 1072 1075 1148 1089 1114 991 920 759 667
3690.0 552 439 363 285 258 228 202 177 171 142
3730.0 132 145 136 97 148 80 121 90 71 82
3770.0 82 72 58 79 58 50 46 69 45 84
3810.0 29 64 64 65 59 39 65 67 66 49
3850.0 67 74 72 76 77 72 73 79 59 87
3890.0 50 69 53 75 59 65 43 55 58 34
3930.0 54 51 44 35 39 36 37 35 36 20
##END=
