##TITLE=S-Triazine-2,4,6(1H,3H,5H)-trione, 1-benzyl-3,5-diallyl-,
##JCAMP-DX=4.24
##DATA TYPE=INFRARED SPECTRUM
##ORIGIN=Sadtler Research Labs Under US-EPA Contract
##OWNER=NIST Standard Reference Data Program
##CAS REGISTRY NO=27694-82-2
##MOLFORM=C 16 H 17 N 3 O 3
##XUNITS=1/CM
##YUNITS=ABSORBANCE
##XFACTOR=1.0
##YFACTOR=0.000191779
##DELTAX=4.0
##FIRSTX=450.0
##LASTX=3966.0
##FIRSTY=0.014000
##MAXX=3966
##MINX=450
##MAXY=1.91779
##MINY=0
##NPOINTS=880
##XYDATA=(X++(Y..Y))
450.0 73 79 90 76 68 52 59 60 78 90
490.0 103 126 132 134 133 104 98 84 96 103
530.0 106 134 168 162 133 96 54 26 17 8
570.0 3 8 11 14 20 32 45 74 121 220
610.0 295 282 181 117 86 77 88 97 99 115
650.0 145 172 181 173 177 159 151 149 156 174
690.0 241 355 433 366 261 203 165 155 138 126
730.0 103 99 91 111 157 209 252 320 468 567
770.0 520 378 229 117 71 53 46 46 39 41
810.0 50 68 83 80 64 46 30 29 33 33
850.0 31 32 33 36 48 57 75 107 140 163
890.0 170 167 160 166 192 240 289 297 301 351
930.0 456 536 502 356 233 162 134 120 123 133
970.0 133 148 172 213 264 314 309 247 172 123
1010.0 96 83 77 84 106 127 111 76 62 57
1050.0 55 54 59 65 76 87 98 92 77 69
1090.0 66 71 79 95 108 101 85 68 62 54
1130.0 48 51 51 57 55 62 60 66 57 55
1170.0 53 54 63 75 90 83 69 65 69 68
1210.0 64 65 68 75 84 92 90 91 89 91
1250.0 96 102 110 121 139 154 176 199 233 277
1290.0 334 371 384 417 513 705 979 1213 1214 1013
1330.0 796 698 682 695 717 757 817 863 819 646
1370.0 469 370 339 351 379 435 486 596 761 1043
1410.0 1388 1728 1886 1891 1907 1927 1945 2183 3204 5123
1450.0 7879 9090 7416 4645 2601 1533 1001 706 560 466
1490.0 446 489 519 461 399 371 352 317 270 231
1530.0 205 183 172 156 156 150 142 127 131 122
1570.0 122 116 126 125 133 135 139 148 163 179
1610.0 172 167 163 169 180 194 229 263 329 363
1650.0 360 341 351 371 426 523 650 846 1029 1313
1690.0 1706 2299 3199 4913 7320 9743 10000 7330 4445 2698
1730.0 1801 1296 996 780 636 521 479 417 377 321
1770.0 281 228 199 173 159 142 136 130 117 113
1810.0 98 90 85 78 69 63 56 55 48 48
1850.0 46 49 49 57 61 66 69 61 50 42
1890.0 38 34 32 31 27 26 26 26 27 28
1930.0 31 28 29 26 31 30 33 31 28 21
1970.0 18 16 16 14 13 11 11 11 9 8
2010.0 7 5 5 5 5 5 5 5 4 5
2050.0 2 4 4 5 5 5 6 5 7 6
2090.0 6 8 9 8 10 14 14 16 14 13
2130.0 10 5 2 2 0 0 1 0 2 2
2170.0 2 2 4 4 3 4 4 5 5 6
2210.0 5 6 4 4 4 4 4 3 2 5
2250.0 4 5 5 7 8 8 11 10 13 16
2290.0 16 20 20 20 22 22 19 15 14 11
2330.0 6 5 8 7 17 21 2 9 6 1
2370.0 10 19 24 28 25 19 15 15 15 15
2410.0 15 14 16 14 17 15 14 11 11 11
2450.0 11 11 13 15 11 11 13 13 10 13
2490.0 10 9 9 9 9 11 11 10 10 11
2530.0 11 13 11 14 11 14 14 15 16 18
2570.0 17 16 18 18 17 17 19 18 19 18
2610.0 18 18 16 16 16 16 16 15 15 15
2650.0 16 16 16 13 13 13 13 14 11 9
2690.0 11 10 13 13 14 11 11 14 14 15
2730.0 16 18 16 17 18 20 20 24 25 27
2770.0 31 32 37 40 39 39 36 33 31 31
2810.0 29 31 31 33 37 40 45 49 57 63
2850.0 64 66 68 72 71 69 66 65 66 70
2890.0 72 79 84 87 91 98 104 108 110 116
2930.0 122 125 127 127 133 142 166 203 247 288
2970.0 309 288 240 192 159 148 149 151 142 130
3010.0 121 121 130 146 169 190 207 219 227 215
3050.0 186 158 147 155 188 253 295 271 214 204
3090.0 248 325 324 210 122 86 69 59 49 39
3130.0 33 31 26 25 23 24 19 17 19 18
3170.0 18 18 16 14 15 11 11 10 11 9
3210.0 10 10 11 7 6 9 9 10 8 8
3250.0 8 9 8 8 10 7 10 9 10 7
3290.0 9 10 6 6 6 10 7 10 10 10
3330.0 10 10 10 8 10 11 11 9 10 14
3370.0 15 13 10 13 15 16 16 18 25 27
3410.0 31 36 32 30 32 25 21 20 18 23
3450.0 24 28 34 43 42 46 41 37 32 26
3490.0 21 18 11 20 15 17 16 9 14 16
3530.0 14 11 14 15 18 16 16 7 14 22
3570.0 22 11 7 16 15 20 20 7 15 7
3610.0 22 9 13 11 9 31 11 9 8 10
3650.0 21 15 20 13 6 23 6 22 3 14
3690.0 10 18 10 13 15 14 14 13 10 15
3730.0 15 20 22 17 33 9 26 8 10 18
3770.0 8 16 9 17 15 13 7 14 6 23
3810.0 6 14 14 22 14 9 10 22 16 10
3850.0 16 27 20 11 17 19 15 14 22 27
3890.0 14 25 11 36 16 19 4 23 16 13
3930.0 23 22 17 15 19 15 19 14 17 16
##END=
