##TITLE=Benzene, 1,2-dichloro-4,5-dimethoxy-,
##JCAMP-DX=4.24
##DATA TYPE=INFRARED SPECTRUM
##ORIGIN=Sadtler Research Labs Under US-EPA Contract
##OWNER=NIST Standard Reference Data Program
##CAS REGISTRY NO=2772-46-5
##MOLFORM=C 8 H 8 Cl 2 O 2
##XUNITS=1/CM
##YUNITS=ABSORBANCE
##XFACTOR=1.0
##YFACTOR=0.000100381
##DELTAX=4.0
##FIRSTX=450.0
##LASTX=3966.0
##FIRSTY=0.012247
##MAXX=3966
##MINX=450
##MAXY=1.00381
##MINY=0
##NPOINTS=880
##XYDATA=(X++(Y..Y))
450.0 122 153 317 80 322 394 109 358 294 22
490.0 348 241 313 229 234 298 298 254 158 157
530.0 272 91 95 267 107 151 53 245 227 199
570.0 336 441 406 324 268 228 169 248 213 217
610.0 301 196 202 262 264 228 260 260 248 264
650.0 282 224 216 199 268 482 956 1530 1783 1490
690.0 755 219 120 144 130 114 119 105 99 128
730.0 204 100 140 134 211 244 282 406 524 665
770.0 968 1269 1609 1821 1777 1519 1187 889 610 432
810.0 388 336 297 270 318 388 450 571 625 674
850.0 727 698 635 652 735 877 989 995 885 666
890.0 467 316 254 257 298 486 773 1150 1455 1546
930.0 1353 962 584 376 282 253 234 224 236 238
970.0 242 283 319 368 437 500 616 761 904 1156
1010.0 1526 2032 2607 3202 3601 3662 3396 2982 2610 2180
1050.0 1623 1118 737 532 421 384 348 358 336 329
1090.0 352 382 451 530 703 1050 1572 2251 2826 2967
1130.0 2629 1995 1493 1210 1134 1242 1445 1780 2139 2540
1170.0 2879 3055 3045 2838 2590 2392 2464 2901 3564 4266
1210.0 4730 4722 4304 3653 3066 2790 2828 3164 3616 4132
1250.0 4631 4818 4582 3968 3285 2815 2539 2457 2424 2431
1290.0 2409 2374 2276 2060 1773 1488 1201 965 811 706
1330.0 639 594 639 746 1021 1550 2322 3023 3249 2932
1370.0 2169 1277 770 552 430 402 397 408 433 437
1410.0 493 529 688 871 1223 1977 3044 3999 4395 3904
1450.0 3103 2566 2486 2804 3307 4113 5028 6201 7592 8969
1490.0 10000 9891 8914 7236 5690 4325 3247 2410 1756 1324
1530.0 1054 961 894 868 833 783 811 820 767 689
1570.0 629 565 522 571 655 798 872 839 723 539
1610.0 378 292 250 196 186 138 151 150 125 144
1650.0 177 172 147 160 177 182 197 159 155 159
1690.0 113 93 133 122 94 77 95 118 93 62
1730.0 72 97 80 96 88 109 83 76 77 50
1770.0 73 77 58 66 77 88 94 95 106 81
1810.0 67 73 61 57 64 69 54 45 46 60
1850.0 36 22 30 15 33 33 24 21 20 17
1890.0 27 29 22 22 24 28 23 20 32 33
1930.0 38 46 48 63 71 66 73 69 67 64
1970.0 65 51 37 42 43 48 50 54 50 47
2010.0 47 47 68 78 77 92 104 132 146 146
2050.0 146 136 126 124 128 126 114 112 105 92
2090.0 75 57 49 28 22 21 16 24 20 26
2130.0 26 28 24 27 14 4 6 8 1 2
2170.0 7 5 7 7 1 3 0 0 4 3
2210.0 2 5 8 5 5 5 10 9 13 14
2250.0 17 24 31 37 31 39 53 52 55 51
2290.0 43 37 28 19 12 16 17 3 14 21
2330.0 17 21 29 12 40 30 13 16 51 32
2370.0 41 41 31 27 18 12 9 8 14 14
2410.0 19 21 19 21 16 16 14 16 13 16
2450.0 10 11 17 20 12 10 18 21 29 36
2490.0 37 37 41 42 49 46 53 64 65 67
2530.0 72 69 74 78 81 88 88 99 102 102
2570.0 110 99 88 77 63 53 49 42 44 39
2610.0 36 26 25 38 35 29 28 32 46 40
2650.0 36 37 41 29 21 16 18 24 26 26
2690.0 20 16 25 28 27 24 35 33 38 25
2730.0 22 27 26 28 28 39 49 47 58 53
2770.0 57 66 69 81 86 104 119 140 161 187
2810.0 208 228 261 301 359 458 592 839 1192 1521
2850.0 1603 1461 1128 806 605 516 481 477 499 533
2890.0 576 636 715 793 885 989 1071 1137 1160 1154
2930.0 1191 1349 1647 2057 2358 2451 2319 2065 1835 1676
2970.0 1510 1329 1164 1035 935 897 913 1011 1192 1448
3010.0 1677 1699 1458 1075 720 507 410 334 294 264
3050.0 233 216 210 201 194 182 187 188 189 189
3090.0 170 159 142 129 117 112 101 98 84 76
3130.0 72 65 58 51 55 49 50 46 38 35
3170.0 36 27 27 29 28 29 23 22 15 12
3210.0 13 7 4 6 6 8 11 6 9 11
3250.0 20 12 10 11 13 8 6 11 7 12
3290.0 2 9 14 9 9 2 10 13 4 7
3330.0 8 14 16 15 15 22 17 13 21 20
3370.0 17 7 8 16 17 3 2 9 23 19
3410.0 15 11 22 3 13 16 14 22 25 13
3450.0 25 22 20 23 23 23 23 25 31 18
3490.0 18 29 29 20 19 28 28 27 31 29
3530.0 24 31 30 24 20 19 33 26 42 22
3570.0 33 30 30 23 26 33 36 27 36 36
3610.0 33 30 12 32 40 44 33 29 30 27
3650.0 24 32 27 41 28 15 44 22 17 21
3690.0 27 39 31 25 18 20 29 33 25 22
3730.0 42 35 24 18 18 41 53 41 18 30
3770.0 28 31 35 36 39 25 18 9 18 23
3810.0 41 14 11 41 32 20 27 22 45 22
3850.0 30 58 49 9 24 59 21 38 41 16
3890.0 30 8 26 25 47 36 31 21 52 16
3930.0 29 16 15 33 55 53 72 35 0 28
##END=
