##TITLE=Phenol, 2-methoxy-4-propyl-
##JCAMP-DX=4.24
##DATA TYPE=INFRARED SPECTRUM
##ORIGIN=Sadtler Research Labs Under US-EPA Contract
##OWNER=NIST Standard Reference Data Program
##CAS REGISTRY NO=2785-87-7
##MOLFORM=C 10 H 14 O 2
##XUNITS=1/CM
##YUNITS=ABSORBANCE
##XFACTOR=1.0
##YFACTOR=0.000190179
##DELTAX=4.0
##FIRSTX=450.0
##LASTX=3966.0
##FIRSTY=0.092047
##MAXX=3966
##MINX=450
##MAXY=1.90179
##MINY=0
##NPOINTS=880
##XYDATA=(X++(Y..Y))
450.0 484 607 597 482 419 334 234 139 114 82
490.0 58 30 0 16 21 17 1 28 15 25
530.0 18 54 67 110 201 334 456 562 521 396
570.0 289 147 90 51 53 70 65 93 82 105
610.0 124 163 206 248 273 279 232 181 143 105
650.0 78 65 76 61 61 74 65 73 65 73
690.0 72 96 99 101 98 101 106 117 143 175
730.0 217 237 255 255 256 258 276 323 389 520
770.0 720 926 1070 1133 1231 1334 1433 1421 1280 1137
810.0 1141 1270 1251 1063 826 617 482 461 473 493
850.0 486 482 466 473 469 429 384 333 293 270
890.0 252 237 221 206 202 197 208 248 305 375
930.0 425 423 353 278 211 180 165 166 166 167
970.0 174 182 205 218 245 273 300 320 345 388
1010.0 461 584 780 1049 1356 1659 1904 2005 1943 1706
1050.0 1386 1029 734 548 456 403 375 352 345 355
1090.0 375 400 428 483 589 816 1181 1654 1973 2005
1130.0 1924 1694 1622 1867 2212 2472 2456 2215 1812 1470
1170.0 1290 1265 1332 1458 1609 1779 2013 2299 2662 2906
1210.0 2937 2804 2655 2779 3257 4149 5006 5525 5364 4681
1250.0 3922 3724 4301 5491 7021 7617 7388 5746 4098 2853
1290.0 2133 1657 1298 1028 870 733 652 580 606 635
1330.0 695 817 836 969 1118 1224 1363 1551 1697 1787
1370.0 1732 1470 1263 1044 795 630 457 318 373 408
1410.0 401 587 514 956 1269 1697 1722 1654 1477 1260
1450.0 1281 1377 1489 1791 1963 1998 1705 1561 1415 1170
1490.0 1153 1518 1991 3205 4665 7106 10000 8493 7386 3602
1530.0 2047 1137 711 405 374 461 354 182 249 339
1570.0 294 321 357 405 543 619 809 1013 1215 1304
1610.0 1312 1218 993 910 687 600 363 256 281 230
1650.0 71 80 197 228 203 174 98 229 83 52
1690.0 172 210 33 53 120 227 147 10 182 246
1730.0 161 21 171 185 143 84 172 160 152 187
1770.0 97 65 156 129 144 118 90 115 66 160
1810.0 140 130 167 145 124 96 140 180 130 98
1850.0 183 248 239 242 192 117 174 171 156 136
1890.0 111 114 128 133 128 124 118 111 87 130
1930.0 139 130 134 90 102 127 128 121 128 103
1970.0 114 119 117 111 111 72 79 100 106 100
2010.0 110 98 88 103 116 122 134 130 129 142
2050.0 148 148 149 139 120 133 126 118 111 100
2090.0 82 76 70 58 56 49 46 45 40 40
2130.0 38 39 37 40 43 42 46 46 49 47
2170.0 47 44 43 38 34 34 31 28 24 19
2210.0 12 9 4 3 0 0 2 0 3 2
2250.0 4 2 3 4 7 6 10 13 16 20
2290.0 25 29 31 36 35 34 34 26 25 24
2330.0 26 19 19 22 24 20 21 26 29 31
2370.0 25 30 29 31 31 33 33 29 30 29
2410.0 29 27 26 22 20 17 16 13 13 15
2450.0 17 16 17 21 26 33 37 38 40 38
2490.0 39 42 44 45 48 51 49 47 46 47
2530.0 45 46 43 44 39 38 33 28 27 24
2570.0 25 21 21 21 22 24 24 29 29 33
2610.0 36 39 43 48 51 54 54 55 53 49
2650.0 47 42 44 42 43 42 45 43 38 36
2690.0 33 31 30 33 37 42 46 51 54 58
2730.0 64 66 73 79 82 81 76 75 73 75
2770.0 78 84 89 99 107 118 128 140 154 170
2810.0 192 214 241 265 300 352 427 547 720 926
2850.0 1111 1256 1347 1373 1396 1463 1575 1739 1823 1750
2890.0 1563 1324 1181 1163 1236 1397 1640 1959 2315 2717
2930.0 3123 3487 3744 3817 3673 3382 3177 3127 3270 3532
2970.0 3682 3438 2852 2153 1487 1133 1025 1041 1180 1322
3010.0 1316 1179 931 710 636 659 713 759 789 799
3050.0 791 768 724 674 618 547 461 375 297 234
3090.0 188 162 145 134 129 122 120 116 112 109
3130.0 102 97 91 84 74 70 64 57 54 51
3170.0 51 48 47 46 40 37 36 35 35 34
3210.0 34 33 29 26 24 25 22 20 18 17
3250.0 18 16 15 18 16 18 24 28 28 29
3290.0 28 24 22 16 15 9 9 10 8 3
3330.0 10 8 6 9 7 6 2 4 4 4
3370.0 6 2 7 6 7 9 9 7 10 9
3410.0 9 9 4 3 4 2 3 3 3 3
3450.0 6 2 4 0 2 3 8 4 3 2
3490.0 9 12 7 6 8 11 20 20 21 21
3530.0 30 33 39 46 62 71 94 114 152 223
3570.0 354 625 1095 1941 2940 3794 4138 3441 2502 1464
3610.0 768 393 229 160 109 91 78 70 75 88
3650.0 120 112 106 75 34 34 12 31 10 19
3690.0 15 16 15 19 17 19 19 17 16 12
3730.0 20 21 20 13 20 4 28 12 18 18
3770.0 18 24 16 19 10 20 17 21 12 24
3810.0 11 21 4 20 10 13 11 15 12 20
3850.0 13 13 21 15 13 21 24 24 24 25
3890.0 31 33 24 25 18 20 12 15 11 19
3930.0 16 8 6 18 13 18 21 17 22 31
##END=
