##TITLE=7-Oxabicyclo[2.2.1]heptane
##JCAMP-DX=4.24
##DATA TYPE=INFRARED SPECTRUM
##ORIGIN=Sadtler Research Labs Under US-EPA Contract
##OWNER=NIST Standard Reference Data Program
##CAS REGISTRY NO=279-49-2
##MOLFORM=C 6 H 10 O
##XUNITS=1/CM
##YUNITS=ABSORBANCE
##XFACTOR=1.0
##YFACTOR=0.000071506
##DELTAX=4.0
##FIRSTX=450.0
##LASTX=3966.0
##FIRSTY=0.001430
##MAXX=3966
##MINX=450
##MAXY=0.71506
##MINY=0
##NPOINTS=880
##XYDATA=(X++(Y..Y))
450.0 20 15 1 8 8 10 18 27 24 28
490.0 20 27 10 17 24 29 60 77 110 230
530.0 342 491 646 701 869 1183 862 738 710 596
570.0 382 201 117 51 95 119 134 154 126 134
610.0 130 139 130 141 154 147 178 195 205 226
650.0 230 217 258 302 231 240 207 200 177 179
690.0 159 139 138 150 137 133 155 143 156 156
730.0 159 155 154 139 183 193 188 210 292 313
770.0 309 433 544 537 492 686 764 543 572 729
810.0 880 973 922 949 1787 1057 717 708 537 338
850.0 211 180 203 294 364 386 432 875 917 344
890.0 543 619 511 346 298 222 231 422 629 848
930.0 981 1026 1190 2010 1834 824 1166 1223 1023 764
970.0 627 746 805 534 865 1161 1425 1722 1836 1861
1010.0 2166 2147 1419 1120 983 737 500 336 258 265
1050.0 317 392 498 622 718 738 701 738 693 447
1090.0 363 315 251 200 217 175 141 141 133 108
1130.0 76 60 51 40 42 42 58 66 81 104
1170.0 138 223 388 640 927 1121 1280 1670 1447 1145
1210.0 1202 986 602 342 232 188 174 185 216 281
1250.0 371 449 474 494 706 944 429 433 478 408
1290.0 312 257 233 294 380 412 536 588 529 442
1330.0 370 227 140 110 108 109 103 121 128 128
1370.0 135 138 130 129 118 109 97 83 76 71
1410.0 59 72 52 82 92 157 205 344 455 594
1450.0 695 728 843 1061 681 672 673 784 351 251
1490.0 236 195 138 78 55 30 17 20 18 17
1530.0 4 20 9 8 7 20 21 16 26 20
1570.0 32 28 39 20 39 32 43 37 43 38
1610.0 45 40 42 40 23 44 29 43 39 56
1650.0 31 76 51 63 72 88 91 113 99 112
1690.0 120 120 122 161 162 202 205 231 255 259
1730.0 244 249 243 229 193 155 126 92 80 81
1770.0 64 54 59 46 51 35 36 32 31 34
1810.0 25 22 29 26 34 18 23 29 17 14
1850.0 17 25 28 36 23 28 33 45 36 34
1890.0 39 27 28 23 22 27 17 24 20 27
1930.0 29 36 38 39 37 47 36 29 22 17
1970.0 11 14 13 14 13 7 13 12 18 20
2010.0 28 26 23 33 28 26 28 26 16 27
2050.0 18 18 18 18 22 26 25 33 38 32
2090.0 39 31 32 31 31 39 34 32 31 25
2130.0 24 31 24 23 22 18 24 20 14 24
2170.0 28 30 37 30 36 36 37 41 36 36
2210.0 28 28 24 22 21 21 21 21 21 26
2250.0 27 28 32 29 27 31 22 21 20 14
2290.0 18 20 14 17 18 8 10 7 8 15
2330.0 21 7 17 21 14 7 21 15 28 18
2370.0 15 22 12 2 3 1 1 2 2 9
2410.0 1 0 8 9 9 9 10 6 6 8
2450.0 3 10 10 9 9 9 8 11 3 3
2490.0 3 3 5 5 5 4 5 5 5 5
2530.0 5 14 5 9 12 8 14 14 13 13
2570.0 21 29 36 38 26 36 37 37 29 29
2610.0 29 23 24 24 30 30 37 33 29 38
2650.0 34 35 39 39 37 38 40 39 26 32
2690.0 33 27 32 40 44 47 52 55 54 62
2730.0 62 70 70 62 62 63 58 62 64 64
2770.0 64 62 70 77 78 64 72 72 74 79
2810.0 73 86 90 98 113 135 155 199 250 316
2850.0 406 546 753 1033 1364 1612 1689 1820 2340 1988
2890.0 1657 1713 1740 1706 1631 1649 1793 2137 2282 2312
2930.0 2606 2952 3324 3872 4166 4351 4545 5042 6384 6919
2970.0 7169 6831 7331 10000 9562 7190 7548 8178 6940 4622
3010.0 3608 3001 2135 1317 792 514 376 349 270 268
3050.0 243 179 121 100 80 79 72 70 77 69
3090.0 74 73 75 80 109 89 103 86 76 75
3130.0 68 61 58 51 27 35 27 27 27 28
3170.0 28 20 27 20 28 21 23 28 3 15
3210.0 22 28 15 29 15 2 12 17 28 10
3250.0 16 13 14 21 23 9 23 24 30 32
3290.0 37 40 45 41 41 39 31 31 25 32
3330.0 31 31 16 20 22 20 33 37 27 39
3370.0 32 40 33 47 34 39 33 39 34 34
3410.0 33 33 34 28 35 22 35 27 35 21
3450.0 26 20 28 34 35 34 47 27 36 20
3490.0 35 36 35 50 33 29 45 39 51 32
3530.0 43 39 28 50 55 40 44 33 41 33
3570.0 42 32 17 34 29 40 37 35 44 37
3610.0 47 50 41 47 50 79 77 90 105 114
3650.0 137 142 129 120 101 85 83 75 56 54
3690.0 55 45 45 42 44 55 45 36 49 50
3730.0 50 54 65 53 79 59 73 60 52 52
3770.0 51 53 52 46 50 50 58 50 56 47
3810.0 60 54 54 64 47 43 47 52 50 54
3850.0 52 52 50 58 53 53 51 49 49 60
3890.0 51 53 53 64 64 62 60 50 42 48
3930.0 63 65 67 72 71 72 77 75 79 85
##END=
