##TITLE=2-Butenedioic acid (E)-, di-2-propenyl ester
##JCAMP-DX=4.24
##DATA TYPE=INFRARED SPECTRUM
##ORIGIN=Sadtler Research Labs Under US-EPA Contract
##OWNER=NIST Standard Reference Data Program
##CAS REGISTRY NO=2807-54-7
##MOLFORM=C 10 H 12 O 4
##XUNITS=1/CM
##YUNITS=ABSORBANCE
##XFACTOR=1.0
##YFACTOR=0.000142853
##DELTAX=4.0
##FIRSTX=450.0
##LASTX=3966.0
##FIRSTY=0.101283
##MAXX=3966
##MINX=450
##MAXY=1.42853
##MINY=0
##NPOINTS=880
##XYDATA=(X++(Y..Y))
450.0 709 424 283 279 322 290 305 272 354 289
490.0 293 276 314 290 287 332 294 324 288 325
530.0 301 315 320 331 333 329 350 279 302 251
570.0 263 225 248 245 240 287 246 267 247 292
610.0 296 322 361 375 356 303 337 318 297 296
650.0 318 328 297 303 243 446 687 263 127 226
690.0 168 162 108 84 50 19 31 5 30 16
730.0 26 10 26 29 46 57 69 124 156 230
770.0 272 311 292 231 210 149 119 81 79 52
810.0 70 55 62 64 72 86 91 127 131 152
850.0 155 175 163 178 191 194 205 207 238 244
890.0 277 303 335 371 430 528 642 834 1050 1343
930.0 1662 1905 1774 1367 1017 804 733 717 815 988
970.0 1288 1652 2054 2445 2775 3138 3265 3111 2926 3036
1010.0 3311 3599 3669 3339 2696 1935 1409 1045 838 693
1050.0 616 548 513 487 459 457 446 453 457 496
1090.0 491 512 498 500 485 478 584 613 725 802
1130.0 964 1238 1792 3000 5180 7518 7466 5981 4829 4766
1170.0 4844 4252 3000 1908 1333 1042 924 907 994 1181
1210.0 1577 2288 3324 4060 3684 2807 2365 2799 3877 5491
1250.0 7210 8528 8254 6320 4679 3818 3630 3807 4838 6649
1290.0 7974 8029 7959 7243 4948 2907 1721 1120 813 651
1330.0 543 488 441 436 475 544 704 978 1272 1301
1370.0 1050 797 707 677 597 519 423 362 342 344
1410.0 349 390 373 401 395 393 376 375 422 478
1450.0 559 615 598 541 426 326 214 174 161 126
1490.0 82 99 82 80 53 27 54 49 44 69
1530.0 70 75 60 36 38 57 44 16 31 43
1570.0 37 37 45 42 60 48 64 55 71 68
1610.0 82 98 93 130 134 197 234 351 521 696
1650.0 744 652 485 360 292 237 208 215 197 195
1690.0 245 291 316 396 479 585 640 774 1030 1503
1730.0 2282 3746 6031 8409 10000 9135 6780 4143 2411 1537
1770.0 1078 817 664 538 462 386 323 272 224 203
1810.0 168 147 131 118 101 87 88 96 88 85
1850.0 106 121 131 144 154 150 153 131 105 86
1890.0 70 66 64 63 59 56 52 49 44 49
1930.0 50 48 49 43 43 47 45 44 44 40
1970.0 40 40 37 33 31 25 27 26 29 28
2010.0 28 25 20 21 22 20 21 17 17 23
2050.0 21 26 33 35 29 26 30 28 30 34
2090.0 36 39 37 35 36 35 33 35 34 34
2130.0 28 29 28 26 26 24 26 24 28 24
2170.0 27 24 21 21 21 23 21 21 19 20
2210.0 19 20 18 16 18 17 18 16 19 17
2250.0 17 17 17 18 15 18 18 19 15 18
2290.0 17 15 19 23 21 18 25 23 27 30
2330.0 30 34 42 37 29 27 13 24 13 21
2370.0 21 14 17 14 12 12 10 13 11 12
2410.0 12 11 12 15 14 14 12 16 14 18
2450.0 20 20 19 20 20 17 18 19 18 21
2490.0 20 22 22 19 23 23 19 21 19 18
2530.0 19 21 23 19 18 19 18 19 20 19
2570.0 20 20 18 23 20 20 18 15 16 18
2610.0 16 14 16 9 14 12 11 8 6 12
2650.0 11 13 11 15 7 6 5 7 7 11
2690.0 11 16 18 18 23 20 26 26 27 23
2730.0 24 26 26 31 33 34 34 34 31 33
2770.0 30 32 31 29 35 38 39 41 38 44
2810.0 43 47 51 58 54 59 56 55 58 63
2850.0 67 70 81 86 96 111 124 143 169 200
2890.0 243 274 278 257 230 206 197 193 195 210
2930.0 236 274 333 424 525 633 743 828 817 668
2970.0 515 417 365 354 354 381 423 436 413 366
3010.0 336 313 302 313 357 386 361 308 252 229
3050.0 201 188 195 190 191 211 229 262 323 377
3090.0 424 491 550 552 484 385 272 179 119 85
3130.0 64 56 52 50 44 38 37 34 34 32
3170.0 29 25 27 28 28 28 22 20 20 26
3210.0 16 21 14 20 17 15 21 18 18 16
3250.0 22 11 14 17 16 17 8 13 14 24
3290.0 14 20 12 22 11 17 23 18 27 14
3330.0 12 20 23 16 16 12 16 28 18 28
3370.0 19 24 22 28 9 28 34 25 25 16
3410.0 11 12 20 20 28 31 24 20 29 29
3450.0 33 34 47 59 77 97 106 124 114 101
3490.0 79 59 55 39 21 24 27 26 26 23
3530.0 12 17 11 24 11 5 13 14 17 15
3570.0 15 38 55 53 63 55 31 18 22 30
3610.0 24 21 8 19 32 23 8 18 19 18
3650.0 23 14 22 12 17 29 22 21 24 41
3690.0 12 12 10 17 13 5 6 8 15 8
3730.0 10 6 14 5 13 6 9 5 5 5
3770.0 19 8 5 12 7 4 21 11 31 4
3810.0 27 12 17 30 40 25 13 7 17 13
3850.0 23 22 30 20 28 27 15 21 29 53
3890.0 20 20 35 43 23 29 44 24 45 7
3930.0 30 5 4 39 3 0 90 60 21 65
##END=
