##TITLE=Toluene, .alpha.-chloro-p-(1,1-dimethyl-propyl)-,
##JCAMP-DX=4.24
##DATA TYPE=INFRARED SPECTRUM
##ORIGIN=Sadtler Research Labs Under US-EPA Contract
##OWNER=NIST Standard Reference Data Program
##CAS REGISTRY NO=28162-11-0
##MOLFORM=C 12 H 17 Cl
##XUNITS=1/CM
##YUNITS=ABSORBANCE
##XFACTOR=1.0
##YFACTOR=0.000110513
##DELTAX=4.0
##FIRSTX=450.0
##LASTX=3966.0
##FIRSTY=0.004863
##MAXX=3966
##MINX=450
##MAXY=1.10513
##MINY=0
##NPOINTS=880
##XYDATA=(X++(Y..Y))
450.0 44 44 48 62 50 53 0 97 40 28
490.0 41 31 24 59 61 61 97 87 108 142
530.0 187 254 282 320 315 332 354 375 392 369
570.0 350 322 293 212 145 107 81 69 73 69
610.0 69 88 84 85 85 74 73 90 113 163
650.0 230 286 315 363 392 491 656 873 1181 1548
690.0 1930 2178 2183 2012 1716 1446 1267 1105 956 827
730.0 772 758 785 831 907 997 986 852 621 467
770.0 393 375 374 381 416 458 509 527 548 577
810.0 639 686 763 879 1084 1289 1368 1291 1054 739
850.0 451 264 163 115 84 74 60 63 74 76
890.0 75 81 76 74 87 88 92 89 93 90
930.0 79 66 63 49 40 28 19 23 29 35
970.0 42 48 53 56 68 85 101 125 181 315
1010.0 566 841 936 681 372 146 87 86 98 124
1050.0 173 268 376 455 441 343 214 138 122 134
1090.0 173 219 277 342 428 478 454 369 285 223
1130.0 176 160 160 161 153 150 150 174 219 277
1170.0 319 320 289 265 244 221 204 206 222 234
1210.0 247 256 262 274 297 332 359 374 384 419
1250.0 517 746 1179 1886 2677 2942 2445 1582 984 710
1290.0 575 501 472 500 535 505 402 313 279 270
1330.0 257 234 200 172 171 187 229 307 432 635
1370.0 839 981 1065 1128 1194 1177 1009 725 529 476
1410.0 509 569 587 576 520 455 400 396 479 649
1450.0 833 979 1102 1261 1369 1352 1248 1101 914 703
1490.0 524 452 451 522 692 924 1124 1102 835 514
1530.0 282 166 118 89 64 60 62 65 62 63
1570.0 71 80 90 85 90 93 107 130 169 228
1610.0 296 348 341 255 158 106 86 79 80 91
1650.0 99 125 123 126 116 99 81 68 54 54
1690.0 43 46 46 44 42 44 51 66 72 70
1730.0 51 43 43 45 50 54 66 74 83 90
1770.0 91 109 129 163 184 170 125 79 49 43
1810.0 35 31 27 24 19 20 18 21 23 20
1850.0 23 26 28 31 30 32 37 43 55 70
1890.0 91 121 147 165 169 150 124 94 71 56
1930.0 46 41 39 35 35 37 35 32 31 28
1970.0 31 30 30 27 27 24 24 28 30 29
2010.0 30 31 31 32 36 37 37 35 35 41
2050.0 40 43 43 45 42 41 41 38 36 33
2090.0 33 33 33 33 32 30 31 30 28 28
2130.0 30 29 26 26 28 28 29 28 27 29
2170.0 31 29 29 27 28 28 29 30 28 30
2210.0 29 31 28 29 31 30 31 30 28 27
2250.0 25 26 26 21 18 10 2 1 2 9
2290.0 22 32 40 43 43 41 42 47 50 57
2330.0 63 67 62 62 55 57 65 60 50 34
2370.0 32 33 37 43 49 56 59 57 55 56
2410.0 57 59 60 59 61 60 57 56 56 54
2450.0 52 50 50 49 50 50 52 51 51 48
2490.0 50 47 45 43 42 40 42 43 44 44
2530.0 46 48 50 49 49 54 56 56 56 58
2570.0 60 64 68 71 73 76 76 77 77 76
2610.0 78 76 75 72 76 80 81 82 81 80
2650.0 79 82 82 84 83 80 76 71 70 70
2690.0 71 71 75 80 91 101 111 124 136 146
2730.0 153 153 147 138 130 121 115 114 115 116
2770.0 120 126 122 120 120 126 130 134 140 148
2810.0 160 176 200 219 237 257 280 298 323 355
2850.0 409 488 609 814 1123 1499 1977 2555 3110 3463
2890.0 3508 3266 2867 2500 2309 2291 2436 2677 2878 2988
2930.0 3079 3250 3459 3586 3612 3659 3969 4799 6331 8215
2970.0 9640 10000 9408 7778 5529 3403 2092 1435 1170 1078
3010.0 1043 1028 1030 1077 1241 1491 1604 1422 1072 841
3050.0 778 800 842 860 836 766 682 602 546 520
3090.0 511 511 499 462 401 330 263 221 201 193
3130.0 190 193 186 166 144 128 116 104 103 101
3170.0 101 102 102 101 100 99 99 97 93 86
3210.0 81 77 72 65 60 57 52 50 45 41
3250.0 36 34 33 31 32 33 28 31 32 28
3290.0 31 30 27 23 24 25 25 24 25 26
3330.0 25 27 29 28 28 28 25 25 25 25
3370.0 21 27 27 27 25 25 22 24 23 25
3410.0 23 19 23 23 21 20 18 23 26 23
3450.0 19 20 18 18 19 16 17 20 20 18
3490.0 19 18 16 15 14 13 18 20 18 11
3530.0 15 14 13 15 8 12 13 11 14 7
3570.0 5 16 13 18 15 9 14 12 16 12
3610.0 7 9 9 11 16 18 15 13 18 20
3650.0 22 20 19 24 24 32 31 26 23 27
3690.0 27 18 24 21 25 25 25 20 21 21
3730.0 15 15 14 19 15 26 20 18 12 14
3770.0 9 15 14 15 15 18 17 17 19 22
3810.0 10 12 19 12 18 10 12 26 18 19
3850.0 16 21 17 16 21 21 21 20 17 16
3890.0 24 14 18 17 15 17 11 11 17 18
3930.0 19 4 13 18 10 2 8 13 6 9
##END=
