##TITLE=Aniline, N-methyl-m-phenylazo-,
##JCAMP-DX=4.24
##DATA TYPE=INFRARED SPECTRUM
##ORIGIN=Sadtler Research Labs Under US-EPA Contract
##OWNER=NIST Standard Reference Data Program
##CAS REGISTRY NO=2818-20-4
##MOLFORM=C 13 H 13 N 3
##XUNITS=1/CM
##YUNITS=ABSORBANCE
##XFACTOR=1.0
##YFACTOR=0.000042764
##DELTAX=4.0
##FIRSTX=450.0
##LASTX=3966.0
##FIRSTY=0.010221
##MAXX=3966
##MINX=450
##MAXY=0.42764
##MINY=0
##NPOINTS=880
##XYDATA=(X++(Y..Y))
450.0 239 353 550 485 386 363 394 519 510 613
490.0 754 780 945 1005 1125 995 1058 1286 1323 1425
530.0 1452 1361 1021 802 720 632 495 365 310 321
570.0 206 183 161 146 172 167 202 207 333 309
610.0 367 387 508 527 555 561 571 583 602 680
650.0 712 842 925 1074 1096 1445 1958 2942 4507 6086
690.0 7840 5743 3263 1859 1163 875 712 645 595 624
730.0 658 716 829 959 1150 1388 1756 2228 2640 2928
770.0 3553 4723 5510 4488 2748 1408 598 227 115 154
810.0 206 242 259 310 359 421 483 612 845 1255
850.0 1698 1938 1810 1490 1218 1092 981 891 725 612
890.0 480 423 351 282 259 302 442 629 585 385
930.0 252 200 184 183 187 175 163 137 145 137
970.0 157 147 174 244 510 1150 873 368 191 11
1010.0 57 205 586 779 438 139 51 96 123 244
1050.0 369 598 893 1232 1447 1352 1048 962 986 844
1090.0 680 594 581 591 628 642 679 746 836 977
1130.0 1176 1336 1422 1597 2041 2548 2550 2083 1631 1503
1170.0 1461 1059 690 553 545 614 736 868 911 851
1210.0 765 709 689 702 725 773 829 927 1083 1326
1250.0 1758 2476 3391 4001 4190 3871 3056 2532 2515 2372
1290.0 1971 1896 2162 2594 3031 3248 3543 3921 4059 3834
1330.0 3433 2956 2442 1973 1490 1068 801 666 607 586
1370.0 583 598 621 641 685 733 805 907 1070 1247
1410.0 1405 1498 1466 1386 1400 1533 1532 1458 1598 1759
1450.0 1866 2037 2413 2934 3254 3414 3692 3986 4225 4492
1490.0 4834 5313 5919 6667 7055 6429 5051 3463 2373 1691
1530.0 1365 1132 996 923 911 931 975 1035 1118 1291
1570.0 1551 1950 2491 3161 3740 4608 5986 7857 9428 10000
1610.0 9179 7106 4867 3100 2017 1425 1067 836 683 564
1650.0 482 418 370 341 317 298 292 287 293 268
1690.0 256 234 219 211 226 249 278 298 333 368
1730.0 399 419 427 438 444 436 409 362 304 265
1770.0 239 222 193 192 207 250 288 292 255 217
1810.0 205 212 215 215 217 218 213 195 169 146
1850.0 136 120 121 124 122 125 145 179 195 209
1890.0 218 226 242 247 258 265 260 244 216 189
1930.0 179 172 189 218 231 233 222 220 204 166
1970.0 117 84 70 64 56 48 43 40 37 33
2010.0 32 36 35 35 36 33 32 22 30 26
2050.0 23 23 24 27 25 29 35 35 33 35
2090.0 35 32 26 28 24 29 25 23 26 25
2130.0 27 32 31 33 27 32 27 27 19 15
2170.0 14 8 11 2 5 2 10 21 19 18
2210.0 24 29 28 27 38 47 35 32 30 31
2250.0 38 41 42 31 34 37 35 26 27 24
2290.0 25 33 49 55 62 85 97 87 59 68
2330.0 66 41 38 68 32 74 53 63 37 18
2370.0 34 49 50 48 50 41 43 43 40 36
2410.0 36 42 42 39 46 45 45 49 47 56
2450.0 53 54 60 69 65 66 70 61 62 59
2490.0 54 56 49 49 46 45 44 49 48 58
2530.0 56 65 80 82 97 108 104 110 116 122
2570.0 139 162 168 174 185 184 187 175 174 169
2610.0 165 165 157 137 139 133 131 122 126 123
2650.0 117 117 126 128 120 128 131 120 121 121
2690.0 123 129 139 148 158 167 174 190 199 214
2730.0 213 221 234 250 261 277 278 286 291 300
2770.0 309 322 348 367 407 448 511 594 704 869
2810.0 1024 1189 1305 1366 1336 1243 1098 986 942 932
2850.0 963 1001 1056 1122 1191 1285 1396 1496 1608 1724
2890.0 1829 1929 2019 2090 2142 2190 2215 2226 2227 2229
2930.0 2231 2203 2143 2046 1944 1852 1766 1703 1633 1577
2970.0 1532 1507 1541 1615 1675 1637 1426 1153 968 914
3010.0 936 1036 1169 1314 1423 1472 1517 1593 1701 1785
3050.0 1869 1958 2071 2195 2375 2604 2725 2581 2198 1799
3090.0 1476 1223 984 763 587 432 335 272 211 175
3130.0 145 136 136 130 126 115 119 113 111 122
3170.0 118 101 92 88 67 63 56 71 58 41
3210.0 41 36 32 26 31 18 39 45 31 30
3250.0 37 45 49 47 45 39 45 53 51 59
3290.0 59 69 64 73 66 88 91 103 112 117
3330.0 132 135 158 166 186 206 221 238 258 307
3370.0 331 364 399 434 470 544 605 675 765 909
3410.0 1030 1167 1314 1408 1452 1406 1296 1126 979 865
3450.0 810 775 727 638 541 401 323 259 195 171
3490.0 159 149 131 115 94 110 100 102 80 79
3530.0 75 73 64 59 64 49 40 56 30 42
3570.0 50 53 57 54 48 37 29 31 47 42
3610.0 30 40 21 52 42 22 36 37 65 42
3650.0 25 40 57 51 33 28 43 25 23 27
3690.0 28 15 60 40 24 9 18 6 14 3
3730.0 3 2 2 0 13 2 2 32 2 5
3770.0 5 17 22 19 2 2 5 24 14 10
3810.0 5 16 15 2 2 2 24 2 6 7
3850.0 12 25 6 17 22 8 2 29 21 4
3890.0 54 9 42 3 25 19 39 27 2 26
3930.0 32 39 19 47 26 59 49 21 0 48
##END=
