##TITLE=1-Oxaspiro[4.5]decane-4-carboxylic acid, 2-oxo-, methyl ester
##JCAMP-DX=4.24
##DATA TYPE=INFRARED SPECTRUM
##ORIGIN=Sadtler Research Labs Under US-EPA Contract
##OWNER=NIST Standard Reference Data Program
##CAS REGISTRY NO=2819-57-0
##MOLFORM=C 11 H 16 O 4
##XUNITS=1/CM
##YUNITS=ABSORBANCE
##XFACTOR=1.0
##YFACTOR=0.000135043
##DELTAX=4.0
##FIRSTX=450.0
##LASTX=3966.0
##FIRSTY=0.017421
##MAXX=3966
##MINX=450
##MAXY=1.35043
##MINY=0
##NPOINTS=880
##XYDATA=(X++(Y..Y))
450.0 129 97 26 86 0 55 56 59 51 76
490.0 55 72 53 47 64 74 62 60 92 95
530.0 106 111 108 120 106 93 57 49 27 47
570.0 45 31 31 36 29 34 48 42 42 41
610.0 50 50 49 46 30 38 43 45 31 37
650.0 41 35 26 16 15 32 28 29 39 49
690.0 75 82 124 163 206 245 242 217 171 139
730.0 102 90 75 82 82 94 115 161 215 231
770.0 204 149 99 72 65 49 45 45 45 48
810.0 62 96 113 168 181 199 195 198 203 191
850.0 173 159 160 163 175 187 195 181 183 228
890.0 318 448 588 707 747 685 563 411 317 305
930.0 351 406 462 503 534 592 710 963 1371 1845
970.0 2174 2164 1792 1232 757 498 403 417 467 504
1010.0 516 528 579 682 804 895 926 880 799 694
1050.0 574 486 432 444 486 520 505 463 408 370
1090.0 360 366 390 457 582 746 915 1066 1231 1455
1130.0 1762 2081 2294 2353 2290 2222 2224 2325 2531 2745
1170.0 2842 2746 2546 2402 2453 2727 3179 3707 4083 4231
1210.0 4180 3982 3653 3155 2498 1921 1594 1477 1466 1497
1250.0 1550 1624 1706 1772 1772 1672 1482 1242 1025 856
1290.0 720 611 531 483 436 394 348 324 298 305
1330.0 328 366 435 491 566 696 855 992 1049 999
1370.0 880 732 549 385 283 222 195 193 165 168
1410.0 178 198 277 326 429 571 810 1021 1117 1075
1450.0 926 817 722 573 450 365 319 227 148 134
1490.0 133 94 98 81 105 120 88 96 110 80
1530.0 84 74 93 109 95 69 78 105 80 55
1570.0 58 52 49 44 29 36 30 38 28 31
1610.0 31 28 49 32 52 30 55 56 43 54
1650.0 74 82 56 54 59 70 84 70 103 118
1690.0 109 120 182 213 252 280 361 444 464 500
1730.0 579 711 864 1254 1956 2992 3959 4552 4168 2962
1770.0 1934 1274 1042 1085 1240 1533 2038 2850 4308 6404
1810.0 8726 10000 9336 6808 3992 2087 1142 703 512 396
1850.0 314 257 217 191 170 162 123 113 105 106
1890.0 109 110 105 93 84 69 63 49 54 40
1930.0 37 35 33 39 36 33 29 33 29 38
1970.0 32 34 32 29 28 34 34 26 30 31
2010.0 32 33 36 36 32 35 32 37 36 36
2050.0 31 34 31 33 33 32 33 33 34 36
2090.0 41 40 39 40 42 43 40 40 36 36
2130.0 31 28 24 23 20 21 22 22 25 24
2170.0 27 27 27 22 24 20 20 20 17 19
2210.0 17 19 18 17 14 15 17 15 15 13
2250.0 15 13 16 18 20 22 26 28 34 37
2290.0 41 48 56 62 69 78 71 68 70 62
2330.0 57 51 50 55 72 67 77 57 57 56
2370.0 48 51 52 53 40 29 23 23 22 24
2410.0 23 19 16 13 13 10 10 6 8 9
2450.0 6 7 4 5 3 5 6 5 5 4
2490.0 6 3 6 5 8 6 9 7 9 8
2530.0 6 5 4 2 0 0 0 0 1 3
2570.0 4 5 7 5 5 7 10 7 8 12
2610.0 11 12 12 13 13 15 18 18 20 21
2650.0 24 24 27 29 29 36 38 37 38 35
2690.0 30 26 25 21 20 19 18 18 16 13
2730.0 16 13 14 12 14 13 14 13 17 19
2770.0 19 22 25 27 29 33 35 40 46 50
2810.0 52 58 63 69 77 86 102 127 178 257
2850.0 364 508 686 828 893 914 891 875 815 670
2890.0 559 485 476 508 561 610 654 716 850 1095
2930.0 1412 1899 2587 3550 4553 4736 4317 3348 2262 1491
2970.0 958 594 398 317 277 268 284 318 342 331
3010.0 284 228 189 166 162 167 168 156 137 113
3050.0 94 82 73 67 62 60 58 55 55 50
3090.0 48 45 44 40 39 35 33 33 30 29
3130.0 24 24 20 19 16 15 15 15 16 15
3170.0 15 11 14 13 12 14 13 11 11 12
3210.0 11 7 6 5 4 8 5 5 7 4
3250.0 6 1 2 4 6 2 3 2 4 5
3290.0 5 6 6 3 5 5 5 4 5 5
3330.0 3 6 5 7 9 7 8 7 8 6
3370.0 12 3 4 5 3 5 4 6 6 5
3410.0 5 3 2 9 4 9 13 10 11 11
3450.0 7 13 14 16 11 13 10 16 21 23
3490.0 27 33 30 26 19 9 8 6 7 8
3530.0 7 9 12 13 12 11 8 5 10 13
3570.0 14 16 21 32 36 48 59 68 77 83
3610.0 75 64 52 35 24 24 7 8 0 6
3650.0 5 4 12 9 15 13 11 7 5 12
3690.0 11 10 9 11 10 10 12 16 12 15
3730.0 12 16 7 16 13 15 15 6 10 10
3770.0 13 12 11 10 8 8 12 2 15 10
3810.0 13 14 14 18 13 16 15 13 10 16
3850.0 15 22 16 19 15 15 14 12 14 14
3890.0 15 11 12 22 18 17 17 13 15 19
3930.0 28 16 21 15 16 10 15 14 13 17
##END=
