##TITLE=Ethyl tridecanoate
##JCAMP-DX=4.24
##DATA TYPE=INFRARED SPECTRUM
##ORIGIN=Sadtler Research Labs Under US-EPA Contract
##OWNER=NIST Standard Reference Data Program
##CAS REGISTRY NO=28267-29-0
##MOLFORM=C 15 H 30 O 2
##XUNITS=1/CM
##YUNITS=ABSORBANCE
##XFACTOR=1.0
##YFACTOR=0.000067725
##DELTAX=4.0
##FIRSTX=450.0
##LASTX=3966.0
##FIRSTY=0.008804
##MAXX=3966
##MINX=450
##MAXY=0.67725
##MINY=0
##NPOINTS=880
##XYDATA=(X++(Y..Y))
450.0 130 106 141 229 225 143 137 116 28 4
490.0 98 91 74 103 141 108 74 143 136 145
530.0 124 169 152 162 231 212 135 134 256 127
570.0 218 252 167 133 172 275 246 154 219 193
610.0 119 287 250 209 238 242 288 227 183 188
650.0 218 162 166 236 192 234 228 193 310 236
690.0 316 284 300 232 295 327 362 360 311 384
730.0 352 360 380 353 282 292 324 292 280 317
770.0 351 343 300 328 363 281 313 328 264 318
810.0 283 282 311 252 286 302 325 314 316 367
850.0 325 353 337 349 321 333 322 276 283 232
890.0 302 302 302 311 287 325 345 346 359 330
930.0 326 345 338 307 315 296 291 292 288 252
970.0 270 305 269 263 272 238 267 318 320 366
1010.0 376 432 538 657 819 982 1102 1196 1198 1138
1050.0 1054 968 899 914 864 810 827 810 830 805
1090.0 872 986 1115 1207 1283 1339 1403 1408 1339 1224
1130.0 1239 1278 1414 1637 1974 2265 2594 2776 2913 3024
1170.0 3042 3060 3058 2959 2800 2596 2434 2265 2112 2035
1210.0 1971 1920 1900 1905 1925 1944 1944 1976 2008 1965
1250.0 1914 1801 1647 1496 1307 1233 1132 1066 1012 997
1290.0 992 993 1001 1025 1033 1036 1007 954 916 895
1330.0 836 841 885 944 976 1012 978 889 891 933
1370.0 1120 1249 1137 951 811 643 550 548 457 408
1410.0 426 429 451 504 535 579 636 676 716 810
1450.0 915 993 1143 1230 1216 1113 925 720 545 431
1490.0 390 334 322 271 304 264 237 214 238 209
1530.0 212 212 190 246 194 188 175 240 212 179
1570.0 182 169 178 155 157 155 163 179 167 159
1610.0 163 158 186 168 175 146 178 198 144 174
1650.0 180 246 167 192 174 188 183 186 188 255
1690.0 226 232 299 344 355 393 453 574 636 799
1730.0 1029 1409 1877 2558 3395 4323 4894 4563 3639 2678
1770.0 1922 1361 924 674 515 409 350 280 256 218
1810.0 195 180 156 157 154 155 137 130 126 130
1850.0 119 118 103 111 125 124 109 115 117 107
1890.0 116 115 107 100 100 114 99 98 105 98
1930.0 99 97 110 99 102 98 101 93 102 102
1970.0 86 93 92 99 89 93 95 90 91 87
2010.0 98 96 96 104 96 96 96 86 96 86
2050.0 86 86 86 77 80 84 85 78 76 69
2090.0 70 70 66 67 67 66 75 65 66 65
2130.0 64 65 65 63 63 61 63 63 64 58
2170.0 61 62 59 60 61 60 59 59 59 58
2210.0 58 59 53 57 57 56 55 48 56 54
2250.0 54 48 54 45 46 38 42 50 46 44
2290.0 51 50 51 57 58 61 84 69 86 93
2330.0 94 86 76 90 76 68 68 112 95 73
2370.0 53 48 55 40 42 30 29 27 34 33
2410.0 33 27 28 31 37 29 28 29 33 31
2450.0 22 23 29 21 28 19 13 30 22 23
2490.0 20 10 26 25 4 17 19 19 25 35
2530.0 20 30 35 22 28 36 36 29 31 36
2570.0 37 38 38 39 38 44 39 40 45 47
2610.0 55 56 56 49 49 56 58 64 59 59
2650.0 58 70 83 76 73 76 81 90 98 90
2690.0 90 87 98 80 83 82 82 79 78 87
2730.0 94 94 88 100 103 110 111 106 117 126
2770.0 120 118 140 148 164 166 179 192 209 232
2810.0 246 277 301 342 390 434 494 569 699 879
2850.0 1228 1846 2750 3624 3838 3481 2903 2438 2178 2022
2890.0 1884 1801 1891 2150 2526 3025 3648 4454 5636 7351
2930.0 9124 10000 9449 8167 6654 5248 4215 3625 3455 3491
2970.0 3442 3085 2568 2266 2088 1848 1515 1210 1026 860
3010.0 721 606 490 424 355 310 273 223 215 186
3050.0 178 163 149 148 123 112 117 110 96 97
3090.0 82 81 93 86 86 79 79 79 68 80
3130.0 73 73 74 80 61 60 75 61 69 77
3170.0 70 64 68 67 73 69 57 60 68 49
3210.0 60 50 44 66 51 36 43 37 30 39
3250.0 33 41 39 43 34 33 25 42 33 34
3290.0 41 30 19 33 31 27 30 40 37 30
3330.0 30 24 16 40 28 24 29 46 34 43
3370.0 24 33 42 27 22 28 34 24 32 37
3410.0 30 49 42 41 37 38 32 31 27 58
3450.0 38 40 36 37 50 32 40 60 43 65
3490.0 64 73 80 37 31 40 42 38 26 7
3530.0 26 10 17 4 10 34 46 17 21 37
3570.0 18 21 34 20 38 58 50 37 37 38
3610.0 68 67 43 51 54 75 52 50 40 40
3650.0 63 48 55 58 49 82 65 74 42 40
3690.0 59 53 46 43 45 53 50 55 51 62
3730.0 86 84 89 84 104 105 109 85 93 86
3770.0 87 86 60 81 79 77 88 100 89 96
3810.0 85 98 91 107 97 99 122 118 100 85
3850.0 98 94 88 102 108 102 87 71 73 79
3890.0 89 81 72 87 84 67 70 55 55 48
3930.0 48 40 49 51 61 52 0 4 4 4
##END=
