##TITLE=Ethanol, 2-(cyclohexylamino)-
##JCAMP-DX=4.24
##DATA TYPE=INFRARED SPECTRUM
##ORIGIN=Sadtler Research Labs Under US-EPA Contract
##OWNER=NIST Standard Reference Data Program
##CAS REGISTRY NO=2842-38-8
##MOLFORM=C 8 H 17 N O
##XUNITS=1/CM
##YUNITS=ABSORBANCE
##XFACTOR=1.0
##YFACTOR=0.000122018
##DELTAX=4.0
##FIRSTX=450.0
##LASTX=3966.0
##FIRSTY=0.000000
##MAXX=3966
##MINX=450
##MAXY=1.22018
##MINY=0
##NPOINTS=880
##XYDATA=(X++(Y..Y))
450.0 0 207 271 300 245 232 264 211 247 239
490.0 236 232 198 272 235 220 207 241 196 242
530.0 260 211 219 271 239 207 164 240 240 235
570.0 230 234 236 233 245 266 260 262 253 265
610.0 272 238 228 242 260 307 306 301 290 305
650.0 305 333 320 333 368 384 402 365 392 421
690.0 460 480 474 501 495 501 487 486 489 488
730.0 458 441 436 428 399 292 339 380 351 315
770.0 316 306 296 299 304 329 319 346 344 323
810.0 294 273 278 271 270 296 298 296 321 328
850.0 368 375 390 422 458 494 516 519 541 560
890.0 572 571 549 501 460 429 409 393 384 365
930.0 349 327 337 332 313 325 324 341 355 368
970.0 403 432 420 402 423 408 421 436 475 514
1010.0 570 660 744 820 941 1076 1226 1330 1481 1579
1050.0 1717 1828 1908 1939 1876 1699 1447 1200 1011 866
1090.0 808 774 779 793 820 846 877 942 1007 1140
1130.0 1259 1348 1400 1325 1198 1040 876 756 647 580
1170.0 545 518 505 502 491 496 498 504 510 517
1210.0 525 532 536 533 525 541 551 554 555 549
1250.0 561 580 623 641 644 632 573 508 484 450
1290.0 420 412 445 456 461 481 498 527 565 597
1330.0 610 634 705 798 873 888 860 849 802 782
1370.0 771 729 686 668 681 657 675 718 722 742
1410.0 697 638 597 515 507 544 587 727 878 1040
1450.0 1246 1411 1523 1515 1451 1287 1047 817 632 501
1490.0 413 348 319 285 303 274 282 237 237 236
1530.0 224 225 226 222 231 224 224 207 215 214
1570.0 208 210 208 211 221 216 206 212 223 214
1610.0 215 219 214 211 213 214 204 210 228 218
1650.0 197 200 218 225 208 211 214 218 229 211
1690.0 210 211 198 213 223 211 226 207 206 221
1730.0 219 206 194 199 199 194 200 195 196 190
1770.0 184 205 211 214 219 206 198 192 195 189
1810.0 189 190 189 186 193 180 185 182 189 190
1850.0 188 183 181 182 188 190 182 175 185 182
1890.0 185 179 184 181 182 173 175 183 187 183
1930.0 184 178 177 180 179 183 183 176 174 173
1970.0 177 180 179 172 168 169 166 168 176 178
2010.0 176 176 172 167 172 175 176 168 171 172
2050.0 168 174 165 166 174 172 168 174 166 177
2090.0 180 181 173 172 172 173 175 172 173 169
2130.0 171 179 176 169 169 172 171 180 154 163
2170.0 169 178 175 174 177 168 172 169 160 167
2210.0 171 163 175 170 165 171 167 172 174 173
2250.0 172 176 182 175 182 175 180 172 168 173
2290.0 178 178 177 177 178 184 183 177 184 177
2330.0 186 188 194 201 190 192 195 192 187 186
2370.0 192 183 184 193 182 178 178 176 178 174
2410.0 175 178 179 169 174 184 178 176 170 176
2450.0 177 177 170 173 172 172 177 183 185 193
2490.0 185 184 187 184 182 187 182 187 193 195
2530.0 189 189 198 191 193 196 192 197 203 204
2570.0 208 211 224 224 227 234 239 249 250 253
2610.0 254 257 248 249 253 261 264 273 287 298
2650.0 309 323 340 350 362 366 363 354 344 344
2690.0 336 330 337 341 342 336 329 335 339 342
2730.0 344 352 361 365 375 383 397 412 425 445
2770.0 472 505 551 595 645 699 755 809 860 919
2810.0 973 1030 1095 1165 1231 1290 1360 1460 1620 1883
2850.0 2270 2808 3402 3792 3819 3520 3008 2527 2203 2038
2890.0 1978 1996 2114 2311 2586 2977 3483 4141 5039 6256
2930.0 7676 9190 10000 9453 8189 6364 4398 2967 2088 1552
2970.0 1208 973 800 667 560 490 434 394 357 329
3010.0 306 294 283 266 256 253 245 244 238 238
3050.0 241 246 250 244 236 228 222 202 198 205
3090.0 190 198 193 187 184 182 183 181 184 184
3130.0 189 187 178 186 191 193 189 185 181 185
3170.0 179 180 185 175 171 173 172 172 178 174
3210.0 171 168 172 171 167 167 161 172 171 172
3250.0 173 166 175 173 167 169 174 170 167 164
3290.0 169 164 161 158 162 168 167 168 170 176
3330.0 180 168 180 185 177 178 178 172 178 175
3370.0 176 177 174 184 180 178 180 179 192 178
3410.0 177 177 182 183 181 182 169 184 174 181
3450.0 171 173 169 176 168 173 163 178 178 179
3490.0 173 174 184 177 184 186 190 200 193 223
3530.0 228 246 256 268 296 324 332 349 353 353
3570.0 326 295 277 262 248 240 221 213 199 193
3610.0 190 178 187 183 184 183 180 187 197 202
3650.0 231 259 268 295 313 307 316 312 315 290
3690.0 245 222 206 200 194 170 185 183 184 187
3730.0 178 176 174 177 169 157 176 180 171 179
3770.0 166 169 175 174 166 169 164 174 170 157
3810.0 168 167 171 165 166 168 167 166 168 163
3850.0 163 176 184 164 153 159 152 158 164 170
3890.0 168 183 160 190 151 170 165 173 176 171
3930.0 178 172 155 156 160 179 191 186 174 175
##END=
