##TITLE=2-Propenenitrile, 3-(4-methylphenyl)-
##JCAMP-DX=4.24
##DATA TYPE=INFRARED SPECTRUM
##ORIGIN=Sadtler Research Labs Under US-EPA Contract
##OWNER=NIST Standard Reference Data Program
##CAS REGISTRY NO=28446-70-0
##MOLFORM=C 10 H 9 N
##XUNITS=1/CM
##YUNITS=ABSORBANCE
##XFACTOR=1.0
##YFACTOR=0.000058936
##DELTAX=4.0
##FIRSTX=450.0
##LASTX=3966.0
##FIRSTY=0.059702
##MAXX=3966
##MINX=450
##MAXY=0.58936
##MINY=0
##NPOINTS=880
##XYDATA=(X++(Y..Y))
450.0 1013 946 885 772 657 512 348 198 125 161
490.0 206 156 53 0 51 274 572 918 1143 1418
530.0 1476 1146 912 610 328 171 134 197 275 357
570.0 490 423 333 204 130 89 94 94 117 125
610.0 156 173 176 126 148 143 150 134 150 147
650.0 141 152 157 158 147 194 144 123 105 149
690.0 140 168 195 307 316 294 246 149 85 65
730.0 90 95 71 65 138 101 257 519 981 1480
770.0 1853 2252 2863 3913 5253 6212 8577 8227 6620 5951
810.0 4845 3912 3409 3491 3640 3000 2484 1967 1604 1262
850.0 994 715 425 275 269 392 554 653 744 788
890.0 738 630 480 338 237 186 170 200 278 383
930.0 555 794 1213 1788 2420 3374 4324 5136 6063 6519
970.0 4981 4135 3067 1964 1132 579 274 142 104 158
1010.0 390 965 1273 1252 1011 461 290 312 409 488
1050.0 512 494 417 329 248 181 163 182 254 332
1090.0 409 482 565 653 765 882 975 1012 920 796
1130.0 664 484 299 155 99 58 34 20 91 269
1170.0 586 1133 2413 3167 2809 2194 789 601 851 1084
1210.0 1168 1058 862 718 693 678 581 422 295 230
1250.0 277 467 763 1002 1086 994 864 864 926 938
1290.0 810 646 515 405 315 248 282 487 713 795
1330.0 757 552 308 218 194 173 167 169 191 233
1370.0 274 300 383 492 607 745 836 915 1045 1167
1410.0 1279 1408 1415 1453 1388 1267 1083 946 853 763
1450.0 713 696 687 766 831 842 765 765 869 980
1490.0 1148 1498 1955 2643 3771 5355 6080 5491 3928 1972
1530.0 1007 664 494 398 397 452 535 667 949 1218
1570.0 1363 1382 1336 1275 1386 1674 2238 3194 4743 6649
1610.0 8372 9553 10000 9649 8335 6437 4253 2428 1636 1300
1650.0 999 732 588 486 405 334 277 267 212 195
1690.0 221 276 314 436 557 602 529 390 293 240
1730.0 202 175 215 257 316 433 590 636 612 542
1770.0 464 491 588 668 689 645 554 467 362 288
1810.0 192 115 65 32 13 1 14 30 26 11
1850.0 25 33 34 51 77 111 193 279 378 486
1890.0 594 676 710 710 643 535 437 370 322 296
1930.0 263 220 168 122 104 92 86 80 74 68
1970.0 78 84 89 88 83 75 78 85 83 77
2010.0 66 53 45 50 53 59 70 64 51 45
2050.0 36 37 40 41 30 39 46 48 48 44
2090.0 41 40 35 36 32 29 28 23 17 17
2130.0 19 17 24 31 42 56 64 64 63 74
2170.0 91 104 98 76 64 90 119 159 231 420
2210.0 934 2071 3869 5655 6263 5400 3072 966 322 190
2250.0 143 125 123 124 128 140 141 136 130 115
2290.0 109 110 116 131 136 129 138 120 110 102
2330.0 88 86 84 108 119 81 62 59 75 85
2370.0 95 99 93 71 52 37 33 24 28 34
2410.0 38 34 42 43 49 59 76 83 97 91
2450.0 85 76 63 55 51 51 47 38 39 38
2490.0 43 49 53 55 60 58 70 74 86 96
2530.0 115 129 131 125 125 114 118 114 107 96
2570.0 83 86 91 109 133 157 168 169 153 128
2610.0 105 92 90 94 99 92 84 68 48 27
2650.0 13 6 2 4 0 3 9 18 18 17
2690.0 20 18 19 24 28 35 47 57 67 81
2730.0 110 149 212 289 331 331 271 185 141 117
2770.0 112 121 134 161 176 189 201 208 219 231
2810.0 250 271 286 300 319 340 372 420 496 602
2850.0 738 915 1145 1438 1807 2255 2697 2995 3069 2925
2890.0 2677 2446 2291 2212 2209 2316 2552 2955 3568 4435
2930.0 5483 6243 6303 5674 4563 3487 2760 2351 2133 2028
2970.0 2006 2026 2101 2195 2322 2481 2690 2937 3183 3438
3010.0 3694 3984 4444 5393 7029 8623 9165 8758 7210 5882
3050.0 5465 5512 5685 5767 5433 4761 3870 3162 2767 2504
3090.0 2271 2034 1776 1489 1205 976 815 716 677 659
3130.0 624 563 477 373 264 194 153 120 105 98
3170.0 99 97 99 92 91 96 84 79 86 91
3210.0 93 104 120 138 163 188 211 210 190 139
3250.0 86 63 37 18 16 20 25 28 28 27
3290.0 21 12 4 6 12 5 6 7 15 16
3330.0 18 20 18 22 16 13 18 25 25 25
3370.0 27 35 35 28 36 33 22 29 21 27
3410.0 25 31 18 14 11 23 24 21 25 29
3450.0 23 15 18 11 10 6 7 14 6 5
3490.0 15 23 19 19 25 30 38 38 45 47
3530.0 32 33 12 8 6 6 8 17 10 4
3570.0 2 12 19 9 9 7 0 16 13 17
3610.0 19 20 27 41 23 39 45 49 42 25
3650.0 32 42 50 56 59 63 67 67 57 45
3690.0 50 45 32 25 33 13 11 18 22 18
3730.0 30 20 36 23 18 10 24 12 7 8
3770.0 7 0 0 0 18 20 18 24 38 38
3810.0 35 34 62 63 81 71 111 90 111 105
3850.0 85 74 65 42 38 24 43 42 31 20
3890.0 35 52 42 33 37 39 51 31 43 47
3930.0 26 11 22 11 0 4 6 0 0 0
##END=
