##TITLE=Nonadecanenitrile
##JCAMP-DX=4.24
##DATA TYPE=INFRARED SPECTRUM
##ORIGIN=Sadtler Research Labs Under US-EPA Contract
##OWNER=NIST Standard Reference Data Program
##CAS REGISTRY NO=28623-46-3
##MOLFORM=C 19 H 37 N
##XUNITS=1/CM
##YUNITS=ABSORBANCE
##XFACTOR=1.0
##YFACTOR=0.000112546
##DELTAX=4.0
##FIRSTX=450.0
##LASTX=3966.0
##FIRSTY=0.012718
##MAXX=3966
##MINX=450
##MAXY=1.12546
##MINY=0
##NPOINTS=880
##XYDATA=(X++(Y..Y))
450.0 113 113 16 272 130 91 244 120 211 132
490.0 172 273 146 177 124 190 147 143 265 179
530.0 226 111 141 264 140 196 260 74 124 159
570.0 108 171 128 143 204 110 162 158 190 167
610.0 167 157 116 136 124 115 169 166 157 151
650.0 150 138 136 186 169 90 145 121 99 55
690.0 78 101 55 103 131 187 196 170 207 185
730.0 199 167 102 148 71 93 111 101 131 154
770.0 126 113 87 59 61 83 64 58 69 52
810.0 100 63 58 87 84 90 94 55 67 69
850.0 77 75 81 82 51 84 117 122 106 97
890.0 86 99 52 86 69 75 99 85 67 92
930.0 133 94 77 92 82 81 67 77 83 97
970.0 79 75 66 88 83 75 115 71 77 91
1010.0 69 64 78 79 85 74 91 91 78 118
1050.0 98 70 95 82 89 65 65 69 103 64
1090.0 84 66 77 60 71 103 99 89 65 67
1130.0 72 69 63 60 61 47 68 55 62 56
1170.0 51 56 52 58 54 43 50 57 47 54
1210.0 62 68 71 72 81 74 66 74 63 70
1250.0 66 75 75 76 96 103 104 126 129 121
1290.0 121 132 152 166 172 164 151 167 149 153
1330.0 171 194 209 229 263 288 301 295 249 263
1370.0 229 210 201 154 165 142 131 110 104 119
1410.0 71 119 109 194 165 214 285 350 423 447
1450.0 548 651 731 793 744 600 487 313 243 178
1490.0 134 141 81 95 96 109 72 90 104 85
1530.0 27 89 63 114 62 32 67 54 131 50
1570.0 57 78 14 50 8 25 54 0 39 22
1610.0 43 26 53 63 34 58 22 63 58 20
1650.0 77 69 51 31 44 46 35 60 43 61
1690.0 30 43 67 86 29 26 32 60 51 16
1730.0 65 60 74 52 32 40 37 42 28 35
1770.0 31 45 23 19 22 30 24 50 3 43
1810.0 25 4 13 7 32 18 23 30 13 47
1850.0 9 34 19 10 39 21 33 9 19 22
1890.0 22 18 16 9 26 24 22 32 18 22
1930.0 26 25 18 17 18 26 27 16 23 23
1970.0 31 25 24 20 20 20 25 25 25 21
2010.0 16 34 19 21 31 28 38 29 32 38
2050.0 33 26 23 31 35 37 34 38 35 40
2090.0 37 29 31 31 33 24 29 27 29 26
2130.0 33 28 36 39 33 34 30 27 32 32
2170.0 28 28 41 34 34 34 35 32 37 35
2210.0 36 38 36 35 36 35 40 44 52 59
2250.0 70 68 63 61 54 45 43 40 37 38
2290.0 34 28 23 25 27 22 26 19 22 24
2330.0 22 20 1 34 1 34 2 28 4 12
2370.0 25 18 38 41 44 42 38 41 37 39
2410.0 37 40 50 46 43 42 46 50 45 41
2450.0 47 42 40 41 43 40 47 50 46 48
2490.0 53 48 53 53 56 55 60 57 57 61
2530.0 59 54 61 64 67 64 65 68 72 71
2570.0 69 70 72 69 74 73 75 79 80 84
2610.0 84 86 87 83 88 88 87 93 93 101
2650.0 101 105 109 119 130 129 135 128 129 129
2690.0 128 125 126 124 122 118 115 113 121 119
2730.0 125 128 133 137 138 136 141 141 141 152
2770.0 155 163 166 175 187 205 219 234 249 267
2810.0 284 307 338 377 417 473 533 623 763 983
2850.0 1354 1971 2855 3623 3730 3260 2670 2197 1904 1736
2890.0 1640 1634 1755 2015 2394 2868 3475 4271 5500 7256
2930.0 9125 10000 9230 7654 5958 4581 3594 2976 2650 2437
2970.0 2145 1728 1299 976 763 616 518 444 389 354
3010.0 318 298 269 247 223 212 196 183 173 163
3050.0 148 141 134 129 133 129 123 121 119 117
3090.0 104 102 100 98 100 94 95 102 93 92
3130.0 97 97 95 89 95 86 82 83 80 74
3170.0 80 85 83 82 79 79 79 70 77 75
3210.0 70 69 60 58 64 64 68 68 71 68
3250.0 70 72 69 64 72 67 62 59 61 68
3290.0 63 67 68 66 62 64 61 64 64 59
3330.0 55 60 63 60 62 65 62 71 59 64
3370.0 66 63 63 58 58 54 56 56 59 54
3410.0 56 66 60 50 61 62 53 62 52 54
3450.0 47 48 44 57 55 55 54 59 55 53
3490.0 45 49 49 49 48 45 45 41 50 44
3530.0 51 51 46 55 57 52 46 38 37 47
3570.0 56 37 52 39 68 44 79 33 67 36
3610.0 66 70 61 72 45 72 53 37 38 67
3650.0 80 128 37 80 26 97 70 99 49 32
3690.0 90 36 40 33 42 61 80 48 53 51
3730.0 38 71 90 46 99 69 77 49 26 50
3770.0 42 74 31 47 44 8 18 43 50 101
3810.0 0 50 17 123 34 60 65 100 85 45
3850.0 83 49 94 13 73 80 24 71 41 65
3890.0 62 86 76 79 102 27 57 30 52 86
3930.0 56 23 53 95 115 82 123 94 69 91
##END=
