##TITLE=2-Propenoic acid, 2-methyl-, 2-(dimethylamino)ethyl ester
##JCAMP-DX=4.24
##DATA TYPE=INFRARED SPECTRUM
##ORIGIN=Sadtler Research Labs Under US-EPA Contract
##OWNER=NIST Standard Reference Data Program
##CAS REGISTRY NO=2867-47-2
##MOLFORM=C 8 H 15 N O 2
##XUNITS=1/CM
##YUNITS=ABSORBANCE
##XFACTOR=1.0
##YFACTOR=0.000172235
##DELTAX=4.0
##FIRSTX=450.0
##LASTX=3966.0
##FIRSTY=0.017568
##MAXX=3966
##MINX=450
##MAXY=1.72235
##MINY=0
##NPOINTS=880
##XYDATA=(X++(Y..Y))
450.0 102 111 140 105 103 67 99 45 136 79
490.0 99 136 90 77 109 112 110 129 91 141
530.0 121 119 154 158 141 127 135 76 57 56
570.0 86 30 33 52 50 21 155 142 113 103
610.0 53 60 25 41 51 56 71 80 108 115
650.0 155 145 156 123 121 100 56 62 20 27
690.0 15 22 5 14 7 12 15 13 38 22
730.0 21 28 10 8 38 35 56 83 106 152
770.0 164 195 180 167 151 159 156 203 265 323
810.0 412 460 474 429 395 352 319 293 259 238
850.0 207 197 176 173 159 162 157 143 142 127
890.0 123 104 117 111 124 144 191 257 353 511
930.0 699 910 1052 1048 924 784 679 620 579 522
970.0 459 391 368 375 454 483 528 547 559 626
1010.0 728 889 1063 1205 1291 1341 1316 1215 1055 899
1050.0 798 726 681 642 625 600 584 562 548 532
1090.0 519 519 503 493 469 447 425 439 477 541
1130.0 670 871 1227 1802 2820 4449 6729 8903 10000 9554
1170.0 8136 6222 4673 3525 2751 2236 1855 1556 1322 1135
1210.0 968 810 657 526 443 387 354 336 338 356
1250.0 382 436 499 592 700 826 947 1086 1309 1737
1290.0 2394 2988 3157 2919 2453 2306 2551 2678 2460 1936
1330.0 1342 986 823 728 623 511 414 374 372 392
1370.0 418 441 459 468 492 518 561 646 757 828
1410.0 815 736 583 494 453 466 506 593 716 882
1450.0 1118 1373 1555 1630 1545 1348 1096 864 649 467
1490.0 348 277 223 189 158 132 120 108 85 83
1530.0 74 74 65 56 55 66 61 51 65 66
1570.0 71 76 85 90 98 102 105 111 122 136
1610.0 154 186 212 257 297 368 439 517 550 508
1650.0 403 282 204 158 141 139 143 167 175 201
1690.0 230 264 274 312 362 473 640 981 1572 2448
1730.0 3624 4727 5402 5293 4455 3232 2076 1257 750 486
1770.0 342 253 227 199 199 184 186 168 139 123
1810.0 99 82 67 63 51 47 46 52 46 42
1850.0 53 56 67 74 84 81 102 109 112 108
1890.0 97 87 71 67 54 52 44 46 41 42
1930.0 44 39 41 32 36 31 30 31 35 32
1970.0 35 42 42 49 52 55 53 57 53 47
2010.0 45 40 40 35 39 32 37 36 31 26
2050.0 27 28 23 23 17 20 19 24 28 37
2090.0 36 36 36 32 34 32 33 31 31 33
2130.0 30 29 30 32 27 30 30 27 25 25
2170.0 21 18 18 17 18 13 17 14 15 13
2210.0 12 11 13 14 14 17 15 19 18 20
2250.0 19 16 15 12 13 11 12 6 7 2
2290.0 1 4 3 5 5 11 11 18 15 24
2330.0 19 16 14 15 8 2 7 2 5 7
2370.0 1 0 0 0 0 5 4 9 8 9
2410.0 7 11 12 9 12 8 8 10 13 12
2450.0 11 11 11 8 9 10 10 11 7 10
2490.0 15 16 22 27 29 27 27 21 19 20
2530.0 16 18 19 18 20 23 24 22 22 18
2570.0 23 19 19 19 19 19 19 18 19 21
2610.0 24 24 26 34 33 38 38 44 43 51
2650.0 57 67 73 75 74 73 77 76 77 81
2690.0 88 98 110 132 154 194 233 278 325 364
2730.0 392 409 429 471 511 553 635 746 930 1233
2770.0 1634 2035 2275 2309 2146 1919 1709 1511 1340 1223
2810.0 1172 1184 1262 1387 1509 1520 1413 1205 991 837
2850.0 744 713 731 759 780 795 791 782 773 769
2890.0 782 802 831 852 861 854 862 862 891 966
2930.0 1094 1294 1521 1712 1878 2015 2090 2150 2149 2094
2970.0 2078 2119 2212 2260 2159 1854 1466 1123 894 726
3010.0 582 441 350 295 256 233 198 170 154 152
3050.0 152 146 137 122 113 96 96 98 90 86
3090.0 97 104 115 134 175 206 187 162 101 67
3130.0 54 40 49 44 54 46 42 41 37 41
3170.0 36 38 33 31 35 28 38 33 32 28
3210.0 32 24 26 28 28 25 30 24 24 30
3250.0 25 27 24 24 20 27 18 28 32 28
3290.0 15 12 14 10 14 13 5 17 11 7
3330.0 4 12 10 18 13 18 17 16 20 25
3370.0 22 24 21 6 19 19 10 15 26 27
3410.0 34 15 29 13 17 28 31 34 30 42
3450.0 48 52 71 74 70 54 51 39 35 29
3490.0 16 19 20 29 28 26 19 20 17 19
3530.0 19 25 19 23 28 33 26 14 21 21
3570.0 35 39 31 38 29 37 30 34 21 39
3610.0 43 17 27 39 32 32 35 27 29 29
3650.0 29 25 32 28 22 22 16 38 16 41
3690.0 42 26 42 18 27 42 23 13 17 35
3730.0 19 35 31 28 25 16 11 29 34 30
3770.0 38 25 41 16 24 45 27 14 19 17
3810.0 29 40 31 29 16 30 26 30 22 18
3850.0 22 22 29 8 32 27 35 18 40 43
3890.0 9 14 40 27 17 31 26 34 31 33
3930.0 29 20 35 31 20 45 16 28 20 21
##END=
