##TITLE=Cyclopentane
##JCAMP-DX=4.24
##DATA TYPE=INFRARED SPECTRUM
##ORIGIN=Sadtler Research Labs Under US-EPA Contract
##OWNER=NIST Standard Reference Data Program
##CAS REGISTRY NO=287-92-3
##MOLFORM=C 5 H 10
##XUNITS=1/CM
##YUNITS=ABSORBANCE
##XFACTOR=1.0
##YFACTOR=0.000196988
##DELTAX=4.0
##FIRSTX=450.0
##LASTX=3966.0
##FIRSTY=0.000000
##MAXX=3966
##MINX=450
##MAXY=1.96988
##MINY=0
##NPOINTS=880
##XYDATA=(X++(Y..Y))
450.0 0 14 20 25 35 22 19 25 22 31
490.0 33 30 31 27 31 37 46 32 43 47
530.0 47 44 49 53 43 36 38 37 32 50
570.0 31 30 26 32 32 29 28 35 33 39
610.0 33 39 38 32 29 38 39 29 29 35
650.0 33 26 30 28 26 31 33 34 33 30
690.0 33 26 27 32 30 31 29 29 35 31
730.0 31 29 36 35 38 34 34 39 35 36
770.0 36 30 33 36 36 38 35 38 37 41
810.0 38 37 37 43 49 47 47 41 47 47
850.0 51 60 66 78 91 110 122 124 128 125
890.0 141 204 193 102 112 130 131 125 109 99
930.0 82 74 68 63 64 62 60 59 57 56
970.0 54 51 51 47 47 45 44 43 40 35
1010.0 37 39 40 37 36 36 35 36 34 32
1050.0 33 32 31 30 32 30 32 31 30 31
1090.0 33 29 31 31 32 34 33 33 32 32
1130.0 34 36 34 34 34 33 33 33 33 33
1170.0 34 36 35 37 37 39 38 40 40 41
1210.0 42 45 47 46 46 47 50 50 51 49
1250.0 52 52 53 51 51 49 49 48 47 48
1290.0 46 47 47 47 47 47 47 47 46 44
1330.0 42 42 43 40 39 38 40 45 43 48
1370.0 53 54 58 61 65 66 69 72 75 75
1410.0 83 82 89 89 103 111 146 169 235 275
1450.0 294 286 302 366 321 304 292 275 227 189
1490.0 147 121 99 94 77 74 72 65 58 53
1530.0 57 43 47 34 41 36 33 25 21 29
1570.0 24 30 19 30 23 27 24 27 23 26
1610.0 25 25 21 23 27 21 24 20 26 15
1650.0 32 5 27 21 26 16 28 17 28 18
1690.0 27 23 25 16 27 25 28 24 27 25
1730.0 27 22 26 24 29 26 27 27 25 26
1770.0 24 24 27 25 22 26 20 26 25 23
1810.0 23 24 20 24 20 23 25 22 24 20
1850.0 24 23 23 23 26 25 26 27 26 27
1890.0 26 26 25 27 25 25 26 23 25 23
1930.0 24 23 21 22 22 21 22 22 21 22
1970.0 21 21 21 22 21 23 23 22 22 24
2010.0 24 26 25 27 26 27 28 28 28 28
2050.0 30 29 29 28 28 28 26 26 25 25
2090.0 25 23 24 25 25 25 25 25 25 25
2130.0 25 27 28 28 29 31 32 34 35 35
2170.0 37 41 45 39 37 40 40 38 38 35
2210.0 33 31 32 31 30 31 29 29 28 30
2250.0 32 30 30 32 29 29 30 29 31 31
2290.0 29 28 27 27 27 29 31 31 34 34
2330.0 38 41 44 42 45 42 37 32 31 31
2370.0 30 28 26 24 23 21 21 20 22 21
2410.0 19 19 21 18 18 18 18 19 18 18
2450.0 17 19 17 20 20 21 20 20 20 22
2490.0 21 20 18 19 18 16 16 16 16 16
2530.0 15 16 15 15 16 18 18 19 20 23
2570.0 27 29 35 40 41 40 44 47 45 44
2610.0 45 42 39 35 32 34 32 30 30 28
2650.0 29 28 26 27 25 26 24 26 25 26
2690.0 25 25 27 28 28 30 33 35 38 40
2730.0 43 42 42 46 47 50 51 52 52 54
2770.0 58 63 70 78 91 101 110 117 127 141
2810.0 154 168 185 208 228 257 296 339 406 503
2850.0 663 908 1263 1662 2014 2205 2371 2602 2673 2586
2890.0 2598 2612 2514 2313 2189 2232 2359 2491 2642 2882
2930.0 3285 3800 4347 5042 5677 5963 5840 5713 6711 10000
2970.0 6348 4791 4815 4685 4124 3306 2490 1807 1309 977
3010.0 759 610 502 422 357 300 253 212 178 151
3050.0 127 108 91 77 66 56 50 45 43 40
3090.0 37 35 32 33 28 29 27 29 28 28
3130.0 28 30 27 29 29 28 30 31 33 33
3170.0 34 35 34 37 37 35 37 36 35 37
3210.0 35 31 30 27 27 27 27 26 23 24
3250.0 21 22 22 21 18 22 18 18 17 17
3290.0 18 18 18 19 16 16 17 16 19 17
3330.0 18 17 19 19 18 18 17 20 18 21
3370.0 20 18 19 17 19 20 18 19 20 19
3410.0 21 19 19 21 20 21 24 20 23 23
3450.0 23 24 27 26 27 28 27 32 30 35
3490.0 33 37 34 31 36 34 34 31 28 30
3530.0 28 27 27 27 26 29 27 33 27 30
3570.0 29 29 28 25 27 20 25 28 23 23
3610.0 19 23 20 20 28 13 27 25 23 22
3650.0 19 30 25 30 28 20 26 20 27 30
3690.0 25 26 32 33 34 29 29 32 37 34
3730.0 33 31 32 36 16 34 26 38 34 34
3770.0 36 37 37 36 35 38 41 38 38 43
3810.0 42 39 47 35 45 39 39 36 43 38
3850.0 43 28 41 37 39 35 37 30 34 34
3890.0 42 34 35 30 37 34 36 34 31 30
3930.0 35 34 35 34 33 28 31 33 29 33
##END=
