##TITLE=2H-1,2-Benzothiazin-3(4H)-one, 2-ethyl-, 1,1-dioxide
##JCAMP-DX=4.24
##DATA TYPE=INFRARED SPECTRUM
##ORIGIN=Sadtler Research Labs Under US-EPA Contract
##OWNER=NIST Standard Reference Data Program
##CAS REGISTRY NO=28716-53-2
##MOLFORM=C 10 H 11 N O 3 S
##XUNITS=1/CM
##YUNITS=ABSORBANCE
##XFACTOR=1.0
##YFACTOR=0.000096490
##DELTAX=4.0
##FIRSTX=450.0
##LASTX=3966.0
##FIRSTY=0.047666
##MAXX=3966
##MINX=450
##MAXY=0.9649
##MINY=0
##NPOINTS=880
##XYDATA=(X++(Y..Y))
450.0 494 414 363 349 352 331 271 214 117 66
490.0 43 26 36 4 29 45 68 131 221 256
530.0 273 213 142 146 166 234 293 384 477 709
570.0 1245 2234 4344 6295 6195 4414 2139 879 401 253
610.0 197 141 107 114 97 111 165 223 319 532
650.0 821 937 907 598 346 175 113 78 127 193
690.0 287 322 348 327 363 509 872 1548 2603 3431
730.0 3278 2336 1159 749 1009 1421 2069 1830 1222 967
770.0 820 988 1083 1034 812 539 348 215 147 84
810.0 79 52 42 44 58 67 86 119 128 161
850.0 167 132 96 106 135 141 117 88 77 73
890.0 86 95 118 131 169 260 430 714 970 1094
930.0 1107 1040 974 988 994 981 967 948 992 1032
970.0 932 715 505 369 287 236 205 176 168 159
1010.0 157 163 210 296 377 443 515 642 848 1037
1050.0 1068 964 842 850 1117 1480 1598 1450 1134 835
1090.0 684 599 506 409 339 286 294 374 516 769
1130.0 1019 1088 965 746 585 619 890 1359 2012 2734
1170.0 3388 3878 4112 4422 5044 5730 5962 5302 3758 2164
1210.0 1150 683 522 501 542 623 748 903 1110 1398
1250.0 1806 2319 2950 3629 4222 4460 4179 3468 2552 1763
1290.0 1215 889 703 628 636 729 885 1066 1235 1396
1330.0 1539 1605 1603 1555 1659 2043 2815 4254 6308 8291
1370.0 8640 6773 4315 2362 1306 879 667 510 397 358
1410.0 350 319 325 265 239 230 298 440 668 927
1450.0 1109 1071 941 749 668 748 889 844 621 377
1490.0 163 44 46 33 41 51 20 39 65 49
1530.0 55 41 62 68 64 34 48 64 54 44
1570.0 61 78 118 128 123 172 253 333 308 255
1610.0 190 154 158 140 147 111 129 138 135 148
1650.0 180 182 173 162 186 221 269 334 432 540
1690.0 617 759 983 1295 1685 2319 3485 5482 7997 9786
1730.0 10000 7849 4785 2544 1379 793 486 311 235 174
1770.0 169 134 106 92 86 83 95 93 106 111
1810.0 128 137 118 105 84 79 63 65 77 93
1850.0 80 58 50 37 37 38 21 13 12 13
1890.0 20 22 17 20 17 20 16 30 48 56
1930.0 65 60 50 39 34 27 43 62 74 74
1970.0 57 37 20 15 12 15 10 7 4 4
2010.0 3 4 6 6 3 6 8 9 12 14
2050.0 9 9 9 9 8 1 1 2 0 6
2090.0 6 12 15 16 19 15 16 15 17 14
2130.0 15 13 18 17 18 15 13 14 15 16
2170.0 15 16 20 19 21 21 21 20 23 27
2210.0 28 24 27 27 22 20 20 19 19 20
2250.0 19 21 19 21 26 26 26 28 34 36
2290.0 47 58 62 69 71 93 91 97 106 92
2330.0 80 70 47 26 79 41 59 37 29 5
2370.0 16 3 30 32 31 13 8 5 5 5
2410.0 11 12 16 17 21 28 29 26 22 23
2450.0 24 17 20 18 18 12 20 13 17 18
2490.0 18 19 22 23 23 23 26 23 28 30
2530.0 34 34 36 38 39 38 39 39 32 33
2570.0 26 28 23 23 23 26 22 23 21 23
2610.0 23 26 22 18 20 20 23 21 32 29
2650.0 30 29 29 29 29 29 33 29 24 26
2690.0 19 21 19 17 14 15 19 22 27 23
2730.0 28 27 22 24 28 27 29 28 32 35
2770.0 38 38 36 33 36 36 35 38 44 46
2810.0 54 57 56 54 52 57 57 65 69 73
2850.0 74 78 78 83 93 108 133 167 211 253
2890.0 276 273 261 238 223 222 218 215 212 206
2930.0 224 284 384 536 673 699 599 460 377 375
2970.0 418 485 655 920 1170 1158 908 588 406 335
3010.0 293 242 196 170 175 193 213 213 200 190
3050.0 171 186 231 287 340 388 481 577 614 536
3090.0 373 211 130 99 75 64 48 47 42 39
3130.0 39 38 36 41 42 40 40 42 45 42
3170.0 43 44 47 44 44 43 42 37 37 27
3210.0 24 20 23 19 20 19 19 21 18 20
3250.0 16 28 24 19 17 21 23 18 23 20
3290.0 20 20 23 22 23 15 20 21 26 24
3330.0 29 22 23 22 23 27 26 18 22 16
3370.0 27 26 20 27 24 24 24 26 37 30
3410.0 35 31 56 64 86 100 110 100 77 61
3450.0 33 19 20 18 18 14 8 4 16 17
3490.0 13 27 18 23 29 21 27 16 19 16
3530.0 15 20 11 14 15 30 27 21 19 27
3570.0 33 20 26 21 24 27 12 19 26 20
3610.0 24 28 30 34 21 32 20 27 37 36
3650.0 46 35 45 33 23 35 29 52 24 37
3690.0 39 36 28 33 27 29 40 34 36 41
3730.0 40 49 42 35 44 23 36 27 24 31
3770.0 42 26 22 34 28 27 37 48 44 42
3810.0 31 45 26 53 38 18 30 41 42 34
3850.0 36 36 19 35 28 48 29 28 27 24
3890.0 21 28 14 37 26 40 35 41 45 34
3930.0 17 24 14 35 41 16 31 15 21 27
##END=
