##TITLE=2-Propenamide, N-(1,1-dimethyl-3-oxobutyl)-
##JCAMP-DX=4.24
##DATA TYPE=INFRARED SPECTRUM
##ORIGIN=Sadtler Research Labs Under US-EPA Contract
##OWNER=NIST Standard Reference Data Program
##CAS REGISTRY NO=2873-97-4
##MOLFORM=C 9 H 15 N O 2
##XUNITS=1/CM
##YUNITS=ABSORBANCE
##XFACTOR=1.0
##YFACTOR=0.000062442
##DELTAX=4.0
##FIRSTX=450.0
##LASTX=3966.0
##FIRSTY=0.027350
##MAXX=3966
##MINX=450
##MAXY=0.62442
##MINY=0
##NPOINTS=880
##XYDATA=(X++(Y..Y))
450.0 438 591 541 492 660 586 547 602 666 612
490.0 677 663 622 645 634 661 687 656 637 607
530.0 561 532 494 459 441 396 367 356 356 319
570.0 302 351 348 371 363 333 348 338 351 332
610.0 335 347 331 290 238 216 192 183 158 148
650.0 120 133 106 114 133 137 148 201 198 189
690.0 156 105 55 74 43 28 11 45 22 32
730.0 9 26 29 31 35 68 36 49 57 44
770.0 85 109 165 241 392 571 775 880 839 670
810.0 459 328 240 220 217 220 210 193 216 212
850.0 217 236 235 238 266 259 272 273 271 270
890.0 283 297 310 327 362 379 397 456 529 637
930.0 792 952 1088 1152 1143 1174 1248 1373 1511 1710
970.0 1895 1963 1838 1507 1141 884 694 564 470 424
1010.0 411 387 379 372 365 372 369 380 366 348
1050.0 361 370 416 467 495 491 437 371 309 276
1090.0 265 258 258 272 294 328 365 426 522 651
1130.0 867 1130 1439 1726 1915 1993 1932 1797 1620 1438
1170.0 1282 1218 1246 1390 1634 1965 2335 2723 3030 3238
1210.0 3320 3309 3270 3285 3408 3623 3796 3781 3520 3060
1250.0 2564 2185 1915 1738 1582 1465 1383 1326 1295 1270
1290.0 1232 1159 1144 1200 1319 1408 1448 1410 1369 1385
1330.0 1441 1518 1598 1738 1949 2317 2879 3596 4173 4373
1370.0 4145 3268 2477 2127 2023 2110 2250 2374 2417 2373
1410.0 2222 1958 1751 1625 1552 1543 1614 1788 2017 2246
1450.0 2436 2522 2496 2436 2430 2559 2848 3300 4038 5226
1490.0 6821 8648 9755 10000 9160 7747 6589 5474 4495 3386
1530.0 2518 1835 1442 1163 977 859 756 676 616 579
1570.0 539 524 530 520 529 539 557 573 610 690
1610.0 837 1030 1236 1398 1442 1373 1304 1175 1098 958
1650.0 875 793 796 826 911 1040 1234 1645 2215 3241
1690.0 4683 6384 8068 8841 8216 7356 6327 5960 5990 6213
1730.0 5760 4784 3673 2667 1869 1388 1093 860 714 581
1770.0 507 406 381 330 310 270 252 231 204 199
1810.0 178 172 155 159 142 144 141 143 132 122
1850.0 125 122 119 114 123 117 136 141 147 138
1890.0 130 124 116 127 136 167 182 197 194 186
1930.0 179 158 142 108 94 81 83 76 78 76
1970.0 72 75 72 70 63 67 61 66 57 61
2010.0 58 56 60 55 58 56 63 60 59 58
2050.0 58 60 62 65 59 63 62 67 66 69
2090.0 69 68 70 68 67 67 71 71 73 76
2130.0 76 79 81 78 78 75 74 75 70 76
2170.0 72 72 72 71 70 68 64 65 68 63
2210.0 66 63 58 59 58 57 55 55 54 58
2250.0 52 55 49 48 49 46 44 38 43 34
2290.0 38 40 38 36 24 15 10 3 8 10
2330.0 10 25 37 28 53 44 51 64 57 65
2370.0 78 78 101 96 101 99 95 89 97 98
2410.0 101 97 92 87 76 70 62 59 55 53
2450.0 58 54 59 56 63 52 55 55 58 55
2490.0 56 57 62 59 61 61 62 61 55 60
2530.0 63 67 64 64 63 62 62 68 67 65
2570.0 63 65 64 61 63 66 64 68 62 68
2610.0 65 70 69 60 67 63 70 69 68 70
2650.0 70 71 74 72 67 79 76 80 88 93
2690.0 87 89 92 90 93 94 94 94 98 101
2730.0 106 102 101 98 95 95 94 91 96 101
2770.0 99 103 99 103 100 102 105 115 115 118
2810.0 128 131 134 142 149 155 170 186 199 215
2850.0 230 258 294 349 422 515 604 706 790 866
2890.0 937 1031 1137 1230 1292 1317 1347 1374 1456 1580
2930.0 1708 1806 1846 1805 1719 1628 1571 1590 1708 2011
2970.0 2484 2868 2924 2645 2130 1647 1384 1263 1187 1121
3010.0 1021 911 820 750 697 649 543 431 354 312
3050.0 291 293 310 313 318 286 268 256 262 331
3090.0 417 457 469 424 363 316 260 200 150 127
3130.0 118 110 104 97 96 96 96 91 95 92
3170.0 91 89 86 86 94 90 91 99 100 97
3210.0 93 88 93 86 95 91 86 91 83 78
3250.0 79 78 80 77 75 75 66 75 68 74
3290.0 78 83 77 80 91 96 104 111 122 131
3330.0 132 134 132 139 137 144 141 144 149 165
3370.0 171 186 221 257 300 370 496 680 887 1046
3410.0 1098 1030 896 751 616 525 479 502 568 694
3450.0 817 901 859 696 503 322 201 129 106 93
3490.0 72 77 71 73 55 62 51 53 52 51
3530.0 39 46 40 47 32 31 37 46 34 35
3570.0 34 35 38 32 29 28 34 23 22 28
3610.0 17 30 27 24 15 34 30 15 22 11
3650.0 31 22 22 18 7 34 3 22 10 15
3690.0 29 13 11 22 24 27 13 21 23 20
3730.0 17 31 30 8 31 0 27 3 16 17
3770.0 3 19 11 18 9 17 9 9 7 15
3810.0 3 4 5 3 7 7 2 12 10 7
3850.0 11 15 23 3 17 3 3 21 13 18
3890.0 3 5 7 6 3 10 29 14 9 13
3930.0 22 3 3 3 6 3 3 15 9 3
##END=
