##TITLE=Phenol, pentachloro-, trichloroacetate
##JCAMP-DX=4.24
##DATA TYPE=INFRARED SPECTRUM
##ORIGIN=Sadtler Research Labs Under US-EPA Contract
##OWNER=NIST Standard Reference Data Program
##CAS REGISTRY NO=2879-60-9
##MOLFORM=C 8 Cl 8 O 2
##XUNITS=1/CM
##YUNITS=ABSORBANCE
##XFACTOR=1.0
##YFACTOR=0.000091708
##DELTAX=4.0
##FIRSTX=450.0
##LASTX=3966.0
##FIRSTY=0.000000
##MAXX=3966
##MINX=450
##MAXY=0.91708
##MINY=0
##NPOINTS=880
##XYDATA=(X++(Y..Y))
450.0 0 76 61 15 89 90 82 71 71 95
490.0 126 111 96 169 290 579 875 648 259 131
530.0 91 61 109 71 68 100 84 60 59 48
570.0 68 74 67 66 83 84 104 134 253 454
610.0 375 137 87 78 80 90 132 219 396 456
650.0 323 241 223 324 386 667 624 399 253 231
690.0 260 347 437 567 784 1084 1635 2422 2690 1970
730.0 1032 550 405 391 479 512 463 424 509 581
770.0 581 507 413 385 374 396 425 511 741 1320
810.0 2301 2921 2639 2107 1663 1236 947 1023 1424 1943
850.0 2326 2400 1995 1325 832 605 504 411 292 181
890.0 126 113 110 113 138 213 387 691 932 773
930.0 420 222 156 124 113 109 121 132 125 136
970.0 214 395 815 1520 2153 2030 1209 536 273 182
1010.0 139 110 95 89 92 111 126 148 163 183
1050.0 187 177 164 153 141 136 141 153 166 182
1090.0 197 223 245 250 258 273 292 349 499 845
1130.0 1345 1533 1147 767 721 862 1189 1810 2838 4286
1170.0 6165 8392 10000 9296 6255 3444 1921 1278 1007 853
1210.0 723 611 475 362 285 239 208 210 264 343
1250.0 391 346 275 215 202 240 346 477 540 516
1290.0 452 471 577 638 630 659 700 601 446 378
1330.0 375 402 497 669 954 1459 2352 3541 4274 3963
1370.0 3448 3759 4656 5365 5020 3483 2034 1267 904 729
1410.0 667 633 581 444 311 215 179 153 126 105
1450.0 97 93 104 107 98 95 88 79 70 81
1490.0 77 61 49 40 45 52 46 61 83 83
1530.0 83 81 102 108 117 107 108 89 77 65
1570.0 63 56 60 54 52 49 40 29 27 24
1610.0 24 23 26 22 27 17 23 18 12 23
1650.0 32 33 46 42 57 69 75 84 103 107
1690.0 114 121 121 130 131 123 117 128 116 131
1730.0 147 163 168 182 194 212 244 270 309 327
1770.0 352 359 380 414 485 583 800 1275 2220 3409
1810.0 3374 1802 694 325 249 227 228 245 258 242
1850.0 191 158 139 119 101 93 87 84 85 83
1890.0 86 83 85 84 85 88 87 80 81 77
1930.0 72 67 61 57 59 56 57 59 57 60
1970.0 65 64 66 67 69 70 73 72 70 65
2010.0 60 62 63 62 63 68 68 66 69 75
2050.0 79 81 80 78 78 82 85 90 96 105
2090.0 108 111 107 99 88 79 73 67 64 56
2130.0 56 52 47 45 45 46 47 50 52 58
2170.0 58 59 60 60 61 60 56 55 54 53
2210.0 50 49 47 48 45 46 45 49 53 52
2250.0 49 49 49 48 51 53 54 60 64 73
2290.0 80 94 106 120 121 134 118 99 113 94
2330.0 88 74 73 42 144 115 130 89 60 41
2370.0 68 63 86 98 73 41 31 28 28 26
2410.0 26 27 22 21 19 18 18 17 17 18
2450.0 20 21 22 20 18 15 16 14 14 14
2490.0 19 19 18 19 21 24 22 25 23 25
2530.0 21 16 17 16 17 15 17 16 17 14
2570.0 17 19 16 18 18 17 20 23 18 21
2610.0 20 21 21 23 22 19 20 23 24 22
2650.0 24 23 23 24 19 19 22 26 20 20
2690.0 18 20 17 23 21 17 21 20 23 25
2730.0 32 21 27 28 25 31 40 26 30 28
2770.0 25 29 34 22 24 23 22 33 28 17
2810.0 22 20 20 33 20 19 19 17 19 22
2850.0 17 20 14 17 20 12 14 15 15 14
2890.0 17 13 12 13 20 15 10 14 10 21
2930.0 16 13 20 19 32 21 19 14 30 25
2970.0 20 19 30 34 35 25 29 32 29 18
3010.0 25 33 27 14 21 24 20 19 22 26
3050.0 23 22 26 25 26 24 25 25 21 25
3090.0 27 25 27 24 29 24 23 25 25 25
3130.0 27 25 25 26 24 21 18 19 22 21
3170.0 26 21 23 20 23 22 22 22 21 23
3210.0 24 19 23 20 18 23 24 23 20 25
3250.0 23 19 21 20 20 24 20 25 15 21
3290.0 23 19 16 20 16 15 17 18 17 16
3330.0 14 17 19 21 20 20 17 20 18 21
3370.0 20 24 22 21 16 21 22 28 32 26
3410.0 21 21 23 23 27 31 32 29 27 26
3450.0 24 28 25 33 26 32 26 24 27 30
3490.0 24 33 29 23 31 30 29 22 26 35
3530.0 33 28 34 42 69 141 248 322 315 242
3570.0 140 94 62 57 56 70 69 47 44 30
3610.0 35 32 34 40 37 48 33 40 36 29
3650.0 46 28 26 33 23 53 26 45 22 35
3690.0 25 31 31 37 24 32 36 29 31 33
3730.0 32 38 38 30 62 33 44 30 29 22
3770.0 23 17 18 31 27 30 30 26 34 36
3810.0 12 30 38 34 30 31 25 32 37 22
3850.0 45 46 35 35 38 23 33 30 34 24
3890.0 26 42 32 40 35 34 33 30 29 29
3930.0 40 35 37 37 32 35 17 18 27 26
##END=
