##TITLE=1-Octadecanethiol
##JCAMP-DX=4.24
##DATA TYPE=INFRARED SPECTRUM
##ORIGIN=Sadtler Research Labs Under US-EPA Contract
##OWNER=NIST Standard Reference Data Program
##CAS REGISTRY NO=2885-00-9
##MOLFORM=C 18 H 38 S
##XUNITS=1/CM
##YUNITS=ABSORBANCE
##XFACTOR=1.0
##YFACTOR=0.000146747
##DELTAX=4.0
##FIRSTX=450.0
##LASTX=3966.0
##FIRSTY=0.004256
##MAXX=3966
##MINX=450
##MAXY=1.46747
##MINY=0
##NPOINTS=880
##XYDATA=(X++(Y..Y))
450.0 29 21 40 47 16 30 37 24 25 10
490.0 25 6 24 45 36 29 17 35 33 37
530.0 36 35 21 26 24 26 36 21 11 24
570.0 34 27 22 25 21 29 26 19 26 28
610.0 22 29 26 24 26 29 40 29 39 36
650.0 36 44 39 39 33 60 43 38 49 50
690.0 61 72 86 100 128 146 166 176 177 168
730.0 148 130 113 104 94 73 63 59 48 47
770.0 40 27 25 24 22 22 19 16 19 22
810.0 20 16 14 16 19 18 13 12 17 15
850.0 13 12 16 17 12 16 15 19 18 19
890.0 17 18 18 22 17 20 18 14 15 15
930.0 16 14 15 14 15 15 18 14 14 17
970.0 18 18 17 20 20 21 18 21 27 25
1010.0 27 32 33 33 33 38 38 40 42 44
1050.0 45 48 46 48 44 43 42 42 40 39
1090.0 39 37 35 31 29 31 30 28 28 25
1130.0 22 23 24 26 27 32 33 36 37 39
1170.0 37 39 40 39 37 35 40 40 45 47
1210.0 49 55 62 66 73 80 86 94 105 112
1250.0 119 126 134 142 150 156 166 178 187 193
1290.0 197 202 210 216 216 207 188 169 149 138
1330.0 137 149 172 203 235 266 282 267 246 225
1370.0 205 180 157 145 130 109 86 79 71 72
1410.0 72 80 90 100 120 155 209 275 353 431
1450.0 515 594 686 726 679 566 410 276 187 137
1490.0 103 83 67 53 50 49 35 35 31 25
1530.0 23 21 22 18 19 14 18 13 18 11
1570.0 12 9 16 6 8 8 9 7 6 8
1610.0 3 6 7 6 6 5 8 7 2 7
1650.0 3 7 6 1 5 6 3 7 4 10
1690.0 4 6 6 10 7 8 8 14 9 11
1730.0 20 27 32 29 25 19 17 12 12 7
1770.0 10 8 7 7 6 4 6 3 4 3
1810.0 2 2 2 2 1 3 0 2 1 3
1850.0 2 2 1 3 3 3 1 0 2 0
1890.0 2 2 2 2 0 2 0 1 1 1
1930.0 1 1 3 1 2 1 2 2 2 2
1970.0 3 3 4 2 3 4 5 5 5 6
2010.0 7 9 9 11 11 11 13 14 14 12
2050.0 12 12 10 11 11 11 10 7 9 10
2090.0 8 8 7 9 7 8 8 8 8 6
2130.0 8 7 8 7 9 9 10 9 11 10
2170.0 12 12 12 12 10 10 9 11 9 8
2210.0 9 8 8 8 7 6 9 7 9 7
2250.0 9 10 10 10 10 12 12 16 18 20
2290.0 23 29 34 36 40 44 39 37 38 29
2330.0 34 27 20 24 43 16 44 26 44 43
2370.0 39 29 30 29 24 14 12 12 11 11
2410.0 11 12 10 10 10 11 11 10 11 12
2450.0 13 10 12 11 13 13 13 15 14 14
2490.0 14 16 15 15 17 17 19 22 24 23
2530.0 25 25 28 27 28 28 29 31 30 33
2570.0 34 36 41 49 56 64 64 64 59 56
2610.0 55 56 56 56 57 59 62 64 66 69
2650.0 71 74 78 81 85 88 89 95 97 99
2690.0 99 96 91 88 85 82 82 82 83 84
2730.0 88 90 94 96 98 99 101 102 105 110
2770.0 116 121 128 136 149 164 180 196 212 231
2810.0 253 278 307 343 393 446 520 625 790 1064
2850.0 1518 2222 3138 3847 3799 3191 2514 2032 1771 1643
2890.0 1582 1624 1798 2100 2527 3043 3672 4538 5836 7610
2930.0 9435 10000 9131 7425 5571 4085 3082 2553 2344 2267
2970.0 2081 1678 1225 895 691 555 461 386 335 296
3010.0 259 232 208 186 170 157 144 132 117 109
3050.0 103 94 83 79 77 70 65 60 62 57
3090.0 55 51 48 48 45 45 43 40 38 37
3130.0 36 35 35 36 31 33 31 31 29 29
3170.0 27 26 27 26 24 24 25 22 20 18
3210.0 18 19 22 17 17 14 12 11 13 13
3250.0 10 12 12 12 13 11 11 14 11 13
3290.0 13 12 14 14 12 14 10 12 9 11
3330.0 12 10 16 14 17 14 12 9 13 12
3370.0 12 12 16 14 12 15 15 13 18 16
3410.0 16 13 15 13 11 12 13 11 16 14
3450.0 10 13 13 12 11 10 12 10 12 10
3490.0 8 9 9 14 7 8 8 7 10 9
3530.0 10 11 9 10 7 13 8 8 13 9
3570.0 10 13 11 14 13 18 10 13 14 11
3610.0 20 19 21 21 19 24 18 27 20 22
3650.0 26 20 30 20 26 23 26 18 22 19
3690.0 19 17 17 18 14 17 22 14 13 24
3730.0 17 16 14 24 17 22 21 12 16 16
3770.0 19 19 20 22 21 21 22 15 19 12
3810.0 12 15 11 21 13 18 20 26 16 18
3850.0 17 23 23 18 25 20 17 14 22 14
3890.0 22 15 12 19 28 25 19 16 14 4
3930.0 26 14 8 9 14 21 20 22 17 13
##END=
