##TITLE=Propiophenone, 5-bromo-2-hydroxy-3-methyl-,
##JCAMP-DX=4.24
##DATA TYPE=INFRARED SPECTRUM
##ORIGIN=Sadtler Research Labs Under US-EPA Contract
##OWNER=NIST Standard Reference Data Program
##CAS REGISTRY NO=2887-56-1
##MOLFORM=C 10 H 11 Br O 2
##XUNITS=1/CM
##YUNITS=ABSORBANCE
##XFACTOR=1.0
##YFACTOR=0.000053607
##DELTAX=4.0
##FIRSTX=450.0
##LASTX=3966.0
##FIRSTY=0.007773
##MAXX=3966
##MINX=450
##MAXY=0.53607
##MINY=0
##NPOINTS=880
##XYDATA=(X++(Y..Y))
450.0 145 96 50 184 176 54 76 18 11 95
490.0 181 275 236 219 140 117 93 51 68 84
530.0 65 94 187 278 415 561 656 612 509 414
570.0 393 403 468 608 635 575 387 289 240 289
610.0 390 578 692 831 807 687 498 367 304 308
650.0 301 332 383 494 577 731 791 766 723 668
690.0 642 663 762 800 870 958 1113 1337 1468 1423
730.0 1297 1273 1334 1354 1247 1104 1027 1021 1060 1115
770.0 1181 1271 1379 1521 1631 1644 1649 1587 1561 1561
810.0 1659 1777 1851 1824 1703 1492 1139 787 506 426
850.0 373 418 549 825 1150 1222 1230 1393 1486 1410
890.0 1198 830 512 323 208 162 144 118 104 99
930.0 118 121 119 128 154 200 279 389 510 592
970.0 606 588 601 629 659 668 682 715 746 723
1010.0 672 656 744 976 1367 1809 2110 2240 2290 2331
1050.0 2264 1964 1490 1044 800 691 668 718 852 1084
1090.0 1371 1662 1905 2019 1941 1759 1588 1544 1588 1669
1130.0 1720 1733 1663 1464 1132 790 571 466 418 382
1170.0 367 388 426 478 564 694 937 1338 1844 2420
1210.0 2984 3409 3624 3792 4284 5288 6325 6541 5971 5095
1250.0 4617 4752 5432 6707 8459 9582 9069 7219 5402 4437
1290.0 3716 3006 2428 2058 1861 1808 1949 2260 2749 3315
1330.0 3885 4269 4380 4294 4197 4159 4159 4064 3824 3490
1370.0 3177 3011 2950 3023 3002 2776 2373 2137 2289 2867
1410.0 3718 4810 5856 6991 8196 9045 9020 7995 6664 5688
1450.0 5042 4818 4923 5323 5298 4864 3823 2803 2085 1628
1490.0 1409 1232 1135 1036 1013 968 964 961 935 942
1530.0 929 958 933 942 948 970 950 916 938 919
1570.0 964 991 1097 1138 1311 1465 1724 2001 2285 2447
1610.0 2365 2252 1967 1869 1836 2252 2882 4182 6115 8287
1650.0 9840 10000 9259 7710 5991 4204 2778 1917 1354 1039
1690.0 874 770 699 658 662 608 580 524 519 480
1730.0 435 347 247 176 143 159 200 208 202 179
1770.0 166 175 213 199 191 164 191 232 275 281
1810.0 222 140 87 59 43 45 31 45 25 30
1850.0 27 32 30 31 23 19 32 23 30 21
1890.0 18 13 13 11 9 19 20 30 25 43
1930.0 49 47 50 39 41 31 40 32 37 28
1970.0 30 27 26 18 16 11 14 20 23 31
2010.0 29 17 9 12 6 3 4 3 4 2
2050.0 12 4 9 4 6 6 0 6 3 5
2090.0 5 10 15 15 7 7 7 8 12 11
2130.0 11 13 12 16 20 22 26 34 33 39
2170.0 40 41 40 38 38 34 25 24 27 16
2210.0 21 25 26 23 26 30 35 37 34 44
2250.0 45 51 53 58 60 56 53 52 39 34
2290.0 24 19 13 13 6 0 24 37 60 77
2330.0 74 102 91 91 72 68 94 90 76 55
2370.0 53 58 46 43 42 67 73 77 90 85
2410.0 87 101 97 107 104 102 108 108 107 113
2450.0 113 126 128 135 146 158 163 167 171 170
2490.0 166 158 162 154 146 156 158 162 173 179
2530.0 191 201 202 212 215 215 221 220 227 226
2570.0 233 228 223 218 220 222 224 235 233 239
2610.0 243 241 240 244 241 246 252 251 260 272
2650.0 285 297 316 329 334 333 337 345 342 349
2690.0 347 357 368 382 375 385 390 379 389 384
2730.0 379 379 389 395 405 419 428 416 406 405
2770.0 395 406 400 404 415 433 439 456 476 494
2810.0 521 538 560 578 599 622 639 662 689 715
2850.0 742 788 831 892 960 1021 1075 1144 1226 1348
2890.0 1475 1553 1563 1513 1489 1516 1652 1869 2089 2236
2930.0 2327 2448 2613 2724 2802 2924 2881 2689 2346 2099
2970.0 2037 2058 2206 2600 3241 3715 3735 3136 2380 1906
3010.0 1670 1554 1502 1461 1460 1463 1474 1493 1507 1529
3050.0 1565 1608 1630 1610 1544 1452 1376 1332 1314 1307
3090.0 1293 1287 1279 1260 1254 1247 1242 1239 1238 1215
3130.0 1227 1217 1210 1217 1193 1192 1181 1179 1185 1175
3170.0 1170 1173 1154 1135 1111 1085 1066 1048 1017 1010
3210.0 981 966 957 941 933 919 914 891 890 890
3250.0 884 878 857 837 818 811 815 803 789 800
3290.0 795 793 771 767 760 735 699 700 664 645
3330.0 621 608 604 578 562 551 536 516 504 488
3370.0 472 470 444 444 431 407 392 387 377 359
3410.0 354 348 325 304 307 303 267 273 270 244
3450.0 241 224 210 219 194 195 193 176 170 159
3490.0 155 168 135 160 148 127 118 107 106 113
3530.0 110 91 103 87 87 94 75 72 67 73
3570.0 82 73 65 58 71 65 51 28 42 41
3610.0 41 41 40 33 30 77 41 28 22 31
3650.0 46 19 22 2 13 12 1 26 4 15
3690.0 17 21 19 23 19 0 6 6 26 50
3730.0 35 25 13 12 53 16 15 12 6 0
3770.0 8 2 0 0 0 0 0 0 0 25
3810.0 0 12 0 0 0 0 0 15 6 9
3850.0 4 21 22 7 9 5 0 0 4 2
3890.0 4 24 9 51 8 1 2 26 24 7
3930.0 33 32 18 18 10 27 35 6 16 37
##END=
