##TITLE=1,3-Diazine
##JCAMP-DX=4.24
##DATA TYPE=INFRARED SPECTRUM
##ORIGIN=Sadtler Research Labs Under US-EPA Contract
##OWNER=NIST Standard Reference Data Program
##CAS REGISTRY NO=289-95-2
##MOLFORM=C 4 H 4 N 2
##XUNITS=1/CM
##YUNITS=ABSORBANCE
##XFACTOR=1.0
##YFACTOR=0.000126541
##DELTAX=4.0
##FIRSTX=450.0
##LASTX=3966.0
##FIRSTY=0.032015
##MAXX=3966
##MINX=450
##MAXY=1.26541
##MINY=0
##NPOINTS=880
##XYDATA=(X++(Y..Y))
450.0 253 78 9 33 23 46 29 51 22 20
490.0 18 37 28 4 34 13 21 25 35 13
530.0 28 29 44 29 20 47 15 24 19 52
570.0 22 40 42 52 63 99 227 353 633 845
610.0 996 800 932 1070 1065 1162 1067 735 420 195
650.0 133 90 87 134 157 261 407 551 769 1097
690.0 1557 1786 2156 2199 2395 2005 1880 5393 1849 1304
730.0 2109 1853 1406 1316 929 696 441 319 203 170
770.0 171 207 256 291 303 325 384 608 758 827
810.0 304 279 356 332 342 287 163 100 81 60
850.0 58 40 34 30 32 31 28 34 27 34
890.0 30 34 26 31 26 32 28 33 33 32
930.0 39 34 38 33 39 37 44 54 74 112
970.0 173 239 282 281 264 257 285 295 291 246
1010.0 170 132 120 91 111 120 133 131 156 194
1050.0 275 348 395 389 384 357 315 347 363 293
1090.0 190 112 81 63 74 88 133 186 260 313
1130.0 355 401 453 515 549 531 464 439 466 443
1170.0 348 228 146 100 93 106 165 269 457 680
1210.0 851 848 783 892 771 845 906 758 503 285
1250.0 155 99 69 64 54 48 60 61 64 56
1290.0 61 56 68 66 74 65 57 51 68 89
1330.0 95 112 66 87 129 155 186 210 247 329
1370.0 534 903 1659 2716 3921 4689 4765 4507 4364 4291
1410.0 4942 4750 3786 2248 1168 570 314 259 309 408
1450.0 515 601 541 623 645 547 648 682 605 361
1490.0 165 128 77 82 31 14 60 76 71 216
1530.0 307 521 827 1346 2320 3847 6104 8303 10000 9220
1570.0 8564 9958 9987 6382 3615 2083 1285 791 559 354
1610.0 323 292 241 241 148 151 78 64 80 86
1650.0 42 70 117 132 133 124 111 150 102 79
1690.0 109 105 42 41 53 81 48 4 66 98
1730.0 80 53 125 151 144 128 170 170 177 203
1770.0 172 155 157 127 116 102 82 78 50 79
1810.0 73 77 90 85 78 64 78 80 57 30
1850.0 47 56 54 52 30 10 45 53 53 52
1890.0 44 51 60 66 68 72 74 81 80 115
1930.0 146 181 226 250 277 290 287 288 312 321
1970.0 303 254 202 164 145 129 118 95 73 58
2010.0 55 46 39 47 53 48 48 44 43 44
2050.0 45 44 42 43 39 48 47 47 48 51
2090.0 52 56 56 60 58 58 65 73 78 80
2130.0 80 73 69 69 70 68 54 48 44 44
2170.0 42 44 49 54 62 72 81 86 91 90
2210.0 94 91 93 89 81 75 66 58 48 43
2250.0 42 42 40 44 49 55 66 73 82 88
2290.0 93 95 101 98 91 82 71 64 60 63
2330.0 49 46 48 41 39 60 31 51 34 32
2370.0 41 57 56 57 56 56 53 52 54 48
2410.0 37 34 29 27 29 26 27 28 27 27
2450.0 26 26 23 23 21 23 22 23 24 26
2490.0 25 25 26 26 28 32 40 47 53 63
2530.0 68 76 85 96 105 105 91 81 82 67
2570.0 51 45 40 45 46 52 55 58 64 68
2610.0 70 66 66 67 64 60 49 42 35 31
2650.0 24 20 19 18 17 20 18 17 20 21
2690.0 23 27 25 25 22 23 20 18 17 11
2730.0 8 6 7 7 5 3 3 4 5 4
2770.0 5 4 3 4 6 8 8 14 19 20
2810.0 21 22 20 21 21 20 23 21 20 20
2850.0 22 25 24 25 26 26 27 31 26 24
2890.0 28 41 60 86 117 144 168 176 184 187
2930.0 186 172 138 119 113 113 118 132 139 137
2970.0 128 133 143 168 190 218 252 288 354 443
3010.0 547 620 736 947 1259 1717 2144 2384 2441 2422
3050.0 2485 2675 2648 2503 2236 1913 1657 1409 1157 959
3090.0 888 885 918 871 704 485 352 278 267 258
3130.0 270 275 302 261 205 198 171 118 73 44
3170.0 30 21 16 16 13 13 11 11 7 9
3210.0 10 11 10 7 6 10 7 9 7 11
3250.0 7 7 6 8 6 8 8 9 7 7
3290.0 8 9 8 7 9 7 6 7 6 6
3330.0 10 11 11 13 6 4 8 8 11 14
3370.0 10 13 10 10 16 16 16 14 16 15
3410.0 18 13 13 16 14 19 15 9 10 20
3450.0 18 14 17 17 15 16 13 15 10 7
3490.0 8 15 13 6 6 13 8 13 14 7
3530.0 9 14 15 11 13 13 9 8 11 7
3570.0 9 11 7 10 9 15 7 6 6 9
3610.0 9 7 8 6 9 10 6 15 2 14
3650.0 9 9 20 13 21 15 23 20 21 23
3690.0 18 18 17 19 16 14 6 15 9 13
3730.0 20 21 17 29 24 37 33 30 26 26
3770.0 20 23 25 22 19 15 14 2 19 15
3810.0 16 9 17 16 6 7 16 15 13 15
3850.0 14 18 7 14 15 2 8 9 3 6
3890.0 16 10 5 3 14 10 3 9 10 0
3930.0 9 8 15 8 7 5 14 7 4 10
##END=
