##TITLE=Phenol, 2-(phenylmethyl)-
##JCAMP-DX=4.24
##DATA TYPE=INFRARED SPECTRUM
##ORIGIN=Sadtler Research Labs Under US-EPA Contract
##OWNER=NIST Standard Reference Data Program
##CAS REGISTRY NO=28994-41-4
##MOLFORM=C 13 H 12 O
##XUNITS=1/CM
##YUNITS=ABSORBANCE
##XFACTOR=1.0
##YFACTOR=0.000044092
##DELTAX=4.0
##FIRSTX=450.0
##LASTX=3966.0
##FIRSTY=0.019665
##MAXX=3966
##MINX=450
##MAXY=0.44092
##MINY=0
##NPOINTS=880
##XYDATA=(X++(Y..Y))
450.0 446 487 371 504 450 463 486 292 155 101
490.0 18 28 51 121 112 179 277 452 615 1021
530.0 1192 1304 1129 835 427 300 231 198 211 211
570.0 286 416 433 472 430 318 313 348 432 571
610.0 796 882 857 767 621 398 260 140 55 82
650.0 91 134 133 281 309 622 789 918 1344 1910
690.0 2918 3691 4271 4091 3747 3524 4084 4989 5962 6491
730.0 6275 5954 6181 7623 9468 10000 8132 5467 3085 1746
770.0 1262 1172 1155 1099 964 801 618 479 380 326
810.0 284 261 217 175 138 168 253 386 572 758
850.0 890 943 906 782 606 462 348 286 273 318
890.0 394 438 416 345 295 285 298 387 521 669
930.0 737 694 540 358 218 135 104 62 49 36
970.0 37 31 34 49 33 54 72 117 140 189
1010.0 199 240 376 716 1310 1811 2049 1858 1395 998
1050.0 661 535 547 637 800 983 1214 1541 1996 2468
1090.0 2778 2796 2465 1903 1352 950 696 555 507 522
1130.0 623 819 1163 1662 2278 2798 3165 3469 3767 4072
1170.0 4259 4241 4115 4169 4499 5002 5580 6234 6888 7437
1210.0 7514 6899 5651 4163 2998 2392 2258 2494 3079 3994
1250.0 4928 5488 5449 4789 3854 2977 2283 1774 1430 1208
1290.0 1084 1022 1054 1207 1525 2019 2671 3326 3659 3561
1330.0 2995 2167 1428 901 572 404 310 264 233 223
1370.0 235 275 290 290 287 285 272 280 259 272
1410.0 289 317 441 513 659 861 1208 1660 2334 3209
1450.0 4299 4990 5161 4671 3883 3253 3128 3517 4436 5586
1490.0 6908 7964 7882 7049 5241 3418 2211 1220 788 499
1530.0 439 376 406 418 415 415 485 619 727 880
1570.0 1171 1564 2123 2761 3216 3514 3495 3430 3310 3149
1610.0 2780 2174 1626 1116 757 477 375 307 258 261
1650.0 289 297 283 240 271 299 347 333 389 364
1690.0 306 263 308 294 277 259 285 341 326 329
1730.0 362 413 359 331 316 323 323 346 409 447
1770.0 522 543 542 533 512 500 530 522 494 405
1810.0 335 287 239 216 176 161 135 129 142 178
1850.0 189 223 245 267 284 293 277 274 292 330
1890.0 373 399 383 345 294 262 260 294 353 400
1930.0 428 419 391 372 360 330 299 241 186 129
1970.0 89 72 67 61 55 52 41 33 30 30
2010.0 30 37 40 46 55 65 70 69 63 55
2050.0 51 49 49 55 54 52 51 42 45 41
2090.0 43 47 51 50 54 49 45 43 31 25
2130.0 23 19 17 16 19 12 14 9 17 11
2170.0 10 12 15 11 13 8 2 7 14 17
2210.0 16 13 20 18 23 25 28 29 36 49
2250.0 50 51 49 55 45 40 40 38 28 30
2290.0 25 30 39 53 60 81 94 91 83 80
2330.0 71 84 93 82 142 91 82 52 82 114
2370.0 129 138 143 109 84 69 69 66 73 81
2410.0 91 98 97 102 92 98 93 91 100 93
2450.0 107 107 114 119 115 115 105 94 102 97
2490.0 104 100 95 96 96 90 81 80 87 77
2530.0 77 69 60 46 47 39 36 36 36 34
2570.0 37 40 36 46 47 49 47 51 54 74
2610.0 57 52 54 57 60 62 75 71 73 69
2650.0 66 56 48 43 39 31 27 28 23 21
2690.0 16 13 20 23 28 21 21 24 24 18
2730.0 31 34 41 35 43 42 41 56 65 70
2770.0 75 85 82 81 83 79 74 66 63 65
2810.0 74 87 95 108 138 168 243 341 460 588
2850.0 695 721 695 626 555 502 475 472 508 549
2890.0 619 716 817 971 1143 1334 1535 1704 1818 1861
2930.0 1768 1575 1321 1072 850 691 567 478 408 352
2970.0 305 279 264 254 261 289 344 443 598 823
3010.0 1109 1526 2107 2927 3969 5047 5740 5744 5084 4182
3050.0 3471 3181 3354 3992 5182 6346 6675 6087 4877 3933
3090.0 3372 2845 2314 1806 1452 1195 958 733 538 381
3130.0 254 201 165 137 116 119 106 122 121 124
3170.0 124 102 89 72 58 57 42 41 33 45
3210.0 41 46 47 26 27 37 34 34 30 29
3250.0 32 19 23 32 23 33 30 27 20 31
3290.0 26 20 27 42 34 15 26 34 43 54
3330.0 40 54 54 55 53 57 58 69 63 59
3370.0 62 63 64 66 65 75 88 74 77 57
3410.0 72 62 33 49 53 49 47 56 40 23
3450.0 36 36 36 26 19 9 24 22 28 18
3490.0 23 40 38 38 18 61 70 91 113 109
3530.0 164 206 273 377 523 736 974 1134 1258 1290
3570.0 1281 1355 1511 1985 2768 3800 4779 5081 4757 3890
3610.0 2966 2153 1663 1318 1168 1150 1356 1820 2587 3626
3650.0 4369 4291 3585 2326 1244 645 304 192 123 115
3690.0 60 51 13 2 2 2 2 2 2 2
3730.0 2 2 2 2 2 2 2 2 2 2
3770.0 2 2 2 2 2 2 2 2 2 2
3810.0 2 2 2 2 2 2 2 2 0 18
3850.0 5 2 21 2 2 22 14 42 2 2
3890.0 2 3 2 2 3 41 42 22 2 17
3930.0 28 2 2 2 2 2 2 2 2 2
##END=
