##TITLE=Cyclooctane, 1,2-5,6-diepoxy-,
##JCAMP-DX=4.24
##DATA TYPE=INFRARED SPECTRUM
##ORIGIN=Sadtler Research Labs Under US-EPA Contract
##OWNER=NIST Standard Reference Data Program
##CAS REGISTRY NO=29077-85-8
##MOLFORM=C 8 H 12 O 2
##XUNITS=1/CM
##YUNITS=ABSORBANCE
##XFACTOR=1.0
##YFACTOR=0.000087646
##DELTAX=4.0
##FIRSTX=450.0
##LASTX=3966.0
##FIRSTY=0.147246
##MAXX=3966
##MINX=450
##MAXY=0.87646
##MINY=0
##NPOINTS=880
##XYDATA=(X++(Y..Y))
450.0 1680 1591 1592 1444 1196 846 600 409 300 177
490.0 166 232 188 313 289 274 349 250 312 252
530.0 87 118 5 94 121 5 69 141 214 336
570.0 231 330 175 207 135 60 128 112 188 225
610.0 286 416 360 517 377 315 341 127 308 193
650.0 124 273 144 305 371 480 631 515 762 713
690.0 549 583 505 467 504 468 570 512 752 816
730.0 870 1032 1132 1211 1143 1247 1326 1331 1532 1641
770.0 1819 2039 1769 1886 1648 1365 1214 777 655 570
810.0 458 534 452 559 666 762 813 820 860 778
850.0 827 926 1098 1638 2028 2351 2690 2693 2677 2266
890.0 1946 1837 1756 2172 2525 3254 4107 4179 4512 3882
930.0 3073 2741 2431 2318 2060 1829 1551 1068 791 609
970.0 573 590 594 681 663 702 703 620 680 650
1010.0 734 887 939 1062 1070 1098 1067 948 1032 1069
1050.0 1104 1192 1213 1244 1200 1261 1252 1241 1235 1085
1090.0 1029 954 847 827 714 791 747 690 797 774
1130.0 763 799 776 796 703 660 598 506 465 414
1170.0 414 404 375 424 403 485 530 493 502 410
1210.0 420 349 332 352 331 381 422 454 515 411
1250.0 422 362 313 373 310 390 420 462 528 510
1290.0 580 553 524 509 399 413 410 380 390 376
1330.0 398 359 385 384 346 389 364 370 423 409
1370.0 518 623 710 822 843 923 900 786 729 619
1410.0 575 546 618 811 1035 1409 1751 2138 2370 2637
1450.0 2823 2806 3001 2851 2603 2445 2255 2134 1947 1741
1490.0 1668 1219 950 727 572 489 344 333 368 282
1530.0 272 251 248 347 234 214 200 239 205 150
1570.0 183 161 197 158 141 162 124 164 156 132
1610.0 158 134 190 178 166 183 184 209 185 179
1650.0 186 245 131 121 86 141 121 126 135 167
1690.0 128 92 146 161 105 112 114 187 147 120
1730.0 167 169 160 151 110 150 98 102 105 68
1770.0 121 113 77 106 87 105 116 101 103 72
1810.0 77 48 74 54 71 94 65 91 86 95
1850.0 90 53 70 59 42 85 44 60 60 50
1890.0 89 53 66 65 59 70 44 62 60 46
1930.0 60 46 68 59 65 75 63 60 50 47
1970.0 59 26 41 36 41 63 47 64 61 48
2010.0 64 43 46 46 28 37 31 44 45 49
2050.0 58 62 70 57 57 63 53 70 48 48
2090.0 65 52 73 67 71 87 62 78 61 45
2130.0 64 46 61 52 48 60 63 67 72 62
2170.0 68 58 67 61 65 59 60 68 59 79
2210.0 86 72 101 85 84 88 68 81 69 62
2250.0 74 55 72 74 78 90 72 79 68 60
2290.0 57 43 48 43 56 56 60 84 61 107
2330.0 84 76 83 44 69 45 7 85 57 126
2370.0 143 100 108 75 56 51 36 35 26 27
2410.0 30 25 40 34 40 46 44 38 30 34
2450.0 27 18 24 7 18 29 29 48 33 42
2490.0 38 29 36 19 15 27 5 36 35 39
2530.0 32 31 43 35 40 26 25 27 17 23
2570.0 17 31 34 20 50 36 37 51 22 46
2610.0 38 22 26 27 37 49 50 65 67 78
2650.0 92 82 84 83 85 74 85 79 104 121
2690.0 128 158 171 187 212 201 214 207 176 186
2730.0 168 173 195 198 212 220 227 255 266 263
2770.0 278 294 325 339 364 384 400 406 387 392
2810.0 383 428 454 489 552 571 666 801 992 1247
2850.0 1458 1638 1672 1605 1558 1537 1625 1862 2210 2635
2890.0 3096 3631 4093 4572 5158 5888 6035 6336 6772 7065
2930.0 7364 7718 7873 8151 8533 9025 9625 9794 9954 10000
2970.0 9612 9302 8585 7894 6830 5651 4832 4236 3605 2810
3010.0 2314 1899 1504 1219 933 733 600 435 358 279
3050.0 247 233 228 246 278 281 303 252 207 187
3090.0 138 146 133 113 120 113 106 120 111 100
3130.0 81 68 74 62 36 50 44 39 84 63
3170.0 71 85 63 81 66 53 63 33 42 41
3210.0 23 49 49 63 74 58 64 60 51 55
3250.0 43 26 27 43 50 73 63 66 75 56
3290.0 75 76 33 51 25 34 37 20 50 54
3330.0 54 83 61 63 46 54 48 40 36 25
3370.0 42 40 51 52 64 81 56 39 62 30
3410.0 42 29 30 53 26 51 65 53 90 69
3450.0 55 71 42 46 38 18 34 40 57 52
3490.0 73 65 68 82 63 58 43 40 47 42
3530.0 64 34 43 75 65 95 81 65 83 64
3570.0 75 56 33 53 44 90 85 78 102 104
3610.0 128 118 108 94 62 116 79 71 104 127
3650.0 209 183 183 174 131 164 125 104 85 66
3690.0 103 110 80 110 113 136 161 128 139 148
3730.0 115 146 133 122 135 140 132 120 99 119
3770.0 118 87 91 84 67 63 48 78 113 88
3810.0 104 106 134 164 126 132 134 126 117 85
3850.0 84 129 119 135 149 166 152 131 131 107
3890.0 97 60 65 72 68 75 86 121 145 128
3930.0 147 132 120 109 67 64 0 5 5 5
##END=
