##TITLE=Hydrocinnamic acid, .alpha.-isopropyl-O-methyl-,
##JCAMP-DX=4.24
##DATA TYPE=INFRARED SPECTRUM
##ORIGIN=Sadtler Research Labs Under US-EPA Contract
##OWNER=NIST Standard Reference Data Program
##CAS REGISTRY NO=29107-36-6
##MOLFORM=C 13 H 18 O 2
##XUNITS=1/CM
##YUNITS=ABSORBANCE
##XFACTOR=1.0
##YFACTOR=0.000073865
##DELTAX=4.0
##FIRSTX=450.0
##LASTX=3966.0
##FIRSTY=0.007386
##MAXX=3966
##MINX=450
##MAXY=0.73865
##MINY=0
##NPOINTS=880
##XYDATA=(X++(Y..Y))
450.0 100 141 225 253 191 188 250 240 219 212
490.0 190 123 138 137 169 225 295 356 435 531
530.0 597 636 695 747 786 866 975 1079 1236 1401
570.0 1661 1845 1956 2004 2025 2109 2135 2018 1633 1296
610.0 1044 914 742 681 631 641 698 721 717 650
650.0 552 421 323 237 196 184 169 174 174 185
690.0 181 193 230 257 317 413 552 739 908 1077
730.0 1382 1850 2293 2536 2197 1704 1220 884 626 427
770.0 291 231 210 213 199 194 216 232 281 328
810.0 326 285 207 139 91 54 23 21 2 2
850.0 12 24 13 30 44 40 38 24 13 4
890.0 2 9 8 13 15 19 47 64 101 120
930.0 152 146 143 138 141 142 153 181 205 237
970.0 257 242 217 190 175 171 162 164 159 168
1010.0 186 210 244 271 306 342 380 431 488 588
1050.0 713 792 816 791 808 897 1072 1332 1684 2128
1090.0 2691 3349 4108 4821 5198 5059 4590 4128 3747 3493
1130.0 3282 3137 2995 2779 2520 2296 2109 1948 1805 1636
1170.0 1475 1351 1251 1137 1019 929 884 845 782 698
1210.0 610 545 507 471 442 399 371 366 382 417
1250.0 453 472 475 467 468 471 479 491 505 525
1290.0 543 559 571 554 538 535 521 526 540 554
1330.0 568 565 561 544 521 497 479 481 522 630
1370.0 814 1041 1200 1264 1301 1341 1315 1160 898 641
1410.0 462 362 331 306 307 325 370 432 540 671
1450.0 826 975 1119 1204 1268 1284 1220 1088 960 949
1490.0 1043 1091 970 709 451 307 254 213 176 118
1530.0 90 75 68 59 61 46 48 47 43 44
1570.0 45 63 80 113 125 153 175 214 238 244
1610.0 204 144 95 67 55 42 42 41 43 37
1650.0 51 51 51 61 71 88 99 124 137 171
1690.0 199 240 284 340 394 463 572 701 834 908
1730.0 991 1058 1176 1356 1722 2395 3692 5788 8227 10000
1770.0 9643 7452 4868 3051 2043 1563 1283 1096 912 763
1810.0 619 519 437 392 354 316 275 221 184 147
1850.0 117 94 85 75 76 76 74 68 68 65
1890.0 68 83 97 117 127 120 99 74 63 54
1930.0 61 81 105 111 95 69 48 32 21 22
1970.0 17 18 14 18 15 22 15 16 12 10
2010.0 14 10 14 9 6 4 4 3 1 2
2050.0 4 1 2 4 1 2 1 3 0 4
2090.0 5 3 2 2 2 4 3 4 4 4
2130.0 0 1 0 1 1 3 1 3 0 2
2170.0 3 2 3 4 7 13 15 18 18 20
2210.0 23 21 17 15 15 15 13 14 14 13
2250.0 8 8 8 5 2 2 3 3 11 9
2290.0 13 16 22 28 29 31 27 27 29 25
2330.0 20 13 17 40 38 41 36 28 36 32
2370.0 44 50 48 51 37 22 19 13 17 17
2410.0 16 20 17 17 20 16 21 20 21 19
2450.0 18 20 20 19 15 15 17 15 13 16
2490.0 14 21 16 16 14 13 18 15 15 14
2530.0 12 14 14 17 15 17 18 21 24 22
2570.0 25 28 31 30 37 31 29 33 37 37
2610.0 37 33 36 36 37 36 38 38 37 36
2650.0 37 31 35 28 32 33 29 30 29 29
2690.0 31 31 31 36 40 39 44 48 52 58
2730.0 76 86 98 110 123 120 110 102 98 94
2770.0 94 98 102 101 104 100 106 101 104 107
2810.0 117 128 143 157 175 191 209 234 256 289
2850.0 327 387 468 560 691 860 1087 1380 1664 1829
2890.0 1829 1695 1557 1486 1513 1600 1677 1738 1805 1933
2930.0 2165 2444 2717 2871 2876 2763 2680 2842 3482 4599
2970.0 5477 5551 4762 3681 2740 1958 1408 1080 900 825
3010.0 850 984 1200 1424 1529 1452 1244 1016 860 799
3050.0 830 906 1009 1149 1313 1431 1427 1278 1029 775
3090.0 565 439 376 355 340 313 264 216 187 164
3130.0 141 141 137 127 131 138 130 125 120 116
3170.0 102 98 93 97 95 89 91 85 84 86
3210.0 71 71 65 60 60 57 52 54 49 47
3250.0 50 46 42 43 40 46 40 49 45 47
3290.0 41 46 53 42 50 42 57 48 48 51
3330.0 53 58 55 56 46 55 61 59 55 58
3370.0 63 57 61 55 47 56 60 56 53 61
3410.0 59 55 54 61 57 54 60 57 55 48
3450.0 46 51 49 56 55 48 58 58 54 58
3490.0 74 68 73 85 98 116 128 118 119 82
3530.0 85 105 115 142 181 313 694 1482 2595 3475
3570.0 3571 2846 1754 922 416 209 158 106 104 87
3610.0 63 47 44 47 43 16 45 54 48 45
3650.0 1 37 53 64 46 22 13 20 32 49
3690.0 18 38 53 50 42 38 33 44 35 29
3730.0 46 26 28 26 26 1 33 32 42 50
3770.0 33 44 43 61 60 57 67 52 29 58
3810.0 41 60 22 46 55 70 69 49 45 63
3850.0 67 20 46 46 36 46 30 65 45 54
3890.0 68 76 69 61 52 75 71 66 66 64
3930.0 47 35 73 51 48 40 64 73 77 69
##END=
