##TITLE=Chloroacetic acid allyl ester
##JCAMP-DX=4.24
##DATA TYPE=INFRARED SPECTRUM
##ORIGIN=Sadtler Research Labs Under US-EPA Contract
##OWNER=NIST Standard Reference Data Program
##CAS REGISTRY NO=2916-14-5
##MOLFORM=C 5 H 7 Cl O 2
##XUNITS=1/CM
##YUNITS=ABSORBANCE
##XFACTOR=1.0
##YFACTOR=0.000101456
##DELTAX=4.0
##FIRSTX=450.0
##LASTX=3966.0
##FIRSTY=0.013899
##MAXX=3966
##MINX=450
##MAXY=1.01456
##MINY=0
##NPOINTS=880
##XYDATA=(X++(Y..Y))
450.0 137 149 159 81 86 98 72 59 79 44
490.0 48 38 85 17 17 57 77 110 66 110
530.0 132 193 228 348 308 352 370 391 442 510
570.0 540 542 553 568 528 556 642 482 455 479
610.0 482 486 478 467 469 449 487 455 461 409
650.0 439 449 438 452 448 465 452 467 476 516
690.0 580 642 698 721 709 697 617 594 556 482
730.0 412 402 343 335 341 323 320 344 374 403
770.0 446 542 636 762 901 1074 1233 1342 1300 1157
810.0 918 634 450 345 283 240 227 212 193 204
850.0 200 217 231 249 270 287 318 344 357 375
890.0 416 468 532 633 778 957 1199 1504 1857 2289
930.0 2760 2941 2882 2578 2055 1595 1306 1191 1193 1287
970.0 1492 1842 2417 3335 4471 5387 6154 6443 6147 5468
1010.0 4680 3756 2823 2031 1487 1170 980 833 733 655
1050.0 576 509 460 426 419 430 464 515 597 684
1090.0 805 940 1103 1284 1460 1703 2069 2547 3145 3770
1130.0 4448 5058 5436 5680 5842 6133 6611 7364 8147 8623
1170.0 8564 7770 6461 4939 3772 3047 2650 2433 2301 2249
1210.0 2227 2256 2338 2498 2743 3131 3691 4467 5418 6340
1250.0 6956 7037 6540 5735 5103 4949 5446 6464 7556 8275
1290.0 8486 8315 7640 6853 5909 4741 3553 2424 1623 1205
1330.0 998 868 798 779 801 848 947 1084 1193 1208
1370.0 1134 992 819 706 632 582 536 518 531 587
1410.0 685 868 1121 1410 1633 1678 1566 1376 1138 1021
1450.0 1013 1018 995 894 740 599 475 373 294 242
1490.0 208 180 163 136 124 107 93 94 85 84
1530.0 81 77 78 81 76 69 69 78 76 62
1570.0 67 65 73 70 71 73 76 86 86 88
1610.0 86 94 99 110 114 134 158 209 260 321
1650.0 359 364 332 269 215 167 150 133 138 158
1690.0 169 197 238 306 356 440 516 652 795 986
1730.0 1262 1679 2354 3247 4662 6097 7734 8762 9690 10000
1770.0 9645 8797 7724 6859 6053 5436 4716 3918 3108 2386
1810.0 1780 1377 1140 953 768 624 500 422 364 326
1850.0 308 285 284 283 292 276 263 238 212 170
1890.0 139 126 107 102 90 92 82 76 75 69
1930.0 65 63 60 58 61 55 59 60 71 70
1970.0 75 80 75 79 77 81 75 71 71 67
2010.0 58 59 62 63 64 66 67 62 64 52
2050.0 45 48 54 60 55 60 49 45 40 34
2090.0 34 34 35 31 30 34 34 39 33 29
2130.0 38 32 35 37 34 35 31 31 28 30
2170.0 32 27 19 26 22 12 16 20 16 16
2210.0 18 19 16 17 17 9 13 13 10 8
2250.0 9 13 11 12 19 18 20 22 20 24
2290.0 22 20 19 17 11 7 3 1 2 5
2330.0 0 9 31 33 50 34 0 0 12 64
2370.0 98 107 93 69 44 26 17 22 16 19
2410.0 14 20 15 27 21 32 26 22 30 31
2450.0 26 31 32 28 26 32 33 26 27 29
2490.0 40 24 21 23 28 28 32 33 30 30
2530.0 31 33 33 29 21 30 27 28 23 19
2570.0 28 32 33 26 35 33 37 20 21 27
2610.0 28 30 19 21 18 16 18 26 24 29
2650.0 34 30 21 13 10 19 22 34 44 42
2690.0 46 41 45 40 46 36 40 44 44 43
2730.0 43 48 46 49 50 53 44 48 40 38
2770.0 46 51 55 48 50 62 39 55 54 61
2810.0 60 87 87 91 109 114 116 106 111 128
2850.0 132 144 164 167 186 206 230 264 297 337
2890.0 368 401 413 405 392 375 355 351 348 380
2930.0 429 501 575 698 861 1025 1217 1404 1474 1478
2970.0 1389 1224 1082 973 897 877 845 824 794 726
3010.0 641 589 551 563 545 545 520 462 372 303
3050.0 263 259 241 223 247 288 308 361 420 491
3090.0 581 688 746 752 707 565 427 303 211 149
3130.0 126 110 92 71 68 59 58 52 54 41
3170.0 57 43 49 32 46 43 45 41 50 33
3210.0 26 34 34 30 26 29 47 24 31 35
3250.0 38 35 30 34 32 33 33 31 21 21
3290.0 29 19 30 31 32 27 14 14 17 17
3330.0 0 18 16 41 38 34 14 17 16 5
3370.0 13 9 28 13 30 28 10 22 25 20
3410.0 23 23 17 23 36 38 15 30 10 25
3450.0 43 39 28 32 25 43 44 40 55 59
3490.0 71 73 105 115 83 83 103 99 86 77
3530.0 83 88 87 93 100 95 95 100 143 171
3570.0 271 317 311 305 294 311 257 149 95 63
3610.0 44 52 56 32 36 34 45 42 61 73
3650.0 74 66 68 60 48 44 77 60 56 47
3690.0 70 54 42 35 47 29 59 26 39 49
3730.0 55 28 47 58 44 44 70 62 60 43
3770.0 47 75 55 47 53 48 62 66 71 35
3810.0 68 63 45 37 68 51 48 59 63 51
3850.0 54 61 115 72 75 71 62 54 55 69
3890.0 21 47 70 85 46 77 60 34 58 78
3930.0 57 23 47 81 66 60 63 34 59 63
##END=
