##TITLE=Nonanedioic acid, dibutyl ester
##JCAMP-DX=4.24
##DATA TYPE=INFRARED SPECTRUM
##ORIGIN=Sadtler Research Labs Under US-EPA Contract
##OWNER=NIST Standard Reference Data Program
##CAS REGISTRY NO=2917-73-9
##MOLFORM=C 17 H 32 O 4
##XUNITS=1/CM
##YUNITS=ABSORBANCE
##XFACTOR=1.0
##YFACTOR=0.000091257
##DELTAX=4.0
##FIRSTX=450.0
##LASTX=3966.0
##FIRSTY=0.001551
##MAXX=3966
##MINX=450
##MAXY=0.91257
##MINY=0
##NPOINTS=880
##XYDATA=(X++(Y..Y))
450.0 17 254 293 366 0 293 19 272 111 214
490.0 172 205 328 106 78 207 307 304 160 83
530.0 348 124 132 92 145 84 131 319 189 140
570.0 147 211 138 121 136 195 254 89 139 306
610.0 215 221 200 220 198 246 214 177 122 201
650.0 139 175 128 150 260 146 188 155 110 182
690.0 166 227 149 144 153 123 228 250 373 306
730.0 219 334 428 296 76 305 258 234 296 255
770.0 259 285 304 259 217 197 260 326 290 248
810.0 311 355 264 355 330 393 438 419 325 336
850.0 303 266 291 224 291 316 272 364 341 322
890.0 414 290 369 397 407 351 338 307 403 300
930.0 356 406 417 532 661 678 738 778 743 824
970.0 834 809 778 727 738 788 757 836 968 1021
1010.0 1149 1236 1273 1308 1302 1203 1075 1021 916 917
1050.0 968 1096 1298 1514 1715 1816 1935 1985 2012 2080
1090.0 2044 1944 1786 1719 1605 1602 1739 1967 2114 2384
1130.0 2646 3117 3493 3993 4341 4838 5268 5556 5836 6088
1170.0 5985 6134 5739 5421 5025 4734 4393 4177 3928 3680
1210.0 3585 3562 3697 3702 3740 3846 3913 4118 4128 3964
1250.0 3768 3575 3262 2985 2682 2496 2329 2220 2053 1951
1290.0 1809 1780 1741 1686 1651 1651 1591 1534 1504 1450
1330.0 1455 1487 1552 1614 1722 1798 1791 1729 1604 1428
1370.0 1267 1133 1064 1051 1113 1161 1058 897 726 622
1410.0 580 561 604 662 756 875 942 993 1011 1046
1450.0 1145 1250 1377 1485 1444 1310 1106 896 708 564
1490.0 460 388 317 284 250 199 238 202 194 202
1530.0 201 190 185 150 187 188 170 134 119 173
1570.0 143 160 158 143 213 176 167 191 153 183
1610.0 177 163 145 152 173 165 177 168 172 203
1650.0 166 209 208 234 234 225 247 264 280 290
1690.0 348 402 455 542 699 829 986 1166 1400 1770
1730.0 2166 2770 3842 5290 7427 9545 10000 8867 6566 4441
1770.0 3064 2166 1672 1317 1029 849 673 572 527 453
1810.0 443 399 337 295 239 211 189 170 166 138
1850.0 150 134 139 135 126 133 124 124 124 116
1890.0 115 116 109 116 107 112 114 115 114 114
1930.0 119 111 115 111 105 114 116 113 113 115
1970.0 120 121 119 120 118 117 114 116 114 104
2010.0 109 114 107 116 115 119 121 117 118 115
2050.0 111 106 106 106 105 102 99 97 104 98
2090.0 99 99 93 99 92 87 85 82 83 84
2130.0 83 76 83 83 81 83 84 76 79 78
2170.0 74 76 74 76 76 77 76 78 76 76
2210.0 74 73 66 70 67 67 72 69 67 70
2250.0 72 74 73 73 73 70 73 72 72 77
2290.0 78 83 84 94 103 105 104 97 99 91
2330.0 95 88 76 57 79 89 113 99 128 105
2370.0 102 97 78 80 73 66 63 61 56 62
2410.0 70 65 68 72 61 62 62 57 58 55
2450.0 45 51 46 50 54 54 56 53 56 51
2490.0 47 50 46 45 45 41 43 47 50 51
2530.0 52 58 56 54 56 51 48 47 51 52
2570.0 56 62 63 68 71 70 74 75 74 69
2610.0 73 73 76 73 76 77 87 92 92 90
2650.0 85 87 95 92 104 96 108 102 110 113
2690.0 116 127 126 124 122 118 121 115 122 122
2730.0 120 129 135 146 148 163 170 168 164 163
2770.0 161 163 161 157 175 184 197 209 226 243
2810.0 259 283 301 327 363 395 434 502 580 711
2850.0 897 1171 1534 1936 2268 2461 2535 2545 2501 2437
2890.0 2307 2164 2101 2183 2366 2657 3083 3529 3996 4491
2930.0 5062 5761 6340 6725 6741 6298 5827 5549 5680 5957
2970.0 6017 5592 4640 3550 2692 2031 1558 1208 947 769
3010.0 642 565 497 434 405 367 343 311 281 258
3050.0 228 213 198 172 162 166 161 163 154 162
3090.0 146 131 130 117 117 104 117 108 101 109
3130.0 112 115 112 112 105 95 96 100 95 92
3170.0 82 83 90 94 98 94 104 104 89 80
3210.0 77 74 67 72 65 71 70 65 78 76
3250.0 72 58 67 64 55 62 53 52 47 58
3290.0 64 62 63 70 68 71 69 60 52 57
3330.0 56 41 61 69 66 69 72 70 72 74
3370.0 68 61 68 58 63 56 71 66 70 76
3410.0 76 72 90 80 72 77 72 70 73 76
3450.0 87 79 89 90 104 121 136 146 153 148
3490.0 144 129 114 106 102 84 83 85 90 86
3530.0 90 76 78 81 74 79 70 82 85 90
3570.0 113 128 129 109 103 100 76 78 67 71
3610.0 72 71 66 73 80 62 81 85 85 66
3650.0 94 56 89 69 78 64 47 77 82 94
3690.0 69 97 81 75 69 51 61 85 58 69
3730.0 58 54 62 57 75 52 92 66 73 50
3770.0 65 63 54 67 77 68 70 60 85 63
3810.0 81 66 76 43 68 47 61 54 66 79
3850.0 77 47 88 89 72 69 91 50 60 53
3890.0 59 61 67 72 99 106 101 111 117 81
3930.0 89 69 66 57 49 85 86 78 86 118
##END=
