##TITLE=Cyclooctane
##JCAMP-DX=4.24
##DATA TYPE=INFRARED SPECTRUM
##ORIGIN=Sadtler Research Labs Under US-EPA Contract
##OWNER=NIST Standard Reference Data Program
##CAS REGISTRY NO=292-64-8
##MOLFORM=C 8 H 16
##XUNITS=1/CM
##YUNITS=ABSORBANCE
##XFACTOR=1.0
##YFACTOR=0.000237045
##DELTAX=4.0
##FIRSTX=450.0
##LASTX=3966.0
##FIRSTY=0.000000
##MAXX=3966
##MINX=450
##MAXY=2.37045
##MINY=0
##NPOINTS=880
##XYDATA=(X++(Y..Y))
450.0 0 62 73 80 54 69 58 64 47 56
490.0 59 75 70 70 63 66 67 79 58 78
530.0 83 77 58 96 49 74 51 60 73 58
570.0 64 60 48 50 69 71 63 54 64 58
610.0 65 83 65 59 64 71 67 66 70 81
650.0 66 65 64 73 71 93 71 76 73 57
690.0 78 80 82 80 82 84 82 85 86 87
730.0 83 83 64 77 108 115 140 177 197 205
770.0 211 195 184 153 132 131 132 123 118 102
810.0 85 80 78 75 73 74 83 84 99 101
850.0 114 124 115 106 106 97 92 85 87 80
890.0 74 70 67 68 67 67 65 65 66 63
930.0 64 71 76 84 95 101 110 107 105 99
970.0 93 86 85 80 76 73 70 69 65 65
1010.0 71 70 77 82 99 113 132 157 163 156
1050.0 143 130 111 93 83 77 72 73 72 72
1090.0 72 76 74 72 72 69 70 73 81 86
1130.0 87 88 86 79 74 67 62 62 59 59
1170.0 59 57 58 58 58 57 59 59 63 67
1210.0 76 85 93 103 109 113 115 112 107 105
1250.0 101 100 103 99 95 93 92 92 97 97
1290.0 102 100 98 92 80 78 74 75 78 84
1330.0 94 105 123 144 167 191 218 223 215 200
1370.0 174 146 119 88 74 69 68 72 72 77
1410.0 78 80 85 102 114 156 257 435 657 808
1450.0 955 993 1020 1046 877 812 746 700 685 501
1490.0 390 319 234 163 121 100 80 79 77 71
1530.0 65 64 69 74 61 60 60 71 70 59
1570.0 60 58 63 59 52 61 59 60 56 59
1610.0 56 54 60 50 56 47 57 53 53 52
1650.0 62 62 62 50 52 53 57 50 53 62
1690.0 51 51 60 62 57 51 52 59 53 48
1730.0 52 56 54 49 49 50 49 47 50 48
1770.0 50 53 48 49 50 50 52 47 51 48
1810.0 49 48 49 44 48 49 45 45 46 50
1850.0 45 45 45 44 45 46 45 44 45 43
1890.0 46 45 45 44 44 46 45 46 46 46
1930.0 46 46 46 46 47 47 48 47 47 46
1970.0 47 45 46 45 44 47 46 44 44 46
2010.0 44 44 46 45 44 43 43 44 44 46
2050.0 49 45 46 45 44 45 46 44 46 44
2090.0 46 46 49 50 51 51 50 52 54 55
2130.0 56 56 55 54 54 53 51 51 49 47
2170.0 47 46 44 44 44 44 44 45 47 49
2210.0 49 48 50 51 51 53 54 56 57 58
2250.0 56 57 55 54 56 55 55 53 53 51
2290.0 54 55 55 55 55 57 58 58 61 59
2330.0 64 66 63 72 72 54 53 49 73 81
2370.0 89 81 72 63 55 55 52 53 56 56
2410.0 56 58 57 57 57 57 60 60 58 57
2450.0 58 60 62 61 59 61 59 60 58 60
2490.0 58 57 56 55 57 56 57 56 57 57
2530.0 56 58 60 62 64 66 66 67 70 73
2570.0 75 77 78 79 76 77 76 77 78 79
2610.0 81 83 82 86 87 88 90 89 92 99
2650.0 102 110 121 130 140 153 170 187 204 218
2690.0 237 256 261 261 253 236 216 196 175 156
2730.0 140 134 130 121 114 112 107 103 106 109
2770.0 112 118 126 139 155 168 191 213 228 246
2810.0 257 267 284 298 309 332 371 469 671 1053
2850.0 1547 2017 2527 2797 2897 2866 2503 2274 2008 1865
2890.0 1935 2142 2459 2931 3977 4974 5819 7957 9508 9575
2930.0 9730 10000 8904 7844 6029 4600 3548 2629 1987 1603
2970.0 1284 955 701 540 424 330 268 225 201 188
3010.0 171 158 153 143 137 132 121 119 113 113
3050.0 112 106 103 101 96 93 93 91 90 84
3090.0 87 88 87 88 87 91 90 91 92 89
3130.0 89 87 88 85 89 84 80 77 78 79
3170.0 79 79 75 75 73 75 77 76 76 77
3210.0 82 81 78 78 79 76 83 78 77 87
3250.0 86 78 77 78 84 78 73 75 74 73
3290.0 71 66 66 61 63 60 61 61 64 62
3330.0 56 62 66 63 68 69 65 76 72 67
3370.0 74 77 79 70 70 80 75 73 72 64
3410.0 75 70 78 67 73 70 64 58 64 62
3450.0 59 64 61 56 65 61 56 57 58 54
3490.0 61 58 52 58 57 56 53 49 61 61
3530.0 45 54 66 57 50 66 75 66 72 64
3570.0 62 58 60 58 57 61 61 67 69 71
3610.0 65 73 75 71 75 71 65 72 69 63
3650.0 73 77 71 76 67 67 78 78 81 72
3690.0 81 66 67 76 84 76 71 69 62 64
3730.0 71 74 82 75 72 67 67 68 68 69
3770.0 61 67 75 70 70 67 65 67 74 81
3810.0 65 79 75 90 65 83 68 80 71 60
3850.0 60 76 69 69 66 77 71 73 82 61
3890.0 55 58 73 68 81 73 73 64 72 66
3930.0 62 65 74 64 65 76 65 91 73 76
##END=
