##TITLE=Malonic acid, bromoethyl-, diethyl ester
##JCAMP-DX=4.24
##DATA TYPE=INFRARED SPECTRUM
##ORIGIN=Sadtler Research Labs Under US-EPA Contract
##OWNER=NIST Standard Reference Data Program
##CAS REGISTRY NO=29237-78-3
##MOLFORM=C 9 H 15 Br O 4
##XUNITS=1/CM
##YUNITS=ABSORBANCE
##XFACTOR=1.0
##YFACTOR=0.000128076
##DELTAX=4.0
##FIRSTX=450.0
##LASTX=3966.0
##FIRSTY=0.031763
##MAXX=3966
##MINX=450
##MAXY=1.28076
##MINY=0
##NPOINTS=880
##XYDATA=(X++(Y..Y))
450.0 248 230 176 75 82 111 206 110 69 137
490.0 97 150 188 175 238 201 160 138 82 93
530.0 117 126 108 65 20 2 71 65 13 40
570.0 10 66 54 90 91 92 75 94 73 102
610.0 72 66 138 102 87 147 178 291 391 413
650.0 483 501 477 412 345 344 312 321 263 254
690.0 300 306 306 252 255 225 188 185 163 148
730.0 139 108 184 179 183 232 290 227 228 199
770.0 208 228 267 280 286 319 312 296 293 313
810.0 321 357 369 416 448 465 510 469 426 440
850.0 505 561 679 748 712 638 495 364 309 320
890.0 334 366 429 489 490 461 419 333 259 218
930.0 203 217 218 239 293 339 418 442 432 395
970.0 379 357 330 307 314 362 394 450 555 708
1010.0 956 1314 1814 2414 3023 3375 3274 2768 2120 1551
1050.0 1184 1013 957 925 917 944 1060 1303 1716 2247
1090.0 2742 3056 3044 2880 2802 2901 3284 3615 3829 3840
1130.0 3584 3076 2472 1867 1428 1170 1036 970 959 970
1170.0 1039 1161 1367 1674 2162 2775 3454 4013 4272 4374
1210.0 4433 4732 5189 5772 6603 7326 8323 9321 9716 10000
1250.0 9011 7621 6162 4721 3665 2866 2327 2029 1923 2024
1290.0 2208 2360 2399 2267 2067 1794 1509 1219 961 812
1330.0 761 774 779 691 572 471 437 455 607 852
1370.0 1037 1079 916 788 790 848 822 739 607 523
1410.0 482 419 438 404 446 513 625 763 855 871
1450.0 843 835 867 917 967 987 941 815 638 502
1490.0 388 293 246 204 203 177 183 149 146 133
1530.0 135 122 130 120 131 122 113 128 103 122
1570.0 108 115 122 101 117 97 92 108 80 102
1610.0 91 94 94 87 113 74 108 95 97 122
1650.0 90 128 113 123 138 128 161 168 185 213
1690.0 242 269 331 375 465 521 648 795 952 1309
1730.0 1780 2503 3617 4525 5669 7302 8309 9211 8069 6217
1770.0 4514 3344 2858 2331 1612 1100 704 532 469 356
1810.0 335 294 245 244 199 189 170 145 150 122
1850.0 127 101 102 108 87 108 90 92 98 87
1890.0 89 88 77 76 65 66 61 58 64 49
1930.0 50 51 50 57 49 52 50 44 49 45
1970.0 44 44 42 40 37 44 41 36 35 31
2010.0 33 32 32 38 28 32 35 36 39 36
2050.0 42 43 42 45 49 49 49 50 55 54
2090.0 58 60 56 58 56 54 54 51 49 45
2130.0 43 42 38 35 33 34 33 30 32 29
2170.0 28 32 28 30 28 30 30 25 28 25
2210.0 28 27 21 22 23 23 22 21 20 17
2250.0 16 18 15 16 14 16 15 15 19 18
2290.0 21 24 29 38 40 44 46 47 53 57
2330.0 57 57 68 54 76 56 80 62 78 62
2370.0 56 58 52 50 40 27 24 21 25 26
2410.0 28 30 31 33 32 32 27 26 27 25
2450.0 20 22 19 22 24 23 25 22 20 16
2490.0 16 15 14 13 13 8 8 6 6 5
2530.0 4 8 6 6 7 6 8 6 5 6
2570.0 7 6 3 4 1 3 4 5 6 7
2610.0 7 11 9 11 10 7 11 7 8 5
2650.0 7 7 8 7 6 6 7 7 9 11
2690.0 11 12 10 14 15 16 17 18 23 29
2730.0 38 39 39 39 42 46 52 55 57 59
2770.0 57 62 64 64 65 62 65 64 69 74
2810.0 75 85 92 102 110 117 122 133 147 163
2850.0 184 220 253 283 313 340 380 450 561 686
2890.0 784 838 821 786 774 793 826 844 845 859
2930.0 935 1087 1323 1642 1899 1959 1776 1501 1368 1433
2970.0 1630 1884 2249 2817 3369 3420 2924 2257 1764 1440
3010.0 1166 937 734 568 448 358 291 245 204 183
3050.0 158 142 132 121 117 114 110 106 101 105
3090.0 100 99 93 84 84 76 76 71 65 64
3130.0 63 61 53 54 56 53 55 55 52 55
3170.0 54 47 43 40 39 40 34 35 27 27
3210.0 26 19 22 27 25 21 16 21 14 13
3250.0 17 19 17 15 14 11 12 14 12 15
3290.0 9 15 11 12 15 18 13 16 15 13
3330.0 14 13 16 12 13 14 17 15 13 15
3370.0 16 20 20 18 12 17 16 20 21 22
3410.0 18 22 25 26 25 29 28 27 27 27
3450.0 37 37 48 46 49 55 49 47 57 58
3490.0 72 69 73 73 69 62 64 58 58 51
3530.0 36 43 40 35 33 34 21 26 23 21
3570.0 25 33 25 24 20 35 19 36 22 34
3610.0 21 16 21 19 27 11 28 33 33 13
3650.0 18 0 42 13 37 16 26 18 22 39
3690.0 5 39 27 40 31 25 29 40 27 35
3730.0 30 28 37 16 16 0 28 23 37 14
3770.0 34 35 31 29 24 38 27 12 24 2
3810.0 40 11 41 21 21 22 15 0 21 20
3850.0 20 11 28 32 3 13 29 14 36 31
3890.0 23 38 5 22 26 49 28 27 36 12
3930.0 18 27 15 10 28 28 24 33 39 32
##END=
