##TITLE=2,5-Hexanediol
##JCAMP-DX=4.24
##DATA TYPE=INFRARED SPECTRUM
##ORIGIN=Sadtler Research Labs Under US-EPA Contract
##OWNER=NIST Standard Reference Data Program
##CAS REGISTRY NO=2935-44-6
##MOLFORM=C 6 H 14 O 2
##XUNITS=1/CM
##YUNITS=ABSORBANCE
##XFACTOR=1.0
##YFACTOR=0.000086429
##DELTAX=4.0
##FIRSTX=450.0
##LASTX=3966.0
##FIRSTY=0.028781
##MAXX=3966
##MINX=450
##MAXY=0.86429
##MINY=0
##NPOINTS=880
##XYDATA=(X++(Y..Y))
450.0 333 281 191 334 204 304 293 441 326 380
490.0 61 182 219 202 191 66 145 145 143 145
530.0 183 167 202 268 233 232 165 218 125 143
570.0 122 178 164 167 149 168 217 196 241 182
610.0 234 182 103 132 127 218 223 200 189 217
650.0 223 236 245 226 253 277 227 211 228 224
690.0 228 232 220 222 189 203 188 203 207 195
730.0 175 199 222 209 225 229 262 253 264 259
770.0 264 242 238 244 243 253 262 296 314 367
810.0 407 469 511 542 553 567 617 604 649 658
850.0 654 657 644 684 686 695 741 803 841 895
890.0 910 928 926 929 947 1014 1154 1343 1609 1919
930.0 2315 2654 2878 2908 2719 2354 1856 1379 1041 886
970.0 820 821 856 934 1035 1138 1291 1489 1754 2055
1010.0 2466 2891 3281 3598 3828 3976 4031 4114 4163 4230
1050.0 4270 4298 4234 4168 4112 4077 4154 4215 4368 4399
1090.0 4515 4467 4412 4094 3725 3539 3335 3311 3113 3129
1130.0 3053 3027 2925 2780 2603 2380 2132 1887 1701 1542
1170.0 1467 1422 1415 1418 1445 1500 1543 1610 1665 1729
1210.0 1791 1872 1945 2046 2187 2358 2563 2743 2917 2982
1250.0 2985 2880 2722 2543 2359 2210 2062 1932 1806 1708
1290.0 1604 1523 1453 1404 1387 1389 1405 1423 1476 1516
1330.0 1569 1615 1675 1768 1882 2018 2183 2369 2597 2951
1370.0 3413 3971 4438 4737 4734 4367 3868 3328 2841 2402
1410.0 2066 1764 1547 1377 1273 1250 1282 1369 1502 1636
1450.0 1760 1830 1824 1697 1518 1302 1062 816 622 497
1490.0 382 325 283 244 229 213 158 168 169 146
1530.0 133 118 151 129 120 98 113 113 138 76
1570.0 97 81 117 68 75 77 75 75 76 79
1610.0 57 86 79 69 63 65 77 74 59 88
1650.0 54 123 77 53 74 87 67 88 58 114
1690.0 58 66 84 89 57 42 53 55 47 38
1730.0 55 46 70 39 48 51 69 60 66 69
1770.0 63 76 52 59 46 57 50 45 42 48
1810.0 38 38 40 32 39 33 39 30 38 34
1850.0 34 40 40 37 40 35 39 41 40 40
1890.0 39 40 39 36 42 41 39 36 30 38
1930.0 40 40 40 39 38 31 33 27 29 19
1970.0 18 21 19 23 18 18 15 17 16 14
2010.0 10 8 6 6 8 9 10 10 15 12
2050.0 15 18 11 8 9 16 22 20 20 16
2090.0 13 7 6 1 4 2 4 5 8 10
2130.0 10 12 15 19 15 13 15 17 16 18
2170.0 18 16 21 21 22 22 21 19 19 22
2210.0 18 18 9 16 11 13 16 15 15 13
2250.0 16 21 19 22 22 22 25 22 25 33
2290.0 35 42 39 47 53 66 66 68 74 68
2330.0 74 50 62 57 37 38 93 77 69 39
2370.0 19 7 17 20 27 40 45 50 54 54
2410.0 49 54 51 46 53 48 51 52 54 55
2450.0 56 57 55 60 60 67 59 64 61 62
2490.0 66 59 65 59 59 60 64 55 56 55
2530.0 56 57 57 59 65 68 72 74 79 82
2570.0 87 83 84 88 94 98 100 106 115 120
2610.0 120 134 138 149 162 183 198 208 217 225
2650.0 241 240 252 258 267 272 278 269 263 258
2690.0 251 243 233 229 223 218 224 228 236 247
2730.0 256 258 266 269 276 274 279 283 291 305
2770.0 310 316 322 342 357 373 399 428 472 513
2810.0 561 618 672 719 794 887 1012 1175 1373 1635
2850.0 1939 2271 2608 2968 3344 3760 4168 4518 4744 4816
2890.0 4751 4587 4452 4414 4608 4978 5484 6063 6630 7203
2930.0 7717 8026 7986 7671 7096 6457 6050 6124 6705 7566
2970.0 8700 9695 10000 9173 7805 5990 4057 2450 1436 909
3010.0 621 479 389 327 273 238 223 190 176 151
3050.0 158 141 133 133 126 121 116 106 108 108
3090.0 113 121 115 107 95 97 96 102 87 80
3130.0 76 74 71 78 64 65 80 77 78 75
3170.0 75 83 89 103 105 104 100 105 105 100
3210.0 101 87 71 63 60 53 44 34 29 33
3250.0 29 10 23 10 15 26 25 29 34 26
3290.0 31 29 27 31 30 24 37 24 17 22
3330.0 33 40 45 43 37 52 49 65 84 70
3370.0 87 82 98 98 101 112 94 100 102 98
3410.0 116 127 140 141 153 158 148 160 157 159
3450.0 171 167 169 162 179 172 177 180 182 187
3490.0 202 202 218 247 269 303 385 481 605 736
3530.0 891 1014 1079 1089 1063 1012 964 860 791 740
3570.0 670 604 567 562 519 540 580 562 566 540
3610.0 522 491 482 501 543 666 763 937 1112 1406
3650.0 1767 1978 2049 1876 1615 1181 815 502 354 223
3690.0 182 150 115 85 80 66 60 34 46 63
3730.0 71 47 1 40 44 28 16 1 1 18
3770.0 0 24 1 3 13 4 21 37 41 32
3810.0 32 38 48 50 31 34 56 44 33 12
3850.0 46 84 27 42 68 72 94 59 47 104
3890.0 59 48 1 38 40 45 33 3 1 1
3930.0 34 30 51 26 1 35 67 18 16 40
##END=
