##TITLE=Cyclododecane
##JCAMP-DX=4.24
##DATA TYPE=INFRARED SPECTRUM
##ORIGIN=Sadtler Research Labs Under US-EPA Contract
##OWNER=NIST Standard Reference Data Program
##CAS REGISTRY NO=294-62-2
##MOLFORM=C 12 H 24
##XUNITS=1/CM
##YUNITS=ABSORBANCE
##XFACTOR=1.0
##YFACTOR=0.000152548
##DELTAX=4.0
##FIRSTX=450.0
##LASTX=3966.0
##FIRSTY=0.000000
##MAXX=3966
##MINX=450
##MAXY=1.52548
##MINY=0
##NPOINTS=880
##XYDATA=(X++(Y..Y))
450.0 0 69 97 92 88 98 107 110 106 99
490.0 117 105 111 123 92 102 106 101 110 108
530.0 82 94 86 83 98 74 85 80 76 72
570.0 85 89 83 84 81 74 79 89 90 82
610.0 78 92 93 96 93 92 88 88 86 97
650.0 97 100 101 99 113 120 115 119 138 155
690.0 169 180 204 214 269 347 446 479 452 389
730.0 287 218 173 150 137 127 125 127 127 125
770.0 120 119 114 120 115 120 121 124 136 140
810.0 159 176 188 174 159 139 124 119 114 115
850.0 107 105 103 106 96 102 99 97 96 98
890.0 99 101 102 95 97 100 103 103 99 103
930.0 104 102 102 101 101 103 103 103 107 109
970.0 108 109 105 111 110 107 111 116 122 138
1010.0 145 163 178 192 207 208 201 192 176 163
1050.0 148 141 134 133 136 140 150 157 159 160
1090.0 158 156 151 145 142 139 133 126 120 121
1130.0 116 117 115 112 109 107 109 107 107 106
1170.0 107 105 108 108 110 108 106 108 105 108
1210.0 113 120 124 130 137 142 155 174 194 198
1250.0 193 179 175 178 186 183 173 164 159 156
1290.0 159 164 175 194 208 214 207 194 174 160
1330.0 162 186 226 285 337 354 340 292 234 192
1370.0 165 143 127 115 107 107 105 108 115 121
1410.0 126 129 131 136 145 163 211 312 505 717
1450.0 847 885 829 779 781 858 871 656 482 339
1490.0 219 169 138 127 117 112 110 109 104 105
1530.0 101 101 97 97 95 96 96 94 95 92
1570.0 94 94 92 92 93 94 93 94 91 93
1610.0 91 92 92 91 90 93 89 90 90 91
1650.0 88 93 93 93 93 92 93 94 92 95
1690.0 96 97 99 103 106 112 119 125 133 135
1730.0 132 130 131 129 126 121 119 116 114 116
1770.0 116 119 124 126 125 125 121 117 111 106
1810.0 101 98 98 92 90 88 89 84 87 84
1850.0 85 86 87 86 85 86 84 82 84 82
1890.0 81 83 85 83 83 82 84 82 81 82
1930.0 82 80 80 80 78 78 78 78 76 78
1970.0 78 81 80 82 83 81 82 81 82 80
2010.0 81 81 80 81 82 81 81 84 83 82
2050.0 81 84 84 85 84 82 82 80 82 81
2090.0 80 80 80 81 79 79 82 80 81 81
2130.0 82 82 80 81 81 83 83 83 81 80
2170.0 82 80 80 80 79 79 78 77 78 79
2210.0 77 78 76 79 76 77 79 79 78 78
2250.0 77 78 77 78 76 77 78 80 79 83
2290.0 81 86 87 90 91 94 92 91 96 91
2330.0 88 87 85 85 90 89 92 87 83 78
2370.0 76 81 83 85 77 72 71 72 70 71
2410.0 69 68 70 71 69 69 69 70 70 70
2450.0 70 69 68 70 68 70 70 70 71 72
2490.0 71 73 72 73 73 75 78 80 83 86
2530.0 87 87 87 87 84 83 85 85 85 85
2570.0 85 88 86 85 88 88 85 86 90 93
2610.0 97 99 102 106 111 111 114 118 121 126
2650.0 134 141 148 158 167 181 186 191 189 186
2690.0 182 176 168 159 155 148 144 138 135 133
2730.0 133 133 134 137 136 137 137 140 145 146
2770.0 148 152 160 166 180 191 207 219 234 249
2810.0 264 280 297 311 318 336 361 425 573 922
2850.0 1590 2431 3099 3509 3676 3588 3480 3108 2656 2203
2890.0 1883 1820 2144 2898 3714 5039 5639 5836 6944 7778
2930.0 9208 10000 9984 9049 7734 6094 4757 3752 2833 2194
2970.0 1716 1390 1164 971 791 627 493 397 340 298
3010.0 268 246 224 204 188 174 162 151 142 132
3050.0 127 123 116 114 107 109 106 102 102 99
3090.0 99 97 96 97 95 95 96 96 94 94
3130.0 93 94 91 95 95 95 96 94 92 91
3170.0 88 85 88 85 83 84 88 92 93 91
3210.0 89 87 87 85 83 85 83 83 80 78
3250.0 76 76 76 75 75 73 75 73 77 75
3290.0 75 75 71 78 75 76 75 76 75 77
3330.0 78 77 76 72 76 71 71 72 70 71
3370.0 69 69 68 72 71 72 71 71 72 70
3410.0 71 71 73 71 73 74 73 72 69 71
3450.0 74 74 75 77 76 76 75 77 71 71
3490.0 72 72 72 74 72 74 74 71 71 72
3530.0 72 71 72 71 72 74 72 76 77 75
3570.0 75 74 73 76 76 76 75 78 75 75
3610.0 76 72 73 73 70 80 73 79 75 75
3650.0 76 72 75 71 73 73 75 73 73 76
3690.0 73 75 77 75 71 74 72 71 71 80
3730.0 75 76 79 77 75 75 74 76 71 76
3770.0 75 72 70 76 75 72 72 71 69 69
3810.0 72 78 70 73 78 78 76 79 76 79
3850.0 75 75 77 70 75 77 77 72 80 81
3890.0 82 80 78 84 83 79 79 82 76 79
3930.0 80 71 76 80 81 84 83 82 89 77
##END=
