##TITLE=Ethanamine, N,N-dimethyl-2-(2-pyridinyloxy)-
##JCAMP-DX=4.24
##DATA TYPE=INFRARED SPECTRUM
##ORIGIN=Sadtler Research Labs Under US-EPA Contract
##OWNER=NIST Standard Reference Data Program
##CAS REGISTRY NO=29450-09-7
##MOLFORM=C 9 H 14 N 2 O
##XUNITS=1/CM
##YUNITS=ABSORBANCE
##XFACTOR=1.0
##YFACTOR=0.000160980
##DELTAX=4.0
##FIRSTX=450.0
##LASTX=3966.0
##FIRSTY=0.000000
##MAXX=3966
##MINX=450
##MAXY=1.6098
##MINY=0
##NPOINTS=880
##XYDATA=(X++(Y..Y))
450.0 0 250 420 320 346 322 329 347 262 328
490.0 312 314 379 420 443 512 565 560 583 495
530.0 490 408 378 370 347 333 317 334 299 315
570.0 307 299 259 315 275 373 372 352 425 433
610.0 475 465 442 397 365 374 397 397 365 350
650.0 339 321 292 282 262 283 286 263 286 293
690.0 293 296 298 297 290 304 312 364 458 625
730.0 766 936 938 832 702 616 617 723 964 1340
770.0 1862 2385 2737 2644 2227 1714 1256 966 810 747
810.0 708 693 672 667 656 622 580 517 492 481
850.0 496 514 543 553 528 512 491 482 471 483
890.0 503 553 595 638 665 674 681 665 653 624
930.0 598 576 580 640 747 894 1013 1052 951 830
970.0 719 691 723 840 995 1117 1217 1277 1419 1756
1010.0 2305 2854 3203 3278 3213 3239 3513 4044 4387 4186
1050.0 3332 2332 1683 1391 1254 1178 1153 1134 1119 1071
1090.0 1028 995 993 948 867 742 608 542 506 537
1130.0 603 950 1308 1418 1353 975 804 768 696 649
1170.0 588 566 564 602 651 715 783 815 798 749
1210.0 715 703 724 768 849 983 1211 1587 2146 2771
1250.0 3267 3620 3912 4390 4879 4917 4678 4956 6907 9978
1290.0 10000 8235 4869 3799 4623 5868 6209 5370 3763 2558
1330.0 1887 1499 1248 1084 962 901 908 985 1033 1007
1370.0 925 836 810 806 830 833 834 812 823 883
1410.0 965 1104 1294 1862 3203 5885 8145 8485 6262 3430
1450.0 2328 2277 2751 3713 4937 6256 7275 7252 5965 4100
1490.0 2360 1585 1336 1151 992 797 663 573 518 495
1530.0 482 492 505 540 601 702 840 1040 1418 1968
1570.0 2664 3089 3231 3131 3302 4213 5368 6329 6318 5496
1610.0 4169 2968 1965 1280 883 692 583 504 457 421
1650.0 376 370 357 342 335 336 325 343 328 347
1690.0 348 368 371 399 428 467 495 476 455 423
1730.0 385 340 326 302 289 281 284 279 275 279
1770.0 270 273 274 277 278 286 288 298 306 323
1810.0 330 335 333 327 325 323 341 339 332 312
1850.0 299 291 288 288 285 279 285 284 288 292
1890.0 301 311 332 347 352 349 335 330 324 337
1930.0 336 333 324 314 311 322 342 339 323 290
1970.0 268 263 258 255 255 252 250 255 257 260
2010.0 266 269 275 282 290 290 295 299 305 309
2050.0 309 316 323 317 311 316 316 322 331 339
2090.0 347 347 339 327 324 316 316 309 303 297
2130.0 290 284 280 276 271 266 262 256 253 253
2170.0 253 250 250 250 252 254 257 262 260 260
2210.0 257 257 256 262 264 268 276 281 284 281
2250.0 277 277 274 270 271 269 276 279 286 291
2290.0 293 287 288 289 290 293 292 298 294 294
2330.0 305 300 298 311 303 292 311 308 313 291
2370.0 288 283 286 281 276 283 283 285 284 286
2410.0 282 284 283 283 284 281 280 276 276 278
2450.0 279 277 279 277 272 275 271 275 277 283
2490.0 290 299 311 318 328 333 338 334 336 335
2530.0 335 340 341 348 357 367 378 386 394 393
2570.0 392 390 388 369 353 341 333 329 326 325
2610.0 319 319 313 310 310 311 317 314 308 314
2650.0 321 326 331 340 349 355 356 365 376 397
2690.0 409 435 464 504 551 609 670 728 784 835
2730.0 880 930 991 1061 1138 1241 1384 1610 1962 2494
2770.0 3124 3647 3873 3751 3387 2985 2628 2364 2188 2091
2810.0 2075 2154 2350 2565 2698 2617 2341 2003 1725 1521
2850.0 1403 1372 1393 1419 1439 1447 1443 1429 1430 1435
2890.0 1461 1493 1529 1559 1578 1592 1605 1639 1700 1798
2930.0 1937 2141 2397 2702 3047 3373 3552 3528 3359 3185
2970.0 3127 3173 3233 3108 2753 2245 1731 1367 1152 1008
3010.0 904 858 885 950 1012 1016 940 828 739 711
3050.0 737 794 871 928 946 950 934 1014 1192 1260
3090.0 1179 945 713 633 558 486 419 374 350 342
3130.0 333 322 325 318 331 335 322 320 313 321
3170.0 325 323 320 316 314 310 307 309 310 298
3210.0 298 294 295 285 279 284 284 276 281 285
3250.0 280 281 279 284 277 286 280 275 278 287
3290.0 274 267 278 278 269 277 276 281 278 278
3330.0 264 269 269 274 282 280 279 270 267 275
3370.0 277 269 275 271 271 270 275 276 266 282
3410.0 285 279 282 272 277 272 275 272 271 266
3450.0 276 273 270 266 271 274 268 273 276 271
3490.0 273 262 270 269 267 269 269 272 268 272
3530.0 268 269 285 286 274 279 288 289 276 270
3570.0 281 280 270 272 262 265 277 276 277 279
3610.0 287 284 269 268 257 280 274 266 270 273
3650.0 285 275 274 285 289 268 268 287 274 281
3690.0 282 280 277 282 279 286 278 274 273 289
3730.0 287 290 267 286 289 283 283 291 276 278
3770.0 275 274 268 269 271 278 270 269 277 283
3810.0 276 283 279 287 289 277 280 282 289 288
3850.0 291 278 309 277 276 274 281 275 271 283
3890.0 279 276 281 285 265 271 283 284 305 281
3930.0 296 276 274 282 290 301 299 268 282 301
##END=
