##TITLE=Acetophenone, 2,3,4-trihydroxy-,
##JCAMP-DX=4.24
##DATA TYPE=INFRARED SPECTRUM
##ORIGIN=Sadtler Research Labs Under US-EPA Contract
##OWNER=NIST Standard Reference Data Program
##CAS REGISTRY NO=29477-54-1
##MOLFORM=C 8 H 8 O 4
##XUNITS=1/CM
##YUNITS=ABSORBANCE
##XFACTOR=1.0
##YFACTOR=0.000098010
##DELTAX=4.0
##FIRSTX=450.0
##LASTX=3966.0
##FIRSTY=0.061550
##MAXX=3966
##MINX=450
##MAXY=0.9801
##MINY=0
##NPOINTS=880
##XYDATA=(X++(Y..Y))
450.0 628 502 627 681 629 531 335 238 159 118
490.0 87 62 6 54 92 76 98 85 42 44
530.0 29 35 40 49 44 72 78 104 121 157
570.0 203 283 336 382 556 750 895 918 853 638
610.0 418 289 234 174 153 161 197 184 157 176
650.0 167 213 248 441 605 951 1021 977 863 602
690.0 400 316 238 221 193 217 215 231 249 262
730.0 294 297 325 312 322 327 356 371 436 512
770.0 588 711 857 1064 1164 1444 1435 1094 879 668
810.0 459 334 229 189 140 122 104 91 84 78
850.0 88 84 84 79 90 109 158 248 402 588
890.0 715 778 727 601 453 345 249 186 147 134
930.0 123 115 107 117 140 170 220 299 424 574
970.0 670 705 663 554 424 337 290 277 297 329
1010.0 390 473 588 730 929 1159 1411 1568 1585 1510
1050.0 1278 972 717 536 417 343 287 254 228 226
1090.0 216 212 205 188 178 182 222 287 372 403
1130.0 396 345 260 215 219 257 331 506 869 1424
1170.0 1894 2089 2021 1671 1327 1280 1484 1725 1838 1774
1210.0 1512 1162 879 711 611 584 619 749 973 1318
1250.0 1912 2972 4809 7221 9285 10000 9270 7005 4649 3427
1290.0 3103 3262 3703 4280 4732 4909 4694 4219 3624 3077
1330.0 2674 2315 1947 1608 1435 1457 1727 2160 2501 2649
1370.0 2710 2416 1943 1486 1044 723 562 485 446 444
1410.0 439 505 606 813 1087 1523 2112 2834 3610 4036
1450.0 4084 3758 3000 2191 1612 1251 1006 822 700 599
1490.0 554 523 525 543 633 788 932 1135 1250 1255
1530.0 1154 1006 895 797 735 704 699 695 699 630
1570.0 620 568 585 514 513 488 502 562 700 919
1610.0 1191 1596 2025 2552 3068 3643 4205 4664 5052 5209
1650.0 5153 4691 4047 3228 2395 1762 1212 850 570 421
1690.0 304 241 208 203 189 175 182 172 145 122
1730.0 113 92 89 69 49 43 43 25 32 24
1770.0 30 34 26 33 24 32 26 17 11 20
1810.0 6 15 14 9 22 26 43 54 81 90
1850.0 84 74 56 33 26 16 9 10 8 11
1890.0 8 8 9 14 16 21 15 21 14 21
1930.0 24 27 31 34 35 35 36 31 28 25
1970.0 22 20 18 20 16 15 15 14 13 15
2010.0 16 11 12 10 14 15 18 20 22 27
2050.0 27 25 24 22 16 17 12 13 15 15
2090.0 14 18 22 24 29 28 29 29 26 24
2130.0 17 9 7 4 4 3 1 2 0 2
2170.0 4 4 4 4 8 3 7 7 7 7
2210.0 5 8 10 8 8 15 17 21 29 33
2250.0 39 42 43 42 43 43 49 48 52 54
2290.0 58 65 71 72 70 71 75 66 65 57
2330.0 52 59 58 63 84 80 82 75 69 67
2370.0 70 77 81 81 74 70 66 66 64 63
2410.0 62 60 59 59 61 62 67 67 67 69
2450.0 70 74 74 81 81 83 84 84 87 87
2490.0 88 92 93 92 95 96 98 99 104 113
2530.0 119 127 128 127 120 115 110 113 114 108
2570.0 112 114 114 115 112 110 108 107 106 102
2610.0 100 101 94 94 95 96 100 103 102 102
2650.0 100 99 97 100 101 100 101 102 101 104
2690.0 101 103 105 109 107 114 119 120 125 129
2730.0 136 136 138 139 141 141 138 132 124 117
2770.0 112 107 105 106 108 112 116 117 117 117
2810.0 122 126 126 133 131 134 136 141 143 148
2850.0 146 149 152 155 158 163 165 169 171 171
2890.0 176 175 181 183 190 198 210 215 217 221
2930.0 224 227 230 229 228 225 222 219 226 233
2970.0 241 248 256 257 254 241 233 223 224 230
3010.0 236 249 254 247 238 223 210 206 199 196
3050.0 194 194 198 204 219 232 244 246 249 252
3090.0 254 248 237 227 206 194 176 174 171 163
3130.0 161 159 161 154 150 148 145 144 143 144
3170.0 143 142 141 144 138 145 139 145 144 144
3210.0 137 134 139 140 145 135 137 131 135 132
3250.0 125 129 130 138 142 146 147 139 141 140
3290.0 132 120 109 96 89 79 71 68 68 66
3330.0 59 57 53 57 51 48 50 46 45 39
3370.0 47 39 36 31 39 35 27 24 24 15
3410.0 14 15 14 9 9 9 8 0 4 5
3450.0 9 2 0 1 3 0 0 2 3 2
3490.0 2 8 4 8 2 8 9 2 11 6
3530.0 17 16 19 16 27 47 78 115 202 389
3570.0 755 1439 2482 3796 4582 4805 4355 3071 1655 698
3610.0 308 151 83 58 38 53 34 39 64 61
3650.0 63 68 53 42 30 42 15 35 8 30
3690.0 25 31 16 25 11 19 17 24 20 10
3730.0 18 23 23 17 59 22 38 9 12 21
3770.0 20 26 14 39 13 24 24 39 29 48
3810.0 23 38 28 41 26 24 40 44 13 30
3850.0 28 44 39 44 43 53 57 51 67 86
3890.0 68 74 46 57 52 52 45 57 39 45
3930.0 67 53 68 61 64 50 56 62 53 64
##END=
