##TITLE=2-Isoindolineacetic acid, 1,3-dioxo-.alpha.-methyl-, .delta.-,
##JCAMP-DX=4.24
##DATA TYPE=INFRARED SPECTRUM
##ORIGIN=Sadtler Research Labs Under US-EPA Contract
##OWNER=NIST Standard Reference Data Program
##CAS REGISTRY NO=29588-83-8
##MOLFORM=C 11 H 9 N O 4
##XUNITS=1/CM
##YUNITS=ABSORBANCE
##XFACTOR=1.0
##YFACTOR=0.000049960
##DELTAX=4.0
##FIRSTX=450.0
##LASTX=3966.0
##FIRSTY=0.001599
##MAXX=3966
##MINX=450
##MAXY=0.4996
##MINY=0
##NPOINTS=880
##XYDATA=(X++(Y..Y))
450.0 32 72 103 191 103 126 56 56 104 58
490.0 133 128 154 170 174 229 357 407 441 620
530.0 650 657 645 689 730 838 922 947 858 674
570.0 545 461 503 429 505 524 552 599 617 685
610.0 678 769 814 790 678 468 319 224 198 158
650.0 157 135 166 145 181 263 209 162 172 176
690.0 205 240 372 514 770 1266 2138 2890 2566 1745
730.0 1011 606 513 470 433 348 269 192 161 135
770.0 116 123 120 153 193 244 223 191 153 174
810.0 183 187 192 133 127 101 107 74 80 87
850.0 93 76 94 102 128 203 367 631 871 774
890.0 522 350 291 293 354 437 521 544 465 352
930.0 239 146 103 87 90 103 107 122 101 88
970.0 90 90 108 120 129 155 206 287 411 558
1010.0 657 823 1005 1044 929 760 633 557 523 544
1050.0 615 714 839 1020 1241 1453 1611 1721 1777 1710
1090.0 1478 1161 907 783 759 823 947 1140 1401 1697
1130.0 1918 1993 1893 1690 1498 1333 1223 1206 1253 1310
1170.0 1364 1326 1199 1053 920 840 820 856 892 886
1210.0 814 705 593 524 470 440 425 424 425 429
1250.0 441 452 466 483 483 467 432 413 405 438
1290.0 482 510 553 608 653 693 759 825 938 1076
1330.0 1213 1333 1447 1532 1604 1714 1848 2036 2315 2749
1370.0 3414 4597 6132 7378 7159 5532 3475 2032 1261 881
1410.0 688 589 567 516 450 385 335 308 280 309
1450.0 375 412 485 511 596 626 413 263 132 103
1490.0 81 56 56 42 68 77 73 75 107 81
1530.0 99 83 116 104 122 100 107 93 99 76
1570.0 92 87 122 117 126 140 122 112 111 142
1610.0 159 144 119 99 109 111 178 212 245 268
1650.0 291 289 304 299 349 417 489 592 716 891
1690.0 1077 1308 1588 1955 2371 2848 3360 3796 4058 4465
1730.0 5540 7543 9641 10000 8800 5956 3768 2739 2360 2161
1770.0 2187 2425 3343 4738 5601 5473 4286 2885 1780 1095
1810.0 805 624 515 415 347 299 254 229 193 175
1850.0 128 107 86 84 81 84 79 66 57 43
1890.0 41 34 41 39 42 49 42 40 35 27
1930.0 29 31 44 43 42 27 19 13 13 23
1970.0 37 36 35 26 14 14 13 8 7 3
2010.0 2 1 0 3 2 0 0 6 4 9
2050.0 9 5 6 11 11 15 12 15 17 21
2090.0 18 17 13 10 14 15 15 15 11 8
2130.0 12 15 14 12 14 5 10 14 15 16
2170.0 26 23 22 23 17 21 25 21 19 25
2210.0 24 27 27 29 27 26 28 31 41 43
2250.0 42 48 52 59 61 63 69 80 84 102
2290.0 128 161 183 223 230 264 241 216 239 208
2330.0 182 184 160 169 250 229 277 199 229 187
2370.0 180 171 211 216 152 98 77 69 67 62
2410.0 76 74 75 72 68 80 80 77 81 82
2450.0 78 82 89 89 86 89 91 89 85 83
2490.0 90 86 84 88 88 85 84 89 90 92
2530.0 95 91 94 91 91 93 94 91 93 92
2570.0 97 86 83 92 91 90 88 93 86 81
2610.0 89 86 83 94 99 86 90 90 100 92
2650.0 91 92 91 97 98 97 99 99 100 100
2690.0 103 105 107 112 108 92 93 88 99 94
2730.0 91 90 95 90 89 100 108 98 100 108
2770.0 104 121 126 120 122 126 126 131 136 130
2810.0 131 133 136 150 141 148 150 156 161 169
2850.0 162 169 165 165 164 172 175 188 192 205
2890.0 215 224 234 229 240 246 258 284 315 360
2930.0 387 397 395 383 396 408 427 417 381 320
2970.0 279 254 259 260 269 281 321 395 448 439
3010.0 388 329 293 257 233 224 228 228 245 254
3050.0 268 289 324 365 361 362 340 334 372 405
3090.0 419 393 349 293 248 233 227 211 208 214
3130.0 212 218 212 209 214 219 209 213 214 226
3170.0 212 221 224 228 224 238 243 241 225 242
3210.0 237 246 250 245 237 249 235 247 249 243
3250.0 244 240 244 247 247 250 252 257 250 251
3290.0 248 243 253 259 252 259 250 261 262 263
3330.0 257 244 241 227 233 228 213 218 214 214
3370.0 202 211 187 189 186 185 177 168 168 160
3410.0 141 146 136 140 130 125 132 122 122 124
3450.0 117 112 124 128 133 143 147 147 153 133
3490.0 129 118 128 158 148 137 157 134 151 140
3530.0 116 102 79 83 103 102 93 85 95 200
3570.0 430 877 1342 1477 1135 620 270 126 88 88
3610.0 95 73 89 64 47 111 41 29 39 36
3650.0 82 38 41 44 20 56 52 76 29 49
3690.0 58 42 36 40 51 40 67 51 64 93
3730.0 63 97 99 62 102 61 77 22 37 64
3770.0 25 42 25 58 24 32 31 55 51 49
3810.0 23 26 47 52 39 22 40 53 38 45
3850.0 44 89 56 48 51 73 54 35 49 50
3890.0 25 55 24 72 89 45 57 66 64 35
3930.0 63 31 43 27 56 58 72 23 55 37
##END=
