##TITLE=Methanone, (2-amino-5-chlorophenyl)(2-chlorophenyl)-
##JCAMP-DX=4.24
##DATA TYPE=INFRARED SPECTRUM
##ORIGIN=Sadtler Research Labs Under US-EPA Contract
##OWNER=NIST Standard Reference Data Program
##CAS REGISTRY NO=2958-36-3
##MOLFORM=C 13 H 9 Cl 2 N O
##XUNITS=1/CM
##YUNITS=ABSORBANCE
##XFACTOR=1.0
##YFACTOR=0.000049338
##DELTAX=4.0
##FIRSTX=450.0
##LASTX=3966.0
##FIRSTY=0.021067
##MAXX=3966
##MINX=450
##MAXY=0.49338
##MINY=0
##NPOINTS=880
##XYDATA=(X++(Y..Y))
450.0 427 233 236 438 759 763 532 230 125 113
490.0 84 189 223 358 420 605 902 1355 1617 1695
530.0 978 301 46 1 12 17 84 180 213 260
570.0 325 356 262 165 143 90 114 192 186 245
610.0 238 293 300 489 600 979 1575 3239 4794 3343
650.0 2759 1986 778 278 107 298 377 535 676 904
690.0 1104 1214 1566 2089 2814 2643 2112 1660 1582 1831
730.0 1773 1489 1574 2404 3729 4091 3128 2584 2754 3209
770.0 3295 2479 1569 1023 788 625 545 569 706 1122
810.0 1970 3305 3787 2897 1929 1701 1843 1521 927 577
850.0 418 365 360 415 443 446 432 527 711 970
890.0 989 747 524 416 397 416 460 525 613 843
930.0 1375 2569 3910 3799 3437 4036 3459 1830 800 427
970.0 311 261 240 215 195 181 197 201 221 259
1010.0 315 390 520 708 1016 1392 1270 996 1013 1444
1050.0 2213 2472 2078 1608 1223 956 799 722 706 756
1090.0 876 1126 1540 1839 1702 1367 1094 984 1082 1330
1130.0 1542 1628 1781 2187 2920 4179 5753 6617 5325 2986
1170.0 1680 1129 851 769 776 884 1058 1318 1616 1916
1210.0 2259 2687 3269 4262 6005 8302 10000 9439 7046 4587
1250.0 3055 2351 2453 2678 2100 1467 1331 1479 2001 3084
1290.0 4927 6788 7225 6506 5668 4779 3651 2556 1938 1795
1330.0 1804 1710 1469 1091 755 547 420 363 334 289
1370.0 283 295 304 318 406 487 660 947 1388 2018
1410.0 2458 2180 1717 1521 1830 2825 3340 2341 1546 1322
1450.0 1369 1783 2674 3993 5093 5524 5327 4903 4068 3214
1490.0 2466 1856 1576 1391 1424 1459 1510 1690 1992 2414
1530.0 3036 3942 4900 5749 5906 5334 4461 3880 3557 3703
1570.0 4065 4764 5804 6966 7783 7863 6992 6388 6634 7484
1610.0 8339 8442 7813 6687 5713 5102 5029 5265 5386 5535
1650.0 5665 6063 6228 5932 5038 3967 2995 2209 1649 1250
1690.0 919 729 670 561 505 419 423 397 344 277
1730.0 263 281 214 187 201 238 225 259 281 308
1770.0 331 349 295 269 205 173 165 158 177 137
1810.0 127 112 87 79 80 89 98 89 96 84
1850.0 45 25 27 35 61 101 121 168 216 241
1890.0 241 204 173 155 163 178 185 188 167 141
1930.0 117 107 91 106 123 141 141 117 87 72
1970.0 53 37 38 37 36 39 35 26 18 15
2010.0 19 10 11 13 14 17 14 19 24 20
2050.0 22 27 29 33 33 28 31 30 31 31
2090.0 32 31 29 30 26 26 20 20 25 23
2130.0 22 21 24 20 18 18 15 7 10 9
2170.0 12 11 17 17 13 11 14 16 23 22
2210.0 24 25 22 21 18 15 23 20 27 27
2250.0 28 25 35 33 37 50 53 62 75 86
2290.0 99 106 121 124 138 155 154 148 177 148
2330.0 124 95 86 117 115 120 125 92 102 105
2370.0 96 106 111 109 84 57 43 30 26 24
2410.0 19 18 20 20 23 21 29 27 40 40
2450.0 39 33 27 21 15 12 7 10 12 14
2490.0 19 11 16 7 8 2 0 4 12 13
2530.0 19 21 22 22 24 27 29 33 37 38
2570.0 41 30 26 31 20 28 33 35 42 42
2610.0 51 62 77 81 80 91 94 92 90 93
2650.0 83 74 70 69 65 68 67 63 58 66
2690.0 73 80 82 91 87 91 74 61 51 53
2730.0 42 45 41 46 53 54 58 57 64 68
2770.0 71 66 66 56 52 47 41 47 38 48
2810.0 42 43 53 49 48 49 53 64 58 64
2850.0 59 59 63 71 81 95 107 114 119 120
2890.0 113 106 108 104 102 107 111 97 87 102
2930.0 107 106 113 112 111 113 118 133 143 154
2970.0 150 139 127 117 121 123 135 141 163 186
3010.0 224 266 322 371 435 504 548 553 531 519
3050.0 552 623 718 837 938 995 973 909 791 606
3090.0 474 399 338 280 242 213 207 196 188 183
3130.0 193 190 192 185 181 173 165 161 163 171
3170.0 159 156 158 147 152 154 155 158 156 156
3210.0 164 160 161 173 169 167 176 169 175 189
3250.0 197 195 207 202 201 214 223 232 249 260
3290.0 282 309 322 362 404 458 525 615 732 881
3330.0 1071 1321 1612 1960 2315 2636 2908 3069 3078 2855
3370.0 2498 2088 1721 1412 1161 962 817 711 632 571
3410.0 544 525 529 551 569 633 701 757 862 973
3450.0 1106 1236 1417 1585 1757 1936 2094 2240 2327 2335
3490.0 2236 2068 1833 1608 1437 1333 1254 1151 1063 931
3530.0 754 553 355 228 174 136 105 98 80 63
3570.0 73 46 46 37 30 35 22 31 31 31
3610.0 30 11 8 7 7 15 31 29 13 26
3650.0 14 23 31 13 46 30 45 23 30 46
3690.0 42 42 18 39 45 25 37 30 41 61
3730.0 33 45 53 58 27 42 39 26 35 49
3770.0 48 57 53 52 51 48 63 51 40 42
3810.0 51 48 48 58 46 60 60 66 43 51
3850.0 29 62 66 59 68 62 25 45 46 61
3890.0 55 74 40 66 81 83 65 76 74 59
3930.0 59 61 67 68 75 69 91 64 72 59
##END=
