##TITLE=4-(1-Butylpentyl)pyridine
##JCAMP-DX=4.24
##DATA TYPE=INFRARED SPECTRUM
##ORIGIN=Sadtler Research Labs Under US-EPA Contract
##OWNER=NIST Standard Reference Data Program
##CAS REGISTRY NO=2961-47-9
##MOLFORM=C 14 H 23 N
##XUNITS=1/CM
##YUNITS=ABSORBANCE
##XFACTOR=1.0
##YFACTOR=0.000127338
##DELTAX=4.0
##FIRSTX=450.0
##LASTX=3966.0
##FIRSTY=0.113713
##MAXX=3966
##MINX=450
##MAXY=1.27338
##MINY=0
##NPOINTS=880
##XYDATA=(X++(Y..Y))
450.0 893 373 0 146 45 171 126 151 116 96
490.0 43 281 375 172 80 193 261 305 212 186
530.0 210 229 244 186 207 217 473 518 459 589
570.0 710 788 828 727 703 646 506 330 247 226
610.0 247 200 183 173 214 162 204 137 138 143
650.0 101 135 132 145 88 176 123 114 136 103
690.0 133 165 143 149 172 221 334 416 565 568
730.0 565 640 382 385 481 526 383 468 408 372
770.0 401 370 375 377 415 422 411 408 523 651
810.0 990 1265 1391 1189 749 487 344 241 251 230
850.0 175 172 159 140 116 148 122 189 199 175
890.0 151 168 185 156 154 138 155 115 120 117
930.0 124 95 147 178 118 188 193 233 233 184
970.0 192 177 184 183 314 448 508 421 254 153
1010.0 132 110 113 101 104 107 102 108 106 97
1050.0 105 101 121 165 244 321 320 262 202 160
1090.0 167 157 150 165 166 163 202 164 149 171
1130.0 163 146 147 129 119 130 120 128 121 125
1170.0 129 124 142 155 157 172 174 168 169 179
1210.0 225 305 414 437 375 273 215 207 182 170
1250.0 177 189 205 200 185 197 181 182 184 203
1290.0 231 229 265 276 271 285 306 353 383 390
1330.0 392 387 406 417 430 446 425 424 451 471
1370.0 503 533 597 709 733 637 501 442 537 761
1410.0 1110 1365 1293 845 564 392 348 403 462 579
1450.0 741 883 1030 1185 1203 1163 966 727 531 436
1490.0 444 394 327 235 188 180 182 164 164 160
1530.0 191 190 219 252 374 530 708 876 858 734
1570.0 549 495 654 990 1573 2550 3534 3487 2808 1542
1610.0 732 430 286 241 217 171 162 141 114 126
1650.0 84 82 97 98 106 110 135 127 142 98
1690.0 107 97 85 92 106 122 118 115 108 128
1730.0 127 109 105 84 92 90 89 98 103 108
1770.0 115 111 112 106 106 95 96 81 84 66
1810.0 64 63 52 54 46 60 63 82 78 65
1850.0 50 36 28 27 29 31 26 29 26 34
1890.0 31 34 38 40 43 53 61 92 126 167
1930.0 173 140 98 65 56 50 53 52 41 35
1970.0 29 27 25 24 25 22 22 20 19 19
2010.0 18 19 25 27 32 28 27 25 27 22
2050.0 22 23 25 22 24 24 19 22 17 21
2090.0 18 15 18 20 17 15 16 18 17 15
2130.0 16 18 21 21 25 26 26 25 25 23
2170.0 25 21 21 22 20 17 22 21 21 22
2210.0 23 20 23 21 19 23 18 17 17 17
2250.0 21 17 20 21 25 21 22 27 28 32
2290.0 38 42 55 59 61 69 60 62 62 60
2330.0 56 44 71 15 86 34 103 50 81 83
2370.0 57 56 45 54 51 47 45 46 50 48
2410.0 48 46 47 49 47 44 44 44 41 39
2450.0 41 38 36 35 31 33 30 31 31 33
2490.0 31 29 32 32 31 31 33 36 39 43
2530.0 41 48 46 46 49 50 49 53 54 55
2570.0 58 56 58 61 63 66 68 62 71 74
2610.0 74 72 71 73 74 80 79 81 80 84
2650.0 90 91 98 102 107 110 111 114 107 104
2690.0 106 104 104 101 100 102 103 104 110 117
2730.0 127 134 150 163 166 162 151 146 146 146
2770.0 149 157 165 177 190 206 221 240 259 277
2810.0 296 316 345 366 397 438 485 546 629 750
2850.0 971 1372 2016 2804 3500 3806 3690 3517 3522 3486
2890.0 3128 2630 2335 2308 2464 2760 3230 3975 5080 6579
2930.0 8272 9630 10000 9181 7546 5735 4553 4448 5415 7024
2970.0 7739 6676 4577 2840 1967 1626 1424 1238 1055 922
3010.0 871 928 1113 1359 1526 1528 1360 1082 831 679
3050.0 663 724 839 1063 1395 1656 1561 1133 723 462
3090.0 358 321 298 276 245 211 189 167 143 127
3130.0 121 116 104 104 98 99 93 92 88 86
3170.0 90 83 83 81 76 71 76 75 68 62
3210.0 62 59 58 53 51 46 48 44 48 45
3250.0 41 45 40 40 33 38 37 33 37 40
3290.0 42 40 34 40 40 40 41 39 35 37
3330.0 36 37 39 35 40 44 45 42 45 42
3370.0 49 49 42 50 44 43 48 45 50 50
3410.0 48 46 44 49 40 43 48 43 44 45
3450.0 40 49 50 42 45 44 40 38 46 41
3490.0 39 36 36 40 46 44 48 39 49 46
3530.0 36 44 42 43 56 45 47 42 57 51
3570.0 65 55 58 57 60 59 54 57 42 53
3610.0 49 54 44 46 45 60 44 57 50 56
3650.0 45 36 52 44 65 26 57 20 66 59
3690.0 46 62 63 72 55 43 42 47 71 55
3730.0 65 60 42 82 24 64 25 61 57 61
3770.0 74 56 70 56 50 71 60 61 54 39
3810.0 81 56 63 34 58 65 64 59 59 90
3850.0 41 59 23 77 49 59 77 57 66 36
3890.0 70 44 67 48 39 63 53 75 47 65
3930.0 68 50 63 72 59 64 54 63 51 54
##END=
