##TITLE=Pyridine, 2-(1-butylpentyl)-
##JCAMP-DX=4.24
##DATA TYPE=INFRARED SPECTRUM
##ORIGIN=Sadtler Research Labs Under US-EPA Contract
##OWNER=NIST Standard Reference Data Program
##CAS REGISTRY NO=2961-49-1
##MOLFORM=C 14 H 23 N
##XUNITS=1/CM
##YUNITS=ABSORBANCE
##XFACTOR=1.0
##YFACTOR=0.000057687
##DELTAX=4.0
##FIRSTX=450.0
##LASTX=3966.0
##FIRSTY=0.002884
##MAXX=3966
##MINX=450
##MAXY=0.57687
##MINY=0
##NPOINTS=880
##XYDATA=(X++(Y..Y))
450.0 50 82 16 88 105 128 43 127 122 195
490.0 6 131 85 45 104 61 165 171 153 61
530.0 158 51 61 105 225 260 203 354 376 473
570.0 274 440 349 204 176 152 85 136 157 166
610.0 211 232 284 205 140 166 114 86 37 95
650.0 67 57 47 76 39 72 27 71 96 105
690.0 61 49 115 130 103 132 210 280 331 410
730.0 492 578 1037 2095 2643 2153 986 425 427 478
770.0 579 576 695 637 550 474 463 347 326 257
810.0 190 184 138 113 99 99 87 95 72 60
850.0 86 60 57 39 62 69 65 87 98 98
890.0 100 119 111 99 87 80 75 60 70 69
930.0 81 79 95 114 158 183 208 228 219 176
970.0 135 129 124 142 151 252 355 296 187 106
1010.0 97 75 89 83 89 76 83 108 186 300
1050.0 366 315 222 159 129 140 160 212 225 218
1090.0 188 143 133 134 178 201 199 163 134 114
1130.0 131 165 237 391 505 438 247 120 70 66
1170.0 70 66 91 107 150 183 228 266 288 289
1210.0 267 256 228 207 159 145 143 152 144 142
1250.0 136 134 129 127 124 120 144 164 205 243
1290.0 255 287 330 362 375 340 279 248 237 231
1330.0 247 270 310 358 407 396 384 384 393 406
1370.0 432 475 596 736 732 558 356 281 261 249
1410.0 245 273 296 395 696 1335 1969 2000 1432 927
1450.0 813 914 1121 1463 1996 2659 2753 2146 1131 518
1490.0 335 244 221 173 151 126 135 124 98 124
1530.0 126 144 129 144 139 181 206 271 458 818
1570.0 1316 1559 1535 1788 2592 3281 3006 1957 978 510
1610.0 346 266 203 175 150 128 92 62 73 52
1650.0 48 34 53 57 50 45 47 45 46 27
1690.0 51 60 46 33 40 44 22 20 33 38
1730.0 23 22 31 41 36 36 60 67 75 74
1770.0 49 30 35 29 30 25 26 29 25 31
1810.0 29 32 34 33 44 59 69 79 58 47
1850.0 39 54 66 97 92 72 56 42 35 43
1890.0 41 42 56 65 91 92 87 58 44 58
1930.0 83 105 113 107 80 51 51 64 79 113
1970.0 108 92 53 38 32 27 28 19 19 20
2010.0 25 8 3 7 17 19 19 28 23 11
2050.0 14 9 13 19 18 27 44 40 45 36
2090.0 40 46 39 47 36 37 32 33 38 35
2130.0 38 33 31 38 34 31 47 40 31 30
2170.0 43 38 31 42 39 45 53 43 36 50
2210.0 45 32 41 38 29 44 41 40 45 27
2250.0 35 32 47 43 41 45 45 31 31 38
2290.0 35 43 45 34 33 27 30 29 33 21
2330.0 22 47 58 56 3 31 21 28 2 18
2370.0 0 16 7 15 18 23 22 28 42 25
2410.0 22 19 31 32 23 30 26 19 14 17
2450.0 21 17 14 23 19 13 24 18 21 26
2490.0 22 4 22 14 5 21 12 33 42 27
2530.0 10 23 28 29 17 23 27 19 18 28
2570.0 17 26 28 32 22 47 25 28 29 28
2610.0 39 52 40 23 31 46 56 44 48 66
2650.0 72 91 88 93 107 128 114 119 129 119
2690.0 122 106 110 100 96 84 85 102 101 107
2730.0 110 121 142 150 148 138 125 129 124 120
2770.0 129 133 145 139 165 189 215 239 249 270
2810.0 289 315 327 355 400 424 491 565 642 826
2850.0 1133 1693 2491 3330 3918 4063 3827 3684 3791 3792
2890.0 3342 2794 2579 2696 2990 3381 3873 4603 5500 6650
2930.0 7958 9236 10000 9686 8163 6129 4782 4899 6419 8276
2970.0 8573 6650 4062 2293 1495 1145 990 934 947 1115
3010.0 1417 1699 1633 1237 875 634 545 521 523 553
3050.0 617 660 758 932 1115 1355 1627 1774 1583 1181
3090.0 811 522 339 258 217 205 148 163 162 155
3130.0 145 169 194 181 169 176 149 157 156 151
3170.0 132 131 146 141 139 128 91 120 132 137
3210.0 110 117 112 112 105 111 99 94 85 93
3250.0 121 125 98 110 87 81 89 92 53 73
3290.0 42 58 38 69 53 79 49 35 71 57
3330.0 39 56 70 63 33 51 62 59 42 35
3370.0 55 79 82 42 31 73 68 26 35 61
3410.0 64 35 69 66 36 68 43 4 61 47
3450.0 75 62 50 46 50 72 47 12 29 79
3490.0 55 68 76 57 61 66 78 73 60 96
3530.0 73 82 83 70 79 90 97 90 72 75
3570.0 88 86 84 82 94 108 77 77 101 122
3610.0 98 105 107 119 103 118 116 91 131 128
3650.0 136 117 112 132 96 98 151 119 114 128
3690.0 139 129 148 117 145 129 121 152 124 110
3730.0 130 128 132 137 129 150 91 167 125 138
3770.0 156 113 121 142 108 128 124 152 130 181
3810.0 103 115 105 160 192 163 177 117 139 127
3850.0 146 143 180 138 130 135 132 194 125 132
3890.0 121 149 169 102 123 167 204 108 139 127
3930.0 153 192 145 238 144 126 39 129 150 123
##END=
