##TITLE=Isothiocyanic acid, 1,4-cyclo-hexylene-, dimethylene ester
##JCAMP-DX=4.24
##DATA TYPE=INFRARED SPECTRUM
##ORIGIN=Sadtler Research Labs Under US-EPA Contract
##OWNER=NIST Standard Reference Data Program
##CAS REGISTRY NO=29647-03-8
##MOLFORM=C 10 H 14 N 2 S 2
##XUNITS=1/CM
##YUNITS=ABSORBANCE
##XFACTOR=1.0
##YFACTOR=0.000111777
##DELTAX=4.0
##FIRSTX=450.0
##LASTX=3966.0
##FIRSTY=0.017884
##MAXX=3966
##MINX=450
##MAXY=1.11777
##MINY=0
##NPOINTS=880
##XYDATA=(X++(Y..Y))
450.0 160 124 97 105 104 78 78 54 71 87
490.0 119 133 165 158 163 180 192 181 186 170
530.0 181 197 178 170 160 158 171 173 171 188
570.0 221 202 224 263 270 261 245 206 175 158
610.0 155 188 206 225 207 190 170 173 162 160
650.0 160 160 182 190 260 318 326 372 389 414
690.0 455 456 463 436 397 359 303 259 226 175
730.0 133 93 57 39 20 2 9 1 11 22
770.0 38 57 59 57 70 72 71 76 81 95
810.0 104 121 123 100 93 91 81 69 65 65
850.0 64 76 84 76 68 77 84 92 97 90
890.0 106 106 119 139 163 185 186 186 194 232
930.0 287 334 346 294 233 197 175 157 134 128
970.0 113 110 106 96 94 100 104 110 118 139
1010.0 164 184 210 216 212 220 229 195 168 153
1050.0 153 170 174 193 212 223 233 241 269 283
1090.0 279 266 249 232 217 202 197 195 202 210
1130.0 214 208 180 161 146 139 136 129 127 119
1170.0 117 105 101 110 115 113 113 126 143 174
1210.0 198 205 201 180 154 145 140 139 137 142
1250.0 155 191 231 270 312 337 347 367 427 514
1290.0 556 529 474 425 416 449 503 567 652 804
1330.0 1009 1193 1326 1423 1488 1518 1531 1404 1105 816
1370.0 647 581 554 482 354 248 181 150 139 147
1410.0 147 165 175 204 232 278 361 476 664 859
1450.0 1065 1212 1221 985 585 299 186 129 115 85
1490.0 72 69 57 46 54 57 100 133 143 146
1530.0 137 136 137 139 107 68 26 19 23 28
1570.0 31 32 32 29 32 30 24 26 26 29
1610.0 33 45 44 53 57 69 77 81 92 96
1650.0 96 103 108 114 123 126 134 139 138 140
1690.0 147 152 151 151 149 154 154 149 161 168
1730.0 176 182 190 192 198 200 209 215 218 220
1770.0 221 221 225 233 238 247 243 249 252 264
1810.0 266 271 278 281 285 284 293 298 302 307
1850.0 314 321 328 340 347 352 366 383 394 409
1890.0 425 439 461 478 502 522 553 577 605 640
1930.0 674 714 753 799 847 908 972 1046 1122 1206
1970.0 1308 1421 1550 1695 1864 2045 2264 2510 2791 3106
2010.0 3466 3866 4319 4845 5414 6053 6721 7430 8121 8761
2050.0 9286 9704 9911 9995 10000 9822 9502 8957 8282 7498
2090.0 6786 6149 5596 5120 4700 4317 3980 3688 3433 3213
2130.0 3018 2859 2719 2601 2494 2404 2326 2268 2208 2159
2170.0 2107 2046 1979 1901 1815 1725 1635 1534 1435 1331
2210.0 1221 1112 998 891 786 691 604 530 462 408
2250.0 366 334 303 279 261 238 212 180 156 142
2290.0 136 129 133 131 135 140 128 112 124 103
2330.0 103 81 70 91 61 93 120 93 86 65
2370.0 53 40 44 53 30 11 2 1 1 3
2410.0 6 10 13 17 16 17 19 20 20 19
2450.0 22 23 20 22 26 25 28 29 31 35
2490.0 39 39 41 48 51 54 59 62 67 69
2530.0 70 76 80 79 84 82 88 89 91 94
2570.0 97 99 98 98 101 100 99 96 93 92
2610.0 92 91 91 90 95 96 94 94 94 98
2650.0 103 106 112 115 116 121 120 123 124 126
2690.0 132 133 135 140 143 148 151 157 162 170
2730.0 178 180 187 191 198 207 219 226 232 239
2770.0 243 250 255 254 256 258 255 257 256 255
2810.0 254 257 260 277 285 306 340 378 445 547
2850.0 688 844 988 1091 1129 1147 1145 1109 1041 962
2890.0 900 874 893 937 1027 1153 1321 1521 1759 2086
2930.0 2506 2858 2881 2582 2160 1776 1375 903 548 355
2970.0 237 167 123 97 74 60 52 47 40 33
3010.0 35 32 30 24 24 27 23 21 21 21
3050.0 23 24 24 24 20 23 19 18 24 25
3090.0 24 23 26 23 25 29 28 28 25 26
3130.0 27 27 29 31 31 31 28 28 25 24
3170.0 22 24 22 18 16 16 19 21 19 16
3210.0 16 15 16 19 21 19 18 17 20 15
3250.0 17 13 13 16 22 14 16 22 16 16
3290.0 16 21 17 15 17 14 11 13 14 19
3330.0 17 22 24 22 27 30 28 23 27 30
3370.0 25 22 24 27 23 29 29 34 31 25
3410.0 32 31 34 33 30 31 26 21 21 22
3450.0 27 28 31 27 24 23 27 28 30 24
3490.0 27 22 18 27 27 24 18 21 23 15
3530.0 18 23 23 24 26 14 18 24 27 19
3570.0 12 15 15 5 16 13 13 6 14 11
3610.0 10 7 10 1 21 17 13 12 11 14
3650.0 9 7 9 5 8 4 8 8 11 10
3690.0 8 9 22 14 12 19 13 17 22 17
3730.0 9 15 8 13 10 16 18 13 6 1
3770.0 8 8 10 1 12 17 10 20 20 2
3810.0 4 7 11 15 20 6 9 9 1 9
3850.0 17 12 0 11 1 25 10 17 32 19
3890.0 12 7 21 22 1 5 19 16 15 4
3930.0 6 23 15 22 33 23 26 27 24 33
##END=
