##TITLE=Butyric acid, 2-(p-methoxyphenyl)-
##JCAMP-DX=4.24
##DATA TYPE=INFRARED SPECTRUM
##ORIGIN=Sadtler Research Labs Under US-EPA Contract
##OWNER=NIST Standard Reference Data Program
##CAS REGISTRY NO=29644-99-3
##MOLFORM=C 11 H 14 O 3
##XUNITS=1/CM
##YUNITS=ABSORBANCE
##XFACTOR=1.0
##YFACTOR=0.000084256
##DELTAX=4.0
##FIRSTX=450.0
##LASTX=3966.0
##FIRSTY=0.021738
##MAXX=3966
##MINX=450
##MAXY=0.84256
##MINY=0
##NPOINTS=880
##XYDATA=(X++(Y..Y))
450.0 258 162 136 130 140 120 171 145 184 285
490.0 290 373 472 591 699 844 979 1074 996 999
530.0 945 974 1016 1133 1222 1238 1228 1173 1134 1040
570.0 1028 974 979 976 945 992 1055 1108 1113 1133
610.0 1098 1121 1060 1038 987 968 915 816 708 588
650.0 512 442 424 350 365 342 326 329 361 399
690.0 434 449 554 550 508 437 444 466 468 462
730.0 439 437 505 567 557 475 354 274 231 207
770.0 213 217 253 301 350 402 483 636 821 1031
810.0 1206 1319 1393 1452 1533 1556 1506 1415 1184 918
850.0 704 570 459 360 267 223 187 178 173 154
890.0 139 116 96 83 73 60 58 44 26 38
930.0 51 50 62 62 73 86 102 130 164 220
970.0 298 371 423 466 473 491 519 581 683 789
1010.0 918 1100 1345 1667 2068 2486 2825 2971 2970 2798
1050.0 2471 2047 1652 1401 1250 1185 1178 1226 1331 1506
1090.0 1785 2171 2677 3268 3926 4709 5682 6534 6622 5872
1130.0 4760 3926 3369 2960 2648 2427 2305 2279 2424 2856
1170.0 3686 4441 4372 3462 2573 2105 1851 1742 1728 1742
1210.0 1795 1899 2080 2319 2706 3324 4336 5920 8046 9785
1250.0 10000 8469 6329 4661 3633 3041 2687 2459 2309 2250
1290.0 2284 2355 2317 1997 1554 1182 988 886 865 871
1330.0 892 929 943 1001 1060 1098 1113 1116 1112 1153
1370.0 1203 1249 1317 1371 1325 1227 1074 900 800 724
1410.0 672 690 649 727 741 797 839 1015 1251 1380
1450.0 1411 1415 1407 1474 1503 1437 1211 976 850 774
1490.0 857 1176 1766 2913 5075 8199 9176 7009 3732 1551
1530.0 822 491 338 223 196 219 183 142 175 231
1570.0 265 363 506 643 712 729 795 961 1277 1658
1610.0 1950 1913 1587 1152 746 526 390 308 285 239
1650.0 175 158 185 181 189 199 202 294 303 355
1690.0 456 545 585 703 855 1019 1143 1206 1360 1496
1730.0 1628 1761 2031 2303 2607 2925 3300 3715 4277 5153
1770.0 6223 7317 7663 7116 5879 4691 3729 3071 2482 2014
1810.0 1566 1198 906 664 488 349 280 229 180 138
1850.0 143 141 133 132 129 122 153 159 144 122
1890.0 95 81 73 70 57 47 40 33 28 36
1930.0 47 47 55 40 51 59 60 54 57 47
1970.0 50 58 55 62 67 61 61 63 65 63
2010.0 62 57 57 64 68 68 74 75 83 94
2050.0 98 108 115 116 111 119 118 114 110 94
2090.0 76 60 46 33 25 15 12 13 8 8
2130.0 5 2 0 0 1 3 0 3 5 6
2170.0 10 10 12 13 18 17 17 22 28 31
2210.0 36 43 47 52 57 59 66 78 92 105
2250.0 121 140 159 168 175 187 201 223 236 236
2290.0 228 206 173 146 122 108 90 71 72 83
2330.0 69 79 90 108 116 121 122 124 142 127
2370.0 120 115 117 103 89 74 71 66 73 78
2410.0 81 85 88 88 82 74 71 67 67 72
2450.0 75 76 77 84 90 94 99 102 111 113
2490.0 113 115 114 112 109 112 111 114 118 122
2530.0 126 130 131 137 142 139 130 122 117 110
2570.0 109 107 109 112 112 118 122 120 120 119
2610.0 119 118 118 115 117 119 124 122 132 128
2650.0 127 124 123 119 119 121 120 122 121 123
2690.0 122 128 124 132 133 127 135 140 140 144
2730.0 151 143 150 154 157 163 171 173 171 178
2770.0 181 183 196 200 213 226 242 263 283 304
2810.0 338 374 421 479 554 675 857 1121 1374 1465
2850.0 1358 1208 1151 1157 1171 1170 1142 1108 1061 1029
2890.0 1026 1048 1116 1227 1396 1609 1854 2095 2316 2492
2930.0 2625 2741 2909 3094 3239 3263 3176 2980 2663 2288
2970.0 1920 1622 1420 1288 1235 1242 1317 1470 1717 1927
3010.0 1886 1571 1228 1089 1106 1212 1325 1309 1145 919
3050.0 746 655 626 634 676 727 733 693 627 571
3090.0 541 532 531 525 493 466 428 395 379 365
3130.0 353 339 319 304 290 283 273 271 262 265
3170.0 256 258 253 242 247 242 242 243 237 235
3210.0 236 228 225 222 228 225 225 223 217 216
3250.0 217 219 214 217 207 210 205 201 195 200
3290.0 200 197 196 198 185 182 185 177 180 174
3330.0 173 174 169 169 166 169 157 158 159 147
3370.0 156 145 143 149 154 144 142 141 138 138
3410.0 140 140 135 146 130 126 126 130 122 126
3450.0 126 113 114 119 112 113 111 108 120 117
3490.0 104 114 119 125 128 119 120 121 138 155
3530.0 139 155 161 173 231 265 298 413 610 1069
3570.0 2053 3184 3362 2472 1307 706 450 295 204 150
3610.0 170 124 126 103 83 136 107 74 81 104
3650.0 136 108 79 61 45 87 97 75 33 32
3690.0 73 47 47 52 45 68 83 49 67 90
3730.0 49 91 108 74 104 95 63 63 46 50
3770.0 52 51 39 43 36 33 28 55 60 37
3810.0 38 27 68 67 48 18 48 75 78 24
3850.0 41 105 65 30 81 72 70 42 67 74
3890.0 65 58 81 88 79 43 46 51 48 45
3930.0 47 88 52 48 68 60 45 43 51 56
##END=
