##TITLE=Benzyl alcohol, m-methoxy-.alpha.-undecyl
##JCAMP-DX=4.24
##DATA TYPE=INFRARED SPECTRUM
##ORIGIN=Sadtler Research Labs Under US-EPA Contract
##OWNER=NIST Standard Reference Data Program
##CAS REGISTRY NO=29665-46-1
##MOLFORM=C 19 H 32 O 2
##XUNITS=1/CM
##YUNITS=ABSORBANCE
##XFACTOR=1.0
##YFACTOR=0.000092560
##DELTAX=4.0
##FIRSTX=450.0
##LASTX=3966.0
##FIRSTY=0.000000
##MAXX=3966
##MINX=450
##MAXY=0.9256
##MINY=0
##NPOINTS=880
##XYDATA=(X++(Y..Y))
450.0 0 53 135 201 170 160 169 123 112 91
490.0 104 130 91 109 113 121 128 127 138 133
530.0 128 147 134 135 159 150 179 180 165 163
570.0 148 121 81 78 63 72 51 64 78 60
610.0 80 67 66 74 66 60 60 58 62 62
650.0 50 32 37 53 50 106 111 160 217 345
690.0 545 980 1436 1128 668 513 479 485 481 467
730.0 456 465 488 516 521 502 477 478 519 551
770.0 669 875 1087 1194 1198 999 666 445 326 266
810.0 226 197 187 186 186 191 205 231 282 349
850.0 440 516 562 580 605 640 695 681 607 510
890.0 417 348 306 279 257 237 240 235 241 239
930.0 243 243 238 237 241 259 278 312 347 371
970.0 381 400 434 483 540 612 700 762 808 875
1010.0 964 1065 1171 1300 1439 1589 1766 1974 2130 2189
1050.0 2102 1885 1584 1287 1064 916 824 746 677 617
1090.0 553 489 437 405 402 415 455 483 484 471
1130.0 480 544 665 862 1088 1263 1350 1333 1189 1004
1170.0 849 740 663 624 610 605 608 608 609 625
1210.0 656 702 763 863 1002 1194 1431 1683 1954 2289
1250.0 2682 3057 3318 3385 3209 2880 2555 2329 2220 2115
1290.0 1913 1643 1426 1313 1278 1275 1254 1181 1066 948
1330.0 866 832 841 863 892 919 928 910 896 877
1370.0 852 831 823 772 688 614 565 530 510 520
1410.0 548 617 742 927 1185 1482 1719 1831 1746 1709
1450.0 1855 2106 2262 2289 2239 2021 1820 1807 2053 2289
1490.0 2088 1517 998 657 484 377 300 267 247 227
1530.0 212 218 214 229 232 246 279 328 400 501
1570.0 683 940 1315 1703 1920 1981 2099 2292 2371 2140
1610.0 1683 1137 720 466 322 238 193 167 140 139
1650.0 122 136 110 110 114 134 150 187 228 282
1690.0 298 298 282 258 211 167 141 140 118 119
1730.0 117 125 106 104 102 104 97 92 91 83
1770.0 86 82 75 73 75 67 73 68 75 68
1810.0 73 74 76 76 83 83 83 84 87 91
1850.0 80 70 64 58 55 55 50 48 46 47
1890.0 50 49 51 59 63 73 81 94 89 84
1930.0 73 64 55 51 46 45 43 44 43 42
1970.0 44 48 45 47 47 50 54 53 54 52
2010.0 55 58 61 63 67 69 69 70 73 69
2050.0 66 65 63 66 66 64 66 69 66 65
2090.0 65 62 60 58 53 50 47 46 47 45
2130.0 41 43 44 42 44 46 45 47 46 43
2170.0 46 47 46 47 48 47 46 43 46 42
2210.0 42 39 41 37 36 34 36 34 33 33
2250.0 33 32 32 34 32 35 37 40 42 42
2290.0 44 50 52 56 60 59 61 63 71 64
2330.0 60 58 61 66 69 64 64 56 67 66
2370.0 63 62 68 63 59 53 51 52 55 54
2410.0 56 57 56 51 55 55 53 51 49 49
2450.0 50 53 50 51 52 53 54 54 60 58
2490.0 60 62 64 67 69 69 73 78 79 81
2530.0 81 81 84 84 84 83 86 87 88 87
2570.0 92 96 98 103 103 104 108 110 109 110
2610.0 114 118 116 120 120 125 127 128 133 138
2650.0 140 145 147 153 157 160 165 168 168 171
2690.0 169 162 162 160 158 162 164 170 175 178
2730.0 186 191 191 198 200 204 209 217 224 230
2770.0 242 256 274 295 321 346 379 410 449 493
2810.0 547 610 701 805 943 1141 1431 1762 2120 2597
2850.0 3235 3931 4489 4702 4456 3983 3535 3188 2986 2918
2890.0 2937 3071 3337 3717 4205 4795 5503 6372 7449 8697
2930.0 9751 10000 9309 8147 6834 5655 4811 4284 3927 3559
2970.0 3086 2495 1926 1530 1294 1162 1109 1108 1120 1114
3010.0 1034 880 744 677 646 628 611 583 564 546
3050.0 540 529 520 514 507 514 509 497 457 401
3090.0 343 296 260 232 213 189 163 149 130 117
3130.0 105 104 95 93 87 88 82 79 78 72
3170.0 69 68 66 66 61 59 54 51 47 49
3210.0 45 43 41 40 37 36 38 34 33 36
3250.0 34 33 35 33 34 35 38 38 37 36
3290.0 35 33 33 36 38 38 36 42 43 45
3330.0 46 44 53 50 57 60 59 61 59 62
3370.0 63 68 67 71 75 79 85 81 87 90
3410.0 91 95 98 102 106 113 118 116 120 130
3450.0 131 137 145 152 161 166 172 177 183 189
3490.0 192 208 211 214 219 226 229 233 234 242
3530.0 241 248 246 253 255 255 269 261 261 266
3570.0 281 285 280 284 282 290 287 289 297 296
3610.0 311 326 335 344 326 296 246 254 302 338
3650.0 297 225 170 134 102 94 68 65 57 55
3690.0 55 49 49 46 37 45 39 39 41 42
3730.0 39 41 51 37 56 33 39 47 38 37
3770.0 41 39 36 37 36 32 39 43 32 32
3810.0 38 36 32 42 38 45 49 49 38 48
3850.0 45 55 50 43 48 40 32 40 44 49
3890.0 38 44 38 52 39 43 44 40 42 56
3930.0 40 46 44 46 33 49 32 34 40 41
##END=
