##TITLE=2,6-Dichloro-3-nitrotoluene
##JCAMP-DX=4.24
##DATA TYPE=INFRARED SPECTRUM
##ORIGIN=Sadtler Research Labs Under US-EPA Contract
##OWNER=NIST Standard Reference Data Program
##CAS REGISTRY NO=29682-46-0
##MOLFORM=C 7 H 5 Cl 2 N O 2
##XUNITS=1/CM
##YUNITS=ABSORBANCE
##XFACTOR=1.0
##YFACTOR=0.000071799
##DELTAX=4.0
##FIRSTX=450.0
##LASTX=3966.0
##FIRSTY=0.008831
##MAXX=3966
##MINX=450
##MAXY=0.71799
##MINY=0
##NPOINTS=880
##XYDATA=(X++(Y..Y))
450.0 123 69 190 200 216 235 212 160 124 85
490.0 122 92 105 94 74 94 75 84 97 82
530.0 108 136 165 175 250 368 669 911 974 760
570.0 455 246 250 256 315 320 300 282 279 240
610.0 218 219 230 239 192 122 68 35 29 26
650.0 26 26 33 2 47 44 36 24 30 34
690.0 19 41 56 77 76 75 58 51 52 59
730.0 94 153 231 328 429 483 468 445 445 534
770.0 746 996 1155 1132 967 783 908 1705 2891 3367
810.0 3347 2572 2027 2165 1472 945 552 222 128 77
850.0 72 72 63 62 63 81 68 87 86 90
890.0 75 87 96 93 134 234 482 1027 1944 2606
930.0 2658 2009 1054 528 423 363 302 235 194 188
970.0 211 251 311 390 491 595 725 867 1023 1132
1010.0 1159 1073 930 758 625 539 493 481 474 473
1050.0 452 436 436 429 438 448 456 486 557 720
1090.0 1081 1757 2441 2646 2382 1550 747 373 207 148
1130.0 116 115 128 128 127 105 89 73 70 64
1170.0 58 68 82 125 225 358 439 451 381 297
1210.0 244 198 163 148 149 158 184 194 212 240
1250.0 316 438 600 735 778 713 543 394 310 296
1290.0 297 320 342 387 436 490 573 679 824 987
1330.0 1195 1502 2018 2785 3777 4944 6187 7127 7170 6229
1370.0 4405 2720 1725 1415 1485 1661 1798 1751 1627 1442
1410.0 1237 1025 884 832 908 1208 1671 2208 2409 2220
1450.0 1699 1220 921 791 707 658 640 621 637 616
1490.0 645 653 730 815 976 1256 1454 1778 2041 2451
1530.0 2902 3759 4917 6344 8103 9271 10000 9373 8648 7618
1570.0 6691 5765 4973 4439 4116 3788 3241 2520 1763 1173
1610.0 811 618 498 447 403 384 347 340 303 285
1650.0 221 193 141 124 108 97 80 82 76 75
1690.0 67 64 61 72 69 84 94 100 91 93
1730.0 95 94 83 66 86 99 123 120 127 109
1770.0 100 70 53 55 35 49 29 41 34 36
1810.0 19 29 26 21 25 20 29 17 30 28
1850.0 37 31 47 61 79 112 134 150 141 133
1890.0 98 72 47 34 22 17 19 13 14 11
1930.0 10 9 7 13 13 14 14 15 7 16
1970.0 13 13 16 17 15 14 16 8 9 8
2010.0 12 10 10 6 7 7 2 10 11 13
2050.0 9 14 15 15 15 15 17 12 16 10
2090.0 11 11 13 8 11 13 10 13 14 15
2130.0 14 11 11 13 13 14 11 11 15 16
2170.0 16 19 19 13 16 14 11 14 12 15
2210.0 8 9 8 6 7 6 9 5 8 6
2250.0 7 7 7 11 15 18 23 30 33 41
2290.0 44 49 54 63 65 72 71 74 83 77
2330.0 80 85 74 90 118 84 132 92 104 77
2370.0 69 59 62 58 33 20 16 10 11 13
2410.0 9 7 4 4 2 5 4 2 6 5
2450.0 11 14 17 20 24 27 29 33 30 23
2490.0 23 24 23 22 23 22 21 24 25 32
2530.0 30 35 28 27 25 26 25 23 24 20
2570.0 16 21 28 28 30 31 27 26 25 21
2610.0 18 16 22 21 21 24 20 27 30 30
2650.0 33 38 38 36 39 39 39 37 37 43
2690.0 45 48 54 56 59 60 62 60 62 49
2730.0 46 44 42 44 48 52 50 49 41 37
2770.0 35 34 31 37 36 41 39 39 39 38
2810.0 42 39 44 41 44 42 44 53 56 63
2850.0 73 85 98 116 132 148 166 173 176 182
2890.0 191 201 214 220 232 226 222 211 209 213
2930.0 226 261 305 345 360 358 329 286 250 217
2970.0 183 152 131 105 92 77 68 69 64 66
3010.0 63 62 58 63 72 77 80 80 89 88
3050.0 89 88 85 89 86 91 92 97 108 110
3090.0 106 94 77 65 48 35 35 32 27 29
3130.0 33 34 40 33 36 33 32 27 20 26
3170.0 22 20 18 20 15 16 23 23 16 18
3210.0 17 15 21 16 11 17 13 14 12 9
3250.0 11 13 4 10 13 16 10 9 14 13
3290.0 18 11 11 9 12 13 16 15 16 18
3330.0 13 20 17 16 14 12 13 19 13 10
3370.0 14 15 14 16 18 16 22 14 15 20
3410.0 20 26 26 27 25 17 8 18 16 12
3450.0 15 6 20 22 17 12 12 14 14 21
3490.0 11 15 18 19 18 18 18 13 20 19
3530.0 19 10 22 13 33 27 5 21 16 37
3570.0 27 19 20 10 29 38 29 24 19 23
3610.0 24 23 22 23 25 25 33 16 16 14
3650.0 32 20 11 21 12 45 0 19 14 35
3690.0 21 27 26 18 14 39 26 24 35 48
3730.0 30 47 42 25 42 6 24 6 11 17
3770.0 20 19 22 29 29 26 25 21 12 32
3810.0 6 33 19 30 11 13 22 30 19 20
3850.0 21 23 26 26 36 32 10 18 22 22
3890.0 25 35 16 43 14 19 4 25 21 20
3930.0 33 30 28 14 19 27 20 15 25 20
##END=
