##TITLE=Ethyl 4-bromobutyrate
##JCAMP-DX=4.24
##DATA TYPE=INFRARED SPECTRUM
##ORIGIN=Sadtler Research Labs Under US-EPA Contract
##OWNER=NIST Standard Reference Data Program
##CAS REGISTRY NO=2969-81-5
##MOLFORM=C 6 H 11 Br O 2
##XUNITS=1/CM
##YUNITS=ABSORBANCE
##XFACTOR=1.0
##YFACTOR=0.000077347
##DELTAX=4.0
##FIRSTX=450.0
##LASTX=3966.0
##FIRSTY=0.024055
##MAXX=3966
##MINX=450
##MAXY=0.77347
##MINY=0
##NPOINTS=880
##XYDATA=(X++(Y..Y))
450.0 311 182 161 138 29 190 133 120 93 151
490.0 112 102 116 67 95 50 87 60 77 62
530.0 86 48 103 111 108 204 228 391 438 581
570.0 567 508 349 258 221 154 151 162 179 173
610.0 193 170 156 140 134 133 144 149 130 145
650.0 184 215 236 206 213 184 117 80 70 48
690.0 48 40 34 12 28 10 21 9 2 33
730.0 31 46 35 52 44 77 92 115 148 202
770.0 269 330 403 456 431 457 442 416 368 329
810.0 266 221 171 173 196 191 157 230 290 370
850.0 455 537 575 591 570 527 509 471 398 306
890.0 236 206 192 203 217 223 238 240 243 245
930.0 269 272 284 283 276 270 282 303 335 376
970.0 414 454 464 405 374 379 379 410 429 496
1010.0 585 728 924 1180 1536 1972 2414 2728 2737 2545
1050.0 2243 1936 1761 1560 1336 1149 1039 1006 1032 1086
1090.0 1160 1322 1486 1619 1668 1724 1896 2182 2594 3178
1130.0 3753 4130 4205 4057 3900 3913 4081 4425 4901 5341
1170.0 5658 5837 6026 6192 6546 7108 7718 8179 8144 7486
1210.0 6522 5697 5149 4826 4540 4252 3961 3728 3608 3583
1250.0 3574 3498 3368 3173 2950 2744 2557 2456 2457 2447
1290.0 2428 2393 2331 2321 2353 2381 2302 2058 1697 1367
1330.0 1174 1116 1167 1296 1465 1632 1721 1675 1571 1614
1370.0 2034 2581 2796 2513 1901 1377 1112 966 857 765
1410.0 703 697 770 877 1016 1139 1218 1315 1428 1468
1450.0 1388 1227 1056 961 916 886 822 706 562 441
1490.0 359 287 236 193 183 162 147 136 139 125
1530.0 117 116 116 116 103 100 94 98 87 78
1570.0 80 79 87 68 60 53 53 48 49 47
1610.0 55 62 73 76 80 83 81 103 91 105
1650.0 105 131 119 112 126 127 148 153 191 204
1690.0 240 278 341 407 490 582 683 840 998 1302
1730.0 1745 2561 3762 5375 7242 8938 10000 9817 8636 6765
1770.0 4876 3340 2219 1577 1201 1019 961 967 1056 1153
1810.0 1252 1273 1265 1278 1174 998 931 677 431 277
1850.0 210 179 153 142 128 129 119 122 114 115
1890.0 111 111 106 101 101 95 97 90 93 87
1930.0 85 88 91 87 84 83 83 86 83 82
1970.0 77 86 83 90 88 88 88 91 90 86
2010.0 90 87 86 86 83 74 71 60 58 55
2050.0 49 45 44 51 62 69 70 62 65 63
2090.0 70 65 70 67 71 68 65 63 59 55
2130.0 60 62 61 60 55 61 55 56 54 53
2170.0 49 50 47 46 48 47 50 47 49 53
2210.0 54 51 50 57 59 62 63 66 66 65
2250.0 61 54 58 58 56 59 59 56 58 59
2290.0 60 66 75 75 78 83 85 86 83 91
2330.0 85 73 60 69 51 62 84 76 43 27
2370.0 12 7 14 29 35 45 48 49 51 48
2410.0 49 48 45 43 43 42 30 35 26 27
2450.0 27 25 26 23 26 28 32 33 25 24
2490.0 25 28 20 24 22 23 21 14 13 12
2530.0 12 12 12 7 8 2 3 8 8 7
2570.0 6 9 11 9 11 20 17 27 19 22
2610.0 40 28 40 40 43 42 39 50 49 47
2650.0 42 48 52 35 28 23 24 27 19 20
2690.0 21 32 23 21 12 7 9 12 14 14
2730.0 18 16 22 23 28 33 28 25 30 28
2770.0 43 52 53 54 57 62 70 72 65 68
2810.0 67 62 85 99 110 122 139 158 178 204
2850.0 236 279 303 351 399 430 479 547 588 658
2890.0 695 689 708 765 856 964 1046 1159 1263 1319
2930.0 1377 1468 1596 1755 1898 1977 1980 1937 1967 2070
2970.0 2238 2433 2700 3089 3419 3449 3056 2453 2029 1725
3010.0 1445 1213 997 819 620 472 357 274 214 175
3050.0 139 123 95 74 75 63 54 58 49 47
3090.0 46 49 54 58 48 42 44 38 35 41
3130.0 49 54 47 33 37 45 25 31 23 37
3170.0 41 31 27 19 26 22 43 36 32 30
3210.0 40 1 16 6 40 25 27 33 40 17
3250.0 30 18 9 40 38 23 21 23 11 16
3290.0 28 11 32 27 17 33 25 25 35 6
3330.0 23 20 34 33 21 26 33 26 22 41
3370.0 34 30 23 34 35 26 19 41 34 35
3410.0 38 24 42 34 41 30 40 49 49 44
3450.0 46 46 43 50 54 98 87 68 103 107
3490.0 147 104 137 121 103 86 85 54 50 64
3530.0 68 67 40 39 28 56 49 36 35 45
3570.0 46 74 58 64 44 46 46 50 63 54
3610.0 76 63 59 47 38 39 55 38 69 64
3650.0 65 82 87 72 63 56 73 65 58 65
3690.0 51 66 40 38 39 35 28 12 29 39
3730.0 21 0 13 40 7 1 25 5 21 15
3770.0 51 14 5 38 1 60 16 32 28 7
3810.0 13 24 1 2 35 8 50 11 29 0
3850.0 4 45 18 49 39 1 1 6 49 39
3890.0 10 6 37 31 15 17 57 41 47 80
3930.0 1 26 34 34 63 44 24 0 37 28
##END=
