##TITLE=2-Methylmercaptoaniline
##JCAMP-DX=4.24
##DATA TYPE=INFRARED SPECTRUM
##ORIGIN=Sadtler Research Labs Under US-EPA Contract
##OWNER=NIST Standard Reference Data Program
##CAS REGISTRY NO=2987-53-3
##MOLFORM=C 7 H 9 N S
##XUNITS=1/CM
##YUNITS=ABSORBANCE
##XFACTOR=1.0
##YFACTOR=0.000092844
##DELTAX=4.0
##FIRSTX=450.0
##LASTX=3966.0
##FIRSTY=0.132209
##MAXX=3966
##MINX=450
##MAXY=0.92844
##MINY=0
##NPOINTS=880
##XYDATA=(X++(Y..Y))
450.0 1424 1356 1170 953 866 642 533 300 354 0
490.0 269 355 221 374 478 539 535 550 584 555
530.0 617 525 624 663 560 543 464 465 428 407
570.0 390 399 493 522 553 531 499 620 600 595
610.0 607 576 568 579 540 551 505 470 459 439
650.0 461 434 426 442 458 574 617 649 627 564
690.0 493 390 392 406 420 489 603 803 1286 2118
730.0 3089 4211 5375 7515 6974 5181 4254 3104 1986 1225
770.0 897 702 616 560 518 474 503 494 473 489
810.0 493 484 489 506 470 432 391 347 319 300
850.0 250 200 194 162 128 121 117 94 88 96
890.0 93 86 79 87 90 95 104 127 148 173
930.0 224 250 218 205 229 262 362 530 797 991
970.0 1067 995 816 568 367 237 178 164 163 174
1010.0 228 323 473 593 661 694 668 550 431 340
1050.0 281 250 237 242 268 313 384 476 555 626
1090.0 645 611 523 406 291 206 162 139 151 195
1130.0 273 400 566 680 830 1098 1147 974 875 692
1170.0 397 156 57 26 19 22 32 42 41 52
1210.0 53 59 68 100 147 234 372 576 782 904
1250.0 951 962 848 670 575 571 680 945 1413 2053
1290.0 2674 3119 3361 3454 3163 2602 2222 1880 1366 932
1330.0 571 323 191 150 135 132 136 134 147 167
1370.0 188 218 243 260 257 258 241 247 282 338
1410.0 412 516 626 789 961 1199 1532 2046 2632 3026
1450.0 2909 3002 2961 2607 2888 3803 4858 5367 5290 5188
1490.0 4032 2674 1780 1299 1031 856 729 598 512 468
1530.0 434 436 444 478 534 625 713 825 978 1133
1570.0 1293 1482 1719 1986 2373 2969 3944 5389 7157 8897
1610.0 9734 10000 9423 7802 5862 4106 2771 1854 1318 963
1650.0 748 629 558 516 496 485 455 438 385 345
1690.0 293 257 216 194 175 179 167 148 152 144
1730.0 129 119 131 128 130 141 162 188 207 233
1770.0 242 242 235 216 202 189 187 190 189 186
1810.0 171 158 146 125 123 117 122 127 137 145
1850.0 159 173 182 185 183 183 194 208 233 269
1890.0 294 297 283 261 235 223 237 258 267 251
1930.0 226 182 139 96 82 81 77 78 85 79
1970.0 88 85 86 86 88 84 87 93 94 89
2010.0 92 91 88 88 89 87 83 77 72 69
2050.0 69 66 69 77 78 77 75 71 65 61
2090.0 60 59 66 71 76 80 85 84 87 87
2130.0 87 94 86 91 91 85 82 83 85 85
2170.0 80 81 74 68 67 69 66 65 58 62
2210.0 60 56 51 49 50 52 52 51 52 57
2250.0 56 59 64 62 64 70 75 80 77 71
2290.0 68 62 55 56 57 46 55 62 55 58
2330.0 59 66 67 89 71 51 28 36 64 100
2370.0 109 109 93 78 69 72 72 76 81 79
2410.0 75 73 65 63 63 62 65 67 68 73
2450.0 78 72 69 69 64 51 47 41 36 35
2490.0 37 37 31 35 35 36 37 45 54 64
2530.0 72 81 85 87 90 84 71 62 57 53
2570.0 50 46 50 60 76 82 102 119 123 128
2610.0 128 121 103 90 75 67 55 57 56 50
2650.0 43 37 36 27 24 30 32 38 41 38
2690.0 45 48 47 48 47 42 43 48 41 47
2730.0 58 57 61 64 67 68 58 63 65 62
2770.0 59 64 57 49 50 55 62 61 68 71
2810.0 79 96 121 139 182 229 299 370 447 499
2850.0 506 489 460 435 411 408 400 395 390 371
2890.0 352 320 324 324 346 413 575 890 1397 2129
2930.0 2535 2868 2452 2014 1373 745 466 339 291 275
2970.0 289 330 393 507 666 904 1075 1170 1214 1219
3010.0 1243 1328 1493 1559 1567 1529 1339 1105 971 941
3050.0 1016 1222 1502 1884 2331 2743 2891 2794 2507 2007
3090.0 1408 875 576 423 337 286 238 217 217 209
3130.0 208 205 200 189 187 182 156 144 138 125
3170.0 119 121 117 112 120 105 93 85 75 69
3210.0 60 63 58 54 50 45 39 42 30 43
3250.0 49 43 53 40 29 37 41 44 42 39
3290.0 41 60 39 37 49 43 37 46 53 60
3330.0 57 68 70 76 100 123 154 250 364 560
3370.0 777 1081 1363 1539 1568 1462 1227 933 654 447
3410.0 339 272 216 185 171 160 165 157 159 166
3450.0 199 226 268 341 450 612 851 1166 1515 1763
3490.0 1845 1776 1549 1234 901 655 470 347 265 220
3530.0 170 152 141 119 116 99 104 86 65 56
3570.0 49 62 65 50 33 43 46 45 39 42
3610.0 47 22 42 70 33 53 80 70 56 64
3650.0 49 53 57 60 39 46 75 39 36 59
3690.0 58 75 85 89 81 45 59 63 45 49
3730.0 51 72 78 51 55 59 56 50 37 70
3770.0 54 57 83 37 47 54 49 53 71 57
3810.0 66 44 48 53 51 43 49 63 61 75
3850.0 86 64 76 102 59 82 48 53 61 84
3890.0 49 89 130 93 120 101 73 77 92 55
3930.0 45 28 43 44 57 48 38 40 92 88
##END=
