##TITLE=Cyclobutane, 1,1,2,2,3,4-hexafluoro-3,4-bis(trifluoromethyl)-
##JCAMP-DX=4.24
##DATA TYPE=INFRARED SPECTRUM
##ORIGIN=Sadtler Research Labs Under US-EPA Contract
##OWNER=NIST Standard Reference Data Program
##CAS REGISTRY NO=2994-71-0
##MOLFORM=C 6 F 12
##XUNITS=1/CM
##YUNITS=ABSORBANCE
##XFACTOR=1.0
##YFACTOR=0.000099738
##DELTAX=4.0
##FIRSTX=450.0
##LASTX=3966.0
##FIRSTY=0.004887
##MAXX=3966
##MINX=450
##MAXY=0.99738
##MINY=0
##NPOINTS=880
##XYDATA=(X++(Y..Y))
450.0 49 72 57 81 121 82 54 24 15 34
490.0 52 29 39 39 40 44 123 168 245 273
530.0 250 199 136 126 109 97 76 72 54 35
570.0 72 72 94 88 80 77 103 156 213 273
610.0 354 490 504 385 202 92 90 101 115 117
650.0 131 102 59 34 21 28 33 27 30 32
690.0 31 15 9 40 59 53 99 268 541 788
730.0 885 808 717 657 613 432 190 48 30 14
770.0 17 16 7 9 0 15 14 17 6 4
810.0 10 19 19 18 20 31 43 64 89 101
850.0 118 183 262 366 508 806 1352 1896 2002 1558
890.0 1098 1052 1309 1743 2083 1912 1290 651 312 174
930.0 119 93 86 84 103 104 89 73 58 54
970.0 54 51 57 68 79 99 127 148 182 205
1010.0 213 205 205 204 217 251 335 452 536 517
1050.0 453 454 547 685 712 553 367 252 212 214
1090.0 223 236 250 241 222 185 151 126 123 127
1130.0 123 105 96 99 107 118 133 166 216 291
1170.0 385 554 916 1496 2083 2425 2495 2490 2520 2837
1210.0 3583 4435 4557 3844 2906 2343 2204 2496 3255 4685
1250.0 6915 9157 10000 8862 7253 5712 4475 3785 3552 3644
1290.0 3957 4461 4515 3818 2832 2313 2337 2436 2361 2059
1330.0 1797 1782 1990 2151 2088 1780 1382 1061 856 795
1370.0 892 1146 1385 1414 1154 774 473 290 188 134
1410.0 107 89 80 71 69 65 63 60 59 59
1450.0 57 56 52 53 51 53 53 53 53 54
1490.0 53 46 40 43 40 35 31 35 34 34
1530.0 34 32 32 29 28 27 24 22 28 23
1570.0 23 21 19 17 17 22 18 19 23 22
1610.0 23 19 18 13 13 15 15 14 13 14
1650.0 15 14 15 13 15 12 15 15 13 15
1690.0 17 18 17 14 15 13 14 17 13 14
1730.0 12 15 15 12 11 14 12 12 14 13
1770.0 11 14 11 12 13 14 14 18 16 15
1810.0 16 15 14 16 13 15 16 16 16 14
1850.0 14 11 10 7 9 10 11 12 11 13
1890.0 11 11 9 12 12 12 13 13 16 13
1930.0 15 15 17 16 17 17 14 16 14 11
1970.0 12 12 8 9 10 12 13 14 13 12
2010.0 15 11 14 10 8 11 9 10 10 11
2050.0 12 13 13 15 15 17 15 16 16 15
2090.0 18 12 16 17 12 13 15 15 17 17
2130.0 15 15 15 12 12 13 13 15 12 11
2170.0 13 11 9 12 11 8 10 11 12 11
2210.0 9 9 13 11 11 15 13 14 12 15
2250.0 12 16 20 17 21 19 18 21 19 25
2290.0 23 27 25 24 25 26 22 21 21 14
2330.0 17 14 3 12 27 15 18 14 15 11
2370.0 25 29 27 31 31 30 27 29 29 32
2410.0 34 31 33 33 32 36 38 41 40 39
2450.0 37 36 34 32 31 32 30 27 22 23
2490.0 23 22 21 19 23 26 23 20 22 21
2530.0 23 22 20 21 20 21 22 18 20 21
2570.0 19 19 15 17 15 15 14 14 11 14
2610.0 11 10 6 10 11 12 11 13 16 15
2650.0 14 16 11 10 6 7 8 6 5 3
2690.0 4 4 3 5 4 5 3 3 7 6
2730.0 6 2 1 0 4 2 4 3 3 5
2770.0 4 6 5 5 7 4 6 6 6 7
2810.0 3 6 3 5 6 5 5 5 6 9
2850.0 7 5 7 5 7 8 7 7 7 8
2890.0 6 8 9 5 6 8 6 7 9 6
2930.0 3 2 4 5 7 6 6 6 4 7
2970.0 10 10 12 8 6 7 8 11 8 5
3010.0 8 5 5 12 8 4 6 8 7 10
3050.0 9 7 12 8 6 9 8 8 10 6
3090.0 5 9 9 13 9 6 10 10 9 7
3130.0 9 7 8 4 6 8 10 10 6 10
3170.0 7 10 9 10 9 11 4 5 6 6
3210.0 8 9 10 7 7 5 5 7 11 10
3250.0 13 7 3 10 15 8 10 13 6 10
3290.0 6 5 12 7 12 9 12 12 4 7
3330.0 10 7 11 8 13 13 14 12 12 11
3370.0 15 7 15 12 14 13 12 6 14 10
3410.0 9 12 8 13 10 9 10 8 8 7
3450.0 10 8 12 14 12 12 17 9 12 12
3490.0 11 8 10 11 17 12 11 12 18 12
3530.0 13 10 10 10 14 14 14 15 16 21
3570.0 10 11 9 16 13 15 9 14 15 6
3610.0 9 9 15 9 9 9 15 15 4 0
3650.0 7 14 17 16 11 15 10 10 9 11
3690.0 7 2 12 11 6 11 17 13 16 12
3730.0 5 8 10 7 18 23 15 15 17 12
3770.0 6 6 9 11 13 12 12 3 11 15
3810.0 11 26 10 12 10 4 16 16 14 15
3850.0 9 9 16 23 22 18 3 20 17 14
3890.0 2 12 15 11 11 23 10 17 11 20
3930.0 20 12 16 9 0 5 6 21 10 6
##END=
