##TITLE=Benzene, 2-propenyl-
##JCAMP-DX=4.24
##DATA TYPE=INFRARED SPECTRUM
##ORIGIN=Sadtler Research Labs Under US-EPA Contract
##OWNER=NIST Standard Reference Data Program
##CAS REGISTRY NO=300-57-2
##MOLFORM=C 9 H 10
##XUNITS=1/CM
##YUNITS=ABSORBANCE
##XFACTOR=1.0
##YFACTOR=0.000046689
##DELTAX=4.0
##FIRSTX=450.0
##LASTX=3966.0
##FIRSTY=0.000000
##MAXX=3966
##MINX=450
##MAXY=0.46689
##MINY=0
##NPOINTS=880
##XYDATA=(X++(Y..Y))
450.0 0 309 497 562 867 928 1411 1562 2197 2212
490.0 1891 1781 1312 832 741 608 734 656 819 994
530.0 330 699 514 512 474 459 424 559 469 442
570.0 333 413 153 327 211 254 270 280 295 359
610.0 421 509 616 692 738 860 1148 1370 1667 1804
650.0 1873 1790 1584 1336 1174 1486 1817 2627 3619 5173
690.0 6658 8406 10000 9143 7903 6822 5729 4953 4802 5226
730.0 6132 7300 8475 7903 6598 5354 3943 2656 1748 1204
770.0 832 487 539 428 452 468 503 536 557 611
810.0 553 561 677 838 673 621 532 511 502 526
850.0 540 539 562 610 697 772 894 1023 1241 1543
890.0 1966 2476 3148 4086 5461 7223 7711 7531 7348 5617
930.0 3886 2830 2182 1847 1550 1385 1268 1233 1246 1291
970.0 1400 1612 1998 2710 3612 3996 4035 3951 3340 2322
1010.0 1762 1459 1417 1673 1973 1942 1768 1679 1196 836
1050.0 780 846 1004 1172 1290 1324 1300 1194 1087 984
1090.0 927 911 936 951 970 933 916 835 739 631
1130.0 544 484 489 514 578 677 786 887 931 940
1170.0 897 899 899 902 940 927 951 889 861 778
1210.0 622 521 439 420 430 459 489 507 511 530
1250.0 537 518 533 569 626 696 779 871 936 961
1290.0 930 893 829 763 713 650 592 541 505 485
1330.0 484 487 488 471 451 433 423 402 397 409
1370.0 423 439 441 445 470 495 529 603 692 811
1410.0 948 1077 1176 1338 1500 1748 2080 2427 2717 2859
1450.0 2854 2504 2293 2122 1690 1309 1033 907 1042 1757
1490.0 3114 4130 4067 4045 3353 1774 856 607 550 552
1530.0 523 505 481 507 468 432 440 462 495 511
1570.0 570 626 745 853 1057 1361 1885 2565 3027 3098
1610.0 2875 2465 1865 1477 1488 1881 2531 3152 3301 3167
1650.0 2811 1983 1190 813 641 557 498 448 442 444
1690.0 484 552 725 936 1148 1219 1251 1132 926 818
1730.0 787 788 695 717 834 892 859 716 576 520
1770.0 500 494 466 488 582 713 833 880 882 836
1810.0 718 631 636 731 878 1020 1061 1068 1020 893
1850.0 752 671 623 593 589 582 558 538 520 477
1890.0 442 401 374 341 327 321 331 351 395 460
1930.0 545 632 665 687 756 776 713 616 550 454
1970.0 345 299 299 289 281 253 236 216 199 198
2010.0 188 183 175 186 181 174 175 177 169 166
2050.0 161 158 161 160 164 158 161 161 166 172
2090.0 177 177 181 184 189 181 177 180 174 175
2130.0 168 172 166 168 166 158 147 147 149 156
2170.0 161 158 168 174 168 174 175 178 183 184
2210.0 189 190 193 194 188 184 181 190 190 184
2250.0 190 179 181 179 177 176 175 174 167 163
2290.0 153 150 147 154 169 160 170 171 172 151
2330.0 176 226 236 250 357 219 174 157 319 379
2370.0 384 361 351 295 254 211 201 203 197 203
2410.0 205 204 202 192 184 178 173 178 173 175
2450.0 181 177 171 175 180 180 191 190 201 202
2490.0 202 204 200 201 204 209 201 202 205 206
2530.0 197 200 199 193 209 200 200 194 205 209
2570.0 200 210 221 219 231 232 232 224 231 230
2610.0 231 219 230 217 236 243 244 229 225 224
2650.0 213 202 189 196 193 198 201 205 203 223
2690.0 224 230 250 264 280 289 310 317 347 343
2730.0 337 348 357 330 316 298 273 263 253 256
2770.0 252 258 275 302 319 344 363 406 410 431
2810.0 459 474 531 598 707 843 1006 1191 1359 1501
2850.0 1565 1555 1524 1447 1366 1311 1259 1256 1321 1435
2890.0 1639 1920 2303 2848 3428 3956 4360 4521 4486 4232
2930.0 3863 3425 2954 2551 2201 1921 1690 1540 1424 1401
2970.0 1462 1645 1985 2462 2838 2985 3000 2869 2769 3039
3010.0 3609 4209 4834 5530 6580 7618 8254 8597 8472 7484
3050.0 5930 4936 4871 5734 7154 8450 8965 9418 9370 8656
3090.0 8057 7096 6233 5129 3798 2850 2179 1733 1325 942
3130.0 698 527 456 401 387 339 324 328 329 331
3170.0 327 304 278 253 244 223 202 205 221 204
3210.0 204 231 220 213 222 203 203 182 194 189
3250.0 189 206 199 163 160 227 198 179 181 199
3290.0 167 157 199 159 179 205 194 204 186 213
3330.0 181 179 186 194 168 204 196 185 174 185
3370.0 169 188 190 181 193 194 192 186 183 208
3410.0 194 212 194 199 225 193 218 186 166 210
3450.0 199 214 216 239 252 233 200 231 206 172
3490.0 241 217 259 247 243 174 166 202 193 208
3530.0 150 182 200 225 273 233 216 245 204 193
3570.0 215 224 246 245 248 245 246 237 253 209
3610.0 226 226 282 278 274 264 305 318 352 360
3650.0 384 372 370 368 337 314 285 284 299 243
3690.0 276 321 258 278 259 265 328 314 247 312
3730.0 306 315 368 284 298 248 328 254 296 271
3770.0 343 282 242 317 296 328 298 308 274 328
3810.0 329 314 305 355 281 360 326 268 326 292
3850.0 288 334 252 255 348 301 265 342 302 528
3890.0 338 368 227 405 217 359 322 338 252 286
3930.0 264 227 209 314 336 328 373 310 205 267
##END=
