##TITLE=Benzenamine, N-dodecyl-
##JCAMP-DX=4.24
##DATA TYPE=INFRARED SPECTRUM
##ORIGIN=Sadtler Research Labs Under US-EPA Contract
##OWNER=NIST Standard Reference Data Program
##CAS REGISTRY NO=3007-74-7
##MOLFORM=C 18 H 31 N
##XUNITS=1/CM
##YUNITS=ABSORBANCE
##XFACTOR=1.0
##YFACTOR=0.000117853
##DELTAX=4.0
##FIRSTX=450.0
##LASTX=3966.0
##FIRSTY=0.050795
##MAXX=3966
##MINX=450
##MAXY=1.17853
##MINY=0
##NPOINTS=880
##XYDATA=(X++(Y..Y))
450.0 431 196 9 113 135 54 154 79 157 196
490.0 144 212 270 267 244 187 154 148 160 126
530.0 105 96 48 97 111 128 131 142 128 103
570.0 95 143 107 71 74 83 75 72 49 74
610.0 98 82 101 140 133 119 108 120 140 170
650.0 184 182 213 214 225 285 358 409 590 818
690.0 987 880 691 564 482 454 438 435 457 511
730.0 607 755 971 1309 1413 1300 998 666 492 358
770.0 297 236 185 114 105 110 110 67 69 51
810.0 59 53 55 66 75 56 63 40 50 49
850.0 32 53 60 104 151 131 104 62 31 48
890.0 43 33 22 23 23 10 21 13 13 12
930.0 5 6 4 15 23 29 17 19 22 13
970.0 26 46 36 33 54 101 140 137 100 58
1010.0 41 35 49 73 115 121 115 126 118 110
1050.0 140 157 179 221 239 242 228 230 221 241
1090.0 256 266 264 227 209 207 203 198 205 198
1130.0 215 223 216 189 201 207 216 210 209 188
1170.0 224 302 369 370 316 249 213 208 215 218
1210.0 230 199 237 266 313 365 470 617 849 1137
1250.0 1356 1412 1279 1130 1024 951 878 788 748 770
1290.0 839 924 1045 1151 1271 1328 1346 1284 1091 895
1330.0 686 555 458 422 425 433 444 447 440 452
1370.0 427 386 358 306 292 245 215 187 196 218
1410.0 224 290 334 468 567 675 637 553 521 548
1450.0 658 760 901 1011 1030 1053 1060 1072 1098 1159
1490.0 1402 1826 2705 3490 3685 2780 1803 1158 744 566
1530.0 379 343 285 306 253 227 263 270 304 247
1570.0 277 364 433 672 861 1295 1977 2450 3196 3015
1610.0 2431 1768 1185 811 497 366 250 187 185 125
1650.0 160 143 106 101 103 113 100 99 66 104
1690.0 64 74 96 112 72 51 58 74 56 50
1730.0 62 70 82 80 64 85 73 66 63 43
1770.0 43 55 38 26 23 38 39 35 14 44
1810.0 44 33 48 34 56 53 48 31 17 35
1850.0 5 19 16 16 20 12 18 6 25 12
1890.0 25 44 44 39 70 73 76 68 52 56
1930.0 62 38 18 14 19 10 20 7 1 5
1970.0 10 0 4 3 12 12 15 9 7 13
2010.0 21 20 16 10 20 25 25 24 9 19
2050.0 18 16 14 11 16 18 18 17 10 20
2090.0 10 8 9 10 11 14 12 13 13 12
2130.0 8 13 11 9 13 8 10 9 9 12
2170.0 10 10 12 9 8 9 13 10 8 6
2210.0 7 4 4 2 6 7 6 12 0 4
2250.0 10 12 9 12 13 9 14 15 12 15
2290.0 18 15 11 15 22 20 25 24 25 16
2330.0 8 20 6 22 1 26 23 29 25 9
2370.0 22 17 10 11 11 15 15 19 17 17
2410.0 16 16 17 15 17 14 12 15 15 13
2450.0 16 11 11 14 11 13 12 9 15 14
2490.0 15 16 13 17 21 23 23 24 26 27
2530.0 36 36 42 45 47 50 53 54 55 62
2570.0 56 59 56 54 52 53 48 47 51 51
2610.0 52 52 53 53 57 58 61 69 66 69
2650.0 76 77 84 87 89 94 99 105 108 108
2690.0 111 108 106 102 103 102 103 105 101 101
2730.0 108 109 117 116 119 122 121 128 131 132
2770.0 140 148 158 171 188 210 228 254 278 299
2810.0 335 371 418 463 525 600 695 819 982 1226
2850.0 1613 2229 3075 3806 3957 3548 3009 2573 2318 2138
2890.0 1999 1949 2040 2270 2642 3134 3746 4579 5800 7487
2930.0 9238 10000 9366 7845 6137 4685 3645 3030 2769 2673
2970.0 2493 2078 1551 1142 879 714 606 538 503 496
3010.0 529 560 614 670 696 668 594 546 530 566
3050.0 660 778 886 892 784 637 547 506 507 505
3090.0 479 425 358 307 266 222 191 157 126 103
3130.0 83 72 60 51 46 44 40 35 38 42
3170.0 39 33 32 34 30 25 31 30 22 25
3210.0 26 24 24 21 15 20 16 18 22 19
3250.0 14 15 15 10 9 14 15 16 19 14
3290.0 12 10 13 12 9 19 10 12 11 11
3330.0 11 9 19 19 15 5 12 12 19 9
3370.0 18 27 23 26 28 27 35 38 43 48
3410.0 65 73 89 116 128 143 136 123 126 120
3450.0 107 99 84 73 64 56 52 41 41 30
3490.0 27 26 21 20 16 23 12 18 14 10
3530.0 17 15 17 13 9 9 13 14 4 15
3570.0 18 24 12 9 18 22 32 7 24 19
3610.0 32 34 34 34 29 48 41 16 24 40
3650.0 41 67 7 44 2 61 44 65 30 25
3690.0 64 27 15 10 23 34 31 30 24 19
3730.0 28 42 38 29 76 52 53 27 10 32
3770.0 21 36 16 24 22 22 35 40 29 57
3810.0 13 48 18 76 23 36 37 57 55 18
3850.0 56 64 58 33 47 61 30 41 34 72
3890.0 57 48 42 50 63 25 33 32 50 64
3930.0 38 48 51 40 28 44 73 37 61 62
##END=
