##TITLE=1H-Indene-5-carboxaldehyde, 2,3-dihydro-
##JCAMP-DX=4.24
##DATA TYPE=INFRARED SPECTRUM
##ORIGIN=Sadtler Research Labs Under US-EPA Contract
##OWNER=NIST Standard Reference Data Program
##CAS REGISTRY NO=30084-91-4
##MOLFORM=C 10 H 10 O
##XUNITS=1/CM
##YUNITS=ABSORBANCE
##XFACTOR=1.0
##YFACTOR=0.000134323
##DELTAX=4.0
##FIRSTX=450.0
##LASTX=3966.0
##FIRSTY=0.002015
##MAXX=3966
##MINX=450
##MAXY=1.34323
##MINY=0
##NPOINTS=880
##XYDATA=(X++(Y..Y))
450.0 15 30 46 76 74 107 104 74 92 94
490.0 105 92 138 176 231 235 228 101 29 193
530.0 113 103 233 215 241 241 192 160 127 127
570.0 138 125 142 158 181 218 226 231 250 244
610.0 246 263 277 280 282 276 244 204 178 181
650.0 209 207 196 170 131 122 118 139 169 226
690.0 262 214 228 266 253 190 141 350 364 290
730.0 236 216 261 299 374 423 447 485 647 966
770.0 1277 1428 1422 1186 864 642 507 504 594 731
810.0 920 1147 1018 1039 861 623 470 324 234 184
850.0 170 174 189 210 237 288 281 270 230 198
890.0 190 181 183 191 214 198 191 206 197 190
930.0 223 279 337 378 336 235 133 60 36 50
970.0 107 181 276 371 455 538 578 506 460 534
1010.0 599 611 598 560 501 489 528 528 496 462
1050.0 410 331 321 336 403 504 683 862 991 1046
1090.0 979 828 665 570 579 630 689 750 801 836
1130.0 872 835 717 627 591 545 571 633 659 622
1170.0 528 410 349 361 387 369 333 270 209 226
1210.0 297 398 536 805 1390 2073 2320 2187 1868 1294
1250.0 982 947 1000 1062 1108 1098 1019 920 838 809
1290.0 811 782 730 670 596 546 530 560 559 539
1330.0 512 440 367 306 271 268 278 308 348 385
1370.0 452 529 588 686 755 709 667 579 454 412
1410.0 423 451 567 670 809 887 912 911 924 751
1450.0 670 589 539 478 443 414 404 368 322 326
1490.0 315 240 200 146 123 111 65 55 63 38
1530.0 41 38 50 76 78 73 107 178 236 347
1570.0 525 701 818 839 752 670 630 719 892 1091
1610.0 1209 1169 1032 809 591 410 326 252 195 171
1650.0 176 167 158 172 214 273 361 435 590 770
1690.0 975 1221 1619 2286 3505 5448 7887 9971 10000 8637
1730.0 5749 2748 1295 752 547 470 434 427 414 363
1770.0 314 272 232 217 202 198 202 204 220 201
1810.0 185 159 127 99 78 64 46 35 42 52
1850.0 44 40 49 55 62 78 72 78 89 93
1890.0 99 97 84 77 71 68 61 54 52 37
1930.0 28 25 21 24 20 13 14 15 18 24
1970.0 22 15 18 16 16 26 27 22 21 21
2010.0 20 20 20 17 14 14 12 13 14 12
2050.0 11 11 12 14 18 14 16 14 13 10
2090.0 7 8 5 5 4 7 6 9 8 7
2130.0 5 2 1 4 7 4 8 9 10 11
2170.0 10 8 8 7 9 8 11 9 13 14
2210.0 16 17 20 19 20 21 22 22 27 33
2250.0 40 54 74 99 134 166 183 174 144 116
2290.0 93 76 63 56 50 44 37 27 28 25
2330.0 24 21 12 27 27 24 19 24 21 18
2370.0 13 12 11 12 4 1 1 2 1 1
2410.0 1 3 3 2 5 3 1 3 1 3
2450.0 1 3 6 5 9 7 7 4 6 4
2490.0 4 5 4 6 7 6 7 10 11 13
2530.0 14 13 14 10 10 10 12 8 8 8
2570.0 7 8 10 14 21 27 32 30 27 18
2610.0 15 12 13 14 14 16 19 25 27 29
2650.0 34 34 37 43 52 64 84 104 123 149
2690.0 192 266 375 548 803 1114 1330 1494 1651 1584
2730.0 1403 1170 903 630 421 294 238 219 244 308
2770.0 401 503 573 596 631 632 669 797 980 1134
2810.0 1243 1281 1194 1070 905 730 580 492 500 607
2850.0 795 958 1023 1001 928 818 779 781 779 782
2890.0 762 760 824 909 976 1003 1000 994 1004 1036
2930.0 1077 1148 1246 1393 1610 1883 2175 2475 2723 2847
2970.0 2788 2402 1889 1386 873 556 396 341 325 351
3010.0 397 451 469 488 481 453 425 410 407 401
3050.0 396 391 382 366 343 332 318 301 275 240
3090.0 201 177 157 142 129 111 92 71 54 43
3130.0 33 27 21 18 18 18 16 15 15 15
3170.0 13 14 14 14 13 17 10 10 9 11
3210.0 9 11 15 14 15 18 14 15 14 13
3250.0 17 13 11 15 17 12 13 12 13 14
3290.0 14 16 14 13 14 20 16 16 20 21
3330.0 19 19 19 17 14 15 13 11 13 20
3370.0 18 17 24 28 34 38 45 59 80 104
3410.0 122 132 122 108 83 64 47 33 25 11
3450.0 6 1 7 11 12 10 14 14 16 19
3490.0 13 12 11 16 16 16 13 9 6 9
3530.0 10 12 15 13 17 20 14 13 15 17
3570.0 18 24 29 41 48 41 35 18 12 11
3610.0 20 16 17 11 10 20 20 20 20 13
3650.0 15 12 16 12 11 14 12 6 13 14
3690.0 12 11 11 13 12 6 16 14 10 11
3730.0 10 5 12 8 5 9 4 12 10 13
3770.0 11 15 15 11 14 7 13 14 10 11
3810.0 5 12 18 16 8 12 13 4 9 12
3850.0 9 1 8 9 17 15 9 6 9 8
3890.0 7 9 6 16 7 12 5 12 8 8
3930.0 9 17 14 0 9 15 7 6 16 14
##END=
