##TITLE=Benzoic acid, 2-amino-, pentyl ester
##JCAMP-DX=4.24
##DATA TYPE=INFRARED SPECTRUM
##ORIGIN=Sadtler Research Labs Under US-EPA Contract
##OWNER=NIST Standard Reference Data Program
##CAS REGISTRY NO=30100-15-3
##MOLFORM=C 12 H 17 N O 2
##XUNITS=1/CM
##YUNITS=ABSORBANCE
##XFACTOR=1.0
##YFACTOR=0.000157022
##DELTAX=4.0
##FIRSTX=450.0
##LASTX=3966.0
##FIRSTY=0.000000
##MAXX=3966
##MINX=450
##MAXY=1.57022
##MINY=0
##NPOINTS=880
##XYDATA=(X++(Y..Y))
450.0 0 234 342 375 358 403 366 441 365 430
490.0 470 497 504 569 601 649 737 776 813 726
530.0 690 634 559 429 492 499 483 520 441 417
570.0 345 345 335 326 303 277 275 281 294 292
610.0 304 317 310 324 318 355 357 365 349 353
650.0 383 414 449 532 629 708 671 543 504 513
690.0 632 752 855 855 688 573 468 424 388 451
730.0 511 634 991 1480 1920 2010 1530 1014 672 464
770.0 391 338 339 322 294 289 320 333 311 325
810.0 309 308 318 325 333 335 360 369 403 419
850.0 438 418 388 359 345 322 284 276 246 245
890.0 237 232 229 221 224 207 214 202 209 197
930.0 193 189 191 204 212 231 231 277 315 374
970.0 408 428 409 366 336 308 298 291 300 294
1010.0 311 325 353 406 469 552 591 593 548 530
1050.0 533 598 738 944 1203 1402 1552 1632 1763 1989
1090.0 2415 3041 3843 4632 5003 4783 3814 2827 2041 1569
1130.0 1253 1066 971 914 993 1146 1836 2885 3402 2312
1170.0 1055 651 549 448 416 381 384 403 440 505
1210.0 577 697 841 1068 1425 2043 3058 4730 7228 9642
1250.0 10000 7536 4825 3109 2263 1889 1947 2498 3546 4794
1290.0 5289 4599 3266 2214 1642 1443 1479 1552 1492 1279
1330.0 1055 887 749 617 523 476 448 438 430 422
1370.0 416 438 495 597 695 702 614 501 398 337
1410.0 309 292 298 295 304 324 372 431 522 654
1450.0 849 1066 1257 1316 1243 1089 1006 1012 1103 1202
1490.0 1237 1162 1005 811 622 482 393 350 335 320
1530.0 324 335 362 413 479 549 680 873 1084 1207
1570.0 1208 1131 1090 1213 1497 1970 2472 2792 2745 2600
1610.0 2754 3264 3732 3615 2991 2062 1375 941 715 587
1650.0 528 483 464 465 475 493 517 546 642 821
1690.0 1172 1775 2836 4278 5581 5633 4760 3146 2045 1504
1730.0 1317 1162 942 717 540 475 451 483 479 467
1770.0 452 404 332 297 292 291 307 291 280 247
1810.0 245 238 230 225 213 210 199 199 195 199
1850.0 196 193 195 196 201 201 202 198 204 205
1890.0 213 216 218 225 239 265 279 275 244 233
1930.0 235 241 236 223 211 199 200 196 196 195
1970.0 195 191 192 192 186 188 186 188 191 196
2010.0 194 199 202 198 204 202 211 207 218 220
2050.0 217 218 213 212 219 225 221 224 222 223
2090.0 214 209 207 202 205 200 204 201 203 204
2130.0 204 199 202 203 196 201 198 200 196 195
2170.0 194 193 195 192 194 189 193 189 188 187
2210.0 189 191 189 193 190 190 187 187 189 186
2250.0 188 187 191 192 191 188 192 188 186 188
2290.0 190 191 191 196 203 203 202 209 204 209
2330.0 211 203 210 213 209 210 220 212 212 198
2370.0 196 206 201 203 199 206 204 206 203 200
2410.0 200 204 201 195 194 197 194 191 195 190
2450.0 190 190 198 193 194 197 194 196 197 198
2490.0 196 199 197 192 193 192 196 199 202 199
2530.0 201 203 200 201 197 197 188 187 193 192
2570.0 192 197 199 200 203 202 203 200 193 191
2610.0 193 194 195 192 190 198 201 212 212 215
2650.0 213 211 216 213 215 223 228 230 232 226
2690.0 230 228 228 228 223 221 228 222 227 232
2730.0 241 238 244 248 250 248 253 248 242 252
2770.0 250 261 255 255 259 258 258 266 275 275
2810.0 286 294 297 300 307 321 340 353 378 428
2850.0 478 556 670 796 917 1031 1089 1105 1119 1118
2890.0 1055 975 946 968 1033 1107 1193 1317 1489 1670
2930.0 1878 2108 2307 2411 2368 2212 2101 2175 2421 2656
2970.0 2731 2442 1932 1413 1085 899 765 657 563 512
3010.0 470 450 445 461 501 561 615 629 603 582
3050.0 601 626 655 680 653 590 519 523 578 634
3090.0 617 529 426 353 299 287 281 255 264 250
3130.0 241 230 235 236 234 223 226 235 224 225
3170.0 225 245 245 240 241 237 228 219 216 214
3210.0 215 208 204 204 193 201 207 209 211 205
3250.0 199 198 200 220 218 223 230 224 224 227
3290.0 239 241 245 247 248 244 233 241 233 243
3330.0 245 254 242 252 258 265 281 300 328 378
3370.0 486 665 978 1365 1648 1625 1342 1016 761 577
3410.0 456 397 365 376 358 335 310 275 255 244
3450.0 249 243 248 248 261 279 294 317 328 365
3490.0 393 445 501 597 713 865 1028 1145 1145 997
3530.0 790 601 458 363 308 271 239 239 223 233
3570.0 210 211 210 212 212 203 202 206 209 205
3610.0 214 200 198 197 191 208 209 200 209 210
3650.0 210 212 204 191 189 187 197 195 195 202
3690.0 219 220 207 216 209 216 224 216 202 213
3730.0 216 208 188 202 206 191 206 202 204 195
3770.0 201 204 192 207 206 198 186 193 186 188
3810.0 197 222 210 200 223 186 212 213 208 203
3850.0 199 196 213 198 196 223 201 224 211 228
3890.0 215 188 197 198 201 197 213 216 207 214
3930.0 227 205 211 225 220 227 234 212 214 208
##END=
