##TITLE=Propane, 2-bromo-1-chloro-
##JCAMP-DX=4.24
##DATA TYPE=INFRARED SPECTRUM
##ORIGIN=Sadtler Research Labs Under US-EPA Contract
##OWNER=NIST Standard Reference Data Program
##CAS REGISTRY NO=3017-95-6
##MOLFORM=C 3 H 6 Br Cl
##XUNITS=1/CM
##YUNITS=ABSORBANCE
##XFACTOR=1.0
##YFACTOR=0.000042282
##DELTAX=4.0
##FIRSTX=450.0
##LASTX=3966.0
##FIRSTY=0.001226
##MAXX=3966
##MINX=450
##MAXY=0.42282
##MINY=0
##NPOINTS=880
##XYDATA=(X++(Y..Y))
450.0 29 169 129 210 159 286 97 324 296 542
490.0 457 656 530 572 337 428 147 328 168 189
530.0 188 230 336 443 546 602 709 722 744 712
570.0 763 671 764 841 1114 1468 2428 4116 6718 8568
610.0 9501 10000 8945 5193 3139 2811 2346 2087 1526 632
650.0 380 321 354 351 413 485 464 507 432 411
690.0 352 383 341 461 616 1091 1788 3043 4900 6993
730.0 8325 8549 7864 5812 2633 1364 1344 1365 1308 1241
770.0 947 623 392 289 373 276 286 232 229 129
810.0 145 114 164 84 144 92 190 128 301 234
850.0 286 243 298 307 420 339 370 304 375 434
890.0 524 706 827 1020 1059 1148 1097 1003 774 603
930.0 365 304 192 224 170 221 173 260 191 229
970.0 199 261 283 421 539 873 1618 2911 4034 4280
1010.0 4690 4281 2834 1812 1154 638 553 438 524 548
1050.0 754 922 1334 1687 1873 1726 1659 1224 666 366
1090.0 306 262 283 281 355 375 418 466 476 444
1130.0 415 410 409 589 838 1318 1943 3193 4938 6611
1170.0 7347 7986 7045 4962 3229 1744 841 680 635 877
1210.0 1198 1793 2315 2685 2761 2685 2322 2118 1945 1884
1250.0 1841 1916 2161 2152 2092 2061 1987 1695 1477 1093
1290.0 782 559 466 375 375 406 531 667 801 860
1330.0 938 968 1033 888 771 705 579 490 563 756
1370.0 1049 1548 2170 2521 2413 2891 2759 2073 1452 1030
1410.0 682 555 516 684 928 1407 1988 2698 3091 3484
1450.0 3651 3509 3258 2826 2385 1904 1445 1024 719 462
1490.0 326 198 166 97 131 82 109 85 120 83
1530.0 90 61 82 69 72 60 72 72 69 69
1570.0 54 61 34 42 24 46 33 59 24 64
1610.0 40 81 76 99 72 100 87 97 56 76
1650.0 58 72 52 62 73 75 100 79 102 93
1690.0 96 73 92 55 81 37 75 60 79 49
1730.0 78 73 91 69 83 66 73 52 58 43
1770.0 47 53 43 34 30 37 26 35 28 41
1810.0 11 37 12 29 12 30 6 24 16 45
1850.0 20 40 30 56 44 42 41 45 38 25
1890.0 29 23 39 19 31 16 31 11 27 10
1930.0 40 10 35 14 29 10 28 6 24 12
1970.0 33 21 33 31 42 36 32 37 33 41
2010.0 35 47 26 38 14 39 19 37 13 30
2050.0 7 29 0 36 24 46 34 46 36 35
2090.0 14 13 8 11 12 9 21 16 32 19
2130.0 33 28 42 17 43 24 44 18 39 24
2170.0 57 49 60 46 55 38 55 39 46 38
2210.0 37 40 36 53 44 56 51 75 65 86
2250.0 56 88 62 82 48 79 68 91 86 110
2290.0 111 126 126 125 124 152 123 125 132 136
2330.0 131 109 133 127 135 119 184 119 185 112
2370.0 173 94 110 72 80 45 57 28 42 29
2410.0 30 23 35 28 35 49 47 72 69 96
2450.0 80 96 75 83 59 70 41 57 46 60
2490.0 33 61 61 75 63 70 56 73 39 43
2530.0 33 36 26 14 34 20 48 14 52 19
2570.0 45 14 52 32 44 20 41 12 18 2
2610.0 19 16 25 24 29 36 38 28 46 39
2650.0 12 27 11 49 55 91 71 101 67 71
2690.0 42 72 29 54 27 69 49 69 49 74
2730.0 61 70 80 100 120 99 118 117 101 53
2770.0 67 40 50 31 72 42 59 38 66 51
2810.0 92 79 134 145 186 176 217 219 257 263
2850.0 296 348 403 515 650 863 979 1115 1068 1075
2890.0 972 927 791 781 740 816 850 1019 1217 1537
2930.0 1857 2228 2597 2758 2853 2773 2629 2557 2368 2415
2970.0 2561 2836 3277 4238 5084 5591 5775 5650 4959 3828
3010.0 2906 2299 1735 1274 1017 689 549 370 303 198
3050.0 175 125 105 87 111 143 111 121 113 140
3090.0 107 154 103 143 74 110 54 127 81 111
3130.0 90 110 74 86 87 104 72 97 94 108
3170.0 79 106 112 89 100 93 116 116 134 110
3210.0 159 158 179 116 161 118 173 127 154 105
3250.0 117 94 88 89 109 115 126 135 102 114
3290.0 82 109 65 55 68 86 68 57 41 87
3330.0 42 123 54 98 71 116 42 26 27 45
3370.0 37 88 33 77 94 99 120 36 73 44
3410.0 103 38 88 41 111 65 138 80 122 58
3450.0 69 77 119 64 93 56 101 68 68 55
3490.0 103 77 75 130 79 104 52 94 58 93
3530.0 63 74 66 83 59 115 43 87 64 115
3570.0 47 89 90 101 137 123 104 75 66 57
3610.0 110 58 129 72 172 73 109 39 127 80
3650.0 108 53 87 42 143 106 90 120 119 104
3690.0 82 6 35 115 158 186 177 149 76 130
3730.0 91 153 96 118 119 167 175 148 78 155
3770.0 40 153 88 103 113 67 108 107 159 93
3810.0 83 119 180 99 149 84 166 85 174 119
3850.0 158 52 190 153 166 173 213 159 170 168
3890.0 122 173 194 137 63 125 205 199 101 84
3930.0 123 115 30 204 211 192 112 187 10 163
##END=
