##TITLE=Phenol, 3-methyl-6-(1-methylethyl)-2,4-dinitro-
##JCAMP-DX=4.24
##DATA TYPE=INFRARED SPECTRUM
##ORIGIN=Sadtler Research Labs Under US-EPA Contract
##OWNER=NIST Standard Reference Data Program
##CAS REGISTRY NO=303-21-9
##MOLFORM=C 10 H 12 N 2 O 5
##XUNITS=1/CM
##YUNITS=ABSORBANCE
##XFACTOR=1.0
##YFACTOR=0.000086176
##DELTAX=4.0
##FIRSTX=450.0
##LASTX=3966.0
##FIRSTY=0.022492
##MAXX=3966
##MINX=450
##MAXY=0.86176
##MINY=0
##NPOINTS=880
##XYDATA=(X++(Y..Y))
450.0 261 161 93 145 60 84 71 141 144 224
490.0 176 209 218 220 243 225 294 306 332 300
530.0 302 296 312 284 284 332 318 341 330 358
570.0 330 389 362 389 364 387 429 432 499 512
610.0 570 590 647 632 631 637 657 701 732 907
650.0 1074 1478 2074 2574 2620 1869 1329 1093 929 866
690.0 725 708 646 669 689 820 912 998 988 933
730.0 879 885 1065 1373 1510 1288 1051 920 840 757
770.0 791 1054 1547 1904 1511 894 520 346 261 244
810.0 231 210 191 193 189 195 233 250 332 501
850.0 695 672 450 338 315 362 462 640 965 1328
890.0 1337 1014 818 859 1033 1032 845 726 688 626
930.0 492 374 308 277 272 271 265 269 283 298
970.0 295 307 316 325 337 359 375 406 445 509
1010.0 597 730 874 926 863 781 727 719 770 867
1050.0 978 981 868 761 707 718 758 850 996 1282
1090.0 1611 1663 1483 1323 1257 1165 1065 1019 1028 1061
1130.0 1123 1205 1347 1572 1826 1869 1737 1621 1615 1702
1170.0 1827 1980 2136 2283 2364 2339 2218 2098 2068 2168
1210.0 2348 2578 2947 3416 4024 4817 5694 6241 6041 5103
1250.0 3963 3059 2477 2149 1983 1915 1941 2021 2164 2323
1290.0 2514 2670 2789 2887 3017 3204 3504 3955 4621 5504
1330.0 6607 7770 8617 8871 8620 8226 8081 7995 7530 6583
1370.0 5440 4430 3734 3513 3585 3504 3290 3107 3151 3416
1410.0 3714 3868 3758 3566 3276 3075 2993 3084 3239 3374
1450.0 3448 3496 3524 3622 3697 3585 3257 2884 2532 2202
1490.0 2055 2088 2192 2389 2636 2974 3416 3903 4382 4968
1530.0 5569 6342 7306 8149 8931 9507 10000 9945 9005 7454
1570.0 5809 4900 4583 4769 4874 4511 3719 2936 2540 2525
1610.0 2645 2508 2074 1537 1037 723 492 358 297 245
1650.0 162 189 193 201 187 175 164 171 126 106
1690.0 126 112 79 61 74 92 80 31 85 101
1730.0 71 51 75 60 37 37 63 70 67 88
1770.0 60 57 68 73 83 88 80 103 103 143
1810.0 138 136 128 93 77 47 62 53 46 25
1850.0 44 53 49 37 24 0 28 36 28 32
1890.0 28 35 42 49 51 51 51 53 36 50
1930.0 51 47 45 30 32 38 36 32 31 29
1970.0 32 35 35 36 35 25 26 38 44 43
2010.0 47 45 45 53 57 56 61 52 49 49
2050.0 55 56 55 53 49 56 54 53 57 55
2090.0 54 52 55 58 58 58 60 58 59 58
2130.0 59 59 55 53 53 51 52 55 58 60
2170.0 61 58 60 58 60 56 58 59 62 67
2210.0 70 75 78 81 80 88 90 93 93 93
2250.0 95 92 93 92 90 93 94 97 96 101
2290.0 103 102 110 115 119 122 128 125 134 134
2330.0 124 121 129 147 124 158 160 152 151 147
2370.0 140 151 156 159 147 141 142 142 145 146
2410.0 146 145 144 144 144 143 142 141 147 148
2450.0 146 149 151 156 158 159 158 158 158 154
2490.0 154 150 149 149 146 147 144 146 150 156
2530.0 155 158 160 161 162 163 161 162 162 162
2570.0 167 176 177 180 187 191 197 202 201 200
2610.0 199 197 196 198 198 194 202 205 201 199
2650.0 205 205 208 205 210 206 212 213 215 217
2690.0 217 218 219 223 220 224 218 221 229 236
2730.0 247 251 249 251 249 250 252 251 250 252
2770.0 255 252 247 249 249 254 262 275 289 305
2810.0 320 337 355 368 384 406 422 443 468 499
2850.0 532 581 636 710 810 948 1110 1272 1396 1445
2890.0 1396 1308 1236 1210 1228 1259 1287 1302 1329 1386
2930.0 1473 1585 1714 1818 1855 1838 1826 1897 2159 2713
2970.0 3541 4234 4371 3764 2772 1939 1411 1142 966 839
3010.0 749 683 635 584 546 517 495 487 478 473
3050.0 478 482 488 487 492 498 506 517 521 531
3090.0 532 536 529 525 520 519 517 517 513 517
3130.0 523 525 528 532 538 545 544 549 559 570
3170.0 571 581 596 604 615 625 636 638 641 642
3210.0 642 648 650 644 647 649 657 659 663 673
3250.0 682 681 690 700 702 709 719 724 732 735
3290.0 743 753 761 768 776 788 786 799 813 822
3330.0 827 837 850 860 867 873 890 893 907 913
3370.0 934 937 942 959 965 976 988 988 989 1001
3410.0 1012 1015 1008 1013 1019 1016 1016 1012 1007 1010
3450.0 1006 999 981 978 969 958 954 941 924 902
3490.0 890 875 865 852 816 805 786 773 758 735
3530.0 715 691 669 652 627 605 579 552 542 499
3570.0 494 454 437 417 392 379 325 309 281 260
3610.0 242 208 191 168 164 173 167 195 193 180
3650.0 147 111 103 78 74 70 83 68 77 66
3690.0 65 63 67 62 45 47 46 60 46 60
3730.0 61 60 62 65 66 55 57 56 56 52
3770.0 44 56 54 48 48 54 62 49 56 53
3810.0 62 61 73 79 61 48 68 81 67 78
3850.0 71 83 75 69 69 74 53 67 74 74
3890.0 81 76 60 81 92 76 76 95 93 90
3930.0 68 63 74 82 87 93 83 83 94 82
##END=
