##TITLE=1-Ethynylcyclohexylamine
##JCAMP-DX=4.24
##DATA TYPE=INFRARED SPECTRUM
##ORIGIN=Sadtler Research Labs Under US-EPA Contract
##OWNER=NIST Standard Reference Data Program
##CAS REGISTRY NO=30389-18-5
##MOLFORM=C 8 H 13 N
##XUNITS=1/CM
##YUNITS=ABSORBANCE
##XFACTOR=1.0
##YFACTOR=0.000053174
##DELTAX=4.0
##FIRSTX=450.0
##LASTX=3966.0
##FIRSTY=0.002021
##MAXX=3966
##MINX=450
##MAXY=0.53174
##MINY=0
##NPOINTS=880
##XYDATA=(X++(Y..Y))
450.0 38 34 26 45 1 31 22 51 66 77
490.0 99 65 122 151 233 302 324 407 366 368
530.0 323 296 329 368 424 441 337 234 192 131
570.0 127 49 97 72 98 104 96 196 178 283
610.0 338 550 939 1452 2323 4399 5608 4336 2608 1643
650.0 920 584 361 253 179 129 117 101 113 129
690.0 136 167 163 158 185 170 196 190 200 201
730.0 231 254 215 274 251 320 369 418 509 571
770.0 668 735 836 899 970 1056 1111 1169 1219 1255
810.0 1311 1330 1394 1470 1527 1736 1860 2014 1996 1690
850.0 1373 996 654 405 305 230 177 184 164 214
890.0 247 319 388 350 347 280 244 210 204 242
930.0 297 379 479 497 512 560 482 388 296 247
970.0 182 186 177 169 179 139 138 118 107 61
1010.0 50 55 47 67 87 107 120 138 151 160
1050.0 160 141 149 155 148 157 175 220 292 340
1090.0 407 462 493 563 592 634 634 607 548 453
1130.0 344 262 244 223 214 213 221 262 282 311
1170.0 314 279 241 194 147 119 110 88 78 68
1210.0 78 66 80 76 101 122 184 336 582 924
1250.0 1152 1341 1211 1126 935 686 589 536 535 483
1290.0 396 328 224 164 131 138 138 138 139 141
1330.0 149 151 172 200 224 236 241 206 182 144
1370.0 112 91 72 63 52 62 44 45 50 43
1410.0 55 50 65 73 103 165 269 454 639 825
1450.0 970 1057 967 800 637 464 326 235 153 104
1490.0 106 74 88 76 82 81 79 105 95 125
1530.0 116 146 166 197 228 248 285 291 298 278
1570.0 258 231 216 197 205 217 246 278 296 329
1610.0 336 358 363 363 357 336 335 316 306 286
1650.0 255 234 175 155 105 99 71 61 56 43
1690.0 35 23 34 24 24 24 17 14 19 20
1730.0 15 27 15 15 6 16 16 17 17 16
1770.0 28 15 28 14 22 18 17 29 18 27
1810.0 18 18 18 18 19 19 20 14 18 18
1850.0 18 11 19 19 20 20 20 20 20 26
1890.0 19 20 20 20 20 12 21 20 22 22
1930.0 21 21 20 28 22 22 21 23 23 22
1970.0 13 14 21 14 14 14 19 12 14 14
2010.0 14 14 5 14 4 15 3 15 15 14
2050.0 14 13 18 14 26 22 15 34 24 43
2090.0 55 66 76 86 87 88 78 72 53 45
2130.0 32 22 22 21 24 13 12 19 13 19
2170.0 14 24 12 13 21 13 22 13 21 21
2210.0 22 23 17 22 10 14 21 20 11 12
2250.0 11 13 18 12 15 16 17 14 18 12
2290.0 10 21 10 19 10 21 9 21 15 9
2330.0 22 4 32 0 10 9 10 28 5 20
2370.0 11 24 9 7 13 9 11 9 9 9
2410.0 10 7 11 6 12 12 12 13 9 17
2450.0 7 7 9 7 6 6 16 6 17 17
2490.0 17 17 5 18 6 17 7 7 15 9
2530.0 13 10 12 6 6 6 13 7 15 5
2570.0 16 16 4 16 15 26 24 35 34 34
2610.0 45 45 45 46 45 44 38 45 45 56
2650.0 60 65 71 73 86 83 85 85 94 85
2690.0 85 70 65 49 46 45 37 47 27 36
2730.0 26 36 27 35 37 24 39 31 36 36
2770.0 47 47 54 66 66 85 87 88 95 99
2810.0 100 101 99 102 103 115 143 173 286 463
2850.0 791 1290 1843 2325 2643 2494 2415 1832 1359 1077
2890.0 909 839 889 964 1052 1160 1366 1755 2466 3640
2930.0 5410 7387 9045 9582 10000 8060 6263 4082 2239 1156
2970.0 631 345 215 124 88 61 49 39 28 38
3010.0 18 18 18 18 24 18 22 19 30 37
3050.0 38 49 39 38 38 36 30 30 19 26
3090.0 13 17 12 11 10 1 10 10 19 10
3130.0 20 20 19 31 18 31 19 19 21 21
3170.0 30 22 28 23 30 24 31 24 28 23
3210.0 19 12 11 11 10 14 18 27 20 26
3250.0 30 23 47 30 61 50 70 90 101 152
3290.0 194 304 396 509 676 848 1238 1561 1870 2171
3330.0 1800 1613 1087 590 339 234 168 116 81 63
3370.0 33 41 13 31 32 21 33 20 34 9
3410.0 18 14 7 24 11 23 12 22 23 24
3450.0 30 26 29 28 33 23 19 16 12 14
3490.0 14 14 3 15 3 7 2 3 4 11
3530.0 13 4 14 4 14 4 4 11 3 15
3570.0 3 4 4 5 5 13 15 4 14 14
3610.0 16 4 7 11 9 19 15 15 15 23
3650.0 15 24 4 14 16 3 16 4 11 3
3690.0 15 14 5 24 15 34 26 22 23 18
3730.0 20 13 20 21 35 27 26 26 24 24
3770.0 26 23 15 27 15 20 23 36 24 24
3810.0 35 26 35 24 35 27 26 37 24 37
3850.0 24 37 26 35 36 27 35 28 34 27
3890.0 27 27 31 36 43 46 46 56 55 56
3930.0 55 67 55 46 36 28 5 6 6 6
##END=
