##TITLE=Ethamivan
##JCAMP-DX=4.24
##DATA TYPE=INFRARED SPECTRUM
##ORIGIN=Sadtler Research Labs Under US-EPA Contract
##OWNER=NIST Standard Reference Data Program
##CAS REGISTRY NO=304-84-7
##MOLFORM=C 12 H 17 N O 3
##XUNITS=1/CM
##YUNITS=ABSORBANCE
##XFACTOR=1.0
##YFACTOR=0.000039661
##DELTAX=4.0
##FIRSTX=450.0
##LASTX=3966.0
##FIRSTY=0.042397
##MAXX=3966
##MINX=450
##MAXY=0.39661
##MINY=0
##NPOINTS=880
##XYDATA=(X++(Y..Y))
450.0 1069 1096 1008 986 844 844 665 587 561 466
490.0 372 340 345 361 283 290 204 242 154 181
530.0 142 127 216 289 363 397 295 160 44 27
570.0 34 37 21 41 68 43 86 157 313 665
610.0 955 1167 810 410 202 118 89 73 71 28
650.0 24 16 9 5 7 16 19 16 37 54
690.0 48 12 25 101 68 100 140 176 225 281
730.0 345 511 707 1008 1273 1432 1228 923 682 583
770.0 570 707 956 1314 1852 2270 2291 1748 1130 787
810.0 763 974 1395 1765 1774 1366 982 822 762 622
850.0 465 404 452 544 707 778 729 604 436 336
890.0 274 224 164 159 168 204 242 254 247 209
930.0 218 203 185 184 188 174 131 124 160 191
970.0 160 155 194 225 277 326 398 454 569 697
1010.0 835 1008 1216 1559 1951 2292 2453 2348 2047 1625
1050.0 1217 988 954 1076 1234 1357 1570 1913 2420 2844
1090.0 2826 2458 1992 1683 1528 1560 1857 2266 2361 2002
1130.0 1464 1065 898 883 989 1275 1706 2238 2595 2608
1170.0 2447 2322 2323 2380 2436 2489 2673 3100 3776 4504
1210.0 4983 5160 5204 5475 6097 6901 7132 6308 4896 3794
1250.0 3486 3961 5165 6738 8177 9026 9148 9034 9332 10000
1290.0 9732 7928 5594 4144 3730 3865 3956 3586 2817 2073
1330.0 1631 1485 1547 1786 2179 2533 2798 3065 3352 3500
1370.0 3517 3617 3897 4069 3837 3421 3253 3478 4020 4670
1410.0 5309 5832 6494 7028 6990 5974 4589 3495 2975 2846
1450.0 2892 3201 3645 3989 4280 4661 4642 4028 3116 2476
1490.0 2210 2192 2454 2991 3935 5023 5595 4889 3390 1939
1530.0 1206 877 724 674 634 652 652 713 779 840
1570.0 933 1056 1235 1450 1765 2190 2694 3124 3335 3325
1610.0 3240 3076 2807 2447 2188 2082 2053 2116 2298 2849
1650.0 3857 5690 8004 9732 9807 7913 5492 3490 2280 1592
1690.0 1158 897 731 605 524 453 421 382 365 327
1730.0 312 305 281 260 248 253 246 237 219 193
1770.0 156 131 102 88 75 59 36 27 31 20
1810.0 12 8 12 3 7 3 12 8 10 18
1850.0 19 22 30 47 61 69 75 70 49 34
1890.0 26 9 11 7 7 5 9 8 10 7
1930.0 4 1 4 4 7 9 7 3 7 5
1970.0 2 9 11 9 13 18 21 26 33 38
2010.0 40 43 38 40 47 48 56 71 71 85
2050.0 90 96 100 102 96 92 87 77 73 52
2090.0 42 38 42 30 27 20 11 5 0 6
2130.0 5 0 2 8 15 19 24 19 14 5
2170.0 13 1 6 0 0 5 2 7 4 12
2210.0 2 10 15 14 22 25 32 35 51 59
2250.0 57 62 60 55 53 49 62 81 92 108
2290.0 117 126 135 139 147 150 144 117 136 119
2330.0 107 85 77 99 141 155 141 119 95 79
2370.0 90 102 126 115 85 55 44 33 30 27
2410.0 25 19 23 26 31 35 39 43 52 46
2450.0 49 51 53 55 60 58 63 65 77 79
2490.0 80 90 93 90 94 98 103 101 105 100
2530.0 104 92 85 70 70 63 58 54 42 39
2570.0 35 43 49 42 45 48 55 44 57 55
2610.0 55 63 66 83 83 96 105 105 104 102
2650.0 106 102 92 83 81 86 87 86 93 98
2690.0 106 114 112 111 110 109 114 114 122 132
2730.0 134 153 149 152 158 157 159 167 163 167
2770.0 183 193 203 205 221 233 245 263 282 309
2810.0 329 358 381 417 458 509 556 621 704 809
2850.0 914 963 981 980 1034 1154 1350 1571 1755 1846
2890.0 1794 1697 1599 1552 1543 1563 1614 1689 1805 1971
2930.0 2210 2524 2961 3324 3456 3294 2961 2699 2662 2903
2970.0 3351 3775 3939 3751 3311 2909 2670 2500 2269 2031
3010.0 1874 1656 1330 960 742 638 575 545 525 530
3050.0 548 576 599 630 666 677 674 618 540 457
3090.0 393 343 328 317 299 299 296 288 289 286
3130.0 276 267 268 269 261 252 245 249 245 230
3170.0 232 237 230 232 230 231 231 215 220 223
3210.0 228 215 212 198 215 216 212 221 208 214
3250.0 216 219 220 228 229 214 214 225 226 215
3290.0 232 242 241 237 246 245 241 228 226 215
3330.0 217 210 212 194 175 185 195 181 184 183
3370.0 180 167 168 157 159 159 161 162 144 149
3410.0 139 131 150 151 157 148 151 144 136 137
3450.0 132 135 120 127 128 123 117 113 116 124
3490.0 132 140 137 130 136 148 155 161 183 175
3530.0 203 216 238 244 252 248 281 322 408 576
3570.0 953 1619 2651 3743 4231 3730 2565 1451 782 409
3610.0 251 153 110 80 74 62 46 54 75 108
3650.0 114 102 49 27 26 4 9 8 15 17
3690.0 8 7 28 21 10 0 0 0 6 3
3730.0 10 20 8 9 21 1 0 0 7 21
3770.0 7 26 3 12 15 14 9 5 0 4
3810.0 15 21 0 17 11 24 26 24 17 13
3850.0 28 33 35 13 33 27 18 42 34 46
3890.0 30 42 39 28 46 52 27 59 24 48
3930.0 50 42 20 30 60 54 56 49 61 47
##END=
