##TITLE=Barbituric acid, 1-butyl-5,5-diallyl-,
##JCAMP-DX=4.24
##DATA TYPE=INFRARED SPECTRUM
##ORIGIN=Sadtler Research Labs Under US-EPA Contract
##OWNER=NIST Standard Reference Data Program
##CAS REGISTRY NO=30453-93-1
##MOLFORM=C 14 H 20 N 2 O 3
##XUNITS=1/CM
##YUNITS=ABSORBANCE
##XFACTOR=1.0
##YFACTOR=0.000135098
##DELTAX=4.0
##FIRSTX=450.0
##LASTX=3966.0
##FIRSTY=0.024723
##MAXX=3966
##MINX=450
##MAXY=1.35098
##MINY=0
##NPOINTS=880
##XYDATA=(X++(Y..Y))
450.0 183 126 84 75 82 132 125 136 132 161
490.0 163 160 182 190 206 188 171 160 113 78
530.0 39 42 28 20 26 2 15 48 37 52
570.0 80 129 194 232 233 193 143 103 79 71
610.0 103 116 183 224 291 371 445 493 537 619
650.0 721 811 827 785 678 559 398 290 210 174
690.0 166 150 139 113 91 73 63 55 64 73
730.0 119 173 202 207 241 338 529 710 709 531
770.0 319 196 125 95 82 72 72 73 72 70
810.0 67 72 84 110 93 65 43 30 21 15
850.0 16 13 18 24 31 34 42 45 51 54
890.0 71 90 115 135 159 190 260 415 675 1017
930.0 1271 1202 812 453 296 246 227 208 190 172
970.0 167 187 224 298 433 624 800 792 612 424
1010.0 310 263 237 225 217 205 193 176 171 169
1050.0 172 177 188 207 230 258 286 297 293 293
1090.0 291 277 255 240 237 242 258 261 251 227
1130.0 203 188 184 187 200 221 231 240 254 279
1170.0 308 332 388 492 625 750 792 725 581 436
1210.0 344 306 295 314 353 406 479 542 585 602
1250.0 618 652 704 781 888 1009 1116 1223 1345 1473
1290.0 1542 1522 1517 1624 1847 2023 1976 1693 1365 1193
1330.0 1205 1349 1570 1814 2032 2143 2062 1854 1703 1699
1370.0 1805 1919 1944 1906 1909 2053 2392 2938 3565 3981
1410.0 3975 3562 3046 2520 2059 1759 1806 2253 2777 2835
1450.0 2245 1498 1028 769 654 581 521 437 391 421
1490.0 453 332 239 194 196 201 195 199 201 165
1530.0 143 128 117 120 101 87 84 98 89 79
1570.0 84 87 98 95 98 108 106 101 95 98
1610.0 104 114 137 151 182 226 316 431 490 473
1650.0 399 374 374 435 520 625 756 946 1267 1811
1690.0 2680 4024 5714 6858 6552 5051 3513 2620 2367 2667
1730.0 3630 5575 8276 10000 9037 6395 4320 3506 3186 2641
1770.0 1877 1225 841 636 508 410 344 283 246 204
1810.0 185 168 154 139 132 119 105 98 102 113
1850.0 116 120 130 144 144 132 94 66 52 47
1890.0 47 47 48 46 44 39 33 31 25 19
1930.0 14 12 9 9 7 4 4 4 6 8
1970.0 8 11 15 17 18 19 15 10 9 8
2010.0 6 7 8 9 8 9 9 8 7 7
2050.0 4 3 1 2 3 2 2 0 1 1
2090.0 1 4 2 2 3 3 3 2 1 1
2130.0 1 0 0 0 0 1 0 1 1 3
2170.0 5 3 4 6 6 4 4 4 5 4
2210.0 5 5 4 3 4 6 5 6 7 5
2250.0 7 6 9 9 11 12 15 18 19 25
2290.0 31 35 43 48 51 57 54 49 55 52
2330.0 48 46 46 55 66 65 73 56 63 48
2370.0 42 43 51 53 38 25 20 18 16 16
2410.0 16 13 15 13 15 17 17 17 17 17
2450.0 16 18 18 19 18 18 18 18 21 18
2490.0 18 19 20 20 20 19 20 22 21 20
2530.0 21 21 22 18 19 18 21 18 18 20
2570.0 21 21 21 18 21 20 19 20 23 22
2610.0 19 18 15 15 16 14 17 16 19 19
2650.0 17 19 18 20 20 22 23 24 21 22
2690.0 25 26 29 29 33 34 34 35 38 38
2730.0 39 40 43 44 47 48 49 49 48 49
2770.0 50 53 51 55 56 57 61 64 62 66
2810.0 69 74 78 82 87 93 101 115 131 146
2850.0 161 176 201 242 313 403 485 545 572 569
2890.0 518 432 369 354 375 416 465 516 574 657
2930.0 806 995 1167 1225 1165 1028 902 888 1036 1305
2970.0 1562 1558 1269 899 675 581 502 411 343 312
3010.0 323 332 316 258 204 163 140 122 110 104
3050.0 104 103 109 116 126 144 167 198 261 416
3090.0 573 554 348 162 90 69 61 60 56 54
3130.0 55 55 55 50 46 46 44 46 44 39
3170.0 37 31 30 30 27 24 22 21 20 23
3210.0 21 18 19 15 15 14 15 17 17 15
3250.0 18 16 16 16 16 15 17 16 14 15
3290.0 17 13 11 15 17 18 13 17 17 17
3330.0 14 19 12 17 17 17 16 21 27 23
3370.0 28 23 21 30 36 41 52 56 72 98
3410.0 162 285 550 979 1423 1523 1129 628 299 175
3450.0 130 116 104 93 83 78 67 63 60 56
3490.0 51 50 52 45 38 34 25 18 16 14
3530.0 17 14 14 16 14 12 17 14 15 14
3570.0 23 17 13 17 17 21 23 16 13 14
3610.0 19 16 10 9 5 15 9 12 12 17
3650.0 26 21 19 3 12 19 13 21 14 15
3690.0 13 10 8 17 15 18 14 11 15 16
3730.0 15 25 27 20 33 12 16 8 11 14
3770.0 15 13 7 10 14 11 9 9 12 11
3810.0 14 10 17 12 7 10 17 19 14 18
3850.0 13 22 14 22 24 24 15 19 13 24
3890.0 15 12 17 17 10 16 26 27 12 17
3930.0 15 22 18 8 20 18 19 18 14 14
##END=
