##TITLE=1H-Indene, 3a,4,7,7a-tetrahydro-
##JCAMP-DX=4.24
##DATA TYPE=INFRARED SPECTRUM
##ORIGIN=Sadtler Research Labs Under US-EPA Contract
##OWNER=NIST Standard Reference Data Program
##CAS REGISTRY NO=3048-65-5
##MOLFORM=C 9 H 12
##XUNITS=1/CM
##YUNITS=ABSORBANCE
##XFACTOR=1.0
##YFACTOR=0.000100174
##DELTAX=4.0
##FIRSTX=450.0
##LASTX=3966.0
##FIRSTY=0.055396
##MAXX=3966
##MINX=450
##MAXY=1.00174
##MINY=0
##NPOINTS=880
##XYDATA=(X++(Y..Y))
450.0 553 306 152 54 0 59 112 84 52 121
490.0 138 188 155 174 158 146 186 170 153 147
530.0 165 128 81 59 43 29 149 141 120 85
570.0 56 145 122 70 139 124 127 131 133 179
610.0 155 195 279 329 419 480 581 685 863 1090
650.0 1241 1441 1730 1770 1631 1635 1684 1540 1470 1434
690.0 1535 1757 1923 2332 2886 3159 3222 3207 2802 2395
730.0 1966 1562 1310 1168 1133 1084 962 800 724 618
770.0 485 425 308 292 270 253 221 219 187 198
810.0 202 189 200 231 242 240 248 251 267 253
850.0 225 210 196 204 207 214 199 206 240 292
890.0 306 333 331 370 365 422 447 479 512 552
930.0 539 513 445 424 381 343 358 369 357 378
970.0 406 423 431 455 471 463 460 466 451 432
1010.0 433 420 384 381 399 388 385 378 338 300
1050.0 261 246 254 261 290 302 329 335 325 307
1090.0 260 241 232 222 208 198 186 182 155 168
1130.0 134 155 155 175 203 222 217 219 219 224
1170.0 193 183 193 212 223 239 255 250 278 287
1210.0 286 272 278 285 272 250 245 236 235 231
1250.0 229 237 243 284 298 335 367 360 326 313
1290.0 283 264 263 242 263 266 263 276 283 300
1330.0 316 340 365 407 433 440 430 431 386 355
1370.0 290 261 250 214 228 223 199 188 185 166
1410.0 168 202 210 252 289 430 586 762 850 917
1450.0 988 945 771 599 427 328 239 199 160 141
1490.0 123 96 114 82 112 102 34 84 76 73
1530.0 58 60 103 64 90 66 78 124 110 101
1570.0 90 99 115 108 141 164 225 239 312 348
1610.0 360 417 416 441 423 469 465 512 528 557
1650.0 559 541 522 400 359 287 258 181 168 175
1690.0 142 135 157 176 116 119 108 121 115 88
1730.0 116 123 141 104 98 72 67 59 57 51
1770.0 59 59 53 34 35 33 54 37 35 40
1810.0 53 46 43 50 55 68 40 44 58 59
1850.0 66 67 88 76 84 85 88 86 80 61
1890.0 55 63 70 66 60 65 63 66 62 59
1930.0 51 56 65 41 44 38 46 44 51 55
1970.0 63 55 49 40 45 48 31 43 39 25
2010.0 32 55 54 53 43 44 31 31 36 52
2050.0 49 39 33 38 35 54 45 42 45 56
2090.0 51 40 44 35 37 26 36 38 43 50
2130.0 43 51 35 33 45 39 39 41 24 37
2170.0 33 37 43 37 35 41 55 52 45 49
2210.0 46 44 51 39 39 55 49 49 37 41
2250.0 38 31 47 37 33 38 37 47 41 45
2290.0 60 71 66 52 76 77 65 85 92 90
2330.0 90 67 84 75 80 77 74 60 41 58
2370.0 68 54 60 62 52 49 32 37 33 40
2410.0 20 20 21 17 20 11 16 21 18 22
2450.0 24 22 17 29 19 27 28 30 13 10
2490.0 24 24 28 18 10 32 25 42 30 30
2530.0 30 29 36 32 31 34 42 54 53 51
2570.0 56 51 57 46 54 56 64 69 65 72
2610.0 65 56 69 62 72 65 69 72 61 69
2650.0 69 71 71 74 75 87 81 72 70 73
2690.0 80 80 76 77 78 71 71 75 66 78
2730.0 86 76 87 86 103 105 104 115 113 118
2770.0 120 128 151 147 152 173 201 239 268 302
2810.0 352 419 518 661 921 1305 1903 2726 3723 4519
2850.0 4949 4981 4795 4349 3712 3184 2906 2890 3064 3309
2890.0 3604 3912 4101 4381 4783 5276 5966 6892 7774 8623
2930.0 9682 10000 9006 8065 6862 5538 4191 3021 2225 1756
2970.0 1522 1388 1286 1167 1025 890 722 582 481 413
3010.0 409 441 583 943 1607 2546 3392 4117 4587 4947
3050.0 4982 4726 4361 4063 3490 2806 2208 1377 720 410
3090.0 270 205 151 116 97 73 63 64 53 53
3130.0 49 35 37 36 43 47 33 28 26 37
3170.0 32 39 31 33 40 42 45 50 46 61
3210.0 55 63 58 65 53 54 57 53 60 52
3250.0 50 50 58 53 51 58 55 58 45 56
3290.0 52 69 60 63 69 60 65 65 53 62
3330.0 53 49 48 60 52 43 39 45 46 59
3370.0 51 45 38 55 33 50 44 54 50 44
3410.0 38 54 47 49 47 52 42 59 38 51
3450.0 57 54 50 56 51 45 50 49 37 43
3490.0 34 56 57 50 46 52 42 48 40 28
3530.0 37 45 26 49 43 54 56 42 46 45
3570.0 50 64 49 58 46 62 43 52 54 57
3610.0 34 23 46 13 34 19 24 44 26 10
3650.0 44 30 53 20 38 22 58 64 48 17
3690.0 33 68 18 36 34 27 39 59 40 15
3730.0 49 17 14 26 41 22 38 32 21 21
3770.0 23 16 27 10 26 12 15 35 46 58
3810.0 35 69 94 70 29 75 62 53 45 9
3850.0 8 65 12 10 10 10 25 21 10 10
3890.0 10 15 9 18 10 10 10 10 10 26
3930.0 52 13 16 10 13 15 9 31 46 20
##END=
