##TITLE=Benzene, 1-methyl-3,5-bis(1-methylethyl)-
##JCAMP-DX=4.24
##DATA TYPE=INFRARED SPECTRUM
##ORIGIN=Sadtler Research Labs Under US-EPA Contract
##OWNER=NIST Standard Reference Data Program
##CAS REGISTRY NO=3055-14-9
##MOLFORM=C 13 H 20
##XUNITS=1/CM
##YUNITS=ABSORBANCE
##XFACTOR=1.0
##YFACTOR=0.000204416
##DELTAX=4.0
##FIRSTX=450.0
##LASTX=3966.0
##FIRSTY=0.127964
##MAXX=3966
##MINX=450
##MAXY=2.04416
##MINY=0
##NPOINTS=880
##XYDATA=(X++(Y..Y))
450.0 626 192 4 85 37 110 63 85 110 75
490.0 114 67 68 49 84 65 76 74 83 93
530.0 93 94 73 78 69 70 57 43 61 61
570.0 66 62 68 66 50 26 48 40 47 65
610.0 48 55 52 68 58 58 51 57 50 53
650.0 51 51 54 51 46 28 47 43 46 54
690.0 62 90 190 370 610 924 698 454 247 98
730.0 84 66 54 56 65 53 44 47 43 51
770.0 59 43 85 83 18 17 45 34 70 67
810.0 125 161 195 160 143 111 77 99 130 293
850.0 458 817 921 661 412 220 130 142 165 167
890.0 133 107 81 82 88 97 129 186 269 329
930.0 364 355 333 309 277 228 172 124 92 79
970.0 77 81 95 108 119 127 139 139 133 111
1010.0 86 71 67 69 66 72 75 87 100 115
1050.0 132 146 156 163 166 171 183 197 211 224
1090.0 231 235 226 211 189 159 137 119 117 112
1130.0 109 99 92 85 81 80 79 80 82 93
1170.0 113 154 208 300 372 378 310 199 122 98
1210.0 88 80 71 67 65 66 73 80 98 124
1250.0 172 209 218 193 145 116 110 115 123 132
1290.0 149 165 192 245 332 440 489 447 360 293
1330.0 272 271 289 304 309 289 282 335 422 564
1370.0 644 507 481 517 579 575 459 298 221 219
1410.0 220 228 224 239 258 299 341 394 496 635
1450.0 814 952 1060 1080 1104 1091 996 834 621 477
1490.0 414 383 361 336 303 251 210 199 195 196
1530.0 193 185 175 156 135 118 111 110 115 128
1570.0 145 176 229 314 434 611 863 1250 1672 1836
1610.0 1458 840 433 239 152 107 87 69 59 51
1650.0 50 48 45 37 37 37 36 32 33 35
1690.0 33 34 45 50 51 50 46 46 46 47
1730.0 64 95 124 130 113 86 72 80 93 103
1770.0 100 85 59 40 24 17 14 17 16 16
1810.0 14 16 11 14 12 12 12 11 14 13
1850.0 15 14 15 13 14 13 13 15 15 15
1890.0 17 14 12 10 10 8 6 9 10 14
1930.0 13 13 11 9 8 6 4 5 5 5
1970.0 7 5 5 5 7 6 8 8 9 11
2010.0 12 14 14 14 15 17 15 15 13 12
2050.0 16 18 20 17 15 12 7 4 2 4
2090.0 4 2 2 2 1 1 1 1 2 5
2130.0 4 5 1 1 0 1 2 3 3 5
2170.0 4 4 4 4 4 6 7 5 7 6
2210.0 5 4 6 8 10 10 12 13 12 11
2250.0 13 11 10 7 9 10 8 9 12 12
2290.0 17 21 21 20 20 23 22 25 26 22
2330.0 21 21 14 15 12 20 22 22 5 16
2370.0 18 21 24 30 29 27 25 27 28 29
2410.0 28 29 30 30 29 30 28 29 30 30
2450.0 29 30 32 37 38 40 39 39 39 36
2490.0 37 36 37 37 35 34 34 34 34 36
2530.0 35 35 39 38 42 43 45 52 53 58
2570.0 65 70 74 79 85 88 92 95 93 89
2610.0 83 78 71 69 67 62 59 58 58 59
2650.0 62 69 68 65 64 62 62 59 56 59
2690.0 63 65 65 67 69 73 82 96 108 120
2730.0 129 137 136 135 129 119 114 114 118 119
2770.0 113 103 96 96 101 104 108 109 117 126
2810.0 140 152 164 169 182 192 207 227 255 303
2850.0 377 463 575 715 918 1260 1719 2147 2327 2167
2890.0 1943 1851 1923 2037 2067 2023 1964 1973 2082 2306
2930.0 2587 2885 3098 3060 2851 2611 2641 3583 6083 8715
2970.0 10000 7226 4606 2673 1602 1218 1074 974 893 843
3010.0 878 990 1115 1192 1188 1085 926 764 631 554
3050.0 510 490 465 433 383 331 275 230 197 172
3090.0 149 144 133 130 133 124 121 109 101 95
3130.0 88 87 83 78 80 81 82 84 86 86
3170.0 87 79 77 73 76 81 80 72 73 70
3210.0 70 67 67 56 49 45 35 33 27 21
3250.0 21 24 21 14 8 5 7 8 7 19
3290.0 27 31 34 32 35 35 32 26 20 24
3330.0 21 18 21 23 28 28 36 31 33 26
3370.0 30 34 35 38 38 38 40 40 40 31
3410.0 32 29 34 33 39 39 42 32 28 34
3450.0 40 35 30 31 37 36 24 23 32 25
3490.0 21 25 30 31 34 32 36 35 26 32
3530.0 35 41 42 38 37 36 30 30 22 32
3570.0 36 30 38 36 35 35 39 30 31 31
3610.0 35 28 37 38 36 35 32 29 36 44
3650.0 38 33 35 41 39 43 39 42 39 43
3690.0 40 34 46 50 44 49 47 49 44 43
3730.0 52 49 52 51 49 45 50 48 41 38
3770.0 42 40 51 51 43 54 37 54 49 55
3810.0 55 40 43 65 64 51 62 55 51 58
3850.0 53 55 51 50 56 55 48 53 53 60
3890.0 42 48 60 47 33 41 48 53 48 46
3930.0 46 48 39 49 56 55 58 51 80 70
##END=
