##TITLE=Diethylene glycol monododecyl ether
##JCAMP-DX=4.24
##DATA TYPE=INFRARED SPECTRUM
##ORIGIN=Sadtler Research Labs Under US-EPA Contract
##OWNER=NIST Standard Reference Data Program
##CAS REGISTRY NO=3055-93-4
##MOLFORM=C 16 H 34 O 3
##XUNITS=1/CM
##YUNITS=ABSORBANCE
##XFACTOR=1.0
##YFACTOR=0.000103488
##DELTAX=4.0
##FIRSTX=450.0
##LASTX=3966.0
##FIRSTY=0.031564
##MAXX=3966
##MINX=450
##MAXY=1.03488
##MINY=0
##NPOINTS=880
##XYDATA=(X++(Y..Y))
450.0 305 108 74 32 54 47 85 35 91 54
490.0 70 12 70 79 39 99 77 94 82 101
530.0 94 95 104 85 104 63 97 57 49 26
570.0 59 59 67 62 4 84 40 45 26 62
610.0 40 44 84 33 40 28 43 23 45 56
650.0 71 63 50 63 33 87 50 75 58 72
690.0 76 84 93 93 126 135 164 160 185 168
730.0 168 159 146 141 135 140 132 128 138 119
770.0 127 112 165 44 83 116 186 161 187 165
810.0 196 196 192 203 200 212 210 229 222 245
850.0 248 273 282 283 315 320 339 352 381 380
890.0 398 388 374 369 365 370 363 375 369 379
930.0 358 356 338 318 322 306 314 321 346 348
970.0 365 378 395 430 428 449 463 495 527 566
1010.0 619 674 740 806 887 962 1059 1134 1244 1367
1050.0 1508 1649 1797 1924 1939 1889 1750 1634 1543 1543
1090.0 1611 1730 1952 2209 2590 2927 3309 3681 3898 3920
1130.0 3730 3427 3052 2681 2304 1969 1639 1380 1154 992
1170.0 871 774 699 629 579 531 504 482 481 465
1210.0 469 460 447 442 420 426 427 452 474 507
1250.0 524 533 537 534 528 521 521 527 534 539
1290.0 546 542 527 511 478 456 435 433 439 457
1330.0 472 503 565 665 809 942 1000 953 866 798
1370.0 736 679 631 609 582 537 485 453 416 386
1410.0 350 321 305 282 276 287 332 387 466 549
1450.0 673 789 921 971 914 826 676 542 414 326
1490.0 242 191 162 125 116 101 72 65 67 60
1530.0 46 42 51 45 40 28 33 32 43 23
1570.0 28 23 34 14 22 15 14 18 19 18
1610.0 13 22 13 21 11 16 9 18 5 18
1650.0 6 27 11 5 11 11 13 17 9 24
1690.0 8 17 21 36 23 25 35 49 57 60
1730.0 82 103 144 172 221 228 217 191 157 127
1770.0 100 91 68 63 55 50 37 35 28 19
1810.0 12 12 8 6 5 3 4 2 8 7
1850.0 3 7 7 6 3 8 6 6 12 11
1890.0 13 10 10 16 16 18 22 24 28 28
1930.0 31 31 32 34 37 39 41 37 41 37
1970.0 35 35 35 32 35 32 32 32 31 28
2010.0 26 30 31 31 33 34 33 36 36 34
2050.0 31 31 34 25 27 28 28 25 27 24
2090.0 20 19 18 19 20 17 21 20 20 21
2130.0 21 23 23 22 24 23 22 21 23 25
2170.0 22 23 21 23 21 19 18 18 15 14
2210.0 18 13 17 17 19 20 20 13 17 15
2250.0 17 17 15 18 19 20 17 15 17 16
2290.0 16 15 22 17 21 21 26 22 29 21
2330.0 18 18 21 28 10 29 26 24 26 10
2370.0 11 4 2 9 6 11 9 10 13 11
2410.0 12 14 11 9 11 14 10 8 9 6
2450.0 10 9 6 7 6 11 12 12 9 9
2490.0 12 15 16 12 15 16 15 16 22 26
2530.0 31 31 37 36 35 38 38 47 47 52
2570.0 56 55 57 58 58 60 61 62 66 63
2610.0 65 67 65 70 71 70 77 81 78 84
2650.0 85 91 93 101 114 114 122 130 141 149
2690.0 156 160 167 179 182 183 193 209 212 215
2730.0 224 241 233 243 244 241 253 256 263 273
2770.0 285 299 315 339 363 392 418 446 475 509
2810.0 544 582 631 690 756 853 986 1155 1413 1779
2850.0 2343 3135 4137 5039 5372 5151 4707 4268 3932 3654
2890.0 3412 3291 3311 3475 3788 4222 4766 5455 6529 7976
2930.0 9387 10000 9525 8370 7023 5766 4738 4089 3718 3469
2970.0 3078 2477 1826 1346 1027 808 655 549 473 408
3010.0 357 311 278 253 237 209 191 175 164 143
3050.0 129 126 114 109 106 98 91 85 91 82
3090.0 80 84 82 74 68 67 72 66 60 51
3130.0 60 53 52 53 52 39 36 38 31 34
3170.0 37 39 31 33 36 32 21 21 25 27
3210.0 20 17 16 10 16 11 4 6 9 14
3250.0 9 10 5 18 11 16 27 23 23 34
3290.0 31 23 30 21 30 28 44 29 23 31
3330.0 30 39 32 38 38 29 31 32 29 37
3370.0 39 39 34 34 41 37 32 41 28 43
3410.0 32 48 31 28 45 46 44 37 38 40
3450.0 30 44 39 35 34 39 50 46 50 53
3490.0 49 62 60 67 69 64 86 76 94 78
3530.0 82 87 84 89 77 88 83 75 63 76
3570.0 85 93 75 77 78 94 90 112 94 84
3610.0 121 138 163 204 231 281 277 240 209 166
3650.0 123 124 123 127 132 112 113 91 93 71
3690.0 67 42 43 19 10 27 7 18 12 2
3730.0 6 11 1 15 41 10 2 2 2 2
3770.0 2 2 2 2 2 2 2 2 2 2
3810.0 2 2 2 2 2 2 9 2 2 2
3850.0 0 21 16 2 2 2 10 3 15 1
3890.0 12 26 16 24 15 0 32 3 2 37
3930.0 2 11 31 0 26 25 27 42 42 18
##END=
