##TITLE=Ethenesulfonic acid, p-chlorophenyl ester
##JCAMP-DX=4.24
##DATA TYPE=INFRARED SPECTRUM
##ORIGIN=Sadtler Research Labs Under US-EPA Contract
##OWNER=NIST Standard Reference Data Program
##CAS REGISTRY NO=3058-82-0
##MOLFORM=C 8 H 7 Cl O 3 S
##XUNITS=1/CM
##YUNITS=ABSORBANCE
##XFACTOR=1.0
##YFACTOR=0.000076144
##DELTAX=4.0
##FIRSTX=450.0
##LASTX=3966.0
##FIRSTY=0.005559
##MAXX=3966
##MINX=450
##MAXY=0.76144
##MINY=0
##NPOINTS=880
##XYDATA=(X++(Y..Y))
450.0 73 83 191 160 173 194 145 156 164 228
490.0 229 221 226 275 350 401 495 547 583 598
530.0 557 576 642 715 667 574 482 446 472 535
570.0 543 466 301 184 90 60 62 64 130 167
610.0 223 215 203 222 274 341 424 510 619 786
650.0 997 1042 965 650 512 300 188 115 52 40
690.0 9 44 100 210 355 528 678 865 1119 1363
730.0 1450 1416 1247 1173 1121 1209 1565 2487 4361 6815
770.0 8281 6906 3982 1715 838 478 308 264 245 328
810.0 445 702 1130 1606 1936 2164 2409 2627 2625 2469
850.0 2743 3759 5928 8398 10000 9249 6991 4621 2906 1879
890.0 1232 873 636 519 451 400 349 270 232 202
930.0 239 279 321 301 282 363 459 560 654 994
970.0 1485 1674 1347 741 324 183 122 83 113 187
1010.0 698 1305 1500 1017 297 99 79 37 47 24
1050.0 35 25 52 59 90 145 214 381 736 1551
1090.0 2678 3342 2974 1825 986 670 520 456 423 419
1130.0 483 629 892 1323 2099 3414 5077 5891 5265 4075
1170.0 4317 6288 7922 7419 5298 3676 3498 3910 3985 3348
1210.0 2319 1623 1308 1084 814 526 344 277 248 254
1250.0 266 293 317 323 298 256 203 163 134 120
1290.0 105 97 89 84 83 85 95 109 123 132
1330.0 154 176 219 243 257 303 369 485 637 885
1370.0 1276 1850 2528 3310 3981 4447 4602 4758 5376 6135
1410.0 6210 4614 2826 1392 813 535 421 366 305 303
1450.0 303 336 369 391 510 761 1398 2765 5126 7941
1490.0 7558 5341 2442 1147 724 491 422 308 283 209
1530.0 203 166 157 168 136 116 101 128 86 97
1570.0 108 138 171 229 278 292 255 193 151 130
1610.0 128 121 130 127 136 134 148 168 163 162
1650.0 163 135 94 75 63 54 60 39 61 52
1690.0 44 38 65 57 56 45 49 69 46 45
1730.0 52 72 53 60 79 104 114 116 109 78
1770.0 68 55 45 44 40 43 43 43 47 42
1810.0 41 45 38 33 35 34 30 23 33 37
1850.0 35 33 42 54 71 91 96 120 132 141
1890.0 136 117 93 76 67 61 61 59 65 64
1930.0 71 78 90 111 116 105 77 57 40 38
1970.0 32 34 28 28 27 31 34 30 28 27
2010.0 29 34 37 36 37 34 34 35 32 33
2050.0 31 28 28 29 35 32 29 25 19 18
2090.0 16 14 16 18 19 20 16 20 20 23
2130.0 19 15 16 14 16 14 12 15 16 13
2170.0 15 12 11 10 12 12 13 13 13 13
2210.0 13 16 15 15 17 17 19 20 25 27
2250.0 30 32 40 37 38 41 42 40 43 47
2290.0 46 54 56 63 74 74 71 65 68 54
2330.0 54 51 54 53 77 74 63 61 60 50
2370.0 56 56 59 56 45 37 37 37 34 29
2410.0 29 23 20 16 14 11 11 12 15 15
2450.0 16 18 16 18 16 15 14 17 16 16
2490.0 15 14 16 18 18 17 20 20 20 21
2530.0 21 22 25 31 31 38 42 44 47 47
2570.0 49 52 51 52 49 42 40 33 33 31
2610.0 30 32 27 27 29 27 28 27 29 29
2650.0 27 26 27 23 27 23 27 25 22 21
2690.0 17 23 22 15 14 15 15 10 16 17
2730.0 14 10 13 13 13 13 14 11 11 16
2770.0 16 16 20 17 15 13 15 18 16 14
2810.0 18 16 18 20 24 27 34 39 40 39
2850.0 35 34 26 27 23 20 19 22 18 16
2890.0 16 14 11 14 13 11 10 7 0 7
2930.0 8 15 13 17 14 8 7 6 10 13
2970.0 18 18 22 22 24 32 29 28 31 35
3010.0 32 36 46 51 65 90 110 122 128 116
3050.0 96 80 69 67 71 79 89 92 92 99
3090.0 103 110 111 110 97 82 65 58 47 35
3130.0 32 28 24 21 23 22 15 17 20 20
3170.0 18 16 16 21 13 17 15 15 19 13
3210.0 16 15 16 13 15 19 13 17 14 15
3250.0 11 16 16 14 18 16 17 13 20 16
3290.0 22 18 21 19 17 18 13 20 16 14
3330.0 16 18 21 24 24 25 20 19 29 26
3370.0 23 26 29 22 18 22 21 18 20 29
3410.0 19 24 21 19 24 18 18 14 17 19
3450.0 27 16 25 20 24 22 18 19 22 21
3490.0 17 14 18 21 17 21 25 17 19 26
3530.0 23 20 19 16 14 13 20 14 20 27
3570.0 19 28 19 24 20 24 24 20 24 17
3610.0 25 26 23 25 23 20 21 41 31 28
3650.0 37 44 39 36 31 22 18 14 17 23
3690.0 24 17 22 22 15 15 18 27 30 26
3730.0 31 23 33 24 23 19 24 14 15 21
3770.0 16 22 22 21 25 23 24 21 15 7
3810.0 24 11 24 34 22 27 34 29 13 23
3850.0 32 22 24 26 33 27 32 20 26 32
3890.0 28 32 20 30 27 30 28 36 28 34
3930.0 24 15 33 16 22 25 18 13 8 19
##END=
