##TITLE=Benzofuran, 2,3-dihydro-2,2,7-trimethyl-,
##JCAMP-DX=4.24
##DATA TYPE=INFRARED SPECTRUM
##ORIGIN=Sadtler Research Labs Under US-EPA Contract
##OWNER=NIST Standard Reference Data Program
##CAS REGISTRY NO=30590-60-4
##MOLFORM=C 11 H 14 O
##XUNITS=1/CM
##YUNITS=ABSORBANCE
##XFACTOR=1.0
##YFACTOR=0.000048663
##DELTAX=4.0
##FIRSTX=450.0
##LASTX=3966.0
##FIRSTY=0.010511
##MAXX=3966
##MINX=450
##MAXY=0.48663
##MINY=0
##NPOINTS=880
##XYDATA=(X++(Y..Y))
450.0 216 233 205 250 170 204 139 125 164 108
490.0 124 110 73 32 135 181 231 220 209 159
530.0 99 141 95 93 80 93 147 236 235 241
570.0 193 94 105 97 167 209 273 225 241 174
610.0 116 88 72 61 32 49 38 47 2 24
650.0 35 56 62 69 61 44 98 69 104 65
690.0 114 72 111 111 139 211 321 643 767 1151
730.0 1191 897 949 1432 2512 3616 5490 6139 3705 2964
770.0 1634 1039 997 1140 1179 1074 842 549 430 297
810.0 259 205 179 183 229 311 485 804 975 1056
850.0 1016 816 670 783 1138 1887 3337 5379 7121 7393
890.0 6289 4112 1851 799 584 493 475 471 456 467
930.0 514 623 741 842 850 795 686 618 660 777
970.0 876 868 751 564 401 307 269 250 250 245
1010.0 244 218 204 193 194 211 242 308 384 477
1050.0 568 653 759 987 1397 1797 1953 1849 1471 1065
1090.0 896 944 1067 1219 1346 1523 1894 2529 3280 3967
1130.0 4601 5172 5403 5346 4909 4156 3616 3428 3418 3282
1170.0 2786 2146 1602 1236 1206 1411 1578 1560 1388 1055
1210.0 798 724 751 878 1070 1403 1892 2454 2871 3206
1250.0 3845 5031 6596 7646 7601 6359 4630 3405 3032 3117
1290.0 3376 3577 3316 2772 2102 1667 1767 2206 2438 2408
1330.0 2067 1347 781 487 386 359 455 660 1177 1622
1370.0 2193 3392 2713 2762 2425 1822 1275 694 439 401
1410.0 409 484 607 868 1343 2166 3201 4328 5401 6156
1450.0 6664 7028 7109 6964 6821 6369 5696 5089 4265 3360
1490.0 2803 2217 1586 1191 979 798 651 561 484 431
1530.0 382 363 349 334 312 274 257 251 242 239
1570.0 256 266 315 420 679 1240 2049 2776 2933 2639
1610.0 1713 868 600 560 558 543 466 388 328 287
1650.0 249 225 217 227 230 220 205 166 147 133
1690.0 125 132 147 157 153 145 155 175 175 184
1730.0 193 180 140 104 100 112 120 159 196 210
1770.0 211 182 128 102 79 79 74 83 75 69
1810.0 75 94 119 168 221 252 244 206 162 116
1850.0 80 67 61 57 57 64 60 84 119 167
1890.0 225 265 262 225 173 105 72 50 50 44
1930.0 36 34 31 33 31 32 32 34 32 42
1970.0 45 56 65 65 63 65 57 46 44 41
2010.0 37 36 37 35 32 38 34 43 37 32
2050.0 24 18 17 19 18 19 25 32 35 37
2090.0 43 40 40 46 52 54 47 44 35 34
2130.0 31 32 27 24 25 27 27 27 32 37
2170.0 38 31 29 31 26 20 24 27 27 28
2210.0 27 22 24 17 16 16 16 10 4 2
2250.0 3 3 3 4 8 11 20 21 19 21
2290.0 17 14 18 20 18 19 26 33 37 37
2330.0 45 35 49 48 50 26 34 42 29 21
2370.0 32 38 34 36 47 58 59 55 57 55
2410.0 61 56 48 47 51 54 59 66 68 62
2450.0 59 54 50 51 52 58 62 70 78 85
2490.0 77 76 69 60 56 58 69 62 66 51
2530.0 45 44 44 43 45 45 48 58 61 66
2570.0 74 73 79 84 89 89 82 74 63 64
2610.0 66 73 74 77 71 69 74 84 94 100
2650.0 99 87 68 57 54 45 53 52 57 53
2690.0 60 56 58 59 61 66 61 69 81 96
2730.0 119 142 168 193 188 182 149 116 98 81
2770.0 82 79 85 81 83 81 85 99 112 131
2810.0 159 190 209 240 264 295 317 359 435 547
2850.0 774 1170 1741 2220 2482 2554 2372 2125 1980 1912
2890.0 1869 1856 1884 1960 2107 2376 2761 3262 3880 4562
2930.0 5206 5670 5974 5675 4981 4283 3582 2961 2639 2890
2970.0 4133 6435 9048 10000 9120 6633 3683 1744 936 638
3010.0 616 693 907 1242 1665 2022 2154 2168 2014 1853
3050.0 1826 1993 2266 2576 2717 2607 2268 1778 1285 898
3090.0 628 455 364 310 275 248 216 172 128 108
3130.0 86 72 66 67 65 56 60 55 64 62
3170.0 66 67 75 87 106 113 122 118 121 103
3210.0 88 81 74 74 75 68 69 69 58 49
3250.0 43 31 27 22 24 17 23 15 22 34
3290.0 33 37 34 46 42 36 28 27 14 29
3330.0 30 24 28 21 22 27 32 22 17 27
3370.0 31 29 31 29 25 18 21 24 28 25
3410.0 34 16 30 30 34 40 27 29 32 28
3450.0 24 28 27 33 27 22 26 32 26 31
3490.0 30 35 32 27 31 35 32 23 23 16
3530.0 22 39 14 10 14 12 26 18 2 22
3570.0 26 16 25 10 21 13 14 29 23 3
3610.0 17 23 14 11 29 15 3 22 18 23
3650.0 8 24 14 25 31 12 23 0 19 21
3690.0 25 12 19 16 15 9 3 5 17 23
3730.0 18 23 13 11 2 8 3 5 9 7
3770.0 2 2 8 16 26 14 23 13 7 9
3810.0 25 7 24 14 17 28 24 24 11 29
3850.0 19 7 23 30 47 25 17 47 31 35
3890.0 43 34 24 22 36 47 33 23 12 20
3930.0 37 51 24 11 14 18 19 10 20 2
##END=
