##TITLE=Ethane, 2,2-dichloro-1,1,1-trifluoro-
##JCAMP-DX=4.24
##DATA TYPE=INFRARED SPECTRUM
##ORIGIN=Sadtler Research Labs Under US-EPA Contract
##OWNER=NIST Standard Reference Data Program
##CAS REGISTRY NO=306-83-2
##MOLFORM=C 2 H Cl 2 F 3
##XUNITS=1/CM
##YUNITS=ABSORBANCE
##XFACTOR=1.0
##YFACTOR=0.000053485
##DELTAX=4.0
##FIRSTX=450.0
##LASTX=3966.0
##FIRSTY=0.004707
##MAXX=3966
##MINX=450
##MAXY=0.53485
##MINY=0
##NPOINTS=880
##XYDATA=(X++(Y..Y))
450.0 88 120 6 190 225 117 161 184 115 205
490.0 139 155 135 137 116 201 231 249 372 390
530.0 336 341 269 255 342 288 347 354 287 280
570.0 185 217 158 158 119 174 171 159 184 139
610.0 184 135 196 133 174 155 195 127 158 219
650.0 128 311 453 1219 1120 2105 1816 1606 1431 647
690.0 161 207 69 152 88 190 145 169 154 154
730.0 171 166 228 191 255 296 412 578 761 917
770.0 903 829 783 542 356 365 318 335 351 431
810.0 487 686 1093 1809 2907 4144 5200 5697 5624 4885
850.0 3534 2204 1646 1651 1486 1418 1061 757 496 261
890.0 220 202 213 201 209 189 184 177 172 162
930.0 151 167 159 170 156 155 136 140 144 151
970.0 146 163 184 188 216 234 245 225 232 205
1010.0 178 156 162 165 157 170 159 167 160 177
1050.0 182 204 216 228 230 223 228 217 250 259
1090.0 286 334 397 476 546 632 738 948 1348 2083
1130.0 3177 4641 6242 8244 8782 7840 6786 4791 2899 1993
1170.0 2030 2983 4858 7311 9206 10000 9481 8127 5810 3541
1210.0 2373 2059 1964 2024 2047 2024 1978 1865 1597 1284
1250.0 1272 1479 2266 3504 5339 6796 8121 9313 6873 5019
1290.0 3772 2111 1230 1091 1605 2749 3897 4420 4815 3568
1330.0 2695 1795 661 396 308 313 328 335 342 292
1370.0 317 270 279 242 272 248 250 254 213 197
1410.0 171 197 170 175 169 177 145 122 122 124
1450.0 125 106 111 95 120 106 125 109 119 128
1490.0 127 128 123 133 120 150 126 140 142 158
1530.0 167 175 190 194 172 132 125 111 96 96
1570.0 98 100 101 89 92 83 90 95 92 97
1610.0 97 97 106 102 105 108 98 110 99 107
1650.0 104 96 90 100 88 96 84 104 96 108
1690.0 91 112 95 96 90 92 87 112 87 86
1730.0 93 96 92 100 101 103 87 83 79 71
1770.0 75 80 77 68 64 72 81 74 73 69
1810.0 77 78 69 70 62 70 66 69 66 75
1850.0 67 70 70 74 72 68 58 50 51 54
1890.0 53 54 52 51 50 61 51 49 53 48
1930.0 47 46 46 53 50 46 45 46 45 43
1970.0 44 43 46 45 46 53 50 55 59 61
2010.0 63 65 64 59 54 48 46 50 55 51
2050.0 55 54 52 49 50 46 43 45 44 47
2090.0 48 46 43 49 49 46 45 45 51 50
2130.0 58 65 65 70 61 49 55 45 41 40
2170.0 39 38 41 45 44 42 34 35 31 30
2210.0 31 30 30 28 27 24 27 24 25 24
2250.0 22 27 25 29 27 26 28 31 26 22
2290.0 16 15 7 8 4 0 8 18 20 28
2330.0 21 38 15 1 20 0 0 3 0 3
2370.0 32 34 47 39 42 46 51 48 45 50
2410.0 56 63 58 61 55 52 38 36 33 27
2450.0 24 23 25 24 19 17 25 24 27 24
2490.0 27 32 32 38 46 46 43 41 37 35
2530.0 30 33 35 32 36 28 25 21 20 18
2570.0 21 17 16 23 20 21 20 23 15 20
2610.0 10 14 11 8 12 8 9 10 17 12
2650.0 15 13 11 17 16 19 12 23 10 13
2690.0 12 13 9 11 10 13 13 12 16 13
2730.0 12 13 14 14 13 9 11 9 10 13
2770.0 17 11 14 15 15 17 13 11 12 15
2810.0 14 11 10 11 13 15 13 10 11 13
2850.0 19 13 13 11 10 15 16 12 15 16
2890.0 17 14 17 12 18 16 13 13 16 13
2930.0 17 17 14 9 11 10 16 18 13 17
2970.0 16 19 25 28 16 22 40 77 137 162
3010.0 206 215 167 136 72 29 23 12 15 10
3050.0 14 12 17 10 14 18 16 11 15 12
3090.0 14 18 8 15 12 13 15 15 6 10
3130.0 15 6 11 12 18 16 20 10 10 5
3170.0 10 15 14 16 17 22 9 13 12 17
3210.0 11 6 14 16 13 19 12 14 13 8
3250.0 11 18 9 7 5 13 12 23 10 17
3290.0 17 14 17 17 13 6 2 5 14 17
3330.0 8 6 12 0 9 19 23 7 10 21
3370.0 17 14 11 15 1 15 11 12 29 21
3410.0 18 14 19 27 17 8 27 9 8 11
3450.0 11 21 19 25 31 20 22 28 22 27
3490.0 24 23 20 23 23 5 6 24 18 37
3530.0 30 21 12 25 20 25 38 23 42 33
3570.0 27 34 27 32 13 28 18 41 23 38
3610.0 35 34 53 53 39 49 50 33 28 33
3650.0 49 26 21 10 32 46 43 55 37 42
3690.0 40 26 12 30 43 49 51 27 55 68
3730.0 27 44 52 57 20 36 41 35 38 34
3770.0 46 11 35 40 64 28 24 57 35 48
3810.0 49 45 41 47 46 42 41 69 69 35
3850.0 62 5 24 50 24 30 48 33 35 47
3890.0 30 49 32 32 53 48 46 35 23 14
3930.0 40 44 36 17 18 46 32 27 29 22
##END=
