##TITLE=3,4-Furandimethanol, diacetate
##JCAMP-DX=4.24
##DATA TYPE=INFRARED SPECTRUM
##ORIGIN=Sadtler Research Labs Under US-EPA Contract
##OWNER=NIST Standard Reference Data Program
##CAS REGISTRY NO=30614-73-4
##MOLFORM=C 10 H 12 O 5
##XUNITS=1/CM
##YUNITS=ABSORBANCE
##XFACTOR=1.0
##YFACTOR=0.000122510
##DELTAX=4.0
##FIRSTX=450.0
##LASTX=3966.0
##FIRSTY=0.000000
##MAXX=3966
##MINX=450
##MAXY=1.2251
##MINY=0
##NPOINTS=880
##XYDATA=(X++(Y..Y))
450.0 0 159 219 163 204 254 281 308 317 351
490.0 330 324 319 273 263 245 226 226 205 195
530.0 214 252 253 181 183 187 195 206 208 214
570.0 236 232 236 266 270 390 572 882 976 860
610.0 646 528 454 420 381 349 318 313 329 297
650.0 281 313 294 275 243 207 244 208 235 247
690.0 247 247 268 284 297 314 309 292 278 271
730.0 270 268 277 308 343 352 334 319 306 319
770.0 347 377 398 427 478 554 696 896 1051 1034
810.0 886 706 542 451 429 450 463 445 402 360
850.0 351 333 352 366 439 589 816 986 982 831
890.0 635 516 469 454 460 469 463 452 425 390
930.0 357 336 338 355 411 506 666 875 1078 1146
970.0 1051 869 720 654 653 713 827 1028 1275 1528
1010.0 1734 1924 2205 2548 2806 2831 2582 2181 1816 1573
1050.0 1534 1732 1886 1769 1359 929 768 724 686 652
1090.0 602 557 509 471 435 402 372 357 347 345
1130.0 361 394 471 618 869 1121 1178 1031 823 703
1170.0 672 673 697 722 764 832 971 1194 1515 1991
1210.0 2821 4208 6036 8035 9599 10000 9371 7968 6579 5227
1250.0 3978 2959 2249 1810 1522 1324 1188 1100 1041 992
1290.0 907 791 664 556 483 436 404 374 357 341
1330.0 335 337 342 362 398 465 607 880 1201 1474
1370.0 1643 1769 1909 1960 1762 1402 1051 801 654 560
1410.0 498 459 449 437 441 443 461 468 490 519
1450.0 583 642 675 670 646 608 549 465 400 374
1490.0 357 348 351 346 349 339 334 339 360 359
1530.0 379 403 468 551 615 705 755 780 690 573
1570.0 465 387 344 319 301 310 316 332 340 355
1610.0 358 347 342 299 298 269 284 282 282 277
1650.0 313 301 299 289 300 301 326 311 342 358
1690.0 357 370 404 414 430 456 505 587 650 715
1730.0 817 961 1136 1361 1733 2276 3400 5218 7248 7933
1770.0 6737 4716 3205 2337 1812 1440 1248 1094 938 815
1810.0 703 589 494 434 395 380 355 342 327 311
1850.0 298 284 277 265 262 256 250 241 240 239
1890.0 237 238 236 236 236 237 237 241 242 240
1930.0 241 240 238 234 234 232 231 229 231 229
1970.0 229 228 229 232 228 231 231 231 232 231
2010.0 231 232 232 231 232 231 231 232 234 237
2050.0 242 244 244 246 241 235 231 228 226 225
2090.0 224 226 225 229 228 231 231 234 235 233
2130.0 233 235 232 231 231 230 230 231 227 226
2170.0 224 222 221 220 218 217 221 220 220 220
2210.0 220 221 220 220 221 219 220 219 217 214
2250.0 214 215 215 214 214 215 214 216 216 212
2290.0 208 204 198 191 180 164 167 166 159 170
2330.0 158 159 160 158 160 192 159 160 159 159
2370.0 159 175 181 192 202 211 215 215 216 214
2410.0 215 214 215 212 215 216 217 221 220 223
2450.0 225 224 226 226 224 224 220 217 219 217
2490.0 218 214 214 216 216 216 212 210 211 210
2530.0 210 213 212 211 213 214 212 211 211 210
2570.0 208 208 210 216 213 213 214 211 213 211
2610.0 212 210 212 213 209 209 210 206 206 206
2650.0 205 207 207 206 209 203 205 206 207 204
2690.0 207 207 206 206 208 209 209 211 212 216
2730.0 215 217 216 213 213 213 221 220 222 222
2770.0 220 216 215 212 207 211 211 215 211 213
2810.0 213 218 216 224 224 224 224 227 225 226
2850.0 230 235 236 238 242 247 254 264 274 293
2890.0 315 347 373 389 378 349 326 312 318 320
2930.0 330 351 380 421 480 543 601 653 707 748
2970.0 752 703 621 540 481 443 420 405 376 349
3010.0 327 308 298 295 296 297 299 294 288 286
3050.0 282 279 276 272 271 265 260 255 246 247
3090.0 240 235 232 231 225 224 220 216 213 212
3130.0 212 208 208 209 207 206 206 205 202 201
3170.0 197 198 198 197 193 197 195 193 193 194
3210.0 195 193 191 190 188 189 190 192 193 190
3250.0 190 188 189 188 190 190 191 193 188 190
3290.0 192 189 190 192 188 187 187 192 191 189
3330.0 188 190 190 190 191 188 187 189 189 188
3370.0 188 190 190 189 183 185 189 184 190 190
3410.0 186 187 191 186 190 188 189 186 185 186
3450.0 185 191 189 186 191 197 196 189 192 194
3490.0 201 205 211 214 225 231 230 227 209 195
3530.0 189 195 190 187 178 194 203 220 221 216
3570.0 221 224 238 259 224 206 226 231 226 219
3610.0 190 180 178 178 181 161 178 181 168 176
3650.0 169 181 178 178 185 166 177 166 188 165
3690.0 170 162 177 166 174 170 172 165 175 164
3730.0 165 172 159 172 160 186 160 172 183 179
3770.0 169 169 172 167 176 174 182 171 186 165
3810.0 188 169 171 175 171 172 169 172 169 174
3850.0 172 177 173 176 177 166 168 166 167 167
3890.0 185 169 178 160 169 184 182 161 161 168
3930.0 166 160 168 161 167 170 183 181 175 177
##END=
