##TITLE=4'-Methoxy-2'-hydroxybenzylidene-4-n-butylaniline
##JCAMP-DX=4.24
##DATA TYPE=INFRARED SPECTRUM
##ORIGIN=Sadtler Research Labs Under US-EPA Contract
##OWNER=NIST Standard Reference Data Program
##CAS REGISTRY NO=30633-94-4
##MOLFORM=C 18 H 21 N O 2
##XUNITS=1/CM
##YUNITS=ABSORBANCE
##XFACTOR=1.0
##YFACTOR=0.000036920
##DELTAX=4.0
##FIRSTX=450.0
##LASTX=3966.0
##FIRSTY=0.000812
##MAXX=3966
##MINX=450
##MAXY=0.3692
##MINY=0
##NPOINTS=880
##XYDATA=(X++(Y..Y))
450.0 22 173 196 202 149 106 136 175 124 193
490.0 226 278 314 439 429 347 396 339 379 350
530.0 446 493 637 617 631 582 494 369 209 106
570.0 21 77 112 172 180 179 178 143 249 308
610.0 328 316 274 233 153 115 165 207 269 364
650.0 371 264 184 141 132 145 144 127 89 78
690.0 126 91 125 173 184 208 282 341 335 353
730.0 368 414 410 409 402 408 420 423 501 548
770.0 620 669 785 928 1106 1215 1279 1383 1435 1405
810.0 1269 1183 1238 1409 1655 2005 2242 2189 1741 1323
850.0 1121 1011 870 712 636 644 770 977 1096 1045
890.0 847 552 353 249 190 163 140 150 163 213
930.0 221 231 237 232 267 338 545 708 1040 1242
970.0 888 638 508 361 257 212 215 220 246 308
1010.0 382 700 878 932 1211 1344 1125 766 508 349
1050.0 288 256 222 248 256 310 324 359 357 392
1090.0 447 530 669 848 1267 2157 4181 4685 2558 1560
1130.0 1986 2894 2453 1352 1056 1237 1854 2939 4156 4748
1170.0 4447 3120 1791 1547 2104 2835 3381 4117 4881 4618
1210.0 3054 1795 1360 1387 1497 1570 1651 1729 1733 1577
1250.0 1371 1092 820 694 694 822 1121 1661 2608 3619
1290.0 3950 3701 3018 2099 1416 1013 860 817 906 1090
1330.0 1375 1729 1863 1645 1364 1291 1371 1511 1552 1508
1370.0 1434 1456 1569 1678 1724 1698 1562 1328 1111 927
1410.0 811 782 727 751 765 884 1041 1367 1772 1882
1450.0 1772 1738 1785 1884 1921 1790 1563 1390 1449 1532
1490.0 1732 2086 2646 3586 4913 6462 6748 5405 3852 2785
1530.0 2203 1879 1748 1729 1820 2022 2271 2627 3167 3654
1570.0 3886 3811 3638 3552 3726 4336 5345 6095 6094 5952
1610.0 6394 7638 9199 10000 9697 8238 6665 4784 3277 2187
1650.0 1482 1040 773 638 514 434 356 321 250 192
1690.0 187 167 121 98 92 84 59 28 58 70
1730.0 66 53 57 63 49 44 61 63 73 87
1770.0 84 74 87 59 58 39 30 28 15 29
1810.0 17 15 18 13 0 9 19 41 35 39
1850.0 54 63 65 59 67 59 78 79 89 99
1890.0 101 102 95 76 62 52 41 34 30 44
1930.0 53 48 44 30 35 30 27 20 17 3
1970.0 5 12 12 14 20 12 12 21 24 33
2010.0 34 35 41 47 52 48 57 58 63 67
2050.0 73 79 75 77 66 64 53 56 51 44
2090.0 33 30 31 29 22 24 32 31 34 36
2130.0 32 24 24 19 11 17 21 19 24 27
2170.0 26 31 31 33 32 34 37 41 39 33
2210.0 28 29 34 36 33 37 38 49 52 54
2250.0 60 57 52 53 47 56 58 60 66 67
2290.0 68 65 70 79 75 74 80 76 84 102
2330.0 89 89 126 125 127 148 152 145 154 145
2370.0 144 138 151 151 157 160 165 172 179 183
2410.0 184 183 187 180 188 199 202 210 219 228
2450.0 239 242 246 250 253 259 263 273 262 262
2490.0 272 274 276 275 280 282 289 292 301 307
2530.0 311 314 315 319 317 315 317 323 330 337
2570.0 343 353 366 378 379 380 386 387 392 406
2610.0 416 427 444 456 459 467 471 467 468 474
2650.0 477 483 483 487 494 497 503 504 505 506
2690.0 511 519 524 534 540 556 556 560 563 568
2730.0 561 558 572 557 554 544 541 529 527 528
2770.0 531 530 529 533 537 557 578 588 615 634
2810.0 678 710 755 804 882 987 1115 1267 1426 1592
2850.0 1718 1800 1844 1877 1880 1902 1886 1800 1774 1786
2890.0 1783 1752 1768 1821 1920 2065 2263 2498 2781 3114
2930.0 3407 3541 3460 3270 3078 2914 2824 2842 2864 2796
2970.0 2632 2313 1875 1570 1408 1296 1248 1227 1263 1307
3010.0 1396 1401 1270 1222 1271 1317 1239 1079 966 908
3050.0 869 842 826 797 785 790 801 807 823 798
3090.0 760 705 667 622 587 567 543 524 510 493
3130.0 483 471 466 457 448 447 438 437 431 435
3170.0 415 417 407 394 389 390 380 367 370 358
3210.0 351 336 330 333 318 323 308 288 282 290
3250.0 263 264 253 241 244 248 225 214 200 204
3290.0 202 195 197 180 187 179 174 166 164 169
3330.0 153 146 148 150 139 144 133 136 135 136
3370.0 144 118 109 115 111 115 104 105 104 93
3410.0 92 96 99 90 86 88 83 60 63 81
3450.0 65 64 81 79 73 70 70 66 73 57
3490.0 77 70 70 67 65 52 70 48 30 32
3530.0 40 47 40 36 49 36 54 42 43 46
3570.0 43 50 38 44 54 53 50 41 62 46
3610.0 35 43 33 49 46 75 25 37 49 57
3650.0 48 45 48 77 50 55 32 46 44 51
3690.0 52 43 38 32 29 51 44 57 66 54
3730.0 25 44 53 46 60 44 60 32 51 73
3770.0 54 54 41 54 49 50 33 45 47 41
3810.0 54 50 72 38 51 58 46 71 63 59
3850.0 65 84 64 42 58 79 65 55 64 68
3890.0 43 57 51 68 71 56 54 48 60 83
3930.0 83 86 92 59 68 77 40 76 63 51
##END=
