##TITLE=Acrylamide, N-cyclohexyl-
##JCAMP-DX=4.24
##DATA TYPE=INFRARED SPECTRUM
##ORIGIN=Sadtler Research Labs Under US-EPA Contract
##OWNER=NIST Standard Reference Data Program
##CAS REGISTRY NO=3066-72-6
##MOLFORM=C 9 H 15 N O
##XUNITS=1/CM
##YUNITS=ABSORBANCE
##XFACTOR=1.0
##YFACTOR=0.000041339
##DELTAX=4.0
##FIRSTX=450.0
##LASTX=3966.0
##FIRSTY=0.031914
##MAXX=3966
##MINX=450
##MAXY=0.41339
##MINY=0
##NPOINTS=880
##XYDATA=(X++(Y..Y))
450.0 772 687 103 513 694 177 270 373 547 615
490.0 277 496 289 277 431 339 308 197 344 283
530.0 553 540 379 412 169 271 300 327 460 332
570.0 242 195 202 278 212 360 321 171 353 272
610.0 212 244 176 262 121 231 281 217 242 324
650.0 174 196 242 347 344 399 400 109 353 280
690.0 134 178 123 122 114 2 81 130 215 190
730.0 225 106 23 484 457 392 340 267 262 155
770.0 182 279 320 572 613 753 654 816 778 592
810.0 553 509 564 556 459 478 429 360 468 506
850.0 498 391 441 351 359 464 427 473 567 592
890.0 718 613 574 520 525 472 522 512 580 639
930.0 802 877 956 975 963 959 1018 1108 1289 1427
970.0 1559 1437 1397 1203 943 830 715 559 504 401
1010.0 443 440 437 441 349 339 338 325 354 348
1050.0 353 372 265 354 366 348 420 392 360 445
1090.0 622 611 695 658 605 669 721 673 581 504
1130.0 502 481 506 534 562 508 615 659 730 709
1170.0 799 1094 1422 1895 2261 2676 3018 3156 2984 2541
1210.0 2063 1695 1331 1215 1117 1061 973 978 1105 1372
1250.0 1549 1551 1403 1164 950 908 863 769 638 533
1290.0 540 554 671 772 955 1148 1235 1243 1161 985
1330.0 863 780 677 703 697 709 740 641 586 526
1370.0 551 603 586 595 556 634 794 1017 1176 1342
1410.0 1401 1278 1082 1019 958 971 1009 1188 1501 1790
1450.0 2174 2532 2860 3202 3372 3782 4344 5363 6688 8258
1490.0 9218 9391 8744 7255 5973 4342 3286 2470 1838 1419
1530.0 1041 927 756 687 611 490 453 449 385 431
1570.0 348 400 399 377 372 416 444 465 483 566
1610.0 636 784 896 1000 1054 1080 1050 894 779 721
1650.0 621 640 605 649 757 849 1003 1220 1679 2494
1690.0 3539 5036 6615 7724 7981 6954 5355 3642 2325 1515
1730.0 1060 830 653 543 488 431 377 343 314 276
1770.0 281 229 217 207 198 188 175 149 162 126
1810.0 113 125 86 88 100 106 94 71 86 78
1850.0 73 70 79 104 64 102 78 81 74 83
1890.0 90 82 72 84 82 93 126 138 144 142
1930.0 125 100 92 74 49 32 38 32 39 34
1970.0 27 35 33 22 20 16 25 20 33 28
2010.0 20 26 30 18 15 12 11 5 26 20
2050.0 20 22 17 19 30 22 23 29 26 32
2090.0 29 14 16 19 19 25 18 21 21 22
2130.0 15 28 23 30 29 32 26 24 27 29
2170.0 23 36 34 25 31 29 28 23 20 19
2210.0 8 16 30 20 15 30 41 41 56 66
2250.0 66 87 90 95 117 113 122 118 113 111
2290.0 110 125 136 154 156 155 141 122 132 121
2330.0 113 108 123 108 202 145 173 136 209 188
2370.0 160 156 151 144 108 61 58 45 36 43
2410.0 37 53 54 49 52 46 50 46 47 43
2450.0 36 44 45 46 49 42 52 45 55 60
2490.0 51 58 54 45 39 34 41 43 48 49
2530.0 52 49 39 43 40 40 51 49 49 66
2570.0 67 62 69 77 80 84 90 88 84 95
2610.0 85 90 90 84 93 89 104 115 105 122
2650.0 120 141 156 172 176 182 180 182 159 149
2690.0 146 137 134 131 129 124 118 111 111 109
2730.0 98 104 89 97 100 99 104 110 108 113
2770.0 122 131 131 144 159 168 190 208 207 224
2810.0 229 222 240 248 286 313 355 459 595 858
2850.0 1287 1879 2642 3234 3437 3166 2560 1890 1397 1119
2890.0 990 1032 1151 1335 1608 1969 2419 3010 3789 4946
2930.0 6384 7956 9404 10000 9288 7588 5480 3437 2115 1377
2970.0 916 690 536 469 429 411 395 352 327 332
3010.0 336 356 406 450 489 462 408 342 271 252
3050.0 225 246 253 250 225 213 210 208 218 290
3090.0 402 406 425 372 313 257 207 171 155 138
3130.0 129 124 122 125 106 105 121 114 123 116
3170.0 120 93 114 113 74 97 101 98 103 98
3210.0 102 97 66 94 90 82 89 81 73 100
3250.0 79 84 111 92 86 102 96 97 81 96
3290.0 94 79 77 61 96 92 75 108 103 97
3330.0 85 82 85 89 70 91 88 88 90 99
3370.0 94 89 122 149 136 127 166 176 158 157
3410.0 158 163 170 170 171 200 259 296 329 429
3450.0 508 561 558 528 499 406 310 243 202 145
3490.0 113 105 92 57 75 57 45 53 78 65
3530.0 83 55 50 49 51 51 83 32 62 19
3570.0 67 53 45 78 56 49 37 53 55 58
3610.0 65 60 36 49 44 61 2 69 75 77
3650.0 61 72 67 32 56 32 123 67 93 68
3690.0 63 51 48 52 51 39 71 12 36 55
3730.0 47 53 54 86 29 41 6 55 33 62
3770.0 74 65 39 9 3 57 12 5 29 17
3810.0 14 48 72 14 56 35 2 5 66 81
3850.0 49 50 0 34 11 18 67 56 40 15
3890.0 114 5 39 66 12 70 89 29 5 10
3930.0 36 30 3 75 27 7 100 66 5 150
##END=
