##TITLE=Butyl caprate
##JCAMP-DX=4.24
##DATA TYPE=INFRARED SPECTRUM
##ORIGIN=Sadtler Research Labs Under US-EPA Contract
##OWNER=NIST Standard Reference Data Program
##CAS REGISTRY NO=30673-36-0
##MOLFORM=C 14 H 28 O 2
##XUNITS=1/CM
##YUNITS=ABSORBANCE
##XFACTOR=1.0
##YFACTOR=0.000120325
##DELTAX=4.0
##FIRSTX=450.0
##LASTX=3966.0
##FIRSTY=0.000000
##MAXX=3966
##MINX=450
##MAXY=1.20325
##MINY=0
##NPOINTS=880
##XYDATA=(X++(Y..Y))
450.0 0 234 133 261 316 290 325 282 190 311
490.0 371 288 307 240 293 237 259 270 244 238
530.0 265 276 206 195 227 155 208 217 200 255
570.0 236 212 229 276 267 215 251 253 252 242
610.0 229 231 260 258 227 242 230 247 231 250
650.0 207 218 197 206 217 178 228 198 220 211
690.0 229 228 245 245 278 290 338 355 369 342
730.0 338 373 326 433 473 500 274 400 353 312
770.0 337 281 283 264 260 264 239 248 294 284
810.0 278 228 276 268 269 280 304 346 344 353
850.0 322 269 307 307 308 291 330 323 317 339
890.0 330 330 339 333 343 324 314 316 337 329
930.0 356 376 397 437 484 536 573 600 610 645
970.0 637 621 596 577 546 554 573 593 647 711
1010.0 774 845 900 926 906 877 844 824 790 802
1050.0 846 901 1010 1146 1231 1261 1211 1120 1038 1011
1090.0 1029 1115 1255 1429 1627 1774 1840 1772 1648 1542
1130.0 1525 1610 1810 2135 2621 3200 3773 4170 4330 4277
1170.0 4169 3973 3771 3627 3431 3237 3077 2904 2757 2637
1210.0 2542 2506 2488 2524 2528 2642 2729 2802 2845 2756
1250.0 2644 2433 2199 2030 1884 1784 1681 1575 1496 1388
1290.0 1335 1292 1273 1286 1288 1260 1196 1154 1108 1083
1330.0 1070 1100 1155 1250 1322 1382 1392 1322 1242 1134
1370.0 1033 916 880 912 940 960 874 734 611 519
1410.0 502 491 497 564 617 711 767 855 897 966
1450.0 1106 1256 1409 1558 1514 1404 1208 927 744 587
1490.0 481 422 355 316 299 269 255 257 260 219
1530.0 209 221 236 211 206 196 202 192 191 197
1570.0 210 193 202 182 200 193 192 176 176 183
1610.0 179 198 181 207 185 196 194 186 186 190
1650.0 201 209 210 200 230 218 224 252 252 278
1690.0 277 319 364 410 472 558 626 736 874 1057
1730.0 1314 1654 2382 3284 4720 6607 6483 6407 4621 3020
1770.0 2124 1431 1113 869 704 583 487 417 350 328
1810.0 286 262 249 234 219 212 198 200 191 184
1850.0 181 182 178 178 177 165 169 166 164 171
1890.0 168 164 169 170 170 170 166 166 163 168
1930.0 166 169 165 161 165 170 175 172 166 169
1970.0 174 170 171 172 170 160 162 170 171 168
2010.0 169 172 173 168 177 171 176 180 177 178
2050.0 178 177 169 170 167 174 167 167 165 162
2090.0 162 159 160 161 155 157 154 157 156 153
2130.0 155 153 154 156 150 147 150 151 152 148
2170.0 147 151 150 151 148 147 147 149 149 146
2210.0 149 146 147 146 147 144 144 145 147 147
2250.0 147 148 149 148 146 151 150 148 147 149
2290.0 152 152 150 153 151 154 151 150 153 152
2330.0 165 162 153 164 165 154 156 143 155 168
2370.0 169 156 156 153 151 153 152 148 151 152
2410.0 154 151 149 146 148 149 145 145 144 140
2450.0 142 142 142 142 141 140 139 141 145 141
2490.0 144 146 143 145 146 148 147 149 150 149
2530.0 148 151 151 154 153 155 158 159 160 162
2570.0 163 167 168 170 170 173 175 172 172 175
2610.0 184 188 185 186 185 191 192 195 197 200
2650.0 201 210 209 216 224 227 233 236 238 237
2690.0 237 238 238 238 233 233 234 233 238 243
2730.0 245 252 261 268 273 274 272 276 276 277
2770.0 278 284 290 300 315 325 342 361 378 399
2810.0 424 451 488 529 579 639 714 811 947 1170
2850.0 1511 2068 2831 3549 3929 3904 3683 3473 3350 3224
2890.0 3003 2796 2757 2926 3271 3742 4398 5228 6304 7717
2930.0 9075 10000 9983 9350 8415 7293 6409 6059 6311 6815
2970.0 6881 6187 4841 3564 2657 2037 1599 1288 1060 892
3010.0 775 686 617 562 523 483 457 424 397 380
3050.0 352 331 316 303 290 279 272 263 261 256
3090.0 249 252 243 237 231 229 229 226 223 220
3130.0 214 216 212 208 209 205 207 197 198 205
3170.0 197 193 197 199 193 199 191 190 185 187
3210.0 183 175 177 175 173 167 162 160 164 162
3250.0 162 163 161 161 154 154 154 156 162 159
3290.0 159 159 155 156 158 154 159 158 160 162
3330.0 160 158 161 151 154 152 155 161 158 159
3370.0 152 154 154 161 157 155 159 156 156 152
3410.0 160 149 152 148 157 162 157 149 147 157
3450.0 161 161 162 166 169 172 177 197 208 214
3490.0 204 194 182 174 166 169 156 162 151 149
3530.0 154 157 152 156 154 154 157 151 145 152
3570.0 149 152 141 148 153 157 151 141 146 145
3610.0 154 154 152 146 166 169 162 147 142 145
3650.0 164 163 154 155 152 160 155 191 148 145
3690.0 158 164 150 142 151 156 159 150 153 158
3730.0 139 152 164 147 191 158 178 152 155 154
3770.0 154 153 150 165 152 157 152 159 176 160
3810.0 144 168 170 185 159 181 173 179 159 161
3850.0 165 153 189 169 164 177 188 166 160 188
3890.0 162 177 156 178 201 184 175 161 170 175
3930.0 173 153 150 167 175 170 185 164 176 196
##END=
