##TITLE=n-Capric acid isobutyl ester
##JCAMP-DX=4.24
##DATA TYPE=INFRARED SPECTRUM
##ORIGIN=Sadtler Research Labs Under US-EPA Contract
##OWNER=NIST Standard Reference Data Program
##CAS REGISTRY NO=30673-38-2
##MOLFORM=C 14 H 28 O 2
##XUNITS=1/CM
##YUNITS=ABSORBANCE
##XFACTOR=1.0
##YFACTOR=0.000115775
##DELTAX=4.0
##FIRSTX=450.0
##LASTX=3966.0
##FIRSTY=0.047236
##MAXX=3966
##MINX=450
##MAXY=1.15775
##MINY=0
##NPOINTS=880
##XYDATA=(X++(Y..Y))
450.0 408 364 191 52 194 203 122 151 117 17
490.0 52 110 122 185 186 126 164 165 48 37
530.0 75 136 28 144 81 100 83 19 73 94
570.0 110 90 101 87 73 94 101 101 122 95
610.0 81 118 101 92 96 75 97 103 87 96
650.0 52 88 72 65 58 48 79 75 67 80
690.0 56 109 95 114 141 154 191 175 213 207
730.0 173 194 138 235 276 154 62 159 149 137
770.0 140 84 92 82 127 107 101 81 90 57
810.0 83 109 112 129 117 137 121 132 145 108
850.0 157 140 133 158 173 153 162 171 160 150
890.0 187 191 176 196 200 218 198 233 217 263
930.0 251 267 294 305 291 336 320 290 301 331
970.0 344 353 397 464 584 750 928 1104 1288 1440
1010.0 1535 1534 1445 1311 1135 1036 965 917 885 865
1050.0 858 845 831 781 732 698 657 661 682 726
1090.0 805 933 1104 1306 1518 1702 1764 1727 1623 1520
1130.0 1518 1643 1906 2325 2893 3587 4207 4591 4636 4416
1170.0 4161 3916 3670 3539 3408 3304 3144 2958 2840 2691
1210.0 2627 2567 2548 2598 2612 2707 2763 2781 2792 2711
1250.0 2508 2266 2032 1840 1663 1551 1484 1437 1418 1405
1290.0 1353 1289 1205 1165 1132 1091 1078 1031 993 940
1330.0 937 975 1045 1136 1232 1295 1282 1216 1119 1087
1370.0 1155 1342 1592 1692 1462 1065 803 683 591 469
1410.0 395 391 398 445 507 580 626 665 733 825
1450.0 967 1139 1340 1532 1554 1489 1336 1029 787 573
1490.0 391 325 256 217 186 162 108 100 87 85
1530.0 74 83 63 54 56 35 47 75 66 55
1570.0 50 43 28 35 29 36 45 37 46 54
1610.0 33 39 38 66 44 61 54 50 53 55
1650.0 61 72 85 66 94 81 99 97 105 144
1690.0 161 177 226 296 350 417 508 621 749 946
1730.0 1216 1557 2284 3191 4559 6355 6537 6707 5136 3457
1770.0 2345 1482 1074 787 605 475 364 293 230 194
1810.0 161 125 113 88 76 72 55 55 48 46
1850.0 38 40 34 25 27 30 16 19 19 15
1890.0 13 18 21 13 14 21 13 19 14 21
1930.0 22 21 17 14 22 19 16 18 20 18
1970.0 15 13 18 22 20 16 17 22 24 21
2010.0 18 31 29 27 27 27 32 33 28 29
2050.0 29 25 26 28 21 19 20 19 17 19
2090.0 14 19 17 12 15 16 11 15 12 13
2130.0 14 9 12 11 12 9 7 8 8 9
2170.0 5 4 3 4 5 4 1 5 2 1
2210.0 0 3 3 0 2 1 2 4 2 3
2250.0 3 6 8 6 4 8 6 9 12 9
2290.0 14 14 17 15 18 18 12 11 4 7
2330.0 6 2 3 0 7 9 0 4 3 8
2370.0 12 10 10 15 11 9 10 11 9 8
2410.0 10 7 10 9 10 10 9 6 7 5
2450.0 5 4 3 9 8 6 9 7 5 9
2490.0 13 9 9 13 16 15 12 14 16 17
2530.0 20 23 20 22 22 25 24 25 29 33
2570.0 32 33 38 38 42 42 46 49 45 50
2610.0 53 52 53 58 60 61 66 70 73 74
2650.0 76 79 83 85 88 93 98 99 103 100
2690.0 100 98 96 96 96 95 97 103 115 119
2730.0 133 142 155 159 155 152 151 148 146 152
2770.0 153 163 167 175 188 204 219 233 256 272
2810.0 298 328 365 409 455 515 583 671 801 999
2850.0 1326 1865 2627 3374 3771 3731 3509 3344 3372 3350
2890.0 3134 2954 2954 3106 3393 3798 4380 5165 6233 7662
2930.0 9083 10000 9965 9286 8341 7268 6469 6176 6426 7014
2970.0 7316 6959 5916 4578 3177 2096 1449 1079 839 683
3010.0 571 486 419 370 332 299 272 257 227 211
3050.0 189 180 170 153 153 143 138 132 131 127
3090.0 122 116 113 108 107 101 101 98 93 85
3130.0 95 84 89 83 82 81 84 85 84 86
3170.0 86 82 88 78 81 72 69 71 67 56
3210.0 50 45 45 44 42 29 27 26 27 29
3250.0 21 18 24 20 18 17 18 21 20 17
3290.0 13 17 15 18 19 17 22 16 18 15
3330.0 20 18 18 23 21 15 17 18 17 23
3370.0 26 20 21 29 16 23 28 19 14 16
3410.0 27 21 18 20 18 16 22 22 23 20
3450.0 23 22 18 30 34 42 42 50 60 73
3490.0 65 66 59 49 21 16 22 23 16 10
3530.0 12 8 7 7 12 22 16 7 5 6
3570.0 14 17 4 5 3 6 10 13 14 9
3610.0 9 4 19 3 12 16 17 14 7 12
3650.0 20 20 25 14 5 12 12 35 16 7
3690.0 7 3 0 5 13 16 15 13 5 4
3730.0 14 22 24 8 40 20 17 0 34 25
3770.0 10 19 6 11 16 17 21 28 21 33
3810.0 31 25 20 39 26 33 27 42 43 20
3850.0 22 42 40 26 40 54 21 50 15 15
3890.0 23 53 26 24 29 36 17 5 47 34
3930.0 31 35 49 28 27 20 25 44 30 32
##END=
