##TITLE=Spiro[5.5]undeca-1,8-dien-3-one
##JCAMP-DX=4.24
##DATA TYPE=INFRARED SPECTRUM
##ORIGIN=Sadtler Research Labs Under US-EPA Contract
##OWNER=NIST Standard Reference Data Program
##CAS REGISTRY NO=30834-47-0
##MOLFORM=C 11 H 14 O
##XUNITS=1/CM
##YUNITS=ABSORBANCE
##XFACTOR=1.0
##YFACTOR=0.000103842
##DELTAX=4.0
##FIRSTX=450.0
##LASTX=3966.0
##FIRSTY=0.028037
##MAXX=3966
##MINX=450
##MAXY=1.03842
##MINY=0
##NPOINTS=880
##XYDATA=(X++(Y..Y))
450.0 270 245 215 216 124 75 11 50 52 74
490.0 82 123 146 139 151 186 173 111 98 55
530.0 71 43 58 37 49 20 25 34 51 63
570.0 33 29 32 47 22 16 61 40 60 79
610.0 116 115 132 138 146 169 216 328 546 908
650.0 1314 1462 1493 1139 863 426 264 197 137 109
690.0 86 99 104 134 127 163 165 180 163 140
730.0 120 144 218 294 416 529 600 577 489 385
770.0 319 306 381 522 718 875 967 923 776 564
810.0 371 236 143 102 78 75 74 75 92 109
850.0 134 177 252 311 377 384 360 300 223 165
890.0 130 143 183 274 389 499 533 519 489 456
930.0 436 388 319 227 161 143 139 153 173 190
970.0 226 252 257 242 198 156 149 159 195 242
1010.0 284 290 273 231 187 169 186 227 285 320
1050.0 331 303 267 240 224 223 231 255 294 364
1090.0 463 555 592 564 483 378 289 225 193 176
1130.0 172 178 193 217 274 360 460 575 655 676
1170.0 634 559 495 470 465 471 509 601 773 981
1210.0 1111 1095 963 759 640 642 703 797 874 870
1250.0 792 669 508 379 283 210 165 138 128 122
1290.0 127 124 129 140 178 219 272 315 365 389
1330.0 399 395 371 375 376 353 303 246 192 191
1370.0 228 304 422 561 640 649 558 417 299 236
1410.0 223 299 370 503 619 746 818 892 971 976
1450.0 938 841 707 562 403 271 169 105 100 76
1490.0 68 80 81 80 55 43 37 39 25 40
1530.0 34 36 43 34 32 40 49 30 39 48
1570.0 52 51 74 67 84 98 116 134 163 214
1610.0 260 319 352 355 323 286 268 278 343 458
1650.0 633 729 827 817 772 761 854 1110 1506 2181
1690.0 3144 4564 6410 8537 9896 10000 8455 6028 3549 2093
1730.0 1303 957 711 590 474 424 412 386 369 313
1770.0 270 201 185 141 132 100 98 84 65 69
1810.0 63 63 55 64 48 59 49 60 48 46
1850.0 50 46 49 44 48 38 45 41 41 36
1890.0 35 36 34 42 40 47 47 52 57 57
1930.0 53 45 43 31 39 37 38 35 42 40
1970.0 40 40 38 34 33 30 25 30 26 25
2010.0 21 22 21 20 21 20 22 18 18 23
2050.0 23 22 26 27 25 27 27 28 26 28
2090.0 28 27 31 30 30 26 27 25 31 30
2130.0 32 29 30 32 31 32 31 30 26 26
2170.0 23 25 24 22 26 23 28 29 30 31
2210.0 33 31 30 26 26 24 22 25 24 26
2250.0 25 28 25 23 22 21 21 20 22 20
2290.0 17 16 17 13 8 7 3 0 0 2
2330.0 0 1 0 0 0 0 0 0 0 0
2370.0 0 1 8 13 23 26 32 31 30 31
2410.0 33 34 29 33 29 29 23 25 23 23
2450.0 25 24 24 17 24 17 18 20 22 22
2490.0 26 25 21 24 23 22 18 23 20 23
2530.0 24 26 26 22 24 23 26 24 28 23
2570.0 24 22 26 28 26 33 31 33 31 35
2610.0 30 36 38 40 43 44 42 41 44 48
2650.0 54 59 65 71 69 68 68 67 64 60
2690.0 58 58 52 51 47 46 45 40 43 43
2730.0 47 46 49 51 54 53 54 61 60 68
2770.0 78 85 84 85 84 83 85 89 92 96
2810.0 105 120 139 180 256 383 562 781 1003 1212
2850.0 1400 1550 1650 1657 1578 1465 1351 1298 1315 1375
2890.0 1440 1478 1518 1599 1775 2087 2573 3304 4249 5052
2930.0 5282 4958 4114 3212 2538 2094 1760 1612 1582 1510
2970.0 1340 1083 822 613 477 361 281 236 225 241
3010.0 277 367 512 779 1216 2154 2931 3001 2625 1713
3050.0 776 507 413 369 313 259 215 173 135 106
3090.0 86 73 61 46 42 34 29 22 21 21
3130.0 22 23 24 24 26 25 17 18 14 6
3170.0 4 0 6 3 6 4 5 10 11 15
3210.0 15 21 15 16 24 18 11 7 11 7
3250.0 11 9 5 8 8 13 8 18 23 26
3290.0 31 35 42 43 37 33 36 37 39 36
3330.0 42 32 32 31 32 28 31 33 37 51
3370.0 58 71 94 115 136 155 159 145 124 92
3410.0 81 59 51 38 34 28 25 25 25 23
3450.0 26 27 23 20 24 15 24 23 13 20
3490.0 9 23 30 26 20 15 18 7 16 22
3530.0 12 31 20 21 20 20 31 27 26 28
3570.0 12 31 29 29 28 4 24 20 27 16
3610.0 28 31 26 37 27 22 26 30 37 26
3650.0 31 36 13 39 36 45 31 35 27 34
3690.0 45 30 30 23 23 35 30 27 40 15
3730.0 30 28 22 18 32 30 43 31 31 24
3770.0 24 17 29 16 22 14 23 33 11 27
3810.0 13 35 30 17 26 15 11 27 30 8
3850.0 23 20 7 21 21 14 0 17 21 25
3890.0 28 17 22 18 7 12 17 17 11 25
3930.0 16 10 13 0 14 3 0 15 7 17
##END=
