##TITLE=Spiro-2-cyclohexene-4-one-1,2'-(5-norbornene)
##JCAMP-DX=4.24
##DATA TYPE=INFRARED SPECTRUM
##ORIGIN=Sadtler Research Labs Under US-EPA Contract
##OWNER=NIST Standard Reference Data Program
##CAS REGISTRY NO=30834-51-6
##MOLFORM=C 12 H 14 O
##XUNITS=1/CM
##YUNITS=ABSORBANCE
##XFACTOR=1.0
##YFACTOR=0.000088437
##DELTAX=4.0
##FIRSTX=450.0
##LASTX=3966.0
##FIRSTY=0.023966
##MAXX=3966
##MINX=450
##MAXY=0.88437
##MINY=0
##NPOINTS=880
##XYDATA=(X++(Y..Y))
450.0 271 232 267 109 239 238 236 303 265 240
490.0 224 209 173 264 231 257 250 218 166 171
530.0 147 136 138 130 157 95 125 127 126 105
570.0 98 99 86 127 109 165 150 173 132 138
610.0 129 139 173 146 206 176 235 197 343 230
650.0 260 121 351 971 1048 10 335 238 396 336
690.0 480 483 552 566 537 538 646 1017 1359 1497
730.0 1269 920 502 396 406 449 457 438 442 373
770.0 350 280 287 343 521 662 708 671 531 437
810.0 363 399 452 542 555 500 390 377 411 477
850.0 562 516 444 314 261 232 267 277 363 503
890.0 698 888 779 757 705 619 655 611 628 643
930.0 688 661 577 471 373 335 302 309 279 234
970.0 204 210 211 218 217 223 233 229 223 227
1010.0 240 255 297 310 323 297 261 258 256 249
1050.0 218 195 177 167 166 183 206 248 285 322
1090.0 338 346 353 358 400 463 512 519 545 549
1130.0 485 428 372 327 281 240 227 240 267 295
1170.0 321 338 346 341 363 399 456 577 805 975
1210.0 1058 1093 1062 1101 1161 1135 1022 875 720 610
1250.0 537 461 400 353 298 243 212 181 173 167
1290.0 172 174 180 194 217 243 271 321 377 439
1330.0 521 610 680 684 618 531 431 366 327 331
1370.0 359 426 510 602 656 632 541 402 293 253
1410.0 265 321 429 508 545 523 469 441 451 491
1450.0 552 564 540 490 421 350 291 199 133 108
1490.0 101 103 106 103 106 109 89 85 92 78
1530.0 74 65 77 85 80 77 87 99 125 158
1570.0 216 259 280 282 261 257 228 232 254 314
1610.0 351 373 368 340 324 303 340 352 371 377
1650.0 428 472 548 628 711 799 929 1192 1586 2232
1690.0 3092 4319 6047 8392 10000 9909 8032 5070 2712 1696
1730.0 1186 954 770 648 533 458 423 388 368 313
1770.0 284 232 211 187 174 160 166 168 169 167
1810.0 155 155 131 115 103 97 88 87 81 78
1850.0 74 64 66 57 61 57 56 57 52 52
1890.0 48 42 39 38 36 36 31 36 35 31
1930.0 37 32 38 34 33 33 36 34 37 38
1970.0 42 41 34 37 30 34 29 30 28 31
2010.0 28 27 26 26 26 24 27 27 31 33
2050.0 29 29 33 32 29 33 30 33 26 28
2090.0 28 29 29 27 29 27 26 27 26 25
2130.0 27 31 34 32 36 37 33 33 29 31
2170.0 32 32 32 31 31 32 35 36 41 40
2210.0 42 40 36 34 27 25 21 18 19 21
2250.0 23 26 20 20 18 21 20 25 20 20
2290.0 24 24 23 21 20 25 20 19 18 10
2330.0 8 14 5 12 10 10 13 10 0 1
2370.0 11 11 19 15 10 4 5 2 0 1
2410.0 1 3 7 5 8 8 10 8 13 12
2450.0 5 7 11 7 8 4 7 5 6 4
2490.0 3 4 7 9 4 6 4 6 5 9
2530.0 7 8 7 9 6 8 7 7 11 8
2570.0 9 8 12 14 14 16 8 12 10 13
2610.0 13 11 14 12 17 13 13 16 18 17
2650.0 20 21 23 28 26 27 20 24 21 19
2690.0 14 16 15 17 13 17 13 21 23 25
2730.0 31 34 34 36 40 41 39 41 38 34
2770.0 37 31 36 34 35 38 41 40 47 48
2810.0 52 60 73 91 109 131 141 150 160 180
2850.0 210 260 343 465 628 808 943 1014 1004 928
2890.0 840 754 706 703 752 841 1056 1066 1095 1169
2930.0 1192 1228 1363 1617 1968 2344 2701 2958 3171 3335
2970.0 3665 4210 4777 4753 3962 2744 1460 663 356 235
3010.0 205 198 217 260 339 447 538 579 579 560
3050.0 535 535 596 722 862 941 905 764 583 431
3090.0 342 286 299 283 232 201 168 149 132 134
3130.0 125 126 114 109 106 94 83 59 44 32
3170.0 28 16 18 25 20 18 19 19 24 27
3210.0 27 26 32 26 26 21 24 23 27 21
3250.0 27 21 19 21 24 26 19 25 24 20
3290.0 19 23 20 25 19 23 28 29 30 36
3330.0 34 28 33 30 34 31 40 40 41 58
3370.0 75 80 91 115 125 131 137 127 107 81
3410.0 68 55 39 32 31 32 35 36 18 26
3450.0 29 33 19 23 25 30 34 36 20 18
3490.0 16 15 14 19 18 14 14 20 18 17
3530.0 11 12 7 11 15 9 10 16 16 20
3570.0 21 27 20 20 19 4 20 8 10 0
3610.0 7 12 19 11 11 25 10 17 17 21
3650.0 25 29 34 18 13 21 12 20 8 8
3690.0 13 9 13 18 13 18 13 13 13 14
3730.0 21 27 27 19 29 25 25 36 20 27
3770.0 31 23 14 33 32 33 26 34 11 25
3810.0 15 17 8 27 26 33 32 23 31 29
3850.0 27 27 37 37 29 39 31 40 41 48
3890.0 40 45 35 36 36 50 25 28 28 25
3930.0 35 39 12 28 21 24 32 28 20 28
##END=
