##TITLE=Aldrin-R
##JCAMP-DX=4.24
##DATA TYPE=INFRARED SPECTRUM
##ORIGIN=Sadtler Research Labs Under US-EPA Contract
##OWNER=NIST Standard Reference Data Program
##CAS REGISTRY NO=309-00-2
##MOLFORM=C 12 H 8 Cl 6
##SOURCE REFERENCE=No.289376 (NIST/EPA/NIH MS Database)
##XUNITS=1/CM
##YUNITS=ABSORBANCE
##XFACTOR=1.0
##YFACTOR=0.000049683
##DELTAX=4.0
##FIRSTX=450.0
##LASTX=3966.0
##FIRSTY=0.000795
##MAXX=3966
##MINX=450
##MAXY=0.49683
##MINY=0
##NPOINTS=880
##XYDATA=(X++(Y..Y))
450.0 16 405 234 378 30 409 228 353 96 290
490.0 207 224 242 248 302 386 712 772 735 451
530.0 299 253 286 431 645 872 642 420 210 283
570.0 282 361 441 529 1096 1957 3220 3713 2786 1305
610.0 544 358 548 808 801 494 310 282 311 344
650.0 307 370 378 683 909 1492 1808 2457 3958 6183
690.0 9322 10000 9303 6742 6362 7625 7939 5473 2660 1361
730.0 868 719 638 525 459 394 463 634 1082 2178
770.0 3884 4892 4147 2509 1577 1147 1032 1308 2099 3550
810.0 4884 4754 3289 3018 5446 8064 6863 3473 1551 1067
850.0 950 720 674 720 822 904 1105 1704 2948 4548
890.0 5024 4647 4551 4872 4945 4956 4117 2656 1522 1302
930.0 1567 1459 1024 667 544 458 411 394 430 532
970.0 631 735 893 1248 1719 2097 2323 2591 2659 2670
1010.0 3122 3853 4471 4971 6123 7630 8667 7673 5987 4787
1050.0 4183 4030 4220 4555 4333 3719 3216 3158 3389 3552
1090.0 3222 2678 2375 2184 2186 2215 1706 978 548 425
1130.0 387 387 409 481 555 680 869 1249 1858 2682
1170.0 3749 4874 5156 3780 1947 858 493 397 367 362
1210.0 385 481 724 1078 1299 1336 1418 1571 1972 3429
1250.0 5583 6010 4301 2273 1389 1106 1049 802 541 399
1290.0 370 375 395 527 883 2003 3703 4766 3364 1724
1330.0 1000 741 483 335 297 254 230 224 200 209
1370.0 223 212 190 186 164 160 144 126 169 192
1410.0 189 206 170 203 246 254 248 200 227 203
1450.0 209 178 123 264 690 1564 1976 1562 686 260
1490.0 143 136 125 125 67 60 92 57 0 62
1530.0 51 61 62 17 76 111 180 124 367 462
1570.0 460 366 445 669 1224 2565 4095 6275 5322 3831
1610.0 1945 987 694 690 679 480 339 168 177 119
1650.0 57 25 80 91 80 87 46 136 107 79
1690.0 118 136 42 58 80 128 115 72 115 142
1730.0 125 73 135 164 154 114 117 117 112 139
1770.0 121 108 144 150 160 149 126 128 108 119
1810.0 105 102 130 137 137 111 109 100 88 61
1850.0 84 98 92 100 93 71 90 103 98 88
1890.0 77 74 80 79 86 88 97 101 90 107
1930.0 103 108 105 106 100 112 101 85 84 80
1970.0 76 77 80 83 84 79 79 82 90 84
2010.0 79 73 75 84 103 113 111 105 108 110
2050.0 109 102 106 95 92 91 90 90 101 108
2090.0 106 98 98 101 110 113 113 112 108 107
2130.0 97 108 120 132 138 134 133 129 125 123
2170.0 114 112 113 111 115 136 145 154 148 143
2210.0 136 122 109 96 91 88 91 88 84 84
2250.0 87 87 93 92 86 93 95 89 89 88
2290.0 84 85 84 85 90 96 96 85 75 61
2330.0 71 62 68 54 51 92 93 88 62 50
2370.0 33 33 44 46 54 49 55 61 58 65
2410.0 58 64 53 54 52 49 44 43 41 46
2450.0 37 40 44 43 41 40 37 38 46 44
2490.0 47 54 59 58 55 53 53 42 45 48
2530.0 61 70 68 53 52 42 41 44 41 44
2570.0 42 47 47 40 37 39 33 37 27 26
2610.0 23 25 22 27 24 25 27 33 31 40
2650.0 44 44 37 37 36 30 35 40 39 45
2690.0 41 41 42 43 43 40 46 42 43 51
2730.0 56 42 41 35 37 41 50 39 40 40
2770.0 32 48 51 45 47 45 52 61 69 65
2810.0 65 59 67 71 62 52 62 66 70 79
2850.0 72 91 97 102 99 107 136 152 154 134
2890.0 144 144 181 265 491 1011 1691 1865 1387 787
2930.0 456 315 264 268 293 356 488 761 1280 2275
2970.0 3649 4683 4389 3929 5801 8120 6900 3123 881 320
3010.0 206 144 158 137 191 250 370 450 679 1165
3050.0 1874 2327 1842 1357 1776 2811 2927 1829 730 269
3090.0 194 166 185 219 207 206 211 260 367 488
3130.0 598 586 427 250 152 108 87 84 78 81
3170.0 78 87 76 77 69 65 53 42 44 48
3210.0 56 59 57 51 49 56 60 67 59 73
3250.0 55 62 58 56 71 62 66 56 68 61
3290.0 73 59 71 56 65 65 69 67 69 77
3330.0 74 71 68 62 72 83 58 65 76 62
3370.0 71 67 84 69 78 56 62 65 57 81
3410.0 59 68 57 71 72 74 72 72 86 81
3450.0 78 74 81 73 70 64 62 82 68 82
3490.0 66 73 85 90 83 76 77 84 84 83
3530.0 77 71 66 88 87 83 77 85 110 148
3570.0 125 127 115 105 84 107 82 92 75 87
3610.0 91 87 93 47 78 82 67 85 58 100
3650.0 73 59 74 67 118 82 97 29 92 87
3690.0 80 57 74 84 97 105 60 92 75 80
3730.0 85 108 111 166 114 164 108 122 163 162
3770.0 141 83 126 83 98 99 89 71 83 57
3810.0 93 98 90 83 106 96 85 40 74 105
3850.0 144 90 101 127 127 114 108 117 150 124
3890.0 158 81 153 109 124 108 116 128 147 120
3930.0 101 116 101 91 97 103 110 142 138 135
##END=
