##TITLE=Benzophenone, 2-hydroxy-4-methyl-,
##JCAMP-DX=4.24
##DATA TYPE=INFRARED SPECTRUM
##ORIGIN=Sadtler Research Labs Under US-EPA Contract
##OWNER=NIST Standard Reference Data Program
##CAS REGISTRY NO=3098-18-8
##MOLFORM=C 14 H 12 O 2
##XUNITS=1/CM
##YUNITS=ABSORBANCE
##XFACTOR=1.0
##YFACTOR=0.000061328
##DELTAX=4.0
##FIRSTX=450.0
##LASTX=3966.0
##FIRSTY=0.007298
##MAXX=3966
##MINX=450
##MAXY=0.61328
##MINY=0
##NPOINTS=880
##XYDATA=(X++(Y..Y))
450.0 119 204 89 33 124 189 249 355 264 231
490.0 170 165 157 101 180 16 1 47 332 328
530.0 494 489 342 194 118 152 171 289 132 238
570.0 327 510 577 481 334 188 190 360 626 1062
610.0 1319 1123 748 422 364 418 368 354 302 319
650.0 259 350 459 496 554 561 653 860 1305 1724
690.0 2369 3202 3874 3575 2588 1651 1132 920 777 783
730.0 884 1018 1028 1157 1460 1706 2109 2136 2006 1704
770.0 1558 1380 1355 1602 1879 1917 1623 1403 982 919
810.0 828 798 734 517 427 343 393 398 455 349
850.0 306 322 398 528 707 870 745 605 524 647
890.0 875 1411 2275 3167 3188 2384 1337 962 970 964
930.0 897 673 466 427 479 676 997 1635 2046 1869
970.0 1229 641 494 423 442 460 551 667 750 623
1010.0 458 440 533 565 617 625 438 427 328 410
1050.0 438 433 398 327 456 459 621 538 495 436
1090.0 428 445 464 626 775 1046 1458 1855 1629 1169
1130.0 671 518 498 520 633 778 1078 1240 1500 1556
1170.0 1442 1198 1082 1082 935 745 669 839 966 1284
1210.0 1674 2085 2714 3290 3903 4476 5383 6182 7118 7341
1250.0 6599 4742 2960 2075 1666 1631 1496 1401 1312 1481
1290.0 1834 2530 3430 3948 3897 3518 3492 3850 4486 5168
1330.0 5616 5544 4710 4007 3404 3102 2807 2564 2317 2075
1370.0 1869 1710 1579 1494 1448 1364 1336 1291 1259 1271
1410.0 1267 1293 1320 1314 1265 1247 1216 1290 1346 1463
1450.0 1472 1415 1377 1266 1246 1168 1160 1093 1124 1229
1490.0 1454 1719 2098 2330 2356 2121 1735 1486 1311 1222
1530.0 1215 1273 1358 1451 1497 1571 1755 2047 2450 2772
1570.0 3009 2900 2545 2128 1772 1625 1647 1869 2170 2512
1610.0 2977 3809 5212 6779 8400 9265 10000 9831 9032 7401
1650.0 5434 3888 2533 1757 1210 973 781 684 616 572
1690.0 468 441 433 397 341 273 256 272 248 265
1730.0 315 399 385 378 313 277 210 209 186 171
1770.0 192 212 191 162 161 134 155 147 191 207
1810.0 215 189 155 141 141 153 113 108 97 104
1850.0 97 108 115 108 114 113 105 101 117 137
1890.0 153 166 178 189 202 202 161 135 94 78
1930.0 72 87 89 103 102 106 125 116 126 124
1970.0 108 83 56 53 50 50 50 47 38 42
2010.0 48 50 56 41 48 33 39 41 45 40
2050.0 26 27 24 37 36 54 38 38 29 28
2090.0 22 25 29 19 20 9 26 24 26 17
2130.0 10 2 8 19 15 24 7 7 8 13
2170.0 20 16 15 6 6 6 13 22 27 18
2210.0 10 9 11 26 18 28 10 11 3 26
2250.0 19 24 16 1 15 12 32 30 43 33
2290.0 26 33 50 59 58 75 58 66 76 95
2330.0 101 102 103 77 106 107 149 149 153 94
2370.0 80 74 68 72 44 37 19 35 34 43
2410.0 59 50 50 31 36 44 52 51 55 43
2450.0 44 59 60 76 57 59 42 50 47 52
2490.0 56 55 43 36 45 44 68 52 60 46
2530.0 52 64 71 85 80 83 75 92 92 117
2570.0 118 117 117 117 135 133 143 129 113 106
2610.0 111 116 118 126 109 109 94 113 108 115
2650.0 115 104 108 109 134 134 143 135 125 121
2690.0 143 157 157 159 149 166 154 176 182 192
2730.0 184 175 175 184 192 189 182 158 155 147
2770.0 161 175 169 167 152 159 171 186 195 198
2810.0 188 192 198 199 224 217 233 224 216 243
2850.0 275 307 332 374 398 438 455 486 460 454
2890.0 427 411 429 436 473 469 497 520 623 764
2930.0 926 1012 994 861 711 628 571 579 557 539
2970.0 508 500 511 524 548 549 573 557 598 625
3010.0 662 693 695 730 803 949 1091 1248 1317 1300
3050.0 1237 1204 1253 1332 1506 1697 1753 1623 1417 1337
3090.0 1276 1155 988 887 803 768 718 675 614 593
3130.0 587 577 598 584 590 569 561 551 576 576
3170.0 573 559 550 535 534 550 533 550 520 505
3210.0 501 496 527 502 520 495 513 506 549 550
3250.0 547 537 512 504 497 521 497 486 455 438
3290.0 439 449 450 436 426 393 393 381 401 393
3330.0 383 360 335 353 332 346 327 317 296 273
3370.0 278 288 295 280 264 213 242 242 239 241
3410.0 213 203 190 206 199 208 184 158 152 146
3450.0 155 146 170 136 124 96 109 116 129 112
3490.0 95 79 69 91 83 99 61 66 44 65
3530.0 71 63 64 40 39 39 57 58 55 59
3570.0 44 23 23 44 45 67 48 33 16 23
3610.0 45 59 35 21 1 19 24 24 24 16
3650.0 41 16 16 17 15 46 30 32 0 3
3690.0 36 36 25 9 1 9 32 19 26 17
3730.0 5 22 38 32 71 50 19 2 2 18
3770.0 20 21 8 3 2 2 20 18 30 1
3810.0 4 10 27 36 23 26 8 7 4 15
3850.0 20 43 15 1 3 19 27 18 17 3
3890.0 1 1 7 22 22 5 1 1 3 12
3930.0 12 10 1 1 1 4 1 1 1 1
##END=
