##TITLE=1,4-Naphthoquinone, 3-methyl-2,5,8-trihydroxy-,
##JCAMP-DX=4.24
##DATA TYPE=INFRARED SPECTRUM
##ORIGIN=Sadtler Research Labs Under US-EPA Contract
##OWNER=NIST Standard Reference Data Program
##CAS REGISTRY NO=31039-66-4
##MOLFORM=C 11 H 8 O 5
##XUNITS=1/CM
##YUNITS=ABSORBANCE
##XFACTOR=1.0
##YFACTOR=0.000060452
##DELTAX=4.0
##FIRSTX=450.0
##LASTX=3966.0
##FIRSTY=0.011002
##MAXX=3966
##MINX=450
##MAXY=0.60452
##MINY=0
##NPOINTS=880
##XYDATA=(X++(Y..Y))
450.0 182 309 357 340 213 94 51 5 26 48
490.0 71 199 315 391 353 212 109 133 95 193
530.0 206 272 303 266 249 217 219 183 177 178
570.0 234 197 273 435 596 758 918 1185 1408 1629
610.0 1524 1206 829 447 215 117 42 28 17 20
650.0 1 31 62 58 76 166 168 141 207 252
690.0 315 425 637 1045 1429 1550 1490 1211 1048 957
730.0 778 599 438 339 249 217 196 176 193 292
770.0 468 652 858 1068 1267 1498 1717 1670 1478 1050
810.0 713 553 436 392 407 584 740 1170 1095 717
850.0 427 220 102 104 146 254 300 346 278 199
890.0 123 79 58 49 42 34 38 29 52 66
930.0 118 168 210 209 175 120 86 82 59 78
970.0 82 110 137 204 277 346 378 344 324 333
1010.0 391 476 586 682 751 776 728 660 630 654
1050.0 699 725 724 697 683 688 717 767 830 939
1090.0 1150 1546 2195 2789 2954 2724 2172 1701 1447 1300
1130.0 1310 1530 1951 2832 4573 6507 7334 6764 5030 3521
1170.0 2732 2129 1714 1684 2134 2880 3392 3617 3594 3209
1210.0 2747 2041 1260 958 926 1038 1304 1695 2066 2225
1250.0 2205 2076 2169 2621 3434 4509 5688 6505 6363 5321
1290.0 3790 2561 1980 1885 2087 2592 3485 4732 6097 7199
1330.0 7765 7733 7372 6768 6040 5184 4374 3814 3594 3582
1370.0 3584 3556 3465 3538 3767 4405 5059 5477 5293 4554
1410.0 3521 2602 2024 1689 1540 1544 1677 1877 2295 2881
1450.0 3892 5033 5911 5831 4718 3264 2175 1661 1400 1184
1490.0 998 861 751 642 556 482 416 374 360 379
1530.0 398 425 450 460 543 614 759 955 1435 2064
1570.0 2871 3590 3938 3776 3313 3003 3094 3761 5013 6871
1610.0 8902 10000 9742 7975 5719 3966 3055 2588 2331 2023
1650.0 1690 1494 1539 1557 1496 1220 846 592 423 328
1690.0 283 251 207 200 204 207 203 181 187 187
1730.0 190 201 243 268 289 293 327 326 350 359
1770.0 380 364 382 350 324 287 288 279 251 232
1810.0 182 146 112 87 53 36 22 27 8 13
1850.0 7 13 6 11 6 1 11 7 12 4
1890.0 6 9 10 8 17 32 49 81 91 84
1930.0 68 36 24 18 25 22 26 18 12 4
1970.0 5 3 7 5 7 7 10 18 17 17
2010.0 20 15 7 4 2 8 4 7 6 8
2050.0 8 8 7 11 11 18 18 20 17 14
2090.0 11 16 16 14 14 18 17 17 18 18
2130.0 14 15 13 11 12 15 16 15 17 21
2170.0 18 22 22 29 27 24 20 16 22 19
2210.0 17 12 11 11 7 1 3 2 7 6
2250.0 7 8 12 13 21 19 22 32 37 55
2290.0 69 89 111 134 149 168 153 133 145 114
2330.0 114 108 85 102 152 150 190 140 130 93
2370.0 84 69 108 118 88 48 32 29 30 28
2410.0 25 20 18 18 14 18 26 25 31 29
2450.0 30 31 34 36 36 33 32 29 30 33
2490.0 33 32 35 41 43 45 45 50 51 46
2530.0 50 58 66 70 75 86 93 94 101 106
2570.0 103 104 105 103 101 96 91 87 82 82
2610.0 77 79 76 74 72 73 80 90 102 109
2650.0 121 122 123 114 114 111 107 107 115 115
2690.0 124 127 136 135 140 140 139 139 134 134
2730.0 134 131 133 123 123 128 121 119 110 106
2770.0 102 108 109 109 110 121 126 137 147 147
2810.0 153 154 161 162 157 159 165 175 190 214
2850.0 235 275 329 374 390 377 355 335 315 303
2890.0 288 296 303 320 348 384 421 467 532 644
2930.0 781 893 916 864 755 634 544 512 518 534
2970.0 520 461 395 338 304 280 263 261 259 265
3010.0 269 264 262 254 258 264 265 277 280 284
3050.0 280 286 292 308 323 333 341 359 378 377
3090.0 359 318 285 268 256 246 249 249 243 244
3130.0 245 250 250 246 253 249 237 235 233 238
3170.0 244 242 247 244 248 248 236 234 231 230
3210.0 220 214 213 220 213 208 215 209 219 224
3250.0 227 224 213 203 198 180 175 167 164 160
3290.0 162 151 149 158 143 136 135 134 123 127
3330.0 120 119 124 115 117 110 113 112 107 118
3370.0 113 109 106 107 117 119 127 123 140 154
3410.0 200 256 366 534 839 1293 1878 2354 2453 2126
3450.0 1541 1019 721 616 588 559 493 382 298 220
3490.0 171 142 118 113 82 76 74 50 64 61
3530.0 52 55 57 54 71 75 123 171 198 222
3570.0 200 145 138 123 94 83 61 49 43 30
3610.0 53 22 44 36 27 41 23 24 18 22
3650.0 34 21 21 20 6 23 22 29 5 12
3690.0 8 15 11 14 14 20 26 30 23 34
3730.0 36 56 31 38 54 13 25 20 34 31
3770.0 42 44 38 41 15 20 10 8 16 13
3810.0 1 14 6 23 6 14 33 29 16 5
3850.0 9 25 15 6 1 22 13 11 24 21
3890.0 17 13 7 32 16 1 1 23 13 1
3930.0 17 4 6 12 25 0 26 18 18 11
##END=
