##TITLE=Ethyl perfluorooctanonate
##JCAMP-DX=4.24
##DATA TYPE=INFRARED SPECTRUM
##ORIGIN=Sadtler Research Labs Under US-EPA Contract
##OWNER=NIST Standard Reference Data Program
##CAS REGISTRY NO=3108-24-5
##MOLFORM=C 10 H 5 F 15 O 2
##XUNITS=1/CM
##YUNITS=ABSORBANCE
##XFACTOR=1.0
##YFACTOR=0.000156055
##DELTAX=4.0
##FIRSTX=450.0
##LASTX=3966.0
##FIRSTY=0.000000
##MAXX=3966
##MINX=450
##MAXY=1.56055
##MINY=0
##NPOINTS=880
##XYDATA=(X++(Y..Y))
450.0 0 113 135 179 164 237 212 184 224 135
490.0 124 240 156 221 223 217 219 236 376 461
530.0 446 478 358 370 391 341 402 498 391 400
570.0 373 384 363 331 288 293 267 262 272 270
610.0 293 322 336 363 364 371 425 445 447 416
650.0 354 385 430 512 550 602 527 411 316 278
690.0 284 376 498 573 528 510 587 718 902 902
730.0 845 926 916 977 1070 901 526 327 268 280
770.0 328 431 479 509 515 515 499 518 631 680
810.0 557 474 455 393 403 376 398 390 382 358
850.0 327 374 393 374 325 257 207 199 226 308
890.0 309 306 268 214 223 193 202 198 208 198
930.0 181 180 166 173 168 172 164 158 153 157
970.0 179 212 291 391 449 458 425 439 507 611
1010.0 707 823 935 994 975 870 713 553 468 425
1050.0 414 414 449 494 548 590 630 676 733 729
1090.0 644 577 548 571 621 672 750 852 1042 1381
1130.0 1726 2037 2308 2570 2778 2846 2788 2464 2089 1893
1170.0 1874 2018 2180 2342 2599 2830 3158 3554 3992 4657
1210.0 5199 5809 5949 5732 5616 5342 5905 6906 7904 10000
1250.0 9180 7359 5371 4019 3244 2673 2375 2116 1949 1856
1290.0 1767 1750 1722 1686 1787 1818 1827 1797 1628 1439
1330.0 1175 955 799 728 678 630 568 522 474 438
1370.0 404 448 473 357 286 258 242 234 210 208
1410.0 190 194 188 182 178 181 185 193 211 219
1450.0 210 236 225 233 229 252 248 243 227 214
1490.0 200 169 169 172 151 166 147 170 153 150
1530.0 145 130 151 135 162 155 148 146 146 131
1570.0 146 148 143 135 146 127 159 152 149 137
1610.0 130 134 132 137 124 126 139 135 143 136
1650.0 130 134 168 123 160 130 144 151 144 136
1690.0 157 165 160 149 161 163 156 164 159 171
1730.0 180 166 193 196 230 242 254 278 299 366
1770.0 419 585 797 1122 1798 2484 2955 2680 1747 1030
1810.0 729 565 473 398 311 278 234 226 203 191
1850.0 178 171 166 160 155 153 154 142 143 144
1890.0 141 136 133 137 133 133 124 135 129 129
1930.0 132 130 125 130 128 120 127 124 127 127
1970.0 128 127 126 126 132 133 128 127 131 128
2010.0 128 128 121 126 122 125 128 126 125 118
2050.0 124 120 118 123 119 125 127 121 123 119
2090.0 125 122 124 126 123 123 129 123 124 123
2130.0 125 128 123 126 123 125 127 126 126 128
2170.0 123 127 124 126 126 124 127 122 125 124
2210.0 122 128 123 126 125 124 128 128 128 128
2250.0 128 127 126 128 128 130 130 127 127 127
2290.0 127 129 130 130 131 133 138 141 141 154
2330.0 146 160 170 145 159 140 170 148 166 164
2370.0 161 161 151 152 150 150 153 149 153 154
2410.0 156 152 151 153 152 151 148 148 149 148
2450.0 146 148 148 148 146 147 144 143 145 145
2490.0 144 144 141 145 140 137 138 136 137 135
2530.0 135 135 135 133 132 131 132 134 133 133
2570.0 133 133 133 134 132 131 131 131 129 131
2610.0 130 127 129 125 124 125 123 123 124 123
2650.0 123 124 122 120 121 120 120 121 123 121
2690.0 122 120 119 121 121 121 122 120 124 121
2730.0 122 124 123 123 123 123 123 124 123 126
2770.0 127 126 126 128 130 127 129 126 125 128
2810.0 127 126 126 125 130 131 132 134 132 132
2850.0 133 133 137 141 142 146 145 150 159 163
2890.0 168 170 167 168 170 178 189 191 192 190
2930.0 186 189 201 220 240 264 267 237 216 220
2970.0 228 247 264 292 344 452 536 469 364 332
3010.0 303 278 259 236 211 190 175 167 152 154
3050.0 151 143 136 139 135 134 136 135 133 135
3090.0 132 129 134 131 136 135 133 134 130 131
3130.0 134 131 131 132 139 129 132 130 133 133
3170.0 131 128 129 133 135 130 131 133 131 131
3210.0 129 132 131 132 128 130 134 131 133 134
3250.0 134 135 134 134 134 127 135 131 131 137
3290.0 130 134 135 130 128 139 130 134 138 133
3330.0 128 129 131 136 134 132 134 137 136 141
3370.0 134 128 135 134 137 132 138 132 135 135
3410.0 136 137 132 136 132 131 135 138 134 138
3450.0 133 135 131 130 137 136 134 129 131 129
3490.0 126 131 135 131 133 130 137 132 135 134
3530.0 133 131 138 134 139 138 155 143 165 167
3570.0 202 234 236 175 161 132 143 142 138 140
3610.0 136 147 141 158 125 150 134 146 130 144
3650.0 124 152 135 141 130 127 158 120 154 133
3690.0 147 131 131 138 134 130 137 126 145 125
3730.0 145 149 132 166 118 178 119 156 126 136
3770.0 143 132 139 139 127 136 118 146 131 148
3810.0 134 141 142 143 153 137 140 146 136 154
3850.0 136 168 135 156 154 149 142 140 156 130
3890.0 141 124 172 155 152 143 143 168 142 145
3930.0 124 139 141 151 146 136 135 168 156 146
##END=
