##TITLE=Methanesulfonic acid, octadecyl
##JCAMP-DX=4.24
##DATA TYPE=INFRARED SPECTRUM
##ORIGIN=Sadtler Research Labs Under US-EPA Contract
##OWNER=NIST Standard Reference Data Program
##CAS REGISTRY NO=31081-59-1
##MOLFORM=C 19 H 40 O 3 S
##XUNITS=1/CM
##YUNITS=ABSORBANCE
##XFACTOR=1.0
##YFACTOR=0.000095807
##DELTAX=4.0
##FIRSTX=450.0
##LASTX=3966.0
##FIRSTY=0.007377
##MAXX=3966
##MINX=450
##MAXY=0.95807
##MINY=0
##NPOINTS=880
##XYDATA=(X++(Y..Y))
450.0 77 48 20 124 161 172 170 164 168 209
490.0 224 207 254 243 251 310 334 369 413 560
530.0 532 593 573 376 383 360 415 509 509 333
570.0 255 268 242 233 220 213 219 211 199 206
610.0 211 196 196 189 200 193 205 197 205 207
650.0 222 216 222 201 209 241 225 222 236 243
690.0 273 282 308 320 349 373 395 414 414 400
730.0 378 359 345 336 324 323 319 337 379 402
770.0 461 463 514 534 445 391 419 440 469 508
810.0 528 520 483 442 421 385 357 339 322 303
850.0 302 280 268 263 271 272 279 290 295 312
890.0 332 357 374 406 445 494 530 544 550 564
930.0 596 638 676 725 778 833 885 935 951 916
970.0 814 687 578 527 488 474 459 431 408 397
1010.0 398 399 418 435 438 441 438 442 499 669
1050.0 811 829 647 381 309 305 299 304 297 298
1090.0 287 286 282 279 280 279 278 280 288 283
1130.0 286 283 292 307 328 357 392 451 530 660
1170.0 845 1103 1355 1490 1599 1738 1756 1657 1480 1270
1210.0 1058 876 725 636 555 499 481 439 370 330
1250.0 312 313 323 334 336 324 305 285 277 277
1290.0 278 285 292 305 317 328 333 340 359 399
1330.0 446 482 529 599 669 739 798 846 885 909
1370.0 908 868 803 756 704 645 579 514 442 363
1410.0 309 301 300 291 287 296 327 378 455 533
1450.0 617 688 781 817 779 673 520 379 275 222
1490.0 186 157 141 128 121 121 110 105 99 98
1530.0 92 90 90 86 88 87 85 75 80 75
1570.0 74 73 74 72 71 74 73 71 74 73
1610.0 72 75 76 78 78 80 86 94 101 99
1650.0 86 79 77 70 68 70 65 70 65 68
1690.0 66 70 67 73 73 75 79 82 85 89
1730.0 96 98 100 99 94 97 92 85 83 79
1770.0 75 70 67 70 64 67 62 61 65 62
1810.0 55 59 56 53 56 53 54 46 46 43
1850.0 45 39 42 40 38 41 38 40 38 38
1890.0 39 41 38 37 37 37 35 38 38 37
1930.0 36 36 36 36 34 36 36 38 34 35
1970.0 32 35 36 32 33 35 35 34 35 34
2010.0 34 36 38 38 39 37 37 38 39 38
2050.0 36 35 34 35 33 34 34 34 37 33
2090.0 33 33 32 29 31 32 31 28 28 27
2130.0 25 26 26 25 24 25 26 26 28 27
2170.0 28 29 28 28 24 25 26 25 28 26
2210.0 23 24 24 23 23 25 21 22 22 19
2250.0 22 22 19 19 21 18 18 21 25 30
2290.0 33 40 49 49 53 56 48 46 43 37
2330.0 31 28 19 23 37 47 47 35 30 27
2370.0 30 27 32 35 28 16 8 9 8 10
2410.0 9 7 7 6 7 7 4 1 1 2
2450.0 0 0 3 3 1 3 0 3 6 5
2490.0 4 6 5 7 10 12 16 15 17 17
2530.0 22 22 22 22 23 22 24 20 25 25
2570.0 27 28 31 29 30 31 31 34 37 38
2610.0 39 38 43 45 46 45 50 54 57 58
2650.0 63 64 67 74 73 75 84 86 89 88
2690.0 86 85 84 82 78 78 78 79 76 83
2730.0 83 89 93 98 100 102 102 105 105 107
2770.0 116 119 129 139 151 164 183 201 217 238
2810.0 263 293 331 368 413 472 551 666 848 1139
2850.0 1598 2295 3166 3817 3763 3199 2585 2138 1905 1793
2890.0 1747 1788 1966 2264 2674 3177 3795 4647 5911 7705
2930.0 9448 10000 8945 7192 5459 4061 3124 2615 2427 2375
2970.0 2266 1944 1507 1152 927 764 650 568 511 481
3010.0 470 461 442 411 370 326 281 246 214 193
3050.0 169 151 142 132 129 122 116 116 122 128
3090.0 114 100 81 75 69 61 62 58 56 50
3130.0 45 46 37 39 38 34 31 35 33 32
3170.0 32 25 28 24 23 21 21 17 15 18
3210.0 14 11 15 10 10 9 10 3 6 5
3250.0 5 8 9 5 3 10 5 0 4 5
3290.0 7 7 0 3 4 5 4 4 6 2
3330.0 8 1 9 5 3 6 5 5 8 5
3370.0 9 5 9 6 7 4 3 1 6 11
3410.0 9 11 6 6 5 5 0 6 10 7
3450.0 8 5 4 7 5 7 6 7 7 4
3490.0 8 8 6 7 7 7 6 7 6 7
3530.0 3 2 5 6 15 13 9 12 14 23
3570.0 19 19 21 26 31 38 32 39 42 39
3610.0 44 37 35 34 31 39 24 26 31 25
3650.0 23 25 26 22 29 27 31 26 20 25
3690.0 20 16 20 18 20 18 17 22 19 22
3730.0 18 18 19 20 12 14 17 10 13 15
3770.0 9 15 12 6 12 11 14 18 13 13
3810.0 4 17 6 16 11 21 13 10 6 10
3850.0 16 19 14 12 18 17 18 13 23 15
3890.0 19 15 9 11 27 22 16 19 18 21
3930.0 19 34 19 18 6 22 24 22 23 18
##END=
