##TITLE=Perfluorotributylamine
##JCAMP-DX=4.24
##DATA TYPE=INFRARED SPECTRUM
##ORIGIN=Sadtler Research Labs Under US-EPA Contract
##OWNER=NIST Standard Reference Data Program
##CAS REGISTRY NO=311-89-7
##MOLFORM=C 12 F 27 N
##XUNITS=1/CM
##YUNITS=ABSORBANCE
##XFACTOR=1.0
##YFACTOR=0.000146863
##DELTAX=4.0
##FIRSTX=450.0
##LASTX=3966.0
##FIRSTY=0.000000
##MAXX=3966
##MINX=450
##MAXY=1.46863
##MINY=0
##NPOINTS=880
##XYDATA=(X++(Y..Y))
450.0 0 95 104 88 64 96 93 71 108 98
490.0 92 61 59 105 146 127 152 169 241 201
530.0 271 306 295 274 197 123 171 62 46 75
570.0 80 139 137 171 203 241 286 312 371 305
610.0 283 295 209 235 281 348 348 375 391 329
650.0 245 235 183 150 110 123 126 101 176 187
690.0 224 274 341 399 384 409 567 912 1846 2608
730.0 2978 2960 1670 1047 1169 984 460 258 130 126
770.0 172 169 325 625 925 1093 1282 1437 1155 945
810.0 789 595 475 335 267 223 171 184 186 201
850.0 226 223 256 287 266 237 209 212 199 194
890.0 179 156 151 147 150 147 163 189 218 242
930.0 278 321 421 572 648 590 516 519 593 686
970.0 716 620 478 393 357 332 314 302 278 245
1010.0 205 184 185 196 237 297 376 458 489 479
1050.0 434 377 348 360 399 469 516 501 472 466
1090.0 490 502 477 441 449 494 544 603 730 928
1130.0 1218 1548 1820 1999 2099 2247 2493 2703 2499 1891
1170.0 1478 1375 1401 1512 1731 1993 2271 2454 2539 2644
1210.0 2898 3483 4115 4612 5073 5424 5755 6348 7609 9307
1250.0 10000 8585 6730 5568 5053 4832 4766 4708 4500 4246
1290.0 4149 4420 4971 5489 5553 4832 3858 3022 2340 1839
1330.0 1517 1367 1314 1265 1198 1132 1019 822 577 404
1370.0 310 257 214 195 163 154 141 133 127 116
1410.0 121 108 114 101 107 101 101 92 93 97
1450.0 106 77 93 74 93 70 84 82 77 85
1490.0 83 72 72 69 68 58 91 62 68 66
1530.0 70 70 48 57 61 74 61 50 41 69
1570.0 61 63 59 66 72 72 54 78 54 63
1610.0 67 48 63 51 68 50 64 52 59 67
1650.0 43 44 39 77 50 60 57 63 58 55
1690.0 58 61 51 44 64 61 67 57 58 73
1730.0 52 74 49 70 72 67 68 65 65 66
1770.0 63 61 66 69 70 71 67 68 74 66
1810.0 68 70 67 70 68 64 72 66 73 66
1850.0 73 71 73 66 62 67 61 63 61 59
1890.0 64 61 61 62 60 58 61 56 60 57
1930.0 58 58 57 58 58 58 55 57 58 54
1970.0 54 55 59 58 56 62 60 56 56 56
2010.0 55 54 58 55 55 52 52 53 53 52
2050.0 49 49 49 51 52 49 48 49 49 49
2090.0 51 50 49 48 50 49 49 49 49 47
2130.0 48 51 46 49 47 47 51 50 45 48
2170.0 48 47 48 48 49 47 49 47 48 46
2210.0 46 48 51 50 48 49 51 50 49 49
2250.0 50 49 52 52 52 56 57 59 58 61
2290.0 61 62 63 61 63 61 57 60 65 63
2330.0 58 61 57 67 63 63 54 60 64 63
2370.0 66 67 68 67 69 67 65 66 65 64
2410.0 66 66 66 65 67 66 67 68 65 62
2450.0 62 61 64 61 62 61 61 61 59 62
2490.0 58 57 55 53 53 52 47 48 46 45
2530.0 45 42 42 43 41 42 41 42 39 40
2570.0 42 41 41 43 43 41 38 38 38 33
2610.0 34 32 31 29 30 30 24 26 24 26
2650.0 25 25 27 26 24 26 24 23 25 24
2690.0 25 24 26 23 26 26 28 24 24 26
2730.0 25 25 23 26 25 25 24 25 24 24
2770.0 28 26 26 26 27 29 26 26 25 25
2810.0 26 23 23 24 29 26 24 24 27 28
2850.0 25 28 24 30 26 26 25 29 28 28
2890.0 28 27 27 30 29 28 29 30 28 28
2930.0 26 30 33 31 26 33 32 28 26 26
2970.0 31 30 28 28 31 29 29 29 29 33
3010.0 31 30 31 31 31 32 31 31 29 32
3050.0 32 29 32 32 29 33 32 34 31 30
3090.0 30 31 33 33 33 32 32 31 29 31
3130.0 34 32 38 30 28 39 30 31 33 32
3170.0 31 34 34 37 33 36 35 30 31 34
3210.0 37 31 29 35 34 39 33 34 33 35
3250.0 28 32 34 34 32 31 33 38 35 34
3290.0 31 35 34 36 29 31 33 36 37 33
3330.0 33 35 39 37 35 34 36 38 36 35
3370.0 34 32 30 36 37 38 38 33 36 34
3410.0 34 35 40 34 37 35 35 32 32 30
3450.0 40 36 37 41 35 33 34 27 38 42
3490.0 36 38 37 32 35 37 32 39 36 44
3530.0 46 41 40 44 40 50 39 44 36 51
3570.0 44 37 42 41 46 46 44 48 48 40
3610.0 46 49 41 48 47 35 47 46 35 58
3650.0 49 38 37 46 40 43 37 52 42 39
3690.0 31 31 55 43 52 47 43 52 42 57
3730.0 45 32 50 41 35 44 37 45 37 47
3770.0 46 48 50 50 48 42 44 44 34 41
3810.0 38 49 23 41 58 55 44 32 38 38
3850.0 51 25 33 57 51 48 44 38 48 37
3890.0 64 40 40 45 47 46 50 42 40 45
3930.0 45 40 52 45 44 49 49 31 46 32
##END=
