##TITLE=Sulfone, methyl phenyl
##JCAMP-DX=4.24
##DATA TYPE=INFRARED SPECTRUM
##ORIGIN=Sadtler Research Labs Under US-EPA Contract
##OWNER=NIST Standard Reference Data Program
##CAS REGISTRY NO=3112-85-4
##MOLFORM=C 7 H 8 O 2 S
##XUNITS=1/CM
##YUNITS=ABSORBANCE
##XFACTOR=1.0
##YFACTOR=0.000044962
##DELTAX=4.0
##FIRSTX=450.0
##LASTX=3966.0
##FIRSTY=0.000000
##MAXX=3966
##MINX=450
##MAXY=0.44962
##MINY=0
##NPOINTS=880
##XYDATA=(X++(Y..Y))
450.0 0 237 363 310 208 223 215 234 150 161
490.0 87 147 205 264 337 514 908 1344 1990 3071
530.0 4074 5219 5199 4641 3634 2014 788 243 193 115
570.0 152 81 126 104 102 94 77 77 96 100
610.0 79 76 89 85 100 100 139 140 125 116
650.0 145 220 179 291 244 448 567 750 1037 1321
690.0 1676 1515 1308 1016 773 659 673 1019 1604 2496
730.0 3357 4277 4464 3803 2763 1879 1256 1112 1301 1746
770.0 1970 2020 1795 1308 764 472 370 301 257 219
810.0 189 140 154 125 105 96 85 80 79 98
850.0 109 114 100 103 125 153 151 180 178 185
890.0 145 128 124 123 106 110 142 171 193 225
930.0 269 335 473 829 1494 2184 2445 2379 1966 1161
970.0 530 281 194 176 179 187 209 220 218 220
1010.0 202 211 252 306 305 314 279 212 191 205
1050.0 204 254 296 352 388 431 526 652 864 1101
1090.0 1328 1415 1260 999 722 473 333 253 250 260
1130.0 295 382 577 925 1612 2800 4681 7139 9287 10000
1170.0 9226 7297 4481 2235 1134 641 367 302 260 240
1210.0 200 195 174 173 156 145 139 138 143 135
1250.0 145 154 194 230 273 301 330 349 365 393
1290.0 427 518 650 855 1092 1387 1675 2123 2507 2811
1330.0 3342 4110 5216 6397 7157 7121 6549 5478 3737 2246
1370.0 1267 742 502 422 391 369 345 316 307 301
1410.0 330 331 355 346 348 376 469 598 745 828
1450.0 768 769 624 408 309 267 286 306 308 301
1490.0 273 202 156 131 128 129 116 103 115 113
1530.0 101 105 102 99 89 88 88 96 100 97
1570.0 107 119 135 143 137 143 124 110 101 102
1610.0 99 99 105 94 93 78 78 78 77 82
1650.0 97 107 110 108 112 109 109 100 100 106
1690.0 103 106 114 106 95 91 92 87 85 80
1730.0 81 92 84 79 86 93 102 112 116 123
1770.0 126 129 126 123 124 123 123 131 153 169
1810.0 177 167 159 139 120 107 101 96 96 100
1850.0 99 94 98 98 96 95 96 104 111 121
1890.0 135 143 151 159 162 156 147 136 120 102
1930.0 89 87 86 94 107 119 129 142 148 154
1970.0 151 143 130 110 102 83 78 77 82 77
2010.0 78 79 75 74 73 74 75 75 77 81
2050.0 86 81 80 81 81 77 76 77 79 76
2090.0 82 84 85 80 80 78 78 80 77 75
2130.0 72 69 74 71 71 70 73 73 73 73
2170.0 81 79 80 78 81 80 76 76 72 75
2210.0 74 74 75 76 74 78 82 88 101 104
2250.0 116 123 121 122 118 119 112 108 103 95
2290.0 90 88 84 90 90 89 96 103 98 100
2330.0 89 82 81 69 83 88 69 73 69 69
2370.0 69 76 90 93 83 77 77 74 76 77
2410.0 75 69 74 73 75 81 85 88 84 83
2450.0 79 83 82 78 81 78 80 84 91 87
2490.0 98 104 108 103 112 104 101 90 86 85
2530.0 80 74 77 81 74 78 73 74 76 74
2570.0 85 89 90 87 87 86 85 84 83 84
2610.0 81 90 85 92 85 82 79 78 79 79
2650.0 73 77 85 82 84 90 97 95 94 93
2690.0 83 78 79 71 80 75 74 79 79 82
2730.0 84 84 91 94 99 91 90 93 91 90
2770.0 89 86 83 84 85 94 93 88 90 91
2810.0 89 92 87 87 89 94 91 88 97 93
2850.0 95 97 96 108 104 107 111 110 106 111
2890.0 113 107 108 109 109 113 118 123 134 155
2930.0 167 174 183 204 190 170 160 141 128 128
2970.0 124 114 111 105 110 113 118 132 150 162
3010.0 185 215 238 265 269 269 270 256 251 249
3050.0 266 309 386 502 702 938 1084 1078 1028 856
3090.0 587 468 402 318 253 191 155 128 123 118
3130.0 124 123 121 110 108 110 116 123 119 124
3170.0 121 120 119 105 104 105 96 106 98 95
3210.0 98 98 97 99 86 95 94 86 104 107
3250.0 96 97 98 97 98 89 91 94 98 93
3290.0 95 97 90 92 94 99 95 87 87 91
3330.0 84 81 92 93 86 94 94 100 89 92
3370.0 91 85 82 78 92 101 93 89 92 99
3410.0 96 97 92 86 84 80 93 81 89 79
3450.0 88 89 93 87 89 93 91 85 84 92
3490.0 87 78 77 84 86 74 86 78 74 89
3530.0 85 80 92 86 79 87 85 86 84 89
3570.0 98 72 81 83 93 89 86 85 84 97
3610.0 85 87 73 78 89 93 90 85 99 95
3650.0 83 108 95 90 70 91 75 96 100 97
3690.0 91 87 104 73 92 100 110 92 103 85
3730.0 83 76 90 80 100 84 85 84 95 91
3770.0 83 84 90 97 77 82 88 86 94 92
3810.0 81 85 71 69 82 73 82 87 82 79
3850.0 83 94 79 82 84 69 71 113 104 77
3890.0 91 98 89 82 94 76 96 88 75 78
3930.0 85 84 74 98 74 83 85 88 101 90
##END=
