##TITLE=3-Methyl-4-nitrobenzoic acid
##JCAMP-DX=4.24
##DATA TYPE=INFRARED SPECTRUM
##ORIGIN=Sadtler Research Labs Under US-EPA Contract
##OWNER=NIST Standard Reference Data Program
##CAS REGISTRY NO=3113-71-1
##MOLFORM=C 8 H 7 N O 4
##XUNITS=1/CM
##YUNITS=ABSORBANCE
##XFACTOR=1.0
##YFACTOR=0.000119977
##DELTAX=4.0
##FIRSTX=450.0
##LASTX=3966.0
##FIRSTY=0.001680
##MAXX=3966
##MINX=450
##MAXY=1.19977
##MINY=0
##NPOINTS=880
##XYDATA=(X++(Y..Y))
450.0 14 49 115 161 229 404 467 474 403 313
490.0 270 298 260 258 181 170 181 217 214 251
530.0 301 359 460 567 705 864 1038 1152 1149 970
570.0 838 662 557 536 564 579 603 612 518 443
610.0 310 235 159 111 80 59 62 67 117 229
650.0 644 880 964 682 338 55 26 8 23 26
690.0 59 68 91 118 202 293 679 1306 1721 1942
730.0 1721 1393 1385 1289 1036 798 590 454 400 404
770.0 461 532 619 629 523 407 296 215 170 161
810.0 172 227 370 805 1548 1896 1863 1315 698 508
850.0 394 284 192 123 83 56 53 51 69 86
890.0 137 208 305 439 563 630 608 491 313 184
930.0 109 73 56 48 49 51 52 52 57 52
970.0 53 45 53 55 60 71 88 109 127 151
1010.0 157 158 159 169 186 202 213 224 238 245
1050.0 250 266 296 351 453 638 933 1342 1846 2435
1090.0 2887 3115 3250 3268 3084 2855 2351 1679 1259 1046
1130.0 976 1023 1169 1405 1760 2267 2992 3975 4791 4919
1170.0 4391 3246 2158 1490 1113 883 737 653 623 653
1210.0 745 824 838 773 635 511 460 445 460 486
1250.0 516 552 597 655 704 723 725 750 827 972
1290.0 1147 1332 1477 1548 1569 1520 1466 1467 1553 1668
1330.0 1769 1853 2010 2367 2999 3730 4198 4153 3526 2709
1370.0 2058 1591 1294 1123 1023 933 880 851 894 968
1410.0 1033 986 839 670 530 477 463 503 533 567
1450.0 568 567 525 492 457 430 414 426 468 482
1490.0 513 567 627 718 841 991 1173 1388 1668 2081
1530.0 2602 3266 3937 4367 4430 4086 3398 2715 2158 1809
1570.0 1553 1405 1301 1283 1285 1272 1213 1120 1017 928
1610.0 866 788 672 537 408 330 271 235 229 202
1650.0 172 172 167 153 147 139 137 151 151 167
1690.0 189 208 215 250 309 391 480 543 582 549
1730.0 515 472 534 674 1028 1680 3013 5383 8585 9905
1770.0 10000 7533 3756 1804 917 526 396 384 401 461
1810.0 503 549 549 469 353 244 170 121 91 65
1850.0 66 59 59 53 55 42 55 58 63 61
1890.0 54 51 45 50 54 63 71 91 92 95
1930.0 90 73 60 43 37 32 27 21 22 13
1970.0 13 14 13 13 12 10 10 12 15 15
2010.0 15 14 14 11 12 7 11 7 10 13
2050.0 13 16 14 12 12 14 13 14 9 10
2090.0 7 3 3 3 3 2 3 4 2 2
2130.0 3 1 1 0 2 5 9 10 10 13
2170.0 14 13 13 13 12 8 7 8 8 6
2210.0 7 8 5 6 7 5 7 11 11 13
2250.0 11 10 11 13 11 10 14 14 16 19
2290.0 28 33 43 46 53 54 49 44 48 35
2330.0 35 35 27 45 55 59 58 45 57 55
2370.0 58 55 63 63 48 35 26 23 26 25
2410.0 26 26 27 30 32 34 35 36 33 31
2450.0 31 31 31 27 25 26 24 24 20 20
2490.0 22 21 21 21 21 23 19 22 20 17
2530.0 19 15 14 14 15 14 15 11 12 15
2570.0 13 14 13 12 14 14 13 17 17 17
2610.0 16 17 17 16 17 17 19 18 21 21
2650.0 21 20 21 22 25 28 30 34 34 34
2690.0 35 36 39 39 40 36 36 34 31 30
2730.0 30 32 35 36 39 40 42 45 44 41
2770.0 37 33 33 31 28 28 29 31 34 33
2810.0 36 38 41 44 50 53 58 64 70 76
2850.0 87 93 105 113 129 143 160 171 179 176
2890.0 170 161 153 143 137 133 133 136 143 161
2930.0 180 211 243 277 293 290 268 234 196 175
2970.0 170 175 193 214 239 256 260 238 208 168
3010.0 137 120 103 91 88 82 81 78 81 85
3050.0 88 87 89 87 84 79 80 79 68 61
3090.0 51 47 45 46 44 42 45 43 42 37
3130.0 36 36 32 31 30 31 28 25 26 27
3170.0 24 23 23 22 18 17 19 16 19 18
3210.0 18 17 19 17 18 17 20 16 18 19
3250.0 16 17 14 16 14 15 12 14 14 12
3290.0 13 13 11 12 14 12 14 14 12 10
3330.0 18 17 17 15 13 16 18 20 20 19
3370.0 18 15 13 18 17 17 18 17 15 15
3410.0 16 17 19 16 16 20 17 11 8 15
3450.0 13 15 14 16 14 16 12 9 12 14
3490.0 15 20 28 43 63 76 82 77 66 55
3530.0 36 25 13 10 21 27 39 65 117 281
3570.0 699 1678 3335 4263 3986 2664 922 223 107 56
3610.0 54 35 29 24 26 33 14 11 8 28
3650.0 36 29 32 22 25 13 21 13 10 9
3690.0 22 8 11 11 8 15 23 13 14 24
3730.0 14 25 29 30 40 28 16 17 15 12
3770.0 3 11 2 14 8 3 4 7 11 13
3810.0 17 11 14 12 3 13 11 7 4 8
3850.0 8 38 15 6 13 16 8 12 17 10
3890.0 9 6 6 21 16 5 5 11 14 15
3930.0 10 1 16 14 10 26 9 10 18 13
##END=
