##TITLE=Hexanoic acid, 2-butyl-
##JCAMP-DX=4.24
##DATA TYPE=INFRARED SPECTRUM
##ORIGIN=Sadtler Research Labs Under US-EPA Contract
##OWNER=NIST Standard Reference Data Program
##CAS REGISTRY NO=3115-28-4
##MOLFORM=C 10 H 20 O 2
##XUNITS=1/CM
##YUNITS=ABSORBANCE
##XFACTOR=1.0
##YFACTOR=0.000062811
##DELTAX=4.0
##FIRSTX=450.0
##LASTX=3966.0
##FIRSTY=0.014384
##MAXX=3966
##MINX=450
##MAXY=0.62811
##MINY=0
##NPOINTS=880
##XYDATA=(X++(Y..Y))
450.0 229 117 81 175 180 152 156 106 131 91
490.0 133 8 107 82 145 152 169 192 197 316
530.0 331 459 443 463 469 524 606 671 801 800
570.0 970 1154 1414 1619 1979 1853 1728 1605 1551 1460
610.0 1305 1189 972 864 765 699 543 422 298 205
650.0 140 96 96 66 71 52 33 40 39 44
690.0 47 65 80 123 147 197 260 368 475 587
730.0 673 674 658 625 560 489 482 467 402 344
770.0 315 256 255 241 231 186 168 200 116 95
810.0 83 46 45 39 47 29 27 31 20 20
850.0 32 20 6 21 21 21 29 44 38 61
890.0 65 71 74 71 67 52 47 44 48 56
930.0 58 77 84 138 166 232 265 286 292 275
970.0 243 214 198 171 154 146 145 143 148 154
1010.0 165 179 186 192 204 224 240 280 328 396
1050.0 466 554 666 788 914 1046 1227 1462 1774 2200
1090.0 2791 3558 4344 4872 4884 4331 3637 3085 2776 2598
1130.0 2460 2305 2165 2066 2024 2020 2006 1992 1941 1853
1170.0 1677 1419 1108 853 668 568 518 504 513 534
1210.0 568 611 636 606 541 451 388 336 311 289
1250.0 275 285 286 297 311 335 344 371 406 447
1290.0 510 565 602 608 576 527 483 441 426 424
1330.0 435 452 469 518 546 557 545 528 530 534
1370.0 552 584 684 808 883 850 736 617 550 478
1410.0 411 363 294 271 248 253 261 315 412 524
1450.0 684 831 994 1164 1208 1149 932 665 469 273
1490.0 192 141 137 109 79 61 60 64 23 72
1530.0 43 50 29 22 20 26 28 0 20 19
1570.0 38 10 27 26 35 24 29 43 24 36
1610.0 23 38 10 34 28 33 28 21 46 15
1650.0 41 4 44 39 52 48 30 82 51 83
1690.0 76 143 91 161 203 280 359 491 722 772
1730.0 932 927 1086 1063 1234 1465 2043 3355 5430 8159
1770.0 9637 10000 6734 4326 2338 1554 1167 1134 950 883
1810.0 711 591 429 331 257 183 165 128 129 74
1850.0 98 77 80 61 61 47 46 63 44 51
1890.0 30 48 33 38 32 28 26 21 32 24
1930.0 31 22 29 10 20 20 17 24 22 24
1970.0 7 22 9 14 10 10 9 8 18 7
2010.0 16 6 16 10 18 18 19 19 18 21
2050.0 18 20 10 20 8 13 18 16 11 11
2090.0 11 7 14 6 14 8 11 13 6 15
2130.0 10 13 6 10 10 15 15 11 14 15
2170.0 19 16 23 20 21 29 34 34 31 34
2210.0 34 34 23 28 25 28 29 27 27 23
2250.0 26 24 23 20 22 13 15 16 14 11
2290.0 8 13 5 9 4 16 7 5 14 8
2330.0 14 14 21 14 24 22 20 22 36 28
2370.0 22 24 16 25 25 27 25 26 25 24
2410.0 25 23 24 23 24 21 29 27 21 26
2450.0 24 23 20 29 23 27 22 23 24 18
2490.0 26 23 26 25 26 22 29 32 32 38
2530.0 36 41 38 41 36 45 40 43 42 41
2570.0 51 42 42 44 48 41 51 50 51 47
2610.0 51 52 49 53 51 59 56 64 64 63
2650.0 69 70 70 77 79 81 80 87 91 87
2690.0 85 81 80 79 76 75 72 79 80 87
2730.0 91 100 114 123 132 130 123 108 104 103
2770.0 110 112 118 127 141 159 170 190 200 225
2810.0 233 247 265 286 314 347 392 440 501 578
2850.0 699 916 1301 1892 2599 3205 3433 3409 3300 3103
2890.0 2764 2294 1970 1906 2020 2251 2587 3033 3574 4234
2930.0 5011 5932 6856 7540 7650 7076 6177 5605 5901 6896
2970.0 7562 6807 4965 2992 1773 1228 957 807 693 607
3010.0 533 479 439 410 377 353 318 289 262 232
3050.0 215 201 180 181 170 159 156 154 143 147
3090.0 144 132 128 126 125 123 118 112 108 110
3130.0 105 107 101 102 96 96 99 95 94 93
3170.0 91 88 91 82 85 83 75 77 79 75
3210.0 66 58 61 55 57 48 44 45 43 39
3250.0 44 42 35 28 29 33 39 35 29 33
3290.0 30 42 32 18 28 24 28 24 25 19
3330.0 20 23 19 21 18 18 24 20 17 19
3370.0 21 25 9 19 23 19 21 19 26 13
3410.0 27 27 18 18 13 19 3 9 8 19
3450.0 14 15 9 7 10 7 5 15 21 23
3490.0 22 14 28 23 28 35 42 52 55 59
3530.0 33 47 40 51 56 95 243 532 1108 1944
3570.0 2831 3106 2689 1732 860 314 137 78 78 48
3610.0 54 51 51 54 35 41 35 19 25 18
3650.0 29 29 16 25 6 25 18 24 21 23
3690.0 21 21 11 8 15 24 21 16 25 24
3730.0 15 32 22 11 24 17 24 29 14 25
3770.0 7 3 21 23 27 32 21 5 14 25
3810.0 7 24 14 45 40 13 30 26 35 9
3850.0 13 49 0 17 43 10 16 21 18 28
3890.0 32 22 14 17 5 8 11 46 44 27
3930.0 22 29 34 36 35 42 26 17 38 53
##END=
