##TITLE=Benzene, 1-fluoro-4-(phenylsulfonyl)-
##JCAMP-DX=4.24
##DATA TYPE=INFRARED SPECTRUM
##ORIGIN=Sadtler Research Labs Under US-EPA Contract
##OWNER=NIST Standard Reference Data Program
##CAS REGISTRY NO=312-31-2
##MOLFORM=C 12 H 9 F O 2 S
##XUNITS=1/CM
##YUNITS=ABSORBANCE
##XFACTOR=1.0
##YFACTOR=0.000071875
##DELTAX=4.0
##FIRSTX=450.0
##LASTX=3966.0
##FIRSTY=0.011716
##MAXX=3966
##MINX=450
##MAXY=0.71875
##MINY=0
##NPOINTS=880
##XYDATA=(X++(Y..Y))
450.0 163 145 112 70 83 89 73 96 101 90
490.0 91 66 48 112 224 193 357 320 305 471
530.0 746 1273 2147 3582 5411 5420 3848 2076 1864 3420
570.0 7078 9732 7570 4033 1223 511 334 265 215 276
610.0 164 243 172 184 242 236 273 529 862 1944
650.0 3452 3894 2436 1062 591 848 962 1242 1839 2469
690.0 2301 1561 1265 1729 1762 1501 1248 1692 3800 6636
730.0 6472 4187 1541 842 839 1129 1199 1015 697 411
770.0 349 286 320 231 295 340 389 567 770 925
810.0 1219 1186 1243 1600 2408 3379 4031 3738 2609 1526
850.0 668 513 351 345 256 265 265 290 259 200
890.0 231 151 134 150 140 155 183 194 215 182
930.0 207 194 224 209 247 185 208 213 199 242
970.0 266 214 214 245 275 268 345 396 453 461
1010.0 666 820 840 717 577 565 463 429 341 361
1050.0 368 483 460 643 831 1067 1049 1108 1052 1139
1090.0 1489 2198 3319 4914 5747 4999 3236 1560 942 743
1130.0 756 799 1025 1402 2263 3648 5880 7406 9011 10000
1170.0 9627 7839 4832 2489 1398 924 682 588 564 609
1210.0 738 861 985 1157 1391 1815 2744 4778 6504 6184
1250.0 3787 1461 705 594 593 653 680 886 1121 1470
1290.0 1674 1433 1107 1006 1056 1121 1161 1264 1491 1706
1330.0 1975 2190 2662 3566 4879 5920 5611 3896 2149 926
1370.0 484 360 404 414 427 428 449 502 560 528
1410.0 481 426 365 391 390 439 464 662 933 1280
1450.0 1208 956 685 582 467 508 520 729 1099 1825
1490.0 3187 4533 4378 3078 1447 650 456 371 376 324
1530.0 324 256 302 229 318 335 390 375 514 610
1570.0 800 1059 1471 2062 2881 3643 4000 3529 2313 1307
1610.0 813 629 461 430 349 327 228 274 254 274
1650.0 278 258 245 241 208 233 194 232 187 163
1690.0 186 173 138 132 159 155 170 134 172 164
1730.0 183 116 194 148 196 148 230 220 266 289
1770.0 307 252 250 204 201 208 185 233 251 288
1810.0 231 255 185 177 162 182 131 146 123 164
1850.0 126 161 140 144 155 155 165 179 207 260
1890.0 294 294 356 342 339 282 274 214 206 170
1930.0 181 134 172 140 180 159 203 204 228 187
1970.0 191 187 199 156 149 151 138 127 92 121
2010.0 95 123 90 125 102 123 93 120 84 136
2050.0 107 157 100 159 133 126 135 125 116 111
2090.0 103 109 124 83 123 80 106 68 131 93
2130.0 94 92 127 76 121 82 100 79 119 100
2170.0 96 124 108 122 103 100 92 101 57 111
2210.0 52 102 66 100 80 105 98 133 97 140
2250.0 120 126 98 111 108 112 122 99 123 111
2290.0 124 112 175 155 175 147 182 127 172 158
2330.0 159 108 130 82 90 128 151 112 87 52
2370.0 37 46 85 106 106 126 118 137 142 162
2410.0 129 175 112 165 137 182 109 123 107 118
2450.0 107 127 108 122 124 135 141 125 155 120
2490.0 138 97 125 119 161 122 170 108 144 112
2530.0 131 92 138 105 122 117 138 129 135 151
2570.0 160 156 144 153 140 160 108 132 108 128
2610.0 117 120 82 124 98 111 90 117 87 108
2650.0 108 102 124 141 125 101 116 76 118 101
2690.0 134 87 137 102 124 111 126 99 142 119
2730.0 125 115 157 113 109 117 116 127 130 120
2770.0 114 130 101 112 90 118 87 129 85 131
2810.0 89 117 90 146 80 117 114 125 102 136
2850.0 136 94 115 127 106 108 132 105 124 90
2890.0 142 105 156 109 124 114 141 122 137 121
2930.0 153 137 142 129 133 125 107 123 114 132
2970.0 152 125 124 140 114 141 114 149 113 183
3010.0 174 213 190 206 208 268 244 271 261 290
3050.0 275 287 374 466 645 907 1179 1289 1238 940
3090.0 755 537 421 275 287 205 211 156 180 133
3130.0 155 123 137 128 123 127 130 131 115 142
3170.0 109 119 107 142 126 126 110 111 70 102
3210.0 90 82 74 96 94 82 76 88 80 85
3250.0 82 74 80 87 84 47 60 66 75 89
3290.0 75 76 81 43 99 76 69 85 94 89
3330.0 40 67 106 89 78 70 66 80 58 78
3370.0 52 71 69 75 62 66 73 93 71 95
3410.0 62 93 48 93 59 33 56 77 55 30
3450.0 49 44 53 64 45 24 60 32 64 71
3490.0 70 48 79 69 56 52 80 58 67 75
3530.0 25 53 52 56 36 62 71 56 57 66
3570.0 45 68 55 88 84 70 71 65 42 70
3610.0 31 61 82 57 75 62 37 91 105 108
3650.0 79 93 85 99 114 91 98 82 127 137
3690.0 141 127 153 165 177 162 155 175 211 188
3730.0 193 173 127 185 172 156 143 177 199 204
3770.0 222 224 208 219 221 222 252 251 243 235
3810.0 234 255 247 240 242 240 253 246 257 268
3850.0 277 259 256 276 284 270 254 284 282 286
3890.0 292 298 304 305 287 287 300 306 305 283
3930.0 270 275 284 269 268 298 0 23 24 24
##END=
