##TITLE=4-Benzylpiperidine
##JCAMP-DX=4.24
##DATA TYPE=INFRARED SPECTRUM
##ORIGIN=Sadtler Research Labs Under US-EPA Contract
##OWNER=NIST Standard Reference Data Program
##CAS REGISTRY NO=31252-42-3
##MOLFORM=C 12 H 17 N
##XUNITS=1/CM
##YUNITS=ABSORBANCE
##XFACTOR=1.0
##YFACTOR=0.000083041
##DELTAX=4.0
##FIRSTX=450.0
##LASTX=3966.0
##FIRSTY=0.014532
##MAXX=3966
##MINX=450
##MAXY=0.83041
##MINY=0
##NPOINTS=880
##XYDATA=(X++(Y..Y))
450.0 175 83 5 140 113 201 287 299 342 484
490.0 561 789 1032 1138 1013 648 408 202 111 60
530.0 13 56 34 82 126 206 225 291 382 599
570.0 846 995 1009 867 848 834 743 493 240 91
610.0 66 55 102 127 118 99 106 116 112 91
650.0 129 142 186 246 248 315 403 466 708 1087
690.0 2043 3056 3879 3710 2849 1970 1601 1549 1792 2307
730.0 2971 3765 4454 5023 4972 4669 3997 3250 2444 1663
770.0 1145 777 561 436 377 340 345 364 359 326
810.0 292 271 245 219 168 134 98 81 71 65
850.0 66 58 64 51 73 81 88 81 86 124
890.0 177 247 301 305 259 191 126 102 110 129
930.0 163 144 122 99 105 126 207 251 265 243
970.0 210 248 279 251 188 144 143 214 327 402
1010.0 384 274 158 162 344 453 461 352 222 227
1050.0 265 321 374 370 334 273 255 274 312 361
1090.0 373 398 437 491 532 551 556 555 533 519
1130.0 574 731 1005 1281 1386 1288 982 671 425 266
1170.0 205 183 188 193 203 239 280 284 246 182
1210.0 140 125 138 156 166 169 154 135 124 135
1250.0 180 286 428 524 551 523 484 448 418 384
1290.0 352 291 244 235 301 476 763 1188 1418 1409
1330.0 1132 701 463 327 291 359 495 634 683 620
1370.0 479 370 303 348 472 515 457 312 193 156
1410.0 160 166 232 301 432 610 816 1080 1364 1675
1450.0 1854 1773 1490 1094 812 624 523 416 355 399
1490.0 630 1098 1340 1186 722 253 113 73 80 55
1530.0 59 66 66 80 59 44 37 65 54 55
1570.0 73 107 151 213 280 346 417 544 683 759
1610.0 655 434 237 124 87 55 56 56 49 52
1650.0 62 67 44 31 29 16 25 5 19 25
1690.0 10 6 31 30 33 31 43 50 32 30
1730.0 43 62 52 51 49 50 36 29 26 22
1770.0 32 44 46 65 83 125 168 185 169 116
1810.0 74 60 44 34 27 22 18 11 27 37
1850.0 44 55 76 94 105 118 115 115 103 92
1890.0 77 63 48 39 36 32 33 36 52 69
1930.0 105 139 166 171 162 158 144 116 71 35
1970.0 17 13 11 13 13 12 13 7 8 10
2010.0 13 11 16 13 13 14 13 14 11 12
2050.0 7 6 4 4 4 2 5 1 5 1
2090.0 5 0 2 3 0 4 7 8 8 9
2130.0 11 10 9 6 4 4 4 4 2 6
2170.0 4 4 11 9 16 11 9 14 13 11
2210.0 10 12 13 10 11 16 14 17 25 22
2250.0 26 21 21 20 21 17 16 17 15 19
2290.0 23 26 34 42 43 58 60 63 56 52
2330.0 49 53 52 56 53 57 56 38 33 33
2370.0 25 28 33 29 25 22 26 25 24 29
2410.0 32 33 32 31 32 35 36 40 35 32
2450.0 35 36 40 45 49 48 46 43 40 34
2490.0 35 36 37 36 33 31 37 37 41 44
2530.0 46 50 58 59 60 67 64 66 69 73
2570.0 79 83 92 102 106 112 113 115 123 132
2610.0 138 143 151 170 203 241 284 308 304 282
2650.0 256 234 225 234 243 260 278 308 341 373
2690.0 394 389 360 327 319 328 368 456 603 814
2730.0 1091 1377 1570 1561 1347 1060 824 691 675 735
2770.0 848 1003 1225 1443 1580 1661 1759 2031 2517 3080
2810.0 3464 3373 2864 2215 1651 1314 1234 1380 1718 2152
2850.0 2599 2951 3168 3241 3159 2908 2562 2243 2056 1993
2890.0 2044 2233 2592 3195 4102 5350 6851 8353 9474 10000
2930.0 9887 9251 8702 8665 8935 8735 7330 5218 3156 1696
2970.0 951 613 461 393 353 320 308 319 366 439
3010.0 506 587 743 1095 1657 2365 2832 2754 2171 1423
3050.0 968 839 908 1188 1740 2236 2318 2018 1499 1254
3090.0 1167 1020 835 644 523 452 393 311 229 160
3130.0 122 91 82 72 60 63 58 58 63 71
3170.0 69 58 50 49 47 37 36 31 30 24
3210.0 26 25 27 21 16 25 25 21 26 24
3250.0 23 27 28 33 28 29 37 33 28 25
3290.0 28 22 22 16 23 23 19 26 30 43
3330.0 51 62 58 41 42 30 30 41 39 44
3370.0 45 36 41 21 26 30 30 21 25 21
3410.0 21 21 18 19 20 22 19 14 18 22
3450.0 23 30 26 17 17 23 15 7 22 17
3490.0 23 20 13 17 14 27 19 23 19 19
3530.0 25 19 13 21 23 18 27 22 20 13
3570.0 22 10 21 16 18 19 12 21 14 23
3610.0 21 23 21 13 24 27 22 29 35 36
3650.0 39 47 40 33 39 31 22 28 26 24
3690.0 26 23 29 35 33 43 26 31 31 24
3730.0 19 25 27 24 23 24 17 25 32 35
3770.0 17 25 27 31 31 25 24 29 13 30
3810.0 36 26 35 33 31 37 38 30 14 25
3850.0 20 29 37 20 31 28 24 28 39 45
3890.0 38 10 26 24 22 21 24 33 38 37
3930.0 29 17 29 16 26 8 29 19 20 11
##END=
