##TITLE=Dibutyl isophthalate
##JCAMP-DX=4.24
##DATA TYPE=INFRARED SPECTRUM
##ORIGIN=Sadtler Research Labs Under US-EPA Contract
##OWNER=NIST Standard Reference Data Program
##CAS REGISTRY NO=3126-90-7
##MOLFORM=C 16 H 22 O 4
##XUNITS=1/CM
##YUNITS=ABSORBANCE
##XFACTOR=1.0
##YFACTOR=0.000068506
##DELTAX=4.0
##FIRSTX=450.0
##LASTX=3966.0
##FIRSTY=0.008974
##MAXX=3966
##MINX=450
##MAXY=0.68506
##MINY=0
##NPOINTS=880
##XYDATA=(X++(Y..Y))
450.0 131 142 112 135 155 126 110 135 103 81
490.0 101 129 97 85 4 65 108 134 170 119
530.0 151 91 90 148 75 61 115 183 18 119
570.0 197 89 73 96 104 90 91 106 139 60
610.0 205 33 102 120 168 138 143 164 164 152
650.0 218 255 238 220 200 320 199 265 238 263
690.0 317 239 433 475 668 673 719 735 964 1272
730.0 1715 1534 1012 608 376 280 272 228 262 277
770.0 237 246 222 163 186 252 207 219 278 183
810.0 198 221 260 325 310 220 215 231 303 327
850.0 260 206 206 203 258 261 301 271 252 194
890.0 257 288 273 267 242 274 255 264 301 328
930.0 345 402 477 543 609 688 659 638 674 701
970.0 672 616 528 488 475 501 606 627 641 598
1010.0 544 560 559 524 423 355 271 289 326 339
1050.0 392 518 617 764 1033 1343 1579 1627 1641 1763
1090.0 2264 2678 2594 2077 1655 1396 1420 1523 1795 1996
1130.0 2055 1897 1631 1320 1210 1072 1012 1049 1178 1353
1170.0 1172 825 664 637 646 719 823 901 1091 1361
1210.0 1828 2569 3823 5615 8010 9896 10000 8339 5865 3990
1250.0 2810 2106 1803 1731 1692 1683 1640 1723 1996 2373
1290.0 2785 3367 3969 4070 3358 2371 1633 1174 926 801
1330.0 712 634 549 524 486 422 428 429 410 379
1370.0 381 404 450 544 658 644 597 457 400 372
1410.0 328 322 326 341 386 463 549 587 475 443
1450.0 463 526 611 572 602 597 548 508 426 350
1490.0 289 264 231 214 214 193 196 180 179 161
1530.0 149 154 155 175 147 151 157 172 172 146
1570.0 141 158 177 173 166 173 173 188 219 259
1610.0 279 236 212 146 139 128 130 137 133 142
1650.0 141 165 131 159 158 175 181 177 180 235
1690.0 243 303 400 444 431 456 520 609 748 1037
1730.0 1738 3429 6454 8225 6523 3943 2303 1378 880 644
1770.0 541 496 429 389 344 298 275 231 201 170
1810.0 155 140 110 109 100 104 92 84 79 98
1850.0 88 87 86 79 86 86 78 84 78 77
1890.0 73 68 66 69 70 85 84 98 99 98
1930.0 87 76 74 75 67 67 61 73 66 74
1970.0 73 59 65 51 45 45 40 38 50 49
2010.0 44 43 41 41 42 47 50 39 49 48
2050.0 44 39 39 40 45 46 46 38 45 38
2090.0 38 44 47 45 36 41 37 37 35 30
2130.0 30 35 36 42 28 28 28 28 28 26
2170.0 26 26 25 26 33 25 33 25 32 30
2210.0 34 32 23 24 30 32 23 30 23 31
2250.0 30 28 24 23 29 34 22 36 28 29
2290.0 41 49 64 78 95 127 151 157 213 237
2330.0 250 263 273 287 282 215 307 372 384 387
2370.0 295 198 149 83 41 25 14 14 14 14
2410.0 14 14 14 13 13 13 13 13 12 12
2450.0 5 12 12 11 12 11 10 8 3 11
2490.0 11 11 11 13 13 13 14 14 14 15
2530.0 18 16 29 20 16 26 17 18 26 26
2570.0 20 26 26 22 29 30 33 33 24 32
2610.0 31 25 24 33 25 26 33 28 28 28
2650.0 29 35 35 29 38 37 32 39 47 40
2690.0 37 42 45 44 48 43 58 50 57 58
2730.0 52 52 53 65 76 76 72 68 78 68
2770.0 72 71 64 78 65 73 71 81 93 81
2810.0 98 88 103 109 113 128 142 150 166 191
2850.0 235 282 332 349 389 475 572 688 777 832
2890.0 807 723 681 685 711 757 817 902 962 1008
2930.0 1076 1201 1372 1541 1635 1605 1572 1699 1967 2322
2970.0 2472 2327 1920 1426 1050 815 635 485 401 325
3010.0 275 239 205 196 191 173 173 164 158 165
3050.0 152 130 122 108 118 138 185 230 261 252
3090.0 178 117 99 92 84 85 78 77 64 75
3130.0 69 59 63 59 61 53 68 68 53 68
3170.0 68 69 57 54 53 50 52 61 50 58
3210.0 52 51 53 46 45 46 40 31 47 61
3250.0 57 41 40 21 42 37 37 30 59 33
3290.0 40 29 43 43 43 20 55 41 50 42
3330.0 36 36 47 30 35 33 29 39 41 46
3370.0 28 40 26 34 41 40 33 37 28 30
3410.0 34 29 29 25 33 37 10 24 24 37
3450.0 36 56 58 78 88 63 37 28 30 16
3490.0 16 24 17 31 17 17 19 19 20 11
3530.0 14 6 0 7 1 6 7 1 28 11
3570.0 10 8 7 23 32 33 26 28 20 29
3610.0 40 24 23 41 40 68 23 41 31 51
3650.0 69 40 47 55 57 79 93 94 96 104
3690.0 118 125 131 140 141 156 141 151 179 192
3730.0 203 213 213 213 223 210 224 220 233 243
3770.0 256 253 255 256 259 254 277 275 295 290
3810.0 290 283 314 298 303 309 308 327 309 309
3850.0 303 322 307 293 318 312 310 300 295 293
3890.0 298 295 292 306 302 280 265 259 244 237
3930.0 244 244 228 232 235 272 23 42 44 45
##END=
