##TITLE=Cyclohexanol, 2-tert-butyl-5-methyl-,
##JCAMP-DX=4.24
##DATA TYPE=INFRARED SPECTRUM
##ORIGIN=Sadtler Research Labs Under US-EPA Contract
##OWNER=NIST Standard Reference Data Program
##CAS REGISTRY NO=3127-74-0
##MOLFORM=C 11 H 22 O
##XUNITS=1/CM
##YUNITS=ABSORBANCE
##XFACTOR=1.0
##YFACTOR=0.000149384
##DELTAX=4.0
##FIRSTX=450.0
##LASTX=3966.0
##FIRSTY=0.000000
##MAXX=3966
##MINX=450
##MAXY=1.49384
##MINY=0
##NPOINTS=880
##XYDATA=(X++(Y..Y))
450.0 0 65 51 79 45 44 47 39 47 70
490.0 83 90 57 73 73 77 65 62 50 65
530.0 68 52 57 24 40 28 33 16 34 28
570.0 23 23 39 30 25 19 30 46 38 47
610.0 48 50 74 101 108 98 66 51 31 36
650.0 34 25 21 34 28 51 50 55 69 68
690.0 53 42 28 32 22 22 24 23 21 26
730.0 24 29 30 40 48 59 61 53 45 71
770.0 124 147 152 125 88 69 62 62 79 94
810.0 99 112 114 131 168 219 264 279 262 230
850.0 212 189 162 149 125 103 88 90 94 114
890.0 126 128 130 131 138 147 155 161 179 211
930.0 231 273 328 403 477 572 690 797 833 784
970.0 678 576 504 469 449 438 467 544 664 828
1010.0 963 998 979 910 812 711 631 574 527 504
1050.0 500 537 602 661 683 656 606 554 521 514
1090.0 513 500 489 474 475 499 545 579 589 557
1130.0 494 417 369 345 346 360 388 426 473 527
1170.0 594 651 691 719 722 700 667 640 636 675
1210.0 741 829 907 983 1055 1123 1142 1078 945 792
1250.0 677 608 562 519 474 422 382 349 335 327
1290.0 328 331 336 340 337 329 319 312 311 317
1330.0 339 380 438 493 535 580 676 893 1230 1602
1370.0 1846 1777 1530 1335 1167 1098 1079 1025 897 705
1410.0 453 303 259 254 274 326 398 475 562 654
1450.0 784 914 1046 1153 1214 1213 1191 1197 1138 1035
1490.0 819 549 319 204 153 118 106 92 87 80
1530.0 72 65 65 56 53 57 50 49 50 46
1570.0 49 47 49 46 47 45 49 44 45 50
1610.0 46 48 50 43 45 40 46 41 42 39
1650.0 40 43 46 38 42 41 41 40 43 42
1690.0 43 46 50 50 59 71 88 108 131 136
1730.0 124 104 80 63 50 48 52 49 47 45
1770.0 42 37 35 34 36 31 30 31 29 31
1810.0 28 27 28 27 29 25 27 29 28 28
1850.0 27 30 27 26 24 23 24 23 24 23
1890.0 23 22 22 23 23 20 22 20 19 23
1930.0 21 22 20 20 19 21 22 20 20 19
1970.0 20 20 20 18 19 16 15 15 15 15
2010.0 17 18 15 17 16 17 17 17 15 15
2050.0 16 16 16 15 15 15 17 15 17 18
2090.0 16 18 17 15 17 18 16 16 16 18
2130.0 17 18 18 19 21 19 18 17 18 18
2170.0 18 17 18 19 17 18 17 17 17 18
2210.0 17 17 16 19 18 18 20 19 17 19
2250.0 20 18 18 21 22 22 24 26 30 32
2290.0 36 41 42 41 37 38 35 30 25 20
2330.0 16 16 15 15 30 25 22 22 14 20
2370.0 22 24 34 37 41 36 31 32 36 35
2410.0 35 35 35 32 33 29 28 30 27 30
2450.0 27 32 32 35 35 32 34 36 36 36
2490.0 34 35 37 37 38 40 36 38 39 38
2530.0 37 37 39 40 42 45 47 48 49 52
2570.0 52 53 57 60 61 65 66 71 75 79
2610.0 82 84 89 93 98 101 107 116 119 122
2650.0 128 133 134 135 139 145 149 158 161 164
2690.0 163 159 153 153 153 152 161 176 191 206
2730.0 218 216 205 189 180 174 177 179 177 171
2770.0 166 166 171 180 194 207 216 223 230 245
2810.0 266 288 316 342 380 436 534 689 947 1329
2850.0 1809 2292 2655 2819 2888 3075 3434 3805 4022 4176
2890.0 4284 4466 4703 5026 5453 6098 6987 7706 7977 7754
2930.0 7316 6724 6338 6227 6534 7219 8264 9455 10000 9570
2970.0 8248 6463 4694 3430 2535 1901 1435 1080 810 615
3010.0 477 372 299 244 209 178 156 138 126 113
3050.0 109 104 98 96 93 94 89 88 85 82
3090.0 80 80 79 84 85 84 84 80 76 75
3130.0 75 76 77 79 80 83 82 84 84 88
3170.0 88 87 90 92 87 87 86 78 78 75
3210.0 72 69 64 61 56 55 53 52 52 52
3250.0 49 51 47 47 46 43 43 39 35 35
3290.0 33 34 35 39 38 37 38 41 40 38
3330.0 33 37 33 33 29 29 32 31 28 28
3370.0 34 34 32 29 30 28 27 28 27 32
3410.0 33 32 31 33 33 34 37 40 39 33
3450.0 36 31 30 33 25 29 33 29 28 26
3490.0 30 27 23 27 21 27 23 27 30 25
3530.0 23 24 21 22 26 21 22 22 18 18
3570.0 16 20 21 22 19 25 26 18 23 28
3610.0 39 43 49 59 77 107 154 216 298 371
3650.0 422 433 410 355 308 254 210 166 136 111
3690.0 94 78 71 63 63 55 45 50 43 36
3730.0 40 33 38 34 43 28 35 32 30 33
3770.0 31 31 34 38 33 39 40 37 37 48
3810.0 43 51 44 51 47 45 48 50 45 44
3850.0 55 56 55 56 55 49 45 50 51 53
3890.0 54 55 49 54 43 34 40 28 26 28
3930.0 43 31 33 27 25 32 41 35 33 36
##END=
