##TITLE=4-Acetylbutyric acid
##JCAMP-DX=4.24
##DATA TYPE=INFRARED SPECTRUM
##ORIGIN=Sadtler Research Labs Under US-EPA Contract
##OWNER=NIST Standard Reference Data Program
##CAS REGISTRY NO=3128-06-1
##MOLFORM=C 6 H 10 O 3
##XUNITS=1/CM
##YUNITS=ABSORBANCE
##XFACTOR=1.0
##YFACTOR=0.000083023
##DELTAX=4.0
##FIRSTX=450.0
##LASTX=3966.0
##FIRSTY=0.017684
##MAXX=3966
##MINX=450
##MAXY=0.83023
##MINY=0
##NPOINTS=880
##XYDATA=(X++(Y..Y))
450.0 213 189 167 235 209 246 256 291 368 449
490.0 532 563 605 649 640 690 741 825 831 915
530.0 906 953 983 1005 1088 1174 1233 1182 1166 1104
570.0 1076 1092 1139 1189 1205 1259 1268 1321 1327 1360
610.0 1353 1421 1401 1432 1417 1390 1342 1260 1139 947
650.0 816 662 591 490 473 412 367 324 304 294
690.0 275 260 258 253 271 282 312 338 390 474
730.0 532 562 550 510 410 311 251 186 130 87
770.0 69 68 65 73 62 69 55 37 27 13
810.0 22 17 11 21 18 7 14 8 9 2
850.0 3 5 21 40 61 85 108 137 162 159
890.0 134 107 85 75 83 84 100 121 153 191
930.0 233 273 318 353 381 399 423 447 471 477
970.0 469 452 433 409 401 405 416 436 443 450
1010.0 445 449 462 490 529 578 655 752 874 1016
1050.0 1168 1307 1421 1502 1577 1631 1688 1714 1728 1757
1090.0 1809 1926 2130 2470 3006 3820 4953 6270 7295 7775
1130.0 7623 6873 5834 4990 4515 4304 4294 4299 4226 4048
1170.0 3757 3362 2981 2720 2544 2422 2332 2245 2169 2091
1210.0 2008 1926 1836 1743 1640 1539 1430 1325 1253 1184
1250.0 1138 1094 1031 983 958 940 916 891 882 884
1290.0 896 922 950 979 1002 1009 1004 1000 997 1024
1330.0 1093 1210 1368 1560 1815 2133 2549 2965 3253 3363
1370.0 3265 2988 2673 2411 2227 2062 1883 1673 1470 1317
1410.0 1255 1256 1290 1330 1341 1322 1275 1222 1150 1101
1450.0 1048 981 876 748 613 490 392 313 259 215
1490.0 188 165 156 142 140 133 129 130 128 128
1530.0 124 124 123 121 119 121 117 119 116 108
1570.0 104 97 98 92 84 86 83 90 83 91
1610.0 90 98 102 108 118 127 142 143 152 149
1650.0 159 162 169 173 199 224 272 339 414 526
1690.0 637 786 949 1179 1463 1871 2412 3149 4066 5024
1730.0 5902 6354 6449 6137 5720 5432 5513 5936 6715 7729
1770.0 8786 9680 10000 9823 8988 7843 6495 5271 4180 3280
1810.0 2534 1909 1360 952 685 507 387 298 241 194
1850.0 164 142 126 105 99 85 81 74 67 63
1890.0 58 57 51 51 43 43 41 41 39 37
1930.0 36 36 40 38 40 38 35 29 26 21
1970.0 20 19 12 11 5 10 9 10 8 12
2010.0 9 8 6 4 3 4 1 0 1 1
2050.0 1 0 1 4 1 2 4 7 6 7
2090.0 10 8 9 12 11 9 11 11 10 8
2130.0 7 6 8 7 11 13 8 11 13 13
2170.0 13 14 14 17 18 18 19 14 15 14
2210.0 15 11 15 15 16 17 18 23 25 23
2250.0 22 21 20 18 15 16 12 14 13 15
2290.0 13 13 15 18 18 22 26 26 25 27
2330.0 29 30 24 27 24 23 16 14 26 23
2370.0 17 19 25 13 8 6 8 6 5 3
2410.0 3 3 1 2 0 1 4 2 2 6
2450.0 6 2 2 4 6 1 6 5 7 7
2490.0 9 10 11 15 14 14 11 17 16 11
2530.0 8 7 7 6 10 6 4 4 4 4
2570.0 7 7 3 5 4 8 6 6 3 6
2610.0 5 5 5 5 5 7 6 7 8 13
2650.0 7 10 10 14 12 14 16 19 18 20
2690.0 19 20 20 17 17 21 18 19 20 23
2730.0 21 18 18 20 22 24 27 25 29 33
2770.0 36 36 38 35 46 50 57 64 66 74
2810.0 89 97 111 120 127 138 151 160 174 195
2850.0 214 238 264 294 327 356 386 422 459 500
2890.0 561 644 749 850 935 995 1021 1047 1087 1149
2930.0 1215 1286 1345 1393 1445 1488 1524 1563 1589 1566
2970.0 1500 1379 1215 1058 896 771 667 594 553 544
3010.0 529 503 462 401 333 278 243 219 208 196
3050.0 195 190 188 188 186 181 173 164 155 147
3090.0 132 121 111 102 97 88 82 75 65 66
3130.0 59 57 49 45 47 43 37 38 34 32
3170.0 30 29 25 28 27 27 24 23 26 23
3210.0 24 21 23 14 16 17 20 17 14 17
3250.0 15 16 9 15 19 13 13 12 12 16
3290.0 12 12 13 9 14 9 6 11 12 9
3330.0 6 15 10 10 17 18 13 11 12 10
3370.0 14 16 16 20 23 21 19 25 27 28
3410.0 32 31 42 44 51 53 62 82 93 101
3450.0 105 94 90 71 58 41 33 25 28 28
3490.0 31 35 33 40 46 46 56 64 85 111
3530.0 117 124 148 160 209 259 330 510 824 1623
3570.0 2892 3714 3758 3575 2525 1234 612 369 215 158
3610.0 134 104 94 76 54 75 47 35 28 39
3650.0 63 33 30 13 16 22 46 19 8 9
3690.0 31 21 9 21 6 15 27 6 25 32
3730.0 10 38 41 28 36 55 21 28 23 19
3770.0 22 7 0 10 11 6 6 11 23 11
3810.0 15 2 32 21 22 15 28 27 35 8
3850.0 14 61 23 13 35 32 22 12 38 26
3890.0 28 9 27 44 45 20 11 19 22 34
3930.0 12 19 4 16 12 27 12 20 21 15
##END=
