##TITLE=Oxirane, (bromomethyl)-
##JCAMP-DX=4.24
##DATA TYPE=INFRARED SPECTRUM
##ORIGIN=Sadtler Research Labs Under US-EPA Contract
##OWNER=NIST Standard Reference Data Program
##CAS REGISTRY NO=3132-64-7
##MOLFORM=C 3 H 5 Br O
##XUNITS=1/CM
##YUNITS=ABSORBANCE
##XFACTOR=1.0
##YFACTOR=0.000041989
##DELTAX=4.0
##FIRSTX=450.0
##LASTX=3966.0
##FIRSTY=0.000000
##MAXX=3966
##MINX=450
##MAXY=0.41989
##MINY=0
##NPOINTS=880
##XYDATA=(X++(Y..Y))
450.0 0 216 444 291 369 352 354 141 89 46
490.0 32 40 49 108 78 64 45 8 51 50
530.0 63 19 48 71 86 82 83 83 43 104
570.0 63 124 64 118 70 149 180 231 223 237
610.0 263 204 316 291 417 449 852 1345 2284 3680
650.0 5572 7653 9542 10000 9053 8513 6845 2436 1256 893
690.0 372 298 223 309 150 234 194 244 144 224
730.0 214 237 303 341 481 606 1050 1611 2194 2209
770.0 2482 2981 2812 2256 2135 1882 2113 2291 2002 1747
810.0 1630 1767 2021 2683 3792 5171 6413 7211 7532 7716
850.0 6933 4888 3575 2961 2558 2155 1678 1488 1343 1278
890.0 1273 1334 1336 1396 1358 1503 1672 1814 1937 2038
930.0 2449 2912 3808 5048 5974 5513 5269 5496 4115 2222
970.0 1444 1037 792 606 508 453 466 512 528 610
1010.0 738 765 828 967 1064 1156 1186 1213 1186 1110
1050.0 1079 1033 1003 953 955 954 962 964 947 974
1090.0 939 878 810 761 741 717 729 795 894 984
1130.0 1087 1150 1159 1156 974 797 791 720 722 921
1170.0 1294 1537 1738 1842 1885 1794 1628 1605 2004 2952
1210.0 4390 5929 6728 6840 6465 6177 4455 2743 2167 2299
1250.0 2616 3185 3688 3698 3425 3424 2875 1964 1315 1002
1290.0 807 654 540 445 388 326 304 284 278 272
1330.0 272 286 289 279 272 274 293 327 390 440
1370.0 506 577 718 848 1134 1419 1815 2148 2235 2141
1410.0 2103 1766 1413 1291 1334 1460 1588 1925 2027 1956
1450.0 1775 1728 1514 1154 963 905 907 950 933 946
1490.0 906 880 806 744 727 680 544 452 325 270
1530.0 200 210 183 208 160 157 150 169 204 160
1570.0 196 214 211 142 147 90 30 16 33 115
1610.0 216 418 596 742 641 471 295 238 180 199
1650.0 146 211 149 101 130 111 87 86 62 83
1690.0 11 16 29 38 3 11 37 85 100 143
1730.0 206 233 240 182 152 110 117 56 77 49
1770.0 71 49 47 46 53 54 75 60 67 76
1810.0 61 67 70 81 78 78 68 70 61 77
1850.0 66 63 76 78 70 73 74 73 76 69
1890.0 87 85 85 88 88 98 97 103 100 96
1930.0 102 88 86 86 94 84 91 86 109 106
1970.0 125 131 131 131 127 119 112 110 95 94
2010.0 100 98 95 98 101 102 100 103 113 119
2050.0 110 108 118 120 113 105 99 103 98 98
2090.0 85 87 92 90 89 83 79 85 82 84
2130.0 76 81 83 94 93 94 92 99 106 109
2170.0 122 126 129 126 128 123 133 134 150 146
2210.0 155 153 168 163 183 203 215 237 247 256
2250.0 267 278 276 293 306 311 312 292 285 277
2290.0 249 227 208 197 181 170 147 134 132 132
2330.0 147 129 104 92 92 128 133 122 95 120
2370.0 126 107 95 74 64 43 41 49 43 45
2410.0 45 52 57 60 55 65 69 64 59 54
2450.0 29 29 33 39 39 46 35 30 44 41
2490.0 37 37 35 33 34 47 35 41 32 42
2530.0 36 42 55 51 50 58 49 47 56 58
2570.0 67 80 76 79 83 92 86 105 119 129
2610.0 145 144 143 142 127 112 104 95 110 119
2650.0 135 135 154 155 140 116 110 89 71 61
2690.0 65 61 45 50 43 35 33 28 29 40
2730.0 44 30 31 35 25 18 30 23 23 31
2770.0 28 21 30 32 23 23 13 5 12 8
2810.0 21 11 19 29 36 38 71 82 125 147
2850.0 164 172 209 218 232 268 276 273 275 300
2890.0 304 294 318 381 471 620 811 1078 1336 1605
2930.0 1724 1787 1821 1792 1743 1696 1738 1892 2127 2469
2970.0 2682 2921 3262 3324 3445 3622 3691 3855 4070 4293
3010.0 4376 4237 4078 3921 3683 3443 3196 3164 3221 3507
3050.0 3757 4339 4337 4582 3962 3482 2777 2101 1601 1125
3090.0 792 515 331 226 145 104 64 55 33 36
3130.0 20 29 32 24 10 27 31 40 35 19
3170.0 10 5 41 57 45 42 30 34 44 44
3210.0 42 22 41 37 40 58 33 64 55 70
3250.0 55 61 32 40 55 69 69 45 41 60
3290.0 65 57 81 61 55 59 80 71 62 59
3330.0 64 48 64 50 72 68 63 52 79 92
3370.0 66 51 67 80 63 69 84 98 75 64
3410.0 79 82 73 97 83 74 74 79 73 78
3450.0 90 101 99 69 118 85 107 59 83 40
3490.0 98 97 61 68 60 68 63 100 73 87
3530.0 103 111 118 100 110 93 82 87 110 99
3570.0 143 117 158 209 176 219 151 155 189 193
3610.0 230 233 211 215 196 250 181 178 145 205
3650.0 196 214 208 120 195 207 187 217 157 73
3690.0 186 210 159 187 161 157 162 138 110 177
3730.0 118 140 158 174 193 156 158 125 76 113
3770.0 152 146 131 136 84 99 103 112 130 134
3810.0 142 205 164 157 92 164 147 163 93 203
3850.0 228 249 254 240 126 68 157 249 213 253
3890.0 101 169 146 311 214 122 204 173 208 227
3930.0 346 228 127 187 116 62 269 113 147 177
##END=
