##TITLE=Benzaldehyde, 3-bromo-
##JCAMP-DX=4.24
##DATA TYPE=INFRARED SPECTRUM
##ORIGIN=Sadtler Research Labs Under US-EPA Contract
##OWNER=NIST Standard Reference Data Program
##CAS REGISTRY NO=3132-99-8
##MOLFORM=C 7 H 5 Br O
##XUNITS=1/CM
##YUNITS=ABSORBANCE
##XFACTOR=1.0
##YFACTOR=0.000093390
##DELTAX=4.0
##FIRSTX=450.0
##LASTX=3966.0
##FIRSTY=0.000000
##MAXX=3966
##MINX=450
##MAXY=0.9339
##MINY=0
##NPOINTS=880
##XYDATA=(X++(Y..Y))
450.0 0 184 285 178 291 229 195 261 189 219
490.0 225 237 241 270 231 271 204 255 247 211
530.0 254 192 252 208 234 243 243 216 238 259
570.0 266 261 285 312 250 317 283 323 310 324
610.0 316 295 316 319 360 407 520 646 792 754
650.0 764 632 573 915 1408 2153 2551 2734 2118 1537
690.0 1245 1148 1258 1537 1608 1552 1336 870 685 587
730.0 519 441 389 394 387 400 446 497 633 860
770.0 1102 1530 1782 1924 1966 1423 1139 830 572 456
810.0 365 335 312 325 396 455 521 590 715 858
850.0 881 924 892 792 771 790 847 893 875 783
890.0 655 560 518 457 386 347 310 292 268 273
930.0 265 257 270 255 272 263 263 284 278 285
970.0 280 271 289 308 342 389 442 525 549 508
1010.0 464 399 365 317 305 296 278 278 278 290
1050.0 353 461 709 1016 1092 1158 976 655 570 530
1090.0 493 413 334 296 291 303 287 280 280 270
1130.0 288 297 330 393 465 582 707 924 1063 1100
1170.0 1166 1409 2230 3895 5283 5604 4982 3112 1947 1600
1210.0 1343 1072 770 640 543 486 421 351 339 326
1250.0 357 411 498 633 764 828 814 724 639 587
1290.0 562 554 507 459 385 320 289 269 264 262
1330.0 260 291 296 298 286 274 281 305 378 487
1370.0 691 1042 1469 1562 1422 981 567 457 421 422
1410.0 461 527 682 793 945 1036 1020 885 663 451
1450.0 393 423 514 610 736 848 902 860 690 547
1490.0 418 331 309 274 294 299 274 291 292 281
1530.0 283 282 311 350 379 431 529 723 952 1269
1570.0 1711 2054 2232 2083 1610 1113 754 629 536 434
1610.0 384 336 343 323 328 328 330 338 299 295
1650.0 299 296 273 284 303 360 431 522 658 800
1690.0 952 1085 1318 1557 1979 2796 4358 6330 8112 10000
1730.0 9482 7118 3923 1881 1150 906 818 739 657 553
1770.0 455 383 310 315 298 307 317 305 326 304
1810.0 315 326 327 333 328 308 286 258 254 257
1850.0 250 264 261 278 286 304 314 308 306 294
1890.0 277 279 268 250 240 224 228 219 217 212
1930.0 209 227 238 253 259 254 247 237 224 226
1970.0 212 211 209 202 209 206 215 207 205 209
2010.0 208 208 213 209 223 222 224 238 230 232
2050.0 224 218 223 217 225 215 203 205 196 200
2090.0 199 192 195 188 190 193 185 194 190 193
2130.0 192 188 195 192 193 199 194 199 199 199
2170.0 206 199 200 195 188 196 190 190 191 185
2210.0 187 187 194 193 189 200 192 194 197 190
2250.0 198 188 192 197 190 195 197 196 205 195
2290.0 206 198 201 217 202 211 204 201 220 216
2330.0 231 233 219 254 243 230 208 202 254 237
2370.0 255 266 246 243 220 209 212 206 210 206
2410.0 205 210 202 206 201 202 206 199 208 213
2450.0 213 215 210 216 215 211 214 207 209 210
2490.0 206 214 205 210 211 208 217 215 215 224
2530.0 222 225 226 226 232 225 232 240 238 248
2570.0 236 242 240 236 242 237 247 241 240 243
2610.0 236 240 253 249 255 247 251 255 245 265
2650.0 264 268 271 265 277 279 271 282 277 295
2690.0 311 345 407 499 669 931 1264 1670 2013 1980
2730.0 1620 1034 596 411 339 327 322 359 395 473
2770.0 566 654 762 802 883 1022 1228 1395 1480 1485
2810.0 1444 1525 1720 1797 1615 1305 900 655 538 458
2850.0 427 395 394 386 363 357 329 307 298 284
2890.0 285 287 286 293 288 294 287 286 296 290
2930.0 303 300 288 298 282 290 280 264 281 269
2970.0 270 266 262 273 259 275 271 265 273 272
3010.0 275 304 308 340 333 340 356 333 347 344
3050.0 358 397 429 496 568 614 639 639 629 576
3090.0 516 486 431 375 322 270 257 234 226 229
3130.0 210 221 220 231 237 219 220 224 222 229
3170.0 217 227 211 207 212 214 211 205 197 218
3210.0 198 199 221 200 208 198 205 209 209 210
3250.0 208 201 207 196 209 202 200 213 196 214
3290.0 222 212 229 202 209 206 194 208 204 208
3330.0 221 188 222 186 205 214 193 224 208 198
3370.0 220 207 197 202 212 214 210 219 243 237
3410.0 283 303 353 355 352 345 298 265 250 230
3450.0 244 223 232 228 185 236 201 204 229 196
3490.0 207 215 213 215 185 213 215 212 228 205
3530.0 220 208 194 231 201 228 216 206 206 208
3570.0 229 233 212 212 217 223 226 187 225 209
3610.0 211 223 211 229 194 220 214 201 217 218
3650.0 220 224 208 228 244 233 273 247 217 227
3690.0 244 260 233 222 223 244 252 243 227 251
3730.0 237 243 219 247 250 213 262 197 240 236
3770.0 240 225 243 227 260 234 227 230 233 242
3810.0 208 215 234 226 231 223 247 242 232 256
3850.0 203 255 241 250 243 251 264 213 245 291
3890.0 233 268 303 217 243 221 200 222 185 318
3930.0 263 260 285 195 236 236 233 225 229 276
##END=
