##TITLE=Ethylamine, N,N-dimethyl-2-(vinyloxy)-,
##JCAMP-DX=4.24
##DATA TYPE=INFRARED SPECTRUM
##ORIGIN=Sadtler Research Labs Under US-EPA Contract
##OWNER=NIST Standard Reference Data Program
##CAS REGISTRY NO=31442-54-3
##MOLFORM=C 6 H 13 N O
##XUNITS=1/CM
##YUNITS=ABSORBANCE
##XFACTOR=1.0
##YFACTOR=0.000143539
##DELTAX=4.0
##FIRSTX=450.0
##LASTX=3966.0
##FIRSTY=0.010335
##MAXX=3966
##MINX=450
##MAXY=1.43539
##MINY=0
##NPOINTS=880
##XYDATA=(X++(Y..Y))
450.0 72 129 175 94 107 85 129 93 95 94
490.0 91 94 104 146 124 156 166 212 175 169
530.0 149 133 124 114 120 118 113 82 82 62
570.0 53 44 35 44 53 69 69 90 86 99
610.0 88 89 66 49 34 7 15 1 0 5
650.0 6 8 4 15 14 25 45 52 67 90
690.0 112 138 153 138 125 105 85 74 67 61
730.0 67 66 84 93 111 135 164 202 250 309
770.0 375 444 518 582 654 728 844 1016 1255 1538
810.0 1860 2139 2294 2320 2279 2183 2067 1979 1837 1689
850.0 1509 1312 1105 920 760 645 568 535 521 517
890.0 535 548 556 551 558 559 578 611 672 764
930.0 875 1027 1165 1297 1415 1524 1611 1692 1756 1741
970.0 1682 1680 1737 1802 1830 1842 1891 1964 2056 2111
1010.0 2197 2199 2131 2239 2479 2781 3081 3302 3381 3421
1050.0 3414 3329 3218 3126 3104 3076 3120 3215 3296 3254
1090.0 3083 2824 2501 2128 1800 1496 1211 1021 926 922
1130.0 999 1173 1456 1835 2240 2627 3002 3275 3510 3711
1170.0 3935 4193 4538 4934 5355 5880 6560 7472 8618 9824
1210.0 10000 9111 7648 5232 2977 1842 1370 1144 1064 1046
1250.0 1110 1221 1401 1622 1870 2040 2125 2119 2018 1912
1290.0 1795 1702 1624 1632 1758 2097 2678 3248 3403 3259
1330.0 2885 2168 1494 1113 975 986 1144 1340 1418 1389
1370.0 1305 1098 891 804 751 718 676 640 652 670
1410.0 664 629 591 544 506 525 630 810 1081 1405
1450.0 1769 2099 2377 2588 2615 2475 2237 1954 1541 1163
1490.0 880 690 565 483 461 407 397 372 357 335
1530.0 312 312 291 273 247 266 239 249 265 278
1570.0 312 362 458 579 785 1078 1496 2068 2898 4098
1610.0 5205 5623 5709 5509 4785 4484 4928 5330 5411 5258
1650.0 4646 3586 2797 2378 1962 1540 1155 933 773 670
1690.0 562 464 392 344 346 344 355 307 295 237
1730.0 172 143 117 94 76 73 69 66 57 68
1770.0 56 58 54 51 49 40 32 27 27 30
1810.0 29 25 34 26 29 23 28 29 27 24
1850.0 28 38 36 45 51 64 86 87 86 74
1890.0 56 45 51 55 62 67 76 80 76 80
1930.0 74 68 58 49 39 39 32 29 26 21
1970.0 24 23 25 28 30 28 33 39 43 44
2010.0 47 50 49 58 66 73 77 82 83 83
2050.0 84 81 74 63 54 46 41 37 39 40
2090.0 42 46 49 51 49 49 47 45 42 42
2130.0 42 46 51 54 61 65 71 70 69 61
2170.0 52 41 31 26 20 18 15 17 15 15
2210.0 12 13 14 15 15 15 15 14 15 12
2250.0 12 10 10 9 7 5 4 3 1 2
2290.0 0 2 0 4 3 3 2 1 1 0
2330.0 1 4 6 2 18 20 11 14 14 29
2370.0 30 39 41 38 35 32 30 27 26 24
2410.0 24 22 23 25 24 24 22 23 23 26
2450.0 25 28 30 31 34 36 40 45 49 55
2490.0 64 71 81 86 89 90 91 90 92 93
2530.0 92 93 90 92 89 91 88 87 87 84
2570.0 84 84 82 82 84 87 91 94 97 96
2610.0 97 98 98 99 99 104 107 115 121 128
2650.0 137 147 156 165 179 193 208 224 245 268
2690.0 297 337 381 440 505 579 655 739 825 919
2730.0 1008 1108 1209 1315 1448 1619 1887 2289 2904 3706
2770.0 4623 5440 6000 6137 5854 5310 4667 4158 3810 3640
2810.0 3614 3768 4031 4346 4559 4559 4292 3784 3252 2811
2850.0 2534 2397 2409 2512 2664 2835 3001 3106 3138 3126
2890.0 3057 2981 2911 2886 2895 2951 3059 3213 3423 3669
2930.0 3984 4333 4742 5159 5618 5934 6020 5925 5655 5349
2970.0 5188 5290 5305 5037 4511 3731 2693 1856 1361 1054
3010.0 850 712 604 538 504 472 446 417 397 416
3050.0 462 507 520 518 484 436 401 394 394 380
3090.0 354 320 287 256 266 295 375 557 750 778
3130.0 744 703 436 230 169 138 119 108 103 101
3170.0 99 94 94 92 92 89 88 84 83 80
3210.0 76 71 64 57 52 48 42 38 35 34
3250.0 34 27 30 30 27 29 27 21 23 23
3290.0 23 22 21 21 17 18 18 17 19 19
3330.0 18 19 20 19 21 20 19 16 15 18
3370.0 17 20 17 17 15 20 20 19 21 25
3410.0 25 25 26 26 26 25 22 23 20 17
3450.0 21 20 20 23 21 26 26 24 21 20
3490.0 19 17 12 7 5 13 12 13 14 8
3530.0 18 32 35 41 36 35 38 34 26 17
3570.0 19 20 27 16 16 16 12 9 9 7
3610.0 13 2 4 0 11 20 12 11 14 19
3650.0 15 24 31 32 35 32 33 29 29 26
3690.0 23 11 14 11 7 10 9 13 1 7
3730.0 9 13 7 7 24 15 8 9 13 14
3770.0 7 14 15 14 8 14 16 9 18 19
3810.0 20 23 21 22 19 25 22 24 12 19
3850.0 22 40 25 12 26 22 14 31 20 23
3890.0 27 22 28 25 16 18 25 27 23 24
3930.0 24 20 28 30 36 34 37 32 33 39
##END=
