##TITLE=Pyrazine, methoxy-
##JCAMP-DX=4.24
##DATA TYPE=INFRARED SPECTRUM
##ORIGIN=Sadtler Research Labs Under US-EPA Contract
##OWNER=NIST Standard Reference Data Program
##CAS REGISTRY NO=3149-28-8
##MOLFORM=C 5 H 6 N 2 O
##XUNITS=1/CM
##YUNITS=ABSORBANCE
##XFACTOR=1.0
##YFACTOR=0.000125674
##DELTAX=4.0
##FIRSTX=450.0
##LASTX=3966.0
##FIRSTY=0.076536
##MAXX=3966
##MINX=450
##MAXY=1.25674
##MINY=0
##NPOINTS=880
##XYDATA=(X++(Y..Y))
450.0 609 403 424 0 173 464 87 41 446 340
490.0 266 35 771 140 260 228 636 410 533 337
530.0 241 316 485 358 246 390 286 338 313 260
570.0 331 269 308 391 488 697 831 798 851 776
610.0 692 464 335 298 343 386 389 435 437 459
650.0 405 357 300 246 210 172 183 169 174 155
690.0 179 168 181 178 199 179 192 182 190 227
730.0 224 267 301 345 322 386 430 350 282 300
770.0 244 250 235 209 198 195 214 216 247 257
810.0 363 508 797 1035 1289 1412 1918 2716 1982 1392
850.0 1388 1105 859 575 427 285 246 213 214 211
890.0 207 238 240 259 253 284 295 335 308 277
930.0 281 263 265 244 255 252 267 264 278 299
970.0 310 345 394 502 658 941 1352 1937 2296 2627
1010.0 3645 4330 3973 3582 3273 2642 1593 887 751 869
1050.0 1212 1682 1969 1932 1865 1924 1631 943 559 400
1090.0 328 297 282 315 332 392 450 538 627 743
1130.0 916 1161 1473 1678 1735 1701 1619 1517 1235 1126
1170.0 1308 1577 1823 1962 2066 1999 1649 1280 997 730
1210.0 471 344 295 269 272 276 300 320 374 427
1250.0 502 571 669 816 1123 1716 2722 4352 6009 6820
1290.0 7135 7464 7866 7481 6922 6915 6768 6189 5499 4267
1330.0 2809 1916 1660 1450 1299 1171 945 753 765 834
1370.0 930 1134 1566 2772 5204 8639 9970 10000 9860 9833
1410.0 7114 2967 1500 1041 950 993 1224 1400 1505 1527
1450.0 1700 1906 1998 2449 3198 3569 3657 3606 3173 2399
1490.0 1487 838 696 583 679 774 835 1154 1880 3064
1530.0 4971 6774 7689 7603 7352 6760 4066 1782 1035 1121
1570.0 1512 1812 1853 1788 1607 1397 946 571 394 363
1610.0 370 356 410 344 388 300 354 362 318 342
1650.0 409 407 303 264 248 239 269 172 248 256
1690.0 177 147 257 245 202 138 187 263 150 113
1730.0 162 257 179 182 235 265 219 214 219 183
1770.0 229 238 193 212 199 209 216 185 187 120
1810.0 114 128 120 150 173 203 178 160 195 215
1850.0 159 117 128 124 136 163 117 111 120 131
1890.0 156 176 187 199 204 211 221 218 212 172
1930.0 150 147 137 152 141 109 108 100 85 87
1970.0 77 65 59 65 65 90 87 83 86 106
2010.0 119 152 184 195 210 226 212 197 173 131
2050.0 93 64 58 64 77 78 82 87 81 82
2090.0 80 77 77 85 92 106 114 116 120 123
2130.0 129 121 126 120 114 105 94 80 66 57
2170.0 50 46 41 40 40 40 39 40 42 48
2210.0 54 58 62 65 63 60 56 50 39 36
2250.0 28 34 29 28 27 26 30 32 37 34
2290.0 37 36 39 41 37 29 31 17 14 18
2330.0 16 30 37 47 51 64 26 42 38 56
2370.0 69 86 88 83 69 62 64 57 55 48
2410.0 46 46 33 33 35 38 37 43 42 52
2450.0 51 56 58 59 62 63 64 69 78 77
2490.0 83 85 92 83 80 66 58 53 44 44
2530.0 40 40 38 44 43 47 50 53 60 62
2570.0 77 78 80 85 91 97 100 98 102 99
2610.0 95 89 80 78 64 64 65 59 51 50
2650.0 45 41 42 43 36 40 48 48 55 51
2690.0 58 62 67 76 91 97 98 94 97 95
2730.0 89 81 80 75 68 63 74 76 80 78
2770.0 91 96 94 89 80 78 78 71 69 79
2810.0 79 93 103 125 157 187 204 222 254 275
2850.0 301 347 396 434 497 537 545 530 545 532
2890.0 495 468 466 479 490 485 493 493 473 472
2930.0 481 509 553 686 972 1414 1727 1775 1784 1889
2970.0 1710 1300 1068 976 1002 1181 1073 969 931 912
3010.0 917 994 1106 1100 1039 1010 977 836 695 672
3050.0 753 1004 1425 1965 2239 2083 2113 2076 1630 963
3090.0 576 375 281 206 179 149 137 137 126 107
3130.0 103 99 109 118 115 110 102 91 83 78
3170.0 78 66 70 61 63 65 64 53 57 37
3210.0 42 47 53 38 54 47 45 48 36 52
3250.0 35 46 43 54 50 34 55 47 41 34
3290.0 37 40 35 31 29 12 41 35 40 39
3330.0 52 39 36 41 34 25 31 45 51 43
3370.0 39 29 39 23 40 38 47 33 42 51
3410.0 52 52 36 36 61 26 40 28 31 38
3450.0 42 36 38 27 36 43 40 48 57 41
3490.0 29 36 49 49 48 30 45 53 27 41
3530.0 59 37 54 55 44 41 62 44 46 26
3570.0 63 74 42 27 36 48 48 48 36 46
3610.0 41 63 32 44 46 67 71 67 75 57
3650.0 70 48 55 56 41 72 75 75 71 87
3690.0 59 60 59 90 74 81 62 103 34 23
3730.0 67 74 67 58 57 77 57 74 38 46
3770.0 79 126 98 71 64 53 101 93 107 82
3810.0 87 58 79 91 49 62 94 64 52 84
3850.0 94 96 115 89 59 93 97 123 76 101
3890.0 118 58 116 70 76 107 85 90 41 75
3930.0 86 48 65 116 125 93 94 88 93 107
##END=
