##TITLE=Pyran, 4-chloro-3-heptyltetrahydro-,
##JCAMP-DX=4.24
##DATA TYPE=INFRARED SPECTRUM
##ORIGIN=Sadtler Research Labs Under US-EPA Contract
##OWNER=NIST Standard Reference Data Program
##CAS REGISTRY NO=31563-51-6
##MOLFORM=C 12 H 23 Cl O
##XUNITS=1/CM
##YUNITS=ABSORBANCE
##XFACTOR=1.0
##YFACTOR=0.000087723
##DELTAX=4.0
##FIRSTX=450.0
##LASTX=3966.0
##FIRSTY=0.000000
##MAXX=3966
##MINX=450
##MAXY=0.87723
##MINY=0
##NPOINTS=880
##XYDATA=(X++(Y..Y))
450.0 0 149 264 166 170 210 262 200 187 182
490.0 256 276 244 266 298 316 344 337 322 341
530.0 354 338 319 310 319 274 289 242 222 229
570.0 232 290 355 444 441 437 479 503 482 439
610.0 331 280 232 220 222 216 219 215 213 193
650.0 184 207 212 235 239 249 249 228 227 219
690.0 223 232 247 295 372 494 631 710 690 609
730.0 526 485 494 537 595 646 693 671 607 524
770.0 451 390 351 330 318 310 310 312 349 374
810.0 386 408 404 400 389 353 333 315 303 301
850.0 307 316 328 349 376 390 398 409 438 458
890.0 481 477 444 425 432 448 466 479 479 480
930.0 480 471 472 487 516 559 592 622 660 720
970.0 773 812 821 802 804 852 936 969 901 761
1010.0 655 610 598 597 584 590 631 679 709 724
1050.0 707 698 711 768 869 944 982 1046 1223 1557
1090.0 2015 2469 2704 2700 2417 1908 1415 1148 1061 1048
1130.0 1041 1023 1032 1123 1389 1821 2112 1928 1408 975
1170.0 721 581 508 478 474 485 506 535 573 617
1210.0 667 756 891 1049 1170 1223 1192 1104 997 893
1250.0 814 740 662 594 556 545 551 564 595 654
1290.0 704 730 730 727 701 638 567 513 496 510
1330.0 548 593 639 672 681 683 678 669 667 677
1370.0 670 679 715 795 803 704 543 419 352 322
1410.0 302 301 327 375 437 508 582 643 738 852
1450.0 966 1085 1262 1419 1498 1467 1223 892 623 479
1490.0 406 356 321 283 258 247 263 277 282 269
1530.0 260 257 253 246 243 239 233 229 233 232
1570.0 235 235 239 238 237 250 253 250 245 242
1610.0 242 235 233 227 225 219 221 214 212 203
1650.0 202 204 204 196 195 186 178 165 164 160
1690.0 159 158 158 152 153 153 152 152 149 151
1730.0 150 154 158 161 170 175 180 181 178 173
1770.0 170 155 151 145 141 135 137 136 138 137
1810.0 136 134 134 136 134 131 129 130 129 128
1850.0 127 131 131 132 129 129 131 131 132 132
1890.0 133 132 135 137 136 138 139 138 140 141
1930.0 142 141 142 141 146 145 149 151 156 155
1970.0 160 160 161 161 155 154 152 154 156 159
2010.0 159 161 163 166 168 169 169 171 170 164
2050.0 166 164 162 160 159 157 158 152 154 153
2090.0 153 154 152 150 153 150 149 151 148 150
2130.0 147 148 151 151 149 150 149 149 150 147
2170.0 150 147 151 150 151 150 149 152 153 149
2210.0 150 153 149 149 150 155 158 156 155 155
2250.0 158 157 157 158 156 159 157 159 159 163
2290.0 163 163 172 169 171 175 174 177 183 178
2330.0 177 178 178 174 188 190 187 186 177 181
2370.0 182 180 188 192 190 191 190 191 191 193
2410.0 194 192 194 196 197 196 201 201 197 197
2450.0 195 198 199 197 201 202 204 202 213 206
2490.0 205 213 212 211 215 220 224 226 223 231
2530.0 232 234 238 239 242 243 243 248 249 251
2570.0 255 255 258 259 260 262 265 270 273 275
2610.0 279 284 282 289 293 298 300 309 315 319
2650.0 327 337 345 359 373 382 396 404 414 421
2690.0 424 429 435 447 460 465 464 460 458 465
2730.0 475 480 494 512 524 538 546 538 532 516
2770.0 500 485 477 477 486 508 535 565 590 632
2810.0 679 742 853 1022 1298 1629 1957 2267 2700 3236
2850.0 3473 3465 3824 4510 4995 5145 4842 4186 3588 3222
2890.0 2882 2639 2632 2866 3260 3749 4334 5134 6304 7825
2930.0 9308 10000 9801 8889 7617 6375 5785 6077 6979 7790
2970.0 8022 7611 6059 3955 2471 1740 1388 1162 1000 873
3010.0 795 723 672 628 593 567 550 530 511 495
3050.0 475 460 453 439 429 419 411 404 401 391
3090.0 384 378 374 367 365 352 347 346 342 339
3130.0 333 328 327 324 321 320 318 314 311 307
3170.0 304 304 297 297 298 295 288 288 283 275
3210.0 272 267 260 258 252 249 245 245 239 235
3250.0 231 234 231 228 226 222 221 222 220 215
3290.0 212 210 207 207 202 201 201 197 194 198
3330.0 193 197 200 193 196 194 189 184 186 184
3370.0 180 186 178 181 178 182 175 172 179 176
3410.0 172 171 171 173 170 166 171 176 169 167
3450.0 164 163 161 161 166 168 158 156 157 160
3490.0 160 163 158 157 157 158 159 155 154 152
3530.0 152 148 151 156 155 156 157 154 153 160
3570.0 157 165 156 151 157 155 171 153 163 159
3610.0 159 158 164 167 161 175 171 158 168 167
3650.0 178 164 171 178 171 174 169 184 172 169
3690.0 163 169 163 164 176 172 164 164 166 160
3730.0 157 168 162 163 189 167 176 176 163 171
3770.0 172 167 162 165 167 165 165 166 161 177
3810.0 169 189 170 167 155 160 170 178 172 168
3850.0 167 172 164 166 175 167 162 165 168 172
3890.0 175 173 167 177 184 171 164 176 177 174
3930.0 177 170 168 169 180 172 170 176 193 184
##END=
