##TITLE=Pyran, 4-chloro-3-propyltetrahydro-,
##JCAMP-DX=4.24
##DATA TYPE=INFRARED SPECTRUM
##ORIGIN=Sadtler Research Labs Under US-EPA Contract
##OWNER=NIST Standard Reference Data Program
##CAS REGISTRY NO=31563-52-7
##MOLFORM=C 8 H 15 Cl O
##XUNITS=1/CM
##YUNITS=ABSORBANCE
##XFACTOR=1.0
##YFACTOR=0.000091309
##DELTAX=4.0
##FIRSTX=450.0
##LASTX=3966.0
##FIRSTY=0.006209
##MAXX=3966
##MINX=450
##MAXY=0.91309
##MINY=0
##NPOINTS=880
##XYDATA=(X++(Y..Y))
450.0 68 36 77 44 52 90 106 96 63 71
490.0 150 180 154 164 232 246 251 249 221 250
530.0 235 228 218 195 174 120 108 73 45 70
570.0 126 223 312 404 460 511 498 477 421 299
610.0 166 104 54 51 63 61 67 65 66 65
650.0 55 73 92 116 135 147 132 97 75 55
690.0 50 55 64 118 223 341 471 528 543 498
730.0 424 395 435 501 546 592 632 622 564 493
770.0 394 303 227 187 149 144 157 184 231 280
810.0 342 380 385 376 326 255 218 193 193 220
850.0 241 274 302 324 345 360 371 393 398 397
890.0 385 361 311 259 236 236 272 336 380 373
930.0 330 272 230 225 267 342 434 506 575 628
970.0 686 759 829 879 922 967 1066 1165 1196 1161
1010.0 1060 933 880 887 869 845 807 757 737 753
1050.0 787 854 939 1019 1117 1218 1352 1550 1854 2190
1090.0 2526 2866 3056 2992 2610 2124 1726 1486 1387 1357
1130.0 1290 1201 1152 1230 1491 1875 2127 2130 1841 1308
1170.0 814 536 411 369 365 378 406 452 545 668
1210.0 802 925 1039 1180 1308 1400 1407 1318 1204 1115
1250.0 1041 942 828 699 589 536 525 519 532 593
1290.0 667 748 803 798 741 642 532 454 429 448
1330.0 498 546 581 610 602 577 557 538 537 540
1370.0 550 598 682 748 764 701 547 389 274 212
1410.0 175 170 213 290 370 465 570 614 665 742
1450.0 811 893 1021 1156 1235 1285 1142 884 630 407
1490.0 266 180 124 71 44 34 66 100 117 114
1530.0 106 104 103 97 91 90 79 81 80 79
1570.0 81 86 87 87 87 96 101 100 95 90
1610.0 89 86 84 79 79 74 76 71 71 61
1650.0 62 63 63 53 48 43 39 25 21 16
1690.0 15 11 17 14 16 19 22 20 24 24
1730.0 26 36 43 58 80 92 99 92 87 74
1770.0 63 49 35 25 23 16 14 13 16 17
1810.0 20 23 24 21 16 9 5 1 1 0
1850.0 1 2 5 6 6 5 8 9 12 13
1890.0 12 12 16 17 18 19 20 23 22 25
1930.0 29 30 31 33 38 41 47 48 54 55
1970.0 58 59 58 56 53 52 48 49 47 48
2010.0 50 53 57 60 59 58 57 57 56 54
2050.0 53 53 53 50 48 46 47 45 42 43
2090.0 41 41 39 39 42 38 37 39 39 38
2130.0 37 37 37 39 37 36 38 38 40 37
2170.0 41 39 42 40 41 41 40 42 42 38
2210.0 37 41 41 39 41 42 44 41 41 40
2250.0 42 42 44 42 43 45 41 42 42 45
2290.0 44 45 49 51 55 57 57 59 64 66
2330.0 68 69 66 77 72 82 77 79 79 73
2370.0 76 75 78 81 73 73 74 72 73 77
2410.0 77 75 76 79 79 76 79 77 74 75
2450.0 74 76 75 76 77 79 78 78 82 82
2490.0 80 87 85 86 86 89 94 97 95 98
2530.0 100 100 106 109 109 111 112 113 116 121
2570.0 123 125 127 127 129 132 132 137 138 140
2610.0 140 144 141 146 150 156 160 165 170 177
2650.0 185 196 203 214 229 246 258 275 283 296
2690.0 300 306 322 337 354 362 365 355 353 352
2730.0 362 369 383 411 431 452 459 454 435 417
2770.0 392 367 349 342 341 355 378 399 426 453
2810.0 498 564 683 871 1138 1475 1879 2398 2929 3503
2850.0 3678 3242 3045 3054 3359 3704 3967 4002 3764 3380
2890.0 2949 2593 2325 2319 2490 2771 3100 3530 3917 4303
2930.0 4803 5082 5445 5616 5521 5435 5731 6285 7567 9183
2970.0 9977 10000 8339 6190 3841 2180 1395 1033 855 735
3010.0 662 602 564 528 505 485 463 443 420 399
3050.0 370 354 338 323 306 295 291 280 276 266
3090.0 261 252 253 241 242 232 231 231 225 224
3130.0 215 211 209 203 199 198 198 197 195 193
3170.0 191 191 191 190 184 183 181 175 171 168
3210.0 161 158 147 143 136 134 132 129 130 124
3250.0 118 118 118 118 114 106 104 108 109 99
3290.0 97 99 93 91 93 94 90 83 79 86
3330.0 79 77 80 76 77 73 76 68 68 59
3370.0 62 70 62 64 58 59 53 50 55 59
3410.0 53 55 54 54 55 48 55 58 52 53
3450.0 56 51 43 45 48 51 44 49 47 44
3490.0 45 51 45 38 45 42 39 49 46 43
3530.0 44 37 43 43 42 41 39 43 43 43
3570.0 43 47 41 39 43 39 44 35 47 43
3610.0 51 40 55 59 68 79 74 67 66 68
3650.0 73 75 97 114 121 115 115 111 97 72
3690.0 72 60 51 53 61 54 51 54 57 49
3730.0 45 56 44 44 57 38 44 52 48 57
3770.0 50 45 51 50 64 55 50 48 44 48
3810.0 48 57 46 39 40 41 56 50 45 59
3850.0 48 51 53 44 56 53 46 52 45 40
3890.0 52 56 49 49 63 61 48 57 56 54
3930.0 48 60 62 68 61 55 57 57 77 65
##END=
