##TITLE=1-(Nitromethyl)-cyclohexanol
##JCAMP-DX=4.24
##DATA TYPE=INFRARED SPECTRUM
##ORIGIN=Sadtler Research Labs Under US-EPA Contract
##OWNER=NIST Standard Reference Data Program
##CAS REGISTRY NO=3164-73-6
##MOLFORM=C 7 H 13 N O 3
##XUNITS=1/CM
##YUNITS=ABSORBANCE
##XFACTOR=1.0
##YFACTOR=0.000180923
##DELTAX=4.0
##FIRSTX=450.0
##LASTX=3966.0
##FIRSTY=0.035461
##MAXX=3966
##MINX=450
##MAXY=1.80923
##MINY=0
##NPOINTS=880
##XYDATA=(X++(Y..Y))
450.0 196 134 275 125 137 245 92 274 272 233
490.0 492 146 295 247 298 221 68 131 26 66
530.0 80 29 78 41 36 136 129 203 210 188
570.0 244 167 137 128 80 118 112 133 107 134
610.0 138 113 156 110 103 110 112 155 197 350
650.0 535 655 763 662 534 309 168 160 65 94
690.0 57 43 65 101 213 385 546 640 636 558
730.0 415 270 232 148 139 104 226 222 243 212
770.0 165 122 93 79 110 103 71 51 36 17
810.0 28 35 39 54 80 136 151 164 150 159
850.0 168 150 145 95 84 96 75 158 219 269
890.0 413 518 619 678 661 632 535 450 417 364
930.0 334 299 249 228 240 300 356 426 508 507
970.0 508 465 410 355 305 311 376 437 501 443
1010.0 369 262 204 130 143 187 253 325 396 433
1050.0 459 484 503 508 475 432 419 377 416 451
1090.0 527 575 660 718 658 603 483 402 408 398
1130.0 403 422 437 478 507 532 564 568 612 643
1170.0 726 849 998 1164 1242 1202 1073 884 741 615
1210.0 566 530 502 492 498 501 487 458 466 459
1250.0 511 603 717 884 972 1099 1155 1133 1136 1115
1290.0 1176 1302 1266 1204 1006 852 777 734 764 803
1330.0 843 953 1123 1273 1439 1646 1865 2068 2323 2644
1370.0 3012 3438 3392 3230 2567 1868 1486 1128 928 760
1410.0 737 796 1006 1141 1239 1242 1277 1181 1199 1244
1450.0 1333 1494 1404 1279 1082 811 739 498 363 383
1490.0 396 381 400 462 587 739 816 871 1193 1328
1530.0 1590 2073 2328 3115 3949 4585 6449 7395 9219 9807
1570.0 8275 7748 5379 4340 3175 2529 2124 1650 1336 1035
1610.0 789 613 500 358 315 220 233 246 187 198
1650.0 269 219 179 124 124 138 144 86 148 162
1690.0 135 137 250 287 265 267 349 503 462 486
1730.0 602 641 605 544 499 442 266 205 169 125
1770.0 158 151 102 100 87 97 108 92 107 61
1810.0 60 59 26 32 43 46 32 10 43 60
1850.0 33 6 19 14 25 52 17 8 8 0
1890.0 22 24 12 9 3 12 19 17 35 10
1930.0 8 10 5 28 17 5 7 8 12 17
1970.0 12 8 2 7 5 20 22 10 11 11
2010.0 9 10 17 14 8 9 7 11 18 14
2050.0 8 10 5 11 18 10 6 8 12 9
2090.0 17 14 9 15 10 11 10 8 15 16
2130.0 11 12 11 11 8 8 11 9 15 14
2170.0 12 17 16 22 19 19 23 23 23 27
2210.0 26 26 31 32 29 25 34 32 34 31
2250.0 35 40 40 46 50 52 57 58 54 50
2290.0 44 37 33 33 26 26 24 26 27 22
2330.0 18 18 11 19 18 19 14 10 12 16
2370.0 14 7 8 15 14 11 9 5 6 9
2410.0 10 14 10 12 15 16 18 16 17 18
2450.0 23 26 27 23 25 20 23 25 22 23
2490.0 22 25 23 18 18 17 17 18 15 14
2530.0 15 14 9 8 6 2 2 5 3 6
2570.0 6 9 8 14 18 18 19 23 28 28
2610.0 28 32 34 32 34 29 33 40 41 48
2650.0 54 59 67 79 90 92 94 94 87 85
2690.0 78 73 70 68 73 73 75 79 83 87
2730.0 92 97 96 99 101 93 86 80 73 74
2770.0 74 78 83 88 100 111 124 129 137 147
2810.0 152 160 170 182 206 233 282 357 465 620
2850.0 825 1120 1515 1923 2293 2488 2519 2355 2042 1726
2890.0 1472 1315 1284 1333 1443 1566 1753 2030 2457 3083
2930.0 3974 5314 7070 8778 10000 9708 8480 6302 4176 2608
2970.0 1597 1028 708 510 380 287 227 188 168 165
3010.0 163 152 152 150 152 142 136 118 92 78
3050.0 67 58 46 33 31 29 24 20 11 6
3090.0 7 11 17 17 15 17 15 19 11 9
3130.0 14 11 16 12 9 18 16 17 20 15
3170.0 10 14 15 9 10 6 2 14 9 5
3210.0 5 9 15 15 11 12 12 18 19 19
3250.0 18 11 19 19 25 29 16 19 17 16
3290.0 16 10 10 10 10 18 10 12 7 14
3330.0 18 14 25 22 24 29 26 25 28 24
3370.0 27 25 24 16 22 25 22 27 26 25
3410.0 34 34 40 35 33 39 45 49 44 37
3450.0 37 28 34 39 36 42 42 61 79 82
3490.0 88 85 96 100 86 86 65 65 71 78
3530.0 69 60 74 80 88 118 122 169 249 396
3570.0 647 924 1232 1446 1517 1422 1192 987 782 655
3610.0 532 430 376 289 246 230 210 188 154 142
3650.0 118 103 77 66 50 52 40 46 35 36
3690.0 31 39 32 32 25 26 36 29 26 28
3730.0 16 26 46 41 33 28 27 28 17 24
3770.0 24 26 24 23 20 16 6 31 26 23
3810.0 15 17 10 33 22 11 5 33 45 34
3850.0 28 31 22 18 28 46 27 12 29 45
3890.0 33 34 22 23 20 50 40 22 29 24
3930.0 42 25 8 23 39 31 32 22 16 8
##END=
