##TITLE=Decyl 4-nitrophenyl ether
##JCAMP-DX=4.24
##DATA TYPE=INFRARED SPECTRUM
##ORIGIN=Sadtler Research Labs Under US-EPA Contract
##OWNER=NIST Standard Reference Data Program
##CAS REGISTRY NO=31657-37-1
##MOLFORM=C 16 H 25 N O 3
##XUNITS=1/CM
##YUNITS=ABSORBANCE
##XFACTOR=1.0
##YFACTOR=0.000064389
##DELTAX=4.0
##FIRSTX=450.0
##LASTX=3966.0
##FIRSTY=0.005344
##MAXX=3966
##MINX=450
##MAXY=0.64389
##MINY=0
##NPOINTS=880
##XYDATA=(X++(Y..Y))
450.0 83 40 79 84 57 77 39 113 165 206
490.0 260 367 382 424 381 298 273 198 187 176
530.0 212 131 165 75 90 70 66 46 59 88
570.0 98 88 70 84 63 107 129 149 202 274
610.0 396 578 656 542 523 547 607 613 733 1031
650.0 1636 1591 899 458 288 312 335 400 602 925
690.0 1093 794 540 428 384 379 417 438 468 457
730.0 468 458 546 738 1179 2311 1928 691 453 304
770.0 330 331 332 308 272 299 295 341 377 406
810.0 384 405 443 547 727 1025 1461 2298 3577 3778
850.0 2834 2505 2964 2672 1616 959 689 580 500 465
890.0 433 415 407 395 402 390 388 406 425 454
930.0 505 557 639 729 775 764 733 732 737 773
970.0 826 927 1064 1232 1428 1604 1761 1898 2021 2120
1010.0 2156 2122 2053 1978 1894 1810 1730 1652 1588 1517
1050.0 1423 1316 1211 1124 1051 1002 947 911 887 915
1090.0 1017 1199 1541 2117 3056 4237 4075 2523 1377 865
1130.0 647 555 520 525 555 638 797 1127 1799 3056
1170.0 4043 3242 2028 1482 1264 1164 1109 1117 1184 1326
1210.0 1549 1853 2198 2562 3021 3589 4287 5087 6115 7354
1250.0 8755 9836 10000 8797 6853 5069 3773 2950 2530 2466
1290.0 2858 3691 3792 3061 2569 2433 2634 3196 4052 4755
1330.0 5077 5700 6926 8323 9154 8593 6363 4104 2782 2155
1370.0 1839 1711 1631 1508 1411 1331 1159 939 758 673
1410.0 656 688 817 876 919 1024 1224 1411 1579 1761
1450.0 1995 2271 2597 2847 3163 3377 3292 2888 2692 3119
1490.0 4257 6012 7001 6082 5067 5014 5365 5498 5272 4757
1530.0 4574 4603 4409 3634 2724 2098 1771 1628 1504 1517
1570.0 1694 2059 2704 3748 5152 6753 7476 6949 5734 4714
1610.0 3642 2500 1646 1000 671 441 364 302 255 249
1650.0 241 204 136 80 69 62 65 30 70 70
1690.0 51 39 82 69 53 36 55 96 59 55
1730.0 83 122 93 104 120 142 145 152 165 126
1770.0 122 82 59 52 62 53 69 49 55 34
1810.0 25 24 10 16 13 17 0 3 4 23
1850.0 12 7 16 27 44 58 58 64 86 110
1890.0 134 146 157 171 166 148 125 106 93 65
1930.0 49 41 35 42 46 40 52 54 63 70
1970.0 73 66 60 55 51 61 60 62 64 73
2010.0 80 84 84 80 79 87 85 82 84 78
2050.0 81 79 77 69 66 57 48 46 38 38
2090.0 38 39 38 42 50 61 63 61 52 43
2130.0 39 30 25 21 16 21 19 16 13 13
2170.0 11 15 14 20 20 22 21 25 29 35
2210.0 39 45 52 53 50 45 36 36 30 31
2250.0 32 35 39 45 44 47 54 69 82 90
2290.0 94 106 112 121 123 138 99 99 104 72
2330.0 68 53 48 22 128 76 127 85 82 80
2370.0 108 101 131 131 130 109 105 105 107 111
2410.0 114 115 122 127 133 151 167 183 202 226
2450.0 239 231 214 188 168 149 145 137 138 146
2490.0 147 161 171 179 173 173 169 160 155 155
2530.0 159 159 168 172 181 197 205 204 205 206
2570.0 217 226 238 246 249 249 246 241 237 241
2610.0 244 244 248 245 245 244 249 256 262 272
2650.0 274 268 266 265 265 268 265 268 273 277
2690.0 278 283 286 286 286 288 285 283 292 303
2730.0 309 321 338 348 364 378 384 393 397 408
2770.0 411 422 435 464 490 520 554 586 625 677
2810.0 745 829 921 1035 1178 1352 1591 1907 2354 2946
2850.0 3622 4250 4689 4872 4738 4459 4152 3846 3643 3592
2890.0 3621 3743 3978 4303 4715 5231 5881 6633 7511 8417
2930.0 9245 9565 9231 8459 7519 6630 5891 5329 4876 4451
2970.0 3940 3256 2505 1899 1484 1186 986 827 717 627
3010.0 564 511 461 419 392 365 342 321 309 302
3050.0 296 302 307 318 333 355 393 442 501 539
3090.0 528 469 371 293 273 260 248 224 196 176
3130.0 165 149 141 132 127 126 116 112 110 115
3170.0 110 114 119 121 120 129 128 132 129 118
3210.0 114 103 96 80 72 71 61 63 64 53
3250.0 53 57 49 47 46 49 46 41 39 47
3290.0 38 40 39 34 35 31 43 43 44 45
3330.0 41 43 38 35 44 46 32 41 38 36
3370.0 43 48 45 34 42 44 44 44 39 46
3410.0 34 38 41 41 33 31 35 35 37 47
3450.0 37 49 37 43 41 41 28 31 41 37
3490.0 34 36 37 34 42 44 37 35 42 40
3530.0 33 42 35 43 49 39 43 38 47 47
3570.0 49 45 45 44 53 44 57 43 55 47
3610.0 60 61 67 61 53 69 54 63 66 59
3650.0 110 72 73 66 54 97 62 86 45 67
3690.0 73 68 59 59 65 73 73 76 73 65
3730.0 60 63 81 83 105 56 96 66 70 59
3770.0 75 60 54 79 67 81 48 62 64 75
3810.0 47 82 66 69 65 54 77 78 61 56
3850.0 72 91 76 72 81 90 72 61 95 88
3890.0 46 84 71 102 89 91 91 64 73 69
3930.0 78 86 69 70 82 68 65 61 76 82
##END=
