##TITLE=Propane, 1,2,2-trichloro-
##JCAMP-DX=4.24
##DATA TYPE=INFRARED SPECTRUM
##ORIGIN=Sadtler Research Labs Under US-EPA Contract
##OWNER=NIST Standard Reference Data Program
##CAS REGISTRY NO=3175-23-3
##MOLFORM=C 3 H 5 Cl 3
##XUNITS=1/CM
##YUNITS=ABSORBANCE
##XFACTOR=1.0
##YFACTOR=0.000095621
##DELTAX=4.0
##FIRSTX=450.0
##LASTX=3966.0
##FIRSTY=0.000000
##MAXX=3966
##MINX=450
##MAXY=0.95621
##MINY=0
##NPOINTS=880
##XYDATA=(X++(Y..Y))
450.0 0 331 504 449 611 461 596 530 496 460
490.0 448 466 365 456 400 463 422 467 466 482
530.0 517 466 518 518 550 549 630 588 572 573
570.0 693 894 1213 1749 2229 2630 2747 2588 2118 1473
610.0 908 547 446 426 445 396 455 442 487 538
650.0 630 732 854 1126 1351 1741 2250 3076 4094 5714
690.0 7543 9043 10000 9640 8533 6273 3846 2018 1312 1056
730.0 989 999 1073 1171 1279 1520 1911 2330 2858 3266
770.0 3441 3314 2901 2258 1562 1089 835 615 499 467
810.0 457 442 429 389 377 389 371 370 364 381
850.0 381 351 396 400 388 414 441 485 514 574
890.0 596 619 639 668 725 858 1045 1206 1322 1369
930.0 1332 1160 1002 875 729 619 540 489 445 430
970.0 401 382 389 381 380 383 394 389 422 431
1010.0 447 469 510 538 558 592 615 681 787 989
1050.0 1313 1840 2695 4030 5805 7254 7567 6691 5241 3498
1090.0 2051 1286 1001 851 773 697 642 583 549 530
1130.0 501 490 499 514 556 650 772 931 1119 1301
1170.0 1409 1474 1460 1328 1181 1044 892 787 788 878
1210.0 1022 1247 1448 1558 1545 1476 1282 1059 841 685
1250.0 577 520 504 504 549 674 902 1085 1175 1301
1290.0 1177 1034 729 569 492 423 403 385 398 402
1330.0 411 402 415 410 412 428 443 480 521 700
1370.0 904 1297 1494 2009 2596 2135 1676 1404 937 696
1410.0 522 616 692 958 1099 1391 1498 1646 1694 1611
1450.0 1615 1502 1285 1129 879 691 530 458 415 390
1490.0 364 363 360 348 351 351 349 337 344 339
1530.0 333 335 338 330 331 337 336 337 345 340
1570.0 336 343 338 332 329 338 334 338 347 346
1610.0 345 362 366 373 387 397 390 386 387 372
1650.0 349 356 352 342 337 340 334 339 335 341
1690.0 344 355 357 358 374 388 394 416 447 463
1730.0 485 501 517 520 527 516 498 478 457 436
1770.0 419 410 393 383 380 378 365 357 356 348
1810.0 341 339 337 325 333 333 326 332 328 325
1850.0 322 330 326 324 326 326 324 325 334 321
1890.0 324 327 326 319 325 326 321 325 328 329
1930.0 330 336 329 331 329 332 324 330 329 328
1970.0 329 329 326 327 329 324 324 325 325 324
2010.0 328 331 326 328 330 327 327 331 329 326
2050.0 335 333 326 325 330 325 325 327 328 323
2090.0 326 329 329 328 336 338 339 347 345 348
2130.0 351 353 340 341 340 332 330 330 326 322
2170.0 327 325 324 321 325 324 322 326 319 322
2210.0 326 327 320 325 331 325 329 327 330 329
2250.0 334 333 335 346 349 349 356 359 350 350
2290.0 355 351 345 351 345 345 341 339 329 324
2330.0 323 322 319 326 329 319 319 319 319 319
2370.0 319 329 331 341 338 337 332 334 325 327
2410.0 332 325 329 330 334 334 341 350 351 360
2450.0 367 359 350 347 341 336 332 338 332 339
2490.0 339 336 339 344 343 340 343 341 335 337
2530.0 341 334 337 349 346 347 358 360 355 360
2570.0 353 345 341 340 339 339 344 348 353 356
2610.0 363 364 363 356 344 344 340 336 334 337
2650.0 333 327 330 330 325 325 330 330 327 324
2690.0 329 328 338 338 346 356 358 354 350 359
2730.0 346 341 340 343 332 340 341 328 327 330
2770.0 323 319 332 328 325 328 332 324 325 347
2810.0 341 348 362 364 372 384 390 394 412 428
2850.0 435 433 449 449 442 450 457 454 459 469
2890.0 453 452 435 425 410 413 395 401 419 453
2930.0 521 636 801 903 1118 1166 1081 1054 1107 1133
2970.0 1170 1195 1144 1085 1017 1006 1102 1284 1263 1496
3010.0 1386 1340 1124 946 810 559 431 404 356 367
3050.0 348 360 353 344 352 351 346 350 356 359
3090.0 344 345 358 343 352 358 347 347 345 346
3130.0 336 340 350 343 340 339 345 335 349 343
3170.0 336 352 345 334 344 341 341 337 348 346
3210.0 335 339 349 335 349 345 326 340 349 343
3250.0 333 344 340 331 343 356 354 349 352 348
3290.0 352 351 346 334 337 338 330 334 331 337
3330.0 337 350 352 355 361 362 336 349 348 336
3370.0 341 356 335 343 361 330 334 352 339 325
3410.0 344 341 336 344 345 349 334 334 349 348
3450.0 337 337 332 336 351 353 338 342 350 344
3490.0 349 351 344 333 347 343 338 361 354 344
3530.0 360 348 345 353 360 348 343 362 355 346
3570.0 360 366 360 350 358 346 370 354 364 360
3610.0 364 385 355 357 360 346 373 367 359 358
3650.0 359 358 360 361 371 359 361 371 363 379
3690.0 383 372 352 366 372 364 357 378 338 362
3730.0 381 386 394 392 390 373 347 380 353 340
3770.0 367 377 376 369 398 375 361 368 380 361
3810.0 356 363 374 385 343 366 377 376 369 402
3850.0 388 413 374 379 352 369 376 350 402 382
3890.0 394 389 378 377 393 418 395 392 364 367
3930.0 359 341 400 406 343 357 417 331 378 372
##END=
