##TITLE=Cyclohexane, (1,1-dimethylethyl)-
##JCAMP-DX=4.24
##DATA TYPE=INFRARED SPECTRUM
##ORIGIN=Sadtler Research Labs Under US-EPA Contract
##OWNER=NIST Standard Reference Data Program
##CAS REGISTRY NO=3178-22-1
##MOLFORM=C 10 H 20
##XUNITS=1/CM
##YUNITS=ABSORBANCE
##XFACTOR=1.0
##YFACTOR=0.000065891
##DELTAX=4.0
##FIRSTX=450.0
##LASTX=3966.0
##FIRSTY=0.022139
##MAXX=3966
##MINX=450
##MAXY=0.65891
##MINY=0
##NPOINTS=880
##XYDATA=(X++(Y..Y))
450.0 336 162 182 87 158 149 162 46 138 60
490.0 112 130 167 137 123 130 78 109 76 139
530.0 88 143 112 40 143 74 123 88 111 113
570.0 127 120 148 140 161 28 69 131 84 115
610.0 109 91 131 128 156 91 96 105 100 88
650.0 99 121 112 107 97 85 73 97 103 111
690.0 106 106 102 93 108 90 101 103 118 87
730.0 98 100 104 106 99 96 97 99 98 88
770.0 90 102 133 12 79 98 130 106 131 98
810.0 134 102 105 95 101 130 146 238 239 272
850.0 230 205 121 115 118 106 130 114 166 185
890.0 228 221 243 202 167 152 128 143 139 160
930.0 142 139 128 112 106 109 107 95 109 100
970.0 105 110 140 125 101 126 132 142 143 175
1010.0 164 166 149 153 159 179 222 213 206 171
1050.0 143 117 116 97 91 78 83 101 85 92
1090.0 86 108 83 118 96 109 136 86 111 84
1130.0 132 95 90 128 130 135 126 144 134 158
1170.0 139 156 153 172 200 214 218 199 189 168
1210.0 188 217 264 332 411 479 507 509 448 395
1250.0 328 293 250 232 208 174 166 141 136 123
1290.0 128 127 140 152 173 205 200 195 174 139
1330.0 120 131 124 145 178 227 320 480 732 936
1370.0 1129 1100 810 601 417 430 503 536 490 414
1410.0 244 142 131 128 135 147 195 271 445 615
1450.0 792 907 929 802 737 678 702 745 722 656
1490.0 536 368 225 145 116 93 94 91 82 77
1530.0 74 77 69 61 62 62 58 62 63 62
1570.0 64 62 66 58 62 59 58 57 62 59
1610.0 60 54 47 53 62 61 55 57 55 60
1650.0 48 62 59 55 56 50 49 61 51 57
1690.0 56 57 50 59 50 57 55 53 54 58
1730.0 53 57 74 79 83 80 79 59 58 53
1770.0 52 53 50 51 49 45 45 51 44 50
1810.0 41 45 46 41 43 43 41 40 39 40
1850.0 38 39 38 40 34 41 41 40 34 36
1890.0 41 37 44 39 42 41 42 35 39 43
1930.0 38 38 37 34 37 43 34 47 38 36
1970.0 36 42 33 33 37 30 27 33 33 30
2010.0 33 35 28 31 30 35 35 37 34 37
2050.0 33 33 32 32 35 29 40 37 34 31
2090.0 29 31 31 30 29 33 28 28 29 30
2130.0 32 25 33 31 37 33 34 38 34 36
2170.0 36 36 35 37 36 36 37 34 36 33
2210.0 32 29 29 30 33 33 34 29 29 34
2250.0 26 31 28 26 22 25 22 20 19 19
2290.0 19 22 23 18 18 12 18 7 14 17
2330.0 18 10 16 7 13 7 2 8 18 4
2370.0 11 2 14 17 19 26 38 41 40 41
2410.0 38 37 28 31 27 23 26 26 28 22
2450.0 23 19 16 16 24 12 19 23 21 25
2490.0 26 24 20 23 22 19 21 20 21 23
2530.0 23 22 21 20 18 12 15 16 21 25
2570.0 34 38 29 38 46 57 54 61 61 71
2610.0 65 69 68 68 64 74 73 72 77 75
2650.0 76 90 110 128 159 166 173 159 130 118
2690.0 105 96 97 94 101 99 97 108 99 100
2730.0 94 93 85 81 79 96 95 91 84 87
2770.0 77 86 99 105 121 127 148 162 169 175
2810.0 192 203 207 229 259 298 371 495 677 1017
2850.0 1589 2438 3370 4045 4161 3877 3222 2572 2125 1823
2890.0 1651 1623 1723 1947 2270 2780 3402 4230 5433 6911
2930.0 8527 9806 10000 9808 9193 8198 7226 6662 6367 6072
2970.0 5714 4966 3830 2856 1898 1118 654 404 271 216
3010.0 188 164 156 137 134 130 121 118 120 81
3050.0 77 73 62 71 75 61 66 70 57 60
3090.0 65 75 76 60 55 66 58 68 62 59
3130.0 61 73 73 64 67 76 79 72 75 84
3170.0 94 91 81 82 84 84 84 72 69 74
3210.0 72 62 66 69 63 77 63 67 72 69
3250.0 56 62 61 72 58 35 36 51 54 53
3290.0 62 61 43 51 56 53 64 65 69 61
3330.0 55 48 44 32 34 39 52 56 44 63
3370.0 48 67 37 35 44 33 36 39 37 55
3410.0 60 48 84 61 57 36 43 39 21 51
3450.0 32 72 74 47 62 47 46 28 31 15
3490.0 33 55 33 22 26 58 37 43 31 48
3530.0 44 33 41 34 31 27 10 41 46 32
3570.0 28 33 58 29 22 40 30 16 29 19
3610.0 41 46 18 23 47 33 42 36 39 51
3650.0 58 28 50 29 23 70 21 18 54 37
3690.0 15 24 41 38 35 20 28 31 5 13
3730.0 23 51 11 23 28 41 42 43 2 25
3770.0 0 43 24 19 13 33 27 39 19 14
3810.0 13 27 62 16 6 37 49 72 27 6
3850.0 11 38 33 27 2 20 9 9 12 73
3890.0 0 20 0 30 12 114 11 2 2 91
3930.0 31 17 57 25 45 3 0 33 2 59
##END=
