##TITLE=1,1-Cyclohexanediethanol
##JCAMP-DX=4.24
##DATA TYPE=INFRARED SPECTRUM
##ORIGIN=Sadtler Research Labs Under US-EPA Contract
##OWNER=NIST Standard Reference Data Program
##CAS REGISTRY NO=3187-27-7
##MOLFORM=C 10 H 20 O 2
##XUNITS=1/CM
##YUNITS=ABSORBANCE
##XFACTOR=1.0
##YFACTOR=0.000101407
##DELTAX=4.0
##FIRSTX=450.0
##LASTX=3966.0
##FIRSTY=0.031842
##MAXX=3966
##MINX=450
##MAXY=1.01407
##MINY=0
##NPOINTS=880
##XYDATA=(X++(Y..Y))
450.0 314 213 183 87 75 87 253 31 196 95
490.0 137 115 111 133 79 120 156 217 132 148
530.0 122 49 0 179 83 133 258 201 249 128
570.0 73 106 94 148 260 148 178 125 120 110
610.0 58 105 138 195 105 132 108 120 120 103
650.0 92 137 107 79 112 118 74 47 113 141
690.0 111 108 119 62 127 101 134 106 73 148
730.0 139 86 164 98 118 128 112 92 158 128
770.0 109 156 109 113 208 164 175 158 196 189
810.0 194 149 201 213 255 197 210 244 246 222
850.0 205 251 213 195 197 178 185 186 170 261
890.0 265 248 238 271 290 259 303 298 303 412
930.0 376 403 468 456 471 483 520 514 533 543
970.0 593 692 789 833 957 1077 1234 1426 1631 1812
1010.0 1937 2079 2176 2266 2287 2286 2294 2219 2171 2016
1050.0 2003 1922 1786 1677 1537 1357 1225 1052 970 911
1090.0 864 813 780 771 731 688 598 499 533 526
1130.0 501 516 526 536 505 481 450 432 420 431
1170.0 470 466 452 491 489 517 516 494 532 507
1210.0 522 540 527 555 544 531 546 545 561 563
1250.0 576 578 568 570 549 519 513 471 467 459
1290.0 434 435 421 420 402 404 397 377 383 385
1330.0 376 383 368 402 411 422 429 413 417 390
1370.0 408 415 449 490 525 586 577 574 516 463
1410.0 423 387 338 336 335 371 407 503 552 668
1450.0 811 969 1079 1074 934 806 648 522 431 327
1490.0 240 196 150 103 117 100 70 75 87 63
1530.0 59 51 80 79 60 37 47 90 69 60
1570.0 44 46 72 31 46 39 53 47 39 55
1610.0 27 73 51 67 46 56 73 69 65 71
1650.0 44 124 40 36 40 51 35 51 34 62
1690.0 36 27 69 79 56 31 32 47 38 26
1730.0 32 53 60 34 38 40 47 57 69 87
1770.0 124 146 156 138 129 95 88 50 36 27
1810.0 11 18 11 14 25 13 19 8 27 17
1850.0 15 9 33 14 11 22 14 13 10 14
1890.0 11 16 11 16 15 12 16 17 15 14
1930.0 13 11 16 12 13 14 12 17 12 11
1970.0 22 16 18 18 15 16 14 19 20 23
2010.0 28 28 27 27 34 35 42 40 39 40
2050.0 40 31 30 26 25 25 23 19 16 21
2090.0 14 13 13 11 9 12 9 11 10 6
2130.0 8 5 5 5 6 5 10 7 10 11
2170.0 10 6 13 9 8 9 11 12 10 9
2210.0 11 6 8 9 8 10 7 8 7 10
2250.0 5 6 10 9 9 11 14 12 18 18
2290.0 20 17 20 20 25 22 22 21 16 22
2330.0 14 14 16 28 17 29 21 22 23 11
2370.0 22 23 24 27 17 19 18 16 19 18
2410.0 27 19 17 19 20 21 23 21 19 21
2450.0 23 19 24 19 19 20 18 20 24 19
2490.0 16 23 15 24 21 19 21 22 19 17
2530.0 20 24 26 21 25 24 20 18 24 22
2570.0 24 20 29 32 31 33 39 40 47 56
2610.0 54 62 55 61 65 68 73 76 83 90
2650.0 96 105 105 115 123 124 129 130 116 107
2690.0 103 97 100 100 99 104 105 110 114 119
2730.0 120 122 122 127 133 140 143 153 161 171
2770.0 173 187 199 215 227 231 249 258 265 280
2810.0 287 302 319 343 379 419 486 595 760 1020
2850.0 1380 1857 2348 2712 2887 2894 2829 2676 2529 2435
2890.0 2419 2484 2615 2813 3092 3501 4028 4691 5566 6840
2930.0 8511 9707 10000 9124 7436 5709 4360 3350 2568 2012
2970.0 1591 1266 998 781 615 474 383 301 261 225
3010.0 203 184 163 146 135 122 115 108 94 93
3050.0 88 86 73 80 78 72 64 59 54 47
3090.0 40 46 29 36 31 33 32 34 30 33
3130.0 33 28 27 24 23 21 29 26 35 29
3170.0 26 23 30 25 28 29 29 29 40 30
3210.0 23 19 29 25 26 20 24 18 33 22
3250.0 19 23 14 17 24 22 23 13 16 19
3290.0 21 22 25 16 18 18 25 20 15 13
3330.0 13 17 22 7 8 16 23 26 20 22
3370.0 30 22 25 25 18 12 22 12 11 21
3410.0 19 25 15 17 32 21 29 31 20 28
3450.0 29 42 38 44 29 32 32 26 26 29
3490.0 26 40 33 19 32 14 8 30 24 22
3530.0 26 35 51 44 54 45 80 99 145 134
3570.0 149 151 148 111 109 104 102 84 82 63
3610.0 90 85 78 83 71 128 122 141 152 241
3650.0 329 499 635 814 885 846 775 514 323 178
3690.0 137 126 85 72 60 68 83 59 67 38
3730.0 48 44 18 48 33 104 35 40 8 29
3770.0 49 37 34 47 46 53 54 53 37 58
3810.0 28 54 68 76 45 27 48 20 87 67
3850.0 45 111 90 53 75 80 68 75 50 73
3890.0 37 72 71 61 51 79 59 102 36 72
3930.0 21 42 67 35 39 0 57 57 30 61
##END=
