##TITLE=Ethane, (chloromethoxy)-
##JCAMP-DX=4.24
##DATA TYPE=INFRARED SPECTRUM
##ORIGIN=Sadtler Research Labs Under US-EPA Contract
##OWNER=NIST Standard Reference Data Program
##CAS REGISTRY NO=3188-13-4
##MOLFORM=C 3 H 7 Cl O
##XUNITS=1/CM
##YUNITS=ABSORBANCE
##XFACTOR=1.0
##YFACTOR=0.000143787
##DELTAX=4.0
##FIRSTX=450.0
##LASTX=3966.0
##FIRSTY=0.005176
##MAXX=3966
##MINX=450
##MAXY=1.43787
##MINY=0
##NPOINTS=880
##XYDATA=(X++(Y..Y))
450.0 36 55 73 26 97 59 35 59 84 100
490.0 88 144 118 112 55 86 84 66 70 16
530.0 39 0 59 23 41 41 50 41 29 94
570.0 51 102 82 124 84 118 124 145 170 168
610.0 239 212 335 343 444 476 633 766 937 1308
650.0 1706 2489 3209 4541 5151 5635 5902 5600 5297 3926
690.0 2464 1654 1140 881 605 513 350 302 257 218
730.0 199 148 172 109 112 76 91 59 73 78
770.0 69 84 74 84 82 118 91 113 129 157
810.0 176 203 258 294 361 403 483 528 570 586
850.0 579 537 496 431 345 282 216 183 138 126
890.0 119 110 126 136 160 182 219 241 262 263
930.0 268 266 254 257 245 247 238 248 250 264
970.0 288 346 426 538 646 718 779 835 907 899
1010.0 919 950 971 963 948 894 871 909 984 1161
1050.0 1362 1502 1454 1362 1140 960 937 1008 1100 1248
1090.0 1497 1843 2383 3114 4034 4600 5149 5764 6673 7255
1130.0 7841 9176 9459 10000 9354 9492 7751 5758 4068 3297
1170.0 2977 2672 2383 2078 1922 1709 1449 1197 1006 860
1210.0 740 659 582 537 506 512 495 511 582 749
1250.0 965 1066 1111 1054 1068 963 744 572 487 456
1290.0 460 503 573 690 827 1050 1241 1290 1184 1213
1330.0 1260 995 684 497 394 307 252 217 210 216
1370.0 246 283 341 441 528 654 755 820 766 720
1410.0 688 564 386 305 262 273 275 301 322 347
1450.0 371 383 408 394 413 413 394 400 365 352
1490.0 306 267 238 214 197 128 119 107 99 90
1530.0 79 85 67 78 54 63 52 64 53 52
1570.0 50 52 51 47 46 48 45 45 46 47
1610.0 46 47 50 50 49 51 53 57 53 57
1650.0 61 64 66 66 74 74 94 83 96 108
1690.0 113 117 140 142 145 150 147 164 139 155
1730.0 138 145 150 188 368 215 104 222 218 226
1770.0 210 216 193 166 152 141 127 100 92 73
1810.0 70 57 55 49 44 41 29 29 23 25
1850.0 19 23 22 23 21 22 24 20 23 19
1890.0 21 17 19 19 21 23 24 25 26 29
1930.0 31 38 46 57 63 72 77 79 81 79
1970.0 83 83 91 97 101 101 98 92 80 69
2010.0 52 43 36 35 28 29 28 27 27 26
2050.0 26 23 20 19 17 20 18 21 22 27
2090.0 28 34 35 43 45 51 55 61 63 64
2130.0 66 66 64 61 64 66 67 72 75 78
2170.0 73 71 63 52 44 38 36 32 33 31
2210.0 30 29 33 35 36 40 44 48 53 60
2250.0 63 70 73 80 88 95 98 97 96 90
2290.0 82 68 60 48 42 32 28 24 23 20
2330.0 19 24 19 27 23 18 18 24 29 33
2370.0 32 30 28 25 21 21 20 20 21 20
2410.0 20 21 19 19 19 20 18 19 15 12
2450.0 11 10 10 7 6 8 7 3 5 5
2490.0 3 4 3 3 1 3 1 3 3 1
2530.0 0 2 1 0 3 1 0 3 0 0
2570.0 5 4 5 7 7 6 9 13 13 17
2610.0 20 23 26 32 35 34 34 36 36 29
2650.0 31 30 25 22 29 32 35 36 32 42
2690.0 36 36 38 66 59 66 68 72 81 110
2730.0 144 146 158 166 191 233 233 212 207 232
2770.0 244 214 287 267 212 201 227 308 356 306
2810.0 308 280 315 345 317 290 333 306 336 388
2850.0 416 477 552 699 900 975 1161 1324 1519 1666
2890.0 1734 1848 1831 1742 1663 1616 1554 1512 1511 1582
2930.0 1609 1699 1813 1912 2013 1991 1925 1856 1812 1775
2970.0 1737 1840 1995 2176 2240 2250 2210 2080 1818 1519
3010.0 1253 1066 936 817 729 642 578 521 427 347
3050.0 270 216 177 139 108 94 75 64 62 64
3090.0 62 55 60 54 55 54 59 51 42 38
3130.0 33 32 26 28 26 25 22 22 23 26
3170.0 23 20 25 21 25 24 26 26 29 31
3210.0 30 30 29 28 23 23 22 19 17 17
3250.0 16 13 12 12 13 9 10 11 10 10
3290.0 13 11 8 8 8 7 4 9 6 4
3330.0 10 9 5 7 6 2 6 3 5 3
3370.0 7 8 5 5 4 8 10 15 14 5
3410.0 5 6 9 7 11 12 10 14 14 14
3450.0 16 11 5 9 7 16 10 5 6 6
3490.0 10 18 19 15 16 11 14 7 10 7
3530.0 6 6 0 4 1 0 5 5 5 10
3570.0 6 10 6 4 7 5 15 7 12 8
3610.0 13 8 12 14 11 25 17 18 16 18
3650.0 31 25 28 28 21 33 28 38 20 31
3690.0 33 30 26 33 27 30 33 27 23 31
3730.0 26 35 26 36 28 27 40 24 27 27
3770.0 31 30 28 32 26 28 19 25 31 35
3810.0 31 32 29 39 30 22 33 37 31 31
3850.0 25 34 36 28 25 35 22 28 30 29
3890.0 29 31 36 37 34 28 29 35 34 26
3930.0 32 27 35 28 39 32 32 32 34 40
##END=
