##TITLE=Phthalic acid, 4-fluoro-, diethyl ester
##JCAMP-DX=4.24
##DATA TYPE=INFRARED SPECTRUM
##ORIGIN=Sadtler Research Labs Under US-EPA Contract
##OWNER=NIST Standard Reference Data Program
##CAS REGISTRY NO=320-96-7
##MOLFORM=C 12 H 13 F O 4
##XUNITS=1/CM
##YUNITS=ABSORBANCE
##XFACTOR=1.0
##YFACTOR=0.000166156
##DELTAX=4.0
##FIRSTX=450.0
##LASTX=3966.0
##FIRSTY=0.006480
##MAXX=3966
##MINX=450
##MAXY=1.66156
##MINY=0
##NPOINTS=880
##XYDATA=(X++(Y..Y))
450.0 39 86 104 18 55 81 32 53 26 24
490.0 13 14 3 7 16 3 15 14 28 35
530.0 44 42 47 61 69 71 78 89 103 127
570.0 142 156 163 177 185 193 205 226 251 284
610.0 349 422 442 398 310 226 140 85 45 37
650.0 26 29 13 37 48 59 53 51 47 53
690.0 68 93 114 105 84 64 54 58 54 61
730.0 61 71 80 94 130 184 271 404 534 649
770.0 736 791 810 752 648 526 431 374 358 367
810.0 384 406 417 450 516 625 705 665 529 424
850.0 382 383 416 454 495 515 528 515 519 539
890.0 525 405 271 184 134 114 109 120 153 218
930.0 342 542 750 846 749 533 341 228 172 145
970.0 134 126 132 140 155 183 224 288 385 540
1010.0 755 1015 1226 1299 1194 983 779 644 613 701
1050.0 956 1469 2254 3016 3246 2758 1927 1317 1066 1040
1090.0 1174 1469 1988 2926 4417 6019 6653 5916 4689 3841
1130.0 3161 2381 1640 1153 895 761 701 687 700 732
1170.0 777 830 892 995 1198 1596 2264 3183 4052 4433
1210.0 4016 3106 2247 1769 1674 1867 2267 2836 3511 4122
1250.0 4568 4798 5058 5589 6529 7647 8670 9495 9932 10000
1290.0 9178 8179 6913 5709 4403 3228 2339 1716 1291 990
1330.0 778 629 526 456 419 398 420 494 738 1169
1370.0 1425 1317 927 652 604 618 650 668 703 793
1410.0 964 1171 1245 1129 882 662 536 489 491 509
1450.0 538 559 590 661 759 861 883 846 778 738
1490.0 752 804 760 628 451 314 244 205 183 179
1530.0 176 175 183 176 193 203 223 228 274 331
1570.0 431 594 881 1255 1524 1547 1332 1234 1420 1704
1610.0 1746 1483 1072 709 458 309 233 188 175 162
1650.0 157 153 175 173 188 200 207 228 235 260
1690.0 294 347 390 466 546 640 755 931 1225 1658
1730.0 2408 3470 5093 6843 8767 9113 8783 6907 4858 3133
1770.0 1988 1259 856 626 496 415 368 340 305 286
1810.0 255 226 196 176 153 140 126 119 104 91
1850.0 87 82 78 74 73 70 75 76 77 79
1890.0 78 84 87 90 85 78 66 55 52 50
1930.0 50 47 46 41 41 40 40 39 41 40
1970.0 43 44 43 45 43 39 34 34 32 29
2010.0 29 25 24 22 23 21 23 24 24 25
2050.0 27 31 34 37 39 43 43 43 41 38
2090.0 38 36 33 33 35 34 35 36 37 37
2130.0 38 39 41 42 41 38 33 31 23 21
2170.0 18 16 18 16 14 14 16 14 15 15
2210.0 15 17 19 20 20 20 20 19 20 21
2250.0 19 22 21 21 21 19 18 16 14 11
2290.0 7 7 5 4 2 1 3 5 8 11
2330.0 9 15 16 1 24 1 12 5 0 1
2370.0 12 13 20 23 24 28 32 33 31 31
2410.0 30 29 24 24 22 22 20 21 18 17
2450.0 17 17 18 19 23 23 27 27 28 29
2490.0 26 24 21 19 17 19 17 19 19 17
2530.0 19 18 21 21 23 23 24 24 25 24
2570.0 27 28 28 26 24 22 20 18 17 14
2610.0 15 12 12 11 9 10 8 6 7 8
2650.0 8 8 10 9 10 11 11 13 13 12
2690.0 14 15 15 14 13 11 12 13 15 18
2730.0 21 20 21 21 23 23 24 26 31 36
2770.0 39 42 41 40 38 35 36 36 37 42
2810.0 47 50 55 60 65 68 67 69 72 79
2850.0 88 98 110 120 137 161 193 240 298 342
2890.0 353 342 340 363 403 449 478 476 455 444
2930.0 477 559 709 887 994 955 825 720 719 788
2970.0 889 1017 1226 1583 1905 1943 1664 1310 1071 889
3010.0 726 582 458 366 292 241 199 170 146 133
3050.0 126 121 118 110 110 114 123 141 162 171
3090.0 159 130 96 75 63 59 53 52 47 44
3130.0 41 39 37 34 34 34 34 34 34 33
3170.0 33 33 33 31 32 30 27 26 23 21
3210.0 17 17 17 13 13 14 15 14 16 13
3250.0 11 12 12 10 10 12 10 10 8 11
3290.0 12 10 8 12 12 9 10 15 11 12
3330.0 11 12 10 15 13 12 12 14 13 13
3370.0 13 13 12 13 16 15 15 13 16 11
3410.0 10 9 12 14 17 14 13 18 17 24
3450.0 23 28 34 43 47 55 59 64 63 59
3490.0 51 40 31 24 18 10 9 3 7 8
3530.0 5 4 5 8 8 6 8 7 6 14
3570.0 13 13 9 9 7 8 14 4 6 5
3610.0 9 9 11 13 8 16 13 8 11 7
3650.0 17 14 7 7 1 14 11 17 7 13
3690.0 11 12 11 15 16 21 16 12 12 15
3730.0 22 23 20 12 29 12 23 13 11 14
3770.0 14 10 12 15 13 14 7 12 5 17
3810.0 1 10 15 12 17 6 14 22 15 5
3850.0 14 16 15 17 7 12 11 3 4 14
3890.0 4 10 7 13 8 11 14 11 9 3
3930.0 12 1 2 1 11 10 7 2 10 12
##END=
