##TITLE=2,5-Dichlorobenzotrifluoride
##JCAMP-DX=4.24
##DATA TYPE=INFRARED SPECTRUM
##ORIGIN=Sadtler Research Labs Under US-EPA Contract
##OWNER=NIST Standard Reference Data Program
##CAS REGISTRY NO=320-50-3
##MOLFORM=C 7 H 3 Cl 2 F 3
##XUNITS=1/CM
##YUNITS=ABSORBANCE
##XFACTOR=1.0
##YFACTOR=0.000094382
##DELTAX=4.0
##FIRSTX=450.0
##LASTX=3966.0
##FIRSTY=0.017838
##MAXX=3966
##MINX=450
##MAXY=0.94382
##MINY=0
##NPOINTS=880
##XYDATA=(X++(Y..Y))
450.0 189 204 163 122 75 56 54 51 49 58
490.0 126 105 101 122 142 153 208 315 369 480
530.0 421 481 609 518 477 267 111 70 103 105
570.0 90 70 79 103 85 79 36 132 201 322
610.0 564 715 649 453 128 31 3 81 54 69
650.0 130 275 685 775 724 264 73 48 41 40
690.0 43 64 76 89 87 80 97 133 253 505
730.0 681 636 416 156 72 75 78 65 66 67
770.0 75 56 43 61 85 66 94 119 101 151
810.0 288 559 929 1477 1338 1192 865 461 216 117
850.0 85 95 94 74 77 51 84 118 210 385
890.0 579 809 606 367 184 65 46 43 43 45
930.0 46 46 51 51 59 74 74 62 65 53
970.0 50 57 57 61 57 50 67 57 50 74
1010.0 69 84 138 244 510 1002 1703 2145 2071 1596
1050.0 860 466 300 236 246 274 299 303 306 306
1090.0 341 428 727 1461 2327 2893 2850 2162 1429 1041
1130.0 1128 1308 1446 1426 1656 2126 2889 4077 5675 7598
1170.0 9224 8899 8278 7186 5771 4369 2863 1834 1231 912
1210.0 701 515 416 389 417 459 548 777 1187 1537
1250.0 1590 1382 1053 978 1023 1140 1154 1003 941 972
1290.0 1338 2113 3632 6600 9762 10000 7708 3628 1446 657
1330.0 336 194 181 205 222 214 181 153 163 158
1370.0 174 195 233 352 627 1171 1910 2505 2517 2102
1410.0 1444 1014 703 409 286 220 199 176 211 272
1450.0 390 526 653 898 1306 1890 2183 2084 1423 801
1490.0 355 155 99 102 111 124 126 101 62 56
1530.0 49 40 50 49 53 69 78 88 109 159
1570.0 188 189 152 126 113 144 169 169 144 122
1610.0 86 69 57 58 56 54 70 83 112 109
1650.0 119 80 88 82 67 53 48 35 49 42
1690.0 52 34 46 39 40 33 36 43 57 56
1730.0 59 50 46 43 42 52 50 50 61 68
1770.0 85 89 102 115 116 112 86 50 50 40
1810.0 30 31 27 29 30 32 35 40 53 53
1850.0 56 42 37 26 35 34 27 21 27 39
1890.0 51 62 77 94 90 79 59 37 40 28
1930.0 29 30 32 36 33 24 24 24 24 35
1970.0 29 23 30 24 26 36 30 35 38 29
2010.0 34 33 30 34 34 28 27 23 24 23
2050.0 23 23 26 22 19 4 11 11 17 22
2090.0 23 16 22 14 19 23 15 15 16 22
2130.0 21 26 27 32 30 21 20 17 22 17
2170.0 20 21 20 15 21 21 21 27 24 22
2210.0 27 28 25 28 24 25 25 21 25 20
2250.0 19 26 33 32 31 45 35 29 40 40
2290.0 36 45 40 37 37 37 27 21 21 33
2330.0 20 27 26 41 31 21 17 20 11 0
2370.0 14 25 29 39 16 28 19 22 16 17
2410.0 27 19 26 24 27 26 26 29 16 23
2450.0 15 22 16 16 16 20 16 29 28 22
2490.0 19 21 21 15 15 22 21 21 14 16
2530.0 31 26 32 25 16 23 15 21 20 21
2570.0 26 36 23 30 20 13 16 13 24 12
2610.0 24 19 19 29 30 19 13 11 17 32
2650.0 20 15 20 26 24 12 7 7 1 4
2690.0 13 19 16 23 17 13 25 15 19 20
2730.0 13 19 24 21 17 14 13 16 25 21
2770.0 13 14 25 25 20 26 15 24 35 27
2810.0 22 47 28 38 31 26 33 33 32 15
2850.0 23 15 17 33 26 41 24 48 34 33
2890.0 29 34 38 31 36 23 31 33 37 28
2930.0 25 19 21 25 24 19 29 25 38 39
2970.0 32 32 35 28 33 24 30 21 20 25
3010.0 35 30 25 37 16 39 21 42 32 29
3050.0 30 32 26 25 2 43 50 53 63 72
3090.0 110 101 96 77 28 39 39 20 39 29
3130.0 19 29 40 43 35 24 23 19 24 30
3170.0 29 19 25 24 30 31 29 24 34 26
3210.0 25 13 14 37 25 30 30 35 30 28
3250.0 27 27 24 39 26 27 22 16 26 30
3290.0 32 29 31 27 32 25 27 42 28 39
3330.0 13 16 12 17 39 31 21 26 14 46
3370.0 40 51 32 22 34 23 29 3 17 27
3410.0 23 33 42 42 35 26 33 22 29 27
3450.0 27 27 23 31 24 27 29 37 28 33
3490.0 17 43 41 42 28 17 12 24 25 21
3530.0 25 22 26 32 38 28 27 35 26 16
3570.0 29 31 31 23 44 28 30 26 30 37
3610.0 35 42 34 26 36 24 35 36 31 41
3650.0 42 41 38 25 30 32 38 28 61 49
3690.0 31 30 36 58 50 47 43 50 45 49
3730.0 29 31 47 41 36 41 43 45 44 65
3770.0 63 64 63 60 56 58 53 53 49 41
3810.0 45 50 42 41 45 47 39 52 62 59
3850.0 52 47 43 38 37 37 37 39 41 30
3890.0 26 28 34 44 43 43 36 37 42 36
3930.0 36 40 35 35 39 40 38 37 37 42
##END=
