##TITLE=Benzene, 1,2-dichloro-3-nitro-
##JCAMP-DX=4.24
##DATA TYPE=INFRARED SPECTRUM
##ORIGIN=Sadtler Research Labs Under US-EPA Contract
##OWNER=NIST Standard Reference Data Program
##CAS REGISTRY NO=3209-22-1
##MOLFORM=C 6 H 3 Cl 2 N O 2
##XUNITS=1/CM
##YUNITS=ABSORBANCE
##XFACTOR=1.0
##YFACTOR=0.000089722
##DELTAX=4.0
##FIRSTX=450.0
##LASTX=3966.0
##FIRSTY=0.079942
##MAXX=3966
##MINX=450
##MAXY=0.89722
##MINY=0
##NPOINTS=880
##XYDATA=(X++(Y..Y))
450.0 891 713 554 440 478 408 400 258 555 591
490.0 669 682 662 367 307 417 326 192 253 210
530.0 118 22 38 4 242 57 106 48 208 171
570.0 88 178 104 165 49 35 69 116 100 53
610.0 166 121 97 118 119 160 107 83 99 70
650.0 65 133 154 269 204 329 266 275 233 291
690.0 383 518 780 1029 1415 1727 2095 2302 2305 2042
730.0 1899 1693 1608 1487 1406 1771 2538 3100 3301 2929
770.0 2136 1429 1212 1389 1554 1822 2045 1685 1152 850
810.0 538 340 377 326 317 325 281 246 248 196
850.0 164 169 192 200 253 431 557 658 679 596
890.0 448 263 164 128 100 106 111 107 150 123
930.0 171 173 185 186 169 153 114 158 149 129
970.0 144 133 120 115 123 140 156 182 198 212
1010.0 240 225 247 262 241 269 269 296 390 594
1050.0 949 1166 1176 1141 778 462 282 221 223 279
1090.0 372 482 601 676 650 535 412 287 218 176
1130.0 183 206 288 450 742 1240 1617 1815 1871 1518
1170.0 1076 757 468 277 214 210 244 316 444 543
1210.0 574 540 427 305 231 227 200 190 220 245
1250.0 324 443 589 713 751 683 522 369 293 265
1290.0 305 333 343 357 355 353 375 421 528 682
1330.0 980 1442 2113 2941 3807 4693 5442 5592 5191 4209
1370.0 2789 1772 1374 1203 1038 896 806 720 687 684
1410.0 780 1022 1374 2006 2330 2531 2576 2366 2055 1763
1450.0 1483 1046 627 451 371 373 407 414 462 458
1490.0 499 538 582 734 815 1127 1345 1648 2109 2447
1530.0 2877 3391 3934 4941 6095 7672 9014 9759 10000 8530
1570.0 7047 5474 4263 3566 3124 2833 2516 2054 1620 1165
1610.0 847 689 635 585 544 531 423 388 312 250
1650.0 264 201 223 123 161 142 113 138 126 167
1690.0 160 159 159 158 105 77 55 70 67 42
1730.0 89 52 93 71 56 74 69 84 73 83
1770.0 79 74 72 69 73 95 92 126 90 120
1810.0 101 68 83 47 59 52 49 55 31 75
1850.0 57 80 119 127 165 144 133 96 75 62
1890.0 55 52 55 43 50 60 68 91 112 144
1930.0 157 156 142 101 80 64 43 43 33 37
1970.0 30 37 35 25 31 21 22 28 19 22
2010.0 23 23 20 22 28 25 24 27 25 22
2050.0 28 23 21 23 24 20 15 28 19 16
2090.0 23 14 19 18 15 16 21 19 14 18
2130.0 18 12 22 18 17 22 23 24 20 22
2170.0 20 18 20 17 15 12 18 13 10 14
2210.0 14 11 14 11 9 12 8 4 12 16
2250.0 14 14 29 22 32 36 34 39 40 39
2290.0 40 43 57 59 67 72 65 65 55 41
2330.0 19 17 25 0 73 4 14 6 31 6
2370.0 45 45 57 57 38 22 18 20 18 20
2410.0 26 34 36 41 41 42 43 46 38 35
2450.0 31 26 24 26 20 20 22 19 18 18
2490.0 21 18 21 25 20 29 33 37 43 48
2530.0 46 44 48 39 33 29 26 24 26 26
2570.0 25 20 25 22 24 26 22 23 26 24
2610.0 17 23 26 19 25 30 25 23 32 29
2650.0 35 32 32 35 44 52 48 57 57 59
2690.0 71 72 67 75 75 74 65 62 64 55
2730.0 55 53 48 51 43 46 49 44 36 38
2770.0 38 37 34 33 25 30 28 28 25 31
2810.0 25 23 29 36 33 34 42 38 40 49
2850.0 56 57 66 75 80 88 95 98 113 129
2890.0 137 149 165 167 171 172 157 134 116 109
2930.0 98 87 76 67 59 53 37 32 45 42
2970.0 37 39 36 40 37 40 36 38 43 36
3010.0 30 35 28 30 27 28 28 25 30 25
3050.0 29 39 31 61 82 111 161 195 215 211
3090.0 185 145 96 75 50 38 35 41 27 33
3130.0 39 39 36 50 43 41 48 35 26 36
3170.0 31 25 29 26 29 30 36 26 31 23
3210.0 25 25 36 38 23 32 35 23 32 34
3250.0 25 26 34 30 25 35 35 28 33 25
3290.0 17 23 32 27 20 28 25 27 30 24
3330.0 25 36 36 27 39 31 26 31 39 32
3370.0 31 36 33 34 43 32 31 45 45 52
3410.0 62 60 51 68 61 54 68 53 49 43
3450.0 41 28 37 36 34 32 46 40 34 47
3490.0 34 35 38 57 47 44 52 35 48 55
3530.0 48 39 44 42 32 49 44 43 46 65
3570.0 51 31 49 30 60 49 64 12 49 18
3610.0 56 62 42 56 29 97 55 43 36 67
3650.0 33 121 4 57 19 63 57 88 61 18
3690.0 73 36 46 37 49 56 81 51 65 46
3730.0 66 92 60 101 70 123 50 74 22 57
3770.0 51 52 52 51 69 43 57 77 30 125
3810.0 30 98 63 117 29 65 83 105 81 63
3850.0 48 98 105 45 77 85 56 59 40 98
3890.0 60 46 50 71 73 46 43 34 67 98
3930.0 57 74 62 56 120 59 44 52 149 103
##END=
