##TITLE=Benzoic acid, 5-chloro-2-hydroxy-
##JCAMP-DX=4.24
##DATA TYPE=INFRARED SPECTRUM
##ORIGIN=Sadtler Research Labs Under US-EPA Contract
##OWNER=NIST Standard Reference Data Program
##CAS REGISTRY NO=321-14-2
##MOLFORM=C 7 H 5 Cl O 3
##XUNITS=1/CM
##YUNITS=ABSORBANCE
##XFACTOR=1.0
##YFACTOR=0.000068463
##DELTAX=4.0
##FIRSTX=450.0
##LASTX=3966.0
##FIRSTY=0.008421
##MAXX=3966
##MINX=450
##MAXY=0.68463
##MINY=0
##NPOINTS=880
##XYDATA=(X++(Y..Y))
450.0 123 395 587 464 364 507 421 569 470 353
490.0 619 474 602 382 315 520 519 637 604 742
530.0 989 854 1141 1149 1538 1129 912 1050 1512 1680
570.0 2101 2632 2419 1821 1220 966 711 612 533 378
610.0 421 383 355 437 404 412 460 766 1174 1276
650.0 1268 1170 899 896 1049 2094 2638 3022 3037 2290
690.0 1601 1220 1184 1175 1198 922 635 556 373 299
730.0 228 43 282 334 391 651 773 926 1121 1111
770.0 1010 862 636 474 513 672 830 568 394 349
810.0 330 362 643 901 1230 1872 1535 1186 861 591
850.0 406 327 298 209 197 262 321 330 335 275
890.0 230 263 235 195 175 229 244 324 333 303
930.0 267 225 185 197 273 296 293 251 214 140
970.0 138 114 93 93 112 95 117 109 95 80
1010.0 67 55 11 24 50 43 67 135 198 265
1050.0 370 598 859 1227 1531 1562 1618 1338 980 847
1090.0 899 1163 1417 1600 1738 1773 1860 1875 1924 2118
1130.0 2352 2599 2751 2818 2917 2962 3239 4461 6695 8156
1170.0 8373 8021 5973 3408 2085 1519 1266 1227 1244 1348
1210.0 1510 1624 1708 1686 1612 1513 1444 1374 1322 1390
1250.0 1571 1639 1653 1608 1588 1751 2139 2363 2263 1942
1290.0 1562 1332 1274 1166 1071 1010 941 917 888 865
1330.0 874 908 1007 1141 1300 1462 1573 1618 1592 1519
1370.0 1434 1347 1290 1226 1288 1638 2365 3196 3695 3675
1410.0 3060 2124 1470 1083 946 1015 1082 1209 1239 1263
1450.0 1242 1304 1465 1857 2333 3111 3609 3807 3808 3352
1490.0 2650 1972 1278 740 557 434 306 352 308 313
1530.0 333 293 347 338 313 282 302 362 382 436
1570.0 574 708 846 943 902 848 760 756 868 989
1610.0 1072 1082 940 780 564 440 364 383 356 346
1650.0 385 360 397 347 378 411 452 521 617 664
1690.0 788 960 1558 2626 4629 7386 8937 10000 8593 6301
1730.0 4281 2782 1822 1164 900 775 831 989 1133 1250
1770.0 1159 993 808 630 506 436 375 311 250 198
1810.0 154 137 115 114 113 107 72 73 66 94
1850.0 75 70 66 43 47 48 58 69 81 100
1890.0 103 110 110 136 127 118 95 88 71 55
1930.0 62 66 65 59 41 39 16 20 12 14
1970.0 11 19 17 18 10 5 5 11 19 39
2010.0 32 25 33 29 38 30 23 34 47 38
2050.0 37 35 32 29 28 13 22 18 15 9
2090.0 27 30 15 17 6 0 17 1 16 16
2130.0 27 29 29 22 24 20 26 31 30 38
2170.0 34 21 26 32 23 26 33 18 17 12
2210.0 8 5 8 10 12 19 18 9 13 18
2250.0 20 17 14 22 13 20 24 21 24 28
2290.0 36 39 55 61 65 78 73 85 62 65
2330.0 90 73 80 35 129 46 126 45 153 130
2370.0 78 63 74 72 45 25 24 27 23 20
2410.0 21 28 24 28 30 31 33 31 34 31
2450.0 42 43 43 46 52 49 48 45 46 36
2490.0 40 43 26 25 33 29 26 38 30 37
2530.0 35 40 36 38 33 40 49 51 68 70
2570.0 69 75 72 66 60 66 60 70 66 70
2610.0 70 69 56 65 62 60 57 68 65 68
2650.0 64 68 54 55 55 62 47 72 62 50
2690.0 56 62 68 62 74 72 72 59 68 65
2730.0 72 88 91 98 102 96 82 82 83 87
2770.0 77 82 83 87 94 94 88 80 95 82
2810.0 89 93 87 99 97 95 99 91 93 91
2850.0 88 81 72 77 79 91 92 92 86 99
2890.0 79 86 99 95 81 88 80 70 57 45
2930.0 60 82 98 114 108 115 99 117 115 118
2970.0 127 150 167 157 150 138 137 145 144 142
3010.0 148 145 136 135 128 138 145 144 159 156
3050.0 146 152 156 166 169 193 213 228 271 263
3090.0 260 245 206 188 176 176 175 163 169 167
3130.0 155 160 158 157 163 160 164 171 180 182
3170.0 194 207 207 217 238 246 260 289 312 341
3210.0 370 393 439 479 542 607 668 745 839 948
3250.0 1057 1176 1270 1372 1418 1428 1428 1379 1346 1276
3290.0 1219 1154 1086 1015 955 914 866 811 779 728
3330.0 692 666 653 615 602 589 560 541 507 497
3370.0 469 455 440 426 410 414 409 359 335 310
3410.0 302 299 316 318 324 321 320 300 273 268
3450.0 238 227 227 210 194 176 184 159 152 157
3490.0 136 147 144 150 151 149 172 179 204 245
3530.0 263 294 288 254 218 164 189 183 293 464
3570.0 982 2208 3600 3928 3816 2695 1117 348 142 61
3610.0 38 17 29 49 21 76 21 70 49 40
3650.0 35 61 30 60 50 4 72 1 64 38
3690.0 49 66 46 60 71 55 76 64 101 55
3730.0 63 83 38 120 58 199 141 214 129 123
3770.0 111 51 65 55 56 95 61 71 63 55
3810.0 74 63 87 77 92 34 84 91 75 102
3850.0 36 119 31 111 78 55 110 54 85 43
3890.0 98 42 97 78 70 74 39 65 63 68
3930.0 61 32 38 34 17 87 92 92 83 70
##END=
