##TITLE=3,4-Dichlorophenylacetonitrile
##JCAMP-DX=4.24
##DATA TYPE=INFRARED SPECTRUM
##ORIGIN=Sadtler Research Labs Under US-EPA Contract
##OWNER=NIST Standard Reference Data Program
##CAS REGISTRY NO=3218-49-3
##MOLFORM=C 8 H 5 Cl 2 N
##XUNITS=1/CM
##YUNITS=ABSORBANCE
##XFACTOR=1.0
##YFACTOR=0.000105698
##DELTAX=4.0
##FIRSTX=450.0
##LASTX=3966.0
##FIRSTY=0.059402
##MAXX=3966
##MINX=450
##MAXY=1.05698
##MINY=0
##NPOINTS=880
##XYDATA=(X++(Y..Y))
450.0 562 496 422 443 279 138 60 96 48 88
490.0 100 149 158 220 287 266 275 246 238 209
530.0 216 197 220 253 273 282 308 365 388 414
570.0 379 375 328 279 230 194 166 103 95 50
610.0 45 8 22 12 19 18 26 44 15 88
650.0 72 174 288 723 1013 1391 1395 1220 1062 974
690.0 919 910 837 792 717 666 599 538 486 422
730.0 368 307 273 235 188 154 126 101 101 99
770.0 105 136 168 226 345 584 1022 1693 2564 3467
810.0 4116 3615 2648 1883 1182 773 596 565 654 808
850.0 1062 1342 1570 1730 1771 1595 1353 1142 978 859
890.0 743 647 547 462 416 417 438 471 533 607
930.0 687 698 643 542 460 370 289 211 161 126
970.0 98 77 67 64 50 53 60 81 109 180
1010.0 268 385 557 858 1443 2541 4014 4520 4366 3248
1050.0 1586 731 370 192 127 93 86 79 83 90
1090.0 99 122 150 196 254 351 497 795 1436 2824
1130.0 4764 5804 5551 3997 2563 2138 1935 1487 915 582
1170.0 460 422 463 548 683 848 997 1027 960 816
1210.0 629 485 395 357 346 352 351 359 378 465
1250.0 605 746 842 825 742 655 549 433 340 277
1290.0 275 329 432 588 695 652 508 314 166 127
1330.0 111 108 91 104 120 140 179 214 266 328
1370.0 447 615 869 1171 1547 2081 2667 3044 2998 2773
1410.0 2168 1633 1473 1811 2200 2260 2069 1437 1054 983
1450.0 1040 1271 1972 3476 5985 9511 10000 9187 5318 2693
1490.0 1495 1079 841 642 464 310 245 198 165 164
1530.0 156 168 197 234 330 461 622 759 922 962
1570.0 907 765 629 550 628 755 858 840 724 550
1610.0 376 281 212 178 133 122 91 67 55 55
1650.0 33 40 55 47 59 60 47 54 38 35
1690.0 36 48 42 59 77 114 137 169 212 249
1730.0 267 258 267 257 249 244 259 239 220 187
1770.0 156 126 127 127 135 138 142 146 136 136
1810.0 115 99 84 69 53 39 34 34 23 20
1850.0 24 29 30 37 44 54 88 117 149 175
1890.0 198 209 204 184 154 122 90 65 42 30
1930.0 21 16 13 4 4 3 2 1 1 2
1970.0 0 2 1 3 3 3 2 2 3 2
2010.0 5 2 4 5 6 8 6 4 4 5
2050.0 5 3 4 5 2 6 7 12 11 11
2090.0 12 12 15 16 20 23 23 24 27 26
2130.0 29 34 35 37 33 30 26 22 17 14
2170.0 14 14 12 10 12 7 8 7 7 7
2210.0 5 6 2 11 11 14 23 35 50 68
2250.0 88 108 132 139 135 115 84 67 61 64
2290.0 72 76 81 82 79 81 74 72 80 80
2330.0 81 87 84 89 114 95 115 96 112 92
2370.0 88 86 85 86 77 66 58 52 44 37
2410.0 29 26 22 24 24 24 22 22 24 22
2450.0 24 23 23 25 26 23 23 24 24 22
2490.0 22 24 27 25 22 24 24 32 36 39
2530.0 44 43 50 51 56 60 60 59 60 58
2570.0 54 51 45 44 47 48 49 51 51 51
2610.0 48 46 47 43 43 37 33 28 21 21
2650.0 14 17 12 15 13 14 15 15 14 20
2690.0 20 21 22 22 25 24 30 38 45 52
2730.0 61 68 62 53 38 30 22 17 17 16
2770.0 17 20 25 27 28 27 30 28 30 34
2810.0 40 48 55 63 76 84 92 98 92 83
2850.0 71 56 49 45 42 36 33 28 29 24
2890.0 25 27 32 42 53 71 101 143 197 268
2930.0 334 383 387 347 272 200 166 147 143 136
2970.0 129 122 110 95 79 65 52 47 43 48
3010.0 49 59 67 87 113 149 195 236 252 256
3050.0 259 287 353 410 436 411 326 256 193 160
3090.0 151 142 127 101 71 46 31 27 22 22
3130.0 22 22 22 21 22 23 31 30 31 36
3170.0 37 37 35 43 47 50 52 57 60 55
3210.0 56 53 46 38 32 25 21 20 17 12
3250.0 9 10 13 13 8 13 9 6 9 11
3290.0 11 11 9 8 11 11 11 13 12 7
3330.0 10 7 7 12 9 10 3 10 11 6
3370.0 6 15 11 6 8 8 8 9 9 8
3410.0 9 11 14 13 17 9 11 13 17 14
3450.0 13 13 4 8 10 17 11 8 12 5
3490.0 9 7 7 12 5 10 7 11 13 21
3530.0 17 20 21 19 20 26 26 28 27 29
3570.0 31 29 27 29 18 17 12 15 10 15
3610.0 14 19 14 12 14 23 20 20 14 15
3650.0 30 14 22 11 21 22 20 33 18 23
3690.0 18 23 16 29 18 18 26 31 25 25
3730.0 32 35 29 42 27 36 32 30 43 40
3770.0 36 30 25 29 20 20 9 15 21 17
3810.0 23 10 1 21 5 3 15 22 24 22
3850.0 13 26 17 23 19 21 12 13 16 19
3890.0 15 16 21 14 18 25 8 15 20 14
3930.0 25 17 14 7 17 6 16 5 4 11
##END=
