##TITLE=Benzophenone, 5,5'-dimethyl-2-hydroxy-2'-methoxy-,
##JCAMP-DX=4.24
##DATA TYPE=INFRARED SPECTRUM
##ORIGIN=Sadtler Research Labs Under US-EPA Contract
##OWNER=NIST Standard Reference Data Program
##CAS REGISTRY NO=32229-35-9
##MOLFORM=C 16 H 16 O 3
##XUNITS=1/CM
##YUNITS=ABSORBANCE
##XFACTOR=1.0
##YFACTOR=0.000029614
##DELTAX=4.0
##FIRSTX=450.0
##LASTX=3966.0
##FIRSTY=0.007374
##MAXX=3966
##MINX=450
##MAXY=0.29614
##MINY=0
##NPOINTS=880
##XYDATA=(X++(Y..Y))
450.0 249 47 203 362 315 518 320 390 280 279
490.0 219 312 284 353 346 349 354 321 432 531
530.0 738 889 899 824 754 762 669 565 404 421
570.0 323 347 303 260 279 312 328 314 300 252
610.0 232 140 170 168 213 109 177 198 211 260
650.0 410 944 2103 2828 2691 1187 553 453 506 640
690.0 774 742 638 580 543 613 681 797 1026 1315
730.0 1571 1622 1539 1432 1337 1305 1173 1048 921 763
770.0 713 735 922 1248 1454 1345 1147 1261 1575 1862
810.0 1988 2255 3335 5282 5949 4194 1919 900 531 389
850.0 286 239 261 225 217 188 206 280 366 434
890.0 406 304 212 174 136 134 112 125 153 156
930.0 179 194 229 229 309 410 577 858 1340 2027
970.0 2411 2129 1469 1002 816 747 731 738 787 833
1010.0 927 1127 1394 1675 1917 2079 2113 1940 1616 1258
1050.0 941 766 639 563 508 494 496 501 542 608
1090.0 766 1035 1429 1662 1559 1213 940 773 721 809
1130.0 1144 1574 1824 1842 1770 1738 1655 1601 1704 2013
1170.0 2631 3660 5185 6962 7933 6851 4751 3554 3858 4561
1210.0 4561 3847 3222 3218 3684 4331 4888 5702 7056 8492
1250.0 9094 8679 7626 6334 5466 5329 5766 5937 5506 4862
1290.0 4691 5239 5948 5770 4420 3208 2925 3478 4352 5287
1330.0 5840 5786 5188 4141 3282 2727 2347 2066 1885 1692
1370.0 1575 1550 1522 1548 1663 1839 2081 2403 2600 2764
1410.0 2788 2627 2518 2154 1921 1702 1745 1804 1888 1956
1450.0 1996 2044 2277 2538 3015 3787 5235 7278 8908 10000
1490.0 9849 9672 9134 7780 5701 3595 2419 1866 1640 1308
1530.0 1159 1040 984 1021 964 962 1005 1203 1272 1362
1570.0 1562 1887 2560 3465 4288 4647 4279 3727 3434 3473
1610.0 3661 3963 4279 4445 4636 5329 6753 8656 9838 9355
1650.0 7851 5894 3969 2867 1968 1608 1267 1119 1006 889
1690.0 713 587 611 509 505 398 446 468 368 292
1730.0 322 392 311 322 329 341 275 315 359 395
1770.0 467 473 393 333 285 244 230 160 182 121
1810.0 129 133 121 150 147 174 134 133 144 175
1850.0 111 66 80 86 117 145 106 86 89 77
1890.0 96 96 104 134 161 173 131 104 81 67
1930.0 52 57 56 75 70 45 48 43 44 71
1970.0 67 64 77 81 74 92 94 92 72 76
2010.0 75 91 103 92 87 84 83 96 99 84
2050.0 85 87 90 91 97 98 93 115 102 91
2090.0 71 54 42 34 32 27 30 25 23 14
2130.0 14 21 22 9 5 9 3 3 9 8
2170.0 5 3 3 7 3 3 3 0 12 13
2210.0 18 18 22 19 25 26 24 31 19 12
2250.0 14 21 24 37 39 48 51 47 51 51
2290.0 54 50 58 56 66 55 50 60 67 95
2330.0 68 51 46 77 43 77 67 61 50 45
2370.0 29 54 80 77 72 65 59 57 51 56
2410.0 64 67 61 61 62 65 64 69 66 47
2450.0 58 55 58 53 61 60 62 71 71 85
2490.0 89 89 110 110 118 129 122 129 119 116
2530.0 137 145 150 155 152 148 131 131 127 120
2570.0 124 137 130 145 141 131 142 145 134 131
2610.0 132 140 148 135 141 146 137 133 134 143
2650.0 140 147 136 146 148 169 174 183 194 194
2690.0 181 186 187 181 179 187 198 206 217 224
2730.0 238 247 274 302 329 347 317 290 267 260
2770.0 261 270 280 294 295 300 303 319 335 357
2810.0 380 402 439 498 547 633 790 1016 1250 1364
2850.0 1292 1167 1129 1159 1271 1424 1581 1664 1646 1577
2890.0 1487 1446 1467 1527 1632 1769 1917 2075 2331 2657
2930.0 3086 3421 3463 3224 2936 2700 2463 2265 2048 1817
2970.0 1612 1482 1399 1359 1341 1343 1413 1545 1686 1907
3010.0 2089 2120 2020 1988 2132 2333 2429 2309 2107 1909
3050.0 1724 1539 1424 1409 1514 1614 1586 1397 1195 1068
3090.0 979 936 894 889 903 907 902 895 880 833
3130.0 820 802 789 774 773 774 767 769 759 770
3170.0 766 769 765 782 778 777 772 775 774 776
3210.0 756 754 751 742 732 703 699 699 703 690
3250.0 686 681 678 654 660 656 633 618 608 604
3290.0 596 587 595 570 560 535 540 513 506 500
3330.0 470 469 453 455 426 426 417 413 419 386
3370.0 380 374 331 327 321 347 317 289 283 286
3410.0 274 283 269 252 238 230 244 244 217 222
3450.0 221 198 187 189 187 192 149 159 145 128
3490.0 123 118 128 142 138 118 118 101 103 104
3530.0 101 96 85 103 113 109 76 112 102 90
3570.0 80 76 65 74 74 74 45 28 40 45
3610.0 31 36 28 32 10 31 60 46 43 26
3650.0 54 35 28 19 10 33 43 13 44 13
3690.0 21 47 52 41 26 53 72 55 45 42
3730.0 49 58 44 75 57 41 40 37 31 42
3770.0 40 29 35 30 18 34 33 39 27 5
3810.0 43 50 28 40 45 57 46 15 43 24
3850.0 20 26 28 9 14 61 7 39 41 26
3890.0 59 45 18 30 50 0 57 7 49 40
3930.0 45 44 42 65 71 51 35 57 16 18
##END=
