##TITLE=Benzophenone, 2,2'-dimethoxy-5,5'-dimethyl-,
##JCAMP-DX=4.24
##DATA TYPE=INFRARED SPECTRUM
##ORIGIN=Sadtler Research Labs Under US-EPA Contract
##OWNER=NIST Standard Reference Data Program
##CAS REGISTRY NO=32229-36-0
##MOLFORM=C 17 H 18 O 3
##XUNITS=1/CM
##YUNITS=ABSORBANCE
##XFACTOR=1.0
##YFACTOR=0.000029047
##DELTAX=4.0
##FIRSTX=450.0
##LASTX=3966.0
##FIRSTY=0.001917
##MAXX=3966
##MINX=450
##MAXY=0.29047
##MINY=0
##NPOINTS=880
##XYDATA=(X++(Y..Y))
450.0 66 204 109 123 154 102 38 54 48 199
490.0 141 7 106 80 83 133 171 152 111 290
530.0 320 439 399 421 349 403 426 362 355 414
570.0 401 184 149 67 90 26 51 27 27 62
610.0 4 58 46 66 44 17 91 315 648 921
650.0 1062 978 759 273 96 34 44 17 93 121
690.0 156 178 139 138 156 234 462 843 1047 903
730.0 631 441 322 247 223 230 202 240 220 205
770.0 187 199 218 255 356 478 667 959 1483 2013
810.0 2346 2672 3025 2840 1993 1126 650 387 266 184
850.0 106 91 61 87 111 91 112 138 226 314
890.0 356 310 273 191 134 94 66 72 72 80
930.0 101 131 157 200 198 242 297 445 670 985
970.0 1217 1238 1098 883 737 704 718 812 943 1146
1010.0 1398 1736 2108 2494 2871 3117 3116 2819 2344 1772
1050.0 1281 933 722 578 473 440 419 413 433 495
1090.0 565 728 937 1054 1001 808 655 596 642 811
1130.0 1031 1322 1638 1853 1950 1824 1539 1316 1359 1741
1170.0 2496 3379 3921 3682 2839 1902 1294 1022 929 917
1210.0 988 1115 1380 1841 2518 3368 4136 4669 5188 5957
1250.0 6890 7504 7425 6613 5633 4901 4587 4515 4563 4653
1290.0 4941 5399 5684 5163 3793 2388 1481 1008 756 607
1330.0 519 470 467 439 396 383 370 382 422 419
1370.0 447 509 583 642 797 958 1225 1560 1867 2131
1410.0 2342 2365 2390 2138 1892 1650 1611 1609 1604 1496
1450.0 1396 1428 1706 1977 2247 2352 2430 2555 3093 4484
1490.0 6683 9226 10000 8560 5883 3504 2222 1494 1138 795
1530.0 647 513 483 477 471 427 477 559 587 681
1570.0 912 1166 1501 1669 1582 1408 1255 1304 1506 1805
1610.0 1953 1795 1476 1078 847 692 682 697 734 852
1650.0 1034 1206 1518 1943 2745 3533 4167 4044 3990 3709
1690.0 3232 2644 2191 1755 1296 972 719 622 428 364
1730.0 343 380 335 310 277 212 158 127 156 129
1770.0 174 161 135 148 135 131 128 110 111 81
1810.0 82 99 96 123 133 144 123 94 102 113
1850.0 89 71 86 100 117 144 118 101 95 82
1890.0 80 57 58 45 38 42 42 41 50 32
1930.0 24 37 43 64 54 46 55 73 63 81
1970.0 85 95 103 103 106 121 123 108 109 101
2010.0 108 111 109 109 113 116 116 121 128 113
2050.0 107 115 111 107 124 115 113 94 84 65
2090.0 69 42 34 42 36 30 22 23 23 24
2130.0 22 19 23 22 26 28 23 14 13 9
2170.0 5 14 15 14 9 10 20 10 11 16
2210.0 6 21 10 18 15 18 15 21 21 16
2250.0 16 13 12 10 22 31 39 35 42 43
2290.0 49 60 54 59 64 57 62 36 44 38
2330.0 8 4 18 0 57 71 18 21 4 21
2370.0 37 73 68 84 72 49 37 34 28 31
2410.0 26 21 18 25 23 19 26 12 14 17
2450.0 18 24 26 40 35 41 51 46 47 48
2490.0 56 66 72 64 75 66 63 66 69 72
2530.0 68 64 69 61 55 49 52 55 40 39
2570.0 34 27 39 37 44 36 43 38 39 52
2610.0 43 31 34 38 43 41 53 42 51 39
2650.0 43 41 42 37 40 37 41 52 49 47
2690.0 44 39 43 57 60 57 54 67 68 73
2730.0 90 99 127 147 167 165 134 114 111 106
2770.0 111 104 108 111 122 137 148 167 191 209
2810.0 247 294 344 423 547 739 1046 1388 1615 1593
2850.0 1377 1160 1058 1051 1125 1222 1329 1388 1380 1341
2890.0 1334 1361 1444 1545 1685 1823 1935 2044 2194 2479
2930.0 2882 3272 3478 3453 3264 2947 2581 2236 1921 1621
2970.0 1369 1206 1125 1130 1178 1286 1455 1678 1905 1973
3010.0 1833 1588 1423 1422 1553 1701 1769 1663 1421 1178
3050.0 952 780 679 672 676 694 693 659 577 486
3090.0 409 356 307 300 280 279 248 215 186 149
3130.0 128 104 95 95 69 77 72 61 64 58
3170.0 48 65 62 48 64 45 47 40 40 43
3210.0 42 34 30 36 27 28 27 21 10 27
3250.0 4 26 34 14 25 28 27 35 20 22
3290.0 26 18 39 38 31 22 35 43 47 46
3330.0 43 57 60 53 59 53 27 48 35 58
3370.0 38 24 40 31 46 52 35 23 24 36
3410.0 53 17 30 39 45 41 22 31 37 22
3450.0 44 20 34 48 28 37 47 34 19 13
3490.0 20 14 52 43 45 33 30 34 28 20
3530.0 25 28 29 33 38 38 28 22 50 37
3570.0 52 49 31 29 41 56 49 36 26 27
3610.0 44 55 41 37 20 81 43 48 53 57
3650.0 39 38 50 19 56 53 57 28 61 18
3690.0 15 49 59 58 69 60 34 75 80 90
3730.0 50 59 42 54 47 75 27 51 57 54
3770.0 54 42 77 61 78 54 42 18 27 19
3810.0 49 44 40 32 27 82 54 41 80 34
3850.0 54 53 45 83 51 75 4 65 30 34
3890.0 59 84 54 56 57 48 58 114 79 62
3930.0 71 60 74 35 48 67 82 82 81 92
##END=
