##TITLE=2,4-Dimethoxy-3-hydroxybenzaldehyde
##JCAMP-DX=4.24
##DATA TYPE=INFRARED SPECTRUM
##ORIGIN=Sadtler Research Labs Under US-EPA Contract
##OWNER=NIST Standard Reference Data Program
##CAS REGISTRY NO=32246-34-7
##MOLFORM=C 9 H 10 O 4
##XUNITS=1/CM
##YUNITS=ABSORBANCE
##XFACTOR=1.0
##YFACTOR=0.000062128
##DELTAX=4.0
##FIRSTX=450.0
##LASTX=3966.0
##FIRSTY=0.049143
##MAXX=3966
##MINX=450
##MAXY=0.62128
##MINY=0
##NPOINTS=880
##XYDATA=(X++(Y..Y))
450.0 791 674 567 645 572 526 471 396 346 323
490.0 331 363 435 468 588 692 814 818 756 535
530.0 348 226 162 145 174 208 224 238 186 126
570.0 97 84 71 31 7 20 18 5 9 43
610.0 57 92 106 103 96 142 148 168 155 169
650.0 179 169 178 157 195 232 205 221 284 306
690.0 401 430 424 414 338 255 204 148 142 115
730.0 106 113 115 115 131 200 253 352 500 730
770.0 1050 1480 1888 2078 2057 1806 1564 1317 1046 809
810.0 579 405 289 237 170 130 111 104 89 91
850.0 82 90 92 98 114 151 185 216 302 413
890.0 585 794 948 971 849 616 378 236 164 118
930.0 121 113 111 122 120 124 152 184 227 294
970.0 338 375 394 388 377 382 408 473 590 743
1010.0 925 1093 1210 1215 1106 958 816 668 633 681
1050.0 805 1014 1268 1557 1884 2264 2766 3431 4232 5114
1090.0 5942 6549 6667 6249 5287 4058 2897 2019 1404 1009
1130.0 774 634 572 558 636 856 1268 1757 2026 2036
1170.0 1772 1444 1323 1394 1583 1802 1978 2082 2166 2321
1210.0 2633 3118 3739 4445 5101 5567 5801 5947 5953 5780
1250.0 5499 5008 4582 4505 4829 5436 6303 7499 8946 10000
1290.0 9770 8404 6162 4121 2821 2107 1716 1598 1714 2066
1330.0 2629 3243 3626 3601 3148 2420 1709 1212 895 706
1370.0 607 569 611 767 1051 1244 1338 1290 1053 858
1410.0 690 605 631 773 999 1231 1414 1553 1685 1746
1450.0 1799 1922 2108 2392 2728 2993 3216 3340 3414 3624
1490.0 3739 3642 3244 2654 1930 1333 967 700 516 413
1530.0 366 338 333 349 369 407 475 546 665 805
1570.0 1009 1211 1445 1662 1881 2241 2762 3537 4341 5113
1610.0 5387 5054 4207 3145 2257 1577 1190 915 749 623
1650.0 564 498 472 468 488 500 518 576 673 947
1690.0 1578 3220 6049 7911 8436 7924 5160 3603 2737 1899
1730.0 1128 669 463 423 385 380 357 320 285 245
1770.0 221 200 186 169 150 128 113 98 78 70
1810.0 51 49 31 31 30 26 23 24 28 36
1850.0 44 55 69 73 77 73 66 50 49 46
1890.0 42 43 45 52 52 61 66 78 81 83
1930.0 85 75 66 56 43 34 29 20 21 22
1970.0 26 35 43 55 56 57 54 51 44 43
2010.0 38 33 43 38 44 45 51 48 48 47
2050.0 47 40 38 36 33 35 37 32 32 31
2090.0 30 35 40 43 50 48 50 52 57 57
2130.0 61 59 59 52 47 41 39 36 39 42
2170.0 45 44 47 51 54 51 50 41 33 23
2210.0 19 18 9 7 8 7 3 7 9 13
2250.0 9 14 19 25 19 21 21 24 25 24
2290.0 31 40 42 51 55 60 54 41 47 40
2330.0 27 19 13 34 53 56 31 49 34 6
2370.0 24 48 71 82 64 48 44 33 25 19
2410.0 11 12 12 11 8 5 14 17 17 25
2450.0 25 36 38 41 43 44 52 48 51 55
2490.0 54 60 65 73 79 82 81 84 73 70
2530.0 58 55 44 46 41 46 46 50 52 58
2570.0 59 57 58 60 54 52 47 55 55 53
2610.0 54 55 59 56 61 65 59 53 52 55
2650.0 59 60 68 78 84 94 101 110 116 126
2690.0 138 158 199 259 328 401 479 534 533 507
2730.0 443 367 317 300 329 379 449 484 473 400
2770.0 313 235 191 174 171 168 179 197 224 263
2810.0 309 361 426 501 597 738 950 1250 1699 2190
2850.0 2541 2601 2298 1807 1285 931 755 671 615 579
2890.0 566 576 607 639 679 728 780 827 857 870
2930.0 898 983 1166 1431 1731 1987 2049 1939 1726 1468
2970.0 1306 1237 1162 1058 978 905 860 861 917 1034
3010.0 1177 1241 1157 960 719 537 439 386 356 334
3050.0 316 299 284 282 277 267 263 259 267 288
3090.0 288 291 266 233 195 154 121 107 88 79
3130.0 68 53 54 50 48 46 39 42 36 39
3170.0 32 38 27 28 30 26 25 17 12 10
3210.0 7 8 4 10 8 13 18 3 16 19
3250.0 13 5 12 9 17 20 18 17 20 17
3290.0 21 19 24 20 25 16 15 19 16 10
3330.0 13 15 8 18 13 15 22 19 29 35
3370.0 31 39 59 85 107 115 110 91 51 30
3410.0 35 26 29 22 28 29 30 15 6 10
3450.0 7 14 30 20 18 27 28 23 29 34
3490.0 23 34 45 37 56 53 71 90 146 184
3530.0 223 269 321 371 417 461 545 702 1028 1558
3570.0 2151 2711 3019 2944 2456 1750 1065 578 329 208
3610.0 148 105 86 64 39 49 27 13 13 16
3650.0 35 33 28 18 22 23 15 2 3 2
3690.0 25 11 3 2 1 7 5 1 5 16
3730.0 1 10 8 2 8 13 4 5 1 1
3770.0 1 3 5 1 1 1 1 4 18 15
3810.0 5 1 1 1 1 1 16 7 3 17
3850.0 10 7 1 1 14 23 16 20 12 18
3890.0 25 0 1 3 8 1 1 1 1 1
3930.0 1 1 3 10 1 12 10 12 10 8
##END=
