##TITLE=Pentaerythrityl tetrachloride
##JCAMP-DX=4.24
##DATA TYPE=INFRARED SPECTRUM
##ORIGIN=Sadtler Research Labs Under US-EPA Contract
##OWNER=NIST Standard Reference Data Program
##CAS REGISTRY NO=3228-99-7
##MOLFORM=C 5 H 8 Cl 4
##XUNITS=1/CM
##YUNITS=ABSORBANCE
##XFACTOR=1.0
##YFACTOR=0.000044769
##DELTAX=4.0
##FIRSTX=450.0
##LASTX=3966.0
##FIRSTY=0.007476
##MAXX=3966
##MINX=450
##MAXY=0.44769
##MINY=0
##NPOINTS=880
##XYDATA=(X++(Y..Y))
450.0 167 109 158 172 140 124 79 161 123 198
490.0 152 175 220 370 562 660 614 725 845 1138
530.0 1236 981 667 285 103 55 110 80 91 119
570.0 86 70 105 67 70 99 42 116 79 64
610.0 27 40 9 14 47 4 57 51 109 82
650.0 77 78 100 103 102 137 173 161 241 333
690.0 547 953 1884 3287 5078 6041 6014 4803 3187 1844
730.0 1193 1121 1665 2870 4400 5928 6780 6726 6148 5812
770.0 5604 5153 3821 2228 1058 683 688 728 858 866
810.0 815 714 627 510 503 526 713 1160 1996 3364
850.0 5154 6998 8257 8876 8226 6624 4774 2996 1715 999
890.0 671 493 421 382 374 393 370 327 292 244
930.0 215 184 154 127 96 72 61 64 77 87
970.0 91 93 101 97 103 104 111 100 119 123
1010.0 133 136 149 152 180 214 243 273 298 322
1050.0 359 373 365 316 271 222 216 189 178 163
1090.0 153 123 110 110 90 80 74 65 56 58
1130.0 57 56 54 61 62 62 55 72 86 80
1170.0 101 104 121 131 145 152 148 161 152 166
1210.0 178 216 269 363 540 891 1214 1321 1289 1158
1250.0 1329 1650 1849 1681 1310 1043 854 768 717 810
1290.0 1024 1563 2394 3652 5083 5675 5732 4716 3394 2135
1330.0 1113 599 452 306 215 173 148 160 155 172
1370.0 142 170 150 176 175 188 198 190 178 151
1410.0 242 251 568 1030 2001 2920 4521 6661 7834 10000
1450.0 6953 4485 2485 752 410 222 236 154 114 170
1490.0 133 150 139 162 150 184 149 159 180 150
1530.0 173 144 173 169 152 108 119 145 107 74
1570.0 69 61 39 48 15 34 20 42 24 41
1610.0 52 46 73 40 72 31 60 49 38 26
1650.0 59 60 17 4 1 13 24 11 46 54
1690.0 30 36 95 89 88 55 83 104 74 50
1730.0 66 111 78 67 66 86 57 60 53 52
1770.0 64 71 49 56 60 69 78 63 68 44
1810.0 47 48 41 43 44 51 43 31 41 64
1850.0 47 43 44 45 46 53 39 32 32 39
1890.0 42 35 37 33 32 31 27 27 30 28
1930.0 20 25 21 30 28 31 26 32 28 28
1970.0 33 28 29 25 30 34 34 37 28 37
2010.0 35 41 38 39 35 43 36 46 56 52
2050.0 60 60 67 63 68 70 72 68 78 70
2090.0 59 55 50 52 56 66 67 66 65 58
2130.0 54 56 53 43 43 40 47 45 47 46
2170.0 41 41 42 53 40 44 40 46 38 40
2210.0 32 31 34 35 44 34 39 36 43 44
2250.0 53 53 48 51 52 51 52 50 51 58
2290.0 64 82 92 97 90 70 69 53 52 37
2330.0 56 41 46 43 46 71 62 82 57 49
2370.0 51 62 56 49 37 35 45 35 33 32
2410.0 29 33 33 37 32 33 35 36 26 26
2450.0 20 23 17 21 18 19 20 19 23 26
2490.0 33 28 37 33 33 33 33 30 28 31
2530.0 27 32 29 22 23 20 21 19 12 3
2570.0 13 6 15 6 9 4 4 7 6 2
2610.0 2 8 0 10 2 14 10 14 16 18
2650.0 14 14 24 21 32 35 39 43 51 43
2690.0 35 29 31 39 34 36 34 39 41 55
2730.0 77 90 113 115 119 106 105 83 84 66
2770.0 50 40 30 26 15 26 25 35 24 36
2810.0 34 28 29 38 45 41 65 66 94 121
2850.0 189 273 362 442 473 474 374 299 215 190
2890.0 158 158 157 155 170 147 159 139 161 132
2930.0 161 151 160 188 251 384 484 809 1204 2130
2970.0 2962 4274 4493 3229 1934 919 313 241 135 245
3010.0 315 470 512 499 331 164 108 71 79 54
3050.0 68 39 37 40 48 45 44 55 41 58
3090.0 42 54 26 30 23 28 24 18 26 22
3130.0 35 27 40 18 17 15 20 14 14 23
3170.0 13 16 11 22 14 26 16 16 30 17
3210.0 27 23 29 19 19 19 24 31 27 25
3250.0 17 20 18 25 18 39 28 28 25 14
3290.0 18 22 16 20 23 11 28 14 31 26
3330.0 29 24 26 24 21 22 5 15 11 19
3370.0 12 14 21 12 24 13 23 12 19 26
3410.0 18 18 14 12 18 25 22 23 25 20
3450.0 22 11 22 11 24 19 25 25 34 22
3490.0 23 27 25 17 26 24 28 46 24 16
3530.0 32 23 23 27 20 11 39 25 25 32
3570.0 36 28 31 37 31 39 41 35 51 57
3610.0 44 43 56 44 64 63 65 60 59 52
3650.0 54 77 78 81 89 83 79 74 82 69
3690.0 71 71 43 49 52 48 42 41 37 41
3730.0 39 50 40 39 44 44 21 34 32 36
3770.0 31 46 38 38 47 44 41 25 37 30
3810.0 33 19 36 46 52 23 32 21 34 42
3850.0 24 48 1 16 34 37 36 45 30 22
3890.0 23 5 4 25 36 4 30 41 25 19
3930.0 39 22 18 31 22 50 53 28 36 20
##END=
