##TITLE=Naphthalene, 2-fluoro-
##JCAMP-DX=4.24
##DATA TYPE=INFRARED SPECTRUM
##ORIGIN=Sadtler Research Labs Under US-EPA Contract
##OWNER=NIST Standard Reference Data Program
##CAS REGISTRY NO=323-09-1
##MOLFORM=C 10 H 7 F
##XUNITS=1/CM
##YUNITS=ABSORBANCE
##XFACTOR=1.0
##YFACTOR=0.000044925
##DELTAX=4.0
##FIRSTX=450.0
##LASTX=3966.0
##FIRSTY=0.097442
##MAXX=3966
##MINX=450
##MAXY=0.44925
##MINY=0
##NPOINTS=880
##XYDATA=(X++(Y..Y))
450.0 2169 2011 2730 3206 3979 4562 3206 1915 1839 956
490.0 543 246 221 104 180 245 294 329 264 332
530.0 171 74 102 111 40 69 79 142 134 124
570.0 152 168 203 125 136 125 123 84 152 285
610.0 675 1288 1392 1467 1476 901 502 305 223 169
650.0 92 119 64 94 18 109 104 87 135 190
690.0 381 529 1028 1661 2276 1887 2129 1648 1210 1537
730.0 2346 3303 3741 5924 5330 3751 3409 2319 1364 888
770.0 468 397 391 722 1066 1815 2526 3094 4560 4555
810.0 2754 2528 1894 1358 1168 1577 2307 3308 4064 5148
850.0 7393 5554 4281 4270 3276 3277 3115 1722 1551 1386
890.0 1758 2503 2561 2741 2441 1505 851 633 636 657
930.0 577 566 544 560 545 812 1444 2674 3155 3103
970.0 2901 1989 636 288 297 294 260 261 245 243
1010.0 358 420 412 403 317 183 135 120 128 129
1050.0 135 137 132 124 122 136 134 142 131 130
1090.0 145 213 270 514 1458 2757 2820 3321 3127 1821
1130.0 808 820 847 951 932 1521 3050 5406 5239 5607
1170.0 5114 2674 754 349 265 374 497 838 1779 3635
1210.0 5314 5829 5915 4797 2400 1382 2100 4290 7592 9647
1250.0 10000 9952 8033 4459 2861 2382 1291 610 312 143
1290.0 94 72 81 68 112 183 283 383 521 575
1330.0 631 732 815 975 1174 1435 1719 1961 1924 1788
1370.0 1689 1298 1037 1024 870 687 528 427 418 417
1410.0 333 391 336 370 363 408 402 474 689 707
1450.0 905 1370 2307 3829 4882 4963 4492 3541 2218 1531
1490.0 1658 1850 2034 3012 4726 6406 6908 6410 5137 2518
1530.0 730 344 315 271 260 261 238 175 339 574
1570.0 828 1245 1832 2258 2513 2705 3186 3863 4482 4630
1610.0 4545 4089 3278 3656 4795 5573 5632 4794 3660 2268
1650.0 1399 1149 1190 1165 1185 1219 1067 951 746 603
1690.0 549 499 338 293 273 287 279 251 341 406
1730.0 403 398 465 458 409 354 288 207 198 238
1770.0 234 239 292 280 278 232 243 234 197 240
1810.0 276 326 399 395 349 312 253 235 183 148
1850.0 156 149 123 151 183 210 283 338 404 469
1890.0 481 464 465 413 348 334 347 359 332 328
1930.0 354 383 412 397 369 325 228 143 113 74
1970.0 64 55 53 39 35 11 12 25 36 44
2010.0 56 57 60 60 54 55 54 54 56 65
2050.0 73 80 83 79 72 89 96 100 95 90
2090.0 66 48 41 44 52 55 58 67 65 70
2130.0 67 69 68 72 81 79 82 77 70 77
2170.0 78 80 75 68 63 49 35 35 38 45
2210.0 50 61 64 63 58 47 57 45 44 49
2250.0 56 65 66 72 82 93 104 107 108 96
2290.0 69 63 51 44 42 32 35 55 83 81
2330.0 67 66 68 19 66 87 50 57 12 32
2370.0 72 93 101 103 102 88 86 91 100 107
2410.0 112 113 110 97 84 92 80 77 75 70
2450.0 74 90 98 102 96 89 76 71 79 83
2490.0 85 87 94 94 89 87 86 80 73 68
2530.0 64 66 59 63 71 64 64 71 74 76
2570.0 80 89 91 91 97 105 107 117 110 110
2610.0 93 96 91 87 91 94 88 82 70 60
2650.0 59 58 52 55 51 46 45 46 41 45
2690.0 50 50 52 50 53 62 65 69 67 71
2730.0 69 70 74 72 76 69 63 59 58 54
2770.0 53 44 50 54 47 48 52 53 50 45
2810.0 52 55 56 59 53 52 48 42 41 37
2850.0 34 37 29 23 6 0 2 10 11 17
2890.0 6 12 15 21 21 28 36 29 29 25
2930.0 30 49 69 95 111 113 123 121 137 182
2970.0 215 255 282 288 298 308 318 339 387 422
3010.0 492 578 697 837 1031 1273 1495 1643 1743 1924
3050.0 2267 2909 3982 5076 5712 6093 5759 4808 3763 2760
3090.0 2055 1590 1261 1036 836 640 455 284 174 125
3130.0 101 94 89 83 85 83 70 68 61 64
3170.0 72 75 73 74 71 78 66 57 54 48
3210.0 49 42 59 57 57 53 64 71 62 54
3250.0 55 41 46 42 47 51 38 39 31 44
3290.0 44 39 38 36 27 27 33 23 31 35
3330.0 36 35 39 44 41 39 42 53 43 48
3370.0 49 43 41 40 48 60 59 51 63 50
3410.0 46 42 46 45 51 58 57 49 53 54
3450.0 56 53 64 46 37 46 52 57 47 52
3490.0 47 51 62 55 73 55 69 50 52 42
3530.0 44 55 62 52 46 48 56 60 53 40
3570.0 36 56 64 61 71 42 71 46 55 58
3610.0 42 55 37 44 44 15 79 55 66 45
3650.0 60 79 46 85 64 70 48 54 67 62
3690.0 62 62 72 49 50 75 52 51 77 42
3730.0 66 57 75 44 67 48 51 68 51 68
3770.0 67 80 80 67 85 63 67 83 56 62
3810.0 66 63 100 66 53 70 66 61 79 66
3850.0 89 69 54 60 68 54 59 69 64 64
3890.0 70 74 81 89 87 76 120 102 121 104
3930.0 131 128 127 150 152 167 165 163 170 184
##END=
