##TITLE=Oxirane, dodecyl-
##JCAMP-DX=4.24
##DATA TYPE=INFRARED SPECTRUM
##ORIGIN=Sadtler Research Labs Under US-EPA Contract
##OWNER=NIST Standard Reference Data Program
##CAS REGISTRY NO=3234-28-4
##MOLFORM=C 14 H 28 O
##XUNITS=1/CM
##YUNITS=ABSORBANCE
##XFACTOR=1.0
##YFACTOR=0.000100415
##DELTAX=4.0
##FIRSTX=450.0
##LASTX=3966.0
##FIRSTY=0.000000
##MAXX=3966
##MINX=450
##MAXY=1.00415
##MINY=0
##NPOINTS=880
##XYDATA=(X++(Y..Y))
450.0 0 99 111 86 58 33 65 75 65 80
490.0 95 68 72 63 96 89 53 77 88 79
530.0 57 45 32 74 51 72 47 54 52 59
570.0 32 50 46 71 60 63 51 35 47 58
610.0 47 53 52 54 39 52 47 53 36 49
650.0 44 53 60 45 65 40 67 70 62 63
690.0 69 72 98 108 131 142 170 197 210 194
730.0 185 190 194 189 190 183 173 174 177 177
770.0 191 189 181 196 198 207 203 209 214 230
810.0 252 264 295 336 380 435 483 532 522 475
850.0 420 374 320 279 247 225 220 219 216 212
890.0 204 215 227 241 263 284 311 319 319 311
930.0 295 273 247 219 206 196 188 180 168 158
970.0 151 141 135 132 126 126 122 127 130 118
1010.0 115 116 109 104 107 103 99 102 97 93
1050.0 100 99 93 93 97 95 100 105 101 103
1090.0 104 99 98 96 94 100 100 109 118 129
1130.0 141 138 126 116 110 108 103 97 96 94
1170.0 93 98 96 97 96 99 99 97 96 97
1210.0 101 104 104 106 115 113 116 124 134 147
1250.0 167 186 199 208 199 185 168 160 155 157
1290.0 160 165 175 182 192 193 190 181 176 178
1330.0 176 185 199 219 249 275 296 292 279 265
1370.0 260 247 240 245 246 229 211 221 253 311
1410.0 353 336 274 227 208 217 256 300 367 446
1450.0 536 622 726 798 789 702 569 434 352 309
1490.0 267 208 170 138 121 109 98 93 83 79
1530.0 72 74 65 67 62 60 59 61 57 56
1570.0 54 55 53 52 51 54 51 52 50 50
1610.0 50 48 48 50 48 49 48 51 50 55
1650.0 49 49 44 46 46 45 46 46 43 47
1690.0 44 47 50 48 50 50 54 55 53 55
1730.0 61 69 70 71 74 65 58 52 49 44
1770.0 42 43 39 39 33 36 33 35 35 34
1810.0 37 34 30 32 34 34 33 32 33 36
1850.0 32 29 30 32 31 31 29 31 31 30
1890.0 29 30 29 28 30 32 32 32 34 31
1930.0 31 30 34 30 31 31 31 31 33 36
1970.0 33 34 34 33 32 35 35 35 35 35
2010.0 36 35 38 40 39 42 41 43 41 40
2050.0 41 40 39 38 36 34 35 35 34 35
2090.0 34 34 34 34 33 33 34 32 33 33
2130.0 34 32 34 31 32 35 38 36 36 36
2170.0 34 36 37 36 36 38 38 38 37 39
2210.0 38 38 33 36 39 40 37 41 44 45
2250.0 46 47 48 45 42 41 43 44 44 43
2290.0 47 44 46 48 51 54 52 51 51 43
2330.0 50 48 42 58 48 54 61 54 47 47
2370.0 45 48 42 45 36 36 31 33 36 31
2410.0 32 32 33 31 31 31 32 31 30 28
2450.0 28 31 29 31 31 29 31 34 28 31
2490.0 30 35 35 35 33 33 39 40 40 40
2530.0 42 42 46 44 44 43 46 45 46 49
2570.0 47 51 51 53 57 54 59 61 63 62
2610.0 66 68 70 68 72 73 77 79 78 82
2650.0 84 86 91 94 98 102 106 108 112 110
2690.0 114 114 108 109 103 107 105 103 102 100
2730.0 105 107 112 119 120 122 119 120 121 124
2770.0 125 129 137 146 159 167 182 198 217 231
2810.0 247 270 295 327 364 411 475 559 683 886
2850.0 1244 1864 2765 3589 3837 3484 2871 2344 2030 1872
2890.0 1725 1673 1773 2032 2432 2938 3518 4287 5499 7243
2930.0 9139 10000 9591 8237 6508 4871 3698 3068 2897 2990
2970.0 2991 2666 2139 1734 1454 1238 1081 969 877 782
3010.0 676 570 498 448 423 432 471 560 719 903
3050.0 847 606 397 286 226 191 167 152 144 137
3090.0 128 118 107 102 95 91 88 83 83 78
3130.0 75 73 69 69 72 71 69 74 67 63
3170.0 60 62 61 63 62 61 57 56 57 50
3210.0 55 48 50 46 47 45 43 41 43 41
3250.0 42 38 41 44 43 42 41 42 44 40
3290.0 43 42 41 44 43 39 42 39 37 44
3330.0 41 47 43 45 37 42 45 42 43 46
3370.0 41 40 39 37 44 38 45 40 40 41
3410.0 41 45 46 42 36 41 43 41 41 42
3450.0 37 38 42 41 33 30 38 44 33 30
3490.0 38 32 37 35 33 33 33 31 34 34
3530.0 40 39 33 36 31 32 37 34 34 32
3570.0 35 37 35 44 44 39 43 40 46 46
3610.0 43 37 47 49 45 54 53 57 49 50
3650.0 57 43 46 49 49 53 52 53 50 52
3690.0 50 48 48 51 46 57 60 60 47 55
3730.0 60 56 43 57 49 57 52 63 49 59
3770.0 51 55 66 52 50 55 46 50 75 60
3810.0 68 45 56 63 44 57 50 44 56 61
3850.0 56 52 46 59 63 62 59 62 64 40
3890.0 57 61 51 54 45 57 48 43 42 53
3930.0 52 51 51 64 57 60 63 48 44 38
##END=
