##TITLE=Cyclohexanecarbonitrile, 1-hydroxy-, acetate
##JCAMP-DX=4.24
##DATA TYPE=INFRARED SPECTRUM
##ORIGIN=Sadtler Research Labs Under US-EPA Contract
##OWNER=NIST Standard Reference Data Program
##CAS REGISTRY NO=32379-37-6
##MOLFORM=C 9 H 13 N O 2
##XUNITS=1/CM
##YUNITS=ABSORBANCE
##XFACTOR=1.0
##YFACTOR=0.000147778
##DELTAX=4.0
##FIRSTX=450.0
##LASTX=3966.0
##FIRSTY=0.000000
##MAXX=3966
##MINX=450
##MAXY=1.47778
##MINY=0
##NPOINTS=880
##XYDATA=(X++(Y..Y))
450.0 0 78 85 109 123 117 142 92 97 92
490.0 119 100 100 107 130 130 130 119 114 126
530.0 138 141 137 153 158 182 204 241 282 276
570.0 302 264 230 203 178 201 230 283 314 325
610.0 281 242 180 159 157 164 177 175 176 158
650.0 148 136 136 130 134 115 135 100 116 103
690.0 105 108 112 120 124 142 149 157 147 145
730.0 136 124 125 120 111 115 111 104 100 104
770.0 104 105 99 103 99 102 94 92 102 111
810.0 136 157 169 167 174 183 209 253 301 307
850.0 281 245 201 197 236 286 312 309 269 222
890.0 197 185 209 260 345 426 451 441 410 365
930.0 351 357 387 440 514 594 696 794 888 974
970.0 1001 967 867 744 657 635 671 745 860 996
1010.0 1106 1176 1224 1309 1449 1620 1782 1875 1961 2139
1050.0 2446 2702 2692 2412 1880 1380 1093 937 833 776
1090.0 750 723 673 597 508 419 363 344 354 401
1130.0 490 622 799 996 1136 1171 1149 1094 1023 1002
1170.0 990 938 850 805 880 1101 1502 2116 3028 4306
1210.0 6009 8021 9466 10000 8869 6782 4047 2231 1343 935
1250.0 735 699 725 769 759 715 605 517 499 511
1290.0 521 509 462 391 329 299 291 288 278 266
1330.0 253 270 317 384 467 565 674 829 1070 1371
1370.0 1615 1699 1540 1192 843 591 442 350 295 269
1410.0 259 251 282 280 314 345 413 474 600 724
1450.0 903 1009 1056 957 791 611 438 318 254 228
1490.0 218 203 204 190 180 202 184 181 182 171
1530.0 172 153 168 139 173 145 168 131 149 142
1570.0 149 135 154 132 148 140 143 136 139 137
1610.0 128 140 123 139 126 140 126 137 129 155
1650.0 128 157 140 148 143 156 136 172 156 178
1690.0 183 201 201 227 231 241 248 252 254 275
1730.0 296 322 365 414 527 729 1059 1561 2292 3170
1770.0 4131 4750 4909 4395 3392 2482 1664 1137 787 556
1810.0 410 318 276 243 243 228 246 241 262 255
1850.0 247 228 207 186 168 155 136 136 129 134
1890.0 132 134 130 125 126 119 119 117 117 117
1930.0 113 115 109 113 104 103 98 98 93 96
1970.0 91 92 92 92 94 98 100 98 98 97
2010.0 96 99 100 98 95 100 100 102 103 104
2050.0 103 105 108 110 111 110 110 106 107 108
2090.0 111 114 115 113 107 105 98 97 92 93
2130.0 92 93 88 90 87 84 86 85 85 87
2170.0 89 91 91 95 96 95 94 94 93 93
2210.0 93 95 95 100 103 106 109 112 110 107
2250.0 104 100 95 92 93 94 91 93 96 101
2290.0 102 109 112 114 115 123 112 113 115 100
2330.0 99 99 103 81 152 91 135 100 101 101
2370.0 112 103 113 112 106 92 88 87 86 88
2410.0 89 91 90 95 92 93 92 92 88 85
2450.0 84 82 80 79 80 80 80 82 83 83
2490.0 81 83 82 83 81 81 81 81 82 82
2530.0 84 82 82 80 81 79 81 82 80 82
2570.0 82 85 84 86 86 88 88 90 90 89
2610.0 89 90 92 92 93 92 94 93 94 97
2650.0 101 103 104 108 113 119 121 125 119 113
2690.0 107 104 100 97 95 93 96 95 96 96
2730.0 99 97 99 102 98 98 100 102 100 101
2770.0 104 105 107 110 115 119 125 130 134 137
2810.0 140 143 144 145 147 150 155 159 167 184
2850.0 222 307 483 758 1027 1249 1346 1300 1110 870
2890.0 665 518 453 455 491 541 587 632 684 780
2930.0 972 1338 1998 3012 4204 5087 4994 4185 3041 1991
2970.0 1183 785 521 361 314 314 325 325 290 243
3010.0 205 175 163 162 165 167 170 167 165 163
3050.0 160 156 156 152 150 151 149 147 142 140
3090.0 138 134 130 127 127 122 117 114 110 111
3130.0 111 110 106 108 106 106 106 104 106 106
3170.0 104 105 107 104 106 104 106 106 104 107
3210.0 104 106 105 105 104 104 104 104 104 101
3250.0 102 102 99 100 101 102 103 102 104 102
3290.0 100 99 100 100 100 98 96 99 100 102
3330.0 98 102 97 101 100 100 101 103 101 100
3370.0 101 100 101 100 101 102 102 100 99 100
3410.0 97 96 94 98 100 100 101 102 102 102
3450.0 102 98 104 103 103 106 102 104 107 108
3490.0 103 104 106 109 112 111 116 125 130 149
3530.0 144 142 139 129 132 125 110 127 115 132
3570.0 129 104 111 101 113 107 107 121 102 109
3610.0 110 115 108 104 111 98 121 92 115 104
3650.0 110 117 93 123 92 113 95 107 105 99
3690.0 105 98 112 103 106 108 105 105 119 107
3730.0 114 104 122 80 141 74 113 105 103 104
3770.0 111 104 99 108 97 99 92 120 79 120
3810.0 82 117 94 94 115 102 103 112 98 97
3850.0 123 79 107 116 102 108 112 105 104 121
3890.0 94 126 101 124 111 115 103 114 114 105
3930.0 112 107 112 106 112 108 118 107 115 109
##END=
