##TITLE=1,1'-Biphenyl, 4-fluoro-
##JCAMP-DX=4.24
##DATA TYPE=INFRARED SPECTRUM
##ORIGIN=Sadtler Research Labs Under US-EPA Contract
##OWNER=NIST Standard Reference Data Program
##CAS REGISTRY NO=324-74-3
##MOLFORM=C 12 H 9 F
##XUNITS=1/CM
##YUNITS=ABSORBANCE
##XFACTOR=1.0
##YFACTOR=0.000078662
##DELTAX=4.0
##FIRSTX=450.0
##LASTX=3966.0
##FIRSTY=0.001101
##MAXX=3966
##MINX=450
##MAXY=0.78662
##MINY=0
##NPOINTS=880
##XYDATA=(X++(Y..Y))
450.0 14 6 69 95 204 212 283 200 229 353
490.0 444 468 538 722 870 790 645 570 542 452
530.0 517 584 737 870 1236 2074 2197 1897 990 148
570.0 85 192 72 81 131 187 83 196 150 139
610.0 166 125 112 81 193 179 120 215 133 157
650.0 209 187 184 363 464 481 507 683 1002 1420
690.0 1927 2309 2553 2347 1998 1524 1049 791 567 490
730.0 554 497 679 1000 1228 1852 2435 2942 3134 2347
770.0 1826 1228 762 481 366 241 326 296 445 691
810.0 923 1203 1491 1812 2336 3164 3707 3927 2913 2169
850.0 1450 856 502 342 237 226 161 196 143 205
890.0 182 220 267 303 294 303 278 213 196 166
930.0 183 153 151 169 165 153 136 152 105 109
970.0 103 134 117 127 142 166 192 252 476 876
1010.0 1024 978 625 303 219 224 310 338 334 289
1050.0 217 228 260 278 328 390 415 431 470 552
1090.0 675 705 674 508 353 286 200 184 166 176
1130.0 140 159 182 212 285 551 1731 2810 2703 2053
1170.0 575 211 193 196 234 281 309 346 406 461
1210.0 621 865 1295 1764 2655 4699 7905 10000 8942 5332
1250.0 1939 919 850 922 928 747 510 368 381 409
1290.0 407 363 348 310 292 242 188 175 161 168
1330.0 147 144 132 130 145 125 132 136 145 159
1370.0 178 165 158 155 137 153 151 166 156 155
1410.0 166 166 140 135 135 161 227 307 424 538
1450.0 589 557 489 455 519 858 1608 2691 4222 5609
1490.0 6185 5307 3718 2397 2214 3801 5790 6380 5256 2775
1530.0 1037 452 314 262 337 407 410 431 512 587
1570.0 573 520 427 448 521 675 878 1195 1628 2019
1610.0 2232 1971 1405 809 411 265 229 249 277 277
1650.0 270 220 218 199 200 200 189 147 115 67
1690.0 106 116 86 54 99 110 114 93 130 123
1730.0 129 134 138 160 186 200 232 243 211 174
1770.0 131 97 116 124 127 165 193 212 186 140
1810.0 108 97 100 88 82 52 53 63 62 55
1850.0 80 86 111 149 187 213 262 309 362 382
1890.0 352 287 198 134 90 65 70 76 89 103
1930.0 113 142 168 179 196 204 191 180 145 111
1970.0 72 59 53 45 53 60 44 45 29 40
2010.0 39 31 31 37 24 42 49 56 68 78
2050.0 88 91 87 85 68 67 58 46 45 39
2090.0 33 19 35 29 28 25 23 19 16 19
2130.0 16 17 16 14 18 15 14 14 14 20
2170.0 31 23 19 19 13 19 12 12 6 12
2210.0 11 19 14 20 24 17 17 24 30 38
2250.0 38 43 48 48 41 42 41 48 55 61
2290.0 57 62 81 88 104 115 112 114 108 94
2330.0 107 113 114 99 120 108 113 130 136 132
2370.0 102 96 91 91 68 65 68 71 64 50
2410.0 38 45 45 41 57 61 58 54 51 58
2450.0 51 57 70 70 75 72 66 64 52 34
2490.0 44 32 45 51 33 45 40 39 51 46
2530.0 45 44 39 43 47 46 53 52 52 59
2570.0 40 40 46 33 35 48 39 42 48 45
2610.0 44 54 41 46 40 40 29 25 30 36
2650.0 16 37 16 27 28 29 34 28 22 30
2690.0 37 29 31 34 37 42 49 41 35 35
2730.0 36 35 35 31 31 35 54 45 35 36
2770.0 40 37 35 42 35 30 30 45 27 28
2810.0 44 31 35 37 44 43 35 43 55 48
2850.0 50 66 64 61 72 72 86 101 88 93
2890.0 87 75 86 75 79 53 52 44 49 66
2930.0 63 66 69 86 75 74 83 87 87 85
2970.0 89 94 98 120 122 144 153 174 182 208
3010.0 233 276 328 458 649 961 1318 1652 1793 1712
3050.0 1495 1322 1272 1438 1867 2268 2347 2133 1669 1344
3090.0 1156 995 853 741 642 539 442 364 310 266
3130.0 196 147 124 114 99 91 85 83 83 76
3170.0 53 50 54 40 52 47 40 29 19 39
3210.0 36 14 20 20 38 29 23 37 43 28
3250.0 36 44 31 42 23 46 34 41 27 26
3290.0 31 24 39 26 38 26 36 47 29 40
3330.0 35 29 28 25 33 24 24 18 47 39
3370.0 20 42 47 23 9 41 28 22 37 40
3410.0 29 30 30 39 36 41 35 10 21 43
3450.0 47 45 37 39 27 36 31 40 42 30
3490.0 24 43 45 31 14 26 45 29 39 25
3530.0 21 30 23 37 30 49 5 18 39 23
3570.0 52 23 42 48 21 29 49 30 17 39
3610.0 25 36 30 48 51 30 32 32 60 75
3650.0 63 75 63 75 70 66 45 46 53 62
3690.0 56 68 64 68 76 76 76 69 71 85
3730.0 69 54 64 54 59 63 69 89 95 87
3770.0 83 80 86 73 87 71 74 73 68 72
3810.0 64 83 71 71 66 71 86 84 83 73
3850.0 71 69 90 89 89 96 114 107 91 97
3890.0 82 83 83 99 106 108 104 78 84 60
3930.0 71 66 70 72 72 81 0 6 6 6
##END=
