##TITLE=Diethyl cyclohexylaminophosphonate
##JCAMP-DX=4.24
##DATA TYPE=INFRARED SPECTRUM
##ORIGIN=Sadtler Research Labs Under US-EPA Contract
##OWNER=NIST Standard Reference Data Program
##CAS REGISTRY NO=32405-88-2
##MOLFORM=C 10 H 22 N O 3 P
##XUNITS=1/CM
##YUNITS=ABSORBANCE
##XFACTOR=1.0
##YFACTOR=0.000157648
##DELTAX=4.0
##FIRSTX=450.0
##LASTX=3966.0
##FIRSTY=0.027115
##MAXX=3966
##MINX=450
##MAXY=1.57648
##MINY=0
##NPOINTS=880
##XYDATA=(X++(Y..Y))
450.0 172 158 195 167 203 244 304 293 329 362
490.0 352 334 319 401 465 471 546 691 756 815
530.0 813 848 834 970 1125 1253 1314 1263 1128 888
570.0 690 503 368 278 218 173 123 117 87 88
610.0 27 67 230 234 145 54 25 91 98 101
650.0 116 110 88 73 81 92 107 98 139 145
690.0 119 108 113 106 106 108 118 158 198 242
730.0 306 380 450 548 630 706 733 736 704 673
770.0 666 697 840 1044 1260 1409 1501 1519 1477 1367
810.0 1217 1048 836 682 535 401 366 395 402 375
850.0 378 403 429 467 516 568 633 748 919 1020
890.0 1000 940 918 942 981 1057 1155 1267 1418 1639
930.0 1990 2514 3272 4084 4839 5195 5156 4767 4261 3705
970.0 3113 2570 2138 1902 1855 2006 2193 2297 2312 2391
1010.0 2681 3133 3676 4252 5156 6416 7949 9171 9795 10000
1050.0 9342 8773 8124 7571 6614 5618 4606 3775 3250 3052
1090.0 3141 3303 3329 3047 2627 2241 1944 1676 1422 1218
1130.0 1092 1043 1057 1106 1115 1056 965 906 866 830
1170.0 799 770 732 684 631 575 527 467 361 139
1210.0 0 122 171 174 311 527 704 795 836 946
1250.0 1175 1501 1855 2164 2536 2998 3372 3418 3133 2741
1290.0 2415 2237 2153 2102 1982 1753 1441 1147 914 747
1330.0 637 594 596 651 724 761 757 734 734 767
1370.0 814 853 862 949 1113 1354 1539 1590 1544 1513
1410.0 1572 1639 1690 1609 1459 1248 1100 993 966 1008
1450.0 1115 1187 1135 955 818 707 569 440 366 327
1490.0 282 264 250 228 225 217 183 187 168 140
1530.0 119 108 123 102 104 81 84 57 77 43
1570.0 49 26 51 39 73 74 78 88 102 116
1610.0 113 147 139 148 125 123 106 98 72 84
1650.0 49 86 53 46 51 55 37 57 26 56
1690.0 27 37 37 57 35 38 47 44 44 42
1730.0 46 37 55 28 32 29 36 29 37 37
1770.0 37 49 36 50 36 54 42 44 37 39
1810.0 33 33 37 32 42 35 47 37 50 46
1850.0 50 50 52 47 46 45 39 39 34 34
1890.0 30 28 24 22 20 18 17 16 11 11
1930.0 9 7 5 4 2 3 0 1 1 0
1970.0 0 1 0 2 0 1 0 1 2 2
2010.0 1 1 1 1 5 2 2 3 1 3
2050.0 2 1 2 2 1 3 4 3 4 2
2090.0 0 0 0 2 1 3 1 2 0 2
2130.0 0 4 3 3 3 2 4 2 4 4
2170.0 4 5 6 7 5 9 8 8 7 6
2210.0 4 4 4 3 6 7 6 8 11 10
2250.0 13 12 14 17 15 15 15 17 16 17
2290.0 19 25 31 33 42 47 45 45 51 46
2330.0 55 53 38 60 68 44 81 55 83 70
2370.0 58 48 43 32 20 7 3 3 1 1
2410.0 0 3 2 4 4 5 7 5 6 7
2450.0 8 8 7 8 8 10 9 11 12 13
2490.0 10 11 10 10 8 6 7 8 12 13
2530.0 13 14 12 12 10 11 12 14 13 17
2570.0 17 21 23 27 31 33 36 39 43 42
2610.0 38 40 40 42 43 45 47 51 57 65
2650.0 70 80 87 96 101 105 100 93 87 80
2690.0 76 76 75 74 73 72 75 77 82 87
2730.0 90 92 92 94 99 100 106 111 118 126
2770.0 136 148 161 168 176 183 195 206 217 226
2810.0 237 252 269 294 323 361 417 503 637 843
2850.0 1151 1591 2154 2670 2797 2467 1998 1657 1472 1372
2890.0 1341 1389 1545 1809 2157 2564 2979 3423 3965 4778
2930.0 5966 7361 8282 8462 7705 6028 4238 3033 2378 2020
2970.0 1862 1880 2086 2363 2480 2331 1998 1657 1347 1101
3010.0 926 790 658 557 474 394 339 293 259 229
3050.0 205 184 165 150 136 125 112 108 101 97
3090.0 94 87 83 84 80 74 72 70 67 67
3130.0 65 65 62 63 62 65 64 63 61 58
3170.0 55 55 51 48 46 46 44 39 38 39
3210.0 37 42 37 35 35 35 33 33 30 29
3250.0 26 27 27 24 17 17 22 17 13 11
3290.0 10 13 11 12 11 12 11 12 10 12
3330.0 16 14 16 17 18 15 16 14 15 16
3370.0 21 20 18 27 31 36 46 61 77 106
3410.0 148 210 280 347 381 377 332 261 197 145
3450.0 100 76 57 50 39 32 28 26 25 25
3490.0 17 22 18 13 18 15 15 10 9 13
3530.0 11 9 9 5 11 8 8 13 3 18
3570.0 8 7 3 3 15 7 13 3 10 2
3610.0 20 10 11 15 0 31 15 5 16 10
3650.0 40 14 19 24 1 42 16 54 4 29
3690.0 15 22 8 16 16 17 23 19 11 18
3730.0 19 33 21 36 42 22 49 8 13 13
3770.0 9 10 9 21 8 11 10 8 21 23
3810.0 5 15 10 30 11 7 19 26 12 19
3850.0 9 37 28 4 20 21 13 7 23 13
3890.0 23 15 19 28 20 13 6 16 17 18
3930.0 23 28 22 17 17 30 25 27 22 28
##END=
