##TITLE=Octadecanoic acid, decyl ester
##JCAMP-DX=4.24
##DATA TYPE=INFRARED SPECTRUM
##ORIGIN=Sadtler Research Labs Under US-EPA Contract
##OWNER=NIST Standard Reference Data Program
##CAS REGISTRY NO=32509-55-0
##MOLFORM=C 28 H 56 O 2
##XUNITS=1/CM
##YUNITS=ABSORBANCE
##XFACTOR=1.0
##YFACTOR=0.000054611
##DELTAX=4.0
##FIRSTX=450.0
##LASTX=3966.0
##FIRSTY=0.000000
##MAXX=3966
##MINX=450
##MAXY=0.54611
##MINY=0
##NPOINTS=880
##XYDATA=(X++(Y..Y))
450.0 0 78 194 255 257 130 91 125 103 123
490.0 103 107 98 126 141 150 123 119 114 124
530.0 136 125 103 121 123 96 124 116 70 125
570.0 108 128 114 111 104 148 130 132 159 145
610.0 98 106 120 132 124 112 133 122 114 120
650.0 88 86 125 99 78 161 124 95 145 139
690.0 162 182 197 208 254 285 328 363 392 364
730.0 327 300 263 262 272 232 191 206 197 209
770.0 205 180 166 184 170 170 181 161 161 171
810.0 172 168 167 171 165 174 163 162 173 184
850.0 167 180 181 189 191 201 205 203 202 208
890.0 208 206 202 207 199 203 191 202 204 214
930.0 215 220 227 234 240 247 258 261 277 295
970.0 315 331 361 389 421 434 435 436 442 443
1010.0 439 441 432 440 448 460 476 495 510 521
1050.0 532 539 537 549 545 558 582 590 602 620
1090.0 627 639 650 674 719 778 821 827 797 783
1130.0 807 890 1019 1176 1335 1488 1631 1759 1849 1891
1170.0 1853 1757 1634 1505 1397 1305 1244 1192 1162 1141
1210.0 1124 1130 1149 1172 1202 1228 1248 1256 1251 1211
1250.0 1154 1081 1009 949 889 838 794 765 734 720
1290.0 710 703 706 703 698 677 650 621 600 585
1330.0 595 629 672 719 751 775 767 736 695 648
1370.0 592 569 598 605 567 524 441 385 340 330
1410.0 334 369 418 464 505 558 639 732 850 983
1450.0 1147 1336 1526 1553 1418 1109 749 520 381 310
1490.0 256 229 205 174 177 174 141 145 149 129
1530.0 120 108 126 112 116 99 112 106 117 93
1570.0 104 93 110 86 93 92 96 95 94 96
1610.0 88 97 102 97 100 91 112 110 100 116
1650.0 114 134 132 115 131 144 149 170 184 213
1690.0 227 268 318 367 406 470 570 710 883 1167
1730.0 1661 2416 3344 3722 3179 2365 1818 1328 966 736
1770.0 611 522 451 397 341 290 253 213 188 166
1810.0 142 127 110 101 94 89 79 79 75 81
1850.0 73 72 70 72 69 68 63 59 65 60
1890.0 62 61 63 62 59 64 56 60 61 58
1930.0 60 61 62 58 60 56 58 62 63 65
1970.0 62 62 62 62 64 65 65 63 66 66
2010.0 67 68 69 70 71 72 74 75 70 69
2050.0 70 69 67 67 67 67 66 65 63 68
2090.0 61 61 61 61 61 61 61 63 63 57
2130.0 58 58 63 58 61 66 66 63 65 68
2170.0 68 66 64 66 62 66 62 64 62 60
2210.0 62 60 64 60 58 61 66 63 66 64
2250.0 68 65 67 72 72 73 76 82 87 93
2290.0 102 119 130 137 147 164 151 153 162 140
2330.0 152 142 127 140 189 123 197 134 192 184
2370.0 186 152 152 138 109 84 78 76 70 72
2410.0 71 71 69 73 72 77 74 70 74 75
2450.0 80 72 77 77 76 78 77 80 82 79
2490.0 76 78 81 82 82 88 85 91 97 92
2530.0 97 98 103 103 105 100 104 109 107 114
2570.0 107 111 116 121 123 123 122 131 133 130
2610.0 139 142 145 147 149 150 160 163 167 174
2650.0 177 184 188 194 204 209 206 214 217 216
2690.0 214 207 207 206 202 203 204 206 212 219
2730.0 226 231 232 234 241 244 252 255 266 274
2770.0 288 304 325 345 368 388 419 451 484 527
2810.0 578 637 713 803 921 1071 1278 1594 2077 2830
2850.0 3864 4821 5138 4793 4160 3571 3162 2859 2697 2727
2890.0 2906 3227 3653 4151 4733 5422 6326 7427 8650 9623
2930.0 10000 9548 8416 7020 5784 4918 4398 4104 3778 3316
2970.0 2756 2205 1733 1378 1114 917 767 654 573 511
3010.0 454 400 369 334 309 285 265 244 225 216
3050.0 207 194 185 170 175 158 155 140 143 137
3090.0 134 127 124 115 117 124 121 112 109 103
3130.0 106 105 98 105 96 98 97 100 93 93
3170.0 87 86 92 90 83 87 86 83 86 79
3210.0 77 79 81 75 77 75 69 66 69 73
3250.0 71 73 74 70 73 73 62 75 75 73
3290.0 67 72 73 72 69 74 71 71 68 75
3330.0 79 82 83 76 79 80 72 64 77 76
3370.0 78 79 83 76 81 82 80 77 76 80
3410.0 89 78 82 78 74 81 84 77 92 92
3450.0 87 91 94 100 90 86 79 75 74 74
3490.0 80 77 63 79 73 67 66 64 61 72
3530.0 76 73 73 84 83 85 77 75 88 83
3570.0 95 114 121 119 102 106 84 76 90 80
3610.0 92 88 91 92 79 103 83 94 80 98
3650.0 106 86 99 78 94 86 83 90 87 85
3690.0 85 83 78 91 76 83 91 81 81 108
3730.0 84 97 92 112 115 106 111 76 80 84
3770.0 89 88 71 90 89 86 87 88 90 75
3810.0 74 92 83 106 69 78 102 109 95 88
3850.0 98 111 105 86 102 86 82 79 83 87
3890.0 90 81 77 104 104 103 68 87 91 62
3930.0 88 77 72 67 91 102 78 85 86 84
##END=
