##TITLE=Toluene, p-(4-bromobutoxy)-,
##JCAMP-DX=4.24
##DATA TYPE=INFRARED SPECTRUM
##ORIGIN=Sadtler Research Labs Under US-EPA Contract
##OWNER=NIST Standard Reference Data Program
##CAS REGISTRY NO=3257-49-6
##MOLFORM=C 11 H 15 Br O
##XUNITS=1/CM
##YUNITS=ABSORBANCE
##XFACTOR=1.0
##YFACTOR=0.000107181
##DELTAX=4.0
##FIRSTX=450.0
##LASTX=3966.0
##FIRSTY=0.008360
##MAXX=3966
##MINX=450
##MAXY=1.07181
##MINY=0
##NPOINTS=880
##XYDATA=(X++(Y..Y))
450.0 78 54 19 94 111 137 123 121 138 171
490.0 216 279 312 382 407 413 381 333 264 238
530.0 208 177 180 220 240 264 300 313 320 328
570.0 358 322 232 166 101 58 33 30 19 7
610.0 17 21 29 48 55 84 122 168 207 251
650.0 278 285 281 242 189 135 121 107 114 148
690.0 238 434 637 674 544 440 383 391 430 491
730.0 514 495 470 462 463 435 376 338 322 286
770.0 279 280 299 355 434 587 785 1018 1216 1355
810.0 1481 1643 1762 1671 1409 1106 874 731 657 583
850.0 513 434 350 298 264 230 216 216 222 227
890.0 233 234 242 256 256 265 290 307 346 384
930.0 423 454 489 520 536 551 571 576 562 540
970.0 514 502 496 505 511 519 534 574 650 758
1010.0 928 1078 1142 1190 1358 1590 1785 1965 2148 2265
1050.0 2215 2033 1800 1591 1382 1172 989 849 742 682
1090.0 647 623 614 612 623 624 619 581 502 406
1130.0 332 288 270 273 290 323 378 473 666 1119
1170.0 1871 2207 1735 1030 748 757 907 1141 1468 1907
1210.0 2442 3093 3938 4915 5870 6880 8188 9631 10000 8452
1250.0 6139 4570 3731 3155 2707 2462 2468 2554 2579 2445
1290.0 2160 1803 1515 1314 1156 990 842 703 624 562
1330.0 503 455 389 373 386 391 398 385 365 373
1370.0 400 437 573 781 948 971 823 642 537 459
1410.0 401 421 373 450 501 608 684 838 1021 1120
1450.0 1060 872 736 739 810 1038 1380 1602 1516 1306
1490.0 1337 1614 2152 3448 5756 8524 8728 5924 3087 1713
1530.0 978 647 450 319 294 305 282 224 266 304
1570.0 338 408 520 635 755 796 831 858 957 1106
1610.0 1335 1525 1450 1170 755 534 373 298 272 233
1650.0 160 149 167 163 143 128 91 131 76 65
1690.0 85 85 18 21 31 62 38 6 58 81
1730.0 53 15 55 59 50 42 71 73 73 83
1770.0 49 36 62 57 73 71 78 96 96 127
1810.0 128 128 143 135 134 126 147 162 152 148
1850.0 174 201 215 239 247 236 247 231 212 195
1890.0 180 174 172 167 155 146 143 142 135 151
1930.0 159 160 166 155 159 165 164 164 167 162
1970.0 168 171 166 160 160 146 146 153 155 153
2010.0 156 153 146 150 151 148 146 142 142 141
2050.0 143 142 143 140 136 140 141 142 142 139
2090.0 133 127 120 115 108 103 101 98 95 90
2130.0 85 84 79 74 73 72 68 66 66 62
2170.0 63 61 63 62 61 61 61 61 63 58
2210.0 63 64 65 65 63 63 61 61 62 61
2250.0 59 56 56 55 54 57 58 63 70 74
2290.0 80 87 91 90 93 100 90 83 79 66
2330.0 56 49 42 48 64 79 53 50 47 51
2370.0 39 49 55 65 62 51 45 45 48 50
2410.0 53 56 55 53 52 52 51 54 57 57
2450.0 63 66 65 65 66 65 66 64 62 53
2490.0 49 44 43 44 47 48 52 62 59 61
2530.0 58 51 46 39 31 27 25 24 20 15
2570.0 14 15 16 16 15 19 16 13 9 6
2610.0 5 4 4 2 3 4 4 4 4 7
2650.0 5 6 7 9 11 10 10 15 20 22
2690.0 25 27 28 30 32 38 42 46 50 56
2730.0 72 86 102 130 147 138 118 102 87 78
2770.0 74 72 72 71 74 78 86 88 95 102
2810.0 111 120 140 156 176 201 237 292 370 471
2850.0 595 725 849 978 1140 1333 1537 1685 1716 1645
2890.0 1551 1487 1474 1504 1569 1672 1795 1941 2096 2270
2930.0 2476 2668 2725 2674 2637 2616 2547 2413 2284 2159
2970.0 2001 1780 1516 1268 1077 959 908 907 931 974
3010.0 1031 1091 1110 1118 1188 1381 1610 1591 1282 929
3050.0 741 647 609 595 590 590 558 499 433 375
3090.0 336 317 305 288 264 230 190 159 135 116
3130.0 108 96 76 59 43 38 28 21 20 16
3170.0 16 15 13 15 11 9 9 9 7 8
3210.0 12 8 5 3 2 1 4 1 2 6
3250.0 3 6 7 4 5 3 7 4 4 5
3290.0 4 3 2 0 2 3 3 6 2 2
3330.0 9 6 9 7 10 11 6 9 5 5
3370.0 7 10 9 9 10 12 18 15 11 6
3410.0 8 12 11 13 7 15 13 13 9 12
3450.0 3 8 12 10 11 4 7 7 6 8
3490.0 8 13 9 3 3 11 15 6 5 11
3530.0 13 14 7 9 10 10 14 7 10 15
3570.0 16 11 9 4 3 9 3 5 11 1
3610.0 8 14 10 7 2 12 4 11 15 19
3650.0 18 20 21 25 18 25 20 22 21 19
3690.0 15 14 18 15 9 11 14 14 7 10
3730.0 6 11 15 16 22 16 20 24 17 19
3770.0 16 12 13 19 18 17 14 21 15 13
3810.0 25 23 18 23 19 23 24 26 27 41
3850.0 31 29 26 23 29 26 35 36 34 31
3890.0 25 35 18 30 35 38 36 34 33 33
3930.0 35 36 39 40 30 33 24 23 13 18
##END=
