##TITLE=Benzhydryl 2-chloroethyl ether
##JCAMP-DX=4.24
##DATA TYPE=INFRARED SPECTRUM
##ORIGIN=Sadtler Research Labs Under US-EPA Contract
##OWNER=NIST Standard Reference Data Program
##CAS REGISTRY NO=32669-06-0
##MOLFORM=C 15 H 15 Cl O
##XUNITS=1/CM
##YUNITS=ABSORBANCE
##XFACTOR=1.0
##YFACTOR=0.000062927
##DELTAX=4.0
##FIRSTX=450.0
##LASTX=3966.0
##FIRSTY=0.001951
##MAXX=3966
##MINX=450
##MAXY=0.62927
##MINY=0
##NPOINTS=880
##XYDATA=(X++(Y..Y))
450.0 31 127 359 288 262 183 284 366 339 300
490.0 502 456 340 191 81 76 55 0 79 58
530.0 98 121 223 251 347 388 388 354 271 203
570.0 107 111 63 102 97 136 208 356 694 1300
610.0 1959 2215 1822 1222 746 478 457 569 746 987
650.0 1277 1410 1268 1202 1180 1752 2211 2596 3102 3553
690.0 4721 6731 9420 9451 7300 4633 3070 2349 2130 2327
730.0 2855 3604 4068 4094 3840 3837 3949 3963 3764 3569
770.0 3283 2666 1889 1160 743 565 469 407 367 319
810.0 298 289 273 300 382 469 530 530 502 447
850.0 392 386 438 554 640 649 554 436 330 282
890.0 271 296 320 378 468 601 723 774 719 609
930.0 507 509 539 538 508 478 505 556 645 758
970.0 884 993 1078 1092 1108 1149 1221 1351 1472 1509
1010.0 1502 1553 1648 1862 2380 2823 2630 1993 1691 1940
1050.0 2409 2833 2994 3035 3396 4234 5182 5804 6370 7381
1090.0 8794 9818 10000 9566 9035 8759 8462 7786 6459 4780
1130.0 3302 2345 1791 1458 1237 1110 1051 1030 1054 1144
1170.0 1425 1961 2664 3125 2957 2360 1851 1620 1461 1252
1210.0 1041 892 772 708 694 727 808 899 1014 1216
1250.0 1554 1895 2078 2087 2107 2194 2172 2034 1833 1765
1290.0 1968 2379 2763 2872 2631 2248 1982 1840 1742 1647
1330.0 1558 1459 1409 1425 1379 1184 888 663 544 492
1370.0 484 534 572 585 550 518 484 424 333 273
1410.0 251 274 320 389 537 809 1140 1350 1518 1860
1450.0 2398 2682 2339 1586 1042 764 657 631 761 1104
1490.0 1818 2554 2526 1691 787 382 267 200 193 175
1530.0 194 198 222 218 199 163 152 145 140 161
1570.0 196 229 290 354 450 598 795 1004 1055 883
1610.0 589 362 254 191 154 117 113 104 111 127
1650.0 142 159 185 198 247 317 422 509 542 513
1690.0 397 268 195 148 122 116 117 136 133 142
1730.0 152 180 193 218 245 271 283 264 248 210
1770.0 205 190 179 171 192 243 367 491 548 477
1810.0 351 250 202 168 141 125 94 86 78 79
1850.0 77 79 92 113 139 178 219 243 273 297
1890.0 313 299 263 218 164 129 107 104 111 139
1930.0 177 237 321 419 471 442 418 412 374 273
1970.0 157 90 71 66 65 59 45 40 36 37
2010.0 37 42 39 46 50 54 61 65 68 72
2050.0 76 84 86 89 92 94 93 85 79 79
2090.0 66 66 60 59 55 55 55 54 53 51
2130.0 57 57 58 58 55 51 50 45 44 42
2170.0 42 43 39 38 36 32 31 26 25 24
2210.0 24 22 22 18 20 19 20 22 28 27
2250.0 29 36 31 28 30 34 34 33 35 44
2290.0 47 57 63 73 93 129 137 136 116 96
2330.0 84 92 74 72 104 73 98 67 74 57
2370.0 64 54 66 60 48 25 14 10 12 15
2410.0 16 15 14 14 9 9 7 8 8 5
2450.0 10 6 8 11 12 10 12 17 14 17
2490.0 15 20 24 20 22 28 24 28 29 27
2530.0 20 23 28 26 30 27 30 27 24 26
2570.0 35 36 43 47 54 56 59 62 65 64
2610.0 62 60 60 62 68 75 76 75 73 71
2650.0 68 66 62 63 63 65 69 71 69 73
2690.0 78 82 82 87 89 91 96 92 99 108
2730.0 124 128 134 140 154 168 187 216 240 261
2770.0 263 256 229 215 201 200 209 203 211 216
2810.0 228 246 279 324 389 475 584 738 963 1248
2850.0 1588 1902 2137 2306 2382 2311 2157 2015 1870 1706
2890.0 1570 1447 1337 1266 1207 1150 1131 1159 1160 1120
2930.0 1070 1067 1070 1055 1023 1011 1066 1249 1553 1842
2970.0 1799 1508 1232 980 768 637 618 680 831 1032
3010.0 1194 1301 1440 1799 2462 3315 3898 3837 3301 2719
3050.0 2328 2207 2394 2977 4061 5320 5765 4952 3617 2812
3090.0 2615 2393 1987 1578 1279 1060 845 626 435 296
3130.0 211 165 135 119 106 104 107 107 116 122
3170.0 124 107 88 61 46 46 37 33 32 35
3210.0 28 23 24 30 31 23 29 24 25 28
3250.0 25 27 17 24 23 25 24 23 25 24
3290.0 27 29 15 13 31 24 29 19 22 21
3330.0 31 19 29 28 29 21 24 29 18 25
3370.0 22 20 18 26 20 19 22 22 28 23
3410.0 22 18 22 26 24 32 26 17 20 24
3450.0 22 22 29 24 23 25 19 18 19 24
3490.0 15 20 9 29 32 13 7 13 26 29
3530.0 17 22 23 31 18 29 33 25 18 29
3570.0 24 30 24 23 30 38 13 12 6 16
3610.0 36 43 44 46 37 63 57 54 63 64
3650.0 75 72 73 54 52 76 58 67 52 64
3690.0 53 64 64 61 54 64 73 61 41 74
3730.0 42 55 56 57 44 30 57 25 30 48
3770.0 22 12 17 20 19 42 19 35 35 45
3810.0 42 40 26 43 22 24 40 42 31 14
3850.0 32 30 40 36 41 30 25 9 41 51
3890.0 52 47 23 36 40 36 25 35 67 25
3930.0 46 38 39 62 47 23 47 44 55 34
##END=
