##TITLE=Chloromethyl thiocyanate
##JCAMP-DX=4.24
##DATA TYPE=INFRARED SPECTRUM
##ORIGIN=Sadtler Research Labs Under US-EPA Contract
##OWNER=NIST Standard Reference Data Program
##CAS REGISTRY NO=3268-79-9
##MOLFORM=C 2 H 2 Cl N S
##XUNITS=1/CM
##YUNITS=ABSORBANCE
##XFACTOR=1.0
##YFACTOR=0.000083063
##DELTAX=4.0
##FIRSTX=450.0
##LASTX=3966.0
##FIRSTY=0.006562
##MAXX=3966
##MINX=450
##MAXY=0.83063
##MINY=0
##NPOINTS=880
##XYDATA=(X++(Y..Y))
450.0 79 124 166 95 110 88 42 18 21 16
490.0 15 28 26 42 12 19 18 20 42 17
530.0 27 13 35 35 44 48 27 42 57 44
570.0 41 51 61 80 91 79 92 120 160 183
610.0 174 168 164 176 144 129 134 166 219 273
650.0 349 431 494 492 444 511 474 456 464 461
690.0 466 437 465 483 560 733 1091 1615 2536 3925
730.0 5767 7647 9001 9569 10000 9582 8857 6191 3553 2336
770.0 1806 1173 603 339 250 189 149 115 99 82
810.0 77 74 74 76 77 79 93 106 148 206
850.0 282 396 529 610 659 689 668 622 453 321
890.0 244 187 146 123 92 82 73 58 44 30
930.0 29 28 18 9 17 9 7 8 6 6
970.0 5 2 3 7 7 14 15 17 24 22
1010.0 23 18 22 17 14 14 15 12 9 9
1050.0 0 1 3 5 5 6 7 7 5 8
1090.0 8 11 10 11 15 18 20 19 19 25
1130.0 27 34 43 58 84 114 105 123 97 101
1170.0 80 54 46 45 55 81 92 97 113 135
1210.0 169 259 521 1179 2565 4792 5790 4927 5382 5369
1250.0 4605 2068 621 209 113 76 55 46 47 45
1290.0 47 46 48 47 50 44 44 37 40 39
1330.0 37 34 28 34 34 36 39 37 38 37
1370.0 46 49 63 85 116 161 210 275 323 354
1410.0 537 361 321 298 240 191 140 127 81 64
1450.0 52 43 60 41 51 45 53 46 52 39
1490.0 42 44 47 39 52 45 44 40 38 33
1530.0 16 28 19 25 19 21 23 16 22 15
1570.0 19 16 30 16 19 13 16 11 13 10
1610.0 14 11 17 14 8 19 8 13 8 18
1650.0 0 32 8 13 12 18 5 16 6 22
1690.0 12 17 18 25 16 23 17 23 25 30
1730.0 28 32 25 25 24 21 29 28 26 27
1770.0 30 25 26 25 30 25 26 19 23 22
1810.0 22 15 20 13 14 9 6 11 7 13
1850.0 9 11 9 12 9 8 10 12 14 13
1890.0 11 10 13 12 11 10 9 12 8 11
1930.0 12 10 11 10 10 11 13 13 14 15
1970.0 16 19 18 21 21 20 23 22 27 29
2010.0 32 34 39 39 35 33 33 33 27 25
2050.0 25 27 30 33 35 37 37 35 32 28
2090.0 25 27 30 30 29 33 32 32 32 36
2130.0 38 46 55 73 104 163 257 390 532 624
2170.0 645 641 615 497 348 172 75 47 36 33
2210.0 34 40 47 54 65 82 99 118 145 164
2250.0 188 203 215 200 180 168 198 216 229 223
2290.0 201 171 138 107 93 87 78 75 75 78
2330.0 76 71 66 67 68 60 50 54 44 58
2370.0 62 56 54 53 44 32 29 24 17 12
2410.0 9 8 6 7 11 12 12 15 14 14
2450.0 18 20 18 22 19 27 26 20 21 17
2490.0 11 6 6 9 11 9 9 14 13 17
2530.0 19 25 35 41 49 58 62 59 50 44
2570.0 35 27 20 19 20 15 17 18 21 24
2610.0 23 28 27 31 32 35 36 48 51 53
2650.0 56 55 55 44 26 27 18 9 4 5
2690.0 3 7 5 2 4 2 1 3 0 4
2730.0 0 0 1 5 4 7 5 1 9 5
2770.0 6 8 9 11 10 13 20 24 26 29
2810.0 31 36 34 41 38 48 49 54 61 67
2850.0 73 76 80 78 77 64 52 43 33 31
2890.0 25 27 25 26 31 34 35 43 52 64
2930.0 71 77 79 92 113 145 190 249 337 426
2970.0 452 482 457 440 367 282 203 141 100 76
3010.0 68 71 80 103 120 116 109 124 111 85
3050.0 67 51 39 27 25 18 22 19 21 20
3090.0 22 25 23 21 14 10 12 10 11 6
3130.0 10 6 3 6 3 3 0 4 4 4
3170.0 3 4 6 2 3 7 5 11 9 8
3210.0 6 6 4 3 5 1 1 6 9 8
3250.0 5 5 4 6 5 11 9 8 1 4
3290.0 4 6 4 3 7 2 5 4 8 6
3330.0 12 10 9 10 12 7 9 12 5 12
3370.0 9 11 12 6 8 5 11 13 11 13
3410.0 13 18 18 16 16 23 16 10 11 12
3450.0 2 6 8 10 4 10 16 17 18 16
3490.0 18 23 26 25 25 31 35 31 32 28
3530.0 23 28 34 30 32 26 33 15 34 13
3570.0 25 18 14 11 10 23 16 3 6 11
3610.0 27 22 22 28 9 21 9 7 3 6
3650.0 16 14 21 16 14 26 21 23 12 20
3690.0 23 15 18 27 29 23 25 24 24 29
3730.0 28 20 25 19 43 22 32 8 14 13
3770.0 17 25 26 31 20 22 20 17 23 27
3810.0 21 10 18 31 17 22 17 34 23 29
3850.0 14 36 21 18 17 21 24 22 21 33
3890.0 25 43 20 37 34 37 24 31 20 6
3930.0 5 4 12 10 20 22 9 6 16 13
##END=
