##TITLE=Benzene, 1,5-difluoro-2,4-dinitro-
##JCAMP-DX=4.24
##DATA TYPE=INFRARED SPECTRUM
##ORIGIN=Sadtler Research Labs Under US-EPA Contract
##OWNER=NIST Standard Reference Data Program
##CAS REGISTRY NO=327-92-4
##MOLFORM=C 6 H 2 F 2 N 2 O 4
##XUNITS=1/CM
##YUNITS=ABSORBANCE
##XFACTOR=1.0
##YFACTOR=0.000060690
##DELTAX=4.0
##FIRSTX=450.0
##LASTX=3966.0
##FIRSTY=0.000000
##MAXX=3966
##MINX=450
##MAXY=0.6069
##MINY=0
##NPOINTS=880
##XYDATA=(X++(Y..Y))
450.0 0 76 178 135 150 124 95 66 97 104
490.0 86 58 50 44 64 59 86 58 67 42
530.0 62 33 67 31 66 65 64 71 121 123
570.0 171 228 327 480 656 693 672 580 409 287
610.0 242 215 220 209 255 306 418 617 867 1053
650.0 1108 1053 968 872 819 773 702 642 603 567
690.0 552 554 612 738 831 837 794 666 581 560
730.0 571 618 670 688 699 668 602 509 402 337
770.0 272 249 198 175 141 133 118 117 123 138
810.0 167 176 265 406 766 1062 1083 992 703 525
850.0 703 999 1517 1566 1177 790 417 219 182 180
890.0 202 254 344 457 607 741 782 731 603 463
930.0 332 257 209 181 182 168 146 146 151 164
970.0 172 168 181 182 189 189 181 192 203 202
1010.0 232 262 287 336 393 480 623 920 1421 1967
1050.0 2176 1954 1366 809 520 379 316 272 228 208
1090.0 181 167 138 130 143 174 202 208 213 222
1130.0 248 284 360 459 577 718 969 1567 2344 2732
1170.0 2519 1774 1044 699 549 461 388 343 300 260
1210.0 231 221 218 224 244 260 284 305 335 378
1250.0 430 471 488 502 523 564 628 740 951 1299
1290.0 1797 2409 2993 3347 3325 2989 2512 2134 2222 2849
1330.0 4198 6319 8649 10000 9651 7799 5525 3869 2670 1851
1370.0 1323 1026 871 777 685 621 579 562 589 603
1410.0 600 596 553 535 483 466 431 430 438 491
1450.0 545 596 679 770 853 945 986 1047 1188 1442
1490.0 1890 2391 2566 2399 1943 1502 1353 1414 1652 2033
1530.0 2451 2843 3135 3258 3651 4500 5955 7203 7657 7068
1570.0 5729 4581 4165 4089 4110 4015 3933 4061 4490 5243
1610.0 6159 6979 7550 7710 7593 6809 5733 4270 2925 1900
1650.0 1292 982 813 696 595 497 382 318 237 191
1690.0 174 169 155 164 185 214 240 236 233 210
1730.0 187 168 156 140 123 110 130 119 127 121
1770.0 116 95 104 90 92 78 81 82 81 97
1810.0 88 91 87 87 78 75 65 68 49 50
1850.0 44 46 43 45 38 29 40 37 44 40
1890.0 40 45 54 66 66 65 54 49 39 39
1930.0 40 35 41 31 36 32 34 31 37 30
1970.0 34 34 33 36 38 32 34 39 37 38
2010.0 39 37 38 41 45 48 51 51 52 49
2050.0 47 41 38 39 34 35 33 35 34 32
2090.0 30 37 34 34 35 32 35 34 33 31
2130.0 32 31 30 29 28 29 33 29 35 35
2170.0 37 41 38 40 39 42 40 43 43 42
2210.0 43 42 41 40 36 39 35 36 34 37
2250.0 31 29 29 28 32 30 34 35 36 39
2290.0 42 42 51 53 56 61 66 67 83 86
2330.0 84 88 87 111 115 113 136 114 114 90
2370.0 92 96 98 90 78 74 70 63 58 55
2410.0 51 53 52 52 54 53 48 51 53 52
2450.0 60 65 72 82 89 86 84 75 66 58
2490.0 48 48 44 44 46 42 43 50 49 47
2530.0 49 44 44 42 41 39 42 41 43 46
2570.0 48 49 53 58 65 70 72 75 72 71
2610.0 72 70 70 73 68 71 75 74 82 88
2650.0 92 97 101 110 120 126 132 144 135 124
2690.0 103 94 82 85 84 84 90 86 90 97
2730.0 94 92 82 77 72 73 68 66 65 72
2770.0 71 86 84 82 85 87 85 93 85 77
2810.0 73 64 71 77 73 82 84 88 96 99
2850.0 107 108 115 125 138 147 154 173 191 206
2890.0 223 227 221 203 191 168 150 145 136 134
2930.0 118 114 100 97 100 88 89 78 87 74
2970.0 61 55 55 64 57 62 67 70 57 54
3010.0 61 65 59 58 60 62 58 56 69 80
3050.0 90 96 114 141 174 215 282 367 432 468
3090.0 457 418 361 314 268 219 190 170 163 160
3130.0 167 163 153 137 118 94 74 58 51 37
3170.0 35 31 31 33 34 44 36 38 35 35
3210.0 40 41 35 43 45 45 43 38 42 48
3250.0 45 45 40 43 40 44 38 34 38 41
3290.0 42 45 40 39 42 42 40 40 34 37
3330.0 36 38 40 39 36 38 40 39 37 42
3370.0 41 39 39 39 32 28 37 35 39 47
3410.0 52 45 43 48 37 50 49 51 41 44
3450.0 39 50 46 44 39 36 46 40 33 35
3490.0 41 39 41 42 36 47 29 41 51 47
3530.0 51 47 47 53 46 42 56 53 51 60
3570.0 61 52 47 48 48 56 57 56 53 40
3610.0 59 47 39 45 50 70 49 49 38 37
3650.0 56 41 53 37 42 48 44 63 32 72
3690.0 45 50 44 50 63 51 51 51 44 64
3730.0 63 67 60 66 56 51 63 42 42 48
3770.0 48 57 33 52 26 43 38 50 40 50
3810.0 39 47 64 73 28 37 43 36 55 55
3850.0 56 73 56 48 40 42 49 37 42 33
3890.0 40 46 35 46 47 48 43 68 51 48
3930.0 78 37 44 34 39 44 35 40 32 58
##END=
