##TITLE=Acetic acid, 2-methoxyethyl ester
##JCAMP-DX=4.24
##DATA TYPE=INFRARED SPECTRUM
##ORIGIN=Sadtler Research Labs Under US-EPA Contract
##OWNER=NIST Standard Reference Data Program
##CAS REGISTRY NO=32718-56-2
##MOLFORM=C 5 H 10 O 3
##XUNITS=1/CM
##YUNITS=ABSORBANCE
##XFACTOR=1.0
##YFACTOR=0.000091351
##DELTAX=4.0
##FIRSTX=450.0
##LASTX=3966.0
##FIRSTY=0.000000
##MAXX=3966
##MINX=450
##MAXY=0.91351
##MINY=0
##NPOINTS=880
##XYDATA=(X++(Y..Y))
450.0 0 29 79 72 25 94 197 166 254 288
490.0 228 208 20 193 142 289 125 155 156 105
530.0 223 257 145 172 229 176 161 111 318 217
570.0 153 87 73 149 88 146 174 243 370 349
610.0 284 336 280 287 284 301 344 278 380 377
650.0 281 276 176 219 292 243 253 157 146 158
690.0 158 238 231 169 173 134 215 229 190 218
730.0 127 163 156 228 233 238 116 135 144 164
770.0 181 195 145 146 128 144 222 208 178 158
810.0 184 201 187 213 163 172 338 315 278 362
850.0 394 430 391 352 394 357 277 223 209 156
890.0 156 186 127 160 189 229 296 337 396 484
930.0 491 504 541 537 452 362 374 388 264 245
970.0 291 297 376 341 404 410 482 471 512 461
1010.0 456 467 535 646 830 1013 1269 1484 1727 1863
1050.0 2112 2292 2501 2598 2548 2433 2196 1912 1655 1513
1090.0 1415 1325 1262 1245 1211 1231 1230 1381 1615 1965
1130.0 2377 2787 3038 3076 2880 2446 1934 1574 1320 1123
1170.0 990 913 881 930 1015 1224 1545 1885 2148 2420
1210.0 2749 3184 3982 5375 7163 8744 9808 10000 9178 7520
1250.0 5687 4216 3186 2509 2076 1809 1632 1487 1356 1213
1290.0 1042 923 783 628 513 414 349 283 250 243
1330.0 239 230 247 264 301 410 607 849 1097 1417
1370.0 1699 1811 1781 1665 1476 1233 1051 936 832 731
1410.0 617 515 434 370 366 393 425 473 517 571
1450.0 650 705 747 744 700 624 543 449 371 318
1490.0 257 239 209 191 178 155 160 148 135 132
1530.0 126 123 113 103 109 101 104 100 89 94
1570.0 89 91 82 70 77 68 65 71 61 65
1610.0 62 63 65 63 73 64 71 73 79 85
1650.0 81 90 95 102 109 106 106 117 107 122
1690.0 125 135 160 181 220 257 314 366 431 547
1730.0 662 856 1153 1556 2181 3028 4155 5364 5977 6176
1770.0 6195 5381 4109 2990 2130 1492 1033 730 534 402
1810.0 318 259 217 192 161 143 130 115 104 95
1850.0 94 85 87 87 85 82 80 81 79 75
1890.0 77 78 74 76 77 75 72 67 67 67
1930.0 64 67 66 62 64 62 61 59 59 61
1970.0 64 68 68 71 69 75 78 75 75 81
2010.0 82 81 81 86 89 93 94 94 95 95
2050.0 97 95 95 96 96 95 104 101 105 105
2090.0 105 105 103 98 89 84 78 74 67 62
2130.0 63 58 56 52 52 50 48 45 44 46
2170.0 50 50 52 47 47 43 41 36 38 35
2210.0 36 33 36 35 34 39 38 37 35 36
2250.0 36 32 30 30 32 32 31 32 30 33
2290.0 32 36 34 30 35 35 33 27 24 23
2330.0 28 26 30 29 34 34 32 31 32 44
2370.0 35 36 32 28 32 28 25 26 22 30
2410.0 33 28 29 26 26 26 24 27 28 32
2450.0 32 31 32 38 37 38 36 33 33 32
2490.0 30 26 23 19 23 21 22 23 20 18
2530.0 17 17 24 25 21 20 25 24 26 25
2570.0 28 28 31 31 34 36 34 41 44 44
2610.0 38 44 38 40 38 38 37 35 40 40
2650.0 41 38 38 37 40 45 48 41 46 48
2690.0 49 52 54 58 66 76 82 94 107 108
2730.0 119 126 127 122 127 124 121 127 123 127
2770.0 135 144 158 167 187 209 231 272 318 385
2810.0 468 588 730 878 985 1045 1057 1034 989 966
2850.0 974 987 1002 1030 1074 1132 1206 1296 1383 1455
2890.0 1505 1507 1479 1436 1393 1319 1263 1235 1242 1285
2930.0 1354 1400 1428 1446 1445 1448 1443 1424 1379 1330
2970.0 1279 1212 1168 1152 1186 1253 1270 1206 1102 932
3010.0 710 528 422 343 297 267 245 228 216 202
3050.0 192 191 178 170 167 166 152 143 130 123
3090.0 121 112 102 94 88 84 83 76 60 61
3130.0 61 52 51 48 48 38 41 39 35 34
3170.0 31 34 30 34 27 32 26 28 24 19
3210.0 25 28 28 24 25 23 20 24 19 30
3250.0 33 26 24 27 31 17 25 35 25 25
3290.0 35 30 24 29 22 28 28 29 24 25
3330.0 28 25 31 27 33 24 31 24 29 35
3370.0 17 20 26 35 24 26 28 26 27 28
3410.0 27 22 29 23 32 29 21 31 28 30
3450.0 36 27 24 33 26 28 31 29 29 37
3490.0 55 67 66 73 86 86 84 79 70 60
3530.0 53 57 40 29 37 29 26 32 37 38
3570.0 34 28 24 29 34 25 22 37 44 33
3610.0 23 35 30 39 29 23 36 47 33 19
3650.0 38 36 41 39 32 38 25 24 29 33
3690.0 35 35 39 25 27 34 26 38 35 30
3730.0 32 24 39 33 36 21 28 22 27 30
3770.0 40 33 32 32 39 34 32 39 34 32
3810.0 19 45 32 20 20 21 53 50 17 19
3850.0 31 43 38 38 40 43 56 40 45 48
3890.0 45 61 39 67 18 46 52 37 46 53
3930.0 29 19 55 51 70 41 35 71 66 57
##END=
