##TITLE=3-Methyl-p-anisaldehyde
##JCAMP-DX=4.24
##DATA TYPE=INFRARED SPECTRUM
##ORIGIN=Sadtler Research Labs Under US-EPA Contract
##OWNER=NIST Standard Reference Data Program
##CAS REGISTRY NO=32723-67-4
##MOLFORM=C 9 H 10 O 2
##XUNITS=1/CM
##YUNITS=ABSORBANCE
##XFACTOR=1.0
##YFACTOR=0.000067798
##DELTAX=4.0
##FIRSTX=450.0
##LASTX=3966.0
##FIRSTY=0.012271
##MAXX=3966
##MINX=450
##MAXY=0.67798
##MINY=0
##NPOINTS=880
##XYDATA=(X++(Y..Y))
450.0 181 155 112 114 91 86 26 116 124 119
490.0 149 192 163 132 157 73 39 57 99 76
530.0 74 108 164 183 169 186 165 193 242 182
570.0 136 98 84 94 80 58 50 59 80 108
610.0 245 370 445 481 411 394 522 577 542 404
650.0 176 66 27 6 8 16 35 16 22 29
690.0 69 43 55 47 19 32 33 54 86 165
730.0 358 560 595 631 469 331 254 231 223 299
770.0 412 485 531 482 448 416 454 514 690 925
810.0 928 978 863 606 431 259 167 99 65 35
850.0 33 35 12 32 45 72 98 126 187 235
890.0 229 226 223 241 194 140 125 117 144 208
930.0 288 329 347 336 366 428 470 450 368 248
970.0 170 144 143 142 149 169 181 200 206 200
1010.0 206 250 329 480 722 1030 1339 1477 1409 1190
1050.0 793 451 284 207 162 154 144 145 160 177
1090.0 222 270 366 513 763 1188 1905 2977 4120 4545
1130.0 4076 2988 1587 776 659 683 784 806 710 563
1170.0 403 318 317 324 306 281 228 180 174 208
1210.0 285 397 538 662 782 875 964 1240 1953 3470
1250.0 5958 8523 10000 9598 7287 4522 2586 1735 1396 1198
1290.0 1049 923 853 894 1060 1251 1406 1414 1234 971
1330.0 658 405 300 255 227 224 227 257 303 362
1370.0 449 508 550 617 655 668 631 513 364 247
1410.0 206 226 305 341 377 392 422 562 788 911
1450.0 976 1016 948 1071 1255 1197 1142 1009 839 922
1490.0 1251 1767 2476 3039 3062 2648 1789 969 532 331
1530.0 262 227 211 215 205 202 214 238 261 299
1570.0 381 513 761 1129 1531 1967 2483 3249 4063 4505
1610.0 4224 3302 2049 1160 725 473 368 280 217 172
1650.0 181 159 167 177 213 256 312 374 463 617
1690.0 843 1253 1868 2802 4031 5584 7170 7691 7081 5542
1730.0 3265 1752 908 513 318 249 211 193 183 161
1770.0 158 131 122 113 124 119 124 122 119 102
1810.0 95 87 76 82 74 79 64 64 60 67
1850.0 66 67 77 79 89 86 81 80 92 103
1890.0 104 102 89 75 64 56 49 48 47 44
1930.0 44 48 49 49 49 48 45 41 38 40
1970.0 41 38 40 42 47 57 64 77 92 114
2010.0 124 119 101 81 67 59 57 62 64 66
2050.0 74 76 87 95 105 108 109 102 83 68
2090.0 52 38 34 32 33 34 31 26 27 30
2130.0 32 34 33 36 35 38 36 36 34 42
2170.0 43 39 30 29 32 32 38 41 43 42
2210.0 42 45 46 39 41 43 40 43 45 53
2250.0 57 61 64 63 57 43 38 29 25 22
2290.0 26 23 16 21 13 5 8 0 0 0
2330.0 6 19 28 32 43 53 18 28 31 21
2370.0 35 55 56 53 51 42 39 40 40 38
2410.0 38 38 31 31 27 29 29 33 36 38
2450.0 37 35 33 33 34 33 30 29 34 33
2490.0 36 41 45 57 70 82 87 90 82 80
2530.0 75 75 75 78 74 75 73 71 83 85
2570.0 104 110 114 109 103 90 78 81 89 89
2610.0 87 90 94 89 93 95 93 99 107 107
2650.0 111 107 107 114 120 117 123 125 138 159
2690.0 201 277 397 583 823 1056 1269 1408 1384 1245
2730.0 1053 812 596 463 393 367 366 383 421 461
2770.0 496 499 485 469 472 546 656 783 905 1009
2810.0 1039 1037 942 810 679 570 533 586 716 823
2850.0 843 797 666 520 443 413 396 374 356 342
2890.0 340 358 394 446 519 612 695 770 827 823
2930.0 853 907 983 1091 1205 1249 1269 1266 1244 1212
2970.0 1073 882 757 646 581 527 499 502 568 770
3010.0 992 1041 969 743 507 392 336 307 295 294
3050.0 290 289 276 250 237 227 239 245 252 243
3090.0 232 210 189 170 163 152 140 127 112 99
3130.0 82 64 56 58 49 41 36 31 29 38
3170.0 39 38 40 38 43 39 35 34 28 32
3210.0 36 34 27 20 30 28 21 22 14 20
3250.0 19 21 11 15 13 14 17 16 11 12
3290.0 15 18 23 22 14 13 20 26 24 14
3330.0 16 23 21 23 13 6 11 20 21 23
3370.0 15 10 14 27 23 40 56 68 92 104
3410.0 102 100 90 69 46 35 24 18 13 8
3450.0 17 21 15 19 18 25 16 20 9 17
3490.0 20 20 11 14 18 10 6 16 22 9
3530.0 10 2 18 10 10 18 7 21 5 0
3570.0 14 12 7 6 14 8 19 13 18 13
3610.0 11 4 7 18 18 4 11 11 10 2
3650.0 7 19 22 15 18 18 7 6 16 5
3690.0 22 27 18 6 17 7 15 13 20 14
3730.0 8 11 19 19 20 15 16 20 13 19
3770.0 20 7 19 27 29 16 26 15 16 24
3810.0 21 20 20 20 10 9 25 21 22 30
3850.0 11 11 22 35 37 16 16 16 9 15
3890.0 34 12 19 32 19 17 25 8 19 26
3930.0 17 25 24 24 24 14 30 22 12 23
##END=
