##TITLE=2(1H)-Pyridinone, 6-methyl-
##JCAMP-DX=4.24
##DATA TYPE=INFRARED SPECTRUM
##ORIGIN=Sadtler Research Labs Under US-EPA Contract
##OWNER=NIST Standard Reference Data Program
##CAS REGISTRY NO=3279-76-3
##MOLFORM=C 6 H 7 N O
##XUNITS=1/CM
##YUNITS=ABSORBANCE
##XFACTOR=1.0
##YFACTOR=0.000074548
##DELTAX=4.0
##FIRSTX=450.0
##LASTX=3966.0
##FIRSTY=0.123378
##MAXX=3966
##MINX=450
##MAXY=0.74548
##MINY=0
##NPOINTS=880
##XYDATA=(X++(Y..Y))
450.0 1655 1863 1943 2410 2430 2397 2020 2058 1985 2248
490.0 2624 1555 1342 1175 956 732 606 447 365 354
530.0 417 440 388 425 476 518 611 673 811 572
570.0 245 269 169 114 51 52 34 28 61 109
610.0 108 16 74 36 33 30 55 75 109 228
650.0 300 453 515 655 662 1209 985 645 572 466
690.0 369 270 201 185 237 301 392 543 724 686
730.0 613 715 694 459 357 315 308 402 607 999
770.0 1431 1936 2281 3193 4723 4034 2693 2405 1983 1541
810.0 938 592 346 252 205 222 231 197 359 338
850.0 241 226 203 168 173 125 114 129 158 235
890.0 318 391 429 472 479 476 377 304 263 229
930.0 202 148 128 109 109 78 68 71 82 107
970.0 151 262 405 650 768 808 940 976 923 672
1010.0 419 311 249 240 242 229 226 221 237 193
1050.0 213 224 239 295 390 535 657 743 731 752
1090.0 721 636 477 322 252 228 290 344 657 1216
1130.0 2326 3041 3359 3649 3671 3774 3314 2511 2341 2478
1170.0 3597 4686 4729 4858 4922 4971 4179 2652 1785 1454
1210.0 1323 1219 1067 979 858 746 616 508 405 340
1250.0 331 369 456 594 790 1035 1384 1721 1969 2167
1290.0 2437 2552 2293 2086 1927 1658 1398 1191 1032 934
1330.0 914 872 608 350 223 147 103 82 90 114
1370.0 168 220 277 337 411 457 471 501 535 567
1410.0 639 830 1106 1622 2286 3064 3791 4352 4706 4860
1450.0 4776 4563 4277 4176 4258 4314 4125 3824 3401 2675
1490.0 2017 1589 1199 994 896 865 864 846 888 1018
1530.0 1163 1289 1402 1532 1761 2033 2334 2665 3104 3609
1570.0 4191 4752 5319 5664 5993 6284 6181 5922 5605 5463
1610.0 5260 4971 4832 5044 4935 4446 4034 3329 2777 2188
1650.0 1720 1545 1595 1830 2350 3505 5141 6119 5885 5123
1690.0 5556 7185 8828 9626 9805 10000 9999 8808 6581 5082
1730.0 4139 3599 3140 2736 2375 2142 1980 1706 1341 1005
1770.0 813 673 595 481 402 347 328 307 275 266
1810.0 222 173 120 90 65 54 53 55 45 34
1850.0 43 34 28 14 13 2 11 11 12 6
1890.0 5 9 10 18 19 29 28 37 31 47
1930.0 63 74 94 97 107 106 111 98 76 50
1970.0 28 18 9 12 5 6 0 5 12 13
2010.0 8 3 4 1 3 1 7 8 15 19
2050.0 21 20 22 25 16 19 16 14 9 7
2090.0 6 6 6 9 13 14 15 12 10 8
2130.0 6 0 2 1 5 13 15 16 14 12
2170.0 11 14 12 13 14 14 21 22 22 17
2210.0 22 21 19 16 19 20 16 17 10 13
2250.0 7 6 7 9 9 15 25 27 37 45
2290.0 54 64 79 87 93 106 108 102 93 80
2330.0 74 64 46 41 66 66 61 59 53 81
2370.0 90 91 107 111 112 100 100 101 104 108
2410.0 114 117 116 122 121 123 129 133 137 138
2450.0 139 138 139 129 128 124 122 119 110 108
2490.0 112 123 123 122 124 124 122 115 102 101
2530.0 102 101 105 104 106 114 111 117 121 125
2570.0 130 129 131 134 136 137 142 147 147 149
2610.0 154 158 161 164 162 161 164 161 162 167
2650.0 170 171 177 179 181 188 182 190 188 189
2690.0 189 185 189 189 188 183 187 196 203 211
2730.0 224 238 252 271 282 291 296 304 304 312
2770.0 309 318 320 331 338 343 356 369 377 384
2810.0 392 398 401 405 414 421 428 434 447 459
2850.0 477 512 540 574 601 621 629 626 618 604
2890.0 602 604 614 639 672 719 789 883 998 1125
2930.0 1221 1287 1294 1262 1196 1114 994 910 914 857
2970.0 837 845 799 778 779 779 790 787 781 774
3010.0 764 733 704 699 728 774 835 915 986 1038
3050.0 1070 1074 1073 1060 1036 992 960 948 943 937
3090.0 896 849 792 729 662 569 501 453 421 401
3130.0 382 365 355 345 336 322 310 302 286 271
3170.0 260 245 231 223 215 207 190 181 170 164
3210.0 153 138 136 126 116 113 111 106 110 106
3250.0 105 107 106 110 102 110 102 97 99 106
3290.0 107 99 103 93 92 79 78 77 72 73
3330.0 67 61 53 55 50 52 45 41 41 41
3370.0 46 48 48 55 69 82 121 176 275 404
3410.0 609 826 992 1008 895 944 921 647 389 216
3450.0 123 72 46 31 27 30 24 17 25 20
3490.0 17 26 17 13 10 25 24 31 20 32
3530.0 39 33 35 27 28 36 52 48 76 137
3570.0 280 498 937 1652 2481 2968 2324 2331 3077 2397
3610.0 1457 811 408 206 108 80 48 49 40 53
3650.0 55 70 67 48 50 30 41 18 25 16
3690.0 18 8 20 28 27 28 24 27 24 19
3730.0 23 34 23 25 31 16 35 35 38 25
3770.0 29 31 36 35 33 37 25 26 35 42
3810.0 30 52 36 43 38 36 36 31 42 30
3850.0 25 20 37 19 36 32 14 34 37 52
3890.0 26 46 31 56 52 41 25 20 22 40
3930.0 23 39 48 37 36 44 40 56 44 34
##END=
