##TITLE=Benzenamine, 3,5-bis(trifluoromethyl)-
##JCAMP-DX=4.24
##DATA TYPE=INFRARED SPECTRUM
##ORIGIN=Sadtler Research Labs Under US-EPA Contract
##OWNER=NIST Standard Reference Data Program
##CAS REGISTRY NO=328-74-5
##MOLFORM=C 8 H 5 F 6 N
##XUNITS=1/CM
##YUNITS=ABSORBANCE
##XFACTOR=1.0
##YFACTOR=0.000149066
##DELTAX=4.0
##FIRSTX=450.0
##LASTX=3966.0
##FIRSTY=0.020124
##MAXX=3966
##MINX=450
##MAXY=1.49066
##MINY=0
##NPOINTS=880
##XYDATA=(X++(Y..Y))
450.0 135 126 119 114 93 102 135 85 146 97
490.0 143 27 97 130 63 117 174 164 112 179
530.0 139 167 86 45 93 98 78 73 116 56
570.0 80 51 77 71 60 47 19 88 57 85
610.0 65 86 83 61 108 34 11 40 62 84
650.0 126 154 208 310 451 705 695 926 1267 1302
690.0 1062 616 488 580 458 359 284 251 295 300
730.0 312 248 177 101 114 96 88 81 62 60
770.0 30 53 29 47 40 53 61 66 75 65
810.0 85 80 98 95 111 115 133 202 280 387
850.0 400 357 259 284 425 687 831 709 505 295
890.0 165 90 82 59 65 68 76 86 92 120
930.0 165 289 504 730 793 673 383 165 85 54
970.0 58 47 65 58 67 78 133 181 190 175
1010.0 107 69 47 46 35 33 40 40 44 45
1050.0 58 62 83 114 161 206 245 262 236 199
1090.0 173 186 177 181 165 170 206 282 360 400
1130.0 459 646 1161 2216 3976 6411 8445 7045 4406 2247
1170.0 1355 1960 3450 5264 6316 5560 4117 2410 1194 667
1210.0 486 402 346 286 246 233 261 322 393 437
1250.0 423 395 383 442 674 1287 3129 6847 10000 9134
1290.0 4991 2291 1115 525 275 182 159 147 151 156
1330.0 144 136 110 121 117 127 139 152 182 241
1370.0 341 501 859 1496 2409 3219 3444 2906 1838 922
1410.0 397 197 107 106 86 90 69 80 86 107
1450.0 143 223 375 557 664 646 514 401 360 303
1490.0 227 177 117 97 68 52 55 55 41 49
1530.0 44 57 54 48 53 61 56 53 68 78
1570.0 88 106 112 118 107 98 93 102 134 178
1610.0 250 352 471 605 774 997 1206 1320 1226 932
1650.0 579 318 189 142 115 103 87 90 67 58
1690.0 58 55 44 36 48 60 64 51 72 81
1730.0 77 69 80 93 104 123 130 118 93 81
1770.0 65 62 67 59 56 46 44 40 35 40
1810.0 36 36 37 40 32 30 27 33 23 22
1850.0 28 32 31 29 27 19 31 30 34 33
1890.0 29 30 30 36 34 41 37 40 35 37
1930.0 39 37 35 30 36 33 32 36 26 28
1970.0 29 31 26 29 30 29 26 29 28 26
2010.0 24 20 17 13 14 8 14 6 7 3
2050.0 0 4 4 15 19 32 33 32 32 30
2090.0 29 29 33 30 32 31 33 32 32 34
2130.0 33 35 29 30 27 32 30 31 27 29
2170.0 29 32 34 34 40 43 44 40 36 33
2210.0 32 32 30 35 33 36 37 40 40 41
2250.0 40 35 36 32 34 33 37 37 42 43
2290.0 48 47 49 50 46 46 49 55 51 48
2330.0 37 33 29 7 1 35 28 33 0 0
2370.0 0 0 0 0 3 21 26 30 32 31
2410.0 31 28 27 24 24 25 24 24 21 21
2450.0 18 20 20 19 18 20 15 15 16 15
2490.0 15 16 18 17 18 13 13 8 11 15
2530.0 14 12 10 13 12 13 14 13 16 18
2570.0 18 15 14 17 16 12 12 14 10 14
2610.0 13 19 20 21 23 31 31 36 43 43
2650.0 46 44 42 40 46 54 51 56 50 45
2690.0 35 21 12 11 7 8 11 6 8 5
2730.0 8 4 3 4 7 2 2 4 2 3
2770.0 7 2 1 8 1 2 7 6 3 4
2810.0 7 4 7 5 8 3 7 1 4 10
2850.0 11 9 12 17 22 28 26 26 24 24
2890.0 26 18 24 14 20 13 18 21 26 31
2930.0 36 44 48 53 51 46 40 37 40 43
2970.0 42 39 35 31 22 21 21 22 21 26
3010.0 33 28 27 24 20 21 22 25 31 43
3050.0 63 76 84 76 53 39 43 35 25 34
3090.0 30 24 26 26 24 26 23 26 24 26
3130.0 22 14 23 16 26 25 22 26 20 26
3170.0 21 22 21 25 26 25 25 27 40 31
3210.0 35 45 56 55 57 54 47 52 46 47
3250.0 43 52 41 43 31 35 48 42 41 40
3290.0 48 43 43 43 41 43 49 47 47 37
3330.0 48 54 44 48 51 48 51 54 58 56
3370.0 61 56 55 58 69 69 66 77 97 122
3410.0 148 185 220 242 247 236 250 269 235 202
3450.0 119 74 70 64 62 54 64 66 66 78
3490.0 91 94 121 138 140 131 116 114 111 136
3530.0 162 151 106 51 25 35 36 35 36 34
3570.0 31 32 40 40 36 36 30 25 36 41
3610.0 32 29 22 25 24 25 34 32 33 29
3650.0 14 13 22 35 19 37 20 34 15 22
3690.0 41 19 28 16 24 30 31 32 12 19
3730.0 22 29 17 27 29 26 31 21 31 28
3770.0 11 19 32 42 29 17 24 7 21 17
3810.0 16 33 26 18 25 24 19 24 41 29
3850.0 19 44 46 36 48 28 17 1 21 21
3890.0 32 19 18 22 20 31 18 12 28 22
3930.0 33 28 17 45 25 27 62 55 18 20
##END=
