##TITLE=Acetanilide, 2,4'-dichloro-,
##JCAMP-DX=4.24
##DATA TYPE=INFRARED SPECTRUM
##ORIGIN=Sadtler Research Labs Under US-EPA Contract
##OWNER=NIST Standard Reference Data Program
##CAS REGISTRY NO=3289-75-6
##MOLFORM=C 8 H 7 Cl 2 N O
##XUNITS=1/CM
##YUNITS=ABSORBANCE
##XFACTOR=1.0
##YFACTOR=0.000039899
##DELTAX=4.0
##FIRSTX=450.0
##LASTX=3966.0
##FIRSTY=0.016119
##MAXX=3966
##MINX=450
##MAXY=0.39899
##MINY=0
##NPOINTS=880
##XYDATA=(X++(Y..Y))
450.0 404 135 2 153 113 112 261 259 363 444
490.0 595 740 893 891 786 502 414 350 333 338
530.0 249 338 372 424 452 488 516 472 401 312
570.0 296 210 204 176 136 150 215 239 292 271
610.0 251 220 228 177 190 167 193 171 140 142
650.0 139 116 98 73 115 169 149 105 96 84
690.0 95 114 138 243 375 598 777 839 717 590
730.0 440 360 249 208 246 241 329 458 645 940
770.0 1261 1352 1183 825 525 433 442 532 643 780
810.0 865 951 1083 1269 1457 1531 1392 1096 775 511
850.0 317 221 145 105 88 80 60 33 34 17
890.0 20 41 26 21 41 41 60 73 72 80
930.0 73 53 58 41 56 43 39 27 22 39
970.0 40 32 21 42 39 59 53 90 139 291
1010.0 716 987 841 443 163 151 126 121 134 144
1050.0 147 143 154 168 201 245 304 417 628 1111
1090.0 1942 2696 2751 2100 1314 944 837 758 638 481
1130.0 387 353 335 324 316 305 307 317 337 367
1170.0 433 551 598 571 467 428 455 484 533 594
1210.0 668 758 849 953 1144 1459 1780 1814 1494 1182
1250.0 1089 1260 1473 1482 1422 1446 1635 1838 1797 1478
1290.0 1047 828 946 1396 1815 1825 1425 966 722 632
1330.0 634 636 606 531 443 395 363 365 363 375
1370.0 413 444 502 600 798 1127 1683 2248 2373 1855
1410.0 1182 825 841 905 894 745 618 567 527 563
1450.0 616 694 713 725 751 837 988 1281 1863 3028
1490.0 4959 6842 7648 7665 7620 8106 8894 9640 10000 9254
1530.0 7640 5399 3538 2399 1871 1555 1228 1005 837 773
1570.0 775 838 910 1130 1544 2211 2728 2695 2028 1323
1610.0 924 746 680 627 588 551 497 455 421 388
1650.0 364 382 387 397 433 474 520 566 612 674
1690.0 738 897 1144 1631 2436 3664 5181 6336 6745 6276
1730.0 4891 3458 2322 1584 1117 892 757 682 625 569
1770.0 499 435 408 385 371 337 314 294 265 239
1810.0 198 183 164 146 134 111 114 99 97 94
1850.0 102 112 123 125 125 115 119 122 124 120
1890.0 110 102 90 85 79 72 60 58 40 42
1930.0 32 30 33 23 22 27 23 23 20 21
1970.0 14 20 11 12 15 14 16 16 15 18
2010.0 15 15 16 23 29 31 36 38 36 41
2050.0 42 44 53 50 59 69 73 77 71 73
2090.0 66 61 65 57 59 61 66 60 59 50
2130.0 52 49 47 37 38 49 56 68 73 77
2170.0 80 85 86 86 79 79 76 75 71 65
2210.0 67 60 60 59 63 61 61 62 65 79
2250.0 86 102 137 177 225 279 293 290 273 249
2290.0 238 236 233 223 219 207 189 157 169 145
2330.0 150 131 110 136 155 175 191 163 174 137
2370.0 135 122 126 121 86 44 33 19 23 26
2410.0 15 21 19 18 17 27 26 23 25 28
2450.0 38 37 34 36 32 33 35 35 35 23
2490.0 20 21 18 17 11 19 18 13 19 17
2530.0 11 16 15 12 12 7 0 4 8 13
2570.0 15 12 15 13 11 18 8 10 9 8
2610.0 4 8 16 18 21 13 15 10 19 14
2650.0 14 32 22 32 26 35 36 60 49 27
2690.0 32 29 37 52 63 29 35 38 40 50
2730.0 77 38 37 38 41 58 95 34 40 30
2770.0 30 52 85 22 37 24 36 66 86 17
2810.0 45 41 51 100 64 40 47 41 68 92
2850.0 35 62 45 68 86 61 62 62 75 69
2890.0 76 66 78 66 101 77 80 78 99 145
2930.0 106 105 116 146 188 144 143 132 204 213
2970.0 174 180 214 237 179 154 173 181 152 98
3010.0 120 153 155 115 179 260 299 348 370 317
3050.0 213 165 166 162 143 169 163 160 157 175
3090.0 177 186 204 197 184 170 149 122 105 100
3130.0 94 80 72 62 58 62 52 53 58 53
3170.0 50 49 43 46 54 53 55 59 50 54
3210.0 50 62 65 61 58 51 60 55 54 60
3250.0 70 63 63 55 64 58 52 54 56 55
3290.0 53 67 53 63 57 62 65 72 71 65
3330.0 63 64 69 62 68 64 52 67 67 65
3370.0 66 77 91 99 92 111 143 164 214 289
3410.0 380 551 794 1148 1578 1837 1756 1351 880 520
3450.0 316 208 148 122 111 92 79 83 67 72
3490.0 61 49 29 41 33 45 36 32 24 23
3530.0 26 10 20 18 32 41 26 30 32 27
3570.0 40 29 45 39 47 60 42 26 29 16
3610.0 32 10 20 18 15 12 7 10 17 19
3650.0 22 18 18 22 25 18 10 1 13 21
3690.0 25 4 8 27 14 14 17 27 9 30
3730.0 31 42 34 31 40 2 11 5 21 22
3770.0 1 23 27 18 22 37 25 27 20 8
3810.0 22 20 21 24 19 27 34 28 0 20
3850.0 14 46 37 24 34 40 10 5 32 47
3890.0 38 20 28 59 34 44 39 26 25 30
3930.0 44 38 27 17 60 45 49 17 28 35
##END=
