##TITLE=Benzene, 1-isocyanato-3-(trifluoromethyl)-
##JCAMP-DX=4.24
##DATA TYPE=INFRARED SPECTRUM
##ORIGIN=Sadtler Research Labs Under US-EPA Contract
##OWNER=NIST Standard Reference Data Program
##CAS REGISTRY NO=329-01-1
##MOLFORM=C 8 H 4 F 3 N O
##XUNITS=1/CM
##YUNITS=ABSORBANCE
##XFACTOR=1.0
##YFACTOR=0.000162238
##DELTAX=4.0
##FIRSTX=450.0
##LASTX=3966.0
##FIRSTY=0.009248
##MAXX=3966
##MINX=450
##MAXY=1.62238
##MINY=0
##NPOINTS=880
##XYDATA=(X++(Y..Y))
450.0 57 98 80 66 41 47 55 34 24 45
490.0 24 40 45 28 31 32 42 38 66 40
530.0 38 29 2 9 39 47 59 66 87 109
570.0 120 146 170 157 158 162 142 159 151 168
610.0 166 236 285 240 175 183 194 221 246 309
650.0 393 458 545 589 672 810 660 551 581 632
690.0 672 864 867 638 474 350 203 211 174 161
730.0 214 297 340 342 232 138 105 91 70 91
770.0 127 177 276 416 560 657 715 601 429 303
810.0 165 102 89 82 81 87 108 164 265 420
850.0 561 621 559 423 307 248 245 289 353 425
890.0 495 501 449 354 245 147 86 49 33 17
930.0 13 7 9 13 11 12 11 11 15 22
970.0 28 26 26 27 34 49 70 85 88 78
1010.0 67 69 72 57 60 60 62 69 79 110
1050.0 160 274 458 776 1081 1214 1155 916 779 802
1090.0 794 672 529 429 393 435 514 629 755 930
1130.0 1182 1602 2239 3183 4216 4841 4972 4153 3215 2644
1170.0 2697 3302 3874 3791 3146 2243 1284 732 525 397
1210.0 325 281 268 265 266 275 269 290 445 616
1250.0 671 669 633 609 650 720 729 627 442 357
1290.0 416 564 825 1114 1343 1640 2305 3618 5111 5769
1330.0 5371 3874 2845 2336 1777 1049 485 281 213 165
1370.0 132 107 104 106 111 116 119 131 146 182
1410.0 226 274 305 308 304 298 310 333 377 401
1450.0 416 474 620 761 853 877 780 595 472 463
1490.0 510 559 623 709 810 862 810 702 566 444
1530.0 372 314 288 258 246 228 232 226 215 213
1570.0 229 249 301 359 442 541 618 656 655 665
1610.0 723 828 913 902 839 698 588 478 379 283
1650.0 222 174 152 132 127 125 119 113 119 114
1690.0 112 121 131 134 128 114 102 98 81 79
1730.0 86 93 91 97 88 83 76 73 77 72
1770.0 81 79 84 87 92 88 89 75 70 60
1810.0 56 52 45 41 31 31 21 23 20 26
1850.0 22 21 21 22 24 31 35 36 40 34
1890.0 27 21 18 18 17 19 19 23 24 21
1930.0 20 21 23 22 23 19 16 11 8 7
1970.0 8 8 10 9 10 11 9 9 8 9
2010.0 8 8 8 7 5 5 7 8 11 13
2050.0 17 21 24 26 29 31 32 33 36 40
2090.0 41 43 43 43 46 51 59 66 75 82
2130.0 92 104 120 138 159 178 202 223 243 265
2170.0 291 318 345 366 386 416 461 519 591 677
2210.0 769 854 926 1000 1087 1218 1420 1723 2138 2651
2250.0 3192 3778 4504 5468 6830 8306 9704 10000 9552 7749
2290.0 5660 3882 2784 2157 1894 1876 1783 1806 1878 1858
2330.0 1832 1764 1656 1628 1569 1392 1491 1783 1658 1605
2370.0 1351 1097 850 642 443 268 184 149 127 113
2410.0 98 89 80 78 72 68 65 60 56 53
2450.0 51 48 48 44 44 40 38 33 26 20
2490.0 18 18 14 13 13 9 7 9 6 7
2530.0 7 6 8 5 5 3 3 2 3 2
2570.0 5 5 7 8 8 10 6 6 6 6
2610.0 6 3 4 7 7 8 7 7 6 8
2650.0 9 7 8 8 7 12 11 14 12 14
2690.0 13 13 12 12 14 14 15 14 15 17
2730.0 19 20 24 23 25 25 25 24 21 20
2770.0 19 18 19 18 16 17 18 19 17 14
2810.0 15 17 18 16 17 16 16 19 21 22
2850.0 22 26 28 28 29 30 30 28 27 30
2890.0 34 35 35 37 42 45 52 54 59 65
2930.0 62 64 60 59 55 55 52 48 45 43
2970.0 44 44 46 48 48 48 48 48 51 50
3010.0 51 56 63 72 84 92 97 101 100 98
3050.0 104 109 119 132 139 143 149 152 150 143
3090.0 133 120 105 91 85 79 78 77 78 78
3130.0 74 68 60 54 48 44 39 37 37 33
3170.0 33 35 33 33 34 33 31 32 35 33
3210.0 32 38 39 34 34 36 35 32 34 31
3250.0 31 32 31 31 31 32 33 29 31 29
3290.0 31 32 30 28 31 27 27 28 30 27
3330.0 29 28 36 32 37 35 37 41 41 41
3370.0 43 44 47 52 55 56 61 66 78 90
3410.0 99 99 106 104 103 93 86 72 53 40
3450.0 32 26 23 18 15 14 13 16 25 33
3490.0 36 41 41 38 32 30 33 31 32 32
3530.0 19 9 4 8 14 6 3 6 8 12
3570.0 4 12 10 14 20 17 20 11 17 10
3610.0 13 7 7 5 3 10 10 6 9 5
3650.0 20 10 7 25 14 38 24 39 22 32
3690.0 29 24 30 30 25 23 23 14 19 8
3730.0 23 22 24 12 37 13 24 14 7 17
3770.0 23 20 12 29 26 30 14 26 11 27
3810.0 8 7 10 13 13 6 11 17 11 0
3850.0 25 12 11 14 16 16 14 9 7 14
3890.0 9 8 2 6 2 2 4 2 3 4
3930.0 5 2 4 2 2 2 2 2 2 2
##END=
