##TITLE=Hexanoic acid, 3,5,5-trimethyl-
##JCAMP-DX=4.24
##DATA TYPE=INFRARED SPECTRUM
##ORIGIN=Sadtler Research Labs Under US-EPA Contract
##OWNER=NIST Standard Reference Data Program
##CAS REGISTRY NO=3302-10-1
##MOLFORM=C 9 H 18 O 2
##XUNITS=1/CM
##YUNITS=ABSORBANCE
##XFACTOR=1.0
##YFACTOR=0.000086288
##DELTAX=4.0
##FIRSTX=450.0
##LASTX=3966.0
##FIRSTY=0.013288
##MAXX=3966
##MINX=450
##MAXY=0.86288
##MINY=0
##NPOINTS=880
##XYDATA=(X++(Y..Y))
450.0 154 91 102 205 160 110 197 196 187 144
490.0 177 201 272 337 323 354 363 382 373 414
530.0 412 432 446 508 580 733 840 990 1121 1216
570.0 1279 1236 1149 955 863 821 898 994 1176 1314
610.0 1356 1359 1279 1288 1315 1418 1355 1239 1037 814
650.0 670 556 507 412 391 334 282 262 243 253
690.0 260 310 341 363 352 335 311 269 263 248
730.0 237 211 205 187 175 124 120 78 38 50
770.0 46 37 6 30 21 46 29 28 48 30
810.0 44 69 79 87 122 126 135 160 176 184
850.0 201 213 220 244 232 239 231 241 231 234
890.0 248 255 270 272 278 265 267 270 266 266
930.0 251 235 201 185 174 173 179 214 254 323
970.0 385 410 391 331 270 229 222 223 238 265
1010.0 291 324 352 369 387 416 465 538 639 788
1050.0 976 1223 1516 1817 2087 2285 2336 2246 2068 1928
1090.0 1896 2029 2291 2662 3160 3740 4393 4906 5191 5041
1130.0 4615 4083 3626 3318 3085 2870 2613 2350 2088 1884
1170.0 1734 1667 1660 1684 1728 1748 1731 1642 1500 1320
1210.0 1169 1058 986 949 940 938 953 988 1032 1045
1250.0 986 885 788 752 757 781 796 796 781 763
1290.0 752 734 716 695 674 636 612 592 597 618
1330.0 662 723 796 864 938 1025 1148 1364 1704 2162
1370.0 2535 2682 2540 2276 1971 1716 1535 1339 1136 918
1410.0 671 541 488 517 541 580 590 585 572 566
1450.0 616 683 818 1002 1227 1405 1476 1523 1361 1135
1490.0 807 523 359 228 179 128 109 97 61 86
1530.0 56 68 46 54 39 48 49 39 42 38
1570.0 51 33 42 46 48 42 46 53 40 52
1610.0 46 52 36 54 49 41 53 40 62 30
1650.0 72 32 73 60 83 73 78 106 99 126
1690.0 130 193 160 245 284 357 417 534 734 818
1730.0 996 1067 1326 1475 1891 2207 2760 3509 4562 6142
1770.0 7337 9617 9032 8740 6616 5118 3450 2676 2057 1657
1810.0 1309 1029 776 593 474 367 309 253 226 171
1850.0 164 132 117 95 88 71 58 63 53 55
1890.0 40 50 40 40 34 36 34 31 42 31
1930.0 41 35 42 33 41 38 37 35 33 40
1970.0 30 36 28 33 30 31 29 24 24 20
2010.0 24 14 21 15 19 18 18 15 11 16
2050.0 8 13 7 9 1 3 4 2 4 0
2090.0 4 3 4 2 6 8 9 9 6 8
2130.0 3 4 0 7 4 7 5 5 6 4
2170.0 8 6 10 11 21 18 21 20 19 20
2210.0 19 22 19 22 16 19 16 18 16 14
2250.0 16 11 14 10 11 9 10 10 8 11
2290.0 8 14 10 13 12 14 7 8 12 14
2330.0 15 18 17 16 16 19 18 21 31 26
2370.0 20 27 17 19 14 14 12 13 16 19
2410.0 17 14 19 12 16 14 14 10 14 13
2450.0 13 14 14 18 11 16 16 15 16 17
2490.0 17 18 19 18 14 14 14 16 19 22
2530.0 19 20 17 17 17 21 24 24 25 24
2570.0 31 25 26 24 28 26 28 32 31 31
2610.0 32 33 31 37 36 42 42 40 43 45
2650.0 44 51 48 47 51 53 54 57 62 62
2690.0 69 77 78 79 82 88 96 103 110 120
2730.0 123 121 120 113 117 117 124 122 116 106
2770.0 96 93 90 96 100 115 125 137 150 171
2810.0 189 215 241 268 298 348 412 486 577 695
2850.0 820 957 1083 1246 1510 1890 2297 2617 2777 2788
2890.0 2756 2743 2806 2951 3142 3314 3405 3398 3310 3227
2930.0 3249 3453 3818 4327 4947 5739 6905 8379 9685 10000
2970.0 9107 7231 5311 3794 2713 1992 1506 1156 884 675
3010.0 516 403 330 273 232 203 181 169 155 143
3050.0 142 138 130 124 125 124 121 114 118 113
3090.0 113 116 109 108 107 108 105 109 106 109
3130.0 105 106 106 105 105 104 105 109 113 116
3170.0 111 117 118 117 116 119 116 109 112 113
3210.0 108 101 100 97 96 88 86 83 77 75
3250.0 69 62 64 57 52 49 43 42 42 37
3290.0 39 35 35 36 39 35 36 35 41 41
3330.0 37 35 33 34 34 25 25 32 22 32
3370.0 32 33 28 32 26 21 28 24 25 16
3410.0 24 21 24 22 23 19 20 20 18 20
3450.0 13 15 14 12 16 17 8 14 25 21
3490.0 25 20 32 34 52 46 48 53 70 103
3530.0 75 99 99 121 146 157 201 316 687 1637
3570.0 3142 3872 3855 2767 1377 530 264 156 131 92
3610.0 109 91 88 69 51 78 61 35 41 35
3650.0 73 55 23 29 12 55 43 53 25 20
3690.0 48 22 21 33 28 41 51 26 37 56
3730.0 33 68 75 41 75 71 54 41 45 30
3770.0 37 29 21 37 32 32 31 47 58 54
3810.0 24 37 47 55 45 42 49 60 75 41
3850.0 46 89 58 37 60 71 60 36 64 60
3890.0 64 54 62 80 73 44 36 55 57 54
3930.0 49 62 35 49 50 51 40 57 58 25
##END=
