##TITLE=Furan, 2,5-dihydro-2,5-dimethoxy-
##JCAMP-DX=4.24
##DATA TYPE=INFRARED SPECTRUM
##ORIGIN=Sadtler Research Labs Under US-EPA Contract
##OWNER=NIST Standard Reference Data Program
##CAS REGISTRY NO=332-77-4
##MOLFORM=C 6 H 10 O 3
##XUNITS=1/CM
##YUNITS=ABSORBANCE
##XFACTOR=1.0
##YFACTOR=0.000058105
##DELTAX=4.0
##FIRSTX=450.0
##LASTX=3966.0
##FIRSTY=0.008542
##MAXX=3966
##MINX=450
##MAXY=0.58105
##MINY=0
##NPOINTS=880
##XYDATA=(X++(Y..Y))
450.0 147 151 174 201 150 32 21 30 48 130
490.0 127 244 326 286 242 254 282 201 228 327
530.0 303 307 226 211 237 223 195 212 380 336
570.0 244 393 310 222 265 229 321 349 431 432
610.0 544 612 499 546 543 426 387 413 415 308
650.0 324 322 211 305 213 317 361 333 298 422
690.0 468 477 518 639 719 726 683 567 529 463
730.0 368 347 350 333 284 328 297 326 283 278
770.0 277 302 310 326 458 596 719 1054 1411 1553
810.0 1592 1569 1331 1106 899 662 497 435 326 283
850.0 360 336 321 341 393 377 364 361 344 379
890.0 396 384 422 500 519 541 647 684 729 835
930.0 940 1000 1024 987 967 986 1089 1313 1692 2088
970.0 2447 2854 3248 3335 3208 2961 2612 2428 2514 2746
1010.0 3151 3748 4299 5344 6862 8522 10000 9312 9160 7266
1050.0 5472 4080 3143 2780 2521 2334 2281 2307 2376 2442
1090.0 2515 2440 2454 2582 2698 2941 3244 3388 3631 3721
1130.0 3719 3719 3680 3490 3081 2617 2227 1850 1561 1347
1170.0 1222 1226 1325 1444 1788 2204 2432 2535 2512 2289
1210.0 1887 1496 1252 1034 956 872 805 814 800 822
1250.0 894 978 1031 1012 1038 1026 916 863 782 732
1290.0 706 689 700 764 797 764 755 771 780 871
1330.0 950 998 1012 957 896 890 980 1232 1722 2350
1370.0 2707 2708 2514 2115 1570 1149 918 760 635 564
1410.0 472 478 443 377 406 460 505 608 686 764
1450.0 776 798 760 642 658 615 627 574 521 443
1490.0 404 367 370 327 387 394 380 418 446 421
1530.0 415 423 399 479 371 308 312 355 298 255
1570.0 270 242 298 265 274 342 412 467 565 639
1610.0 709 734 822 737 654 571 515 438 380 345
1650.0 311 363 282 252 240 267 248 248 283 358
1690.0 385 480 603 725 814 935 1010 974 847 809
1730.0 625 562 534 617 683 707 725 687 571 465
1770.0 406 344 274 262 270 276 353 370 414 492
1810.0 553 574 600 579 513 414 376 290 291 288
1850.0 214 186 159 132 159 181 146 141 155 139
1890.0 129 139 137 145 161 155 153 170 152 135
1930.0 143 160 137 149 161 158 147 143 141 132
1970.0 140 123 123 148 131 120 134 134 120 125
2010.0 153 150 162 160 151 168 160 146 148 167
2050.0 177 168 186 186 176 188 182 189 198 187
2090.0 182 178 175 140 145 155 133 134 141 144
2130.0 135 134 126 118 130 106 115 138 135 132
2170.0 137 133 121 114 122 113 119 120 103 106
2210.0 101 95 86 98 95 82 101 100 92 99
2250.0 89 82 83 83 76 88 99 71 80 87
2290.0 71 77 78 92 97 100 94 92 110 70
2330.0 39 92 92 84 80 108 123 79 75 19
2370.0 39 52 42 71 90 73 50 69 61 44
2410.0 60 60 67 77 62 53 57 56 41 45
2450.0 72 56 56 64 44 46 38 27 40 40
2490.0 37 32 44 28 10 17 26 26 38 44
2530.0 38 35 43 22 43 45 39 60 80 81
2570.0 56 62 64 46 58 60 68 83 77 84
2610.0 82 86 67 76 93 87 91 107 108 106
2650.0 106 103 107 121 114 96 130 113 87 90
2690.0 89 87 84 99 116 137 150 142 157 184
2730.0 176 186 211 226 196 190 180 160 157 143
2770.0 153 186 187 196 206 247 242 254 323 353
2810.0 422 498 571 728 919 1145 1356 1577 1664 1630
2850.0 1433 1194 1040 1003 1090 1262 1494 1733 1902 1995
2890.0 1932 1697 1526 1416 1319 1323 1377 1512 1693 1909
2930.0 2106 2274 2433 2384 2237 2063 1883 1743 1644 1610
2970.0 1483 1315 1177 1087 1023 1048 1150 1305 1404 1416
3010.0 1259 1109 857 631 550 495 450 402 379 352
3050.0 324 300 266 267 292 236 242 265 237 229
3090.0 246 275 289 297 288 244 253 180 132 122
3130.0 116 99 102 125 121 104 106 90 89 89
3170.0 53 75 100 90 60 78 76 41 46 48
3210.0 58 73 66 74 76 80 42 42 97 58
3250.0 70 102 95 86 70 54 45 70 46 31
3290.0 91 83 47 57 57 34 35 56 55 58
3330.0 99 58 68 73 36 51 73 89 63 100
3370.0 87 45 61 44 44 65 57 60 79 94
3410.0 43 36 85 42 31 77 82 74 65 68
3450.0 45 64 48 2 79 83 57 54 70 27
3490.0 2 26 28 44 45 31 52 54 12 4
3530.0 38 47 4 46 72 55 48 30 27 64
3570.0 66 41 54 95 76 50 50 34 17 12
3610.0 48 51 81 72 37 112 54 27 74 103
3650.0 147 122 146 137 123 134 108 128 132 91
3690.0 112 138 129 99 91 126 107 102 125 112
3730.0 132 142 111 98 135 105 78 120 104 96
3770.0 109 83 80 57 57 55 77 90 103 115
3810.0 92 66 74 84 63 71 104 132 130 128
3850.0 91 104 100 88 94 129 136 94 83 77
3890.0 37 42 41 60 78 68 42 38 23 2
3930.0 2 2 2 7 23 35 0 2 2 2
##END=
