##TITLE=Furan, 2,5-diethoxytetrahydro-
##JCAMP-DX=4.24
##DATA TYPE=INFRARED SPECTRUM
##ORIGIN=Sadtler Research Labs Under US-EPA Contract
##OWNER=NIST Standard Reference Data Program
##CAS REGISTRY NO=3320-90-9
##MOLFORM=C 8 H 16 O 3
##XUNITS=1/CM
##YUNITS=ABSORBANCE
##XFACTOR=1.0
##YFACTOR=0.000163083
##DELTAX=4.0
##FIRSTX=450.0
##LASTX=3966.0
##FIRSTY=0.000000
##MAXX=3966
##MINX=450
##MAXY=1.63083
##MINY=0
##NPOINTS=880
##XYDATA=(X++(Y..Y))
450.0 0 465 482 490 653 646 761 693 619 715
490.0 672 590 563 732 596 685 548 616 561 568
530.0 720 643 578 641 537 582 532 605 648 698
570.0 669 697 712 687 727 719 793 803 738 697
610.0 689 670 636 622 644 618 622 638 639 650
650.0 650 632 625 616 612 608 625 602 576 554
690.0 575 582 591 597 582 572 566 592 623 616
730.0 627 612 635 655 713 705 724 724 729 748
770.0 778 803 812 830 850 887 909 967 1016 1050
810.0 1122 1265 1360 1578 1869 2202 2468 2593 2571 2251
850.0 1967 1661 1502 1305 1281 1267 1191 1164 1209 1220
890.0 1239 1312 1313 1278 1323 1266 1232 1300 1381 1456
930.0 1645 1831 2037 2143 2202 2141 2058 2091 2206 2484
970.0 2865 3425 4217 5167 6308 7524 8724 10000 9529 8512
1010.0 7327 6413 6005 6304 7306 8387 9361 9406 8907 7808
1050.0 6424 5371 4672 4215 3960 3880 3819 3815 3742 3776
1090.0 3847 4031 4366 4919 5634 6364 7095 7771 7822 7080
1130.0 6236 5054 4057 3376 2896 2545 2365 2231 2127 2062
1170.0 2023 2084 2202 2463 2944 3634 4312 4776 4900 4601
1210.0 4061 3436 2731 2208 1835 1549 1404 1304 1210 1145
1250.0 1096 1077 1029 1027 1072 1098 1130 1202 1288 1405
1290.0 1527 1593 1628 1578 1582 1587 1556 1477 1390 1320
1330.0 1344 1505 1907 2561 3281 3738 3575 3021 2396 2168
1370.0 2339 2661 2761 2567 2201 1745 1531 1405 1344 1319
1410.0 1279 1221 1138 1076 1006 995 1016 1083 1180 1289
1450.0 1465 1614 1640 1599 1429 1236 1106 1000 940 892
1490.0 840 785 714 670 647 637 586 597 592 576
1530.0 555 566 565 582 563 549 569 577 588 547
1570.0 553 565 545 553 532 535 547 534 555 554
1610.0 569 584 591 595 586 587 572 583 575 565
1650.0 600 597 593 561 577 574 571 558 561 575
1690.0 553 554 577 594 578 580 594 630 646 664
1730.0 734 797 867 906 939 979 956 957 937 876
1770.0 843 807 764 725 695 689 682 690 673 667
1810.0 660 649 638 622 613 595 570 553 540 548
1850.0 532 528 533 523 532 532 534 526 534 533
1890.0 538 538 540 541 548 553 559 568 572 572
1930.0 574 577 577 583 586 589 593 595 594 591
1970.0 585 578 567 559 553 550 552 545 544 541
2010.0 541 540 537 537 529 528 526 522 525 521
2050.0 519 518 518 516 516 513 512 509 510 512
2090.0 511 512 511 514 514 514 511 510 511 513
2130.0 513 511 511 511 509 509 508 507 508 503
2170.0 505 507 507 507 507 511 509 511 510 509
2210.0 510 507 505 505 506 507 505 503 504 503
2250.0 506 506 506 507 507 505 500 501 501 498
2290.0 500 499 499 499 497 496 497 491 493 492
2330.0 492 497 486 495 488 504 488 496 490 497
2370.0 496 502 506 505 505 501 499 497 491 491
2410.0 486 479 476 473 469 466 465 465 473 478
2450.0 483 488 494 500 504 510 511 510 514 512
2490.0 514 513 514 514 511 510 508 503 502 500
2530.0 496 496 492 491 491 488 483 484 481 484
2570.0 479 481 480 480 481 477 479 486 490 499
2610.0 506 516 524 534 530 522 511 500 493 485
2650.0 480 478 476 476 477 479 482 484 489 497
2690.0 500 503 500 500 499 503 502 504 501 501
2730.0 501 507 514 511 510 503 502 512 521 537
2770.0 560 584 606 641 674 715 763 812 848 876
2810.0 878 871 860 853 870 889 920 961 1021 1108
2850.0 1245 1422 1661 1941 2263 2607 2946 3216 3339 3312
2890.0 3245 3242 3428 3849 4387 4903 5152 4979 4503 3975
2930.0 3594 3481 3539 3600 3581 3528 3481 3510 3653 3806
2970.0 3976 4322 4841 5322 5516 5186 4393 3756 3207 2698
3010.0 2140 1620 1197 977 863 772 724 676 635 609
3050.0 587 568 547 533 524 507 499 489 481 482
3090.0 479 477 476 474 473 474 477 479 483 479
3130.0 481 479 479 476 480 478 479 480 479 477
3170.0 476 479 479 481 483 488 491 491 490 498
3210.0 500 504 501 502 505 504 499 499 495 491
3250.0 487 492 485 481 484 480 482 481 485 479
3290.0 485 486 489 485 488 487 490 491 491 492
3330.0 491 484 488 484 484 479 479 479 476 479
3370.0 475 476 477 477 482 482 483 483 487 487
3410.0 484 490 489 485 483 481 485 479 475 474
3450.0 478 478 468 468 474 473 473 478 479 479
3490.0 478 478 479 483 479 474 479 476 472 465
3530.0 472 467 470 468 469 473 477 469 479 480
3570.0 490 480 499 491 503 493 500 487 489 480
3610.0 487 481 477 479 468 486 477 473 469 486
3650.0 485 502 474 500 485 496 518 509 507 497
3690.0 507 492 493 490 482 486 479 467 472 465
3730.0 479 478 468 477 471 488 471 476 465 472
3770.0 470 475 468 477 468 469 472 481 473 487
3810.0 466 483 468 483 465 465 465 472 475 465
3850.0 470 474 490 466 479 496 479 474 480 484
3890.0 484 485 477 465 470 466 465 465 465 465
3930.0 465 465 465 465 465 465 465 481 473 472
##END=
