##TITLE=Decane, 1-fluoro-
##JCAMP-DX=4.24
##DATA TYPE=INFRARED SPECTRUM
##ORIGIN=Sadtler Research Labs Under US-EPA Contract
##OWNER=NIST Standard Reference Data Program
##CAS REGISTRY NO=334-56-5
##MOLFORM=C 10 H 21 F
##XUNITS=1/CM
##YUNITS=ABSORBANCE
##XFACTOR=1.0
##YFACTOR=0.000085986
##DELTAX=4.0
##FIRSTX=450.0
##LASTX=3966.0
##FIRSTY=0.010920
##MAXX=3966
##MINX=450
##MAXY=0.85986
##MINY=0
##NPOINTS=880
##XYDATA=(X++(Y..Y))
450.0 127 113 125 90 50 28 34 53 73 69
490.0 64 70 72 90 90 80 91 59 85 66
530.0 59 69 60 74 56 61 72 72 68 70
570.0 20 27 80 34 71 69 62 83 61 42
610.0 60 71 61 41 42 60 66 60 50 64
650.0 57 62 49 60 40 70 56 65 72 66
690.0 82 103 121 141 149 167 178 200 207 219
730.0 191 182 166 176 173 152 121 108 120 141
770.0 129 130 140 125 132 120 110 98 105 111
810.0 129 101 140 134 110 127 103 107 140 139
850.0 143 140 168 175 192 180 205 206 218 224
890.0 217 219 241 222 230 218 226 222 240 256
930.0 263 267 280 280 289 288 292 291 304 314
970.0 318 345 378 418 476 523 584 645 715 797
1010.0 867 971 1077 1208 1327 1415 1460 1447 1418 1388
1050.0 1375 1345 1296 1229 1136 1032 921 793 669 558
1090.0 456 367 311 256 226 217 193 199 212 214
1130.0 210 191 167 156 140 133 123 128 133 145
1170.0 151 159 152 156 141 144 135 133 132 121
1210.0 126 132 126 139 142 149 149 148 154 157
1250.0 154 153 148 154 154 159 159 159 159 165
1290.0 174 182 187 192 193 199 193 176 176 169
1330.0 169 184 206 237 261 280 305 317 316 312
1370.0 322 346 390 467 559 644 637 555 415 304
1410.0 231 203 202 218 223 259 307 376 404 480
1450.0 578 698 862 918 937 857 766 606 462 349
1490.0 272 199 182 145 171 146 111 116 123 105
1530.0 83 92 88 125 78 71 76 112 103 69
1570.0 78 59 79 56 51 49 50 50 56 56
1610.0 56 57 79 57 64 56 51 75 49 67
1650.0 54 119 55 51 50 64 62 54 54 87
1690.0 47 45 76 91 58 50 55 84 54 53
1730.0 50 83 60 63 57 74 68 56 57 48
1770.0 51 65 43 44 37 41 57 43 49 37
1810.0 37 42 37 36 43 43 33 35 33 44
1850.0 36 30 36 36 36 46 35 29 30 29
1890.0 36 31 29 35 34 34 29 34 33 28
1930.0 29 33 30 32 36 33 32 34 37 33
1970.0 31 32 25 25 32 32 32 30 33 38
2010.0 35 37 41 42 41 42 47 41 43 40
2050.0 40 41 41 39 34 35 28 28 29 29
2090.0 27 28 28 23 24 26 21 21 21 21
2130.0 21 20 26 21 26 24 26 26 26 26
2170.0 26 26 26 24 25 31 30 25 25 24
2210.0 24 20 21 22 23 23 24 24 18 23
2250.0 23 16 23 20 23 23 20 16 22 20
2290.0 21 22 21 26 27 27 27 26 26 25
2330.0 27 32 32 31 26 13 13 13 19 21
2370.0 25 21 18 15 13 13 13 17 13 17
2410.0 12 11 18 15 15 15 11 11 11 11
2450.0 10 10 10 11 9 9 8 10 10 10
2490.0 10 10 10 11 11 11 10 11 17 18
2530.0 22 23 23 24 17 22 24 23 18 23
2570.0 23 30 35 32 36 38 35 39 36 43
2610.0 42 43 48 54 55 56 57 61 61 62
2650.0 64 73 73 80 80 85 86 96 97 97
2690.0 99 101 94 91 86 87 91 82 86 92
2730.0 105 111 116 129 133 133 146 145 139 139
2770.0 139 141 140 140 152 159 177 189 203 222
2810.0 240 270 300 342 383 438 502 597 742 988
2850.0 1391 2018 2845 3613 4053 3951 3503 3042 2711 2483
2890.0 2297 2201 2365 2766 3251 3761 4294 5102 6239 7800
2930.0 9388 10000 9906 8855 7563 6343 5527 5399 5724 6051
2970.0 5944 4811 3367 2185 1486 1087 850 698 591 508
3010.0 437 390 342 303 267 246 222 203 184 168
3050.0 157 138 131 114 108 104 95 91 82 74
3090.0 79 63 71 58 59 59 59 60 60 46
3130.0 51 53 45 38 43 47 48 49 49 42
3170.0 48 44 37 45 37 35 40 32 32 32
3210.0 32 34 34 33 33 28 24 22 16 20
3250.0 22 18 24 19 17 12 13 18 7 12
3290.0 10 17 19 16 6 14 13 14 14 13
3330.0 8 14 8 6 14 15 18 15 19 17
3370.0 15 16 16 16 16 21 18 14 19 20
3410.0 17 17 22 15 12 11 18 11 18 23
3450.0 12 12 10 17 8 10 13 7 7 7
3490.0 3 13 13 13 12 9 9 3 7 8
3530.0 5 9 9 10 15 11 15 14 11 12
3570.0 20 10 14 12 15 28 28 23 23 18
3610.0 34 29 27 25 22 47 31 30 29 41
3650.0 59 35 35 25 32 49 41 47 29 33
3690.0 50 33 32 25 26 38 42 27 37 42
3730.0 38 50 54 46 65 56 58 44 39 40
3770.0 46 37 40 47 42 46 47 51 64 53
3810.0 51 53 64 59 54 55 62 62 53 54
3850.0 53 74 49 53 55 60 55 56 56 56
3890.0 48 48 56 57 39 38 38 45 45 44
3930.0 51 51 44 46 48 47 0 3 3 3
##END=
