##TITLE=Decanoic acid
##JCAMP-DX=4.24
##DATA TYPE=INFRARED SPECTRUM
##ORIGIN=Sadtler Research Labs Under US-EPA Contract
##OWNER=NIST Standard Reference Data Program
##CAS REGISTRY NO=334-48-5
##MOLFORM=C 10 H 20 O 2
##XUNITS=1/CM
##YUNITS=ABSORBANCE
##XFACTOR=1.0
##YFACTOR=0.000051208
##DELTAX=4.0
##FIRSTX=450.0
##LASTX=3966.0
##FIRSTY=0.023044
##MAXX=3966
##MINX=450
##MAXY=0.51208
##MINY=0
##NPOINTS=880
##XYDATA=(X++(Y..Y))
450.0 450 484 461 414 393 414 426 440 457 499
490.0 545 552 602 620 610 630 669 741 763 753
530.0 817 809 892 921 974 1063 1105 1161 1083 1103
570.0 1069 1056 1043 1132 1153 1219 1261 1265 1268 1248
610.0 1248 1197 1109 1137 1088 1035 959 805 711 595
650.0 504 451 394 405 338 263 306 313 328 365
690.0 326 335 345 334 396 363 395 410 427 381
730.0 380 410 353 330 298 279 241 235 220 216
770.0 228 163 122 100 128 83 96 15 61 61
810.0 46 68 79 86 55 56 96 98 97 109
850.0 85 122 108 118 118 131 121 110 128 121
890.0 137 154 149 118 120 122 131 128 123 121
930.0 135 143 132 114 133 131 154 132 154 179
970.0 170 183 180 178 205 195 224 225 254 267
1010.0 298 330 396 435 497 594 656 737 803 892
1050.0 920 983 1027 1099 1180 1288 1463 1633 1903 2186
1090.0 2532 2911 3236 3456 3492 3355 3257 3142 3180 3305
1130.0 3482 3556 3469 3234 2901 2543 2250 2012 1835 1727
1170.0 1623 1555 1485 1428 1340 1269 1186 1120 1023 963
1210.0 912 854 785 733 696 663 649 620 610 602
1250.0 598 607 636 645 656 633 654 642 616 603
1290.0 581 590 601 589 583 572 550 557 542 547
1330.0 588 632 692 773 839 911 959 1008 1087 1097
1370.0 1141 1185 1237 1259 1217 1075 909 756 604 534
1410.0 473 456 432 456 494 541 562 592 626 715
1450.0 796 896 1030 1077 1029 899 723 538 410 290
1490.0 215 162 143 108 91 100 74 65 55 61
1530.0 30 46 21 56 34 32 22 7 13 16
1570.0 33 13 20 9 16 3 15 12 25 23
1610.0 23 22 30 32 39 42 32 46 32 40
1650.0 44 61 58 67 62 75 74 87 99 146
1690.0 134 158 170 223 262 311 359 472 551 703
1730.0 842 1045 1321 1645 2018 2452 2949 3526 4265 5186
1770.0 6291 7326 7795 7494 6497 5335 4236 3437 2751 2169
1810.0 1659 1226 917 686 505 398 300 241 185 171
1850.0 134 131 100 99 87 82 62 64 64 60
1890.0 53 41 50 43 36 37 44 54 43 36
1930.0 39 24 26 28 33 32 27 30 32 19
1970.0 30 23 30 24 24 25 14 24 14 13
2010.0 19 23 24 15 18 8 16 29 32 23
2050.0 17 30 17 28 19 28 15 18 26 27
2090.0 17 25 14 19 32 27 37 37 37 45
2130.0 45 37 46 25 36 46 45 42 42 34
2170.0 48 45 45 46 56 36 46 46 54 56
2210.0 38 29 31 35 54 44 37 35 44 45
2250.0 43 37 36 32 38 30 36 33 41 43
2290.0 31 37 62 61 37 66 61 49 46 39
2330.0 18 39 26 5 54 40 23 12 18 0
2370.0 29 13 32 51 39 44 26 35 17 16
2410.0 26 37 26 30 25 21 16 21 24 33
2450.0 19 6 16 16 18 15 26 26 26 9
2490.0 17 16 27 16 26 6 16 17 26 34
2530.0 47 26 33 33 31 28 36 28 20 28
2570.0 28 39 35 37 41 40 53 62 49 37
2610.0 61 69 60 70 70 79 73 73 73 81
2650.0 70 82 81 92 109 90 111 102 101 113
2690.0 122 99 113 106 116 106 115 123 113 132
2730.0 122 122 132 149 141 136 138 135 129 138
2770.0 135 164 153 162 172 204 216 254 262 303
2810.0 311 354 381 429 470 537 595 715 865 1122
2850.0 1500 2105 2805 3489 3845 3846 3574 3236 2962 2686
2890.0 2482 2304 2308 2481 2864 3361 4104 5070 6383 7875
2930.0 9302 10000 9992 9096 8005 6809 5801 5145 4840 4704
2970.0 4485 3858 2986 2189 1650 1266 1032 851 712 609
3010.0 534 446 407 344 344 293 283 244 216 204
3050.0 216 155 175 154 148 143 138 136 139 118
3090.0 113 109 102 101 82 82 73 73 71 81
3130.0 69 72 64 75 50 68 52 76 83 55
3170.0 73 32 39 61 55 36 57 49 40 41
3210.0 30 47 40 42 37 40 31 36 36 30
3250.0 37 27 34 47 46 39 21 40 29 36
3290.0 37 32 36 23 11 46 50 24 36 37
3330.0 39 46 36 45 35 46 28 58 44 37
3370.0 46 52 27 54 48 48 50 67 16 34
3410.0 61 64 32 51 28 24 27 47 41 46
3450.0 63 43 63 72 77 70 62 51 63 30
3490.0 73 74 83 94 81 84 96 90 145 121
3530.0 114 115 180 206 232 250 312 482 740 1179
3570.0 2069 2965 3198 2581 1575 949 578 416 255 180
3610.0 197 216 173 137 145 189 109 100 121 131
3650.0 190 135 115 98 116 165 137 152 124 115
3690.0 181 131 99 114 108 123 130 111 131 130
3730.0 95 131 146 121 132 153 95 71 67 91
3770.0 78 79 100 92 101 94 114 138 142 117
3810.0 110 99 129 129 135 119 138 153 166 134
3850.0 145 193 151 137 162 168 160 133 144 146
3890.0 152 145 154 151 153 121 119 129 121 90
3930.0 107 116 102 110 121 115 103 122 131 119
##END=
