##TITLE=Benzoic acid, 3,4-dimethyl-, ethyl ester
##JCAMP-DX=4.24
##DATA TYPE=INFRARED SPECTRUM
##ORIGIN=Sadtler Research Labs Under US-EPA Contract
##OWNER=NIST Standard Reference Data Program
##CAS REGISTRY NO=33499-44-4
##MOLFORM=C 11 H 14 O 2
##XUNITS=1/CM
##YUNITS=ABSORBANCE
##XFACTOR=1.0
##YFACTOR=0.000163797
##DELTAX=4.0
##FIRSTX=450.0
##LASTX=3966.0
##FIRSTY=0.002621
##MAXX=3966
##MINX=450
##MAXY=1.63797
##MINY=0
##NPOINTS=880
##XYDATA=(X++(Y..Y))
450.0 16 25 19 27 39 29 10 35 23 13
490.0 18 4 8 31 52 42 35 58 59 66
530.0 107 123 117 71 49 30 22 16 25 20
570.0 21 22 25 35 35 34 25 19 20 19
610.0 12 18 19 22 34 76 99 100 73 44
650.0 13 4 11 2 0 11 12 15 16 11
690.0 16 27 32 28 23 22 45 30 36 33
730.0 43 70 100 163 303 530 842 1242 1512 1171
770.0 869 554 316 207 155 131 121 124 145 173
810.0 189 194 194 204 230 259 282 269 199 133
850.0 96 87 105 131 153 159 147 119 97 92
890.0 104 127 162 186 195 210 220 260 292 282
930.0 235 169 116 88 75 71 73 73 83 85
970.0 100 112 132 166 227 324 403 424 396 376
1010.0 428 583 841 1160 1405 1430 1236 922 651 461
1050.0 345 282 244 225 216 221 243 291 386 556
1090.0 863 1444 2470 3739 4255 3740 2478 1887 2036 2257
1130.0 2377 2506 2723 2851 2470 1765 1041 685 675 968
1170.0 1819 3287 4238 4017 2562 1206 718 604 656 901
1210.0 1538 2522 3095 2880 1910 1070 777 773 933 1282
1250.0 1961 3297 5615 8401 10000 8988 6209 3567 2491 2719
1290.0 3836 5005 5152 4215 2565 1628 1121 771 530 382
1330.0 302 260 225 209 201 194 210 261 439 763
1370.0 894 858 599 450 453 489 526 545 612 765
1410.0 908 921 755 531 399 361 358 402 479 581
1450.0 692 787 818 817 793 743 655 552 449 355
1490.0 310 315 342 346 304 223 160 118 94 91
1530.0 76 76 69 61 70 83 97 108 144 186
1570.0 238 291 331 330 311 268 249 258 309 410
1610.0 564 686 673 533 316 183 112 79 67 61
1650.0 54 73 90 105 111 116 114 133 145 186
1690.0 246 310 350 401 433 490 598 821 1316 2294
1730.0 3990 6241 7796 7908 6343 3692 1834 877 445 284
1770.0 227 221 240 252 250 230 201 174 142 119
1810.0 95 81 68 52 40 28 26 24 18 12
1850.0 14 17 18 18 15 10 14 16 21 24
1890.0 29 33 42 49 55 57 55 49 40 33
1930.0 25 16 15 11 12 14 17 20 24 25
1970.0 28 25 22 17 15 9 7 9 9 7
2010.0 9 8 6 5 9 12 13 16 18 20
2050.0 19 14 12 8 7 5 5 5 5 3
2090.0 3 0 2 0 2 4 7 11 15 17
2130.0 21 18 16 12 9 4 1 1 0 0
2170.0 1 3 2 4 6 7 9 7 7 6
2210.0 8 7 7 8 6 6 4 3 0 1
2250.0 0 0 0 2 2 3 5 7 6 8
2290.0 8 9 5 8 7 8 11 10 13 12
2330.0 11 5 6 6 11 10 16 13 13 16
2370.0 20 23 18 17 17 15 16 16 14 14
2410.0 15 13 9 8 8 9 7 8 9 9
2450.0 9 9 9 10 11 13 11 11 11 10
2490.0 9 8 6 7 7 7 8 7 10 10
2530.0 13 13 13 13 14 18 18 21 20 19
2570.0 18 16 19 21 22 20 22 19 17 16
2610.0 13 11 9 5 5 6 5 5 6 7
2650.0 6 8 9 10 11 13 13 10 11 9
2690.0 10 13 13 14 14 12 15 16 20 25
2730.0 33 44 57 64 63 61 52 49 48 51
2770.0 56 58 61 55 51 50 49 49 50 54
2810.0 59 66 73 85 96 104 115 125 141 163
2850.0 190 222 267 324 389 465 546 636 711 745
2890.0 736 703 678 678 696 722 759 799 866 1009
2930.0 1245 1480 1611 1615 1508 1395 1286 1189 1155 1166
2970.0 1208 1333 1591 1890 2047 1916 1601 1251 1025 850
3010.0 707 588 517 489 510 566 613 604 546 450
3050.0 373 334 312 293 274 270 269 269 264 252
3090.0 229 200 170 143 123 112 110 105 101 92
3130.0 78 68 56 49 46 42 38 33 31 31
3170.0 27 29 30 32 29 28 25 24 21 22
3210.0 20 18 19 18 15 17 13 16 12 14
3250.0 13 10 11 7 10 9 9 11 8 8
3290.0 9 7 9 12 13 15 10 10 15 16
3330.0 12 14 14 15 16 18 18 17 16 14
3370.0 14 17 14 12 14 16 13 14 16 13
3410.0 13 15 16 15 17 15 20 19 22 34
3450.0 47 57 64 60 51 29 15 15 10 6
3490.0 9 10 8 11 12 10 12 13 7 8
3530.0 10 9 10 7 4 4 8 6 5 9
3570.0 9 10 12 21 18 21 16 11 4 1
3610.0 8 8 0 6 9 9 5 6 4 10
3650.0 6 4 9 6 5 10 8 10 8 11
3690.0 10 9 8 6 13 3 3 2 9 10
3730.0 11 10 9 9 7 6 8 4 10 13
3770.0 8 8 9 12 15 6 4 5 10 11
3810.0 14 10 3 2 6 10 17 17 9 9
3850.0 13 15 15 12 15 10 12 5 9 9
3890.0 6 10 11 22 17 14 14 6 5 13
3930.0 7 15 8 7 2 15 17 10 10 14
##END=
