##TITLE=Perfluoroheptyl iodide
##JCAMP-DX=4.24
##DATA TYPE=INFRARED SPECTRUM
##ORIGIN=Sadtler Research Labs Under US-EPA Contract
##OWNER=NIST Standard Reference Data Program
##CAS REGISTRY NO=335-58-0
##MOLFORM=C 7 F 15 I
##XUNITS=1/CM
##YUNITS=ABSORBANCE
##XFACTOR=1.0
##YFACTOR=0.000167557
##DELTAX=4.0
##FIRSTX=450.0
##LASTX=3966.0
##FIRSTY=0.037700
##MAXX=3966
##MINX=450
##MAXY=1.67557
##MINY=0
##NPOINTS=880
##XYDATA=(X++(Y..Y))
450.0 225 170 108 0 89 117 132 75 40 141
490.0 128 101 145 109 103 172 248 256 324 372
530.0 421 444 437 389 329 320 341 420 544 605
570.0 571 504 381 343 344 313 332 367 349 367
610.0 379 421 433 517 571 628 696 804 983 1016
650.0 813 826 803 743 754 722 728 663 655 663
690.0 689 760 700 682 687 629 715 822 1125 1283
730.0 1131 1045 646 781 1067 1025 442 400 338 400
770.0 655 829 846 631 397 346 315 376 364 358
810.0 401 443 434 307 275 264 228 231 237 266
850.0 318 340 380 430 446 454 406 390 344 294
890.0 238 182 177 162 162 171 181 213 237 270
930.0 300 311 346 350 352 348 359 403 474 569
970.0 601 538 516 571 583 471 331 254 244 252
1010.0 257 238 229 226 256 293 324 372 410 444
1050.0 506 541 531 480 430 410 374 346 367 430
1090.0 519 601 728 923 1146 1292 1196 1005 935 1024
1130.0 1249 1576 1897 2156 2515 2957 3208 3068 2415 1802
1170.0 1597 1653 1796 1961 2143 2412 2775 3258 3832 4412
1210.0 4916 5231 5310 5209 5086 5117 5560 6567 8013 9634
1250.0 10000 7827 5452 3972 3014 2394 2021 1796 1605 1429
1290.0 1269 1121 988 869 796 736 664 576 491 448
1330.0 442 458 498 557 618 648 624 614 592 470
1370.0 296 180 143 122 109 106 98 95 89 86
1410.0 86 88 84 85 80 82 78 79 78 75
1450.0 75 73 75 78 67 71 69 71 69 65
1490.0 68 63 66 63 66 73 56 65 64 61
1530.0 66 57 67 62 63 61 62 67 66 60
1570.0 60 61 60 57 54 56 57 49 57 53
1610.0 50 56 51 56 48 53 51 54 51 46
1650.0 52 51 53 45 50 51 50 47 51 51
1690.0 50 48 48 55 48 49 47 52 52 47
1730.0 52 50 56 48 46 49 50 49 50 49
1770.0 53 55 51 53 54 56 60 62 61 59
1810.0 62 63 62 60 57 50 49 48 46 52
1850.0 46 51 53 44 37 44 43 41 43 41
1890.0 43 41 38 40 38 38 38 40 37 37
1930.0 39 37 37 37 35 36 36 35 38 34
1970.0 35 34 37 38 36 37 39 34 35 33
2010.0 35 33 34 33 32 32 32 30 32 33
2050.0 32 31 31 31 31 31 26 29 29 28
2090.0 30 32 29 29 30 29 29 29 29 29
2130.0 29 28 30 32 28 30 31 31 30 30
2170.0 30 29 32 32 33 32 31 31 33 31
2210.0 31 35 36 34 33 33 37 32 34 34
2250.0 34 36 36 37 36 37 38 37 39 40
2290.0 42 42 45 46 47 48 48 46 48 46
2330.0 43 46 41 48 44 47 48 45 51 49
2370.0 49 51 50 49 51 48 47 47 47 45
2410.0 45 46 42 41 43 40 40 39 39 36
2450.0 36 36 36 36 36 34 34 37 33 32
2490.0 32 30 30 29 30 26 25 25 24 25
2530.0 23 22 21 22 20 18 19 18 16 17
2570.0 18 17 16 17 19 16 17 14 16 13
2610.0 11 11 11 8 10 6 6 6 7 5
2650.0 4 6 7 5 3 5 4 3 3 4
2690.0 2 2 2 3 3 4 4 3 4 5
2730.0 3 3 3 4 4 3 4 5 3 5
2770.0 5 5 4 4 4 6 4 5 3 5
2810.0 4 3 4 2 7 4 3 5 6 6
2850.0 4 6 3 6 7 6 6 7 3 8
2890.0 6 3 8 9 9 6 7 8 5 9
2930.0 6 10 11 7 10 10 8 6 6 9
2970.0 10 9 7 4 6 9 8 7 7 9
3010.0 7 8 5 5 7 7 6 5 4 5
3050.0 9 7 4 6 4 9 6 8 6 9
3090.0 5 5 10 6 8 9 7 7 5 7
3130.0 6 8 8 6 9 11 8 7 8 8
3170.0 6 6 9 9 9 6 8 7 6 9
3210.0 8 5 5 5 9 8 8 8 6 8
3250.0 5 6 10 9 8 4 1 7 9 9
3290.0 6 7 6 7 4 6 3 9 12 8
3330.0 7 7 10 12 6 5 8 8 8 11
3370.0 7 4 6 5 10 9 5 9 11 9
3410.0 7 10 7 4 9 8 7 6 5 7
3450.0 6 9 8 9 2 6 7 4 8 9
3490.0 12 6 9 2 5 3 7 5 9 12
3530.0 11 5 7 8 8 12 12 9 8 13
3570.0 15 19 19 16 9 14 12 14 13 9
3610.0 11 14 5 9 17 9 9 5 2 14
3650.0 21 14 15 9 13 5 15 12 7 4
3690.0 9 12 8 15 16 17 9 4 11 10
3730.0 12 9 14 10 12 15 14 10 7 5
3770.0 9 7 5 14 6 8 4 13 12 2
3810.0 3 9 6 8 13 17 14 7 4 13
3850.0 18 14 3 18 16 18 11 14 14 2
3890.0 25 10 1 13 1 8 4 18 16 1
3930.0 22 20 24 14 11 31 28 5 15 33
##END=
