##TITLE=Heptafluoro-2,3,3-trichlorobutane
##JCAMP-DX=4.24
##DATA TYPE=INFRARED SPECTRUM
##ORIGIN=Sadtler Research Labs Under US-EPA Contract
##OWNER=NIST Standard Reference Data Program
##CAS REGISTRY NO=335-44-4
##MOLFORM=C 4 Cl 3 F 7
##XUNITS=1/CM
##YUNITS=ABSORBANCE
##XFACTOR=1.0
##YFACTOR=0.000285294
##DELTAX=4.0
##FIRSTX=450.0
##LASTX=3966.0
##FIRSTY=0.063335
##MAXX=3966
##MINX=450
##MAXY=2.85294
##MINY=0
##NPOINTS=880
##XYDATA=(X++(Y..Y))
450.0 222 102 68 69 55 60 109 48 118 70
490.0 77 32 42 41 18 49 36 51 20 75
530.0 45 88 132 203 174 148 132 79 106 103
570.0 109 45 64 46 51 53 73 83 20 40
610.0 6 17 16 41 24 13 30 20 28 15
650.0 29 9 24 14 24 16 40 98 309 579
690.0 709 585 417 475 603 580 482 474 554 586
730.0 536 397 252 151 116 58 41 40 33 40
770.0 30 54 40 65 85 125 137 151 244 428
810.0 771 1078 1116 766 370 156 128 189 321 510
850.0 639 741 805 867 790 593 366 215 170 162
890.0 212 317 549 795 966 827 529 295 177 167
930.0 164 161 127 105 91 113 155 204 253 280
970.0 291 245 203 139 79 38 32 27 20 26
1010.0 20 27 26 42 50 72 104 147 188 219
1050.0 248 234 217 178 134 80 61 59 58 62
1090.0 57 65 62 94 152 279 465 650 695 539
1130.0 332 176 106 75 75 68 71 80 97 119
1170.0 144 189 234 318 416 540 764 1324 2340 3671
1210.0 5014 6015 7560 7812 10000 8592 9290 8434 7342 4719
1250.0 2884 1965 1693 1854 2038 2037 1696 1221 821 555
1290.0 382 263 200 154 129 107 97 81 72 64
1330.0 56 56 51 52 43 45 44 48 50 53
1370.0 59 51 49 39 39 32 38 38 42 48
1410.0 49 51 44 46 42 43 39 39 32 28
1450.0 30 26 29 25 29 25 30 28 29 27
1490.0 27 26 22 27 23 27 23 23 23 21
1530.0 22 21 24 18 24 18 18 16 17 19
1570.0 18 18 14 18 15 21 16 17 18 17
1610.0 18 14 17 13 15 11 15 10 12 12
1650.0 12 9 9 12 9 15 9 10 11 9
1690.0 12 10 12 9 14 13 15 10 12 13
1730.0 11 12 10 15 11 14 12 15 12 16
1770.0 18 15 20 17 19 15 16 17 15 15
1810.0 16 17 15 18 15 17 13 16 12 12
1850.0 14 12 15 14 17 13 14 13 12 12
1890.0 13 13 10 14 13 14 14 17 15 16
1930.0 18 15 15 13 17 15 18 19 21 21
1970.0 21 19 17 17 14 15 11 13 11 10
2010.0 11 9 10 9 12 11 13 13 16 17
2050.0 14 13 12 12 14 21 21 27 30 29
2090.0 25 24 22 20 18 18 18 16 17 17
2130.0 16 18 19 22 19 20 19 19 19 21
2170.0 22 18 22 22 23 20 21 19 21 21
2210.0 20 20 21 24 24 28 26 24 23 21
2250.0 20 18 18 17 19 16 19 18 18 19
2290.0 20 22 21 25 27 31 30 33 33 29
2330.0 31 23 23 12 18 22 36 31 24 5
2370.0 0 0 2 9 13 16 15 19 18 20
2410.0 26 29 31 34 39 37 42 36 36 35
2450.0 33 35 33 30 23 24 19 20 19 18
2490.0 18 20 22 18 18 17 19 13 14 12
2530.0 8 10 9 8 7 7 5 8 7 8
2570.0 7 6 7 7 7 3 4 1 4 2
2610.0 1 4 1 5 3 7 8 8 5 8
2650.0 6 5 8 12 19 15 19 15 15 8
2690.0 5 9 5 6 6 6 3 5 2 1
2730.0 5 5 4 2 7 6 5 6 7 3
2770.0 1 2 2 6 6 7 4 5 4 4
2810.0 3 4 5 4 5 1 6 5 5 3
2850.0 6 6 4 7 4 7 3 8 4 4
2890.0 6 6 6 5 9 2 6 5 8 5
2930.0 4 5 2 6 4 5 8 8 6 6
2970.0 7 8 5 4 8 6 8 3 8 7
3010.0 5 5 4 10 3 7 3 6 0 3
3050.0 4 4 9 7 7 4 11 11 11 9
3090.0 6 7 6 10 3 5 4 6 6 9
3130.0 9 9 11 7 10 5 7 7 10 9
3170.0 8 12 6 9 7 7 5 9 7 5
3210.0 9 8 12 7 11 11 11 13 10 7
3250.0 9 11 10 7 9 12 4 11 9 8
3290.0 10 9 12 6 14 12 11 8 14 10
3330.0 15 12 5 5 10 15 8 22 14 6
3370.0 13 11 11 13 10 13 13 9 3 7
3410.0 11 14 14 15 9 10 12 11 12 11
3450.0 13 12 16 10 16 11 14 14 14 15
3490.0 15 12 6 15 13 13 12 14 11 9
3530.0 12 9 16 13 18 13 9 11 13 15
3570.0 12 13 6 16 15 18 18 13 13 15
3610.0 17 13 17 11 20 8 14 16 10 18
3650.0 14 14 4 14 14 14 9 12 11 11
3690.0 4 6 11 8 14 13 13 9 9 2
3730.0 9 10 12 1 1 9 4 5 15 9
3770.0 12 8 4 12 9 2 9 10 9 7
3810.0 3 11 9 0 0 6 11 13 16 9
3850.0 15 9 15 6 16 17 8 11 1 17
3890.0 5 7 4 22 17 14 19 11 12 3
3930.0 14 6 15 16 3 4 21 17 25 6
##END=
