##TITLE=Octanoic acid, pentadecafluoro-
##JCAMP-DX=4.24
##DATA TYPE=INFRARED SPECTRUM
##ORIGIN=Sadtler Research Labs Under US-EPA Contract
##OWNER=NIST Standard Reference Data Program
##CAS REGISTRY NO=335-67-1
##MOLFORM=C 8 H F 15 O 2
##XUNITS=1/CM
##YUNITS=ABSORBANCE
##XFACTOR=1.0
##YFACTOR=0.000089066
##DELTAX=4.0
##FIRSTX=450.0
##LASTX=3966.0
##FIRSTY=0.000000
##MAXX=3966
##MINX=450
##MAXY=0.89066
##MINY=0
##NPOINTS=880
##XYDATA=(X++(Y..Y))
450.0 0 79 67 88 119 160 147 166 172 197
490.0 224 250 244 275 316 321 353 384 438 518
530.0 601 629 641 587 572 594 621 688 723 763
570.0 799 762 714 720 706 699 666 625 619 637
610.0 644 672 703 734 739 770 820 886 899 890
650.0 896 917 995 940 886 792 674 604 610 632
690.0 658 719 803 853 859 800 672 635 704 758
730.0 776 835 891 940 985 864 614 443 383 406
770.0 473 554 621 627 644 675 686 680 729 759
810.0 669 578 547 538 557 589 610 560 468 380
850.0 327 283 271 270 267 295 339 384 422 432
890.0 417 393 363 347 325 305 285 272 279 278
930.0 282 278 271 274 267 269 252 249 257 265
970.0 291 331 393 462 506 517 531 575 671 776
1010.0 817 731 600 500 437 401 388 393 415 444
1050.0 488 525 552 591 629 673 719 736 727 682
1090.0 665 679 728 810 925 1091 1352 1733 2133 2410
1130.0 2524 2600 2678 2809 2958 3022 2873 2580 2316 2219
1170.0 2273 2391 2527 2671 2849 3055 3336 3704 4167 4703
1210.0 5182 5558 5679 5629 5549 5800 6519 7780 9301 10000
1250.0 8928 6565 4653 3466 2756 2273 1945 1713 1538 1405
1290.0 1278 1166 1063 989 941 920 890 840 778 748
1330.0 775 829 909 922 888 833 764 689 613 527
1370.0 477 479 490 509 520 487 434 376 315 282
1410.0 268 235 261 233 235 221 237 241 230 229
1450.0 240 245 259 246 225 226 215 188 157 144
1490.0 130 101 100 89 117 155 148 155 179 179
1530.0 192 187 180 173 192 177 182 169 177 175
1570.0 177 173 174 170 172 170 164 165 164 159
1610.0 154 157 144 158 149 154 148 157 146 162
1650.0 150 163 157 159 158 165 153 175 157 174
1690.0 164 184 206 239 230 215 205 185 182 182
1730.0 190 193 196 197 209 215 221 229 253 284
1770.0 328 358 396 447 487 566 641 791 1034 1481
1810.0 2090 2687 2655 2053 1393 988 821 714 631 510
1850.0 414 334 295 261 238 227 202 193 184 181
1890.0 172 163 156 149 149 143 146 143 147 140
1930.0 136 137 131 138 130 129 129 130 128 130
1970.0 130 130 128 127 128 132 129 124 126 124
2010.0 122 123 124 120 119 118 118 119 119 116
2050.0 118 119 116 115 118 115 115 118 116 114
2090.0 113 113 112 109 108 110 113 114 111 108
2130.0 113 109 109 110 110 107 109 107 109 108
2170.0 110 109 109 109 110 108 110 111 108 111
2210.0 112 110 108 110 112 109 110 109 111 110
2250.0 110 112 112 110 112 115 118 122 128 141
2290.0 150 166 179 188 196 211 204 198 207 192
2330.0 189 184 177 197 221 202 237 202 222 202
2370.0 199 188 193 189 161 134 122 119 119 121
2410.0 119 117 114 116 113 114 115 113 110 111
2450.0 110 112 112 108 109 110 112 112 112 110
2490.0 110 110 111 110 105 103 103 102 100 99
2530.0 97 93 94 94 94 91 92 89 92 91
2570.0 88 87 87 86 84 89 83 83 81 80
2610.0 78 78 77 73 73 74 70 71 71 71
2650.0 69 68 70 66 64 67 66 67 66 69
2690.0 70 67 68 64 67 67 68 68 71 70
2730.0 68 72 71 74 71 73 71 70 72 70
2770.0 72 70 72 72 73 73 78 80 82 79
2810.0 82 80 80 77 80 84 79 85 84 89
2850.0 93 90 89 85 85 87 88 88 86 85
2890.0 90 86 87 92 98 103 103 109 109 104
2930.0 110 103 102 96 96 90 86 85 87 93
2970.0 91 89 84 84 82 81 77 77 77 81
3010.0 79 81 79 80 78 79 76 79 78 78
3050.0 80 85 77 79 79 81 80 75 78 77
3090.0 76 69 71 76 72 74 73 69 74 72
3130.0 73 71 74 68 71 75 68 70 69 70
3170.0 70 68 72 75 66 68 67 67 65 73
3210.0 68 67 72 73 66 69 68 65 71 67
3250.0 64 68 66 72 64 69 69 68 68 71
3290.0 73 72 68 65 74 68 65 70 74 76
3330.0 66 72 70 71 70 68 72 70 74 79
3370.0 72 75 78 77 71 71 74 75 77 70
3410.0 79 73 77 78 73 79 74 80 80 80
3450.0 73 67 77 77 84 79 80 76 88 84
3490.0 70 81 80 89 94 85 89 80 90 121
3530.0 93 90 99 101 144 154 152 204 284 615
3570.0 1423 2110 1563 659 330 249 211 224 227 246
3610.0 255 202 172 144 114 141 115 97 98 99
3650.0 133 111 103 105 77 112 106 122 87 95
3690.0 102 94 91 99 89 101 118 95 108 124
3730.0 101 122 123 128 120 120 113 85 93 86
3770.0 83 79 75 85 81 83 82 83 100 84
3810.0 82 77 90 95 80 81 103 108 104 90
3850.0 78 120 100 91 103 108 95 85 123 107
3890.0 113 100 107 147 144 81 93 110 104 104
3930.0 117 107 94 91 118 111 103 109 116 108
##END=
