##TITLE=1H,1H,7H-Dodecafluoro-1-heptanol
##JCAMP-DX=4.24
##DATA TYPE=INFRARED SPECTRUM
##ORIGIN=Sadtler Research Labs Under US-EPA Contract
##OWNER=NIST Standard Reference Data Program
##CAS REGISTRY NO=335-99-9
##MOLFORM=C 7 H 4 F 12 O
##XUNITS=1/CM
##YUNITS=ABSORBANCE
##XFACTOR=1.0
##YFACTOR=0.000081628
##DELTAX=4.0
##FIRSTX=450.0
##LASTX=3966.0
##FIRSTY=0.008408
##MAXX=3966
##MINX=450
##MAXY=0.81628
##MINY=0
##NPOINTS=880
##XYDATA=(X++(Y..Y))
450.0 103 103 113 101 89 84 88 86 88 88
490.0 105 142 157 214 257 285 341 381 392 401
530.0 473 598 727 761 744 646 493 409 419 421
570.0 403 437 425 364 354 324 266 284 282 270
610.0 256 240 219 205 187 160 162 152 146 120
650.0 115 111 100 66 60 55 54 50 70 114
690.0 190 328 441 415 343 424 598 700 622 556
730.0 635 797 840 728 619 669 789 839 813 801
770.0 775 740 690 636 644 747 928 1097 1078 922
810.0 694 525 432 415 473 502 539 533 511 533
850.0 596 666 673 568 419 279 178 120 100 107
890.0 127 173 237 300 346 363 336 317 322 344
930.0 386 421 404 341 276 247 236 217 206 191
970.0 185 185 193 200 207 202 189 177 172 181
1010.0 173 170 177 203 244 310 396 494 596 685
1050.0 772 828 867 902 980 1105 1257 1452 1682 1780
1090.0 1628 1337 1125 1060 1120 1284 1592 2061 2639 3233
1130.0 3742 4211 4749 5245 5487 5254 4661 4138 3935 4066
1170.0 4306 4572 4813 5120 5585 6337 7299 8478 9503 10000
1210.0 9320 7811 6123 4748 3753 3155 2754 2448 2224 2091
1250.0 2089 2142 2114 1946 1690 1441 1221 1052 918 804
1290.0 716 666 626 598 568 524 493 449 419 384
1330.0 347 317 290 260 276 330 425 533 630 639
1370.0 564 431 298 247 244 276 391 534 617 574
1410.0 463 341 235 117 86 81 63 46 48 52
1450.0 59 85 115 120 112 82 44 20 29 28
1490.0 31 18 21 19 39 11 16 19 18 14
1530.0 15 23 28 18 15 19 20 20 0 11
1570.0 15 10 8 13 15 10 11 17 12 12
1610.0 13 13 12 14 13 17 14 15 10 16
1650.0 8 15 19 15 13 17 18 23 20 24
1690.0 22 19 20 28 29 27 25 33 30 26
1730.0 30 30 28 31 31 30 32 28 33 34
1770.0 28 36 33 37 34 32 39 40 45 43
1810.0 37 43 44 37 43 41 42 48 39 41
1850.0 44 43 44 45 44 43 47 43 43 48
1890.0 49 46 50 51 47 51 53 48 52 54
1930.0 50 49 48 47 47 53 46 54 55 49
1970.0 55 48 50 55 48 55 55 52 47 51
2010.0 54 61 54 55 62 54 55 54 54 54
2050.0 55 62 59 56 54 56 55 55 48 49
2090.0 50 48 56 55 55 55 55 55 56 56
2130.0 56 55 61 61 61 62 64 67 66 67
2170.0 67 67 67 62 67 66 68 68 68 61
2210.0 61 62 62 66 68 66 68 73 74 74
2250.0 79 81 85 85 93 89 89 85 85 85
2290.0 80 79 80 80 80 76 78 74 79 82
2330.0 82 79 87 95 100 81 81 84 102 103
2370.0 115 111 104 102 91 91 84 85 85 85
2410.0 79 79 79 79 78 78 78 74 79 78
2450.0 73 73 73 72 72 72 72 72 73 73
2490.0 73 73 73 73 73 72 66 73 67 67
2530.0 72 73 73 66 66 66 66 67 67 67
2570.0 66 67 60 60 60 61 61 61 58 60
2610.0 60 55 60 54 54 54 55 55 55 50
2650.0 57 54 52 47 48 53 47 48 48 48
2690.0 51 55 55 55 55 58 54 60 60 53
2730.0 59 60 60 60 63 60 64 60 60 68
2770.0 60 59 60 66 65 65 60 60 60 59
2810.0 59 60 56 61 61 65 60 60 60 60
2850.0 67 66 68 69 73 77 71 78 89 107
2890.0 126 145 163 154 136 117 100 94 98 99
2930.0 111 136 161 197 216 229 235 235 215 198
2970.0 192 196 220 255 246 208 182 186 211 247
3010.0 265 236 192 151 124 102 87 74 73 67
3050.0 66 61 60 60 60 61 61 61 54 47
3090.0 56 48 55 49 54 48 48 54 54 49
3130.0 48 52 49 49 53 48 54 48 48 49
3170.0 49 49 49 50 51 49 49 49 50 50
3210.0 50 48 50 49 49 50 49 50 49 49
3250.0 49 49 49 50 53 48 49 50 48 49
3290.0 50 47 55 51 47 50 48 54 49 49
3330.0 48 48 54 48 48 48 51 54 54 59
3370.0 52 60 60 54 60 48 50 55 64 59
3410.0 66 61 55 65 55 59 53 58 52 58
3450.0 54 57 63 56 57 48 48 53 52 58
3490.0 48 52 65 58 56 57 58 58 66 58
3530.0 51 54 51 65 57 58 60 65 69 57
3570.0 72 59 64 61 54 69 63 57 70 63
3610.0 74 95 94 121 124 139 151 165 211 290
3650.0 471 733 816 715 540 446 348 292 220 169
3690.0 135 121 99 93 82 87 86 76 75 81
3730.0 81 71 86 66 72 67 79 73 74 73
3770.0 74 75 76 76 72 63 59 65 68 61
3810.0 66 60 77 84 78 80 80 71 85 85
3850.0 85 82 94 88 81 82 88 89 89 80
3890.0 75 72 79 81 91 87 80 74 68 74
3930.0 75 69 64 68 76 76 77 80 83 86
##END=
