##TITLE=2,5-Dimethoxybenzyl alcohol
##JCAMP-DX=4.24
##DATA TYPE=INFRARED SPECTRUM
##ORIGIN=Sadtler Research Labs Under US-EPA Contract
##OWNER=NIST Standard Reference Data Program
##CAS REGISTRY NO=33524-31-1
##MOLFORM=C 9 H 12 O 3
##XUNITS=1/CM
##YUNITS=ABSORBANCE
##XFACTOR=1.0
##YFACTOR=0.000129877
##DELTAX=4.0
##FIRSTX=450.0
##LASTX=3966.0
##FIRSTY=0.029612
##MAXX=3966
##MINX=450
##MAXY=1.29877
##MINY=0
##NPOINTS=880
##XYDATA=(X++(Y..Y))
450.0 228 184 164 130 101 147 71 74 83 106
490.0 67 64 75 110 100 117 106 142 141 158
530.0 88 82 87 90 90 85 102 114 132 134
570.0 167 173 178 183 169 165 154 118 86 64
610.0 50 36 43 46 43 44 114 198 114 60
650.0 37 24 8 3 14 38 46 40 100 156
690.0 308 480 773 1013 1234 1160 974 709 483 382
730.0 377 394 402 384 325 269 239 215 196 189
770.0 179 185 185 213 277 374 505 643 779 886
810.0 896 777 618 466 330 241 184 168 172 209
850.0 278 354 428 478 528 585 649 666 568 434
890.0 334 239 199 182 194 228 272 321 349 351
930.0 331 301 289 285 304 328 366 424 478 528
970.0 565 599 625 668 728 819 952 1130 1345 1634
1010.0 1984 2419 2899 3387 3794 4137 4369 4613 4947 5214
1050.0 5208 4827 4060 3045 2093 1377 951 727 623 562
1090.0 525 503 453 409 406 429 466 504 550 587
1130.0 618 671 757 917 1167 1444 1652 1745 1743 1727
1170.0 1833 2105 2382 2518 2471 2287 2137 2246 2674 3484
1210.0 4759 6593 8479 9866 10000 8826 6900 4967 3687 2912
1250.0 2471 2240 2150 2181 2341 2614 2904 3036 2909 2584
1290.0 2186 1883 1695 1558 1396 1204 1012 838 704 614
1330.0 553 518 511 503 497 510 539 583 642 698
1370.0 772 861 935 1012 1084 1128 1123 1083 1032 1061
1410.0 1209 1483 1846 2100 2222 2132 1985 1850 1760 1697
1450.0 1684 1743 1958 2351 2695 2884 2879 2813 2980 3927
1490.0 5600 7790 9185 9291 7883 5280 3292 1938 1261 806
1530.0 600 438 364 316 270 239 225 246 235 234
1570.0 266 315 391 476 543 587 564 512 447 420
1610.0 411 380 355 276 235 168 164 133 116 105
1650.0 111 110 96 72 78 77 92 69 93 98
1690.0 97 107 169 173 168 147 122 108 75 61
1730.0 62 84 53 48 52 61 57 51 49 37
1770.0 53 44 32 30 41 34 41 33 42 34
1810.0 36 41 38 46 51 60 55 55 61 67
1850.0 54 47 46 45 40 36 27 13 13 5
1890.0 6 3 4 5 2 2 5 10 13 14
1930.0 18 23 30 40 52 57 70 82 91 96
1970.0 102 100 101 101 100 105 106 105 104 102
2010.0 98 98 95 98 94 97 97 100 100 102
2050.0 99 99 97 100 105 106 105 101 91 84
2090.0 73 64 50 39 30 24 20 15 12 15
2130.0 17 21 25 26 31 30 28 27 21 18
2170.0 17 15 15 15 13 16 17 18 17 15
2210.0 15 16 15 15 16 14 16 17 19 19
2250.0 21 21 23 23 22 22 18 17 14 13
2290.0 11 13 18 22 21 22 19 16 16 11
2330.0 11 9 10 6 20 10 15 6 8 2
2370.0 2 2 3 5 3 2 2 2 2 6
2410.0 6 8 8 8 6 8 4 5 3 4
2450.0 6 9 15 20 25 30 39 37 43 44
2490.0 41 42 41 39 33 31 33 33 29 28
2530.0 31 25 21 21 16 14 13 13 11 9
2570.0 12 14 12 11 17 21 23 24 26 27
2610.0 26 28 26 26 26 26 26 28 29 29
2650.0 29 29 29 25 23 25 24 23 24 24
2690.0 26 25 29 32 32 36 40 45 44 47
2730.0 50 53 56 62 67 75 81 82 86 94
2770.0 102 107 118 130 141 159 180 206 234 269
2810.0 315 360 417 499 626 844 1186 1557 1784 1823
2850.0 1654 1376 1161 1060 1041 1067 1115 1177 1214 1235
2890.0 1236 1241 1262 1322 1430 1576 1736 1836 1863 1848
2930.0 1890 2023 2279 2574 2811 2916 2872 2670 2321 1979
2970.0 1673 1438 1260 1145 1103 1169 1380 1747 2114 2192
3010.0 1973 1508 994 682 555 511 518 531 538 533
3050.0 504 474 445 435 428 426 412 393 366 342
3090.0 311 274 243 220 195 177 164 155 139 127
3130.0 109 93 81 70 62 53 50 47 46 43
3170.0 42 34 37 34 32 33 27 28 26 24
3210.0 23 23 22 20 19 18 18 18 19 16
3250.0 11 12 15 13 8 8 12 6 2 6
3290.0 9 11 10 12 6 7 5 2 5 3
3330.0 4 6 8 6 2 4 5 10 6 14
3370.0 13 6 8 14 9 10 13 10 8 13
3410.0 15 10 14 15 16 12 19 10 19 13
3450.0 9 14 11 11 16 9 17 21 16 22
3490.0 19 21 18 19 19 18 24 21 22 16
3530.0 19 18 21 32 38 31 34 42 37 49
3570.0 48 52 54 48 70 72 83 82 93 112
3610.0 140 155 200 259 327 389 410 400 378 347
3650.0 328 312 298 295 269 261 234 225 192 162
3690.0 144 107 89 71 59 47 34 35 27 25
3730.0 24 27 26 3 34 0 15 12 11 20
3770.0 7 9 4 10 14 16 4 9 7 21
3810.0 5 7 2 4 6 6 8 11 12 14
3850.0 18 24 10 13 18 26 17 13 18 34
3890.0 18 21 17 31 18 20 16 19 19 6
3930.0 8 16 11 12 2 5 14 22 21 17
##END=
