##TITLE=Dodecanamide, N,N-diethyl-
##JCAMP-DX=4.24
##DATA TYPE=INFRARED SPECTRUM
##ORIGIN=Sadtler Research Labs Under US-EPA Contract
##OWNER=NIST Standard Reference Data Program
##CAS REGISTRY NO=3352-87-2
##MOLFORM=C 16 H 33 N O
##XUNITS=1/CM
##YUNITS=ABSORBANCE
##XFACTOR=1.0
##YFACTOR=0.000074368
##DELTAX=4.0
##FIRSTX=450.0
##LASTX=3966.0
##FIRSTY=0.010412
##MAXX=3966
##MINX=450
##MAXY=0.74368
##MINY=0
##NPOINTS=880
##XYDATA=(X++(Y..Y))
450.0 140 498 290 190 45 429 525 230 470 306
490.0 247 183 428 299 243 196 88 487 532 356
530.0 427 343 200 399 228 251 160 2 223 395
570.0 259 420 471 341 439 469 394 284 363 293
610.0 419 340 319 284 213 150 301 292 149 308
650.0 172 270 235 275 283 450 383 319 209 332
690.0 188 248 222 180 358 245 344 301 446 365
730.0 309 449 138 161 407 455 355 255 369 242
770.0 366 295 343 418 417 460 503 436 427 306
810.0 446 301 298 294 269 237 272 180 152 228
850.0 196 198 214 255 256 382 246 188 236 257
890.0 300 274 233 207 214 253 278 268 251 220
930.0 200 218 253 319 296 260 269 242 241 273
970.0 264 195 185 221 215 174 253 221 262 330
1010.0 374 364 321 355 349 377 410 387 393 475
1050.0 482 563 577 763 785 865 808 889 980 875
1090.0 975 1109 1124 1037 994 979 884 948 862 920
1130.0 1080 1200 1209 1184 1015 792 674 598 555 524
1170.0 434 369 371 341 390 440 445 491 531 616
1210.0 761 883 1056 1192 1230 1198 1176 1235 1383 1563
1250.0 1745 1899 1993 1952 1825 1538 1342 1230 1100 959
1290.0 906 867 825 888 914 988 1030 952 881 824
1330.0 759 794 852 957 1064 1142 1222 1297 1351 1425
1370.0 1392 1387 1599 1784 1788 1566 1409 1418 1519 1756
1410.0 2127 2476 2695 2715 2543 2096 1766 1600 1588 1702
1450.0 1861 2022 2185 2240 2116 1871 1655 1441 1231 1010
1490.0 851 674 628 532 479 456 379 403 366 339
1530.0 321 262 302 254 264 220 229 235 199 206
1570.0 207 202 217 190 236 230 219 239 225 241
1610.0 278 281 319 342 405 467 543 657 713 978
1650.0 1272 1747 2693 3656 5380 6689 6983 6016 4326 2763
1690.0 1684 1183 819 682 567 492 461 401 352 294
1730.0 288 304 252 239 260 246 247 235 260 260
1770.0 295 312 288 289 255 218 209 166 157 138
1810.0 124 126 108 100 103 100 89 75 80 78
1850.0 64 66 57 65 76 65 68 66 66 65
1890.0 66 63 58 60 57 56 58 63 56 48
1930.0 46 45 46 46 49 45 60 51 56 50
1970.0 48 40 43 40 45 45 44 38 40 43
2010.0 44 51 53 49 47 46 48 43 44 46
2050.0 43 46 41 41 39 33 39 34 38 41
2090.0 40 46 45 48 45 42 39 37 34 30
2130.0 23 27 23 28 31 30 31 34 36 36
2170.0 33 33 30 30 28 27 29 26 23 26
2210.0 21 19 15 17 23 26 27 30 35 35
2250.0 31 28 29 23 21 16 9 6 13 23
2290.0 31 34 42 49 62 75 79 86 87 85
2330.0 79 82 87 69 67 103 149 132 55 13
2370.0 2 2 3 19 37 43 48 43 39 36
2410.0 27 28 20 18 19 19 17 19 23 21
2450.0 19 21 21 22 23 24 30 28 33 31
2490.0 25 27 22 19 18 17 23 27 30 41
2530.0 43 46 40 43 44 41 33 37 35 34
2570.0 38 34 40 38 39 44 43 44 42 49
2610.0 50 57 61 69 68 68 67 73 64 70
2650.0 75 69 74 83 91 104 102 116 122 120
2690.0 120 120 119 108 105 108 109 111 115 116
2730.0 120 126 136 133 145 145 135 151 156 158
2770.0 167 169 181 191 205 224 242 267 286 318
2810.0 360 391 431 485 539 606 671 783 932 1184
2850.0 1599 2241 3039 3660 3761 3473 3108 2851 2766 2718
2890.0 2630 2633 2772 3066 3499 4011 4611 5400 6545 8055
2930.0 9457 10000 9362 8213 6837 5583 4703 4254 4213 4340
2970.0 4389 4184 3822 3416 2979 2541 2144 1755 1395 1091
3010.0 872 710 584 500 435 387 346 320 301 279
3050.0 259 237 227 207 188 169 153 145 130 136
3090.0 129 135 122 126 128 127 117 116 112 102
3130.0 108 96 96 101 91 83 74 79 77 67
3170.0 75 68 68 73 69 76 67 67 58 56
3210.0 47 41 42 28 31 26 30 36 38 38
3250.0 41 42 35 35 33 38 32 30 33 43
3290.0 40 34 35 42 35 34 55 62 68 70
3330.0 77 81 75 61 43 49 29 32 33 19
3370.0 17 29 31 34 45 42 26 27 31 27
3410.0 34 31 31 37 31 30 33 19 31 23
3450.0 18 21 30 25 31 42 43 53 40 37
3490.0 33 31 27 18 8 9 27 29 27 20
3530.0 42 26 31 39 41 34 36 47 55 62
3570.0 84 109 101 89 61 49 13 17 10 40
3610.0 59 42 73 68 65 66 54 52 40 40
3650.0 50 30 29 27 53 62 35 28 28 53
3690.0 30 46 41 52 54 68 74 49 59 52
3730.0 42 45 25 0 47 3 37 33 61 50
3770.0 44 52 70 64 31 25 46 49 51 26
3810.0 34 26 27 3 15 26 29 56 49 65
3850.0 98 90 52 71 98 44 18 16 20 28
3890.0 18 35 38 49 29 39 29 35 48 34
3930.0 41 48 67 69 32 47 39 48 23 6
##END=
