##TITLE=Phenol, 2-methyl-6-(2-propenyl)-
##JCAMP-DX=4.24
##DATA TYPE=INFRARED SPECTRUM
##ORIGIN=Sadtler Research Labs Under US-EPA Contract
##OWNER=NIST Standard Reference Data Program
##CAS REGISTRY NO=3354-58-3
##MOLFORM=C 10 H 12 O
##XUNITS=1/CM
##YUNITS=ABSORBANCE
##XFACTOR=1.0
##YFACTOR=0.000071683
##DELTAX=4.0
##FIRSTX=450.0
##LASTX=3966.0
##FIRSTY=0.005591
##MAXX=3966
##MINX=450
##MAXY=0.71683
##MINY=0
##NPOINTS=880
##XYDATA=(X++(Y..Y))
450.0 78 50 89 105 172 247 288 317 217 209
490.0 172 193 247 225 250 222 270 391 517 600
530.0 584 483 370 324 294 256 251 191 169 147
570.0 152 164 164 143 67 61 110 150 174 240
610.0 370 487 584 587 629 463 275 158 104 66
650.0 53 65 56 57 1 58 73 96 101 149
690.0 206 279 348 380 374 339 304 313 439 777
730.0 1334 2258 3210 4386 4648 3615 3036 2586 2436 2611
770.0 2923 2624 1882 1269 735 379 204 164 160 197
810.0 267 401 630 1005 1407 1655 1556 1402 995 571
850.0 331 248 253 231 326 455 624 765 826 834
890.0 833 877 1065 1415 1959 2570 3213 3505 3393 2958
930.0 2268 1708 1307 1060 917 818 752 675 579 538
970.0 532 551 707 953 1312 1800 2192 2323 2264 1964
1010.0 1506 1121 846 627 470 392 355 347 324 339
1050.0 362 407 477 630 847 1128 1448 1705 1810 1819
1090.0 1732 1570 1429 1310 1167 953 728 535 396 325
1130.0 298 293 303 334 381 450 582 746 933 1205
1170.0 1628 2248 3228 4659 6341 8087 9473 10000 9666 8614
1210.0 7045 5504 4215 3138 2378 1900 1705 1683 1846 2279
1250.0 2968 3722 4197 4247 3943 3134 2288 1740 1432 1319
1290.0 1287 1291 1334 1385 1521 1755 2025 2244 2303 2162
1330.0 1815 1369 947 582 399 299 249 221 230 215
1370.0 253 308 365 443 473 476 444 388 409 487
1410.0 623 774 949 1161 1568 2147 2832 3387 3704 3769
1450.0 3729 3943 4494 5257 6076 6580 6492 5826 4781 3653
1490.0 2720 1987 1404 1013 854 584 497 436 399 333
1530.0 343 367 409 376 334 330 327 347 187 225
1570.0 239 257 315 448 665 932 1149 1237 1208 991
1610.0 738 622 604 682 864 1173 1550 1785 1804 1577
1650.0 1063 663 408 335 273 250 237 200 203 168
1690.0 147 161 157 105 107 84 93 96 61 70
1730.0 81 110 63 66 69 82 60 67 88 92
1770.0 115 115 114 133 128 124 127 124 135 120
1810.0 136 145 159 210 263 331 380 420 452 447
1850.0 410 343 282 211 166 134 101 75 70 75
1890.0 105 130 171 223 255 250 224 168 107 76
1930.0 48 31 18 34 27 19 16 22 12 14
1970.0 14 20 26 22 28 30 36 23 8 5
2010.0 16 10 5 9 10 9 17 20 24 17
2050.0 17 18 18 20 6 10 18 25 34 48
2090.0 54 48 38 27 24 9 3 7 7 1
2130.0 9 8 16 10 14 10 5 12 12 10
2170.0 18 18 24 17 5 11 18 13 13 15
2210.0 20 12 14 14 7 5 13 8 15 14
2250.0 15 22 25 29 26 31 32 32 39 37
2290.0 45 56 60 68 74 86 80 92 91 104
2330.0 89 86 86 75 78 57 64 59 65 15
2370.0 23 30 48 62 73 78 78 72 79 79
2410.0 85 93 94 99 100 100 92 101 97 100
2450.0 93 93 93 101 108 105 114 116 124 115
2490.0 117 98 105 94 101 93 93 88 87 86
2530.0 74 62 60 47 52 54 54 47 47 40
2570.0 40 38 33 34 39 37 37 34 46 46
2610.0 39 48 47 46 40 46 60 60 49 56
2650.0 58 75 79 78 82 74 66 59 53 46
2690.0 46 48 49 57 52 52 65 66 74 73
2730.0 88 101 130 151 168 180 152 123 101 73
2770.0 61 60 53 59 53 67 79 89 98 111
2810.0 129 163 194 237 295 389 505 647 817 957
2850.0 1069 1172 1310 1452 1559 1612 1586 1503 1411 1372
2890.0 1404 1503 1668 1870 2122 2366 2588 2792 3019 3267
2930.0 3428 3386 3174 2748 2265 1870 1640 1528 1531 1472
2970.0 1513 1690 1984 2300 2456 2349 1970 1532 1258 1296
3010.0 1531 1723 1836 1957 2138 2443 2733 2856 2741 2498
3050.0 2349 2415 2592 2746 2836 2777 2649 2574 2597 2699
3090.0 2772 2332 1836 1288 790 524 363 266 204 146
3130.0 123 96 89 86 69 56 66 57 58 52
3170.0 51 56 62 70 76 66 67 60 58 46
3210.0 35 29 29 14 29 8 13 4 13 10
3250.0 15 11 12 26 48 41 27 19 27 25
3290.0 37 13 13 5 37 37 21 26 17 32
3330.0 38 39 30 30 67 64 53 42 40 53
3370.0 62 57 21 22 49 50 76 53 55 65
3410.0 73 71 54 42 75 67 47 52 46 47
3450.0 66 61 73 75 92 127 116 106 102 136
3490.0 139 152 153 134 134 140 202 253 311 380
3530.0 443 538 591 614 641 676 699 697 713 797
3570.0 1085 1543 2148 2838 3439 3830 4103 4094 3895 3533
3610.0 3025 2477 1908 1447 1115 1009 1022 1197 1529 2017
3650.0 2496 2760 2612 2245 1567 1057 639 438 272 177
3690.0 100 74 28 25 44 32 28 27 25 19
3730.0 24 4 42 9 2 1 2 1 1 1
3770.0 1 1 1 1 1 1 1 1 1 1
3810.0 3 1 5 19 0 1 1 10 0 9
3850.0 15 40 96 107 125 117 86 115 108 104
3890.0 94 63 51 47 27 29 1 40 58 77
3930.0 76 53 53 49 46 13 1 1 1 16
##END=
