##TITLE=3-(2-Hydroxyethyl)-2-oxazolidinone
##JCAMP-DX=4.24
##DATA TYPE=INFRARED SPECTRUM
##ORIGIN=Sadtler Research Labs Under US-EPA Contract
##OWNER=NIST Standard Reference Data Program
##CAS REGISTRY NO=3356-88-5
##MOLFORM=C 5 H 9 N O 3
##XUNITS=1/CM
##YUNITS=ABSORBANCE
##XFACTOR=1.0
##YFACTOR=0.000064362
##DELTAX=4.0
##FIRSTX=450.0
##LASTX=3966.0
##FIRSTY=0.000000
##MAXX=3966
##MINX=450
##MAXY=0.64362
##MINY=0
##NPOINTS=880
##XYDATA=(X++(Y..Y))
450.0 0 201 315 356 357 359 338 327 272 268
490.0 229 222 205 218 205 209 198 217 196 189
530.0 191 192 208 229 172 195 151 210 210 171
570.0 147 179 196 195 195 154 169 190 186 174
610.0 170 196 203 237 235 237 241 223 231 216
650.0 215 191 209 206 209 237 238 231 263 278
690.0 294 276 259 237 194 198 142 155 148 155
730.0 149 145 153 173 227 289 366 436 599 694
770.0 598 509 446 351 292 248 236 220 215 212
810.0 202 191 178 187 174 195 180 198 212 240
850.0 283 310 333 337 336 328 308 286 275 253
890.0 254 250 249 261 278 289 306 348 381 387
930.0 390 385 376 363 371 386 437 502 548 563
970.0 561 541 487 417 378 367 376 409 464 535
1010.0 627 733 852 964 1086 1243 1446 1722 2100 2538
1050.0 2956 3239 3357 3418 3305 2990 2678 2430 2279 2135
1090.0 1982 1800 1583 1364 1140 971 854 770 727 693
1130.0 685 686 690 707 738 783 836 914 1014 1108
1170.0 1209 1287 1350 1383 1397 1395 1395 1404 1420 1447
1210.0 1467 1491 1523 1556 1585 1606 1631 1671 1748 1876
1250.0 2054 2235 2357 2367 2257 2017 1690 1350 1076 884
1290.0 774 715 677 664 661 667 664 665 673 669
1330.0 658 652 631 642 674 737 838 948 1021 1052
1370.0 1049 1010 944 906 942 1063 1237 1478 1792 2105
1410.0 2347 2447 2395 2198 1921 1591 1320 1137 1006 889
1450.0 775 671 558 513 460 470 521 712 863 992
1490.0 1003 1024 882 699 558 447 384 340 319 312
1530.0 297 283 262 218 205 206 199 182 188 192
1570.0 188 183 195 187 186 184 191 186 192 191
1610.0 185 186 184 183 177 185 188 176 188 180
1650.0 177 181 198 187 194 188 185 198 188 187
1690.0 208 219 219 242 267 301 325 352 430 485
1730.0 549 610 715 810 915 1024 1187 1409 1723 2227
1770.0 2898 3879 5014 6526 8162 9641 10000 9950 9603 8151
1810.0 6155 4232 2837 1948 1458 1165 988 860 775 659
1850.0 556 471 413 370 336 318 298 285 270 252
1890.0 236 228 222 216 210 205 206 199 189 189
1930.0 194 188 192 185 185 187 186 185 185 183
1970.0 184 182 185 186 181 172 175 172 172 171
2010.0 169 163 164 167 168 166 166 166 161 164
2050.0 164 163 163 166 166 170 168 173 169 168
2090.0 167 167 165 162 163 164 161 161 159 160
2130.0 159 161 160 160 161 164 158 161 165 162
2170.0 165 161 166 165 165 166 165 161 156 159
2210.0 157 152 154 156 155 156 156 154 158 155
2250.0 156 152 155 160 160 159 162 161 164 165
2290.0 166 169 173 175 170 172 166 161 162 160
2330.0 153 167 152 140 163 165 164 161 150 146
2370.0 148 147 159 165 162 154 147 152 155 151
2410.0 148 147 143 144 141 142 143 145 144 146
2450.0 146 149 147 150 146 151 150 151 150 154
2490.0 148 145 152 149 149 149 148 153 152 154
2530.0 154 155 161 162 167 163 168 167 169 171
2570.0 174 169 163 166 164 162 162 162 158 157
2610.0 157 156 156 154 152 156 152 156 157 153
2650.0 156 161 156 160 160 163 163 168 170 173
2690.0 175 183 181 185 193 194 194 197 201 205
2730.0 205 209 207 208 211 209 210 210 218 219
2770.0 224 232 236 235 241 252 258 261 276 285
2810.0 294 306 317 329 347 367 389 416 449 488
2850.0 542 604 683 767 861 963 1061 1164 1248 1320
2890.0 1352 1376 1381 1398 1434 1517 1604 1670 1715 1718
2930.0 1691 1612 1529 1437 1371 1297 1223 1160 1112 1086
2970.0 1079 1095 1113 1130 1109 1066 1000 922 821 720
3010.0 619 519 430 366 314 287 265 239 225 221
3050.0 210 201 197 200 195 189 189 186 180 176
3090.0 169 168 166 163 165 164 156 150 148 154
3130.0 153 155 147 153 153 149 149 145 152 145
3170.0 147 148 150 150 148 154 155 153 154 155
3210.0 148 151 153 150 150 142 145 149 149 147
3250.0 142 146 143 146 148 150 148 150 152 149
3290.0 146 154 158 154 151 157 165 163 155 156
3330.0 157 157 161 156 165 157 159 156 155 151
3370.0 156 167 160 161 169 163 166 160 167 156
3410.0 159 160 167 160 163 164 166 173 168 177
3450.0 173 177 182 180 194 207 210 226 242 266
3490.0 293 326 340 363 385 389 405 390 382 369
3530.0 361 349 331 315 295 290 279 269 262 275
3570.0 285 275 260 256 256 231 232 215 214 209
3610.0 212 205 211 206 223 219 214 212 231 221
3650.0 230 274 298 353 382 411 416 396 346 321
3690.0 266 220 204 174 170 162 158 143 141 150
3730.0 143 148 157 141 169 141 141 142 141 153
3770.0 141 141 145 141 144 141 141 141 140 158
3810.0 141 155 141 141 141 141 140 149 141 141
3850.0 144 142 152 151 145 153 141 141 141 141
3890.0 142 145 143 145 141 141 141 141 159 144
3930.0 150 145 143 141 144 143 171 175 144 141
##END=
