##TITLE=Furan, tetrahydro-2,2,4,4-tetramethyl-
##JCAMP-DX=4.24
##DATA TYPE=INFRARED SPECTRUM
##ORIGIN=Sadtler Research Labs Under US-EPA Contract
##OWNER=NIST Standard Reference Data Program
##CAS REGISTRY NO=3358-28-9
##MOLFORM=C 8 H 16 O
##XUNITS=1/CM
##YUNITS=ABSORBANCE
##XFACTOR=1.0
##YFACTOR=0.000140372
##DELTAX=4.0
##FIRSTX=450.0
##LASTX=3966.0
##FIRSTY=0.048007
##MAXX=3966
##MINX=450
##MAXY=1.40372
##MINY=0
##NPOINTS=880
##XYDATA=(X++(Y..Y))
450.0 342 279 249 285 263 242 171 173 115 111
490.0 70 34 69 52 48 0 40 44 41 35
530.0 45 55 52 45 27 53 62 40 46 68
570.0 63 47 47 40 12 54 49 17 41 35
610.0 45 70 92 165 210 240 247 220 175 127
650.0 70 49 29 22 26 6 24 18 20 20
690.0 27 19 23 20 27 26 21 30 32 31
730.0 30 26 31 32 46 69 107 188 286 368
770.0 506 607 587 509 432 295 194 124 86 66
810.0 64 68 80 86 88 102 108 124 145 175
850.0 219 294 390 486 609 679 622 543 459 352
890.0 272 250 266 309 353 403 391 362 335 305
930.0 287 283 325 336 353 356 327 283 240 202
970.0 183 172 161 160 159 168 171 170 167 164
1010.0 171 172 182 196 239 292 406 586 926 1562
1050.0 2676 4065 5040 5809 5456 4964 3696 2449 1779 1477
1090.0 1254 1028 786 560 431 369 365 401 468 557
1130.0 660 768 845 885 865 805 686 566 451 358
1170.0 300 281 304 346 406 474 551 643 758 878
1210.0 994 1122 1272 1445 1587 1677 1606 1444 1202 965
1250.0 789 686 664 677 719 741 792 891 1086 1277
1290.0 1397 1427 1306 1108 793 531 335 225 164 133
1330.0 123 118 140 168 233 339 556 876 1273 1690
1370.0 2089 2324 2291 2166 1735 1417 970 625 376 209
1410.0 131 134 123 144 144 183 236 325 507 684
1450.0 922 1112 1302 1270 1210 1162 1052 885 693 546
1490.0 404 276 191 127 97 77 59 52 40 42
1530.0 31 31 32 23 24 25 33 17 21 20
1570.0 27 14 27 12 19 22 25 25 27 34
1610.0 29 33 34 39 38 38 46 41 49 46
1650.0 45 36 50 40 40 42 34 48 37 39
1690.0 44 49 38 42 39 39 36 32 36 41
1730.0 42 33 34 33 27 20 20 14 14 14
1770.0 13 6 9 12 10 8 9 7 7 11
1810.0 9 11 16 16 23 27 29 31 28 26
1850.0 20 18 15 15 12 10 10 12 12 9
1890.0 12 13 16 17 20 25 29 38 40 47
1930.0 48 47 43 36 28 26 23 20 21 18
1970.0 19 18 18 17 17 19 20 20 22 24
2010.0 23 24 23 22 20 19 17 16 16 14
2050.0 15 12 15 15 14 14 14 16 16 18
2090.0 18 18 23 28 36 42 45 45 42 36
2130.0 29 22 23 21 23 22 22 20 15 14
2170.0 11 10 6 7 6 6 4 6 4 5
2210.0 5 6 6 8 6 8 10 11 10 12
2250.0 13 13 13 12 9 9 6 5 6 8
2290.0 10 8 5 7 3 4 3 3 4 6
2330.0 0 4 3 0 1 4 0 0 0 0
2370.0 1 2 3 6 10 8 10 10 10 11
2410.0 11 11 7 9 7 5 2 4 1 1
2450.0 2 0 3 0 2 0 1 3 3 2
2490.0 2 4 2 4 1 5 6 6 6 5
2530.0 8 9 9 9 10 8 10 11 15 17
2570.0 21 23 26 29 30 32 29 31 36 37
2610.0 39 43 46 45 49 50 54 57 59 64
2650.0 62 68 75 82 94 109 126 143 153 157
2690.0 151 136 118 102 93 97 108 125 141 156
2730.0 162 168 167 157 147 134 124 118 118 120
2770.0 122 124 123 127 134 145 166 202 244 299
2810.0 368 461 590 770 1035 1408 1867 2374 2794 3026
2850.0 3039 2846 2578 2405 2459 2720 3047 3314 3343 3132
2890.0 2830 2509 2283 2204 2245 2370 2547 2828 3225 3735
2930.0 4353 5023 5629 6075 6521 6996 7565 8169 9069 9552
2970.0 9882 10000 9639 8413 6760 4927 3083 1703 902 527
3010.0 360 279 227 194 172 149 134 117 107 95
3050.0 86 80 82 81 78 78 75 80 79 76
3090.0 77 79 81 81 79 79 82 81 84 84
3130.0 84 88 86 88 87 90 95 98 102 111
3170.0 125 135 142 147 153 151 149 138 130 121
3210.0 118 109 104 96 87 84 74 70 65 58
3250.0 51 46 41 39 38 35 38 32 34 32
3290.0 34 32 31 33 39 37 37 33 35 39
3330.0 42 42 40 45 46 42 41 38 34 27
3370.0 28 31 33 29 29 33 32 30 36 32
3410.0 33 33 35 30 34 30 30 25 20 13
3450.0 13 15 19 10 11 9 9 6 8 8
3490.0 12 12 7 8 9 10 13 14 13 9
3530.0 16 10 11 20 7 11 16 8 18 1
3570.0 7 12 11 15 1 8 10 14 14 8
3610.0 8 15 14 11 13 10 7 25 9 16
3650.0 3 7 16 9 25 1 18 2 23 6
3690.0 13 17 19 15 19 11 17 11 16 21
3730.0 12 17 17 19 9 30 12 25 23 10
3770.0 20 15 21 17 30 22 21 16 23 15
3810.0 35 23 30 23 20 28 26 14 23 21
3850.0 25 26 24 36 28 26 29 27 24 30
3890.0 29 31 33 33 37 44 48 38 37 32
3930.0 29 31 29 22 29 29 22 13 24 19
##END=
