##TITLE=Benzene, 3,5-dichloro-1-methoxy-
##JCAMP-DX=4.24
##DATA TYPE=INFRARED SPECTRUM
##ORIGIN=Sadtler Research Labs Under US-EPA Contract
##OWNER=NIST Standard Reference Data Program
##CAS REGISTRY NO=33719-74-3
##MOLFORM=C 7 H 6 Cl 2 O
##XUNITS=1/CM
##YUNITS=ABSORBANCE
##XFACTOR=1.0
##YFACTOR=0.000092267
##DELTAX=4.0
##FIRSTX=450.0
##LASTX=3966.0
##FIRSTY=0.000000
##MAXX=3966
##MINX=450
##MAXY=0.92267
##MINY=0
##NPOINTS=880
##XYDATA=(X++(Y..Y))
450.0 0 382 454 376 301 435 328 374 312 296
490.0 287 317 244 328 268 268 333 363 352 233
530.0 317 253 263 294 271 333 322 296 361 406
570.0 468 462 473 459 377 344 288 317 305 279
610.0 318 305 317 314 300 340 324 338 360 363
650.0 396 391 579 755 926 1248 1083 750 619 379
690.0 323 323 283 280 287 306 259 283 293 255
730.0 313 292 284 302 290 294 283 299 327 320
770.0 370 404 471 591 766 1150 1668 2380 3013 3220
810.0 3047 2366 1702 1512 1597 2090 2278 2211 2318 1939
850.0 1530 1351 1352 1298 991 883 861 1020 1567 2218
890.0 2592 2603 2148 1339 731 509 424 375 370 341
930.0 350 331 326 333 312 319 307 308 322 309
970.0 323 341 365 422 500 559 572 568 513 465
1010.0 489 521 591 731 945 1297 1797 2466 3285 4031
1050.0 4564 4656 4214 3457 2504 1770 1368 1174 1345 1722
1090.0 2067 2303 2591 2771 2732 2583 2109 1373 854 586
1130.0 467 406 387 374 363 370 367 373 364 333
1170.0 345 341 354 373 370 382 391 396 441 483
1210.0 596 731 899 1013 1060 1080 1052 1097 1305 1672
1250.0 2331 3124 3650 3696 3172 2235 1371 926 813 885
1290.0 1093 1339 1556 1638 1466 1179 798 497 369 272
1330.0 225 202 225 297 323 368 406 480 613 717
1370.0 892 956 949 976 956 1043 1200 1396 1763 2211
1410.0 2897 3656 4361 4686 4563 4247 3843 3298 2859 2377
1450.0 1888 1843 2105 2440 2372 2078 1718 1347 1030 864
1490.0 813 735 716 684 631 636 579 609 670 623
1530.0 674 679 711 800 887 1168 1653 2518 4173 5598
1570.0 7991 9483 9219 10000 8318 8214 7956 6128 4757 3084
1610.0 2110 1707 1443 1232 1031 844 751 671 591 597
1650.0 588 546 527 461 479 435 451 424 455 444
1690.0 437 433 461 438 417 418 409 427 358 334
1730.0 343 322 327 283 305 293 274 272 273 278
1770.0 280 290 268 276 279 274 285 276 275 268
1810.0 265 261 260 271 267 282 259 272 263 276
1850.0 257 256 261 257 272 277 273 281 280 281
1890.0 276 269 266 264 261 265 260 274 269 271
1930.0 273 270 275 271 274 264 259 259 251 258
1970.0 258 261 267 267 273 276 276 270 261 260
2010.0 251 242 244 239 242 243 246 249 250 251
2050.0 252 250 257 252 258 259 260 271 270 277
2090.0 284 289 297 300 299 295 288 283 275 274
2130.0 283 294 309 319 333 333 316 304 278 259
2170.0 249 241 245 249 248 247 244 242 238 233
2210.0 229 220 222 218 218 219 216 218 214 219
2250.0 218 217 218 219 222 218 217 219 218 221
2290.0 230 229 234 235 244 253 252 265 275 286
2330.0 285 296 325 256 336 309 369 328 335 310
2370.0 289 266 255 247 235 228 217 214 213 215
2410.0 222 224 220 219 215 210 203 205 205 206
2450.0 209 213 216 217 217 224 225 226 229 231
2490.0 233 234 234 237 243 246 254 256 254 244
2530.0 231 222 217 215 217 218 223 226 228 222
2570.0 224 214 208 208 207 211 208 212 214 214
2610.0 216 218 221 221 226 230 240 243 246 248
2650.0 251 245 240 240 241 240 241 242 245 238
2690.0 238 232 236 233 232 238 236 237 242 240
2730.0 231 232 226 228 223 221 224 223 224 226
2770.0 225 227 226 232 237 243 249 250 252 257
2810.0 274 285 296 323 363 411 486 568 642 688
2850.0 711 692 655 605 554 522 501 496 508 529
2890.0 530 538 537 545 551 566 583 611 632 628
2930.0 632 663 763 975 1202 1320 1334 1238 1101 1058
2970.0 997 863 742 635 558 528 519 556 619 741
3010.0 921 1032 1018 913 701 509 402 359 329 309
3050.0 294 284 276 275 268 270 265 271 279 284
3090.0 296 305 297 284 267 264 257 250 248 248
3130.0 251 253 257 264 257 257 266 245 250 245
3170.0 238 247 243 239 235 236 234 231 237 237
3210.0 231 237 233 239 230 229 227 228 221 228
3250.0 226 234 224 226 226 227 229 223 225 223
3290.0 220 224 223 224 223 222 234 221 220 226
3330.0 225 230 225 233 225 230 226 231 228 225
3370.0 228 234 223 235 229 227 237 242 226 232
3410.0 233 220 232 234 232 226 234 232 222 227
3450.0 225 224 229 231 226 225 223 227 233 222
3490.0 235 227 232 220 230 226 220 226 226 227
3530.0 217 227 233 223 225 223 232 222 239 224
3570.0 226 229 228 239 229 219 207 228 222 235
3610.0 227 236 227 241 239 247 217 236 245 234
3650.0 223 226 237 226 259 223 254 198 244 237
3690.0 224 239 212 230 222 217 231 231 235 224
3730.0 237 227 205 246 214 247 206 232 222 212
3770.0 221 203 215 205 203 206 211 221 218 217
3810.0 226 209 220 204 221 203 213 205 203 257
3850.0 203 218 202 210 206 220 233 219 231 205
3890.0 218 222 245 206 208 203 203 211 203 221
3930.0 207 239 217 203 224 201 206 249 225 221
##END=
