##TITLE=Hexane, 2-bromo-
##JCAMP-DX=4.24
##DATA TYPE=INFRARED SPECTRUM
##ORIGIN=Sadtler Research Labs Under US-EPA Contract
##OWNER=NIST Standard Reference Data Program
##CAS REGISTRY NO=3377-86-4
##MOLFORM=C 6 H 13 Br
##XUNITS=1/CM
##YUNITS=ABSORBANCE
##XFACTOR=1.0
##YFACTOR=0.000049512
##DELTAX=4.0
##FIRSTX=450.0
##LASTX=3966.0
##FIRSTY=0.008516
##MAXX=3966
##MINX=450
##MAXY=0.49512
##MINY=0
##NPOINTS=880
##XYDATA=(X++(Y..Y))
450.0 172 158 145 123 70 28 8 56 136 166
490.0 234 284 320 189 168 199 229 287 442 528
530.0 605 632 623 724 603 620 527 429 400 297
570.0 191 278 230 184 229 241 271 314 287 265
610.0 363 511 705 786 686 616 371 235 113 40
650.0 30 32 114 149 146 206 101 42 44 10
690.0 83 87 161 195 155 170 161 125 176 279
730.0 440 484 489 632 416 348 262 270 155 133
770.0 192 172 192 215 217 223 190 254 274 274
810.0 259 216 191 160 161 170 197 182 184 145
850.0 139 136 160 173 227 262 321 327 337 337
890.0 316 311 340 362 377 359 331 280 258 187
930.0 177 164 164 192 185 184 188 220 274 372
970.0 448 504 535 556 547 503 504 522 536 531
1010.0 490 471 424 355 309 296 354 404 459 481
1050.0 469 438 397 376 355 346 371 376 347 337
1090.0 298 278 257 257 307 399 455 511 606 676
1130.0 776 871 1028 1141 1239 1195 1020 791 586 479
1170.0 482 599 811 1063 1359 1559 1622 1508 1268 1002
1210.0 813 742 778 890 1060 1262 1471 1585 1549 1516
1250.0 1343 1139 998 874 769 644 565 535 556 596
1290.0 652 665 662 626 594 540 488 446 435 426
1330.0 412 397 403 430 451 471 468 444 454 499
1370.0 621 860 1181 1389 1478 1404 1034 702 466 334
1410.0 283 268 325 377 449 574 691 879 1038 1278
1450.0 1493 1673 1808 1861 1780 1596 1333 1010 728 500
1490.0 370 279 236 198 174 155 132 130 142 132
1530.0 133 133 123 120 89 76 85 100 90 82
1570.0 83 71 63 49 51 61 70 69 78 67
1610.0 60 53 72 64 68 69 75 88 68 68
1650.0 57 88 55 71 69 76 76 77 64 77
1690.0 64 73 94 104 94 82 74 74 63 67
1730.0 83 100 103 112 102 101 101 92 82 71
1770.0 70 67 56 44 41 36 39 39 48 39
1810.0 48 37 28 16 25 16 28 33 44 37
1850.0 25 16 6 16 16 35 35 26 30 20
1890.0 14 13 26 21 23 33 32 22 21 24
1930.0 11 12 15 33 26 31 21 10 10 10
1970.0 10 20 29 29 27 19 14 9 7 19
2010.0 25 26 29 28 26 17 17 19 26 24
2050.0 32 26 19 17 4 5 14 14 24 24
2090.0 13 13 14 3 9 7 11 23 22 12
2130.0 12 11 2 3 12 20 20 20 20 13
2170.0 10 9 9 28 29 29 29 18 19 6
2210.0 7 19 24 16 15 27 17 7 6 16
2250.0 18 25 29 36 31 21 17 16 16 27
2290.0 26 37 37 16 16 17 17 19 35 52
2330.0 52 48 37 17 27 26 48 87 78 74
2370.0 60 38 22 17 26 38 37 39 47 38
2410.0 27 27 27 39 37 49 47 41 30 28
2450.0 28 27 27 28 39 34 36 29 18 18
2490.0 17 27 39 46 39 38 27 29 30 36
2530.0 40 41 56 51 37 31 29 37 39 48
2570.0 49 59 57 58 49 48 47 59 71 78
2610.0 78 69 60 48 49 59 70 82 81 80
2650.0 73 75 63 80 87 99 100 111 111 100
2690.0 98 94 100 116 120 121 128 122 121 121
2730.0 131 152 184 204 222 219 197 178 151 133
2770.0 138 151 161 182 182 202 203 224 248 277
2810.0 302 332 368 419 466 565 700 866 1001 1149
2850.0 1304 1486 1771 2216 2770 3331 3770 4143 4388 4288
2890.0 4101 3728 3284 3045 2983 3101 3458 4055 4860 5778
2930.0 6703 7562 8145 8228 7821 7218 6657 6609 7215 8546
2970.0 9819 10000 8855 6978 5127 4047 3493 2832 2180 1546
3010.0 1049 761 598 520 467 424 384 341 308 285
3050.0 255 244 223 213 193 172 154 158 163 175
3090.0 174 167 157 144 134 124 124 125 135 141
3130.0 134 118 109 106 82 85 105 124 115 124
3170.0 115 104 91 99 104 120 124 117 119 105
3210.0 85 85 84 94 97 102 78 75 60 49
3250.0 38 54 63 65 77 75 66 43 33 24
3290.0 38 43 56 48 56 40 27 36 5 25
3330.0 46 64 56 45 27 28 20 24 36 42
3370.0 55 48 46 25 16 24 27 27 58 67
3410.0 62 39 37 6 26 26 46 57 66 63
3450.0 47 33 20 25 36 46 59 66 48 46
3490.0 26 16 37 49 57 57 53 48 35 30
3530.0 15 36 35 57 68 55 46 27 30 37
3570.0 54 56 61 70 58 48 38 38 38 48
3610.0 71 71 76 58 40 51 37 37 56 68
3650.0 88 58 68 39 29 49 60 58 52 58
3690.0 60 54 41 29 28 29 46 40 39 39
3730.0 27 28 28 26 51 58 59 49 38 17
3770.0 8 9 12 31 34 38 44 33 30 4
3810.0 9 2 40 60 51 39 28 26 9 9
3850.0 32 70 60 70 51 29 9 2 2 36
3890.0 60 67 61 56 34 12 30 40 51 72
3930.0 81 79 57 28 10 17 0 2 2 2
##END=
