##TITLE=Benzenemethanamine, N-(1,1-dimethylethyl)-
##JCAMP-DX=4.24
##DATA TYPE=INFRARED SPECTRUM
##ORIGIN=Sadtler Research Labs Under US-EPA Contract
##OWNER=NIST Standard Reference Data Program
##CAS REGISTRY NO=3378-72-1
##MOLFORM=C 11 H 17 N
##XUNITS=1/CM
##YUNITS=ABSORBANCE
##XFACTOR=1.0
##YFACTOR=0.000113141
##DELTAX=4.0
##FIRSTX=450.0
##LASTX=3966.0
##FIRSTY=0.037450
##MAXX=3966
##MINX=450
##MAXY=1.13141
##MINY=0
##NPOINTS=880
##XYDATA=(X++(Y..Y))
450.0 331 364 289 253 198 159 143 145 100 124
490.0 109 114 158 213 252 256 202 151 120 97
530.0 72 53 52 79 82 113 168 169 179 186
570.0 192 199 186 219 254 264 265 256 223 208
610.0 212 224 216 234 246 272 302 335 382 430
650.0 476 550 629 722 801 1019 1107 1291 1517 1865
690.0 2333 2841 3197 3136 2900 2595 2267 1998 1831 1749
730.0 1780 1857 1919 1901 1742 1495 1227 988 794 598
770.0 430 320 233 176 145 134 125 122 109 104
810.0 117 114 108 108 93 73 71 56 47 35
850.0 39 38 41 33 33 32 39 38 44 72
890.0 100 134 193 247 276 266 233 182 164 151
930.0 138 133 121 89 59 39 19 13 9 10
970.0 26 52 80 103 118 124 132 144 161 192
1010.0 239 311 452 760 1043 1014 833 480 286 248
1050.0 266 308 368 427 484 531 572 608 684 825
1090.0 1013 1161 1186 1061 845 635 476 374 309 269
1130.0 256 229 184 158 163 190 230 271 329 407
1170.0 513 621 704 761 824 940 1136 1406 1760 2215
1210.0 2763 3364 3918 4307 4433 4216 3676 2910 2143 1566
1250.0 1187 932 737 590 487 419 367 336 310 292
1290.0 276 266 255 257 256 252 242 239 242 248
1330.0 263 282 337 442 599 817 1112 1511 1978 2324
1370.0 2431 2115 1636 1365 1593 1926 1818 1438 708 371
1410.0 273 248 268 306 387 519 729 1009 1373 1749
1450.0 1999 2045 1898 1684 1570 1639 1883 2156 2152 1926
1490.0 1584 1399 1254 1012 630 301 184 137 113 100
1530.0 95 85 82 80 76 70 69 71 74 80
1570.0 91 108 133 171 221 277 326 387 463 511
1610.0 466 355 215 134 105 85 86 105 135 150
1650.0 155 124 93 69 61 54 52 45 44 41
1690.0 39 37 42 44 50 57 72 86 89 91
1730.0 101 103 89 81 80 81 80 80 74 77
1770.0 86 83 78 82 91 119 162 195 196 165
1810.0 122 92 75 65 58 52 48 44 48 55
1850.0 62 72 83 98 108 113 116 115 103 86
1890.0 66 52 43 38 35 36 42 48 60 75
1930.0 93 117 139 157 166 169 163 138 99 61
1970.0 34 24 21 19 19 16 14 9 9 7
2010.0 7 5 5 6 4 2 2 2 0 1
2050.0 1 1 0 1 1 1 0 3 2 2
2090.0 2 2 6 9 10 13 14 16 18 17
2130.0 17 18 20 20 18 13 18 16 21 22
2170.0 24 21 21 22 21 19 15 16 17 14
2210.0 10 10 12 12 12 14 14 13 14 14
2250.0 17 17 19 23 21 24 23 23 23 21
2290.0 18 14 13 13 16 21 32 34 32 36
2330.0 43 42 42 36 45 23 34 29 36 37
2370.0 41 43 39 35 32 38 40 42 42 38
2410.0 39 38 39 37 35 35 35 35 31 32
2450.0 33 34 32 31 32 30 31 29 30 31
2490.0 30 31 32 36 35 37 37 39 38 41
2530.0 41 44 44 45 44 46 48 49 51 52
2570.0 56 58 62 65 67 70 72 75 76 80
2610.0 80 81 79 78 77 80 81 80 80 80
2650.0 83 88 90 98 100 104 112 121 126 130
2690.0 134 135 135 135 136 137 137 145 149 149
2730.0 148 148 147 151 153 161 160 164 169 178
2770.0 183 199 221 242 276 318 367 426 488 549
2810.0 613 690 774 869 978 1108 1260 1408 1532 1597
2850.0 1605 1590 1571 1615 1720 1877 2033 2155 2226 2259
2890.0 2286 2324 2377 2449 2525 2615 2656 2654 2623 2593
2930.0 2604 2646 2718 2848 3084 3537 4316 5498 7033 8705
2970.0 9907 10000 9133 6974 4853 2894 1707 1136 874 777
3010.0 763 806 926 1159 1520 1901 2104 2080 1812 1498
3050.0 1246 1112 1123 1344 1820 2255 2305 2050 1525 1211
3090.0 1087 986 867 726 599 512 430 348 264 197
3130.0 155 132 120 113 111 111 113 114 118 127
3170.0 129 132 129 123 119 116 110 114 106 104
3210.0 105 105 104 107 105 103 101 102 86 82
3250.0 77 70 58 51 48 48 47 43 37 41
3290.0 41 36 38 41 42 45 51 58 58 54
3330.0 55 55 60 52 47 38 40 38 43 42
3370.0 48 41 37 39 40 47 42 41 43 46
3410.0 49 45 43 42 44 41 46 36 36 37
3450.0 31 33 27 31 23 24 31 22 22 21
3490.0 17 13 16 23 19 21 12 20 19 15
3530.0 19 16 14 18 12 16 9 18 20 17
3570.0 14 18 21 22 26 20 17 19 13 21
3610.0 16 19 17 24 20 29 32 34 35 32
3650.0 32 34 37 35 27 19 20 21 19 23
3690.0 19 25 24 24 26 28 24 16 15 20
3730.0 30 18 27 18 8 5 16 10 22 22
3770.0 22 14 8 20 25 26 19 6 11 18
3810.0 23 28 29 30 29 21 17 15 25 22
3850.0 24 23 33 27 33 34 31 29 34 28
3890.0 35 33 22 28 27 46 42 23 19 26
3930.0 33 38 25 28 22 24 21 36 16 19
##END=
