##TITLE=Benzene, 1,3-diphenoxy-
##JCAMP-DX=4.24
##DATA TYPE=INFRARED SPECTRUM
##ORIGIN=Sadtler Research Labs Under US-EPA Contract
##OWNER=NIST Standard Reference Data Program
##CAS REGISTRY NO=3379-38-2
##MOLFORM=C 18 H 14 O 2
##XUNITS=1/CM
##YUNITS=ABSORBANCE
##XFACTOR=1.0
##YFACTOR=0.000144711
##DELTAX=4.0
##FIRSTX=450.0
##LASTX=3966.0
##FIRSTY=0.030100
##MAXX=3966
##MINX=450
##MAXY=1.44711
##MINY=0
##NPOINTS=880
##XYDATA=(X++(Y..Y))
450.0 208 250 175 148 171 192 256 341 461 523
490.0 467 331 180 127 98 65 66 37 41 27
530.0 10 4 14 2 2 9 5 24 25 29
570.0 29 2 2 19 9 8 9 10 13 13
610.0 23 18 30 18 17 21 30 29 34 58
650.0 91 151 203 228 240 336 480 691 1183 1858
690.0 2595 2233 1464 798 478 339 306 332 423 525
730.0 581 627 706 881 1140 1484 1773 1905 1790 1560
770.0 1304 1086 947 835 726 584 476 413 363 303
810.0 234 191 169 160 150 142 171 264 437 626
850.0 659 598 574 598 631 619 558 478 394 326
890.0 298 284 264 227 175 122 89 74 72 77
930.0 94 116 146 204 294 458 778 1372 2240 2834
970.0 2597 1836 1148 683 413 271 204 173 167 140
1010.0 138 187 369 639 535 221 80 33 21 21
1050.0 32 57 114 229 410 559 517 366 241 166
1090.0 137 148 185 253 369 571 969 1730 2693 3110
1130.0 2494 1482 800 514 454 545 785 1185 1689 1904
1170.0 1501 1007 813 803 881 1091 1451 2027 2907 4221
1210.0 6101 8496 10000 9242 7033 5342 4367 3369 2530 2253
1250.0 2512 3157 4028 4779 5050 4678 3873 3064 2430 2006
1290.0 1712 1513 1370 1244 1101 954 831 750 691 653
1330.0 617 562 505 418 320 260 220 198 196 181
1370.0 167 181 187 193 200 186 185 208 225 271
1410.0 312 320 382 388 454 555 771 1023 1203 1297
1450.0 1422 1590 1808 1984 2447 3537 5547 8301 8752 8631
1490.0 6890 5182 3226 1811 1184 875 697 609 595 540
1530.0 549 545 587 635 655 699 849 1105 1381 1721
1570.0 2257 3102 4420 6031 7227 7539 6034 4169 2802 2105
1610.0 1668 1257 909 610 456 310 269 225 179 155
1650.0 167 143 114 94 99 99 117 92 146 177
1690.0 183 207 268 256 210 158 149 163 113 91
1730.0 97 120 75 62 66 66 54 47 56 53
1770.0 92 103 83 70 50 35 34 23 24 1
1810.0 0 2 0 13 21 39 40 51 79 109
1850.0 103 90 82 67 63 64 39 26 20 21
1890.0 25 24 26 38 57 84 115 141 167 170
1930.0 170 160 145 144 142 125 108 93 84 86
1970.0 80 74 73 70 68 78 81 82 82 82
2010.0 79 79 78 74 72 69 67 69 71 72
2050.0 74 76 80 81 81 74 66 61 57 53
2090.0 50 45 40 34 27 23 18 14 12 12
2130.0 11 10 11 11 8 8 8 8 10 13
2170.0 14 17 19 19 18 18 20 22 26 29
2210.0 31 34 36 38 41 39 35 32 30 31
2250.0 28 27 28 27 26 24 24 22 22 24
2290.0 25 28 31 34 42 51 58 55 55 54
2330.0 50 50 52 46 56 54 36 57 59 73
2370.0 91 116 131 139 137 129 122 116 116 114
2410.0 118 124 129 130 128 118 105 94 88 80
2450.0 71 65 59 51 45 40 38 38 35 33
2490.0 31 27 26 23 23 23 26 25 27 28
2530.0 26 27 26 27 30 34 36 40 45 48
2570.0 47 41 37 31 22 22 20 16 17 15
2610.0 18 16 14 11 10 8 5 2 3 0
2650.0 1 1 0 0 1 1 1 6 6 5
2690.0 10 11 14 17 18 20 19 20 20 21
2730.0 22 22 25 24 25 25 19 19 18 17
2770.0 16 13 15 15 13 12 11 13 12 12
2810.0 12 12 15 15 18 19 23 25 30 28
2850.0 24 24 30 41 52 56 58 52 50 50
2890.0 50 52 51 50 50 48 45 35 29 34
2930.0 50 65 73 76 75 72 75 81 88 93
2970.0 91 86 78 72 65 68 73 83 99 125
3010.0 162 208 269 333 401 485 578 677 752 789
3050.0 782 728 690 705 753 830 937 1048 1078 977
3090.0 806 653 538 430 329 239 167 120 88 67
3130.0 53 45 39 34 30 31 26 25 23 22
3170.0 24 25 25 27 25 23 23 20 19 16
3210.0 17 13 12 9 10 10 10 8 6 10
3250.0 9 11 9 11 8 9 9 11 8 6
3290.0 9 7 6 7 7 7 7 8 11 10
3330.0 8 8 9 11 10 11 13 12 14 15
3370.0 14 13 11 12 13 14 13 10 16 13
3410.0 12 14 10 11 13 12 10 11 7 11
3450.0 8 8 7 15 14 11 7 7 7 8
3490.0 9 10 8 11 7 7 7 0 6 9
3530.0 10 7 7 7 12 10 9 3 8 16
3570.0 14 9 7 11 14 14 18 9 8 4
3610.0 14 6 12 9 8 29 20 13 17 16
3650.0 22 17 16 14 7 22 12 21 7 11
3690.0 9 16 14 11 16 20 13 10 14 11
3730.0 17 21 20 11 32 11 24 9 9 15
3770.0 10 17 14 15 14 10 1 13 6 20
3810.0 10 16 16 18 11 6 15 22 16 14
3850.0 22 29 16 20 21 20 22 22 21 30
3890.0 26 28 17 33 26 28 11 21 16 20
3930.0 22 23 16 9 21 9 14 20 20 26
##END=
