##TITLE=Acetic acid, geranyl ester
##JCAMP-DX=4.24
##DATA TYPE=INFRARED SPECTRUM
##ORIGIN=Sadtler Research Labs Under US-EPA Contract
##OWNER=NIST Standard Reference Data Program
##CAS REGISTRY NO=33843-18-4
##MOLFORM=C 12 H 20 O 2
##XUNITS=1/CM
##YUNITS=ABSORBANCE
##XFACTOR=1.0
##YFACTOR=0.000094440
##DELTAX=4.0
##FIRSTX=450.0
##LASTX=3966.0
##FIRSTY=0.014638
##MAXX=3966
##MINX=450
##MAXY=0.9444
##MINY=0
##NPOINTS=880
##XYDATA=(X++(Y..Y))
450.0 155 177 155 144 114 100 99 98 102 99
490.0 104 100 99 86 132 120 117 110 94 109
530.0 91 98 100 91 82 65 81 101 96 104
570.0 69 156 132 130 219 160 150 163 173 199
610.0 188 160 131 102 79 80 81 87 107 95
650.0 95 79 60 42 22 38 17 11 2 8
690.0 17 11 8 8 7 6 1 11 6 1
730.0 40 54 67 69 77 73 67 69 73 78
770.0 94 110 111 115 122 122 132 144 163 181
810.0 206 230 251 299 335 335 312 286 270 243
850.0 226 207 191 175 162 159 161 173 183 205
890.0 221 242 250 240 238 247 247 245 241 246
930.0 250 271 318 385 488 637 785 891 906 833
970.0 757 711 646 659 682 731 818 937 1096 1279
1010.0 1485 1706 1911 2050 2022 1837 1556 1281 1070 928
1050.0 814 727 659 606 572 544 529 519 513 503
1090.0 502 496 513 518 513 484 422 349 276 222
1130.0 193 174 170 166 178 193 203 220 232 244
1170.0 264 287 332 382 452 546 677 846 1099 1441
1210.0 1921 2655 3777 5518 8020 10000 9918 8136 6116 4354
1250.0 3004 2134 1642 1380 1267 1253 1268 1222 1068 832
1290.0 611 474 386 341 314 301 291 282 274 273
1330.0 279 279 293 308 338 408 541 771 1146 1571
1370.0 1784 1784 1716 1740 1673 1415 1113 817 607 477
1410.0 410 375 390 387 425 485 565 665 750 829
1450.0 859 854 806 719 630 550 472 393 326 288
1490.0 262 225 216 195 212 186 181 180 178 158
1530.0 154 150 151 151 135 128 129 142 109 105
1570.0 104 103 91 93 85 87 90 88 85 88
1610.0 87 86 96 91 102 95 116 128 141 164
1650.0 168 204 221 283 360 410 391 290 234 193
1690.0 176 178 205 225 250 281 335 407 461 550
1730.0 677 875 1139 1544 2111 2936 4114 5255 5530 4658
1770.0 3342 2331 1653 1182 859 649 509 412 349 287
1810.0 240 203 169 150 133 127 107 91 91 80
1850.0 74 61 63 57 53 56 41 40 40 32
1890.0 37 37 36 34 30 31 31 32 28 26
1930.0 29 28 25 27 26 21 24 23 20 25
1970.0 20 19 20 20 20 17 21 17 14 20
2010.0 20 25 21 20 25 21 19 22 25 26
2050.0 24 25 31 30 27 25 21 21 21 15
2090.0 15 15 16 18 15 12 10 15 15 10
2130.0 10 10 10 6 5 5 11 6 3 1
2170.0 1 1 1 6 5 10 11 11 11 11
2210.0 11 11 11 11 11 11 12 11 11 6
2250.0 6 6 6 6 6 3 0 3 1 2
2290.0 1 8 8 3 8 10 4 12 10 13
2330.0 13 14 10 16 10 5 6 7 14 2
2370.0 8 5 4 3 10 6 7 7 8 7
2410.0 9 8 8 13 9 9 9 12 13 20
2450.0 13 20 20 19 19 19 18 14 15 15
2490.0 9 13 9 9 10 14 14 15 11 15
2530.0 15 15 15 15 15 15 15 15 15 15
2570.0 16 10 10 11 11 12 14 13 12 12
2610.0 12 12 12 11 11 13 13 12 12 12
2650.0 15 18 22 17 18 12 12 13 13 13
2690.0 15 18 18 24 24 24 27 28 39 44
2730.0 57 72 84 98 95 75 67 62 57 57
2770.0 58 58 62 62 62 68 74 80 93 101
2810.0 120 136 153 173 195 234 280 340 417 516
2850.0 655 839 1042 1229 1371 1421 1398 1336 1294 1312
2890.0 1361 1436 1507 1578 1690 1827 2022 2235 2478 2673
2930.0 2708 2674 2585 2464 2296 2102 1934 1820 1776 1790
2970.0 1849 1904 1868 1762 1627 1510 1368 1222 1054 914
3010.0 803 723 672 642 610 579 547 503 460 421
3050.0 399 377 345 323 299 273 244 226 204 187
3090.0 177 162 139 121 106 100 90 79 78 74
3130.0 65 60 48 52 43 44 39 28 28 28
3170.0 23 23 18 18 18 25 18 18 15 17
3210.0 14 14 13 13 9 16 15 9 9 6
3250.0 10 10 9 5 10 15 11 4 5 10
3290.0 4 6 12 5 6 4 1 4 6 1
3330.0 1 5 5 4 6 7 3 6 9 1
3370.0 3 6 6 6 11 7 2 8 2 1
3410.0 11 5 10 11 8 13 9 8 8 13
3450.0 9 10 6 5 20 23 21 14 15 34
3490.0 45 41 58 69 53 49 45 24 35 22
3530.0 17 15 17 5 14 5 12 13 24 20
3570.0 22 24 26 33 31 32 31 27 28 17
3610.0 16 18 24 12 14 34 25 33 29 32
3650.0 42 23 28 31 34 34 21 22 27 24
3690.0 28 24 24 30 26 30 33 31 26 26
3730.0 25 27 25 24 29 25 22 23 24 30
3770.0 25 23 17 24 22 26 26 26 26 28
3810.0 36 36 35 32 34 30 31 32 29 32
3850.0 32 26 23 30 30 27 33 26 26 31
3890.0 30 33 34 32 35 41 43 39 35 38
3930.0 41 35 45 47 48 43 38 37 41 39
##END=
