##TITLE=Benzenemethanol, 4-chloro-.alpha.-methyl-
##JCAMP-DX=4.24
##DATA TYPE=INFRARED SPECTRUM
##ORIGIN=Sadtler Research Labs Under US-EPA Contract
##OWNER=NIST Standard Reference Data Program
##CAS REGISTRY NO=3391-10-4
##MOLFORM=C 8 H 9 Cl O
##XUNITS=1/CM
##YUNITS=ABSORBANCE
##XFACTOR=1.0
##YFACTOR=0.000098389
##DELTAX=4.0
##FIRSTX=450.0
##LASTX=3966.0
##FIRSTY=0.073496
##MAXX=3966
##MINX=450
##MAXY=0.98389
##MINY=0
##NPOINTS=880
##XYDATA=(X++(Y..Y))
450.0 747 754 631 451 339 306 494 458 291 307
490.0 270 477 595 730 632 976 1182 1413 1799 1900
530.0 2227 2104 1944 1495 1467 1173 901 648 377 444
570.0 468 389 142 119 22 193 239 95 89 191
610.0 177 235 356 270 303 350 267 304 471 411
650.0 489 336 292 304 250 342 146 47 11 189
690.0 103 22 121 187 233 291 418 403 397 373
730.0 343 299 252 348 294 290 307 443 694 960
770.0 1327 1465 1623 1323 1032 712 668 825 1017 1387
810.0 1637 2302 2956 3810 4288 4347 3704 2849 2056 1278
850.0 870 623 593 517 470 496 610 742 942 1215
890.0 1474 1916 2167 2132 1766 1415 1083 878 649 551
930.0 501 452 390 379 434 368 472 411 424 469
970.0 535 604 692 779 901 1294 1526 1907 2263 3129
1010.0 4725 5263 4633 3476 1823 1131 1112 1215 1344 1622
1050.0 1939 2197 2342 2704 3056 3662 4441 5064 6094 7412
1090.0 8544 10000 9836 8254 6148 3729 2275 1743 1261 984
1130.0 836 766 661 660 685 637 665 765 848 998
1170.0 1099 1110 1125 1179 1144 1126 1116 1052 1102 1051
1210.0 949 887 925 978 1030 1164 1172 1368 1543 1794
1250.0 2053 2189 2256 2175 2084 1800 1651 1439 1338 1382
1290.0 1478 1544 1539 1446 1183 1080 1012 1077 1149 1262
1330.0 1420 1574 1766 1860 1987 2050 2137 2192 2122 2012
1370.0 2075 2211 2306 2281 2162 1984 1868 1793 1697 1712
1410.0 1620 1517 1406 1205 1029 965 936 934 958 964
1450.0 1088 1099 1177 1145 1248 1390 1567 1857 2345 3514
1490.0 5176 5974 5478 4029 2136 931 596 443 371 316
1530.0 305 344 301 329 295 299 296 351 331 356
1570.0 446 475 531 593 747 849 1008 1163 1242 1139
1610.0 912 607 399 333 321 369 366 418 423 461
1650.0 460 503 404 361 297 252 195 175 177 185
1690.0 145 104 136 188 172 140 80 102 30 40
1730.0 26 76 7 79 145 158 204 253 304 261
1770.0 346 336 360 344 295 246 225 230 230 200
1810.0 147 180 188 176 181 146 125 142 165 162
1850.0 173 163 169 194 207 249 278 295 312 355
1890.0 398 441 458 422 346 343 291 268 226 172
1930.0 145 150 158 131 139 106 125 149 141 126
1970.0 146 145 106 119 109 125 131 94 97 99
2010.0 121 116 129 81 89 116 101 88 70 58
2050.0 57 91 72 67 97 77 79 75 84 79
2090.0 97 60 55 70 71 88 78 46 44 75
2130.0 70 59 46 30 38 56 48 51 55 38
2170.0 65 63 54 55 69 37 31 29 44 47
2210.0 20 29 20 55 53 65 40 34 58 62
2250.0 62 35 61 44 84 75 85 91 98 92
2290.0 73 105 95 99 55 59 50 70 113 61
2330.0 27 11 112 98 106 11 11 34 88 135
2370.0 142 137 113 91 79 85 70 74 57 41
2410.0 22 56 59 44 38 44 68 75 87 46
2450.0 50 58 54 54 41 44 43 63 50 58
2490.0 64 68 66 41 49 69 84 44 55 69
2530.0 77 103 85 75 66 83 94 83 61 47
2570.0 83 71 91 102 118 117 132 128 125 144
2610.0 128 110 87 83 99 125 89 61 86 91
2650.0 106 109 83 61 93 91 94 89 95 92
2690.0 111 102 101 129 98 106 75 84 85 142
2730.0 75 70 111 115 161 133 133 103 152 125
2770.0 139 123 94 128 128 144 131 182 155 183
2810.0 187 195 238 237 240 227 267 298 370 388
2850.0 386 476 602 727 898 1082 1304 1585 1815 1883
2890.0 1913 1860 1710 1594 1432 1320 1212 1141 1079 1082
2930.0 1184 1281 1394 1267 1066 909 857 904 1107 1477
2970.0 1919 2615 3280 3997 4302 3928 3141 2006 1178 771
3010.0 646 549 519 555 633 790 829 807 704 644
3050.0 596 585 563 482 458 461 512 496 560 608
3090.0 653 682 657 613 502 437 302 234 177 174
3130.0 128 79 62 53 89 106 93 37 62 103
3170.0 137 93 94 76 86 84 88 93 61 95
3210.0 72 109 84 124 101 86 53 44 121 79
3250.0 74 16 61 65 114 91 50 66 49 104
3290.0 58 37 23 48 27 42 80 55 94 87
3330.0 77 62 152 90 62 53 48 79 110 94
3370.0 74 54 83 145 111 80 73 116 65 97
3410.0 103 88 104 125 91 102 163 116 124 87
3450.0 60 115 138 98 61 103 114 171 180 121
3490.0 128 116 130 131 128 80 112 92 53 142
3530.0 115 110 120 110 95 155 161 88 87 98
3570.0 136 127 133 86 108 168 162 201 153 158
3610.0 199 220 226 321 387 541 676 823 1074 1375
3650.0 1577 1516 1367 1084 831 674 460 274 243 220
3690.0 237 225 161 152 119 144 101 113 91 125
3730.0 97 90 108 107 163 107 133 77 115 132
3770.0 95 48 34 78 65 107 56 67 85 124
3810.0 110 81 60 69 77 42 84 126 139 148
3850.0 152 170 188 214 177 123 78 88 122 115
3890.0 58 49 84 154 155 146 145 144 149 129
3930.0 124 110 119 102 116 143 0 11 11 11
##END=
