##TITLE=1-Octen-3-ol
##JCAMP-DX=4.24
##DATA TYPE=INFRARED SPECTRUM
##ORIGIN=Sadtler Research Labs Under US-EPA Contract
##OWNER=NIST Standard Reference Data Program
##CAS REGISTRY NO=3391-86-4
##MOLFORM=C 8 H 16 O
##XUNITS=1/CM
##YUNITS=ABSORBANCE
##XFACTOR=1.0
##YFACTOR=0.000110880
##DELTAX=4.0
##FIRSTX=450.0
##LASTX=3966.0
##FIRSTY=0.033929
##MAXX=3966
##MINX=450
##MAXY=1.1088
##MINY=0
##NPOINTS=880
##XYDATA=(X++(Y..Y))
450.0 306 157 119 131 112 149 138 67 160 101
490.0 203 167 102 78 96 235 138 102 161 182
530.0 133 226 205 93 146 137 166 143 168 124
570.0 103 122 123 115 118 112 156 150 125 176
610.0 120 102 79 98 67 19 141 145 150 145
650.0 155 178 198 230 232 265 278 331 327 362
690.0 326 297 238 201 195 190 212 246 276 257
730.0 289 291 257 232 183 159 148 137 141 151
770.0 141 134 109 94 78 73 81 73 96 81
810.0 107 114 129 137 145 168 164 172 178 199
850.0 194 227 237 249 281 306 337 356 421 450
890.0 483 526 592 681 824 1109 1554 2258 2885 3084
930.0 2897 2357 1727 1352 1167 1061 1027 1003 1038 1085
970.0 1177 1294 1476 1743 2030 2291 2415 2432 2291 2218
1010.0 2216 2279 2364 2405 2372 2268 2142 1971 1824 1682
1050.0 1568 1488 1414 1338 1269 1219 1169 1149 1110 1099
1090.0 1068 1036 990 958 935 923 924 941 972 998
1130.0 1025 1026 1004 954 866 769 679 610 558 539
1170.0 530 534 547 556 577 598 637 676 717 733
1210.0 755 762 770 781 794 814 826 864 896 928
1250.0 945 958 942 915 886 854 826 790 790 772
1290.0 767 757 751 737 735 731 728 732 736 759
1330.0 784 825 868 902 918 918 914 893 908 906
1370.0 918 935 980 977 934 858 723 620 587 636
1410.0 734 860 985 1087 1121 1096 1051 956 887 861
1450.0 895 976 1076 1152 1143 1068 917 739 550 402
1490.0 294 220 176 145 133 110 107 90 82 72
1530.0 66 62 58 49 44 44 39 37 35 34
1570.0 36 37 42 42 49 51 60 63 66 68
1610.0 72 72 68 82 91 124 170 236 299 321
1650.0 296 237 160 103 75 61 43 41 33 30
1690.0 25 21 21 21 18 21 21 25 23 26
1730.0 34 41 64 78 92 86 78 52 53 48
1770.0 49 56 61 59 52 53 42 35 29 26
1810.0 17 22 24 22 34 39 63 96 146 189
1850.0 221 222 198 153 105 70 43 31 20 19
1890.0 13 6 11 13 16 14 12 14 11 8
1930.0 11 10 7 5 9 9 11 20 15 25
1970.0 25 29 30 29 23 17 16 10 11 8
2010.0 8 1 1 7 5 7 6 14 12 15
2050.0 15 15 10 10 9 8 13 16 20 16
2090.0 12 13 9 6 5 3 0 3 2 3
2130.0 4 7 6 5 8 5 8 7 6 3
2170.0 6 7 7 9 6 8 5 2 3 1
2210.0 3 3 2 0 6 2 8 5 9 7
2250.0 9 7 8 7 7 11 11 12 15 19
2290.0 21 26 26 28 37 35 36 34 39 22
2330.0 23 6 11 3 3 8 36 27 0 0
2370.0 0 0 0 2 15 15 14 17 13 17
2410.0 19 17 18 16 15 14 11 13 9 11
2450.0 10 10 9 11 9 9 14 10 8 7
2490.0 12 8 10 10 13 13 7 12 16 17
2530.0 17 19 21 13 24 15 20 28 30 38
2570.0 46 49 50 53 52 51 47 49 51 49
2610.0 48 53 59 58 67 73 79 77 80 84
2650.0 85 88 100 108 126 138 132 147 148 153
2690.0 159 157 153 139 134 124 121 118 125 130
2730.0 128 139 148 159 161 162 154 146 144 142
2770.0 147 151 167 175 198 222 244 267 288 313
2810.0 342 374 404 454 519 608 723 905 1162 1514
2850.0 1987 2590 3265 3891 4401 4686 4742 4715 4524 4158
2890.0 3781 3374 3117 3181 3490 3980 4653 5528 6555 7679
2930.0 8714 9544 10000 9781 8964 7843 6865 6281 6328 6764
2970.0 6790 6092 4969 3548 2527 1982 1650 1423 1232 1097
3010.0 1024 976 935 851 756 639 533 454 401 352
3050.0 331 327 335 349 394 465 545 663 854 1047
3090.0 1157 1121 947 701 474 316 212 145 117 106
3130.0 87 91 85 82 70 72 64 56 72 74
3170.0 65 56 71 72 61 64 64 63 56 56
3210.0 27 20 41 32 19 21 12 4 15 21
3250.0 32 21 23 21 35 30 18 33 44 39
3290.0 11 16 21 37 18 15 5 5 4 25
3330.0 26 21 32 21 28 25 22 35 42 38
3370.0 28 34 26 40 34 33 19 34 27 44
3410.0 32 43 32 22 26 36 38 55 52 44
3450.0 53 49 32 31 28 24 40 45 43 25
3490.0 36 7 39 32 17 19 38 31 12 22
3530.0 33 28 28 35 25 32 39 33 38 46
3570.0 18 70 76 63 54 21 42 70 78 73
3610.0 85 128 133 167 216 285 398 545 789 989
3650.0 1084 1047 856 622 411 295 197 158 123 103
3690.0 68 61 52 55 42 43 32 24 27 40
3730.0 35 9 23 28 50 33 27 15 50 41
3770.0 49 45 45 9 40 41 41 40 29 48
3810.0 44 49 36 37 40 48 60 32 52 31
3850.0 46 42 49 41 41 74 76 60 53 21
3890.0 68 53 75 39 31 10 12 41 28 61
3930.0 65 38 50 51 46 63 38 80 42 39
##END=
