##TITLE=2-Butanone, 4-hydroxy-3-methyl-
##JCAMP-DX=4.24
##DATA TYPE=INFRARED SPECTRUM
##ORIGIN=Sadtler Research Labs Under US-EPA Contract
##OWNER=NIST Standard Reference Data Program
##CAS REGISTRY NO=3393-64-4
##MOLFORM=C 5 H 10 O 2
##XUNITS=1/CM
##YUNITS=ABSORBANCE
##XFACTOR=1.0
##YFACTOR=0.000060999
##DELTAX=4.0
##FIRSTX=450.0
##LASTX=3966.0
##FIRSTY=0.073076
##MAXX=3966
##MINX=450
##MAXY=0.60999
##MINY=0
##NPOINTS=880
##XYDATA=(X++(Y..Y))
450.0 1198 1212 1305 1272 1271 1273 1337 1190 1148 1073
490.0 1032 1031 1020 1037 988 1015 971 965 867 743
530.0 611 557 510 455 410 388 386 349 369 382
570.0 412 408 437 467 504 510 533 544 514 465
610.0 412 338 255 199 157 137 135 110 88 91
650.0 98 110 110 118 115 103 107 76 53 42
690.0 26 26 50 64 76 91 100 117 111 106
730.0 90 74 58 42 35 31 13 2 17 10
770.0 12 7 28 13 16 21 13 12 14 14
810.0 14 25 21 27 36 48 38 48 68 83
850.0 117 146 196 215 250 269 264 274 288 286
890.0 311 348 380 415 481 546 618 720 803 914
930.0 1002 1088 1179 1279 1364 1435 1485 1486 1492 1471
970.0 1436 1410 1403 1408 1408 1408 1393 1393 1430 1517
1010.0 1702 2005 2484 3126 3820 4410 4883 5219 5420 5437
1050.0 5269 5100 5010 4913 4673 4104 3500 2823 2246 1869
1090.0 1657 1588 1595 1658 1725 1773 1794 1795 1725 1583
1130.0 1479 1394 1331 1335 1457 1736 2172 2710 3163 3473
1170.0 3619 3524 3279 2876 2367 1974 1766 1700 1737 1835
1210.0 1950 2046 2093 2072 2002 1871 1681 1464 1275 1136
1250.0 1038 964 920 889 875 873 867 879 881 880
1290.0 881 896 903 916 931 961 1010 1084 1180 1299
1330.0 1437 1605 1831 2165 2641 3257 3869 4418 4822 4932
1370.0 4790 4427 3916 3481 3190 3046 2957 2838 2654 2463
1410.0 2245 2000 1804 1597 1459 1368 1338 1323 1357 1444
1450.0 1593 1762 1948 2064 2043 1939 1736 1505 1214 912
1490.0 677 496 402 325 299 278 248 239 241 216
1530.0 204 201 203 208 189 175 172 178 169 142
1570.0 142 132 133 123 106 107 102 106 99 114
1610.0 111 121 142 151 167 162 186 188 187 185
1650.0 229 244 282 324 413 510 662 826 1045 1327
1690.0 1637 2076 2645 3511 4614 5963 7264 8408 9342 10000
1730.0 9780 8619 6990 5477 4060 2852 1927 1303 917 653
1770.0 501 367 284 210 169 127 110 85 70 53
1810.0 41 35 19 20 20 19 10 11 15 15
1850.0 15 6 8 7 15 12 10 10 9 13
1890.0 17 14 14 20 15 20 19 19 22 19
1930.0 19 19 23 21 22 19 18 21 24 25
1970.0 18 17 16 20 18 24 26 23 22 22
2010.0 18 21 28 26 27 25 29 35 39 42
2050.0 46 48 51 56 56 56 54 54 53 54
2090.0 51 49 45 40 38 32 33 26 25 22
2130.0 21 21 23 20 14 14 14 13 11 11
2170.0 7 12 7 6 8 4 3 5 4 0
2210.0 2 1 4 5 6 7 7 8 11 8
2250.0 7 9 15 14 12 15 22 21 25 26
2290.0 28 35 36 34 37 42 39 35 32 29
2330.0 20 20 22 18 30 29 14 16 14 20
2370.0 32 32 39 36 37 34 36 33 36 36
2410.0 36 34 31 35 33 32 28 32 32 36
2450.0 33 30 31 33 34 27 28 33 30 31
2490.0 29 33 33 36 32 34 35 36 37 36
2530.0 33 35 30 30 28 27 32 29 31 30
2570.0 31 32 32 34 31 32 25 31 30 26
2610.0 26 26 32 27 24 27 31 30 36 33
2650.0 38 43 44 45 54 60 65 67 72 76
2690.0 82 95 99 109 115 126 131 139 148 155
2730.0 162 167 173 180 187 189 192 195 199 201
2770.0 212 217 225 231 249 258 264 278 289 295
2810.0 309 322 347 376 408 445 490 542 593 656
2850.0 737 830 961 1144 1415 1776 2230 2719 3168 3509
2890.0 3691 3693 3540 3337 3127 2995 2974 3071 3275 3546
2930.0 3849 4117 4338 4485 4539 4440 4275 4137 4046 4088
2970.0 4297 4554 4661 4631 4281 3754 3156 2428 1838 1447
3010.0 1182 1000 851 731 631 539 464 407 364 332
3050.0 315 303 296 291 278 274 265 256 252 242
3090.0 234 226 225 208 200 181 164 149 144 131
3130.0 121 117 109 104 104 104 99 95 101 99
3170.0 96 86 84 77 79 64 63 51 48 43
3210.0 36 35 36 27 33 28 24 26 25 29
3250.0 29 19 22 22 19 18 14 9 11 12
3290.0 12 19 12 7 0 6 10 5 11 1
3330.0 0 9 3 1 4 7 6 0 5 10
3370.0 5 17 16 20 18 25 40 48 53 74
3410.0 95 106 129 145 163 173 176 173 167 154
3450.0 144 127 111 90 77 70 51 42 48 48
3490.0 47 39 41 40 36 42 49 56 66 78
3530.0 87 116 139 174 199 241 280 304 329 359
3570.0 397 455 537 631 723 813 889 923 948 968
3610.0 990 997 1017 1009 992 962 900 810 722 660
3650.0 657 688 759 844 913 961 952 891 764 622
3690.0 447 294 196 132 85 61 37 34 22 16
3730.0 22 23 26 27 33 40 42 45 43 44
3770.0 34 27 30 12 1 0 0 0 0 0
3810.0 0 0 0 0 0 7 1 0 6 12
3850.0 15 19 1 0 15 12 7 19 7 9
3890.0 13 5 4 0 0 0 0 0 0 1
3930.0 1 0 9 0 0 2 0 0 0 1
##END=
