##TITLE=Cyclopentanecarboxylic acid
##JCAMP-DX=4.24
##DATA TYPE=INFRARED SPECTRUM
##ORIGIN=Sadtler Research Labs Under US-EPA Contract
##OWNER=NIST Standard Reference Data Program
##CAS REGISTRY NO=3400-45-1
##MOLFORM=C 6 H 10 O 2
##XUNITS=1/CM
##YUNITS=ABSORBANCE
##XFACTOR=1.0
##YFACTOR=0.000099069
##DELTAX=4.0
##FIRSTX=450.0
##LASTX=3966.0
##FIRSTY=0.021597
##MAXX=3966
##MINX=450
##MAXY=0.99069
##MINY=0
##NPOINTS=880
##XYDATA=(X++(Y..Y))
450.0 218 176 144 46 134 97 72 54 29 54
490.0 10 50 127 208 233 245 318 356 432 489
530.0 527 589 689 744 860 1000 1157 1320 1474 1627
570.0 1742 1879 1922 1913 1907 1804 1738 1698 1589 1569
610.0 1522 1464 1457 1393 1372 1306 1238 1165 1075 965
650.0 815 685 563 478 419 342 303 303 263 261
690.0 228 220 238 243 295 329 368 401 450 522
730.0 545 631 651 657 695 617 540 463 464 407
770.0 370 346 325 283 246 222 194 160 131 120
810.0 103 96 91 88 88 97 101 97 111 95
850.0 91 84 68 66 75 70 72 91 126 170
890.0 198 223 237 240 252 255 272 290 317 349
930.0 378 394 406 394 382 355 337 305 270 248
970.0 225 217 201 191 183 176 171 186 202 218
1010.0 246 271 310 339 371 403 444 530 600 669
1050.0 729 835 1010 1254 1517 1767 2001 2208 2370 2525
1090.0 2671 2854 3137 3547 4216 5088 6078 6946 7386 7453
1130.0 7136 6328 5223 4299 3720 3374 3212 3119 3024 2969
1170.0 2858 2735 2577 2390 2247 2099 1915 1696 1473 1266
1210.0 1061 912 800 744 698 659 659 646 616 631
1250.0 650 666 687 692 710 688 693 685 692 725
1290.0 724 756 773 783 801 788 787 769 698 639
1330.0 605 584 595 611 651 694 753 818 903 956
1370.0 1015 1118 1224 1257 1298 1227 1145 1032 871 749
1410.0 639 555 518 455 456 436 448 485 514 585
1450.0 635 683 678 666 597 535 446 386 322 273
1490.0 244 200 182 142 142 142 106 89 73 58
1530.0 60 39 39 19 61 41 32 45 35 54
1570.0 14 12 27 9 24 4 20 31 25 35
1610.0 27 35 35 31 36 11 37 45 18 32
1650.0 4 26 61 25 68 50 90 84 114 148
1690.0 148 174 218 287 345 390 512 704 879 1119
1730.0 1365 1667 2195 2709 3394 4162 5150 6444 7731 8972
1770.0 9845 10000 9632 8330 6702 5153 3607 2595 1915 1349
1810.0 1020 730 513 390 275 229 164 138 116 91
1850.0 89 64 66 68 45 62 52 47 60 51
1890.0 51 46 34 38 27 46 32 17 23 26
1930.0 27 27 28 27 21 13 17 23 19 16
1970.0 16 14 13 16 11 14 20 15 23 15
2010.0 27 17 16 17 15 14 19 9 26 22
2050.0 28 29 30 35 26 27 24 22 24 21
2090.0 14 16 17 15 17 19 19 10 8 11
2130.0 15 8 8 6 12 14 16 21 29 31
2170.0 35 32 29 37 46 44 39 44 50 43
2210.0 51 53 58 60 62 59 54 51 48 47
2250.0 48 46 42 42 40 40 38 43 47 37
2290.0 38 31 24 26 26 15 24 6 17 23
2330.0 39 27 44 40 70 9 15 16 19 17
2370.0 3 11 39 47 55 70 48 55 52 45
2410.0 39 42 41 42 44 48 53 37 56 52
2450.0 51 67 51 49 39 42 46 44 48 44
2490.0 47 50 58 58 51 54 51 39 42 36
2530.0 38 41 38 44 49 48 52 55 55 54
2570.0 54 51 53 48 51 48 61 60 59 65
2610.0 62 64 66 66 60 61 59 61 64 59
2650.0 61 62 64 63 67 73 67 58 66 62
2690.0 61 65 58 54 62 72 72 74 79 85
2730.0 72 84 77 76 78 80 81 76 85 85
2770.0 89 90 96 96 107 110 117 121 114 125
2810.0 126 133 153 166 197 222 268 298 345 389
2850.0 448 528 652 829 1062 1373 1734 2023 2179 2223
2890.0 2173 2018 1773 1561 1459 1450 1528 1668 1869 2093
2930.0 2363 2670 3026 3432 3853 4256 4654 5030 5458 5822
2970.0 5923 5772 5376 4692 3827 3009 2316 1755 1329 1021
3010.0 802 653 530 445 368 317 275 238 213 190
3050.0 181 168 159 145 145 131 121 115 109 105
3090.0 108 116 111 110 109 103 104 100 96 101
3130.0 93 87 91 86 83 85 92 91 94 106
3170.0 99 89 90 83 82 75 77 76 78 78
3210.0 82 84 76 84 91 83 79 75 73 73
3250.0 70 67 68 81 86 75 79 76 81 82
3290.0 73 71 66 64 68 60 71 64 67 80
3330.0 74 80 76 76 81 66 72 69 66 73
3370.0 68 85 80 94 94 90 91 88 89 78
3410.0 82 79 76 68 85 88 98 91 98 106
3450.0 103 106 90 92 92 77 85 71 73 64
3490.0 61 69 62 64 65 51 76 56 61 70
3530.0 61 70 64 69 88 104 209 344 921 1972
3570.0 2700 3147 3131 3093 2526 1572 592 260 144 69
3610.0 66 51 38 45 14 39 14 62 39 46
3650.0 37 73 55 69 61 16 56 28 61 11
3690.0 28 51 37 30 43 52 42 51 62 20
3730.0 54 49 8 66 0 49 5 69 37 51
3770.0 63 63 83 60 65 83 57 64 53 57
3810.0 42 50 40 76 83 74 58 58 62 99
3850.0 25 54 57 52 18 43 58 40 57 64
3890.0 106 68 68 81 62 67 54 57 52 47
3930.0 34 56 41 50 72 68 100 52 84 76
##END=
