##TITLE=2-Hexene, 2,5-dimethyl-
##JCAMP-DX=4.24
##DATA TYPE=INFRARED SPECTRUM
##ORIGIN=Sadtler Research Labs Under US-EPA Contract
##OWNER=NIST Standard Reference Data Program
##CAS REGISTRY NO=3404-78-2
##MOLFORM=C 8 H 16
##XUNITS=1/CM
##YUNITS=ABSORBANCE
##XFACTOR=1.0
##YFACTOR=0.000090796
##DELTAX=4.0
##FIRSTX=450.0
##LASTX=3966.0
##FIRSTY=0.000000
##MAXX=3966
##MINX=450
##MAXY=0.90796
##MINY=0
##NPOINTS=880
##XYDATA=(X++(Y..Y))
450.0 0 398 651 680 619 555 451 649 520 574
490.0 554 514 613 490 640 439 540 773 507 690
530.0 581 544 600 469 542 613 598 591 552 595
570.0 608 595 572 488 530 440 494 548 557 482
610.0 501 491 531 482 519 508 486 499 470 497
650.0 512 518 560 525 428 409 538 565 522 560
690.0 536 508 512 510 540 491 461 511 486 487
730.0 500 534 548 542 568 593 561 632 635 660
770.0 642 646 671 681 689 664 592 652 621 637
810.0 601 596 660 629 576 679 712 760 782 841
850.0 889 888 840 862 772 790 796 825 808 772
890.0 834 862 831 783 743 755 750 723 710 733
930.0 734 770 766 737 718 734 718 752 706 709
970.0 739 737 753 750 735 745 721 709 695 706
1010.0 692 663 672 665 652 655 648 650 644 641
1050.0 646 635 675 662 663 706 739 793 835 869
1090.0 910 927 916 903 880 943 958 1032 1059 1033
1130.0 978 907 816 796 797 796 824 871 906 952
1170.0 947 917 851 787 759 770 742 775 785 795
1210.0 764 723 703 702 719 709 724 755 764 743
1250.0 762 723 712 700 711 725 740 722 737 722
1290.0 693 670 662 665 676 685 704 744 769 790
1330.0 855 881 888 884 898 930 981 1107 1256 1452
1370.0 1593 1770 2002 2074 2098 1920 1656 1392 1092 932
1410.0 852 798 805 834 878 980 1060 1186 1289 1400
1450.0 1560 1672 1788 1868 1857 1839 1695 1478 1248 1080
1490.0 925 803 689 647 634 629 613 610 568 578
1530.0 566 583 602 583 555 560 554 560 561 540
1570.0 539 543 559 530 541 534 529 534 539 554
1610.0 526 551 539 577 560 588 599 608 598 629
1650.0 649 604 630 625 653 650 637 646 640 607
1690.0 620 644 658 682 691 708 666 618 621 603
1730.0 600 581 596 587 601 581 556 554 538 539
1770.0 527 534 517 509 504 500 501 496 490 484
1810.0 470 472 459 459 457 454 455 450 446 448
1850.0 453 440 444 439 433 442 439 443 442 448
1890.0 441 437 432 433 435 444 435 432 440 443
1930.0 433 431 435 443 447 436 436 440 445 442
1970.0 438 442 443 430 439 434 435 427 434 424
2010.0 428 424 421 425 427 426 419 426 430 425
2050.0 425 422 427 430 422 431 427 419 424 421
2090.0 424 423 427 422 429 429 426 428 429 431
2130.0 433 431 430 433 430 428 430 437 438 438
2170.0 434 434 434 432 429 428 425 424 425 424
2210.0 425 427 426 424 425 423 424 425 423 420
2250.0 420 419 421 422 421 422 423 419 422 418
2290.0 417 418 413 414 406 407 411 412 412 415
2330.0 422 425 429 423 432 420 419 419 424 439
2370.0 437 435 434 442 433 435 443 438 438 434
2410.0 443 438 439 440 439 438 441 439 441 439
2450.0 443 441 437 434 436 438 437 442 437 436
2490.0 434 436 436 435 435 437 436 431 435 436
2530.0 432 435 435 440 442 438 444 446 450 450
2570.0 457 455 459 458 460 459 460 462 461 462
2610.0 465 461 457 461 469 467 473 475 477 485
2650.0 486 485 483 475 474 473 469 471 475 480
2690.0 481 483 493 503 515 527 542 566 590 613
2730.0 640 675 695 689 677 650 626 609 595 596
2770.0 594 601 603 614 625 635 656 682 716 740
2810.0 773 811 851 899 959 1041 1159 1296 1467 1654
2850.0 1853 2092 2385 2742 3194 3732 4211 4486 4654 4743
2890.0 4689 4643 4679 4751 4840 4988 5215 5508 5797 6054
2930.0 6269 6382 6294 6089 6020 6191 6822 7973 9247 10000
2970.0 9807 8902 7334 5762 4342 3403 2816 2389 2075 1818
3010.0 1619 1479 1361 1279 1203 1149 1106 1060 1018 980
3050.0 940 903 874 850 829 811 810 796 770 749
3090.0 710 685 645 629 605 589 583 578 570 558
3130.0 553 547 536 534 538 527 522 521 532 522
3170.0 520 525 519 513 517 525 506 501 497 493
3210.0 484 478 461 461 462 452 446 441 449 435
3250.0 437 440 438 434 439 437 438 435 441 441
3290.0 441 445 432 430 430 429 429 441 432 436
3330.0 436 439 446 443 442 448 446 445 449 441
3370.0 442 446 435 442 439 437 434 429 425 427
3410.0 427 432 436 423 426 425 430 421 419 421
3450.0 439 426 430 427 428 425 422 429 418 414
3490.0 418 420 429 425 426 424 423 421 424 424
3530.0 418 426 419 419 420 419 428 421 431 419
3570.0 424 424 432 433 434 425 436 430 426 433
3610.0 418 421 439 429 423 440 464 456 463 472
3650.0 459 445 440 424 432 420 418 408 447 414
3690.0 422 418 409 427 413 413 412 419 405 414
3730.0 408 428 409 405 404 439 410 419 417 415
3770.0 420 413 419 417 405 410 417 406 405 409
3810.0 425 407 419 424 416 420 408 409 423 439
3850.0 408 421 417 414 425 429 424 430 444 410
3890.0 425 422 405 418 421 416 408 438 415 405
3930.0 433 413 424 424 405 419 446 433 403 444
##END=
