##TITLE=1,2-Ethanediamine, N-(2-aminoethyl)-N,N'-dimethyl-
##JCAMP-DX=4.24
##DATA TYPE=INFRARED SPECTRUM
##ORIGIN=Sadtler Research Labs Under US-EPA Contract
##OWNER=NIST Standard Reference Data Program
##CAS REGISTRY NO=34066-96-1
##MOLFORM=C 6 H 17 N 3
##XUNITS=1/CM
##YUNITS=ABSORBANCE
##XFACTOR=1.0
##YFACTOR=0.000111685
##DELTAX=4.0
##FIRSTX=450.0
##LASTX=3966.0
##FIRSTY=0.010833
##MAXX=3966
##MINX=450
##MAXY=1.11685
##MINY=0
##NPOINTS=880
##XYDATA=(X++(Y..Y))
450.0 97 93 79 68 1 67 49 66 40 62
490.0 66 71 68 79 69 72 50 142 180 209
530.0 200 178 162 165 155 214 266 275 271 238
570.0 216 181 163 159 155 148 129 139 159 164
610.0 184 223 229 246 291 313 363 396 436 477
650.0 529 583 648 725 735 912 905 988 1045 1115
690.0 1177 1280 1453 1571 1669 1750 1827 1873 1975 2078
730.0 2204 2309 2434 2548 2657 2795 2928 3029 3120 3123
770.0 3016 2854 2640 2454 2350 2275 2244 2230 2180 2104
810.0 2011 1872 1718 1571 1409 1248 1098 971 847 766
850.0 723 682 657 631 628 631 643 649 637 622
890.0 576 520 457 404 364 344 340 336 347 354
930.0 362 359 355 367 386 398 415 432 450 477
970.0 463 458 465 479 526 610 739 900 1074 1246
1010.0 1428 1588 1738 1928 2106 2277 2508 2754 2990 3152
1050.0 3157 2992 2669 2273 1920 1638 1492 1434 1442 1490
1090.0 1518 1550 1576 1608 1678 1810 1973 2140 2286 2384
1130.0 2434 2365 2173 1970 1783 1615 1466 1310 1161 1007
1170.0 884 783 711 652 622 602 595 590 587 594
1210.0 604 622 640 660 671 674 672 662 670 701
1250.0 755 827 893 951 987 1008 1023 1039 1058 1068
1290.0 1089 1085 1081 1058 1036 999 968 918 874 838
1330.0 838 888 1034 1260 1463 1609 1672 1605 1455 1231
1370.0 1055 890 744 640 566 521 471 436 389 386
1410.0 360 412 475 570 644 802 979 1327 1686 2153
1450.0 2577 2880 3122 3103 3112 3013 2825 2453 2027 1510
1490.0 1114 799 644 481 401 339 268 246 238 223
1530.0 179 211 167 183 166 170 166 170 194 169
1570.0 194 191 247 228 276 297 346 390 469 535
1610.0 617 700 775 814 786 753 644 553 437 385
1650.0 262 302 190 170 130 141 92 129 90 112
1690.0 89 98 95 149 131 145 142 152 114 109
1730.0 87 88 43 29 1 11 9 5 7 4
1770.0 21 8 5 10 28 9 30 13 33 24
1810.0 27 22 41 22 47 31 34 39 34 50
1850.0 37 39 37 43 33 44 36 42 40 37
1890.0 42 36 38 34 32 35 25 39 23 29
1930.0 26 27 24 25 24 22 23 22 24 21
1970.0 23 23 25 27 26 26 31 26 31 31
2010.0 34 32 37 32 33 33 36 32 34 34
2050.0 35 33 37 37 39 39 41 41 41 42
2090.0 43 42 44 44 43 41 40 40 38 36
2130.0 33 31 32 29 26 23 24 22 20 21
2170.0 19 17 14 15 16 16 13 14 17 15
2210.0 12 14 14 17 18 18 20 19 20 16
2250.0 19 17 16 16 13 13 8 6 7 5
2290.0 3 1 4 6 6 6 18 21 31 38
2330.0 45 50 51 53 60 39 50 46 63 57
2370.0 62 63 62 58 48 55 59 61 64 64
2410.0 68 70 72 73 74 76 75 79 80 83
2450.0 86 91 90 97 97 105 109 113 117 122
2490.0 123 128 132 135 137 141 141 144 146 150
2530.0 153 158 160 166 170 173 178 184 190 195
2570.0 201 210 214 222 227 236 241 253 260 274
2610.0 284 296 311 326 340 359 379 400 423 448
2650.0 479 514 548 586 628 676 729 785 843 901
2690.0 945 991 1031 1078 1119 1159 1193 1221 1255 1294
2730.0 1348 1422 1509 1621 1765 1958 2212 2566 3024 3596
2770.0 4266 5017 5857 6790 7811 8841 9644 10000 9934 9415
2810.0 8675 7955 7334 6787 6353 6041 5894 5910 6066 6269
2850.0 6415 6409 6210 5880 5502 5230 5089 5090 5174 5326
2890.0 5460 5575 5626 5622 5604 5574 5615 5701 5836 6077
2930.0 6455 6963 7554 8133 8603 8788 8614 8099 7347 6627
2970.0 6062 5725 5327 4703 3879 2970 2134 1517 1142 931
3010.0 792 701 633 577 538 510 486 456 432 406
3050.0 389 372 358 341 337 328 317 301 283 265
3090.0 253 243 227 216 202 196 186 178 171 166
3130.0 162 157 155 147 147 146 142 140 135 137
3170.0 134 132 131 131 127 124 119 119 114 112
3210.0 107 107 101 94 91 90 87 86 80 81
3250.0 82 85 82 82 81 82 87 85 82 81
3290.0 82 82 82 83 81 92 102 113 124 144
3330.0 179 227 280 333 391 407 397 357 293 226
3370.0 178 137 113 107 110 121 130 134 143 150
3410.0 149 147 133 114 92 75 71 62 59 57
3450.0 51 51 38 49 47 45 42 35 39 33
3490.0 31 28 27 35 26 33 21 25 25 27
3530.0 28 21 29 19 37 17 31 2 32 20
3570.0 38 17 15 32 29 44 21 12 34 21
3610.0 39 21 16 29 10 75 18 28 24 18
3650.0 40 15 41 17 15 36 16 48 15 20
3690.0 24 25 22 30 25 31 35 21 24 30
3730.0 35 30 58 3 90 5 42 1 10 13
3770.0 13 19 0 6 21 22 19 14 17 23
3810.0 13 23 12 41 7 18 16 31 17 33
3850.0 22 63 33 26 30 34 21 34 32 59
3890.0 19 56 30 78 55 47 33 58 31 46
3930.0 36 49 39 47 38 57 48 45 49 42
##END=
