##TITLE=2,5-Dichlorobenzyl alcohol
##JCAMP-DX=4.24
##DATA TYPE=INFRARED SPECTRUM
##ORIGIN=Sadtler Research Labs Under US-EPA Contract
##OWNER=NIST Standard Reference Data Program
##CAS REGISTRY NO=34145-05-6
##MOLFORM=C 7 H 6 Cl 2 O
##XUNITS=1/CM
##YUNITS=ABSORBANCE
##XFACTOR=1.0
##YFACTOR=0.000054257
##DELTAX=4.0
##FIRSTX=450.0
##LASTX=3966.0
##FIRSTY=0.036678
##MAXX=3966
##MINX=450
##MAXY=0.54257
##MINY=0
##NPOINTS=880
##XYDATA=(X++(Y..Y))
450.0 676 616 363 425 364 340 202 261 334 361
490.0 169 201 329 662 1277 1840 2146 2395 2245 1926
530.0 1698 1390 1251 1156 1093 1072 1035 1298 1823 2016
570.0 1927 1745 1345 966 869 726 752 870 864 1092
610.0 1268 1252 1259 1074 927 749 496 474 421 404
650.0 353 334 272 322 296 318 331 320 282 209
690.0 291 416 425 473 578 596 546 602 665 746
730.0 729 726 889 412 489 447 614 339 393 263
770.0 23 251 355 492 480 650 912 1572 2651 3520
810.0 5157 5610 4603 3366 2588 1617 1178 982 829 785
850.0 770 841 1155 1679 2376 3106 3632 3681 3377 2790
890.0 2048 1492 1126 845 739 694 677 694 777 748
930.0 831 914 961 1089 1237 1390 1530 1573 1598 1579
970.0 1475 1391 1343 1288 1303 1432 1583 1808 2170 2738
1010.0 3425 4458 5623 6770 7957 8606 8754 8139 7757 7457
1050.0 7810 8420 8695 8195 6838 5577 4334 3635 3540 4309
1090.0 6280 8756 10000 9474 7486 4472 2738 2119 2071 2117
1130.0 2373 2614 2624 2304 1795 1391 1502 1636 1666 1703
1170.0 1979 2241 2756 3154 3410 3582 3572 3398 2971 2551
1210.0 2213 1971 1876 1845 1698 1659 1556 1510 1585 1795
1250.0 2009 2314 2528 2630 2533 2184 1765 1353 1078 862
1290.0 738 710 770 773 772 767 749 752 709 664
1330.0 715 807 1028 1190 1347 1541 1706 1890 2110 2430
1370.0 2752 3007 3312 3471 3717 4007 4114 4152 3864 3434
1410.0 2758 2324 1789 1490 1415 1408 1370 1580 2116 2908
1450.0 4396 5951 7565 8942 8988 8432 7069 5520 4000 2659
1490.0 1716 1359 1082 1130 1273 1146 771 500 453 494
1530.0 399 446 347 381 327 329 412 519 691 599
1570.0 601 486 337 364 467 440 455 352 228 107
1610.0 138 83 0 19 10 77 64 101 158 256
1650.0 258 342 375 345 263 211 163 203 221 240
1690.0 259 242 187 179 209 256 249 226 201 136
1730.0 48 13 75 133 189 268 261 222 188 156
1770.0 120 84 87 55 61 81 89 135 126 122
1810.0 84 113 117 97 139 108 95 110 109 118
1850.0 118 126 107 155 216 248 311 343 363 394
1890.0 346 238 166 104 104 51 71 79 82 41
1930.0 58 87 57 37 44 58 72 59 59 59
1970.0 62 83 60 74 90 67 81 61 85 74
2010.0 84 93 107 111 109 113 117 111 126 112
2050.0 127 113 93 108 104 103 91 108 98 99
2090.0 93 85 92 76 79 84 73 75 68 69
2130.0 67 65 62 63 71 48 65 64 60 69
2170.0 52 50 53 63 53 58 47 50 56 44
2210.0 41 50 42 29 45 45 43 41 45 42
2250.0 49 49 64 69 82 84 93 93 86 63
2290.0 66 49 52 64 61 49 57 71 56 57
2330.0 52 70 82 37 71 75 69 76 89 98
2370.0 71 55 62 65 57 62 66 79 69 67
2410.0 62 66 67 60 60 61 67 67 63 66
2450.0 61 65 66 63 69 63 59 56 55 53
2490.0 60 63 60 51 58 64 61 70 67 68
2530.0 69 66 72 63 64 60 51 52 55 56
2570.0 60 48 56 59 54 67 63 68 70 73
2610.0 76 71 69 68 73 73 79 91 91 94
2650.0 103 118 107 115 112 103 114 123 110 115
2690.0 108 119 117 114 116 122 118 136 136 141
2730.0 143 144 155 141 148 156 160 146 143 144
2770.0 158 165 177 182 176 201 202 229 230 231
2810.0 247 267 299 312 326 343 360 390 426 461
2850.0 484 534 598 661 746 857 986 1165 1328 1464
2890.0 1546 1541 1463 1370 1293 1207 1161 1183 1255 1349
2930.0 1426 1486 1548 1517 1440 1337 1234 1162 1115 1077
2970.0 1048 1009 930 840 722 605 526 440 373 322
3010.0 292 286 272 264 262 256 270 251 234 230
3050.0 207 190 203 223 252 302 361 447 471 468
3090.0 426 373 319 271 212 183 167 158 138 143
3130.0 150 131 116 105 120 121 124 120 119 133
3170.0 146 122 122 124 125 119 119 122 126 131
3210.0 121 116 127 123 100 120 97 108 98 103
3250.0 95 108 108 99 79 101 85 86 96 90
3290.0 92 79 69 77 89 94 101 83 92 75
3330.0 97 96 95 73 75 87 97 94 80 68
3370.0 79 84 61 85 83 80 80 76 69 106
3410.0 108 91 93 107 92 110 74 80 77 82
3450.0 84 73 49 75 50 49 41 46 50 41
3490.0 43 47 55 55 40 50 46 31 54 57
3530.0 60 96 69 93 112 110 88 75 96 119
3570.0 115 108 117 109 131 137 145 212 222 211
3610.0 234 251 303 368 455 631 828 991 1177 1354
3650.0 1473 1560 1603 1659 1617 1601 1449 1355 1159 976
3690.0 794 591 459 348 251 235 191 158 127 124
3730.0 105 66 63 51 68 59 54 47 63 2
3770.0 17 47 51 45 62 17 40 59 91 100
3810.0 93 29 68 127 68 70 16 18 45 21
3850.0 102 61 129 87 55 74 100 162 93 67
3890.0 72 107 82 111 75 48 33 135 151 77
3930.0 96 115 78 140 134 89 100 119 121 74
##END=
