##TITLE=1,2-Propanediamine, N(1),N(1)-dipropyl-,
##JCAMP-DX=4.24
##DATA TYPE=INFRARED SPECTRUM
##ORIGIN=Sadtler Research Labs Under US-EPA Contract
##OWNER=NIST Standard Reference Data Program
##CAS REGISTRY NO=34155-34-5
##MOLFORM=C 9 H 22 N 2
##XUNITS=1/CM
##YUNITS=ABSORBANCE
##XFACTOR=1.0
##YFACTOR=0.000159073
##DELTAX=4.0
##FIRSTX=450.0
##LASTX=3966.0
##FIRSTY=0.001432
##MAXX=3966
##MINX=450
##MAXY=1.59073
##MINY=0
##NPOINTS=880
##XYDATA=(X++(Y..Y))
450.0 9 13 23 25 35 56 52 50 14 23
490.0 24 14 26 36 44 47 24 33 27 22
530.0 7 7 10 7 2 15 19 13 25 23
570.0 24 33 26 25 22 17 15 13 18 22
610.0 17 18 17 24 19 29 36 30 27 30
650.0 36 44 52 51 59 82 74 81 90 96
690.0 114 124 130 140 160 177 200 211 249 280
730.0 321 373 447 504 571 621 649 676 710 756
770.0 829 936 1056 1147 1202 1257 1336 1424 1482 1496
810.0 1432 1350 1241 1133 1016 913 862 869 891 908
850.0 910 849 742 624 514 438 391 382 376 389
890.0 392 376 348 312 295 292 294 305 307 309
930.0 291 258 215 178 160 152 146 137 121 108
970.0 95 92 94 107 131 180 246 329 420 526
1010.0 622 699 745 750 741 724 708 676 629 607
1050.0 638 763 1019 1431 1961 2477 2774 2737 2409 1975
1090.0 1603 1353 1169 1023 898 796 714 647 598 572
1130.0 562 561 555 530 475 409 355 331 340 385
1170.0 457 544 639 747 858 933 916 793 612 457
1210.0 365 324 317 328 332 323 298 269 252 258
1250.0 286 329 382 437 489 540 594 635 665 675
1290.0 687 691 696 687 666 632 615 598 592 594
1330.0 616 673 757 841 885 865 814 786 818 895
1370.0 1052 1255 1474 1577 1515 1308 995 702 496 369
1410.0 283 257 234 243 240 279 310 417 499 661
1450.0 875 1132 1440 1628 1757 1640 1430 1030 725 491
1490.0 380 319 295 260 258 239 219 214 214 210
1530.0 193 214 199 210 202 208 211 218 227 213
1570.0 225 223 250 240 268 285 318 349 401 454
1610.0 516 572 608 599 541 479 391 326 257 222
1650.0 154 167 99 86 68 80 68 89 70 88
1690.0 82 91 95 122 116 125 117 120 105 98
1730.0 62 44 20 13 3 8 11 12 15 14
1770.0 22 17 13 12 18 8 15 9 14 11
1810.0 10 5 10 2 9 3 5 7 3 10
1850.0 3 6 5 6 2 6 4 8 7 7
1890.0 11 8 12 12 14 17 14 21 15 17
1930.0 18 19 18 19 18 19 17 14 15 14
1970.0 14 14 13 14 14 12 17 17 17 18
2010.0 19 18 20 21 22 22 22 19 20 17
2050.0 13 11 9 7 9 8 9 8 9 7
2090.0 7 7 7 7 8 6 7 7 9 9
2130.0 12 9 8 10 10 10 10 10 9 11
2170.0 11 13 13 15 16 18 19 19 19 19
2210.0 19 17 18 16 17 17 15 14 11 12
2250.0 12 13 13 13 12 14 15 13 14 15
2290.0 15 20 18 20 22 20 20 17 18 17
2330.0 16 13 13 12 21 19 18 17 13 15
2370.0 15 17 19 21 18 17 16 17 15 16
2410.0 14 10 7 5 3 0 0 1 0 2
2450.0 5 7 10 10 13 16 17 17 20 22
2490.0 23 25 26 27 29 34 34 36 39 43
2530.0 46 52 55 61 65 69 72 75 77 79
2570.0 82 87 91 97 103 110 118 127 133 142
2610.0 151 157 165 172 178 187 197 207 221 235
2650.0 249 263 278 297 316 330 341 351 351 353
2690.0 361 372 395 426 468 516 572 629 691 749
2730.0 811 873 932 978 1008 1031 1055 1092 1146 1209
2770.0 1286 1373 1475 1604 1792 2072 2469 2957 3468 3857
2810.0 3992 3843 3511 3097 2706 2381 2130 1954 1837 1758
2850.0 1733 1766 1862 2033 2310 2723 3268 3928 4374 4362
2890.0 3980 3470 3116 3049 3141 3283 3434 3588 3774 4059
2930.0 4520 5107 5757 6211 6243 5985 5894 6634 8156 9738
2970.0 10000 8919 6735 4782 3291 2196 1491 1070 838 703
3010.0 617 561 512 478 446 418 390 357 326 300
3050.0 274 251 233 219 209 197 190 180 179 174
3090.0 167 160 156 155 150 141 138 135 131 130
3130.0 130 126 125 126 123 123 125 124 124 121
3170.0 119 120 118 115 114 112 106 99 94 84
3210.0 78 73 67 63 59 56 55 54 51 46
3250.0 50 46 48 46 47 44 45 43 41 44
3290.0 45 44 45 52 54 67 79 104 144 186
3330.0 213 204 169 122 84 61 48 44 43 44
3370.0 54 67 70 82 75 72 88 106 114 105
3410.0 88 60 46 37 32 28 25 28 22 26
3450.0 24 25 24 21 14 16 15 12 11 11
3490.0 10 9 8 13 10 11 9 6 7 8
3530.0 6 6 9 1 9 4 12 0 10 4
3570.0 14 11 7 11 7 18 11 0 9 2
3610.0 16 10 3 6 3 34 13 12 13 14
3650.0 24 19 26 13 14 23 11 30 10 15
3690.0 18 15 13 15 15 14 14 16 10 9
3730.0 17 20 23 10 48 9 24 8 12 14
3770.0 9 14 12 13 14 14 18 17 20 20
3810.0 19 20 13 21 16 23 18 22 6 12
3850.0 7 40 20 12 8 21 8 8 18 24
3890.0 18 20 14 26 23 19 11 21 16 14
3930.0 13 15 17 12 18 18 16 14 19 25
##END=
