##TITLE=Methanone, (3,5-dichloro-4-hydroxyphenyl)phenyl-
##JCAMP-DX=4.24
##DATA TYPE=INFRARED SPECTRUM
##ORIGIN=Sadtler Research Labs Under US-EPA Contract
##OWNER=NIST Standard Reference Data Program
##CAS REGISTRY NO=34183-06-7
##MOLFORM=C 13 H 8 Cl 2 O 2
##XUNITS=1/CM
##YUNITS=ABSORBANCE
##XFACTOR=1.0
##YFACTOR=0.000074316
##DELTAX=4.0
##FIRSTX=450.0
##LASTX=3966.0
##FIRSTY=0.000000
##MAXX=3966
##MINX=450
##MAXY=0.74316
##MINY=0
##NPOINTS=880
##XYDATA=(X++(Y..Y))
450.0 0 174 321 245 281 243 113 255 203 237
490.0 227 144 223 128 156 234 253 267 208 254
530.0 226 242 221 209 276 367 387 282 234 187
570.0 182 144 216 118 226 323 421 750 933 1062
610.0 1004 707 533 446 461 514 567 596 860 1645
650.0 2814 2961 2056 963 660 596 556 628 706 939
690.0 1435 1789 1820 1780 1917 2403 2643 2362 2213 2020
730.0 2183 2396 1779 954 205 254 275 388 262 337
770.0 277 351 679 877 1032 1153 1492 2090 2580 2548
810.0 1980 1427 1090 996 1008 979 888 743 684 652
850.0 510 342 239 209 221 227 291 367 449 613
890.0 787 812 860 721 578 476 369 361 382 418
930.0 379 344 307 310 334 359 389 439 517 696
970.0 999 1506 1821 1410 807 522 452 532 660 531
1010.0 419 407 515 576 581 456 349 336 396 501
1050.0 526 515 513 558 640 814 974 989 824 676
1090.0 604 593 632 661 733 755 729 738 772 995
1130.0 1122 1312 1535 1820 2098 2301 2511 2704 2665 2563
1170.0 2707 3076 3521 3165 2130 1185 874 820 869 1009
1210.0 1180 1509 1922 2382 2883 3340 3734 4169 4294 4110
1250.0 4026 4757 5949 6705 6001 4767 4551 5752 7727 10000
1290.0 9676 7635 5258 3619 2838 2384 2187 1915 1363 1042
1330.0 1034 970 753 567 369 298 251 241 251 264
1370.0 326 387 570 804 1233 1759 2081 1982 1738 1458
1410.0 1058 737 467 367 284 348 472 691 1152 1466
1450.0 1362 1050 901 895 1051 1360 1886 2659 2987 2635
1490.0 1632 928 577 400 281 233 223 249 295 317
1530.0 365 421 432 515 613 742 930 1136 1509 1586
1570.0 1858 1829 1742 1838 1779 1611 1324 891 751 371
1610.0 167 142 319 217 275 222 459 655 742 992
1650.0 1178 1473 1666 1642 1615 1505 1993 3106 3669 3383
1690.0 2412 1432 922 759 577 476 362 350 334 290
1730.0 284 265 219 246 196 237 230 266 329 413
1770.0 518 628 557 489 380 383 333 352 353 345
1810.0 357 326 308 289 295 265 216 238 248 240
1850.0 237 220 220 215 215 222 256 266 247 236
1890.0 266 282 287 286 282 261 256 247 265 251
1930.0 245 239 197 275 258 268 307 325 314 290
1970.0 287 269 288 303 246 211 246 211 221 231
2010.0 197 251 258 272 194 198 225 219 223 209
2050.0 221 250 233 202 223 230 184 223 203 214
2090.0 230 188 195 253 187 219 254 218 224 236
2130.0 243 236 212 242 221 189 202 211 209 219
2170.0 211 204 222 197 247 224 214 214 210 229
2210.0 233 237 250 232 220 224 241 231 226 233
2250.0 239 219 222 208 202 208 225 238 202 206
2290.0 205 185 202 177 151 106 187 139 213 250
2330.0 87 189 157 273 92 209 88 129 91 198
2370.0 175 141 189 157 206 203 223 230 247 227
2410.0 285 242 235 224 229 224 196 237 243 204
2450.0 183 182 214 205 176 216 238 297 244 255
2490.0 233 209 212 185 224 230 246 270 268 249
2530.0 233 230 181 199 172 227 186 223 241 222
2570.0 209 248 215 218 194 203 193 167 172 189
2610.0 203 193 226 217 199 188 206 207 203 197
2650.0 190 211 195 213 232 202 202 189 171 157
2690.0 165 166 167 154 159 170 155 161 150 147
2730.0 168 154 152 176 163 166 157 177 172 151
2770.0 161 155 149 129 147 143 147 131 161 155
2810.0 127 146 146 142 154 152 155 163 145 169
2850.0 155 178 177 183 189 188 187 168 173 157
2890.0 155 121 121 126 112 127 140 118 125 114
2930.0 118 139 123 91 110 133 144 150 130 151
2970.0 157 166 154 127 131 146 162 146 159 171
3010.0 182 205 217 250 297 351 389 406 422 398
3050.0 375 397 414 489 624 779 904 858 723 679
3090.0 627 544 419 366 320 271 227 181 161 144
3130.0 157 168 153 130 153 150 141 157 144 140
3170.0 129 103 133 109 128 133 133 139 133 150
3210.0 135 151 149 135 130 162 150 154 146 169
3250.0 161 146 153 150 155 153 183 195 179 190
3290.0 164 177 175 159 151 156 165 169 166 164
3330.0 154 192 185 186 199 186 162 169 163 160
3370.0 176 165 186 156 164 184 162 155 141 162
3410.0 139 128 125 103 141 143 154 113 113 166
3450.0 132 124 132 116 123 126 153 145 186 169
3490.0 193 240 240 283 281 297 289 310 334 303
3530.0 277 259 256 317 396 833 1861 3319 3833 3054
3570.0 1780 909 503 308 235 179 199 199 157 141
3610.0 175 132 175 164 152 175 193 184 165 160
3650.0 198 145 174 152 106 163 106 198 118 184
3690.0 134 132 134 106 130 170 109 101 98 104
3730.0 91 166 155 106 196 116 165 117 108 173
3770.0 136 104 116 131 178 154 138 134 128 131
3810.0 124 162 91 153 113 168 131 183 284 143
3850.0 232 143 194 135 190 211 119 151 210 185
3890.0 150 89 191 247 159 122 91 100 161 91
3930.0 116 195 163 101 92 145 100 142 117 177
##END=
