##TITLE=2,2'-Difluorobenzophenone
##JCAMP-DX=4.24
##DATA TYPE=INFRARED SPECTRUM
##ORIGIN=Sadtler Research Labs Under US-EPA Contract
##OWNER=NIST Standard Reference Data Program
##CAS REGISTRY NO=342-23-4
##MOLFORM=C 13 H 8 F 2 O
##XUNITS=1/CM
##YUNITS=ABSORBANCE
##XFACTOR=1.0
##YFACTOR=0.000067432
##DELTAX=4.0
##FIRSTX=450.0
##LASTX=3966.0
##FIRSTY=0.000000
##MAXX=3966
##MINX=450
##MAXY=0.67432
##MINY=0
##NPOINTS=880
##XYDATA=(X++(Y..Y))
450.0 0 4 4 42 47 117 108 184 158 217
490.0 197 188 331 373 500 597 657 631 726 520
530.0 402 199 99 39 38 29 34 84 12 183
570.0 0 63 115 111 96 220 162 190 224 146
610.0 170 89 161 128 225 335 494 478 718 866
650.0 603 490 286 296 440 704 750 866 803 614
690.0 665 687 760 622 563 458 437 341 384 436
730.0 624 987 1682 2858 3608 3778 2572 1789 1080 843
770.0 772 891 1227 1992 2895 3124 2949 2802 3051 3456
810.0 4346 4417 3693 2248 1669 1260 823 445 331 368
850.0 328 329 299 294 289 392 473 695 1013 1220
890.0 1349 1402 1389 1354 1408 1297 1088 807 528 362
930.0 257 231 200 176 141 158 126 164 155 195
970.0 279 357 445 472 468 411 486 544 547 425
1010.0 266 187 169 154 140 163 113 134 114 127
1050.0 127 130 137 210 294 392 485 463 404 303
1090.0 272 292 366 471 607 623 505 411 349 325
1130.0 311 333 329 416 486 725 959 1004 846 716
1170.0 1017 1635 2333 2566 2269 1583 1024 688 531 507
1210.0 544 628 764 1004 1313 1855 2543 3463 3937 3892
1250.0 3190 2623 2496 2933 3994 5428 6480 6938 7607 8696
1290.0 10000 9574 9075 7998 6169 4203 2523 1402 849 658
1330.0 557 494 425 426 372 310 280 239 221 230
1370.0 230 200 207 170 188 192 220 294 404 558
1410.0 710 852 928 1175 1489 2091 3010 4381 5678 5818
1450.0 4184 2197 1186 933 1015 1235 1692 2274 2636 2515
1490.0 2001 1404 1004 819 673 615 569 522 449 452
1530.0 398 362 338 306 364 395 450 498 616 833
1570.0 1198 1795 2861 4168 5361 5645 4817 3456 2360 1893
1610.0 1610 1264 820 603 471 414 398 352 362 369
1650.0 400 378 509 563 747 1087 1766 2917 4343 5471
1690.0 5595 4596 3011 1856 1196 872 692 567 507 449
1730.0 371 277 259 201 207 194 208 208 236 236
1770.0 243 229 224 204 165 165 148 171 163 185
1810.0 163 149 130 97 82 76 75 70 72 52
1850.0 89 84 119 142 165 201 217 178 138 107
1890.0 63 70 57 51 48 55 55 62 68 81
1930.0 117 138 176 179 163 127 100 64 68 69
1970.0 62 76 62 63 60 65 45 56 42 44
2010.0 41 40 40 40 39 47 55 45 60 59
2050.0 65 78 73 76 70 69 68 77 76 93
2090.0 82 81 72 54 47 45 39 39 41 33
2130.0 40 39 40 40 46 47 49 47 39 48
2170.0 39 45 46 46 40 46 40 39 39 29
2210.0 39 36 33 32 41 32 39 33 40 40
2250.0 33 39 42 39 42 56 40 61 54 60
2290.0 62 69 68 62 61 59 79 58 82 70
2330.0 62 87 74 62 98 83 48 137 101 127
2370.0 127 115 93 84 63 53 50 39 54 39
2410.0 39 39 39 39 48 39 39 43 37 44
2450.0 47 55 47 54 39 47 45 45 46 42
2490.0 46 46 46 46 68 54 69 61 47 44
2530.0 45 40 39 43 40 39 34 39 39 40
2570.0 39 48 38 47 56 48 62 49 52 49
2610.0 55 39 39 32 26 32 15 32 22 18
2650.0 18 22 11 32 25 16 33 25 32 32
2690.0 39 26 40 24 34 28 26 41 33 24
2730.0 25 24 17 33 4 12 14 11 16 15
2770.0 12 10 19 10 19 10 19 13 13 11
2810.0 24 10 17 30 4 20 15 21 22 29
2850.0 24 38 39 34 44 18 44 42 38 32
2890.0 46 31 47 47 35 45 37 42 37 38
2930.0 24 48 27 41 35 28 51 44 34 44
2970.0 43 15 39 17 19 27 30 30 31 29
3010.0 42 54 47 65 56 85 115 158 211 278
3050.0 297 267 267 264 326 414 581 751 881 838
3090.0 661 434 271 224 162 154 117 86 57 63
3130.0 34 37 48 19 35 27 24 32 33 19
3170.0 34 8 30 31 17 24 30 18 18 44
3210.0 11 29 22 23 28 36 24 32 34 24
3250.0 40 3 39 25 25 25 25 3 28 22
3290.0 13 30 14 28 28 35 28 49 43 57
3330.0 57 51 73 61 81 94 111 104 135 78
3370.0 66 71 45 47 31 39 27 45 17 37
3410.0 18 31 51 32 35 41 35 28 56 21
3450.0 52 36 32 33 36 30 38 39 15 44
3490.0 15 38 24 18 7 29 21 24 33 18
3530.0 43 34 32 33 48 34 43 39 47 44
3570.0 25 57 33 24 30 34 14 44 28 18
3610.0 35 9 27 21 40 7 37 28 37 20
3650.0 10 41 33 38 41 30 17 34 26 33
3690.0 17 19 14 14 7 4 28 6 26 3
3730.0 15 10 15 15 14 3 14 40 25 40
3770.0 38 47 29 43 25 31 13 10 13 3
3810.0 12 3 3 3 7 3 3 3 5 8
3850.0 3 2 21 32 16 31 29 40 35 29
3890.0 38 36 28 30 34 12 26 12 3 3
3930.0 5 3 3 5 4 15 3 3 3 3
##END=
