##TITLE=Azetidine, 1-benzoyl-,
##JCAMP-DX=4.24
##DATA TYPE=INFRARED SPECTRUM
##ORIGIN=Sadtler Research Labs Under US-EPA Contract
##OWNER=NIST Standard Reference Data Program
##CAS REGISTRY NO=3420-62-0
##MOLFORM=C 10 H 11 N O
##XUNITS=1/CM
##YUNITS=ABSORBANCE
##XFACTOR=1.0
##YFACTOR=0.000141803
##DELTAX=4.0
##FIRSTX=450.0
##LASTX=3966.0
##FIRSTY=0.003120
##MAXX=3966
##MINX=450
##MAXY=1.41803
##MINY=0
##NPOINTS=880
##XYDATA=(X++(Y..Y))
450.0 22 28 27 45 71 137 117 76 79 61
490.0 38 14 37 30 38 23 20 8 19 18
530.0 0 4 14 8 2 13 7 3 5 26
570.0 14 21 14 27 39 46 77 89 95 90
610.0 78 66 62 61 62 47 40 46 47 69
650.0 67 106 125 174 216 432 634 757 947 1074
690.0 1242 1383 1548 1620 1711 1787 1830 1590 1260 966
730.0 680 464 319 240 190 153 148 148 144 140
770.0 151 179 223 275 329 348 333 288 216 157
810.0 134 120 131 141 137 134 125 129 122 126
850.0 122 112 118 116 119 124 123 123 132 141
890.0 143 154 155 158 161 162 165 163 164 168
930.0 152 131 111 84 71 63 66 77 102 132
970.0 167 216 301 418 539 573 541 468 316 227
1010.0 189 125 130 203 263 256 240 167 111 109
1050.0 114 137 166 201 231 243 235 216 191 178
1090.0 185 213 259 321 393 455 505 546 585 623
1130.0 626 574 491 382 283 244 229 234 257 302
1170.0 367 437 491 509 479 418 364 318 286 276
1210.0 277 285 298 323 364 430 511 559 565 541
1250.0 494 448 441 470 511 550 581 602 619 660
1290.0 723 812 872 878 878 830 756 727 745 798
1330.0 898 1027 1175 1362 1602 1888 2296 2857 3647 4830
1370.0 6249 8044 9286 10000 9067 7478 5494 3854 2794 2100
1410.0 1660 1380 1178 1077 1002 953 903 899 975 1059
1450.0 1053 997 830 663 563 509 479 505 577 604
1490.0 600 604 542 459 360 283 264 224 191 205
1530.0 194 194 176 152 159 179 183 178 236 297
1570.0 357 415 459 451 442 402 374 373 401 433
1610.0 452 477 483 546 588 668 697 734 808 909
1650.0 1094 1476 2246 3173 4730 6113 7753 7581 7567 6203
1690.0 4210 2688 1632 1089 808 730 621 549 502 468
1730.0 384 303 256 204 175 158 177 172 173 175
1770.0 167 143 141 119 104 88 83 94 95 123
1810.0 121 112 99 79 63 50 52 54 46 35
1850.0 46 49 45 41 36 26 43 53 58 64
1890.0 66 74 76 77 69 57 44 34 23 26
1930.0 32 34 44 44 58 69 74 77 79 68
1970.0 55 44 30 20 14 4 3 4 3 1
2010.0 2 1 0 3 3 7 9 8 9 11
2050.0 14 16 16 17 14 16 12 11 7 7
2090.0 3 4 6 5 6 3 6 5 7 5
2130.0 5 8 9 11 11 14 18 21 23 25
2170.0 26 26 26 24 23 21 19 17 18 19
2210.0 21 21 20 24 22 22 23 21 22 22
2250.0 22 22 23 20 21 22 23 25 25 27
2290.0 28 31 35 36 39 45 44 37 34 29
2330.0 20 18 17 27 31 32 27 22 23 16
2370.0 23 29 32 30 23 14 11 8 6 7
2410.0 4 1 1 1 0 0 3 1 4 5
2450.0 6 4 4 5 5 7 7 8 8 5
2490.0 5 5 5 6 5 4 7 5 6 5
2530.0 7 6 7 9 10 11 13 14 12 13
2570.0 11 11 9 9 8 9 10 11 12 10
2610.0 10 9 7 5 7 4 4 3 4 3
2650.0 6 6 5 7 5 9 9 11 12 10
2690.0 11 13 15 12 12 16 19 25 28 36
2730.0 41 47 48 46 42 41 41 41 42 42
2770.0 44 42 47 50 55 61 64 66 67 68
2810.0 71 71 71 69 67 66 68 71 78 90
2850.0 109 128 158 194 244 306 395 540 758 1045
2890.0 1357 1619 1816 1731 1429 1057 664 457 403 400
2930.0 439 513 650 845 1103 1383 1558 1637 1740 1722
2970.0 1687 1665 1576 1418 1185 997 863 869 925 1068
3010.0 1155 976 736 595 463 425 427 466 478 468
3050.0 450 454 512 627 800 925 940 883 764 632
3090.0 562 507 443 367 302 247 197 153 114 85
3130.0 69 55 51 48 47 46 51 44 47 38
3170.0 32 26 21 17 17 17 13 14 8 11
3210.0 13 11 11 9 11 13 11 12 11 12
3250.0 13 13 13 13 13 13 11 14 15 18
3290.0 18 23 23 24 26 25 28 34 38 46
3330.0 48 55 56 53 47 43 31 25 18 15
3370.0 9 6 7 6 8 4 4 1 2 3
3410.0 5 4 6 5 8 4 6 9 7 5
3450.0 6 6 1 1 2 3 7 6 6 2
3490.0 2 3 1 1 2 0 0 1 2 2
3530.0 6 8 6 6 4 4 11 7 10 8
3570.0 8 6 5 16 13 11 6 10 7 6
3610.0 7 8 5 9 3 13 11 11 12 9
3650.0 15 12 17 16 14 18 13 16 8 14
3690.0 11 11 11 16 18 22 20 13 15 18
3730.0 19 16 18 10 22 14 24 9 6 4
3770.0 7 11 10 6 10 15 11 4 14 12
3810.0 9 13 3 6 4 1 7 12 3 3
3850.0 4 13 15 10 10 8 0 0 7 9
3890.0 9 9 8 15 11 11 2 9 6 3
3930.0 11 5 8 7 7 14 13 15 15 23
##END=
