##TITLE=(-)-Dimethyl succinate
##JCAMP-DX=4.24
##DATA TYPE=INFRARED SPECTRUM
##ORIGIN=Sadtler Research Labs Under US-EPA Contract
##OWNER=NIST Standard Reference Data Program
##CAS REGISTRY NO=34212-59-4
##MOLFORM=C 24 H 42 O 4
##XUNITS=1/CM
##YUNITS=ABSORBANCE
##XFACTOR=1.0
##YFACTOR=0.000046597
##DELTAX=4.0
##FIRSTX=450.0
##LASTX=3966.0
##FIRSTY=0.011370
##MAXX=3966
##MINX=450
##MAXY=0.46597
##MINY=0
##NPOINTS=880
##XYDATA=(X++(Y..Y))
450.0 244 199 199 232 147 343 220 206 145 196
490.0 174 170 142 159 241 157 106 103 79 128
530.0 37 59 77 76 114 97 77 141 155 138
570.0 166 169 107 141 118 181 239 232 195 167
610.0 129 127 84 64 74 67 60 80 92 105
650.0 176 226 194 124 102 127 47 40 33 36
690.0 43 29 31 50 32 41 14 12 2 36
730.0 5 2 25 14 16 48 41 66 60 54
770.0 66 60 83 68 96 131 165 241 275 303
810.0 283 289 260 269 296 300 383 549 778 703
850.0 444 293 284 316 335 318 266 274 308 406
890.0 513 580 582 609 679 760 741 685 620 567
930.0 506 479 505 600 706 901 1184 1520 1905 2122
970.0 2199 2488 3137 3608 3414 2904 2517 2296 2254 2457
1010.0 2540 2167 1758 1511 1404 1374 1574 1847 1672 1341
1050.0 1147 1074 1036 975 896 903 1035 1333 1574 1663
1090.0 1864 1997 1829 1565 1431 1402 1409 1530 1779 2132
1130.0 2598 3196 4010 5068 6121 6559 6698 7207 7749 7792
1170.0 7464 6999 6415 5691 5033 4538 4175 3944 3854 3873
1210.0 3976 4115 4139 4066 3957 3928 3996 4194 4339 4295
1250.0 4204 4097 4009 3845 3534 3249 3024 2737 2510 2390
1290.0 2264 2158 2082 2021 1986 1901 1776 1648 1605 1648
1330.0 1729 1842 1965 2164 2221 2134 2118 2257 2462 2732
1370.0 2966 2834 2471 2206 2083 1952 1459 1021 812 784
1410.0 873 1029 1091 1120 1099 1076 1058 1116 1230 1502
1450.0 1888 2186 2316 2140 1805 1519 1092 756 521 363
1490.0 258 225 192 169 157 144 133 110 80 85
1530.0 71 78 67 43 63 76 74 37 72 74
1570.0 78 71 95 67 101 87 102 89 108 110
1610.0 114 123 108 145 125 168 154 174 183 207
1650.0 185 232 244 260 277 309 309 397 424 512
1690.0 625 755 832 966 1110 1318 1591 2064 2894 4206
1730.0 5783 7175 8315 9265 9755 8487 6287 4178 2642 1780
1770.0 1254 978 821 748 645 567 481 408 341 295
1810.0 242 201 185 149 125 95 87 84 61 58
1850.0 49 56 44 40 19 18 31 32 32 27
1890.0 27 20 29 19 21 19 11 16 10 10
1930.0 11 13 9 7 2 2 5 7 9 4
1970.0 9 6 13 5 10 5 9 10 15 22
2010.0 20 10 7 15 13 14 14 15 13 20
2050.0 17 16 19 13 18 15 18 19 26 19
2090.0 22 23 27 24 22 21 19 21 22 14
2130.0 10 8 5 4 11 4 7 6 11 7
2170.0 10 10 11 23 15 15 18 14 15 16
2210.0 11 17 16 7 10 9 9 5 8 2
2250.0 5 7 11 13 12 19 16 19 26 34
2290.0 46 60 79 89 106 112 108 102 126 110
2330.0 119 104 82 122 111 132 165 134 149 134
2370.0 121 121 104 109 84 56 37 38 35 40
2410.0 40 40 36 40 40 39 35 36 35 28
2450.0 27 26 31 37 33 31 31 28 35 28
2490.0 29 24 33 25 31 25 34 35 38 36
2530.0 36 40 44 50 53 45 48 47 49 62
2570.0 58 60 69 78 84 92 109 106 127 135
2610.0 134 132 137 140 138 133 136 132 134 136
2650.0 147 150 159 157 153 153 160 149 158 158
2690.0 159 163 168 178 186 194 202 225 241 257
2730.0 275 275 272 257 248 234 224 223 234 239
2770.0 240 245 260 270 291 310 340 368 398 427
2810.0 461 496 532 583 646 721 833 976 1234 1661
2850.0 2138 2699 3220 3514 3877 4428 4927 5086 4731 4160
2890.0 3668 3441 3452 3610 3906 4356 4960 5693 6494 7353
2930.0 8303 8545 8041 7685 7657 7701 7991 8960 10000 9950
2970.0 7625 4935 3319 2360 1726 1300 1004 814 669 575
3010.0 495 448 406 357 308 288 256 223 205 183
3050.0 171 172 170 154 157 147 138 147 137 135
3090.0 121 121 116 114 118 111 100 96 96 105
3130.0 107 107 106 113 109 110 106 106 106 111
3170.0 111 109 104 102 98 90 90 80 84 72
3210.0 63 56 51 41 43 46 36 29 33 33
3250.0 25 31 25 29 28 16 18 18 16 13
3290.0 27 15 20 26 20 11 14 24 15 22
3330.0 23 27 32 38 32 33 48 47 34 41
3370.0 48 41 37 47 38 33 34 25 28 36
3410.0 33 38 26 28 47 51 60 55 60 56
3450.0 70 64 65 72 71 60 58 60 47 44
3490.0 13 13 16 11 10 25 19 19 15 15
3530.0 6 16 24 23 11 13 20 24 29 21
3570.0 49 55 67 50 22 32 18 26 3 12
3610.0 29 31 28 7 18 16 9 23 21 35
3650.0 15 12 27 0 29 1 33 3 33 35
3690.0 23 16 21 20 44 56 31 14 28 37
3730.0 36 42 31 54 44 42 27 19 22 38
3770.0 39 26 19 29 40 45 34 32 56 39
3810.0 45 28 29 33 26 65 43 64 56 42
3850.0 63 56 39 49 43 37 34 52 60 70
3890.0 52 59 38 62 52 69 57 43 49 47
3930.0 39 38 58 61 57 44 60 42 21 60
##END=
