##TITLE=Thiophene, 2-iodo-
##JCAMP-DX=4.24
##DATA TYPE=INFRARED SPECTRUM
##ORIGIN=Sadtler Research Labs Under US-EPA Contract
##OWNER=NIST Standard Reference Data Program
##CAS REGISTRY NO=3437-95-4
##MOLFORM=C 4 H 3 I S
##XUNITS=1/CM
##YUNITS=ABSORBANCE
##XFACTOR=1.0
##YFACTOR=0.000058777
##DELTAX=4.0
##FIRSTX=450.0
##LASTX=3966.0
##FIRSTY=0.063890
##MAXX=3966
##MINX=450
##MAXY=0.58777
##MINY=0
##NPOINTS=880
##XYDATA=(X++(Y..Y))
450.0 1087 875 12 574 459 0 494 265 119 178
490.0 255 218 101 199 270 135 28 109 96 32
530.0 76 570 189 202 423 417 285 294 169 112
570.0 252 134 227 83 229 234 32 127 162 284
610.0 236 362 371 869 1256 1058 1090 714 359 117
650.0 109 308 376 715 1440 2610 4119 6172 6024 9086
690.0 10000 8626 6590 6614 4259 2579 1442 577 365 362
730.0 278 350 337 420 298 241 174 128 167 139
770.0 85 120 87 132 173 162 261 406 623 901
810.0 970 1354 1969 2081 1683 2078 2423 2829 2348 2101
850.0 2435 1684 891 689 401 308 136 129 213 123
890.0 96 158 164 280 276 252 245 263 217 296
930.0 306 460 736 1438 2246 2753 2758 2639 1736 619
970.0 256 325 257 272 277 202 192 70 144 134
1010.0 113 162 108 131 164 240 370 539 589 575
1050.0 579 393 205 188 189 174 237 298 343 253
1090.0 298 278 160 181 65 101 173 149 120 113
1130.0 75 95 80 84 79 93 104 70 104 83
1170.0 56 109 66 87 86 69 105 70 107 205
1210.0 550 1330 1845 1845 1959 1471 758 568 490 437
1250.0 346 187 89 124 113 119 102 99 122 85
1290.0 89 98 73 85 77 88 107 98 130 179
1330.0 315 544 563 567 537 299 157 184 312 631
1370.0 1159 1490 1549 1729 1787 2101 3040 3148 2972 3163
1410.0 1839 809 479 304 185 132 103 130 96 94
1450.0 100 108 112 107 76 96 80 98 116 130
1490.0 202 266 445 573 569 588 498 359 203 150
1530.0 99 87 107 89 97 74 115 163 196 185
1570.0 247 312 294 296 301 240 179 117 121 97
1610.0 91 122 148 188 222 299 294 284 325 246
1650.0 192 144 126 68 91 81 102 100 114 148
1690.0 152 175 243 317 310 274 267 232 121 89
1730.0 97 85 110 73 89 91 86 111 130 179
1770.0 226 336 375 359 333 320 200 124 90 73
1810.0 59 56 51 51 50 59 49 49 39 62
1850.0 44 13 41 34 50 46 49 51 64 65
1890.0 63 69 56 46 41 44 37 46 42 47
1930.0 45 50 42 34 48 41 47 46 45 52
1970.0 48 46 44 41 49 40 41 48 41 47
2010.0 42 40 45 43 52 49 52 49 53 49
2050.0 47 51 57 55 60 66 74 72 69 68
2090.0 61 53 50 42 46 47 43 50 51 52
2130.0 55 58 54 40 42 40 39 50 85 100
2170.0 109 117 114 79 65 58 46 41 32 35
2210.0 33 35 43 31 39 56 64 91 91 91
2250.0 89 72 62 61 66 59 46 55 50 53
2290.0 53 48 55 46 44 45 34 43 46 45
2330.0 64 65 82 85 118 102 105 81 58 60
2370.0 57 47 40 29 29 29 27 31 24 30
2410.0 36 39 41 39 43 39 39 43 37 37
2450.0 40 34 41 26 35 31 29 29 30 28
2490.0 25 16 15 21 15 15 8 14 11 13
2530.0 15 21 23 22 22 27 24 22 22 24
2570.0 20 23 32 45 50 49 47 31 24 15
2610.0 25 20 24 33 30 20 20 19 20 19
2650.0 27 19 21 23 21 26 20 23 19 22
2690.0 24 19 22 25 23 28 31 34 39 37
2730.0 46 38 43 41 40 32 31 35 39 42
2770.0 55 53 64 78 87 88 85 71 47 32
2810.0 24 25 27 22 19 34 32 24 29 31
2850.0 21 25 24 28 34 42 34 40 38 39
2890.0 40 40 37 36 23 41 41 38 46 39
2930.0 41 35 43 53 33 43 34 45 34 29
2970.0 43 48 38 56 52 56 59 69 64 62
3010.0 61 53 52 48 31 39 31 29 39 31
3050.0 34 48 50 64 77 149 227 415 658 719
3090.0 702 728 520 293 318 263 215 184 144 152
3130.0 111 75 69 57 39 27 33 38 33 37
3170.0 40 42 43 36 34 37 41 40 33 45
3210.0 38 27 41 35 38 42 31 36 41 39
3250.0 34 54 44 40 37 39 36 48 44 30
3290.0 51 44 44 29 44 58 44 37 39 35
3330.0 39 50 45 40 33 45 44 31 32 38
3370.0 33 43 53 42 49 48 51 53 49 42
3410.0 30 38 44 48 46 43 60 51 47 38
3450.0 40 53 42 40 46 39 45 45 44 36
3490.0 35 35 53 53 47 39 50 57 38 33
3530.0 39 51 42 50 30 40 64 29 51 34
3570.0 42 64 35 33 26 42 49 47 36 34
3610.0 38 37 62 36 42 79 61 61 44 39
3650.0 44 49 57 37 47 19 90 67 54 26
3690.0 17 49 29 53 62 49 66 57 56 37
3730.0 63 80 61 91 84 87 80 71 72 35
3770.0 21 35 43 34 34 38 52 53 61 59
3810.0 77 61 83 95 100 87 138 137 112 99
3850.0 40 63 41 34 50 45 62 53 47 43
3890.0 31 40 49 42 45 42 47 66 96 90
3930.0 114 90 86 71 109 80 123 86 61 86
##END=
