##TITLE=5-Bromo-2-nitrobenzotrifluoride
##JCAMP-DX=4.24
##DATA TYPE=INFRARED SPECTRUM
##ORIGIN=Sadtler Research Labs Under US-EPA Contract
##OWNER=NIST Standard Reference Data Program
##CAS REGISTRY NO=344-38-7
##MOLFORM=C 7 H 3 Br F 3 N O 2
##XUNITS=1/CM
##YUNITS=ABSORBANCE
##XFACTOR=1.0
##YFACTOR=0.000158539
##DELTAX=4.0
##FIRSTX=450.0
##LASTX=3966.0
##FIRSTY=0.000000
##MAXX=3966
##MINX=450
##MAXY=1.58539
##MINY=0
##NPOINTS=880
##XYDATA=(X++(Y..Y))
450.0 0 50 104 111 119 168 213 326 527 738
490.0 783 588 440 382 272 233 162 137 159 88
530.0 155 85 122 176 128 205 234 223 302 256
570.0 266 220 226 210 197 241 254 275 290 201
610.0 202 153 145 151 107 102 110 119 151 192
650.0 328 460 444 305 169 185 168 161 188 173
690.0 205 195 186 253 397 716 922 935 718 444
730.0 329 231 161 173 163 219 281 324 314 256
770.0 224 149 168 180 180 182 209 207 206 183
810.0 197 205 238 364 530 851 1204 1280 1106 1041
850.0 1614 2731 3423 2674 1304 557 431 315 281 360
890.0 525 777 770 564 322 188 128 114 101 108
930.0 99 91 110 102 90 114 114 129 120 92
970.0 103 102 108 101 91 97 112 113 116 115
1010.0 130 129 146 186 227 295 407 617 1048 1675
1050.0 2234 2349 1904 1189 704 523 526 661 886 1051
1090.0 1140 999 736 544 466 507 659 933 1252 1407
1130.0 1457 1540 1859 2335 2543 2495 2354 2658 3387 4341
1170.0 5701 7395 9158 9081 8975 7908 6025 4037 2590 1815
1210.0 1405 1163 1040 904 752 669 607 561 576 625
1250.0 751 946 1241 1774 2504 3327 3811 3606 2996 2821
1290.0 3773 6222 8899 10000 7967 4653 2966 2304 2107 1917
1330.0 1739 1783 2001 2230 2419 2656 3260 4006 4442 3950
1370.0 2953 2092 1702 1693 1778 1804 1746 1653 1425 1043
1410.0 659 453 375 349 333 331 298 254 244 228
1450.0 253 259 249 331 378 511 665 799 808 664
1490.0 532 404 354 414 381 496 586 582 764 817
1530.0 1006 1232 1494 2142 3008 4334 5789 6523 6766 5285
1570.0 4203 3389 2785 2456 2037 1661 1323 1104 888 775
1610.0 652 531 446 368 348 296 284 238 217 219
1650.0 162 149 168 168 170 163 139 142 119 101
1690.0 115 108 87 77 105 106 101 89 84 110
1730.0 92 75 85 91 105 93 92 98 88 117
1770.0 119 123 153 165 202 197 177 145 122 104
1810.0 97 79 86 85 83 80 80 87 89 91
1850.0 117 104 98 94 80 87 75 87 85 90
1890.0 90 86 105 118 132 146 138 136 104 96
1930.0 85 85 85 79 79 90 76 76 87 84
1970.0 85 87 103 75 86 79 70 81 67 71
2010.0 78 78 66 80 66 68 75 78 74 70
2050.0 74 71 78 74 75 74 76 75 76 72
2090.0 72 82 86 84 80 78 71 75 72 73
2130.0 71 69 69 64 60 70 68 64 72 71
2170.0 69 65 67 66 69 67 71 75 73 66
2210.0 67 72 75 79 77 85 79 80 77 76
2250.0 71 70 75 76 71 73 74 82 84 87
2290.0 88 93 93 95 95 94 95 91 101 94
2330.0 95 83 99 88 110 115 112 106 109 104
2370.0 96 98 88 94 86 84 77 71 74 84
2410.0 83 79 78 75 70 68 69 68 73 68
2450.0 69 67 70 69 65 71 70 67 70 68
2490.0 69 62 63 65 64 63 65 63 67 66
2530.0 70 72 76 73 76 75 76 73 71 70
2570.0 67 69 67 69 60 63 59 59 61 60
2610.0 59 59 62 60 59 63 61 62 63 62
2650.0 69 69 66 73 71 74 77 81 83 80
2690.0 85 87 88 97 95 95 93 88 92 85
2730.0 78 76 72 73 67 66 62 63 63 57
2770.0 59 56 54 59 54 54 57 52 56 54
2810.0 53 55 56 59 58 61 64 71 71 68
2850.0 69 69 75 84 89 101 109 110 120 120
2890.0 123 135 140 147 152 153 140 133 121 110
2930.0 98 105 93 98 90 80 76 74 72 73
2970.0 73 73 70 69 68 68 67 71 72 69
3010.0 70 66 72 78 74 78 79 81 84 79
3050.0 82 80 77 80 83 78 80 77 85 94
3090.0 94 106 111 121 126 137 136 121 102 84
3130.0 78 74 75 74 68 68 68 67 70 70
3170.0 68 70 66 68 72 72 66 63 69 64
3210.0 66 66 67 63 71 73 67 67 69 66
3250.0 66 65 67 65 64 60 61 65 71 67
3290.0 69 69 66 63 69 62 69 68 68 67
3330.0 66 69 66 63 61 66 72 63 69 72
3370.0 74 67 63 68 70 73 65 69 69 66
3410.0 72 71 70 69 76 74 75 70 70 72
3450.0 64 67 70 76 75 74 67 65 70 76
3490.0 77 74 72 72 70 69 66 72 71 77
3530.0 75 76 74 77 70 72 71 74 69 70
3570.0 72 78 67 66 64 69 69 78 66 68
3610.0 71 71 69 66 74 63 70 76 68 70
3650.0 63 71 75 69 79 61 70 63 69 74
3690.0 60 69 74 76 85 74 77 82 76 81
3730.0 63 58 69 77 72 53 76 83 96 81
3770.0 77 73 78 77 76 73 84 66 75 71
3810.0 96 66 77 63 74 72 80 69 70 86
3850.0 71 75 75 91 88 62 63 64 77 95
3890.0 87 60 85 86 62 71 88 63 71 88
3930.0 121 99 76 65 76 83 65 85 76 79
##END=
