##TITLE=Acetamide, N-[2-(trifluoromethyl)phenyl]-
##JCAMP-DX=4.24
##DATA TYPE=INFRARED SPECTRUM
##ORIGIN=Sadtler Research Labs Under US-EPA Contract
##OWNER=NIST Standard Reference Data Program
##CAS REGISTRY NO=344-62-7
##MOLFORM=C 9 H 8 F 3 N O
##XUNITS=1/CM
##YUNITS=ABSORBANCE
##XFACTOR=1.0
##YFACTOR=0.000101013
##DELTAX=4.0
##FIRSTX=450.0
##LASTX=3966.0
##FIRSTY=0.000000
##MAXX=3966
##MINX=450
##MAXY=1.01013
##MINY=0
##NPOINTS=880
##XYDATA=(X++(Y..Y))
450.0 0 56 91 43 71 112 124 108 76 130
490.0 201 208 301 395 522 631 715 702 584 511
530.0 552 703 777 754 616 395 228 165 145 107
570.0 85 83 87 91 99 116 152 144 128 129
610.0 102 93 107 81 72 82 129 300 589 683
650.0 705 511 280 257 278 398 415 401 333 236
690.0 151 143 134 144 117 97 91 58 77 72
730.0 111 161 270 424 725 1360 1952 2943 3017 1925
770.0 1251 615 294 173 120 116 84 96 93 114
810.0 106 108 106 97 102 101 109 89 97 72
850.0 71 57 66 67 59 67 66 73 82 99
890.0 88 94 85 89 81 79 86 94 108 123
930.0 152 181 231 287 345 396 356 286 256 244
970.0 284 340 416 514 607 668 665 599 503 429
1010.0 402 427 531 788 1309 2086 2766 3038 2819 2119
1050.0 1557 1539 1952 2337 2408 2086 1455 1037 915 924
1090.0 1024 1191 1451 1840 2461 3520 5189 7213 8700 8594
1130.0 7231 6023 5156 4371 3626 2978 2617 2650 3096 3799
1170.0 4565 5180 5264 4638 3580 2415 1615 1374 1496 1771
1210.0 2143 2573 3025 3370 3424 3168 2798 2654 2888 3186
1250.0 3189 2921 2567 2588 3250 4511 6163 7825 8878 8820
1290.0 7640 5915 4540 4051 4545 6080 8315 9975 10000 8254
1330.0 5090 2625 1471 1037 878 844 896 1061 1353 1673
1370.0 1882 1863 1589 1244 966 771 658 608 606 625
1410.0 639 700 717 812 933 1167 1562 2262 3253 4257
1450.0 5148 5370 4801 3749 2570 1742 1434 1408 1519 1569
1490.0 1663 1812 2039 2388 2809 3412 4111 4830 5316 5345
1530.0 4853 3928 2909 2042 1460 1123 878 730 670 714
1570.0 807 1005 1343 1937 2736 3539 3916 3752 3088 2453
1610.0 2137 1901 1581 1228 876 647 487 389 329 274
1650.0 231 222 240 254 261 274 263 292 288 322
1690.0 403 490 579 749 955 1174 1339 1528 2079 3164
1730.0 4885 6182 6425 5439 3585 2163 1702 1555 1446 1206
1770.0 916 668 506 402 336 290 245 231 210 230
1810.0 245 268 277 256 220 181 163 148 133 120
1850.0 125 121 108 95 86 79 91 100 108 120
1890.0 125 135 134 127 110 96 86 94 109 131
1930.0 140 132 115 94 84 89 101 109 111 99
1970.0 81 66 58 57 53 51 49 51 52 52
2010.0 51 49 48 45 50 48 50 51 54 55
2050.0 57 56 56 57 52 58 60 63 67 73
2090.0 72 69 67 64 65 67 70 73 74 70
2130.0 71 65 66 68 69 72 73 77 77 74
2170.0 74 69 66 64 62 60 59 60 62 64
2210.0 65 67 71 72 73 79 81 82 78 74
2250.0 70 66 58 57 59 60 64 64 69 74
2290.0 78 80 80 79 79 80 78 70 69 77
2330.0 70 76 79 84 90 90 75 74 68 59
2370.0 63 68 71 70 65 60 56 54 55 54
2410.0 57 57 60 62 61 64 63 66 72 68
2450.0 72 71 73 76 75 74 71 69 63 58
2490.0 56 58 57 55 54 55 59 56 55 51
2530.0 50 50 51 45 47 50 49 50 51 53
2570.0 53 58 59 62 63 65 66 68 67 62
2610.0 61 61 63 58 61 62 59 61 61 56
2650.0 57 52 55 57 57 61 65 64 61 61
2690.0 60 59 58 55 54 53 56 57 56 59
2730.0 62 64 61 65 68 67 69 73 71 68
2770.0 67 62 62 61 61 55 56 57 60 59
2810.0 59 59 59 61 61 60 66 67 74 75
2850.0 79 83 84 88 87 84 82 82 81 86
2890.0 88 94 101 105 111 116 124 134 147 168
2930.0 184 210 231 233 225 200 177 164 159 156
2970.0 151 152 147 147 142 139 135 134 137 136
3010.0 146 162 178 198 213 226 240 249 259 277
3050.0 296 316 336 346 361 384 415 441 444 425
3090.0 393 363 346 326 296 244 194 152 132 127
3130.0 118 112 110 107 102 99 90 85 77 70
3170.0 68 67 64 64 66 62 62 66 63 63
3210.0 62 60 54 56 59 53 52 50 54 52
3250.0 52 49 52 53 51 50 52 52 50 50
3290.0 50 48 48 50 46 48 50 52 49 56
3330.0 58 52 57 55 52 54 58 56 62 61
3370.0 57 56 59 64 59 59 58 65 67 78
3410.0 93 105 126 150 172 178 177 181 191 219
3450.0 263 321 369 409 455 518 622 777 974 1166
3490.0 1268 1238 1089 864 639 463 332 248 193 171
3530.0 147 128 113 104 99 88 85 72 69 68
3570.0 69 62 63 58 63 64 63 57 51 61
3610.0 68 69 58 60 57 65 63 53 60 57
3650.0 56 60 54 58 54 56 46 55 66 60
3690.0 53 53 65 64 60 64 63 61 62 59
3730.0 59 63 61 54 56 50 54 56 51 46
3770.0 48 63 62 54 53 53 50 57 51 50
3810.0 63 56 55 54 57 58 50 46 51 53
3850.0 52 54 54 59 56 51 59 60 55 67
3890.0 59 57 59 63 69 60 59 66 62 61
3930.0 66 74 49 60 76 79 70 59 51 62
##END=
