##TITLE=p-Fluorobenzophenone
##JCAMP-DX=4.24
##DATA TYPE=INFRARED SPECTRUM
##ORIGIN=Sadtler Research Labs Under US-EPA Contract
##OWNER=NIST Standard Reference Data Program
##CAS REGISTRY NO=345-83-5
##MOLFORM=C 13 H 9 F O
##XUNITS=1/CM
##YUNITS=ABSORBANCE
##XFACTOR=1.0
##YFACTOR=0.000068652
##DELTAX=4.0
##FIRSTX=450.0
##LASTX=3966.0
##FIRSTY=0.000000
##MAXX=3966
##MINX=450
##MAXY=0.68652
##MINY=0
##NPOINTS=880
##XYDATA=(X++(Y..Y))
450.0 0 21 37 27 47 110 102 144 130 118
490.0 204 267 238 213 212 55 196 192 157 223
530.0 232 149 235 193 433 444 710 460 353 222
570.0 69 172 273 452 684 1430 2914 3676 3115 1332
610.0 447 233 315 309 311 320 351 275 261 275
650.0 233 314 309 372 501 771 698 901 1169 1585
690.0 2284 2822 3168 2574 1870 1155 844 726 757 1059
730.0 1449 1807 1931 1326 943 631 527 433 424 477
770.0 390 462 489 576 714 760 650 593 573 603
810.0 736 868 878 807 750 778 964 1393 1813 2130
850.0 2237 1752 1180 762 471 363 358 317 350 373
890.0 385 405 405 502 641 971 1601 2300 2570 2653
930.0 2792 2872 2428 1537 831 631 520 442 493 408
970.0 286 241 204 195 209 194 263 381 396 424
1010.0 506 525 563 464 502 467 394 320 225 194
1050.0 209 191 214 266 345 364 339 372 365 430
1090.0 486 494 500 447 401 355 355 395 434 449
1130.0 453 499 599 849 1267 2297 4345 4408 3579 1369
1170.0 685 736 1007 1134 1153 1034 1014 1051 1070 1030
1210.0 990 1009 1126 1390 1994 3079 5018 7805 9061 7822
1250.0 4751 3016 3151 4672 7376 10000 9846 7405 4556 3479
1290.0 3355 3494 3484 3168 2611 2171 2078 1821 1406 953
1330.0 715 584 528 483 461 437 420 412 393 372
1370.0 357 311 298 295 283 300 326 405 575 799
1410.0 913 822 580 416 357 326 383 452 677 865
1450.0 878 753 417 385 327 367 323 376 423 494
1490.0 621 962 1600 2672 3336 3127 2116 988 491 423
1530.0 427 386 374 241 351 383 344 264 319 465
1570.0 506 641 768 1148 1652 2579 4114 6007 6783 5552
1610.0 3435 1940 1274 1007 702 571 504 416 475 419
1650.0 449 374 687 955 1555 2630 4377 6122 6608 6112
1690.0 4540 2902 1670 1013 816 655 519 368 391 393
1730.0 379 273 322 327 373 420 519 541 495 421
1770.0 309 218 265 233 206 187 141 174 189 196
1810.0 211 211 194 163 134 109 134 130 130 89
1850.0 121 115 115 122 121 93 123 134 149 166
1890.0 172 201 230 233 248 248 248 202 187 150
1930.0 131 130 118 113 133 148 172 188 187 188
1970.0 195 165 133 105 98 88 80 82 73 62
2010.0 63 68 77 75 92 92 91 91 101 109
2050.0 117 124 123 116 106 90 91 75 83 77
2090.0 74 68 62 64 60 56 55 52 45 45
2130.0 45 53 54 45 52 45 52 52 39 45
2170.0 51 59 53 53 52 53 67 61 57 57
2210.0 54 58 51 60 60 59 53 60 60 68
2250.0 73 78 83 70 67 67 71 64 83 88
2290.0 96 112 127 150 165 167 176 185 206 201
2330.0 192 185 172 182 203 172 216 246 261 223
2370.0 184 157 137 126 101 73 80 81 95 104
2410.0 104 111 111 106 86 68 62 59 45 43
2450.0 44 66 51 59 65 65 66 66 53 65
2490.0 41 37 44 35 28 36 42 43 43 31
2530.0 35 29 40 39 51 44 51 65 65 81
2570.0 73 72 81 71 82 72 68 51 59 44
2610.0 42 35 43 35 34 28 29 27 27 28
2650.0 32 27 27 29 28 27 21 27 21 21
2690.0 25 22 24 23 23 24 26 26 20 27
2730.0 26 35 35 43 49 52 45 34 26 26
2770.0 27 27 27 26 20 19 27 19 19 20
2810.0 25 22 19 25 17 24 33 40 50 51
2850.0 40 60 59 60 59 64 54 55 54 58
2890.0 65 50 52 44 44 47 45 51 53 49
2930.0 50 50 71 65 74 90 84 75 74 79
2970.0 75 68 70 68 58 67 73 75 85 108
3010.0 139 142 176 223 279 356 458 528 546 522
3050.0 488 511 552 679 903 1196 1293 1260 1074 958
3090.0 871 726 564 445 380 318 243 173 126 105
3130.0 80 65 71 62 71 67 72 84 82 75
3170.0 61 54 55 62 53 60 43 41 42 36
3210.0 41 31 25 33 57 57 28 35 37 40
3250.0 57 20 48 52 48 34 34 65 54 63
3290.0 50 57 58 58 66 52 62 40 65 89
3330.0 90 105 115 130 142 149 124 105 84 72
3370.0 75 59 69 54 71 78 77 71 78 86
3410.0 82 56 60 62 63 68 78 70 72 59
3450.0 67 64 58 71 81 60 57 68 82 88
3490.0 73 82 68 80 70 71 66 74 71 84
3530.0 79 87 96 83 75 75 80 70 77 84
3570.0 83 114 125 161 180 180 153 108 99 95
3610.0 68 69 90 69 81 30 78 96 101 74
3650.0 20 72 73 82 102 60 67 55 103 105
3690.0 69 105 140 119 111 95 92 135 129 124
3730.0 118 88 62 89 41 61 85 113 121 114
3770.0 99 124 126 114 111 103 117 98 78 98
3810.0 104 100 93 94 117 125 92 71 99 96
3850.0 99 42 87 102 80 79 119 111 104 116
3890.0 109 128 141 131 155 167 160 171 178 178
3930.0 156 160 158 157 153 167 48 57 59 59
##END=
