##TITLE=Benzene, 1-(chloromethyl)-2-fluoro-
##JCAMP-DX=4.24
##DATA TYPE=INFRARED SPECTRUM
##ORIGIN=Sadtler Research Labs Under US-EPA Contract
##OWNER=NIST Standard Reference Data Program
##CAS REGISTRY NO=345-35-7
##MOLFORM=C 7 H 6 Cl F
##XUNITS=1/CM
##YUNITS=ABSORBANCE
##XFACTOR=1.0
##YFACTOR=0.000098419
##DELTAX=4.0
##FIRSTX=450.0
##LASTX=3966.0
##FIRSTY=0.115347
##MAXX=3966
##MINX=450
##MAXY=0.98419
##MINY=0
##NPOINTS=880
##XYDATA=(X++(Y..Y))
450.0 1172 438 186 460 492 528 461 398 433 215
490.0 154 104 128 187 319 379 427 516 519 513
530.0 569 521 508 457 402 340 235 118 95 93
570.0 132 191 348 409 514 533 481 282 177 96
610.0 2 25 14 8 5 42 126 73 64 47
650.0 113 109 198 292 478 890 1381 2115 2747 3309
690.0 3309 2771 2140 1607 1228 978 803 717 609 692
730.0 1081 1757 3067 4933 6704 8898 10000 8243 6421 4808
770.0 3432 2529 1875 1460 1186 985 820 637 455 309
810.0 223 171 154 166 228 346 627 1080 1636 1921
850.0 1979 2069 1757 1273 939 676 417 249 199 173
890.0 168 171 214 253 281 272 268 237 171 155
930.0 143 181 232 257 237 195 151 100 69 47
970.0 35 17 24 12 9 9 15 9 19 20
1010.0 33 53 110 255 444 578 569 534 405 204
1050.0 101 63 68 69 84 101 149 239 456 805
1090.0 1287 1567 1522 1562 1277 743 458 273 192 131
1130.0 127 115 131 181 257 310 319 347 322 349
1170.0 421 536 685 867 1015 1133 1233 1217 1157 1071
1210.0 1030 1096 1330 1742 2425 3537 4940 5925 6101 6283
1250.0 5352 3941 3155 2963 3046 3061 3037 2903 2617 2266
1290.0 1983 1639 1194 844 593 453 373 322 250 183
1330.0 135 105 102 107 108 101 98 91 90 86
1370.0 95 108 120 116 124 130 130 128 123 117
1410.0 116 121 156 200 269 354 493 679 980 1371
1450.0 1910 2493 2870 2942 2875 2542 2235 2312 2989 4213
1490.0 5295 5963 5977 5267 4133 2847 1838 1165 756 471
1530.0 309 207 173 159 152 155 179 221 269 350
1570.0 488 694 1010 1408 1835 2166 2270 2275 1945 1495
1610.0 1344 1387 1367 1176 903 563 305 160 98 80
1650.0 72 74 59 60 63 65 78 88 128 166
1690.0 182 193 209 201 193 174 168 165 146 134
1730.0 114 105 93 88 105 134 179 210 212 215
1770.0 246 207 179 199 224 250 252 243 209 155
1810.0 123 109 108 114 121 111 91 67 51 39
1850.0 32 32 34 41 48 66 68 68 70 73
1890.0 74 88 118 168 216 239 248 223 179 139
1930.0 120 127 164 190 187 173 141 86 44 30
1970.0 23 23 21 18 20 27 40 44 55 51
2010.0 53 49 37 32 33 26 30 41 31 40
2050.0 40 33 33 47 53 68 77 83 87 79
2090.0 69 55 40 30 21 20 13 13 9 14
2130.0 13 15 10 9 6 7 5 2 7 9
2170.0 5 7 8 10 16 23 16 24 20 19
2210.0 21 21 18 18 21 20 22 23 34 42
2250.0 42 45 47 45 35 36 28 30 30 43
2290.0 48 63 84 98 116 132 136 135 129 113
2330.0 116 95 89 88 55 118 130 113 51 18
2370.0 2 2 2 17 27 36 34 38 40 36
2410.0 31 32 39 43 50 53 52 51 49 50
2450.0 43 41 46 56 62 67 73 69 72 66
2490.0 56 44 40 33 31 33 32 31 28 27
2530.0 24 31 28 31 30 30 35 29 34 26
2570.0 25 24 31 41 36 36 34 35 28 24
2610.0 19 13 9 7 8 9 9 10 21 27
2650.0 7 4 6 2 16 29 34 49 48 54
2690.0 49 47 51 52 55 60 58 65 70 65
2730.0 60 50 47 40 45 45 40 45 38 43
2770.0 35 36 37 27 36 30 32 39 38 52
2810.0 45 42 32 32 38 34 33 46 38 53
2850.0 69 65 77 95 102 110 126 139 153 155
2890.0 156 135 120 116 97 89 89 79 76 75
2930.0 82 90 97 123 146 167 202 256 322 417
2970.0 532 631 742 814 688 561 445 336 261 204
3010.0 196 194 219 247 283 333 408 520 647 791
3050.0 897 968 990 1006 1006 993 1031 1123 1176 1207
3090.0 1161 1032 844 694 537 375 256 181 159 131
3130.0 104 84 72 71 63 62 68 61 63 65
3170.0 57 67 66 73 82 70 62 57 75 62
3210.0 58 60 58 64 52 58 53 48 58 62
3250.0 59 66 62 55 60 56 70 41 58 69
3290.0 61 68 65 66 55 68 66 60 59 70
3330.0 58 48 64 59 53 76 66 60 57 54
3370.0 67 67 46 68 71 60 39 60 63 60
3410.0 65 67 48 51 56 52 50 68 60 40
3450.0 55 56 42 52 50 51 29 50 50 36
3490.0 43 54 41 49 39 33 49 53 29 51
3530.0 49 45 46 28 40 43 48 30 43 26
3570.0 43 51 74 79 95 74 76 71 58 45
3610.0 44 32 40 33 27 37 16 31 32 33
3650.0 39 35 36 45 13 5 28 20 33 16
3690.0 27 10 40 11 17 8 20 25 15 26
3730.0 13 13 27 21 1 8 2 2 2 18
3770.0 15 16 26 33 0 21 22 15 22 18
3810.0 13 2 39 21 20 13 47 29 34 11
3850.0 6 2 13 19 48 47 60 62 41 63
3890.0 69 62 39 6 22 60 41 15 28 59
3930.0 74 60 70 45 23 45 47 32 47 45
##END=
