##TITLE=Benzoic acid, 5-fluoro-2-hydroxy-
##JCAMP-DX=4.24
##DATA TYPE=INFRARED SPECTRUM
##ORIGIN=Sadtler Research Labs Under US-EPA Contract
##OWNER=NIST Standard Reference Data Program
##CAS REGISTRY NO=345-16-4
##MOLFORM=C 7 H 5 F O 3
##XUNITS=1/CM
##YUNITS=ABSORBANCE
##XFACTOR=1.0
##YFACTOR=0.000075586
##DELTAX=4.0
##FIRSTX=450.0
##LASTX=3966.0
##FIRSTY=0.001058
##MAXX=3966
##MINX=450
##MAXY=0.75586
##MINY=0
##NPOINTS=880
##XYDATA=(X++(Y..Y))
450.0 14 6 50 93 165 149 60 43 85 133
490.0 213 208 173 231 259 301 348 343 375 361
530.0 351 376 543 649 775 935 1096 1210 1359 1687
570.0 1862 2025 2132 1675 1302 930 668 460 375 302
610.0 299 332 255 240 283 251 303 410 546 719
650.0 1113 1608 1908 1873 1950 1678 1341 1121 995 1002
690.0 963 901 856 721 506 540 757 1035 1184 1211
730.0 1089 700 382 215 213 161 134 144 165 294
770.0 449 627 967 1410 1909 2051 1757 1510 992 563
810.0 426 502 707 991 1222 1803 1652 1003 795 515
850.0 295 207 158 154 190 244 302 399 527 622
890.0 403 344 254 174 132 152 212 282 376 516
930.0 643 639 584 500 316 150 120 122 115 111
970.0 112 85 71 72 71 70 90 90 96 115
1010.0 109 122 144 139 142 158 197 287 465 786
1050.0 1143 1333 1366 1380 1102 731 543 476 457 461
1090.0 481 512 561 643 670 768 860 982 1135 1357
1130.0 1715 2284 3101 4311 5967 7903 9936 10000 8886 7825
1170.0 5339 3065 1833 1353 1314 1362 1322 1277 1056 873
1210.0 775 826 1006 1301 1784 2419 3139 3547 3558 3430
1250.0 2902 2385 2150 2034 1972 1862 1741 1548 1306 1048
1290.0 750 514 413 365 362 379 427 474 510 551
1330.0 600 672 785 944 1115 1278 1371 1399 1386 1307
1370.0 1204 1113 1040 1007 1095 1405 1965 2738 3484 3895
1410.0 3784 3171 2227 1353 778 557 473 440 483 532
1450.0 599 654 717 863 1068 1458 2058 2897 3999 5412
1490.0 6200 6029 5514 4333 2753 1576 1042 730 536 408
1530.0 324 268 226 140 139 127 113 92 115 165
1570.0 217 309 389 494 578 634 661 667 614 552
1610.0 515 508 522 661 817 884 872 817 711 531
1650.0 412 315 330 309 297 293 304 333 372 398
1690.0 535 725 1072 1773 3130 5403 7733 8908 8975 7421
1730.0 4621 2364 1278 815 615 528 547 661 810 898
1770.0 871 820 664 477 364 311 280 277 222 161
1810.0 119 85 72 68 68 60 64 64 62 45
1850.0 54 46 41 46 54 54 69 82 96 114
1890.0 121 108 98 83 54 41 46 52 53 47
1930.0 44 41 31 20 17 17 19 20 20 27
1970.0 28 33 33 34 35 33 34 26 20 12
2010.0 12 12 12 12 13 19 15 26 35 29
2050.0 33 33 29 26 39 39 40 45 40 40
2090.0 40 45 43 40 37 30 27 18 18 13
2130.0 13 12 12 12 11 7 7 0 3 5
2170.0 5 13 6 13 12 12 19 18 27 31
2210.0 27 26 22 19 12 12 6 13 12 13
2250.0 13 13 12 12 18 27 30 33 38 45
2290.0 52 59 74 81 81 94 86 86 95 78
2330.0 81 82 85 80 81 101 120 127 137 114
2370.0 89 79 75 75 59 43 29 36 36 42
2410.0 42 48 49 49 44 45 43 43 35 35
2450.0 37 29 29 30 30 30 31 23 26 30
2490.0 30 30 30 37 38 38 37 37 38 38
2530.0 37 37 45 45 45 45 45 45 45 45
2570.0 39 39 43 39 41 46 38 38 39 44
2610.0 37 39 40 39 45 40 41 46 46 50
2650.0 47 46 41 35 33 27 34 33 34 35
2690.0 28 34 34 35 35 38 40 40 40 41
2730.0 47 47 47 55 53 49 48 48 55 56
2770.0 60 61 56 61 62 56 60 62 64 64
2810.0 64 67 66 64 56 56 56 57 56 65
2850.0 64 72 69 85 84 84 84 77 72 78
2890.0 78 77 71 78 85 86 101 100 103 120
2930.0 124 131 125 119 119 105 105 99 98 106
2970.0 108 102 98 92 92 87 86 85 92 99
3010.0 100 101 99 99 103 108 119 112 132 147
3050.0 159 173 195 214 212 207 203 195 200 221
3090.0 242 249 230 203 176 134 121 114 110 103
3130.0 101 101 102 99 107 121 128 123 130 130
3170.0 122 129 122 111 119 123 126 137 147 155
3210.0 164 175 197 210 232 265 295 324 372 425
3250.0 464 537 619 726 857 981 1105 1189 1246 1280
3290.0 1283 1279 1258 1224 1161 1100 1044 995 922 872
3330.0 830 776 735 695 662 639 611 587 565 541
3370.0 533 507 482 453 418 398 379 358 343 311
3410.0 309 317 300 301 288 275 261 247 233 221
3450.0 212 208 208 197 195 196 195 197 200 202
3490.0 195 190 175 190 187 175 178 184 195 223
3530.0 257 303 355 375 388 355 328 323 386 597
3570.0 1155 2175 3169 3383 3343 2715 1454 584 278 166
3610.0 122 101 88 84 91 76 78 79 79 71
3650.0 58 66 65 59 59 46 23 25 39 34
3690.0 5 19 18 13 12 6 1 11 8 6
3730.0 4 0 0 8 0 0 0 0 0 0
3770.0 0 0 0 0 0 0 0 0 0 0
3810.0 0 0 0 0 0 0 0 0 0 0
3850.0 0 0 0 0 0 0 0 0 0 0
3890.0 0 0 0 0 0 0 0 0 0 0
3930.0 0 0 0 0 0 0 0 0 0 0
##END=
