##TITLE=4,4'-Difluorobenzophenone
##JCAMP-DX=4.24
##DATA TYPE=INFRARED SPECTRUM
##ORIGIN=Sadtler Research Labs Under US-EPA Contract
##OWNER=NIST Standard Reference Data Program
##CAS REGISTRY NO=345-92-6
##MOLFORM=C 13 H 8 F 2 O
##XUNITS=1/CM
##YUNITS=ABSORBANCE
##XFACTOR=1.0
##YFACTOR=0.000051318
##DELTAX=4.0
##FIRSTX=450.0
##LASTX=3966.0
##FIRSTY=0.005542
##MAXX=3966
##MINX=450
##MAXY=0.51318
##MINY=0
##NPOINTS=880
##XYDATA=(X++(Y..Y))
450.0 108 154 78 11 202 379 412 524 562 424
490.0 436 540 342 184 359 127 5 172 277 275
530.0 481 410 287 372 358 326 573 703 784 1574
570.0 2741 3109 2774 1684 720 441 256 263 292 375
610.0 229 304 310 216 309 381 316 265 320 217
650.0 228 290 313 298 464 548 487 595 531 404
690.0 393 289 214 194 236 227 254 214 163 178
730.0 266 319 265 272 275 348 624 1060 1619 2043
770.0 1545 902 515 456 390 441 429 419 626 826
810.0 871 971 1070 894 973 1136 1266 1577 1833 2084
850.0 2263 2544 1942 1253 877 576 428 320 311 294
890.0 335 351 292 307 288 392 689 1269 1958 2901
930.0 2837 1788 930 752 755 717 622 467 550 558
970.0 372 278 310 253 226 256 333 336 394 365
1010.0 354 692 683 397 405 335 73 186 255 186
1050.0 412 334 75 167 272 247 375 470 344 386
1090.0 444 481 511 668 463 297 328 345 281 402
1130.0 338 321 473 684 1295 3705 6041 4992 2050 674
1170.0 391 354 354 332 317 318 247 413 483 553
1210.0 711 854 1134 1647 2354 3218 4937 8191 10000 8746
1250.0 5706 4055 3986 4741 5627 6294 6226 4824 3388 2806
1290.0 2926 3041 2778 2193 1538 1329 1207 949 672 521
1330.0 426 438 435 380 357 345 352 357 366 358
1370.0 327 267 247 222 269 314 342 472 746 958
1410.0 1036 832 456 293 285 215 227 190 257 241
1450.0 215 212 77 241 228 265 230 309 408 609
1490.0 807 1295 2029 3007 3389 3215 2473 1600 952 573
1530.0 378 289 304 148 290 375 329 234 311 401
1570.0 435 624 745 1119 1675 2513 3921 6043 7789 7579
1610.0 5494 2945 1283 774 511 416 366 296 370 360
1650.0 425 293 572 734 1107 1863 3162 4262 4567 3908
1690.0 2771 1767 989 535 452 395 306 216 342 365
1730.0 354 218 216 144 181 173 231 271 265 309
1770.0 292 273 311 250 202 143 77 122 102 140
1810.0 139 120 111 121 95 91 115 110 90 54
1850.0 101 109 117 127 107 73 119 120 143 167
1890.0 149 171 196 201 228 263 252 183 172 132
1930.0 115 133 110 89 95 90 80 103 114 104
1970.0 103 103 84 96 112 82 87 90 62 69
2010.0 84 81 82 101 92 91 112 119 121 151
2050.0 134 112 113 117 107 127 118 89 98 89
2090.0 77 100 88 62 71 64 50 65 78 50
2130.0 57 47 46 68 67 55 52 63 51 59
2170.0 71 59 57 55 45 44 56 65 54 58
2210.0 48 42 60 62 56 61 53 42 42 72
2250.0 70 85 80 66 61 66 65 57 68 42
2290.0 39 59 68 70 99 91 65 66 73 78
2330.0 101 104 69 33 68 57 80 150 82 46
2370.0 75 46 58 89 75 63 83 92 92 112
2410.0 130 101 100 80 66 75 87 71 65 63
2450.0 42 61 80 81 71 88 80 78 98 69
2490.0 52 55 40 29 48 38 47 47 47 27
2530.0 38 47 46 58 58 31 64 75 74 94
2570.0 104 74 85 87 82 83 85 51 45 40
2610.0 27 33 53 33 24 23 21 24 38 32
2650.0 21 22 23 22 29 40 22 21 21 0
2690.0 25 31 28 28 22 18 22 24 37 35
2730.0 37 26 20 42 46 50 44 35 21 28
2770.0 35 42 32 44 25 26 35 37 39 42
2810.0 29 26 29 31 39 51 42 32 33 41
2850.0 37 56 60 39 45 43 40 58 71 48
2890.0 50 50 32 54 61 45 37 41 25 37
2930.0 56 56 47 59 39 31 79 78 58 78
2970.0 37 20 62 64 53 65 57 26 58 66
3010.0 67 77 71 36 60 77 75 97 136 138
3050.0 205 286 267 267 249 215 206 292 354 355
3090.0 282 169 112 135 119 129 162 149 104 96
3130.0 85 63 88 84 67 68 60 40 69 90
3170.0 77 82 83 64 80 103 92 75 85 59
3210.0 46 65 78 68 81 63 41 60 89 74
3250.0 85 69 48 48 84 95 96 105 74 63
3290.0 83 91 88 110 89 67 82 85 90 112
3330.0 112 96 103 142 122 141 142 102 95 93
3370.0 69 105 120 110 73 91 75 95 121 117
3410.0 83 97 93 62 125 128 98 100 98 70
3450.0 108 134 104 112 110 64 102 134 98 115
3490.0 116 58 80 111 90 109 130 90 76 97
3530.0 96 110 123 95 57 100 94 118 131 110
3570.0 51 103 132 138 160 128 115 93 84 81
3610.0 81 106 76 65 90 8 95 134 124 103
3650.0 24 82 73 128 145 82 78 52 92 123
3690.0 108 141 154 119 118 100 121 159 144 126
3730.0 112 68 85 112 61 90 76 85 117 145
3770.0 136 170 167 131 148 173 166 152 129 105
3810.0 121 134 115 118 163 135 97 115 118 136
3850.0 177 105 110 123 112 123 164 173 133 141
3890.0 133 126 172 176 165 160 167 138 159 198
3930.0 178 180 179 147 156 214 33 47 48 50
##END=
