##TITLE=Benzeneacetonitrile, 5-fluoro-2-nitro-
##JCAMP-DX=4.24
##DATA TYPE=INFRARED SPECTRUM
##ORIGIN=Sadtler Research Labs Under US-EPA Contract
##OWNER=NIST Standard Reference Data Program
##CAS REGISTRY NO=3456-75-5
##MOLFORM=C 8 H 5 F N 2 O 2
##XUNITS=1/CM
##YUNITS=ABSORBANCE
##XFACTOR=1.0
##YFACTOR=0.000072711
##DELTAX=4.0
##FIRSTX=450.0
##LASTX=3966.0
##FIRSTY=0.001309
##MAXX=3966
##MINX=450
##MAXY=0.72711
##MINY=0
##NPOINTS=880
##XYDATA=(X++(Y..Y))
450.0 18 2 76 99 91 118 186 137 222 141
490.0 146 160 129 157 178 172 133 176 123 177
530.0 193 243 264 289 282 271 332 315 397 352
570.0 463 534 664 830 1049 1144 1190 1229 1142 1148
610.0 1074 1022 840 770 791 873 990 1062 1037 806
650.0 659 460 422 347 327 457 503 456 580 653
690.0 696 624 569 536 423 476 579 511 402 445
730.0 483 561 687 912 1018 1172 1169 883 802 645
770.0 548 487 431 414 377 382 378 380 365 389
810.0 434 517 767 1044 1526 2205 2549 2672 2659 2184
850.0 1582 1021 1043 1436 1783 2620 2535 1740 1355 824
890.0 560 488 438 441 440 465 456 479 501 555
930.0 656 727 770 776 740 709 678 696 917 1317
970.0 1654 1732 1526 1068 637 426 324 278 255 244
1010.0 250 253 263 271 260 274 275 260 253 254
1050.0 273 298 339 436 595 725 757 674 514 351
1090.0 279 247 221 214 209 217 218 222 235 278
1130.0 338 417 472 505 536 608 672 671 632 510
1170.0 411 384 392 430 455 473 470 468 485 542
1210.0 643 853 1241 1780 2232 2413 2335 2040 1874 1983
1250.0 2184 2297 2312 2352 2697 3515 4394 4677 4258 3164
1290.0 1972 1358 1136 1026 974 960 1029 1124 1245 1392
1330.0 1653 2167 3270 5244 7735 9447 9605 7768 4655 2436
1370.0 1445 1037 818 679 634 588 633 725 862 998
1410.0 1186 1357 1717 2176 2586 2567 2303 1690 1051 771
1450.0 643 618 632 669 778 1068 1652 2565 3638 4432
1490.0 4323 3656 2613 1873 1744 1909 2083 2467 2922 3565
1530.0 4410 5952 7888 9485 10000 9235 7500 5884 4805 4359
1570.0 4113 3990 4030 4436 5206 6145 6510 6174 4893 3446
1610.0 2673 2600 3102 3643 3945 3405 2664 1594 840 558
1650.0 442 415 340 283 260 230 212 183 212 226
1690.0 215 216 250 242 197 171 170 213 198 221
1730.0 251 293 276 231 203 177 160 136 153 139
1770.0 170 173 166 173 160 163 155 154 151 140
1810.0 112 103 84 81 78 73 69 50 62 70
1850.0 65 51 66 65 77 91 82 89 97 117
1890.0 131 148 163 171 168 153 133 113 97 81
1930.0 75 73 69 74 72 70 66 73 69 77
1970.0 75 78 70 71 71 74 76 71 76 73
2010.0 79 86 93 86 86 83 80 82 85 83
2050.0 77 75 69 67 73 69 69 66 69 65
2090.0 71 69 70 70 74 74 76 74 77 78
2130.0 73 77 71 78 78 75 74 74 79 81
2170.0 83 79 82 81 84 87 91 98 101 109
2210.0 109 111 109 110 109 109 109 105 111 115
2250.0 125 127 132 135 131 126 121 114 102 93
2290.0 77 64 38 41 19 2 13 10 24 41
2330.0 55 70 90 66 78 25 65 77 112 104
2370.0 96 94 93 102 107 113 113 112 111 111
2410.0 121 123 128 133 135 133 131 121 115 109
2450.0 100 101 105 107 103 107 110 112 118 116
2490.0 119 120 125 120 121 117 109 103 101 102
2530.0 99 103 103 105 109 112 117 110 115 111
2570.0 118 112 115 110 109 108 113 118 117 119
2610.0 117 116 114 109 103 97 94 85 85 84
2650.0 81 77 81 82 85 85 94 93 97 102
2690.0 111 116 115 113 96 88 82 76 78 70
2730.0 73 66 66 67 67 64 63 63 62 61
2770.0 54 57 51 53 57 51 51 55 56 54
2810.0 58 61 64 69 73 72 81 86 88 100
2850.0 108 129 141 152 169 186 202 224 245 242
2890.0 227 200 175 154 151 148 138 134 133 136
2930.0 133 142 151 160 167 181 178 165 149 130
2970.0 113 97 82 70 53 57 59 55 59 57
3010.0 57 57 55 67 71 78 84 84 91 96
3050.0 102 113 121 116 117 109 115 127 136 151
3090.0 162 150 137 112 81 69 70 82 82 76
3130.0 68 56 44 30 35 28 28 32 33 32
3170.0 29 39 36 40 40 43 43 48 56 51
3210.0 56 58 55 55 54 46 44 44 45 37
3250.0 37 38 36 38 36 45 40 38 37 35
3290.0 45 38 45 42 31 28 36 45 50 45
3330.0 49 58 59 59 59 61 56 56 54 52
3370.0 50 47 50 49 55 52 51 48 44 47
3410.0 30 36 28 28 33 31 38 40 26 24
3450.0 30 19 25 32 21 22 21 16 38 23
3490.0 33 32 24 28 23 40 35 44 31 23
3530.0 33 27 27 14 23 25 20 9 17 10
3570.0 29 36 35 52 52 64 35 33 16 17
3610.0 8 10 25 21 39 22 26 26 20 17
3650.0 2 28 24 20 16 19 23 32 30 35
3690.0 42 37 39 30 29 35 26 36 51 44
3730.0 47 43 43 20 59 7 19 24 9 21
3770.0 14 18 12 10 5 18 12 31 15 40
3810.0 6 23 32 33 19 10 29 33 16 4
3850.0 37 36 15 13 20 10 16 16 12 21
3890.0 4 27 6 24 12 22 16 45 25 2
3930.0 10 13 3 2 19 0 15 26 22 6
##END=
