##TITLE=Butyronitrile, 2,2-diethyl-,
##JCAMP-DX=4.24
##DATA TYPE=INFRARED SPECTRUM
##ORIGIN=Sadtler Research Labs Under US-EPA Contract
##OWNER=NIST Standard Reference Data Program
##CAS REGISTRY NO=34579-77-6
##MOLFORM=C 8 H 15 N
##XUNITS=1/CM
##YUNITS=ABSORBANCE
##XFACTOR=1.0
##YFACTOR=0.000161130
##DELTAX=4.0
##FIRSTX=450.0
##LASTX=3966.0
##FIRSTY=0.034804
##MAXX=3966
##MINX=450
##MAXY=1.6113
##MINY=0
##NPOINTS=880
##XYDATA=(X++(Y..Y))
450.0 216 158 119 97 111 31 83 127 101 111
490.0 118 19 134 119 58 59 89 98 115 121
530.0 85 101 72 57 61 32 105 162 135 83
570.0 127 86 123 83 96 123 150 118 84 93
610.0 94 100 104 81 90 54 64 70 94 119
650.0 125 91 98 78 66 58 94 83 83 113
690.0 94 60 59 75 78 70 61 75 90 83
730.0 101 98 92 124 139 132 178 232 293 368
770.0 366 398 395 339 308 258 233 207 165 143
810.0 127 106 101 94 83 95 91 92 100 98
850.0 80 83 85 88 90 83 76 88 86 114
890.0 117 129 181 245 379 570 807 987 979 841
930.0 607 429 301 229 201 153 130 131 106 104
970.0 97 88 101 83 85 95 88 111 120 151
1010.0 178 191 236 259 292 295 301 306 299 284
1050.0 250 205 202 176 173 189 202 201 201 178
1090.0 146 138 126 113 108 102 103 98 95 94
1130.0 94 95 95 104 122 146 163 181 190 193
1170.0 201 197 202 197 193 172 147 124 101 90
1210.0 82 71 68 69 65 61 63 65 60 62
1250.0 66 73 100 113 139 175 198 223 235 227
1290.0 224 223 239 251 270 278 254 236 219 213
1330.0 240 268 309 329 317 298 256 238 221 239
1370.0 274 355 539 738 931 1109 1108 932 710 461
1410.0 276 199 178 183 193 223 261 374 518 755
1450.0 1118 1441 1837 2122 2217 2017 1803 1376 1032 768
1490.0 477 349 247 197 185 145 138 124 121 117
1530.0 101 121 110 109 117 106 122 128 114 125
1570.0 112 110 104 94 97 83 85 78 75 79
1610.0 71 82 75 74 75 75 75 71 70 76
1650.0 67 82 66 69 72 68 64 67 59 66
1690.0 59 62 67 76 92 109 136 159 166 165
1730.0 143 110 79 56 35 24 36 35 37 38
1770.0 35 37 36 35 32 30 30 27 26 27
1810.0 22 26 25 21 27 20 21 21 21 19
1850.0 20 17 27 18 15 11 14 14 12 14
1890.0 15 11 11 9 16 11 13 13 11 13
1930.0 13 13 14 12 13 15 14 15 13 13
1970.0 13 10 9 9 10 8 8 8 10 8
2010.0 9 7 8 7 8 8 11 12 10 13
2050.0 13 12 14 14 15 14 14 16 12 14
2090.0 14 15 14 13 14 12 9 8 6 4
2130.0 4 3 1 1 3 0 1 3 3 3
2170.0 3 6 7 9 7 5 4 5 6 10
2210.0 11 24 42 70 102 136 162 166 147 113
2250.0 79 48 33 26 23 22 17 19 17 15
2290.0 15 13 20 20 22 23 20 17 13 12
2330.0 10 6 11 14 13 19 17 24 23 30
2370.0 38 34 35 39 40 39 35 35 35 34
2410.0 36 37 39 38 35 32 27 22 19 16
2450.0 20 19 22 25 25 28 25 26 24 23
2490.0 23 22 18 20 17 17 16 14 16 12
2530.0 17 16 17 21 17 18 15 15 16 12
2570.0 13 14 17 17 19 25 24 28 32 36
2610.0 40 42 41 46 43 48 48 48 54 54
2650.0 59 60 61 66 66 66 63 62 59 56
2690.0 54 49 51 49 45 47 46 48 53 56
2730.0 61 71 79 92 107 127 148 164 174 173
2770.0 170 162 155 157 165 167 176 179 183 185
2810.0 186 192 194 204 214 229 252 282 328 374
2850.0 443 542 686 917 1146 1402 1705 1917 2233 2614
2890.0 2882 3083 3095 2803 2568 2284 2116 2199 2417 2802
2930.0 3345 3982 4655 5383 6052 6207 6184 5725 5277 5438
2970.0 6295 7608 9116 10000 8958 7367 5254 3302 1979 1264
3010.0 905 689 564 477 417 378 345 321 306 291
3050.0 279 270 273 269 270 265 267 263 257 249
3090.0 234 221 204 188 172 162 149 150 148 146
3130.0 144 142 148 143 140 136 137 135 135 131
3170.0 131 130 125 124 115 112 106 96 85 75
3210.0 67 63 57 54 51 49 43 44 45 42
3250.0 42 41 40 42 43 37 33 28 31 29
3290.0 30 31 30 27 24 26 26 19 20 22
3330.0 23 24 23 24 23 25 24 21 22 19
3370.0 22 21 29 27 25 24 27 27 26 28
3410.0 21 28 28 26 29 28 20 22 23 18
3450.0 15 15 11 12 10 15 19 9 12 8
3490.0 14 14 14 17 20 17 14 9 15 17
3530.0 16 18 21 21 16 14 18 9 21 19
3570.0 15 16 19 17 20 17 24 14 16 12
3610.0 8 11 8 16 12 21 7 15 14 13
3650.0 16 27 13 14 17 4 18 15 24 11
3690.0 22 26 17 25 20 16 18 18 13 14
3730.0 21 19 8 14 12 21 14 19 20 17
3770.0 12 11 12 15 9 3 3 11 3 14
3810.0 22 12 14 14 9 12 14 12 7 22
3850.0 12 37 12 12 12 14 11 0 4 9
3890.0 12 24 23 11 9 21 9 24 33 12
3930.0 17 16 34 22 19 28 25 23 49 27
##END=
