##TITLE=Phenol, p-propyl-,
##JCAMP-DX=4.24
##DATA TYPE=INFRARED SPECTRUM
##ORIGIN=Sadtler Research Labs Under US-EPA Contract
##OWNER=NIST Standard Reference Data Program
##CAS REGISTRY NO=34591-34-9
##MOLFORM=C 9 H 12 O
##XUNITS=1/CM
##YUNITS=ABSORBANCE
##XFACTOR=1.0
##YFACTOR=0.000100714
##DELTAX=4.0
##FIRSTX=450.0
##LASTX=3966.0
##FIRSTY=0.003626
##MAXX=3966
##MINX=450
##MAXY=1.00714
##MINY=0
##NPOINTS=880
##XYDATA=(X++(Y..Y))
450.0 36 85 41 174 98 82 163 206 323 348
490.0 431 452 410 436 274 210 211 215 189 286
530.0 330 434 505 587 619 596 512 326 282 201
570.0 145 150 79 83 107 80 53 19 68 39
610.0 91 122 123 107 62 74 103 142 183 198
650.0 303 394 276 276 335 364 284 176 137 133
690.0 123 183 231 326 409 491 565 807 1277 2146
730.0 3581 5591 8448 10000 9445 7612 4060 2001 1228 797
770.0 577 434 339 364 430 557 678 729 804 815
810.0 835 912 988 1071 1028 968 937 928 909 845
850.0 721 525 374 295 264 264 277 329 453 616
890.0 922 1214 1714 2685 4093 6930 7434 4578 2614 1630
930.0 912 507 274 178 132 116 114 93 93 112
970.0 97 101 108 108 121 120 122 144 138 173
1010.0 196 204 190 175 147 147 162 153 148 147
1050.0 186 228 266 297 299 266 246 270 276 332
1090.0 371 430 513 581 617 626 606 547 492 442
1130.0 378 358 363 396 470 545 710 1107 2233 4142
1170.0 5492 5940 5640 4026 2546 1816 1370 1116 967 877
1210.0 820 730 687 652 615 601 598 704 945 1524
1250.0 2403 3226 3465 3207 2292 1278 701 471 382 312
1290.0 301 298 312 310 334 334 423 527 683 775
1330.0 878 914 830 769 659 518 435 370 352 309
1370.0 314 284 344 371 379 390 317 308 315 289
1410.0 308 321 302 439 558 739 794 854 761 660
1450.0 565 522 519 572 546 574 435 427 426 370
1490.0 436 535 719 1156 1934 3536 4325 4289 3636 2080
1530.0 878 423 280 153 143 147 99 72 89 114
1570.0 121 136 215 246 381 492 663 750 828 874
1610.0 881 1005 967 905 707 490 342 236 172 171
1650.0 68 118 102 94 86 92 29 96 11 23
1690.0 40 64 5 33 41 57 39 9 52 61
1730.0 60 18 76 52 72 68 71 68 74 76
1770.0 35 17 42 34 40 29 48 47 30 61
1810.0 35 50 54 53 65 35 51 44 60 57
1850.0 75 89 80 98 94 107 116 128 117 94
1890.0 73 55 62 63 55 34 32 20 25 35
1930.0 45 53 32 23 32 36 39 29 25 26
1970.0 41 33 38 47 25 27 20 34 40 51
2010.0 55 53 52 37 45 48 40 42 51 55
2050.0 43 43 46 39 48 43 42 50 49 51
2090.0 50 47 52 49 40 43 31 44 33 38
2130.0 36 20 32 29 19 35 30 25 30 24
2170.0 22 20 24 36 36 19 25 28 30 24
2210.0 28 22 30 28 27 28 35 28 37 36
2250.0 24 22 32 38 27 26 34 33 39 30
2290.0 48 36 33 42 37 41 47 49 48 71
2330.0 74 69 67 58 82 91 60 59 28 40
2370.0 9 45 46 37 42 54 46 36 35 33
2410.0 38 55 57 76 92 82 90 74 39 45
2450.0 41 42 20 32 22 37 34 32 30 36
2490.0 26 26 30 32 42 59 56 33 21 12
2530.0 13 14 18 14 16 25 21 2 14 25
2570.0 16 16 13 20 21 15 20 27 35 37
2610.0 39 45 38 28 29 29 25 25 45 37
2650.0 31 46 46 43 45 37 48 64 67 46
2690.0 46 46 62 40 46 44 65 52 65 63
2730.0 67 57 90 93 76 76 72 66 67 64
2770.0 83 70 85 86 89 90 86 108 97 107
2810.0 105 105 127 132 139 152 173 218 253 324
2850.0 393 511 630 773 885 1009 1118 1279 1354 1308
2890.0 1183 959 809 746 783 903 1076 1311 1563 1858
2930.0 2207 2425 2575 2534 2303 2040 1820 1776 1910 2147
2970.0 2510 2480 2176 1706 1127 694 564 474 488 556
3010.0 702 855 924 942 891 858 876 894 823 736
3050.0 611 512 440 392 378 362 352 333 312 273
3090.0 204 189 182 166 182 156 148 156 148 134
3130.0 114 108 105 97 107 80 82 89 88 95
3170.0 74 89 79 64 60 65 68 58 52 57
3210.0 62 53 48 37 45 57 63 60 65 39
3250.0 52 50 55 46 62 67 33 64 27 32
3290.0 34 36 41 50 47 60 44 48 47 36
3330.0 53 35 63 60 74 86 61 77 75 59
3370.0 75 59 57 61 58 59 64 67 57 66
3410.0 43 70 74 56 58 66 70 44 57 59
3450.0 70 41 29 45 54 61 39 39 45 36
3490.0 39 47 60 53 33 31 30 39 34 17
3530.0 41 52 55 20 25 7 32 49 65 38
3570.0 54 35 60 59 63 64 58 2 77 60
3610.0 66 75 94 104 74 163 223 341 663 1154
3650.0 2007 2466 2232 1890 1027 396 211 176 77 65
3690.0 46 92 110 87 114 98 72 87 56 53
3730.0 73 55 87 81 64 52 55 76 31 78
3770.0 41 73 38 68 42 60 44 64 56 91
3810.0 51 87 50 113 105 96 77 77 100 67
3850.0 102 77 122 18 83 95 44 95 84 46
3890.0 66 53 64 163 120 67 27 96 117 109
3930.0 65 121 24 0 72 85 62 16 7 29
##END=
