##TITLE=4-Chloro-7-(trifluoromethyl)quinoline
##JCAMP-DX=4.24
##DATA TYPE=INFRARED SPECTRUM
##ORIGIN=Sadtler Research Labs Under US-EPA Contract
##OWNER=NIST Standard Reference Data Program
##CAS REGISTRY NO=346-55-4
##MOLFORM=C 10 H 5 Cl F 3 N
##XUNITS=1/CM
##YUNITS=ABSORBANCE
##XFACTOR=1.0
##YFACTOR=0.000063562
##DELTAX=4.0
##FIRSTX=450.0
##LASTX=3966.0
##FIRSTY=0.038201
##MAXX=3966
##MINX=450
##MAXY=0.63562
##MINY=0
##NPOINTS=880
##XYDATA=(X++(Y..Y))
450.0 601 389 106 161 192 326 321 292 4 113
490.0 141 142 138 88 73 278 73 157 160 194
530.0 122 213 68 4 317 42 316 194 99 215
570.0 279 372 569 484 406 316 492 305 257 253
610.0 197 152 199 101 59 102 74 87 147 108
650.0 193 210 247 177 223 366 650 1027 1491 948
690.0 492 191 129 195 164 133 198 174 180 164
730.0 215 411 877 1332 1013 242 113 143 97 98
770.0 105 72 152 181 204 178 149 153 202 349
810.0 550 945 1387 1728 1860 1715 1662 1609 1279 806
850.0 506 282 231 170 108 121 88 196 324 509
890.0 701 946 1267 1115 1191 1261 965 676 384 215
930.0 177 116 136 179 163 218 192 257 197 348
970.0 626 1083 1193 985 505 265 151 146 163 179
1010.0 137 163 169 149 141 182 177 201 293 434
1050.0 751 1118 1930 2966 3338 2621 1351 751 620 420
1090.0 331 288 274 302 320 341 440 550 673 920
1130.0 1225 1762 2712 4186 6402 8894 10000 8578 6781 5340
1170.0 4153 3208 2573 2476 2909 3555 4152 4468 4015 2916
1210.0 1718 914 585 420 328 315 259 317 496 605
1250.0 730 849 904 867 993 1393 1907 2851 4144 5221
1290.0 4485 2591 1031 596 485 649 1260 2830 5689 8729
1330.0 9204 6667 3476 1958 1454 1076 932 888 948 1126
1370.0 1293 1209 977 732 547 459 297 279 213 239
1410.0 294 218 395 353 437 425 527 674 819 835
1450.0 930 1046 1112 988 677 424 318 312 300 458
1490.0 738 972 1475 1607 1497 1192 822 473 391 277
1530.0 321 263 302 314 455 696 886 1181 1162 1108
1570.0 806 582 704 880 1056 1071 878 630 322 207
1610.0 176 131 108 150 184 83 147 145 128 210
1650.0 122 128 135 187 179 159 252 157 168 80
1690.0 115 90 57 61 85 88 138 88 12 86
1730.0 106 162 135 132 165 135 122 106 84 86
1770.0 96 130 137 163 187 144 165 129 151 121
1810.0 105 123 124 129 79 75 60 58 84 82
1850.0 57 48 79 56 50 103 68 65 78 74
1890.0 75 92 79 99 111 145 167 197 186 135
1930.0 101 73 63 56 45 51 38 38 29 44
1970.0 40 35 36 31 25 50 37 34 26 36
2010.0 39 40 51 45 39 47 45 42 49 39
2050.0 38 45 47 54 61 46 48 51 42 42
2090.0 49 47 49 48 36 38 35 36 28 25
2130.0 28 27 28 21 21 30 28 25 24 32
2170.0 41 33 35 24 33 40 29 26 32 39
2210.0 37 48 50 54 55 51 44 40 28 35
2250.0 37 38 39 38 38 40 46 45 42 52
2290.0 60 65 59 57 58 64 63 62 63 43
2330.0 40 57 56 40 61 68 59 67 59 55
2370.0 53 54 47 39 38 30 29 30 28 27
2410.0 21 22 22 14 17 23 20 21 24 23
2450.0 20 20 15 19 20 24 18 26 30 31
2490.0 33 28 20 23 21 19 26 20 21 26
2530.0 25 29 24 19 15 17 24 13 15 12
2570.0 11 15 14 11 16 10 13 12 15 22
2610.0 21 13 14 14 15 15 10 12 8 15
2650.0 15 15 17 15 12 15 5 6 6 6
2690.0 0 5 9 5 8 6 15 15 11 13
2730.0 8 14 15 23 19 14 10 7 11 6
2770.0 17 15 14 19 17 10 12 12 18 20
2810.0 11 15 6 30 21 16 16 12 10 19
2850.0 17 14 15 19 26 16 25 27 19 24
2890.0 24 32 34 37 40 44 26 34 28 23
2930.0 37 44 34 44 37 41 56 55 58 52
2970.0 44 51 55 58 65 85 99 109 99 100
3010.0 108 98 100 97 113 138 150 187 207 239
3050.0 279 298 310 250 192 155 145 161 156 132
3090.0 123 100 83 66 49 38 35 24 44 41
3130.0 56 49 38 41 40 38 47 43 39 27
3170.0 24 36 36 36 36 40 27 35 36 41
3210.0 26 43 39 34 42 43 34 23 33 31
3250.0 42 37 41 47 43 39 46 45 48 48
3290.0 39 48 35 36 53 43 55 32 43 30
3330.0 19 38 55 39 38 46 50 36 62 54
3370.0 42 41 48 57 47 55 56 62 46 52
3410.0 59 62 44 38 46 43 59 48 71 74
3450.0 45 44 51 58 42 64 72 60 67 69
3490.0 49 50 63 63 64 57 52 42 62 67
3530.0 78 83 68 59 64 77 67 61 53 63
3570.0 76 41 64 54 75 68 59 61 67 77
3610.0 73 92 62 68 39 41 57 112 90 81
3650.0 34 34 72 72 103 39 91 13 113 93
3690.0 28 74 63 87 92 79 59 109 87 87
3730.0 53 30 64 83 14 62 9 96 82 66
3770.0 78 55 76 71 84 90 62 59 57 34
3810.0 68 1 64 12 78 95 23 13 51 102
3850.0 25 22 29 91 78 45 53 43 120 44
3890.0 48 0 104 28 50 104 148 86 41 80
3930.0 98 111 48 68 66 109 62 74 50 89
##END=
