##TITLE=Hydantoin, 3-benzyl-5,5-dimethyl-
##JCAMP-DX=4.24
##DATA TYPE=INFRARED SPECTRUM
##ORIGIN=Sadtler Research Labs Under US-EPA Contract
##OWNER=NIST Standard Reference Data Program
##CAS REGISTRY NO=34657-68-6
##MOLFORM=C 12 H 14 N 2 O 2
##XUNITS=1/CM
##YUNITS=ABSORBANCE
##XFACTOR=1.0
##YFACTOR=0.000131277
##DELTAX=4.0
##FIRSTX=450.0
##LASTX=3966.0
##FIRSTY=0.000000
##MAXX=3966
##MINX=450
##MAXY=1.31277
##MINY=0
##NPOINTS=880
##XYDATA=(X++(Y..Y))
450.0 0 5 21 40 96 127 189 153 129 103
490.0 91 102 77 99 96 124 82 108 107 119
530.0 119 128 150 125 164 171 223 323 419 400
570.0 332 242 184 192 177 218 250 331 398 449
610.0 449 434 455 518 549 513 419 300 228 192
650.0 160 153 146 163 168 233 264 282 326 404
690.0 575 787 1004 1008 970 866 783 648 517 416
730.0 346 312 298 315 316 348 374 416 434 433
770.0 429 392 306 224 181 144 150 138 140 125
810.0 143 160 175 174 142 117 91 97 79 83
850.0 76 81 75 82 88 78 96 100 110 115
890.0 143 174 215 271 312 323 292 259 212 174
930.0 138 122 109 99 103 97 106 115 143 165
970.0 196 205 182 145 108 97 84 108 125 154
1010.0 167 180 180 173 200 208 190 126 102 97
1050.0 108 124 165 230 310 397 403 350 263 212
1090.0 195 223 269 308 340 370 445 535 614 602
1130.0 509 381 290 253 239 256 280 307 314 328
1170.0 320 303 283 270 253 233 235 244 264 260
1210.0 249 227 216 211 200 199 196 212 215 238
1250.0 265 313 367 434 496 518 526 501 504 499
1290.0 512 510 521 551 606 662 676 680 672 731
1330.0 844 1028 1218 1487 1817 2035 2027 1754 1495 1333
1370.0 1237 1039 872 889 1007 1045 957 968 1289 1994
1410.0 2877 3282 3023 2103 1401 1298 1648 2135 2279 1881
1450.0 1225 875 617 604 621 646 526 396 296 230
1490.0 260 330 374 334 256 145 167 130 98 94
1530.0 75 75 39 41 26 60 37 28 31 59
1570.0 60 56 74 73 112 84 114 104 129 120
1610.0 116 103 54 83 53 94 46 87 76 82
1650.0 63 83 118 116 165 131 176 193 244 247
1690.0 376 492 591 840 1043 1369 1455 1791 1999 2599
1730.0 3453 5453 7916 9477 10000 7964 5093 3236 1964 1502
1770.0 1226 1071 1067 1058 1241 1460 2001 2423 2442 1995
1810.0 1319 759 498 366 282 237 195 196 138 125
1850.0 107 107 85 77 79 51 76 70 82 64
1890.0 72 69 66 71 66 72 55 67 47 59
1930.0 51 59 56 50 66 64 70 56 67 44
1970.0 45 41 41 39 37 38 27 39 35 42
2010.0 34 38 35 32 34 30 35 23 30 23
2050.0 25 21 24 20 14 23 14 20 14 22
2090.0 12 14 16 14 18 15 21 12 18 15
2130.0 18 13 14 15 7 12 8 10 6 13
2170.0 7 9 7 7 10 6 12 7 9 5
2210.0 12 9 9 13 9 12 8 14 10 15
2250.0 12 14 15 15 16 13 18 15 21 17
2290.0 24 23 25 30 33 36 31 39 32 37
2330.0 28 42 32 36 44 33 30 23 49 30
2370.0 43 43 44 36 28 23 13 16 12 15
2410.0 11 16 13 14 15 15 17 12 17 14
2450.0 16 13 13 14 13 15 10 14 11 14
2490.0 10 13 12 12 13 13 20 14 18 20
2530.0 22 20 22 22 20 20 16 20 14 21
2570.0 16 16 16 15 14 11 15 10 13 11
2610.0 15 12 11 12 12 13 14 16 12 16
2650.0 14 16 13 13 14 12 15 13 14 10
2690.0 14 11 12 13 13 16 12 20 15 23
2730.0 18 26 21 20 22 21 24 24 29 23
2770.0 27 28 26 26 27 31 25 28 26 27
2810.0 25 28 27 26 28 31 37 37 43 42
2850.0 47 48 55 65 81 111 137 158 159 145
2890.0 123 120 114 120 136 153 178 190 212 235
2930.0 283 350 441 504 514 469 384 298 235 236
2970.0 310 548 785 837 718 563 465 378 258 160
3010.0 120 109 116 137 162 201 255 311 337 325
3050.0 272 220 209 240 314 408 443 394 297 219
3090.0 195 175 160 147 135 122 107 93 77 62
3130.0 50 45 42 43 43 43 46 45 49 49
3170.0 53 50 49 50 49 48 46 52 46 48
3210.0 47 50 49 45 47 45 46 47 49 45
3250.0 48 48 52 53 51 54 54 58 58 65
3290.0 61 63 65 66 69 69 73 72 79 76
3330.0 74 74 78 76 74 78 75 75 71 76
3370.0 67 67 66 62 61 58 56 51 52 48
3410.0 48 44 46 43 41 47 48 52 50 69
3450.0 84 120 173 252 352 435 483 470 402 292
3490.0 194 119 78 63 46 51 58 66 67 69
3530.0 67 70 52 46 33 24 21 14 16 5
3570.0 15 14 11 15 12 5 5 10 5 8
3610.0 6 12 8 15 16 16 22 15 17 10
3650.0 18 13 23 16 13 17 13 21 15 16
3690.0 10 14 13 17 16 10 14 8 14 11
3730.0 13 7 13 5 6 17 12 12 11 15
3770.0 10 14 9 11 8 8 12 5 9 10
3810.0 15 6 12 8 12 9 10 9 11 18
3850.0 8 16 13 13 6 13 23 14 18 12
3890.0 22 14 15 20 20 20 16 26 17 22
3930.0 12 16 16 23 16 15 22 14 20 20
##END=
