##TITLE=Benzonitrile, 5-chloro-2-nitro-
##JCAMP-DX=4.24
##DATA TYPE=INFRARED SPECTRUM
##ORIGIN=Sadtler Research Labs Under US-EPA Contract
##OWNER=NIST Standard Reference Data Program
##CAS REGISTRY NO=34662-31-2
##MOLFORM=C 7 H 3 Cl N 2 O 2
##XUNITS=1/CM
##YUNITS=ABSORBANCE
##XFACTOR=1.0
##YFACTOR=0.000077036
##DELTAX=4.0
##FIRSTX=450.0
##LASTX=3966.0
##FIRSTY=0.026269
##MAXX=3966
##MINX=450
##MAXY=0.77036
##MINY=0
##NPOINTS=880
##XYDATA=(X++(Y..Y))
450.0 341 317 418 564 733 955 924 814 511 252
490.0 132 113 113 60 103 34 70 58 52 6
530.0 16 29 61 111 253 517 601 681 519 302
570.0 161 107 97 97 128 201 246 242 264 272
610.0 260 250 169 137 109 134 111 163 133 82
650.0 40 66 63 134 198 293 429 499 549 501
690.0 455 302 238 174 163 122 122 111 110 114
730.0 118 160 195 326 443 731 1016 1026 715 548
770.0 369 251 208 188 197 173 173 188 201 236
810.0 339 592 1142 1689 1986 2200 2182 2440 2341 1738
850.0 1286 872 663 663 1020 2115 4473 7074 7965 7197
890.0 4605 2496 1370 904 535 327 235 224 217 209
930.0 209 197 202 202 203 203 224 241 266 259
970.0 231 184 157 154 146 155 159 171 163 174
1010.0 188 193 198 204 213 221 238 209 225 234
1050.0 259 285 320 423 671 1012 1133 1055 727 410
1090.0 382 515 858 1584 2243 2432 2144 1395 813 642
1130.0 580 512 439 405 466 569 606 591 504 420
1170.0 450 541 696 902 1156 1500 1919 2274 2361 2091
1210.0 1578 1081 805 671 578 513 452 410 420 468
1250.0 511 565 603 614 625 647 695 817 1038 1288
1290.0 1482 1518 1405 1207 1024 961 1055 1346 1917 2959
1330.0 4628 6835 8879 10000 9788 8142 6189 4458 3184 2461
1370.0 2155 2140 2201 2091 1716 1171 774 592 550 552
1410.0 561 564 532 511 489 496 495 526 549 599
1450.0 728 984 1470 2172 2800 2989 2703 2139 1640 1356
1490.0 1237 1152 1098 1167 1358 1708 2184 2825 3499 4067
1530.0 4401 4765 5463 6628 8196 9366 9814 9706 9098 8510
1570.0 8442 8525 7996 7150 5979 4813 4164 4143 4414 4343
1610.0 3841 3034 2060 1325 932 745 632 553 482 434
1650.0 386 389 390 389 394 387 378 364 334 302
1690.0 287 251 227 204 191 183 171 163 168 171
1730.0 157 156 156 162 148 150 160 173 189 214
1770.0 229 253 273 264 255 229 207 196 175 156
1810.0 131 109 95 89 84 79 79 83 86 89
1850.0 99 102 103 97 88 78 82 83 85 84
1890.0 81 85 92 104 117 138 156 180 185 184
1930.0 165 136 106 73 60 58 55 47 42 34
1970.0 25 22 21 18 13 8 4 4 6 2
2010.0 4 3 5 5 7 9 8 8 8 8
2050.0 7 5 2 3 5 3 6 8 10 11
2090.0 7 8 9 8 6 6 8 6 3 3
2130.0 3 2 1 3 1 3 1 2 0 0
2170.0 4 5 4 5 8 3 4 4 3 4
2210.0 8 13 20 28 34 53 56 43 31 23
2250.0 19 17 21 19 20 20 19 17 10 10
2290.0 16 15 22 21 16 18 8 7 6 7
2330.0 6 6 7 5 21 30 19 19 27 38
2370.0 58 62 65 63 52 45 45 43 43 46
2410.0 43 42 43 38 35 34 36 35 36 36
2450.0 38 40 36 30 26 21 19 21 21 28
2490.0 30 33 36 37 35 34 29 26 30 30
2530.0 36 43 47 48 53 47 46 40 42 44
2570.0 51 58 64 66 74 70 61 59 52 49
2610.0 47 49 47 51 52 54 52 51 55 58
2650.0 65 70 76 89 98 109 117 115 112 111
2690.0 103 97 96 93 96 98 98 94 85 77
2730.0 69 60 55 47 47 45 43 44 43 39
2770.0 42 40 37 36 32 37 40 43 45 48
2810.0 53 53 60 66 74 77 84 97 108 123
2850.0 136 151 164 175 189 206 217 235 253 261
2890.0 257 244 225 206 193 179 179 171 161 152
2930.0 143 140 130 132 124 114 103 100 89 94
2970.0 94 89 87 83 74 72 60 59 57 61
3010.0 62 69 73 79 77 86 79 82 81 83
3050.0 90 99 109 114 116 113 113 113 119 134
3090.0 151 171 198 237 268 273 242 186 114 69
3130.0 38 30 28 19 22 28 22 23 26 23
3170.0 26 27 27 28 29 23 22 20 21 10
3210.0 10 14 18 10 9 10 10 12 4 8
3250.0 9 6 2 6 5 10 8 5 3 9
3290.0 11 14 9 10 15 9 5 9 4 10
3330.0 7 14 15 18 19 12 12 23 23 31
3370.0 25 28 33 25 24 25 30 17 25 31
3410.0 42 38 38 35 47 44 46 40 38 53
3450.0 48 43 43 36 39 37 37 41 35 42
3490.0 29 31 36 28 29 32 34 38 33 25
3530.0 32 34 37 32 32 42 37 37 27 30
3570.0 35 31 33 31 32 36 30 26 28 28
3610.0 36 34 25 33 39 43 41 38 34 28
3650.0 31 37 37 30 31 35 38 37 39 29
3690.0 35 38 29 32 34 49 51 49 52 30
3730.0 35 32 46 31 45 32 44 43 49 34
3770.0 30 51 40 51 49 44 47 54 56 54
3810.0 40 42 42 29 34 33 42 51 45 42
3850.0 37 27 34 46 39 21 33 31 30 32
3890.0 48 52 41 33 48 53 35 37 36 48
3930.0 47 36 37 41 52 40 53 56 72 68
##END=
