##TITLE=Naphthalene, 2,7-dimethoxy-
##JCAMP-DX=4.24
##DATA TYPE=INFRARED SPECTRUM
##ORIGIN=Sadtler Research Labs Under US-EPA Contract
##OWNER=NIST Standard Reference Data Program
##CAS REGISTRY NO=3469-26-9
##MOLFORM=C 12 H 12 O 2
##XUNITS=1/CM
##YUNITS=ABSORBANCE
##XFACTOR=1.0
##YFACTOR=0.000084662
##DELTAX=4.0
##FIRSTX=450.0
##LASTX=3966.0
##FIRSTY=0.232566
##MAXX=3966
##MINX=450
##MAXY=0.84662
##MINY=0
##NPOINTS=880
##XYDATA=(X++(Y..Y))
450.0 2747 1460 1020 1155 1017 997 916 720 509 252
490.0 392 20 142 145 205 84 71 328 334 417
530.0 243 216 307 494 484 270 258 120 216 135
570.0 216 57 161 55 162 184 154 191 56 331
610.0 283 467 389 440 674 806 794 505 273 121
650.0 257 240 200 126 62 291 155 332 135 192
690.0 189 256 290 221 153 123 155 156 258 141
730.0 146 111 205 269 296 305 423 668 859 1149
770.0 1206 1383 1462 1530 1335 871 515 299 359 336
810.0 514 630 994 1621 2284 2839 2529 1946 1318 1115
850.0 1001 1195 1200 1215 1315 1349 1334 1030 758 489
890.0 401 315 267 206 148 169 186 212 179 203
930.0 222 292 360 398 532 658 812 723 567 374
970.0 291 287 265 339 306 338 302 400 427 524
1010.0 554 689 913 1282 1879 2534 3289 3769 3946 3575
1050.0 2781 1860 1145 764 539 502 396 361 305 298
1090.0 313 323 330 313 375 448 619 684 766 856
1130.0 1222 1824 2210 2533 2894 3981 5389 6195 5508 4076
1170.0 2832 2283 2164 2000 1868 1723 1908 2620 4278 6481
1210.0 7759 7832 6607 5665 5380 5257 5074 4875 4591 4915
1250.0 5902 6941 7774 7542 6756 5267 3677 2255 1408 1017
1290.0 786 642 529 486 451 471 444 448 455 509
1330.0 599 593 625 583 688 881 1188 1453 1609 1730
1370.0 1908 2303 2810 3283 3552 3363 2846 2257 1694 1388
1410.0 1242 1189 1420 1759 2174 2225 1934 1618 1343 1407
1450.0 1416 1792 2311 3272 3934 4645 4215 3257 2202 1493
1490.0 1303 1154 1584 2288 3902 6181 6035 5499 3013 1494
1530.0 927 703 739 509 536 568 609 676 524 559
1570.0 651 654 815 763 976 1051 1306 1558 1864 2223
1610.0 2485 3010 3219 4028 5445 8193 10000 8927 7278 3490
1650.0 1920 1223 764 645 577 394 396 245 325 222
1690.0 203 263 170 206 154 209 189 139 156 147
1730.0 268 166 225 122 152 143 109 124 103 141
1770.0 137 145 94 77 73 50 112 44 77 58
1810.0 63 92 79 114 77 109 67 131 100 84
1850.0 32 68 80 89 125 83 120 140 191 216
1890.0 212 212 195 216 187 185 123 137 83 106
1930.0 95 89 83 63 102 69 107 62 66 78
1970.0 98 112 112 122 137 160 170 179 156 155
2010.0 149 149 139 95 96 66 99 104 117 108
2050.0 119 147 168 187 178 181 170 176 154 127
2090.0 82 51 54 43 53 26 24 14 26 39
2130.0 26 32 25 48 51 68 57 57 53 65
2170.0 76 55 53 31 49 51 64 56 43 54
2210.0 58 77 67 63 46 60 59 73 64 42
2250.0 50 47 71 55 61 57 77 110 120 164
2290.0 182 240 300 351 400 469 395 425 449 391
2330.0 381 250 328 179 383 392 627 412 393 437
2370.0 274 293 211 249 231 166 130 82 70 51
2410.0 71 70 71 62 68 81 86 89 59 56
2450.0 37 60 57 56 46 37 57 55 66 34
2490.0 32 21 39 30 19 12 0 23 17 31
2530.0 10 7 15 33 48 28 31 16 46 45
2570.0 51 37 37 45 61 87 60 70 55 77
2610.0 85 94 81 66 79 75 100 73 71 53
2650.0 60 66 53 48 20 35 38 65 50 47
2690.0 44 56 72 65 68 39 59 58 76 60
2730.0 46 47 47 74 57 64 38 53 66 83
2770.0 87 75 94 102 155 156 181 172 208 246
2810.0 285 323 348 437 530 725 918 1175 1369 1445
2850.0 1379 1168 973 789 723 681 704 687 673 683
2890.0 702 773 806 888 955 1094 1214 1306 1317 1270
2930.0 1293 1395 1738 2155 2530 2633 2577 2352 2011 1650
2970.0 1283 1054 883 866 851 945 1119 1488 2132 2676
3010.0 2765 2220 1522 1046 957 923 884 818 750 763
3050.0 766 853 900 1004 1089 1174 1189 1085 931 746
3090.0 633 499 438 319 267 233 215 224 173 156
3130.0 113 147 128 137 110 83 90 88 118 78
3170.0 86 73 99 104 115 104 73 97 87 127
3210.0 73 74 49 79 92 71 64 14 50 41
3250.0 89 57 53 39 68 96 79 74 36 75
3290.0 71 97 60 31 32 21 74 46 53 4
3330.0 33 51 74 67 40 58 66 105 82 68
3370.0 28 54 59 75 67 13 38 28 72 50
3410.0 49 29 36 83 75 90 45 68 55 113
3450.0 84 65 43 21 72 54 85 30 39 24
3490.0 67 79 62 53 50 79 101 89 75 73
3530.0 58 88 98 59 80 20 100 42 108 51
3570.0 38 48 70 145 84 91 36 137 90 144
3610.0 88 64 138 100 133 94 1 73 101 154
3650.0 134 42 90 47 188 100 208 17 125 170
3690.0 129 151 109 101 116 123 125 116 123 76
3730.0 106 178 87 218 106 150 123 169 199 122
3770.0 174 71 194 167 114 136 95 162 191 91
3810.0 152 61 153 96 194 125 176 109 159 233
3850.0 247 247 40 207 186 228 206 103 96 182
3890.0 145 165 102 81 54 116 236 146 156 67
3930.0 218 187 244 191 91 184 162 257 106 79
##END=
