##TITLE=2,3,4-Trichloro benzene sulfonyl chloride
##JCAMP-DX=4.24
##DATA TYPE=INFRARED SPECTRUM
##ORIGIN=Sadtler Research Labs Under US-EPA Contract
##OWNER=NIST Standard Reference Data Program
##CAS REGISTRY NO=34732-09-7
##MOLFORM=C 6 H 2 Cl 4 O 2 S
##XUNITS=1/CM
##YUNITS=ABSORBANCE
##XFACTOR=1.0
##YFACTOR=0.000058044
##DELTAX=4.0
##FIRSTX=450.0
##LASTX=3966.0
##FIRSTY=0.017820
##MAXX=3966
##MINX=450
##MAXY=0.58044
##MINY=0
##NPOINTS=880
##XYDATA=(X++(Y..Y))
450.0 307 290 246 427 403 696 1360 2291 2992 2795
490.0 1781 1104 948 1122 1338 1401 1130 876 776 923
530.0 1290 1912 2434 2444 2283 2548 2946 2416 1502 869
570.0 691 593 590 696 1133 2240 3832 5420 4986 3429
610.0 2140 2152 3857 6995 8120 5923 2584 921 529 329
650.0 285 133 98 90 86 40 56 43 38 42
690.0 6 2 17 8 35 77 178 309 386 236
730.0 127 45 34 49 57 73 95 151 250 409
770.0 506 439 276 177 160 138 159 174 247 413
810.0 761 1243 1769 1839 1782 2123 2680 3440 3767 3283
850.0 2095 1071 605 419 300 212 148 110 95 82
890.0 63 61 42 31 41 15 21 25 16 24
930.0 18 34 14 17 22 27 39 37 38 34
970.0 34 39 48 53 45 62 71 80 97 124
1010.0 168 226 291 341 371 371 337 266 202 158
1050.0 138 133 140 169 210 272 365 428 407 324
1090.0 272 241 248 283 342 404 468 572 774 1084
1130.0 1345 1332 999 627 447 450 594 984 1912 3730
1170.0 6239 7592 6410 4033 2949 3526 4657 5397 4735 3001
1210.0 1430 650 401 330 336 341 404 567 907 1271
1250.0 1455 1240 778 442 301 255 205 170 127 115
1290.0 93 92 95 114 131 160 186 200 213 222
1330.0 288 372 549 701 934 1359 1916 2337 2190 1590
1370.0 964 706 621 776 1032 1358 2034 3832 7333 10000
1410.0 9413 5593 3005 2555 2659 1932 1010 505 398 308
1450.0 257 197 215 141 105 94 138 110 64 105
1490.0 131 93 110 105 153 193 156 190 237 203
1530.0 238 272 412 677 1113 1836 2465 2340 1374 639
1570.0 391 290 191 130 79 76 60 68 57 60
1610.0 62 49 89 57 109 93 155 159 116 90
1650.0 115 93 56 46 50 72 103 64 118 119
1690.0 75 50 108 100 81 42 64 110 41 25
1730.0 47 97 46 52 69 87 61 73 92 94
1770.0 132 120 62 45 37 38 57 40 53 22
1810.0 28 23 8 25 26 46 25 20 32 50
1850.0 21 3 11 12 27 45 17 7 11 18
1890.0 39 49 62 88 122 130 108 71 48 20
1930.0 11 12 11 23 21 10 12 18 22 30
1970.0 26 19 16 13 1 19 18 9 5 13
2010.0 4 13 19 13 7 6 4 6 9 5
2050.0 8 5 6 8 11 4 4 5 0 5
2090.0 8 3 4 8 6 4 7 9 7 3
2130.0 4 3 2 4 7 7 5 4 5 6
2170.0 8 8 10 12 14 15 19 20 21 17
2210.0 15 12 12 6 3 0 4 4 5 2
2250.0 6 12 13 10 12 12 14 20 23 19
2290.0 18 17 25 30 32 35 37 37 38 51
2330.0 45 28 18 25 24 50 35 38 26 18
2370.0 28 45 40 33 29 25 26 25 24 24
2410.0 18 15 17 16 12 14 13 12 10 13
2450.0 13 14 16 17 21 20 23 29 41 48
2490.0 62 76 88 87 71 53 39 36 34 30
2530.0 28 26 24 22 19 26 23 29 26 31
2570.0 37 43 43 50 46 49 48 61 52 48
2610.0 41 37 31 32 42 37 37 32 20 16
2650.0 18 20 15 18 22 23 23 24 19 12
2690.0 20 12 17 20 28 11 22 15 17 22
2730.0 35 19 19 16 24 33 41 24 20 18
2770.0 23 38 44 14 23 18 28 32 45 17
2810.0 27 14 20 39 26 16 21 21 29 38
2850.0 12 30 23 28 37 21 25 24 25 22
2890.0 26 27 28 27 46 37 31 28 32 57
2930.0 32 30 34 46 56 42 37 48 82 99
2970.0 73 72 68 70 37 26 26 41 32 19
3010.0 28 41 47 15 26 31 20 18 30 37
3050.0 24 24 47 68 72 103 140 165 162 131
3090.0 113 107 94 82 82 91 112 112 105 70
3130.0 49 29 24 19 9 19 17 17 21 8
3170.0 6 9 11 15 12 6 1 13 12 21
3210.0 16 16 11 8 3 5 15 11 13 12
3250.0 15 11 15 15 9 5 13 8 16 12
3290.0 5 17 9 10 4 3 2 12 9 8
3330.0 8 18 11 12 7 12 15 20 22 12
3370.0 8 9 9 8 8 16 10 16 10 9
3410.0 19 10 6 10 10 7 15 13 7 8
3450.0 5 8 15 15 8 16 8 13 10 10
3490.0 8 6 7 10 7 3 7 6 1 8
3530.0 15 23 21 17 2 11 14 14 15 19
3570.0 20 24 26 28 25 2 11 22 16 18
3610.0 21 24 33 19 19 17 26 20 33 20
3650.0 26 42 24 27 28 22 29 25 23 33
3690.0 27 44 46 33 35 41 28 32 30 35
3730.0 27 37 30 38 38 15 22 38 23 51
3770.0 38 26 34 36 47 14 22 12 43 33
3810.0 40 21 23 22 25 39 31 19 33 30
3850.0 35 21 21 41 31 40 22 22 35 23
3890.0 41 11 5 1 21 26 20 18 27 42
3930.0 45 14 14 14 19 21 22 12 12 32
##END=
