##TITLE=Ammonium thiocyanate, tetrapentyl
##JCAMP-DX=4.24
##DATA TYPE=INFRARED SPECTRUM
##ORIGIN=Sadtler Research Labs Under US-EPA Contract
##OWNER=NIST Standard Reference Data Program
##CAS REGISTRY NO=3475-60-3
##MOLFORM=C 21 H 44 N 2 S
##XUNITS=1/CM
##YUNITS=ABSORBANCE
##XFACTOR=1.0
##YFACTOR=0.000100668
##DELTAX=4.0
##FIRSTX=450.0
##LASTX=3966.0
##FIRSTY=0.000000
##MAXX=3966
##MINX=450
##MAXY=1.00668
##MINY=0
##NPOINTS=880
##XYDATA=(X++(Y..Y))
450.0 0 25 37 37 86 72 98 88 97 95
490.0 91 152 130 136 127 134 128 153 132 154
530.0 175 168 176 177 177 162 174 162 158 152
570.0 133 111 108 102 87 60 76 55 49 52
610.0 47 39 31 38 32 35 24 37 27 34
650.0 35 33 49 41 45 65 59 47 56 61
690.0 74 89 113 141 147 185 231 240 232 258
730.0 275 282 257 245 212 191 179 171 161 156
770.0 158 162 144 124 115 98 92 96 96 99
810.0 94 103 106 111 113 111 108 115 124 124
850.0 145 136 126 119 123 103 103 98 108 110
890.0 114 121 119 124 120 121 115 124 124 134
930.0 140 154 150 145 141 134 134 136 150 170
970.0 181 206 223 248 272 284 292 288 273 258
1010.0 245 234 221 215 212 206 203 208 226 275
1050.0 338 415 481 538 584 648 740 899 1081 1227
1090.0 1250 1116 903 711 579 506 452 401 357 317
1130.0 295 274 257 253 266 310 379 462 535 575
1170.0 558 502 425 345 283 244 225 224 234 245
1210.0 271 301 334 361 374 380 375 377 385 405
1250.0 418 428 428 418 409 416 439 465 503 532
1290.0 560 582 598 611 606 603 577 561 556 575
1330.0 616 697 820 975 1119 1183 1207 1202 1163 1103
1370.0 1039 978 956 932 835 666 517 416 349 321
1410.0 301 303 315 338 364 408 483 564 680 800
1450.0 974 1155 1381 1543 1607 1495 1195 860 593 433
1490.0 347 279 241 208 192 173 154 143 135 122
1530.0 111 104 98 92 87 76 70 65 68 64
1570.0 61 58 61 57 60 59 57 54 55 59
1610.0 58 63 66 68 65 66 69 77 85 101
1650.0 108 110 103 89 83 86 85 82 66 60
1690.0 56 59 64 77 78 80 85 88 99 118
1730.0 139 154 162 159 158 150 138 111 86 70
1770.0 62 52 45 43 37 36 32 31 30 31
1810.0 28 26 26 27 26 26 25 24 26 30
1850.0 28 28 32 32 32 36 39 40 43 48
1890.0 51 51 61 67 70 77 83 93 102 108
1930.0 119 131 144 156 171 186 207 226 251 279
1970.0 311 349 388 436 490 549 618 700 791 897
2010.0 1018 1153 1310 1490 1697 1927 2202 2496 2816 3136
2050.0 3447 3702 3896 4010 4033 3965 3769 3486 3112 2728
2090.0 2356 2031 1762 1554 1401 1280 1189 1108 1039 970
2130.0 915 862 822 786 764 753 751 756 750 730
2170.0 704 667 620 592 573 550 533 507 480 453
2210.0 427 400 375 347 316 288 255 234 212 195
2250.0 184 174 164 159 152 145 138 132 129 121
2290.0 117 109 105 99 92 92 82 74 68 66
2330.0 57 49 45 46 63 55 58 59 43 38
2370.0 40 45 44 50 43 31 31 30 30 32
2410.0 31 29 25 29 27 27 26 25 26 29
2450.0 27 31 30 31 31 28 29 29 29 28
2490.0 28 31 31 35 34 35 37 42 45 47
2530.0 53 53 56 62 65 71 72 76 78 84
2570.0 89 92 100 104 106 111 112 115 116 116
2610.0 120 125 128 132 134 138 146 153 162 173
2650.0 184 197 213 230 243 257 274 287 298 306
2690.0 319 332 345 363 387 406 429 459 484 512
2730.0 536 562 590 612 625 629 645 662 686 724
2770.0 763 811 874 956 1077 1257 1508 1793 2029 2096
2810.0 2014 1867 1716 1572 1467 1392 1361 1375 1439 1585
2850.0 1847 2302 2914 3523 3960 4149 4085 4027 4075 4013
2890.0 3748 3494 3442 3597 3866 4213 4669 5271 6066 7067
2930.0 8115 9045 9763 10000 9503 8606 7846 7545 7913 8486
2970.0 8299 6773 4882 3426 2484 1888 1500 1226 1028 881
3010.0 763 673 590 527 476 429 389 357 330 301
3050.0 283 261 244 229 214 209 203 191 187 181
3090.0 176 169 165 153 150 143 138 129 126 119
3130.0 116 117 108 108 108 105 104 99 97 95
3170.0 92 91 88 89 85 81 83 80 78 73
3210.0 71 67 64 58 58 52 49 48 45 42
3250.0 42 44 45 41 42 42 41 41 38 40
3290.0 37 38 39 36 35 36 29 32 40 42
3330.0 40 43 41 41 44 41 45 44 43 41
3370.0 43 39 38 36 40 39 34 35 33 31
3410.0 31 35 36 36 29 37 35 34 37 33
3450.0 37 34 36 31 31 36 30 33 31 26
3490.0 30 24 29 28 32 28 27 26 32 31
3530.0 29 27 25 32 30 29 26 30 30 30
3570.0 29 27 27 37 29 38 29 35 34 37
3610.0 40 36 40 37 36 41 45 45 43 47
3650.0 47 48 38 43 46 44 53 52 48 44
3690.0 41 41 44 42 39 42 42 48 49 47
3730.0 39 42 46 36 48 42 50 44 47 40
3770.0 36 37 37 42 36 41 45 45 29 47
3810.0 42 46 37 36 44 39 40 47 42 42
3850.0 41 49 59 47 42 49 39 49 35 59
3890.0 48 48 36 44 41 51 62 61 57 48
3930.0 40 44 54 46 57 54 57 56 49 38
##END=
