##TITLE=Benzene, 1-chloro-2-fluoro-
##JCAMP-DX=4.24
##DATA TYPE=INFRARED SPECTRUM
##ORIGIN=Sadtler Research Labs Under US-EPA Contract
##OWNER=NIST Standard Reference Data Program
##CAS REGISTRY NO=348-51-6
##MOLFORM=C 6 H 4 Cl F
##XUNITS=1/CM
##YUNITS=ABSORBANCE
##XFACTOR=1.0
##YFACTOR=0.000048706
##DELTAX=4.0
##FIRSTX=450.0
##LASTX=3966.0
##FIRSTY=0.015148
##MAXX=3966
##MINX=450
##MAXY=0.48706
##MINY=0
##NPOINTS=880
##XYDATA=(X++(Y..Y))
450.0 311 269 288 110 3 6 166 33 165 318
490.0 446 444 447 607 399 236 143 169 141 162
530.0 145 129 194 357 585 598 620 600 516 310
570.0 103 104 26 68 76 129 58 99 65 63
610.0 39 18 65 16 53 16 91 22 60 97
650.0 75 96 41 230 224 1151 1798 1969 2236 2323
690.0 2060 1038 383 364 269 228 275 93 231 334
730.0 1102 1951 3260 4028 4956 10000 6841 3715 4497 2741
770.0 1572 591 310 162 119 240 138 205 141 300
810.0 292 646 1069 1680 1661 1362 1741 1430 810 471
850.0 372 222 157 159 104 86 65 137 104 123
890.0 120 131 115 88 100 91 132 122 182 153
930.0 249 488 274 194 202 156 108 81 62 87
970.0 81 118 85 107 104 88 94 93 138 127
1010.0 189 292 647 940 1033 1036 917 850 471 325
1050.0 338 524 984 1849 2660 2846 2860 3041 2440 1097
1090.0 408 185 124 128 91 171 325 920 1153 1324
1130.0 1327 1297 1131 437 301 338 251 240 191 183
1170.0 87 107 104 129 123 122 121 107 125 117
1210.0 137 159 281 476 890 1558 2649 3745 3842 3520
1250.0 4218 4027 3772 4084 3411 3515 4015 2612 1356 873
1290.0 675 537 355 204 102 80 67 92 85 81
1330.0 63 58 69 61 40 46 56 69 103 103
1370.0 128 206 268 274 295 297 304 280 207 190
1410.0 176 149 204 151 158 213 404 707 1108 1489
1450.0 1433 1268 1527 1315 1273 2090 4111 7351 9333 9720
1490.0 9703 9934 7262 4148 2664 1957 1541 1172 705 313
1530.0 196 158 166 218 185 166 203 323 375 527
1570.0 831 1215 1542 1859 2175 2135 2062 1844 1207 992
1610.0 713 376 258 154 167 99 125 123 99 106
1650.0 164 164 106 110 114 135 177 147 199 215
1690.0 165 132 155 132 110 62 82 118 63 37
1730.0 63 111 65 69 95 117 98 113 123 146
1770.0 224 293 258 250 259 224 154 113 120 97
1810.0 114 120 106 98 98 76 46 27 42 59
1850.0 40 36 56 74 80 93 64 53 50 78
1890.0 141 200 232 216 217 213 146 97 99 107
1930.0 137 162 167 160 138 93 48 30 28 30
1970.0 21 16 12 13 10 21 21 10 3 2
2010.0 0 7 14 13 9 11 8 16 22 18
2050.0 21 23 29 35 44 35 34 46 53 59
2090.0 69 61 64 57 35 13 8 5 2 4
2130.0 3 5 10 8 7 9 13 20 24 29
2170.0 26 26 22 19 12 15 13 12 10 4
2210.0 4 3 5 6 7 0 5 5 8 12
2250.0 14 21 23 29 31 39 47 55 55 52
2290.0 57 51 47 63 82 89 89 98 96 80
2330.0 72 76 64 75 56 62 61 58 69 61
2370.0 49 45 30 24 24 29 32 34 39 48
2410.0 55 49 53 54 46 38 27 24 21 21
2450.0 19 15 15 21 27 26 34 46 42 46
2490.0 43 45 40 42 40 42 53 57 61 60
2530.0 56 58 44 37 41 52 70 84 96 98
2570.0 97 86 65 41 25 18 12 19 16 13
2610.0 15 17 17 15 13 15 13 13 17 11
2650.0 16 12 14 10 12 19 18 12 12 13
2690.0 13 17 11 14 15 18 15 19 23 25
2730.0 27 25 35 37 36 35 36 34 41 32
2770.0 32 31 35 28 29 24 22 29 26 21
2810.0 21 22 26 24 28 26 31 34 29 26
2850.0 34 27 30 27 27 26 27 24 26 20
2890.0 20 24 26 30 31 24 19 19 20 22
2930.0 27 21 23 17 17 13 11 21 14 14
2970.0 19 23 20 20 21 22 20 26 28 35
3010.0 46 70 97 100 133 170 193 228 257 257
3050.0 242 275 339 426 493 595 716 914 1038 994
3090.0 1031 1033 796 527 332 200 128 81 60 35
3130.0 25 19 15 13 13 16 11 14 19 24
3170.0 17 14 15 14 20 15 20 20 18 14
3210.0 12 15 16 8 17 21 14 14 18 15
3250.0 15 11 12 21 17 20 17 11 7 14
3290.0 15 21 20 16 9 10 19 18 22 17
3330.0 12 14 10 18 17 13 20 13 5 18
3370.0 16 21 11 8 11 17 14 6 6 11
3410.0 11 0 9 15 5 7 6 13 19 16
3450.0 13 14 14 10 14 16 10 3 13 8
3490.0 19 16 14 12 11 16 7 14 12 13
3530.0 3 9 7 11 19 10 17 11 7 7
3570.0 13 20 26 24 13 7 12 3 9 16
3610.0 18 12 14 3 13 23 14 19 22 16
3650.0 23 7 16 23 10 7 5 14 21 22
3690.0 14 18 12 18 14 14 13 16 17 20
3730.0 18 31 14 23 10 22 10 22 22 19
3770.0 17 12 24 18 12 7 19 13 22 8
3810.0 4 14 7 21 6 4 12 14 10 21
3850.0 34 44 26 15 26 25 2 17 16 23
3890.0 25 31 48 36 46 38 49 36 35 29
3930.0 8 9 0 0 13 27 18 21 7 0
##END=
