##TITLE=Benzenamine, 2-fluoro-
##JCAMP-DX=4.24
##DATA TYPE=INFRARED SPECTRUM
##ORIGIN=Sadtler Research Labs Under US-EPA Contract
##OWNER=NIST Standard Reference Data Program
##CAS REGISTRY NO=348-54-9
##MOLFORM=C 6 H 6 F N
##XUNITS=1/CM
##YUNITS=ABSORBANCE
##XFACTOR=1.0
##YFACTOR=0.000047849
##DELTAX=4.0
##FIRSTX=450.0
##LASTX=3966.0
##FIRSTY=0.000000
##MAXX=3966
##MINX=450
##MAXY=0.47849
##MINY=0
##NPOINTS=880
##XYDATA=(X++(Y..Y))
450.0 0 665 901 723 784 490 667 544 391 609
490.0 422 535 443 522 550 739 605 822 777 519
530.0 614 581 612 590 648 570 549 433 437 544
570.0 464 521 456 481 440 444 456 554 554 505
610.0 614 733 1014 1209 1583 1925 2144 2171 2207 2145
650.0 1941 1660 1371 1246 1171 1429 1539 1636 1685 1660
690.0 1690 1663 1645 1546 1510 1547 1811 2282 2946 3696
730.0 4182 4702 7499 9235 6017 5314 5412 4546 3541 2570
770.0 2013 1573 1014 708 648 610 625 578 543 545
810.0 548 545 568 598 613 637 637 732 807 917
850.0 1014 1084 1135 1081 1040 922 825 706 590 534
890.0 509 483 480 480 498 461 573 825 676 443
930.0 511 437 393 299 289 248 214 223 227 232
970.0 216 232 217 226 227 264 257 251 298 343
1010.0 414 505 630 646 696 667 645 571 512 501
1050.0 509 593 635 655 631 686 691 717 769 789
1090.0 738 709 688 660 651 639 669 702 796 918
1130.0 988 988 992 1035 1054 1007 731 662 668 597
1170.0 554 578 717 922 1177 1522 2242 3469 4853 5545
1210.0 5457 5646 5731 4905 2917 1456 818 578 539 597
1250.0 832 1301 2106 2943 3266 3513 3463 3500 3474 2911
1290.0 2608 2654 2602 2643 2491 2366 2128 1851 1661 1537
1330.0 1428 1209 925 616 451 363 337 307 310 307
1370.0 315 347 373 433 451 486 471 461 430 385
1410.0 345 318 317 313 316 313 338 361 438 532
1450.0 657 824 1023 1175 1156 1111 1137 1182 1265 1709
1490.0 2743 4406 6170 7680 9125 9711 10000 8687 6827 5583
1530.0 3740 2193 1411 886 671 630 682 770 876 976
1570.0 1092 1232 1449 1644 1780 1852 1917 1947 1875 1764
1610.0 1831 2133 2727 3717 4788 5538 5750 5663 5318 4602
1650.0 3306 2098 1302 918 720 610 552 521 474 459
1690.0 417 407 390 379 362 356 350 342 327 334
1730.0 357 386 430 457 495 486 471 469 442 398
1770.0 355 336 308 308 311 315 298 306 299 296
1810.0 278 286 291 314 326 323 334 324 333 321
1850.0 304 312 335 371 394 419 402 415 397 378
1890.0 345 341 364 389 402 408 402 385 368 340
1930.0 307 291 290 303 308 311 298 303 316 314
1970.0 323 317 330 316 304 289 279 280 264 266
2010.0 269 268 275 292 301 300 309 320 329 320
2050.0 327 321 321 333 343 346 351 331 324 301
2090.0 287 257 251 242 245 250 229 240 227 237
2130.0 246 234 249 245 231 238 251 229 248 229
2170.0 240 240 234 242 236 248 248 243 232 236
2210.0 228 226 224 217 223 215 218 215 225 223
2250.0 233 243 250 252 256 273 274 271 252 254
2290.0 253 228 240 236 242 244 262 264 276 286
2330.0 287 309 303 321 253 285 280 271 310 291
2370.0 278 276 253 236 221 230 240 238 243 245
2410.0 256 266 257 265 255 257 245 246 250 263
2450.0 262 256 263 269 270 268 293 291 284 286
2490.0 264 273 270 248 246 258 251 253 266 254
2530.0 238 234 233 245 252 254 234 262 243 241
2570.0 251 228 230 224 225 252 228 238 242 241
2610.0 271 283 299 305 299 289 290 273 266 236
2650.0 224 215 211 213 230 248 242 246 247 238
2690.0 245 223 227 230 233 220 229 225 240 238
2730.0 223 220 233 240 233 234 235 240 243 251
2770.0 261 267 266 254 250 244 239 238 242 241
2810.0 250 245 243 250 240 240 237 248 243 241
2850.0 228 237 239 240 252 244 250 269 251 266
2890.0 273 295 281 289 285 299 286 280 286 283
2930.0 271 273 294 268 260 251 258 238 260 244
2970.0 239 235 248 265 257 264 273 261 274 275
3010.0 314 317 362 429 525 650 811 1001 1177 1280
3050.0 1412 1537 1563 1497 1456 1389 1356 1314 1203 1139
3090.0 1080 992 868 679 593 499 471 430 334 351
3130.0 326 285 259 271 267 233 244 229 264 208
3170.0 231 247 248 248 255 250 260 292 296 297
3210.0 297 297 315 328 330 325 320 322 301 285
3250.0 284 267 245 258 267 242 267 267 269 248
3290.0 263 260 249 278 282 294 258 245 277 280
3330.0 285 272 250 266 290 287 295 281 311 302
3370.0 334 333 363 352 398 402 500 643 874 1123
3410.0 1272 1430 1568 1617 1556 1304 1102 977 773 555
3450.0 431 374 374 410 400 445 448 545 651 824
3490.0 957 1151 1182 1235 1355 1381 1322 1149 1098 919
3530.0 902 714 559 441 375 374 384 352 349 369
3570.0 343 325 335 341 327 340 358 345 333 337
3610.0 323 336 374 357 341 356 329 326 337 372
3650.0 313 334 341 345 319 342 353 339 335 301
3690.0 328 328 353 373 298 345 323 334 298 303
3730.0 315 291 338 345 350 292 320 332 282 311
3770.0 303 273 265 302 282 240 311 311 294 296
3810.0 284 291 276 363 303 266 271 246 300 300
3850.0 334 357 338 355 310 350 389 379 387 343
3890.0 294 352 317 354 346 310 329 322 321 285
3930.0 346 334 323 323 242 258 287 352 361 308
##END=
