##TITLE=Methanone, cyclopropylphenyl-
##JCAMP-DX=4.24
##DATA TYPE=INFRARED SPECTRUM
##ORIGIN=Sadtler Research Labs Under US-EPA Contract
##OWNER=NIST Standard Reference Data Program
##CAS REGISTRY NO=3481-02-5
##MOLFORM=C 10 H 10 O
##XUNITS=1/CM
##YUNITS=ABSORBANCE
##XFACTOR=1.0
##YFACTOR=0.000049316
##DELTAX=4.0
##FIRSTX=450.0
##LASTX=3966.0
##FIRSTY=0.009321
##MAXX=3966
##MINX=450
##MAXY=0.49316
##MINY=0
##NPOINTS=880
##XYDATA=(X++(Y..Y))
450.0 189 104 98 54 42 100 183 166 171 166
490.0 150 166 120 65 92 55 61 70 63 70
530.0 81 70 115 50 68 54 34 13 61 51
570.0 23 1 30 37 34 29 40 41 52 59
610.0 84 85 101 113 140 209 440 836 1228 1284
650.0 1243 865 527 399 340 406 591 747 1139 1703
690.0 2509 3073 3757 4512 4575 3323 2640 1774 1059 656
730.0 448 391 339 335 291 281 251 283 314 409
770.0 504 613 742 827 763 590 475 382 348 330
810.0 374 421 451 454 403 374 324 340 325 314
850.0 302 279 269 276 327 348 350 339 316 296
890.0 279 263 282 306 339 431 467 483 450 430
930.0 375 347 343 356 366 361 403 415 455 474
970.0 572 713 1214 2495 5156 7993 8956 9061 6249 3219
1010.0 1698 800 608 646 729 934 1467 1780 1768 1633
1050.0 1021 570 520 556 588 547 521 447 392 350
1090.0 335 342 347 330 306 262 213 187 162 149
1130.0 143 139 151 179 223 268 344 412 527 730
1170.0 1088 1458 1546 1419 1077 700 663 906 1475 2507
1210.0 4219 6571 8929 10000 9273 7038 4216 2586 1995 1558
1250.0 1112 673 446 329 261 242 239 246 264 288
1290.0 295 308 293 270 245 219 206 189 209 240
1330.0 283 314 319 363 427 509 675 936 1318 1942
1370.0 2820 4090 5620 7116 7609 6856 5204 3123 1710 1106
1410.0 826 690 555 540 537 515 521 667 1093 1755
1450.0 2066 2059 1774 1062 603 424 282 230 214 184
1490.0 170 198 187 180 129 101 122 98 96 129
1530.0 143 159 175 149 168 182 171 123 165 221
1570.0 289 400 553 642 693 716 715 785 819 761
1610.0 597 379 280 266 273 300 307 314 358 376
1650.0 428 469 606 671 815 1106 1663 2660 4119 5836
1690.0 7253 7427 7197 5685 3732 2246 1337 819 616 547
1730.0 472 437 384 349 273 225 207 194 179 188
1770.0 175 148 152 109 103 72 91 117 156 220
1810.0 245 226 195 147 102 96 90 106 82 81
1850.0 97 107 109 113 105 82 99 95 97 102
1890.0 121 146 162 187 194 196 186 160 120 92
1930.0 76 74 85 91 121 151 171 170 184 167
1970.0 165 151 131 102 79 55 46 36 25 26
2010.0 21 18 12 25 26 24 29 21 23 22
2050.0 27 24 33 35 34 47 50 57 62 77
2090.0 81 88 93 95 89 85 79 77 77 71
2130.0 71 60 52 37 30 23 14 13 17 15
2170.0 14 15 17 22 21 22 20 20 17 15
2210.0 18 16 25 27 31 30 32 35 35 33
2250.0 33 38 26 20 22 24 20 26 29 26
2290.0 25 25 27 24 19 23 27 15 2 11
2330.0 1 1 1 1 1 27 1 1 1 1
2370.0 0 33 49 65 71 54 42 33 32 15
2410.0 19 18 17 13 16 28 30 41 44 42
2450.0 40 36 32 38 41 43 48 58 75 79
2490.0 73 62 43 28 22 18 17 19 14 17
2530.0 15 16 16 19 14 15 15 18 21 15
2570.0 15 15 14 20 22 26 32 33 37 38
2610.0 32 28 29 24 25 22 14 17 13 12
2650.0 9 14 9 4 9 7 7 5 7 5
2690.0 5 7 6 13 14 21 15 20 21 15
2730.0 15 12 14 17 15 13 14 24 20 17
2770.0 24 20 29 31 37 46 51 68 72 84
2810.0 94 102 103 100 83 72 71 58 57 53
2850.0 58 64 70 72 78 83 86 94 93 96
2890.0 91 91 87 84 82 74 82 85 80 87
2930.0 94 107 120 112 109 98 89 101 113 138
2970.0 168 209 229 246 231 223 216 253 339 498
3010.0 771 1265 1835 2042 2029 1791 1422 1310 1274 1222
3050.0 1171 1095 1101 1212 1433 1830 2005 1986 1843 1453
3090.0 1275 1310 1369 1272 1061 923 665 421 266 175
3130.0 134 121 107 88 84 76 79 80 81 79
3170.0 64 52 42 30 31 34 26 26 26 27
3210.0 23 24 22 26 22 24 18 18 15 20
3250.0 20 16 23 17 21 27 21 24 26 28
3290.0 20 24 27 21 28 22 25 21 28 21
3330.0 29 25 42 40 51 60 84 103 125 137
3370.0 125 110 84 66 52 36 23 29 26 26
3410.0 29 23 31 33 25 29 25 18 21 33
3450.0 22 25 25 29 35 41 21 25 13 16
3490.0 23 40 27 13 22 17 22 28 15 17
3530.0 17 30 25 23 20 29 16 34 31 13
3570.0 19 30 25 25 20 16 9 15 9 15
3610.0 12 29 19 17 28 1 29 26 17 44
3650.0 11 33 43 46 49 16 27 7 54 35
3690.0 37 20 23 31 46 44 48 42 22 14
3730.0 25 21 26 28 19 45 13 52 40 20
3770.0 22 27 35 12 41 53 48 24 36 36
3810.0 63 39 48 38 33 51 51 33 40 64
3850.0 44 39 35 61 59 42 41 46 37 44
3890.0 68 36 70 30 72 84 62 52 51 44
3930.0 48 53 84 57 40 52 50 57 23 55
##END=
