##TITLE=Benzenamine, 2,3,5,6-tetrachloro-
##JCAMP-DX=4.24
##DATA TYPE=INFRARED SPECTRUM
##ORIGIN=Sadtler Research Labs Under US-EPA Contract
##OWNER=NIST Standard Reference Data Program
##CAS REGISTRY NO=3481-20-7
##MOLFORM=C 6 H 3 Cl 4 N
##XUNITS=1/CM
##YUNITS=ABSORBANCE
##XFACTOR=1.0
##YFACTOR=0.000096625
##DELTAX=4.0
##FIRSTX=450.0
##LASTX=3966.0
##FIRSTY=0.000000
##MAXX=3966
##MINX=450
##MAXY=0.96625
##MINY=0
##NPOINTS=880
##XYDATA=(X++(Y..Y))
450.0 0 96 222 233 358 227 314 392 374 500
490.0 539 742 870 976 962 912 708 643 454 399
530.0 328 294 251 211 206 218 439 787 1245 1688
570.0 1664 1246 775 492 376 395 542 683 767 772
610.0 691 500 459 417 375 382 374 372 438 509
650.0 647 738 876 1233 1671 2976 3152 3099 2480 2070
690.0 1894 1936 1996 2034 2083 2055 1881 1700 1500 1442
730.0 1329 1230 1190 1149 1075 1051 1027 1050 1050 1088
770.0 1130 1119 1132 1167 1215 1211 1235 1267 1270 1243
810.0 1204 1278 1518 1941 2444 2323 1762 1298 1017 852
850.0 875 922 1031 1078 1023 920 766 660 571 557
890.0 580 584 611 611 632 652 653 660 652 662
930.0 655 687 753 836 1054 1506 2292 3245 3719 3547
970.0 2724 1703 1099 856 684 551 426 340 290 252
1010.0 251 236 256 266 257 278 269 277 287 305
1050.0 367 434 516 586 628 720 868 1213 1736 2544
1090.0 3550 4476 5179 5168 4615 3723 2723 2313 2464 2591
1130.0 2425 1921 1348 924 676 605 564 506 447 388
1170.0 385 363 359 374 376 370 318 238 220 214
1210.0 225 214 205 219 219 288 376 572 923 1239
1250.0 1423 1378 1124 932 939 1024 946 742 511 350
1290.0 350 367 422 482 446 418 357 293 279 231
1330.0 240 235 245 249 206 217 189 186 224 180
1370.0 241 266 302 426 507 737 1129 1773 2911 4188
1410.0 5344 6203 6733 7194 7753 8236 8734 7382 5299 3468
1450.0 2058 1508 1152 915 834 842 832 783 652 582
1490.0 523 419 388 331 341 374 313 392 467 515
1530.0 658 803 1124 1597 2343 3037 3767 3861 2953 2292
1570.0 1750 1413 1399 1427 1845 2615 4217 6158 9180 10000
1610.0 9922 9441 7052 5869 3955 2631 1724 1113 917 754
1650.0 723 665 547 474 440 370 387 282 336 308
1690.0 288 281 310 313 261 259 257 301 256 226
1730.0 275 269 270 226 260 264 243 253 259 245
1770.0 252 252 215 202 195 179 192 156 167 149
1810.0 140 148 132 148 132 153 125 133 132 145
1850.0 131 122 134 132 142 150 134 135 131 145
1890.0 142 144 140 144 138 144 139 159 151 150
1930.0 147 145 151 148 153 140 146 144 133 136
1970.0 135 128 129 122 126 131 126 124 126 133
2010.0 134 137 137 129 120 116 117 116 113 110
2050.0 115 116 122 117 122 118 112 110 112 109
2090.0 112 111 114 120 125 132 133 134 130 127
2130.0 124 120 123 116 118 118 116 112 113 112
2170.0 114 111 114 117 117 117 122 123 123 126
2210.0 126 129 126 115 114 113 109 105 101 102
2250.0 102 95 94 98 102 105 107 101 101 91
2290.0 85 68 64 67 56 53 67 79 84 88
2330.0 103 97 109 62 87 52 133 120 187 141
2370.0 113 100 85 88 100 117 128 125 122 113
2410.0 112 114 109 108 106 107 111 104 104 98
2450.0 94 92 91 91 86 84 85 83 84 80
2490.0 82 84 86 91 97 110 112 115 120 122
2530.0 127 131 131 145 144 137 132 125 116 113
2570.0 112 110 113 107 102 105 103 102 100 101
2610.0 103 103 106 106 107 106 108 107 117 118
2650.0 122 126 134 137 141 149 158 162 169 164
2690.0 167 163 154 145 139 129 118 117 114 111
2730.0 102 102 106 109 106 102 103 102 95 95
2770.0 101 101 103 101 107 115 118 122 128 136
2810.0 135 133 132 142 142 145 151 150 151 147
2850.0 148 153 150 150 149 150 148 139 138 144
2890.0 136 133 135 137 134 137 141 146 155 155
2930.0 160 163 156 152 144 141 145 146 146 151
2970.0 148 149 146 149 145 134 131 130 132 133
3010.0 131 144 151 156 157 161 163 151 147 147
3050.0 144 137 139 138 144 146 153 156 171 179
3090.0 182 194 200 200 203 214 237 250 246 234
3130.0 222 207 185 177 181 185 173 170 156 154
3170.0 137 128 127 128 126 124 126 129 122 116
3210.0 118 119 113 104 114 117 120 110 115 116
3250.0 116 117 120 134 132 133 136 132 137 137
3290.0 128 136 141 137 142 141 144 142 137 146
3330.0 130 124 128 129 130 133 138 140 157 158
3370.0 168 192 221 246 289 358 445 571 760 1050
3410.0 1455 1880 2182 2267 2119 1734 1308 910 601 423
3450.0 308 261 269 269 297 323 366 409 447 492
3490.0 553 638 751 898 1182 1545 2005 2315 2379 2203
3530.0 1786 1375 1034 769 597 428 335 260 257 197
3570.0 180 203 184 173 154 148 132 132 107 129
3610.0 92 88 97 105 114 96 81 108 108 115
3650.0 104 68 109 82 126 66 117 70 89 120
3690.0 94 129 93 123 101 94 82 93 111 93
3730.0 130 111 92 132 111 135 131 104 113 119
3770.0 122 101 95 94 95 119 120 97 139 96
3810.0 139 95 159 140 148 133 124 150 148 144
3850.0 118 216 163 140 125 140 159 103 123 162
3890.0 140 114 92 127 134 120 82 134 106 80
3930.0 100 116 116 64 75 69 131 123 104 155
##END=
