##TITLE=p-Trifluoromethylacetanilide
##JCAMP-DX=4.24
##DATA TYPE=INFRARED SPECTRUM
##ORIGIN=Sadtler Research Labs Under US-EPA Contract
##OWNER=NIST Standard Reference Data Program
##CAS REGISTRY NO=349-97-3
##MOLFORM=C 9 H 8 F 3 N O
##XUNITS=1/CM
##YUNITS=ABSORBANCE
##XFACTOR=1.0
##YFACTOR=0.000036118
##DELTAX=4.0
##FIRSTX=450.0
##LASTX=3966.0
##FIRSTY=0.014194
##MAXX=3966
##MINX=450
##MAXY=0.36118
##MINY=0
##NPOINTS=880
##XYDATA=(X++(Y..Y))
450.0 393 179 112 138 101 74 159 107 87 121
490.0 144 245 245 381 369 390 374 316 318 254
530.0 275 210 170 149 129 171 94 177 138 83
570.0 135 157 148 145 132 188 172 180 211 217
610.0 149 148 148 176 113 139 81 70 103 110
650.0 70 130 154 154 178 277 528 701 657 393
690.0 168 119 68 100 48 56 52 48 57 53
730.0 32 39 28 5 57 67 42 80 58 75
770.0 78 53 51 73 101 85 94 116 142 214
810.0 255 296 355 363 428 521 666 787 926 932
850.0 803 622 434 286 152 127 112 104 79 67
890.0 95 83 78 89 94 87 91 95 105 102
930.0 96 123 141 139 133 148 151 176 182 209
970.0 243 296 371 454 565 591 566 459 400 347
1010.0 543 893 1053 897 473 309 281 297 329 365
1050.0 439 554 785 1280 2482 3593 3709 2496 967 564
1090.0 473 455 521 624 842 1077 1368 1662 2019 2354
1130.0 2747 3299 3994 4771 5244 5021 4303 3614 3495 3863
1170.0 4154 3928 3525 3136 2660 2058 1452 1104 1088 1196
1210.0 1408 1612 1782 1760 1545 1320 1318 1651 1965 1963
1250.0 1586 1062 764 666 636 664 706 777 895 1113
1290.0 1510 2057 2746 3341 4007 4894 5956 7532 9162 10000
1330.0 9119 6697 4543 2826 1664 1106 874 825 892 1042
1370.0 1154 1184 1069 971 907 966 1148 1485 1881 2095
1410.0 1998 1542 1128 795 608 483 448 425 407 415
1450.0 407 412 450 474 560 646 792 939 1169 1506
1490.0 1966 2465 2859 3005 2829 2522 2511 2849 3259 3047
1530.0 2316 1393 878 673 524 463 419 435 385 403
1570.0 382 387 375 409 478 580 767 982 1168 1351
1610.0 1631 1886 1858 1449 890 522 389 354 330 307
1650.0 310 283 265 238 222 199 216 208 255 259
1690.0 284 317 378 434 504 650 856 1342 2048 2882
1730.0 3500 3530 3176 2761 2089 1507 1010 745 550 496
1770.0 466 452 417 383 358 312 308 293 274 229
1810.0 197 170 133 116 97 105 86 91 89 101
1850.0 85 81 79 73 93 105 108 113 118 114
1890.0 113 88 82 75 79 79 83 73 77 59
1930.0 64 64 58 48 36 24 17 19 17 21
1970.0 16 15 13 13 13 13 17 11 8 9
2010.0 8 10 19 15 13 20 18 21 15 12
2050.0 9 15 16 19 23 25 30 34 45 34
2090.0 33 43 30 25 20 23 21 26 19 21
2130.0 33 33 29 39 44 36 38 39 42 44
2170.0 34 31 22 29 25 25 18 21 23 26
2210.0 32 28 25 29 22 22 31 30 26 27
2250.0 28 20 20 30 37 38 45 46 49 51
2290.0 62 71 72 78 85 90 84 86 78 71
2330.0 70 57 45 87 95 77 76 58 79 60
2370.0 37 64 62 57 42 27 17 8 3 9
2410.0 4 0 4 5 6 16 11 19 20 27
2450.0 22 22 26 36 24 22 20 19 21 16
2490.0 18 18 15 18 13 13 21 19 25 26
2530.0 28 34 32 34 36 33 32 26 24 21
2570.0 21 23 20 26 34 23 19 23 18 23
2610.0 25 26 23 15 20 21 32 23 27 36
2650.0 35 35 24 24 24 22 21 28 36 25
2690.0 24 28 25 32 31 36 39 38 37 38
2730.0 35 29 31 34 32 26 28 31 31 26
2770.0 25 25 22 15 24 23 19 20 29 34
2810.0 20 19 28 38 38 36 36 41 46 35
2850.0 35 45 43 49 48 42 45 43 45 44
2890.0 54 51 56 63 64 67 73 82 87 114
2930.0 121 130 138 148 133 134 104 101 89 80
2970.0 84 81 75 79 76 80 77 82 92 93
3010.0 106 123 128 132 146 156 171 195 218 225
3050.0 203 189 154 133 120 124 132 125 131 122
3090.0 107 104 94 92 96 98 97 106 96 104
3130.0 86 81 68 58 46 49 56 57 45 46
3170.0 39 41 46 49 50 40 39 42 41 37
3210.0 45 47 36 36 52 39 39 43 57 54
3250.0 35 40 52 52 57 43 49 51 49 35
3290.0 51 43 51 56 43 48 45 57 46 48
3330.0 51 39 50 63 56 45 38 51 59 44
3370.0 47 47 57 54 68 69 71 84 77 71
3410.0 100 101 103 110 113 107 133 141 171 189
3450.0 239 271 319 350 351 322 253 205 157 111
3490.0 96 74 66 62 76 67 68 59 63 64
3530.0 62 62 72 59 61 62 77 86 66 72
3570.0 73 75 86 85 73 71 79 85 56 66
3610.0 47 60 53 54 53 47 38 66 58 38
3650.0 37 32 47 54 66 36 39 12 45 37
3690.0 32 46 56 57 44 74 64 45 31 48
3730.0 42 29 60 45 19 50 35 67 66 43
3770.0 49 55 60 60 63 54 50 63 76 76
3810.0 91 62 85 75 42 78 61 57 80 77
3850.0 52 56 62 74 56 90 76 76 84 96
3890.0 92 72 60 50 58 54 35 56 72 64
3930.0 46 67 52 34 57 64 81 74 67 49
##END=
