##TITLE=2-Propanol, 1,3-bis-diethylamino-,
##JCAMP-DX=4.24
##DATA TYPE=INFRARED SPECTRUM
##ORIGIN=Sadtler Research Labs Under US-EPA Contract
##OWNER=NIST Standard Reference Data Program
##CAS REGISTRY NO=3492-47-5
##MOLFORM=C 11 H 26 N 2 O
##XUNITS=1/CM
##YUNITS=ABSORBANCE
##XFACTOR=1.0
##YFACTOR=0.000115021
##DELTAX=4.0
##FIRSTX=450.0
##LASTX=3966.0
##FIRSTY=0.000000
##MAXX=3966
##MINX=450
##MAXY=1.15021
##MINY=0
##NPOINTS=880
##XYDATA=(X++(Y..Y))
450.0 0 157 234 202 237 219 234 256 238 274
490.0 290 301 297 346 328 331 317 346 335 348
530.0 332 337 329 299 267 239 218 231 219 194
570.0 200 214 224 203 208 213 222 265 238 229
610.0 198 199 184 188 180 192 215 199 209 198
650.0 194 186 181 181 174 194 186 182 187 177
690.0 179 185 196 196 200 212 196 215 221 227
730.0 232 258 287 333 376 445 491 535 569 630
770.0 666 662 655 626 591 570 564 582 605 605
810.0 591 538 458 393 336 304 298 300 326 358
850.0 407 436 457 464 448 420 399 399 399 405
890.0 403 406 411 411 436 435 431 424 433 431
930.0 442 447 464 479 508 550 549 535 590 625
970.0 681 718 754 762 786 800 805 788 763 752
1010.0 763 819 920 1065 1247 1474 1713 1953 2191 2450
1050.0 2749 3070 3395 3627 3726 3695 3621 3551 3532 3493
1090.0 3379 3146 2807 2422 2052 1757 1528 1357 1224 1106
1130.0 1012 942 896 876 873 890 921 956 998 1047
1170.0 1112 1186 1288 1413 1588 1858 2262 2795 3150 3061
1210.0 2533 1913 1467 1210 1063 992 979 1006 1072 1145
1250.0 1215 1248 1253 1250 1269 1303 1345 1400 1473 1564
1290.0 1661 1742 1764 1735 1667 1601 1545 1524 1533 1562
1330.0 1611 1661 1720 1749 1751 1716 1671 1635 1650 1786
1370.0 2075 2484 2818 3042 3013 2817 2392 1912 1550 1340
1410.0 1218 1113 1030 930 862 822 845 905 1000 1104
1450.0 1242 1366 1477 1525 1508 1500 1405 1245 986 750
1490.0 579 480 422 374 354 327 309 289 285 268
1530.0 263 250 249 230 231 232 227 216 221 211
1570.0 211 205 212 203 206 204 206 203 205 205
1610.0 201 203 206 203 206 201 212 201 210 205
1650.0 208 208 229 217 228 234 244 250 260 261
1690.0 282 299 333 365 384 375 339 303 282 267
1730.0 261 267 260 261 249 234 225 211 204 205
1770.0 207 199 200 192 196 180 185 179 180 178
1810.0 175 175 175 174 173 171 173 172 168 171
1850.0 167 170 167 163 160 161 163 159 161 159
1890.0 160 158 158 156 155 156 159 158 158 158
1930.0 160 160 162 160 162 163 166 164 168 166
1970.0 166 166 167 165 163 157 159 158 157 158
2010.0 156 155 152 150 152 150 150 152 152 154
2050.0 152 153 155 158 158 162 160 159 159 159
2090.0 162 160 162 162 161 163 164 165 162 164
2130.0 163 165 164 164 164 164 164 165 169 165
2170.0 169 170 170 169 165 166 166 164 161 163
2210.0 158 160 160 162 162 164 166 163 168 168
2250.0 168 168 171 174 173 172 175 174 172 172
2290.0 171 173 171 173 169 168 166 162 157 158
2330.0 150 159 156 149 176 166 163 162 157 157
2370.0 164 167 178 187 183 183 180 183 184 182
2410.0 185 184 184 185 186 186 189 188 183 184
2450.0 185 184 180 181 180 181 178 178 177 179
2490.0 182 180 184 185 188 193 195 199 202 208
2530.0 209 215 220 225 230 234 240 245 253 262
2570.0 269 278 282 287 293 296 298 300 303 307
2610.0 314 323 328 343 349 361 373 389 406 422
2650.0 439 456 471 484 502 516 538 561 581 602
2690.0 628 652 677 707 743 785 820 858 892 930
2730.0 960 986 1000 1022 1056 1103 1172 1249 1338 1416
2770.0 1501 1591 1708 1858 2061 2336 2695 3154 3665 4192
2810.0 4616 4912 5029 4996 4847 4593 4280 3934 3619 3292
2850.0 3009 2773 2625 2561 2597 2742 3018 3396 3710 3832
2890.0 3710 3526 3392 3374 3408 3496 3616 3766 4007 4354
2930.0 4869 5479 6106 6362 6138 5539 4999 4829 5169 6247
2970.0 7950 9649 10000 8889 6753 4694 3183 2261 1705 1362
3010.0 1140 982 868 786 720 669 622 585 551 529
3050.0 504 491 471 457 442 430 419 407 396 379
3090.0 372 362 358 348 343 337 333 326 323 321
3130.0 318 313 303 301 296 295 288 282 281 276
3170.0 275 272 268 264 263 257 254 250 247 245
3210.0 242 237 238 230 233 228 228 234 233 228
3250.0 227 230 234 238 238 241 241 244 242 248
3290.0 251 256 255 261 261 269 272 281 282 285
3330.0 290 295 300 304 312 320 326 329 342 347
3370.0 348 359 365 373 384 394 405 412 422 427
3410.0 437 449 464 473 489 495 507 519 532 540
3450.0 551 573 581 602 611 628 637 643 649 655
3490.0 659 666 664 666 662 651 654 635 628 605
3530.0 592 579 568 542 531 507 485 471 440 439
3570.0 418 392 373 349 344 319 302 285 283 266
3610.0 266 247 246 240 244 244 241 227 241 224
3650.0 226 228 206 212 189 194 171 178 164 171
3690.0 169 166 167 160 168 168 162 164 161 165
3730.0 160 166 170 151 199 151 173 165 160 165
3770.0 156 166 165 163 166 165 157 170 152 178
3810.0 160 174 156 157 162 158 155 168 156 150
3850.0 163 168 171 175 161 172 165 168 161 181
3890.0 172 175 171 178 175 174 179 180 193 175
3930.0 184 195 188 180 195 198 194 202 194 185
##END=
