##TITLE=Benzene, 1-fluoro-4-nitro-
##JCAMP-DX=4.24
##DATA TYPE=INFRARED SPECTRUM
##ORIGIN=Sadtler Research Labs Under US-EPA Contract
##OWNER=NIST Standard Reference Data Program
##CAS REGISTRY NO=350-46-9
##MOLFORM=C 6 H 4 F N O 2
##XUNITS=1/CM
##YUNITS=ABSORBANCE
##XFACTOR=1.0
##YFACTOR=0.000092920
##DELTAX=4.0
##FIRSTX=450.0
##LASTX=3966.0
##FIRSTY=0.024717
##MAXX=3966
##MINX=450
##MAXY=0.9292
##MINY=0
##NPOINTS=880
##XYDATA=(X++(Y..Y))
450.0 266 337 336 370 325 336 276 224 293 374
490.0 371 348 365 205 126 118 94 233 180 108
530.0 97 44 74 215 265 208 179 70 98 162
570.0 256 269 212 104 8 63 73 204 596 1353
610.0 2394 2579 2419 1960 879 258 195 333 188 209
650.0 237 245 327 384 400 437 591 597 484 445
690.0 301 275 197 183 182 174 182 195 246 249
730.0 427 604 821 1004 1348 1516 1021 889 704 482
770.0 307 134 142 100 154 183 155 147 136 174
810.0 171 231 249 344 483 627 874 1275 1749 2277
850.0 3161 4686 4795 4868 4260 3372 1994 630 209 54
890.0 74 106 158 165 167 161 96 150 179 258
930.0 271 240 197 216 258 266 332 336 328 327
970.0 306 309 327 321 300 292 264 313 379 520
1010.0 576 492 401 266 212 200 230 257 215 182
1050.0 151 152 154 167 208 191 253 239 272 239
1090.0 367 573 604 737 988 1018 1017 782 458 217
1130.0 167 200 340 819 1412 1800 1781 1618 1034 544
1170.0 290 260 266 200 177 195 168 176 189 272
1210.0 336 448 608 856 1093 1362 1820 2886 4776 6668
1250.0 7313 6830 4859 1810 483 220 263 396 445 365
1290.0 460 499 495 449 545 633 707 713 710 752
1330.0 859 1426 2612 4544 6446 8407 10000 9188 7601 5369
1370.0 2823 1283 686 495 426 398 252 216 217 179
1410.0 226 262 337 330 330 320 269 285 327 377
1450.0 435 565 724 879 906 852 640 530 760 1417
1490.0 2898 5140 5925 5795 5157 2932 1638 1463 1623 2189
1530.0 3190 4712 6608 8310 8377 7785 7944 5691 3363 2313
1570.0 1605 1292 1289 1590 2218 3122 4232 4991 5328 4788
1610.0 3608 2918 2564 2336 2160 2020 1525 995 695 452
1650.0 360 226 279 281 257 237 181 176 159 143
1690.0 143 142 117 114 156 164 154 112 129 134
1730.0 127 95 103 86 78 51 105 123 178 217
1770.0 218 175 152 101 79 91 80 92 100 96
1810.0 90 100 113 88 86 54 53 69 45 66
1850.0 71 68 61 55 82 66 94 86 98 91
1890.0 110 147 195 235 255 267 234 212 179 122
1930.0 113 81 69 53 55 73 90 96 78 93
1970.0 61 65 73 75 77 64 64 47 60 63
2010.0 66 79 68 79 69 84 89 99 98 105
2050.0 129 110 114 96 69 62 44 54 43 65
2090.0 57 67 74 67 81 84 97 97 96 69
2130.0 47 41 29 56 50 47 47 34 40 39
2170.0 62 60 61 52 39 48 43 69 76 75
2210.0 68 60 60 65 82 65 64 50 45 61
2250.0 63 67 71 72 49 43 48 36 55 46
2290.0 50 37 37 49 62 72 50 47 32 32
2330.0 52 59 89 92 98 34 61 115 165 218
2370.0 156 115 108 87 84 92 94 96 106 85
2410.0 82 80 62 64 47 41 35 43 49 63
2450.0 89 81 108 119 129 131 120 113 95 97
2490.0 88 108 92 81 86 47 36 31 41 40
2530.0 36 27 13 18 19 32 44 47 47 48
2570.0 53 48 70 63 66 75 52 65 81 102
2610.0 105 111 88 73 74 59 72 78 79 73
2650.0 62 58 60 75 64 79 61 51 80 88
2690.0 100 111 112 114 112 119 104 115 80 84
2730.0 72 72 78 67 87 74 80 66 60 91
2770.0 85 101 103 87 77 97 89 83 94 66
2810.0 67 55 58 79 91 77 82 91 77 105
2850.0 115 116 135 123 127 148 188 229 255 259
2890.0 245 245 213 201 181 162 135 101 94 85
2930.0 110 104 115 127 84 106 91 113 105 123
2970.0 109 93 103 87 102 111 107 94 78 74
3010.0 67 90 72 80 63 40 54 64 75 77
3050.0 67 45 56 80 72 112 108 115 144 191
3090.0 309 388 421 371 294 151 95 99 82 93
3130.0 81 68 53 58 64 71 95 58 55 50
3170.0 54 74 73 82 61 61 55 54 70 64
3210.0 75 42 43 28 49 58 67 76 52 66
3250.0 60 64 89 79 79 69 58 39 63 76
3290.0 75 85 52 55 56 55 61 64 62 21
3330.0 53 34 60 74 63 65 52 61 57 86
3370.0 77 76 88 51 73 66 73 78 67 55
3410.0 43 52 46 68 77 47 57 47 61 71
3450.0 99 76 83 78 44 89 75 110 101 76
3490.0 60 71 78 68 89 63 53 40 25 56
3530.0 68 79 74 70 44 64 93 81 99 79
3570.0 77 82 74 82 86 100 79 65 55 47
3610.0 72 70 72 61 54 21 66 86 64 76
3650.0 36 63 65 69 77 83 87 75 78 57
3690.0 80 91 83 74 63 46 38 55 52 60
3730.0 55 27 42 46 52 56 81 67 56 68
3770.0 51 82 79 82 70 50 42 53 49 39
3810.0 45 34 9 21 27 51 49 51 52 46
3850.0 50 54 99 100 98 87 76 88 88 94
3890.0 104 102 72 48 61 63 80 73 70 53
3930.0 43 57 88 112 111 122 0 9 9 9
##END=
