##TITLE=Ethanone, 1-(3-pyridinyl)-
##JCAMP-DX=4.24
##DATA TYPE=INFRARED SPECTRUM
##ORIGIN=Sadtler Research Labs Under US-EPA Contract
##OWNER=NIST Standard Reference Data Program
##CAS REGISTRY NO=350-03-8
##MOLFORM=C 7 H 7 N O
##XUNITS=1/CM
##YUNITS=ABSORBANCE
##XFACTOR=1.0
##YFACTOR=0.000083517
##DELTAX=4.0
##FIRSTX=450.0
##LASTX=3966.0
##FIRSTY=0.018123
##MAXX=3966
##MINX=450
##MAXY=0.83517
##MINY=0
##NPOINTS=880
##XYDATA=(X++(Y..Y))
450.0 217 111 24 58 48 76 84 60 96 20
490.0 130 8 45 17 45 35 20 4 41 50
530.0 12 52 23 33 55 30 65 42 85 90
570.0 186 303 691 1145 1532 1605 1676 1519 730 498
610.0 306 547 762 838 741 901 533 291 164 132
650.0 161 151 137 122 131 149 166 272 393 746
690.0 971 1266 1580 2298 2394 1700 1383 1139 817 579
730.0 367 333 352 390 377 380 297 241 212 157
770.0 177 182 270 334 488 645 880 1145 1103 1326
810.0 1213 846 675 504 341 236 154 120 85 99
850.0 82 74 56 65 60 72 68 41 48 48
890.0 59 54 68 71 79 82 87 105 131 193
930.0 271 439 697 1012 1303 1503 1544 1436 1215 910
970.0 632 455 365 297 260 246 262 233 316 481
1010.0 738 1072 1169 1126 1163 1006 643 409 328 254
1050.0 208 187 200 223 253 306 384 510 642 747
1090.0 812 834 794 731 736 844 945 913 917 877
1130.0 686 460 314 206 145 118 108 117 128 156
1170.0 186 253 338 475 615 667 642 651 611 487
1210.0 423 420 484 569 664 757 854 921 995 1230
1250.0 1841 3171 5385 7895 9511 10000 9581 7414 3890 1487
1290.0 734 530 407 364 338 357 364 377 391 392
1330.0 374 382 391 506 732 1162 1878 2649 3121 3288
1370.0 3317 2770 1894 1233 847 696 623 665 870 1344
1410.0 2065 2548 2602 2576 2445 1747 1026 774 685 548
1450.0 441 353 267 296 305 323 287 301 314 259
1490.0 190 184 144 133 80 59 106 85 65 123
1530.0 147 182 194 188 300 399 522 603 898 1199
1570.0 1563 2136 3010 3748 3742 3357 2773 1910 935 459
1610.0 339 299 256 298 251 284 215 208 200 214
1650.0 169 237 319 426 450 470 473 628 759 1138
1690.0 1930 3208 5318 7875 9284 9015 9436 8178 5484 3046
1730.0 1777 1034 802 714 674 631 614 563 455 384
1770.0 274 211 188 151 121 99 70 74 55 73
1810.0 66 58 66 57 57 42 66 86 84 84
1850.0 117 128 124 114 89 56 72 88 98 104
1890.0 101 118 130 135 149 168 179 187 177 179
1930.0 162 153 149 143 148 148 144 130 118 96
1970.0 92 83 76 70 65 51 37 42 44 50
2010.0 55 62 64 68 65 60 47 40 38 40
2050.0 44 37 50 52 32 27 9 6 1 4
2090.0 10 30 40 48 50 55 55 51 50 47
2130.0 42 39 41 34 32 33 41 37 39 36
2170.0 38 38 40 36 37 37 42 31 47 45
2210.0 46 52 50 55 53 52 45 48 45 48
2250.0 44 43 36 44 34 40 46 46 48 55
2290.0 59 61 75 65 72 71 57 47 39 20
2330.0 12 1 12 58 1 46 1 2 1 38
2370.0 44 69 79 96 88 66 52 47 43 42
2410.0 37 34 37 37 38 38 32 38 40 44
2450.0 35 37 42 40 39 34 23 22 33 32
2490.0 26 37 39 42 37 43 45 47 40 50
2530.0 54 69 59 53 39 28 28 23 14 25
2570.0 28 16 23 38 36 52 49 53 63 63
2610.0 59 62 65 70 58 53 41 32 45 67
2650.0 66 64 59 44 20 6 12 1 12 26
2690.0 25 38 42 32 30 29 31 34 26 29
2730.0 25 12 26 33 33 29 37 33 26 28
2770.0 23 25 31 35 36 42 42 32 41 50
2810.0 50 42 43 46 56 59 59 63 78 89
2850.0 93 91 93 108 97 94 97 93 90 109
2890.0 99 99 103 112 125 125 133 154 185 211
2930.0 241 261 275 279 268 259 267 296 332 390
2970.0 453 502 501 457 406 372 338 349 375 465
3010.0 586 673 721 727 727 706 755 916 1172 1346
3050.0 1448 1424 1297 1098 880 735 669 672 790 887
3090.0 880 847 787 590 374 253 216 175 162 139
3130.0 150 151 149 141 144 112 98 92 86 89
3170.0 65 75 78 78 58 54 58 44 50 46
3210.0 57 33 41 40 43 64 45 34 44 41
3250.0 46 44 21 39 35 27 46 44 64 51
3290.0 37 54 42 18 26 41 33 32 39 34
3330.0 38 21 15 29 39 26 34 38 29 30
3370.0 46 63 73 100 128 156 195 221 230 211
3410.0 211 158 117 82 75 76 55 63 52 42
3450.0 58 52 32 38 48 58 48 42 38 30
3490.0 57 49 60 58 80 62 55 47 65 73
3530.0 50 30 59 45 52 43 44 54 72 76
3570.0 69 70 64 59 65 49 74 33 44 70
3610.0 72 60 45 63 33 51 50 65 56 61
3650.0 46 32 75 40 60 44 59 19 43 43
3690.0 27 25 39 25 31 48 66 42 46 56
3730.0 41 8 44 61 26 70 0 66 38 69
3770.0 85 72 52 48 62 71 99 53 54 80
3810.0 89 46 40 35 43 60 58 43 118 82
3850.0 22 26 46 93 58 72 82 72 50 97
3890.0 79 42 36 90 119 104 80 79 31 44
3930.0 87 72 109 130 62 47 66 73 50 87
##END=
