##TITLE=5H-Benzocycloheptene, 5-phenyl-6,7,8,9-tetrahydro-,
##JCAMP-DX=4.24
##DATA TYPE=INFRARED SPECTRUM
##ORIGIN=Sadtler Research Labs Under US-EPA Contract
##OWNER=NIST Standard Reference Data Program
##CAS REGISTRY NO=35068-34-9
##MOLFORM=C 17 H 18
##XUNITS=1/CM
##YUNITS=ABSORBANCE
##XFACTOR=1.0
##YFACTOR=0.000047913
##DELTAX=4.0
##FIRSTX=450.0
##LASTX=3966.0
##FIRSTY=0.052991
##MAXX=3966
##MINX=450
##MAXY=0.47913
##MINY=0
##NPOINTS=880
##XYDATA=(X++(Y..Y))
450.0 1106 917 1463 1125 254 1174 956 264 555 676
490.0 487 439 15 256 132 521 68 504 527 216
530.0 344 505 713 1106 503 738 722 373 665 483
570.0 39 461 396 276 425 451 501 614 566 493
610.0 259 505 455 454 484 311 598 616 575 462
650.0 579 404 730 354 378 661 604 771 474 759
690.0 1410 2710 3252 3098 2632 1716 1295 1139 924 1040
730.0 934 1647 2363 3555 4590 4894 4035 2644 1700 1380
770.0 1076 1094 832 576 512 522 574 382 504 532
810.0 511 588 444 353 286 203 364 302 280 311
850.0 210 305 419 423 339 334 416 325 341 463
890.0 392 376 412 583 392 358 477 531 542 473
930.0 543 543 537 511 548 505 520 552 584 519
970.0 465 493 415 303 397 266 305 383 367 391
1010.0 352 503 447 591 711 729 928 803 666 575
1050.0 548 638 575 599 463 474 516 579 479 445
1090.0 503 389 464 397 525 346 366 244 396 320
1130.0 287 353 364 384 367 383 353 383 378 381
1170.0 443 419 514 538 570 556 589 565 715 587
1210.0 580 475 526 496 532 495 547 531 566 614
1250.0 587 592 657 712 714 681 710 703 671 699
1290.0 664 628 596 587 587 555 529 528 500 487
1330.0 476 465 486 508 530 598 611 586 538 488
1370.0 417 376 350 262 294 265 241 268 250 267
1410.0 263 310 318 391 371 433 577 941 1454 1996
1450.0 2368 2435 1894 1525 1062 899 864 979 1219 1614
1490.0 2032 2188 1827 1300 797 557 321 368 325 312
1530.0 268 254 346 320 307 198 256 332 338 235
1570.0 291 364 418 518 575 739 1069 1094 1221 1005
1610.0 669 549 366 331 228 247 223 281 214 219
1650.0 322 314 347 194 352 361 457 518 672 761
1690.0 751 745 829 897 705 565 440 438 358 272
1730.0 360 339 416 310 309 332 300 281 264 225
1770.0 257 269 220 232 254 300 383 395 341 322
1810.0 250 223 204 194 206 224 178 181 143 193
1850.0 135 124 157 146 197 203 232 215 216 213
1890.0 184 178 187 212 240 258 229 222 166 177
1930.0 192 256 321 336 319 261 239 198 147 110
1970.0 93 95 90 77 77 72 74 67 58 74
2010.0 65 66 62 66 69 69 67 66 60 72
2050.0 72 61 58 59 54 50 46 45 45 48
2090.0 52 52 55 44 49 60 56 53 54 56
2130.0 50 48 42 36 39 40 45 45 36 33
2170.0 41 34 43 50 46 48 48 53 51 50
2210.0 51 41 47 37 46 38 40 42 34 31
2250.0 38 37 50 49 44 52 51 56 50 43
2290.0 38 34 38 25 32 23 37 40 35 46
2330.0 54 35 57 39 86 51 64 56 77 79
2370.0 36 27 16 19 25 20 19 22 22 27
2410.0 31 34 30 35 38 42 38 39 33 21
2450.0 30 19 20 14 8 7 14 15 15 22
2490.0 22 24 33 37 40 48 47 49 43 45
2530.0 45 41 36 34 36 40 34 31 35 35
2570.0 30 45 49 67 56 74 69 68 67 59
2610.0 63 60 59 54 52 56 52 61 62 75
2650.0 65 83 103 107 110 125 124 132 155 141
2690.0 133 132 141 123 119 110 95 92 90 76
2730.0 77 92 92 93 95 95 92 96 92 99
2770.0 103 107 102 108 119 128 139 152 163 187
2810.0 210 235 251 258 274 284 291 333 399 533
2850.0 831 1366 2120 2805 3024 2814 2406 2035 1763 1496
2890.0 1323 1240 1271 1389 1593 1884 2345 3144 4518 6519
2930.0 8756 10000 9551 8311 6619 4934 3428 2175 1391 995
2970.0 778 628 505 435 393 375 368 407 449 554
3010.0 776 1122 1588 2090 2398 2468 2324 2030 1716 1532
3050.0 1507 1647 1971 2574 3331 3810 3619 2920 2176 1682
3090.0 1366 1118 902 740 619 487 383 294 233 204
3130.0 186 178 178 188 192 193 185 183 178 153
3170.0 131 118 98 113 89 79 93 81 76 80
3210.0 82 98 95 84 90 99 111 95 107 96
3250.0 92 92 84 85 81 74 83 91 95 78
3290.0 84 100 94 91 99 99 111 95 105 95
3330.0 109 104 89 105 85 81 87 103 104 95
3370.0 104 104 118 121 111 104 117 115 95 120
3410.0 109 109 109 83 83 92 64 64 79 93
3450.0 78 95 96 72 70 74 98 71 61 63
3490.0 80 71 78 65 75 51 71 48 59 53
3530.0 51 68 73 83 43 29 89 34 92 16
3570.0 73 76 73 78 48 74 50 36 41 60
3610.0 56 58 86 62 74 124 101 128 126 135
3650.0 164 126 120 72 113 53 125 94 72 63
3690.0 45 106 0 119 46 68 79 62 78 46
3730.0 77 102 53 88 99 127 124 68 70 84
3770.0 82 43 70 96 80 80 97 76 149 97
3810.0 125 81 99 124 48 34 101 82 68 27
3850.0 38 155 83 127 110 170 103 80 111 105
3890.0 187 123 41 94 110 90 71 94 109 79
3930.0 117 116 144 140 117 99 162 157 135 244
##END=
