##TITLE=m-Toluidine, N-benzylidene-.alpha.,.alpha.,.alpha.-trifluoro-,
##JCAMP-DX=4.24
##DATA TYPE=INFRARED SPECTRUM
##ORIGIN=Sadtler Research Labs Under US-EPA Contract
##OWNER=NIST Standard Reference Data Program
##CAS REGISTRY NO=351-18-8
##MOLFORM=C 14 H 10 F 3 N
##XUNITS=1/CM
##YUNITS=ABSORBANCE
##XFACTOR=1.0
##YFACTOR=0.000154813
##DELTAX=4.0
##FIRSTX=450.0
##LASTX=3966.0
##FIRSTY=0.003251
##MAXX=3966
##MINX=450
##MAXY=1.54813
##MINY=0
##NPOINTS=880
##XYDATA=(X++(Y..Y))
450.0 21 71 75 59 80 90 128 99 85 54
490.0 44 36 33 44 59 81 103 112 139 177
530.0 288 368 387 281 149 84 51 36 25 2
570.0 0 14 24 32 36 42 37 30 22 15
610.0 33 30 44 39 47 91 151 192 197 193
650.0 240 355 404 362 319 401 499 587 684 836
690.0 1143 1397 1588 1323 920 567 337 225 176 165
730.0 192 226 295 393 556 779 962 821 479 269
770.0 202 175 208 314 534 828 1046 986 710 406
810.0 213 105 69 60 56 57 60 60 70 101
850.0 148 172 158 123 104 125 170 279 503 871
890.0 1305 1605 1683 1601 1480 1316 1181 998 685 382
930.0 220 152 117 100 91 90 91 98 111 134
970.0 165 191 189 159 141 127 140 170 188 148
1010.0 116 117 154 230 292 249 165 134 141 164
1050.0 208 305 507 873 1343 1621 1465 1047 754 787
1090.0 1136 1234 835 478 363 357 394 459 567 806
1130.0 1302 2204 3645 5458 7036 6861 5142 3191 2257 2552
1170.0 3799 5564 6607 5520 3358 1884 1146 753 574 512
1210.0 520 582 726 926 1072 1009 795 635 576 528
1250.0 467 422 423 470 570 710 846 910 825 713
1290.0 717 827 1044 1454 2023 2388 2618 3688 6356 9578
1330.0 10000 6537 3309 1560 837 551 426 390 392 377
1370.0 327 270 202 157 160 149 165 181 171 184
1410.0 230 271 408 469 594 762 1079 1304 1230 1012
1450.0 961 1091 876 445 249 231 309 381 470 609
1490.0 645 541 457 324 273 216 141 121 136 97
1530.0 111 110 125 168 139 120 138 214 210 245
1570.0 382 619 1025 1404 1443 1221 985 838 798 902
1610.0 997 1039 970 882 1054 1698 2891 3747 3156 1880
1650.0 1189 865 617 529 434 363 310 221 227 202
1690.0 161 139 200 186 177 136 156 179 118 85
1730.0 103 145 89 83 100 123 100 108 101 84
1770.0 98 103 75 72 69 79 98 103 137 126
1810.0 128 111 85 84 84 84 59 40 50 59
1850.0 41 28 39 47 70 98 87 82 77 76
1890.0 80 77 72 62 49 37 33 33 44 43
1930.0 53 77 96 119 117 102 84 68 53 53
1970.0 49 41 26 14 8 16 11 7 2 4
2010.0 3 7 11 8 9 7 7 12 14 13
2050.0 12 14 17 22 33 35 43 51 57 53
2090.0 44 34 25 21 15 12 9 5 6 5
2130.0 4 4 4 4 4 4 2 0 2 3
2170.0 2 3 3 3 2 2 4 4 5 7
2210.0 7 8 10 10 10 11 11 12 14 14
2250.0 13 15 14 13 15 15 18 17 20 18
2290.0 16 15 15 12 15 17 23 27 23 14
2330.0 9 13 13 12 21 25 8 9 3 9
2370.0 14 19 20 19 18 13 10 8 9 6
2410.0 6 5 4 1 0 1 4 4 6 7
2450.0 8 11 11 14 15 18 18 18 20 19
2490.0 16 18 20 20 19 19 14 14 12 12
2530.0 12 10 11 13 12 11 13 9 9 6
2570.0 7 8 10 12 15 17 18 18 17 15
2610.0 12 8 9 7 9 11 10 9 12 15
2650.0 14 16 14 11 7 9 7 9 8 8
2690.0 9 11 9 8 10 11 17 18 23 24
2730.0 23 26 24 21 17 16 18 20 21 25
2770.0 26 28 27 30 31 33 35 36 38 41
2810.0 47 50 59 63 65 63 64 75 88 112
2850.0 142 178 211 242 277 318 356 379 366 320
2890.0 260 205 157 129 109 93 84 78 73 68
2930.0 68 65 65 64 63 60 59 59 62 66
2970.0 66 68 66 66 63 67 73 83 98 114
3010.0 132 150 171 208 260 335 414 447 419 369
3050.0 326 297 301 349 484 763 995 874 611 499
3090.0 470 404 333 278 238 200 152 101 69 51
3130.0 41 35 31 27 25 25 31 33 34 31
3170.0 23 18 16 12 15 17 15 22 22 18
3210.0 19 16 16 18 16 18 20 25 24 30
3250.0 34 35 36 35 34 32 21 12 10 10
3290.0 12 13 9 7 11 5 2 11 10 5
3330.0 8 7 10 8 5 4 5 9 13 14
3370.0 13 7 7 8 12 9 11 13 12 12
3410.0 16 13 10 9 13 13 13 8 8 11
3450.0 6 5 10 8 5 6 5 10 8 12
3490.0 11 8 14 13 12 17 12 12 12 5
3530.0 9 9 9 10 11 7 10 11 5 11
3570.0 9 14 18 9 8 0 3 9 7 9
3610.0 6 7 9 12 12 10 18 11 9 10
3650.0 15 18 10 22 13 17 11 13 13 14
3690.0 14 13 13 17 17 11 13 15 20 14
3730.0 12 4 9 11 10 11 11 13 14 12
3770.0 15 12 16 9 10 3 4 16 12 15
3810.0 10 12 16 13 14 8 3 5 14 13
3850.0 12 6 5 10 8 16 2 0 9 13
3890.0 11 9 9 2 16 9 20 13 19 13
3930.0 12 23 17 12 6 10 5 16 7 8
##END=
