##TITLE=Acetanilide, 4'-fluoro-
##JCAMP-DX=4.24
##DATA TYPE=INFRARED SPECTRUM
##ORIGIN=Sadtler Research Labs Under US-EPA Contract
##OWNER=NIST Standard Reference Data Program
##CAS REGISTRY NO=351-83-7
##MOLFORM=C 8 H 8 F N O
##XUNITS=1/CM
##YUNITS=ABSORBANCE
##XFACTOR=1.0
##YFACTOR=0.000041559
##DELTAX=4.0
##FIRSTX=450.0
##LASTX=3966.0
##FIRSTY=0.020031
##MAXX=3966
##MINX=450
##MAXY=0.41559
##MINY=0
##NPOINTS=880
##XYDATA=(X++(Y..Y))
450.0 482 314 218 339 241 186 301 335 494 629
490.0 1018 1294 1444 1476 1170 921 724 560 556 471
530.0 376 368 276 306 229 201 67 75 83 104
570.0 134 109 112 157 143 130 110 105 114 78
610.0 131 127 101 130 112 147 147 120 94 104
650.0 76 75 74 79 97 73 49 50 40 9
690.0 32 34 13 27 41 32 35 36 23 28
730.0 31 41 62 35 3 30 55 66 97 130
770.0 215 336 466 538 556 469 331 298 295 321
810.0 381 505 629 799 947 1063 1214 1200 1054 914
850.0 770 602 459 330 247 202 170 138 117 130
890.0 96 105 117 122 108 107 99 75 90 94
930.0 82 78 88 86 90 74 83 96 112 144
970.0 166 213 261 338 388 434 415 369 315 296
1010.0 326 301 288 247 196 182 156 188 185 179
1050.0 190 202 195 204 207 202 193 206 212 228
1090.0 265 276 289 287 297 271 246 215 188 149
1130.0 132 131 122 122 168 345 492 509 521 374
1170.0 227 213 234 260 311 400 542 775 1106 1585
1210.0 2221 3108 4171 5288 5588 5078 4037 2486 1508 1088
1250.0 738 528 426 440 491 579 685 791 864 922
1290.0 1027 1186 1282 1402 1481 1311 1130 897 664 495
1330.0 411 375 329 385 449 525 617 741 837 977
1370.0 1058 1003 890 827 813 965 1253 1501 1636 1552
1410.0 1261 944 672 622 572 567 492 499 470 471
1450.0 465 493 481 579 676 740 817 1017 1360 1574
1490.0 1982 2615 3588 5420 7927 9905 10000 8463 5488 2997
1530.0 1987 1583 1357 1156 999 911 706 528 414 430
1570.0 336 318 292 309 354 318 378 378 452 453
1610.0 462 408 279 280 194 245 146 156 153 140
1650.0 65 90 135 166 183 164 163 229 234 242
1690.0 386 499 562 780 1106 1676 2300 3031 3726 4107
1730.0 3889 3297 2879 2325 1675 1228 908 713 513 443
1770.0 308 218 206 159 144 98 84 87 67 86
1810.0 83 67 65 66 53 36 54 78 63 41
1850.0 73 87 79 81 70 50 79 85 80 66
1890.0 57 53 51 57 41 26 24 14 9 17
1930.0 27 21 29 6 13 16 20 12 9 1
1970.0 9 8 12 14 15 8 7 18 20 21
2010.0 31 24 21 31 27 33 32 29 17 20
2050.0 27 25 29 25 22 29 30 28 28 21
2090.0 19 16 8 13 15 17 12 12 13 18
2130.0 15 13 16 14 22 20 22 19 21 17
2170.0 16 10 13 10 11 8 12 14 14 8
2210.0 10 9 13 9 15 12 12 11 14 14
2250.0 22 20 21 26 19 22 19 25 24 29
2290.0 33 37 46 51 60 68 56 51 62 61
2330.0 61 55 39 80 65 77 86 68 88 70
2370.0 61 49 61 57 42 33 34 22 18 20
2410.0 7 15 10 8 8 12 17 19 24 28
2450.0 22 27 23 27 28 30 27 27 20 16
2490.0 20 19 18 20 16 17 15 20 17 15
2530.0 15 12 9 16 11 10 11 10 9 9
2570.0 7 4 8 4 9 7 8 6 4 4
2610.0 6 6 11 4 7 9 14 13 11 9
2650.0 7 6 11 15 18 14 13 16 17 11
2690.0 17 24 22 23 24 22 28 25 25 24
2730.0 21 29 27 21 15 25 25 17 18 20
2770.0 18 9 12 12 10 3 5 5 9 20
2810.0 21 24 22 18 22 31 31 32 39 40
2850.0 42 45 54 44 51 49 43 49 47 55
2890.0 63 55 63 65 64 69 75 86 94 110
2930.0 125 148 154 169 165 150 132 106 99 94
2970.0 91 94 87 84 85 85 89 86 106 105
3010.0 120 121 122 129 144 170 202 241 283 280
3050.0 260 230 187 155 132 127 131 130 126 124
3090.0 127 114 113 114 104 100 84 88 63 72
3130.0 56 52 50 45 35 20 22 18 21 14
3170.0 17 20 12 10 22 11 12 15 17 22
3210.0 13 21 19 16 3 15 16 15 15 26
3250.0 26 16 20 12 3 8 19 10 18 20
3290.0 21 27 19 12 8 18 19 25 16 16
3330.0 15 1 18 9 10 28 11 23 26 26
3370.0 25 15 25 44 48 35 33 64 59 64
3410.0 78 96 100 116 129 150 143 147 157 174
3450.0 195 206 243 280 293 274 237 230 194 120
3490.0 97 73 54 48 30 32 41 25 29 41
3530.0 41 42 39 24 36 23 33 35 32 19
3570.0 20 29 30 29 43 25 21 35 34 30
3610.0 11 24 13 31 25 30 47 78 80 77
3650.0 80 60 74 12 19 27 24 18 30 23
3690.0 14 47 35 30 40 15 29 19 24 40
3730.0 23 21 26 34 6 7 2 43 11 17
3770.0 31 30 21 8 27 12 29 9 15 0
3810.0 45 15 23 3 8 35 51 31 15 30
3850.0 25 34 24 30 18 15 32 25 7 12
3890.0 36 19 17 24 30 22 36 21 7 72
3930.0 47 63 28 49 35 29 34 51 25 48
##END=
