##TITLE=Propiophenone, 5-bromo-4-tert-butyl-2-hydroxy-,
##JCAMP-DX=4.24
##DATA TYPE=INFRARED SPECTRUM
##ORIGIN=Sadtler Research Labs Under US-EPA Contract
##OWNER=NIST Standard Reference Data Program
##CAS REGISTRY NO=35154-28-0
##MOLFORM=C 13 H 17 Br O 2
##XUNITS=1/CM
##YUNITS=ABSORBANCE
##XFACTOR=1.0
##YFACTOR=0.000100034
##DELTAX=4.0
##FIRSTX=450.0
##LASTX=3966.0
##FIRSTY=0.011204
##MAXX=3966
##MINX=450
##MAXY=1.00034
##MINY=0
##NPOINTS=880
##XYDATA=(X++(Y..Y))
450.0 112 86 139 208 300 333 356 236 99 46
490.0 14 2 18 37 34 24 39 53 46 55
530.0 106 160 209 246 228 154 114 85 87 77
570.0 100 120 167 250 297 306 252 186 152 135
610.0 126 182 248 324 369 440 522 697 817 758
650.0 661 501 392 296 282 278 279 273 300 309
690.0 350 438 472 490 495 504 532 534 512 507
730.0 525 594 711 830 886 881 854 864 861 877
770.0 836 785 724 671 627 538 456 386 363 365
810.0 421 445 415 344 284 211 165 148 123 114
850.0 117 116 112 133 174 252 376 522 778 959
890.0 743 439 236 165 195 242 355 501 632 650
930.0 556 402 267 209 207 257 371 603 919 1202
970.0 1351 1261 972 612 367 287 290 354 502 739
1010.0 1048 1269 1223 964 665 457 311 227 180 161
1050.0 153 165 196 239 309 396 521 630 702 726
1090.0 697 628 557 536 590 762 946 975 793 558
1130.0 419 351 320 319 336 371 423 462 523 612
1170.0 756 909 1073 1228 1441 1855 2597 3694 4815 5364
1210.0 4887 3841 2965 2553 2449 2395 2257 2084 2005 1992
1250.0 2069 2257 2729 3329 3553 2960 2006 1409 1242 1288
1290.0 1347 1355 1342 1411 1627 2020 2539 3143 3739 4149
1330.0 4316 4299 4248 4122 3937 3713 3625 3632 3633 3543
1370.0 3441 3118 2589 2221 1952 1623 1257 1082 1047 975
1410.0 853 738 739 734 700 642 653 737 905 1145
1450.0 1374 1529 1718 2019 2268 2294 1979 1587 1321 1183
1490.0 1050 871 753 671 648 629 615 629 656 717
1530.0 824 1052 1360 1729 1987 2039 1845 1582 1313 1101
1570.0 965 855 800 752 789 837 963 1159 1524 2012
1610.0 2552 2874 2712 2254 1795 1678 1685 1997 2568 3843
1650.0 5883 8437 10000 8348 5560 3130 1750 1112 772 611
1690.0 509 443 396 344 322 282 279 264 253 229
1730.0 225 216 197 200 212 244 261 262 220 169
1770.0 131 113 97 77 72 61 60 50 50 42
1810.0 39 32 32 34 29 32 28 35 32 39
1850.0 29 30 27 26 26 24 23 18 25 22
1890.0 27 23 27 28 26 26 23 27 24 24
1930.0 26 28 26 34 31 29 30 24 23 18
1970.0 18 12 13 9 12 10 8 9 6 8
2010.0 3 7 5 4 5 6 7 8 8 4
2050.0 8 7 5 2 4 8 2 3 6 4
2090.0 4 6 3 4 3 2 5 2 4 5
2130.0 7 1 7 4 7 6 3 1 7 9
2170.0 8 11 13 15 12 13 10 9 10 5
2210.0 11 8 10 4 4 4 5 2 5 6
2250.0 6 8 10 9 11 16 19 27 30 35
2290.0 44 52 55 60 67 66 57 57 60 59
2330.0 53 50 48 58 73 63 72 63 73 52
2370.0 56 62 64 61 56 52 49 50 50 48
2410.0 48 46 46 45 43 45 42 43 45 47
2450.0 49 55 55 56 57 60 61 63 68 64
2490.0 61 62 65 64 63 62 65 63 68 70
2530.0 72 74 74 77 78 83 84 86 90 91
2570.0 94 93 91 89 100 97 104 103 101 98
2610.0 100 103 101 100 99 100 99 101 107 111
2650.0 111 110 116 122 123 124 128 126 128 127
2690.0 129 129 135 140 148 148 158 162 177 191
2730.0 210 213 208 206 211 212 218 218 217 214
2770.0 212 213 208 213 213 219 221 234 238 242
2810.0 249 259 272 281 289 293 297 304 311 330
2850.0 347 371 404 468 548 682 876 1116 1326 1444
2890.0 1463 1413 1324 1260 1258 1338 1493 1687 1852 1920
2930.0 1923 1929 1935 1966 2106 2350 2534 2649 2808 3055
2970.0 3417 3851 4006 3506 2788 2314 1992 1608 1332 1263
3010.0 1251 1165 980 799 695 643 616 609 603 606
3050.0 618 625 630 645 659 666 678 679 687 699
3090.0 709 705 706 705 717 715 710 697 698 701
3130.0 699 699 693 700 697 708 702 694 691 682
3170.0 678 663 659 653 640 631 619 614 602 602
3210.0 583 579 584 581 575 572 565 561 555 550
3250.0 540 539 535 529 525 529 509 494 481 472
3290.0 464 467 467 467 467 457 442 434 425 408
3330.0 396 384 378 356 353 336 328 324 312 303
3370.0 296 284 277 281 271 263 257 251 244 241
3410.0 238 223 226 205 198 198 190 187 178 176
3450.0 161 156 152 145 136 132 131 122 118 116
3490.0 106 107 99 100 95 87 81 76 80 74
3530.0 67 61 65 64 53 63 45 57 49 52
3570.0 51 38 45 43 39 43 33 26 27 34
3610.0 30 19 21 37 32 23 21 22 30 22
3650.0 16 21 17 16 31 22 14 20 10 15
3690.0 18 16 4 11 11 2 21 13 7 8
3730.0 0 25 19 23 22 10 14 9 19 6
3770.0 2 5 17 21 20 14 3 8 18 14
3810.0 5 3 14 8 4 21 9 23 9 15
3850.0 16 20 10 17 19 7 9 16 14 19
3890.0 14 22 9 19 29 25 14 16 17 10
3930.0 11 6 3 1 11 27 31 21 13 11
##END=
