##TITLE=Propiophenone, 3-tert-butyl-4-methoxy-,
##JCAMP-DX=4.24
##DATA TYPE=INFRARED SPECTRUM
##ORIGIN=Sadtler Research Labs Under US-EPA Contract
##OWNER=NIST Standard Reference Data Program
##CAS REGISTRY NO=35154-05-3
##MOLFORM=C 14 H 20 O 2
##XUNITS=1/CM
##YUNITS=ABSORBANCE
##XFACTOR=1.0
##YFACTOR=0.000090234
##DELTAX=4.0
##FIRSTX=450.0
##LASTX=3966.0
##FIRSTY=0.011279
##MAXX=3966
##MINX=450
##MAXY=0.90234
##MINY=0
##NPOINTS=880
##XYDATA=(X++(Y..Y))
450.0 125 97 9 136 67 96 126 127 98 104
490.0 166 157 214 242 241 215 246 274 328 364
530.0 422 459 489 508 503 428 344 301 278 306
570.0 320 316 341 332 301 273 292 299 306 329
610.0 360 467 563 653 596 508 346 255 191 162
650.0 151 137 123 71 94 78 67 77 117 186
690.0 305 417 482 487 438 365 316 276 242 253
730.0 235 207 165 155 132 133 137 144 162 167
770.0 180 195 221 260 357 508 760 1102 1357 1399
810.0 1272 1071 903 792 695 542 378 285 232 237
850.0 301 398 500 526 466 378 328 274 248 248
890.0 293 339 321 277 258 270 306 342 365 381
930.0 405 434 485 568 710 844 950 1001 1041 1074
970.0 1069 1000 872 742 623 553 532 593 729 994
1010.0 1388 1825 2212 2605 3034 3320 3181 2575 1789 1133
1050.0 769 620 580 600 641 716 850 1128 1643 2485
1090.0 3293 3466 2840 1857 1125 769 598 509 490 489
1130.0 540 649 898 1300 1664 1799 1712 1556 1501 1627
1170.0 2067 2820 3566 3827 3598 3366 3618 4342 5463 7116
1210.0 8923 10000 9475 7866 6162 5256 5348 6083 7031 7737
1250.0 8160 8141 7652 6645 5507 4564 3921 3400 2905 2485
1290.0 2146 1880 1677 1567 1558 1614 1696 1745 1733 1679
1330.0 1634 1650 1728 1874 2037 2123 2119 2054 2065 2058
1370.0 1795 1418 1250 1330 1558 1772 1916 1944 1857 1657
1410.0 1355 1104 935 882 847 858 926 1143 1535 1874
1450.0 2100 2199 2400 2790 3125 3220 2964 2700 2798 3239
1490.0 3592 3655 3217 2539 1798 1221 910 704 586 515
1530.0 466 430 421 404 428 467 525 594 757 992
1570.0 1280 1524 1661 1835 2271 3207 4270 4858 4322 3125
1610.0 1925 1204 827 624 501 435 393 363 374 380
1650.0 412 453 532 616 714 842 978 1293 1822 3161
1690.0 5458 8063 9093 7814 4782 2564 1377 939 751 699
1730.0 608 522 434 364 323 307 320 286 239 174
1770.0 149 121 132 128 124 108 88 79 61 71
1810.0 61 63 61 64 57 48 58 67 71 71
1850.0 86 93 93 84 80 63 60 59 56 58
1890.0 62 73 76 90 85 78 62 51 39 31
1930.0 32 32 42 40 51 60 61 60 60 60
1970.0 56 54 54 50 45 37 30 26 25 28
2010.0 27 31 38 40 48 56 70 83 97 113
2050.0 125 128 127 117 103 85 62 46 33 26
2090.0 19 20 19 22 24 21 28 32 33 33
2130.0 27 20 11 9 4 8 5 8 14 20
2170.0 23 23 24 24 28 25 27 25 23 16
2210.0 20 19 16 15 15 11 5 5 4 2
2250.0 1 5 9 9 14 15 19 23 30 31
2290.0 38 41 42 44 41 41 38 42 39 43
2330.0 36 30 36 48 53 54 55 52 58 37
2370.0 51 51 54 53 42 39 36 38 33 32
2410.0 31 29 28 28 30 30 25 26 28 30
2450.0 30 35 38 39 42 49 52 54 62 59
2490.0 59 66 69 72 69 69 70 72 73 73
2530.0 83 84 92 96 100 103 95 94 83 83
2570.0 83 83 84 92 92 91 91 87 85 72
2610.0 68 65 59 54 52 49 50 51 54 57
2650.0 51 48 45 48 48 46 45 43 51 56
2690.0 61 59 65 67 70 79 93 105 112 115
2730.0 108 105 107 116 124 135 133 125 121 114
2770.0 120 129 143 157 173 188 198 219 239 258
2810.0 282 318 347 397 445 533 681 915 1176 1364
2850.0 1420 1367 1310 1321 1427 1659 1951 2211 2385 2499
2890.0 2533 2493 2446 2482 2676 3028 3455 3829 3984 3882
2930.0 3699 3596 3757 4312 5191 5887 6321 6590 6875 7262
2970.0 7386 7001 5812 4562 3713 3230 2941 2973 3223 3151
3010.0 2555 1726 1138 863 709 631 574 549 528 521
3050.0 521 527 541 553 556 554 562 552 536 519
3090.0 483 423 352 298 269 269 269 272 259 242
3130.0 210 181 164 157 146 143 137 136 126 124
3170.0 128 119 112 105 101 100 91 90 85 80
3210.0 66 63 59 57 56 49 47 34 34 33
3250.0 30 27 30 29 34 39 29 36 37 39
3290.0 27 34 41 39 35 33 30 30 25 31
3330.0 27 28 36 27 37 40 42 64 78 91
3370.0 116 121 119 117 94 75 54 40 39 41
3410.0 37 23 38 21 19 29 20 15 19 17
3450.0 24 21 16 17 17 18 26 13 18 29
3490.0 15 17 5 16 16 21 13 13 16 16
3530.0 10 11 20 12 5 15 8 11 7 12
3570.0 10 7 28 35 39 46 30 6 14 15
3610.0 12 7 8 12 11 12 15 4 18 8
3650.0 3 6 14 11 14 9 18 13 2 18
3690.0 11 10 1 12 5 5 16 8 15 10
3730.0 5 23 12 12 14 1 8 18 28 5
3770.0 1 1 10 19 4 7 10 2 1 4
3810.0 11 6 16 5 13 20 7 14 8 20
3850.0 8 18 9 15 7 23 10 20 9 21
3890.0 15 19 7 13 11 27 13 12 18 23
3930.0 18 17 0 12 1 12 22 20 16 22
##END=
