##TITLE=2-Propyn-1-amine, N-methyl-
##JCAMP-DX=4.24
##DATA TYPE=INFRARED SPECTRUM
##ORIGIN=Sadtler Research Labs Under US-EPA Contract
##OWNER=NIST Standard Reference Data Program
##CAS REGISTRY NO=35161-71-8
##MOLFORM=C 4 H 7 N
##XUNITS=1/CM
##YUNITS=ABSORBANCE
##XFACTOR=1.0
##YFACTOR=0.000084586
##DELTAX=4.0
##FIRSTX=450.0
##LASTX=3966.0
##FIRSTY=0.003299
##MAXX=3966
##MINX=450
##MAXY=0.84586
##MINY=0
##NPOINTS=880
##XYDATA=(X++(Y..Y))
450.0 39 36 139 104 13 37 42 103 16 58
490.0 70 115 104 162 140 150 168 195 251 256
530.0 288 322 418 473 555 609 655 691 688 744
570.0 682 664 609 601 520 523 568 689 851 1092
610.0 1401 1849 2323 3441 5268 5954 7879 7944 9666 10000
650.0 7389 4605 3769 3132 2816 2317 2111 2051 2095 2246
690.0 2465 2721 2985 3306 3699 3961 4268 4469 4576 4570
730.0 4402 4007 3626 3183 2671 2204 1717 1319 1071 871
770.0 726 627 556 507 424 401 361 362 326 323
810.0 297 275 264 247 246 217 223 204 215 225
850.0 245 269 286 332 376 475 536 601 676 817
890.0 982 1148 1265 1359 1401 1363 1440 1380 1120 850
930.0 695 561 476 456 462 493 541 622 686 729
970.0 722 702 639 602 555 440 350 259 216 183
1010.0 156 142 128 129 132 141 148 141 148 167
1050.0 170 187 200 213 243 266 307 352 431 566
1090.0 706 927 1205 1545 1887 2195 2532 2905 3248 3326
1130.0 3145 2882 2694 2522 2120 1648 1260 998 852 758
1170.0 709 614 513 400 322 248 216 195 181 194
1210.0 207 259 322 443 624 869 1142 1373 1494 1441
1250.0 1434 1581 1642 1527 1454 1331 1200 998 892 792
1290.0 693 646 572 559 581 698 846 1077 1211 1247
1330.0 1384 1518 1629 1760 1490 1200 1057 974 714 448
1370.0 302 217 184 159 162 152 157 164 184 204
1410.0 246 300 345 444 546 715 934 1276 1548 1683
1450.0 1675 1721 1844 1836 1767 1668 1450 1243 1136 1073
1490.0 971 822 644 487 379 283 234 185 157 139
1530.0 116 110 90 83 69 79 70 68 73 68
1570.0 68 75 75 75 67 70 72 79 76 81
1610.0 82 87 82 90 84 81 75 72 79 71
1650.0 62 72 59 59 60 51 50 50 43 53
1690.0 40 43 35 28 25 24 21 10 20 16
1730.0 9 7 12 2 0 3 8 10 9 11
1770.0 10 14 14 22 21 31 28 30 33 44
1810.0 42 49 56 54 60 56 67 65 72 66
1850.0 72 72 74 75 71 65 64 63 57 58
1890.0 50 43 38 30 27 23 17 17 9 12
1930.0 14 19 16 14 14 18 17 18 18 18
1970.0 18 19 18 21 20 22 24 25 30 30
2010.0 35 36 35 38 43 43 42 41 42 45
2050.0 41 48 48 47 46 47 51 50 52 51
2090.0 52 50 51 54 55 58 57 58 57 55
2130.0 53 46 42 34 29 24 20 17 15 13
2170.0 14 12 18 16 17 20 21 21 25 25
2210.0 25 28 27 29 28 32 32 30 28 30
2250.0 32 27 28 28 27 27 27 32 38 43
2290.0 45 54 65 70 72 78 66 73 68 56
2330.0 64 51 48 50 69 55 65 51 66 63
2370.0 68 61 65 60 51 38 32 33 37 39
2410.0 38 36 38 34 34 38 38 35 35 31
2450.0 33 36 33 30 27 25 23 22 19 22
2490.0 17 15 17 16 13 15 17 15 21 26
2530.0 31 32 32 43 47 49 53 56 59 60
2570.0 61 66 65 67 65 63 72 70 78 75
2610.0 78 75 78 81 81 86 86 86 92 93
2650.0 96 104 111 120 125 132 137 150 162 170
2690.0 163 163 166 162 160 157 158 165 168 180
2730.0 188 207 226 251 287 338 390 461 554 651
2770.0 783 942 1157 1402 1709 2021 2325 2646 2787 2825
2810.0 2761 2779 2778 2651 2465 2289 2161 2095 2095 2120
2850.0 2191 2260 2341 2409 2432 2417 2453 2475 2453 2485
2890.0 2582 2688 2779 2834 2849 2912 2967 3011 3042 3201
2930.0 3354 3492 3732 3800 3875 3954 3939 3775 3566 3328
2970.0 3166 3049 2723 2631 2465 2004 1948 1627 1253 941
3010.0 687 553 440 380 317 286 251 241 217 208
3050.0 207 199 189 183 179 170 170 165 156 149
3090.0 148 147 137 134 127 124 121 115 120 112
3130.0 116 110 116 106 112 107 99 98 102 93
3170.0 89 84 79 80 80 84 81 77 78 80
3210.0 85 81 83 75 79 70 74 67 68 73
3250.0 78 93 93 117 127 167 222 274 329 427
3290.0 605 847 1135 1288 1611 2144 3041 4126 4066 3807
3330.0 3513 3418 4226 3441 2129 1136 712 530 439 392
3370.0 286 238 181 187 144 130 115 100 90 77
3410.0 73 60 59 63 63 49 57 49 46 45
3450.0 38 47 35 47 41 52 44 36 42 33
3490.0 40 38 38 28 31 28 37 34 37 32
3530.0 28 39 30 32 34 34 25 31 32 24
3570.0 26 24 21 20 18 18 23 18 18 19
3610.0 18 25 33 19 16 45 20 25 19 34
3650.0 33 26 26 29 30 17 36 19 27 22
3690.0 19 28 18 24 13 29 35 39 15 26
3730.0 20 20 16 24 25 29 30 16 32 16
3770.0 21 28 34 31 32 21 12 21 35 34
3810.0 30 34 28 34 28 22 44 32 40 37
3850.0 33 36 42 32 45 46 31 30 29 47
3890.0 40 55 44 61 53 62 54 72 86 94
3930.0 103 87 109 100 116 120 118 89 70 65
##END=
