##TITLE=Benzene, 1-methoxy-4-(methylsulfonyl)-
##JCAMP-DX=4.24
##DATA TYPE=INFRARED SPECTRUM
##ORIGIN=Sadtler Research Labs Under US-EPA Contract
##OWNER=NIST Standard Reference Data Program
##CAS REGISTRY NO=3517-90-6
##MOLFORM=C 8 H 10 O 3 S
##XUNITS=1/CM
##YUNITS=ABSORBANCE
##XFACTOR=1.0
##YFACTOR=0.000088287
##DELTAX=4.0
##FIRSTX=450.0
##LASTX=3966.0
##FIRSTY=0.002560
##MAXX=3966
##MINX=450
##MAXY=0.88287
##MINY=0
##NPOINTS=880
##XYDATA=(X++(Y..Y))
450.0 29 81 92 134 108 262 271 403 520 413
490.0 371 337 370 334 480 567 836 1284 2012 2606
530.0 2773 2671 2351 2049 1667 1179 810 573 375 289
570.0 258 229 211 179 136 163 77 129 106 79
610.0 105 115 118 169 193 182 187 148 90 76
650.0 29 25 90 53 34 56 7 15 54 9
690.0 105 81 142 190 287 339 281 257 218 261
730.0 369 377 868 892 1307 1854 2333 1884 1406 874
770.0 534 351 220 244 307 496 787 1049 1168 976
810.0 653 614 625 684 772 872 977 948 805 568
850.0 391 247 175 193 141 121 128 130 153 112
890.0 105 142 144 136 96 73 107 121 116 132
930.0 159 211 403 581 958 1680 2106 2097 1506 696
970.0 291 222 148 145 119 111 159 151 222 247
1010.0 274 373 484 623 778 913 1009 967 863 670
1050.0 489 380 308 275 244 296 405 526 644 1046
1090.0 1345 1461 1427 1116 874 592 496 419 378 398
1130.0 476 621 997 1698 2725 4420 7473 10000 9920 7975
1170.0 4347 2119 1240 878 590 503 408 326 260 281
1210.0 306 322 359 418 446 611 796 1146 1702 2556
1250.0 3488 4233 4238 3654 2689 1886 1485 1300 1274 1315
1290.0 1524 1791 1990 2064 1925 1740 1576 1576 1538 1628
1330.0 1882 2455 3291 4247 4691 4478 3899 2724 1615 888
1370.0 520 364 296 253 243 239 241 262 266 312
1410.0 377 338 368 325 289 276 255 388 472 545
1450.0 574 588 547 595 645 763 789 824 892 1047
1490.0 1497 2058 2503 2380 1943 1076 515 280 134 93
1530.0 99 72 121 181 224 287 349 445 558 675
1570.0 912 1128 1320 1581 1843 2270 2797 3001 2813 2059
1610.0 1293 673 393 261 223 155 168 166 119 128
1650.0 148 134 129 107 111 114 116 90 107 112
1690.0 107 87 99 91 99 96 97 125 94 88
1730.0 100 107 86 71 89 84 53 77 75 81
1770.0 106 82 33 56 52 60 37 40 58 46
1810.0 41 34 37 36 33 8 32 25 23 33
1850.0 2 15 25 22 44 51 37 73 81 76
1890.0 93 107 81 90 99 77 90 65 57 42
1930.0 46 46 51 33 30 35 31 25 24 28
1970.0 9 15 12 23 20 15 9 20 13 24
2010.0 8 22 37 40 45 39 45 54 63 77
2050.0 90 114 119 107 103 90 82 61 52 44
2090.0 38 31 37 32 33 31 24 18 26 18
2130.0 15 16 9 3 12 6 0 6 0 2
2170.0 0 1 1 6 11 11 14 8 12 8
2210.0 10 6 6 10 6 8 13 19 23 28
2250.0 31 31 43 37 35 44 45 40 42 35
2290.0 38 41 40 30 33 30 31 15 18 20
2330.0 15 26 12 21 30 28 33 24 41 23
2370.0 37 30 26 34 31 27 30 29 31 30
2410.0 35 28 37 31 32 30 31 29 21 20
2450.0 25 25 26 19 21 18 19 22 24 30
2490.0 39 43 42 46 45 51 38 42 32 32
2530.0 36 45 48 57 67 79 90 93 82 84
2570.0 67 56 55 49 44 44 39 47 43 47
2610.0 44 38 37 31 26 23 24 22 24 19
2650.0 21 21 19 16 19 21 24 25 23 29
2690.0 30 27 24 18 13 18 14 22 20 23
2730.0 26 25 32 33 36 33 34 38 35 34
2770.0 27 30 31 35 34 40 43 47 43 56
2810.0 60 65 76 87 95 116 149 197 289 391
2850.0 439 431 343 236 173 145 135 124 121 126
2890.0 136 154 164 186 233 282 309 319 324 331
2930.0 331 341 393 460 560 626 645 633 577 526
2970.0 484 427 368 291 249 220 207 215 257 333
3010.0 435 558 589 519 368 246 181 144 124 118
3050.0 90 94 87 102 112 146 189 228 248 231
3090.0 186 143 126 127 112 104 70 71 60 49
3130.0 42 44 47 47 39 44 51 54 44 33
3170.0 35 38 31 28 24 35 37 23 28 29
3210.0 25 15 26 28 12 16 21 24 25 19
3250.0 18 28 27 10 21 29 18 15 9 19
3290.0 18 14 22 12 21 13 6 21 13 14
3330.0 34 15 28 32 27 23 28 27 36 26
3370.0 22 28 18 20 23 27 19 21 26 14
3410.0 21 32 27 43 24 33 26 36 25 22
3450.0 25 14 24 20 19 38 21 19 49 49
3490.0 39 25 21 26 36 38 43 24 35 35
3530.0 39 20 46 41 45 40 29 35 32 35
3570.0 24 41 44 31 34 29 23 33 44 43
3610.0 46 52 28 40 33 25 37 40 39 39
3650.0 12 45 35 54 36 55 34 28 38 35
3690.0 52 32 37 25 32 42 35 39 40 53
3730.0 48 43 45 33 32 45 24 20 28 33
3770.0 15 21 56 80 49 57 27 40 41 37
3810.0 38 31 9 18 40 40 52 15 9 35
3850.0 55 47 54 57 30 52 67 58 47 51
3890.0 45 85 95 56 20 28 63 59 56 8
3930.0 14 43 59 82 40 64 11 46 67 86
##END=
