##TITLE=1-Nonen-4-ol
##JCAMP-DX=4.24
##DATA TYPE=INFRARED SPECTRUM
##ORIGIN=Sadtler Research Labs Under US-EPA Contract
##OWNER=NIST Standard Reference Data Program
##CAS REGISTRY NO=35192-73-5
##MOLFORM=C 9 H 18 O
##XUNITS=1/CM
##YUNITS=ABSORBANCE
##XFACTOR=1.0
##YFACTOR=0.000095483
##DELTAX=4.0
##FIRSTX=450.0
##LASTX=3966.0
##FIRSTY=0.015182
##MAXX=3966
##MINX=450
##MAXY=0.95483
##MINY=0
##NPOINTS=880
##XYDATA=(X++(Y..Y))
450.0 159 140 136 90 132 111 94 43 103 100
490.0 131 138 91 101 66 112 116 102 107 109
530.0 126 88 120 105 69 59 64 44 40 51
570.0 19 21 17 7 17 31 22 50 48 74
610.0 93 122 122 142 191 191 244 232 256 225
650.0 213 173 136 83 67 60 33 59 74 62
690.0 47 48 67 73 84 86 84 103 130 142
730.0 173 155 126 80 53 26 37 31 67 79
770.0 73 61 55 50 30 26 31 28 31 68
810.0 70 90 119 135 145 158 178 218 237 283
850.0 333 363 401 418 414 414 396 370 362 361
890.0 390 423 503 649 932 1389 1931 2250 2209 1844
930.0 1449 1150 925 789 702 647 601 592 564 560
970.0 571 611 712 875 1117 1392 1635 1719 1652 1509
1010.0 1394 1389 1454 1553 1630 1693 1693 1664 1571 1469
1050.0 1361 1280 1214 1170 1127 1095 1073 1034 1003 949
1090.0 888 826 768 728 719 742 769 816 849 871
1130.0 854 807 737 659 574 497 436 390 372 369
1170.0 385 411 454 497 534 574 611 639 659 673
1210.0 681 684 684 696 705 717 733 739 754 759
1250.0 778 794 802 795 787 767 748 727 711 690
1290.0 662 644 617 595 564 536 499 473 460 461
1330.0 473 508 559 626 703 763 810 845 885 920
1370.0 940 1001 1082 1172 1200 1181 1075 957 847 740
1410.0 666 612 598 590 615 669 778 904 994 1019
1450.0 1010 991 1009 1045 1015 943 788 616 442 319
1490.0 236 179 154 126 125 101 94 84 88 75
1530.0 71 69 66 62 53 67 55 58 54 46
1570.0 49 48 50 48 47 50 51 56 61 65
1610.0 80 95 120 147 192 291 464 704 852 801
1650.0 620 353 190 126 83 67 58 47 41 42
1690.0 38 32 39 29 31 22 23 0 8 2
1730.0 6 20 19 17 15 15 22 21 20 27
1770.0 25 25 24 29 37 33 32 28 33 34
1810.0 35 42 56 77 108 144 178 197 195 182
1850.0 154 127 94 67 47 34 36 28 28 26
1890.0 30 23 28 24 29 27 24 26 21 21
1930.0 21 18 18 18 16 19 18 18 22 18
1970.0 23 27 29 29 34 32 25 28 23 22
2010.0 20 22 17 19 20 24 24 25 21 20
2050.0 21 19 19 18 16 14 15 15 17 12
2090.0 10 15 13 12 12 13 13 11 11 11
2130.0 12 13 15 10 10 6 8 8 9 7
2170.0 6 7 11 7 7 6 4 6 9 9
2210.0 9 7 7 7 4 8 9 3 3 1
2250.0 2 4 5 8 5 7 12 10 14 22
2290.0 25 24 30 28 33 40 48 46 52 48
2330.0 46 34 28 37 13 35 27 36 4 1
2370.0 1 1 3 14 18 18 17 20 23 19
2410.0 22 20 22 22 23 25 22 24 20 18
2450.0 14 15 16 22 16 18 18 23 19 21
2490.0 22 21 23 20 20 23 23 24 28 28
2530.0 29 33 33 40 37 37 36 42 43 46
2570.0 50 51 54 58 59 58 63 60 66 67
2610.0 69 69 71 77 81 82 84 89 91 97
2650.0 100 104 110 116 121 132 138 142 145 146
2690.0 147 144 141 141 139 139 132 132 134 136
2730.0 144 152 165 173 185 177 177 173 175 180
2770.0 187 195 205 215 230 245 260 279 298 323
2810.0 349 384 431 481 558 646 766 913 1123 1404
2850.0 1795 2302 2906 3499 3975 4249 4250 4200 4032 3777
2890.0 3443 3117 3015 3225 3648 4226 4945 5738 6700 7766
2930.0 8862 9624 10000 9588 8541 7164 5951 5363 5419 5973
2970.0 6122 5514 4336 3076 2279 1840 1525 1282 1127 1052
3010.0 991 917 809 698 586 492 425 378 349 333
3050.0 320 331 352 389 445 534 656 831 1140 1402
3090.0 1368 1134 704 384 253 175 146 122 124 105
3130.0 100 92 89 83 78 77 68 68 70 59
3170.0 57 58 54 52 50 42 46 41 38 37
3210.0 28 29 21 19 16 10 11 12 7 13
3250.0 12 6 8 10 13 5 11 9 10 12
3290.0 8 15 8 1 8 9 13 16 11 12
3330.0 11 15 13 13 13 12 12 17 14 20
3370.0 15 13 13 16 30 15 17 18 19 28
3410.0 18 19 18 25 23 20 18 23 22 17
3450.0 24 13 12 3 9 14 11 12 18 3
3490.0 13 13 11 2 6 4 9 12 8 6
3530.0 6 5 10 14 23 3 5 15 9 14
3570.0 21 19 29 42 48 46 75 93 139 195
3610.0 290 416 518 545 515 437 394 384 405 435
3650.0 494 519 505 446 339 234 159 105 86 56
3690.0 39 28 31 22 32 10 16 25 12 10
3730.0 14 5 19 2 27 0 3 11 1 6
3770.0 10 8 10 7 1 3 6 17 9 15
3810.0 15 22 1 10 11 8 18 15 6 14
3850.0 6 22 2 13 13 8 15 25 15 15
3890.0 9 14 5 13 13 15 12 7 1 5
3930.0 3 4 3 6 1 1 1 1 2 5
##END=
