##TITLE=Benzene, 1-fluoro-3-methyl-
##JCAMP-DX=4.24
##DATA TYPE=INFRARED SPECTRUM
##ORIGIN=Sadtler Research Labs Under US-EPA Contract
##OWNER=NIST Standard Reference Data Program
##CAS REGISTRY NO=352-70-5
##MOLFORM=C 7 H 7 F
##XUNITS=1/CM
##YUNITS=ABSORBANCE
##XFACTOR=1.0
##YFACTOR=0.000047305
##DELTAX=4.0
##FIRSTX=450.0
##LASTX=3966.0
##FIRSTY=0.036567
##MAXX=3966
##MINX=450
##MAXY=0.47305
##MINY=0
##NPOINTS=880
##XYDATA=(X++(Y..Y))
450.0 773 850 634 415 229 165 154 146 159 145
490.0 56 136 124 246 333 260 535 1039 1270 1007
530.0 943 993 704 348 175 80 46 79 74 48
570.0 17 55 33 52 63 38 51 43 60 1
610.0 28 53 55 72 59 60 80 96 83 50
650.0 71 134 341 707 1106 1558 1709 2293 4817 2091
690.0 1765 1636 1167 750 404 284 375 760 1142 1090
730.0 1268 1187 1208 712 482 695 1271 2193 3168 3905
770.0 4788 8189 8577 4510 4262 3609 2381 1222 513 242
810.0 159 171 196 160 176 190 291 487 738 951
850.0 1184 1803 2661 1621 1542 1449 1297 1062 1215 1474
890.0 894 689 675 697 834 1190 2031 3395 4280 4145
930.0 4184 3883 3194 1378 544 371 313 298 302 356
970.0 388 460 561 645 755 891 1021 1042 998 897
1010.0 756 548 351 217 153 142 171 201 272 367
1050.0 367 367 410 418 458 518 568 500 475 520
1090.0 426 320 236 222 252 300 353 457 607 965
1130.0 1906 3883 5731 5306 5976 5818 5641 2697 936 429
1170.0 250 164 119 114 96 75 63 91 148 219
1210.0 251 284 320 393 522 762 1085 1622 2537 3492
1250.0 4007 5165 7269 9695 10000 9935 9782 8502 5113 2834
1290.0 1498 762 416 272 204 176 166 177 170 169
1330.0 187 181 228 208 159 165 174 201 236 230
1370.0 241 296 352 377 417 476 534 565 559 645
1410.0 776 866 1093 1279 1583 1870 2228 2631 3170 3638
1450.0 3800 3864 3756 3446 2857 2432 2591 3676 5473 6803
1490.0 7465 7263 7321 6460 4883 3698 3109 2911 2807 2672
1530.0 2507 2142 1944 1813 1626 1429 1454 1661 1796 2067
1570.0 2614 3484 4478 5438 6476 7526 8141 8011 7730 8259
1610.0 8677 8586 7985 7368 6273 5014 3382 1960 1048 554
1650.0 415 340 310 350 387 339 344 232 274 188
1690.0 104 83 176 192 206 179 238 324 282 298
1730.0 393 487 405 386 416 367 228 159 116 80
1770.0 105 105 69 74 67 63 72 61 92 65
1810.0 95 116 108 115 128 146 147 175 236 267
1850.0 236 205 195 157 143 148 123 101 97 55
1890.0 39 35 37 58 98 154 227 295 335 283
1930.0 288 288 196 133 64 23 10 13 11 30
1970.0 27 19 22 32 39 65 75 67 72 79
2010.0 67 55 48 31 23 28 34 52 71 83
2050.0 79 80 76 75 80 63 61 67 56 35
2090.0 27 29 23 34 35 43 35 37 31 30
2130.0 23 24 20 27 28 28 27 29 22 29
2170.0 28 33 44 53 66 77 76 79 69 51
2210.0 31 22 19 20 19 17 15 12 12 8
2250.0 8 2 2 7 10 12 27 40 55 64
2290.0 79 94 106 108 146 177 170 168 152 115
2330.0 93 60 9 22 42 75 42 39 1 17
2370.0 29 60 71 100 97 85 83 97 111 135
2410.0 144 144 155 139 116 95 82 79 71 55
2450.0 45 43 44 33 29 28 27 23 23 23
2490.0 23 28 34 34 44 49 61 67 65 80
2530.0 84 84 79 71 61 52 51 43 48 51
2570.0 51 51 48 54 48 50 46 50 48 38
2610.0 34 37 32 31 38 29 31 32 33 30
2650.0 32 30 30 32 24 19 21 19 21 15
2690.0 23 30 33 38 41 45 44 55 62 74
2730.0 96 125 157 171 183 187 192 152 107 85
2770.0 74 60 55 49 54 59 54 64 69 72
2810.0 80 96 108 121 139 167 199 225 261 312
2850.0 372 441 549 706 893 1107 1284 1354 1347 1305
2890.0 1234 1106 1027 1036 1112 1245 1440 1734 2157 2583
2930.0 2848 2988 3017 2899 2608 2285 1853 1549 1323 1175
2970.0 1074 968 917 941 980 1012 1039 1080 1131 1203
3010.0 1279 1289 1292 1383 1573 1842 2174 2437 2677 2811
3050.0 2802 2736 2649 2559 2344 2092 1940 1903 1856 1704
3090.0 1574 1428 1157 862 652 524 444 385 322 271
3130.0 220 153 104 76 51 45 31 25 24 17
3170.0 12 3 7 2 8 2 4 0 2 6
3210.0 1 2 0 3 6 7 12 13 11 12
3250.0 1 9 21 25 24 20 27 15 38 33
3290.0 34 33 29 31 25 34 28 27 32 24
3330.0 33 32 22 23 32 22 20 27 30 35
3370.0 21 25 25 30 25 32 30 24 24 29
3410.0 21 23 21 15 28 18 34 15 23 25
3450.0 28 31 29 25 24 17 27 25 15 21
3490.0 21 31 35 15 33 44 25 20 20 33
3530.0 24 25 24 33 42 37 28 34 37 40
3570.0 55 38 32 39 42 41 40 45 25 34
3610.0 37 39 24 14 20 14 4 22 31 20
3650.0 32 31 28 21 13 32 32 13 32 33
3690.0 6 21 7 11 34 12 14 22 17 24
3730.0 15 13 30 21 25 29 33 55 60 48
3770.0 58 67 74 67 53 43 38 45 49 49
3810.0 43 34 44 37 51 44 25 41 23 29
3850.0 42 34 46 35 54 61 55 51 42 32
3890.0 55 55 48 53 55 51 56 45 64 59
3930.0 54 50 74 43 63 60 77 44 54 48
##END=
