##TITLE=Benzene, 1-(chloromethyl)-4-fluoro-
##JCAMP-DX=4.24
##DATA TYPE=INFRARED SPECTRUM
##ORIGIN=Sadtler Research Labs Under US-EPA Contract
##OWNER=NIST Standard Reference Data Program
##CAS REGISTRY NO=352-11-4
##MOLFORM=C 7 H 6 Cl F
##XUNITS=1/CM
##YUNITS=ABSORBANCE
##XFACTOR=1.0
##YFACTOR=0.000064172
##DELTAX=4.0
##FIRSTX=450.0
##LASTX=3966.0
##FIRSTY=0.006481
##MAXX=3966
##MINX=450
##MAXY=0.64172
##MINY=0
##NPOINTS=880
##XYDATA=(X++(Y..Y))
450.0 101 48 165 323 498 595 608 485 325 189
490.0 136 145 210 287 411 559 749 889 930 836
530.0 593 369 173 31 30 25 0 46 37 41
570.0 89 77 61 98 104 101 107 27 80 67
610.0 99 89 99 92 107 113 95 143 168 212
650.0 302 425 561 694 884 1259 1502 1649 1617 1347
690.0 922 647 471 363 348 369 460 592 808 1127
730.0 1550 1859 1878 1642 1289 911 729 631 535 483
770.0 434 362 299 290 291 303 293 354 448 632
810.0 842 1116 1402 1684 1924 2022 2128 2277 2418 2579
850.0 2269 1888 1253 587 294 208 183 196 190 183
890.0 182 155 143 120 107 99 107 101 109 98
930.0 91 77 62 45 45 31 26 38 27 29
970.0 16 17 23 7 16 24 32 32 44 86
1010.0 206 264 230 215 111 40 37 35 50 58
1050.0 58 60 68 60 77 105 149 202 264 317
1090.0 368 401 380 340 299 225 164 125 95 77
1130.0 78 82 84 113 198 492 1306 1625 1576 1471
1170.0 601 197 155 153 163 151 147 164 202 273
1210.0 392 595 920 1527 2414 3831 6495 9622 10000 8882
1250.0 5840 2366 1283 1271 1477 1476 1435 1194 893 750
1290.0 661 547 451 379 353 320 292 262 249 231
1330.0 214 193 147 134 139 126 126 98 89 82
1370.0 72 49 50 69 65 76 93 101 151 188
1410.0 176 201 140 171 151 177 157 178 246 297
1450.0 338 344 295 295 261 211 130 123 161 168
1490.0 235 468 921 1949 3722 5985 7449 7237 5427 3272
1530.0 1454 579 286 152 136 137 104 46 104 165
1570.0 219 275 376 479 595 687 817 1024 1454 1919
1610.0 2330 2350 1908 1467 984 660 436 319 273 217
1650.0 132 103 109 98 75 53 23 61 17 9
1690.0 34 48 5 19 44 80 64 41 99 121
1730.0 94 48 76 74 85 112 192 232 229 226
1770.0 151 87 74 53 42 24 11 17 6 31
1810.0 35 26 41 29 13 15 27 36 26 7
1850.0 42 61 64 81 95 114 161 188 193 200
1890.0 197 168 154 132 106 87 70 60 45 48
1930.0 39 41 34 18 25 39 37 35 38 39
1970.0 43 37 45 44 54 46 56 71 75 74
2010.0 70 65 47 42 37 36 37 28 34 28
2050.0 37 31 37 35 31 42 43 51 66 73
2090.0 72 74 54 48 30 22 27 21 20 20
2130.0 26 27 19 26 18 21 23 19 23 16
2170.0 27 25 25 18 17 17 26 23 17 16
2210.0 26 19 19 17 16 31 24 23 32 39
2250.0 39 39 47 47 45 45 41 37 36 32
2290.0 16 21 10 17 5 1 5 2 13 14
2330.0 5 15 29 46 24 1 1 11 30 13
2370.0 26 38 30 27 34 39 40 48 57 56
2410.0 42 39 31 25 36 23 39 39 41 41
2450.0 51 57 65 73 81 88 90 93 86 70
2490.0 59 38 28 19 19 19 20 20 21 27
2530.0 35 28 29 19 29 29 29 36 37 44
2570.0 52 59 53 55 50 32 38 37 32 29
2610.0 40 38 38 39 39 38 38 39 37 35
2650.0 35 31 37 39 48 48 40 31 23 24
2690.0 24 25 27 36 39 47 50 48 48 63
2730.0 48 40 41 31 42 39 38 32 32 28
2770.0 26 26 25 25 34 27 32 32 38 32
2810.0 43 43 34 35 41 42 36 36 36 42
2850.0 43 57 59 70 80 97 112 125 129 138
2890.0 121 113 96 81 75 64 56 57 56 63
2930.0 73 89 121 146 176 216 274 343 417 488
2970.0 519 508 470 402 348 289 254 254 278 294
3010.0 316 317 287 256 224 202 221 260 355 472
3050.0 570 574 517 396 317 254 244 263 244 245
3090.0 227 163 129 94 86 78 87 95 103 95
3130.0 116 88 80 87 59 52 35 34 34 35
3170.0 34 23 29 36 34 34 29 32 32 34
3210.0 34 34 32 34 34 31 30 24 34 17
3250.0 35 29 22 25 24 15 22 31 21 26
3290.0 24 26 26 15 26 34 20 22 7 30
3330.0 22 16 24 30 31 19 15 22 20 13
3370.0 12 34 1 9 9 31 23 18 6 8
3410.0 36 20 12 31 35 27 27 5 12 15
3450.0 25 31 24 20 31 26 30 22 29 23
3490.0 31 39 31 15 29 29 17 25 37 28
3530.0 25 36 29 14 22 16 22 32 32 25
3570.0 29 42 36 42 52 53 46 53 45 39
3610.0 41 45 35 46 37 40 39 34 53 38
3650.0 40 31 48 54 46 35 37 49 40 39
3690.0 40 42 40 32 35 43 44 44 56 50
3730.0 53 53 45 49 34 39 52 46 47 48
3770.0 41 46 51 54 47 54 41 39 41 42
3810.0 42 36 39 38 47 46 42 43 45 36
3850.0 34 25 31 48 44 45 45 45 41 49
3890.0 48 34 42 45 40 45 50 58 60 54
3930.0 46 31 34 25 38 35 21 31 41 37
##END=
