##TITLE=Benzene, 1-chloro-4-fluoro-
##JCAMP-DX=4.24
##DATA TYPE=INFRARED SPECTRUM
##ORIGIN=Sadtler Research Labs Under US-EPA Contract
##OWNER=NIST Standard Reference Data Program
##CAS REGISTRY NO=352-33-0
##MOLFORM=C 6 H 4 Cl F
##XUNITS=1/CM
##YUNITS=ABSORBANCE
##XFACTOR=1.0
##YFACTOR=0.000086768
##DELTAX=4.0
##FIRSTX=450.0
##LASTX=3966.0
##FIRSTY=0.001041
##MAXX=3966
##MINX=450
##MAXY=0.86768
##MINY=0
##NPOINTS=880
##XYDATA=(X++(Y..Y))
450.0 12 18 26 98 149 215 278 385 527 626
490.0 750 907 758 706 658 471 380 228 180 145
530.0 47 101 63 61 60 62 75 87 144 106
570.0 66 109 41 37 43 101 116 142 141 89
610.0 92 214 336 799 1763 2916 3050 2716 2375 1045
650.0 129 5 22 97 126 215 129 187 182 128
690.0 220 156 90 98 61 61 61 61 86 136
730.0 176 181 303 290 311 549 366 257 233 185
770.0 97 79 62 62 103 138 154 223 439 682
810.0 1138 1572 1951 2365 2949 4040 2317 2236 1839 1270
850.0 768 401 231 157 126 121 134 93 87 115
890.0 101 106 89 94 83 98 78 48 64 80
930.0 98 108 64 68 70 73 98 73 71 73
970.0 84 70 67 80 87 101 130 177 285 469
1010.0 602 556 519 505 288 194 143 103 84 105
1050.0 95 113 161 189 269 313 372 647 1301 2535
1090.0 3466 3563 3542 2902 820 169 141 148 157 148
1130.0 141 134 157 196 409 636 603 604 609 279
1170.0 101 64 79 97 122 134 140 180 224 310
1210.0 375 457 577 943 2030 4173 6405 6874 6858 6258
1250.0 2416 589 378 384 420 449 474 374 280 201
1290.0 158 154 141 121 97 88 83 88 93 89
1330.0 65 94 75 82 85 91 98 90 87 86
1370.0 76 81 88 82 80 106 116 114 108 104
1410.0 132 182 246 300 329 346 273 206 183 154
1450.0 146 174 235 307 388 509 797 1563 3359 6812
1490.0 10000 9727 9121 7514 2919 919 705 771 680 567
1530.0 481 313 200 121 101 125 114 102 103 122
1570.0 127 171 222 331 545 821 1084 1184 1122 812
1610.0 449 305 253 230 230 214 215 223 177 136
1650.0 107 78 77 65 62 63 58 63 59 54
1690.0 51 55 56 50 55 58 78 89 100 107
1730.0 110 118 141 150 152 140 129 98 70 65
1770.0 48 50 53 61 64 66 59 60 48 48
1810.0 48 42 49 48 49 56 52 58 60 69
1850.0 90 108 147 195 235 267 264 249 250 192
1890.0 138 102 84 68 64 56 58 50 45 45
1930.0 41 43 50 44 40 44 40 43 49 43
1970.0 44 43 48 37 37 35 41 33 38 35
2010.0 31 37 31 42 43 42 48 54 63 73
2050.0 89 88 81 82 66 54 64 58 52 47
2090.0 39 29 33 36 27 36 28 28 28 29
2130.0 29 28 28 28 34 32 27 35 26 34
2170.0 29 27 33 27 27 32 27 26 33 26
2210.0 29 32 26 37 36 42 42 49 48 49
2250.0 49 42 42 40 37 31 27 25 31 25
2290.0 31 35 35 47 42 41 34 23 14 12
2330.0 5 1 6 6 6 1 1 1 1 1
2370.0 2 14 26 32 41 41 44 50 39 34
2410.0 33 31 46 33 38 39 32 32 33 37
2450.0 37 44 43 55 61 67 72 58 53 27
2490.0 19 20 24 30 25 24 19 24 24 19
2530.0 19 21 21 28 30 34 36 29 36 34
2570.0 29 17 22 19 21 18 14 17 17 17
2610.0 17 17 16 17 17 11 16 18 16 17
2650.0 15 15 18 11 15 10 15 16 16 15
2690.0 15 15 15 15 15 15 14 14 14 14
2730.0 15 13 13 12 14 14 14 14 14 14
2770.0 12 2 13 13 14 14 8 12 10 9
2810.0 14 11 15 15 15 20 25 20 37 27
2850.0 47 45 48 37 30 24 15 16 16 16
2890.0 10 17 17 16 8 17 4 2 8 20
2930.0 20 6 2 1 7 13 1 4 6 1
2970.0 7 9 11 18 15 13 20 19 20 14
3010.0 18 21 15 19 23 19 25 36 52 64
3050.0 93 122 128 134 116 107 95 125 142 143
3090.0 149 146 128 118 119 107 95 78 56 40
3130.0 19 20 22 19 20 6 19 23 12 13
3170.0 18 9 20 9 16 23 12 27 7 13
3210.0 14 8 20 13 27 13 20 20 11 19
3250.0 10 24 8 11 10 20 27 10 18 21
3290.0 11 26 17 25 22 27 16 15 28 28
3330.0 22 27 27 24 18 18 13 24 18 14
3370.0 30 24 24 23 20 18 28 32 18 12
3410.0 15 25 22 33 18 20 25 32 19 20
3450.0 21 15 19 18 20 29 15 17 25 11
3490.0 26 33 27 21 14 22 28 25 13 32
3530.0 20 23 27 28 22 11 28 30 25 20
3570.0 28 27 19 21 11 4 7 25 30 13
3610.0 25 22 9 29 25 13 17 19 29 32
3650.0 26 15 31 26 32 28 28 25 27 34
3690.0 34 38 27 27 32 33 26 28 23 31
3730.0 40 26 31 18 22 35 34 39 34 35
3770.0 24 27 34 23 17 33 38 32 25 28
3810.0 29 31 25 30 29 30 24 21 13 19
3850.0 27 25 24 27 21 27 31 22 21 33
3890.0 38 39 17 23 36 30 22 17 16 10
3930.0 23 16 24 33 16 12 0 1 1 1
##END=
