##TITLE=Hexane, 2,2,5-trimethyl-
##JCAMP-DX=4.24
##DATA TYPE=INFRARED SPECTRUM
##ORIGIN=Sadtler Research Labs Under US-EPA Contract
##OWNER=NIST Standard Reference Data Program
##CAS REGISTRY NO=3522-94-9
##MOLFORM=C 9 H 20
##XUNITS=1/CM
##YUNITS=ABSORBANCE
##XFACTOR=1.0
##YFACTOR=0.000050412
##DELTAX=4.0
##FIRSTX=450.0
##LASTX=3966.0
##FIRSTY=0.000000
##MAXX=3966
##MINX=450
##MAXY=0.50412
##MINY=0
##NPOINTS=880
##XYDATA=(X++(Y..Y))
450.0 0 41 33 44 21 11 31 29 17 21
490.0 38 38 27 16 26 26 13 13 9 6
530.0 8 29 37 35 16 49 49 19 19 60
570.0 23 35 21 43 18 21 35 36 21 24
610.0 32 24 25 26 27 24 26 31 37 20
650.0 18 27 30 28 8 34 30 10 21 29
690.0 29 24 25 27 29 14 34 27 27 25
730.0 35 34 25 43 52 54 45 49 56 47
770.0 34 44 44 34 26 45 16 19 23 36
810.0 24 23 35 44 24 14 63 33 24 25
850.0 28 23 17 25 21 30 25 24 24 24
890.0 24 36 52 66 91 118 140 131 131 125
930.0 105 72 73 61 52 42 54 38 29 23
970.0 30 21 21 24 23 23 21 21 21 21
1010.0 21 34 33 34 28 32 33 21 23 32
1050.0 23 23 23 23 23 21 21 21 21 21
1090.0 40 33 41 72 72 80 83 85 76 66
1130.0 62 50 44 42 49 71 90 112 151 171
1170.0 169 149 132 122 109 127 166 195 210 211
1210.0 199 159 119 123 123 143 197 280 358 404
1250.0 400 336 235 141 99 89 81 80 92 91
1290.0 79 74 82 81 88 99 129 149 191 241
1330.0 271 277 240 214 208 238 341 552 834 1136
1370.0 1329 1290 1151 938 781 717 673 554 436 310
1410.0 174 122 110 99 99 119 141 151 185 238
1450.0 315 419 585 794 985 1166 1295 1254 1071 854
1490.0 564 329 203 132 94 75 54 40 39 41
1530.0 30 21 30 21 21 21 21 21 8 21
1570.0 21 21 9 21 21 20 20 20 20 20
1610.0 20 20 15 11 17 21 12 10 21 20
1650.0 11 0 23 21 14 20 20 20 13 21
1690.0 21 21 11 21 20 18 23 20 21 17
1730.0 18 20 14 12 11 12 11 11 12 12
1770.0 12 5 11 12 1 12 12 11 2 12
1810.0 12 2 11 12 12 1 12 11 5 2
1850.0 10 12 12 11 13 13 13 13 13 11
1890.0 12 1 12 12 2 12 12 2 2 13
1930.0 13 2 6 12 12 12 13 13 14 3
1970.0 13 13 12 5 13 13 14 8 13 14
2010.0 3 14 14 13 4 12 14 2 3 15
2050.0 14 3 5 11 14 2 14 14 13 12
2090.0 15 14 15 7 14 15 16 12 14 15
2130.0 4 5 13 5 4 6 6 6 4 5
2170.0 5 6 6 14 5 6 6 8 4 6
2210.0 9 10 6 6 6 6 5 5 6 6
2250.0 6 8 13 7 7 18 17 10 19 20
2290.0 23 15 28 29 30 24 27 28 13 16
2330.0 26 19 14 12 21 19 15 17 30 34
2370.0 17 29 33 30 12 19 17 17 8 17
2410.0 8 8 8 8 8 3 10 8 2 8
2450.0 7 9 10 0 9 10 11 3 10 12
2490.0 6 10 11 11 2 12 12 1 1 13
2530.0 13 5 12 18 16 13 20 23 24 23
2570.0 25 32 33 27 34 34 34 34 34 34
2610.0 36 36 45 36 36 47 56 45 47 52
2650.0 45 41 37 48 40 39 47 48 48 48
2690.0 51 58 55 54 63 72 80 97 108 129
2730.0 120 119 120 100 89 101 100 96 97 109
2770.0 101 101 101 101 112 123 134 155 166 179
2810.0 212 238 248 268 300 330 380 451 544 679
2850.0 830 1037 1281 1587 1965 2417 2826 3095 3160 3081
2890.0 2889 2724 2646 2696 2870 3132 3462 3794 4106 4404
2930.0 4646 4846 5029 5180 5463 6121 7308 8936 9988 10000
2970.0 8982 6764 4440 2599 1451 902 620 452 350 287
3010.0 227 185 171 152 148 139 128 134 117 103
3050.0 103 94 93 86 94 94 92 90 95 90
3090.0 86 96 97 78 68 77 87 66 58 80
3130.0 71 60 81 80 69 70 77 89 90 90
3170.0 100 108 100 99 112 106 95 91 102 92
3210.0 81 82 93 73 62 62 63 52 49 55
3250.0 54 37 42 44 36 36 36 36 34 29
3290.0 40 36 25 26 38 39 27 36 57 39
3330.0 28 49 59 45 38 57 55 49 50 57
3370.0 51 41 61 51 50 42 44 52 38 26
3410.0 36 48 34 30 43 34 24 25 43 33
3450.0 25 36 36 19 14 35 34 17 17 35
3490.0 16 8 18 27 27 18 23 34 21 20
3530.0 28 30 12 19 20 31 11 13 43 18
3570.0 8 20 34 15 14 32 24 14 21 24
3610.0 37 12 21 14 5 4 14 12 16 8
3650.0 18 17 8 17 25 26 16 10 30 16
3690.0 19 18 28 18 18 29 20 18 24 30
3730.0 33 25 25 19 12 19 15 16 25 17
3770.0 25 36 20 16 25 30 20 24 27 27
3810.0 16 25 20 17 18 28 25 16 24 19
3850.0 20 18 23 23 26 26 27 33 28 28
3890.0 32 33 30 31 44 33 32 34 45 36
3930.0 28 39 37 37 32 34 34 24 26 36
##END=
