##TITLE=Butyric acid hydrazide
##JCAMP-DX=4.24
##DATA TYPE=INFRARED SPECTRUM
##ORIGIN=Sadtler Research Labs Under US-EPA Contract
##OWNER=NIST Standard Reference Data Program
##CAS REGISTRY NO=3538-65-6
##MOLFORM=C 4 H 10 N 2 O
##XUNITS=1/CM
##YUNITS=ABSORBANCE
##XFACTOR=1.0
##YFACTOR=0.000081424
##DELTAX=4.0
##FIRSTX=450.0
##LASTX=3966.0
##FIRSTY=0.086065
##MAXX=3966
##MINX=450
##MAXY=0.81424
##MINY=0
##NPOINTS=880
##XYDATA=(X++(Y..Y))
450.0 1057 1127 1133 1148 1103 1130 1122 1036 1038 1019
490.0 940 877 795 746 649 634 574 547 519 491
530.0 449 431 389 371 365 353 320 339 305 298
570.0 298 279 265 256 221 239 204 221 224 215
610.0 218 214 214 209 197 194 190 193 193 167
650.0 167 136 110 120 108 77 57 43 47 50
690.0 48 36 0 23 11 30 28 32 29 38
730.0 38 43 49 70 78 75 97 102 114 111
770.0 122 121 144 147 173 199 253 303 370 421
810.0 458 492 501 496 505 523 533 567 598 639
850.0 677 707 762 802 856 893 954 1004 1043 1069
890.0 1109 1142 1183 1208 1226 1220 1169 1097 988 846
930.0 702 581 488 439 447 508 612 774 996 1251
970.0 1455 1620 1733 1765 1695 1496 1236 985 739 530
1010.0 389 306 248 222 225 231 257 286 314 346
1050.0 361 360 359 345 337 328 322 324 314 307
1090.0 277 260 239 230 209 193 184 171 173 169
1130.0 172 184 210 234 264 301 343 404 477 560
1170.0 652 738 804 857 922 1016 1167 1373 1593 1786
1210.0 1915 1989 1994 1926 1814 1709 1664 1660 1665 1653
1250.0 1621 1586 1575 1584 1591 1574 1548 1503 1440 1347
1290.0 1248 1132 1012 903 809 733 686 655 646 652
1330.0 663 695 723 758 788 820 844 867 899 899
1370.0 900 899 941 990 1075 1135 1222 1321 1481 1734
1410.0 2064 2515 3064 3679 4313 4989 5736 6373 6919 7202
1450.0 7361 7281 6959 6504 5874 5222 4485 3847 3210 2672
1490.0 2256 1895 1630 1361 1205 1006 871 737 647 555
1530.0 478 439 381 348 310 313 275 269 273 255
1570.0 271 267 308 308 346 392 460 540 647 812
1610.0 993 1242 1511 1814 2080 2309 2490 2534 2561 2477
1650.0 2430 2273 2211 2181 2314 2508 2851 3280 3802 4466
1690.0 5275 6251 7339 8517 9341 9927 9986 10000 9517 8620
1730.0 7131 5746 4324 3290 2365 1805 1359 1058 832 689
1770.0 589 470 433 365 346 281 257 213 188 154
1810.0 123 115 89 90 75 71 67 76 78 80
1850.0 84 75 73 55 51 34 43 39 43 37
1890.0 38 40 36 39 39 44 32 41 30 32
1930.0 28 28 26 20 19 17 21 15 17 15
1970.0 12 12 13 13 9 17 15 21 20 24
2010.0 16 23 24 18 20 19 21 17 20 16
2050.0 21 18 20 19 16 18 17 15 12 12
2090.0 12 13 8 12 8 8 11 11 10 8
2130.0 12 5 7 6 3 5 2 6 3 5
2170.0 6 6 2 8 11 6 8 7 9 10
2210.0 10 8 10 10 11 10 14 15 15 19
2250.0 21 23 23 21 23 29 30 27 30 25
2290.0 22 20 21 19 15 9 6 2 3 2
2330.0 2 2 2 2 2 2 2 2 2 2
2370.0 2 2 2 2 5 9 13 11 12 9
2410.0 11 14 12 13 13 16 14 16 11 10
2450.0 10 7 7 6 11 9 12 13 13 20
2490.0 21 21 22 24 23 27 24 25 23 26
2530.0 22 20 19 19 17 18 18 17 20 16
2570.0 19 21 24 24 24 26 27 28 28 31
2610.0 32 33 34 31 29 32 34 36 37 35
2650.0 40 43 47 50 55 62 64 67 67 72
2690.0 74 74 69 71 71 74 71 71 73 74
2730.0 82 87 93 95 108 114 119 123 117 121
2770.0 123 126 132 142 151 160 169 176 186 196
2810.0 207 221 232 252 276 308 345 381 420 462
2850.0 515 578 660 769 924 1131 1399 1717 1972 2104
2890.0 2150 2129 2021 1925 1917 1999 2147 2328 2545 2782
2930.0 3055 3363 3669 3888 4022 4101 4135 4167 4292 4595
2970.0 4909 4982 4794 4455 3874 3093 2353 1764 1331 1014
3010.0 792 630 512 424 358 312 276 246 228 211
3050.0 197 186 173 162 156 148 140 138 133 125
3090.0 121 113 114 116 113 113 109 118 110 109
3130.0 107 107 107 103 102 102 98 93 98 105
3170.0 113 114 126 135 139 154 157 166 165 164
3210.0 158 158 148 144 134 124 115 105 93 89
3250.0 78 76 68 62 67 69 70 72 83 93
3290.0 100 106 111 116 116 112 109 108 115 119
3330.0 130 138 151 158 163 169 160 159 150 156
3370.0 160 168 188 221 245 296 338 394 457 532
3410.0 623 722 806 852 880 867 857 856 892 970
3450.0 1076 1187 1301 1414 1478 1491 1446 1360 1227 1069
3490.0 893 733 582 463 365 279 221 176 152 111
3530.0 99 89 81 72 61 62 54 63 59 50
3570.0 73 56 65 56 55 58 40 23 35 33
3610.0 33 12 6 25 33 26 24 25 20 23
3650.0 5 20 32 25 30 7 18 3 25 19
3690.0 34 23 41 33 32 23 18 40 30 42
3730.0 31 27 38 23 45 24 15 42 33 31
3770.0 24 50 41 42 44 50 41 33 32 34
3810.0 56 42 34 33 35 43 47 37 24 33
3850.0 33 50 26 20 21 31 13 30 13 31
3890.0 29 28 42 39 27 31 46 51 30 37
3930.0 31 36 51 60 43 37 42 56 36 55
##END=
