##TITLE=1H,1H-Pentafluoropropyl iodide
##JCAMP-DX=4.24
##DATA TYPE=INFRARED SPECTRUM
##ORIGIN=Sadtler Research Labs Under US-EPA Contract
##OWNER=NIST Standard Reference Data Program
##CAS REGISTRY NO=354-69-8
##MOLFORM=C 3 H 2 F 5 I
##XUNITS=1/CM
##YUNITS=ABSORBANCE
##XFACTOR=1.0
##YFACTOR=0.000206012
##DELTAX=4.0
##FIRSTX=450.0
##LASTX=3966.0
##FIRSTY=0.023691
##MAXX=3966
##MINX=450
##MAXY=2.06012
##MINY=0
##NPOINTS=880
##XYDATA=(X++(Y..Y))
450.0 115 40 4 7 38 86 30 29 11 27
490.0 44 18 51 127 210 233 254 305 262 207
530.0 141 123 102 70 64 125 184 284 290 178
570.0 134 66 58 63 70 100 84 93 86 72
610.0 105 140 148 174 212 365 568 695 665 383
650.0 148 103 118 109 157 153 197 299 289 341
690.0 279 184 168 361 663 797 741 427 152 88
730.0 83 33 99 61 50 26 46 36 62 69
770.0 87 74 118 105 96 73 66 53 34 29
810.0 57 52 48 61 38 47 47 8 15 22
850.0 36 32 21 13 19 31 39 13 16 14
890.0 22 26 29 27 18 24 23 22 27 24
930.0 33 37 41 41 37 39 41 41 52 57
970.0 68 76 80 103 122 153 215 339 586 1070
1010.0 2055 3599 4710 4962 3050 1364 684 620 692 920
1050.0 1203 1383 1439 1254 947 640 433 354 348 425
1090.0 570 792 1086 1318 1397 1225 915 634 472 407
1130.0 388 402 411 434 472 601 895 1207 1310 1208
1170.0 1002 863 967 1207 1666 2512 3794 5408 7185 8649
1210.0 9839 10000 9573 8535 7538 6442 5244 4229 3603 3244
1250.0 2904 2327 1635 1053 690 500 399 344 333 339
1290.0 349 355 381 406 425 457 479 509 591 754
1330.0 1117 1669 2158 2369 2114 1504 988 567 333 278
1370.0 262 267 295 293 260 209 150 117 98 97
1410.0 122 153 195 262 318 337 305 237 156 100
1450.0 70 39 36 26 33 23 24 25 31 36
1490.0 24 34 35 36 27 20 33 21 17 21
1530.0 22 24 15 14 17 27 22 13 15 34
1570.0 38 39 43 40 40 35 29 40 34 34
1610.0 36 30 26 26 29 30 29 27 31 26
1650.0 10 9 11 23 11 14 5 12 7 1
1690.0 10 13 3 3 15 18 15 8 15 23
1730.0 15 13 13 22 17 17 20 19 24 29
1770.0 27 27 38 39 38 39 35 35 34 29
1810.0 27 24 23 23 20 20 25 22 24 14
1850.0 20 19 17 21 16 17 18 14 14 11
1890.0 11 11 12 12 12 12 15 12 14 15
1930.0 15 12 13 12 11 15 15 15 20 18
1970.0 23 25 30 33 34 33 30 25 23 23
2010.0 24 25 23 22 19 19 19 17 14 14
2050.0 12 11 12 13 12 12 12 12 12 9
2090.0 11 11 12 14 15 16 17 15 16 13
2130.0 14 15 13 12 8 9 11 9 11 11
2170.0 9 9 9 11 10 10 12 13 15 15
2210.0 14 16 18 18 22 23 24 22 27 22
2250.0 20 19 21 23 22 22 21 18 14 13
2290.0 11 11 10 13 13 16 15 15 16 21
2330.0 21 18 22 23 26 22 27 22 35 34
2370.0 32 26 23 21 23 23 25 27 31 33
2410.0 33 31 27 29 27 25 27 25 30 33
2450.0 34 34 32 32 31 27 24 24 19 18
2490.0 15 14 12 14 12 12 12 11 11 13
2530.0 11 15 16 15 16 17 17 19 18 18
2570.0 17 17 16 14 14 11 13 11 8 8
2610.0 7 7 7 5 5 5 7 6 5 6
2650.0 3 2 5 2 4 4 3 3 4 2
2690.0 2 2 0 2 0 2 0 0 2 2
2730.0 0 0 1 1 2 1 1 2 2 2
2770.0 0 0 1 1 2 2 4 1 3 1
2810.0 2 3 5 3 5 4 7 8 7 8
2850.0 8 7 6 4 6 4 4 8 5 7
2890.0 5 4 5 5 6 6 4 2 4 5
2930.0 5 6 9 5 9 8 10 11 9 12
2970.0 13 13 18 32 62 86 100 86 54 21
3010.0 10 10 8 7 10 10 14 21 29 32
3050.0 33 26 19 10 10 6 3 3 6 6
3090.0 3 1 5 6 4 4 4 4 4 3
3130.0 5 3 3 5 6 3 4 7 5 6
3170.0 4 3 4 3 5 6 2 3 3 4
3210.0 7 4 1 5 1 4 1 3 2 5
3250.0 3 4 5 7 3 6 2 4 4 7
3290.0 5 4 2 5 7 3 2 5 7 8
3330.0 5 2 9 6 4 6 6 3 4 3
3370.0 4 6 9 1 3 5 3 5 5 7
3410.0 6 1 4 4 2 5 7 8 10 10
3450.0 4 6 8 8 3 4 5 8 7 5
3490.0 12 8 8 10 7 5 9 8 8 6
3530.0 7 10 6 5 7 15 4 10 6 12
3570.0 13 4 7 7 8 10 5 9 15 5
3610.0 12 11 9 17 15 12 12 3 12 8
3650.0 11 9 9 11 9 15 10 11 13 11
3690.0 11 12 16 9 7 7 4 10 20 15
3730.0 14 9 11 10 1 0 0 11 14 14
3770.0 8 12 10 10 16 9 7 11 2 11
3810.0 13 11 5 14 10 11 0 0 12 9
3850.0 9 7 22 17 12 5 9 19 11 8
3890.0 6 3 8 5 17 22 9 3 0 4
3930.0 19 14 15 14 9 15 16 7 13 7
##END=
