##TITLE=Ethane, 1,1,1-trichloro-2,2,2-trifluoro-
##JCAMP-DX=4.24
##DATA TYPE=INFRARED SPECTRUM
##ORIGIN=Sadtler Research Labs Under US-EPA Contract
##OWNER=NIST Standard Reference Data Program
##CAS REGISTRY NO=354-58-5
##MOLFORM=C 2 Cl 3 F 3
##XUNITS=1/CM
##YUNITS=ABSORBANCE
##XFACTOR=1.0
##YFACTOR=0.000152490
##DELTAX=4.0
##FIRSTX=450.0
##LASTX=3966.0
##FIRSTY=0.023483
##MAXX=3966
##MINX=450
##MAXY=1.5249
##MINY=0
##NPOINTS=880
##XYDATA=(X++(Y..Y))
450.0 154 119 52 78 41 54 15 8 18 3
490.0 0 13 54 54 80 61 68 66 95 124
530.0 178 179 151 112 35 20 16 29 18 23
570.0 37 20 22 18 43 27 35 29 40 41
610.0 40 50 61 143 190 267 333 282 354 365
650.0 452 495 445 330 205 87 50 35 24 31
690.0 24 32 19 28 27 40 34 39 43 46
730.0 43 50 57 60 57 49 53 49 61 82
770.0 130 215 330 439 601 888 1547 2821 4769 7000
810.0 8867 10000 8895 6624 3455 1551 904 696 600 567
850.0 574 627 741 943 1259 1662 2139 2629 3132 3507
890.0 4083 4881 5709 6582 7113 7086 6234 4873 3688 2653
930.0 1853 1228 733 382 223 178 166 180 196 231
970.0 246 259 242 219 181 150 139 146 185 220
1010.0 297 415 678 1192 2044 3132 4373 5704 5947 5684
1050.0 4954 3715 2557 1488 776 516 415 401 480 642
1090.0 921 1336 2065 3134 4736 6114 7468 7333 5057 3456
1130.0 1786 645 345 328 453 706 1212 2127 3354 4961
1170.0 6376 7220 8041 6563 5804 4749 3647 3772 4151 4568
1210.0 4564 3773 2641 1588 771 304 170 142 159 163
1250.0 163 156 138 122 101 96 79 74 63 59
1290.0 50 46 44 41 43 39 43 41 48 52
1330.0 67 80 94 105 107 102 90 84 81 89
1370.0 96 104 104 96 87 69 62 60 63 65
1410.0 67 63 50 39 31 22 15 14 11 16
1450.0 16 18 19 21 27 21 23 20 25 19
1490.0 23 20 20 20 18 18 17 19 15 20
1530.0 16 21 16 20 16 14 14 16 14 17
1570.0 17 18 17 12 10 8 9 6 6 8
1610.0 7 9 9 15 14 19 20 24 24 25
1650.0 21 17 10 14 11 10 10 10 7 12
1690.0 11 13 16 16 16 18 15 15 14 12
1730.0 11 11 11 8 11 10 10 11 13 14
1770.0 13 14 10 11 7 11 9 12 13 11
1810.0 12 15 16 16 22 18 18 17 19 18
1850.0 20 21 22 20 18 15 9 9 4 6
1890.0 4 4 4 4 6 6 6 7 7 7
1930.0 6 7 8 5 5 5 5 4 4 5
1970.0 4 6 5 5 4 4 7 6 8 6
2010.0 8 8 11 10 10 10 8 6 5 6
2050.0 4 4 6 6 5 6 8 7 8 8
2090.0 10 10 12 11 13 14 16 19 18 19
2130.0 20 19 17 19 17 21 24 27 31 31
2170.0 29 28 27 29 36 37 38 41 44 49
2210.0 58 64 67 67 61 53 46 40 36 34
2250.0 33 33 33 30 28 24 22 22 22 26
2290.0 28 32 37 41 44 47 51 55 54 51
2330.0 48 40 35 35 37 36 41 37 37 41
2370.0 44 54 52 52 47 41 32 23 18 12
2410.0 10 7 7 5 4 2 4 2 4 3
2450.0 4 4 2 2 3 6 3 3 4 4
2490.0 4 4 2 4 2 2 4 4 3 3
2530.0 2 2 3 4 2 3 2 1 2 3
2570.0 2 4 3 3 1 2 2 1 3 1
2610.0 2 2 2 2 0 0 3 1 0 4
2650.0 1 2 1 2 1 1 3 1 1 0
2690.0 2 2 2 3 2 2 1 2 2 2
2730.0 3 4 3 3 4 2 2 3 2 2
2770.0 2 2 1 3 4 4 5 2 2 2
2810.0 4 4 2 3 5 5 5 3 3 2
2850.0 4 6 4 3 2 4 4 4 4 5
2890.0 3 3 2 4 3 5 3 4 4 5
2930.0 3 4 2 4 3 4 7 3 3 5
2970.0 7 5 5 5 3 3 3 6 3 3
3010.0 3 3 4 5 4 5 4 5 5 6
3050.0 6 5 6 4 4 6 4 4 5 5
3090.0 7 6 4 3 4 4 6 2 3 3
3130.0 5 4 5 4 7 6 6 7 4 5
3170.0 4 3 4 6 6 5 6 5 3 6
3210.0 7 6 4 8 5 8 6 7 7 7
3250.0 5 9 5 4 7 6 10 6 7 8
3290.0 9 9 10 7 6 7 7 7 7 12
3330.0 4 9 9 10 8 10 7 10 8 9
3370.0 10 6 6 9 10 12 8 8 8 8
3410.0 6 5 4 10 8 11 8 10 9 9
3450.0 8 5 8 7 12 9 13 8 10 9
3490.0 7 8 14 10 6 5 6 7 6 11
3530.0 9 7 7 9 7 12 13 9 10 6
3570.0 5 10 15 9 9 3 7 14 8 8
3610.0 7 15 13 7 6 4 11 15 9 8
3650.0 9 11 14 9 14 6 7 2 8 10
3690.0 11 10 9 13 11 8 7 11 12 8
3730.0 10 5 8 15 11 21 9 9 16 9
3770.0 11 12 11 11 11 10 7 13 13 6
3810.0 9 13 12 13 5 14 14 9 14 14
3850.0 7 5 9 12 7 8 18 4 10 9
3890.0 15 8 12 6 7 18 14 12 8 1
3930.0 9 13 10 6 19 15 18 9 16 0
##END=
