##TITLE=Hexanoic acid, 2-acetyl-5-oxo-, ethyl ester
##JCAMP-DX=4.24
##DATA TYPE=INFRARED SPECTRUM
##ORIGIN=Sadtler Research Labs Under US-EPA Contract
##OWNER=NIST Standard Reference Data Program
##CAS REGISTRY NO=35490-05-2
##MOLFORM=C 10 H 16 O 4
##XUNITS=1/CM
##YUNITS=ABSORBANCE
##XFACTOR=1.0
##YFACTOR=0.000035336
##DELTAX=4.0
##FIRSTX=450.0
##LASTX=3966.0
##FIRSTY=0.046326
##MAXX=3966
##MINX=450
##MAXY=0.35336
##MINY=0
##NPOINTS=880
##XYDATA=(X++(Y..Y))
450.0 1311 389 469 311 413 177 119 354 70 269
490.0 250 178 231 203 215 176 195 271 127 335
530.0 177 171 301 307 375 222 184 160 230 303
570.0 218 316 327 211 279 145 175 197 181 281
610.0 280 210 225 113 170 116 92 145 117 92
650.0 15 93 144 73 67 58 14 118 42 88
690.0 99 37 94 78 85 116 164 130 97 138
730.0 141 151 223 214 642 308 118 203 234 231
770.0 279 232 174 180 157 213 174 136 143 198
810.0 146 223 212 216 202 192 244 253 254 294
850.0 337 426 470 574 542 479 438 262 275 265
890.0 276 190 213 200 226 223 277 276 251 322
930.0 310 404 477 482 531 557 579 566 554 572
970.0 561 562 537 486 438 388 428 468 518 637
1010.0 715 888 1140 1350 1582 1767 1866 1898 1773 1683
1050.0 1572 1488 1429 1366 1358 1316 1303 1285 1291 1357
1090.0 1446 1658 1850 1919 1850 1676 1581 1529 1526 1707
1130.0 2025 2525 3119 3876 4749 5376 5768 5731 5477 5375
1170.0 5214 5163 5127 4995 4792 4380 4097 3896 3720 3623
1210.0 3624 3737 3733 3760 3843 3948 4195 4564 4793 5083
1250.0 5005 4641 4199 3818 3449 3060 2882 2677 2506 2400
1290.0 2297 2290 2286 2238 2339 2269 2237 2214 2114 2065
1330.0 1977 1923 1774 1774 1915 2141 2640 3115 3538 3787
1370.0 3598 3225 2632 2137 1764 1466 1257 1093 1098 1063
1410.0 1012 1186 1119 1241 1212 1246 1296 1423 1384 1443
1450.0 1449 1323 1269 1030 994 885 834 713 551 524
1490.0 332 400 295 281 304 252 229 209 254 230
1530.0 182 209 183 294 161 188 200 226 355 252
1570.0 279 337 297 276 288 354 417 495 519 506
1610.0 496 574 622 591 549 635 681 722 800 731
1650.0 729 916 755 917 986 1115 1055 1261 1286 1641
1690.0 2092 2668 3343 3713 3955 4083 4244 4738 5632 7091
1730.0 8835 10000 9809 8694 7429 6823 6406 6188 5502 4234
1770.0 3093 1997 1422 998 792 723 589 491 436 425
1810.0 334 321 218 162 161 172 202 141 118 72
1850.0 109 104 125 98 66 114 96 97 92 95
1890.0 96 66 58 80 57 89 83 53 70 66
1930.0 83 76 52 22 48 45 64 62 74 60
1970.0 7 56 57 63 73 56 40 23 12 45
2010.0 66 86 91 38 34 78 38 87 87 52
2050.0 60 43 63 108 76 52 82 47 91 70
2090.0 30 64 27 73 25 41 85 23 49 54
2130.0 95 101 60 54 0 65 50 53 55 59
2170.0 25 51 52 25 12 33 1 41 59 47
2210.0 39 31 30 42 36 19 17 29 41 37
2250.0 55 29 17 11 33 57 54 40 35 30
2290.0 57 65 59 81 94 72 83 95 112 82
2330.0 63 65 31 134 77 118 36 100 118 39
2370.0 91 79 117 107 81 65 40 59 63 52
2410.0 56 65 75 75 68 75 45 33 56 61
2450.0 59 56 69 58 29 56 53 42 46 44
2490.0 66 50 63 58 62 44 70 55 74 72
2530.0 53 56 39 61 64 71 50 66 65 52
2570.0 57 50 56 54 53 51 48 42 53 64
2610.0 55 62 73 64 52 60 64 63 71 61
2650.0 71 67 66 72 73 93 56 59 79 87
2690.0 84 82 71 78 75 77 82 78 72 90
2730.0 94 82 95 108 88 99 107 109 93 106
2770.0 105 115 121 115 126 117 125 137 129 148
2810.0 150 157 170 183 219 240 258 286 325 327
2850.0 347 370 382 406 458 482 551 610 696 744
2890.0 774 804 847 949 1099 1231 1302 1377 1397 1469
2930.0 1531 1646 1788 1876 1950 1937 1835 1705 1625 1659
2970.0 1715 1769 1875 2106 2369 2417 2152 1744 1440 1255
3010.0 1121 997 862 695 563 428 401 371 346 317
3050.0 320 285 244 246 237 227 197 196 174 174
3090.0 151 158 140 123 115 108 106 107 102 72
3130.0 86 88 76 85 61 80 66 61 63 70
3170.0 82 61 32 55 24 52 65 85 69 52
3210.0 20 63 85 68 65 79 60 48 94 67
3250.0 60 52 61 62 50 92 51 62 74 72
3290.0 63 41 86 88 84 82 72 60 85 64
3330.0 73 61 67 75 60 110 77 85 78 87
3370.0 87 113 105 108 114 116 99 112 87 106
3410.0 91 95 87 130 134 154 149 131 127 158
3450.0 146 178 189 165 176 169 155 145 153 143
3490.0 143 156 136 108 84 80 119 104 86 49
3530.0 104 147 205 183 177 147 128 97 109 3
3570.0 68 82 76 84 61 76 46 71 85 57
3610.0 22 43 110 41 42 105 89 132 49 87
3650.0 60 87 70 64 109 32 131 98 138 99
3690.0 111 99 57 119 60 47 151 110 130 36
3730.0 86 176 100 122 115 233 149 156 113 152
3770.0 109 161 187 189 119 184 131 149 147 177
3810.0 149 157 119 162 131 38 194 261 204 177
3850.0 177 327 236 241 209 166 140 195 246 247
3890.0 221 182 155 207 221 263 203 252 196 276
3930.0 166 219 231 235 182 76 109 195 99 255
##END=
