##TITLE=Benzene, (2-methoxyethyl)-
##JCAMP-DX=4.24
##DATA TYPE=INFRARED SPECTRUM
##ORIGIN=Sadtler Research Labs Under US-EPA Contract
##OWNER=NIST Standard Reference Data Program
##CAS REGISTRY NO=3558-60-9
##MOLFORM=C 9 H 12 O
##XUNITS=1/CM
##YUNITS=ABSORBANCE
##XFACTOR=1.0
##YFACTOR=0.000083612
##DELTAX=4.0
##FIRSTX=450.0
##LASTX=3966.0
##FIRSTY=0.005017
##MAXX=3966
##MINX=450
##MAXY=0.83612
##MINY=0
##NPOINTS=880
##XYDATA=(X++(Y..Y))
450.0 60 103 125 144 125 77 88 167 218 277
490.0 335 400 448 480 500 506 448 399 295 192
530.0 138 78 40 24 16 48 71 117 206 287
570.0 434 536 601 565 502 401 291 201 107 50
610.0 26 8 13 5 7 10 8 21 0 15
650.0 28 29 60 101 167 319 453 732 1157 1729
690.0 2459 3153 3746 3358 2845 2222 1727 1374 1239 1275
730.0 1448 1755 2142 2439 2501 2248 1752 1235 846 590
770.0 422 305 221 149 110 87 87 79 85 96
810.0 119 161 222 274 306 302 277 224 155 112
850.0 81 69 64 51 50 52 63 73 83 104
890.0 121 169 199 223 233 216 193 191 214 263
930.0 326 395 430 441 428 410 431 494 556 620
970.0 665 683 659 625 615 647 698 735 750 733
1010.0 696 690 738 891 1138 1307 1387 1348 1252 1241
1050.0 1267 1243 1230 1203 1187 1219 1310 1416 1527 1668
1090.0 1877 2203 2731 3444 4343 5387 6475 7660 8907 9804
1130.0 10000 9159 7319 5096 3468 2610 2177 1983 1879 1855
1170.0 1901 1986 2134 2251 2300 2302 2215 2154 2119 1949
1210.0 1784 1540 1320 1179 1070 949 811 696 632 606
1250.0 602 594 575 544 505 461 435 409 384 355
1290.0 321 300 296 297 300 293 292 293 299 312
1330.0 332 359 376 400 404 395 389 398 450 561
1370.0 775 1108 1492 1696 1686 1512 1137 754 506 387
1410.0 313 307 304 354 388 476 562 736 861 1033
1450.0 1207 1326 1455 1453 1376 1225 1101 922 869 933
1490.0 1226 1596 1713 1563 1308 670 315 203 176 152
1530.0 123 145 133 158 95 86 84 110 109 77
1570.0 109 119 187 195 262 331 432 539 714 808
1610.0 757 633 438 222 122 97 80 90 61 99
1650.0 65 155 53 52 33 49 19 37 17 56
1690.0 16 36 66 103 87 118 166 247 254 297
1730.0 351 436 445 506 542 569 623 512 469 461
1770.0 442 385 288 243 239 249 302 288 265 215
1810.0 144 92 72 50 41 30 14 18 18 40
1850.0 49 76 97 118 126 147 150 150 132 98
1890.0 60 27 19 13 14 20 27 53 67 103
1930.0 145 181 210 224 245 258 245 207 161 97
1970.0 50 31 25 20 24 20 23 27 31 32
2010.0 38 36 36 36 39 40 44 44 46 50
2050.0 52 51 48 47 47 57 63 71 78 84
2090.0 96 102 103 98 88 79 71 65 59 51
2130.0 43 34 23 19 16 16 15 13 13 17
2170.0 17 15 14 8 8 4 2 1 4 9
2210.0 9 13 15 17 18 20 24 26 33 36
2250.0 36 38 36 28 25 17 4 1 1 7
2290.0 19 29 37 44 52 64 70 70 68 61
2330.0 62 62 58 52 56 54 52 42 32 40
2370.0 39 44 46 45 42 42 41 41 41 42
2410.0 40 44 47 43 43 41 42 40 42 41
2450.0 35 32 32 34 36 33 34 35 35 32
2490.0 36 39 38 37 42 41 44 45 48 48
2530.0 45 46 48 48 49 49 52 52 51 55
2570.0 57 63 69 77 83 91 99 103 108 112
2610.0 113 110 102 101 102 108 111 116 120 121
2650.0 119 124 125 125 125 124 123 126 131 133
2690.0 141 143 151 159 173 187 212 245 295 349
2730.0 404 444 464 453 421 385 351 329 315 314
2770.0 320 343 369 411 457 526 612 724 917 1226
2810.0 1640 2050 2415 2741 2975 3151 3233 3168 2953 2830
2850.0 2913 3155 3524 3986 4502 4943 5176 5130 4785 4302
2890.0 3877 3603 3511 3558 3626 3615 3656 3809 4094 4440
2930.0 4703 4825 4773 4583 4371 4121 3816 3472 3089 2673
2970.0 2289 2019 1915 2021 2394 2783 2783 2574 2059 1520
3010.0 1295 1277 1409 1697 2207 2835 3310 3459 3278 2707
3050.0 2057 1669 1560 1738 2218 2700 2835 2765 2371 1853
3090.0 1585 1422 1271 1097 904 747 620 513 408 296
3130.0 212 157 132 110 99 92 89 88 91 91
3170.0 90 86 76 67 62 55 52 49 46 44
3210.0 45 43 43 44 41 36 35 40 37 36
3250.0 34 37 37 34 34 37 30 35 35 34
3290.0 37 39 39 30 35 34 38 30 29 30
3330.0 24 31 36 27 31 28 30 26 27 27
3370.0 28 29 28 28 28 28 28 30 33 28
3410.0 23 22 21 24 25 25 23 24 30 23
3450.0 23 27 19 23 25 28 23 22 22 21
3490.0 21 18 18 14 8 13 21 17 12 1
3530.0 12 14 17 14 6 6 22 5 24 12
3570.0 26 42 43 52 37 29 30 19 28 17
3610.0 30 27 38 76 90 134 101 106 93 88
3650.0 119 101 131 126 128 148 127 128 88 70
3690.0 74 40 32 27 32 39 39 29 23 13
3730.0 18 26 19 13 61 30 46 9 19 19
3770.0 10 14 5 16 14 17 10 11 30 25
3810.0 21 29 24 39 18 22 19 50 27 17
3850.0 9 62 27 13 18 28 16 27 10 22
3890.0 4 20 2 13 11 16 16 20 14 12
3930.0 32 14 23 28 10 18 24 22 18 23
##END=
