##TITLE=Butanoic acid, heptafluoro-, ethyl ester
##JCAMP-DX=4.24
##DATA TYPE=INFRARED SPECTRUM
##ORIGIN=Sadtler Research Labs Under US-EPA Contract
##OWNER=NIST Standard Reference Data Program
##CAS REGISTRY NO=356-27-4
##MOLFORM=C 6 H 5 F 7 O 2
##XUNITS=1/CM
##YUNITS=ABSORBANCE
##XFACTOR=1.0
##YFACTOR=0.000133170
##DELTAX=4.0
##FIRSTX=450.0
##LASTX=3966.0
##FIRSTY=0.001598
##MAXX=3966
##MINX=450
##MAXY=1.3317
##MINY=0
##NPOINTS=880
##XYDATA=(X++(Y..Y))
450.0 12 65 57 51 80 102 35 17 49 53
490.0 28 30 0 65 80 66 82 102 105 139
530.0 195 216 193 154 104 76 48 51 29 25
570.0 28 43 61 86 123 152 168 187 165 166
610.0 156 144 132 127 135 142 159 198 234 280
650.0 324 288 242 156 110 108 77 65 47 47
690.0 34 25 46 50 57 120 252 480 703 774
730.0 711 610 641 763 812 714 550 413 304 198
770.0 116 98 104 117 137 134 129 123 110 117
810.0 134 150 181 233 311 408 497 492 424 326
850.0 238 231 258 285 279 216 138 89 68 59
890.0 53 56 62 78 95 133 206 343 596 983
930.0 1385 1585 1419 1025 712 636 797 1171 1636 1931
970.0 1829 1342 802 471 343 311 347 435 579 793
1010.0 1046 1264 1321 1186 915 636 431 310 248 218
1050.0 208 216 234 279 362 516 815 1308 1942 2439
1090.0 2510 2066 1438 965 717 619 640 769 975 1210
1130.0 1438 1764 2277 2911 3346 3290 2801 2218 1793 1591
1170.0 1593 1739 2002 2335 2664 2903 3001 2974 2885 2982
1210.0 3543 4767 6496 8228 9331 9648 9739 10000 9805 8244
1250.0 6067 4318 3485 3305 3312 3115 2689 2235 1991 2036
1290.0 2322 2737 3075 3218 3134 2895 2526 2043 1518 1088
1330.0 825 709 696 757 865 955 963 841 644 466
1370.0 425 464 491 444 329 241 201 176 165 145
1410.0 129 120 95 96 92 95 93 106 121 142
1450.0 157 169 163 168 185 205 211 216 196 151
1490.0 108 85 60 55 37 27 32 24 19 24
1530.0 20 23 18 13 15 25 20 11 20 25
1570.0 25 25 28 27 31 27 28 24 25 22
1610.0 21 23 20 23 14 20 12 11 14 14
1650.0 6 11 15 19 19 16 17 27 17 21
1690.0 31 40 32 38 43 52 54 49 69 77
1730.0 80 82 111 129 158 187 226 257 303 393
1770.0 538 797 1223 2005 3173 4549 5150 4562 3151 1834
1810.0 1048 667 471 340 260 201 166 138 115 93
1850.0 85 76 68 59 52 44 45 44 38 32
1890.0 26 23 18 15 15 11 11 8 5 9
1930.0 9 9 13 10 13 14 12 15 14 14
1970.0 17 17 17 17 14 10 11 8 8 7
2010.0 6 6 4 3 3 3 3 3 3 4
2050.0 4 6 4 6 3 4 3 5 6 7
2090.0 7 7 5 5 6 7 5 6 6 7
2130.0 5 8 9 9 10 9 11 11 10 12
2170.0 9 8 10 9 8 4 3 2 4 0
2210.0 0 1 1 1 4 5 6 6 6 5
2250.0 4 5 5 6 7 10 8 11 10 11
2290.0 13 16 20 22 25 26 28 27 28 30
2330.0 32 28 32 34 42 30 40 35 39 36
2370.0 43 43 42 39 33 29 26 26 26 29
2410.0 30 30 31 31 28 27 28 26 25 30
2450.0 32 31 34 33 37 35 36 34 32 29
2490.0 29 28 28 25 24 22 20 20 19 18
2530.0 19 19 16 17 18 16 17 19 16 19
2570.0 20 22 22 21 19 19 18 16 16 11
2610.0 11 12 12 13 11 11 11 12 8 5
2650.0 8 6 6 3 3 5 5 5 5 6
2690.0 4 3 2 3 2 5 5 7 7 8
2730.0 8 6 9 9 8 7 8 9 10 10
2770.0 10 12 14 15 15 15 15 15 15 16
2810.0 13 13 15 14 17 19 21 20 22 23
2850.0 21 21 24 26 30 36 42 51 64 79
2890.0 88 86 83 84 90 102 118 129 133 129
2930.0 118 122 140 175 221 255 254 217 171 159
2970.0 173 205 251 315 439 617 718 673 522 416
3010.0 357 311 268 217 170 129 99 74 64 49
3050.0 45 39 35 34 29 28 23 21 24 22
3090.0 23 21 20 21 20 19 15 16 14 16
3130.0 15 14 15 15 14 15 11 10 15 15
3170.0 16 15 14 14 13 13 10 14 13 13
3210.0 10 11 10 7 7 8 7 9 12 10
3250.0 7 10 8 6 9 4 10 8 4 5
3290.0 6 4 6 3 4 3 6 4 6 6
3330.0 9 9 7 9 9 8 6 10 7 11
3370.0 6 6 7 5 9 11 10 6 8 8
3410.0 7 7 7 9 9 7 5 10 8 8
3450.0 6 11 5 7 9 2 9 10 8 8
3490.0 7 7 1 5 6 4 7 5 11 8
3530.0 11 8 14 11 15 21 24 33 38 46
3570.0 54 48 38 26 17 11 7 6 4 13
3610.0 16 9 5 9 11 8 4 11 8 7
3650.0 12 6 12 15 16 8 12 10 4 3
3690.0 3 7 9 5 4 11 16 9 8 6
3730.0 8 6 13 7 7 5 14 11 12 12
3770.0 4 10 11 12 6 12 3 2 12 11
3810.0 5 10 7 9 12 3 12 15 10 9
3850.0 10 8 8 5 10 0 0 5 9 10
3890.0 8 5 1 15 8 9 0 8 6 4
3930.0 3 8 15 2 6 5 7 2 0 2
##END=
