##TITLE=Bicyclo[2.2.1]heptan-2-amine, N-(phenylmethyl)-
##JCAMP-DX=4.24
##DATA TYPE=INFRARED SPECTRUM
##ORIGIN=Sadtler Research Labs Under US-EPA Contract
##OWNER=NIST Standard Reference Data Program
##CAS REGISTRY NO=35718-03-7
##MOLFORM=C 14 H 19 N
##XUNITS=1/CM
##YUNITS=ABSORBANCE
##XFACTOR=1.0
##YFACTOR=0.000125287
##DELTAX=4.0
##FIRSTX=450.0
##LASTX=3966.0
##FIRSTY=0.013531
##MAXX=3966
##MINX=450
##MAXY=1.25287
##MINY=0
##NPOINTS=880
##XYDATA=(X++(Y..Y))
450.0 108 34 22 16 50 87 66 45 39 59
490.0 67 86 108 92 74 67 69 57 61 48
530.0 38 42 50 58 38 36 26 59 44 59
570.0 59 101 112 120 127 150 171 176 188 190
610.0 178 174 141 102 96 93 106 123 133 159
650.0 174 217 246 319 347 455 530 589 708 892
690.0 1228 1524 1745 1635 1422 1183 1064 975 943 981
730.0 1074 1197 1281 1265 1115 924 724 562 420 309
770.0 219 157 110 91 76 80 98 132 150 163
810.0 162 154 155 157 155 140 119 101 89 72
850.0 51 26 13 13 10 7 18 27 32 25
890.0 28 37 66 93 101 83 65 66 83 91
930.0 106 121 129 138 138 118 102 96 93 102
970.0 122 142 151 141 118 96 85 78 69 62
1010.0 58 69 97 213 379 436 342 165 95 126
1050.0 167 246 303 350 374 372 343 305 296 315
1090.0 382 482 597 653 658 668 701 700 739 903
1130.0 1043 964 657 385 313 360 510 719 896 967
1170.0 906 754 586 431 341 322 350 382 389 361
1210.0 325 284 255 236 226 225 243 276 297 303
1250.0 289 254 217 179 156 145 141 148 170 205
1290.0 249 298 348 382 383 367 353 362 392 435
1330.0 504 618 795 963 984 851 676 570 527 488
1370.0 427 349 268 202 162 133 116 106 99 96
1410.0 106 116 146 183 236 323 475 722 1042 1381
1450.0 1656 1739 1625 1385 1137 926 753 614 516 465
1490.0 510 617 612 446 233 105 72 48 47 36
1530.0 32 31 29 29 24 23 18 26 28 28
1570.0 36 46 61 80 99 125 160 206 237 232
1610.0 184 116 67 36 25 19 26 34 57 80
1650.0 88 71 38 22 20 20 24 28 44 61
1690.0 68 63 58 48 48 48 56 61 63 68
1730.0 71 73 60 53 50 56 63 68 71 79
1770.0 81 80 74 69 66 75 94 105 100 76
1810.0 53 41 33 27 23 18 19 17 20 23
1850.0 26 33 43 51 56 58 57 60 51 40
1890.0 29 19 16 14 14 14 18 24 29 35
1930.0 50 63 74 81 83 85 79 65 40 20
1970.0 9 5 4 4 4 4 5 3 3 1
2010.0 5 1 0 0 1 2 3 3 3 3
2050.0 4 6 9 12 10 8 9 9 12 10
2090.0 12 10 11 11 11 11 10 10 12 11
2130.0 9 9 11 9 9 7 8 10 9 11
2170.0 10 13 13 13 13 15 16 17 15 15
2210.0 15 12 12 12 12 14 11 11 12 14
2250.0 14 12 12 10 11 11 10 13 12 12
2290.0 16 15 17 20 24 29 25 23 21 14
2330.0 9 9 8 6 15 20 12 11 6 3
2370.0 10 11 15 15 14 11 11 12 12 13
2410.0 16 15 15 15 14 14 11 12 12 7
2450.0 9 6 5 5 5 7 7 9 10 11
2490.0 10 12 12 14 13 14 13 13 16 19
2530.0 19 19 19 22 24 25 24 28 28 32
2570.0 36 38 41 43 46 48 49 49 51 54
2610.0 57 56 58 57 57 59 60 64 62 61
2650.0 61 61 65 66 71 75 78 81 84 86
2690.0 90 92 94 98 103 105 113 119 127 132
2730.0 138 136 135 132 134 139 146 156 172 188
2770.0 208 241 276 322 378 446 529 625 729 839
2810.0 942 1028 1097 1149 1176 1176 1143 1091 1040 1007
2850.0 1007 1053 1159 1360 1669 2098 2624 3009 2983 2572
2890.0 2068 1727 1542 1481 1510 1607 1760 1939 2129 2341
2930.0 2618 3029 3680 4600 5879 7551 9187 10000 9639 8278
2970.0 6408 4298 2618 1558 957 642 475 396 369 373
3010.0 394 441 532 681 892 1102 1198 1129 942 756
3050.0 633 588 639 789 1066 1302 1296 1051 776 658
3090.0 598 521 439 358 298 250 202 150 105 72
3130.0 52 41 33 32 29 27 23 24 28 31
3170.0 29 24 18 15 13 12 13 9 10 8
3210.0 8 10 7 9 9 10 8 10 9 12
3250.0 11 12 11 13 11 8 10 11 10 10
3290.0 13 12 13 12 11 16 18 22 23 22
3330.0 19 21 21 22 23 21 26 23 23 22
3370.0 27 25 17 23 21 25 29 30 26 27
3410.0 24 27 24 22 22 20 18 19 20 17
3450.0 18 11 14 12 10 13 15 14 7 13
3490.0 14 11 15 9 9 13 9 9 11 9
3530.0 7 11 11 11 14 13 9 11 6 6
3570.0 15 6 8 5 10 14 9 8 7 7
3610.0 15 13 9 11 14 18 18 25 25 22
3650.0 26 28 24 23 22 24 22 23 26 27
3690.0 28 25 34 33 31 34 38 30 23 25
3730.0 19 20 17 23 24 17 23 31 29 32
3770.0 22 23 21 18 14 22 19 13 20 19
3810.0 19 20 16 17 13 19 21 19 15 13
3850.0 17 18 16 21 23 22 18 30 35 33
3890.0 32 31 33 27 25 29 25 24 14 20
3930.0 12 15 13 6 13 19 23 15 8 5
##END=
