##TITLE=4-(p-Acetoxyphenyl)-2-butanone
##JCAMP-DX=4.24
##DATA TYPE=INFRARED SPECTRUM
##ORIGIN=Sadtler Research Labs Under US-EPA Contract
##OWNER=NIST Standard Reference Data Program
##CAS REGISTRY NO=3572-06-3
##MOLFORM=C 12 H 14 O 3
##XUNITS=1/CM
##YUNITS=ABSORBANCE
##XFACTOR=1.0
##YFACTOR=0.000156329
##DELTAX=4.0
##FIRSTX=450.0
##LASTX=3966.0
##FIRSTY=0.014539
##MAXX=3966
##MINX=450
##MAXY=1.56329
##MINY=0
##NPOINTS=880
##XYDATA=(X++(Y..Y))
450.0 93 213 58 14 96 274 236 152 237 212
490.0 341 329 210 297 333 329 301 335 334 386
530.0 503 590 550 501 427 355 293 307 290 247
570.0 289 281 329 341 345 298 267 266 215 259
610.0 225 200 194 238 255 290 281 270 281 252
650.0 228 238 212 207 168 127 156 154 156 137
690.0 135 143 132 138 142 137 127 127 144 117
730.0 130 177 143 199 218 212 166 176 195 172
770.0 157 172 169 166 176 202 255 258 264 282
810.0 320 352 369 398 418 441 448 452 475 426
850.0 383 374 357 368 343 320 341 338 350 387
890.0 408 540 652 865 1001 1001 842 642 472 410
930.0 371 360 364 307 306 261 260 245 239 246
970.0 260 278 289 310 354 391 443 548 713 903
1010.0 1017 1055 1038 855 597 402 368 340 325 328
1050.0 326 337 344 364 403 428 441 461 458 451
1090.0 426 417 421 417 403 396 378 374 384 407
1130.0 453 526 642 796 991 1224 1482 1779 2265 2857
1170.0 2956 2690 2564 2947 3775 5036 6770 8334 9339 10000
1210.0 9113 7444 5334 3605 2597 2007 1623 1326 1095 932
1250.0 858 793 749 702 637 572 537 498 457 423
1290.0 400 399 351 349 335 328 311 325 317 336
1330.0 394 427 464 532 601 707 875 1107 1382 1709
1370.0 1966 1934 1584 1144 747 567 452 369 386 375
1410.0 403 424 399 424 410 424 429 403 440 409
1450.0 415 333 300 259 275 242 213 226 289 272
1490.0 357 514 901 1504 2108 2325 1717 992 518 432
1530.0 274 279 179 124 149 155 172 51 112 140
1570.0 136 154 122 184 189 203 238 256 261 279
1610.0 279 228 225 162 173 134 140 100 128 98
1650.0 69 80 119 155 134 144 153 210 175 232
1690.0 303 358 369 403 521 656 767 915 1206 1537
1730.0 1845 1927 1863 1656 1337 1220 1165 1200 1331 1483
1770.0 1682 1969 2294 2528 2532 2416 2056 1771 1357 1019
1810.0 805 591 496 382 300 241 212 200 160 143
1850.0 135 140 129 120 106 72 103 108 119 110
1890.0 112 95 104 84 78 70 70 57 60 62
1930.0 61 61 59 54 46 62 58 62 62 60
1970.0 62 64 62 59 55 60 64 65 71 69
2010.0 66 63 55 57 62 55 54 57 54 52
2050.0 51 47 46 44 42 41 41 45 39 45
2090.0 48 52 54 56 56 56 51 51 43 39
2130.0 35 31 32 24 22 24 19 21 19 18
2170.0 20 16 17 12 17 16 14 13 13 12
2210.0 12 12 12 10 9 11 6 13 9 7
2250.0 9 7 13 13 18 18 21 24 24 28
2290.0 27 26 29 27 29 32 23 20 14 10
2330.0 11 6 9 5 26 15 18 10 25 23
2370.0 29 28 38 34 33 31 26 31 33 34
2410.0 33 32 31 26 23 24 20 18 17 14
2450.0 15 12 13 14 14 15 11 15 15 13
2490.0 14 12 13 13 15 15 13 14 11 14
2530.0 12 10 14 11 13 14 13 10 12 14
2570.0 14 17 18 17 16 16 15 14 13 12
2610.0 10 10 12 9 9 13 12 11 13 12
2650.0 15 14 15 17 16 19 17 17 18 18
2690.0 19 16 20 17 18 21 19 18 17 21
2730.0 19 16 19 20 21 19 19 20 22 20
2770.0 26 26 27 29 30 30 32 35 37 35
2810.0 39 42 44 45 49 54 56 63 70 75
2850.0 89 102 119 134 148 158 160 160 163 167
2890.0 181 206 239 271 293 316 335 357 379 412
2930.0 453 480 486 471 450 437 423 405 384 360
2970.0 330 283 246 212 195 189 194 213 229 244
3010.0 261 266 261 258 267 303 355 405 401 344
3050.0 274 233 210 198 187 192 181 172 152 140
3090.0 129 120 117 111 102 100 91 82 74 67
3130.0 58 49 36 35 28 29 28 26 30 22
3170.0 20 23 20 22 21 21 16 15 21 13
3210.0 13 16 14 11 18 14 13 16 11 11
3250.0 17 15 6 15 12 14 6 11 15 12
3290.0 15 15 13 11 12 12 10 16 17 18
3330.0 17 11 14 16 15 14 13 10 17 17
3370.0 17 16 25 22 19 23 17 19 25 17
3410.0 24 31 29 33 27 34 37 33 43 45
3450.0 47 44 42 34 30 29 26 33 28 21
3490.0 29 22 28 24 38 19 28 22 38 37
3530.0 30 37 47 42 51 46 54 54 62 41
3570.0 61 40 61 52 45 34 49 59 40 57
3610.0 33 47 19 48 40 42 27 49 56 77
3650.0 54 80 93 78 79 22 61 0 68 53
3690.0 26 38 54 49 56 41 39 50 59 41
3730.0 47 35 32 61 18 58 10 57 39 60
3770.0 64 51 80 50 62 87 58 47 43 28
3810.0 65 29 64 9 71 48 40 34 26 74
3850.0 34 37 22 70 36 20 68 29 43 25
3890.0 52 32 57 38 40 54 54 63 41 42
3930.0 40 39 33 40 49 50 38 54 51 45
##END=
