##TITLE=Acetamide, N-(4-methoxyphenyl)-N-methyl-
##JCAMP-DX=4.24
##DATA TYPE=INFRARED SPECTRUM
##ORIGIN=Sadtler Research Labs Under US-EPA Contract
##OWNER=NIST Standard Reference Data Program
##CAS REGISTRY NO=35813-38-8
##MOLFORM=C 10 H 13 N O 2
##XUNITS=1/CM
##YUNITS=ABSORBANCE
##XFACTOR=1.0
##YFACTOR=0.000189752
##DELTAX=4.0
##FIRSTX=450.0
##LASTX=3966.0
##FIRSTY=0.012524
##MAXX=3966
##MINX=450
##MAXY=1.89752
##MINY=0
##NPOINTS=880
##XYDATA=(X++(Y..Y))
450.0 66 38 49 55 90 72 56 46 45 39
490.0 36 40 28 45 60 37 43 47 75 79
530.0 99 124 162 210 278 362 461 520 563 546
570.0 504 448 445 503 604 663 599 459 300 216
610.0 163 119 89 65 56 61 74 88 93 80
650.0 69 62 57 45 50 46 44 35 23 12
690.0 9 5 4 11 13 12 13 26 41 61
730.0 76 93 88 72 54 33 26 25 20 20
770.0 21 24 43 59 110 187 271 306 280 205
810.0 147 133 142 206 319 482 634 716 685 545
850.0 367 225 132 88 72 70 68 72 74 67
890.0 62 61 62 80 117 167 191 173 119 65
930.0 45 46 54 68 94 123 177 240 327 398
970.0 422 386 316 246 210 203 207 218 249 312
1010.0 356 387 413 478 629 840 1075 1259 1317 1197
1050.0 946 665 450 335 279 262 269 295 330 367
1090.0 396 419 434 440 429 395 365 345 359 403
1130.0 483 593 714 812 844 809 748 747 886 1069
1170.0 1141 1107 965 829 713 564 445 387 369 373
1210.0 402 457 548 673 881 1235 1855 2827 3923 4530
1250.0 4311 3355 2403 1941 1778 1752 1809 1921 2087 2273
1290.0 2468 2622 2652 2464 2057 1540 1122 868 776 790
1330.0 867 992 1116 1245 1306 1265 1165 1102 1202 1514
1370.0 1912 2186 2215 1973 1582 1212 939 763 691 681
1410.0 715 815 879 961 944 885 776 749 819 862
1450.0 844 774 685 719 790 802 761 708 708 749
1490.0 915 1254 1828 2860 4358 5934 6375 5257 3315 1648
1530.0 875 569 421 339 305 303 280 251 255 264
1570.0 258 263 280 294 311 294 284 279 309 325
1610.0 336 325 296 300 302 337 346 350 364 375
1650.0 386 409 434 444 471 578 754 1196 2088 4355
1690.0 7854 10000 9729 6215 2784 1372 750 447 306 242
1730.0 187 148 156 155 158 162 202 197 192 166
1770.0 126 86 74 55 45 32 22 25 16 34
1810.0 28 26 30 29 26 25 35 40 33 26
1850.0 36 45 47 50 48 48 65 73 71 67
1890.0 56 49 41 38 32 25 23 18 15 18
1930.0 20 18 19 12 15 18 19 21 26 26
1970.0 26 28 24 24 22 17 18 24 26 29
2010.0 35 37 40 44 51 56 67 75 83 88
2050.0 81 78 74 72 67 67 64 61 56 49
2090.0 41 34 30 22 19 13 10 7 5 5
2130.0 3 2 0 1 0 1 2 2 3 2
2170.0 4 2 5 4 6 7 9 10 12 11
2210.0 13 14 14 14 12 9 5 5 5 8
2250.0 8 10 13 15 19 22 25 26 29 29
2290.0 31 31 32 34 34 36 29 22 17 13
2330.0 7 8 7 7 18 12 6 7 8 4
2370.0 8 10 12 13 13 11 11 13 14 16
2410.0 15 14 13 12 11 10 9 7 7 7
2450.0 9 9 9 10 10 12 14 16 16 18
2490.0 20 20 20 18 18 20 25 30 34 37
2530.0 39 42 41 38 36 30 23 20 17 18
2570.0 15 16 17 17 18 19 22 22 25 26
2610.0 29 28 28 24 26 28 28 28 29 30
2650.0 29 29 25 23 21 20 17 18 18 16
2690.0 16 15 15 17 19 17 18 18 18 18
2730.0 19 19 19 21 21 23 22 26 31 32
2770.0 34 36 40 44 50 56 63 73 84 96
2810.0 109 124 143 161 180 208 255 336 448 522
2850.0 517 436 336 281 256 251 259 276 302 330
2890.0 358 386 414 444 489 545 602 643 667 684
2930.0 713 772 868 982 1050 1051 997 917 830 731
2970.0 623 526 450 402 378 378 392 437 522 651
3010.0 742 725 610 452 354 322 327 366 424 468
3050.0 464 411 336 277 249 237 235 234 219 204
3090.0 185 172 168 162 154 142 121 108 96 83
3130.0 75 64 55 48 43 39 34 31 29 26
3170.0 25 24 23 20 18 19 16 15 17 15
3210.0 16 14 13 14 11 11 11 13 10 11
3250.0 11 9 9 11 11 10 11 12 12 12
3290.0 12 12 13 10 13 13 11 13 16 13
3330.0 14 13 14 16 18 20 25 35 50 70
3370.0 87 88 74 50 30 17 11 4 7 7
3410.0 8 8 5 11 12 10 10 11 8 11
3450.0 9 9 7 8 10 9 11 7 6 9
3490.0 9 6 6 10 5 7 8 4 6 9
3530.0 8 11 9 10 10 11 10 6 10 12
3570.0 12 10 9 12 10 11 11 12 7 5
3610.0 12 9 8 11 7 18 8 9 8 7
3650.0 9 10 13 9 9 14 8 16 9 9
3690.0 10 14 12 13 10 13 10 7 8 12
3730.0 14 12 16 12 20 11 12 3 10 14
3770.0 4 10 5 11 11 6 7 6 7 11
3810.0 6 14 11 13 11 5 11 15 15 11
3850.0 11 18 15 14 14 11 14 17 13 20
3890.0 15 16 12 13 14 11 3 12 8 13
3930.0 14 17 11 6 16 13 12 13 10 16
##END=
