##TITLE=Benzenamine, 3-phenoxy-
##JCAMP-DX=4.24
##DATA TYPE=INFRARED SPECTRUM
##ORIGIN=Sadtler Research Labs Under US-EPA Contract
##OWNER=NIST Standard Reference Data Program
##CAS REGISTRY NO=3586-12-7
##MOLFORM=C 12 H 11 N O
##XUNITS=1/CM
##YUNITS=ABSORBANCE
##XFACTOR=1.0
##YFACTOR=0.000171667
##DELTAX=4.0
##FIRSTX=450.0
##LASTX=3966.0
##FIRSTY=0.188834
##MAXX=3966
##MINX=450
##MAXY=1.71667
##MINY=0
##NPOINTS=880
##XYDATA=(X++(Y..Y))
450.0 1100 580 315 339 231 584 147 344 441 541
490.0 491 445 372 370 319 173 183 326 257 307
530.0 203 201 186 191 161 179 57 158 165 214
570.0 276 320 300 290 297 322 281 248 243 267
610.0 290 247 206 278 301 314 371 389 482 570
650.0 700 994 1283 1463 1592 1711 1760 1868 2129 2455
690.0 2728 2474 1891 1315 925 783 695 661 692 830
730.0 887 932 1022 1094 1366 1505 1754 1875 1941 2094
770.0 1969 1753 1456 1292 1118 801 675 530 552 472
810.0 459 536 532 550 685 741 801 911 931 1073
850.0 1046 1065 899 863 720 654 470 391 376 341
890.0 338 339 340 353 313 255 273 227 197 252
930.0 244 282 319 424 591 960 1577 2225 2287 1722
970.0 1046 598 452 317 263 285 424 406 303 181
1010.0 98 112 262 350 335 160 77 3 27 86
1050.0 123 192 250 333 472 567 535 491 449 420
1090.0 442 428 457 432 333 292 311 350 320 404
1130.0 545 941 1719 2945 3545 3093 2347 1809 1855 2028
1170.0 1747 1348 1030 758 685 716 855 1138 1698 2650
1210.0 4126 5832 7922 9540 10000 7931 6473 5195 3807 2657
1250.0 1847 1406 1262 1226 1356 1657 2308 3225 3815 3717
1290.0 3083 2438 2065 1850 1759 1678 1535 1366 1173 991
1330.0 832 660 562 428 315 256 203 203 199 193
1370.0 165 192 202 182 203 205 209 238 214 218
1410.0 223 206 323 305 346 370 438 532 588 764
1450.0 1173 1604 2130 2485 2395 2405 2931 4293 6963 9805
1490.0 9936 8453 5160 3136 2078 1534 1212 1084 1060 1006
1530.0 971 895 855 830 816 808 925 1145 1460 1799
1570.0 2445 3275 4052 6175 6198 6747 7398 5119 5108 4138
1610.0 3739 4055 4070 4810 4886 4710 4005 2729 2022 1262
1650.0 967 746 490 433 385 360 396 293 335 318
1690.0 240 224 285 281 245 217 246 288 225 184
1730.0 205 238 173 147 150 156 120 109 107 100
1770.0 138 160 120 124 109 110 122 109 117 88
1810.0 89 86 67 72 83 92 79 76 98 124
1850.0 102 88 94 100 116 133 114 106 105 108
1890.0 119 130 136 142 153 151 153 155 159 147
1930.0 144 147 141 156 157 143 138 127 110 109
1970.0 92 78 70 65 60 65 62 55 52 56
2010.0 52 59 68 65 66 71 73 79 86 85
2050.0 85 81 75 71 68 55 47 38 33 34
2090.0 37 36 40 43 42 41 35 31 29 25
2130.0 23 19 20 19 16 15 15 15 14 11
2170.0 7 5 5 1 3 0 0 3 4 9
2210.0 10 12 15 15 20 19 20 26 24 23
2250.0 21 20 24 28 30 30 29 32 35 43
2290.0 47 52 57 57 63 73 77 73 70 61
2330.0 51 45 41 31 34 40 40 44 47 67
2370.0 73 72 75 76 71 66 60 58 59 63
2410.0 71 83 101 114 122 128 129 125 124 124
2450.0 117 107 96 86 76 67 59 50 47 44
2490.0 38 35 29 28 26 23 22 25 25 24
2530.0 27 29 32 32 32 33 39 40 42 45
2570.0 48 47 50 51 48 56 52 52 46 50
2610.0 52 50 55 43 44 39 35 30 30 25
2650.0 21 20 22 16 16 21 24 22 28 31
2690.0 30 26 28 25 27 29 27 32 33 38
2730.0 38 39 45 48 45 42 47 47 44 46
2770.0 48 42 43 48 43 38 37 29 24 17
2810.0 23 21 21 21 20 21 17 23 25 28
2850.0 29 32 38 38 40 35 31 33 31 31
2890.0 40 44 45 40 40 43 37 39 37 41
2930.0 48 58 64 70 68 73 64 63 71 78
2970.0 76 80 87 89 86 86 93 104 128 153
3010.0 192 260 334 429 533 652 788 930 1079 1172
3050.0 1173 1109 1044 1007 984 976 1043 1100 1083 962
3090.0 801 650 569 495 405 316 251 193 159 133
3130.0 116 111 108 112 111 116 125 137 145 155
3170.0 178 190 204 220 240 247 273 288 301 310
3210.0 310 309 293 281 260 233 205 186 169 153
3250.0 141 145 145 142 143 152 165 173 192 205
3290.0 219 240 254 264 280 296 305 300 292 298
3330.0 282 273 269 261 256 248 244 250 251 249
3370.0 253 252 256 258 262 267 289 315 348 399
3410.0 429 446 443 422 386 343 303 263 236 217
3450.0 209 201 193 185 187 182 181 191 200 216
3490.0 230 241 240 218 196 176 159 133 105 81
3530.0 58 44 33 25 20 15 10 5 7 4
3570.0 17 12 16 20 15 21 13 8 12 12
3610.0 12 15 15 13 17 24 26 25 21 26
3650.0 28 30 20 13 15 19 27 22 19 11
3690.0 19 21 15 15 10 8 8 10 6 4
3730.0 14 16 9 22 28 28 22 16 14 11
3770.0 19 13 10 5 13 10 16 14 14 16
3810.0 28 20 10 20 22 7 20 26 32 41
3850.0 42 60 63 47 32 22 15 25 28 11
3890.0 8 38 23 21 19 35 29 16 3 35
3930.0 28 12 21 20 33 33 34 43 48 38
##END=
