##TITLE=Glycine, N-(m-nitrophenyl)-, ethyl ester
##JCAMP-DX=4.24
##DATA TYPE=INFRARED SPECTRUM
##ORIGIN=Sadtler Research Labs Under US-EPA Contract
##OWNER=NIST Standard Reference Data Program
##CAS REGISTRY NO=3589-58-0
##MOLFORM=C 10 H 12 N 2 O 4
##XUNITS=1/CM
##YUNITS=ABSORBANCE
##XFACTOR=1.0
##YFACTOR=0.000058545
##DELTAX=4.0
##FIRSTX=450.0
##LASTX=3966.0
##FIRSTY=0.008548
##MAXX=3966
##MINX=450
##MAXY=0.58545
##MINY=0
##NPOINTS=880
##XYDATA=(X++(Y..Y))
450.0 146 101 15 141 138 46 88 45 39 32
490.0 29 39 34 76 10 57 46 61 27 85
530.0 84 20 62 34 45 17 4 34 53 59
570.0 42 65 59 60 73 73 80 78 86 83
610.0 91 63 81 42 53 46 86 71 58 100
650.0 112 169 160 371 454 789 824 660 530 409
690.0 276 234 221 195 190 227 239 296 457 777
730.0 1303 1679 1410 869 525 325 266 209 195 191
770.0 200 255 370 557 721 751 687 696 837 998
810.0 1004 899 800 738 648 483 318 194 172 228
850.0 317 446 563 619 541 420 293 194 159 142
890.0 117 88 76 107 141 166 181 178 159 126
930.0 99 68 36 31 15 6 6 4 8 18
970.0 18 28 64 90 147 269 362 352 335 370
1010.0 481 643 842 1068 1257 1332 1246 1063 864 682
1050.0 557 473 432 423 456 491 517 531 576 665
1090.0 779 900 942 927 894 889 919 1013 1119 1195
1130.0 1249 1282 1323 1337 1323 1262 1209 1223 1346 1586
1170.0 1880 2236 2665 3196 3774 4302 4718 5088 5514 5998
1210.0 6202 5829 4871 3812 3035 2609 2472 2444 2429 2361
1250.0 2248 2135 2042 1996 1922 1815 1652 1523 1411 1313
1290.0 1224 1194 1236 1318 1419 1507 1619 1742 1897 2079
1330.0 2276 2473 2811 3393 4346 5621 6396 6003 4489 2987
1370.0 2261 2156 1915 1417 942 734 685 655 587 522
1410.0 493 471 553 533 548 576 644 707 722 791
1450.0 942 1104 1184 1018 906 957 1093 1164 1268 1440
1490.0 1607 1776 2088 2470 2852 2978 2700 2499 2486 2631
1530.0 2987 3675 4994 7224 9691 10000 7650 4719 2706 1824
1570.0 1475 1358 1432 1544 1664 1602 1360 1077 900 867
1610.0 1029 1334 1778 2057 2181 1801 1371 895 570 423
1650.0 351 303 259 201 224 247 251 240 297 309
1690.0 295 315 401 440 475 520 632 785 819 910
1730.0 1059 1230 1352 1569 1938 2606 3681 4647 4978 4375
1770.0 3220 2069 1327 936 728 563 489 391 347 269
1810.0 223 194 146 141 115 117 75 78 66 105
1850.0 76 53 50 41 41 54 36 23 30 28
1890.0 41 34 26 26 22 36 40 64 83 67
1930.0 66 44 36 27 26 6 11 7 10 7
1970.0 9 0 1 3 0 16 10 8 2 10
2010.0 3 6 11 10 9 9 8 10 14 19
2050.0 19 14 15 21 22 25 21 27 19 21
2090.0 15 14 10 11 13 9 9 13 14 7
2130.0 7 10 13 11 9 5 5 2 5 9
2170.0 6 7 9 9 1 3 7 4 3 2
2210.0 9 5 8 7 10 8 6 12 9 12
2250.0 14 14 14 22 21 19 25 29 32 38
2290.0 44 62 64 76 87 117 100 111 133 118
2330.0 114 120 108 43 214 56 184 81 77 54
2370.0 85 46 87 72 51 24 34 27 20 29
2410.0 28 35 32 42 41 42 39 39 32 32
2450.0 36 29 31 25 30 18 22 22 22 25
2490.0 20 22 18 25 19 18 20 30 28 28
2530.0 24 25 35 30 35 36 39 41 46 43
2570.0 46 47 47 54 44 58 51 57 55 50
2610.0 49 47 45 41 47 44 46 45 45 36
2650.0 49 48 53 54 47 56 57 69 56 68
2690.0 66 65 61 53 59 53 53 46 53 56
2730.0 59 53 64 62 63 67 68 71 71 82
2770.0 72 80 85 95 95 94 98 99 105 105
2810.0 122 129 142 156 174 190 207 223 241 257
2850.0 264 286 297 306 319 335 348 360 389 414
2890.0 431 435 437 444 463 487 525 551 564 563
2930.0 565 589 638 698 730 720 649 570 541 554
2970.0 603 666 752 877 1051 1134 1034 828 692 600
3010.0 512 440 377 331 286 257 264 281 299 295
3050.0 279 240 227 216 236 259 308 319 297 265
3090.0 230 195 168 138 125 118 99 90 66 63
3130.0 50 44 40 31 35 24 20 25 28 22
3170.0 21 33 28 34 20 22 21 23 31 34
3210.0 31 33 27 22 16 19 16 10 22 23
3250.0 18 16 11 26 14 32 19 19 12 18
3290.0 27 25 23 12 31 23 23 29 31 27
3330.0 36 31 42 45 50 59 62 82 77 99
3370.0 100 113 134 137 157 158 173 203 249 285
3410.0 342 433 561 698 782 750 628 487 377 337
3450.0 304 279 244 214 184 135 117 89 90 78
3490.0 77 69 63 61 68 43 44 16 20 48
3530.0 34 11 7 26 43 23 23 13 23 81
3570.0 47 27 14 12 45 61 57 31 35 19
3610.0 61 48 57 55 12 110 25 22 35 37
3650.0 107 21 49 32 16 87 33 96 10 67
3690.0 39 81 38 48 28 58 62 59 60 73
3730.0 42 88 91 69 125 50 118 18 38 58
3770.0 43 38 1 38 10 30 28 45 48 69
3810.0 2 62 29 59 45 11 59 63 53 40
3850.0 64 69 74 58 61 94 44 13 66 87
3890.0 29 96 15 107 51 60 23 72 57 23
3930.0 31 33 29 38 76 37 45 13 19 38
##END=
