##TITLE=Benzene, (2,2-dichloro-1-methylcyclopropyl)-
##JCAMP-DX=4.24
##DATA TYPE=INFRARED SPECTRUM
##ORIGIN=Sadtler Research Labs Under US-EPA Contract
##OWNER=NIST Standard Reference Data Program
##CAS REGISTRY NO=3591-42-2
##MOLFORM=C 10 H 10 Cl 2
##XUNITS=1/CM
##YUNITS=ABSORBANCE
##XFACTOR=1.0
##YFACTOR=0.000062045
##DELTAX=4.0
##FIRSTX=450.0
##LASTX=3966.0
##FIRSTY=0.028355
##MAXX=3966
##MINX=450
##MAXY=0.62045
##MINY=0
##NPOINTS=880
##XYDATA=(X++(Y..Y))
450.0 457 210 366 835 1125 1078 810 423 279 316
490.0 334 277 226 90 60 0 33 56 250 575
530.0 1068 1667 1941 1844 1308 698 305 176 101 144
570.0 147 211 295 416 654 1190 1731 1859 1549 824
610.0 242 110 219 315 330 233 94 68 49 83
650.0 136 212 231 335 374 541 663 767 1241 2334
690.0 4782 6950 8707 8065 5699 3322 1769 960 587 514
730.0 559 690 908 1336 1960 3090 4523 5305 5869 6707
770.0 8394 10000 9943 7810 4810 2528 1400 799 464 287
810.0 219 181 169 163 182 198 226 269 320 388
850.0 491 710 1084 1572 1932 1880 1425 859 460 261
890.0 154 113 123 173 226 256 231 196 185 282
930.0 479 671 704 583 368 232 147 108 86 60
970.0 51 30 28 36 45 44 71 90 127 183
1010.0 297 601 1293 2477 3504 4184 4545 4484 4593 4092
1050.0 3116 2347 2095 2743 4003 5442 6340 6056 5016 3686
1090.0 2648 2013 1635 1419 1422 1476 1423 1180 867 554
1130.0 363 274 215 200 177 167 152 143 128 114
1170.0 110 122 141 147 135 101 82 66 65 67
1210.0 68 91 112 147 177 221 266 317 358 422
1250.0 498 551 542 464 345 257 199 166 155 145
1290.0 139 134 149 182 218 259 282 312 317 311
1330.0 295 267 216 159 113 93 85 103 140 179
1370.0 287 497 809 1108 1249 1056 710 448 320 317
1410.0 392 565 955 1482 2096 2551 2690 2599 2657 2896
1450.0 3079 2723 2180 1569 1042 665 496 378 432 770
1490.0 1655 2827 3297 2961 1860 764 431 375 369 312
1530.0 307 310 293 289 192 138 103 154 113 98
1570.0 122 172 234 326 428 611 894 1296 1603 1645
1610.0 1329 825 424 199 176 121 127 111 76 73
1650.0 113 123 111 130 164 165 177 115 139 155
1690.0 113 105 163 160 155 149 182 234 207 211
1730.0 267 353 381 424 457 421 324 228 147 102
1770.0 108 126 120 165 219 334 429 450 391 265
1810.0 193 182 161 131 91 66 38 23 40 48
1850.0 49 62 107 171 248 306 299 275 282 300
1890.0 285 232 162 110 100 100 96 98 114 134
1930.0 189 275 362 425 398 345 333 326 282 210
1970.0 116 67 64 71 60 54 39 20 20 14
2010.0 12 13 13 10 8 11 9 8 14 20
2050.0 20 19 19 23 29 42 59 90 128 161
2090.0 176 153 108 65 39 32 27 30 32 31
2130.0 34 32 33 38 39 44 39 38 26 24
2170.0 24 18 18 16 15 13 11 7 5 3
2210.0 0 0 1 1 1 2 6 11 12 21
2250.0 27 23 21 14 8 4 5 13 22 27
2290.0 34 29 32 36 40 58 64 66 55 31
2330.0 36 36 44 67 40 56 34 38 39 31
2370.0 26 25 26 23 19 20 19 14 14 13
2410.0 13 15 14 14 13 13 22 25 27 24
2450.0 29 29 33 38 40 43 42 42 35 27
2490.0 25 28 26 26 29 27 28 29 30 26
2530.0 27 21 21 20 20 20 21 22 12 20
2570.0 23 23 24 31 28 29 29 29 36 36
2610.0 34 29 32 32 39 43 42 45 36 36
2650.0 24 20 18 21 19 16 19 16 23 19
2690.0 24 31 30 35 33 42 48 45 38 31
2730.0 31 36 52 73 92 105 93 68 52 49
2770.0 47 49 49 56 54 47 55 64 77 83
2810.0 91 104 112 123 132 150 164 170 166 165
2850.0 174 197 240 291 384 530 738 948 1072 1066
2890.0 947 807 701 668 655 640 607 605 693 934
2930.0 1425 2128 2732 2829 2460 1725 1147 889 1011 1447
2970.0 2045 2471 2383 1985 1792 2305 3189 3386 2991 2072
3010.0 1511 1497 1498 1579 1903 2553 3360 3816 3650 3028
3050.0 2189 1761 1914 2529 3659 4638 4781 4223 3352 2855
3090.0 2734 2470 1925 1428 1125 970 838 687 517 392
3130.0 320 279 262 243 223 200 172 148 141 127
3170.0 116 98 76 49 52 51 47 35 24 24
3210.0 30 25 25 28 30 29 22 13 25 23
3250.0 27 25 24 18 24 23 29 32 33 23
3290.0 27 20 16 21 27 11 10 5 11 18
3330.0 5 12 12 19 22 11 11 10 9 20
3370.0 10 11 10 16 7 3 5 10 11 15
3410.0 20 16 14 5 10 12 7 15 27 19
3450.0 16 22 14 10 6 10 18 15 24 18
3490.0 30 24 31 24 25 15 8 11 9 9
3530.0 10 12 22 11 6 2 10 15 14 3
3570.0 12 13 11 21 13 24 18 19 18 16
3610.0 11 27 10 18 12 22 24 36 40 36
3650.0 27 36 40 34 33 18 36 8 19 29
3690.0 37 32 25 24 18 27 23 15 20 26
3730.0 18 26 25 8 2 9 14 22 29 19
3770.0 19 21 15 26 18 18 2 0 10 11
3810.0 11 0 10 10 1 0 7 0 7 5
3850.0 0 0 19 7 2 18 23 42 26 51
3890.0 36 20 0 0 8 2 34 33 7 3
3930.0 10 14 35 47 25 21 27 29 24 27
##END=
