##TITLE=Benzo[b]thiophene-4-ol
##JCAMP-DX=4.24
##DATA TYPE=INFRARED SPECTRUM
##ORIGIN=Sadtler Research Labs Under US-EPA Contract
##OWNER=NIST Standard Reference Data Program
##CAS REGISTRY NO=3610-02-4
##MOLFORM=C 8 H 6 O S
##XUNITS=1/CM
##YUNITS=ABSORBANCE
##XFACTOR=1.0
##YFACTOR=0.000042563
##DELTAX=4.0
##FIRSTX=450.0
##LASTX=3966.0
##FIRSTY=0.006470
##MAXX=3966
##MINX=450
##MAXY=0.42563
##MINY=0
##NPOINTS=880
##XYDATA=(X++(Y..Y))
450.0 152 291 439 329 117 297 339 273 324 312
490.0 419 229 185 143 225 172 188 120 171 232
530.0 425 516 590 616 688 812 644 408 347 294
570.0 206 208 128 39 50 62 104 94 223 370
610.0 395 379 399 320 202 117 60 54 27 5
650.0 44 42 114 263 497 896 1402 2031 2174 2396
690.0 1960 1080 970 568 331 221 306 678 1466 2821
730.0 3963 5548 8672 10000 6473 5127 3723 2239 1127 631
770.0 418 492 712 632 1056 1266 1351 1288 1200 823
810.0 437 310 230 208 157 153 142 139 169 198
850.0 330 390 454 473 503 473 408 356 376 357
890.0 260 271 292 521 974 2116 4054 5678 6036 6095
930.0 5411 3241 1193 552 363 264 203 124 119 93
970.0 92 72 60 54 66 65 100 121 159 182
1010.0 188 202 192 168 152 154 164 226 327 550
1050.0 678 734 747 671 500 337 305 382 454 534
1090.0 566 554 497 452 429 451 525 664 919 1339
1130.0 1948 2723 3455 3819 3860 3734 3276 2480 1799 1495
1170.0 1224 935 895 1065 1400 1944 2808 3969 5098 5357
1210.0 5218 5213 4254 3274 3102 3211 3360 3270 2902 2569
1250.0 2423 2871 4058 5320 5701 5498 5268 3912 2083 1135
1290.0 856 841 956 1067 1104 1145 1207 1271 1449 1702
1330.0 1998 2336 2596 2636 2370 1945 1452 903 553 398
1370.0 321 270 243 223 223 335 458 611 776 1132
1410.0 1742 2801 4026 4552 4605 4405 3516 2353 2083 2573
1450.0 3161 3552 3768 3728 3253 2653 2034 1541 1230 818
1490.0 510 350 309 332 420 532 571 638 612 598
1530.0 570 645 722 811 942 1138 1617 2419 3846 5247
1570.0 6289 6413 6254 5147 3097 1848 1441 1281 1192 1144
1610.0 1130 1059 916 758 578 393 253 177 143 130
1650.0 121 129 131 119 136 145 151 173 192 219
1690.0 226 236 226 229 198 182 179 183 186 206
1730.0 211 203 199 179 171 163 186 186 203 182
1770.0 184 168 135 133 132 131 130 117 108 98
1810.0 95 97 89 77 71 62 54 58 55 59
1850.0 53 54 52 59 79 122 172 225 256 265
1890.0 265 236 187 145 111 77 44 31 23 20
1930.0 20 19 19 28 23 27 25 26 16 16
1970.0 6 8 11 10 11 19 27 28 29 36
2010.0 35 30 32 30 35 31 28 26 26 23
2050.0 28 35 40 48 50 47 41 33 22 20
2090.0 18 22 18 22 24 28 31 38 37 37
2130.0 36 36 34 26 22 27 27 34 43 48
2170.0 57 71 84 88 96 89 72 62 49 36
2210.0 25 27 19 15 13 17 12 10 8 8
2250.0 5 13 19 19 24 23 32 35 52 66
2290.0 71 87 92 96 98 110 96 86 92 79
2330.0 85 77 56 78 105 71 108 87 119 113
2370.0 127 119 137 129 102 80 65 65 58 76
2410.0 68 55 47 39 34 41 34 38 34 37
2450.0 44 43 50 62 71 80 86 96 99 104
2490.0 101 109 101 91 82 67 54 54 57 59
2530.0 59 59 52 48 39 36 30 37 42 43
2570.0 42 39 40 27 23 22 22 23 24 25
2610.0 36 31 34 37 37 41 38 37 39 45
2650.0 53 62 63 66 73 68 60 54 47 51
2690.0 46 32 22 28 23 16 12 20 19 23
2730.0 26 20 23 31 26 35 34 35 29 37
2770.0 38 40 35 33 35 41 32 37 31 27
2810.0 24 15 13 7 9 7 2 8 6 7
2850.0 23 24 14 14 17 20 20 27 36 33
2890.0 40 41 52 51 51 52 67 60 70 74
2930.0 68 65 59 61 60 54 50 47 44 31
2970.0 29 38 36 41 36 56 74 89 126 175
3010.0 248 315 374 413 437 461 491 577 710 857
3050.0 1001 1075 1106 1089 1059 1088 1146 1194 1177 1087
3090.0 934 730 514 363 274 229 205 174 155 125
3130.0 85 43 33 19 16 17 14 8 11 16
3170.0 24 19 14 20 16 16 13 14 17 22
3210.0 15 23 14 18 19 11 16 9 19 20
3250.0 6 10 10 13 19 16 14 7 6 8
3290.0 15 14 12 18 26 22 18 35 42 48
3330.0 65 78 71 56 52 48 48 45 45 48
3370.0 48 41 54 60 70 67 84 85 78 91
3410.0 74 70 68 55 61 58 36 34 47 35
3450.0 27 33 27 45 31 34 42 30 28 48
3490.0 47 38 37 29 15 33 29 29 15 23
3530.0 16 19 26 16 18 12 27 27 22 4
3570.0 25 35 22 46 44 25 35 32 38 66
3610.0 76 126 163 258 390 649 1138 2232 3931 4791
3650.0 5015 4760 4005 2323 1007 461 245 117 98 60
3690.0 81 56 52 45 56 32 22 31 0 2
3730.0 2 26 2 45 0 35 2 16 24 11
3770.0 17 36 30 44 51 45 59 36 38 27
3810.0 49 57 29 56 24 71 44 45 38 67
3850.0 34 35 68 35 52 45 61 43 26 47
3890.0 83 71 43 50 61 77 96 82 65 82
3930.0 74 68 87 67 54 51 82 94 80 79
##END=
