##TITLE=Cyclohexanol, 2-butyl-,
##JCAMP-DX=4.24
##DATA TYPE=INFRARED SPECTRUM
##ORIGIN=Sadtler Research Labs Under US-EPA Contract
##OWNER=NIST Standard Reference Data Program
##CAS REGISTRY NO=36159-49-6
##MOLFORM=C 10 H 20 O
##XUNITS=1/CM
##YUNITS=ABSORBANCE
##XFACTOR=1.0
##YFACTOR=0.000049268
##DELTAX=4.0
##FIRSTX=450.0
##LASTX=3966.0
##FIRSTY=0.001774
##MAXX=3966
##MINX=450
##MAXY=0.49268
##MINY=0
##NPOINTS=880
##XYDATA=(X++(Y..Y))
450.0 36 23 67 63 50 44 48 30 33 58
490.0 30 30 19 94 54 81 59 43 157 100
530.0 117 77 57 66 19 100 26 63 46 95
570.0 58 41 92 0 99 53 99 69 67 64
610.0 32 53 22 45 76 59 55 18 77 47
650.0 72 82 83 87 82 100 45 91 36 43
690.0 61 34 86 105 90 40 53 112 103 164
730.0 103 192 159 60 84 79 71 57 99 98
770.0 100 124 82 91 97 108 91 66 102 75
810.0 109 100 148 143 141 172 181 177 213 219
850.0 225 216 202 181 176 161 170 171 162 203
890.0 193 224 221 195 176 157 171 169 206 241
930.0 258 272 262 262 282 308 370 461 596 726
970.0 842 873 830 687 561 405 321 290 280 271
1010.0 256 278 333 401 484 572 650 758 843 935
1050.0 1029 1080 1097 1040 921 775 627 520 450 394
1090.0 364 331 331 300 281 292 288 287 343 367
1130.0 394 389 384 363 352 330 299 299 280 301
1170.0 324 364 390 429 436 435 413 401 381 390
1210.0 410 433 442 473 477 463 443 410 388 376
1250.0 370 361 359 370 350 348 327 306 287 281
1290.0 269 275 269 257 257 258 268 268 278 289
1330.0 292 320 343 352 370 350 354 346 355 387
1370.0 408 450 481 520 513 470 380 311 261 220
1410.0 200 177 183 177 185 207 272 367 503 689
1450.0 851 982 989 925 826 693 570 403 266 203
1490.0 153 113 115 99 110 99 83 77 95 73
1530.0 64 64 74 92 63 64 55 83 73 53
1570.0 61 53 54 43 43 32 44 44 46 39
1610.0 45 42 62 49 54 42 51 43 43 63
1650.0 51 84 37 39 35 44 42 35 37 66
1690.0 31 31 62 72 44 40 34 57 42 43
1730.0 41 60 43 42 31 51 51 42 42 32
1770.0 40 50 30 36 41 41 41 41 41 31
1810.0 30 30 30 30 30 41 35 31 31 31
1850.0 30 30 30 29 30 29 27 31 26 24
1890.0 29 29 30 30 18 30 30 30 19 19
1930.0 19 31 30 30 29 29 20 29 29 28
1970.0 18 29 18 18 18 26 19 19 25 28
2010.0 28 28 28 28 29 29 28 28 28 24
2050.0 30 21 29 27 20 26 27 17 27 27
2090.0 25 30 20 27 27 27 27 27 27 27
2130.0 28 27 27 27 27 27 26 21 28 26
2170.0 40 35 25 27 27 26 26 26 36 20
2210.0 19 26 28 22 26 26 27 27 17 27
2250.0 15 17 26 18 26 20 26 14 27 24
2290.0 25 36 35 34 40 34 47 49 66 64
2330.0 74 89 87 84 67 45 77 86 106 100
2370.0 92 58 56 37 28 25 25 25 24 25
2410.0 25 26 33 33 30 25 24 24 16 16
2450.0 14 14 23 24 13 13 14 17 19 14
2490.0 19 15 17 14 13 24 24 13 24 24
2530.0 23 23 29 17 25 24 23 22 24 34
2570.0 33 33 45 45 44 56 54 48 55 54
2610.0 45 46 56 65 66 66 66 68 74 86
2650.0 83 106 116 127 135 146 136 136 137 117
2690.0 115 104 97 98 91 90 87 87 87 98
2730.0 106 109 107 107 107 107 108 108 108 115
2770.0 109 119 127 138 149 160 180 181 201 200
2810.0 211 228 243 276 307 358 419 513 661 919
2850.0 1310 1898 2641 3388 3973 4155 3888 3468 3018 2650
2890.0 2387 2168 2130 2224 2468 2851 3346 4042 4991 6227
2930.0 7667 9114 10000 9916 8560 6634 4715 3403 2948 3016
2970.0 2990 2545 1851 1167 727 511 391 336 284 253
3010.0 221 202 181 163 148 145 133 115 106 104
3050.0 84 84 74 73 63 72 60 62 43 54
3090.0 52 54 53 43 45 44 45 45 45 34
3130.0 27 34 34 28 25 23 27 34 34 24
3170.0 25 25 25 25 26 26 26 26 26 35
3210.0 25 25 25 27 26 26 27 27 20 26
3250.0 26 19 27 18 16 27 28 18 8 17
3290.0 14 19 16 23 18 25 27 19 17 19
3330.0 18 19 28 19 23 17 24 18 25 30
3370.0 26 28 29 19 20 28 20 16 25 29
3410.0 31 19 20 27 30 20 31 30 31 31
3450.0 31 19 20 32 31 31 30 30 23 31
3490.0 32 32 31 31 29 21 32 26 22 28
3530.0 22 16 12 33 22 34 24 21 22 21
3570.0 24 19 22 14 24 32 33 33 34 34
3610.0 34 34 41 54 58 85 103 118 180 252
3650.0 335 378 367 331 257 188 116 87 48 40
3690.0 36 36 36 15 25 16 15 17 11 29
3730.0 19 25 27 15 28 15 27 16 17 16
3770.0 15 8 10 16 17 18 13 17 17 17
3810.0 18 18 17 27 18 20 27 23 18 12
3850.0 25 32 10 8 9 8 8 8 8 8
3890.0 8 8 8 8 8 8 8 8 8 8
3930.0 8 8 8 8 8 8 8 8 8 8
##END=
