##TITLE=4-Pyridinemethanol, 1,2,3,6-tetrahydro-1-methyl-
##JCAMP-DX=4.24
##DATA TYPE=INFRARED SPECTRUM
##ORIGIN=Sadtler Research Labs Under US-EPA Contract
##OWNER=NIST Standard Reference Data Program
##CAS REGISTRY NO=36166-75-3
##MOLFORM=C 7 H 13 N O
##XUNITS=1/CM
##YUNITS=ABSORBANCE
##XFACTOR=1.0
##YFACTOR=0.000055798
##DELTAX=4.0
##FIRSTX=450.0
##LASTX=3966.0
##FIRSTY=0.009207
##MAXX=3966
##MINX=450
##MAXY=0.55798
##MINY=0
##NPOINTS=880
##XYDATA=(X++(Y..Y))
450.0 165 223 214 177 180 142 207 128 122 155
490.0 199 194 183 186 200 255 315 361 342 394
530.0 340 298 277 256 234 285 272 242 244 242
570.0 230 229 205 184 100 67 50 58 28 40
610.0 24 48 43 30 16 24 17 32 28 24
650.0 48 35 75 64 93 193 236 268 364 370
690.0 377 366 375 356 342 301 242 212 172 147
730.0 121 110 122 144 185 248 358 442 561 668
770.0 718 699 672 617 524 461 426 453 574 746
810.0 987 1243 1488 1783 1833 1524 1226 938 637 425
850.0 285 201 174 160 155 167 157 174 191 199
890.0 219 247 279 317 369 427 495 571 611 641
930.0 671 697 757 874 1046 1295 1650 2055 2549 2943
970.0 3090 3162 3133 3049 3057 3268 3774 4576 5480 6065
1010.0 6211 6049 5533 4808 4236 3984 3762 3508 3395 3454
1050.0 3562 3595 3427 3096 2702 2321 2028 1808 1649 1529
1090.0 1360 1147 1007 909 895 977 1158 1424 1728 2087
1130.0 2374 2577 2605 2539 2406 2305 2433 2782 3212 3577
1170.0 3770 3689 3345 2921 2597 2436 2361 2317 2255 2122
1210.0 1811 1551 1385 1273 1173 1088 1037 1037 1099 1212
1250.0 1388 1602 1802 1903 1975 2001 2016 2115 2321 2505
1290.0 2491 2446 2355 2062 1745 1508 1328 1227 1158 1114
1330.0 1086 1116 1210 1398 1683 1995 2345 2708 3153 3727
1370.0 4401 4889 4888 4452 3724 2678 1805 1321 1107 976
1410.0 902 852 871 955 1072 1195 1372 1663 1886 2036
1450.0 2243 2492 2676 2707 2664 2414 1972 1472 1011 708
1490.0 496 358 278 208 203 152 143 130 145 134
1530.0 134 148 160 167 156 170 126 135 122 104
1570.0 100 102 100 104 88 90 72 90 78 85
1610.0 89 93 102 96 101 106 120 106 115 96
1650.0 92 119 102 95 112 131 172 178 181 184
1690.0 138 93 93 69 65 61 71 54 75 57
1730.0 51 77 69 54 45 55 56 54 44 53
1770.0 39 51 35 44 52 59 48 57 70 76
1810.0 81 93 107 91 97 67 72 45 44 32
1850.0 28 31 25 24 20 17 22 30 25 28
1890.0 27 31 37 37 35 32 41 37 32 36
1930.0 41 41 46 51 51 59 55 58 56 53
1970.0 62 59 59 61 66 64 68 65 68 67
2010.0 64 59 55 53 54 53 45 49 46 46
2050.0 41 38 36 28 24 23 26 19 23 19
2090.0 19 12 14 13 13 9 8 8 3 8
2130.0 0 5 10 9 10 14 15 19 28 31
2170.0 31 34 36 36 28 27 23 19 16 18
2210.0 23 22 22 26 27 25 25 26 28 28
2250.0 29 31 36 38 34 41 40 45 42 49
2290.0 47 49 43 51 49 56 59 58 61 62
2330.0 73 72 66 91 90 84 92 76 105 105
2370.0 92 89 93 86 68 70 66 70 78 77
2410.0 79 78 78 78 82 81 84 82 84 88
2450.0 85 79 76 79 79 75 76 85 93 99
2490.0 111 118 126 137 149 148 153 151 150 145
2530.0 140 146 151 155 160 157 153 155 157 163
2570.0 173 182 188 195 198 207 209 217 227 244
2610.0 261 282 320 364 413 468 507 550 587 627
2650.0 680 760 863 989 1135 1290 1450 1604 1740 1817
2690.0 1886 1939 1978 2024 2108 2218 2356 2560 2789 3045
2730.0 3270 3531 3771 3941 4084 4290 4593 5058 5818 6793
2770.0 7825 8746 9550 9883 10000 9989 8889 7509 6245 5006
2810.0 3954 3152 2602 2305 2267 2513 3013 3672 4342 4994
2850.0 5406 5368 5234 5082 5077 5196 5365 5491 5550 5612
2890.0 5747 6080 6570 7190 7817 8507 8900 9044 9123 8897
2930.0 8586 8494 8740 9334 9925 9554 8785 7815 6266 4977
2970.0 4507 3957 3479 3285 2667 1951 1459 1146 991 935
3010.0 951 1011 1079 1097 1079 1030 931 790 678 609
3050.0 560 520 493 474 443 401 346 289 251 217
3090.0 186 163 152 150 153 145 139 141 136 140
3130.0 137 136 123 123 116 115 113 103 96 97
3170.0 90 86 79 79 80 84 76 79 76 71
3210.0 72 64 63 59 58 54 48 44 35 39
3250.0 38 47 36 35 39 35 42 33 40 46
3290.0 46 43 45 40 46 48 51 52 55 57
3330.0 46 55 60 55 53 53 51 48 53 61
3370.0 56 56 48 52 54 48 40 51 47 47
3410.0 51 47 54 52 55 52 56 49 56 48
3450.0 55 63 61 50 52 58 48 52 48 45
3490.0 56 56 52 47 41 31 49 40 34 16
3530.0 29 39 40 36 40 40 29 29 36 19
3570.0 48 45 63 65 61 87 75 74 66 80
3610.0 97 94 122 161 223 321 423 577 723 934
3650.0 1082 1115 1155 1148 1131 979 863 693 529 382
3690.0 277 209 167 145 128 104 106 104 96 99
3730.0 87 81 59 87 65 53 43 42 41 54
3770.0 37 54 26 42 32 47 45 21 32 29
3810.0 56 43 24 44 43 58 57 52 46 66
3850.0 63 99 75 65 74 71 55 80 90 78
3890.0 68 49 67 78 78 92 79 80 70 69
3930.0 50 40 76 73 55 52 49 53 50 33
##END=
