##TITLE=Benzenesulfonamide, N-butyl-
##JCAMP-DX=4.24
##DATA TYPE=INFRARED SPECTRUM
##ORIGIN=Sadtler Research Labs Under US-EPA Contract
##OWNER=NIST Standard Reference Data Program
##CAS REGISTRY NO=3622-84-2
##MOLFORM=C 10 H 15 N O 2 S
##XUNITS=1/CM
##YUNITS=ABSORBANCE
##XFACTOR=1.0
##YFACTOR=0.000063910
##DELTAX=4.0
##FIRSTX=450.0
##LASTX=3966.0
##FIRSTY=0.002301
##MAXX=3966
##MINX=450
##MAXY=0.6391
##MINY=0
##NPOINTS=880
##XYDATA=(X++(Y..Y))
450.0 36 102 95 98 125 109 92 118 121 112
490.0 121 219 37 236 303 301 304 393 395 540
530.0 516 594 570 591 794 1032 1324 1787 2338 2882
570.0 3287 3490 4379 5445 6573 6471 5376 3822 2213 1433
610.0 1061 850 730 593 503 407 375 328 325 337
650.0 323 344 387 467 640 684 787 1108 1630 2168
690.0 2248 1901 1445 1250 1386 1694 1942 2021 2118 2122
730.0 2089 2000 1901 2032 2306 2329 1966 1378 925 773
770.0 757 838 935 1028 1073 1071 1022 980 869 802
810.0 759 751 770 834 935 978 1115 1196 1169 1144
850.0 1042 908 779 676 593 640 682 811 956 1063
890.0 1104 1060 977 859 751 613 499 380 293 211
930.0 153 138 140 141 177 208 251 293 328 385
970.0 406 392 348 273 183 144 137 131 126 134
1010.0 158 266 448 684 864 958 928 833 727 719
1050.0 793 895 1058 1258 1517 1822 2111 2317 2486 2769
1090.0 3325 3784 3615 2871 1891 1286 949 713 596 510
1130.0 454 450 494 607 831 1302 2178 3711 6056 8624
1170.0 10000 9432 7374 4781 2826 1581 886 558 402 312
1210.0 280 281 283 275 242 226 198 175 146 143
1250.0 147 147 179 197 200 249 274 305 356 381
1290.0 403 424 472 537 627 694 760 864 1086 1398
1330.0 1754 2131 2565 3103 3687 4175 4357 4219 3805 3225
1370.0 2651 2205 1889 1741 1736 1829 2052 2418 2920 3422
1410.0 3735 3667 3213 2500 1866 1419 1195 1262 1451 1691
1450.0 1800 1530 1263 998 931 915 918 874 792 651
1490.0 470 306 224 165 168 109 95 75 83 63
1530.0 39 59 58 37 15 26 24 40 14 1
1570.0 18 33 47 44 57 66 59 43 30 16
1610.0 18 19 23 4 7 12 11 26 20 45
1650.0 43 65 30 66 67 96 96 93 83 70
1690.0 36 44 41 49 30 33 40 52 31 29
1730.0 42 69 41 54 53 83 80 98 117 111
1770.0 132 126 127 110 103 119 152 187 227 233
1810.0 218 179 130 96 93 81 71 69 69 66
1850.0 53 55 71 73 65 88 93 99 112 136
1890.0 153 157 166 165 165 151 129 114 100 77
1930.0 80 83 99 115 140 162 185 184 179 177
1970.0 171 156 126 111 97 74 74 66 68 65
2010.0 62 54 61 48 57 50 44 50 54 52
2050.0 64 46 52 51 72 82 82 99 106 100
2090.0 91 91 93 96 95 109 109 109 115 116
2130.0 110 116 116 109 110 104 109 114 118 112
2170.0 120 117 117 112 111 111 103 111 103 104
2210.0 98 104 94 91 104 95 104 103 104 104
2250.0 128 126 126 128 127 126 116 121 122 128
2290.0 139 157 161 182 195 200 211 220 233 206
2330.0 199 165 159 141 134 179 219 185 115 39
2370.0 1 0 11 36 57 80 70 85 87 85
2410.0 86 78 77 76 70 83 73 71 76 73
2450.0 78 71 71 72 63 64 66 62 73 64
2490.0 63 69 73 79 72 80 73 64 64 50
2530.0 47 58 54 55 47 52 49 42 43 49
2570.0 51 51 67 67 67 68 69 69 61 61
2610.0 71 61 63 70 79 87 85 88 101 91
2650.0 83 85 87 120 121 129 144 145 128 138
2690.0 119 109 95 88 86 84 83 79 79 93
2730.0 94 96 105 118 121 124 124 111 113 114
2770.0 104 115 106 114 122 131 142 145 147 159
2810.0 161 181 183 204 222 242 274 314 347 411
2850.0 481 582 700 864 1047 1227 1376 1499 1618 1652
2890.0 1598 1461 1320 1250 1251 1327 1469 1636 1860 2096
2930.0 2388 2676 2937 3123 3121 2959 2732 2596 2707 2941
2970.0 3176 3103 2651 2035 1442 1047 814 648 542 485
3010.0 433 405 395 386 385 393 381 389 367 344
3050.0 373 412 527 666 893 1162 1439 1429 1223 873
3090.0 667 565 457 345 241 183 159 136 130 120
3130.0 109 106 125 109 108 113 123 131 123 140
3170.0 131 118 139 122 119 117 116 112 117 131
3210.0 109 112 112 129 112 119 129 133 126 126
3250.0 122 120 130 121 114 130 138 121 132 121
3290.0 99 87 117 98 95 101 80 89 84 109
3330.0 94 100 101 100 134 123 133 120 151 132
3370.0 187 217 220 267 286 344 444 548 598 701
3410.0 812 873 864 854 757 657 551 438 359 259
3450.0 217 200 160 157 144 120 106 109 122 114
3490.0 107 108 89 85 104 96 93 92 97 87
3530.0 77 94 85 70 99 92 67 107 109 106
3570.0 98 93 100 109 116 102 117 101 96 103
3610.0 108 74 92 90 103 100 66 38 79 94
3650.0 83 87 89 83 105 110 88 73 86 89
3690.0 94 85 88 81 91 89 82 82 89 91
3730.0 78 98 65 77 99 67 54 64 75 69
3770.0 96 85 81 89 69 94 100 87 91 75
3810.0 85 96 77 72 71 70 85 76 89 99
3850.0 99 80 85 107 115 109 104 79 85 86
3890.0 88 89 100 104 90 105 97 98 101 97
3930.0 116 114 127 112 85 79 74 91 95 93
##END=
