##TITLE=Ethanone, 1-(2,4-difluorophenyl)-
##JCAMP-DX=4.24
##DATA TYPE=INFRARED SPECTRUM
##ORIGIN=Sadtler Research Labs Under US-EPA Contract
##OWNER=NIST Standard Reference Data Program
##CAS REGISTRY NO=364-83-0
##MOLFORM=C 8 H 6 F 2 O
##XUNITS=1/CM
##YUNITS=ABSORBANCE
##XFACTOR=1.0
##YFACTOR=0.000127216
##DELTAX=4.0
##FIRSTX=450.0
##LASTX=3966.0
##FIRSTY=0.021245
##MAXX=3966
##MINX=450
##MAXY=1.27216
##MINY=0
##NPOINTS=880
##XYDATA=(X++(Y..Y))
450.0 167 169 134 73 71 70 47 42 36 40
490.0 42 81 81 132 178 277 320 398 534 749
530.0 970 1194 1272 1252 1131 952 806 627 462 361
570.0 328 333 372 405 441 446 437 392 335 318
610.0 353 370 463 641 427 288 197 87 46 6
650.0 16 10 15 9 13 9 16 30 29 20
690.0 9 8 1 9 1 14 18 31 72 159
730.0 307 358 362 346 201 92 54 28 31 24
770.0 22 28 20 35 33 49 58 105 169 290
810.0 485 597 793 927 629 433 407 418 812 1244
850.0 1837 2752 2524 1603 1269 656 319 120 90 64
890.0 51 44 42 49 43 58 63 76 79 95
930.0 107 117 144 168 217 290 467 831 1636 3040
970.0 3624 3495 2981 1505 649 383 234 190 141 137
1010.0 122 133 133 151 158 142 139 124 126 109
1050.0 132 139 186 232 286 342 361 350 318 306
1090.0 359 609 1324 2776 3574 3763 3437 2027 947 582
1130.0 539 942 1827 2342 2380 2250 1156 499 285 187
1170.0 161 145 153 161 186 203 228 262 323 458
1210.0 756 1241 1547 1651 1684 1431 1320 1620 2345 3747
1250.0 5901 8243 9754 10000 8612 6320 4651 3397 2516 1906
1290.0 1414 1105 980 945 918 851 708 545 400 298
1330.0 248 239 252 300 369 497 720 1153 1889 2434
1370.0 2496 2279 1464 719 494 423 469 567 733 940
1410.0 1194 1536 1998 2554 2956 3115 2879 2405 1815 1234
1450.0 822 597 451 442 544 727 805 853 850 968
1490.0 1522 2376 2623 2606 2055 1027 476 289 222 195
1530.0 171 176 176 196 209 254 329 427 553 670
1570.0 845 1026 1295 1615 2022 2598 3279 4355 5692 7461
1610.0 8179 8101 6960 5498 4311 3369 2781 2124 1656 1234
1650.0 1001 803 697 668 689 710 748 771 765 880
1690.0 1200 2027 3511 5621 6438 6660 6437 4104 2362 1428
1730.0 827 631 543 554 508 458 363 279 211 168
1770.0 157 139 140 125 117 93 89 76 75 67
1810.0 59 57 50 53 46 46 41 46 44 42
1850.0 36 23 18 11 22 25 41 47 52 52
1890.0 46 44 47 52 54 65 66 78 81 81
1930.0 78 74 67 60 56 47 42 33 30 24
1970.0 18 15 16 16 17 22 23 26 22 22
2010.0 20 18 20 19 21 25 31 33 38 33
2050.0 27 16 11 7 5 7 12 16 16 15
2090.0 9 7 8 11 13 14 17 14 14 10
2130.0 10 6 6 4 3 2 3 5 8 10
2170.0 10 13 10 9 6 2 0 0 1 3
2210.0 6 10 16 21 26 29 34 32 27 18
2250.0 13 10 6 7 5 8 11 11 16 15
2290.0 13 10 10 12 12 17 25 33 48 61
2330.0 58 67 72 69 64 64 52 46 46 47
2370.0 53 50 47 42 41 39 42 43 46 52
2410.0 51 46 40 33 26 27 25 25 24 22
2450.0 22 22 23 26 26 27 28 22 19 16
2490.0 14 13 11 11 10 12 13 19 19 24
2530.0 24 27 27 25 23 21 23 27 33 38
2570.0 50 59 65 66 60 54 42 34 27 26
2610.0 25 28 26 26 30 30 30 29 27 21
2650.0 19 14 13 14 16 22 21 24 23 23
2690.0 22 23 23 23 21 24 27 25 25 25
2730.0 26 25 28 27 28 30 29 32 34 33
2770.0 33 29 23 20 19 19 18 18 22 21
2810.0 24 16 14 12 11 9 13 14 18 22
2850.0 22 27 28 28 30 31 31 30 29 27
2890.0 28 29 34 35 38 37 40 40 46 50
2930.0 57 71 81 91 97 95 87 86 86 89
2970.0 100 114 132 144 165 176 167 158 160 179
3010.0 236 303 326 309 248 167 112 88 73 62
3050.0 62 64 65 67 69 68 74 93 121 154
3090.0 163 163 154 133 113 100 73 51 38 35
3130.0 33 32 28 22 24 21 20 15 21 16
3170.0 15 15 18 20 21 22 19 16 14 12
3210.0 11 10 9 10 7 7 8 6 10 2
3250.0 2 3 3 3 6 7 3 9 6 8
3290.0 12 14 8 9 9 8 8 9 10 10
3330.0 10 12 14 10 11 10 12 13 17 19
3370.0 21 22 29 49 69 93 108 119 111 79
3410.0 51 34 18 11 11 6 7 3 4 9
3450.0 11 10 9 7 8 11 4 4 11 3
3490.0 5 4 6 6 1 3 4 9 7 6
3530.0 4 9 4 4 5 2 6 8 8 4
3570.0 6 4 8 2 5 7 0 4 4 5
3610.0 3 8 7 5 5 9 9 1 6 1
3650.0 4 4 5 3 9 3 6 1 1 5
3690.0 10 9 6 7 9 5 0 7 8 8
3730.0 2 7 7 6 6 5 14 12 8 4
3770.0 9 7 10 11 17 11 9 7 7 8
3810.0 3 5 9 13 4 3 6 2 10 12
3850.0 11 0 15 7 0 7 7 0 12 17
3890.0 11 11 13 15 12 4 11 10 7 0
3930.0 11 14 6 7 18 6 22 27 8 16
##END=
