##TITLE=Ethanamine, 2-[(2-furanylmethyl)thio]-
##JCAMP-DX=4.24
##DATA TYPE=INFRARED SPECTRUM
##ORIGIN=Sadtler Research Labs Under US-EPA Contract
##OWNER=NIST Standard Reference Data Program
##CAS REGISTRY NO=36415-21-1
##MOLFORM=C 7 H 11 N O S
##XUNITS=1/CM
##YUNITS=ABSORBANCE
##XFACTOR=1.0
##YFACTOR=0.000145377
##DELTAX=4.0
##FIRSTX=450.0
##LASTX=3966.0
##FIRSTY=0.038234
##MAXX=3966
##MINX=450
##MAXY=1.45377
##MINY=0
##NPOINTS=880
##XYDATA=(X++(Y..Y))
450.0 263 171 380 204 261 258 18 69 33 14
490.0 150 72 30 88 179 270 371 479 453 426
530.0 328 204 210 114 55 80 38 87 132 159
570.0 199 179 186 166 185 134 88 93 32 24
610.0 60 26 59 34 28 49 2 6 39 41
650.0 59 53 73 199 330 518 493 529 385 198
690.0 131 98 100 87 114 177 169 168 150 203
730.0 234 261 386 522 600 727 798 773 831 894
770.0 1018 1069 1094 974 769 585 486 547 835 1544
810.0 2489 3171 4203 3873 2589 1604 913 411 207 126
850.0 102 88 81 92 127 166 167 268 314 304
890.0 311 253 212 205 187 263 345 371 403 327
930.0 225 124 125 124 139 178 156 125 102 66
970.0 56 59 51 63 56 71 74 83 63 66
1010.0 78 51 61 51 53 82 82 98 138 143
1050.0 156 178 165 145 171 226 308 443 577 627
1090.0 631 487 371 251 164 158 168 235 349 540
1130.0 725 763 722 704 488 279 153 113 97 81
1170.0 86 86 86 119 108 143 166 188 234 286
1210.0 353 350 375 380 362 398 466 656 1018 1585
1250.0 2258 2671 2904 3228 3067 2559 2216 1944 1620 1318
1290.0 1201 1079 953 808 633 592 570 589 725 920
1330.0 1292 1930 2864 4112 5233 5804 5944 5317 4256 3339
1370.0 2614 2145 1739 1411 1210 1035 898 767 699 673
1410.0 622 609 491 475 358 367 333 318 373 320
1450.0 368 440 428 550 524 594 635 641 780 850
1490.0 1232 1639 2281 3123 3340 3832 3702 3416 3467 3437
1530.0 3954 4702 5239 6709 7315 9063 9948 9558 10000 7664
1570.0 6130 4660 3751 3343 2863 2433 2091 1774 1571 1472
1610.0 1510 1625 1879 2102 1980 1907 1515 1033 683 416
1650.0 355 228 220 132 155 163 125 130 89 138
1690.0 85 99 125 140 97 89 81 112 75 50
1730.0 85 46 104 75 75 108 117 138 141 156
1770.0 146 132 112 59 55 53 30 66 0 42
1810.0 39 30 55 52 71 74 74 91 68 82
1850.0 43 39 58 20 39 37 53 55 58 62
1890.0 96 93 124 113 87 77 49 47 24 33
1930.0 27 31 34 23 28 25 25 23 19 15
1970.0 20 19 21 22 27 25 23 36 32 36
2010.0 33 30 28 36 32 34 34 30 28 28
2050.0 32 28 34 26 22 31 25 32 29 24
2090.0 24 21 19 21 14 11 12 14 11 16
2130.0 11 8 20 12 12 9 6 16 14 19
2170.0 19 19 17 23 19 20 15 14 15 10
2210.0 12 9 12 12 8 7 5 8 7 3
2250.0 10 18 15 19 24 25 26 27 21 10
2290.0 18 4 7 3 4 7 0 3 9 15
2330.0 11 9 19 9 41 28 28 21 28 35
2370.0 44 33 36 42 43 44 42 38 35 34
2410.0 36 38 42 44 47 54 53 52 52 43
2450.0 44 42 39 39 42 44 44 41 39 36
2490.0 37 36 41 44 42 44 47 48 47 43
2530.0 45 43 43 45 43 47 44 43 45 43
2570.0 43 38 42 42 41 44 44 47 50 48
2610.0 48 46 47 52 47 49 50 55 56 49
2650.0 49 49 47 46 48 53 54 61 66 66
2690.0 76 78 74 72 65 66 63 55 54 53
2730.0 52 54 56 63 73 79 89 95 96 87
2770.0 76 75 70 71 64 66 68 65 71 72
2810.0 73 78 83 78 87 95 111 116 132 145
2850.0 165 187 214 245 290 348 411 460 493 499
2890.0 489 470 453 442 431 426 432 448 492 561
2930.0 665 785 866 888 838 718 566 444 374 327
2970.0 305 284 258 244 243 251 273 287 305 322
3010.0 346 368 371 372 372 367 363 377 415 449
3050.0 472 464 421 356 296 261 244 230 214 196
3090.0 173 150 127 119 111 99 87 85 76 66
3130.0 56 57 53 49 42 35 35 32 33 36
3170.0 35 38 35 39 37 37 34 38 37 38
3210.0 36 45 39 46 42 44 43 39 39 42
3250.0 41 39 42 42 37 44 43 41 38 46
3290.0 42 45 41 42 39 34 45 41 42 37
3330.0 34 41 41 39 39 41 41 41 42 44
3370.0 36 42 35 41 44 37 41 34 36 38
3410.0 35 43 43 35 41 31 41 31 36 44
3450.0 38 39 39 39 44 39 43 32 33 45
3490.0 32 39 41 36 30 34 43 39 38 29
3530.0 45 39 47 38 39 39 52 34 52 36
3570.0 34 36 48 33 53 25 56 19 47 25
3610.0 50 46 43 52 30 59 51 30 19 54
3650.0 45 93 15 50 14 53 75 81 47 19
3690.0 74 36 32 38 45 47 63 32 42 31
3730.0 55 77 60 79 86 112 64 70 25 56
3770.0 46 60 23 47 34 34 30 64 55 117
3810.0 23 91 39 126 64 70 64 87 77 49
3850.0 52 105 95 46 91 85 62 78 55 83
3890.0 61 55 62 55 83 47 45 71 46 68
3930.0 53 58 49 42 81 62 87 69 75 82
##END=
