##TITLE=Bis(2-ethylhexyl) hydrogen phosphite
##JCAMP-DX=4.24
##DATA TYPE=INFRARED SPECTRUM
##ORIGIN=Sadtler Research Labs Under US-EPA Contract
##OWNER=NIST Standard Reference Data Program
##CAS REGISTRY NO=3658-48-8
##MOLFORM=C 16 H 35 O 3 P
##XUNITS=1/CM
##YUNITS=ABSORBANCE
##XFACTOR=1.0
##YFACTOR=0.000049854
##DELTAX=4.0
##FIRSTX=450.0
##LASTX=3966.0
##FIRSTY=0.019243
##MAXX=3966
##MINX=450
##MAXY=0.49854
##MINY=0
##NPOINTS=880
##XYDATA=(X++(Y..Y))
450.0 386 320 327 261 288 304 256 246 241 279
490.0 320 293 288 311 241 274 284 342 459 479
530.0 476 495 461 501 516 520 506 573 476 479
570.0 409 260 293 320 292 373 271 231 163 139
610.0 147 202 131 173 152 139 148 98 69 71
650.0 69 135 165 185 125 136 131 122 129 114
690.0 217 154 168 163 127 169 197 235 286 311
730.0 321 298 286 290 327 290 299 401 449 524
770.0 560 595 576 620 597 577 592 541 558 555
810.0 554 541 596 558 593 566 591 592 589 611
850.0 633 620 652 617 596 575 545 512 533 515
890.0 533 583 581 598 628 673 729 768 842 974
930.0 1092 1238 1506 1842 2462 3332 4519 6042 7663 9006
970.0 9798 10000 9538 8782 7538 6268 5181 4308 3664 3263
1010.0 2889 2713 2621 2606 2761 2994 3313 3687 3944 4050
1050.0 3938 3619 3366 3069 2854 2745 2665 2612 2556 2336
1090.0 2027 1659 1324 1119 1002 928 925 882 799 783
1130.0 711 678 704 690 713 703 652 640 570 486
1170.0 451 384 367 380 351 387 399 376 427 423
1210.0 406 434 418 448 488 478 511 580 588 679
1250.0 784 868 1086 1324 1708 2319 2959 3508 3537 3070
1290.0 2594 2316 2087 1877 1542 1196 966 773 622 590
1330.0 515 483 496 447 480 468 450 459 466 450
1370.0 496 527 639 802 923 935 769 574 453 373
1410.0 308 334 337 343 330 311 343 487 457 611
1450.0 787 971 1400 1439 1659 1638 1508 1166 861 614
1490.0 549 395 390 292 412 306 240 276 356 249
1530.0 181 257 262 326 210 170 216 383 297 163
1570.0 223 145 239 128 107 137 138 117 112 125
1610.0 138 127 215 129 162 124 165 193 116 224
1650.0 204 448 163 144 113 181 141 149 163 252
1690.0 155 164 250 303 155 138 159 284 153 136
1730.0 162 275 191 184 189 246 199 216 192 149
1770.0 211 210 145 132 141 150 184 126 143 129
1810.0 130 135 124 125 172 146 142 146 107 175
1850.0 137 126 139 118 128 162 106 115 123 124
1890.0 130 122 93 120 102 108 106 106 104 118
1930.0 95 112 107 76 89 78 106 99 94 95
1970.0 93 94 82 79 81 103 67 87 108 93
2010.0 56 38 91 91 101 64 70 108 83 93
2050.0 70 74 69 84 92 83 70 70 99 83
2090.0 95 69 69 78 74 64 81 76 69 80
2130.0 78 78 78 76 67 82 75 79 78 73
2170.0 79 75 58 76 66 85 98 82 60 52
2210.0 63 81 92 77 68 75 56 65 76 65
2250.0 98 71 84 73 56 100 77 57 93 71
2290.0 86 113 74 101 89 92 100 89 100 92
2330.0 107 98 106 111 107 153 177 177 278 218
2370.0 204 192 249 335 386 399 434 444 473 503
2410.0 514 584 622 681 728 730 675 642 568 472
2450.0 418 330 279 229 176 150 135 112 124 135
2490.0 121 117 109 116 100 93 122 114 91 144
2530.0 114 117 120 107 111 138 111 122 141 122
2570.0 142 133 121 133 136 145 154 132 153 155
2610.0 145 142 141 141 170 150 137 168 123 157
2650.0 173 150 172 165 172 189 169 159 188 192
2690.0 187 204 184 206 194 178 210 204 201 237
2730.0 238 246 268 237 280 289 279 299 298 285
2770.0 301 283 268 295 296 305 345 334 363 378
2810.0 379 424 421 454 525 562 606 714 785 931
2850.0 1172 1483 1995 2619 3305 3858 4015 4002 4103 4139
2890.0 3999 3706 3450 3438 3555 3826 4245 4778 5419 6244
2930.0 6952 7655 8068 7889 7285 6386 5734 5888 6728 8135
2970.0 9064 8323 6238 4150 2655 1869 1416 1118 946 814
3010.0 690 645 570 528 530 454 447 430 364 358
3050.0 352 293 342 324 299 311 262 265 268 245
3090.0 253 234 225 256 204 205 226 209 188 209
3130.0 177 204 196 156 183 178 148 196 165 165
3170.0 211 142 151 179 141 166 159 134 165 137
3210.0 146 149 117 125 125 132 158 120 90 113
3250.0 78 82 128 132 98 127 88 124 114 84
3290.0 111 102 116 128 118 66 119 92 100 137
3330.0 90 112 106 89 87 80 88 118 99 120
3370.0 126 80 89 107 80 110 92 119 112 100
3410.0 82 91 85 91 104 74 107 97 69 101
3450.0 82 89 108 112 112 111 84 84 74 67
3490.0 96 77 107 113 84 52 81 86 65 121
3530.0 93 112 77 75 84 79 76 97 94 122
3570.0 113 56 68 66 72 96 83 86 75 63
3610.0 100 124 85 114 86 198 135 123 98 163
3650.0 249 201 239 216 249 354 310 316 222 192
3690.0 214 171 145 171 152 171 187 136 128 162
3730.0 160 208 215 186 252 237 218 191 153 181
3770.0 222 177 169 162 141 138 195 220 271 214
3810.0 224 229 269 267 270 275 309 352 289 262
3850.0 272 337 289 283 299 318 269 243 261 273
3890.0 263 268 283 289 295 265 269 247 259 259
3930.0 269 307 311 302 303 320 0 24 25 25
##END=
