##TITLE=Cyclohexaneacetic acid, .alpha.-ethyl-, methyl ester
##JCAMP-DX=4.24
##DATA TYPE=INFRARED SPECTRUM
##ORIGIN=Sadtler Research Labs Under US-EPA Contract
##OWNER=NIST Standard Reference Data Program
##CAS REGISTRY NO=36613-93-1
##MOLFORM=C 11 H 20 O 2
##XUNITS=1/CM
##YUNITS=ABSORBANCE
##XFACTOR=1.0
##YFACTOR=0.000155771
##DELTAX=4.0
##FIRSTX=450.0
##LASTX=3966.0
##FIRSTY=0.000000
##MAXX=3966
##MINX=450
##MAXY=1.55771
##MINY=0
##NPOINTS=880
##XYDATA=(X++(Y..Y))
450.0 0 104 193 34 69 10 74 87 49 120
490.0 98 11 11 82 124 82 30 61 39 80
530.0 98 27 62 53 104 28 39 115 76 100
570.0 140 110 117 75 67 106 99 74 72 103
610.0 50 64 84 62 60 56 62 76 70 88
650.0 67 66 68 47 72 84 108 98 101 100
690.0 73 108 126 97 111 81 59 97 74 109
730.0 101 97 117 114 180 232 188 178 134 123
770.0 137 126 161 215 240 307 361 397 372 302
810.0 236 181 166 174 178 192 191 221 238 243
850.0 234 221 200 176 201 214 213 220 201 228
890.0 250 242 250 225 222 223 197 191 161 132
930.0 119 116 108 101 109 100 109 120 137 146
970.0 163 150 157 188 263 398 591 756 832 811
1010.0 651 481 374 339 332 348 382 392 397 390
1050.0 396 392 418 466 569 691 751 772 786 787
1090.0 790 797 799 795 809 826 894 975 1051 1134
1130.0 1315 1598 2034 2541 2880 3100 3358 3772 4307 4427
1170.0 4058 3314 2647 2334 2300 2351 2338 2198 1931 1647
1210.0 1502 1473 1521 1616 1718 1786 1766 1649 1465 1253
1250.0 1175 1211 1291 1387 1389 1376 1345 1257 1105 905
1290.0 733 609 544 505 470 467 461 461 465 476
1330.0 496 507 524 571 650 749 843 874 822 725
1370.0 650 577 564 571 555 544 448 331 271 209
1410.0 200 205 160 229 306 532 813 1035 1218 1248
1450.0 1327 1449 1337 1187 1031 788 616 434 352 269
1490.0 177 184 144 135 81 47 87 56 26 65
1530.0 55 80 43 25 54 89 83 17 63 82
1570.0 69 80 71 82 91 87 86 79 80 70
1610.0 77 61 49 56 46 69 36 32 54 45
1650.0 16 4 56 77 61 58 42 81 50 50
1690.0 104 144 135 202 275 369 393 408 516 617
1730.0 746 1050 1917 3196 4874 6978 5996 5116 3018 1634
1770.0 930 593 534 439 377 319 243 220 172 164
1810.0 125 92 91 60 53 42 46 64 37 27
1850.0 37 44 35 40 31 12 33 35 30 31
1890.0 24 26 33 30 32 29 27 29 21 34
1930.0 37 37 41 33 34 43 41 42 41 38
1970.0 40 44 49 50 54 54 54 61 61 58
2010.0 54 52 48 48 49 48 49 48 45 46
2050.0 45 45 45 44 42 46 44 40 36 37
2090.0 34 33 34 33 31 29 29 29 27 24
2130.0 25 24 24 21 22 23 21 20 19 19
2170.0 18 19 20 19 16 17 16 15 14 10
2210.0 11 9 9 9 13 14 13 16 16 15
2250.0 12 14 13 10 11 7 10 10 10 11
2290.0 14 13 16 14 16 13 12 11 6 5
2330.0 4 0 1 1 7 12 2 5 7 10
2370.0 5 2 9 15 15 15 14 11 14 13
2410.0 15 13 14 12 12 14 9 8 7 5
2450.0 2 2 0 1 0 1 0 3 6 9
2490.0 12 9 8 8 7 4 5 7 7 9
2530.0 11 11 13 14 12 10 12 14 12 11
2570.0 14 17 18 23 28 32 33 38 42 44
2610.0 45 43 43 44 45 45 46 48 50 56
2650.0 59 68 85 101 110 117 116 106 94 79
2690.0 70 61 59 61 61 61 59 59 56 52
2730.0 53 52 52 56 59 64 64 64 60 62
2770.0 65 68 79 86 101 114 131 149 163 166
2810.0 170 175 188 205 224 253 298 381 525 758
2850.0 1112 1694 2534 3275 3420 2930 2155 1665 1548 1578
2890.0 1569 1509 1482 1583 1834 2188 2645 3254 4151 5488
2930.0 7334 9112 10000 9377 7835 5952 4399 3558 3157 2993
2970.0 3004 3044 2726 2131 1485 1045 843 736 636 542
3010.0 464 420 406 414 418 395 348 291 244 210
3050.0 184 168 155 144 138 135 135 128 125 119
3090.0 117 109 103 100 93 84 83 77 72 67
3130.0 64 58 58 58 53 57 54 53 53 49
3170.0 42 35 34 29 28 26 24 24 19 24
3210.0 18 21 19 16 16 14 18 19 11 17
3250.0 24 19 13 15 17 15 11 10 11 5
3290.0 3 7 12 12 7 9 11 10 11 8
3330.0 10 9 10 7 13 13 14 15 17 18
3370.0 20 18 17 17 17 17 18 16 15 13
3410.0 19 14 17 20 25 25 23 20 20 22
3450.0 20 19 26 30 33 41 54 71 75 68
3490.0 60 50 41 30 29 22 22 17 14 23
3530.0 21 17 25 24 18 15 9 13 13 16
3570.0 15 8 6 14 15 17 10 14 3 16
3610.0 9 10 16 1 11 5 10 13 20 12
3650.0 15 1 21 8 13 10 14 1 5 12
3690.0 1 6 19 12 14 20 9 14 17 21
3730.0 12 2 9 14 14 1 6 13 14 12
3770.0 18 26 13 11 22 27 23 14 9 0
3810.0 24 15 9 0 19 17 16 4 5 21
3850.0 13 18 10 14 4 23 27 3 12 12
3890.0 31 20 2 28 12 20 39 20 12 10
3930.0 5 37 27 13 6 7 8 22 49 41
##END=
