##TITLE=Benzene, 1,2-difluoro-
##JCAMP-DX=4.24
##DATA TYPE=INFRARED SPECTRUM
##ORIGIN=Sadtler Research Labs Under US-EPA Contract
##OWNER=NIST Standard Reference Data Program
##CAS REGISTRY NO=367-11-3
##MOLFORM=C 6 H 4 F 2
##XUNITS=1/CM
##YUNITS=ABSORBANCE
##XFACTOR=1.0
##YFACTOR=0.000098801
##DELTAX=4.0
##FIRSTX=450.0
##LASTX=3966.0
##FIRSTY=0.000000
##MAXX=3966
##MINX=450
##MAXY=0.98801
##MINY=0
##NPOINTS=880
##XYDATA=(X++(Y..Y))
450.0 0 376 284 323 284 255 221 167 127 156
490.0 171 204 182 174 188 205 204 177 198 208
530.0 270 296 389 458 386 610 695 590 467 427
570.0 408 391 344 303 250 250 203 182 171 159
610.0 166 163 161 174 155 172 166 160 168 170
650.0 167 158 158 157 150 195 173 186 171 179
690.0 191 183 186 191 200 210 245 303 411 676
730.0 1252 1953 2715 2847 3329 7853 5374 4720 5049 4546
770.0 3266 2263 1046 403 239 198 183 175 176 182
810.0 194 197 242 295 372 461 543 597 735 957
850.0 1127 1158 837 989 973 700 429 283 225 200
890.0 204 220 222 229 247 275 322 340 324 512
930.0 720 312 345 345 287 217 176 163 156 163
970.0 165 173 175 182 191 198 203 216 231 280
1010.0 392 535 597 591 623 547 502 352 251 204
1050.0 179 171 169 168 173 178 182 206 276 411
1090.0 685 1050 1309 1021 1132 1324 1035 649 382 249
1130.0 196 175 181 191 193 206 209 216 215 210
1170.0 208 223 272 372 527 727 956 1312 2032 2622
1210.0 2526 2007 2696 2414 1600 898 549 389 335 389
1250.0 577 1051 1978 3470 5374 6813 7546 7945 7207 7188
1290.0 4447 2328 1431 1150 715 370 242 201 206 207
1330.0 206 203 155 173 203 203 206 197 182 207
1370.0 221 202 229 266 286 337 357 367 397 399
1410.0 379 348 211 233 209 225 195 248 367 470
1450.0 555 619 699 893 838 689 634 588 550 588
1490.0 976 2087 3967 6352 8061 9152 9972 10000 9377 6605
1530.0 4525 3133 2091 978 478 384 358 316 469 628
1570.0 688 731 833 903 1039 995 1027 1189 1403 1473
1610.0 1651 2008 1990 1673 1570 1615 1050 527 316 212
1650.0 136 124 182 179 169 157 130 192 143 141
1690.0 192 208 137 152 191 235 211 162 241 265
1730.0 229 169 235 237 220 211 272 305 339 370
1770.0 310 277 323 270 225 182 159 171 150 190
1810.0 179 170 174 165 149 132 151 167 154 144
1850.0 172 193 186 185 169 145 186 211 239 259
1890.0 260 257 258 261 225 193 179 181 184 215
1930.0 222 219 209 189 176 170 159 153 158 145
1970.0 148 149 144 145 144 127 128 137 140 141
2010.0 151 151 154 178 199 213 228 230 222 216
2050.0 205 180 173 173 163 170 164 164 152 140
2090.0 134 135 137 140 142 144 152 160 163 165
2130.0 160 163 155 142 136 135 134 131 131 133
2170.0 129 128 126 125 126 124 126 129 128 125
2210.0 125 124 129 130 131 133 133 136 141 143
2250.0 146 150 159 173 180 186 188 192 195 189
2290.0 178 180 176 174 171 170 168 164 164 160
2330.0 159 157 150 150 158 161 154 153 153 169
2370.0 174 181 178 166 152 145 136 130 128 130
2410.0 132 139 141 144 147 147 150 149 151 157
2450.0 163 171 179 189 201 211 214 203 194 182
2490.0 181 164 154 144 138 136 130 131 137 145
2530.0 150 157 165 177 184 182 181 178 178 175
2570.0 178 188 197 200 203 203 194 187 169 156
2610.0 152 148 145 145 139 137 136 135 134 133
2650.0 132 132 131 135 136 135 135 135 138 135
2690.0 132 134 132 133 130 132 134 135 135 136
2730.0 138 136 136 136 135 135 135 139 140 143
2770.0 145 146 150 152 152 148 149 147 142 140
2810.0 141 138 140 139 143 141 136 135 133 135
2850.0 133 134 135 138 135 136 140 141 143 144
2890.0 147 150 153 151 154 153 152 151 147 144
2930.0 146 145 144 146 144 146 145 146 148 148
2970.0 154 148 145 141 138 136 135 134 135 135
3010.0 138 141 139 148 158 168 184 200 224 263
3050.0 334 416 510 610 666 711 751 748 717 651
3090.0 601 557 477 408 329 282 236 194 169 160
3130.0 155 154 147 141 141 137 137 135 132 131
3170.0 128 129 128 131 130 129 127 124 126 129
3210.0 127 127 129 125 126 125 126 126 129 129
3250.0 133 128 127 126 132 133 131 135 135 136
3290.0 133 135 135 135 131 133 134 140 135 134
3330.0 135 137 135 133 134 137 135 136 136 134
3370.0 132 134 134 137 134 133 135 131 137 135
3410.0 132 132 133 132 133 140 130 133 137 131
3450.0 135 131 133 134 127 133 134 135 136 132
3490.0 133 131 131 132 131 132 133 136 130 130
3530.0 133 135 130 131 131 135 128 131 135 131
3570.0 134 134 131 130 133 131 137 137 127 135
3610.0 130 137 138 143 140 137 147 146 146 143
3650.0 139 143 138 139 138 129 134 134 130 133
3690.0 134 136 135 137 141 132 134 133 133 127
3730.0 131 136 138 133 127 131 136 134 133 139
3770.0 124 130 136 128 137 132 138 131 136 140
3810.0 134 133 142 130 138 142 143 145 151 134
3850.0 135 141 140 131 137 138 135 144 137 144
3890.0 157 157 148 159 157 167 159 159 148 167
3930.0 156 153 149 157 157 156 155 140 138 137
##END=
