##TITLE=1,2,4-Trifluorobenzene
##JCAMP-DX=4.24
##DATA TYPE=INFRARED SPECTRUM
##ORIGIN=Sadtler Research Labs Under US-EPA Contract
##OWNER=NIST Standard Reference Data Program
##CAS REGISTRY NO=367-23-7
##MOLFORM=C 6 H 3 F 3
##XUNITS=1/CM
##YUNITS=ABSORBANCE
##XFACTOR=1.0
##YFACTOR=0.000087115
##DELTAX=4.0
##FIRSTX=450.0
##LASTX=3966.0
##FIRSTY=0.011412
##MAXX=3966
##MINX=450
##MAXY=0.87115
##MINY=0
##NPOINTS=880
##XYDATA=(X++(Y..Y))
450.0 131 149 124 84 53 36 19 27 15 10
490.0 16 53 64 40 53 51 44 21 23 9
530.0 20 31 0 33 1 10 16 5 12 52
570.0 116 145 199 214 240 306 287 256 445 218
610.0 165 142 96 50 43 29 24 31 32 22
650.0 30 26 28 26 21 29 23 21 15 37
690.0 39 31 42 38 62 100 195 393 643 621
730.0 586 661 524 260 135 108 92 92 160 350
770.0 848 1510 1612 1825 1583 1500 839 612 667 1048
810.0 700 523 451 346 249 224 308 508 724 888
850.0 1029 2021 1126 848 731 503 246 105 38 26
890.0 27 27 36 40 47 54 59 59 57 74
930.0 64 75 91 121 186 344 683 1143 1140 1166
970.0 1059 827 299 87 36 35 29 33 34 32
1010.0 38 29 29 31 27 22 23 21 33 32
1050.0 44 54 50 55 48 50 62 94 169 336
1090.0 616 765 606 712 688 350 144 77 76 159
1130.0 444 1197 2303 2487 2778 2341 1983 626 127 55
1170.0 57 71 74 77 124 241 465 903 1432 1541
1210.0 1394 1569 1318 689 412 332 443 839 1715 2339
1250.0 2416 2446 2474 1392 612 369 189 112 101 131
1290.0 185 252 354 550 819 977 879 884 881 519
1330.0 237 108 60 34 21 21 27 31 48 49
1370.0 63 79 73 72 84 77 84 104 101 100
1410.0 107 102 134 140 216 341 543 643 577 661
1450.0 831 656 532 456 369 207 145 139 159 261
1490.0 381 536 864 1403 2239 4100 7028 9595 10000 8948
1530.0 7655 4674 2323 1019 611 425 342 288 178 148
1570.0 146 161 145 162 179 232 274 327 393 480
1610.0 558 695 939 1190 1279 1233 1251 874 569 416
1650.0 343 270 230 137 87 68 67 38 67 49
1690.0 55 61 88 84 85 72 96 84 67 52
1730.0 59 67 44 36 44 44 31 30 30 22
1770.0 34 37 30 39 36 40 31 28 33 20
1810.0 22 24 29 38 43 50 62 64 89 97
1850.0 89 80 84 78 78 78 62 60 52 35
1890.0 27 23 17 15 16 17 17 18 21 15
1930.0 13 14 13 19 17 13 13 13 13 15
1970.0 14 12 13 17 18 22 21 19 11 13
2010.0 11 12 20 24 27 34 38 41 33 28
2050.0 25 22 17 24 23 22 17 15 22 27
2090.0 34 33 33 26 24 15 11 11 11 9
2130.0 9 10 10 10 10 10 10 10 10 10
2170.0 10 13 14 14 14 15 15 15 10 14
2210.0 14 15 15 12 13 13 9 14 20 14
2250.0 20 13 13 11 12 11 14 18 23 30
2290.0 31 37 44 48 44 45 38 32 27 26
2330.0 28 19 30 23 33 39 44 47 27 7
2370.0 1 1 1 8 16 22 28 34 34 34
2410.0 28 29 21 18 11 4 15 16 16 26
2450.0 33 44 39 38 27 15 4 7 4 5
2490.0 8 6 12 4 4 5 10 10 10 15
2530.0 22 23 26 26 27 27 20 26 26 26
2570.0 21 20 20 21 16 18 8 6 4 4
2610.0 4 4 3 4 4 4 2 2 2 2
2650.0 3 3 3 3 8 2 2 3 3 3
2690.0 3 3 3 3 3 6 4 1 8 8
2730.0 8 1 1 7 8 8 7 7 13 7
2770.0 8 12 6 7 2 1 1 1 1 7
2810.0 4 1 10 8 13 18 13 20 7 7
2850.0 3 3 3 3 3 3 6 4 4 8
2890.0 4 9 10 10 16 11 9 10 7 4
2930.0 4 6 5 5 5 6 6 6 6 6
2970.0 6 6 3 5 5 7 7 7 1 7
3010.0 1 5 8 1 3 6 7 7 7 7
3050.0 7 7 8 19 26 30 36 45 47 54
3090.0 59 49 43 49 38 26 15 9 15 10
3130.0 10 13 9 10 10 10 10 10 17 11
3170.0 10 10 12 12 12 12 12 12 12 12
3210.0 12 17 12 13 13 13 12 12 12 12
3250.0 9 14 14 14 13 13 14 14 13 15
3290.0 18 21 17 14 14 15 19 20 21 21
3330.0 20 17 21 21 19 16 16 22 21 23
3370.0 23 16 29 29 23 22 12 17 21 24
3410.0 21 22 25 25 23 18 18 18 18 25
3450.0 23 21 24 32 26 27 19 19 26 26
3490.0 20 26 32 27 29 27 32 32 26 22
3530.0 23 21 22 22 29 28 27 37 31 25
3570.0 30 31 34 33 30 26 23 30 24 29
3610.0 37 32 27 20 34 30 28 25 29 38
3650.0 30 28 26 43 39 35 30 23 39 31
3690.0 30 39 37 45 44 43 39 37 30 33
3730.0 32 34 31 29 23 25 26 31 24 36
3770.0 34 35 32 32 40 42 35 36 29 29
3810.0 22 27 24 28 34 36 35 38 34 37
3850.0 39 44 34 32 35 38 37 30 36 35
3890.0 41 39 33 31 28 28 46 47 41 41
3930.0 39 51 48 55 48 48 47 46 39 39
##END=
