##TITLE=4-Fluoro-3-nitrobenzotrifluoride
##JCAMP-DX=4.24
##DATA TYPE=INFRARED SPECTRUM
##ORIGIN=Sadtler Research Labs Under US-EPA Contract
##OWNER=NIST Standard Reference Data Program
##CAS REGISTRY NO=367-86-2
##MOLFORM=C 7 H 3 F 4 N O 2
##XUNITS=1/CM
##YUNITS=ABSORBANCE
##XFACTOR=1.0
##YFACTOR=0.000075137
##DELTAX=4.0
##FIRSTX=450.0
##LASTX=3966.0
##FIRSTY=0.001653
##MAXX=3966
##MINX=450
##MAXY=0.75137
##MINY=0
##NPOINTS=880
##XYDATA=(X++(Y..Y))
450.0 22 39 34 33 20 33 10 15 26 21
490.0 18 33 30 54 86 72 58 50 52 39
530.0 46 45 4 6 29 31 58 39 33 60
570.0 52 67 113 130 185 200 241 282 432 609
610.0 683 601 435 345 323 237 187 152 110 100
650.0 96 84 73 88 113 218 316 479 622 697
690.0 656 547 417 313 226 183 152 108 86 68
730.0 56 52 55 66 87 106 128 160 181 190
770.0 197 170 128 92 76 58 72 96 129 199
810.0 283 393 444 523 629 749 934 894 558 335
850.0 158 64 44 45 37 44 46 44 66 66
890.0 109 140 194 280 354 389 384 284 189 101
930.0 54 37 24 23 24 26 22 23 23 23
970.0 27 22 23 26 30 29 22 22 22 33
1010.0 25 29 37 42 57 64 63 58 69 70
1050.0 77 98 128 198 329 462 492 462 367 444
1090.0 657 966 1347 1694 1735 1451 967 593 419 366
1130.0 384 492 774 1348 2224 3380 4549 5558 5326 3983
1170.0 2778 2291 3006 3934 3650 2697 1685 985 696 508
1210.0 380 281 228 195 183 183 186 234 308 454
1250.0 535 592 548 569 775 1214 1605 1696 1412 954
1290.0 672 599 668 822 1097 1725 3114 5889 9618 10000
1330.0 7174 3371 1447 1099 1193 1453 1634 1642 1402 984
1370.0 635 436 334 281 246 203 185 163 149 162
1410.0 186 192 226 190 171 155 163 163 135 121
1450.0 117 115 123 91 87 84 109 114 120 152
1490.0 185 184 206 240 319 400 397 405 393 411
1530.0 488 602 743 885 1022 1274 1782 2543 3014 2835
1570.0 2177 1392 1030 918 881 843 799 819 852 907
1610.0 946 926 876 906 1081 1309 1452 1325 1002 646
1650.0 390 239 161 128 125 128 119 78 80 73
1690.0 46 34 56 52 38 26 37 49 29 22
1730.0 31 43 33 22 37 41 24 24 29 20
1770.0 28 37 28 34 31 46 46 49 40 29
1810.0 38 38 41 45 40 36 23 13 19 25
1850.0 17 12 13 20 18 25 15 18 19 12
1890.0 19 16 18 19 25 33 48 57 59 44
1930.0 30 18 16 16 14 10 12 12 10 13
1970.0 4 12 10 10 10 8 14 12 10 12
2010.0 9 13 13 12 10 10 10 16 12 18
2050.0 14 15 13 12 12 23 17 17 18 23
2090.0 30 19 16 14 10 9 9 10 10 9
2130.0 9 10 9 8 10 10 10 6 5 9
2170.0 9 9 9 10 10 9 9 9 9 9
2210.0 8 8 8 8 8 10 16 8 8 8
2250.0 16 8 15 10 6 6 6 5 6 5
2290.0 2 4 9 7 5 12 10 5 10 23
2330.0 16 16 16 25 12 2 6 0 14 25
2370.0 15 28 22 14 9 8 17 9 10 16
2410.0 16 10 12 9 9 9 9 9 9 9
2450.0 9 18 18 17 17 10 10 16 12 14
2490.0 14 16 17 18 10 10 12 17 18 18
2530.0 13 18 10 10 10 10 10 10 10 10
2570.0 12 18 12 12 12 12 12 12 12 12
2610.0 12 12 12 13 13 13 14 18 16 13
2650.0 17 10 14 14 20 20 25 20 20 13
2690.0 20 10 20 19 19 22 20 13 13 13
2730.0 14 14 14 14 14 17 13 18 15 15
2770.0 15 20 14 14 15 15 15 15 14 14
2810.0 14 14 14 14 16 15 15 23 16 16
2850.0 16 17 24 25 29 29 20 29 35 36
2890.0 36 37 42 50 51 49 49 47 36 42
2930.0 29 22 28 23 22 29 29 31 23 15
2970.0 21 17 17 15 16 24 16 10 17 17
3010.0 17 17 17 17 17 17 17 17 12 18
3050.0 18 18 17 17 18 27 24 28 38 51
3090.0 75 93 93 82 54 33 26 19 19 19
3130.0 20 20 20 17 19 15 19 19 19 14
3170.0 6 14 13 15 20 19 19 16 21 21
3210.0 20 20 20 28 34 29 33 37 29 38
3250.0 42 37 43 41 48 36 36 21 29 30
3290.0 26 23 23 26 28 29 29 22 30 22
3330.0 23 22 24 22 23 23 20 21 24 15
3370.0 18 10 23 9 18 18 23 25 25 16
3410.0 26 10 15 13 23 24 19 24 19 20
3450.0 25 12 25 25 1 25 21 20 25 26
3490.0 26 13 6 21 26 12 28 27 27 19
3530.0 21 16 13 7 27 22 20 18 19 18
3570.0 24 14 26 18 21 30 28 17 29 28
3610.0 17 22 31 29 30 23 28 31 17 17
3650.0 25 23 23 21 26 19 22 23 27 31
3690.0 31 24 31 31 30 24 21 23 19 20
3730.0 18 23 30 34 31 28 26 33 33 31
3770.0 33 26 25 25 30 26 22 20 28 27
3810.0 13 19 22 21 34 21 36 25 22 20
3850.0 21 23 21 23 16 15 23 13 9 7
3890.0 3 8 9 14 17 14 28 23 16 22
3930.0 23 16 17 8 9 9 17 17 17 17
##END=
