##TITLE=1-Pentanol, 3-methyl-2-phenyl-,
##JCAMP-DX=4.24
##DATA TYPE=INFRARED SPECTRUM
##ORIGIN=Sadtler Research Labs Under US-EPA Contract
##OWNER=NIST Standard Reference Data Program
##CAS REGISTRY NO=36748-84-2
##MOLFORM=C 12 H 18 O
##XUNITS=1/CM
##YUNITS=ABSORBANCE
##XFACTOR=1.0
##YFACTOR=0.000059705
##DELTAX=4.0
##FIRSTX=450.0
##LASTX=3966.0
##FIRSTY=0.011762
##MAXX=3966
##MINX=450
##MAXY=0.59705
##MINY=0
##NPOINTS=880
##XYDATA=(X++(Y..Y))
450.0 197 188 259 69 9 75 17 41 29 7
490.0 72 64 68 169 156 190 229 241 167 230
530.0 261 258 302 282 314 354 385 459 500 547
570.0 516 399 313 217 121 122 84 101 49 62
610.0 26 54 52 54 66 84 75 107 132 129
650.0 172 199 238 237 249 276 271 257 313 512
690.0 1215 2618 4286 4810 4435 2847 1461 728 456 484
730.0 588 709 860 982 1164 1316 1366 1300 1103 909
770.0 742 613 495 368 265 202 159 125 109 95
810.0 91 87 85 97 89 72 77 89 70 75
850.0 47 28 2 11 7 21 37 45 43 41
890.0 52 70 120 154 187 173 154 156 188 225
930.0 268 304 312 338 368 432 504 580 619 654
970.0 675 710 750 799 877 959 1052 1168 1292 1415
1010.0 1563 1732 1959 2282 2638 2974 3178 3258 3322 3510
1050.0 3863 4219 4341 4077 3515 2848 2322 1895 1505 1158
1090.0 882 693 591 549 527 527 524 526 525 528
1130.0 501 484 465 462 496 552 597 626 651 704
1170.0 803 900 951 919 831 710 617 570 557 558
1210.0 565 576 585 604 627 664 714 786 859 864
1250.0 807 715 647 618 625 643 670 689 690 667
1290.0 638 624 607 600 583 575 568 575 606 641
1330.0 680 693 692 671 661 641 647 673 725 841
1370.0 1027 1362 1762 2150 2246 2073 1678 1262 943 718
1410.0 571 467 424 384 374 352 386 446 603 852
1450.0 1214 1578 1796 1818 1855 1791 1611 1392 1215 1252
1490.0 1474 1675 1617 1323 954 705 580 430 314 207
1530.0 179 154 162 144 127 108 92 75 85 77
1570.0 102 133 189 255 317 415 548 713 799 755
1610.0 586 380 236 147 114 77 85 66 72 68
1650.0 74 74 94 78 91 81 73 53 52 47
1690.0 42 44 49 48 57 57 62 62 67 64
1730.0 68 81 80 78 69 56 55 38 25 19
1770.0 23 23 26 30 55 71 124 162 186 164
1810.0 123 89 73 53 35 16 4 6 0 13
1850.0 19 39 62 90 114 126 135 130 130 114
1890.0 96 64 46 25 20 17 18 23 31 49
1930.0 85 132 178 208 200 179 174 157 125 77
1970.0 44 22 20 27 26 22 20 21 20 18
2010.0 17 20 18 17 22 27 35 32 37 39
2050.0 35 40 34 34 39 40 31 37 36 32
2090.0 30 27 22 21 19 14 16 13 12 9
2130.0 5 10 9 9 6 6 6 6 7 8
2170.0 8 7 5 6 6 10 5 6 3 3
2210.0 6 4 12 12 11 13 14 9 17 14
2250.0 17 14 21 19 17 16 10 15 15 16
2290.0 17 17 19 23 24 33 41 46 40 35
2330.0 45 42 49 48 70 47 58 41 34 37
2370.0 38 39 44 37 39 40 45 44 48 49
2410.0 48 54 52 53 53 50 51 55 54 49
2450.0 52 54 51 50 49 48 48 44 40 38
2490.0 43 41 41 42 44 44 43 43 44 49
2530.0 45 53 56 54 57 59 58 61 65 67
2570.0 70 74 81 80 84 91 98 95 99 106
2610.0 106 105 100 96 99 101 102 106 98 101
2650.0 104 101 102 109 109 112 113 120 125 127
2690.0 131 136 140 138 138 147 157 172 182 196
2730.0 213 231 249 270 282 279 276 267 263 268
2770.0 270 281 289 299 317 337 355 375 394 409
2810.0 417 437 449 473 505 548 604 669 751 833
2850.0 954 1120 1387 1763 2291 2931 3674 4544 5447 6161
2890.0 6299 5868 5055 4382 4010 3939 4123 4472 4945 5429
2930.0 5914 6262 6475 6372 5908 5295 4930 5238 6405 8213
2970.0 9656 10000 9013 7234 5328 3673 2450 1701 1313 1121
3010.0 1036 1023 1123 1424 1936 2545 2960 2866 2402 1813
3050.0 1356 1194 1238 1535 2091 2577 2679 2464 2008 1708
3090.0 1578 1361 1085 846 697 598 503 413 315 246
3130.0 208 184 176 163 151 140 138 136 133 131
3170.0 128 109 90 81 81 71 63 57 51 49
3210.0 45 44 38 33 28 25 19 18 18 11
3250.0 18 12 8 4 6 14 15 13 14 12
3290.0 14 12 10 13 11 16 13 24 13 12
3330.0 16 14 16 15 8 10 14 15 15 22
3370.0 29 20 16 14 8 18 18 21 9 17
3410.0 13 15 17 21 16 20 19 17 10 19
3450.0 19 30 29 26 13 22 23 24 16 15
3490.0 13 20 20 18 30 26 14 13 20 17
3530.0 24 29 25 34 37 27 30 39 12 41
3570.0 45 33 37 30 53 53 61 55 67 92
3610.0 169 343 654 944 1076 1017 808 630 516 472
3650.0 460 501 564 644 678 678 553 460 323 247
3690.0 177 155 128 102 96 90 61 81 73 63
3730.0 48 41 47 14 63 11 26 32 30 31
3770.0 29 36 3 14 7 11 9 28 24 41
3810.0 17 21 33 25 31 20 37 25 9 7
3850.0 36 54 34 27 39 36 25 39 31 46
3890.0 31 35 35 48 36 15 23 45 24 23
3930.0 49 39 15 15 35 3 5 7 20 8
##END=
