##TITLE=Propanoic acid, 2,3-dibromo-, ethyl ester
##JCAMP-DX=4.24
##DATA TYPE=INFRARED SPECTRUM
##ORIGIN=Sadtler Research Labs Under US-EPA Contract
##OWNER=NIST Standard Reference Data Program
##CAS REGISTRY NO=3674-13-3
##MOLFORM=C 5 H 8 Br 2 O 2
##XUNITS=1/CM
##YUNITS=ABSORBANCE
##XFACTOR=1.0
##YFACTOR=0.000073291
##DELTAX=4.0
##FIRSTX=450.0
##LASTX=3966.0
##FIRSTY=0.014512
##MAXX=3966
##MINX=450
##MAXY=0.73291
##MINY=0
##NPOINTS=880
##XYDATA=(X++(Y..Y))
450.0 198 168 123 74 77 86 189 273 285 185
490.0 58 63 11 61 263 318 286 93 131 238
530.0 172 145 293 387 295 371 524 564 518 542
570.0 758 1141 1179 1107 1172 882 602 594 725 819
610.0 980 1022 969 873 715 596 647 690 617 515
650.0 374 347 362 370 358 479 606 479 371 337
690.0 281 178 144 247 272 273 176 149 208 119
730.0 151 244 295 157 172 242 227 261 180 213
770.0 323 277 262 316 325 326 313 306 339 357
810.0 359 248 266 265 268 267 356 475 494 524
850.0 610 691 668 582 540 571 430 379 390 389
890.0 282 215 207 228 295 263 213 239 226 264
930.0 378 457 533 581 568 549 517 433 345 303
970.0 312 277 289 321 356 369 357 484 620 807
1010.0 1053 1313 1626 1681 1672 1613 1476 1235 926 782
1050.0 757 932 1186 1428 1537 1370 1103 958 882 852
1090.0 863 945 1046 1138 1108 1036 1017 1010 1131 1286
1130.0 1661 2328 3336 4680 5955 5741 4865 3654 2906 2524
1170.0 2097 1659 1378 1311 1402 1772 2596 3930 4929 4601
1210.0 3550 2451 1886 1773 1862 1848 1878 2173 2930 3970
1250.0 4568 4414 4016 3879 3956 3931 3399 2696 2036 1479
1290.0 1201 1113 1120 1193 1129 1080 1043 1024 1093 1224
1330.0 1331 1413 1563 1881 2221 2181 1722 1145 902 970
1370.0 1330 1716 1828 1589 1129 833 710 658 590 536
1410.0 515 503 507 622 794 973 1030 855 668 583
1450.0 569 549 526 580 613 628 567 559 505 420
1490.0 326 278 230 205 125 178 198 157 125 154
1530.0 163 141 140 104 148 126 127 121 167 142
1570.0 137 110 140 177 167 165 166 179 140 152
1610.0 165 174 173 143 145 171 141 128 148 141
1650.0 125 73 167 173 155 105 121 164 179 185
1690.0 209 215 219 208 262 330 376 450 539 591
1730.0 687 768 951 1243 1729 2407 3722 5727 8076 10000
1770.0 7435 4649 2326 1245 983 877 763 625 484 393
1810.0 337 302 267 235 226 199 195 189 195 179
1850.0 148 150 148 127 134 121 128 129 147 150
1890.0 150 141 119 116 122 124 151 124 117 118
1930.0 114 108 107 134 125 106 101 113 123 101
1970.0 93 122 121 113 118 137 131 107 117 123
2010.0 119 131 118 111 96 97 85 104 118 111
2050.0 113 101 96 114 102 89 107 108 106 95
2090.0 114 110 94 89 97 120 107 88 95 85
2130.0 78 71 97 109 87 83 78 81 81 81
2170.0 94 86 83 80 87 93 80 83 82 79
2210.0 100 98 91 86 85 79 77 96 104 102
2250.0 76 68 84 75 68 91 94 86 67 81
2290.0 94 79 60 67 74 66 54 53 42 16
2330.0 9 17 49 42 71 23 9 9 9 9
2370.0 24 56 45 48 59 73 86 79 68 93
2410.0 85 70 78 73 71 51 63 76 79 66
2450.0 51 57 43 49 60 77 78 58 62 66
2490.0 64 70 73 61 68 61 59 53 60 52
2530.0 49 56 59 82 65 40 56 49 45 56
2570.0 83 80 53 47 51 62 58 50 73 65
2610.0 49 45 59 66 40 38 60 52 62 48
2650.0 35 38 39 39 56 71 57 42 29 14
2690.0 51 49 38 55 49 34 27 41 58 44
2730.0 37 51 63 71 41 58 66 47 50 72
2770.0 94 78 60 58 59 65 80 92 89 81
2810.0 66 77 96 95 108 112 99 127 140 124
2850.0 135 131 131 132 165 193 199 207 237 291
2890.0 321 301 323 339 345 348 400 433 413 390
2930.0 395 440 523 619 716 750 683 570 532 600
2970.0 703 820 953 1170 1577 1859 1799 1515 1170 929
3010.0 769 653 554 452 340 255 234 203 145 145
3050.0 159 134 99 95 125 119 89 77 80 92
3090.0 82 102 119 113 76 56 89 83 94 102
3130.0 83 82 76 65 79 81 92 83 77 83
3170.0 88 82 37 65 87 62 79 92 92 47
3210.0 19 57 65 65 59 66 59 19 29 65
3250.0 73 53 38 64 59 47 54 28 59 63
3290.0 33 68 69 56 29 19 17 61 87 49
3330.0 62 64 25 22 52 78 79 49 65 69
3370.0 59 43 57 90 48 51 79 86 62 28
3410.0 52 55 68 85 77 79 53 38 41 67
3450.0 79 79 81 43 55 70 44 54 97 69
3490.0 67 70 101 106 96 107 137 142 88 94
3530.0 93 48 29 34 70 77 61 74 65 61
3570.0 92 149 192 205 167 137 119 90 57 55
3610.0 32 40 66 48 64 70 47 33 31 50
3650.0 79 79 60 65 66 24 37 87 89 65
3690.0 52 69 73 48 55 48 66 53 37 65
3730.0 56 32 25 30 46 41 76 48 35 42
3770.0 36 53 74 73 69 42 39 50 49 37
3810.0 43 57 37 31 42 41 32 9 29 50
3850.0 50 43 45 40 19 9 41 67 71 47
3890.0 48 34 24 41 44 54 55 41 41 48
3930.0 48 55 47 59 89 126 0 9 9 9
##END=
