##TITLE=Toluene, 3-benzyloxy-2-bromo-5-methoxy-,
##JCAMP-DX=4.24
##DATA TYPE=INFRARED SPECTRUM
##ORIGIN=Sadtler Research Labs Under US-EPA Contract
##OWNER=NIST Standard Reference Data Program
##CAS REGISTRY NO=36776-45-1
##MOLFORM=C 15 H 15 Br O 2
##XUNITS=1/CM
##YUNITS=ABSORBANCE
##XFACTOR=1.0
##YFACTOR=0.000052786
##DELTAX=4.0
##FIRSTX=450.0
##LASTX=3966.0
##FIRSTY=0.010980
##MAXX=3966
##MINX=450
##MAXY=0.52786
##MINY=0
##NPOINTS=880
##XYDATA=(X++(Y..Y))
450.0 208 189 318 468 239 283 191 207 233 140
490.0 94 32 28 24 52 4 45 80 72 48
530.0 45 40 97 138 200 303 309 292 258 199
570.0 217 265 345 451 499 593 659 682 738 809
610.0 879 893 812 755 717 715 686 613 572 578
650.0 587 660 730 783 779 824 838 868 1006 1267
690.0 1995 2935 3038 2247 1630 1278 1127 1142 1295 1651
730.0 2317 2908 2850 2426 1957 1543 1061 679 426 284
770.0 211 166 141 168 191 233 314 441 611 774
810.0 840 944 1084 1432 1812 1950 1830 1700 1613 1470
850.0 1213 924 685 507 392 339 305 316 338 367
890.0 414 528 695 819 756 605 512 496 531 581
930.0 667 779 933 1030 961 829 742 706 697 695
970.0 698 740 832 961 1107 1323 1624 1959 2204 2179
1010.0 2094 2279 3012 4307 5199 4711 3501 2708 2527 2637
1050.0 2856 3103 3367 3651 4004 4304 4566 4816 5022 5130
1090.0 4963 4385 3600 2939 2509 2162 1861 1668 1554 1516
1130.0 1605 1861 2362 3226 4648 6649 8730 10000 9834 8047
1170.0 5677 3891 3007 2812 3239 4450 5862 5883 4761 3765
1210.0 3089 2611 2368 2298 2170 1950 1708 1561 1488 1507
1250.0 1591 1734 1912 2119 2408 2671 2659 2268 1799 1527
1290.0 1468 1587 1911 2495 3227 3978 4865 6137 7395 7807
1330.0 7166 5954 4566 3213 2243 1698 1495 1513 1775 2265
1370.0 2831 3318 3429 3079 2474 1858 1508 1470 1637 2108
1410.0 2797 3594 4149 4150 3952 3791 3873 3937 4013 3977
1450.0 4129 4547 5002 5457 5634 5236 4356 3287 2384 1879
1490.0 1661 1778 1927 1421 1061 917 812 830 862 873
1530.0 922 1006 1135 1306 1501 1724 2131 2676 3497 4553
1570.0 5897 7141 8151 8730 8765 8308 7044 5575 4188 3132
1610.0 2258 1582 1128 807 642 488 438 387 329 306
1650.0 315 294 268 238 239 237 251 212 256 262
1690.0 234 251 310 325 334 349 395 445 418 413
1730.0 438 474 451 447 451 425 367 324 329 319
1770.0 336 318 284 268 240 232 248 247 255 204
1810.0 155 118 81 70 59 52 28 19 30 49
1850.0 44 46 64 86 99 109 88 87 83 72
1890.0 53 34 15 11 9 10 12 19 28 30
1930.0 42 59 89 126 137 125 117 109 99 83
1970.0 52 36 29 30 34 41 43 40 45 47
2010.0 45 47 45 36 28 20 13 9 8 10
2050.0 9 9 8 15 19 22 28 35 45 56
2090.0 67 67 74 78 74 72 64 60 56 51
2130.0 53 44 47 45 41 33 30 29 22 18
2170.0 7 5 6 5 2 3 4 0 6 8
2210.0 12 11 14 12 18 21 24 22 26 35
2250.0 44 51 58 50 60 58 59 68 70 76
2290.0 81 88 93 94 104 126 97 93 85 48
2330.0 46 52 47 42 91 71 81 66 63 53
2370.0 68 72 78 87 81 55 43 32 32 40
2410.0 42 44 40 36 41 41 31 31 38 39
2450.0 40 43 50 51 55 61 67 66 69 70
2490.0 63 65 64 62 56 59 61 61 57 52
2530.0 54 48 45 38 42 36 33 31 29 33
2570.0 34 33 39 42 42 44 49 57 68 68
2610.0 65 61 61 57 53 55 53 53 57 62
2650.0 53 57 60 58 58 54 53 58 65 62
2690.0 64 69 68 67 74 80 68 78 81 89
2730.0 109 116 130 135 132 130 122 117 118 124
2770.0 122 135 150 158 179 188 199 213 236 254
2810.0 277 310 362 427 505 624 804 1040 1267 1375
2850.0 1369 1297 1224 1205 1234 1284 1295 1286 1283 1297
2890.0 1326 1364 1410 1479 1566 1685 1817 1950 2064 2204
2930.0 2368 2571 2737 2777 2752 2676 2595 2503 2368 2109
2970.0 1801 1536 1354 1255 1219 1209 1227 1279 1406 1553
3010.0 1577 1412 1172 1106 1202 1330 1387 1312 1169 1020
3050.0 922 910 983 1133 1286 1400 1423 1264 1016 867
3090.0 784 658 539 442 387 345 302 237 194 147
3130.0 114 98 92 84 81 84 68 75 70 79
3170.0 72 63 70 56 54 50 41 39 43 36
3210.0 27 41 39 38 27 30 27 19 24 19
3250.0 31 32 20 17 20 19 21 19 20 34
3290.0 27 25 23 28 26 17 22 22 25 24
3330.0 20 24 32 27 19 29 23 26 27 21
3370.0 28 25 20 28 27 30 27 32 27 16
3410.0 29 31 41 17 26 32 36 35 40 30
3450.0 24 25 34 26 36 26 34 23 27 25
3490.0 41 24 30 33 49 23 28 22 33 34
3530.0 29 34 49 49 77 93 77 64 42 46
3570.0 11 19 12 29 33 30 6 12 23 10
3610.0 28 27 18 22 19 33 27 15 33 32
3650.0 48 33 45 40 29 44 26 51 21 33
3690.0 21 26 3 11 5 5 18 16 13 5
3730.0 5 9 19 5 46 11 24 6 27 22
3770.0 11 15 18 31 12 9 17 21 14 46
3810.0 26 16 27 19 42 11 22 27 18 33
3850.0 23 33 26 38 9 23 19 35 39 57
3890.0 15 28 31 39 31 31 28 32 36 25
3930.0 33 4 34 24 42 56 12 22 42 20
##END=
