##TITLE=m-Trifluoromethylbenzonitrile
##JCAMP-DX=4.24
##DATA TYPE=INFRARED SPECTRUM
##ORIGIN=Sadtler Research Labs Under US-EPA Contract
##OWNER=NIST Standard Reference Data Program
##CAS REGISTRY NO=368-77-4
##MOLFORM=C 8 H 4 F 3 N
##XUNITS=1/CM
##YUNITS=ABSORBANCE
##XFACTOR=1.0
##YFACTOR=0.000113116
##DELTAX=4.0
##FIRSTX=450.0
##LASTX=3966.0
##FIRSTY=0.006787
##MAXX=3966
##MINX=450
##MAXY=1.13116
##MINY=0
##NPOINTS=880
##XYDATA=(X++(Y..Y))
450.0 60 7 188 71 243 138 133 147 46 105
490.0 136 137 83 42 94 29 62 95 82 140
530.0 143 244 215 180 194 136 57 47 36 21
570.0 46 24 39 75 46 63 75 64 25 34
610.0 32 74 27 46 33 50 77 92 76 106
650.0 149 322 516 533 434 228 127 217 350 571
690.0 869 1178 929 711 516 359 188 134 167 336
730.0 612 648 625 338 108 93 115 61 59 36
770.0 58 43 72 109 186 377 599 876 1182 1245
810.0 836 630 391 189 116 72 118 137 174 229
850.0 333 543 696 652 497 221 41 68 28 38
890.0 72 117 270 375 542 687 505 367 266 155
930.0 105 42 38 58 15 56 48 29 38 40
970.0 40 32 44 46 45 48 37 49 57 65
1010.0 77 76 70 52 67 63 58 60 67 106
1050.0 167 279 435 646 887 1280 1806 2166 2273 1969
1090.0 1376 932 857 723 553 390 337 377 396 445
1130.0 544 796 1292 2099 3473 5178 7717 10000 9232 7777
1170.0 6042 4975 5737 7737 8180 6781 5004 3171 1988 1211
1210.0 745 488 340 249 191 158 146 153 147 157
1250.0 166 185 248 342 426 512 552 584 601 572
1290.0 503 447 482 624 814 1335 2385 3670 5336 8082
1330.0 9911 9799 8540 4701 2011 877 453 242 144 135
1370.0 100 74 96 104 114 131 117 118 118 109
1410.0 106 111 109 218 318 640 909 966 920 638
1450.0 312 189 145 71 97 85 101 165 235 246
1490.0 228 235 166 95 83 41 11 33 0 26
1530.0 18 26 19 19 17 17 26 26 33 20
1570.0 19 26 20 18 27 43 55 64 85 74
1610.0 96 95 99 104 85 71 48 47 39 44
1650.0 68 76 85 81 77 49 29 41 31 35
1690.0 12 26 27 31 24 24 33 80 61 68
1730.0 110 78 73 48 18 14 30 21 23 24
1770.0 19 29 40 39 23 34 22 39 48 67
1810.0 82 85 76 73 69 33 34 37 20 57
1850.0 48 58 34 21 32 23 33 3 34 30
1890.0 41 37 50 76 102 105 76 58 37 26
1930.0 28 18 20 24 17 29 41 46 60 55
1970.0 52 39 35 17 9 12 11 15 17 15
2010.0 23 15 21 21 22 23 18 22 23 21
2050.0 21 16 19 19 20 25 15 17 16 14
2090.0 16 13 8 9 11 10 9 9 7 13
2130.0 13 10 8 7 13 9 10 12 14 17
2170.0 14 17 22 22 25 30 33 27 16 16
2210.0 17 15 20 25 43 61 106 135 146 129
2250.0 88 48 28 33 31 31 30 33 29 27
2290.0 29 30 24 26 20 19 16 14 12 16
2330.0 22 25 19 29 20 37 29 35 24 22
2370.0 28 24 22 26 20 22 24 21 22 20
2410.0 18 17 19 17 13 18 16 15 14 16
2450.0 19 18 17 18 17 19 18 17 19 25
2490.0 27 25 24 23 21 28 24 19 20 18
2530.0 17 14 12 14 9 16 13 8 11 11
2570.0 9 15 12 15 13 17 20 19 20 21
2610.0 26 26 22 24 24 19 20 18 15 18
2650.0 18 24 30 26 22 23 19 14 12 18
2690.0 18 20 19 24 23 24 24 23 21 19
2730.0 18 15 17 18 19 16 20 21 24 25
2770.0 27 28 32 24 22 25 28 22 26 22
2810.0 21 17 20 22 21 20 21 23 20 21
2850.0 21 19 19 21 21 20 26 23 20 24
2890.0 25 26 25 24 24 28 32 36 37 35
2930.0 36 41 40 39 38 40 40 37 41 39
2970.0 42 32 34 32 31 27 30 29 30 24
3010.0 26 32 30 28 32 29 31 32 35 37
3050.0 49 50 54 59 66 67 83 108 143 166
3090.0 173 156 115 84 62 54 45 47 42 38
3130.0 36 35 30 28 29 29 25 29 31 30
3170.0 26 23 26 31 30 28 34 36 33 38
3210.0 33 35 31 29 28 20 30 36 32 33
3250.0 36 34 23 22 24 24 36 32 30 30
3290.0 27 30 34 29 29 27 31 31 25 32
3330.0 30 19 29 24 27 31 33 31 26 29
3370.0 36 29 39 28 32 28 34 30 30 28
3410.0 30 40 46 38 42 35 37 33 30 39
3450.0 22 30 34 30 30 24 26 22 28 33
3490.0 28 30 29 30 22 25 25 35 32 29
3530.0 32 32 33 26 32 34 31 30 23 27
3570.0 32 28 32 20 31 29 26 15 23 16
3610.0 26 29 18 17 21 27 27 15 29 37
3650.0 29 37 13 32 8 38 29 38 12 27
3690.0 29 24 19 24 26 34 40 34 23 42
3730.0 28 30 43 29 52 44 47 36 37 36
3770.0 27 25 23 24 25 28 33 48 29 52
3810.0 26 45 27 38 35 46 36 49 38 33
3850.0 65 43 70 32 25 27 31 50 35 36
3890.0 34 35 42 52 34 28 39 51 59 41
3930.0 48 45 40 48 48 56 53 60 41 33
##END=
