##TITLE=Benzenesulfonyl fluoride
##JCAMP-DX=4.24
##DATA TYPE=INFRARED SPECTRUM
##ORIGIN=Sadtler Research Labs Under US-EPA Contract
##OWNER=NIST Standard Reference Data Program
##CAS REGISTRY NO=368-43-4
##MOLFORM=C 6 H 5 F O 2 S
##XUNITS=1/CM
##YUNITS=ABSORBANCE
##XFACTOR=1.0
##YFACTOR=0.000050586
##DELTAX=4.0
##FIRSTX=450.0
##LASTX=3966.0
##FIRSTY=0.024787
##MAXX=3966
##MINX=450
##MAXY=0.50586
##MINY=0
##NPOINTS=880
##XYDATA=(X++(Y..Y))
450.0 490 461 451 426 411 448 413 501 529 530
490.0 509 578 600 581 571 715 647 677 859 959
530.0 1084 1131 996 912 682 659 447 353 421 308
570.0 419 488 1130 2846 6584 7313 6821 5523 2981 430
610.0 131 274 385 434 384 406 441 313 408 393
650.0 407 422 409 516 573 764 986 1090 1339 1486
690.0 1088 1048 924 982 1208 1662 2177 2414 2312 1813
730.0 1346 1223 1349 1856 2489 2997 3389 2474 1910 1437
770.0 1255 1612 2440 4039 6200 8728 9973 9748 7372 4808
810.0 2562 1411 768 536 482 391 381 374 347 316
850.0 292 301 283 261 294 265 317 283 269 240
890.0 239 284 284 283 345 332 324 335 303 297
930.0 319 271 294 263 279 244 277 274 262 261
970.0 251 244 271 229 277 278 249 287 296 312
1010.0 296 273 349 368 390 372 344 306 266 283
1050.0 302 281 338 341 366 382 360 379 416 479
1090.0 650 844 1039 1131 1041 889 651 504 357 295
1130.0 305 255 272 267 245 254 254 274 279 263
1170.0 355 462 602 685 655 627 519 507 752 1374
1210.0 2732 5149 8391 9935 10000 8104 4781 2405 1472 1024
1250.0 848 686 495 461 390 372 378 379 405 393
1290.0 400 374 334 343 327 335 327 327 367 376
1330.0 398 434 386 392 345 294 260 238 227 232
1370.0 232 272 273 326 360 455 560 706 936 1153
1410.0 1513 2066 2872 4233 5778 6586 6363 6427 5287 4192
1450.0 3481 2783 2399 1879 1198 744 446 399 399 408
1490.0 329 341 215 227 168 159 209 184 131 182
1530.0 178 150 156 56 156 175 177 77 114 211
1570.0 174 215 216 299 360 351 350 308 246 247
1610.0 218 214 171 192 185 170 160 136 169 128
1650.0 149 16 175 160 181 140 168 195 181 134
1690.0 185 167 116 78 146 165 154 109 172 176
1730.0 171 100 157 161 169 159 160 179 169 190
1770.0 185 160 203 184 175 174 151 191 211 242
1810.0 261 260 252 234 187 179 166 171 161 125
1850.0 159 162 159 160 148 149 160 169 195 184
1890.0 193 219 216 233 225 232 233 202 211 191
1930.0 183 177 175 176 170 186 199 197 220 208
1970.0 208 215 207 207 193 183 173 149 157 149
2010.0 151 157 145 153 143 143 154 142 145 148
2050.0 136 145 144 147 141 139 149 138 139 146
2090.0 138 151 133 148 146 133 158 144 144 154
2130.0 143 153 141 153 151 148 153 152 145 144
2170.0 141 145 142 137 158 138 149 156 149 156
2210.0 152 140 146 135 142 136 134 144 134 133
2250.0 141 144 142 130 146 146 135 144 129 128
2290.0 131 128 139 136 160 178 170 208 241 256
2330.0 289 298 339 304 292 231 233 315 360 417
2370.0 414 305 251 179 134 116 100 119 118 119
2410.0 127 124 121 124 121 138 126 142 150 136
2450.0 136 129 127 137 117 130 124 120 133 123
2490.0 123 120 117 136 118 128 127 128 136 125
2530.0 132 123 116 140 115 128 129 125 137 137
2570.0 137 137 136 159 146 145 153 142 146 139
2610.0 144 147 137 167 157 148 174 177 190 188
2650.0 171 177 150 157 149 136 157 146 148 154
2690.0 146 162 140 140 152 128 148 139 134 138
2730.0 127 147 135 139 144 131 130 137 126 137
2770.0 122 134 137 117 146 129 138 133 137 147
2810.0 142 142 147 120 146 138 135 147 137 149
2850.0 134 147 159 139 152 148 130 149 138 145
2890.0 147 137 165 148 159 152 150 157 139 153
2930.0 156 148 165 158 156 176 137 159 152 161
2970.0 163 139 165 150 150 157 146 154 166 167
3010.0 196 178 200 194 200 200 196 210 204 214
3050.0 235 225 255 316 361 477 603 799 837 787
3090.0 712 463 319 288 245 236 203 177 184 162
3130.0 180 162 154 190 154 162 171 165 185 176
3170.0 196 185 168 177 165 165 166 156 167 158
3210.0 167 167 146 166 154 163 173 150 178 152
3250.0 156 180 154 175 168 156 177 145 170 166
3290.0 153 176 162 165 175 163 166 148 165 177
3330.0 156 176 165 162 173 166 182 162 161 185
3370.0 153 176 168 157 176 165 173 150 174 183
3410.0 158 164 194 162 184 169 176 184 159 185
3450.0 153 170 179 153 183 180 164 178 159 195
3490.0 167 157 185 164 176 174 166 181 161 178
3530.0 178 165 177 166 167 165 158 178 152 156
3570.0 160 148 166 171 156 146 167 176 166 158
3610.0 151 139 152 152 176 147 148 175 160 138
3650.0 118 147 147 176 153 129 122 120 158 139
3690.0 137 143 147 148 136 147 135 146 138 115
3730.0 129 107 108 126 88 99 106 118 137 117
3770.0 137 147 147 149 147 147 144 113 134 128
3810.0 126 147 108 107 135 121 127 106 131 123
3850.0 115 107 115 127 129 107 129 118 138 128
3890.0 122 147 141 135 139 156 165 138 156 167
3930.0 146 148 156 159 163 166 0 12 12 12
##END=
