##TITLE=Sulfone, 3-butynyl p-tolyl,
##JCAMP-DX=4.24
##DATA TYPE=INFRARED SPECTRUM
##ORIGIN=Sadtler Research Labs Under US-EPA Contract
##OWNER=NIST Standard Reference Data Program
##CAS REGISTRY NO=36832-52-7
##MOLFORM=C 11 H 12 O 2 S
##XUNITS=1/CM
##YUNITS=ABSORBANCE
##XFACTOR=1.0
##YFACTOR=0.000056998
##DELTAX=4.0
##FIRSTX=450.0
##LASTX=3966.0
##FIRSTY=0.014876
##MAXX=3966
##MINX=450
##MAXY=0.56998
##MINY=0
##NPOINTS=880
##XYDATA=(X++(Y..Y))
450.0 261 447 441 311 256 178 94 173 136 220
490.0 252 294 391 613 805 1265 1880 2608 2739 2364
530.0 1721 1283 1012 743 657 701 1012 1746 3150 4340
570.0 4384 3097 1474 573 300 184 200 182 244 313
610.0 433 646 1034 1694 2477 3149 3714 4586 5939 5720
650.0 4643 3702 3175 2272 1788 1192 851 714 655 660
690.0 736 749 649 643 702 889 1306 1729 1987 1836
730.0 1391 934 722 688 805 1033 1408 1788 2013 2076
770.0 1946 1612 1192 806 702 866 1059 1170 1318 1638
810.0 2131 2487 2369 1856 1195 655 382 257 184 156
850.0 130 106 83 70 37 28 8 13 9 1
890.0 8 14 35 44 76 116 150 158 146 141
930.0 139 154 196 284 388 468 524 544 555 579
970.0 707 823 801 593 352 208 155 154 181 256
1010.0 393 601 755 698 540 361 275 248 248 245
1050.0 257 256 250 253 283 339 487 816 1458 2329
1090.0 2866 2732 2024 1179 724 583 579 648 753 1027
1130.0 1617 2513 3458 4277 5090 6115 7849 9683 10000 8310
1170.0 5327 2936 1785 1233 949 756 620 576 609 700
1210.0 776 786 761 777 882 988 998 885 733 673
1250.0 752 959 1273 1618 1816 1766 1604 1446 1321 1266
1290.0 1238 1286 1375 1487 1541 1478 1577 1859 2189 2588
1330.0 2979 3548 4600 6062 7581 8241 7430 5475 3236 1681
1370.0 969 773 700 688 678 685 696 764 859 974
1410.0 1043 961 875 712 644 624 683 695 642 562
1450.0 480 411 379 333 292 302 311 298 294 384
1490.0 537 678 716 587 436 338 286 257 258 202
1530.0 190 156 176 176 170 138 150 178 179 165
1570.0 191 215 270 324 422 597 834 1079 1158 1036
1610.0 761 488 339 226 199 144 158 147 135 156
1650.0 175 161 125 67 55 45 47 24 56 60
1690.0 40 36 78 72 67 53 77 111 70 65
1730.0 80 109 71 74 84 98 93 86 98 81
1770.0 102 84 63 66 77 83 126 138 163 137
1810.0 100 63 35 29 22 29 19 16 18 35
1850.0 19 12 22 24 32 44 38 34 40 38
1890.0 53 55 65 86 117 153 176 184 158 109
1930.0 79 52 39 33 27 21 20 20 17 18
1970.0 23 20 15 17 15 18 11 14 7 8
2010.0 6 8 9 10 6 6 10 8 9 3
2050.0 2 1 1 2 4 6 4 6 10 14
2090.0 17 28 35 46 67 93 124 160 193 212
2130.0 197 153 92 41 21 16 10 8 12 11
2170.0 14 17 19 21 19 14 11 6 6 7
2210.0 4 1 4 9 12 17 19 19 27 32
2250.0 31 31 21 17 10 10 13 15 17 18
2290.0 26 35 40 49 42 39 29 24 30 24
2330.0 18 14 27 7 60 20 47 24 24 35
2370.0 54 43 51 49 39 30 35 34 31 32
2410.0 36 41 40 38 31 28 30 28 30 29
2450.0 23 23 19 17 22 20 25 24 27 29
2490.0 33 37 36 32 26 31 23 21 13 10
2530.0 10 9 8 13 12 9 15 16 26 27
2570.0 26 30 30 37 44 46 31 29 24 19
2610.0 21 19 21 21 22 15 14 12 14 16
2650.0 20 18 20 16 21 21 26 37 40 54
2690.0 52 42 33 23 20 20 16 13 18 17
2730.0 24 32 43 51 59 64 54 56 45 50
2770.0 43 40 38 40 41 41 45 49 49 54
2810.0 53 56 61 65 64 71 77 89 101 126
2850.0 156 182 216 261 314 366 413 446 456 446
2890.0 421 408 389 380 392 412 447 523 639 817
2930.0 1022 1193 1253 1179 1035 876 736 610 506 443
2970.0 412 385 380 397 429 461 472 456 433 428
3010.0 420 436 443 472 540 647 757 808 819 802
3050.0 792 734 642 594 620 610 533 397 307 293
3090.0 281 251 205 168 134 116 95 92 79 68
3130.0 64 62 54 49 52 48 42 41 34 32
3170.0 24 27 18 21 24 29 16 21 21 20
3210.0 14 24 26 28 35 31 34 31 51 51
3250.0 50 69 80 101 121 154 163 195 242 325
3290.0 376 410 455 653 1021 1144 1166 1002 1571 2769
3330.0 3116 2848 1439 461 284 161 170 134 135 116
3370.0 110 120 76 64 49 44 23 39 28 36
3410.0 30 19 28 21 21 25 15 19 26 12
3450.0 20 6 14 11 5 10 12 16 18 17
3490.0 4 12 16 24 12 3 9 2 22 16
3530.0 13 6 17 8 15 5 11 18 4 35
3570.0 11 12 7 9 17 33 33 16 15 14
3610.0 22 9 12 11 6 37 33 15 18 7
3650.0 28 21 31 31 10 38 20 56 6 32
3690.0 18 23 22 18 8 23 33 37 30 38
3730.0 27 28 36 32 50 1 37 16 10 26
3770.0 13 6 0 18 7 21 15 13 1 23
3810.0 0 8 1 15 3 9 21 32 9 4
3850.0 16 29 46 21 33 11 18 4 4 25
3890.0 10 44 37 66 28 24 22 36 35 20
3930.0 38 55 63 55 63 49 41 22 32 22
##END=
