##TITLE=2-Propenoic acid, 2-cyano-3-phenyl-, methyl ester
##JCAMP-DX=4.24
##DATA TYPE=INFRARED SPECTRUM
##ORIGIN=Sadtler Research Labs Under US-EPA Contract
##OWNER=NIST Standard Reference Data Program
##CAS REGISTRY NO=3695-84-9
##MOLFORM=C 11 H 9 N O 2
##XUNITS=1/CM
##YUNITS=ABSORBANCE
##XFACTOR=1.0
##YFACTOR=0.000135825
##DELTAX=4.0
##FIRSTX=450.0
##LASTX=3966.0
##FIRSTY=0.000000
##MAXX=3966
##MINX=450
##MAXY=1.35825
##MINY=0
##NPOINTS=880
##XYDATA=(X++(Y..Y))
450.0 0 67 98 85 115 138 171 199 211 167
490.0 140 120 102 92 88 90 94 88 83 86
530.0 62 71 70 78 83 83 67 76 64 94
570.0 113 234 448 553 537 376 199 156 96 59
610.0 56 55 55 49 52 53 63 56 53 68
650.0 72 84 97 141 198 314 442 609 861 1038
690.0 1027 744 588 422 359 342 360 365 361 332
730.0 289 275 288 338 389 460 491 587 702 813
770.0 866 847 780 657 532 434 358 306 267 211
810.0 168 139 135 136 153 180 205 211 204 186
850.0 153 127 99 82 70 74 73 75 78 75
890.0 81 77 78 81 86 93 91 97 108 120
930.0 145 191 228 267 288 294 283 263 262 280
970.0 344 413 458 415 318 216 198 284 344 325
1010.0 208 117 113 115 128 134 136 133 142 168
1050.0 195 244 310 399 516 659 852 1142 1510 1798
1090.0 1820 1549 1248 1114 1052 907 639 440 352 301
1130.0 277 254 245 244 252 275 331 404 447 482
1170.0 494 580 755 1194 1999 2682 3207 4036 4731 4802
1210.0 3516 1961 1280 1181 1321 1596 1811 1997 2315 2976
1250.0 4066 5383 6884 8447 9819 10000 8565 6027 3710 2388
1290.0 1725 1301 1030 907 900 970 1057 1066 948 763
1330.0 598 524 502 483 447 392 355 329 315 290
1370.0 257 217 194 178 160 154 144 141 145 152
1410.0 154 163 165 185 229 352 711 1182 1472 1457
1450.0 1108 913 687 434 347 294 255 216 209 205
1490.0 258 367 404 359 242 164 163 173 177 192
1530.0 188 182 169 150 148 149 158 161 201 264
1570.0 356 451 497 476 427 430 517 727 1116 1786
1610.0 2477 2765 2416 1602 934 547 339 250 207 182
1650.0 165 158 168 173 172 171 168 176 171 176
1690.0 184 203 216 271 342 419 471 479 507 561
1730.0 691 947 1534 2580 4393 6004 6557 5935 3590 1823
1770.0 983 605 481 413 388 398 413 400 330 255
1810.0 179 145 134 134 130 126 122 117 115 107
1850.0 111 108 105 98 102 102 112 118 120 122
1890.0 124 132 131 123 106 95 86 83 85 87
1930.0 92 97 102 108 119 128 131 124 122 121
1970.0 122 113 91 72 62 60 58 60 58 57
2010.0 56 57 58 57 63 64 68 68 68 68
2050.0 68 69 73 74 75 77 76 76 75 78
2090.0 81 84 90 93 94 91 86 78 71 62
2130.0 58 52 50 49 50 50 50 49 50 53
2170.0 52 56 57 56 54 53 52 52 54 55
2210.0 58 64 76 97 113 117 106 86 68 63
2250.0 57 57 55 57 61 60 61 62 65 66
2290.0 70 73 78 85 86 90 89 97 107 102
2330.0 96 87 81 93 106 114 108 94 84 78
2370.0 85 83 90 87 74 64 59 57 56 55
2410.0 55 57 54 55 53 52 49 53 52 53
2450.0 51 52 57 55 57 55 57 57 56 55
2490.0 56 55 52 53 53 56 55 58 59 57
2530.0 59 58 56 54 54 52 52 52 54 54
2570.0 54 55 57 60 60 59 63 67 67 65
2610.0 61 59 54 55 53 53 54 54 57 56
2650.0 55 56 55 55 52 51 50 50 49 52
2690.0 52 54 55 55 54 52 54 52 55 52
2730.0 52 53 53 51 51 53 52 55 54 55
2770.0 57 62 62 68 70 71 74 80 82 84
2810.0 84 84 81 80 80 80 84 92 109 150
2850.0 209 252 239 180 121 103 98 99 104 112
2890.0 126 143 168 186 198 200 201 199 196 188
2930.0 179 179 179 196 218 283 406 732 1127 1237
2970.0 1017 572 300 230 198 203 213 245 274 303
3010.0 321 315 310 311 345 404 469 498 475 403
3050.0 332 309 340 417 543 693 787 761 621 460
3090.0 354 327 312 287 260 224 198 170 142 118
3130.0 107 97 96 96 96 93 90 90 83 74
3170.0 72 72 71 70 71 70 73 71 71 69
3210.0 66 68 65 63 60 58 58 59 57 57
3250.0 59 60 59 57 57 57 55 57 56 55
3290.0 57 53 55 53 53 54 55 55 54 54
3330.0 54 57 53 56 57 57 59 61 63 62
3370.0 61 59 58 53 58 52 53 54 54 53
3410.0 49 49 51 55 57 54 51 59 58 58
3450.0 58 60 61 64 64 72 78 87 101 109
3490.0 101 96 81 66 52 49 51 53 54 55
3530.0 56 60 55 55 53 56 55 55 54 57
3570.0 57 58 60 59 62 59 55 58 53 53
3610.0 55 55 57 55 63 56 57 60 59 59
3650.0 64 61 61 57 60 58 51 59 60 59
3690.0 61 60 59 65 59 59 58 60 55 55
3730.0 63 58 58 61 57 58 59 58 54 49
3770.0 54 55 57 63 54 56 58 58 57 58
3810.0 55 61 68 61 53 62 64 59 66 60
3850.0 60 64 58 60 61 61 62 55 51 54
3890.0 53 64 62 62 64 59 62 63 60 69
3930.0 58 61 63 72 62 57 54 63 60 64
##END=
