##TITLE=1,3-Dichloro-4,6-dinitrobenzene
##JCAMP-DX=4.24
##DATA TYPE=INFRARED SPECTRUM
##ORIGIN=Sadtler Research Labs Under US-EPA Contract
##OWNER=NIST Standard Reference Data Program
##CAS REGISTRY NO=3698-83-7
##MOLFORM=C 6 H 2 Cl 2 N 2 O 4
##XUNITS=1/CM
##YUNITS=ABSORBANCE
##XFACTOR=1.0
##YFACTOR=0.000113214
##DELTAX=4.0
##FIRSTX=450.0
##LASTX=3966.0
##FIRSTY=0.011774
##MAXX=3966
##MINX=450
##MAXY=1.13214
##MINY=0
##NPOINTS=880
##XYDATA=(X++(Y..Y))
450.0 104 112 66 112 100 92 59 67 58 31
490.0 10 47 53 19 50 50 74 54 67 59
530.0 65 47 43 22 25 34 18 33 74 134
570.0 218 357 512 772 1010 1156 1112 1009 803 607
610.0 469 384 325 290 253 211 158 177 151 162
650.0 143 141 147 154 175 215 272 289 285 232
690.0 177 149 179 198 203 197 176 179 188 211
730.0 229 265 267 261 246 224 253 304 369 356
770.0 321 235 178 155 163 187 195 145 81 76
810.0 56 160 368 1014 1886 2269 1992 1193 417 181
850.0 88 107 101 158 260 396 541 503 375 348
890.0 422 668 985 1260 1214 889 583 405 363 451
930.0 738 1379 2499 3495 3501 2335 987 363 263 230
970.0 213 166 107 56 36 28 11 7 0 2
1010.0 5 19 21 29 28 27 32 49 50 58
1050.0 68 70 80 93 125 169 255 387 573 859
1090.0 1278 1693 1825 1617 1096 627 409 335 318 302
1130.0 296 298 307 322 347 376 412 456 487 505
1170.0 488 453 392 326 264 219 185 156 135 107
1210.0 87 63 67 91 197 397 489 434 258 146
1250.0 148 166 199 229 251 258 255 260 280 305
1290.0 342 389 456 547 675 850 1123 1584 2324 3388
1330.0 4614 5859 7215 8503 9011 7997 5726 3673 2682 2367
1370.0 2163 1908 1596 1326 1136 966 828 711 620 554
1410.0 513 488 518 563 636 746 881 997 1051 1110
1450.0 1255 1506 1801 1850 1618 1188 841 613 506 455
1490.0 473 509 597 706 866 1080 1297 1598 1931 2318
1530.0 2741 3295 4072 5118 6370 7464 8166 8130 7741 7341
1570.0 7202 7451 7948 8925 9495 10000 9345 7894 5612 3603
1610.0 2306 1587 1208 955 790 635 507 408 326 279
1650.0 246 233 188 163 142 124 120 90 97 95
1690.0 78 71 90 87 81 75 82 89 73 68
1730.0 77 104 107 120 128 126 107 96 98 103
1770.0 119 124 106 93 77 71 68 73 80 72
1810.0 63 60 46 40 37 38 32 27 31 33
1850.0 29 23 24 20 24 27 20 19 18 19
1890.0 22 21 19 20 22 24 25 28 27 20
1930.0 17 14 12 16 16 15 18 19 18 20
1970.0 17 17 14 12 9 11 9 6 7 5
2010.0 5 3 7 6 8 7 8 8 8 8
2050.0 9 9 11 10 11 11 7 9 9 9
2090.0 10 9 11 13 15 14 16 14 16 12
2130.0 13 11 10 6 6 7 3 5 1 3
2170.0 3 5 5 5 7 4 5 5 8 6
2210.0 7 7 6 5 6 5 3 0 1 2
2250.0 0 0 0 4 6 5 8 9 8 7
2290.0 6 4 7 6 13 10 16 19 28 35
2330.0 44 45 43 75 61 61 74 60 79 63
2370.0 54 52 48 41 32 36 36 34 32 30
2410.0 30 29 26 24 25 22 22 25 25 25
2450.0 25 24 27 24 24 23 23 26 25 26
2490.0 29 32 32 34 34 33 31 29 33 30
2530.0 31 31 32 35 38 39 44 45 42 39
2570.0 33 32 26 26 26 28 31 32 32 33
2610.0 33 36 38 38 42 47 53 55 61 66
2650.0 71 78 85 98 114 127 139 141 139 134
2690.0 122 111 99 92 84 79 77 74 71 68
2730.0 65 61 57 55 54 53 48 48 46 44
2770.0 46 44 44 43 45 45 45 48 48 52
2810.0 54 56 58 63 65 64 65 72 79 89
2850.0 103 112 123 136 147 161 179 197 213 223
2890.0 227 232 231 228 223 213 204 197 184 171
2930.0 156 138 122 112 101 96 90 81 75 63
2970.0 59 52 48 47 45 40 39 44 44 51
3010.0 59 63 75 84 83 87 91 95 96 94
3050.0 87 82 81 78 78 80 94 112 146 196
3090.0 252 333 450 542 546 460 295 159 103 75
3130.0 63 57 51 45 42 39 37 33 32 27
3170.0 25 25 23 20 20 20 17 17 13 13
3210.0 11 13 15 12 13 12 8 7 8 11
3250.0 8 9 5 3 5 7 4 4 4 4
3290.0 2 3 0 2 5 5 0 2 1 3
3330.0 2 2 4 4 3 6 3 3 4 6
3370.0 4 12 10 8 12 14 15 13 16 16
3410.0 18 17 17 16 12 14 15 13 15 13
3450.0 10 8 10 16 12 12 8 13 6 8
3490.0 11 15 13 9 11 10 12 11 13 11
3530.0 7 14 12 16 14 17 16 9 8 9
3570.0 10 11 9 8 11 18 15 17 10 0
3610.0 11 7 8 14 10 16 4 17 4 7
3650.0 2 1 8 9 5 2 5 9 3 5
3690.0 6 2 1 8 14 7 7 0 0 8
3730.0 2 1 0 3 0 0 0 0 1 3
3770.0 0 4 9 13 1 9 0 0 0 2
3810.0 0 0 0 0 0 0 0 0 1 1
3850.0 0 1 9 4 0 0 0 0 0 2
3890.0 14 0 0 0 3 0 3 3 9 0
3930.0 15 5 15 5 0 13 16 15 21 16
##END=
