##TITLE=Phenol, 4-fluoro-
##JCAMP-DX=4.24
##DATA TYPE=INFRARED SPECTRUM
##ORIGIN=Sadtler Research Labs Under US-EPA Contract
##OWNER=NIST Standard Reference Data Program
##CAS REGISTRY NO=371-41-5
##MOLFORM=C 6 H 5 F O
##XUNITS=1/CM
##YUNITS=ABSORBANCE
##XFACTOR=1.0
##YFACTOR=0.000056689
##DELTAX=4.0
##FIRSTX=450.0
##LASTX=3966.0
##FIRSTY=0.010714
##MAXX=3966
##MINX=450
##MAXY=0.56689
##MINY=0
##NPOINTS=880
##XYDATA=(X++(Y..Y))
450.0 189 218 246 271 263 237 222 220 276 386
490.0 539 645 800 996 1269 738 635 556 432 317
530.0 247 169 118 67 128 122 11 52 80 129
570.0 63 122 39 34 35 26 15 77 47 0
610.0 112 61 56 132 46 64 129 76 85 140
650.0 55 105 91 81 87 80 100 86 83 119
690.0 78 85 108 105 81 101 103 98 166 208
730.0 565 1292 2428 3025 2757 2553 2738 1646 501 194
770.0 192 199 278 301 296 374 339 335 482 684
810.0 1023 1352 1609 1826 2560 3339 1799 1680 1478 1130
850.0 746 467 321 271 243 211 215 225 166 120
890.0 119 117 69 83 74 87 80 79 74 86
930.0 69 84 104 86 102 86 64 71 65 68
970.0 65 62 60 50 59 42 33 67 68 80
1010.0 76 84 74 76 71 67 83 76 86 76
1050.0 111 122 165 219 297 364 499 693 787 638
1090.0 638 777 689 528 412 366 322 270 220 193
1130.0 183 192 255 361 504 770 1282 2341 3979 5009
1170.0 5726 5617 6383 4927 3788 2925 2209 1749 1468 1270
1210.0 1233 1507 2583 4525 6258 6281 6411 6497 4944 2142
1250.0 1053 886 851 780 726 659 461 247 204 236
1290.0 282 314 355 447 594 793 939 978 1059 1101
1330.0 1026 752 581 469 305 202 138 135 134 103
1370.0 82 91 89 72 92 103 128 141 131 170
1410.0 222 324 457 599 810 1079 1127 1140 1050 958
1450.0 635 319 317 164 179 143 229 212 255 395
1490.0 713 1356 3006 5875 9226 10000 9933 9530 8493 4530
1530.0 2080 1349 875 644 415 350 382 476 386 216
1570.0 214 148 189 115 123 141 159 195 216 237
1610.0 278 274 329 248 256 220 185 202 115 161
1650.0 127 284 80 81 67 126 103 99 109 207
1690.0 97 108 192 222 114 87 108 212 127 109
1730.0 132 242 166 171 155 198 192 201 202 173
1770.0 202 226 136 129 126 100 137 86 98 71
1810.0 79 78 90 87 114 127 121 126 147 196
1850.0 150 138 138 156 139 153 98 84 75 69
1890.0 75 55 52 34 43 43 26 51 34 33
1930.0 24 23 21 29 29 16 17 24 23 33
1970.0 34 33 33 43 51 63 78 80 104 110
2010.0 95 87 79 34 16 15 15 15 16 16
2050.0 21 18 27 33 40 42 49 41 41 42
2090.0 32 30 21 16 16 16 14 14 14 14
2130.0 14 15 15 15 15 15 15 15 15 15
2170.0 15 16 14 5 5 5 15 5 6 8
2210.0 15 9 14 14 15 21 22 22 23 23
2250.0 23 15 12 13 13 13 13 13 13 13
2290.0 13 13 14 14 14 14 14 14 14 14
2330.0 24 23 32 37 48 47 47 40 52 41
2370.0 32 29 29 30 31 21 21 21 22 21
2410.0 30 39 41 51 74 73 83 76 68 59
2450.0 47 38 39 38 38 39 39 41 45 57
2490.0 49 56 49 38 20 21 20 20 29 21
2530.0 18 12 12 12 12 12 11 11 11 11
2570.0 12 13 12 12 19 19 19 14 21 17
2610.0 12 12 11 10 10 10 10 10 10 10
2650.0 10 10 10 10 10 10 10 11 10 10
2690.0 11 14 9 10 10 10 10 10 10 10
2730.0 11 11 2 10 10 10 16 11 15 13
2770.0 18 19 20 20 11 10 10 10 7 11
2810.0 6 7 8 10 11 10 11 11 12 12
2850.0 12 12 12 12 17 11 12 18 20 20
2890.0 12 20 20 20 20 18 12 17 10 13
2930.0 12 11 13 21 12 12 12 12 12 12
2970.0 8 14 13 13 13 13 13 13 22 39
3010.0 67 94 123 175 247 310 367 389 400 374
3050.0 344 301 274 255 210 193 156 150 131 119
3090.0 103 100 95 84 67 59 59 58 57 47
3130.0 41 44 39 27 24 24 14 14 14 15
3170.0 15 15 15 8 14 10 11 13 12 15
3210.0 16 6 16 15 15 15 13 17 16 16
3250.0 16 21 33 16 25 25 34 41 34 34
3290.0 33 30 24 34 27 40 35 25 25 26
3330.0 25 26 24 16 30 25 20 19 20 23
3370.0 35 42 34 43 42 32 36 27 33 40
3410.0 46 34 36 39 27 36 26 26 27 17
3450.0 17 17 17 17 17 17 17 17 19 19
3490.0 18 18 18 18 25 19 19 18 18 28
3530.0 28 18 20 10 19 17 18 11 13 26
3570.0 52 19 19 19 23 58 19 28 29 21
3610.0 57 73 75 91 102 231 270 426 710 1138
3650.0 1730 2119 2060 1967 1791 1495 816 437 192 109
3690.0 117 51 21 29 21 39 61 21 22 43
3730.0 40 68 87 62 133 94 69 29 29 22
3770.0 21 19 23 18 17 21 22 27 64 46
3810.0 40 38 75 75 37 50 59 79 69 49
3850.0 72 108 61 48 58 67 56 40 49 49
3890.0 49 49 54 57 52 33 39 48 58 49
3930.0 48 48 29 23 24 15 1 2 2 2
##END=
