##TITLE=p-Fluoroaniline
##JCAMP-DX=4.24
##DATA TYPE=INFRARED SPECTRUM
##ORIGIN=Sadtler Research Labs Under US-EPA Contract
##OWNER=NIST Standard Reference Data Program
##CAS REGISTRY NO=371-40-4
##MOLFORM=C 6 H 6 F N
##XUNITS=1/CM
##YUNITS=ABSORBANCE
##XFACTOR=1.0
##YFACTOR=0.000106747
##DELTAX=4.0
##FIRSTX=450.0
##LASTX=3966.0
##FIRSTY=0.048357
##MAXX=3966
##MINX=450
##MAXY=1.06747
##MINY=0
##NPOINTS=880
##XYDATA=(X++(Y..Y))
450.0 453 336 150 159 127 187 119 152 304 407
490.0 415 384 594 983 609 445 431 283 232 111
530.0 76 49 52 64 57 84 79 75 60 56
570.0 39 53 67 104 94 100 134 153 199 211
610.0 235 199 211 186 219 326 565 953 1236 1412
650.0 1498 1488 1234 947 885 788 760 818 886 729
690.0 548 430 350 293 277 256 238 258 287 347
730.0 398 534 747 1054 1151 1061 910 886 536 154
770.0 22 11 39 76 153 242 413 647 930 1244
810.0 1636 1968 2356 2724 2687 2075 1924 1634 1354 1049
850.0 845 718 566 423 327 266 219 198 179 173
890.0 151 144 140 136 127 124 134 137 114 104
930.0 101 94 88 90 90 77 82 82 80 84
970.0 96 95 95 108 101 107 108 120 137 175
1010.0 183 200 208 219 205 187 182 174 177 208
1050.0 237 268 298 328 378 433 497 548 583 607
1090.0 608 571 500 488 486 479 421 388 387 351
1130.0 276 204 170 173 222 229 231 212 238 196
1170.0 153 139 157 196 265 423 641 890 1005 1065
1210.0 1103 1245 1615 2755 4812 6070 5948 6085 6109 3717
1250.0 1148 487 550 730 848 895 923 842 646 440
1290.0 312 240 225 225 253 244 220 234 273 253
1330.0 196 166 78 70 89 78 70 52 26 38
1370.0 56 27 52 74 60 63 50 37 100 150
1410.0 185 255 150 224 199 196 90 87 111 123
1450.0 113 115 88 180 236 245 195 233 317 335
1490.0 503 1100 2203 4342 6827 9089 10000 9997 8977 6869
1530.0 4132 1927 738 233 106 123 98 29 95 153
1570.0 153 169 197 211 289 290 363 425 609 887
1610.0 1160 1359 1541 1849 1795 1623 1343 1118 875 554
1650.0 315 274 288 248 197 148 78 136 46 44
1690.0 97 121 34 56 89 148 125 67 152 169
1730.0 115 22 81 69 38 11 59 48 46 64
1770.0 23 11 58 49 54 43 30 42 20 72
1810.0 65 70 97 101 113 123 180 233 218 190
1850.0 228 260 222 183 133 81 98 87 78 68
1890.0 59 66 83 95 96 102 105 101 80 93
1930.0 94 89 92 71 81 97 98 95 98 79
1970.0 84 91 93 98 100 83 86 89 88 87
2010.0 92 89 84 86 89 83 78 64 64 71
2050.0 70 74 79 81 79 89 94 98 94 90
2090.0 77 72 60 57 55 54 55 52 52 47
2130.0 48 44 45 42 43 46 47 53 54 58
2170.0 56 54 51 48 49 50 47 45 49 48
2210.0 43 42 45 44 47 48 53 51 51 52
2250.0 52 53 55 54 59 58 59 52 50 45
2290.0 38 26 22 18 14 5 22 21 25 28
2330.0 24 26 32 40 3 23 53 62 48 25
2370.0 3 1 0 11 29 51 59 53 45 38
2410.0 33 28 36 42 39 44 48 49 52 59
2450.0 54 57 66 65 71 73 68 58 51 47
2490.0 50 54 54 59 56 56 60 59 59 60
2530.0 64 66 63 64 58 59 61 57 54 54
2570.0 52 57 53 58 57 62 63 61 62 63
2610.0 54 59 51 55 54 51 48 44 49 41
2650.0 42 42 50 49 53 51 50 52 45 46
2690.0 50 48 51 54 53 60 58 53 53 53
2730.0 54 51 53 51 59 52 52 49 50 51
2770.0 46 47 45 47 48 50 46 46 49 53
2810.0 55 55 49 46 47 52 46 55 48 56
2850.0 56 58 62 62 71 80 79 91 93 87
2890.0 98 88 88 87 79 73 83 79 74 73
2930.0 74 80 70 71 61 60 57 55 56 53
2970.0 49 54 53 57 56 59 63 75 94 148
3010.0 208 301 401 492 562 584 590 569 578 612
3050.0 651 640 606 557 452 319 244 232 216 208
3090.0 189 170 137 132 127 127 120 121 121 115
3130.0 115 114 105 88 70 72 59 53 49 45
3170.0 43 48 50 45 48 47 47 58 63 61
3210.0 63 64 71 66 68 76 69 73 69 85
3250.0 75 75 76 74 81 59 55 46 40 53
3290.0 63 48 51 46 47 55 46 50 37 42
3330.0 48 50 49 53 41 45 48 45 48 57
3370.0 61 53 87 91 108 138 189 259 294 363
3410.0 368 375 312 251 198 129 91 81 69 87
3450.0 91 104 104 122 128 169 202 224 284 262
3490.0 282 328 293 242 232 200 146 112 94 76
3530.0 54 51 61 38 35 47 44 35 35 19
3570.0 40 22 32 18 33 37 5 29 29 29
3610.0 25 22 23 34 16 34 30 40 29 31
3650.0 47 42 27 17 13 20 38 55 51 39
3690.0 52 25 23 37 41 58 53 41 21 24
3730.0 35 18 39 42 50 33 29 19 35 37
3770.0 18 18 34 20 39 2 29 24 33 22
3810.0 37 33 39 21 13 36 22 0 13 30
3850.0 55 8 15 25 60 15 58 58 70 55
3890.0 39 65 72 66 35 23 23 18 43 26
3930.0 11 24 44 20 39 20 5 39 36 66
##END=
