##TITLE=Benzenamine, 3-fluoro-
##JCAMP-DX=4.24
##DATA TYPE=INFRARED SPECTRUM
##ORIGIN=Sadtler Research Labs Under US-EPA Contract
##OWNER=NIST Standard Reference Data Program
##CAS REGISTRY NO=372-19-0
##MOLFORM=C 6 H 6 F N
##XUNITS=1/CM
##YUNITS=ABSORBANCE
##XFACTOR=1.0
##YFACTOR=0.000107474
##DELTAX=4.0
##FIRSTX=450.0
##LASTX=3966.0
##FIRSTY=0.045999
##MAXX=3966
##MINX=450
##MAXY=1.07474
##MINY=0
##NPOINTS=880
##XYDATA=(X++(Y..Y))
450.0 428 540 426 397 344 383 268 185 171 168
490.0 207 210 315 436 625 664 677 671 680 675
530.0 462 449 453 459 323 266 192 170 113 132
570.0 166 164 178 175 182 142 153 144 134 84
610.0 115 113 146 150 186 228 310 382 566 842
650.0 1276 1883 2821 3750 4211 4210 4974 5794 3998 2755
690.0 2411 1786 1291 815 565 507 461 507 524 604
730.0 673 1041 1230 1524 1873 2218 2397 2611 3827 3039
770.0 2024 1898 1593 1226 872 679 551 495 437 399
810.0 390 439 622 903 1231 1489 1935 2936 3061 2118
850.0 2015 1667 1252 813 592 336 239 179 167 149
890.0 134 166 151 172 150 176 153 188 195 245
930.0 341 584 1051 1739 2400 2607 2700 2572 2242 1538
970.0 754 445 286 259 184 298 390 417 348 380
1010.0 290 240 64 40 23 46 107 129 210 273
1050.0 399 420 468 459 476 473 474 522 558 682
1090.0 776 887 822 810 710 602 464 390 427 420
1130.0 810 1566 3561 4474 5078 4543 5145 5199 4190 3030
1170.0 3058 2789 2819 2327 1305 533 378 247 159 104
1210.0 93 71 37 25 2 8 7 24 19 58
1250.0 113 207 349 544 802 1175 1696 2252 2318 2205
1290.0 2734 2771 2320 2199 2038 1946 2128 2015 1498 1258
1330.0 1075 745 424 215 107 44 19 8 7 15
1370.0 21 12 30 39 41 61 85 90 104 126
1410.0 151 165 138 245 372 588 691 831 941 1033
1450.0 1056 1046 1117 1250 1434 1599 1621 1885 2690 4040
1490.0 5469 6167 5939 5592 5393 4013 2148 1362 1132 1125
1530.0 950 744 643 617 616 641 657 679 863 1035
1570.0 1288 1669 2326 3233 4379 5470 6511 7603 8232 8277
1610.0 7366 7291 7545 8171 8777 9446 10000 9424 8609 6938
1650.0 5643 4232 2740 1586 987 753 640 609 510 476
1690.0 437 390 292 257 235 248 223 194 232 240
1730.0 220 182 203 160 121 87 93 56 50 46
1770.0 28 19 38 38 47 50 62 81 88 121
1810.0 110 111 105 86 66 46 52 57 37 29
1850.0 39 43 36 35 24 17 47 71 95 118
1890.0 145 179 217 234 200 198 194 163 113 82
1930.0 63 46 54 46 59 64 69 68 68 61
1970.0 61 60 58 53 50 40 31 34 33 31
2010.0 35 34 35 40 43 41 47 46 48 54
2050.0 58 63 68 64 53 59 52 46 40 40
2090.0 42 54 52 52 61 60 56 48 45 37
2130.0 43 43 46 49 51 53 54 55 51 47
2170.0 40 34 29 28 19 16 14 12 10 10
2210.0 11 11 17 22 29 34 40 43 46 51
2250.0 50 53 49 56 55 50 45 36 39 36
2290.0 35 33 29 18 20 9 15 11 16 34
2330.0 31 40 50 49 51 54 53 58 67 76
2370.0 71 66 70 61 56 52 44 36 36 36
2410.0 39 40 44 58 61 66 76 81 82 82
2450.0 79 84 83 84 80 73 72 66 60 54
2490.0 49 36 21 18 12 9 1 6 3 7
2530.0 3 5 10 14 16 16 19 21 32 28
2570.0 37 40 49 50 52 57 59 66 64 66
2610.0 63 74 79 86 83 81 78 69 61 45
2650.0 37 35 27 27 29 32 36 40 45 38
2690.0 35 32 30 27 30 31 35 33 36 37
2730.0 45 43 44 46 55 47 60 65 69 70
2770.0 74 74 72 78 74 72 61 65 53 51
2810.0 41 38 30 18 18 22 15 14 15 17
2850.0 17 18 16 19 23 27 32 37 36 44
2890.0 41 47 57 56 62 63 75 79 80 84
2930.0 75 67 63 54 56 57 51 59 49 57
2970.0 63 65 61 69 72 65 62 68 71 70
3010.0 76 87 119 191 310 469 610 743 902 1050
3050.0 1111 996 979 1034 924 762 640 593 546 506
3090.0 488 458 428 386 334 276 222 178 151 119
3130.0 106 87 69 64 50 47 42 42 39 39
3170.0 38 41 53 53 61 67 77 80 100 120
3210.0 128 143 160 178 169 166 153 141 113 103
3250.0 101 79 68 73 70 65 67 54 61 55
3290.0 54 54 53 60 60 58 60 58 63 65
3330.0 76 69 68 68 67 72 68 75 73 83
3370.0 92 100 123 132 155 191 267 354 501 635
3410.0 735 781 852 935 899 759 673 585 473 307
3450.0 219 127 133 123 158 184 219 263 333 430
3490.0 530 562 542 599 618 603 580 511 454 423
3530.0 353 255 176 107 86 61 51 38 34 25
3570.0 38 37 44 46 36 62 38 41 50 50
3610.0 53 37 42 33 36 33 35 29 39 21
3650.0 26 31 37 0 25 15 35 57 34 39
3690.0 27 29 17 19 29 12 39 27 21 57
3730.0 67 44 64 31 42 37 50 55 58 33
3770.0 27 46 48 43 29 40 50 43 54 69
3810.0 50 82 58 44 47 42 57 67 106 128
3850.0 128 168 115 132 125 96 55 86 74 61
3890.0 14 39 30 22 78 23 33 39 51 50
3930.0 72 73 96 85 137 122 63 111 88 58
##END=
