##TITLE=Benzene, 1,3-difluoro-
##JCAMP-DX=4.24
##DATA TYPE=INFRARED SPECTRUM
##ORIGIN=Sadtler Research Labs Under US-EPA Contract
##OWNER=NIST Standard Reference Data Program
##CAS REGISTRY NO=372-18-9
##MOLFORM=C 6 H 4 F 2
##XUNITS=1/CM
##YUNITS=ABSORBANCE
##XFACTOR=1.0
##YFACTOR=0.000080136
##DELTAX=4.0
##FIRSTX=450.0
##LASTX=3966.0
##FIRSTY=0.096243
##MAXX=3966
##MINX=450
##MAXY=0.80136
##MINY=0
##NPOINTS=880
##XYDATA=(X++(Y..Y))
450.0 1201 693 345 298 328 301 190 133 75 81
490.0 42 124 278 482 504 619 643 803 471 425
530.0 487 341 196 106 36 43 36 27 36 28
570.0 33 1 32 37 2 20 25 27 21 30
610.0 23 62 34 21 14 18 29 23 24 69
650.0 161 331 534 693 725 1138 2195 855 691 603
690.0 463 250 126 54 42 37 77 125 179 311
730.0 441 356 293 532 554 689 926 1161 1363 1939
770.0 3457 1647 1388 1293 971 565 266 98 33 7
810.0 13 10 21 37 95 244 518 901 1232 1409
850.0 1839 4030 1711 1470 1376 1069 649 346 228 166
890.0 151 140 131 104 96 87 114 122 150 190
930.0 258 442 865 1842 3132 3386 3762 3312 3532 2317
970.0 898 364 225 180 156 100 68 62 49 41
1010.0 27 32 21 21 22 24 28 65 127 169
1050.0 200 274 351 399 293 284 353 308 263 257
1090.0 265 268 270 400 987 2711 5124 5031 5858 4657
1130.0 5943 3275 922 379 732 1131 1024 1290 1119 1148
1170.0 484 126 40 29 36 46 44 43 57 65
1210.0 64 77 79 86 77 87 124 174 306 606
1250.0 1053 1357 1360 1713 1877 2440 2966 3760 3777 2913
1290.0 3968 3706 2172 1084 553 298 183 136 92 67
1330.0 54 45 76 61 23 19 13 24 43 32
1370.0 20 44 34 20 41 45 70 113 120 149
1410.0 162 118 246 223 235 263 463 796 1221 1491
1450.0 1545 1567 1747 1701 1247 1026 1393 1909 3063 5252
1490.0 5895 6075 4974 5557 4070 1761 793 632 624 603
1530.0 502 409 460 503 537 525 575 592 581 699
1570.0 917 1044 1243 1368 1722 2287 3312 4862 6859 9188
1610.0 10000 9099 6786 4670 3059 2299 1983 1992 1847 1508
1650.0 1208 916 605 351 246 208 180 84 127 140
1690.0 115 118 207 199 162 141 178 193 114 81
1730.0 111 181 139 124 139 166 133 115 109 81
1770.0 107 95 49 51 42 47 54 47 63 30
1810.0 35 49 49 85 113 127 113 92 119 133
1850.0 113 90 107 89 106 79 15 5 9 17
1890.0 28 32 37 46 67 97 121 116 119 129
1930.0 97 59 33 33 23 16 19 27 23 33
1970.0 28 20 15 13 12 26 25 20 23 32
2010.0 36 48 52 44 47 44 25 13 9 8
2050.0 5 9 11 23 37 40 36 34 41 32
2090.0 25 13 9 7 4 4 6 13 14 17
2130.0 22 18 17 13 6 3 3 0 1 6
2170.0 4 2 6 7 6 3 4 6 7 3
2210.0 10 15 27 38 48 63 73 75 63 57
2250.0 40 17 7 9 13 10 10 9 8 5
2290.0 6 11 9 13 24 29 31 41 52 56
2330.0 62 80 95 100 112 90 80 68 72 79
2370.0 76 76 69 63 66 89 114 132 133 137
2410.0 132 107 64 62 61 66 68 62 57 48
2450.0 40 25 19 16 15 12 10 9 9 11
2490.0 10 11 13 13 11 11 11 9 12 15
2530.0 19 22 24 28 32 35 42 50 58 65
2570.0 66 70 66 55 46 41 42 45 43 39
2610.0 35 32 29 26 18 19 15 16 15 15
2650.0 15 12 10 14 14 11 13 15 12 17
2690.0 15 14 21 22 25 28 30 31 34 32
2730.0 36 40 42 42 44 42 42 44 43 40
2770.0 39 36 36 33 32 25 22 20 16 17
2810.0 16 13 12 12 16 16 14 15 10 12
2850.0 14 17 19 23 23 25 23 17 21 17
2890.0 17 14 15 14 19 18 20 16 15 17
2930.0 20 20 16 14 17 11 14 13 12 12
2970.0 13 17 18 18 12 15 15 12 5 4
3010.0 4 14 14 23 30 39 52 75 102 129
3050.0 144 160 170 164 160 183 199 241 285 324
3090.0 308 272 274 216 154 117 95 76 56 38
3130.0 25 22 21 15 16 14 12 10 8 12
3170.0 10 11 7 3 4 5 1 4 4 2
3210.0 5 6 10 10 14 13 14 13 16 12
3250.0 15 12 14 10 15 14 12 9 12 15
3290.0 13 13 13 12 13 14 14 16 23 18
3330.0 16 14 15 17 21 15 16 18 15 19
3370.0 13 12 19 16 16 14 14 9 15 14
3410.0 15 12 17 12 14 19 10 10 13 10
3450.0 14 14 14 14 10 15 16 12 17 7
3490.0 8 19 19 16 9 10 15 22 14 20
3530.0 13 14 13 14 20 18 16 17 13 19
3570.0 19 23 21 28 26 24 21 26 17 28
3610.0 26 27 26 28 15 17 23 18 15 12
3650.0 15 18 19 18 15 7 6 7 11 14
3690.0 15 23 15 17 20 11 5 15 22 19
3730.0 18 17 18 11 15 13 17 27 14 16
3770.0 7 25 34 31 32 16 23 27 24 36
3810.0 17 20 30 24 22 20 25 20 24 18
3850.0 14 27 27 19 30 24 10 17 21 18
3890.0 28 39 17 24 12 25 22 27 10 38
3930.0 18 19 7 22 29 31 27 25 10 17
##END=
