##TITLE=Hexanoic acid, 5-hydroxy-3-methyl-, .delta.-lactone
##JCAMP-DX=4.24
##DATA TYPE=INFRARED SPECTRUM
##ORIGIN=Sadtler Research Labs Under US-EPA Contract
##OWNER=NIST Standard Reference Data Program
##CAS REGISTRY NO=3720-20-5
##MOLFORM=C 7 H 12 O 2
##XUNITS=1/CM
##YUNITS=ABSORBANCE
##XFACTOR=1.0
##YFACTOR=0.000090552
##DELTAX=4.0
##FIRSTX=450.0
##LASTX=3966.0
##FIRSTY=0.010323
##MAXX=3966
##MINX=450
##MAXY=0.90552
##MINY=0
##NPOINTS=880
##XYDATA=(X++(Y..Y))
450.0 114 83 62 70 33 57 60 62 37 25
490.0 15 34 23 54 40 19 41 34 45 53
530.0 61 106 116 109 132 139 129 149 144 171
570.0 168 143 145 108 76 57 68 57 44 47
610.0 60 69 62 81 69 70 71 55 37 26
650.0 28 44 51 60 69 73 56 42 25 13
690.0 9 9 13 10 6 8 16 13 4 0
730.0 3 2 2 15 3 8 9 8 22 18
770.0 31 62 88 127 162 195 228 230 232 223
810.0 193 186 193 202 201 191 170 140 112 92
850.0 81 84 100 117 131 157 192 201 202 197
890.0 172 151 124 107 95 99 106 119 131 140
930.0 143 138 129 123 122 126 158 209 307 461
970.0 653 817 908 907 836 690 513 426 440 512
1010.0 607 677 698 664 612 536 470 443 448 458
1050.0 463 488 517 577 696 915 1267 1708 2157 2594
1090.0 2890 2898 2669 2316 1885 1444 1180 1117 1177 1295
1130.0 1416 1500 1528 1491 1415 1315 1227 1192 1193 1232
1170.0 1315 1405 1467 1463 1408 1325 1208 1119 1133 1273
1210.0 1553 1989 2563 3216 3809 4179 4283 4143 3668 2948
1250.0 2319 1794 1343 1060 938 924 957 986 992 944
1290.0 854 728 616 517 439 380 347 325 339 380
1330.0 451 557 693 808 858 853 809 785 826 861
1370.0 953 1096 1266 1386 1389 1285 1041 755 487 336
1410.0 245 245 254 292 309 361 396 504 504 561
1450.0 604 647 697 626 638 514 430 315 241 156
1490.0 135 99 102 73 101 90 67 72 81 74
1530.0 44 79 55 81 58 60 58 69 74 41
1570.0 56 38 72 35 55 48 56 51 66 61
1610.0 67 70 82 76 63 84 73 90 72 106
1650.0 71 158 92 111 106 142 120 160 146 187
1690.0 178 199 215 259 239 266 293 353 401 477
1730.0 557 673 776 946 1178 1560 2140 3024 4382 6217
1770.0 8067 9392 10000 9696 8342 6302 4446 3072 2187 1612
1810.0 1232 931 738 574 444 322 246 207 174 165
1850.0 136 124 113 103 87 86 69 65 60 58
1890.0 59 52 55 53 47 48 36 46 29 30
1930.0 25 23 21 21 17 18 15 14 14 12
1970.0 9 8 8 7 9 5 12 7 10 8
2010.0 10 9 12 12 10 12 10 9 11 7
2050.0 6 8 8 4 4 6 4 2 1 0
2090.0 0 0 0 0 1 1 2 2 2 0
2130.0 3 3 3 4 2 5 7 6 9 9
2170.0 7 6 4 4 4 4 5 2 6 6
2210.0 7 7 5 5 4 5 4 3 7 9
2250.0 7 10 12 12 11 13 12 11 9 7
2290.0 10 14 17 20 20 20 20 20 25 20
2330.0 22 22 22 11 14 20 13 19 20 12
2370.0 12 14 16 17 12 9 11 9 8 6
2410.0 6 3 6 5 4 7 10 9 9 10
2450.0 11 12 9 11 10 10 8 10 9 8
2490.0 5 4 6 9 4 5 6 6 4 3
2530.0 3 4 1 2 0 2 3 1 2 1
2570.0 6 5 8 10 9 11 11 8 11 10
2610.0 15 16 14 19 19 20 20 22 22 23
2650.0 24 29 28 29 32 33 36 35 37 34
2690.0 31 26 27 24 23 24 26 27 29 33
2730.0 37 42 43 54 50 54 52 46 37 32
2770.0 34 30 33 35 35 41 44 53 56 59
2810.0 66 73 83 92 101 114 131 145 165 198
2850.0 234 285 332 372 419 492 599 701 791 872
2890.0 915 926 964 1020 1065 1157 1332 1463 1555 1710
2930.0 1931 2120 2290 2480 2461 2114 1988 1934 2108 2596
2970.0 2558 2535 2386 2283 2082 1627 1565 1145 799 508
3010.0 280 175 131 108 96 85 77 78 69 65
3050.0 67 62 62 56 54 52 50 49 49 44
3090.0 43 41 38 39 38 34 35 32 29 29
3130.0 32 32 30 29 31 31 29 26 27 29
3170.0 29 30 32 32 36 38 38 39 35 39
3210.0 35 37 34 29 28 25 25 20 14 19
3250.0 15 18 15 16 14 16 14 21 14 16
3290.0 16 15 12 14 12 20 14 13 14 21
3330.0 22 14 22 15 14 14 15 19 22 22
3370.0 16 19 13 22 16 16 18 21 25 19
3410.0 17 17 15 16 15 20 17 16 17 19
3450.0 16 13 17 17 17 21 18 16 22 17
3490.0 19 22 17 22 33 46 55 64 79 79
3530.0 86 82 75 65 66 45 46 20 45 44
3570.0 89 105 105 104 73 51 26 3 15 2
3610.0 23 12 16 18 2 37 8 10 12 12
3650.0 38 6 33 12 14 29 7 30 4 16
3690.0 18 15 12 22 14 14 20 12 7 16
3730.0 21 22 38 10 77 23 41 15 23 27
3770.0 20 20 16 30 20 17 19 15 33 31
3810.0 29 15 16 41 10 22 16 32 22 22
3850.0 25 66 34 34 23 26 14 14 25 43
3890.0 23 54 25 46 36 21 24 46 16 16
3930.0 24 32 36 27 20 24 21 33 25 22
##END=
