##TITLE=Cyclobutane carboxylic acid
##JCAMP-DX=4.24
##DATA TYPE=INFRARED SPECTRUM
##ORIGIN=Sadtler Research Labs Under US-EPA Contract
##OWNER=NIST Standard Reference Data Program
##CAS REGISTRY NO=3721-95-7
##MOLFORM=C 5 H 8 O 2
##XUNITS=1/CM
##YUNITS=ABSORBANCE
##XFACTOR=1.0
##YFACTOR=0.000070508
##DELTAX=4.0
##FIRSTX=450.0
##LASTX=3966.0
##FIRSTY=0.010012
##MAXX=3966
##MINX=450
##MAXY=0.70508
##MINY=0
##NPOINTS=880
##XYDATA=(X++(Y..Y))
450.0 142 204 167 125 82 74 61 89 106 100
490.0 104 121 128 211 263 322 394 444 506 567
530.0 612 705 812 898 1017 1180 1429 1590 1805 1965
570.0 2237 2378 2402 2363 2232 2123 1970 1676 1489 1242
610.0 1005 858 699 575 539 543 518 666 823 894
650.0 957 948 948 910 715 513 448 412 403 380
690.0 398 429 429 464 472 525 573 611 670 666
730.0 683 662 628 552 474 429 372 322 293 277
770.0 283 270 276 268 255 235 200 200 181 131
810.0 115 88 73 55 52 38 2 24 23 22
850.0 11 29 15 37 30 41 50 51 73 65
890.0 66 77 73 113 118 168 169 175 167 172
930.0 172 151 144 115 106 80 72 37 38 44
970.0 35 42 51 87 107 150 194 281 316 395
1010.0 477 563 668 759 877 1036 1200 1297 1372 1416
1050.0 1410 1366 1274 1218 1140 1132 1197 1315 1530 1805
1090.0 2130 2518 2684 2950 3208 3627 4107 4715 5508 6327
1130.0 6772 7275 7051 6545 6055 5044 4232 3534 3058 2755
1170.0 2453 2204 1936 1677 1453 1234 1082 965 902 857
1210.0 799 755 733 691 647 639 637 632 635 675
1250.0 728 785 860 883 897 854 822 733 660 582
1290.0 509 454 425 392 371 377 392 398 420 439
1330.0 478 504 541 592 643 704 771 848 964 1062
1370.0 1197 1350 1480 1571 1617 1550 1453 1294 1094 908
1410.0 732 616 569 508 477 427 407 409 373 357
1450.0 348 334 338 276 243 204 191 148 125 91
1490.0 105 66 80 58 73 77 61 65 63 55
1530.0 35 49 35 49 41 42 28 48 41 27
1570.0 40 29 27 21 21 20 15 14 9 7
1610.0 8 0 17 11 19 22 33 43 29 36
1650.0 41 65 42 45 40 66 67 79 95 106
1690.0 120 140 183 248 308 405 563 795 994 1137
1730.0 1252 1417 1685 2115 2746 3692 5036 6537 7975 9193
1770.0 9768 10000 9997 9314 7713 5954 4387 3159 2289 1679
1810.0 1250 933 690 509 387 279 196 146 123 103
1850.0 89 74 64 64 58 57 43 43 40 44
1890.0 44 36 32 35 30 30 30 29 23 16
1930.0 16 16 16 16 16 12 16 15 10 16
1970.0 16 10 9 9 9 9 6 11 2 2
2010.0 2 2 3 3 2 2 2 9 5 10
2050.0 5 9 9 9 11 9 17 16 10 10
2090.0 10 10 10 2 6 9 9 9 16 15
2130.0 23 29 36 43 42 41 48 52 56 54
2170.0 49 48 40 40 39 32 32 24 24 24
2210.0 24 24 24 15 16 21 22 22 21 22
2250.0 22 20 20 21 21 19 19 15 11 11
2290.0 5 4 4 4 3 10 6 7 7 2
2330.0 7 9 9 17 16 17 23 11 20 20
2370.0 24 19 24 15 25 22 16 23 23 24
2410.0 23 23 30 24 24 24 24 21 24 16
2450.0 16 24 24 24 24 24 24 26 27 24
2490.0 28 31 29 29 24 23 30 30 31 31
2530.0 25 27 32 27 26 24 23 31 31 23
2570.0 24 24 31 23 23 23 31 31 31 36
2610.0 31 37 38 45 45 51 53 51 51 58
2650.0 62 59 63 66 73 65 65 65 65 65
2690.0 64 61 65 66 66 58 63 60 58 66
2730.0 65 66 66 66 60 62 66 66 66 71
2770.0 66 74 73 74 73 74 80 81 83 88
2810.0 83 91 100 93 107 108 122 136 151 173
2850.0 217 256 322 401 498 627 768 883 963 999
2890.0 1001 979 933 840 792 781 803 844 918 1025
2930.0 1159 1342 1603 1927 2277 2641 2937 3153 3293 3328
2970.0 3357 3305 3248 3259 3284 3401 3416 3424 3217 2696
3010.0 2225 1749 1314 975 726 542 427 359 313 279
3050.0 269 256 248 233 226 220 200 195 190 178
3090.0 170 170 165 158 157 150 144 143 142 143
3130.0 131 136 134 125 139 126 123 123 115 123
3170.0 115 109 116 108 100 110 101 101 104 102
3210.0 101 95 94 94 94 95 84 88 97 79
3250.0 89 86 86 73 74 88 80 74 74 74
3290.0 74 61 63 60 52 43 52 52 44 45
3330.0 44 38 39 35 31 31 31 34 32 38
3370.0 39 29 24 37 24 36 29 11 21 16
3410.0 21 22 10 11 17 10 10 16 17 10
3450.0 7 2 13 13 14 9 10 8 9 17
3490.0 16 31 32 39 44 65 76 87 94 110
3530.0 106 116 128 129 151 159 245 467 1035 1978
3570.0 2753 2757 3299 2856 2861 2099 1108 509 257 147
3610.0 99 77 74 51 41 42 33 22 25 30
3650.0 30 23 17 8 2 10 9 15 2 2
3690.0 10 4 3 2 1 3 3 3 3 3
3730.0 1 6 5 1 9 0 4 1 1 1
3770.0 1 1 1 1 1 1 1 1 1 1
3810.0 1 1 1 1 1 1 1 1 1 1
3850.0 1 1 4 3 3 10 2 1 2 1
3890.0 1 1 9 17 11 4 2 2 2 2
3930.0 1 1 1 3 3 3 1 1 1 1
##END=
