##TITLE=2-Hydroxy-2-methylbutyric acid
##JCAMP-DX=4.24
##DATA TYPE=INFRARED SPECTRUM
##ORIGIN=Sadtler Research Labs Under US-EPA Contract
##OWNER=NIST Standard Reference Data Program
##CAS REGISTRY NO=3739-30-8
##MOLFORM=C 5 H 10 O 3
##XUNITS=1/CM
##YUNITS=ABSORBANCE
##XFACTOR=1.0
##YFACTOR=0.000070941
##DELTAX=4.0
##FIRSTX=450.0
##LASTX=3966.0
##FIRSTY=0.022417
##MAXX=3966
##MINX=450
##MAXY=0.70941
##MINY=0
##NPOINTS=880
##XYDATA=(X++(Y..Y))
450.0 316 288 175 1 84 146 229 157 268 298
490.0 201 223 353 453 448 570 642 774 849 896
530.0 968 1116 1205 1280 1409 1496 1725 1874 1982 2320
570.0 2385 2439 2574 2431 2301 2022 1817 1526 1184 1038
610.0 963 897 836 778 742 638 597 437 309 238
650.0 175 207 195 128 143 158 198 119 171 209
690.0 208 99 142 353 462 588 779 858 1012 919
730.0 978 1054 944 1192 1070 912 708 816 789 612
770.0 596 559 412 312 256 298 363 286 312 344
810.0 342 308 290 211 225 161 244 185 208 224
850.0 198 233 205 194 192 193 170 202 194 207
890.0 147 177 166 197 235 246 308 394 502 563
930.0 601 667 682 687 677 595 555 487 411 340
970.0 262 227 250 295 360 449 589 749 948 1053
1010.0 1116 1189 1198 1238 1346 1453 1640 1705 1748 1791
1050.0 1764 1722 1687 1647 1647 1649 1747 1870 2065 2358
1090.0 2753 3358 4138 5133 6209 7060 8074 8451 8755 8602
1130.0 7582 7020 6306 5412 4782 4269 3980 3721 3385 3261
1170.0 3020 2840 2520 2276 2148 2048 1684 1771 1620 1577
1210.0 1365 982 919 827 700 707 798 803 788 799
1250.0 934 1022 1135 1237 1411 1557 1655 1818 1847 2030
1290.0 1958 2057 2032 1943 1817 1679 1613 1518 1481 1469
1330.0 1445 1490 1600 1719 1744 1822 1870 1949 1983 1986
1370.0 1985 2033 2089 1979 1886 1686 1558 1346 1133 982
1410.0 753 714 619 670 600 633 698 764 856 876
1450.0 990 1092 1193 1139 1064 932 860 640 511 400
1490.0 236 237 135 235 415 405 350 307 273 268
1530.0 200 305 267 299 221 187 193 212 231 204
1570.0 197 228 149 118 57 48 176 175 274 132
1610.0 139 85 87 132 118 122 96 119 185 156
1650.0 133 113 99 111 25 83 62 190 269 386
1690.0 425 561 692 885 1059 1178 1416 1684 1959 2361
1730.0 2889 3658 4654 5756 6886 7800 8547 9411 9848 10000
1770.0 9665 8179 7251 6286 4939 4078 3376 2998 2638 2041
1810.0 1706 1352 1007 732 597 473 396 309 303 253
1850.0 231 210 206 212 166 183 157 156 154 122
1890.0 134 79 143 110 108 106 118 80 79 83
1930.0 88 106 80 89 99 105 68 52 48 49
1970.0 98 85 89 83 44 71 79 85 67 48
2010.0 55 55 72 53 47 45 81 74 72 60
2050.0 61 55 77 76 74 90 100 96 81 103
2090.0 103 107 107 110 105 112 106 114 104 95
2130.0 91 80 79 53 45 65 85 101 112 127
2170.0 126 130 136 140 140 137 135 127 121 113
2210.0 115 105 95 91 86 76 74 63 67 64
2250.0 62 61 57 56 62 69 67 75 88 114
2290.0 136 166 198 207 232 243 228 186 202 188
2330.0 168 176 151 185 202 245 250 185 201 180
2370.0 146 173 171 191 157 95 72 64 58 57
2410.0 59 63 64 61 47 50 59 52 49 54
2450.0 52 55 55 58 48 52 46 58 50 49
2490.0 56 55 47 54 48 43 39 33 34 33
2530.0 33 30 26 24 23 29 25 23 24 21
2570.0 21 20 18 20 21 22 15 17 19 19
2610.0 23 15 12 17 14 15 17 17 18 14
2650.0 16 18 18 14 18 8 15 9 12 15
2690.0 8 16 8 5 14 16 18 11 17 17
2730.0 31 31 37 43 45 47 52 53 47 55
2770.0 55 55 56 55 46 52 63 65 63 80
2810.0 83 77 84 110 124 123 144 160 192 226
2850.0 260 314 377 431 496 570 639 712 802 881
2890.0 951 1008 1013 985 993 979 1002 1090 1214 1404
2930.0 1583 1834 2036 2094 2165 2163 2047 1969 1936 1971
2970.0 2105 2350 2637 2749 2868 2810 2492 2174 1820 1393
3010.0 1057 846 640 512 429 392 350 310 311 289
3050.0 267 254 237 231 206 192 181 164 178 156
3090.0 142 135 130 121 114 104 94 102 97 77
3130.0 71 68 76 62 60 53 54 61 47 45
3170.0 40 52 50 42 43 35 36 43 44 41
3210.0 47 37 34 48 32 50 40 37 42 30
3250.0 30 36 28 42 26 39 30 45 28 28
3290.0 25 37 38 46 51 44 66 48 51 40
3330.0 41 71 61 57 45 39 75 48 65 42
3370.0 73 66 60 44 57 72 77 75 67 73
3410.0 78 55 70 72 46 59 74 79 74 83
3450.0 109 109 119 163 192 246 334 379 422 472
3490.0 490 474 455 440 369 338 286 250 220 230
3530.0 219 211 202 243 314 469 755 1276 1946 2725
3570.0 3428 4001 4195 3875 3475 2896 2089 1425 913 587
3610.0 383 274 255 195 257 255 295 298 347 348
3650.0 351 265 245 143 105 85 59 71 3 26
3690.0 13 22 4 40 25 30 30 4 4 37
3730.0 12 32 75 1 45 0 51 4 38 42
3770.0 8 3 9 12 4 4 8 20 11 6
3810.0 6 11 12 19 25 37 41 33 23 23
3850.0 69 31 65 16 38 83 6 85 55 63
3890.0 50 93 42 56 31 59 24 64 28 9
3930.0 45 6 29 63 96 119 38 38 67 93
##END=
