##TITLE=1,1,1-Trifluoro-2-propanol
##JCAMP-DX=4.24
##DATA TYPE=INFRARED SPECTRUM
##ORIGIN=Sadtler Research Labs Under US-EPA Contract
##OWNER=NIST Standard Reference Data Program
##CAS REGISTRY NO=374-01-6
##MOLFORM=C 3 H 5 F 3 O
##XUNITS=1/CM
##YUNITS=ABSORBANCE
##XFACTOR=1.0
##YFACTOR=0.000334598
##DELTAX=4.0
##FIRSTX=450.0
##LASTX=3966.0
##FIRSTY=0.000000
##MAXX=3966
##MINX=450
##MAXY=3.34598
##MINY=0
##NPOINTS=880
##XYDATA=(X++(Y..Y))
450.0 0 10 65 64 113 170 191 228 218 223
490.0 191 177 125 109 66 59 53 51 60 94
530.0 158 236 300 367 474 379 354 336 228 148
570.0 78 56 49 65 26 33 24 25 19 20
610.0 23 9 28 16 33 24 51 63 90 144
650.0 213 320 412 544 555 678 632 491 453 331
690.0 196 117 65 55 40 54 33 39 31 38
730.0 30 30 31 31 36 19 29 31 35 39
770.0 45 74 78 84 94 114 104 99 74 79
810.0 56 50 43 38 38 38 39 35 33 31
850.0 34 36 35 35 31 35 38 45 46 59
890.0 75 112 159 234 310 390 463 493 489 476
930.0 420 342 270 207 158 129 110 100 98 100
970.0 107 113 127 144 177 236 330 469 642 836
1010.0 1113 1458 1531 1682 1774 1462 1363 1284 1203 1200
1050.0 1291 1448 1646 1862 1932 1888 1838 1706 1473 1339
1090.0 1235 1181 1252 1435 1751 2087 2515 2930 3356 3559
1130.0 3727 3916 3935 3998 4198 4712 5021 6190 7212 9258
1170.0 8368 9104 10000 8254 8781 6758 6156 5012 4260 3299
1210.0 2529 1885 1341 956 745 705 767 962 1262 1660
1250.0 1996 2245 2650 2804 2948 3204 3326 3355 3511 3485
1290.0 3371 3241 2757 1973 1524 1210 871 649 519 496
1330.0 509 563 622 647 684 755 810 837 920 967
1370.0 1004 1038 1099 1143 1191 1229 1152 1096 923 735
1410.0 558 441 328 262 204 192 191 229 267 320
1450.0 399 484 539 520 508 503 420 342 280 197
1490.0 144 99 80 60 59 59 41 49 33 44
1530.0 33 46 33 38 38 41 35 36 34 33
1570.0 34 33 31 29 30 29 29 30 29 29
1610.0 30 31 28 31 28 29 26 29 28 29
1650.0 25 29 24 24 25 25 26 23 24 21
1690.0 23 20 21 25 24 24 24 21 26 25
1730.0 29 26 30 31 30 30 28 26 25 25
1770.0 24 21 19 19 19 15 16 16 19 19
1810.0 20 21 20 23 24 28 25 29 26 30
1850.0 26 24 20 18 15 15 13 9 10 9
1890.0 10 9 10 10 11 14 14 18 20 19
1930.0 23 23 25 28 31 30 33 34 36 35
1970.0 36 31 28 25 21 19 18 16 14 14
2010.0 14 15 14 18 19 21 21 24 28 28
2050.0 26 26 26 26 25 25 23 21 18 16
2090.0 15 14 11 11 10 9 9 9 9 9
2130.0 9 10 10 11 11 13 14 14 16 18
2170.0 18 20 20 20 20 21 18 18 18 18
2210.0 18 16 16 18 18 16 19 18 16 19
2250.0 16 19 19 18 18 19 21 20 23 25
2290.0 26 31 36 40 44 48 50 50 49 46
2330.0 45 43 40 41 36 36 33 30 28 25
2370.0 26 25 28 28 28 26 28 26 24 25
2410.0 24 24 24 25 25 25 24 23 21 19
2450.0 19 18 20 19 19 16 16 14 13 10
2490.0 11 11 11 14 14 16 14 16 16 15
2530.0 15 15 16 14 16 14 14 14 15 14
2570.0 13 11 10 10 9 10 10 9 9 11
2610.0 11 11 14 13 14 14 14 11 11 14
2650.0 14 15 14 14 14 14 15 15 14 16
2690.0 16 15 18 19 20 20 21 23 23 23
2730.0 23 20 23 23 21 24 24 24 26 26
2770.0 26 26 28 28 29 29 29 29 29 29
2810.0 30 33 34 38 40 45 50 55 60 66
2850.0 69 71 74 78 84 89 94 100 113 128
2890.0 150 182 226 280 340 394 455 552 558 518
2930.0 494 468 432 401 386 381 382 371 357 337
2970.0 310 282 277 297 343 440 612 730 717 799
3010.0 815 643 491 389 236 133 68 45 33 28
3050.0 25 23 20 19 20 19 21 20 23 20
3090.0 21 21 20 21 18 18 16 15 15 16
3130.0 15 14 15 14 14 14 14 15 15 15
3170.0 16 15 16 18 16 19 19 19 19 21
3210.0 20 20 21 23 21 19 18 16 14 14
3250.0 14 11 11 11 11 11 10 11 9 9
3290.0 10 10 10 10 13 13 14 14 16 21
3330.0 21 25 30 30 31 31 29 29 29 25
3370.0 24 23 25 24 26 25 28 24 26 25
3410.0 25 29 28 30 28 29 30 29 30 28
3450.0 29 26 29 29 29 28 28 26 29 29
3490.0 24 23 24 26 24 26 23 23 23 26
3530.0 24 23 25 23 29 30 28 31 30 40
3570.0 44 31 33 33 35 40 36 38 31 48
3610.0 58 79 117 182 253 336 516 743 905 950
3650.0 1097 1112 1028 876 727 544 356 218 132 94
3690.0 74 59 50 51 46 49 44 43 41 43
3730.0 36 41 43 35 46 29 36 34 28 28
3770.0 31 30 28 30 30 33 26 36 33 40
3810.0 31 36 26 40 39 33 40 43 43 44
3850.0 43 48 46 46 49 48 48 49 45 54
3890.0 38 50 38 46 38 39 39 45 43 38
3930.0 45 36 39 38 40 39 39 38 45 44
##END=
