##TITLE=Benzene, p-bis(1-methylnonyl)-,
##JCAMP-DX=4.24
##DATA TYPE=INFRARED SPECTRUM
##ORIGIN=Sadtler Research Labs Under US-EPA Contract
##OWNER=NIST Standard Reference Data Program
##CAS REGISTRY NO=37415-47-7
##MOLFORM=C 26 H 46
##XUNITS=1/CM
##YUNITS=ABSORBANCE
##XFACTOR=1.0
##YFACTOR=0.000087338
##DELTAX=4.0
##FIRSTX=450.0
##LASTX=3966.0
##FIRSTY=0.008821
##MAXX=3966
##MINX=450
##MAXY=0.87338
##MINY=0
##NPOINTS=880
##XYDATA=(X++(Y..Y))
450.0 101 95 60 28 55 63 61 56 23 86
490.0 88 94 74 103 58 74 80 90 85 101
530.0 105 146 157 155 174 211 242 305 345 422
570.0 480 587 734 705 487 255 209 161 138 122
610.0 119 104 101 77 63 63 50 56 53 50
650.0 44 75 68 76 77 131 75 81 96 104
690.0 101 102 113 120 151 207 260 294 308 288
730.0 264 234 219 209 197 189 180 174 174 169
770.0 170 150 145 130 128 114 123 137 166 223
810.0 263 334 460 728 1205 1427 958 519 325 236
850.0 193 167 146 129 127 111 101 108 108 114
890.0 103 104 97 99 84 75 69 67 61 64
930.0 72 69 69 64 73 63 62 63 64 61
970.0 60 68 81 98 116 143 168 196 228 277
1010.0 328 418 433 230 151 148 160 162 180 183
1050.0 186 183 179 175 178 181 189 205 212 223
1090.0 227 238 238 230 244 249 234 203 173 145
1130.0 143 140 129 109 90 77 73 71 76 86
1170.0 87 92 89 93 100 96 91 86 80 82
1210.0 81 86 89 95 106 115 130 132 138 145
1250.0 153 174 206 240 235 217 219 227 243 263
1290.0 283 312 349 385 398 372 343 322 328 350
1330.0 388 427 459 486 526 576 599 591 578 579
1370.0 642 829 896 729 517 399 341 331 350 381
1410.0 414 461 490 498 451 451 508 647 826 1032
1450.0 1271 1519 1691 1679 1493 1136 771 533 405 330
1490.0 326 397 507 675 857 852 693 488 327 224
1530.0 138 100 67 47 39 45 38 26 35 36
1570.0 36 32 31 22 25 20 29 33 46 56
1610.0 52 48 32 29 20 30 19 22 29 42
1650.0 47 79 76 62 39 26 8 11 0 3
1690.0 8 18 10 24 18 14 4 0 8 19
1730.0 17 19 24 29 27 29 38 39 50 61
1770.0 65 67 90 104 99 71 53 45 41 41
1810.0 36 33 34 30 26 25 23 24 20 20
1850.0 22 26 26 26 26 29 37 47 62 81
1890.0 110 123 111 69 41 31 24 20 14 14
1930.0 15 13 12 13 9 12 14 12 15 13
1970.0 11 14 12 11 12 9 12 12 11 11
2010.0 13 16 15 19 19 20 21 19 19 22
2050.0 21 18 20 17 16 16 19 16 17 15
2090.0 14 11 13 11 14 15 14 15 15 16
2130.0 14 16 16 19 18 19 19 20 22 21
2170.0 19 21 19 21 24 21 22 22 22 22
2210.0 22 24 22 19 20 24 24 23 25 26
2250.0 26 28 31 29 28 33 34 37 39 44
2290.0 53 58 68 74 82 86 86 81 85 77
2330.0 74 63 67 76 81 88 103 81 88 74
2370.0 64 63 74 76 63 52 44 45 45 43
2410.0 43 43 45 43 44 47 48 48 47 48
2450.0 47 46 50 50 48 50 51 52 52 53
2490.0 53 56 52 61 62 61 68 73 72 77
2530.0 79 83 84 84 87 89 91 97 98 100
2570.0 107 110 112 115 119 123 122 125 130 132
2610.0 132 132 141 147 149 150 152 156 162 165
2650.0 171 176 183 189 195 205 208 211 211 215
2690.0 207 204 207 202 205 205 214 223 233 243
2730.0 255 263 268 269 262 267 270 278 281 294
2770.0 309 324 344 368 395 423 454 496 532 578
2810.0 631 693 764 847 948 1062 1224 1454 1800 2320
2850.0 2995 3744 4398 4683 4461 4099 3840 3681 3582 3475
2890.0 3396 3427 3628 3978 4455 4993 5631 6454 7488 8733
2930.0 9828 10000 8924 7386 6000 5111 4814 5049 5674 5943
2970.0 5610 4526 3104 2173 1670 1371 1174 1061 1013 1013
3010.0 1035 1065 1097 1089 960 766 648 616 614 635
3050.0 623 572 498 434 392 374 371 384 387 370
3090.0 331 281 238 204 182 170 167 167 159 154
3130.0 144 132 120 110 108 104 102 103 96 90
3170.0 91 93 90 87 89 84 88 77 70 67
3210.0 60 53 52 49 44 46 42 39 38 41
3250.0 39 31 30 32 32 31 34 31 31 39
3290.0 33 29 31 29 30 32 31 37 30 28
3330.0 41 36 36 32 39 39 39 42 40 39
3370.0 46 38 41 39 35 38 38 39 44 44
3410.0 35 35 39 29 41 34 38 35 39 34
3450.0 35 35 42 38 38 34 34 33 29 32
3490.0 26 31 31 34 29 28 23 33 24 22
3530.0 26 33 30 30 34 19 30 32 35 41
3570.0 34 36 34 38 38 38 39 38 43 37
3610.0 44 50 55 57 51 52 50 46 48 49
3650.0 53 49 49 58 55 47 49 48 45 52
3690.0 55 46 43 58 41 48 43 46 47 40
3730.0 42 49 56 41 65 51 55 38 38 41
3770.0 44 41 49 47 44 45 35 28 36 40
3810.0 37 40 44 48 39 49 36 43 37 43
3850.0 52 35 37 34 36 52 49 38 52 51
3890.0 32 33 35 51 33 41 47 39 27 26
3930.0 30 36 41 37 28 29 35 35 49 40
##END=
