##TITLE=Benzo[b]thiophene-2-carboxaldehyde, 7-methyl-,
##JCAMP-DX=4.24
##DATA TYPE=INFRARED SPECTRUM
##ORIGIN=Sadtler Research Labs Under US-EPA Contract
##OWNER=NIST Standard Reference Data Program
##CAS REGISTRY NO=3751-76-6
##MOLFORM=C 10 H 8 O S
##XUNITS=1/CM
##YUNITS=ABSORBANCE
##XFACTOR=1.0
##YFACTOR=0.000169284
##DELTAX=4.0
##FIRSTX=450.0
##LASTX=3966.0
##FIRSTY=0.000000
##MAXX=3966
##MINX=450
##MAXY=1.69284
##MINY=0
##NPOINTS=880
##XYDATA=(X++(Y..Y))
450.0 0 20 65 126 164 185 209 151 132 111
490.0 86 80 54 61 58 81 98 119 141 147
530.0 163 161 152 117 137 140 157 204 284 351
570.0 377 362 281 162 79 85 65 79 69 73
610.0 75 70 86 81 96 90 125 142 214 329
650.0 490 728 967 913 875 514 204 126 75 113
690.0 73 125 88 90 112 232 428 586 1233 1075
730.0 822 635 280 144 121 129 201 342 441 725
770.0 912 734 635 459 266 157 95 110 109 134
810.0 135 188 255 332 422 539 616 714 905 721
850.0 567 480 335 194 119 83 52 46 52 60
890.0 78 72 56 45 40 29 32 31 38 37
930.0 40 35 35 39 39 47 50 59 65 65
970.0 59 51 50 51 52 41 44 44 51 69
1010.0 87 98 103 101 104 111 125 147 163 182
1050.0 205 222 224 220 223 220 225 243 291 383
1090.0 521 662 734 722 631 519 551 775 1151 1767
1130.0 2313 2392 2239 1669 1099 834 626 441 327 256
1170.0 216 204 202 197 179 128 77 69 86 128
1210.0 215 410 725 1058 1235 1230 973 611 375 231
1250.0 199 207 210 185 123 83 67 60 60 62
1290.0 69 80 104 144 202 262 319 365 400 398
1330.0 356 283 189 124 100 97 103 111 118 123
1370.0 131 160 230 346 437 526 547 451 354 249
1410.0 143 102 79 85 94 115 133 155 187 208
1450.0 232 272 382 549 714 780 704 529 313 179
1490.0 139 136 155 195 272 449 735 1225 1753 2081
1530.0 1991 1502 902 462 298 253 215 203 216 271
1570.0 315 367 383 384 384 361 335 300 255 187
1610.0 153 128 108 105 84 81 63 74 79 112
1650.0 141 226 300 372 424 467 536 680 887 1341
1690.0 2448 4705 8143 10000 9574 7161 3319 1108 466 267
1730.0 194 143 134 137 151 177 196 205 174 157
1770.0 150 168 199 213 196 165 132 107 85 65
1810.0 52 46 48 53 77 111 136 147 142 120
1850.0 107 98 83 71 69 74 86 90 87 75
1890.0 58 48 46 51 70 93 119 125 116 92
1930.0 59 44 36 32 33 35 38 38 37 32
1970.0 29 27 28 26 26 27 25 26 26 26
2010.0 25 26 25 24 23 25 25 25 25 27
2050.0 30 29 29 28 25 24 22 24 25 23
2090.0 24 23 24 23 24 24 26 26 25 25
2130.0 27 26 27 26 28 28 27 29 29 29
2170.0 29 29 28 29 30 29 30 29 27 26
2210.0 28 26 26 24 25 23 25 25 26 28
2250.0 29 33 37 41 42 41 41 38 38 37
2290.0 39 41 45 47 48 53 48 45 51 47
2330.0 47 51 47 56 61 61 68 56 61 52
2370.0 54 47 47 47 37 29 23 23 20 24
2410.0 25 24 26 26 25 24 24 24 22 23
2450.0 23 23 25 23 25 26 28 31 31 34
2490.0 32 33 34 34 30 32 29 28 30 30
2530.0 32 31 32 30 31 30 32 32 32 32
2570.0 32 33 34 38 38 41 41 40 42 42
2610.0 47 48 51 54 55 55 56 58 60 63
2650.0 69 78 89 103 122 136 146 155 158 160
2690.0 160 156 158 165 195 244 301 339 351 332
2730.0 298 288 312 384 468 513 513 446 339 257
2770.0 215 215 257 334 427 542 715 977 1226 1297
2810.0 1262 1057 775 629 577 535 483 410 328 279
2850.0 258 250 248 246 249 249 249 247 243 243
2890.0 246 247 244 238 237 245 265 296 332 366
2930.0 378 375 354 321 294 280 261 231 217 208
2970.0 209 223 253 295 320 310 282 227 181 163
3010.0 165 178 200 232 276 324 368 396 414 422
3050.0 431 451 481 536 613 671 672 604 460 294
3090.0 185 133 116 102 93 86 77 66 60 54
3130.0 53 49 46 44 41 43 40 38 35 33
3170.0 32 29 29 29 27 26 24 24 27 28
3210.0 26 25 29 35 36 39 35 32 28 24
3250.0 23 24 20 24 23 22 24 23 23 27
3290.0 25 27 25 28 27 24 25 25 29 28
3330.0 27 27 29 28 29 28 30 34 42 57
3370.0 70 91 123 140 139 129 101 73 48 32
3410.0 28 20 24 24 25 25 27 24 31 31
3450.0 25 26 26 30 29 27 25 20 29 32
3490.0 26 30 27 26 28 29 31 29 32 34
3530.0 27 26 25 24 29 30 27 25 26 32
3570.0 30 33 49 65 79 62 44 33 25 31
3610.0 37 35 33 37 30 39 32 33 34 34
3650.0 34 36 37 33 37 36 27 30 23 34
3690.0 24 27 27 29 27 29 24 30 33 35
3730.0 30 27 26 34 31 29 30 27 31 27
3770.0 28 30 33 31 30 38 36 35 38 37
3810.0 33 29 24 31 37 32 38 41 34 38
3850.0 39 41 39 40 37 39 34 31 37 33
3890.0 35 30 35 41 48 32 39 38 36 37
3930.0 39 41 36 30 42 45 41 42 38 38
##END=
