##TITLE=Hexafluoro-1,5-pentanediol
##JCAMP-DX=4.24
##DATA TYPE=INFRARED SPECTRUM
##ORIGIN=Sadtler Research Labs Under US-EPA Contract
##OWNER=NIST Standard Reference Data Program
##CAS REGISTRY NO=376-90-9
##MOLFORM=C 5 H 6 F 6 O 2
##XUNITS=1/CM
##YUNITS=ABSORBANCE
##XFACTOR=1.0
##YFACTOR=0.000054092
##DELTAX=4.0
##FIRSTX=450.0
##LASTX=3966.0
##FIRSTY=0.024504
##MAXX=3966
##MINX=450
##MAXY=0.54092
##MINY=0
##NPOINTS=880
##XYDATA=(X++(Y..Y))
450.0 453 315 308 234 211 174 138 126 84 137
490.0 101 120 201 193 253 301 308 303 335 356
530.0 427 433 461 473 423 352 343 363 347 389
570.0 410 402 360 306 291 308 350 456 553 660
610.0 702 694 601 574 553 475 449 408 350 312
650.0 293 246 235 262 282 292 280 243 197 209
690.0 163 162 125 97 74 54 39 67 58 88
730.0 124 247 426 597 725 753 668 597 598 648
770.0 621 505 340 202 110 67 42 21 23 43
810.0 55 64 82 84 107 136 162 187 218 269
850.0 311 375 465 553 666 876 1210 1595 1975 2139
890.0 2047 1744 1383 1149 1070 1045 1097 1223 1375 1521
930.0 1630 1622 1525 1413 1324 1308 1357 1410 1440 1420
970.0 1324 1191 1081 1014 1039 1113 1197 1225 1184 1080
1010.0 968 880 850 867 910 995 1083 1180 1298 1440
1050.0 1627 1853 2114 2462 2934 3569 4351 5054 5394 5249
1090.0 4745 4133 3706 3538 3505 3530 3594 3743 4002 4405
1130.0 4948 5652 6505 7521 8603 9501 10000 9796 9052 7843
1170.0 6598 5552 4792 4261 3844 3472 3124 2798 2519 2326
1210.0 2183 2112 2070 2070 2062 2045 2028 2016 2052 2118
1250.0 2176 2129 1962 1717 1499 1342 1248 1205 1169 1137
1290.0 1093 1064 1033 1018 1016 1002 980 938 875 789
1330.0 711 658 639 650 697 797 951 1135 1278 1317
1370.0 1203 996 760 592 493 455 451 468 478 469
1410.0 428 361 303 241 198 162 142 135 132 143
1450.0 191 280 367 407 374 285 188 116 81 66
1490.0 50 49 50 38 48 40 43 36 43 35
1530.0 32 27 34 22 22 29 26 18 19 15
1570.0 14 8 20 11 9 14 9 9 14 12
1610.0 8 11 10 6 6 5 9 4 16 8
1650.0 2 0 13 3 7 6 4 4 8 8
1690.0 11 8 11 8 10 9 12 7 3 5
1730.0 4 14 11 16 10 17 25 19 17 24
1770.0 28 24 25 24 31 20 25 22 25 28
1810.0 23 24 28 29 25 23 21 27 23 28
1850.0 21 26 29 32 31 21 28 23 23 24
1890.0 26 26 28 29 27 28 24 31 26 28
1930.0 27 24 31 30 33 30 34 33 34 33
1970.0 36 37 39 37 42 41 39 45 41 41
2010.0 45 51 48 46 47 47 49 45 46 47
2050.0 45 48 45 47 46 49 48 49 48 48
2090.0 48 48 51 52 52 54 54 56 62 65
2130.0 66 70 79 81 87 92 94 95 90 84
2170.0 74 73 71 66 64 63 57 57 57 61
2210.0 56 54 58 60 62 59 58 63 64 68
2250.0 69 66 68 71 72 71 74 73 77 77
2290.0 77 80 90 89 93 97 85 81 85 71
2330.0 75 76 63 51 72 75 77 60 70 59
2370.0 54 64 80 78 69 54 52 48 46 42
2410.0 40 38 39 37 41 37 34 33 41 36
2450.0 41 40 42 37 44 48 51 51 53 50
2490.0 50 47 45 47 40 42 42 38 39 39
2530.0 39 37 39 39 33 35 30 30 36 29
2570.0 29 28 27 31 26 35 33 30 32 32
2610.0 31 30 28 24 21 27 23 22 27 25
2650.0 23 20 27 17 22 24 27 23 31 25
2690.0 28 26 28 30 20 31 35 32 34 31
2730.0 34 36 36 32 38 39 43 41 48 49
2770.0 51 53 50 51 50 51 50 53 51 47
2810.0 48 46 49 47 53 51 52 52 62 59
2850.0 66 82 84 97 102 108 119 149 186 235
2890.0 296 357 381 369 322 263 216 193 194 220
2930.0 266 335 423 514 603 677 716 715 671 612
2970.0 550 487 446 414 379 353 330 302 280 254
3010.0 227 186 144 111 87 72 62 52 43 39
3050.0 41 35 35 33 39 34 35 29 32 32
3090.0 33 29 26 30 30 28 32 28 26 34
3130.0 33 27 28 26 34 34 25 21 26 27
3170.0 30 26 31 35 26 23 33 28 33 32
3210.0 37 36 33 39 30 32 32 32 29 34
3250.0 38 39 36 34 25 28 33 32 34 30
3290.0 30 27 27 29 28 36 26 31 23 35
3330.0 35 30 27 25 33 26 38 36 37 42
3370.0 34 45 53 48 57 48 51 57 51 48
3410.0 50 52 45 43 39 38 41 36 33 40
3450.0 29 34 41 26 33 27 24 30 31 37
3490.0 24 29 25 40 19 21 27 24 19 33
3530.0 36 32 31 27 51 40 50 57 53 73
3570.0 78 76 70 74 90 79 95 87 99 102
3610.0 105 95 117 126 169 208 266 374 609 1005
3650.0 1611 2139 2392 2326 1964 1549 1178 854 607 420
3690.0 294 229 186 148 128 112 100 78 88 80
3730.0 61 69 58 45 79 55 58 53 43 39
3770.0 51 47 44 35 31 26 27 32 31 47
3810.0 49 42 41 34 59 46 42 41 47 50
3850.0 72 66 58 51 61 64 56 73 76 90
3890.0 52 68 69 79 80 72 64 78 85 50
3930.0 57 65 62 55 45 27 52 37 31 26
##END=
