##TITLE=1H,1H,9H-Hexadecafluoro-1-nonanol
##JCAMP-DX=4.24
##DATA TYPE=INFRARED SPECTRUM
##ORIGIN=Sadtler Research Labs Under US-EPA Contract
##OWNER=NIST Standard Reference Data Program
##CAS REGISTRY NO=376-18-1
##MOLFORM=C 9 H 4 F 16 O
##XUNITS=1/CM
##YUNITS=ABSORBANCE
##XFACTOR=1.0
##YFACTOR=0.000205185
##DELTAX=4.0
##FIRSTX=450.0
##LASTX=3966.0
##FIRSTY=0.017646
##MAXX=3966
##MINX=450
##MAXY=2.05185
##MINY=0
##NPOINTS=880
##XYDATA=(X++(Y..Y))
450.0 86 57 61 95 3 152 174 70 204 85
490.0 92 255 235 285 361 423 534 446 457 545
530.0 589 801 760 956 974 957 920 672 717 794
570.0 778 743 629 613 555 527 471 451 456 480
610.0 481 491 493 507 482 477 491 460 471 500
650.0 534 559 598 560 545 489 474 471 542 576
690.0 632 736 842 959 976 899 880 904 994 1089
730.0 1177 1183 1118 1036 996 956 1043 1021 1044 1110
770.0 1113 1142 1096 1024 997 1002 1017 1054 1086 1054
810.0 982 897 809 775 750 745 723 605 502 423
850.0 380 348 336 405 462 476 495 466 471 465
890.0 417 379 331 335 349 358 373 369 376 424
930.0 473 525 530 485 432 405 366 375 392 353
970.0 344 364 375 423 419 408 453 461 491 515
1010.0 511 491 444 407 419 452 519 569 631 658
1050.0 697 779 811 880 979 1114 1285 1486 1720 1830
1090.0 1734 1504 1369 1384 1466 1667 1908 2352 2925 3550
1130.0 4169 4834 5211 5605 5862 5627 5311 5083 5058 5288
1170.0 5740 6116 6051 6391 7075 7092 7497 6583 7239 8556
1210.0 10000 9114 8938 9499 7226 6798 5385 4228 3483 3002
1250.0 2786 2615 2378 2171 1940 1742 1639 1522 1377 1240
1290.0 1116 1012 908 836 765 691 618 553 520 471
1330.0 436 416 391 389 391 433 501 579 651 639
1370.0 572 464 386 366 364 403 518 677 746 674
1410.0 544 407 294 221 171 157 142 150 136 141
1450.0 140 166 188 220 187 169 138 128 113 111
1490.0 108 107 112 104 113 115 102 117 113 106
1530.0 106 107 125 115 112 107 113 124 111 108
1570.0 107 104 114 100 110 107 115 108 110 118
1610.0 103 121 103 111 106 110 110 113 102 109
1650.0 109 118 110 100 107 103 111 102 111 111
1690.0 109 109 123 125 114 114 116 126 121 117
1730.0 132 138 164 166 181 182 171 167 154 135
1770.0 131 127 118 114 110 102 111 101 97 96
1810.0 95 95 90 90 89 92 88 86 84 84
1850.0 85 80 83 81 78 79 79 75 74 73
1890.0 74 74 70 72 71 70 71 69 68 68
1930.0 69 66 68 64 66 61 61 60 62 59
1970.0 57 54 56 55 56 56 53 54 52 53
2010.0 54 52 53 53 53 52 55 51 52 51
2050.0 52 52 51 53 52 51 50 52 52 50
2090.0 52 52 51 48 48 52 50 52 52 51
2130.0 51 54 55 54 54 57 58 59 59 58
2170.0 59 56 53 53 53 51 52 52 53 52
2210.0 54 52 52 56 55 56 58 60 65 68
2250.0 71 74 78 79 79 76 80 80 80 82
2290.0 83 87 89 92 94 97 94 95 97 96
2330.0 97 100 95 90 107 93 102 90 103 104
2370.0 98 93 81 85 79 70 70 67 64 64
2410.0 62 66 61 57 57 55 54 55 53 52
2450.0 48 47 46 46 45 43 43 44 43 43
2490.0 39 41 40 40 37 37 32 33 33 33
2530.0 31 31 33 30 31 28 28 26 24 24
2570.0 19 20 15 15 16 12 13 12 12 9
2610.0 10 10 10 10 6 4 6 4 5 5
2650.0 1 2 4 2 2 2 4 3 5 3
2690.0 6 5 4 4 2 4 5 3 6 8
2730.0 8 9 8 8 9 8 10 12 11 12
2770.0 13 13 14 12 13 13 12 14 12 10
2810.0 12 12 12 14 13 12 12 16 19 19
2850.0 20 27 30 31 33 37 42 48 54 68
2890.0 82 99 108 103 92 81 69 68 73 83
2930.0 95 114 141 165 181 197 207 202 202 199
2970.0 195 195 219 243 235 187 153 152 172 197
3010.0 201 176 140 107 83 61 44 32 26 22
3050.0 18 23 16 16 19 18 17 18 16 17
3090.0 11 11 14 5 6 8 6 8 3 9
3130.0 5 8 3 9 8 5 11 8 9 4
3170.0 4 5 10 6 12 5 3 10 6 10
3210.0 9 9 6 6 12 4 1 2 10 5
3250.0 4 6 9 4 1 3 5 4 4 6
3290.0 4 6 10 3 2 6 9 4 6 8
3330.0 4 6 2 4 5 10 8 4 5 4
3370.0 12 15 3 3 6 11 14 6 11 8
3410.0 10 15 12 9 10 12 8 14 11 11
3450.0 13 9 2 5 8 5 1 10 9 14
3490.0 2 1 10 15 4 12 15 3 6 16
3530.0 12 8 13 17 16 18 13 13 14 19
3570.0 18 19 17 25 24 28 26 14 25 19
3610.0 44 62 78 109 125 138 135 126 168 212
3650.0 373 625 687 611 434 362 272 225 142 114
3690.0 96 53 50 46 40 29 36 30 15 38
3730.0 28 19 24 23 33 34 24 22 30 33
3770.0 14 27 5 4 12 3 14 23 12 14
3810.0 0 20 12 27 34 20 6 16 22 3
3850.0 31 37 46 12 33 26 33 29 30 30
3890.0 29 16 23 32 40 34 38 42 41 39
3930.0 38 19 32 28 23 24 30 30 52 34
##END=
