##TITLE=2-Ethylcyclohexanol,c&t
##JCAMP-DX=4.24
##DATA TYPE=INFRARED SPECTRUM
##ORIGIN=Sadtler Research Labs Under US-EPA Contract
##OWNER=NIST Standard Reference Data Program
##CAS REGISTRY NO=3760-20-1
##MOLFORM=C 8 H 16 O
##XUNITS=1/CM
##YUNITS=ABSORBANCE
##XFACTOR=1.0
##YFACTOR=0.000122415
##DELTAX=4.0
##FIRSTX=450.0
##LASTX=3966.0
##FIRSTY=0.007712
##MAXX=3966
##MINX=450
##MAXY=1.22415
##MINY=0
##NPOINTS=880
##XYDATA=(X++(Y..Y))
450.0 63 74 81 43 48 54 28 26 18 77
490.0 61 99 83 95 71 93 81 67 58 41
530.0 36 49 75 69 108 109 131 117 123 123
570.0 86 59 31 62 37 39 36 37 33 40
610.0 32 24 29 30 33 16 42 31 52 41
650.0 46 38 49 42 36 53 33 48 18 23
690.0 5 28 6 21 22 25 24 13 31 15
730.0 32 39 46 53 67 80 73 74 67 73
770.0 56 70 74 32 26 63 45 47 56 67
810.0 102 102 149 147 180 212 252 304 350 341
850.0 313 269 217 193 147 171 185 178 166 151
890.0 153 133 145 148 155 131 136 121 112 115
930.0 124 146 166 211 271 367 491 672 810 968
970.0 1040 928 809 678 567 475 430 391 369 354
1010.0 358 392 443 529 629 756 907 1109 1327 1590
1050.0 1734 1765 1709 1532 1262 982 773 642 566 484
1090.0 427 375 354 317 290 276 277 296 326 371
1130.0 396 427 438 445 440 425 399 366 348 334
1170.0 349 372 426 474 512 525 528 513 487 478
1210.0 481 491 504 528 532 533 511 482 446 417
1250.0 405 401 413 417 426 403 390 361 341 322
1290.0 305 296 282 274 262 265 258 271 270 284
1330.0 296 312 336 350 367 366 380 388 418 450
1370.0 498 553 602 631 629 583 497 400 305 243
1410.0 199 168 155 156 156 189 269 409 588 746
1450.0 933 1138 1139 1013 926 778 633 447 298 195
1490.0 134 97 73 61 59 57 43 50 46 46
1530.0 33 44 36 43 33 35 29 32 40 24
1570.0 24 27 28 23 20 21 19 23 20 21
1610.0 15 26 13 25 15 19 16 23 15 22
1650.0 2 35 15 6 15 18 6 22 7 27
1690.0 8 16 19 23 8 6 16 17 20 15
1730.0 27 22 28 13 11 8 20 7 15 10
1770.0 14 15 12 16 12 15 15 9 8 10
1810.0 6 10 8 11 11 11 8 12 7 14
1850.0 5 9 8 12 7 9 10 8 9 6
1890.0 9 5 10 9 10 9 11 11 10 9
1930.0 10 7 13 13 13 13 13 12 15 11
1970.0 11 7 9 9 11 12 8 13 14 12
2010.0 12 11 11 13 11 10 11 10 9 8
2050.0 8 10 10 10 12 14 18 16 17 16
2090.0 19 19 21 18 19 19 13 16 16 16
2130.0 11 15 13 11 14 17 13 12 19 18
2170.0 15 14 16 15 18 17 16 19 16 16
2210.0 17 21 17 18 19 20 16 19 19 15
2250.0 16 15 16 15 15 11 16 16 11 11
2290.0 11 6 4 8 4 0 6 5 9 16
2330.0 11 16 15 8 5 0 0 12 5 0
2370.0 0 0 1 3 7 17 17 23 21 20
2410.0 21 19 17 17 17 17 18 17 16 13
2450.0 15 18 13 16 19 18 16 20 20 24
2490.0 19 16 17 17 19 16 25 20 26 24
2530.0 21 22 24 24 26 30 29 33 34 37
2570.0 39 43 42 45 49 55 56 63 65 64
2610.0 66 65 65 66 69 71 78 83 88 98
2650.0 108 119 131 144 158 161 166 159 153 135
2690.0 124 121 115 103 95 92 90 97 93 98
2730.0 100 114 118 121 127 131 129 128 133 134
2770.0 131 144 152 153 165 177 194 199 205 219
2810.0 227 235 247 271 304 349 414 525 698 976
2850.0 1404 2004 2780 3466 4037 4337 4234 3922 3474 3036
2890.0 2733 2503 2396 2403 2607 2941 3416 4139 5094 6225
2930.0 7688 9347 10000 9758 8776 7240 5502 4027 3198 3071
2970.0 3133 2797 2370 1798 1132 684 443 322 254 216
3010.0 186 163 143 135 118 116 114 108 110 104
3050.0 101 90 81 73 61 66 51 54 56 54
3090.0 50 54 58 53 44 46 46 35 38 37
3130.0 39 30 24 27 33 29 32 23 33 34
3170.0 35 33 27 28 29 22 27 28 15 18
3210.0 19 12 16 16 15 12 16 21 25 17
3250.0 17 19 12 11 17 20 26 27 22 18
3290.0 23 21 23 15 15 24 22 26 19 14
3330.0 20 19 19 24 21 25 22 16 12 20
3370.0 27 20 24 20 19 14 39 23 23 28
3410.0 27 33 32 32 31 35 24 28 23 23
3450.0 42 38 30 33 32 31 34 30 20 23
3490.0 29 33 35 25 41 29 25 21 27 23
3530.0 26 38 10 25 29 16 11 23 17 14
3570.0 27 21 15 12 1 24 16 23 27 37
3610.0 37 36 56 70 79 109 147 198 241 326
3650.0 409 473 485 421 357 250 189 100 83 58
3690.0 44 36 34 26 32 25 31 49 22 46
3730.0 31 30 30 26 31 32 0 3 30 32
3770.0 16 8 21 24 24 16 8 32 19 21
3810.0 44 39 23 36 24 20 66 39 27 51
3850.0 17 32 51 15 8 27 28 4 0 8
3890.0 56 58 38 71 65 36 40 40 21 35
3930.0 16 66 24 27 8 4 47 9 17 94
##END=
