##TITLE=1H-Indole-2-carboxylic acid, ethyl ester
##JCAMP-DX=4.24
##DATA TYPE=INFRARED SPECTRUM
##ORIGIN=Sadtler Research Labs Under US-EPA Contract
##OWNER=NIST Standard Reference Data Program
##CAS REGISTRY NO=3770-50-1
##MOLFORM=C 11 H 11 N O 2
##XUNITS=1/CM
##YUNITS=ABSORBANCE
##XFACTOR=1.0
##YFACTOR=0.000157559
##DELTAX=4.0
##FIRSTX=450.0
##LASTX=3966.0
##FIRSTY=0.060818
##MAXX=3966
##MINX=450
##MAXY=1.57559
##MINY=0
##NPOINTS=880
##XYDATA=(X++(Y..Y))
450.0 386 434 549 631 730 846 913 867 717 558
490.0 399 283 185 154 122 93 90 78 83 110
530.0 85 80 81 68 78 72 50 53 53 82
570.0 80 172 302 388 368 236 172 155 208 257
610.0 265 224 141 96 72 59 49 32 18 14
650.0 20 18 8 11 6 17 19 8 29 26
690.0 42 44 54 43 52 44 91 168 329 593
730.0 956 1448 1642 1827 1804 1358 1055 805 742 740
770.0 785 761 579 452 291 210 158 148 162 218
810.0 300 367 443 444 395 332 297 269 292 268
850.0 227 218 217 264 319 330 296 254 244 266
890.0 258 214 155 118 120 130 156 182 206 220
930.0 225 232 237 266 300 334 341 339 320 317
970.0 320 326 326 329 316 299 299 313 379 466
1010.0 568 719 983 1331 1549 1474 1153 825 614 487
1050.0 391 332 280 264 262 296 356 475 655 849
1090.0 1053 1236 1447 1578 1540 1295 1005 792 639 518
1130.0 413 443 569 1241 2116 2459 2138 1308 1048 1062
1170.0 1186 1697 2507 3729 4559 4472 3508 2580 2455 2945
1210.0 3826 4846 5586 6248 7084 8419 10000 9829 8243 5137
1250.0 3029 1774 1052 724 569 503 479 501 628 951
1290.0 1684 2972 4619 5599 5081 3356 1775 979 705 694
1330.0 937 1294 1557 1727 1806 1725 1421 955 766 917
1370.0 1422 2087 2210 1767 1074 736 717 684 654 616
1410.0 645 665 783 828 828 705 572 473 436 456
1450.0 468 483 471 433 434 457 475 418 342 302
1490.0 300 274 287 269 299 322 333 438 645 896
1530.0 1307 1850 2314 2546 2293 1779 1207 774 503 410
1570.0 454 543 586 536 397 301 257 240 218 230
1610.0 257 317 396 387 346 240 220 213 208 214
1650.0 251 274 296 290 290 266 281 280 336 377
1690.0 385 430 544 737 1050 1633 2634 4290 6046 6880
1730.0 6627 5025 3642 3405 3535 3472 2836 1565 827 491
1770.0 332 244 190 161 152 141 158 168 191 171
1810.0 154 134 117 120 114 115 97 89 93 104
1850.0 101 96 91 75 67 68 66 74 89 96
1890.0 98 83 62 44 39 45 64 97 110 82
1930.0 48 21 17 22 21 15 15 16 15 16
1970.0 13 11 9 7 6 11 8 6 4 6
2010.0 7 11 14 16 15 18 19 18 21 19
2050.0 18 20 19 20 21 15 12 12 9 7
2090.0 6 3 4 6 4 6 3 3 3 4
2130.0 2 2 2 1 2 2 5 7 7 7
2170.0 6 6 6 10 9 12 14 13 15 12
2210.0 12 9 7 5 5 6 6 7 10 9
2250.0 9 10 11 11 12 14 16 19 22 26
2290.0 30 39 45 48 51 53 45 38 39 22
2330.0 12 2 2 0 23 26 12 7 1 1
2370.0 1 3 22 31 26 13 7 4 3 4
2410.0 6 3 2 4 3 4 3 4 6 5
2450.0 5 8 10 9 9 11 11 11 10 12
2490.0 11 14 14 18 23 28 30 30 23 23
2530.0 22 23 22 24 25 27 24 23 24 21
2570.0 24 20 20 18 17 23 26 31 31 29
2610.0 27 27 21 18 16 15 15 17 17 16
2650.0 16 16 16 16 19 22 23 29 30 30
2690.0 28 23 18 18 19 16 17 16 20 21
2730.0 26 21 26 26 28 32 40 38 39 43
2770.0 47 52 60 55 53 48 42 46 46 42
2810.0 46 46 53 62 62 59 59 61 66 71
2850.0 73 84 90 104 116 125 142 165 199 226
2890.0 241 234 225 231 254 280 302 309 307 305
2930.0 321 364 447 560 633 618 553 497 501 533
2970.0 587 659 793 1012 1178 1171 989 766 633 543
3010.0 471 409 358 326 326 330 333 337 338 341
3050.0 340 370 449 622 880 1028 954 718 525 452
3090.0 387 300 214 151 113 90 78 70 66 64
3130.0 71 76 71 61 50 47 42 44 43 42
3170.0 43 44 42 39 36 32 33 36 30 28
3210.0 24 24 21 21 22 21 24 27 27 24
3250.0 26 28 31 33 37 32 30 24 23 23
3290.0 22 20 21 23 17 12 10 10 9 9
3330.0 9 10 10 7 9 3 8 4 5 7
3370.0 3 6 5 9 6 10 7 11 7 8
3410.0 14 13 20 26 36 42 49 56 62 75
3450.0 89 120 156 221 293 404 539 735 992 1347
3490.0 1683 1693 1558 1210 929 801 644 434 203 100
3530.0 58 32 19 15 17 10 13 12 5 13
3570.0 14 8 8 6 15 11 10 10 9 8
3610.0 12 8 8 4 6 9 13 4 14 9
3650.0 18 17 3 19 6 13 12 15 6 9
3690.0 11 6 4 2 5 3 3 1 6 1
3730.0 4 13 20 4 27 12 2 4 2 1
3770.0 1 8 5 6 1 5 3 12 7 7
3810.0 9 4 3 1 8 9 12 10 11 2
3850.0 4 11 8 7 8 7 3 10 9 11
3890.0 6 1 7 18 20 10 18 10 13 9
3930.0 16 23 17 24 24 21 18 18 17 8
##END=
