##TITLE=2-Imidazolidinone, 1-allyl-,
##JCAMP-DX=4.24
##DATA TYPE=INFRARED SPECTRUM
##ORIGIN=Sadtler Research Labs Under US-EPA Contract
##OWNER=NIST Standard Reference Data Program
##CAS REGISTRY NO=37732-87-9
##MOLFORM=C 6 H 10 N 2 O
##XUNITS=1/CM
##YUNITS=ABSORBANCE
##XFACTOR=1.0
##YFACTOR=0.000127386
##DELTAX=4.0
##FIRSTX=450.0
##LASTX=3966.0
##FIRSTY=0.020000
##MAXX=3966
##MINX=450
##MAXY=1.27386
##MINY=0
##NPOINTS=880
##XYDATA=(X++(Y..Y))
450.0 157 188 195 262 190 212 174 146 155 123
490.0 97 73 94 83 89 71 99 106 94 97
530.0 93 89 108 122 109 137 116 117 99 104
570.0 122 107 113 105 97 100 111 106 105 88
610.0 79 67 59 45 25 21 11 2 3 19
650.0 11 24 52 87 119 187 236 257 287 283
690.0 275 245 214 201 199 207 209 214 205 189
730.0 167 145 149 154 190 229 283 332 323 284
770.0 247 195 150 114 98 88 88 90 92 100
810.0 88 86 68 67 49 38 38 24 26 29
850.0 27 30 33 35 47 57 70 95 117 149
890.0 167 187 220 255 307 395 504 628 692 694
930.0 684 588 466 367 286 229 190 164 154 147
970.0 145 152 177 212 269 301 309 301 274 219
1010.0 164 125 101 92 89 95 112 126 166 216
1050.0 274 323 346 359 366 364 373 395 431 458
1090.0 479 483 471 441 405 361 322 292 262 240
1130.0 221 210 201 197 197 201 192 183 178 176
1170.0 179 193 214 246 288 335 390 441 482 513
1210.0 541 574 613 670 730 799 889 1019 1229 1564
1250.0 2023 2548 2986 3202 3145 2821 2282 1638 1108 771
1290.0 597 517 483 470 455 434 409 378 340 320
1330.0 309 327 377 430 449 452 444 416 366 316
1370.0 292 284 289 312 377 500 691 996 1422 1934
1410.0 2377 2641 2768 2653 2366 1970 1666 1396 1168 979
1450.0 785 602 433 322 240 231 296 533 809 1044
1490.0 1112 1081 953 648 397 271 197 155 140 106
1530.0 89 71 65 57 50 39 38 40 35 25
1570.0 25 23 29 30 23 28 28 31 28 34
1610.0 35 41 54 59 82 93 135 156 171 174
1650.0 181 161 132 105 104 114 127 143 170 202
1690.0 229 280 348 414 488 551 634 740 886 1118
1730.0 1561 2265 3371 4896 6940 8760 9758 9860 10000 8850
1770.0 6338 4060 2393 1415 882 618 460 369 296 247
1810.0 207 179 154 138 126 116 111 109 115 115
1850.0 112 105 99 87 75 68 57 50 46 45
1890.0 43 43 43 41 41 40 38 38 36 35
1930.0 36 34 34 33 31 29 27 24 22 22
1970.0 23 22 20 21 20 20 15 15 12 9
2010.0 8 8 8 9 7 5 5 7 7 9
2050.0 10 11 9 12 13 13 13 13 15 14
2090.0 16 13 13 14 15 14 13 12 10 10
2130.0 10 7 5 5 5 5 4 6 5 5
2170.0 4 4 4 4 3 3 6 7 9 12
2210.0 13 12 16 15 17 19 17 17 18 20
2250.0 22 23 24 24 23 26 27 31 30 32
2290.0 32 37 37 36 40 43 35 30 31 15
2330.0 12 15 11 10 21 28 25 26 14 7
2370.0 11 19 23 24 20 11 7 3 3 3
2410.0 1 1 2 2 3 5 5 8 10 11
2450.0 13 16 19 17 17 18 14 12 9 8
2490.0 7 6 3 4 3 5 4 6 5 1
2530.0 3 4 6 5 8 8 9 10 11 11
2570.0 10 8 9 8 6 6 4 5 7 5
2610.0 5 6 9 8 8 11 12 13 14 16
2650.0 13 14 18 18 19 20 24 27 34 36
2690.0 40 44 51 51 53 54 51 49 46 43
2730.0 43 40 43 46 48 55 59 67 72 82
2770.0 96 107 122 137 151 159 165 173 184 194
2810.0 204 220 243 277 312 358 414 475 543 617
2850.0 692 765 834 889 938 999 1076 1162 1238 1279
2890.0 1278 1238 1151 1061 981 923 882 857 843 845
2930.0 857 877 910 937 965 972 953 879 762 666
2970.0 585 541 541 578 626 658 652 598 530 455
3010.0 381 325 281 251 216 182 153 126 111 106
3050.0 105 109 117 129 143 167 196 233 279 320
3090.0 364 321 271 225 155 101 67 50 43 38
3130.0 33 33 28 33 31 29 27 28 24 21
3170.0 17 17 18 17 17 14 12 9 13 11
3210.0 12 10 10 13 14 9 9 9 11 7
3250.0 11 8 10 9 5 6 6 7 10 10
3290.0 10 6 6 9 8 9 15 9 14 11
3330.0 6 8 7 4 13 15 9 7 9 7
3370.0 10 8 9 9 7 5 8 7 11 7
3410.0 14 16 18 15 20 23 26 29 31 29
3450.0 31 45 69 103 182 332 552 734 812 829
3490.0 759 592 370 223 146 95 72 42 33 23
3530.0 11 8 7 4 12 6 4 7 8 21
3570.0 21 25 23 24 28 23 17 11 9 4
3610.0 17 4 5 8 3 18 11 2 14 9
3650.0 14 13 12 18 11 24 14 17 5 18
3690.0 10 7 2 11 6 1 8 7 9 6
3730.0 12 12 7 1 28 0 10 6 8 10
3770.0 9 4 7 7 1 8 3 6 1 7
3810.0 2 4 11 15 19 3 10 15 5 6
3850.0 14 17 8 10 8 12 10 13 5 25
3890.0 6 3 8 19 12 12 12 9 12 4
3930.0 18 14 15 5 18 23 18 15 18 9
##END=
