##TITLE=N-(tert-Butylamino)ethyl methacrylate
##JCAMP-DX=4.24
##DATA TYPE=INFRARED SPECTRUM
##ORIGIN=Sadtler Research Labs Under US-EPA Contract
##OWNER=NIST Standard Reference Data Program
##CAS REGISTRY NO=3775-90-4
##MOLFORM=C 10 H 19 N O 2
##XUNITS=1/CM
##YUNITS=ABSORBANCE
##XFACTOR=1.0
##YFACTOR=0.000148068
##DELTAX=4.0
##FIRSTX=450.0
##LASTX=3966.0
##FIRSTY=0.038054
##MAXX=3966
##MINX=450
##MAXY=1.48068
##MINY=0
##NPOINTS=880
##XYDATA=(X++(Y..Y))
450.0 257 344 297 269 395 222 318 380 216 269
490.0 198 0 399 273 349 168 215 449 241 303
530.0 368 317 489 269 369 278 332 335 392 283
570.0 328 322 322 314 408 369 386 382 337 385
610.0 284 296 352 341 349 345 367 426 454 497
650.0 509 557 555 563 565 580 538 540 508 622
690.0 558 561 559 545 554 493 420 393 357 355
730.0 312 350 314 176 223 322 302 329 289 276
770.0 271 283 293 279 292 287 328 405 466 518
810.0 609 631 618 550 447 370 373 350 320 335
850.0 321 291 286 304 317 320 327 318 302 337
890.0 331 331 382 363 368 360 403 443 538 673
930.0 858 1040 1155 1123 945 756 595 544 507 531
970.0 541 549 567 601 623 616 632 649 700 810
1010.0 1000 1172 1262 1181 987 807 705 674 669 659
1050.0 623 541 477 437 418 414 411 428 452 478
1090.0 517 576 650 720 800 939 1079 1252 1419 1558
1130.0 1708 1894 2210 2794 3839 5454 7536 9393 10000 9788
1170.0 8216 6465 5017 3817 3050 2514 2101 1817 1600 1490
1210.0 1474 1528 1637 1802 1953 1979 1802 1533 1256 1070
1250.0 965 893 838 794 784 801 874 1016 1246 1696
1290.0 2322 2866 2929 2545 2206 2184 2399 2490 2288 1901
1330.0 1481 1184 969 796 758 807 944 1114 1305 1467
1370.0 1428 1274 1089 991 1025 1142 1188 1140 1048 1008
1410.0 964 840 713 616 580 596 635 734 852 985
1450.0 1183 1329 1432 1443 1342 1201 1108 1045 1007 956
1490.0 808 641 464 349 293 245 232 201 176 176
1530.0 156 154 142 139 146 140 136 135 137 150
1570.0 153 163 169 163 170 171 169 191 187 215
1610.0 240 264 309 347 402 456 531 596 634 551
1650.0 443 347 266 266 261 262 281 279 280 305
1690.0 328 365 404 451 539 668 887 1264 1804 2618
1730.0 3762 4628 5518 5377 4319 3352 2197 1479 1082 799
1770.0 650 512 428 366 306 293 250 230 208 166
1810.0 151 129 115 113 95 92 94 85 85 83
1850.0 83 91 97 108 112 127 129 133 140 132
1890.0 122 111 96 91 83 79 75 72 70 64
1930.0 63 63 60 59 53 57 59 56 60 60
1970.0 63 60 60 64 62 65 63 64 66 62
2010.0 64 59 56 55 47 45 48 45 45 42
2050.0 43 44 38 38 38 39 39 37 40 38
2090.0 40 41 38 39 37 40 41 36 36 36
2130.0 36 36 34 36 33 33 32 28 30 28
2170.0 27 28 26 25 25 23 23 17 17 19
2210.0 22 19 18 25 26 23 26 23 29 26
2250.0 25 25 24 28 28 28 30 28 27 25
2290.0 27 28 27 28 25 29 27 21 22 24
2330.0 21 27 17 22 35 25 17 17 46 45
2370.0 55 54 50 50 46 38 40 40 39 36
2410.0 39 40 42 43 41 44 47 47 48 48
2450.0 50 52 47 46 48 41 41 39 38 39
2490.0 34 34 36 34 30 30 32 35 32 32
2530.0 32 36 41 41 44 46 50 47 49 50
2570.0 55 56 55 59 65 61 63 63 67 70
2610.0 68 67 67 69 69 66 70 70 71 71
2650.0 70 73 69 67 75 79 84 85 89 96
2690.0 106 113 122 127 130 126 126 126 134 132
2730.0 129 133 138 138 143 145 147 142 138 139
2770.0 138 139 140 140 146 153 163 176 193 216
2810.0 242 279 317 359 410 454 490 531 584 632
2850.0 676 714 755 803 870 946 1026 1074 1095 1102
2890.0 1102 1117 1152 1185 1234 1282 1318 1329 1350 1396
2930.0 1476 1627 1795 1934 2033 2169 2493 3083 3846 4607
2970.0 5019 5048 4584 3779 2924 2120 1519 1118 864 678
3010.0 526 406 325 276 246 213 183 161 147 142
3050.0 138 132 121 105 93 82 77 79 78 77
3090.0 83 95 112 142 184 201 192 141 87 64
3130.0 59 56 53 46 51 50 50 52 48 53
3170.0 54 53 56 53 58 57 57 57 55 52
3210.0 55 53 58 55 57 59 58 63 58 53
3250.0 52 51 41 41 41 46 48 37 42 44
3290.0 42 42 46 44 51 49 47 57 54 55
3330.0 59 62 65 66 60 63 65 68 65 69
3370.0 63 66 70 62 61 63 58 56 56 47
3410.0 51 54 47 47 53 50 52 56 62 60
3450.0 70 70 82 73 73 64 62 49 46 44
3490.0 43 39 43 33 36 39 38 34 30 33
3530.0 36 25 32 36 35 36 37 42 45 54
3570.0 66 73 81 85 88 86 85 80 61 49
3610.0 38 30 22 21 21 24 26 27 24 23
3650.0 29 23 32 33 34 24 31 40 32 21
3690.0 30 24 17 25 30 25 28 38 34 26
3730.0 34 30 26 25 20 33 34 26 33 34
3770.0 42 34 30 37 51 31 23 32 37 39
3810.0 38 35 28 26 39 25 36 45 33 41
3850.0 37 28 40 50 35 42 43 47 47 36
3890.0 47 47 36 32 35 38 22 28 50 43
3930.0 49 27 16 31 17 38 36 50 54 19
##END=
