##TITLE=Phenol, 5-bromo-2-methoxy-,
##JCAMP-DX=4.24
##DATA TYPE=INFRARED SPECTRUM
##ORIGIN=Sadtler Research Labs Under US-EPA Contract
##OWNER=NIST Standard Reference Data Program
##CAS REGISTRY NO=37942-01-1
##MOLFORM=C 7 H 7 Br O 2
##XUNITS=1/CM
##YUNITS=ABSORBANCE
##XFACTOR=1.0
##YFACTOR=0.000124710
##DELTAX=4.0
##FIRSTX=450.0
##LASTX=3966.0
##FIRSTY=0.090540
##MAXX=3966
##MINX=450
##MAXY=1.2471
##MINY=0
##NPOINTS=880
##XYDATA=(X++(Y..Y))
450.0 726 760 755 705 634 558 499 424 325 274
490.0 212 197 182 162 163 139 110 79 54 30
530.0 35 34 34 29 60 57 69 89 116 141
570.0 226 288 329 361 276 215 174 144 158 207
610.0 336 529 777 991 987 741 443 262 172 112
650.0 93 70 62 40 45 17 26 19 13 9
690.0 12 3 10 19 33 28 41 40 50 61
730.0 60 94 141 210 302 432 587 700 708 632
770.0 533 508 614 774 1019 1225 1231 1107 950 728
810.0 519 359 266 207 192 196 235 274 345 449
850.0 622 780 985 1221 1279 1446 1887 2394 2598 2307
890.0 1576 830 508 371 309 267 217 175 139 114
930.0 88 78 63 57 53 51 55 59 79 97
970.0 126 153 190 224 260 296 328 368 432 544
1010.0 700 914 1113 1311 1466 1557 1543 1390 1171 887
1050.0 605 409 311 278 291 302 299 256 202 184
1090.0 178 195 225 288 390 579 866 1222 1503 1553
1130.0 1375 1046 731 555 508 521 595 720 921 1220
1170.0 1611 1949 2057 1996 1845 1893 2264 2918 3846 5064
1210.0 6395 7346 7303 6217 4599 3015 2055 1601 1476 1685
1250.0 2262 3236 4428 5227 5188 4408 3478 3146 3145 2968
1290.0 2556 2006 1528 1302 1254 1315 1467 1623 1724 1700
1330.0 1545 1287 992 710 499 381 317 296 289 286
1370.0 282 289 270 244 247 234 247 257 260 276
1410.0 308 324 401 437 538 714 1023 1431 1728 1869
1450.0 1755 1540 1412 1333 1450 1520 1673 1949 2650 4185
1490.0 6295 8604 10000 9673 7765 4999 2933 1569 973 578
1530.0 428 317 302 311 280 267 293 378 408 486
1570.0 606 759 935 1144 1327 1481 1502 1407 1159 845
1610.0 579 385 293 201 191 151 173 173 157 159
1650.0 179 167 130 107 103 100 118 88 131 143
1690.0 129 124 169 159 148 137 169 206 162 137
1730.0 131 147 103 101 106 112 97 94 103 98
1770.0 122 124 109 117 123 132 141 121 108 78
1810.0 78 76 69 78 77 81 65 52 54 53
1850.0 29 12 10 9 16 27 17 15 19 22
1890.0 29 27 22 21 20 19 19 18 22 11
1930.0 11 14 15 25 29 22 28 31 34 41
1970.0 43 45 42 39 34 40 37 39 44 54
2010.0 64 75 84 81 77 73 66 62 62 58
2050.0 56 57 56 57 62 59 56 51 46 45
2090.0 47 43 39 37 33 28 24 20 18 16
2130.0 19 22 21 21 20 20 19 21 18 17
2170.0 17 14 15 14 16 16 20 22 22 20
2210.0 22 22 23 24 24 25 31 37 44 52
2250.0 59 62 60 56 46 35 28 23 19 15
2290.0 10 4 2 3 2 1 2 6 8 17
2330.0 15 23 20 23 19 20 17 15 17 17
2370.0 19 26 28 28 28 30 32 26 25 24
2410.0 22 21 22 23 23 23 23 27 28 30
2450.0 32 39 46 52 56 63 68 71 72 74
2490.0 72 69 68 65 62 56 54 53 54 57
2530.0 62 65 69 71 68 59 47 35 25 21
2570.0 18 16 16 15 16 17 18 21 22 20
2610.0 21 20 21 20 21 18 20 21 27 24
2650.0 23 25 23 23 24 21 23 21 22 25
2690.0 24 27 32 33 35 38 36 34 35 32
2730.0 30 32 34 36 39 42 47 49 48 50
2770.0 48 50 49 52 52 57 65 74 85 92
2810.0 100 110 123 135 150 175 220 301 440 600
2850.0 683 673 569 427 329 273 241 229 224 222
2890.0 228 240 256 286 326 382 449 509 538 529
2930.0 525 534 594 715 894 1066 1151 1150 1047 918
2970.0 800 663 544 450 380 344 339 374 456 616
3010.0 812 876 775 551 331 232 193 174 173 169
3050.0 173 168 170 170 179 198 230 266 273 247
3090.0 190 150 131 115 100 89 80 74 66 60
3130.0 59 50 44 41 41 39 37 38 36 33
3170.0 33 32 35 32 27 35 31 28 29 25
3210.0 23 22 22 26 23 19 24 20 20 22
3250.0 17 18 14 18 14 13 19 20 18 19
3290.0 22 21 20 18 19 13 13 13 15 12
3330.0 7 9 10 9 7 15 19 23 20 14
3370.0 16 9 6 10 4 6 7 10 7 6
3410.0 6 4 5 5 10 9 7 8 4 3
3450.0 4 1 8 9 9 10 14 14 16 15
3490.0 17 8 11 12 4 12 13 17 18 26
3530.0 30 35 43 53 63 73 112 166 266 490
3570.0 962 1848 2989 3949 4263 3593 2500 1376 631 311
3610.0 185 126 84 67 49 49 34 42 59 81
3650.0 88 81 68 42 26 20 7 14 2 3
3690.0 3 1 6 0 0 0 0 0 0 0
3730.0 0 0 1 0 3 0 0 0 0 0
3770.0 0 0 0 0 0 0 0 0 0 3
3810.0 0 0 0 2 0 0 0 0 0 1
3850.0 4 11 1 0 10 11 4 3 5 7
3890.0 0 0 2 2 5 0 0 0 0 0
3930.0 0 0 0 0 4 0 1 0 0 12
##END=
