##TITLE=o-Cresol, 4-methylthio-,
##JCAMP-DX=4.24
##DATA TYPE=INFRARED SPECTRUM
##ORIGIN=Sadtler Research Labs Under US-EPA Contract
##OWNER=NIST Standard Reference Data Program
##CAS REGISTRY NO=3795-76-4
##MOLFORM=C 8 H 10 O S
##XUNITS=1/CM
##YUNITS=ABSORBANCE
##XFACTOR=1.0
##YFACTOR=0.000082404
##DELTAX=4.0
##FIRSTX=450.0
##LASTX=3966.0
##FIRSTY=0.006098
##MAXX=3966
##MINX=450
##MAXY=0.82404
##MINY=0
##NPOINTS=880
##XYDATA=(X++(Y..Y))
450.0 74 130 192 223 118 148 158 126 171 92
490.0 149 180 113 260 251 176 173 212 181 121
530.0 176 190 240 375 444 742 944 1076 1275 1183
570.0 942 699 535 399 264 228 142 172 161 143
610.0 141 124 122 120 130 153 198 330 610 955
650.0 1054 968 796 391 156 112 75 43 15 18
690.0 56 82 112 139 110 149 138 124 136 130
730.0 160 166 200 232 353 642 944 1261 1413 1109
770.0 726 423 408 522 732 1104 1430 1960 2399 2407
810.0 2315 2208 1951 1574 1132 833 565 408 311 258
850.0 276 305 392 511 611 791 891 960 948 860
890.0 738 601 482 343 239 229 176 187 197 204
930.0 247 260 301 350 379 460 543 694 999 1233
970.0 1338 1243 1066 859 774 762 704 619 516 386
1010.0 340 287 281 280 261 295 281 285 290 280
1050.0 289 292 323 343 387 471 568 772 1104 1483
1090.0 1821 2058 2334 2700 3323 4139 4657 4591 4025 3161
1130.0 2240 1679 1610 1690 1915 2361 3182 4679 5988 6333
1170.0 5977 4633 3009 2229 2170 2498 3291 4604 6338 7643
1210.0 7873 7433 5619 3744 2597 2078 1908 2065 2580 3673
1250.0 5338 6846 7514 7296 5938 4045 2760 1953 1363 1111
1290.0 1096 1192 1499 2071 2805 3468 3776 3648 2969 2129
1330.0 1401 895 699 567 463 493 438 490 508 460
1370.0 524 557 669 863 1082 1512 1850 2031 1993 1750
1410.0 1444 1160 1207 1177 1271 1470 1673 1960 2242 2294
1450.0 2316 2181 1948 1862 1904 2316 3120 4595 6637 8706
1490.0 10000 9984 8711 6238 4614 2588 1662 1148 798 714
1530.0 659 569 613 566 662 644 658 755 716 870
1570.0 1068 1187 1384 1503 1531 1536 1472 1410 1278 1113
1610.0 885 718 530 429 401 274 316 280 232 262
1650.0 242 185 201 156 192 105 167 115 199 117
1690.0 116 124 153 136 180 190 219 237 197 191
1730.0 220 195 196 188 244 241 209 196 170 175
1770.0 155 128 123 128 115 97 111 84 134 70
1810.0 91 90 86 98 87 114 107 139 145 172
1850.0 168 153 167 155 157 174 139 143 132 126
1890.0 110 101 85 77 95 92 76 62 52 66
1930.0 46 39 38 40 34 32 43 49 35 62
1970.0 53 35 46 55 50 58 50 55 69 99
2010.0 104 133 138 129 104 75 60 44 53 48
2050.0 30 25 31 23 30 25 15 12 32 16
2090.0 30 18 16 22 20 14 9 12 13 23
2130.0 31 23 43 49 55 54 41 36 24 27
2170.0 22 20 17 3 9 15 15 21 18 13
2210.0 14 14 32 26 24 31 33 50 66 73
2250.0 83 72 77 71 58 69 66 63 43 56
2290.0 50 50 66 38 27 45 41 39 34 39
2330.0 87 33 45 30 23 58 72 78 79 60
2370.0 91 59 106 75 63 76 79 89 85 82
2410.0 83 112 121 99 94 94 87 72 83 55
2450.0 74 87 81 87 103 93 103 118 112 103
2490.0 91 90 117 122 110 112 108 94 84 73
2530.0 70 46 51 46 39 42 49 39 38 40
2570.0 50 49 52 48 51 54 59 63 59 62
2610.0 76 64 70 67 64 58 54 50 46 48
2650.0 51 43 45 45 40 44 44 49 37 39
2690.0 49 46 49 57 56 65 59 66 63 72
2730.0 72 86 102 128 139 141 136 126 112 87
2770.0 80 85 73 76 82 87 87 126 129 133
2810.0 154 165 211 256 305 358 436 523 630 721
2850.0 769 810 841 905 983 1084 1152 1204 1213 1181
2890.0 1137 1101 1112 1189 1310 1486 1743 2100 2652 3389
2930.0 3860 3883 3674 2995 2355 1935 1634 1430 1344 1298
2970.0 1286 1318 1406 1514 1637 1781 1824 1741 1579 1401
3010.0 1312 1354 1462 1501 1484 1407 1245 1144 1086 1031
3050.0 1011 969 944 917 877 825 762 688 617 554
3090.0 508 470 447 416 370 333 289 243 197 178
3130.0 152 144 131 128 109 99 90 86 80 74
3170.0 79 65 72 74 69 70 68 69 61 47
3210.0 60 59 59 62 54 55 54 50 63 62
3250.0 55 57 54 57 50 66 54 55 59 62
3290.0 62 58 63 69 69 69 77 74 86 85
3330.0 83 100 97 106 121 118 126 110 120 118
3370.0 125 122 122 120 119 122 121 111 117 115
3410.0 125 124 133 123 148 162 144 153 152 134
3450.0 134 133 124 117 106 103 100 104 95 81
3490.0 97 94 66 73 66 76 61 66 73 46
3530.0 68 75 71 68 45 69 94 47 84 17
3570.0 33 87 71 90 54 46 87 65 125 116
3610.0 100 135 166 333 428 629 1176 1892 3155 4779
3650.0 6274 6248 5704 4292 2144 957 436 239 224 164
3690.0 60 96 163 115 116 59 14 107 85 63
3730.0 109 9 24 90 0 3 17 78 75 95
3770.0 75 108 137 106 116 153 121 114 54 100
3810.0 121 143 41 47 101 111 54 61 44 127
3850.0 99 8 74 119 49 47 90 92 79 100
3890.0 97 110 100 41 70 185 141 95 90 145
3930.0 98 93 121 148 107 49 144 162 110 137
##END=
