##TITLE=Sulfide, m-nitrophenyl phenyl,
##JCAMP-DX=4.24
##DATA TYPE=INFRARED SPECTRUM
##ORIGIN=Sadtler Research Labs Under US-EPA Contract
##OWNER=NIST Standard Reference Data Program
##CAS REGISTRY NO=37984-02-4
##MOLFORM=C 12 H 9 N O 2 S
##XUNITS=1/CM
##YUNITS=ABSORBANCE
##XFACTOR=1.0
##YFACTOR=0.000094086
##DELTAX=4.0
##FIRSTX=450.0
##LASTX=3966.0
##FIRSTY=0.015618
##MAXX=3966
##MINX=450
##MAXY=0.94086
##MINY=0
##NPOINTS=880
##XYDATA=(X++(Y..Y))
450.0 166 164 161 166 174 196 199 160 162 144
490.0 151 161 163 198 224 241 250 228 252 210
530.0 202 207 209 158 119 91 65 60 49 67
570.0 49 60 46 33 32 31 44 29 24 26
610.0 44 28 58 33 43 67 96 110 131 213
650.0 271 415 471 646 750 1003 1070 1018 1155 1454
690.0 1797 1677 1418 1247 1017 819 752 944 1348 2001
730.0 2634 2601 2434 2819 3549 4042 3218 1787 797 468
770.0 343 306 288 300 372 516 715 819 682 447
810.0 257 127 68 32 21 19 17 29 33 55
850.0 69 102 161 277 508 790 952 803 563 407
890.0 327 284 259 246 244 241 227 197 150 107
930.0 71 50 33 14 5 13 8 11 20 21
970.0 25 28 35 37 45 53 98 188 229 192
1010.0 163 180 329 578 653 439 189 90 87 106
1050.0 157 237 374 512 597 571 493 449 460 499
1090.0 503 457 377 298 240 224 272 405 597 696
1130.0 604 410 278 225 204 177 152 132 129 141
1170.0 149 159 155 136 96 60 49 51 53 51
1210.0 52 55 55 58 66 75 87 98 113 139
1250.0 177 240 332 445 570 665 639 538 471 479
1290.0 513 515 474 416 372 360 370 407 478 605
1330.0 835 1268 2143 3701 6115 8160 8097 5925 3147 1510
1370.0 810 512 375 297 293 294 337 366 333 289
1410.0 278 275 367 365 384 411 517 683 722 645
1450.0 620 690 925 1233 1486 1612 1720 1636 1353 1113
1490.0 1018 1055 1189 1221 1231 1239 1274 1526 1996 2649
1530.0 3423 4500 6214 8665 10000 8755 5534 3207 2023 1726
1570.0 1722 1767 1690 1608 1441 1240 977 777 623 492
1610.0 398 305 267 184 179 125 148 155 139 154
1650.0 179 172 122 89 74 64 69 23 68 69
1690.0 49 36 89 83 82 64 90 124 72 48
1730.0 60 96 50 57 59 74 52 46 50 40
1770.0 77 82 74 82 100 113 138 130 135 92
1810.0 80 72 54 55 49 57 38 32 40 58
1850.0 44 38 53 58 81 103 97 102 111 112
1890.0 114 102 80 63 47 39 34 36 42 40
1930.0 52 74 96 126 138 130 126 110 97 85
1970.0 63 38 27 19 13 22 19 15 8 10
2010.0 8 10 10 8 5 3 0 2 4 0
2050.0 3 1 3 4 8 4 4 7 7 6
2090.0 8 8 4 4 2 0 3 1 2 1
2130.0 1 1 3 1 0 2 4 8 5 6
2170.0 6 6 5 8 9 7 5 8 11 5
2210.0 12 8 12 10 13 11 9 9 11 13
2250.0 14 15 13 13 13 13 14 13 21 22
2290.0 22 26 31 36 37 48 51 46 57 52
2330.0 41 39 47 38 53 45 45 30 2 0
2370.0 14 17 31 30 28 20 25 19 26 28
2410.0 28 32 32 28 27 18 21 22 20 20
2450.0 21 21 25 25 33 33 37 32 31 24
2490.0 19 15 18 17 12 14 18 19 15 16
2530.0 21 26 24 23 31 24 29 28 34 34
2570.0 33 36 33 33 30 31 28 27 29 33
2610.0 30 28 27 28 24 24 22 19 19 24
2650.0 25 24 26 29 35 38 40 44 45 55
2690.0 60 67 68 62 55 39 37 35 38 34
2730.0 38 33 34 34 31 33 28 27 26 33
2770.0 29 28 28 27 24 25 28 33 31 31
2810.0 38 37 41 46 49 51 53 62 67 77
2850.0 77 79 86 97 103 110 122 139 161 168
2890.0 163 152 126 99 87 83 88 88 87 90
2930.0 86 75 72 67 61 67 54 54 58 56
2970.0 58 58 57 63 72 84 91 109 125 144
3010.0 171 193 217 239 254 266 253 234 225 238
3050.0 272 333 447 632 941 1300 1504 1471 1329 1141
3090.0 893 640 421 268 178 134 110 97 79 69
3130.0 63 59 53 66 62 70 61 56 52 48
3170.0 51 48 45 48 42 39 33 39 32 29
3210.0 23 23 33 26 23 23 26 20 21 15
3250.0 18 25 17 25 27 23 25 22 20 27
3290.0 29 29 20 18 17 13 24 25 19 18
3330.0 18 20 26 24 17 22 10 20 18 25
3370.0 22 26 17 20 15 21 22 24 26 21
3410.0 38 22 16 12 24 18 24 19 19 23
3450.0 22 21 21 26 25 22 18 25 31 19
3490.0 20 17 30 14 22 22 24 19 23 23
3530.0 21 10 22 22 31 26 23 15 16 27
3570.0 26 23 27 23 31 15 25 10 24 16
3610.0 29 10 17 27 17 34 23 16 38 18
3650.0 27 30 13 20 21 21 20 34 17 35
3690.0 36 49 37 34 24 44 14 36 31 21
3730.0 34 17 49 16 53 24 47 35 36 38
3770.0 37 18 27 23 32 32 21 41 22 54
3810.0 4 21 36 24 15 10 27 44 22 12
3850.0 25 28 46 30 43 20 27 11 14 40
3890.0 27 10 11 40 34 15 30 38 42 39
3930.0 25 0 5 14 24 34 42 29 24 30
##END=
