##TITLE=2,5-Dimethylcyclohexanol
##JCAMP-DX=4.24
##DATA TYPE=INFRARED SPECTRUM
##ORIGIN=Sadtler Research Labs Under US-EPA Contract
##OWNER=NIST Standard Reference Data Program
##CAS REGISTRY NO=3809-32-3
##MOLFORM=C 8 H 16 O
##XUNITS=1/CM
##YUNITS=ABSORBANCE
##XFACTOR=1.0
##YFACTOR=0.000149619
##DELTAX=4.0
##FIRSTX=450.0
##LASTX=3966.0
##FIRSTY=0.000000
##MAXX=3966
##MINX=450
##MAXY=1.49619
##MINY=0
##NPOINTS=880
##XYDATA=(X++(Y..Y))
450.0 0 237 310 317 293 323 284 303 197 342
490.0 299 182 240 248 317 261 333 297 313 290
530.0 315 302 281 284 279 336 320 336 334 336
570.0 297 285 273 283 295 258 266 280 269 258
610.0 282 280 292 317 308 274 258 298 285 293
650.0 278 297 301 288 280 262 286 266 289 270
690.0 291 287 294 289 286 247 247 328 282 258
730.0 250 267 274 270 286 300 304 315 315 311
770.0 300 309 264 329 337 332 280 303 287 311
810.0 294 305 325 358 378 408 433 417 408 382
850.0 366 326 326 328 318 319 318 331 334 374
890.0 395 412 427 438 444 429 456 469 505 530
930.0 571 591 598 577 554 513 481 481 505 547
970.0 592 636 699 765 845 921 1030 1107 1191 1241
1010.0 1325 1440 1666 2013 2407 2742 2998 3089 2823 2443
1050.0 1959 1494 1158 962 846 777 764 763 799 866
1090.0 975 1074 1132 1105 1041 945 835 757 713 705
1130.0 700 709 724 724 709 677 655 626 620 608
1170.0 614 622 635 644 644 660 681 714 753 792
1210.0 817 839 838 820 800 781 777 783 808 830
1250.0 849 851 837 799 760 727 700 691 681 681
1290.0 666 658 643 630 617 600 586 574 570 573
1330.0 588 608 640 671 699 726 756 806 873 967
1370.0 1076 1187 1296 1385 1363 1259 1118 947 778 651
1410.0 555 493 451 442 452 500 575 704 871 1078
1450.0 1301 1462 1584 1590 1514 1355 1110 882 691 529
1490.0 427 352 313 291 275 269 259 258 246 248
1530.0 240 242 228 228 233 236 234 225 225 228
1570.0 228 233 227 234 235 241 237 240 239 239
1610.0 236 232 225 229 227 225 222 216 221 215
1650.0 219 211 218 224 219 219 216 214 214 206
1690.0 209 210 205 201 205 205 211 205 214 214
1730.0 211 211 206 208 203 208 202 205 199 205
1770.0 204 199 201 204 204 198 198 196 199 199
1810.0 194 195 195 196 194 195 195 199 193 195
1850.0 193 193 194 195 192 191 191 190 188 190
1890.0 190 187 188 188 187 190 188 189 188 186
1930.0 188 190 190 190 191 191 193 191 191 189
1970.0 194 191 190 189 186 187 184 186 185 182
2010.0 181 183 187 186 187 185 190 189 189 190
2050.0 193 193 192 194 201 207 204 203 197 190
2090.0 185 178 177 180 183 184 187 186 187 188
2130.0 186 188 186 190 185 187 187 183 182 185
2170.0 184 183 185 185 187 183 184 184 184 186
2210.0 185 187 185 187 181 181 183 183 183 185
2250.0 183 185 187 184 185 186 189 189 189 191
2290.0 193 193 194 195 187 192 186 185 182 180
2330.0 177 177 180 176 186 187 177 177 177 181
2370.0 188 201 198 203 205 204 202 202 205 203
2410.0 202 199 199 199 198 198 198 197 196 197
2450.0 198 201 198 201 200 199 199 198 199 197
2490.0 194 194 197 195 195 196 201 199 199 201
2530.0 201 203 203 204 202 204 209 214 219 219
2570.0 224 229 238 238 242 247 253 255 258 267
2610.0 270 270 276 282 287 294 299 306 309 302
2650.0 302 298 301 302 308 319 328 329 327 322
2690.0 316 315 309 310 306 308 314 320 327 337
2730.0 352 359 363 362 358 348 345 345 342 343
2770.0 345 349 350 360 368 380 391 402 416 431
2810.0 444 464 488 523 572 633 730 880 1118 1476
2850.0 1942 2472 2970 3461 3782 4122 4453 4519 4484 4327
2890.0 4086 3886 3798 3979 4400 5022 5930 7101 8248 9340
2930.0 10000 9247 8457 7241 6031 5276 5046 5514 5788 5274
2970.0 4807 4051 3044 2225 1628 1187 883 672 517 422
3010.0 361 332 307 301 291 287 289 287 291 289
3050.0 291 290 296 298 299 298 298 297 294 297
3090.0 288 284 282 280 279 278 277 272 270 264
3130.0 258 252 249 249 241 247 242 249 241 251
3170.0 243 246 240 230 224 220 219 213 205 200
3210.0 194 188 184 187 182 183 194 190 189 190
3250.0 189 181 184 181 185 189 189 199 203 191
3290.0 205 201 192 205 204 205 198 205 199 198
3330.0 195 202 209 206 198 197 205 205 211 213
3370.0 219 203 204 194 193 190 198 197 201 199
3410.0 200 205 197 200 203 204 196 207 205 213
3450.0 218 209 210 210 212 209 203 218 214 206
3490.0 206 203 214 205 208 203 207 199 203 203
3530.0 207 209 205 201 212 201 203 201 198 208
3570.0 196 195 212 204 204 220 222 210 194 208
3610.0 215 226 242 247 269 303 355 392 504 633
3650.0 734 775 761 708 604 462 357 287 252 227
3690.0 208 207 205 190 198 198 194 197 200 201
3730.0 204 184 206 197 211 203 199 199 203 190
3770.0 196 198 220 221 219 230 226 213 196 216
3810.0 216 215 212 223 229 235 221 219 208 230
3850.0 222 226 208 225 234 236 220 226 225 228
3890.0 245 200 223 229 216 244 221 212 213 207
3930.0 232 233 201 190 187 177 177 180 214 211
##END=
