##TITLE=Acetic acid, trifluoro-, ethyl ester
##JCAMP-DX=4.24
##DATA TYPE=INFRARED SPECTRUM
##ORIGIN=Sadtler Research Labs Under US-EPA Contract
##OWNER=NIST Standard Reference Data Program
##CAS REGISTRY NO=383-63-1
##MOLFORM=C 4 H 5 F 3 O 2
##XUNITS=1/CM
##YUNITS=ABSORBANCE
##XFACTOR=1.0
##YFACTOR=0.000057080
##DELTAX=4.0
##FIRSTX=450.0
##LASTX=3966.0
##FIRSTY=0.005765
##MAXX=3966
##MINX=450
##MAXY=0.5708
##MINY=0
##NPOINTS=880
##XYDATA=(X++(Y..Y))
450.0 101 107 82 95 92 112 131 96 87 101
490.0 115 104 70 74 150 139 208 258 232 250
530.0 283 275 181 178 145 192 194 154 164 130
570.0 218 317 225 235 250 280 288 232 278 217
610.0 233 191 220 172 230 225 243 214 141 241
650.0 206 343 214 263 213 223 395 248 334 178
690.0 206 244 272 306 215 267 219 456 671 966
730.0 1038 972 998 683 394 194 374 309 428 425
770.0 465 568 616 640 611 530 434 437 350 394
810.0 353 286 265 273 307 333 387 384 387 482
850.0 579 704 766 740 659 526 418 331 296 258
890.0 271 225 246 223 198 204 213 195 192 207
930.0 222 205 212 212 199 246 210 227 231 221
970.0 223 244 236 261 250 282 353 416 511 581
1010.0 666 728 771 717 660 528 468 404 350 347
1050.0 338 345 310 328 296 320 306 358 392 433
1090.0 533 594 715 907 1078 1267 1461 1685 1950 2506
1130.0 3455 4935 6596 8114 9480 10000 9810 8825 8074 7690
1170.0 7511 7607 8043 8674 9100 8440 7241 5828 4687 4040
1210.0 3900 4202 5016 6078 7188 7668 7167 6448 5266 3913
1250.0 2602 1753 1229 921 727 647 570 531 446 452
1290.0 433 408 476 504 503 518 542 611 700 816
1330.0 980 1210 1432 1626 1692 1716 1595 1310 1057 880
1370.0 880 916 992 1005 1028 944 822 663 571 515
1410.0 434 371 406 327 318 354 293 380 340 337
1450.0 367 388 504 355 445 390 448 408 330 323
1490.0 320 269 270 244 296 292 220 261 274 240
1530.0 211 230 217 340 212 222 247 356 302 221
1570.0 251 180 236 170 132 131 151 127 115 147
1610.0 130 123 209 144 176 149 137 158 136 216
1650.0 198 346 109 129 162 208 195 203 207 288
1690.0 211 186 249 298 193 193 211 279 226 210
1730.0 264 341 301 339 379 397 441 471 542 632
1770.0 776 1027 1377 1931 2752 3768 4761 5355 5473 5274
1810.0 4558 3318 2245 1394 964 665 457 401 321 280
1850.0 196 177 159 149 147 192 122 106 135 126
1890.0 108 156 102 121 101 126 100 134 144 106
1930.0 118 106 113 95 107 105 106 125 138 104
1970.0 95 103 87 93 100 115 125 110 94 98
2010.0 100 88 125 91 80 98 85 93 83 72
2050.0 97 84 117 85 85 85 85 85 84 84
2090.0 93 90 74 83 97 80 83 56 81 74
2130.0 88 79 89 78 79 64 71 74 68 65
2170.0 77 74 76 75 67 75 75 74 80 83
2210.0 75 81 83 72 80 79 95 71 69 69
2250.0 77 77 76 79 87 87 82 71 82 89
2290.0 84 92 76 102 118 109 93 122 109 104
2330.0 124 88 88 77 129 130 139 139 147 75
2370.0 120 117 103 95 93 108 116 115 115 125
2410.0 115 124 118 132 115 126 127 116 110 136
2450.0 127 118 127 136 129 135 130 141 133 142
2490.0 140 140 150 148 148 147 148 148 156 159
2530.0 148 147 155 160 144 149 149 149 143 152
2570.0 152 141 153 143 142 148 155 145 152 150
2610.0 139 136 146 129 154 146 154 146 158 141
2650.0 151 166 162 158 164 167 166 157 157 160
2690.0 150 152 152 150 160 160 160 150 161 160
2730.0 160 171 161 167 169 162 160 176 182 172
2770.0 161 164 172 172 172 180 184 188 198 199
2810.0 188 195 195 178 184 192 176 201 192 205
2850.0 204 201 205 208 206 229 238 249 272 288
2890.0 280 298 292 297 314 310 320 333 364 346
2930.0 350 359 400 436 472 491 481 487 470 448
2970.0 454 491 550 642 813 902 1002 998 946 812
3010.0 681 597 526 464 401 355 306 261 228 213
3050.0 214 196 197 196 189 164 181 173 179 167
3090.0 158 168 167 182 175 166 157 149 156 148
3130.0 176 158 160 160 168 166 160 170 161 168
3170.0 178 154 154 162 152 157 158 155 144 138
3210.0 160 165 146 139 138 119 120 140 134 136
3250.0 128 122 122 132 124 124 124 115 131 143
3290.0 140 115 120 119 126 125 111 126 135 127
3330.0 110 118 117 111 96 109 109 107 116 124
3370.0 112 113 104 86 96 113 104 116 95 83
3410.0 76 99 94 74 109 89 89 98 97 83
3450.0 76 98 80 96 112 98 73 74 69 76
3490.0 84 76 95 95 76 60 74 72 93 80
3530.0 71 76 95 72 97 95 75 86 84 131
3570.0 142 138 141 129 154 178 143 143 66 103
3610.0 79 109 113 122 97 155 107 89 76 124
3650.0 205 145 145 127 141 180 191 218 168 174
3690.0 214 168 200 199 209 253 266 237 264 269
3730.0 288 336 354 327 418 402 396 374 382 376
3770.0 378 383 379 425 432 449 472 498 527 522
3810.0 516 540 575 566 551 561 589 620 616 608
3850.0 616 678 645 628 630 664 655 637 656 654
3890.0 645 661 679 682 678 652 642 641 632 642
3930.0 641 658 639 646 657 729 0 54 57 57
##END=
