##TITLE=Succinimide, N-(p-chloroanilinomethyl)-,
##JCAMP-DX=4.24
##DATA TYPE=INFRARED SPECTRUM
##ORIGIN=Sadtler Research Labs Under US-EPA Contract
##OWNER=NIST Standard Reference Data Program
##CAS REGISTRY NO=38359-09-0
##MOLFORM=C 11 H 11 Cl N 2 O 2
##XUNITS=1/CM
##YUNITS=ABSORBANCE
##XFACTOR=1.0
##YFACTOR=0.000060376
##DELTAX=4.0
##FIRSTX=450.0
##LASTX=3966.0
##FIRSTY=0.007004
##MAXX=3966
##MINX=450
##MAXY=0.60376
##MINY=0
##NPOINTS=880
##XYDATA=(X++(Y..Y))
450.0 116 107 71 0 75 147 140 133 156 177
490.0 160 191 236 211 228 200 171 195 204 175
530.0 249 183 359 286 356 291 325 193 212 180
570.0 144 220 203 290 249 317 434 514 562 679
610.0 759 945 1117 1346 1615 1849 2037 1964 1949 1953
650.0 1733 1598 1429 1212 1068 782 762 634 679 569
690.0 493 390 354 261 272 390 256 216 123 49
730.0 151 67 60 79 194 223 173 170 81 180
770.0 124 62 150 179 263 272 255 305 425 497
810.0 607 740 846 802 708 749 742 621 676 627
850.0 435 354 277 221 241 202 296 364 483 468
890.0 526 545 559 486 386 272 242 211 186 174
930.0 143 147 138 96 85 74 79 78 99 73
970.0 71 82 106 127 126 144 135 194 249 340
1010.0 376 369 338 263 168 163 191 195 198 215
1050.0 207 217 224 222 252 255 239 365 478 759
1090.0 1124 1281 1253 1176 949 670 633 825 964 1273
1130.0 1568 1788 2135 2659 3039 3047 2897 2790 2389 2158
1170.0 1621 1086 754 663 570 568 553 551 579 624
1210.0 715 790 818 814 732 712 699 698 653 628
1250.0 621 654 699 807 916 1079 1214 1287 1326 1300
1290.0 1177 1057 990 965 964 936 1026 1243 1575 1869
1330.0 2043 2156 2189 1983 1810 1499 1115 802 594 464
1370.0 388 325 270 252 213 230 230 224 220 211
1410.0 194 190 176 216 249 296 313 310 245 285
1450.0 328 329 311 274 310 363 519 814 1269 1762
1490.0 2213 2271 2040 1707 1220 597 258 150 144 134
1530.0 126 137 117 117 67 72 68 63 68 53
1570.0 43 65 93 104 133 140 183 214 222 224
1610.0 262 372 527 629 727 763 696 619 521 443
1650.0 376 347 318 325 310 315 337 375 419 498
1690.0 603 763 1021 1335 1574 1810 1904 1954 1919 1928
1730.0 1977 2152 2399 2690 3200 3967 4945 5954 7297 8727
1770.0 9750 10000 9519 8903 8147 7357 5327 3088 1780 1293
1810.0 1114 1031 932 915 814 669 498 380 269 215
1850.0 170 156 129 136 127 131 118 118 115 105
1890.0 101 98 86 71 70 60 60 68 66 60
1930.0 61 51 65 66 72 61 60 44 43 34
1970.0 34 25 26 26 26 23 21 13 18 13
2010.0 16 10 8 1 8 1 8 15 15 18
2050.0 27 39 46 57 46 39 22 14 7 5
2090.0 0 7 8 5 5 6 6 4 4 5
2130.0 4 11 11 3 5 10 14 7 13 18
2170.0 18 18 25 17 16 17 17 16 16 16
2210.0 16 26 15 20 25 39 30 30 23 22
2250.0 30 39 39 42 45 56 56 56 56 48
2290.0 41 43 43 51 48 38 32 21 13 8
2330.0 6 11 11 3 11 16 20 32 14 6
2370.0 8 14 22 37 37 24 25 32 31 24
2410.0 32 24 28 25 30 30 30 30 25 29
2450.0 30 29 21 29 36 27 32 36 33 28
2490.0 24 20 20 19 12 11 10 10 10 10
2530.0 9 16 14 18 14 18 15 9 24 17
2570.0 17 8 16 14 16 16 16 16 21 13
2610.0 23 23 23 23 22 22 24 14 14 26
2650.0 30 29 29 28 28 21 21 27 20 19
2690.0 18 13 15 10 5 4 10 11 11 18
2730.0 18 19 18 18 18 8 19 23 21 20
2770.0 19 15 18 18 17 17 16 19 16 17
2810.0 21 30 34 36 50 49 65 66 74 74
2850.0 73 82 90 98 107 100 116 122 143 155
2890.0 155 153 129 126 123 103 104 113 109 91
2930.0 94 112 126 152 177 211 228 237 225 233
2970.0 230 194 162 116 111 140 174 170 144 137
3010.0 136 136 152 237 337 377 409 406 312 235
3050.0 195 136 120 118 118 114 114 118 129 127
3090.0 140 148 145 141 119 85 84 78 43 54
3130.0 44 34 44 43 30 37 34 36 28 11
3170.0 12 20 22 18 27 23 25 8 24 19
3210.0 17 27 18 19 27 34 35 23 34 37
3250.0 30 18 34 26 24 27 42 26 21 15
3290.0 21 22 13 27 10 8 11 20 32 16
3330.0 24 24 22 11 6 17 13 22 27 18
3370.0 16 40 16 16 24 43 64 84 68 102
3410.0 118 133 170 176 192 250 333 434 554 668
3450.0 779 869 823 742 766 758 618 441 299 219
3490.0 168 119 102 88 104 85 87 79 73 88
3530.0 71 78 61 96 101 75 87 83 86 81
3570.0 82 71 82 91 43 52 52 34 22 20
3610.0 42 32 22 21 18 26 15 14 12 33
3650.0 29 17 18 13 17 12 29 38 30 36
3690.0 28 29 16 43 35 25 23 26 35 40
3730.0 15 29 36 22 30 21 24 23 42 31
3770.0 32 28 32 46 42 41 53 42 44 50
3810.0 32 33 53 73 64 71 60 60 53 62
3850.0 54 64 63 80 69 70 69 65 52 52
3890.0 58 59 62 78 62 58 47 54 46 39
3930.0 30 37 40 41 43 46 47 66 66 56
##END=
