##TITLE=Succinimide, N-(p-phenetidinomethyl)-,
##JCAMP-DX=4.24
##DATA TYPE=INFRARED SPECTRUM
##ORIGIN=Sadtler Research Labs Under US-EPA Contract
##OWNER=NIST Standard Reference Data Program
##CAS REGISTRY NO=38359-10-3
##MOLFORM=C 13 H 16 N 2 O 3
##XUNITS=1/CM
##YUNITS=ABSORBANCE
##XFACTOR=1.0
##YFACTOR=0.000144183
##DELTAX=4.0
##FIRSTX=450.0
##LASTX=3966.0
##FIRSTY=0.033162
##MAXX=3966
##MINX=450
##MAXY=1.44183
##MINY=0
##NPOINTS=880
##XYDATA=(X++(Y..Y))
450.0 230 111 18 159 78 84 60 198 104 220
490.0 151 204 206 179 189 213 221 186 218 277
530.0 316 385 375 398 374 404 346 316 258 239
570.0 224 194 182 185 223 319 414 436 475 564
610.0 589 631 707 757 841 1035 1215 1416 1584 1735
650.0 1735 1583 1433 1229 1047 915 750 627 527 505
690.0 420 429 417 406 390 363 342 363 359 375
730.0 425 370 360 354 313 270 272 226 190 183
770.0 166 183 189 161 194 211 198 265 289 328
810.0 293 398 557 667 628 761 825 889 960 929
850.0 832 656 581 426 379 350 400 479 537 595
890.0 674 685 739 719 633 557 519 497 479 418
930.0 370 300 235 190 161 141 142 125 116 114
970.0 118 116 144 172 169 179 195 226 294 334
1010.0 407 450 495 578 711 853 1063 1205 1338 1378
1050.0 1286 1148 949 765 620 505 457 487 506 573
1090.0 652 698 753 745 771 847 974 1113 1300 1511
1130.0 1685 1954 2299 2797 3226 3211 3299 3021 2806 2480
1170.0 1985 1398 1103 903 774 784 811 972 1151 1407
1210.0 1699 2015 2369 2861 3588 4366 5167 5573 5291 4782
1250.0 4017 3081 2282 1795 1553 1452 1454 1548 1675 1744
1290.0 1760 1766 1742 1691 1638 1562 1539 1649 1867 2117
1330.0 2252 2337 2346 2131 1959 1647 1315 1028 824 708
1370.0 618 559 574 604 682 773 861 862 769 668
1410.0 526 425 396 388 427 501 559 561 535 583
1450.0 643 649 560 559 532 606 790 1039 1235 1344
1490.0 1729 2314 3381 4208 4387 3867 2820 1933 1195 788
1530.0 594 519 488 439 442 412 393 337 356 401
1570.0 426 446 484 521 548 583 667 772 882 905
1610.0 855 740 598 516 491 522 543 537 499 425
1650.0 322 215 268 224 246 201 229 214 263 296
1690.0 381 503 638 846 1089 1296 1487 1617 1731 1871
1730.0 1992 2142 2373 2638 3161 3948 4943 5998 7232 8771
1770.0 9813 10000 9772 8924 8096 7389 5264 3043 1821 1301
1810.0 1183 1058 992 940 833 698 517 415 301 223
1850.0 191 168 148 151 137 139 142 137 133 118
1890.0 114 105 97 88 81 80 79 84 91 90
1930.0 96 100 105 103 100 103 88 89 79 78
1970.0 71 68 66 59 53 50 42 38 41 34
2010.0 32 31 33 37 40 54 72 105 128 130
2050.0 116 83 58 48 38 35 33 29 31 25
2090.0 23 16 12 14 11 15 15 19 19 17
2130.0 20 21 22 27 28 33 39 45 56 65
2170.0 78 91 106 121 135 142 125 108 96 88
2210.0 85 86 74 59 38 29 22 16 15 14
2250.0 13 17 18 21 25 30 34 38 42 33
2290.0 32 28 23 27 24 12 19 5 11 5
2330.0 3 3 3 11 5 28 3 4 5 5
2370.0 9 10 27 34 27 28 28 30 32 34
2410.0 35 36 37 38 37 38 39 39 42 43
2450.0 47 49 50 52 55 56 55 50 51 48
2490.0 43 42 35 31 24 23 23 22 25 25
2530.0 30 29 27 28 23 23 21 19 20 18
2570.0 20 18 18 17 18 22 19 18 20 24
2610.0 26 27 25 28 29 28 29 27 26 30
2650.0 27 30 31 32 34 32 32 32 30 24
2690.0 20 19 19 20 23 26 29 30 36 41
2730.0 44 51 50 53 53 55 52 55 58 60
2770.0 63 63 67 73 71 73 81 89 94 99
2810.0 108 113 121 129 140 153 165 179 193 210
2850.0 236 265 295 338 394 464 554 647 718 753
2890.0 752 736 723 718 719 709 701 678 638 615
2930.0 605 636 705 770 817 800 736 691 670 682
2970.0 740 789 854 946 997 1019 993 838 679 572
3010.0 519 505 647 851 896 862 719 467 398 382
3050.0 330 295 246 223 227 225 232 229 220 219
3090.0 213 208 198 192 175 149 126 107 94 81
3130.0 59 59 52 42 43 35 34 32 30 19
3170.0 15 13 17 16 8 5 12 15 15 18
3210.0 15 21 18 20 21 20 27 30 35 34
3250.0 41 51 45 42 42 35 31 20 10 21
3290.0 19 17 13 13 14 15 11 17 17 15
3330.0 9 14 13 14 6 9 7 11 10 9
3370.0 13 3 13 17 17 14 29 29 34 48
3410.0 39 56 74 100 145 211 301 409 539 677
3450.0 782 842 791 726 742 728 572 388 252 171
3490.0 115 80 57 57 53 55 41 47 55 68
3530.0 77 77 78 84 97 94 94 109 91 115
3570.0 104 93 77 87 81 72 65 43 59 42
3610.0 45 46 37 46 41 30 48 26 39 43
3650.0 44 43 32 36 25 60 22 60 34 38
3690.0 43 20 60 31 49 32 32 54 35 57
3730.0 32 38 70 23 54 9 48 30 41 46
3770.0 40 45 31 24 31 37 41 25 26 29
3810.0 20 30 22 27 28 31 18 25 41 20
3850.0 56 0 34 28 53 34 22 44 36 37
3890.0 29 18 33 33 43 17 40 28 40 31
3930.0 50 22 18 56 31 63 44 50 37 60
##END=
