##TITLE=Succinimide, N-(m-bromoanilinomethyl)-,
##JCAMP-DX=4.24
##DATA TYPE=INFRARED SPECTRUM
##ORIGIN=Sadtler Research Labs Under US-EPA Contract
##OWNER=NIST Standard Reference Data Program
##CAS REGISTRY NO=38359-11-4
##MOLFORM=C 11 H 11 Br N 2 O 2
##XUNITS=1/CM
##YUNITS=ABSORBANCE
##XFACTOR=1.0
##YFACTOR=0.000092789
##DELTAX=4.0
##FIRSTX=450.0
##LASTX=3966.0
##FIRSTY=0.011227
##MAXX=3966
##MINX=450
##MAXY=0.92789
##MINY=0
##NPOINTS=880
##XYDATA=(X++(Y..Y))
450.0 121 416 446 582 641 0 434 424 438 600
490.0 432 432 535 642 657 555 510 646 614 694
530.0 628 641 722 672 656 773 802 738 587 581
570.0 528 578 614 582 724 704 777 817 853 938
610.0 1030 1106 1173 1164 1202 1410 1612 1812 2007 2126
650.0 2191 2070 2054 2053 2026 1861 1773 1598 1331 1188
690.0 1072 951 781 757 806 735 605 771 685 558
730.0 731 601 582 569 817 744 748 830 950 1085
770.0 894 881 974 900 856 758 679 771 596 621
810.0 537 670 710 693 845 957 1093 1060 1001 881
850.0 911 855 953 899 984 996 1140 1112 1017 984
890.0 927 971 931 853 763 604 611 598 559 527
930.0 513 497 493 477 468 458 485 440 465 449
970.0 480 494 505 525 622 669 654 666 608 491
1010.0 473 453 421 437 447 428 477 476 455 530
1050.0 514 563 606 704 785 816 760 705 637 614
1090.0 579 607 586 601 677 594 792 973 1191 1438
1130.0 1699 2030 2429 2881 3209 3251 3137 2880 2652 2347
1170.0 1852 1297 953 821 800 868 821 831 833 859
1210.0 910 995 965 974 959 975 973 899 925 908
1250.0 934 908 859 910 908 892 979 1079 1242 1321
1290.0 1333 1345 1297 1273 1272 1291 1380 1635 1877 2186
1330.0 2305 2383 2415 2208 2057 1742 1399 1097 880 758
1370.0 654 583 548 509 505 512 533 543 551 547
1410.0 534 516 515 499 540 604 675 704 680 725
1450.0 791 793 769 762 815 933 1165 1326 1278 1171
1490.0 928 679 541 479 516 499 474 441 434 420
1530.0 433 432 433 451 477 501 547 636 777 897
1570.0 1084 1257 1375 1598 1618 1571 1524 1379 1280 1135
1610.0 1085 1140 1162 1161 1166 1075 931 798 699 597
1650.0 519 491 473 465 485 495 533 569 606 686
1690.0 793 930 1151 1391 1655 1825 1952 2041 1995 2033
1730.0 2072 2238 2531 2779 3333 4091 5015 6070 7237 8820
1770.0 9700 10000 9751 8785 8136 7375 5317 3174 1982 1454
1810.0 1333 1235 1134 1107 987 846 691 565 478 394
1850.0 371 326 303 306 279 287 283 270 274 261
1890.0 263 270 264 272 267 274 271 274 278 270
1930.0 272 264 255 256 247 246 244 233 228 225
1970.0 216 213 208 211 200 203 198 193 199 187
2010.0 186 183 180 184 180 182 184 183 185 182
2050.0 177 184 184 195 193 194 189 174 175 165
2090.0 164 163 162 162 155 155 163 165 166 162
2130.0 159 159 156 161 153 158 159 162 163 167
2170.0 160 162 159 155 162 157 152 153 150 144
2210.0 145 156 157 159 151 150 152 147 148 146
2250.0 149 153 148 153 155 159 154 156 159 153
2290.0 150 151 150 158 158 148 149 136 136 141
2330.0 135 150 128 130 159 164 154 150 158 148
2370.0 128 134 154 145 139 139 131 120 127 122
2410.0 119 119 122 123 126 116 122 120 125 117
2450.0 118 122 116 119 113 113 126 126 124 111
2490.0 112 110 104 103 97 92 86 85 92 91
2530.0 85 84 81 80 90 84 85 83 91 89
2570.0 84 84 82 83 82 74 72 77 79 86
2610.0 78 86 85 83 88 79 78 76 83 76
2650.0 86 81 78 76 82 86 82 75 71 73
2690.0 66 59 48 55 54 47 63 56 60 60
2730.0 53 59 62 66 60 64 69 68 62 61
2770.0 53 60 53 54 70 70 65 74 67 74
2810.0 78 78 76 71 72 79 83 91 94 98
2850.0 102 108 120 118 124 117 122 128 156 159
2890.0 149 151 147 135 138 120 121 117 117 115
2930.0 119 136 160 173 205 224 241 264 251 242
2970.0 235 215 172 158 141 147 182 176 135 139
3010.0 153 168 187 223 286 293 288 295 219 183
3050.0 181 190 207 229 228 244 250 241 230 198
3090.0 178 171 154 128 115 97 101 76 75 87
3130.0 74 77 87 71 82 85 61 65 71 69
3170.0 67 55 64 48 51 56 67 60 62 78
3210.0 57 75 71 62 68 70 66 85 82 76
3250.0 81 67 63 53 73 65 57 66 63 62
3290.0 79 65 74 57 66 68 62 72 61 56
3330.0 64 81 74 79 66 72 81 65 76 59
3370.0 71 75 89 84 80 101 106 136 121 150
3410.0 169 182 228 240 284 328 417 491 575 686
3450.0 785 843 802 748 759 754 594 437 295 251
3490.0 208 164 152 125 127 119 158 129 142 125
3530.0 107 115 120 125 123 112 118 145 132 112
3570.0 130 144 126 130 93 64 100 83 76 74
3610.0 95 99 86 77 89 116 84 102 109 92
3650.0 66 72 87 65 88 45 86 116 122 105
3690.0 95 77 74 104 85 81 91 98 74 128
3730.0 95 78 118 86 74 104 77 136 58 65
3770.0 92 81 109 56 90 96 60 101 100 126
3810.0 115 71 159 72 61 79 116 113 115 145
3850.0 153 100 68 117 94 105 127 70 53 141
3890.0 155 117 76 96 151 64 134 141 159 60
3930.0 101 68 112 235 94 156 91 115 114 167
##END=
