##TITLE=2-Nitro-.alpha.,.alpha.,.alpha.-trifluorotoluene
##JCAMP-DX=4.24
##DATA TYPE=INFRARED SPECTRUM
##ORIGIN=Sadtler Research Labs Under US-EPA Contract
##OWNER=NIST Standard Reference Data Program
##CAS REGISTRY NO=384-22-5
##MOLFORM=C 7 H 4 F 3 N O 2
##XUNITS=1/CM
##YUNITS=ABSORBANCE
##XFACTOR=1.0
##YFACTOR=0.000106879
##DELTAX=4.0
##FIRSTX=450.0
##LASTX=3966.0
##FIRSTY=0.000000
##MAXX=3966
##MINX=450
##MAXY=1.06879
##MINY=0
##NPOINTS=880
##XYDATA=(X++(Y..Y))
450.0 0 227 153 277 173 309 261 141 214 148
490.0 207 234 168 171 165 226 212 215 229 142
530.0 207 198 163 230 173 221 217 198 217 189
570.0 176 179 195 193 218 288 357 382 415 321
610.0 296 200 155 160 144 148 220 397 563 669
650.0 611 403 258 209 154 215 260 325 672 917
690.0 1016 973 726 491 393 429 504 488 441 375
730.0 309 296 276 385 633 811 1249 1561 1415 1276
770.0 1465 1590 1827 1574 1117 735 387 268 228 176
810.0 195 158 162 179 152 200 209 243 368 667
850.0 1042 1206 1170 902 481 259 183 164 163 128
890.0 149 137 131 154 150 163 141 161 162 136
930.0 139 124 136 146 160 201 227 250 249 170
970.0 172 147 135 153 137 144 141 171 165 145
1010.0 152 164 200 287 453 911 1452 1838 2086 2322
1050.0 2372 2383 2226 1649 937 636 500 475 506 523
1090.0 516 473 498 680 944 1280 1581 1699 1643 1537
1130.0 1606 1959 2421 2845 3024 2906 2854 3315 4263 5577
1170.0 7177 8776 9598 10000 9886 8486 6386 4285 2663 1689
1210.0 1218 947 791 659 554 513 462 436 436 428
1250.0 490 571 715 1017 1566 2326 2929 3046 2662 1926
1290.0 1334 1218 1559 2632 4799 7622 9473 9848 8123 5340
1330.0 3228 2048 1470 1415 1677 2224 3223 4360 4962 4926
1370.0 3799 2232 1148 707 504 434 391 365 420 404
1410.0 386 357 293 309 279 310 271 374 567 682
1450.0 828 813 685 552 387 333 297 316 378 377
1490.0 444 453 440 484 402 531 597 655 803 807
1530.0 919 1016 1145 1656 2401 4021 5889 7727 9813 8058
1570.0 5775 3968 2349 1586 1483 1271 1160 1071 956 906
1610.0 831 783 713 634 532 433 360 307 266 271
1650.0 219 216 249 219 231 194 167 190 147 142
1690.0 158 168 157 152 168 175 183 191 190 197
1730.0 181 150 199 169 148 152 152 153 146 164
1770.0 136 136 153 136 147 141 135 144 118 152
1810.0 155 147 167 165 182 210 207 203 160 162
1850.0 150 161 169 164 169 143 142 150 143 141
1890.0 143 145 145 145 156 157 162 164 148 170
1930.0 178 189 219 216 224 207 186 185 183 190
1970.0 199 202 192 175 164 141 132 134 133 129
2010.0 133 134 147 138 132 131 136 139 142 147
2050.0 144 145 144 141 152 142 129 148 150 149
2090.0 150 156 153 140 144 156 139 142 140 143
2130.0 132 134 137 138 127 133 145 143 144 145
2170.0 142 138 149 143 138 136 142 153 134 135
2210.0 137 147 152 155 152 151 152 155 148 155
2250.0 144 145 149 147 147 148 143 152 153 157
2290.0 152 142 146 146 148 145 136 142 148 145
2330.0 152 149 162 150 155 144 145 143 127 148
2370.0 142 125 140 138 144 146 147 152 153 165
2410.0 167 158 157 147 144 146 140 141 145 137
2450.0 142 142 142 148 138 141 139 140 142 145
2490.0 148 147 150 144 147 139 128 134 132 127
2530.0 133 129 119 136 131 132 135 132 138 129
2570.0 132 129 135 139 133 146 137 143 137 134
2610.0 138 145 147 155 146 140 144 144 143 141
2650.0 146 143 147 144 145 141 147 147 144 143
2690.0 152 154 162 171 178 178 177 183 183 170
2730.0 163 156 148 146 144 145 143 144 141 144
2770.0 142 138 138 136 140 143 139 140 145 137
2810.0 142 139 140 143 141 143 145 144 146 145
2850.0 147 148 152 158 160 165 171 170 176 180
2890.0 184 199 219 242 264 286 296 290 261 231
2930.0 206 194 180 178 171 169 167 160 158 149
2970.0 150 147 148 149 144 145 139 142 154 148
3010.0 154 155 159 165 157 159 157 151 163 161
3050.0 171 174 179 183 193 218 256 305 347 362
3090.0 358 330 305 282 252 212 183 161 154 137
3130.0 132 135 136 141 132 138 138 138 134 135
3170.0 143 137 141 142 138 150 139 135 141 141
3210.0 138 134 135 132 136 136 135 140 142 135
3250.0 132 131 130 136 139 128 132 134 134 137
3290.0 134 137 134 131 134 136 135 133 133 134
3330.0 134 137 139 134 126 136 138 133 142 138
3370.0 141 137 136 133 128 136 139 134 138 131
3410.0 138 140 139 138 132 130 133 133 131 145
3450.0 132 133 137 135 133 126 134 133 127 132
3490.0 133 136 138 133 125 132 139 134 141 130
3530.0 133 129 131 133 133 128 132 133 129 138
3570.0 131 131 130 137 131 124 135 125 135 132
3610.0 140 141 125 143 137 140 125 125 128 141
3650.0 123 133 126 143 133 130 125 122 121 122
3690.0 143 120 125 132 136 139 144 121 136 127
3730.0 120 143 119 141 129 140 129 137 131 136
3770.0 132 133 118 136 136 138 133 139 120 145
3810.0 119 133 122 147 127 126 143 127 133 139
3850.0 129 129 133 117 151 145 137 122 135 117
3890.0 141 119 149 154 140 142 153 133 137 129
3930.0 118 141 118 124 140 119 118 142 121 135
##END=
