##TITLE=2-(o-Tolyloxy)-aniline
##JCAMP-DX=4.24
##DATA TYPE=INFRARED SPECTRUM
##ORIGIN=Sadtler Research Labs Under US-EPA Contract
##OWNER=NIST Standard Reference Data Program
##CAS REGISTRY NO=3840-18-4
##MOLFORM=C 13 H 13 N O
##XUNITS=1/CM
##YUNITS=ABSORBANCE
##XFACTOR=1.0
##YFACTOR=0.000045163
##DELTAX=4.0
##FIRSTX=450.0
##LASTX=3966.0
##FIRSTY=0.046969
##MAXX=3966
##MINX=450
##MAXY=0.45163
##MINY=0
##NPOINTS=880
##XYDATA=(X++(Y..Y))
450.0 1040 1123 1444 399 645 407 268 97 662 652
490.0 382 285 464 336 184 648 590 411 266 650
530.0 523 606 71 187 388 316 289 394 579 213
570.0 426 417 166 252 300 120 728 584 212 136
610.0 242 207 441 508 416 580 690 513 608 418
650.0 437 554 511 655 605 709 451 771 773 552
690.0 704 872 900 952 721 794 901 969 1133 1475
730.0 2443 3248 4262 4677 3966 2726 2131 1680 1414 1393
770.0 1278 1312 1217 1139 1135 1140 975 981 754 635
810.0 518 481 523 515 514 400 388 419 398 466
850.0 410 392 426 379 313 440 495 765 1268 1434
890.0 1220 754 422 281 259 288 259 352 394 332
930.0 329 279 176 166 267 198 232 155 213 179
970.0 211 273 201 245 324 306 255 232 191 235
1010.0 228 273 287 350 473 560 642 660 638 657
1050.0 550 382 370 368 323 327 282 277 262 288
1090.0 296 326 412 509 790 1181 1434 1423 1103 854
1130.0 828 1032 1210 1176 1041 926 887 797 708 587
1170.0 655 866 1208 1747 2496 3546 4921 5907 5878 4778
1210.0 3608 3367 4422 6675 9144 10000 8727 6053 3582 2200
1250.0 1630 1470 1563 1881 2353 2705 2660 2330 1881 1602
1290.0 1503 1564 1646 1545 1348 1094 935 922 915 858
1330.0 732 558 454 381 282 237 209 207 191 198
1370.0 185 185 241 300 330 343 283 258 248 206
1410.0 212 212 212 264 296 394 514 758 1011 1172
1450.0 1431 1569 1722 1747 1579 1399 1419 1796 2903 4719
1490.0 6666 7663 7797 6974 6184 4954 3557 2362 1372 897
1530.0 556 476 401 351 344 329 377 406 499 600
1570.0 796 1147 1601 2247 2449 2365 2024 1562 1475 1566
1610.0 1775 2194 2630 3055 2966 2592 1942 1206 876 548
1650.0 424 376 273 291 251 231 217 210 188 183
1690.0 146 161 138 133 139 121 132 100 110 105
1730.0 96 110 103 108 122 114 118 118 121 133
1770.0 146 137 128 130 125 109 101 94 80 84
1810.0 66 79 87 75 81 63 69 68 72 73
1850.0 53 76 100 98 121 117 128 123 118 124
1890.0 133 143 160 158 174 163 150 127 114 124
1930.0 136 144 135 116 98 80 70 72 67 68
1970.0 63 62 74 77 80 63 65 62 60 67
2010.0 63 69 67 59 52 60 54 51 50 60
2050.0 60 64 73 67 71 69 60 57 52 47
2090.0 45 40 45 35 36 28 22 29 24 21
2130.0 23 17 12 12 17 13 12 20 17 20
2170.0 11 11 10 16 10 13 11 15 16 10
2210.0 15 18 10 4 18 19 9 13 7 4
2250.0 5 13 12 12 22 20 25 30 28 39
2290.0 39 45 49 55 55 52 46 40 30 13
2330.0 5 1 1 1 1 13 1 5 1 1
2370.0 1 0 27 51 57 56 56 71 81 88
2410.0 84 79 74 58 57 61 54 60 63 66
2450.0 78 73 71 67 70 64 68 69 58 57
2490.0 54 45 48 36 44 30 36 35 33 37
2530.0 38 40 38 31 33 35 36 38 43 41
2570.0 44 50 49 42 44 55 37 34 45 53
2610.0 53 57 57 57 54 58 45 42 41 27
2650.0 35 43 42 32 25 34 31 26 31 21
2690.0 23 25 26 21 25 40 34 29 23 30
2730.0 37 34 42 43 50 56 56 42 42 30
2770.0 30 31 32 38 38 36 36 42 40 44
2810.0 38 40 56 58 55 56 60 76 86 103
2850.0 120 151 178 209 235 268 272 276 281 262
2890.0 251 261 250 248 248 269 283 320 383 448
2930.0 518 568 590 565 504 432 359 368 386 375
2970.0 343 353 350 371 355 345 307 242 224 207
3010.0 238 296 393 581 810 1075 1277 1352 1334 1219
3050.0 1091 1033 1024 1092 1195 1310 1409 1456 1401 1224
3090.0 989 736 533 397 307 227 187 139 105 83
3130.0 65 61 55 39 46 46 50 35 57 49
3170.0 43 63 61 62 66 63 74 64 63 59
3210.0 68 49 44 50 30 30 52 39 33 36
3250.0 22 33 42 32 28 41 23 21 30 22
3290.0 31 23 30 51 32 31 46 32 32 29
3330.0 37 49 54 39 38 46 52 44 48 53
3370.0 64 60 63 83 92 125 173 248 342 475
3410.0 598 618 530 354 212 145 105 89 78 75
3450.0 87 76 84 108 132 127 162 190 223 308
3490.0 413 525 669 782 785 628 426 262 177 122
3530.0 94 68 61 36 40 33 34 22 44 35
3570.0 36 20 32 20 35 55 61 17 20 36
3610.0 30 26 22 57 41 37 25 27 38 38
3650.0 19 45 2 65 35 68 54 51 31 37
3690.0 38 27 22 56 53 28 47 37 46 47
3730.0 29 62 51 51 37 68 5 63 34 33
3770.0 40 73 46 16 30 29 57 76 33 45
3810.0 1 53 32 85 30 40 41 49 30 74
3850.0 71 70 49 24 65 77 82 52 31 61
3890.0 78 29 57 57 89 12 74 52 33 72
3930.0 54 51 49 45 46 103 112 55 5 56
##END=
