##TITLE=2,4-Pentadienoic acid, 5-phenyl-,
##JCAMP-DX=4.24
##DATA TYPE=INFRARED SPECTRUM
##ORIGIN=Sadtler Research Labs Under US-EPA Contract
##OWNER=NIST Standard Reference Data Program
##CAS REGISTRY NO=38446-98-9
##MOLFORM=C 11 H 10 O 2
##XUNITS=1/CM
##YUNITS=ABSORBANCE
##XFACTOR=1.0
##YFACTOR=0.000074106
##DELTAX=4.0
##FIRSTX=450.0
##LASTX=3966.0
##FIRSTY=0.007411
##MAXX=3966
##MINX=450
##MAXY=0.74106
##MINY=0
##NPOINTS=880
##XYDATA=(X++(Y..Y))
450.0 100 49 107 213 267 393 638 755 689 476
490.0 412 448 453 546 507 486 524 500 499 473
530.0 483 472 535 607 720 816 927 962 939 900
570.0 870 820 752 613 497 379 337 266 262 267
610.0 371 577 762 747 644 538 517 506 539 521
650.0 551 623 749 726 702 589 580 642 796 1032
690.0 1193 1182 1221 1271 1362 1364 1338 1213 1044 855
730.0 699 595 591 626 728 785 741 514 332 221
770.0 176 173 196 183 153 155 165 160 156 161
810.0 177 214 256 301 358 445 528 552 538 456
850.0 381 320 307 321 367 426 478 528 502 449
890.0 437 417 422 442 452 453 448 427 429 426
930.0 434 466 500 522 542 546 541 555 565 595
970.0 655 783 971 1235 1554 1893 2135 2042 1644 1220
1010.0 856 613 499 471 503 491 439 404 406 427
1050.0 442 493 521 592 656 748 820 960 1210 1676
1090.0 2524 3947 6489 9034 9150 6320 3413 2720 2691 2614
1130.0 2542 2405 2397 2442 2656 3026 3346 3555 3431 2938
1170.0 2196 1516 1169 990 864 787 754 794 970 1254
1210.0 1329 1194 1002 946 975 1014 1083 1143 1226 1293
1250.0 1413 1522 1534 1414 1241 1120 1068 1080 1122 1107
1290.0 954 821 809 842 807 717 647 630 679 725
1330.0 776 812 870 1048 1393 1810 2243 2646 2859 2642
1370.0 1987 1311 897 708 600 542 508 467 456 417
1410.0 393 345 281 250 208 181 155 185 215 269
1450.0 246 175 128 99 68 52 24 38 62 75
1490.0 101 190 216 174 98 45 72 79 89 121
1530.0 126 142 140 133 161 200 198 195 237 265
1570.0 306 337 370 397 462 536 626 736 960 1277
1610.0 1641 2006 2374 2864 3726 4743 5109 3859 1956 812
1650.0 540 430 438 457 501 551 616 730 787 876
1690.0 948 999 986 1011 1043 1109 1155 1192 1293 1420
1730.0 1661 2040 2808 4157 6609 8988 10000 8242 5828 3858
1770.0 2625 1879 1460 1228 1115 1003 865 702 533 406
1810.0 324 278 237 184 136 95 84 76 66 50
1850.0 64 83 99 117 138 141 154 141 123 119
1890.0 103 77 55 42 32 28 21 23 22 31
1930.0 40 43 49 49 50 57 66 61 49 18
1970.0 9 4 6 2 5 3 0 5 3 5
2010.0 8 14 17 22 32 42 49 52 50 40
2050.0 34 27 24 19 15 18 19 22 22 24
2090.0 22 23 20 17 16 17 17 23 16 16
2130.0 19 21 25 26 26 30 25 26 26 29
2170.0 33 37 37 40 41 48 49 50 53 53
2210.0 49 50 55 59 60 59 61 66 67 68
2250.0 71 74 74 70 75 78 81 89 95 105
2290.0 118 130 148 159 172 186 184 177 170 147
2330.0 140 123 122 128 155 178 175 148 137 130
2370.0 119 123 142 152 138 117 104 101 103 105
2410.0 107 111 110 114 116 114 120 124 122 125
2450.0 126 126 130 135 134 128 133 132 139 138
2490.0 134 136 141 141 143 144 148 147 145 143
2530.0 147 148 151 152 151 153 160 157 160 155
2570.0 160 156 155 154 156 156 155 152 153 154
2610.0 154 157 156 157 154 157 156 155 156 159
2650.0 158 157 155 157 156 156 158 162 164 162
2690.0 166 170 165 168 171 168 175 180 179 189
2730.0 200 196 197 191 189 183 184 187 188 188
2770.0 193 196 202 199 203 212 215 213 217 211
2810.0 210 218 217 215 215 214 213 217 216 221
2850.0 219 228 229 230 232 230 236 240 245 250
2890.0 250 255 261 254 262 261 257 261 265 267
2930.0 264 264 265 266 269 271 272 280 282 287
2970.0 298 296 309 312 312 333 353 378 412 455
3010.0 496 540 611 718 881 1089 1261 1262 1083 869
3050.0 762 719 731 810 1033 1251 1280 1068 862 777
3090.0 739 689 624 559 510 447 389 346 310 297
3130.0 281 271 261 266 267 270 264 271 257 247
3170.0 245 250 238 237 243 242 237 242 231 231
3210.0 237 233 226 232 230 224 224 222 221 219
3250.0 210 209 215 217 215 207 209 203 209 201
3290.0 200 195 192 191 193 182 194 184 182 169
3330.0 175 181 184 182 165 170 175 164 178 180
3370.0 169 172 165 169 170 168 162 150 143 143
3410.0 145 137 138 135 131 133 138 128 128 124
3450.0 131 128 123 132 128 131 141 144 159 150
3490.0 150 163 163 136 130 121 119 114 120 125
3530.0 126 131 120 122 95 120 114 119 141 158
3570.0 273 625 1812 3466 4134 2972 1363 497 211 132
3610.0 112 76 78 81 97 95 108 116 121 91
3650.0 65 82 81 78 79 80 57 58 62 85
3690.0 63 65 86 60 79 72 48 77 59 58
3730.0 60 54 47 72 81 49 57 56 67 81
3770.0 67 53 65 56 64 63 62 71 59 68
3810.0 60 70 52 66 70 61 61 72 50 69
3850.0 70 45 68 74 63 53 54 71 52 70
3890.0 75 86 78 76 80 87 79 76 78 84
3930.0 85 70 85 84 69 78 78 86 84 68
##END=
