##TITLE=2-Butanone, 3-amino-3-methyl-, oxime
##JCAMP-DX=4.24
##DATA TYPE=INFRARED SPECTRUM
##ORIGIN=Sadtler Research Labs Under US-EPA Contract
##OWNER=NIST Standard Reference Data Program
##CAS REGISTRY NO=38870-72-3
##MOLFORM=C 5 H 12 N 2 O
##XUNITS=1/CM
##YUNITS=ABSORBANCE
##XFACTOR=1.0
##YFACTOR=0.000044894
##DELTAX=4.0
##FIRSTX=450.0
##LASTX=3966.0
##FIRSTY=0.017913
##MAXX=3966
##MINX=450
##MAXY=0.44894
##MINY=0
##NPOINTS=880
##XYDATA=(X++(Y..Y))
450.0 399 916 757 616 363 454 275 221 327 327
490.0 273 234 167 106 154 44 51 121 57 46
530.0 25 110 83 86 110 185 280 475 692 927
570.0 1194 1378 1434 1362 1189 971 767 593 525 477
610.0 513 488 455 449 428 431 385 372 345 368
650.0 401 438 478 506 562 667 733 682 752 784
690.0 912 925 977 1047 1137 1229 1324 1492 1807 2249
730.0 2712 3068 3256 3318 3248 3078 2740 2677 2801 3022
770.0 3266 3433 3602 3600 3659 3554 3398 3298 3086 2945
810.0 2612 2452 2252 1859 1760 1703 1707 1780 1946 2223
850.0 2692 3045 3406 3612 3818 3804 3426 3099 2664 2409
890.0 2383 2714 3506 4715 6232 7920 9128 9927 10000 9277
930.0 8234 6050 4323 3292 2785 2448 2381 2326 2616 2940
970.0 2421 2140 2554 2638 2825 2862 2959 2752 2541 2420
1010.0 2200 2036 1634 1348 1096 892 866 508 369 426
1050.0 323 332 234 223 346 260 325 285 209 424
1090.0 222 347 264 383 452 430 661 820 1263 1522
1130.0 2084 2612 3183 3508 3560 3368 3038 2635 2222 1748
1170.0 1600 1410 1438 1300 1375 1393 1508 1488 1375 1202
1210.0 1054 900 728 584 513 453 401 320 295 243
1250.0 208 161 130 85 79 50 37 75 121 214
1290.0 317 487 671 862 1026 1198 1370 1603 1964 2549
1330.0 3459 4517 5556 6301 6675 6590 6232 5605 5116 5022
1370.0 4800 4483 4251 3709 3063 2401 1809 1394 1094 901
1410.0 789 712 694 764 783 848 963 1150 1190 1344
1450.0 1443 1612 1719 1723 1731 1588 1409 1172 968 747
1490.0 532 437 352 284 303 265 229 261 212 225
1530.0 190 241 186 263 223 256 232 314 356 315
1570.0 366 440 536 618 718 882 999 1183 1281 1408
1610.0 1475 1578 1582 1553 1501 1372 1181 1052 904 817
1650.0 668 705 494 408 326 244 188 155 86 114
1690.0 25 44 73 70 42 52 100 102 114 89
1730.0 113 118 141 66 53 79 77 51 62 66
1770.0 36 63 15 53 7 59 29 52 55 70
1810.0 45 61 60 38 69 48 66 26 58 42
1850.0 31 15 25 8 6 23 5 14 6 19
1890.0 23 21 24 18 25 22 25 42 24 33
1930.0 32 42 38 48 42 43 51 57 54 69
1970.0 65 70 79 75 71 80 84 85 95 78
2010.0 87 81 86 75 80 73 84 80 79 79
2050.0 79 80 78 76 83 81 84 77 83 77
2090.0 76 72 78 72 74 74 71 68 63 54
2130.0 51 50 38 44 38 33 27 29 37 31
2170.0 32 33 33 31 33 27 31 34 34 43
2210.0 39 37 39 46 39 39 45 46 38 31
2250.0 32 25 13 9 11 5 9 11 15 23
2290.0 38 42 49 49 66 68 65 62 60 54
2330.0 42 48 32 45 69 63 67 48 51 55
2370.0 51 63 71 65 46 35 31 24 20 22
2410.0 28 25 22 19 18 16 20 25 31 33
2450.0 36 38 40 46 46 44 52 53 53 56
2490.0 54 57 64 57 59 58 57 57 57 57
2530.0 54 60 61 60 56 58 70 68 70 79
2570.0 85 87 91 102 103 102 108 110 107 110
2610.0 109 112 116 116 116 119 128 137 138 147
2650.0 148 158 158 166 160 163 153 148 134 125
2690.0 108 103 95 89 89 86 94 107 110 122
2730.0 125 122 120 113 112 110 114 101 96 105
2770.0 103 106 105 103 110 127 136 157 180 196
2810.0 216 216 238 255 268 277 301 329 377 439
2850.0 522 637 780 975 1208 1432 1657 1837 1944 1964
2890.0 1953 1950 1966 2007 2103 2235 2434 2710 3035 3424
2930.0 3871 4295 4616 4724 4636 4442 4291 4395 4902 5915
2970.0 7169 8455 9337 9422 9172 7958 6397 5044 3680 2693
3010.0 1974 1494 1157 933 803 710 652 588 552 514
3050.0 485 464 436 413 396 380 371 385 391 393
3090.0 412 424 407 391 351 309 281 240 205 181
3130.0 167 160 157 155 156 146 150 155 136 131
3170.0 131 128 129 130 129 134 131 136 135 127
3210.0 136 134 132 129 114 116 125 129 115 119
3250.0 127 144 149 157 165 165 166 157 147 129
3290.0 113 111 117 123 124 121 129 138 165 193
3330.0 227 295 260 207 196 160 129 111 105 96
3370.0 82 77 74 79 75 86 95 84 100 98
3410.0 89 103 106 88 86 82 93 70 61 52
3450.0 69 63 63 52 27 51 41 27 26 26
3490.0 25 32 11 40 16 28 30 10 31 5
3530.0 37 28 37 45 41 46 37 19 59 71
3570.0 66 70 64 74 100 130 164 146 198 209
3610.0 333 377 573 901 1567 2913 4910 7489 9107 9759
3650.0 9735 8466 6864 3854 1740 845 435 297 157 170
3690.0 136 136 85 97 66 64 49 23 19 18
3730.0 5 12 7 14 92 11 42 5 5 5
3770.0 5 5 5 5 5 5 5 10 7 21
3810.0 5 5 5 5 5 5 5 5 5 5
3850.0 18 40 10 5 5 31 5 5 4 46
3890.0 0 5 3 22 5 5 4 6 5 5
3930.0 5 9 6 5 5 5 6 5 7 4
##END=
