##TITLE=1H-Isoindole-1,3(2H)-dione, 2-(2-hydroxyethyl)-
##JCAMP-DX=4.24
##DATA TYPE=INFRARED SPECTRUM
##ORIGIN=Sadtler Research Labs Under US-EPA Contract
##OWNER=NIST Standard Reference Data Program
##CAS REGISTRY NO=3891-07-4
##MOLFORM=C 10 H 9 N O 3
##XUNITS=1/CM
##YUNITS=ABSORBANCE
##XFACTOR=1.0
##YFACTOR=0.000064847
##DELTAX=4.0
##FIRSTX=450.0
##LASTX=3966.0
##FIRSTY=0.000000
##MAXX=3966
##MINX=450
##MAXY=0.64847
##MINY=0
##NPOINTS=880
##XYDATA=(X++(Y..Y))
450.0 0 223 523 393 504 272 232 345 516 331
490.0 348 185 395 562 564 558 547 599 967 1143
530.0 1348 766 617 545 501 652 645 496 381 293
570.0 372 362 322 477 333 314 285 406 484 588
610.0 544 466 518 500 640 494 399 330 262 308
650.0 344 245 268 378 488 598 423 310 384 452
690.0 644 782 912 1147 1510 2519 3922 4725 4397 2760
730.0 1271 618 341 85 227 276 191 163 268 355
770.0 280 395 348 413 511 719 674 494 311 275
810.0 280 273 211 310 418 538 426 392 424 500
850.0 413 398 349 436 616 798 877 636 610 583
890.0 622 687 772 726 615 594 547 444 428 409
930.0 435 427 418 462 501 490 546 584 595 650
970.0 687 730 832 972 1180 1463 1700 1781 1868 2074
1010.0 2459 2760 2635 2466 2297 2112 1979 2007 2025 2102
1050.0 2141 2159 2023 1945 1864 1845 1710 1557 1360 1182
1090.0 1049 874 753 706 673 841 816 781 784 792
1130.0 795 704 639 626 597 616 633 651 693 785
1170.0 870 901 877 984 1162 1133 868 670 627 638
1210.0 657 646 617 647 719 719 747 755 777 739
1250.0 735 726 712 671 683 683 679 710 758 816
1290.0 919 1041 1202 1330 1466 1538 1612 1645 1669 1724
1330.0 1724 1746 1785 1913 2205 2653 3307 3881 4016 3737
1370.0 3394 3370 3841 4834 6264 7088 6814 5558 3949 2991
1410.0 2329 1945 1681 1602 1816 2010 2096 1996 1756 1462
1450.0 1061 901 855 842 1289 1225 843 606 487 389
1490.0 343 306 310 289 283 295 311 327 332 347
1530.0 339 339 354 353 365 382 360 346 321 364
1570.0 363 379 420 446 503 576 613 633 652 701
1610.0 776 788 705 625 557 511 514 521 526 580
1650.0 606 646 742 808 911 1049 1191 1471 1748 2132
1690.0 2702 3288 4218 5107 6004 6340 6429 6961 7482 8521
1730.0 9784 10000 9679 8101 5679 3751 2295 1692 1556 1764
1770.0 2220 2433 2302 2055 1910 1682 1205 771 502 355
1810.0 285 246 219 206 180 176 193 207 218 196
1850.0 195 167 157 158 152 162 162 160 157 151
1890.0 146 144 139 148 148 159 164 153 152 147
1930.0 147 151 162 167 157 154 147 135 134 140
1970.0 153 151 152 142 129 126 121 117 120 115
2010.0 114 107 106 106 104 112 106 114 117 118
2050.0 120 121 125 118 121 125 115 115 120 121
2090.0 122 123 120 118 115 112 108 109 109 103
2130.0 110 111 111 113 108 114 114 117 113 110
2170.0 111 117 112 114 117 111 106 110 111 105
2210.0 109 113 112 111 111 114 122 123 124 126
2250.0 127 123 127 126 122 122 122 116 112 111
2290.0 117 116 122 123 127 129 136 137 128 138
2330.0 130 124 130 127 121 127 130 120 144 160
2370.0 135 118 135 130 122 123 127 130 138 136
2410.0 142 131 139 140 136 133 138 135 134 134
2450.0 134 137 133 135 134 133 134 135 136 131
2490.0 129 120 122 121 120 122 118 116 116 112
2530.0 109 109 107 103 104 108 107 104 103 106
2570.0 106 97 100 110 98 110 109 102 102 104
2610.0 106 111 115 117 122 119 133 136 124 124
2650.0 118 123 124 118 121 125 132 129 133 145
2690.0 144 152 153 151 150 147 140 125 126 128
2730.0 128 130 134 141 139 139 144 145 145 154
2770.0 162 168 171 178 184 185 182 180 179 186
2810.0 191 196 196 195 213 216 217 220 231 250
2850.0 272 285 317 362 396 458 513 570 620 683
2890.0 696 683 650 587 545 519 507 516 555 615
2930.0 693 802 931 1038 1079 1021 930 798 671 562
2970.0 477 426 386 367 340 294 273 242 209 189
3010.0 189 186 185 197 210 214 218 224 242 258
3050.0 274 290 327 370 376 361 345 349 376 404
3090.0 411 390 345 269 219 196 181 170 161 155
3130.0 150 148 154 157 153 157 142 142 148 157
3170.0 160 156 163 155 170 165 164 171 182 188
3210.0 195 192 192 195 208 202 203 203 206 207
3250.0 206 208 208 214 207 218 227 218 232 231
3290.0 242 238 238 252 254 249 261 275 267 279
3330.0 267 298 297 306 314 309 314 316 316 333
3370.0 331 361 378 368 374 381 397 424 418 438
3410.0 438 460 456 480 497 512 536 546 551 579
3450.0 602 620 655 669 680 703 706 712 701 721
3490.0 734 760 784 797 805 794 801 812 815 816
3530.0 844 856 890 929 943 965 957 968 950 909
3570.0 858 809 736 655 616 554 511 472 429 398
3610.0 370 344 325 277 277 248 220 204 186 161
3650.0 138 149 191 190 208 223 208 196 164 168
3690.0 132 125 131 117 103 82 82 84 88 99
3730.0 97 81 83 86 85 82 82 112 91 82
3770.0 96 84 120 98 106 103 113 94 92 83
3810.0 82 82 97 82 82 82 82 94 84 81
3850.0 89 87 83 82 82 82 83 81 82 82
3890.0 84 90 112 84 82 82 83 86 82 91
3930.0 82 82 82 91 100 92 123 164 104 98
##END=
