##TITLE=Butanoic acid, 2,2-dimethyl-3-oxo-, methyl ester
##JCAMP-DX=4.24
##DATA TYPE=INFRARED SPECTRUM
##ORIGIN=Sadtler Research Labs Under US-EPA Contract
##OWNER=NIST Standard Reference Data Program
##CAS REGISTRY NO=38923-57-8
##MOLFORM=C 7 H 12 O 3
##XUNITS=1/CM
##YUNITS=ABSORBANCE
##XFACTOR=1.0
##YFACTOR=0.000122009
##DELTAX=4.0
##FIRSTX=450.0
##LASTX=3966.0
##FIRSTY=0.024036
##MAXX=3966
##MINX=450
##MAXY=1.22009
##MINY=0
##NPOINTS=880
##XYDATA=(X++(Y..Y))
450.0 197 165 135 187 158 190 193 188 216 209
490.0 203 193 188 176 157 143 156 146 117 123
530.0 114 119 101 107 96 85 97 87 100 93
570.0 111 125 143 149 173 203 233 247 257 245
610.0 236 234 247 262 247 215 176 128 75 45
650.0 24 25 18 17 9 15 14 13 10 3
690.0 7 9 13 9 8 12 7 13 9 9
730.0 5 14 13 18 20 21 30 47 80 93
770.0 127 144 132 117 98 62 52 50 45 53
810.0 49 66 81 113 169 260 401 553 662 712
850.0 643 498 345 194 113 73 57 47 42 53
890.0 59 78 96 111 113 112 103 91 79 78
930.0 86 100 128 170 231 309 404 491 567 600
970.0 601 584 567 566 573 570 539 501 452 437
1010.0 456 485 504 503 481 447 408 363 326 299
1050.0 275 266 252 255 261 271 294 325 374 444
1090.0 557 733 1039 1541 2355 3462 4559 5319 5455 5060
1130.0 4296 3602 3492 4081 5096 6175 6951 7047 6397 5172
1170.0 3874 2913 2393 2187 2189 2272 2320 2293 2147 1943
1210.0 1736 1613 1595 1661 1788 1948 2121 2320 2552 2856
1250.0 3289 3834 4441 4939 5216 5130 4676 3964 3130 2336
1290.0 1684 1217 908 711 572 480 417 389 366 369
1330.0 379 418 491 612 819 1097 1400 1678 1835 1733
1370.0 1632 1409 1187 1177 1175 1194 1118 977 766 548
1410.0 454 432 465 513 641 864 1165 1417 1544 1559
1450.0 1412 1349 1452 1562 1718 1786 1719 1530 1229 918
1490.0 617 431 345 294 274 256 223 214 206 193
1530.0 186 181 194 195 188 171 167 164 155 138
1570.0 139 135 137 131 119 122 114 116 110 115
1610.0 112 113 122 110 119 104 119 114 117 117
1650.0 139 140 150 159 184 214 248 289 344 430
1690.0 497 616 762 993 1317 1862 2820 4346 6350 8089
1730.0 9941 10000 9373 8080 6914 6217 6029 5795 5363 4518
1770.0 3601 2629 1799 1249 900 700 556 459 368 300
1810.0 240 196 151 129 110 94 84 70 69 62
1850.0 59 48 46 42 44 41 33 32 26 26
1890.0 24 24 19 19 19 19 21 21 27 24
1930.0 27 27 30 32 35 39 47 56 64 74
1970.0 76 79 78 79 74 75 70 65 64 57
2010.0 49 41 39 34 32 28 31 29 28 27
2050.0 26 26 23 25 25 28 27 30 31 34
2090.0 39 42 45 48 49 45 43 37 31 28
2130.0 25 25 24 24 22 23 18 19 15 16
2170.0 16 13 12 10 9 4 4 2 0 0
2210.0 1 3 1 2 3 5 2 5 4 5
2250.0 5 3 6 6 10 11 15 15 17 16
2290.0 16 17 20 21 22 29 24 28 23 25
2330.0 21 22 23 26 36 19 25 17 23 19
2370.0 25 24 27 24 22 18 15 15 14 14
2410.0 12 15 15 17 18 14 15 11 12 11
2450.0 14 15 14 17 19 19 20 22 20 20
2490.0 16 16 14 15 13 15 14 13 14 13
2530.0 12 12 10 10 10 11 12 14 12 12
2570.0 13 14 16 16 16 19 22 24 27 29
2610.0 26 23 23 17 17 15 15 17 16 16
2650.0 17 21 18 18 17 19 17 19 15 16
2690.0 17 16 16 14 17 14 15 15 14 15
2730.0 21 23 21 26 23 23 23 23 23 24
2770.0 28 28 30 29 31 28 31 32 37 41
2810.0 46 54 60 70 80 98 120 166 237 298
2850.0 343 346 317 268 238 268 334 411 487 537
2890.0 555 555 551 549 567 601 642 687 728 781
2930.0 857 992 1161 1372 1603 1870 2183 2362 2375 2121
2970.0 1857 1511 1365 1626 2032 2430 2648 2598 2334 1923
3010.0 1516 1171 919 746 651 596 548 498 432 366
3050.0 309 267 234 210 192 180 167 156 154 148
3090.0 144 139 138 131 123 121 111 103 98 93
3130.0 82 79 74 70 63 57 56 50 52 51
3170.0 53 50 50 49 50 49 46 49 50 45
3210.0 40 41 39 38 33 31 33 29 28 26
3250.0 24 22 19 19 16 18 17 17 19 16
3290.0 21 18 18 20 19 21 20 20 21 20
3330.0 21 21 21 19 19 22 22 20 23 19
3370.0 17 19 19 17 19 21 24 26 25 25
3410.0 26 25 31 37 48 54 74 85 93 105
3450.0 104 101 94 83 86 84 85 90 85 83
3490.0 62 46 40 39 31 28 27 20 16 12
3530.0 14 11 10 12 9 13 13 13 8 10
3570.0 17 15 10 9 13 17 12 13 9 8
3610.0 17 13 13 9 11 18 15 7 11 16
3650.0 23 19 15 13 13 17 14 14 3 13
3690.0 17 12 10 15 15 9 17 20 9 17
3730.0 19 14 9 15 20 11 20 19 15 8
3770.0 8 10 13 10 17 15 13 21 16 10
3810.0 7 17 11 24 21 15 23 19 14 15
3850.0 22 14 19 17 23 25 25 23 20 16
3890.0 18 24 21 29 18 19 16 15 11 7
3930.0 9 23 17 16 17 29 15 30 21 13
##END=
