##TITLE=Benzene, 2-chloro-4-methyl-1-nitro-
##JCAMP-DX=4.24
##DATA TYPE=INFRARED SPECTRUM
##ORIGIN=Sadtler Research Labs Under US-EPA Contract
##OWNER=NIST Standard Reference Data Program
##CAS REGISTRY NO=38939-88-7
##MOLFORM=C 7 H 6 Cl N O 2
##XUNITS=1/CM
##YUNITS=ABSORBANCE
##XFACTOR=1.0
##YFACTOR=0.000144864
##DELTAX=4.0
##FIRSTX=450.0
##LASTX=3966.0
##FIRSTY=0.000000
##MAXX=3966
##MINX=450
##MAXY=1.44864
##MINY=0
##NPOINTS=880
##XYDATA=(X++(Y..Y))
450.0 0 161 234 272 188 237 176 183 235 199
490.0 251 190 214 233 185 245 172 250 204 143
530.0 256 173 235 246 187 275 188 215 284 258
570.0 338 371 422 569 533 465 399 572 799 847
610.0 888 723 535 396 267 256 255 213 265 244
650.0 251 222 253 266 244 350 354 454 769 863
690.0 918 856 678 499 318 276 245 224 251 267
730.0 341 441 601 809 822 740 567 600 473 382
770.0 392 390 392 356 341 326 288 322 403 550
810.0 1070 1939 3352 5015 4941 4154 2709 1380 686 424
850.0 376 383 454 570 663 839 938 964 1022 1597
890.0 2277 2509 2458 1989 994 473 316 263 252 227
930.0 228 234 225 229 253 276 273 280 250 245
970.0 255 227 225 258 275 311 304 305 296 289
1010.0 308 265 254 281 252 307 386 535 803 1164
1050.0 1559 1620 1582 1336 820 504 365 299 323 246
1090.0 283 237 229 284 255 277 266 247 266 290
1130.0 335 358 377 375 369 472 544 576 609 532
1170.0 442 354 311 331 312 323 364 442 587 707
1210.0 855 927 907 823 655 521 392 330 337 338
1250.0 420 504 523 555 497 439 369 365 402 422
1290.0 505 534 572 672 704 795 885 905 997 1054
1330.0 1195 1524 2188 3514 5489 7636 9264 9123 7405 4753
1370.0 2784 1839 1585 1513 1504 1600 1587 1511 1368 1145
1410.0 955 800 672 647 625 695 667 663 734 691
1450.0 734 756 736 858 945 1177 1533 1888 2054 1962
1490.0 1770 1427 1269 1417 1371 1777 2136 2369 3213 3624
1530.0 4644 5813 6697 8884 9099 10000 9147 7771 6850 5652
1570.0 5515 5231 5095 5524 5160 5647 6151 5863 5731 4076
1610.0 2871 1715 1045 744 644 562 521 482 441 443
1650.0 352 293 283 235 222 216 189 231 217 235
1690.0 246 257 231 178 214 206 194 191 165 217
1730.0 220 231 281 277 273 264 235 226 227 247
1770.0 246 236 245 213 199 181 165 187 184 190
1810.0 191 194 211 224 213 214 199 178 168 160
1850.0 161 165 172 164 164 176 167 192 177 193
1890.0 212 245 270 273 263 246 219 206 185 180
1930.0 172 172 183 164 165 174 166 169 162 157
1970.0 161 157 162 157 158 162 158 171 164 161
2010.0 162 158 164 161 167 167 167 167 162 160
2050.0 159 151 151 150 155 158 151 161 154 154
2090.0 158 156 159 156 155 158 155 156 150 152
2130.0 151 148 153 152 153 149 146 155 152 152
2170.0 154 159 159 160 165 162 158 156 161 164
2210.0 175 169 170 164 153 150 149 156 156 151
2250.0 158 155 160 158 164 170 167 174 173 174
2290.0 174 159 156 154 143 153 143 147 147 145
2330.0 148 146 148 162 158 177 165 178 185 180
2370.0 185 181 177 184 183 188 189 194 194 192
2410.0 192 189 188 184 180 180 177 180 180 176
2450.0 179 177 175 175 175 178 181 181 185 183
2490.0 187 184 186 184 184 186 181 183 180 178
2530.0 177 173 178 177 177 178 178 175 173 172
2570.0 172 174 177 180 179 183 184 191 188 187
2610.0 185 185 180 178 175 181 183 187 194 194
2650.0 198 199 194 194 190 192 192 197 203 208
2690.0 219 231 237 244 243 239 226 214 215 214
2730.0 216 219 223 233 245 243 234 218 207 194
2770.0 191 190 190 189 190 196 193 191 197 193
2810.0 199 204 204 212 217 228 239 252 267 288
2850.0 316 345 388 446 502 559 601 617 630 632
2890.0 634 644 646 647 637 629 628 642 690 776
2930.0 918 1058 1144 1139 1045 903 778 660 568 511
2970.0 469 440 415 398 397 404 430 460 502 524
3010.0 532 534 513 486 467 478 517 558 601 625
3050.0 635 639 650 648 634 620 590 536 478 402
3090.0 330 282 253 242 230 218 209 199 190 190
3130.0 192 191 184 187 178 185 180 175 174 171
3170.0 170 175 172 172 169 173 172 166 168 164
3210.0 164 161 157 157 159 164 161 159 162 165
3250.0 161 158 152 156 162 158 155 153 157 158
3290.0 159 164 156 155 167 155 159 159 162 158
3330.0 164 160 157 157 158 158 160 162 165 161
3370.0 158 162 161 158 160 162 159 159 159 158
3410.0 161 167 167 165 160 165 161 159 167 165
3450.0 166 161 158 161 161 162 164 162 161 158
3490.0 165 162 155 168 162 156 164 164 165 161
3530.0 166 165 160 171 157 166 161 164 161 159
3570.0 153 167 165 166 156 168 155 165 153 162
3610.0 155 159 165 157 162 146 164 165 166 154
3650.0 149 145 173 165 168 157 160 169 169 173
3690.0 150 172 172 165 168 159 160 173 166 179
3730.0 175 171 161 158 174 143 170 158 151 164
3770.0 159 172 178 171 176 174 173 152 167 156
3810.0 167 143 172 143 169 158 152 148 150 155
3850.0 148 169 169 157 167 160 154 156 157 167
3890.0 179 168 180 178 155 159 173 178 170 183
3930.0 181 181 174 178 168 186 167 172 184 175
##END=
