##TITLE=4,1-Benzoxazepin-2(3H)-one, 1,5-di-hydro-1-methyl-5-phenyl-,
##JCAMP-DX=4.24
##DATA TYPE=INFRARED SPECTRUM
##ORIGIN=Sadtler Research Labs Under US-EPA Contract
##OWNER=NIST Standard Reference Data Program
##CAS REGISTRY NO=3897-15-2
##MOLFORM=C 16 H 15 N O 2
##XUNITS=1/CM
##YUNITS=ABSORBANCE
##XFACTOR=1.0
##YFACTOR=0.000041760
##DELTAX=4.0
##FIRSTX=450.0
##LASTX=3966.0
##FIRSTY=0.005262
##MAXX=3966
##MINX=450
##MAXY=0.4176
##MINY=0
##NPOINTS=880
##XYDATA=(X++(Y..Y))
450.0 126 67 66 77 198 295 185 121 135 36
490.0 23 1 6 38 46 54 114 113 110 119
530.0 105 180 232 221 201 126 87 77 106 137
570.0 74 34 0 31 57 163 257 360 284 247
610.0 279 344 362 307 203 104 38 61 117 144
650.0 203 177 185 141 182 234 193 216 285 356
690.0 600 945 1359 1279 938 514 355 316 415 736
730.0 1196 1451 1245 1067 1323 1959 2400 2430 1850 1100
770.0 613 478 503 585 576 490 321 204 166 146
810.0 169 174 182 163 115 77 102 127 96 116
850.0 124 135 112 113 118 167 200 241 240 202
890.0 137 101 98 117 164 236 278 334 376 381
930.0 389 444 589 765 815 739 592 454 383 347
970.0 404 535 604 523 358 201 146 139 141 164
1010.0 186 244 313 420 590 695 646 559 550 587
1050.0 507 422 427 581 862 1145 1269 1158 1026 1083
1090.0 1435 1953 2330 2283 1917 1491 1168 994 942 967
1130.0 996 1041 1112 1187 1171 1040 856 733 670 662
1170.0 717 799 828 749 629 538 488 456 422 422
1210.0 401 377 357 381 442 495 490 438 379 370
1250.0 414 471 540 634 717 751 747 699 635 589
1290.0 578 605 700 860 1052 1202 1206 1089 987 975
1330.0 1068 1260 1489 1718 1877 1936 1941 2003 2212 2584
1370.0 2899 2856 2411 1768 1175 789 562 423 382 347
1410.0 365 444 528 666 647 545 445 455 590 856
1450.0 1294 1816 2174 2187 1834 1379 1099 1113 1384 1799
1490.0 2109 2119 1654 1073 605 346 287 225 199 202
1530.0 176 178 174 128 143 171 157 133 182 233
1570.0 276 359 492 670 830 978 1231 1544 1647 1405
1610.0 970 618 408 333 287 285 256 251 286 292
1650.0 307 373 483 552 639 730 879 1174 1581 2404
1690.0 3843 6048 8540 10000 9296 6842 4190 2369 1420 971
1730.0 682 509 414 350 289 263 266 244 210 205
1770.0 171 143 153 145 161 148 140 159 163 170
1810.0 135 106 92 77 61 42 54 57 41 28
1850.0 47 47 45 42 39 35 60 79 78 76
1890.0 63 64 60 64 69 77 76 74 53 54
1930.0 45 57 83 110 135 132 95 78 66 42
1970.0 26 19 19 13 18 10 7 15 15 20
2010.0 21 21 23 24 28 26 25 33 37 41
2050.0 45 43 37 31 28 35 31 33 17 9
2090.0 9 10 13 14 11 14 16 12 14 15
2130.0 17 14 19 14 18 21 16 20 18 21
2170.0 24 22 26 16 24 21 17 19 20 16
2210.0 21 20 22 18 23 20 18 18 16 20
2250.0 25 23 18 27 21 23 34 34 37 49
2290.0 59 65 73 82 84 83 99 92 111 113
2330.0 102 71 79 114 105 120 120 109 104 80
2370.0 73 70 86 73 53 30 20 22 14 16
2410.0 4 4 2 10 14 1 7 10 13 16
2450.0 16 7 13 13 21 14 14 10 10 11
2490.0 15 19 13 17 14 14 11 15 13 10
2530.0 15 23 26 21 23 29 26 30 27 23
2570.0 29 28 33 34 37 40 31 41 44 36
2610.0 31 36 36 32 37 35 40 41 37 37
2650.0 42 38 40 31 39 43 40 40 46 47
2690.0 44 41 45 51 48 49 49 43 34 36
2730.0 36 34 28 33 32 35 31 42 41 44
2770.0 52 52 53 60 53 64 62 74 78 83
2810.0 94 113 132 148 166 168 168 170 182 206
2850.0 246 303 436 645 914 1027 916 660 479 402
2890.0 376 391 430 506 601 716 781 760 700 631
2930.0 567 519 502 498 491 486 465 436 409 389
2970.0 374 344 331 308 275 266 291 394 533 580
3010.0 505 389 347 397 533 731 876 897 790 674
3050.0 599 598 665 787 979 1213 1342 1292 1085 882
3090.0 725 578 448 340 269 229 185 151 116 87
3130.0 75 70 52 57 56 54 55 49 50 50
3170.0 44 48 35 32 26 28 24 27 27 20
3210.0 18 12 19 3 19 26 20 15 17 22
3250.0 20 12 9 11 16 8 23 27 24 20
3290.0 25 20 28 34 16 22 23 23 20 17
3330.0 19 17 37 35 29 20 29 22 28 36
3370.0 44 47 65 73 74 80 65 47 46 29
3410.0 17 28 27 23 29 35 31 35 32 25
3450.0 1 20 22 20 27 21 24 11 16 0
3490.0 23 22 9 29 18 19 16 22 16 0
3530.0 19 15 28 20 32 32 20 17 19 15
3570.0 33 38 18 14 31 38 30 9 11 18
3610.0 31 25 18 16 38 41 28 20 15 49
3650.0 33 23 21 20 20 28 27 14 34 45
3690.0 24 25 27 30 36 26 23 17 38 40
3730.0 55 54 38 30 26 18 39 14 19 16
3770.0 36 27 10 11 11 57 27 8 13 26
3810.0 8 12 19 36 17 20 22 32 22 23
3850.0 33 44 35 22 20 20 12 16 7 13
3890.0 14 6 33 22 29 36 54 19 35 31
3930.0 31 55 12 33 24 22 52 46 65 57
##END=
