##TITLE=Benzeneacetic acid, .alpha.-cyclopentyl-
##JCAMP-DX=4.24
##DATA TYPE=INFRARED SPECTRUM
##ORIGIN=Sadtler Research Labs Under US-EPA Contract
##OWNER=NIST Standard Reference Data Program
##CAS REGISTRY NO=3900-93-4
##MOLFORM=C 13 H 16 O 2
##XUNITS=1/CM
##YUNITS=ABSORBANCE
##XFACTOR=1.0
##YFACTOR=0.000095392
##DELTAX=4.0
##FIRSTX=450.0
##LASTX=3966.0
##FIRSTY=0.015930
##MAXX=3966
##MINX=450
##MAXY=0.95392
##MINY=0
##NPOINTS=880
##XYDATA=(X++(Y..Y))
450.0 167 111 106 120 117 124 65 127 169 179
490.0 181 205 243 265 284 316 346 442 513 588
530.0 606 553 487 436 354 353 319 327 372 418
570.0 461 537 642 769 953 1183 1456 1840 2233 2678
610.0 2919 3131 2876 2654 2327 1963 1582 1263 1024 865
650.0 789 734 719 669 647 587 543 530 575 782
690.0 1386 2190 2832 2778 2125 1274 798 601 591 690
730.0 759 727 629 524 535 648 731 692 551 369
770.0 249 170 117 91 68 65 59 48 35 23
810.0 20 13 15 5 10 15 15 14 21 17
850.0 19 20 18 22 23 44 72 86 102 118
890.0 131 138 137 124 109 94 99 103 87 73
930.0 56 54 53 54 54 51 54 45 38 38
970.0 33 35 43 47 56 68 83 100 120 131
1010.0 143 152 171 198 290 406 444 410 322 284
1050.0 324 381 478 622 821 1054 1279 1438 1559 1717
1090.0 2005 2575 3554 4955 6354 7086 6598 5261 3853 2990
1130.0 2615 2492 2430 2304 2103 1883 1731 1643 1616 1553
1170.0 1373 1127 916 794 767 791 808 786 718 620
1210.0 530 458 410 381 372 381 405 441 484 518
1250.0 543 560 564 566 554 538 518 500 498 504
1290.0 526 555 586 610 622 623 621 634 664 684
1330.0 682 663 637 631 650 696 761 823 876 879
1370.0 839 759 663 563 477 407 355 299 259 217
1410.0 192 161 150 149 144 140 147 179 242 375
1450.0 562 738 735 565 413 314 287 295 316 358
1490.0 484 717 832 755 495 211 87 40 25 27
1530.0 22 32 29 17 12 14 5 2 13 22
1570.0 34 53 87 136 190 255 323 406 415 368
1610.0 261 162 94 65 46 40 40 30 43 30
1650.0 35 41 48 44 53 55 62 73 79 95
1690.0 116 149 157 197 243 314 418 566 794 999
1730.0 1175 1222 1248 1261 1467 1888 2800 4443 6772 9200
1770.0 10000 8455 5700 3498 2200 1660 1438 1397 1337 1232
1810.0 1005 774 566 426 318 239 198 166 151 127
1850.0 125 110 107 96 97 90 99 101 96 91
1890.0 84 79 73 65 54 45 43 43 40 50
1930.0 67 88 116 132 126 112 106 97 85 65
1970.0 41 31 35 36 33 31 29 29 31 31
2010.0 29 27 24 24 22 20 22 17 19 19
2050.0 16 15 17 19 20 20 20 22 20 16
2090.0 18 17 19 19 20 18 17 17 17 15
2130.0 15 9 11 9 13 16 13 17 19 24
2170.0 26 26 29 30 37 36 41 39 44 43
2210.0 46 45 41 36 34 29 24 26 24 25
2250.0 24 21 26 27 25 26 30 26 30 32
2290.0 35 42 50 55 60 66 71 59 62 46
2330.0 39 39 36 42 50 72 45 37 27 28
2370.0 28 34 46 53 39 24 17 14 13 12
2410.0 14 15 14 14 11 16 13 13 11 9
2450.0 15 14 13 12 14 14 13 9 10 12
2490.0 9 8 3 9 5 6 2 2 2 4
2530.0 3 6 6 7 6 8 9 8 11 10
2570.0 11 15 17 19 21 22 22 25 22 27
2610.0 26 25 29 27 24 25 25 26 24 25
2650.0 22 24 25 22 23 20 25 22 21 18
2690.0 22 19 19 22 22 19 28 31 34 32
2730.0 34 37 40 36 37 39 39 41 46 52
2770.0 49 56 66 69 75 83 88 93 97 105
2810.0 109 116 127 140 158 187 216 250 289 344
2850.0 411 504 633 840 1128 1467 1823 2104 2166 1992
2890.0 1663 1347 1161 1102 1110 1193 1355 1557 1765 1983
2930.0 2182 2350 2496 2648 2898 3305 3979 4876 5706 6027
2970.0 5360 4104 2905 1997 1424 1082 871 733 645 585
3010.0 538 511 520 590 746 985 1213 1286 1130 892
3050.0 675 578 620 754 1022 1308 1389 1233 948 741
3090.0 695 658 555 441 353 293 248 205 160 127
3130.0 107 86 75 67 66 65 58 63 66 61
3170.0 65 60 54 48 46 46 40 45 41 46
3210.0 43 43 50 44 41 42 40 36 37 35
3250.0 42 40 38 38 39 39 43 39 37 43
3290.0 35 34 35 39 42 37 32 36 40 36
3330.0 36 33 36 37 36 35 36 45 39 41
3370.0 38 47 50 46 39 43 40 41 48 40
3410.0 41 38 39 35 38 43 44 38 38 32
3450.0 36 36 37 33 42 37 51 43 38 37
3490.0 45 54 46 42 54 72 79 94 94 68
3530.0 80 83 91 91 89 130 271 683 1733 3233
3570.0 4108 3915 2619 1140 410 164 115 82 116 103
3610.0 92 55 43 29 27 24 31 49 46 39
3650.0 2 25 47 43 42 17 8 18 37 43
3690.0 23 33 47 30 35 26 22 52 33 29
3730.0 39 11 6 33 17 0 27 17 32 43
3770.0 31 43 31 37 42 56 53 35 23 25
3810.0 53 52 18 25 39 42 42 27 20 40
3850.0 34 5 37 38 31 32 25 46 8 35
3890.0 53 46 39 34 34 63 68 55 31 48
3930.0 47 33 66 50 40 44 56 49 68 73
##END=
