##TITLE=2-Decenoic acid
##JCAMP-DX=4.24
##DATA TYPE=INFRARED SPECTRUM
##ORIGIN=Sadtler Research Labs Under US-EPA Contract
##OWNER=NIST Standard Reference Data Program
##CAS REGISTRY NO=3913-85-7
##MOLFORM=C 10 H 18 O 2
##XUNITS=1/CM
##YUNITS=ABSORBANCE
##XFACTOR=1.0
##YFACTOR=0.000055246
##DELTAX=4.0
##FIRSTX=450.0
##LASTX=3966.0
##FIRSTY=0.050716
##MAXX=3966
##MINX=450
##MAXY=0.55246
##MINY=0
##NPOINTS=880
##XYDATA=(X++(Y..Y))
450.0 918 388 244 309 198 372 320 292 297 228
490.0 448 228 361 334 347 427 513 509 595 616
530.0 580 750 809 1066 897 1059 1331 1504 1523 1379
570.0 1326 1301 1373 1160 891 632 551 424 311 353
610.0 338 433 562 747 679 655 574 566 718 839
650.0 901 731 529 372 303 279 251 308 240 235
690.0 199 284 335 460 508 580 598 620 637 583
730.0 542 464 483 473 475 465 368 321 229 179
770.0 140 170 153 212 181 119 108 63 14 9
810.0 15 35 64 70 100 88 102 114 142 198
850.0 213 273 311 321 299 323 313 312 312 283
890.0 265 208 193 145 121 106 110 92 85 95
930.0 83 111 141 194 225 295 337 379 441 513
970.0 658 835 1033 1111 984 754 573 443 376 349
1010.0 332 320 318 304 295 281 270 279 316 366
1050.0 450 536 620 692 774 831 908 1031 1150 1150
1090.0 1246 1571 2174 3143 4241 4829 4596 3914 3344 3133
1130.0 3189 3351 3469 3480 3417 3307 3180 3039 2791 2424
1170.0 2106 1872 1680 1460 1211 976 790 663 584 525
1210.0 525 518 522 537 559 585 635 682 768 878
1250.0 999 1128 1238 1299 1288 1294 1336 1357 1332 1207
1290.0 1024 852 754 709 679 635 611 586 575 599
1330.0 681 797 997 1230 1463 1709 1855 1941 2013 2027
1370.0 1890 1583 1217 927 750 586 457 398 328 291
1410.0 274 270 301 308 321 356 453 595 726 863
1450.0 927 978 1027 950 909 834 732 583 467 452
1490.0 421 372 342 256 201 166 104 103 102 70
1530.0 44 43 43 72 50 28 38 88 75 54
1570.0 75 117 126 175 232 305 369 432 420 412
1610.0 392 384 390 355 343 301 331 414 559 855
1650.0 1301 1918 2452 2463 1746 924 544 364 327 324
1690.0 289 324 429 588 780 839 847 942 1012 1125
1730.0 1381 1747 2236 2945 4112 5575 7386 9085 10000 9123
1770.0 7166 5205 3730 2777 2151 1692 1327 1005 777 581
1810.0 454 360 281 243 195 178 146 128 117 121
1850.0 107 85 79 69 70 69 50 38 36 32
1890.0 41 37 26 32 26 24 21 29 31 24
1930.0 22 22 16 17 24 15 18 22 20 15
1970.0 21 21 17 17 13 31 23 27 18 27
2010.0 30 39 42 40 48 40 44 46 58 39
2050.0 45 63 59 61 45 42 42 28 15 32
2090.0 31 27 27 17 24 11 16 7 8 15
2130.0 10 9 8 12 10 15 9 9 10 3
2170.0 7 7 13 13 21 22 19 22 23 29
2210.0 27 26 19 25 21 30 20 22 23 25
2250.0 21 18 19 17 13 4 17 17 28 27
2290.0 35 45 59 72 89 92 102 100 99 101
2330.0 72 42 57 48 4 104 106 101 21 1
2370.0 3 3 3 3 5 19 35 30 28 33
2410.0 31 33 45 33 42 25 29 31 35 29
2450.0 29 38 25 27 29 34 41 38 34 40
2490.0 44 40 40 42 53 48 56 59 66 72
2530.0 62 63 64 72 72 83 81 92 84 91
2570.0 84 78 82 77 89 80 80 71 79 73
2610.0 82 75 66 78 73 77 73 80 73 81
2650.0 98 102 106 106 109 105 106 119 124 129
2690.0 149 152 155 169 163 162 137 127 117 126
2730.0 124 137 153 149 149 150 136 148 143 137
2770.0 145 167 172 180 183 202 187 205 225 266
2810.0 302 302 321 330 367 399 455 518 627 785
2850.0 1070 1509 2108 2733 3166 3189 2886 2495 2267 2115
2890.0 1922 1727 1715 1822 2050 2384 2794 3396 4269 5517
2930.0 7019 8229 8553 7850 6458 4956 3817 3299 3322 3688
2970.0 3866 3461 2527 1666 1147 862 741 644 562 522
3010.0 457 451 406 412 370 369 343 355 332 344
3050.0 347 364 360 357 355 329 297 259 275 228
3090.0 223 239 205 179 158 154 174 153 172 155
3130.0 159 148 139 132 119 127 122 126 124 123
3170.0 121 126 111 93 99 107 117 99 100 95
3210.0 96 95 99 79 78 85 83 66 50 60
3250.0 67 66 67 83 90 90 108 96 111 93
3290.0 80 86 99 96 109 95 110 104 85 104
3330.0 92 98 81 70 81 102 100 100 115 116
3370.0 133 121 99 106 102 109 135 118 107 106
3410.0 108 113 93 104 107 97 98 83 96 106
3450.0 89 89 91 78 99 89 79 97 91 117
3490.0 124 114 143 122 111 117 111 100 103 79
3530.0 95 89 71 86 100 121 129 137 181 250
3570.0 479 813 1952 3608 4470 3589 1907 851 410 237
3610.0 148 132 113 49 105 86 57 73 88 35
3650.0 14 64 84 73 91 67 54 52 54 52
3690.0 60 56 68 38 67 66 82 108 91 80
3730.0 77 31 42 48 67 0 43 58 37 95
3770.0 72 103 107 90 79 47 73 77 88 97
3810.0 100 95 46 55 77 74 102 65 53 100
3850.0 102 26 83 73 57 32 65 77 85 67
3890.0 81 57 78 49 47 200 135 79 108 142
3930.0 215 122 91 129 137 132 78 176 165 129
##END=
