##TITLE=Benzene, hexafluoro-
##JCAMP-DX=4.24
##DATA TYPE=INFRARED SPECTRUM
##ORIGIN=Sadtler Research Labs Under US-EPA Contract
##OWNER=NIST Standard Reference Data Program
##CAS REGISTRY NO=392-56-3
##MOLFORM=C 6 F 6
##XUNITS=1/CM
##YUNITS=ABSORBANCE
##XFACTOR=1.0
##YFACTOR=0.000071628
##DELTAX=4.0
##FIRSTX=450.0
##LASTX=3966.0
##FIRSTY=0.000000
##MAXX=3966
##MINX=450
##MAXY=0.71628
##MINY=0
##NPOINTS=880
##XYDATA=(X++(Y..Y))
450.0 0 6 6 7 13 13 22 32 35 35
490.0 45 59 29 36 35 35 35 24 33 19
530.0 28 18 21 25 29 37 23 36 37 37
570.0 36 37 40 46 33 38 32 28 30 17
610.0 25 24 24 26 18 24 28 24 25 25
650.0 32 40 33 32 33 49 34 41 33 36
690.0 30 26 31 32 26 31 34 33 40 40
730.0 40 42 42 41 38 38 41 41 32 30
770.0 30 30 36 28 30 34 37 38 42 45
810.0 42 42 36 45 44 37 45 51 59 59
850.0 60 42 45 45 45 44 52 60 60 60
890.0 60 60 53 51 47 46 48 47 47 49
930.0 49 49 49 57 64 87 119 176 273 417
970.0 600 802 1017 1484 2377 3634 4634 5110 5253 5205
1010.0 5453 5985 6129 5539 4501 3144 1848 960 543 359
1050.0 264 212 140 115 105 101 109 115 151 194
1090.0 208 147 94 79 73 67 68 76 70 70
1130.0 76 82 81 85 83 79 79 80 79 78
1170.0 75 80 81 81 81 83 82 84 84 84
1210.0 85 85 85 85 86 86 86 88 88 88
1250.0 87 90 86 93 91 85 95 97 111 112
1290.0 121 120 122 108 104 84 78 72 89 114
1330.0 138 153 117 156 221 253 290 304 301 300
1370.0 277 206 163 147 90 83 61 31 73 84
1410.0 69 104 13 91 97 150 117 139 180 193
1450.0 194 193 153 220 232 209 120 129 186 133
1490.0 81 149 206 418 836 1887 4119 9361 9846 9988
1530.0 9983 10000 7737 5154 2367 860 406 216 212 218
1570.0 190 173 170 154 173 160 187 184 194 156
1610.0 126 120 68 106 64 131 80 74 106 91
1650.0 30 35 95 116 108 98 72 143 78 66
1690.0 121 141 51 48 70 111 72 11 91 120
1730.0 83 17 86 96 87 93 168 198 221 251
1770.0 179 132 126 103 112 109 98 117 98 132
1810.0 123 105 112 96 84 64 84 97 74 52
1850.0 80 99 92 92 76 52 87 93 91 86
1890.0 76 79 85 86 83 80 76 73 59 79
1930.0 82 79 80 62 68 78 77 73 76 64
1970.0 69 73 72 70 70 56 57 66 66 64
2010.0 66 60 54 58 61 60 61 56 54 55
2050.0 57 55 55 59 64 86 92 107 113 111
2090.0 98 86 70 56 44 42 41 41 40 40
2130.0 38 38 44 51 57 63 61 68 67 66
2170.0 62 64 56 56 48 32 24 24 23 22
2210.0 22 20 19 19 18 18 17 15 13 20
2250.0 20 25 33 24 17 7 6 6 7 7
2290.0 7 8 9 9 9 11 19 16 18 22
2330.0 17 17 11 17 10 10 11 19 11 7
2370.0 10 9 8 7 15 21 26 27 28 35
2410.0 29 21 22 13 13 13 13 13 13 8
2450.0 15 13 21 29 51 66 104 133 163 177
2490.0 173 146 112 81 64 50 42 35 21 13
2530.0 13 16 16 16 6 9 16 16 15 8
2570.0 15 15 15 17 10 6 6 10 11 8
2610.0 8 8 8 7 7 7 17 9 15 19
2650.0 15 15 16 23 27 44 64 101 137 173
2690.0 176 125 66 33 23 16 16 17 17 17
2730.0 8 17 15 18 8 8 8 8 8 8
2770.0 9 9 9 9 8 8 17 17 17 17
2810.0 17 17 17 8 8 9 9 9 10 10
2850.0 9 9 9 9 18 18 18 17 17 17
2890.0 24 23 24 24 16 13 9 18 12 19
2930.0 16 9 9 18 18 17 24 25 31 27
2970.0 31 38 42 50 52 53 38 32 31 32
3010.0 47 54 53 51 44 39 32 25 24 18
3050.0 25 25 18 10 10 10 10 10 10 10
3090.0 11 11 11 11 11 10 19 18 17 10
3130.0 20 10 10 10 10 10 11 11 11 10
3170.0 19 10 12 18 16 15 20 11 18 19
3210.0 12 12 12 11 19 12 12 12 12 12
3250.0 11 11 11 11 11 19 12 19 20 20
3290.0 11 11 12 17 11 11 11 6 11 11
3330.0 12 12 11 11 11 17 20 20 21 18
3370.0 11 19 11 11 12 12 12 12 12 11
3410.0 11 11 11 15 13 12 21 26 21 21
3450.0 25 17 11 12 12 12 7 13 13 13
3490.0 12 12 12 12 12 21 24 20 20 16
3530.0 12 21 13 13 21 13 13 15 15 12
3570.0 12 15 15 13 13 15 22 20 15 20
3610.0 19 18 15 18 19 13 11 11 9 9
3650.0 15 8 8 6 8 5 12 19 23 19
3690.0 23 18 9 6 7 6 6 6 13 6
3730.0 11 7 8 11 17 6 12 12 20 11
3770.0 9 17 10 15 13 9 9 11 10 9
3810.0 7 8 13 12 11 19 25 25 27 27
3850.0 26 27 24 17 15 21 19 12 9 9
3890.0 19 21 23 25 24 29 29 28 26 32
3930.0 32 36 27 34 32 31 26 22 15 12
##END=
