##TITLE=Benzene, 1-fluoro-2-(trifluoromethyl)-
##JCAMP-DX=4.24
##DATA TYPE=INFRARED SPECTRUM
##ORIGIN=Sadtler Research Labs Under US-EPA Contract
##OWNER=NIST Standard Reference Data Program
##CAS REGISTRY NO=392-85-8
##MOLFORM=C 7 H 4 F 4
##XUNITS=1/CM
##YUNITS=ABSORBANCE
##XFACTOR=1.0
##YFACTOR=0.000185162
##DELTAX=4.0
##FIRSTX=450.0
##LASTX=3966.0
##FIRSTY=0.000000
##MAXX=3966
##MINX=450
##MAXY=1.85162
##MINY=0
##NPOINTS=880
##XYDATA=(X++(Y..Y))
450.0 0 179 275 269 326 344 372 372 349 341
490.0 236 180 193 257 233 251 331 345 368 428
530.0 527 520 517 486 426 275 236 239 263 213
570.0 221 212 193 214 226 264 263 291 260 220
610.0 214 189 213 180 237 184 219 443 731 822
650.0 854 801 478 257 190 212 184 208 206 198
690.0 185 189 193 189 195 187 203 180 207 196
730.0 217 244 319 505 855 1409 1722 2633 3061 1848
770.0 1571 996 548 340 253 225 227 233 214 215
810.0 217 233 258 357 503 699 734 683 712 492
850.0 359 274 249 245 244 258 254 258 243 238
890.0 223 223 215 208 198 194 193 195 206 206
930.0 226 247 288 309 371 370 309 275 239 217
970.0 202 200 202 200 209 197 207 197 204 205
1010.0 213 241 335 647 958 1133 1143 1052 784 681
1050.0 1120 1812 2302 2748 2630 1962 1120 647 453 396
1090.0 386 420 523 719 1115 1679 2084 2273 2381 2059
1130.0 1697 1575 1669 2045 2585 3384 4380 5780 7736 10000
1170.0 9619 8551 5591 3437 2266 1546 1140 874 711 614
1210.0 539 502 464 488 545 747 1181 1923 2441 2480
1250.0 2598 2249 1767 1798 2004 1970 1919 1577 1060 791
1290.0 722 769 926 1147 1437 2011 3215 5449 8116 9402
1330.0 8837 7219 4168 1869 945 634 479 440 429 415
1370.0 384 367 339 294 274 258 272 289 279 277
1410.0 279 258 290 274 286 302 359 424 498 634
1450.0 852 1183 1621 1946 1990 1929 1682 1148 866 939
1490.0 1214 1464 1693 1873 1739 1490 1196 807 558 385
1530.0 306 271 273 306 283 275 289 355 360 379
1570.0 434 499 576 689 805 931 1016 1056 1062 1091
1610.0 1197 1426 1650 1698 1584 1260 976 693 512 414
1650.0 382 343 299 276 275 270 281 241 264 263
1690.0 239 239 287 293 287 270 276 289 244 228
1730.0 239 264 231 228 236 243 229 230 231 221
1770.0 236 244 221 227 223 233 251 265 296 289
1810.0 291 281 253 233 226 228 221 219 229 238
1850.0 214 201 199 202 205 219 206 202 207 209
1890.0 217 214 214 214 218 230 247 270 291 279
1930.0 267 253 226 226 225 228 232 237 220 222
1970.0 207 196 193 191 193 199 200 197 197 199
2010.0 197 196 192 193 190 189 191 191 191 187
2050.0 184 186 190 201 212 222 235 241 244 238
2090.0 228 216 206 203 199 200 196 193 191 191
2130.0 193 192 191 191 193 196 197 198 197 197
2170.0 196 197 194 194 195 197 198 198 197 198
2210.0 201 204 208 213 218 222 218 213 206 201
2250.0 197 198 199 198 202 206 206 206 206 199
2290.0 199 191 192 190 192 190 206 214 214 214
2330.0 193 192 186 177 177 194 176 189 177 177
2370.0 177 177 177 177 177 188 198 196 197 196
2410.0 196 195 195 194 194 197 196 201 198 201
2450.0 199 199 198 193 192 192 198 204 210 216
2490.0 217 214 208 201 192 188 187 186 183 183
2530.0 182 180 183 182 185 184 187 187 189 192
2570.0 191 190 187 191 187 184 185 184 181 181
2610.0 177 180 179 179 182 185 185 186 191 190
2650.0 193 192 188 189 189 195 196 205 206 204
2690.0 198 189 185 183 184 181 181 180 179 179
2730.0 180 183 183 182 182 184 183 185 186 187
2770.0 190 187 183 185 183 181 184 181 181 183
2810.0 184 184 182 188 186 184 183 181 178 178
2850.0 177 178 181 181 183 185 186 182 183 186
2890.0 181 183 184 179 179 177 182 186 184 186
2930.0 195 192 191 195 198 195 195 191 189 189
2970.0 189 183 183 184 178 178 178 177 177 178
3010.0 186 185 192 199 210 216 223 223 222 219
3050.0 232 257 292 323 346 354 352 343 331 335
3090.0 341 340 334 319 302 278 243 222 207 197
3130.0 189 182 188 183 185 193 183 191 185 190
3170.0 184 187 190 188 188 188 191 188 196 187
3210.0 184 186 185 187 185 185 184 188 188 195
3250.0 193 196 190 184 189 192 198 192 190 190
3290.0 198 188 189 191 194 192 197 195 197 192
3330.0 196 195 198 195 196 188 197 190 194 192
3370.0 193 194 194 198 200 193 194 199 199 199
3410.0 200 201 202 204 208 197 196 212 199 203
3450.0 205 204 196 209 204 196 202 201 201 196
3490.0 198 193 201 203 200 193 193 197 200 200
3530.0 196 203 194 191 189 197 205 200 196 195
3570.0 198 197 203 201 209 205 202 194 193 205
3610.0 201 199 199 198 189 201 195 190 190 186
3650.0 189 178 184 192 188 202 182 193 177 189
3690.0 194 182 194 193 177 187 177 198 188 176
3730.0 190 194 177 184 200 182 193 178 188 189
3770.0 183 178 184 194 183 184 188 176 178 177
3810.0 177 185 177 184 195 184 182 188 190 188
3850.0 183 187 191 182 194 190 193 178 196 195
3890.0 212 186 203 199 198 193 195 202 207 201
3930.0 201 203 200 216 195 208 216 228 201 202
##END=
