##TITLE=Dodecamethylene dichloride
##JCAMP-DX=4.24
##DATA TYPE=INFRARED SPECTRUM
##ORIGIN=Sadtler Research Labs Under US-EPA Contract
##OWNER=NIST Standard Reference Data Program
##CAS REGISTRY NO=3922-28-9
##MOLFORM=C 12 H 24 Cl 2
##XUNITS=1/CM
##YUNITS=ABSORBANCE
##XFACTOR=1.0
##YFACTOR=0.000051367
##DELTAX=4.0
##FIRSTX=450.0
##LASTX=3966.0
##FIRSTY=0.009503
##MAXX=3966
##MINX=450
##MAXY=0.51367
##MINY=0
##NPOINTS=880
##XYDATA=(X++(Y..Y))
450.0 185 189 282 327 293 235 215 151 109 68
490.0 88 35 145 79 237 242 219 176 222 105
530.0 127 119 66 64 161 62 239 168 171 238
570.0 198 182 77 153 48 140 132 140 162 260
610.0 188 185 243 289 97 231 169 266 349 450
650.0 497 694 905 866 791 518 285 319 275 228
690.0 292 344 394 416 526 459 690 635 701 712
730.0 855 931 853 973 914 777 736 587 580 464
770.0 421 300 357 266 268 363 301 330 331 311
810.0 315 306 235 216 269 276 211 285 202 308
850.0 232 271 275 276 229 201 213 216 223 263
890.0 267 257 222 274 228 252 270 205 241 202
930.0 196 232 259 228 254 233 243 237 266 218
970.0 276 214 236 236 266 254 255 246 231 223
1010.0 213 202 204 211 219 196 261 244 224 243
1050.0 221 226 207 227 158 208 189 182 232 189
1090.0 166 214 152 152 114 111 135 156 142 144
1130.0 172 168 153 170 144 160 129 156 130 150
1170.0 146 159 188 174 192 153 201 130 162 166
1210.0 174 167 199 195 234 242 254 273 317 289
1250.0 348 383 400 457 488 522 598 661 726 796
1290.0 881 883 878 871 845 816 748 747 637 609
1330.0 517 471 448 453 456 502 498 478 450 457
1370.0 394 413 352 336 304 235 206 180 177 157
1410.0 193 193 202 255 293 345 414 511 665 813
1450.0 1048 1109 1158 1144 1049 881 661 488 329 259
1490.0 194 154 149 113 109 137 120 112 101 121
1530.0 94 92 61 59 82 74 82 67 69 96
1570.0 82 98 73 91 61 80 60 78 78 78
1610.0 91 90 82 86 68 79 69 66 75 65
1650.0 65 40 92 66 97 67 64 73 61 47
1690.0 73 54 53 65 89 71 100 68 97 88
1730.0 84 75 79 86 89 86 87 89 94 82
1770.0 80 48 67 68 43 67 46 63 75 74
1810.0 65 74 63 60 65 45 42 65 40 59
1850.0 52 62 61 61 50 39 52 40 42 52
1890.0 50 52 55 57 59 57 57 37 48 34
1930.0 48 35 51 39 52 54 56 50 55 35
1970.0 53 34 42 43 53 45 50 57 51 57
2010.0 45 48 50 40 49 49 49 48 48 59
2050.0 46 59 47 55 39 45 46 36 46 45
2090.0 43 61 48 49 43 50 40 42 35 33
2130.0 42 33 42 41 44 39 44 45 40 40
2170.0 39 39 39 38 58 38 58 36 37 37
2210.0 38 30 31 33 35 35 37 34 45 35
2250.0 34 43 22 35 33 33 33 37 36 47
2290.0 51 51 50 59 40 58 26 52 23 72
2330.0 51 89 63 77 85 26 19 23 9 74
2370.0 16 83 71 44 33 27 24 24 23 13
2410.0 25 22 16 23 24 24 30 22 23 24
2450.0 33 15 23 15 15 23 24 30 28 32
2490.0 43 22 26 24 24 24 23 23 34 46
2530.0 21 42 33 22 29 25 24 24 15 25
2570.0 25 43 26 60 23 39 39 35 42 34
2610.0 41 46 52 63 65 71 66 70 64 63
2650.0 75 62 88 67 108 103 101 122 114 100
2690.0 110 111 100 89 115 80 120 112 112 113
2730.0 122 114 101 112 97 105 121 103 124 118
2770.0 133 149 134 152 132 175 170 202 205 245
2810.0 251 293 337 390 431 498 536 693 827 1091
2850.0 1489 2103 2920 3759 4150 3785 3268 2722 2342 2119
2890.0 1942 1941 2085 2386 2816 3296 3908 4597 5750 7285
2930.0 9004 10000 9886 8868 7402 6020 4772 4063 3915 3638
2970.0 3151 2507 1939 1492 1235 1133 1180 1332 1185 917
3010.0 664 524 425 366 315 275 226 209 185 210
3050.0 154 174 144 164 122 118 119 92 84 96
3090.0 72 78 80 79 75 106 56 66 80 39
3130.0 56 37 33 49 62 41 64 77 47 57
3170.0 57 31 48 25 52 26 45 41 50 56
3210.0 50 39 49 30 27 24 45 22 39 46
3250.0 28 64 33 46 40 29 2 32 24 25
3290.0 39 33 32 56 21 42 30 47 12 30
3330.0 20 22 30 31 40 40 36 55 30 52
3370.0 11 20 41 31 41 50 50 27 66 42
3410.0 39 41 19 23 31 11 40 30 59 34
3450.0 88 35 52 28 19 29 34 26 33 39
3490.0 60 32 48 32 32 31 26 30 5 51
3530.0 7 46 52 31 50 69 33 42 30 28
3570.0 25 42 21 58 32 50 62 52 42 31
3610.0 34 16 28 29 16 38 41 46 42 32
3650.0 42 22 34 27 4 6 10 13 28 32
3690.0 26 23 35 2 24 2 6 3 2 2
3730.0 11 2 9 12 2 2 2 2 2 2
3770.0 2 7 0 21 1 23 1 2 2 2
3810.0 2 2 2 2 2 5 2 7 2 2
3850.0 2 2 2 2 2 2 2 22 2 16
3890.0 8 2 2 2 2 2 2 2 5 5
3930.0 35 35 22 17 1 2 2 2 2 2
##END=
