##TITLE=5-Amino-2-nitrobenzotrifluoride
##JCAMP-DX=4.24
##DATA TYPE=INFRARED SPECTRUM
##ORIGIN=Sadtler Research Labs Under US-EPA Contract
##OWNER=NIST Standard Reference Data Program
##CAS REGISTRY NO=393-11-3
##MOLFORM=C 7 H 5 F 3 N 2 O 2
##XUNITS=1/CM
##YUNITS=ABSORBANCE
##XFACTOR=1.0
##YFACTOR=0.000055176
##DELTAX=4.0
##FIRSTX=450.0
##LASTX=3966.0
##FIRSTY=0.012635
##MAXX=3966
##MINX=450
##MAXY=0.55176
##MINY=0
##NPOINTS=880
##XYDATA=(X++(Y..Y))
450.0 229 333 187 74 102 119 130 221 129 175
490.0 230 236 215 123 23 37 102 100 204 199
530.0 171 299 247 203 286 348 315 250 418 360
570.0 534 494 862 725 689 620 461 630 358 432
610.0 333 420 506 526 596 798 1056 1270 1263 1216
650.0 839 726 734 682 902 998 1039 1116 1396 1568
690.0 1350 1232 870 714 763 645 695 687 643 610
730.0 588 723 752 827 959 1083 1052 952 769 576
770.0 583 527 393 463 380 491 422 315 413 414
810.0 437 467 687 918 1241 1566 2021 1953 1597 1186
850.0 699 511 525 617 789 941 1194 1106 721 542
890.0 463 387 422 567 845 983 1129 1062 891 535
930.0 334 268 196 305 312 258 247 264 264 262
970.0 203 201 214 169 197 178 160 208 205 192
1010.0 241 274 272 238 407 603 1103 1791 2216 2185
1050.0 1781 1032 570 368 356 364 358 420 400 442
1090.0 475 461 448 527 615 716 852 1069 1369 1766
1130.0 2039 2265 2463 2748 3225 3720 4132 4143 4320 5315
1170.0 6787 8488 9699 10000 9103 7128 5080 3316 2308 1724
1210.0 1351 1155 1032 960 878 918 1005 1199 1674 2397
1250.0 3457 4492 5156 4913 4355 3429 2697 2098 1551 1144
1290.0 925 823 821 907 1127 1482 1919 2574 3604 5204
1330.0 6990 8105 7937 7101 6499 6838 7343 7057 5540 3406
1370.0 1825 1105 851 728 642 603 588 523 499 446
1410.0 433 432 396 406 499 667 952 1318 1850 2066
1450.0 1910 1508 805 576 456 486 453 611 788 992
1490.0 1147 1305 1248 1214 998 1003 1162 1218 1332 1623
1530.0 1963 2488 3395 4425 5640 6169 5738 4693 3691 3158
1570.0 2669 2349 2015 1881 1799 1871 2021 2194 2253 2152
1610.0 1962 1952 2331 3327 4258 4798 4575 3582 2579 1632
1650.0 1005 471 520 426 357 267 237 220 218 84
1690.0 198 201 98 56 141 199 136 41 140 159
1730.0 126 39 125 128 136 118 116 107 84 106
1770.0 67 19 93 78 84 61 13 43 44 52
1810.0 52 54 52 75 37 21 45 47 42 7
1850.0 36 43 43 51 42 15 63 62 82 83
1890.0 92 97 110 97 76 56 65 38 57 57
1930.0 72 63 66 74 63 82 71 70 71 62
1970.0 53 60 60 51 59 58 57 64 43 51
2010.0 56 58 48 48 48 48 47 45 48 46
2050.0 52 46 51 56 51 53 44 44 61 52
2090.0 70 49 43 43 26 28 23 16 31 31
2130.0 32 30 41 39 42 32 42 44 55 53
2170.0 55 54 55 55 44 53 45 43 41 35
2210.0 34 34 33 33 30 38 30 32 23 23
2250.0 34 27 14 21 35 28 46 43 47 53
2290.0 55 72 82 97 109 109 106 95 100 119
2330.0 82 97 122 110 130 149 158 171 193 169
2370.0 157 130 104 108 96 67 55 47 38 29
2410.0 27 27 25 19 15 14 13 0 20 7
2450.0 20 18 19 28 12 19 15 15 15 22
2490.0 28 32 23 16 16 25 26 34 36 26
2530.0 27 17 29 38 42 34 39 30 30 39
2570.0 58 41 49 48 42 45 58 48 36 59
2610.0 53 53 46 55 62 85 75 84 77 69
2650.0 61 73 70 68 68 60 68 69 68 65
2690.0 63 73 82 71 60 65 58 65 45 49
2730.0 40 66 59 61 57 69 69 70 59 65
2770.0 62 62 53 54 54 55 55 64 47 51
2810.0 57 57 51 51 44 62 76 69 61 60
2850.0 44 75 88 94 106 108 130 122 132 156
2890.0 164 165 154 157 139 136 133 117 113 109
2930.0 105 116 108 88 108 107 88 92 84 79
2970.0 104 100 79 77 86 86 86 95 96 96
3010.0 106 105 104 122 140 143 159 162 162 189
3050.0 189 245 264 270 255 234 167 192 196 200
3090.0 177 169 121 108 98 107 110 98 108 96
3130.0 93 109 94 93 75 89 100 79 87 87
3170.0 85 107 103 93 112 125 133 129 138 159
3210.0 171 191 200 181 185 187 160 135 133 118
3250.0 133 110 112 97 119 106 98 108 117 92
3290.0 106 96 91 80 102 83 135 123 110 121
3330.0 103 133 123 146 129 141 144 156 158 137
3370.0 168 165 172 183 181 189 231 216 291 317
3410.0 397 526 736 840 869 836 752 737 809 849
3450.0 755 586 364 238 145 151 157 176 166 193
3490.0 221 212 261 338 375 444 390 367 309 262
3530.0 293 323 349 353 306 285 197 141 117 85
3570.0 38 89 102 107 87 68 97 80 81 91
3610.0 51 61 62 54 98 13 65 77 84 81
3650.0 5 77 60 98 99 55 35 14 82 82
3690.0 61 87 106 90 109 72 68 109 86 74
3730.0 78 24 28 74 4 37 82 98 98 116
3770.0 130 125 120 131 117 138 136 154 93 140
3810.0 118 130 103 96 132 122 122 116 120 125
3850.0 109 75 130 197 170 172 191 182 152 156
3890.0 139 134 137 149 139 163 167 141 133 141
3930.0 142 143 141 137 158 182 15 28 29 29
##END=
