##TITLE=Benzoyl chloride, 2-fluoro-
##JCAMP-DX=4.24
##DATA TYPE=INFRARED SPECTRUM
##ORIGIN=Sadtler Research Labs Under US-EPA Contract
##OWNER=NIST Standard Reference Data Program
##CAS REGISTRY NO=393-52-2
##MOLFORM=C 7 H 4 Cl F O
##XUNITS=1/CM
##YUNITS=ABSORBANCE
##XFACTOR=1.0
##YFACTOR=0.000072934
##DELTAX=4.0
##FIRSTX=450.0
##LASTX=3966.0
##FIRSTY=0.093939
##MAXX=3966
##MINX=450
##MAXY=0.72934
##MINY=0
##NPOINTS=880
##XYDATA=(X++(Y..Y))
450.0 1288 1135 1467 1708 1780 1632 1313 790 452 285
490.0 227 228 283 325 389 390 396 370 324 324
530.0 374 469 496 436 352 212 109 98 59 113
570.0 118 102 142 72 61 75 17 62 84 79
610.0 180 286 438 525 740 1037 1269 1475 1900 2401
650.0 3200 3685 3438 3045 2352 1306 995 685 352 239
690.0 187 128 140 88 110 122 116 137 214 318
730.0 479 710 1146 1239 1554 2281 3036 3903 5032 3431
770.0 2429 1766 1176 1142 1808 3170 4648 5014 4751 3806
810.0 1976 1141 892 775 655 482 326 329 352 401
850.0 495 613 837 1172 1735 2490 3659 5449 7831 9616
890.0 9792 8517 6128 3669 2098 1232 904 771 719 756
930.0 805 848 850 723 592 461 381 272 221 206
970.0 187 213 240 244 243 264 285 311 346 324
1010.0 315 318 354 391 455 461 448 415 369 312
1050.0 270 272 272 253 244 209 196 173 177 187
1090.0 241 352 489 773 1117 1441 1593 1405 1129 704
1130.0 348 252 293 482 1015 1836 2110 2089 1757 939
1170.0 586 729 1178 1927 3038 4541 5420 5451 4704 3126
1210.0 1764 1161 841 793 939 1249 1722 2387 3019 3057
1250.0 2979 2492 1659 1381 1718 2533 3330 3733 3510 2663
1290.0 1641 1010 673 480 363 270 207 146 123 119
1330.0 128 125 159 162 149 159 151 145 139 125
1370.0 110 132 118 108 125 113 100 105 94 89
1410.0 90 75 117 88 112 146 255 372 632 1080
1450.0 1720 2276 2349 2314 1823 1434 1627 2336 3287 3821
1490.0 4019 3795 2853 1904 1273 774 443 301 258 208
1530.0 190 143 138 147 131 125 147 196 250 360
1570.0 527 748 996 1276 1415 1489 1552 1643 2093 3054
1610.0 3566 3401 2783 1699 824 440 296 180 128 86
1650.0 112 85 96 92 125 131 163 174 221 229
1690.0 232 231 286 318 387 450 514 573 583 600
1730.0 688 841 1014 1265 1677 2206 2801 3401 3926 4204
1770.0 4189 3899 3630 3517 3644 4564 6569 9171 9746 10000
1810.0 9007 5880 3724 2491 1854 1506 1190 858 622 440
1850.0 298 197 143 100 94 79 59 42 39 55
1890.0 57 60 69 66 73 81 96 113 161 187
1930.0 185 171 131 91 65 68 95 106 106 84
1970.0 60 38 32 31 38 51 42 36 27 21
2010.0 8 13 17 14 25 18 25 34 38 35
2050.0 36 22 27 33 29 40 47 53 46 46
2090.0 26 28 20 15 12 10 6 7 7 12
2130.0 5 6 20 6 6 7 7 3 7 7
2170.0 13 11 8 14 8 7 7 7 7 7
2210.0 7 9 9 9 14 10 9 8 10 10
2250.0 23 21 24 37 28 43 36 41 35 29
2290.0 30 28 38 33 43 47 35 44 33 41
2330.0 18 9 30 48 49 31 35 55 33 0
2370.0 11 33 32 42 43 45 49 58 51 58
2410.0 44 36 36 17 23 21 29 29 23 21
2450.0 19 18 19 26 25 37 48 44 42 43
2490.0 42 41 33 26 18 26 12 12 20 26
2530.0 19 16 16 19 23 18 11 19 32 32
2570.0 33 32 44 43 36 41 46 46 42 49
2610.0 33 21 13 13 19 13 21 19 16 24
2650.0 25 15 4 7 13 21 27 41 41 42
2690.0 45 29 35 38 42 33 27 36 35 35
2730.0 48 42 28 28 37 43 53 42 47 44
2770.0 38 36 38 36 37 28 48 65 56 50
2810.0 32 36 37 39 21 18 24 24 25 30
2850.0 30 31 31 35 51 40 48 47 43 38
2890.0 31 31 24 26 28 17 30 20 26 32
2930.0 37 18 20 32 53 26 28 21 21 28
2970.0 23 28 21 41 29 33 54 60 47 47
3010.0 55 76 60 86 83 94 64 95 107 167
3050.0 183 223 223 201 199 199 255 326 381 500
3090.0 567 573 501 384 222 116 61 36 27 22
3130.0 33 24 32 22 26 17 34 25 36 44
3170.0 29 45 31 33 21 31 24 24 19 18
3210.0 5 17 3 31 17 9 33 10 8 11
3250.0 23 15 14 23 24 26 13 26 35 21
3290.0 24 24 30 21 10 27 34 27 25 19
3330.0 5 27 19 11 30 14 30 26 26 12
3370.0 11 26 26 26 26 33 29 18 24 20
3410.0 28 22 22 30 30 33 42 21 30 22
3450.0 35 35 43 48 43 24 47 49 53 69
3490.0 29 50 59 49 55 47 27 31 57 34
3530.0 75 55 67 97 79 72 79 116 144 180
3570.0 211 210 211 186 171 117 99 80 57 65
3610.0 66 43 48 33 39 30 40 26 39 37
3650.0 26 44 28 33 28 52 63 52 44 43
3690.0 52 54 68 43 68 51 59 54 58 52
3730.0 79 41 38 42 40 48 46 50 54 60
3770.0 60 68 54 43 63 60 38 28 38 50
3810.0 59 41 45 56 59 57 53 47 58 46
3850.0 51 75 63 65 53 50 60 70 62 62
3890.0 54 43 53 55 66 64 56 55 52 55
3930.0 58 70 78 77 81 85 83 91 97 93
##END=
