##TITLE=1,1'-Biphenyl, 4-phenoxy-
##JCAMP-DX=4.24
##DATA TYPE=INFRARED SPECTRUM
##ORIGIN=Sadtler Research Labs Under US-EPA Contract
##OWNER=NIST Standard Reference Data Program
##CAS REGISTRY NO=3933-94-6
##MOLFORM=C 18 H 14 O
##XUNITS=1/CM
##YUNITS=ABSORBANCE
##XFACTOR=1.0
##YFACTOR=0.000076172
##DELTAX=4.0
##FIRSTX=450.0
##LASTX=3966.0
##FIRSTY=0.019957
##MAXX=3966
##MINX=450
##MAXY=0.76172
##MINY=0
##NPOINTS=880
##XYDATA=(X++(Y..Y))
450.0 262 239 356 384 358 358 516 487 513 504
490.0 403 333 348 123 367 231 161 157 148 123
530.0 314 276 496 414 322 234 253 198 165 277
570.0 253 404 337 44 150 188 52 297 44 316
610.0 217 161 307 371 211 367 302 391 315 322
650.0 273 457 410 456 500 417 500 761 1005 1572
690.0 2026 2055 2057 1443 1169 955 696 764 850 662
730.0 772 813 816 884 1389 1684 2181 2222 1825 1329
770.0 851 499 588 422 513 535 461 536 482 439
810.0 508 515 455 587 696 805 961 1091 1031 1092
850.0 860 851 943 1047 1732 2216 1427 780 413 353
890.0 415 350 316 405 360 322 347 268 273 244
930.0 186 261 311 228 319 268 298 311 279 295
970.0 361 249 286 301 293 293 350 359 591 920
1010.0 886 648 499 533 570 404 400 465 325 338
1050.0 382 335 400 458 482 596 479 424 401 400
1090.0 366 509 530 576 576 513 483 525 396 462
1130.0 462 457 512 478 489 634 695 880 1309 2032
1170.0 2260 1736 1249 1071 999 891 1006 1069 1162 1335
1210.0 1550 1826 2600 3397 4590 5920 7410 9305 10000 8780
1250.0 6692 4630 3295 2598 2127 1720 1551 1428 1366 1365
1290.0 1150 937 799 661 612 558 438 532 485 485
1330.0 508 475 403 407 346 365 361 312 303 382
1370.0 307 301 346 321 338 317 262 323 302 296
1410.0 364 308 336 330 357 377 439 440 613 717
1450.0 793 850 890 1005 1199 1471 2195 3644 5434 7367
1490.0 8046 5909 3399 2045 1736 2189 2564 2258 1534 939
1530.0 597 438 358 246 326 322 311 325 336 551
1570.0 670 929 1334 1778 2225 2824 2870 2412 1807 1319
1610.0 985 818 579 490 384 296 261 217 206 190
1650.0 201 67 229 194 214 186 152 159 183 75
1690.0 167 154 128 92 172 160 188 105 162 184
1730.0 177 105 188 130 165 175 148 189 208 224
1770.0 227 195 221 210 166 176 176 198 130 156
1810.0 121 125 123 123 130 124 105 167 143 127
1850.0 174 162 164 196 187 188 219 223 232 240
1890.0 223 204 184 131 155 140 137 162 177 195
1930.0 244 223 263 248 249 248 242 203 175 141
1970.0 112 111 124 94 124 118 119 148 121 143
2010.0 159 146 174 185 170 186 177 175 156 136
2050.0 123 133 108 115 125 128 108 140 93 109
2090.0 115 104 107 103 105 118 87 85 90 85
2130.0 66 73 78 66 70 64 68 80 81 82
2170.0 100 76 102 76 82 100 78 65 75 66
2210.0 65 44 52 51 63 42 62 65 52 58
2250.0 70 62 85 85 87 116 98 107 103 95
2290.0 100 113 105 128 142 155 151 198 173 263
2330.0 254 290 359 351 291 259 208 326 362 373
2370.0 359 309 233 167 132 106 121 130 135 162
2410.0 163 127 165 142 148 158 156 156 157 128
2450.0 143 107 118 105 107 80 101 94 84 90
2490.0 98 78 109 86 101 111 85 125 104 93
2530.0 84 82 80 79 69 89 79 89 61 101
2570.0 81 88 98 89 88 105 72 110 92 104
2610.0 99 81 89 89 61 60 74 70 58 71
2650.0 71 65 87 59 105 76 70 103 98 75
2690.0 120 70 94 84 79 74 93 64 71 80
2730.0 65 80 103 71 102 102 80 113 81 96
2770.0 115 82 93 107 79 111 82 76 77 99
2810.0 67 92 93 100 109 106 102 147 89 129
2850.0 138 106 122 136 98 135 103 110 129 115
2890.0 114 122 122 112 161 112 132 148 133 152
2930.0 176 116 193 106 145 165 109 121 165 125
2970.0 143 139 153 178 182 167 213 232 206 279
3010.0 302 331 433 457 598 851 1041 1322 1295 1103
3050.0 936 823 787 952 1127 1375 1417 1276 1086 1026
3090.0 831 743 693 540 488 405 253 269 204 163
3130.0 183 141 131 133 116 109 157 123 142 149
3170.0 112 113 170 81 155 95 84 119 81 57
3210.0 131 41 98 86 72 113 122 107 129 151
3250.0 116 138 133 106 150 93 53 146 65 93
3290.0 104 80 97 101 59 128 127 121 113 122
3330.0 104 150 113 121 168 116 95 171 100 126
3370.0 100 53 140 83 55 149 111 76 163 134
3410.0 139 139 134 124 178 97 131 135 86 113
3450.0 119 60 150 90 75 128 120 113 146 96
3490.0 146 141 100 118 151 111 132 149 84 156
3530.0 90 98 135 68 68 136 58 131 104 91
3570.0 114 139 114 151 121 126 134 123 78 128
3610.0 61 47 84 29 79 84 67 111 143 152
3650.0 207 208 216 188 110 41 87 33 54 67
3690.0 26 19 63 3 46 7 2 2 2 2
3730.0 8 1 2 8 2 2 2 2 2 2
3770.0 2 2 2 2 2 2 2 2 2 2
3810.0 2 2 2 2 2 2 2 2 2 2
3850.0 2 2 2 2 2 2 2 2 2 2
3890.0 2 2 2 2 2 0 11 2 19 2
3930.0 2 2 2 2 2 2 2 2 2 2
##END=
