##TITLE=Acetic acid, methoxy-, ethyl ester
##JCAMP-DX=4.24
##DATA TYPE=INFRARED SPECTRUM
##ORIGIN=Sadtler Research Labs Under US-EPA Contract
##OWNER=NIST Standard Reference Data Program
##CAS REGISTRY NO=3938-96-3
##MOLFORM=C 5 H 10 O 3
##XUNITS=1/CM
##YUNITS=ABSORBANCE
##XFACTOR=1.0
##YFACTOR=0.000093567
##DELTAX=4.0
##FIRSTX=450.0
##LASTX=3966.0
##FIRSTY=0.004865
##MAXX=3966
##MINX=450
##MAXY=0.93567
##MINY=0
##NPOINTS=880
##XYDATA=(X++(Y..Y))
450.0 52 54 49 53 47 57 77 78 48 61
490.0 12 55 59 57 19 35 38 67 1 9
530.0 13 27 39 37 41 48 9 67 166 101
570.0 161 239 254 252 226 308 315 311 303 280
610.0 282 286 289 281 281 232 229 214 214 204
650.0 188 184 193 188 186 237 218 222 233 237
690.0 274 271 292 333 331 361 348 361 349 318
730.0 303 297 286 260 256 245 231 216 214 221
770.0 204 204 204 188 188 218 207 206 196 196
810.0 190 178 158 163 167 167 193 232 266 321
850.0 371 414 429 429 402 364 307 266 240 224
890.0 246 279 344 424 506 592 654 720 782 838
930.0 893 955 1004 1019 980 881 761 632 517 440
970.0 391 363 347 390 420 449 481 514 596 709
1010.0 854 1062 1342 1695 2075 2396 2612 2706 2636 2444
1050.0 2190 1935 1708 1487 1303 1160 1096 1091 1170 1330
1090.0 1562 1847 2151 2453 2796 3219 3793 4612 5747 7070
1130.0 8349 9207 9281 8608 7637 6356 5263 4679 4530 4687
1170.0 5086 5815 6875 8145 9349 10000 9833 8910 7460 5837
1210.0 4533 3672 3140 2855 2721 2690 2712 2772 2874 2983
1250.0 3107 3282 3458 3663 3833 3911 3887 3735 3477 3113
1290.0 2757 2465 2235 2051 1870 1688 1508 1295 1099 937
1330.0 814 719 663 636 679 729 766 838 936 1022
1370.0 1168 1283 1306 1310 1232 1009 866 703 622 596
1410.0 562 576 572 569 601 692 725 806 859 950
1450.0 1030 1065 1064 1008 1004 944 850 734 673 564
1490.0 477 392 340 269 296 186 175 181 162 145
1530.0 122 175 140 142 96 127 133 146 118 111
1570.0 131 106 134 109 134 129 135 132 146 134
1610.0 133 130 139 126 110 134 110 134 113 138
1650.0 103 162 101 130 120 161 125 163 156 192
1690.0 198 232 266 325 356 422 500 618 736 949
1730.0 1256 1736 2431 3364 4439 5435 6068 6906 7534 7642
1770.0 7469 6926 6361 5659 4599 3618 2769 2090 1562 1187
1810.0 947 750 628 528 456 381 300 261 218 193
1850.0 167 161 157 151 140 140 135 140 137 137
1890.0 146 129 132 122 111 105 87 96 69 70
1930.0 71 71 65 63 54 59 59 55 56 56
1970.0 52 50 56 60 56 50 48 51 53 56
2010.0 56 53 61 58 65 66 82 86 97 103
2050.0 110 112 121 128 128 129 139 134 133 123
2090.0 119 111 110 107 105 97 99 97 91 87
2130.0 87 86 85 85 85 84 79 76 69 61
2170.0 56 51 50 50 48 43 43 44 37 39
2210.0 35 35 37 37 38 38 28 38 33 38
2250.0 31 27 28 24 28 24 26 25 31 30
2290.0 34 37 47 52 61 66 71 75 69 71
2330.0 58 52 55 49 34 46 81 64 34 5
2370.0 0 0 17 21 28 41 41 41 48 47
2410.0 47 36 29 30 30 20 21 21 15 20
2450.0 15 15 16 15 16 20 22 18 22 14
2490.0 18 11 9 11 10 0 6 0 1 0
2530.0 2 1 0 6 6 0 6 10 10 17
2570.0 16 16 15 6 10 15 10 16 27 15
2610.0 18 22 16 18 17 28 29 27 30 29
2650.0 30 37 44 40 42 39 50 45 39 34
2690.0 34 34 38 34 44 57 54 56 64 71
2730.0 71 76 77 83 87 91 95 97 104 107
2770.0 117 133 145 165 182 199 231 266 314 385
2810.0 473 598 758 941 1132 1277 1379 1376 1310 1200
2850.0 1089 1004 960 945 981 1049 1143 1281 1435 1571
2890.0 1667 1760 1824 1849 1877 1913 1957 2014 2098 2203
2930.0 2292 2391 2466 2501 2471 2412 2373 2273 2190 2144
2970.0 2166 2240 2421 2701 2903 3046 3137 3071 2694 2337
3010.0 1989 1587 1210 936 727 591 475 399 345 305
3050.0 272 244 233 211 190 181 166 157 148 143
3090.0 135 128 116 114 110 109 98 99 94 87
3130.0 80 83 79 70 65 67 64 58 58 53
3170.0 42 55 45 44 46 46 42 48 43 38
3210.0 39 48 39 38 33 32 35 27 24 25
3250.0 33 28 23 26 8 18 13 19 26 28
3290.0 12 27 10 20 23 10 15 8 24 25
3330.0 19 21 13 11 5 4 3 1 13 10
3370.0 8 5 14 5 15 19 13 8 14 10
3410.0 7 19 28 4 3 11 5 4 10 24
3450.0 10 24 19 29 48 32 41 65 74 80
3490.0 104 90 120 116 98 95 108 104 92 91
3530.0 89 64 67 52 53 34 41 50 78 89
3570.0 92 91 107 105 113 91 74 74 51 17
3610.0 47 54 45 40 35 53 7 39 37 49
3650.0 56 16 34 33 51 75 45 37 30 50
3690.0 54 32 36 34 34 47 15 11 14 24
3730.0 43 58 29 31 47 20 28 12 17 29
3770.0 22 19 33 25 37 36 39 47 54 38
3810.0 27 38 24 31 22 42 41 43 30 36
3850.0 60 61 43 50 34 47 49 60 34 34
3890.0 34 52 52 34 29 42 40 50 51 53
3930.0 52 44 51 55 58 74 82 80 64 51
##END=
