##TITLE=Ethyl 3,4-dihydroxybenzoate
##JCAMP-DX=4.24
##DATA TYPE=INFRARED SPECTRUM
##ORIGIN=Sadtler Research Labs Under US-EPA Contract
##OWNER=NIST Standard Reference Data Program
##CAS REGISTRY NO=3943-89-3
##MOLFORM=C 9 H 10 O 4
##XUNITS=1/CM
##YUNITS=ABSORBANCE
##XFACTOR=1.0
##YFACTOR=0.000071878
##DELTAX=4.0
##FIRSTX=450.0
##LASTX=3966.0
##FIRSTY=0.035436
##MAXX=3966
##MINX=450
##MAXY=0.71878
##MINY=0
##NPOINTS=880
##XYDATA=(X++(Y..Y))
450.0 493 427 317 264 264 168 173 171 123 137
490.0 113 95 94 99 96 72 91 59 72 76
530.0 76 91 41 44 62 86 46 97 103 88
570.0 121 188 222 254 240 189 99 68 32 25
610.0 19 1 49 78 106 199 268 303 287 189
650.0 115 70 78 34 42 29 30 44 20 17
690.0 27 40 69 63 81 85 114 107 125 135
730.0 108 75 88 107 169 326 566 894 1354 1667
770.0 1611 1438 1168 869 586 359 211 151 135 147
810.0 178 208 250 294 311 336 316 263 212 171
850.0 157 182 214 262 310 349 352 339 362 356
890.0 367 383 430 441 381 268 199 188 234 326
930.0 488 701 840 839 671 450 280 182 137 122
970.0 103 108 118 123 153 175 211 257 316 420
1010.0 563 747 924 1016 985 851 685 576 503 484
1050.0 470 475 505 568 675 837 1129 1609 2256 2919
1090.0 3426 3656 3834 4013 3967 3690 2918 2192 1646 1185
1130.0 969 892 912 1055 1394 1801 2121 2318 2346 2290
1170.0 2156 1962 1817 1788 1917 2172 2473 2857 3350 4139
1210.0 5468 7170 8406 8207 6558 4262 2588 1755 1382 1260
1250.0 1265 1339 1503 1895 2555 3335 4213 5359 6950 8868
1290.0 10000 9390 7156 4690 3087 2386 2023 1683 1339 1047
1330.0 886 828 819 806 762 697 655 702 878 1153
1370.0 1302 1233 1007 771 636 587 587 559 541 510
1410.0 497 502 524 613 760 1035 1415 1827 1961 1772
1450.0 1345 966 781 752 761 760 722 658 593 554
1490.0 551 595 688 885 1175 1482 1717 1785 1696 1445
1530.0 1107 741 449 276 199 175 151 146 164 186
1570.0 219 277 349 462 610 773 968 1207 1445 1646
1610.0 1736 1694 1501 1239 947 674 471 355 303 269
1650.0 254 268 277 301 326 350 387 442 481 537
1690.0 593 650 683 737 775 849 939 1123 1495 2160
1730.0 3158 4226 4851 4665 3711 2287 1211 653 364 245
1770.0 177 150 149 146 142 123 99 81 63 54
1810.0 40 33 31 22 19 13 13 12 11 8
1850.0 13 17 23 24 25 27 37 48 53 51
1890.0 52 47 40 37 32 27 21 20 12 15
1930.0 14 16 17 15 22 24 24 26 21 18
1970.0 20 15 16 16 19 13 15 13 14 13
2010.0 12 10 9 17 22 29 35 36 46 51
2050.0 55 56 52 47 43 40 40 38 34 33
2090.0 31 27 22 23 18 19 15 12 13 16
2130.0 14 15 15 13 17 19 22 18 17 14
2170.0 10 9 5 5 0 1 0 2 2 3
2210.0 5 5 8 10 11 9 14 12 13 12
2250.0 10 14 12 10 11 17 17 22 24 21
2290.0 28 30 33 39 40 37 49 48 58 60
2330.0 68 74 64 94 67 55 87 76 89 83
2370.0 81 72 68 54 42 37 40 36 33 31
2410.0 27 29 25 23 23 25 22 23 27 23
2450.0 29 30 31 36 34 35 38 36 33 38
2490.0 39 41 42 45 44 40 42 33 37 39
2530.0 43 46 46 49 43 37 34 32 35 32
2570.0 30 29 32 34 33 35 34 28 32 30
2610.0 33 34 38 44 37 39 39 37 36 35
2650.0 35 30 36 36 39 36 41 40 43 45
2690.0 46 43 41 40 38 36 34 40 39 43
2730.0 43 43 46 46 48 48 48 48 50 50
2770.0 51 57 59 65 67 64 63 68 68 66
2810.0 68 70 80 87 89 97 99 108 114 123
2850.0 133 149 166 180 200 220 236 263 300 326
2890.0 342 348 356 380 403 428 441 448 450 453
2930.0 467 510 578 646 683 670 641 620 641 692
2970.0 755 827 944 1093 1169 1116 957 793 666 572
3010.0 487 412 352 305 269 245 240 225 224 217
3050.0 207 196 186 185 196 204 212 208 196 184
3090.0 167 154 145 136 125 123 117 116 119 118
3130.0 117 120 122 120 118 116 117 120 119 120
3170.0 124 124 121 126 130 133 131 135 137 139
3210.0 136 140 138 141 141 144 141 133 141 141
3250.0 142 140 137 145 147 149 150 156 151 156
3290.0 157 156 156 154 156 153 154 151 159 158
3330.0 159 157 156 163 170 166 167 169 170 166
3370.0 166 168 166 169 161 162 164 158 157 157
3410.0 151 147 146 154 150 137 137 144 147 149
3450.0 147 147 144 134 132 123 113 108 109 101
3490.0 93 91 91 96 97 91 82 82 75 85
3530.0 77 74 74 61 75 69 57 60 63 87
3570.0 117 159 274 480 784 1140 1523 1803 1820 1670
3610.0 1224 772 419 175 122 129 130 175 253 383
3650.0 597 845 1130 1209 1069 803 463 215 86 25
3690.0 22 5 1 0 0 0 0 0 0 0
3730.0 0 0 0 0 0 0 0 0 0 0
3770.0 0 0 0 0 0 0 0 0 0 0
3810.0 0 0 0 0 0 0 0 0 0 0
3850.0 0 0 0 0 0 0 0 0 0 0
3890.0 0 0 0 0 0 0 0 0 0 0
3930.0 0 0 0 0 0 0 0 0 0 0
##END=
