##TITLE=Benzoic acid, 4-hydroxy-3-methoxy-, methyl ester
##JCAMP-DX=4.24
##DATA TYPE=INFRARED SPECTRUM
##ORIGIN=Sadtler Research Labs Under US-EPA Contract
##OWNER=NIST Standard Reference Data Program
##CAS REGISTRY NO=3943-74-6
##MOLFORM=C 9 H 10 O 4
##XUNITS=1/CM
##YUNITS=ABSORBANCE
##XFACTOR=1.0
##YFACTOR=0.000110086
##DELTAX=4.0
##FIRSTX=450.0
##LASTX=3966.0
##FIRSTY=0.000000
##MAXX=3966
##MINX=450
##MAXY=1.10086
##MINY=0
##NPOINTS=880
##XYDATA=(X++(Y..Y))
450.0 0 302 315 466 331 451 391 465 346 422
490.0 325 298 272 195 224 143 196 139 184 155
530.0 176 179 183 218 193 242 278 388 368 349
570.0 332 259 235 218 247 169 191 184 203 215
610.0 229 213 211 228 265 350 405 464 404 332
650.0 232 192 172 158 176 193 174 165 178 168
690.0 165 157 157 155 170 183 189 217 225 240
730.0 221 222 220 224 280 384 609 873 1274 1727
770.0 1690 1593 1280 837 523 400 415 402 432 391
810.0 316 266 265 288 345 395 407 354 310 268
850.0 247 224 228 233 268 333 417 505 565 595
890.0 569 516 451 392 335 301 277 263 259 237
930.0 233 218 212 210 218 219 221 242 258 300
970.0 349 428 518 614 700 757 757 692 578 470
1010.0 437 485 598 746 931 1096 1206 1195 1065 870
1050.0 658 495 405 372 378 420 505 663 918 1266
1090.0 1651 1978 2136 2109 1970 1821 1737 1644 1507 1309
1130.0 1032 767 604 528 513 543 604 705 831 962
1170.0 1095 1231 1389 1574 1811 2121 2552 3125 3845 4628
1210.0 5536 6405 6876 6479 5271 3672 2338 1622 1305 1212
1250.0 1244 1361 1555 1908 2596 3793 5548 7435 9227 10000
1290.0 9336 7372 5014 3084 1945 1348 1024 827 712 643
1330.0 602 574 526 511 520 526 558 631 748 923
1370.0 1082 1140 1097 964 755 581 476 427 443 475
1410.0 509 609 675 927 1184 1582 2102 2416 2305 1823
1450.0 1145 941 995 1079 1127 1043 907 762 662 571
1490.0 595 760 994 1666 2273 3009 2992 2550 1645 986
1530.0 648 494 371 317 276 318 294 266 307 338
1570.0 386 414 515 617 774 947 1140 1407 1485 1602
1610.0 1511 1397 1095 863 599 433 334 286 288 252
1650.0 242 219 261 246 265 228 230 267 246 278
1690.0 328 400 334 406 391 464 466 662 1056 1648
1730.0 2750 3711 4919 5070 4572 3169 1676 899 599 485
1770.0 453 384 433 395 394 332 302 256 203 211
1810.0 183 183 167 184 158 157 157 169 148 139
1850.0 165 171 177 173 177 154 181 183 193 195
1890.0 192 198 191 192 176 173 160 166 155 158
1930.0 165 157 162 146 154 157 159 159 161 156
1970.0 162 173 172 179 177 173 166 174 170 168
2010.0 165 164 164 162 170 168 176 173 183 192
2050.0 200 209 213 217 211 219 215 212 210 206
2090.0 200 200 199 193 191 181 177 168 164 161
2130.0 160 158 158 160 158 160 159 157 156 159
2170.0 157 154 154 150 153 145 147 145 145 142
2210.0 142 140 135 136 134 135 137 139 138 138
2250.0 140 140 139 140 143 143 150 150 155 157
2290.0 162 168 172 176 178 187 187 181 182 175
2330.0 168 165 159 164 174 173 172 165 175 169
2370.0 167 169 174 174 162 159 152 149 147 149
2410.0 149 149 147 144 145 142 143 141 142 139
2450.0 142 143 142 143 146 153 153 158 160 168
2490.0 169 169 171 168 168 166 160 158 157 154
2530.0 155 155 158 157 150 145 142 140 142 146
2570.0 151 153 154 151 151 148 149 149 148 148
2610.0 153 152 150 151 153 158 156 164 168 173
2650.0 180 186 182 177 170 163 162 154 151 151
2690.0 149 146 147 144 145 146 149 152 150 156
2730.0 155 160 157 160 162 160 162 162 166 165
2770.0 166 166 164 166 163 167 168 174 179 184
2810.0 187 195 204 217 230 245 267 300 364 439
2850.0 496 509 478 417 362 323 304 295 298 308
2890.0 320 340 353 363 379 402 430 449 461 463
2930.0 457 459 505 591 734 909 1148 1391 1432 1304
2970.0 1036 753 595 508 464 460 474 511 566 625
3010.0 690 702 654 570 469 409 366 333 305 279
3050.0 266 260 261 268 272 283 296 313 325 331
3090.0 305 274 245 224 215 202 199 196 189 188
3130.0 183 185 178 176 171 169 167 160 164 158
3170.0 157 155 160 160 160 160 155 160 159 162
3210.0 157 157 155 158 153 151 150 148 150 156
3250.0 151 148 157 155 154 153 151 149 150 153
3290.0 148 147 145 148 150 147 147 152 147 142
3330.0 151 148 149 147 147 152 151 155 152 150
3370.0 151 148 141 145 142 144 141 141 141 141
3410.0 149 142 146 144 145 150 147 149 147 155
3450.0 156 160 167 163 160 154 145 149 144 136
3490.0 134 135 149 144 153 155 157 160 167 172
3530.0 173 179 180 190 209 242 299 404 587 928
3570.0 1426 1895 2180 2126 1745 1213 753 448 313 250
3610.0 219 206 189 181 180 189 171 180 207 217
3650.0 219 190 165 160 159 163 167 157 157 148
3690.0 164 151 153 160 151 160 165 150 157 170
3730.0 163 171 169 154 172 172 177 152 152 153
3770.0 157 147 135 147 142 147 140 156 151 154
3810.0 136 146 156 145 158 150 147 154 158 153
3850.0 157 174 173 155 153 161 165 159 160 163
3890.0 159 160 156 153 155 149 155 153 159 148
3930.0 153 144 135 150 164 147 148 153 157 158
##END=
