##TITLE=Undecane, 2-bromo-
##JCAMP-DX=4.24
##DATA TYPE=INFRARED SPECTRUM
##ORIGIN=Sadtler Research Labs Under US-EPA Contract
##OWNER=NIST Standard Reference Data Program
##CAS REGISTRY NO=39563-54-7
##MOLFORM=C 11 H 23 Br
##XUNITS=1/CM
##YUNITS=ABSORBANCE
##XFACTOR=1.0
##YFACTOR=0.000093393
##DELTAX=4.0
##FIRSTX=450.0
##LASTX=3966.0
##FIRSTY=0.013542
##MAXX=3966
##MINX=450
##MAXY=0.93393
##MINY=0
##NPOINTS=880
##XYDATA=(X++(Y..Y))
450.0 145 240 358 244 229 256 265 293 311 146
490.0 212 166 267 337 317 288 292 338 341 334
530.0 351 416 411 490 495 517 434 349 269 0
570.0 275 290 333 317 300 264 260 289 293 290
610.0 333 365 402 435 484 418 341 299 266 253
650.0 235 218 221 229 233 252 243 269 243 240
690.0 245 224 259 272 304 327 353 408 388 398
730.0 387 382 378 349 353 314 316 329 305 299
770.0 306 295 286 281 285 281 258 265 261 262
810.0 263 258 267 268 280 280 280 274 266 274
850.0 259 253 275 277 275 295 287 291 295 295
890.0 295 301 298 284 277 278 274 260 267 254
930.0 237 238 234 237 244 244 240 266 269 257
970.0 264 279 292 313 324 339 362 367 371 368
1010.0 348 341 323 320 312 312 308 310 311 301
1050.0 292 282 289 292 294 296 293 296 293 289
1090.0 281 275 279 276 283 286 290 294 328 359
1130.0 394 414 438 455 440 446 426 439 455 473
1170.0 477 466 480 483 505 528 551 559 588 603
1210.0 627 621 620 606 591 579 587 596 596 571
1250.0 539 498 473 459 463 451 427 420 416 405
1290.0 409 426 427 426 414 401 376 362 339 321
1330.0 327 319 340 362 387 423 437 447 452 455
1370.0 478 508 624 778 815 588 419 333 280 268
1410.0 264 252 280 280 309 375 430 520 618 744
1450.0 903 1022 1092 1175 1133 1014 811 587 424 317
1490.0 274 233 215 194 187 193 165 177 150 158
1530.0 159 142 159 135 143 129 128 135 134 126
1570.0 121 122 131 115 122 119 127 115 130 120
1610.0 114 118 116 111 110 118 109 117 105 107
1650.0 109 89 121 104 111 96 110 108 137 112
1690.0 127 128 116 118 103 104 97 105 106 95
1730.0 105 97 105 90 98 88 90 90 88 94
1770.0 104 99 99 99 96 97 100 87 94 79
1810.0 88 80 90 81 78 80 76 89 66 83
1850.0 76 85 88 81 76 79 69 89 77 75
1890.0 80 74 79 78 78 64 62 81 69 79
1930.0 84 67 70 65 77 70 64 72 76 78
1970.0 72 68 68 59 61 70 73 71 66 68
2010.0 78 76 72 82 80 75 70 74 66 81
2050.0 73 64 67 56 65 64 58 55 60 52
2090.0 54 60 59 60 67 60 59 61 60 63
2130.0 65 58 62 57 60 64 67 65 65 59
2170.0 57 59 60 55 62 47 50 52 46 64
2210.0 67 45 49 47 43 50 35 44 50 54
2250.0 51 48 43 56 56 49 58 69 73 64
2290.0 67 90 94 87 105 119 119 129 116 128
2330.0 124 106 125 152 165 128 106 54 113 94
2370.0 99 110 114 95 74 51 46 44 56 35
2410.0 31 19 34 19 29 30 14 18 31 33
2450.0 27 34 36 30 37 29 26 12 21 14
2490.0 28 28 19 21 23 25 19 25 27 24
2530.0 32 21 46 34 42 31 30 30 36 22
2570.0 39 47 50 39 57 56 60 60 78 64
2610.0 71 68 73 77 78 66 79 84 79 75
2650.0 75 81 86 80 86 83 87 98 113 113
2690.0 106 124 118 113 106 102 112 99 106 104
2730.0 129 135 134 152 152 137 134 125 119 129
2770.0 119 116 130 143 154 173 183 205 212 227
2810.0 250 265 289 331 379 437 500 622 754 912
2850.0 1213 1733 2571 3438 3852 3745 3221 2695 2429 2321
2890.0 2168 2003 2002 2133 2396 2769 3232 3968 5199 7082
2930.0 9089 10000 9521 8185 6654 5120 4052 3502 3518 3885
2970.0 4222 4061 3134 2205 1665 1477 1557 1333 899 585
3010.0 442 350 298 280 250 211 207 189 140 138
3050.0 167 126 138 108 122 109 119 107 84 78
3090.0 80 67 88 86 57 50 63 51 87 89
3130.0 49 52 85 61 52 52 77 57 63 70
3170.0 58 53 68 46 69 59 64 86 76 65
3210.0 58 53 64 66 67 47 48 63 61 61
3250.0 47 69 54 60 53 43 31 44 40 31
3290.0 45 65 62 66 65 45 45 33 45 48
3330.0 77 92 101 49 46 51 80 58 38 42
3370.0 30 69 43 32 67 52 72 66 51 51
3410.0 48 64 63 72 67 49 59 16 37 51
3450.0 40 49 75 68 85 61 37 55 74 34
3490.0 54 72 50 45 67 40 44 64 69 81
3530.0 82 54 44 72 73 57 56 67 56 84
3570.0 67 74 89 68 63 73 67 71 49 44
3610.0 91 90 76 123 51 96 91 74 82 86
3650.0 57 124 63 110 11 133 134 93 120 70
3690.0 89 87 55 66 62 78 78 77 64 77
3730.0 59 62 69 82 70 96 39 94 67 59
3770.0 63 95 70 85 77 88 65 109 71 96
3810.0 46 81 16 58 78 110 67 65 35 106
3850.0 61 54 90 78 65 102 94 94 53 79
3890.0 34 51 119 131 38 113 84 119 67 12
3930.0 12 54 141 86 105 80 20 71 93 94
##END=
