##TITLE=Benzene, 1-(bromomethyl)-3-nitro-
##JCAMP-DX=4.24
##DATA TYPE=INFRARED SPECTRUM
##ORIGIN=Sadtler Research Labs Under US-EPA Contract
##OWNER=NIST Standard Reference Data Program
##CAS REGISTRY NO=3958-57-4
##MOLFORM=C 7 H 6 Br N O 2
##XUNITS=1/CM
##YUNITS=ABSORBANCE
##XFACTOR=1.0
##YFACTOR=0.000112631
##DELTAX=4.0
##FIRSTX=450.0
##LASTX=3966.0
##FIRSTY=0.007772
##MAXX=3966
##MINX=450
##MAXY=1.12631
##MINY=0
##NPOINTS=880
##XYDATA=(X++(Y..Y))
450.0 69 76 109 96 103 106 40 86 73 73
490.0 78 90 79 75 77 97 102 93 108 127
530.0 161 131 104 83 87 105 146 263 284 255
570.0 161 187 275 297 199 92 68 48 93 100
610.0 148 181 292 417 567 642 621 619 667 749
650.0 702 630 627 724 812 1141 1407 1623 1928 2331
690.0 2928 2780 2285 1469 932 710 609 594 579 653
730.0 748 769 652 438 246 102 43 8 10 17
770.0 22 35 49 88 161 294 531 924 1411 1799
810.0 1876 1744 1296 773 434 200 102 39 16 4
850.0 2 19 40 80 85 83 52 50 68 98
890.0 145 210 309 388 461 529 630 704 683 523
930.0 301 157 93 57 32 24 20 20 17 22
970.0 19 15 8 7 7 4 17 27 40 36
1010.0 30 19 22 30 36 40 44 54 54 71
1050.0 89 116 149 211 291 392 508 585 646 678
1090.0 732 859 953 896 660 400 248 175 135 127
1130.0 145 193 292 495 707 761 596 362 303 316
1170.0 294 223 150 149 182 239 314 409 508 588
1210.0 629 700 882 1213 1656 1908 1755 1241 684 390
1250.0 291 245 228 224 236 263 285 325 389 500
1290.0 667 838 960 1034 1048 1015 915 788 704 713
1330.0 890 1295 2084 3306 4934 6703 7794 7590 6002 4295
1370.0 3013 2031 1265 778 523 371 306 244 203 167
1410.0 165 160 200 221 264 319 407 504 542 520
1450.0 431 352 317 318 366 442 575 663 702 689
1490.0 686 688 764 860 947 997 979 1078 1266 1696
1530.0 2412 3565 5136 6904 9254 10000 9824 7782 5538 3728
1570.0 2441 1826 1538 1512 1491 1432 1268 1086 932 798
1610.0 703 616 554 450 364 259 215 180 150 153
1650.0 162 168 156 145 134 111 98 67 79 73
1690.0 66 63 85 101 119 152 205 298 345 389
1730.0 408 372 272 189 126 110 95 92 100 95
1770.0 108 103 86 78 73 71 77 78 80 76
1810.0 73 74 65 69 66 72 63 57 61 60
1850.0 51 40 38 26 27 29 25 30 36 48
1890.0 63 82 99 107 88 62 34 16 13 9
1930.0 9 13 24 40 58 73 81 78 61 43
1970.0 24 15 14 13 13 19 18 12 9 8
2010.0 8 9 10 6 4 0 2 3 3 2
2050.0 0 1 0 1 3 4 4 3 8 7
2090.0 10 10 9 9 8 5 3 3 3 3
2130.0 3 2 0 3 4 5 4 5 4 5
2170.0 6 4 8 6 3 4 4 4 4 1
2210.0 1 3 0 1 0 0 2 2 6 8
2250.0 8 9 13 13 18 21 24 31 30 37
2290.0 38 42 47 50 58 59 52 45 52 46
2330.0 48 51 49 54 68 65 74 59 53 46
2370.0 43 40 47 52 39 28 23 20 20 18
2410.0 14 16 13 14 15 17 21 25 27 29
2450.0 32 33 34 30 28 28 23 18 16 12
2490.0 13 11 13 13 13 14 11 16 13 14
2530.0 14 14 13 14 13 11 14 15 17 14
2570.0 15 15 19 21 21 21 21 16 17 16
2610.0 16 16 19 18 18 20 23 26 28 31
2650.0 38 41 46 46 46 41 39 38 38 39
2690.0 40 45 48 53 56 57 60 62 62 59
2730.0 59 51 44 35 28 28 28 25 23 26
2770.0 29 32 34 38 45 52 58 65 74 81
2810.0 91 93 96 92 88 85 90 92 92 92
2850.0 90 94 93 100 110 123 137 147 154 168
2890.0 173 175 170 157 145 129 119 106 100 93
2930.0 91 87 88 91 92 97 102 107 113 128
2970.0 153 188 220 243 227 182 141 110 93 88
3010.0 96 113 127 140 144 141 134 143 152 154
3050.0 145 134 134 160 215 307 420 491 502 448
3090.0 348 295 262 223 161 99 59 48 31 23
3130.0 21 18 15 11 10 12 11 11 11 9
3170.0 10 12 11 13 11 13 14 18 17 15
3210.0 17 16 15 15 14 14 14 13 13 14
3250.0 11 8 9 7 11 7 7 6 10 6
3290.0 3 2 6 5 7 5 3 6 2 5
3330.0 4 4 4 6 10 9 3 8 6 5
3370.0 10 10 3 4 8 3 6 7 0 9
3410.0 4 8 8 9 10 9 10 6 6 6
3450.0 2 8 5 4 8 6 6 10 10 10
3490.0 5 12 12 9 7 10 10 9 13 16
3530.0 12 8 9 12 10 9 11 15 12 16
3570.0 19 26 25 24 28 29 33 20 20 19
3610.0 15 15 15 16 18 25 22 16 23 20
3650.0 20 24 19 18 11 20 18 22 18 18
3690.0 15 19 15 14 19 18 20 14 12 24
3730.0 17 7 11 27 9 8 14 11 16 15
3770.0 8 4 13 15 13 3 8 3 12 4
3810.0 13 10 18 13 11 16 15 12 16 17
3850.0 16 16 14 8 13 11 23 19 26 21
3890.0 25 18 18 15 16 26 17 25 23 18
3930.0 18 18 17 17 14 14 28 16 17 28
##END=
