##TITLE=1,1'-Biphenyl,3,3'-difluoro-
##JCAMP-DX=4.24
##DATA TYPE=INFRARED SPECTRUM
##ORIGIN=Sadtler Research Labs Under US-EPA Contract
##OWNER=NIST Standard Reference Data Program
##CAS REGISTRY NO=396-64-5
##MOLFORM=C 12 H 8 F 2
##XUNITS=1/CM
##YUNITS=ABSORBANCE
##XFACTOR=1.0
##YFACTOR=0.000084097
##DELTAX=4.0
##FIRSTX=450.0
##LASTX=3966.0
##FIRSTY=0.000000
##MAXX=3966
##MINX=450
##MAXY=0.84097
##MINY=0
##NPOINTS=880
##XYDATA=(X++(Y..Y))
450.0 0 188 224 259 338 266 301 297 356 255
490.0 230 218 175 241 237 443 614 1048 1246 1221
530.0 973 631 388 308 287 254 259 209 276 265
570.0 284 251 243 232 232 279 239 261 251 293
610.0 336 579 704 666 478 272 295 229 274 271
650.0 295 290 313 343 317 497 598 1178 1741 2795
690.0 3654 2862 2279 1636 1232 985 727 507 399 344
730.0 332 345 345 358 374 393 450 582 853 1661
770.0 3136 5055 7027 6992 5278 3639 2088 1112 786 567
810.0 611 808 1824 4601 7026 7121 4028 1408 650 579
850.0 632 912 1433 2027 2813 2911 2416 2163 1761 1618
890.0 1422 983 719 491 412 348 379 428 569 802
930.0 1200 1547 1609 1452 1041 718 493 431 421 418
970.0 443 449 443 374 372 364 428 495 515 445
1010.0 349 316 298 306 292 320 315 367 410 446
1050.0 441 406 383 371 442 593 904 1126 1138 859
1090.0 525 413 375 396 408 450 479 499 496 487
1130.0 520 593 643 678 844 1433 2444 3069 3335 2972
1170.0 2307 1773 1279 860 657 618 705 966 1581 2888
1210.0 5140 7629 8767 7570 4714 2454 1415 1177 1369 1962
1250.0 3179 4653 5319 4779 3291 2225 1804 1434 1162 1155
1290.0 1404 1757 2080 2307 2324 2085 1756 1268 890 681
1330.0 537 500 452 461 443 470 442 417 384 359
1370.0 344 320 352 349 398 429 519 668 986 1638
1410.0 2330 2932 3231 3186 3044 2594 1943 1348 1100 1099
1450.0 1368 1595 1836 2034 2661 4038 6092 8394 7518 5678
1490.0 3346 2226 1911 1663 1462 1236 1066 1004 883 948
1530.0 811 829 785 872 956 1031 1404 1543 2238 2619
1570.0 3941 5202 7093 9657 9764 10000 7858 7046 6156 7660
1610.0 9273 9257 6505 3993 2973 2096 1445 796 595 505
1650.0 377 436 325 375 395 466 529 514 449 385
1690.0 342 337 322 378 465 731 922 979 921 689
1730.0 486 498 532 566 566 530 466 410 379 357
1770.0 360 376 421 445 400 356 273 258 221 225
1810.0 215 229 220 238 246 253 271 265 297 337
1850.0 451 502 501 419 341 272 239 238 220 224
1890.0 210 225 220 236 239 249 281 322 397 486
1930.0 544 507 422 306 250 225 210 212 203 211
1970.0 205 221 230 247 258 266 249 232 225 212
2010.0 212 205 203 198 203 203 209 220 229 237
2050.0 231 231 216 210 202 204 204 204 212 213
2090.0 223 222 226 220 215 207 208 208 205 210
2130.0 215 225 226 233 228 236 245 237 230 212
2170.0 211 200 205 205 208 206 204 205 200 195
2210.0 191 188 183 183 180 183 187 190 196 193
2250.0 202 194 195 188 189 186 191 197 203 210
2290.0 208 210 206 211 211 224 233 239 250 247
2330.0 245 235 223 202 233 215 253 237 234 226
2370.0 229 242 237 233 226 222 215 215 217 222
2410.0 236 247 261 265 268 261 257 252 240 239
2450.0 236 234 231 231 224 231 232 232 230 231
2490.0 229 223 220 209 210 209 214 219 227 229
2530.0 230 224 219 219 216 221 223 227 231 234
2570.0 238 234 232 226 218 211 211 206 206 208
2610.0 210 214 209 209 206 208 207 215 212 211
2650.0 211 209 211 211 211 213 213 218 219 219
2690.0 220 223 224 228 221 223 223 224 223 220
2730.0 218 216 221 218 223 220 227 220 221 220
2770.0 220 218 216 218 219 222 213 214 218 218
2810.0 215 209 215 212 220 221 225 230 231 231
2850.0 236 239 243 254 261 271 264 265 263 262
2890.0 250 247 245 244 243 247 250 253 255 252
2930.0 247 244 243 254 251 250 252 257 265 276
2970.0 287 290 288 280 277 268 270 269 260 265
3010.0 270 274 283 307 332 394 482 613 773 914
3050.0 996 1013 1019 1047 1109 1178 1240 1353 1500 1548
3090.0 1412 1101 809 639 542 487 448 421 382 339
3130.0 298 268 249 226 214 217 213 196 203 198
3170.0 206 207 208 206 204 208 205 208 207 208
3210.0 201 203 208 208 205 206 218 203 209 213
3250.0 206 204 205 209 208 215 207 210 212 213
3290.0 214 212 210 212 213 204 217 214 212 214
3330.0 211 208 206 213 207 218 210 214 211 207
3370.0 211 211 213 212 210 212 209 212 214 210
3410.0 217 207 215 214 215 212 207 211 216 208
3450.0 213 216 212 218 220 211 212 214 221 208
3490.0 216 214 216 218 205 220 205 217 220 203
3530.0 211 223 224 218 211 213 216 221 237 193
3570.0 209 218 231 229 210 215 205 225 217 233
3610.0 208 211 209 204 224 183 207 219 215 237
3650.0 180 198 215 230 257 196 246 178 240 201
3690.0 234 213 238 218 215 227 218 220 236 217
3730.0 232 206 226 217 213 225 183 222 229 231
3770.0 238 233 241 220 243 234 234 243 205 212
3810.0 239 217 236 196 250 233 218 213 217 221
3850.0 233 204 201 224 233 232 231 237 219 223
3890.0 229 235 254 210 220 246 232 231 237 225
3930.0 235 239 230 241 231 239 255 254 261 244
##END=
