##TITLE=2-Azetidinone, 1,4-diphenyl-3-ethyl-,
##JCAMP-DX=4.24
##DATA TYPE=INFRARED SPECTRUM
##ORIGIN=Sadtler Research Labs Under US-EPA Contract
##OWNER=NIST Standard Reference Data Program
##CAS REGISTRY NO=39629-27-1
##MOLFORM=C 17 H 17 N O
##XUNITS=1/CM
##YUNITS=ABSORBANCE
##XFACTOR=1.0
##YFACTOR=0.000116254
##DELTAX=4.0
##FIRSTX=450.0
##LASTX=3966.0
##FIRSTY=0.020926
##MAXX=3966
##MINX=450
##MAXY=1.16254
##MINY=0
##NPOINTS=880
##XYDATA=(X++(Y..Y))
450.0 180 90 43 52 78 75 56 66 24 39
490.0 108 163 252 355 396 386 273 143 64 36
530.0 41 29 37 17 34 24 36 34 25 31
570.0 32 64 76 88 58 26 21 9 11 4
610.0 15 24 35 19 44 72 93 76 56 51
650.0 74 125 161 179 167 220 215 256 414 747
690.0 1234 1475 1479 1049 586 415 373 330 287 290
730.0 399 602 842 1200 1677 2085 1701 916 410 223
770.0 179 161 157 151 145 150 144 126 105 100
810.0 79 53 41 33 38 42 55 71 117 162
850.0 176 127 76 44 35 41 47 46 53 62
890.0 113 177 177 110 55 27 26 21 27 54
930.0 89 123 117 83 50 34 23 29 34 37
970.0 46 59 69 78 81 70 60 56 56 62
1010.0 67 83 115 184 286 325 250 151 122 153
1050.0 213 297 343 337 314 350 423 473 470 424
1090.0 400 429 525 671 897 1142 1230 1076 848 776
1130.0 864 1013 1130 1127 968 704 467 305 204 164
1170.0 173 250 332 336 276 223 209 203 199 206
1210.0 212 227 264 314 328 279 202 146 126 124
1250.0 140 161 181 192 207 235 260 292 318 343
1290.0 386 469 541 559 534 535 596 730 896 1098
1330.0 1360 1723 2181 2518 2710 2687 2383 2075 2162 2707
1370.0 3390 3782 3472 2665 1812 1165 790 594 460 375
1410.0 313 233 262 208 203 176 205 209 228 309
1450.0 512 782 898 726 552 512 621 733 803 892
1490.0 1103 1780 3177 3971 3184 1595 607 317 249 171
1530.0 158 135 147 165 139 95 110 156 140 140
1570.0 193 261 350 481 615 849 1203 1661 1810 1542
1610.0 1008 567 371 241 210 138 151 141 117 119
1650.0 152 141 103 91 90 96 118 89 132 149
1690.0 129 132 198 216 227 227 277 351 356 402
1730.0 523 677 774 909 1086 1264 1395 1549 1798 2382
1770.0 3686 5963 8484 10000 8778 5879 3207 1699 1017 670
1810.0 489 367 279 232 203 195 172 155 160 169
1850.0 156 139 128 114 120 130 96 74 60 57
1890.0 57 51 41 36 36 40 42 47 61 67
1930.0 82 94 94 106 107 93 78 66 55 50
1970.0 31 20 15 15 12 21 20 11 10 11
2010.0 11 14 18 18 14 15 13 16 16 18
2050.0 14 13 10 11 15 11 11 10 10 8
2090.0 10 11 10 9 12 12 12 15 14 13
2130.0 13 16 12 12 13 12 13 17 17 18
2170.0 19 15 14 12 14 14 13 14 13 12
2210.0 14 12 11 9 12 14 15 17 24 27
2250.0 37 43 52 58 64 72 77 82 83 85
2290.0 79 74 64 56 54 55 50 42 34 20
2330.0 26 20 20 29 41 42 39 34 41 44
2370.0 45 41 40 38 31 19 12 10 12 12
2410.0 10 7 8 6 2 3 1 3 3 3
2450.0 1 2 4 2 4 5 4 6 6 6
2490.0 4 4 4 4 3 1 1 3 1 0
2530.0 1 1 2 2 3 3 3 8 9 9
2570.0 10 11 13 13 12 10 10 9 10 12
2610.0 13 11 11 15 12 14 16 14 11 8
2650.0 7 7 7 6 9 10 10 14 14 14
2690.0 14 12 11 12 12 12 11 10 10 10
2730.0 8 10 10 15 18 21 23 19 20 21
2770.0 16 18 18 18 21 20 25 26 29 30
2810.0 31 29 33 38 39 42 47 53 62 70
2850.0 80 95 124 166 230 284 310 314 338 390
2890.0 419 405 398 454 544 595 597 579 564 550
2930.0 541 593 734 904 937 782 572 454 506 718
2970.0 1013 1185 1057 746 486 329 230 170 146 146
3010.0 157 175 193 244 345 498 647 706 684 633
3050.0 575 523 489 518 644 838 999 992 802 564
3090.0 429 393 352 287 222 177 150 119 90 66
3130.0 51 43 34 31 27 24 25 23 20 21
3170.0 25 20 18 16 14 12 11 11 13 11
3210.0 11 10 11 8 8 8 13 12 11 7
3250.0 12 8 8 6 6 9 6 7 6 7
3290.0 9 5 3 3 1 5 5 4 4 2
3330.0 4 3 5 5 7 1 1 0 7 8
3370.0 9 8 5 9 7 13 11 9 6 7
3410.0 7 7 10 13 8 11 7 7 6 5
3450.0 7 3 8 8 8 5 5 8 9 11
3490.0 7 7 9 10 9 9 12 19 18 21
3530.0 28 37 42 49 42 39 33 21 13 11
3570.0 11 12 12 10 8 9 14 15 8 11
3610.0 12 14 14 11 15 18 17 20 18 11
3650.0 21 20 22 21 20 18 19 19 19 20
3690.0 21 4 6 15 22 21 22 19 13 15
3730.0 12 18 16 19 12 16 10 18 14 17
3770.0 12 11 15 15 10 17 16 22 18 12
3810.0 6 16 17 14 15 17 10 15 17 18
3850.0 9 9 21 18 8 13 14 24 11 16
3890.0 10 10 17 19 20 19 22 12 18 17
3930.0 12 17 20 18 12 13 16 9 20 22
##END=
