##TITLE=3-Chloro-4-hydroxybenzoic acid
##JCAMP-DX=4.24
##DATA TYPE=INFRARED SPECTRUM
##ORIGIN=Sadtler Research Labs Under US-EPA Contract
##OWNER=NIST Standard Reference Data Program
##CAS REGISTRY NO=3964-58-7
##MOLFORM=C 7 H 5 Cl O 3
##XUNITS=1/CM
##YUNITS=ABSORBANCE
##XFACTOR=1.0
##YFACTOR=0.000111276
##DELTAX=4.0
##FIRSTX=450.0
##LASTX=3966.0
##FIRSTY=0.000000
##MAXX=3966
##MINX=450
##MAXY=1.11276
##MINY=0
##NPOINTS=880
##XYDATA=(X++(Y..Y))
450.0 0 85 328 378 82 317 97 297 474 320
490.0 661 378 341 442 484 828 1007 1248 1206 1025
530.0 999 751 615 486 461 540 396 405 559 525
570.0 699 768 886 966 987 959 993 1291 1699 2020
610.0 2237 1838 1325 826 386 213 177 155 137 107
650.0 81 92 124 75 115 290 309 775 1446 1633
690.0 1682 1306 680 400 359 279 250 112 103 68
730.0 176 181 257 399 523 777 1123 1359 1745 1919
770.0 1509 1167 862 566 374 253 210 208 169 153
810.0 136 175 201 279 361 434 535 521 442 340
850.0 221 189 214 297 401 473 500 456 383 313
890.0 251 260 299 336 326 310 227 137 103 75
930.0 59 61 67 75 58 38 43 31 20 22
970.0 11 20 25 31 38 45 39 46 87 102
1010.0 97 116 136 164 184 188 229 277 373 500
1050.0 603 703 776 890 1112 1497 2015 2395 2572 2595
1090.0 2673 2490 2265 2024 1452 891 649 655 841 1170
1130.0 1499 1720 1755 1736 1737 1806 1956 2239 2849 3915
1170.0 5558 7209 7849 7391 6046 4186 2982 2450 2214 2051
1210.0 1822 1542 1190 855 667 568 508 540 629 798
1250.0 987 1120 1222 1267 1327 1545 1898 2462 3144 3744
1290.0 4035 3791 3087 2150 1436 1055 981 1110 1358 1846
1330.0 2422 2793 2912 2582 2024 1604 1417 1465 1677 1933
1370.0 1936 1766 1322 778 485 371 378 420 458 561
1410.0 703 890 1142 1178 1072 781 511 308 170 145
1450.0 140 172 205 199 189 297 426 539 692 1001
1490.0 1458 1911 2428 2503 2266 1684 944 518 383 300
1530.0 256 275 267 290 268 217 228 295 327 361
1570.0 503 672 857 1115 1220 1400 1670 1881 2323 2380
1610.0 2134 1734 1085 656 421 283 225 195 148 143
1650.0 192 186 175 130 176 166 200 155 198 216
1690.0 205 228 336 430 466 458 484 515 429 412
1730.0 443 617 888 1359 2402 4185 6903 9590 10000 9543
1770.0 6565 3198 1479 793 502 390 351 322 335 349
1810.0 386 433 422 359 280 197 121 81 75 86
1850.0 65 44 43 34 52 55 44 28 26 37
1890.0 51 56 58 75 85 112 119 126 131 102
1930.0 75 75 58 55 50 26 26 16 16 26
1970.0 20 17 9 11 3 11 20 2 11 11
2010.0 10 23 28 18 22 25 27 32 39 42
2050.0 36 32 20 19 20 15 7 1 7 6
2090.0 10 17 11 18 22 20 21 15 10 6
2130.0 4 14 11 18 16 15 18 26 22 16
2170.0 17 17 14 19 12 7 7 2 4 5
2210.0 4 7 12 10 11 13 12 19 23 26
2250.0 31 28 26 25 25 22 24 19 22 28
2290.0 24 38 51 55 66 66 64 58 63 56
2330.0 43 57 58 69 111 75 72 45 90 96
2370.0 89 95 98 94 63 32 22 16 17 19
2410.0 23 19 28 23 25 28 31 32 29 32
2450.0 34 34 36 46 49 48 54 59 62 59
2490.0 67 64 67 66 57 55 47 44 41 39
2530.0 48 59 61 66 69 47 43 38 26 29
2570.0 23 25 29 26 25 30 24 21 22 26
2610.0 29 27 28 30 35 40 44 42 35 36
2650.0 28 31 33 37 39 41 41 49 49 47
2690.0 43 47 49 49 47 48 52 44 36 35
2730.0 43 41 32 38 45 40 42 44 32 38
2770.0 32 44 44 47 46 35 42 33 36 36
2810.0 29 31 30 32 35 40 37 42 47 44
2850.0 41 49 50 45 51 46 41 37 38 35
2890.0 38 42 38 36 41 37 38 44 53 59
2930.0 59 67 61 59 59 54 48 51 44 50
2970.0 55 52 51 57 43 48 56 56 47 47
3010.0 47 58 45 46 52 50 52 56 53 47
3050.0 50 55 67 62 77 101 120 149 161 166
3090.0 145 108 95 74 66 54 49 44 56 56
3130.0 61 65 60 52 54 47 51 55 55 58
3170.0 56 55 65 59 60 61 47 53 51 55
3210.0 43 40 52 56 56 64 50 39 51 46
3250.0 53 59 46 46 52 48 45 47 42 46
3290.0 42 49 47 61 58 54 49 55 51 34
3330.0 39 34 41 33 42 38 40 48 37 42
3370.0 42 48 56 58 37 38 32 30 33 31
3410.0 30 8 8 19 49 45 41 50 30 25
3450.0 40 34 37 33 38 39 19 26 26 29
3490.0 50 40 70 60 68 59 42 32 26 2
3530.0 32 24 53 79 110 250 562 1304 2504 3258
3570.0 3666 3556 3434 3717 3819 3381 2373 1038 282 146
3610.0 56 24 39 21 44 57 92 154 175 180
3650.0 142 153 113 67 57 22 32 27 51 50
3690.0 14 75 57 69 65 19 54 56 40 62
3730.0 91 129 162 199 159 148 146 168 154 134
3770.0 88 49 16 13 44 45 56 25 33 53
3810.0 64 58 24 51 78 76 43 14 20 80
3850.0 48 33 52 78 53 58 54 77 56 74
3890.0 87 68 70 102 74 105 49 53 48 1
3930.0 20 7 69 58 85 18 45 128 130 174
##END=
