##TITLE=Phenol, 4-bromo-2-chloro-
##JCAMP-DX=4.24
##DATA TYPE=INFRARED SPECTRUM
##ORIGIN=Sadtler Research Labs Under US-EPA Contract
##OWNER=NIST Standard Reference Data Program
##CAS REGISTRY NO=3964-56-5
##MOLFORM=C 6 H 4 Br Cl O
##XUNITS=1/CM
##YUNITS=ABSORBANCE
##XFACTOR=1.0
##YFACTOR=0.000047470
##DELTAX=4.0
##FIRSTX=450.0
##LASTX=3966.0
##FIRSTY=0.010728
##MAXX=3966
##MINX=450
##MAXY=0.4747
##MINY=0
##NPOINTS=880
##XYDATA=(X++(Y..Y))
450.0 226 216 506 438 537 296 137 428 883 314
490.0 506 557 416 808 1040 735 477 250 610 499
530.0 187 214 418 383 873 994 386 466 442 536
570.0 210 325 185 22 410 267 274 130 229 370
610.0 288 590 821 1395 1589 1385 702 364 372 395
650.0 347 205 59 36 396 59 364 290 507 654
690.0 682 735 1001 1860 2843 3053 2702 1556 736 390
730.0 324 121 131 156 163 286 302 317 333 237
770.0 263 326 263 181 165 227 469 661 1105 1424
810.0 1654 2106 1992 1479 1165 836 768 933 936 859
850.0 712 665 702 973 1053 890 609 572 342 238
890.0 181 244 124 107 102 150 157 192 168 89
930.0 177 96 145 175 176 107 105 169 109 151
970.0 159 128 157 225 154 104 95 178 189 205
1010.0 219 248 240 327 425 566 721 810 1047 1202
1050.0 1301 1288 1262 1042 967 996 1110 1212 1200 1127
1090.0 1006 974 920 837 707 486 554 531 518 529
1130.0 539 555 555 557 527 486 482 447 697 936
1170.0 1344 1901 2703 4323 5967 6516 6393 4933 3134 2172
1210.0 1426 979 852 689 647 685 740 971 1220 1499
1250.0 1621 1638 1800 2247 3293 4887 6032 5960 4474 2289
1290.0 723 510 594 586 647 608 667 913 1226 1452
1330.0 1426 1258 925 586 442 327 297 332 340 325
1370.0 267 241 216 279 344 433 547 653 693 721
1410.0 754 706 620 487 400 360 405 424 463 549
1450.0 748 973 1687 2706 4257 6644 9034 10000 9209 7417
1490.0 4792 3401 2300 1268 679 398 382 178 192 175
1530.0 168 248 154 247 205 286 286 282 367 464
1570.0 604 791 889 1007 878 785 600 569 410 291
1610.0 236 101 161 121 202 186 228 174 187 179
1650.0 84 106 3 123 23 90 38 119 68 92
1690.0 87 110 91 42 131 112 161 134 168 213
1730.0 136 210 74 148 137 138 119 106 78 71
1770.0 74 34 65 57 68 73 52 69 98 77
1810.0 69 78 69 59 60 23 78 31 81 44
1850.0 84 61 69 97 98 146 149 165 157 124
1890.0 103 77 67 46 52 46 50 27 48 39
1930.0 33 40 29 41 31 40 37 40 50 42
1970.0 57 54 64 57 56 67 43 36 34 34
2010.0 32 32 40 47 36 42 34 50 45 35
2050.0 27 27 31 32 33 31 32 36 40 30
2090.0 37 41 34 48 53 57 59 60 56 44
2130.0 39 36 31 32 32 32 34 36 34 30
2170.0 34 45 33 31 37 45 40 38 37 28
2210.0 38 34 36 33 34 39 43 47 47 39
2250.0 49 44 44 49 47 54 54 71 86 82
2290.0 94 103 113 122 132 128 108 91 84 44
2330.0 31 56 3 65 0 143 3 88 18 15
2370.0 31 11 54 86 90 58 48 45 36 44
2410.0 43 50 48 53 55 55 51 53 52 55
2450.0 57 71 74 79 89 83 75 63 45 42
2490.0 41 35 42 49 49 65 65 63 63 52
2530.0 50 49 45 49 52 45 40 43 32 28
2570.0 27 25 23 33 34 26 27 30 26 21
2610.0 20 22 24 15 19 15 17 23 25 31
2650.0 39 38 42 40 39 30 27 33 26 23
2690.0 16 12 15 21 19 20 23 26 27 37
2730.0 30 31 37 34 30 37 42 45 39 36
2770.0 47 45 35 24 35 37 33 33 45 41
2810.0 46 41 51 56 46 38 42 53 60 59
2850.0 70 80 89 74 78 74 65 69 69 72
2890.0 72 71 81 84 89 87 99 86 87 83
2930.0 91 83 90 87 98 98 103 122 136 171
2970.0 167 146 107 88 77 77 72 74 65 58
3010.0 69 71 78 78 80 83 97 100 96 94
3050.0 101 109 118 134 135 157 183 201 190 182
3090.0 162 128 110 93 80 69 69 56 70 67
3130.0 56 54 66 58 76 81 65 58 79 77
3170.0 91 82 92 91 73 77 57 80 76 63
3210.0 69 62 71 66 53 62 42 54 53 57
3250.0 51 61 56 31 40 46 41 31 62 49
3290.0 49 49 41 49 52 73 64 52 73 65
3330.0 51 47 36 33 39 20 43 32 27 30
3370.0 34 11 43 29 43 36 32 42 39 54
3410.0 46 55 71 73 44 41 50 29 58 33
3450.0 33 27 41 54 40 50 27 44 70 49
3490.0 59 60 14 108 81 98 74 52 102 141
3530.0 122 127 141 240 313 531 793 1296 1465 1656
3570.0 2038 3191 4212 4394 3780 2108 797 496 243 156
3610.0 207 143 192 111 192 151 208 144 265 299
3650.0 463 371 366 223 129 269 98 271 57 154
3690.0 161 119 168 123 139 155 105 152 101 223
3730.0 119 112 264 53 285 26 233 50 132 145
3770.0 112 106 96 83 123 91 149 106 140 56
3810.0 105 114 148 122 100 132 98 119 189 52
3850.0 209 24 162 121 157 168 67 146 161 159
3890.0 134 148 35 164 114 84 179 114 179 125
3930.0 145 163 158 123 114 224 102 164 147 69
##END=
