##TITLE=3-Pentanol, 2,2-dimethyl-
##JCAMP-DX=4.24
##DATA TYPE=INFRARED SPECTRUM
##ORIGIN=Sadtler Research Labs Under US-EPA Contract
##OWNER=NIST Standard Reference Data Program
##CAS REGISTRY NO=3970-62-5
##MOLFORM=C 7 H 16 O
##XUNITS=1/CM
##YUNITS=ABSORBANCE
##XFACTOR=1.0
##YFACTOR=0.000084686
##DELTAX=4.0
##FIRSTX=450.0
##LASTX=3966.0
##FIRSTY=0.013634
##MAXX=3966
##MINX=450
##MAXY=0.84686
##MINY=0
##NPOINTS=880
##XYDATA=(X++(Y..Y))
450.0 161 139 146 156 161 162 158 167 176 181
490.0 197 167 160 162 144 112 99 76 76 100
530.0 93 84 122 180 179 202 191 192 174 165
570.0 141 109 110 70 65 56 19 73 59 53
610.0 46 58 51 51 50 72 58 52 60 4
650.0 33 32 29 41 18 29 51 27 14 29
690.0 60 33 33 50 53 40 27 39 44 46
730.0 43 45 25 64 50 56 61 51 59 61
770.0 61 73 74 84 91 105 90 81 68 61
810.0 46 38 45 49 44 48 49 50 75 90
850.0 113 131 145 166 156 142 136 120 106 83
890.0 106 101 118 135 171 235 307 410 518 604
930.0 674 716 724 699 716 808 951 1217 1595 1983
970.0 2270 2343 2259 1955 1552 1135 808 592 465 402
1010.0 384 362 362 364 367 383 409 472 549 629
1050.0 690 724 733 724 689 675 696 753 863 1003
1090.0 1182 1381 1551 1643 1597 1442 1194 919 661 486
1130.0 386 334 309 313 329 359 388 436 492 532
1170.0 569 605 626 642 659 675 684 704 700 698
1210.0 686 685 699 710 724 736 726 705 671 615
1250.0 581 549 522 516 504 503 505 522 531 546
1290.0 567 560 563 526 496 449 400 351 322 292
1330.0 283 283 302 340 402 524 720 975 1230 1487
1370.0 1770 1617 1432 1281 1125 1055 1044 1023 933 808
1410.0 661 459 318 253 227 235 263 319 392 499
1450.0 630 798 982 1130 1242 1372 1492 1446 1347 1203
1490.0 975 759 517 331 222 159 128 110 104 90
1530.0 83 86 77 79 69 68 68 57 54 45
1570.0 45 43 41 33 30 22 29 27 24 32
1610.0 28 28 29 32 32 27 31 31 28 33
1650.0 29 40 30 32 27 29 23 24 25 34
1690.0 25 26 28 34 24 21 28 26 29 30
1730.0 26 30 27 26 29 23 24 19 24 21
1770.0 20 20 20 17 19 20 20 20 19 14
1810.0 15 13 10 8 8 7 1 10 7 6
1850.0 8 10 9 9 9 6 7 10 9 6
1890.0 9 8 4 8 8 8 2 9 7 9
1930.0 10 10 14 19 16 18 15 14 15 13
1970.0 9 9 3 2 8 3 7 8 8 7
2010.0 8 8 7 7 3 7 7 7 7 7
2050.0 8 8 8 8 7 1 1 2 7 7
2090.0 2 3 3 3 7 4 6 7 7 8
2130.0 7 2 6 12 7 7 7 6 6 3
2170.0 5 6 7 6 6 6 7 7 6 6
2210.0 4 4 3 5 5 5 5 5 6 6
2250.0 1 1 6 6 3 7 6 9 8 14
2290.0 15 17 25 20 26 30 18 19 18 19
2330.0 15 12 17 23 12 5 12 18 19 5
2370.0 16 23 19 14 27 23 21 22 27 22
2410.0 27 27 27 26 19 22 18 16 9 9
2450.0 9 4 9 9 3 9 4 5 6 7
2490.0 10 10 9 5 9 3 9 10 4 8
2530.0 13 16 11 15 16 19 20 20 15 20
2570.0 27 27 32 33 44 44 46 48 60 54
2610.0 54 54 55 54 54 60 56 63 61 73
2650.0 75 84 95 99 95 96 102 102 102 96
2690.0 95 96 88 92 102 104 117 123 135 147
2730.0 153 165 165 170 174 178 182 175 165 172
2770.0 164 159 159 159 165 182 189 197 215 232
2810.0 257 281 313 361 419 500 607 752 928 1123
2850.0 1328 1552 1771 2003 2282 2579 2917 3286 3498 3462
2890.0 3309 3075 2837 2594 2489 2503 2570 2672 2797 2992
2930.0 3272 3678 4174 4662 5257 5905 6726 7709 8797 9505
2970.0 10000 9610 8443 6710 5083 3615 2462 1632 1074 716
3010.0 505 385 311 273 239 225 220 215 214 210
3050.0 203 198 185 167 161 141 122 116 103 101
3090.0 96 92 86 87 87 81 81 80 80 80
3130.0 79 86 86 86 86 86 90 97 102 114
3170.0 103 103 108 114 102 100 96 89 87 85
3210.0 80 80 63 61 61 60 45 42 46 35
3250.0 32 33 26 21 28 26 20 14 20 21
3290.0 19 15 14 22 11 9 15 15 14 8
3330.0 14 14 13 8 10 13 14 11 15 7
3370.0 3 14 13 2 8 4 13 14 0 17
3410.0 15 28 11 14 19 24 19 19 35 6
3450.0 28 21 13 36 24 28 17 24 18 13
3490.0 7 8 19 19 22 14 17 19 13 11
3530.0 8 5 7 6 11 11 1 5 1 10
3570.0 20 4 8 1 5 11 11 11 24 19
3610.0 11 33 40 59 68 113 138 156 202 228
3650.0 299 372 441 530 573 558 524 419 322 230
3690.0 147 92 54 52 22 21 9 28 11 8
3730.0 25 11 11 8 8 8 2 9 1 5
3770.0 4 1 1 5 5 10 18 5 2 15
3810.0 21 17 14 14 20 22 20 20 20 21
3850.0 25 17 22 21 20 19 14 15 20 22
3890.0 26 27 20 19 16 16 4 3 3 1
3930.0 1 1 1 1 1 1 1 1 1 1
##END=
