##TITLE=Pyridine, 4-(1,1-dimethylethyl)-
##JCAMP-DX=4.24
##DATA TYPE=INFRARED SPECTRUM
##ORIGIN=Sadtler Research Labs Under US-EPA Contract
##OWNER=NIST Standard Reference Data Program
##CAS REGISTRY NO=3978-81-2
##MOLFORM=C 9 H 13 N
##XUNITS=1/CM
##YUNITS=ABSORBANCE
##XFACTOR=1.0
##YFACTOR=0.000057080
##DELTAX=4.0
##FIRSTX=450.0
##LASTX=3966.0
##FIRSTY=0.004110
##MAXX=3966
##MINX=450
##MAXY=0.5708
##MINY=0
##NPOINTS=880
##XYDATA=(X++(Y..Y))
450.0 72 95 40 1 28 41 85 135 150 121
490.0 48 0 23 60 114 143 184 217 221 275
530.0 319 376 359 390 530 788 923 1237 1387 1688
570.0 1442 1043 825 590 469 236 282 235 123 33
610.0 122 87 31 53 23 66 65 67 96 41
650.0 108 65 102 67 102 58 57 64 84 95
690.0 90 209 349 533 630 643 594 389 171 63
730.0 100 103 101 99 117 141 124 118 123 113
770.0 77 92 92 148 177 272 389 571 855 1150
810.0 1443 1761 2021 1666 1398 1294 1231 1112 960 801
850.0 576 252 167 127 131 138 110 92 109 92
890.0 91 81 76 73 72 99 115 104 162 159
930.0 176 160 134 134 107 81 99 92 91 101
970.0 83 98 106 158 318 574 578 630 560 345
1010.0 115 60 70 77 66 80 84 79 71 88
1050.0 98 117 155 202 309 447 518 545 506 392
1090.0 212 142 131 114 122 132 125 148 155 150
1130.0 140 121 113 113 106 104 114 96 114 121
1170.0 138 143 154 185 226 288 348 388 385 350
1210.0 295 269 308 360 397 404 408 345 292 258
1250.0 265 337 507 818 1242 1570 1661 1513 1173 700
1290.0 342 203 153 119 110 111 128 119 120 111
1330.0 128 129 164 178 209 282 414 609 876 1124
1370.0 1336 1347 1225 1025 903 914 1120 1376 1537 1609
1410.0 1492 1339 1163 897 678 516 427 421 380 413
1450.0 491 574 737 797 882 962 1048 1033 1068 1170
1490.0 1247 1153 1004 790 495 323 244 266 329 363
1530.0 427 515 580 688 788 852 886 888 886 806
1570.0 740 742 1015 1603 2769 4258 5190 5260 4523 3223
1610.0 1593 681 385 269 251 255 269 264 246 238
1650.0 216 230 190 202 203 231 216 211 217 203
1690.0 168 157 157 164 138 132 131 139 112 109
1730.0 104 122 98 86 98 104 95 96 107 106
1770.0 128 119 105 90 83 74 70 69 77 60
1810.0 69 67 70 69 99 110 120 120 113 110
1850.0 70 51 51 50 42 59 40 41 47 51
1890.0 54 58 57 78 85 101 119 146 173 198
1930.0 207 207 197 185 142 123 104 87 76 66
1970.0 58 57 57 49 48 48 50 41 35 39
2010.0 32 40 40 40 39 39 39 39 38 35
2050.0 31 31 30 36 38 38 38 38 39 39
2090.0 39 39 31 34 40 29 29 29 29 29
2130.0 29 28 28 28 28 28 28 28 28 28
2170.0 38 38 37 37 37 36 46 46 48 47
2210.0 53 53 49 40 43 36 36 28 37 28
2250.0 26 27 30 29 26 32 25 25 36 36
2290.0 36 36 43 35 25 18 8 6 1 1
2330.0 1 1 1 1 1 1 1 1 1 1
2370.0 1 1 5 16 41 50 59 59 59 58
2410.0 59 59 59 61 67 58 63 57 58 47
2450.0 50 49 57 49 58 45 49 35 41 40
2490.0 29 25 29 30 30 30 29 38 40 29
2530.0 32 38 28 34 34 37 38 44 45 45
2570.0 46 46 46 44 45 39 44 44 38 46
2610.0 35 44 43 35 44 44 43 53 49 47
2650.0 51 52 58 60 60 60 60 51 50 42
2690.0 51 51 51 50 49 59 68 74 85 94
2730.0 95 94 93 85 85 85 85 90 84 84
2770.0 85 66 66 66 76 83 85 92 101 103
2810.0 117 132 135 141 143 159 169 186 205 232
2850.0 269 330 430 604 846 1161 1468 1711 1823 1800
2890.0 1722 1649 1588 1630 1738 1882 2020 2098 2111 2078
2930.0 2031 2017 2021 2096 2274 2658 3381 4513 6101 8027
2970.0 9614 10000 9210 7489 5129 3312 2189 1487 1069 839
3010.0 764 814 988 1238 1445 1588 1589 1463 1219 1030
3050.0 910 835 827 865 994 1135 1301 1429 1490 1463
3090.0 1391 1221 966 710 498 353 237 158 122 99
3130.0 87 61 64 64 64 64 57 64 56 64
3170.0 63 73 73 74 92 85 84 91 84 81
3210.0 88 80 81 81 70 81 78 67 71 66
3250.0 68 53 55 46 60 53 61 61 60 68
3290.0 57 58 53 44 33 44 34 25 34 33
3330.0 33 17 26 15 9 25 22 27 33 33
3370.0 42 22 32 24 23 23 23 16 22 18
3410.0 20 26 22 29 23 31 22 21 21 20
3450.0 14 12 13 13 18 12 12 13 28 20
3490.0 12 20 30 29 26 30 30 14 14 33
3530.0 31 11 20 19 37 16 28 10 20 25
3570.0 27 20 9 9 8 36 17 18 1 16
3610.0 27 29 24 21 11 33 19 9 22 25
3650.0 33 16 15 7 7 19 24 24 14 24
3690.0 31 15 16 23 15 33 33 22 22 23
3730.0 23 25 46 26 57 49 31 30 21 30
3770.0 22 24 20 21 21 16 18 20 20 12
3810.0 21 20 20 22 19 27 30 25 20 19
3850.0 18 37 31 19 28 28 28 18 30 33
3890.0 29 42 30 45 36 26 27 34 34 35
3930.0 25 25 25 25 36 22 0 1 1 1
##END=
