##TITLE=Benzenamine, 4-(hexyloxy)-
##JCAMP-DX=4.24
##DATA TYPE=INFRARED SPECTRUM
##ORIGIN=Sadtler Research Labs Under US-EPA Contract
##OWNER=NIST Standard Reference Data Program
##CAS REGISTRY NO=39905-57-2
##MOLFORM=C 12 H 19 N O
##XUNITS=1/CM
##YUNITS=ABSORBANCE
##XFACTOR=1.0
##YFACTOR=0.000194730
##DELTAX=4.0
##FIRSTX=450.0
##LASTX=3966.0
##FIRSTY=0.059198
##MAXX=3966
##MINX=450
##MAXY=1.9473
##MINY=0
##NPOINTS=880
##XYDATA=(X++(Y..Y))
450.0 304 360 407 380 372 396 400 375 339 361
490.0 361 374 368 391 382 360 313 281 230 190
530.0 159 127 126 113 116 115 128 103 104 89
570.0 69 76 56 52 38 55 71 85 97 107
610.0 121 137 161 177 219 262 341 443 584 725
650.0 882 926 890 719 622 522 478 456 456 471
690.0 463 461 441 447 444 446 445 437 419 403
730.0 376 344 322 288 273 247 228 211 207 217
770.0 211 193 162 152 158 194 241 298 400 559
810.0 789 1030 1209 1202 1033 818 616 463 352 268
850.0 217 179 149 123 89 61 36 24 14 3
890.0 4 0 1 2 7 12 24 49 83 122
930.0 162 201 215 210 179 150 123 113 110 114
970.0 119 124 135 144 157 182 223 282 372 507
1010.0 672 840 975 1054 1080 1084 1066 1061 1050 1034
1050.0 1000 954 881 783 694 622 588 563 530 477
1090.0 407 333 282 259 259 285 321 361 372 347
1130.0 290 221 161 124 108 101 109 149 256 373
1170.0 394 316 246 258 339 487 699 946 1168 1382
1210.0 1658 2098 2714 3505 4477 5608 6817 7316 6672 4812
1250.0 3255 2430 2087 1874 1596 1246 980 848 796 758
1290.0 722 680 633 577 517 441 380 332 328 316
1330.0 289 251 176 168 179 171 168 159 144 163
1370.0 200 246 381 569 662 638 480 310 241 193
1410.0 158 182 102 163 170 222 219 276 342 379
1450.0 423 471 506 640 788 1025 1196 1257 1116 860
1490.0 843 1203 1950 3513 6157 8796 10000 6438 3367 1785
1530.0 1092 643 380 203 165 182 142 73 110 146
1570.0 134 154 183 211 274 289 332 360 459 607
1610.0 843 1022 1044 1033 950 863 656 466 364 260
1650.0 145 115 138 125 101 81 37 84 23 6
1690.0 54 66 0 6 34 76 56 13 90 119
1730.0 86 33 74 68 34 15 48 45 41 62
1770.0 31 16 55 42 55 42 36 46 36 73
1810.0 69 68 84 77 71 64 88 108 90 76
1850.0 102 117 104 100 79 48 71 67 63 53
1890.0 44 47 53 56 56 55 54 55 45 59
1930.0 65 61 63 49 55 65 68 67 71 62
1970.0 69 72 73 74 75 64 64 72 73 71
2010.0 71 66 59 64 67 67 69 65 64 66
2050.0 69 68 69 66 61 66 66 65 62 56
2090.0 49 47 44 39 35 29 25 22 18 16
2130.0 14 11 11 11 10 10 10 8 7 7
2170.0 7 6 6 4 3 2 1 1 1 0
2210.0 0 0 1 3 3 2 5 7 8 12
2250.0 13 14 15 17 19 21 25 27 30 29
2290.0 31 30 30 30 32 32 28 22 21 14
2330.0 13 12 17 16 38 34 25 22 21 29
2370.0 34 32 37 35 32 27 27 24 27 25
2410.0 21 18 17 17 17 19 22 25 28 32
2450.0 34 37 40 42 47 46 45 41 38 33
2490.0 33 33 33 35 36 40 42 45 45 44
2530.0 40 40 37 32 31 28 27 24 25 27
2570.0 29 29 31 32 33 37 38 39 39 37
2610.0 36 36 36 36 36 37 39 40 42 42
2650.0 46 46 49 52 54 57 61 64 65 67
2690.0 67 67 69 72 72 74 76 79 84 88
2730.0 98 106 116 123 127 127 125 120 116 110
2770.0 108 109 109 113 119 124 132 138 149 160
2810.0 174 189 207 232 259 292 335 389 469 581
2850.0 742 956 1225 1499 1728 1879 1928 1925 1893 1831
2890.0 1705 1593 1570 1652 1791 1959 2151 2359 2632 2975
2930.0 3377 3696 3898 3932 3806 3516 3205 3033 2973 2977
2970.0 2827 2411 1799 1259 917 721 613 559 561 598
3010.0 651 677 663 632 623 661 759 894 948 826
3050.0 599 418 343 315 312 314 311 291 262 235
3090.0 213 203 195 191 185 174 163 148 133 120
3130.0 108 97 87 74 69 63 57 53 52 48
3170.0 48 48 46 45 45 46 46 47 49 50
3210.0 53 52 48 41 40 40 39 37 36 34
3250.0 36 35 37 41 39 37 34 30 25 25
3290.0 21 22 18 18 16 16 17 17 17 13
3330.0 14 12 14 15 17 15 17 20 20 30
3370.0 31 40 49 54 72 96 125 167 204 195
3410.0 154 100 69 56 49 48 48 46 45 51
3450.0 54 65 70 85 98 111 127 144 146 143
3490.0 131 109 84 66 52 40 39 25 20 20
3530.0 20 16 16 14 18 11 8 11 3 12
3570.0 10 7 10 7 10 7 14 0 2 2
3610.0 11 3 4 6 2 11 12 4 10 6
3650.0 10 14 7 13 5 16 10 12 7 11
3690.0 7 7 5 10 5 7 10 10 2 8
3730.0 4 2 10 0 19 0 10 4 2 8
3770.0 6 6 0 7 3 7 1 3 0 5
3810.0 1 0 4 0 5 1 2 4 4 6
3850.0 3 4 8 8 5 8 10 14 13 20
3890.0 16 24 18 28 21 16 13 8 18 15
3930.0 17 12 15 14 15 6 11 6 13 11
##END=
