##TITLE=Ethyl 3-pyridylacetate
##JCAMP-DX=4.24
##DATA TYPE=INFRARED SPECTRUM
##ORIGIN=Sadtler Research Labs Under US-EPA Contract
##OWNER=NIST Standard Reference Data Program
##CAS REGISTRY NO=39931-77-6
##MOLFORM=C 9 H 11 N O 2
##XUNITS=1/CM
##YUNITS=ABSORBANCE
##XFACTOR=1.0
##YFACTOR=0.000098193
##DELTAX=4.0
##FIRSTX=450.0
##LASTX=3966.0
##FIRSTY=0.019442
##MAXX=3966
##MINX=450
##MAXY=0.98193
##MINY=0
##NPOINTS=880
##XYDATA=(X++(Y..Y))
450.0 198 232 275 309 315 193 187 160 28 61
490.0 0 81 45 97 50 68 168 131 137 177
530.0 311 318 309 249 372 226 159 116 364 335
570.0 372 244 321 385 337 311 318 412 408 422
610.0 466 477 567 519 510 533 673 865 838 669
650.0 653 571 449 419 414 471 457 542 485 523
690.0 773 973 1261 1691 1974 2172 1942 1557 1348 1129
730.0 1187 1011 921 933 997 852 792 750 720 864
770.0 797 857 1017 1137 1126 1120 1142 887 838 675
810.0 732 576 587 505 648 483 516 567 482 514
850.0 436 526 435 489 442 400 430 469 485 389
890.0 418 373 387 458 518 577 615 706 776 819
930.0 770 734 675 657 603 591 501 455 422 421
970.0 419 406 404 403 428 438 525 560 689 797
1010.0 1026 1430 2132 3014 3583 4092 4088 3804 3292 2542
1050.0 1920 1378 1038 836 776 717 786 806 887 1063
1090.0 1260 1491 1681 1845 1857 2015 2338 2672 3267 3853
1130.0 4484 5300 5782 6223 6592 6639 6567 6368 6056 5641
1170.0 5192 4768 4604 4380 4315 4076 3834 3568 3438 3306
1210.0 3169 3117 3226 3430 3794 4199 4485 4764 4921 5230
1250.0 5578 5822 5840 5430 4817 4008 3282 2711 2352 2136
1290.0 2085 2213 2402 2586 2677 2686 2575 2493 2438 2430
1330.0 2401 2329 2153 1862 1496 1202 989 909 1066 1363
1370.0 1566 1562 1421 1094 958 875 862 916 932 1043
1410.0 1197 1527 1977 2480 2848 2807 2474 1832 1415 1142
1450.0 1017 946 869 905 1046 1261 1639 1852 1748 1501
1490.0 933 599 399 357 312 288 298 281 248 211
1530.0 254 231 268 214 268 331 386 474 480 660
1570.0 760 910 863 874 763 623 524 440 382 337
1610.0 280 224 195 220 183 203 215 173 238 217
1650.0 191 129 205 242 241 238 253 290 311 268
1690.0 338 411 427 444 564 681 780 868 1070 1339
1730.0 1767 2391 3411 4892 6668 8420 9559 10000 9505 8147
1770.0 6329 4449 3021 2030 1369 991 723 576 511 405
1810.0 361 311 318 287 282 249 246 255 253 222
1850.0 228 241 220 235 218 236 239 259 233 228
1890.0 255 256 274 257 265 232 213 186 170 179
1930.0 164 167 175 183 164 192 181 188 164 151
1970.0 146 124 123 118 126 111 97 94 88 101
2010.0 96 104 101 92 72 91 85 102 91 87
2050.0 99 109 92 90 95 89 93 101 95 97
2090.0 91 92 80 72 69 77 74 66 63 57
2130.0 50 54 37 42 40 40 41 23 45 27
2170.0 28 17 26 33 32 18 14 34 6 13
2210.0 15 25 23 31 26 31 31 34 35 28
2250.0 42 56 62 44 41 40 37 50 41 47
2290.0 59 79 75 100 111 130 128 145 143 161
2330.0 163 95 110 106 43 161 276 116 133 28
2370.0 5 5 5 12 41 54 65 68 58 53
2410.0 52 58 61 35 49 43 55 51 50 38
2450.0 33 53 52 52 46 51 61 36 35 36
2490.0 29 27 26 25 18 15 21 23 36 25
2530.0 30 30 14 6 30 33 9 33 26 37
2570.0 11 25 18 26 19 17 29 34 40 33
2610.0 36 26 45 46 36 37 40 42 38 32
2650.0 20 34 20 30 37 40 50 46 24 27
2690.0 41 35 33 32 46 45 24 44 45 55
2730.0 55 66 56 72 45 73 43 51 59 63
2770.0 68 74 86 79 90 83 85 91 102 94
2810.0 111 114 121 124 129 146 141 145 126 164
2850.0 165 213 198 191 213 236 302 324 377 451
2890.0 477 483 505 565 628 669 722 794 841 895
2930.0 949 1055 1181 1335 1432 1410 1291 1187 1177 1230
2970.0 1376 1587 1925 2375 2733 2817 2654 2339 2052 1862
3010.0 1712 1541 1352 1258 1198 1366 1515 1547 1487 1353
3050.0 1237 1291 1415 1348 1222 905 670 588 633 714
3090.0 761 716 592 424 274 209 158 171 130 132
3130.0 128 115 131 136 119 130 124 110 143 87
3170.0 81 72 98 87 103 82 100 110 64 74
3210.0 73 75 86 62 60 55 62 52 70 34
3250.0 57 49 80 43 71 80 75 86 26 72
3290.0 62 89 53 63 67 76 51 54 77 64
3330.0 75 64 64 38 70 48 62 89 94 49
3370.0 70 76 54 74 89 85 81 90 110 97
3410.0 70 91 97 77 81 73 89 79 89 67
3450.0 86 123 74 84 78 103 101 109 142 153
3490.0 174 156 159 158 144 131 102 90 119 110
3530.0 136 91 98 109 124 94 87 100 95 113
3570.0 92 90 89 73 107 81 79 86 87 79
3610.0 81 68 80 43 78 44 52 92 65 118
3650.0 77 62 45 82 94 80 54 11 64 87
3690.0 36 41 74 47 61 61 9 71 83 86
3730.0 62 74 70 102 8 23 5 29 45 50
3770.0 55 42 44 26 56 54 42 31 13 6
3810.0 18 53 5 6 5 5 5 6 4 22
3850.0 42 4 6 12 18 17 39 32 47 20
3890.0 5 9 2 36 56 59 38 38 33 17
3930.0 6 10 47 37 26 24 3 5 5 5
##END=
