##TITLE=2-Fluoro-5-nitrobenzotrifluoride
##JCAMP-DX=4.24
##DATA TYPE=INFRARED SPECTRUM
##ORIGIN=Sadtler Research Labs Under US-EPA Contract
##OWNER=NIST Standard Reference Data Program
##CAS REGISTRY NO=400-74-8
##MOLFORM=C 7 H 3 F 4 N O 2
##XUNITS=1/CM
##YUNITS=ABSORBANCE
##XFACTOR=1.0
##YFACTOR=0.000146597
##DELTAX=4.0
##FIRSTX=450.0
##LASTX=3966.0
##FIRSTY=0.000000
##MAXX=3966
##MINX=450
##MAXY=1.46597
##MINY=0
##NPOINTS=880
##XYDATA=(X++(Y..Y))
450.0 0 91 192 243 236 340 368 339 280 187
490.0 186 156 131 160 121 187 161 191 168 171
530.0 178 112 141 137 71 128 109 114 134 145
570.0 169 174 213 277 314 387 292 248 187 152
610.0 164 123 155 196 252 518 653 686 538 303
650.0 196 145 151 235 287 720 1139 1508 1720 1480
690.0 1140 734 404 247 223 215 229 289 361 419
730.0 438 414 422 503 656 694 547 386 361 398
770.0 455 425 323 209 168 148 126 124 129 136
810.0 191 214 257 207 202 360 581 905 1024 709
850.0 472 274 162 156 110 120 114 112 141 188
890.0 388 642 757 789 611 492 511 690 851 785
930.0 575 357 222 142 119 128 121 125 120 105
970.0 106 95 98 100 113 125 116 124 119 127
1010.0 132 116 135 131 137 177 204 302 462 736
1050.0 1151 1431 1483 1286 828 504 349 261 231 236
1090.0 262 286 334 468 775 1475 2611 3854 4296 3557
1130.0 2281 1331 997 1021 1191 1587 2129 2862 3834 5123
1170.0 7059 9344 10000 7461 4483 2638 1774 1348 995 741
1210.0 595 455 401 366 355 366 427 636 974 1159
1250.0 1226 1236 1514 2216 2923 3165 2910 2722 3409 5323
1290.0 6878 7279 5548 3642 3067 3558 4416 5013 4991 4351
1330.0 3161 2187 1572 1526 2035 2995 4233 4889 4287 2810
1370.0 1404 640 411 333 262 277 252 241 274 281
1410.0 391 491 698 1071 1477 2153 2496 2295 1783 1284
1450.0 864 604 447 395 436 568 754 1042 1332 1627
1490.0 2170 2688 3202 3081 2638 1676 1094 719 529 470
1530.0 441 515 679 1226 2194 3546 4793 4526 3208 2018
1570.0 960 782 773 786 1025 1291 1766 2166 2590 2360
1610.0 1863 1179 832 832 1120 1598 1975 2016 1947 1267
1650.0 859 563 305 261 223 212 222 208 192 175
1690.0 153 142 117 115 106 101 104 103 92 100
1730.0 103 90 105 81 96 94 98 96 98 98
1770.0 92 95 91 87 98 102 111 132 114 119
1810.0 97 88 91 83 97 108 119 131 126 136
1850.0 116 106 95 78 89 82 77 76 80 87
1890.0 89 96 85 96 108 106 122 143 138 141
1930.0 121 106 98 88 91 87 77 72 65 77
1970.0 64 71 75 62 73 69 69 70 66 81
2010.0 76 77 86 91 67 76 72 77 78 73
2050.0 77 83 93 82 91 95 95 108 94 101
2090.0 97 83 82 70 78 74 76 76 65 68
2130.0 67 68 72 67 72 71 75 75 77 74
2170.0 75 73 75 73 77 77 79 77 75 77
2210.0 78 76 78 81 89 92 89 97 91 90
2250.0 89 87 85 81 78 75 71 75 74 81
2290.0 88 82 84 85 82 85 82 84 84 76
2330.0 76 102 92 85 101 93 82 86 83 79
2370.0 91 93 88 79 81 83 80 81 83 85
2410.0 87 86 86 81 83 81 76 81 84 91
2450.0 93 91 96 100 105 104 102 102 100 96
2490.0 97 97 98 102 104 104 96 91 89 87
2530.0 89 87 86 87 89 92 92 90 87 82
2570.0 82 80 83 83 80 83 84 83 84 83
2610.0 89 92 90 90 89 86 86 89 90 88
2650.0 89 84 86 83 86 86 93 93 92 89
2690.0 89 91 96 100 104 107 100 101 99 94
2730.0 88 92 93 96 103 101 108 102 100 98
2770.0 94 90 92 89 88 95 89 89 90 92
2810.0 94 91 91 88 89 87 93 94 98 98
2850.0 104 105 109 109 112 115 116 119 127 135
2890.0 147 163 182 188 182 164 139 126 118 115
2930.0 115 116 112 119 118 116 110 112 110 104
2970.0 99 91 92 95 97 95 93 90 91 89
3010.0 91 88 88 85 89 89 93 94 91 85
3050.0 89 91 97 94 97 103 99 105 111 131
3090.0 177 242 322 374 376 339 262 197 153 127
3130.0 122 114 112 111 106 100 93 83 87 80
3170.0 84 81 84 84 79 81 78 85 80 80
3210.0 86 81 81 81 85 84 83 87 88 87
3250.0 83 82 85 90 86 83 89 86 81 85
3290.0 89 84 82 86 84 78 87 81 82 82
3330.0 81 89 85 88 84 90 85 82 88 81
3370.0 83 86 86 92 82 83 85 88 87 89
3410.0 85 90 88 91 89 86 88 79 82 87
3450.0 91 83 82 86 90 84 89 82 88 80
3490.0 89 90 92 93 84 84 84 86 92 89
3530.0 85 93 88 85 85 88 99 87 90 84
3570.0 83 80 83 82 92 81 87 77 88 81
3610.0 88 90 87 89 74 99 84 84 75 89
3650.0 82 101 73 85 78 83 88 87 88 69
3690.0 88 88 84 80 83 83 92 84 85 79
3730.0 88 95 88 97 85 111 91 86 88 88
3770.0 79 84 84 86 87 77 89 103 92 95
3810.0 88 97 91 99 90 83 97 103 93 103
3850.0 97 93 102 95 104 117 114 92 101 109
3890.0 94 86 96 102 112 90 96 111 96 106
3930.0 102 126 94 97 108 82 107 101 95 110
##END=
