##TITLE=4-Amino-3-nitrobenzotrifluoride
##JCAMP-DX=4.24
##DATA TYPE=INFRARED SPECTRUM
##ORIGIN=Sadtler Research Labs Under US-EPA Contract
##OWNER=NIST Standard Reference Data Program
##CAS REGISTRY NO=400-98-6
##MOLFORM=C 7 H 5 F 3 N 2 O 2
##XUNITS=1/CM
##YUNITS=ABSORBANCE
##XFACTOR=1.0
##YFACTOR=0.000042041
##DELTAX=4.0
##FIRSTX=450.0
##LASTX=3966.0
##FIRSTY=0.032540
##MAXX=3966
##MINX=450
##MAXY=0.42041
##MINY=0
##NPOINTS=880
##XYDATA=(X++(Y..Y))
450.0 774 885 675 578 392 447 124 273 615 670
490.0 540 390 13 373 364 564 699 491 242 290
530.0 206 606 426 396 328 306 182 85 408 499
570.0 25 459 297 264 559 304 271 352 456 524
610.0 641 666 1076 1176 1029 829 729 434 305 300
650.0 127 240 135 266 38 217 259 224 566 548
690.0 780 1059 994 965 697 672 430 293 469 349
730.0 457 147 235 139 468 199 181 105 428 415
770.0 376 422 258 355 282 342 511 515 800 899
810.0 1017 1085 1184 1306 1055 808 591 386 336 297
850.0 310 329 281 273 271 295 257 284 297 200
890.0 253 350 449 514 581 653 584 578 476 438
930.0 350 233 160 166 125 231 211 127 183 212
970.0 123 86 156 207 179 102 259 252 312 281
1010.0 356 428 405 437 538 545 685 702 745 865
1050.0 841 860 825 824 863 983 1123 1182 1265 1255
1090.0 1139 1226 1351 1548 1774 1776 2048 1931 1763 1705
1130.0 2062 2651 3485 4765 5690 5552 4647 3705 3311 3098
1170.0 3073 3133 2855 2222 1605 1014 622 484 373 336
1210.0 316 327 340 301 310 315 305 359 429 523
1250.0 691 1014 1623 2458 3038 3124 2637 2022 1880 2036
1290.0 2091 2071 1906 1714 1745 2243 3701 6460 8957 10000
1330.0 8498 5465 3770 3101 2546 1990 1483 1101 893 680
1370.0 513 430 347 329 301 259 267 282 237 230
1410.0 269 264 362 308 325 288 288 265 232 240
1450.0 199 291 201 261 179 229 260 328 409 485
1490.0 751 888 1058 1066 928 781 644 560 680 941
1530.0 1425 2030 2728 2890 2794 2088 1351 1052 853 951
1570.0 1117 1197 1356 1302 1228 1018 898 823 752 755
1610.0 695 750 812 1119 1662 2385 3101 3645 3852 3198
1650.0 2481 1514 788 539 367 248 292 146 243 98
1690.0 164 135 86 129 94 123 110 134 109 88
1730.0 142 94 109 86 138 127 107 106 116 108
1770.0 120 111 79 95 83 56 77 60 91 49
1810.0 58 64 65 78 48 89 45 77 32 52
1850.0 20 21 36 29 44 38 35 34 37 35
1890.0 34 39 42 40 43 63 63 74 61 48
1930.0 23 34 37 34 52 37 22 45 21 42
1970.0 17 20 19 10 19 21 26 5 18 13
2010.0 2 6 10 8 13 0 15 13 11 15
2050.0 14 12 5 5 11 6 12 18 19 11
2090.0 24 15 24 17 22 26 13 15 25 18
2130.0 18 29 14 22 31 18 14 15 13 21
2170.0 32 27 25 30 40 37 40 44 33 31
2210.0 30 33 33 43 39 34 45 44 35 35
2250.0 48 44 53 48 38 43 62 59 61 72
2290.0 93 96 122 126 142 158 142 143 120 121
2330.0 121 98 121 53 219 107 210 98 167 94
2370.0 112 85 98 117 89 57 38 36 44 37
2410.0 31 36 27 32 38 35 27 38 28 32
2450.0 33 26 31 32 31 27 26 28 34 25
2490.0 13 15 18 13 8 3 10 14 7 13
2530.0 9 15 22 22 20 18 19 27 26 13
2570.0 21 22 25 26 29 29 26 25 20 28
2610.0 30 31 37 27 33 32 44 49 59 64
2650.0 56 53 56 49 54 47 50 55 53 54
2690.0 52 53 46 44 41 41 30 40 42 43
2730.0 48 43 42 50 44 48 49 52 59 58
2770.0 61 70 62 80 86 81 74 75 75 72
2810.0 80 89 89 87 92 91 92 100 94 94
2850.0 98 110 105 109 110 113 117 127 130 122
2890.0 126 129 127 127 133 142 149 134 137 157
2930.0 152 150 170 150 153 170 170 200 234 253
2970.0 256 221 183 158 146 142 124 117 130 123
3010.0 132 137 131 139 134 148 139 149 153 162
3050.0 182 186 207 200 179 180 175 183 196 212
3090.0 208 211 214 209 171 145 131 128 115 109
3130.0 101 115 120 122 120 105 113 112 99 115
3170.0 103 106 105 116 116 123 120 119 106 107
3210.0 112 103 92 107 96 97 102 89 83 88
3250.0 90 78 81 71 64 82 96 90 75 81
3290.0 82 69 85 65 75 74 83 81 72 77
3330.0 99 93 78 76 93 93 107 95 102 88
3370.0 116 117 123 145 191 275 394 583 808 1055
3410.0 1237 1241 1023 716 427 246 185 146 121 130
3450.0 94 113 123 139 139 137 132 121 153 180
3490.0 173 200 202 249 310 327 409 458 538 636
3530.0 694 708 692 646 605 462 354 221 224 140
3570.0 192 122 163 139 184 145 170 104 126 146
3610.0 114 149 111 170 70 160 100 158 114 171
3650.0 35 194 84 168 132 81 199 22 196 81
3690.0 133 124 174 175 163 110 179 120 197 115
3730.0 171 147 105 282 1 247 1 239 140 154
3770.0 184 120 134 137 127 199 123 242 112 173
3810.0 152 205 145 116 172 118 105 110 95 268
3850.0 64 246 95 180 144 133 173 91 216 149
3890.0 151 26 288 139 182 128 94 240 142 180
3930.0 139 281 199 175 139 295 244 214 175 187
##END=
