##TITLE=Benzene, 1-iodo-3-(trifluoromethyl)-
##JCAMP-DX=4.24
##DATA TYPE=INFRARED SPECTRUM
##ORIGIN=Sadtler Research Labs Under US-EPA Contract
##OWNER=NIST Standard Reference Data Program
##CAS REGISTRY NO=401-81-0
##MOLFORM=C 7 H 4 F 3 I
##XUNITS=1/CM
##YUNITS=ABSORBANCE
##XFACTOR=1.0
##YFACTOR=0.000113840
##DELTAX=4.0
##FIRSTX=450.0
##LASTX=3966.0
##FIRSTY=0.000000
##MAXX=3966
##MINX=450
##MAXY=1.1384
##MINY=0
##NPOINTS=880
##XYDATA=(X++(Y..Y))
450.0 0 347 420 464 414 432 380 507 390 515
490.0 356 453 435 404 471 399 434 383 455 378
530.0 430 427 417 401 421 411 363 447 368 424
570.0 373 450 432 417 455 321 431 399 468 374
610.0 443 402 436 408 440 480 445 523 539 560
650.0 487 484 426 427 446 434 592 900 1838 2489
690.0 2487 1687 1179 947 732 584 459 458 434 523
730.0 466 425 430 433 432 432 488 493 585 524
770.0 537 542 683 978 1407 1830 1583 1092 742 532
810.0 447 434 422 413 411 405 423 407 417 406
850.0 414 401 398 404 396 412 411 437 469 544
890.0 608 659 607 552 516 472 486 484 482 442
930.0 432 411 398 404 425 430 419 415 400 399
970.0 395 413 413 432 447 476 543 570 583 541
1010.0 559 576 570 531 480 490 513 539 562 601
1050.0 676 866 1163 1400 1532 1561 1514 1664 1822 1737
1090.0 1497 1325 1146 870 714 719 722 740 776 888
1130.0 1093 1465 2109 3202 4709 6437 7610 6851 5089 3555
1170.0 3123 3498 4342 4694 4473 3708 2763 2033 1356 1007
1210.0 806 711 648 601 553 493 484 467 482 487
1250.0 543 636 843 1208 1526 1501 1087 755 777 1127
1290.0 1608 2165 2884 3459 3495 3610 4992 7882 10000 9288
1330.0 5692 2664 1256 806 693 634 553 495 467 474
1370.0 464 460 441 439 463 495 552 635 708 729
1410.0 763 896 1207 1480 1480 1193 877 694 577 509
1450.0 447 434 433 447 483 529 578 597 572 527
1490.0 477 426 415 398 404 409 391 400 403 405
1530.0 396 400 399 409 415 419 439 461 500 561
1570.0 688 792 819 738 635 574 524 493 457 441
1610.0 420 402 396 387 387 382 391 393 400 402
1650.0 424 420 420 431 432 435 425 409 404 411
1690.0 396 398 421 453 468 441 416 396 386 373
1730.0 379 385 385 388 396 402 398 411 402 413
1770.0 411 424 418 423 418 407 399 392 400 396
1810.0 398 396 395 391 394 396 389 385 383 383
1850.0 377 375 375 381 393 395 386 382 399 419
1890.0 437 421 396 377 373 374 373 373 376 380
1930.0 382 392 395 405 413 410 406 393 388 380
1970.0 376 368 370 361 360 365 360 365 358 362
2010.0 359 359 362 357 357 357 355 340 351 356
2050.0 358 369 376 365 358 353 348 344 346 363
2090.0 362 369 372 374 379 385 392 383 373 368
2130.0 369 366 369 364 365 362 362 368 365 366
2170.0 365 361 360 361 363 360 362 360 363 364
2210.0 367 362 364 366 367 367 367 368 363 366
2250.0 367 368 367 368 369 367 370 367 375 373
2290.0 384 385 387 389 388 390 380 392 394 385
2330.0 376 370 360 363 358 376 393 384 373 335
2370.0 315 321 329 341 353 359 353 361 355 356
2410.0 353 351 353 350 351 344 350 346 348 347
2450.0 344 346 349 347 347 353 345 347 348 348
2490.0 341 346 345 345 345 345 343 337 339 334
2530.0 337 341 341 337 337 339 338 338 334 336
2570.0 335 334 338 339 346 343 347 341 345 340
2610.0 346 344 340 346 344 343 346 348 339 345
2650.0 352 351 351 346 334 321 318 320 326 329
2690.0 340 345 336 337 331 332 331 329 328 325
2730.0 324 332 333 326 330 324 328 327 330 326
2770.0 328 327 323 328 322 328 326 327 322 324
2810.0 328 325 326 325 332 326 327 325 329 330
2850.0 327 326 325 330 324 329 328 323 326 330
2890.0 333 333 337 341 346 340 345 346 346 337
2930.0 341 337 340 339 337 337 327 333 337 331
2970.0 336 336 339 332 332 333 337 331 326 335
3010.0 327 337 330 345 337 347 353 350 341 346
3050.0 345 345 346 363 392 425 478 503 517 501
3090.0 455 410 379 364 354 349 337 339 333 336
3130.0 339 344 333 345 337 346 334 331 338 343
3170.0 337 338 337 341 341 346 342 335 329 335
3210.0 339 338 333 331 331 337 334 337 340 338
3250.0 330 348 336 327 335 335 340 337 331 319
3290.0 331 338 340 324 332 326 337 329 352 332
3330.0 316 339 316 332 337 338 338 328 329 339
3370.0 325 336 327 324 339 335 336 339 336 338
3410.0 325 336 338 340 331 342 340 344 339 333
3450.0 333 348 342 330 349 344 343 341 333 332
3490.0 341 335 337 354 335 343 346 337 338 353
3530.0 342 328 350 339 337 320 341 340 333 341
3570.0 322 324 354 349 339 333 333 338 344 333
3610.0 359 326 331 353 359 346 329 336 337 351
3650.0 337 341 321 322 349 347 345 345 345 345
3690.0 344 345 336 344 337 347 349 354 350 355
3730.0 350 344 350 340 340 350 334 355 355 350
3770.0 351 352 351 350 352 347 340 365 354 349
3810.0 345 336 322 345 335 333 324 334 333 337
3850.0 342 345 354 343 343 348 334 334 334 387
3890.0 349 330 336 342 356 354 350 351 347 329
3930.0 326 329 354 343 336 331 366 356 341 355
##END=
