##TITLE=Isonicotinic acid, 2-chloro-3-cyano-6-methyl-, ethyl ester
##JCAMP-DX=4.24
##DATA TYPE=INFRARED SPECTRUM
##ORIGIN=Sadtler Research Labs Under US-EPA Contract
##OWNER=NIST Standard Reference Data Program
##CAS REGISTRY NO=40108-12-1
##MOLFORM=C 10 H 9 Cl N 2 O 2
##XUNITS=1/CM
##YUNITS=ABSORBANCE
##XFACTOR=1.0
##YFACTOR=0.000080539
##DELTAX=4.0
##FIRSTX=450.0
##LASTX=3966.0
##FIRSTY=0.000644
##MAXX=3966
##MINX=450
##MAXY=0.80539
##MINY=0
##NPOINTS=880
##XYDATA=(X++(Y..Y))
450.0 8 213 184 490 259 562 475 497 212 126
490.0 260 194 367 366 144 367 239 11 259 159
530.0 149 177 224 223 75 132 282 214 71 102
570.0 33 230 150 110 172 300 393 339 287 205
610.0 173 170 230 302 312 282 273 266 285 297
650.0 188 134 155 134 330 505 453 316 310 287
690.0 355 359 294 194 190 165 351 421 719 1167
730.0 1345 2198 2305 2082 1031 1193 711 529 439 271
770.0 459 479 405 583 628 844 789 694 502 404
810.0 449 331 313 337 280 199 225 288 432 449
850.0 479 671 866 1020 939 965 1086 1222 1526 1684
890.0 1728 1529 1172 849 509 424 295 280 322 436
930.0 506 492 509 413 264 208 198 201 154 211
970.0 261 246 295 386 505 536 658 811 1046 1385
1010.0 1888 2335 2612 2627 2235 1696 1206 870 681 566
1050.0 474 458 470 484 513 669 789 834 862 985
1090.0 1232 1530 2051 2506 2603 2280 1791 1296 1004 879
1130.0 775 644 624 588 559 545 630 659 816 849
1170.0 971 1045 1217 1494 1854 2440 3278 4292 5035 5129
1210.0 5057 5381 6163 6843 7042 6796 5979 5178 4475 3906
1250.0 3681 3981 4858 6288 8306 9598 10000 9080 7836 6525
1290.0 5114 3917 3137 2674 2261 1958 1732 1585 1496 1443
1330.0 1492 1631 1912 2333 2925 3665 4233 4306 3905 3365
1370.0 3371 3923 4531 4807 4629 3952 3408 2981 2710 2333
1410.0 2006 1798 1841 2023 2223 2296 2183 1894 1649 1510
1450.0 1484 1444 1486 1470 1574 1588 1689 1759 1846 1696
1490.0 1546 1541 1520 1531 1483 1401 1545 1480 1704 1910
1530.0 2205 2502 2590 2537 2278 1970 1613 1484 1632 1937
1570.0 2405 2841 3369 4164 4263 4304 3740 2783 1928 1341
1610.0 1029 795 748 659 678 609 614 541 533 563
1650.0 450 510 490 583 558 593 608 714 746 836
1690.0 932 1033 1088 1109 1263 1256 1348 1402 1567 1952
1730.0 2376 3229 4509 6092 7122 7198 5976 4675 3778 3166
1770.0 2579 1956 1550 1148 838 648 460 353 313 204
1810.0 188 160 121 127 100 88 108 79 103 40
1850.0 83 79 82 85 62 81 48 67 53 44
1890.0 46 38 38 27 27 24 22 7 22 15
1930.0 17 17 16 20 11 25 19 22 25 22
1970.0 25 20 17 16 9 13 4 8 3 3
2010.0 6 4 8 9 2 6 0 6 7 13
2050.0 15 7 10 20 23 24 25 29 32 25
2090.0 30 31 28 32 27 26 17 15 16 14
2130.0 18 13 17 16 17 23 20 21 16 12
2170.0 13 9 11 6 7 4 3 7 13 15
2210.0 19 24 34 47 77 123 149 149 126 83
2250.0 54 42 39 42 46 61 61 64 62 48
2290.0 47 46 43 49 44 42 57 45 51 41
2330.0 26 30 14 73 0 70 1 40 19 13
2370.0 17 11 24 29 24 16 8 12 16 10
2410.0 17 18 24 19 14 20 17 16 18 17
2450.0 22 18 23 24 27 26 32 37 33 34
2490.0 38 36 32 31 23 21 21 21 16 15
2530.0 7 3 3 4 1 1 2 2 1 0
2570.0 0 0 5 6 4 5 7 13 16 19
2610.0 25 29 32 39 37 36 33 31 24 26
2650.0 28 25 22 21 16 20 19 24 20 20
2690.0 23 30 25 27 37 35 31 32 40 37
2730.0 50 53 51 51 56 58 61 59 63 56
2770.0 58 62 68 77 80 82 90 88 93 92
2810.0 98 103 110 122 119 136 138 144 158 170
2850.0 163 178 201 237 255 280 298 310 346 387
2890.0 408 409 407 423 455 492 527 549 573 614
2930.0 686 798 944 1089 1183 1162 1039 914 851 889
2970.0 952 1038 1147 1317 1571 1780 1754 1506 1227 1032
3010.0 915 798 682 595 525 470 421 388 365 340
3050.0 330 326 309 303 293 297 305 304 283 259
3090.0 231 207 196 193 184 182 167 156 139 128
3130.0 119 110 103 95 81 100 99 92 85 92
3170.0 89 91 84 85 85 86 81 83 74 67
3210.0 78 75 84 79 72 72 72 73 82 76
3250.0 76 69 77 74 73 74 70 75 74 68
3290.0 75 86 83 79 74 78 79 82 85 84
3330.0 87 87 91 91 87 91 89 80 87 77
3370.0 62 78 85 97 87 78 62 58 58 67
3410.0 72 60 56 54 40 49 60 39 53 53
3450.0 43 50 59 70 87 100 93 91 91 86
3490.0 89 78 79 105 98 96 70 61 79 89
3530.0 80 74 79 88 90 93 71 116 77 137
3570.0 114 109 109 118 103 120 99 115 99 98
3610.0 106 93 98 97 126 41 118 89 127 83
3650.0 100 59 132 110 88 133 7 115 61 114
3690.0 74 83 142 98 117 117 76 143 108 163
3730.0 109 80 137 35 132 2 127 51 107 103
3770.0 80 131 109 95 122 115 124 88 105 58
3810.0 95 112 145 91 103 139 74 67 143 64
3850.0 135 28 117 83 124 101 72 106 95 118
3890.0 77 110 88 115 118 108 127 74 110 104
3930.0 130 136 101 121 75 138 56 70 71 47
##END=
