##TITLE=Oxirane, [(1-methylethoxy)methyl]-
##JCAMP-DX=4.24
##DATA TYPE=INFRARED SPECTRUM
##ORIGIN=Sadtler Research Labs Under US-EPA Contract
##OWNER=NIST Standard Reference Data Program
##CAS REGISTRY NO=4016-14-2
##MOLFORM=C 6 H 12 O 2
##XUNITS=1/CM
##YUNITS=ABSORBANCE
##XFACTOR=1.0
##YFACTOR=0.000079401
##DELTAX=4.0
##FIRSTX=450.0
##LASTX=3966.0
##FIRSTY=0.031363
##MAXX=3966
##MINX=450
##MAXY=0.79401
##MINY=0
##NPOINTS=880
##XYDATA=(X++(Y..Y))
450.0 395 247 330 443 497 235 340 347 281 266
490.0 30 182 103 105 197 101 164 71 253 135
530.0 245 137 80 146 219 332 384 158 232 266
570.0 283 200 127 229 221 190 180 174 156 129
610.0 176 274 270 282 174 224 144 239 223 189
650.0 188 158 107 198 137 156 142 107 186 183
690.0 115 111 206 129 116 128 125 135 197 158
730.0 274 238 261 269 394 481 601 720 807 871
770.0 901 887 781 758 698 723 749 841 912 963
810.0 1032 1169 1272 1448 1635 1885 2170 2427 2613 2667
850.0 2636 2392 2061 1659 1268 995 814 730 732 797
890.0 864 1056 1215 1396 1641 1832 2014 2147 2272 2226
930.0 2134 1964 1688 1406 1160 946 817 768 764 785
970.0 862 970 1081 1181 1246 1242 1185 1077 908 783
1010.0 690 673 753 862 941 1025 1094 1105 1101 1081
1050.0 1082 1188 1334 1601 2084 2721 3460 4467 5807 7181
1090.0 8006 8181 7890 6795 5509 4886 5038 5491 5997 6494
1130.0 6894 7199 7311 7334 7112 6862 6777 6505 6141 5813
1170.0 5303 4561 3729 3019 2491 1959 1439 1097 913 813
1210.0 782 783 808 858 918 988 1055 1104 1159 1210
1250.0 1276 1327 1324 1284 1214 1096 1001 911 830 759
1290.0 678 618 565 569 608 716 928 1307 1862 2519
1330.0 3054 3313 3151 2624 2084 1737 1626 1707 1921 2247
1370.0 2563 2989 3616 3976 3818 3310 2655 1824 1235 989
1410.0 838 760 695 647 615 594 600 638 683 759
1450.0 852 980 1093 1187 1225 1263 1249 1173 1064 922
1490.0 752 603 473 376 315 281 229 226 221 208
1530.0 185 186 190 177 178 160 156 155 151 140
1570.0 137 133 124 128 133 129 139 119 124 126
1610.0 121 141 146 161 155 158 150 151 150 155
1650.0 172 173 172 146 148 136 141 131 144 143
1690.0 149 159 187 217 221 232 251 249 242 251
1730.0 288 326 362 395 447 470 468 473 429 382
1770.0 351 320 288 236 212 185 165 149 129 117
1810.0 104 98 87 80 80 80 75 75 71 77
1850.0 69 69 70 75 75 76 79 81 82 89
1890.0 89 94 90 87 90 89 81 86 87 86
1930.0 85 88 86 89 88 80 88 88 88 96
1970.0 94 103 106 110 112 114 116 108 109 109
2010.0 101 99 102 99 92 96 94 93 88 91
2050.0 90 86 85 85 84 84 78 74 70 68
2090.0 65 60 61 57 52 50 51 53 52 46
2130.0 49 54 61 62 74 82 86 92 94 104
2170.0 104 101 96 93 86 79 74 71 75 72
2210.0 73 71 75 76 74 80 80 91 99 109
2250.0 118 119 123 119 115 107 106 111 111 116
2290.0 117 120 118 114 114 112 92 85 73 61
2330.0 56 37 33 22 28 45 48 49 31 40
2370.0 23 29 32 32 29 24 18 16 17 18
2410.0 15 15 9 12 8 6 4 5 8 2
2450.0 0 4 6 7 10 11 7 12 15 19
2490.0 18 22 30 32 30 29 25 26 22 22
2530.0 18 14 17 18 22 23 23 28 25 23
2570.0 27 27 24 27 35 40 45 56 63 75
2610.0 92 106 120 142 152 173 190 198 204 194
2650.0 177 158 145 131 117 105 102 98 93 91
2690.0 97 108 112 123 134 142 157 173 194 213
2730.0 234 255 275 287 295 298 296 299 305 314
2770.0 332 348 359 379 394 410 428 459 488 531
2810.0 595 652 736 818 898 990 1087 1202 1348 1539
2850.0 1791 2107 2481 2891 3307 3681 3972 4112 4088 3974
2890.0 3811 3618 3456 3350 3301 3300 3363 3477 3649 3844
2930.0 4068 4242 4335 4280 4062 3755 3468 3348 3571 4321
2970.0 5703 7431 8945 10000 9681 8574 7130 5701 4532 3756
3010.0 3185 2664 2174 1744 1419 1227 1170 1242 1487 1736
3050.0 1925 1950 1878 1614 1301 1005 804 627 448 311
3090.0 236 196 164 142 136 127 121 111 96 91
3130.0 92 86 76 71 73 76 76 88 87 92
3170.0 99 100 104 103 99 96 97 92 86 79
3210.0 80 69 60 66 57 42 30 34 24 20
3250.0 18 15 7 10 2 8 8 7 12 3
3290.0 9 11 13 18 11 24 20 3 24 19
3330.0 16 20 12 12 11 15 24 12 12 17
3370.0 18 20 23 17 11 11 16 20 12 14
3410.0 19 27 17 18 27 25 5 7 18 20
3450.0 20 12 6 10 25 8 10 1 0 15
3490.0 13 4 2 8 3 6 5 9 14 3
3530.0 15 16 9 6 10 5 23 29 24 11
3570.0 35 19 33 27 33 39 28 23 23 43
3610.0 30 40 41 42 37 46 25 29 31 27
3650.0 27 23 19 21 27 28 34 28 5 17
3690.0 8 14 10 19 0 0 16 11 15 9
3730.0 26 10 32 26 36 20 28 28 42 42
3770.0 27 39 35 40 63 36 45 52 48 32
3810.0 34 30 37 56 31 34 38 34 17 31
3850.0 35 26 32 16 10 1 0 0 0 17
3890.0 11 5 4 6 0 0 20 28 0 0
3930.0 12 0 0 0 18 18 10 15 1 1
##END=
