##TITLE=4-Fluoro-.alpha.,.alpha.,.alpha.-trichlorotoluene
##JCAMP-DX=4.24
##DATA TYPE=INFRARED SPECTRUM
##ORIGIN=Sadtler Research Labs Under US-EPA Contract
##OWNER=NIST Standard Reference Data Program
##CAS REGISTRY NO=402-42-6
##MOLFORM=C 7 H 4 Cl 3 F
##XUNITS=1/CM
##YUNITS=ABSORBANCE
##XFACTOR=1.0
##YFACTOR=0.000057031
##DELTAX=4.0
##FIRSTX=450.0
##LASTX=3966.0
##FIRSTY=0.011064
##MAXX=3966
##MINX=450
##MAXY=0.57031
##MINY=0
##NPOINTS=880
##XYDATA=(X++(Y..Y))
450.0 194 141 154 119 90 40 13 36 73 80
490.0 47 82 78 154 225 326 387 387 487 448
530.0 373 312 336 397 682 1429 3385 4118 3338 1745
570.0 130 13 175 164 222 133 163 163 127 113
610.0 145 181 224 231 316 337 356 342 315 313
650.0 231 242 246 257 306 325 389 573 799 1085
690.0 1401 1679 1966 2115 1838 1486 1177 897 639 581
730.0 618 774 1105 1604 2254 3242 4385 5897 7676 9114
770.0 9001 7680 6118 4488 3730 3829 4681 5661 6147 5841
810.0 5246 4585 4062 3292 2514 1905 1481 1244 1177 1151
850.0 1050 991 1077 1215 1560 2466 4424 5102 4168 2202
890.0 702 436 363 283 264 228 245 250 299 287
930.0 257 230 239 273 261 233 219 188 185 183
970.0 163 155 137 127 132 109 108 126 127 199
1010.0 404 563 572 416 179 111 114 146 204 304
1050.0 337 283 183 132 146 156 165 174 179 184
1090.0 194 182 215 208 217 245 205 209 207 187
1130.0 184 163 149 148 150 211 382 1212 3913 5069
1170.0 4810 3092 2352 3379 4056 3621 2192 942 606 572
1210.0 685 825 818 754 711 997 1557 2839 5670 9006
1250.0 9928 7330 3370 1481 954 790 719 666 591 535
1290.0 506 507 518 475 455 446 384 339 312 305
1330.0 293 277 275 250 226 216 211 223 240 236
1370.0 217 199 155 148 161 201 253 337 419 502
1410.0 524 515 522 468 413 376 315 294 228 229
1450.0 238 277 443 512 541 431 309 198 196 241
1490.0 354 625 1583 3981 8117 10000 8138 3993 1455 839
1530.0 581 478 471 582 539 468 386 372 386 406
1570.0 496 509 550 545 731 1179 2078 3426 4684 4718
1610.0 3438 2021 1281 943 879 872 814 668 451 406
1650.0 351 413 262 234 203 213 184 164 158 196
1690.0 131 119 171 187 120 100 115 167 126 125
1730.0 118 172 124 152 167 245 333 412 409 350
1770.0 269 206 152 143 144 133 146 117 117 109
1810.0 109 97 83 75 83 76 68 65 69 83
1850.0 66 55 65 64 73 100 106 128 169 214
1890.0 254 255 255 228 186 142 105 87 69 53
1930.0 53 59 52 62 62 61 60 70 77 86
1970.0 86 86 68 67 60 60 60 48 55 51
2010.0 50 50 59 58 76 93 121 138 155 174
2050.0 178 159 152 136 129 94 75 58 56 49
2090.0 48 48 48 48 48 48 48 48 54 55
2130.0 55 46 46 46 46 46 46 46 46 46
2170.0 45 45 45 45 45 44 44 44 44 44
2210.0 44 44 39 41 43 43 44 44 35 44
2250.0 34 43 43 43 43 47 50 50 51 51
2290.0 58 58 58 58 67 69 75 77 73 71
2330.0 85 84 74 82 74 48 84 109 163 169
2370.0 157 116 86 58 41 46 48 55 63 81
2410.0 81 89 86 61 42 38 38 38 36 36
2450.0 36 36 36 37 44 56 63 85 99 104
2490.0 105 90 72 45 34 35 34 26 34 35
2530.0 35 27 30 26 25 31 33 34 41 49
2570.0 59 67 67 58 46 32 33 23 23 24
2610.0 22 22 22 23 15 13 13 21 15 7
2650.0 7 14 14 12 12 12 12 20 30 29
2690.0 38 38 31 33 24 20 20 11 3 3
2730.0 11 2 10 11 18 20 29 30 30 30
2770.0 30 30 31 39 47 48 39 31 31 33
2810.0 23 23 24 25 16 16 17 17 9 17
2850.0 18 18 9 13 27 22 18 28 28 28
2890.0 20 20 21 11 13 16 8 17 17 19
2930.0 22 23 14 14 15 14 8 15 16 9
2970.0 11 13 7 18 14 10 9 9 18 19
3010.0 27 28 21 17 14 21 21 18 27 36
3050.0 37 55 82 110 115 115 86 88 103 162
3090.0 215 210 165 81 49 50 50 50 50 48
3130.0 44 38 27 24 21 17 28 19 18 18
3170.0 20 20 19 26 30 28 38 32 40 30
3210.0 22 13 13 23 21 22 24 17 14 16
3250.0 21 15 16 10 0 9 8 17 1 18
3290.0 14 16 21 8 14 11 19 10 3 20
3330.0 3 12 19 5 15 18 13 13 13 13
3370.0 13 15 14 5 24 21 17 6 20 15
3410.0 16 15 20 24 26 8 27 17 20 26
3450.0 9 7 11 20 18 23 22 10 20 21
3490.0 22 22 22 14 27 17 17 19 13 34
3530.0 23 23 23 33 34 34 34 34 34 36
3570.0 45 30 38 62 75 78 70 54 36 27
3610.0 55 45 48 47 40 77 40 22 38 47
3650.0 81 47 38 31 42 70 65 69 46 44
3690.0 74 47 33 34 42 60 57 43 50 53
3730.0 52 70 79 65 89 86 73 45 45 55
3770.0 54 28 32 42 38 34 43 62 76 64
3810.0 58 57 66 75 57 60 67 77 62 58
3850.0 83 93 73 77 68 78 69 62 69 80
3890.0 70 60 61 72 57 62 61 55 54 55
3930.0 63 56 46 57 66 70 0 5 6 6
##END=
