##TITLE=Benzene, 1-bromo-4-(trifluoromethyl)-
##JCAMP-DX=4.24
##DATA TYPE=INFRARED SPECTRUM
##ORIGIN=Sadtler Research Labs Under US-EPA Contract
##OWNER=NIST Standard Reference Data Program
##CAS REGISTRY NO=402-43-7
##MOLFORM=C 7 H 4 Br F 3
##XUNITS=1/CM
##YUNITS=ABSORBANCE
##XFACTOR=1.0
##YFACTOR=0.000187268
##DELTAX=4.0
##FIRSTX=450.0
##LASTX=3966.0
##FIRSTY=0.000000
##MAXX=3966
##MINX=450
##MAXY=1.87268
##MINY=0
##NPOINTS=880
##XYDATA=(X++(Y..Y))
450.0 0 133 64 62 55 91 93 80 101 109
490.0 116 124 103 86 72 64 39 34 39 31
530.0 42 41 40 56 58 71 60 61 77 71
570.0 85 88 121 135 125 162 161 150 139 115
610.0 91 76 71 66 53 62 59 53 44 47
650.0 48 56 66 49 44 55 45 47 49 61
690.0 79 80 67 41 51 60 68 78 93 79
730.0 74 70 62 56 51 49 48 49 60 88
770.0 218 375 383 210 71 64 63 66 79 112
810.0 171 265 410 576 708 863 931 747 642 451
850.0 282 180 103 75 57 45 42 44 44 39
890.0 43 42 37 39 41 38 42 42 38 36
930.0 38 41 41 49 54 58 55 56 56 53
970.0 47 43 45 46 50 55 66 94 177 459
1010.0 1253 1971 1906 917 223 99 95 90 83 76
1050.0 93 164 409 978 1559 2155 3258 3730 3045 1064
1090.0 519 398 468 534 596 655 622 605 616 690
1130.0 863 1143 1559 2171 3001 4053 4923 4732 4148 3535
1170.0 3484 3844 3818 3022 2138 1383 826 545 390 304
1210.0 267 270 296 310 273 201 133 104 98 100
1250.0 104 106 118 134 158 181 179 183 204 227
1290.0 232 241 265 331 476 744 1240 2421 5085 8777
1330.0 10000 5937 1728 490 254 188 159 177 215 204
1370.0 182 194 184 182 251 317 402 479 445 421
1410.0 388 272 299 191 163 103 123 97 64 63
1450.0 80 98 150 104 92 96 154 134 117 258
1490.0 405 375 312 200 224 253 186 184 199 125
1530.0 125 103 141 204 190 147 157 209 141 104
1570.0 124 136 139 155 152 215 315 631 1206 1619
1610.0 1331 577 182 88 110 51 99 113 91 111
1650.0 176 173 123 110 108 102 125 58 120 127
1690.0 78 56 134 124 100 55 87 142 72 46
1730.0 83 146 88 85 111 135 111 112 114 89
1770.0 128 150 123 130 114 108 102 72 85 46
1810.0 51 56 40 50 60 74 54 39 61 79
1850.0 53 33 38 37 50 73 40 34 37 45
1890.0 60 67 71 79 91 98 100 98 97 71
1930.0 55 51 43 57 50 40 39 40 37 43
1970.0 37 34 33 33 30 43 38 30 27 29
2010.0 27 30 34 30 28 29 27 30 32 31
2050.0 29 29 27 29 34 28 28 29 29 30
2090.0 37 41 50 58 56 46 33 29 29 30
2130.0 29 29 29 27 27 28 29 28 29 32
2170.0 31 30 30 29 30 28 31 31 33 32
2210.0 34 36 38 38 37 39 37 37 36 36
2250.0 35 35 34 36 37 40 44 50 54 56
2290.0 55 55 51 48 47 49 49 47 51 49
2330.0 49 48 47 46 51 48 45 42 49 53
2370.0 58 58 58 53 44 39 35 34 31 30
2410.0 30 29 27 28 27 28 28 28 29 29
2450.0 28 30 31 33 34 35 35 35 35 35
2490.0 34 34 35 35 34 34 31 29 29 29
2530.0 29 30 29 33 36 40 41 43 42 38
2570.0 33 32 32 32 34 36 36 34 34 32
2610.0 31 32 32 31 29 29 30 33 34 38
2650.0 42 42 36 30 27 28 28 31 31 30
2690.0 28 29 27 27 27 26 27 27 26 26
2730.0 28 29 28 28 26 27 28 29 28 28
2770.0 27 26 29 29 30 29 30 28 28 29
2810.0 29 30 31 29 30 29 29 29 29 29
2850.0 29 29 30 30 30 30 31 29 31 31
2890.0 31 30 30 30 31 32 35 38 42 49
2930.0 52 48 41 34 32 31 29 29 30 29
2970.0 30 28 28 29 29 30 30 29 29 30
3010.0 28 28 28 30 30 31 30 32 34 38
3050.0 38 41 43 45 43 43 43 43 45 44
3090.0 48 52 53 55 56 53 50 45 38 36
3130.0 32 31 29 29 32 32 33 34 32 31
3170.0 32 32 30 28 28 30 26 27 27 29
3210.0 29 31 31 30 31 31 32 30 31 31
3250.0 32 28 29 30 32 32 32 32 31 33
3290.0 32 32 31 32 30 30 32 34 30 30
3330.0 31 30 31 31 34 32 33 34 32 31
3370.0 31 31 34 32 31 32 32 31 32 32
3410.0 33 33 35 33 31 33 32 33 33 32
3450.0 33 31 31 32 31 32 32 33 31 33
3490.0 31 32 32 32 32 32 32 33 31 30
3530.0 34 33 29 31 31 33 31 33 31 32
3570.0 32 34 31 32 35 35 35 35 30 34
3610.0 33 32 34 36 31 31 35 33 33 30
3650.0 33 33 34 36 38 35 34 32 33 36
3690.0 38 36 37 37 35 32 33 36 38 37
3730.0 40 39 37 35 35 36 37 39 36 38
3770.0 30 33 38 35 37 34 35 35 38 37
3810.0 37 32 38 35 34 36 34 33 37 35
3850.0 35 38 36 33 38 41 33 40 38 36
3890.0 39 42 34 42 38 41 35 37 31 43
3930.0 33 33 35 36 38 38 39 37 37 36
##END=
