##TITLE=Benzene, 1-fluoro-4-(trifluoromethyl)-
##JCAMP-DX=4.24
##DATA TYPE=INFRARED SPECTRUM
##ORIGIN=Sadtler Research Labs Under US-EPA Contract
##OWNER=NIST Standard Reference Data Program
##CAS REGISTRY NO=402-44-8
##MOLFORM=C 7 H 4 F 4
##XUNITS=1/CM
##YUNITS=ABSORBANCE
##XFACTOR=1.0
##YFACTOR=0.000095929
##DELTAX=4.0
##FIRSTX=450.0
##LASTX=3966.0
##FIRSTY=0.018322
##MAXX=3966
##MINX=450
##MAXY=0.95929
##MINY=0
##NPOINTS=880
##XYDATA=(X++(Y..Y))
450.0 191 106 65 90 34 63 54 61 156 127
490.0 190 94 132 153 215 227 246 195 104 124
530.0 64 59 18 126 118 141 117 133 194 117
570.0 183 155 270 466 1275 1684 1785 1640 743 241
610.0 214 131 145 48 161 56 10 85 54 64
650.0 58 49 53 61 41 59 7 83 40 41
690.0 8 29 16 42 34 36 59 49 66 62
730.0 82 60 78 60 62 54 54 67 61 51
770.0 41 58 42 58 46 21 80 82 123 138
810.0 179 211 300 427 654 984 1279 1488 1848 1912
850.0 1376 1216 939 625 376 222 167 108 117 92
890.0 102 82 105 80 86 81 81 83 71 80
930.0 66 84 81 84 76 65 56 44 47 44
970.0 46 41 54 53 47 42 55 58 68 120
1010.0 255 465 491 502 355 185 130 118 127 153
1050.0 200 329 740 1998 3252 3581 3724 1886 631 538
1090.0 651 771 728 882 889 781 746 750 842 997
1130.0 1357 1895 2733 3854 5632 7139 7100 7013 6359 6165
1170.0 6328 5967 4521 3218 2419 1478 869 567 389 310
1210.0 251 234 228 250 310 465 851 1665 2740 3410
1250.0 3541 2756 1491 689 308 254 269 326 380 401
1290.0 400 448 577 752 1171 2034 3617 5926 8618 10000
1330.0 9016 6531 3661 2176 1653 1523 1110 587 468 439
1370.0 395 352 288 224 174 176 187 211 211 230
1410.0 249 251 284 252 250 214 200 170 129 120
1450.0 113 133 160 138 124 122 151 141 111 117
1490.0 130 112 148 174 288 517 957 1444 1538 1397
1530.0 945 415 298 285 221 180 149 181 131 121
1570.0 118 140 140 172 214 334 530 749 1000 1250
1610.0 1531 1837 1828 1540 1133 687 528 394 287 216
1650.0 225 241 234 254 258 240 219 144 150 132
1690.0 108 93 133 116 110 93 112 128 96 86
1730.0 101 132 98 99 106 120 110 124 133 147
1770.0 174 168 137 113 97 93 102 84 86 73
1810.0 80 83 74 86 85 93 81 80 85 93
1850.0 74 64 67 68 73 86 83 82 99 114
1890.0 139 154 166 165 162 167 135 123 111 83
1930.0 74 78 71 74 70 63 58 70 56 69
1970.0 70 70 64 66 66 72 69 63 59 49
2010.0 40 33 32 36 37 32 43 38 44 30
2050.0 32 42 54 70 85 107 117 116 112 99
2090.0 84 71 64 56 54 56 58 56 50 54
2130.0 58 63 58 55 55 61 65 64 62 62
2170.0 63 64 62 58 61 60 62 59 61 60
2210.0 67 69 66 66 60 64 64 67 63 63
2250.0 61 60 65 59 62 69 65 60 57 46
2290.0 39 25 20 20 13 3 24 31 25 28
2330.0 0 4 2 2 2 15 2 24 2 2
2370.0 2 2 2 2 2 23 44 46 54 54
2410.0 56 51 50 45 45 46 45 48 45 52
2450.0 42 51 47 46 45 49 53 59 63 69
2490.0 67 58 52 41 35 34 30 29 32 31
2530.0 26 26 24 33 30 29 30 27 30 35
2570.0 37 33 39 44 42 40 46 43 31 25
2610.0 22 26 20 23 27 34 37 44 50 48
2650.0 56 53 38 40 52 59 65 79 73 73
2690.0 62 37 26 18 12 18 19 17 13 12
2730.0 14 16 15 12 24 14 18 20 20 18
2770.0 25 18 13 18 9 6 19 17 12 16
2810.0 22 21 22 20 20 16 15 14 13 16
2850.0 20 20 18 13 13 18 10 7 12 15
2890.0 14 10 17 2 17 12 18 21 14 24
2930.0 31 29 28 34 27 26 22 15 15 16
2970.0 16 7 16 18 13 11 14 14 4 10
3010.0 16 5 7 18 4 11 9 11 9 7
3050.0 17 17 20 29 44 54 51 42 32 50
3090.0 57 68 56 45 19 22 17 16 17 18
3130.0 30 16 21 17 34 32 27 15 2 15
3170.0 11 18 20 24 10 18 28 18 28 22
3210.0 22 26 21 22 24 18 17 28 16 24
3250.0 18 32 18 18 7 25 33 17 20 21
3290.0 31 23 15 19 22 11 24 24 27 32
3330.0 20 19 20 22 28 13 25 17 27 26
3370.0 21 27 22 28 35 26 22 22 23 25
3410.0 17 14 39 39 21 28 20 51 33 41
3450.0 38 29 15 41 38 32 25 38 23 25
3490.0 31 44 35 33 40 23 24 24 22 39
3530.0 24 29 36 32 9 29 41 26 32 32
3570.0 30 34 40 44 39 42 41 47 38 50
3610.0 37 43 29 35 25 41 27 26 31 23
3650.0 18 15 20 39 20 45 25 27 25 38
3690.0 38 33 33 16 4 2 17 24 16 14
3730.0 22 31 5 14 49 7 15 2 24 42
3770.0 9 5 20 24 45 26 33 27 9 4
3810.0 7 19 15 27 43 34 28 43 28 26
3850.0 12 28 13 10 45 37 17 2 20 47
3890.0 41 16 43 47 38 41 43 24 41 23
3930.0 51 41 19 64 46 53 79 91 55 28
##END=
