##TITLE=Benzene, 1-(dichloromethyl)-3-fluoro-
##JCAMP-DX=4.24
##DATA TYPE=INFRARED SPECTRUM
##ORIGIN=Sadtler Research Labs Under US-EPA Contract
##OWNER=NIST Standard Reference Data Program
##CAS REGISTRY NO=402-64-2
##MOLFORM=C 7 H 5 Cl 2 F
##XUNITS=1/CM
##YUNITS=ABSORBANCE
##XFACTOR=1.0
##YFACTOR=0.000039529
##DELTAX=4.0
##FIRSTX=450.0
##LASTX=3966.0
##FIRSTY=0.018421
##MAXX=3966
##MINX=450
##MAXY=0.39529
##MINY=0
##NPOINTS=880
##XYDATA=(X++(Y..Y))
450.0 466 485 377 204 58 109 75 212 415 234
490.0 19 244 8 9 289 348 377 442 533 579
530.0 669 425 386 412 348 484 539 407 498 386
570.0 425 675 876 1095 1120 1106 1233 1280 1574 1543
610.0 1341 994 680 700 1359 1969 2402 2540 2106 1407
650.0 815 487 277 323 301 472 473 690 835 952
690.0 1014 1155 1204 1199 1436 1723 2178 2683 3313 3996
730.0 4862 5847 7463 8796 9797 9828 9714 9934 9326 7905
770.0 6490 5377 4881 4733 4555 4119 3460 2722 2449 2471
810.0 2855 3243 2803 1819 1273 710 417 352 311 419
850.0 496 671 978 1257 1633 1737 1686 1611 1352 1099
890.0 860 710 558 404 340 224 173 183 182 230
930.0 211 238 289 410 612 857 1140 1426 1464 1273
970.0 937 602 339 177 121 108 141 190 189 253
1010.0 204 174 118 85 115 137 148 206 415 798
1050.0 1167 1370 1442 1191 763 518 461 451 400 347
1090.0 323 324 379 501 841 1433 1942 2043 1847 1344
1130.0 1061 1250 1624 1939 2185 2293 2399 2331 2051 1614
1170.0 1113 692 506 459 444 479 542 689 1139 1734
1210.0 2390 2722 2693 2305 2104 2394 2945 3292 3333 3151
1250.0 3122 3815 5438 7446 9196 10000 9244 7520 5762 4574
1290.0 3964 3632 3301 2735 2028 1512 1091 780 456 270
1330.0 226 203 216 214 191 225 187 163 185 169
1370.0 182 205 189 224 280 318 400 496 600 926
1410.0 1534 1963 2319 2296 2117 2049 2267 2772 3211 3789
1450.0 4136 4234 4308 4502 5276 6192 6946 7733 7810 7647
1490.0 7275 6090 4370 2878 1809 1215 1043 800 750 650
1530.0 551 487 396 405 397 358 397 465 577 755
1570.0 994 1437 1983 2898 3685 4435 5220 4925 5083 4766
1610.0 4111 3980 3081 2370 1656 837 606 382 309 260
1650.0 187 237 137 193 160 131 206 165 196 240
1690.0 174 157 137 132 127 93 138 152 162 181
1730.0 199 288 249 270 302 311 322 335 274 223
1770.0 212 175 133 156 143 146 135 123 108 81
1810.0 46 37 33 25 49 46 63 45 74 112
1850.0 112 150 178 211 220 226 221 197 179 153
1890.0 97 59 70 63 62 69 90 100 132 136
1930.0 146 144 119 108 84 57 44 34 25 22
1970.0 23 18 28 27 25 27 27 21 31 37
2010.0 38 56 62 54 75 63 66 53 51 43
2050.0 35 27 34 33 28 24 25 27 41 55
2090.0 48 51 41 32 39 30 34 31 17 19
2130.0 13 8 3 1 7 5 1 11 13 11
2170.0 11 13 16 19 25 27 29 28 42 40
2210.0 43 36 44 34 34 29 30 41 33 25
2250.0 27 22 23 23 33 32 35 50 49 58
2290.0 48 53 59 63 67 71 57 63 50 58
2330.0 51 7 22 5 9 27 14 30 0 1
2370.0 14 19 32 50 53 43 30 44 56 61
2410.0 63 60 62 78 75 77 72 67 58 47
2450.0 43 32 37 33 41 48 43 39 39 40
2490.0 47 44 50 56 51 56 55 59 62 67
2530.0 62 61 55 55 52 57 47 41 42 43
2570.0 56 49 41 40 35 30 28 27 15 21
2610.0 27 21 19 21 15 18 9 14 9 19
2650.0 14 15 14 15 10 12 6 11 23 6
2690.0 21 12 16 24 25 30 45 56 45 44
2730.0 51 34 45 44 34 43 33 11 17 19
2770.0 11 3 11 10 6 14 13 11 15 5
2810.0 24 15 11 19 23 21 24 35 23 34
2850.0 47 38 37 45 61 57 61 81 84 82
2890.0 99 82 64 41 41 47 47 46 23 26
2930.0 47 28 42 59 81 89 88 116 139 202
2970.0 239 306 370 398 358 301 250 208 192 180
3010.0 165 153 123 127 108 132 167 215 263 324
3050.0 375 426 428 425 440 478 573 660 706 727
3090.0 656 556 429 304 221 183 153 121 105 73
3130.0 55 47 38 28 24 20 13 22 24 7
3170.0 4 24 37 42 28 42 36 27 38 36
3210.0 36 29 15 29 29 33 27 21 32 23
3250.0 22 32 31 32 28 19 26 26 37 39
3290.0 45 39 33 30 23 8 23 25 47 49
3330.0 28 29 47 39 26 36 35 54 62 39
3370.0 36 29 37 30 40 27 33 29 54 57
3410.0 54 16 36 49 73 22 50 36 47 50
3450.0 37 36 46 40 34 53 49 44 49 52
3490.0 37 37 37 49 60 57 40 49 67 93
3530.0 60 52 44 65 54 54 45 50 44 50
3570.0 82 56 66 86 102 120 67 68 46 53
3610.0 55 63 22 37 42 36 25 56 49 80
3650.0 36 71 61 42 66 56 40 47 89 34
3690.0 10 64 68 79 46 74 46 66 65 65
3730.0 46 16 42 101 67 61 64 56 18 67
3770.0 82 95 74 42 32 79 55 82 93 89
3810.0 36 63 97 69 128 93 128 65 63 76
3850.0 66 21 15 108 69 27 83 61 80 21
3890.0 64 65 85 15 58 10 37 72 48 116
3930.0 63 85 43 27 35 92 77 50 73 87
##END=
