##TITLE=Benzene, 1,3-bis(trifluoromethyl)-
##JCAMP-DX=4.24
##DATA TYPE=INFRARED SPECTRUM
##ORIGIN=Sadtler Research Labs Under US-EPA Contract
##OWNER=NIST Standard Reference Data Program
##CAS REGISTRY NO=402-31-3
##MOLFORM=C 8 H 4 F 6
##XUNITS=1/CM
##YUNITS=ABSORBANCE
##XFACTOR=1.0
##YFACTOR=0.000293210
##DELTAX=4.0
##FIRSTX=450.0
##LASTX=3966.0
##FIRSTY=0.000000
##MAXX=3966
##MINX=450
##MAXY=2.9321
##MINY=0
##NPOINTS=880
##XYDATA=(X++(Y..Y))
450.0 0 63 119 103 98 88 79 107 70 86
490.0 76 110 103 65 97 95 95 80 119 69
530.0 99 71 107 69 75 98 88 125 105 92
570.0 74 92 75 90 76 76 86 70 93 68
610.0 86 69 92 78 68 78 69 154 154 212
650.0 176 179 128 102 92 113 612 1098 1360 990
690.0 414 420 674 701 553 376 241 124 88 80
730.0 69 78 83 99 102 113 118 105 86 80
770.0 88 80 94 79 97 122 173 288 429 598
810.0 617 470 342 282 331 450 468 409 288 239
850.0 199 137 108 83 88 76 79 74 75 76
890.0 83 102 122 201 287 399 454 384 268 182
930.0 123 95 90 83 93 90 97 89 85 84
970.0 81 84 81 89 88 92 90 103 113 120
1010.0 123 125 129 124 125 125 129 128 127 125
1050.0 135 176 273 468 775 1167 1556 1967 2027 1516
1090.0 762 350 275 244 268 281 302 310 330 361
1130.0 438 644 1066 1904 3208 5125 7251 8605 6753 4962
1170.0 3520 2679 3019 4226 5610 5447 4062 2714 1617 982
1210.0 678 516 435 390 331 282 236 219 207 222
1250.0 266 371 533 728 982 1722 4013 7672 10000 5234
1290.0 3128 2579 2760 2712 2337 1922 1687 1366 916 622
1330.0 496 510 765 1231 1863 2428 2549 2298 1671 1013
1370.0 572 336 213 160 134 130 127 130 128 127
1410.0 117 115 122 115 118 117 117 109 100 110
1450.0 120 132 139 125 105 97 93 93 83 88
1490.0 89 89 92 89 97 95 84 86 84 79
1530.0 74 76 78 83 78 76 78 86 84 78
1570.0 81 85 95 94 99 98 100 108 119 127
1610.0 135 147 168 222 281 295 231 148 94 93
1650.0 92 104 92 85 86 83 81 75 79 85
1690.0 81 85 93 94 86 79 78 81 78 81
1730.0 98 119 120 103 90 81 78 76 79 76
1770.0 75 80 76 81 80 83 76 76 78 76
1810.0 81 92 100 104 105 95 88 71 74 74
1850.0 73 74 74 73 69 69 64 65 65 68
1890.0 68 73 80 90 105 112 108 88 79 73
1930.0 73 74 74 71 69 71 71 79 80 80
1970.0 81 78 74 73 71 70 71 69 70 68
2010.0 69 71 70 73 73 75 73 71 64 68
2050.0 68 66 68 64 65 59 60 59 60 60
2090.0 61 64 61 63 64 61 61 61 60 59
2130.0 61 63 63 63 61 61 64 63 63 61
2170.0 65 65 70 74 71 73 66 63 61 63
2210.0 64 64 65 68 71 71 74 73 71 71
2250.0 75 78 80 84 81 84 83 86 86 86
2290.0 88 93 93 93 90 85 83 76 78 75
2330.0 76 79 79 107 84 95 70 80 89 100
2370.0 105 109 102 94 86 76 74 71 71 70
2410.0 74 71 74 75 75 75 75 75 71 74
2450.0 74 73 74 75 75 75 78 74 73 73
2490.0 76 76 76 79 76 76 79 75 71 75
2530.0 75 79 76 74 76 78 76 76 76 74
2570.0 75 74 74 74 71 76 74 74 78 76
2610.0 78 80 83 81 84 84 81 79 78 76
2650.0 80 80 83 78 76 75 74 70 71 71
2690.0 68 75 78 74 75 76 79 73 78 78
2730.0 79 79 81 81 80 84 79 85 83 79
2770.0 76 79 78 76 80 76 85 80 83 85
2810.0 83 81 81 84 83 85 80 76 83 84
2850.0 85 79 79 85 86 81 86 86 88 83
2890.0 88 84 80 78 81 81 79 81 81 80
2930.0 85 90 92 85 86 89 90 90 92 92
2970.0 98 98 102 98 93 90 89 86 88 88
3010.0 83 84 80 85 86 85 90 86 90 83
3050.0 86 90 95 105 103 108 113 124 139 150
3090.0 158 159 134 119 109 100 89 80 84 81
3130.0 81 89 92 94 76 79 73 81 85 83
3170.0 80 79 83 83 75 75 78 76 78 78
3210.0 84 83 79 92 86 81 84 88 78 81
3250.0 74 79 76 79 79 75 79 83 80 80
3290.0 78 81 80 76 78 79 75 81 81 81
3330.0 74 83 76 76 78 78 79 80 76 79
3370.0 79 83 78 75 78 74 76 79 76 83
3410.0 73 78 78 75 74 80 78 73 84 80
3450.0 79 69 81 76 80 74 74 79 76 80
3490.0 70 71 80 73 63 70 70 78 74 74
3530.0 75 74 75 75 76 76 69 70 73 74
3570.0 71 79 75 81 73 73 79 74 76 71
3610.0 81 73 78 74 74 85 78 80 70 73
3650.0 79 73 78 74 84 76 80 69 79 78
3690.0 79 80 80 73 81 68 78 78 70 76
3730.0 76 85 86 84 83 89 63 79 86 78
3770.0 76 79 78 81 88 83 74 86 73 76
3810.0 83 76 76 73 76 71 76 79 86 75
3850.0 86 78 79 88 84 90 85 89 79 90
3890.0 75 93 85 83 81 76 75 84 95 81
3930.0 94 74 92 88 85 98 90 89 80 94
##END=
