##TITLE=Ethyl o-tolylacetate
##JCAMP-DX=4.24
##DATA TYPE=INFRARED SPECTRUM
##ORIGIN=Sadtler Research Labs Under US-EPA Contract
##OWNER=NIST Standard Reference Data Program
##CAS REGISTRY NO=40291-39-2
##MOLFORM=C 11 H 14 O 2
##XUNITS=1/CM
##YUNITS=ABSORBANCE
##XFACTOR=1.0
##YFACTOR=0.000211902
##DELTAX=4.0
##FIRSTX=450.0
##LASTX=3966.0
##FIRSTY=0.007417
##MAXX=3966
##MINX=450
##MAXY=2.11902
##MINY=0
##NPOINTS=880
##XYDATA=(X++(Y..Y))
450.0 35 181 237 117 96 70 43 2 115 53
490.0 86 86 119 112 0 191 202 292 409 435
530.0 502 403 408 127 111 186 269 338 268 249
570.0 156 148 123 145 78 151 159 140 170 143
610.0 165 143 88 104 82 66 63 87 60 110
650.0 137 210 221 203 170 124 83 72 73 71
690.0 74 128 147 197 305 274 252 219 247 339
730.0 492 713 929 1071 820 689 466 336 346 383
770.0 490 502 457 413 274 171 117 91 75 86
810.0 107 152 202 233 298 323 259 230 207 164
850.0 142 152 130 113 106 88 90 91 140 162
890.0 223 326 496 723 839 793 651 411 263 206
930.0 222 261 291 262 213 163 101 89 72 88
970.0 108 122 147 183 220 272 346 463 581 680
1010.0 704 661 524 393 310 294 331 361 432 588
1050.0 675 711 532 352 293 319 328 326 334 331
1090.0 359 419 536 773 1120 1442 1517 1443 1144 707
1130.0 436 315 289 316 333 403 519 777 1316 2348
1170.0 3731 4754 5004 4975 4093 3694 3923 4995 6615 7709
1210.0 10000 9203 7516 5540 3584 2392 1574 1041 773 658
1250.0 587 523 439 359 285 252 209 181 191 173
1290.0 157 144 138 133 112 108 91 108 104 115
1330.0 105 77 93 115 136 174 260 424 744 1135
1370.0 1428 1567 1432 1052 684 424 281 201 156 133
1410.0 128 134 152 165 190 216 265 313 361 420
1450.0 471 495 472 447 402 389 448 558 714 911
1490.0 1033 1085 1015 869 696 519 354 269 218 173
1530.0 122 109 93 87 88 76 93 115 116 120
1570.0 137 167 202 259 300 309 299 211 152 103
1610.0 68 64 53 41 33 26 32 27 26 32
1650.0 33 38 29 25 38 35 51 48 53 64
1690.0 53 52 64 75 76 76 90 116 144 184
1730.0 238 297 346 382 413 440 510 626 868 1244
1770.0 1788 2409 3029 3489 3514 3060 2341 1780 1237 886
1810.0 695 576 497 405 310 243 166 134 113 98
1850.0 87 70 63 51 48 48 40 42 40 38
1890.0 40 42 52 55 58 59 50 40 38 40
1930.0 45 53 57 54 45 37 25 21 18 14
1970.0 12 11 13 12 15 21 25 30 30 31
2010.0 30 27 27 30 36 43 43 51 47 35
2050.0 33 24 21 18 19 19 18 22 21 20
2090.0 23 25 29 33 39 42 43 42 36 30
2130.0 24 22 20 20 20 22 20 20 18 17
2170.0 19 20 18 15 18 20 20 21 23 22
2210.0 25 24 24 26 26 24 22 22 21 22
2250.0 22 23 24 29 27 32 31 30 29 27
2290.0 25 22 22 20 23 22 24 29 30 27
2330.0 27 27 26 23 31 22 23 25 30 26
2370.0 32 31 24 27 29 29 31 35 37 37
2410.0 35 33 29 30 27 27 25 25 24 26
2450.0 24 21 19 13 14 12 13 11 13 11
2490.0 12 10 11 10 10 10 7 8 7 8
2530.0 6 8 5 5 5 8 8 10 15 13
2570.0 17 16 15 17 14 13 11 8 6 4
2610.0 5 4 5 3 2 4 1 3 3 0
2650.0 4 3 3 4 1 4 2 3 5 6
2690.0 6 7 6 7 7 4 5 8 5 10
2730.0 13 15 18 18 20 18 19 15 13 11
2770.0 11 11 12 12 12 12 14 14 15 14
2810.0 18 16 17 21 22 23 26 29 40 45
2850.0 52 63 85 105 120 144 153 161 162 155
2890.0 147 142 135 137 138 147 161 179 212 253
2930.0 299 345 383 393 386 358 318 290 275 267
2970.0 266 263 267 281 281 275 249 210 176 153
3010.0 151 157 181 228 296 366 427 464 479 454
3050.0 415 386 368 375 406 446 483 502 499 463
3090.0 404 321 241 175 125 96 81 75 62 54
3130.0 45 35 34 31 29 26 30 20 21 23
3170.0 25 18 18 17 15 12 13 14 10 13
3210.0 14 12 11 12 8 11 10 6 7 11
3250.0 10 7 10 8 5 8 6 3 11 7
3290.0 7 12 8 2 6 12 8 10 6 4
3330.0 8 11 8 6 5 5 11 8 15 1
3370.0 2 1 12 7 8 8 4 7 6 5
3410.0 10 8 5 8 6 3 3 8 11 7
3450.0 6 0 11 5 5 5 8 13 11 12
3490.0 13 8 11 11 15 18 17 20 16 30
3530.0 24 35 41 43 50 48 38 41 36 29
3570.0 27 25 21 27 24 24 17 25 26 18
3610.0 15 24 18 19 22 17 23 27 19 25
3650.0 36 34 19 21 27 35 25 25 19 25
3690.0 27 18 20 20 19 21 19 22 18 23
3730.0 27 26 21 23 36 27 24 16 12 30
3770.0 22 22 16 20 10 11 22 25 21 13
3810.0 15 22 25 21 30 25 36 19 34 30
3850.0 32 34 42 20 33 22 8 36 35 21
3890.0 15 42 21 52 34 26 24 23 16 17
3930.0 23 35 32 16 31 29 10 40 18 20
##END=
