##TITLE=4-Fluorophenylmethylcarbinol
##JCAMP-DX=4.24
##DATA TYPE=INFRARED SPECTRUM
##ORIGIN=Sadtler Research Labs Under US-EPA Contract
##OWNER=NIST Standard Reference Data Program
##CAS REGISTRY NO=403-41-8
##MOLFORM=C 8 H 9 F O
##XUNITS=1/CM
##YUNITS=ABSORBANCE
##XFACTOR=1.0
##YFACTOR=0.000132962
##DELTAX=4.0
##FIRSTX=450.0
##LASTX=3966.0
##FIRSTY=0.026326
##MAXX=3966
##MINX=450
##MAXY=1.32962
##MINY=0
##NPOINTS=880
##XYDATA=(X++(Y..Y))
450.0 198 112 237 323 365 367 241 224 127 143
490.0 93 178 80 105 214 162 271 313 416 505
530.0 673 786 978 1066 1089 1048 1052 1137 1174 1194
570.0 1091 921 695 513 358 239 167 122 114 73
610.0 70 40 60 50 57 73 69 76 59 49
650.0 19 36 26 36 7 50 60 56 97 103
690.0 127 116 127 126 164 218 286 331 337 363
730.0 237 210 187 179 156 127 130 119 109 96
770.0 101 81 91 94 84 136 160 212 323 510
810.0 763 1108 1471 2027 2726 3488 4283 4675 3929 2993
850.0 2092 1287 776 484 365 323 320 356 437 596
890.0 817 1077 1224 1275 1156 921 664 450 325 248
930.0 216 192 186 177 192 203 208 229 236 248
970.0 258 305 350 441 568 761 972 1185 1358 1490
1010.0 1645 1538 1354 1129 833 645 612 625 693 803
1050.0 970 1170 1349 1527 1713 1951 2293 2747 3107 3191
1090.0 3013 2617 2087 1655 1380 1139 934 723 541 447
1130.0 390 376 373 435 609 1233 1964 2152 2217 1917
1170.0 1211 889 832 795 751 725 721 727 757 845
1210.0 1016 1333 1827 2559 3982 6497 9137 10000 9950 7443
1250.0 4354 2946 2545 2247 1926 1581 1314 1168 1109 1079
1290.0 1088 1077 1034 982 870 765 708 678 712 758
1330.0 836 935 993 1100 1234 1335 1423 1442 1401 1373
1370.0 1355 1362 1431 1460 1338 1184 966 782 699 645
1410.0 591 606 490 535 496 506 451 479 513 540
1450.0 550 542 487 510 519 506 441 467 523 497
1490.0 559 899 1468 2824 4759 6955 7671 7079 5266 2833
1530.0 1207 540 256 123 101 153 125 58 113 147
1570.0 146 164 222 303 484 708 1122 1723 2386 2896
1610.0 2822 2358 1623 1122 732 559 389 308 300 264
1650.0 191 176 185 145 113 75 34 84 20 25
1690.0 90 149 128 189 226 271 222 120 156 149
1730.0 101 31 66 55 39 41 106 137 153 172
1770.0 111 71 67 39 39 27 15 26 12 49
1810.0 42 37 51 37 30 12 32 44 26 10
1850.0 42 72 77 92 98 111 172 212 237 241
1890.0 231 213 198 166 135 107 93 73 52 60
1930.0 58 55 56 41 49 68 65 68 67 56
1970.0 57 56 60 59 65 47 55 65 59 47
2010.0 43 38 33 42 48 56 62 66 70 83
2050.0 96 104 110 97 99 110 112 107 94 81
2090.0 62 48 36 34 30 30 23 24 22 18
2130.0 18 19 17 17 19 23 23 21 25 27
2170.0 26 27 28 29 27 28 25 30 29 24
2210.0 26 28 32 31 35 33 35 37 42 39
2250.0 40 47 45 51 49 49 50 45 42 38
2290.0 35 27 27 21 18 17 12 2 0 4
2330.0 0 10 16 20 45 34 0 0 0 39
2370.0 64 72 86 83 77 77 84 78 74 64
2410.0 56 60 60 69 67 76 79 81 83 90
2450.0 95 101 105 111 112 111 105 87 75 73
2490.0 66 58 58 57 53 59 60 58 62 65
2530.0 64 59 67 69 66 70 72 74 79 81
2570.0 90 91 89 92 88 85 86 86 79 69
2610.0 65 61 60 53 56 57 64 59 57 45
2650.0 40 44 53 68 83 91 87 83 80 76
2690.0 81 87 93 94 96 92 97 101 99 102
2730.0 108 109 111 114 110 116 113 113 113 108
2770.0 108 100 110 116 123 122 131 133 135 140
2810.0 151 156 161 179 181 195 205 217 234 259
2850.0 288 332 394 477 591 743 920 1071 1208 1274
2890.0 1294 1263 1200 1111 999 895 808 757 732 753
2930.0 805 861 874 853 769 667 603 605 731 952
2970.0 1238 1622 2097 2576 2749 2547 2082 1372 798 541
3010.0 453 408 382 369 367 376 426 496 572 616
3050.0 619 590 508 453 420 398 424 459 452 429
3090.0 362 267 219 184 186 182 187 174 178 172
3130.0 156 133 107 97 80 65 66 48 53 52
3170.0 60 54 60 55 61 40 71 61 56 47
3210.0 55 58 62 65 52 59 67 55 46 54
3250.0 57 48 38 26 20 28 30 32 38 45
3290.0 47 48 43 29 26 28 36 35 37 25
3330.0 34 23 27 45 39 49 44 34 38 40
3370.0 38 32 43 45 40 44 35 50 54 50
3410.0 39 38 39 39 31 44 36 50 35 41
3450.0 50 44 31 33 39 38 38 28 19 21
3490.0 35 14 16 10 29 26 2 9 29 13
3530.0 22 23 15 25 7 10 0 24 23 25
3570.0 36 19 28 12 33 29 7 25 55 55
3610.0 60 79 91 131 178 246 364 487 651 803
3650.0 958 943 858 717 535 351 228 181 136 117
3690.0 111 94 86 74 68 60 59 52 44 35
3730.0 57 47 52 20 62 25 54 43 22 31
3770.0 64 48 28 53 41 54 42 41 25 47
3810.0 31 48 41 44 67 56 32 48 38 52
3850.0 25 39 65 66 48 68 72 70 65 59
3890.0 65 53 58 42 49 60 46 27 48 34
3930.0 52 57 30 55 52 76 59 80 95 68
##END=
