##TITLE=Bromo-4-fluoroacetophenone
##JCAMP-DX=4.24
##DATA TYPE=INFRARED SPECTRUM
##ORIGIN=Sadtler Research Labs Under US-EPA Contract
##OWNER=NIST Standard Reference Data Program
##CAS REGISTRY NO=403-29-2
##MOLFORM=C 8 H 6 Br F O
##XUNITS=1/CM
##YUNITS=ABSORBANCE
##XFACTOR=1.0
##YFACTOR=0.000067038
##DELTAX=4.0
##FIRSTX=450.0
##LASTX=3966.0
##FIRSTY=0.006033
##MAXX=3966
##MINX=450
##MAXY=0.67038
##MINY=0
##NPOINTS=880
##XYDATA=(X++(Y..Y))
450.0 90 148 113 116 54 52 71 74 163 192
490.0 196 180 294 279 424 522 642 773 740 563
530.0 463 292 378 259 461 476 609 877 914 1023
570.0 1289 1442 1751 2202 2723 2887 2344 1418 694 386
610.0 201 102 157 184 145 158 178 116 87 162
650.0 96 124 97 195 248 428 327 381 491 476
690.0 418 366 320 243 268 176 115 161 125 162
730.0 180 129 273 220 267 329 467 403 436 319
770.0 249 240 218 155 247 279 364 438 617 816
810.0 1039 1139 1169 1294 1709 2426 3081 3612 3596 3119
850.0 2499 1682 956 510 279 185 134 187 164 150
890.0 175 113 103 89 36 59 37 44 17 50
930.0 63 113 136 183 224 311 332 317 312 316
970.0 340 370 466 622 690 746 791 872 1114 1695
1010.0 2212 2328 2022 1427 991 725 618 537 454 404
1050.0 329 293 318 326 300 331 366 365 426 467
1090.0 528 621 646 690 767 793 788 763 662 505
1130.0 404 394 416 540 892 1885 4007 5242 5146 3404
1170.0 1315 819 935 1244 1510 1647 1616 1581 1615 1546
1210.0 1477 1375 1402 1645 2239 3261 5010 7445 9528 10000
1250.0 8858 7019 6507 7111 8074 8251 7760 6797 5529 4125
1290.0 2989 2192 1840 1629 1510 1249 953 701 566 471
1330.0 471 490 534 561 583 609 682 727 721 687
1370.0 612 426 335 285 284 310 426 575 803 980
1410.0 1017 1038 1033 1284 1828 2153 1870 1372 844 621
1450.0 533 434 387 363 324 291 271 304 339 390
1490.0 552 854 1477 2481 3681 4111 3584 2247 985 493
1530.0 292 260 204 208 245 299 338 345 416 541
1570.0 685 953 1422 2132 3265 4938 6798 8232 8297 7036
1610.0 5136 3371 2066 1311 839 612 414 341 322 382
1650.0 379 457 469 501 515 573 691 1006 1548 2607
1690.0 4162 5977 7511 8040 7488 6108 4505 3109 2179 1647
1730.0 1332 1077 932 791 640 513 471 435 411 387
1770.0 370 338 318 295 302 331 422 564 711 836
1810.0 885 788 598 349 210 161 109 78 54 41
1850.0 47 49 38 75 46 68 88 105 116 133
1890.0 126 110 112 121 124 121 110 124 107 112
1930.0 133 125 101 91 93 77 90 61 45 71
1970.0 57 45 45 45 64 76 62 76 61 29
2010.0 35 45 36 30 40 40 48 53 43 49
2050.0 44 56 61 69 75 85 85 93 85 72
2090.0 55 44 34 42 46 43 28 21 31 8
2130.0 17 17 7 0 10 1 21 21 29 27
2170.0 31 32 17 32 46 32 33 26 27 33
2210.0 30 19 24 29 44 24 40 46 39 38
2250.0 37 39 43 62 70 78 71 70 66 78
2290.0 98 115 119 134 163 174 164 136 148 131
2330.0 117 109 102 112 146 163 150 116 92 56
2370.0 81 89 104 129 90 62 78 85 72 80
2410.0 79 79 65 75 84 93 86 87 77 65
2450.0 62 54 53 54 82 96 82 92 103 86
2490.0 99 71 41 44 63 49 35 43 52 73
2530.0 68 61 53 71 70 59 67 58 95 82
2570.0 96 106 105 97 126 124 103 111 91 83
2610.0 78 47 55 54 61 55 60 57 51 45
2650.0 63 39 29 58 35 51 37 36 37 45
2690.0 36 54 47 52 54 56 57 67 63 61
2730.0 62 69 69 76 69 88 84 50 65 62
2770.0 59 64 56 64 50 57 64 81 81 56
2810.0 81 73 79 108 92 97 96 90 90 126
2850.0 126 114 130 150 138 140 159 140 150 151
2890.0 159 151 158 156 160 160 151 184 213 261
2930.0 287 284 308 336 358 352 389 368 379 377
2970.0 378 414 463 496 419 382 299 260 237 246
3010.0 212 231 227 216 213 198 179 183 232 251
3050.0 269 276 329 353 385 415 459 432 456 444
3090.0 394 309 224 178 157 194 193 169 161 139
3130.0 120 102 93 82 64 82 103 77 50 64
3170.0 65 57 62 55 59 70 70 57 47 51
3210.0 63 45 46 55 60 51 76 47 39 46
3250.0 41 18 49 38 72 55 56 70 53 49
3290.0 66 59 66 77 68 54 83 74 58 58
3330.0 102 74 76 48 97 91 75 83 71 115
3370.0 97 163 171 172 173 166 107 129 108 110
3410.0 93 55 95 63 75 90 64 78 56 86
3450.0 48 65 83 75 94 46 86 92 63 74
3490.0 105 89 78 95 76 65 88 75 70 67
3530.0 73 81 71 42 76 92 93 75 105 91
3570.0 125 114 105 153 113 140 137 101 91 124
3610.0 85 136 68 78 101 105 106 117 109 102
3650.0 130 96 105 113 97 64 81 131 109 108
3690.0 135 105 90 117 118 104 109 125 130 111
3730.0 137 137 168 128 153 98 120 88 91 100
3770.0 72 106 79 53 70 53 58 93 92 46
3810.0 58 59 89 89 81 99 94 99 102 79
3850.0 80 93 60 70 105 98 113 114 98 106
3890.0 101 105 100 89 90 78 80 78 85 86
3930.0 95 113 117 105 97 88 83 80 76 79
##END=
