##TITLE=Heptane, 3,3-dimethyl-
##JCAMP-DX=4.24
##DATA TYPE=INFRARED SPECTRUM
##ORIGIN=Sadtler Research Labs Under US-EPA Contract
##OWNER=NIST Standard Reference Data Program
##CAS REGISTRY NO=4032-86-4
##MOLFORM=C 9 H 20
##XUNITS=1/CM
##YUNITS=ABSORBANCE
##XFACTOR=1.0
##YFACTOR=0.000183224
##DELTAX=4.0
##FIRSTX=450.0
##LASTX=3966.0
##FIRSTY=0.002382
##MAXX=3966
##MINX=450
##MAXY=1.83224
##MINY=0
##NPOINTS=880
##XYDATA=(X++(Y..Y))
450.0 13 1 38 30 31 50 23 22 19 33
490.0 18 27 19 47 22 25 32 48 27 24
530.0 25 29 22 12 20 23 27 18 33 10
570.0 4 15 23 23 9 17 23 23 17 12
610.0 14 13 19 12 16 14 18 15 20 11
650.0 16 21 14 21 17 12 19 19 16 28
690.0 20 23 22 25 37 38 49 54 69 74
730.0 82 84 80 83 73 75 70 65 76 68
770.0 80 104 125 136 153 142 123 87 62 57
810.0 40 34 38 28 27 32 27 25 25 26
850.0 25 31 33 36 44 49 58 57 60 63
890.0 70 80 85 82 77 73 63 67 57 55
930.0 57 56 65 59 59 56 50 37 38 35
970.0 33 36 43 49 57 66 84 112 143 182
1010.0 207 213 204 177 146 113 95 82 82 88
1050.0 95 92 89 79 69 65 53 50 51 58
1090.0 64 75 82 83 79 65 52 39 34 28
1130.0 27 26 28 28 29 32 36 44 51 66
1170.0 83 109 138 167 191 197 192 176 171 170
1210.0 176 175 169 156 139 124 111 107 99 98
1250.0 93 92 91 90 92 88 84 78 83 91
1290.0 108 119 128 129 127 125 124 125 128 133
1330.0 143 176 207 232 247 255 293 366 488 634
1370.0 807 851 933 995 1002 942 762 564 367 242
1410.0 172 150 132 140 140 157 197 229 312 387
1450.0 552 684 936 1182 1367 1473 1419 1273 969 698
1490.0 453 287 197 137 114 94 80 73 66 67
1530.0 57 57 55 44 43 45 46 39 41 40
1570.0 43 34 46 39 40 36 36 33 33 36
1610.0 31 31 32 28 31 24 29 21 26 23
1650.0 25 16 29 20 23 25 20 24 18 20
1690.0 19 24 16 21 19 20 17 20 18 13
1730.0 17 14 17 17 12 9 16 9 11 11
1770.0 12 10 11 10 12 10 13 12 11 12
1810.0 13 10 12 9 10 8 9 10 7 9
1850.0 6 10 9 10 8 9 9 10 10 8
1890.0 9 7 9 7 8 9 8 9 7 11
1930.0 6 9 6 6 5 6 6 5 6 4
1970.0 7 7 8 6 7 6 6 6 7 8
2010.0 8 7 10 9 9 11 12 12 12 11
2050.0 11 12 9 8 9 9 10 9 8 10
2090.0 11 7 9 9 10 7 10 10 10 8
2130.0 9 7 7 7 6 7 8 9 8 8
2170.0 8 8 8 8 8 9 7 8 7 7
2210.0 8 7 8 9 10 10 10 11 9 12
2250.0 12 12 12 11 10 10 9 9 9 7
2290.0 6 5 5 4 2 2 0 2 4 5
2330.0 2 2 2 1 2 5 0 1 0 5
2370.0 6 6 11 16 19 21 22 24 23 22
2410.0 20 17 17 15 15 14 16 15 16 15
2450.0 13 15 14 13 12 12 11 13 12 13
2490.0 11 12 13 13 13 14 13 14 16 15
2530.0 17 19 21 19 23 23 26 27 30 31
2570.0 32 34 33 35 33 37 37 38 40 41
2610.0 43 48 52 57 58 61 64 64 66 67
2650.0 70 75 80 85 87 88 88 89 84 80
2690.0 78 78 80 81 85 89 98 101 109 115
2730.0 125 135 142 147 148 142 135 129 126 129
2770.0 134 140 148 157 168 181 195 214 233 257
2810.0 278 301 319 346 378 427 493 593 733 922
2850.0 1177 1507 1912 2352 2795 3147 3427 3649 3749 3764
2890.0 3690 3570 3485 3547 3737 4030 4283 4554 4860 5309
2930.0 5935 6597 7071 7143 7001 6736 6947 7585 8817 9867
2970.0 10000 9260 7521 5132 3159 1949 1275 911 704 582
3010.0 504 449 408 376 348 319 294 265 244 224
3050.0 209 200 190 187 182 176 175 170 165 158
3090.0 152 146 138 135 129 121 116 111 106 102
3130.0 98 95 93 89 85 87 90 91 90 92
3170.0 94 95 96 95 95 96 93 90 87 83
3210.0 79 75 68 64 61 59 56 51 47 43
3250.0 41 37 36 33 33 31 28 29 27 28
3290.0 26 25 26 26 25 25 25 27 27 31
3330.0 29 25 28 25 27 28 28 29 27 25
3370.0 26 21 23 22 22 23 25 21 22 20
3410.0 20 18 17 17 16 19 20 16 16 14
3450.0 16 14 16 12 14 15 11 9 12 7
3490.0 14 9 8 7 6 8 7 6 12 5
3530.0 8 5 4 7 0 5 8 6 11 4
3570.0 8 13 9 8 3 13 9 5 7 12
3610.0 9 7 14 9 13 17 12 18 13 13
3650.0 11 11 25 7 25 4 20 10 24 13
3690.0 15 13 18 16 14 14 10 13 10 18
3730.0 7 10 8 22 2 20 6 18 15 7
3770.0 15 10 16 12 17 17 15 6 16 8
3810.0 26 14 18 11 16 19 14 10 12 13
3850.0 13 16 14 19 18 14 16 14 5 10
3890.0 16 20 23 18 11 13 12 9 13 16
3930.0 13 20 14 20 16 16 16 21 15 22
##END=
