##TITLE=3-Fluorophenyl isocyanate
##JCAMP-DX=4.24
##DATA TYPE=INFRARED SPECTRUM
##ORIGIN=Sadtler Research Labs Under US-EPA Contract
##OWNER=NIST Standard Reference Data Program
##CAS REGISTRY NO=404-71-7
##MOLFORM=C 7 H 4 F N O
##XUNITS=1/CM
##YUNITS=ABSORBANCE
##XFACTOR=1.0
##YFACTOR=0.000148801
##DELTAX=4.0
##FIRSTX=450.0
##LASTX=3966.0
##FIRSTY=0.000000
##MAXX=3966
##MINX=450
##MAXY=1.48801
##MINY=0
##NPOINTS=880
##XYDATA=(X++(Y..Y))
450.0 0 36 41 24 27 5 29 62 23 23
490.0 23 9 20 25 15 34 74 78 76 82
530.0 41 39 27 9 6 22 29 29 63 70
570.0 88 106 105 87 75 83 68 107 111 121
610.0 106 150 158 129 87 115 112 150 164 206
650.0 262 223 244 198 272 469 409 383 314 261
690.0 253 178 133 104 83 69 47 109 111 77
730.0 83 70 62 72 47 48 52 107 160 221
770.0 303 407 396 282 229 157 96 53 34 25
810.0 24 24 21 27 28 28 27 42 68 99
850.0 146 216 265 282 283 229 166 123 85 57
890.0 41 50 63 93 175 331 541 675 719 651
930.0 426 260 130 56 39 31 21 22 17 16
970.0 12 13 8 7 5 6 5 7 11 12
1010.0 10 7 6 8 11 17 29 38 42 44
1050.0 41 40 55 98 129 132 134 120 117 220
1090.0 321 362 392 292 175 103 49 31 29 28
1130.0 30 39 55 74 86 91 83 70 58 48
1170.0 40 39 37 33 33 35 38 48 59 79
1210.0 113 160 208 264 342 393 388 395 362 283
1250.0 221 185 192 252 277 269 286 179 93 59
1290.0 45 39 38 38 37 30 23 19 19 22
1330.0 24 22 10 12 15 15 17 13 15 20
1370.0 24 21 22 27 22 24 20 15 19 25
1410.0 18 26 13 27 21 37 36 73 100 149
1450.0 194 233 283 292 317 306 322 283 262 226
1490.0 219 250 307 363 458 498 507 476 400 293
1530.0 200 153 114 124 110 137 153 163 171 158
1570.0 190 248 379 505 673 847 992 994 1069 1086
1610.0 1093 1166 1193 1073 891 677 453 302 193 143
1650.0 79 101 42 37 24 30 11 21 6 26
1690.0 7 15 20 31 16 19 17 30 23 30
1730.0 26 38 35 40 36 50 62 65 65 62
1770.0 63 63 40 29 23 14 19 10 9 12
1810.0 15 15 17 15 18 18 20 23 20 20
1850.0 15 14 11 9 5 6 6 7 8 8
1890.0 8 7 8 10 12 14 16 27 25 29
1930.0 29 23 19 11 11 12 11 9 9 7
1970.0 9 10 10 9 11 8 10 11 11 9
2010.0 11 10 10 8 10 12 13 12 13 15
2050.0 16 17 19 20 19 25 30 33 34 35
2090.0 34 32 31 30 33 36 44 51 58 67
2130.0 76 87 97 111 130 148 167 185 203 222
2170.0 229 238 247 254 269 290 317 353 399 455
2210.0 513 577 653 755 891 1044 1189 1298 1365 1418
2250.0 1500 1697 2104 2830 4082 6159 8682 9993 10000 8446
2290.0 5778 3562 2258 1643 1440 1448 1337 1311 1358 1319
2330.0 1344 1331 1313 1402 1417 1294 1413 1775 1673 1660
2370.0 1442 1246 992 754 494 260 140 99 76 62
2410.0 52 50 52 54 61 63 67 69 67 61
2450.0 55 47 42 37 34 32 30 26 23 18
2490.0 19 18 17 14 14 13 12 13 11 11
2530.0 10 10 10 10 10 10 10 10 10 11
2570.0 11 11 12 10 10 10 8 10 9 11
2610.0 12 10 9 7 7 8 5 5 6 6
2650.0 5 8 9 8 10 8 10 7 11 10
2690.0 12 12 15 15 19 22 25 25 28 25
2730.0 25 22 19 16 15 14 13 15 14 12
2770.0 10 10 9 10 10 11 12 11 9 10
2810.0 10 10 12 12 11 11 13 12 12 9
2850.0 10 9 11 12 11 10 13 12 15 16
2890.0 17 17 16 18 18 16 18 19 20 22
2930.0 22 24 23 23 23 22 22 22 21 22
2970.0 22 25 27 28 33 36 42 45 50 46
3010.0 44 40 35 29 27 24 23 23 27 27
3050.0 29 32 34 38 47 53 59 61 64 62
3090.0 59 53 45 35 26 21 18 18 14 15
3130.0 12 12 13 10 10 11 10 10 11 12
3170.0 13 14 16 18 23 27 34 39 39 35
3210.0 28 24 19 12 11 11 11 11 11 10
3250.0 12 12 12 11 14 11 8 11 15 12
3290.0 15 13 12 11 13 15 12 13 14 15
3330.0 13 18 20 21 22 24 24 31 32 38
3370.0 41 44 40 35 29 25 23 24 24 22
3410.0 21 16 18 15 16 14 15 15 16 13
3450.0 12 14 11 15 15 15 16 18 16 17
3490.0 22 26 28 25 30 33 36 32 27 12
3530.0 15 15 12 14 7 8 16 9 15 4
3570.0 10 15 14 16 9 8 12 13 19 13
3610.0 15 10 13 18 19 32 19 22 23 21
3650.0 34 23 35 27 28 41 38 48 37 42
3690.0 54 47 45 41 42 38 35 25 20 22
3730.0 24 27 32 24 52 36 42 25 25 27
3770.0 26 30 27 34 33 36 37 34 46 35
3810.0 33 29 26 32 20 21 23 33 23 22
3850.0 17 38 24 19 21 24 16 21 18 25
3890.0 21 24 17 19 16 18 19 24 17 15
3930.0 21 14 18 20 11 14 19 20 16 21
##END=
