##TITLE=1,4-Piperazinediacetic acid, diethyl ester
##JCAMP-DX=4.24
##DATA TYPE=INFRARED SPECTRUM
##ORIGIN=Sadtler Research Labs Under US-EPA Contract
##OWNER=NIST Standard Reference Data Program
##CAS REGISTRY NO=40479-48-9
##MOLFORM=C 12 H 22 N 2 O 4
##XUNITS=1/CM
##YUNITS=ABSORBANCE
##XFACTOR=1.0
##YFACTOR=0.000125241
##DELTAX=4.0
##FIRSTX=450.0
##LASTX=3966.0
##FIRSTY=0.000000
##MAXX=3966
##MINX=450
##MAXY=1.25241
##MINY=0
##NPOINTS=880
##XYDATA=(X++(Y..Y))
450.0 0 124 192 159 113 152 184 155 198 173
490.0 174 194 166 161 160 159 160 158 161 144
530.0 138 136 147 155 148 175 160 188 201 223
570.0 239 250 261 281 274 305 299 307 307 302
610.0 286 272 266 254 245 234 230 214 201 200
650.0 206 215 223 253 251 324 276 266 268 271
690.0 302 349 386 381 353 329 323 342 358 373
730.0 385 397 409 435 452 445 439 433 431 430
770.0 426 417 404 396 393 384 389 390 391 393
810.0 412 437 473 500 540 574 587 579 544 516
850.0 500 485 472 446 418 387 353 309 281 261
890.0 258 290 350 417 495 546 578 577 575 574
930.0 571 544 521 487 446 399 340 296 267 263
970.0 271 283 302 323 353 393 439 512 654 969
1010.0 1649 2688 3184 2870 2703 3062 3628 3954 3685 2925
1050.0 2163 1626 1300 1098 957 854 784 770 796 889
1090.0 1045 1265 1483 1606 1689 1822 2079 2447 2887 3330
1130.0 3695 3964 4205 4564 5145 6023 7192 8485 9564 10000
1170.0 9549 8670 7632 6651 5812 5095 4498 4048 3700 3427
1210.0 3206 3039 2923 2847 2819 2844 2933 3066 3222 3350
1250.0 3414 3371 3213 2975 2698 2429 2213 2086 2038 2040
1290.0 2118 2257 2359 2337 2199 2024 1899 1825 1750 1618
1330.0 1436 1263 1119 1022 958 897 837 794 813 916
1370.0 1045 1123 1182 1265 1333 1274 1090 949 892 830
1410.0 771 769 761 818 849 881 859 847 849 902
1450.0 1050 1335 1613 1561 1244 989 793 639 535 436
1490.0 368 343 300 258 204 166 164 146 127 136
1530.0 128 136 125 112 123 141 139 127 155 172
1570.0 175 176 199 217 240 220 201 182 179 168
1610.0 157 153 141 155 143 163 147 145 154 153
1650.0 135 153 167 182 192 209 213 247 239 259
1690.0 300 347 387 486 634 805 915 1008 1156 1421
1730.0 1843 2501 3495 4681 5839 6589 6638 6254 5795 5483
1770.0 5171 4333 3082 2007 1335 952 730 599 515 482
1810.0 463 446 421 369 306 250 223 207 183 168
1850.0 165 166 161 160 155 151 160 163 164 160
1890.0 156 153 153 149 145 140 136 134 126 132
1930.0 132 134 134 132 133 138 137 137 141 138
1970.0 141 143 144 145 147 139 141 140 138 136
2010.0 138 138 137 138 143 143 144 147 146 144
2050.0 147 145 144 142 142 141 143 143 141 138
2090.0 139 139 139 138 135 133 130 126 124 122
2130.0 122 120 119 117 118 116 116 114 113 114
2170.0 115 115 114 113 114 115 115 115 115 116
2210.0 117 119 118 119 114 112 110 110 113 116
2250.0 117 120 121 125 128 130 132 134 136 140
2290.0 144 150 159 163 166 170 162 160 160 149
2330.0 143 140 131 132 152 148 138 134 130 128
2370.0 134 136 143 146 137 128 126 126 126 127
2410.0 127 124 123 124 124 123 124 124 123 124
2450.0 126 127 128 130 131 131 128 131 130 127
2490.0 127 125 127 128 129 130 127 129 130 132
2530.0 130 134 136 138 141 141 144 142 144 143
2570.0 145 144 144 144 143 145 142 145 148 146
2610.0 149 154 157 160 169 172 182 193 198 211
2650.0 224 237 248 265 283 298 312 327 340 355
2690.0 373 391 418 443 459 460 449 435 433 443
2730.0 468 500 538 577 624 673 726 780 830 879
2770.0 918 953 994 1039 1091 1163 1271 1435 1686 2043
2810.0 2479 2878 3077 2988 2712 2381 2074 1852 1692 1591
2850.0 1518 1442 1345 1245 1172 1138 1144 1187 1254 1334
2890.0 1379 1398 1423 1480 1577 1726 1915 2056 2123 2178
2930.0 2351 2698 3237 3771 3831 3326 2686 2250 2039 1968
2970.0 1972 2028 2189 2531 2817 2626 2113 1716 1459 1265
3010.0 1072 888 733 621 547 499 464 421 378 339
3050.0 318 298 291 290 295 304 297 277 261 251
3090.0 240 227 215 209 203 198 196 193 186 185
3130.0 180 177 175 171 170 170 169 164 167 165
3170.0 166 166 162 161 160 157 156 150 151 148
3210.0 149 146 147 148 141 142 145 138 137 136
3250.0 134 133 136 134 132 130 124 130 131 128
3290.0 131 133 136 132 130 132 133 128 134 131
3330.0 131 129 132 130 128 130 127 134 134 127
3370.0 132 128 132 132 125 126 134 131 126 130
3410.0 126 129 127 127 126 124 129 131 132 131
3450.0 131 133 135 139 144 152 155 160 166 163
3490.0 160 148 148 147 137 136 136 137 136 132
3530.0 128 125 114 115 115 110 117 114 122 120
3570.0 124 127 122 122 121 125 119 120 129 118
3610.0 125 120 121 117 119 127 119 126 125 129
3650.0 130 121 125 130 121 123 125 119 124 127
3690.0 131 122 123 131 125 123 121 121 121 129
3730.0 118 121 127 127 137 127 129 128 122 118
3770.0 129 125 131 120 123 120 126 128 131 123
3810.0 123 128 122 130 123 133 127 132 129 130
3850.0 122 128 130 125 120 131 124 122 114 122
3890.0 115 123 113 122 133 131 121 117 126 125
3930.0 123 120 115 119 117 134 136 131 120 121
##END=
