##TITLE=Benzoic acid, 3,5-dibromo-4-nitro-, ethyl ester
##JCAMP-DX=4.24
##DATA TYPE=INFRARED SPECTRUM
##ORIGIN=Sadtler Research Labs Under US-EPA Contract
##OWNER=NIST Standard Reference Data Program
##CAS REGISTRY NO=40587-64-2
##MOLFORM=C 9 H 7 Br 2 N O 4
##XUNITS=1/CM
##YUNITS=ABSORBANCE
##XFACTOR=1.0
##YFACTOR=0.000156284
##DELTAX=4.0
##FIRSTX=450.0
##LASTX=3966.0
##FIRSTY=0.006564
##MAXX=3966
##MINX=450
##MAXY=1.56284
##MINY=0
##NPOINTS=880
##XYDATA=(X++(Y..Y))
450.0 42 49 66 24 13 31 31 33 24 54
490.0 49 60 101 153 175 169 152 145 132 139
530.0 145 128 98 89 84 60 46 37 22 11
570.0 14 13 15 12 5 10 17 14 10 3
610.0 7 5 11 10 11 4 1 10 12 6
650.0 14 14 9 13 20 33 49 48 50 39
690.0 39 38 38 27 48 50 89 148 275 434
730.0 514 458 338 247 226 320 678 1227 1518 1181
770.0 661 367 230 167 143 132 133 126 118 115
810.0 120 127 135 155 201 309 506 715 678 406
850.0 198 128 117 125 131 120 110 105 109 130
890.0 184 303 485 637 624 467 275 155 107 90
930.0 72 58 44 36 41 43 43 47 51 54
970.0 57 62 70 81 92 113 140 185 253 359
1010.0 503 677 814 830 690 503 349 246 184 155
1050.0 141 136 124 110 110 118 127 151 183 226
1090.0 270 328 382 439 520 678 972 1443 1984 2236
1130.0 1936 1342 864 589 449 386 379 425 525 679
1170.0 815 811 653 480 373 365 435 458 355 264
1210.0 246 258 287 336 395 482 604 790 1124 1673
1250.0 2696 4459 7155 9470 10000 7312 4670 3057 1883 1194
1290.0 944 849 797 739 652 546 454 396 372 368
1330.0 377 416 438 510 607 713 898 1151 1369 1428
1370.0 1344 1320 1392 1255 833 505 385 354 368 353
1410.0 290 253 165 213 250 314 282 242 222 210
1450.0 210 202 169 201 237 274 253 248 240 185
1490.0 132 158 147 181 172 190 230 210 172 220
1530.0 243 301 395 552 932 1477 2367 3439 4488 4219
1570.0 2931 1702 940 540 376 250 215 189 225 260
1610.0 333 384 338 280 181 168 114 88 89 70
1650.0 24 29 64 75 79 79 62 89 54 46
1690.0 90 115 98 125 167 206 208 220 331 428
1730.0 492 627 1095 2267 4071 4685 2795 1041 438 320
1770.0 258 253 261 250 227 196 171 168 138 145
1810.0 131 118 112 81 58 32 37 37 20 5
1850.0 20 33 28 30 17 6 24 28 27 23
1890.0 16 18 21 20 19 16 15 13 6 16
1930.0 19 17 16 4 8 15 15 15 17 12
1970.0 16 22 24 27 28 18 21 22 22 19
2010.0 18 13 9 11 15 14 16 13 10 12
2050.0 11 11 11 9 6 11 12 12 12 11
2090.0 10 12 15 15 16 14 14 15 14 17
2130.0 18 16 14 13 12 11 9 11 12 11
2170.0 11 9 9 7 4 3 4 3 3 1
2210.0 2 1 1 3 3 3 5 6 6 8
2250.0 9 9 11 11 13 14 16 16 17 19
2290.0 18 20 23 23 23 27 22 20 21 17
2330.0 17 14 13 20 21 26 25 22 23 22
2370.0 19 24 25 28 26 23 22 22 20 18
2410.0 16 13 11 10 10 9 10 8 9 7
2450.0 7 6 10 10 10 11 8 8 6 7
2490.0 5 4 7 6 6 5 9 5 7 8
2530.0 8 8 8 6 8 6 8 6 5 3
2570.0 4 6 4 3 6 3 6 8 8 8
2610.0 9 10 12 13 11 11 11 11 13 11
2650.0 10 11 9 10 9 9 12 14 16 16
2690.0 20 22 24 24 27 26 27 25 25 24
2730.0 20 19 18 16 16 14 14 15 12 16
2770.0 17 19 16 17 18 16 16 18 19 20
2810.0 19 23 23 30 33 34 36 39 42 45
2850.0 48 49 52 52 54 58 64 75 92 113
2890.0 124 121 122 129 142 155 168 179 176 162
2930.0 154 160 185 225 267 271 227 182 179 201
2970.0 244 292 343 420 558 657 589 451 362 299
3010.0 248 211 172 135 104 80 65 55 49 45
3050.0 41 39 37 37 40 47 59 76 115 147
3090.0 131 90 64 45 34 27 29 27 23 21
3130.0 18 20 19 19 21 20 19 20 20 19
3170.0 18 17 15 14 16 16 13 12 12 8
3210.0 10 7 7 10 9 9 9 7 6 8
3250.0 8 5 5 7 6 4 3 5 5 6
3290.0 7 7 6 6 4 7 5 5 4 7
3330.0 8 7 6 7 10 7 8 7 8 8
3370.0 11 8 9 12 7 12 14 13 15 14
3410.0 15 12 15 17 15 12 13 11 10 10
3450.0 12 13 11 15 20 30 45 43 37 21
3490.0 8 11 15 15 11 8 11 12 12 16
3530.0 15 14 13 8 8 5 6 9 3 7
3570.0 8 7 3 7 8 10 11 2 6 7
3610.0 6 5 8 6 5 3 4 2 3 8
3650.0 4 10 9 7 4 4 8 9 2 6
3690.0 4 5 5 2 5 7 7 4 4 5
3730.0 9 8 8 3 12 2 7 8 1 9
3770.0 6 5 5 6 7 9 6 1 5 6
3810.0 10 8 0 9 8 9 10 10 5 6
3850.0 7 15 11 9 7 0 3 5 2 13
3890.0 11 8 3 7 6 10 8 2 4 7
3930.0 3 6 8 4 7 8 11 6 8 10
##END=
