##TITLE=Pyran, 4-bromo-3-propyltetrahydro
##JCAMP-DX=4.24
##DATA TYPE=INFRARED SPECTRUM
##ORIGIN=Sadtler Research Labs Under US-EPA Contract
##OWNER=NIST Standard Reference Data Program
##CAS REGISTRY NO=40619-38-3
##MOLFORM=C 8 H 15 Br O
##XUNITS=1/CM
##YUNITS=ABSORBANCE
##XFACTOR=1.0
##YFACTOR=0.000137448
##DELTAX=4.0
##FIRSTX=450.0
##LASTX=3966.0
##FIRSTY=0.015669
##MAXX=3966
##MINX=450
##MAXY=1.37448
##MINY=0
##NPOINTS=880
##XYDATA=(X++(Y..Y))
450.0 114 71 104 50 72 165 172 132 140 94
490.0 102 97 137 174 165 209 213 205 163 178
530.0 140 120 104 88 75 63 81 112 171 225
570.0 280 354 398 446 431 384 271 209 147 107
610.0 45 28 20 36 62 84 104 111 92 53
650.0 27 24 24 34 48 64 96 136 212 257
690.0 279 257 229 262 367 472 553 535 456 375
730.0 321 307 303 309 315 321 326 309 276 235
770.0 184 139 106 92 94 110 130 153 196 234
810.0 278 298 298 266 225 192 176 175 189 219
850.0 246 264 280 295 317 332 339 355 364 375
890.0 378 369 308 261 246 256 296 345 379 371
930.0 333 276 240 243 299 390 489 570 641 717
970.0 793 883 969 1019 1080 1183 1338 1411 1352 1156
1010.0 920 793 803 867 867 818 718 601 522 506
1050.0 542 630 757 867 975 1086 1242 1465 1783 2158
1090.0 2555 2927 3128 3034 2628 2190 1853 1696 1629 1582
1130.0 1487 1372 1323 1443 1768 2154 2325 2167 1690 1116
1170.0 725 547 534 632 845 1134 1391 1507 1452 1302
1210.0 1170 1127 1156 1194 1201 1184 1124 1055 1016 967
1250.0 914 836 747 634 548 501 480 480 506 578
1290.0 669 772 818 789 692 560 447 388 390 438
1330.0 495 536 556 560 540 518 504 488 490 508
1370.0 527 606 732 825 832 727 513 328 223 174
1410.0 155 154 194 265 348 451 555 596 676 753
1450.0 818 884 1012 1172 1272 1351 1164 855 563 336
1490.0 214 159 128 99 96 78 80 77 83 73
1530.0 67 63 62 53 49 50 40 42 43 37
1570.0 40 42 47 42 43 45 47 50 47 50
1610.0 48 45 50 42 43 38 42 34 36 30
1650.0 37 43 53 42 43 34 30 12 13 9
1690.0 9 7 14 10 12 11 17 19 28 34
1730.0 38 53 61 73 90 106 115 123 127 113
1770.0 101 76 52 39 40 33 34 34 39 40
1810.0 41 40 38 31 23 11 5 3 1 2
1850.0 1 3 2 3 0 1 4 4 6 6
1890.0 6 4 9 8 9 9 11 12 11 14
1930.0 18 19 21 22 26 30 36 38 42 42
1970.0 43 43 41 38 37 35 34 32 33 34
2010.0 36 37 40 43 40 39 40 38 37 37
2050.0 37 35 34 33 31 29 29 28 27 27
2090.0 25 26 23 22 23 21 20 23 22 21
2130.0 21 21 24 24 22 23 24 23 24 22
2170.0 27 25 28 25 27 26 26 25 24 23
2210.0 23 22 24 23 25 23 26 23 23 21
2250.0 23 22 23 23 22 21 20 21 19 20
2290.0 21 21 26 29 30 28 28 28 33 30
2330.0 32 32 32 33 41 42 38 39 32 38
2370.0 39 39 43 45 43 41 42 41 41 44
2410.0 45 43 44 44 42 39 42 41 39 38
2450.0 39 37 37 37 38 39 37 37 42 41
2490.0 40 42 44 43 45 46 48 50 49 53
2530.0 52 55 57 58 61 61 62 63 65 69
2570.0 68 70 73 72 74 74 76 78 78 79
2610.0 80 83 82 86 88 93 98 102 108 115
2650.0 124 135 145 158 170 182 193 206 214 226
2690.0 235 246 263 283 297 297 293 284 278 279
2730.0 290 304 327 356 383 402 405 391 368 335
2770.0 305 279 263 260 262 278 300 326 360 401
2810.0 459 541 684 903 1208 1580 2018 2589 3171 3782
2850.0 3927 3321 3057 2969 3247 3589 3745 3649 3366 3000
2890.0 2606 2280 2075 2163 2419 2798 3122 3382 3585 3779
2930.0 4158 4552 5037 5288 5093 4825 4960 5557 6876 8887
2970.0 9868 10000 8279 5986 3502 1917 1212 886 720 606
3010.0 536 483 450 422 402 386 366 343 320 299
3050.0 270 252 239 224 212 199 191 181 176 167
3090.0 163 154 154 148 146 139 137 135 129 126
3130.0 124 124 122 116 114 114 116 111 112 108
3170.0 105 107 107 106 106 103 101 100 97 92
3210.0 89 86 81 77 70 70 65 68 66 61
3250.0 61 59 61 58 58 55 58 55 58 58
3290.0 55 57 53 54 50 50 50 47 44 48
3330.0 46 46 48 46 47 43 43 41 38 35
3370.0 39 40 36 40 32 36 33 35 39 35
3410.0 35 34 35 36 35 31 33 33 29 31
3450.0 34 32 27 30 29 30 26 24 25 24
3490.0 28 26 23 23 23 19 23 23 22 18
3530.0 22 23 25 26 23 25 28 28 20 23
3570.0 27 24 22 19 26 23 27 19 26 22
3610.0 27 20 25 21 26 37 30 23 32 30
3650.0 28 32 31 42 27 29 29 37 28 20
3690.0 24 28 27 25 30 29 27 31 32 30
3730.0 20 29 25 19 44 20 34 34 27 34
3770.0 24 28 21 28 32 32 20 24 18 36
3810.0 30 33 26 28 19 21 29 27 22 26
3850.0 28 33 28 16 31 19 13 24 22 27
3890.0 24 21 16 29 31 30 27 33 24 27
3930.0 28 36 31 30 36 28 27 36 36 34
##END=
