##TITLE=N,N'-di-t-Butylethylenediamine
##JCAMP-DX=4.24
##DATA TYPE=INFRARED SPECTRUM
##ORIGIN=Sadtler Research Labs Under US-EPA Contract
##OWNER=NIST Standard Reference Data Program
##CAS REGISTRY NO=4062-60-6
##MOLFORM=C 10 H 24 N 2
##XUNITS=1/CM
##YUNITS=ABSORBANCE
##XFACTOR=1.0
##YFACTOR=0.000113849
##DELTAX=4.0
##FIRSTX=450.0
##LASTX=3966.0
##FIRSTY=0.028690
##MAXX=3966
##MINX=450
##MAXY=1.13849
##MINY=0
##NPOINTS=880
##XYDATA=(X++(Y..Y))
450.0 252 234 212 202 136 128 42 61 71 52
490.0 70 32 27 9 47 24 15 9 17 35
530.0 44 44 27 44 41 29 16 28 4 25
570.0 3 18 25 32 35 43 54 45 55 55
610.0 67 76 98 116 125 152 178 198 230 266
650.0 312 357 387 414 472 539 612 671 736 785
690.0 825 845 838 798 761 725 692 657 634 584
730.0 540 458 381 319 271 260 266 277 318 338
770.0 349 348 341 313 284 226 194 159 127 111
810.0 106 105 70 59 54 40 33 26 19 13
850.0 8 6 11 17 29 38 45 50 67 68
890.0 72 49 39 38 33 28 26 30 41 42
930.0 35 21 10 9 7 15 16 18 30 39
970.0 60 81 89 73 39 20 15 17 29 59
1010.0 116 214 329 425 438 363 237 135 89 61
1050.0 47 45 47 58 76 102 141 190 246 314
1090.0 397 527 729 974 1148 1160 1030 856 695 566
1130.0 447 339 264 212 183 167 166 178 199 228
1170.0 275 331 409 502 620 757 916 1118 1398 1782
1210.0 2273 2792 3221 3504 3639 3563 3239 2742 2192 1685
1250.0 1257 921 704 579 503 448 405 356 303 249
1290.0 204 163 132 109 96 83 79 73 88 96
1330.0 113 142 174 252 371 564 878 1361 1961 2379
1370.0 2320 1817 1271 1055 1394 1772 1647 1051 448 266
1410.0 190 191 187 244 292 430 592 890 1109 1293
1450.0 1343 1272 1224 1127 1160 1215 1407 1714 2007 1908
1490.0 1468 872 525 331 273 173 125 101 86 67
1530.0 30 55 33 52 8 12 11 36 40 5
1570.0 21 5 41 1 16 10 17 12 21 16
1610.0 19 23 42 31 22 47 39 56 29 61
1650.0 19 118 42 72 92 177 235 365 382 381
1690.0 248 170 121 127 84 80 61 70 46 51
1730.0 40 58 38 32 8 8 9 8 13 9
1770.0 13 17 6 6 14 5 19 5 7 11
1810.0 12 8 16 9 18 13 12 17 8 16
1850.0 6 8 5 5 0 2 3 6 5 3
1890.0 7 2 8 8 6 9 6 15 5 13
1930.0 11 12 12 11 10 13 10 8 9 8
1970.0 10 10 12 11 14 9 13 13 14 13
2010.0 12 8 10 8 8 9 7 4 8 6
2050.0 6 6 7 6 4 7 6 6 7 8
2090.0 8 9 10 12 13 14 16 16 16 14
2130.0 13 15 13 14 11 9 6 7 9 7
2170.0 6 7 8 10 9 10 9 7 6 7
2210.0 5 6 5 7 5 5 5 5 6 6
2250.0 5 8 7 9 13 13 14 13 13 11
2290.0 10 7 4 6 3 3 6 6 13 15
2330.0 14 11 10 16 20 18 17 16 20 19
2370.0 19 24 21 17 15 14 13 14 15 13
2410.0 13 12 9 8 10 11 12 9 11 10
2450.0 10 11 11 12 13 14 13 14 14 14
2490.0 14 13 18 17 16 16 19 18 22 23
2530.0 26 30 33 33 37 38 40 39 39 38
2570.0 43 44 45 45 47 48 49 50 53 54
2610.0 52 55 55 58 61 60 60 61 62 66
2650.0 71 78 84 92 105 120 144 175 203 221
2690.0 218 201 178 159 150 150 156 156 156 155
2730.0 150 147 146 152 158 168 172 170 169 167
2770.0 173 189 212 243 290 349 431 532 646 757
2810.0 846 898 931 958 1013 1106 1241 1413 1571 1658
2850.0 1650 1571 1509 1525 1635 1807 1982 2099 2128 2102
2890.0 2077 2097 2164 2294 2466 2643 2779 2840 2823 2786
2930.0 2786 2836 2915 3027 3220 3651 4511 5959 7637 9132
2970.0 9974 10000 9196 7051 4545 2467 1415 906 649 502
3010.0 394 310 245 199 169 144 128 112 100 94
3050.0 91 87 82 81 81 81 86 83 82 83
3090.0 82 80 79 77 76 75 73 73 73 74
3130.0 70 73 71 72 74 73 75 82 83 85
3170.0 91 95 97 99 102 99 96 96 93 93
3210.0 92 93 91 95 97 96 94 87 83 75
3250.0 67 62 57 52 50 51 60 62 64 63
3290.0 64 67 81 89 100 116 127 154 197 227
3330.0 230 199 160 123 100 90 76 70 64 58
3370.0 55 54 53 50 47 46 50 51 46 49
3410.0 48 46 45 40 41 42 38 35 37 33
3450.0 29 34 34 33 35 36 36 31 32 26
3490.0 25 21 25 20 15 23 24 22 23 12
3530.0 20 20 15 17 13 12 23 9 18 10
3570.0 13 17 13 17 10 21 22 4 18 14
3610.0 22 17 15 20 11 46 17 20 15 12
3650.0 37 18 35 19 17 43 24 46 14 22
3690.0 36 26 15 25 21 22 35 17 20 18
3730.0 28 34 36 18 71 28 61 19 24 27
3770.0 22 28 24 30 23 27 23 22 39 38
3810.0 31 37 37 47 18 31 25 45 29 32
3850.0 21 73 36 30 29 39 25 36 31 45
3890.0 29 50 20 43 39 38 29 38 24 31
3930.0 24 29 31 26 24 28 31 30 24 28
##END=
