##TITLE=Phenol, 3-butyl-
##JCAMP-DX=4.24
##DATA TYPE=INFRARED SPECTRUM
##ORIGIN=Sadtler Research Labs Under US-EPA Contract
##OWNER=NIST Standard Reference Data Program
##CAS REGISTRY NO=4074-43-5
##MOLFORM=C 10 H 14 O
##XUNITS=1/CM
##YUNITS=ABSORBANCE
##XFACTOR=1.0
##YFACTOR=0.000053207
##DELTAX=4.0
##FIRSTX=450.0
##LASTX=3966.0
##FIRSTY=0.084227
##MAXX=3966
##MINX=450
##MAXY=0.53207
##MINY=0
##NPOINTS=880
##XYDATA=(X++(Y..Y))
450.0 1583 1035 497 588 89 451 151 270 89 116
490.0 5 0 102 146 259 235 376 244 340 471
530.0 424 451 323 448 161 222 184 254 132 180
570.0 172 302 301 319 447 276 362 246 269 165
610.0 193 215 135 169 183 216 138 213 147 202
650.0 183 252 248 263 355 518 741 1158 1781 2406
690.0 3090 2764 2189 1503 975 744 623 620 665 703
730.0 782 894 1074 1369 1592 1904 2072 2163 2474 2826
770.0 3307 3530 3428 2834 1935 1360 959 621 445 385
810.0 338 350 310 361 414 458 568 751 908 976
850.0 1007 1006 1005 1063 1263 1364 1441 1384 1241 1012
890.0 836 715 632 647 672 786 850 1019 1134 1244
930.0 1357 1450 1579 1709 1751 1624 1376 1054 917 817
970.0 805 791 726 661 609 643 698 713 660 593
1010.0 406 321 282 271 276 257 296 306 339 384
1050.0 456 515 646 777 934 1011 994 916 770 730
1090.0 723 742 774 812 797 783 759 790 887 1053
1130.0 1438 2051 3172 4987 6998 8173 8557 7464 5812 4703
1170.0 4340 4514 4846 5390 5788 6234 6508 6346 5744 4687
1210.0 3524 2625 1978 1561 1357 1223 1204 1226 1326 1481
1250.0 1675 1981 2448 3125 4005 4772 5135 5110 4468 3701
1290.0 3076 2665 2547 2597 2749 2849 2843 2630 2322 1961
1330.0 1672 1450 1344 1213 1048 916 779 697 673 608
1370.0 585 615 681 726 788 735 664 581 567 547
1410.0 561 569 629 707 773 962 1291 1847 2506 3390
1450.0 4157 4563 4640 4150 3717 3372 3271 3252 3335 3499
1490.0 3541 3321 2864 2141 1703 1258 920 843 778 789
1530.0 682 719 614 703 597 668 705 886 1087 1192
1570.0 1617 2080 2886 3937 5150 6288 6925 7641 7355 7424
1610.0 6905 6555 5407 4326 3167 2186 1492 1030 690 545
1650.0 361 427 276 207 257 259 240 290 241 347
1690.0 228 248 243 302 200 217 219 268 249 237
1730.0 279 260 273 214 218 202 234 159 206 145
1770.0 164 147 117 125 94 108 126 110 113 152
1810.0 117 144 139 148 160 162 158 150 136 153
1850.0 99 64 68 52 63 70 56 54 57 74
1890.0 95 102 128 161 170 209 208 231 208 163
1930.0 155 94 82 51 60 33 41 21 31 18
1970.0 26 31 18 33 16 30 27 29 22 32
2010.0 26 37 39 32 48 41 50 48 50 54
2050.0 49 46 51 47 45 63 51 70 51 63
2090.0 43 36 39 28 24 29 27 16 28 14
2130.0 26 15 18 21 11 18 24 23 18 17
2170.0 7 17 7 26 26 25 39 30 38 33
2210.0 33 30 33 28 43 26 29 28 20 28
2250.0 15 20 16 20 13 14 4 17 12 2
2290.0 16 5 18 20 36 40 58 69 84 85
2330.0 99 107 93 122 84 108 83 74 95 97
2370.0 82 101 100 91 97 90 111 94 104 115
2410.0 109 122 126 130 130 127 121 124 106 111
2450.0 118 113 121 113 121 110 110 105 101 89
2490.0 104 93 100 111 94 106 98 104 104 107
2530.0 110 113 113 125 115 109 122 110 121 104
2570.0 99 103 93 104 105 101 105 110 109 124
2610.0 102 112 105 108 110 117 120 121 122 124
2650.0 135 135 162 157 166 170 171 178 176 174
2690.0 156 151 137 146 128 147 133 146 143 148
2730.0 167 172 189 212 226 210 224 208 210 207
2770.0 214 243 239 258 274 295 303 337 339 362
2810.0 373 399 425 452 511 547 635 711 851 1047
2850.0 1339 1795 2393 3094 3736 4157 4212 4252 4157 3920
2890.0 3596 3167 2846 2828 3057 3475 4093 4838 5815 6920
2930.0 8166 9266 10000 9953 9150 8048 7016 6683 7073 7920
2970.0 8163 7311 5640 3773 2515 1876 1512 1322 1249 1307
3010.0 1403 1508 1608 1628 1684 1795 2066 2466 2711 2759
3050.0 2538 2223 1953 1766 1634 1533 1422 1346 1239 1103
3090.0 976 813 708 627 564 509 469 412 373 325
3130.0 281 249 205 209 198 172 168 167 178 187
3170.0 163 166 166 153 178 136 149 134 146 148
3210.0 133 137 137 116 128 129 104 108 89 117
3250.0 109 97 115 91 114 107 103 99 121 91
3290.0 99 101 98 105 80 89 98 110 96 93
3330.0 120 133 136 160 170 168 178 146 150 168
3370.0 166 175 177 158 171 153 158 155 104 131
3410.0 117 137 121 115 134 142 114 140 127 117
3450.0 122 121 102 76 74 95 108 85 87 100
3490.0 105 113 68 95 38 106 96 112 121 33
3530.0 92 102 102 103 47 63 118 57 108 4
3570.0 69 131 129 151 109 84 94 162 172 174
3610.0 134 178 240 284 387 479 892 1524 2615 4210
3650.0 6042 6161 5672 3859 1911 884 481 310 301 223
3690.0 149 156 194 146 141 113 105 124 137 127
3730.0 137 100 84 165 94 85 194 171 125 153
3770.0 135 195 199 189 187 207 227 129 127 170
3810.0 148 134 209 183 206 231 195 195 144 311
3850.0 207 127 217 177 129 268 202 237 210 172
3890.0 178 244 254 246 153 319 193 205 124 205
3930.0 139 179 210 153 157 110 267 258 246 323
##END=
