##TITLE=4-Methyl-2-propylphenol
##JCAMP-DX=4.24
##DATA TYPE=INFRARED SPECTRUM
##ORIGIN=Sadtler Research Labs Under US-EPA Contract
##OWNER=NIST Standard Reference Data Program
##CAS REGISTRY NO=4074-46-8
##MOLFORM=C 10 H 14 O
##XUNITS=1/CM
##YUNITS=ABSORBANCE
##XFACTOR=1.0
##YFACTOR=0.000066513
##DELTAX=4.0
##FIRSTX=450.0
##LASTX=3966.0
##FIRSTY=0.037846
##MAXX=3966
##MINX=450
##MAXY=0.66513
##MINY=0
##NPOINTS=880
##XYDATA=(X++(Y..Y))
450.0 569 542 467 554 699 750 849 804 827 818
490.0 794 812 711 638 504 411 387 318 275 253
530.0 229 230 245 325 413 505 595 580 550 435
570.0 331 260 207 140 133 104 127 163 144 168
610.0 149 165 162 118 88 66 29 53 33 24
650.0 25 13 50 23 4 27 32 27 53 39
690.0 55 55 80 122 146 166 211 220 223 252
730.0 269 320 358 461 596 757 928 1036 1101 1087
770.0 1112 1084 1147 1270 1540 1951 2533 3330 3557 3207
810.0 2990 2809 2281 1536 1090 705 486 431 447 524
850.0 576 650 700 765 827 857 828 822 798 706
890.0 612 495 427 372 402 435 495 525 570 584
930.0 552 514 475 407 311 242 216 201 202 215
970.0 228 252 277 321 373 421 445 441 382 356
1010.0 326 325 333 358 370 401 449 512 569 625
1050.0 667 722 806 897 997 1050 1113 1188 1290 1440
1090.0 1599 1704 1808 2013 2407 3118 3897 4401 4360 3825
1130.0 2932 2161 1817 1797 1949 2100 2167 2301 2758 3851
1170.0 5690 7786 9320 9807 9059 7337 5459 4130 3335 2872
1210.0 2626 2515 2550 2709 3000 3386 3722 3996 4376 4928
1250.0 5740 6457 6716 6406 5279 3813 2757 2167 1858 1699
1290.0 1601 1533 1536 1676 2034 2592 3187 3459 3381 2960
1330.0 2247 1629 1284 1110 982 857 732 639 597 596
1370.0 642 749 936 1115 1189 1172 1053 931 919 984
1410.0 1105 1307 1487 1729 1894 1973 1959 1914 1891 1924
1450.0 2054 2263 2512 2781 2936 3001 2904 2787 2838 3153
1490.0 3951 5484 7481 9379 10000 9262 7484 4794 2809 1637
1530.0 1091 774 614 500 458 447 408 370 362 383
1570.0 387 431 493 590 728 843 918 928 905 854
1610.0 822 798 755 699 616 542 472 388 304 235
1650.0 183 173 198 199 201 206 205 233 220 212
1690.0 233 241 224 238 282 340 349 307 294 276
1730.0 243 208 215 221 216 216 233 229 218 206
1770.0 179 151 156 148 157 156 160 175 179 198
1810.0 188 180 166 146 122 103 114 139 160 171
1850.0 186 184 154 139 134 143 173 172 154 121
1890.0 81 58 46 45 41 40 32 35 28 35
1930.0 37 39 36 30 32 34 37 36 40 42
1970.0 41 47 46 46 46 45 47 53 59 58
2010.0 60 60 57 64 64 66 64 59 52 44
2050.0 43 38 35 32 21 19 15 18 15 21
2090.0 16 19 17 13 12 11 8 12 8 4
2130.0 5 10 4 3 1 1 1 4 2 3
2170.0 10 8 13 16 16 12 14 11 11 5
2210.0 6 4 4 6 8 9 13 14 14 15
2250.0 20 24 29 32 36 39 39 43 47 48
2290.0 55 56 51 55 50 52 46 49 41 31
2330.0 45 45 55 63 62 79 79 73 77 93
2370.0 109 94 91 84 72 67 63 65 74 80
2410.0 89 90 86 86 87 93 93 91 93 82
2450.0 76 75 75 76 83 89 98 101 103 107
2490.0 114 118 120 117 112 112 102 98 94 94
2530.0 97 93 87 82 83 80 72 69 70 72
2570.0 74 68 66 66 65 72 70 75 79 82
2610.0 83 91 92 96 108 109 114 110 111 107
2650.0 107 103 108 113 121 130 133 139 133 128
2690.0 121 119 113 120 124 137 150 158 172 190
2730.0 218 261 313 350 356 335 284 238 211 202
2770.0 198 205 212 228 249 281 311 340 359 387
2810.0 409 445 479 523 585 664 762 892 1068 1309
2850.0 1646 2061 2558 3138 3787 4545 5372 6108 6311 5974
2890.0 5225 4363 3807 3648 3788 4154 4729 5488 6475 7595
2930.0 8680 9411 9754 9386 8503 7506 6847 6992 7810 9090
2970.0 9865 9129 7496 5556 3941 3004 2635 2620 2810 3153
3010.0 3585 3913 3966 3808 3467 3043 2753 2581 2459 2363
3050.0 2251 2109 1929 1722 1449 1179 976 807 659 564
3090.0 502 455 432 412 398 381 361 357 345 333
3130.0 322 299 270 241 217 197 189 181 174 171
3170.0 176 173 175 180 176 180 180 173 177 169
3210.0 160 159 149 141 136 130 128 122 125 122
3250.0 112 116 115 108 109 119 119 112 115 118
3290.0 123 112 114 113 117 119 121 121 124 125
3330.0 118 121 126 133 134 149 167 174 165 160
3370.0 166 175 165 172 178 178 172 174 176 173
3410.0 170 167 160 162 157 157 150 138 144 138
3450.0 122 136 125 117 127 126 124 124 117 119
3490.0 134 141 128 113 110 129 146 158 153 113
3530.0 145 168 187 200 177 184 244 241 367 515
3570.0 647 553 326 240 163 127 158 116 172 145
3610.0 118 134 172 250 349 501 933 1709 3079 4906
3650.0 6240 6071 5533 3835 1897 784 286 124 122 98
3690.0 6 36 55 29 45 21 1 38 9 1
3730.0 13 1 1 2 1 1 1 10 17 29
3770.0 17 53 50 45 40 43 50 35 2 42
3810.0 40 77 1 15 29 53 31 8 0 42
3850.0 35 1 29 50 3 26 27 67 8 46
3890.0 27 58 44 19 23 96 95 52 58 65
3930.0 63 48 94 82 89 90 96 75 85 80
##END=
