##TITLE=2,4-Xylidine, 6-ethyl-,
##JCAMP-DX=4.24
##DATA TYPE=INFRARED SPECTRUM
##ORIGIN=Sadtler Research Labs Under US-EPA Contract
##OWNER=NIST Standard Reference Data Program
##CAS REGISTRY NO=40813-98-7
##MOLFORM=C 10 H 15 N
##XUNITS=1/CM
##YUNITS=ABSORBANCE
##XFACTOR=1.0
##YFACTOR=0.000050479
##DELTAX=4.0
##FIRSTX=450.0
##LASTX=3966.0
##FIRSTY=0.124633
##MAXX=3966
##MINX=450
##MAXY=0.50479
##MINY=0
##NPOINTS=880
##XYDATA=(X++(Y..Y))
450.0 2469 1387 1286 944 809 1104 517 407 656 457
490.0 401 441 193 592 539 749 711 79 193 432
530.0 440 349 856 608 580 779 733 751 443 583
570.0 475 413 432 350 342 425 517 743 608 752
610.0 700 757 753 725 947 960 975 1226 1211 1230
650.0 1092 1197 990 1214 956 1015 1124 1076 946 993
690.0 763 837 725 630 630 735 815 595 732 782
730.0 865 1077 950 777 849 1037 890 704 596 536
770.0 585 507 396 440 383 345 615 489 548 409
810.0 372 281 270 254 126 151 259 425 987 1544
850.0 2052 3432 3036 1869 1529 838 455 498 354 304
890.0 350 226 235 189 144 98 55 146 46 110
930.0 101 171 193 199 184 304 227 265 127 230
970.0 278 312 275 255 268 421 413 580 702 903
1010.0 959 956 793 674 532 490 436 519 610 750
1050.0 926 1050 1083 990 811 588 454 371 305 293
1090.0 267 243 277 235 231 199 228 232 245 272
1130.0 321 381 535 716 968 1173 1207 1133 891 577
1170.0 350 188 125 55 63 83 101 133 150 218
1210.0 309 438 662 881 1067 1218 1347 1511 1717 2054
1250.0 2280 2329 2184 1868 1512 1287 1171 1228 1501 1949
1290.0 2336 2435 2395 2038 1493 1038 818 692 622 569
1330.0 529 475 455 435 405 420 383 389 374 409
1370.0 467 605 802 882 884 811 659 608 558 587
1410.0 644 678 794 805 852 983 1198 1623 2180 2875
1450.0 3694 4174 4401 4439 4444 4862 5864 7357 8871 9603
1490.0 9143 7807 5602 3579 2419 1794 1455 1255 1063 922
1530.0 796 694 648 616 606 578 581 625 598 620
1570.0 656 689 762 809 928 1105 1368 1741 2228 2603
1610.0 2795 2998 3200 3620 4046 4359 4278 3584 2917 1934
1650.0 1415 1037 674 598 462 385 379 268 289 258
1690.0 220 200 233 262 237 246 296 354 391 465
1730.0 577 614 516 430 323 278 235 241 246 222
1770.0 214 170 110 101 85 86 73 56 75 57
1810.0 44 57 38 45 50 58 42 45 43 64
1850.0 50 61 51 68 61 75 69 63 72 97
1890.0 96 112 91 100 90 96 87 91 86 74
1930.0 64 65 56 68 58 43 47 48 37 43
1970.0 43 27 30 36 36 38 35 26 26 25
2010.0 28 31 39 36 37 42 44 28 37 36
2050.0 39 29 33 28 25 24 22 21 23 18
2090.0 17 21 19 20 16 12 10 18 14 12
2130.0 13 16 15 4 3 2 8 6 6 7
2170.0 3 11 15 10 16 2 6 11 11 15
2210.0 13 16 18 11 5 14 21 22 25 22
2250.0 23 29 29 31 20 29 23 24 23 40
2290.0 48 55 58 64 66 87 80 72 72 62
2330.0 42 24 2 6 52 62 94 114 14 2
2370.0 2 2 2 22 47 57 58 65 65 55
2410.0 52 51 56 59 58 61 67 66 64 63
2450.0 57 63 57 56 50 45 52 63 68 71
2490.0 69 67 65 62 66 65 78 71 81 80
2530.0 75 81 80 81 78 70 76 71 70 62
2570.0 61 62 63 64 74 62 80 76 100 97
2610.0 106 108 111 101 101 98 94 106 112 108
2650.0 100 98 92 89 87 85 101 100 110 123
2690.0 113 111 111 123 130 140 152 162 196 253
2730.0 320 444 538 605 591 519 393 310 269 260
2770.0 266 289 299 305 330 350 365 381 414 452
2810.0 479 524 583 662 723 823 936 1130 1357 1692
2850.0 2115 2688 3411 4301 5279 6218 6938 7270 7206 6847
2890.0 6235 5616 5169 4957 5092 5526 6222 7090 8048 8840
2930.0 9219 9299 8989 8392 7626 6805 6111 5808 6219 7568
2970.0 9178 10000 9714 8199 6054 4514 3767 3623 3903 4439
3010.0 4928 5140 4899 4314 3564 2890 2429 2135 1934 1750
3050.0 1578 1408 1244 1081 968 844 759 667 603 550
3090.0 516 464 445 406 388 354 323 308 281 276
3130.0 252 247 230 226 225 212 204 203 191 196
3170.0 184 178 153 130 117 142 127 134 127 144
3210.0 144 147 143 157 148 158 154 158 124 130
3250.0 112 94 91 83 84 96 67 65 74 70
3290.0 69 75 76 68 55 60 49 55 45 53
3330.0 37 44 57 51 47 55 44 45 74 64
3370.0 69 63 62 84 82 116 166 228 316 410
3410.0 491 517 474 416 334 245 207 172 169 144
3450.0 161 158 188 216 269 335 469 649 884 1122
3490.0 1268 1311 1199 993 739 526 384 275 242 169
3530.0 167 139 127 97 111 64 92 70 81 69
3570.0 60 54 51 62 68 57 42 31 28 56
3610.0 31 26 56 38 12 29 16 22 23 23
3650.0 24 3 17 17 46 17 18 21 6 22
3690.0 6 16 17 18 17 2 12 39 39 53
3730.0 49 30 24 31 12 35 20 42 23 37
3770.0 60 71 41 46 59 72 40 55 4 26
3810.0 43 24 33 27 23 2 9 2 0 40
3850.0 3 46 4 5 3 30 2 44 60 69
3890.0 36 28 63 86 51 88 79 30 110 71
3930.0 100 52 50 81 31 52 126 28 61 96
##END=
