##TITLE=4-Methyl-3-nitrobenzyl alcohol
##JCAMP-DX=4.24
##DATA TYPE=INFRARED SPECTRUM
##ORIGIN=Sadtler Research Labs Under US-EPA Contract
##OWNER=NIST Standard Reference Data Program
##CAS REGISTRY NO=40870-59-5
##MOLFORM=C 8 H 9 N O 3
##XUNITS=1/CM
##YUNITS=ABSORBANCE
##XFACTOR=1.0
##YFACTOR=0.000070694
##DELTAX=4.0
##FIRSTX=450.0
##LASTX=3966.0
##FIRSTY=0.006150
##MAXX=3966
##MINX=450
##MAXY=0.70694
##MINY=0
##NPOINTS=880
##XYDATA=(X++(Y..Y))
450.0 87 204 124 319 135 328 191 261 448 567
490.0 232 347 208 294 207 180 299 190 326 224
530.0 261 181 125 211 213 283 226 269 259 190
570.0 348 187 248 246 245 184 242 236 224 141
610.0 239 211 286 218 204 256 241 166 191 87
650.0 147 101 242 222 248 511 656 903 1006 990
690.0 924 625 491 463 317 320 308 314 321 359
730.0 388 355 604 694 640 446 569 543 581 633
770.0 568 565 536 468 444 576 725 1116 1783 2450
810.0 2975 3248 3012 2597 1929 1415 902 609 459 355
850.0 316 187 205 251 220 341 369 432 689 750
890.0 879 930 724 651 586 542 554 530 461 412
930.0 495 478 450 417 464 503 498 547 530 638
970.0 660 704 792 752 735 888 960 1042 1180 1267
1010.0 1463 1642 1768 1976 2161 2367 2669 2829 2868 2809
1050.0 2549 2330 2033 1823 1681 1564 1502 1290 1127 965
1090.0 779 647 508 465 412 425 380 358 348 373
1130.0 388 381 399 466 595 722 717 724 739 661
1170.0 725 797 860 918 960 1041 1115 1213 1348 1412
1210.0 1356 1238 1019 885 671 613 585 488 534 520
1250.0 556 554 593 606 669 769 803 891 952 1030
1290.0 1035 1035 1086 1183 1109 1209 1249 1298 1519 1618
1330.0 1863 2270 2796 3536 4575 5657 6666 6893 6671 5958
1370.0 4762 3833 3059 2632 2291 2033 1873 1697 1438 1349
1410.0 1199 1161 999 978 867 893 902 873 1032 1051
1450.0 1177 1234 1177 1246 1202 1167 1089 1058 1145 1173
1490.0 1384 1595 1711 2023 2074 2541 3016 3499 4480 5244
1530.0 6399 7671 8845 10000 9981 9252 7882 6345 5038 4313
1570.0 3704 3153 2663 2027 1659 1228 928 755 588 555
1610.0 544 538 602 597 604 496 400 311 241 235
1650.0 167 134 163 87 95 151 99 140 68 83
1690.0 77 146 47 75 93 110 137 112 160 190
1730.0 120 90 79 9 21 40 28 50 108 90
1770.0 115 126 147 124 122 102 86 99 73 106
1810.0 90 87 101 82 101 105 109 108 101 122
1850.0 106 114 117 114 99 84 81 91 94 96
1890.0 97 98 116 127 148 152 155 161 131 130
1930.0 128 112 111 91 89 92 90 92 85 81
1970.0 84 86 92 80 94 87 87 90 79 91
2010.0 88 77 74 89 85 91 93 108 93 94
2050.0 87 101 101 93 93 96 94 90 89 94
2090.0 89 92 87 86 89 80 85 82 86 85
2130.0 89 73 78 68 76 67 70 77 72 80
2170.0 69 69 61 59 56 59 65 70 61 64
2210.0 57 57 61 62 62 66 63 59 64 64
2250.0 65 68 67 69 72 67 68 68 66 58
2290.0 65 59 59 66 62 60 64 71 65 88
2330.0 88 98 89 87 79 105 102 115 98 79
2370.0 89 62 64 63 65 71 78 71 76 80
2410.0 83 83 91 87 85 87 86 76 82 71
2450.0 71 71 67 62 66 57 64 65 63 58
2490.0 55 49 49 45 49 48 48 46 51 50
2530.0 45 43 44 46 50 45 47 51 46 55
2570.0 54 57 61 61 66 58 67 74 76 65
2610.0 66 67 58 63 68 72 72 77 73 73
2650.0 74 72 70 73 71 79 74 84 78 85
2690.0 89 96 95 98 100 104 106 104 113 109
2730.0 112 108 104 113 121 126 134 145 151 143
2770.0 151 149 144 147 143 153 163 181 182 195
2810.0 211 228 246 264 285 312 349 386 436 482
2850.0 543 614 689 771 878 1004 1131 1269 1387 1439
2890.0 1420 1365 1286 1210 1155 1107 1061 1052 1063 1115
2930.0 1194 1304 1420 1527 1550 1485 1352 1164 998 873
2970.0 809 779 794 820 845 819 760 678 587 478
3010.0 418 387 370 370 396 458 510 536 532 515
3050.0 491 498 533 580 587 581 519 460 381 295
3090.0 236 179 144 125 102 91 84 96 87 87
3130.0 87 87 68 59 65 74 69 73 67 60
3170.0 61 64 65 68 67 59 69 60 59 75
3210.0 63 66 65 80 75 58 60 57 69 61
3250.0 66 54 67 52 60 49 65 63 70 48
3290.0 58 70 61 48 49 73 65 75 59 68
3330.0 77 64 64 73 65 50 75 68 69 68
3370.0 62 69 72 73 84 74 80 81 66 80
3410.0 79 70 79 82 89 75 69 79 91 86
3450.0 66 89 81 95 70 69 80 88 86 68
3490.0 51 74 63 89 66 67 59 56 72 67
3530.0 79 49 66 68 62 66 71 46 45 79
3570.0 80 66 84 90 79 104 99 94 103 120
3610.0 140 150 167 186 200 241 307 358 450 538
3650.0 697 787 839 875 852 784 707 620 514 433
3690.0 361 279 209 198 151 124 84 117 101 98
3730.0 79 79 77 55 63 51 68 34 52 51
3770.0 35 36 39 27 44 47 38 44 32 17
3810.0 37 33 39 37 35 60 46 44 49 37
3850.0 73 88 57 81 50 106 79 98 42 40
3890.0 17 75 45 59 57 70 90 61 56 0
3930.0 64 71 55 72 39 8 19 1 58 66
##END=
