##TITLE=m-Cresol, 6-chloro-.alpha.,.alpha.,.alpha.-trifluoro-,
##JCAMP-DX=4.24
##DATA TYPE=INFRARED SPECTRUM
##ORIGIN=Sadtler Research Labs Under US-EPA Contract
##OWNER=NIST Standard Reference Data Program
##CAS REGISTRY NO=40889-91-6
##MOLFORM=C 7 H 4 Cl F 3 O
##XUNITS=1/CM
##YUNITS=ABSORBANCE
##XFACTOR=1.0
##YFACTOR=0.000090118
##DELTAX=4.0
##FIRSTX=450.0
##LASTX=3966.0
##FIRSTY=0.005677
##MAXX=3966
##MINX=450
##MAXY=0.90118
##MINY=0
##NPOINTS=880
##XYDATA=(X++(Y..Y))
450.0 63 187 146 181 74 161 163 0 124 58
490.0 102 58 31 145 139 95 113 165 260 239
530.0 342 418 450 438 284 217 184 218 319 532
570.0 583 503 289 166 178 306 335 282 268 177
610.0 136 195 159 178 131 138 219 219 256 241
650.0 279 313 318 311 248 214 141 174 206 191
690.0 276 230 213 283 273 321 319 386 279 252
730.0 289 162 246 638 841 789 597 344 155 186
770.0 230 229 282 227 308 304 318 411 475 613
810.0 758 810 745 580 442 282 201 169 160 169
850.0 149 185 163 241 287 338 467 558 793 855
890.0 794 664 664 620 784 1117 1411 1519 1262 837
930.0 466 289 238 218 190 169 131 123 159 153
970.0 126 129 130 145 124 123 164 136 142 117
1010.0 139 190 187 165 185 198 263 374 449 507
1050.0 494 356 369 591 1003 1752 2802 3442 3158 2138
1090.0 1038 579 501 490 493 471 486 532 625 828
1130.0 1103 1785 2896 4255 5828 6843 7111 5992 4553 3798
1170.0 4073 5472 6286 5304 4399 3726 3270 2976 2652 2374
1210.0 1695 1059 739 539 486 522 578 800 1078 1126
1250.0 992 679 445 394 419 585 1049 1517 1627 1373
1290.0 870 563 617 779 1072 1605 2330 3334 4604 6755
1330.0 9084 10000 8854 5678 3033 1555 847 536 355 278
1370.0 252 192 195 192 233 281 316 310 288 277
1410.0 302 361 400 486 493 626 748 1040 1567 1847
1450.0 2038 1880 1299 785 596 509 517 575 708 881
1490.0 1034 1056 1010 778 648 361 247 199 153 144
1530.0 112 117 135 133 126 112 124 135 198 204
1570.0 304 407 521 748 804 879 886 706 653 589
1610.0 534 526 473 446 342 267 198 182 138 122
1650.0 122 85 108 71 92 95 101 91 92 86
1690.0 73 82 95 108 88 80 80 90 68 79
1730.0 113 74 112 107 136 143 160 168 137 142
1770.0 155 126 110 84 74 114 77 72 42 54
1810.0 69 63 74 63 60 76 63 75 68 71
1850.0 56 68 61 68 93 56 96 94 99 109
1890.0 91 110 76 60 79 68 58 49 50 73
1930.0 69 63 56 63 65 61 59 49 50 56
1970.0 57 56 49 46 50 48 56 48 42 48
2010.0 47 51 46 50 48 51 54 39 41 46
2050.0 48 49 51 57 55 62 59 72 67 62
2090.0 70 55 54 51 52 51 53 56 53 40
2130.0 48 37 44 45 43 56 55 49 49 56
2170.0 46 47 49 40 43 49 46 56 45 52
2210.0 42 43 45 40 53 43 45 51 58 52
2250.0 47 46 45 40 44 44 50 55 51 54
2290.0 56 57 52 46 51 52 45 57 48 47
2330.0 42 39 44 33 47 37 57 45 64 58
2370.0 48 44 34 39 42 40 37 40 41 35
2410.0 32 33 31 36 34 34 31 36 31 32
2450.0 33 32 35 38 46 47 53 53 53 60
2490.0 56 44 40 38 36 41 42 45 41 40
2530.0 43 39 33 31 31 27 28 35 41 39
2570.0 34 27 30 28 27 25 23 19 18 24
2610.0 24 24 26 25 27 40 24 33 37 40
2650.0 43 39 43 41 40 38 33 34 31 27
2690.0 28 26 26 24 26 24 22 25 26 20
2730.0 26 30 29 27 26 24 28 30 33 34
2770.0 37 40 38 35 31 31 38 30 35 32
2810.0 26 22 26 30 26 28 32 31 33 31
2850.0 34 26 34 33 30 32 32 28 28 40
2890.0 32 24 26 26 29 24 28 30 32 36
2930.0 41 45 27 36 37 36 46 39 37 39
2970.0 41 30 31 38 32 26 26 26 23 19
3010.0 31 30 28 26 29 34 36 30 34 37
3050.0 36 34 43 41 41 46 43 50 68 73
3090.0 69 58 52 48 45 44 37 38 33 36
3130.0 38 27 28 35 29 27 29 34 39 42
3170.0 37 36 38 42 48 33 40 41 35 42
3210.0 40 33 44 37 39 41 49 39 44 38
3250.0 39 39 37 36 26 36 37 41 39 36
3290.0 28 41 46 46 43 40 49 47 49 51
3330.0 56 39 42 42 36 55 43 37 34 41
3370.0 36 43 37 44 43 44 43 33 48 31
3410.0 41 37 33 37 39 41 38 32 38 35
3450.0 46 41 39 41 39 33 35 36 50 48
3490.0 46 45 41 45 49 36 37 31 45 62
3530.0 54 64 64 64 86 81 83 146 203 473
3570.0 1323 2200 2757 2253 1469 648 284 164 80 79
3610.0 99 109 95 79 64 93 94 112 140 206
3650.0 228 263 165 113 88 84 118 80 90 54
3690.0 88 67 50 53 39 55 98 59 73 87
3730.0 75 90 84 93 93 177 71 84 55 59
3770.0 74 43 69 74 56 46 36 74 72 91
3810.0 53 67 96 97 105 89 77 100 89 82
3850.0 83 147 81 63 117 77 100 62 134 127
3890.0 91 50 82 124 115 69 81 89 71 96
3930.0 78 84 44 74 70 84 81 42 43 76
##END=
