##TITLE=Phenethyl alcohol, .alpha.-bromomethyl-,
##JCAMP-DX=4.24
##DATA TYPE=INFRARED SPECTRUM
##ORIGIN=Sadtler Research Labs Under US-EPA Contract
##OWNER=NIST Standard Reference Data Program
##CAS REGISTRY NO=40893-99-0
##MOLFORM=C 9 H 11 Br O
##XUNITS=1/CM
##YUNITS=ABSORBANCE
##XFACTOR=1.0
##YFACTOR=0.000056476
##DELTAX=4.0
##FIRSTX=450.0
##LASTX=3966.0
##FIRSTY=0.012312
##MAXX=3966
##MINX=450
##MAXY=0.56476
##MINY=0
##NPOINTS=880
##XYDATA=(X++(Y..Y))
450.0 218 218 244 158 209 375 392 629 861 1228
490.0 1651 2169 2427 2576 2613 2509 1867 1167 866 767
530.0 704 616 569 562 470 362 182 118 35 51
570.0 0 30 22 162 329 578 835 899 743 451
610.0 212 74 79 124 210 325 469 612 717 953
650.0 1166 1497 1656 1909 1997 2269 2492 2838 3506 4473
690.0 6220 8029 10000 9808 7991 5661 3889 2868 2426 2638
730.0 3451 4690 6064 6830 6121 4540 2832 1595 848 453
770.0 236 141 98 118 188 261 250 202 123 94
810.0 130 256 423 504 510 454 382 330 335 325
850.0 327 331 368 464 550 582 521 450 392 388
890.0 366 376 403 506 658 768 767 670 557 502
930.0 461 463 525 616 762 924 1105 1242 1313 1291
970.0 1204 1079 948 895 927 1061 1317 1681 2119 2646
1010.0 3303 4137 5073 6021 7104 7666 7451 6504 5400 4946
1050.0 4806 4803 4915 5138 5563 6147 6794 7151 7040 6398
1090.0 5437 4385 3517 2849 2366 2021 1760 1600 1566 1685
1130.0 1893 2101 2221 2229 2181 2154 2184 2225 2217 2153
1170.0 2057 2022 2075 2210 2411 2595 2746 2836 2948 3156
1210.0 3556 4127 4630 4811 4619 4282 3962 3717 3556 3486
1250.0 3484 3506 3564 3552 3428 3160 2872 2640 2429 2243
1290.0 2102 2032 1984 1979 1982 1971 1909 1807 1701 1664
1330.0 1660 1715 1817 1929 2071 2237 2398 2555 2692 2796
1370.0 2900 3079 3224 3304 3228 2967 2569 2125 1686 1387
1410.0 1236 1248 1513 2005 2595 2936 3116 3078 3059 3115
1450.0 3143 3109 2839 2292 1676 1230 1026 921 1012 1394
1490.0 2295 3615 4238 3738 2342 968 503 323 298 230
1530.0 249 239 262 276 222 172 145 186 163 159
1570.0 215 295 414 553 711 935 1196 1514 1761 1779
1610.0 1452 934 508 237 163 87 103 92 88 109
1650.0 165 165 139 90 78 74 100 70 131 153
1690.0 150 172 263 303 333 360 439 559 604 687
1730.0 813 962 1006 1039 1056 1003 864 694 561 452
1770.0 437 409 379 373 389 445 552 596 575 460
1810.0 350 275 219 187 150 120 93 74 85 103
1850.0 98 111 157 205 258 311 325 331 338 335
1890.0 313 252 177 122 97 81 86 102 138 180
1930.0 257 350 445 503 519 503 493 454 356 228
1970.0 120 61 45 41 36 39 27 17 14 16
2010.0 12 17 25 19 23 24 20 30 32 30
2050.0 26 30 23 26 29 31 31 40 36 36
2090.0 36 36 36 44 42 41 33 30 29 25
2130.0 23 20 14 12 9 8 17 11 7 12
2170.0 12 12 18 18 19 19 13 13 15 15
2210.0 20 17 18 17 16 18 20 24 26 30
2250.0 30 29 29 34 32 28 35 27 27 26
2290.0 24 16 18 20 30 55 75 82 72 61
2330.0 43 50 74 82 84 70 49 39 35 42
2370.0 56 63 55 37 28 28 33 24 27 29
2410.0 32 48 27 30 28 31 44 25 34 21
2450.0 42 42 29 23 26 34 32 10 14 8
2490.0 28 2 5 1 13 17 12 11 24 26
2530.0 19 21 20 20 19 6 21 17 19 19
2570.0 22 32 33 35 42 53 54 51 56 77
2610.0 75 65 74 86 88 82 99 113 103 106
2650.0 118 105 103 110 107 95 118 118 121 134
2690.0 156 162 184 201 223 242 250 247 232 213
2730.0 201 194 194 199 192 194 200 196 197 196
2770.0 194 203 210 221 246 265 279 298 309 324
2810.0 348 364 380 411 443 507 596 713 828 958
2850.0 1070 1206 1325 1478 1665 1848 1981 2080 2192 2348
2890.0 2527 2677 2756 2768 2778 2839 2997 3305 3693 4085
2930.0 4417 4641 4707 4603 4377 4141 3859 3560 3374 3333
2970.0 3366 3247 2850 2245 1625 1156 905 834 942 1162
3010.0 1435 1768 2250 3085 4344 5829 6897 6927 5848 4272
3050.0 3101 2589 2659 3284 4596 6144 6713 6079 4729 3775
3090.0 3416 3039 2552 2032 1635 1375 1146 901 632 430
3130.0 287 202 152 129 110 98 96 100 108 105
3170.0 96 72 44 19 10 5 17 12 3 1
3210.0 11 17 13 11 11 16 16 18 22 32
3250.0 46 50 57 58 59 61 56 47 55 50
3290.0 58 54 50 34 37 43 49 42 36 58
3330.0 47 46 39 32 35 29 30 29 32 37
3370.0 29 31 24 34 37 37 32 37 36 36
3410.0 39 33 45 45 46 53 54 57 56 59
3450.0 49 57 48 51 64 72 75 81 84 70
3490.0 75 81 71 72 68 60 74 78 86 74
3530.0 87 94 103 133 153 149 170 158 176 213
3570.0 241 298 375 511 775 1188 1660 2201 2917 3477
3610.0 3811 3516 3005 2601 2241 1970 1716 1508 1342 1197
3650.0 1108 1019 971 908 827 763 652 541 402 320
3690.0 255 229 197 171 156 145 136 136 137 127
3730.0 128 111 124 104 147 93 128 88 71 79
3770.0 59 57 50 61 55 69 62 68 33 72
3810.0 72 78 65 75 64 76 81 86 88 52
3850.0 64 104 106 103 91 105 118 127 101 148
3890.0 123 127 108 118 107 131 122 156 159 110
3930.0 122 108 111 102 121 102 108 92 98 127
##END=
