##TITLE=Pentadecanoic acid, ethyl ester
##JCAMP-DX=4.24
##DATA TYPE=INFRARED SPECTRUM
##ORIGIN=Sadtler Research Labs Under US-EPA Contract
##OWNER=NIST Standard Reference Data Program
##CAS REGISTRY NO=41114-00-5
##MOLFORM=C 17 H 34 O 2
##XUNITS=1/CM
##YUNITS=ABSORBANCE
##XFACTOR=1.0
##YFACTOR=0.000081396
##DELTAX=4.0
##FIRSTX=450.0
##LASTX=3966.0
##FIRSTY=0.033861
##MAXX=3966
##MINX=450
##MAXY=0.81396
##MINY=0
##NPOINTS=880
##XYDATA=(X++(Y..Y))
450.0 416 398 251 120 123 62 15 123 197 189
490.0 271 278 92 117 169 15 83 163 48 155
530.0 201 162 201 281 214 51 142 16 40 273
570.0 178 180 293 274 163 291 295 171 209 198
610.0 149 326 364 234 168 286 139 196 225 200
650.0 92 192 231 211 229 191 202 193 207 153
690.0 207 264 234 289 420 318 320 388 339 316
730.0 332 323 300 463 293 305 314 330 237 307
770.0 241 220 301 327 254 307 302 238 297 337
810.0 237 216 259 261 262 275 261 281 305 287
850.0 230 291 310 287 301 330 263 303 279 221
890.0 234 271 228 241 268 286 307 315 304 286
930.0 308 286 241 273 258 237 273 285 232 233
970.0 252 207 244 264 223 249 276 268 315 357
1010.0 345 393 502 551 630 806 890 934 1006 979
1050.0 847 806 737 690 669 676 647 635 726 726
1090.0 772 870 889 996 1042 1034 1094 1150 1091 1045
1130.0 1060 1113 1184 1370 1545 1751 1962 2141 2263 2380
1170.0 2432 2391 2404 2301 2137 2006 1883 1757 1671 1638
1210.0 1548 1504 1493 1483 1466 1519 1522 1536 1565 1551
1250.0 1472 1415 1298 1161 1071 978 878 847 840 802
1290.0 790 825 807 824 867 826 782 779 721 691
1330.0 686 698 724 787 836 818 819 776 717 794
1370.0 942 1005 940 799 619 527 473 407 368 377
1410.0 351 335 379 406 423 486 528 541 614 696
1450.0 775 883 1004 1062 1068 983 782 599 470 351
1490.0 301 277 251 216 245 207 174 186 187 163
1530.0 173 161 136 185 174 129 133 154 140 134
1570.0 140 123 133 158 148 140 158 131 115 147
1610.0 120 116 151 147 131 137 148 135 126 119
1650.0 93 136 141 117 135 143 144 133 167 172
1690.0 153 187 212 243 265 315 347 443 514 610
1730.0 800 1078 1447 1982 2648 3359 3835 3581 2831 2103
1770.0 1544 1097 805 620 464 364 332 276 223 202
1810.0 176 144 137 129 103 110 118 97 91 108
1850.0 98 89 96 76 71 95 90 88 104 89
1890.0 77 95 88 65 81 83 68 82 98 77
1930.0 88 91 73 77 84 67 72 92 87 79
1970.0 86 78 71 78 70 62 72 76 62 77
2010.0 86 74 89 85 64 71 83 67 65 88
2050.0 70 65 88 67 60 70 65 52 70 73
2090.0 62 77 69 54 52 64 41 49 57 45
2130.0 50 68 55 49 72 52 35 57 51 44
2170.0 59 65 55 61 61 47 55 62 46 47
2210.0 65 55 65 82 63 64 86 72 65 90
2250.0 93 97 131 158 169 231 254 230 227 193
2290.0 141 126 118 79 71 78 42 39 55 8
2330.0 4 14 18 45 105 49 24 92 127 46
2370.0 89 95 62 61 63 35 30 37 24 23
2410.0 34 14 11 29 16 11 32 28 15 18
2450.0 17 4 9 21 9 25 32 20 17 28
2490.0 9 10 28 9 20 33 20 15 35 36
2530.0 11 29 31 12 38 35 27 43 51 33
2570.0 39 51 31 29 45 33 32 59 48 44
2610.0 68 58 45 63 56 44 74 72 62 77
2650.0 91 73 78 94 81 85 105 93 95 120
2690.0 104 97 107 86 73 92 87 80 97 99
2730.0 87 112 111 97 101 102 100 105 122 111
2770.0 125 152 137 141 167 158 163 206 203 217
2810.0 249 279 287 337 386 397 464 548 632 827
2850.0 1203 1827 2806 3727 3873 3357 2710 2206 1932 1804
2890.0 1671 1636 1764 2022 2400 2890 3448 4197 5372 7160
2930.0 9124 10000 9340 7801 6173 4787 3718 3127 2951 2917
2970.0 2859 2541 2112 1855 1737 1520 1232 1022 854 689
3010.0 590 509 417 361 333 272 250 224 182 156
3050.0 174 144 132 158 130 116 137 115 90 87
3090.0 91 74 90 95 75 94 99 72 79 78
3130.0 62 53 74 61 68 87 72 54 80 61
3170.0 48 71 64 46 71 76 47 69 72 39
3210.0 42 49 24 37 49 45 44 61 46 25
3250.0 66 36 10 40 24 29 55 54 26 64
3290.0 54 6 24 40 5 34 61 34 40 78
3330.0 41 30 53 31 21 49 35 24 56 64
3370.0 43 45 48 4 42 46 26 39 65 38
3410.0 40 76 41 13 38 30 14 59 50 30
3450.0 80 69 31 56 56 23 39 77 47 68
3490.0 88 76 65 86 56 39 38 28 35 45
3530.0 54 43 63 51 31 52 60 23 37 71
3570.0 64 91 119 66 67 80 45 32 63 44
3610.0 57 82 79 48 74 95 59 67 59 35
3650.0 66 98 73 50 68 55 69 83 40 32
3690.0 69 50 54 72 55 61 66 52 34 33
3730.0 45 45 63 65 65 72 82 42 36 61
3770.0 38 28 63 49 47 66 60 40 56 55
3810.0 23 40 47 47 60 78 54 61 76 41
3850.0 36 62 35 49 89 77 77 108 90 54
3890.0 57 28 14 25 58 56 86 114 83 89
3930.0 94 74 63 68 44 46 0 4 4 4
##END=
