##TITLE=Benzene, (3-iodopropyl)-
##JCAMP-DX=4.24
##DATA TYPE=INFRARED SPECTRUM
##ORIGIN=Sadtler Research Labs Under US-EPA Contract
##OWNER=NIST Standard Reference Data Program
##CAS REGISTRY NO=4119-41-9
##MOLFORM=C 9 H 11 I
##XUNITS=1/CM
##YUNITS=ABSORBANCE
##XFACTOR=1.0
##YFACTOR=0.000043839
##DELTAX=4.0
##FIRSTX=450.0
##LASTX=3966.0
##FIRSTY=0.017448
##MAXX=3966
##MINX=450
##MAXY=0.43839
##MINY=0
##NPOINTS=880
##XYDATA=(X++(Y..Y))
450.0 398 131 43 46 400 512 827 1220 1679 1895
490.0 1783 1281 1025 842 868 864 744 382 164 114
530.0 84 147 163 282 477 772 721 591 489 547
570.0 593 648 614 425 323 321 316 239 323 407
610.0 527 472 415 283 142 83 34 43 25 89
650.0 96 182 225 479 466 847 1132 1303 1989 3087
690.0 5325 7618 10000 9351 7289 5166 3930 3268 3253 3845
730.0 4803 6462 7739 8182 7082 5463 3909 2741 1944 1362
770.0 1067 862 778 706 742 744 649 518 306 237
810.0 192 207 195 184 163 194 248 346 490 615
850.0 685 582 382 196 121 98 116 118 142 174
890.0 192 218 305 482 608 610 459 296 260 272
930.0 315 346 394 378 389 464 616 694 667 578
970.0 463 370 306 274 213 190 154 163 185 216
1010.0 217 250 365 683 1323 1678 1447 767 370 305
1050.0 315 406 535 739 975 1169 1221 1117 895 668
1090.0 498 409 401 393 410 411 429 425 437 433
1130.0 470 551 646 753 836 1048 1501 2348 3350 3955
1170.0 3966 3281 2379 1788 1579 1529 1607 1789 2214 3094
1210.0 4799 7021 8348 7714 5611 3762 2690 2102 1758 1553
1250.0 1494 1539 1762 2123 2406 2556 2559 2393 2071 1640
1290.0 1312 1085 887 753 693 659 633 634 602 635
1330.0 717 868 1110 1373 1683 1816 1595 1171 766 558
1370.0 451 430 393 337 330 289 273 284 252 282
1410.0 335 420 668 933 1416 2075 2726 3006 3080 3263
1450.0 3612 3687 3398 2701 1989 1405 1082 826 821 1144
1490.0 2018 3783 5047 4347 2435 873 509 362 364 271
1530.0 314 297 323 360 288 216 204 268 218 207
1570.0 264 334 457 572 745 999 1290 1698 2235 2514
1610.0 2140 1308 703 390 312 187 221 207 184 206
1650.0 256 231 181 114 113 119 144 98 178 195
1690.0 161 161 253 257 232 206 240 315 239 254
1730.0 308 411 363 374 384 369 323 288 281 251
1770.0 305 315 300 311 346 436 625 692 645 448
1810.0 321 256 198 179 146 142 90 86 97 142
1850.0 139 168 227 269 321 365 369 375 341 273
1890.0 205 145 101 82 81 93 105 124 171 205
1930.0 284 376 472 520 510 484 498 455 321 175
1970.0 85 42 26 31 27 39 27 16 13 18
2010.0 16 23 21 14 15 8 11 16 19 24
2050.0 15 18 24 28 26 25 24 25 11 16
2090.0 13 12 13 7 10 6 7 4 6 4
2130.0 6 8 13 18 23 34 36 33 35 37
2170.0 39 49 58 59 61 57 52 52 54 50
2210.0 52 49 43 48 45 45 39 34 34 32
2250.0 35 34 22 26 21 29 28 32 36 32
2290.0 35 20 8 16 16 34 64 86 74 33
2330.0 8 27 40 4 79 13 47 10 0 3
2370.0 19 22 44 54 65 57 68 59 53 57
2410.0 57 59 46 49 41 35 40 36 43 37
2450.0 20 25 34 30 32 27 31 27 32 31
2490.0 31 32 34 32 32 31 33 33 32 24
2530.0 31 27 34 29 37 39 42 44 49 43
2570.0 50 54 66 74 79 92 98 110 122 135
2610.0 125 111 105 92 105 110 117 119 120 122
2650.0 127 120 115 105 96 96 90 91 93 92
2690.0 89 93 92 87 80 83 86 94 92 86
2730.0 86 81 75 77 76 84 82 88 94 108
2770.0 122 136 163 192 224 244 258 251 252 251
2810.0 261 267 287 306 362 458 602 831 1135 1481
2850.0 1845 2153 2401 2574 2632 2554 2353 2114 1914 1802
2890.0 1831 2003 2276 2577 2798 2916 3048 3333 3822 4494
2930.0 5215 5958 6845 7486 7879 7526 6389 5087 4125 3777
2970.0 3632 3402 2955 2298 1719 1297 1093 1109 1342 1770
3010.0 2230 2747 3252 3976 5089 6588 7925 8085 6616 4466
3050.0 3161 2732 2855 3490 4761 6435 7221 6339 4735 3819
3090.0 3519 3148 2703 2180 1826 1586 1345 1061 753 501
3130.0 342 254 198 161 149 143 146 148 150 141
3170.0 137 110 99 77 62 54 46 45 37 45
3210.0 46 38 51 40 42 45 43 51 52 38
3250.0 49 39 46 32 39 44 41 44 41 42
3290.0 45 58 46 43 22 27 28 32 31 31
3330.0 34 21 21 20 26 22 26 24 11 25
3370.0 36 30 29 36 29 19 27 31 29 21
3410.0 32 46 32 26 34 44 43 52 37 40
3450.0 42 41 18 24 27 28 31 31 20 28
3490.0 16 17 20 32 46 15 35 33 44 28
3530.0 27 30 17 23 29 28 22 33 31 60
3570.0 58 72 57 56 67 31 66 22 39 18
3610.0 50 51 62 46 36 88 75 65 87 80
3650.0 138 135 128 93 40 87 56 91 24 50
3690.0 83 33 25 40 63 67 52 64 73 69
3730.0 56 71 80 47 85 33 65 51 33 84
3770.0 48 24 20 45 38 52 39 75 44 78
3810.0 21 76 67 67 65 47 71 84 84 72
3850.0 71 73 80 94 74 76 42 62 39 83
3890.0 44 71 63 63 71 90 37 63 44 35
3930.0 70 81 26 47 35 41 45 45 37 56
##END=
