##TITLE=Benzene, 1,2-dimethyl-4-(1-methylethyl)-
##JCAMP-DX=4.24
##DATA TYPE=INFRARED SPECTRUM
##ORIGIN=Sadtler Research Labs Under US-EPA Contract
##OWNER=NIST Standard Reference Data Program
##CAS REGISTRY NO=4132-77-8
##MOLFORM=C 11 H 16
##XUNITS=1/CM
##YUNITS=ABSORBANCE
##XFACTOR=1.0
##YFACTOR=0.000092798
##DELTAX=4.0
##FIRSTX=450.0
##LASTX=3966.0
##FIRSTY=0.012713
##MAXX=3966
##MINX=450
##MAXY=0.92798
##MINY=0
##NPOINTS=880
##XYDATA=(X++(Y..Y))
450.0 137 318 203 182 132 33 229 260 149 241
490.0 0 213 313 171 214 21 82 165 290 311
530.0 102 184 283 207 209 191 231 337 204 234
570.0 237 303 294 339 369 384 576 555 495 452
610.0 321 291 244 272 225 205 224 225 170 114
650.0 137 183 192 143 156 146 191 162 199 207
690.0 182 189 207 237 346 413 521 590 479 409
730.0 291 272 190 150 117 205 212 171 177 236
770.0 199 189 208 211 208 236 272 422 599 944
810.0 1283 1727 1831 1436 1026 725 433 314 259 238
850.0 203 199 248 285 333 432 548 668 636 491
890.0 413 322 271 249 232 239 252 294 341 344
930.0 344 284 237 222 209 228 203 210 224 238
970.0 259 268 307 382 517 700 829 854 771 598
1010.0 446 377 352 358 328 313 289 266 277 284
1050.0 314 358 404 429 420 378 363 349 312 254
1090.0 229 222 245 262 277 322 319 393 446 512
1130.0 543 530 490 452 409 388 367 354 350 393
1170.0 448 465 449 368 266 228 199 200 203 183
1210.0 186 198 181 185 185 200 209 228 233 236
1250.0 254 268 304 348 388 436 461 445 415 366
1290.0 330 306 312 325 353 416 515 622 674 669
1330.0 628 567 520 484 427 400 411 473 564 692
1370.0 794 727 749 799 802 782 702 587 514 519
1410.0 565 590 598 590 567 587 619 750 890 1086
1450.0 1354 1591 1782 1856 1789 1672 1461 1230 1029 841
1490.0 801 925 1360 1871 2078 1984 1508 897 516 438
1530.0 368 366 335 303 297 272 261 250 263 282
1570.0 295 324 339 345 339 323 318 314 360 435
1610.0 518 580 530 472 371 281 226 184 161 136
1650.0 108 106 100 98 92 86 90 99 102 99
1690.0 117 144 181 227 246 272 267 245 223 181
1730.0 130 113 128 154 200 228 239 230 184 135
1770.0 101 83 72 65 68 63 63 60 52 54
1810.0 52 54 56 53 51 51 52 55 52 44
1850.0 45 50 56 60 78 95 124 143 148 142
1890.0 121 94 71 55 52 51 47 41 37 35
1930.0 33 27 28 25 24 27 25 25 31 30
1970.0 24 22 25 23 23 17 20 16 17 15
2010.0 14 15 12 15 14 14 13 14 15 16
2050.0 9 10 12 10 11 13 12 12 9 8
2090.0 7 6 7 6 4 7 10 11 11 6
2130.0 12 14 6 3 4 1 0 0 1 0
2170.0 3 5 3 0 0 2 0 3 1 3
2210.0 2 7 7 8 12 11 11 17 17 18
2250.0 14 12 11 10 10 10 10 13 14 16
2290.0 18 25 28 30 32 31 25 24 16 8
2330.0 0 6 5 0 0 9 2 16 10 9
2370.0 13 14 27 23 23 21 17 18 22 22
2410.0 23 18 19 14 14 15 15 16 15 17
2450.0 22 25 28 27 30 33 30 31 27 29
2490.0 26 25 23 19 18 18 16 8 8 10
2530.0 12 14 15 15 15 17 21 20 18 23
2570.0 22 27 32 39 49 57 62 62 53 49
2610.0 44 40 37 35 32 32 32 31 29 28
2650.0 28 28 28 29 32 29 32 38 37 41
2690.0 42 46 53 60 70 83 101 118 135 154
2730.0 171 196 219 226 212 183 150 141 137 141
2770.0 146 139 138 135 133 147 152 162 166 184
2810.0 204 219 244 259 278 304 328 365 427 507
2850.0 623 771 980 1265 1663 2195 2796 3298 3520 3441
2890.0 3185 2961 2863 2856 2867 2903 2918 3034 3303 3804
2930.0 4463 5024 5353 5185 4757 4428 4429 5437 7389 9119
2970.0 10000 9113 6760 4716 3228 2313 1928 1822 1880 2002
3010.0 2121 2217 2195 2055 1845 1580 1386 1266 1239 1245
3050.0 1234 1221 1150 1045 936 820 723 642 571 514
3090.0 456 401 344 303 277 275 268 265 257 251
3130.0 231 208 182 164 152 143 127 115 106 105
3170.0 103 99 94 98 105 104 102 102 95 97
3210.0 91 87 86 80 76 63 61 55 57 52
3250.0 45 41 37 44 41 35 43 36 39 33
3290.0 27 29 35 32 31 29 40 33 28 40
3330.0 37 39 34 35 32 33 41 42 34 34
3370.0 39 40 35 35 35 45 44 39 33 33
3410.0 36 38 32 36 35 36 33 26 34 29
3450.0 40 40 26 28 24 32 39 31 23 28
3490.0 18 26 24 36 38 32 30 24 37 35
3530.0 36 31 33 21 33 25 30 29 37 46
3570.0 40 19 34 39 24 41 21 21 27 27
3610.0 29 27 23 25 23 27 29 24 32 28
3650.0 30 31 24 23 19 19 12 13 13 2
3690.0 6 19 18 5 2 17 22 12 15 13
3730.0 0 9 34 1 4 0 25 25 14 11
3770.0 10 21 7 9 0 14 12 14 18 3
3810.0 11 34 23 28 20 29 25 31 18 30
3850.0 21 0 6 18 33 29 0 4 9 34
3890.0 46 11 0 2 16 17 12 50 36 20
3930.0 8 9 37 24 54 41 13 16 16 21
##END=
