##TITLE=z1-Indanone, 5,6-dimethoxy-3,3-dimethyl-,
##JCAMP-DX=4.24
##DATA TYPE=INFRARED SPECTRUM
##ORIGIN=Sadtler Research Labs Under US-EPA Contract
##OWNER=NIST Standard Reference Data Program
##CAS REGISTRY NO=4136-26-9
##MOLFORM=C 13 H 16 O 3
##XUNITS=1/CM
##YUNITS=ABSORBANCE
##XFACTOR=1.0
##YFACTOR=0.000119919
##DELTAX=4.0
##FIRSTX=450.0
##LASTX=3966.0
##FIRSTY=0.000000
##MAXX=3966
##MINX=450
##MAXY=1.19919
##MINY=0
##NPOINTS=880
##XYDATA=(X++(Y..Y))
450.0 0 28 58 80 117 173 239 308 453 526
490.0 520 439 372 358 313 277 228 236 267 250
530.0 265 312 345 372 392 408 429 430 487 542
570.0 542 525 488 401 345 308 263 251 248 243
610.0 224 221 233 240 245 277 322 321 313 284
650.0 276 256 246 224 206 230 200 180 190 199
690.0 211 216 211 214 224 216 219 256 311 355
730.0 363 316 271 265 281 314 330 330 297 259
770.0 235 248 277 337 394 438 464 449 406 343
810.0 281 238 208 202 205 216 234 282 369 476
850.0 582 703 841 909 854 734 659 617 587 507
890.0 403 331 278 243 221 213 204 205 209 228
930.0 250 270 279 277 266 261 271 294 328 360
970.0 384 388 365 349 347 364 399 455 532 661
1010.0 843 1111 1461 1825 2149 2391 2602 2737 2663 2294
1050.0 1687 1095 723 550 479 463 480 535 649 869
1090.0 1132 1301 1231 967 684 522 490 532 645 811
1130.0 1028 1265 1465 1588 1562 1422 1241 1094 1021 1030
1170.0 1095 1192 1296 1387 1446 1448 1465 1594 1901 2317
1210.0 2646 2736 2606 2439 2335 2279 2174 2034 1938 1933
1250.0 2045 2370 3068 4104 4836 4520 3378 2265 1905 2294
1290.0 3234 4658 6296 7677 8098 7581 6442 5321 4458 3704
1330.0 3001 2384 1978 1711 1548 1425 1272 1127 991 941
1370.0 925 790 702 680 692 692 684 753 927 1260
1410.0 1643 1836 1793 1432 1139 1018 1093 1264 1419 1450
1450.0 1458 1537 1796 2094 2390 2589 2623 2686 3068 4097
1490.0 5123 5648 4993 3665 2442 1587 1196 912 801 670
1530.0 628 572 538 542 495 477 484 555 585 671
1570.0 780 936 1145 1408 1669 1852 1924 1963 1985 2009
1610.0 1905 1638 1238 873 631 487 410 392 360 363
1650.0 384 398 385 389 411 411 459 464 567 631
1690.0 702 772 874 985 1120 1385 1817 2886 4779 7600
1730.0 9895 10000 7593 4387 2223 1308 813 635 456 396
1770.0 343 307 273 262 261 241 247 218 213 169
1810.0 164 146 126 123 112 116 95 97 93 103
1850.0 87 82 81 82 91 92 83 74 77 70
1890.0 73 69 63 58 57 59 52 57 60 57
1930.0 54 62 64 68 71 67 72 73 76 79
1970.0 80 81 83 85 87 100 101 99 94 98
2010.0 94 102 104 103 99 103 102 104 106 102
2050.0 107 105 108 110 112 111 112 115 106 105
2090.0 97 88 77 74 69 66 65 60 60 62
2130.0 60 57 58 57 54 53 50 49 45 47
2170.0 44 47 47 48 48 48 49 49 48 48
2210.0 50 49 51 49 48 47 45 47 46 48
2250.0 48 52 49 52 58 61 66 68 73 77
2290.0 79 83 89 90 94 99 86 82 80 75
2330.0 70 69 56 78 77 74 75 64 72 66
2370.0 62 64 68 67 51 41 30 29 28 33
2410.0 28 33 31 34 34 33 35 33 34 36
2450.0 38 37 39 41 39 40 36 33 31 33
2490.0 30 34 31 34 36 36 38 40 43 44
2530.0 47 48 51 52 54 56 55 57 58 62
2570.0 66 69 72 78 79 79 87 90 94 99
2610.0 105 107 109 110 111 109 107 104 103 102
2650.0 97 90 84 81 76 72 69 71 70 68
2690.0 69 67 69 72 70 68 69 74 78 82
2730.0 83 79 77 78 76 73 75 76 83 84
2770.0 89 88 90 94 103 111 122 135 154 173
2810.0 197 234 276 328 389 473 594 733 836 870
2850.0 828 753 722 765 870 1005 1119 1145 1066 967
2890.0 908 893 914 946 1008 1093 1200 1309 1423 1578
2930.0 1808 2059 2247 2355 2392 2394 2463 2914 3910 4678
2970.0 4226 2905 1650 1034 804 733 744 817 968 1179
3010.0 1334 1272 1016 703 503 419 369 340 320 305
3050.0 294 294 303 316 324 319 300 267 226 188
3090.0 164 145 139 133 127 118 112 104 93 85
3130.0 76 74 69 68 66 65 63 59 60 61
3170.0 61 62 64 65 68 70 71 72 70 74
3210.0 66 66 60 61 61 61 59 58 53 52
3250.0 50 51 47 47 45 47 49 49 49 49
3290.0 50 52 56 60 58 59 62 60 58 57
3330.0 61 57 60 56 56 58 57 61 57 62
3370.0 61 62 61 61 66 65 64 65 62 62
3410.0 71 69 77 81 86 102 120 145 152 148
3450.0 136 113 91 71 61 53 47 45 49 43
3490.0 52 47 49 50 48 49 56 51 53 54
3530.0 45 47 43 43 50 43 49 48 48 49
3570.0 51 47 45 50 46 53 43 43 49 47
3610.0 45 47 45 48 40 48 41 50 42 37
3650.0 37 40 55 40 53 28 43 38 45 44
3690.0 31 44 38 37 44 40 45 46 41 46
3730.0 41 34 41 43 27 38 29 48 45 40
3770.0 38 37 47 36 47 35 41 35 42 28
3810.0 49 31 41 40 39 44 38 34 39 45
3850.0 33 29 36 41 38 41 39 39 52 40
3890.0 56 51 54 40 52 42 45 38 36 40
3930.0 38 47 44 55 48 48 46 52 50 38
##END=
