##TITLE=1,1-Cyclopentanedicarboxylic acid, diethyl ester
##JCAMP-DX=4.24
##DATA TYPE=INFRARED SPECTRUM
##ORIGIN=Sadtler Research Labs Under US-EPA Contract
##OWNER=NIST Standard Reference Data Program
##CAS REGISTRY NO=4167-77-5
##MOLFORM=C 11 H 18 O 4
##XUNITS=1/CM
##YUNITS=ABSORBANCE
##XFACTOR=1.0
##YFACTOR=0.000148273
##DELTAX=4.0
##FIRSTX=450.0
##LASTX=3966.0
##FIRSTY=0.020313
##MAXX=3966
##MINX=450
##MAXY=1.48273
##MINY=0
##NPOINTS=880
##XYDATA=(X++(Y..Y))
450.0 137 115 85 131 106 136 101 74 81 59
490.0 45 27 18 31 33 57 66 26 24 64
530.0 57 58 69 49 65 39 1 6 0 29
570.0 36 27 40 40 43 44 40 37 44 38
610.0 31 15 18 7 14 14 15 22 21 20
650.0 21 20 26 36 49 110 98 119 133 132
690.0 134 126 132 122 116 87 60 58 51 35
730.0 32 21 32 37 70 98 123 128 128 130
770.0 123 123 114 109 106 103 103 95 94 89
810.0 87 84 89 98 110 128 149 168 203 245
850.0 305 388 470 525 515 432 325 229 158 114
890.0 106 110 119 126 129 126 114 107 101 95
930.0 100 115 139 168 196 221 217 186 155 135
970.0 136 149 173 198 222 246 267 282 318 374
1010.0 462 611 847 1195 1635 2102 2470 2613 2508 2226
1050.0 1856 1540 1390 1370 1445 1565 1699 1780 1793 1798
1090.0 1883 2092 2347 2524 2557 2453 2287 2133 2047 2059
1130.0 2209 2540 3111 3913 4911 5962 6828 7143 6877 6176
1170.0 5407 4772 4278 3828 3414 3040 2732 2507 2371 2322
1210.0 2353 2465 2678 3010 3517 4122 4710 5222 5706 6181
1250.0 6640 6939 6950 6566 5832 4930 4049 3316 2764 2392
1290.0 2174 2078 2070 2071 2028 1938 1852 1819 1850 1862
1330.0 1750 1496 1158 835 608 475 422 451 621 898
1370.0 1088 1089 934 719 592 541 517 495 476 462
1410.0 444 439 420 416 404 407 400 459 552 653
1450.0 751 790 800 789 806 827 811 745 632 489
1490.0 353 257 181 130 90 64 52 36 23 27
1530.0 16 22 12 5 12 18 15 3 13 15
1570.0 14 11 16 12 18 17 21 15 15 11
1610.0 11 8 1 7 1 14 9 15 22 27
1650.0 16 28 37 48 57 70 80 113 127 159
1690.0 206 259 320 413 521 654 785 949 1201 1593
1730.0 2236 3339 5143 7371 9455 10000 9103 7930 6735 5630
1770.0 4478 3456 2656 1991 1443 1028 756 579 457 371
1810.0 302 248 209 168 139 111 92 75 54 42
1850.0 36 31 25 24 17 18 21 24 29 29
1890.0 31 28 27 25 20 17 15 12 9 9
1930.0 11 11 11 7 8 8 7 5 8 5
1970.0 5 3 5 5 4 1 3 5 5 5
2010.0 8 8 9 10 10 8 8 7 7 6
2050.0 6 6 8 8 10 12 14 16 20 22
2090.0 20 23 24 23 22 24 22 22 19 19
2130.0 16 14 11 10 9 6 7 5 4 2
2170.0 2 2 1 0 1 0 3 1 3 5
2210.0 7 7 10 12 14 14 15 17 17 18
2250.0 18 18 18 17 16 15 13 14 14 15
2290.0 18 20 25 30 35 36 43 39 43 41
2330.0 40 33 28 35 41 36 36 26 40 32
2370.0 25 31 34 35 23 16 13 12 11 11
2410.0 12 13 12 12 11 13 12 10 8 7
2450.0 4 7 5 6 6 6 6 5 4 2
2490.0 2 0 1 2 1 0 0 1 3 2
2530.0 4 2 5 5 3 3 5 3 4 5
2570.0 6 5 4 3 4 4 7 8 8 8
2610.0 8 10 10 8 8 7 4 5 5 3
2650.0 4 2 1 3 2 1 4 6 5 5
2690.0 6 8 6 8 10 10 10 14 20 25
2730.0 27 27 29 29 28 31 33 33 36 39
2770.0 45 46 51 48 47 45 46 47 52 55
2810.0 60 67 76 88 98 105 114 125 140 158
2850.0 184 213 249 300 367 470 631 861 1100 1223
2890.0 1173 1030 896 855 881 948 1009 1050 1070 1107
2930.0 1196 1364 1619 1904 2109 2214 2276 2430 2747 3073
2970.0 3203 3169 3191 3421 3607 3482 3013 2406 1919 1548
3010.0 1233 972 763 599 475 384 317 264 227 195
3050.0 169 153 140 127 118 110 106 102 98 90
3090.0 84 80 74 68 67 59 59 55 56 56
3130.0 53 51 48 46 42 43 40 42 40 38
3170.0 35 35 35 35 34 34 31 28 28 28
3210.0 25 25 25 21 20 20 18 19 14 14
3250.0 11 14 11 12 13 8 12 10 13 14
3290.0 12 14 15 11 13 16 14 13 12 15
3330.0 12 13 15 11 14 14 12 10 14 14
3370.0 14 13 17 10 13 12 9 14 13 12
3410.0 15 14 12 13 11 12 13 12 14 11
3450.0 12 12 21 28 29 30 35 39 53 64
3490.0 73 66 60 55 44 42 35 29 17 17
3530.0 6 5 6 3 6 5 6 6 10 6
3570.0 14 11 9 13 12 16 11 6 3 5
3610.0 8 8 9 6 2 13 12 9 9 4
3650.0 8 4 2 3 1 3 6 4 4 10
3690.0 11 8 8 1 8 2 9 7 6 10
3730.0 6 7 12 5 10 6 6 7 3 7
3770.0 8 6 6 6 3 4 10 8 4 9
3810.0 2 6 4 9 9 10 8 9 10 6
3850.0 7 1 8 3 0 6 1 0 0 5
3890.0 0 8 2 5 0 7 1 7 9 1
3930.0 0 4 0 0 3 9 5 8 7 0
##END=
