##TITLE=Butanoic acid, 2-chloro-
##JCAMP-DX=4.24
##DATA TYPE=INFRARED SPECTRUM
##ORIGIN=Sadtler Research Labs Under US-EPA Contract
##OWNER=NIST Standard Reference Data Program
##CAS REGISTRY NO=4170-24-5
##MOLFORM=C 4 H 7 Cl O 2
##XUNITS=1/CM
##YUNITS=ABSORBANCE
##XFACTOR=1.0
##YFACTOR=0.000137256
##DELTAX=4.0
##FIRSTX=450.0
##LASTX=3966.0
##FIRSTY=0.069040
##MAXX=3966
##MINX=450
##MAXY=1.37256
##MINY=0
##NPOINTS=880
##XYDATA=(X++(Y..Y))
450.0 503 209 297 280 263 328 371 322 386 338
490.0 294 323 495 436 433 528 555 633 653 798
530.0 934 1040 1090 1324 1542 1714 1924 1942 2055 1967
570.0 1866 1647 1509 1383 1263 1393 1468 1328 1388 1444
610.0 1441 1548 1628 1704 1826 1692 1567 1414 1375 1372
650.0 1395 1353 1348 1219 1139 1057 957 974 953 1039
690.0 1046 1110 1128 1117 1055 957 863 730 583 449
730.0 441 434 425 452 478 520 526 556 564 566
770.0 548 545 510 481 461 399 370 329 342 315
810.0 338 350 394 410 414 408 374 334 300 270
850.0 262 298 349 414 491 549 576 571 547 489
890.0 434 384 347 324 315 329 336 366 391 398
930.0 375 349 304 244 188 141 111 72 57 38
970.0 34 18 29 29 25 34 38 55 56 91
1010.0 111 151 192 259 318 359 400 428 479 518
1050.0 583 684 839 1021 1249 1538 1817 2068 2331 2710
1090.0 3052 3349 3609 3802 3801 3708 3517 3335 3314 3356
1130.0 3506 3721 3955 4105 4229 4265 4222 4107 3885 3742
1170.0 3146 2442 2077 1597 1222 970 827 745 708 686
1210.0 682 702 716 740 752 752 712 679 660 661
1250.0 668 702 736 770 815 842 889 936 998 1047
1290.0 1094 1109 1104 1099 1069 1072 1105 1184 1294 1432
1330.0 1558 1641 1700 1693 1633 1551 1500 1458 1466 1454
1370.0 1450 1435 1424 1374 1338 1303 1199 1036 842 665
1410.0 505 370 308 280 248 253 298 361 404 481
1450.0 544 635 704 687 660 632 571 410 293 224
1490.0 153 100 73 49 68 62 40 32 56 24
1530.0 31 11 36 42 33 26 30 61 53 27
1570.0 34 28 40 30 10 19 14 13 9 13
1610.0 11 8 37 12 35 5 40 33 27 39
1650.0 51 69 69 29 54 62 59 58 72 100
1690.0 84 95 132 158 167 189 253 355 433 569
1730.0 753 985 1215 1462 1735 2070 2546 3154 4083 5147
1770.0 6474 7762 9107 9450 10000 9408 7942 6902 5655 4500
1810.0 3488 2676 2043 1532 1168 873 671 500 390 309
1850.0 232 182 142 117 94 88 65 60 53 44
1890.0 46 37 36 33 31 29 27 35 25 23
1930.0 19 20 16 24 21 24 26 26 22 25
1970.0 28 29 28 28 27 26 27 22 19 18
2010.0 17 18 19 20 23 23 20 20 21 19
2050.0 18 18 21 29 33 33 36 35 33 31
2090.0 25 29 30 31 30 32 30 32 28 25
2130.0 24 23 21 21 22 22 23 22 21 24
2170.0 26 24 28 32 35 40 40 44 43 45
2210.0 45 48 45 46 48 49 48 43 45 45
2250.0 42 36 41 38 31 35 33 33 29 34
2290.0 29 29 33 34 35 36 36 42 39 40
2330.0 37 37 28 40 20 29 36 40 8 6
2370.0 3 6 15 19 20 26 31 33 38 37
2410.0 40 37 44 43 44 42 40 41 40 43
2450.0 45 47 45 49 50 45 52 53 51 53
2490.0 50 46 46 46 47 48 49 50 48 49
2530.0 48 44 42 38 39 36 34 32 33 29
2570.0 26 23 25 26 28 28 29 29 29 26
2610.0 23 28 25 24 25 27 29 26 34 36
2650.0 37 34 23 18 26 25 29 36 36 34
2690.0 31 32 34 31 32 27 24 26 28 31
2730.0 31 35 40 45 41 50 52 60 61 62
2770.0 66 55 55 52 61 61 59 55 63 55
2810.0 63 61 62 65 68 83 87 93 107 122
2850.0 141 170 190 219 253 289 345 424 556 655
2890.0 734 782 753 685 607 531 495 506 548 626
2930.0 716 844 995 1133 1236 1318 1318 1282 1262 1302
2970.0 1493 1718 2068 2495 2424 2233 1934 1557 1107 734
3010.0 488 325 250 197 177 156 143 128 127 128
3050.0 115 119 114 121 113 113 112 118 126 117
3090.0 125 123 114 106 100 95 92 94 97 95
3130.0 93 84 89 86 87 81 83 89 91 92
3170.0 95 97 97 93 89 89 86 83 73 75
3210.0 77 62 67 66 65 69 58 54 60 59
3250.0 53 47 38 42 36 30 34 42 52 49
3290.0 57 63 58 68 64 46 57 64 39 43
3330.0 43 61 45 24 33 35 33 38 33 35
3370.0 22 39 33 42 43 33 31 39 27 31
3410.0 43 36 27 23 37 27 33 30 33 29
3450.0 34 40 37 39 40 38 43 49 48 57
3490.0 73 72 88 137 193 273 345 421 451 474
3530.0 491 448 431 390 367 382 450 707 1278 2326
3570.0 3386 3995 4273 4092 3526 2544 1368 611 281 170
3610.0 134 103 73 77 60 55 49 24 34 27
3650.0 52 41 32 49 35 60 15 60 26 27
3690.0 30 37 41 33 33 21 28 32 42 26
3730.0 32 41 22 24 62 6 62 20 20 57
3770.0 38 38 18 35 26 28 28 33 34 52
3810.0 19 32 3 20 5 32 29 31 7 21
3850.0 19 18 46 14 38 64 84 80 76 85
3890.0 98 73 60 65 38 47 31 5 24 3
3930.0 25 3 15 22 0 26 26 9 4 9
##END=
