##TITLE=Cyclopropanecarboxamide, N-ethyl-2-phenyl-, cis-,
##JCAMP-DX=4.24
##DATA TYPE=INFRARED SPECTRUM
##ORIGIN=Sadtler Research Labs Under US-EPA Contract
##OWNER=NIST Standard Reference Data Program
##CAS REGISTRY NO=4186-30-5
##MOLFORM=C 12 H 15 N O
##XUNITS=1/CM
##YUNITS=ABSORBANCE
##XFACTOR=1.0
##YFACTOR=0.000058533
##DELTAX=4.0
##FIRSTX=450.0
##LASTX=3966.0
##FIRSTY=0.002693
##MAXX=3966
##MINX=450
##MAXY=0.58533
##MINY=0
##NPOINTS=880
##XYDATA=(X++(Y..Y))
450.0 46 145 204 124 24 128 42 44 74 57
490.0 63 71 91 109 172 200 252 172 154 101
530.0 89 87 96 45 0 78 44 86 112 185
570.0 193 188 150 134 122 65 38 40 41 53
610.0 46 41 61 46 37 36 54 75 54 60
650.0 69 103 83 124 159 327 392 451 677 1154
690.0 2030 2543 2681 2026 1271 895 856 998 1131 1155
730.0 928 671 606 696 728 699 631 570 540 509
770.0 519 536 615 701 788 789 722 592 446 354
810.0 319 344 351 372 359 357 339 290 244 209
850.0 164 167 184 213 270 309 306 282 262 249
890.0 245 267 302 358 388 379 343 287 274 271
930.0 273 285 346 455 678 970 1176 1172 979 663
970.0 407 251 166 127 100 94 87 117 138 180
1010.0 223 294 410 535 619 630 573 480 437 431
1050.0 470 471 419 370 344 376 448 542 567 547
1090.0 498 474 463 505 546 530 494 442 420 411
1130.0 429 463 491 526 575 655 790 999 1215 1335
1170.0 1349 1325 1394 1679 2169 2873 3771 4713 5351 5352
1210.0 4648 3525 2556 1911 1507 1221 1030 926 880 872
1250.0 892 943 981 1001 939 856 771 702 665 671
1290.0 732 807 880 892 834 687 548 428 361 354
1330.0 384 450 544 662 757 847 861 843 816 830
1370.0 928 1124 1325 1423 1375 1225 1024 882 808 793
1410.0 776 773 797 845 926 1094 1325 1651 1973 2297
1450.0 2621 2841 2941 2876 2889 3048 3430 4034 4922 6164
1490.0 7572 8996 9660 9390 8210 6525 5120 3875 3053 2367
1530.0 1949 1572 1355 1161 1000 869 769 691 589 516
1570.0 464 436 432 444 457 512 591 705 814 842
1610.0 745 567 419 305 294 269 314 332 368 424
1650.0 508 598 693 810 965 1186 1470 1991 2705 3892
1690.0 5262 6938 8452 9637 10000 8443 6157 4143 2624 1972
1730.0 1571 1283 1020 822 695 576 538 443 415 341
1770.0 339 291 288 284 277 267 256 236 196 177
1810.0 139 123 96 87 70 63 55 59 62 72
1850.0 75 75 87 101 114 118 117 117 111 104
1890.0 84 69 53 51 49 59 60 70 88 101
1930.0 131 142 162 151 159 149 143 125 95 66
1970.0 50 45 39 44 41 39 40 42 45 39
2010.0 36 28 35 28 27 24 22 22 22 20
2050.0 18 26 22 27 27 33 34 37 36 41
2090.0 40 37 35 30 30 23 28 25 26 27
2130.0 24 20 18 17 16 14 15 19 15 18
2170.0 20 18 22 15 20 15 20 15 17 14
2210.0 17 17 13 11 13 16 14 27 27 29
2250.0 33 41 47 46 57 56 60 65 70 66
2290.0 69 73 81 85 95 114 100 93 92 78
2330.0 65 71 63 78 101 82 77 56 73 55
2370.0 65 62 65 64 46 21 10 17 9 8
2410.0 7 11 8 4 15 18 26 28 36 30
2450.0 39 30 28 22 19 19 18 23 18 16
2490.0 22 14 17 14 8 9 10 9 12 10
2530.0 10 8 13 13 19 13 16 20 17 16
2570.0 13 23 22 28 29 31 32 29 35 38
2610.0 33 27 26 22 27 24 29 32 37 31
2650.0 28 34 34 33 29 38 34 43 45 51
2690.0 52 53 62 61 57 61 59 55 60 57
2730.0 59 58 63 66 65 71 75 70 68 69
2770.0 74 75 85 84 85 89 96 105 118 120
2810.0 127 125 138 150 154 166 182 195 214 246
2850.0 279 320 365 421 497 587 701 834 955 1028
2890.0 1049 1027 991 976 992 1028 1084 1165 1251 1394
2930.0 1551 1708 1828 1878 1833 1708 1566 1476 1507 1669
2970.0 1954 2270 2495 2502 2284 1938 1602 1397 1345 1467
3010.0 1697 2013 2366 2673 2855 2776 2469 2067 1670 1360
3050.0 1190 1171 1287 1516 1814 1965 1935 1754 1511 1428
3090.0 1403 1288 1079 779 552 419 367 304 249 193
3130.0 147 114 105 101 95 98 93 85 85 86
3170.0 82 73 59 54 51 50 44 44 41 45
3210.0 44 39 38 39 37 38 35 22 27 26
3250.0 25 24 23 21 21 23 28 31 30 25
3290.0 25 28 29 25 26 28 30 28 28 38
3330.0 39 34 32 35 43 43 37 51 53 63
3370.0 71 78 82 80 100 120 126 130 126 124
3410.0 126 149 179 214 266 318 349 400 448 507
3450.0 583 677 769 866 889 831 701 556 406 291
3490.0 226 177 142 137 107 92 84 77 73 62
3530.0 52 47 45 49 42 38 39 31 36 51
3570.0 55 41 32 33 31 40 31 23 39 20
3610.0 44 25 33 30 31 67 32 28 35 33
3650.0 41 43 43 29 33 33 41 61 8 38
3690.0 34 38 16 42 51 47 48 44 44 42
3730.0 31 65 46 39 77 36 56 33 34 35
3770.0 24 42 35 42 37 48 39 46 36 46
3810.0 46 58 44 58 61 29 42 58 36 44
3850.0 47 51 45 45 58 59 32 20 39 51
3890.0 33 35 29 50 47 53 44 70 67 53
3930.0 43 59 56 44 54 48 53 29 67 36
##END=
