##TITLE=1-Pentyn-3-ol
##JCAMP-DX=4.24
##DATA TYPE=INFRARED SPECTRUM
##ORIGIN=Sadtler Research Labs Under US-EPA Contract
##OWNER=NIST Standard Reference Data Program
##CAS REGISTRY NO=4187-86-4
##MOLFORM=C 5 H 8 O
##XUNITS=1/CM
##YUNITS=ABSORBANCE
##XFACTOR=1.0
##YFACTOR=0.000072559
##DELTAX=4.0
##FIRSTX=450.0
##LASTX=3966.0
##FIRSTY=0.046075
##MAXX=3966
##MINX=450
##MAXY=0.72559
##MINY=0
##NPOINTS=880
##XYDATA=(X++(Y..Y))
450.0 635 637 583 507 492 469 484 592 602 550
490.0 674 754 899 958 958 1008 1204 1109 1131 1071
530.0 1123 1062 1116 1215 1229 910 1039 971 956 993
570.0 819 677 734 520 522 447 503 691 806 1076
610.0 1633 2410 3255 3973 6082 10000 8023 8646 9433 9987
650.0 9422 8337 7743 5877 3922 2958 2439 1702 1011 679
690.0 433 292 348 253 259 134 136 173 191 208
730.0 156 216 188 0 123 171 163 144 243 209
770.0 265 310 232 236 267 308 320 291 351 371
810.0 424 373 468 485 448 512 510 595 666 769
850.0 934 995 940 869 850 741 672 560 522 444
890.0 411 444 526 569 706 846 1088 1361 1730 1946
930.0 2195 2509 2707 2951 3213 3274 3422 3841 4262 4572
970.0 4790 4922 4881 4696 4514 4373 4202 4056 4138 4457
1010.0 4794 5091 5264 5401 5535 5555 5202 4759 4477 4324
1050.0 4267 4277 4128 3851 3510 3181 2857 2603 2488 2468
1090.0 2659 2951 3264 3497 3561 3512 3503 3328 3015 2613
1130.0 2269 1984 1743 1555 1392 1267 1195 1187 1203 1215
1170.0 1209 1213 1193 1165 1147 1174 1206 1259 1321 1387
1210.0 1495 1603 1699 1818 1964 2061 2222 2512 2924 3392
1250.0 3787 3892 3628 3526 3661 3465 2932 2596 2445 2434
1290.0 2385 2278 2153 2099 2081 2194 2377 2313 2417 2648
1330.0 2790 2892 3021 3161 3362 3576 3754 3876 3971 3951
1370.0 3908 3849 3672 3446 3207 3030 2560 2219 1895 1607
1410.0 1312 1119 1058 949 908 908 956 1084 1129 1289
1450.0 1397 1585 1731 1634 1607 1575 1556 1179 1006 841
1490.0 711 492 429 304 335 320 214 218 252 187
1530.0 153 178 160 240 185 157 161 241 216 140
1570.0 164 128 152 105 105 98 85 99 101 97
1610.0 102 100 153 105 113 90 93 125 73 122
1650.0 99 221 71 74 71 114 106 103 134 216
1690.0 169 179 281 349 277 252 275 342 222 174
1730.0 178 274 223 260 296 371 394 360 356 301
1770.0 299 260 188 185 184 166 196 149 162 93
1810.0 71 69 51 31 59 49 30 21 29 59
1850.0 28 11 19 26 26 60 31 24 20 23
1890.0 43 25 26 29 21 28 13 35 36 34
1930.0 28 38 42 56 58 50 49 53 50 50
1970.0 43 30 22 30 21 26 29 15 23 41
2010.0 43 39 58 52 52 60 67 67 67 52
2050.0 51 39 44 39 47 40 40 47 61 70
2090.0 82 91 98 108 115 107 112 99 93 77
2130.0 85 63 57 43 36 26 32 17 29 23
2170.0 32 23 17 11 17 24 17 18 18 18
2210.0 24 15 25 20 17 24 17 17 11 18
2250.0 18 18 19 24 34 23 33 33 33 33
2290.0 33 39 39 47 54 54 55 68 86 77
2330.0 96 96 107 100 88 54 56 74 95 118
2370.0 110 88 70 56 37 39 43 42 41 49
2410.0 55 63 63 65 61 68 59 62 52 58
2450.0 49 50 50 57 42 49 36 45 36 29
2490.0 34 30 31 36 30 31 38 23 31 39
2530.0 37 32 42 42 44 44 58 44 59 59
2570.0 66 65 67 72 78 73 76 72 59 66
2610.0 66 66 73 74 74 81 81 82 82 77
2650.0 79 94 111 102 107 123 122 130 143 137
2690.0 130 132 138 126 115 123 132 123 138 145
2730.0 153 166 172 181 197 190 210 204 208 213
2770.0 202 196 195 201 202 202 207 216 223 233
2810.0 235 255 273 309 322 366 415 458 531 647
2850.0 786 968 1191 1476 1830 2192 2664 3237 3720 3965
2890.0 4134 4163 4028 3789 3453 3166 2965 2959 3092 3428
2930.0 3959 4746 5722 5920 6074 6231 6219 6154 6100 6260
2970.0 6724 7859 8185 7225 6796 6127 5323 4039 2756 1811
3010.0 1190 827 581 440 333 284 267 228 215 219
3050.0 214 208 208 215 220 237 242 247 251 246
3090.0 234 209 196 168 155 132 147 146 139 140
3130.0 128 138 127 121 100 97 95 106 98 100
3170.0 100 105 101 101 92 82 81 69 44 41
3210.0 48 37 37 38 32 13 20 26 20 25
3250.0 40 36 62 88 93 134 206 292 356 499
3290.0 738 1128 1583 1868 2271 3307 4703 6518 6662 6176
3330.0 6521 5599 6127 4368 2143 913 469 307 253 213
3370.0 183 173 145 103 97 86 69 69 74 79
3410.0 65 62 71 79 64 68 85 76 78 76
3450.0 74 53 59 78 79 94 106 90 111 99
3490.0 120 119 135 137 162 140 130 111 128 146
3530.0 136 102 99 107 121 106 113 101 106 136
3570.0 168 98 103 107 113 165 127 128 128 123
3610.0 201 230 285 417 568 939 1268 1743 2222 2641
3650.0 2879 2902 2839 2532 2123 1696 1182 798 478 296
3690.0 240 154 112 83 68 91 101 59 84 96
3730.0 96 107 143 110 159 128 120 90 97 112
3770.0 110 94 88 90 83 83 88 103 118 92
3810.0 73 63 84 84 48 51 66 71 65 48
3850.0 59 113 56 56 72 78 71 51 67 86
3890.0 78 71 63 93 76 67 72 66 51 65
3930.0 73 79 74 83 76 74 13 18 18 18
##END=
