##TITLE=Isopropyl-4-hydroxybenzoate
##JCAMP-DX=4.24
##DATA TYPE=INFRARED SPECTRUM
##ORIGIN=Sadtler Research Labs Under US-EPA Contract
##OWNER=NIST Standard Reference Data Program
##CAS REGISTRY NO=4191-73-5
##MOLFORM=C 10 H 12 O 3
##XUNITS=1/CM
##YUNITS=ABSORBANCE
##XFACTOR=1.0
##YFACTOR=0.000103162
##DELTAX=4.0
##FIRSTX=450.0
##LASTX=3966.0
##FIRSTY=0.001960
##MAXX=3966
##MINX=450
##MAXY=1.03162
##MINY=0
##NPOINTS=880
##XYDATA=(X++(Y..Y))
450.0 19 5 43 82 104 115 123 114 122 130
490.0 153 181 203 246 257 257 247 215 170 145
530.0 144 135 153 146 162 168 186 190 202 198
570.0 207 206 165 168 178 166 166 176 229 360
610.0 593 746 703 482 257 200 186 195 194 169
650.0 166 149 143 139 148 175 167 189 223 273
690.0 306 299 283 229 177 129 117 102 99 96
730.0 92 101 109 127 147 192 267 400 540 679
770.0 761 696 572 431 330 268 259 313 396 415
810.0 381 290 223 215 209 240 310 417 545 666
850.0 755 780 716 553 377 231 166 126 125 118
890.0 119 130 140 159 188 274 355 439 469 409
930.0 284 173 123 95 97 94 106 97 96 94
970.0 97 95 96 104 97 113 118 141 167 251
1010.0 366 397 353 232 149 130 131 125 135 150
1050.0 173 199 237 300 366 475 624 864 1227 1805
1090.0 2583 3382 4220 4852 5175 5021 4363 3384 2435 1768
1130.0 1475 1365 1375 1457 1476 1590 1984 3382 5078 5399
1170.0 4416 2502 1759 2063 2644 2932 2627 1808 991 677
1210.0 588 580 614 623 639 646 697 772 949 1284
1250.0 1927 3137 5215 7675 9498 10000 8685 6773 4439 2461
1290.0 1384 1016 949 945 904 844 837 870 882 831
1330.0 754 670 574 538 560 625 685 717 707 692
1370.0 700 729 759 730 653 541 400 284 205 172
1410.0 158 183 210 297 435 597 643 549 362 244
1450.0 230 255 273 313 346 367 340 304 245 189
1490.0 179 202 299 513 885 1214 1220 889 455 223
1530.0 171 134 121 107 107 121 118 130 147 192
1570.0 207 245 293 420 637 927 1197 1395 1594 1896
1610.0 2218 2251 1865 1266 767 482 305 210 158 129
1650.0 115 112 121 114 118 102 114 129 162 170
1690.0 211 231 247 299 389 595 830 1316 2029 3059
1730.0 4151 4731 4667 3814 2406 1376 711 426 224 196
1770.0 144 123 111 99 92 64 68 56 62 53
1810.0 60 51 48 46 38 33 25 32 17 16
1850.0 14 18 12 13 14 10 24 25 38 34
1890.0 42 43 47 50 52 59 57 59 53 53
1930.0 49 52 48 45 45 43 44 35 39 30
1970.0 32 29 27 24 22 26 23 24 24 24
2010.0 23 27 29 32 37 31 27 18 18 17
2050.0 19 19 28 35 35 36 30 26 22 24
2090.0 18 20 22 25 27 29 34 34 39 35
2130.0 32 19 15 10 8 5 2 3 1 4
2170.0 2 4 2 4 6 5 7 8 10 7
2210.0 13 9 11 13 10 9 8 10 6 8
2250.0 7 10 9 10 11 11 14 13 17 20
2290.0 24 27 37 39 48 54 51 51 54 54
2330.0 45 48 42 48 57 54 65 51 59 41
2370.0 49 46 51 50 41 32 26 25 22 27
2410.0 26 31 34 37 43 42 41 37 37 39
2450.0 42 43 42 35 30 27 21 23 21 21
2490.0 20 18 20 21 23 29 35 42 46 45
2530.0 40 31 28 23 20 20 19 21 18 20
2570.0 22 22 24 23 23 26 25 23 26 22
2610.0 22 19 22 25 26 22 24 22 20 23
2650.0 23 23 22 23 22 21 19 20 17 18
2690.0 20 21 21 20 22 19 19 18 19 19
2730.0 22 26 28 32 30 32 32 34 34 34
2770.0 39 38 39 34 36 32 30 29 31 34
2810.0 32 37 38 40 43 46 49 50 51 52
2850.0 54 55 66 75 89 113 144 179 212 229
2890.0 231 222 209 200 198 201 206 212 228 258
2930.0 314 383 451 514 539 506 434 348 305 304
2970.0 377 549 928 1396 1636 1577 1164 779 563 395
3010.0 322 270 242 217 195 194 215 252 270 260
3050.0 212 159 115 108 115 136 178 203 205 174
3090.0 136 99 84 81 80 78 74 71 68 64
3130.0 58 57 48 46 46 42 38 37 43 39
3170.0 43 43 45 49 48 50 48 47 45 45
3210.0 41 38 32 33 32 29 31 26 29 30
3250.0 32 30 31 29 29 28 32 29 28 33
3290.0 30 34 32 35 38 42 45 47 44 48
3330.0 48 46 47 53 54 52 52 54 46 46
3370.0 45 49 46 46 47 43 43 43 45 44
3410.0 44 43 42 38 41 47 53 57 57 55
3450.0 60 60 49 42 42 28 28 28 28 25
3490.0 27 29 26 29 25 31 27 31 27 17
3530.0 26 30 28 28 14 19 31 18 32 6
3570.0 9 34 33 38 26 20 44 33 37 40
3610.0 32 34 45 60 93 117 289 590 1139 1727
3650.0 1856 1485 866 285 154 68 30 27 46 58
3690.0 11 46 39 47 29 28 4 24 21 13
3730.0 29 0 3 12 1 1 8 8 20 18
3770.0 11 27 22 17 20 28 29 14 5 4
3810.0 17 17 2 8 11 17 13 1 1 18
3850.0 15 1 2 28 5 14 11 25 6 10
3890.0 23 23 12 1 10 36 26 21 21 20
3930.0 27 20 30 28 20 25 23 23 23 22
##END=
