##TITLE=Phosphonic acid, methoxymethyl-, dimethyl ester
##JCAMP-DX=4.24
##DATA TYPE=INFRARED SPECTRUM
##ORIGIN=Sadtler Research Labs Under US-EPA Contract
##OWNER=NIST Standard Reference Data Program
##CAS REGISTRY NO=42029-30-1
##MOLFORM=C 4 H 11 O 4 P
##XUNITS=1/CM
##YUNITS=ABSORBANCE
##XFACTOR=1.0
##YFACTOR=0.000174307
##DELTAX=4.0
##FIRSTX=450.0
##LASTX=3966.0
##FIRSTY=0.000000
##MAXX=3966
##MINX=450
##MAXY=1.74307
##MINY=0
##NPOINTS=880
##XYDATA=(X++(Y..Y))
450.0 0 134 472 441 264 388 415 309 326 207
490.0 298 326 238 295 307 431 445 484 669 905
530.0 1109 1322 1488 1499 1348 1164 1010 662 525 376
570.0 281 216 141 225 207 198 151 133 199 158
610.0 160 167 184 203 192 137 172 151 229 161
650.0 205 184 188 202 173 144 162 198 223 232
690.0 270 278 249 277 315 333 355 391 393 413
730.0 393 368 328 281 288 281 295 284 341 371
770.0 462 594 748 1043 1391 1791 2132 2243 2231 2027
810.0 1795 1695 1657 1688 1671 1531 1454 1301 1156 1035
850.0 909 781 712 665 677 772 999 1265 1536 1723
890.0 1754 1612 1314 1018 769 590 507 438 408 430
930.0 416 407 402 398 428 458 475 495 489 455
970.0 417 398 390 395 392 422 475 520 571 651
1010.0 755 910 1117 1436 1996 2925 4307 6125 7895 9574
1050.0 10000 9872 9243 8446 7863 7285 6670 5574 4266 3119
1090.0 2377 2025 1887 1935 2091 2234 2398 2496 2502 2388
1130.0 2174 1904 1606 1334 1127 991 923 894 890 933
1170.0 1004 1152 1358 1582 1759 1808 1749 1550 1285 1059
1210.0 881 776 726 691 670 651 645 667 730 843
1250.0 1022 1277 1595 1943 2330 2734 3140 3433 3692 3730
1290.0 3170 2570 1992 1482 1128 911 795 722 660 624
1330.0 582 524 477 429 382 337 303 284 264 263
1370.0 250 259 255 250 260 258 265 266 271 293
1410.0 304 355 376 428 426 427 427 422 445 477
1450.0 550 618 644 645 619 600 569 514 451 393
1490.0 347 322 289 286 272 274 252 263 267 270
1530.0 253 269 261 273 258 246 255 240 257 219
1570.0 217 222 208 216 198 201 204 184 197 183
1610.0 180 178 182 179 161 173 160 165 165 145
1650.0 170 161 158 139 146 150 141 146 138 152
1690.0 138 139 146 157 140 141 146 149 159 151
1730.0 171 176 194 199 199 216 227 224 230 231
1770.0 237 229 220 193 202 206 192 199 175 181
1810.0 169 162 170 164 178 177 183 189 188 204
1850.0 195 199 200 193 201 196 200 193 192 188
1890.0 187 182 183 178 175 168 164 167 158 158
1930.0 157 158 155 156 155 158 156 156 156 155
1970.0 156 154 154 154 157 155 158 156 159 162
2010.0 160 161 162 167 171 176 175 178 176 175
2050.0 175 177 174 174 174 178 179 181 182 183
2090.0 181 179 179 178 178 175 174 170 165 164
2130.0 160 157 155 150 150 147 145 145 143 139
2170.0 140 139 139 138 138 137 134 135 136 135
2210.0 136 134 136 137 139 136 137 138 137 137
2250.0 139 138 139 137 133 135 134 136 136 136
2290.0 134 133 133 134 134 132 133 132 130 130
2330.0 130 130 131 134 130 130 130 135 130 130
2370.0 132 130 132 136 136 136 134 136 135 134
2410.0 131 132 133 134 134 132 133 133 133 133
2450.0 134 130 132 133 133 130 130 132 133 132
2490.0 134 132 133 133 134 136 135 136 137 135
2530.0 135 135 137 138 136 138 139 138 138 138
2570.0 139 139 139 140 140 141 145 149 149 149
2610.0 148 151 152 149 150 150 152 154 154 153
2650.0 153 154 154 153 154 150 148 146 144 143
2690.0 143 143 143 145 146 147 146 149 149 151
2730.0 156 155 157 158 158 161 162 167 171 173
2770.0 178 183 189 194 202 216 229 247 271 299
2810.0 343 407 514 669 841 976 1034 1015 924 835
2850.0 831 932 1065 1144 1161 1110 1016 961 963 996
2890.0 1036 1051 1050 1048 1049 1067 1090 1112 1130 1143
2930.0 1176 1231 1277 1315 1380 1546 1825 2105 2267 2220
2970.0 2018 1656 1286 1067 1010 1050 1138 1208 1207 1154
3010.0 1044 918 806 731 668 601 543 492 454 427
3050.0 411 400 395 389 387 378 367 357 345 329
3090.0 315 300 281 268 255 242 234 224 216 215
3130.0 199 193 186 178 176 176 168 166 160 162
3170.0 159 158 157 158 155 154 151 151 150 152
3210.0 151 147 147 146 148 147 147 145 145 148
3250.0 144 147 145 145 143 144 142 144 148 148
3290.0 145 143 144 144 144 143 147 144 144 146
3330.0 145 142 140 144 144 141 145 145 142 144
3370.0 141 141 139 143 140 140 143 146 145 140
3410.0 139 142 147 142 143 144 146 145 140 142
3450.0 140 143 142 145 139 139 143 142 139 141
3490.0 140 148 146 142 144 139 139 139 139 141
3530.0 147 143 142 141 145 142 146 139 140 140
3570.0 146 133 139 134 146 139 147 130 149 143
3610.0 147 143 139 142 137 148 144 134 135 143
3650.0 139 157 137 147 133 141 147 150 145 141
3690.0 149 138 134 140 139 145 154 145 139 142
3730.0 145 151 145 144 148 156 143 138 137 136
3770.0 131 139 133 139 137 140 137 140 131 150
3810.0 130 150 143 158 134 139 148 140 145 137
3850.0 137 154 159 130 145 148 139 150 139 150
3890.0 142 153 148 151 165 149 156 150 139 141
3930.0 130 157 151 140 160 139 151 137 146 137
##END=
