##TITLE=3-Hexanol, 2,2-dimethyl-
##JCAMP-DX=4.24
##DATA TYPE=INFRARED SPECTRUM
##ORIGIN=Sadtler Research Labs Under US-EPA Contract
##OWNER=NIST Standard Reference Data Program
##CAS REGISTRY NO=4209-90-9
##MOLFORM=C 8 H 18 O
##XUNITS=1/CM
##YUNITS=ABSORBANCE
##XFACTOR=1.0
##YFACTOR=0.000180453
##DELTAX=4.0
##FIRSTX=450.0
##LASTX=3966.0
##FIRSTY=0.070377
##MAXX=3966
##MINX=450
##MAXY=1.80453
##MINY=0
##NPOINTS=880
##XYDATA=(X++(Y..Y))
450.0 390 172 42 125 0 120 57 54 74 61
490.0 85 10 87 45 102 74 126 106 104 142
530.0 114 117 63 121 88 141 137 185 148 131
570.0 159 95 85 57 85 40 67 41 60 39
610.0 46 47 36 61 53 58 27 61 42 53
650.0 39 54 51 30 59 52 53 21 60 28
690.0 50 42 53 47 44 65 38 62 54 72
730.0 54 83 74 90 88 89 100 94 103 95
770.0 108 91 107 99 85 82 71 65 55 65
810.0 62 79 67 82 86 132 169 217 254 288
850.0 296 295 271 214 217 209 235 284 350 410
890.0 450 464 414 352 285 239 190 189 190 211
930.0 218 230 235 220 234 248 304 369 492 640
970.0 796 942 1062 1146 1182 1211 1214 1221 1154 1050
1010.0 884 710 569 482 454 459 486 492 522 537
1050.0 589 639 731 819 899 953 964 954 909 879
1090.0 859 898 977 1104 1216 1262 1218 1086 907 714
1130.0 571 455 397 357 354 358 374 407 443 485
1170.0 512 545 550 569 580 610 632 659 679 679
1210.0 665 643 627 591 582 564 568 564 577 576
1250.0 566 569 574 592 605 629 630 622 591 557
1290.0 513 468 431 392 363 333 322 300 291 288
1330.0 297 310 340 381 432 524 669 900 1175 1457
1370.0 1687 1631 1441 1229 1065 1027 1074 1068 1000 873
1410.0 667 448 340 290 276 287 307 354 392 469
1450.0 556 690 850 1012 1151 1260 1370 1403 1320 1150
1490.0 938 660 412 261 200 151 125 113 101 96
1530.0 76 82 72 76 60 65 57 56 54 40
1570.0 44 42 45 36 40 32 34 31 29 30
1610.0 30 35 30 39 28 35 27 39 28 36
1650.0 26 43 29 25 34 33 35 40 43 56
1690.0 55 65 71 86 90 110 125 141 139 130
1730.0 107 87 76 61 63 58 69 58 70 69
1770.0 78 75 75 72 70 72 65 58 43 42
1810.0 25 26 23 21 17 18 19 16 16 16
1850.0 17 10 15 11 14 11 10 8 8 8
1890.0 8 8 6 10 6 10 8 11 8 8
1930.0 11 9 14 9 16 13 16 16 17 14
1970.0 15 16 14 15 11 17 12 13 13 12
2010.0 10 9 11 8 10 8 11 8 12 12
2050.0 12 11 11 11 7 9 6 8 6 10
2090.0 7 10 9 9 10 11 13 10 14 13
2130.0 14 11 13 11 9 10 10 11 8 13
2170.0 10 14 10 12 10 9 10 8 9 8
2210.0 10 8 10 7 9 10 7 10 11 12
2250.0 8 11 8 13 10 11 10 11 15 16
2290.0 17 15 21 15 21 19 17 15 17 16
2330.0 13 9 6 7 9 16 14 15 8 11
2370.0 8 6 15 16 23 25 25 24 26 27
2410.0 27 27 24 27 24 24 19 20 18 17
2450.0 19 17 17 15 17 13 17 15 19 14
2490.0 19 18 18 15 16 17 13 19 18 20
2530.0 19 22 23 22 28 28 30 31 35 36
2570.0 38 40 43 40 47 45 44 46 48 49
2610.0 46 50 51 60 58 62 67 69 79 79
2650.0 85 90 104 104 111 111 114 110 107 110
2690.0 107 108 106 114 110 118 122 133 141 148
2730.0 156 159 163 165 170 167 167 163 158 154
2770.0 149 152 154 165 177 191 199 222 235 253
2810.0 274 301 326 352 399 450 531 630 768 930
2850.0 1136 1360 1613 1928 2315 2783 3255 3694 3841 3707
2890.0 3420 3037 2697 2525 2560 2717 2940 3154 3356 3537
2930.0 3770 4118 4606 5162 5726 6348 7076 8115 9153 10000
2970.0 9777 9096 7381 5393 3640 2415 1620 1101 784 590
3010.0 477 400 356 324 303 274 250 233 206 195
3050.0 181 166 156 143 129 118 112 104 105 100
3090.0 99 92 99 86 97 89 88 82 86 80
3130.0 80 86 85 93 83 93 87 90 93 94
3170.0 93 98 95 97 103 102 105 98 102 95
3210.0 88 82 80 70 64 65 51 46 44 45
3250.0 39 37 34 33 32 28 28 28 27 20
3290.0 24 17 21 27 18 26 15 22 20 24
3330.0 19 25 24 17 23 24 25 16 22 27
3370.0 29 16 10 15 24 18 19 20 20 21
3410.0 17 27 17 23 23 31 26 23 29 24
3450.0 33 24 26 20 31 26 22 26 25 26
3490.0 20 22 17 22 20 23 21 21 18 16
3530.0 17 6 18 14 9 13 18 16 17 14
3570.0 21 29 29 36 25 27 19 18 23 24
3610.0 39 27 40 58 73 94 112 142 172 217
3650.0 269 345 438 511 534 501 419 320 217 145
3690.0 98 77 49 36 29 32 31 30 20 13
3730.0 6 7 19 10 24 26 26 12 16 7
3770.0 6 26 22 14 12 19 37 19 26 34
3810.0 43 23 46 37 44 40 44 37 34 28
3850.0 39 37 47 46 32 22 34 22 53 33
3890.0 30 32 43 29 32 43 26 34 33 40
3930.0 30 21 26 54 43 38 24 14 67 29
##END=
