##TITLE=3-Hexanol, 3,5-dimethyl-
##JCAMP-DX=4.24
##DATA TYPE=INFRARED SPECTRUM
##ORIGIN=Sadtler Research Labs Under US-EPA Contract
##OWNER=NIST Standard Reference Data Program
##CAS REGISTRY NO=4209-91-0
##MOLFORM=C 8 H 18 O
##XUNITS=1/CM
##YUNITS=ABSORBANCE
##XFACTOR=1.0
##YFACTOR=0.000069882
##DELTAX=4.0
##FIRSTX=450.0
##LASTX=3966.0
##FIRSTY=0.005591
##MAXX=3966
##MINX=450
##MAXY=0.69882
##MINY=0
##NPOINTS=880
##XYDATA=(X++(Y..Y))
450.0 80 88 93 107 112 112 110 94 81 93
490.0 83 80 85 74 71 80 76 73 63 76
530.0 86 82 0 58 29 62 56 50 53 49
570.0 72 58 24 76 70 56 83 77 79 69
610.0 59 62 71 68 62 71 70 70 74 78
650.0 80 78 91 85 84 84 78 84 92 92
690.0 84 81 87 80 92 91 97 126 112 127
730.0 172 182 192 203 207 204 189 151 136 118
770.0 116 116 139 168 160 165 154 143 136 128
810.0 126 128 143 158 165 172 173 194 215 249
850.0 301 358 390 412 400 359 302 257 234 248
890.0 285 337 428 570 768 1007 1234 1394 1410 1297
930.0 1081 854 636 482 374 336 348 392 465 535
970.0 590 612 612 604 631 688 760 825 858 856
1010.0 807 732 665 599 547 515 510 525 546 554
1050.0 546 516 482 474 485 498 533 549 565 569
1090.0 593 607 621 630 644 660 690 767 844 942
1130.0 1061 1163 1266 1337 1412 1511 1628 1795 1978 2123
1170.0 2165 2063 1860 1595 1341 1135 952 822 710 643
1210.0 597 555 554 557 579 603 645 679 705 726
1250.0 738 737 745 738 743 743 742 745 738 742
1290.0 751 757 762 751 745 721 707 699 678 664
1330.0 650 643 667 706 776 879 1023 1207 1415 1651
1370.0 1871 2053 2159 2146 2001 1752 1431 1094 796 597
1410.0 474 407 369 363 369 408 458 548 647 782
1450.0 960 1163 1400 1622 1741 1777 1658 1380 1080 788
1490.0 562 389 285 217 186 163 143 127 110 103
1530.0 97 97 88 79 81 84 82 79 79 77
1570.0 78 75 69 69 71 69 70 63 63 63
1610.0 62 62 57 60 51 57 54 52 53 59
1650.0 49 57 52 52 52 52 50 57 56 45
1690.0 50 51 48 41 42 46 45 37 36 37
1730.0 38 37 28 34 34 33 27 28 29 30
1770.0 31 26 25 25 27 27 27 19 26 20
1810.0 20 20 22 19 28 18 19 24 24 26
1850.0 19 19 20 20 18 17 19 19 19 19
1890.0 18 14 17 17 17 11 11 9 17 10
1930.0 10 16 10 10 10 10 10 16 9 8
1970.0 9 9 10 2 6 8 8 8 8 7
2010.0 2 8 8 6 7 7 8 1 6 6
2050.0 7 7 7 4 7 7 5 5 6 5
2090.0 5 5 11 9 8 9 8 5 12 12
2130.0 12 11 11 3 11 11 11 10 10 10
2170.0 10 15 16 16 16 15 23 16 16 16
2210.0 14 14 14 14 14 14 8 7 6 6
2250.0 13 7 7 7 6 6 6 6 14 14
2290.0 13 13 13 14 20 20 20 20 20 20
2330.0 20 20 20 14 7 7 21 13 19 22
2370.0 13 6 6 14 13 21 21 21 21 20
2410.0 20 20 20 20 20 29 20 20 20 20
2450.0 14 21 21 21 21 13 16 15 17 13
2490.0 9 14 14 7 8 13 7 14 14 15
2530.0 12 21 21 21 17 20 20 21 21 27
2570.0 28 28 29 28 34 37 41 42 42 47
2610.0 49 55 55 56 55 62 63 63 63 66
2650.0 62 62 62 57 62 55 55 56 56 62
2690.0 71 69 77 79 90 102 117 139 160 175
2730.0 184 190 190 184 175 173 169 160 169 168
2770.0 176 182 184 190 191 205 219 234 248 273
2810.0 302 339 372 410 460 517 574 670 780 906
2850.0 1060 1222 1394 1609 1906 2331 2804 3238 3552 3715
2890.0 3712 3611 3554 3621 3818 4154 4571 4973 5358 5698
2930.0 6004 6162 6236 6284 6292 6502 7064 8058 9208 9951
2970.0 10000 9617 8628 7317 5889 4431 3205 2258 1554 1068
3010.0 757 560 442 362 306 275 241 223 212 205
3050.0 198 191 191 182 176 169 173 169 160 158
3090.0 150 142 141 133 134 127 127 118 111 114
3130.0 116 116 114 113 120 117 111 112 119 113
3170.0 111 127 128 127 135 131 136 122 120 111
3210.0 106 97 84 76 70 69 57 59 60 52
3250.0 54 48 42 43 41 43 42 34 35 34
3290.0 40 33 23 32 27 22 28 22 14 20
3330.0 27 28 28 14 20 29 24 14 28 35
3370.0 34 35 35 41 36 27 37 33 31 44
3410.0 34 40 44 48 30 41 34 35 34 33
3450.0 33 34 25 20 28 28 33 27 21 34
3490.0 27 21 26 29 24 23 25 13 26 19
3530.0 17 14 14 14 19 11 14 15 15 16
3570.0 22 16 16 8 22 40 19 33 41 40
3610.0 53 72 105 163 241 319 407 475 500 493
3650.0 435 327 234 170 131 98 63 50 40 28
3690.0 17 25 26 26 19 22 20 14 13 1
3730.0 9 15 16 7 4 0 0 0 0 0
3770.0 0 0 0 0 0 0 0 0 0 3
3810.0 0 0 0 0 0 8 10 5 5 11
3850.0 13 22 19 14 18 12 18 16 19 17
3890.0 8 3 12 5 1 3 0 3 3 4
3930.0 12 17 13 13 14 14 16 17 11 5
##END=
