##TITLE=2-Pyridinamine, 3-nitro-
##JCAMP-DX=4.24
##DATA TYPE=INFRARED SPECTRUM
##ORIGIN=Sadtler Research Labs Under US-EPA Contract
##OWNER=NIST Standard Reference Data Program
##CAS REGISTRY NO=4214-75-9
##MOLFORM=C 5 H 5 N 3 O 2
##XUNITS=1/CM
##YUNITS=ABSORBANCE
##XFACTOR=1.0
##YFACTOR=0.000116534
##DELTAX=4.0
##FIRSTX=450.0
##LASTX=3966.0
##FIRSTY=0.035310
##MAXX=3966
##MINX=450
##MAXY=1.16534
##MINY=0
##NPOINTS=880
##XYDATA=(X++(Y..Y))
450.0 303 355 380 325 355 299 299 298 255 229
490.0 208 186 154 153 155 163 189 194 239 306
530.0 353 351 327 311 277 229 172 150 128 115
570.0 83 85 66 69 42 27 8 26 23 27
610.0 33 21 31 24 44 37 67 70 87 108
650.0 102 140 153 204 225 312 325 308 301 273
690.0 242 205 204 238 275 310 362 380 427 438
730.0 430 447 480 658 839 1130 1288 1973 2376 1750
770.0 1422 1302 986 757 581 560 548 559 618 660
810.0 710 814 955 1059 1111 1085 1034 889 731 599
850.0 530 500 489 489 485 493 492 533 574 668
890.0 757 768 726 650 533 369 244 208 191 190
930.0 184 175 167 163 161 164 162 163 168 168
970.0 171 168 151 145 144 138 140 144 152 160
1010.0 176 196 204 224 229 224 197 162 136 124
1050.0 122 133 160 190 238 275 319 352 357 349
1090.0 341 322 282 272 260 255 250 244 225 190
1130.0 178 209 343 479 570 604 619 555 385 283
1170.0 277 291 319 321 329 334 341 359 391 439
1210.0 494 555 620 694 800 982 1292 1778 2527 3385
1250.0 4004 4139 3951 3488 2527 1480 848 573 471 445
1290.0 441 440 449 489 577 761 1088 1437 1669 1782
1330.0 1894 2048 2271 2664 3123 3348 3286 2844 1911 955
1370.0 484 323 267 251 238 250 249 235 217 201
1410.0 183 177 164 206 268 425 729 1318 2224 3082
1450.0 3332 3272 2874 1871 1153 784 593 469 435 406
1490.0 467 608 860 1247 1813 2649 3597 4393 4719 4584
1530.0 4412 3601 2558 1675 1197 1040 1163 1513 2082 2656
1570.0 3103 3361 3326 2969 2366 1935 1992 2480 3434 4859
1610.0 6763 8593 9780 9756 10000 8731 7009 4968 3623 2581
1650.0 1852 1293 863 633 446 349 247 223 170 145
1690.0 131 119 100 83 97 101 108 101 125 123
1730.0 107 90 84 71 51 46 49 53 49 55
1770.0 44 37 43 39 42 33 34 28 24 29
1810.0 24 26 31 30 28 23 22 23 8 2
1850.0 7 11 9 9 6 0 9 10 14 11
1890.0 15 20 27 35 45 57 69 88 96 111
1930.0 113 108 97 77 61 46 36 23 22 15
1970.0 19 17 18 20 23 22 20 26 25 29
2010.0 27 26 26 23 21 20 16 13 12 11
2050.0 11 8 12 11 11 12 16 19 18 22
2090.0 21 24 22 25 24 26 27 29 30 29
2130.0 29 28 24 22 25 23 26 25 23 24
2170.0 23 25 23 24 25 27 24 24 25 25
2210.0 27 29 32 33 39 40 43 48 52 56
2250.0 60 62 62 60 55 51 45 39 37 39
2290.0 39 40 43 45 46 46 45 40 48 43
2330.0 42 37 41 43 59 57 46 36 23 25
2370.0 27 26 41 42 33 21 20 19 22 24
2410.0 27 30 32 38 40 45 51 53 53 56
2450.0 59 57 58 51 49 43 37 27 26 20
2490.0 19 21 23 25 25 24 25 26 26 32
2530.0 33 35 32 28 25 21 19 17 21 19
2570.0 21 20 21 19 23 22 23 19 18 19
2610.0 16 13 14 15 15 18 20 21 23 18
2650.0 20 18 18 19 16 18 16 22 23 30
2690.0 31 32 34 33 28 24 20 18 19 15
2730.0 12 11 12 10 13 14 15 20 23 25
2770.0 30 30 33 32 31 32 32 35 35 34
2810.0 32 31 29 29 32 32 36 41 46 52
2850.0 60 67 76 85 89 89 89 87 78 73
2890.0 70 68 70 70 70 70 73 67 67 66
2930.0 66 65 62 64 61 66 75 85 90 91
2970.0 88 75 63 50 45 39 38 44 53 64
3010.0 80 105 133 161 192 216 235 259 270 279
3050.0 284 277 267 242 217 201 205 214 232 254
3090.0 265 254 229 186 131 77 50 37 27 28
3130.0 33 32 32 36 33 33 33 27 27 25
3170.0 21 22 25 24 27 28 24 29 28 22
3210.0 20 14 15 12 11 16 13 12 17 18
3250.0 16 17 16 14 15 16 15 11 10 13
3290.0 11 14 17 17 21 17 14 17 16 16
3330.0 21 21 21 19 25 22 24 26 29 39
3370.0 41 51 62 86 125 195 297 441 638 889
3410.0 1188 1478 1655 1625 1483 1267 931 554 304 172
3450.0 116 86 71 68 69 74 81 89 97 118
3490.0 139 173 217 265 329 401 513 656 838 1040
3530.0 1283 1504 1699 1790 1714 1501 1198 885 539 283
3570.0 157 101 82 61 58 50 43 45 43 42
3610.0 44 37 37 42 37 39 36 38 42 34
3650.0 36 32 38 45 36 35 39 48 38 38
3690.0 41 44 40 44 41 39 42 38 35 38
3730.0 43 44 44 41 54 40 42 35 41 39
3770.0 40 41 40 42 44 49 50 50 47 44
3810.0 47 43 51 50 47 40 41 38 44 35
3850.0 40 47 39 43 43 55 43 41 44 47
3890.0 44 48 47 56 51 52 52 59 58 57
3930.0 65 67 67 67 72 69 57 56 57 65
##END=
