##TITLE=2,2,3,3,3-Pentafluoro-1-propanol
##JCAMP-DX=4.24
##DATA TYPE=INFRARED SPECTRUM
##ORIGIN=Sadtler Research Labs Under US-EPA Contract
##OWNER=NIST Standard Reference Data Program
##CAS REGISTRY NO=422-05-9
##MOLFORM=C 3 H 3 F 5 O
##XUNITS=1/CM
##YUNITS=ABSORBANCE
##XFACTOR=1.0
##YFACTOR=0.000062274
##DELTAX=4.0
##FIRSTX=450.0
##LASTX=3966.0
##FIRSTY=0.017499
##MAXX=3966
##MINX=450
##MAXY=0.62274
##MINY=0
##NPOINTS=880
##XYDATA=(X++(Y..Y))
450.0 281 278 310 327 306 312 292 264 255 254
490.0 249 245 223 261 303 334 349 393 434 467
530.0 504 478 341 373 317 316 276 275 285 247
570.0 315 316 275 334 280 266 322 265 260 278
610.0 287 322 355 343 333 318 291 305 340 369
650.0 363 380 349 305 225 162 120 113 122 149
690.0 164 207 294 401 452 453 472 560 642 660
730.0 673 697 625 525 482 356 207 136 143 153
770.0 138 145 194 217 243 247 254 255 287 316
810.0 270 172 125 122 146 194 219 205 158 98
850.0 60 44 42 31 57 74 117 162 194 204
890.0 195 194 190 207 236 260 267 273 270 269
930.0 284 301 294 269 237 205 174 159 145 145
970.0 155 172 219 283 342 383 440 531 664 785
1010.0 877 917 916 863 785 696 652 624 618 602
1050.0 610 620 673 770 921 1093 1266 1428 1609 1680
1090.0 1608 1475 1312 1149 1000 865 793 842 992 1234
1130.0 1555 1873 2185 2469 2676 2760 2701 2407 2099 1899
1170.0 1825 1899 2060 2337 2732 3350 4291 5665 7331 9024
1210.0 10000 9078 7676 6241 5249 4701 4797 5297 6149 6935
1250.0 6623 5219 3847 2917 2270 1785 1479 1276 1137 1027
1290.0 945 873 802 731 672 645 649 647 634 629
1330.0 642 674 718 768 799 782 726 669 615 545
1370.0 484 420 350 316 280 255 248 232 228 228
1410.0 198 182 158 112 93 91 76 81 76 89
1450.0 92 110 139 127 136 100 71 44 35 25
1490.0 32 30 30 21 42 13 8 23 23 14
1530.0 6 27 20 21 14 17 22 35 20 17
1570.0 24 15 24 7 15 11 20 11 23 10
1610.0 17 16 21 16 6 18 1 15 4 17
1650.0 2 29 0 7 7 23 8 19 9 31
1690.0 17 14 20 37 21 16 11 23 21 20
1730.0 21 36 30 33 19 29 30 40 48 56
1770.0 81 116 129 114 110 103 133 130 128 98
1810.0 73 56 44 33 39 30 23 24 17 23
1850.0 21 17 17 17 13 24 17 19 19 18
1890.0 17 18 19 21 20 20 20 26 18 22
1930.0 24 23 24 20 22 24 26 26 26 24
1970.0 26 35 36 28 35 33 35 27 38 29
2010.0 29 29 28 29 31 31 32 32 31 32
2050.0 34 34 34 34 32 34 35 35 36 36
2090.0 36 29 36 36 37 35 35 35 35 36
2130.0 36 35 35 34 36 35 44 44 42 42
2170.0 42 42 36 36 35 42 35 35 35 35
2210.0 39 33 34 34 34 34 34 34 33 33
2250.0 33 33 33 33 33 33 33 42 42 33
2290.0 34 42 35 35 35 35 35 32 28 37
2330.0 37 37 43 36 60 44 37 40 42 65
2370.0 82 79 79 76 65 59 58 57 50 49
2410.0 57 57 50 53 50 50 50 50 51 51
2450.0 51 51 42 51 50 43 43 43 43 48
2490.0 43 43 44 44 44 35 43 43 38 44
2530.0 44 41 46 45 46 41 37 45 45 44
2570.0 37 44 44 44 45 45 45 45 45 45
2610.0 45 45 45 38 37 37 37 37 37 48
2650.0 38 38 38 38 38 38 38 39 38 38
2690.0 38 38 38 38 38 40 39 39 41 47
2730.0 40 40 40 38 48 45 48 47 43 41
2770.0 41 47 40 41 48 48 57 48 48 48
2810.0 49 49 54 56 64 58 66 65 66 73
2850.0 82 84 89 97 102 98 103 105 105 128
2890.0 144 153 161 159 141 128 110 107 101 105
2930.0 127 151 191 223 240 257 264 240 222 206
2970.0 196 178 165 163 163 147 139 139 123 107
3010.0 98 89 77 65 57 53 52 47 45 45
3050.0 46 45 45 45 45 46 46 46 37 46
3090.0 46 45 45 47 47 46 47 47 47 37
3130.0 44 38 47 46 41 45 46 40 48 39
3170.0 40 47 47 47 47 47 47 47 49 39
3210.0 49 41 49 41 41 41 42 45 40 51
3250.0 37 47 47 40 48 41 41 33 44 31
3290.0 45 50 41 38 51 42 42 50 50 28
3330.0 51 42 50 43 42 51 48 39 47 44
3370.0 42 51 43 50 52 44 49 53 52 42
3410.0 53 42 52 45 43 53 52 53 53 43
3450.0 52 53 45 41 46 45 50 46 51 51
3490.0 53 44 44 46 51 53 54 46 46 50
3530.0 52 54 54 38 51 51 62 45 60 51
3570.0 64 54 54 61 51 50 45 51 61 54
3610.0 58 75 72 90 72 97 115 137 200 276
3650.0 400 566 663 608 517 447 350 301 205 148
3690.0 131 105 83 62 65 55 67 57 44 52
3730.0 42 52 54 62 77 66 77 60 61 54
3770.0 61 54 46 41 35 28 33 40 31 44
3810.0 44 40 41 42 52 62 61 64 59 55
3850.0 56 60 58 57 54 55 56 59 56 58
3890.0 58 61 59 57 62 56 62 55 54 55
3930.0 49 40 42 42 51 50 53 53 53 53
##END=
