##TITLE=1-Chloroeicosane
##JCAMP-DX=4.24
##DATA TYPE=INFRARED SPECTRUM
##ORIGIN=Sadtler Research Labs Under US-EPA Contract
##OWNER=NIST Standard Reference Data Program
##CAS REGISTRY NO=42217-02-7
##MOLFORM=C 20 H 41 Cl
##XUNITS=1/CM
##YUNITS=ABSORBANCE
##XFACTOR=1.0
##YFACTOR=0.000111786
##DELTAX=4.0
##FIRSTX=450.0
##LASTX=3966.0
##FIRSTY=0.020233
##MAXX=3966
##MINX=450
##MAXY=1.11786
##MINY=0
##NPOINTS=880
##XYDATA=(X++(Y..Y))
450.0 181 99 57 63 54 65 5 43 55 55
490.0 52 47 48 70 61 80 64 64 46 44
530.0 68 51 58 58 67 68 66 65 37 44
570.0 43 38 50 50 61 46 48 27 51 65
610.0 64 53 50 54 44 57 60 71 74 95
650.0 150 173 186 187 136 104 81 61 57 56
690.0 62 73 98 133 164 221 273 318 317 331
730.0 332 316 292 278 248 209 180 175 149 127
770.0 100 86 74 75 68 63 64 54 53 52
810.0 62 60 50 46 39 44 41 40 45 50
850.0 40 40 32 41 41 36 40 43 37 41
890.0 42 40 41 44 43 44 42 40 43 39
930.0 43 35 36 37 39 37 38 39 43 41
970.0 41 38 39 36 33 37 37 40 37 38
1010.0 39 41 44 45 43 43 45 43 42 45
1050.0 46 45 49 47 44 42 42 37 41 39
1090.0 40 36 35 36 35 35 39 39 36 32
1130.0 32 28 30 28 28 31 29 35 34 35
1170.0 39 38 40 41 44 45 46 48 49 55
1210.0 58 61 67 70 76 86 94 101 109 121
1250.0 137 147 162 178 192 203 224 245 275 305
1290.0 329 343 352 356 353 343 318 286 259 235
1330.0 222 222 239 271 300 329 341 322 296 279
1370.0 255 227 208 192 161 140 117 110 103 111
1410.0 114 124 139 158 185 230 298 380 492 617
1450.0 740 840 926 954 876 691 475 312 212 155
1490.0 121 96 82 71 65 57 44 44 40 36
1530.0 34 32 29 25 21 21 21 19 19 14
1570.0 16 12 15 11 13 8 12 14 14 14
1610.0 11 13 12 12 12 11 13 12 9 13
1650.0 12 13 12 7 7 8 9 10 10 10
1690.0 9 11 12 12 13 14 15 18 18 18
1730.0 22 20 17 18 17 17 13 9 10 4
1770.0 7 6 6 6 4 5 5 5 7 6
1810.0 4 6 6 6 5 6 4 4 6 4
1850.0 2 1 4 2 2 2 1 1 0 0
1890.0 2 0 0 3 1 6 4 5 2 2
1930.0 3 3 4 2 4 1 0 0 3 2
1970.0 3 2 0 2 2 3 6 5 7 8
2010.0 7 11 12 11 14 14 15 16 15 15
2050.0 13 12 11 9 10 10 9 8 8 7
2090.0 7 7 8 6 7 7 7 7 7 8
2130.0 8 7 8 7 10 8 7 11 8 6
2170.0 8 7 8 8 9 8 8 7 7 9
2210.0 10 10 9 9 9 9 11 10 12 9
2250.0 12 11 10 10 13 15 14 16 15 17
2290.0 19 20 24 24 31 34 36 40 41 36
2330.0 33 30 23 26 24 36 48 36 26 27
2370.0 21 20 18 20 20 20 19 23 22 22
2410.0 22 20 20 18 20 21 21 25 20 19
2450.0 22 20 20 20 20 22 24 21 22 25
2490.0 23 24 28 30 33 31 34 36 35 37
2530.0 41 42 42 43 44 46 46 46 47 47
2570.0 47 50 55 56 56 59 64 63 66 68
2610.0 71 73 75 79 85 85 91 94 97 101
2650.0 105 109 113 118 122 127 134 138 142 140
2690.0 139 134 132 128 127 127 128 127 132 133
2730.0 138 141 146 150 152 160 159 164 169 173
2770.0 183 194 203 220 239 258 281 303 330 360
2810.0 394 432 480 539 606 695 806 968 1198 1530
2850.0 2011 2663 3492 4137 4051 3452 2816 2368 2133 2024
2890.0 1994 2070 2270 2583 3011 3499 4078 4839 5979 7603
2930.0 9344 10000 9150 7504 5782 4376 3413 2889 2651 2487
2970.0 2213 1793 1350 1031 840 728 670 618 538 432
3010.0 345 293 249 215 188 174 158 143 126 113
3050.0 101 93 87 77 71 68 60 55 54 49
3090.0 49 48 42 42 38 38 35 34 32 28
3130.0 30 27 28 28 25 26 26 28 26 23
3170.0 20 19 20 20 18 17 16 16 12 12
3210.0 13 16 10 10 8 10 10 7 8 9
3250.0 7 5 8 7 10 9 4 6 11 13
3290.0 9 4 8 6 7 12 11 10 8 10
3330.0 12 12 11 16 12 11 11 10 13 13
3370.0 10 14 11 12 13 16 12 16 18 16
3410.0 17 11 20 15 17 14 13 11 12 10
3450.0 15 11 9 12 13 12 11 10 9 7
3490.0 12 8 9 7 7 8 10 11 14 13
3530.0 10 11 13 15 11 10 10 16 15 11
3570.0 16 19 16 14 15 16 17 22 15 23
3610.0 20 26 27 29 33 33 26 28 32 30
3650.0 25 25 21 22 28 29 31 27 22 27
3690.0 23 31 25 23 25 21 24 25 28 26
3730.0 27 22 21 22 21 27 24 29 24 20
3770.0 26 28 21 18 22 28 29 31 26 29
3810.0 26 31 30 24 19 23 30 20 22 21
3850.0 35 29 19 21 24 27 21 18 29 26
3890.0 20 28 25 22 23 25 22 26 27 28
3930.0 27 25 18 25 24 31 32 27 29 24
##END=
