##TITLE=Butane, 1-[2-(ethenyloxy)ethoxy]-
##JCAMP-DX=4.24
##DATA TYPE=INFRARED SPECTRUM
##ORIGIN=Sadtler Research Labs Under US-EPA Contract
##OWNER=NIST Standard Reference Data Program
##CAS REGISTRY NO=4223-11-4
##MOLFORM=C 8 H 16 O 2
##XUNITS=1/CM
##YUNITS=ABSORBANCE
##XFACTOR=1.0
##YFACTOR=0.000096094
##DELTAX=4.0
##FIRSTX=450.0
##LASTX=3966.0
##FIRSTY=0.000000
##MAXX=3966
##MINX=450
##MAXY=0.96094
##MINY=0
##NPOINTS=880
##XYDATA=(X++(Y..Y))
450.0 0 18 42 49 47 19 36 85 146 212
490.0 159 257 271 340 324 294 213 332 260 224
530.0 272 300 348 247 208 287 305 74 162 198
570.0 270 324 215 231 306 195 207 146 278 219
610.0 244 258 231 164 166 257 149 177 215 209
650.0 226 194 233 226 175 265 239 301 287 259
690.0 361 384 330 356 281 294 251 259 276 249
730.0 322 321 352 386 345 311 337 362 419 436
770.0 416 425 395 465 573 611 683 838 1031 1247
810.0 1639 1917 2124 2098 1891 1946 1893 1817 1725 1520
850.0 1380 1182 1053 936 838 751 827 812 834 852
890.0 922 893 946 985 969 944 866 877 954 922
930.0 998 1204 1352 1437 1550 1598 1640 1733 1879 1922
970.0 1924 1937 1901 1928 1900 1778 1706 1590 1658 1760
1010.0 1843 1972 1985 1928 1808 1751 1656 1621 1567 1502
1050.0 1455 1413 1365 1395 1491 1654 1944 2293 2795 3303
1090.0 3719 4117 4342 4628 4934 5318 5859 6573 7405 8461
1130.0 9300 10000 9587 8340 6782 5166 4154 3548 3294 3312
1170.0 3497 3829 4292 4675 4977 5278 5627 6167 6876 7810
1210.0 7971 6920 5465 3630 2508 1986 1719 1666 1602 1553
1250.0 1499 1491 1427 1336 1286 1226 1223 1202 1283 1306
1290.0 1327 1383 1386 1417 1548 1816 2288 2847 3159 2918
1330.0 2413 1787 1388 1214 1239 1472 1721 1949 1910 1717
1370.0 1390 1228 1197 1244 1191 1118 986 898 811 748
1410.0 695 635 598 546 530 550 604 644 741 843
1450.0 1003 1243 1395 1526 1473 1380 1248 1149 1001 859
1490.0 707 571 480 448 420 416 416 396 382 361
1530.0 358 359 353 316 321 326 312 296 310 339
1570.0 368 425 482 577 719 899 1172 1529 2039 2793
1610.0 3808 4599 4776 4506 3862 3737 4097 4593 4724 4452
1650.0 3661 2770 2301 1954 1608 1261 971 774 654 533
1690.0 460 385 306 248 225 204 182 167 166 168
1730.0 165 152 168 197 208 207 211 206 189 180
1770.0 173 163 169 159 154 146 130 129 125 130
1810.0 129 129 122 117 115 105 117 114 108 98
1850.0 111 112 124 129 139 144 160 163 157 148
1890.0 130 127 133 128 139 148 153 159 158 153
1930.0 156 157 147 151 155 149 154 144 143 149
1970.0 138 136 141 136 139 132 134 137 139 135
2010.0 139 137 138 142 142 146 145 144 148 144
2050.0 148 137 134 129 127 127 126 121 120 120
2090.0 124 119 118 118 114 118 111 111 106 114
2130.0 105 110 109 103 109 102 102 101 107 106
2170.0 101 99 101 98 94 88 82 83 84 78
2210.0 78 75 75 68 68 64 61 63 66 67
2250.0 66 67 65 66 67 64 68 54 56 58
2290.0 61 62 66 77 72 80 87 90 114 109
2330.0 118 143 134 147 133 112 134 181 201 170
2370.0 153 102 95 62 45 45 41 41 35 33
2410.0 33 39 32 27 31 31 22 26 21 20
2450.0 22 13 13 17 17 12 15 13 18 19
2490.0 19 18 27 28 22 24 28 29 34 34
2530.0 41 41 35 33 30 32 35 37 37 42
2570.0 43 53 49 53 62 64 73 71 65 65
2610.0 66 71 77 72 71 67 62 63 64 71
2650.0 69 66 73 74 84 95 100 112 121 135
2690.0 144 165 194 207 224 237 253 271 277 299
2730.0 315 327 336 358 372 371 379 370 369 379
2770.0 371 388 404 426 468 504 550 594 646 694
2810.0 743 789 822 871 921 999 1119 1299 1551 1920
2850.0 2372 2919 3528 4140 4752 5343 5830 6111 6180 5887
2890.0 5358 4713 4145 3831 3753 3922 4214 4585 4984 5371
2930.0 5745 6135 6524 6794 6716 6406 5980 5792 6007 6369
2970.0 6496 5933 4896 3658 2639 1964 1502 1163 928 764
3010.0 656 564 523 498 476 463 442 418 384 373
3050.0 387 418 434 434 384 344 318 297 311 312
3090.0 285 268 234 210 216 238 300 376 535 631
3130.0 610 502 300 201 154 109 108 97 82 82
3170.0 76 67 79 60 72 70 59 60 56 52
3210.0 49 60 49 39 44 39 39 41 38 42
3250.0 34 25 29 27 27 22 36 33 26 24
3290.0 28 28 10 34 37 30 23 34 20 26
3330.0 26 24 28 26 25 34 34 35 36 28
3370.0 29 22 40 29 29 34 25 24 16 20
3410.0 35 32 28 26 32 33 21 37 28 23
3450.0 30 36 29 28 36 29 21 31 35 21
3490.0 10 20 18 29 29 36 25 21 37 36
3530.0 26 30 18 25 40 24 26 33 32 23
3570.0 23 36 39 37 37 41 32 38 38 39
3610.0 38 42 43 37 44 46 52 51 52 56
3650.0 37 46 48 62 53 43 52 44 55 63
3690.0 52 60 59 60 56 50 56 66 69 66
3730.0 64 61 52 56 45 59 58 58 58 60
3770.0 64 65 70 65 72 68 61 67 67 67
3810.0 72 73 73 67 75 79 80 72 72 80
3850.0 78 60 74 71 76 65 72 67 71 71
3890.0 75 74 76 68 68 68 74 84 84 86
3930.0 96 102 102 109 97 99 2 9 9 9
##END=
