##TITLE=Hexadecanoic acid, dodecyl ester
##JCAMP-DX=4.24
##DATA TYPE=INFRARED SPECTRUM
##ORIGIN=Sadtler Research Labs Under US-EPA Contract
##OWNER=NIST Standard Reference Data Program
##CAS REGISTRY NO=42232-29-1
##MOLFORM=C 28 H 56 O 2
##XUNITS=1/CM
##YUNITS=ABSORBANCE
##XFACTOR=1.0
##YFACTOR=0.000035626
##DELTAX=4.0
##FIRSTX=450.0
##LASTX=3966.0
##FIRSTY=0.009975
##MAXX=3966
##MINX=450
##MAXY=0.35626
##MINY=0
##NPOINTS=880
##XYDATA=(X++(Y..Y))
450.0 280 143 12 238 249 151 215 141 126 142
490.0 195 192 279 272 143 209 174 153 126 139
530.0 239 177 136 104 134 87 159 134 128 187
570.0 152 101 159 191 137 161 183 188 205 213
610.0 144 146 174 150 155 130 116 144 105 130
650.0 162 156 114 129 106 199 168 123 180 161
690.0 233 195 256 247 272 322 368 425 430 448
730.0 389 348 321 267 241 241 183 194 207 188
770.0 195 170 191 202 212 231 253 306 377 428
810.0 507 563 520 442 345 267 215 225 170 206
850.0 190 158 174 163 181 184 175 178 157 194
890.0 187 153 123 125 148 142 129 132 128 118
930.0 141 155 154 161 184 199 236 263 291 311
970.0 343 346 362 394 448 494 543 597 706 827
1010.0 976 1105 1268 1386 1420 1358 1226 1056 905 823
1050.0 797 791 804 859 904 967 1031 1079 1145 1166
1090.0 1162 1125 1077 1059 1058 1093 1112 1107 1041 1028
1130.0 1048 1148 1300 1481 1666 1825 1977 2105 2210 2249
1170.0 2213 2105 1948 1802 1662 1547 1465 1417 1377 1359
1210.0 1364 1375 1397 1419 1461 1496 1534 1544 1542 1535
1250.0 1510 1506 1545 1595 1552 1395 1218 1078 975 911
1290.0 892 861 840 833 829 786 760 717 698 689
1330.0 696 721 777 836 865 894 907 870 831 795
1370.0 712 704 726 741 676 642 550 472 427 436
1410.0 455 491 570 626 659 692 811 946 1076 1199
1450.0 1404 1642 1861 1888 1694 1302 840 567 422 375
1490.0 327 324 343 331 353 334 267 189 184 148
1530.0 151 126 155 135 162 145 156 149 178 146
1570.0 162 144 190 154 164 174 176 174 173 159
1610.0 135 132 127 115 113 83 133 107 131 128
1650.0 147 140 198 138 192 217 228 251 285 305
1690.0 343 390 436 491 532 604 722 881 1110 1455
1730.0 2092 3011 4085 4421 3609 2487 1791 1236 890 661
1770.0 560 441 393 337 337 274 272 238 228 213
1810.0 201 197 187 184 170 177 157 172 152 174
1850.0 160 168 166 169 165 168 182 169 174 168
1890.0 181 164 166 172 163 167 165 161 165 160
1930.0 168 160 166 162 172 163 167 159 169 160
1970.0 165 168 162 166 165 164 161 166 163 164
2010.0 152 160 157 163 164 169 174 172 169 172
2050.0 160 167 161 166 165 160 153 159 154 153
2090.0 155 153 148 145 142 135 134 138 133 134
2130.0 124 127 126 134 127 122 126 133 130 127
2170.0 136 128 130 128 120 126 119 115 120 117
2210.0 118 115 115 108 115 107 107 108 114 101
2250.0 116 106 104 109 114 123 115 120 129 147
2290.0 171 195 218 228 244 264 217 201 210 149
2330.0 102 128 124 54 237 164 206 123 139 138
2370.0 145 129 172 192 148 78 74 59 55 49
2410.0 46 47 39 25 31 33 25 26 19 30
2450.0 30 28 24 27 30 22 24 21 25 14
2490.0 16 6 4 9 16 11 13 14 6 14
2530.0 9 6 15 21 16 21 19 7 15 8
2570.0 17 2 26 19 14 12 19 15 20 36
2610.0 20 21 26 33 34 43 34 37 41 47
2650.0 49 48 53 75 83 70 74 81 76 81
2690.0 83 73 66 57 61 77 83 82 85 95
2730.0 100 119 124 120 139 135 149 160 174 197
2770.0 212 248 275 313 343 398 435 504 553 610
2810.0 681 761 862 971 1114 1282 1519 1859 2435 3320
2850.0 4541 5579 5784 5256 4454 3843 3445 3140 2967 3019
2890.0 3251 3624 4122 4643 5264 6003 6933 8096 9265 9960
2930.0 10000 9235 7990 6613 5428 4632 4224 4000 3714 3244
2970.0 2644 2078 1569 1194 913 703 558 456 396 329
3010.0 278 243 215 176 184 156 150 132 133 136
3050.0 119 127 118 111 113 109 90 93 92 95
3090.0 102 83 75 83 77 79 73 66 65 67
3130.0 51 55 58 68 66 89 86 81 71 67
3170.0 63 73 88 89 85 67 81 70 67 71
3210.0 72 73 79 75 73 68 57 61 54 59
3250.0 62 61 58 60 70 65 56 66 60 65
3290.0 56 52 41 66 50 64 64 73 72 55
3330.0 75 67 67 84 65 77 71 74 65 79
3370.0 53 55 57 78 83 90 81 105 81 73
3410.0 77 70 79 62 65 94 63 55 83 62
3450.0 62 93 88 92 97 91 71 64 92 61
3490.0 66 70 46 46 83 64 39 36 64 86
3530.0 43 34 56 44 71 37 53 62 28 108
3570.0 98 73 36 77 95 67 49 17 51 45
3610.0 81 58 67 53 30 117 70 47 60 29
3650.0 93 38 38 77 15 108 13 79 6 89
3690.0 47 38 38 49 33 61 42 49 64 53
3730.0 75 84 74 36 151 22 105 47 25 43
3770.0 39 46 19 41 34 37 4 68 37 55
3810.0 1 52 14 36 22 1 51 66 41 7
3850.0 45 41 82 41 65 61 55 20 10 66
3890.0 1 46 62 80 52 15 0 55 62 5
3930.0 60 85 27 55 36 3 32 5 7 22
##END=
