##TITLE=7-Oxabicyclo[4.1.0]heptane, 1-oxiranyl-
##JCAMP-DX=4.24
##DATA TYPE=INFRARED SPECTRUM
##ORIGIN=Sadtler Research Labs Under US-EPA Contract
##OWNER=NIST Standard Reference Data Program
##CAS REGISTRY NO=4223-10-3
##MOLFORM=C 8 H 12 O 2
##XUNITS=1/CM
##YUNITS=ABSORBANCE
##XFACTOR=1.0
##YFACTOR=0.000067917
##DELTAX=4.0
##FIRSTX=450.0
##LASTX=3966.0
##FIRSTY=0.045912
##MAXX=3966
##MINX=450
##MAXY=0.67917
##MINY=0
##NPOINTS=880
##XYDATA=(X++(Y..Y))
450.0 676 451 509 513 532 610 630 675 617 571
490.0 474 362 198 143 111 108 103 94 41 117
530.0 172 252 319 366 365 336 219 152 137 139
570.0 184 167 161 118 87 65 45 33 25 20
610.0 17 32 30 41 21 18 55 56 48 84
650.0 81 113 103 115 108 129 126 123 106 103
690.0 133 141 148 121 123 121 106 108 121 128
730.0 169 226 290 376 496 600 682 798 869 884
770.0 951 1071 1291 1572 1857 2196 2241 2105 1857 1655
810.0 1621 1753 2007 2259 2369 2257 1913 1578 1478 1639
850.0 1965 2362 2723 2893 2901 2813 2699 2562 2318 2046
890.0 1851 1617 1439 1352 1326 1369 1435 1524 1647 1695
930.0 1726 1709 1600 1463 1272 1096 964 854 803 817
970.0 905 1042 1200 1339 1369 1334 1260 1181 1028 891
1010.0 799 720 663 647 645 675 709 738 723 693
1050.0 633 548 496 456 433 427 419 402 380 341
1090.0 317 313 312 316 323 338 377 425 475 520
1130.0 566 604 619 625 601 548 497 453 410 398
1170.0 397 405 414 414 401 366 333 306 302 304
1210.0 324 361 399 418 448 493 544 639 785 955
1250.0 1119 1219 1245 1217 1064 863 687 527 436 389
1290.0 397 424 452 442 409 344 271 223 222 258
1330.0 331 439 577 702 806 887 902 841 775 671
1370.0 559 467 401 365 368 433 546 714 876 1011
1410.0 1100 1175 1200 1295 1424 1625 1839 2062 2094 2092
1450.0 1958 1736 1521 1183 959 737 647 642 732 750
1490.0 765 686 533 337 279 230 188 182 190 182
1530.0 169 207 169 150 107 96 89 94 108 74
1570.0 92 82 112 84 96 90 90 75 86 86
1610.0 100 112 131 118 95 104 94 106 83 110
1650.0 70 144 69 77 60 82 55 86 63 93
1690.0 66 73 83 103 70 74 77 98 81 96
1730.0 99 149 133 146 142 158 163 162 157 139
1770.0 129 96 70 63 71 56 81 74 96 92
1810.0 92 86 85 54 52 29 22 21 11 16
1850.0 6 8 3 7 0 8 2 4 5 3
1890.0 9 5 5 2 0 5 6 16 12 16
1930.0 18 19 19 20 14 14 12 15 12 11
1970.0 13 12 16 18 18 18 22 16 24 24
2010.0 25 22 21 17 20 15 21 21 23 22
2050.0 28 32 33 31 33 33 35 41 38 42
2090.0 39 36 36 31 31 28 33 30 30 27
2130.0 30 31 30 32 32 29 37 37 41 40
2170.0 43 43 46 51 54 57 58 54 57 61
2210.0 63 63 67 71 70 77 76 78 79 82
2250.0 85 88 89 88 83 82 79 81 82 84
2290.0 91 93 88 89 81 70 65 57 47 53
2330.0 53 50 44 51 39 40 33 34 32 36
2370.0 34 39 40 40 32 24 25 22 17 20
2410.0 18 16 13 12 14 16 15 16 15 17
2450.0 18 20 20 23 19 19 22 26 23 26
2490.0 22 22 23 21 24 28 27 23 28 26
2530.0 23 24 22 25 26 28 30 34 34 30
2570.0 31 33 35 36 41 45 47 53 56 61
2610.0 64 67 67 68 64 64 60 61 64 67
2650.0 73 80 84 95 98 112 127 134 146 148
2690.0 152 149 143 146 149 149 145 147 142 131
2730.0 130 131 130 129 135 141 148 163 169 185
2770.0 196 208 213 221 219 227 232 239 240 255
2810.0 264 280 304 342 381 446 564 742 988 1302
2850.0 1645 1952 2205 2372 2425 2358 2229 2080 1963 1925
2890.0 1964 2082 2255 2484 2827 3270 3970 4926 6093 7436
2930.0 8600 9384 9675 9394 8816 7623 6499 5486 4859 4516
2970.0 4546 4781 5271 5976 6774 7841 9463 10000 9565 8215
3010.0 6199 3860 2363 1552 1129 1005 1132 1550 2229 2786
3050.0 3111 2728 2202 1477 894 526 350 270 223 199
3090.0 183 170 159 144 119 102 93 84 73 68
3130.0 61 60 52 48 47 41 43 43 39 33
3170.0 29 32 30 21 17 19 25 24 23 24
3210.0 34 42 35 34 32 28 32 28 24 29
3250.0 32 25 30 35 42 32 32 40 47 42
3290.0 34 42 47 39 33 37 42 35 31 34
3330.0 40 32 36 38 27 31 26 26 32 20
3370.0 23 28 16 29 25 25 30 30 24 27
3410.0 29 36 22 23 32 24 19 25 30 19
3450.0 29 30 26 31 31 24 32 28 21 25
3490.0 28 17 30 24 19 29 13 26 25 24
3530.0 22 22 25 27 39 16 31 18 29 20
3570.0 32 22 24 24 21 42 30 21 42 27
3610.0 60 34 36 58 45 101 54 54 41 44
3650.0 77 48 73 54 60 73 45 63 32 41
3690.0 45 33 39 52 46 30 42 46 44 56
3730.0 64 90 104 98 154 87 128 89 86 81
3770.0 70 62 55 68 64 66 73 66 72 79
3810.0 72 69 65 66 48 59 62 74 41 56
3850.0 41 91 60 76 67 73 53 59 51 56
3890.0 39 50 25 76 67 60 64 85 66 69
3930.0 74 58 36 56 46 36 20 41 47 41
##END=
