##TITLE=Octanoic acid, 2-propenyl ester
##JCAMP-DX=4.24
##DATA TYPE=INFRARED SPECTRUM
##ORIGIN=Sadtler Research Labs Under US-EPA Contract
##OWNER=NIST Standard Reference Data Program
##CAS REGISTRY NO=4230-97-1
##MOLFORM=C 11 H 20 O 2
##XUNITS=1/CM
##YUNITS=ABSORBANCE
##XFACTOR=1.0
##YFACTOR=0.000079617
##DELTAX=4.0
##FIRSTX=450.0
##LASTX=3966.0
##FIRSTY=0.050159
##MAXX=3966
##MINX=450
##MAXY=0.79617
##MINY=0
##NPOINTS=880
##XYDATA=(X++(Y..Y))
450.0 630 278 111 258 188 252 248 141 254 230
490.0 358 30 140 74 88 247 84 118 79 236
530.0 95 230 156 228 188 305 294 206 280 145
570.0 285 125 180 226 284 219 236 309 240 297
610.0 204 270 233 299 245 248 259 194 186 124
650.0 140 78 99 62 100 62 64 106 32 84
690.0 48 97 41 77 106 132 143 179 240 195
730.0 223 149 147 117 128 105 115 105 99 118
770.0 79 104 65 89 62 95 86 77 97 66
810.0 98 72 120 78 118 113 123 115 129 178
850.0 144 204 188 225 190 228 238 236 269 269
890.0 304 302 376 415 517 636 832 1072 1368 1735
930.0 1961 1910 1506 1114 816 676 612 603 652 736
970.0 908 1085 1392 1735 2194 2591 2714 2479 2198 2044
1010.0 1939 1876 1768 1702 1583 1510 1403 1281 1150 1042
1050.0 984 910 894 841 842 833 889 961 1083 1260
1090.0 1474 1800 2142 2526 2794 2945 2909 2751 2524 2341
1130.0 2315 2420 2714 3178 3961 5000 6191 7207 7696 7577
1170.0 7004 6146 5282 4646 4274 4109 4004 3910 3801 3704
1210.0 3641 3623 3671 3686 3717 3682 3600 3476 3392 3295
1250.0 3130 2914 2657 2453 2315 2274 2217 2128 1971 1808
1290.0 1714 1651 1648 1606 1542 1449 1386 1311 1231 1173
1330.0 1138 1189 1294 1407 1427 1398 1350 1359 1445 1590
1370.0 1717 1764 1739 1628 1439 1157 902 714 607 570
1410.0 591 632 704 802 895 974 1020 1035 1087 1187
1450.0 1349 1515 1655 1679 1579 1358 1114 814 585 421
1490.0 336 267 228 212 178 174 151 152 138 125
1530.0 119 110 105 105 103 87 96 92 77 81
1570.0 82 88 69 79 72 89 83 90 84 90
1610.0 95 87 105 96 121 127 159 188 257 305
1650.0 369 340 305 249 204 188 173 171 193 201
1690.0 227 255 294 354 427 521 621 746 886 1081
1730.0 1382 1809 2544 3674 5539 7549 9472 10000 9139 7191
1770.0 5279 3793 2886 2275 1823 1403 1113 871 711 565
1810.0 470 389 314 281 233 231 199 201 188 193
1850.0 195 197 210 206 218 187 178 146 134 114
1890.0 117 116 95 108 102 109 98 103 97 92
1930.0 90 88 88 85 105 97 110 98 109 106
1970.0 107 114 107 113 104 116 98 97 86 82
2010.0 80 70 72 57 64 59 69 63 75 66
2050.0 63 62 58 67 73 103 113 125 129 124
2090.0 124 108 104 96 95 79 84 81 83 84
2130.0 79 80 85 80 72 83 76 75 67 72
2170.0 73 65 68 68 72 60 73 66 72 64
2210.0 62 62 60 75 69 69 59 66 67 64
2250.0 64 65 68 60 69 54 70 66 72 66
2290.0 76 75 76 91 92 108 110 119 116 126
2330.0 113 97 95 73 71 72 154 116 72 20
2370.0 2 2 2 4 24 50 37 53 52 50
2410.0 50 44 49 39 46 39 45 29 40 39
2450.0 36 35 39 47 36 40 36 36 35 22
2490.0 26 34 27 18 28 30 40 24 34 23
2530.0 28 25 16 11 16 16 8 9 11 25
2570.0 28 32 33 26 28 16 23 6 2 9
2610.0 10 19 14 36 34 42 48 57 57 63
2650.0 74 68 83 107 132 135 157 148 143 114
2690.0 97 79 76 69 65 69 69 86 91 85
2730.0 88 96 103 106 124 103 110 104 105 110
2770.0 110 119 117 128 140 164 170 199 208 226
2810.0 248 275 306 329 378 424 489 572 678 863
2850.0 1177 1672 2404 3135 3674 3827 3630 3351 3176 2998
2890.0 2699 2401 2301 2397 2675 3128 3758 4555 5607 6895
2930.0 8169 9043 9313 9000 8255 7302 6399 5969 5955 6213
2970.0 6200 5454 4108 2894 2133 1694 1446 1233 1055 925
3010.0 792 687 629 634 625 598 526 430 357 324
3050.0 279 249 251 243 248 269 296 328 381 447
3090.0 539 611 643 591 516 399 264 190 132 127
3130.0 75 100 86 63 78 61 68 78 86 87
3170.0 74 75 88 106 105 88 69 76 55 63
3210.0 48 60 48 46 53 50 58 67 84 64
3250.0 75 57 59 59 56 58 32 73 42 48
3290.0 43 44 36 22 39 29 22 24 23 15
3330.0 17 29 24 22 12 42 24 35 18 41
3370.0 34 34 38 14 29 2 46 16 37 65
3410.0 44 35 12 41 33 23 9 36 26 68
3450.0 41 24 59 41 54 55 63 72 102 99
3490.0 110 99 130 99 85 75 64 57 54 61
3530.0 52 40 78 65 77 61 83 70 117 150
3570.0 235 347 400 384 253 173 98 106 67 75
3610.0 93 72 88 77 108 82 68 93 101 77
3650.0 105 90 91 83 78 97 99 93 96 116
3690.0 105 86 70 57 71 71 89 80 70 87
3730.0 72 108 64 111 106 56 53 78 71 77
3770.0 96 79 70 21 93 88 106 71 79 89
3810.0 79 93 34 81 70 80 80 45 56 72
3850.0 70 64 14 34 71 70 98 55 105 83
3890.0 94 42 55 56 27 71 79 65 45 20
3930.0 62 80 54 38 72 31 2 0 57 45
##END=
