##TITLE=Phenol, 2-(1-phenylethyl)-
##JCAMP-DX=4.24
##DATA TYPE=INFRARED SPECTRUM
##ORIGIN=Sadtler Research Labs Under US-EPA Contract
##OWNER=NIST Standard Reference Data Program
##CAS REGISTRY NO=4237-44-9
##MOLFORM=C 14 H 14 O
##XUNITS=1/CM
##YUNITS=ABSORBANCE
##XFACTOR=1.0
##YFACTOR=0.000072171
##DELTAX=4.0
##FIRSTX=450.0
##LASTX=3966.0
##FIRSTY=0.032549
##MAXX=3966
##MINX=450
##MAXY=0.72171
##MINY=0
##NPOINTS=880
##XYDATA=(X++(Y..Y))
450.0 451 405 433 205 308 366 454 544 510 581
490.0 655 677 631 741 694 706 723 718 619 608
530.0 657 699 786 796 824 907 905 787 559 355
570.0 247 217 212 388 580 671 553 359 187 161
610.0 152 210 274 336 373 378 307 170 95 55
650.0 40 81 92 185 164 404 530 673 1037 1622
690.0 2812 4147 5368 5224 4366 3215 2447 1980 1621 1501
730.0 1629 2322 3919 6664 9134 10000 8112 5442 3362 2268
770.0 1784 1546 1467 1439 1346 1131 857 607 466 370
810.0 311 269 251 296 406 613 943 1278 1435 1332
850.0 1002 626 347 170 76 45 13 13 9 6
890.0 26 54 96 146 197 185 148 108 120 184
930.0 256 269 194 112 57 33 26 49 77 115
970.0 162 235 323 363 352 292 251 235 258 291
1010.0 370 564 1110 2119 2863 2980 2448 1778 1557 1512
1050.0 1433 1314 1181 1057 946 880 859 909 974 1124
1090.0 1380 1716 2066 2317 2368 2182 1789 1349 1004 801
1130.0 716 732 876 1185 1638 2107 2366 2433 2552 2944
1170.0 3577 4122 4495 4869 5427 6024 6438 6616 6479 6028
1210.0 5219 4255 3335 2652 2251 2125 2247 2563 2993 3436
1250.0 3817 3931 3782 3481 3270 3227 3228 3125 2901 2600
1290.0 2241 1894 1629 1511 1544 1781 2223 2735 3073 3053
1330.0 2679 2127 1597 1158 839 645 538 500 521 601
1370.0 770 1050 1272 1322 1110 814 585 471 417 427
1410.0 448 491 575 615 689 792 1036 1458 2297 3483
1450.0 4944 5887 6075 5261 4124 3205 2899 3316 4398 5924
1490.0 7160 7678 6825 5242 3543 2248 1549 1097 859 665
1530.0 608 533 533 486 500 478 540 599 723 852
1570.0 1115 1445 1928 2394 2726 2902 2899 2902 2885 2813
1610.0 2532 2048 1522 1021 686 461 399 333 310 304
1650.0 294 282 309 278 332 378 422 419 431 372
1690.0 319 279 280 274 270 256 246 253 217 213
1730.0 240 277 272 290 286 284 287 276 297 308
1770.0 349 349 375 405 469 481 518 498 483 424
1810.0 370 329 296 262 212 178 140 145 137 173
1850.0 186 221 260 302 327 350 360 378 428 465
1890.0 491 465 405 315 240 202 198 237 308 371
1930.0 422 426 407 380 359 329 304 259 207 148
1970.0 109 81 65 63 59 53 47 42 35 38
2010.0 35 40 39 43 45 51 53 55 54 55
2050.0 52 48 44 40 39 42 39 44 48 48
2090.0 49 49 45 42 31 27 26 24 21 16
2130.0 14 13 11 9 11 6 5 4 6 6
2170.0 7 6 4 5 5 10 6 9 10 9
2210.0 7 7 11 8 11 14 15 17 23 23
2250.0 28 28 35 35 35 31 30 36 37 41
2290.0 39 49 51 65 75 101 101 105 92 61
2330.0 61 64 74 31 150 59 100 56 35 38
2370.0 68 67 88 86 78 69 73 73 76 78
2410.0 83 91 98 111 114 124 124 126 124 118
2450.0 117 115 107 98 95 88 91 95 99 98
2490.0 106 107 111 108 106 101 88 81 77 74
2530.0 68 64 60 52 49 48 46 40 46 41
2570.0 47 49 49 51 50 56 58 59 64 69
2610.0 68 65 61 67 71 78 87 83 84 80
2650.0 83 73 72 70 64 59 45 41 34 36
2690.0 30 33 28 28 26 30 35 38 40 48
2730.0 59 66 71 73 67 56 49 41 40 47
2770.0 48 57 61 63 65 71 70 69 69 73
2810.0 71 86 95 110 133 155 177 195 206 216
2850.0 242 283 354 450 593 790 1077 1441 1810 2042
2890.0 2031 1801 1481 1224 1084 1064 1108 1139 1161 1221
2930.0 1391 1693 2069 2339 2313 2047 1734 1596 1775 2406
2970.0 3650 5593 6969 6529 4565 2463 1361 975 907 989
3010.0 1153 1421 1857 2511 3325 4092 4467 4380 3983 3554
3050.0 3307 3207 3309 3848 4971 6071 6335 5711 4626 3819
3090.0 3316 2748 2151 1664 1347 1123 909 697 504 356
3130.0 264 212 175 154 146 142 145 153 161 148
3170.0 135 112 93 81 81 73 63 62 62 57
3210.0 58 55 48 54 51 47 43 44 44 42
3250.0 40 42 43 41 37 42 40 30 29 25
3290.0 24 21 19 7 5 12 8 18 14 12
3330.0 24 26 32 31 33 44 46 52 54 61
3370.0 63 67 66 66 58 57 50 55 49 46
3410.0 40 39 31 31 30 36 27 33 28 26
3450.0 21 36 25 23 29 36 37 39 37 32
3490.0 44 68 79 88 110 137 166 195 238 270
3530.0 370 475 587 739 868 1011 1254 1551 2093 2787
3570.0 3410 3886 4154 4508 4797 4869 4578 3785 2963 2131
3610.0 1548 1090 864 747 709 764 992 1444 2273 3293
3650.0 4020 3789 2782 1545 749 435 239 243 159 178
3690.0 78 105 69 54 54 29 4 48 8 3
3730.0 4 4 4 5 34 3 4 4 4 4
3770.0 4 28 2 21 7 29 22 44 5 60
3810.0 3 65 5 21 15 21 25 21 12 24
3850.0 75 0 50 61 37 53 36 76 10 78
3890.0 15 85 43 64 18 96 79 77 64 38
3930.0 77 45 50 24 62 28 37 27 31 27
##END=
