##TITLE=Benzenepropanol, 4-hydroxy-.alpha.,.alpha.-dimethyl-
##JCAMP-DX=4.24
##DATA TYPE=INFRARED SPECTRUM
##ORIGIN=Sadtler Research Labs Under US-EPA Contract
##OWNER=NIST Standard Reference Data Program
##CAS REGISTRY NO=4237-73-4
##MOLFORM=C 11 H 16 O 2
##XUNITS=1/CM
##YUNITS=ABSORBANCE
##XFACTOR=1.0
##YFACTOR=0.000042450
##DELTAX=4.0
##FIRSTX=450.0
##LASTX=3966.0
##FIRSTY=0.065203
##MAXX=3966
##MINX=450
##MAXY=0.4245
##MINY=0
##NPOINTS=880
##XYDATA=(X++(Y..Y))
450.0 1536 608 766 597 908 759 869 808 718 631
490.0 802 660 661 940 827 839 1089 905 874 994
530.0 790 740 848 543 806 780 696 891 765 658
570.0 462 365 215 325 352 24 134 109 151 262
610.0 181 38 168 77 121 152 187 117 135 221
650.0 166 198 196 57 257 215 300 149 147 204
690.0 256 404 267 223 279 159 277 271 372 312
730.0 308 397 301 168 822 859 396 497 417 490
770.0 477 485 513 577 771 775 892 1327 1563 1790
810.0 1932 2036 2229 2162 2054 1822 1630 1443 1241 1079
850.0 864 791 768 713 724 539 570 576 714 960
890.0 1094 1100 1022 847 891 881 849 850 768 785
930.0 716 623 529 469 437 399 342 305 258 360
970.0 321 257 250 271 331 347 274 324 225 483
1010.0 664 704 805 659 683 659 778 764 635 526
1050.0 612 651 721 615 646 767 936 1026 1207 1529
1090.0 1599 1727 1706 1617 1446 1372 1335 1338 1364 1317
1130.0 1192 1142 1162 1330 1515 1758 2196 2843 4163 6718
1170.0 8976 10000 8920 6814 5196 4177 3435 2861 2403 2139
1210.0 1885 1766 1718 1648 1656 1665 1597 1753 2115 3064
1250.0 4620 6000 6082 4966 3019 1735 1260 1022 951 889
1290.0 780 753 785 754 763 867 985 1099 1301 1554
1330.0 1637 1798 1549 1259 990 821 729 790 931 1082
1370.0 1021 1227 1296 1197 1234 983 793 610 446 468
1410.0 368 526 479 831 886 1136 1346 1396 1312 1064
1450.0 1056 894 1047 859 864 737 638 651 630 553
1490.0 611 860 1319 2290 4110 6988 8188 7419 4734 2302
1530.0 996 777 428 430 347 242 321 198 367 203
1570.0 240 395 369 526 640 921 1179 1273 1375 1320
1610.0 1462 1541 1558 1377 907 798 562 480 534 482
1650.0 481 549 327 303 227 329 133 241 36 177
1690.0 131 92 191 215 129 121 109 115 203 143
1730.0 182 116 181 122 111 184 172 187 182 209
1770.0 148 129 64 105 107 174 80 113 43 148
1810.0 68 74 119 30 144 30 69 67 120 76
1850.0 158 127 179 149 161 119 136 159 105 103
1890.0 66 92 102 68 61 46 96 16 60 46
1930.0 52 65 46 84 40 46 63 50 48 22
1970.0 41 31 43 45 38 53 47 62 43 53
2010.0 61 64 77 58 62 52 55 41 25 32
2050.0 41 38 31 48 56 60 56 58 53 59
2090.0 59 57 61 51 45 36 39 36 19 30
2130.0 27 25 29 22 28 12 30 24 25 20
2170.0 34 15 24 32 29 26 13 17 21 18
2210.0 19 34 30 24 28 30 29 20 22 30
2250.0 54 35 47 37 48 51 58 60 68 65
2290.0 73 72 78 74 84 93 87 80 93 118
2330.0 85 100 66 87 83 134 136 138 56 52
2370.0 23 12 60 68 70 69 58 66 78 81
2410.0 99 112 122 162 175 174 161 135 111 103
2450.0 90 93 72 78 79 71 78 83 82 91
2490.0 94 100 101 106 115 119 105 91 96 87
2530.0 75 79 80 80 74 71 81 72 78 88
2570.0 82 85 74 81 87 89 98 100 92 106
2610.0 113 111 104 100 97 100 100 96 103 102
2650.0 102 101 99 105 107 110 114 114 119 133
2690.0 126 123 122 128 129 130 136 132 142 148
2730.0 157 167 175 181 178 169 170 172 177 173
2770.0 170 171 168 162 173 181 190 195 212 217
2810.0 222 242 265 288 311 346 395 449 519 615
2850.0 738 872 998 1129 1246 1311 1335 1301 1275 1270
2890.0 1282 1354 1449 1551 1688 1854 2060 2285 2542 2775
2930.0 2929 3006 3062 3059 2944 2723 2486 2308 2269 2447
2970.0 2803 3207 3424 3271 2735 2100 1640 1349 1252 1288
3010.0 1436 1625 1669 1606 1556 1556 1603 1567 1439 1242
3050.0 1071 972 893 890 894 903 913 980 963 868
3090.0 706 580 505 450 393 393 373 339 315 317
3130.0 272 270 255 224 219 200 185 192 177 177
3170.0 160 161 177 192 204 169 168 167 161 189
3210.0 157 150 190 176 145 152 156 164 141 158
3250.0 153 148 148 138 142 154 139 137 141 145
3290.0 150 141 138 142 121 127 143 123 114 133
3330.0 107 132 184 148 151 161 180 174 164 171
3370.0 172 155 157 186 179 135 155 159 147 164
3410.0 150 147 138 125 145 146 157 143 122 128
3450.0 102 103 115 114 100 87 84 97 94 126
3490.0 108 107 122 120 84 98 86 88 119 119
3530.0 64 105 46 101 78 94 75 103 91 108
3570.0 113 86 16 103 24 153 48 87 92 152
3610.0 176 178 275 259 394 431 663 888 1440 2282
3650.0 3595 4228 3809 2427 1130 527 293 215 116 122
3690.0 35 110 13 78 19 16 20 43 20 20
3730.0 42 69 73 4 155 0 31 10 10 10
3770.0 10 10 9 24 10 9 13 16 42 25
3810.0 60 24 11 32 11 24 19 23 32 50
3850.0 30 18 44 62 84 91 50 106 63 112
3890.0 69 80 13 126 154 109 137 160 87 157
3930.0 91 15 79 155 133 139 140 156 140 263
##END=
