##TITLE=1H-Imidazole, 1-(phenylmethyl)-
##JCAMP-DX=4.24
##DATA TYPE=INFRARED SPECTRUM
##ORIGIN=Sadtler Research Labs Under US-EPA Contract
##OWNER=NIST Standard Reference Data Program
##CAS REGISTRY NO=4238-71-5
##MOLFORM=C 10 H 10 N 2
##XUNITS=1/CM
##YUNITS=ABSORBANCE
##XFACTOR=1.0
##YFACTOR=0.000047745
##DELTAX=4.0
##FIRSTX=450.0
##LASTX=3966.0
##FIRSTY=0.023299
##MAXX=3966
##MINX=450
##MAXY=0.47745
##MINY=0
##NPOINTS=880
##XYDATA=(X++(Y..Y))
450.0 488 389 592 567 470 388 312 209 202 176
490.0 137 53 10 52 20 89 73 36 32 1
530.0 23 27 64 18 34 21 42 39 92 84
570.0 85 175 162 167 117 101 42 85 159 302
610.0 550 803 1028 1149 1032 859 691 558 688 1010
650.0 1636 2314 2726 2523 2203 1659 1483 1556 1893 2475
690.0 3359 4178 5271 6180 7500 8432 9472 10000 9288 8129
730.0 6236 4413 3092 2387 1831 1451 1218 1018 909 803
770.0 745 707 659 688 781 1087 1526 2330 3347 3839
810.0 3849 3209 2140 1412 953 642 507 428 431 434
850.0 429 402 378 286 218 213 201 236 249 351
890.0 628 1230 1606 1694 1597 919 497 381 258 221
930.0 158 146 120 131 160 160 124 143 159 151
970.0 155 146 155 142 165 185 240 356 428 493
1010.0 604 927 1781 3088 3825 3807 2917 1553 798 561
1050.0 543 650 924 1512 3153 4863 5143 4742 3103 1311
1090.0 903 918 1151 1482 1815 1875 1632 1307 945 652
1130.0 421 291 212 168 142 143 172 191 243 302
1170.0 386 489 606 709 777 843 870 894 952 1009
1210.0 1134 1519 2269 3563 5074 5948 5737 4489 2850 1578
1250.0 942 717 699 817 1204 1993 3187 4241 4561 4218
1290.0 3141 2038 1393 1077 888 746 662 647 701 804
1330.0 916 1016 1180 1387 1752 2274 2788 3099 3096 2887
1370.0 2541 2259 1995 1749 1540 1289 1096 922 796 731
1410.0 722 716 825 882 1002 1182 1514 2028 2812 3629
1450.0 4056 4076 3499 2554 1988 1599 1575 1669 2225 3197
1490.0 4891 6929 8315 9061 8042 5881 4135 2421 1665 1263
1530.0 1135 953 861 743 609 550 543 656 789 1002
1570.0 1177 1185 1074 825 661 623 702 847 1030 1189
1610.0 1194 1071 865 629 486 357 310 282 245 315
1650.0 389 478 439 369 303 240 214 215 259 358
1690.0 424 528 579 550 410 259 225 229 190 176
1730.0 209 234 220 197 202 202 192 158 152 137
1770.0 157 168 148 186 198 278 351 413 412 361
1810.0 255 196 149 120 129 106 105 76 111 129
1850.0 132 136 172 181 199 222 197 200 193 184
1890.0 159 128 107 95 93 91 99 112 125 145
1930.0 169 203 237 281 294 299 294 298 263 218
1970.0 161 102 66 53 52 51 53 43 44 41
2010.0 40 38 36 36 32 38 43 51 54 58
2050.0 54 55 51 49 58 61 64 61 54 37
2090.0 33 31 25 28 22 23 24 24 25 32
2130.0 38 50 55 60 55 54 55 43 44 40
2170.0 34 34 36 36 33 39 35 38 41 50
2210.0 50 52 49 48 41 34 36 33 37 44
2250.0 43 54 61 68 71 77 83 100 112 129
2290.0 154 188 216 247 261 280 270 238 225 193
2330.0 161 166 149 186 238 243 251 205 200 164
2370.0 158 164 199 212 153 88 62 55 49 46
2410.0 46 49 54 53 46 48 37 35 35 37
2450.0 52 58 64 64 58 49 39 35 37 35
2490.0 38 32 38 41 45 56 61 65 61 64
2530.0 58 63 61 64 63 69 81 87 96 101
2570.0 92 86 72 61 48 42 44 33 41 49
2610.0 57 55 44 28 17 13 14 14 8 9
2650.0 6 7 8 5 7 17 18 13 28 39
2690.0 40 51 48 45 44 30 38 33 46 50
2730.0 46 40 39 39 41 49 51 63 67 85
2770.0 91 97 97 89 83 77 83 75 69 54
2810.0 55 46 46 40 53 65 89 108 140 177
2850.0 214 261 323 391 464 536 584 597 597 569
2890.0 550 526 526 542 589 676 812 997 1218 1471
2930.0 1702 1894 1982 2006 1972 1896 1770 1585 1368 1120
2970.0 896 705 563 466 396 355 324 327 355 417
3010.0 513 655 855 1135 1509 1961 2384 2634 2642 2403
3050.0 2006 1679 1564 1697 2073 2609 2958 2962 2684 2184
3090.0 1746 1551 1446 1378 1342 1336 1341 1319 1201 1009
3130.0 813 638 547 513 485 423 353 264 199 166
3170.0 152 132 126 121 95 102 92 80 84 83
3210.0 84 85 83 76 71 73 74 74 71 66
3250.0 71 68 64 56 62 56 67 62 47 53
3290.0 54 57 55 54 51 40 42 43 39 28
3330.0 33 39 45 35 37 39 21 12 32 32
3370.0 39 20 28 20 26 31 39 29 24 44
3410.0 34 37 26 22 24 21 37 33 34 26
3450.0 28 19 23 20 12 26 25 28 7 27
3490.0 37 34 21 37 33 20 29 11 19 21
3530.0 22 14 15 25 19 21 15 21 12 49
3570.0 27 22 19 16 50 45 43 19 35 5
3610.0 28 15 25 29 29 46 44 27 45 42
3650.0 61 42 30 34 17 48 28 31 1 23
3690.0 14 16 22 11 21 2 15 4 19 20
3730.0 31 30 35 14 30 3 15 2 2 2
3770.0 2 2 2 2 2 2 2 2 2 2
3810.0 2 2 2 2 2 2 2 5 2 2
3850.0 6 7 4 2 2 29 2 3 49 21
3890.0 5 20 0 49 7 17 2 19 2 2
3930.0 7 2 2 2 20 9 23 5 2 4
##END=
