##TITLE=Disulfide, bis(1-methylethyl)
##JCAMP-DX=4.24
##DATA TYPE=INFRARED SPECTRUM
##ORIGIN=Sadtler Research Labs Under US-EPA Contract
##OWNER=NIST Standard Reference Data Program
##CAS REGISTRY NO=4253-89-8
##MOLFORM=C 6 H 14 S 2
##XUNITS=1/CM
##YUNITS=ABSORBANCE
##XFACTOR=1.0
##YFACTOR=0.000058936
##DELTAX=4.0
##FIRSTX=450.0
##LASTX=3966.0
##FIRSTY=0.010491
##MAXX=3966
##MINX=450
##MAXY=0.58936
##MINY=0
##NPOINTS=880
##XYDATA=(X++(Y..Y))
450.0 178 156 90 21 21 13 61 103 91 106
490.0 67 43 81 79 96 45 27 45 18 21
530.0 28 62 94 90 39 50 79 43 84 55
570.0 45 87 90 105 118 93 112 111 119 139
610.0 160 143 186 172 150 161 95 113 115 112
650.0 110 92 108 97 98 98 55 117 150 99
690.0 88 92 70 97 99 122 86 102 78 83
730.0 91 112 128 60 70 73 89 62 79 105
770.0 84 84 74 87 103 81 79 59 84 83
810.0 75 94 80 91 113 81 81 83 79 84
850.0 109 116 113 131 164 191 194 191 172 138
890.0 127 113 116 121 117 129 150 182 236 252
930.0 260 245 212 176 150 142 151 117 121 137
970.0 124 110 110 124 134 75 83 82 83 92
1010.0 73 103 117 148 195 288 511 871 1325 1577
1050.0 1584 1399 944 526 334 247 202 170 166 148
1090.0 152 193 227 254 296 308 290 265 280 326
1130.0 401 529 722 985 1366 1717 1915 1871 1598 1127
1170.0 692 420 282 239 204 188 218 237 296 347
1210.0 442 610 962 1403 1987 2511 2859 3026 2915 2587
1250.0 2145 1694 1266 806 519 375 310 292 265 254
1290.0 266 280 289 320 365 403 413 362 300 233
1330.0 207 201 194 201 264 350 505 775 1121 1485
1370.0 1719 1815 1794 1694 1534 1255 958 632 479 430
1410.0 411 391 397 406 448 526 667 894 1178 1441
1450.0 1648 1782 1804 1765 1683 1551 1357 1106 846 632
1490.0 478 387 311 251 250 172 157 136 138 119
1530.0 101 108 118 113 75 79 96 112 98 90
1570.0 100 94 102 91 90 89 89 89 97 88
1610.0 97 99 125 102 107 105 110 122 120 129
1650.0 138 171 129 140 134 151 139 131 123 154
1690.0 118 126 136 118 101 89 83 91 75 71
1730.0 61 73 60 50 40 41 40 40 41 39
1770.0 41 54 39 39 38 40 41 39 38 54
1810.0 46 48 45 45 46 46 35 47 36 36
1850.0 37 37 35 36 36 35 35 35 35 35
1890.0 35 35 35 33 33 33 34 33 33 33
1930.0 33 33 33 34 27 31 26 30 23 22
1970.0 30 23 30 30 30 30 30 30 29 29
2010.0 29 29 29 29 29 29 29 28 18 28
2050.0 23 24 25 18 18 18 18 17 17 17
2090.0 17 18 15 22 12 17 16 15 17 16
2130.0 15 15 15 15 5 12 16 19 14 14
2170.0 21 13 13 22 22 13 13 20 20 20
2210.0 21 21 19 19 28 27 35 43 43 60
2250.0 60 52 54 51 42 42 51 51 51 58
2290.0 67 66 58 58 48 58 58 64 68 73
2330.0 79 87 83 89 90 73 81 98 130 117
2370.0 102 89 72 49 32 19 22 21 20 19
2410.0 19 19 19 28 25 19 20 16 10 9
2450.0 19 17 17 25 34 34 36 41 42 32
2490.0 32 32 26 25 15 16 15 16 14 9
2530.0 17 23 24 24 30 23 27 25 25 18
2570.0 26 27 27 28 34 35 45 49 57 69
2610.0 79 78 71 70 54 45 29 31 30 30
2650.0 25 26 33 23 23 23 25 25 32 33
2690.0 33 33 43 43 46 58 83 115 144 161
2730.0 162 153 134 110 104 109 118 140 139 133
2770.0 123 106 88 81 89 98 108 125 153 179
2810.0 202 215 223 225 227 234 259 285 329 382
2850.0 463 600 824 1257 1919 2716 3293 3472 3278 2810
2890.0 2387 2204 2243 2414 2655 2941 3300 3736 4311 4998
2930.0 5706 5982 5635 4891 3954 3383 3672 4988 7049 8794
2970.0 10000 9841 8540 6848 5098 3570 2215 1365 921 683
3010.0 564 482 417 363 306 250 213 184 169 149
3050.0 141 124 123 116 114 108 105 103 107 118
3090.0 118 108 119 119 109 101 103 109 109 113
3130.0 115 124 123 128 127 121 123 139 130 140
3170.0 149 158 163 155 149 154 145 143 133 123
3210.0 127 118 109 100 84 82 72 68 60 61
3250.0 62 52 52 54 53 46 53 54 54 52
3290.0 56 56 56 56 62 56 56 56 56 49
3330.0 57 57 42 33 33 34 34 34 34 28
3370.0 43 43 43 45 45 62 55 50 47 41
3410.0 32 35 22 26 27 32 22 31 23 39
3450.0 32 17 21 19 24 26 17 16 18 26
3490.0 17 26 19 8 14 22 28 24 20 3
3530.0 17 12 14 12 4 23 30 29 20 22
3570.0 13 33 28 33 24 24 33 24 26 34
3610.0 25 25 35 34 45 40 29 27 36 28
3650.0 36 36 37 37 37 49 54 65 54 61
3690.0 65 49 54 48 49 65 57 57 68 57
3730.0 65 61 57 83 84 84 85 85 86 85
3770.0 85 83 88 87 91 86 92 94 114 97
3810.0 97 105 113 114 113 124 124 124 113 124
3850.0 124 142 123 117 117 126 126 126 117 119
3890.0 118 118 129 120 110 120 119 113 103 96
3930.0 104 113 123 111 97 96 0 6 6 7
##END=
