##TITLE=Cyclohexane-1,1-bis(3-thiopropionic acid)-,
##JCAMP-DX=4.24
##DATA TYPE=INFRARED SPECTRUM
##ORIGIN=Sadtler Research Labs Under US-EPA Contract
##OWNER=NIST Standard Reference Data Program
##CAS REGISTRY NO=4265-55-8
##MOLFORM=C 12 H 20 O 4 S 2
##XUNITS=1/CM
##YUNITS=ABSORBANCE
##XFACTOR=1.0
##YFACTOR=0.000107831
##DELTAX=4.0
##FIRSTX=450.0
##LASTX=3966.0
##FIRSTY=0.010460
##MAXX=3966
##MINX=450
##MAXY=1.07831
##MINY=0
##NPOINTS=880
##XYDATA=(X++(Y..Y))
450.0 97 112 160 164 143 165 226 257 287 362
490.0 396 432 427 504 529 555 632 648 630 646
530.0 669 722 764 834 900 918 1000 999 1054 1080
570.0 1130 1171 1246 1272 1315 1392 1449 1558 1620 1734
610.0 1779 1846 1770 1754 1649 1485 1295 1138 1018 886
650.0 822 719 682 602 603 526 470 448 411 372
690.0 338 318 290 256 216 188 156 165 190 241
730.0 273 259 216 162 133 135 142 138 143 152
770.0 155 174 199 211 209 193 175 152 130 94
810.0 68 34 16 13 38 54 90 130 144 121
850.0 77 22 4 4 0 12 30 38 34 54
890.0 69 94 123 154 187 236 266 287 291 266
930.0 247 232 221 215 200 186 174 161 160 181
970.0 204 239 264 274 285 283 283 296 334 389
1010.0 472 579 672 719 735 720 697 679 663 665
1050.0 676 691 697 704 727 798 920 1058 1227 1452
1090.0 1771 2224 2843 3701 4790 5990 6934 7404 7289 6811
1130.0 6141 5374 4509 3697 3059 2603 2279 2066 1953 1931
1170.0 1969 2010 2046 2064 2042 1988 1923 1846 1736 1624
1210.0 1513 1421 1348 1301 1270 1244 1228 1210 1176 1109
1250.0 1049 1005 996 1010 1015 996 960 916 863 794
1290.0 737 691 654 627 607 603 624 656 713 795
1330.0 913 1034 1102 1125 1119 1131 1206 1317 1456 1624
1370.0 1782 1930 1974 1922 1749 1529 1299 1105 953 851
1410.0 809 813 868 919 978 1043 1111 1113 1026 918
1450.0 779 655 534 421 305 231 158 109 71 52
1490.0 39 63 139 146 101 74 54 28 33 15
1530.0 16 0 14 3 7 4 5 0 12 8
1570.0 12 9 20 23 25 44 53 70 83 99
1610.0 112 122 141 150 173 171 183 150 140 123
1650.0 127 129 152 148 178 204 229 264 291 333
1690.0 374 425 487 573 690 819 964 1092 1237 1360
1730.0 1555 1783 2067 2379 2778 3225 3805 4545 5444 6591
1770.0 7801 9116 9758 10000 9304 8112 6489 5171 3978 3049
1810.0 2316 1749 1317 993 760 582 461 365 303 250
1850.0 217 191 170 157 145 135 130 123 118 113
1890.0 110 106 102 96 92 86 81 78 77 71
1930.0 77 74 78 70 75 74 74 75 72 72
1970.0 72 75 74 72 75 73 73 75 74 71
2010.0 67 66 64 65 62 61 60 63 63 64
2050.0 63 60 58 56 51 57 54 53 47 43
2090.0 40 40 42 39 42 38 40 41 39 40
2130.0 37 37 39 38 37 38 36 38 40 38
2170.0 39 41 42 44 44 42 44 41 44 47
2210.0 49 47 49 49 49 50 49 49 46 48
2250.0 44 41 40 37 35 38 38 39 41 45
2290.0 49 55 60 67 67 73 67 61 65 59
2330.0 55 50 47 47 63 66 68 54 50 43
2370.0 47 45 49 52 40 25 16 17 16 19
2410.0 16 15 15 14 13 10 8 7 7 5
2450.0 9 9 14 11 12 10 11 11 8 9
2490.0 11 11 12 10 8 11 10 9 9 7
2530.0 5 1 0 3 3 4 4 4 4 6
2570.0 9 14 15 19 23 27 29 30 30 30
2610.0 26 21 19 21 20 24 26 30 33 36
2650.0 40 45 51 55 55 54 52 50 44 41
2690.0 37 30 28 26 23 19 19 16 15 14
2730.0 16 14 18 15 18 21 22 26 27 33
2770.0 34 43 46 53 58 64 73 84 94 103
2810.0 120 135 155 186 234 312 434 609 837 1051
2850.0 1143 1139 1082 1119 1259 1340 1315 1184 1067 1040
2890.0 1066 1098 1125 1168 1250 1383 1630 1982 2376 2816
2930.0 3264 3707 4144 4695 5032 4543 3575 2311 1464 1118
2970.0 902 777 684 611 543 484 429 377 344 309
3010.0 294 289 295 310 354 392 406 399 361 314
3050.0 264 222 189 170 156 142 132 123 116 112
3090.0 107 103 104 99 100 95 97 95 95 93
3130.0 90 91 85 92 86 87 89 89 87 87
3170.0 87 89 87 86 89 87 92 89 91 92
3210.0 89 94 97 94 92 98 95 94 94 93
3250.0 90 92 94 90 86 87 90 91 91 86
3290.0 89 85 87 89 83 82 82 82 85 84
3330.0 87 90 90 80 85 82 83 84 85 84
3370.0 83 79 82 80 76 75 73 75 77 71
3410.0 70 73 73 64 69 62 61 64 58 61
3450.0 54 55 54 53 51 48 44 42 57 52
3490.0 47 50 51 63 65 66 80 81 100 124
3530.0 119 145 166 187 239 282 398 642 1167 2112
3570.0 3266 3882 3872 3319 2308 1303 716 406 266 175
3610.0 151 93 75 64 53 72 40 23 30 30
3650.0 40 21 9 17 4 30 18 16 1 7
3690.0 19 5 8 10 0 9 14 6 15 22
3730.0 17 27 34 15 57 17 17 9 2 5
3770.0 6 5 0 2 1 5 0 19 8 12
3810.0 0 0 11 8 5 0 2 16 19 3
3850.0 12 35 3 1 19 15 10 5 17 19
3890.0 3 7 6 35 18 1 0 6 12 4
3930.0 11 20 5 12 14 20 14 13 12 19
##END=
