##TITLE=Thiophene, tetrahydro-3,3,4-trichloro-, 1,1-dioxide
##JCAMP-DX=4.24
##DATA TYPE=INFRARED SPECTRUM
##ORIGIN=Sadtler Research Labs Under US-EPA Contract
##OWNER=NIST Standard Reference Data Program
##CAS REGISTRY NO=42829-14-1
##MOLFORM=C 4 H 5 Cl 3 O 2 S
##XUNITS=1/CM
##YUNITS=ABSORBANCE
##XFACTOR=1.0
##YFACTOR=0.000097971
##DELTAX=4.0
##FIRSTX=450.0
##LASTX=3966.0
##FIRSTY=0.039678
##MAXX=3966
##MINX=450
##MAXY=0.97971
##MINY=0
##NPOINTS=880
##XYDATA=(X++(Y..Y))
450.0 405 206 306 527 920 1291 1626 1645 1274 916
490.0 592 576 874 1002 880 643 523 436 362 376
530.0 402 392 679 1001 1037 845 479 226 122 122
570.0 82 106 49 105 327 468 596 759 726 654
610.0 470 301 147 117 43 89 53 31 171 107
650.0 288 362 497 600 570 490 559 697 587 569
690.0 393 335 464 432 480 326 265 247 299 408
730.0 490 730 1093 1229 1285 1040 796 546 348 308
770.0 214 165 147 163 172 192 275 307 310 232
810.0 231 155 137 125 106 127 124 157 247 397
850.0 554 712 769 805 990 1231 1564 1806 1876 1732
890.0 1528 1528 1738 2025 2157 1967 1820 1832 2100 2301
930.0 2231 1967 1530 1132 949 926 994 1072 897 731
970.0 539 441 452 458 371 307 166 96 68 54
1010.0 70 79 91 114 190 212 246 264 335 373
1050.0 376 318 297 259 222 243 203 197 159 187
1090.0 165 149 137 140 232 322 397 529 789 1348
1130.0 2440 4249 5995 6594 6128 4397 2883 2085 1736 1439
1170.0 1108 747 528 483 496 556 591 658 651 712
1210.0 956 1370 1819 2005 2072 2195 2961 3852 4251 3959
1250.0 2713 1455 862 708 748 910 1203 1538 1707 1652
1290.0 1474 1284 1161 1028 824 658 556 509 480 435
1330.0 463 529 689 1043 1588 2316 3516 5380 7581 10000
1370.0 9801 8194 5325 2575 1038 454 404 483 627 940
1410.0 1188 1423 1255 999 661 358 221 149 117 71
1450.0 86 113 85 108 76 86 61 63 38 42
1490.0 37 52 20 26 27 66 0 63 41 45
1530.0 16 33 66 49 52 23 68 60 115 46
1570.0 77 112 95 164 171 250 336 322 407 337
1610.0 296 232 175 133 70 96 46 70 57 20
1650.0 95 41 85 16 55 49 45 33 37 54
1690.0 37 33 46 74 30 31 20 34 31 3
1730.0 49 14 63 28 26 43 38 42 40 36
1770.0 41 53 26 32 26 37 25 45 12 30
1810.0 25 15 37 20 36 35 27 40 19 47
1850.0 23 34 30 18 36 20 39 28 40 31
1890.0 41 36 43 36 37 35 33 39 31 34
1930.0 34 38 35 34 34 35 31 40 29 38
1970.0 28 33 31 32 36 23 29 30 31 35
2010.0 35 33 31 31 35 31 32 36 34 34
2050.0 32 30 37 37 34 40 36 38 39 36
2090.0 35 36 36 40 37 38 36 38 39 40
2130.0 38 35 35 37 37 39 36 40 37 34
2170.0 31 35 35 35 36 36 35 39 40 39
2210.0 39 37 38 45 43 44 38 41 38 38
2250.0 39 41 45 46 55 69 72 78 79 75
2290.0 74 64 68 68 66 65 67 62 58 66
2330.0 46 49 61 23 80 41 77 42 64 29
2370.0 57 47 59 61 48 48 40 42 50 49
2410.0 49 51 55 54 51 53 57 54 59 48
2450.0 51 44 43 45 43 49 50 59 66 75
2490.0 82 94 104 107 97 82 66 52 47 41
2530.0 41 42 38 40 41 43 38 37 39 42
2570.0 41 44 49 47 44 50 50 51 43 44
2610.0 46 40 36 39 41 43 33 36 30 31
2650.0 46 45 46 36 31 33 30 50 39 28
2690.0 32 28 37 44 48 33 37 40 26 55
2730.0 58 45 31 31 19 40 61 25 34 29
2770.0 31 48 60 35 30 34 33 66 52 36
2810.0 32 38 37 72 37 29 38 35 49 51
2850.0 28 39 23 45 49 43 40 37 41 36
2890.0 33 43 34 47 52 49 40 36 57 58
2930.0 66 41 47 80 97 105 122 163 195 194
2970.0 157 127 120 117 96 60 91 103 92 73
3010.0 76 102 107 121 166 217 195 147 109 88
3050.0 58 52 58 58 55 63 63 62 55 65
3090.0 64 75 81 111 119 112 101 86 71 67
3130.0 48 54 52 52 63 53 54 48 51 46
3170.0 45 55 57 54 57 52 52 54 50 43
3210.0 46 58 58 50 57 59 54 52 66 62
3250.0 62 60 61 60 62 53 60 63 63 65
3290.0 60 65 73 65 66 65 74 67 67 67
3330.0 68 70 71 66 71 74 68 69 80 74
3370.0 71 75 77 82 74 74 80 86 88 77
3410.0 78 79 81 84 77 77 84 89 86 99
3450.0 86 80 81 86 76 76 80 74 84 85
3490.0 80 84 85 77 93 89 94 82 83 94
3530.0 91 81 75 80 95 94 95 89 85 100
3570.0 102 92 105 76 122 80 103 70 98 54
3610.0 94 86 77 111 72 127 85 81 72 125
3650.0 79 151 17 119 51 128 93 127 98 61
3690.0 147 67 99 82 91 110 128 86 114 95
3730.0 114 153 132 149 122 199 96 141 106 132
3770.0 111 118 95 120 113 112 107 142 85 181
3810.0 58 147 110 196 101 111 146 154 106 138
3850.0 151 173 182 85 156 123 130 132 109 164
3890.0 134 134 187 116 127 140 107 116 142 138
3930.0 122 139 162 133 118 141 151 181 183 121
##END=
