##TITLE=Cyclohexane, pentyl-
##JCAMP-DX=4.24
##DATA TYPE=INFRARED SPECTRUM
##ORIGIN=Sadtler Research Labs Under US-EPA Contract
##OWNER=NIST Standard Reference Data Program
##CAS REGISTRY NO=4292-92-6
##MOLFORM=C 11 H 22
##XUNITS=1/CM
##YUNITS=ABSORBANCE
##XFACTOR=1.0
##YFACTOR=0.000084378
##DELTAX=4.0
##FIRSTX=450.0
##LASTX=3966.0
##FIRSTY=0.002700
##MAXX=3966
##MINX=450
##MAXY=0.84378
##MINY=0
##NPOINTS=880
##XYDATA=(X++(Y..Y))
450.0 32 26 31 29 35 40 31 47 52 41
490.0 46 26 33 45 32 39 43 34 43 41
530.0 42 0 70 52 48 48 8 34 57 35
570.0 53 29 37 45 46 30 36 37 40 35
610.0 41 33 39 40 38 39 37 40 42 38
650.0 36 35 34 41 29 38 32 35 39 49
690.0 37 45 45 50 51 63 84 91 92 92
730.0 80 74 68 58 51 51 58 61 57 65
770.0 53 51 51 63 41 35 45 38 43 38
810.0 36 41 45 50 62 63 75 98 96 86
850.0 62 54 51 46 59 76 84 95 118 131
890.0 141 135 115 100 87 79 70 68 61 57
930.0 56 49 56 56 56 62 68 84 86 89
970.0 84 77 68 63 55 54 50 49 50 49
1010.0 59 57 63 66 72 67 72 65 61 59
1050.0 53 53 53 53 60 62 65 66 69 61
1090.0 64 59 59 58 58 64 60 58 57 49
1130.0 49 47 46 54 51 52 52 51 52 52
1170.0 47 51 56 53 55 58 62 64 62 58
1210.0 58 51 52 55 57 59 62 65 69 71
1250.0 84 93 118 135 142 140 123 111 103 95
1290.0 88 89 89 89 89 89 87 79 88 89
1330.0 93 106 118 139 166 174 164 146 134 124
1370.0 125 133 154 161 156 134 108 86 80 79
1410.0 77 82 77 87 86 108 138 227 337 497
1450.0 644 739 755 674 588 472 355 240 177 122
1490.0 91 77 68 58 59 43 41 45 44 38
1530.0 31 41 30 43 31 31 30 38 37 27
1570.0 36 30 42 27 33 29 31 27 30 28
1610.0 32 31 31 31 25 32 25 33 25 30
1650.0 17 42 23 28 23 32 24 34 21 34
1690.0 22 29 29 35 23 23 20 23 23 25
1730.0 26 31 26 26 28 19 20 20 26 23
1770.0 19 22 22 20 21 19 24 14 16 18
1810.0 17 22 17 16 21 19 15 18 14 17
1850.0 15 18 17 17 8 17 16 17 16 15
1890.0 21 13 18 20 15 15 15 20 18 20
1930.0 15 19 16 16 12 14 14 9 9 13
1970.0 14 14 14 14 14 11 12 13 13 17
2010.0 17 13 17 17 19 12 17 17 17 17
2050.0 14 19 16 10 15 10 11 16 16 16
2090.0 16 16 16 16 15 15 15 15 15 14
2130.0 21 21 19 19 20 20 16 19 18 25
2170.0 20 18 25 18 19 18 19 11 11 11
2210.0 11 11 11 11 11 11 16 17 16 16
2250.0 16 9 10 14 11 15 9 10 12 12
2290.0 12 11 10 14 13 12 15 20 22 23
2330.0 26 22 23 10 21 17 26 23 22 17
2370.0 9 8 9 11 13 19 21 21 21 22
2410.0 22 16 21 22 21 18 19 20 15 16
2450.0 16 16 15 17 21 17 18 21 24 29
2490.0 22 22 23 22 16 16 17 16 16 16
2530.0 24 19 15 23 23 23 22 22 22 29
2570.0 28 35 34 41 43 45 48 58 58 62
2610.0 63 63 63 63 63 63 70 68 72 81
2650.0 84 95 108 119 132 132 127 120 109 96
2690.0 91 89 85 85 81 77 82 81 76 82
2730.0 81 88 88 89 85 82 82 74 83 80
2770.0 80 86 92 103 116 134 153 169 180 188
2810.0 189 207 211 230 251 291 349 479 714 1100
2850.0 1657 2339 3138 3634 3555 3000 2333 1900 1677 1557
2890.0 1523 1554 1719 2026 2430 2959 3667 4600 5882 7532
2930.0 9142 10000 9255 7596 5559 3793 2521 1992 1905 2054
2970.0 2072 1789 1315 830 547 398 317 262 225 202
3010.0 178 161 149 136 125 116 99 95 83 77
3050.0 71 64 59 64 64 59 58 55 56 54
3090.0 50 48 46 42 42 36 35 29 35 30
3130.0 30 33 31 38 42 42 42 41 36 30
3170.0 30 35 36 35 35 33 29 25 35 31
3210.0 28 29 29 30 24 24 25 24 24 23
3250.0 23 26 28 24 23 18 18 29 11 17
3290.0 22 18 20 24 15 24 24 22 23 22
3330.0 29 29 21 26 25 27 23 22 18 23
3370.0 23 22 22 23 22 17 22 26 29 27
3410.0 26 23 26 28 24 11 23 22 15 20
3450.0 11 25 25 15 25 24 31 17 20 20
3490.0 22 21 27 25 20 19 12 19 16 14
3530.0 17 14 19 14 16 10 17 18 20 18
3570.0 17 24 22 16 19 20 18 20 18 24
3610.0 29 23 25 32 27 41 32 30 36 43
3650.0 48 42 42 33 37 35 27 40 33 39
3690.0 40 41 34 44 41 49 44 39 44 33
3730.0 50 50 37 49 60 53 45 39 45 34
3770.0 45 47 45 51 49 49 49 51 58 55
3810.0 55 62 58 60 61 57 58 57 53 56
3850.0 66 75 74 68 65 66 65 69 60 69
3890.0 70 72 76 76 69 61 63 59 57 55
3930.0 55 56 58 55 66 68 75 80 84 87
##END=
