##TITLE=1-Hexanol, 6-dipropylamino-,
##JCAMP-DX=4.24
##DATA TYPE=INFRARED SPECTRUM
##ORIGIN=Sadtler Research Labs Under US-EPA Contract
##OWNER=NIST Standard Reference Data Program
##CAS REGISTRY NO=43010-05-5
##MOLFORM=C 12 H 27 N O
##XUNITS=1/CM
##YUNITS=ABSORBANCE
##XFACTOR=1.0
##YFACTOR=0.000097687
##DELTAX=4.0
##FIRSTX=450.0
##LASTX=3966.0
##FIRSTY=0.000000
##MAXX=3966
##MINX=450
##MAXY=0.97687
##MINY=0
##NPOINTS=880
##XYDATA=(X++(Y..Y))
450.0 0 161 294 54 87 61 248 219 61 170
490.0 217 116 276 251 256 345 186 208 216 163
530.0 170 77 110 118 104 147 178 188 98 97
570.0 100 188 76 92 226 89 100 59 84 63
610.0 69 75 79 54 51 85 35 64 98 60
650.0 90 55 95 65 72 126 100 114 91 65
690.0 113 92 130 157 154 162 168 178 206 220
730.0 285 262 223 287 253 222 242 225 160 172
770.0 160 124 160 156 161 157 135 135 144 183
810.0 183 207 200 179 209 237 236 325 298 299
850.0 287 319 301 286 313 320 333 345 346 364
890.0 384 407 394 395 360 405 379 367 348 327
930.0 371 326 289 302 319 329 323 357 374 387
970.0 415 452 504 536 615 680 753 834 900 1000
1010.0 1114 1243 1369 1512 1607 1729 1781 1840 1929 1991
1050.0 2068 2138 2189 2276 2397 2614 2783 2756 2545 2228
1090.0 1918 1632 1358 1140 974 819 702 639 604 558
1130.0 554 527 506 521 510 504 499 518 525 528
1170.0 562 591 674 795 955 1087 1093 970 833 717
1210.0 666 632 609 591 590 607 591 576 578 588
1250.0 593 623 652 670 699 710 722 735 728 753
1290.0 760 773 787 775 750 709 679 642 633 621
1330.0 635 697 790 884 920 941 975 1014 1095 1141
1370.0 1175 1235 1331 1445 1421 1278 1065 812 669 534
1410.0 464 419 382 384 367 405 450 547 627 724
1450.0 874 1039 1302 1516 1625 1566 1390 1025 724 525
1490.0 353 305 237 202 208 190 164 149 152 130
1530.0 116 125 107 116 111 93 98 114 95 85
1570.0 75 73 75 62 64 65 71 64 64 67
1610.0 59 71 63 75 70 70 81 68 68 82
1650.0 71 104 56 66 56 70 58 73 58 81
1690.0 60 68 94 133 145 142 139 115 85 66
1730.0 62 80 71 71 73 76 73 69 74 75
1770.0 79 78 70 71 71 65 72 65 61 53
1810.0 43 49 41 42 52 41 45 35 44 47
1850.0 42 35 36 39 42 45 37 39 39 38
1890.0 39 45 41 39 45 44 47 40 49 42
1930.0 43 44 42 45 41 41 38 39 41 42
1970.0 44 41 41 41 41 41 41 40 46 46
2010.0 48 48 50 49 52 50 55 52 50 56
2050.0 56 56 54 56 52 52 49 46 45 45
2090.0 44 42 44 42 44 41 43 43 42 38
2130.0 36 42 41 41 43 42 45 46 44 42
2170.0 44 46 48 47 48 51 52 50 49 51
2210.0 46 49 49 47 45 47 48 48 45 50
2250.0 48 51 51 49 50 50 51 50 53 51
2290.0 47 46 43 48 50 40 45 46 47 55
2330.0 50 57 53 53 55 54 43 54 54 50
2370.0 58 59 60 59 65 65 68 68 68 66
2410.0 70 67 68 68 67 67 64 68 63 70
2450.0 66 66 69 67 73 70 70 73 67 70
2490.0 73 75 75 75 81 83 79 83 85 90
2530.0 97 100 104 107 106 111 117 122 116 118
2570.0 125 126 134 137 145 148 156 161 161 173
2610.0 177 181 192 196 208 218 222 237 249 256
2650.0 271 283 297 310 330 350 361 375 380 393
2690.0 406 425 453 478 514 555 601 656 698 747
2730.0 794 840 884 910 926 937 953 988 1040 1120
2770.0 1211 1305 1398 1508 1676 1926 2289 2747 3183 3391
2810.0 3306 3017 2677 2350 2073 1854 1700 1624 1614 1696
2850.0 1884 2206 2671 3233 3726 4043 4268 4545 4777 4671
2890.0 4246 3844 3724 3863 4131 4451 4769 5164 5655 6344
2930.0 7283 8405 9428 10000 9593 8513 7427 6924 7417 8011
2970.0 7628 6227 4730 3439 2419 1672 1216 962 801 693
3010.0 611 544 500 465 430 398 372 340 309 286
3050.0 262 242 223 207 199 185 185 173 166 163
3090.0 164 159 150 148 136 130 133 125 126 126
3130.0 122 120 121 114 114 114 115 114 106 104
3170.0 107 105 109 99 100 97 92 93 89 85
3210.0 77 76 72 67 74 72 74 69 63 65
3250.0 59 59 65 64 65 69 59 61 60 66
3290.0 56 60 66 70 60 63 65 58 68 62
3330.0 63 60 65 54 60 66 69 65 64 60
3370.0 64 67 64 60 63 65 73 61 68 71
3410.0 65 72 66 65 68 72 72 66 69 75
3450.0 59 67 66 71 65 75 74 72 71 67
3490.0 74 72 70 65 68 59 65 53 57 56
3530.0 56 70 51 53 70 51 66 38 57 49
3570.0 74 69 78 72 68 84 76 64 77 65
3610.0 75 74 87 99 86 116 109 143 174 180
3650.0 253 340 401 463 492 510 545 450 353 250
3690.0 180 164 112 118 100 95 111 82 88 62
3730.0 72 75 81 84 84 99 85 84 59 70
3770.0 76 63 86 76 77 72 70 101 84 77
3810.0 85 84 75 87 102 91 93 117 99 88
3850.0 66 92 94 110 84 93 116 75 81 128
3890.0 102 112 73 62 100 115 82 99 84 75
3930.0 82 72 62 73 114 68 125 94 91 82
##END=
