##TITLE=1,4-Cyclohexadiene, 1-methyl-
##JCAMP-DX=4.24
##DATA TYPE=INFRARED SPECTRUM
##ORIGIN=Sadtler Research Labs Under US-EPA Contract
##OWNER=NIST Standard Reference Data Program
##CAS REGISTRY NO=4313-57-9
##MOLFORM=C 7 H 10
##XUNITS=1/CM
##YUNITS=ABSORBANCE
##XFACTOR=1.0
##YFACTOR=0.000048608
##DELTAX=4.0
##FIRSTX=450.0
##LASTX=3966.0
##FIRSTY=0.000000
##MAXX=3966
##MINX=450
##MAXY=0.48608
##MINY=0
##NPOINTS=880
##XYDATA=(X++(Y..Y))
450.0 0 350 378 365 367 327 283 254 216 249
490.0 149 270 210 259 160 197 248 180 226 226
530.0 244 173 280 230 243 277 312 293 272 324
570.0 227 300 210 281 220 300 257 231 231 246
610.0 377 359 571 665 948 1180 1662 2142 2312 3095
650.0 4050 4001 3258 3678 4534 4142 3078 2329 2015 1669
690.0 1170 968 606 555 409 480 397 426 426 527
730.0 557 398 400 371 374 338 341 311 317 346
770.0 383 402 395 339 375 448 450 460 591 529
810.0 492 433 428 390 385 329 338 319 321 319
850.0 325 348 365 430 470 542 624 736 776 825
890.0 882 897 883 835 734 671 680 721 812 949
930.0 1231 1617 1903 2236 2666 3101 3850 3820 2739 2165
970.0 1937 1638 1302 1046 933 883 865 946 955 857
1010.0 866 954 860 688 555 469 408 370 352 340
1050.0 343 353 379 406 423 407 412 415 398 372
1090.0 338 313 297 293 282 280 279 283 287 293
1130.0 309 340 391 471 571 632 642 655 673 691
1170.0 606 471 397 372 369 369 368 365 359 350
1210.0 350 337 327 323 315 305 297 297 287 274
1250.0 271 268 265 280 284 296 305 319 328 336
1290.0 356 375 395 405 406 412 421 425 409 403
1330.0 411 430 441 470 464 487 496 502 507 553
1370.0 654 849 1028 1036 1144 1142 1107 1021 687 515
1410.0 505 597 767 1065 1306 1546 1779 1995 1974 2263
1450.0 2202 1714 1551 1580 1285 1099 803 688 569 496
1490.0 438 384 373 317 356 313 295 293 303 299
1530.0 272 298 286 315 261 288 263 305 300 300
1570.0 306 326 355 373 405 431 474 492 518 544
1610.0 573 590 625 646 674 720 755 831 877 948
1650.0 964 934 823 778 706 582 430 395 398 450
1690.0 439 453 470 436 414 347 303 269 274 265
1730.0 292 317 337 346 367 378 378 380 370 357
1770.0 336 315 282 274 262 252 252 256 263 273
1810.0 278 278 280 277 261 251 222 216 222 231
1850.0 233 232 243 253 261 266 277 273 274 271
1890.0 279 275 277 275 266 261 252 258 247 238
1930.0 231 220 214 210 213 208 206 208 207 203
1970.0 198 203 201 202 204 201 191 191 190 189
2010.0 183 181 177 175 180 176 173 173 171 168
2050.0 171 173 177 174 165 173 178 174 175 178
2090.0 174 177 175 173 170 164 172 168 171 173
2130.0 168 172 167 169 168 173 172 171 167 168
2170.0 168 170 168 167 172 167 165 165 165 162
2210.0 164 168 167 168 168 164 166 164 169 170
2250.0 167 165 167 167 172 172 171 172 180 174
2290.0 183 184 187 197 197 204 204 216 220 213
2330.0 217 217 235 232 243 254 253 225 228 227
2370.0 217 219 206 206 196 189 182 179 180 181
2410.0 179 179 178 174 177 186 191 195 196 206
2450.0 209 209 208 207 196 199 195 189 190 192
2490.0 193 192 207 194 201 199 205 205 206 213
2530.0 213 210 209 208 204 207 198 198 194 198
2570.0 198 194 196 196 203 200 207 211 221 214
2610.0 222 225 212 215 206 204 211 228 240 255
2650.0 280 310 347 384 429 447 456 451 454 432
2690.0 394 349 320 321 316 346 372 432 488 549
2730.0 601 657 687 692 677 626 592 536 523 516
2770.0 540 568 592 625 659 753 814 914 1032 1212
2810.0 1507 2065 3008 4428 6066 6918 7097 7122 7532 7643
2850.0 7262 6797 7009 8255 8665 9753 9914 9567 10000 9798
2890.0 9328 8901 7772 6994 6334 5307 4511 4282 4400 4333
2930.0 4391 3941 4787 4831 3507 2929 3094 3330 3942 4484
2970.0 5029 4513 4651 5198 4861 4084 3377 2989 2720 2669
3010.0 2841 3266 3841 4729 6098 7553 7899 7721 7144 6521
3050.0 5874 4186 2517 1608 1209 1116 1051 1042 970 946
3090.0 890 848 807 758 703 623 569 493 446 403
3130.0 371 346 345 307 270 272 241 243 223 228
3170.0 218 229 209 211 208 204 203 190 188 176
3210.0 203 188 191 195 192 206 196 219 220 239
3250.0 243 258 249 245 247 245 234 213 229 206
3290.0 229 228 236 243 249 241 231 238 222 217
3330.0 207 205 199 199 205 192 190 190 187 184
3370.0 190 179 187 186 178 182 185 172 172 178
3410.0 168 179 179 178 176 178 181 169 181 174
3450.0 195 174 185 172 181 179 178 171 161 182
3490.0 176 181 173 182 187 192 182 191 218 201
3530.0 207 189 201 190 185 181 189 189 183 193
3570.0 180 194 185 183 178 186 201 188 199 188
3610.0 196 180 215 196 191 191 191 183 169 187
3650.0 203 231 194 194 201 226 219 222 206 184
3690.0 204 177 168 175 201 199 197 196 189 184
3730.0 206 226 209 209 211 214 220 211 206 215
3770.0 198 188 192 203 190 195 192 193 201 230
3810.0 175 204 184 201 224 209 213 213 219 183
3850.0 194 200 204 186 203 213 194 176 178 223
3890.0 194 217 190 215 218 239 228 245 241 219
3930.0 245 229 240 217 237 210 236 210 212 229
##END=
