##TITLE=m-Toluidine, N-(3-pyridylmethylene)-.alpha.,.alpha.,.alpha.-trifluoro-,
##JCAMP-DX=4.24
##DATA TYPE=INFRARED SPECTRUM
##ORIGIN=Sadtler Research Labs Under US-EPA Contract
##OWNER=NIST Standard Reference Data Program
##CAS REGISTRY NO=43145-07-9
##MOLFORM=C 13 H 9 F 3 N 2
##XUNITS=1/CM
##YUNITS=ABSORBANCE
##XFACTOR=1.0
##YFACTOR=0.000134668
##DELTAX=4.0
##FIRSTX=450.0
##LASTX=3966.0
##FIRSTY=0.008080
##MAXX=3966
##MINX=450
##MAXY=1.34668
##MINY=0
##NPOINTS=880
##XYDATA=(X++(Y..Y))
450.0 60 58 4 82 51 44 41 33 39 10
490.0 2 11 10 19 25 37 54 50 62 62
530.0 77 117 171 226 237 138 53 16 19 32
570.0 19 33 24 30 36 43 38 34 32 53
610.0 81 106 154 151 126 106 109 142 220 272
650.0 368 530 563 332 189 136 150 196 312 518
690.0 845 1206 1562 1539 1269 863 554 375 256 198
730.0 153 128 101 95 81 132 274 398 269 128
770.0 98 133 185 298 496 770 1034 1129 1039 823
810.0 567 357 226 146 113 100 85 101 111 166
850.0 222 251 230 169 142 142 187 300 511 854
890.0 1253 1551 1647 1607 1536 1372 1160 944 662 370
930.0 200 135 112 95 90 87 88 91 96 110
970.0 135 168 182 172 147 133 128 137 148 155
1010.0 182 251 396 582 557 362 245 216 183 173
1050.0 209 304 497 867 1344 1637 1505 1109 826 850
1090.0 1169 1322 946 563 430 454 548 663 768 925
1130.0 1293 2037 3337 5095 6914 7369 5967 3870 2630 2596
1170.0 3429 4940 6361 5842 3728 2075 1354 1100 947 775
1210.0 595 514 534 656 826 937 936 923 933 850
1250.0 645 476 423 452 524 638 768 883 835 675
1290.0 619 703 879 1165 1562 2024 2752 4492 7504 10000
1330.0 9876 6636 3436 1647 901 595 461 436 441 410
1370.0 335 282 209 160 155 156 176 209 204 251
1410.0 350 519 899 1090 1055 989 1245 1550 1538 1272
1450.0 940 635 413 276 248 325 460 491 536 711
1490.0 718 455 263 150 157 163 111 115 140 89
1530.0 101 94 129 186 190 175 227 347 450 642
1570.0 911 1011 1048 1201 1433 1478 1156 781 627 668
1610.0 736 777 768 740 926 1463 2443 3157 2762 1726
1650.0 1080 765 543 439 363 314 276 206 220 200
1690.0 157 141 206 199 180 137 155 186 123 94
1730.0 113 158 109 98 109 130 110 113 117 96
1770.0 120 116 87 88 85 88 98 84 98 72
1810.0 75 70 55 59 63 74 57 44 55 71
1850.0 47 33 42 49 70 97 87 79 77 71
1890.0 76 79 82 89 97 98 82 62 62 55
1930.0 65 84 95 107 94 72 66 58 48 42
1970.0 30 21 17 12 8 17 10 4 3 2
2010.0 0 7 9 7 5 7 7 12 16 13
2050.0 12 14 16 21 29 31 36 39 46 49
2090.0 46 33 26 20 16 16 14 13 13 9
2130.0 7 4 3 2 4 0 0 0 1 1
2170.0 2 2 5 6 5 6 7 8 9 12
2210.0 12 15 16 15 13 13 17 17 18 16
2250.0 14 15 15 18 17 18 15 13 16 16
2290.0 13 11 9 11 7 8 7 10 17 14
2330.0 21 31 27 35 43 27 38 26 26 24
2370.0 33 33 34 28 24 15 14 12 13 14
2410.0 12 12 10 7 7 6 5 6 7 6
2450.0 9 10 12 15 16 19 19 21 20 19
2490.0 19 17 20 20 17 13 14 16 14 12
2530.0 10 9 9 9 11 10 9 6 5 5
2570.0 7 1 7 9 12 19 18 20 18 17
2610.0 14 13 12 11 8 10 10 7 13 14
2650.0 18 17 15 13 7 7 7 10 10 8
2690.0 8 8 11 9 11 9 13 14 15 18
2730.0 12 12 13 13 12 14 9 13 12 18
2770.0 18 15 18 22 27 26 28 29 34 36
2810.0 35 35 34 37 39 40 46 51 60 81
2850.0 104 131 165 194 230 258 288 314 330 321
2890.0 283 228 171 124 96 79 60 59 51 48
2930.0 46 53 53 56 61 67 73 83 92 99
2970.0 108 120 128 133 123 120 134 152 180 207
3010.0 224 226 216 208 219 262 355 451 460 413
3050.0 406 454 520 526 428 335 326 354 407 467
3090.0 486 405 270 182 142 109 93 77 65 58
3130.0 59 64 62 55 46 34 32 31 28 29
3170.0 28 29 26 27 25 25 21 26 29 26
3210.0 27 25 22 24 31 25 31 25 33 35
3250.0 39 44 42 41 38 38 30 20 17 25
3290.0 14 18 11 17 7 7 9 8 4 9
3330.0 9 16 16 8 7 8 7 8 12 12
3370.0 7 8 11 6 8 9 3 6 9 10
3410.0 11 16 8 10 12 12 15 11 8 17
3450.0 11 7 2 15 13 15 12 7 2 9
3490.0 7 4 16 7 9 14 13 7 6 9
3530.0 6 9 6 9 12 17 17 14 13 11
3570.0 15 11 13 22 19 18 18 8 16 11
3610.0 15 16 15 17 16 21 14 14 12 13
3650.0 15 9 20 14 13 22 11 25 11 19
3690.0 20 15 13 17 15 17 21 22 28 16
3730.0 16 33 15 28 32 24 27 18 19 19
3770.0 22 21 13 22 10 16 12 33 22 30
3810.0 11 25 21 21 18 14 19 28 31 34
3850.0 12 11 27 26 25 13 24 11 19 30
3890.0 24 13 10 27 33 29 14 22 30 15
3930.0 18 24 18 30 33 15 26 24 11 24
##END=
