##TITLE=3-Penten-2-ol, 4-methyl-,
##JCAMP-DX=4.24
##DATA TYPE=INFRARED SPECTRUM
##ORIGIN=Sadtler Research Labs Under US-EPA Contract
##OWNER=NIST Standard Reference Data Program
##CAS REGISTRY NO=4325-82-0
##MOLFORM=C 6 H 12 O
##XUNITS=1/CM
##YUNITS=ABSORBANCE
##XFACTOR=1.0
##YFACTOR=0.000077029
##DELTAX=4.0
##FIRSTX=450.0
##LASTX=3966.0
##FIRSTY=0.000000
##MAXX=3966
##MINX=450
##MAXY=0.77029
##MINY=0
##NPOINTS=880
##XYDATA=(X++(Y..Y))
450.0 0 375 556 539 296 498 318 515 389 531
490.0 394 434 493 478 531 540 643 553 671 632
530.0 643 608 564 553 505 491 470 468 393 416
570.0 385 385 391 378 334 351 369 308 334 310
610.0 362 362 348 364 355 356 329 334 336 333
650.0 321 364 367 342 351 315 313 311 315 292
690.0 321 304 314 310 297 284 284 283 271 278
730.0 278 297 301 299 300 301 280 298 318 316
770.0 301 313 345 321 382 401 416 440 488 568
810.0 645 772 902 1060 1196 1361 1453 1536 1572 1625
850.0 1690 1799 2005 2125 2223 2162 2003 1716 1371 1086
890.0 869 756 697 686 676 695 718 764 864 1015
930.0 1243 1490 1757 1925 2009 1949 1830 1601 1414 1270
970.0 1170 1148 1137 1166 1187 1235 1285 1358 1449 1606
1010.0 1836 2138 2553 3019 3533 3957 4349 4515 4575 4544
1050.0 4539 4613 4761 5121 5450 5766 5767 5568 5041 4411
1090.0 3748 3087 2550 2176 1986 1836 1777 1721 1695 1672
1130.0 1672 1693 1696 1712 1693 1694 1629 1595 1544 1515
1170.0 1500 1498 1502 1510 1557 1594 1664 1732 1824 1870
1210.0 1894 1906 1908 1962 2078 2298 2549 2859 3084 3219
1250.0 3184 3041 2799 2425 2072 1762 1551 1374 1282 1231
1290.0 1232 1276 1368 1493 1598 1715 1777 1817 1786 1766
1330.0 1724 1685 1678 1675 1724 1819 2033 2314 2734 3246
1370.0 3833 4338 4650 4753 4506 4007 3326 2655 2088 1716
1410.0 1477 1370 1320 1362 1432 1576 1786 2009 2275 2479
1450.0 2638 2652 2521 2336 2058 1778 1460 1204 1046 887
1490.0 798 702 655 592 576 543 524 498 480 484
1530.0 466 474 466 472 462 483 475 470 472 478
1570.0 480 458 472 455 458 448 461 438 455 463
1610.0 479 496 533 562 598 639 674 695 718 755
1650.0 791 808 940 1052 1214 1337 1463 1369 1343 1099
1690.0 916 711 614 544 520 532 531 487 453 429
1730.0 425 434 463 489 509 506 491 470 454 446
1770.0 449 444 444 431 424 403 438 442 440 421
1810.0 397 359 327 302 275 262 252 253 232 245
1850.0 235 237 237 238 237 244 243 244 250 250
1890.0 254 254 260 261 258 260 251 254 250 248
1930.0 244 243 242 243 245 245 249 251 251 250
1970.0 249 242 242 238 235 231 233 229 231 230
2010.0 230 230 227 225 226 227 223 221 220 220
2050.0 215 212 214 212 213 216 215 217 218 218
2090.0 218 215 217 219 221 221 222 224 225 225
2130.0 228 227 228 230 228 233 232 235 236 236
2170.0 241 246 242 244 244 245 240 243 242 237
2210.0 234 228 229 226 230 228 232 230 227 224
2250.0 223 225 223 222 223 220 214 218 216 216
2290.0 216 213 213 214 218 220 222 223 229 228
2330.0 229 234 229 229 216 232 220 226 220 232
2370.0 234 235 237 239 248 243 249 256 258 256
2410.0 259 260 263 260 263 265 263 263 264 262
2450.0 261 258 256 254 249 248 245 246 248 247
2490.0 248 249 245 248 244 245 244 245 244 243
2530.0 237 238 236 235 232 228 235 233 239 245
2570.0 248 255 259 263 266 270 272 273 277 278
2610.0 284 282 283 283 284 285 287 288 288 285
2650.0 287 284 283 290 290 288 291 291 289 290
2690.0 292 293 300 308 315 326 344 359 388 428
2730.0 475 534 576 602 616 607 563 520 489 468
2770.0 456 451 446 445 458 473 490 518 541 587
2810.0 626 662 702 748 780 822 879 948 1041 1176
2850.0 1376 1670 2089 2577 3076 3536 3921 4167 4339 4413
2890.0 4475 4532 4615 4785 5025 5395 5867 6461 6959 7357
2930.0 7574 7547 7236 6667 6016 5385 5020 4991 5366 6143
2970.0 7350 8807 9840 10000 9556 8666 7230 5685 4366 3502
3010.0 2884 2447 2113 1851 1633 1459 1330 1216 1138 1066
3050.0 1015 972 943 907 876 845 808 767 723 680
3090.0 636 600 563 537 510 489 479 460 450 440
3130.0 423 407 395 378 365 353 347 339 340 333
3170.0 328 322 319 313 297 295 296 294 288 289
3210.0 288 287 290 280 271 260 251 240 239 235
3250.0 231 225 222 223 224 223 216 218 223 220
3290.0 223 222 223 223 224 221 212 216 217 218
3330.0 217 220 223 227 218 217 214 214 222 223
3370.0 233 228 232 232 241 246 243 241 236 237
3410.0 238 241 243 241 239 238 233 228 238 233
3450.0 234 231 235 229 236 225 220 227 237 226
3490.0 229 231 229 240 229 230 237 234 238 247
3530.0 241 233 238 234 245 251 253 252 259 284
3570.0 275 262 262 278 266 278 282 266 274 285
3610.0 317 323 362 409 511 684 903 1109 1382 1556
3650.0 1649 1476 1304 1048 827 624 473 392 310 289
3690.0 254 248 227 230 221 226 213 220 212 220
3730.0 212 220 225 225 220 217 234 212 225 212
3770.0 225 226 214 226 223 226 229 212 223 217
3810.0 229 233 223 254 233 235 236 240 222 251
3850.0 244 255 263 239 250 244 256 247 235 235
3890.0 240 230 241 246 249 232 228 240 245 229
3930.0 237 228 227 237 236 243 230 243 233 241
##END=
