##TITLE=.alpha.,.alpha.,.alpha.-Trifluoro-o-toluic acid
##JCAMP-DX=4.24
##DATA TYPE=INFRARED SPECTRUM
##ORIGIN=Sadtler Research Labs Under US-EPA Contract
##OWNER=NIST Standard Reference Data Program
##CAS REGISTRY NO=433-97-6
##MOLFORM=C 8 H 5 F 3 O 2
##XUNITS=1/CM
##YUNITS=ABSORBANCE
##XFACTOR=1.0
##YFACTOR=0.000086295
##DELTAX=4.0
##FIRSTX=450.0
##LASTX=3966.0
##FIRSTY=0.000000
##MAXX=3966
##MINX=450
##MAXY=0.86295
##MINY=0
##NPOINTS=880
##XYDATA=(X++(Y..Y))
450.0 0 149 219 250 246 290 301 353 332 386
490.0 379 371 408 434 437 443 482 515 547 625
530.0 705 788 809 841 836 841 838 882 924 950
570.0 1046 1053 1050 1035 1026 982 952 873 778 669
610.0 608 585 626 821 1132 1350 1409 1294 975 757
650.0 939 1014 1117 948 798 556 450 439 426 439
690.0 435 463 481 510 522 572 646 761 892 996
730.0 1024 1023 1050 1079 1106 1155 1276 1422 1587 2083
770.0 1771 1307 1043 743 612 562 535 527 502 483
810.0 442 433 393 384 368 371 356 355 355 345
850.0 338 342 330 344 349 346 347 340 336 339
890.0 330 336 332 317 318 321 327 323 320 318
930.0 316 308 319 328 339 360 390 415 404 369
970.0 350 334 324 332 331 337 343 351 367 381
1010.0 419 456 540 701 1048 1601 2168 2609 2949 2893
1050.0 2504 2042 1476 991 796 771 846 1013 1260 1562
1090.0 1876 2137 2293 2321 2227 2065 1898 1807 1828 1866
1130.0 1898 1929 2014 2257 2727 3488 4555 6000 7689 9097
1170.0 10000 9982 8822 7190 5670 4359 3299 2472 1842 1395
1210.0 1104 926 811 734 678 638 613 607 612 630
1250.0 678 758 912 1180 1545 1907 2155 2233 2130 1945
1290.0 1817 1861 2186 3007 4429 6065 7143 7209 6138 4300
1330.0 2799 2036 1722 1593 1534 1466 1368 1249 1139 1056
1370.0 997 941 871 791 692 603 522 464 420 388
1410.0 360 348 319 316 313 313 310 330 366 404
1450.0 415 405 368 335 313 301 290 302 316 319
1490.0 339 354 356 353 321 294 297 276 270 285
1530.0 286 293 286 285 289 301 288 276 280 306
1570.0 329 377 424 474 486 463 422 382 376 385
1610.0 389 381 349 329 301 303 287 291 299 297
1650.0 289 272 282 282 282 273 279 285 288 280
1690.0 298 307 295 315 340 382 400 452 527 594
1730.0 653 712 796 866 1001 1179 1581 2192 3097 4011
1770.0 4814 5290 5116 4572 3636 2712 1862 1361 1094 895
1810.0 741 618 525 461 415 394 378 372 347 321
1850.0 307 293 283 279 280 268 271 262 257 248
1890.0 244 245 245 248 250 254 256 257 256 260
1930.0 261 265 277 275 272 260 251 242 240 243
1970.0 250 252 247 238 229 221 217 215 209 210
2010.0 204 204 203 199 203 202 203 201 197 202
2050.0 203 204 205 209 205 205 204 204 200 204
2090.0 201 200 205 201 207 208 208 206 209 207
2130.0 205 201 204 201 202 202 200 198 199 199
2170.0 200 199 198 203 200 205 206 210 208 211
2210.0 212 206 204 201 200 197 196 199 194 194
2250.0 195 192 193 191 194 192 195 197 198 203
2290.0 210 212 215 218 219 226 218 217 216 217
2330.0 200 210 208 223 221 228 208 199 196 211
2370.0 208 217 217 219 206 197 189 185 188 189
2410.0 185 184 184 185 184 182 183 182 179 177
2450.0 178 180 180 179 180 185 179 182 181 185
2490.0 185 179 179 178 174 172 172 170 174 171
2530.0 172 171 168 170 169 173 171 171 169 171
2570.0 172 172 170 167 169 167 163 164 159 163
2610.0 167 161 164 166 162 165 162 162 160 158
2650.0 157 154 159 162 155 153 157 154 160 155
2690.0 154 154 154 154 154 155 154 153 155 159
2730.0 154 155 159 157 159 154 159 161 160 159
2770.0 161 163 159 161 162 159 162 161 163 164
2810.0 163 166 166 162 165 162 159 156 159 160
2850.0 157 159 162 162 168 167 165 171 169 167
2890.0 163 168 169 168 166 167 164 163 164 164
2930.0 162 159 164 164 164 163 167 165 168 169
2970.0 171 170 171 171 169 171 171 173 182 180
3010.0 188 189 186 179 181 184 182 195 204 211
3050.0 215 209 219 236 261 301 342 391 422 430
3090.0 408 357 297 244 209 193 185 185 186 187
3130.0 185 178 178 173 171 170 177 172 176 178
3170.0 177 172 174 172 172 171 170 168 176 165
3210.0 158 156 163 164 164 160 167 163 166 155
3250.0 159 163 159 167 158 155 164 160 155 164
3290.0 166 162 157 155 162 164 168 157 159 161
3330.0 164 160 165 161 165 156 154 160 162 161
3370.0 163 158 160 162 165 165 167 169 159 166
3410.0 170 166 169 167 163 168 172 168 168 164
3450.0 166 163 164 167 167 173 173 168 168 171
3490.0 172 173 166 174 177 175 189 188 192 205
3530.0 198 197 217 236 255 270 337 515 992 1704
3570.0 2271 2408 2167 1509 795 403 282 244 231 237
3610.0 231 222 223 219 231 212 205 183 182 178
3650.0 169 173 183 171 172 167 173 174 178 163
3690.0 162 169 171 159 174 172 164 170 163 172
3730.0 164 165 159 165 158 155 153 156 153 153
3770.0 171 158 163 153 163 161 165 165 153 153
3810.0 162 159 160 153 165 173 153 159 169 164
3850.0 154 166 173 168 163 177 180 187 160 176
3890.0 166 170 160 172 178 177 180 186 196 179
3930.0 179 163 153 158 166 157 170 176 162 171
##END=
