##TITLE=Ethanol, 2,2,2-trifluoro-, 4-methylbenzenesulfonate
##JCAMP-DX=4.24
##DATA TYPE=INFRARED SPECTRUM
##ORIGIN=Sadtler Research Labs Under US-EPA Contract
##OWNER=NIST Standard Reference Data Program
##CAS REGISTRY NO=433-06-7
##MOLFORM=C 9 H 9 F 3 O 3 S
##XUNITS=1/CM
##YUNITS=ABSORBANCE
##XFACTOR=1.0
##YFACTOR=0.000127237
##DELTAX=4.0
##FIRSTX=450.0
##LASTX=3966.0
##FIRSTY=0.002290
##MAXX=3966
##MINX=450
##MAXY=1.27237
##MINY=0
##NPOINTS=880
##XYDATA=(X++(Y..Y))
450.0 18 25 30 12 28 7 26 45 62 55
490.0 73 97 107 139 134 127 164 169 213 262
530.0 331 486 665 940 1361 2057 3129 3557 3156 2084
570.0 1299 901 603 391 261 187 157 120 127 105
610.0 96 86 125 120 150 189 231 296 453 675
650.0 788 806 706 770 882 1428 1791 1807 1625 1397
690.0 1302 1231 1116 954 733 551 416 386 376 398
730.0 446 529 652 816 1024 1278 1530 1798 2053 2263
770.0 2389 2375 2287 2151 2048 2033 2133 2140 2035 2079
810.0 2480 2979 2984 2393 1590 966 699 631 673 756
850.0 827 837 786 680 522 367 251 174 139 111
890.0 102 78 68 53 51 47 50 47 54 69
930.0 95 130 186 278 405 582 787 1008 1219 1312
970.0 1202 970 743 579 467 389 351 341 357 401
1010.0 481 651 882 1072 1284 1602 2172 3008 4063 5282
1050.0 6394 7046 6770 5396 3603 2149 1336 920 707 634
1090.0 690 846 959 908 688 489 391 355 332 308
1130.0 303 336 407 521 670 878 1212 1767 2699 4107
1170.0 6002 7979 9373 10000 9632 9743 9588 9052 6732 4190
1210.0 2782 1959 1327 929 730 639 584 546 516 510
1250.0 524 567 646 769 962 1258 1698 2306 3065 3891
1290.0 4613 5004 4799 4023 3011 2175 1557 1111 799 589
1330.0 458 379 345 333 343 378 441 540 682 885
1370.0 1186 1634 2151 2607 2871 3111 3400 3703 3909 3790
1410.0 3352 2595 1889 1264 863 614 487 406 368 358
1450.0 389 433 446 406 340 278 242 216 209 237
1490.0 300 369 395 346 265 200 167 145 133 114
1530.0 108 97 97 101 93 87 85 97 95 101
1570.0 115 134 157 190 232 303 396 503 560 529
1610.0 414 286 210 156 135 111 101 96 94 98
1650.0 96 81 55 40 30 23 25 14 20 19
1690.0 11 9 18 12 10 5 4 9 1 0
1730.0 2 11 6 9 15 23 25 30 31 27
1770.0 28 24 17 22 27 40 58 70 73 54
1810.0 38 26 21 20 19 17 14 9 11 12
1850.0 11 10 12 10 12 13 10 14 16 18
1890.0 20 23 27 38 55 74 88 92 80 56
1930.0 36 26 18 14 10 8 6 6 3 4
1970.0 5 5 5 3 2 4 5 5 6 9
2010.0 10 11 12 13 14 15 12 12 13 11
2050.0 9 11 8 11 11 13 14 16 18 20
2090.0 21 22 25 26 27 25 25 23 20 18
2130.0 17 13 14 15 14 12 9 7 4 3
2170.0 5 3 3 4 6 10 12 11 9 8
2210.0 8 6 6 3 7 8 8 7 12 13
2250.0 13 13 12 11 13 14 14 17 20 23
2290.0 28 31 36 39 39 37 29 21 19 20
2330.0 15 20 15 17 18 24 12 16 13 9
2370.0 11 17 21 22 22 17 17 19 19 18
2410.0 18 18 14 12 12 10 6 5 5 5
2450.0 7 6 10 10 8 11 11 11 9 8
2490.0 10 7 7 5 6 6 7 4 3 2
2530.0 3 4 4 6 8 13 15 20 26 28
2570.0 31 35 37 41 41 41 39 35 27 21
2610.0 16 14 10 11 9 6 3 2 0 0
2650.0 1 2 2 2 2 3 4 8 7 8
2690.0 14 13 16 13 13 10 6 5 6 5
2730.0 6 9 11 15 19 20 18 14 10 11
2770.0 10 11 12 14 15 19 24 25 27 26
2810.0 24 23 22 21 19 21 24 28 34 39
2850.0 47 61 73 91 114 135 160 176 183 189
2890.0 186 187 183 173 167 160 164 174 197 243
2930.0 309 380 425 409 348 283 245 236 261 319
2970.0 428 546 568 478 344 264 231 217 217 219
3010.0 217 205 202 195 201 219 257 301 326 331
3050.0 327 328 304 252 224 233 246 220 167 116
3090.0 94 87 81 67 55 47 42 37 34 28
3130.0 25 22 20 19 22 16 16 14 11 10
3170.0 12 10 8 9 8 9 8 8 8 8
3210.0 6 9 6 9 9 5 6 6 7 7
3250.0 7 7 8 9 7 5 6 7 5 4
3290.0 4 7 3 6 6 7 5 3 7 5
3330.0 9 5 3 5 9 8 4 9 6 8
3370.0 10 4 5 6 7 5 2 7 7 5
3410.0 7 10 8 5 6 4 4 2 6 8
3450.0 4 9 5 8 4 5 4 4 7 8
3490.0 3 3 5 3 5 6 4 7 5 4
3530.0 5 4 1 8 6 2 10 6 9 6
3570.0 10 3 8 6 4 3 5 9 6 7
3610.0 6 7 4 7 5 6 9 6 10 3
3650.0 5 8 11 13 9 13 12 7 9 18
3690.0 10 11 9 9 12 10 15 16 15 15
3730.0 17 11 16 10 11 4 11 18 4 9
3770.0 5 9 7 3 11 7 6 4 9 8
3810.0 8 7 6 8 19 4 12 9 12 12
3850.0 3 9 9 13 14 14 14 10 5 10
3890.0 12 8 8 17 17 10 8 14 10 9
3930.0 7 6 8 18 4 11 14 15 12 15
##END=
