##TITLE=Benzene, pentafluoro(trifluoromethyl)-
##JCAMP-DX=4.24
##DATA TYPE=INFRARED SPECTRUM
##ORIGIN=Sadtler Research Labs Under US-EPA Contract
##OWNER=NIST Standard Reference Data Program
##CAS REGISTRY NO=434-64-0
##MOLFORM=C 7 F 8
##XUNITS=1/CM
##YUNITS=ABSORBANCE
##XFACTOR=1.0
##YFACTOR=0.000201245
##DELTAX=4.0
##FIRSTX=450.0
##LASTX=3966.0
##FIRSTY=0.000000
##MAXX=3966
##MINX=450
##MAXY=2.01245
##MINY=0
##NPOINTS=880
##XYDATA=(X++(Y..Y))
450.0 0 57 62 60 75 63 72 55 54 54
490.0 90 119 113 117 57 54 58 70 54 63
530.0 67 60 92 74 76 84 85 79 71 62
570.0 54 58 93 78 64 64 59 60 54 57
610.0 51 62 54 62 72 72 64 48 73 92
650.0 83 71 85 79 79 83 95 92 81 90
690.0 74 83 78 116 141 519 1479 2014 1794 951
730.0 204 104 84 83 90 98 94 83 84 80
770.0 78 75 81 77 82 89 82 80 78 83
810.0 75 77 79 80 85 91 88 96 95 98
850.0 110 129 161 252 489 1050 1899 2457 2384 1566
890.0 790 383 210 153 130 122 117 108 105 106
930.0 117 115 125 123 126 127 136 152 172 207
970.0 243 268 278 298 369 648 1437 3210 5709 6291
1010.0 5978 3043 1301 707 535 427 323 266 256 285
1050.0 335 355 333 272 212 187 189 213 281 401
1090.0 471 457 376 290 243 209 187 192 204 226
1130.0 255 306 386 474 649 974 1552 2388 3446 4475
1170.0 5502 6672 5841 3800 2354 1914 2573 3255 3068 2328
1210.0 1549 1183 1291 1768 2578 3849 5405 6341 5514 3576
1250.0 1673 671 394 298 254 237 219 210 193 189
1290.0 163 152 143 152 148 146 146 134 143 153
1330.0 217 373 944 2414 5435 8177 8629 4664 1481 402
1370.0 256 220 182 153 157 166 178 210 253 306
1410.0 340 377 451 529 705 925 1066 961 607 301
1450.0 209 194 188 170 165 181 234 300 446 762
1490.0 1338 2141 3026 4167 6008 8130 10000 9221 7899 5876
1530.0 4906 4210 3032 1784 890 459 290 257 201 177
1570.0 168 164 169 194 225 263 288 287 262 225
1610.0 196 172 177 177 205 222 259 306 410 693
1650.0 1226 1766 1878 1457 808 384 256 186 174 153
1690.0 133 124 141 138 123 104 103 115 93 89
1730.0 104 131 124 122 124 116 104 101 104 97
1770.0 109 109 98 97 92 95 92 87 89 81
1810.0 81 80 73 69 67 66 63 61 74 80
1850.0 70 62 59 60 66 80 72 75 71 70
1890.0 69 65 61 55 55 57 60 58 60 56
1930.0 57 58 54 58 54 52 50 51 52 57
1970.0 56 54 54 54 54 58 57 54 55 55
2010.0 59 62 66 68 69 70 68 71 70 70
2050.0 70 68 69 70 76 78 82 79 74 70
2090.0 69 66 66 67 69 69 70 69 62 60
2130.0 55 51 51 52 52 56 59 61 59 56
2170.0 49 47 49 49 48 47 46 47 49 50
2210.0 52 55 58 63 69 75 80 81 81 76
2250.0 70 66 59 56 54 56 54 54 54 57
2290.0 58 62 68 68 74 83 80 86 92 91
2330.0 89 84 75 67 81 82 89 81 73 66
2370.0 57 64 66 69 72 72 74 78 82 80
2410.0 81 76 77 78 84 90 96 98 89 79
2450.0 66 60 58 55 56 54 54 53 51 57
2490.0 61 68 77 86 92 92 85 79 75 76
2530.0 74 69 68 63 60 62 60 57 57 56
2570.0 58 63 64 69 66 67 67 62 65 67
2610.0 71 71 68 59 53 47 45 46 43 41
2650.0 42 44 50 53 58 67 72 75 76 76
2690.0 73 66 59 55 54 51 50 50 50 54
2730.0 50 53 54 58 60 60 60 61 67 68
2770.0 70 70 71 68 65 60 56 53 50 52
2810.0 49 50 49 54 51 53 53 52 49 55
2850.0 48 53 54 49 50 54 58 57 60 64
2890.0 61 60 56 56 60 60 56 57 59 64
2930.0 64 69 66 72 68 68 69 68 60 66
2970.0 62 57 53 54 54 54 54 54 54 50
3010.0 53 52 52 51 53 53 55 52 61 63
3050.0 59 61 59 56 54 55 49 54 47 52
3090.0 50 49 53 53 49 47 54 55 53 54
3130.0 53 55 51 55 57 56 57 49 56 56
3170.0 54 53 53 46 49 49 48 51 48 48
3210.0 41 48 49 50 47 58 57 59 56 52
3250.0 60 59 63 58 55 54 58 60 66 61
3290.0 55 68 68 56 61 63 60 59 64 59
3330.0 65 60 64 63 62 65 62 62 64 69
3370.0 61 60 59 66 67 61 60 61 71 68
3410.0 70 69 63 62 64 64 63 67 62 73
3450.0 67 61 61 67 72 71 64 55 66 59
3490.0 59 60 64 68 68 55 62 61 63 64
3530.0 53 62 68 63 69 64 62 67 56 62
3570.0 64 61 58 59 61 59 59 58 53 57
3610.0 58 62 65 58 59 52 54 62 59 56
3650.0 61 56 56 58 63 66 54 59 61 57
3690.0 50 63 70 55 63 63 65 63 69 61
3730.0 60 60 62 63 63 58 58 56 74 61
3770.0 60 60 62 68 68 57 60 68 68 62
3810.0 56 72 64 79 63 76 81 61 69 82
3850.0 69 81 81 80 74 77 78 91 67 78
3890.0 79 64 77 73 58 62 59 85 77 75
3930.0 73 79 82 83 87 81 75 73 92 89
##END=
