##TITLE=Ethanone, 2,2,2-trifluoro-1-phenyl-
##JCAMP-DX=4.24
##DATA TYPE=INFRARED SPECTRUM
##ORIGIN=Sadtler Research Labs Under US-EPA Contract
##OWNER=NIST Standard Reference Data Program
##CAS REGISTRY NO=434-45-7
##MOLFORM=C 8 H 5 F 3 O
##XUNITS=1/CM
##YUNITS=ABSORBANCE
##XFACTOR=1.0
##YFACTOR=0.000145398
##DELTAX=4.0
##FIRSTX=450.0
##LASTX=3966.0
##FIRSTY=0.000000
##MAXX=3966
##MINX=450
##MAXY=1.45398
##MINY=0
##NPOINTS=880
##XYDATA=(X++(Y..Y))
450.0 0 140 196 216 215 158 176 213 219 243
490.0 227 263 213 207 205 202 248 247 310 291
530.0 317 294 272 247 216 221 189 202 181 200
570.0 175 176 167 183 189 205 306 423 500 477
610.0 395 223 225 178 198 197 207 208 185 244
650.0 194 290 415 1202 1846 2101 2173 1512 1082 1180
690.0 1026 970 997 1189 1466 1781 2072 1997 1615 1199
730.0 820 553 439 474 664 735 724 571 358 263
770.0 245 215 196 196 194 203 209 218 207 199
810.0 194 187 181 174 180 175 193 178 179 174
850.0 178 186 190 205 210 217 203 204 199 204
890.0 212 227 245 263 274 286 306 350 479 761
930.0 1439 2697 4203 4755 4388 2913 1362 713 555 449
970.0 387 320 273 232 219 217 244 294 304 309
1010.0 268 206 194 192 198 206 202 206 203 205
1050.0 202 217 231 247 260 264 264 259 247 242
1090.0 247 261 277 300 328 362 395 439 486 561
1130.0 673 893 1296 1999 3054 4469 6252 7863 8628 7890
1170.0 7312 7602 9135 10000 9769 7202 4884 4268 4863 6189
1210.0 7856 8324 7449 5509 3379 1998 1384 1133 998 899
1250.0 783 681 578 489 432 413 396 381 367 364
1290.0 377 401 439 464 491 529 590 650 696 717
1330.0 699 663 610 535 444 368 304 255 221 201
1370.0 191 190 192 192 197 192 189 182 183 181
1410.0 180 185 186 192 194 201 202 223 282 423
1450.0 562 582 548 383 247 207 194 195 203 201
1490.0 201 199 187 179 172 175 176 178 175 180
1530.0 178 181 180 182 190 203 213 217 227 229
1570.0 241 266 323 392 459 564 683 816 871 826
1610.0 647 452 326 267 232 210 200 203 211 215
1650.0 213 204 198 190 193 197 201 213 214 238
1690.0 261 294 310 342 362 428 573 916 1637 2836
1730.0 4419 5234 5312 4272 2519 1291 728 475 385 348
1770.0 340 325 315 290 265 233 215 208 212 231
1810.0 251 267 256 239 209 192 182 176 171 166
1850.0 166 164 165 166 171 171 176 179 179 181
1890.0 184 192 201 216 222 228 228 225 218 211
1930.0 199 188 179 173 178 183 195 210 218 218
1970.0 217 210 204 195 180 167 153 152 148 147
2010.0 145 145 144 144 146 145 148 148 148 148
2050.0 148 146 145 145 146 148 145 146 147 149
2090.0 149 149 150 151 153 150 147 149 149 145
2130.0 145 144 144 145 146 147 147 148 147 146
2170.0 145 144 145 145 147 142 145 145 145 145
2210.0 147 148 148 148 148 148 147 150 148 152
2250.0 154 158 162 165 167 168 168 168 170 170
2290.0 170 169 169 164 162 161 159 164 172 173
2330.0 179 180 175 185 180 182 179 178 178 172
2370.0 187 185 180 174 165 160 156 154 151 152
2410.0 150 150 150 149 150 150 149 148 148 145
2450.0 146 146 151 148 150 146 152 154 157 161
2490.0 164 167 169 171 174 175 176 173 171 171
2530.0 170 168 163 164 164 165 163 160 156 156
2570.0 154 153 149 150 152 153 154 155 156 156
2610.0 153 151 151 147 148 146 146 147 146 148
2650.0 149 147 146 150 149 154 155 151 152 153
2690.0 150 147 146 144 144 142 146 145 144 144
2730.0 142 142 146 143 146 145 145 148 149 153
2770.0 155 158 162 164 164 161 155 150 150 145
2810.0 147 145 146 144 147 148 146 148 147 147
2850.0 146 148 148 150 151 151 154 152 155 157
2890.0 156 152 154 154 155 158 158 162 160 160
2930.0 163 166 165 164 164 161 159 156 154 156
2970.0 156 160 160 161 165 167 160 165 168 174
3010.0 180 187 192 195 202 217 239 260 277 289
3050.0 299 305 327 370 454 563 651 728 727 629
3090.0 518 393 323 315 306 289 260 236 213 192
3130.0 178 164 162 157 157 158 160 160 164 165
3170.0 169 168 157 156 153 146 150 150 151 149
3210.0 146 145 148 152 146 143 149 148 145 147
3250.0 149 149 145 149 151 149 150 147 143 151
3290.0 147 146 148 148 147 149 150 149 149 148
3330.0 150 147 151 148 152 155 148 147 150 147
3370.0 147 153 148 146 146 145 146 144 153 149
3410.0 156 150 155 162 164 172 178 192 202 218
3450.0 219 217 203 184 173 156 150 148 150 150
3490.0 149 144 153 148 150 147 145 150 152 148
3530.0 149 150 146 144 150 151 149 148 149 153
3570.0 153 149 157 149 149 150 151 150 142 148
3610.0 156 149 153 145 153 153 161 157 155 162
3650.0 164 168 165 159 160 158 161 152 164 155
3690.0 155 157 148 153 150 155 159 162 160 160
3730.0 163 162 160 157 167 153 152 157 158 158
3770.0 153 157 147 151 158 155 149 156 151 159
3810.0 157 157 157 147 144 157 157 151 159 149
3850.0 154 149 152 154 148 155 149 154 155 159
3890.0 151 155 155 167 154 155 157 153 152 156
3930.0 154 155 155 152 150 156 148 156 161 158
##END=
