##TITLE=1,1'-Biphenyl, 2,2',3,3',4,4',5,5',6,6'-decafluoro-
##JCAMP-DX=4.24
##DATA TYPE=INFRARED SPECTRUM
##ORIGIN=Sadtler Research Labs Under US-EPA Contract
##OWNER=NIST Standard Reference Data Program
##CAS REGISTRY NO=434-90-2
##MOLFORM=C 12 F 10
##XUNITS=1/CM
##YUNITS=ABSORBANCE
##XFACTOR=1.0
##YFACTOR=0.000056738
##DELTAX=4.0
##FIRSTX=450.0
##LASTX=3966.0
##FIRSTY=0.000000
##MAXX=3966
##MINX=450
##MAXY=0.56738
##MINY=0
##NPOINTS=880
##XYDATA=(X++(Y..Y))
450.0 0 58 145 113 95 58 81 178 191 176
490.0 213 236 282 300 228 197 234 293 310 239
530.0 140 143 228 189 166 105 166 255 173 147
570.0 79 177 261 258 212 144 106 178 247 187
610.0 136 179 230 260 239 121 173 255 251 161
650.0 153 198 210 231 110 129 143 170 184 174
690.0 166 155 187 211 169 170 263 545 1343 2608
730.0 2231 811 186 160 231 205 176 174 212 256
770.0 173 163 173 234 227 190 164 174 243 225
810.0 178 172 175 224 204 177 160 180 192 194
850.0 177 181 192 215 230 174 138 197 217 199
890.0 164 163 166 167 173 162 162 166 200 193
930.0 171 179 196 242 286 278 308 400 514 672
970.0 882 1151 1599 2293 3031 3474 3405 2979 2358 1768
1010.0 1365 1097 863 697 642 631 627 639 621 584
1050.0 530 478 498 535 576 865 2088 5153 6444 3629
1090.0 1228 468 286 293 318 299 314 254 265 265
1130.0 248 189 177 217 259 290 263 237 235 227
1170.0 208 182 188 181 197 186 164 158 180 172
1210.0 172 154 147 149 172 172 163 156 185 196
1250.0 199 190 187 194 221 230 231 227 264 340
1290.0 466 529 411 280 213 196 193 193 193 202
1330.0 198 181 174 183 200 218 209 199 212 249
1370.0 302 347 383 351 295 260 221 203 230 274
1410.0 277 243 222 221 247 274 264 254 279 315
1450.0 380 424 482 605 766 968 1221 1593 2171 3141
1490.0 4534 6144 7300 7790 8321 9606 10000 7593 4271 2365
1530.0 1556 992 593 383 326 308 292 248 251 296
1570.0 355 396 373 329 309 317 318 306 292 289
1610.0 290 289 284 299 350 404 435 461 539 647
1650.0 662 541 386 286 264 257 225 182 181 181
1690.0 188 189 154 153 154 181 179 157 151 175
1730.0 197 204 189 170 169 169 167 150 132 140
1770.0 158 151 140 131 137 146 148 140 131 138
1810.0 139 155 146 128 138 147 151 145 130 126
1850.0 145 144 136 126 136 153 161 161 145 139
1890.0 143 133 128 122 124 133 141 141 123 123
1930.0 132 135 131 117 119 127 130 131 122 112
1970.0 121 128 129 118 121 122 127 128 118 112
2010.0 118 126 136 127 117 126 135 134 132 115
2050.0 129 142 136 126 124 132 140 141 122 114
2090.0 125 131 131 117 114 118 127 130 121 111
2130.0 111 120 129 119 107 112 114 118 119 102
2170.0 110 116 109 109 100 109 109 125 116 107
2210.0 107 115 119 119 111 124 131 131 122 105
2250.0 98 104 107 112 108 103 111 121 121 103
2290.0 111 110 127 127 117 110 109 123 128 103
2330.0 95 98 122 135 109 91 109 153 171 120
2370.0 91 95 115 125 109 103 105 113 123 113
2410.0 105 105 122 121 108 104 102 116 129 129
2450.0 120 110 118 119 108 101 100 112 127 126
2490.0 116 116 116 126 108 108 99 98 107 97
2530.0 84 78 92 107 88 91 87 86 96 86
2570.0 76 68 78 86 91 81 75 84 100 95
2610.0 93 85 92 101 109 100 94 99 110 110
2650.0 100 95 97 107 117 90 80 79 88 86
2690.0 70 61 60 75 77 66 61 66 77 77
2730.0 76 67 68 76 76 62 58 58 62 65
2770.0 59 57 57 64 73 64 56 57 73 74
2810.0 74 59 67 72 74 67 58 59 68 77
2850.0 76 64 60 66 86 81 63 68 60 78
2890.0 79 61 63 64 82 87 72 67 81 107
2930.0 106 93 82 100 102 102 82 76 85 103
2970.0 100 85 76 76 94 87 69 68 69 88
3010.0 87 76 70 80 88 94 85 70 90 88
3050.0 90 82 73 82 94 101 88 74 78 98
3090.0 96 88 75 76 94 86 76 76 79 83
3130.0 85 87 78 79 91 114 107 90 90 108
3170.0 117 105 98 84 98 109 94 86 83 92
3210.0 94 102 84 76 85 104 102 85 85 105
3250.0 113 114 99 85 97 122 114 98 100 109
3290.0 125 122 103 100 103 120 121 111 91 101
3330.0 119 109 93 94 99 111 111 108 94 99
3370.0 138 140 122 105 114 133 149 127 107 95
3410.0 121 141 119 97 98 126 117 108 101 102
3450.0 120 131 121 100 112 118 129 123 111 120
3490.0 121 130 120 110 114 125 155 139 111 116
3530.0 122 131 125 108 107 108 123 110 97 84
3570.0 106 114 119 103 109 110 127 119 119 112
3610.0 113 131 117 109 105 110 113 114 98 87
3650.0 88 98 107 88 76 82 80 96 84 74
3690.0 59 90 92 92 73 75 102 100 97 81
3730.0 85 90 94 88 77 68 68 78 77 60
3770.0 56 57 61 59 56 56 56 60 57 56
3810.0 56 56 73 81 73 57 74 78 78 65
3850.0 56 56 65 68 56 56 56 60 56 56
3890.0 56 56 56 56 56 56 56 56 56 56
3930.0 56 56 59 82 78 75 55 56 56 56
##END=
