##TITLE=Cyclohexanemethanol, .alpha.-propyl-
##JCAMP-DX=4.24
##DATA TYPE=INFRARED SPECTRUM
##ORIGIN=Sadtler Research Labs Under US-EPA Contract
##OWNER=NIST Standard Reference Data Program
##CAS REGISTRY NO=4352-42-5
##MOLFORM=C 10 H 20 O
##XUNITS=1/CM
##YUNITS=ABSORBANCE
##XFACTOR=1.0
##YFACTOR=0.000118042
##DELTAX=4.0
##FIRSTX=450.0
##LASTX=3966.0
##FIRSTY=0.039190
##MAXX=3966
##MINX=450
##MAXY=1.18042
##MINY=0
##NPOINTS=880
##XYDATA=(X++(Y..Y))
450.0 332 151 144 81 116 109 148 157 114 63
490.0 131 186 153 141 92 194 129 157 124 177
530.0 151 70 128 133 153 100 129 74 126 91
570.0 80 90 100 122 68 159 101 121 83 108
610.0 96 76 106 97 128 92 133 66 116 144
650.0 116 109 89 117 98 119 97 100 68 108
690.0 83 86 85 93 96 81 107 93 104 92
730.0 94 82 100 125 121 142 117 137 108 110
770.0 104 101 112 101 106 86 109 88 104 83
810.0 96 93 98 125 148 189 215 259 252 266
850.0 246 235 227 200 202 188 192 189 235 261
890.0 302 325 310 278 229 218 187 193 187 203
930.0 206 217 225 206 203 179 188 198 253 326
970.0 432 532 594 594 534 498 485 521 570 641
1010.0 671 682 640 564 495 429 398 364 379 407
1050.0 442 473 502 530 528 534 510 506 482 480
1090.0 472 479 496 506 530 554 593 608 612 573
1130.0 518 459 406 381 351 339 306 284 256 255
1170.0 261 281 303 327 338 337 346 352 381 402
1210.0 423 427 404 398 368 367 362 377 370 383
1250.0 397 421 445 481 515 509 493 441 401 361
1290.0 342 340 335 342 330 320 293 287 278 278
1330.0 283 294 318 335 366 382 399 389 387 388
1370.0 420 462 516 549 550 532 475 425 366 329
1410.0 285 259 235 203 215 214 258 302 462 658
1450.0 873 1011 993 862 727 561 438 328 242 181
1490.0 165 122 110 112 92 81 115 85 77 84
1530.0 88 89 66 69 67 88 72 63 29 80
1570.0 73 68 52 74 73 64 79 64 75 67
1610.0 77 59 59 56 70 59 65 44 70 48
1650.0 71 2 62 69 61 59 60 65 75 32
1690.0 69 76 40 46 64 80 73 70 72 83
1730.0 82 60 53 66 68 65 63 62 62 64
1770.0 60 51 61 63 71 63 58 60 67 62
1810.0 68 66 68 64 63 58 65 65 64 63
1850.0 62 66 61 67 65 69 64 67 62 67
1890.0 65 64 72 63 69 62 68 65 64 65
1930.0 62 62 61 66 61 64 66 69 63 66
1970.0 65 63 63 61 63 60 62 59 58 56
2010.0 55 56 53 55 53 54 54 57 55 58
2050.0 58 57 65 61 59 58 57 60 60 61
2090.0 64 62 56 59 57 58 57 62 63 56
2130.0 62 61 63 60 63 58 61 62 63 61
2170.0 60 63 61 65 65 66 62 65 63 61
2210.0 62 61 60 57 62 58 62 63 63 60
2250.0 57 62 55 58 54 54 52 53 54 57
2290.0 67 67 76 80 95 99 102 109 109 96
2330.0 87 82 53 59 19 78 132 116 57 0
2370.0 2 2 2 1 23 39 46 54 56 55
2410.0 49 50 51 48 42 46 44 38 39 33
2450.0 38 35 35 37 39 38 37 42 40 47
2490.0 45 43 42 41 35 38 39 34 39 39
2530.0 42 47 43 45 45 46 49 51 51 55
2570.0 54 49 52 55 59 61 63 69 70 71
2610.0 77 75 81 79 83 82 86 89 84 93
2650.0 93 108 125 135 148 153 157 147 137 126
2690.0 120 115 114 110 110 111 108 106 100 105
2730.0 102 103 106 110 115 115 115 110 115 109
2770.0 119 124 133 142 158 172 192 208 220 231
2810.0 234 242 258 279 306 348 413 512 687 981
2850.0 1458 2153 3048 3780 3946 3676 3068 2600 2291 2045
2890.0 1836 1672 1650 1815 2134 2569 3141 3836 4848 6239
2930.0 7982 9397 10000 9148 7432 5335 3659 2843 2693 2901
2970.0 2963 2586 1906 1170 714 487 372 306 258 231
3010.0 206 181 177 164 141 141 142 134 128 121
3050.0 108 95 90 85 79 69 75 76 67 64
3090.0 69 62 62 62 61 62 51 55 54 59
3130.0 63 57 65 66 69 69 69 60 60 50
3170.0 55 52 50 54 56 60 60 65 61 61
3210.0 57 58 53 54 55 48 44 38 43 42
3250.0 50 48 44 51 52 47 33 43 53 61
3290.0 55 53 60 49 59 52 55 54 57 65
3330.0 62 66 62 65 66 61 71 70 66 70
3370.0 69 67 62 57 70 70 73 68 64 79
3410.0 78 69 74 92 82 95 74 80 71 78
3450.0 79 79 84 73 73 78 72 71 78 78
3490.0 80 84 74 77 73 68 64 59 63 90
3530.0 68 56 67 59 71 66 74 75 66 67
3570.0 60 62 68 73 67 58 54 60 65 79
3610.0 63 63 75 66 114 107 104 144 156 202
3650.0 225 273 307 329 316 237 195 94 80 80
3690.0 62 35 56 49 34 43 2 19 58 50
3730.0 42 13 34 38 5 26 2 15 36 41
3770.0 55 25 36 26 38 50 51 50 32 19
3810.0 53 31 40 29 31 10 23 39 43 25
3850.0 62 17 7 70 57 82 68 39 39 49
3890.0 38 43 34 67 31 18 58 48 85 70
3930.0 63 65 62 67 46 71 58 57 67 52
##END=
