##TITLE=Tetraheptylammonium bromide
##JCAMP-DX=4.24
##DATA TYPE=INFRARED SPECTRUM
##ORIGIN=Sadtler Research Labs Under US-EPA Contract
##OWNER=NIST Standard Reference Data Program
##CAS REGISTRY NO=4368-51-8
##MOLFORM=C 28 H 60 Br N
##XUNITS=1/CM
##YUNITS=ABSORBANCE
##XFACTOR=1.0
##YFACTOR=0.000115152
##DELTAX=4.0
##FIRSTX=450.0
##LASTX=3966.0
##FIRSTY=0.000000
##MAXX=3966
##MINX=450
##MAXY=1.15152
##MINY=0
##NPOINTS=880
##XYDATA=(X++(Y..Y))
450.0 0 63 89 97 87 117 113 127 120 118
490.0 143 135 140 132 122 128 139 140 131 140
530.0 127 164 143 146 147 160 153 177 202 213
570.0 215 225 198 174 138 131 128 114 113 112
610.0 121 116 105 108 115 121 136 148 170 192
650.0 204 208 191 152 130 122 119 117 116 122
690.0 134 132 153 167 188 214 249 279 301 294
730.0 278 263 236 230 221 206 198 195 193 199
770.0 199 196 191 180 169 164 155 158 157 162
810.0 156 161 171 164 170 163 165 162 165 157
850.0 161 155 145 150 154 161 159 164 165 180
890.0 181 198 203 207 210 214 217 222 216 222
930.0 218 213 206 193 185 174 170 166 170 176
970.0 177 183 188 202 209 216 227 236 246 257
1010.0 263 271 280 286 300 310 313 312 303 300
1050.0 303 312 310 314 337 366 408 465 537 626
1090.0 716 756 716 602 492 414 370 342 315 293
1130.0 282 278 278 297 332 375 401 393 357 322
1170.0 288 267 253 250 251 254 273 294 318 331
1210.0 335 343 357 384 412 424 416 410 415 422
1250.0 435 443 459 472 484 481 470 448 433 426
1290.0 431 445 456 466 455 442 413 390 371 368
1330.0 376 402 456 503 543 574 597 608 627 622
1370.0 607 584 592 602 561 458 373 319 280 264
1410.0 256 253 270 286 307 352 423 514 623 716
1450.0 834 932 1070 1163 1172 1085 870 638 464 358
1490.0 294 245 218 189 177 165 150 135 134 122
1530.0 119 109 111 100 104 98 100 92 98 89
1570.0 92 85 96 87 89 88 90 88 89 91
1610.0 89 95 95 99 103 107 121 126 135 155
1650.0 164 165 154 141 167 199 204 179 135 124
1690.0 113 117 122 138 141 142 147 154 165 183
1730.0 219 253 290 296 301 274 242 191 172 147
1770.0 135 117 109 105 94 92 89 83 80 83
1810.0 75 79 77 74 76 72 71 68 71 71
1850.0 67 66 67 65 65 66 64 62 61 63
1890.0 64 61 64 63 63 64 63 67 62 65
1930.0 63 64 64 63 64 64 64 64 64 65
1970.0 66 64 68 67 67 67 68 67 66 69
2010.0 71 70 72 73 77 76 77 76 78 77
2050.0 76 74 74 73 74 71 73 70 71 72
2090.0 70 67 69 67 69 68 67 67 67 66
2130.0 67 66 67 65 67 68 70 69 67 68
2170.0 69 70 67 69 69 68 68 68 68 67
2210.0 67 66 67 66 66 65 65 63 66 66
2250.0 66 62 64 65 66 69 68 70 71 75
2290.0 77 81 84 87 90 93 89 88 86 82
2330.0 84 79 82 73 96 81 90 86 81 79
2370.0 94 89 93 90 84 78 74 73 72 73
2410.0 72 74 72 72 70 71 68 69 72 70
2450.0 72 72 72 70 70 70 71 73 72 74
2490.0 74 75 78 76 76 79 81 81 81 84
2530.0 88 88 91 92 95 96 97 102 103 105
2570.0 109 114 116 118 121 123 126 126 130 135
2610.0 140 139 146 151 155 160 164 171 180 187
2650.0 195 204 213 226 238 248 255 264 275 284
2690.0 289 304 317 333 352 366 377 387 390 392
2730.0 403 413 424 439 446 448 459 472 489 512
2770.0 541 575 617 675 767 897 1069 1259 1389 1413
2810.0 1366 1299 1229 1174 1139 1133 1159 1228 1353 1566
2850.0 1922 2518 3325 3996 4167 3988 3628 3352 3264 3175
2890.0 2988 2873 2956 3218 3616 4102 4693 5491 6599 8001
2930.0 9291 10000 9846 9155 8087 6934 5992 5532 5548 5778
2970.0 5603 4614 3377 2410 1794 1394 1128 952 827 742
3010.0 685 634 576 511 451 401 362 332 305 282
3050.0 269 254 235 228 218 210 206 206 204 195
3090.0 188 185 173 165 156 149 143 138 134 128
3130.0 128 125 122 122 121 118 116 115 112 113
3170.0 110 108 108 105 105 101 100 96 91 89
3210.0 90 86 88 81 79 77 76 77 74 75
3250.0 74 69 70 73 71 70 70 69 69 69
3290.0 71 70 68 71 68 68 69 69 69 72
3330.0 73 76 76 73 69 68 75 72 76 74
3370.0 77 75 72 75 71 73 77 77 73 73
3410.0 72 67 75 69 76 71 70 77 72 68
3450.0 72 77 74 74 71 69 69 75 69 71
3490.0 73 70 71 73 64 71 66 69 68 67
3530.0 67 66 68 67 64 72 62 67 69 62
3570.0 75 65 76 66 71 77 68 73 69 72
3610.0 85 76 72 77 86 80 81 83 84 79
3650.0 83 88 86 82 80 80 87 81 87 79
3690.0 81 75 78 85 78 78 76 73 72 74
3730.0 80 82 81 72 95 74 79 78 73 80
3770.0 72 70 72 71 66 72 72 73 69 83
3810.0 64 77 66 62 73 72 77 73 66 64
3850.0 62 63 67 68 76 70 72 73 71 77
3890.0 73 81 67 88 67 74 67 66 65 61
3930.0 77 80 70 67 76 70 70 69 68 79
##END=
