##TITLE=Nonane, 2,2,4,4,6,8,8-heptamethyl-
##JCAMP-DX=4.24
##DATA TYPE=INFRARED SPECTRUM
##ORIGIN=Sadtler Research Labs Under US-EPA Contract
##OWNER=NIST Standard Reference Data Program
##CAS REGISTRY NO=4390-04-9
##MOLFORM=C 16 H 34
##XUNITS=1/CM
##YUNITS=ABSORBANCE
##XFACTOR=1.0
##YFACTOR=0.000067596
##DELTAX=4.0
##FIRSTX=450.0
##LASTX=3966.0
##FIRSTY=0.000203
##MAXX=3966
##MINX=450
##MAXY=0.67596
##MINY=0
##NPOINTS=880
##XYDATA=(X++(Y..Y))
450.0 3 1 6 9 14 16 10 9 22 30
490.0 13 7 6 19 35 27 33 16 22 21
530.0 31 13 18 20 29 29 14 20 36 7
570.0 1 1 22 35 5 2 13 4 0 0
610.0 6 1 9 3 3 15 12 13 9 7
650.0 15 20 17 23 2 6 12 17 10 20
690.0 16 14 13 15 18 15 15 16 22 23
730.0 14 15 15 12 16 6 0 14 6 6
770.0 15 5 6 6 5 5 5 15 3 24
810.0 19 13 19 30 21 28 28 36 21 30
850.0 33 33 32 28 19 22 21 20 21 20
890.0 29 21 30 38 49 66 78 89 83 74
930.0 66 57 58 66 81 105 130 164 206 248
970.0 230 168 117 84 67 50 43 34 40 43
1010.0 43 32 38 30 32 26 26 20 26 18
1050.0 18 27 18 18 27 35 29 34 24 24
1090.0 24 34 33 40 41 47 40 37 40 40
1130.0 46 45 53 56 63 70 86 110 124 118
1170.0 111 105 113 123 148 185 224 258 284 300
1210.0 317 317 307 306 313 347 387 420 429 376
1250.0 277 175 127 101 100 100 93 102 93 90
1290.0 82 79 70 62 62 63 63 69 70 78
1330.0 85 102 121 165 216 267 318 418 639 1017
1370.0 1253 1089 772 606 568 591 641 632 495 294
1410.0 166 117 108 107 115 138 164 195 237 294
1450.0 358 423 499 627 819 1046 1236 1307 1212 956
1490.0 637 385 235 151 105 73 65 57 48 37
1530.0 37 30 22 17 22 21 19 17 6 14
1570.0 14 13 14 21 20 14 14 14 14 16
1610.0 13 13 14 13 15 12 14 14 20 14
1650.0 14 13 14 13 12 13 14 12 14 15
1690.0 13 12 14 14 21 19 14 14 16 11
1730.0 12 9 11 12 12 12 12 13 13 5
1770.0 3 5 4 9 13 3 4 3 13 11
1810.0 3 11 11 10 3 3 9 6 2 4
1850.0 9 9 3 2 2 4 4 10 1 3
1890.0 3 7 10 3 11 11 10 11 3 10
1930.0 6 11 10 11 1 1 11 1 9 1
1970.0 1 9 1 1 1 1 6 1 1 2
2010.0 0 3 2 1 0 1 1 1 1 1
2050.0 1 1 0 1 0 0 0 0 1 1
2090.0 0 0 0 0 4 7 1 9 9 6
2130.0 6 9 0 1 0 4 0 3 0 0
2170.0 7 6 1 6 6 7 0 7 4 7
2210.0 7 7 7 7 7 7 7 7 6 6
2250.0 6 6 4 7 7 6 9 9 9 9
2290.0 11 19 20 15 16 17 15 11 9 10
2330.0 5 5 5 6 13 20 6 12 0 4
2370.0 9 12 11 20 17 14 7 15 15 15
2410.0 15 15 15 15 15 15 15 5 10 7
2450.0 14 14 14 14 14 7 6 16 6 6
2490.0 11 6 5 15 15 15 14 14 14 15
2530.0 15 15 15 15 15 20 21 22 22 21
2570.0 22 22 22 22 22 22 22 22 22 28
2610.0 29 29 30 29 22 29 30 32 31 36
2650.0 36 37 43 46 52 53 60 61 61 60
2690.0 60 60 68 63 69 72 89 90 99 99
2730.0 99 90 91 84 88 88 88 88 82 83
2770.0 74 81 82 90 99 106 122 130 137 151
2810.0 170 201 215 242 258 296 335 405 470 573
2850.0 665 756 832 949 1161 1495 1883 2207 2377 2399
2890.0 2405 2397 2522 2636 2804 2887 2984 2926 2827 2658
2930.0 2652 2670 2914 3277 3862 4633 6000 7652 10000 6741
2970.0 5278 3984 3270 2855 2577 2343 2053 1626 1125 722
3010.0 484 332 249 192 162 132 116 101 84 83
3050.0 74 67 67 61 60 60 57 53 53 52
3090.0 52 52 45 46 45 45 44 52 44 53
3130.0 49 54 44 45 50 52 52 52 52 60
3170.0 61 60 53 60 60 65 61 62 58 51
3210.0 61 61 61 62 53 45 54 51 47 47
3250.0 47 38 39 33 39 32 32 26 31 26
3290.0 24 26 22 22 27 18 18 19 20 20
3330.0 19 19 19 28 24 20 19 16 17 19
3370.0 20 27 20 21 21 21 12 12 14 14
3410.0 14 14 11 14 12 12 13 5 15 5
3450.0 5 2 15 19 15 15 15 15 15 15
3490.0 14 15 14 6 9 7 9 14 9 6
3530.0 5 5 6 6 5 13 14 14 10 6
3570.0 2 5 6 13 12 13 14 4 5 20
3610.0 5 12 12 13 13 13 12 14 11 12
3650.0 12 12 4 11 12 5 4 11 11 11
3690.0 11 11 9 10 18 10 9 9 15 10
3730.0 10 7 17 17 16 16 6 6 6 15
3770.0 15 15 14 14 18 13 13 14 20 12
3810.0 12 12 12 12 12 12 11 11 11 11
3850.0 10 10 10 12 10 10 10 16 16 16
3890.0 16 14 16 11 14 13 13 5 5 4
3930.0 4 4 3 3 3 2 2 7 10 2
##END=
