##TITLE=Acetic acid, carvacryl-,
##JCAMP-DX=4.24
##DATA TYPE=INFRARED SPECTRUM
##ORIGIN=Sadtler Research Labs Under US-EPA Contract
##OWNER=NIST Standard Reference Data Program
##CAS REGISTRY NO=4395-82-8
##MOLFORM=C 12 H 16 O 2
##XUNITS=1/CM
##YUNITS=ABSORBANCE
##XFACTOR=1.0
##YFACTOR=0.000091583
##DELTAX=4.0
##FIRSTX=450.0
##LASTX=3966.0
##FIRSTY=0.015844
##MAXX=3966
##MINX=450
##MAXY=0.91583
##MINY=0
##NPOINTS=880
##XYDATA=(X++(Y..Y))
450.0 173 120 146 69 47 94 88 154 214 258
490.0 310 388 429 455 429 376 345 322 308 294
530.0 341 365 402 468 479 544 608 709 832 997
570.0 1262 1601 2018 2475 2972 3511 3954 3984 3278 2478
610.0 1816 1591 1516 1577 1568 1505 1385 1189 1016 870
650.0 762 638 547 412 406 320 289 324 366 387
690.0 379 327 319 318 358 417 509 594 639 570
730.0 409 252 119 56 38 16 10 2 17 30
770.0 70 80 98 103 111 119 107 138 209 436
810.0 789 1247 1605 1295 846 467 214 133 117 122
850.0 134 162 174 204 200 199 191 193 208 257
890.0 297 313 298 250 202 181 175 181 200 214
930.0 220 219 219 217 212 189 156 122 92 74
970.0 62 61 65 81 104 155 206 226 212 163
1010.0 124 106 109 128 164 198 243 274 310 377
1050.0 485 659 865 1101 1332 1510 1656 1803 2028 2394
1090.0 2873 3472 4263 5335 6630 7815 8290 7952 6964 6005
1130.0 5343 4813 4271 3717 3208 2755 2342 1993 1722 1560
1170.0 1473 1398 1300 1193 1151 1170 1224 1294 1343 1344
1210.0 1297 1232 1160 1108 1052 993 924 876 843 835
1250.0 834 850 854 853 832 803 797 817 867 927
1290.0 992 1048 1093 1127 1143 1081 1051 1045 1064 1110
1330.0 1173 1251 1335 1448 1578 1732 1869 1952 1914 1795
1370.0 1540 1242 1030 950 921 895 775 641 571 592
1410.0 642 749 837 916 948 971 986 1002 984 961
1450.0 975 1020 1114 1172 1156 1085 932 788 686 664
1490.0 736 964 1297 1615 1704 1443 1014 570 348 221
1530.0 174 123 108 77 69 67 68 70 94 113
1570.0 146 170 191 182 162 139 138 156 215 290
1610.0 374 412 382 293 212 161 151 122 98 75
1650.0 50 51 61 54 70 91 95 129 152 184
1690.0 228 293 401 511 605 662 719 790 903 1036
1730.0 1202 1425 1693 2049 2502 3110 3864 4741 5756 6955
1770.0 8306 9498 10000 9731 8582 7286 6065 4979 3925 3003
1810.0 2224 1629 1215 904 695 529 425 340 278 225
1850.0 185 163 136 128 117 119 117 127 138 151
1890.0 159 147 125 88 63 46 41 32 30 29
1930.0 30 28 31 28 35 37 40 41 44 45
1970.0 45 46 48 47 46 42 45 42 41 41
2010.0 38 30 31 30 25 27 22 24 18 18
2050.0 18 18 15 15 11 13 11 12 7 2
2090.0 1 2 2 2 3 3 3 6 4 4
2130.0 4 7 6 5 8 7 7 8 8 8
2170.0 9 10 11 11 16 16 17 22 24 30
2210.0 33 36 38 37 33 32 29 27 25 23
2250.0 22 23 21 17 20 20 22 25 25 35
2290.0 40 50 58 69 73 83 69 56 59 44
2330.0 39 42 32 41 65 68 68 51 62 49
2370.0 49 55 64 67 43 23 12 9 9 8
2410.0 6 6 4 1 3 3 4 8 9 11
2450.0 15 17 21 21 26 22 23 20 20 16
2490.0 15 12 11 7 6 7 6 7 5 6
2530.0 4 6 7 4 6 8 6 9 11 12
2570.0 14 18 21 27 31 39 42 41 37 33
2610.0 27 23 22 18 15 19 19 19 21 16
2650.0 21 18 20 18 19 23 21 23 29 25
2690.0 27 26 30 37 38 48 56 70 86 94
2730.0 99 107 107 110 114 115 107 101 92 87
2770.0 84 77 74 79 89 92 100 108 118 127
2810.0 139 157 169 185 200 217 239 266 306 363
2850.0 435 533 654 814 1021 1323 1718 2093 2299 2263
2890.0 2092 1969 1945 1989 2048 2081 2101 2164 2286 2535
2930.0 2887 3284 3562 3599 3406 3176 3189 3889 5546 7347
2970.0 8276 7401 5259 3474 2312 1779 1555 1435 1371 1358
3010.0 1400 1471 1523 1475 1387 1246 1076 943 891 918
3050.0 958 983 965 889 793 696 606 544 477 430
3090.0 364 314 276 241 233 218 220 211 206 199
3130.0 178 170 145 138 118 116 99 97 96 86
3170.0 86 79 89 81 85 81 84 78 77 72
3210.0 69 70 60 57 53 48 40 42 36 34
3250.0 35 24 27 20 20 19 24 24 21 19
3290.0 20 17 11 12 8 17 12 17 11 10
3330.0 15 19 15 13 14 9 18 20 15 17
3370.0 19 19 15 22 16 16 15 15 7 11
3410.0 15 13 6 16 13 6 6 4 16 17
3450.0 11 6 8 14 11 16 8 21 31 29
3490.0 30 31 43 62 70 73 82 89 99 140
3530.0 137 161 202 292 395 455 475 613 995 2066
3570.0 3747 4839 4772 3340 1669 760 392 258 185 144
3610.0 152 109 98 66 50 92 47 29 28 44
3650.0 97 55 44 27 15 45 57 49 9 11
3690.0 50 13 14 17 14 34 57 22 15 51
3730.0 26 75 69 49 72 73 50 22 17 14
3770.0 22 0 1 3 1 4 1 17 50 32
3810.0 19 18 42 40 33 15 32 55 52 22
3850.0 22 83 49 22 55 50 45 21 44 40
3890.0 38 31 31 80 73 17 15 44 33 24
3930.0 19 34 18 16 30 38 24 9 14 12
##END=
