##TITLE=Benzylamine, p-isopropyl-,
##JCAMP-DX=4.24
##DATA TYPE=INFRARED SPECTRUM
##ORIGIN=Sadtler Research Labs Under US-EPA Contract
##OWNER=NIST Standard Reference Data Program
##CAS REGISTRY NO=4395-73-7
##MOLFORM=C 10 H 15 N
##XUNITS=1/CM
##YUNITS=ABSORBANCE
##XFACTOR=1.0
##YFACTOR=0.000084354
##DELTAX=4.0
##FIRSTX=450.0
##LASTX=3966.0
##FIRSTY=0.054830
##MAXX=3966
##MINX=450
##MAXY=0.84354
##MINY=0
##NPOINTS=880
##XYDATA=(X++(Y..Y))
450.0 650 344 289 216 186 186 394 78 318 243
490.0 336 152 267 263 220 356 358 485 346 635
530.0 443 652 728 612 606 656 802 796 881 871
570.0 980 826 844 709 577 513 511 480 337 393
610.0 279 298 224 320 287 336 305 296 348 303
650.0 445 418 485 486 597 702 751 852 859 884
690.0 802 824 753 827 838 864 893 948 1041 1076
730.0 1251 1304 1505 1607 1817 1971 2117 2270 2378 2588
770.0 2748 3022 3026 2968 2708 2438 2195 2096 2109 2070
810.0 2137 2115 2243 2301 2408 2411 2321 2209 2032 1936
850.0 1776 1737 1593 1501 1315 1181 1015 848 790 673
890.0 640 510 499 397 379 346 338 321 295 325
930.0 289 307 272 299 270 275 272 260 288 285
970.0 303 270 290 263 261 222 295 306 337 440
1010.0 626 906 975 984 791 642 645 670 718 787
1050.0 1002 1189 1292 1187 980 747 673 656 615 526
1090.0 440 455 415 470 481 481 426 382 350 316
1130.0 329 332 370 360 366 311 265 236 235 248
1170.0 252 297 302 318 291 298 270 290 311 318
1210.0 331 318 320 274 292 278 289 296 321 353
1250.0 347 384 366 379 337 363 376 423 472 452
1290.0 426 380 417 438 497 505 535 519 521 545
1330.0 567 637 672 768 782 833 857 911 993 1148
1370.0 1264 1343 1408 1482 1463 1373 1175 959 782 741
1410.0 714 791 786 845 738 708 592 644 597 661
1450.0 761 861 1077 1136 1230 1275 1181 1071 909 821
1490.0 729 759 728 830 1046 1351 1382 1360 1055 712
1530.0 421 322 267 236 225 216 210 217 276 219
1570.0 248 297 325 338 379 441 475 579 663 778
1610.0 867 977 975 950 845 777 668 600 521 522
1650.0 451 533 366 314 278 247 215 201 153 195
1690.0 137 127 165 160 147 142 187 179 177 139
1730.0 124 139 129 103 98 133 143 167 182 225
1770.0 245 284 280 318 319 318 321 312 294 262
1810.0 215 177 144 122 116 97 97 89 96 87
1850.0 86 74 82 80 95 91 108 113 139 162
1890.0 188 206 216 225 205 183 153 136 115 96
1930.0 93 90 87 76 87 72 72 60 69 52
1970.0 52 59 55 55 49 48 41 43 35 34
2010.0 32 24 21 15 12 4 10 4 8 5
2050.0 3 5 0 4 2 18 22 36 34 43
2090.0 42 43 47 38 46 42 48 42 46 48
2130.0 42 44 46 50 41 50 45 52 49 49
2170.0 45 42 50 47 44 46 49 44 47 46
2210.0 51 48 50 56 50 56 57 66 59 62
2250.0 71 66 69 67 74 72 72 72 79 81
2290.0 81 89 91 106 99 110 107 116 113 95
2330.0 99 86 83 78 82 78 99 83 94 62
2370.0 49 55 53 70 69 65 59 66 64 65
2410.0 64 60 57 56 64 59 59 54 60 59
2450.0 60 65 64 70 67 83 76 77 75 78
2490.0 73 71 75 75 79 75 76 70 67 69
2530.0 72 67 65 72 68 79 74 73 69 68
2570.0 77 81 90 92 108 111 126 128 140 137
2610.0 127 135 136 141 141 142 145 148 154 148
2650.0 156 150 152 144 157 153 154 149 145 143
2690.0 138 132 123 133 135 142 149 164 180 199
2730.0 216 220 231 229 238 242 242 240 247 255
2770.0 255 259 248 255 261 283 296 319 348 379
2810.0 413 455 499 544 589 651 734 835 951 1086
2850.0 1239 1429 1630 1842 2087 2416 2804 3161 3346 3310
2890.0 3158 2981 2940 2932 2940 2883 2842 2789 2776 2881
2930.0 3068 3357 3661 3868 3787 3676 3712 4474 6598 8862
2970.0 10000 9170 6678 4375 2782 1947 1581 1377 1308 1296
3010.0 1379 1547 1814 2114 2222 2155 1840 1465 1244 1192
3050.0 1209 1212 1242 1236 1188 1098 1016 905 817 743
3090.0 667 620 576 520 448 388 328 294 279 267
3130.0 251 257 236 227 220 192 194 192 181 191
3170.0 191 180 175 198 192 199 185 199 180 186
3210.0 183 164 148 163 179 156 141 166 135 118
3250.0 126 134 148 142 139 145 158 128 123 91
3290.0 130 91 73 86 109 90 110 105 108 102
3330.0 134 153 160 194 191 184 168 137 119 112
3370.0 118 93 123 108 109 95 107 90 129 119
3410.0 119 110 108 112 106 110 99 87 102 105
3450.0 90 82 113 115 98 82 124 119 96 88
3490.0 105 135 91 112 82 116 101 91 50 72
3530.0 90 78 67 110 65 110 89 103 106 99
3570.0 110 86 97 106 93 128 98 99 90 81
3610.0 108 75 109 66 75 107 103 100 105 118
3650.0 114 123 101 101 98 117 105 129 81 73
3690.0 108 90 89 80 86 84 72 84 57 75
3730.0 82 73 96 74 133 95 84 75 60 93
3770.0 72 100 41 69 86 76 57 99 57 109
3810.0 75 127 92 94 72 106 129 142 101 100
3850.0 98 98 103 73 71 93 95 89 87 171
3890.0 83 128 47 105 69 117 73 121 162 110
3930.0 126 73 98 89 116 84 137 89 110 73
##END=
