##TITLE=isobutyranilide
##JCAMP-DX=4.24
##DATA TYPE=INFRARED SPECTRUM
##ORIGIN=Sadtler Research Labs Under US-EPA Contract
##OWNER=NIST Standard Reference Data Program
##CAS REGISTRY NO=4406-41-1
##MOLFORM=C 10 H 13 N O
##XUNITS=1/CM
##YUNITS=ABSORBANCE
##XFACTOR=1.0
##YFACTOR=0.000046826
##DELTAX=4.0
##FIRSTX=450.0
##LASTX=3966.0
##FIRSTY=0.018777
##MAXX=3966
##MINX=450
##MAXY=0.46826
##MINY=0
##NPOINTS=880
##XYDATA=(X++(Y..Y))
450.0 401 359 340 388 366 440 459 446 492 567
490.0 691 764 781 893 937 900 845 877 827 788
530.0 818 806 745 598 473 406 354 296 244 202
570.0 200 190 165 214 252 219 162 123 91 66
610.0 84 105 96 76 44 31 28 20 8 38
650.0 69 109 96 216 221 330 532 654 856 1078
690.0 1246 1076 958 766 579 438 316 296 288 379
730.0 541 755 1063 1490 1729 1880 1794 1486 1140 831
770.0 537 357 230 159 128 114 88 101 109 119
810.0 127 130 103 90 92 69 82 49 80 78
850.0 86 84 104 111 100 129 130 147 140 162
890.0 173 182 199 198 180 172 195 232 253 309
930.0 356 372 350 312 252 217 189 161 147 120
970.0 119 106 114 116 107 111 115 120 131 135
1010.0 138 167 192 217 271 291 313 324 355 433
1050.0 537 663 782 842 860 827 778 723 670 652
1090.0 656 690 745 775 790 795 790 828 879 942
1130.0 1036 1219 1524 1928 2251 2300 2049 1564 1144 919
1170.0 890 1007 1193 1397 1438 1328 1104 830 675 629
1210.0 662 744 891 1099 1394 1762 2078 2203 2105 1769
1250.0 1401 1129 942 849 817 868 1002 1213 1470 1713
1290.0 1966 2289 2624 2738 2601 2212 1787 1467 1204 943
1330.0 707 581 538 570 607 624 629 631 639 666
1370.0 704 709 742 826 929 954 931 800 688 657
1410.0 692 859 1133 1799 2929 4678 5975 6162 5182 3266
1450.0 1801 1290 1142 1276 1530 1864 2135 2360 2464 2655
1490.0 3180 4388 5970 7602 8952 9737 10000 9409 7939 5842
1530.0 3897 2486 1683 1193 945 816 704 625 603 609
1570.0 630 715 878 1123 1481 1991 2641 3372 3697 3305
1610.0 2406 1452 800 534 382 323 267 238 240 220
1650.0 201 186 221 225 258 284 356 463 564 714
1690.0 921 1168 1475 2032 2837 3905 4968 5881 6120 5826
1730.0 4985 3689 2549 1759 1199 918 739 618 492 429
1770.0 359 306 300 249 214 156 136 116 96 97
1810.0 84 74 72 61 56 51 70 78 74 71
1850.0 86 95 91 85 78 58 73 60 44 25
1890.0 17 23 23 31 38 45 44 56 56 82
1930.0 95 98 98 85 82 89 73 53 41 19
1970.0 16 14 17 13 16 13 13 17 16 21
2010.0 24 18 14 15 13 16 26 23 22 21
2050.0 32 31 25 28 24 24 20 19 14 11
2090.0 11 19 17 22 23 20 22 17 13 14
2130.0 14 9 8 6 6 5 7 8 7 9
2170.0 10 12 8 8 8 8 1 6 4 1
2210.0 6 10 10 9 10 15 15 16 19 22
2250.0 19 26 32 34 30 33 35 32 36 37
2290.0 40 33 37 35 35 34 44 31 35 43
2330.0 14 2 17 29 3 78 1 18 1 1
2370.0 0 23 40 48 46 48 51 44 46 39
2410.0 39 42 41 46 46 45 49 46 43 46
2450.0 45 46 45 40 43 39 42 42 36 31
2490.0 33 30 38 37 36 39 43 49 50 56
2530.0 53 53 52 50 45 42 36 36 30 36
2570.0 36 39 37 40 37 37 35 33 32 35
2610.0 34 38 38 38 39 42 41 45 47 42
2650.0 43 47 54 52 58 56 54 46 47 44
2690.0 44 43 42 44 46 50 48 55 58 62
2730.0 65 70 77 85 85 88 84 77 73 77
2770.0 78 77 76 75 72 77 82 83 87 90
2810.0 98 99 108 111 115 121 118 125 133 142
2850.0 159 181 219 264 325 422 543 692 827 926
2890.0 966 986 1009 1029 1011 980 929 905 908 932
2930.0 994 1053 1142 1238 1318 1357 1413 1508 1707 2078
2970.0 2645 3099 3132 2758 2052 1471 1099 823 639 524
3010.0 477 472 527 611 706 781 785 726 628 567
3050.0 565 642 781 964 1127 1164 1073 886 703 608
3090.0 564 525 494 454 419 368 316 265 206 176
3130.0 143 128 110 104 97 96 94 89 86 84
3170.0 84 82 79 73 76 74 72 73 64 63
3210.0 62 68 55 58 55 58 47 51 45 41
3250.0 41 35 35 37 33 20 34 33 32 37
3290.0 28 25 15 19 21 24 25 30 27 21
3330.0 22 18 25 15 16 22 18 23 26 29
3370.0 20 26 38 40 51 53 53 67 82 101
3410.0 114 132 138 144 151 160 177 191 221 278
3450.0 350 435 519 578 580 553 453 351 254 187
3490.0 142 107 100 86 64 56 55 40 41 39
3530.0 40 41 31 27 38 38 47 35 45 36
3570.0 41 45 37 32 42 52 34 26 32 30
3610.0 34 32 34 35 39 43 35 47 25 27
3650.0 19 33 46 30 37 22 37 8 49 39
3690.0 43 27 37 38 31 21 20 22 16 29
3730.0 26 33 20 49 13 32 13 12 23 18
3770.0 21 24 19 11 16 14 30 23 29 28
3810.0 43 19 21 17 11 15 27 25 29 39
3850.0 27 31 30 35 30 33 38 34 49 33
3890.0 43 39 48 40 48 43 32 35 30 52
3930.0 67 31 59 48 29 29 44 36 37 54
##END=
