##TITLE=4-(para-Chlorobenzyl)-pyridine
##JCAMP-DX=4.24
##DATA TYPE=INFRARED SPECTRUM
##ORIGIN=Sadtler Research Labs Under US-EPA Contract
##OWNER=NIST Standard Reference Data Program
##CAS REGISTRY NO=4409-11-4
##MOLFORM=C 12 H 10 Cl N
##XUNITS=1/CM
##YUNITS=ABSORBANCE
##XFACTOR=1.0
##YFACTOR=0.000070377
##DELTAX=4.0
##FIRSTX=450.0
##LASTX=3966.0
##FIRSTY=0.044196
##MAXX=3966
##MINX=450
##MAXY=0.70377
##MINY=0
##NPOINTS=880
##XYDATA=(X++(Y..Y))
450.0 628 679 732 779 943 1181 1660 2111 2717 3032
490.0 3139 2717 2101 1549 996 717 538 435 268 264
530.0 208 189 168 141 191 196 223 222 326 509
570.0 847 1306 1850 2179 2174 1878 1329 901 539 403
610.0 277 264 206 179 176 164 215 230 257 281
650.0 424 571 705 739 770 628 411 317 293 310
690.0 290 323 343 394 460 516 573 580 586 614
730.0 687 766 921 1010 995 929 964 969 1015 1304
770.0 1952 3132 4458 5031 4540 3763 3473 3482 3510 3211
810.0 2694 2120 1767 1577 1542 1504 1530 1556 1655 1777
850.0 1772 1559 1184 858 596 464 345 318 276 257
890.0 258 238 245 241 286 297 360 403 461 513
930.0 627 734 717 587 407 317 228 254 258 304
970.0 302 296 306 315 448 609 728 560 508 482
1010.0 1407 3637 4482 3060 911 29 78 1 69 66
1050.0 176 243 374 580 922 1235 1305 1306 1592 2528
1090.0 4248 6652 7954 6933 4267 2241 1308 866 644 498
1130.0 430 386 378 377 381 386 373 364 353 370
1170.0 421 510 579 624 653 698 688 600 516 508
1210.0 602 789 958 1034 967 808 628 474 385 339
1250.0 321 368 449 605 876 1133 1346 1497 1435 1133
1290.0 806 641 560 521 540 539 485 435 443 445
1330.0 418 393 398 393 378 360 333 312 299 261
1370.0 255 272 316 376 508 698 1014 1411 1877 2306
1410.0 2651 2708 2638 2381 2081 1784 1620 1548 1407 1229
1450.0 981 812 683 640 677 857 1202 1897 3171 5700
1490.0 8787 10000 7821 4461 2359 1456 976 686 548 456
1530.0 439 456 530 633 828 1069 1326 1581 1809 1972
1570.0 2191 2409 2630 3012 3769 5347 7663 9713 8982 6123
1610.0 3151 1578 947 656 536 446 411 370 357 328
1650.0 313 336 305 289 304 340 431 574 805 986
1690.0 1017 879 692 469 337 256 240 219 241 230
1730.0 235 265 248 224 203 216 206 206 197 248
1770.0 305 351 310 240 171 138 111 102 109 91
1810.0 86 89 96 87 106 102 147 157 174 159
1850.0 126 106 98 103 110 129 158 199 244 299
1890.0 353 383 386 356 311 266 253 259 273 301
1930.0 313 307 271 229 181 154 133 114 88 67
1970.0 56 50 45 43 39 36 38 33 36 37
2010.0 34 34 34 39 42 43 38 37 33 31
2050.0 32 34 35 35 38 42 48 45 45 40
2090.0 38 32 27 23 21 18 18 18 14 14
2130.0 10 19 25 26 29 26 25 19 23 18
2170.0 15 12 12 13 9 10 13 13 13 14
2210.0 12 12 11 8 5 2 5 6 5 4
2250.0 8 6 12 14 19 31 39 51 58 69
2290.0 69 65 63 66 61 60 59 55 63 68
2330.0 74 73 69 81 83 81 82 70 78 78
2370.0 73 69 69 63 48 50 52 55 60 66
2410.0 65 62 61 54 53 49 47 42 40 41
2450.0 39 33 31 29 23 20 17 16 17 17
2490.0 18 17 18 18 17 18 17 19 19 17
2530.0 20 20 25 25 30 33 27 32 33 36
2570.0 42 38 41 43 43 45 45 37 34 33
2610.0 35 37 33 33 35 38 34 39 38 40
2650.0 33 35 36 41 40 38 35 29 29 29
2690.0 29 27 28 27 30 31 31 35 40 55
2730.0 56 61 57 60 64 68 68 58 53 54
2770.0 54 51 55 51 53 55 54 55 54 59
2810.0 66 71 82 101 119 136 174 219 288 368
2850.0 443 485 493 454 396 328 280 249 241 252
2890.0 275 315 371 451 568 750 995 1282 1540 1691
2930.0 1710 1585 1367 1115 886 688 564 502 505 557
2970.0 646 720 783 852 913 960 982 974 947 933
3010.0 978 1144 1486 2045 2667 3134 3263 3076 2785 2539
3050.0 2502 2535 2559 2615 2730 2876 2874 2698 2377 1989
3090.0 1640 1353 1114 901 701 503 342 225 156 117
3130.0 88 76 61 59 51 52 47 43 42 35
3170.0 33 30 29 27 25 25 23 20 22 23
3210.0 29 25 30 26 27 26 23 25 22 26
3250.0 25 31 25 31 25 18 30 21 24 32
3290.0 30 24 23 23 26 32 26 30 25 21
3330.0 25 30 36 31 36 30 34 31 29 25
3370.0 22 30 24 24 25 23 24 31 34 34
3410.0 33 29 32 24 25 18 20 22 24 25
3450.0 21 22 17 18 21 18 25 16 13 14
3490.0 24 19 22 14 18 20 24 21 19 12
3530.0 21 21 21 9 19 28 9 19 19 15
3570.0 44 4 24 20 23 42 16 20 2 9
3610.0 44 16 14 11 24 38 21 39 27 25
3650.0 17 20 42 29 54 28 39 23 33 48
3690.0 44 46 51 60 49 30 43 56 44 65
3730.0 48 49 48 54 54 23 19 16 21 34
3770.0 13 33 9 13 9 22 32 0 3 8
3810.0 34 25 2 18 18 30 19 20 2 13
3850.0 13 41 29 20 23 26 3 25 33 34
3890.0 37 10 24 53 42 25 32 30 18 33
3930.0 26 24 21 38 30 19 24 27 18 17
##END=
