##TITLE=2-Dodecenoic acid
##JCAMP-DX=4.24
##DATA TYPE=INFRARED SPECTRUM
##ORIGIN=Sadtler Research Labs Under US-EPA Contract
##OWNER=NIST Standard Reference Data Program
##CAS REGISTRY NO=4412-16-2
##MOLFORM=C 12 H 22 O 2
##XUNITS=1/CM
##YUNITS=ABSORBANCE
##XFACTOR=1.0
##YFACTOR=0.000069778
##DELTAX=4.0
##FIRSTX=450.0
##LASTX=3966.0
##FIRSTY=0.000000
##MAXX=3966
##MINX=450
##MAXY=0.69778
##MINY=0
##NPOINTS=880
##XYDATA=(X++(Y..Y))
450.0 0 152 256 100 223 115 92 227 234 355
490.0 161 273 376 212 263 259 356 374 370 491
530.0 475 482 623 642 747 848 993 1101 1002 976
570.0 934 908 920 766 577 371 292 269 241 266
610.0 258 294 446 530 587 530 495 502 580 724
650.0 748 663 551 451 411 271 378 441 414 477
690.0 446 405 428 466 490 550 555 467 428 415
730.0 355 336 288 275 180 151 198 226 200 210
770.0 179 192 192 165 191 159 177 191 178 218
810.0 223 253 300 319 322 314 323 379 366 469
850.0 439 509 549 532 556 548 572 620 582 580
890.0 559 577 556 542 563 551 526 529 512 543
930.0 496 515 497 470 489 487 572 629 715 850
970.0 975 1110 1284 1389 1315 1063 862 696 597 541
1010.0 498 485 474 480 477 472 469 466 479 526
1050.0 543 590 656 700 770 895 995 1067 1127 1182
1090.0 1278 1481 1864 2397 3121 3637 3646 3361 2998 2873
1130.0 2831 2842 2878 2788 2737 2671 2656 2586 2395 2260
1170.0 2115 1936 1771 1577 1421 1302 1170 1156 1152 1140
1210.0 1147 1124 1167 1141 1148 1139 1157 1140 1155 1190
1250.0 1199 1279 1348 1410 1504 1572 1567 1611 1562 1506
1290.0 1430 1356 1334 1301 1280 1184 1105 1065 1010 996
1330.0 1031 1124 1258 1390 1566 1741 1871 1966 1946 2001
1370.0 1900 1688 1493 1296 1167 1072 1025 1030 1072 1111
1410.0 1136 1116 1050 939 895 842 851 883 948 1019
1450.0 1098 1104 1253 1283 1279 1061 832 624 495 405
1490.0 343 344 315 287 290 254 292 279 223 276
1530.0 262 263 245 239 265 287 276 254 256 295
1570.0 289 287 310 303 350 360 321 410 364 424
1610.0 476 446 612 608 748 826 959 1243 1451 1946
1650.0 2354 2675 2902 2605 1871 1412 1196 1218 1352 1586
1690.0 2015 2420 2940 3070 3003 2610 2273 1974 1874 1939
1730.0 2026 2275 2531 2897 3474 4327 5430 6705 7244 6512
1770.0 5003 3689 2892 2308 1856 1524 1183 958 782 641
1810.0 536 468 404 361 334 293 301 273 259 249
1850.0 253 252 239 240 225 221 226 208 226 208
1890.0 185 186 192 195 200 168 200 180 196 183
1930.0 159 177 176 188 160 150 164 166 176 191
1970.0 164 177 178 163 169 151 149 149 167 160
2010.0 170 163 157 143 171 160 153 162 175 170
2050.0 168 166 148 155 148 136 164 147 152 145
2090.0 133 136 122 132 142 132 136 134 125 126
2130.0 126 130 125 134 124 131 130 127 134 127
2170.0 129 132 139 128 126 120 122 123 123 117
2210.0 123 131 123 121 119 115 117 107 105 111
2250.0 114 119 118 124 126 110 114 109 108 107
2290.0 97 98 90 92 83 74 86 79 75 100
2330.0 114 98 113 92 114 79 74 76 108 109
2370.0 117 114 109 85 83 79 90 86 88 97
2410.0 85 89 90 101 105 92 99 104 101 115
2450.0 103 109 117 110 122 122 123 123 133 140
2490.0 134 148 145 149 153 155 166 166 169 169
2530.0 174 177 172 167 175 177 175 165 167 174
2570.0 173 175 171 175 177 173 177 171 166 168
2610.0 172 179 178 176 172 178 179 183 181 186
2650.0 186 193 200 204 201 197 201 211 197 193
2690.0 189 178 171 168 161 149 144 143 142 137
2730.0 142 141 147 144 152 140 145 146 149 157
2770.0 167 171 185 203 221 230 259 287 308 337
2810.0 365 418 457 508 576 657 757 900 1118 1465
2850.0 1988 2687 3420 3958 4071 3784 3290 2792 2494 2360
2890.0 2254 2235 2353 2625 2988 3465 4090 4926 6064 7561
2930.0 9063 10000 9688 8423 6695 5057 3978 3455 3316 3337
2970.0 3201 2705 1938 1332 972 775 647 564 496 458
3010.0 415 390 371 338 333 309 284 280 260 249
3050.0 241 238 234 221 196 176 161 156 150 142
3090.0 135 131 136 135 141 140 133 132 134 132
3130.0 129 131 126 128 131 128 135 143 131 136
3170.0 142 142 131 134 134 149 146 143 139 138
3210.0 148 140 142 130 134 137 135 139 137 129
3250.0 135 132 128 134 126 121 117 124 131 130
3290.0 131 117 115 123 122 120 106 117 113 116
3330.0 119 106 123 120 115 107 111 109 97 105
3370.0 105 100 103 95 96 107 103 105 110 99
3410.0 105 114 102 109 112 107 107 103 106 106
3450.0 119 120 115 112 116 126 109 130 137 131
3490.0 140 161 166 175 171 172 170 178 182 183
3530.0 195 194 215 228 223 225 254 256 294 319
3570.0 460 728 1414 2551 3221 2535 1416 699 340 241
3610.0 170 148 154 174 159 154 144 154 134 134
3650.0 74 142 123 147 117 102 109 118 151 115
3690.0 133 117 165 132 148 132 132 128 135 114
3730.0 114 108 112 141 68 142 76 137 108 135
3770.0 108 111 125 99 116 154 113 108 88 141
3810.0 118 136 91 119 96 105 90 84 90 131
3850.0 98 82 94 135 107 74 118 100 120 94
3890.0 104 74 111 93 90 113 136 124 105 111
3930.0 98 138 150 145 95 109 124 118 99 98
##END=
