##TITLE=1H-Indole-1-propanenitrile
##JCAMP-DX=4.24
##DATA TYPE=INFRARED SPECTRUM
##ORIGIN=Sadtler Research Labs Under US-EPA Contract
##OWNER=NIST Standard Reference Data Program
##CAS REGISTRY NO=4414-79-3
##MOLFORM=C 11 H 10 N 2
##XUNITS=1/CM
##YUNITS=ABSORBANCE
##XFACTOR=1.0
##YFACTOR=0.000046338
##DELTAX=4.0
##FIRSTX=450.0
##LASTX=3966.0
##FIRSTY=0.011214
##MAXX=3966
##MINX=450
##MAXY=0.46338
##MINY=0
##NPOINTS=880
##XYDATA=(X++(Y..Y))
450.0 242 257 388 784 485 984 977 488 214 32
490.0 31 274 14 181 84 646 547 203 388 64
530.0 403 240 405 413 277 394 513 235 293 288
570.0 600 600 421 409 296 356 415 407 530 467
610.0 378 313 304 447 315 365 258 299 386 247
650.0 321 441 378 258 298 460 514 343 414 416
690.0 639 702 1091 1647 2021 2549 2672 2627 3340 4627
730.0 6854 8523 10000 8345 5882 3270 2510 2137 1765 1379
770.0 1002 609 321 500 360 519 376 486 268 215
810.0 338 366 339 590 531 468 479 528 588 461
850.0 344 563 375 393 264 230 458 478 692 629
890.0 597 474 471 495 480 481 463 525 576 490
930.0 444 363 319 276 328 345 366 284 337 342
970.0 344 372 380 425 444 458 477 515 647 839
1010.0 1052 1150 989 829 598 412 397 359 408 484
1050.0 583 744 901 967 846 700 520 370 310 346
1090.0 371 275 244 322 263 261 398 396 514 621
1130.0 562 426 433 496 448 539 745 806 984 1192
1170.0 1584 1980 2282 2322 2193 1933 1558 1378 1250 1105
1210.0 964 849 872 910 1112 1336 1663 1774 1773 1584
1250.0 1287 1269 1285 1228 1044 824 734 670 690 739
1290.0 848 1013 1333 1949 2940 4296 5431 6086 5565 4437
1330.0 3115 2285 1945 1827 1846 1929 2228 2550 2855 3079
1370.0 3048 2789 2382 1928 1532 1330 1230 1135 1029 919
1410.0 908 912 967 1000 1074 1085 1022 1074 1196 1692
1450.0 2904 4122 5409 6225 5454 4195 2992 2286 2273 1966
1490.0 1582 1260 829 727 826 1208 1784 2085 2060 1754
1530.0 1353 956 801 776 917 1012 955 803 710 733
1570.0 654 663 632 505 500 411 378 480 544 774
1610.0 928 980 860 654 439 295 256 220 247 280
1650.0 217 276 262 308 292 276 311 398 393 379
1690.0 394 363 257 216 238 223 223 182 193 231
1730.0 162 163 136 177 227 246 299 307 268 227
1770.0 158 130 144 140 178 166 173 159 137 108
1810.0 79 68 62 66 77 84 129 145 159 129
1850.0 127 140 92 95 105 131 177 210 200 182
1890.0 140 103 88 83 113 149 203 213 188 149
1930.0 87 57 42 24 23 22 19 19 15 18
1970.0 17 17 13 10 18 25 21 23 20 30
2010.0 20 18 22 9 3 8 5 11 10 20
2050.0 22 16 21 25 37 25 29 21 12 14
2090.0 4 12 11 16 11 14 13 12 17 21
2130.0 23 18 20 13 19 16 16 17 12 16
2170.0 16 15 25 20 27 23 24 30 34 39
2210.0 31 48 54 50 53 64 68 98 137 179
2250.0 213 224 206 163 113 71 47 52 50 45
2290.0 52 44 69 65 81 96 98 90 87 88
2330.0 75 71 68 38 57 74 46 74 69 57
2370.0 46 54 78 66 62 53 38 39 46 44
2410.0 36 33 31 22 16 17 11 11 14 13
2450.0 14 16 27 20 24 24 29 31 41 53
2490.0 70 67 70 80 73 80 79 87 79 80
2530.0 67 55 56 64 64 57 54 62 60 63
2570.0 68 64 70 71 63 50 42 46 45 48
2610.0 52 57 57 55 62 60 58 75 72 94
2650.0 98 81 78 80 78 86 82 81 79 65
2690.0 72 75 83 87 97 102 102 98 103 96
2730.0 103 91 76 79 74 78 72 70 68 60
2770.0 75 81 100 85 96 91 86 103 103 89
2810.0 96 91 108 127 132 147 139 153 170 175
2850.0 156 161 169 194 227 271 320 406 494 578
2890.0 610 593 555 519 495 470 458 465 493 574
2930.0 722 876 1056 1217 1317 1354 1341 1317 1232 1130
2970.0 1023 911 868 810 713 616 513 425 369 312
3010.0 328 347 403 521 677 863 1016 1149 1218 1222
3050.0 1242 1309 1444 1715 1898 2033 1978 1744 1474 1284
3090.0 1105 881 665 482 359 310 267 256 262 287
3130.0 316 301 265 219 141 105 90 68 57 48
3170.0 50 55 46 46 50 55 59 49 46 41
3210.0 55 47 56 54 44 45 42 49 47 29
3250.0 36 25 36 32 30 28 23 33 27 16
3290.0 25 39 17 17 14 23 32 9 32 24
3330.0 20 40 43 41 37 35 32 24 43 25
3370.0 14 36 28 57 37 45 19 24 16 28
3410.0 52 47 26 35 33 45 47 13 39 31
3450.0 14 43 34 52 40 26 45 24 39 35
3490.0 42 38 16 66 79 57 28 36 56 76
3530.0 53 59 51 57 79 49 48 49 60 64
3570.0 66 60 60 62 55 55 48 50 39 51
3610.0 43 35 50 57 48 4 49 42 45 24
3650.0 25 27 67 63 34 42 14 34 23 41
3690.0 36 26 39 69 41 60 45 77 73 87
3730.0 33 43 71 50 36 0 43 31 47 45
3770.0 42 88 50 57 111 92 58 55 69 51
3810.0 81 88 91 12 80 97 51 37 124 52
3850.0 70 42 44 42 108 43 23 30 52 115
3890.0 89 89 24 108 96 67 19 80 64 96
3930.0 85 77 91 55 93 60 25 33 39 136
##END=
