##TITLE=Cyclobutanemethanol
##JCAMP-DX=4.24
##DATA TYPE=INFRARED SPECTRUM
##ORIGIN=Sadtler Research Labs Under US-EPA Contract
##OWNER=NIST Standard Reference Data Program
##CAS REGISTRY NO=4415-82-1
##MOLFORM=C 5 H 10 O
##XUNITS=1/CM
##YUNITS=ABSORBANCE
##XFACTOR=1.0
##YFACTOR=0.000135962
##DELTAX=4.0
##FIRSTX=450.0
##LASTX=3966.0
##FIRSTY=0.004759
##MAXX=3966
##MINX=450
##MAXY=1.35962
##MINY=0
##NPOINTS=880
##XYDATA=(X++(Y..Y))
450.0 35 242 118 186 212 251 102 196 144 192
490.0 93 175 249 124 68 75 82 158 196 128
530.0 90 78 103 153 95 85 90 126 160 190
570.0 130 97 38 57 123 137 112 128 217 136
610.0 212 268 264 277 318 269 235 319 335 239
650.0 173 224 179 164 112 232 115 164 109 151
690.0 93 140 130 108 131 97 115 88 103 62
730.0 36 140 131 16 29 215 122 148 163 103
770.0 171 156 119 142 153 176 142 149 133 82
810.0 114 123 134 169 157 142 138 121 144 182
850.0 195 164 201 248 255 307 287 306 303 318
890.0 338 346 376 400 447 492 505 553 553 561
930.0 550 549 554 553 536 563 601 625 720 797
970.0 904 1051 1206 1346 1528 1716 2014 2437 3016 3698
1010.0 4219 4535 4698 4792 4831 4621 3915 3342 3107 3137
1050.0 3130 3052 2871 2667 2404 2020 1728 1532 1425 1394
1090.0 1400 1417 1436 1448 1426 1427 1341 1255 1141 1052
1130.0 956 855 788 734 671 620 592 563 583 608
1170.0 613 662 677 716 750 751 768 766 773 769
1210.0 767 788 821 862 905 954 1038 1094 1155 1204
1250.0 1206 1194 1120 1076 1004 913 814 745 670 613
1290.0 563 530 499 479 477 484 500 551 603 649
1330.0 707 782 842 867 888 902 891 924 940 1018
1370.0 1083 1214 1336 1385 1470 1429 1388 1280 1089 944
1410.0 754 650 587 554 530 538 566 585 572 596
1450.0 611 693 671 718 646 660 628 596 503 382
1490.0 355 285 260 232 213 231 141 194 175 170
1530.0 165 143 189 156 159 123 139 159 159 108
1570.0 123 127 131 117 114 100 133 84 123 114
1610.0 97 134 109 130 96 125 108 123 112 107
1650.0 147 124 145 70 123 94 113 78 97 84
1690.0 70 56 71 95 36 45 37 63 45 3
1730.0 55 10 56 12 22 43 39 43 43 42
1770.0 42 47 24 27 30 35 52 62 64 88
1810.0 80 82 84 72 75 74 43 61 44 75
1850.0 48 50 55 49 63 52 59 50 50 53
1890.0 54 56 53 55 52 56 46 62 45 58
1930.0 57 57 59 59 59 52 58 56 53 63
1970.0 59 66 64 63 68 63 72 69 70 75
2010.0 76 87 95 100 106 106 110 106 101 93
2050.0 88 81 77 74 75 72 71 70 67 65
2090.0 64 65 68 65 68 67 70 70 73 73
2130.0 75 76 83 81 85 84 85 88 82 80
2170.0 79 73 70 69 67 69 68 70 69 69
2210.0 66 62 59 50 47 46 42 39 35 35
2250.0 35 33 32 30 30 29 29 31 32 35
2290.0 42 46 62 58 70 89 68 82 81 83
2330.0 90 70 105 31 135 50 149 72 114 96
2370.0 60 67 49 42 36 26 19 19 18 16
2410.0 19 23 23 23 23 20 21 22 19 18
2450.0 13 12 13 13 12 11 10 8 9 6
2490.0 3 3 2 2 3 6 6 8 9 11
2530.0 12 9 6 7 12 16 14 19 18 21
2570.0 23 24 23 24 25 24 26 33 34 37
2610.0 41 43 49 52 54 60 64 72 75 82
2650.0 92 98 102 104 111 116 115 124 131 132
2690.0 137 146 155 161 168 176 186 191 199 208
2730.0 219 234 242 256 264 274 285 297 307 316
2770.0 332 339 352 371 385 400 410 415 430 442
2810.0 465 489 532 592 672 785 945 1152 1437 1799
2850.0 2252 2800 3443 4146 4795 5346 5649 5735 5751 5573
2890.0 5389 5198 4968 4872 4921 5181 5611 6059 6567 7017
2930.0 7575 8001 8313 8631 8778 9079 9358 9672 10000 9970
2970.0 9784 9698 9652 9825 9693 7055 5990 5032 3928 2910
3010.0 2044 1391 943 667 516 434 386 356 335 326
3050.0 311 302 283 268 259 241 218 207 189 171
3090.0 153 140 136 117 110 98 88 74 71 63
3130.0 58 55 52 50 50 47 45 39 36 34
3170.0 40 41 42 42 48 50 44 41 45 44
3210.0 39 39 41 38 38 39 38 40 37 29
3250.0 28 29 24 20 22 22 28 32 27 22
3290.0 19 21 20 19 20 21 25 22 24 26
3330.0 26 20 13 21 24 23 19 21 22 26
3370.0 21 21 18 19 13 7 9 16 15 24
3410.0 23 21 27 27 30 28 34 46 49 50
3450.0 42 53 47 47 46 41 41 39 42 34
3490.0 40 36 45 30 33 27 40 27 29 22
3530.0 25 32 38 28 28 18 37 8 36 0
3570.0 28 13 30 26 36 36 41 33 36 52
3610.0 50 64 76 117 122 217 229 338 446 603
3650.0 728 909 1000 1152 1237 1175 1204 992 910 725
3690.0 555 389 248 180 111 74 77 40 50 20
3730.0 41 48 6 71 5 74 5 41 1 20
3770.0 29 4 14 26 5 22 0 25 14 35
3810.0 42 30 37 29 36 37 49 44 19 57
3850.0 14 126 25 63 39 53 39 4 27 10
3890.0 44 18 42 20 46 37 1 50 7 36
3930.0 32 37 30 31 38 25 67 27 42 49
##END=
