##TITLE=Heptane, 1-isothiocyanato-
##JCAMP-DX=4.24
##DATA TYPE=INFRARED SPECTRUM
##ORIGIN=Sadtler Research Labs Under US-EPA Contract
##OWNER=NIST Standard Reference Data Program
##CAS REGISTRY NO=4426-83-9
##MOLFORM=C 8 H 15 N S
##XUNITS=1/CM
##YUNITS=ABSORBANCE
##XFACTOR=1.0
##YFACTOR=0.000158923
##DELTAX=4.0
##FIRSTX=450.0
##LASTX=3966.0
##FIRSTY=0.017482
##MAXX=3966
##MINX=450
##MAXY=1.58923
##MINY=0
##NPOINTS=880
##XYDATA=(X++(Y..Y))
450.0 110 123 119 109 144 151 151 155 148 161
490.0 170 175 172 202 178 189 201 211 213 221
530.0 243 250 265 254 268 264 252 229 221 202
570.0 193 165 145 131 123 113 84 87 75 67
610.0 57 50 52 40 41 37 35 36 42 52
650.0 60 68 82 82 78 72 61 54 54 58
690.0 79 103 124 148 158 155 160 164 169 166
730.0 152 131 105 87 79 79 73 72 66 59
770.0 58 53 46 43 46 40 41 48 50 47
810.0 37 36 27 24 25 24 24 22 20 12
850.0 11 11 13 18 21 23 28 30 34 40
890.0 47 51 54 52 47 44 43 40 40 37
930.0 40 40 39 41 41 43 43 41 38 37
970.0 41 43 44 48 49 50 46 46 47 51
1010.0 53 56 61 64 69 71 76 75 77 72
1050.0 70 75 76 71 68 69 71 73 71 73
1090.0 74 77 82 99 107 103 102 107 104 97
1130.0 85 76 74 72 67 70 72 75 74 73
1170.0 70 65 66 65 69 68 70 71 74 76
1210.0 80 86 90 94 95 96 94 97 99 105
1250.0 110 118 130 135 140 143 145 148 155 170
1290.0 194 222 251 285 314 339 359 379 408 453
1330.0 538 684 910 1193 1470 1578 1492 1276 1031 863
1370.0 739 615 490 391 318 255 196 153 124 106
1410.0 96 89 89 97 111 132 180 243 333 440
1450.0 588 778 995 1115 1089 872 608 409 268 188
1490.0 143 115 104 94 88 73 57 45 38 29
1530.0 24 20 18 17 13 11 9 9 7 5
1570.0 5 5 5 2 1 3 3 3 4 3
1610.0 2 1 3 0 2 0 1 1 0 1
1650.0 4 2 2 0 3 4 7 9 14 19
1690.0 17 15 14 10 9 7 9 11 9 10
1730.0 12 15 16 22 30 38 34 24 16 9
1770.0 9 9 6 6 5 5 7 7 6 6
1810.0 7 8 6 7 8 11 10 13 15 17
1850.0 20 23 25 30 34 39 45 50 58 65
1890.0 75 82 94 105 118 132 150 167 186 208
1930.0 229 254 284 314 349 386 427 476 529 589
1970.0 660 737 826 929 1048 1185 1345 1525 1734 1977
2010.0 2256 2579 2944 3370 3859 4436 5085 5815 6601 7417
2050.0 8199 8914 9485 9848 10000 9849 9489 8948 8217 7346
2090.0 6512 5707 5008 4419 3937 3545 3215 2940 2695 2483
2130.0 2295 2140 2003 1895 1805 1730 1664 1609 1561 1519
2170.0 1488 1460 1443 1423 1405 1382 1349 1302 1239 1164
2210.0 1083 1002 921 843 759 678 597 523 460 406
2250.0 359 317 284 254 229 204 185 169 155 143
2290.0 131 123 112 108 99 93 86 83 77 74
2330.0 70 66 63 58 58 47 47 47 46 43
2370.0 37 31 28 26 20 18 18 17 15 15
2410.0 14 13 12 10 10 11 10 11 13 11
2450.0 12 13 14 14 14 14 14 14 17 16
2490.0 17 15 19 20 20 20 21 22 23 27
2530.0 27 29 30 30 33 37 35 38 38 42
2570.0 45 47 49 50 50 51 51 49 46 46
2610.0 44 42 42 41 40 37 38 38 38 40
2650.0 42 45 49 52 58 63 69 73 81 86
2690.0 89 91 94 98 103 111 118 131 146 155
2730.0 165 177 186 189 188 181 171 161 153 145
2770.0 140 135 130 131 132 134 140 145 152 160
2810.0 167 173 183 194 209 232 261 297 351 430
2850.0 571 793 1098 1416 1656 1764 1727 1685 1671 1640
2890.0 1546 1390 1260 1236 1296 1447 1686 2007 2441 2971
2930.0 3543 4022 4361 4478 4413 4165 3821 3504 3221 3078
2970.0 2892 2478 1876 1267 855 644 504 416 342 290
3010.0 250 220 199 183 168 155 143 128 119 107
3050.0 98 91 84 80 74 74 68 67 63 61
3090.0 58 55 51 49 51 45 42 41 40 41
3130.0 39 37 37 35 34 35 33 34 33 33
3170.0 33 31 32 29 28 27 26 27 28 27
3210.0 24 24 21 19 20 17 16 15 14 14
3250.0 14 15 14 14 11 14 11 12 14 12
3290.0 15 15 13 13 14 12 15 15 15 15
3330.0 13 14 15 14 15 17 19 16 17 19
3370.0 14 19 17 16 18 19 16 19 19 16
3410.0 16 23 21 19 16 20 22 16 12 15
3450.0 19 18 16 15 12 17 15 16 17 15
3490.0 14 19 16 13 13 14 13 12 14 11
3530.0 16 12 14 18 11 14 18 14 17 10
3570.0 13 17 16 17 20 19 17 16 17 13
3610.0 14 15 22 21 18 19 17 20 24 14
3650.0 18 19 22 20 18 19 17 18 23 24
3690.0 24 18 19 19 22 17 22 21 17 20
3730.0 23 20 17 17 21 25 21 20 19 24
3770.0 17 14 15 22 23 23 20 24 18 21
3810.0 15 16 22 22 18 16 16 21 23 19
3850.0 20 23 15 18 14 15 12 10 14 20
3890.0 24 19 17 21 18 20 17 14 17 12
3930.0 15 17 11 17 18 22 22 13 17 15
##END=
