##TITLE=2,6-Dimethylfluorobenzene
##JCAMP-DX=4.24
##DATA TYPE=INFRARED SPECTRUM
##ORIGIN=Sadtler Research Labs Under US-EPA Contract
##OWNER=NIST Standard Reference Data Program
##CAS REGISTRY NO=443-88-9
##MOLFORM=C 8 H 9 F
##XUNITS=1/CM
##YUNITS=ABSORBANCE
##XFACTOR=1.0
##YFACTOR=0.000067993
##DELTAX=4.0
##FIRSTX=450.0
##LASTX=3966.0
##FIRSTY=0.021010
##MAXX=3966
##MINX=450
##MAXY=0.67993
##MINY=0
##NPOINTS=880
##XYDATA=(X++(Y..Y))
450.0 309 254 323 384 426 472 531 558 567 565
490.0 506 443 428 300 182 70 32 26 49 66
530.0 45 83 58 90 134 79 80 42 40 35
570.0 17 51 63 50 82 25 38 79 8 70
610.0 27 27 11 77 67 83 42 118 190 308
650.0 485 729 734 680 669 516 316 136 10 13
690.0 8 80 152 269 445 633 763 919 2067 929
730.0 753 809 745 919 1615 2800 3818 4259 6423 9118
770.0 3738 3956 3107 1747 710 437 382 467 652 881
810.0 1081 1329 1634 1972 2063 1778 1640 1328 847 431
850.0 211 135 107 106 74 94 86 80 65 50
890.0 58 110 118 171 291 437 570 592 593 541
930.0 460 286 221 237 250 254 278 320 319 301
970.0 352 373 380 394 362 339 325 314 297 287
1010.0 288 271 274 267 290 346 377 405 438 420
1050.0 428 459 528 664 829 997 1189 1362 1556 1763
1090.0 1949 1891 1767 1584 1280 910 552 352 242 197
1130.0 187 195 226 256 312 329 328 344 348 336
1170.0 383 558 985 2028 4080 7115 9383 9423 9510 10000
1210.0 6733 3077 1193 532 310 244 211 216 250 355
1250.0 532 868 1461 2205 2768 2799 2628 2422 1719 966
1290.0 525 359 317 303 309 313 321 331 313 297
1330.0 302 293 249 227 232 215 220 215 241 259
1370.0 310 400 497 544 600 576 543 406 313 263
1410.0 279 323 466 688 1110 1618 2154 2616 3048 3540
1450.0 3832 3896 4380 5024 5758 6656 7542 7947 8092 7438
1490.0 6754 5780 4355 3013 2249 1726 1542 1403 1368 1274
1530.0 1263 1228 1201 1105 1012 891 795 706 551 485
1570.0 450 447 495 578 693 765 786 796 736 610
1610.0 492 407 391 386 375 379 401 393 377 395
1650.0 378 386 297 244 161 130 107 100 110 98
1690.0 80 79 97 87 100 110 131 151 130 108
1730.0 111 120 89 73 91 92 110 141 188 207
1770.0 243 228 201 174 133 104 84 77 81 67
1810.0 69 71 74 84 105 159 214 276 310 324
1850.0 300 264 195 134 105 90 63 58 46 48
1890.0 60 61 82 120 189 243 298 292 301 283
1930.0 223 150 101 71 56 29 31 15 20 8
1970.0 0 6 12 13 7 20 25 32 34 49
2010.0 55 72 88 94 94 86 79 79 61 39
2050.0 36 23 19 19 12 21 21 27 28 34
2090.0 35 32 35 40 35 34 34 29 35 26
2130.0 34 42 43 36 31 33 25 21 25 21
2170.0 12 5 5 20 19 5 20 11 25 13
2210.0 17 10 17 12 22 20 13 22 15 21
2250.0 23 30 45 53 44 53 56 44 53 53
2290.0 69 69 78 84 102 93 109 107 99 84
2330.0 92 98 107 102 97 88 104 87 93 99
2370.0 100 82 79 79 101 109 115 116 117 125
2410.0 93 83 84 88 97 96 93 86 88 89
2450.0 82 97 97 98 98 98 98 96 85 70
2490.0 65 57 53 46 46 48 55 54 71 64
2530.0 55 69 58 61 76 83 85 78 79 94
2570.0 80 87 87 88 108 115 103 96 82 76
2610.0 54 52 36 36 37 51 60 55 63 66
2650.0 83 82 84 75 78 61 61 62 53 62
2690.0 49 57 45 55 58 66 61 77 86 92
2730.0 115 140 178 207 248 276 276 251 210 156
2770.0 99 99 89 81 89 89 89 108 110 126
2810.0 143 157 177 196 216 246 263 293 333 395
2850.0 488 649 875 1168 1459 1729 1927 2003 1960 1844
2890.0 1710 1572 1512 1493 1585 1691 1884 2125 2519 3066
2930.0 3873 4557 4980 4965 4731 4201 3484 2843 2590 2687
2970.0 2636 2549 2560 2644 2649 2498 2270 2019 1679 1294
3010.0 1022 940 1011 1227 1618 2117 2577 2980 3289 3538
3050.0 3626 3621 3545 3481 3427 3266 2917 2461 1979 1501
3090.0 1107 818 657 574 525 501 431 386 300 246
3130.0 177 156 127 132 100 109 78 93 85 85
3170.0 79 76 75 70 76 85 62 63 47 50
3210.0 58 65 57 45 51 40 36 38 52 42
3250.0 50 47 65 43 52 46 59 36 73 37
3290.0 35 38 44 42 44 49 38 37 39 46
3330.0 31 47 45 55 44 39 39 36 38 39
3370.0 44 59 54 54 33 47 39 52 45 40
3410.0 40 32 35 36 39 20 34 42 35 19
3450.0 34 23 66 48 62 51 47 58 54 50
3490.0 44 43 53 42 48 40 63 51 51 48
3530.0 47 46 36 53 34 49 46 46 45 48
3570.0 67 54 51 67 55 80 66 49 46 61
3610.0 56 54 56 76 63 66 73 57 55 57
3650.0 48 45 53 49 48 57 60 61 75 62
3690.0 62 54 71 47 50 69 44 49 66 69
3730.0 78 86 76 92 83 71 54 56 56 81
3770.0 57 64 61 66 46 62 61 60 67 57
3810.0 67 70 62 64 62 69 72 81 86 98
3850.0 107 99 125 128 145 133 133 120 124 121
3890.0 112 107 101 90 88 81 79 61 78 86
3930.0 86 76 88 94 97 100 103 103 102 103
##END=
