##TITLE=3-Fluoro-o-xylene
##JCAMP-DX=4.24
##DATA TYPE=INFRARED SPECTRUM
##ORIGIN=Sadtler Research Labs Under US-EPA Contract
##OWNER=NIST Standard Reference Data Program
##CAS REGISTRY NO=443-82-3
##MOLFORM=C 8 H 9 F
##XUNITS=1/CM
##YUNITS=ABSORBANCE
##XFACTOR=1.0
##YFACTOR=0.000039850
##DELTAX=4.0
##FIRSTX=450.0
##LASTX=3966.0
##FIRSTY=0.015661
##MAXX=3966
##MINX=450
##MAXY=0.3985
##MINY=0
##NPOINTS=880
##XYDATA=(X++(Y..Y))
450.0 393 434 387 1292 1326 1232 814 987 1177 165
490.0 447 297 76 296 389 245 288 424 470 499
530.0 417 546 487 657 302 441 196 144 8 310
570.0 194 90 262 396 151 268 81 292 284 260
610.0 227 232 120 221 268 230 217 193 207 229
650.0 349 547 670 1055 896 1076 888 682 500 417
690.0 944 1276 956 2611 1840 1203 1043 972 483 383
730.0 376 223 263 251 430 812 1217 2285 3594 3566
770.0 5135 10000 5135 3862 3904 2607 1312 709 422 584
810.0 501 546 623 442 514 319 327 337 246 296
850.0 225 217 259 289 305 275 382 608 821 1251
890.0 1639 1839 1866 1807 1485 1047 579 430 319 322
930.0 291 332 351 322 338 357 386 403 389 415
970.0 496 521 609 729 764 756 716 665 600 563
1010.0 595 598 606 643 709 787 834 917 1000 1163
1050.0 1502 2034 2545 2829 2882 2763 2490 2190 2232 2614
1090.0 2917 3082 3094 2754 2196 1612 1101 793 584 463
1130.0 403 402 370 348 353 411 506 505 536 534
1170.0 474 469 453 613 836 917 982 902 918 704
1210.0 495 470 497 544 798 1451 2749 4185 5433 6866
1250.0 8486 8470 7239 6028 4689 2964 1656 1136 938 735
1290.0 631 557 497 394 350 351 364 397 381 399
1330.0 426 429 456 425 403 383 382 419 425 439
1370.0 450 454 522 569 628 662 629 640 528 420
1410.0 401 378 490 563 695 818 1014 1340 1580 2006
1450.0 2644 3501 4941 6677 7990 8938 9211 8934 7528 5602
1490.0 4262 3202 2151 1533 1319 1205 1149 1067 1008 857
1530.0 800 823 872 977 1094 1204 1392 1617 1870 2269
1570.0 2721 3141 3426 3700 3704 3401 2965 2480 2129 1874
1610.0 1839 2087 2058 1931 1706 1375 1018 651 425 391
1650.0 321 357 286 264 217 179 178 137 173 161
1690.0 174 162 208 253 267 303 333 388 367 383
1730.0 392 425 442 432 479 497 465 435 382 298
1770.0 252 195 153 138 148 127 139 116 127 101
1810.0 90 122 129 209 240 273 266 235 231 155
1850.0 110 67 65 60 66 74 61 66 75 87
1890.0 109 150 209 299 381 405 391 407 322 202
1930.0 126 89 74 76 78 55 68 57 66 57
1970.0 65 48 43 44 36 51 53 41 36 34
2010.0 27 31 34 28 31 25 23 27 37 37
2050.0 38 35 31 40 36 28 29 23 17 21
2090.0 22 29 26 27 37 42 46 50 59 65
2130.0 76 93 103 117 121 123 105 84 66 51
2170.0 40 37 34 38 33 37 41 42 42 37
2210.0 27 29 28 28 31 37 31 38 37 41
2250.0 41 35 41 44 33 41 53 55 56 55
2290.0 56 53 61 68 83 109 106 129 150 139
2330.0 130 101 92 138 93 129 140 151 110 109
2370.0 75 76 53 41 41 35 46 39 40 51
2410.0 56 45 55 58 63 61 66 63 64 60
2450.0 53 52 36 39 32 28 42 53 59 78
2490.0 72 73 65 57 51 50 41 48 48 46
2530.0 53 57 52 51 50 34 31 25 21 38
2570.0 40 48 51 56 58 48 35 24 20 17
2610.0 17 15 11 8 22 32 31 39 29 27
2650.0 25 21 9 15 16 15 15 12 16 8
2690.0 9 18 19 24 30 34 36 52 58 67
2730.0 77 120 139 175 189 194 186 154 117 105
2770.0 104 88 81 90 86 73 72 76 86 99
2810.0 111 129 139 154 176 205 222 253 293 356
2850.0 439 567 718 935 1180 1394 1581 1688 1720 1688
2890.0 1645 1572 1528 1505 1541 1598 1721 1932 2268 2704
2930.0 3185 3625 3885 4023 3946 3725 3543 3235 2711 2327
2970.0 2165 2090 2056 1994 1920 1815 1622 1379 1182 1077
3010.0 1063 1059 1110 1233 1419 1642 1872 2056 2182 2218
3050.0 2166 2051 1925 1881 1916 1963 1996 1965 1860 1697
3090.0 1443 1185 978 788 648 501 374 282 219 185
3130.0 176 165 138 124 128 115 116 118 118 107
3170.0 95 93 90 90 77 88 79 83 78 72
3210.0 89 78 87 80 88 65 67 77 75 80
3250.0 54 64 66 80 70 79 66 60 61 66
3290.0 71 65 84 60 68 68 70 85 67 79
3330.0 85 76 74 71 80 80 50 86 83 78
3370.0 75 69 69 67 84 82 82 72 55 67
3410.0 68 66 74 91 76 62 65 65 42 69
3450.0 62 75 74 57 50 58 60 61 60 58
3490.0 78 72 42 43 35 44 38 57 49 50
3530.0 57 63 32 30 44 40 37 62 6 72
3570.0 48 67 52 66 35 59 45 46 67 49
3610.0 60 50 52 47 57 58 82 14 59 32
3650.0 68 48 45 40 21 82 18 49 31 54
3690.0 27 54 57 35 46 10 33 52 22 84
3730.0 63 35 119 23 100 13 101 42 38 53
3770.0 46 10 15 56 35 17 48 29 32 37
3810.0 0 46 15 33 19 31 65 39 28 50
3850.0 79 30 74 16 59 64 31 36 14 38
3890.0 22 85 39 129 70 4 56 32 22 82
3930.0 84 12 26 26 106 48 70 84 18 2
##END=
