##TITLE=Benzene, 1-chloro-3-fluoro-2-methyl-
##JCAMP-DX=4.24
##DATA TYPE=INFRARED SPECTRUM
##ORIGIN=Sadtler Research Labs Under US-EPA Contract
##OWNER=NIST Standard Reference Data Program
##CAS REGISTRY NO=443-83-4
##MOLFORM=C 7 H 6 Cl F
##XUNITS=1/CM
##YUNITS=ABSORBANCE
##XFACTOR=1.0
##YFACTOR=0.000049744
##DELTAX=4.0
##FIRSTX=450.0
##LASTX=3966.0
##FIRSTY=0.016515
##MAXX=3966
##MINX=450
##MAXY=0.49744
##MINY=0
##NPOINTS=880
##XYDATA=(X++(Y..Y))
450.0 332 325 417 729 769 796 716 624 269 225
490.0 121 264 117 301 164 39 204 212 208 177
530.0 310 400 450 464 398 285 217 167 126 191
570.0 102 122 102 131 52 97 166 132 99 106
610.0 290 359 564 817 687 712 633 310 166 232
650.0 157 155 33 157 175 27 412 242 743 1232
690.0 946 2200 2613 1622 975 953 513 285 158 76
730.0 194 207 164 301 367 505 888 1383 3003 3816
770.0 4643 9506 7429 4838 4254 3025 1638 1218 771 766
810.0 729 413 472 384 397 455 375 424 390 613
850.0 1230 2606 4935 6754 7503 7673 6101 3679 1462 764
890.0 587 372 400 283 258 284 220 275 215 224
930.0 263 270 291 295 343 438 447 522 529 583
970.0 708 779 1031 1416 1907 2490 2965 3444 3648 3851
1010.0 4095 4187 4285 4047 3756 3233 2602 2175 1711 1414
1050.0 1422 1440 1496 1524 1398 1272 1010 861 653 520
1090.0 498 254 347 326 224 333 253 299 213 295
1130.0 328 356 481 540 582 632 612 676 789 1190
1170.0 1818 1883 1830 1956 1393 759 504 410 488 594
1210.0 584 602 608 573 588 961 1864 3755 6146 7473
1250.0 7812 7914 6435 3744 1939 1214 877 757 609 411
1290.0 333 241 218 183 116 171 162 176 227 227
1330.0 302 273 355 342 293 277 198 237 249 169
1370.0 306 362 420 536 460 567 520 446 368 286
1410.0 339 224 430 512 699 1555 2321 3913 5663 6546
1450.0 8413 9429 9776 9937 10000 9265 7555 6104 4527 2740
1490.0 1565 1099 851 796 709 767 966 888 1043 1056
1530.0 1048 1021 912 941 801 945 943 1194 1903 2321
1570.0 3891 5074 5932 7630 6599 6307 5104 3905 3598 3315
1610.0 2817 2215 1622 964 620 329 359 252 262 392
1650.0 255 411 326 386 296 247 229 208 135 119
1690.0 83 99 73 4 120 62 135 125 102 225
1730.0 108 205 111 139 186 177 308 323 300 288
1770.0 260 115 154 83 72 86 44 72 68 59
1810.0 58 98 56 134 181 235 311 291 284 208
1850.0 173 78 47 83 71 94 96 169 81 84
1890.0 89 110 155 212 298 332 354 292 270 163
1930.0 91 64 61 46 41 46 25 33 15 28
1970.0 45 20 24 28 24 46 32 38 42 30
2010.0 54 47 53 37 33 37 40 50 56 51
2050.0 41 23 30 40 57 61 49 68 57 53
2090.0 67 49 64 90 97 126 135 128 102 75
2130.0 48 23 35 42 30 24 11 25 23 22
2170.0 32 24 30 23 38 33 23 31 37 30
2210.0 30 29 37 40 33 46 43 36 47 46
2250.0 41 34 42 64 54 71 57 72 52 53
2290.0 66 61 72 65 60 70 71 75 71 61
2330.0 74 95 51 112 19 94 13 85 48 42
2370.0 35 36 48 49 49 44 46 64 67 81
2410.0 96 107 135 131 129 120 104 89 87 89
2450.0 106 109 106 100 106 98 94 101 115 128
2490.0 144 144 143 132 120 95 86 88 89 87
2530.0 83 77 84 79 70 74 76 85 88 94
2570.0 103 95 103 86 80 93 82 85 87 88
2610.0 85 82 85 79 76 74 76 73 71 65
2650.0 74 68 69 68 70 72 71 68 66 65
2690.0 78 76 77 85 91 98 93 108 112 107
2730.0 106 110 106 113 133 146 149 148 138 117
2770.0 98 90 84 86 81 76 83 91 95 88
2810.0 89 102 108 111 112 119 126 130 148 154
2850.0 172 202 234 284 345 423 478 503 522 525
2890.0 478 419 376 377 366 391 408 445 525 628
2930.0 783 993 1243 1403 1474 1469 1347 1155 959 822
2970.0 754 650 549 481 431 402 361 375 405 416
3010.0 455 499 517 528 520 497 478 479 487 475
3050.0 493 533 572 632 711 803 918 985 1036 1083
3090.0 1053 920 764 593 402 274 225 189 180 154
3130.0 148 145 154 151 145 142 133 130 121 136
3170.0 127 128 116 111 112 111 113 100 102 108
3210.0 107 97 101 105 90 106 105 117 100 113
3250.0 104 113 101 97 109 115 107 101 99 107
3290.0 103 103 112 102 104 100 96 92 93 110
3330.0 97 114 122 110 114 104 108 101 107 111
3370.0 99 108 95 109 109 110 112 118 95 115
3410.0 109 125 104 102 93 129 113 95 118 107
3450.0 127 119 116 95 110 123 123 128 121 117
3490.0 120 82 113 116 113 118 117 120 120 134
3530.0 112 121 138 134 127 115 118 149 122 124
3570.0 122 161 134 188 104 177 103 192 102 170
3610.0 141 109 147 104 213 102 204 151 199 116
3650.0 178 28 248 100 217 131 136 145 119 219
3690.0 96 220 184 192 173 152 103 197 153 230
3730.0 180 124 173 86 175 7 224 111 215 138
3770.0 154 173 195 137 148 195 205 117 169 0
3810.0 296 102 243 46 208 179 161 113 141 172
3850.0 191 109 102 213 198 161 171 167 188 209
3890.0 194 187 143 172 125 143 231 224 181 207
3930.0 208 211 208 167 159 205 168 250 184 235
##END=
