##TITLE=Nonadecane, 1-bromo-
##JCAMP-DX=4.24
##DATA TYPE=INFRARED SPECTRUM
##ORIGIN=Sadtler Research Labs Under US-EPA Contract
##OWNER=NIST Standard Reference Data Program
##CAS REGISTRY NO=4434-66-6
##MOLFORM=C 19 H 39 Br
##XUNITS=1/CM
##YUNITS=ABSORBANCE
##XFACTOR=1.0
##YFACTOR=0.000068100
##DELTAX=4.0
##FIRSTX=450.0
##LASTX=3966.0
##FIRSTY=0.039430
##MAXX=3966
##MINX=450
##MAXY=0.681
##MINY=0
##NPOINTS=880
##XYDATA=(X++(Y..Y))
450.0 579 545 406 373 62 178 170 371 87 61
490.0 86 241 317 255 261 83 280 264 167 106
530.0 249 339 279 257 268 98 185 289 337 269
570.0 303 239 347 248 247 253 141 242 233 179
610.0 145 216 175 246 153 202 227 251 271 298
650.0 257 317 238 256 121 123 170 182 174 142
690.0 177 219 217 241 245 233 296 338 353 269
730.0 212 299 276 331 194 103 144 266 232 206
770.0 146 116 244 216 169 136 220 242 170 134
810.0 166 125 178 169 134 138 140 167 221 206
850.0 107 141 77 154 198 142 174 125 134 152
890.0 142 121 128 260 185 157 171 111 118 135
930.0 135 136 127 159 146 118 148 160 152 143
970.0 133 157 127 140 131 118 126 124 148 154
1010.0 118 135 120 158 194 129 133 112 148 147
1050.0 152 172 141 135 132 121 142 149 177 151
1090.0 98 108 115 160 134 124 95 100 107 142
1130.0 127 136 105 100 133 108 147 150 130 118
1170.0 101 129 155 135 167 163 140 183 188 229
1210.0 240 233 238 289 278 321 290 284 309 323
1250.0 368 329 336 352 376 352 350 286 315 339
1290.0 305 301 313 306 328 257 292 248 235 209
1330.0 215 275 272 303 288 357 380 328 334 309
1370.0 280 267 203 216 183 195 194 167 131 122
1410.0 158 173 196 174 174 230 280 360 463 533
1450.0 591 685 728 795 729 652 496 325 224 203
1490.0 175 133 150 119 86 121 147 133 110 104
1530.0 117 79 89 93 102 89 76 66 97 87
1570.0 97 58 62 81 94 73 82 83 63 55
1610.0 72 96 50 84 68 56 98 99 77 69
1650.0 76 90 89 28 43 40 56 62 60 74
1690.0 66 50 82 98 54 59 69 81 68 54
1730.0 53 78 84 46 77 88 67 58 79 61
1770.0 53 69 55 55 49 48 60 63 61 39
1810.0 37 45 47 52 36 51 49 52 47 44
1850.0 37 37 48 43 37 42 38 43 47 42
1890.0 31 35 52 39 30 40 36 39 52 46
1930.0 27 31 37 38 42 30 42 32 39 35
1970.0 32 32 37 33 35 34 36 34 39 41
2010.0 31 30 40 44 50 46 39 39 45 44
2050.0 35 35 40 41 40 36 25 31 33 44
2090.0 42 30 26 24 33 31 25 29 24 30
2130.0 29 23 26 32 35 27 28 29 30 33
2170.0 22 28 22 24 34 28 22 20 22 31
2210.0 26 23 20 22 26 26 22 23 27 28
2250.0 27 25 21 22 30 30 25 22 31 42
2290.0 51 58 60 58 68 81 69 50 40 41
2330.0 43 17 21 2 53 35 48 37 36 58
2370.0 45 48 37 32 34 31 15 14 9 12
2410.0 14 17 10 9 12 15 16 19 11 0
2450.0 7 4 9 4 4 10 10 13 10 12
2490.0 10 20 18 18 19 17 21 25 17 20
2530.0 26 32 30 27 31 32 29 34 27 30
2570.0 29 36 43 39 37 39 44 50 44 46
2610.0 49 57 57 61 56 61 62 68 69 63
2650.0 71 81 89 83 82 83 89 106 102 103
2690.0 98 92 96 95 89 86 82 85 88 88
2730.0 88 89 104 110 100 99 106 107 116 119
2770.0 117 119 132 140 156 157 182 207 218 226
2810.0 247 271 313 351 392 439 493 604 749 962
2850.0 1331 1952 2882 3668 3700 3121 2471 2001 1742 1613
2890.0 1541 1571 1727 2003 2388 2838 3408 4190 5455 7264
2930.0 9182 10000 9053 7397 5584 4085 3048 2432 2185 2103
2970.0 1995 1691 1279 968 768 610 506 448 413 380
3010.0 379 384 341 293 251 206 178 165 154 153
3050.0 135 127 114 109 118 109 95 86 93 97
3090.0 95 80 82 76 82 81 75 76 76 76
3130.0 75 68 62 76 75 78 66 53 61 72
3170.0 75 57 56 58 63 65 63 54 44 62
3210.0 55 58 44 48 58 72 58 50 46 48
3250.0 46 49 27 42 42 60 54 35 44 50
3290.0 53 58 37 38 46 56 59 44 41 43
3330.0 48 55 51 44 36 56 53 54 29 33
3370.0 64 56 58 37 41 50 77 45 52 35
3410.0 50 58 53 37 43 63 69 54 50 34
3450.0 44 57 48 37 39 45 52 60 42 41
3490.0 49 54 69 41 37 44 57 57 45 44
3530.0 38 63 54 39 42 43 58 61 53 20
3570.0 38 55 54 69 17 46 52 73 56 58
3610.0 36 55 69 59 54 41 53 56 62 37
3650.0 62 45 119 61 83 14 82 78 74 54
3690.0 34 92 68 84 48 54 60 61 59 43
3730.0 35 68 54 77 101 42 88 61 75 64
3770.0 96 48 66 70 60 78 57 65 114 46
3810.0 90 27 78 84 120 87 54 64 73 48
3850.0 32 47 61 105 58 73 79 44 77 117
3890.0 98 90 36 62 88 104 30 38 53 90
3930.0 96 31 89 42 116 79 70 22 101 126
##END=
