##TITLE=1-Butanol, 3-methoxy-, acetate
##JCAMP-DX=4.24
##DATA TYPE=INFRARED SPECTRUM
##ORIGIN=Sadtler Research Labs Under US-EPA Contract
##OWNER=NIST Standard Reference Data Program
##CAS REGISTRY NO=4435-53-4
##MOLFORM=C 7 H 14 O 3
##XUNITS=1/CM
##YUNITS=ABSORBANCE
##XFACTOR=1.0
##YFACTOR=0.000067465
##DELTAX=4.0
##FIRSTX=450.0
##LASTX=3966.0
##FIRSTY=0.007826
##MAXX=3966
##MINX=450
##MAXY=0.67465
##MINY=0
##NPOINTS=880
##XYDATA=(X++(Y..Y))
450.0 116 111 103 101 101 103 110 95 79 92
490.0 98 94 101 155 144 111 130 145 114 141
530.0 142 202 182 135 79 109 109 115 145 151
570.0 174 146 156 196 176 183 215 243 297 313
610.0 277 265 247 234 252 263 260 242 271 203
650.0 215 168 138 66 42 59 40 54 51 41
690.0 47 37 29 21 16 22 8 1 14 15
730.0 28 23 9 26 22 48 60 78 78 94
770.0 88 96 95 79 89 92 98 93 122 140
810.0 167 173 202 212 219 220 212 198 190 195
850.0 195 197 215 207 241 255 263 271 272 242
890.0 218 190 173 169 168 181 191 215 230 228
930.0 235 228 227 243 282 339 371 398 396 380
970.0 386 373 366 359 365 372 403 470 542 625
1010.0 695 767 849 930 1064 1228 1469 1770 2083 2314
1050.0 2380 2252 2003 1743 1579 1538 1622 1778 2000 2265
1090.0 2513 2695 2777 2755 2623 2456 2241 2025 1847 1734
1130.0 1711 1773 1893 2021 2112 2141 2060 1914 1692 1452
1170.0 1246 1137 1104 1135 1233 1350 1504 1649 1798 1949
1210.0 2199 2660 3515 4899 6789 8745 10000 9893 8518 6722
1250.0 4991 3651 2747 2219 1906 1713 1576 1419 1228 1037
1290.0 861 723 629 568 530 492 453 422 392 371
1330.0 373 383 432 518 627 789 977 1274 1733 2229
1370.0 2557 2664 2344 1949 1665 1417 1203 977 765 601
1410.0 470 420 411 406 420 444 458 495 507 543
1450.0 607 657 718 734 753 711 644 547 450 366
1490.0 303 249 216 188 194 180 165 162 167 154
1530.0 133 133 132 137 115 112 112 114 111 89
1570.0 92 84 85 75 77 76 76 75 70 69
1610.0 71 66 76 76 74 76 87 90 82 97
1650.0 95 124 100 104 103 115 120 130 136 159
1690.0 153 160 195 218 243 292 339 415 483 582
1730.0 729 954 1251 1699 2334 3271 4523 5782 6397 6235
1770.0 5315 3917 2789 1978 1435 1084 912 803 685 579
1810.0 480 367 278 212 172 146 127 112 96 94
1850.0 87 80 73 81 72 78 71 63 65 53
1890.0 57 53 51 50 43 51 58 58 50 51
1930.0 41 39 37 47 37 38 34 42 42 41
1970.0 42 49 58 49 47 47 56 61 57 57
2010.0 55 57 63 56 56 55 56 55 61 56
2050.0 57 55 55 55 57 56 55 55 47 55
2090.0 48 48 46 40 39 36 37 39 40 31
2130.0 32 33 31 31 38 34 39 31 29 34
2170.0 30 33 39 38 31 30 30 23 31 32
2210.0 15 15 19 18 16 23 15 15 15 23
2250.0 14 14 17 7 7 8 0 8 9 15
2290.0 8 8 9 16 8 11 11 17 9 17
2330.0 0 1 1 24 5 1 1 1 1 2
2370.0 3 17 15 10 9 3 10 10 9 10
2410.0 3 18 9 12 15 11 11 11 11 16
2450.0 17 17 18 17 26 26 17 17 27 18
2490.0 18 19 19 11 12 18 12 12 12 4
2530.0 6 8 12 11 7 4 12 11 20 19
2570.0 12 20 19 16 27 28 31 30 32 35
2610.0 41 34 28 41 34 28 42 40 34 43
2650.0 47 51 37 40 51 57 57 43 50 41
2690.0 34 29 31 43 42 56 58 58 67 67
2730.0 66 74 73 68 67 73 81 89 84 85
2770.0 95 109 109 124 140 148 171 199 235 285
2810.0 363 461 627 824 1016 1126 1103 976 810 692
2850.0 634 655 698 757 810 869 928 984 1044 1111
2890.0 1123 1137 1147 1198 1240 1304 1370 1468 1537 1631
2930.0 1725 1803 1866 1885 1857 1781 1688 1587 1582 1701
2970.0 1963 2323 2689 2858 2752 2365 1879 1436 1034 763
3010.0 575 445 368 316 282 256 241 227 215 208
3050.0 186 186 179 171 156 155 149 144 119 120
3090.0 115 100 105 91 91 77 76 75 63 59
3130.0 57 58 51 48 40 38 39 33 33 32
3170.0 33 33 27 35 24 25 38 32 26 27
3210.0 35 11 19 13 34 33 19 11 2 22
3250.0 12 7 5 27 6 13 14 5 20 20
3290.0 13 17 7 7 6 6 6 9 7 7
3330.0 21 7 14 7 16 8 2 11 8 8
3370.0 8 16 8 9 15 9 9 8 9 13
3410.0 8 16 11 15 8 10 16 16 10 21
3450.0 16 9 12 12 14 17 13 31 25 31
3490.0 10 39 31 52 75 66 48 36 26 38
3530.0 21 8 16 9 8 21 26 47 56 70
3570.0 78 82 86 110 109 95 88 94 74 65
3610.0 48 32 34 10 5 24 14 14 6 21
3650.0 23 28 21 22 22 24 21 24 19 29
3690.0 21 28 13 14 21 12 10 12 15 10
3730.0 16 20 14 12 18 12 12 3 4 12
3770.0 17 13 12 9 5 5 12 10 10 18
3810.0 19 19 21 16 18 17 16 23 21 19
3850.0 24 23 23 23 14 14 13 10 20 21
3890.0 21 22 21 19 11 13 15 13 12 21
3930.0 21 26 28 28 19 19 20 20 25 27
##END=
