##TITLE=2(3H)-Furanone, dihydro-5,5-dimethyl-4-(3-oxobutyl)-
##JCAMP-DX=4.24
##DATA TYPE=INFRARED SPECTRUM
##ORIGIN=Sadtler Research Labs Under US-EPA Contract
##OWNER=NIST Standard Reference Data Program
##CAS REGISTRY NO=4436-81-1
##MOLFORM=C 10 H 16 O 3
##XUNITS=1/CM
##YUNITS=ABSORBANCE
##XFACTOR=1.0
##YFACTOR=0.000162695
##DELTAX=4.0
##FIRSTX=450.0
##LASTX=3966.0
##FIRSTY=0.026031
##MAXX=3966
##MINX=450
##MAXY=1.62695
##MINY=0
##NPOINTS=880
##XYDATA=(X++(Y..Y))
450.0 160 120 109 64 75 68 54 81 85 93
490.0 112 137 170 178 191 204 229 269 295 286
530.0 232 197 175 158 142 134 121 144 156 137
570.0 107 96 110 123 142 161 165 148 143 137
610.0 123 100 80 74 81 95 112 133 142 141
650.0 132 105 76 46 44 30 19 17 7 6
690.0 3 5 7 8 10 9 8 13 16 25
730.0 40 57 59 66 63 51 34 22 10 6
770.0 3 0 4 0 3 5 8 4 14 25
810.0 40 60 76 100 115 132 128 119 105 86
850.0 78 69 64 59 66 71 84 95 119 146
890.0 180 233 304 435 612 789 890 887 813 786
930.0 825 857 843 818 873 1031 1260 1436 1485 1387
970.0 1198 997 826 693 588 504 437 383 332 289
1010.0 256 230 212 201 195 186 188 183 189 198
1050.0 214 236 272 328 407 509 626 740 838 936
1090.0 1042 1132 1166 1162 1159 1251 1491 1810 2082 2190
1130.0 2136 1962 1758 1580 1509 1590 1781 1974 2039 1918
1170.0 1665 1402 1200 1073 1013 991 993 1014 1040 1069
1210.0 1090 1097 1104 1130 1204 1330 1522 1780 2063 2295
1250.0 2426 2440 2382 2269 2100 1836 1510 1181 910 717
1290.0 579 480 418 375 349 335 337 351 359 375
1330.0 390 417 459 523 611 746 933 1150 1329 1427
1370.0 1446 1436 1417 1267 1172 1077 907 723 524 414
1410.0 397 435 503 551 595 599 594 558 522 503
1450.0 504 506 497 458 401 341 284 218 160 132
1490.0 112 91 85 77 81 81 71 74 78 69
1530.0 73 67 78 83 77 71 73 84 70 61
1570.0 59 57 54 50 42 46 47 49 50 54
1610.0 54 54 66 60 72 64 79 87 91 102
1650.0 123 140 144 154 168 185 205 222 258 304
1690.0 352 416 510 608 732 872 1060 1281 1561 1953
1730.0 2448 2748 2734 2339 1832 1437 1238 1209 1250 1329
1770.0 1415 1514 1634 1824 2140 2653 3565 4950 6976 8866
1810.0 10000 9529 7613 5213 3311 2048 1319 884 641 472
1850.0 359 277 214 169 136 115 88 76 62 56
1890.0 50 47 44 42 45 42 41 32 31 20
1930.0 16 10 9 9 5 5 3 3 3 4
1970.0 0 3 3 3 1 0 2 0 0 0
2010.0 0 0 1 2 3 3 5 8 4 7
2050.0 4 5 5 7 7 7 11 11 11 11
2090.0 13 11 13 14 15 15 15 15 15 14
2130.0 13 14 11 12 12 13 13 13 16 16
2170.0 18 17 17 19 17 15 15 15 13 11
2210.0 12 13 12 10 11 12 14 11 12 11
2250.0 11 11 11 9 11 12 14 15 20 23
2290.0 26 32 36 43 45 49 45 41 43 38
2330.0 35 34 31 34 41 43 36 28 21 18
2370.0 19 27 32 31 21 11 8 6 7 6
2410.0 6 6 6 6 8 5 8 8 9 7
2450.0 9 10 11 10 8 9 7 5 4 5
2490.0 4 1 3 2 3 4 6 4 3 2
2530.0 2 2 2 0 0 1 0 2 3 1
2570.0 2 2 3 0 2 1 2 0 2 3
2610.0 2 5 4 5 7 10 9 12 11 15
2650.0 14 15 13 13 13 12 13 16 16 16
2690.0 18 17 17 17 17 18 20 20 19 20
2730.0 23 24 27 27 26 25 25 26 27 25
2770.0 27 27 27 29 30 35 35 41 46 52
2810.0 63 72 79 86 91 96 102 106 116 127
2850.0 142 161 181 211 247 286 325 362 404 455
2890.0 508 569 630 676 701 704 702 721 785 879
2930.0 986 1085 1174 1227 1239 1202 1102 983 860 812
2970.0 863 1077 1449 1941 2369 2297 1817 1127 619 419
3010.0 324 278 235 185 149 124 109 97 96 84
3050.0 84 80 78 75 72 71 67 68 57 58
3090.0 53 50 47 45 42 34 33 27 25 22
3130.0 18 17 15 17 14 15 11 10 12 13
3170.0 12 16 13 15 14 15 14 14 14 14
3210.0 14 14 9 11 9 10 10 11 11 10
3250.0 10 10 6 7 3 4 5 2 2 2
3290.0 2 1 3 1 3 3 2 4 3 5
3330.0 1 4 5 7 4 3 5 3 5 3
3370.0 3 7 5 7 9 10 10 9 12 12
3410.0 13 15 13 18 21 23 28 28 38 41
3450.0 43 45 36 26 20 20 11 11 8 6
3490.0 8 9 10 6 7 8 6 8 6 6
3530.0 13 10 8 9 13 15 18 20 24 32
3570.0 37 48 53 58 64 69 78 82 77 61
3610.0 52 39 32 23 16 13 13 4 3 0
3650.0 2 6 1 4 4 6 3 9 4 6
3690.0 6 4 5 4 3 7 2 1 2 4
3730.0 1 3 2 13 11 7 6 3 0 0
3770.0 2 0 0 0 1 0 0 6 3 4
3810.0 0 2 2 6 0 1 1 7 4 0
3850.0 4 9 11 2 0 7 6 4 0 0
3890.0 0 0 7 10 4 3 0 4 0 7
3930.0 1 3 4 5 4 8 0 4 9 11
##END=
