##TITLE=Benzene, 1-iodo-2-(trifluoromethyl)-
##JCAMP-DX=4.24
##DATA TYPE=INFRARED SPECTRUM
##ORIGIN=Sadtler Research Labs Under US-EPA Contract
##OWNER=NIST Standard Reference Data Program
##CAS REGISTRY NO=444-29-1
##MOLFORM=C 7 H 4 F 3 I
##XUNITS=1/CM
##YUNITS=ABSORBANCE
##XFACTOR=1.0
##YFACTOR=0.000069943
##DELTAX=4.0
##FIRSTX=450.0
##LASTX=3966.0
##FIRSTY=0.001049
##MAXX=3966
##MINX=450
##MAXY=0.69943
##MINY=0
##NPOINTS=880
##XYDATA=(X++(Y..Y))
450.0 15 139 139 82 106 159 122 128 149 199
490.0 94 29 58 82 40 95 113 61 61 60
530.0 75 124 145 78 53 64 50 86 46 58
570.0 44 71 69 94 111 190 209 247 140 58
610.0 23 32 54 49 39 182 395 442 479 355
650.0 166 109 59 90 167 445 653 841 817 526
690.0 200 93 68 42 49 100 239 420 701 788
730.0 327 288 168 161 206 536 1121 1583 2746 1899
770.0 1154 706 247 182 152 66 54 34 56 14
810.0 45 46 65 71 55 32 13 32 6 7
850.0 2 22 20 48 57 42 31 14 25 27
890.0 19 11 19 11 15 18 19 23 37 41
930.0 31 40 40 65 81 121 136 95 56 41
970.0 24 26 17 25 29 32 76 151 278 575
1010.0 1415 2037 2158 1686 823 693 1057 1092 1042 647
1050.0 337 211 165 164 145 182 293 593 1120 1602
1090.0 1891 1851 1363 1057 1317 1774 1987 1834 1251 743
1130.0 811 1043 1467 2127 3078 4554 6334 8350 8964 6565
1170.0 5223 5849 7388 7145 5269 3125 1960 1706 1389 975
1210.0 604 392 306 233 197 152 138 149 186 280
1250.0 512 955 1275 1362 1194 887 828 899 933 933
1290.0 891 1029 1541 2686 4707 7718 10000 9757 7480 3657
1330.0 1196 438 242 185 176 172 195 186 174 148
1370.0 127 107 92 78 61 65 55 58 83 110
1410.0 172 278 298 330 318 453 922 1379 1458 1134
1450.0 526 192 171 197 288 427 467 463 376 229
1490.0 128 96 39 43 10 6 14 14 7 26
1530.0 31 36 40 24 54 80 90 87 198 356
1570.0 514 611 635 607 718 877 896 729 440 218
1610.0 117 86 64 91 86 122 100 77 65 51
1650.0 10 21 43 37 38 56 51 102 76 73
1690.0 76 72 33 32 51 79 61 36 56 62
1730.0 40 23 49 55 40 33 46 46 53 53
1770.0 33 26 36 33 33 29 32 40 40 69
1810.0 81 105 122 105 80 51 51 60 68 68
1850.0 82 92 75 60 49 44 61 59 66 60
1890.0 64 75 80 84 84 83 80 80 89 126
1930.0 157 159 145 109 90 93 105 114 132 121
1970.0 107 94 82 76 76 61 56 55 57 48
2010.0 44 38 39 34 34 29 24 7 1 10
2050.0 6 13 27 37 40 31 38 48 63 76
2090.0 97 111 117 116 109 95 99 107 101 102
2130.0 94 97 103 101 103 103 103 105 111 107
2170.0 109 108 105 111 107 110 112 114 107 107
2210.0 105 107 110 113 119 124 123 116 118 129
2250.0 119 122 125 131 134 131 131 129 129 128
2290.0 128 125 132 133 124 130 143 141 128 128
2330.0 136 113 117 116 95 97 113 117 95 101
2370.0 67 83 71 92 97 105 110 112 111 114
2410.0 106 105 105 109 101 108 97 103 103 102
2450.0 109 105 101 100 95 100 102 102 108 103
2490.0 95 94 90 88 87 89 78 77 75 81
2530.0 76 81 77 85 79 75 77 81 76 76
2570.0 74 77 78 82 83 83 96 101 99 109
2610.0 114 117 115 118 136 135 120 130 127 154
2650.0 162 155 151 153 133 114 100 89 66 73
2690.0 71 67 53 38 31 27 28 25 33 21
2730.0 20 16 19 23 25 22 22 14 18 16
2770.0 2 11 10 17 21 17 23 5 12 11
2810.0 13 5 11 2 7 8 2 1 5 4
2850.0 13 15 0 1 8 0 9 3 10 5
2890.0 11 16 24 22 22 13 7 8 6 20
2930.0 15 19 11 14 34 5 15 29 20 20
2970.0 27 35 36 27 31 21 29 27 9 10
3010.0 22 15 3 19 28 35 26 20 49 34
3050.0 23 41 53 133 234 317 394 411 401 356
3090.0 256 170 95 72 57 47 43 16 16 29
3130.0 28 32 44 51 63 51 45 23 34 43
3170.0 34 27 28 38 24 45 46 38 39 41
3210.0 43 45 35 53 76 57 61 69 56 53
3250.0 56 62 72 63 65 66 75 69 75 87
3290.0 63 53 51 49 67 74 81 64 61 45
3330.0 59 94 72 86 90 81 83 72 86 63
3370.0 80 83 80 89 84 67 92 87 81 80
3410.0 76 81 68 80 88 94 92 91 79 88
3450.0 74 77 79 71 84 98 71 77 71 86
3490.0 72 83 83 95 109 88 90 82 95 104
3530.0 79 68 94 86 89 117 111 130 74 95
3570.0 85 89 100 86 86 93 101 115 112 125
3610.0 94 126 111 117 106 99 81 91 101 96
3650.0 116 90 107 102 99 111 119 114 109 141
3690.0 133 112 94 100 111 114 92 142 127 106
3730.0 140 117 132 118 128 135 129 131 153 157
3770.0 145 165 135 94 117 96 115 148 114 142
3810.0 123 126 136 99 96 106 132 164 152 89
3850.0 120 124 147 81 75 122 91 113 82 126
3890.0 125 101 117 79 83 84 108 160 181 183
3930.0 114 107 102 171 207 113 153 168 162 104
##END=
