##TITLE=Cyclohexanebutyronitrile
##JCAMP-DX=4.24
##DATA TYPE=INFRARED SPECTRUM
##ORIGIN=Sadtler Research Labs Under US-EPA Contract
##OWNER=NIST Standard Reference Data Program
##CAS REGISTRY NO=4441-66-1
##MOLFORM=C 10 H 17 N
##XUNITS=1/CM
##YUNITS=ABSORBANCE
##XFACTOR=1.0
##YFACTOR=0.000153284
##DELTAX=4.0
##FIRSTX=450.0
##LASTX=3966.0
##FIRSTY=0.000000
##MAXX=3966
##MINX=450
##MAXY=1.53284
##MINY=0
##NPOINTS=880
##XYDATA=(X++(Y..Y))
450.0 0 27 35 30 38 30 42 28 23 16
490.0 25 25 27 22 18 19 22 24 24 24
530.0 22 37 42 54 38 39 23 25 29 32
570.0 19 22 18 26 27 21 24 25 22 29
610.0 28 29 29 24 18 19 19 22 19 13
650.0 18 18 10 11 13 22 21 20 15 21
690.0 25 25 23 29 32 35 40 50 59 64
730.0 80 82 76 69 51 47 44 48 39 35
770.0 35 32 38 40 40 36 38 34 36 35
810.0 36 39 47 58 65 85 102 104 102 77
850.0 65 50 53 52 49 53 63 78 104 142
890.0 171 173 154 121 95 82 77 70 66 61
930.0 58 49 46 43 40 40 42 51 63 72
970.0 79 75 71 72 71 70 58 53 49 48
1010.0 44 44 45 45 49 47 49 47 42 38
1050.0 34 35 37 35 35 36 38 40 49 57
1090.0 62 66 66 63 53 47 39 37 33 35
1130.0 34 29 27 26 24 22 25 28 32 38
1170.0 43 42 39 37 41 45 46 46 43 43
1210.0 44 44 46 47 48 49 48 47 50 57
1250.0 66 82 108 132 147 149 134 114 98 88
1290.0 81 73 69 66 66 65 71 81 98 116
1330.0 133 146 152 166 199 229 232 203 164 143
1370.0 132 123 117 105 88 74 63 61 62 65
1410.0 71 83 98 129 182 281 412 542 684 834
1450.0 981 1095 1067 899 692 481 307 191 126 92
1490.0 76 67 55 50 46 41 39 35 33 32
1530.0 29 30 29 26 27 28 27 24 27 28
1570.0 26 27 29 27 30 30 29 28 27 27
1610.0 27 27 26 26 26 29 27 25 26 27
1650.0 23 25 26 26 26 26 24 26 24 23
1690.0 25 26 24 24 25 29 29 28 33 37
1730.0 39 36 33 25 18 10 11 13 12 13
1770.0 16 16 19 21 23 22 23 23 25 24
1810.0 24 22 22 23 21 21 23 22 21 18
1850.0 19 21 21 21 19 19 21 21 22 24
1890.0 24 23 23 23 21 20 21 20 20 20
1930.0 20 21 19 20 20 20 19 19 19 19
1970.0 19 19 19 19 18 18 20 19 21 21
2010.0 23 21 20 20 20 20 19 19 21 20
2050.0 19 20 20 18 19 19 18 19 18 18
2090.0 18 18 18 18 21 19 19 19 19 20
2130.0 21 20 22 20 19 21 20 22 22 23
2170.0 23 23 26 25 23 23 24 22 21 22
2210.0 22 22 22 24 26 28 34 42 59 82
2250.0 110 123 115 89 59 43 33 30 28 28
2290.0 28 30 33 31 31 34 26 21 19 12
2330.0 15 10 10 10 21 26 16 19 26 30
2370.0 33 36 37 38 35 27 25 22 24 22
2410.0 20 20 19 18 18 17 18 17 14 16
2450.0 15 15 13 14 12 12 11 13 14 16
2490.0 15 12 12 11 11 13 11 11 11 12
2530.0 14 17 16 16 17 15 15 17 17 16
2570.0 17 19 21 24 28 30 38 43 47 51
2610.0 54 54 53 50 49 51 50 53 57 64
2650.0 72 79 91 104 117 124 125 116 106 95
2690.0 84 78 73 71 70 67 67 66 62 58
2730.0 55 54 52 49 49 49 50 50 52 53
2770.0 55 62 68 78 90 103 122 134 147 154
2810.0 157 160 170 182 203 235 294 410 631 1021
2850.0 1610 2345 3216 3879 3844 3260 2373 1731 1374 1215
2890.0 1198 1304 1529 1862 2290 2821 3516 4377 5464 6936
2930.0 8753 10000 9976 8916 6965 5107 3492 2498 2025 1587
2970.0 1178 787 512 339 234 178 144 121 105 93
3010.0 84 76 71 65 57 53 49 47 45 38
3050.0 34 32 29 26 25 24 26 27 25 25
3090.0 27 23 27 25 21 16 17 19 18 19
3130.0 22 21 24 27 30 31 34 33 33 27
3170.0 22 21 20 17 20 18 15 18 18 16
3210.0 14 17 17 16 17 18 19 22 21 21
3250.0 19 18 17 16 14 11 11 10 11 13
3290.0 13 12 15 12 15 12 12 11 12 11
3330.0 10 14 18 18 15 20 16 19 20 22
3370.0 22 23 21 25 21 19 20 21 19 17
3410.0 18 18 14 16 16 17 21 14 18 21
3450.0 20 19 23 22 23 22 25 22 25 24
3490.0 22 20 19 21 22 20 19 20 21 21
3530.0 17 20 21 19 21 19 17 18 21 20
3570.0 18 19 18 17 16 16 22 20 16 15
3610.0 16 19 24 19 17 21 19 22 24 24
3650.0 23 24 23 26 27 26 30 25 30 22
3690.0 25 25 24 26 32 29 27 24 29 29
3730.0 24 20 31 25 32 28 26 31 27 27
3770.0 28 31 29 25 31 30 30 27 29 29
3810.0 26 29 28 31 32 30 28 25 24 29
3850.0 25 20 22 26 13 25 17 16 21 28
3890.0 27 28 28 31 28 28 31 22 21 29
3930.0 26 23 26 29 32 29 28 23 19 29
##END=
