##TITLE=10-Eicosanone, 11-hydroxy-
##JCAMP-DX=4.24
##DATA TYPE=INFRARED SPECTRUM
##ORIGIN=Sadtler Research Labs Under US-EPA Contract
##OWNER=NIST Standard Reference Data Program
##CAS REGISTRY NO=4443-65-6
##MOLFORM=C 20 H 40 O 2
##XUNITS=1/CM
##YUNITS=ABSORBANCE
##XFACTOR=1.0
##YFACTOR=0.000063733
##DELTAX=4.0
##FIRSTX=450.0
##LASTX=3966.0
##FIRSTY=0.000637
##MAXX=3966
##MINX=450
##MAXY=0.63733
##MINY=0
##NPOINTS=880
##XYDATA=(X++(Y..Y))
450.0 10 94 76 111 77 94 18 105 74 7
490.0 34 34 67 36 47 59 78 16 19 36
530.0 40 43 39 81 61 60 66 46 41 34
570.0 21 66 50 53 54 50 37 48 51 45
610.0 26 35 37 40 34 27 28 36 23 23
650.0 14 21 24 45 9 47 42 39 29 60
690.0 53 55 82 87 108 131 170 206 205 192
730.0 189 172 144 146 133 139 121 125 107 105
770.0 98 80 85 71 72 68 63 51 41 35
810.0 45 38 37 51 53 48 39 32 50 55
850.0 47 53 69 66 63 65 83 75 76 88
890.0 85 101 96 88 98 98 98 91 100 103
930.0 109 126 123 122 129 136 141 148 164 182
970.0 188 197 200 209 243 255 281 302 323 347
1010.0 384 415 434 469 496 511 511 498 491 484
1050.0 505 529 561 598 642 682 710 709 695 667
1090.0 625 584 544 506 473 453 461 489 527 531
1130.0 486 430 387 349 311 284 258 249 248 249
1170.0 257 252 255 250 251 246 239 237 228 233
1210.0 237 243 254 270 287 311 337 355 377 410
1250.0 431 446 449 443 423 422 427 426 419 403
1290.0 401 398 409 419 421 422 414 411 404 404
1330.0 416 449 495 560 610 663 693 687 649 609
1370.0 560 530 522 542 536 522 497 488 483 466
1410.0 445 416 388 359 342 347 385 436 514 593
1450.0 696 808 929 983 916 778 574 392 272 199
1490.0 146 117 102 77 63 57 42 38 34 22
1530.0 21 15 21 3 14 13 17 10 16 4
1570.0 13 4 20 10 6 8 7 10 9 16
1610.0 12 12 22 17 18 13 25 19 29 29
1650.0 40 47 65 56 77 90 111 143 165 186
1690.0 222 289 387 561 814 1211 1748 2261 2326 1828
1730.0 1197 789 529 392 299 241 210 170 160 150
1770.0 160 151 159 141 134 102 90 72 63 59
1810.0 48 44 36 37 25 20 14 15 8 9
1850.0 10 11 9 7 8 2 8 3 8 6
1890.0 9 5 3 10 7 1 3 2 2 0
1930.0 5 6 6 2 3 5 7 3 5 0
1970.0 4 3 3 0 4 3 3 4 0 8
2010.0 6 12 6 12 11 14 20 14 14 15
2050.0 13 12 12 11 11 12 16 12 11 12
2090.0 15 14 12 13 10 11 8 11 8 8
2130.0 11 6 8 5 5 5 10 10 10 14
2170.0 14 11 16 18 17 15 16 16 15 10
2210.0 11 9 5 8 5 6 4 7 3 6
2250.0 4 6 8 7 8 10 14 20 21 27
2290.0 31 48 51 57 60 66 53 44 49 35
2330.0 36 26 23 22 68 45 50 28 38 30
2370.0 37 33 58 57 49 27 23 16 23 24
2410.0 20 17 18 20 23 17 18 20 19 15
2450.0 21 21 24 21 25 20 22 23 22 23
2490.0 27 24 26 31 30 35 28 30 32 36
2530.0 37 37 39 41 44 43 44 45 44 48
2570.0 49 51 51 54 56 52 58 64 61 64
2610.0 63 67 69 78 79 77 85 81 91 95
2650.0 92 98 106 110 114 121 124 128 131 132
2690.0 130 135 135 135 137 133 135 137 140 141
2730.0 147 149 162 163 167 171 171 171 181 190
2770.0 198 206 220 230 256 272 290 313 336 369
2810.0 396 438 480 523 580 655 750 872 1054 1338
2850.0 1773 2411 3215 3908 4079 3789 3326 2927 2684 2527
2890.0 2367 2311 2433 2716 3133 3665 4344 5206 6400 7943
2930.0 9446 10000 9426 8220 6882 5680 4785 4270 4051 3992
2970.0 3735 3035 2155 1506 1110 866 698 572 488 414
3010.0 357 315 284 257 230 211 193 167 155 149
3050.0 133 120 108 101 93 88 84 82 79 78
3090.0 72 67 65 62 60 53 51 48 52 45
3130.0 43 46 48 43 39 35 36 45 41 39
3170.0 44 33 39 33 32 25 37 26 23 25
3210.0 25 25 21 17 21 17 18 17 9 12
3250.0 16 8 13 4 12 12 12 16 10 11
3290.0 4 1 11 6 4 5 4 7 5 1
3330.0 8 3 10 9 10 10 7 12 8 16
3370.0 13 13 11 4 10 21 17 30 17 18
3410.0 23 36 45 33 38 32 31 29 29 39
3450.0 46 52 50 52 51 59 63 73 89 95
3490.0 110 141 173 210 280 340 410 445 444 393
3530.0 337 289 241 213 188 155 136 121 110 105
3570.0 102 104 99 75 67 61 45 32 25 34
3610.0 30 19 31 17 9 34 24 15 32 37
3650.0 66 61 67 54 30 36 18 29 9 21
3690.0 17 21 8 16 6 4 11 9 13 3
3730.0 9 24 18 17 65 5 27 1 7 24
3770.0 20 11 4 17 5 16 5 24 13 27
3810.0 0 18 28 21 7 12 15 16 30 17
3850.0 26 35 31 18 28 32 24 20 21 30
3890.0 26 27 31 38 30 38 31 18 12 25
3930.0 30 10 33 36 20 26 11 28 34 36
##END=
