##TITLE=8-Hexadecanone, 9-hydroxy-
##JCAMP-DX=4.24
##DATA TYPE=INFRARED SPECTRUM
##ORIGIN=Sadtler Research Labs Under US-EPA Contract
##OWNER=NIST Standard Reference Data Program
##CAS REGISTRY NO=4444-11-5
##MOLFORM=C 16 H 32 O 2
##XUNITS=1/CM
##YUNITS=ABSORBANCE
##XFACTOR=1.0
##YFACTOR=0.000118979
##DELTAX=4.0
##FIRSTX=450.0
##LASTX=3966.0
##FIRSTY=0.009756
##MAXX=3966
##MINX=450
##MAXY=1.18979
##MINY=0
##NPOINTS=880
##XYDATA=(X++(Y..Y))
450.0 82 75 79 66 45 73 62 75 60 18
490.0 37 30 27 53 30 31 51 39 24 17
530.0 48 38 39 41 43 75 71 61 45 63
570.0 50 46 50 57 53 44 51 54 59 36
610.0 35 48 51 39 36 26 33 43 31 29
650.0 26 28 43 41 45 52 38 51 42 62
690.0 57 61 86 86 105 129 172 208 219 213
730.0 212 191 161 149 138 130 122 116 109 121
770.0 111 104 98 89 80 76 67 58 56 52
810.0 47 43 48 54 52 56 55 53 55 54
850.0 55 53 59 63 68 69 76 81 85 100
890.0 97 112 112 105 105 109 107 108 114 121
930.0 133 143 142 153 165 177 199 211 225 238
970.0 245 255 269 295 338 376 420 463 508 538
1010.0 562 570 568 567 563 575 604 649 713 773
1050.0 839 896 956 1015 1081 1094 1065 1003 959 925
1090.0 895 857 812 759 719 707 739 806 877 887
1130.0 820 724 646 590 537 485 438 396 366 350
1170.0 349 349 359 367 376 381 382 381 372 373
1210.0 369 371 372 384 408 445 487 530 573 608
1250.0 634 649 657 669 682 679 656 621 587 566
1290.0 562 568 581 582 577 573 566 562 557 561
1330.0 576 609 670 748 816 875 920 923 883 825
1370.0 761 720 717 760 784 770 744 726 704 674
1410.0 635 587 543 499 472 468 505 554 624 702
1450.0 807 924 1049 1112 1062 941 743 532 374 275
1490.0 209 164 137 112 98 82 69 57 52 42
1530.0 39 33 32 23 20 23 20 17 18 12
1570.0 16 15 20 17 12 16 14 20 14 24
1610.0 20 23 26 24 25 23 32 29 38 35
1650.0 49 54 71 71 88 101 131 166 186 216
1690.0 251 323 423 617 921 1452 2258 3116 3388 2800
1730.0 1887 1229 814 586 447 367 320 282 266 260
1770.0 267 269 272 253 229 186 152 122 99 84
1810.0 66 55 45 39 27 19 15 11 10 6
1850.0 5 6 4 4 3 0 4 2 3 4
1890.0 3 4 4 5 2 0 3 2 3 4
1930.0 6 3 5 3 4 6 6 6 5 4
1970.0 4 6 7 8 10 10 9 11 10 12
2010.0 13 15 17 20 20 20 24 22 23 21
2050.0 21 20 20 20 18 21 21 19 19 19
2090.0 19 20 19 18 18 18 19 20 19 18
2130.0 16 18 17 15 18 19 18 17 19 21
2170.0 21 22 22 24 23 21 22 21 22 21
2210.0 20 18 18 20 16 15 15 16 16 16
2250.0 14 15 16 17 16 18 19 19 19 20
2290.0 20 24 27 29 31 32 36 29 35 40
2330.0 33 31 39 54 38 50 48 44 48 41
2370.0 40 38 41 40 32 27 24 20 23 23
2410.0 20 19 19 19 22 18 21 23 21 19
2450.0 20 20 22 22 23 19 19 19 21 22
2490.0 23 20 23 23 24 25 26 26 28 27
2530.0 31 30 33 37 35 35 37 37 37 41
2570.0 45 46 46 46 48 47 52 53 53 55
2610.0 57 60 61 65 68 72 73 74 81 81
2650.0 84 90 95 99 100 107 110 117 118 117
2690.0 121 118 121 118 120 119 120 121 123 127
2730.0 129 136 148 159 161 163 161 162 169 178
2770.0 183 194 206 218 240 262 284 305 332 358
2810.0 389 426 468 516 574 641 734 856 1026 1281
2850.0 1669 2249 3022 3774 4175 4147 3825 3485 3267 3106
2890.0 2848 2670 2702 2938 3333 3851 4524 5364 6487 7857
2930.0 9318 10000 9852 9084 8025 6892 6039 5581 5524 5696
2970.0 5514 4560 3235 2225 1615 1239 989 817 689 591
3010.0 513 453 409 364 331 304 277 251 230 210
3050.0 191 178 164 151 144 137 131 125 120 117
3090.0 111 106 104 98 96 89 88 83 81 76
3130.0 74 74 73 71 69 66 66 68 63 61
3170.0 61 60 59 62 59 55 59 50 48 45
3210.0 44 44 38 35 36 32 30 31 29 26
3250.0 27 24 26 21 25 22 23 24 20 18
3290.0 17 16 23 19 20 15 16 19 20 20
3330.0 20 17 19 22 18 21 20 20 21 24
3370.0 26 22 27 21 24 32 29 35 37 40
3410.0 43 51 56 54 57 53 48 46 41 42
3450.0 48 51 56 59 61 65 69 78 94 116
3490.0 143 188 241 316 420 538 672 734 724 646
3530.0 551 469 399 346 301 254 232 204 180 172
3570.0 180 186 181 150 119 87 71 61 55 51
3610.0 50 43 49 45 45 55 58 51 62 68
3650.0 87 108 107 97 64 53 39 33 27 29
3690.0 29 27 25 19 20 15 24 16 24 22
3730.0 26 33 28 16 29 11 10 18 17 24
3770.0 17 27 20 18 17 25 16 15 14 20
3810.0 27 21 28 19 16 26 20 20 21 23
3850.0 27 33 30 28 33 26 25 22 27 31
3890.0 20 29 28 31 31 28 24 27 22 29
3930.0 29 22 23 21 16 20 24 25 29 25
##END=
