##TITLE=Phosphine oxide, diethyltetra-decyl-,
##JCAMP-DX=4.24
##DATA TYPE=INFRARED SPECTRUM
##ORIGIN=Sadtler Research Labs Under US-EPA Contract
##OWNER=NIST Standard Reference Data Program
##CAS REGISTRY NO=4445-67-4
##MOLFORM=C 18 H 39 O P
##XUNITS=1/CM
##YUNITS=ABSORBANCE
##XFACTOR=1.0
##YFACTOR=0.000031937
##DELTAX=4.0
##FIRSTX=450.0
##LASTX=3966.0
##FIRSTY=0.004759
##MAXX=3966
##MINX=450
##MAXY=0.31937
##MINY=0
##NPOINTS=880
##XYDATA=(X++(Y..Y))
450.0 149 57 140 141 59 56 160 159 167 226
490.0 164 104 141 86 145 24 96 117 85 114
530.0 45 87 135 28 42 106 96 121 106 77
570.0 37 42 51 69 35 13 27 51 46 14
610.0 79 107 66 78 59 84 67 71 92 91
650.0 113 133 109 162 196 350 386 399 481 453
690.0 487 466 522 520 591 633 690 710 724 687
730.0 664 687 666 731 776 890 979 1087 1142 1157
770.0 1141 1138 1140 1107 1109 1075 1003 908 808 708
810.0 616 516 458 419 365 346 287 259 206 177
850.0 166 180 145 135 163 156 133 144 156 169
890.0 154 142 185 207 222 254 238 261 271 297
930.0 282 249 210 208 226 224 193 193 207 248
970.0 268 274 308 340 375 399 442 485 529 565
1010.0 611 644 688 681 710 765 793 739 643 547
1050.0 493 458 335 245 244 287 332 362 368 382
1090.0 367 340 330 323 319 333 347 354 361 360
1130.0 369 381 409 430 467 515 578 654 742 838
1170.0 907 968 1033 1077 1122 1205 1380 1615 1781 1720
1210.0 1429 1072 795 629 554 530 534 547 542 547
1250.0 556 560 604 653 679 695 699 629 554 487
1290.0 405 347 308 297 268 265 246 233 217 210
1330.0 203 221 240 274 310 335 341 325 312 300
1370.0 296 293 314 319 309 293 288 301 344 428
1410.0 487 505 490 428 388 376 392 437 528 631
1450.0 792 927 1079 1134 1046 843 599 420 319 280
1490.0 293 273 253 217 158 117 90 53 48 71
1530.0 94 130 130 124 104 65 26 15 4 17
1570.0 3 7 2 18 9 17 11 25 27 22
1610.0 34 30 25 28 31 36 35 36 28 23
1650.0 27 8 29 30 25 20 34 38 41 32
1690.0 47 46 46 42 50 59 56 53 59 70
1730.0 85 104 115 126 99 57 46 50 61 61
1770.0 60 48 55 44 48 50 42 41 45 44
1810.0 35 35 30 24 23 24 14 17 13 14
1850.0 15 19 26 24 12 17 26 22 23 20
1890.0 27 23 25 27 23 28 28 32 27 25
1930.0 25 29 28 25 33 25 24 25 29 30
1970.0 33 33 32 32 32 33 33 37 38 35
2010.0 36 36 39 37 42 46 42 40 46 33
2050.0 30 30 34 36 36 37 35 36 40 34
2090.0 31 31 23 27 29 21 25 26 21 18
2130.0 26 18 27 24 26 21 24 27 19 23
2170.0 17 24 27 21 28 28 33 33 28 32
2210.0 27 32 36 29 26 26 33 28 30 35
2250.0 29 27 30 32 31 36 40 40 50 77
2290.0 93 114 142 166 173 199 171 157 164 144
2330.0 116 103 109 115 157 182 160 126 106 90
2370.0 124 128 143 155 106 50 28 20 17 19
2410.0 16 14 12 19 12 9 20 17 13 16
2450.0 20 12 12 18 14 16 7 16 17 18
2490.0 16 17 18 23 24 22 27 23 19 28
2530.0 22 24 30 31 28 35 32 29 31 38
2570.0 30 34 34 34 34 48 47 47 46 52
2610.0 50 55 61 62 51 61 72 65 77 71
2650.0 70 86 91 91 97 100 103 96 97 112
2690.0 111 107 99 96 98 111 102 104 99 103
2730.0 103 93 96 100 114 112 107 101 102 111
2770.0 109 127 138 145 161 189 205 241 261 295
2810.0 326 363 396 460 529 597 707 866 1126 1532
2850.0 2134 2846 3509 3856 3671 3190 2730 2420 2327 2361
2890.0 2442 2633 2905 3248 3703 4268 4965 5884 7115 8596
2930.0 9802 10000 9054 7608 6131 4853 3908 3289 2991 2915
2970.0 2834 2615 2225 1772 1353 1026 772 568 430 339
3010.0 269 220 178 145 139 123 101 97 88 75
3050.0 73 65 65 57 56 50 52 60 67 65
3090.0 65 58 72 67 54 64 71 85 97 95
3130.0 95 93 94 88 83 69 72 67 74 70
3170.0 68 69 65 54 46 56 49 64 51 45
3210.0 47 55 56 46 39 52 44 30 34 29
3250.0 43 23 33 28 32 43 49 25 36 43
3290.0 35 27 42 31 42 49 28 35 37 43
3330.0 39 30 35 34 33 49 48 51 32 34
3370.0 55 49 49 52 54 44 34 42 41 42
3410.0 73 40 44 28 47 53 40 55 47 44
3450.0 38 42 49 36 58 65 72 54 57 59
3490.0 32 42 41 35 42 46 43 35 33 36
3530.0 47 47 34 24 18 20 8 36 36 28
3570.0 31 22 22 33 31 49 53 64 65 54
3610.0 76 78 100 98 103 101 93 76 69 60
3650.0 27 41 47 46 48 39 74 54 40 38
3690.0 31 44 54 49 46 47 47 35 49 47
3730.0 40 53 21 47 9 14 8 40 24 5
3770.0 25 23 21 24 20 10 21 24 39 17
3810.0 36 9 27 9 8 1 4 9 0 25
3850.0 27 30 9 33 17 7 1 44 30 15
3890.0 1 12 51 32 52 40 28 61 76 33
3930.0 30 31 37 10 62 46 13 1 23 80
##END=
