##TITLE=Cycloheptanemethylamine
##JCAMP-DX=4.24
##DATA TYPE=INFRARED SPECTRUM
##ORIGIN=Sadtler Research Labs Under US-EPA Contract
##OWNER=NIST Standard Reference Data Program
##CAS REGISTRY NO=4448-77-5
##MOLFORM=C 8 H 17 N
##XUNITS=1/CM
##YUNITS=ABSORBANCE
##XFACTOR=1.0
##YFACTOR=0.000139267
##DELTAX=4.0
##FIRSTX=450.0
##LASTX=3966.0
##FIRSTY=0.001950
##MAXX=3966
##MINX=450
##MAXY=1.39267
##MINY=0
##NPOINTS=880
##XYDATA=(X++(Y..Y))
450.0 14 20 88 49 17 36 30 9 15 17
490.0 2 27 11 51 24 36 35 64 35 58
530.0 62 60 61 64 50 42 25 28 32 33
570.0 28 38 51 58 58 65 77 75 68 67
610.0 60 49 52 49 50 49 59 64 59 61
650.0 70 68 74 85 81 125 111 114 125 139
690.0 160 177 201 231 270 307 352 391 434 477
730.0 538 643 758 869 1002 1154 1289 1372 1399 1341
770.0 1220 1091 962 835 724 627 554 495 440 399
810.0 371 335 310 285 265 247 229 214 201 193
850.0 176 166 151 138 131 123 119 121 119 120
890.0 121 127 126 127 126 119 108 99 98 95
930.0 97 98 100 102 108 112 110 104 96 93
970.0 82 80 78 82 88 94 99 104 106 106
1010.0 115 125 135 144 145 142 128 121 120 129
1050.0 149 171 196 228 270 317 360 384 378 344
1090.0 285 222 169 128 102 80 64 57 52 50
1130.0 45 41 37 34 32 31 33 34 31 32
1170.0 35 39 42 48 56 63 72 74 76 77
1210.0 79 82 80 69 72 75 75 74 74 71
1250.0 71 74 71 73 79 84 98 109 121 122
1290.0 128 118 111 98 94 82 87 82 92 95
1330.0 107 125 147 177 203 234 260 269 290 275
1370.0 275 282 293 305 293 275 231 185 136 125
1410.0 87 106 96 122 114 174 209 387 484 656
1450.0 777 872 1027 981 931 762 635 466 363 260
1490.0 245 203 204 167 181 161 129 132 134 131
1530.0 91 130 93 123 100 112 108 121 138 109
1570.0 131 114 159 127 160 164 192 206 253 286
1610.0 344 408 467 497 468 454 367 306 224 213
1650.0 126 202 107 115 96 128 85 111 61 79
1690.0 54 61 54 87 47 54 52 71 70 92
1730.0 94 120 90 77 42 47 41 38 33 21
1770.0 29 17 6 3 18 0 19 4 19 17
1810.0 21 17 34 21 42 30 28 35 27 39
1850.0 25 29 25 28 18 29 19 24 24 21
1890.0 28 21 24 23 20 25 15 30 16 21
1930.0 21 20 21 22 21 24 23 22 24 21
1970.0 25 24 24 25 25 20 25 22 24 23
2010.0 25 21 24 18 21 19 23 19 19 18
2050.0 20 18 18 17 17 15 17 16 13 15
2090.0 15 13 13 13 11 13 14 14 12 11
2130.0 9 14 12 12 12 10 11 9 9 8
2170.0 8 8 8 6 8 7 5 7 5 6
2210.0 4 4 5 3 3 2 1 3 2 2
2250.0 3 3 3 3 4 5 6 7 9 10
2290.0 13 18 20 26 28 31 28 27 26 19
2330.0 21 24 15 18 29 33 25 22 23 30
2370.0 29 32 37 41 33 26 24 25 26 26
2410.0 27 27 27 27 27 27 28 31 30 31
2450.0 33 35 35 39 39 39 40 41 44 42
2490.0 44 45 44 47 48 49 51 50 52 55
2530.0 57 61 61 63 67 71 74 76 77 80
2570.0 83 84 85 85 85 88 91 92 96 98
2610.0 101 104 106 110 114 118 124 127 134 139
2650.0 146 150 157 168 179 189 201 212 222 232
2690.0 238 240 242 239 233 230 227 226 229 231
2730.0 237 244 248 250 253 254 252 249 247 245
2770.0 244 249 252 261 277 295 316 342 368 398
2810.0 430 463 505 559 623 707 826 992 1248 1625
2850.0 2135 2753 3345 3717 3791 3606 3207 2754 2362 2114
2890.0 2081 2279 2695 3319 4115 5030 6088 7238 8477 9556
2930.0 10000 9612 8503 6886 5113 3579 2465 1740 1275 985
2970.0 791 645 528 442 378 331 300 277 260 246
3010.0 237 230 221 207 199 188 182 176 170 165
3050.0 162 156 152 146 142 137 129 122 116 108
3090.0 104 101 97 93 87 85 83 80 74 76
3130.0 72 72 66 66 66 63 59 59 56 54
3170.0 54 54 52 51 49 48 48 47 46 43
3210.0 47 46 42 38 35 37 37 34 32 32
3250.0 29 28 30 29 28 27 27 27 26 24
3290.0 17 20 22 20 18 22 22 20 19 24
3330.0 26 31 37 43 48 51 52 49 43 34
3370.0 30 23 22 18 22 17 23 24 31 28
3410.0 32 37 41 40 38 39 31 28 23 23
3450.0 25 25 19 19 17 18 18 16 17 6
3490.0 17 14 10 14 6 16 11 13 16 12
3530.0 14 9 13 14 21 7 24 1 23 14
3570.0 30 16 9 17 16 35 21 1 23 17
3610.0 35 24 21 27 11 63 17 19 23 30
3650.0 55 25 47 29 29 43 26 55 18 27
3690.0 36 25 20 32 22 34 33 31 25 32
3730.0 32 37 55 16 90 23 58 18 34 33
3770.0 28 26 27 31 26 26 22 24 35 34
3810.0 31 31 16 42 21 32 29 38 19 27
3850.0 16 78 44 41 31 48 31 38 33 52
3890.0 19 48 18 64 44 42 17 50 25 24
3930.0 24 29 32 33 33 31 29 26 27 22
##END=
