##TITLE=Benzene, 4-bromo-1-chloro-2-(trifluoromethyl)-
##JCAMP-DX=4.24
##DATA TYPE=INFRARED SPECTRUM
##ORIGIN=Sadtler Research Labs Under US-EPA Contract
##OWNER=NIST Standard Reference Data Program
##CAS REGISTRY NO=445-01-2
##MOLFORM=C 7 H 3 Br Cl F 3
##XUNITS=1/CM
##YUNITS=ABSORBANCE
##XFACTOR=1.0
##YFACTOR=0.000060873
##DELTAX=4.0
##FIRSTX=450.0
##LASTX=3966.0
##FIRSTY=0.020636
##MAXX=3966
##MINX=450
##MAXY=0.60873
##MINY=0
##NPOINTS=880
##XYDATA=(X++(Y..Y))
450.0 339 274 154 200 215 389 537 453 306 161
490.0 126 87 163 100 199 254 358 407 335 313
530.0 211 200 95 94 47 82 50 62 61 25
570.0 51 57 48 22 86 68 125 135 127 99
610.0 82 72 53 60 47 52 5 30 28 71
650.0 156 350 516 353 237 92 59 30 125 191
690.0 265 233 191 143 227 516 816 815 627 382
730.0 292 159 54 56 53 68 83 47 36 54
770.0 28 27 81 142 229 229 185 167 180 285
810.0 574 1001 1379 1361 957 485 222 69 84 77
850.0 74 60 32 39 57 53 66 79 143 306
890.0 522 802 617 347 129 53 34 23 15 23
930.0 21 25 29 22 52 46 48 34 48 43
970.0 29 36 35 39 27 42 31 37 49 93
1010.0 205 583 1318 2302 2638 2021 1226 815 640 437
1050.0 307 228 256 280 324 444 803 1351 1683 1593
1090.0 1364 1537 1745 1778 1352 1026 923 791 719 951
1130.0 1446 1896 2048 2198 2793 3711 4862 6066 6804 7701
1170.0 7934 7313 7540 8399 7445 4992 2829 1819 1418 1102
1210.0 782 540 462 464 530 565 593 722 1029 1310
1250.0 1353 1214 1056 1089 1193 1207 913 697 804 1147
1290.0 1702 2758 4911 8013 10000 9225 6553 4993 4630 3767
1330.0 2192 1085 698 474 358 291 225 206 178 223
1370.0 300 465 695 1083 1725 2395 2400 1679 1082 829
1410.0 685 569 544 462 433 329 271 206 215 238
1450.0 304 423 643 1052 1471 1523 1167 667 357 185
1490.0 129 74 87 86 123 121 116 100 102 72
1530.0 70 69 69 97 76 78 99 169 184 205
1570.0 196 170 158 190 214 243 272 317 296 222
1610.0 129 83 62 57 65 79 108 140 108 94
1650.0 83 79 39 48 53 45 46 34 58 56
1690.0 46 42 61 59 50 39 53 60 39 32
1730.0 40 54 50 40 48 55 54 59 69 77
1770.0 106 125 122 131 123 104 70 49 43 34
1810.0 34 35 30 39 35 35 31 30 42 49
1850.0 46 34 29 24 26 31 23 25 35 34
1890.0 41 52 58 78 91 85 60 40 32 20
1930.0 21 22 27 34 32 29 25 29 31 27
1970.0 33 33 28 32 25 35 25 25 19 17
2010.0 17 23 24 15 17 19 23 23 21 12
2050.0 18 16 25 29 28 29 20 25 18 21
2090.0 25 31 29 27 33 37 37 33 29 23
2130.0 23 18 17 17 19 20 21 21 4 13
2170.0 13 20 14 15 20 28 22 27 27 29
2210.0 32 23 28 29 37 33 32 28 31 36
2250.0 29 38 38 43 38 41 44 43 43 45
2290.0 49 41 51 50 49 42 48 56 57 69
2330.0 39 22 33 73 6 55 25 36 8 40
2370.0 37 41 45 37 36 44 32 34 38 29
2410.0 32 26 22 23 22 19 16 29 29 26
2450.0 14 20 22 18 19 27 33 25 34 31
2490.0 32 24 21 22 26 31 31 30 24 37
2530.0 39 48 42 44 38 38 44 40 42 37
2570.0 32 32 29 24 24 17 11 21 18 22
2610.0 25 27 17 34 19 27 21 28 26 31
2650.0 33 33 35 26 30 30 38 38 31 42
2690.0 41 40 38 34 28 35 41 36 37 32
2730.0 31 40 32 31 41 39 30 33 42 43
2770.0 50 46 42 43 49 50 54 52 50 56
2810.0 54 61 59 56 59 51 62 46 48 44
2850.0 43 43 51 47 54 57 58 73 66 66
2890.0 65 69 64 54 53 58 60 75 66 71
2930.0 73 74 75 56 67 57 65 57 69 63
2970.0 57 78 69 58 53 62 56 66 58 59
3010.0 76 55 70 65 79 64 72 72 63 68
3050.0 64 75 63 71 82 83 84 108 128 145
3090.0 139 115 97 106 113 102 86 61 94 86
3130.0 87 90 79 86 67 99 78 81 67 82
3170.0 95 88 75 82 87 70 83 76 80 73
3210.0 94 87 94 74 80 102 79 80 59 89
3250.0 94 90 97 96 70 81 74 75 69 83
3290.0 90 87 88 89 80 71 83 112 101 99
3330.0 85 97 75 87 116 99 99 125 111 96
3370.0 70 66 76 80 107 107 80 74 82 67
3410.0 95 113 92 103 81 60 76 102 101 119
3450.0 113 101 75 119 78 76 83 57 120 120
3490.0 82 69 87 102 89 74 30 50 95 116
3530.0 102 106 97 77 83 79 85 107 92 26
3570.0 95 47 92 30 43 117 103 94 56 74
3610.0 43 96 41 47 110 72 126 64 119 79
3650.0 92 61 60 55 101 40 99 41 58 52
3690.0 45 57 46 49 90 116 61 36 38 65
3730.0 84 34 26 65 0 91 22 48 138 55
3770.0 98 63 41 42 12 61 156 26 9 5
3810.0 5 64 11 37 88 130 140 72 1 115
3850.0 188 157 10 3 82 41 83 64 50 15
3890.0 81 112 132 16 31 53 80 125 136 71
3930.0 125 24 7 70 67 234 158 102 45 118
##END=
