##TITLE=2H-Pyran, 3,4-dihydro-2-methoxy-
##JCAMP-DX=4.24
##DATA TYPE=INFRARED SPECTRUM
##ORIGIN=Sadtler Research Labs Under US-EPA Contract
##OWNER=NIST Standard Reference Data Program
##CAS REGISTRY NO=4454-05-1
##MOLFORM=C 6 H 10 O 2
##XUNITS=1/CM
##YUNITS=ABSORBANCE
##XFACTOR=1.0
##YFACTOR=0.000071582
##DELTAX=4.0
##FIRSTX=450.0
##LASTX=3966.0
##FIRSTY=0.006514
##MAXX=3966
##MINX=450
##MAXY=0.71582
##MINY=0
##NPOINTS=880
##XYDATA=(X++(Y..Y))
450.0 91 151 103 77 56 2 1 23 17 35
490.0 47 107 144 161 175 165 147 132 161 133
530.0 171 160 89 123 122 143 140 187 181 214
570.0 205 289 301 380 371 298 283 269 229 146
610.0 214 179 211 164 174 179 161 206 158 174
650.0 144 187 117 160 101 185 158 146 151 191
690.0 181 234 321 387 562 739 866 1064 1101 1067
730.0 929 773 561 520 454 477 576 695 675 737
770.0 728 540 487 356 266 190 220 205 252 253
810.0 290 379 520 675 808 952 991 1032 946 825
850.0 643 485 421 408 420 434 506 674 855 1137
890.0 1354 1654 1750 1821 1686 1460 1309 1051 814 622
930.0 558 587 738 875 911 944 835 775 673 508
970.0 404 403 389 386 420 430 444 471 506 565
1010.0 676 829 1077 1476 2202 3574 5691 7446 8847 9950
1050.0 9403 10000 8299 6488 4860 3785 2571 1677 1266 1082
1090.0 986 978 1061 1241 1585 2076 2712 3215 3605 3896
1130.0 3721 3446 3036 2509 2106 1835 1716 1592 1398 1260
1170.0 1265 1288 1356 1494 1617 1641 1760 1902 2159 2545
1210.0 3081 3906 4563 5103 5285 5026 4337 3719 3277 2441
1250.0 1707 1246 957 720 596 496 445 412 361 347
1290.0 306 308 288 294 292 310 309 322 331 331
1330.0 368 373 414 439 496 574 674 830 1048 1217
1370.0 1165 1233 1108 1177 1070 909 807 741 644 486
1410.0 418 365 334 332 376 406 476 554 725 838
1450.0 904 1006 864 832 711 617 457 420 375 331
1490.0 260 240 207 188 149 126 153 134 120 134
1530.0 155 151 134 88 124 141 126 81 94 148
1570.0 136 151 132 149 156 163 176 179 191 227
1610.0 276 354 409 553 674 842 1017 1288 1784 2242
1650.0 2564 2651 2689 2397 1941 1227 759 473 326 213
1690.0 218 219 175 170 216 260 265 243 320 386
1730.0 480 556 714 776 805 763 698 575 472 410
1770.0 337 288 268 236 213 201 171 180 171 178
1810.0 185 194 200 193 178 159 159 138 123 98
1850.0 109 114 114 108 108 101 113 119 114 114
1890.0 113 109 113 98 107 100 99 91 98 108
1930.0 112 112 113 113 110 114 112 112 111 98
1970.0 98 97 105 104 113 106 107 111 110 110
2010.0 112 125 124 131 132 137 131 129 116 109
2050.0 109 110 110 110 108 102 110 101 101 102
2090.0 100 109 108 117 112 120 115 116 113 108
2130.0 108 107 108 100 100 100 108 108 106 106
2170.0 102 105 100 100 86 93 85 84 79 71
2210.0 71 67 73 68 70 65 71 71 71 71
2250.0 63 71 63 66 62 68 59 66 61 63
2290.0 62 63 63 55 56 53 65 54 63 58
2330.0 57 59 50 61 54 61 60 74 63 42
2370.0 37 29 39 34 40 31 31 31 31 31
2410.0 37 37 38 40 33 39 32 47 36 37
2450.0 35 37 36 37 37 29 30 21 28 15
2490.0 16 14 9 8 8 7 1 8 8 7
2530.0 7 4 8 9 13 10 25 25 39 33
2570.0 35 34 42 38 45 49 53 62 61 76
2610.0 64 65 71 73 73 75 88 85 101 103
2650.0 116 118 135 155 150 165 173 181 181 183
2690.0 184 197 219 245 288 309 329 329 317 288
2730.0 260 232 224 206 193 192 176 191 182 183
2770.0 182 180 191 194 208 232 261 294 337 377
2810.0 448 498 560 653 788 979 1156 1353 1512 1613
2850.0 1659 1607 1525 1424 1333 1189 1084 952 889 849
2890.0 919 1050 1271 1576 1892 2212 2597 3038 3006 3284
2930.0 3533 3707 3811 3621 3623 3323 2778 2568 2501 2375
2970.0 2268 2073 1880 1660 1357 1123 1001 1004 1020 1009
3010.0 887 789 648 500 395 333 321 293 291 282
3050.0 305 335 429 579 798 974 1037 1106 1036 955
3090.0 728 522 383 280 219 170 150 118 114 98
3130.0 96 97 95 89 79 86 75 88 74 90
3170.0 62 75 72 69 71 60 60 62 65 53
3210.0 62 57 65 58 64 67 64 69 65 71
3250.0 67 65 65 73 64 67 68 67 69 48
3290.0 64 66 74 66 61 58 57 61 55 70
3330.0 57 64 68 67 75 79 75 71 83 69
3370.0 71 66 66 67 59 56 51 62 49 53
3410.0 49 59 64 62 59 62 62 62 66 56
3450.0 66 57 74 51 69 65 59 56 45 42
3490.0 23 37 37 44 27 25 34 27 39 30
3530.0 37 31 40 38 33 35 26 47 37 39
3570.0 16 43 30 41 29 5 22 14 23 24
3610.0 23 3 25 20 39 0 19 48 51 47
3650.0 17 47 40 69 70 51 47 41 67 62
3690.0 55 66 90 76 76 70 64 89 93 85
3730.0 88 82 74 91 67 89 89 120 122 122
3770.0 132 137 148 133 145 145 147 132 138 131
3810.0 124 140 125 117 122 143 135 146 145 146
3850.0 154 131 144 155 148 150 150 150 135 131
3890.0 126 132 122 121 100 102 96 95 81 90
3930.0 105 110 112 107 108 116 55 60 62 62
##END=
