##TITLE=1,5-Pentanediol, 3-methyl-
##JCAMP-DX=4.24
##DATA TYPE=INFRARED SPECTRUM
##ORIGIN=Sadtler Research Labs Under US-EPA Contract
##OWNER=NIST Standard Reference Data Program
##CAS REGISTRY NO=4457-71-0
##MOLFORM=C 6 H 14 O 2
##XUNITS=1/CM
##YUNITS=ABSORBANCE
##XFACTOR=1.0
##YFACTOR=0.000108701
##DELTAX=4.0
##FIRSTX=450.0
##LASTX=3966.0
##FIRSTY=0.000000
##MAXX=3966
##MINX=450
##MAXY=1.08701
##MINY=0
##NPOINTS=880
##XYDATA=(X++(Y..Y))
450.0 0 590 807 962 1166 685 1860 1252 1043 1162
490.0 951 961 960 875 849 802 786 679 700 849
530.0 823 890 843 904 834 646 837 986 923 830
570.0 770 744 745 772 773 731 718 712 730 728
610.0 728 722 719 725 703 735 712 741 727 739
650.0 714 730 736 731 746 749 738 723 731 708
690.0 666 681 751 783 785 751 728 728 749 734
730.0 700 723 764 776 838 823 830 825 849 854
770.0 836 782 876 823 854 816 867 854 801 828
810.0 842 846 935 916 944 962 1016 1061 1153 1183
850.0 1225 1232 1232 1231 1185 1147 1106 1073 1038 1019
890.0 990 1002 993 1022 1017 1034 1031 1044 1062 1097
930.0 1142 1219 1320 1454 1628 1797 1992 2175 2363 2486
970.0 2580 2635 2687 2748 2815 2926 3091 3282 3473 3652
1010.0 3793 3892 3983 4147 4490 5029 5687 6413 6986 7406
1050.0 7484 7247 6826 6265 5605 4928 4309 3809 3460 3231
1090.0 3078 2963 2831 2675 2496 2301 2149 2027 1943 1861
1130.0 1831 1797 1717 1625 1613 1628 1637 1657 1678 1705
1170.0 1731 1765 1790 1810 1831 1851 1869 1862 1844 1839
1210.0 1840 1814 1772 1717 1691 1677 1649 1635 1657 1672
1250.0 1688 1694 1703 1718 1737 1756 1765 1772 1775 1775
1290.0 1756 1723 1692 1654 1621 1603 1595 1596 1589 1597
1330.0 1611 1634 1691 1709 1712 1745 1774 1827 1906 1990
1370.0 2131 2348 2563 2715 2819 2836 2691 2450 2168 1915
1410.0 1717 1552 1485 1414 1402 1414 1434 1473 1530 1583
1450.0 1626 1670 1699 1698 1707 1712 1700 1659 1565 1443
1490.0 1309 1117 989 893 843 854 805 786 755 753
1530.0 731 731 707 683 723 710 703 661 669 671
1570.0 670 653 654 656 662 656 668 656 664 656
1610.0 664 651 654 659 666 670 671 664 678 671
1650.0 663 631 666 649 644 643 639 648 650 635
1690.0 640 646 626 633 640 639 650 637 643 644
1730.0 651 649 641 646 664 673 689 677 678 693
1770.0 705 681 696 710 698 692 657 656 643 645
1810.0 611 629 625 620 613 621 618 615 618 617
1850.0 615 603 614 614 611 617 617 607 614 609
1890.0 613 619 615 617 612 616 610 613 609 597
1930.0 603 599 601 601 603 592 594 593 594 593
1970.0 594 593 591 594 593 601 605 607 611 614
2010.0 622 624 631 635 637 638 643 642 652 645
2050.0 639 639 636 634 627 624 619 613 606 601
2090.0 598 591 591 588 586 586 584 581 577 578
2130.0 578 577 580 576 573 575 573 575 573 572
2170.0 571 571 571 569 567 565 569 569 572 567
2210.0 574 572 574 574 577 576 575 576 577 581
2250.0 581 581 582 582 583 588 590 599 607 608
2290.0 620 629 645 650 657 662 652 645 646 636
2330.0 629 630 625 636 649 651 651 633 640 645
2370.0 637 638 656 652 640 621 611 612 614 612
2410.0 614 616 616 618 616 617 616 618 612 614
2450.0 612 611 609 607 606 603 604 601 602 601
2490.0 597 595 601 600 601 603 601 601 603 602
2530.0 601 607 608 607 610 615 617 615 620 619
2570.0 624 626 630 636 639 647 642 648 650 657
2610.0 660 664 673 673 674 676 677 686 696 699
2650.0 705 709 718 724 725 738 747 754 759 766
2690.0 773 783 790 801 817 835 846 856 873 891
2730.0 907 925 939 957 968 974 981 984 996 1002
2770.0 1018 1034 1049 1070 1085 1117 1135 1159 1174 1206
2810.0 1238 1275 1332 1390 1481 1596 1743 1924 2146 2368
2850.0 2613 2869 3162 3500 3917 4436 5069 5699 6245 6638
2890.0 6831 6841 6830 6885 7138 7523 8002 8557 9112 9601
2930.0 9876 10000 9801 9380 8793 8159 7691 7471 7518 7449
2970.0 7093 6313 5349 4229 3144 2333 1830 1510 1300 1159
3010.0 1063 984 932 887 852 814 785 767 759 742
3050.0 725 706 698 694 686 679 676 676 674 661
3090.0 660 652 658 644 643 646 638 632 638 632
3130.0 623 624 621 617 627 626 614 617 610 615
3170.0 611 616 609 605 625 602 596 598 602 602
3210.0 595 590 597 589 575 576 573 566 571 572
3250.0 578 576 588 585 584 579 581 579 590 587
3290.0 581 595 590 599 583 591 595 606 607 609
3330.0 604 603 606 591 608 608 605 617 617 603
3370.0 603 607 612 622 626 621 615 631 625 623
3410.0 622 628 621 621 625 634 642 637 649 640
3450.0 642 640 649 636 645 648 669 639 636 648
3490.0 636 645 642 650 640 636 647 632 634 653
3530.0 636 616 646 639 649 676 678 697 700 749
3570.0 772 747 770 765 789 796 752 769 767 758
3610.0 791 784 782 798 795 830 885 966 1065 1219
3650.0 1445 1742 2058 2325 2517 2549 2355 2092 1774 1395
3690.0 1077 956 852 776 727 693 672 646 605 643
3730.0 618 621 622 599 616 584 588 605 621 604
3770.0 597 596 608 580 608 620 615 595 567 582
3810.0 585 614 588 606 603 619 609 590 586 620
3850.0 594 598 606 612 598 585 605 603 618 605
3890.0 594 578 602 598 601 583 600 585 567 565
3930.0 586 565 573 591 567 581 588 567 565 593
##END=
