##TITLE=4-Fluoro-3-nitrotoluene
##JCAMP-DX=4.24
##DATA TYPE=INFRARED SPECTRUM
##ORIGIN=Sadtler Research Labs Under US-EPA Contract
##OWNER=NIST Standard Reference Data Program
##CAS REGISTRY NO=446-11-7
##MOLFORM=C 7 H 6 F N O 2
##XUNITS=1/CM
##YUNITS=ABSORBANCE
##XFACTOR=1.0
##YFACTOR=0.000081915
##DELTAX=4.0
##FIRSTX=450.0
##LASTX=3966.0
##FIRSTY=0.003031
##MAXX=3966
##MINX=450
##MAXY=0.81915
##MINY=0
##NPOINTS=880
##XYDATA=(X++(Y..Y))
450.0 37 326 510 218 643 424 282 311 452 144
490.0 0 386 498 476 281 498 372 581 699 661
530.0 510 557 435 321 360 224 307 322 376 395
570.0 340 393 427 388 430 335 326 300 317 242
610.0 242 265 248 256 269 261 272 213 250 230
650.0 274 303 333 417 502 744 691 763 592 352
690.0 327 311 370 344 321 375 389 397 410 376
730.0 399 469 625 713 814 958 924 1002 1029 1115
770.0 1192 1258 1284 1158 1027 803 722 812 1080 1885
810.0 2779 3430 4309 3922 2780 1810 1157 577 367 306
850.0 279 310 281 238 271 381 408 422 484 493
890.0 504 429 368 401 392 467 511 527 539 507
930.0 394 321 277 304 318 345 307 270 255 264
970.0 226 224 224 240 226 229 227 240 261 233
1010.0 230 211 204 212 195 237 242 261 313 324
1050.0 330 317 291 299 336 413 499 616 725 736
1090.0 753 647 522 407 268 330 282 304 469 734
1130.0 858 845 834 855 630 450 292 252 279 212
1170.0 231 243 206 245 238 289 346 341 375 404
1210.0 505 504 559 557 496 543 663 834 1241 1826
1250.0 2460 2847 3105 3379 3138 2656 2340 2090 1757 1496
1290.0 1314 1240 1051 955 773 736 748 763 902 1118
1330.0 1510 2208 3155 4341 5315 5889 5915 5335 4349 3350
1370.0 2738 2245 1841 1571 1318 1181 1029 905 839 779
1410.0 764 693 681 575 505 486 455 463 481 468
1450.0 490 548 537 679 635 713 761 791 891 1009
1490.0 1409 1803 2489 3257 3594 3914 3914 3576 3678 3686
1530.0 4175 5023 5435 6600 7757 8919 10000 9707 9222 7812
1570.0 6072 4694 3913 3346 2985 2549 2138 1930 1631 1594
1610.0 1647 1754 1969 2135 2053 1866 1546 1020 715 509
1650.0 347 285 252 227 228 202 202 183 189 165
1690.0 191 165 178 163 170 170 155 165 136 165
1730.0 151 139 164 139 179 187 204 220 221 219
1770.0 217 184 167 135 134 107 122 108 119 99
1810.0 105 115 114 137 133 152 152 156 150 136
1850.0 122 100 99 90 91 124 97 114 114 134
1890.0 159 173 177 167 142 132 103 102 93 85
1930.0 84 77 91 84 85 82 76 74 79 69
1970.0 70 64 71 70 71 66 75 82 76 78
2010.0 76 75 80 80 77 83 73 74 77 68
2050.0 72 63 63 65 70 66 59 67 58 57
2090.0 59 58 55 52 47 45 40 42 41 36
2130.0 38 39 38 36 37 36 29 40 41 36
2170.0 42 35 39 38 36 35 31 30 32 28
2210.0 29 24 29 29 21 25 22 28 22 19
2250.0 27 30 31 39 41 44 42 44 39 38
2290.0 40 43 44 46 50 67 58 67 67 77
2330.0 79 76 100 80 123 84 128 118 146 115
2370.0 118 111 97 96 73 66 58 56 54 46
2410.0 52 61 56 68 63 66 64 66 66 59
2450.0 59 57 56 56 56 59 59 54 53 55
2490.0 47 49 54 63 61 70 68 64 65 61
2530.0 66 61 59 60 58 63 65 65 62 59
2570.0 57 56 58 57 56 67 71 68 68 59
2610.0 61 70 68 70 69 69 74 72 76 74
2650.0 76 66 66 67 69 75 83 77 85 90
2690.0 91 94 97 91 91 84 79 79 79 72
2730.0 74 80 76 91 96 109 112 111 110 117
2770.0 103 100 93 93 90 97 90 90 94 96
2810.0 105 111 100 114 126 130 134 143 164 179
2850.0 195 215 251 286 323 385 443 482 513 526
2890.0 511 494 485 462 455 448 465 486 524 600
2930.0 709 819 900 907 853 734 595 469 396 358
2970.0 334 320 293 277 270 280 290 313 322 351
3010.0 370 385 390 406 395 391 394 401 450 482
3050.0 492 483 436 387 323 287 281 256 246 222
3090.0 195 181 162 144 143 131 122 114 99 86
3130.0 90 88 82 75 75 73 72 63 72 75
3170.0 67 70 69 61 72 74 70 71 71 72
3210.0 69 76 76 85 83 74 76 77 77 78
3250.0 76 79 75 78 75 81 77 74 86 85
3290.0 85 86 83 84 88 82 82 85 92 85
3330.0 84 90 91 97 87 79 80 85 82 82
3370.0 95 91 83 95 85 77 97 92 88 91
3410.0 93 83 83 92 96 103 81 77 88 97
3450.0 90 85 95 84 104 89 85 88 83 85
3490.0 93 85 95 95 93 90 87 83 94 86
3530.0 87 89 94 91 90 86 81 99 89 87
3570.0 74 95 87 110 60 104 74 97 68 97
3610.0 66 86 104 75 107 68 76 100 105 55
3650.0 105 38 134 47 125 59 67 90 92 129
3690.0 45 114 76 107 104 82 82 123 95 112
3730.0 110 98 120 76 112 35 138 84 121 113
3770.0 117 108 109 86 115 101 130 99 156 64
3810.0 150 54 144 84 124 113 102 108 92 97
3850.0 99 120 95 137 102 132 117 129 96 88
3890.0 93 126 92 130 85 120 123 137 111 109
3930.0 137 111 111 123 123 152 129 144 122 124
##END=
