##TITLE=2-Fluorobenzyl alcohol
##JCAMP-DX=4.24
##DATA TYPE=INFRARED SPECTRUM
##ORIGIN=Sadtler Research Labs Under US-EPA Contract
##OWNER=NIST Standard Reference Data Program
##CAS REGISTRY NO=446-51-5
##MOLFORM=C 7 H 7 F O
##XUNITS=1/CM
##YUNITS=ABSORBANCE
##XFACTOR=1.0
##YFACTOR=0.000075662
##DELTAX=4.0
##FIRSTX=450.0
##LASTX=3966.0
##FIRSTY=0.038966
##MAXX=3966
##MINX=450
##MAXY=0.75662
##MINY=0
##NPOINTS=880
##XYDATA=(X++(Y..Y))
450.0 515 631 544 369 230 228 132 130 122 77
490.0 48 68 61 141 247 452 699 805 923 1021
530.0 872 649 468 365 269 176 118 131 116 95
570.0 66 66 47 2 33 23 29 45 75 125
610.0 160 263 321 304 287 218 157 110 61 42
650.0 22 40 58 152 217 534 882 1172 1594 2198
690.0 2446 1774 1468 1179 854 623 500 527 633 954
730.0 1443 1922 2199 2436 2323 1956 1686 1619 1791 2228
770.0 2769 3349 4018 4920 4606 3267 2538 1792 1068 581
810.0 318 203 163 140 143 147 177 215 300 454
850.0 696 1023 1415 1887 2366 2411 2132 1908 1687 1520
890.0 1517 1310 1195 1306 1494 1830 2235 2618 2912 3025
930.0 2905 2567 2132 1739 1456 1275 1207 1282 1424 1593
970.0 1693 1703 1663 1585 1535 1534 1634 1804 2068 2381
1010.0 2781 3229 3718 4284 4791 5175 5279 5147 4793 4206
1050.0 3575 3043 2612 2250 1942 1682 1458 1254 1087 947
1090.0 836 767 744 765 806 864 974 1176 1473 1926
1130.0 2474 2956 3132 3139 3122 2769 2238 1793 1493 1385
1170.0 1304 1208 1207 1215 1224 1219 1206 1189 1173 1181
1210.0 1197 1252 1312 1399 1490 1620 1813 2178 2848 3896
1250.0 5313 6898 8605 9753 10000 9319 7719 5710 3931 2614
1290.0 1780 1320 1062 922 833 775 720 698 689 701
1330.0 718 732 741 756 803 871 1000 1197 1493 1887
1370.0 2328 2739 2929 2980 2770 2415 2016 1740 1564 1473
1410.0 1390 1314 1295 1248 1249 1380 1726 2310 3303 4322
1450.0 5038 5248 5465 4987 3888 3235 3182 3563 4106 4612
1490.0 4620 4523 3966 2804 1802 1179 901 764 706 617
1530.0 571 439 369 313 277 288 332 441 572 747
1570.0 1084 1548 2275 3287 4459 5696 6283 6660 6580 5902
1610.0 5117 4692 4251 3509 2792 1811 1102 606 401 298
1650.0 295 274 274 224 249 222 218 138 137 101
1690.0 53 32 59 53 47 37 64 99 108 116
1730.0 150 206 203 222 245 254 263 226 204 155
1770.0 136 100 74 59 62 37 40 15 13 8
1810.0 7 9 21 35 47 57 50 66 92 143
1850.0 166 186 179 157 112 64 49 31 29 19
1890.0 18 10 14 16 26 43 77 119 167 192
1930.0 198 198 175 119 72 43 27 22 20 14
1970.0 24 26 29 36 43 45 47 58 60 65
2010.0 66 62 52 53 50 53 54 60 59 66
2050.0 70 76 79 79 76 71 68 61 51 47
2090.0 40 36 29 27 26 21 16 16 15 13
2130.0 11 10 10 11 13 17 18 20 25 25
2170.0 33 33 35 37 37 37 31 31 24 23
2210.0 20 16 16 14 14 14 17 10 9 6
2250.0 4 5 3 3 6 12 16 17 14 15
2290.0 11 4 7 15 17 28 45 51 57 67
2330.0 73 69 58 57 50 47 44 55 45 51
2370.0 53 66 65 61 69 83 90 97 104 103
2410.0 104 96 86 75 69 62 57 51 50 46
2450.0 41 38 36 33 33 31 28 30 35 33
2490.0 42 45 51 53 61 66 66 75 75 75
2530.0 68 63 55 49 42 40 37 35 38 36
2570.0 41 42 42 42 48 52 53 52 53 56
2610.0 57 57 55 53 45 48 46 44 43 44
2650.0 45 40 43 48 50 49 51 58 57 58
2690.0 65 64 71 82 83 92 96 104 101 110
2730.0 115 122 130 133 137 136 137 135 138 137
2770.0 144 148 156 164 171 183 196 203 214 227
2810.0 243 258 286 313 351 399 459 523 604 684
2850.0 781 878 987 1115 1276 1488 1736 2013 2228 2351
2890.0 2359 2271 2105 1929 1796 1708 1679 1686 1726 1774
2930.0 1812 1806 1769 1710 1630 1543 1455 1362 1252 1124
2970.0 978 836 706 590 497 416 348 295 258 225
3010.0 211 214 231 272 342 441 570 733 912 1080
3050.0 1189 1245 1271 1251 1179 1117 1099 1115 1133 1092
3090.0 1015 916 747 540 400 321 270 232 201 169
3130.0 136 101 79 58 48 45 39 29 32 31
3170.0 26 20 21 22 26 25 26 31 29 26
3210.0 28 25 32 27 31 34 28 26 25 29
3250.0 33 33 35 38 42 35 35 31 34 30
3290.0 31 34 26 33 27 30 29 26 22 31
3330.0 29 27 34 28 25 27 32 30 33 33
3370.0 32 40 35 39 36 35 42 42 40 39
3410.0 43 37 38 32 42 45 42 44 51 40
3450.0 39 44 35 33 41 43 44 37 28 29
3490.0 33 41 28 26 24 29 29 19 25 3
3530.0 12 12 17 28 10 17 36 29 17 26
3570.0 22 40 46 45 50 46 71 46 87 92
3610.0 140 127 171 221 295 404 532 719 938 1152
3650.0 1548 1511 1450 1501 1366 1281 1103 998 799 694
3690.0 571 456 351 260 210 154 110 94 64 40
3730.0 44 45 32 8 89 0 33 3 3 16
3770.0 3 16 4 39 16 37 22 21 1 44
3810.0 2 17 5 15 8 7 8 12 8 6
3850.0 20 34 36 34 3 15 23 15 11 56
3890.0 18 37 20 41 16 56 44 31 27 22
3930.0 47 28 36 36 37 28 71 51 47 29
##END=
