##TITLE=3-Fluoro-4-nitrotoluene
##JCAMP-DX=4.24
##DATA TYPE=INFRARED SPECTRUM
##ORIGIN=Sadtler Research Labs Under US-EPA Contract
##OWNER=NIST Standard Reference Data Program
##CAS REGISTRY NO=446-34-4
##MOLFORM=C 7 H 6 F N O 2
##XUNITS=1/CM
##YUNITS=ABSORBANCE
##XFACTOR=1.0
##YFACTOR=0.000095807
##DELTAX=4.0
##FIRSTX=450.0
##LASTX=3966.0
##FIRSTY=0.045317
##MAXX=3966
##MINX=450
##MAXY=0.95807
##MINY=0
##NPOINTS=880
##XYDATA=(X++(Y..Y))
450.0 473 346 484 316 231 34 270 305 526 154
490.0 38 343 0 381 567 364 241 526 189 522
530.0 310 520 340 366 355 299 382 290 472 537
570.0 307 500 397 362 411 385 573 848 1088 1133
610.0 1207 1244 788 468 361 353 323 400 300 254
650.0 190 252 264 202 287 190 308 352 472 400
690.0 277 247 174 261 306 187 283 423 677 915
730.0 993 1083 1064 978 1175 1291 1056 731 653 411
770.0 284 278 239 266 216 170 230 282 502 749
810.0 1038 1329 1740 2301 2518 2941 3655 3401 3238 2667
850.0 1502 862 712 802 1074 912 698 601 388 281
890.0 193 219 186 179 232 239 225 229 178 192
930.0 359 608 1039 1511 1626 1609 1392 838 407 278
970.0 199 178 208 194 240 260 273 282 242 230
1010.0 219 195 157 152 142 149 166 188 213 247
1050.0 244 214 186 137 153 191 251 363 523 754
1090.0 910 949 878 721 475 255 196 234 276 187
1130.0 195 206 224 256 302 413 573 806 948 952
1170.0 992 851 561 370 299 269 157 169 182 293
1210.0 289 298 275 63 73 166 219 309 574 875
1250.0 1114 1459 1864 2233 2603 2570 2477 2280 1809 1262
1290.0 945 878 850 869 891 819 804 816 940 1241
1330.0 1791 2721 4126 6094 8153 9384 10000 8993 6792 4433
1370.0 2808 1771 1155 897 821 733 690 710 768 936
1410.0 1125 1346 1620 1805 1923 1865 1768 1481 1262 1084
1450.0 912 826 734 693 679 702 783 951 1256 1743
1490.0 2316 2592 2816 2859 2709 2560 2653 2902 3356 4023
1530.0 4889 5847 6709 7227 7529 7579 7213 6539 5998 5525
1570.0 5005 4443 4035 3883 3950 4365 5016 5866 6734 7420
1610.0 7922 8139 7265 6033 4834 3305 2179 1333 827 597
1650.0 435 308 256 198 198 170 221 185 209 211
1690.0 195 195 197 164 166 154 134 172 160 164
1730.0 169 172 151 135 122 118 115 133 130 150
1770.0 158 170 149 128 100 74 68 62 69 61
1810.0 72 81 88 85 79 68 39 38 19 30
1850.0 15 14 17 32 39 38 35 39 53 70
1890.0 86 100 112 113 122 105 86 76 65 50
1930.0 36 38 37 42 47 40 45 51 46 50
1970.0 41 41 43 38 43 48 48 43 44 46
2010.0 41 34 37 34 35 34 28 29 34 32
2050.0 27 17 23 23 23 23 21 13 17 21
2090.0 27 25 28 30 36 37 36 33 32 25
2130.0 21 24 25 18 13 15 11 19 16 13
2170.0 14 14 19 16 20 21 18 21 18 16
2210.0 24 20 26 25 17 18 14 17 22 24
2250.0 25 25 28 21 22 14 6 12 9 13
2290.0 22 20 32 35 37 39 34 43 33 44
2330.0 57 48 53 60 90 67 70 63 82 82
2370.0 73 64 68 64 56 48 40 51 54 59
2410.0 63 64 67 76 67 68 67 68 73 65
2450.0 59 50 42 39 32 23 21 22 21 20
2490.0 25 24 28 31 35 45 52 52 51 47
2530.0 42 42 40 37 33 30 33 30 34 33
2570.0 34 39 45 45 41 41 43 36 38 24
2610.0 32 31 30 33 23 25 32 24 30 34
2650.0 38 42 43 43 46 55 58 64 69 82
2690.0 95 91 96 94 90 92 87 77 78 76
2730.0 68 74 82 88 95 103 102 86 88 83
2770.0 72 70 65 64 62 52 62 67 71 79
2810.0 90 92 85 89 94 104 115 121 138 162
2850.0 191 233 275 331 397 466 503 521 516 490
2890.0 455 440 437 435 444 464 476 497 570 672
2930.0 810 927 980 964 872 739 628 526 442 392
2970.0 346 315 283 286 274 281 284 308 331 354
3010.0 372 379 368 357 332 322 331 355 400 431
3050.0 451 471 469 480 444 410 413 379 345 312
3090.0 271 217 176 132 110 91 79 72 59 53
3130.0 42 41 45 46 34 30 29 22 17 23
3170.0 22 15 11 29 22 21 29 23 31 25
3210.0 33 40 38 36 36 36 32 23 20 19
3250.0 8 16 13 17 16 13 18 17 6 15
3290.0 12 10 11 7 13 17 25 21 11 13
3330.0 12 18 20 26 15 18 8 13 14 9
3370.0 9 14 13 23 31 29 17 24 9 13
3410.0 12 11 16 16 20 19 22 29 14 32
3450.0 25 17 9 27 18 24 13 28 27 36
3490.0 21 27 31 35 20 21 21 29 31 42
3530.0 27 7 23 38 36 37 13 31 36 43
3570.0 54 49 40 53 41 35 30 43 21 55
3610.0 45 32 24 21 42 19 40 23 28 17
3650.0 48 32 44 20 27 31 15 46 37 52
3690.0 24 9 23 31 33 34 25 38 13 37
3730.0 21 13 31 8 44 8 33 27 16 17
3770.0 45 22 30 25 26 38 35 18 31 40
3810.0 23 38 53 34 12 37 16 38 55 16
3850.0 23 8 40 31 6 48 53 58 11 9
3890.0 66 21 43 22 69 58 11 23 73 26
3930.0 65 5 4 54 38 82 57 68 15 27
##END=
