##TITLE=2-Pentene, 4-methyl-
##JCAMP-DX=4.24
##DATA TYPE=INFRARED SPECTRUM
##ORIGIN=Sadtler Research Labs Under US-EPA Contract
##OWNER=NIST Standard Reference Data Program
##CAS REGISTRY NO=4461-48-7
##MOLFORM=C 6 H 12
##XUNITS=1/CM
##YUNITS=ABSORBANCE
##XFACTOR=1.0
##YFACTOR=0.000181030
##DELTAX=4.0
##FIRSTX=450.0
##LASTX=3966.0
##FIRSTY=0.000000
##MAXX=3966
##MINX=450
##MAXY=1.8103
##MINY=0
##NPOINTS=880
##XYDATA=(X++(Y..Y))
450.0 0 192 326 224 278 328 370 249 267 293
490.0 286 230 283 288 304 298 239 196 266 203
530.0 273 291 188 302 214 181 190 300 222 265
570.0 298 274 269 245 227 262 291 312 272 268
610.0 265 254 265 263 245 258 257 245 267 253
650.0 244 236 232 230 228 261 260 260 263 277
690.0 345 340 399 457 509 536 589 633 616 547
730.0 549 432 383 345 369 242 262 280 278 281
770.0 272 265 260 257 238 246 264 240 279 273
810.0 274 263 297 286 314 288 302 295 323 313
850.0 296 286 291 300 301 294 292 309 322 329
890.0 334 351 366 376 398 415 431 449 477 501
930.0 566 654 786 943 1173 1384 1629 1863 1959 2080
970.0 2293 2232 2007 1811 1585 1360 1149 935 772 620
1010.0 514 462 436 421 402 394 390 382 365 359
1050.0 353 352 352 346 352 345 360 372 366 384
1090.0 403 425 437 441 452 479 455 429 417 395
1130.0 387 366 362 357 358 371 380 395 411 417
1170.0 419 413 385 374 346 326 318 319 319 315
1210.0 326 328 335 341 340 338 332 334 336 353
1250.0 384 407 421 421 435 430 398 377 381 407
1290.0 450 494 537 572 592 577 544 522 516 524
1330.0 542 544 546 553 570 590 625 701 779 813
1370.0 883 1047 1116 1107 1109 1026 938 841 726 642
1410.0 593 569 567 574 610 668 737 851 956 1070
1450.0 1213 1308 1382 1498 1532 1506 1374 1190 1039 904
1490.0 744 623 518 453 412 374 360 344 334 329
1530.0 316 313 304 291 287 277 272 266 264 260
1570.0 254 257 254 252 256 251 252 253 253 256
1610.0 257 261 263 262 268 270 275 276 277 284
1650.0 285 292 301 307 314 317 318 317 308 301
1690.0 289 285 282 284 282 288 292 292 301 307
1730.0 316 325 340 342 342 340 324 307 290 272
1770.0 256 245 236 230 229 224 223 225 223 226
1810.0 227 230 230 232 232 230 227 224 221 214
1850.0 212 219 213 209 207 205 207 203 204 204
1890.0 200 200 201 200 197 194 194 192 191 192
1930.0 191 191 191 188 189 189 190 192 192 193
1970.0 193 194 198 201 201 205 208 212 211 211
2010.0 206 206 200 196 193 190 188 189 187 189
2050.0 187 187 188 186 188 187 185 184 181 184
2090.0 183 182 182 181 183 183 183 183 182 185
2130.0 184 183 184 183 185 183 184 181 181 181
2170.0 182 183 182 185 185 187 187 189 187 186
2210.0 186 184 186 185 185 182 182 181 180 180
2250.0 181 183 182 184 186 188 191 194 197 198
2290.0 196 197 195 189 188 186 180 177 176 176
2330.0 176 176 176 176 178 183 186 193 189 198
2370.0 203 203 205 202 201 198 199 200 199 198
2410.0 197 198 199 197 197 197 196 198 196 194
2450.0 195 193 195 195 197 195 197 198 196 196
2490.0 196 196 193 193 195 195 196 195 194 195
2530.0 193 194 194 194 193 194 196 203 208 210
2570.0 215 220 224 224 225 228 225 224 222 223
2610.0 221 218 220 215 216 214 216 218 218 216
2650.0 217 215 216 214 216 216 216 216 217 219
2690.0 222 222 227 235 245 259 272 288 306 321
2730.0 344 361 372 375 371 373 363 341 319 313
2770.0 311 309 309 311 317 324 337 349 361 382
2810.0 404 418 434 447 464 486 515 561 622 708
2850.0 850 1074 1437 1925 2471 3036 3509 3713 3760 3764
2890.0 3682 3565 3440 3338 3332 3400 3538 3764 4082 4407
2930.0 4712 4979 5144 5341 5547 5872 6637 7711 9288 10000
2970.0 9323 9066 8256 7000 5306 3857 2969 2412 2061 1851
3010.0 1719 1686 1683 1653 1584 1541 1455 1329 1214 1087
3050.0 956 838 738 665 609 566 531 504 481 461
3090.0 439 426 407 390 380 371 361 359 355 354
3130.0 353 351 346 342 338 333 327 323 320 311
3170.0 305 299 301 294 290 287 282 281 270 265
3210.0 261 259 252 244 240 233 227 220 215 208
3250.0 206 204 196 198 195 196 192 190 193 196
3290.0 205 205 202 204 209 208 204 204 198 198
3330.0 193 196 195 193 194 196 201 200 202 201
3370.0 204 205 201 205 203 203 201 200 201 200
3410.0 204 201 201 201 203 203 201 199 194 190
3450.0 190 192 189 187 189 190 186 185 189 187
3490.0 187 189 186 185 187 186 183 181 187 187
3530.0 184 185 186 184 183 180 185 187 189 185
3570.0 185 187 186 185 184 184 184 176 181 181
3610.0 180 184 180 186 184 189 187 189 188 188
3650.0 191 190 190 192 185 182 185 184 182 182
3690.0 181 183 184 189 184 183 192 197 187 188
3730.0 187 192 189 182 190 192 189 191 188 188
3770.0 182 191 193 193 200 200 194 200 203 202
3810.0 210 195 190 191 197 201 202 194 198 200
3850.0 195 197 193 193 193 199 195 204 204 208
3890.0 198 194 198 206 194 200 192 199 190 188
3930.0 192 196 195 184 199 199 205 190 210 205
##END=
