##TITLE=1,2-Cyclobutanedicarboxylic anhydride, cis-,
##JCAMP-DX=4.24
##DATA TYPE=INFRARED SPECTRUM
##ORIGIN=Sadtler Research Labs Under US-EPA Contract
##OWNER=NIST Standard Reference Data Program
##CAS REGISTRY NO=4462-96-8
##MOLFORM=C 6 H 6 O 3
##XUNITS=1/CM
##YUNITS=ABSORBANCE
##XFACTOR=1.0
##YFACTOR=0.000157227
##DELTAX=4.0
##FIRSTX=450.0
##LASTX=3966.0
##FIRSTY=0.011006
##MAXX=3966
##MINX=450
##MAXY=1.57227
##MINY=0
##NPOINTS=880
##XYDATA=(X++(Y..Y))
450.0 70 58 44 16 10 15 0 16 29 35
490.0 30 48 51 62 62 40 40 35 49 32
530.0 32 35 22 21 28 45 61 78 65 89
570.0 90 114 149 206 305 488 663 728 768 763
610.0 663 591 360 223 157 117 99 98 92 78
650.0 82 92 93 84 84 54 58 61 63 78
690.0 99 116 151 172 134 142 136 119 93 81
730.0 64 60 47 45 45 42 49 43 39 41
770.0 31 30 23 30 32 45 51 65 90 110
810.0 101 94 96 92 90 97 109 127 145 155
850.0 159 164 159 153 159 183 235 323 462 667
890.0 986 1458 2145 3059 4098 5077 5663 5889 5709 5042
930.0 3945 2634 1505 854 572 428 337 271 239 243
970.0 307 449 665 912 1055 1150 1134 991 858 606
1010.0 352 221 174 158 157 160 161 154 145 137
1050.0 125 121 115 117 134 186 307 569 1004 1546
1090.0 1956 2150 2291 2133 1885 1363 689 317 185 156
1130.0 152 160 183 205 235 268 318 371 432 487
1170.0 536 554 547 527 496 485 493 554 680 855
1210.0 1032 1212 1384 1530 1610 1599 1506 1359 1204 1062
1250.0 1011 1036 1054 1015 965 893 765 589 421 333
1290.0 301 302 309 292 286 296 309 307 297 272
1330.0 233 187 138 107 89 80 77 76 72 66
1370.0 62 59 61 65 65 70 72 68 67 60
1410.0 57 53 47 51 54 66 82 112 131 136
1450.0 145 141 136 126 107 92 75 69 64 61
1490.0 59 61 66 70 75 72 71 60 53 49
1530.0 43 37 30 21 21 22 21 19 21 22
1570.0 23 25 28 31 37 42 46 48 49 45
1610.0 41 39 36 37 37 41 44 46 53 54
1650.0 57 66 74 76 78 79 75 80 90 104
1690.0 124 145 159 170 175 174 167 163 166 172
1730.0 183 198 216 230 242 258 283 325 397 519
1770.0 695 985 1462 2259 3499 5199 6988 8434 9554 10000
1810.0 9719 8742 6873 5008 3682 2680 2019 1606 1371 1249
1850.0 1219 1272 1408 1598 1780 1898 1907 1827 1638 1350
1890.0 1011 713 502 384 323 280 243 205 176 152
1930.0 131 113 100 87 76 68 60 54 48 47
1970.0 46 48 46 49 49 51 54 56 60 58
2010.0 55 53 49 43 37 33 31 31 30 31
2050.0 34 38 40 42 46 50 55 56 58 60
2090.0 59 58 55 53 50 50 51 52 58 64
2130.0 70 76 79 81 79 77 71 66 57 52
2170.0 48 44 42 40 38 35 32 30 30 31
2210.0 31 30 29 30 28 28 25 23 20 18
2250.0 18 18 17 19 19 17 16 14 12 10
2290.0 8 7 7 9 8 7 9 14 15 16
2330.0 14 16 19 12 10 9 11 11 9 7
2370.0 11 10 10 10 10 11 12 13 14 17
2410.0 18 19 19 18 17 15 13 11 10 8
2450.0 5 5 4 4 4 6 7 5 6 8
2490.0 8 8 7 7 6 5 4 3 4 4
2530.0 4 3 4 2 3 5 4 2 0 1
2570.0 0 0 1 0 2 1 2 3 2 3
2610.0 5 4 3 2 2 3 3 1 3 4
2650.0 4 3 5 3 4 4 6 6 5 6
2690.0 6 6 8 7 9 7 7 5 5 8
2730.0 7 6 6 7 6 5 4 5 7 5
2770.0 5 5 6 4 6 4 6 4 5 7
2810.0 6 8 9 11 11 12 13 17 15 18
2850.0 18 23 30 36 50 66 88 106 129 137
2890.0 138 135 128 116 106 103 103 108 113 122
2930.0 124 132 143 154 182 226 304 396 501 569
2970.0 619 619 574 535 511 512 538 605 585 681
3010.0 742 473 369 292 187 118 75 66 59 67
3050.0 63 66 64 60 54 50 46 32 28 21
3090.0 19 13 12 10 10 10 11 10 10 10
3130.0 9 10 8 7 7 7 8 9 8 8
3170.0 10 7 10 7 7 8 9 9 8 10
3210.0 9 14 12 14 11 11 13 11 7 8
3250.0 5 4 4 3 2 3 4 3 4 5
3290.0 4 3 1 3 1 2 2 3 4 4
3330.0 2 5 3 3 5 2 5 3 3 2
3370.0 2 3 3 5 0 2 5 6 4 6
3410.0 4 2 5 5 4 3 5 5 3 3
3450.0 3 1 3 4 3 1 3 5 4 5
3490.0 4 3 7 4 3 2 3 0 0 0
3530.0 4 0 2 3 2 1 1 1 0 7
3570.0 14 13 17 20 20 13 20 18 22 25
3610.0 27 32 33 35 44 48 51 59 65 77
3650.0 90 102 109 109 107 97 77 68 46 37
3690.0 29 23 23 20 19 15 11 9 14 12
3730.0 11 8 7 4 6 2 4 5 7 4
3770.0 6 2 3 5 5 7 11 10 6 7
3810.0 7 7 2 5 6 6 7 4 9 4
3850.0 7 9 0 3 1 7 5 7 6 5
3890.0 4 4 3 5 5 3 2 3 4 5
3930.0 6 4 13 5 3 6 3 6 8 7
##END=
