##TITLE=Aniline, o-butoxy-,
##JCAMP-DX=4.24
##DATA TYPE=INFRARED SPECTRUM
##ORIGIN=Sadtler Research Labs Under US-EPA Contract
##OWNER=NIST Standard Reference Data Program
##CAS REGISTRY NO=4469-81-2
##MOLFORM=C 10 H 15 N O
##XUNITS=1/CM
##YUNITS=ABSORBANCE
##XFACTOR=1.0
##YFACTOR=0.000091733
##DELTAX=4.0
##FIRSTX=450.0
##LASTX=3966.0
##FIRSTY=0.000000
##MAXX=3966
##MINX=450
##MAXY=0.91733
##MINY=0
##NPOINTS=880
##XYDATA=(X++(Y..Y))
450.0 0 626 752 1007 752 902 908 843 838 715
490.0 753 719 636 773 681 568 633 573 665 648
530.0 689 667 635 630 673 689 760 737 684 686
570.0 680 639 697 732 643 682 746 761 763 703
610.0 709 661 673 713 735 634 726 796 863 784
650.0 867 813 790 729 684 841 748 663 654 639
690.0 703 734 791 795 809 976 1156 1584 2342 3214
730.0 4425 5464 4995 4309 3277 2534 1896 1519 1318 1198
770.0 1173 1069 1060 993 874 813 734 708 683 656
810.0 634 647 661 706 619 655 619 607 638 635
850.0 608 588 614 631 673 723 756 822 840 790
890.0 759 722 742 773 774 762 742 665 668 624
930.0 593 561 614 672 715 786 908 966 1101 1190
970.0 1263 1337 1325 1216 1188 1177 1172 1262 1351 1557
1010.0 1799 1969 2055 2154 2235 2322 2433 2543 2545 2360
1050.0 2012 1744 1674 1715 1827 1930 1987 1980 1943 1746
1090.0 1527 1359 1219 1119 1140 1055 1110 1139 1155 1190
1130.0 1334 1595 1943 2178 2117 1835 1444 1146 1016 940
1170.0 1000 1091 1291 1531 1933 2506 3430 4787 6351 7868
1210.0 9086 9944 10000 9084 7313 5111 3677 2925 2503 2292
1250.0 2248 2467 3007 3919 5186 6105 6259 5506 4146 3013
1290.0 2343 1950 1693 1488 1350 1234 1200 1266 1390 1557
1330.0 1724 1697 1551 1336 1138 991 883 847 778 745
1370.0 805 876 1083 1327 1498 1538 1362 1107 928 791
1410.0 742 693 695 694 727 820 835 949 1051 1126
1450.0 1357 1609 1917 2208 2298 2469 2518 2658 2711 2751
1490.0 3486 4521 6575 8112 8761 8428 6558 5210 3462 2427
1530.0 1672 1286 1121 969 972 1008 1030 1027 1095 1204
1570.0 1230 1310 1393 1604 1865 2233 2618 2799 3083 3309
1610.0 3810 4390 4574 4726 3941 3370 2514 1761 1491 1162
1650.0 978 932 830 835 773 748 726 716 673 648
1690.0 669 664 629 619 647 660 661 631 683 723
1730.0 693 702 706 698 676 643 664 651 637 650
1770.0 629 615 644 641 649 632 636 636 636 642
1810.0 639 641 639 630 619 612 625 636 651 646
1850.0 684 691 688 686 660 640 639 646 645 657
1890.0 680 707 733 725 708 671 646 624 615 617
1930.0 616 616 622 605 611 620 620 625 620 620
1970.0 621 627 628 626 632 626 630 639 635 635
2010.0 628 621 618 623 632 633 639 642 645 641
2050.0 646 642 633 627 617 610 608 606 597 598
2090.0 593 600 600 591 591 586 583 583 578 574
2130.0 572 575 571 568 568 562 568 571 567 568
2170.0 569 566 568 568 566 561 566 568 568 570
2210.0 569 565 566 566 566 566 564 565 566 564
2250.0 562 567 571 567 571 572 575 574 582 585
2290.0 586 587 592 589 585 589 580 582 568 562
2330.0 561 561 561 561 563 566 561 563 561 561
2370.0 561 561 567 574 576 573 571 574 576 583
2410.0 581 586 591 592 594 598 599 603 602 596
2450.0 593 588 586 581 585 588 591 595 594 601
2490.0 596 597 596 594 597 598 596 599 597 604
2530.0 600 601 603 605 601 604 602 599 590 588
2570.0 586 581 585 584 588 596 592 602 611 620
2610.0 630 626 631 625 629 620 609 614 604 601
2650.0 601 604 602 611 614 617 611 612 610 612
2690.0 608 605 610 605 609 617 617 624 634 639
2730.0 647 655 675 689 698 711 711 700 687 683
2770.0 679 670 673 666 659 661 665 681 686 693
2810.0 715 727 747 770 788 822 863 924 1000 1100
2850.0 1223 1351 1486 1648 1875 2198 2550 2926 3221 3300
2890.0 3193 2948 2718 2633 2710 2881 3063 3241 3363 3522
2930.0 3749 4075 4546 4966 5151 5079 4832 4733 4954 5355
2970.0 5627 5309 4447 3375 2444 1901 1571 1348 1227 1149
3010.0 1118 1123 1177 1291 1462 1704 1918 2005 1996 1888
3050.0 1747 1679 1702 1805 1906 1953 1937 1844 1720 1570
3090.0 1406 1234 1101 995 907 850 801 760 728 694
3130.0 669 654 646 636 620 628 617 621 620 628
3170.0 631 630 632 636 638 639 637 637 629 624
3210.0 623 607 598 595 576 581 584 575 569 576
3250.0 569 572 574 572 573 580 569 565 571 572
3290.0 584 573 582 578 574 576 584 584 579 582
3330.0 581 581 583 584 581 588 591 595 595 606
3370.0 617 638 652 684 728 800 908 1054 1230 1345
3410.0 1352 1257 1090 933 812 744 683 678 668 655
3450.0 667 680 686 709 738 775 841 925 1040 1183
3490.0 1337 1513 1611 1617 1518 1320 1116 953 843 765
3530.0 708 690 664 664 645 639 624 636 619 617
3570.0 618 620 617 622 609 621 602 632 628 627
3610.0 623 612 625 617 636 604 620 626 631 615
3650.0 624 601 632 621 636 617 602 625 621 640
3690.0 616 629 626 640 652 617 611 636 613 644
3730.0 627 610 618 628 639 589 623 602 631 617
3770.0 610 632 639 647 640 626 645 621 623 599
3810.0 636 609 628 603 611 639 603 593 622 619
3850.0 634 649 645 620 636 627 643 644 632 650
3890.0 641 629 633 639 634 667 639 662 656 621
3930.0 623 661 639 659 674 650 640 629 631 634
##END=
