##TITLE=N,N-Dimethylforamide
##JCAMP-DX=4.24
##DATA TYPE=INFRARED SPECTRUM
##ORIGIN=Sadtler Research Labs Under US-EPA Contract
##OWNER=NIST Standard Reference Data Program
##CAS REGISTRY NO=4472-41-7
##MOLFORM=C 3 D 7 N O
##XUNITS=1/CM
##YUNITS=ABSORBANCE
##XFACTOR=1.0
##YFACTOR=0.000163730
##DELTAX=4.0
##FIRSTX=450.0
##LASTX=3966.0
##FIRSTY=0.000000
##MAXX=3966
##MINX=450
##MAXY=1.6373
##MINY=0
##NPOINTS=880
##XYDATA=(X++(Y..Y))
450.0 0 33 60 32 52 66 57 53 52 41
490.0 57 55 41 44 43 47 58 55 42 42
530.0 67 69 71 64 76 62 65 70 64 68
570.0 73 66 72 71 71 71 86 123 152 187
610.0 161 190 195 177 182 168 116 91 72 65
650.0 62 69 59 61 61 57 64 67 66 68
690.0 66 72 62 68 71 66 60 69 67 73
730.0 73 76 76 85 90 109 120 132 136 146
770.0 143 147 157 146 128 123 107 112 106 119
810.0 122 126 138 155 170 181 185 188 214 221
850.0 251 260 305 379 518 726 949 1100 1058 1239
890.0 1166 1100 1140 943 687 505 398 372 318 276
930.0 249 247 227 207 189 171 161 149 146 141
970.0 139 139 139 142 141 139 140 146 147 157
1010.0 168 194 222 258 290 297 299 327 370 380
1050.0 391 393 387 388 375 327 302 292 270 243
1090.0 229 211 189 177 172 182 198 222 225 224
1130.0 234 231 227 223 197 163 143 131 123 120
1170.0 117 113 107 107 106 107 104 104 104 110
1210.0 116 124 136 148 160 170 199 242 296 360
1250.0 444 548 648 735 792 818 828 845 832 715
1290.0 539 385 281 226 208 200 206 229 286 363
1330.0 480 650 877 1216 1661 2144 2639 3069 3373 3566
1370.0 3554 3434 3133 2737 2221 1574 1037 666 442 304
1410.0 223 194 118 132 112 114 87 88 96 93
1450.0 87 75 45 73 78 84 48 64 93 76
1490.0 60 82 74 86 54 41 73 65 54 88
1530.0 86 101 86 59 74 103 84 45 72 87
1570.0 80 81 91 90 108 101 109 103 118 116
1610.0 124 138 137 185 208 310 385 516 672 833
1650.0 1023 1343 1870 2691 3987 5316 6117 6020 7355 7455
1690.0 8132 9563 10000 8009 7273 7596 5987 6413 5836 3740
1730.0 1894 935 551 378 275 222 215 203 198 196
1770.0 177 169 183 167 161 134 107 98 80 99
1810.0 93 91 93 89 86 81 93 101 89 77
1850.0 90 97 92 89 80 64 82 85 85 84
1890.0 80 83 87 90 89 88 86 87 82 91
1930.0 94 94 96 88 96 106 116 123 136 139
1970.0 150 161 163 163 159 145 137 131 119 108
2010.0 105 99 100 109 123 137 163 200 259 341
2050.0 438 544 666 810 927 986 1003 946 970 1009
2090.0 954 907 912 980 1118 1304 1490 1609 1640 1565
2130.0 1514 1505 1414 1227 1009 824 675 564 497 463
2170.0 441 435 427 437 461 505 556 612 660 723
2210.0 940 946 806 749 743 739 696 610 538 487
2250.0 464 404 338 279 243 219 199 188 177 170
2290.0 163 161 155 148 142 138 124 117 110 105
2330.0 94 88 86 70 81 74 67 73 64 68
2370.0 68 70 76 77 79 75 75 77 79 78
2410.0 75 71 64 61 55 55 51 51 50 47
2450.0 46 47 49 46 46 48 50 48 51 53
2490.0 54 55 56 57 56 60 63 65 65 68
2530.0 67 69 67 67 64 59 58 56 53 50
2570.0 51 48 50 49 47 48 46 48 49 49
2610.0 49 49 48 50 50 48 49 51 50 48
2650.0 47 47 46 44 42 42 42 40 40 42
2690.0 42 41 44 47 50 54 55 58 60 58
2730.0 56 52 53 52 52 46 44 41 37 36
2770.0 36 33 34 35 36 37 36 38 36 35
2810.0 34 37 36 38 38 36 39 41 44 45
2850.0 44 43 44 45 45 42 39 39 37 36
2890.0 38 37 39 40 42 45 46 49 56 61
2930.0 55 54 51 49 50 48 44 45 46 45
2970.0 42 42 41 41 41 43 42 45 42 43
3010.0 43 43 49 51 54 58 62 64 67 69
3050.0 70 71 70 69 73 65 62 62 60 58
3090.0 57 51 49 45 46 46 44 46 44 46
3130.0 49 49 48 48 48 47 45 45 46 44
3170.0 43 43 44 45 44 44 41 42 42 46
3210.0 44 42 41 40 38 37 39 43 42 41
3250.0 43 42 47 47 45 48 48 46 47 46
3290.0 48 47 50 47 47 47 46 49 46 48
3330.0 50 54 63 65 68 75 77 89 93 102
3370.0 102 100 102 94 89 87 71 58 55 52
3410.0 51 50 50 51 46 43 41 32 39 37
3450.0 36 39 41 44 42 43 46 44 46 44
3490.0 42 44 46 47 44 41 44 42 45 37
3530.0 40 38 41 41 38 38 42 39 36 37
3570.0 36 39 41 40 42 42 44 37 39 42
3610.0 40 37 40 42 41 38 39 39 42 40
3650.0 43 36 38 44 35 42 35 36 39 33
3690.0 43 43 41 37 35 42 42 42 41 39
3730.0 43 37 46 41 45 40 42 45 47 47
3770.0 47 47 45 40 48 48 55 57 52 57
3810.0 57 53 65 53 60 61 65 56 60 54
3850.0 51 53 53 51 47 44 42 49 33 46
3890.0 46 43 42 43 46 40 40 47 42 40
3930.0 46 50 41 51 46 38 46 53 51 44
##END=
