##TITLE=Benzoic acid, 4-fluoro-, ethyl ester
##JCAMP-DX=4.24
##DATA TYPE=INFRARED SPECTRUM
##ORIGIN=Sadtler Research Labs Under US-EPA Contract
##OWNER=NIST Standard Reference Data Program
##CAS REGISTRY NO=451-46-7
##MOLFORM=C 9 H 9 F O 2
##XUNITS=1/CM
##YUNITS=ABSORBANCE
##XFACTOR=1.0
##YFACTOR=0.000126404
##DELTAX=4.0
##FIRSTX=450.0
##LASTX=3966.0
##FIRSTY=0.002275
##MAXX=3966
##MINX=450
##MAXY=1.26404
##MINY=0
##NPOINTS=880
##XYDATA=(X++(Y..Y))
450.0 18 83 71 46 76 91 78 14 49 77
490.0 96 132 173 179 172 134 105 62 58 30
530.0 33 31 56 28 20 41 36 73 47 46
570.0 29 39 46 50 41 59 113 221 524 744
610.0 743 524 210 100 58 67 42 59 30 22
650.0 35 39 40 38 49 66 107 147 180 194
690.0 216 179 143 108 70 53 31 30 32 34
730.0 34 38 38 57 67 113 177 329 498 709
770.0 931 778 625 444 269 183 132 144 176 224
810.0 251 263 229 182 168 173 212 266 399 576
850.0 788 982 935 695 492 289 175 116 89 70
890.0 57 63 58 69 57 62 56 59 59 59
930.0 66 53 52 44 46 37 42 47 51 57
970.0 59 71 64 79 78 91 103 127 161 216
1010.0 349 556 653 625 485 315 241 175 137 108
1050.0 107 113 120 144 173 232 317 511 867 1298
1090.0 1561 1813 2160 2910 4153 4749 4355 2932 1631 946
1130.0 685 499 426 351 481 1418 1929 1993 1381 463
1170.0 363 366 362 360 310 267 216 221 236 291
1210.0 357 409 428 414 441 592 1137 2261 3144 3343
1250.0 2610 1863 2332 3725 6045 8887 10000 9032 5718 2930
1290.0 1566 1337 1161 960 786 597 460 386 360 305
1330.0 245 166 129 107 116 120 142 174 266 530
1370.0 672 677 508 299 241 244 253 265 298 337
1410.0 406 456 415 336 226 169 140 136 161 182
1450.0 199 220 210 250 279 307 285 271 239 180
1490.0 157 190 297 592 1221 1641 1605 1074 349 146
1530.0 97 80 75 52 70 84 77 38 60 78
1570.0 88 108 148 203 296 420 636 1008 1543 2024
1610.0 1985 1487 865 503 349 285 194 119 93 64
1650.0 44 41 77 91 102 107 102 119 95 100
1690.0 130 164 142 175 194 229 254 335 546 910
1730.0 1565 2524 3843 4406 4548 3770 2386 1350 710 369
1770.0 211 134 139 120 111 89 78 71 63 70
1810.0 58 50 42 41 29 22 22 30 18 13
1850.0 21 25 22 18 17 11 26 30 36 34
1890.0 33 34 39 50 58 67 70 70 58 55
1930.0 45 31 24 16 19 22 28 30 36 32
1970.0 35 32 28 28 24 17 11 13 10 14
2010.0 14 14 14 13 19 24 28 27 27 30
2050.0 31 29 26 17 12 13 11 9 10 11
2090.0 8 13 11 17 16 18 23 27 29 30
2130.0 31 25 22 17 11 9 5 6 1 1
2170.0 0 1 1 0 0 1 0 3 1 0
2210.0 3 5 7 5 8 7 7 12 13 14
2250.0 14 13 13 11 10 12 7 6 8 9
2290.0 9 8 11 10 10 6 5 3 0 1
2330.0 0 0 0 0 14 10 6 13 14 17
2370.0 26 34 31 35 37 33 30 30 30 29
2410.0 27 24 21 17 14 12 10 12 11 11
2450.0 10 14 17 21 23 28 26 27 27 23
2490.0 19 11 8 11 6 7 4 6 9 11
2530.0 9 11 8 9 12 13 14 11 17 19
2570.0 23 25 25 29 26 23 22 25 21 24
2610.0 19 20 18 17 16 10 9 8 10 10
2650.0 11 8 7 8 7 6 8 6 6 9
2690.0 7 5 7 8 6 7 6 6 10 9
2730.0 12 14 16 17 18 21 19 15 17 19
2770.0 17 23 24 24 23 22 22 22 20 21
2810.0 20 19 23 23 29 31 28 30 36 35
2850.0 40 41 45 53 58 67 81 100 127 146
2890.0 157 153 146 149 161 181 199 208 198 186
2930.0 183 202 251 316 366 367 335 300 296 323
2970.0 361 403 494 664 822 857 765 603 475 393
3010.0 320 260 195 147 112 85 67 59 48 46
3050.0 45 43 43 50 55 63 73 90 109 134
3090.0 137 112 71 38 34 34 34 34 35 40
3130.0 31 27 22 17 16 14 15 17 11 14
3170.0 12 13 12 10 14 16 17 18 13 10
3210.0 9 11 16 10 8 7 9 8 9 7
3250.0 5 7 7 6 8 10 6 10 7 7
3290.0 5 8 8 7 6 11 5 6 11 13
3330.0 10 11 9 10 16 16 13 15 12 12
3370.0 12 14 10 9 4 12 10 9 9 9
3410.0 7 3 5 11 6 4 12 11 9 11
3450.0 16 26 26 31 33 36 22 14 16 5
3490.0 8 9 9 3 6 1 4 1 6 11
3530.0 9 5 6 0 8 10 7 4 11 15
3570.0 7 11 4 9 8 7 13 6 11 5
3610.0 6 14 6 12 8 1 5 8 11 1
3650.0 23 12 10 11 6 2 15 11 17 11
3690.0 18 11 8 6 10 18 12 14 12 0
3730.0 8 11 7 9 14 17 21 9 14 4
3770.0 8 3 6 6 1 1 11 11 6 1
3810.0 5 9 14 14 8 5 5 3 5 18
3850.0 14 3 4 14 12 19 6 6 10 14
3890.0 17 8 4 14 16 8 6 10 10 0
3930.0 10 0 7 5 13 7 6 3 11 14
##END=
