##TITLE=2,5-Difluorotoluene
##JCAMP-DX=4.24
##DATA TYPE=INFRARED SPECTRUM
##ORIGIN=Sadtler Research Labs Under US-EPA Contract
##OWNER=NIST Standard Reference Data Program
##CAS REGISTRY NO=452-67-5
##MOLFORM=C 7 H 6 F 2
##XUNITS=1/CM
##YUNITS=ABSORBANCE
##XFACTOR=1.0
##YFACTOR=0.000086035
##DELTAX=4.0
##FIRSTX=450.0
##LASTX=3966.0
##FIRSTY=0.000000
##MAXX=3966
##MINX=450
##MAXY=0.86035
##MINY=0
##NPOINTS=880
##XYDATA=(X++(Y..Y))
450.0 0 297 340 256 202 170 144 240 230 269
490.0 219 293 170 251 161 138 144 145 237 114
530.0 211 153 243 120 244 211 180 315 373 494
570.0 392 296 331 239 205 189 177 131 182 167
610.0 166 155 164 162 178 179 146 177 131 144
650.0 139 165 165 152 155 185 185 166 168 182
690.0 219 221 249 309 384 851 1493 1904 1628 1825
730.0 1418 817 425 523 481 716 1169 1670 1801 1830
770.0 1710 1383 764 415 384 531 752 1060 1311 1637
810.0 2434 1566 1137 1076 663 479 276 270 231 444
850.0 631 923 1128 1512 2340 1907 1020 1150 723 494
890.0 247 242 150 160 167 164 170 160 213 204
930.0 245 266 378 492 602 619 589 578 436 329
970.0 279 320 334 380 427 514 579 608 624 589
1010.0 547 413 342 264 230 207 192 203 193 220
1050.0 196 213 197 206 190 195 202 202 226 267
1090.0 363 411 413 401 423 342 270 234 225 295
1130.0 432 723 999 1186 1168 1113 925 536 299 285
1170.0 359 469 626 903 1629 3173 4600 5358 6169 7182
1210.0 6582 4494 3885 3064 1738 1008 1018 1140 1203 1310
1250.0 1261 1085 911 723 638 574 591 709 801 822
1290.0 723 625 496 355 250 206 178 169 166 160
1330.0 165 164 178 168 181 186 188 200 214 249
1370.0 260 279 295 325 321 322 333 319 323 379
1410.0 534 743 972 1172 1329 1362 1214 1015 847 684
1450.0 579 533 457 443 482 559 857 1347 2168 3173
1490.0 4609 6907 8928 10000 9774 9041 7050 4398 2637 1727
1530.0 1316 1067 888 752 620 557 482 450 389 396
1570.0 380 359 391 426 487 528 587 581 563 524
1610.0 502 480 475 532 563 582 557 508 437 354
1650.0 296 211 206 198 203 195 193 187 188 162
1690.0 163 159 141 150 152 177 184 228 263 290
1730.0 281 275 263 217 179 150 145 133 131 128
1770.0 132 133 139 137 138 144 132 140 139 133
1810.0 135 135 143 136 149 158 184 213 256 286
1850.0 285 291 296 263 207 185 153 147 131 132
1890.0 130 128 131 128 134 126 131 125 132 127
1930.0 125 123 127 135 133 142 140 146 142 147
1970.0 144 139 144 142 158 157 176 168 178 174
2010.0 163 159 150 146 131 137 129 136 137 142
2050.0 143 146 138 111 115 109 113 117 126 131
2090.0 134 134 121 130 116 123 114 124 118 118
2130.0 122 122 126 132 136 133 139 132 134 126
2170.0 129 122 115 120 124 132 122 130 128 120
2210.0 123 127 134 125 132 135 136 135 137 140
2250.0 133 134 135 142 134 148 138 136 140 139
2290.0 138 133 134 129 135 126 124 119 135 133
2330.0 122 128 130 123 128 145 100 116 103 149
2370.0 163 158 169 156 155 142 142 132 136 138
2410.0 139 145 147 155 152 151 150 146 146 144
2450.0 147 141 139 140 139 137 144 151 162 150
2490.0 146 146 138 138 129 124 124 134 127 134
2530.0 135 129 131 130 129 122 133 129 130 127
2570.0 126 123 117 123 118 124 114 114 110 111
2610.0 116 112 117 110 113 109 115 119 112 101
2650.0 100 106 114 122 121 123 112 109 108 109
2690.0 106 113 118 113 125 117 117 117 117 127
2730.0 126 131 139 137 141 154 147 151 148 139
2770.0 138 130 136 122 120 122 131 127 131 141
2810.0 135 140 136 144 143 148 145 160 162 155
2850.0 184 185 216 245 277 322 349 366 374 363
2890.0 352 347 335 336 339 370 362 395 420 476
2930.0 572 686 775 812 813 754 647 531 458 426
2970.0 442 467 437 442 454 450 435 396 372 328
3010.0 285 252 227 221 220 236 250 267 312 351
3050.0 408 441 425 426 407 352 294 263 241 234
3090.0 231 227 209 202 184 170 170 167 149 143
3130.0 149 148 142 143 137 144 136 133 117 131
3170.0 131 123 117 119 119 109 117 124 125 114
3210.0 135 130 110 108 106 135 138 118 116 124
3250.0 123 126 130 119 116 116 119 106 130 130
3290.0 122 126 111 122 113 119 100 117 115 108
3330.0 126 130 130 128 136 98 125 129 124 114
3370.0 117 135 112 121 123 115 124 117 114 124
3410.0 123 137 131 118 129 117 145 135 125 108
3450.0 110 139 125 125 125 129 109 124 136 134
3490.0 123 138 128 144 149 116 135 126 141 148
3530.0 142 131 119 133 137 131 129 119 120 144
3570.0 166 146 148 127 128 138 138 122 146 148
3610.0 137 166 149 178 141 132 142 144 146 152
3650.0 159 147 174 143 150 136 144 157 151 163
3690.0 151 144 164 151 145 162 163 158 160 136
3730.0 154 143 155 154 123 145 157 161 152 138
3770.0 162 142 185 179 177 166 178 168 155 151
3810.0 167 171 194 153 160 173 168 142 172 147
3850.0 126 139 134 173 172 190 183 184 165 146
3890.0 155 143 139 152 164 151 165 134 156 203
3930.0 125 158 145 158 144 159 202 160 120 146
##END=
