##TITLE=4-Fluoro-3-methylaniline
##JCAMP-DX=4.24
##DATA TYPE=INFRARED SPECTRUM
##ORIGIN=Sadtler Research Labs Under US-EPA Contract
##OWNER=NIST Standard Reference Data Program
##CAS REGISTRY NO=452-69-7
##MOLFORM=C 7 H 8 F N
##XUNITS=1/CM
##YUNITS=ABSORBANCE
##XFACTOR=1.0
##YFACTOR=0.000080371
##DELTAX=4.0
##FIRSTX=450.0
##LASTX=3966.0
##FIRSTY=0.068557
##MAXX=3966
##MINX=450
##MAXY=0.80371
##MINY=0
##NPOINTS=880
##XYDATA=(X++(Y..Y))
450.0 853 1076 1037 1072 951 744 716 771 833 688
490.0 542 561 646 538 383 442 485 402 355 366
530.0 573 595 630 591 644 778 646 511 665 690
570.0 541 367 227 404 368 432 262 465 538 208
610.0 373 214 511 627 514 712 1129 1623 1948 2106
650.0 2432 2542 2330 2025 1803 1775 1868 1813 1771 1689
690.0 1425 1078 983 911 915 862 691 716 832 737
730.0 602 470 517 556 522 797 1321 1812 1813 1649
770.0 1534 960 577 441 760 1194 1508 1696 2114 2578
810.0 1550 1244 960 644 484 436 454 622 789 1063
850.0 1283 1143 968 866 665 455 345 271 167 57
890.0 54 53 58 31 27 83 163 164 181 192
930.0 187 140 87 74 119 111 73 78 99 126
970.0 107 98 117 174 240 222 313 378 389 364
1010.0 272 224 213 160 158 122 199 164 151 167
1050.0 232 287 238 253 305 348 398 421 467 511
1090.0 480 452 428 487 502 536 569 521 499 461
1130.0 362 319 316 302 262 285 291 273 240 187
1170.0 186 231 161 172 252 450 817 1172 1549 2161
1210.0 3197 4713 6373 7563 7812 7242 5778 3303 1472 791
1250.0 600 525 474 436 334 301 302 297 372 455
1290.0 609 757 866 973 925 874 733 524 289 134
1330.0 95 34 35 57 47 59 49 60 130 102
1370.0 94 119 152 193 170 185 224 228 182 168
1410.0 189 242 380 440 501 678 812 1028 965 976
1450.0 997 873 937 675 705 754 1025 1217 1612 2203
1490.0 3107 4245 6187 8343 9860 10000 9214 7882 5534 3169
1530.0 1897 1417 1143 1047 704 570 554 689 518 370
1570.0 472 436 541 498 598 720 767 878 1040 1340
1610.0 1727 2046 2491 2670 2900 2786 2618 2443 2016 1695
1650.0 1182 1073 557 442 324 369 312 262 230 325
1690.0 198 226 329 360 250 204 232 344 172 166
1730.0 177 314 177 219 224 262 201 236 256 195
1770.0 209 248 155 148 131 93 163 116 103 58
1810.0 78 94 91 79 142 212 196 181 176 250
1850.0 161 117 76 58 77 104 40 50 64 76
1890.0 71 49 56 54 48 24 37 75 41 17
1930.0 9 35 38 47 46 49 81 69 42 73
1970.0 74 68 50 63 94 91 83 54 61 66
2010.0 37 34 39 55 56 34 47 43 60 37
2050.0 27 47 51 47 31 39 59 40 28 25
2090.0 47 57 20 18 28 34 24 9 25 32
2130.0 34 16 22 49 42 26 23 33 49 29
2170.0 26 36 52 44 27 34 41 43 32 10
2210.0 33 39 29 21 26 68 63 44 52 58
2250.0 70 52 43 59 68 73 60 68 84 71
2290.0 58 30 50 51 21 17 11 43 6 8
2330.0 8 8 8 8 8 14 6 8 8 8
2370.0 8 8 8 11 52 63 32 30 37 50
2410.0 57 50 65 74 80 59 63 73 68 62
2450.0 54 73 87 68 61 71 78 81 53 63
2490.0 58 64 52 32 54 79 60 54 68 91
2530.0 67 63 66 66 69 55 56 82 72 73
2570.0 40 60 66 49 39 35 61 66 47 51
2610.0 62 66 65 26 28 47 42 26 27 57
2650.0 54 49 32 59 65 47 26 47 64 62
2690.0 42 68 75 76 70 60 94 81 65 62
2730.0 63 101 107 91 105 116 134 113 85 82
2770.0 76 59 30 55 69 67 60 53 81 84
2810.0 54 61 67 102 79 73 103 123 142 125
2850.0 144 197 244 266 318 383 448 446 462 447
2890.0 464 430 384 388 413 446 462 503 614 746
2930.0 884 1010 1077 1104 1021 902 729 613 551 527
2970.0 539 551 567 577 526 532 499 463 411 398
3010.0 508 625 828 1088 1249 1332 1331 1203 1029 888
3050.0 834 736 684 640 548 474 384 363 373 303
3090.0 234 191 188 175 132 125 132 159 130 105
3130.0 149 142 119 69 62 103 69 59 55 80
3170.0 80 44 40 44 83 64 14 50 79 94
3210.0 73 77 122 122 93 79 80 112 78 75
3250.0 91 108 125 60 68 101 90 69 15 52
3290.0 58 40 38 36 85 88 39 30 51 71
3330.0 38 11 56 48 62 24 33 84 69 57
3370.0 34 87 125 106 133 184 280 351 370 489
3410.0 530 496 380 307 233 172 113 69 103 149
3450.0 130 120 158 193 218 206 269 356 417 400
3490.0 427 475 420 358 308 213 191 137 81 74
3530.0 98 118 87 72 112 109 113 39 56 119
3570.0 106 42 28 73 110 118 72 84 121 86
3610.0 101 97 106 118 61 139 103 102 92 109
3650.0 191 140 117 54 62 175 176 154 93 104
3690.0 187 120 66 86 88 121 114 70 108 122
3730.0 122 181 194 224 245 212 155 132 112 81
3770.0 107 91 133 124 87 106 140 134 166 129
3810.0 145 137 155 157 145 185 196 211 178 177
3850.0 201 215 157 176 193 205 166 181 205 181
3890.0 154 149 185 164 129 130 145 186 148 141
3930.0 163 169 127 75 64 101 0 8 8 8
##END=
