##TITLE=Benzenamine, 4-fluoro-2-methyl-
##JCAMP-DX=4.24
##DATA TYPE=INFRARED SPECTRUM
##ORIGIN=Sadtler Research Labs Under US-EPA Contract
##OWNER=NIST Standard Reference Data Program
##CAS REGISTRY NO=452-71-1
##MOLFORM=C 7 H 8 F N
##XUNITS=1/CM
##YUNITS=ABSORBANCE
##XFACTOR=1.0
##YFACTOR=0.000079706
##DELTAX=4.0
##FIRSTX=450.0
##LASTX=3966.0
##FIRSTY=0.058584
##MAXX=3966
##MINX=450
##MAXY=0.79706
##MINY=0
##NPOINTS=880
##XYDATA=(X++(Y..Y))
450.0 735 684 566 463 401 349 335 367 455 525
490.0 427 511 396 339 225 268 186 206 268 202
530.0 253 273 356 400 575 622 759 857 805 611
570.0 489 417 331 352 296 387 368 406 460 518
610.0 557 622 659 688 737 720 794 815 866 897
650.0 973 980 1003 982 888 818 721 637 579 585
690.0 547 561 559 585 688 819 984 1040 1002 889
730.0 779 539 398 374 367 398 449 540 625 676
770.0 616 587 507 479 492 730 982 1305 1787 1745
810.0 1452 1191 931 678 479 323 273 244 278 485
850.0 638 903 1086 1607 1872 1271 975 806 539 328
890.0 188 149 108 110 107 98 119 109 103 129
930.0 140 161 228 409 706 895 906 940 844 584
970.0 314 271 277 390 517 680 813 871 856 751
1010.0 550 332 245 188 162 156 147 146 151 166
1050.0 163 193 181 174 179 169 165 175 179 168
1090.0 185 170 177 174 191 241 308 371 499 669
1130.0 721 829 1084 1592 1797 1681 1566 1574 909 350
1170.0 197 130 114 115 126 147 216 305 458 692
1210.0 977 1345 1824 2542 3352 3734 3642 3400 2750 1732
1250.0 1045 960 1180 1610 1961 2115 2086 1857 1411 879
1290.0 584 452 388 333 293 278 232 199 156 119
1330.0 79 74 18 21 52 51 73 70 63 76
1370.0 100 89 150 163 155 195 160 103 120 179
1410.0 263 529 812 1159 1278 1350 1285 998 692 593
1450.0 613 656 666 720 788 908 1009 1142 1448 1927
1490.0 2724 4243 6240 8600 9885 10000 8841 6999 4350 2114
1530.0 941 502 333 248 237 274 258 197 236 271
1570.0 262 304 367 436 589 747 948 1224 1547 1848
1610.0 2086 2225 2172 2116 1886 1635 1344 1094 891 693
1650.0 469 361 303 231 180 156 89 129 63 54
1690.0 71 87 20 41 74 123 145 125 174 184
1730.0 157 79 100 67 36 17 39 31 35 46
1770.0 18 18 35 28 30 18 8 16 0 26
1810.0 34 37 75 102 126 150 169 177 156 118
1850.0 96 99 74 64 59 36 54 58 49 32
1890.0 32 25 34 36 27 24 22 15 8 22
1930.0 20 26 29 19 28 42 31 35 34 21
1970.0 27 31 31 40 37 26 37 34 40 33
2010.0 30 29 25 18 19 28 20 29 35 28
2050.0 42 50 35 39 33 24 28 21 19 28
2090.0 19 18 29 24 22 26 20 20 18 11
2130.0 11 15 7 7 13 8 21 12 15 26
2170.0 25 21 33 31 27 36 25 17 17 11
2210.0 10 16 9 19 24 15 23 24 14 10
2250.0 18 9 14 18 15 20 27 29 30 31
2290.0 23 29 21 24 39 35 23 44 43 48
2330.0 48 46 55 49 32 44 45 33 37 31
2370.0 14 16 16 14 22 21 15 24 24 26
2410.0 31 29 31 33 34 31 35 17 20 25
2450.0 17 16 25 18 18 21 14 18 11 14
2490.0 28 31 30 36 33 37 46 36 31 33
2530.0 27 24 32 28 31 36 29 36 28 26
2570.0 27 29 18 25 28 13 27 19 20 27
2610.0 25 25 27 22 21 25 20 20 27 22
2650.0 14 26 22 25 31 24 30 32 20 25
2690.0 24 14 26 22 22 22 23 24 33 31
2730.0 28 53 75 87 93 89 80 77 51 39
2770.0 50 36 41 40 40 47 57 41 49 60
2810.0 58 71 73 72 88 97 90 126 143 153
2850.0 190 223 289 372 463 555 617 606 595 549
2890.0 487 477 498 534 611 686 714 767 793 814
2930.0 827 846 844 857 837 732 629 533 484 466
2970.0 462 490 555 570 568 545 471 418 341 282
3010.0 265 270 275 341 456 622 822 892 875 868
3050.0 746 497 369 290 254 270 286 279 295 275
3090.0 248 228 183 170 158 136 134 148 119 133
3130.0 121 101 101 89 77 76 65 39 68 61
3170.0 44 55 34 40 50 51 44 57 48 58
3210.0 68 67 65 82 68 76 86 69 79 86
3250.0 61 67 67 52 58 61 23 64 45 59
3290.0 49 41 41 67 47 44 55 47 58 62
3330.0 52 52 66 51 57 57 43 70 60 62
3370.0 77 89 65 98 121 136 225 276 318 358
3410.0 344 295 263 175 129 125 99 85 85 91
3450.0 99 115 111 150 197 248 331 422 428 455
3490.0 470 416 365 265 208 177 119 106 117 78
3530.0 73 69 54 49 61 40 50 48 33 56
3570.0 37 35 38 40 37 59 56 32 55 36
3610.0 23 57 44 44 47 38 33 56 19 42
3650.0 69 30 20 29 30 53 45 19 37 27
3690.0 38 64 19 27 35 54 28 58 29 56
3730.0 69 23 39 36 39 50 70 29 38 49
3770.0 23 32 54 21 61 52 43 46 31 37
3810.0 45 24 37 64 59 9 66 12 45 67
3850.0 33 44 67 58 80 86 83 64 36 78
3890.0 33 74 48 46 27 68 77 89 28 81
3930.0 97 70 74 69 101 59 33 15 16 55
##END=
