##TITLE=Ethanol, 2-(dodecyloxy)-
##JCAMP-DX=4.24
##DATA TYPE=INFRARED SPECTRUM
##ORIGIN=Sadtler Research Labs Under US-EPA Contract
##OWNER=NIST Standard Reference Data Program
##CAS REGISTRY NO=4536-30-5
##MOLFORM=C 14 H 30 O 2
##XUNITS=1/CM
##YUNITS=ABSORBANCE
##XFACTOR=1.0
##YFACTOR=0.000169141
##DELTAX=4.0
##FIRSTX=450.0
##LASTX=3966.0
##FIRSTY=0.032982
##MAXX=3966
##MINX=450
##MAXY=1.69141
##MINY=0
##NPOINTS=880
##XYDATA=(X++(Y..Y))
450.0 195 138 284 254 45 102 135 201 130 148
490.0 145 210 207 0 148 58 160 166 137 118
530.0 153 141 168 175 119 168 102 97 120 87
570.0 157 133 82 88 123 72 83 111 109 106
610.0 69 69 57 76 95 89 85 101 83 71
650.0 73 96 93 51 107 91 121 121 108 121
690.0 124 145 111 132 144 153 236 212 189 181
730.0 173 230 39 150 234 218 131 134 137 136
770.0 130 121 159 159 164 149 165 162 105 95
810.0 106 121 176 171 161 194 171 205 229 208
850.0 211 266 270 271 293 277 285 313 329 311
890.0 348 336 348 306 287 275 231 264 217 236
930.0 236 224 207 203 206 220 229 223 241 266
970.0 279 293 287 296 315 315 345 358 389 416
1010.0 450 507 568 651 741 827 939 1071 1204 1356
1050.0 1534 1679 1795 1885 1861 1690 1500 1305 1168 1106
1090.0 1077 1101 1186 1348 1600 1939 2306 2696 2928 3002
1130.0 2767 2383 1919 1503 1168 940 777 689 627 566
1170.0 546 519 522 503 477 414 418 396 377 366
1210.0 409 421 386 362 353 358 378 378 386 420
1250.0 430 409 414 404 401 388 403 403 379 382
1290.0 375 382 384 383 372 363 354 335 345 354
1330.0 359 409 488 576 678 781 896 936 900 825
1370.0 707 624 574 553 546 516 481 451 417 380
1410.0 348 326 307 284 279 293 324 385 437 514
1450.0 631 733 858 924 902 791 652 520 405 329
1490.0 252 191 157 131 119 100 93 78 73 66
1530.0 58 56 48 43 51 47 43 35 31 40
1570.0 34 31 35 31 31 32 29 32 25 27
1610.0 24 24 21 21 19 18 24 16 16 23
1650.0 12 22 16 25 15 20 19 23 18 14
1690.0 19 22 17 22 29 35 39 45 54 67
1730.0 76 96 118 149 189 205 200 172 143 119
1770.0 105 88 82 75 69 59 53 43 45 35
1810.0 30 25 23 17 14 10 12 8 10 8
1850.0 7 7 11 15 9 15 14 13 13 11
1890.0 13 13 16 12 14 16 17 18 23 19
1930.0 20 21 22 26 26 26 29 23 27 23
1970.0 24 22 20 16 16 18 14 13 11 14
2010.0 14 16 19 18 20 18 18 17 17 18
2050.0 15 17 16 17 15 17 17 17 16 17
2090.0 20 18 18 17 17 19 19 16 18 14
2130.0 15 13 13 13 12 13 14 12 12 10
2170.0 10 10 10 9 9 4 4 6 4 3
2210.0 3 2 1 3 2 6 5 6 7 8
2250.0 8 7 5 7 6 6 4 6 7 11
2290.0 11 11 15 18 18 20 22 23 27 24
2330.0 29 30 26 40 22 22 32 30 43 28
2370.0 24 19 16 14 10 6 8 7 6 7
2410.0 6 5 5 7 7 4 4 6 6 6
2450.0 7 6 6 5 7 7 7 5 5 7
2490.0 7 8 7 8 9 11 14 11 17 18
2530.0 22 26 25 24 24 25 26 23 25 23
2570.0 27 30 31 33 35 38 39 40 40 42
2610.0 45 49 52 52 56 58 59 64 67 70
2650.0 77 82 86 92 100 107 114 123 128 132
2690.0 138 144 147 147 146 148 151 156 164 167
2730.0 175 180 184 191 191 194 199 204 214 222
2770.0 235 249 266 283 303 323 343 367 391 417
2810.0 446 482 528 580 650 732 846 1004 1219 1543
2850.0 2038 2768 3720 4577 4927 4698 4242 3846 3542 3301
2890.0 3057 2916 2911 3054 3371 3816 4403 5229 6361 7986
2930.0 9447 10000 9731 8518 7142 5810 4725 4039 3673 3437
2970.0 3085 2500 1850 1350 1034 814 664 550 463 400
3010.0 351 307 273 244 219 201 182 164 151 137
3050.0 126 113 102 98 90 86 81 74 70 65
3090.0 62 58 54 53 54 51 49 50 47 47
3130.0 44 43 39 36 37 33 33 31 26 29
3170.0 34 30 25 25 27 29 29 23 22 19
3210.0 16 18 15 11 11 11 10 7 6 8
3250.0 8 9 11 11 8 11 11 12 7 6
3290.0 9 9 4 5 9 6 4 7 4 8
3330.0 4 8 7 13 14 4 9 8 5 4
3370.0 6 6 6 8 5 3 3 5 7 7
3410.0 11 10 7 14 10 9 9 10 14 8
3450.0 6 9 11 9 8 8 10 9 17 14
3490.0 8 14 11 11 12 16 13 16 11 16
3530.0 7 12 13 13 16 16 19 20 24 33
3570.0 37 33 32 46 36 48 50 58 64 83
3610.0 105 140 183 234 294 370 382 330 254 205
3650.0 175 147 141 138 155 141 144 113 113 92
3690.0 78 70 54 54 50 42 33 36 35 29
3730.0 26 18 28 29 19 19 8 19 21 23
3770.0 24 22 19 15 24 25 3 12 10 15
3810.0 15 6 19 4 7 16 15 6 17 16
3850.0 2 1 8 23 15 16 7 1 8 9
3890.0 4 7 7 10 13 14 10 13 13 1
3930.0 23 29 24 23 18 5 1 13 4 13
##END=
