##TITLE=Heptane, 1,7-dibromo-
##JCAMP-DX=4.24
##DATA TYPE=INFRARED SPECTRUM
##ORIGIN=Sadtler Research Labs Under US-EPA Contract
##OWNER=NIST Standard Reference Data Program
##CAS REGISTRY NO=4549-31-9
##MOLFORM=C 7 H 14 Br 2
##XUNITS=1/CM
##YUNITS=ABSORBANCE
##XFACTOR=1.0
##YFACTOR=0.000069287
##DELTAX=4.0
##FIRSTX=450.0
##LASTX=3966.0
##FIRSTY=0.018153
##MAXX=3966
##MINX=450
##MAXY=0.69287
##MINY=0
##NPOINTS=880
##XYDATA=(X++(Y..Y))
450.0 262 315 269 303 253 217 219 128 201 225
490.0 164 349 231 293 310 330 473 283 98 250
530.0 186 289 292 214 507 404 517 849 1125 1572
570.0 1571 1164 1057 610 524 471 270 254 139 30
610.0 300 128 220 306 355 578 587 714 1211 1522
650.0 1752 1688 1359 1024 515 170 287 120 265 213
690.0 146 274 196 200 369 307 461 628 699 868
730.0 561 495 661 379 493 400 382 423 314 246
770.0 330 222 331 260 227 332 210 287 341 268
810.0 272 247 239 299 159 208 181 144 160 86
850.0 179 249 177 217 204 211 268 215 207 237
890.0 174 125 98 97 130 86 85 102 77 157
930.0 144 183 152 110 176 187 163 168 169 162
970.0 164 86 104 104 70 87 61 122 124 77
1010.0 170 137 159 192 152 147 159 125 156 161
1050.0 129 110 62 119 104 22 123 85 116 93
1090.0 21 84 97 32 58 42 40 65 5 42
1130.0 51 21 43 32 31 50 3 85 77 82
1170.0 144 173 231 246 226 341 436 586 832 1106
1210.0 1509 1720 1650 1545 1527 1624 1855 2044 2257 2372
1250.0 2472 2686 2718 2668 2698 2789 2850 2570 2142 1867
1290.0 1609 1410 1248 1126 1088 973 821 733 607 538
1330.0 485 435 550 572 571 660 688 703 645 526
1370.0 516 473 362 297 254 236 212 202 228 215
1410.0 190 221 326 437 518 732 1069 1540 1758 1920
1450.0 1767 1693 1831 1564 1471 1116 967 627 432 371
1490.0 394 272 412 320 495 407 243 322 325 212
1530.0 169 230 202 355 189 168 183 326 283 116
1570.0 194 113 186 111 82 118 163 173 226 189
1610.0 191 193 249 148 184 156 188 230 108 236
1650.0 182 392 97 110 145 186 150 183 162 301
1690.0 144 122 276 298 168 137 135 274 107 88
1730.0 148 222 117 136 93 130 53 43 60 1
1770.0 93 169 80 129 113 101 195 94 144 111
1810.0 119 122 86 99 155 130 107 105 112 193
1850.0 91 80 118 81 98 144 73 96 54 82
1890.0 108 63 83 69 73 104 68 127 117 91
1930.0 91 79 91 116 74 83 83 80 78 62
1970.0 83 82 46 70 88 75 92 59 84 88
2010.0 62 79 98 82 82 61 78 87 62 81
2050.0 88 79 89 66 88 86 63 83 69 65
2090.0 80 38 69 69 43 61 49 69 65 39
2130.0 62 62 48 64 56 72 72 47 75 70
2170.0 57 70 57 62 64 33 58 55 52 58
2210.0 45 65 64 39 72 57 55 64 49 72
2250.0 67 43 68 55 56 67 49 67 61 56
2290.0 78 58 86 77 64 114 111 67 105 102
2330.0 109 105 43 118 101 72 130 106 126 123
2370.0 58 120 78 60 67 45 42 31 1 29
2410.0 15 14 29 19 49 33 9 42 39 39
2450.0 38 29 51 42 23 50 35 36 33 20
2490.0 38 29 19 35 16 30 30 15 46 27
2530.0 24 44 30 42 29 2 43 18 8 32
2570.0 17 42 38 15 50 39 32 54 41 55
2610.0 55 35 66 59 54 67 55 83 70 62
2650.0 101 86 93 95 90 128 116 110 152 150
2690.0 144 144 136 156 125 97 118 85 106 107
2730.0 78 114 87 90 110 102 115 110 108 148
2770.0 122 127 154 154 185 162 182 251 243 270
2810.0 295 323 388 398 448 558 645 843 1069 1395
2850.0 1794 2213 2756 3421 3873 3953 3619 3101 2642 2288
2890.0 2215 2371 2507 2707 2874 3087 3431 3836 4536 5615
2930.0 6681 8023 9199 10000 9957 8460 6630 5154 4240 4060
2970.0 4207 4043 3420 2586 1875 1412 1087 990 998 1189
3010.0 1536 1763 1686 1214 736 498 332 273 271 198
3050.0 196 183 167 181 122 119 130 89 98 74
3090.0 64 81 31 62 80 37 51 64 70 79
3130.0 39 72 97 56 62 40 45 65 21 28
3170.0 50 22 56 25 38 50 29 47 60 52
3210.0 58 35 62 76 32 52 32 26 42 3
3250.0 43 63 1 42 33 46 67 19 46 61
3290.0 20 54 50 40 62 9 45 32 1 45
3330.0 38 62 59 14 57 89 45 60 53 83
3370.0 82 15 55 71 44 71 23 43 55 19
3410.0 46 58 48 55 38 85 84 48 93 96
3450.0 51 72 22 76 68 0 44 37 58 55
3490.0 17 64 79 45 78 73 101 92 33 85
3530.0 89 44 86 66 97 82 53 77 68 65
3570.0 149 76 100 109 87 169 116 108 94 67
3610.0 170 161 84 137 92 198 106 72 121 127
3650.0 199 149 155 92 130 151 189 221 96 115
3690.0 166 96 96 96 89 113 110 110 119 148
3730.0 145 173 235 190 270 238 190 131 138 75
3770.0 121 82 59 88 68 95 90 94 172 122
3810.0 110 122 158 199 128 105 179 198 133 143
3850.0 130 236 129 82 149 164 135 144 140 195
3890.0 170 151 192 197 150 104 76 110 84 33
3930.0 50 64 69 46 44 81 31 37 38 38
##END=
