##TITLE=Octane, 1,8-dibromo-
##JCAMP-DX=4.24
##DATA TYPE=INFRARED SPECTRUM
##ORIGIN=Sadtler Research Labs Under US-EPA Contract
##OWNER=NIST Standard Reference Data Program
##CAS REGISTRY NO=4549-32-0
##MOLFORM=C 8 H 16 Br 2
##XUNITS=1/CM
##YUNITS=ABSORBANCE
##XFACTOR=1.0
##YFACTOR=0.000066476
##DELTAX=4.0
##FIRSTX=450.0
##LASTX=3966.0
##FIRSTY=0.000000
##MAXX=3966
##MINX=450
##MAXY=0.66476
##MINY=0
##NPOINTS=880
##XYDATA=(X++(Y..Y))
450.0 0 178 237 236 264 222 267 222 182 192
490.0 225 235 188 237 248 237 233 265 230 180
530.0 231 250 294 310 372 346 397 577 760 980
570.0 1208 1165 924 641 472 336 277 251 270 237
610.0 255 272 286 303 345 396 490 625 837 1049
650.0 1299 1344 1239 804 587 403 350 323 311 285
690.0 271 281 313 316 352 410 535 604 630 678
730.0 584 541 497 754 605 510 537 511 491 504
770.0 451 462 436 425 404 405 368 372 374 389
810.0 395 370 370 356 354 332 336 321 329 333
850.0 331 333 335 328 325 316 321 335 329 328
890.0 338 331 341 333 318 313 313 302 296 289
930.0 292 294 290 295 304 317 317 326 328 315
970.0 316 316 305 309 300 295 283 283 284 279
1010.0 286 282 278 291 303 316 324 319 322 318
1050.0 321 310 310 301 292 286 276 273 271 264
1090.0 258 251 251 243 241 245 250 253 249 247
1130.0 248 253 270 273 270 277 278 280 286 301
1170.0 311 326 344 374 406 452 519 607 743 914
1210.0 1042 1088 1132 1282 1511 1731 1868 1986 2111 2177
1250.0 2158 2079 2060 2109 2121 1988 1820 1691 1604 1542
1290.0 1471 1392 1271 1140 1007 891 771 678 608 558
1330.0 521 510 539 577 614 665 725 711 654 591
1370.0 548 504 445 370 331 304 292 290 286 297
1410.0 305 335 367 429 517 703 945 1223 1517 1628
1450.0 1515 1425 1493 1463 1307 1075 816 605 464 370
1490.0 320 279 267 254 260 247 238 239 235 233
1530.0 218 218 215 222 207 208 205 215 205 201
1570.0 200 202 195 190 188 187 185 182 181 187
1610.0 184 192 191 193 188 190 187 191 187 187
1650.0 186 196 183 186 188 189 189 186 185 190
1690.0 186 184 191 188 186 188 190 192 186 188
1730.0 192 192 193 187 190 189 188 184 188 187
1770.0 188 192 188 189 184 189 189 190 190 185
1810.0 185 188 186 187 188 185 186 183 188 185
1850.0 184 184 183 184 183 184 183 186 185 185
1890.0 184 187 184 184 183 181 183 183 185 181
1930.0 183 181 184 184 185 184 183 182 184 183
1970.0 185 183 184 184 182 185 186 190 191 186
2010.0 192 190 191 191 196 194 195 196 195 195
2050.0 195 193 193 192 189 187 187 189 188 185
2090.0 188 185 186 187 187 187 187 190 188 188
2130.0 187 190 189 189 191 187 192 189 190 197
2170.0 195 194 197 196 197 196 197 196 197 195
2210.0 195 198 196 197 195 197 198 198 199 198
2250.0 197 196 196 198 199 197 197 199 198 199
2290.0 201 201 202 208 212 220 210 212 211 208
2330.0 203 193 189 202 203 205 222 212 198 193
2370.0 198 189 194 192 194 189 187 185 190 186
2410.0 187 189 185 187 185 184 185 182 184 185
2450.0 184 183 183 182 182 182 184 184 184 183
2490.0 185 187 187 189 193 190 190 192 192 192
2530.0 191 191 192 193 193 187 189 190 193 193
2570.0 187 192 193 199 202 206 204 205 208 206
2610.0 218 215 217 222 221 228 235 235 240 245
2650.0 248 247 244 252 254 261 265 272 275 287
2690.0 285 288 282 280 273 263 259 260 258 251
2730.0 252 252 253 255 254 259 257 262 259 262
2770.0 265 268 279 290 304 320 333 345 364 385
2810.0 400 423 456 498 548 609 705 848 1066 1362
2850.0 1721 2176 2839 3614 4167 4117 3602 2961 2438 2136
2890.0 2055 2151 2322 2521 2712 2951 3308 3884 4760 5974
2930.0 7363 8645 9672 10000 9287 7569 5731 4275 3493 3343
2970.0 3534 3391 2771 2106 1568 1211 1009 923 957 1104
3010.0 1368 1630 1527 1086 721 543 460 414 379 349
3050.0 325 305 293 276 267 259 251 240 239 235
3090.0 229 229 221 219 213 221 216 213 215 212
3130.0 217 206 214 215 206 205 208 209 206 209
3170.0 207 206 202 204 198 202 200 194 197 199
3210.0 192 192 193 191 187 192 191 190 184 189
3250.0 187 189 191 188 187 187 195 188 184 183
3290.0 180 184 186 185 184 186 188 189 186 189
3330.0 189 193 183 193 194 190 193 189 191 194
3370.0 191 186 190 181 190 188 192 185 193 190
3410.0 195 188 190 187 189 190 189 187 189 189
3450.0 183 189 192 186 196 184 182 183 193 185
3490.0 184 190 188 184 191 188 188 184 189 193
3530.0 192 184 193 185 183 183 185 193 193 191
3570.0 184 186 189 200 197 190 190 192 196 190
3610.0 193 205 203 206 194 204 204 195 197 204
3650.0 210 198 200 191 200 200 193 207 197 202
3690.0 198 196 191 183 187 199 184 186 193 194
3730.0 184 198 196 202 203 209 200 186 187 196
3770.0 191 192 194 205 202 191 202 191 201 191
3810.0 193 200 197 206 186 203 192 210 202 201
3850.0 202 199 211 203 201 204 213 208 204 221
3890.0 197 203 198 226 216 205 200 210 211 213
3930.0 210 213 217 212 198 199 212 195 191 195
##END=
