##TITLE=Nonane, 1,9-dibromo-
##JCAMP-DX=4.24
##DATA TYPE=INFRARED SPECTRUM
##ORIGIN=Sadtler Research Labs Under US-EPA Contract
##OWNER=NIST Standard Reference Data Program
##CAS REGISTRY NO=4549-33-1
##MOLFORM=C 9 H 18 Br 2
##XUNITS=1/CM
##YUNITS=ABSORBANCE
##XFACTOR=1.0
##YFACTOR=0.000097464
##DELTAX=4.0
##FIRSTX=450.0
##LASTX=3966.0
##FIRSTY=0.041325
##MAXX=3966
##MINX=450
##MAXY=0.97464
##MINY=0
##NPOINTS=880
##XYDATA=(X++(Y..Y))
450.0 424 204 88 174 65 123 106 78 67 51
490.0 79 59 90 36 18 41 108 90 87 111
530.0 84 107 83 142 136 234 225 410 555 728
570.0 960 890 671 420 290 200 185 144 140 121
610.0 113 145 137 180 207 261 296 445 582 785
650.0 973 1049 946 626 453 273 218 149 172 151
690.0 162 144 169 195 223 302 349 437 452 468
730.0 449 458 455 453 432 424 416 369 339 303
770.0 282 231 234 211 215 209 206 225 208 229
810.0 212 234 196 209 195 195 176 172 180 174
850.0 187 173 193 188 179 179 176 182 182 187
890.0 177 193 184 190 184 200 177 179 172 168
930.0 160 155 156 149 153 150 157 152 173 166
970.0 173 160 161 172 163 157 153 148 149 146
1010.0 142 145 145 143 153 156 174 174 181 182
1050.0 171 163 152 146 137 134 126 129 123 122
1090.0 116 111 96 95 89 88 92 90 96 93
1130.0 102 101 106 103 111 113 115 126 136 149
1170.0 161 184 199 234 264 312 368 450 567 688
1210.0 769 824 948 1099 1219 1244 1234 1263 1321 1401
1250.0 1546 1764 1946 1959 1800 1579 1383 1246 1159 1109
1290.0 1054 1005 946 876 797 687 594 505 443 389
1330.0 352 340 362 404 445 499 549 549 483 433
1370.0 396 353 288 227 183 157 143 137 139 137
1410.0 156 169 201 244 325 468 673 913 1159 1292
1450.0 1213 1171 1241 1236 1103 882 639 421 294 204
1490.0 164 124 118 95 92 81 74 70 66 64
1530.0 51 52 47 55 42 45 41 49 43 37
1570.0 41 30 33 34 37 29 29 27 28 28
1610.0 30 32 28 31 29 30 30 37 30 33
1650.0 32 42 39 43 53 48 49 41 40 39
1690.0 29 32 35 35 28 30 32 33 26 29
1730.0 26 35 35 29 31 30 35 28 30 21
1770.0 25 28 27 26 25 27 27 25 24 32
1810.0 23 25 25 23 21 23 23 20 18 21
1850.0 22 20 22 19 20 19 21 22 18 22
1890.0 20 21 18 22 18 20 18 22 22 24
1930.0 24 21 21 17 24 25 24 22 25 28
1970.0 24 27 25 26 25 31 26 31 29 32
2010.0 30 33 34 30 32 35 38 34 38 32
2050.0 36 34 26 24 23 23 20 24 25 32
2090.0 29 27 25 24 28 27 27 30 33 27
2130.0 30 27 27 30 30 31 33 34 28 34
2170.0 30 32 29 29 33 32 33 33 37 31
2210.0 34 32 36 34 33 33 34 34 34 37
2250.0 36 38 34 33 36 38 36 33 34 31
2290.0 30 27 23 21 18 11 12 3 1 9
2330.0 1 10 2 7 16 17 1 3 9 35
2370.0 46 55 60 49 46 40 42 36 36 35
2410.0 36 34 30 32 31 31 30 33 30 32
2450.0 34 35 36 36 37 37 38 36 41 35
2490.0 38 36 38 40 38 43 39 43 42 41
2530.0 41 47 45 41 41 45 46 40 37 31
2570.0 34 31 34 35 38 46 48 50 56 61
2610.0 57 65 71 76 76 80 75 81 84 77
2650.0 83 92 94 101 109 105 106 107 116 122
2690.0 121 121 124 126 118 114 108 99 99 98
2730.0 95 91 94 95 102 95 100 105 106 109
2770.0 115 124 122 137 144 162 177 195 205 223
2810.0 247 270 301 341 389 451 539 661 857 1127
2850.0 1488 1969 2719 3606 4170 4034 3395 2707 2193 1904
2890.0 1816 1896 2057 2265 2477 2766 3169 3798 4763 6129
2930.0 7742 9144 10000 9932 8732 6950 5158 3808 3069 2898
2970.0 3004 2833 2272 1707 1259 963 812 743 749 825
3010.0 1026 1213 1123 767 485 350 285 237 201 176
3050.0 160 137 114 112 104 102 91 84 81 74
3090.0 78 61 62 53 56 58 54 47 47 48
3130.0 40 42 41 40 35 42 40 43 47 48
3170.0 42 39 39 35 38 35 41 32 41 45
3210.0 42 42 37 34 31 46 33 41 25 27
3250.0 27 33 20 20 13 18 32 17 25 21
3290.0 26 19 19 18 18 23 33 31 13 16
3330.0 7 3 1 9 13 4 19 17 23 20
3370.0 23 22 21 12 20 15 16 19 18 32
3410.0 0 24 20 40 25 9 5 16 15 28
3450.0 35 15 16 23 20 1 28 24 15 25
3490.0 28 31 34 27 36 29 24 26 28 32
3530.0 35 38 30 39 33 18 40 28 24 48
3570.0 40 45 31 53 24 36 37 39 51 51
3610.0 47 39 29 60 62 65 53 57 75 85
3650.0 72 52 63 72 67 69 85 85 77 66
3690.0 73 68 59 59 45 41 58 65 82 60
3730.0 87 81 76 69 78 93 85 83 54 75
3770.0 62 91 66 85 59 53 98 69 87 81
3810.0 79 81 80 90 109 81 57 63 97 77
3850.0 78 59 77 70 56 82 64 103 111 54
3890.0 90 121 80 80 90 114 86 49 57 100
3930.0 57 61 32 75 61 100 38 71 114 76
##END=
