##TITLE=Benzene, 1-fluoro-4-(methylsulfonyl)-
##JCAMP-DX=4.24
##DATA TYPE=INFRARED SPECTRUM
##ORIGIN=Sadtler Research Labs Under US-EPA Contract
##OWNER=NIST Standard Reference Data Program
##CAS REGISTRY NO=455-15-2
##MOLFORM=C 7 H 7 F O 2 S
##XUNITS=1/CM
##YUNITS=ABSORBANCE
##XFACTOR=1.0
##YFACTOR=0.000077625
##DELTAX=4.0
##FIRSTX=450.0
##LASTX=3966.0
##FIRSTY=0.000000
##MAXX=3966
##MINX=450
##MAXY=0.77625
##MINY=0
##NPOINTS=880
##XYDATA=(X++(Y..Y))
450.0 0 397 386 610 396 728 655 834 920 719
490.0 722 620 595 676 1073 2548 4262 4601 4759 3696
530.0 2407 2595 2582 2137 1598 1084 876 612 492 426
570.0 383 335 348 375 324 335 305 350 368 344
610.0 395 392 386 484 469 496 526 495 380 351
650.0 312 279 341 361 334 408 304 332 382 326
690.0 442 410 458 512 512 481 375 399 407 473
730.0 685 735 1476 1670 2245 2963 3694 3301 2782 1903
770.0 1160 797 526 427 382 426 481 540 654 803
810.0 869 1031 1112 1425 1860 2377 2801 2948 2567 1878
850.0 1370 952 710 590 498 519 507 482 510 452
890.0 458 460 452 455 422 405 430 445 454 460
930.0 466 514 685 951 1414 2142 2544 2493 2145 1323
970.0 774 590 468 399 352 328 345 338 378 418
1010.0 476 487 468 449 369 305 304 272 297 294
1050.0 284 349 366 408 488 598 785 889 1119 1451
1090.0 1637 1598 1455 1130 902 663 596 598 498 500
1130.0 565 677 958 1547 2989 5644 8129 9116 10000 8655
1170.0 6640 5164 3310 1803 1169 897 684 544 544 547
1210.0 628 755 939 1158 1438 1823 2510 3553 4230 4236
1250.0 3611 2265 1348 1135 1033 982 938 917 1007 1123
1290.0 1209 1192 1139 1046 1052 1163 1362 1655 1813 1976
1330.0 2230 2732 3504 4639 5825 6390 6321 5568 4321 2760
1370.0 1681 1071 739 649 634 688 757 825 809 764
1410.0 785 684 700 617 602 552 506 498 490 506
1450.0 487 511 491 517 501 641 802 1019 1188 1482
1490.0 2203 3034 3368 3090 2464 1254 650 518 424 325
1530.0 366 315 408 467 502 514 466 555 632 752
1570.0 897 1078 1391 1911 2437 3082 3471 3306 2640 1844
1610.0 1265 883 658 527 493 430 468 471 433 480
1650.0 501 486 492 464 472 434 462 385 459 415
1690.0 427 388 404 393 408 400 409 435 395 369
1730.0 377 397 362 352 384 388 368 386 405 419
1770.0 429 435 398 408 382 361 350 344 350 317
1810.0 336 325 320 318 303 306 299 322 335 331
1850.0 313 326 301 317 348 357 332 334 340 348
1890.0 375 407 407 437 444 438 418 382 359 331
1930.0 308 333 321 337 301 304 312 321 308 311
1970.0 304 307 315 311 314 318 315 313 297 302
2010.0 296 296 303 317 315 315 313 307 318 321
2050.0 326 340 346 348 359 352 344 337 337 326
2090.0 319 310 307 300 304 309 308 299 304 304
2130.0 293 300 296 292 302 294 294 298 295 301
2170.0 292 300 300 301 308 302 302 302 294 295
2210.0 295 294 299 298 303 305 307 319 324 333
2250.0 337 339 338 345 339 333 326 323 324 315
2290.0 307 324 321 317 324 326 337 315 313 302
2330.0 301 295 291 280 297 307 306 310 289 289
2370.0 302 313 306 309 311 319 312 318 321 318
2410.0 320 316 327 324 329 329 323 320 310 309
2450.0 311 312 311 312 315 314 323 326 328 331
2490.0 327 323 322 322 318 324 326 322 309 303
2530.0 299 299 296 290 298 301 306 309 310 327
2570.0 326 325 329 329 326 318 305 300 287 308
2610.0 299 289 292 285 292 291 284 286 285 282
2650.0 287 287 281 285 288 291 286 283 284 294
2690.0 292 292 296 287 284 283 272 284 281 286
2730.0 289 292 299 291 292 286 287 283 287 288
2770.0 285 285 292 284 289 287 279 282 275 287
2810.0 279 290 290 287 287 290 290 278 285 283
2850.0 274 281 282 276 274 277 286 279 275 279
2890.0 285 287 283 276 279 289 278 280 282 287
2930.0 296 290 312 312 316 304 295 294 288 294
2970.0 297 298 300 298 297 299 302 301 304 314
3010.0 313 331 348 340 350 346 334 326 324 317
3050.0 309 310 312 308 308 341 376 432 485 497
3090.0 478 408 350 320 316 318 299 294 303 293
3130.0 288 292 293 288 292 284 292 287 284 286
3170.0 290 290 291 298 292 303 304 292 298 290
3210.0 286 288 283 289 281 294 292 296 290 278
3250.0 277 290 286 283 287 288 284 282 270 284
3290.0 296 282 286 272 282 295 277 287 284 288
3330.0 288 267 290 296 283 289 289 304 293 290
3370.0 293 295 292 286 284 303 299 286 289 288
3410.0 278 289 298 307 286 302 294 289 289 297
3450.0 287 295 297 296 277 297 286 280 310 316
3490.0 292 282 293 307 312 294 302 291 300 306
3530.0 312 286 296 305 312 304 296 306 289 311
3570.0 311 297 307 280 316 308 306 309 303 300
3610.0 326 305 283 309 285 297 301 300 311 312
3650.0 272 306 284 329 295 311 291 293 319 299
3690.0 309 288 326 309 300 306 315 318 316 305
3730.0 302 302 314 332 274 297 275 293 290 310
3770.0 298 291 325 333 308 329 298 297 319 312
3810.0 301 312 283 268 301 318 323 292 278 311
3850.0 334 270 306 324 290 296 308 304 319 283
3890.0 332 335 357 308 299 318 319 324 326 301
3930.0 270 339 305 336 306 321 272 291 316 313
##END=
