##TITLE=Acetophenone, 3'-fluoro-4'-methoxy-
##JCAMP-DX=4.24
##DATA TYPE=INFRARED SPECTRUM
##ORIGIN=Sadtler Research Labs Under US-EPA Contract
##OWNER=NIST Standard Reference Data Program
##CAS REGISTRY NO=455-91-4
##MOLFORM=C 9 H 9 F O 2
##XUNITS=1/CM
##YUNITS=ABSORBANCE
##XFACTOR=1.0
##YFACTOR=0.000133118
##DELTAX=4.0
##FIRSTX=450.0
##LASTX=3966.0
##FIRSTY=0.000000
##MAXX=3966
##MINX=450
##MAXY=1.33118
##MINY=0
##NPOINTS=880
##XYDATA=(X++(Y..Y))
450.0 0 25 45 74 84 105 86 65 82 66
490.0 81 93 81 70 83 93 92 104 93 114
530.0 92 119 141 210 321 390 433 442 423 423
570.0 467 468 493 496 474 446 419 427 406 381
610.0 324 244 174 178 219 282 349 391 356 284
650.0 230 146 112 65 65 77 87 99 93 73
690.0 59 46 32 35 25 33 42 41 60 63
730.0 80 102 160 243 386 560 697 764 697 552
770.0 379 251 176 132 134 180 228 290 383 459
810.0 499 582 623 594 544 462 392 331 250 207
850.0 189 197 247 319 402 501 570 584 722 923
890.0 1005 1038 998 791 659 589 494 394 280 210
930.0 173 157 166 197 255 346 421 456 451 406
970.0 363 347 331 319 311 317 351 414 521 683
1010.0 910 1130 1266 1304 1241 1131 1018 879 712 551
1050.0 451 443 484 523 543 520 455 393 334 295
1090.0 274 265 276 315 409 577 798 1080 1394 1671
1130.0 1800 1780 1686 1422 1145 923 668 530 558 727
1170.0 1018 1382 1680 1879 2013 2050 2048 2002 1746 1354
1210.0 983 702 574 574 644 746 839 926 992 1044
1250.0 1145 1338 1699 2346 3420 4985 6899 8713 9796 10000
1290.0 9031 7535 5872 4429 3472 2834 2301 1831 1407 1085
1330.0 889 759 681 706 829 1067 1449 1840 2005 1875
1370.0 1451 934 606 451 377 366 392 464 621 841
1410.0 1126 1507 1862 2182 2298 2182 1874 1593 1418 1283
1450.0 1150 1027 846 810 795 727 630 554 523 521
1490.0 614 881 1319 2041 2935 3718 4031 3647 2744 1816
1530.0 1176 839 668 559 513 503 503 535 662 828
1570.0 1014 1214 1368 1444 1431 1361 1340 1448 1761 2216
1610.0 2597 2658 2313 1688 1038 643 408 306 273 257
1650.0 243 274 328 351 352 348 348 428 539 837
1690.0 1438 2488 3857 4728 4850 4260 2720 1419 778 478
1730.0 320 252 267 278 276 278 269 224 178 147
1770.0 103 78 88 79 82 71 60 60 47 56
1810.0 47 47 52 51 48 38 47 50 37 30
1850.0 44 51 50 52 48 40 54 59 54 51
1890.0 47 46 49 51 53 51 47 41 32 39
1930.0 38 38 43 43 53 62 62 58 56 43
1970.0 39 41 41 41 41 37 38 47 49 56
2010.0 65 76 91 111 128 139 147 144 137 126
2050.0 115 101 93 84 75 73 67 63 55 52
2090.0 51 48 44 41 35 32 30 27 25 25
2130.0 25 25 25 25 26 26 28 31 33 34
2170.0 36 37 41 40 40 39 36 35 32 32
2210.0 32 32 31 29 32 32 35 40 47 52
2250.0 58 64 66 70 71 72 70 66 62 60
2290.0 59 55 55 56 59 58 64 64 68 73
2330.0 75 70 62 84 65 69 75 71 78 78
2370.0 75 68 63 50 42 37 32 30 27 28
2410.0 25 26 29 30 31 27 29 31 33 34
2450.0 36 32 35 38 42 39 43 42 42 43
2490.0 46 48 47 52 54 55 53 53 52 52
2530.0 53 54 60 62 69 75 80 85 90 93
2570.0 101 107 115 123 132 137 136 131 122 105
2610.0 88 76 66 58 58 56 56 57 55 52
2650.0 51 48 47 45 42 42 41 42 42 42
2690.0 41 40 39 42 40 40 42 39 38 41
2730.0 44 42 43 47 45 45 46 50 51 52
2770.0 59 62 66 67 71 77 77 78 79 83
2810.0 88 94 102 115 133 153 187 245 339 459
2850.0 536 546 488 383 301 256 232 220 218 223
2890.0 231 248 270 296 330 369 407 433 457 470
2930.0 494 544 632 737 809 847 844 818 801 790
2970.0 766 701 633 561 496 457 431 434 467 543
3010.0 665 781 799 719 564 400 296 250 226 219
3050.0 215 217 226 238 259 294 337 364 363 336
3090.0 286 240 207 175 153 130 117 103 94 86
3130.0 83 76 72 69 67 64 61 57 54 53
3170.0 54 51 48 47 42 44 42 42 42 39
3210.0 36 38 37 36 37 34 37 34 32 35
3250.0 34 32 31 31 31 32 37 35 33 33
3290.0 35 36 38 39 34 33 36 39 37 34
3330.0 37 35 40 39 38 38 39 40 40 43
3370.0 49 64 76 88 102 107 105 92 73 54
3410.0 43 37 31 29 32 33 33 36 37 35
3450.0 28 33 35 31 31 27 29 25 29 27
3490.0 28 32 32 32 27 29 27 31 33 30
3530.0 34 29 32 30 32 32 31 30 28 27
3570.0 28 29 32 28 32 35 30 28 32 32
3610.0 41 42 45 46 50 47 42 37 37 40
3650.0 40 33 38 35 33 32 30 32 31 32
3690.0 33 31 37 31 32 31 31 35 38 40
3730.0 40 40 36 37 34 33 33 26 32 30
3770.0 33 33 31 26 29 40 36 30 33 29
3810.0 34 32 31 36 32 31 39 35 37 39
3850.0 37 38 35 36 30 30 31 37 31 30
3890.0 34 25 31 36 38 37 40 27 33 35
3930.0 40 42 33 32 40 40 52 43 46 36
##END=
