##TITLE=Benzoyl fluoride
##JCAMP-DX=4.24
##DATA TYPE=INFRARED SPECTRUM
##ORIGIN=Sadtler Research Labs Under US-EPA Contract
##OWNER=NIST Standard Reference Data Program
##CAS REGISTRY NO=455-32-3
##MOLFORM=C 7 H 5 F O
##XUNITS=1/CM
##YUNITS=ABSORBANCE
##XFACTOR=1.0
##YFACTOR=0.000125226
##DELTAX=4.0
##FIRSTX=450.0
##LASTX=3966.0
##FIRSTY=0.000000
##MAXX=3966
##MINX=450
##MAXY=1.25226
##MINY=0
##NPOINTS=880
##XYDATA=(X++(Y..Y))
450.0 0 45 68 81 88 65 69 30 35 23
490.0 40 64 44 43 50 46 36 43 32 38
530.0 47 55 60 60 59 59 33 44 65 65
570.0 66 59 75 75 43 68 54 50 61 69
610.0 55 71 76 97 93 130 256 584 742 787
650.0 765 765 401 162 112 155 208 342 605 1028
690.0 1501 1870 2224 4271 2713 2163 1885 1365 826 444
730.0 235 145 118 119 122 163 213 318 419 391
770.0 338 429 355 238 175 154 161 157 118 110
810.0 95 85 75 62 61 57 59 64 68 66
850.0 74 76 68 74 66 67 63 61 65 58
890.0 61 56 56 56 59 53 64 71 80 88
930.0 102 129 158 157 174 172 165 155 146 131
970.0 137 151 170 188 210 252 339 528 922 1690
1010.0 2772 3461 3514 3657 3717 3159 2703 2320 2260 2222
1050.0 1482 805 527 425 383 366 350 325 293 251
1090.0 238 228 206 184 156 141 131 129 127 126
1130.0 139 150 155 156 154 154 146 133 130 181
1170.0 310 573 673 694 621 597 340 203 187 234
1210.0 338 484 677 977 1430 1977 2497 2949 3480 4136
1250.0 4684 4810 4664 4354 3340 2076 1086 670 480 363
1290.0 283 240 227 221 217 230 245 228 180 158
1330.0 131 115 127 132 129 129 119 108 87 75
1370.0 71 84 90 92 96 95 103 106 100 102
1410.0 107 92 101 93 92 93 132 178 256 368
1450.0 465 431 418 448 315 204 164 132 109 117
1490.0 123 103 100 104 92 79 62 63 68 65
1530.0 77 75 88 97 95 82 84 82 70 64
1570.0 67 78 93 122 142 184 253 362 417 418
1610.0 408 370 246 156 144 141 150 148 134 122
1650.0 110 87 79 63 63 59 67 55 67 68
1690.0 61 55 67 65 68 62 69 78 76 73
1730.0 80 89 90 105 135 184 254 315 326 346
1770.0 416 401 354 360 357 351 362 380 413 520
1810.0 749 1223 2267 4523 7880 9360 9083 10000 8666 4137
1850.0 1756 853 449 270 200 180 164 159 159 165
1890.0 180 205 225 189 171 155 139 131 122 104
1930.0 90 79 63 56 54 60 70 85 91 94
1970.0 105 113 103 91 81 75 64 59 59 66
2010.0 69 75 83 91 99 105 104 100 97 99
2050.0 91 86 81 79 69 56 49 45 42 40
2090.0 38 35 34 34 32 31 32 32 32 31
2130.0 29 30 30 30 29 27 29 27 27 29
2170.0 28 27 29 29 30 31 35 40 42 39
2210.0 41 39 34 33 31 31 32 34 34 37
2250.0 39 43 43 47 47 49 48 47 49 48
2290.0 45 45 47 44 44 46 44 44 46 46
2330.0 47 51 47 49 60 61 44 40 45 65
2370.0 71 71 66 58 47 36 29 26 27 28
2410.0 26 25 23 26 23 23 25 26 26 27
2450.0 26 25 28 30 32 32 34 35 38 42
2490.0 45 45 47 45 43 40 34 33 32 30
2530.0 29 29 27 31 31 33 33 33 32 32
2570.0 34 35 34 34 37 41 47 50 50 51
2610.0 50 45 40 38 37 37 34 34 32 33
2650.0 33 30 29 32 31 30 28 30 29 30
2690.0 29 29 30 29 29 29 32 31 34 32
2730.0 36 36 37 39 38 40 38 39 37 35
2770.0 32 32 34 33 34 32 32 32 32 31
2810.0 32 32 31 34 38 39 42 46 48 51
2850.0 50 52 53 50 48 49 46 43 45 42
2890.0 40 41 42 40 39 39 35 35 34 36
2930.0 38 38 40 40 41 40 39 39 38 38
2970.0 37 39 40 43 40 41 42 42 42 47
3010.0 53 61 65 74 83 95 109 138 159 187
3050.0 222 239 253 289 326 368 434 516 500 466
3090.0 425 356 267 225 225 215 171 133 105 83
3130.0 60 47 40 39 40 40 40 41 40 45
3170.0 47 51 49 48 46 40 35 34 37 38
3210.0 37 38 38 34 35 34 33 34 35 32
3250.0 33 34 31 33 33 37 34 35 36 37
3290.0 35 36 36 34 34 34 35 39 36 36
3330.0 37 41 36 37 38 38 35 37 35 35
3370.0 35 35 39 37 40 37 38 38 38 39
3410.0 40 37 43 40 45 49 49 51 53 51
3450.0 47 44 43 41 40 44 40 43 42 39
3490.0 43 42 40 41 41 38 39 43 41 40
3530.0 41 42 35 37 40 42 38 41 41 42
3570.0 47 64 80 95 96 96 94 75 45 43
3610.0 39 46 47 51 50 60 86 100 110 112
3650.0 114 111 86 62 41 33 30 23 30 29
3690.0 36 40 44 47 47 50 55 54 55 51
3730.0 50 50 54 49 45 48 51 52 48 47
3770.0 39 46 46 45 49 43 48 46 41 48
3810.0 44 42 53 44 46 51 49 56 58 53
3850.0 50 46 54 44 48 48 48 54 50 47
3890.0 51 55 45 46 45 54 52 50 41 52
3930.0 51 48 42 49 47 48 49 52 49 46
##END=
