##TITLE=Benzene, 1-fluoro-2-methyl-4-nitro-
##JCAMP-DX=4.24
##DATA TYPE=INFRARED SPECTRUM
##ORIGIN=Sadtler Research Labs Under US-EPA Contract
##OWNER=NIST Standard Reference Data Program
##CAS REGISTRY NO=455-88-9
##MOLFORM=C 7 H 6 F N O 2
##XUNITS=1/CM
##YUNITS=ABSORBANCE
##XFACTOR=1.0
##YFACTOR=0.000083987
##DELTAX=4.0
##FIRSTX=450.0
##LASTX=3966.0
##FIRSTY=0.019317
##MAXX=3966
##MINX=450
##MAXY=0.83987
##MINY=0
##NPOINTS=880
##XYDATA=(X++(Y..Y))
450.0 230 194 108 49 73 48 10 34 32 17
490.0 10 12 25 7 38 35 59 33 59 133
530.0 180 158 187 107 25 6 18 41 64 62
570.0 67 50 16 16 24 33 22 6 17 46
610.0 83 143 226 394 733 1222 1477 1475 1355 787
650.0 335 98 34 17 16 0 25 25 45 95
690.0 114 207 175 134 110 85 38 57 75 157
730.0 310 563 828 1181 1804 1793 1822 1888 1600 1258
770.0 783 418 220 129 76 74 80 119 252 746
810.0 1350 1533 1768 1718 1545 1531 936 691 508 239
850.0 117 54 66 36 47 50 103 162 267 435
890.0 610 794 984 1086 894 703 686 823 1001 1045
930.0 1033 809 415 180 85 44 44 26 27 27
970.0 28 24 34 42 51 81 106 131 140 145
1010.0 139 113 98 90 83 78 82 80 105 130
1050.0 160 197 234 264 292 325 383 536 907 1473
1090.0 1801 1880 1685 1145 708 668 952 1148 1139 1154
1130.0 872 486 281 159 91 59 41 41 52 86
1170.0 138 235 374 604 930 1177 1199 1121 807 429
1210.0 252 194 203 253 338 487 866 1811 3462 4989
1250.0 5463 5314 3773 1756 1052 943 859 805 706 620
1290.0 534 506 529 572 598 609 655 722 876 1192
1330.0 1716 2410 3253 4338 5954 8001 9553 10000 8925 6300
1370.0 3341 1538 838 647 621 575 535 472 376 336
1410.0 350 362 430 431 448 475 568 682 736 767
1450.0 753 687 700 785 972 1217 1597 2023 2547 3522
1490.0 4820 5542 5308 4741 3473 2211 1791 1934 2373 3131
1530.0 4257 5664 6981 7665 7750 7568 6793 5810 4866 4257
1570.0 3762 3158 2762 2718 2751 2754 2582 2163 1698 1357
1610.0 1116 939 871 819 829 737 646 553 428 326
1650.0 292 252 198 165 147 126 130 98 131 129
1690.0 104 88 126 118 107 86 102 126 93 87
1730.0 95 122 82 72 67 75 68 73 92 107
1770.0 141 145 124 112 103 96 107 103 104 78
1810.0 59 46 29 32 30 35 22 17 23 33
1850.0 20 14 18 23 35 54 61 80 105 128
1890.0 148 147 131 110 86 60 33 26 24 15
1930.0 14 15 20 23 23 15 16 12 9 10
1970.0 6 6 8 12 17 30 35 48 55 67
2010.0 71 70 61 43 29 23 16 11 14 11
2050.0 15 17 21 22 24 16 10 5 3 4
2090.0 4 2 4 4 4 5 1 0 2 4
2130.0 3 4 4 4 4 5 3 5 5 7
2170.0 9 13 12 17 11 6 2 1 1 1
2210.0 1 0 0 0 4 10 12 18 23 28
2250.0 34 33 33 32 28 29 28 31 36 34
2290.0 35 35 37 42 45 56 49 51 56 45
2330.0 45 53 56 61 83 85 90 60 51 43
2370.0 38 35 47 45 36 22 21 18 18 20
2410.0 15 18 20 22 28 34 39 45 49 45
2450.0 44 37 32 26 25 26 27 28 34 43
2490.0 56 59 65 65 57 50 52 48 44 40
2530.0 36 34 36 37 37 39 35 27 28 21
2570.0 18 21 24 31 31 41 47 55 68 79
2610.0 89 94 92 77 63 51 37 28 28 23
2650.0 22 19 25 23 29 31 35 39 45 47
2690.0 49 50 53 55 49 54 54 51 49 49
2730.0 45 44 44 46 51 56 57 55 54 51
2770.0 45 40 41 42 42 41 45 47 50 56
2810.0 58 63 64 68 74 77 88 93 101 104
2850.0 119 141 165 195 226 258 291 319 332 330
2890.0 319 305 294 292 292 294 294 297 314 336
2930.0 384 467 562 623 627 589 504 400 325 290
2970.0 286 293 290 273 269 272 272 256 240 210
3010.0 182 147 119 100 100 99 104 112 119 129
3050.0 145 150 151 147 154 163 188 216 233 230
3090.0 224 192 161 148 132 106 83 65 48 42
3130.0 34 30 29 22 21 20 11 11 12 13
3170.0 13 13 10 15 8 13 12 18 16 17
3210.0 17 17 21 20 11 17 16 14 13 18
3250.0 21 24 25 22 18 18 14 18 17 22
3290.0 19 16 16 14 18 21 10 13 16 20
3330.0 15 14 11 10 14 14 15 14 15 14
3370.0 12 19 13 13 18 18 16 11 9 11
3410.0 18 10 14 17 17 16 18 16 15 15
3450.0 1 11 12 11 13 15 4 9 14 13
3490.0 13 13 18 15 12 9 19 6 4 12
3530.0 18 19 13 15 13 13 10 10 13 20
3570.0 16 16 13 19 26 14 17 18 9 14
3610.0 21 17 15 11 19 23 22 15 25 20
3650.0 25 18 16 10 8 17 13 20 15 25
3690.0 16 21 18 16 27 24 16 17 27 25
3730.0 25 29 26 11 26 15 19 19 17 7
3770.0 8 10 9 13 9 9 12 13 20 22
3810.0 14 26 16 12 12 14 17 15 23 18
3850.0 22 26 18 15 25 26 6 16 23 31
3890.0 19 27 6 23 38 27 30 25 25 17
3930.0 12 17 25 28 21 14 14 8 4 10
##END=
