##TITLE=Urea, tetrabutyl-
##JCAMP-DX=4.24
##DATA TYPE=INFRARED SPECTRUM
##ORIGIN=Sadtler Research Labs Under US-EPA Contract
##OWNER=NIST Standard Reference Data Program
##CAS REGISTRY NO=4559-86-8
##MOLFORM=C 17 H 36 N 2 O
##XUNITS=1/CM
##YUNITS=ABSORBANCE
##XFACTOR=1.0
##YFACTOR=0.000071533
##DELTAX=4.0
##FIRSTX=450.0
##LASTX=3966.0
##FIRSTY=0.020315
##MAXX=3966
##MINX=450
##MAXY=0.71533
##MINY=0
##NPOINTS=880
##XYDATA=(X++(Y..Y))
450.0 284 354 244 146 193 263 307 169 345 409
490.0 345 119 225 120 181 143 103 98 196 83
530.0 47 61 39 154 117 5 23 217 140 202
570.0 96 228 236 342 199 319 318 404 238 323
610.0 266 421 347 284 237 373 347 267 270 191
650.0 309 254 182 104 235 266 157 113 156 171
690.0 256 138 175 175 270 226 269 243 349 450
730.0 403 427 512 609 513 525 465 508 423 442
770.0 326 456 464 527 456 523 486 553 459 415
810.0 374 383 309 290 221 221 278 201 190 217
850.0 262 218 261 224 261 288 373 277 355 363
890.0 417 426 491 494 567 517 543 531 539 496
930.0 474 504 523 585 574 500 476 513 465 471
970.0 393 408 399 397 310 283 289 323 301 298
1010.0 261 313 341 277 290 335 373 409 422 450
1050.0 554 574 603 588 685 675 733 738 797 917
1090.0 1136 1293 1433 1547 1621 1565 1592 1617 1793 2069
1130.0 2258 2259 1902 1453 1050 864 761 861 929 1034
1170.0 1118 1250 1329 1404 1432 1486 1555 1773 2080 2637
1210.0 3218 3613 3303 2659 1985 1608 1461 1428 1465 1583
1250.0 1749 1816 1910 1874 1894 1889 1968 2139 2368 2534
1290.0 2606 2438 2159 1941 1862 1806 1727 1605 1549 1496
1330.0 1508 1556 1628 1778 1853 1924 2005 2154 2275 2427
1370.0 2469 2519 2445 2344 2075 1930 1964 2319 2769 3213
1410.0 3342 3084 2518 1895 1506 1301 1277 1339 1402 1516
1450.0 1761 1974 2283 2524 2808 2930 2820 2241 1683 1246
1490.0 1013 793 694 644 608 540 462 394 402 390
1530.0 385 353 318 343 311 324 263 293 344 339
1570.0 337 373 363 368 327 354 394 432 410 450
1610.0 476 514 577 618 620 755 894 962 1126 1366
1650.0 1816 2490 3529 4975 6697 7595 7057 5011 3123 1936
1690.0 1386 1023 832 686 613 524 450 404 395 368
1730.0 354 317 305 328 263 263 207 219 211 210
1770.0 158 164 157 177 154 154 130 147 141 124
1810.0 117 131 114 102 113 90 126 119 89 91
1850.0 96 84 100 79 91 86 115 68 85 84
1890.0 98 94 82 81 87 104 87 87 87 117
1930.0 93 106 72 85 92 93 66 95 83 98
1970.0 75 83 75 80 72 74 64 66 80 70
2010.0 61 68 79 84 70 57 79 72 88 70
2050.0 79 93 105 68 89 86 80 80 66 56
2090.0 82 87 64 60 67 76 67 63 53 61
2130.0 60 52 53 60 52 63 51 54 58 68
2170.0 44 57 57 69 56 56 48 64 60 53
2210.0 53 54 72 68 54 49 72 73 71 49
2250.0 66 50 77 52 55 49 72 58 52 46
2290.0 51 53 46 44 46 86 58 56 53 83
2330.0 81 117 35 123 152 117 95 184 174 287
2370.0 190 134 118 111 86 46 38 41 57 43
2410.0 35 34 41 35 32 13 34 22 41 4
2450.0 18 9 31 15 11 2 25 28 4 14
2490.0 29 32 23 35 23 48 41 35 20 50
2530.0 46 47 34 43 42 74 42 48 42 64
2570.0 56 44 43 70 79 50 54 50 80 61
2610.0 60 48 73 81 81 59 86 72 100 81
2650.0 97 92 138 116 128 130 157 150 146 145
2690.0 144 164 164 162 159 183 165 182 158 179
2730.0 189 210 202 228 223 238 219 207 207 232
2770.0 238 228 245 272 301 305 325 332 400 412
2810.0 439 453 520 566 645 683 813 958 1154 1326
2850.0 1528 1744 2112 2603 3315 4000 4373 4441 4468 4360
2890.0 3803 3247 3006 3066 3276 3714 4075 4430 4747 5308
2930.0 6000 6975 7568 7873 7332 6460 5764 6070 7384 9264
2970.0 10000 8292 5610 3746 2759 2175 1796 1477 1277 1096
3010.0 949 770 728 658 609 520 493 407 420 350
3050.0 297 276 291 268 233 234 225 239 227 194
3090.0 192 235 197 212 172 203 188 210 151 172
3130.0 181 189 155 160 135 179 157 116 121 148
3170.0 141 116 112 104 149 122 99 84 134 113
3210.0 123 73 100 94 132 83 101 103 126 97
3250.0 100 81 130 129 91 90 117 132 74 86
3290.0 56 123 126 115 58 121 93 113 55 76
3330.0 70 136 83 61 67 94 80 47 65 68
3370.0 109 73 51 73 101 82 103 61 95 108
3410.0 119 68 109 83 129 96 79 73 133 86
3450.0 56 52 78 90 59 44 31 93 48 43
3490.0 20 84 68 89 0 54 65 102 30 77
3530.0 85 102 79 84 70 103 118 86 113 90
3570.0 137 105 105 86 132 103 106 73 123 83
3610.0 132 71 73 85 104 80 72 83 92 112
3650.0 80 74 100 118 118 104 83 146 138 141
3690.0 135 152 141 166 146 154 168 203 173 166
3730.0 176 213 206 184 178 173 207 174 168 162
3770.0 200 172 189 163 185 194 196 177 200 202
3810.0 237 199 207 222 248 255 243 260 284 288
3850.0 281 297 271 313 289 276 271 303 296 321
3890.0 282 281 270 291 249 249 255 263 245 217
3930.0 231 248 248 211 220 232 15 32 33 35
##END=
