##TITLE=1-Propanone, 1-(4-fluorophenyl)-
##JCAMP-DX=4.24
##DATA TYPE=INFRARED SPECTRUM
##ORIGIN=Sadtler Research Labs Under US-EPA Contract
##OWNER=NIST Standard Reference Data Program
##CAS REGISTRY NO=456-03-1
##MOLFORM=C 9 H 9 F O
##XUNITS=1/CM
##YUNITS=ABSORBANCE
##XFACTOR=1.0
##YFACTOR=0.000062122
##DELTAX=4.0
##FIRSTX=450.0
##LASTX=3966.0
##FIRSTY=0.014350
##MAXX=3966
##MINX=450
##MAXY=0.62122
##MINY=0
##NPOINTS=880
##XYDATA=(X++(Y..Y))
450.0 231 132 141 141 13 124 43 205 306 328
490.0 232 277 369 424 301 324 287 317 319 382
530.0 379 461 432 447 523 793 963 1207 1299 1155
570.0 1018 1033 1134 1331 1397 1186 982 677 538 450
610.0 399 326 254 258 273 213 203 219 167 144
650.0 105 194 180 116 109 77 106 186 174 173
690.0 84 133 111 48 53 26 0 51 7 75
730.0 120 93 77 208 209 260 249 323 287 370
770.0 373 317 398 455 597 817 1061 1273 1596 1779
810.0 1727 1672 1485 1305 1478 1707 2081 2450 2627 2915
850.0 2707 2078 1544 1041 590 343 240 215 204 204
890.0 230 189 157 119 136 176 202 265 351 534
930.0 887 1380 1866 2349 2803 2824 2526 1906 1100 530
970.0 411 301 241 258 255 299 340 476 765 1191
1010.0 1561 1612 1378 971 507 340 239 188 228 189
1050.0 208 197 251 285 323 377 439 493 511 582
1090.0 647 573 618 610 563 478 354 281 263 222
1130.0 263 227 336 397 831 2474 4726 5263 4769 2992
1170.0 871 487 547 527 768 859 1141 1577 2216 3475
1210.0 5061 7004 8766 9788 10000 9003 9004 9279 8843 8405
1250.0 5730 3059 1818 1547 1457 1515 1635 1701 1650 1452
1290.0 1204 1034 1009 1077 1160 1282 1399 1484 1502 1445
1330.0 1396 1415 1627 1984 2351 2566 2483 2122 1644 1251
1370.0 996 817 789 763 736 742 755 911 1114 1295
1410.0 1362 1297 1195 927 807 705 600 645 640 725
1450.0 860 804 961 1110 1047 1141 970 775 619 597
1490.0 800 1079 2086 3152 4118 4445 3473 2353 1121 641
1530.0 418 346 319 274 306 293 304 327 436 537
1570.0 688 893 1184 1660 2161 3192 5026 6363 9009 8430
1610.0 6628 4899 2452 1354 853 607 478 419 406 427
1650.0 475 482 598 610 643 760 712 918 1220 1795
1690.0 3006 4295 6880 8470 9394 8744 6971 4320 2216 1358
1730.0 684 568 440 372 513 410 447 478 435 469
1770.0 397 395 337 263 252 169 164 153 144 160
1810.0 102 113 113 55 91 49 68 62 48 63
1850.0 24 53 49 78 101 91 106 125 113 184
1890.0 137 142 143 121 144 138 106 112 114 127
1930.0 101 114 88 64 71 51 65 83 47 78
1970.0 60 59 50 39 64 64 71 41 30 28
2010.0 17 28 30 25 46 38 44 51 40 62
2050.0 55 76 78 85 94 79 79 66 43 37
2090.0 27 18 21 14 30 19 6 17 12 19
2130.0 13 12 17 1 23 25 21 24 17 19
2170.0 16 15 29 12 14 16 4 7 8 10
2210.0 1 11 11 5 17 21 10 31 13 26
2250.0 38 34 44 28 36 31 27 33 25 33
2290.0 28 33 49 42 48 62 40 49 19 32
2330.0 39 19 13 20 38 27 6 13 34 55
2370.0 34 32 47 40 42 55 58 71 72 70
2410.0 63 64 73 79 96 93 92 93 83 78
2450.0 68 67 65 74 81 89 86 89 80 64
2490.0 52 38 33 27 32 33 34 39 36 40
2530.0 47 38 35 36 29 36 45 50 61 66
2570.0 80 88 105 106 113 107 94 90 75 64
2610.0 62 47 45 40 33 37 28 29 31 35
2650.0 29 34 40 40 33 33 36 30 40 38
2690.0 50 46 47 59 49 53 49 48 51 52
2730.0 64 56 66 79 84 94 83 80 74 55
2770.0 55 59 67 69 73 83 82 87 100 105
2810.0 115 126 138 156 163 166 172 172 158 153
2850.0 152 166 169 192 213 267 320 405 538 685
2890.0 812 859 823 771 781 904 1090 1214 1230 1138
2930.0 1002 913 914 1132 1511 1786 1791 1543 1144 852
2970.0 880 1074 1424 1910 2216 2260 2135 1717 1237 882
3010.0 628 454 363 311 280 273 251 256 255 269
3050.0 321 388 440 476 497 485 497 542 551 537
3090.0 482 355 240 206 214 223 213 209 195 166
3130.0 135 110 97 87 64 67 62 67 75 66
3170.0 70 62 66 67 66 76 69 58 64 45
3210.0 43 41 30 43 30 45 46 30 52 37
3250.0 29 33 39 42 42 49 45 38 44 47
3290.0 43 49 48 54 46 44 44 44 42 40
3330.0 37 50 50 52 59 58 49 58 70 73
3370.0 88 101 119 152 167 184 188 189 166 133
3410.0 104 76 45 52 49 62 47 50 48 38
3450.0 51 45 42 51 55 43 52 45 65 54
3490.0 51 36 41 52 45 42 52 50 54 46
3530.0 39 59 42 49 41 37 45 34 46 45
3570.0 82 61 84 118 111 116 94 76 45 18
3610.0 22 31 38 37 25 19 27 62 50 34
3650.0 24 49 61 63 38 18 50 50 55 27
3690.0 28 56 43 44 47 26 47 43 39 52
3730.0 33 58 32 25 38 37 69 52 59 47
3770.0 56 60 29 11 39 50 59 32 21 26
3810.0 55 42 42 43 58 34 49 33 90 54
3850.0 64 63 53 74 53 50 72 46 65 51
3890.0 34 69 56 47 71 28 11 65 58 90
3930.0 70 63 50 17 49 59 55 20 57 143
##END=
