##TITLE=Benzene, 1-(chloromethyl)-3-fluoro-
##JCAMP-DX=4.24
##DATA TYPE=INFRARED SPECTRUM
##ORIGIN=Sadtler Research Labs Under US-EPA Contract
##OWNER=NIST Standard Reference Data Program
##CAS REGISTRY NO=456-42-8
##MOLFORM=C 7 H 6 Cl F
##XUNITS=1/CM
##YUNITS=ABSORBANCE
##XFACTOR=1.0
##YFACTOR=0.000111713
##DELTAX=4.0
##FIRSTX=450.0
##LASTX=3966.0
##FIRSTY=0.059319
##MAXX=3966
##MINX=450
##MAXY=1.11713
##MINY=0
##NPOINTS=880
##XYDATA=(X++(Y..Y))
450.0 531 541 465 358 270 223 273 156 169 115
490.0 216 148 203 289 328 527 728 883 1089 1170
530.0 890 760 408 294 217 199 248 188 200 181
570.0 197 224 378 612 1006 1353 1280 1209 931 575
610.0 399 312 217 185 164 169 121 132 110 94
650.0 97 113 181 288 407 733 944 1310 1313 1158
690.0 1111 1114 1240 1534 2007 2790 3740 4789 5479 5909
730.0 5716 5569 6174 6990 7390 7545 6887 5793 4649 3833
770.0 3471 3387 3613 4084 3785 2917 2286 1571 949 584
810.0 408 332 270 215 183 145 141 158 204 286
850.0 390 539 717 900 1066 1228 1325 1351 1354 1340
890.0 1247 975 748 580 426 322 266 240 239 284
930.0 367 532 813 1244 1796 2180 2255 2174 1735 1128
970.0 719 450 282 171 99 58 42 73 83 91
1010.0 85 59 17 7 2 3 9 12 13 9
1050.0 27 42 82 141 252 383 449 473 492 321
1090.0 179 132 114 134 155 202 252 365 514 826
1130.0 1330 2059 2666 2799 3038 2740 1891 1353 950 690
1170.0 547 457 437 422 384 344 326 331 403 545
1210.0 743 896 972 1001 1056 1190 1452 1820 2312 3005
1250.0 3980 5085 6217 7445 8370 9042 9825 10000 9179 7959
1290.0 6094 3874 2324 1569 1191 934 740 577 445 346
1330.0 275 222 201 184 151 131 112 106 102 94
1370.0 96 97 103 104 138 167 226 307 388 450
1410.0 507 564 618 678 829 1131 1721 2663 3883 4921
1450.0 5432 5604 4807 3400 2688 2506 2618 3005 3759 4870
1490.0 5491 5485 4869 3490 2208 1460 1178 1033 915 761
1530.0 589 422 357 345 345 391 480 604 735 935
1570.0 1250 1689 2271 3113 4191 5294 6340 7081 6882 6425
1610.0 5869 5503 5160 4380 3342 2095 1070 530 322 225
1650.0 206 188 199 230 265 276 275 230 195 155
1690.0 114 92 98 91 101 104 130 174 197 220
1730.0 262 304 304 303 305 317 326 340 319 293
1770.0 307 261 195 163 143 121 106 82 78 63
1810.0 61 64 63 71 65 67 55 60 80 140
1850.0 202 232 230 204 152 103 77 63 59 57
1890.0 58 53 49 53 52 60 81 118 170 217
1930.0 228 219 195 126 68 32 23 16 16 15
1970.0 20 22 23 20 23 28 32 39 37 40
2010.0 42 40 42 45 53 53 49 43 40 28
2050.0 18 9 12 20 19 17 15 16 13 20
2090.0 22 27 33 34 31 25 22 14 14 6
2130.0 0 0 2 6 3 8 8 4 3 2
2170.0 5 4 9 15 18 23 23 28 36 36
2210.0 34 32 29 30 28 28 24 23 23 20
2250.0 17 11 8 9 10 10 19 27 32 33
2290.0 35 36 37 40 43 42 44 45 48 53
2330.0 48 42 40 33 56 47 20 27 30 58
2370.0 76 79 76 77 74 62 61 63 66 69
2410.0 66 68 70 65 65 63 60 53 50 46
2450.0 38 37 27 21 18 19 18 19 14 18
2490.0 24 25 28 29 36 43 52 58 60 61
2530.0 61 56 52 48 46 45 43 46 44 46
2570.0 50 47 47 44 46 46 48 48 51 50
2610.0 52 50 49 44 40 40 33 31 33 34
2650.0 26 8 12 3 1 5 8 14 20 22
2690.0 29 34 39 44 50 68 64 62 66 72
2730.0 70 74 67 60 48 46 42 33 26 22
2770.0 25 21 18 12 18 26 16 11 18 18
2810.0 27 23 30 30 30 28 40 44 55 60
2850.0 66 80 86 86 108 123 141 165 184 197
2890.0 188 172 161 132 114 106 85 83 92 102
2930.0 131 173 225 279 324 390 461 573 698 869
2970.0 984 992 892 747 616 498 437 418 441 465
3010.0 436 417 376 317 284 308 364 489 621 783
3050.0 898 973 994 1010 1015 989 973 960 962 951
3090.0 879 780 627 457 321 263 223 203 194 160
3130.0 118 77 49 33 25 15 13 10 13 13
3170.0 17 9 8 5 13 9 23 13 6 2
3210.0 13 13 26 14 10 17 12 12 4 15
3250.0 8 20 5 12 15 19 22 16 22 16
3290.0 18 19 18 16 12 16 25 16 19 23
3330.0 18 11 12 7 19 23 22 31 13 13
3370.0 19 21 29 21 25 9 26 28 9 12
3410.0 27 4 10 8 16 14 14 10 18 21
3450.0 19 8 18 8 13 9 7 20 10 17
3490.0 16 17 24 21 17 14 10 13 19 19
3530.0 28 24 16 13 27 25 33 28 17 35
3570.0 45 45 65 79 89 91 68 60 53 43
3610.0 26 30 31 21 30 26 34 32 31 26
3650.0 9 35 48 19 56 29 19 41 19 21
3690.0 39 9 25 19 9 11 27 31 28 35
3730.0 15 13 29 29 24 23 23 26 29 35
3770.0 36 41 36 35 40 29 35 29 44 30
3810.0 36 11 36 28 20 18 26 26 23 25
3850.0 29 18 28 33 50 28 23 30 15 24
3890.0 21 26 40 19 13 59 49 31 8 26
3930.0 70 37 16 32 15 20 3 41 33 11
##END=
