##TITLE=Benzoic acid, 4-fluoro-
##JCAMP-DX=4.24
##DATA TYPE=INFRARED SPECTRUM
##ORIGIN=Sadtler Research Labs Under US-EPA Contract
##OWNER=NIST Standard Reference Data Program
##CAS REGISTRY NO=456-22-4
##MOLFORM=C 7 H 5 F O 2
##XUNITS=1/CM
##YUNITS=ABSORBANCE
##XFACTOR=1.0
##YFACTOR=0.000050635
##DELTAX=4.0
##FIRSTX=450.0
##LASTX=3966.0
##FIRSTY=0.004304
##MAXX=3966
##MINX=450
##MAXY=0.50635
##MINY=0
##NPOINTS=880
##XYDATA=(X++(Y..Y))
450.0 85 53 112 149 205 305 430 577 770 985
490.0 1155 1170 953 793 614 393 219 219 227 322
530.0 279 403 469 605 687 845 855 962 1092 1277
570.0 1605 1905 2531 3435 3062 2693 2200 948 344 206
610.0 177 126 148 183 192 209 181 184 160 106
650.0 129 121 99 152 212 337 425 511 678 839
690.0 882 731 751 578 460 415 441 427 348 376
730.0 256 160 197 241 362 547 801 1098 1324 1628
770.0 2204 1439 1316 1118 795 568 427 333 298 331
810.0 386 443 457 464 488 675 954 1136 1296 1370
850.0 1316 1486 1014 739 644 439 266 149 98 50
890.0 69 47 31 41 47 58 50 35 28 32
930.0 12 12 12 13 33 51 66 80 70 76
970.0 70 75 82 88 72 60 60 72 102 209
1010.0 350 376 388 396 326 271 276 307 345 453
1050.0 644 893 1212 1774 2628 3864 5161 5381 5271 4883
1090.0 3383 2118 1515 1174 875 622 504 438 430 425
1130.0 410 406 454 686 1574 3230 3664 3646 3885 2870
1170.0 2519 3282 4210 4591 4478 3762 2576 1481 869 605
1210.0 514 574 728 967 1365 2106 3275 4628 5180 5315
1250.0 4708 3260 2229 1751 1353 967 708 601 573 601
1290.0 641 638 678 703 723 784 928 1213 1692 2106
1330.0 2097 1934 1642 974 696 820 1203 1831 2362 2417
1370.0 2307 1852 1058 595 415 336 352 426 521 613
1410.0 628 638 600 445 343 292 214 173 141 129
1450.0 127 114 128 102 110 108 140 141 170 221
1490.0 334 517 941 1604 2316 2541 2421 1999 1203 576
1530.0 322 220 150 148 110 104 121 158 179 207
1570.0 283 374 514 655 909 1324 1905 2549 3173 3512
1610.0 3083 2431 1832 1142 674 423 301 225 172 162
1650.0 151 210 172 193 206 211 209 198 197 230
1690.0 236 273 354 421 423 453 507 535 501 531
1730.0 615 833 1237 1950 3134 5042 7710 9336 9674 10000
1770.0 8781 6145 4230 2660 1511 895 583 409 347 317
1810.0 296 287 297 297 281 237 192 146 107 81
1850.0 60 39 39 29 29 29 18 30 32 42
1890.0 68 90 121 152 173 182 174 163 142 123
1930.0 103 73 59 47 49 55 57 69 69 69
1970.0 48 39 30 30 30 30 30 30 30 13
2010.0 11 11 10 10 20 20 19 13 17 15
2050.0 20 20 19 31 31 31 40 40 31 30
2090.0 30 30 26 28 21 21 15 12 12 11
2130.0 11 21 22 30 33 40 40 40 36 31
2170.0 24 23 11 11 11 3 3 3 3 3
2210.0 14 13 12 12 22 22 22 22 21 21
2250.0 23 23 23 23 23 23 23 24 12 12
2290.0 12 23 22 22 33 33 33 32 32 41
2330.0 52 45 42 52 51 52 71 80 81 71
2370.0 58 43 32 34 29 32 33 33 42 42
2410.0 41 42 36 42 42 42 53 53 53 53
2450.0 42 42 42 43 53 53 52 63 58 48
2490.0 37 27 24 25 25 25 24 24 24 24
2530.0 24 24 24 24 23 28 25 24 24 35
2570.0 35 43 45 53 53 53 49 45 45 45
2610.0 45 45 35 25 26 15 15 15 15 15
2650.0 15 16 16 16 16 16 16 26 26 26
2690.0 26 26 26 26 26 27 24 16 17 25
2730.0 25 25 25 27 26 26 26 26 26 19
2770.0 16 27 26 26 27 26 26 26 27 28
2810.0 20 20 16 28 15 27 27 36 26 37
2850.0 37 37 37 37 36 36 36 36 29 28
2890.0 28 27 27 27 27 27 24 22 27 26
2930.0 38 38 38 38 27 28 28 28 28 20
2970.0 23 29 28 27 27 20 27 28 38 37
3010.0 48 48 47 47 43 38 37 30 38 29
3050.0 39 47 48 69 76 88 108 128 163 199
3090.0 186 166 138 89 58 48 57 58 57 54
3130.0 56 49 43 33 30 29 21 20 20 20
3170.0 20 29 29 38 30 30 30 30 30 30
3210.0 30 20 20 21 21 21 21 13 20 14
3250.0 22 21 21 21 21 21 30 21 21 21
3290.0 24 19 21 27 19 20 13 22 11 11
3330.0 12 11 11 11 23 10 22 22 28 32
3370.0 29 21 31 11 22 21 19 12 12 12
3410.0 12 12 13 10 12 13 13 22 12 12
3450.0 12 23 23 17 23 30 28 31 31 41
3490.0 51 61 70 82 87 81 81 65 57 41
3530.0 33 34 33 32 33 43 63 94 166 309
3570.0 617 1206 2271 3343 3628 3370 2685 1341 447 166
3610.0 85 59 41 50 37 43 25 27 24 23
3650.0 53 33 34 23 23 37 39 46 33 33
3690.0 51 35 33 44 34 44 43 26 33 34
3730.0 27 37 48 44 52 43 35 24 25 25
3770.0 24 27 23 24 24 24 23 34 46 26
3810.0 25 24 44 44 35 34 34 46 44 38
3850.0 46 52 47 43 45 35 34 34 45 42
3890.0 35 46 35 35 35 35 27 35 25 26
3930.0 35 35 35 35 43 39 0 3 3 3
##END=
