##TITLE=Carbostyril, 3,4-dihydro-7-fluoro-,
##JCAMP-DX=4.24
##DATA TYPE=INFRARED SPECTRUM
##ORIGIN=Sadtler Research Labs Under US-EPA Contract
##OWNER=NIST Standard Reference Data Program
##CAS REGISTRY NO=4590-52-7
##MOLFORM=C 9 H 8 F N O
##XUNITS=1/CM
##YUNITS=ABSORBANCE
##XFACTOR=1.0
##YFACTOR=0.000173087
##DELTAX=4.0
##FIRSTX=450.0
##LASTX=3966.0
##FIRSTY=0.056426
##MAXX=3966
##MINX=450
##MAXY=1.73087
##MINY=0
##NPOINTS=880
##XYDATA=(X++(Y..Y))
450.0 326 255 362 0 43 37 181 35 35 75
490.0 136 280 195 241 190 348 613 771 837 840
530.0 818 644 537 501 513 617 819 1013 1189 1026
570.0 788 587 450 345 187 154 192 206 266 307
610.0 373 253 306 363 416 489 474 437 392 316
650.0 216 180 159 172 169 247 316 309 259 236
690.0 213 235 238 240 229 244 221 197 138 117
730.0 157 148 126 152 149 207 227 195 211 274
770.0 262 251 212 163 196 281 419 580 876 1155
810.0 1071 902 801 666 587 657 712 849 1113 1464
850.0 971 817 586 281 188 132 81 102 61 58
890.0 79 116 113 114 186 286 356 393 331 230
930.0 104 56 87 70 85 55 48 82 106 200
970.0 250 237 247 281 379 401 431 364 232 167
1010.0 167 181 246 331 368 348 287 185 117 100
1050.0 104 107 121 119 121 139 128 156 167 171
1090.0 177 220 335 466 565 592 517 350 317 292
1130.0 289 327 512 935 1458 1805 1943 1726 1470 1478
1170.0 1899 2613 3323 3479 3271 2503 1787 1275 843 608
1210.0 459 376 347 312 283 329 422 567 835 1184
1250.0 1743 2331 2734 2683 2396 1946 1676 1686 1833 2198
1290.0 2694 2928 2871 2404 1592 1018 860 912 889 913
1330.0 1004 1384 2107 2904 3332 3182 2585 1748 1108 823
1370.0 671 579 520 457 433 390 360 343 365 396
1410.0 411 427 434 444 453 507 520 664 878 1027
1450.0 1168 1297 1547 2055 2560 2886 2741 2217 1384 870
1490.0 713 672 860 1251 1804 2682 2761 2663 2082 1230
1530.0 768 645 616 598 590 576 636 689 744 736
1570.0 744 714 660 691 780 966 1203 1439 1879 2193
1610.0 2569 3046 3639 4353 3824 3338 2115 1025 618 488
1650.0 511 492 450 397 360 354 382 450 546 649
1690.0 681 706 749 812 920 1156 1500 2314 3587 5261
1730.0 7824 8391 10000 9451 7347 5886 3659 2163 1420 1042
1770.0 802 584 455 360 301 289 250 250 234 243
1810.0 253 248 252 229 213 192 159 142 126 130
1850.0 113 119 127 117 113 99 79 65 58 51
1890.0 53 48 45 43 47 50 48 52 48 45
1930.0 46 39 32 31 28 30 32 37 40 40
1970.0 37 32 29 27 25 24 26 27 26 28
2010.0 29 27 30 33 36 35 39 35 32 29
2050.0 28 26 26 26 25 27 26 29 31 31
2090.0 29 28 29 33 32 28 28 25 25 23
2130.0 23 20 23 24 22 23 22 24 25 20
2170.0 21 23 23 23 24 30 28 31 33 39
2210.0 42 41 36 32 30 31 26 26 30 31
2250.0 33 31 32 35 37 42 34 30 28 24
2290.0 21 21 22 22 16 14 20 20 26 27
2330.0 29 32 40 26 34 23 35 32 44 24
2370.0 33 25 23 24 23 25 30 33 34 42
2410.0 43 44 47 48 53 57 63 65 60 60
2450.0 55 48 41 40 36 39 34 30 29 28
2490.0 28 28 27 25 25 25 28 32 34 30
2530.0 34 32 35 34 34 39 43 40 40 42
2570.0 43 46 46 48 41 42 42 41 43 43
2610.0 46 42 41 42 42 43 42 39 40 36
2650.0 41 40 35 30 31 33 31 28 28 25
2690.0 25 29 28 29 28 30 27 27 30 30
2730.0 37 37 44 46 45 46 52 59 60 63
2770.0 62 60 54 57 57 60 62 63 71 72
2810.0 75 79 84 87 92 109 122 138 165 197
2850.0 241 297 334 342 318 273 218 197 183 179
2890.0 189 210 250 307 372 431 469 514 525 473
2930.0 408 358 338 357 418 525 581 569 567 487
2970.0 389 341 334 408 486 498 462 375 272 226
3010.0 208 204 211 218 235 267 313 345 358 351
3050.0 337 297 254 229 222 221 223 234 251 258
3090.0 256 246 233 230 228 230 234 235 237 231
3130.0 221 210 195 187 188 182 183 187 194 202
3170.0 188 188 179 169 153 144 134 128 123 131
3210.0 136 139 155 159 161 164 157 138 131 142
3250.0 142 157 156 164 165 144 122 96 81 66
3290.0 52 52 44 36 44 41 39 32 40 42
3330.0 30 35 33 32 35 34 34 28 30 33
3370.0 35 36 35 36 40 36 42 46 48 57
3410.0 77 127 190 300 453 609 739 767 711 601
3450.0 428 301 211 168 141 108 83 70 55 60
3490.0 44 44 48 35 39 40 30 43 34 23
3530.0 37 37 35 40 33 35 49 36 26 21
3570.0 41 32 26 23 43 22 32 17 32 19
3610.0 33 22 33 33 28 41 42 26 26 33
3650.0 22 45 12 25 12 45 31 37 22 24
3690.0 36 26 32 18 30 36 51 28 28 28
3730.0 55 44 33 46 33 59 35 42 28 33
3770.0 26 34 17 24 42 28 26 44 31 50
3810.0 30 34 25 39 32 23 36 54 36 22
3850.0 19 47 52 17 59 49 40 34 40 39
3890.0 42 55 70 37 48 25 41 55 53 50
3930.0 34 43 84 25 46 41 49 19 15 85
##END=
