##TITLE=3-Phenylbutyric acid
##JCAMP-DX=4.24
##DATA TYPE=INFRARED SPECTRUM
##ORIGIN=Sadtler Research Labs Under US-EPA Contract
##OWNER=NIST Standard Reference Data Program
##CAS REGISTRY NO=4593-90-2
##MOLFORM=C 10 H 12 O 2
##XUNITS=1/CM
##YUNITS=ABSORBANCE
##XFACTOR=1.0
##YFACTOR=0.000111057
##DELTAX=4.0
##FIRSTX=450.0
##LASTX=3966.0
##FIRSTY=0.013771
##MAXX=3966
##MINX=450
##MAXY=1.11057
##MINY=0
##NPOINTS=880
##XYDATA=(X++(Y..Y))
450.0 124 89 83 143 122 119 100 150 168 184
490.0 205 260 279 353 417 496 566 649 724 820
530.0 910 1015 1117 1238 1396 1620 1938 2372 2779 2983
570.0 2833 2440 1910 1493 1218 1078 1042 1060 1123 1170
610.0 1250 1326 1413 1477 1532 1526 1459 1369 1233 1085
650.0 947 861 819 796 805 827 849 952 1175 1600
690.0 2231 2786 2991 2743 2083 1404 937 659 519 457
730.0 425 416 440 534 698 967 1260 1489 1481 1231
770.0 883 561 360 259 207 163 113 76 46 37
810.0 20 11 0 4 8 21 29 46 64 80
850.0 98 105 117 134 145 160 167 158 150 142
890.0 153 164 201 238 277 291 277 240 196 159
930.0 131 109 93 76 57 49 46 46 48 49
970.0 49 49 56 63 80 98 129 167 223 334
1010.0 574 905 1105 1157 1048 854 772 768 789 866
1050.0 990 1130 1292 1482 1698 1973 2265 2531 2697 2768
1090.0 2801 2885 3042 3205 3305 3389 3568 3989 4704 5494
1130.0 6025 6048 5549 4765 4008 3420 2996 2634 2288 1955
1170.0 1648 1397 1221 1130 1118 1139 1169 1185 1165 1119
1210.0 1046 961 885 831 805 792 784 780 771 765
1250.0 769 787 806 817 821 811 798 780 776 774
1290.0 777 781 787 788 787 767 742 728 730 736
1330.0 757 790 857 947 1029 1096 1155 1239 1382 1576
1370.0 1789 1926 1962 1883 1671 1398 1104 832 639 529
1410.0 468 458 498 570 643 692 693 677 666 720
1450.0 818 909 913 799 667 523 425 370 399 530
1490.0 732 875 877 730 508 293 170 119 98 79
1530.0 68 70 60 55 41 31 28 37 43 41
1570.0 55 69 97 129 179 251 339 436 501 492
1610.0 399 272 154 79 51 43 41 46 44 57
1650.0 61 90 85 99 105 113 109 116 124 152
1690.0 167 202 247 298 349 421 514 636 779 966
1730.0 1188 1446 1703 1985 2297 2677 3202 3976 5121 6644
1770.0 8313 9579 10000 9361 7851 6191 4711 3586 2806 2227
1810.0 1772 1391 1075 825 644 507 406 328 270 230
1850.0 201 186 179 176 172 168 158 154 143 124
1890.0 104 81 65 57 55 55 57 67 74 91
1930.0 113 134 150 156 151 147 141 125 99 70
1970.0 46 35 33 31 33 33 31 28 28 27
2010.0 25 20 18 18 15 14 15 12 15 12
2050.0 12 11 9 8 8 5 6 3 2 0
2090.0 0 1 0 1 1 2 0 1 3 5
2130.0 4 4 4 6 8 7 8 7 10 9
2170.0 10 12 13 15 14 17 20 19 19 20
2210.0 20 24 27 27 26 24 25 26 24 24
2250.0 21 24 22 21 18 19 17 20 20 21
2290.0 22 24 23 25 29 32 35 29 30 25
2330.0 26 22 20 35 39 33 30 21 26 25
2370.0 26 27 29 23 16 13 8 6 7 7
2410.0 10 11 10 10 10 10 12 12 11 10
2450.0 11 12 9 8 8 9 7 10 9 10
2490.0 8 8 6 6 3 6 4 2 2 2
2530.0 1 0 0 2 0 1 1 3 2 4
2570.0 0 3 8 7 6 8 6 8 11 10
2610.0 7 10 8 10 9 11 12 14 14 11
2650.0 12 12 12 9 7 8 13 10 13 10
2690.0 14 14 14 14 10 12 12 11 12 19
2730.0 20 23 29 28 31 29 27 24 22 21
2770.0 19 21 21 23 27 26 27 32 37 40
2810.0 43 51 57 65 72 81 94 107 115 125
2850.0 129 136 149 173 216 281 374 490 595 650
2890.0 668 642 601 566 560 588 648 747 872 1020
2930.0 1172 1291 1331 1290 1191 1079 1025 1124 1412 1805
2970.0 2262 2556 2646 2409 1924 1372 891 614 501 467
3010.0 473 510 599 769 1037 1344 1564 1617 1470 1208
3050.0 947 815 830 1003 1310 1564 1632 1529 1274 1043
3090.0 907 799 685 575 485 410 349 281 220 161
3130.0 121 95 77 73 67 63 64 67 69 66
3170.0 67 59 56 49 46 43 44 48 47 48
3210.0 43 40 36 35 31 30 32 24 27 21
3250.0 27 26 21 21 20 21 12 18 18 18
3290.0 15 15 13 14 7 10 12 6 5 10
3330.0 9 9 10 10 8 6 10 7 6 8
3370.0 5 11 7 9 11 9 2 4 5 6
3410.0 7 6 11 7 8 0 5 5 6 9
3450.0 10 4 5 6 13 10 8 9 13 14
3490.0 18 24 35 48 50 58 56 67 76 95
3530.0 95 112 131 148 180 204 269 460 970 2215
3570.0 3860 4438 4314 2987 1376 591 286 178 126 108
3610.0 104 96 79 71 59 73 49 34 33 32
3650.0 54 35 26 13 11 26 20 26 7 6
3690.0 16 5 6 12 15 13 27 4 9 21
3730.0 16 22 27 5 20 25 16 11 3 8
3770.0 17 8 4 11 9 9 7 7 19 12
3810.0 14 2 22 15 8 8 23 36 16 14
3850.0 12 39 19 10 29 25 16 16 24 7
3890.0 2 10 11 19 17 0 1 15 10 13
3930.0 15 21 4 6 13 21 5 13 15 4
##END=
