##TITLE=p-Bromofluorobenzene
##JCAMP-DX=4.24
##DATA TYPE=INFRARED SPECTRUM
##ORIGIN=Sadtler Research Labs Under US-EPA Contract
##OWNER=NIST Standard Reference Data Program
##CAS REGISTRY NO=460-00-4
##MOLFORM=C 6 H 4 Br F
##XUNITS=1/CM
##YUNITS=ABSORBANCE
##XFACTOR=1.0
##YFACTOR=0.000135220
##DELTAX=4.0
##FIRSTX=450.0
##LASTX=3966.0
##FIRSTY=0.012170
##MAXX=3966
##MINX=450
##MAXY=1.3522
##MINY=0
##NPOINTS=880
##XYDATA=(X++(Y..Y))
450.0 90 80 82 76 107 146 202 296 433 514
490.0 707 860 916 697 613 512 321 221 105 86
530.0 78 106 170 19 12 58 43 70 128 188
570.0 282 326 305 292 428 1294 2183 2225 2414 1098
610.0 109 42 12 69 45 99 48 39 25 16
650.0 29 17 23 18 16 7 8 18 41 28
690.0 13 23 26 20 10 25 17 24 33 2
730.0 30 52 35 18 68 88 71 40 42 26
770.0 27 20 6 26 40 61 132 264 403 718
810.0 1155 1691 1920 2442 3145 2501 2033 1757 1189 745
850.0 362 207 83 54 26 33 31 35 41 30
890.0 39 24 35 23 32 29 39 39 47 45
930.0 50 47 37 37 26 32 28 33 27 28
970.0 16 24 20 26 32 40 45 75 187 363
1010.0 929 1099 997 867 290 46 54 41 61 60
1050.0 90 170 561 1523 2323 2539 2548 1101 340 300
1090.0 276 339 264 207 162 129 107 84 85 55
1130.0 56 39 44 51 115 548 876 807 868 409
1170.0 46 89 76 128 130 181 152 162 166 152
1210.0 240 293 398 498 1204 3206 7369 8564 10000 6309
1250.0 1466 195 128 93 112 96 110 108 122 143
1290.0 132 130 148 139 130 120 113 102 78 78
1330.0 60 49 46 51 54 61 59 57 57 56
1370.0 57 56 68 77 89 89 101 116 99 95
1410.0 111 134 258 350 346 316 187 75 63 61
1450.0 70 88 113 134 182 362 862 2223 4997 8682
1490.0 9386 8603 5832 2114 776 772 709 598 510 286
1530.0 163 96 67 40 46 39 40 47 50 68
1570.0 88 167 321 635 1056 1342 1348 978 446 244
1610.0 214 193 220 222 237 215 199 156 118 84
1650.0 58 48 35 40 33 42 35 29 33 36
1690.0 36 35 44 40 44 40 44 37 33 28
1730.0 26 47 66 110 136 142 116 77 33 14
1770.0 19 17 22 20 26 15 26 17 22 24
1810.0 24 33 30 37 36 52 53 63 55 46
1850.0 45 57 83 112 154 185 197 187 188 155
1890.0 108 77 41 29 15 18 8 13 13 10
1930.0 13 14 14 11 14 8 11 13 17 19
1970.0 16 18 12 14 15 20 13 18 19 19
2010.0 24 22 29 26 38 38 51 61 81 92
2050.0 98 87 73 57 44 48 34 28 15 12
2090.0 7 5 8 5 8 3 1 1 3 4
2130.0 5 7 5 7 0 7 4 7 8 10
2170.0 11 9 14 12 11 11 11 8 8 10
2210.0 9 10 13 16 15 17 22 25 26 27
2250.0 28 29 30 23 23 13 16 17 19 19
2290.0 25 30 29 30 20 19 10 4 1 3
2330.0 0 2 9 11 31 1 0 0 7 44
2370.0 55 68 61 59 50 57 54 63 55 43
2410.0 42 39 42 36 37 30 27 22 26 26
2450.0 28 39 47 59 69 87 89 84 56 28
2490.0 24 25 27 29 34 32 31 28 35 37
2530.0 35 37 43 49 46 55 57 56 49 44
2570.0 40 31 37 33 30 29 31 28 26 27
2610.0 22 19 23 22 14 15 16 19 14 23
2650.0 22 19 18 17 16 11 12 15 17 18
2690.0 25 27 30 38 37 39 39 45 48 41
2730.0 41 39 36 37 35 34 40 41 40 41
2770.0 50 43 42 42 37 39 31 38 30 35
2810.0 37 42 46 42 56 54 54 56 65 76
2850.0 80 73 74 70 60 57 46 49 47 38
2890.0 48 45 41 41 46 37 39 38 41 38
2930.0 34 41 36 34 32 32 30 32 35 36
2970.0 33 39 38 32 37 39 36 35 38 43
3010.0 39 40 37 38 35 35 42 49 69 93
3050.0 101 110 118 89 85 98 105 131 168 175
3090.0 167 156 122 121 104 115 89 72 50 46
3130.0 43 30 25 32 31 26 36 22 19 17
3170.0 15 25 30 17 20 18 19 17 13 23
3210.0 23 19 17 14 18 18 32 25 34 16
3250.0 17 27 24 24 28 29 33 41 35 41
3290.0 29 33 34 38 48 34 26 25 40 53
3330.0 35 36 40 40 41 37 18 49 27 38
3370.0 28 43 40 37 29 27 46 31 68 31
3410.0 38 37 29 41 33 38 30 34 33 39
3450.0 36 20 28 31 37 31 42 34 27 28
3490.0 22 26 20 28 27 35 24 28 23 22
3530.0 29 35 39 26 30 23 33 33 23 23
3570.0 27 24 8 16 13 31 33 20 19 13
3610.0 16 9 7 27 27 26 22 30 12 20
3650.0 22 25 18 24 8 6 26 36 20 15
3690.0 7 12 26 15 44 39 16 18 30 28
3730.0 35 23 26 32 20 27 8 14 27 6
3770.0 24 12 18 6 23 31 6 10 31 23
3810.0 38 16 35 30 18 32 17 38 27 18
3850.0 28 18 34 33 50 7 33 35 39 52
3890.0 44 26 41 26 47 46 23 31 34 30
3930.0 30 39 39 42 27 53 52 50 28 32
##END=
