##TITLE=7-Tridecanone
##JCAMP-DX=4.24
##DATA TYPE=INFRARED SPECTRUM
##ORIGIN=Sadtler Research Labs Under US-EPA Contract
##OWNER=NIST Standard Reference Data Program
##CAS REGISTRY NO=462-18-0
##MOLFORM=C 13 H 26 O
##XUNITS=1/CM
##YUNITS=ABSORBANCE
##XFACTOR=1.0
##YFACTOR=0.000117667
##DELTAX=4.0
##FIRSTX=450.0
##LASTX=3966.0
##FIRSTY=0.000000
##MAXX=3966
##MINX=450
##MAXY=1.17667
##MINY=0
##NPOINTS=880
##XYDATA=(X++(Y..Y))
450.0 0 238 300 333 479 478 342 432 509 477
490.0 419 234 372 443 425 475 438 482 382 355
530.0 391 398 430 473 453 386 402 391 392 388
570.0 365 343 367 373 368 372 321 376 389 374
610.0 378 360 409 403 406 388 391 388 399 374
650.0 380 391 354 366 346 342 378 369 393 343
690.0 388 397 399 414 441 479 501 545 554 565
730.0 604 579 544 531 488 446 473 476 457 428
770.0 433 431 443 419 411 430 381 372 385 386
810.0 409 374 401 423 406 398 399 397 365 382
850.0 403 420 397 422 423 437 413 463 500 428
890.0 467 459 474 445 418 419 396 400 414 422
930.0 445 389 408 418 428 444 475 518 483 518
970.0 537 560 561 588 565 576 548 538 550 529
1010.0 545 577 570 585 566 619 608 662 690 765
1050.0 824 906 1015 1094 1101 1030 911 833 763 713
1090.0 654 646 654 652 669 725 767 830 894 973
1130.0 1007 1026 1009 976 950 892 830 789 724 690
1170.0 666 654 664 674 698 742 781 805 830 835
1210.0 827 809 776 753 747 715 688 658 639 660
1250.0 642 674 676 666 711 753 782 843 828 808
1290.0 810 791 810 808 815 839 866 870 853 888
1330.0 920 1003 1077 1141 1209 1294 1382 1458 1448 1403
1370.0 1267 1137 1047 972 900 843 770 735 730 766
1410.0 826 871 922 925 909 926 943 1006 1034 1124
1450.0 1254 1390 1492 1541 1463 1334 1202 957 788 695
1490.0 599 535 499 471 465 459 392 410 405 387
1530.0 370 356 382 375 358 339 335 360 345 330
1570.0 342 327 330 323 319 321 321 317 328 324
1610.0 308 323 315 321 319 326 340 359 341 338
1650.0 375 384 402 372 403 430 480 503 552 605
1690.0 683 738 922 1146 1398 1886 2466 3336 3902 4035
1730.0 3957 2949 2187 1527 1054 882 701 569 525 476
1770.0 468 419 382 378 363 340 330 315 312 307
1810.0 302 296 283 283 281 280 275 272 276 281
1850.0 270 262 266 259 272 270 263 255 260 260
1890.0 258 255 253 256 253 255 254 254 258 257
1930.0 252 250 251 251 256 248 253 251 248 251
1970.0 248 248 250 246 242 246 249 250 246 255
2010.0 248 248 253 251 247 253 259 256 251 255
2050.0 252 254 251 254 250 248 250 248 243 245
2090.0 251 253 243 244 243 243 242 244 245 243
2130.0 248 248 241 245 245 247 246 245 248 246
2170.0 246 246 241 245 245 241 242 244 239 240
2210.0 243 239 239 236 234 237 237 237 239 241
2250.0 240 238 237 240 240 238 241 240 238 239
2290.0 238 245 241 243 243 248 249 245 244 247
2330.0 253 242 246 238 254 243 251 242 255 245
2370.0 254 250 250 250 242 242 243 241 242 247
2410.0 246 245 245 245 244 246 244 243 241 241
2450.0 240 239 240 243 240 243 239 240 242 244
2490.0 241 243 244 245 243 242 241 245 247 248
2530.0 251 254 253 254 254 253 261 259 259 261
2570.0 267 267 268 269 269 272 271 273 275 275
2610.0 277 279 282 287 288 290 294 296 302 305
2650.0 313 315 319 322 328 332 335 340 339 341
2690.0 336 336 333 332 337 330 337 334 337 346
2730.0 356 363 367 378 388 391 389 385 388 395
2770.0 400 407 418 436 460 483 505 537 567 596
2810.0 637 674 714 761 815 886 986 1114 1287 1541
2850.0 1902 2413 3036 3652 4083 4237 4200 4112 4057 3996
2890.0 3840 3738 3762 3943 4275 4704 5329 6064 7014 8144
2930.0 9199 9888 10000 9660 8936 8095 7466 7137 7157 7253
2970.0 6934 6007 4563 3287 2430 1895 1540 1298 1118 979
3010.0 881 796 728 681 640 601 567 539 517 487
3050.0 465 447 437 421 410 402 395 386 381 377
3090.0 364 363 359 357 349 342 337 331 327 325
3130.0 321 321 311 311 309 307 307 304 303 302
3170.0 306 301 295 291 289 287 287 284 278 279
3210.0 272 274 265 267 264 256 259 259 254 253
3250.0 252 251 247 253 251 250 251 247 245 251
3290.0 248 246 251 246 250 248 256 248 252 252
3330.0 249 251 256 253 253 257 253 255 264 252
3370.0 253 261 258 260 258 257 263 272 270 279
3410.0 276 276 285 291 307 304 303 296 280 281
3450.0 273 270 266 260 257 253 248 249 251 239
3490.0 251 263 244 240 248 249 245 243 250 245
3530.0 245 238 259 251 244 238 251 242 251 248
3570.0 251 259 251 256 248 248 248 242 248 255
3610.0 248 252 261 252 258 258 249 255 254 252
3650.0 273 250 267 253 254 253 250 280 262 265
3690.0 251 256 233 247 247 258 258 251 250 252
3730.0 252 259 261 247 265 258 280 247 248 252
3770.0 246 251 246 252 248 249 257 254 262 250
3810.0 255 247 258 274 244 264 244 269 278 243
3850.0 267 251 265 270 259 293 275 271 265 276
3890.0 266 277 271 287 255 255 286 255 282 281
3930.0 283 249 279 262 284 265 272 278 275 301
##END=
