##TITLE=Benzene, fluoro-
##JCAMP-DX=4.24
##DATA TYPE=INFRARED SPECTRUM
##ORIGIN=Sadtler Research Labs Under US-EPA Contract
##OWNER=NIST Standard Reference Data Program
##CAS REGISTRY NO=462-06-6
##MOLFORM=C 6 H 5 F
##XUNITS=1/CM
##YUNITS=ABSORBANCE
##XFACTOR=1.0
##YFACTOR=0.000079529
##DELTAX=4.0
##FIRSTX=450.0
##LASTX=3966.0
##FIRSTY=0.009464
##MAXX=3966
##MINX=450
##MAXY=0.79529
##MINY=0
##NPOINTS=880
##XYDATA=(X++(Y..Y))
450.0 119 125 170 202 288 378 501 622 702 869
490.0 1022 1591 1871 930 1335 1378 1022 1218 685 671
530.0 525 238 178 120 151 221 59 179 144 211
570.0 171 216 152 206 256 149 165 153 156 172
610.0 168 168 192 198 176 188 187 179 195 230
650.0 268 407 571 806 1077 1352 1380 1447 2238 3333
690.0 1542 1127 1083 936 710 518 413 476 772 1338
730.0 2116 2927 3615 4011 4644 7046 9451 3600 3747 3612
770.0 3176 2316 1426 851 768 1072 1650 2168 2334 2543
810.0 2225 2529 2498 1805 1175 770 642 509 308 167
850.0 107 117 142 181 275 358 438 518 518 584
890.0 784 1295 531 480 450 400 324 221 133 87
930.0 51 51 37 44 31 36 45 43 58 90
970.0 120 168 234 226 234 247 266 275 315 373
1010.0 457 456 387 446 289 330 265 207 208 318
1050.0 450 620 683 566 503 632 613 457 300 203
1090.0 146 110 98 84 104 118 137 137 132 131
1130.0 138 210 371 711 1112 1103 973 1211 1023 1193
1170.0 804 398 198 164 184 248 367 519 807 1353
1210.0 2300 3559 4966 6883 8998 9511 10000 9964 8296 7929
1250.0 5023 2261 1126 719 407 221 151 128 130 110
1290.0 109 103 93 102 130 132 168 185 226 237
1330.0 227 267 200 159 135 109 94 64 40 54
1370.0 72 79 129 162 131 153 120 90 120 93
1410.0 44 78 9 68 72 127 99 182 249 342
1450.0 416 465 549 706 902 980 1159 1847 3525 5685
1490.0 7274 7114 8444 6255 7348 6335 3691 1842 861 625
1530.0 423 451 387 217 168 218 204 135 282 400
1570.0 529 756 1254 1941 3148 4515 5764 6642 6978 6245
1610.0 5329 2806 1238 621 313 310 181 118 101 85
1650.0 0 21 45 67 63 61 29 123 71 99
1690.0 158 225 164 195 182 206 196 128 171 161
1730.0 96 20 70 76 53 46 125 147 174 195
1770.0 150 151 169 135 104 57 46 38 16 51
1810.0 49 51 71 72 83 90 148 214 192 152
1850.0 183 266 260 214 158 100 115 111 88 55
1890.0 47 46 56 77 87 120 164 207 236 248
1930.0 227 273 332 280 236 207 185 147 147 102
1970.0 74 79 67 61 55 27 31 45 57 46
2010.0 54 62 66 93 111 130 150 140 142 131
2050.0 124 99 65 46 25 27 21 21 13 13
2090.0 4 12 21 23 24 30 28 26 26 26
2130.0 31 19 18 24 19 20 14 14 16 21
2170.0 25 11 11 18 16 10 10 18 11 19
2210.0 29 35 23 19 19 24 30 24 25 25
2250.0 19 16 14 19 24 20 20 28 26 33
2290.0 48 69 91 105 117 123 113 117 127 99
2330.0 82 75 81 77 80 47 57 59 62 56
2370.0 80 84 79 85 84 78 91 98 104 98
2410.0 85 78 73 61 61 68 67 83 95 106
2450.0 125 126 132 126 117 116 94 68 59 55
2490.0 45 45 38 39 38 38 32 26 26 27
2530.0 21 23 28 28 32 42 45 55 59 54
2570.0 54 53 44 55 46 47 39 48 53 59
2610.0 65 67 73 74 68 60 54 50 60 59
2650.0 57 65 56 51 32 31 18 25 18 19
2690.0 20 22 19 22 25 26 31 27 38 32
2730.0 33 45 35 38 32 24 28 24 22 22
2770.0 21 21 21 22 21 22 22 22 21 10
2810.0 23 18 22 25 23 29 23 23 29 30
2850.0 30 41 48 45 59 63 56 62 61 62
2890.0 57 43 50 44 43 36 46 50 49 41
2930.0 37 44 57 45 39 53 32 46 54 38
2970.0 47 39 40 38 33 39 34 28 46 42
3010.0 67 88 124 180 278 380 530 695 849 1028
3050.0 1340 1524 1643 1634 1675 1645 1577 1523 1413 1406
3090.0 1445 1369 1227 1196 977 740 597 486 389 307
3130.0 232 157 93 70 46 29 21 32 33 33
3170.0 20 27 22 30 19 35 35 24 29 35
3210.0 29 34 35 23 34 30 33 26 33 30
3250.0 23 35 29 35 37 29 23 36 22 34
3290.0 25 26 30 35 29 25 14 30 31 25
3330.0 31 33 37 21 37 31 26 39 39 36
3370.0 23 45 32 21 39 26 39 35 22 25
3410.0 25 28 43 21 27 22 16 29 15 23
3450.0 34 41 24 21 19 27 31 30 29 28
3490.0 42 18 37 22 18 13 12 31 31 28
3530.0 32 27 16 25 28 34 33 34 30 31
3570.0 34 40 44 43 36 40 37 41 50 44
3610.0 46 44 31 43 28 19 31 18 27 24
3650.0 46 36 28 27 23 28 21 31 34 28
3690.0 24 24 27 15 20 24 32 24 22 25
3730.0 42 27 29 22 31 35 47 31 27 26
3770.0 33 49 44 43 41 31 28 27 22 21
3810.0 43 25 26 39 35 35 41 49 54 67
3850.0 59 73 65 54 45 44 46 40 46 48
3890.0 53 56 42 47 57 58 61 55 53 49
3930.0 30 37 32 33 14 14 22 28 33 45
##END=
