##TITLE=1,2-Propadiene
##JCAMP-DX=4.24
##DATA TYPE=INFRARED SPECTRUM
##ORIGIN=Sadtler Research Labs Under US-EPA Contract
##OWNER=NIST Standard Reference Data Program
##CAS REGISTRY NO=463-49-0
##MOLFORM=C 3 H 4
##XUNITS=1/CM
##YUNITS=ABSORBANCE
##XFACTOR=1.0
##YFACTOR=0.000037387
##DELTAX=4.0
##FIRSTX=450.0
##LASTX=3966.0
##FIRSTY=0.026433
##MAXX=3966
##MINX=450
##MAXY=0.37387
##MINY=0
##NPOINTS=880
##XYDATA=(X++(Y..Y))
450.0 707 328 24 331 224 414 257 363 308 153
490.0 335 282 286 248 390 336 373 274 292 283
530.0 258 329 286 377 300 349 252 332 292 351
570.0 345 245 376 325 403 295 411 316 329 387
610.0 386 378 312 379 290 407 416 427 377 392
650.0 377 419 418 421 472 418 576 491 552 534
690.0 653 570 716 762 730 859 843 938 1172 1217
730.0 1135 1541 1384 1464 2201 1768 2055 2352 2203 2938
770.0 2841 2750 3469 3243 3619 4589 3680 4902 4313 5135
810.0 6048 4836 6454 5755 6532 7369 6006 7226 6430 8341
850.0 7195 6685 8100 7221 7187 7460 6542 7200 6713 5715
890.0 6703 4995 5520 4701 4475 3718 3845 2991 2697 2311
930.0 1885 1761 1349 1186 962 862 694 656 587 537
970.0 520 538 558 520 690 649 684 703 849 808
1010.0 968 820 999 1108 875 1059 889 1301 986 934
1050.0 1108 853 1220 913 924 965 792 983 876 783
1090.0 847 762 711 831 649 625 657 571 599 573
1130.0 531 476 528 444 491 438 422 406 429 381
1170.0 389 394 358 363 345 350 326 353 319 301
1210.0 309 286 293 260 283 250 258 244 247 241
1250.0 236 233 221 233 220 242 238 249 252 259
1290.0 272 284 310 326 346 347 392 399 428 453
1330.0 475 482 483 512 541 590 649 791 934 1153
1370.0 1385 1596 1749 1714 1530 1175 1103 1280 1285 1332
1410.0 1371 1201 1012 787 605 481 361 318 292 272
1450.0 250 252 202 239 207 208 202 195 199 199
1490.0 184 194 181 175 170 166 163 157 149 173
1530.0 165 173 173 150 157 170 164 153 185 173
1570.0 168 152 191 166 171 184 178 179 194 210
1610.0 197 224 245 266 288 332 364 430 494 605
1650.0 767 884 1128 1308 1496 1626 1641 1544 1415 1277
1690.0 1285 1488 1635 1580 1429 1208 948 712 547 402
1730.0 317 257 215 202 181 168 170 155 155 158
1770.0 153 147 149 142 148 134 138 130 132 147
1810.0 142 135 144 142 135 146 140 152 136 151
1850.0 151 148 155 154 163 153 193 207 248 276
1890.0 350 428 565 778 1055 1516 2076 2931 3847 5071
1930.0 6267 7482 8297 8826 8602 8202 7109 7565 8308 10000
1970.0 9882 9946 8521 6250 3970 2165 1133 587 446 392
2010.0 459 458 480 435 376 320 252 226 166 176
2050.0 148 154 137 148 141 142 144 136 133 119
2090.0 140 127 137 134 129 115 105 110 93 104
2130.0 94 101 80 94 101 94 92 90 95 92
2170.0 98 87 93 79 92 88 74 88 82 84
2210.0 79 90 80 87 74 81 74 80 84 75
2250.0 85 67 79 75 74 70 70 70 66 83
2290.0 76 83 84 94 75 97 84 74 71 65
2330.0 66 58 67 71 91 89 75 87 106 89
2370.0 108 129 123 108 111 106 98 105 108 84
2410.0 117 95 101 92 107 88 87 91 99 78
2450.0 77 81 75 69 76 67 56 71 59 59
2490.0 57 59 56 38 48 38 50 37 35 39
2530.0 42 34 36 37 38 47 33 29 30 31
2570.0 36 33 33 26 33 19 33 26 34 18
2610.0 24 17 23 27 24 27 18 27 17 23
2650.0 14 14 24 21 20 17 17 10 11 4
2690.0 12 15 14 16 8 18 16 18 1 15
2730.0 5 22 11 12 20 12 15 15 18 10
2770.0 10 14 17 22 26 32 48 70 88 111
2810.0 119 134 122 86 100 112 123 124 135 125
2850.0 108 94 78 40 43 45 42 37 41 49
2890.0 43 42 38 48 46 51 55 55 59 52
2930.0 66 62 67 77 92 113 142 171 200 290
2970.0 396 544 716 896 1057 1107 1085 947 909 856
3010.0 901 1157 1452 1310 1172 805 651 413 311 250
3050.0 223 281 177 264 211 290 279 261 296 242
3090.0 406 255 309 265 335 327 270 303 258 316
3130.0 263 236 246 232 268 168 255 157 161 190
3170.0 136 141 129 121 110 95 87 104 44 63
3210.0 74 47 46 41 53 40 35 35 57 55
3250.0 44 39 32 26 39 37 31 43 35 37
3290.0 28 33 29 31 21 29 25 36 37 35
3330.0 22 18 35 33 8 46 31 34 50 59
3370.0 54 42 34 24 42 43 40 48 60 53
3410.0 29 45 49 45 50 30 51 46 31 42
3450.0 32 36 48 29 42 39 32 20 22 1
3490.0 20 20 25 19 22 35 13 30 33 40
3530.0 31 21 29 15 36 23 22 33 33 44
3570.0 33 39 27 26 38 44 37 39 31 49
3610.0 67 47 43 68 69 71 73 43 41 42
3650.0 51 71 36 49 36 79 35 57 50 45
3690.0 46 33 46 41 34 36 31 15 36 38
3730.0 34 34 39 70 52 49 53 39 34 1
3770.0 24 41 41 15 44 13 19 27 35 29
3810.0 27 56 11 39 18 33 21 1 0 17
3850.0 51 31 22 1 1 1 23 14 0 4
3890.0 41 29 34 41 28 7 32 28 8 11
3930.0 17 1 33 11 43 19 58 50 51 86
##END=
