##TITLE=Cyclohexanecarboxylic acid, methyl ester
##JCAMP-DX=4.24
##DATA TYPE=INFRARED SPECTRUM
##ORIGIN=Sadtler Research Labs Under US-EPA Contract
##OWNER=NIST Standard Reference Data Program
##CAS REGISTRY NO=4630-82-4
##MOLFORM=C 8 H 14 O 2
##XUNITS=1/CM
##YUNITS=ABSORBANCE
##XFACTOR=1.0
##YFACTOR=0.000132172
##DELTAX=4.0
##FIRSTX=450.0
##LASTX=3966.0
##FIRSTY=0.000000
##MAXX=3966
##MINX=450
##MAXY=1.32172
##MINY=0
##NPOINTS=880
##XYDATA=(X++(Y..Y))
450.0 0 144 185 449 200 304 263 264 284 271
490.0 289 265 305 334 306 268 290 260 252 219
530.0 183 199 205 262 261 222 239 162 235 232
570.0 207 218 255 250 232 250 239 237 241 232
610.0 250 232 240 244 248 281 265 273 279 262
650.0 278 241 264 326 244 243 324 308 305 304
690.0 280 326 259 299 354 316 337 328 351 330
730.0 301 349 259 405 444 453 409 407 398 375
770.0 322 355 320 315 279 301 306 275 293 314
810.0 292 300 320 312 357 397 427 480 450 444
850.0 412 396 399 418 446 485 500 494 538 549
890.0 576 545 561 511 481 412 362 346 316 303
930.0 294 296 296 277 272 295 296 296 313 325
970.0 358 380 420 475 530 555 559 558 556 603
1010.0 705 834 940 1018 1076 1250 1581 1981 2240 2295
1050.0 2077 1574 1113 861 724 643 613 586 580 589
1090.0 600 614 618 688 752 824 947 1110 1363 1667
1130.0 2092 2416 2609 2633 2444 2457 2730 3306 4318 5252
1170.0 5955 6178 5803 5395 5102 4983 4773 4338 3927 3413
1210.0 2951 2685 2605 2638 2712 2767 2832 3015 3421 3773
1250.0 3912 3803 3334 2767 2335 2163 2044 1901 1720 1494
1290.0 1318 1264 1350 1509 1674 1869 1975 2001 1970 1825
1330.0 1676 1493 1288 1103 928 810 744 714 748 844
1370.0 947 998 985 912 764 624 525 486 471 442
1410.0 452 462 466 519 617 915 1328 1604 1848 1938
1450.0 1734 1772 1727 1640 1405 1097 909 713 597 494
1490.0 396 368 333 316 320 262 289 265 272 266
1530.0 255 261 255 264 279 279 290 275 249 264
1570.0 251 264 223 241 252 254 250 231 236 235
1610.0 234 235 234 244 238 248 246 239 250 242
1650.0 231 249 233 252 249 240 239 252 239 259
1690.0 285 297 333 374 446 551 683 872 1124 1471
1730.0 1890 2452 3357 4370 5528 6998 7185 7740 6932 5595
1770.0 4710 3486 2708 2014 1436 1068 762 610 473 393
1810.0 347 285 271 244 226 230 212 212 212 204
1850.0 215 207 205 207 201 203 207 210 205 202
1890.0 200 190 200 191 195 191 195 187 191 187
1930.0 184 188 185 187 188 189 189 191 202 201
1970.0 212 211 210 210 206 203 200 205 207 204
2010.0 212 214 218 224 223 226 224 215 209 202
2050.0 206 211 213 219 218 220 223 220 217 216
2090.0 215 209 202 198 192 192 188 186 187 184
2130.0 182 180 184 181 180 183 179 174 176 174
2170.0 175 171 167 168 170 169 172 169 172 168
2210.0 168 170 168 166 166 169 168 169 168 166
2250.0 168 170 166 166 166 168 168 164 167 163
2290.0 166 169 170 167 172 169 168 165 165 164
2330.0 163 166 165 168 165 174 166 168 168 168
2370.0 174 171 175 178 172 168 162 161 162 161
2410.0 159 159 160 159 160 156 154 149 149 150
2450.0 148 148 148 146 147 147 149 151 154 159
2490.0 159 163 158 153 150 154 154 155 155 156
2530.0 157 156 157 154 153 153 153 152 157 158
2570.0 158 162 165 168 172 175 181 181 185 188
2610.0 183 179 179 180 183 181 183 187 191 199
2650.0 208 216 234 243 255 258 252 245 234 225
2690.0 214 211 206 203 198 194 188 180 180 176
2730.0 172 170 169 168 169 173 178 180 180 189
2770.0 190 198 206 216 229 236 245 260 265 273
2810.0 281 282 290 304 324 354 404 494 652 882
2850.0 1213 1718 2379 2974 3311 3307 2893 2313 1828 1498
2890.0 1312 1273 1329 1481 1735 2076 2512 3018 3666 4596
2930.0 5814 7309 8993 9967 10000 9162 7735 6027 4690 3702
2970.0 2771 1933 1425 1143 963 854 809 776 750 715
3010.0 679 646 624 611 595 575 537 492 441 394
3050.0 352 323 305 286 272 269 266 267 261 253
3090.0 253 248 245 235 228 221 217 206 203 199
3130.0 192 184 190 184 185 183 183 186 181 182
3170.0 182 176 175 176 173 170 167 164 159 157
3210.0 157 161 160 160 158 160 157 157 158 156
3250.0 159 154 155 154 149 148 152 152 154 154
3290.0 151 159 149 154 149 155 153 156 159 155
3330.0 150 150 152 155 152 154 160 157 157 157
3370.0 153 159 159 157 159 158 155 154 158 151
3410.0 155 152 158 162 169 168 165 171 173 174
3450.0 175 179 177 184 177 185 190 210 222 220
3490.0 223 220 214 206 195 185 179 170 178 180
3530.0 166 164 163 157 157 158 161 160 155 161
3570.0 173 161 166 169 159 155 160 154 159 154
3610.0 147 157 154 160 153 160 150 155 157 163
3650.0 158 161 158 168 164 154 167 156 171 150
3690.0 150 159 164 156 161 156 159 154 158 160
3730.0 166 161 167 170 146 160 145 169 172 170
3770.0 174 159 148 158 149 164 155 150 149 174
3810.0 156 152 146 163 165 148 157 168 165 174
3850.0 159 165 155 149 166 168 170 175 165 151
3890.0 151 146 167 156 158 168 165 174 152 167
3930.0 176 173 160 171 165 167 147 170 156 156
##END=
