##TITLE=2-Butanol, 3,3-dimethyl-
##JCAMP-DX=4.24
##DATA TYPE=INFRARED SPECTRUM
##ORIGIN=Sadtler Research Labs Under US-EPA Contract
##OWNER=NIST Standard Reference Data Program
##CAS REGISTRY NO=464-07-3
##MOLFORM=C 6 H 14 O
##XUNITS=1/CM
##YUNITS=ABSORBANCE
##XFACTOR=1.0
##YFACTOR=0.000082422
##DELTAX=4.0
##FIRSTX=450.0
##LASTX=3966.0
##FIRSTY=0.019122
##MAXX=3966
##MINX=450
##MAXY=0.82422
##MINY=0
##NPOINTS=880
##XYDATA=(X++(Y..Y))
450.0 232 237 222 212 220 229 235 250 232 230
490.0 218 176 160 148 111 76 70 67 65 71
530.0 26 98 152 139 151 195 206 171 230 175
570.0 142 139 84 80 71 31 84 72 47 69
610.0 82 53 86 53 75 65 12 82 71 43
650.0 99 71 69 47 23 79 63 43 79 104
690.0 60 67 52 76 92 105 78 75 70 56
730.0 70 55 69 50 44 31 22 36 37 43
770.0 18 27 27 27 36 34 51 46 47 34
810.0 45 53 63 90 110 99 123 129 150 142
850.0 138 124 113 104 79 110 131 145 174 260
890.0 354 515 740 976 1202 1372 1510 1488 1335 1148
930.0 879 625 431 327 272 242 209 190 206 223
970.0 241 268 311 414 535 666 830 946 1048 1126
1010.0 1106 993 905 838 726 696 762 826 948 1059
1050.0 1157 1242 1278 1344 1438 1578 1785 2155 2651 3178
1090.0 3551 3861 3883 3650 3077 2443 1833 1298 929 683
1130.0 544 481 425 392 381 377 369 388 425 480
1170.0 540 605 676 742 793 839 891 934 968 993
1210.0 975 945 941 904 905 917 944 992 1017 1027
1250.0 1009 992 949 882 826 759 697 653 598 539
1290.0 510 480 435 413 373 352 345 332 333 353
1330.0 389 435 489 562 676 841 1088 1396 1634 2042
1370.0 2793 2518 2571 2663 2443 2142 1831 1591 1280 982
1410.0 804 628 477 393 373 386 429 495 570 686
1450.0 830 987 1109 1246 1370 1456 1482 1411 1372 1260
1490.0 1008 860 660 445 301 191 138 102 96 88
1530.0 76 76 82 69 64 62 70 68 57 54
1570.0 48 45 41 40 39 34 34 33 32 34
1610.0 40 40 40 40 40 40 33 33 40 40
1650.0 40 33 33 39 29 33 33 35 40 44
1690.0 44 50 62 75 100 130 155 175 200 202
1730.0 186 173 134 95 64 57 45 32 32 27
1770.0 25 21 21 18 14 14 10 14 9 15
1810.0 14 15 16 15 20 18 15 19 14 14
1850.0 14 14 15 14 14 13 14 11 8 9
1890.0 11 13 13 13 13 20 19 20 20 25
1930.0 25 26 26 19 24 19 20 20 13 13
1970.0 14 14 14 14 14 9 13 16 20 17
2010.0 15 14 13 7 6 6 6 6 6 6
2050.0 6 10 7 7 7 12 7 13 12 12
2090.0 11 14 5 13 10 10 8 1 7 7
2130.0 7 6 1 1 1 1 3 6 7 3
2170.0 6 4 5 5 12 11 12 12 11 19
2210.0 10 15 12 12 12 5 5 5 5 5
2250.0 5 7 11 11 11 11 17 16 23 28
2290.0 28 35 41 40 39 46 46 46 49 55
2330.0 61 59 57 63 64 58 63 77 91 70
2370.0 68 58 38 34 27 27 27 27 27 26
2410.0 26 32 28 32 34 26 33 33 26 27
2450.0 32 26 26 26 26 26 23 20 19 19
2490.0 20 20 13 19 19 19 19 19 25 20
2530.0 21 25 25 25 25 25 32 31 30 30
2570.0 36 43 43 44 47 48 54 55 58 60
2610.0 66 65 71 78 84 96 106 119 127 136
2650.0 143 146 148 143 137 131 125 112 113 106
2690.0 107 108 111 120 129 135 146 158 171 177
2730.0 172 177 170 168 160 151 160 160 159 163
2770.0 158 164 170 176 189 200 207 231 252 273
2810.0 294 318 346 372 398 445 507 585 691 835
2850.0 1056 1325 1665 2129 2674 3172 3565 3926 4139 3977
2890.0 3740 3495 3280 3117 3029 3011 3046 3109 3167 3260
2930.0 3416 3610 3940 4432 5173 5965 6849 7996 9029 9799
2970.0 9915 10000 9479 8228 6682 5350 4052 2876 2034 1379
3010.0 896 564 371 264 219 191 173 156 155 148
3050.0 155 149 154 149 143 135 131 122 112 109
3090.0 107 91 96 94 89 83 83 83 83 86
3130.0 89 89 92 95 99 100 100 111 117 111
3170.0 124 124 128 119 123 130 126 124 123 123
3210.0 118 112 105 93 81 79 69 58 51 46
3250.0 39 28 30 22 15 9 9 10 3 3
3290.0 4 5 14 7 13 10 16 16 20 20
3330.0 20 26 28 15 22 24 21 20 20 23
3370.0 26 9 14 9 9 22 19 14 16 18
3410.0 26 24 25 21 25 25 25 38 25 23
3450.0 30 25 19 19 18 27 25 20 29 25
3490.0 12 19 8 11 16 16 16 16 12 5
3530.0 8 6 13 6 0 5 12 10 7 16
3570.0 12 12 12 12 12 17 18 0 12 17
3610.0 19 19 36 55 76 114 152 210 297 419
3650.0 543 654 720 782 781 656 552 425 282 170
3690.0 103 61 46 35 28 28 20 22 23 21
3730.0 24 14 15 17 18 14 10 15 21 15
3770.0 10 15 14 14 14 22 14 10 14 21
3810.0 14 20 33 39 31 26 26 28 24 31
3850.0 33 39 36 38 43 38 38 38 31 31
3890.0 29 28 39 32 24 24 24 24 24 25
3930.0 25 26 24 16 10 7 0 0 0 0
##END=
