##TITLE=4-(2-Thienyl)butyric acid
##JCAMP-DX=4.24
##DATA TYPE=INFRARED SPECTRUM
##ORIGIN=Sadtler Research Labs Under US-EPA Contract
##OWNER=NIST Standard Reference Data Program
##CAS REGISTRY NO=4653-11-6
##MOLFORM=C 8 H 10 O 2 S
##XUNITS=1/CM
##YUNITS=ABSORBANCE
##XFACTOR=1.0
##YFACTOR=0.000074863
##DELTAX=4.0
##FIRSTX=450.0
##LASTX=3966.0
##FIRSTY=0.011379
##MAXX=3966
##MINX=450
##MAXY=0.74863
##MINY=0
##NPOINTS=880
##XYDATA=(X++(Y..Y))
450.0 152 190 519 95 261 513 299 881 580 737
490.0 1017 1077 1000 545 662 697 840 1134 986 1011
530.0 1060 874 1023 930 1313 1332 1264 1449 1234 1384
570.0 1167 1147 1315 1408 1515 1465 1465 1584 1537 1655
610.0 1671 1608 1701 1696 1648 1529 1485 1472 1178 1058
650.0 1066 984 956 883 998 1333 1492 1988 2717 3775
690.0 4989 4781 4080 2785 1833 1321 939 803 637 625
730.0 539 382 430 274 165 383 421 373 356 384
770.0 342 379 432 463 448 427 402 382 374 482
810.0 591 696 951 1007 918 877 694 710 754 825
850.0 889 843 703 610 503 341 71 304 218 76
890.0 218 258 128 104 135 182 106 58 191 132
930.0 87 94 112 97 176 224 200 299 310 364
970.0 353 291 376 357 359 409 391 459 523 620
1010.0 697 798 856 940 985 930 885 867 980 882
1050.0 956 951 1031 1078 1162 1284 1394 1541 1592 1711
1090.0 1944 2267 2917 3787 4674 5568 6133 6265 6065 5661
1130.0 5282 4933 4595 4271 3917 3554 3153 2812 2504 2200
1170.0 1984 1817 1722 1715 1677 1691 1625 1555 1514 1441
1210.0 1382 1320 1225 1158 1132 1141 1136 1195 1251 1274
1250.0 1313 1234 1147 1022 899 894 866 873 864 824
1290.0 796 761 716 722 663 667 661 724 752 754
1330.0 801 837 902 956 1024 1076 1142 1186 1240 1286
1370.0 1418 1624 1743 1842 1805 1668 1441 1134 926 752
1410.0 678 639 653 703 790 835 944 1034 1091 1070
1450.0 1009 945 819 724 574 400 324 226 181 164
1490.0 130 161 132 147 157 185 169 154 128 113
1530.0 107 117 88 89 92 75 50 44 67 69
1570.0 100 130 120 150 131 122 102 76 92 54
1610.0 58 66 35 57 69 87 109 84 96 73
1650.0 64 99 74 104 85 79 94 100 150 162
1690.0 158 226 232 310 374 389 476 558 691 814
1730.0 984 1254 1503 1866 2260 2814 3412 4069 5060 6213
1770.0 7956 9114 10000 9680 8426 7000 5356 4436 3489 2704
1810.0 2181 1606 1276 966 685 544 379 311 261 194
1850.0 170 130 126 106 101 103 73 85 78 65
1890.0 75 53 62 62 54 64 44 50 55 41
1930.0 50 47 44 36 31 46 33 26 30 22
1970.0 32 24 24 32 15 28 21 24 26 17
2010.0 22 20 23 19 7 15 17 20 25 5
2050.0 14 14 15 21 8 16 15 17 19 13
2090.0 20 24 12 25 15 15 10 16 14 10
2130.0 12 16 17 8 18 26 33 32 42 37
2170.0 28 21 18 20 22 24 25 20 30 28
2210.0 28 24 35 26 35 34 38 37 34 32
2250.0 31 36 32 30 34 33 32 35 38 45
2290.0 42 42 39 31 21 22 16 0 2 0
2330.0 0 0 0 0 0 0 0 0 0 5
2370.0 0 1 11 25 30 21 24 23 23 22
2410.0 19 25 28 29 21 20 28 22 21 20
2450.0 22 21 20 24 22 20 22 21 23 23
2490.0 24 25 23 20 23 24 25 17 26 25
2530.0 17 19 16 15 21 20 19 16 22 25
2570.0 19 19 17 19 18 15 15 16 15 20
2610.0 17 15 18 29 23 20 24 23 23 23
2650.0 24 24 29 26 23 24 26 26 28 33
2690.0 26 25 31 23 29 20 25 25 23 31
2730.0 26 29 24 25 25 26 24 21 22 31
2770.0 30 37 35 31 43 41 42 48 48 58
2810.0 57 57 74 86 97 107 132 158 192 250
2850.0 313 390 488 554 599 608 593 571 527 499
2890.0 458 443 456 489 553 649 793 984 1182 1396
2930.0 1530 1604 1645 1680 1748 1816 1845 1803 1649 1434
2970.0 1179 957 781 639 515 413 338 269 212 190
3010.0 164 135 121 113 112 107 118 130 141 172
3050.0 181 194 192 204 234 308 422 543 579 543
3090.0 437 345 305 234 187 161 155 159 147 121
3130.0 87 53 52 38 31 33 35 32 15 23
3170.0 15 23 33 20 26 35 16 20 11 12
3210.0 16 18 20 21 22 13 12 17 21 19
3250.0 16 15 19 18 9 12 7 15 11 18
3290.0 18 14 5 6 17 7 9 7 5 7
3330.0 15 2 14 15 8 20 16 19 23 6
3370.0 12 9 19 18 4 16 15 15 13 1
3410.0 17 3 7 22 8 12 14 26 20 17
3450.0 31 5 23 28 22 37 22 26 37 34
3490.0 45 44 46 86 74 67 74 85 108 158
3530.0 167 149 186 218 278 356 342 542 808 1399
3570.0 2884 4026 4416 3692 2225 1059 591 437 247 232
3610.0 184 186 155 112 112 104 82 59 23 90
3650.0 141 92 57 39 24 66 84 47 51 33
3690.0 85 44 26 28 32 47 67 39 75 104
3730.0 47 107 104 66 91 128 42 73 44 57
3770.0 68 23 48 54 44 31 9 49 60 46
3810.0 42 12 76 62 91 62 51 59 90 58
3850.0 49 84 20 41 87 71 49 6 71 65
3890.0 51 44 70 110 88 22 24 61 117 65
3930.0 59 100 35 65 48 82 32 44 52 94
##END=
