##TITLE=2,6-Dichlorobenzoyl chloride
##JCAMP-DX=4.24
##DATA TYPE=INFRARED SPECTRUM
##ORIGIN=Sadtler Research Labs Under US-EPA Contract
##OWNER=NIST Standard Reference Data Program
##CAS REGISTRY NO=4659-45-4
##MOLFORM=C 7 H 3 Cl 3 O
##XUNITS=1/CM
##YUNITS=ABSORBANCE
##XFACTOR=1.0
##YFACTOR=0.000053586
##DELTAX=4.0
##FIRSTX=450.0
##LASTX=3966.0
##FIRSTY=0.014307
##MAXX=3966
##MINX=450
##MAXY=0.53586
##MINY=0
##NPOINTS=880
##XYDATA=(X++(Y..Y))
450.0 267 191 91 173 109 240 213 546 928 1515
490.0 1985 1836 1086 514 215 109 81 59 94 43
530.0 64 18 59 15 82 130 139 254 138 138
570.0 22 101 87 65 32 68 58 17 63 42
610.0 96 51 109 111 155 161 157 136 89 222
650.0 177 318 237 559 712 1852 3284 4291 5163 4016
690.0 2269 1014 326 298 302 349 321 265 255 212
730.0 243 269 313 377 271 234 124 185 164 403
770.0 997 1718 2874 3099 2186 2434 2524 3287 3295 2929
810.0 1837 934 567 368 304 304 457 572 822 983
850.0 1152 1330 1830 2953 5048 7664 9608 9178 6580 3388
890.0 1273 461 258 217 263 284 352 399 468 471
930.0 470 400 315 236 194 171 141 136 130 169
970.0 191 241 247 259 221 180 142 118 116 86
1010.0 99 78 75 75 74 81 100 113 139 137
1050.0 128 146 200 257 308 288 222 180 171 198
1090.0 265 422 774 1362 1927 2137 2014 1549 1034 690
1130.0 427 280 247 242 234 249 270 294 299 292
1170.0 272 290 333 521 1041 2034 3211 4149 4360 3457
1210.0 2204 1073 435 248 182 183 195 206 188 173
1250.0 162 157 170 175 173 149 122 93 72 61
1290.0 62 72 73 83 78 77 60 63 54 57
1330.0 63 78 96 95 88 102 118 127 135 119
1370.0 111 108 107 97 126 113 126 130 118 125
1410.0 136 188 343 720 1611 2949 3975 4141 3104 1810
1450.0 1003 546 327 225 176 166 182 181 166 217
1490.0 259 246 230 184 163 159 136 142 153 133
1530.0 136 141 196 253 307 352 582 1007 1797 2573
1570.0 3029 2827 2017 1402 1056 716 463 310 242 183
1610.0 141 115 129 114 143 128 136 121 100 97
1650.0 112 109 96 106 142 166 182 136 145 138
1690.0 122 120 156 166 171 182 219 291 317 391
1730.0 531 689 784 814 803 749 654 623 628 636
1770.0 632 621 630 738 985 1482 2434 4069 6355 8599
1810.0 10000 8496 5708 3296 1493 686 423 370 421 468
1850.0 483 422 359 286 264 249 228 220 200 165
1890.0 126 99 66 60 56 59 60 66 87 95
1930.0 126 161 184 180 154 99 70 49 35 30
1970.0 19 25 26 35 27 37 33 31 27 26
2010.0 23 16 21 17 18 16 22 14 23 19
2050.0 22 22 27 34 36 46 42 45 33 27
2090.0 21 18 15 21 24 17 20 18 17 11
2130.0 13 15 13 16 13 13 9 12 12 14
2170.0 16 15 13 16 15 4 14 10 13 7
2210.0 9 11 18 13 12 12 14 25 24 25
2250.0 25 27 24 28 25 20 22 17 12 4
2290.0 3 2 7 8 15 15 22 24 27 39
2330.0 11 21 41 20 16 17 16 15 35 23
2370.0 17 1 15 1 2 3 13 11 15 16
2410.0 15 16 12 11 7 12 11 14 17 16
2450.0 17 17 21 19 27 22 19 15 13 12
2490.0 14 20 16 15 8 8 6 10 9 9
2530.0 9 16 14 9 14 10 16 8 12 11
2570.0 16 16 15 22 22 26 23 20 15 20
2610.0 16 15 20 26 34 39 37 28 27 25
2650.0 26 20 16 23 24 32 34 42 45 41
2690.0 44 45 41 38 32 19 16 14 17 18
2730.0 28 13 17 12 8 18 21 14 13 15
2770.0 14 13 19 5 16 14 9 16 22 12
2810.0 21 18 22 35 19 18 19 23 19 20
2850.0 6 7 1 7 13 10 13 9 14 12
2890.0 19 16 18 19 21 17 10 18 16 29
2930.0 24 16 18 29 37 15 27 24 50 36
2970.0 35 34 50 55 54 53 58 49 40 29
3010.0 36 29 30 20 14 19 17 18 16 31
3050.0 32 32 65 87 144 187 189 172 132 119
3090.0 101 76 58 35 23 33 27 32 33 37
3130.0 35 42 46 36 29 19 16 11 17 17
3170.0 13 11 15 8 2 7 6 14 4 7
3210.0 8 12 15 11 13 10 7 6 13 14
3250.0 16 5 6 1 5 21 14 9 9 12
3290.0 7 7 18 14 8 6 15 9 4 5
3330.0 13 6 11 16 10 12 13 23 16 15
3370.0 15 11 11 5 8 10 6 21 18 10
3410.0 11 8 16 20 18 4 21 6 3 18
3450.0 22 18 16 27 6 11 9 2 12 26
3490.0 11 12 15 5 15 20 0 23 24 26
3530.0 22 42 33 53 57 45 73 76 66 72
3570.0 55 42 44 37 57 54 77 76 64 59
3610.0 43 40 41 11 18 39 25 20 19 15
3650.0 29 26 22 27 18 14 26 19 18 16
3690.0 19 32 22 18 9 24 11 21 10 13
3730.0 24 17 11 13 32 26 20 5 22 15
3770.0 15 7 1 3 2 12 26 17 12 31
3810.0 33 15 29 21 36 11 9 7 5 22
3850.0 17 10 21 15 13 26 9 28 41 16
3890.0 31 26 15 16 14 29 34 26 23 27
3930.0 33 13 19 19 20 20 21 14 12 34
##END=
