##TITLE=Eucalyptol
##JCAMP-DX=4.24
##DATA TYPE=INFRARED SPECTRUM
##ORIGIN=Sadtler Research Labs Under US-EPA Contract
##OWNER=NIST Standard Reference Data Program
##CAS REGISTRY NO=470-82-6
##MOLFORM=C 10 H 18 O
##XUNITS=1/CM
##YUNITS=ABSORBANCE
##XFACTOR=1.0
##YFACTOR=0.000051651
##DELTAX=4.0
##FIRSTX=450.0
##LASTX=3966.0
##FIRSTY=0.010434
##MAXX=3966
##MINX=450
##MAXY=0.51651
##MINY=0
##NPOINTS=880
##XYDATA=(X++(Y..Y))
450.0 202 348 313 347 192 253 113 266 123 3
490.0 94 91 106 135 306 193 206 96 85 153
530.0 249 65 47 249 184 242 211 282 234 238
570.0 333 392 454 326 386 252 206 161 183 159
610.0 169 173 177 218 257 229 128 211 167 228
650.0 172 204 193 172 196 89 211 122 198 165
690.0 185 218 197 231 158 203 152 186 216 217
730.0 143 162 186 189 191 194 259 265 292 291
770.0 296 276 197 250 308 348 257 303 253 305
810.0 274 289 278 287 315 373 558 740 962 1122
850.0 1005 877 722 515 439 378 357 360 334 398
890.0 374 353 334 308 310 375 457 523 560 514
930.0 476 367 312 310 330 384 439 565 741 1054
970.0 1575 2386 3420 4429 5132 5207 4614 3565 2382 1541
1010.0 1197 1116 1050 904 789 640 570 639 815 1120
1050.0 1422 1683 1657 1561 1464 1603 1998 2420 2742 2603
1090.0 2196 1596 1034 740 572 499 388 333 287 272
1130.0 264 295 345 413 557 765 1114 1510 1941 2241
1170.0 2255 1802 1307 872 584 517 491 598 826 1487
1210.0 2460 3363 4105 3957 3419 2668 2166 1758 1354 1017
1250.0 739 600 567 623 730 792 792 699 563 474
1290.0 443 501 686 886 1054 1036 861 606 405 285
1330.0 274 287 380 506 701 986 1386 1754 1868 2317
1370.0 2675 2889 3273 3299 2627 1939 1063 481 263 213
1410.0 205 205 253 246 273 317 419 571 754 868
1450.0 1097 1277 1445 1707 1860 2080 1811 1406 1068 717
1490.0 538 381 304 247 225 206 171 177 165 150
1530.0 132 137 136 143 141 122 121 149 130 109
1570.0 117 109 106 108 103 109 99 122 106 118
1610.0 112 123 131 127 143 119 140 134 133 118
1650.0 138 118 100 97 92 102 113 98 111 112
1690.0 97 99 128 110 102 76 102 106 87 70
1730.0 84 106 81 88 82 100 78 87 80 77
1770.0 88 84 78 75 88 90 108 98 111 96
1810.0 105 106 108 116 125 136 113 108 100 92
1850.0 74 51 61 61 61 55 56 40 50 45
1890.0 52 52 44 46 35 43 39 57 51 45
1930.0 41 36 34 29 33 25 26 17 19 16
1970.0 18 15 17 12 11 24 21 26 28 31
2010.0 29 44 46 47 62 67 86 76 79 84
2050.0 96 98 91 83 88 100 100 96 87 79
2090.0 68 44 22 11 13 13 15 11 22 18
2130.0 17 25 28 36 27 41 30 28 26 30
2170.0 28 30 23 17 14 3 13 6 17 18
2210.0 10 14 13 23 18 27 30 33 32 32
2250.0 28 32 41 34 32 31 43 41 53 60
2290.0 68 78 74 80 72 92 69 73 61 44
2330.0 42 35 52 37 88 65 39 27 51 81
2370.0 114 106 101 91 72 62 42 53 45 40
2410.0 44 46 47 61 63 51 56 54 57 55
2450.0 60 63 65 65 63 76 80 83 75 74
2490.0 77 75 82 82 90 89 83 82 80 89
2530.0 93 101 103 112 107 111 104 113 104 111
2570.0 111 110 112 109 117 104 107 93 99 96
2610.0 93 97 93 93 88 96 105 123 122 110
2650.0 91 94 117 128 168 184 203 200 200 206
2690.0 203 206 199 190 169 176 176 178 178 189
2730.0 196 183 200 167 174 173 179 178 196 200
2770.0 204 202 203 229 220 232 231 247 249 271
2810.0 274 280 295 306 338 329 366 397 459 581
2850.0 845 1222 1559 1950 2166 2319 2532 2856 3303 3721
2890.0 4015 4026 3873 3770 3859 4210 5211 6410 7706 9275
2930.0 9760 9919 9573 9126 9005 9242 9328 9401 9124 9248
2970.0 9743 9653 10000 9606 7677 6800 5652 4585 3356 2519
3010.0 1550 826 582 416 393 329 338 286 275 274
3050.0 242 229 219 236 206 207 204 223 199 218
3090.0 211 192 192 185 187 182 193 178 188 190
3130.0 168 183 183 177 179 184 165 178 161 177
3170.0 173 159 167 152 142 147 155 150 140 121
3210.0 83 65 58 57 54 41 29 57 45 24
3250.0 28 18 19 21 18 11 25 19 19 31
3290.0 43 62 45 73 71 102 90 88 92 87
3330.0 82 77 86 100 107 107 99 121 107 103
3370.0 97 90 93 100 99 88 85 92 84 84
3410.0 98 80 67 72 84 74 95 77 71 80
3450.0 91 93 44 62 48 78 83 66 44 62
3490.0 45 60 79 63 72 56 59 75 65 55
3530.0 62 57 73 58 51 61 59 51 63 76
3570.0 89 52 36 50 46 43 64 68 28 24
3610.0 51 60 75 35 53 94 72 73 93 58
3650.0 86 48 30 57 71 48 44 84 70 64
3690.0 48 59 73 42 82 80 34 2 14 58
3730.0 57 16 35 59 145 36 85 85 35 59
3770.0 69 58 57 98 63 75 66 29 96 107
3810.0 59 44 76 64 90 87 37 36 74 75
3850.0 81 86 105 60 69 74 24 63 32 21
3890.0 36 57 4 116 36 31 15 30 3 85
3930.0 39 0 65 98 111 100 17 62 67 27
##END=
