##TITLE=5-Bromo-2-thiophenecarboxaldehyde
##JCAMP-DX=4.24
##DATA TYPE=INFRARED SPECTRUM
##ORIGIN=Sadtler Research Labs Under US-EPA Contract
##OWNER=NIST Standard Reference Data Program
##CAS REGISTRY NO=4701-17-1
##MOLFORM=C 5 H 3 Br O S
##XUNITS=1/CM
##YUNITS=ABSORBANCE
##XFACTOR=1.0
##YFACTOR=0.000160245
##DELTAX=4.0
##FIRSTX=450.0
##LASTX=3966.0
##FIRSTY=0.009935
##MAXX=3966
##MINX=450
##MAXY=1.60245
##MINY=0
##NPOINTS=880
##XYDATA=(X++(Y..Y))
450.0 62 99 124 219 278 376 400 562 378 387
490.0 345 247 154 85 40 28 16 25 22 12
530.0 6 3 10 9 2 10 11 18 20 17
570.0 13 15 24 27 29 29 34 31 37 57
610.0 62 61 77 64 58 59 66 65 63 74
650.0 116 283 763 1484 1538 1630 797 184 101 68
690.0 50 45 42 50 62 76 117 155 154 129
730.0 126 150 165 237 449 622 604 603 226 122
770.0 153 231 376 597 855 1108 1421 1667 1391 1412
810.0 1247 952 729 497 308 170 105 76 73 71
850.0 76 73 69 67 60 63 73 73 75 70
890.0 72 66 67 68 69 79 81 74 69 67
930.0 65 68 69 76 91 113 129 180 288 523
970.0 946 1537 1861 1845 1411 607 238 104 75 67
1010.0 69 73 78 95 128 174 207 255 268 328
1050.0 473 460 420 370 196 142 118 113 116 120
1090.0 124 121 115 113 122 130 133 139 142 160
1130.0 188 202 209 203 194 208 232 244 255 237
1170.0 230 260 307 380 587 1158 2160 2636 2580 2181
1210.0 1307 1390 1553 1299 954 406 214 169 147 133
1250.0 130 130 134 149 172 184 193 177 154 132
1290.0 140 148 176 200 213 228 301 532 794 794
1330.0 741 349 141 144 189 188 177 147 117 146
1370.0 213 257 297 359 402 660 785 913 1074 1466
1410.0 2857 5498 7596 7166 5929 2607 1065 794 618 323
1450.0 184 125 48 104 132 117 16 45 130 68
1490.0 21 101 78 112 72 72 227 381 567 775
1530.0 721 567 225 24 46 113 84 4 58 125
1570.0 120 134 175 177 229 198 215 183 199 172
1610.0 167 177 118 167 101 180 98 89 134 136
1650.0 71 155 291 355 399 432 487 842 1270 2199
1690.0 3764 6701 9583 10000 9961 7289 4302 2751 1751 981
1730.0 455 159 171 146 108 87 147 138 139 163
1770.0 99 74 128 114 121 102 80 81 50 104
1810.0 99 100 141 155 150 136 151 162 124 95
1850.0 134 171 177 198 179 144 173 166 152 126
1890.0 78 61 67 68 62 58 50 50 33 64
1930.0 80 81 86 65 68 83 80 73 74 53
1970.0 60 65 62 61 63 40 46 60 62 59
2010.0 62 52 45 51 53 48 51 43 39 43
2050.0 47 45 47 41 33 42 42 45 50 49
2090.0 47 49 49 52 57 53 52 43 35 34
2130.0 33 33 30 28 27 28 28 29 27 27
2170.0 26 27 29 30 30 32 30 29 25 23
2210.0 18 20 18 17 20 16 16 16 20 22
2250.0 28 27 23 13 8 9 6 5 4 4
2290.0 2 1 0 1 1 3 4 6 9 11
2330.0 13 14 16 13 15 20 16 15 18 16
2370.0 10 9 6 3 3 5 9 9 12 16
2410.0 20 24 24 22 17 14 15 16 16 20
2450.0 23 28 31 31 35 43 43 41 30 13
2490.0 12 12 12 12 14 14 20 24 26 27
2530.0 24 20 18 16 18 18 16 17 15 14
2570.0 18 20 21 24 25 27 33 35 39 43
2610.0 48 52 52 47 43 46 53 54 55 53
2650.0 51 61 69 84 114 164 192 184 171 107
2690.0 78 75 83 102 122 155 187 216 271 362
2730.0 532 709 750 745 567 394 303 234 208 220
2770.0 284 442 719 911 883 835 567 515 612 823
2810.0 1128 1390 1317 1268 937 683 580 493 398 304
2850.0 230 169 135 115 100 84 71 62 60 59
2890.0 61 66 70 72 74 74 67 59 50 47
2930.0 45 46 50 52 51 55 53 52 54 55
2970.0 58 60 60 58 52 49 44 43 41 38
3010.0 37 36 38 36 38 42 50 53 53 46
3050.0 36 30 30 34 44 53 68 86 107 97
3090.0 96 70 49 46 49 52 62 62 60 53
3130.0 41 35 28 22 21 23 18 15 16 18
3170.0 17 16 16 16 16 15 16 14 16 17
3210.0 15 16 18 20 20 18 21 22 16 17
3250.0 16 15 15 16 16 15 14 13 14 18
3290.0 15 15 16 14 14 16 14 14 12 13
3330.0 14 15 12 15 18 16 18 27 39 55
3370.0 82 118 136 140 144 121 91 58 23 9
3410.0 6 2 3 1 6 2 1 1 2 8
3450.0 10 8 8 11 10 13 11 10 13 5
3490.0 15 12 15 8 11 14 13 9 9 6
3530.0 8 13 11 11 10 10 12 12 15 9
3570.0 10 9 8 18 13 14 13 12 10 6
3610.0 12 12 15 13 8 24 8 11 13 12
3650.0 17 11 12 13 13 11 10 12 9 15
3690.0 13 14 17 17 10 13 14 14 17 12
3730.0 9 13 11 8 23 12 25 10 12 15
3770.0 22 14 11 23 20 17 20 23 18 17
3810.0 14 12 22 28 27 21 23 32 28 34
3850.0 28 33 20 18 21 26 8 9 9 17
3890.0 12 15 15 16 18 20 9 17 17 13
3930.0 6 14 15 13 22 18 23 23 16 21
##END=
