##TITLE=Vinyl decanoate
##JCAMP-DX=4.24
##DATA TYPE=INFRARED SPECTRUM
##ORIGIN=Sadtler Research Labs Under US-EPA Contract
##OWNER=NIST Standard Reference Data Program
##CAS REGISTRY NO=4704-31-8
##MOLFORM=C 12 H 22 O 2
##XUNITS=1/CM
##YUNITS=ABSORBANCE
##XFACTOR=1.0
##YFACTOR=0.000132590
##DELTAX=4.0
##FIRSTX=450.0
##LASTX=3966.0
##FIRSTY=0.010077
##MAXX=3966
##MINX=450
##MAXY=1.3259
##MINY=0
##NPOINTS=880
##XYDATA=(X++(Y..Y))
450.0 76 89 143 113 79 80 90 90 63 57
490.0 64 57 52 64 49 47 47 48 39 33
530.0 22 42 3 61 50 3 31 59 69 57
570.0 57 71 59 74 86 89 89 102 89 86
610.0 82 86 80 80 81 85 75 77 66 56
650.0 57 62 66 33 44 66 50 67 68 90
690.0 97 98 105 125 146 153 155 173 184 172
730.0 174 139 138 151 136 123 125 127 127 125
770.0 131 123 107 108 100 95 97 93 100 100
810.0 99 108 111 114 126 135 161 188 228 273
850.0 336 405 474 611 794 992 1002 848 673 530
890.0 417 325 254 209 183 165 165 175 201 241
930.0 295 369 450 552 651 724 680 599 526 494
970.0 485 492 515 540 563 558 531 482 448 411
1010.0 386 364 354 342 333 339 344 358 370 388
1050.0 394 406 411 409 410 415 439 466 519 585
1090.0 691 807 956 1106 1237 1326 1357 1387 1455 1686
1130.0 2078 2763 3763 5358 7275 8878 10000 9312 8036 6131
1170.0 4939 3949 3353 2892 2610 2393 2249 2184 2108 2077
1210.0 2019 2008 1930 1908 1861 1825 1749 1642 1516 1343
1250.0 1201 1065 976 885 840 790 764 742 727 731
1290.0 772 899 1008 1061 997 940 866 814 772 728
1330.0 700 697 744 791 873 931 1006 1024 1043 996
1370.0 914 787 689 607 535 434 344 277 228 210
1410.0 197 220 218 289 326 372 392 411 423 464
1450.0 517 582 683 739 746 644 483 365 253 139
1490.0 135 95 73 53 86 22 34 52 20 46
1530.0 2 73 1 63 8 68 30 76 75 98
1570.0 103 127 103 78 97 72 87 73 101 109
1610.0 117 176 180 313 288 551 628 1068 1401 2080
1650.0 2495 2295 1363 894 492 348 119 209 56 145
1690.0 54 129 84 103 136 137 176 144 265 237
1730.0 349 344 513 511 763 998 1367 1955 2726 3906
1770.0 4628 6396 5162 4448 2967 2222 1334 949 626 463
1810.0 333 263 206 163 151 110 124 83 102 65
1850.0 65 55 55 39 43 39 30 47 37 49
1890.0 44 49 45 41 35 28 17 24 8 16
1930.0 12 15 12 16 12 16 17 21 18 23
1970.0 20 25 29 33 33 38 44 46 54 54
2010.0 61 58 66 62 66 62 57 49 45 39
2050.0 34 32 27 27 23 23 22 20 21 22
2090.0 21 18 20 19 20 18 19 18 17 17
2130.0 14 13 12 11 7 7 7 6 7 7
2170.0 8 8 10 6 9 8 7 9 7 8
2210.0 7 5 7 10 10 10 6 8 12 13
2250.0 14 16 18 25 24 27 35 39 46 50
2290.0 53 55 55 52 54 53 50 51 53 48
2330.0 52 51 40 60 40 37 66 51 72 56
2370.0 37 24 17 12 5 3 2 3 1 4
2410.0 0 3 4 6 5 6 10 9 10 7
2450.0 6 4 2 1 2 3 5 5 3 5
2490.0 7 10 9 9 11 11 11 11 13 13
2530.0 15 15 18 19 20 21 21 23 22 24
2570.0 25 27 25 29 30 32 31 34 35 33
2610.0 35 35 38 37 39 41 45 48 48 49
2650.0 47 51 51 54 57 60 59 62 66 67
2690.0 70 67 65 65 63 60 60 60 58 62
2730.0 63 67 71 78 78 79 77 78 77 79
2770.0 81 83 88 94 103 112 124 135 146 154
2810.0 167 183 199 225 254 285 329 380 455 580
2850.0 804 1200 1802 2405 2740 2673 2367 2040 1815 1667
2890.0 1470 1318 1294 1422 1643 1967 2387 2970 3800 4865
2930.0 6042 6587 6553 5865 5063 4134 3403 2981 2913 3063
2970.0 3088 2688 1936 1333 963 739 580 476 399 343
3010.0 292 256 226 206 192 181 171 161 161 163
3050.0 171 180 183 167 145 129 124 130 144 169
3090.0 209 268 305 269 193 141 128 125 145 201
3130.0 240 198 120 86 72 68 65 63 61 57
3170.0 56 54 52 53 52 52 51 46 47 46
3210.0 43 40 36 33 33 28 30 27 27 26
3250.0 24 26 24 24 26 25 19 22 16 15
3290.0 17 16 13 12 18 12 15 19 22 23
3330.0 19 19 17 19 21 26 27 26 23 25
3370.0 27 23 26 24 31 33 31 27 30 29
3410.0 27 24 27 31 26 29 29 34 27 31
3450.0 36 27 32 29 31 29 30 30 36 33
3490.0 33 34 41 54 43 56 52 63 78 95
3530.0 83 83 74 63 56 52 44 46 63 63
3570.0 100 101 125 123 83 90 48 68 55 51
3610.0 55 56 64 41 43 76 21 54 26 52
3650.0 81 26 63 4 60 29 72 41 24 44
3690.0 36 44 23 38 31 41 57 44 23 54
3730.0 26 64 20 75 14 56 55 14 34 29
3770.0 29 17 23 40 21 24 40 17 47 28
3810.0 21 43 16 70 14 26 44 55 29 43
3850.0 25 49 40 30 38 56 31 24 53 40
3890.0 37 47 25 73 35 31 20 44 25 33
3930.0 32 29 31 29 31 26 25 23 37 37
##END=
