##TITLE=Benzene, 1,3-dimethyl-5-(1-methylethyl)-
##JCAMP-DX=4.24
##DATA TYPE=INFRARED SPECTRUM
##ORIGIN=Sadtler Research Labs Under US-EPA Contract
##OWNER=NIST Standard Reference Data Program
##CAS REGISTRY NO=4706-90-5
##MOLFORM=C 11 H 16
##XUNITS=1/CM
##YUNITS=ABSORBANCE
##XFACTOR=1.0
##YFACTOR=0.000053711
##DELTAX=4.0
##FIRSTX=450.0
##LASTX=3966.0
##FIRSTY=0.000000
##MAXX=3966
##MINX=450
##MAXY=0.53711
##MINY=0
##NPOINTS=880
##XYDATA=(X++(Y..Y))
450.0 0 12 28 76 62 105 115 82 114 110
490.0 76 124 149 120 204 199 119 135 118 60
530.0 105 155 105 142 115 47 151 145 141 227
570.0 201 131 160 112 21 125 75 57 187 63
610.0 51 143 96 69 125 105 79 93 68 71
650.0 143 68 53 96 48 122 151 119 145 291
690.0 513 765 1075 1477 1191 876 557 260 144 78
730.0 83 127 100 89 123 55 88 134 70 79
770.0 115 42 97 139 84 101 161 119 231 306
810.0 345 470 457 319 336 486 793 1279 1729 2376
850.0 1478 1105 663 379 243 192 216 194 181 227
890.0 206 186 183 182 142 218 282 334 473 487
930.0 445 444 352 314 306 275 203 195 178 161
970.0 191 203 205 302 330 302 358 353 303 300
1010.0 232 188 179 154 170 211 224 249 306 327
1050.0 364 381 371 324 330 289 304 390 398 410
1090.0 414 302 278 287 249 243 231 175 159 183
1130.0 153 135 151 122 128 129 121 148 167 155
1170.0 203 277 356 444 449 354 276 180 118 135
1210.0 135 107 119 118 114 125 135 137 184 206
1250.0 221 251 260 233 232 185 167 191 182 194
1290.0 231 233 246 270 286 289 365 411 450 527
1330.0 560 576 592 554 497 459 461 513 628 746
1370.0 901 819 857 887 906 823 699 555 439 381
1410.0 408 400 403 451 488 544 639 748 945 1176
1450.0 1375 1563 1701 1691 1657 1582 1415 1309 1196 1075
1490.0 1050 1055 1018 1002 980 892 815 732 654 626
1530.0 621 610 600 570 492 456 422 388 406 441
1570.0 453 515 573 629 765 981 1355 2024 2909 3540
1610.0 3381 2430 1414 812 479 292 232 178 139 138
1650.0 127 99 122 105 82 95 89 81 97 92
1690.0 80 98 99 81 118 125 126 182 221 233
1730.0 245 208 170 151 159 177 233 240 230 223
1770.0 174 123 110 76 53 64 50 48 57 57
1810.0 48 57 47 49 59 51 50 59 49 53
1850.0 62 46 43 63 44 47 64 68 78 88
1890.0 78 77 83 52 60 70 60 69 76 67
1930.0 62 69 47 48 53 43 46 49 30 38
1970.0 38 28 39 45 38 37 43 26 33 37
2010.0 26 34 36 17 27 34 16 26 23 15
2050.0 31 24 14 32 26 14 24 24 14 24
2090.0 22 11 33 28 16 37 24 20 29 31
2130.0 21 30 19 19 32 26 11 28 23 18
2170.0 27 20 16 26 18 16 26 26 28 34
2210.0 30 24 34 28 23 33 24 15 23 21
2250.0 14 23 20 16 28 18 13 23 15 13
2290.0 31 23 33 42 32 44 62 40 49 70
2330.0 55 61 77 42 59 60 42 82 111 48
2370.0 67 85 60 56 54 45 50 51 43 52
2410.0 51 50 55 51 41 51 57 42 49 52
2450.0 42 51 52 34 51 60 41 52 52 42
2490.0 48 46 33 42 44 33 44 42 34 36
2530.0 30 28 33 34 23 47 37 33 44 44
2570.0 34 45 49 47 62 62 54 82 71 60
2610.0 70 55 43 52 52 43 53 51 36 64
2650.0 48 49 64 47 42 54 45 35 52 43
2690.0 37 57 48 54 68 66 75 106 107 133
2730.0 191 209 237 254 247 212 182 153 144 156
2770.0 129 125 127 117 127 154 144 159 179 176
2810.0 204 227 225 260 291 316 362 418 467 563
2850.0 706 858 1111 1435 1839 2411 2986 3389 3592 3410
2890.0 3113 2980 3012 3102 3237 3321 3376 3677 4171 4753
2930.0 5331 5702 5687 5337 4728 4148 4098 4993 7027 8902
2970.0 10000 8946 6433 4347 2920 2313 2051 1988 2070 2147
3010.0 2331 2777 3212 3465 3494 3112 2506 2030 1626 1332
3050.0 1183 1032 910 834 708 609 552 468 420 394
3090.0 323 263 240 204 184 183 164 149 155 133
3130.0 116 127 119 110 114 87 82 111 83 83
3170.0 102 75 87 111 93 97 113 96 95 113
3210.0 84 100 102 75 76 82 53 53 59 40
3250.0 44 55 30 37 50 30 49 38 20 43
3290.0 52 28 37 56 23 28 29 10 28 30
3330.0 11 39 33 20 25 34 16 36 28 12
3370.0 36 33 13 49 39 21 33 38 10 30
3410.0 30 10 38 26 13 37 31 22 41 29
3450.0 12 29 22 13 34 24 11 41 31 12
3490.0 31 22 16 31 19 26 42 21 13 29
3530.0 18 20 41 23 14 32 36 15 46 22
3570.0 17 49 18 19 32 6 13 22 13 5
3610.0 25 8 14 24 14 8 24 14 12 14
3650.0 15 15 23 15 15 15 15 15 15 15
3690.0 21 24 14 6 15 5 15 15 5 17
3730.0 27 5 5 5 5 5 15 5 14 15
3770.0 5 7 15 5 10 21 15 16 16 5
3810.0 15 15 6 15 24 16 18 22 10 15
3850.0 15 8 15 25 16 25 32 16 27 32
3890.0 17 38 40 19 32 30 15 15 25 16
3930.0 26 22 18 38 31 17 4 5 5 5
##END=
