##TITLE=4-Piperidinol, 1-(phenylmethyl)-
##JCAMP-DX=4.24
##DATA TYPE=INFRARED SPECTRUM
##ORIGIN=Sadtler Research Labs Under US-EPA Contract
##OWNER=NIST Standard Reference Data Program
##CAS REGISTRY NO=4727-72-4
##MOLFORM=C 12 H 17 N O
##XUNITS=1/CM
##YUNITS=ABSORBANCE
##XFACTOR=1.0
##YFACTOR=0.000042776
##DELTAX=4.0
##FIRSTX=450.0
##LASTX=3966.0
##FIRSTY=0.000471
##MAXX=3966
##MINX=450
##MAXY=0.42776
##MINY=0
##NPOINTS=880
##XYDATA=(X++(Y..Y))
450.0 11 15 147 224 222 154 162 282 373 352
490.0 513 513 570 563 453 254 191 169 154 170
530.0 162 207 168 192 165 194 162 211 199 204
570.0 237 235 198 225 231 270 316 336 353 327
610.0 303 275 283 281 302 324 326 307 235 223
650.0 246 267 287 388 384 528 553 578 776 1134
690.0 1958 2676 3435 3136 2305 1608 1151 1091 1395 2031
730.0 2876 3447 3353 2716 1705 1069 754 625 598 589
770.0 562 565 560 684 848 1002 1024 901 774 661
810.0 653 674 643 559 479 441 404 395 375 400
850.0 317 245 171 177 158 156 162 162 188 207
890.0 282 390 536 676 713 608 455 343 338 379
930.0 401 412 419 485 590 750 893 947 880 833
970.0 851 964 1088 1189 1255 1241 1215 1199 1237 1367
1010.0 1528 1612 1529 1556 1861 2069 2270 2345 2491 2762
1050.0 3225 4427 6623 9115 10000 8546 5630 3430 2372 1848
1090.0 1681 1669 1764 1888 1967 2052 2109 2149 2153 2194
1130.0 2288 2345 2226 1961 1624 1353 1166 1057 1026 1044
1170.0 1094 1134 1132 1096 1071 1115 1186 1279 1324 1295
1210.0 1197 1106 1082 1114 1191 1287 1364 1388 1385 1351
1250.0 1357 1376 1441 1507 1539 1551 1560 1587 1601 1608
1290.0 1581 1548 1538 1529 1517 1551 1638 1740 1859 1967
1330.0 2019 2101 2234 2365 2463 2615 2819 2984 2968 2774
1370.0 2459 2152 1878 1679 1539 1412 1260 1081 875 719
1410.0 611 587 611 664 733 816 932 1120 1334 1588
1450.0 1810 1842 1658 1393 1229 1098 938 737 601 596
1490.0 824 1041 1012 771 426 217 147 87 75 71
1530.0 69 81 60 81 81 90 74 71 85 110
1570.0 126 169 181 237 269 326 384 433 424 384
1610.0 312 227 136 82 57 68 54 65 62 58
1650.0 47 34 37 39 29 20 22 27 28 33
1690.0 45 55 58 91 132 200 285 320 341 333
1730.0 352 344 228 173 134 132 99 87 69 75
1770.0 78 74 86 93 91 107 131 175 212 188
1810.0 146 117 98 75 70 55 51 43 45 46
1850.0 54 66 89 102 120 132 133 136 131 113
1890.0 95 77 66 58 58 61 63 61 70 82
1930.0 107 132 170 192 194 187 175 151 111 72
1970.0 43 30 27 30 29 24 25 11 8 3
2010.0 5 10 9 9 9 11 9 13 13 17
2050.0 18 14 15 16 19 18 19 24 15 17
2090.0 14 12 14 6 13 16 10 7 12 21
2130.0 25 12 25 21 17 17 20 14 21 19
2170.0 17 22 23 28 20 20 17 23 21 23
2210.0 25 20 18 23 31 30 42 50 39 40
2250.0 42 36 26 21 26 24 25 33 34 39
2290.0 55 60 70 65 90 104 91 78 77 72
2330.0 64 60 29 60 61 93 47 37 56 88
2370.0 94 96 96 109 89 65 64 63 67 68
2410.0 69 67 76 78 72 68 68 62 60 51
2450.0 53 61 62 61 62 73 63 57 63 68
2490.0 73 71 78 76 78 81 77 83 93 80
2530.0 88 93 95 96 96 111 109 107 115 123
2570.0 124 128 139 144 153 163 167 184 196 205
2610.0 224 233 251 269 290 312 336 363 397 429
2650.0 461 484 530 566 595 621 661 683 710 728
2690.0 758 804 839 873 907 945 993 1056 1113 1161
2730.0 1219 1328 1467 1628 1847 2106 2404 2661 2848 2938
2770.0 2945 2956 3022 3213 3490 3837 4190 4463 4629 4622
2810.0 4450 4110 3655 3160 2673 2243 1896 1658 1560 1578
2850.0 1674 1805 1958 2048 2074 2058 2063 2107 2219 2373
2890.0 2537 2642 2685 2780 2990 3381 3931 4592 5236 5800
2930.0 6182 6483 6880 7515 8239 8459 7685 6094 4380 2986
2970.0 1963 1221 795 594 480 426 410 406 436 470
3010.0 528 610 768 1053 1451 1865 2128 2144 1891 1519
3050.0 1205 1054 1149 1447 1982 2419 2444 2096 1596 1350
3090.0 1217 1062 879 681 547 450 372 309 238 175
3130.0 141 107 96 79 76 83 85 82 92 99
3170.0 99 88 79 76 54 49 47 39 55 48
3210.0 32 27 28 34 26 20 39 30 22 20
3250.0 21 31 27 33 19 27 33 23 27 35
3290.0 39 34 35 36 28 34 25 28 28 33
3330.0 39 33 46 20 42 34 34 27 29 33
3370.0 33 32 26 33 43 43 48 55 60 58
3410.0 59 69 67 65 69 83 94 76 82 71
3450.0 82 75 73 67 79 81 74 73 69 72
3490.0 65 86 69 82 89 80 97 93 124 119
3530.0 108 79 81 104 94 79 69 63 99 79
3570.0 95 104 96 106 81 106 71 64 80 103
3610.0 104 92 97 132 159 219 284 379 559 791
3650.0 1059 1178 1048 639 375 222 121 93 107 68
3690.0 83 64 103 60 59 65 45 45 22 59
3730.0 26 11 29 29 12 3 8 34 25 38
3770.0 53 23 40 36 53 28 49 42 0 24
3810.0 38 34 19 7 60 51 45 31 28 23
3850.0 46 26 84 79 68 63 74 99 61 86
3890.0 35 76 58 68 57 78 69 71 65 73
3930.0 87 41 27 47 46 33 32 57 22 45
##END=
