##TITLE=1-Butanol, 2-amino-3-methyl-,
##JCAMP-DX=4.24
##DATA TYPE=INFRARED SPECTRUM
##ORIGIN=Sadtler Research Labs Under US-EPA Contract
##OWNER=NIST Standard Reference Data Program
##CAS REGISTRY NO=473-75-6
##MOLFORM=C 5 H 13 N O
##XUNITS=1/CM
##YUNITS=ABSORBANCE
##XFACTOR=1.0
##YFACTOR=0.000051300
##DELTAX=4.0
##FIRSTX=450.0
##LASTX=3966.0
##FIRSTY=0.003283
##MAXX=3966
##MINX=450
##MAXY=0.513
##MINY=0
##NPOINTS=880
##XYDATA=(X++(Y..Y))
450.0 64 45 85 113 143 191 220 246 284 349
490.0 380 389 365 292 288 236 187 122 101 104
530.0 82 72 71 165 223 194 96 33 106 161
570.0 134 191 198 180 292 138 118 118 85 116
610.0 97 91 64 75 87 84 101 106 119 120
650.0 109 101 115 105 85 168 132 149 177 206
690.0 226 258 275 299 350 360 394 468 532 636
730.0 741 862 1021 1189 1413 1618 1822 1997 2092 2124
770.0 2054 1929 1782 1739 1584 1492 1467 1465 1535 1564
810.0 1611 1653 1708 1758 1764 1755 1680 1587 1460 1313
850.0 1176 1040 916 821 740 673 606 568 509 442
890.0 405 348 321 302 303 326 353 389 439 481
930.0 504 527 539 561 575 587 618 663 691 760
970.0 776 818 921 949 1039 1129 1241 1373 1521 1667
1010.0 1817 1978 2155 2429 2788 3275 3817 4312 4674 4811
1050.0 4703 4387 3934 3415 2941 2590 2353 2124 1946 1754
1090.0 1528 1312 1132 994 867 759 665 610 583 587
1130.0 604 626 655 669 671 673 684 687 688 690
1170.0 681 682 649 607 548 499 469 439 408 411
1210.0 423 443 455 477 512 540 562 584 601 615
1250.0 623 606 615 598 578 554 522 499 492 481
1290.0 501 516 554 565 578 583 618 620 645 663
1330.0 686 707 733 762 796 839 912 999 1126 1216
1370.0 1342 1482 1562 1677 1745 1804 1792 1697 1602 1487
1410.0 1326 1224 1080 968 823 737 620 663 618 665
1450.0 774 902 1167 1280 1492 1615 1687 1560 1377 1099
1490.0 882 638 485 340 293 250 198 195 195 193
1530.0 156 201 163 199 192 189 206 202 242 223
1570.0 249 252 324 307 371 407 467 526 622 706
1610.0 792 863 939 955 919 894 785 712 593 526
1650.0 380 429 317 314 267 264 182 182 104 114
1690.0 77 77 61 107 65 87 85 111 100 118
1730.0 114 128 100 90 55 48 49 33 28 14
1770.0 26 10 5 5 19 3 23 2 18 12
1810.0 9 13 27 10 26 10 16 24 7 27
1850.0 16 20 15 17 9 20 16 23 23 21
1890.0 21 17 16 28 15 25 24 32 15 27
1930.0 13 24 21 26 17 21 27 17 29 24
1970.0 27 22 23 24 29 27 43 45 47 47
2010.0 50 47 52 37 41 42 34 32 31 33
2050.0 47 46 38 26 24 19 20 20 31 41
2090.0 49 53 62 63 63 57 66 54 58 57
2130.0 57 58 58 58 49 54 54 50 52 59
2170.0 51 53 54 46 55 56 55 56 55 57
2210.0 56 58 58 58 58 60 60 59 60 61
2250.0 60 59 60 61 60 66 58 59 57 54
2290.0 50 45 38 34 20 10 3 0 11 6
2330.0 31 48 57 64 83 25 0 12 85 136
2370.0 189 194 174 141 124 119 104 95 105 104
2410.0 104 96 95 106 106 106 106 106 106 106
2450.0 106 108 108 107 107 119 116 109 109 109
2490.0 107 121 108 120 120 120 130 120 121 123
2530.0 122 130 130 129 141 134 139 149 150 150
2570.0 150 160 162 160 171 181 190 206 215 237
2610.0 239 248 248 257 257 259 258 258 259 258
2650.0 269 277 277 272 259 240 221 201 202 203
2690.0 221 231 234 259 267 283 303 323 342 364
2730.0 393 402 412 431 430 437 442 445 456 466
2770.0 487 495 515 535 556 586 615 647 685 740
2810.0 800 852 929 1011 1108 1226 1354 1503 1671 1841
2850.0 2029 2236 2479 2783 3192 3737 4342 4882 5330 5558
2890.0 5587 5389 5109 4812 4542 4377 4327 4337 4458 4678
2930.0 4928 5205 5414 5605 5792 6033 6533 7382 8586 9562
2970.0 10000 9354 8344 6802 5038 3573 2492 1743 1214 888
3010.0 645 494 400 350 326 288 269 259 250 237
3050.0 227 216 216 197 185 177 177 165 166 166
3090.0 158 159 165 155 146 144 145 135 144 130
3130.0 135 133 137 142 130 141 142 141 150 149
3170.0 149 138 130 128 117 113 97 97 91 96
3210.0 87 76 77 84 55 75 69 53 48 53
3250.0 49 39 45 36 41 22 22 22 11 0
3290.0 0 14 2 8 16 37 36 34 53 52
3330.0 72 71 81 94 95 90 93 93 77 66
3370.0 58 55 46 44 55 45 65 73 94 101
3410.0 127 154 159 180 192 164 151 140 129 107
3450.0 100 81 74 74 68 58 51 57 61 52
3490.0 64 54 51 70 62 74 89 134 157 222
3530.0 303 340 402 476 560 585 621 602 646 634
3570.0 608 530 469 396 329 328 231 211 184 150
3610.0 166 163 145 154 130 180 174 192 210 239
3650.0 322 369 429 453 475 535 556 580 532 452
3690.0 412 328 247 168 129 104 94 69 47 42
3730.0 67 58 94 56 102 40 73 40 39 47
3770.0 25 20 23 26 30 34 16 30 29 40
3810.0 44 37 44 57 57 55 44 56 67 63
3850.0 66 61 73 51 28 27 32 42 27 45
3890.0 28 28 12 20 3 23 23 19 13 8
3930.0 0 0 0 0 0 0 0 0 0 0
##END=
