##TITLE=Isocyanic acid, trityl ester
##JCAMP-DX=4.24
##DATA TYPE=INFRARED SPECTRUM
##ORIGIN=Sadtler Research Labs Under US-EPA Contract
##OWNER=NIST Standard Reference Data Program
##CAS REGISTRY NO=4737-21-7
##MOLFORM=C 20 H 15 N O
##XUNITS=1/CM
##YUNITS=ABSORBANCE
##XFACTOR=1.0
##YFACTOR=0.000062231
##DELTAX=4.0
##FIRSTX=450.0
##LASTX=3966.0
##FIRSTY=0.011948
##MAXX=3966
##MINX=450
##MAXY=0.62231
##MINY=0
##NPOINTS=880
##XYDATA=(X++(Y..Y))
450.0 192 182 138 26 148 156 133 137 137 104
490.0 104 87 136 160 124 170 177 206 155 194
530.0 174 157 126 129 93 84 137 160 120 156
570.0 179 175 201 208 275 248 231 245 219 236
610.0 202 234 275 314 314 550 944 1106 838 567
650.0 460 374 370 351 407 556 555 578 724 897
690.0 1298 1931 2741 2834 2217 1379 847 599 467 412
730.0 402 462 560 748 1019 1364 1625 1648 1295 879
770.0 519 339 240 185 161 115 99 109 123 124
810.0 117 104 102 112 93 81 100 90 87 82
850.0 94 76 90 111 128 150 173 196 237 319
890.0 414 575 652 601 519 427 338 276 271 289
930.0 336 395 419 474 594 692 632 448 286 227
970.0 173 151 142 130 125 136 156 221 298 321
1010.0 302 283 258 249 271 368 433 390 258 182
1050.0 161 156 156 151 170 194 201 224 210 191
1090.0 164 155 149 153 141 124 110 110 111 107
1130.0 115 121 155 189 238 291 331 359 379 375
1170.0 373 427 523 652 737 715 658 616 563 482
1210.0 397 333 290 278 267 256 238 221 223 222
1250.0 222 218 234 239 260 280 271 254 219 190
1290.0 173 175 190 198 222 243 271 278 242 200
1330.0 157 166 180 179 171 183 205 218 226 213
1370.0 198 194 200 202 200 196 189 183 185 183
1410.0 184 186 202 197 192 189 228 353 602 869
1450.0 861 596 378 258 214 205 248 324 456 654
1490.0 815 834 685 481 315 208 128 73 48 27
1530.0 27 29 45 53 57 56 53 61 65 58
1570.0 70 75 87 119 168 264 362 424 393 321
1610.0 232 162 124 93 81 49 42 24 10 2
1650.0 0 3 8 16 37 53 89 100 122 120
1690.0 108 96 94 87 88 94 107 118 116 124
1730.0 152 197 215 210 186 181 210 252 256 214
1770.0 176 164 155 145 135 129 143 171 205 208
1810.0 171 127 99 85 76 67 67 59 59 60
1850.0 63 67 73 83 90 94 98 100 99 95
1890.0 96 91 94 91 88 82 80 82 78 74
1930.0 74 89 107 133 162 168 158 144 135 118
1970.0 93 69 60 55 57 55 55 52 52 54
2010.0 54 56 55 58 63 57 60 68 67 73
2050.0 76 78 83 87 95 100 106 112 114 114
2090.0 118 120 125 128 129 137 146 156 165 168
2130.0 173 179 180 181 185 193 203 224 247 267
2170.0 298 331 366 403 443 494 555 623 704 784
2210.0 863 950 1064 1223 1443 1752 2174 2748 3498 4481
2250.0 5723 7297 9012 10000 9286 7256 5121 3495 2492 1890
2290.0 1527 1310 1180 1080 1040 1052 1027 1023 1043 998
2330.0 967 918 867 869 852 803 809 903 821 749
2370.0 624 503 417 335 239 155 118 104 94 85
2410.0 80 76 75 72 61 59 51 47 46 47
2450.0 41 39 41 38 33 33 32 31 34 32
2490.0 28 28 31 30 31 29 29 31 31 29
2530.0 33 31 32 33 29 31 30 26 30 34
2570.0 33 34 40 43 38 36 43 43 44 42
2610.0 41 45 42 41 41 45 46 47 48 49
2650.0 50 53 55 53 58 58 61 55 51 50
2690.0 48 47 46 49 48 48 48 47 48 57
2730.0 50 55 54 54 61 59 63 61 68 66
2770.0 69 68 65 70 70 63 66 68 66 65
2810.0 67 71 68 72 76 77 71 72 69 70
2850.0 72 78 83 84 82 81 89 95 98 108
2890.0 108 114 112 111 111 113 118 115 119 118
2930.0 119 119 124 127 122 117 122 129 133 130
2970.0 129 131 134 135 140 141 142 150 159 172
3010.0 203 237 293 367 477 592 672 722 712 638
3050.0 557 555 656 852 1148 1479 1543 1216 822 666
3090.0 657 623 527 427 339 278 221 172 144 118
3130.0 109 96 92 87 87 82 93 95 94 95
3170.0 96 93 80 74 68 71 70 72 71 74
3210.0 72 73 70 67 60 56 57 52 48 52
3250.0 46 44 47 48 44 38 38 43 33 31
3290.0 35 41 40 30 25 30 37 43 38 27
3330.0 39 37 43 45 50 55 51 52 50 52
3370.0 54 54 60 73 61 61 69 70 74 78
3410.0 77 73 78 70 69 76 76 77 77 77
3450.0 74 87 97 91 82 73 80 88 75 70
3490.0 72 82 85 88 80 88 76 80 89 90
3530.0 91 82 97 103 93 94 92 98 102 90
3570.0 96 102 91 106 114 106 103 92 87 101
3610.0 108 101 100 104 95 121 147 167 169 175
3650.0 171 166 172 171 165 140 123 118 109 104
3690.0 107 100 98 113 105 89 90 85 91 97
3730.0 94 96 94 80 86 80 61 71 76 66
3770.0 83 73 83 71 77 72 67 67 76 67
3810.0 65 72 77 67 89 69 74 74 73 87
3850.0 78 90 74 66 73 77 75 81 67 79
3890.0 84 98 100 96 89 85 93 100 93 75
3930.0 81 96 91 96 110 89 108 112 126 105
##END=
