##TITLE=Acetamide, 2-hydroxy-N-phenyl-
##JCAMP-DX=4.24
##DATA TYPE=INFRARED SPECTRUM
##ORIGIN=Sadtler Research Labs Under US-EPA Contract
##OWNER=NIST Standard Reference Data Program
##CAS REGISTRY NO=4746-61-6
##MOLFORM=C 8 H 9 N O 2
##XUNITS=1/CM
##YUNITS=ABSORBANCE
##XFACTOR=1.0
##YFACTOR=0.000074033
##DELTAX=4.0
##FIRSTX=450.0
##LASTX=3966.0
##FIRSTY=0.000000
##MAXX=3966
##MINX=450
##MAXY=0.74033
##MINY=0
##NPOINTS=880
##XYDATA=(X++(Y..Y))
450.0 0 1313 2827 2360 2408 2990 2121 3052 2829 2708
490.0 3167 2827 3133 3028 2614 2586 2223 2364 2042 2051
530.0 2039 1730 1891 1863 1790 2311 1911 1847 1879 1703
570.0 1742 1819 1788 1859 1809 1894 1787 1780 1776 1687
610.0 1758 1705 1790 1705 1692 1839 1817 1976 1984 1826
650.0 1889 1851 1895 1959 2020 2371 2203 2474 2530 2886
690.0 3506 3396 3053 2653 2254 2072 1962 2006 1957 2016
730.0 2122 2438 2709 3168 3705 4373 4193 3676 2970 2268
770.0 1926 1658 1504 1430 1397 1412 1409 1497 1481 1467
810.0 1507 1473 1494 1500 1469 1543 1510 1513 1474 1438
850.0 1497 1494 1530 1458 1443 1453 1417 1392 1380 1423
890.0 1453 1484 1568 1548 1535 1447 1364 1373 1364 1403
930.0 1375 1430 1470 1563 1629 1658 1592 1555 1541 1499
970.0 1491 1530 1566 1590 1560 1544 1546 1555 1614 1611
1010.0 1635 1691 1779 1930 2080 2274 2395 2521 2724 2986
1050.0 3293 3482 3677 3763 3722 3693 3617 3422 3349 3324
1090.0 3269 3150 3158 3137 2993 2734 2486 2276 2145 2057
1130.0 2033 1989 1988 2048 2129 2178 2207 2291 2393 2452
1170.0 2554 2647 2710 2724 2722 2733 2699 2637 2593 2573
1210.0 2574 2602 2651 2818 3019 3327 3647 3904 4003 3776
1250.0 3454 3163 2991 2935 2888 2915 2993 3136 3349 3529
1290.0 3657 3799 4011 4243 4522 4786 4786 4501 4099 3654
1330.0 3209 2879 2727 2607 2511 2466 2448 2469 2474 2455
1370.0 2436 2467 2481 2532 2551 2612 2694 2768 2883 2985
1410.0 3170 3273 3403 3460 3570 3869 4493 5320 5938 5772
1450.0 4883 3881 3246 3045 3033 3099 3289 3460 3621 3843
1490.0 4267 4932 5728 6110 6510 7144 7871 8734 9532 9950
1530.0 10000 9151 7995 6444 5045 4085 3432 3115 2774 2731
1570.0 2727 2746 3003 3238 3635 4357 5158 5752 6067 5415
1610.0 4617 3784 3190 2831 2585 2408 2356 2394 2437 2627
1650.0 2783 2965 3273 3491 3717 3880 3947 3983 3995 3956
1690.0 3965 3970 4099 4202 4445 4783 5114 5670 5923 5907
1730.0 5788 5299 4550 3813 3175 2739 2388 2168 2014 1904
1770.0 1838 1771 1705 1664 1608 1562 1522 1486 1502 1443
1810.0 1427 1425 1387 1396 1386 1379 1400 1390 1423 1424
1850.0 1429 1426 1434 1430 1426 1451 1415 1401 1396 1388
1890.0 1381 1392 1380 1371 1365 1374 1373 1379 1401 1392
1930.0 1403 1411 1424 1437 1417 1401 1393 1389 1364 1348
1970.0 1334 1322 1315 1335 1330 1338 1333 1337 1335 1327
2010.0 1321 1328 1333 1325 1331 1328 1332 1326 1320 1322
2050.0 1337 1324 1328 1334 1345 1346 1331 1343 1348 1347
2090.0 1348 1349 1351 1342 1344 1342 1344 1347 1354 1349
2130.0 1361 1361 1368 1376 1373 1371 1379 1385 1379 1385
2170.0 1375 1384 1386 1393 1393 1395 1393 1379 1375 1379
2210.0 1363 1364 1367 1363 1373 1366 1367 1372 1382 1386
2250.0 1387 1396 1400 1407 1414 1420 1423 1418 1422 1423
2290.0 1431 1443 1451 1445 1452 1462 1457 1467 1446 1462
2330.0 1457 1467 1469 1466 1509 1483 1465 1452 1482 1482
2370.0 1472 1481 1501 1479 1472 1446 1438 1437 1434 1439
2410.0 1438 1452 1451 1445 1445 1454 1465 1469 1470 1470
2450.0 1474 1485 1478 1481 1489 1488 1476 1486 1496 1480
2490.0 1479 1472 1476 1472 1469 1481 1480 1475 1482 1488
2530.0 1485 1492 1487 1489 1485 1499 1508 1511 1518 1520
2570.0 1519 1515 1524 1523 1530 1526 1530 1536 1536 1543
2610.0 1550 1547 1552 1553 1558 1546 1548 1547 1553 1550
2650.0 1545 1555 1554 1549 1551 1555 1563 1553 1546 1555
2690.0 1555 1550 1550 1552 1554 1557 1552 1567 1567 1573
2730.0 1570 1572 1572 1577 1585 1595 1601 1618 1623 1630
2770.0 1628 1643 1629 1646 1658 1651 1661 1665 1672 1678
2810.0 1677 1695 1709 1709 1723 1735 1746 1759 1770 1783
2850.0 1799 1821 1822 1842 1845 1861 1854 1871 1854 1868
2890.0 1872 1889 1913 1927 1979 2011 2036 2046 2046 2044
2930.0 2070 2084 2086 2075 2053 2015 1974 1944 1926 1909
2970.0 1864 1835 1803 1796 1784 1775 1779 1799 1813 1832
3010.0 1863 1924 1979 2033 2151 2252 2320 2345 2355 2310
3050.0 2290 2305 2380 2448 2491 2524 2492 2425 2308 2211
3090.0 2151 2110 2075 2050 2013 1975 1942 1916 1886 1881
3130.0 1868 1865 1855 1836 1829 1822 1822 1822 1815 1805
3170.0 1829 1835 1846 1861 1877 1897 1912 1908 1929 1927
3210.0 1930 1937 1958 1974 1959 1996 2013 2023 2033 2058
3250.0 2069 2085 2071 2075 2120 2135 2153 2177 2196 2205
3290.0 2212 2232 2261 2276 2298 2291 2313 2323 2342 2371
3330.0 2378 2388 2393 2395 2418 2443 2474 2502 2533 2549
3370.0 2565 2592 2603 2563 2558 2511 2460 2421 2398 2365
3410.0 2401 2478 2629 2833 2962 3008 2967 2769 2545 2395
3450.0 2283 2202 2159 2126 2065 2050 2019 2004 1991 1961
3490.0 1965 1934 1941 1968 1977 1986 2004 1996 1984 1969
3530.0 1933 1916 1907 1871 1823 1813 1802 1766 1740 1735
3570.0 1717 1695 1652 1614 1600 1598 1586 1585 1557 1525
3610.0 1495 1460 1432 1420 1386 1372 1380 1383 1395 1368
3650.0 1371 1381 1433 1488 1545 1612 1656 1683 1685 1640
3690.0 1574 1518 1459 1427 1411 1385 1397 1401 1391 1407
3730.0 1357 1357 1392 1364 1354 1326 1349 1329 1357 1320
3770.0 1338 1329 1317 1314 1314 1315 1325 1314 1314 1314
3810.0 1314 1314 1314 1314 1314 1314 1314 1322 1354 1353
3850.0 1313 1315 1318 1315 1314 1314 1314 1314 1314 1314
3890.0 1314 1314 1314 1314 1314 1314 1314 1314 1314 1314
3930.0 1320 1314 1314 1314 1314 1314 1314 1314 1335 1318
##END=
