##TITLE=3-Pyridinemethanol, .alpha.-methyl-
##JCAMP-DX=4.24
##DATA TYPE=INFRARED SPECTRUM
##ORIGIN=Sadtler Research Labs Under US-EPA Contract
##OWNER=NIST Standard Reference Data Program
##CAS REGISTRY NO=4754-27-2
##MOLFORM=C 7 H 9 N O
##XUNITS=1/CM
##YUNITS=ABSORBANCE
##XFACTOR=1.0
##YFACTOR=0.000062149
##DELTAX=4.0
##FIRSTX=450.0
##LASTX=3966.0
##FIRSTY=0.004785
##MAXX=3966
##MINX=450
##MAXY=0.62149
##MINY=0
##NPOINTS=880
##XYDATA=(X++(Y..Y))
450.0 77 85 160 469 295 481 587 552 733 635
490.0 596 616 474 328 269 328 336 307 399 246
530.0 259 348 270 312 255 233 265 89 168 77
570.0 36 95 36 53 149 244 360 419 525 439
610.0 641 837 773 997 1310 1403 1380 1369 1169 699
650.0 417 270 79 142 76 381 303 312 662 993
690.0 1622 2411 3215 4294 5328 6526 6780 5718 4730 3898
730.0 2942 2158 1508 982 727 735 576 470 535 513
770.0 788 891 1056 1325 1625 1904 2327 2589 3081 3183
810.0 2817 2330 1775 1396 934 675 406 322 346 241
850.0 316 284 305 336 454 656 798 1099 1481 2125
890.0 2793 3415 3746 3925 3623 3111 2453 1850 1396 1126
930.0 933 854 829 824 832 875 809 741 776 780
970.0 827 950 1147 1483 1895 2411 2972 3483 3970 4461
1010.0 4913 5382 5563 5300 4924 4706 4253 3710 3488 3638
1050.0 3812 4081 4426 4933 5693 6525 7639 8748 9647 10000
1090.0 9741 8957 7797 6521 5251 4211 3396 2763 2358 2107
1130.0 1855 1752 1569 1424 1258 1299 1352 1479 1607 1775
1170.0 2015 2273 2432 2629 2722 2710 2690 2678 2713 2905
1210.0 2912 3041 3053 3037 2997 2914 2916 3013 3341 3698
1250.0 4059 4334 4367 4251 3896 3406 2898 2485 2243 2141
1290.0 2180 2300 2519 2841 3147 3410 3643 3687 3598 3444
1330.0 3174 3057 3142 3325 3527 3785 4104 4191 4314 4389
1370.0 4390 4567 4578 4582 4331 3938 3666 3245 3156 3214
1410.0 3655 4383 5109 5608 5704 5427 5050 4101 3281 2720
1450.0 2383 2214 2194 2148 2370 2503 2692 2669 2531 2225
1490.0 1650 1115 628 446 357 340 373 242 241 240
1530.0 264 290 239 363 520 703 995 1200 1708 2184
1570.0 2520 2925 3178 3532 3352 2805 2307 1729 1276 951
1610.0 790 666 705 719 873 903 891 833 753 542
1650.0 368 373 388 463 409 426 455 395 344 298
1690.0 320 378 451 547 615 636 621 511 384 328
1730.0 256 277 210 262 287 278 278 263 219 212
1770.0 166 141 135 117 112 114 93 128 116 95
1810.0 82 72 53 52 51 37 60 84 95 103
1850.0 126 159 175 208 230 244 235 252 265 306
1890.0 365 440 520 529 540 504 460 405 382 350
1930.0 331 293 250 219 202 198 202 196 180 170
1970.0 141 108 92 84 77 74 61 50 41 36
2010.0 28 30 34 16 14 9 5 7 5 12
2050.0 3 2 6 11 19 14 14 23 25 35
2090.0 31 25 23 16 15 17 9 9 5 8
2130.0 4 3 15 6 7 13 11 17 21 17
2170.0 24 26 30 27 26 33 28 30 30 38
2210.0 44 41 48 44 51 56 54 65 63 65
2250.0 75 75 83 78 76 77 79 75 73 70
2290.0 64 64 66 63 63 74 70 60 54 44
2330.0 55 44 60 79 92 102 72 94 89 84
2370.0 91 96 106 107 107 94 87 81 81 75
2410.0 76 77 76 75 81 87 84 89 92 96
2450.0 99 92 94 89 87 84 70 77 73 73
2490.0 78 70 76 75 82 85 80 77 76 76
2530.0 75 75 76 75 74 81 81 91 89 92
2570.0 97 106 116 127 140 152 170 184 195 206
2610.0 213 213 202 206 200 192 183 180 173 166
2650.0 161 164 158 165 157 159 161 164 166 172
2690.0 180 179 176 181 184 190 189 207 218 227
2730.0 238 256 267 280 277 282 291 301 305 317
2770.0 332 367 385 414 443 476 510 546 574 611
2810.0 635 655 679 689 723 758 802 858 951 1070
2850.0 1231 1455 1745 2068 2441 2834 3196 3509 3734 3910
2890.0 3990 3961 3891 3769 3614 3451 3334 3268 3302 3439
2930.0 3639 3810 3907 3889 3753 3552 3376 3411 3706 4326
2970.0 5186 6428 7763 8652 8779 8316 7461 6201 4786 3779
3010.0 3266 3037 2985 3106 3383 3711 4015 4273 4477 4655
3050.0 4804 4845 4640 4243 3787 3254 2757 2502 2522 2525
3090.0 2417 2194 1840 1368 947 654 477 374 325 287
3130.0 272 277 263 274 260 249 247 215 197 186
3170.0 167 161 174 176 171 154 152 135 119 118
3210.0 101 99 96 89 93 86 82 70 65 54
3250.0 57 47 44 46 42 40 39 29 53 52
3290.0 46 54 47 54 53 53 65 62 71 75
3330.0 61 67 73 87 100 79 102 105 107 100
3370.0 101 89 103 122 111 110 127 120 129 131
3410.0 131 126 129 141 138 147 156 133 139 151
3450.0 150 166 173 194 180 212 199 205 206 215
3490.0 180 169 157 144 139 133 120 98 115 134
3530.0 129 108 99 113 108 115 97 108 101 132
3570.0 118 119 98 136 136 150 152 167 198 223
3610.0 283 356 405 623 746 1011 1373 1730 2266 2661
3650.0 2984 3040 2713 2429 1879 1346 864 545 431 304
3690.0 215 163 181 127 82 46 35 53 46 24
3730.0 15 1 1 4 1 1 1 12 1 1
3770.0 1 1 19 5 0 14 1 1 1 1
3810.0 1 1 1 1 1 1 3 2 9 30
3850.0 2 1 18 65 14 5 40 19 50 8
3890.0 1 3 5 1 4 23 4 1 1 43
3930.0 53 2 1 23 14 2 1 7 29 1
##END=
