##TITLE=3-Cyclohexene-1-carboxylic acid
##JCAMP-DX=4.24
##DATA TYPE=INFRARED SPECTRUM
##ORIGIN=Sadtler Research Labs Under US-EPA Contract
##OWNER=NIST Standard Reference Data Program
##CAS REGISTRY NO=4771-80-6
##MOLFORM=C 7 H 10 O 2
##XUNITS=1/CM
##YUNITS=ABSORBANCE
##XFACTOR=1.0
##YFACTOR=0.000060895
##DELTAX=4.0
##FIRSTX=450.0
##LASTX=3966.0
##FIRSTY=0.000000
##MAXX=3966
##MINX=450
##MAXY=0.60895
##MINY=0
##NPOINTS=880
##XYDATA=(X++(Y..Y))
450.0 0 212 458 230 307 278 281 257 266 293
490.0 223 295 182 263 204 263 206 354 367 390
530.0 466 496 652 695 812 880 963 1041 1155 1302
570.0 1421 1495 1466 1476 1391 1336 1215 1147 1202 1258
610.0 1346 1383 1375 1265 1137 979 876 837 901 1067
650.0 1333 1616 1702 1426 1210 963 641 456 285 248
690.0 164 186 199 279 300 393 490 554 633 674
730.0 648 581 485 402 350 319 283 259 248 237
770.0 191 188 185 97 123 108 122 118 169 172
810.0 191 177 170 151 126 117 111 121 106 122
850.0 122 142 148 144 157 165 170 159 186 190
890.0 221 233 263 286 335 390 417 444 459 422
930.0 387 391 406 452 478 493 511 473 431 399
970.0 386 376 366 359 360 364 367 365 350 349
1010.0 338 311 300 317 348 396 450 522 601 682
1050.0 789 902 991 1049 1116 1209 1305 1469 1634 1785
1090.0 1911 1984 2051 2209 2579 3160 4091 5162 6182 6731
1130.0 6870 6489 5556 4593 3859 3439 3093 2786 2404 2029
1170.0 1673 1378 1152 989 906 853 809 783 812 883
1210.0 945 977 974 917 797 662 580 542 513 500
1250.0 487 488 480 487 494 501 533 565 626 669
1290.0 751 806 872 897 901 884 858 860 890 910
1330.0 907 902 847 820 787 747 710 613 620 617
1370.0 685 740 861 931 1003 1005 911 813 671 554
1410.0 426 439 326 451 396 524 544 766 779 858
1450.0 826 810 777 605 557 433 314 249 221 161
1490.0 168 191 155 156 192 131 99 179 135 171
1530.0 116 185 124 223 115 153 114 217 193 153
1570.0 156 188 134 162 130 152 142 187 160 185
1610.0 201 220 246 227 245 211 227 255 245 295
1650.0 386 442 371 358 322 258 248 200 197 250
1690.0 220 233 314 308 371 333 430 504 717 766
1730.0 972 1141 1407 1674 2046 2596 3341 4681 6106 7821
1770.0 8865 10000 9105 8146 6224 4608 3213 2440 1745 1348
1810.0 1031 758 585 454 396 316 274 248 230 206
1850.0 208 202 187 192 176 194 190 187 190 176
1890.0 177 160 158 148 155 152 150 147 151 132
1930.0 150 139 145 125 142 137 132 131 131 122
1970.0 125 125 125 122 129 112 123 118 123 116
2010.0 121 112 109 116 113 121 120 118 114 123
2050.0 117 117 123 119 114 113 116 113 116 114
2090.0 111 117 119 118 116 119 115 122 111 115
2130.0 111 112 106 106 107 105 108 102 106 111
2170.0 112 113 113 114 110 119 116 119 119 123
2210.0 123 123 124 123 123 120 122 125 126 128
2250.0 128 123 125 123 121 120 115 115 110 113
2290.0 106 112 106 109 111 107 110 106 118 113
2330.0 131 133 126 149 148 123 150 140 159 170
2370.0 150 150 142 129 124 121 120 117 115 109
2410.0 103 100 103 103 99 104 103 106 102 107
2450.0 108 107 111 112 107 108 115 110 114 114
2490.0 113 111 111 110 116 111 108 110 107 108
2530.0 109 108 108 107 105 107 107 108 108 107
2570.0 108 109 113 114 115 120 117 117 116 118
2610.0 118 117 118 119 120 119 123 125 125 129
2650.0 131 141 147 149 152 152 152 154 151 146
2690.0 141 141 145 139 142 138 139 143 151 145
2730.0 147 148 146 149 145 152 153 155 157 169
2770.0 171 183 183 179 171 166 170 167 172 174
2810.0 183 188 201 212 243 285 361 479 652 899
2850.0 1112 1246 1312 1286 1180 1054 959 907 904 938
2890.0 1003 1119 1229 1306 1403 1521 1658 1891 2198 2443
2930.0 2586 2741 2769 2537 2337 2169 2056 1931 1741 1572
2970.0 1389 1167 942 770 645 538 458 393 352 326
3010.0 313 307 357 485 802 1444 2075 2164 2152 1991
3050.0 1399 690 422 339 324 319 311 304 285 255
3090.0 224 222 204 203 196 190 191 188 192 188
3130.0 186 180 182 181 176 173 177 169 169 168
3170.0 167 166 162 165 159 166 162 160 167 161
3210.0 167 166 164 160 163 169 159 161 162 161
3250.0 160 159 157 157 157 163 162 164 165 157
3290.0 168 172 173 172 166 164 165 160 161 153
3330.0 155 152 148 152 150 146 141 145 144 138
3370.0 143 137 142 141 141 143 142 149 144 145
3410.0 136 133 136 142 140 139 131 137 131 125
3450.0 133 130 130 128 140 130 123 131 123 133
3490.0 126 146 135 143 133 148 167 160 177 163
3530.0 186 192 195 190 209 199 254 351 743 1744
3570.0 2917 3386 3584 3298 2595 1210 562 296 235 183
3610.0 217 191 188 205 159 240 188 125 156 137
3650.0 248 200 159 175 98 230 161 284 129 164
3690.0 179 190 141 165 162 185 194 150 163 151
3730.0 181 210 212 182 298 186 276 165 179 182
3770.0 179 174 145 217 137 169 146 198 181 259
3810.0 136 201 162 283 185 158 203 238 190 195
3850.0 171 260 229 193 174 222 199 172 191 210
3890.0 176 216 137 244 192 208 155 206 172 174
3930.0 184 141 175 167 173 161 194 140 156 176
##END=
