##TITLE=2-Furanmethanamine, tetrahydro-
##JCAMP-DX=4.24
##DATA TYPE=INFRARED SPECTRUM
##ORIGIN=Sadtler Research Labs Under US-EPA Contract
##OWNER=NIST Standard Reference Data Program
##CAS REGISTRY NO=4795-29-3
##MOLFORM=C 5 H 11 N O
##XUNITS=1/CM
##YUNITS=ABSORBANCE
##XFACTOR=1.0
##YFACTOR=0.000060977
##DELTAX=4.0
##FIRSTX=450.0
##LASTX=3966.0
##FIRSTY=0.017500
##MAXX=3966
##MINX=450
##MAXY=0.60977
##MINY=0
##NPOINTS=880
##XYDATA=(X++(Y..Y))
450.0 287 178 157 276 166 235 86 145 93 63
490.0 58 57 54 28 37 6 10 48 70 93
530.0 58 37 91 92 90 103 138 162 186 186
570.0 212 228 224 267 283 322 325 383 378 434
610.0 436 470 487 484 481 477 468 465 464 447
650.0 467 481 515 530 531 626 651 603 653 667
690.0 674 708 751 791 831 871 961 1021 1121 1255
730.0 1405 1560 1758 1934 2139 2337 2494 2699 2897 3150
770.0 3524 3938 4396 4797 5156 5290 5349 5104 4657 4190
810.0 3799 3508 3374 3331 3294 3210 3094 2972 2714 2393
850.0 2054 1847 1730 1691 1708 1692 1670 1631 1583 1500
890.0 1439 1399 1387 1385 1425 1479 1515 1518 1533 1532
930.0 1472 1392 1316 1270 1243 1243 1241 1253 1253 1238
970.0 1234 1221 1221 1206 1198 1213 1236 1247 1286 1351
1010.0 1402 1483 1580 1731 1886 2145 2503 2966 3650 4559
1050.0 5601 6558 7351 7802 8025 7990 7750 7301 6775 6225
1090.0 5694 5123 4535 4011 3534 3098 2691 2325 1980 1677
1130.0 1397 1169 976 824 710 642 605 614 646 683
1170.0 727 782 830 843 834 806 773 715 661 598
1210.0 547 506 471 439 419 414 414 416 421 416
1250.0 426 433 442 454 478 494 520 549 561 568
1290.0 574 570 547 538 540 557 587 618 642 672
1330.0 694 699 686 674 692 728 767 809 872 960
1370.0 969 914 828 710 615 522 415 345 297 270
1410.0 247 242 236 245 259 289 346 422 545 677
1450.0 852 992 1135 1175 1147 1106 997 840 679 571
1490.0 504 480 462 435 395 333 299 274 259 240
1530.0 231 222 216 216 206 218 215 227 243 250
1570.0 268 301 340 370 416 472 545 635 743 872
1610.0 1014 1159 1284 1345 1362 1294 1196 1034 872 685
1650.0 545 443 338 267 208 167 130 114 93 101
1690.0 117 132 133 94 59 40 31 22 27 26
1730.0 25 29 30 36 52 91 115 118 125 85
1770.0 37 20 11 16 21 21 18 15 14 18
1810.0 20 21 25 28 31 35 35 40 41 42
1850.0 46 43 44 44 35 42 39 40 42 39
1890.0 40 42 38 40 38 35 33 30 29 32
1930.0 33 27 20 15 18 15 16 13 11 5
1970.0 11 9 10 13 12 15 21 26 28 35
2010.0 39 38 41 38 45 38 39 39 36 31
2050.0 28 28 27 21 23 22 20 17 18 17
2090.0 11 10 13 11 12 12 7 4 4 9
2130.0 6 3 2 0 1 3 1 0 1 1
2170.0 8 3 4 6 6 7 8 13 15 16
2210.0 12 12 18 11 12 12 11 9 17 9
2250.0 12 13 15 15 16 20 18 23 31 23
2290.0 27 25 34 33 35 35 29 28 28 34
2330.0 33 24 16 20 26 34 27 15 18 46
2370.0 42 37 26 33 24 18 17 10 19 15
2410.0 18 12 15 17 12 11 14 17 15 13
2450.0 16 13 16 21 17 16 18 13 17 13
2490.0 17 19 24 22 30 34 28 37 36 45
2530.0 46 50 58 66 74 79 88 94 96 100
2570.0 105 106 117 129 137 135 143 154 160 168
2610.0 173 188 192 207 215 227 236 247 259 263
2650.0 279 285 299 308 327 333 351 361 373 384
2690.0 397 398 409 418 422 426 431 438 447 460
2730.0 475 499 511 528 535 531 531 524 527 529
2770.0 539 550 576 607 637 678 733 805 893 1003
2810.0 1137 1301 1501 1755 2064 2426 2893 3457 4142 4935
2850.0 5852 6782 7597 8208 8644 8930 8969 8695 8170 7702
2890.0 7228 6770 6390 6138 6058 6112 6307 6573 6887 7182
2930.0 7464 7602 7678 7742 7776 7856 7939 8242 8494 8809
2970.0 8936 9318 10000 8999 7510 6518 5424 4351 3288 2426
3010.0 1762 1302 1023 839 712 602 528 462 404 347
3050.0 303 266 246 221 203 190 173 161 151 142
3090.0 127 111 112 96 93 92 87 82 83 78
3130.0 69 77 72 63 65 74 69 69 63 67
3170.0 60 61 52 54 51 49 55 63 56 53
3210.0 57 46 45 51 43 43 47 41 37 34
3250.0 32 30 34 24 34 33 36 37 30 25
3290.0 31 34 21 22 27 32 33 35 34 40
3330.0 59 75 106 126 166 171 186 172 156 125
3370.0 85 75 59 53 64 64 81 97 126 146
3410.0 185 200 202 194 177 171 138 98 80 52
3450.0 50 46 34 35 39 34 27 22 26 18
3490.0 10 20 12 15 12 15 16 9 11 17
3530.0 14 22 18 25 29 37 24 29 41 42
3570.0 49 49 59 51 46 33 33 13 18 12
3610.0 18 19 13 15 14 19 28 36 32 20
3650.0 25 15 29 19 23 17 19 36 34 29
3690.0 19 18 16 17 11 19 5 20 14 26
3730.0 21 30 38 31 34 17 28 36 26 10
3770.0 7 34 16 29 31 35 26 20 39 60
3810.0 43 36 30 29 27 32 41 50 49 45
3850.0 45 50 28 18 19 14 35 20 31 45
3890.0 20 33 28 35 18 40 33 54 43 35
3930.0 45 45 40 6 49 54 58 58 49 46
##END=
