##TITLE=1-Penten-3-ol, 4-methyl-
##JCAMP-DX=4.24
##DATA TYPE=INFRARED SPECTRUM
##ORIGIN=Sadtler Research Labs Under US-EPA Contract
##OWNER=NIST Standard Reference Data Program
##CAS REGISTRY NO=4798-45-2
##MOLFORM=C 6 H 12 O
##XUNITS=1/CM
##YUNITS=ABSORBANCE
##XFACTOR=1.0
##YFACTOR=0.000063937
##DELTAX=4.0
##FIRSTX=450.0
##LASTX=3966.0
##FIRSTY=0.027429
##MAXX=3966
##MINX=450
##MAXY=0.63937
##MINY=0
##NPOINTS=880
##XYDATA=(X++(Y..Y))
450.0 429 253 125 123 363 94 446 226 360 263
490.0 236 247 133 139 118 228 213 272 251 289
530.0 222 254 245 199 233 199 207 188 265 188
570.0 278 280 305 305 276 293 197 233 220 204
610.0 165 186 190 165 181 151 178 144 167 174
650.0 203 204 212 237 235 285 322 370 336 356
690.0 319 267 214 154 123 67 67 38 46 13
730.0 49 26 25 8 32 36 23 37 47 54
770.0 52 64 20 91 152 140 204 269 362 379
810.0 399 423 421 419 395 403 400 375 322 309
850.0 254 235 214 207 221 237 280 335 400 455
890.0 514 597 686 852 1140 1638 2289 3039 3578 3805
930.0 3680 3433 2890 2202 1726 1551 1661 1892 2218 2504
970.0 2901 3351 3752 4106 4344 4508 4442 4405 4207 4051
1010.0 3934 3979 4165 4304 4302 4029 3889 3493 2902 2373
1050.0 2014 1772 1638 1547 1447 1376 1300 1286 1274 1308
1090.0 1328 1344 1327 1291 1257 1200 1177 1155 1165 1178
1130.0 1210 1229 1244 1256 1249 1249 1230 1256 1279 1309
1170.0 1305 1294 1229 1122 1004 897 832 803 828 874
1210.0 969 1081 1213 1354 1494 1628 1701 1741 1704 1650
1250.0 1536 1405 1276 1162 1102 1056 1050 1023 1050 1053
1290.0 1067 1084 1100 1089 1059 1011 934 871 817 788
1330.0 773 767 785 822 873 938 1051 1158 1321 1432
1370.0 1581 1728 1851 1895 1877 1810 1698 1448 1330 1192
1410.0 1108 1174 1299 1412 1453 1432 1338 1226 1124 1034
1450.0 1072 1124 1259 1415 1584 1632 1568 1494 1233 1028
1490.0 775 548 391 253 219 170 159 134 117 118
1530.0 106 114 96 104 84 97 76 87 72 86
1570.0 75 71 74 74 79 75 94 84 104 105
1610.0 113 112 136 151 181 235 297 346 390 401
1650.0 400 339 285 203 148 125 89 88 88 68
1690.0 70 66 61 61 66 62 62 57 70 63
1730.0 70 82 107 136 154 155 143 131 101 94
1770.0 86 94 101 90 98 77 83 58 55 46
1810.0 47 39 42 46 49 81 104 166 207 290
1850.0 311 340 324 292 237 175 117 73 53 34
1890.0 35 24 24 25 19 26 24 25 21 24
1930.0 27 22 20 18 23 25 35 38 42 43
1970.0 53 48 52 46 45 36 32 27 23 24
2010.0 18 19 13 19 17 22 24 20 23 19
2050.0 20 20 18 15 14 14 13 17 11 13
2090.0 9 10 8 10 9 11 13 10 8 8
2130.0 9 6 7 5 4 2 2 6 6 11
2170.0 2 8 7 9 8 9 10 10 14 8
2210.0 11 12 16 14 13 12 12 17 12 15
2250.0 14 18 22 23 25 23 28 28 29 22
2290.0 23 23 26 19 21 15 15 14 14 17
2330.0 24 24 23 37 29 31 2 12 27 42
2370.0 60 63 60 54 55 53 53 53 47 52
2410.0 51 53 51 52 55 57 55 56 57 56
2450.0 57 54 58 59 58 57 58 58 55 58
2490.0 56 56 55 54 56 52 54 53 54 57
2530.0 56 60 65 66 68 76 79 85 98 101
2570.0 101 106 113 117 116 129 128 126 124 122
2610.0 121 116 117 111 115 121 118 122 126 126
2650.0 123 126 126 131 128 130 136 134 138 139
2690.0 137 131 131 134 137 142 154 166 182 190
2730.0 206 213 220 222 216 217 215 205 200 206
2770.0 211 216 217 221 232 231 245 257 273 303
2810.0 329 367 420 487 579 693 844 1036 1251 1475
2850.0 1683 1889 2089 2315 2622 3045 3559 3982 4361 4596
2890.0 4731 4761 4669 4443 4165 3939 3708 3542 3438 3429
2930.0 3525 3732 3946 4197 4484 4854 5544 6470 7892 9389
2970.0 10000 9707 9071 8229 6642 5077 3736 2761 2159 1747
3010.0 1430 1203 1063 970 883 785 696 604 541 482
3050.0 460 461 485 550 630 772 937 1196 1362 1600
3090.0 1739 1521 1339 1168 866 614 400 305 238 206
3130.0 190 183 180 179 186 187 191 192 203 198
3170.0 201 200 194 188 177 170 158 152 143 124
3210.0 120 100 91 74 71 57 54 45 48 42
3250.0 48 42 39 40 38 35 38 33 24 26
3290.0 28 18 21 28 16 28 23 18 28 27
3330.0 33 32 35 28 31 20 19 25 28 28
3370.0 23 32 29 33 35 34 35 38 48 47
3410.0 41 41 35 41 38 33 30 36 39 44
3450.0 39 38 42 34 41 43 44 37 39 25
3490.0 28 30 27 38 35 28 31 18 34 47
3530.0 37 20 20 13 36 33 32 35 37 81
3570.0 73 47 56 54 49 56 72 49 55 66
3610.0 92 101 142 187 228 330 533 715 1052 1252
3650.0 1449 1476 1494 1349 1039 764 516 367 229 170
3690.0 102 95 72 57 49 45 47 40 28 53
3730.0 16 52 56 37 26 34 71 13 11 18
3770.0 26 31 10 37 12 25 16 17 40 47
3810.0 29 54 26 76 44 50 65 76 72 69
3850.0 55 74 67 65 56 51 41 46 59 52
3890.0 76 46 50 69 64 41 36 44 36 29
3930.0 27 32 22 35 30 25 27 0 18 18
##END=
