##TITLE=2-Octen-4-ol
##JCAMP-DX=4.24
##DATA TYPE=INFRARED SPECTRUM
##ORIGIN=Sadtler Research Labs Under US-EPA Contract
##OWNER=NIST Standard Reference Data Program
##CAS REGISTRY NO=4798-61-2
##MOLFORM=C 8 H 16 O
##XUNITS=1/CM
##YUNITS=ABSORBANCE
##XFACTOR=1.0
##YFACTOR=0.000080789
##DELTAX=4.0
##FIRSTX=450.0
##LASTX=3966.0
##FIRSTY=0.006544
##MAXX=3966
##MINX=450
##MAXY=0.80789
##MINY=0
##NPOINTS=880
##XYDATA=(X++(Y..Y))
450.0 81 136 89 165 130 91 108 170 139 155
490.0 143 162 211 217 235 238 244 191 215 181
530.0 164 157 179 158 110 136 154 158 160 125
570.0 97 93 73 46 33 34 35 17 29 35
610.0 46 37 46 62 54 61 39 35 36 36
650.0 39 32 29 84 78 25 66 24 37 18
690.0 23 6 25 31 48 46 85 105 143 189
730.0 221 250 242 230 209 188 166 140 125 95
770.0 100 125 152 169 187 197 203 209 187 171
810.0 150 119 121 101 106 112 121 141 164 179
850.0 201 212 235 245 268 298 327 356 395 450
890.0 512 572 609 640 644 632 628 658 691 732
930.0 776 820 888 988 1140 1397 1856 2512 3094 3360
970.0 3309 2875 2351 2000 1843 1831 1893 1972 2049 2105
1010.0 2165 2268 2390 2521 2612 2623 2531 2398 2250 2110
1050.0 1962 1814 1676 1556 1454 1370 1304 1235 1154 1073
1090.0 991 924 876 846 844 850 885 915 957 975
1130.0 988 982 947 908 838 770 698 639 607 608
1170.0 629 653 670 682 699 742 804 868 924 957
1210.0 974 974 976 985 995 1011 1016 1034 1050 1089
1250.0 1139 1187 1216 1206 1163 1095 1030 962 915 887
1290.0 880 896 917 936 926 899 849 805 774 778
1330.0 792 846 897 975 1055 1104 1142 1163 1190 1272
1370.0 1356 1497 1641 1787 1763 1653 1398 1143 946 814
1410.0 710 666 620 615 651 712 810 904 1088 1194
1450.0 1374 1479 1574 1645 1553 1406 1180 939 741 572
1490.0 440 376 345 311 267 251 249 221 224 210
1530.0 215 183 207 175 161 156 158 147 138 144
1570.0 137 127 152 133 136 137 149 131 146 146
1610.0 149 139 173 152 183 174 219 209 239 229
1650.0 273 226 322 361 451 530 577 528 472 348
1690.0 275 233 207 181 185 179 164 175 164 171
1730.0 166 203 218 284 297 273 255 230 227 216
1770.0 229 214 227 191 201 160 171 156 138 132
1810.0 133 113 102 109 80 104 85 109 81 83
1850.0 80 82 73 76 69 62 75 70 73 70
1890.0 68 70 68 70 68 71 72 63 70 69
1930.0 75 68 76 69 74 74 72 70 78 71
1970.0 73 77 79 84 85 91 93 106 105 115
2010.0 110 108 95 94 92 94 93 91 89 86
2050.0 85 83 86 84 82 83 81 81 79 80
2090.0 79 83 80 80 79 83 81 83 80 78
2130.0 84 86 81 79 84 83 83 84 86 85
2170.0 86 87 86 86 86 84 86 87 87 86
2210.0 86 88 85 87 87 94 92 93 86 89
2250.0 90 88 88 89 90 86 86 82 76 73
2290.0 62 48 46 36 28 9 13 16 4 18
2330.0 1 3 24 7 7 54 2 5 3 4
2370.0 20 49 65 77 98 107 114 116 120 112
2410.0 117 114 114 114 111 113 109 111 108 111
2450.0 107 113 109 105 108 104 108 104 106 102
2490.0 108 101 103 103 99 103 101 105 106 110
2530.0 107 113 113 114 114 114 118 119 124 125
2570.0 132 136 139 136 139 141 138 145 142 143
2610.0 143 142 145 147 146 150 153 161 161 158
2650.0 166 172 177 182 191 190 196 195 202 204
2690.0 202 207 199 199 199 205 208 217 224 237
2730.0 259 288 328 359 373 363 331 294 282 276
2770.0 276 284 288 303 318 341 362 389 416 449
2810.0 480 515 560 606 657 730 841 982 1186 1453
2850.0 1823 2302 2934 3724 4592 5226 5518 5584 5271 4820
2890.0 4380 3924 3604 3567 3724 4088 4657 5434 6448 7653
2930.0 8772 9540 10000 9689 9028 8109 7268 6906 7230 8032
2970.0 8206 7552 6157 4447 3196 2534 2175 1985 1863 1764
3010.0 1685 1618 1562 1502 1442 1361 1250 1128 1002 874
3050.0 747 655 570 507 459 419 389 365 344 328
3090.0 307 291 269 255 243 236 222 211 209 208
3130.0 199 195 185 175 161 153 148 139 140 129
3170.0 120 125 119 117 117 113 111 102 101 104
3210.0 94 90 84 82 71 63 64 67 68 59
3250.0 58 65 62 58 52 52 49 51 51 50
3290.0 51 55 54 50 53 54 45 49 49 54
3330.0 58 57 56 58 53 50 54 56 67 70
3370.0 77 75 68 64 64 67 63 73 71 67
3410.0 61 60 57 56 61 76 58 60 58 47
3450.0 52 67 61 54 56 57 52 54 38 44
3490.0 38 45 47 35 42 39 43 39 35 16
3530.0 25 43 34 29 22 20 29 45 31 22
3570.0 25 79 72 69 53 12 56 49 62 67
3610.0 41 73 97 128 187 182 371 578 856 1033
3650.0 1058 1050 797 572 374 225 166 87 106 57
3690.0 78 45 65 33 47 20 11 31 29 10
3730.0 19 3 7 11 17 20 6 52 20 15
3770.0 32 29 46 30 50 44 42 29 33 18
3810.0 62 39 73 20 46 55 40 18 42 26
3850.0 32 7 21 48 38 11 35 51 22 23
3890.0 46 17 53 0 9 46 52 3 22 28
3930.0 8 19 19 26 18 19 18 45 25 36
##END=
