##TITLE=Acenaphthylene, 1,2,2a,3,4,5-hexahydro-
##JCAMP-DX=4.24
##DATA TYPE=INFRARED SPECTRUM
##ORIGIN=Sadtler Research Labs Under US-EPA Contract
##OWNER=NIST Standard Reference Data Program
##CAS REGISTRY NO=480-72-8
##MOLFORM=C 12 H 14
##XUNITS=1/CM
##YUNITS=ABSORBANCE
##XFACTOR=1.0
##YFACTOR=0.000119464
##DELTAX=4.0
##FIRSTX=450.0
##LASTX=3966.0
##FIRSTY=0.043246
##MAXX=3966
##MINX=450
##MAXY=1.19464
##MINY=0
##NPOINTS=880
##XYDATA=(X++(Y..Y))
450.0 362 358 340 241 367 232 269 340 431 231
490.0 90 316 303 198 276 179 226 145 189 175
530.0 189 162 217 178 194 232 233 302 328 332
570.0 250 250 0 107 300 178 243 215 230 209
610.0 230 218 195 203 196 180 185 192 190 186
650.0 179 189 184 189 168 193 169 178 173 174
690.0 188 176 199 187 223 238 280 305 400 358
730.0 338 398 472 724 1215 1986 2182 3828 3317 2275
770.0 1987 1107 634 450 355 352 318 352 279 321
810.0 334 439 461 726 640 509 416 331 274 226
850.0 215 223 246 267 283 258 252 240 223 227
890.0 216 229 211 217 191 192 181 193 211 239
930.0 253 263 292 281 278 266 260 243 233 214
970.0 207 198 189 186 189 197 197 194 194 185
1010.0 192 203 210 221 240 228 240 240 253 276
1050.0 329 362 385 387 350 301 262 235 218 221
1090.0 218 213 203 190 187 186 200 225 242 237
1130.0 235 212 190 180 187 207 221 241 251 264
1170.0 259 264 263 260 256 256 246 240 238 207
1210.0 208 206 225 262 323 364 386 425 436 418
1250.0 393 370 319 271 248 257 273 286 298 302
1290.0 304 282 251 230 226 254 300 370 434 488
1330.0 505 496 476 435 375 319 266 234 201 185
1370.0 171 171 170 170 177 174 179 191 192 200
1410.0 201 202 211 239 294 428 590 783 1049 1151
1450.0 1420 1683 1724 1725 1626 1447 1225 1035 875 699
1490.0 495 318 247 206 208 211 213 205 190 171
1530.0 136 128 115 122 111 117 112 118 114 119
1570.0 125 135 155 178 216 273 383 555 759 907
1610.0 876 760 563 371 238 174 147 144 140 160
1650.0 181 194 188 176 158 141 135 134 137 152
1690.0 170 201 235 260 267 256 242 223 200 194
1730.0 199 204 206 198 193 174 156 143 139 131
1770.0 134 133 132 137 145 151 144 138 123 112
1810.0 98 102 101 105 101 100 106 113 125 141
1850.0 151 145 143 125 107 95 86 84 78 76
1890.0 74 84 95 129 168 202 204 199 170 126
1930.0 95 81 76 65 63 61 58 55 53 56
1970.0 58 56 58 56 56 55 52 53 49 48
2010.0 49 50 53 50 49 48 51 47 52 47
2050.0 49 44 44 41 42 44 42 42 44 44
2090.0 45 43 45 47 46 44 48 45 46 44
2130.0 44 40 40 41 43 42 44 46 40 43
2170.0 42 44 45 48 41 44 42 41 40 39
2210.0 41 42 44 40 42 38 38 37 41 41
2250.0 42 44 41 40 40 38 36 39 43 40
2290.0 44 44 52 53 59 61 62 57 53 48
2330.0 35 31 31 35 30 38 28 26 16 24
2370.0 18 16 28 27 29 24 29 26 24 21
2410.0 17 14 12 10 9 14 12 14 12 16
2450.0 17 17 22 25 29 35 33 32 32 25
2490.0 26 23 24 22 20 19 20 23 22 21
2530.0 23 25 24 30 30 32 37 37 42 43
2570.0 50 52 52 49 50 55 57 60 66 71
2610.0 77 89 86 89 89 88 89 85 88 88
2650.0 95 102 113 123 131 128 127 119 100 93
2690.0 84 77 67 63 58 60 59 59 61 68
2730.0 73 76 81 79 85 84 90 100 111 118
2770.0 126 141 146 153 168 189 200 223 241 258
2810.0 281 300 328 367 461 631 960 1503 2300 3360
2850.0 4169 4532 4772 4804 4413 3885 3208 2627 2159 1934
2890.0 1929 2052 2200 2381 2635 3044 3721 4553 5515 6608
2930.0 7849 9158 9820 9997 10000 9805 9620 8439 6522 4774
2970.0 2885 1389 686 432 327 288 263 251 276 315
3010.0 407 559 784 1055 1286 1413 1511 1565 1624 1733
3050.0 1852 1899 1862 1741 1581 1434 1252 1032 804 599
3090.0 451 342 267 195 143 113 82 67 55 50
3130.0 62 54 57 58 56 59 60 58 59 64
3170.0 65 67 66 71 68 63 60 57 60 53
3210.0 47 37 32 26 31 29 23 19 27 23
3250.0 19 19 20 21 24 26 20 33 36 36
3290.0 36 45 39 41 36 44 40 40 52 42
3330.0 52 58 45 45 37 42 54 54 44 51
3370.0 42 48 44 53 50 52 49 55 47 35
3410.0 44 41 37 32 31 28 29 22 30 22
3450.0 35 28 35 26 37 32 37 23 53 44
3490.0 37 40 51 31 46 62 38 36 50 56
3530.0 45 32 31 14 45 27 30 45 35 24
3570.0 35 39 31 9 37 17 42 29 29 20
3610.0 15 25 35 21 38 36 25 48 48 39
3650.0 27 39 40 25 31 32 13 24 25 23
3690.0 35 22 23 32 31 25 41 33 30 25
3730.0 39 23 9 36 52 11 25 26 28 48
3770.0 40 48 47 54 39 44 37 35 37 34
3810.0 82 41 63 56 66 38 60 66 56 46
3850.0 43 65 19 61 34 59 54 53 58 53
3890.0 56 17 50 52 71 36 64 46 56 28
3930.0 74 73 82 61 65 26 71 80 55 56
##END=
