##TITLE=N-Methylrhodanine
##JCAMP-DX=4.24
##DATA TYPE=INFRARED SPECTRUM
##ORIGIN=Sadtler Research Labs Under US-EPA Contract
##OWNER=NIST Standard Reference Data Program
##CAS REGISTRY NO=4807-55-0
##MOLFORM=C 4 H 5 N O S 2
##XUNITS=1/CM
##YUNITS=ABSORBANCE
##XFACTOR=1.0
##YFACTOR=0.000164319
##DELTAX=4.0
##FIRSTX=450.0
##LASTX=3966.0
##FIRSTY=0.032864
##MAXX=3966
##MINX=450
##MAXY=1.64319
##MINY=0
##NPOINTS=880
##XYDATA=(X++(Y..Y))
450.0 200 152 228 401 522 474 495 513 407 220
490.0 147 97 58 39 30 21 32 33 54 109
530.0 165 189 216 214 182 98 52 46 41 35
570.0 40 47 42 71 74 53 68 80 117 214
610.0 354 472 506 499 476 361 193 96 61 55
650.0 51 41 39 22 40 29 24 26 20 19
690.0 14 21 16 16 19 22 17 17 6 5
730.0 9 4 3 9 5 14 37 50 75 97
770.0 134 159 159 152 140 105 62 38 23 20
810.0 15 12 18 24 41 70 131 219 273 278
850.0 274 250 171 76 36 40 49 64 62 110
890.0 110 71 71 51 31 18 9 3 0 3
930.0 0 4 10 20 30 51 85 147 243 384
970.0 562 711 798 810 775 646 443 277 196 164
1010.0 148 136 107 86 73 65 62 62 67 72
1050.0 86 104 136 184 259 358 484 624 775 921
1090.0 1033 1083 1052 984 905 842 846 947 1153 1423
1130.0 1742 2049 2238 2288 2254 2097 1821 1543 1346 1187
1170.0 1047 905 769 654 574 548 591 730 925 1043
1210.0 1045 1041 975 780 569 469 435 431 450 493
1250.0 564 653 759 879 1033 1240 1555 2115 3095 4631
1290.0 6527 8397 9418 10000 9408 7820 5044 3122 2332 2087
1330.0 2057 2163 2314 2346 2202 1939 1623 1255 890 640
1370.0 500 430 386 358 357 358 380 416 480 592
1410.0 752 922 1212 1388 1356 1277 1162 857 554 409
1450.0 351 348 371 381 389 397 399 369 324 297
1490.0 270 235 222 213 235 247 244 248 256 241
1530.0 238 230 238 250 236 210 193 200 182 165
1570.0 157 148 142 133 124 124 120 120 108 109
1610.0 102 97 101 92 95 85 93 94 84 84
1650.0 102 111 102 96 105 108 119 109 124 138
1690.0 138 159 201 249 278 311 350 398 444 559
1730.0 859 1463 2653 4496 6668 7469 8110 7672 6692 3839
1770.0 1891 1113 817 600 419 284 233 204 202 203
1810.0 219 237 239 240 221 195 159 124 103 89
1850.0 81 76 65 54 58 55 49 41 36 32
1890.0 32 27 26 26 26 29 30 34 34 29
1930.0 25 23 21 23 22 23 25 24 24 23
1970.0 22 22 21 19 18 20 18 17 13 13
2010.0 13 14 17 18 22 25 30 35 42 46
2050.0 52 51 55 59 66 69 71 70 63 58
2090.0 52 49 45 42 35 33 32 29 27 25
2130.0 25 25 27 29 31 30 28 25 22 22
2170.0 21 23 25 24 22 22 23 21 21 20
2210.0 22 22 24 26 26 26 23 20 17 15
2250.0 13 15 16 19 23 29 35 41 46 50
2290.0 55 55 55 55 56 58 55 51 52 49
2330.0 36 31 24 20 16 26 30 22 16 12
2370.0 15 14 14 16 17 14 15 17 22 22
2410.0 24 23 20 18 16 18 16 16 15 12
2450.0 11 8 6 2 2 0 0 1 0 0
2490.0 0 1 2 3 2 5 6 7 7 5
2530.0 6 4 2 0 1 0 1 0 0 1
2570.0 5 3 4 6 9 10 12 13 14 16
2610.0 17 17 21 27 34 37 42 42 42 38
2650.0 33 24 18 10 8 4 2 2 1 1
2690.0 2 2 2 2 3 2 4 7 9 7
2730.0 10 8 10 7 7 8 8 10 7 7
2770.0 6 6 3 3 2 4 4 7 9 13
2810.0 16 16 18 18 18 17 18 21 23 25
2850.0 25 27 26 27 31 33 36 41 44 47
2890.0 52 57 60 64 66 69 70 73 80 90
2930.0 103 126 165 229 289 338 355 351 323 265
2970.0 200 149 112 97 88 84 88 89 75 63
3010.0 59 51 42 36 32 28 26 24 23 24
3050.0 23 24 25 25 27 30 28 29 27 25
3090.0 24 23 23 22 18 15 15 14 12 12
3130.0 11 11 11 8 10 10 11 10 9 10
3170.0 11 12 11 10 9 8 9 8 6 6
3210.0 7 9 9 5 7 6 7 6 6 6
3250.0 7 7 8 8 8 7 6 5 5 10
3290.0 8 9 8 5 6 6 6 8 8 7
3330.0 6 8 7 6 9 8 6 9 9 8
3370.0 11 12 6 9 8 5 8 11 10 9
3410.0 9 9 11 11 8 10 9 12 14 12
3450.0 15 18 17 18 24 38 55 81 102 113
3490.0 114 103 84 54 27 17 10 8 9 5
3530.0 7 7 10 10 9 6 10 11 11 9
3570.0 11 13 14 14 13 13 11 9 6 6
3610.0 9 2 5 2 4 8 7 5 0 4
3650.0 5 8 2 0 9 5 5 4 7 4
3690.0 7 3 7 8 5 8 5 11 6 9
3730.0 10 8 8 13 8 3 4 8 8 7
3770.0 4 4 4 3 7 8 7 10 7 1
3810.0 6 7 8 9 6 3 11 12 12 6
3850.0 7 11 9 7 7 4 5 9 10 7
3890.0 11 8 9 9 8 7 10 11 7 10
3930.0 7 5 13 11 6 9 8 10 10 5
##END=
