##TITLE=Ethylenediamine, N-sec-butyl-,
##JCAMP-DX=4.24
##DATA TYPE=INFRARED SPECTRUM
##ORIGIN=Sadtler Research Labs Under US-EPA Contract
##OWNER=NIST Standard Reference Data Program
##CAS REGISTRY NO=4814-79-3
##MOLFORM=C 6 H 16 N 2
##XUNITS=1/CM
##YUNITS=ABSORBANCE
##XFACTOR=1.0
##YFACTOR=0.000122098
##DELTAX=4.0
##FIRSTX=450.0
##LASTX=3966.0
##FIRSTY=0.008425
##MAXX=3966
##MINX=450
##MAXY=1.22098
##MINY=0
##NPOINTS=880
##XYDATA=(X++(Y..Y))
450.0 69 29 0 43 21 66 49 39 28 37
490.0 31 9 22 56 33 35 41 42 71 63
530.0 54 49 28 51 73 88 78 91 91 78
570.0 77 80 90 84 78 80 83 86 95 113
610.0 124 146 170 205 238 279 324 379 423 477
650.0 540 616 678 761 812 966 1002 1082 1166 1238
690.0 1295 1355 1441 1486 1522 1573 1607 1628 1664 1699
730.0 1735 1762 1818 1890 1986 2121 2303 2543 2743 2897
770.0 2925 2877 2735 2534 2369 2248 2171 2101 2023 1923
810.0 1762 1587 1406 1211 1031 887 777 703 667 633
850.0 623 616 594 572 552 529 496 476 445 417
890.0 395 362 327 297 275 248 228 217 213 207
930.0 204 184 167 152 144 146 155 174 197 228
970.0 234 243 250 268 286 311 350 413 483 544
1010.0 613 654 687 699 702 681 677 699 742 831
1050.0 959 1130 1298 1431 1498 1480 1410 1288 1164 1090
1090.0 1065 1087 1143 1191 1220 1222 1190 1155 1128 1124
1130.0 1147 1160 1157 1180 1262 1421 1637 1885 2071 2127
1170.0 2019 1761 1423 1083 819 635 507 418 349 297
1210.0 254 226 200 183 176 174 179 199 222 249
1250.0 274 298 317 330 332 328 323 316 325 351
1290.0 402 450 503 529 543 542 552 586 674 789
1330.0 916 1050 1190 1303 1370 1405 1403 1384 1415 1508
1370.0 1705 1874 1994 2030 1843 1522 1143 797 571 448
1410.0 361 342 352 409 494 677 903 1240 1519 1828
1450.0 2093 2338 2628 2773 2881 2830 2617 2212 1758 1296
1490.0 927 632 464 339 288 248 200 178 172 158
1530.0 128 150 128 144 135 141 145 155 175 162
1570.0 179 183 224 222 262 295 354 416 508 604
1610.0 720 827 915 942 902 836 711 590 463 386
1650.0 279 281 195 172 144 139 96 94 55 55
1690.0 24 22 18 33 8 12 12 28 15 18
1730.0 12 33 11 12 0 11 10 9 8 3
1770.0 16 9 6 10 22 12 25 15 27 25
1810.0 26 24 34 28 40 33 33 38 33 38
1850.0 30 29 27 29 20 27 19 21 22 18
1890.0 22 16 17 16 12 13 10 17 10 11
1930.0 10 12 10 12 13 11 12 12 14 12
1970.0 15 13 14 13 16 13 16 16 16 14
2010.0 15 11 14 11 12 12 14 14 14 15
2050.0 15 17 17 17 19 16 17 16 18 15
2090.0 15 16 16 15 17 17 16 17 17 15
2130.0 14 14 14 15 15 11 15 14 13 12
2170.0 11 11 11 8 8 4 7 4 5 4
2210.0 2 1 3 2 4 1 0 1 2 1
2250.0 1 3 5 3 5 8 7 9 10 13
2290.0 14 13 15 17 15 14 16 9 6 5
2330.0 7 12 7 13 24 18 10 18 29 33
2370.0 31 36 36 39 36 35 32 34 33 33
2410.0 35 35 36 35 37 39 43 45 45 47
2450.0 45 49 50 51 51 53 53 51 51 51
2490.0 49 51 54 56 58 59 61 66 71 72
2530.0 75 79 85 89 95 100 106 117 130 143
2570.0 159 174 192 207 217 229 238 241 246 249
2610.0 254 261 270 280 290 299 309 321 327 334
2650.0 342 347 352 367 376 391 412 430 447 463
2690.0 479 498 510 525 545 569 589 613 639 661
2730.0 677 693 709 728 745 772 802 842 900 979
2770.0 1081 1204 1359 1531 1727 1936 2143 2346 2538 2709
2810.0 2868 3014 3143 3253 3333 3398 3449 3470 3494 3532
2850.0 3618 3775 3977 4218 4455 4683 4884 5080 5253 5312
2890.0 5313 5240 5132 5101 5226 5535 5996 6570 7177 7739
2930.0 8163 8397 8382 8141 7754 7390 7271 7596 8396 9408
2970.0 10000 9761 8880 7288 5433 3806 2533 1655 1147 869
3010.0 703 599 524 472 428 396 370 349 329 313
3050.0 299 289 280 273 269 262 255 249 240 227
3090.0 216 207 197 186 178 169 163 157 154 151
3130.0 144 142 138 136 134 133 134 137 138 133
3170.0 131 128 124 124 114 111 103 98 90 87
3210.0 83 72 70 65 58 58 51 51 48 44
3250.0 41 36 33 38 40 34 35 36 39 41
3290.0 38 44 47 44 48 55 59 73 86 108
3330.0 134 171 204 229 239 231 206 169 138 112
3370.0 94 85 81 73 79 82 90 103 109 114
3410.0 124 122 117 110 93 80 68 55 53 47
3450.0 43 39 41 35 32 30 33 25 30 27
3490.0 30 27 23 24 24 29 22 25 19 19
3530.0 20 21 23 17 24 20 24 11 35 17
3570.0 30 18 10 22 18 27 14 8 17 12
3610.0 29 22 18 21 11 50 22 21 25 18
3650.0 32 12 31 21 12 34 15 34 16 26
3690.0 28 25 25 21 21 17 35 24 20 29
3730.0 22 24 36 15 62 19 39 20 17 19
3770.0 15 26 18 21 19 18 17 20 29 25
3810.0 20 18 16 26 8 26 27 38 12 22
3850.0 21 46 26 29 33 41 37 40 36 50
3890.0 28 54 31 68 47 41 31 53 43 39
3930.0 36 45 47 29 52 52 40 45 44 35
##END=
