##TITLE=N,N'-di-n-Butyl-1,6-hexanediamine
##JCAMP-DX=4.24
##DATA TYPE=INFRARED SPECTRUM
##ORIGIN=Sadtler Research Labs Under US-EPA Contract
##OWNER=NIST Standard Reference Data Program
##CAS REGISTRY NO=4835-11-4
##MOLFORM=C 14 H 32 N 2
##XUNITS=1/CM
##YUNITS=ABSORBANCE
##XFACTOR=1.0
##YFACTOR=0.000157260
##DELTAX=4.0
##FIRSTX=450.0
##LASTX=3966.0
##FIRSTY=0.001101
##MAXX=3966
##MINX=450
##MAXY=1.5726
##MINY=0
##NPOINTS=880
##XYDATA=(X++(Y..Y))
450.0 7 46 44 27 31 65 25 23 5 23
490.0 31 24 21 39 26 25 39 33 33 37
530.0 22 43 30 37 36 55 32 34 29 26
570.0 36 23 21 31 28 28 37 54 70 78
610.0 86 103 110 130 157 172 201 231 264 291
650.0 333 365 414 452 488 575 580 605 630 642
690.0 663 691 711 700 677 662 641 613 592 560
730.0 546 527 492 470 445 405 367 330 297 270
770.0 244 223 209 189 174 170 160 159 152 147
810.0 125 114 94 81 68 55 51 42 33 33
850.0 35 38 39 36 43 48 48 47 44 43
890.0 46 56 53 53 46 42 33 34 40 46
930.0 63 58 52 54 61 69 71 79 84 100
970.0 83 76 69 62 56 50 52 51 57 58
1010.0 67 71 77 95 118 124 121 109 117 133
1050.0 141 163 181 202 234 266 309 347 387 433
1090.0 467 509 566 644 735 848 987 1180 1435 1744
1130.0 2050 2212 2117 1832 1482 1174 919 719 568 468
1170.0 404 363 330 298 272 250 233 216 201 192
1210.0 185 183 184 186 191 197 200 204 206 211
1250.0 211 212 210 207 204 201 202 208 222 238
1290.0 260 278 305 326 345 347 356 353 371 405
1330.0 473 556 636 693 739 800 862 899 916 884
1370.0 842 780 713 644 554 463 382 328 287 280
1410.0 272 303 332 389 456 595 761 1001 1150 1321
1450.0 1531 1765 1965 1963 1878 1656 1354 1016 747 522
1490.0 389 284 219 161 134 108 70 49 38 31
1530.0 9 28 10 21 25 33 36 35 48 31
1570.0 32 25 44 29 46 46 55 50 60 57
1610.0 63 70 74 85 77 99 94 113 118 144
1650.0 113 144 97 92 90 124 121 141 103 95
1690.0 85 98 114 163 160 143 103 82 68 69
1730.0 61 65 50 40 24 30 34 35 40 41
1770.0 52 44 48 50 62 51 57 40 41 31
1810.0 25 17 24 11 21 11 12 13 10 14
1850.0 8 8 7 11 3 8 4 7 6 4
1890.0 5 3 5 4 2 4 0 8 1 4
1930.0 5 5 6 8 7 9 9 8 9 8
1970.0 11 11 12 14 14 13 19 16 17 17
2010.0 18 18 21 20 23 23 26 26 26 24
2050.0 24 24 23 23 22 21 21 19 19 17
2090.0 17 18 18 16 15 13 13 13 12 15
2130.0 12 13 13 11 10 12 9 11 11 11
2170.0 12 10 9 9 11 8 7 6 7 7
2210.0 4 4 4 4 6 5 7 7 10 12
2250.0 11 13 13 15 17 18 22 25 27 30
2290.0 35 39 44 47 47 51 46 37 38 30
2330.0 25 23 22 27 36 44 39 38 32 31
2370.0 31 36 43 51 47 37 33 34 33 33
2410.0 36 34 35 34 35 34 33 35 33 32
2450.0 32 34 34 33 35 34 37 38 37 38
2490.0 39 40 41 44 48 49 53 54 57 61
2530.0 64 66 71 73 75 76 80 83 88 92
2570.0 96 100 104 111 114 120 126 129 133 140
2610.0 146 148 153 161 167 174 184 191 202 215
2650.0 229 247 263 280 295 312 330 342 357 372
2690.0 387 403 419 426 437 445 456 468 483 498
2730.0 522 548 578 611 638 665 684 706 724 746
2770.0 777 825 892 990 1123 1300 1522 1787 2081 2390
2810.0 2690 2937 3075 3059 2933 2760 2610 2507 2480 2569
2850.0 2814 3213 3658 4004 4140 4090 3957 3869 3885 3895
2890.0 3800 3716 3781 3996 4381 4928 5612 6396 7278 8267
2930.0 9305 9994 10000 9221 7985 6668 5683 5252 5279 5434
2970.0 5232 4422 3325 2426 1827 1424 1148 949 799 692
3010.0 607 542 494 456 423 395 371 346 320 292
3050.0 267 246 229 210 195 186 178 171 164 153
3090.0 148 142 138 131 124 118 113 105 107 102
3130.0 97 94 90 89 85 85 81 78 76 74
3170.0 71 69 70 67 64 61 61 58 54 52
3210.0 49 44 40 39 34 31 31 27 24 25
3250.0 22 22 22 19 16 19 19 18 19 17
3290.0 13 14 16 15 13 17 16 18 18 19
3330.0 22 21 20 19 19 19 23 18 17 19
3370.0 16 14 16 15 18 16 15 13 14 16
3410.0 13 12 8 12 9 8 6 12 11 9
3450.0 10 10 11 11 6 7 10 6 13 8
3490.0 8 7 8 13 5 11 3 3 8 15
3530.0 10 4 11 6 25 7 21 13 28 29
3570.0 39 33 30 32 34 48 31 23 23 21
3610.0 35 33 29 35 31 71 49 60 64 68
3650.0 68 64 72 56 51 56 42 55 37 42
3690.0 40 37 40 42 36 32 42 41 39 42
3730.0 41 46 59 39 72 35 55 38 35 40
3770.0 43 46 43 41 37 37 40 46 44 51
3810.0 43 49 38 52 38 43 46 54 47 52
3850.0 47 68 55 41 44 56 52 50 44 60
3890.0 52 58 46 70 55 50 44 66 53 56
3930.0 53 60 53 59 58 62 58 52 58 59
##END=
