##TITLE=Benzene, 1-methoxy-2-methyl-3-nitro-
##JCAMP-DX=4.24
##DATA TYPE=INFRARED SPECTRUM
##ORIGIN=Sadtler Research Labs Under US-EPA Contract
##OWNER=NIST Standard Reference Data Program
##CAS REGISTRY NO=4837-88-1
##MOLFORM=C 8 H 9 N O 3
##XUNITS=1/CM
##YUNITS=ABSORBANCE
##XFACTOR=1.0
##YFACTOR=0.000152353
##DELTAX=4.0
##FIRSTX=450.0
##LASTX=3966.0
##FIRSTY=0.000000
##MAXX=3966
##MINX=450
##MAXY=1.52353
##MINY=0
##NPOINTS=880
##XYDATA=(X++(Y..Y))
450.0 0 67 81 84 79 85 109 118 138 165
490.0 210 218 239 287 305 297 302 284 242 235
530.0 211 209 187 184 173 173 162 165 171 171
570.0 182 170 160 166 164 159 170 173 179 189
610.0 199 225 245 288 316 341 344 317 281 216
650.0 188 158 155 148 135 166 175 154 186 226
690.0 300 412 605 815 1073 1126 1096 1040 1009 1079
730.0 1217 1340 1228 1056 873 717 650 657 768 1013
770.0 1396 1715 1887 1859 1677 1541 1439 1270 1119 1101
810.0 1211 1283 1189 1031 667 397 285 242 213 211
850.0 198 196 196 213 244 324 495 785 1044 1104
890.0 1044 748 383 203 150 123 120 117 119 118
930.0 121 121 116 121 127 144 155 175 186 197
970.0 202 210 220 232 253 273 305 351 409 476
1010.0 552 617 662 685 690 691 720 781 895 1085
1050.0 1367 1740 2193 2703 3195 3543 3559 3227 2650 1945
1090.0 1396 1075 828 627 501 433 391 366 345 323
1130.0 300 287 278 276 291 318 376 432 487 558
1170.0 675 838 1003 1129 1211 1220 1196 1356 1779 2378
1210.0 2711 2707 2337 1528 897 715 746 956 1406 2199
1250.0 3493 5241 6845 7455 6981 5429 3414 2078 1431 1145
1290.0 1035 1036 1082 1117 1096 1012 899 801 770 771
1330.0 810 916 1149 1615 2377 3433 4658 5705 6105 5747
1370.0 4606 3234 2159 1549 1225 1039 945 822 731 664
1410.0 624 629 608 678 752 924 1113 1352 1504 1530
1450.0 1505 1508 1733 2269 2989 3639 3920 3810 3162 2436
1490.0 1874 1610 1578 1701 1925 2299 2688 3252 3820 4685
1530.0 5648 7039 8467 9273 10000 9090 7947 6293 5052 4194
1570.0 3622 3210 2834 2449 2079 1724 1466 1316 1323 1379
1610.0 1362 1229 975 702 487 392 315 276 255 242
1650.0 205 207 212 192 187 169 141 146 115 110
1690.0 116 124 102 107 102 112 92 77 88 94
1730.0 85 68 97 99 100 93 113 104 107 105
1770.0 93 85 89 87 81 82 77 82 73 92
1810.0 88 95 108 112 124 123 131 124 116 98
1850.0 103 102 96 90 85 82 93 104 107 116
1890.0 122 134 150 163 172 170 165 151 129 118
1930.0 108 100 97 91 95 97 94 95 91 86
1970.0 84 83 82 84 89 85 88 91 92 91
2010.0 93 91 96 103 112 116 119 118 114 114
2050.0 110 111 117 124 135 149 158 158 152 142
2090.0 131 121 113 107 101 96 89 85 83 81
2130.0 81 86 88 92 96 95 92 81 77 73
2170.0 71 69 68 68 66 65 66 69 68 70
2210.0 71 72 69 71 72 73 78 79 84 87
2250.0 89 87 87 87 83 86 86 89 88 88
2290.0 85 82 77 76 73 73 79 78 83 82
2330.0 78 80 78 80 84 80 76 81 78 77
2370.0 83 81 79 79 78 75 77 77 79 82
2410.0 88 93 97 101 103 104 100 98 93 88
2450.0 88 88 87 89 92 90 91 92 94 99
2490.0 101 110 119 129 140 150 158 161 159 150
2530.0 134 125 116 112 110 115 122 128 136 140
2570.0 141 138 130 125 119 117 113 113 112 114
2610.0 110 108 109 108 105 105 103 105 106 105
2650.0 103 102 102 100 99 102 101 102 103 104
2690.0 106 109 111 111 115 119 121 122 124 126
2730.0 121 118 118 121 122 128 129 132 136 134
2770.0 133 133 135 134 139 145 153 159 170 183
2810.0 201 215 239 262 301 359 455 625 826 974
2850.0 1016 961 811 666 584 557 556 563 582 604
2890.0 633 660 691 726 758 797 822 856 876 891
2930.0 920 999 1157 1433 1719 1894 1928 1793 1582 1401
2970.0 1242 1074 945 838 767 729 737 794 910 1087
3010.0 1202 1178 1080 881 654 520 452 411 393 378
3050.0 372 367 370 374 394 422 461 498 516 511
3090.0 486 442 390 335 290 245 208 181 160 147
3130.0 140 140 138 130 132 125 124 118 117 118
3170.0 114 111 112 111 105 105 104 104 101 94
3210.0 94 88 85 86 85 81 86 85 81 81
3250.0 81 82 80 79 80 79 78 83 80 79
3290.0 76 78 79 77 78 77 77 81 78 80
3330.0 75 80 79 76 77 83 79 78 79 78
3370.0 75 76 78 76 81 72 78 77 81 79
3410.0 75 74 76 80 75 74 78 79 80 79
3450.0 76 74 80 76 77 79 78 73 71 71
3490.0 68 78 78 75 75 77 76 74 73 76
3530.0 78 77 75 76 75 77 75 75 69 70
3570.0 78 85 79 70 83 82 76 71 77 75
3610.0 84 82 76 73 73 83 84 76 79 77
3650.0 82 80 71 86 77 79 77 82 75 81
3690.0 83 82 79 76 79 81 76 74 71 71
3730.0 74 81 75 76 88 74 84 73 65 69
3770.0 70 73 67 68 65 65 65 65 65 77
3810.0 75 75 69 74 65 74 75 88 80 71
3850.0 77 86 83 76 79 80 81 81 79 85
3890.0 89 92 79 99 83 102 96 96 82 80
3930.0 76 79 80 76 83 80 78 79 87 87
##END=
