##TITLE=Ethanol, 2-ethoxy-, ester with methyl 5-iodoisophthalate
##JCAMP-DX=4.24
##DATA TYPE=INFRARED SPECTRUM
##ORIGIN=Sadtler Research Labs Under US-EPA Contract
##OWNER=NIST Standard Reference Data Program
##CAS REGISTRY NO=4842-11-9
##MOLFORM=C 13 H 15 I O 5
##XUNITS=1/CM
##YUNITS=ABSORBANCE
##XFACTOR=1.0
##YFACTOR=0.000097977
##DELTAX=4.0
##FIRSTX=450.0
##LASTX=3966.0
##FIRSTY=0.008916
##MAXX=3966
##MINX=450
##MAXY=0.97977
##MINY=0
##NPOINTS=880
##XYDATA=(X++(Y..Y))
450.0 91 33 15 79 151 129 124 140 88 85
490.0 95 87 61 84 82 92 80 114 78 95
530.0 100 110 75 96 92 100 76 55 86 76
570.0 90 71 68 55 54 42 25 42 49 43
610.0 27 49 23 26 29 35 40 33 65 99
650.0 87 68 70 109 132 115 62 63 59 75
690.0 84 112 156 267 565 1111 1569 1387 831 402
730.0 227 176 190 284 511 1033 1239 868 438 208
770.0 110 87 73 85 88 88 93 93 95 111
810.0 117 122 142 151 158 171 169 172 163 180
850.0 179 196 233 235 237 224 200 203 208 237
890.0 300 376 454 412 305 236 205 213 240 280
930.0 297 299 291 273 242 236 240 249 286 338
970.0 411 487 578 678 773 837 831 815 741 646
1010.0 558 515 532 593 678 750 771 705 601 501
1050.0 439 405 391 408 429 463 511 577 657 786
1090.0 981 1265 1636 1916 1999 1997 2012 2072 2253 2514
1130.0 2743 2775 2563 2239 1870 1529 1241 1045 927 878
1170.0 877 901 922 939 975 1044 1131 1211 1318 1477
1210.0 1752 2201 2940 4102 5811 8053 9831 10000 8083 5676
1250.0 3979 3044 2417 1919 1705 1688 1801 2076 2638 3503
1290.0 4463 5114 4987 4014 2662 1659 1081 788 649 582
1330.0 545 528 477 423 397 398 428 441 432 436
1370.0 486 512 504 509 541 525 435 346 312 308
1410.0 304 355 408 547 637 726 801 942 1056 931
1450.0 646 472 378 350 301 255 193 177 177 146
1490.0 119 111 94 88 71 53 73 60 50 75
1530.0 87 100 88 73 115 163 222 265 422 576
1570.0 587 440 238 133 118 111 145 168 173 130
1610.0 100 80 57 76 61 85 67 78 94 98
1650.0 83 100 129 155 166 176 179 218 226 227
1690.0 274 303 332 420 571 726 839 975 1225 1528
1730.0 1744 1997 2600 3948 6073 6740 4854 2727 1318 796
1770.0 558 430 376 408 426 363 254 180 139 120
1810.0 121 110 115 99 92 74 68 66 42 29
1850.0 35 44 38 39 31 13 14 10 9 1
1890.0 2 0 4 0 9 6 7 9 8 17
1930.0 17 27 23 25 29 39 38 41 49 43
1970.0 45 42 43 39 37 32 31 31 28 28
2010.0 27 23 19 20 18 17 23 19 20 22
2050.0 27 26 27 26 29 29 33 36 37 37
2090.0 37 39 38 40 37 37 39 36 36 34
2130.0 36 32 31 29 27 27 29 28 26 26
2170.0 23 25 25 23 20 20 20 21 19 18
2210.0 21 19 16 16 19 15 17 14 18 18
2250.0 17 19 15 19 21 21 23 24 29 26
2290.0 32 34 41 42 43 47 47 46 45 49
2330.0 33 42 37 40 48 51 60 52 46 33
2370.0 39 41 46 42 37 31 25 24 24 25
2410.0 25 24 25 25 22 21 24 24 20 21
2450.0 22 20 21 21 22 21 24 23 26 26
2490.0 27 28 28 31 33 31 33 33 29 32
2530.0 33 28 33 35 36 36 33 34 35 35
2570.0 37 37 36 43 38 43 41 41 38 40
2610.0 39 36 39 37 37 38 37 40 41 42
2650.0 43 40 41 42 44 42 43 44 47 51
2690.0 53 59 59 61 69 70 73 77 79 82
2730.0 85 86 88 91 93 92 93 90 91 94
2770.0 99 102 108 115 122 126 131 134 145 158
2810.0 170 184 193 205 215 233 250 277 323 386
2850.0 458 530 583 639 697 742 766 770 760 721
2890.0 682 649 623 600 560 534 517 501 494 495
2930.0 502 518 555 601 651 722 849 1048 1289 1279
2970.0 1007 816 780 772 743 681 572 488 429 379
3010.0 319 269 229 201 191 187 182 168 145 122
3050.0 113 99 96 98 104 117 135 154 156 137
3090.0 121 105 88 71 61 53 52 50 48 40
3130.0 44 40 37 34 39 40 32 34 38 35
3170.0 36 32 35 31 31 29 29 33 29 27
3210.0 23 27 22 23 20 21 23 22 20 26
3250.0 22 18 17 22 24 23 20 21 23 24
3290.0 27 26 22 20 19 29 35 28 26 32
3330.0 28 24 25 25 31 33 28 26 24 33
3370.0 27 31 24 31 27 28 32 35 35 29
3410.0 31 29 24 24 34 35 36 38 33 37
3450.0 35 35 34 39 48 54 60 67 57 45
3490.0 27 27 31 32 21 15 22 32 28 34
3530.0 28 26 23 20 21 22 20 25 27 27
3570.0 28 43 60 83 88 67 38 33 23 17
3610.0 25 22 26 24 24 27 19 27 25 24
3650.0 23 20 23 27 29 22 25 17 16 32
3690.0 23 18 38 26 35 27 29 29 31 39
3730.0 26 29 37 26 18 14 19 29 24 22
3770.0 36 21 27 26 24 26 25 25 32 15
3810.0 21 21 18 14 28 19 22 19 24 21
3850.0 27 18 22 26 29 28 18 34 37 33
3890.0 26 33 27 32 31 33 42 42 25 23
3930.0 35 35 35 46 37 39 37 42 44 47
##END=
