##TITLE=Hexadecane, 1-chloro-
##JCAMP-DX=4.24
##DATA TYPE=INFRARED SPECTRUM
##ORIGIN=Sadtler Research Labs Under US-EPA Contract
##OWNER=NIST Standard Reference Data Program
##CAS REGISTRY NO=4860-03-1
##MOLFORM=C 16 H 33 Cl
##XUNITS=1/CM
##YUNITS=ABSORBANCE
##XFACTOR=1.0
##YFACTOR=0.000085770
##DELTAX=4.0
##FIRSTX=450.0
##LASTX=3966.0
##FIRSTY=0.006175
##MAXX=3966
##MINX=450
##MAXY=0.8577
##MINY=0
##NPOINTS=880
##XYDATA=(X++(Y..Y))
450.0 72 66 71 69 67 56 61 59 69 47
490.0 77 52 36 58 40 39 48 28 19 32
530.0 31 47 44 46 45 42 50 43 27 41
570.0 20 23 35 40 79 24 35 28 32 31
610.0 30 47 45 36 46 61 65 79 102 126
650.0 154 190 220 228 193 153 112 90 82 93
690.0 103 103 128 157 183 231 271 307 331 343
730.0 334 356 362 333 295 252 234 207 192 167
770.0 155 132 125 125 107 101 96 85 95 91
810.0 95 92 101 88 85 74 75 80 75 76
850.0 73 78 89 69 72 76 74 81 85 86
890.0 91 92 91 82 87 80 81 75 74 74
930.0 75 75 70 69 70 71 68 77 68 70
970.0 64 70 75 64 65 65 69 65 65 65
1010.0 64 64 64 64 71 70 70 71 71 71
1050.0 75 76 81 78 75 73 71 68 59 59
1090.0 59 54 54 47 54 54 55 59 57 51
1130.0 51 50 47 48 38 42 43 37 36 33
1170.0 28 12 26 57 104 105 93 92 83 77
1210.0 71 82 82 82 76 88 93 102 113 128
1250.0 148 159 176 194 206 218 241 267 291 328
1290.0 348 363 365 365 360 349 321 297 272 243
1330.0 226 224 235 264 290 311 320 303 277 252
1370.0 233 204 181 175 162 135 114 105 98 96
1410.0 100 100 113 123 146 176 224 291 377 491
1450.0 610 698 751 767 721 612 452 321 224 166
1490.0 132 102 92 77 69 67 56 55 50 48
1530.0 43 36 38 32 32 30 30 30 27 29
1570.0 26 28 29 24 28 24 24 24 22 22
1610.0 23 23 19 19 20 17 17 18 16 17
1650.0 17 18 16 16 16 16 16 16 17 15
1690.0 17 15 18 17 16 16 18 15 20 18
1730.0 15 16 22 21 22 27 20 14 20 13
1770.0 9 8 12 9 8 8 9 7 8 7
1810.0 8 8 8 6 8 8 6 6 6 7
1850.0 7 7 7 7 7 7 5 5 5 5
1890.0 6 6 6 6 5 5 6 5 5 5
1930.0 5 5 5 5 4 4 4 4 4 4
1970.0 3 3 3 3 3 8 4 6 5 6
2010.0 7 9 8 9 14 19 20 18 20 17
2050.0 24 19 20 13 13 19 14 19 14 14
2090.0 13 12 11 7 7 10 8 7 11 7
2130.0 7 6 6 6 6 6 12 12 5 5
2170.0 5 2 1 0 0 6 0 5 5 4
2210.0 4 4 7 7 5 5 4 4 5 4
2250.0 4 4 10 8 6 10 10 10 10 17
2290.0 10 16 23 18 18 19 14 15 19 22
2330.0 17 17 23 25 34 29 19 19 37 47
2370.0 43 47 48 42 32 25 19 19 19 20
2410.0 20 19 19 19 19 19 23 21 21 25
2450.0 26 25 20 26 27 20 22 26 31 30
2490.0 32 32 33 33 32 32 38 38 38 45
2530.0 38 42 46 42 46 46 45 45 40 46
2570.0 45 52 53 51 51 51 51 58 58 58
2610.0 58 58 63 65 69 76 70 75 73 79
2650.0 81 88 91 103 110 121 127 128 128 128
2690.0 123 116 115 112 112 112 112 105 112 117
2730.0 118 117 124 130 131 133 134 133 135 142
2770.0 141 146 159 164 182 188 199 218 231 253
2810.0 273 296 331 371 405 457 521 616 764 995
2850.0 1389 2020 2896 3641 3738 3286 2701 2236 1962 1799
2890.0 1689 1688 1822 2092 2475 2942 3537 4328 5541 7261
2930.0 9096 10000 9108 7510 5910 4508 3518 2961 2756 2667
2970.0 2422 1993 1501 1148 917 794 740 706 630 506
3010.0 402 341 295 260 236 214 190 172 162 149
3050.0 136 131 118 113 106 102 101 96 95 86
3090.0 79 76 75 75 69 64 68 64 64 53
3130.0 49 51 46 53 49 48 48 48 47 54
3170.0 57 54 54 47 39 43 43 42 38 43
3210.0 32 32 32 27 31 20 27 24 27 27
3250.0 27 20 32 28 27 22 27 27 27 26
3290.0 30 27 23 32 28 22 22 22 22 22
3330.0 23 24 27 23 23 30 26 23 24 29
3370.0 23 23 24 23 29 25 24 29 24 28
3410.0 28 23 34 30 25 25 24 25 13 26
3450.0 19 26 28 24 19 25 20 26 10 14
3490.0 15 26 20 14 20 11 17 18 16 15
3530.0 16 17 15 16 16 21 15 22 19 16
3570.0 14 18 27 12 20 22 22 28 29 29
3610.0 28 28 28 29 28 27 30 36 33 29
3650.0 29 35 36 36 35 35 42 34 39 36
3690.0 35 42 42 31 42 37 49 42 40 43
3730.0 40 49 52 56 54 49 55 49 48 49
3770.0 54 60 57 46 55 55 48 59 59 58
3810.0 57 58 67 65 52 54 58 52 57 63
3850.0 60 65 59 68 66 53 51 56 60 61
3890.0 53 47 47 54 49 55 58 49 54 50
3930.0 48 45 48 45 42 46 45 51 51 49
##END=
