##TITLE=Pentadecane, 1-chloro-
##JCAMP-DX=4.24
##DATA TYPE=INFRARED SPECTRUM
##ORIGIN=Sadtler Research Labs Under US-EPA Contract
##OWNER=NIST Standard Reference Data Program
##CAS REGISTRY NO=4862-03-7
##MOLFORM=C 15 H 31 Cl
##XUNITS=1/CM
##YUNITS=ABSORBANCE
##XFACTOR=1.0
##YFACTOR=0.000162115
##DELTAX=4.0
##FIRSTX=450.0
##LASTX=3966.0
##FIRSTY=0.000000
##MAXX=3966
##MINX=450
##MAXY=1.62115
##MINY=0
##NPOINTS=880
##XYDATA=(X++(Y..Y))
450.0 0 26 68 64 90 77 57 37 43 36
490.0 27 37 47 62 41 53 56 50 48 46
530.0 53 37 28 35 40 47 46 46 38 43
570.0 39 49 29 33 34 43 50 39 38 42
610.0 44 47 52 53 55 58 76 79 96 118
650.0 135 174 227 238 227 184 138 111 103 105
690.0 108 121 136 156 182 208 259 288 320 338
730.0 347 362 366 355 330 287 248 238 210 194
770.0 168 145 132 124 119 109 104 101 101 105
810.0 98 97 95 92 93 88 87 85 85 89
850.0 81 86 86 87 88 91 92 89 94 94
890.0 97 99 101 100 102 108 105 100 95 93
930.0 89 91 92 93 93 95 100 103 106 111
970.0 111 108 106 106 111 111 110 108 111 110
1010.0 111 114 118 120 123 130 135 137 141 139
1050.0 139 140 136 135 129 126 126 121 118 113
1090.0 111 108 107 110 114 117 119 119 116 111
1130.0 109 105 101 101 103 106 112 121 126 126
1170.0 125 119 118 113 111 110 111 111 112 112
1210.0 113 118 124 130 139 147 154 164 172 179
1250.0 190 203 217 229 241 253 267 287 312 345
1290.0 372 387 391 391 386 375 353 328 303 276
1330.0 257 253 266 291 318 344 356 343 321 302
1370.0 278 257 235 233 217 188 154 139 127 124
1410.0 121 125 133 145 164 195 249 317 410 520
1450.0 648 743 817 850 806 699 534 380 271 204
1490.0 160 132 113 98 91 86 72 69 66 59
1530.0 55 53 54 48 48 46 46 44 45 39
1570.0 40 39 44 36 37 38 38 38 37 37
1610.0 36 36 37 35 37 36 41 40 40 41
1650.0 37 38 41 32 35 37 35 37 36 39
1690.0 36 37 41 44 45 47 49 55 56 63
1730.0 76 85 96 105 116 124 127 110 92 73
1770.0 65 54 48 46 42 36 37 33 31 32
1810.0 30 28 28 28 27 28 25 26 23 27
1850.0 24 24 24 25 25 24 24 23 24 23
1890.0 23 24 24 24 23 24 23 24 23 23
1930.0 23 23 24 23 24 23 24 23 24 24
1970.0 24 25 25 24 25 25 26 25 26 28
2010.0 29 29 29 32 33 34 36 35 35 36
2050.0 34 33 32 32 31 33 31 29 29 30
2090.0 28 27 28 28 27 27 27 29 28 25
2130.0 26 27 29 27 28 28 30 29 30 29
2170.0 30 30 29 29 29 30 28 30 28 27
2210.0 28 28 29 28 26 27 29 29 31 28
2250.0 30 31 31 31 30 32 32 34 35 38
2290.0 40 43 47 50 53 56 54 53 54 50
2330.0 49 45 44 46 56 50 65 52 60 52
2370.0 51 44 47 46 42 36 35 35 32 33
2410.0 33 32 32 32 32 32 31 31 31 31
2450.0 33 31 31 33 31 32 33 35 35 35
2490.0 35 37 35 35 37 37 38 41 41 42
2530.0 44 44 47 46 46 46 47 48 48 51
2570.0 50 52 53 53 57 56 57 60 61 63
2610.0 66 68 68 70 73 75 78 80 83 86
2650.0 88 92 95 99 105 108 110 113 117 118
2690.0 119 117 112 111 107 104 105 103 106 110
2730.0 110 113 117 122 125 126 126 128 132 135
2770.0 140 146 154 161 174 188 205 222 239 256
2810.0 277 302 333 374 421 477 550 654 811 1063
2850.0 1476 2154 3084 3885 4000 3541 2918 2437 2157 1990
2890.0 1863 1845 1982 2268 2675 3179 3799 4621 5892 7634
2930.0 9334 10000 9416 8060 6405 4922 3842 3272 3104 3066
2970.0 2833 2338 1752 1312 1045 897 830 786 703 570
3010.0 456 385 340 302 272 245 223 202 184 170
3050.0 156 147 135 126 122 117 112 109 108 104
3090.0 100 93 87 84 79 76 75 70 70 65
3130.0 66 64 63 62 60 61 58 58 59 56
3170.0 55 54 54 51 50 50 48 46 46 45
3210.0 41 44 45 39 38 36 33 35 35 35
3250.0 33 35 35 36 35 33 32 34 32 34
3290.0 32 34 32 32 33 33 31 35 33 33
3330.0 34 34 39 36 36 38 35 31 38 34
3370.0 36 38 38 37 34 38 36 37 41 37
3410.0 39 37 37 36 35 38 37 36 38 37
3450.0 35 37 39 39 36 37 34 36 38 34
3490.0 35 35 32 34 33 33 33 32 36 33
3530.0 33 33 32 34 32 33 30 30 31 30
3570.0 28 27 27 34 31 34 30 29 31 26
3610.0 34 32 33 33 30 37 29 33 33 34
3650.0 39 33 40 36 41 41 35 37 33 33
3690.0 31 31 30 27 29 33 34 26 29 35
3730.0 27 28 31 37 39 31 34 28 28 31
3770.0 28 29 28 36 31 35 31 32 32 29
3810.0 27 31 27 34 30 33 39 39 27 29
3850.0 35 45 39 37 40 39 37 32 37 36
3890.0 35 36 31 38 36 37 35 39 36 29
3930.0 41 31 27 31 37 32 35 39 38 38
##END=
