##TITLE=4H-1-Benzopyran-4-one, 2,3-dihydro-2-phenyl-
##JCAMP-DX=4.24
##DATA TYPE=INFRARED SPECTRUM
##ORIGIN=Sadtler Research Labs Under US-EPA Contract
##OWNER=NIST Standard Reference Data Program
##CAS REGISTRY NO=487-26-3
##MOLFORM=C 15 H 12 O 2
##XUNITS=1/CM
##YUNITS=ABSORBANCE
##XFACTOR=1.0
##YFACTOR=0.000065570
##DELTAX=4.0
##FIRSTX=450.0
##LASTX=3966.0
##FIRSTY=0.014294
##MAXX=3966
##MINX=450
##MAXY=0.6557
##MINY=0
##NPOINTS=880
##XYDATA=(X++(Y..Y))
450.0 218 142 147 104 178 162 304 443 582 740
490.0 863 672 432 333 196 120 119 195 332 534
530.0 582 378 215 203 242 362 462 640 766 727
570.0 636 794 795 757 1210 1515 903 275 109 42
610.0 28 1 76 127 194 317 349 182 73 110
650.0 155 289 460 786 818 781 891 938 1101 1418
690.0 2149 2916 3225 2529 1781 1330 1156 1210 1347 1377
730.0 1560 2008 2309 2452 2858 4158 5754 6976 6571 4975
770.0 3245 1988 1290 819 556 430 350 318 278 323
810.0 366 376 311 266 295 476 848 1000 761 554
850.0 543 609 688 739 650 416 263 179 189 256
890.0 339 517 865 1682 2415 2375 1777 1148 742 500
930.0 350 262 218 261 390 554 628 552 486 536
970.0 656 805 884 929 1044 1104 1129 1245 1149 887
1010.0 899 1188 1571 1962 2288 2235 1859 1698 1721 1709
1050.0 1689 1724 1944 2436 2553 2087 1621 1235 960 757
1090.0 626 560 627 871 1394 2627 4111 3931 2435 1427
1130.0 971 779 899 1358 2255 3144 3517 2858 1551 978
1170.0 904 923 1016 1092 1214 1386 1792 2425 3179 3640
1210.0 3535 3690 4697 6439 8005 8116 6379 4143 2660 1984
1250.0 1695 1677 1849 2141 2297 2145 1926 1871 2126 2796
1290.0 4148 6341 8762 10000 9355 8030 7041 6357 5314 4206
1330.0 3618 3584 3704 3482 2961 2552 2475 2620 2930 3065
1370.0 2790 2164 1593 1285 1111 1005 930 916 945 969
1410.0 948 967 956 967 952 1006 1157 1390 1867 2502
1450.0 3652 4843 6916 8999 8924 8292 6964 5262 4037 3122
1490.0 2497 2307 2154 1748 1320 992 774 660 605 625
1530.0 612 666 721 787 914 1072 1271 1440 1827 2319
1570.0 3254 4320 4868 4910 4669 4465 4884 5976 7199 8028
1610.0 7629 6601 5285 4138 3298 2820 2711 2828 2879 2648
1650.0 2427 2119 1793 1494 1370 1418 1643 2054 2597 3341
1690.0 4115 4671 4980 5481 6575 8353 9560 9101 6821 4353
1730.0 2550 1688 1193 986 808 763 726 686 623 553
1770.0 492 424 418 379 383 369 401 420 415 393
1810.0 349 315 270 233 194 177 175 161 128 104
1850.0 106 105 110 112 127 131 160 162 165 167
1890.0 169 160 146 139 139 141 137 151 169 209
1930.0 228 238 252 270 301 312 306 274 241 187
1970.0 134 98 82 71 64 51 41 42 38 39
2010.0 44 55 66 68 73 69 73 69 73 76
2050.0 84 88 93 92 80 72 58 49 43 33
2090.0 29 26 21 19 18 11 16 13 16 19
2130.0 28 32 37 35 30 27 19 21 19 20
2170.0 19 22 20 25 20 16 19 13 11 7
2210.0 7 1 9 12 14 19 18 17 13 12
2250.0 12 21 24 29 28 32 36 42 57 65
2290.0 71 86 92 97 91 91 82 75 78 49
2330.0 36 30 30 1 45 63 13 28 0 1
2370.0 11 39 69 80 76 56 52 48 45 51
2410.0 56 61 63 63 67 67 74 89 93 105
2450.0 113 114 105 91 80 72 67 63 65 59
2490.0 64 59 55 58 58 58 62 70 72 80
2530.0 81 82 84 82 84 84 80 79 79 81
2570.0 85 84 87 89 100 105 110 113 127 136
2610.0 138 138 137 141 127 126 124 119 116 107
2650.0 109 106 101 99 103 100 97 95 103 111
2690.0 114 118 126 129 127 123 121 120 124 120
2730.0 126 123 127 132 134 138 140 152 161 165
2770.0 168 174 171 171 165 163 161 167 168 172
2810.0 183 184 195 203 213 217 222 237 254 274
2850.0 315 354 406 470 545 627 694 734 716 648
2890.0 572 530 518 539 569 603 639 625 568 496
2930.0 450 445 462 493 516 517 482 440 423 436
2970.0 470 523 597 646 610 529 483 476 506 565
3010.0 646 735 849 981 1166 1378 1586 1725 1743 1675
3050.0 1596 1561 1604 1714 1916 2250 2518 2518 2282 1972
3090.0 1694 1380 1087 901 779 689 611 537 453 391
3130.0 343 323 307 306 309 310 305 299 290 288
3170.0 282 278 268 267 254 250 242 236 228 221
3210.0 218 211 210 206 195 197 195 190 186 182
3250.0 179 179 177 171 167 161 160 162 153 150
3290.0 155 149 139 137 134 140 139 134 133 128
3330.0 127 130 133 128 136 143 156 160 165 180
3370.0 178 165 165 157 154 166 165 179 195 219
3410.0 215 181 158 132 114 92 75 72 69 63
3450.0 55 63 62 63 55 57 59 55 55 44
3490.0 44 50 41 31 38 42 48 45 39 51
3530.0 56 50 37 42 24 20 27 30 15 19
3570.0 24 20 26 17 18 24 13 18 13 19
3610.0 20 16 12 4 9 9 27 20 36 19
3650.0 18 23 22 28 20 9 7 22 23 14
3690.0 11 10 22 14 14 22 4 10 21 17
3730.0 19 14 19 11 32 8 12 14 20 17
3770.0 10 10 14 8 23 22 22 10 15 12
3810.0 24 18 1 21 18 18 8 10 8 8
3850.0 9 42 28 33 32 15 14 28 31 11
3890.0 20 42 51 40 42 38 51 32 23 22
3930.0 14 2 31 29 26 39 30 21 20 16
##END=
