##TITLE=1,2-Benzenediol, 3-methyl-
##JCAMP-DX=4.24
##DATA TYPE=INFRARED SPECTRUM
##ORIGIN=Sadtler Research Labs Under US-EPA Contract
##OWNER=NIST Standard Reference Data Program
##CAS REGISTRY NO=488-17-5
##MOLFORM=C 7 H 8 O 2
##XUNITS=1/CM
##YUNITS=ABSORBANCE
##XFACTOR=1.0
##YFACTOR=0.000062366
##DELTAX=4.0
##FIRSTX=450.0
##LASTX=3966.0
##FIRSTY=0.000000
##MAXX=3966
##MINX=450
##MAXY=0.62366
##MINY=0
##NPOINTS=880
##XYDATA=(X++(Y..Y))
450.0 0 894 1658 687 758 1525 598 1231 1091 667
490.0 1268 961 1082 1046 799 735 669 898 746 846
530.0 782 577 921 949 959 1239 1081 1036 1269 1212
570.0 1209 1159 930 864 832 936 839 887 777 729
610.0 882 802 820 761 781 833 784 839 814 806
650.0 820 800 952 910 1061 1328 1463 1620 1668 1561
690.0 1594 1420 1227 1381 1624 1884 2153 2843 3352 2672
730.0 2228 2183 1994 1923 2117 2175 2678 3789 3538 3594
770.0 3122 2445 1974 1619 1149 1079 947 1002 986 971
810.0 1144 1196 1451 1670 1685 1829 1777 1755 1548 1312
850.0 1147 1013 997 939 844 877 836 853 848 812
890.0 956 943 995 1094 1151 1174 1270 1417 1773 2316
930.0 2779 3030 3175 3208 3061 2581 2049 1652 1457 1327
970.0 1300 1345 1357 1452 1532 1648 1729 1827 1952 2081
1010.0 2125 2066 1987 1874 1679 1457 1276 1193 1144 1154
1050.0 1177 1197 1309 1396 1558 1725 1917 2140 2151 2077
1090.0 1991 1864 1635 1430 1282 1183 1165 1216 1239 1314
1130.0 1495 1852 2440 3173 3795 4212 4625 5131 5531 5750
1170.0 6063 6578 7108 7524 7484 6786 6092 5395 4439 3547
1210.0 3016 2958 3253 3762 4462 5334 6037 6337 6226 6027
1250.0 5597 5129 5193 6083 7585 8928 9705 10000 9893 9192
1290.0 7816 6489 5619 5017 4777 4495 3786 2939 2386 2074
1330.0 1949 1976 2146 2413 2629 2797 2813 2767 2503 2076
1370.0 1664 1340 1133 1018 971 930 906 860 827 822
1410.0 840 865 937 1001 1047 1149 1245 1427 1624 1814
1450.0 2048 2272 2746 3494 4360 5588 6574 7230 7460 7334
1490.0 6886 5882 5000 4498 4164 3815 3391 3011 2542 2044
1530.0 1657 1425 1314 1282 1231 1212 1204 1170 1200 1207
1570.0 1240 1292 1356 1511 1637 1835 2016 2103 2222 2294
1610.0 2355 2399 2333 2317 2183 2005 1771 1466 1231 1000
1650.0 907 860 804 815 835 796 757 734 720 714
1690.0 707 684 673 689 703 700 713 723 744 757
1730.0 768 786 782 786 791 816 794 786 795 784
1770.0 806 802 810 823 834 843 872 911 944 965
1810.0 985 968 952 901 844 777 717 668 643 636
1850.0 639 642 647 657 677 694 732 729 759 761
1890.0 753 748 723 692 685 656 637 629 610 604
1930.0 600 589 586 594 600 604 612 609 603 603
1970.0 598 595 584 568 580 579 574 573 574 581
2010.0 573 576 574 572 579 583 581 575 585 586
2050.0 588 601 606 609 600 606 604 596 589 591
2090.0 586 580 577 581 586 585 573 572 574 565
2130.0 568 578 574 579 579 584 588 589 594 604
2170.0 602 602 600 584 597 586 587 592 590 594
2210.0 593 594 583 587 582 576 572 573 571 566
2250.0 565 583 580 583 579 570 590 594 597 612
2290.0 629 637 663 663 670 683 671 664 643 635
2330.0 590 568 544 595 586 617 578 582 576 567
2370.0 550 543 587 604 622 610 597 601 596 617
2410.0 609 601 616 622 631 638 625 622 627 622
2450.0 633 622 625 629 646 627 627 623 612 616
2490.0 610 611 596 605 613 604 617 613 615 620
2530.0 634 622 631 637 616 622 610 588 587 588
2570.0 582 573 573 567 581 583 574 570 567 572
2610.0 561 562 573 565 576 576 573 567 555 558
2650.0 554 555 562 551 548 545 550 539 570 580
2690.0 570 578 589 583 567 575 591 580 590 586
2730.0 595 595 612 616 618 611 604 592 578 550
2770.0 552 544 551 547 549 558 556 566 559 569
2810.0 579 586 597 606 620 631 648 673 700 749
2850.0 842 954 1040 1139 1211 1285 1271 1259 1229 1180
2890.0 1150 1130 1140 1168 1248 1338 1459 1648 1824 2044
2930.0 2188 2217 2168 2055 1879 1695 1487 1374 1371 1304
2970.0 1270 1262 1286 1291 1278 1230 1174 1089 1013 939
3010.0 882 862 911 964 1083 1252 1464 1671 1817 1981
3050.0 2102 2201 2218 2173 2075 1982 1828 1617 1380 1188
3090.0 1059 969 904 856 803 766 746 710 674 638
3130.0 626 623 610 589 595 592 579 586 580 582
3170.0 585 582 598 596 589 584 583 579 581 584
3210.0 590 604 586 590 584 605 578 593 593 595
3250.0 592 600 605 613 608 618 628 630 628 604
3290.0 615 604 617 600 584 598 598 619 602 610
3330.0 605 603 592 606 589 604 600 610 603 601
3370.0 601 606 597 601 614 604 606 613 607 605
3410.0 596 565 549 548 537 545 546 559 596 625
3450.0 662 676 700 692 697 694 698 656 647 631
3490.0 615 620 618 631 644 657 661 668 687 670
3530.0 650 654 631 643 662 650 674 701 761 822
3570.0 994 1160 1613 2351 3350 4663 5829 6669 6787 6452
3610.0 5739 4604 3279 2086 1486 1327 1330 1482 1722 2116
3650.0 2585 3153 3622 3835 3743 3405 2915 2274 1548 976
3690.0 745 627 616 576 570 545 578 580 590 596
3730.0 588 572 582 578 568 608 601 665 680 739
3770.0 794 777 817 761 738 716 683 626 563 566
3810.0 545 589 597 638 629 683 733 717 691 692
3850.0 716 649 616 539 553 571 553 586 565 544
3890.0 631 567 577 586 547 557 544 552 550 553
3930.0 539 590 542 573 546 540 536 536 535 596
##END=
