##TITLE=Benzene, 1,2,3,4-tetramethyl-
##JCAMP-DX=4.24
##DATA TYPE=INFRARED SPECTRUM
##ORIGIN=Sadtler Research Labs Under US-EPA Contract
##OWNER=NIST Standard Reference Data Program
##CAS REGISTRY NO=488-23-3
##MOLFORM=C 10 H 14
##XUNITS=1/CM
##YUNITS=ABSORBANCE
##XFACTOR=1.0
##YFACTOR=0.000048257
##DELTAX=4.0
##FIRSTX=450.0
##LASTX=3966.0
##FIRSTY=0.000000
##MAXX=3966
##MINX=450
##MAXY=0.48257
##MINY=0
##NPOINTS=880
##XYDATA=(X++(Y..Y))
450.0 0 1402 1704 1537 1300 1760 1364 1648 1369 1592
490.0 1362 1447 1467 1467 1402 1392 1502 1337 1485 1407
530.0 1531 1460 1662 1646 1834 1762 1541 1572 1432 1456
570.0 1303 1367 1370 1320 1370 1359 1453 1425 1418 1366
610.0 1401 1353 1403 1376 1382 1390 1394 1375 1381 1400
650.0 1362 1353 1319 1331 1359 1310 1320 1319 1314 1335
690.0 1322 1350 1332 1348 1354 1335 1351 1378 1390 1415
730.0 1446 1413 1453 1373 1381 1340 1374 1387 1343 1427
770.0 1403 1451 1370 1782 2053 2795 3272 4030 5717 4389
810.0 3020 3145 2179 1815 1516 1564 1502 1505 1552 1509
850.0 1525 1446 1510 1438 1451 1431 1443 1424 1409 1429
890.0 1404 1429 1385 1438 1393 1407 1404 1409 1418 1415
930.0 1416 1383 1412 1383 1419 1400 1420 1411 1432 1457
970.0 1461 1492 1509 1551 1585 1679 1804 2026 2214 2321
1010.0 2296 2175 1983 1787 1680 1630 1637 1650 1696 1739
1050.0 1801 1899 1993 2065 2084 2122 2101 2084 2028 1966
1090.0 1872 1764 1655 1579 1539 1505 1491 1477 1460 1445
1130.0 1442 1435 1413 1422 1422 1441 1459 1530 1629 1646
1170.0 1598 1648 1559 1474 1450 1428 1424 1428 1448 1449
1210.0 1466 1469 1460 1435 1425 1435 1438 1479 1512 1589
1250.0 1626 1641 1640 1599 1529 1470 1453 1432 1436 1434
1290.0 1445 1432 1444 1436 1442 1453 1450 1467 1476 1500
1330.0 1496 1519 1531 1553 1566 1577 1580 1569 1599 1603
1370.0 1664 1740 1888 1982 2100 2097 2068 1939 1866 1890
1410.0 1944 2024 2086 2189 2232 2303 2471 2651 2951 3224
1450.0 3638 3834 4056 4282 4446 4516 4563 4521 4353 4268
1490.0 3977 3777 3468 3121 2835 2512 2353 2203 2099 1987
1530.0 1923 1881 1852 1820 1773 1787 1775 1774 1724 1702
1570.0 1719 1681 1708 1698 1735 1779 1852 1894 1878 1887
1610.0 1844 1745 1673 1576 1554 1474 1481 1420 1423 1404
1650.0 1425 1363 1405 1367 1380 1383 1382 1357 1368 1345
1690.0 1344 1356 1345 1369 1344 1362 1371 1396 1392 1432
1730.0 1460 1450 1433 1425 1383 1375 1391 1355 1362 1337
1770.0 1339 1310 1316 1307 1316 1309 1328 1304 1311 1321
1810.0 1318 1326 1341 1344 1354 1355 1345 1355 1337 1362
1850.0 1362 1405 1453 1512 1529 1530 1509 1457 1399 1355
1890.0 1334 1307 1302 1298 1295 1295 1283 1294 1293 1299
1930.0 1299 1301 1301 1300 1302 1296 1293 1292 1302 1299
1970.0 1302 1302 1301 1300 1300 1292 1292 1286 1294 1292
2010.0 1294 1291 1290 1295 1293 1293 1287 1294 1283 1282
2050.0 1285 1288 1286 1280 1284 1286 1279 1289 1287 1295
2090.0 1298 1300 1303 1303 1300 1302 1300 1297 1287 1279
2130.0 1279 1274 1275 1268 1269 1269 1272 1272 1265 1267
2170.0 1265 1261 1264 1266 1265 1265 1264 1265 1268 1268
2210.0 1272 1272 1271 1275 1280 1276 1280 1277 1273 1272
2250.0 1272 1271 1269 1272 1270 1273 1272 1278 1279 1280
2290.0 1286 1292 1288 1297 1297 1301 1305 1303 1322 1304
2330.0 1288 1292 1286 1273 1260 1308 1293 1297 1261 1259
2370.0 1259 1259 1259 1262 1277 1289 1300 1304 1307 1314
2410.0 1315 1317 1319 1323 1321 1314 1317 1315 1309 1318
2450.0 1326 1323 1326 1324 1332 1330 1328 1324 1328 1327
2490.0 1323 1325 1321 1323 1318 1314 1315 1309 1303 1298
2530.0 1302 1302 1304 1307 1307 1305 1311 1307 1300 1297
2570.0 1296 1293 1300 1300 1300 1303 1300 1297 1295 1294
2610.0 1289 1293 1300 1308 1308 1317 1321 1337 1342 1330
2650.0 1332 1321 1318 1321 1322 1320 1321 1322 1319 1317
2690.0 1328 1326 1322 1331 1343 1352 1372 1383 1414 1463
2730.0 1528 1612 1682 1716 1724 1668 1587 1534 1517 1521
2770.0 1530 1537 1540 1534 1530 1534 1543 1550 1577 1598
2810.0 1626 1670 1711 1760 1799 1870 1939 2028 2162 2328
2850.0 2547 2861 3258 3755 4350 4994 5640 6080 6278 6247
2890.0 6052 5803 5666 5716 5889 6131 6401 6785 7353 8175
2930.0 9054 9704 10000 9888 9395 8775 8317 7584 7043 6819
2970.0 6724 6689 6443 6097 5723 5157 4589 4295 4261 4428
3010.0 4734 5069 5297 5355 5311 5169 4995 4856 4763 4635
3050.0 4455 4240 3991 3760 3517 3272 3010 2777 2541 2341
3090.0 2171 2029 1932 1842 1782 1726 1683 1645 1619 1592
3130.0 1573 1544 1522 1495 1486 1469 1452 1430 1414 1404
3170.0 1395 1383 1376 1366 1361 1349 1355 1345 1341 1338
3210.0 1326 1326 1318 1320 1321 1312 1320 1313 1307 1312
3250.0 1296 1313 1304 1317 1303 1313 1306 1321 1307 1311
3290.0 1305 1312 1312 1314 1310 1305 1318 1311 1306 1315
3330.0 1316 1309 1307 1313 1324 1305 1324 1320 1314 1307
3370.0 1317 1326 1316 1313 1307 1304 1307 1314 1307 1320
3410.0 1322 1305 1309 1316 1316 1305 1319 1302 1306 1314
3450.0 1294 1307 1315 1295 1300 1302 1304 1301 1314 1317
3490.0 1309 1314 1295 1323 1316 1319 1308 1311 1293 1285
3530.0 1319 1304 1288 1301 1292 1288 1298 1295 1307 1299
3570.0 1281 1309 1296 1313 1296 1294 1305 1295 1300 1288
3610.0 1317 1281 1315 1298 1307 1328 1268 1306 1281 1331
3650.0 1324 1270 1317 1277 1344 1301 1318 1291 1291 1326
3690.0 1309 1296 1293 1308 1300 1291 1291 1321 1294 1316
3730.0 1307 1315 1297 1362 1251 1337 1292 1300 1320 1311
3770.0 1301 1285 1327 1300 1304 1295 1309 1312 1323 1261
3810.0 1334 1302 1310 1311 1287 1315 1310 1306 1300 1304
3850.0 1305 1354 1289 1312 1346 1314 1311 1293 1338 1295
3890.0 1341 1290 1333 1316 1305 1312 1326 1312 1321 1319
3930.0 1306 1338 1341 1333 1329 1300 1303 1329 1329 1324
##END=
