##TITLE=1,5-Heptadiene, 3-methyl-
##JCAMP-DX=4.24
##DATA TYPE=INFRARED SPECTRUM
##ORIGIN=Sadtler Research Labs Under US-EPA Contract
##OWNER=NIST Standard Reference Data Program
##CAS REGISTRY NO=4894-62-6
##MOLFORM=C 8 H 14
##XUNITS=1/CM
##YUNITS=ABSORBANCE
##XFACTOR=1.0
##YFACTOR=0.000063364
##DELTAX=4.0
##FIRSTX=450.0
##LASTX=3966.0
##FIRSTY=0.000000
##MAXX=3966
##MINX=450
##MAXY=0.63364
##MINY=0
##NPOINTS=880
##XYDATA=(X++(Y..Y))
450.0 0 67 237 42 157 133 141 122 91 141
490.0 136 138 120 176 163 199 165 117 168 116
530.0 143 162 202 181 184 169 152 156 122 136
570.0 132 163 141 179 117 141 152 133 161 144
610.0 151 136 153 164 191 176 205 215 240 268
650.0 323 402 417 565 643 847 918 915 853 693
690.0 517 394 306 248 209 174 140 141 127 151
730.0 147 131 131 127 129 134 122 102 109 109
770.0 139 87 119 106 99 114 129 96 196 210
810.0 163 183 195 208 218 255 240 246 253 262
850.0 293 309 342 354 371 387 420 471 524 633
890.0 783 1088 1533 2291 3270 4231 4721 4745 4277 3357
930.0 2540 2006 1740 1655 1816 2158 2780 3452 3990 4264
970.0 4178 3682 3109 2759 2662 2624 2496 2364 2035 1676
1010.0 1381 1167 1035 923 887 838 822 812 818 797
1050.0 786 756 714 704 695 716 726 753 747 742
1090.0 716 673 648 622 592 571 579 583 613 632
1130.0 653 660 653 632 604 586 562 558 556 555
1170.0 552 546 522 477 447 401 374 364 375 381
1210.0 399 420 434 439 438 435 422 407 389 401
1250.0 412 436 468 483 497 479 460 436 442 462
1290.0 500 539 564 574 577 576 572 563 544 541
1330.0 522 522 538 543 547 551 573 600 690 843
1370.0 1058 1246 1373 1479 1404 1197 998 846 772 796
1410.0 896 1059 1208 1267 1324 1326 1363 1401 1551 1663
1450.0 1845 1945 1972 1933 1738 1528 1216 960 766 589
1490.0 486 389 368 308 312 277 266 245 242 228
1530.0 198 201 187 197 163 177 166 182 184 192
1570.0 208 213 246 243 259 250 263 235 247 243
1610.0 269 292 358 470 589 865 1158 1417 1516 1438
1650.0 1289 960 639 523 425 409 334 350 306 315
1690.0 292 331 340 362 406 420 434 439 461 434
1730.0 439 446 452 467 484 469 426 414 395 386
1770.0 368 369 342 320 303 285 302 301 304 297
1810.0 306 315 354 406 466 494 482 441 366 275
1850.0 204 162 131 110 100 96 92 84 83 87
1890.0 88 86 82 85 81 85 85 83 78 80
1930.0 71 73 75 78 79 76 80 82 89 87
1970.0 96 105 109 109 112 112 115 121 117 118
2010.0 108 97 85 75 73 69 64 63 65 59
2050.0 58 55 59 63 56 57 52 57 62 60
2090.0 61 59 60 59 57 56 57 56 59 57
2130.0 61 60 60 55 58 55 52 55 52 53
2170.0 53 56 58 56 57 55 59 54 60 55
2210.0 59 56 55 54 54 54 58 54 54 56
2250.0 56 59 56 56 55 54 57 58 60 61
2290.0 68 69 69 69 72 74 76 78 71 75
2330.0 84 75 73 66 77 85 81 89 97 86
2370.0 86 86 95 93 90 88 81 82 83 84
2410.0 81 84 80 80 77 81 72 74 82 77
2450.0 82 80 83 79 78 79 77 78 76 78
2490.0 76 78 76 76 81 84 85 89 94 89
2530.0 92 88 85 86 87 93 95 94 92 94
2570.0 92 101 103 103 98 100 103 97 101 100
2610.0 95 102 97 101 98 99 102 97 95 99
2650.0 103 102 107 111 111 108 117 123 127 129
2690.0 133 136 143 147 155 159 166 179 197 216
2730.0 242 291 336 360 362 344 295 249 221 214
2770.0 223 226 231 235 245 253 260 277 296 322
2810.0 350 393 445 515 612 765 961 1203 1450 1665
2850.0 1873 2061 2330 2828 3440 3924 4289 4447 4390 4323
2890.0 4418 4672 5008 5427 5827 6197 6522 6888 7297 7674
2930.0 7715 7557 7186 6566 6059 5885 6032 6472 7385 8631
2970.0 9650 10000 9488 8509 6895 5218 4239 3818 3570 3444
3010.0 3299 3165 3079 2970 2838 2665 2426 2119 1807 1513
3050.0 1298 1164 1110 1142 1239 1409 1657 2003 2402 2607
3090.0 2490 2244 1781 1248 826 596 478 405 362 332
3130.0 321 298 281 261 248 233 216 209 206 197
3170.0 197 189 184 181 184 181 176 158 151 144
3210.0 134 123 117 114 104 102 91 88 89 83
3250.0 86 87 77 78 84 87 81 79 76 78
3290.0 76 73 64 55 62 64 59 65 52 64
3330.0 62 61 64 65 65 67 62 54 66 67
3370.0 65 60 67 69 72 67 64 65 60 63
3410.0 54 69 66 62 59 58 63 65 59 59
3450.0 71 67 73 68 71 69 63 56 64 72
3490.0 66 55 64 65 60 56 62 72 64 61
3530.0 62 70 80 72 77 72 88 84 89 93
3570.0 100 105 123 119 101 88 97 96 96 94
3610.0 93 67 83 73 72 74 78 75 89 83
3650.0 81 75 87 82 66 79 76 61 54 56
3690.0 52 59 58 52 68 69 64 72 70 62
3730.0 65 58 77 80 66 74 78 69 74 71
3770.0 77 71 65 71 78 79 72 82 56 66
3810.0 61 67 70 52 61 73 83 81 62 55
3850.0 78 74 92 83 71 79 83 60 78 70
3890.0 78 73 72 97 77 71 64 77 84 89
3930.0 83 104 76 80 71 85 79 80 70 97
##END=
