##TITLE=2,5-Cyclohexadiene-1,4-dione, 2-methyl-5-(1-methylethyl)-
##JCAMP-DX=4.24
##DATA TYPE=INFRARED SPECTRUM
##ORIGIN=Sadtler Research Labs Under US-EPA Contract
##OWNER=NIST Standard Reference Data Program
##CAS REGISTRY NO=490-91-5
##MOLFORM=C 10 H 12 O 2
##XUNITS=1/CM
##YUNITS=ABSORBANCE
##XFACTOR=1.0
##YFACTOR=0.000180795
##DELTAX=4.0
##FIRSTX=450.0
##LASTX=3966.0
##FIRSTY=0.012656
##MAXX=3966
##MINX=450
##MAXY=1.80795
##MINY=0
##NPOINTS=880
##XYDATA=(X++(Y..Y))
450.0 70 63 62 47 68 56 48 20 30 23
490.0 16 11 20 18 31 52 52 55 38 39
530.0 31 18 19 19 10 13 6 12 12 4
570.0 13 6 12 19 11 11 6 19 19 22
610.0 28 27 23 14 16 13 10 14 21 17
650.0 19 22 27 37 45 74 76 99 128 156
690.0 185 200 222 220 187 142 95 61 38 27
730.0 15 18 19 12 19 16 12 15 17 17
770.0 18 19 25 37 55 91 134 163 176 167
810.0 139 99 74 57 43 43 39 43 39 39
850.0 44 48 61 76 101 121 131 126 106 103
890.0 115 195 354 634 897 1302 1519 1096 790 519
930.0 281 176 119 103 84 75 61 58 56 54
970.0 56 60 67 78 108 153 247 378 501 579
1010.0 639 659 624 585 492 340 212 164 140 123
1050.0 113 106 105 109 123 132 148 167 196 224
1090.0 254 280 323 365 399 443 508 636 818 955
1130.0 957 825 589 364 263 235 229 219 224 250
1170.0 299 344 374 369 333 295 280 293 302 345
1210.0 411 530 738 1126 1732 2425 2881 2882 2406 1586
1250.0 902 549 389 308 265 243 241 257 290 338
1290.0 416 518 604 641 627 566 540 539 543 525
1330.0 490 477 513 624 758 846 850 779 640 547
1370.0 521 525 567 624 620 567 462 348 283 253
1410.0 233 232 213 240 259 289 306 327 336 357
1450.0 377 411 453 520 572 595 542 470 371 257
1490.0 182 155 127 111 92 77 84 75 62 73
1530.0 70 74 67 59 72 92 93 82 106 119
1570.0 128 137 160 172 216 269 387 589 899 1236
1610.0 1461 1504 1308 1033 791 751 771 875 1031 1273
1650.0 1663 2413 3968 5927 8973 9004 10000 6982 4268 2171
1690.0 1215 789 564 436 347 291 233 190 180 172
1730.0 151 128 123 110 92 78 80 68 64 63
1770.0 59 57 79 81 87 76 64 51 35 36
1810.0 30 27 27 27 22 19 21 25 16 15
1850.0 16 19 14 13 8 3 11 9 10 7
1890.0 5 6 8 9 8 8 6 3 0 4
1930.0 5 2 4 1 4 8 10 10 14 8
1970.0 10 7 6 4 4 2 2 5 4 5
2010.0 7 5 4 5 7 7 8 6 7 6
2050.0 5 5 5 5 5 7 8 8 7 7
2090.0 5 5 5 5 5 4 2 2 3 4
2130.0 4 4 4 6 7 7 7 7 7 8
2170.0 7 6 7 7 8 5 5 5 3 5
2210.0 5 5 7 8 10 12 13 16 17 16
2250.0 16 14 14 12 9 7 7 7 10 12
2290.0 14 19 24 24 26 30 22 20 20 14
2330.0 15 7 7 11 19 17 13 10 12 12
2370.0 14 17 24 25 23 17 13 12 13 11
2410.0 10 10 11 11 9 9 10 9 10 11
2450.0 13 15 16 17 17 17 17 16 14 15
2490.0 13 13 15 15 16 18 19 20 18 17
2530.0 15 16 15 17 17 15 16 16 16 19
2570.0 20 21 21 21 20 22 21 21 20 20
2610.0 18 15 13 11 12 12 13 11 14 13
2650.0 12 12 12 12 12 13 13 14 14 13
2690.0 12 14 14 14 17 17 18 21 27 27
2730.0 33 34 37 38 40 41 39 39 40 41
2770.0 39 39 36 33 32 34 37 39 44 49
2810.0 55 63 67 72 75 78 83 89 98 115
2850.0 138 164 188 213 249 305 402 526 648 723
2890.0 720 668 605 556 538 544 553 570 604 685
2930.0 838 1012 1125 1183 1108 947 859 890 1128 1647
2970.0 2232 2561 2533 2118 1551 1135 854 646 492 364
3010.0 271 215 181 163 156 159 175 205 241 263
3050.0 266 252 207 165 134 105 91 82 75 73
3090.0 70 67 64 61 58 54 52 49 45 45
3130.0 43 43 41 39 37 37 39 37 40 38
3170.0 36 36 36 38 38 38 36 38 37 36
3210.0 37 37 38 38 37 36 38 39 37 35
3250.0 36 35 35 39 44 52 65 80 100 129
3290.0 157 177 179 168 141 114 95 88 96 104
3330.0 113 109 95 74 54 40 27 20 21 18
3370.0 17 20 16 17 17 17 19 16 13 15
3410.0 13 11 12 13 15 13 15 13 17 13
3450.0 15 14 12 9 13 10 12 11 15 11
3490.0 12 9 10 12 8 7 11 8 8 6
3530.0 11 8 9 13 13 9 7 8 6 8
3570.0 8 7 7 8 7 9 8 5 5 7
3610.0 9 9 6 8 5 9 5 7 15 23
3650.0 30 34 32 21 16 16 11 10 7 11
3690.0 5 7 6 7 6 6 8 4 5 7
3730.0 6 6 7 9 15 12 13 7 9 13
3770.0 8 8 7 13 9 7 5 6 9 11
3810.0 9 10 10 12 13 8 6 12 13 13
3850.0 11 12 14 12 10 15 13 11 12 10
3890.0 9 13 11 18 12 9 11 10 11 8
3930.0 12 7 10 9 11 7 16 7 13 8
##END=
