##TITLE=Quinoline, 4-methyl-
##JCAMP-DX=4.24
##DATA TYPE=INFRARED SPECTRUM
##ORIGIN=Sadtler Research Labs Under US-EPA Contract
##OWNER=NIST Standard Reference Data Program
##CAS REGISTRY NO=491-35-0
##MOLFORM=C 10 H 9 N
##XUNITS=1/CM
##YUNITS=ABSORBANCE
##XFACTOR=1.0
##YFACTOR=0.000065039
##DELTAX=4.0
##FIRSTX=450.0
##LASTX=3966.0
##FIRSTY=0.078112
##MAXX=3966
##MINX=450
##MAXY=0.65039
##MINY=0
##NPOINTS=880
##XYDATA=(X++(Y..Y))
450.0 1201 642 489 290 692 629 782 999 434 419
490.0 718 830 30 265 417 349 442 447 390 402
530.0 308 347 352 597 443 460 932 863 938 850
570.0 942 651 611 581 302 460 387 485 443 486
610.0 446 448 434 471 599 497 465 432 467 399
650.0 431 388 377 369 356 388 323 370 352 395
690.0 364 612 740 868 844 886 640 451 421 468
730.0 641 1085 1993 3603 4431 6290 10000 6034 4275 3499
770.0 1672 892 487 465 415 392 420 429 533 661
810.0 855 869 1260 2124 2772 3473 5621 5479 3371 2943
850.0 2507 1867 1460 1538 1391 895 689 544 482 424
890.0 385 360 375 363 371 373 371 361 361 343
930.0 355 359 368 409 429 526 539 554 576 342
970.0 631 502 407 429 397 342 320 370 433 548
1010.0 777 788 895 860 771 603 536 506 457 456
1050.0 483 484 480 500 466 465 443 483 500 525
1090.0 524 476 454 402 367 319 318 310 344 401
1130.0 555 649 609 680 649 570 629 681 656 669
1170.0 592 446 367 330 339 314 332 312 331 322
1210.0 355 341 343 335 347 450 619 817 788 880
1250.0 825 597 465 390 375 357 342 339 347 358
1290.0 418 535 680 795 842 801 707 607 491 491
1330.0 479 481 487 461 405 430 485 554 621 646
1370.0 688 725 926 1205 1581 1941 2003 1755 1538 1182
1410.0 1003 1152 1328 1345 1339 1215 1103 1075 1150 1467
1450.0 1689 1729 1719 1686 1492 1110 829 645 579 571
1490.0 765 1031 1502 2254 2835 2955 2892 2494 1687 1017
1530.0 746 631 561 579 638 758 930 1235 1778 2381
1570.0 2688 2891 2950 2767 2607 3052 3539 3629 3493 3301
1610.0 2628 1854 1453 1203 958 705 472 333 288 277
1650.0 266 288 348 432 445 439 389 360 282 258
1690.0 306 381 412 461 466 445 374 309 304 319
1730.0 320 298 294 280 276 297 310 325 310 306
1770.0 268 222 228 245 248 245 244 255 291 318
1810.0 352 360 370 350 316 312 352 336 315 305
1850.0 255 201 184 195 198 205 198 196 181 188
1890.0 201 241 308 418 522 593 645 639 575 481
1930.0 414 345 292 294 329 361 360 333 278 196
1970.0 133 121 116 120 131 135 142 134 133 134
2010.0 136 140 139 143 147 147 151 148 140 137
2050.0 130 136 141 146 151 146 142 147 138 131
2090.0 123 123 124 120 118 114 108 110 104 101
2130.0 96 101 95 96 98 96 95 97 97 103
2170.0 103 97 93 96 93 96 98 97 90 95
2210.0 97 99 108 104 103 96 93 99 92 96
2250.0 97 100 96 96 106 111 120 115 121 114
2290.0 114 113 114 110 113 123 123 137 128 116
2330.0 116 102 88 90 71 89 90 89 89 48
2370.0 50 48 58 69 69 68 66 77 78 82
2410.0 85 85 86 88 93 93 87 82 77 67
2450.0 65 68 66 67 75 68 70 69 69 68
2490.0 60 54 49 55 46 51 48 49 54 54
2530.0 51 45 46 39 47 54 51 60 58 51
2570.0 56 55 44 41 29 36 35 34 27 35
2610.0 39 38 37 37 45 45 37 36 24 15
2650.0 16 12 16 12 11 7 10 10 1 0
2690.0 1 3 5 10 19 21 27 37 43 48
2730.0 52 62 83 91 92 98 90 86 72 67
2770.0 68 60 52 57 50 58 51 57 66 68
2810.0 83 89 91 96 103 112 129 144 171 191
2850.0 222 251 315 397 499 571 604 611 572 513
2890.0 482 475 526 581 647 699 740 772 837 962
2930.0 1155 1372 1462 1502 1534 1445 1398 1413 1567 1664
2970.0 1511 1512 1632 1807 1933 1903 1828 1672 1497 1444
3010.0 1490 1555 1609 1717 1931 2392 3056 3694 3913 3882
3050.0 3469 2759 2255 2177 2487 3030 3533 3914 3928 3583
3090.0 2944 2287 1738 1275 934 692 527 417 323 242
3130.0 193 177 148 145 127 113 102 86 85 96
3170.0 98 104 89 89 93 109 95 69 84 72
3210.0 68 57 32 44 52 55 42 50 23 55
3250.0 40 45 52 56 50 36 36 31 34 33
3290.0 18 52 11 31 59 37 21 45 33 34
3330.0 40 40 33 27 49 59 38 29 45 24
3370.0 46 31 37 45 53 36 50 46 53 45
3410.0 43 75 45 38 39 41 69 66 49 64
3450.0 47 50 66 71 50 54 40 56 68 68
3490.0 77 73 81 55 73 79 89 76 70 63
3530.0 59 59 80 72 74 69 39 90 58 71
3570.0 54 55 73 68 87 67 88 87 72 75
3610.0 99 68 29 48 103 56 85 73 91 59
3650.0 50 51 73 108 31 47 32 0 39 83
3690.0 41 72 89 61 41 88 68 67 74 98
3730.0 65 29 71 5 71 50 82 40 111 96
3770.0 77 103 75 79 86 96 75 105 50 67
3810.0 77 66 97 78 88 121 74 47 94 32
3850.0 89 75 148 177 173 92 143 105 117 90
3890.0 198 162 132 120 78 157 138 70 110 179
3930.0 138 160 130 72 185 154 143 98 53 139
##END=
