##TITLE=Benzeneacetic acid, .alpha.-methyl-
##JCAMP-DX=4.24
##DATA TYPE=INFRARED SPECTRUM
##ORIGIN=Sadtler Research Labs Under US-EPA Contract
##OWNER=NIST Standard Reference Data Program
##CAS REGISTRY NO=492-37-5
##MOLFORM=C 9 H 10 O 2
##XUNITS=1/CM
##YUNITS=ABSORBANCE
##XFACTOR=1.0
##YFACTOR=0.000091278
##DELTAX=4.0
##FIRSTX=450.0
##LASTX=3966.0
##FIRSTY=0.039523
##MAXX=3966
##MINX=450
##MAXY=0.91278
##MINY=0
##NPOINTS=880
##XYDATA=(X++(Y..Y))
450.0 433 443 267 366 359 186 388 171 318 129
490.0 307 142 174 181 130 212 110 247 184 284
530.0 297 478 472 601 819 1025 1286 1489 1647 1619
570.0 1584 1526 1646 1707 2143 2593 3107 3142 2664 2219
610.0 1509 1208 1008 925 903 933 934 851 798 607
650.0 511 403 375 329 311 371 406 574 817 1239
690.0 1713 2043 2223 1994 1690 1361 1193 1066 1056 1006
730.0 923 793 722 707 730 755 749 709 592 489
770.0 384 303 233 211 172 171 180 173 215 247
810.0 280 274 273 231 210 210 234 252 229 214
850.0 159 129 77 57 40 28 17 13 17 1
890.0 15 12 27 27 39 37 38 28 18 17
930.0 1 18 19 29 35 48 52 71 95 107
970.0 147 184 251 316 378 411 406 397 392 389
1010.0 386 425 502 654 809 901 966 988 1051 1205
1050.0 1436 1633 1788 1874 1895 1930 1994 2127 2225 2294
1090.0 2286 2255 2228 2301 2476 2661 2934 3288 3781 4281
1130.0 4713 4901 4704 4233 3589 3027 2610 2380 2224 2082
1170.0 1883 1652 1430 1272 1146 1057 993 907 788 649
1210.0 528 431 367 333 317 306 305 314 320 336
1250.0 351 385 395 419 435 434 417 413 427 441
1290.0 470 497 521 538 565 587 596 607 611 611
1330.0 603 598 596 614 640 687 757 820 879 906
1370.0 928 923 935 916 874 762 630 485 370 291
1410.0 233 206 179 183 168 181 213 244 364 486
1450.0 686 805 915 902 794 627 474 330 321 404
1490.0 599 823 852 817 621 317 151 84 68 65
1530.0 70 59 75 39 50 32 44 20 37 38
1570.0 59 61 99 135 175 249 320 402 421 401
1610.0 333 235 162 90 85 53 73 50 63 58
1650.0 63 66 91 84 80 104 65 117 89 108
1690.0 127 157 175 215 261 278 339 395 524 636
1730.0 855 1053 1291 1546 1817 2275 2858 3915 5282 7256
1770.0 8819 10000 9258 7830 5466 3954 2986 2555 2142 1746
1810.0 1336 948 698 492 397 271 241 186 165 135
1850.0 123 126 113 128 125 139 126 144 128 123
1890.0 108 91 79 54 57 47 50 50 60 62
1930.0 74 95 109 119 120 124 117 113 95 81
1970.0 59 44 37 29 33 25 30 20 28 19
2010.0 15 13 13 12 6 12 11 8 6 10
2050.0 5 3 4 2 5 3 8 1 5 3
2090.0 7 7 9 10 7 10 11 13 8 15
2130.0 15 13 14 15 17 15 19 16 17 17
2170.0 19 18 18 24 22 28 25 33 28 27
2210.0 30 31 29 30 28 25 23 23 23 22
2250.0 25 17 17 20 19 16 14 16 13 12
2290.0 7 9 5 3 4 1 10 8 12 9
2330.0 3 1 15 0 9 14 1 1 1 3
2370.0 1 7 11 8 17 18 21 15 21 17
2410.0 20 14 21 19 18 19 19 19 20 24
2450.0 21 17 20 21 18 15 21 15 20 16
2490.0 16 12 14 14 17 18 13 14 9 14
2530.0 11 12 12 8 9 8 10 7 5 3
2570.0 4 7 10 9 13 11 15 19 16 21
2610.0 19 24 22 23 24 20 19 18 16 15
2650.0 15 11 12 10 10 9 6 6 6 6
2690.0 2 6 4 8 7 6 9 7 11 7
2730.0 9 9 11 12 12 15 13 13 8 9
2770.0 12 11 13 15 18 21 19 21 26 26
2810.0 24 24 32 34 38 46 48 51 53 57
2850.0 60 67 68 81 91 111 145 193 254 315
2890.0 354 367 358 335 306 294 293 305 321 355
2930.0 417 500 615 731 811 821 750 623 487 394
2970.0 367 446 719 1121 1474 1653 1608 1316 916 635
3010.0 465 381 375 441 579 771 967 1088 1085 975
3050.0 812 668 628 714 903 1112 1216 1190 1079 879
3090.0 707 630 562 485 403 329 275 218 173 123
3130.0 86 63 52 39 36 36 38 38 38 45
3170.0 40 42 37 27 22 24 25 25 24 24
3210.0 24 25 28 25 29 24 20 12 17 25
3250.0 14 11 14 20 11 18 18 15 18 16
3290.0 12 7 10 8 6 12 12 11 10 11
3330.0 11 12 10 16 11 9 7 6 11 9
3370.0 12 1 8 12 8 2 10 9 1 9
3410.0 8 12 8 12 9 8 8 10 9 1
3450.0 12 11 13 16 14 10 13 15 21 25
3490.0 23 35 32 51 45 53 59 68 84 92
3530.0 112 121 128 139 168 204 293 490 969 1838
3570.0 2939 3556 3600 3055 1907 910 488 274 178 134
3610.0 111 100 80 68 62 59 33 48 18 40
3650.0 33 44 46 20 47 9 62 8 44 16
3690.0 26 19 16 30 12 17 20 11 11 26
3730.0 6 18 22 27 8 58 1 10 1 12
3770.0 20 10 12 1 15 12 1 9 24 3
3810.0 25 1 35 6 12 10 2 19 29 4
3850.0 13 25 8 12 11 5 23 2 10 17
3890.0 20 7 26 16 19 5 18 20 32 14
3930.0 16 28 21 22 5 3 6 30 29 16
##END=
