##TITLE=3-Methyl-2-nitrophenol
##JCAMP-DX=4.24
##DATA TYPE=INFRARED SPECTRUM
##ORIGIN=Sadtler Research Labs Under US-EPA Contract
##OWNER=NIST Standard Reference Data Program
##CAS REGISTRY NO=4920-77-8
##MOLFORM=C 7 H 7 N O 3
##XUNITS=1/CM
##YUNITS=ABSORBANCE
##XFACTOR=1.0
##YFACTOR=0.000116510
##DELTAX=4.0
##FIRSTX=450.0
##LASTX=3966.0
##FIRSTY=0.014098
##MAXX=3966
##MINX=450
##MAXY=1.1651
##MINY=0
##NPOINTS=880
##XYDATA=(X++(Y..Y))
450.0 121 84 134 93 34 225 168 166 114 82
490.0 175 191 183 189 181 161 235 277 242 265
530.0 305 166 93 220 128 156 135 110 132 184
570.0 228 443 633 717 802 812 628 410 233 187
610.0 170 209 207 194 154 233 281 258 299 269
650.0 286 285 285 362 296 398 451 501 643 713
690.0 838 1159 881 610 544 416 280 205 124 118
730.0 124 69 48 190 250 450 651 741 902 1049
770.0 1370 1603 1752 2459 3047 1711 1427 1097 547 322
810.0 189 116 155 98 68 125 127 171 326 544
850.0 982 1263 1384 1352 1188 733 342 227 156 98
890.0 131 89 84 84 90 85 84 72 87 107
930.0 90 70 99 130 150 214 287 360 449 481
970.0 488 475 434 328 293 255 256 253 221 218
1010.0 241 269 240 266 312 340 345 362 385 405
1050.0 494 661 905 1231 1373 1406 1380 1187 839 593
1090.0 439 418 387 427 433 535 609 664 687 697
1130.0 651 590 545 550 573 647 749 955 1179 1375
1170.0 1532 1705 1883 2070 2402 2850 3341 3947 4468 4785
1210.0 4800 4456 3859 3147 2345 1784 1407 1248 1218 1283
1250.0 1419 1670 2110 2814 3714 4502 4889 4882 4629 3836
1290.0 3003 2514 2396 2455 2580 2785 3015 3250 3510 3733
1330.0 3990 4373 4857 5256 5523 5530 5045 4366 3359 2316
1370.0 1583 1157 1014 977 970 939 918 844 718 653
1410.0 686 730 905 1121 1390 1810 2168 2579 2992 3254
1450.0 3749 4299 4931 5731 5972 5940 5213 3985 2894 2067
1490.0 1600 1335 1237 1260 1284 1443 1556 1733 2053 2369
1530.0 2871 3515 4148 4724 4927 4835 4455 3900 3273 2841
1570.0 2697 2729 3069 3793 4465 5765 7321 8274 10000 8702
1610.0 7299 5206 3337 2171 1404 1009 783 641 524 448
1650.0 438 364 323 234 233 182 187 142 172 163
1690.0 145 138 171 165 135 124 116 149 115 91
1730.0 129 120 147 121 147 165 149 143 118 88
1770.0 79 73 51 51 51 57 59 60 53 54
1810.0 59 58 62 55 59 74 59 85 87 123
1850.0 95 88 80 53 48 45 36 36 34 37
1890.0 43 37 35 30 30 38 34 51 53 63
1930.0 83 112 140 141 129 106 70 44 18 22
1970.0 15 17 16 12 15 13 10 8 5 11
2010.0 7 10 14 15 15 16 15 16 16 14
2050.0 13 7 11 10 13 12 7 6 3 7
2090.0 8 6 7 8 7 5 3 8 6 9
2130.0 8 9 13 12 13 14 14 21 25 30
2170.0 37 41 52 56 57 53 48 43 31 23
2210.0 20 16 18 18 22 26 24 27 29 28
2250.0 25 25 25 24 26 29 30 31 29 30
2290.0 31 26 34 32 31 40 44 51 47 56
2330.0 60 52 82 22 91 32 96 50 91 67
2370.0 62 46 53 56 57 67 72 73 82 78
2410.0 84 81 78 76 67 62 55 50 47 47
2450.0 47 45 44 49 48 46 52 50 51 49
2490.0 47 52 51 54 60 63 70 70 70 64
2530.0 65 55 57 54 49 51 52 54 55 59
2570.0 66 65 66 68 72 68 65 63 59 52
2610.0 56 58 54 62 58 65 66 66 63 68
2650.0 68 75 76 79 78 78 78 76 70 70
2690.0 68 69 75 74 77 82 79 82 82 78
2730.0 79 82 84 89 91 98 109 105 110 107
2770.0 102 102 105 114 111 117 120 126 128 131
2810.0 132 133 130 129 127 126 124 123 129 134
2850.0 140 150 168 184 198 219 239 249 265 267
2890.0 263 257 246 232 224 217 211 213 228 250
2930.0 295 363 465 579 648 658 636 565 456 374
2970.0 350 389 464 571 686 748 707 647 545 429
3010.0 342 286 256 253 253 275 307 342 372 401
3050.0 424 442 457 493 526 572 630 671 689 655
3090.0 584 489 380 298 248 228 227 230 235 244
3130.0 260 273 287 303 312 326 339 350 363 376
3170.0 394 412 428 443 454 479 497 496 513 510
3210.0 509 511 512 507 518 521 521 526 534 535
3250.0 528 539 545 545 546 540 543 535 536 544
3290.0 537 542 540 539 545 541 552 548 559 561
3330.0 571 569 577 580 585 585 581 586 581 580
3370.0 581 589 592 591 585 587 602 598 602 598
3410.0 595 597 601 594 590 584 592 585 580 574
3450.0 560 556 554 546 534 526 522 502 497 474
3490.0 467 457 440 439 432 411 406 385 376 367
3530.0 364 354 334 318 311 295 290 265 270 245
3570.0 251 225 220 205 216 179 189 170 179 150
3610.0 148 142 125 135 102 141 113 114 100 133
3650.0 118 166 112 138 85 64 88 23 54 18
3690.0 60 20 38 37 28 30 35 15 43 18
3730.0 37 45 5 85 2 96 2 44 16 31
3770.0 32 21 37 32 19 33 19 63 15 69
3810.0 9 52 17 30 19 32 51 58 16 41
3850.0 12 66 17 14 37 26 19 9 28 19
3890.0 49 0 23 8 11 16 7 21 3 19
3930.0 8 8 33 43 22 16 8 3 3 30
##END=
