##TITLE=Naphthalene, decahydro-, cis-
##JCAMP-DX=4.24
##DATA TYPE=INFRARED SPECTRUM
##ORIGIN=Sadtler Research Labs Under US-EPA Contract
##OWNER=NIST Standard Reference Data Program
##CAS REGISTRY NO=493-01-6
##MOLFORM=C 10 H 18
##XUNITS=1/CM
##YUNITS=ABSORBANCE
##XFACTOR=1.0
##YFACTOR=0.000149255
##DELTAX=4.0
##FIRSTX=450.0
##LASTX=3966.0
##FIRSTY=0.000000
##MAXX=3966
##MINX=450
##MAXY=1.49255
##MINY=0
##NPOINTS=880
##XYDATA=(X++(Y..Y))
450.0 0 150 156 211 155 197 166 183 155 212
490.0 185 210 152 181 197 149 205 181 206 156
530.0 191 169 176 196 181 206 174 177 147 169
570.0 166 171 175 137 197 218 239 224 240 193
610.0 195 172 168 171 163 154 138 173 159 169
650.0 171 176 164 157 145 156 169 145 171 155
690.0 158 156 158 163 159 164 153 181 168 187
730.0 175 195 188 184 187 170 181 145 165 165
770.0 161 162 168 161 167 174 188 192 175 188
810.0 167 163 159 180 199 187 211 194 219 231
850.0 266 252 274 281 224 187 170 175 157 161
890.0 159 153 154 152 154 150 153 151 157 153
930.0 160 155 153 160 159 169 180 211 229 264
970.0 278 286 272 238 216 191 180 168 172 166
1010.0 185 181 166 167 162 165 161 163 158 155
1050.0 149 156 158 152 164 165 174 166 174 168
1090.0 164 164 159 160 160 169 163 168 165 165
1130.0 159 162 167 164 166 164 167 165 179 180
1170.0 188 178 182 170 156 160 153 156 152 157
1210.0 152 153 151 154 154 153 162 156 163 164
1250.0 170 181 189 195 192 194 186 181 181 192
1290.0 205 214 220 226 231 214 206 192 187 182
1330.0 181 187 186 203 203 199 187 180 173 191
1370.0 214 220 230 226 213 180 172 165 171 164
1410.0 169 168 176 191 195 236 311 432 574 693
1450.0 824 901 939 845 747 706 530 389 284 227
1490.0 178 178 170 153 164 170 133 154 165 151
1530.0 146 144 184 161 162 140 161 160 199 145
1570.0 160 150 182 145 155 156 149 151 148 159
1610.0 139 169 160 163 146 151 153 168 142 174
1650.0 143 212 157 143 154 160 144 162 135 186
1690.0 139 147 167 177 146 140 157 158 153 143
1730.0 153 150 163 135 139 141 144 140 146 145
1770.0 143 156 135 144 135 150 143 141 138 143
1810.0 139 142 142 136 141 139 142 131 142 139
1850.0 140 137 140 133 141 137 135 135 138 138
1890.0 138 138 137 139 140 139 139 143 138 137
1930.0 138 136 138 134 139 137 139 137 140 137
1970.0 139 140 139 140 139 138 138 140 139 139
2010.0 140 139 139 139 144 141 141 145 144 147
2050.0 142 147 145 145 140 142 143 142 143 142
2090.0 142 142 140 139 139 140 139 135 136 138
2130.0 136 138 139 139 139 144 142 141 143 145
2170.0 147 146 146 148 149 146 150 148 147 148
2210.0 145 146 141 140 139 141 143 140 141 139
2250.0 142 141 142 141 144 146 150 149 151 157
2290.0 159 170 173 182 184 194 183 184 183 172
2330.0 177 172 162 174 180 181 176 160 170 180
2370.0 170 173 170 172 163 152 144 140 139 138
2410.0 138 139 142 141 143 142 144 146 143 148
2450.0 146 150 149 153 148 149 153 150 153 149
2490.0 153 152 153 149 149 148 145 145 146 149
2530.0 151 156 160 159 161 160 163 166 171 178
2570.0 182 182 184 188 196 199 201 202 207 209
2610.0 207 208 202 198 198 200 201 207 215 231
2650.0 249 264 280 296 302 305 309 295 275 258
2690.0 241 231 214 207 204 202 202 203 208 210
2730.0 210 211 218 221 216 214 209 207 204 210
2770.0 214 220 227 237 249 260 269 270 270 259
2810.0 264 265 279 290 300 325 348 423 574 933
2850.0 1554 2409 3433 4213 4562 4667 4340 3538 2532 1898
2890.0 1496 1358 1527 1966 2629 3392 4265 5558 7205 8415
2930.0 9316 10000 9557 7788 5989 4383 2779 1604 906 541
2970.0 356 269 232 218 208 197 194 189 192 193
3010.0 187 189 188 187 188 189 186 187 185 183
3050.0 187 190 189 195 202 204 199 201 196 196
3090.0 193 185 179 176 173 169 171 161 168 163
3130.0 168 163 155 152 156 154 149 152 154 155
3170.0 155 159 159 161 162 170 165 163 163 158
3210.0 167 164 161 161 159 152 156 159 156 164
3250.0 166 170 171 170 179 181 180 178 180 186
3290.0 185 174 175 175 174 169 169 174 168 165
3330.0 168 174 163 163 169 165 173 177 176 175
3370.0 183 179 180 173 178 178 161 153 164 170
3410.0 172 164 164 168 166 170 174 161 160 168
3450.0 167 168 159 157 151 158 154 154 156 154
3490.0 161 161 156 160 155 158 167 165 172 161
3530.0 159 161 163 159 146 150 160 148 156 143
3570.0 162 165 162 159 154 154 160 153 165 162
3610.0 163 148 151 158 161 166 151 159 153 169
3650.0 176 169 174 167 172 161 185 172 174 162
3690.0 159 172 170 164 148 161 185 169 155 152
3730.0 167 187 188 162 177 176 185 168 149 176
3770.0 172 178 173 179 167 182 167 177 169 188
3810.0 149 167 188 168 180 174 198 198 187 180
3850.0 179 179 202 173 173 182 180 186 160 173
3890.0 182 183 165 191 189 197 167 190 179 168
3930.0 164 185 187 195 197 189 197 184 193 188
##END=
