##TITLE=1-Hepten-3-ol
##JCAMP-DX=4.24
##DATA TYPE=INFRARED SPECTRUM
##ORIGIN=Sadtler Research Labs Under US-EPA Contract
##OWNER=NIST Standard Reference Data Program
##CAS REGISTRY NO=4938-52-7
##MOLFORM=C 7 H 14 O
##XUNITS=1/CM
##YUNITS=ABSORBANCE
##XFACTOR=1.0
##YFACTOR=0.000067978
##DELTAX=4.0
##FIRSTX=450.0
##LASTX=3966.0
##FIRSTY=0.011964
##MAXX=3966
##MINX=450
##MAXY=0.67978
##MINY=0
##NPOINTS=880
##XYDATA=(X++(Y..Y))
450.0 176 185 4 379 178 184 272 24 250 129
490.0 142 140 166 318 166 204 145 204 329 109
530.0 248 299 181 243 149 197 261 230 267 90
570.0 138 124 164 158 182 199 249 182 249 183
610.0 210 175 138 161 67 62 100 100 196 136
650.0 232 221 188 293 318 318 345 445 455 421
690.0 417 262 303 251 177 198 158 146 249 195
730.0 257 271 254 267 265 295 260 134 190 153
770.0 177 149 139 94 186 167 177 127 152 78
810.0 121 136 56 66 95 109 151 157 223 266
850.0 245 260 300 390 378 471 472 450 510 539
890.0 590 697 754 907 1101 1460 2055 2746 3211 3382
930.0 3175 2694 1959 1392 1101 991 928 928 1017 1170
970.0 1370 1674 2067 2501 2932 3332 3680 3700 3566 3374
1010.0 3256 3248 3147 3082 3121 2914 2713 2463 2220 2057
1050.0 1927 1845 1796 1665 1631 1616 1570 1547 1581 1496
1090.0 1531 1452 1396 1315 1295 1288 1248 1273 1347 1313
1130.0 1350 1342 1242 1246 1181 1072 918 762 724 616
1170.0 585 580 562 596 615 683 739 808 883 936
1210.0 1019 1042 1040 1023 1011 1055 1077 1051 1079 1130
1250.0 1132 1171 1180 1191 1195 1172 1148 1056 1017 999
1290.0 1041 1003 974 945 946 934 957 951 988 1009
1330.0 1038 1093 1181 1199 1199 1201 1209 1214 1229 1207
1370.0 1203 1255 1293 1250 1221 1143 1029 937 882 921
1410.0 1031 1138 1324 1432 1440 1361 1330 1314 1143 1107
1450.0 1130 1193 1282 1278 1234 1193 973 867 676 548
1490.0 405 296 231 229 203 135 175 152 103 129
1530.0 144 80 135 56 111 121 56 50 10 91
1570.0 78 65 84 81 117 69 86 112 95 122
1610.0 90 114 111 122 179 221 265 354 374 408
1650.0 355 313 205 172 138 75 88 66 92 37
1690.0 75 55 39 52 66 82 95 111 95 144
1730.0 145 112 92 90 83 84 111 141 136 154
1770.0 192 194 198 195 204 166 153 163 135 78
1810.0 82 109 79 85 79 111 147 172 235 288
1850.0 299 308 247 229 184 150 71 68 64 51
1890.0 34 35 38 41 55 51 59 45 44 41
1930.0 23 29 29 26 41 28 37 54 40 46
1970.0 62 74 61 40 47 54 53 34 49 32
2010.0 49 42 31 49 41 47 38 45 45 46
2050.0 42 35 35 32 42 41 34 29 24 33
2090.0 26 29 33 24 27 15 27 33 28 25
2130.0 13 30 27 34 32 25 17 22 22 24
2170.0 19 26 38 19 23 19 31 22 24 30
2210.0 19 18 32 26 32 23 30 27 25 31
2250.0 31 31 28 41 29 25 31 24 36 25
2290.0 15 24 14 15 4 9 21 38 29 39
2330.0 23 45 67 9 38 30 13 34 58 47
2370.0 21 37 36 32 21 41 38 43 36 43
2410.0 41 35 37 44 50 42 48 45 40 39
2450.0 44 32 37 32 37 40 33 29 36 40
2490.0 34 36 31 35 40 43 41 41 44 48
2530.0 45 44 53 56 54 58 57 65 67 73
2570.0 66 71 75 78 83 83 87 87 81 86
2610.0 85 90 81 91 96 100 100 100 100 108
2650.0 116 120 124 120 129 142 140 150 152 147
2690.0 158 149 148 149 144 146 153 158 153 168
2730.0 174 183 204 201 213 215 216 202 209 201
2770.0 205 218 225 244 260 282 298 327 360 386
2810.0 417 450 499 563 645 746 893 1104 1370 1708
2850.0 2132 2639 3203 3806 4383 4823 5132 5363 5279 4957
2890.0 4597 4181 3798 3684 3885 4297 4915 5677 6530 7536
2930.0 8479 9383 9943 10000 9586 8888 8164 7736 7905 8351
2970.0 8239 7573 6537 5062 3666 2794 2274 1912 1664 1503
3010.0 1373 1297 1206 1112 986 868 739 628 567 502
3050.0 481 462 465 509 556 639 754 922 1132 1337
3090.0 1433 1357 1194 954 670 471 327 262 196 167
3130.0 155 144 127 127 99 112 110 103 99 101
3170.0 89 81 81 91 93 96 93 83 66 72
3210.0 70 53 56 61 44 49 27 42 41 40
3250.0 44 44 41 38 23 17 39 33 40 33
3290.0 36 35 26 27 34 16 25 11 5 24
3330.0 33 41 34 24 34 30 27 31 48 43
3370.0 33 45 48 40 34 46 52 35 40 27
3410.0 45 49 41 39 36 27 37 47 49 36
3450.0 35 34 44 49 16 32 45 31 31 12
3490.0 17 36 23 20 29 19 14 26 27 26
3530.0 22 19 24 7 45 45 30 30 20 42
3570.0 90 79 93 102 67 68 69 46 73 89
3610.0 102 132 133 212 247 383 527 750 1053 1193
3650.0 1226 1247 1039 811 572 352 291 137 157 87
3690.0 69 52 41 76 53 56 41 40 52 49
3730.0 39 22 17 31 4 30 4 31 4 29
3770.0 46 13 43 29 23 35 46 42 15 40
3810.0 67 54 12 5 57 35 41 18 0 80
3850.0 39 67 23 75 33 36 61 51 90 16
3890.0 66 28 83 32 20 78 56 61 17 4
3930.0 75 59 8 23 54 68 36 64 16 26
##END=
