##TITLE=2H-1-Benzopyran, 3,4-dihydro-2-phenyl-
##JCAMP-DX=4.24
##DATA TYPE=INFRARED SPECTRUM
##ORIGIN=Sadtler Research Labs Under US-EPA Contract
##OWNER=NIST Standard Reference Data Program
##CAS REGISTRY NO=494-12-2
##MOLFORM=C 15 H 14 O
##XUNITS=1/CM
##YUNITS=ABSORBANCE
##XFACTOR=1.0
##YFACTOR=0.000094818
##DELTAX=4.0
##FIRSTX=450.0
##LASTX=3966.0
##FIRSTY=0.013843
##MAXX=3966
##MINX=450
##MAXY=0.94818
##MINY=0
##NPOINTS=880
##XYDATA=(X++(Y..Y))
450.0 146 182 287 227 178 187 74 62 52 53
490.0 68 90 92 151 166 221 294 270 234 199
530.0 182 193 212 269 315 342 312 263 342 427
570.0 416 356 274 213 146 109 76 37 28 22
610.0 21 3 7 0 8 21 23 42 66 147
650.0 269 376 414 414 358 435 427 471 579 792
690.0 1217 1620 1961 1812 1464 1121 937 814 754 751
730.0 891 1279 1961 2969 3956 4674 4182 2926 1737 948
770.0 534 342 230 172 115 101 95 93 103 186
810.0 307 356 317 272 235 205 260 352 360 284
850.0 224 206 146 81 72 82 104 161 263 409
890.0 534 557 488 403 386 389 441 633 815 837
930.0 715 586 473 317 191 122 92 86 88 104
970.0 106 146 189 279 439 765 1303 1776 1759 1296
1010.0 747 433 364 415 582 744 767 738 888 1213
1050.0 1413 1372 1289 1377 1604 1736 1699 1525 1310 1091
1090.0 857 649 572 842 1658 2376 2279 1493 706 353
1130.0 202 181 212 301 463 666 866 914 813 667
1170.0 680 788 876 914 978 1040 1016 933 828 840
1210.0 1005 1460 2172 3166 4811 7400 9820 10000 7349 4243
1250.0 2535 1596 1056 891 1067 1414 1521 1276 955 894
1290.0 1096 1495 1890 2004 1674 1202 928 791 801 866
1330.0 924 984 1060 1111 1047 911 766 723 721 713
1370.0 604 476 388 357 320 292 243 199 178 180
1410.0 186 212 227 271 328 432 587 775 1057 1491
1450.0 2083 2804 3147 2676 1671 921 908 1425 2547 4071
1490.0 4655 4173 3096 2327 1696 948 447 243 195 172
1530.0 179 172 177 136 130 125 143 147 225 327
1570.0 568 998 1752 2458 2567 1991 1154 743 706 803
1610.0 911 872 682 435 278 203 152 117 101 97
1650.0 77 89 99 89 105 113 117 141 128 115
1690.0 103 109 115 147 154 153 130 111 99 86
1730.0 70 55 58 57 56 57 83 75 80 78
1770.0 96 98 117 115 113 110 136 148 138 115
1810.0 88 75 61 38 14 6 2 10 3 13
1850.0 18 37 55 81 92 90 93 97 121 149
1890.0 168 162 135 102 73 64 62 85 119 148
1930.0 153 140 139 138 144 133 133 129 121 94
1970.0 73 54 46 38 34 25 22 29 29 27
2010.0 25 28 30 37 40 43 47 46 42 40
2050.0 38 36 37 42 46 56 59 61 50 42
2090.0 32 25 19 18 14 11 12 9 10 10
2130.0 11 10 9 9 9 9 12 18 18 14
2170.0 12 9 10 13 12 8 6 2 0 0
2210.0 4 7 15 18 20 15 12 10 9 8
2250.0 7 6 7 10 7 9 7 10 12 14
2290.0 15 23 34 46 53 64 70 71 80 78
2330.0 85 83 76 72 102 46 72 45 66 56
2370.0 65 45 44 33 17 7 7 9 5 9
2410.0 11 19 22 34 37 41 41 43 45 47
2450.0 54 55 54 57 58 53 47 40 30 22
2490.0 18 17 15 15 19 23 27 30 31 36
2530.0 39 40 39 36 32 28 25 29 37 41
2570.0 45 51 47 48 48 52 55 48 45 40
2610.0 36 31 31 28 31 34 38 40 37 33
2650.0 33 27 28 28 28 29 30 29 30 24
2690.0 25 25 29 24 23 23 27 27 34 40
2730.0 41 38 38 38 35 33 33 33 36 37
2770.0 39 42 47 55 63 68 69 74 75 77
2810.0 85 94 104 112 128 145 170 212 285 404
2850.0 577 787 971 1066 1059 987 892 784 680 592
2890.0 534 513 522 569 643 724 797 876 1012 1250
2930.0 1550 1808 2002 2052 1924 1720 1682 1893 1919 1562
2970.0 971 518 330 237 202 176 166 177 204 258
3010.0 346 477 667 925 1211 1462 1600 1604 1547 1488
3050.0 1412 1301 1228 1308 1587 1989 2216 2116 1816 1499
3090.0 1233 939 697 548 444 384 326 275 211 148
3130.0 110 88 67 62 56 54 58 59 68 67
3170.0 64 60 52 50 42 40 40 40 40 40
3210.0 36 32 33 37 44 43 44 45 46 50
3250.0 57 60 57 66 69 76 78 84 76 83
3290.0 86 92 92 95 93 88 89 89 88 92
3330.0 87 90 87 82 81 72 71 71 68 67
3370.0 62 59 50 42 43 40 36 23 20 17
3410.0 15 18 19 9 12 17 11 10 12 11
3450.0 10 14 5 5 5 12 9 6 15 9
3490.0 0 4 5 6 9 6 4 0 6 7
3530.0 7 5 1 4 4 18 9 5 10 12
3570.0 19 10 13 15 11 17 18 16 6 1
3610.0 16 11 8 7 0 34 11 10 13 22
3650.0 29 19 32 13 12 14 14 18 10 25
3690.0 24 11 11 23 11 17 19 24 16 32
3730.0 14 25 18 36 29 23 30 12 21 15
3770.0 8 6 7 18 0 9 10 13 24 15
3810.0 1 14 17 41 7 11 20 27 28 27
3850.0 40 42 36 24 39 40 20 15 28 32
3890.0 29 42 20 33 25 28 25 40 34 21
3930.0 27 13 21 22 31 12 19 20 33 12
##END=
