##TITLE=5H-Dibenz[b,f]azepine, 10,11-dihydro-
##JCAMP-DX=4.24
##DATA TYPE=INFRARED SPECTRUM
##ORIGIN=Sadtler Research Labs Under US-EPA Contract
##OWNER=NIST Standard Reference Data Program
##CAS REGISTRY NO=494-19-9
##MOLFORM=C 14 H 13 N
##XUNITS=1/CM
##YUNITS=ABSORBANCE
##XFACTOR=1.0
##YFACTOR=0.000150250
##DELTAX=4.0
##FIRSTX=450.0
##LASTX=3966.0
##FIRSTY=0.068514
##MAXX=3966
##MINX=450
##MAXY=1.5025
##MINY=0
##NPOINTS=880
##XYDATA=(X++(Y..Y))
450.0 456 379 447 512 558 577 522 429 385 323
490.0 302 263 242 220 209 188 161 139 135 137
530.0 138 114 103 99 73 73 88 77 70 80
570.0 89 96 119 158 212 237 150 96 86 114
610.0 208 222 167 78 50 54 72 82 93 108
650.0 110 106 97 98 81 107 130 137 158 176
690.0 174 180 195 203 220 243 318 427 584 842
730.0 1221 1770 2439 3210 3222 2730 1962 1423 1064 679
770.0 367 194 96 60 55 43 26 3 1 4
810.0 8 13 20 17 27 38 59 81 101 96
850.0 77 55 35 30 20 12 10 17 12 9
890.0 11 11 17 21 26 40 63 101 179 336
930.0 541 713 674 451 227 88 45 32 22 17
970.0 11 14 13 12 14 14 15 15 16 20
1010.0 24 26 31 40 41 53 67 98 152 214
1050.0 240 216 141 66 25 10 8 4 8 12
1090.0 22 39 82 185 454 796 851 620 327 129
1130.0 71 41 33 28 40 61 108 157 165 149
1170.0 110 97 96 105 113 124 137 150 173 195
1210.0 197 178 163 158 175 209 245 295 365 429
1250.0 411 361 363 462 624 822 964 964 851 740
1290.0 739 832 934 1110 1348 1598 1916 2388 2910 3234
1330.0 3182 2637 1938 1303 873 677 581 501 429 355
1370.0 305 284 245 202 188 162 154 153 135 143
1410.0 184 222 345 388 445 497 643 812 923 1052
1450.0 1093 1079 1237 1373 1573 1959 2815 4460 6749 9339
1490.0 10000 8965 6406 3905 2156 1346 1096 1031 1012 863
1530.0 727 558 449 386 309 241 235 283 295 363
1570.0 533 808 1240 1851 2313 2366 1943 1403 1002 897
1610.0 872 758 599 396 299 198 186 164 130 123
1650.0 147 144 114 103 108 112 127 84 110 105
1690.0 68 54 99 98 92 80 99 130 81 55
1730.0 68 105 80 87 109 129 117 122 128 121
1770.0 136 133 105 104 100 109 118 110 110 78
1810.0 70 61 47 48 48 53 44 40 64 90
1850.0 83 70 61 49 61 86 91 110 124 126
1890.0 113 89 66 58 70 97 131 149 136 88
1930.0 50 36 29 33 27 17 17 15 12 14
1970.0 10 10 9 10 11 19 16 14 13 14
2010.0 16 20 25 25 26 29 28 29 31 24
2050.0 23 20 18 19 20 17 17 17 19 21
2090.0 22 22 17 12 9 8 11 9 9 9
2130.0 12 12 14 15 20 25 27 31 34 32
2170.0 33 31 31 31 29 26 23 17 12 8
2210.0 7 4 4 4 4 4 3 2 0 1
2250.0 1 2 5 4 7 7 8 8 7 9
2290.0 9 12 13 16 18 20 28 28 34 34
2330.0 32 33 32 31 35 35 28 26 19 14
2370.0 21 20 20 20 17 11 11 13 15 15
2410.0 14 14 14 17 15 20 22 26 28 33
2450.0 33 33 37 37 38 41 41 41 36 35
2490.0 34 35 34 32 33 36 39 41 44 50
2530.0 55 65 71 74 76 76 77 77 78 67
2570.0 55 46 38 31 28 25 24 24 20 21
2610.0 19 16 13 16 15 12 16 16 14 15
2650.0 18 17 15 17 16 18 20 20 16 23
2690.0 25 27 29 31 34 36 34 32 31 28
2730.0 27 29 31 30 30 30 30 31 39 39
2770.0 41 43 43 41 37 35 34 37 36 40
2810.0 42 47 56 66 77 92 113 141 184 244
2850.0 312 383 424 414 353 270 208 176 174 186
2890.0 208 231 266 319 403 525 662 808 893 905
2930.0 959 1027 1066 1030 913 762 623 502 382 274
2970.0 188 132 105 103 114 136 173 228 310 414
3010.0 537 655 777 865 899 862 780 665 569 524
3050.0 543 642 812 1031 1214 1274 1163 909 644 461
3090.0 370 320 294 258 231 196 155 125 92 69
3130.0 49 35 33 24 25 22 19 19 18 25
3170.0 24 25 24 23 25 27 21 23 21 21
3210.0 13 17 15 13 17 18 13 10 12 15
3250.0 14 9 7 16 14 11 15 9 11 13
3290.0 15 19 15 21 12 17 19 22 21 29
3330.0 24 32 38 36 47 50 51 56 60 68
3370.0 81 82 91 92 94 103 104 111 102 101
3410.0 99 106 117 138 153 169 170 155 133 107
3450.0 81 53 40 42 38 38 33 24 26 17
3490.0 15 15 13 13 16 12 14 16 17 15
3530.0 7 16 7 8 7 11 13 19 17 11
3570.0 9 12 14 9 8 8 7 4 8 11
3610.0 4 11 2 7 8 8 12 17 11 12
3650.0 3 0 15 11 19 16 11 9 13 14
3690.0 4 8 14 13 18 13 6 22 19 14
3730.0 7 11 13 11 12 10 6 11 5 14
3770.0 13 14 16 14 9 15 7 10 13 16
3810.0 15 13 20 6 11 15 13 28 14 2
3850.0 17 30 18 21 21 23 26 20 17 26
3890.0 23 25 30 29 28 15 12 23 33 27
3930.0 38 24 9 19 39 35 27 12 17 37
##END=
