##TITLE=Benzene, 1,2-dimethoxy-4-methyl-
##JCAMP-DX=4.24
##DATA TYPE=INFRARED SPECTRUM
##ORIGIN=Sadtler Research Labs Under US-EPA Contract
##OWNER=NIST Standard Reference Data Program
##CAS REGISTRY NO=494-99-5
##MOLFORM=C 9 H 12 O 2
##XUNITS=1/CM
##YUNITS=ABSORBANCE
##XFACTOR=1.0
##YFACTOR=0.000143256
##DELTAX=4.0
##FIRSTX=450.0
##LASTX=3966.0
##FIRSTY=0.001003
##MAXX=3966
##MINX=450
##MAXY=1.43256
##MINY=0
##NPOINTS=880
##XYDATA=(X++(Y..Y))
450.0 7 160 130 191 188 225 216 110 166 79
490.0 210 212 174 99 108 184 132 162 109 144
530.0 197 191 239 249 253 176 242 151 133 114
570.0 180 188 247 283 317 369 366 344 304 273
610.0 243 223 191 178 156 113 103 77 77 86
650.0 97 39 70 96 0 171 61 92 63 91
690.0 91 74 106 126 149 203 203 265 248 254
730.0 285 330 410 519 647 736 809 871 829 710
770.0 602 460 362 443 564 755 1078 1264 1238 1320
810.0 1452 1347 1242 973 736 598 437 409 405 377
850.0 320 314 300 327 311 317 320 258 229 199
890.0 176 191 177 217 270 350 453 532 572 540
930.0 479 371 311 260 232 218 219 231 249 284
970.0 325 367 403 457 517 588 680 784 933 1118
1010.0 1447 1901 2517 3234 3869 4370 4473 4333 4003 3356
1050.0 2665 1988 1350 974 718 563 537 485 443 393
1090.0 409 420 466 592 718 940 1386 1827 2280 2577
1130.0 2982 3062 3028 3024 3069 3179 3120 3008 2664 2198
1170.0 1755 1402 1273 1276 1292 1267 1228 1219 1220 1339
1210.0 1530 1894 2365 2962 3552 4228 4663 4946 5017 4832
1250.0 4687 4709 5143 5837 6494 6985 7334 7314 7245 6851
1290.0 6274 5243 4137 3239 2528 1944 1504 1201 1073 925
1330.0 822 692 523 438 392 354 331 287 282 255
1370.0 314 275 321 417 391 521 581 739 984 1203
1410.0 1424 1540 1520 1477 1396 1392 1290 1478 1529 1660
1450.0 1761 1818 1942 2353 2381 2431 2180 2017 1820 1650
1490.0 1867 2434 3745 5518 7556 10000 9064 9077 6475 4101
1530.0 2752 1680 1232 775 656 643 542 540 476 649
1570.0 680 791 986 1040 1188 1115 1114 978 928 931
1610.0 813 894 638 630 427 333 283 183 183 220
1650.0 19 155 99 155 139 117 92 145 92 44
1690.0 136 126 54 52 83 129 88 29 88 146
1730.0 87 32 121 86 98 46 84 85 70 87
1770.0 63 38 94 69 101 51 96 44 71 83
1810.0 67 92 68 96 69 69 103 101 117 62
1850.0 137 142 145 166 118 121 111 123 94 88
1890.0 69 73 69 80 69 71 54 64 47 68
1930.0 78 80 96 74 94 104 116 95 111 80
1970.0 103 99 107 107 112 106 107 131 138 146
2010.0 159 161 172 185 202 211 213 209 196 186
2050.0 172 161 153 142 134 134 134 130 122 111
2090.0 96 88 76 61 49 42 37 33 29 29
2130.0 29 31 31 34 36 34 33 39 39 40
2170.0 45 43 47 52 54 63 64 61 54 52
2210.0 46 40 33 24 22 23 18 24 27 29
2250.0 40 41 47 52 53 59 57 57 53 54
2290.0 53 57 63 64 62 83 70 83 91 81
2330.0 102 109 87 125 88 86 111 117 148 148
2370.0 93 92 52 34 18 1 2 0 0 6
2410.0 5 10 15 14 18 20 25 24 21 20
2450.0 17 21 17 16 21 21 25 27 28 30
2490.0 33 38 43 43 45 43 47 52 55 63
2530.0 67 73 75 74 77 79 81 90 94 103
2570.0 99 96 91 81 75 70 68 69 64 63
2610.0 55 53 50 49 46 42 46 47 47 50
2650.0 51 50 53 50 48 47 49 50 47 51
2690.0 53 48 51 54 54 53 55 64 67 75
2730.0 87 103 127 140 144 140 125 116 116 117
2770.0 120 127 140 149 165 178 200 229 256 300
2810.0 355 433 537 698 927 1255 1653 1968 2113 2087
2850.0 1891 1633 1431 1359 1395 1483 1564 1610 1605 1564
2890.0 1520 1535 1598 1715 1887 2093 2348 2573 2791 3076
2930.0 3412 3783 4074 4181 4049 3797 3533 3200 2837 2528
2970.0 2285 2079 1911 1834 1858 2010 2277 2631 2880 2875
3010.0 2640 2240 1776 1437 1327 1329 1390 1443 1466 1449
3050.0 1379 1293 1196 1072 955 843 741 655 579 509
3090.0 457 413 381 343 321 296 276 259 242 224
3130.0 214 200 185 167 153 146 135 127 121 122
3170.0 123 118 110 113 115 108 103 100 100 102
3210.0 99 101 108 106 101 106 104 97 97 101
3250.0 101 106 101 102 99 98 99 103 100 101
3290.0 104 107 108 98 103 102 104 107 104 103
3330.0 100 108 114 107 110 113 108 118 116 103
3370.0 112 109 113 110 117 111 115 113 117 113
3410.0 112 109 121 114 113 123 118 122 126 111
3450.0 116 110 119 113 121 125 113 124 113 133
3490.0 120 112 117 138 107 149 118 129 130 131
3530.0 119 131 126 137 129 153 106 161 89 186
3570.0 110 157 100 160 104 171 125 158 138 137
3610.0 154 134 180 89 208 96 196 93 171 93
3650.0 250 57 229 120 100 212 20 279 49 209
3690.0 110 171 145 127 137 151 139 202 79 205
3730.0 117 144 261 19 363 0 334 43 208 171
3770.0 126 208 117 159 185 110 211 96 214 111
3810.0 181 140 167 174 134 207 147 158 220 51
3850.0 267 49 262 137 163 218 135 193 114 249
3890.0 127 227 107 207 156 132 237 137 199 148
3930.0 214 155 163 185 169 211 134 200 219 177
##END=
