##TITLE=Phenol, 2,4,5-trimethyl-
##JCAMP-DX=4.24
##DATA TYPE=INFRARED SPECTRUM
##ORIGIN=Sadtler Research Labs Under US-EPA Contract
##OWNER=NIST Standard Reference Data Program
##CAS REGISTRY NO=496-78-6
##MOLFORM=C 9 H 12 O
##XUNITS=1/CM
##YUNITS=ABSORBANCE
##XFACTOR=1.0
##YFACTOR=0.000043631
##DELTAX=4.0
##FIRSTX=450.0
##LASTX=3966.0
##FIRSTY=0.041624
##MAXX=3966
##MINX=450
##MAXY=0.43631
##MINY=0
##NPOINTS=880
##XYDATA=(X++(Y..Y))
450.0 954 751 369 435 225 37 151 117 225 155
490.0 282 342 379 388 406 322 280 198 219 234
530.0 368 461 587 685 660 731 660 543 495 471
570.0 415 294 320 264 184 224 199 186 142 135
610.0 104 101 78 101 105 101 102 90 111 123
650.0 114 159 182 336 536 849 890 926 841 649
690.0 362 287 235 233 190 173 163 150 155 185
730.0 283 323 338 304 279 186 152 131 113 119
770.0 111 161 164 240 306 414 562 689 829 969
810.0 1054 1040 1031 1049 1058 1064 1285 1408 1258 1170
850.0 1190 1346 1625 1944 2243 2902 2963 2099 1644 1207
890.0 818 536 394 337 329 327 313 322 298 301
930.0 272 289 289 314 326 366 401 428 520 575
970.0 690 783 916 1060 1283 1598 1870 2048 2080 2035
1010.0 1774 1460 1214 1076 963 846 813 823 937 1163
1050.0 1472 1736 2074 2592 3454 4650 5549 5869 5634 4917
1090.0 3359 1901 1166 927 851 884 979 1161 1435 1773
1130.0 2176 2530 2871 3187 3519 4111 5127 6514 7290 7587
1170.0 7488 6966 6153 5908 6245 6510 6663 6378 5928 5441
1210.0 5496 6026 6626 6865 6669 5956 4585 3392 2508 1974
1250.0 1708 1727 1954 2590 3675 5016 6456 7499 8137 7584
1290.0 6597 5395 4236 3190 2520 2107 1723 1353 1078 911
1330.0 772 727 637 630 639 667 667 687 778 936
1370.0 1200 1355 1605 1711 1746 1846 2104 2528 2896 3225
1410.0 3279 3195 2668 2286 2007 1846 1851 2001 2391 2747
1450.0 3308 3620 4128 4347 4476 4208 3981 3439 3065 2813
1490.0 3089 4184 5516 8444 8828 10000 9330 7813 5518 3351
1530.0 2240 1721 1499 1411 1396 1529 1606 1528 1713 1842
1570.0 2039 2105 2253 2352 2317 2183 1962 1653 1468 1278
1610.0 1232 1288 1431 1625 1791 1760 1677 1269 1101 698
1650.0 493 308 344 346 315 307 250 271 219 134
1690.0 186 202 104 157 213 309 309 323 390 441
1730.0 420 370 384 379 316 245 283 213 192 161
1770.0 129 50 93 68 85 47 46 45 21 65
1810.0 53 51 63 59 34 24 40 64 26 22
1850.0 40 63 57 63 50 44 64 86 99 101
1890.0 112 98 119 104 100 91 75 68 55 61
1930.0 67 56 57 34 32 41 41 38 41 34
1970.0 31 34 36 29 32 18 22 24 40 43
2010.0 44 35 29 35 30 29 23 28 21 32
2050.0 36 46 47 42 43 44 51 45 59 58
2090.0 63 53 47 48 40 30 30 28 19 22
2130.0 19 22 18 17 17 7 19 7 2 8
2170.0 8 10 12 10 19 22 20 28 18 22
2210.0 15 17 12 12 19 26 32 33 48 47
2250.0 48 44 43 41 43 37 41 45 54 70
2290.0 73 95 102 107 106 103 103 74 70 77
2330.0 65 61 65 102 69 122 101 114 88 79
2370.0 56 61 73 82 79 69 76 70 72 78
2410.0 82 83 89 97 98 102 99 111 113 126
2450.0 128 133 143 155 157 160 163 161 160 143
2490.0 134 119 107 96 75 72 63 62 49 54
2530.0 46 41 32 34 40 37 37 47 51 49
2570.0 59 51 61 59 63 64 62 73 58 62
2610.0 52 55 49 55 52 48 44 51 55 51
2650.0 57 63 68 74 77 83 88 101 101 110
2690.0 104 112 120 123 136 142 138 156 184 222
2730.0 271 336 403 435 434 404 343 294 274 284
2770.0 283 297 298 283 280 282 297 315 332 355
2810.0 394 419 460 532 598 666 772 902 1068 1298
2850.0 1576 1953 2430 3007 3702 4376 4923 5188 5233 5045
2890.0 4787 4505 4366 4372 4441 4583 4828 5354 6292 7652
2930.0 8921 9644 9729 9168 8125 6867 5863 5218 4962 4851
2970.0 4933 4947 4799 4593 4274 3911 3629 3626 3830 4317
3010.0 4757 4939 4914 4590 4002 3343 2681 2196 1953 1802
3050.0 1706 1617 1526 1399 1270 1132 1006 895 792 708
3090.0 635 559 506 458 421 400 380 376 356 339
3130.0 335 318 319 274 248 208 178 130 103 98
3170.0 73 77 69 62 50 55 55 54 53 51
3210.0 43 47 50 40 37 42 38 31 28 40
3250.0 17 33 35 51 45 51 32 37 42 46
3290.0 56 47 45 46 60 56 67 45 47 40
3330.0 55 64 68 80 81 91 88 99 123 110
3370.0 124 102 115 101 125 105 121 126 103 111
3410.0 102 115 107 104 110 119 94 102 87 74
3450.0 71 67 75 40 56 48 56 42 52 51
3490.0 42 46 47 46 42 57 36 42 55 51
3530.0 63 49 82 67 124 142 237 227 215 119
3570.0 65 117 107 138 94 115 110 90 106 161
3610.0 169 131 246 268 462 614 1364 2057 3784 5492
3650.0 7301 6691 6692 5860 3618 1778 785 285 188 142
3690.0 53 68 63 63 42 88 0 21 14 47
3730.0 56 73 1 38 21 9 77 7 95 80
3770.0 42 45 10 37 4 70 59 30 18 123
3810.0 29 106 18 105 29 79 72 22 36 100
3850.0 112 87 54 70 61 115 56 77 111 89
3890.0 88 100 80 148 55 72 97 116 54 84
3930.0 99 53 102 124 67 82 109 113 98 91
##END=
