##TITLE=5-Hydroxy-4-octanone
##JCAMP-DX=4.24
##DATA TYPE=INFRARED SPECTRUM
##ORIGIN=Sadtler Research Labs Under US-EPA Contract
##OWNER=NIST Standard Reference Data Program
##CAS REGISTRY NO=496-77-5
##MOLFORM=C 8 H 16 O 2
##XUNITS=1/CM
##YUNITS=ABSORBANCE
##XFACTOR=1.0
##YFACTOR=0.000095041
##DELTAX=4.0
##FIRSTX=450.0
##LASTX=3966.0
##FIRSTY=0.027657
##MAXX=3966
##MINX=450
##MAXY=0.95041
##MINY=0
##NPOINTS=880
##XYDATA=(X++(Y..Y))
450.0 291 153 82 53 57 30 46 26 11 13
490.0 34 39 17 52 48 25 24 29 35 34
530.0 30 14 22 47 59 41 59 75 65 65
570.0 73 73 83 74 82 91 81 66 71 57
610.0 57 72 68 78 64 62 83 73 43 45
650.0 47 66 61 47 55 58 47 63 47 61
690.0 76 76 92 82 95 99 106 119 125 143
730.0 144 189 219 239 239 257 255 238 215 174
770.0 161 156 156 150 160 175 195 200 216 220
810.0 226 244 255 268 276 273 266 261 264 259
850.0 274 276 282 255 249 233 240 270 319 362
890.0 397 397 391 373 348 303 256 220 184 187
930.0 204 226 264 313 337 367 409 464 495 518
970.0 524 520 498 476 471 490 516 595 722 922
1010.0 1212 1623 2110 2540 2756 2706 2413 2085 1860 1769
1050.0 1769 1779 1771 1729 1709 1722 1773 1830 1873 1859
1090.0 1793 1710 1667 1688 1814 2041 2394 2773 3018 3036
1130.0 2813 2420 2022 1727 1543 1438 1370 1321 1259 1168
1170.0 1050 907 773 662 580 521 494 501 534 583
1210.0 652 720 793 852 887 933 1031 1183 1329 1415
1250.0 1416 1344 1262 1233 1287 1362 1420 1427 1403 1370
1290.0 1338 1307 1263 1201 1093 985 881 811 776 767
1330.0 791 862 1001 1207 1449 1690 1878 1961 1952 1843
1370.0 1687 1597 1563 1624 1718 1782 1785 1749 1690 1609
1410.0 1504 1348 1218 1046 934 872 896 927 962 1003
1450.0 1097 1219 1392 1506 1529 1478 1283 988 704 505
1490.0 383 290 245 198 188 165 134 126 129 107
1530.0 95 85 87 84 77 69 67 72 69 47
1570.0 52 41 51 43 35 41 41 44 34 48
1610.0 46 50 65 58 71 53 82 73 82 77
1650.0 112 108 126 125 162 188 240 275 320 377
1690.0 417 542 746 1183 1850 2923 4339 5784 6526 6378
1730.0 5279 3725 2366 1538 1034 811 688 612 572 543
1770.0 546 537 512 482 479 440 390 321 254 190
1810.0 143 113 80 73 57 50 36 31 31 29
1850.0 24 14 17 14 19 18 15 12 14 13
1890.0 12 14 8 11 9 13 10 14 12 6
1930.0 6 9 10 10 10 6 7 5 6 4
1970.0 6 3 5 6 4 10 7 6 5 6
2010.0 6 5 7 7 10 8 12 8 13 14
2050.0 13 16 16 16 11 15 12 13 8 14
2090.0 11 12 13 14 12 12 13 13 14 12
2130.0 14 9 11 8 10 9 8 10 10 11
2170.0 12 13 16 15 16 16 18 14 13 14
2210.0 14 13 12 10 12 10 12 10 10 11
2250.0 8 5 8 8 5 7 7 6 5 7
2290.0 8 10 12 10 9 8 2 4 4 2
2330.0 2 2 2 2 12 8 8 7 11 1
2370.0 14 14 21 30 31 28 30 28 29 35
2410.0 37 38 35 31 29 24 22 17 15 16
2450.0 14 16 14 14 15 13 15 13 15 12
2490.0 14 13 16 17 14 17 16 16 17 17
2530.0 16 20 20 18 22 21 23 23 28 27
2570.0 29 32 29 32 33 35 37 38 40 39
2610.0 40 42 40 42 42 45 47 48 49 49
2650.0 54 54 60 66 70 73 79 86 91 93
2690.0 94 100 104 107 108 110 113 117 124 124
2730.0 129 139 157 178 199 208 210 209 208 211
2770.0 216 225 239 256 278 305 319 341 366 391
2810.0 413 440 464 493 524 563 628 712 837 993
2850.0 1171 1350 1510 1668 1853 2140 2588 3255 3928 4222
2890.0 4060 3590 3094 2840 2853 3072 3412 3778 4102 4380
2930.0 4730 5171 5775 6261 6320 5973 5586 5577 6395 7982
2970.0 9644 10000 8621 6515 4439 3029 2180 1635 1264 1004
3010.0 824 695 600 528 471 424 387 354 328 299
3050.0 273 253 227 205 189 172 162 154 142 139
3090.0 136 129 122 113 111 113 106 106 103 104
3130.0 101 101 97 100 100 96 96 96 96 94
3170.0 90 89 90 92 91 85 91 87 82 74
3210.0 71 64 52 46 42 38 36 29 26 23
3250.0 27 21 22 19 14 21 20 18 13 19
3290.0 19 21 16 16 16 18 14 11 15 20
3330.0 14 17 20 18 19 18 16 23 26 15
3370.0 22 23 24 29 24 34 31 40 46 55
3410.0 67 88 100 111 112 111 104 90 82 74
3450.0 68 75 80 91 99 119 132 159 184 219
3490.0 278 372 533 799 1165 1574 1939 2091 2009 1749
3530.0 1451 1178 975 836 722 631 536 470 405 372
3570.0 339 302 279 242 230 196 147 96 83 68
3610.0 64 60 48 48 47 59 58 53 69 78
3650.0 106 117 134 142 107 97 59 38 30 18
3690.0 9 3 9 13 6 10 2 2 2 11
3730.0 6 8 13 0 32 0 18 4 7 9
3770.0 12 17 9 9 8 13 5 10 12 25
3810.0 6 17 3 12 22 21 18 15 21 16
3850.0 36 45 29 33 21 22 27 23 22 21
3890.0 21 23 20 20 37 28 34 26 29 21
3930.0 8 34 30 20 30 17 26 28 16 19
##END=
