##TITLE=1H-Indole, 2,3-dihydro-
##JCAMP-DX=4.24
##DATA TYPE=INFRARED SPECTRUM
##ORIGIN=Sadtler Research Labs Under US-EPA Contract
##OWNER=NIST Standard Reference Data Program
##CAS REGISTRY NO=496-15-1
##MOLFORM=C 8 H 9 N
##XUNITS=1/CM
##YUNITS=ABSORBANCE
##XFACTOR=1.0
##YFACTOR=0.000075571
##DELTAX=4.0
##FIRSTX=450.0
##LASTX=3966.0
##FIRSTY=0.069978
##MAXX=3966
##MINX=450
##MAXY=0.75571
##MINY=0
##NPOINTS=880
##XYDATA=(X++(Y..Y))
450.0 926 737 501 761 844 1181 1439 1511 1974 2339
490.0 2856 2732 2447 2581 2697 2370 2051 1650 1312 1151
530.0 1062 1144 1358 1519 1625 1711 1615 1555 1314 911
570.0 790 636 534 460 398 380 369 361 312 216
610.0 182 137 88 55 24 45 4 41 7 0
650.0 42 69 97 192 285 520 741 1036 1348 1606
690.0 1916 2012 2082 2020 2037 1967 2224 2538 3305 4230
730.0 5273 6194 7614 10000 8386 5859 4954 3783 2540 1502
770.0 913 606 453 389 321 314 288 267 231 241
810.0 209 218 194 237 239 281 388 445 547 602
850.0 590 615 654 646 677 659 600 505 381 307
890.0 253 211 189 195 223 238 276 321 308 265
930.0 263 248 268 220 207 186 173 165 144 149
970.0 120 126 177 152 152 160 157 194 258 436
1010.0 735 1074 1429 1652 1728 1643 1426 1140 875 767
1050.0 833 938 1019 1013 964 860 715 613 584 612
1090.0 568 513 481 395 245 137 87 59 57 43
1130.0 81 119 205 327 459 499 553 721 773 736
1170.0 702 670 596 543 487 452 425 410 417 434
1210.0 488 595 843 1271 2072 3341 4822 5943 6611 6897
1250.0 6636 5513 4057 3010 2312 1869 1573 1337 1137 997
1290.0 880 789 776 990 1528 2086 2635 2998 3113 2921
1330.0 2378 1828 1299 854 543 376 301 260 246 242
1370.0 247 280 350 455 641 914 1266 1574 1716 1684
1410.0 1572 1280 908 560 395 366 495 687 819 1006
1450.0 1473 2223 3504 4553 5210 5997 6508 6611 6229 6467
1490.0 6334 5807 5128 4139 2713 1281 592 278 162 109
1530.0 78 93 83 124 115 159 162 213 253 286
1570.0 387 497 666 819 1033 1362 1815 2643 4004 5642
1610.0 6144 5879 5232 4227 2692 1245 558 297 190 147
1650.0 121 161 129 128 140 128 124 132 117 146
1690.0 147 207 326 446 488 509 421 252 162 109
1730.0 87 86 114 119 158 193 215 199 213 214
1770.0 182 157 133 147 140 179 167 159 134 126
1810.0 84 61 51 48 75 74 84 70 70 60
1850.0 60 68 109 159 215 253 249 256 249 196
1890.0 132 97 84 110 163 223 234 228 199 159
1930.0 92 24 10 3 9 11 21 25 25 25
1970.0 27 23 9 12 12 6 6 13 16 14
2010.0 21 15 23 19 28 23 20 19 22 17
2050.0 14 14 14 14 7 14 10 5 9 13
2090.0 9 20 27 28 31 25 25 15 10 9
2130.0 7 11 11 15 16 28 24 30 26 29
2170.0 24 24 16 13 18 12 13 10 6 2
2210.0 8 6 4 6 4 7 4 11 5 13
2250.0 13 13 12 6 7 1 1 1 4 1
2290.0 10 19 28 37 41 46 47 42 36 35
2330.0 37 50 57 49 68 11 0 0 16 53
2370.0 91 89 86 52 34 18 18 20 27 29
2410.0 30 36 34 40 36 41 41 39 39 34
2450.0 34 28 39 42 65 76 95 95 97 90
2490.0 77 59 46 42 37 39 33 39 50 46
2530.0 52 50 58 61 69 84 102 108 121 124
2570.0 123 118 105 100 93 103 111 122 125 130
2610.0 132 126 112 97 102 99 116 124 131 131
2650.0 136 127 121 113 103 104 98 104 108 120
2690.0 128 139 163 190 214 240 269 266 263 257
2730.0 230 211 203 191 185 183 191 203 211 235
2770.0 245 264 284 318 358 400 459 493 521 528
2810.0 540 547 570 616 703 857 1113 1561 2246 3277
2850.0 4480 5751 6600 6579 6226 5549 4548 3680 3002 2557
2890.0 2275 2125 2084 2146 2247 2394 2612 2859 3102 3382
2930.0 3710 4033 4344 4533 4592 4586 4485 4400 4339 4280
2970.0 4196 4082 3916 3579 3106 2608 2086 1592 1178 943
3010.0 937 1075 1346 1673 2080 2630 3023 3028 3097 3315
3050.0 3225 3142 3170 3223 3184 3230 3096 2667 2337 2148
3090.0 1942 1693 1364 1032 740 547 422 342 260 190
3130.0 134 96 77 66 53 54 39 32 30 28
3170.0 29 42 34 28 44 49 50 44 53 40
3210.0 32 46 34 31 32 28 25 9 18 0
3250.0 12 6 17 12 4 8 15 22 25 20
3290.0 5 35 17 22 29 34 30 37 42 28
3330.0 56 50 56 37 48 65 63 60 66 57
3370.0 50 64 45 51 61 93 106 128 172 273
3410.0 429 698 992 1112 1108 1158 1106 820 537 347
3450.0 225 160 128 125 112 104 82 77 94 87
3490.0 83 95 93 95 118 130 142 175 153 142
3530.0 186 122 69 58 38 31 39 29 28 30
3570.0 39 40 30 44 11 45 40 31 21 13
3610.0 17 22 42 47 57 27 40 17 31 41
3650.0 25 18 4 46 5 52 37 72 26 47
3690.0 40 32 65 48 39 29 70 42 60 62
3730.0 43 56 79 39 67 40 67 48 30 36
3770.0 8 27 41 39 40 54 23 52 72 52
3810.0 51 38 23 35 34 6 34 42 48 62
3850.0 51 31 92 59 80 49 36 47 91 55
3890.0 120 78 95 129 41 54 55 83 121 40
3930.0 63 55 106 79 76 69 57 46 4 80
##END=
