##TITLE=1,2-Benzenedithiol, 4-methyl-
##JCAMP-DX=4.24
##DATA TYPE=INFRARED SPECTRUM
##ORIGIN=Sadtler Research Labs Under US-EPA Contract
##OWNER=NIST Standard Reference Data Program
##CAS REGISTRY NO=496-74-2
##MOLFORM=C 7 H 8 S 2
##XUNITS=1/CM
##YUNITS=ABSORBANCE
##XFACTOR=1.0
##YFACTOR=0.000056247
##DELTAX=4.0
##FIRSTX=450.0
##LASTX=3966.0
##FIRSTY=0.034648
##MAXX=3966
##MINX=450
##MAXY=0.56247
##MINY=0
##NPOINTS=880
##XYDATA=(X++(Y..Y))
450.0 616 567 490 560 571 617 635 609 626 594
490.0 633 605 674 732 803 823 753 237 96 806
530.0 784 1044 1639 1539 1386 1199 949 802 705 730
570.0 692 660 728 768 754 760 747 731 677 651
610.0 643 632 682 727 772 812 781 713 617 590
650.0 585 561 557 593 647 796 904 1193 1441 1589
690.0 1621 1295 1023 959 940 789 715 1177 1251 1150
730.0 995 851 798 711 783 815 814 853 915 1006
770.0 1047 1105 1225 1531 2202 3224 4418 5666 7488 7344
810.0 5359 4217 3045 2088 1594 1429 1368 1370 1418 1510
850.0 1690 1924 2251 2601 2810 2840 2647 2217 1750 1369
890.0 1118 980 913 881 863 839 819 809 816 815
930.0 828 873 941 952 905 834 774 752 792 897
970.0 1087 1319 1554 1799 2018 2215 2323 2122 1960 2097
1010.0 2150 2135 2123 2139 2255 2638 3237 3606 3750 3727
1050.0 3265 2609 2239 1969 1856 1827 1880 1874 1840 1809
1090.0 1770 1748 1752 1765 1833 2041 2485 3154 3831 4267
1130.0 4262 3694 2892 2387 2141 1893 1645 1416 1242 1121
1170.0 1041 971 909 881 865 846 842 875 952 1062
1210.0 1086 979 733 359 330 580 661 688 1069 1508
1250.0 1839 2187 2637 3150 3286 3097 2999 2383 1815 1484
1290.0 1306 1177 1080 990 921 891 867 857 850 857
1330.0 883 919 952 987 1022 1053 1096 1165 1281 1456
1370.0 1711 2037 2430 2744 2855 2901 2798 2551 2340 2198
1410.0 2097 2010 1900 1801 1722 1641 1464 1480 1878 2021
1450.0 2603 3912 6244 8840 10000 9747 8356 5613 3490 2689
1490.0 2277 1947 1688 1549 1404 1282 1158 1066 1001 994
1530.0 1014 1058 1085 1075 1085 1054 995 907 855 836
1570.0 808 838 965 1303 1840 2332 2448 2256 1819 1178
1610.0 724 556 476 461 446 441 418 388 381 344
1650.0 311 274 305 302 304 302 307 316 317 307
1690.0 338 356 366 397 462 552 629 659 660 630
1730.0 618 636 683 698 669 593 509 430 380 349
1770.0 341 322 315 297 286 276 270 279 289 303
1810.0 309 315 313 296 277 257 249 246 242 241
1850.0 246 255 261 277 291 321 371 424 473 496
1890.0 489 455 401 345 293 265 244 229 225 211
1930.0 206 197 191 182 184 177 173 171 180 180
1970.0 187 184 189 193 195 196 200 203 202 201
2010.0 211 210 203 196 184 177 174 170 173 169
2050.0 170 167 163 164 168 166 167 169 164 166
2090.0 158 160 151 150 148 153 147 149 148 147
2130.0 146 150 146 148 152 148 152 149 140 142
2170.0 137 138 143 140 139 134 140 134 134 138
2210.0 135 131 139 139 138 133 136 137 140 147
2250.0 150 152 154 147 143 135 128 131 132 137
2290.0 147 151 151 153 141 139 132 112 117 102
2330.0 103 93 65 80 92 110 100 121 125 126
2370.0 122 137 143 163 163 155 153 153 146 135
2410.0 131 136 135 132 129 125 123 118 119 126
2450.0 123 135 137 144 150 167 180 191 201 200
2490.0 200 185 180 174 174 173 176 183 195 199
2530.0 203 201 200 204 229 281 402 587 778 924
2570.0 1058 1026 913 781 626 482 367 280 210 154
2610.0 106 95 91 98 113 128 148 162 166 151
2650.0 133 104 71 61 41 30 30 31 15 12
2690.0 13 9 1 6 5 7 2 6 16 35
2730.0 51 72 127 169 184 186 152 72 45 34
2770.0 37 34 37 25 19 19 11 23 25 23
2810.0 20 23 39 65 73 97 136 186 247 320
2850.0 414 542 721 931 1170 1395 1575 1680 1706 1676
2890.0 1623 1568 1514 1480 1460 1483 1579 1820 2265 2972
2930.0 3726 4202 4235 3823 3081 2295 1748 1444 1302 1219
2970.0 1091 1012 991 1034 1086 1187 1313 1497 1644 1768
3010.0 1898 2041 2138 2202 2196 2180 2159 2193 2323 2587
3050.0 2902 2932 2696 2442 2052 1670 1481 1386 1267 1081
3090.0 829 606 442 316 239 186 158 122 104 96
3130.0 85 69 58 49 46 44 33 34 29 20
3170.0 12 7 9 13 8 13 4 1 13 12
3210.0 12 13 14 8 17 12 6 27 20 16
3250.0 19 20 16 16 20 5 8 14 22 25
3290.0 15 25 16 10 12 19 14 10 16 24
3330.0 17 17 19 23 26 33 31 33 37 35
3370.0 40 42 46 43 39 28 25 32 38 41
3410.0 48 57 58 53 50 54 76 78 96 110
3450.0 117 121 148 155 150 138 140 127 122 129
3490.0 112 96 75 74 69 72 61 47 35 49
3530.0 40 34 30 21 25 36 22 34 33 39
3570.0 28 29 20 27 27 23 14 15 6 8
3610.0 16 20 31 13 8 29 29 35 26 24
3650.0 28 20 25 26 29 42 38 33 49 43
3690.0 31 45 45 43 53 36 59 42 36 47
3730.0 21 24 44 41 9 22 23 60 30 29
3770.0 13 34 12 7 22 0 10 2 0 10
3810.0 2 7 12 2 16 19 15 5 15 5
3850.0 15 0 20 6 7 15 13 10 0 12
3890.0 16 17 19 23 11 31 23 53 55 48
3930.0 20 26 24 2 27 22 30 34 11 0
##END=
