##TITLE=Benzofuran-2-carboxylic acid
##JCAMP-DX=4.24
##DATA TYPE=INFRARED SPECTRUM
##ORIGIN=Sadtler Research Labs Under US-EPA Contract
##OWNER=NIST Standard Reference Data Program
##CAS REGISTRY NO=496-41-3
##MOLFORM=C 9 H 6 O 3
##XUNITS=1/CM
##YUNITS=ABSORBANCE
##XFACTOR=1.0
##YFACTOR=0.000041272
##DELTAX=4.0
##FIRSTX=450.0
##LASTX=3966.0
##FIRSTY=0.000000
##MAXX=3966
##MINX=450
##MAXY=0.41272
##MINY=0
##NPOINTS=880
##XYDATA=(X++(Y..Y))
450.0 0 534 968 536 516 560 573 494 493 668
490.0 851 792 777 677 801 1227 1468 1475 1564 2036
530.0 1744 1600 1712 1290 458 393 320 219 607 731
570.0 764 803 714 517 400 337 444 309 286 301
610.0 482 464 359 383 245 322 302 266 140 208
650.0 230 212 393 312 407 632 881 1285 1886 2162
690.0 2246 1916 1371 917 753 608 483 563 725 1051
730.0 1490 1972 2928 3840 4323 4260 3665 2590 2302 1789
770.0 1279 985 792 712 598 500 659 892 1103 1225
810.0 1111 954 713 839 869 974 963 901 847 654
850.0 639 677 544 516 510 524 571 726 1002 975
890.0 894 681 422 381 425 395 412 481 473 649
930.0 777 974 1037 1038 984 821 601 465 436 375
970.0 386 406 386 370 409 460 535 644 739 784
1010.0 752 831 760 703 716 726 705 655 693 725
1050.0 765 876 1062 1354 1893 2480 3112 3849 4531 4716
1090.0 4730 4281 3452 2917 2578 2357 2471 2745 3804 5560
1130.0 6658 7625 7710 6186 5589 5203 5174 5744 5659 4966
1170.0 4159 3098 2495 2210 2010 1928 1729 1637 1477 1308
1210.0 1247 1214 1201 1203 1164 1212 1214 1274 1422 1645
1250.0 2076 2535 2805 2745 2480 2178 1928 1887 2020 2211
1290.0 2405 2508 2529 2461 2314 2360 2443 2548 2539 2397
1330.0 2353 2251 2228 2152 2018 2012 2084 2117 2237 2426
1370.0 2768 3137 3105 2811 2175 1604 1270 1108 953 796
1410.0 738 689 689 622 646 672 737 746 961 980
1450.0 1058 962 1016 840 1014 1009 1209 1228 1305 1363
1490.0 1362 1396 1162 1119 1182 1176 1132 783 705 639
1530.0 606 680 549 702 768 1004 1281 1621 2316 2770
1570.0 3256 3440 3037 3130 2679 2391 2066 1722 1266 1098
1610.0 1176 1091 1094 885 747 467 443 301 374 353
1650.0 232 266 259 417 323 398 371 489 469 511
1690.0 527 658 636 661 906 966 1090 1068 1143 1260
1730.0 1212 1441 1452 1860 2485 3631 5899 8044 8938 9863
1770.0 10000 9384 8991 8581 7464 4959 3164 2489 1522 786
1810.0 626 515 518 504 491 435 440 402 435 353
1850.0 362 326 328 319 300 309 266 288 282 284
1890.0 320 350 377 373 390 356 368 321 361 347
1930.0 375 370 349 328 268 246 217 238 217 237
1970.0 234 216 207 208 194 227 218 215 209 200
2010.0 217 212 216 205 205 205 203 200 205 201
2050.0 209 220 218 221 219 221 206 214 211 214
2090.0 224 214 218 215 206 216 221 207 221 214
2130.0 215 204 210 208 214 208 204 196 188 190
2170.0 178 193 184 183 178 188 195 193 186 192
2210.0 200 192 186 187 191 184 201 189 187 191
2250.0 199 204 207 204 202 204 198 216 211 221
2290.0 241 241 265 264 253 252 235 197 194 150
2330.0 188 176 212 224 178 282 170 149 157 248
2370.0 236 251 245 265 240 199 183 170 172 166
2410.0 145 147 158 161 169 166 169 171 174 182
2450.0 191 189 180 182 180 198 202 206 201 202
2490.0 205 193 209 194 206 191 195 197 199 187
2530.0 197 189 185 171 168 173 171 175 166 170
2570.0 179 196 185 193 191 179 187 171 179 168
2610.0 169 170 181 188 188 169 159 174 167 191
2650.0 169 178 168 185 177 203 195 189 190 179
2690.0 184 180 185 175 197 197 207 200 197 183
2730.0 193 193 187 201 175 191 195 210 200 225
2770.0 212 237 224 223 224 210 210 206 211 198
2810.0 238 216 232 214 221 210 197 206 205 238
2850.0 224 246 271 309 294 302 304 309 306 288
2890.0 284 285 295 289 306 304 327 334 384 374
2930.0 398 425 416 424 392 347 343 336 315 324
2970.0 326 318 304 298 295 291 301 296 326 320
3010.0 341 357 379 398 425 450 472 507 532 590
3050.0 600 638 653 705 734 865 964 978 959 863
3090.0 708 608 554 494 405 302 271 249 231 218
3130.0 203 203 231 237 219 238 235 229 212 200
3170.0 206 194 200 194 215 205 218 201 221 194
3210.0 186 190 190 200 198 197 181 211 188 207
3250.0 196 196 184 178 190 201 187 185 222 204
3290.0 235 209 196 195 192 212 204 214 245 259
3330.0 252 282 273 282 234 272 217 242 211 222
3370.0 260 248 275 268 274 233 233 235 249 219
3410.0 206 226 189 194 184 207 164 201 177 183
3450.0 195 182 193 215 184 200 223 209 224 227
3490.0 233 215 241 272 243 222 251 237 280 315
3530.0 298 261 239 287 292 272 261 326 340 558
3570.0 852 1758 3218 4341 5098 4365 3042 1626 741 373
3610.0 335 302 258 286 238 258 269 316 281 396
3650.0 289 385 334 405 311 360 211 259 229 273
3690.0 299 144 368 230 298 324 292 332 309 330
3730.0 302 254 226 341 199 332 273 320 259 345
3770.0 300 266 284 282 303 297 302 335 262 304
3810.0 232 354 178 232 222 369 266 339 353 320
3850.0 416 245 379 302 323 269 309 358 399 274
3890.0 377 344 402 387 417 289 386 303 333 400
3930.0 350 489 289 408 400 439 407 309 322 221
##END=
