##TITLE=Valeric acid, 2-bromo-4-methyl-,
##JCAMP-DX=4.24
##DATA TYPE=INFRARED SPECTRUM
##ORIGIN=Sadtler Research Labs Under US-EPA Contract
##OWNER=NIST Standard Reference Data Program
##CAS REGISTRY NO=49628-52-6
##MOLFORM=C 6 H 11 Br O 2
##XUNITS=1/CM
##YUNITS=ABSORBANCE
##XFACTOR=1.0
##YFACTOR=0.000061554
##DELTAX=4.0
##FIRSTX=450.0
##LASTX=3966.0
##FIRSTY=0.033424
##MAXX=3966
##MINX=450
##MAXY=0.61554
##MINY=0
##NPOINTS=880
##XYDATA=(X++(Y..Y))
450.0 543 171 1 74 100 158 51 158 49 128
490.0 338 247 340 264 310 375 504 561 593 704
530.0 623 827 986 1014 1240 1450 1604 1667 1569 1472
570.0 1447 1363 1408 1497 1577 1560 1660 1660 1633 1721
610.0 1761 1719 1979 2000 2110 2229 2161 2111 1905 1793
650.0 1574 1404 1207 1074 1099 881 771 728 536 410
690.0 332 248 260 217 200 249 242 273 219 282
730.0 220 145 176 228 222 203 228 282 310 289
770.0 205 207 240 217 219 152 226 253 238 267
810.0 284 187 223 179 223 162 105 105 102 108
850.0 86 90 66 156 189 230 246 345 359 360
890.0 229 163 289 240 273 302 307 314 305 315
930.0 254 191 204 228 248 263 186 177 189 157
970.0 147 127 159 155 134 159 134 152 134 157
1010.0 180 195 258 281 335 443 471 485 501 496
1050.0 493 491 517 552 619 696 809 1028 1335 1798
1090.0 2549 3492 4589 5382 5696 5432 4787 4161 3744 3454
1130.0 3361 3281 3134 2899 2646 2494 2518 2660 2732 2693
1170.0 2542 2257 2019 1794 1556 1439 1241 1060 902 763
1210.0 678 617 618 661 720 810 889 903 924 894
1250.0 903 932 930 948 935 870 852 800 815 817
1290.0 843 872 921 962 960 993 986 1036 1121 1224
1330.0 1348 1411 1446 1438 1359 1294 1238 1194 1183 1229
1370.0 1315 1442 1518 1481 1488 1496 1363 1151 882 616
1410.0 429 354 354 336 340 399 424 493 495 519
1450.0 547 583 636 765 857 953 947 812 581 384
1490.0 272 221 172 147 157 130 150 144 121 110
1530.0 115 103 113 117 67 99 83 116 71 72
1570.0 86 105 100 67 74 79 62 85 70 110
1610.0 108 112 96 127 106 95 87 101 103 129
1650.0 102 136 93 118 105 121 122 113 126 141
1690.0 162 154 194 205 250 287 361 439 539 678
1730.0 837 989 1119 1270 1415 1619 1964 2533 3511 4925
1770.0 6867 8663 9888 10000 8313 6176 4239 2971 2189 1758
1810.0 1515 1299 1140 969 781 630 461 351 293 221
1850.0 207 158 142 126 116 115 92 78 65 69
1890.0 80 75 66 67 64 67 49 49 59 47
1930.0 52 62 46 52 42 38 34 31 40 32
1970.0 37 29 34 37 30 40 34 34 34 36
2010.0 31 26 37 31 33 37 32 23 21 33
2050.0 28 22 20 30 28 10 11 14 22 7
2090.0 8 12 7 9 7 5 1 2 6 7
2130.0 4 7 7 5 7 10 10 12 9 3
2170.0 6 6 9 16 12 18 25 27 28 23
2210.0 26 23 27 24 17 16 20 14 13 6
2250.0 10 15 9 7 5 3 10 14 17 22
2290.0 22 31 30 40 37 31 28 21 29 18
2330.0 9 15 1 1 0 32 1 30 14 17
2370.0 10 30 30 27 32 17 21 16 20 27
2410.0 26 28 25 28 32 25 24 29 32 34
2450.0 35 33 30 32 36 28 38 35 34 38
2490.0 36 33 31 32 28 26 31 30 31 29
2530.0 30 26 30 26 30 27 27 28 24 26
2570.0 30 34 32 30 32 31 30 31 38 34
2610.0 33 39 39 37 41 39 42 36 42 42
2650.0 33 41 37 32 40 40 38 44 43 43
2690.0 43 48 48 50 47 46 52 54 52 65
2730.0 78 82 89 94 102 96 85 75 64 65
2770.0 78 77 79 82 87 83 91 90 94 101
2810.0 112 122 140 146 162 183 196 215 246 281
2850.0 300 319 352 395 485 665 948 1287 1556 1645
2890.0 1500 1308 1158 1073 1097 1148 1223 1310 1379 1483
2930.0 1644 1825 2049 2199 2212 2221 2366 2790 3773 5090
2970.0 5921 5655 4435 2688 1492 881 657 529 453 390
3010.0 344 301 254 206 185 152 146 141 120 126
3050.0 125 122 116 112 111 95 98 104 100 100
3090.0 91 98 103 89 92 85 81 100 86 92
3130.0 98 83 94 98 100 81 88 95 93 114
3170.0 98 103 106 103 110 105 102 99 95 90
3210.0 80 79 60 67 59 55 40 51 57 64
3250.0 50 49 46 42 41 52 38 47 42 38
3290.0 53 51 41 37 46 39 31 40 34 35
3330.0 40 31 35 47 49 36 43 40 29 27
3370.0 38 36 53 38 36 43 33 31 27 32
3410.0 21 18 42 38 20 28 36 35 26 33
3450.0 38 34 33 37 37 50 35 47 79 79
3490.0 127 137 162 187 195 202 167 177 181 195
3530.0 199 188 213 196 195 225 186 338 611 1374
3570.0 2795 4103 4755 4606 3476 1885 842 346 163 126
3610.0 123 130 143 89 86 75 87 49 41 71
3650.0 119 83 55 35 33 102 69 110 46 22
3690.0 82 57 57 47 43 80 89 57 66 105
3730.0 46 107 146 54 140 107 98 71 54 77
3770.0 93 50 49 62 77 64 57 99 84 84
3810.0 73 90 99 88 90 90 83 116 130 66
3850.0 144 136 111 80 125 102 70 81 132 131
3890.0 82 118 72 143 120 74 77 99 69 128
3930.0 105 81 78 104 55 111 105 73 73 27
##END=
