##TITLE=Phosphonic acid, phenyl-, diisopropyl ester
##JCAMP-DX=4.24
##DATA TYPE=INFRARED SPECTRUM
##ORIGIN=Sadtler Research Labs Under US-EPA Contract
##OWNER=NIST Standard Reference Data Program
##CAS REGISTRY NO=49637-59-4
##MOLFORM=C 22 H 39 O 3 P
##XUNITS=1/CM
##YUNITS=ABSORBANCE
##XFACTOR=1.0
##YFACTOR=0.000089893
##DELTAX=4.0
##FIRSTX=450.0
##LASTX=3966.0
##FIRSTY=0.031552
##MAXX=3966
##MINX=450
##MAXY=0.89893
##MINY=0
##NPOINTS=880
##XYDATA=(X++(Y..Y))
450.0 351 422 462 436 457 509 544 554 599 799
490.0 767 737 899 1019 1175 1304 1435 1585 1632 1742
530.0 1836 1958 1919 1949 2054 2414 2653 2856 3021 2768
570.0 2396 1878 1349 977 638 415 334 272 169 200
610.0 147 74 162 125 52 94 122 130 145 140
650.0 132 144 228 222 316 486 440 465 583 961
690.0 1688 2668 2362 1707 1519 1314 1059 961 914 981
730.0 1176 1454 1908 2599 2954 2381 1716 1446 1406 1399
770.0 1388 1313 1317 1242 1274 1289 1323 1331 1423 1467
810.0 1536 1534 1544 1519 1468 1468 1496 1485 1445 1431
850.0 1398 1433 1326 1269 1217 1146 1141 1096 1113 1154
890.0 1167 1247 1304 1346 1410 1428 1364 1359 1423 1495
930.0 1595 1773 1966 2158 2398 2673 2977 3312 3706 4273
970.0 4996 5772 6521 7161 7671 8108 8502 8724 8512 8379
1010.0 8312 8155 7922 7764 7474 7063 6693 6574 6497 6388
1050.0 6310 6296 6184 6063 5653 5135 4448 3666 2976 2345
1090.0 1904 1578 1410 1317 1306 1318 1505 1973 2940 4749
1130.0 5751 4220 2475 1632 1318 1118 1030 962 871 782
1170.0 707 648 607 593 557 504 508 519 534 575
1210.0 636 695 769 882 974 1111 1326 1695 2247 3001
1250.0 3956 4792 5320 5232 4924 4570 4056 3439 2723 2119
1290.0 1655 1314 1088 913 783 683 595 514 475 466
1330.0 455 468 462 467 451 492 569 654 806 1006
1370.0 1153 1270 1525 1758 1839 1621 1245 864 630 509
1410.0 458 436 486 553 644 859 1224 1890 1869 1427
1450.0 1458 1687 2029 2178 2267 2106 1757 1356 1021 794
1490.0 600 447 388 314 341 344 251 217 225 175
1530.0 135 174 148 187 151 140 154 166 165 120
1570.0 152 134 167 154 200 308 323 260 194 137
1610.0 137 114 139 108 91 88 83 91 90 114
1650.0 101 131 84 98 105 147 146 161 147 175
1690.0 148 139 169 203 181 171 193 232 188 203
1730.0 195 204 218 206 195 200 229 220 229 247
1770.0 225 246 234 223 217 200 186 197 228 228
1810.0 236 263 266 217 246 227 221 210 210 212
1850.0 205 196 185 184 136 198 155 164 176 183
1890.0 203 198 219 204 185 195 168 162 128 135
1930.0 131 114 128 132 140 136 151 173 177 167
1970.0 151 164 123 104 119 110 101 97 91 86
2010.0 107 99 98 89 84 85 95 84 73 73
2050.0 80 109 83 78 75 105 83 129 62 84
2090.0 76 91 102 95 92 70 84 57 85 87
2130.0 112 106 93 83 90 86 60 54 121 112
2170.0 83 83 107 103 127 111 90 49 110 73
2210.0 70 82 116 97 98 71 99 100 116 98
2250.0 99 101 113 131 113 110 113 131 141 143
2290.0 129 160 160 183 204 238 266 263 294 272
2330.0 259 267 309 307 292 252 291 280 380 284
2370.0 298 251 205 182 99 68 79 82 72 84
2410.0 95 78 68 65 53 89 77 94 77 63
2450.0 67 64 77 70 59 56 60 48 62 48
2490.0 74 71 92 69 96 97 58 59 62 74
2530.0 91 89 105 104 99 91 80 101 126 108
2570.0 114 94 97 116 94 107 144 128 163 162
2610.0 166 143 143 163 165 146 144 146 142 140
2650.0 143 157 177 153 172 158 165 156 169 157
2690.0 178 179 182 216 205 216 236 273 252 284
2730.0 289 307 304 281 286 291 289 303 294 281
2770.0 282 311 296 309 327 352 345 370 412 451
2810.0 489 516 572 662 729 846 997 1188 1477 1759
2850.0 2099 2405 2801 3138 3565 4016 4380 4505 4479 4422
2890.0 4398 4491 4714 5025 5288 5618 5842 6119 6378 6687
2930.0 6985 7111 7084 7013 7020 7457 8294 9287 10000 9990
2970.0 8940 7205 5355 3794 2738 2016 1529 1221 1013 870
3010.0 764 701 678 632 587 577 567 518 544 515
3050.0 596 652 761 847 897 900 782 684 628 574
3090.0 482 396 327 305 251 251 239 187 194 186
3130.0 210 190 176 161 174 179 171 165 147 148
3170.0 143 148 132 114 113 114 94 111 98 95
3210.0 92 75 74 46 48 64 58 54 69 41
3250.0 45 0 48 46 44 38 44 15 12 29
3290.0 13 21 32 11 33 38 30 40 46 41
3330.0 25 16 46 46 26 70 32 37 43 58
3370.0 20 47 55 23 65 40 46 46 53 59
3410.0 81 45 25 60 61 47 59 47 73 74
3450.0 90 73 64 79 51 77 77 63 67 73
3490.0 58 41 46 69 80 57 59 67 76 76
3530.0 74 79 75 66 72 73 88 90 72 86
3570.0 101 105 71 115 100 128 106 97 92 130
3610.0 121 70 86 87 85 146 95 74 88 81
3650.0 132 112 133 81 105 151 152 124 111 103
3690.0 142 155 133 146 125 133 133 135 135 156
3730.0 171 193 181 176 199 181 182 139 152 164
3770.0 146 166 158 146 161 175 181 156 199 224
3810.0 199 214 186 195 174 171 208 208 200 189
3850.0 212 265 218 203 238 234 242 227 228 258
3890.0 207 216 209 230 248 246 251 248 231 216
3930.0 234 235 227 251 269 259 143 153 154 155
##END=
