##TITLE=Butanedioic acid, methyl-
##JCAMP-DX=4.24
##DATA TYPE=INFRARED SPECTRUM
##ORIGIN=Sadtler Research Labs Under US-EPA Contract
##OWNER=NIST Standard Reference Data Program
##CAS REGISTRY NO=498-21-5
##MOLFORM=C 5 H 8 O 4
##XUNITS=1/CM
##YUNITS=ABSORBANCE
##XFACTOR=1.0
##YFACTOR=0.000131937
##DELTAX=4.0
##FIRSTX=450.0
##LASTX=3966.0
##FIRSTY=0.034699
##MAXX=3966
##MINX=450
##MAXY=1.31937
##MINY=0
##NPOINTS=880
##XYDATA=(X++(Y..Y))
450.0 263 210 0 132 167 65 410 146 250 235
490.0 98 340 300 233 303 286 323 272 395 398
530.0 354 473 477 669 654 786 906 917 1047 1157
570.0 1134 1205 1130 1015 981 984 894 765 792 679
610.0 583 593 530 517 496 455 487 473 444 455
650.0 420 408 335 377 386 386 326 266 299 322
690.0 271 250 267 282 288 434 355 424 532 554
730.0 384 417 351 300 287 247 255 217 250 298
770.0 283 268 274 288 272 237 233 214 185 173
810.0 161 175 138 154 140 128 144 129 157 181
850.0 210 210 200 251 343 435 564 714 913 1202
890.0 1586 1977 2205 2395 2614 2832 2984 2876 2662 2496
930.0 2277 2041 1608 1141 847 685 645 631 673 756
970.0 932 1192 1660 2266 2914 3363 3521 3478 3227 2811
1010.0 2069 1281 801 605 557 529 536 582 639 752
1050.0 943 1155 1287 1417 1492 1549 1592 1572 1620 1710
1090.0 1825 2082 2251 2378 2419 2397 2336 2278 2201 2117
1130.0 2002 1862 1686 1482 1312 1179 1077 1016 995 976
1170.0 972 994 1010 1035 1080 1145 1239 1347 1482 1629
1210.0 1725 1804 1803 1780 1727 1651 1583 1496 1433 1391
1250.0 1309 1225 1129 1016 891 774 693 646 633 633
1290.0 633 624 608 576 548 525 519 507 461 452
1330.0 448 426 455 442 422 416 413 417 453 459
1370.0 449 489 508 498 552 529 523 501 431 384
1410.0 357 378 437 430 429 416 440 451 399 389
1450.0 377 427 436 440 422 421 386 343 282 228
1490.0 238 173 161 143 160 209 153 151 164 137
1530.0 120 125 129 134 151 137 114 140 112 102
1570.0 96 100 102 84 93 83 89 85 98 97
1610.0 87 114 101 118 113 113 118 118 116 118
1650.0 119 115 128 99 135 117 138 124 163 169
1690.0 162 154 174 208 216 237 260 320 335 381
1730.0 449 536 630 701 861 1032 1228 1529 1881 2339
1770.0 2856 3306 3799 4151 4660 5287 6209 7581 8548 9370
1810.0 10000 9509 9288 8031 6210 4620 3266 2338 1780 1452
1850.0 1275 1188 1224 1334 1487 1626 1693 1704 1634 1479
1890.0 1258 988 740 540 395 320 251 238 212 185
1930.0 170 151 150 140 139 116 119 109 110 116
1970.0 112 113 110 116 115 118 127 110 111 111
2010.0 103 102 94 83 78 76 74 72 72 65
2050.0 66 62 63 61 61 60 55 61 59 56
2090.0 63 68 67 67 65 76 74 72 74 72
2130.0 88 83 80 81 81 85 88 88 79 87
2170.0 84 89 91 92 91 96 90 92 90 92
2210.0 85 84 82 77 78 66 65 63 73 66
2250.0 61 62 59 53 58 58 61 61 65 70
2290.0 84 89 108 114 110 129 108 108 111 95
2330.0 85 69 82 103 113 101 120 96 93 65
2370.0 64 66 66 81 67 51 42 34 39 39
2410.0 38 45 43 47 46 46 45 53 47 42
2450.0 45 46 42 47 42 42 34 31 34 37
2490.0 33 27 34 32 34 27 23 26 21 27
2530.0 25 19 23 23 23 25 27 29 31 32
2570.0 27 29 31 36 37 40 34 34 37 37
2610.0 31 31 34 34 35 35 31 37 37 35
2650.0 36 34 29 32 32 35 31 31 36 39
2690.0 36 45 35 42 41 37 40 37 36 30
2730.0 42 36 41 44 47 47 49 51 45 44
2770.0 48 47 44 45 46 47 48 44 47 45
2810.0 47 52 49 56 56 59 62 68 71 77
2850.0 72 77 87 83 95 95 115 144 167 196
2890.0 209 225 231 229 224 222 225 231 238 262
2930.0 290 332 380 407 438 444 428 402 399 402
2970.0 431 483 526 620 698 708 689 608 519 426
3010.0 339 238 165 119 103 96 84 87 75 72
3050.0 70 73 72 65 67 64 65 66 66 69
3090.0 62 55 61 60 66 70 73 65 64 62
3130.0 58 60 61 63 62 66 57 60 66 62
3170.0 59 63 67 64 60 74 60 58 64 63
3210.0 64 60 67 69 63 58 64 61 64 64
3250.0 64 63 63 60 61 64 72 64 65 67
3290.0 66 65 68 68 64 64 66 65 71 64
3330.0 62 70 71 69 72 60 60 66 75 66
3370.0 76 59 67 71 89 75 76 78 68 54
3410.0 51 62 55 48 61 65 60 59 56 60
3450.0 60 52 57 55 58 59 55 47 59 53
3490.0 45 45 56 58 69 47 57 41 52 67
3530.0 68 67 60 57 74 79 94 132 239 488
3570.0 803 926 973 932 751 492 214 111 61 50
3610.0 43 23 39 22 44 42 53 53 78 59
3650.0 99 76 120 111 111 108 119 117 90 100
3690.0 59 67 53 55 47 44 66 48 41 63
3730.0 65 38 93 64 111 62 72 39 45 19
3770.0 19 32 38 47 48 47 61 50 49 52
3810.0 49 63 53 70 61 63 83 72 70 56
3850.0 60 49 59 42 57 68 72 71 95 62
3890.0 57 68 75 70 71 70 21 80 64 34
3930.0 50 63 40 22 92 117 108 89 72 91
##END=
