##TITLE=2-Norbornene
##JCAMP-DX=4.24
##DATA TYPE=INFRARED SPECTRUM
##ORIGIN=Sadtler Research Labs Under US-EPA Contract
##OWNER=NIST Standard Reference Data Program
##CAS REGISTRY NO=498-66-8
##MOLFORM=C 7 H 10
##XUNITS=1/CM
##YUNITS=ABSORBANCE
##XFACTOR=1.0
##YFACTOR=0.000204440
##DELTAX=4.0
##FIRSTX=450.0
##LASTX=3966.0
##FIRSTY=0.000000
##MAXX=3966
##MINX=450
##MAXY=2.0444
##MINY=0
##NPOINTS=880
##XYDATA=(X++(Y..Y))
450.0 0 43 68 72 62 112 143 121 117 116
490.0 118 111 68 85 86 94 99 105 97 96
530.0 116 108 124 96 136 120 129 117 123 117
570.0 97 129 116 127 120 129 118 141 127 132
610.0 115 108 136 117 129 111 135 105 127 135
650.0 126 130 123 160 114 153 140 213 310 641
690.0 1104 1479 1625 1245 2185 2602 1127 1911 1842 1426
730.0 802 424 279 163 176 154 180 153 127 268
770.0 235 103 169 160 109 148 150 118 88 159
810.0 155 186 182 173 185 261 232 115 171 153
850.0 184 181 221 271 234 456 553 227 394 455
890.0 413 356 283 363 420 303 248 253 206 171
930.0 131 134 140 109 125 127 118 92 101 113
970.0 69 83 72 71 61 61 62 68 84 91
1010.0 106 95 137 171 125 102 151 129 101 90
1050.0 83 80 72 73 72 84 100 106 132 135
1090.0 137 195 159 137 218 228 297 178 239 523
1130.0 252 194 245 211 173 115 100 88 90 93
1170.0 89 82 83 80 72 72 69 69 72 72
1210.0 70 77 81 78 79 88 101 116 134 146
1250.0 192 238 190 222 251 262 257 211 258 228
1290.0 166 167 170 137 101 131 162 264 370 451
1330.0 428 507 867 615 392 471 407 279 163 92
1370.0 83 68 78 63 78 73 78 84 90 99
1410.0 83 123 103 113 128 201 239 288 283 274
1450.0 488 509 239 309 278 252 195 151 115 102
1490.0 103 85 81 69 71 56 61 56 51 53
1530.0 47 50 50 55 71 90 112 129 147 166
1570.0 188 202 181 164 186 177 178 177 190 189
1610.0 250 246 182 207 197 196 169 115 106 102
1650.0 86 69 65 58 60 59 61 65 67 67
1690.0 70 72 68 70 71 76 72 74 72 77
1730.0 78 77 78 80 78 72 74 70 69 67
1770.0 65 62 65 60 62 66 66 71 68 74
1810.0 74 68 66 68 63 61 62 62 65 61
1850.0 63 65 61 62 63 62 60 60 58 59
1890.0 56 56 54 55 54 54 56 55 57 59
1930.0 59 58 59 55 56 56 54 54 53 55
1970.0 49 54 53 56 55 54 54 57 55 56
2010.0 57 56 59 58 61 66 70 78 85 93
2050.0 95 96 97 95 84 82 79 81 78 76
2090.0 76 78 74 70 71 67 68 68 66 65
2130.0 67 67 66 68 68 70 70 74 76 79
2170.0 80 80 83 80 89 84 81 83 90 84
2210.0 79 80 81 78 71 76 70 68 66 66
2250.0 63 62 62 61 58 57 62 63 67 72
2290.0 76 77 79 82 81 84 77 76 76 71
2330.0 63 61 60 50 66 65 65 60 65 63
2370.0 66 66 67 66 63 57 53 50 50 54
2410.0 51 54 53 53 54 49 50 48 49 46
2450.0 49 48 47 50 51 50 47 51 50 51
2490.0 50 51 50 53 49 50 49 49 51 50
2530.0 54 54 56 55 56 56 55 54 53 53
2570.0 48 53 51 55 54 58 56 54 54 55
2610.0 56 51 55 53 51 50 51 49 46 49
2650.0 45 46 44 46 44 43 43 46 47 48
2690.0 53 48 54 54 58 53 57 57 58 60
2730.0 61 63 60 63 60 67 60 62 59 59
2770.0 59 56 56 49 57 51 55 51 58 55
2810.0 57 65 61 73 73 95 92 128 148 207
2850.0 289 455 733 1056 1467 1703 2105 2328 2641 2466
2890.0 1844 1792 1689 1358 1208 1298 1442 1356 1598 2121
2930.0 2300 2280 2837 3346 3808 4239 5271 6711 6722 7399
2970.0 10000 9646 7222 8780 8966 5476 4780 3904 2621 1433
3010.0 719 347 202 142 134 138 152 210 304 478
3050.0 667 906 1043 1151 1373 1673 1400 1008 965 873
3090.0 595 351 190 131 103 107 108 125 135 151
3130.0 163 175 185 190 181 163 152 132 112 93
3170.0 78 68 60 62 62 63 69 82 80 81
3210.0 85 90 84 83 79 72 67 60 59 50
3250.0 48 45 45 44 46 46 46 45 46 48
3290.0 49 49 48 49 47 48 50 54 54 55
3330.0 59 62 62 65 68 63 60 59 58 56
3370.0 55 50 49 50 50 50 47 51 56 56
3410.0 57 59 66 63 72 74 80 77 91 88
3450.0 81 71 70 67 56 57 49 49 51 47
3490.0 48 49 47 48 48 44 44 48 46 49
3530.0 48 45 49 54 50 48 49 48 43 48
3570.0 47 43 46 45 43 46 48 44 44 47
3610.0 49 48 49 47 43 48 46 48 53 54
3650.0 53 50 51 55 54 54 55 55 57 53
3690.0 48 54 56 46 54 65 58 68 67 69
3730.0 71 73 79 83 80 86 79 76 71 70
3770.0 69 60 57 57 55 58 57 51 53 60
3810.0 56 53 63 54 58 59 55 54 57 61
3850.0 62 59 61 68 62 56 58 62 61 55
3890.0 56 51 49 47 48 50 44 49 50 53
3930.0 57 53 55 53 65 47 47 45 43 48
##END=
