##TITLE=Ethanone, 1-(4-hydroxy-3-methoxyphenyl)-
##JCAMP-DX=4.24
##DATA TYPE=INFRARED SPECTRUM
##ORIGIN=Sadtler Research Labs Under US-EPA Contract
##OWNER=NIST Standard Reference Data Program
##CAS REGISTRY NO=498-02-2
##MOLFORM=C 9 H 10 O 3
##XUNITS=1/CM
##YUNITS=ABSORBANCE
##XFACTOR=1.0
##YFACTOR=0.000186209
##DELTAX=4.0
##FIRSTX=450.0
##LASTX=3966.0
##FIRSTY=0.015455
##MAXX=3966
##MINX=450
##MAXY=1.86209
##MINY=0
##NPOINTS=880
##XYDATA=(X++(Y..Y))
450.0 83 151 139 273 260 276 542 370 416 389
490.0 236 189 119 142 68 13 42 5 31 13
530.0 129 57 66 152 150 222 398 500 429 783
570.0 944 1117 1068 882 652 488 468 429 407 346
610.0 282 232 208 221 263 278 363 392 430 412
650.0 356 283 209 151 167 209 250 239 248 262
690.0 187 194 154 132 127 110 178 165 145 121
730.0 164 115 135 153 154 180 207 233 277 356
770.0 443 567 780 1022 1212 1229 1088 839 710 724
810.0 739 975 1053 926 749 707 545 461 405 366
850.0 357 368 367 396 452 523 609 692 737 694
890.0 602 516 432 362 341 306 292 270 269 280
930.0 273 302 289 312 347 369 383 400 394 404
970.0 427 435 423 393 383 385 397 430 476 548
1010.0 649 785 942 1144 1321 1467 1557 1512 1348 1107
1050.0 846 633 538 520 548 564 562 524 506 467
1090.0 452 456 486 546 611 755 958 1151 1361 1441
1130.0 1391 1291 1105 940 874 891 968 1106 1282 1473
1170.0 1599 1662 1718 1817 2040 2385 2921 3637 4529 5454
1210.0 6020 5965 5292 4100 2888 1981 1530 1372 1400 1618
1250.0 2000 2514 3142 3870 4940 6482 8427 10000 9818 8161
1290.0 5462 3523 2261 1474 1064 838 715 635 592 562
1330.0 556 565 578 690 895 1207 1580 1877 2020 1994
1370.0 1830 1662 1566 1453 1308 1149 991 824 777 826
1410.0 970 1289 1679 2271 2704 2778 2514 1906 1292 984
1450.0 921 982 1082 1218 1263 1238 1090 978 866 790
1490.0 890 1206 1883 2794 3674 4113 3602 2803 1689 1077
1530.0 697 510 420 331 326 334 348 332 415 467
1570.0 569 740 966 1324 1669 2082 2463 2446 2559 2316
1610.0 2046 1805 1385 1021 643 469 317 277 262 261
1650.0 287 328 440 432 515 572 651 930 1272 2063
1690.0 3217 4088 4585 4428 3520 2233 1369 909 798 742
1730.0 719 712 790 824 841 831 812 744 678 620
1770.0 556 517 478 427 378 324 264 235 184 185
1810.0 150 126 121 96 86 68 76 86 69 73
1850.0 76 101 99 99 90 65 78 66 62 59
1890.0 51 54 61 68 68 67 62 62 53 65
1930.0 66 63 57 50 55 55 54 54 55 44
1970.0 32 40 35 35 41 36 42 48 47 52
2010.0 50 45 41 48 54 59 66 72 75 86
2050.0 84 85 85 83 80 87 83 76 73 65
2090.0 54 50 45 38 36 25 25 24 22 23
2130.0 25 25 24 14 21 24 22 22 22 20
2170.0 15 22 17 14 16 16 12 14 8 12
2210.0 16 19 18 17 17 19 22 26 27 25
2250.0 21 26 21 17 20 19 21 26 30 32
2290.0 40 38 41 40 34 27 14 12 15 10
2330.0 9 6 13 19 31 21 9 16 22 32
2370.0 44 41 53 53 43 31 23 20 22 19
2410.0 17 17 22 22 24 21 19 21 21 16
2450.0 17 20 25 29 29 33 40 47 55 54
2490.0 56 51 59 55 55 52 49 47 47 46
2530.0 49 56 61 58 53 47 43 38 37 39
2570.0 31 35 31 23 18 19 17 15 14 13
2610.0 18 17 18 22 24 32 36 39 40 45
2650.0 46 45 47 45 39 39 28 16 9 8
2690.0 7 2 1 0 5 11 6 4 8 11
2730.0 16 16 15 19 19 24 22 26 31 33
2770.0 35 31 31 30 35 37 38 43 44 50
2810.0 65 74 87 96 114 131 156 192 246 310
2850.0 371 411 424 405 365 313 287 274 267 257
2890.0 269 273 282 296 317 356 396 448 496 542
2930.0 580 600 629 683 747 800 832 850 831 783
2970.0 747 692 610 512 433 380 358 375 440 563
3010.0 706 766 721 607 431 294 231 197 176 174
3050.0 187 198 210 238 267 313 368 405 405 358
3090.0 280 206 163 141 128 109 113 112 104 95
3130.0 91 81 76 67 62 58 55 49 46 42
3170.0 40 40 37 42 45 42 44 45 44 39
3210.0 41 35 32 28 26 22 26 22 29 31
3250.0 30 23 26 26 23 21 20 19 16 16
3290.0 9 9 0 1 0 11 13 15 20 30
3330.0 37 47 51 54 61 68 73 76 93 101
3370.0 112 126 135 149 140 122 103 89 73 62
3410.0 62 62 64 77 82 85 83 84 83 81
3450.0 77 77 80 82 85 90 89 85 91 98
3490.0 105 103 108 109 124 124 121 128 136 139
3530.0 149 154 177 197 237 287 373 531 827 1303
3570.0 1946 2510 2900 2764 2347 1631 1018 617 390 295
3610.0 255 235 222 203 200 210 206 216 229 250
3650.0 263 261 214 191 179 177 192 178 179 161
3690.0 185 182 167 169 173 168 178 170 177 175
3730.0 180 214 215 240 245 314 270 267 230 203
3770.0 176 183 163 177 172 171 174 175 183 186
3810.0 171 181 181 199 185 166 169 172 177 180
3850.0 179 216 199 178 193 189 184 198 195 197
3890.0 212 192 191 217 239 215 201 199 194 186
3930.0 177 127 129 135 169 181 196 206 218 226
##END=
