##TITLE=4-Hydroxy-3-hexanone
##JCAMP-DX=4.24
##DATA TYPE=INFRARED SPECTRUM
##ORIGIN=Sadtler Research Labs Under US-EPA Contract
##OWNER=NIST Standard Reference Data Program
##CAS REGISTRY NO=4984-85-4
##MOLFORM=C 6 H 12 O 2
##XUNITS=1/CM
##YUNITS=ABSORBANCE
##XFACTOR=1.0
##YFACTOR=0.000070370
##DELTAX=4.0
##FIRSTX=450.0
##LASTX=3966.0
##FIRSTY=0.009219
##MAXX=3966
##MINX=450
##MAXY=0.7037
##MINY=0
##NPOINTS=880
##XYDATA=(X++(Y..Y))
450.0 131 154 133 103 91 112 107 71 16 60
490.0 71 27 26 64 57 39 43 48 67 58
530.0 51 77 85 89 128 103 132 139 129 181
570.0 188 165 163 130 181 163 140 130 133 115
610.0 93 74 81 108 122 128 109 101 93 79
650.0 91 70 78 60 51 56 31 47 41 33
690.0 30 10 21 3 18 6 8 22 29 42
730.0 62 96 99 124 124 155 147 150 136 115
770.0 114 122 140 141 141 134 127 113 103 106
810.0 99 89 88 76 64 39 34 21 22 15
850.0 21 12 20 14 23 34 76 134 216 287
890.0 357 389 413 395 357 316 256 197 148 163
930.0 200 271 400 597 856 1177 1570 1976 2374 2733
970.0 2951 3023 2963 2771 2491 2168 1875 1632 1420 1246
1010.0 1158 1171 1297 1515 1776 2041 2262 2383 2381 2340
1050.0 2284 2259 2335 2445 2548 2628 2649 2592 2560 2575
1090.0 2731 3128 3791 4595 5243 5591 5679 5442 4786 4042
1130.0 3428 2999 2681 2441 2240 2083 1944 1822 1753 1667
1170.0 1551 1407 1246 1085 964 859 773 728 711 720
1210.0 784 883 1010 1153 1289 1407 1475 1509 1548 1632
1250.0 1761 1913 2021 2029 1964 1781 1524 1281 1104 989
1290.0 929 906 916 962 1033 1123 1247 1413 1630 1888
1330.0 2173 2466 2731 2917 2985 2905 2705 2408 2098 1854
1370.0 1771 1902 2128 2400 2665 2879 2904 2807 2691 2559
1410.0 2395 2180 1984 1756 1569 1412 1356 1345 1419 1508
1450.0 1660 1819 2038 2137 2055 1965 1733 1397 1054 762
1490.0 557 411 325 250 223 182 148 125 113 95
1530.0 71 65 57 49 43 46 40 46 52 32
1570.0 42 30 44 34 25 30 34 43 33 55
1610.0 50 62 75 79 88 85 122 120 139 145
1650.0 189 190 226 229 276 300 360 417 472 580
1690.0 674 910 1230 1900 2858 4282 6048 7995 9484 10000
1730.0 9755 8465 6408 4424 2889 1970 1488 1278 1247 1259
1770.0 1270 1199 1127 1053 1103 1152 1072 881 674 517
1810.0 386 294 206 156 109 78 57 41 32 20
1850.0 20 9 11 3 11 1 5 5 5 5
1890.0 4 8 2 4 3 6 5 10 6 4
1930.0 8 9 14 13 18 16 18 16 19 18
1970.0 19 17 17 20 15 21 21 22 20 21
2010.0 21 20 21 22 24 22 26 22 20 24
2050.0 25 25 24 25 19 25 20 22 17 22
2090.0 17 16 18 14 19 18 19 20 21 20
2130.0 24 17 21 23 23 20 18 18 20 18
2170.0 19 20 20 21 22 19 22 23 25 24
2210.0 26 28 28 25 24 21 25 23 18 17
2250.0 15 17 18 17 16 18 15 15 16 16
2290.0 13 12 7 8 3 1 3 6 14 23
2330.0 21 29 15 20 29 30 32 35 42 31
2370.0 40 38 40 45 48 41 43 38 35 41
2410.0 43 44 47 42 44 40 42 37 38 38
2450.0 36 36 36 33 35 31 29 30 28 28
2490.0 31 25 28 27 25 27 20 20 23 23
2530.0 21 21 24 21 25 22 26 26 33 32
2570.0 35 36 34 42 46 48 52 50 52 51
2610.0 57 52 48 52 46 49 47 47 45 46
2650.0 47 46 47 52 56 64 65 73 78 83
2690.0 82 86 86 85 87 91 97 101 112 125
2730.0 136 147 163 186 210 228 245 265 274 283
2770.0 292 312 337 363 396 433 456 485 506 529
2810.0 539 553 569 594 629 677 747 845 986 1157
2850.0 1385 1647 1924 2152 2309 2399 2502 2666 2887 3120
2890.0 3258 3274 3154 2980 2842 2856 3003 3302 3681 4137
2930.0 4639 5071 5507 5897 6198 6157 5977 5664 5554 5648
2970.0 6004 6645 7017 7058 6970 6303 5525 4550 3578 2607
3010.0 1851 1366 1059 865 728 637 548 484 428 387
3050.0 346 321 298 281 266 247 241 235 221 215
3090.0 204 191 176 171 161 158 147 149 142 146
3130.0 142 142 139 142 144 139 142 136 137 139
3170.0 138 134 129 125 123 105 103 95 83 72
3210.0 64 58 51 43 42 36 28 26 23 15
3250.0 23 17 12 10 8 17 14 17 13 19
3290.0 20 27 17 18 13 14 9 8 14 14
3330.0 12 11 10 13 5 6 14 16 20 10
3370.0 8 11 16 18 16 25 28 36 45 63
3410.0 82 106 127 158 186 204 216 212 200 183
3450.0 173 171 162 164 171 175 188 213 243 294
3490.0 374 516 757 1148 1709 2331 2897 3300 3451 3288
3530.0 2956 2531 2126 1796 1522 1305 1116 990 889 810
3570.0 726 624 597 543 451 420 385 293 213 151
3610.0 119 98 76 74 74 75 68 82 108 115
3650.0 160 192 219 236 200 162 127 73 46 18
3690.0 10 1 4 1 1 1 1 1 1 2
3730.0 3 1 1 0 10 1 1 1 1 1
3770.0 1 1 1 1 1 1 1 1 1 1
3810.0 1 1 1 1 1 1 1 1 4 1
3850.0 0 26 7 24 30 33 32 25 16 31
3890.0 27 34 10 19 27 10 30 24 36 22
3930.0 4 20 19 16 26 18 21 25 1 15
##END=
