##TITLE=2,4,6-Cycloheptatrien-1-one, 2-hydroxy-4-(1-methylethyl)-
##JCAMP-DX=4.24
##DATA TYPE=INFRARED SPECTRUM
##ORIGIN=Sadtler Research Labs Under US-EPA Contract
##OWNER=NIST Standard Reference Data Program
##CAS REGISTRY NO=499-44-5
##MOLFORM=C 10 H 12 O 2
##XUNITS=1/CM
##YUNITS=ABSORBANCE
##XFACTOR=1.0
##YFACTOR=0.000116394
##DELTAX=4.0
##FIRSTX=450.0
##LASTX=3966.0
##FIRSTY=0.000000
##MAXX=3966
##MINX=450
##MAXY=1.16394
##MINY=0
##NPOINTS=880
##XYDATA=(X++(Y..Y))
450.0 0 178 117 90 54 90 86 63 64 76
490.0 57 77 71 67 53 56 41 50 35 22
530.0 24 23 38 32 25 39 28 39 26 42
570.0 40 45 50 63 46 66 74 98 158 202
610.0 239 224 202 155 143 138 160 205 260 349
650.0 477 611 751 783 731 616 502 430 380 386
690.0 392 429 482 594 732 866 1025 1146 1276 1457
730.0 1631 1805 1930 1985 1869 1644 1327 1035 843 736
770.0 678 668 653 630 605 523 416 351 327 370
810.0 496 621 780 856 647 492 360 238 184 139
850.0 113 86 72 69 72 97 123 163 197 244
890.0 304 381 496 634 768 786 630 484 375 317
930.0 355 510 827 1147 1330 1284 998 623 341 198
970.0 138 106 87 72 71 73 95 129 174 211
1010.0 228 221 200 179 181 170 154 141 143 169
1050.0 211 257 296 318 310 290 273 262 262 275
1090.0 280 284 287 286 282 278 281 284 296 311
1130.0 320 325 317 298 272 248 227 214 216 239
1170.0 284 352 419 474 499 493 477 477 523 620
1210.0 784 1002 1232 1434 1597 1708 1818 1978 2237 2658
1250.0 3341 4296 5559 6946 7889 7997 7350 6226 5120 4443
1290.0 3856 3173 2498 1954 1608 1420 1319 1265 1208 1111
1330.0 965 802 636 516 443 417 422 460 509 549
1370.0 645 705 718 782 878 1031 1253 1555 1883 2171
1410.0 2375 2457 2488 2512 2593 2762 3050 3393 3760 4057
1450.0 4261 4343 4432 4659 5005 5448 5682 5757 5555 5393
1490.0 5281 5292 5180 4797 4120 3206 2460 1845 1491 1237
1530.0 1126 1080 1124 1223 1397 1643 1980 2354 2786 3042
1570.0 3076 2859 2477 2032 1742 1621 1697 1952 2396 3098
1610.0 4234 5930 8015 9478 10000 8492 6428 4072 2607 1779
1650.0 1300 1014 807 679 580 506 431 371 339 307
1690.0 281 255 246 214 191 167 159 162 144 132
1730.0 129 137 125 128 132 139 150 155 167 169
1770.0 182 171 172 170 182 176 181 168 162 144
1810.0 124 114 100 94 80 76 66 66 57 63
1850.0 51 45 43 43 44 47 53 54 62 61
1890.0 65 63 59 53 43 38 30 31 31 30
1930.0 32 33 38 40 47 54 64 67 70 66
1970.0 60 57 57 61 64 63 58 52 41 33
2010.0 28 28 23 25 24 24 23 23 23 22
2050.0 20 21 17 18 21 22 21 21 16 18
2090.0 15 16 13 14 13 13 14 13 14 16
2130.0 15 16 16 16 15 16 19 18 19 19
2170.0 18 16 19 20 20 19 21 18 20 21
2210.0 21 21 23 23 23 23 27 30 29 31
2250.0 33 35 36 37 39 43 45 45 42 42
2290.0 42 44 49 52 54 62 53 49 54 46
2330.0 45 41 36 39 53 51 54 47 47 39
2370.0 51 46 54 55 45 33 28 25 29 29
2410.0 27 30 29 31 31 34 35 38 39 42
2450.0 46 50 54 61 67 70 74 74 73 73
2490.0 73 71 76 77 76 74 69 71 67 63
2530.0 60 59 59 55 58 58 59 62 66 69
2570.0 73 73 74 74 75 73 70 67 66 62
2610.0 64 61 61 61 61 62 65 66 66 68
2650.0 73 71 72 74 76 76 77 79 82 85
2690.0 86 88 88 90 93 92 96 98 103 109
2730.0 114 114 118 117 116 115 119 116 117 121
2770.0 122 119 120 119 120 118 117 116 118 119
2810.0 123 127 132 134 137 141 146 150 161 173
2850.0 192 212 240 279 336 428 555 708 828 877
2890.0 846 795 763 767 789 816 840 856 883 928
2930.0 1004 1111 1250 1332 1291 1196 1132 1225 1694 2761
2970.0 3919 4522 4367 3240 1959 1162 783 628 572 557
3010.0 556 560 565 568 579 603 615 617 611 590
3050.0 573 554 537 513 495 478 460 451 446 448
3090.0 458 465 471 477 482 491 500 510 516 525
3130.0 531 539 541 543 542 542 544 543 547 546
3170.0 543 542 539 531 520 509 494 473 457 436
3210.0 418 402 386 375 365 357 353 347 344 334
3250.0 328 314 299 287 274 264 252 240 232 223
3290.0 217 207 201 193 187 178 174 167 161 158
3330.0 152 151 147 144 137 140 136 138 135 131
3370.0 127 129 122 120 126 120 122 121 121 117
3410.0 112 113 115 115 112 112 107 105 108 111
3450.0 112 111 110 108 102 100 103 103 103 102
3490.0 94 92 87 89 87 85 82 80 76 78
3530.0 75 74 72 70 74 67 68 62 60 74
3570.0 73 65 60 58 59 55 54 44 47 48
3610.0 52 38 38 44 43 59 39 32 36 31
3650.0 44 34 33 37 30 36 28 34 17 31
3690.0 25 35 27 30 33 25 29 27 29 33
3730.0 23 38 32 32 51 24 39 30 21 31
3770.0 24 30 22 31 23 32 27 28 29 36
3810.0 24 30 38 34 38 31 31 33 40 32
3850.0 39 45 36 33 37 37 28 36 31 39
3890.0 35 34 33 50 39 26 39 49 35 28
3930.0 40 37 36 30 38 35 47 42 39 42
##END=
