##TITLE=Tioxolone
##JCAMP-DX=4.24
##DATA TYPE=INFRARED SPECTRUM
##ORIGIN=Sadtler Research Labs Under US-EPA Contract
##OWNER=NIST Standard Reference Data Program
##CAS REGISTRY NO=4991-65-5
##MOLFORM=C 7 H 4 O 3 S
##XUNITS=1/CM
##YUNITS=ABSORBANCE
##XFACTOR=1.0
##YFACTOR=0.000094855
##DELTAX=4.0
##FIRSTX=450.0
##LASTX=3966.0
##FIRSTY=0.016315
##MAXX=3966
##MINX=450
##MAXY=0.94855
##MINY=0
##NPOINTS=880
##XYDATA=(X++(Y..Y))
450.0 172 76 32 67 32 64 131 139 171 323
490.0 498 423 449 372 170 79 37 29 23 19
530.0 25 45 61 54 57 23 19 30 70 63
570.0 101 117 68 48 45 54 64 84 94 98
610.0 145 172 153 174 186 236 228 321 392 316
650.0 282 332 373 374 413 324 178 126 70 74
690.0 46 69 83 142 181 173 176 130 98 90
730.0 81 55 57 12 7 12 40 61 51 64
770.0 73 112 163 223 339 395 466 491 532 561
810.0 520 422 386 347 399 456 419 363 405 379
850.0 399 411 310 228 192 140 106 95 78 91
890.0 85 80 68 91 103 102 121 123 140 163
930.0 162 171 193 216 278 362 463 621 878 1000
970.0 1054 1153 1284 1719 2481 3261 3596 3356 2750 1745
1010.0 1004 731 601 502 415 355 312 291 273 260
1050.0 267 257 242 227 206 197 207 221 267 326
1090.0 361 361 364 284 228 210 225 287 398 618
1130.0 1130 1969 2571 2742 2523 1839 1384 1459 1963 2646
1170.0 2958 2680 2198 1300 671 502 407 367 338 298
1210.0 252 229 213 204 197 178 180 202 228 231
1250.0 240 292 406 446 433 431 400 438 535 648
1290.0 786 885 936 970 939 892 858 769 612 397
1330.0 224 127 67 47 38 60 103 126 123 118
1370.0 107 90 78 71 71 78 89 94 108 119
1410.0 131 144 167 226 305 434 633 904 1147 1260
1450.0 1151 925 687 529 533 716 1016 1459 1773 1752
1490.0 1493 920 435 227 132 109 98 94 103 121
1530.0 144 148 154 167 177 182 201 216 245 283
1570.0 340 400 464 542 650 781 924 1097 1223 1372
1610.0 1591 1800 1787 1524 1186 790 486 350 311 304
1650.0 307 313 307 285 267 239 222 216 196 184
1690.0 183 180 176 196 223 266 302 356 464 574
1730.0 675 758 877 990 1105 1203 1285 1306 1323 1321
1770.0 1286 1209 1240 1597 2669 4855 7949 9992 10000 8859
1810.0 4923 1958 881 475 290 214 169 137 103 91
1850.0 81 82 80 76 67 62 62 63 71 73
1890.0 80 82 84 83 67 64 58 59 60 72
1930.0 85 101 123 144 162 181 197 208 216 231
1970.0 248 266 285 288 262 214 149 92 58 38
2010.0 29 27 27 20 24 25 26 28 31 33
2050.0 31 26 28 27 28 31 42 51 51 54
2090.0 47 37 24 18 19 13 15 10 12 9
2130.0 9 4 4 9 3 7 5 5 7 3
2170.0 5 6 4 9 6 11 6 3 7 1
2210.0 3 6 6 11 8 6 18 11 15 13
2250.0 13 12 18 17 19 21 24 22 24 24
2290.0 28 26 23 21 19 30 30 35 38 34
2330.0 28 37 39 58 49 36 39 26 36 31
2370.0 39 38 40 39 35 35 35 40 37 31
2410.0 34 34 39 38 38 38 43 39 39 39
2450.0 41 42 41 41 39 35 32 31 26 25
2490.0 27 28 26 27 29 30 27 26 24 26
2530.0 27 18 22 19 22 22 26 27 27 33
2570.0 29 34 37 32 38 37 37 34 38 39
2610.0 32 36 37 37 38 33 28 27 29 28
2650.0 33 30 28 26 31 32 27 31 27 29
2690.0 27 28 31 30 33 29 31 31 34 31
2730.0 30 36 39 34 30 34 43 39 37 38
2770.0 37 39 39 34 40 40 39 37 36 40
2810.0 35 32 34 35 31 35 30 29 31 34
2850.0 28 33 33 39 38 31 37 36 36 39
2890.0 40 44 41 46 46 48 50 53 54 49
2930.0 60 59 57 60 57 54 50 46 45 46
2970.0 46 49 48 45 52 50 48 51 53 59
3010.0 61 64 79 78 88 108 124 137 143 144
3050.0 136 133 121 119 122 129 131 125 129 126
3090.0 124 121 112 106 99 86 86 82 77 78
3130.0 72 68 70 68 76 77 71 68 70 72
3170.0 72 75 75 74 71 68 74 78 83 73
3210.0 75 74 80 76 75 81 79 73 75 77
3250.0 76 78 78 87 92 87 83 85 90 87
3290.0 82 90 89 81 90 88 85 84 84 88
3330.0 86 82 91 98 97 100 105 105 103 99
3370.0 106 97 108 110 120 118 105 108 101 99
3410.0 93 100 93 97 99 103 101 96 85 85
3450.0 88 93 82 75 76 76 78 85 75 66
3490.0 62 71 76 70 76 61 55 52 55 48
3530.0 57 55 56 56 49 56 56 63 74 58
3570.0 70 113 130 123 101 80 42 28 28 17
3610.0 17 12 15 35 58 70 144 268 481 815
3650.0 1141 1201 1066 832 392 146 64 25 22 16
3690.0 2 6 26 8 8 8 1 13 13 1
3730.0 22 14 3 4 1 1 2 1 13 9
3770.0 1 1 2 2 9 9 18 18 11 1
3810.0 7 14 1 2 2 6 1 9 7 14
3850.0 1 0 10 6 1 13 16 13 15 16
3890.0 2 2 1 10 1 6 10 13 14 2
3930.0 9 11 24 24 10 5 12 19 13 24
##END=
