##TITLE=Metharbital
##JCAMP-DX=4.24
##DATA TYPE=INFRARED SPECTRUM
##ORIGIN=Sadtler Research Labs Under US-EPA Contract
##OWNER=NIST Standard Reference Data Program
##CAS REGISTRY NO=50-11-3
##MOLFORM=C 9 H 14 N 2 O 3
##XUNITS=1/CM
##YUNITS=ABSORBANCE
##XFACTOR=1.0
##YFACTOR=0.000156088
##DELTAX=4.0
##FIRSTX=450.0
##LASTX=3966.0
##FIRSTY=0.003122
##MAXX=3966
##MINX=450
##MAXY=1.56088
##MINY=0
##NPOINTS=880
##XYDATA=(X++(Y..Y))
450.0 20 107 96 103 79 109 102 107 105 135
490.0 119 105 62 49 33 34 39 34 23 25
530.0 18 5 4 0 2 13 8 14 11 20
570.0 6 28 54 89 118 154 178 156 141 141
610.0 147 166 205 263 334 419 513 594 693 731
650.0 744 639 547 377 298 196 155 161 187 212
690.0 202 177 153 150 163 170 157 154 174 191
730.0 240 286 355 456 592 766 807 883 812 609
770.0 433 270 179 148 144 134 119 109 90 77
810.0 54 44 37 33 25 22 30 25 20 25
850.0 27 40 69 102 122 140 113 76 43 22
890.0 17 17 13 16 16 13 12 13 17 22
930.0 30 37 50 56 59 69 89 127 186 243
970.0 279 271 237 189 148 123 103 95 87 89
1010.0 92 103 132 173 239 329 432 515 539 498
1050.0 446 428 448 495 529 528 475 383 290 216
1090.0 165 140 118 107 93 89 86 84 91 105
1130.0 132 172 236 313 405 474 503 475 419 376
1170.0 364 400 461 556 683 827 929 939 833 645
1210.0 464 332 257 229 230 250 292 369 486 643
1250.0 805 928 966 908 796 697 656 671 717 779
1290.0 870 1025 1298 1735 2324 2918 3305 3334 3076 2663
1330.0 2278 1963 1699 1544 1495 1519 1565 1588 1594 1649
1370.0 1826 2160 2672 3215 3626 3742 3474 2958 2417 1993
1410.0 1744 1674 1686 1827 2049 2429 2923 3510 3986 4073
1450.0 3761 3194 2555 2056 1652 1289 956 713 562 447
1490.0 392 365 350 344 337 334 343 337 314 303
1530.0 267 247 225 207 201 202 186 155 157 156
1570.0 154 150 158 162 173 171 171 161 149 139
1610.0 126 126 115 131 131 152 157 167 187 200
1650.0 228 265 344 423 518 598 675 787 950 1336
1690.0 2127 3615 5709 7953 9305 9002 7418 5578 4414 4366
1730.0 5089 6389 8006 9303 10000 9339 8199 6603 5224 4086
1770.0 3171 2352 1713 1241 943 723 565 446 346 287
1810.0 236 206 181 174 162 159 160 163 151 139
1850.0 133 121 105 90 81 64 67 66 68 70
1890.0 73 81 82 84 77 69 53 45 34 32
1930.0 30 27 26 17 17 17 15 14 18 16
1970.0 21 25 24 22 18 14 8 9 7 8
2010.0 9 7 9 9 10 12 15 10 11 9
2050.0 7 4 2 3 0 2 2 1 0 2
2090.0 0 1 1 1 2 2 4 3 3 3
2130.0 4 2 3 1 2 1 1 3 3 5
2170.0 2 3 1 4 3 2 3 1 3 1
2210.0 3 5 5 3 3 3 2 1 0 0
2250.0 0 0 0 1 2 3 6 7 13 15
2290.0 22 30 35 35 38 40 33 31 31 30
2330.0 30 30 27 27 33 34 20 15 8 11
2370.0 11 12 18 21 20 14 13 14 15 17
2410.0 19 19 17 17 16 15 13 13 12 10
2450.0 11 12 15 16 16 14 16 14 14 13
2490.0 15 14 14 17 17 18 17 18 16 17
2530.0 17 17 15 15 14 13 16 14 13 12
2570.0 13 13 14 11 9 10 8 7 6 6
2610.0 5 5 8 9 11 11 11 10 11 11
2650.0 8 8 9 8 10 9 11 10 12 13
2690.0 15 16 19 18 19 17 17 13 17 16
2730.0 21 17 22 27 29 36 41 47 47 46
2770.0 45 45 44 44 43 41 43 43 45 44
2810.0 47 48 49 52 54 57 62 66 72 83
2850.0 91 106 117 140 164 191 223 262 332 409
2890.0 485 512 477 418 364 333 335 359 395 434
2930.0 465 514 611 781 974 1117 1128 1018 915 897
2970.0 1118 1457 1837 1960 1682 1260 817 549 397 280
3010.0 215 167 141 116 105 96 85 83 79 80
3050.0 74 75 70 71 71 74 75 74 74 69
3090.0 70 66 65 64 65 66 67 65 63 65
3130.0 61 59 56 55 52 53 51 50 47 44
3170.0 40 36 31 27 24 19 19 18 15 13
3210.0 12 13 10 12 10 9 8 7 9 10
3250.0 8 6 8 9 13 9 10 9 7 11
3290.0 10 10 9 7 10 11 11 10 8 12
3330.0 10 9 13 11 13 12 13 14 16 14
3370.0 18 17 21 28 35 43 53 68 98 137
3410.0 231 408 717 1126 1488 1626 1408 971 549 269
3450.0 162 134 126 125 118 107 92 86 80 72
3490.0 70 65 68 61 55 47 38 27 25 20
3530.0 17 15 10 13 8 10 6 9 6 7
3570.0 5 4 7 7 6 3 2 2 3 0
3610.0 4 7 5 5 3 0 1 2 6 4
3650.0 1 8 9 6 5 6 4 2 3 5
3690.0 4 1 3 3 6 6 4 9 4 8
3730.0 7 7 8 6 8 12 8 13 4 8
3770.0 9 8 8 5 7 8 11 5 8 9
3810.0 13 5 9 7 7 11 13 10 7 4
3850.0 3 11 5 10 11 12 4 1 5 12
3890.0 15 10 11 13 7 3 5 5 6 7
3930.0 4 5 9 10 11 9 12 10 6 14
##END=
