##TITLE=Propanoic acid, 2-hydroxy-
##JCAMP-DX=4.24
##DATA TYPE=INFRARED SPECTRUM
##ORIGIN=Sadtler Research Labs Under US-EPA Contract
##OWNER=NIST Standard Reference Data Program
##CAS REGISTRY NO=50-21-5
##MOLFORM=C 3 H 6 O 3
##XUNITS=1/CM
##YUNITS=ABSORBANCE
##XFACTOR=1.0
##YFACTOR=0.000126187
##DELTAX=4.0
##FIRSTX=450.0
##LASTX=3966.0
##FIRSTY=0.053630
##MAXX=3966
##MINX=450
##MAXY=1.26187
##MINY=0
##NPOINTS=880
##XYDATA=(X++(Y..Y))
450.0 425 325 403 304 309 446 483 473 495 596
490.0 634 710 725 855 890 820 988 1017 1043 1147
530.0 1248 1423 1564 1737 1818 2037 2019 2185 2168 2069
570.0 1995 2004 1929 1819 1823 1567 1598 1588 1478 1436
610.0 1400 1347 1289 1257 1144 1094 1035 964 835 705
650.0 634 561 486 410 348 355 320 315 303 296
690.0 295 306 301 300 320 327 373 451 529 591
730.0 697 857 839 781 793 739 661 580 501 438
770.0 408 398 408 421 457 499 546 565 558 546
810.0 507 464 391 302 222 151 101 77 69 55
850.0 57 58 66 75 86 89 81 79 80 90
890.0 99 125 156 195 223 262 288 291 291 301
930.0 319 319 309 286 246 186 144 133 129 142
970.0 150 167 183 205 225 253 289 343 418 525
1010.0 670 857 1092 1335 1574 1760 1911 1973 2087 2130
1050.0 2051 1926 1780 1725 1751 1914 2174 2603 3150 3850
1090.0 4732 5706 6853 7893 9123 9504 10000 9893 9920 9406
1130.0 8775 7926 6400 5149 4143 3567 3157 2930 2729 2541
1170.0 2371 2207 2068 1940 1895 1858 1871 1889 1915 1887
1210.0 1810 1701 1543 1418 1335 1338 1357 1448 1543 1644
1250.0 1738 1833 1952 2018 2097 2068 2052 1969 1919 1880
1290.0 1878 1822 1799 1786 1762 1806 1851 1863 1838 1825
1330.0 1798 1723 1782 1706 1591 1554 1550 1483 1604 1539
1370.0 1615 1626 1687 1629 1588 1441 1296 1175 986 806
1410.0 720 635 558 559 482 492 459 559 520 592
1450.0 638 694 760 662 638 524 416 384 337 217
1490.0 254 148 122 92 144 211 121 142 24 82
1530.0 74 101 42 2 116 79 54 0 38 49
1570.0 54 43 31 73 67 87 89 107 105 119
1610.0 115 105 77 98 104 76 77 63 81 56
1650.0 57 42 91 101 81 144 76 160 141 125
1690.0 193 186 201 282 368 395 492 528 697 781
1730.0 942 1044 1330 1697 2222 2967 3907 5138 6165 7406
1770.0 8020 9068 8948 9880 9754 9355 8204 7130 5731 4408
1810.0 3419 2578 2064 1622 1302 968 759 617 476 425
1850.0 337 284 217 224 158 173 125 113 120 89
1890.0 110 84 105 73 80 88 64 83 79 76
1930.0 69 72 67 70 86 56 73 67 70 58
1970.0 82 52 66 54 63 55 78 55 57 63
2010.0 66 59 74 72 55 66 66 59 65 65
2050.0 61 58 66 59 72 66 64 65 63 61
2090.0 67 65 55 60 56 56 58 61 53 56
2130.0 56 53 62 55 56 54 55 53 58 56
2170.0 55 57 54 57 56 57 52 56 52 58
2210.0 59 59 59 58 64 63 67 67 70 71
2250.0 72 74 75 79 78 81 81 81 79 81
2290.0 79 78 78 76 80 76 75 71 72 66
2330.0 62 61 55 61 66 73 60 64 57 68
2370.0 76 68 75 75 71 68 72 70 72 70
2410.0 72 73 72 73 71 71 71 69 69 70
2450.0 71 69 73 70 72 71 74 71 72 72
2490.0 74 75 72 72 70 70 69 71 68 69
2530.0 67 68 67 64 65 62 65 60 64 62
2570.0 63 64 64 65 63 64 60 62 59 61
2610.0 61 60 64 59 59 57 59 59 58 54
2650.0 57 57 56 57 55 55 56 56 57 57
2690.0 56 58 59 61 61 59 60 61 64 66
2730.0 66 68 68 67 69 70 68 72 71 76
2770.0 79 82 87 89 90 96 98 98 105 110
2810.0 115 123 131 143 152 164 181 197 210 222
2850.0 234 243 258 273 295 317 346 379 422 465
2890.0 510 561 591 621 642 659 658 629 618 611
2930.0 618 626 642 655 676 688 656 618 589 583
2970.0 577 635 709 856 1024 1279 1506 1484 1381 1310
3010.0 1079 902 653 443 289 197 160 133 123 103
3050.0 105 92 93 87 85 81 75 79 79 78
3090.0 70 77 77 76 68 74 72 74 75 72
3130.0 71 69 68 67 66 65 65 67 67 70
3170.0 64 65 71 70 73 71 75 74 76 76
3210.0 80 76 79 75 74 77 75 65 65 62
3250.0 56 64 64 63 60 57 67 70 66 71
3290.0 68 70 72 66 64 69 73 64 68 72
3330.0 70 71 76 69 63 63 64 72 68 69
3370.0 63 58 58 60 65 64 69 74 68 60
3410.0 57 62 67 69 65 54 55 69 62 68
3450.0 69 57 71 88 92 94 129 152 246 270
3490.0 299 353 355 455 446 421 431 337 383 386
3530.0 340 295 294 297 399 470 721 1136 1908 2774
3570.0 3392 3752 4264 4321 3926 3640 3145 2155 1553 1046
3610.0 886 641 572 458 364 447 366 411 400 437
3650.0 461 384 386 322 295 252 189 198 116 105
3690.0 73 82 67 88 58 50 101 68 49 127
3730.0 64 71 110 68 62 22 78 21 52 19
3770.0 35 25 18 59 22 29 19 36 26 38
3810.0 17 35 9 78 43 56 44 56 48 68
3850.0 32 58 68 67 44 69 76 50 112 94
3890.0 56 67 56 138 120 35 46 85 58 58
3930.0 43 80 45 43 71 84 26 28 45 52
##END=
