##TITLE=Benzoic acid, 2,5-dichloro-
##JCAMP-DX=4.24
##DATA TYPE=INFRARED SPECTRUM
##ORIGIN=Sadtler Research Labs Under US-EPA Contract
##OWNER=NIST Standard Reference Data Program
##CAS REGISTRY NO=50-79-3
##MOLFORM=C 7 H 4 Cl 2 O 2
##XUNITS=1/CM
##YUNITS=ABSORBANCE
##XFACTOR=1.0
##YFACTOR=0.000079541
##DELTAX=4.0
##FIRSTX=450.0
##LASTX=3966.0
##FIRSTY=0.026089
##MAXX=3966
##MINX=450
##MAXY=0.79541
##MINY=0
##NPOINTS=880
##XYDATA=(X++(Y..Y))
450.0 328 293 234 223 230 371 434 495 363 286
490.0 200 305 274 258 214 339 325 447 637 736
530.0 566 605 483 830 951 1348 1236 1126 1399 1479
570.0 1667 2287 2778 3260 3522 3679 4045 3959 3263 2239
610.0 1313 937 702 713 1064 1734 2434 2525 1949 1496
650.0 1058 611 276 324 431 339 228 292 470 525
690.0 791 1079 1261 1302 1309 979 739 599 156 157
730.0 99 188 117 0 374 136 404 386 569 623
770.0 754 820 986 962 733 603 528 531 419 751
810.0 1115 1672 2139 2069 1473 1021 713 538 549 557
850.0 518 348 213 194 237 191 197 252 368 417
890.0 551 678 714 602 441 273 199 216 166 114
930.0 175 137 145 155 132 170 140 148 143 147
970.0 148 154 76 65 134 112 118 135 249 257
1010.0 208 261 379 519 879 1394 2226 3136 3415 3480
1050.0 2821 1905 1339 1073 1101 1196 1395 1471 1810 2089
1090.0 2601 3524 4584 5616 6235 6535 6476 5829 4676 3528
1130.0 2578 2351 2344 2361 2468 2472 2331 2519 2914 3219
1170.0 3661 4109 4726 5258 5497 5049 4088 3045 2246 1739
1210.0 1376 1281 1066 1015 976 895 882 872 917 1043
1250.0 1264 1460 1474 1426 1293 1297 1393 1543 1568 1616
1290.0 1675 1756 1856 1944 2034 2081 2055 2177 2436 2754
1330.0 2973 2886 2584 2044 1495 1175 975 942 936 908
1370.0 921 1017 1179 1380 1699 1990 2330 2661 2825 2627
1410.0 2134 1483 1062 820 727 746 762 860 782 917
1450.0 1169 1620 2490 3027 3378 3203 2674 1808 1214 878
1490.0 715 482 496 388 547 552 482 526 530 361
1530.0 235 268 283 422 337 388 563 763 742 589
1570.0 576 442 491 441 484 516 514 444 398 366
1610.0 346 320 381 305 340 335 376 374 308 353
1650.0 318 440 217 231 234 300 273 297 320 429
1690.0 315 370 518 597 537 586 733 969 1006 1212
1730.0 1507 1927 2171 2682 3395 4485 5762 6847 7556 8358
1770.0 9279 10000 9588 8169 5515 3774 3266 2865 2452 1847
1810.0 1351 950 680 486 383 326 216 198 170 192
1850.0 133 122 119 83 108 138 112 104 123 133
1890.0 171 192 208 185 159 153 100 107 92 106
1930.0 90 73 77 83 89 75 77 69 43 66
1970.0 66 48 56 72 42 58 55 67 64 67
2010.0 41 53 66 64 65 56 81 63 63 38
2050.0 46 61 44 43 34 54 36 43 43 33
2090.0 48 59 41 35 44 40 49 50 46 55
2130.0 53 55 59 67 64 65 58 68 43 70
2170.0 58 67 64 64 46 51 78 61 53 45
2210.0 54 55 73 48 41 76 70 74 63 87
2250.0 71 73 57 47 74 80 71 75 85 97
2290.0 98 118 123 153 138 142 131 140 174 162
2330.0 145 205 212 194 171 173 269 275 198 249
2370.0 288 220 165 134 81 60 42 32 21 39
2410.0 58 40 61 61 57 68 64 35 78 79
2450.0 71 51 63 82 75 69 72 91 65 64
2490.0 58 83 87 74 48 57 93 77 76 84
2530.0 81 72 88 67 62 73 64 76 61 61
2570.0 74 61 66 56 76 46 64 57 72 60
2610.0 59 59 61 79 55 60 56 91 51 65
2650.0 78 62 73 65 65 58 78 64 78 66
2690.0 67 78 54 70 71 104 65 86 78 71
2730.0 64 64 61 73 69 58 54 84 73 85
2770.0 65 66 57 80 68 60 89 97 65 81
2810.0 84 115 117 97 118 128 142 149 117 108
2850.0 130 154 183 202 212 219 166 169 156 166
2890.0 148 136 144 153 170 171 148 171 279 302
2930.0 376 359 403 330 270 245 203 238 179 172
2970.0 163 184 172 143 145 124 146 119 115 113
3010.0 137 141 132 126 119 136 100 99 101 116
3050.0 110 120 145 169 158 164 176 231 238 216
3090.0 169 167 169 147 113 100 111 111 104 107
3130.0 88 97 88 72 72 89 89 59 87 87
3170.0 96 98 64 92 113 86 63 77 61 119
3210.0 92 59 84 81 71 57 90 77 85 79
3250.0 100 72 81 86 65 71 70 93 76 84
3290.0 47 67 95 63 81 77 71 87 64 77
3330.0 75 40 70 79 63 96 76 72 71 72
3370.0 100 65 25 32 75 59 84 31 70 22
3410.0 37 76 67 85 67 89 50 104 75 48
3450.0 113 118 109 109 90 106 124 102 128 91
3490.0 98 124 92 142 220 200 151 180 223 265
3530.0 245 284 331 403 404 440 558 1042 2141 3519
3570.0 4384 4752 4355 3200 2362 1546 813 471 267 222
3610.0 224 195 193 199 103 182 117 96 111 97
3650.0 213 107 114 74 90 123 155 160 98 100
3690.0 117 87 100 101 76 114 140 103 125 102
3730.0 110 189 193 132 194 163 118 110 99 91
3770.0 81 44 23 46 47 72 51 109 106 76
3810.0 87 72 104 133 98 66 112 119 98 104
3850.0 114 221 118 149 138 122 134 125 164 157
3890.0 145 115 147 163 101 56 65 87 89 95
3930.0 62 49 28 41 37 55 10 13 13 13
##END=
