##TITLE=Benzoic acid, 2,4-dichloro-
##JCAMP-DX=4.24
##DATA TYPE=INFRARED SPECTRUM
##ORIGIN=Sadtler Research Labs Under US-EPA Contract
##OWNER=NIST Standard Reference Data Program
##CAS REGISTRY NO=50-84-0
##MOLFORM=C 7 H 4 Cl 2 O 2
##XUNITS=1/CM
##YUNITS=ABSORBANCE
##XFACTOR=1.0
##YFACTOR=0.000087146
##DELTAX=4.0
##FIRSTX=450.0
##LASTX=3966.0
##FIRSTY=0.043399
##MAXX=3966
##MINX=450
##MAXY=0.87146
##MINY=0
##NPOINTS=880
##XYDATA=(X++(Y..Y))
450.0 498 395 436 462 505 593 645 711 771 780
490.0 898 978 1130 1409 1629 1969 2161 2635 2882 2816
530.0 2412 1996 1671 1511 1558 1712 1810 1950 1887 1802
570.0 1495 1415 1342 1303 1021 988 982 770 722 600
610.0 466 504 324 259 251 183 217 192 204 236
650.0 215 425 579 646 708 796 570 647 815 1067
690.0 1311 1268 1333 1407 1454 1290 964 630 298 161
730.0 138 117 144 165 239 286 446 661 922 1172
770.0 1558 1569 1261 1049 805 663 593 581 646 740
810.0 821 1043 1488 2459 3889 4874 4811 3654 1947 773
850.0 467 372 426 601 760 927 1024 685 485 294
890.0 140 21 33 67 42 76 84 67 15 79
930.0 68 63 105 53 75 80 80 30 37 39
970.0 37 49 90 92 110 62 109 99 150 195
1010.0 255 303 468 599 879 1404 2175 3031 3376 3244
1050.0 2690 1738 1230 1071 1153 1326 1651 2242 3373 4859
1090.0 5981 6720 7079 7071 6783 5837 4420 2773 1932 1582
1130.0 1450 1439 1561 1748 1818 1709 1530 1365 1463 1919
1170.0 2645 3625 4501 5168 5132 4316 3249 2175 1470 1156
1210.0 975 839 728 675 584 576 613 623 633 656
1250.0 670 689 718 755 832 916 953 986 1004 1009
1290.0 1035 1102 1192 1304 1493 1713 1989 2295 2573 2633
1330.0 2482 2173 1811 1505 1324 1258 1308 1462 1649 1843
1370.0 2016 2184 2370 2472 2473 2324 2033 1660 1259 927
1410.0 671 494 416 309 281 280 322 371 413 474
1450.0 520 598 693 898 1190 1498 1635 1478 1162 760
1490.0 518 376 306 223 186 175 189 189 226 234
1530.0 286 383 484 621 910 1153 1384 1446 1463 1343
1570.0 1377 1798 2787 4002 5092 5353 4592 3120 1720 925
1610.0 581 439 320 264 222 183 179 148 123 134
1650.0 139 143 162 174 159 145 157 137 155 179
1690.0 182 229 274 361 423 545 664 837 1002 1216
1730.0 1501 1831 2347 3056 4113 5484 6769 7564 8301 8943
1770.0 10000 9969 9235 7137 4621 3286 2598 2270 1853 1385
1810.0 972 693 472 375 273 218 152 139 121 107
1850.0 89 102 110 87 79 83 86 83 95 134
1890.0 119 123 130 111 122 114 121 109 106 86
1930.0 75 70 54 54 53 30 43 31 24 9
1970.0 24 36 33 25 32 35 5 37 14 24
2010.0 32 45 32 39 25 18 15 19 22 13
2050.0 19 11 10 14 18 25 15 14 26 21
2090.0 25 23 24 21 17 31 42 27 24 35
2130.0 44 56 41 38 49 38 26 38 55 38
2170.0 41 39 29 40 40 46 46 41 54 39
2210.0 44 48 44 37 48 57 21 47 29 43
2250.0 36 36 31 32 30 52 28 52 55 60
2290.0 82 97 119 124 157 151 130 132 139 131
2330.0 132 92 94 98 139 207 140 146 140 121
2370.0 146 127 115 114 112 73 57 55 61 51
2410.0 50 45 47 52 45 44 55 44 41 47
2450.0 32 40 40 33 62 38 37 50 45 42
2490.0 44 44 47 81 51 58 47 64 66 68
2530.0 66 75 72 65 73 63 57 59 47 48
2570.0 41 30 40 36 42 28 44 23 43 23
2610.0 58 29 42 54 49 53 49 44 42 25
2650.0 27 43 54 40 41 41 26 38 44 30
2690.0 38 43 45 50 43 35 29 43 38 35
2730.0 51 44 27 28 24 29 29 32 26 7
2770.0 38 44 21 23 23 35 41 35 36 39
2810.0 26 40 43 55 37 27 37 37 43 56
2850.0 56 46 65 72 59 58 67 55 63 65
2890.0 44 55 56 69 62 46 52 58 61 67
2930.0 55 50 56 80 58 41 57 63 65 62
2970.0 63 93 64 84 63 86 60 70 75 54
3010.0 53 66 83 75 92 75 72 68 56 80
3050.0 44 61 45 43 64 66 83 87 116 129
3090.0 115 116 87 72 58 85 63 80 59 57
3130.0 56 62 49 48 53 57 64 29 7 35
3170.0 41 53 43 40 38 28 52 37 50 49
3210.0 56 43 38 43 33 36 24 38 45 54
3250.0 51 47 32 65 70 16 32 35 35 37
3290.0 27 13 44 21 62 45 45 61 40 57
3330.0 70 66 64 86 38 50 45 59 52 44
3370.0 58 35 68 52 82 48 78 60 74 41
3410.0 37 58 43 65 54 44 87 46 55 54
3450.0 55 55 55 90 66 74 38 56 73 67
3490.0 89 91 111 122 90 74 151 148 191 220
3530.0 239 259 281 286 291 303 443 831 1860 3392
3570.0 4553 4913 4491 3096 2273 1376 645 317 196 138
3610.0 95 87 74 113 69 77 83 108 106 66
3650.0 58 58 65 112 63 51 32 41 73 63
3690.0 60 43 21 78 58 32 14 23 17 16
3730.0 40 0 6 6 7 6 5 52 78 77
3770.0 53 62 42 74 67 68 53 72 36 76
3810.0 74 35 16 64 28 71 47 32 25 43
3850.0 59 45 44 38 22 18 31 73 51 40
3890.0 71 106 97 81 75 91 96 111 105 99
3930.0 109 93 70 72 51 53 66 78 88 104
##END=
