##TITLE=Phenol, 3,5-dimethoxy-
##JCAMP-DX=4.24
##DATA TYPE=INFRARED SPECTRUM
##ORIGIN=Sadtler Research Labs Under US-EPA Contract
##OWNER=NIST Standard Reference Data Program
##CAS REGISTRY NO=500-99-2
##MOLFORM=C 8 H 10 O 3
##XUNITS=1/CM
##YUNITS=ABSORBANCE
##XFACTOR=1.0
##YFACTOR=0.000072894
##DELTAX=4.0
##FIRSTX=450.0
##LASTX=3966.0
##FIRSTY=0.000000
##MAXX=3966
##MINX=450
##MAXY=0.72894
##MINY=0
##NPOINTS=880
##XYDATA=(X++(Y..Y))
450.0 0 115 140 104 150 172 185 208 248 264
490.0 285 318 343 320 270 258 283 254 265 269
530.0 293 269 269 299 292 293 271 242 216 213
570.0 168 177 172 143 176 189 211 217 226 232
610.0 246 240 252 236 207 218 196 201 189 187
650.0 186 201 254 355 463 618 765 696 585 469
690.0 341 251 186 163 145 149 151 152 147 145
730.0 148 146 150 141 146 138 134 139 136 138
770.0 148 149 159 188 196 210 226 282 365 502
810.0 661 791 930 989 974 970 1029 957 760 598
850.0 453 351 286 252 236 227 224 220 225 225
890.0 215 217 222 218 214 226 255 306 372 443
930.0 486 492 452 382 319 278 258 257 301 393
970.0 514 613 673 715 717 688 648 591 500 383
1010.0 306 271 265 273 285 311 377 488 674 948
1050.0 1309 1692 1986 2116 2041 1747 1348 964 682 537
1090.0 489 473 481 505 545 604 694 850 1101 1500
1130.0 2125 3135 4657 6455 8144 9555 10000 9016 7325 5265
1170.0 3312 2150 1799 1876 2199 2621 3022 3484 3907 4208
1210.0 4100 3649 2920 1921 1069 654 480 397 360 368
1250.0 429 584 859 1228 1522 1613 1475 1150 745 471
1290.0 347 307 298 320 346 373 381 391 382 388
1330.0 418 470 539 576 577 551 493 436 379 344
1370.0 309 294 294 303 335 356 391 444 499 556
1410.0 639 694 804 904 1087 1296 1528 1597 1595 1512
1450.0 1407 1430 1659 2009 2250 2415 2373 2174 2031 2148
1490.0 2500 2864 2924 2604 1990 1245 781 574 504 446
1530.0 442 417 455 491 514 534 586 649 669 718
1570.0 815 978 1227 1662 2282 3170 4245 5402 6388 7071
1610.0 7232 6864 6291 5736 5204 4464 3601 2639 1814 1230
1650.0 944 740 632 551 503 452 445 385 393 372
1690.0 339 318 334 302 287 255 250 256 220 199
1730.0 205 217 205 197 210 207 192 187 178 171
1770.0 172 178 157 155 147 157 154 151 145 134
1810.0 129 134 120 130 123 134 128 122 135 133
1850.0 125 118 118 114 119 119 114 111 111 113
1890.0 117 117 113 114 120 116 122 118 128 117
1930.0 116 114 113 115 118 114 117 119 121 128
1970.0 127 129 128 129 127 131 126 123 118 112
2010.0 110 114 113 115 113 112 111 111 109 108
2050.0 108 109 112 116 122 126 131 136 136 136
2090.0 138 136 131 136 136 140 146 152 149 153
2130.0 149 145 137 131 124 118 117 109 105 105
2170.0 104 105 106 109 112 112 113 110 110 112
2210.0 114 113 112 109 107 107 109 110 110 110
2250.0 112 115 114 117 121 123 127 127 127 128
2290.0 132 131 134 131 131 136 128 131 126 138
2330.0 142 137 136 136 146 139 145 132 130 128
2370.0 125 126 129 124 121 114 114 114 114 116
2410.0 116 117 118 121 121 124 121 123 122 127
2450.0 129 127 129 129 133 132 138 136 139 142
2490.0 144 139 143 139 136 134 126 123 120 119
2530.0 118 120 120 123 129 127 126 128 126 123
2570.0 119 121 120 121 118 118 120 121 130 131
2610.0 132 132 131 131 127 126 124 125 125 125
2650.0 125 124 123 120 121 116 115 118 116 114
2690.0 118 116 116 114 113 115 114 116 115 116
2730.0 116 120 119 129 130 133 136 142 147 153
2770.0 155 165 170 174 179 187 197 204 207 210
2810.0 210 216 225 241 268 322 420 583 810 1001
2850.0 1075 1029 851 633 488 413 384 377 391 418
2890.0 455 500 551 608 674 759 833 890 901 879
2930.0 873 908 1008 1156 1322 1448 1524 1543 1509 1262
2970.0 982 785 619 520 482 503 592 775 1068 1296
3010.0 1296 1182 888 558 375 306 276 255 246 248
3050.0 250 255 250 249 243 235 227 224 220 218
3090.0 219 217 211 208 202 190 179 172 163 165
3130.0 157 154 152 146 141 141 141 134 131 130
3170.0 134 124 124 124 121 114 118 114 116 114
3210.0 118 116 117 119 120 118 116 112 113 114
3250.0 115 111 114 117 115 120 120 119 122 122
3290.0 125 126 118 120 126 124 128 133 133 134
3330.0 134 142 139 143 142 143 147 150 151 148
3370.0 143 143 138 138 137 137 133 139 146 136
3410.0 139 138 140 140 143 142 146 142 140 141
3450.0 134 136 140 134 141 135 139 136 135 140
3490.0 131 128 131 126 122 126 131 132 136 125
3530.0 126 136 134 133 113 129 132 136 132 123
3570.0 126 141 136 133 123 111 128 129 122 130
3610.0 116 131 135 142 163 165 252 390 652 1107
3650.0 1523 1636 1539 1205 638 283 174 130 140 136
3690.0 123 120 142 139 144 129 111 120 124 118
3730.0 122 109 103 129 102 123 104 116 120 124
3770.0 119 131 118 136 117 128 126 117 118 123
3810.0 136 140 110 113 120 131 129 121 120 128
3850.0 136 104 115 135 123 111 115 108 109 112
3890.0 141 126 121 103 103 139 148 131 130 120
3930.0 123 113 127 126 115 120 141 150 116 124
##END=
