##TITLE=3-Pyridinecarboxaldehyde
##JCAMP-DX=4.24
##DATA TYPE=INFRARED SPECTRUM
##ORIGIN=Sadtler Research Labs Under US-EPA Contract
##OWNER=NIST Standard Reference Data Program
##CAS REGISTRY NO=500-22-1
##MOLFORM=C 6 H 5 N O
##XUNITS=1/CM
##YUNITS=ABSORBANCE
##XFACTOR=1.0
##YFACTOR=0.000125143
##DELTAX=4.0
##FIRSTX=450.0
##LASTX=3966.0
##FIRSTY=0.014517
##MAXX=3966
##MINX=450
##MAXY=1.25143
##MINY=0
##NPOINTS=880
##XYDATA=(X++(Y..Y))
450.0 116 71 46 45 3 69 33 32 28 23
490.0 45 33 29 23 28 41 22 32 45 33
530.0 46 32 31 51 33 35 43 45 44 52
570.0 45 59 52 52 72 75 92 86 111 122
610.0 174 199 190 212 270 304 294 290 276 337
650.0 376 432 519 722 838 812 890 892 986 972
690.0 1060 1156 1399 2021 1630 973 1112 847 684 504
730.0 377 262 196 197 185 186 187 249 283 361
770.0 452 553 628 738 830 911 984 990 1135 1065
810.0 1105 1305 1624 1981 2068 1994 1859 1674 1094 543
850.0 310 264 261 234 215 209 208 206 216 210
890.0 215 194 180 172 154 135 120 125 115 110
930.0 96 90 84 83 82 78 84 76 77 84
970.0 87 88 101 109 118 140 160 197 248 334
1010.0 415 569 691 678 733 809 747 568 442 343
1050.0 223 163 145 152 165 198 243 270 276 303
1090.0 316 321 318 346 390 395 379 390 390 336
1130.0 268 204 175 159 153 154 155 171 195 246
1170.0 318 421 523 603 673 845 1163 1488 1809 2088
1210.0 2293 2385 2248 2056 1696 1329 1107 905 670 465
1250.0 376 342 296 265 230 197 191 169 146 127
1290.0 126 131 154 179 243 348 566 753 761 761
1330.0 821 817 531 369 335 316 303 280 265 342
1370.0 464 644 820 844 840 938 834 620 559 542
1410.0 565 722 784 971 996 981 870 764 560 364
1450.0 248 186 111 191 218 231 167 203 254 189
1490.0 132 184 136 137 65 18 78 53 20 97
1530.0 97 125 120 67 139 251 327 349 642 972
1570.0 1335 1736 2473 3709 4158 3616 3111 2579 1763 859
1610.0 390 297 221 253 204 267 231 236 309 331
1650.0 325 342 434 406 396 348 298 377 331 389
1690.0 526 698 765 1094 1674 3063 5566 8643 9732 9786
1730.0 10000 9820 6080 2619 1035 582 447 350 311 297
1770.0 246 176 198 143 151 112 105 110 87 146
1810.0 143 150 168 173 164 162 182 194 147 117
1850.0 145 157 149 140 125 88 136 136 132 123
1890.0 117 127 141 164 179 197 201 214 208 232
1930.0 238 230 229 204 206 196 178 151 142 120
1970.0 124 128 125 125 123 102 97 111 113 117
2010.0 117 111 106 114 118 118 121 114 112 115
2050.0 115 107 104 93 80 84 79 77 72 75
2090.0 66 68 70 67 67 64 65 63 65 64
2130.0 65 64 64 66 68 71 72 75 75 76
2170.0 73 70 63 61 61 61 61 63 64 67
2210.0 70 72 74 72 72 71 71 68 64 64
2250.0 64 64 62 59 59 57 53 48 44 40
2290.0 33 26 20 18 15 7 9 13 15 26
2330.0 20 27 36 7 35 28 17 28 4 4
2370.0 17 21 36 41 51 63 73 77 81 83
2410.0 83 80 75 73 67 66 62 57 56 56
2450.0 56 52 52 55 54 49 51 50 52 52
2490.0 54 53 54 55 58 62 58 60 56 58
2530.0 52 50 50 50 50 50 51 52 54 52
2570.0 58 58 63 67 70 73 76 80 85 92
2610.0 96 100 102 98 91 85 78 74 72 70
2650.0 74 74 81 81 87 93 106 127 158 211
2690.0 291 401 493 536 619 792 961 1127 1240 1302
2730.0 1404 1373 1216 1072 877 651 487 388 341 328
2770.0 351 432 568 759 973 1128 1156 1217 1344 1340
2810.0 1280 1313 1387 1429 1401 1335 1251 1086 852 638
2850.0 475 360 287 233 191 163 139 121 109 105
2890.0 105 107 113 113 117 115 116 119 127 132
2930.0 143 151 153 155 155 159 156 150 149 149
2970.0 140 142 155 177 209 239 276 318 347 346
3010.0 347 373 395 399 448 542 633 673 686 725
3050.0 755 770 749 698 636 600 552 464 447 499
3090.0 493 472 487 455 308 189 132 99 78 65
3130.0 64 68 74 79 86 87 85 79 69 55
3170.0 52 57 51 46 43 43 38 33 32 33
3210.0 30 30 33 34 30 26 29 25 27 30
3250.0 27 30 30 29 27 26 32 29 28 32
3290.0 31 32 27 29 25 22 23 22 26 24
3330.0 22 26 30 23 22 28 26 29 32 34
3370.0 36 38 38 42 40 36 38 40 45 47
3410.0 63 83 108 137 164 177 188 171 141 113
3450.0 80 48 23 15 14 16 16 15 10 9
3490.0 18 18 20 14 18 7 13 13 12 6
3530.0 10 15 14 17 4 10 10 16 9 15
3570.0 18 21 33 25 34 23 29 16 14 12
3610.0 16 8 5 11 13 16 17 7 19 9
3650.0 14 15 12 22 7 18 12 25 17 15
3690.0 19 13 16 17 21 15 17 14 25 3
3730.0 17 14 20 0 41 1 15 8 7 14
3770.0 17 10 8 10 11 4 5 12 3 10
3810.0 6 4 6 7 7 4 5 9 7 6
3850.0 12 14 8 21 13 4 4 8 4 20
3890.0 13 12 7 10 11 19 9 18 24 15
3930.0 14 6 8 4 11 12 12 20 12 19
##END=
