##TITLE=2-Bromo-3'-methoxyacetophenone
##JCAMP-DX=4.24
##DATA TYPE=INFRARED SPECTRUM
##ORIGIN=Sadtler Research Labs Under US-EPA Contract
##OWNER=NIST Standard Reference Data Program
##CAS REGISTRY NO=5000-65-7
##MOLFORM=C 9 H 9 Br O 2
##XUNITS=1/CM
##YUNITS=ABSORBANCE
##XFACTOR=1.0
##YFACTOR=0.000057596
##DELTAX=4.0
##FIRSTX=450.0
##LASTX=3966.0
##FIRSTY=0.002304
##MAXX=3966
##MINX=450
##MAXY=0.57596
##MINY=0
##NPOINTS=880
##XYDATA=(X++(Y..Y))
450.0 40 11 65 189 214 208 299 290 346 425
490.0 420 445 512 547 578 638 601 572 596 612
530.0 640 661 665 707 711 782 813 853 851 830
570.0 821 774 811 865 846 888 918 965 970 991
610.0 1042 1159 1225 1280 1272 1214 1082 929 832 717
650.0 631 592 591 612 668 897 1075 1358 1706 1828
690.0 1906 1825 1824 1592 1221 887 696 604 593 591
730.0 628 695 735 792 801 811 766 756 724 748
770.0 840 960 1070 1215 1339 1317 1315 1186 981 745
810.0 575 465 424 391 380 414 444 525 593 778
850.0 956 1146 1236 1255 1194 1106 1064 1024 958 866
890.0 771 699 649 587 545 501 443 418 388 377
930.0 372 379 378 411 428 448 470 496 508 513
970.0 540 565 615 681 775 877 960 1015 1089 1221
1010.0 1375 1622 1873 2092 2257 2352 2394 2356 2333 2313
1050.0 2321 2234 1990 1601 1184 919 803 772 744 714
1090.0 671 639 618 616 639 672 721 727 710 663
1130.0 630 601 613 645 716 834 1003 1187 1335 1426
1170.0 1484 1561 1637 1696 1693 1643 1611 1687 1879 2101
1210.0 2328 2566 2831 3093 3248 3241 3094 2829 2632 2559
1250.0 2694 3061 3743 4844 6390 8121 9569 10000 9274 8103
1290.0 7155 6270 5166 4077 3236 2707 2436 2307 2229 2148
1330.0 1988 1762 1468 1179 965 892 924 958 970 885
1370.0 746 595 525 483 496 493 519 562 621 717
1410.0 832 1083 1431 2064 2888 3724 4102 3752 2911 2217
1450.0 1905 1895 1921 1945 2029 2156 2256 2429 2656 2921
1490.0 2752 2206 1490 958 680 508 464 410 406 395
1530.0 415 431 439 480 513 581 642 732 869 1086
1570.0 1393 1859 2463 3028 3378 3586 3640 3611 3269 2704
1610.0 1972 1366 967 718 581 500 463 434 428 422
1650.0 443 453 505 565 630 721 849 1056 1387 1962
1690.0 2920 4078 5232 5781 5497 4490 3513 2546 1979 1547
1730.0 1238 944 765 667 599 543 503 474 423 392
1770.0 337 299 273 258 247 231 224 209 202 181
1810.0 175 160 158 147 148 145 141 150 145 157
1850.0 163 171 163 161 150 144 133 129 128 119
1890.0 120 114 118 110 120 121 128 137 142 149
1930.0 156 161 151 145 127 118 107 105 104 99
1970.0 111 109 111 106 108 110 110 106 100 100
2010.0 99 105 108 108 112 118 118 116 123 122
2050.0 128 125 130 130 139 143 152 154 150 148
2090.0 146 142 133 130 121 116 109 102 92 86
2130.0 88 78 79 70 68 70 73 74 70 73
2170.0 74 74 74 77 76 70 70 62 55 52
2210.0 48 39 37 35 31 29 27 24 21 17
2250.0 17 15 13 24 22 20 31 28 40 43
2290.0 54 58 69 72 82 81 82 76 78 65
2330.0 53 66 60 54 85 90 66 56 44 43
2370.0 65 51 59 66 51 37 34 34 35 28
2410.0 30 36 27 28 34 37 40 41 37 50
2450.0 56 66 63 62 62 60 56 50 57 54
2490.0 59 56 61 61 64 67 60 63 56 55
2530.0 57 54 53 61 64 71 69 78 79 85
2570.0 77 83 79 73 73 81 72 75 69 75
2610.0 74 66 67 61 50 48 60 55 47 42
2650.0 47 48 33 36 33 32 30 37 32 31
2690.0 36 38 37 43 41 48 41 40 44 44
2730.0 43 45 35 37 43 51 51 49 51 57
2770.0 57 54 60 61 59 67 78 89 94 104
2810.0 115 130 152 181 217 270 370 511 680 798
2850.0 802 674 519 409 356 329 321 321 337 351
2890.0 367 386 406 422 444 497 565 632 688 719
2930.0 732 750 845 997 1209 1321 1358 1310 1238 1141
2970.0 994 852 750 682 615 571 555 607 734 959
3010.0 1192 1255 1109 795 537 446 411 419 430 430
3050.0 422 393 381 398 443 521 632 745 784 745
3090.0 609 467 353 285 250 219 183 152 113 98
3130.0 92 80 71 68 61 62 56 53 51 44
3170.0 55 49 41 37 38 34 42 34 30 40
3210.0 32 29 21 22 21 25 21 20 27 21
3250.0 16 21 19 23 21 12 17 21 32 26
3290.0 11 24 26 32 32 20 33 32 26 23
3330.0 23 27 38 27 29 31 33 42 50 65
3370.0 66 74 93 87 100 95 79 72 68 58
3410.0 42 41 39 46 44 37 28 27 28 23
3450.0 19 35 28 27 30 31 20 24 18 18
3490.0 18 13 25 23 28 24 33 18 19 18
3530.0 23 40 33 21 34 39 36 24 23 42
3570.0 43 23 17 27 40 25 31 29 33 30
3610.0 26 22 30 4 22 46 43 52 63 70
3650.0 91 83 82 46 43 11 15 12 9 5
3690.0 7 0 9 19 17 6 0 4 0 2
3730.0 9 4 24 8 0 0 8 0 0 0
3770.0 12 0 0 0 0 0 0 0 0 0
3810.0 0 0 0 0 0 0 0 0 0 0
3850.0 0 0 0 0 10 0 0 13 0 0
3890.0 7 17 16 16 13 0 7 16 14 9
3930.0 14 13 6 16 19 8 4 14 14 12
##END=
