##TITLE=2-Pyridineacetonitrile, .alpha.-phenyl-
##JCAMP-DX=4.24
##DATA TYPE=INFRARED SPECTRUM
##ORIGIN=Sadtler Research Labs Under US-EPA Contract
##OWNER=NIST Standard Reference Data Program
##CAS REGISTRY NO=5005-36-7
##MOLFORM=C 13 H 10 N 2
##XUNITS=1/CM
##YUNITS=ABSORBANCE
##XFACTOR=1.0
##YFACTOR=0.000038055
##DELTAX=4.0
##FIRSTX=450.0
##LASTX=3966.0
##FIRSTY=0.025764
##MAXX=3966
##MINX=450
##MAXY=0.38055
##MINY=0
##NPOINTS=880
##XYDATA=(X++(Y..Y))
450.0 677 942 1132 919 664 409 204 238 241 191
490.0 94 110 111 77 46 72 270 363 746 1181
530.0 1609 1741 1473 955 474 350 220 212 90 159
570.0 157 150 179 194 229 222 243 218 319 647
610.0 1130 1839 2220 2026 2182 2594 2764 2202 1260 815
650.0 785 1229 1730 2285 2392 2428 2484 2615 3197 4216
690.0 6030 7409 7570 6076 4390 3218 2578 2296 2327 2702
730.0 3541 4869 6671 8731 9332 8557 6693 5275 4516 3783
770.0 3062 2288 1607 1145 878 706 615 563 506 495
810.0 464 511 532 515 464 382 280 237 227 238
850.0 231 258 264 300 329 318 267 212 180 177
890.0 192 141 142 182 209 263 273 251 206 188
930.0 204 180 182 172 173 212 263 313 344 398
970.0 474 619 739 850 979 1263 1584 1604 1340 949
1010.0 667 494 465 603 1000 1414 1417 1235 966 967
1050.0 1099 961 733 575 517 541 584 608 638 757
1090.0 917 945 811 561 377 261 198 163 147 146
1130.0 165 238 368 619 846 884 706 428 277 239
1170.0 229 259 329 456 570 623 590 498 439 397
1210.0 417 464 552 619 633 609 562 534 531 520
1250.0 489 457 429 426 412 374 343 341 389 425
1290.0 442 414 422 434 463 485 500 498 447 423
1330.0 367 361 370 357 282 247 219 218 226 219
1370.0 260 307 353 336 372 329 310 313 324 397
1410.0 517 734 1062 1741 3120 5708 7665 7527 5809 3548
1450.0 2844 3094 3510 4586 6162 7124 6336 4354 2329 1925
1490.0 2777 3588 3570 2788 1651 741 481 353 384 322
1530.0 351 367 404 494 570 696 912 1276 1893 2946
1570.0 4455 5968 7451 9000 10000 9879 7955 5417 3384 2280
1610.0 1617 1146 842 594 459 353 319 281 228 241
1650.0 256 271 235 192 168 139 125 75 113 115
1690.0 89 82 132 129 114 97 61 74 20 18
1730.0 45 106 97 121 148 174 170 172 180 180
1770.0 213 223 217 233 283 348 439 484 453 356
1810.0 278 231 196 185 177 180 197 223 263 275
1850.0 258 246 252 296 354 428 457 449 406 370
1890.0 354 330 285 248 238 265 290 292 281 253
1930.0 278 344 443 554 601 569 529 509 480 453
1970.0 400 353 297 235 162 116 87 60 50 38
2010.0 39 41 46 33 42 29 24 37 42 38
2050.0 34 35 35 31 23 24 19 31 15 34
2090.0 24 17 17 15 18 8 13 11 10 7
2130.0 10 5 12 6 10 10 6 0 6 18
2170.0 21 34 40 54 61 62 58 41 25 27
2210.0 20 22 23 39 48 78 121 169 217 250
2250.0 251 242 199 146 104 91 91 99 121 147
2290.0 178 204 215 215 205 221 207 216 221 178
2330.0 160 144 135 157 188 202 208 165 145 106
2370.0 94 104 126 139 116 74 64 64 67 73
2410.0 72 76 78 85 72 76 78 93 100 101
2450.0 107 101 99 98 105 90 94 96 97 94
2490.0 95 97 86 88 92 91 90 92 93 93
2530.0 94 83 80 91 80 84 78 88 89 93
2570.0 93 101 100 111 100 94 93 99 99 112
2610.0 107 111 104 100 91 81 90 83 95 92
2650.0 89 83 72 74 89 87 75 74 86 70
2690.0 70 72 67 69 66 59 63 69 56 53
2730.0 52 62 63 60 58 61 73 83 83 92
2770.0 102 106 116 113 101 103 104 91 89 90
2810.0 92 84 86 98 97 99 103 96 81 67
2850.0 49 32 29 58 68 78 109 118 141 150
2890.0 161 164 185 213 219 221 222 194 204 204
2930.0 213 215 223 196 174 158 144 123 125 142
2970.0 168 172 206 232 266 328 394 496 670 944
3010.0 1344 1777 2115 2264 2281 2405 2718 3105 3292 3271
3050.0 3152 3238 3593 4156 4907 5978 7077 7428 6751 5398
3090.0 4007 3117 2442 1842 1425 1118 894 679 500 375
3130.0 292 268 260 265 267 258 229 190 164 146
3170.0 129 123 133 128 111 88 81 77 66 77
3210.0 82 75 91 87 92 89 76 65 82 60
3250.0 68 44 51 46 47 64 37 41 49 32
3290.0 37 48 36 57 39 38 29 39 51 38
3330.0 42 36 45 40 40 41 41 52 49 36
3370.0 37 20 54 17 44 50 31 55 32 61
3410.0 41 49 63 61 50 25 57 57 40 33
3450.0 45 35 73 61 64 57 61 60 58 47
3490.0 81 53 49 54 61 43 55 62 63 73
3530.0 70 56 48 60 73 33 54 63 53 77
3570.0 66 63 72 98 61 67 100 53 87 53
3610.0 68 59 70 85 69 53 91 78 83 100
3650.0 102 100 118 126 100 98 96 113 112 122
3690.0 108 115 102 134 137 125 107 92 81 116
3730.0 85 73 98 101 109 64 69 97 65 114
3770.0 75 53 46 47 76 90 78 55 52 82
3810.0 103 89 83 9 73 84 83 121 55 39
3850.0 83 87 77 78 73 104 104 58 86 83
3890.0 56 77 92 101 128 65 52 99 136 97
3930.0 119 91 69 71 97 92 59 75 137 145
##END=
