##TITLE=Benzenepropanoic acid
##JCAMP-DX=4.24
##DATA TYPE=INFRARED SPECTRUM
##ORIGIN=Sadtler Research Labs Under US-EPA Contract
##OWNER=NIST Standard Reference Data Program
##CAS REGISTRY NO=501-52-0
##MOLFORM=C 9 H 10 O 2
##XUNITS=1/CM
##YUNITS=ABSORBANCE
##XFACTOR=1.0
##YFACTOR=0.000057373
##DELTAX=4.0
##FIRSTX=450.0
##LASTX=3966.0
##FIRSTY=0.071659
##MAXX=3966
##MINX=450
##MAXY=0.57373
##MINY=0
##NPOINTS=880
##XYDATA=(X++(Y..Y))
450.0 1249 872 808 776 912 734 861 802 836 754
490.0 829 806 828 886 981 1033 1043 1213 1216 1312
530.0 1335 1499 1538 1687 1971 2300 2518 2615 2482 2164
570.0 1975 1809 1670 1543 1398 1350 1322 1323 1307 1307
610.0 1302 1426 1394 1431 1396 1378 1318 1256 1209 1033
650.0 957 813 807 752 778 874 905 1107 1267 1564
690.0 1932 2250 2460 2229 1906 1522 1253 1030 939 883
730.0 949 1015 1130 1216 1226 1173 1050 895 747 652
770.0 571 478 399 391 324 321 336 374 404 405
810.0 409 349 313 227 177 105 83 68 53 54
850.0 33 47 5 24 19 47 56 66 73 60
890.0 103 99 131 113 134 123 123 120 117 129
930.0 135 174 209 258 273 288 275 263 250 230
970.0 223 217 229 232 263 271 320 373 442 543
1010.0 656 786 942 1118 1283 1342 1240 1077 876 751
1050.0 733 803 971 1171 1396 1614 1790 1943 2061 2223
1090.0 2442 2758 3179 3745 4527 5499 6651 7518 7873 7484
1130.0 6534 5262 4198 3487 2995 2653 2362 2121 1898 1733
1170.0 1632 1606 1642 1695 1736 1735 1694 1611 1494 1363
1210.0 1253 1140 1056 978 939 897 872 848 836 829
1250.0 850 893 939 1013 1061 1036 950 863 794 739
1290.0 705 675 661 635 633 619 622 619 634 640
1330.0 641 654 677 722 767 857 940 1039 1145 1241
1370.0 1349 1470 1580 1612 1578 1399 1171 894 710 588
1410.0 520 515 527 596 608 688 705 764 798 875
1450.0 951 960 941 815 700 570 543 476 486 514
1490.0 682 906 931 851 667 295 122 97 53 75
1530.0 41 66 57 63 69 71 105 106 138 145
1570.0 201 194 220 254 268 306 336 460 481 532
1610.0 451 355 207 124 99 56 73 45 60 34
1650.0 70 47 52 68 73 85 62 110 92 139
1690.0 126 190 187 250 317 354 449 514 708 773
1730.0 1047 1225 1600 1898 2405 2899 3460 4369 5283 6746
1770.0 7839 9694 9718 10000 8764 7594 5855 4810 3725 2920
1810.0 2318 1781 1359 1008 808 564 468 355 334 251
1850.0 241 218 193 186 174 175 132 155 117 110
1890.0 83 83 72 61 71 67 78 74 111 97
1930.0 121 127 139 137 139 154 134 120 88 67
1970.0 26 27 25 22 22 21 24 14 27 16
2010.0 19 16 23 17 10 12 6 8 4 10
2050.0 1 6 2 5 3 0 6 1 10 3
2090.0 13 3 8 7 8 14 7 14 7 23
2130.0 13 17 13 17 16 15 21 18 22 16
2170.0 24 20 16 22 21 21 23 27 22 26
2210.0 24 33 29 30 32 29 33 36 33 28
2250.0 31 25 28 21 21 24 22 26 24 32
2290.0 30 42 38 42 52 59 57 52 65 46
2330.0 47 43 42 45 55 61 46 36 43 58
2370.0 43 50 51 50 38 23 21 12 17 10
2410.0 16 13 20 17 17 19 21 15 10 18
2450.0 13 18 15 16 12 13 14 12 11 9
2490.0 12 5 11 10 10 6 6 13 3 8
2530.0 4 6 7 6 6 6 7 6 6 5
2570.0 14 10 15 12 16 14 19 26 19 15
2610.0 11 15 13 19 11 11 14 12 18 13
2650.0 12 15 20 15 19 17 13 17 12 17
2690.0 16 14 8 13 6 9 6 9 14 11
2730.0 8 10 14 15 9 13 12 7 12 15
2770.0 20 25 25 33 32 42 41 43 42 40
2810.0 43 40 47 55 60 69 77 88 103 123
2850.0 134 165 199 236 272 302 325 325 311 296
2890.0 287 274 280 290 328 361 430 516 628 760
2930.0 898 1022 1088 1103 1062 984 905 839 800 780
2970.0 751 689 614 543 488 447 416 415 419 457
3010.0 500 579 690 871 1132 1418 1625 1655 1537 1263
3050.0 1000 846 851 981 1252 1496 1553 1486 1247 969
3090.0 832 741 665 582 493 414 337 265 193 134
3130.0 102 72 57 56 55 52 48 40 45 34
3170.0 43 41 36 25 22 21 18 26 19 20
3210.0 18 19 27 10 22 21 32 22 18 24
3250.0 24 12 17 23 19 24 15 16 20 19
3290.0 21 15 25 21 27 10 18 9 17 17
3330.0 19 16 8 13 16 22 13 20 7 19
3370.0 21 13 24 15 16 4 27 20 23 16
3410.0 13 17 13 32 24 18 15 19 20 30
3450.0 29 24 20 24 43 22 30 23 42 29
3490.0 35 37 54 83 89 91 95 105 124 162
3530.0 131 153 170 199 252 272 346 469 848 1616
3570.0 3257 4237 4273 3737 2317 949 559 355 248 185
3610.0 197 157 140 124 97 158 116 115 101 118
3650.0 144 119 92 67 63 82 103 96 70 66
3690.0 96 70 66 74 43 83 111 68 79 105
3730.0 59 122 117 105 126 123 100 112 93 78
3770.0 90 50 77 64 62 60 50 82 110 77
3810.0 57 51 108 103 80 63 73 101 106 70
3850.0 63 152 70 67 114 106 102 89 121 102
3890.0 89 50 73 111 111 69 60 81 76 96
3930.0 90 89 70 80 78 72 81 88 69 72
##END=
