##TITLE=Benzenepropanoic acid, 4-hydroxy-
##JCAMP-DX=4.24
##DATA TYPE=INFRARED SPECTRUM
##ORIGIN=Sadtler Research Labs Under US-EPA Contract
##OWNER=NIST Standard Reference Data Program
##CAS REGISTRY NO=501-97-3
##MOLFORM=C 9 H 10 O 3
##XUNITS=1/CM
##YUNITS=ABSORBANCE
##XFACTOR=1.0
##YFACTOR=0.000030124
##DELTAX=4.0
##FIRSTX=450.0
##LASTX=3966.0
##FIRSTY=0.058230
##MAXX=3966
##MINX=450
##MAXY=0.30124
##MINY=0
##NPOINTS=880
##XYDATA=(X++(Y..Y))
450.0 1933 1139 1267 278 1324 881 1211 912 1190 1055
490.0 1074 1356 1115 1275 986 1181 989 1124 1187 1200
530.0 1172 1100 1254 1145 1507 1579 1790 1599 1682 1445
570.0 1274 1060 1242 1034 1068 1043 875 854 859 1004
610.0 942 1060 1000 946 947 863 824 683 680 555
650.0 558 435 445 415 344 490 355 335 248 275
690.0 239 213 205 203 240 215 263 251 357 441
730.0 553 516 431 345 249 178 117 177 183 307
770.0 341 387 388 345 359 405 528 653 841 967
810.0 1206 1396 1660 1871 2012 1981 1742 1515 1164 827
850.0 504 276 149 80 35 39 36 27 60 14
890.0 59 30 62 54 50 63 52 109 109 145
930.0 156 210 243 274 284 288 268 221 217 186
970.0 170 163 185 190 225 230 240 292 314 379
1010.0 463 568 598 625 614 597 602 586 557 528
1050.0 551 553 625 701 828 1007 1255 1616 2052 2605
1090.0 3187 3734 4136 4526 5020 5713 6706 7516 7844 7372
1130.0 6364 5139 4213 3624 3322 3223 3336 3905 5214 7489
1170.0 9308 10000 9281 7529 6170 5236 4444 3734 3148 2678
1210.0 2347 2074 1909 1794 1761 1748 1775 1883 2191 2889
1250.0 4042 5286 5738 5280 3977 2562 1772 1377 1160 1036
1290.0 987 938 926 917 923 914 968 1027 1218 1428
1330.0 1636 1761 1667 1518 1301 1161 1138 1151 1210 1291
1370.0 1384 1456 1553 1557 1434 1265 1042 841 741 687
1410.0 614 681 620 868 969 1225 1246 1270 1098 933
1450.0 740 622 526 434 352 259 166 158 240 213
1490.0 271 552 743 1873 2972 5739 6769 6743 4796 2324
1530.0 1071 607 353 182 133 145 110 22 83 95
1570.0 125 154 260 360 595 833 1043 1313 1294 1379
1610.0 1362 1504 1322 1209 928 650 436 276 275 172
1650.0 90 107 108 100 118 90 30 158 54 118
1690.0 129 239 136 248 320 456 505 537 820 925
1730.0 1189 1269 1782 1959 2506 2818 3430 4195 5145 6512
1770.0 7548 9325 9277 9292 7813 6719 4995 4041 3122 2513
1810.0 1985 1566 1195 878 681 468 399 309 272 175
1850.0 216 200 191 181 184 154 161 175 143 135
1890.0 94 106 82 84 67 63 37 29 19 23
1930.0 38 13 37 7 25 23 27 28 21 25
1970.0 8 31 23 35 24 17 15 25 31 27
2010.0 40 31 29 30 39 31 27 23 13 19
2050.0 4 15 9 27 16 22 27 28 29 38
2090.0 43 46 53 43 35 20 23 21 13 15
2130.0 7 12 14 18 12 15 15 19 15 19
2170.0 31 17 27 19 27 28 33 29 29 31
2210.0 36 40 36 49 38 54 42 51 47 45
2250.0 43 38 42 42 51 55 66 66 74 91
2290.0 109 131 152 165 166 186 160 157 160 150
2330.0 125 129 127 147 180 194 201 174 166 126
2370.0 142 128 127 140 104 77 50 40 43 54
2410.0 72 75 94 111 131 142 136 116 100 78
2450.0 72 60 58 58 45 50 39 43 44 48
2490.0 45 45 51 50 61 66 63 55 52 48
2530.0 39 29 26 34 29 29 23 31 22 18
2570.0 21 19 35 30 40 27 34 22 34 34
2610.0 31 37 35 35 24 31 26 29 24 24
2650.0 18 21 25 38 36 34 40 35 43 43
2690.0 46 32 35 26 28 29 26 29 32 32
2730.0 19 21 32 18 17 24 23 19 33 46
2770.0 55 53 40 38 30 52 45 46 52 45
2810.0 44 35 44 55 58 66 82 85 102 128
2850.0 155 183 215 263 308 350 362 366 351 337
2890.0 310 297 300 301 331 370 434 537 672 829
2930.0 1004 1157 1238 1241 1163 1051 909 831 758 736
2970.0 698 628 576 520 502 470 457 464 523 629
3010.0 795 960 1066 1106 1079 1077 1107 1105 1022 884
3050.0 721 634 551 514 495 468 444 394 346 296
3090.0 252 234 204 190 187 186 176 165 142 142
3130.0 108 107 97 85 62 68 71 30 42 41
3170.0 40 34 34 35 33 40 38 43 15 19
3210.0 31 34 23 27 22 45 46 23 35 28
3250.0 31 18 25 35 27 36 33 48 50 46
3290.0 39 34 18 26 25 29 54 37 35 37
3330.0 35 30 43 64 54 63 68 83 74 61
3370.0 78 77 56 72 68 44 67 47 61 50
3410.0 48 51 76 42 52 57 48 59 35 40
3450.0 31 37 40 37 34 25 43 34 58 35
3490.0 37 44 59 50 44 72 61 84 83 122
3530.0 75 135 135 172 205 228 320 410 774 1396
3570.0 2984 4110 4255 3389 1825 817 505 316 261 180
3610.0 152 173 178 203 242 266 506 751 1386 2293
3650.0 3612 3732 3400 2072 1010 425 336 103 173 79
3690.0 68 20 75 73 29 62 32 26 8 102
3730.0 52 67 45 61 21 37 43 14 33 26
3770.0 25 1 37 15 21 28 31 59 20 0
3810.0 28 5 33 28 16 36 74 16 29 37
3850.0 32 30 36 48 81 50 11 62 60 48
3890.0 63 65 20 71 24 34 39 39 83 54
3930.0 66 79 21 11 53 47 73 36 15 24
##END=
