##TITLE=Cycloheptanone
##JCAMP-DX=4.24
##DATA TYPE=INFRARED SPECTRUM
##ORIGIN=Sadtler Research Labs Under US-EPA Contract
##OWNER=NIST Standard Reference Data Program
##CAS REGISTRY NO=502-42-1
##MOLFORM=C 7 H 12 O
##XUNITS=1/CM
##YUNITS=ABSORBANCE
##XFACTOR=1.0
##YFACTOR=0.000083173
##DELTAX=4.0
##FIRSTX=450.0
##LASTX=3966.0
##FIRSTY=0.000000
##MAXX=3966
##MINX=450
##MAXY=0.83173
##MINY=0
##NPOINTS=880
##XYDATA=(X++(Y..Y))
450.0 0 264 486 347 446 409 447 543 611 674
490.0 691 724 730 648 642 492 509 527 333 358
530.0 384 386 318 261 377 284 286 311 393 242
570.0 502 435 278 310 297 307 290 281 308 307
610.0 314 269 353 171 304 257 310 294 294 307
650.0 300 315 305 309 309 274 312 370 327 388
690.0 379 396 369 357 373 350 312 279 325 297
730.0 323 323 308 321 338 353 301 392 380 177
770.0 297 288 308 333 326 335 346 357 388 424
810.0 499 385 356 423 405 433 490 525 610 692
850.0 734 760 708 635 543 475 404 340 333 316
890.0 311 322 312 334 332 351 380 416 501 571
930.0 667 753 796 799 711 631 525 489 432 409
970.0 413 420 412 434 423 420 405 372 341 342
1010.0 406 382 403 402 406 403 402 405 405 398
1050.0 405 390 364 357 324 321 300 299 310 290
1090.0 312 299 332 332 338 351 352 368 392 427
1130.0 495 548 643 735 834 974 1083 1158 1149 1135
1170.0 1105 1020 951 875 833 798 773 774 773 763
1210.0 746 699 669 627 609 622 640 710 755 836
1250.0 893 896 882 831 783 695 614 556 514 492
1290.0 476 452 457 455 483 522 584 680 770 891
1330.0 993 1079 1172 1206 1136 1027 896 742 606 486
1370.0 402 365 351 320 347 344 365 403 431 516
1410.0 590 706 829 899 961 998 1076 1169 1288 1424
1450.0 1533 1533 1717 1681 1307 1096 931 718 562 450
1490.0 396 343 330 297 311 306 301 282 288 284
1530.0 266 276 262 280 278 262 277 268 267 255
1570.0 256 254 257 255 256 249 272 258 269 263
1610.0 268 270 263 279 278 277 293 306 310 322
1650.0 357 366 392 410 469 513 602 646 781 859
1690.0 1019 1234 1631 2373 3523 5083 6193 7030 7571 7048
1730.0 6491 4633 2915 2033 1480 1191 932 817 653 562
1770.0 494 436 377 357 331 312 301 280 292 252
1810.0 267 254 261 251 247 260 230 243 240 248
1850.0 234 228 232 229 232 247 230 228 229 225
1890.0 241 222 232 218 223 220 217 223 221 221
1930.0 217 215 218 215 216 219 208 218 209 217
1970.0 214 204 221 208 215 214 214 218 213 215
2010.0 213 215 219 216 216 214 206 215 200 210
2050.0 201 204 202 193 210 195 202 202 197 204
2090.0 200 202 205 202 208 208 209 212 203 216
2130.0 204 218 206 204 212 202 216 211 217 216
2170.0 210 217 213 214 221 209 214 207 208 213
2210.0 201 211 200 206 204 201 211 199 214 208
2250.0 206 212 207 213 207 203 211 197 206 209
2290.0 209 217 219 233 222 236 239 222 238 221
2330.0 238 234 218 248 231 227 237 231 283 249
2370.0 259 258 235 235 207 203 194 196 198 192
2410.0 194 188 186 190 178 187 182 182 192 182
2450.0 196 182 185 188 183 199 186 192 189 186
2490.0 192 185 190 187 183 192 184 186 189 187
2530.0 194 182 189 188 188 196 185 195 183 195
2570.0 199 186 197 188 195 199 196 208 202 208
2610.0 215 205 217 212 222 220 216 226 215 232
2650.0 225 226 236 229 242 256 272 296 300 313
2690.0 312 318 319 295 293 267 260 251 231 234
2730.0 216 228 221 218 224 215 224 224 231 242
2770.0 233 248 255 262 277 283 315 317 342 359
2810.0 359 372 374 377 387 394 433 480 575 762
2850.0 1039 1441 1816 2293 2611 2571 2549 2297 2021 1786
2890.0 1599 1541 1587 1782 2071 2410 2902 3654 4617 5867
2930.0 7339 9149 10000 9325 8654 7563 6024 4361 3149 2436
2970.0 2030 1718 1419 1163 889 697 551 441 396 348
3010.0 315 298 279 280 256 270 270 262 271 256
3050.0 259 240 247 261 251 266 259 255 253 240
3090.0 260 248 235 236 222 228 206 217 214 200
3130.0 220 207 218 223 208 229 212 220 218 217
3170.0 222 207 214 201 204 213 190 216 213 202
3210.0 203 201 219 203 207 217 203 223 216 214
3250.0 213 207 221 208 213 220 209 221 203 220
3290.0 204 200 223 202 204 204 201 210 184 208
3330.0 190 196 209 192 220 203 207 225 208 223
3370.0 208 230 232 219 252 240 250 263 261 302
3410.0 287 336 330 321 358 332 331 288 258 245
3450.0 222 239 218 231 229 209 235 207 212 206
3490.0 203 227 210 211 214 201 214 203 205 219
3530.0 198 209 208 215 193 192 217 193 204 197
3570.0 213 206 190 220 200 205 210 193 206 221
3610.0 219 205 191 261 221 213 203 212 229 178
3650.0 200 208 233 227 216 229 213 204 210 191
3690.0 230 235 246 217 180 215 184 211 247 222
3730.0 230 209 219 255 208 221 192 232 202 204
3770.0 220 218 231 230 182 218 194 218 204 211
3810.0 221 196 230 202 219 237 223 233 208 219
3850.0 229 196 244 189 240 189 217 232 240 262
3890.0 227 207 232 178 241 252 183 213 217 248
3930.0 220 221 198 178 207 177 213 249 194 229
##END=
