##TITLE=Cycloheptanol
##JCAMP-DX=4.24
##DATA TYPE=INFRARED SPECTRUM
##ORIGIN=Sadtler Research Labs Under US-EPA Contract
##OWNER=NIST Standard Reference Data Program
##CAS REGISTRY NO=502-41-0
##MOLFORM=C 7 H 14 O
##XUNITS=1/CM
##YUNITS=ABSORBANCE
##XFACTOR=1.0
##YFACTOR=0.000098859
##DELTAX=4.0
##FIRSTX=450.0
##LASTX=3966.0
##FIRSTY=0.016411
##MAXX=3966
##MINX=450
##MAXY=0.98859
##MINY=0
##NPOINTS=880
##XYDATA=(X++(Y..Y))
450.0 166 103 75 169 58 84 134 96 158 34
490.0 150 23 171 107 122 91 142 163 90 124
530.0 70 125 94 167 123 149 134 143 174 58
570.0 108 19 77 66 102 53 98 79 111 74
610.0 95 92 69 98 90 117 85 116 99 122
650.0 96 116 120 96 97 101 112 48 89 24
690.0 92 99 124 106 99 113 98 128 100 151
730.0 116 111 104 127 113 130 151 140 152 128
770.0 137 115 154 147 157 161 172 179 169 182
810.0 178 227 223 260 261 286 258 265 256 230
850.0 248 212 233 217 225 206 224 223 233 243
890.0 244 283 286 334 352 397 405 424 422 408
930.0 383 371 374 350 355 334 344 333 367 364
970.0 390 399 409 403 396 427 457 537 606 739
1010.0 887 1147 1449 1776 2091 2340 2457 2369 2188 1864
1050.0 1468 1088 828 627 499 409 330 295 257 263
1090.0 253 291 301 349 392 426 438 434 424 400
1130.0 414 401 401 401 423 421 431 449 457 487
1170.0 504 550 577 625 638 665 658 676 671 648
1210.0 611 574 537 468 440 406 404 399 416 440
1250.0 458 460 454 440 403 395 365 350 328 323
1290.0 312 297 282 262 259 249 264 264 279 291
1330.0 312 330 357 369 383 409 426 453 480 495
1370.0 511 526 519 498 492 453 427 397 358 307
1410.0 293 249 254 260 258 305 379 531 640 812
1450.0 902 1000 1079 1099 1029 830 671 533 401 289
1490.0 230 179 156 124 145 145 107 126 108 124
1530.0 82 112 90 118 93 98 87 110 123 71
1570.0 86 85 96 71 79 72 68 76 65 76
1610.0 62 93 70 90 65 83 67 96 64 96
1650.0 65 126 81 53 83 82 71 86 67 109
1690.0 65 79 86 120 91 102 118 134 122 112
1730.0 124 113 110 72 77 69 98 58 82 61
1770.0 75 65 58 66 51 57 60 58 53 66
1810.0 44 54 57 61 54 58 50 49 48 61
1850.0 53 43 48 46 45 50 49 40 48 46
1890.0 49 47 44 52 44 51 46 55 53 42
1930.0 49 43 52 48 55 43 45 41 50 44
1970.0 44 45 40 38 36 40 34 40 34 35
2010.0 25 25 26 22 23 16 15 14 15 16
2050.0 17 15 8 8 2 12 13 19 22 33
2090.0 34 34 34 33 36 35 38 34 40 42
2130.0 41 41 40 42 39 45 38 47 44 51
2170.0 47 49 44 50 48 50 51 48 52 49
2210.0 50 49 54 52 56 54 48 54 48 48
2250.0 46 50 46 50 45 47 47 48 50 47
2290.0 51 50 54 48 47 49 46 48 47 41
2330.0 29 27 18 22 36 25 5 16 20 20
2370.0 21 28 41 34 38 32 43 37 37 33
2410.0 37 29 36 37 31 33 27 30 23 28
2450.0 28 30 27 25 26 26 29 27 28 23
2490.0 25 21 20 21 18 17 14 17 17 20
2530.0 14 19 19 17 16 15 13 9 14 10
2570.0 13 17 20 16 21 28 23 32 31 42
2610.0 38 52 62 69 66 75 75 72 85 72
2650.0 91 101 122 137 155 160 165 168 165 170
2690.0 169 179 173 171 161 150 144 141 126 116
2730.0 120 112 119 104 107 102 108 119 123 134
2770.0 135 142 159 162 174 185 188 206 221 233
2810.0 244 268 283 294 321 341 407 491 640 881
2850.0 1229 1703 2211 2736 3086 3172 3105 2871 2533 2216
2890.0 1994 1920 2032 2301 2739 3345 4145 5172 6430 7820
2930.0 9068 9743 10000 9257 7737 6010 4311 2897 1863 1183
2970.0 779 552 401 307 242 203 183 141 134 115
3010.0 111 89 86 87 87 75 62 69 54 57
3050.0 48 52 60 53 45 47 46 48 43 40
3090.0 45 39 44 44 23 45 57 35 55 46
3130.0 36 52 54 57 41 61 65 70 74 69
3170.0 68 68 85 71 82 68 63 54 69 82
3210.0 83 89 89 101 95 100 91 95 76 86
3250.0 74 64 71 61 59 53 50 49 40 44
3290.0 41 39 37 42 27 30 42 48 26 37
3330.0 23 40 30 42 39 29 30 30 40 22
3370.0 29 22 59 50 37 35 41 33 46 36
3410.0 65 54 63 68 31 61 43 52 38 56
3450.0 54 46 44 43 38 42 43 52 33 51
3490.0 45 41 29 51 45 30 37 29 26 23
3530.0 23 32 49 33 30 22 21 15 17 27
3570.0 42 41 32 44 46 48 9 40 44 30
3610.0 43 33 57 64 93 116 168 246 333 428
3650.0 473 476 446 362 268 187 112 92 53 47
3690.0 64 37 23 23 9 11 20 21 2 5
3730.0 18 0 10 22 17 24 29 10 17 22
3770.0 1 34 16 7 1 4 7 10 14 26
3810.0 19 48 28 6 12 5 19 1 2 23
3850.0 25 29 31 5 2 34 35 21 55 26
3890.0 30 35 36 69 46 59 42 59 71 26
3930.0 56 46 64 68 109 87 78 104 84 27
##END=
