##TITLE=Benzeneethanol, 3-methoxy-
##JCAMP-DX=4.24
##DATA TYPE=INFRARED SPECTRUM
##ORIGIN=Sadtler Research Labs Under US-EPA Contract
##OWNER=NIST Standard Reference Data Program
##CAS REGISTRY NO=5020-41-7
##MOLFORM=C 9 H 12 O 2
##XUNITS=1/CM
##YUNITS=ABSORBANCE
##XFACTOR=1.0
##YFACTOR=0.000106134
##DELTAX=4.0
##FIRSTX=450.0
##LASTX=3966.0
##FIRSTY=0.063362
##MAXX=3966
##MINX=450
##MAXY=1.06134
##MINY=0
##NPOINTS=880
##XYDATA=(X++(Y..Y))
450.0 597 527 546 602 556 452 362 258 167 152
490.0 123 107 117 100 63 80 117 105 125 133
530.0 150 174 179 215 249 288 336 349 330 300
570.0 290 261 245 197 129 99 78 47 47 40
610.0 22 49 33 50 29 32 17 9 3 7
650.0 2 2 4 21 13 84 174 329 673 1117
690.0 1714 2208 2220 1669 1284 871 683 578 499 425
730.0 378 429 543 645 662 625 551 632 869 1233
770.0 1728 2153 2363 2417 2079 1471 980 570 307 187
810.0 129 118 122 151 225 332 468 626 740 792
850.0 778 752 763 800 872 949 1016 981 901 777
890.0 628 504 404 350 309 286 282 287 280 273
930.0 258 245 238 249 283 334 384 417 447 458
970.0 469 485 512 564 654 800 970 1152 1331 1471
1010.0 1597 1766 2026 2441 3056 3905 5086 6472 7747 8728
1050.0 9115 8998 8535 7322 5717 4101 2846 2161 1829 1617
1090.0 1420 1196 970 782 650 576 553 562 612 690
1130.0 815 1019 1372 2031 3119 4386 5222 5543 5056 4004
1170.0 3267 2658 2034 1633 1453 1343 1267 1188 1085 1010
1210.0 986 990 1024 1105 1241 1456 1784 2295 3105 4304
1250.0 5968 7847 9425 10000 9534 8030 6188 4746 3944 3655
1290.0 3631 3681 3624 3427 3090 2734 2427 2198 2018 1872
1330.0 1764 1677 1597 1470 1295 1114 948 836 809 825
1370.0 925 1101 1300 1477 1581 1536 1381 1183 1002 910
1410.0 878 903 1042 1240 1631 2243 2927 3404 3444 3170
1450.0 2885 2712 2861 3084 3232 3317 3502 3933 4472 5352
1490.0 5643 5316 4157 2759 1704 1049 736 583 543 476
1530.0 474 465 491 523 527 531 590 715 865 1100
1570.0 1549 2196 3131 4269 5086 5943 6447 7156 7392 7251
1610.0 6339 4966 3602 2413 1576 972 688 497 376 304
1650.0 275 242 177 146 132 116 124 78 105 108
1690.0 83 74 122 117 112 101 124 152 128 116
1730.0 129 159 123 112 114 118 96 88 78 60
1770.0 62 51 18 15 11 10 14 7 22 8
1810.0 15 24 33 46 61 70 72 70 88 87
1850.0 63 43 36 29 38 47 37 33 30 34
1890.0 42 49 58 74 95 115 136 150 151 126
1930.0 97 60 30 15 7 1 0 5 8 18
1970.0 21 28 32 31 30 38 38 39 42 47
2010.0 52 56 61 59 59 61 62 71 78 86
2050.0 88 93 93 93 93 96 93 94 96 98
2090.0 98 91 88 82 80 72 70 66 67 65
2130.0 61 59 53 50 47 46 45 43 41 37
2170.0 32 33 32 34 36 37 43 46 51 57
2210.0 57 57 50 44 37 28 23 17 12 7
2250.0 5 3 3 1 3 3 5 8 11 17
2290.0 19 26 33 39 44 51 53 55 54 61
2330.0 63 53 57 59 57 51 49 39 39 40
2370.0 33 40 38 37 35 36 37 45 49 54
2410.0 58 60 63 62 61 61 59 59 55 53
2450.0 55 53 49 46 45 44 46 47 46 49
2490.0 49 51 52 53 54 55 63 63 66 70
2530.0 68 68 63 68 70 77 78 80 80 74
2570.0 68 64 63 63 66 67 70 68 71 73
2610.0 73 71 71 68 65 66 66 70 71 74
2650.0 76 76 74 76 74 75 76 73 75 77
2690.0 83 86 89 94 103 108 116 125 135 144
2730.0 155 159 169 177 178 186 190 201 206 210
2770.0 214 218 226 239 251 265 279 294 313 332
2810.0 361 395 450 527 644 843 1182 1664 2079 2297
2850.0 2304 2044 1770 1671 1747 1978 2318 2667 2910 2979
2890.0 2845 2633 2463 2432 2543 2798 3180 3600 3936 4141
2930.0 4260 4320 4508 4902 5400 5727 5759 5518 4886 4133
2970.0 3407 2723 2078 1595 1333 1252 1342 1634 2129 2457
3010.0 2424 2187 1687 1252 1160 1217 1320 1398 1443 1456
3050.0 1470 1494 1487 1449 1388 1320 1259 1221 1181 1082
3090.0 920 755 617 506 440 391 343 285 227 172
3130.0 137 109 92 80 73 69 63 59 52 49
3170.0 46 43 32 36 33 28 26 28 28 26
3210.0 27 27 23 17 14 15 16 16 11 16
3250.0 14 12 11 15 17 11 11 12 9 12
3290.0 9 6 9 12 14 14 16 19 15 16
3330.0 13 20 14 14 10 8 13 16 8 9
3370.0 16 15 13 15 12 9 11 10 7 13
3410.0 8 14 10 11 11 13 12 9 6 6
3450.0 5 9 5 9 6 13 14 17 6 8
3490.0 13 12 6 3 6 4 3 2 5 3
3530.0 11 15 25 27 26 34 28 24 28 26
3570.0 31 30 34 22 35 34 37 42 54 70
3610.0 101 155 298 515 696 773 735 602 472 402
3650.0 414 530 656 768 846 831 753 624 452 292
3690.0 195 136 108 92 81 68 55 51 35 33
3730.0 22 21 16 6 18 13 7 6 1 7
3770.0 1 0 0 0 0 0 0 0 0 0
3810.0 0 0 0 0 0 0 0 0 0 0
3850.0 0 9 6 0 8 0 0 18 9 13
3890.0 18 9 12 8 4 0 0 10 0 7
3930.0 1 1 9 5 0 0 6 0 0 0
##END=
