##TITLE=2-Pyridinemethanol, 4,5,6-trimethoxy-,
##JCAMP-DX=4.24
##DATA TYPE=INFRARED SPECTRUM
##ORIGIN=Sadtler Research Labs Under US-EPA Contract
##OWNER=NIST Standard Reference Data Program
##CAS REGISTRY NO=5024-31-7
##MOLFORM=C 9 H 13 N O 4
##XUNITS=1/CM
##YUNITS=ABSORBANCE
##XFACTOR=1.0
##YFACTOR=0.000129099
##DELTAX=4.0
##FIRSTX=450.0
##LASTX=3966.0
##FIRSTY=0.009295
##MAXX=3966
##MINX=450
##MAXY=1.29099
##MINY=0
##NPOINTS=880
##XYDATA=(X++(Y..Y))
450.0 72 21 26 4 29 37 43 16 48 35
490.0 58 55 81 82 59 110 134 101 78 104
530.0 117 167 198 167 96 90 35 36 76 128
570.0 156 164 205 218 228 238 256 258 278 273
610.0 316 373 234 109 207 298 309 235 182 161
650.0 98 97 143 148 135 157 135 131 119 139
690.0 144 133 122 179 205 211 246 247 214 197
730.0 160 150 124 114 117 121 133 157 189 204
770.0 225 250 234 200 192 177 171 162 154 168
810.0 216 275 352 382 468 522 459 371 323 296
850.0 278 237 187 127 90 62 52 49 46 58
890.0 56 70 84 109 160 227 265 302 314 309
930.0 300 292 314 352 422 505 615 771 941 1078
970.0 1092 1000 850 738 704 768 904 1126 1458 1893
1010.0 2338 2563 2490 2196 1890 1676 1572 1371 1119 1122
1050.0 1196 1280 1410 1560 1705 1731 1633 1515 1429 1458
1090.0 1651 2019 2577 3269 4006 4599 5103 5567 6151 6927
1130.0 7530 7783 7111 5863 4331 3180 2539 2199 1950 1725
1170.0 1576 1562 1702 1916 2154 2277 2232 2036 1783 1683
1210.0 1662 1568 1644 1940 2227 2531 2879 3241 3501 3516
1250.0 3331 2980 2557 2094 1706 1387 1139 958 826 750
1290.0 718 701 698 704 710 725 722 722 697 698
1330.0 721 769 895 1006 1160 1385 1698 2143 2855 3960
1370.0 5584 7694 9382 10000 8758 6709 4684 3387 2782 2582
1410.0 2554 2503 2511 2332 2191 1995 1894 1736 1686 1870
1450.0 2509 3298 4144 4545 4514 4361 4219 4180 4196 4510
1490.0 4489 4189 3544 2686 1935 1316 990 794 749 636
1530.0 617 576 610 647 692 741 883 1081 1425 1802
1570.0 2438 3113 3852 4402 4858 5450 5497 5317 4374 3316
1610.0 2166 1427 958 637 462 297 250 164 106 94
1650.0 81 81 70 45 89 139 140 159 159 200
1690.0 138 141 147 175 119 107 147 188 162 132
1730.0 141 125 109 86 94 97 102 70 81 66
1770.0 82 74 49 72 46 69 56 52 60 51
1810.0 27 45 39 26 48 32 34 10 33 41
1850.0 23 4 19 11 19 36 11 14 15 15
1890.0 20 19 16 11 13 16 18 31 31 31
1930.0 32 45 49 72 72 72 75 73 64 65
1970.0 56 50 52 58 60 72 79 79 88 96
2010.0 106 115 122 114 100 86 72 64 61 56
2050.0 54 56 54 60 69 69 68 65 65 60
2090.0 59 54 54 53 51 46 44 38 32 30
2130.0 28 32 31 31 36 39 42 45 48 47
2170.0 46 41 36 28 23 19 14 13 12 12
2210.0 9 11 9 8 9 6 7 7 8 12
2250.0 15 17 21 24 28 31 33 34 38 40
2290.0 38 37 38 39 35 35 24 15 11 5
2330.0 4 4 4 4 4 19 4 4 4 4
2370.0 4 6 16 26 30 23 23 27 31 34
2410.0 37 36 32 28 26 19 18 15 14 14
2450.0 14 17 19 25 27 29 32 37 41 41
2490.0 45 44 46 47 46 43 44 41 40 38
2530.0 34 36 37 35 35 35 35 35 36 37
2570.0 39 38 42 40 42 48 49 52 56 55
2610.0 53 50 48 45 43 41 41 39 39 40
2650.0 39 37 34 34 30 27 30 29 30 33
2690.0 33 32 36 38 40 43 47 48 53 57
2730.0 61 64 69 69 72 73 75 78 81 85
2770.0 91 97 104 112 124 135 151 172 194 223
2810.0 257 299 356 424 508 634 794 957 1043 1052
2850.0 1042 1081 1169 1276 1354 1408 1432 1423 1377 1307
2890.0 1238 1194 1190 1205 1215 1219 1232 1260 1306 1378
2930.0 1500 1720 2040 2432 2800 3024 3099 2981 2720 2382
2970.0 2068 1803 1646 1561 1511 1433 1368 1368 1409 1479
3010.0 1538 1520 1376 1136 849 623 492 400 350 316
3050.0 293 275 263 257 246 242 233 223 209 197
3090.0 183 173 158 144 135 120 107 92 82 74
3130.0 65 60 57 50 46 43 38 34 30 31
3170.0 27 22 18 17 17 14 13 11 10 10
3210.0 10 11 11 11 10 12 14 8 5 10
3250.0 10 10 10 12 14 11 15 15 11 11
3290.0 14 13 16 17 19 21 21 21 26 23
3330.0 26 30 31 36 37 35 39 42 43 41
3370.0 49 44 46 51 46 48 53 53 51 54
3410.0 53 61 65 63 64 60 62 64 60 64
3450.0 65 63 71 73 70 75 81 88 100 103
3490.0 108 122 136 158 179 194 215 223 238 249
3530.0 248 246 243 235 246 234 210 227 194 227
3570.0 206 176 177 162 180 167 158 128 119 109
3610.0 126 99 95 94 93 113 107 88 108 108
3650.0 138 151 157 181 162 199 159 172 123 114
3690.0 90 68 56 47 36 26 33 26 19 23
3730.0 11 28 22 11 57 2 31 4 4 4
3770.0 4 4 4 5 4 4 4 8 4 15
3810.0 4 4 4 14 5 4 4 12 4 13
3850.0 10 14 17 11 7 18 4 15 16 36
3890.0 2 22 0 47 25 13 7 37 13 9
3930.0 28 7 18 12 23 11 16 4 13 11
##END=
