##TITLE=Butanoic acid, 3-methyl-
##JCAMP-DX=4.24
##DATA TYPE=INFRARED SPECTRUM
##ORIGIN=Sadtler Research Labs Under US-EPA Contract
##OWNER=NIST Standard Reference Data Program
##CAS REGISTRY NO=503-74-2
##MOLFORM=C 5 H 10 O 2
##XUNITS=1/CM
##YUNITS=ABSORBANCE
##XFACTOR=1.0
##YFACTOR=0.000231097
##DELTAX=4.0
##FIRSTX=450.0
##LASTX=3966.0
##FIRSTY=0.003004
##MAXX=3966
##MINX=450
##MAXY=2.31097
##MINY=0
##NPOINTS=880
##XYDATA=(X++(Y..Y))
450.0 13 44 108 101 105 158 136 166 173 230
490.0 234 257 293 313 347 367 417 432 477 513
530.0 564 609 680 761 817 918 955 991 1005 1018
570.0 1021 1019 1055 1072 1126 1141 1191 1249 1315 1379
610.0 1415 1457 1429 1478 1428 1423 1332 1252 1118 944
650.0 808 686 615 515 475 415 386 390 414 450
690.0 486 498 500 484 454 410 367 344 332 319
730.0 321 302 295 280 267 254 250 242 222 206
770.0 181 162 138 130 90 99 100 95 77 95
810.0 104 104 117 124 137 143 157 157 159 162
850.0 159 169 164 171 166 167 158 156 158 162
890.0 175 169 169 168 160 146 143 149 148 155
930.0 154 157 150 151 152 168 184 199 212 213
970.0 213 204 194 176 167 165 173 181 200 226
1010.0 248 274 295 316 332 364 400 457 532 627
1050.0 755 914 1122 1369 1645 1995 2340 2750 3118 3534
1090.0 3818 3872 3862 3753 3585 3086 2705 2439 2309 2252
1130.0 2323 2425 2526 2690 2836 3009 3099 3253 3290 3253
1170.0 3056 2752 2411 2077 1753 1434 1195 996 843 728
1210.0 659 620 601 591 587 586 579 577 566 558
1250.0 542 535 523 525 533 547 579 600 637 666
1290.0 705 730 743 738 724 690 656 630 627 625
1330.0 622 638 633 685 766 832 908 984 1095 1261
1370.0 1442 1557 1647 1691 1593 1442 1203 970 818 703
1410.0 585 556 438 471 447 479 456 472 504 523
1450.0 586 623 676 774 836 862 748 668 613 473
1490.0 340 286 205 167 107 57 79 70 23 77
1530.0 57 79 50 14 32 76 73 14 61 85
1570.0 85 79 88 89 108 98 103 101 103 105
1610.0 98 106 73 100 76 107 86 71 101 84
1650.0 60 52 97 113 109 114 84 154 99 122
1690.0 163 213 166 231 310 400 495 588 869 1004
1730.0 1167 1169 1374 1551 1884 2305 2969 4000 4828 6275
1770.0 6322 10000 6837 8497 6852 6314 4463 3449 2425 1748
1810.0 1311 978 764 568 455 321 285 237 198 142
1850.0 149 146 121 116 93 76 81 93 78 74
1890.0 61 63 64 61 64 57 58 53 53 59
1930.0 69 65 67 55 58 68 59 62 61 55
1970.0 53 55 54 48 50 35 40 38 45 37
2010.0 41 34 32 35 36 39 36 35 29 34
2050.0 31 30 28 25 20 22 23 18 20 18
2090.0 17 16 19 19 19 19 16 19 16 20
2130.0 18 18 18 19 19 17 20 19 21 20
2170.0 22 21 22 26 26 27 27 30 27 29
2210.0 25 26 22 24 24 22 24 21 22 18
2250.0 20 16 14 11 9 7 3 3 0 1
2290.0 0 1 1 2 3 2 4 1 6 1
2330.0 6 3 5 3 0 6 4 8 0 0
2370.0 0 0 0 1 4 6 8 8 10 9
2410.0 11 11 11 10 9 10 9 11 9 10
2450.0 10 10 11 11 11 13 13 12 13 11
2490.0 13 11 13 14 14 16 15 15 14 17
2530.0 15 17 16 16 14 16 17 15 16 16
2570.0 17 16 18 17 19 19 21 24 23 27
2610.0 27 30 31 34 35 38 40 41 44 42
2650.0 44 42 42 41 41 40 37 40 41 39
2690.0 38 41 38 41 41 42 44 47 53 59
2730.0 67 74 80 84 88 85 83 78 75 74
2770.0 73 75 74 75 75 78 78 80 86 90
2810.0 98 106 119 128 139 150 162 176 189 208
2850.0 226 253 290 351 447 596 794 980 1127 1209
2890.0 1243 1221 1155 1115 1089 1086 1126 1190 1276 1400
2930.0 1553 1730 1890 2023 2160 2301 2491 2758 3201 3653
2970.0 3931 4022 3829 3477 2871 2198 1604 1127 772 538
3010.0 387 300 243 211 190 176 166 158 157 152
3050.0 153 151 151 149 149 147 144 143 142 139
3090.0 137 137 135 134 135 135 135 134 134 134
3130.0 135 135 136 134 135 135 133 133 134 132
3170.0 134 133 134 134 133 133 133 129 129 123
3210.0 119 114 110 102 98 94 90 84 80 79
3250.0 76 76 73 74 68 69 67 67 66 65
3290.0 70 65 65 62 63 58 53 53 51 52
3330.0 51 49 47 48 44 44 42 42 38 40
3370.0 40 38 42 39 42 38 36 33 32 30
3410.0 29 28 22 25 22 22 19 19 15 15
3450.0 12 13 13 11 21 16 19 15 21 19
3490.0 20 27 27 32 32 41 48 56 65 65
3530.0 77 92 101 108 134 160 274 511 1071 1849
3570.0 2364 2618 2619 2439 2155 1215 599 249 128 73
3610.0 52 41 27 28 20 18 11 18 14 12
3650.0 10 7 11 8 12 8 2 7 7 12
3690.0 1 4 7 7 5 3 0 11 11 7
3730.0 11 7 3 10 12 1 11 9 10 13
3770.0 12 13 12 14 8 12 15 18 19 21
3810.0 20 23 6 24 16 22 22 18 10 27
3850.0 24 11 18 22 14 15 18 21 19 28
3890.0 17 24 23 23 19 25 26 28 25 26
3930.0 26 26 29 21 23 20 26 21 26 32
##END=
