##TITLE=Benzene, 1,2,4-trichloro-3-methoxy-
##JCAMP-DX=4.24
##DATA TYPE=INFRARED SPECTRUM
##ORIGIN=Sadtler Research Labs Under US-EPA Contract
##OWNER=NIST Standard Reference Data Program
##CAS REGISTRY NO=50375-10-5
##MOLFORM=C 7 H 5 Cl 3 O
##XUNITS=1/CM
##YUNITS=ABSORBANCE
##XFACTOR=1.0
##YFACTOR=0.000074075
##DELTAX=4.0
##FIRSTX=450.0
##LASTX=3966.0
##FIRSTY=0.000000
##MAXX=3966
##MINX=450
##MAXY=0.74075
##MINY=0
##NPOINTS=880
##XYDATA=(X++(Y..Y))
450.0 0 690 678 606 540 585 405 500 559 725
490.0 735 885 869 840 737 649 646 685 752 627
530.0 741 648 592 659 546 609 613 566 664 748
570.0 775 766 710 682 584 568 612 683 816 917
610.0 1229 1614 1984 2204 2364 2347 2076 1622 1203 908
650.0 769 645 620 627 542 636 508 514 480 440
690.0 486 538 525 546 531 566 538 582 532 495
730.0 550 551 552 636 701 782 768 728 663 602
770.0 667 686 752 863 1190 2206 3805 6195 7831 6971
810.0 4495 2675 1548 1160 1003 844 781 745 713 691
850.0 691 713 794 978 1346 1837 2192 2194 1874 1338
890.0 928 751 721 721 705 693 678 647 640 631
930.0 646 642 652 677 660 681 677 669 673 673
970.0 667 683 712 750 828 974 1259 1781 2741 4317
1010.0 6614 8995 10000 9232 6768 4103 2381 1619 1294 1164
1050.0 1134 1131 1096 1008 883 787 752 761 797 814
1090.0 881 951 1102 1308 1469 1477 1259 971 791 751
1130.0 792 811 802 780 730 739 723 772 914 1243
1170.0 2086 3115 3706 3571 2692 1679 1146 968 916 947
1210.0 1000 1045 1143 1244 1393 1601 1803 1984 2187 2456
1250.0 2766 2961 2945 2570 2037 1633 1421 1339 1252 1119
1290.0 948 755 628 569 543 566 585 609 630 592
1330.0 563 543 600 736 847 955 1038 1145 1330 1665
1370.0 2364 3643 5670 7799 9310 8864 7087 4308 2276 1465
1410.0 1301 1491 2194 3693 5584 7004 7159 5657 3747 2803
1450.0 2797 3506 5081 6663 6611 5682 3568 1899 1255 992
1490.0 908 864 849 869 847 868 754 794 764 712
1530.0 701 702 801 863 967 1085 1293 1479 1565 1427
1570.0 1218 995 800 676 698 665 738 713 737 710
1610.0 620 623 564 570 556 577 576 597 557 553
1650.0 613 566 597 488 555 514 544 502 524 519
1690.0 497 489 530 546 483 510 494 560 550 530
1730.0 609 549 594 510 500 497 480 475 481 475
1770.0 480 501 463 469 470 468 483 477 469 484
1810.0 483 479 490 495 492 510 471 501 477 516
1850.0 515 551 607 646 692 683 653 611 568 566
1890.0 558 546 528 511 483 477 459 472 452 454
1930.0 452 445 455 444 454 450 455 459 460 460
1970.0 461 461 468 467 474 475 481 483 491 503
2010.0 511 512 524 539 554 557 548 525 502 492
2050.0 487 482 482 471 466 459 449 451 449 446
2090.0 447 447 450 449 452 454 459 467 472 473
2130.0 473 473 469 455 447 442 433 438 432 429
2170.0 427 424 431 431 431 431 428 425 427 429
2210.0 426 424 426 424 432 437 437 440 442 449
2250.0 464 476 493 502 505 492 474 458 446 440
2290.0 443 438 440 442 442 452 448 452 454 471
2330.0 469 493 536 433 531 413 462 416 489 528
2370.0 540 518 493 470 434 418 405 405 407 406
2410.0 413 408 412 417 420 426 423 428 431 427
2450.0 425 422 425 428 431 441 449 457 465 475
2490.0 479 475 471 466 459 458 449 447 444 437
2530.0 426 424 423 419 418 419 418 423 425 418
2570.0 430 431 429 433 428 431 429 435 442 442
2610.0 445 445 438 445 451 452 458 458 459 453
2650.0 451 444 434 436 434 432 428 425 432 428
2690.0 434 432 433 429 431 434 437 439 444 439
2730.0 436 431 430 437 435 437 444 450 458 461
2770.0 472 478 480 488 492 497 502 501 508 515
2810.0 532 549 558 575 589 613 663 714 763 794
2850.0 827 863 922 998 1053 1087 1071 995 910 849
2890.0 805 813 828 842 843 839 829 822 823 835
2930.0 871 965 1174 1540 2024 2410 2430 2114 1712 1407
2970.0 1260 1216 1165 1079 975 900 858 854 879 936
3010.0 1027 1124 1175 1167 1080 957 866 801 760 726
3050.0 706 688 684 678 674 673 673 666 656 631
3090.0 612 591 569 551 544 546 538 524 513 505
3130.0 502 502 490 491 482 475 479 461 470 462
3170.0 464 474 470 470 470 473 467 462 473 469
3210.0 461 468 460 468 468 470 468 465 460 477
3250.0 467 470 471 467 469 469 468 466 469 465
3290.0 464 462 456 454 466 470 478 457 461 468
3330.0 456 466 466 474 469 474 469 473 473 468
3370.0 460 480 466 474 471 464 474 474 467 477
3410.0 471 465 475 468 476 478 473 466 462 466
3450.0 453 472 466 468 469 462 453 457 456 455
3490.0 474 477 468 445 472 449 466 470 462 445
3530.0 467 467 475 462 458 454 490 444 493 425
3570.0 457 475 491 475 455 455 459 483 464 467
3610.0 453 463 457 485 458 505 446 487 465 482
3650.0 448 498 483 469 498 416 540 435 502 447
3690.0 480 513 437 479 463 447 470 424 443 413
3730.0 448 480 410 518 427 565 427 483 453 449
3770.0 463 457 459 454 410 442 437 484 461 481
3810.0 478 466 473 480 465 425 483 481 418 509
3850.0 391 519 426 472 453 413 459 440 481 448
3890.0 479 434 465 459 436 450 424 471 409 457
3930.0 442 480 500 443 467 429 463 495 481 476
##END=
