##TITLE=2,5-Heptadien-4-one, 2,6-dimethyl-
##JCAMP-DX=4.24
##DATA TYPE=INFRARED SPECTRUM
##ORIGIN=Sadtler Research Labs Under US-EPA Contract
##OWNER=NIST Standard Reference Data Program
##CAS REGISTRY NO=504-20-1
##MOLFORM=C 9 H 14 O
##XUNITS=1/CM
##YUNITS=ABSORBANCE
##XFACTOR=1.0
##YFACTOR=0.000084717
##DELTAX=4.0
##FIRSTX=450.0
##LASTX=3966.0
##FIRSTY=0.015927
##MAXX=3966
##MINX=450
##MAXY=0.84717
##MINY=0
##NPOINTS=880
##XYDATA=(X++(Y..Y))
450.0 188 169 123 121 66 88 30 45 25 81
490.0 31 93 18 48 36 102 69 89 65 114
530.0 27 92 44 68 55 80 50 84 35 1
570.0 38 120 95 93 66 45 142 122 109 93
610.0 128 119 142 155 145 145 135 108 118 107
650.0 110 94 90 71 65 44 66 25 62 49
690.0 84 75 134 151 200 194 227 181 179 150
730.0 179 148 167 194 306 414 702 1144 1727 2047
770.0 1988 1557 959 461 310 188 190 140 132 138
810.0 167 168 197 207 227 268 303 280 306 336
850.0 451 590 807 963 1100 1118 863 662 485 348
890.0 293 283 289 261 229 196 176 182 180 186
930.0 167 168 155 161 147 174 191 247 272 316
970.0 329 333 339 354 337 330 342 378 416 509
1010.0 608 823 1113 1582 2085 2501 2578 2370 1897 1474
1050.0 1129 908 722 611 517 490 457 511 542 679
1090.0 896 1302 1984 2962 3816 4028 3534 2510 1462 893
1130.0 620 533 482 498 509 525 503 456 399 358
1170.0 329 319 329 356 388 444 522 665 908 1240
1210.0 1671 2040 2177 2029 1669 1261 958 781 625 470
1250.0 384 316 290 269 258 236 240 220 226 215
1290.0 229 231 251 260 264 261 269 271 286 291
1330.0 319 332 389 429 538 711 965 1127 1234 1256
1370.0 1306 1521 1868 2072 2215 1964 1688 1361 1082 892
1410.0 801 738 780 804 911 1043 1241 1489 1767 2074
1450.0 2305 2308 2101 1701 1307 1022 835 714 623 577
1490.0 538 493 485 469 474 479 463 462 456 444
1530.0 436 450 470 470 459 482 496 543 507 573
1570.0 632 714 776 878 995 1166 1381 1687 2084 2631
1610.0 3291 4077 4955 5904 7135 8468 9501 10000 9693 8402
1650.0 6425 4582 3166 2531 2342 2492 2752 2973 2957 2637
1690.0 2311 1847 1294 885 657 510 445 378 315 324
1730.0 354 386 356 350 340 313 223 211 196 169
1770.0 167 123 108 103 99 109 88 88 85 63
1810.0 64 49 56 50 57 44 40 34 65 38
1850.0 39 27 52 41 61 47 48 48 56 48
1890.0 62 47 60 51 70 60 83 85 99 84
1930.0 89 75 83 74 65 55 62 45 47 51
1970.0 44 37 42 30 34 27 28 14 23 10
2010.0 13 14 10 11 15 14 34 41 49 53
2050.0 49 34 26 22 14 21 19 26 26 18
2090.0 10 24 13 29 24 30 34 37 29 47
2130.0 41 47 42 52 48 55 46 61 49 53
2170.0 46 58 46 47 29 40 22 29 21 27
2210.0 17 23 18 23 13 22 11 23 10 17
2250.0 9 13 1 9 5 12 7 17 19 25
2290.0 30 37 46 49 51 59 55 61 70 53
2330.0 58 48 45 29 30 43 74 67 48 3
2370.0 11 2 20 23 41 42 55 42 54 43
2410.0 53 43 53 46 55 41 49 39 44 38
2450.0 50 44 55 49 62 41 54 43 51 43
2490.0 52 43 43 29 33 17 23 10 18 15
2530.0 19 14 14 14 22 13 21 19 16 24
2570.0 30 40 42 44 36 32 24 28 15 17
2610.0 6 8 1 14 2 19 9 28 25 37
2650.0 17 30 27 39 29 48 33 50 27 43
2690.0 21 36 25 43 37 54 55 83 83 118
2730.0 136 167 167 179 175 171 138 129 101 101
2770.0 82 90 76 86 80 87 86 103 116 139
2810.0 143 163 180 197 215 234 284 313 372 448
2850.0 539 650 791 921 1009 1043 1060 1040 1048 1056
2890.0 1117 1152 1218 1301 1467 1729 2203 2791 3244 3301
2930.0 3074 2575 2178 2005 1997 1835 1642 1435 1309 1266
2970.0 1386 1595 1858 1941 1947 1751 1456 1167 1010 892
3010.0 852 829 826 809 822 796 778 721 681 614
3050.0 568 486 444 402 377 352 339 323 307 296
3090.0 274 248 232 214 198 187 152 139 137 117
3130.0 105 110 100 83 73 89 63 74 72 78
3170.0 51 53 43 63 40 65 43 51 39 64
3210.0 39 58 51 74 51 81 50 84 61 51
3250.0 43 78 32 62 36 75 52 76 52 73
3290.0 76 90 61 69 66 68 49 82 54 65
3330.0 59 67 57 51 37 62 54 57 69 44
3370.0 43 52 57 44 38 29 51 31 52 27
3410.0 36 37 49 33 53 10 39 22 44 3
3450.0 22 36 65 34 49 35 64 18 64 24
3490.0 34 29 41 14 28 45 54 37 63 42
3530.0 83 61 60 42 83 59 65 77 89 56
3570.0 48 54 67 61 77 48 42 39 44 43
3610.0 66 54 25 25 67 31 27 46 48 74
3650.0 34 10 21 39 40 65 31 10 26 46
3690.0 42 32 17 18 12 41 14 42 21 40
3730.0 17 51 20 47 19 24 0 9 0 23
3770.0 21 24 19 25 18 25 26 22 4 2
3810.0 7 47 30 47 10 22 19 31 7 10
3850.0 24 19 8 17 19 23 10 11 18 0
3890.0 9 5 32 36 20 15 23 21 33 13
3930.0 19 12 21 8 14 13 29 24 26 10
##END=
