##TITLE=10-Nonadecanone
##JCAMP-DX=4.24
##DATA TYPE=INFRARED SPECTRUM
##ORIGIN=Sadtler Research Labs Under US-EPA Contract
##OWNER=NIST Standard Reference Data Program
##CAS REGISTRY NO=504-57-4
##MOLFORM=C 19 H 38 O
##XUNITS=1/CM
##YUNITS=ABSORBANCE
##XFACTOR=1.0
##YFACTOR=0.000128641
##DELTAX=4.0
##FIRSTX=450.0
##LASTX=3966.0
##FIRSTY=0.000900
##MAXX=3966
##MINX=450
##MAXY=1.28641
##MINY=0
##NPOINTS=880
##XYDATA=(X++(Y..Y))
450.0 7 51 78 47 77 76 73 44 68 43
490.0 57 73 35 33 61 51 69 67 62 72
530.0 53 67 39 34 44 61 48 39 36 39
570.0 30 45 31 27 19 30 13 11 16 40
610.0 26 26 38 39 26 25 26 25 21 19
650.0 23 14 27 3 0 39 18 16 28 31
690.0 39 37 62 75 90 124 159 182 180 176
730.0 163 151 145 132 119 106 97 96 100 96
770.0 85 82 74 71 70 59 73 48 54 56
810.0 55 57 53 51 50 47 46 52 50 53
850.0 50 55 51 60 64 66 76 77 84 90
890.0 91 95 88 84 91 96 96 95 95 92
930.0 98 99 105 107 114 120 123 130 137 141
970.0 142 145 148 149 154 157 171 180 204 224
1010.0 248 264 278 291 299 298 297 289 286 285
1050.0 291 305 324 340 361 387 414 437 444 434
1090.0 409 375 350 327 314 309 314 335 362 399
1130.0 427 437 423 399 366 336 316 308 307 310
1170.0 317 328 336 340 345 343 336 327 314 304
1210.0 294 286 277 271 272 270 268 269 276 277
1250.0 279 279 284 287 299 314 329 339 340 345
1290.0 347 360 373 384 390 388 379 375 373 377
1330.0 396 437 508 581 656 729 788 815 808 758
1370.0 679 594 523 478 442 374 329 304 299 318
1410.0 359 388 428 427 417 413 444 492 550 633
1450.0 743 865 984 1014 949 814 631 448 311 227
1490.0 178 142 126 105 111 96 84 71 75 60
1530.0 56 51 47 46 44 43 39 46 46 33
1570.0 34 33 35 39 34 43 46 55 53 61
1610.0 60 62 67 63 65 63 71 68 70 68
1650.0 79 86 90 86 104 116 142 159 193 233
1690.0 265 324 407 536 701 955 1311 1777 2215 2390
1730.0 2134 1596 1067 751 550 438 350 295 255 233
1770.0 216 196 174 153 137 118 103 91 88 78
1810.0 69 64 55 47 41 31 28 23 22 21
1850.0 18 14 16 12 12 10 10 9 9 8
1890.0 9 7 6 7 6 4 4 6 5 2
1930.0 3 5 2 4 3 3 2 2 2 2
1970.0 2 0 1 2 0 2 3 3 2 2
2010.0 4 4 7 8 9 10 11 11 12 13
2050.0 11 9 11 11 10 13 11 12 12 11
2090.0 12 9 9 11 11 12 12 12 12 13
2130.0 11 10 9 6 8 10 10 13 14 16
2170.0 16 16 18 17 18 17 14 14 13 12
2210.0 9 9 7 6 4 3 4 2 0 1
2250.0 0 1 1 2 3 4 4 6 7 9
2290.0 11 12 16 19 23 23 23 22 22 19
2330.0 20 13 17 18 23 31 27 23 19 15
2370.0 13 18 23 22 13 8 8 7 7 8
2410.0 9 5 5 6 6 6 5 7 6 3
2450.0 5 5 8 5 6 6 5 8 8 7
2490.0 7 8 10 9 9 12 12 15 17 18
2530.0 20 19 20 22 21 20 23 24 26 25
2570.0 27 31 31 34 33 34 38 40 41 44
2610.0 45 50 50 54 57 59 64 65 69 72
2650.0 75 80 85 90 96 99 107 110 114 116
2690.0 116 118 117 120 121 120 125 124 125 124
2730.0 128 131 135 140 143 144 142 145 147 151
2770.0 157 163 175 188 203 225 246 272 299 329
2810.0 360 394 433 474 525 587 669 784 957 1219
2850.0 1638 2262 3077 3786 4015 3782 3368 3008 2808 2696
2890.0 2574 2560 2694 2950 3319 3823 4469 5320 6480 7917
2930.0 9427 10000 9653 8530 7239 6039 5192 4709 4517 4448
2970.0 4168 3432 2491 1775 1324 1030 831 687 581 497
3010.0 435 382 345 307 277 250 227 207 188 173
3050.0 157 145 136 127 119 108 105 99 96 92
3090.0 87 82 80 75 73 66 68 60 61 57
3130.0 56 54 49 47 44 45 45 43 43 39
3170.0 42 38 34 32 35 34 31 30 26 23
3210.0 23 21 17 16 16 15 13 12 10 11
3250.0 9 9 7 5 8 6 8 6 5 8
3290.0 7 8 3 6 6 8 7 6 7 10
3330.0 11 8 11 8 12 15 11 13 10 17
3370.0 15 15 14 20 17 20 18 22 23 25
3410.0 33 30 32 32 38 39 37 31 27 26
3450.0 17 13 11 15 10 9 4 9 6 8
3490.0 4 8 3 1 4 4 6 5 5 1
3530.0 0 2 7 5 8 6 5 5 3 8
3570.0 19 19 22 20 17 21 14 12 10 3
3610.0 13 3 8 11 17 19 13 17 12 8
3650.0 5 11 17 17 14 11 14 13 4 9
3690.0 11 7 14 13 15 5 6 11 3 15
3730.0 8 14 11 13 13 5 8 0 1 12
3770.0 1 11 14 15 4 18 10 7 8 9
3810.0 14 9 6 11 14 12 17 13 1 9
3850.0 2 12 18 11 12 12 13 12 16 12
3890.0 18 6 12 19 17 14 23 23 21 11
3930.0 23 20 27 14 13 22 32 24 24 36
##END=
