##TITLE=Thiazolidine
##JCAMP-DX=4.24
##DATA TYPE=INFRARED SPECTRUM
##ORIGIN=Sadtler Research Labs Under US-EPA Contract
##OWNER=NIST Standard Reference Data Program
##CAS REGISTRY NO=504-78-9
##MOLFORM=C 3 H 7 N S
##XUNITS=1/CM
##YUNITS=ABSORBANCE
##XFACTOR=1.0
##YFACTOR=0.000071130
##DELTAX=4.0
##FIRSTX=450.0
##LASTX=3966.0
##FIRSTY=0.007326
##MAXX=3966
##MINX=450
##MAXY=0.7113
##MINY=0
##NPOINTS=880
##XYDATA=(X++(Y..Y))
450.0 103 129 84 149 386 326 241 382 311 314
490.0 315 303 150 52 47 54 59 72 77 75
530.0 203 189 288 292 379 418 417 403 390 417
570.0 407 302 203 139 81 65 21 9 31 25
610.0 61 14 97 68 105 69 103 140 138 221
650.0 263 466 575 921 1006 1118 1328 1432 1445 1559
690.0 1624 1450 1224 1071 986 897 864 849 793 775
730.0 759 779 842 967 1150 1386 1672 1983 2345 2830
770.0 3426 4189 5148 6338 7851 8888 9788 9723 10000 9664
810.0 8586 7895 6910 4950 3040 1673 1006 704 547 448
850.0 412 388 354 334 295 259 248 265 247 289
890.0 356 454 613 808 1136 1465 1802 2031 2082 2244
930.0 2183 1870 1654 1264 914 645 495 408 347 303
970.0 250 198 145 133 112 115 110 135 146 163
1010.0 182 191 197 185 208 177 165 148 139 123
1050.0 107 129 138 182 221 316 426 598 781 1005
1090.0 1215 1395 1471 1432 1525 1477 1303 1170 902 671
1130.0 476 360 283 273 288 389 523 659 665 730
1170.0 863 799 746 796 694 571 441 417 462 566
1210.0 698 850 965 1069 1064 1026 1233 1323 1263 1219
1250.0 1079 959 926 914 839 792 655 506 377 318
1290.0 283 312 315 334 417 465 491 433 489 493
1330.0 386 465 367 289 209 164 132 119 96 89
1370.0 96 86 89 93 94 104 112 105 139 167
1410.0 181 256 318 478 643 875 979 1040 1052 1155
1450.0 1365 1103 875 885 725 599 283 234 164 136
1490.0 105 91 83 57 62 16 34 16 46 24
1530.0 41 22 46 53 21 44 35 82 62 71
1570.0 66 75 80 64 51 52 49 42 38 36
1610.0 36 23 51 15 37 17 38 21 30 15
1650.0 55 22 42 19 30 16 40 0 33 26
1690.0 25 25 54 37 48 49 49 70 80 85
1730.0 85 112 99 114 109 98 106 98 101 89
1770.0 95 86 88 72 82 61 67 58 45 44
1810.0 56 50 45 49 38 50 41 51 47 43
1850.0 49 55 63 61 70 67 84 88 93 101
1890.0 104 108 106 105 102 98 94 85 78 71
1930.0 69 64 66 60 64 64 66 66 69 66
1970.0 66 69 70 74 74 75 76 84 87 92
2010.0 96 99 101 103 110 109 109 107 103 105
2050.0 98 97 97 98 93 98 95 99 100 101
2090.0 100 109 105 109 107 110 111 107 114 113
2130.0 113 115 115 115 117 115 115 118 127 134
2170.0 140 146 151 152 159 159 161 160 160 148
2210.0 142 140 130 132 127 127 126 127 127 130
2250.0 128 126 127 125 124 116 115 111 111 100
2290.0 92 78 64 54 31 15 17 6 2 2
2330.0 2 2 2 0 4 57 2 2 2 2
2370.0 2 28 64 95 129 144 153 149 151 140
2410.0 140 137 130 120 124 123 115 119 113 115
2450.0 116 119 117 119 117 120 121 117 115 121
2490.0 124 118 125 121 121 120 124 126 133 131
2530.0 133 141 139 134 144 139 137 132 129 129
2570.0 127 124 125 127 118 119 119 121 123 126
2610.0 128 137 140 146 144 154 157 148 141 141
2650.0 139 135 131 128 129 126 129 131 128 127
2690.0 130 130 133 134 135 137 138 138 143 142
2730.0 140 141 143 139 140 139 149 151 157 166
2770.0 177 177 188 196 200 208 217 225 226 241
2810.0 261 281 303 338 374 427 530 569 607 724
2850.0 845 1031 1269 1581 1945 2359 2652 2798 3021 3116
2890.0 3045 2997 2834 2602 2400 2295 2242 2118 2258 2623
2930.0 2979 3340 3752 4353 5116 5725 6057 6607 6630 6309
2970.0 5737 5878 7225 4968 3791 3388 2878 2360 1760 1319
3010.0 1010 756 562 410 350 291 264 235 232 220
3050.0 210 208 195 191 179 178 159 157 143 147
3090.0 137 126 129 120 121 114 105 96 100 99
3130.0 93 88 93 93 93 92 93 89 89 98
3170.0 92 88 88 90 78 85 89 84 84 77
3210.0 92 80 80 92 78 80 81 81 79 81
3250.0 83 82 84 83 83 82 89 87 78 79
3290.0 89 80 87 88 86 91 92 116 134 162
3330.0 178 199 229 243 243 241 225 209 185 159
3370.0 130 108 101 83 75 70 69 62 62 62
3410.0 69 66 68 51 59 66 70 62 70 61
3450.0 66 63 71 59 58 57 66 63 47 50
3490.0 52 60 50 47 42 46 62 73 58 39
3530.0 58 61 57 62 40 48 50 55 51 18
3570.0 26 65 62 47 31 6 28 43 44 45
3610.0 16 13 27 36 54 2 49 57 37 55
3650.0 16 51 45 49 67 19 45 9 56 21
3690.0 41 24 49 18 43 36 33 20 24 14
3730.0 15 32 7 33 8 49 1 40 53 54
3770.0 37 39 48 41 54 45 59 44 66 17
3810.0 75 32 43 57 41 51 39 29 36 46
3850.0 23 38 32 40 44 20 28 28 32 30
3890.0 68 34 52 7 34 41 55 26 39 30
3930.0 28 40 31 15 5 25 33 45 24 39
##END=
