##TITLE=1,3-Propanediol
##JCAMP-DX=4.24
##DATA TYPE=INFRARED SPECTRUM
##ORIGIN=Sadtler Research Labs Under US-EPA Contract
##OWNER=NIST Standard Reference Data Program
##CAS REGISTRY NO=504-63-2
##MOLFORM=C 3 H 8 O 2
##XUNITS=1/CM
##YUNITS=ABSORBANCE
##XFACTOR=1.0
##YFACTOR=0.000052930
##DELTAX=4.0
##FIRSTX=450.0
##LASTX=3966.0
##FIRSTY=0.025089
##MAXX=3966
##MINX=450
##MAXY=0.5293
##MINY=0
##NPOINTS=880
##XYDATA=(X++(Y..Y))
450.0 474 499 525 551 567 542 559 524 511 478
490.0 477 510 489 469 583 609 588 552 536 493
530.0 434 330 308 188 224 165 229 135 155 170
570.0 95 165 94 152 113 200 144 91 174 117
610.0 118 136 71 180 132 161 122 133 142 126
650.0 77 109 31 34 41 108 107 74 102 79
690.0 114 104 106 107 108 86 91 112 94 86
730.0 81 115 113 13 87 106 104 127 147 183
770.0 233 284 277 295 322 358 355 389 393 371
810.0 368 383 359 354 329 327 288 290 264 294
850.0 321 294 339 366 390 402 420 476 515 545
890.0 642 670 746 861 1016 1109 1198 1249 1346 1405
930.0 1467 1460 1396 1356 1357 1301 1302 1255 1256 1301
970.0 1362 1478 1591 1661 1760 1781 1819 1801 1830 1871
1010.0 2014 2246 2601 3064 3602 4178 4767 5444 6289 7161
1050.0 7908 8631 9101 9721 10000 9927 9332 8243 6919 5627
1090.0 4360 3345 2589 2077 1723 1481 1310 1185 1121 1068
1130.0 1033 1035 1033 1074 1103 1141 1181 1211 1239 1268
1170.0 1318 1355 1364 1358 1387 1396 1387 1391 1382 1371
1210.0 1362 1372 1374 1384 1403 1432 1490 1552 1610 1627
1250.0 1595 1521 1472 1450 1413 1403 1385 1337 1318 1298
1290.0 1248 1197 1120 1082 1047 1029 1017 1009 1029 1038
1330.0 1079 1099 1138 1173 1213 1231 1257 1295 1334 1391
1370.0 1458 1526 1595 1690 1778 1863 1921 1950 1970 1958
1410.0 1910 1853 1794 1745 1671 1507 1345 1159 1040 904
1450.0 785 700 620 651 666 677 670 659 689 737
1490.0 744 728 609 513 329 231 196 158 111 116
1530.0 125 98 87 45 92 107 95 47 47 91
1570.0 78 89 79 101 112 112 102 103 102 92
1610.0 86 85 39 65 56 59 54 30 60 42
1650.0 44 3 59 49 46 30 39 37 47 10
1690.0 50 51 23 13 42 52 46 25 57 64
1730.0 53 25 46 47 56 39 48 48 46 56
1770.0 43 21 48 47 47 48 26 45 45 45
1810.0 46 55 55 54 54 54 64 63 65 49
1850.0 63 63 71 71 71 62 74 68 77 71
1890.0 70 70 68 72 70 69 69 59 60 68
1930.0 66 59 70 69 63 67 60 68 68 68
1970.0 67 67 65 76 75 72 70 75 75 75
2010.0 75 75 75 75 73 83 83 82 82 81
2050.0 88 88 87 81 81 82 80 72 71 70
2090.0 61 70 61 68 62 60 65 62 59 60
2130.0 61 60 60 60 60 60 48 49 50 40
2170.0 38 41 41 40 39 40 39 37 49 38
2210.0 38 37 42 38 38 38 38 38 37 37
2250.0 36 36 36 32 33 26 36 35 34 37
2290.0 35 35 34 35 33 15 13 6 5 5
2330.0 5 5 5 5 5 5 5 5 5 5
2370.0 5 11 25 50 60 62 64 63 63 64
2410.0 72 73 73 66 62 63 63 63 57 55
2450.0 63 55 65 65 55 55 55 51 57 57
2490.0 43 50 53 55 55 47 46 47 48 56
2530.0 54 47 46 58 45 57 49 55 56 48
2570.0 48 56 57 57 57 57 57 68 62 69
2610.0 75 75 76 77 76 76 86 85 97 95
2650.0 106 111 121 122 132 143 151 171 179 190
2690.0 201 229 215 232 235 245 255 261 273 301
2730.0 311 330 339 361 386 398 417 433 447 460
2770.0 476 495 506 525 554 563 585 611 641 669
2810.0 698 738 784 841 927 1011 1136 1270 1416 1599
2850.0 1806 2050 2311 2565 2824 3109 3442 3815 4154 4437
2890.0 4672 4807 4900 4890 4973 5103 5265 5529 5746 5997
2930.0 6184 6402 6660 6836 6825 6543 6067 5670 5197 4682
2970.0 4133 3503 2920 2413 1914 1478 1143 880 686 544
3010.0 438 373 308 262 224 190 171 153 140 123
3050.0 112 104 104 83 86 75 61 64 57 59
3090.0 46 41 39 38 39 38 30 30 29 29
3130.0 26 21 26 27 27 22 31 13 31 22
3170.0 22 21 21 29 25 26 23 29 22 22
3210.0 13 14 14 13 13 12 9 23 17 11
3250.0 20 11 11 12 15 14 5 14 5 15
3290.0 11 17 10 10 4 6 19 13 15 15
3330.0 24 16 21 19 21 26 30 23 29 34
3370.0 32 26 35 34 44 26 34 38 35 59
3410.0 64 68 82 88 109 110 119 128 128 128
3450.0 137 140 135 133 132 142 125 120 131 120
3490.0 121 121 111 121 121 120 116 122 122 112
3530.0 110 101 112 121 112 122 121 133 160 163
3570.0 180 223 289 379 546 789 1078 1340 1502 1658
3610.0 1703 1707 1735 1675 1521 1326 1205 1113 1114 1186
3650.0 1310 1521 1763 1983 2158 2215 2159 2046 1892 1687
3690.0 1365 1048 775 559 422 326 261 241 195 177
3730.0 159 133 122 130 90 98 105 124 126 125
3770.0 116 146 142 136 125 125 121 109 80 80
3810.0 70 80 71 70 77 65 63 65 82 96
3850.0 85 62 69 89 81 71 72 81 80 78
3890.0 72 77 70 67 60 65 62 53 53 54
3930.0 45 47 46 46 58 69 0 5 5 5
##END=
