##TITLE=Nanofin
##JCAMP-DX=4.24
##DATA TYPE=INFRARED SPECTRUM
##ORIGIN=Sadtler Research Labs Under US-EPA Contract
##OWNER=NIST Standard Reference Data Program
##CAS REGISTRY NO=504-03-0
##MOLFORM=C 7 H 15 N
##XUNITS=1/CM
##YUNITS=ABSORBANCE
##XFACTOR=1.0
##YFACTOR=0.000082950
##DELTAX=4.0
##FIRSTX=450.0
##LASTX=3966.0
##FIRSTY=0.003650
##MAXX=3966
##MINX=450
##MAXY=0.8295
##MINY=0
##NPOINTS=880
##XYDATA=(X++(Y..Y))
450.0 44 81 109 155 227 314 426 530 617 648
490.0 601 529 338 247 82 47 10 28 31 65
530.0 120 234 205 146 228 232 284 197 186 172
570.0 69 79 43 53 32 4 18 41 33 44
610.0 37 51 59 39 62 42 68 48 68 57
650.0 79 71 86 97 126 168 200 231 284 383
690.0 468 602 715 856 972 1101 1269 1391 1555 1605
730.0 1719 1662 1287 973 720 453 245 117 55 40
770.0 28 33 21 52 34 61 84 138 184 220
810.0 226 222 240 179 127 65 54 35 40 35
850.0 38 42 34 43 24 28 10 27 22 40
890.0 45 54 68 73 97 104 131 127 152 166
930.0 193 132 118 119 115 126 138 170 178 204
970.0 190 183 144 105 77 47 34 24 43 77
1010.0 140 148 173 142 135 87 45 21 25 38
1050.0 44 68 100 172 252 326 378 424 449 437
1090.0 368 353 442 546 520 551 675 830 1026 1193
1130.0 1264 1287 1107 977 733 519 455 472 455 452
1170.0 363 272 236 230 230 201 189 165 169 175
1210.0 205 223 253 233 213 165 123 87 56 59
1250.0 64 104 124 142 137 151 160 144 153 172
1290.0 237 324 500 775 1250 1688 1896 2099 1824 1741
1330.0 1231 890 662 544 453 361 353 445 633 959
1370.0 1299 1405 1543 1414 1221 794 503 305 203 161
1410.0 176 269 491 791 961 1144 1239 1356 1418 1341
1450.0 1335 1590 1537 1305 1212 1063 841 590 412 255
1490.0 143 76 54 44 60 35 28 28 14 10
1530.0 6 18 18 0 5 15 23 29 2 12
1570.0 23 16 15 16 21 15 16 21 22 28
1610.0 16 29 14 28 19 23 29 11 25 30
1650.0 32 20 21 32 40 44 47 40 58 30
1690.0 32 45 32 27 21 29 30 23 11 17
1730.0 24 24 16 12 25 23 13 12 19 9
1770.0 20 8 12 12 12 22 9 22 16 22
1810.0 16 23 22 19 21 18 21 20 28 25
1850.0 35 25 37 31 38 30 26 18 15 12
1890.0 10 14 8 16 16 16 17 17 16 11
1930.0 17 13 22 19 23 18 23 22 13 14
1970.0 8 7 4 9 4 15 11 15 15 12
2010.0 21 13 14 14 14 8 14 7 16 10
2050.0 14 10 12 14 7 8 1 8 6 13
2090.0 13 15 5 8 16 13 13 11 12 6
2130.0 11 5 6 11 7 10 8 11 10 10
2170.0 6 16 6 10 5 11 10 5 9 9
2210.0 17 8 12 5 10 5 9 4 4 9
2250.0 5 9 6 13 10 11 4 10 7 5
2290.0 12 11 16 12 24 18 30 22 30 16
2330.0 15 10 0 0 0 13 12 16 0 0
2370.0 0 0 0 1 2 8 15 15 20 15
2410.0 21 20 22 13 16 20 13 16 10 21
2450.0 17 28 29 34 34 42 45 43 44 38
2490.0 42 29 29 25 29 24 19 23 26 29
2530.0 25 32 24 28 27 30 32 42 49 61
2570.0 78 104 141 184 254 314 381 439 495 470
2610.0 419 387 339 291 249 230 202 199 191 200
2650.0 207 220 243 266 308 316 328 339 359 371
2690.0 392 414 452 494 541 592 587 584 554 541
2730.0 528 522 509 475 462 457 488 525 601 664
2770.0 767 877 1026 1190 1397 1602 1831 2121 2236 2180
2810.0 2057 1868 1615 1427 1284 1230 1234 1324 1469 1668
2850.0 1876 2056 2310 2469 2626 2694 2714 2593 2395 2239
2890.0 2090 1998 1994 2194 2553 3142 3852 4998 6271 7798
2930.0 8633 8898 10000 7877 6929 6067 5403 4848 5070 5107
2970.0 4920 4771 3997 2733 2025 1404 837 474 248 154
3010.0 101 87 81 67 66 69 72 64 70 65
3050.0 74 70 76 87 82 97 96 104 98 113
3090.0 100 105 90 94 77 83 83 78 90 76
3130.0 81 68 75 59 62 57 61 56 61 67
3170.0 64 73 73 87 82 96 84 89 90 89
3210.0 76 68 64 58 64 45 54 35 39 34
3250.0 32 34 28 30 17 31 25 30 30 37
3290.0 34 53 46 39 47 35 48 49 65 67
3330.0 97 84 92 87 73 65 52 54 34 55
3370.0 32 44 34 27 34 35 38 31 41 37
3410.0 50 36 46 35 42 36 34 35 25 36
3450.0 24 37 28 36 26 39 27 35 36 36
3490.0 42 26 35 31 33 25 33 13 19 21
3530.0 17 17 8 33 14 31 16 22 20 33
3570.0 6 16 24 20 33 13 22 9 23 28
3610.0 35 24 25 17 28 28 8 20 23 38
3650.0 21 23 17 25 19 22 31 14 22 22
3690.0 26 11 31 25 19 28 10 22 23 30
3730.0 20 25 16 33 12 32 10 22 17 18
3770.0 27 17 31 26 31 25 25 33 26 27
3810.0 13 33 18 24 19 33 30 30 29 32
3850.0 32 28 27 25 25 13 20 22 32 32
3890.0 39 40 43 45 38 46 37 36 36 37
3930.0 31 26 33 35 36 31 39 38 42 38
##END=
