##TITLE=1,4-Dithiane
##JCAMP-DX=4.24
##DATA TYPE=INFRARED SPECTRUM
##ORIGIN=Sadtler Research Labs Under US-EPA Contract
##OWNER=NIST Standard Reference Data Program
##CAS REGISTRY NO=505-29-3
##MOLFORM=C 4 H 8 S 2
##XUNITS=1/CM
##YUNITS=ABSORBANCE
##XFACTOR=1.0
##YFACTOR=0.000054495
##DELTAX=4.0
##FIRSTX=450.0
##LASTX=3966.0
##FIRSTY=0.024577
##MAXX=3966
##MINX=450
##MAXY=0.54495
##MINY=0
##NPOINTS=880
##XYDATA=(X++(Y..Y))
450.0 451 168 164 64 150 117 172 173 130 135
490.0 116 35 48 52 24 56 59 63 52 13
530.0 76 1 54 61 57 81 71 94 135 135
570.0 96 106 95 67 43 46 63 49 66 39
610.0 53 49 65 63 82 62 89 148 121 185
650.0 200 351 525 870 978 941 898 668 415 260
690.0 146 143 69 69 51 77 39 41 36 52
730.0 35 49 43 48 39 25 53 13 55 54
770.0 57 37 51 35 45 47 41 57 53 63
810.0 106 141 105 77 54 58 70 65 70 80
850.0 88 67 101 89 144 172 284 463 739 1285
890.0 1938 2573 2419 2840 2910 2404 2007 1323 747 524
930.0 385 376 312 293 241 201 150 125 112 98
970.0 91 96 121 123 159 165 161 165 162 149
1010.0 127 138 95 83 68 75 78 110 115 105
1050.0 81 79 84 84 78 81 87 90 88 84
1090.0 94 91 89 102 103 118 130 173 215 285
1130.0 370 467 615 820 1008 1006 1167 1224 836 815
1170.0 650 481 401 398 457 498 530 473 406 354
1210.0 327 265 211 202 199 198 186 195 217 306
1250.0 432 650 977 1496 2108 2672 2952 2794 3052 3194
1290.0 2586 2072 1623 1299 1130 924 662 400 228 128
1330.0 97 80 89 98 98 114 127 148 144 123
1370.0 124 127 151 193 315 484 770 1136 1602 2112
1410.0 2697 3214 3008 2803 2690 2204 1622 1148 808 574
1450.0 349 254 176 134 104 88 81 82 73 79
1490.0 89 106 113 120 171 193 228 248 284 279
1530.0 274 267 274 293 224 135 51 57 57 41
1570.0 44 51 46 52 45 51 47 51 37 42
1610.0 35 43 43 37 31 36 37 45 45 49
1650.0 45 75 46 39 45 32 45 32 38 46
1690.0 28 23 40 39 29 24 41 36 46 34
1730.0 38 55 51 32 32 43 40 41 44 53
1770.0 52 57 46 58 49 57 34 37 31 27
1810.0 17 21 21 12 23 14 29 20 37 31
1850.0 32 23 24 23 24 25 23 31 29 39
1890.0 44 51 57 56 58 54 57 57 50 45
1930.0 41 33 31 27 20 22 13 18 16 24
1970.0 19 21 20 24 20 20 20 19 27 22
2010.0 26 20 21 19 21 25 25 35 40 42
2050.0 41 44 38 34 39 41 47 54 58 63
2090.0 68 72 73 63 62 59 58 49 45 45
2130.0 43 47 43 48 55 55 51 47 50 42
2170.0 35 31 30 28 34 37 41 43 42 43
2210.0 47 51 51 56 56 59 66 66 57 51
2250.0 54 44 48 40 44 41 46 50 52 54
2290.0 57 64 76 87 98 109 85 77 69 51
2330.0 42 23 32 14 57 63 34 31 50 41
2370.0 36 56 50 57 53 46 38 43 46 50
2410.0 45 40 33 24 21 19 19 15 16 9
2450.0 14 14 10 13 10 13 10 12 8 10
2490.0 5 3 5 2 4 1 9 3 8 8
2530.0 7 7 7 13 7 11 8 19 16 25
2570.0 24 29 32 28 23 16 25 18 20 14
2610.0 24 21 32 31 31 27 19 23 15 20
2650.0 15 23 24 32 34 35 41 44 54 53
2690.0 60 65 69 67 72 72 63 70 66 63
2730.0 43 47 34 28 27 37 45 45 61 69
2770.0 83 84 112 123 157 201 275 392 532 705
2810.0 833 956 1002 987 894 795 655 527 430 335
2850.0 293 220 220 189 191 172 184 226 269 460
2890.0 776 1469 2371 3873 5539 7579 10000 8765 7182 9346
2930.0 7683 6514 5693 5792 5797 4658 7708 6577 4390 3982
2970.0 2703 1676 996 483 298 142 147 54 86 58
3010.0 60 45 45 62 35 60 44 62 30 53
3050.0 42 53 45 57 65 51 64 49 51 45
3090.0 65 62 64 70 68 64 57 74 43 36
3130.0 28 33 19 19 26 18 28 23 29 24
3170.0 32 43 52 56 65 69 78 72 51 56
3210.0 44 45 33 40 42 34 35 20 26 19
3250.0 26 24 36 36 44 57 54 62 70 89
3290.0 65 63 44 38 35 44 41 45 42 38
3330.0 49 35 32 20 30 12 6 21 6 9
3370.0 19 24 1 21 18 18 20 17 26 28
3410.0 46 54 62 66 78 68 74 69 55 42
3450.0 30 35 30 27 16 32 21 26 11 10
3490.0 16 0 10 16 14 11 24 13 17 17
3530.0 35 21 20 22 20 32 20 24 34 24
3570.0 35 32 34 49 46 55 33 25 34 26
3610.0 48 36 42 27 39 57 32 41 14 28
3650.0 41 27 44 21 33 13 36 36 18 20
3690.0 32 8 20 27 26 28 25 45 13 33
3730.0 13 39 36 39 47 30 34 18 21 32
3770.0 38 39 21 46 36 43 40 56 64 77
3810.0 79 100 87 98 72 77 61 72 58 66
3850.0 62 85 81 59 64 70 42 57 61 70
3890.0 53 72 55 89 55 30 34 47 59 48
3930.0 53 36 57 37 29 41 53 33 32 27
##END=
