##TITLE=Octanedioic acid
##JCAMP-DX=4.24
##DATA TYPE=INFRARED SPECTRUM
##ORIGIN=Sadtler Research Labs Under US-EPA Contract
##OWNER=NIST Standard Reference Data Program
##CAS REGISTRY NO=505-48-6
##MOLFORM=C 8 H 14 O 4
##XUNITS=1/CM
##YUNITS=ABSORBANCE
##XFACTOR=1.0
##YFACTOR=0.000041415
##DELTAX=4.0
##FIRSTX=450.0
##LASTX=3966.0
##FIRSTY=0.004266
##MAXX=3966
##MINX=450
##MAXY=0.41415
##MINY=0
##NPOINTS=880
##XYDATA=(X++(Y..Y))
450.0 103 0 630 1319 1316 724 1072 548 587 747
490.0 686 874 1040 1149 1009 733 719 949 1074 1329
530.0 1353 1475 1250 1304 1583 1655 1726 1781 1747 1795
570.0 1816 1948 1948 2072 1762 1691 2167 2251 2179 2140
610.0 2237 2345 2294 1874 2195 2039 2032 1756 1484 1475
650.0 1346 1023 1101 1192 1134 1119 940 909 626 893
690.0 940 1034 825 832 993 1246 1061 918 1238 764
730.0 1027 1079 571 326 601 553 743 852 887 972
770.0 734 692 465 736 747 766 672 708 918 915
810.0 987 640 746 919 863 896 884 844 824 704
850.0 724 636 657 541 517 592 470 534 474 396
890.0 508 521 482 516 522 446 479 524 551 524
930.0 567 533 558 578 572 618 613 630 597 660
970.0 680 751 770 809 857 892 919 909 925 940
1010.0 951 999 989 1040 1167 1298 1366 1446 1503 1575
1050.0 1700 1856 2038 2346 2521 2723 2980 3054 3116 3211
1090.0 3392 3582 3850 4198 4531 4974 5435 5786 6026 6009
1130.0 5833 5518 5101 4614 4202 3863 3637 3513 3529 3374
1170.0 3308 3203 3207 3188 3201 3090 2901 2722 2646 2481
1210.0 2332 2227 2149 2073 2001 1943 1907 1899 1912 1915
1250.0 1791 1757 1764 1742 1722 1663 1567 1506 1488 1443
1290.0 1423 1396 1389 1314 1317 1284 1269 1265 1250 1271
1330.0 1290 1339 1469 1510 1593 1667 1734 1818 1883 1983
1370.0 1985 2077 2172 2147 2176 2026 1890 1738 1493 1411
1410.0 1245 1194 1178 1167 1130 1121 1132 1115 1079 1042
1450.0 1033 1168 1232 1243 1106 1013 871 836 758 772
1490.0 800 733 664 638 690 807 766 783 766 767
1530.0 766 792 757 757 780 695 670 691 677 628
1570.0 649 701 754 826 852 864 913 823 804 710
1610.0 662 683 660 738 770 910 950 940 831 707
1650.0 713 687 735 642 749 780 830 900 974 1093
1690.0 1248 1394 1665 1996 2265 2505 2705 2945 2985 3102
1730.0 3308 3357 3665 3869 4221 4644 5014 5596 6244 7216
1770.0 8405 9396 10000 9558 8425 7069 5641 4651 3762 2989
1810.0 2370 1829 1407 1107 883 727 582 496 416 398
1850.0 342 317 279 261 255 230 244 213 215 206
1890.0 214 210 195 209 195 204 188 203 198 198
1930.0 189 187 183 188 195 174 203 172 174 184
1970.0 183 190 176 181 172 172 185 166 179 183
2010.0 167 166 157 159 158 151 148 139 147 134
2050.0 136 131 129 119 123 123 113 111 111 110
2090.0 110 112 105 107 104 98 108 96 93 90
2130.0 88 89 83 76 72 76 69 78 67 64
2170.0 61 67 59 57 53 56 56 54 42 36
2210.0 33 41 31 31 24 18 30 24 9 14
2250.0 4 8 19 14 17 15 28 43 55 82
2290.0 111 124 156 184 200 221 194 179 188 169
2330.0 152 124 138 132 224 206 236 169 220 181
2370.0 143 150 176 185 143 66 32 32 32 37
2410.0 43 44 34 40 34 39 43 43 35 27
2450.0 34 36 38 35 31 38 40 34 44 46
2490.0 30 39 42 41 39 36 38 38 52 47
2530.0 40 46 39 43 47 26 38 41 32 32
2570.0 36 28 38 45 55 31 33 37 35 40
2610.0 32 32 37 39 43 34 47 48 43 42
2650.0 49 42 34 40 42 38 39 37 37 45
2690.0 38 47 34 35 37 51 51 41 47 49
2730.0 43 46 43 46 44 45 58 69 60 64
2770.0 69 68 79 73 73 78 92 83 91 108
2810.0 122 123 125 140 165 192 239 262 322 404
2850.0 527 682 881 1073 1210 1280 1278 1203 1086 959
2890.0 876 838 848 916 1051 1217 1416 1652 1940 2228
2930.0 2513 2775 3006 3182 3258 3157 2931 2570 2182 1813
2970.0 1510 1238 1025 823 678 543 423 321 256 206
3010.0 159 122 96 84 91 76 73 73 64 58
3050.0 64 69 64 62 58 63 51 58 67 66
3090.0 72 71 83 59 60 64 49 58 64 67
3130.0 66 72 56 65 71 73 67 68 80 78
3170.0 72 52 77 55 72 70 61 67 66 74
3210.0 69 65 66 58 69 62 78 82 61 79
3250.0 85 75 71 58 74 79 98 77 70 81
3290.0 69 73 76 67 96 76 68 72 58 55
3330.0 60 88 82 81 61 71 78 62 62 67
3370.0 72 63 70 85 90 71 72 78 76 90
3410.0 90 80 83 78 77 89 95 108 116 100
3450.0 104 83 101 105 87 88 94 93 127 107
3490.0 122 117 143 147 183 164 152 153 187 212
3530.0 195 202 247 231 331 370 447 602 923 1462
3570.0 2637 3708 4105 3183 1994 1068 708 443 261 251
3610.0 214 175 138 119 69 189 144 105 67 120
3650.0 160 188 109 72 62 36 108 59 87 12
3690.0 58 89 38 72 42 57 67 39 64 108
3730.0 75 94 116 91 59 166 67 84 43 47
3770.0 75 52 20 62 53 22 35 109 110 49
3810.0 69 43 101 80 78 102 129 100 105 104
3850.0 50 168 83 83 139 134 106 94 186 83
3890.0 163 124 76 179 181 98 99 153 84 38
3930.0 131 104 121 73 191 127 154 73 61 114
##END=
