##TITLE=1,3-Dithiane
##JCAMP-DX=4.24
##DATA TYPE=INFRARED SPECTRUM
##ORIGIN=Sadtler Research Labs Under US-EPA Contract
##OWNER=NIST Standard Reference Data Program
##CAS REGISTRY NO=505-23-7
##MOLFORM=C 4 H 8 S 2
##XUNITS=1/CM
##YUNITS=ABSORBANCE
##XFACTOR=1.0
##YFACTOR=0.000062601
##DELTAX=4.0
##FIRSTX=450.0
##LASTX=3966.0
##FIRSTY=0.022223
##MAXX=3966
##MINX=450
##MAXY=0.62601
##MINY=0
##NPOINTS=880
##XYDATA=(X++(Y..Y))
450.0 355 154 133 51 116 77 113 58 61 88
490.0 44 32 29 51 76 68 68 83 49 55
530.0 39 27 9 42 83 37 17 21 57 38
570.0 20 37 35 57 20 82 82 24 71 77
610.0 81 76 117 123 132 180 198 225 261 294
650.0 260 367 453 664 792 971 1086 955 937 730
690.0 343 206 140 146 138 171 206 236 328 458
730.0 691 998 1353 1634 1752 1766 1719 1491 1201 781
770.0 324 144 115 138 136 140 143 145 178 214
810.0 214 213 220 211 215 164 142 151 121 138
850.0 126 147 149 171 195 247 294 337 430 570
890.0 529 479 569 675 844 999 1154 1283 1313 1225
930.0 1065 896 649 452 300 233 181 160 165 158
970.0 168 169 185 197 232 264 283 297 312 483
1010.0 499 314 289 303 244 220 182 184 176 200
1050.0 189 193 204 214 231 253 315 325 334 329
1090.0 311 304 255 208 167 156 125 122 106 146
1130.0 146 166 177 222 263 363 658 1057 1512 1529
1170.0 1778 1707 1587 1633 1346 981 915 884 884 907
1210.0 764 710 698 574 601 706 837 900 856 922
1250.0 993 994 979 1054 1186 1370 1448 1489 1488 1377
1290.0 1183 942 708 513 378 295 263 223 213 194
1330.0 201 195 211 215 193 201 191 205 188 230
1370.0 243 315 367 468 524 578 696 699 796 950
1410.0 1345 1513 1746 1807 2345 3101 2149 1390 1543 1162
1450.0 913 580 458 322 260 242 213 204 149 161
1490.0 104 115 135 151 149 157 157 149 166 137
1530.0 141 123 150 150 137 115 92 110 92 89
1570.0 75 83 72 95 87 90 76 84 79 59
1610.0 57 47 68 54 72 53 66 57 47 41
1650.0 46 52 46 54 69 79 90 95 116 123
1690.0 125 129 155 158 164 153 160 165 157 157
1730.0 167 184 164 161 157 156 139 143 144 138
1770.0 144 138 128 121 120 109 110 106 113 97
1810.0 89 89 84 78 73 77 70 69 63 76
1850.0 71 62 68 65 64 66 68 66 65 67
1890.0 74 69 70 78 83 81 75 73 68 65
1930.0 68 68 65 61 60 59 63 59 61 55
1970.0 55 57 56 53 55 56 53 53 52 54
2010.0 51 60 61 64 69 69 76 77 84 84
2050.0 81 85 83 87 95 108 116 110 103 94
2090.0 83 83 81 84 83 80 79 80 82 84
2130.0 84 78 79 75 83 95 102 113 119 127
2170.0 132 140 140 137 133 126 118 112 105 108
2210.0 108 101 106 100 104 106 102 101 95 91
2250.0 83 78 63 65 52 54 50 50 48 50
2290.0 47 46 45 46 41 27 22 6 12 26
2330.0 30 48 57 80 77 93 86 93 128 116
2370.0 115 126 113 105 95 91 90 83 86 89
2410.0 92 90 87 88 79 82 78 77 71 68
2450.0 68 62 64 57 61 58 56 53 53 51
2490.0 46 43 46 41 40 44 40 38 37 42
2530.0 40 41 38 38 50 47 52 53 60 61
2570.0 67 73 75 79 78 85 87 88 84 85
2610.0 80 77 76 72 79 83 84 84 88 87
2650.0 81 80 89 93 99 105 102 108 99 97
2690.0 82 85 84 86 89 89 97 91 88 88
2730.0 98 86 96 102 105 121 139 157 165 193
2770.0 208 215 199 190 181 177 191 206 262 323
2810.0 432 554 710 913 1175 1397 1511 1617 1535 1499
2850.0 1471 1366 1281 1162 1015 1051 1185 1500 2080 2956
2890.0 4104 5339 6990 8961 10000 8894 7825 7393 6363 5092
2930.0 3957 3365 3258 3715 5041 5390 4252 5162 5817 4196
2970.0 3281 2617 1764 1192 742 490 317 230 174 133
3010.0 126 102 90 71 72 57 57 58 50 50
3050.0 46 48 46 44 53 61 56 63 72 71
3090.0 71 64 68 67 68 67 72 63 77 71
3130.0 70 74 69 70 61 61 52 52 45 44
3170.0 34 35 43 33 36 24 30 36 36 38
3210.0 39 44 34 45 37 38 37 35 37 38
3250.0 42 40 42 56 45 41 39 40 44 52
3290.0 41 37 45 37 28 16 22 13 12 4
3330.0 6 5 5 12 4 11 5 15 16 21
3370.0 23 26 21 31 27 24 22 25 27 33
3410.0 39 46 53 59 51 52 48 56 43 34
3450.0 26 22 24 24 19 20 31 18 24 20
3490.0 7 25 23 33 17 23 20 19 31 23
3530.0 25 23 32 29 39 48 29 39 25 31
3570.0 28 34 30 40 40 51 52 30 36 26
3610.0 37 29 37 26 18 42 50 35 20 24
3650.0 16 11 34 26 32 42 28 19 18 22
3690.0 33 31 45 46 36 43 36 48 28 35
3730.0 27 45 44 33 54 27 24 36 23 20
3770.0 36 57 15 25 13 30 19 25 22 26
3810.0 37 29 22 44 39 35 43 53 37 40
3850.0 39 39 35 31 28 18 10 31 8 20
3890.0 22 34 48 45 25 36 35 11 23 27
3930.0 12 28 32 3 17 37 35 17 37 0
##END=
