##TITLE=Spirobicyclo[3.2.0]heptane-6,1'-cyclohexan-7-one
##JCAMP-DX=4.24
##DATA TYPE=INFRARED SPECTRUM
##ORIGIN=Sadtler Research Labs Under US-EPA Contract
##OWNER=NIST Standard Reference Data Program
##CAS REGISTRY NO=50515-91-8
##MOLFORM=C 12 H 18 O
##XUNITS=1/CM
##YUNITS=ABSORBANCE
##XFACTOR=1.0
##YFACTOR=0.000098700
##DELTAX=4.0
##FIRSTX=450.0
##LASTX=3966.0
##FIRSTY=0.001086
##MAXX=3966
##MINX=450
##MAXY=0.987
##MINY=0
##NPOINTS=880
##XYDATA=(X++(Y..Y))
450.0 11 31 28 49 62 55 4 10 23 55
490.0 73 60 80 57 63 47 30 34 40 33
530.0 33 35 50 50 42 68 74 78 80 67
570.0 67 71 56 55 73 72 82 53 56 49
610.0 50 45 39 54 45 56 58 55 46 46
650.0 30 32 40 40 60 19 23 25 21 19
690.0 23 26 36 37 43 36 27 36 39 36
730.0 38 38 25 41 40 41 41 37 43 44
770.0 57 59 56 53 46 61 62 77 98 117
810.0 126 135 139 152 184 239 272 269 258 209
850.0 168 141 158 169 179 183 216 269 313 330
890.0 292 230 142 99 76 77 94 113 152 208
930.0 263 324 370 404 403 371 313 243 187 163
970.0 176 242 400 630 831 886 786 572 340 226
1010.0 202 225 259 299 354 399 473 527 564 565
1050.0 553 522 480 443 393 351 333 347 384 428
1090.0 456 479 474 448 429 404 380 345 326 313
1130.0 318 347 404 481 541 572 584 582 614 648
1170.0 622 538 411 290 229 198 191 190 202 220
1210.0 235 265 315 407 543 663 698 638 513 391
1250.0 313 279 275 288 302 296 275 253 238 228
1290.0 231 230 233 235 235 234 236 248 246 228
1330.0 194 162 150 151 165 184 204 205 198 174
1370.0 144 122 105 98 91 85 76 76 73 79
1410.0 82 91 101 115 135 190 288 465 737 984
1450.0 1175 1198 1070 898 753 630 529 383 258 166
1490.0 110 77 65 53 52 49 41 36 31 28
1530.0 27 25 22 23 20 25 21 25 19 21
1570.0 16 16 16 18 12 17 18 22 18 25
1610.0 29 25 28 29 34 29 40 38 43 46
1650.0 55 58 60 70 73 76 74 73 71 75
1690.0 76 81 94 106 127 144 168 189 219 248
1730.0 302 365 442 537 660 831 1072 1509 2177 3176
1770.0 4343 5506 6089 5980 5099 3835 2522 1559 956 649
1810.0 498 406 340 287 246 201 171 142 124 105
1850.0 96 87 78 74 70 70 63 61 51 51
1890.0 43 46 40 39 39 34 33 31 34 34
1930.0 33 31 29 24 23 21 20 20 20 21
1970.0 24 26 25 26 24 24 21 17 20 18
2010.0 21 22 19 21 19 22 21 19 21 22
2050.0 23 21 22 22 20 19 20 20 19 19
2090.0 19 18 20 20 19 17 18 21 19 17
2130.0 17 18 18 18 17 17 16 17 17 19
2170.0 18 21 20 18 20 22 18 22 22 21
2210.0 23 23 22 20 18 20 21 20 19 16
2250.0 15 17 21 18 19 22 20 17 17 14
2290.0 12 8 4 7 6 0 7 7 17 30
2330.0 26 30 33 37 28 33 28 29 29 19
2370.0 22 26 21 15 6 14 19 17 17 14
2410.0 13 11 11 13 12 10 12 11 8 12
2450.0 9 12 10 16 14 14 17 18 17 19
2490.0 22 22 19 16 17 16 20 18 17 14
2530.0 13 15 16 15 15 18 17 18 14 16
2570.0 17 15 19 24 29 31 37 42 46 43
2610.0 42 41 42 42 41 43 43 46 48 57
2650.0 60 66 74 79 87 92 90 82 74 63
2690.0 55 49 48 48 42 39 37 36 39 39
2730.0 40 40 41 44 47 52 53 61 62 66
2770.0 72 75 82 87 98 107 117 128 136 144
2810.0 147 154 164 176 191 223 291 417 611 886
2850.0 1237 1690 2239 2735 3056 3064 2824 2462 2100 1798
2890.0 1577 1459 1428 1481 1616 1846 2169 2619 3286 4326
2930.0 5827 7757 9480 10000 9331 8265 7034 6480 6171 5300
2970.0 3942 2579 1365 691 396 274 209 172 151 135
3010.0 124 118 112 100 92 88 85 84 86 88
3050.0 80 78 68 63 56 53 50 46 40 40
3090.0 39 34 30 28 36 30 31 24 26 23
3130.0 25 24 24 23 27 24 22 21 25 28
3170.0 25 26 29 30 32 33 33 33 31 28
3210.0 27 22 20 16 20 17 14 12 13 6
3250.0 14 9 10 12 15 15 15 16 14 16
3290.0 14 13 13 17 13 12 14 10 10 8
3330.0 11 10 7 6 12 13 13 6 13 15
3370.0 9 15 9 11 12 11 17 16 14 16
3410.0 10 17 16 18 14 13 21 16 15 19
3450.0 18 16 15 16 4 9 12 11 13 14
3490.0 13 12 12 10 12 27 26 35 42 47
3530.0 52 57 52 42 38 34 33 27 35 65
3570.0 87 101 107 101 71 43 25 15 12 9
3610.0 8 8 8 0 6 11 8 5 10 9
3650.0 7 10 7 11 5 4 4 4 11 5
3690.0 6 18 18 15 13 12 11 11 19 20
3730.0 26 14 16 11 7 8 13 22 11 16
3770.0 13 13 15 18 23 21 28 23 16 17
3810.0 17 17 25 12 18 19 10 16 17 18
3850.0 13 18 13 9 4 8 6 13 0 5
3890.0 11 12 19 13 11 9 12 11 16 19
3930.0 0 6 0 3 9 0 2 10 14 7
##END=
