##TITLE=Heptadecanoic acid
##JCAMP-DX=4.24
##DATA TYPE=INFRARED SPECTRUM
##ORIGIN=Sadtler Research Labs Under US-EPA Contract
##OWNER=NIST Standard Reference Data Program
##CAS REGISTRY NO=506-12-7
##MOLFORM=C 17 H 34 O 2
##XUNITS=1/CM
##YUNITS=ABSORBANCE
##XFACTOR=1.0
##YFACTOR=0.000038062
##DELTAX=4.0
##FIRSTX=450.0
##LASTX=3966.0
##FIRSTY=0.009515
##MAXX=3966
##MINX=450
##MAXY=0.38062
##MINY=0
##NPOINTS=880
##XYDATA=(X++(Y..Y))
450.0 250 104 47 0 90 65 124 178 168 183
490.0 235 257 235 321 332 358 356 338 324 342
530.0 335 421 400 466 474 535 530 554 557 617
570.0 598 567 545 558 617 647 599 618 625 661
610.0 612 644 608 599 591 561 539 501 467 377
650.0 355 320 294 277 299 294 253 250 230 243
690.0 248 264 268 291 290 307 325 354 372 328
730.0 308 286 268 258 243 214 178 207 196 171
770.0 188 179 139 137 120 98 93 67 104 96
810.0 117 127 100 104 89 105 116 100 96 101
850.0 87 101 98 87 105 111 94 97 99 106
890.0 92 96 109 95 87 90 89 100 99 91
930.0 88 90 94 104 119 96 88 101 96 87
970.0 95 99 106 121 122 128 118 136 146 147
1010.0 151 158 167 205 211 245 263 291 325 362
1050.0 391 431 469 519 581 651 711 802 889 968
1090.0 1077 1141 1240 1343 1458 1507 1531 1525 1508 1519
1130.0 1539 1521 1438 1322 1212 1102 1041 958 905 858
1170.0 802 750 709 680 641 619 587 553 520 483
1210.0 442 421 392 354 330 314 306 286 296 294
1250.0 296 314 324 321 316 317 317 315 308 315
1290.0 317 312 321 319 312 313 297 287 273 275
1330.0 290 322 373 433 485 551 586 596 598 604
1370.0 608 608 608 600 571 510 433 368 306 275
1410.0 252 238 241 251 269 282 324 347 407 470
1450.0 558 653 743 804 755 630 468 322 218 150
1490.0 128 92 70 56 39 43 42 23 28 32
1530.0 47 45 40 36 47 41 25 14 9 11
1570.0 7 6 6 18 19 21 26 31 31 25
1610.0 27 18 21 24 33 36 42 42 52 40
1650.0 55 34 65 48 66 70 70 82 99 101
1690.0 117 139 155 180 213 250 285 328 373 444
1730.0 513 595 691 820 968 1117 1299 1491 1777 2123
1770.0 2562 3031 3273 3115 2596 2105 1679 1368 1114 870
1810.0 665 503 371 273 205 158 125 101 72 67
1850.0 53 45 38 34 32 27 25 24 25 21
1890.0 21 24 18 15 20 17 14 21 8 10
1930.0 12 17 17 19 18 20 15 16 22 14
1970.0 8 14 14 18 17 13 13 22 21 17
2010.0 16 16 21 16 20 24 19 18 26 23
2050.0 15 15 16 18 14 16 13 20 15 15
2090.0 22 19 12 17 11 15 8 13 19 21
2130.0 15 15 15 12 10 16 13 14 20 24
2170.0 22 17 20 20 25 25 21 23 25 19
2210.0 24 25 17 18 17 15 11 13 6 6
2250.0 18 13 12 11 3 7 8 17 24 31
2290.0 48 61 67 78 77 87 88 71 79 71
2330.0 43 35 21 8 58 40 66 32 30 37
2370.0 19 58 65 77 56 31 24 24 16 21
2410.0 25 25 23 29 25 24 23 18 13 14
2450.0 12 12 25 19 12 19 20 24 13 20
2490.0 21 22 18 26 27 25 27 26 29 26
2530.0 34 48 32 47 40 45 41 37 34 29
2570.0 43 48 38 44 54 47 50 57 53 53
2610.0 53 57 64 73 62 64 73 73 82 74
2650.0 82 88 86 90 94 102 109 110 111 124
2690.0 119 116 108 115 116 118 113 123 114 113
2730.0 115 116 119 125 126 120 122 131 121 139
2770.0 149 147 143 161 173 182 203 213 237 266
2810.0 283 305 338 385 416 473 535 629 785 1018
2850.0 1416 2046 2950 3709 3786 3275 2660 2175 1910 1772
2890.0 1677 1674 1808 2064 2465 2962 3588 4417 5674 7468
2930.0 9309 10000 9130 7516 5832 4462 3476 2882 2587 2456
2970.0 2262 1879 1429 1065 839 672 562 475 411 353
3010.0 313 285 260 226 206 189 177 164 147 131
3050.0 126 115 109 109 108 87 83 82 90 79
3090.0 67 73 66 68 64 62 63 57 59 55
3130.0 57 59 46 41 59 53 55 48 27 28
3170.0 43 44 50 41 38 34 25 30 32 34
3210.0 28 20 36 21 39 14 10 13 27 12
3250.0 24 22 24 8 13 9 6 16 18 31
3290.0 32 15 11 21 21 29 25 41 15 19
3330.0 21 34 28 32 22 12 20 30 22 16
3370.0 38 27 17 33 36 33 40 36 48 38
3410.0 35 27 22 20 28 33 42 38 17 39
3450.0 38 51 48 39 39 22 45 65 41 44
3490.0 32 40 38 62 75 77 50 49 59 87
3530.0 89 83 117 95 122 142 161 239 294 522
3570.0 817 1274 1452 1029 567 337 225 168 139 111
3610.0 132 97 99 92 88 84 92 74 76 97
3650.0 107 100 62 59 64 70 61 52 45 37
3690.0 41 41 32 49 44 36 48 52 45 41
3730.0 21 61 75 48 38 67 45 35 50 40
3770.0 19 34 2 8 52 31 47 54 70 55
3810.0 10 26 28 35 29 19 45 49 14 59
3850.0 47 46 51 35 79 50 38 20 73 6
3890.0 40 32 58 46 59 76 36 19 48 80
3930.0 59 29 13 21 16 5 22 3 24 1
##END=
