##TITLE=Eicosanoic acid
##JCAMP-DX=4.24
##DATA TYPE=INFRARED SPECTRUM
##ORIGIN=Sadtler Research Labs Under US-EPA Contract
##OWNER=NIST Standard Reference Data Program
##CAS REGISTRY NO=506-30-9
##MOLFORM=C 20 H 40 O 2
##XUNITS=1/CM
##YUNITS=ABSORBANCE
##XFACTOR=1.0
##YFACTOR=0.000085678
##DELTAX=4.0
##FIRSTX=450.0
##LASTX=3966.0
##FIRSTY=0.024675
##MAXX=3966
##MINX=450
##MAXY=0.85678
##MINY=0
##NPOINTS=880
##XYDATA=(X++(Y..Y))
450.0 288 352 115 321 32 233 94 204 95 176
490.0 239 96 245 154 278 111 257 244 286 260
530.0 253 338 226 352 301 379 354 415 395 348
570.0 408 380 424 200 392 473 525 426 448 377
610.0 448 405 377 386 346 347 278 283 208 196
650.0 157 150 153 107 148 121 123 91 120 100
690.0 124 129 134 158 167 221 232 264 234 239
730.0 209 196 172 159 157 127 143 108 122 106
770.0 112 106 100 86 80 96 116 123 118 145
810.0 132 137 131 130 120 105 121 111 116 101
850.0 115 93 99 110 102 115 86 110 101 117
890.0 114 112 112 108 116 108 115 102 117 104
930.0 112 100 95 91 89 92 73 89 79 86
970.0 77 87 93 86 94 95 118 117 148 154
1010.0 191 218 252 270 294 305 303 324 327 359
1050.0 375 412 441 478 525 580 649 710 791 868
1090.0 944 1007 1075 1126 1183 1226 1245 1247 1243 1243
1130.0 1236 1215 1151 1064 981 919 855 805 760 715
1170.0 688 649 633 604 578 555 537 517 498 487
1210.0 462 452 434 418 403 390 386 377 377 372
1250.0 385 389 417 435 436 415 398 377 363 358
1290.0 348 355 354 356 350 341 329 314 316 312
1330.0 333 354 396 441 495 539 570 576 580 574
1370.0 580 573 572 559 541 492 442 403 377 350
1410.0 328 316 297 311 331 355 385 431 500 589
1450.0 674 789 860 893 812 631 425 254 196 125
1490.0 106 69 69 55 52 30 34 38 17 33
1530.0 23 40 26 37 8 45 34 47 23 39
1570.0 52 45 43 45 48 44 59 60 55 69
1610.0 67 76 78 81 94 81 112 88 120 95
1650.0 153 94 147 138 167 164 200 199 246 257
1690.0 303 381 402 500 606 723 830 880 849 779
1730.0 744 738 763 836 945 1054 1202 1362 1545 1777
1770.0 1992 2302 2347 2221 1848 1511 1187 977 775 609
1810.0 460 341 241 176 124 91 56 54 29 25
1850.0 18 17 11 7 8 0 4 5 6 3
1890.0 6 6 3 7 6 5 4 5 6 1
1930.0 9 1 12 7 10 7 14 7 6 3
1970.0 6 6 7 7 13 11 12 10 12 14
2010.0 17 18 23 21 22 26 27 27 25 29
2050.0 30 28 23 24 21 25 23 20 26 21
2090.0 23 23 24 21 23 25 25 25 25 21
2130.0 24 26 24 23 22 24 27 27 27 24
2170.0 26 29 28 33 36 40 38 38 38 41
2210.0 38 37 34 33 37 41 42 39 40 41
2250.0 44 41 44 43 44 48 49 52 62 72
2290.0 81 90 103 109 121 132 127 120 124 116
2330.0 106 90 75 103 55 116 136 118 108 58
2370.0 50 37 40 58 55 48 47 44 46 44
2410.0 49 52 52 50 53 54 57 54 52 52
2450.0 56 59 60 61 63 69 66 67 63 65
2490.0 67 64 68 70 70 74 80 87 85 97
2530.0 99 100 100 102 102 101 108 107 102 101
2570.0 99 102 99 97 98 97 99 103 102 109
2610.0 108 113 112 115 121 126 126 130 135 142
2650.0 144 151 153 153 151 152 155 153 162 164
2690.0 163 167 165 166 168 173 179 184 186 187
2730.0 190 185 189 193 195 194 203 214 226 236
2770.0 251 260 271 285 303 326 355 387 419 449
2810.0 487 528 576 634 692 779 878 1022 1243 1581
2850.0 2100 2776 3537 4059 3963 3387 2799 2373 2137 2024
2890.0 2005 2083 2288 2614 3055 3595 4251 5140 6351 7957
2930.0 9497 10000 8961 7214 5547 4185 3247 2650 2327 2101
2970.0 1857 1514 1138 856 664 526 442 366 313 271
3010.0 245 220 201 185 172 167 157 151 152 147
3050.0 130 124 119 107 100 103 105 114 113 106
3090.0 106 111 118 123 125 124 128 124 120 111
3130.0 111 97 102 93 95 106 105 108 107 105
3170.0 111 108 109 115 108 108 109 113 108 106
3210.0 105 104 102 107 105 94 96 91 86 86
3250.0 82 84 84 83 81 92 89 91 82 88
3290.0 86 87 78 75 73 67 68 63 67 75
3330.0 68 70 71 70 72 79 77 69 78 80
3370.0 89 86 83 80 73 80 79 79 76 66
3410.0 69 69 68 67 63 82 76 57 63 71
3450.0 76 56 67 64 71 67 60 75 73 77
3490.0 57 67 66 78 87 80 87 84 95 135
3530.0 110 125 142 156 196 163 170 211 260 428
3570.0 630 937 1049 738 466 268 192 159 107 98
3610.0 115 98 98 81 85 114 86 63 77 81
3650.0 123 98 57 77 61 146 66 125 30 109
3690.0 101 77 84 85 85 100 94 89 127 100
3730.0 97 126 120 88 147 74 135 84 89 106
3770.0 85 54 52 93 68 78 59 114 102 125
3810.0 61 109 80 127 78 89 108 123 106 81
3850.0 118 132 88 101 115 134 102 72 106 136
3890.0 100 104 82 142 108 99 92 111 92 99
3930.0 126 118 119 113 138 112 124 121 120 99
##END=
