##TITLE=1-Piperazinecarboxylic acid, methyl ester
##JCAMP-DX=4.24
##DATA TYPE=INFRARED SPECTRUM
##ORIGIN=Sadtler Research Labs Under US-EPA Contract
##OWNER=NIST Standard Reference Data Program
##CAS REGISTRY NO=50606-31-0
##MOLFORM=C 6 H 12 N 2 O 2
##XUNITS=1/CM
##YUNITS=ABSORBANCE
##XFACTOR=1.0
##YFACTOR=0.000140878
##DELTAX=4.0
##FIRSTX=450.0
##LASTX=3966.0
##FIRSTY=0.007044
##MAXX=3966
##MINX=450
##MAXY=1.40878
##MINY=0
##NPOINTS=880
##XYDATA=(X++(Y..Y))
450.0 50 35 21 39 1 36 28 21 4 38
490.0 12 23 36 27 48 59 97 127 116 113
530.0 115 97 98 103 106 116 99 106 84 107
570.0 116 125 124 99 61 38 23 11 13 3
610.0 8 8 21 16 25 27 35 27 20 28
650.0 26 30 12 21 10 26 17 2 10 10
690.0 8 19 31 38 42 31 28 39 42 49
730.0 56 78 110 143 174 212 253 303 350 429
770.0 529 541 525 457 361 284 252 268 284 279
810.0 244 176 104 69 44 35 33 33 30 32
850.0 23 24 16 17 25 25 26 25 26 29
890.0 30 35 45 48 50 54 58 77 95 111
930.0 114 106 90 92 119 178 246 291 295 260
970.0 197 136 113 115 144 191 305 594 1194 1620
1010.0 1550 1373 747 336 273 235 242 229 263 331
1050.0 424 485 520 543 576 655 704 738 698 619
1090.0 580 602 705 826 982 1100 1127 1093 1027 964
1130.0 962 1032 1210 1564 2123 2571 2607 2168 1432 957
1170.0 828 840 900 970 1083 1175 1230 1229 1136 994
1210.0 905 883 958 1228 1809 2980 5008 7190 7545 6901
1250.0 5139 3351 2715 2653 2525 2209 1744 1434 1429 1721
1290.0 2247 2559 2457 1956 1250 777 544 453 399 400
1330.0 425 426 446 432 410 440 491 566 663 773
1370.0 860 946 1056 1138 1257 1462 1743 2166 2593 2891
1410.0 2936 2608 2083 1385 989 877 1110 1795 2862 3577
1450.0 3768 3414 2885 2710 2785 2715 2330 1646 979 666
1490.0 542 446 423 375 379 361 281 260 260 213
1530.0 220 223 254 271 244 191 190 211 182 139
1570.0 149 135 147 130 118 127 127 143 144 166
1610.0 172 179 205 183 201 160 194 192 179 182
1650.0 213 205 189 174 197 227 269 283 367 442
1690.0 461 535 686 945 1404 1993 2690 3715 5270 7310
1730.0 10000 9975 9631 6597 3772 2139 1330 924 743 593
1770.0 524 419 326 270 228 195 182 154 147 123
1810.0 124 131 123 133 127 121 89 69 66 72
1850.0 50 32 32 27 35 44 27 22 26 32
1890.0 39 35 28 24 22 26 28 33 40 29
1930.0 27 24 22 25 27 19 22 22 20 21
1970.0 17 15 15 15 16 26 24 21 19 21
2010.0 20 24 32 33 35 38 39 45 50 53
2050.0 50 50 45 45 49 45 43 39 32 26
2090.0 25 22 21 23 22 20 20 17 16 15
2130.0 14 11 11 9 10 10 12 12 10 11
2170.0 9 10 9 6 8 6 4 8 9 8
2210.0 10 9 9 11 8 6 6 6 6 5
2250.0 7 8 9 10 8 9 11 11 11 12
2290.0 12 17 18 21 21 23 16 15 16 12
2330.0 9 13 15 1 42 0 34 15 21 12
2370.0 25 14 21 22 17 10 10 9 6 7
2410.0 7 9 8 10 10 11 9 14 10 7
2450.0 8 6 4 1 3 1 0 2 4 6
2490.0 8 12 13 15 16 18 22 25 28 30
2530.0 31 33 33 31 28 25 28 30 30 28
2570.0 26 22 18 16 13 16 17 16 20 23
2610.0 27 28 31 34 40 43 44 48 52 55
2650.0 61 69 77 87 101 120 143 169 194 221
2690.0 237 232 220 206 188 180 175 179 192 211
2730.0 241 280 318 359 404 431 435 443 467 525
2770.0 642 754 847 949 1108 1356 1650 1957 2029 1767
2810.0 1460 1152 877 703 622 597 602 652 731 821
2850.0 917 999 1035 1082 1145 1195 1194 1141 1074 1013
2890.0 977 965 970 986 998 1025 1065 1133 1209 1287
2930.0 1377 1463 1654 1948 2370 2671 2635 2385 1949 1593
2970.0 1416 1204 962 822 735 587 517 499 525 530
3010.0 535 541 491 445 391 324 254 195 157 133
3050.0 114 99 95 90 86 79 79 74 76 74
3090.0 71 73 67 69 63 62 58 58 54 56
3130.0 59 58 56 57 49 43 37 29 27 23
3170.0 20 21 20 20 23 20 17 20 18 19
3210.0 19 20 17 14 14 8 12 8 8 4
3250.0 8 10 7 9 8 9 5 7 6 8
3290.0 6 10 14 12 10 8 9 12 14 12
3330.0 14 12 10 10 16 12 8 9 10 12
3370.0 12 9 10 11 13 6 9 10 9 11
3410.0 17 10 9 6 10 15 17 27 34 39
3450.0 38 38 26 20 18 7 0 2 7 5
3490.0 8 3 6 8 8 7 13 1 9 19
3530.0 12 6 10 7 9 12 12 9 5 23
3570.0 24 14 11 5 15 18 21 2 19 10
3610.0 22 16 16 15 6 32 13 4 11 9
3650.0 25 16 17 15 6 28 12 36 0 20
3690.0 18 15 12 13 9 19 20 25 23 19
3730.0 20 26 20 18 40 9 33 8 13 15
3770.0 19 8 0 20 13 10 1 22 5 26
3810.0 0 11 9 19 13 7 15 20 29 17
3850.0 20 20 15 22 24 37 19 5 11 30
3890.0 10 19 0 22 9 23 13 15 18 2
3930.0 16 21 20 7 28 25 18 19 17 13
##END=
