##TITLE=2(3H)-Furanone, 3-bromodihydro-
##JCAMP-DX=4.24
##DATA TYPE=INFRARED SPECTRUM
##ORIGIN=Sadtler Research Labs Under US-EPA Contract
##OWNER=NIST Standard Reference Data Program
##CAS REGISTRY NO=5061-21-2
##MOLFORM=C 4 H 5 Br O 2
##XUNITS=1/CM
##YUNITS=ABSORBANCE
##XFACTOR=1.0
##YFACTOR=0.000069110
##DELTAX=4.0
##FIRSTX=450.0
##LASTX=3966.0
##FIRSTY=0.012924
##MAXX=3966
##MINX=450
##MAXY=0.6911
##MINY=0
##NPOINTS=880
##XYDATA=(X++(Y..Y))
450.0 187 409 245 374 258 374 277 206 152 28
490.0 100 144 305 227 64 80 90 79 154 143
530.0 125 247 144 226 350 361 595 416 303 265
570.0 227 220 66 91 218 171 82 143 296 85
610.0 37 94 135 185 64 73 100 132 183 97
650.0 69 370 305 319 376 420 371 430 317 249
690.0 126 186 143 65 65 56 115 75 55 18
730.0 62 146 98 79 114 156 167 152 158 139
770.0 126 103 105 126 122 130 148 120 242 356
810.0 159 199 203 201 186 197 199 210 278 247
850.0 285 349 323 416 471 618 830 1017 1050 1089
890.0 1075 962 712 526 487 404 353 345 324 297
930.0 279 256 214 234 178 137 200 117 198 70
970.0 109 164 275 376 490 602 741 766 715 673
1010.0 628 630 624 875 1175 1682 2249 2600 2764 2940
1050.0 2938 2323 1746 1116 788 418 423 352 403 466
1090.0 400 459 469 491 569 656 596 738 1096 1654
1130.0 2328 2987 3667 4470 4935 4984 4587 4104 3394 2634
1170.0 1932 1416 1216 1012 874 935 1185 1423 1477 1536
1210.0 1509 1420 1186 1009 792 583 430 349 288 252
1250.0 220 201 162 210 181 165 163 165 154 146
1290.0 141 136 155 231 241 279 245 255 230 148
1330.0 126 156 158 144 151 203 261 415 559 752
1370.0 770 811 684 494 355 192 149 133 114 100
1410.0 57 71 130 119 112 174 244 259 299 334
1450.0 330 317 272 208 198 175 189 188 236 235
1490.0 233 167 157 126 120 97 73 79 86 78
1530.0 54 64 60 74 63 40 73 67 77 42
1570.0 47 79 44 65 40 56 69 72 84 75
1610.0 90 72 94 87 65 77 76 73 83 84
1650.0 100 111 96 90 99 113 115 117 112 133
1690.0 106 100 136 152 132 138 167 188 181 162
1730.0 178 189 194 190 189 215 245 292 349 427
1770.0 525 637 756 934 1290 1764 2504 3395 4294 5629
1810.0 7183 8284 9602 10000 9533 8380 7041 5140 3348 2053
1850.0 1191 700 463 358 312 297 277 268 268 246
1890.0 233 210 184 171 164 159 160 160 155 149
1930.0 141 129 109 100 82 69 66 61 64 67
1970.0 57 67 64 70 65 72 72 68 69 63
2010.0 65 75 81 92 98 107 106 101 95 82
2050.0 72 69 58 53 49 52 51 55 50 47
2090.0 45 50 44 38 40 36 36 35 38 42
2130.0 35 36 39 33 37 34 31 32 28 34
2170.0 35 35 35 35 39 40 38 43 45 43
2210.0 40 37 39 42 41 46 49 48 50 53
2250.0 61 63 62 64 67 71 65 66 64 62
2290.0 62 55 56 50 48 36 31 30 29 25
2330.0 33 46 36 29 1 45 25 55 15 24
2370.0 21 8 18 9 13 23 25 29 24 32
2410.0 28 27 34 29 29 29 29 33 31 32
2450.0 28 29 29 34 31 29 35 32 36 36
2490.0 45 37 36 39 44 42 34 31 32 26
2530.0 28 22 18 15 19 18 18 19 13 22
2570.0 17 14 12 8 13 17 10 12 11 17
2610.0 8 7 16 4 6 14 12 15 12 8
2650.0 17 18 15 8 10 17 15 17 16 17
2690.0 11 15 16 11 16 23 31 29 27 32
2730.0 34 36 24 24 19 21 12 17 16 13
2770.0 14 12 11 7 17 18 24 18 21 18
2810.0 23 17 20 27 26 23 23 26 41 41
2850.0 60 71 83 99 116 134 157 153 134 158
2890.0 150 164 194 246 336 482 602 708 780 774
2930.0 692 637 550 501 444 376 298 308 284 284
2970.0 318 344 389 431 486 527 644 791 880 931
3010.0 876 759 576 374 214 155 125 102 82 71
3050.0 48 49 34 29 33 40 26 33 35 39
3090.0 42 34 38 42 40 40 32 35 26 23
3130.0 30 25 35 32 29 34 28 21 23 25
3170.0 28 25 26 29 27 35 35 29 28 23
3210.0 25 14 28 27 23 32 23 19 32 17
3250.0 11 27 15 18 14 16 23 27 22 20
3290.0 15 19 22 23 21 22 15 21 21 22
3330.0 24 15 7 8 12 30 22 24 16 15
3370.0 17 24 24 21 21 10 15 15 17 24
3410.0 29 12 15 26 26 23 35 32 26 18
3450.0 12 19 23 21 14 15 19 15 25 15
3490.0 24 7 20 33 13 30 32 23 33 37
3530.0 23 16 29 37 23 29 23 25 31 42
3570.0 34 19 24 27 54 63 69 65 78 85
3610.0 110 111 127 117 119 109 89 71 67 82
3650.0 37 32 35 27 6 23 16 44 3 4
3690.0 32 4 30 19 6 20 10 10 22 6
3730.0 28 21 29 18 34 6 33 2 2 20
3770.0 16 6 2 18 17 5 23 11 13 25
3810.0 24 31 23 6 1 33 4 15 21 3
3850.0 21 25 18 8 10 41 25 22 2 22
3890.0 51 38 27 29 49 2 2 3 2 29
3930.0 47 27 42 0 32 3 2 24 22 13
##END=
