##TITLE=2-Acetyl-5-norbornene
##JCAMP-DX=4.24
##DATA TYPE=INFRARED SPECTRUM
##ORIGIN=Sadtler Research Labs Under US-EPA Contract
##OWNER=NIST Standard Reference Data Program
##CAS REGISTRY NO=5063-03-6
##MOLFORM=C 9 H 12 O
##XUNITS=1/CM
##YUNITS=ABSORBANCE
##XFACTOR=1.0
##YFACTOR=0.000074203
##DELTAX=4.0
##FIRSTX=450.0
##LASTX=3966.0
##FIRSTY=0.000668
##MAXX=3966
##MINX=450
##MAXY=0.74203
##MINY=0
##NPOINTS=880
##XYDATA=(X++(Y..Y))
450.0 9 0 74 102 66 146 131 219 252 284
490.0 296 237 170 130 78 55 82 91 84 125
530.0 95 113 125 142 133 144 170 198 207 190
570.0 272 401 723 1239 1512 1649 1539 1269 793 401
610.0 207 129 118 91 106 108 119 121 135 92
650.0 106 122 207 353 437 324 387 345 343 282
690.0 300 450 687 1013 1649 2218 2769 2839 2775 2387
730.0 1763 1281 1067 1019 862 628 437 312 243 159
770.0 152 150 146 146 122 122 102 104 145 234
810.0 353 457 570 654 684 632 548 445 338 276
850.0 232 226 197 170 156 174 200 249 310 388
890.0 461 549 592 616 675 688 725 735 791 826
930.0 840 835 754 614 478 412 363 360 347 349
970.0 365 369 409 459 519 552 571 548 496 422
1010.0 361 354 374 430 473 510 523 506 466 398
1050.0 346 292 253 218 213 207 210 219 245 279
1090.0 349 431 598 822 907 968 892 820 731 650
1130.0 711 767 787 849 969 1200 1573 2237 2996 3629
1170.0 4007 4276 4318 3929 3367 2857 2291 1666 1126 845
1210.0 718 682 717 796 883 915 907 827 736 687
1250.0 683 750 857 1023 1189 1255 1212 1085 884 653
1290.0 464 395 371 371 394 463 591 796 1070 1416
1330.0 1797 2101 2337 2564 2883 3328 3821 4151 4147 3733
1370.0 2914 2056 1451 1095 900 758 667 618 593 569
1410.0 575 571 608 635 664 699 760 831 894 950
1450.0 975 954 888 770 654 548 460 372 289 246
1490.0 217 187 179 167 195 201 197 209 226 211
1530.0 204 194 193 193 172 174 175 203 232 248
1570.0 289 300 295 254 198 163 134 142 135 167
1610.0 191 235 285 297 306 276 271 233 219 194
1650.0 225 220 232 241 311 386 514 619 739 867
1690.0 948 1083 1277 1722 2398 3560 5156 7059 8616 9496
1730.0 9484 8078 6003 4001 2408 1540 1088 885 797 739
1770.0 717 671 603 503 434 360 364 360 331 313
1810.0 274 241 188 166 132 115 96 87 87 80
1850.0 79 67 71 59 63 55 54 46 48 46
1890.0 47 51 48 56 53 55 53 59 51 42
1930.0 43 43 44 39 46 38 39 29 29 21
1970.0 24 22 16 16 12 16 16 18 15 19
2010.0 21 22 24 22 26 25 33 36 43 46
2050.0 49 53 53 50 52 53 53 55 55 62
2090.0 58 60 58 51 49 44 44 37 37 39
2130.0 36 27 33 33 33 40 41 44 45 48
2170.0 50 51 51 50 52 55 55 52 55 53
2210.0 51 53 53 47 48 46 40 39 40 37
2250.0 37 40 39 39 35 37 38 40 46 44
2290.0 44 46 48 41 35 34 33 28 29 34
2330.0 26 32 23 28 31 38 32 27 36 39
2370.0 25 25 26 23 22 16 18 16 18 16
2410.0 13 11 14 18 12 10 8 7 5 6
2450.0 13 8 15 13 16 13 14 10 11 17
2490.0 18 26 25 26 28 30 28 25 23 23
2530.0 21 20 14 13 12 12 11 9 7 7
2570.0 1 0 5 6 7 7 9 9 4 7
2610.0 5 5 6 8 5 5 7 8 7 5
2650.0 8 8 9 9 11 11 9 14 9 9
2690.0 13 6 13 12 10 8 12 11 14 13
2730.0 15 14 14 17 15 18 17 13 9 11
2770.0 13 13 12 19 21 20 24 29 37 39
2810.0 45 45 54 59 76 94 110 136 162 193
2850.0 235 313 455 693 1061 1489 1941 2327 2534 2597
2890.0 2530 2417 2305 2153 1993 1862 1780 1719 1745 1849
2930.0 2031 2346 2809 3362 3881 4341 4626 4759 5124 5767
2970.0 6542 7942 9145 10000 9587 8474 6617 4669 2842 1807
3010.0 1350 1068 851 670 539 449 400 382 375 388
3050.0 445 575 813 1138 1462 1696 1753 1578 1255 899
3090.0 626 425 316 247 196 162 142 134 122 134
3130.0 142 160 177 196 201 189 165 126 88 68
3170.0 46 37 26 24 24 23 20 22 14 15
3210.0 12 6 9 15 13 14 13 7 13 11
3250.0 15 14 11 15 19 14 24 19 20 9
3290.0 16 19 13 15 14 20 21 27 16 13
3330.0 25 23 27 16 27 23 29 24 20 27
3370.0 14 27 29 26 35 42 39 41 46 47
3410.0 66 74 87 103 136 159 176 177 154 129
3450.0 103 75 52 35 35 29 22 19 12 20
3490.0 18 23 15 10 16 10 14 11 1 3
3530.0 14 13 17 16 17 19 26 38 43 31
3570.0 47 27 46 43 45 35 37 40 38 21
3610.0 23 11 0 6 8 13 17 35 16 18
3650.0 24 31 45 29 22 5 11 28 19 13
3690.0 6 8 17 10 7 21 3 1 10 18
3730.0 18 23 47 37 59 43 39 48 42 42
3770.0 30 43 38 36 33 29 22 36 46 42
3810.0 40 32 24 27 31 26 22 32 21 19
3850.0 32 33 21 31 29 20 34 39 45 67
3890.0 52 59 51 50 52 48 37 38 50 40
3930.0 48 46 45 21 30 29 44 48 48 52
##END=
