##TITLE=Borneol
##JCAMP-DX=4.24
##DATA TYPE=INFRARED SPECTRUM
##ORIGIN=Sadtler Research Labs Under US-EPA Contract
##OWNER=NIST Standard Reference Data Program
##CAS REGISTRY NO=507-70-0
##MOLFORM=C 10 H 18 O
##XUNITS=1/CM
##YUNITS=ABSORBANCE
##XFACTOR=1.0
##YFACTOR=0.000150931
##DELTAX=4.0
##FIRSTX=450.0
##LASTX=3966.0
##FIRSTY=0.019168
##MAXX=3966
##MINX=450
##MAXY=1.50931
##MINY=0
##NPOINTS=880
##XYDATA=(X++(Y..Y))
450.0 127 91 164 46 67 72 38 46 27 7
490.0 17 33 29 30 30 62 21 72 93 106
530.0 94 95 78 52 59 36 52 54 51 53
570.0 68 65 70 82 66 79 70 72 65 55
610.0 41 36 28 29 38 38 37 43 42 49
650.0 61 42 40 36 32 33 19 13 17 29
690.0 21 14 17 26 27 24 27 27 33 39
730.0 37 46 46 61 60 59 55 72 68 78
770.0 87 80 69 47 36 34 25 44 57 58
810.0 100 153 202 251 285 288 234 189 127 87
850.0 66 61 57 54 71 73 86 86 94 89
890.0 85 76 76 88 102 124 140 181 231 292
930.0 350 398 429 423 399 350 296 256 236 233
970.0 255 297 336 385 434 497 554 660 780 886
1010.0 1006 1079 1159 1172 1192 1161 1140 1173 1341 1665
1050.0 1968 2261 2286 2050 1627 1212 846 712 679 710
1090.0 786 898 1010 1101 1133 1056 959 824 709 635
1130.0 604 579 551 528 495 468 435 420 405 399
1170.0 382 370 353 353 370 394 426 439 456 461
1210.0 495 564 662 786 876 944 917 864 779 685
1250.0 608 561 521 489 478 471 477 480 494 489
1290.0 492 495 492 474 450 416 358 328 290 278
1330.0 266 266 256 250 248 264 311 409 544 691
1370.0 867 1000 1048 1090 1007 1037 924 793 651 525
1410.0 360 292 242 231 213 229 280 313 471 600
1450.0 841 903 1120 1135 1049 1005 917 862 752 702
1490.0 553 418 315 205 172 110 101 78 66 60
1530.0 46 50 38 29 39 38 34 21 38 30
1570.0 36 29 45 34 40 32 34 32 33 33
1610.0 25 32 22 30 20 29 23 20 25 23
1650.0 13 23 28 20 21 19 12 25 12 20
1690.0 14 19 16 26 18 22 29 26 32 38
1730.0 43 49 60 74 101 138 177 206 217 192
1770.0 151 102 52 41 22 26 15 17 20 14
1810.0 16 14 15 10 10 3 13 7 11 6
1850.0 10 10 6 9 10 9 10 15 11 10
1890.0 7 9 8 7 8 5 9 6 7 5
1930.0 4 9 4 8 6 8 7 8 7 7
1970.0 7 7 4 4 5 3 5 3 5 5
2010.0 7 8 8 9 7 8 8 10 13 9
2050.0 11 9 12 12 14 11 14 12 14 12
2090.0 13 11 13 16 14 16 13 17 15 15
2130.0 13 9 9 8 6 8 9 9 11 11
2170.0 11 11 11 14 11 11 8 8 7 10
2210.0 7 8 7 7 7 5 3 7 5 6
2250.0 4 2 2 4 5 6 5 7 8 11
2290.0 12 14 17 15 20 18 15 14 15 11
2330.0 11 14 10 14 19 14 10 7 11 19
2370.0 20 20 23 21 20 14 13 13 11 10
2410.0 11 10 11 10 8 8 8 9 11 11
2450.0 11 11 13 15 12 14 17 15 15 15
2490.0 14 14 12 15 17 17 16 16 16 16
2530.0 15 13 15 18 16 14 13 15 15 18
2570.0 19 22 21 24 25 32 32 35 32 33
2610.0 33 29 29 25 25 25 25 27 26 28
2650.0 30 30 30 31 33 34 37 38 40 40
2690.0 42 45 51 54 60 65 73 83 99 119
2730.0 135 146 151 149 145 138 135 134 139 143
2770.0 145 145 148 145 142 146 145 147 147 155
2810.0 168 181 201 218 235 253 270 293 325 357
2850.0 411 492 625 852 1201 1662 2228 2832 3277 3588
2890.0 3768 3740 3589 3506 3462 3471 3558 3707 3969 4337
2930.0 5004 5603 6294 7268 7893 8720 9527 10000 9618 8495
2970.0 7022 5469 4059 3301 2949 2786 2707 2311 1789 1340
3010.0 891 566 388 296 250 220 202 187 183 175
3050.0 171 168 173 173 172 175 169 167 163 161
3090.0 157 151 144 146 143 136 127 118 117 112
3130.0 112 111 109 101 101 103 98 93 87 81
3170.0 72 64 58 59 53 51 50 45 39 34
3210.0 31 25 22 21 16 16 12 12 10 11
3250.0 10 13 16 11 12 8 9 11 12 7
3290.0 11 8 9 13 14 12 11 11 8 12
3330.0 5 2 5 5 5 4 4 5 13 10
3370.0 9 15 19 19 20 24 21 26 20 16
3410.0 15 21 16 12 19 19 20 18 19 20
3450.0 25 27 12 23 20 18 18 20 23 17
3490.0 17 13 16 21 28 20 18 23 24 23
3530.0 16 20 21 12 18 13 7 21 15 18
3570.0 25 22 23 22 24 25 26 27 20 22
3610.0 31 30 31 46 57 73 135 189 290 375
3650.0 481 582 601 584 530 411 306 208 140 92
3690.0 54 50 42 40 27 16 12 32 24 19
3730.0 24 17 21 0 25 10 13 30 26 30
3770.0 36 31 32 39 22 20 22 22 18 23
3810.0 28 41 28 31 40 23 29 26 24 31
3850.0 40 46 48 50 41 49 43 48 22 49
3890.0 21 39 26 18 12 32 20 35 29 22
3930.0 25 8 16 8 17 19 23 27 28 28
##END=
