##TITLE=Propane, 2-chloro-2-methyl-
##JCAMP-DX=4.24
##DATA TYPE=INFRARED SPECTRUM
##ORIGIN=Sadtler Research Labs Under US-EPA Contract
##OWNER=NIST Standard Reference Data Program
##CAS REGISTRY NO=507-20-0
##MOLFORM=C 4 H 9 Cl
##XUNITS=1/CM
##YUNITS=ABSORBANCE
##XFACTOR=1.0
##YFACTOR=0.000136710
##DELTAX=4.0
##FIRSTX=450.0
##LASTX=3966.0
##FIRSTY=0.104993
##MAXX=3966
##MINX=450
##MAXY=1.3671
##MINY=0
##NPOINTS=880
##XYDATA=(X++(Y..Y))
450.0 768 853 613 405 413 627 466 195 609 469
490.0 98 127 96 1118 868 605 391 236 191 418
530.0 431 275 494 402 706 790 966 1152 1555 1939
570.0 2247 2481 2561 2952 2783 2332 2109 1769 1222 810
610.0 625 624 555 479 443 416 424 411 394 375
650.0 388 386 386 365 384 369 379 369 378 395
690.0 335 333 354 358 321 330 369 352 386 388
730.0 379 377 354 375 420 394 371 377 366 375
770.0 373 385 385 435 499 631 807 966 1091 1287
810.0 1410 1352 1368 1258 1102 911 704 527 404 372
850.0 347 348 334 360 353 359 354 375 393 478
890.0 557 475 490 514 555 577 639 712 587 501
930.0 519 513 444 400 344 339 320 317 317 307
970.0 308 339 346 328 321 320 334 334 333 346
1010.0 341 361 352 359 320 339 335 340 333 336
1050.0 337 328 336 331 329 319 331 324 332 341
1090.0 359 375 393 429 469 539 626 789 998 1322
1130.0 1712 2180 2666 3202 3738 4065 4467 4526 4395 4354
1170.0 4113 3598 3347 3100 2572 2068 1676 1532 1521 1501
1210.0 1486 1591 1661 1785 1911 1898 1702 1726 1386 927
1250.0 762 572 485 428 386 375 361 365 336 356
1290.0 336 349 338 365 348 359 364 364 377 378
1330.0 426 393 420 461 639 849 1325 1884 2362 2358
1370.0 2704 4937 3329 2359 2873 2561 1772 1135 771 572
1410.0 546 557 454 451 452 515 621 793 1016 1218
1450.0 1337 1350 1555 1876 1803 1706 1433 1467 1381 973
1490.0 982 827 633 456 323 251 244 232 195 222
1530.0 207 224 186 177 178 204 190 158 178 189
1570.0 191 190 191 190 201 195 199 194 197 193
1610.0 194 197 180 195 180 212 187 189 206 201
1650.0 181 175 203 214 213 205 192 211 183 171
1690.0 187 194 163 164 169 195 179 162 190 206
1730.0 199 176 201 201 204 193 206 209 205 206
1770.0 190 189 197 193 194 186 182 193 185 198
1810.0 193 190 189 183 170 162 168 167 160 154
1850.0 168 170 167 160 156 142 148 151 153 149
1890.0 143 139 144 144 137 138 133 133 134 138
1930.0 140 133 136 130 132 134 131 135 138 129
1970.0 133 137 133 130 125 120 116 114 113 108
2010.0 106 97 94 95 95 92 91 94 90 88
2050.0 87 86 91 94 95 97 99 102 104 105
2090.0 98 101 102 100 98 102 101 104 105 102
2130.0 104 101 103 102 107 106 108 110 118 120
2170.0 122 130 134 143 138 133 128 117 107 98
2210.0 93 84 79 76 78 77 76 77 76 76
2250.0 76 73 71 76 76 77 80 84 88 93
2290.0 93 95 103 102 98 93 90 83 75 69
2330.0 62 63 62 52 56 48 50 52 24 33
2370.0 22 36 44 53 65 68 76 76 82 85
2410.0 80 72 70 61 59 54 52 44 42 42
2450.0 36 39 35 31 34 32 28 27 30 23
2490.0 25 22 23 25 19 21 14 16 17 13
2530.0 10 15 13 8 4 4 3 6 0 3
2570.0 3 6 3 7 12 15 19 23 29 33
2610.0 33 38 48 49 51 51 47 46 36 31
2650.0 32 27 23 33 38 42 51 57 51 46
2690.0 45 40 38 40 44 54 66 76 87 94
2730.0 109 131 122 122 128 112 101 85 82 66
2770.0 67 70 82 79 87 97 103 111 126 144
2810.0 151 169 183 204 220 234 265 265 294 351
2850.0 430 556 707 865 974 1136 1382 1535 1595 1671
2890.0 1818 2010 2207 2334 2418 2601 2787 3004 3224 3322
2930.0 3299 3561 3980 3829 3691 3639 3734 4021 4148 4861
2970.0 5818 6911 8010 8832 7166 7709 10000 6430 4473 3801
3010.0 2935 1895 1044 496 236 130 75 62 56 49
3050.0 50 54 57 60 67 70 75 72 80 83
3090.0 79 65 80 71 65 64 58 56 40 51
3130.0 57 47 51 56 42 49 58 55 56 68
3170.0 76 78 82 92 103 116 124 130 132 146
3210.0 143 142 155 149 150 161 147 155 160 166
3250.0 168 178 169 163 157 158 146 144 130 122
3290.0 133 100 92 82 79 68 65 43 45 54
3330.0 48 33 37 41 41 39 20 29 25 30
3370.0 23 39 43 50 34 51 66 66 52 57
3410.0 49 45 17 17 17 4 10 19 7 8
3450.0 4 10 12 4 16 19 10 3 16 5
3490.0 14 11 14 8 13 21 18 24 20 22
3530.0 19 13 19 22 22 44 38 32 38 41
3570.0 42 24 13 22 16 26 27 46 39 17
3610.0 32 25 53 41 48 68 73 64 72 98
3650.0 73 62 68 66 69 49 29 48 30 20
3690.0 17 18 18 21 16 15 24 24 28 44
3730.0 21 21 36 22 36 28 8 7 20 26
3770.0 20 1 22 11 43 37 27 51 4 8
3810.0 28 25 34 22 21 5 28 17 13 28
3850.0 29 21 27 22 0 18 24 3 23 39
3890.0 19 6 15 13 30 27 9 76 8 34
3930.0 31 42 30 1 48 29 9 63 15 30
##END=
