##TITLE=o-Cresol, 4-bromo-.alpha.,.alpha.,.alpha.-trifluoro
##JCAMP-DX=4.24
##DATA TYPE=INFRARED SPECTRUM
##ORIGIN=Sadtler Research Labs Under US-EPA Contract
##OWNER=NIST Standard Reference Data Program
##CAS REGISTRY NO=50824-04-9
##MOLFORM=C 7 H 4 Br F 3 O
##XUNITS=1/CM
##YUNITS=ABSORBANCE
##XFACTOR=1.0
##YFACTOR=0.000085272
##DELTAX=4.0
##FIRSTX=450.0
##LASTX=3966.0
##FIRSTY=0.030016
##MAXX=3966
##MINX=450
##MAXY=0.85272
##MINY=0
##NPOINTS=880
##XYDATA=(X++(Y..Y))
450.0 352 238 15 234 166 228 167 111 201 303
490.0 367 375 180 102 76 219 308 331 402 672
530.0 407 305 231 372 124 225 103 189 138 190
570.0 467 535 442 364 279 197 148 46 102 64
610.0 91 197 217 371 637 869 1033 938 579 253
650.0 142 31 57 84 423 1747 2701 2741 1705 415
690.0 77 141 12 139 150 84 185 113 131 96
730.0 126 117 82 99 96 116 242 414 611 604
770.0 393 173 86 78 51 65 101 201 244 326
810.0 472 596 862 1215 1346 1200 886 521 398 464
850.0 516 491 296 128 55 102 178 235 434 706
890.0 751 658 446 266 118 60 75 28 15 40
930.0 42 38 27 54 51 70 76 62 54 50
970.0 34 41 18 53 33 60 64 66 67 70
1010.0 69 64 93 134 187 249 328 450 782 1331
1050.0 2175 2893 3072 2557 1665 1049 806 732 799 867
1090.0 946 1023 1091 1256 1523 1931 2630 3804 5685 7976
1130.0 9379 9124 8402 8314 8672 8974 8943 8479 7958 7744
1170.0 7736 7950 7679 7009 5848 4531 3298 2356 1832 1549
1210.0 1358 1153 1009 874 810 788 821 961 1280 1640
1250.0 1994 2163 2126 2332 3215 5333 8251 10000 8892 5732
1290.0 3271 2653 3113 4024 5261 6442 7490 8076 7639 7159
1330.0 6504 5596 4291 2615 1469 931 647 487 402 350
1370.0 331 336 323 365 359 406 516 662 892 1097
1410.0 1227 1401 1633 1970 2182 1985 1530 898 495 428
1450.0 432 451 650 930 1404 2249 3113 4029 4815 5388
1490.0 5450 4758 3606 2529 1706 948 519 343 307 302
1530.0 264 202 154 142 185 193 231 246 288 329
1570.0 456 664 849 1025 987 865 702 645 746 883
1610.0 972 1075 965 836 608 368 261 191 184 180
1650.0 169 184 138 133 128 88 88 91 95 71
1690.0 61 56 59 66 96 92 126 164 140 122
1730.0 82 79 80 67 80 86 94 138 149 188
1770.0 207 207 220 176 129 86 72 72 59 47
1810.0 41 53 54 52 43 57 66 67 68 60
1850.0 44 34 30 38 49 48 48 51 57 71
1890.0 90 125 133 125 95 83 65 42 30 29
1930.0 22 27 21 27 21 24 21 15 22 20
1970.0 15 21 20 15 17 28 11 18 22 28
2010.0 12 23 37 34 39 49 51 55 55 41
2050.0 37 35 20 22 27 22 29 21 35 33
2090.0 26 30 29 24 18 11 24 21 28 33
2130.0 25 20 18 10 18 18 32 23 32 29
2170.0 29 36 37 25 23 36 20 22 19 12
2210.0 28 25 31 29 34 41 42 55 51 51
2250.0 59 56 52 44 43 51 53 36 46 44
2290.0 55 62 76 61 64 88 76 81 81 88
2330.0 85 104 80 91 132 93 48 39 90 98
2370.0 133 128 129 99 69 55 44 40 43 50
2410.0 41 49 56 69 78 76 71 83 79 81
2450.0 74 80 78 91 90 85 85 87 87 81
2490.0 86 87 100 97 86 97 90 84 84 83
2530.0 86 80 74 72 72 75 72 70 72 73
2570.0 73 72 82 75 81 90 91 88 90 90
2610.0 87 86 82 77 72 81 75 70 79 84
2650.0 91 85 93 104 106 101 98 85 85 87
2690.0 79 68 73 69 78 82 81 83 84 79
2730.0 79 87 96 94 100 101 101 107 105 105
2770.0 109 109 104 98 94 99 98 92 89 87
2810.0 102 98 99 98 103 106 99 95 96 89
2850.0 92 93 95 100 102 105 104 107 108 102
2890.0 106 112 114 118 112 118 118 124 128 128
2930.0 137 131 129 125 118 110 108 109 107 115
2970.0 113 105 105 112 111 101 104 109 109 106
3010.0 107 108 112 122 129 146 153 158 171 164
3050.0 141 145 139 136 135 146 150 185 191 205
3090.0 200 178 148 129 115 116 115 115 113 117
3130.0 111 104 95 101 104 106 104 103 110 105
3170.0 107 92 106 110 114 109 110 99 101 103
3210.0 115 113 106 107 105 109 113 109 109 112
3250.0 120 117 120 115 121 125 124 127 124 134
3290.0 128 136 133 129 130 128 144 141 141 143
3330.0 149 149 151 147 139 137 147 142 138 138
3370.0 152 137 142 140 145 136 137 132 144 126
3410.0 130 135 121 117 129 128 131 110 123 113
3450.0 133 154 155 176 154 135 108 52 12 36
3490.0 71 92 101 94 91 118 110 116 126 87
3530.0 124 131 120 145 109 126 175 143 160 82
3570.0 87 166 136 170 95 96 150 98 184 150
3610.0 128 205 215 328 426 523 1028 1678 2885 4556
3650.0 5979 6177 4647 2431 1155 571 260 273 213 190
3690.0 93 150 166 146 132 88 62 131 72 64
3730.0 111 36 57 48 45 0 117 84 98 92
3770.0 100 117 109 112 137 114 124 76 16 50
3810.0 41 30 47 69 86 104 36 7 44 141
3850.0 173 55 194 81 90 34 52 130 33 90
3890.0 101 124 120 77 68 200 123 116 186 174
3930.0 118 108 175 165 166 103 116 182 150 130
##END=
