##TITLE=Hydrocinnamonitrile, .beta.-ethyl-.beta.-methyl
##JCAMP-DX=4.24
##DATA TYPE=INFRARED SPECTRUM
##ORIGIN=Sadtler Research Labs Under US-EPA Contract
##OWNER=NIST Standard Reference Data Program
##CAS REGISTRY NO=50843-73-7
##MOLFORM=C 12 H 15 N
##XUNITS=1/CM
##YUNITS=ABSORBANCE
##XFACTOR=1.0
##YFACTOR=0.000058029
##DELTAX=4.0
##FIRSTX=450.0
##LASTX=3966.0
##FIRSTY=0.000000
##MAXX=3966
##MINX=450
##MAXY=0.58029
##MINY=0
##NPOINTS=880
##XYDATA=(X++(Y..Y))
450.0 0 365 623 520 490 693 578 561 572 478
490.0 641 660 548 670 799 607 617 512 616 566
530.0 699 777 802 894 957 993 843 694 613 524
570.0 446 458 412 421 377 416 472 505 544 664
610.0 723 719 602 556 497 492 409 405 426 428
650.0 435 493 525 665 703 990 1057 1297 1742 2515
690.0 3818 5143 5761 5382 4250 2909 1993 1399 1110 1082
730.0 1012 929 1075 1229 1394 1993 3023 3440 3387 2625
770.0 1849 1403 1243 1197 1141 994 822 714 583 535
810.0 502 432 396 427 518 494 503 483 444 460
850.0 456 446 445 409 419 452 467 484 553 542
890.0 467 483 499 552 565 527 500 482 497 487
930.0 494 498 507 562 599 689 736 698 570 493
970.0 433 448 452 472 497 524 617 784 975 1112
1010.0 1235 1229 1176 1160 1267 1400 1452 1313 1002 810
1050.0 717 720 671 583 601 625 665 709 706 698
1090.0 677 713 671 672 686 646 639 566 540 495
1130.0 514 496 547 611 623 661 614 648 679 632
1170.0 609 603 630 626 607 627 642 672 675 635
1210.0 639 667 655 591 554 530 550 525 581 589
1250.0 653 675 691 692 665 688 698 662 674 738
1290.0 736 786 796 818 904 963 1046 1205 1260 1281
1330.0 1202 1092 1000 940 865 770 701 639 652 744
1370.0 791 982 1421 1920 2395 2583 2276 1692 1155 911
1410.0 785 805 927 1243 1532 1829 1925 2006 2102 2238
1450.0 2397 2504 2602 2907 3026 3036 2757 2314 1946 1732
1490.0 1970 2322 2634 2434 2014 1364 912 791 680 685
1530.0 634 597 596 561 508 492 523 536 522 498
1570.0 551 635 653 789 833 951 1137 1264 1435 1319
1610.0 1151 862 704 566 514 520 496 488 455 432
1650.0 547 498 548 504 564 499 526 500 499 490
1690.0 443 441 465 463 426 435 459 470 459 424
1730.0 488 504 540 494 491 492 449 468 467 467
1770.0 446 476 498 535 611 690 712 692 617 546
1810.0 517 476 430 443 448 436 415 430 432 452
1850.0 447 465 502 506 541 559 579 564 573 578
1890.0 549 517 483 440 436 416 439 437 450 444
1930.0 489 535 598 638 644 604 602 628 575 542
1970.0 468 426 400 394 390 391 383 392 396 391
2010.0 399 395 374 375 381 388 385 386 379 380
2050.0 383 372 384 372 376 372 378 380 378 378
2090.0 378 371 373 379 379 373 372 372 374 373
2130.0 376 374 373 371 372 374 375 378 377 375
2170.0 380 380 387 384 381 382 384 378 384 386
2210.0 378 372 380 389 395 409 448 474 535 598
2250.0 637 636 596 544 500 473 445 434 429 414
2290.0 418 415 415 421 429 429 446 457 457 439
2330.0 403 384 395 367 388 404 419 378 367 371
2370.0 371 371 372 384 400 403 404 403 397 397
2410.0 397 395 398 392 391 401 395 396 395 395
2450.0 393 386 382 386 386 394 386 396 396 392
2490.0 397 396 408 399 394 399 395 394 398 395
2530.0 395 396 395 399 397 405 400 405 407 410
2570.0 419 431 437 436 441 442 444 446 457 454
2610.0 452 448 449 444 446 446 437 445 440 442
2650.0 441 438 444 441 450 442 427 429 428 419
2690.0 414 414 411 416 423 426 432 434 442 445
2730.0 444 450 463 481 495 517 529 527 520 497
2770.0 498 494 504 500 515 529 539 536 545 552
2810.0 560 566 579 598 632 675 734 794 849 897
2850.0 933 996 1110 1271 1500 1753 2035 2354 2688 3068
2890.0 3348 3420 3247 2945 2672 2575 2690 2974 3413 3938
2930.0 4519 5070 5482 5643 5591 5312 4959 4711 4741 5357
2970.0 6769 8613 10000 9867 8313 6208 4407 3116 2224 1617
3010.0 1313 1213 1272 1440 1696 2024 2386 2635 2715 2595
3050.0 2341 2156 2277 2715 3313 3718 3647 3198 2614 2176
3090.0 2108 2199 2213 2032 1758 1484 1277 1128 988 855
3130.0 723 634 581 548 535 512 524 529 525 531
3170.0 527 517 503 490 507 514 514 521 521 518
3210.0 521 498 494 480 470 487 470 448 439 434
3250.0 437 439 436 450 449 430 431 420 427 419
3290.0 428 433 419 429 421 410 398 430 420 417
3330.0 415 426 408 404 413 415 409 414 412 393
3370.0 416 405 386 387 396 400 411 403 400 411
3410.0 401 406 407 417 418 387 404 406 399 398
3450.0 396 394 400 387 396 393 403 413 373 390
3490.0 385 398 395 391 391 401 403 413 406 402
3530.0 413 406 415 400 419 420 385 410 417 435
3570.0 409 406 435 404 441 422 429 385 424 395
3610.0 448 431 423 424 438 440 436 400 403 453
3650.0 428 475 405 461 385 460 432 479 426 425
3690.0 462 397 448 413 404 432 437 417 425 437
3730.0 435 417 442 433 479 437 417 411 384 395
3770.0 391 447 420 393 410 381 396 411 405 431
3810.0 368 465 377 456 374 389 405 470 434 382
3850.0 459 412 433 374 434 431 408 413 370 453
3890.0 432 418 442 428 440 401 374 385 448 400
3930.0 452 399 371 402 460 446 477 429 400 419
##END=
