##TITLE=Ether, 4-chlorobutyl o-tolyl,
##JCAMP-DX=4.24
##DATA TYPE=INFRARED SPECTRUM
##ORIGIN=Sadtler Research Labs Under US-EPA Contract
##OWNER=NIST Standard Reference Data Program
##CAS REGISTRY NO=50873-93-3
##MOLFORM=C 11 H 15 Cl O
##XUNITS=1/CM
##YUNITS=ABSORBANCE
##XFACTOR=1.0
##YFACTOR=0.000059888
##DELTAX=4.0
##FIRSTX=450.0
##LASTX=3966.0
##FIRSTY=0.020601
##MAXX=3966
##MINX=450
##MAXY=0.59888
##MINY=0
##NPOINTS=880
##XYDATA=(X++(Y..Y))
450.0 344 276 230 127 152 207 100 145 122 107
490.0 161 127 128 183 158 134 120 81 173 118
530.0 198 103 145 200 163 31 109 80 27 23
570.0 95 105 93 138 124 120 130 183 210 223
610.0 230 158 118 109 116 172 125 127 150 202
650.0 276 377 544 641 640 491 328 250 232 240
690.0 248 275 280 377 554 718 860 919 862 957
730.0 1078 1458 2045 2967 3217 3280 2751 1964 1444 1073
770.0 811 620 456 377 286 273 239 242 232 254
810.0 235 250 264 253 278 263 314 335 357 359
850.0 388 357 307 272 232 212 196 213 208 232
890.0 221 242 252 276 289 301 346 392 422 452
930.0 481 492 504 507 535 552 538 539 560 626
970.0 673 722 718 731 749 742 684 607 573 576
1010.0 625 688 771 843 954 1109 1266 1435 1625 2026
1050.0 2425 2534 2189 1765 1439 1157 924 715 575 488
1090.0 443 418 423 441 547 810 1438 2433 3077 2771
1130.0 1705 909 576 432 382 377 406 467 514 538
1170.0 574 680 919 1258 1693 2077 2199 1878 1313 989
1210.0 1022 1276 1697 2380 3313 4628 6347 8402 10000 9356
1250.0 6767 3893 2465 1870 1611 1514 1546 1696 1828 1849
1290.0 1764 1714 1696 1698 1601 1406 1157 969 825 683
1330.0 545 454 376 339 331 342 350 340 335 352
1370.0 400 530 750 976 1109 1078 880 650 464 364
1410.0 277 279 275 347 389 568 805 1124 1517 1741
1450.0 2002 1998 1935 1766 1655 1707 2042 2376 2367 2631
1490.0 3354 4728 4782 3982 2760 1656 1290 749 574 354
1530.0 343 261 250 267 219 232 206 270 234 229
1570.0 292 369 550 834 1116 1518 1678 1863 1837 1768
1610.0 1349 748 431 239 218 148 170 154 122 114
1650.0 147 142 136 117 145 181 271 203 246 200
1690.0 140 88 138 119 109 74 78 101 82 63
1730.0 69 93 76 77 77 83 114 119 128 106
1770.0 102 100 81 73 71 69 88 85 82 74
1810.0 66 58 48 50 56 66 58 63 69 71
1850.0 60 56 54 52 70 79 103 121 143 136
1890.0 119 98 79 68 65 68 80 103 127 132
1930.0 118 86 65 58 59 55 57 57 63 61
1970.0 63 69 67 70 70 78 79 80 73 73
2010.0 69 65 58 58 66 59 63 61 66 66
2050.0 66 68 68 69 63 70 69 71 68 66
2090.0 61 58 60 50 46 45 41 38 34 36
2130.0 30 23 22 17 9 9 2 3 0 2
2170.0 10 5 4 2 1 2 4 7 17 22
2210.0 25 29 28 30 29 28 24 30 31 30
2250.0 35 33 32 32 31 32 27 24 25 16
2290.0 12 16 7 5 3 2 15 20 26 35
2330.0 31 33 33 31 29 18 3 10 29 38
2370.0 59 39 36 25 24 26 31 37 44 44
2410.0 51 56 54 54 54 54 55 56 51 51
2450.0 49 53 53 58 63 75 75 81 87 86
2490.0 76 73 60 64 66 65 70 74 81 75
2530.0 79 94 93 91 86 80 67 55 55 54
2570.0 52 57 53 54 52 50 49 51 48 47
2610.0 43 40 43 40 40 37 43 42 43 44
2650.0 43 39 42 47 43 52 50 50 51 55
2690.0 60 60 54 59 66 68 70 74 83 89
2730.0 104 125 142 153 158 153 141 125 114 103
2770.0 102 98 94 91 98 96 106 110 114 121
2810.0 128 142 151 167 190 212 240 280 341 424
2850.0 550 708 864 1014 1148 1307 1446 1555 1594 1568
2890.0 1480 1408 1388 1435 1540 1682 1850 2011 2191 2341
2930.0 2484 2557 2619 2697 2825 2990 3082 3100 3067 2992
2970.0 2765 2381 1896 1536 1299 1184 1126 1107 1024 830
3010.0 646 541 567 676 892 1118 1238 1207 1057 904
3050.0 799 768 803 881 961 1033 1068 1112 1121 1011
3090.0 795 578 432 349 314 293 279 242 200 151
3130.0 122 103 86 78 75 71 69 66 58 58
3170.0 54 54 59 58 50 52 46 47 42 46
3210.0 43 39 35 44 43 36 42 28 33 45
3250.0 40 41 39 41 45 37 35 37 35 38
3290.0 29 27 28 34 30 35 25 30 33 36
3330.0 30 29 38 30 30 31 31 33 35 29
3370.0 33 35 27 33 28 28 31 33 32 30
3410.0 22 27 29 34 28 30 26 23 28 22
3450.0 12 30 34 27 19 5 27 29 41 29
3490.0 25 24 16 16 8 19 32 27 35 10
3530.0 31 20 26 26 0 19 35 29 28 12
3570.0 22 42 40 24 20 11 40 23 40 45
3610.0 33 34 40 21 18 46 49 36 46 34
3650.0 59 77 41 79 50 55 10 63 51 31
3690.0 48 42 43 36 27 33 27 25 26 4
3730.0 29 47 20 12 77 26 40 42 48 53
3770.0 41 58 39 42 38 40 14 56 35 58
3810.0 61 16 56 48 76 51 23 35 37 59
3850.0 38 67 45 19 55 72 57 43 47 56
3890.0 53 67 28 39 44 68 68 46 45 43
3930.0 44 33 38 41 33 19 13 29 28 18
##END=
