##TITLE=Phenol, 2,4-dinitro-
##JCAMP-DX=4.24
##DATA TYPE=INFRARED SPECTRUM
##ORIGIN=Sadtler Research Labs Under US-EPA Contract
##OWNER=NIST Standard Reference Data Program
##CAS REGISTRY NO=51-28-5
##MOLFORM=C 6 H 4 N 2 O 5
##XUNITS=1/CM
##YUNITS=ABSORBANCE
##XFACTOR=1.0
##YFACTOR=0.000127621
##DELTAX=4.0
##FIRSTX=450.0
##LASTX=3966.0
##FIRSTY=0.025397
##MAXX=3966
##MINX=450
##MAXY=1.27621
##MINY=0
##NPOINTS=880
##XYDATA=(X++(Y..Y))
450.0 199 80 1 18 77 216 191 263 207 165
490.0 152 67 105 155 240 324 278 415 410 337
530.0 392 334 229 194 197 244 190 264 362 404
570.0 438 416 423 407 403 315 292 251 191 181
610.0 213 209 269 353 445 644 880 1003 1018 902
650.0 660 562 577 636 690 870 1023 1183 1373 1470
690.0 1424 1402 1446 1594 1914 2155 2081 1769 1232 872
730.0 845 814 1052 1106 885 681 615 481 500 487
770.0 400 334 274 221 193 178 145 163 144 162
810.0 210 211 290 394 624 1090 1483 1716 1930 1303
850.0 847 528 294 219 191 181 182 133 153 157
890.0 162 191 232 330 495 752 1093 1295 1282 1008
930.0 615 329 193 144 132 131 135 132 143 144
970.0 146 137 147 158 144 142 133 123 117 107
1010.0 109 109 128 136 154 176 198 228 258 291
1050.0 350 504 795 1063 1131 978 651 364 277 267
1090.0 275 319 392 519 628 686 690 646 618 719
1130.0 1042 1517 1840 1884 1605 1075 629 448 380 371
1170.0 407 437 514 621 776 1059 1498 2003 2318 2342
1210.0 2054 1569 1186 951 802 734 676 636 654 782
1250.0 1105 1673 2443 3201 3685 3775 3349 2633 1945 1416
1290.0 1121 931 829 840 910 1137 1610 2626 4331 6056
1330.0 7059 7554 7731 8670 10000 9448 7826 5008 2944 1934
1370.0 1538 1398 1326 1216 1113 976 894 867 806 792
1410.0 821 804 964 1063 1279 1627 2042 2454 2790 2881
1450.0 2855 2614 2290 1967 1840 1937 2285 2548 2646 2636
1490.0 2399 2056 1789 1495 1360 1249 1031 924 897 847
1530.0 991 1335 2033 3126 4088 5010 5511 5507 5171 4321
1570.0 3229 2343 1769 1602 1826 2546 3624 4932 6079 6404
1610.0 6311 5404 4721 4572 4713 4744 4020 2943 1890 1137
1650.0 818 640 474 362 322 299 314 270 320 341
1690.0 266 235 291 258 215 154 176 223 140 105
1730.0 137 195 144 142 161 184 155 148 142 120
1770.0 146 148 107 107 99 114 125 133 149 131
1810.0 133 127 113 108 128 143 136 126 140 161
1850.0 117 84 85 71 80 90 56 51 50 59
1890.0 69 68 68 66 72 74 79 83 92 84
1930.0 87 99 105 115 104 85 75 77 65 76
1970.0 66 60 57 53 52 59 56 49 45 45
2010.0 42 50 55 47 46 41 40 50 51 54
2050.0 56 64 67 66 69 57 45 47 46 39
2090.0 45 38 40 40 41 45 47 49 45 45
2130.0 42 39 39 39 40 41 39 41 44 48
2170.0 48 49 51 48 47 46 45 47 48 48
2210.0 48 41 39 36 32 32 29 26 26 28
2250.0 32 38 46 49 55 57 50 46 37 27
2290.0 25 14 11 10 9 2 10 6 4 14
2330.0 3 8 4 14 2 6 2 3 16 40
2370.0 70 65 74 66 60 57 53 54 55 52
2410.0 59 58 58 61 64 62 63 64 66 64
2450.0 67 68 78 86 94 98 94 89 82 78
2490.0 73 62 53 49 48 52 58 64 72 77
2530.0 74 77 74 72 69 70 70 73 74 78
2570.0 87 95 101 112 123 127 122 117 112 107
2610.0 103 101 103 100 98 93 93 91 86 83
2650.0 83 80 80 82 86 91 96 105 109 107
2690.0 106 97 85 81 75 76 77 82 90 93
2730.0 102 109 112 120 121 118 113 105 104 99
2770.0 99 101 101 106 110 112 115 122 127 133
2810.0 136 140 147 153 155 158 156 155 149 146
2850.0 144 143 150 160 167 183 208 232 254 270
2890.0 274 265 245 221 201 191 187 186 183 186
2930.0 194 194 191 193 197 183 174 163 158 152
2970.0 153 149 151 152 148 142 134 133 125 116
3010.0 110 103 105 109 110 117 121 125 128 122
3050.0 124 118 119 122 120 135 144 169 203 252
3090.0 328 421 517 568 572 540 453 386 332 292
3130.0 262 235 218 214 210 222 230 243 259 282
3170.0 307 339 377 421 457 499 542 590 644 706
3210.0 782 867 953 1029 1094 1139 1158 1157 1142 1126
3250.0 1110 1090 1072 1044 1008 974 934 906 872 844
3290.0 819 785 759 729 699 673 647 624 606 588
3330.0 576 563 558 544 530 509 494 467 440 415
3370.0 392 369 355 346 338 335 319 314 305 296
3410.0 282 264 250 229 224 210 206 207 212 209
3450.0 211 207 197 191 184 175 165 163 164 167
3490.0 165 176 178 180 169 179 173 164 152 150
3530.0 140 141 143 152 142 142 145 144 118 128
3570.0 110 103 97 94 93 100 81 98 97 94
3610.0 87 86 80 59 74 50 45 28 45 36
3650.0 59 41 53 39 48 46 18 34 2 14
3690.0 4 22 9 15 26 32 44 35 28 30
3730.0 10 8 27 2 29 2 29 11 44 44
3770.0 21 38 16 7 2 2 2 2 9 16
3810.0 39 34 34 42 38 18 11 6 2 2
3850.0 2 0 29 12 26 53 44 31 31 21
3890.0 2 4 2 2 2 18 17 50 60 74
3930.0 42 29 1 2 5 4 2 14 47 86
##END=
