##TITLE=Aniline, 3-chloro-2-methoxy-,
##JCAMP-DX=4.24
##DATA TYPE=INFRARED SPECTRUM
##ORIGIN=Sadtler Research Labs Under US-EPA Contract
##OWNER=NIST Standard Reference Data Program
##CAS REGISTRY NO=51114-68-2
##MOLFORM=C 7 H 8 Cl N O
##XUNITS=1/CM
##YUNITS=ABSORBANCE
##XFACTOR=1.0
##YFACTOR=0.000064279
##DELTAX=4.0
##FIRSTX=450.0
##LASTX=3966.0
##FIRSTY=0.000514
##MAXX=3966
##MINX=450
##MAXY=0.64279
##MINY=0
##NPOINTS=880
##XYDATA=(X++(Y..Y))
450.0 8 1 53 84 103 146 182 221 264 234
490.0 227 284 307 424 471 586 716 770 829 908
530.0 948 942 877 834 736 672 576 534 505 467
570.0 498 553 555 626 652 636 648 628 573 596
610.0 568 582 675 816 986 1103 1112 996 772 589
650.0 469 395 345 309 264 268 232 205 189 181
690.0 182 166 175 185 198 244 338 572 1018 1596
730.0 2223 3313 3323 2388 1837 1301 1043 1242 1719 2299
770.0 3248 3152 2107 1637 1075 686 589 657 753 799
810.0 827 759 671 588 539 516 477 450 404 362
850.0 323 326 333 385 391 400 430 497 639 912
890.0 1420 2223 3070 3617 3703 3269 2355 1451 895 585
930.0 401 307 264 228 199 187 145 122 107 98
970.0 101 135 214 357 626 1104 1922 3160 4548 5556
1010.0 6052 4977 3532 1994 937 493 376 427 616 930
1050.0 1248 1384 1349 1156 867 636 539 543 624 768
1090.0 924 1040 1083 1025 887 686 492 331 214 155
1130.0 122 111 123 160 242 348 424 476 509 549
1170.0 629 764 848 875 857 830 846 936 1076 1231
1210.0 1439 1817 2539 3802 5548 7044 7407 6997 5652 3638
1250.0 2109 1313 950 810 795 874 1063 1390 1839 2250
1290.0 2442 2502 2468 2508 2961 3603 3894 3753 3115 2067
1330.0 1172 689 514 429 371 322 276 254 247 225
1370.0 211 225 230 229 231 240 263 301 317 350
1410.0 383 425 542 728 1070 1550 1947 2065 2155 2388
1450.0 3150 4653 5742 5758 5297 4824 4802 6554 9058 10000
1490.0 9690 8338 5319 2856 1645 1064 792 679 635 571
1530.0 548 562 595 638 625 598 605 668 771 982
1570.0 1414 1992 2556 2911 3036 2907 2788 3180 4251 5982
1610.0 7887 8913 8771 7509 5414 3308 2032 1358 976 762
1650.0 620 548 435 389 359 351 343 325 333 337
1690.0 300 281 298 290 272 268 284 305 256 211
1730.0 169 159 95 69 54 47 27 21 16 2
1770.0 16 18 1 5 11 22 52 81 138 150
1810.0 154 138 103 66 55 58 51 49 66 85
1850.0 80 86 98 104 103 113 93 97 119 163
1890.0 226 263 251 237 182 116 81 73 68 59
1930.0 62 62 62 70 69 62 61 58 58 63
1970.0 68 74 80 94 107 128 154 188 215 240
2010.0 245 230 205 171 154 149 148 139 129 115
2050.0 104 92 86 85 80 71 66 63 60 66
2090.0 72 74 73 78 75 82 85 83 79 69
2130.0 61 56 52 51 51 54 53 49 52 50
2170.0 46 50 53 52 54 49 47 54 53 53
2210.0 54 54 54 51 48 45 45 49 47 49
2250.0 52 52 51 46 47 47 49 57 66 70
2290.0 69 68 62 56 54 56 52 46 47 35
2330.0 48 46 38 36 51 48 38 42 34 42
2370.0 39 50 54 67 64 57 45 34 26 19
2410.0 16 10 1 1 5 5 10 18 16 15
2450.0 22 27 29 33 31 29 26 24 18 16
2490.0 21 27 27 34 33 45 51 53 51 48
2530.0 39 36 34 37 34 34 30 26 18 15
2570.0 15 23 33 43 56 72 87 104 116 116
2610.0 109 91 70 57 49 49 43 50 54 54
2650.0 54 49 52 58 67 62 61 62 61 64
2690.0 63 66 72 75 82 90 93 93 95 97
2730.0 94 96 95 96 104 106 108 108 118 122
2770.0 129 143 152 155 172 181 187 201 216 234
2810.0 251 279 333 420 566 836 1165 1459 1666 1530
2850.0 1298 997 769 639 586 583 623 691 793 914
2890.0 1052 1154 1191 1212 1231 1271 1321 1359 1414 1475
2930.0 1591 1801 2112 2400 2572 2486 2149 1790 1551 1454
2970.0 1409 1339 1219 1054 917 887 977 1168 1369 1447
3010.0 1443 1353 1172 1043 1017 1064 1120 1150 1123 1031
3050.0 919 853 860 934 1040 1144 1193 1181 1111 973
3090.0 788 604 451 311 218 161 143 123 108 99
3130.0 93 90 85 82 89 94 93 100 98 101
3170.0 103 109 111 116 120 116 105 92 73 55
3210.0 49 40 29 18 20 20 18 14 13 19
3250.0 17 17 21 22 22 22 25 27 24 29
3290.0 25 32 36 38 45 48 45 43 45 49
3330.0 47 52 50 43 53 49 54 63 70 82
3370.0 98 111 141 174 243 360 573 870 1120 1230
3410.0 1234 1074 815 595 445 341 262 199 153 128
3450.0 118 110 114 138 156 200 260 343 480 695
3490.0 1033 1294 1379 1334 1140 841 620 490 408 338
3530.0 258 200 153 118 84 59 53 34 32 29
3570.0 33 26 18 17 19 20 14 15 10 16
3610.0 16 11 14 12 12 24 19 8 9 3
3650.0 23 8 14 10 11 12 15 19 0 16
3690.0 13 7 5 14 15 29 22 14 22 16
3730.0 30 22 23 14 34 16 30 8 16 21
3770.0 13 2 15 8 3 11 1 18 8 23
3810.0 29 21 19 47 39 18 35 32 15 21
3850.0 25 42 36 34 22 23 3 15 17 29
3890.0 10 19 10 26 32 33 3 19 2 24
3930.0 28 25 23 28 22 55 34 24 22 18
##END=
