##TITLE=N-Phthalyl-dl-valine
##JCAMP-DX=4.24
##DATA TYPE=INFRARED SPECTRUM
##ORIGIN=Sadtler Research Labs Under US-EPA Contract
##OWNER=NIST Standard Reference Data Program
##CAS REGISTRY NO=5115-65-1
##MOLFORM=C 13 H 13 N O 4
##XUNITS=1/CM
##YUNITS=ABSORBANCE
##XFACTOR=1.0
##YFACTOR=0.000040710
##DELTAX=4.0
##FIRSTX=450.0
##LASTX=3966.0
##FIRSTY=0.000000
##MAXX=3966
##MINX=450
##MAXY=0.4071
##MINY=0
##NPOINTS=880
##XYDATA=(X++(Y..Y))
450.0 0 254 328 313 360 452 345 423 329 321
490.0 393 457 399 464 511 493 505 577 751 883
530.0 913 848 748 769 699 707 667 701 702 711
570.0 709 631 528 468 454 513 528 594 724 748
610.0 792 797 833 922 1044 1174 1284 1313 1192 967
650.0 825 734 628 550 535 516 451 444 482 509
690.0 570 676 739 811 1024 1744 3012 4061 3920 2764
730.0 1557 940 692 576 536 506 510 510 492 417
770.0 393 347 346 351 396 455 402 331 285 287
810.0 304 320 302 302 321 350 351 318 283 243
850.0 234 246 248 267 312 313 331 350 384 448
890.0 538 673 846 963 951 804 582 443 401 381
930.0 393 406 405 437 503 605 718 750 671 572
970.0 483 423 373 369 390 448 506 544 513 467
1010.0 496 605 639 584 538 497 495 479 480 521
1050.0 593 728 945 1276 1630 1862 1935 1887 1779 1653
1090.0 1491 1346 1323 1402 1573 1728 1769 1723 1701 1729
1130.0 1756 1727 1627 1538 1498 1469 1466 1514 1540 1537
1170.0 1548 1497 1425 1377 1350 1367 1341 1265 1184 1100
1210.0 1036 962 897 835 790 746 713 680 680 666
1250.0 678 688 711 744 766 786 792 809 840 902
1290.0 974 1012 1043 1107 1183 1285 1421 1566 1685 1783
1330.0 1837 1835 1910 2093 2351 2640 2842 3014 3273 3709
1370.0 4354 5338 6381 6920 6269 4949 3679 2695 1991 1577
1410.0 1410 1393 1404 1239 983 739 593 510 448 431
1450.0 451 507 652 747 1042 1151 857 627 421 346
1490.0 290 243 233 218 247 272 247 258 287 266
1530.0 273 259 304 303 310 293 316 332 350 350
1570.0 374 372 428 431 442 481 480 472 470 522
1610.0 562 544 498 418 407 386 435 448 476 510
1650.0 579 623 668 697 788 880 980 1110 1264 1500
1690.0 1751 2068 2502 3127 3920 4793 5605 6109 6191 6093
1730.0 6432 7666 9463 10000 8414 5866 4156 3415 3201 3203
1770.0 3558 3909 4315 4857 5062 4590 3603 2628 1878 1410
1810.0 1083 873 718 606 518 462 417 385 367 354
1850.0 322 294 279 271 269 276 263 250 236 233
1890.0 225 222 228 230 236 240 247 244 246 233
1930.0 236 236 255 258 261 246 235 226 230 238
1970.0 244 250 245 239 231 236 231 228 222 221
2010.0 218 222 225 220 221 223 221 221 229 224
2050.0 223 223 230 233 227 227 228 226 231 236
2090.0 226 227 232 227 228 230 228 226 230 230
2130.0 230 234 243 239 239 242 239 248 248 242
2170.0 242 241 249 249 250 255 251 245 245 248
2210.0 251 256 252 256 259 265 268 266 270 283
2250.0 280 280 287 290 296 295 304 308 323 334
2290.0 353 375 402 421 430 454 436 422 434 406
2330.0 388 363 341 359 422 419 431 381 375 380
2370.0 371 359 399 413 379 341 323 323 319 325
2410.0 329 339 338 336 345 348 352 361 365 363
2450.0 364 371 368 372 371 367 369 371 373 366
2490.0 365 363 363 372 372 370 374 381 372 372
2530.0 377 377 373 372 376 376 373 368 376 380
2570.0 373 377 377 379 380 374 372 380 379 375
2610.0 370 378 374 377 389 392 393 391 388 386
2650.0 383 382 385 383 393 399 395 393 391 395
2690.0 399 399 398 408 394 396 394 396 395 397
2730.0 398 405 403 410 410 408 409 408 418 414
2770.0 424 436 435 438 437 439 438 442 454 451
2810.0 456 451 459 470 471 471 477 479 484 493
2850.0 509 520 533 563 605 660 729 794 838 863
2890.0 862 841 832 848 874 909 926 927 950 980
2930.0 1012 1047 1076 1074 1074 1052 1058 1101 1222 1417
2970.0 1633 1792 1758 1528 1235 1010 877 806 750 699
3010.0 650 609 583 574 574 580 588 592 597 611
3050.0 628 642 684 712 733 722 695 697 732 767
3090.0 783 762 710 645 605 583 568 568 572 561
3130.0 571 570 563 560 571 561 562 561 568 579
3170.0 581 574 588 589 590 591 583 599 597 595
3210.0 590 600 604 604 609 614 612 597 605 610
3250.0 600 608 609 615 623 619 621 620 617 618
3290.0 627 613 613 614 612 630 621 616 627 607
3330.0 606 603 610 597 604 584 588 581 575 572
3370.0 558 544 551 537 523 509 511 508 497 477
3410.0 488 464 456 455 452 429 438 428 420 417
3450.0 418 426 431 449 457 459 472 472 481 454
3490.0 432 408 402 427 426 408 417 381 395 388
3530.0 378 366 357 367 358 345 356 356 434 640
3570.0 966 1264 1448 1300 990 633 414 309 317 294
3610.0 339 289 304 279 274 322 273 247 277 285
3650.0 294 281 270 279 265 301 293 286 274 289
3690.0 275 292 264 289 287 281 311 300 289 282
3730.0 270 303 304 287 346 289 306 281 273 279
3770.0 287 290 304 327 285 280 276 290 282 305
3810.0 276 297 311 296 276 273 313 297 314 295
3850.0 299 332 290 295 291 305 292 291 301 327
3890.0 293 313 307 333 308 291 276 302 290 313
3930.0 344 333 299 297 325 318 330 281 295 296
##END=
