##TITLE=Thiophene, 2,3-dichlorotetrahydro-, 1,1-dioxide
##JCAMP-DX=4.24
##DATA TYPE=INFRARED SPECTRUM
##ORIGIN=Sadtler Research Labs Under US-EPA Contract
##OWNER=NIST Standard Reference Data Program
##CAS REGISTRY NO=51275-92-4
##MOLFORM=C 4 H 6 Cl 2 O 2 S
##XUNITS=1/CM
##YUNITS=ABSORBANCE
##XFACTOR=1.0
##YFACTOR=0.000123154
##DELTAX=4.0
##FIRSTX=450.0
##LASTX=3966.0
##FIRSTY=0.118104
##MAXX=3966
##MINX=450
##MAXY=1.23154
##MINY=0
##NPOINTS=880
##XYDATA=(X++(Y..Y))
450.0 959 832 962 960 885 871 848 952 1206 1394
490.0 1451 1349 1151 891 624 437 335 253 188 182
530.0 166 150 158 178 310 522 861 1097 1260 1160
570.0 960 597 363 297 328 371 371 369 283 193
610.0 126 89 74 60 67 53 56 33 12 12
650.0 6 29 41 91 125 232 321 395 461 487
690.0 515 493 486 441 435 455 569 801 1123 1481
730.0 1739 1866 1733 1489 1119 807 569 423 350 321
770.0 324 336 383 425 481 542 637 762 877 907
810.0 856 772 619 494 419 369 314 261 212 170
850.0 145 149 155 177 222 286 412 581 803 1049
890.0 1200 1257 1181 978 722 509 386 313 268 210
930.0 156 113 68 52 42 39 35 32 43 65
970.0 105 151 188 199 185 156 131 131 155 177
1010.0 188 176 147 106 73 63 68 80 96 110
1050.0 142 174 199 223 230 213 191 161 129 123
1090.0 134 169 240 358 527 728 958 1239 1652 2120
1130.0 2504 2636 2556 2283 2047 2130 2506 3104 3697 4186
1170.0 4358 4111 3865 3530 3347 3207 2913 2472 1937 1446
1210.0 1130 988 934 826 680 565 466 422 436 505
1250.0 609 710 797 865 930 996 1080 1138 1125 1029
1290.0 889 750 652 629 677 776 885 983 1025 1028
1330.0 1013 1033 1122 1348 1706 2203 3072 4487 6437 8057
1370.0 9681 10000 7066 4894 2858 1448 895 694 584 495
1410.0 453 486 517 553 538 449 385 330 352 402
1450.0 383 374 324 285 224 165 110 86 88 65
1490.0 48 52 41 40 29 22 27 25 15 27
1530.0 29 34 30 4 29 35 39 4 32 37
1570.0 39 33 46 34 47 42 48 42 48 50
1610.0 47 64 49 68 52 67 44 38 35 39
1650.0 12 20 35 36 35 38 19 50 19 29
1690.0 34 46 22 40 43 62 61 47 74 87
1730.0 87 68 98 96 105 102 113 100 97 91
1770.0 72 56 50 48 42 43 30 37 28 42
1810.0 32 34 37 30 30 26 34 32 30 22
1850.0 34 38 38 39 35 30 37 38 35 35
1890.0 29 29 30 32 30 29 32 33 27 35
1930.0 36 39 38 32 33 36 34 33 34 32
1970.0 32 33 32 29 29 26 26 28 29 32
2010.0 29 30 28 33 32 33 32 30 30 32
2050.0 34 34 36 34 29 32 34 30 32 34
2090.0 36 36 38 39 38 39 40 37 39 38
2130.0 37 39 35 35 34 34 34 34 30 33
2170.0 35 30 36 35 33 36 37 39 38 40
2210.0 40 43 43 43 45 45 45 43 47 48
2250.0 48 49 50 54 53 55 55 57 61 63
2290.0 66 68 74 76 79 88 81 85 88 82
2330.0 82 80 70 68 84 66 84 63 77 69
2370.0 74 63 66 64 54 45 42 39 38 35
2410.0 34 35 35 37 35 36 35 39 41 41
2450.0 40 42 42 44 46 47 50 52 56 57
2490.0 58 60 62 62 56 54 49 48 47 48
2530.0 49 47 44 41 36 33 32 32 33 30
2570.0 30 28 25 23 22 20 20 19 20 18
2610.0 18 19 21 18 19 21 16 17 14 17
2650.0 16 16 13 13 11 13 11 15 13 13
2690.0 12 8 12 9 15 6 5 8 12 16
2730.0 18 16 14 13 11 9 9 6 6 6
2770.0 7 6 12 6 7 3 3 6 6 0
2810.0 5 5 7 12 6 6 9 9 15 14
2850.0 14 21 26 36 45 47 56 60 70 78
2890.0 77 75 69 59 50 43 43 48 54 63
2930.0 74 99 131 162 204 229 267 302 335 348
2970.0 351 355 363 391 410 417 407 333 287 228
3010.0 197 176 124 88 61 41 28 22 18 14
3050.0 14 13 9 13 14 14 13 8 7 11
3090.0 11 6 5 6 7 6 8 8 11 7
3130.0 6 7 4 5 1 5 2 7 4 4
3170.0 2 5 6 4 6 3 7 5 5 4
3210.0 5 6 5 6 7 7 7 6 8 9
3250.0 4 3 6 7 3 5 7 5 3 7
3290.0 7 4 5 9 4 7 4 6 9 8
3330.0 6 11 7 7 14 4 13 7 9 8
3370.0 12 9 7 8 8 2 8 6 6 7
3410.0 8 7 2 6 8 5 5 9 6 2
3450.0 1 3 2 5 7 5 4 6 6 4
3490.0 11 6 1 5 1 4 4 3 7 14
3530.0 6 8 11 16 20 17 8 18 13 22
3570.0 17 11 13 6 16 19 11 13 4 8
3610.0 16 16 13 13 13 17 22 13 18 15
3650.0 24 15 8 17 1 16 7 22 6 11
3690.0 15 16 12 14 11 13 15 8 13 9
3730.0 8 16 21 15 30 0 17 1 8 15
3770.0 5 6 7 24 7 16 7 13 3 17
3810.0 1 13 6 18 15 9 21 18 4 21
3850.0 17 12 15 17 12 13 7 3 21 28
3890.0 6 4 18 26 13 21 13 6 18 17
3930.0 15 5 9 2 4 14 15 7 12 4
##END=
