##TITLE=2-Butene, 2-methyl-
##JCAMP-DX=4.24
##DATA TYPE=INFRARED SPECTRUM
##ORIGIN=Sadtler Research Labs Under US-EPA Contract
##OWNER=NIST Standard Reference Data Program
##CAS REGISTRY NO=513-35-9
##MOLFORM=C 5 H 10
##XUNITS=1/CM
##YUNITS=ABSORBANCE
##XFACTOR=1.0
##YFACTOR=0.000089606
##DELTAX=4.0
##FIRSTX=450.0
##LASTX=3966.0
##FIRSTY=0.016756
##MAXX=3966
##MINX=450
##MAXY=0.89606
##MINY=0
##NPOINTS=880
##XYDATA=(X++(Y..Y))
450.0 187 300 220 170 132 79 52 28 26 28
490.0 47 52 34 67 67 65 126 142 175 157
530.0 215 172 111 64 15 41 28 65 6 20
570.0 30 35 15 34 30 39 25 36 39 17
610.0 28 33 39 40 41 30 12 45 45 34
650.0 45 42 49 60 62 107 92 114 109 110
690.0 123 101 90 68 57 62 61 56 61 77
730.0 83 88 120 133 146 181 211 256 313 401
770.0 503 629 749 851 922 1022 1194 1736 1822 1443
810.0 1121 936 849 737 619 500 265 237 208 187
850.0 190 211 223 243 300 304 252 259 265 265
890.0 271 271 275 295 300 292 304 327 352 394
930.0 420 454 505 539 549 537 533 530 515 499
970.0 462 438 422 435 472 468 445 429 424 424
1010.0 422 413 416 405 424 449 492 503 488 496
1050.0 507 523 559 560 559 566 585 623 674 766
1090.0 887 1034 1145 1180 1181 1221 1148 1086 985 821
1130.0 632 498 426 394 377 360 343 332 321 326
1170.0 322 321 321 336 352 379 442 501 558 595
1210.0 590 618 634 672 688 637 559 523 471 452
1250.0 425 396 367 339 322 294 283 272 265 268
1290.0 270 266 276 294 309 326 359 393 433 478
1330.0 515 538 576 617 663 750 849 966 1150 1417
1370.0 1697 1886 1924 1963 2109 2172 1967 1577 1233 1016
1410.0 893 850 863 917 1013 1131 1275 1474 1732 1852
1450.0 1915 1839 1741 1692 1716 1641 1472 1272 1094 954
1490.0 830 715 643 582 555 513 502 504 503 499
1530.0 499 511 506 492 471 465 456 445 387 372
1570.0 366 345 326 314 313 318 312 308 307 305
1610.0 296 277 253 237 219 204 202 179 170 187
1650.0 173 184 179 207 221 236 227 216 226 229
1690.0 225 220 189 176 167 165 174 172 162 167
1730.0 177 192 175 181 188 188 182 181 186 169
1770.0 157 139 116 108 106 103 107 111 116 127
1810.0 128 133 139 146 159 149 144 130 122 109
1850.0 95 89 79 61 62 62 46 49 52 45
1890.0 45 49 51 44 41 41 46 40 35 25
1930.0 29 37 40 40 47 45 40 41 45 46
1970.0 47 47 40 41 35 38 42 35 28 33
2010.0 23 36 30 31 25 30 25 25 24 24
2050.0 24 31 20 20 25 19 20 20 19 19
2090.0 19 14 16 9 11 16 14 17 19 20
2130.0 24 26 26 19 26 27 31 22 24 14
2170.0 15 15 9 9 9 3 4 9 8 6
2210.0 9 6 10 6 9 4 5 9 4 4
2250.0 10 4 0 8 11 13 13 12 20 24
2290.0 18 24 25 30 30 38 35 31 40 29
2330.0 37 32 24 13 14 13 31 32 2 0
2370.0 0 0 1 10 18 27 38 45 44 52
2410.0 61 62 52 57 57 58 62 61 63 64
2450.0 64 58 60 59 55 48 48 48 44 48
2490.0 51 43 51 51 56 52 41 40 35 36
2530.0 30 37 36 33 32 30 31 42 32 32
2570.0 38 38 38 45 36 40 40 39 39 42
2610.0 35 35 40 29 41 37 34 41 39 36
2650.0 33 45 51 54 58 54 66 71 72 77
2690.0 83 101 106 121 139 162 181 216 246 303
2730.0 354 376 401 455 445 484 482 422 379 349
2770.0 317 287 275 281 286 304 338 374 419 457
2810.0 497 569 631 696 777 861 985 1142 1359 1666
2850.0 2124 2788 3555 4237 4766 5278 5616 6102 6328 6424
2890.0 6367 6179 6051 6099 6377 6971 7702 8312 8715 9050
2930.0 9206 9412 10000 9185 7860 6735 6096 5878 6005 6293
2970.0 6485 6332 6281 6632 6922 6730 6235 5639 5121 4663
3010.0 4274 3936 3705 3568 3418 3221 3011 2833 2708 2517
3050.0 2213 1898 1614 1373 1178 1029 930 841 754 673
3090.0 595 559 526 473 441 418 390 352 316 309
3130.0 277 233 203 177 153 161 141 121 108 103
3170.0 103 90 98 97 85 82 66 75 58 57
3210.0 63 56 47 41 52 52 45 43 27 37
3250.0 43 32 34 38 28 32 32 34 45 24
3290.0 38 27 31 22 32 17 19 24 41 41
3330.0 25 40 38 23 26 40 48 55 58 57
3370.0 51 61 61 39 40 46 46 33 33 41
3410.0 37 46 21 34 26 42 31 26 25 22
3450.0 33 18 24 34 17 27 22 44 51 22
3490.0 40 25 39 42 21 53 18 18 45 43
3530.0 28 28 37 20 35 39 5 1 27 41
3570.0 27 38 31 43 21 27 17 31 34 40
3610.0 42 22 17 52 52 44 48 47 78 89
3650.0 76 67 70 63 67 76 68 44 32 47
3690.0 56 35 38 39 43 52 47 30 24 15
3730.0 28 58 49 46 45 33 51 20 40 38
3770.0 25 40 50 42 36 29 40 49 46 44
3810.0 53 53 49 33 45 59 69 64 57 61
3850.0 58 65 53 57 45 55 48 39 65 57
3890.0 55 56 56 57 56 71 77 76 70 58
3930.0 59 62 66 73 73 74 78 74 76 72
##END=
