##TITLE=Propane, 1-chloro-2-methyl-
##JCAMP-DX=4.24
##DATA TYPE=INFRARED SPECTRUM
##ORIGIN=Sadtler Research Labs Under US-EPA Contract
##OWNER=NIST Standard Reference Data Program
##CAS REGISTRY NO=513-36-0
##MOLFORM=C 4 H 9 Cl
##XUNITS=1/CM
##YUNITS=ABSORBANCE
##XFACTOR=1.0
##YFACTOR=0.000105109
##DELTAX=4.0
##FIRSTX=450.0
##LASTX=3966.0
##FIRSTY=0.004309
##MAXX=3966
##MINX=450
##MAXY=1.05109
##MINY=0
##NPOINTS=880
##XYDATA=(X++(Y..Y))
450.0 41 53 41 104 43 78 64 38 84 43
490.0 50 3 97 53 81 131 126 105 119 78
530.0 104 112 93 165 115 13 57 51 66 88
570.0 46 43 87 51 34 32 24 87 32 45
610.0 37 66 41 51 61 45 51 56 79 32
650.0 36 68 62 64 76 136 226 368 476 593
690.0 652 799 806 726 753 648 535 593 902 1413
730.0 1966 2497 2685 2788 2831 2803 2245 1189 504 324
770.0 231 210 184 227 290 414 538 579 816 802
810.0 797 822 672 535 421 248 168 121 113 117
850.0 116 122 145 185 248 319 308 329 297 321
890.0 313 199 140 124 138 191 283 367 423 510
930.0 598 762 832 799 751 715 742 648 476 361
970.0 290 248 220 156 112 84 64 64 58 63
1010.0 52 57 57 57 56 60 58 54 63 56
1050.0 58 62 67 74 81 96 114 135 154 175
1090.0 184 209 199 204 203 201 177 154 150 130
1130.0 122 106 101 95 106 117 135 181 221 267
1170.0 258 264 243 240 210 150 122 101 127 139
1210.0 176 176 195 197 190 199 174 191 197 344
1250.0 562 994 1322 1466 1514 1632 1611 1530 945 619
1290.0 452 382 329 330 395 494 619 710 821 789
1330.0 760 789 698 553 474 422 437 502 635 778
1370.0 930 955 1201 1595 1574 1523 1391 1168 996 655
1410.0 385 244 194 184 263 399 599 694 880 1085
1450.0 1269 1491 1555 1528 1676 1826 1836 1415 1227 1059
1490.0 850 637 453 326 213 154 120 84 63 59
1530.0 59 47 38 32 45 48 47 37 26 51
1570.0 43 48 39 58 50 56 54 48 42 43
1610.0 51 35 43 38 46 39 48 39 56 39
1650.0 52 20 49 55 47 52 52 52 57 42
1690.0 57 55 39 36 49 48 40 33 36 29
1730.0 24 17 18 36 29 34 32 36 32 34
1770.0 27 17 26 22 28 18 24 23 25 21
1810.0 27 25 21 25 18 22 15 26 13 20
1850.0 21 23 23 23 23 22 29 25 28 25
1890.0 26 25 18 18 18 16 16 16 14 11
1930.0 11 8 7 6 10 7 6 11 10 10
1970.0 10 13 8 9 7 8 4 6 4 4
2010.0 11 7 11 8 10 10 13 11 19 20
2050.0 19 26 17 18 21 23 25 26 26 22
2090.0 26 18 19 16 17 13 13 15 19 19
2130.0 16 16 19 20 15 18 15 13 13 15
2170.0 15 15 17 16 20 16 21 20 17 22
2210.0 19 16 9 8 6 3 7 11 15 21
2250.0 20 20 22 25 29 28 28 33 36 31
2290.0 34 40 37 44 43 45 35 36 25 16
2330.0 4 3 16 6 17 18 3 3 6 20
2370.0 36 47 50 51 49 45 41 39 36 38
2410.0 36 41 41 39 41 44 42 40 42 37
2450.0 34 36 39 41 36 40 43 46 44 43
2490.0 42 43 53 51 47 44 43 45 40 42
2530.0 36 38 37 40 42 40 40 44 45 48
2570.0 51 51 55 47 51 51 52 45 52 53
2610.0 53 58 63 68 74 81 80 77 81 68
2650.0 68 64 66 72 82 81 81 80 84 86
2690.0 81 88 96 104 107 108 113 119 130 132
2730.0 148 156 166 169 171 175 176 174 165 167
2770.0 158 163 160 151 152 158 159 173 178 194
2810.0 211 225 246 252 275 298 305 330 371 430
2850.0 495 626 818 1086 1403 1877 2398 2674 2901 2822
2890.0 2806 2825 2609 2413 2324 2318 2433 2608 2731 2912
2930.0 3202 3596 4062 4602 5315 5767 6609 7160 8222 9530
2970.0 10000 9504 9173 9029 7890 6522 5116 3887 2753 1752
3010.0 1185 793 556 382 271 213 179 169 144 162
3050.0 173 172 169 182 185 183 198 199 203 211
3090.0 212 209 189 171 168 167 158 163 158 135
3130.0 129 125 123 125 156 139 140 142 154 157
3170.0 169 166 164 157 157 162 150 138 140 119
3210.0 107 118 111 66 87 87 68 40 33 17
3250.0 35 37 22 38 55 49 37 36 35 27
3290.0 53 65 72 79 65 78 57 56 48 60
3330.0 63 49 64 73 64 72 48 67 63 78
3370.0 59 39 71 98 64 90 67 64 65 42
3410.0 38 48 33 43 64 52 44 46 33 42
3450.0 32 44 38 33 19 27 34 27 34 29
3490.0 45 32 44 41 42 48 27 34 41 23
3530.0 40 10 13 21 24 37 33 22 31 29
3570.0 46 14 14 13 37 26 24 32 38 23
3610.0 40 36 34 18 34 3 26 15 45 55
3650.0 22 28 34 47 5 54 39 35 16 44
3690.0 38 62 18 43 42 63 40 16 25 1
3730.0 17 8 23 37 18 36 31 19 25 52
3770.0 51 13 26 29 29 33 39 0 23 49
3810.0 39 53 47 49 54 62 51 33 47 69
3850.0 50 51 49 44 51 52 60 43 47 54
3890.0 40 40 56 46 75 58 48 29 42 51
3930.0 68 62 71 52 33 59 51 23 41 32
##END=
