##TITLE=2-Butanone, 3-hydroxy-
##JCAMP-DX=4.24
##DATA TYPE=INFRARED SPECTRUM
##ORIGIN=Sadtler Research Labs Under US-EPA Contract
##OWNER=NIST Standard Reference Data Program
##CAS REGISTRY NO=513-86-0
##MOLFORM=C 4 H 8 O 2
##XUNITS=1/CM
##YUNITS=ABSORBANCE
##XFACTOR=1.0
##YFACTOR=0.000091193
##DELTAX=4.0
##FIRSTX=450.0
##LASTX=3966.0
##FIRSTY=0.053439
##MAXX=3966
##MINX=450
##MAXY=0.91193
##MINY=0
##NPOINTS=880
##XYDATA=(X++(Y..Y))
450.0 586 348 317 211 307 346 319 253 226 271
490.0 215 228 256 292 230 239 276 260 187 186
530.0 200 193 195 135 171 152 197 234 319 381
570.0 435 484 525 566 515 430 423 387 372 398
610.0 505 592 647 710 793 767 732 720 623 503
650.0 423 433 397 350 323 309 309 286 302 284
690.0 301 291 303 305 296 322 319 362 378 458
730.0 526 612 625 618 627 541 502 387 266 146
770.0 122 99 75 29 38 66 87 128 145 226
810.0 297 399 466 452 443 314 269 213 183 182
850.0 195 198 192 193 183 193 200 253 298 350
890.0 392 447 476 514 534 524 561 595 650 714
930.0 800 879 992 1109 1259 1410 1561 1674 1729 1823
970.0 1863 1854 1751 1577 1370 1178 1044 955 928 931
1010.0 984 1058 1175 1307 1479 1726 2003 2274 2455 2514
1050.0 2704 2942 2958 2900 2772 2700 2676 2720 2818 2943
1090.0 3134 3389 3768 4279 4979 5819 6971 8087 8913 8901
1130.0 8844 8601 7807 6997 5556 3971 2836 2277 2095 2085
1170.0 2196 2381 2662 2927 3066 3004 2804 2552 2347 2148
1210.0 1884 1654 1473 1369 1330 1369 1491 1728 2110 2591
1250.0 3088 3443 3756 3940 3864 3694 3334 2721 2155 1714
1290.0 1380 1172 1058 1024 1017 1026 1062 1110 1184 1274
1330.0 1445 1677 2104 2690 3396 4133 4704 5151 5663 5832
1370.0 6010 5919 5294 4772 4346 4031 3588 3281 2864 2554
1410.0 2313 2099 1918 1741 1648 1603 1638 1700 1759 1839
1450.0 1886 1943 1870 1713 1559 1366 1164 988 821 664
1490.0 594 478 464 395 422 413 364 372 352 359
1530.0 315 334 301 336 272 276 260 263 240 216
1570.0 235 191 211 181 172 155 166 160 140 176
1610.0 162 198 213 290 311 375 460 501 520 464
1650.0 526 396 416 374 486 545 731 842 918 982
1690.0 947 1092 1092 1746 2206 3240 4390 6310 7805 8846
1730.0 9763 9324 10000 9199 7982 5823 3950 2410 1562 995
1770.0 841 572 580 460 423 334 392 401 364 366
1810.0 297 268 166 175 105 95 54 45 32 22
1850.0 40 1 25 11 38 20 24 23 18 24
1890.0 21 39 11 36 19 36 22 40 46 30
1930.0 45 36 53 40 69 47 55 50 54 51
1970.0 46 60 46 61 51 66 54 57 54 49
2010.0 53 49 65 47 56 46 49 40 44 43
2050.0 27 33 22 31 18 30 20 28 29 34
2090.0 34 29 42 33 43 37 42 37 38 38
2130.0 33 40 33 41 29 46 39 41 43 46
2170.0 48 38 44 37 36 23 31 26 24 24
2210.0 18 22 20 27 18 28 21 30 24 28
2250.0 34 30 34 37 46 37 49 43 45 44
2290.0 48 51 44 51 47 57 49 68 55 65
2330.0 64 63 63 46 52 33 44 41 61 44
2370.0 41 47 27 30 21 36 30 33 34 40
2410.0 40 37 42 32 38 30 37 26 34 33
2450.0 32 32 33 38 33 49 39 49 48 56
2490.0 55 57 63 57 64 60 65 57 64 61
2530.0 61 59 56 61 53 58 52 58 52 60
2570.0 57 57 64 67 68 64 75 72 77 81
2610.0 87 92 89 93 84 83 77 82 72 75
2650.0 79 83 85 88 100 96 108 107 110 103
2690.0 110 109 110 120 130 144 143 155 160 176
2730.0 179 190 193 198 211 214 231 247 276 292
2770.0 324 354 388 428 480 534 569 619 662 695
2810.0 705 712 714 716 724 737 780 828 919 1019
2850.0 1164 1310 1464 1615 1746 1849 1891 1901 1870 1843
2890.0 1768 1691 1618 1554 1507 1466 1467 1469 1544 1663
2930.0 1833 2011 2181 2317 2329 2260 2123 2037 2018 2213
2970.0 2541 3020 3579 4314 4900 4450 4157 4226 3214 2833
3010.0 2261 1569 1129 811 658 549 490 424 385 351
3050.0 330 317 297 291 273 266 250 234 219 205
3090.0 200 185 180 171 169 160 165 163 162 160
3130.0 148 134 119 116 106 106 102 97 99 97
3170.0 99 94 95 93 98 101 103 111 109 112
3210.0 110 116 111 107 97 98 89 78 73 67
3250.0 66 56 56 48 49 50 48 42 40 43
3290.0 37 41 28 28 26 24 24 23 27 23
3330.0 22 16 22 19 19 27 20 25 25 30
3370.0 37 28 27 36 29 38 34 43 43 40
3410.0 64 61 85 105 135 153 192 212 219 238
3450.0 247 249 235 227 214 193 171 191 209 252
3490.0 317 436 635 952 1400 1843 2272 2581 2883 3027
3530.0 3114 2983 2750 2439 2121 1845 1575 1372 1169 1046
3570.0 924 803 726 662 585 474 424 358 317 276
3610.0 256 228 215 213 225 263 318 343 378 398
3650.0 412 374 363 334 314 287 242 212 120 92
3690.0 51 44 17 21 8 6 10 1 1 1
3730.0 5 2 10 1 19 3 25 1 1 4
3770.0 2 11 1 8 1 2 3 8 10 20
3810.0 11 19 18 23 33 32 47 47 30 37
3850.0 21 43 14 27 20 23 24 32 16 38
3890.0 18 36 29 39 39 26 24 24 39 15
3930.0 16 21 9 15 9 21 12 0 3 11
##END=
