##TITLE=2-Propanol, 1-butoxy-
##JCAMP-DX=4.24
##DATA TYPE=INFRARED SPECTRUM
##ORIGIN=Sadtler Research Labs Under US-EPA Contract
##OWNER=NIST Standard Reference Data Program
##CAS REGISTRY NO=5131-66-8
##MOLFORM=C 7 H 16 O 2
##XUNITS=1/CM
##YUNITS=ABSORBANCE
##XFACTOR=1.0
##YFACTOR=0.000069394
##DELTAX=4.0
##FIRSTX=450.0
##LASTX=3966.0
##FIRSTY=0.006107
##MAXX=3966
##MINX=450
##MAXY=0.69394
##MINY=0
##NPOINTS=880
##XYDATA=(X++(Y..Y))
450.0 88 429 543 351 409 389 516 296 327 335
490.0 528 539 514 497 352 402 358 283 309 315
530.0 318 248 287 294 304 275 239 212 215 172
570.0 131 96 7 104 70 112 106 101 91 91
610.0 84 80 89 104 142 117 122 162 127 141
650.0 137 132 110 114 112 168 94 126 90 74
690.0 95 98 82 79 88 74 85 94 122 116
730.0 160 161 138 157 169 177 144 163 139 123
770.0 118 128 131 105 151 142 139 168 202 218
810.0 249 306 326 372 405 469 499 565 637 661
850.0 692 683 649 597 522 439 377 321 298 278
890.0 267 285 305 315 335 388 433 505 591 689
930.0 777 872 1014 1125 1225 1311 1371 1395 1440 1468
970.0 1475 1437 1403 1376 1355 1385 1405 1404 1374 1337
1010.0 1271 1198 1165 1163 1199 1282 1445 1635 1865 2132
1050.0 2379 2573 2690 2778 2810 2887 3042 3339 3752 4352
1090.0 5083 5779 6425 6959 7535 8158 8865 9531 9999 10000
1130.0 9515 8571 7333 6267 5304 4529 3845 3220 2674 2224
1170.0 1848 1530 1266 1071 933 841 771 739 729 732
1210.0 770 839 914 1014 1149 1288 1417 1594 1785 1987
1250.0 2211 2456 2617 2615 2462 2154 1769 1437 1201 1048
1290.0 962 951 982 1035 1126 1263 1444 1657 1799 1825
1330.0 1730 1559 1400 1290 1267 1317 1390 1449 1561 1700
1370.0 1988 2422 2757 2892 2699 2304 1961 1725 1569 1452
1410.0 1322 1181 1038 881 749 722 773 862 988 1153
1450.0 1391 1628 1923 2038 1959 1825 1549 1297 1078 926
1490.0 742 595 464 343 296 278 265 278 250 216
1530.0 168 143 134 131 96 84 84 80 109 60
1570.0 73 74 88 69 78 67 67 81 63 66
1610.0 51 76 54 67 53 64 56 83 55 64
1650.0 41 104 66 51 67 58 55 64 35 71
1690.0 44 43 57 65 57 51 48 63 79 67
1730.0 78 97 126 109 125 129 126 115 114 98
1770.0 80 100 79 71 67 83 75 68 67 60
1810.0 53 55 52 42 40 42 39 40 48 57
1850.0 47 48 53 52 50 53 55 53 57 54
1890.0 50 49 59 57 49 52 60 60 68 69
1930.0 64 70 74 75 74 80 84 80 93 83
1970.0 90 86 90 98 93 93 101 103 96 98
2010.0 101 92 96 98 88 87 100 95 95 90
2050.0 104 104 88 91 97 98 98 99 104 109
2090.0 120 124 128 136 144 138 133 137 129 115
2130.0 122 116 101 106 104 95 99 99 97 100
2170.0 111 111 108 107 114 119 115 124 124 115
2210.0 118 123 119 115 122 124 115 110 114 104
2250.0 97 102 101 97 103 111 109 100 112 89
2290.0 82 74 66 48 36 14 24 9 9 28
2330.0 36 69 90 95 152 49 4 11 147 224
2370.0 251 273 265 209 161 141 133 124 122 128
2410.0 123 112 120 123 115 113 122 113 111 107
2450.0 109 99 106 102 94 98 101 99 104 107
2490.0 95 99 102 101 106 105 112 119 113 118
2530.0 119 112 118 121 122 121 127 136 132 133
2570.0 141 146 155 162 168 170 183 198 196 211
2610.0 224 223 230 235 242 244 241 258 268 259
2650.0 273 278 270 276 276 267 267 278 275 272
2690.0 286 307 313 330 352 370 386 406 431 447
2730.0 465 493 503 518 540 549 548 548 563 573
2770.0 594 631 655 709 763 828 876 932 982 1011
2810.0 1028 1044 1079 1110 1196 1329 1502 1775 2175 2670
2850.0 3279 3958 4718 5469 6188 6872 7385 7821 8055 7960
2890.0 7629 7108 6555 6112 5881 5798 5859 6002 6282 6613
2930.0 7037 7538 8126 8558 8388 7915 7310 6965 7243 7945
2970.0 8566 8438 7760 6717 5680 4704 3765 2773 1809 1255
3010.0 958 760 650 569 501 436 419 379 336 321
3050.0 293 262 253 254 229 210 206 209 189 177
3090.0 193 182 166 179 171 161 153 154 146 151
3130.0 146 148 127 148 143 111 130 130 130 118
3170.0 138 116 123 116 114 118 113 120 114 96
3210.0 100 102 91 69 80 76 66 70 50 65
3250.0 63 54 47 52 57 58 47 35 38 32
3290.0 27 42 42 20 46 35 36 36 51 37
3330.0 25 36 54 34 45 38 41 44 47 55
3370.0 25 34 53 32 42 40 36 31 24 41
3410.0 47 30 40 37 15 39 34 14 23 23
3450.0 9 3 18 39 28 28 28 25 13 30
3490.0 50 29 46 19 32 31 44 35 30 39
3530.0 57 53 37 41 25 49 62 46 53 52
3570.0 62 65 102 112 122 175 215 339 475 733
3610.0 1085 1570 1940 1971 1742 1251 841 595 468 397
3650.0 406 423 383 381 300 256 199 196 159 109
3690.0 102 122 103 93 117 101 87 85 47 47
3730.0 55 114 67 57 111 80 70 80 73 57
3770.0 19 59 62 73 100 82 49 62 50 59
3810.0 64 75 36 56 62 38 43 52 65 53
3850.0 0 40 94 58 84 41 60 85 74 25
3890.0 43 80 51 62 92 99 82 24 23 80
3930.0 66 79 66 11 80 66 7 81 24 35
##END=
