##TITLE=Propane, 2-(ethylthio)-
##JCAMP-DX=4.24
##DATA TYPE=INFRARED SPECTRUM
##ORIGIN=Sadtler Research Labs Under US-EPA Contract
##OWNER=NIST Standard Reference Data Program
##CAS REGISTRY NO=5145-99-3
##MOLFORM=C 5 H 12 S
##XUNITS=1/CM
##YUNITS=ABSORBANCE
##XFACTOR=1.0
##YFACTOR=0.000155042
##DELTAX=4.0
##FIRSTX=450.0
##LASTX=3966.0
##FIRSTY=0.030078
##MAXX=3966
##MINX=450
##MAXY=1.55042
##MINY=0
##NPOINTS=880
##XYDATA=(X++(Y..Y))
450.0 194 102 135 94 193 89 76 175 61 174
490.0 157 86 92 31 91 133 77 176 121 129
530.0 110 70 106 82 122 76 50 54 9 106
570.0 109 27 136 155 110 124 34 96 128 89
610.0 104 121 149 122 156 169 155 198 212 192
650.0 117 108 70 136 79 86 121 161 108 154
690.0 97 94 83 97 96 94 51 59 97 68
730.0 86 81 116 92 148 145 175 201 181 203
770.0 196 176 158 143 138 143 127 106 98 89
810.0 76 64 67 45 46 39 35 50 42 42
850.0 50 45 59 66 73 95 112 137 114 125
890.0 126 94 83 63 70 86 92 100 113 110
930.0 142 135 135 137 147 157 203 250 307 370
970.0 408 405 420 385 308 238 190 144 124 126
1010.0 121 131 128 164 189 253 306 340 365 423
1050.0 468 478 457 436 430 413 359 298 242 216
1090.0 160 142 152 164 157 159 151 179 180 186
1130.0 222 272 379 528 714 884 963 980 938 826
1170.0 661 456 312 223 171 153 142 153 173 185
1210.0 228 307 438 678 1033 1518 1993 2380 2675 2772
1250.0 2758 2521 2097 1742 1530 1372 1207 1017 829 675
1290.0 541 429 380 366 335 290 276 262 226 201
1330.0 186 181 184 215 263 331 458 597 759 936
1370.0 1065 1267 1402 1435 1356 1272 1017 826 606 471
1410.0 444 416 422 495 562 686 841 1035 1251 1432
1450.0 1581 1737 1755 1739 1614 1435 1297 1025 849 658
1490.0 491 407 316 262 233 193 161 144 140 123
1530.0 98 109 110 92 88 72 80 83 71 71
1570.0 62 64 64 58 69 55 66 61 65 68
1610.0 55 72 61 74 75 67 72 76 76 80
1650.0 70 87 77 74 80 82 75 80 79 91
1690.0 78 75 90 87 92 89 104 128 129 140
1730.0 155 146 140 123 101 81 63 56 46 35
1770.0 33 28 23 22 23 19 29 20 23 28
1810.0 20 24 17 18 19 14 18 7 14 9
1850.0 9 7 5 4 10 7 9 9 7 9
1890.0 8 9 7 7 6 9 8 9 6 6
1930.0 7 9 8 10 8 5 6 5 8 4
1970.0 4 5 5 5 6 7 11 13 14 18
2010.0 15 17 14 14 15 10 10 11 7 10
2050.0 7 7 7 4 5 3 0 1 2 1
2090.0 0 1 1 0 2 2 3 2 3 3
2130.0 3 3 3 2 1 4 2 3 5 6
2170.0 7 10 9 9 9 9 11 8 8 11
2210.0 11 13 12 19 23 24 28 32 35 38
2250.0 41 40 36 36 34 29 28 25 25 27
2290.0 28 28 30 28 28 27 24 17 12 10
2330.0 14 11 11 6 13 18 15 18 13 13
2370.0 16 20 23 26 29 25 25 29 29 32
2410.0 34 35 40 37 39 37 32 25 22 20
2450.0 20 18 20 25 31 34 40 41 41 43
2490.0 41 38 35 31 29 27 23 22 20 18
2530.0 18 20 21 21 22 23 22 25 24 24
2570.0 24 26 27 28 29 35 42 51 61 66
2610.0 64 67 67 56 54 46 42 38 33 32
2650.0 29 32 34 34 36 41 46 52 57 65
2690.0 69 76 81 85 93 102 113 127 142 160
2730.0 172 182 187 173 165 156 143 135 130 126
2770.0 120 117 116 113 114 125 139 158 182 209
2810.0 239 267 303 336 375 410 466 535 608 697
2850.0 810 961 1190 1537 2053 2658 3149 3493 3745 3836
2890.0 3754 3582 3449 3463 3623 3800 4077 4451 4987 5804
2930.0 6576 7014 7141 6928 6734 6536 6546 6912 7775 9058
2970.0 10000 9935 9741 8582 7371 5810 4322 3062 2144 1517
3010.0 1090 829 667 569 492 437 391 352 321 290
3050.0 260 244 224 210 195 188 179 175 169 166
3090.0 159 155 151 150 149 145 144 152 148 150
3130.0 150 155 153 152 157 146 151 145 151 149
3170.0 150 152 155 154 157 157 152 149 146 145
3210.0 135 125 111 101 93 80 71 69 62 58
3250.0 51 54 54 52 55 61 55 53 52 51
3290.0 52 55 50 51 49 43 44 47 44 44
3330.0 44 47 43 32 37 37 35 32 33 30
3370.0 26 24 26 34 34 38 37 42 38 42
3410.0 37 34 30 26 26 29 20 24 24 25
3450.0 23 20 20 18 12 22 23 14 13 16
3490.0 12 18 12 16 17 19 18 20 19 14
3530.0 22 18 14 21 13 20 25 24 20 22
3570.0 25 26 15 16 25 20 27 26 25 23
3610.0 34 26 32 25 22 33 17 20 16 27
3650.0 17 29 8 32 17 28 28 29 18 8
3690.0 29 16 23 11 23 27 26 20 17 10
3730.0 17 24 11 13 28 34 3 13 12 19
3770.0 18 19 11 24 14 7 7 12 10 27
3810.0 16 26 13 39 10 28 42 18 18 16
3850.0 25 31 17 5 16 16 24 16 11 12
3890.0 22 15 34 18 18 9 30 26 32 23
3930.0 20 23 24 16 23 32 17 27 31 44
##END=
