##TITLE=Ethyl 1-methylnipecotate
##JCAMP-DX=4.24
##DATA TYPE=INFRARED SPECTRUM
##ORIGIN=Sadtler Research Labs Under US-EPA Contract
##OWNER=NIST Standard Reference Data Program
##CAS REGISTRY NO=5166-67-6
##MOLFORM=C 9 H 17 N O 2
##XUNITS=1/CM
##YUNITS=ABSORBANCE
##XFACTOR=1.0
##YFACTOR=0.000120050
##DELTAX=4.0
##FIRSTX=450.0
##LASTX=3966.0
##FIRSTY=0.031093
##MAXX=3966
##MINX=450
##MAXY=1.2005
##MINY=0
##NPOINTS=880
##XYDATA=(X++(Y..Y))
450.0 259 217 141 97 164 58 60 155 63 141
490.0 176 76 92 168 139 115 107 172 116 133
530.0 90 126 113 65 91 100 106 7 97 143
570.0 135 54 68 67 41 52 70 95 50 67
610.0 49 82 93 82 83 75 66 40 40 74
650.0 73 112 65 145 133 83 140 124 135 152
690.0 166 208 154 135 129 139 172 129 138 151
730.0 138 197 190 212 246 318 233 242 297 280
770.0 342 325 344 375 370 390 403 376 332 243
810.0 220 164 140 127 125 164 139 203 207 233
850.0 325 403 545 658 689 696 566 439 366 275
890.0 218 156 145 191 219 255 251 207 177 159
930.0 182 213 229 260 256 258 291 311 306 291
970.0 243 235 243 280 355 472 570 671 732 812
1010.0 935 1169 1563 2091 2505 2744 2729 2594 2462 2348
1050.0 2114 1860 1864 1960 1922 1677 1230 996 1037 1321
1090.0 1746 2114 2288 2284 2038 1866 1786 1800 1973 2311
1130.0 2776 3455 4399 5743 7021 8235 9020 8936 8500 7040
1170.0 5955 5634 5707 5815 5313 4452 3752 3387 3531 3850
1210.0 4125 4204 3960 3636 3346 3206 3228 3272 3305 3184
1250.0 3087 2964 2761 2583 2369 2251 2228 2228 2268 2243
1290.0 2230 2306 2529 2946 3292 3418 3259 2771 2295 1842
1330.0 1525 1312 1122 952 804 698 649 688 838 1148
1370.0 1500 1832 2050 2017 1760 1447 1139 880 765 643
1410.0 552 509 445 486 511 641 775 1050 1343 1668
1450.0 1897 2118 2071 2094 2035 1855 1630 1164 835 609
1490.0 395 317 229 190 138 102 77 77 55 66
1530.0 60 68 68 29 59 64 59 59 57 68
1570.0 63 55 76 50 73 60 79 53 69 72
1610.0 56 92 58 101 90 136 127 129 125 110
1650.0 80 98 124 118 158 176 187 236 227 254
1690.0 282 295 320 412 506 645 749 920 1198 1641
1730.0 2284 3158 4785 6291 7737 10000 8159 7910 5603 3587
1770.0 2450 1422 994 688 491 379 284 229 171 157
1810.0 129 107 96 82 66 62 46 51 36 24
1850.0 34 35 33 36 32 29 36 46 46 48
1890.0 53 53 55 52 42 42 29 29 22 20
1930.0 20 14 16 6 11 13 13 16 16 14
1970.0 18 17 20 21 20 14 20 29 30 32
2010.0 36 32 36 31 38 38 38 40 41 40
2050.0 33 31 27 27 22 25 21 20 21 16
2090.0 12 13 15 11 14 12 11 13 11 8
2130.0 4 2 4 5 3 3 5 3 4 9
2170.0 9 9 12 10 8 9 7 5 2 2
2210.0 2 0 5 7 9 10 8 7 7 4
2250.0 7 4 8 6 7 6 8 13 14 16
2290.0 18 19 23 23 21 24 20 23 17 14
2330.0 11 14 15 14 19 15 15 21 18 20
2370.0 34 35 24 28 25 20 21 18 18 16
2410.0 20 23 24 20 20 17 12 9 12 11
2450.0 11 10 12 18 17 21 17 18 21 24
2490.0 24 26 28 28 30 34 35 33 30 27
2530.0 27 30 31 37 39 45 49 52 54 50
2570.0 56 55 56 65 69 75 85 96 103 107
2610.0 112 120 123 131 135 144 151 158 180 194
2650.0 219 252 279 306 337 369 403 441 479 509
2690.0 538 576 628 683 747 819 875 910 920 918
2730.0 934 975 1038 1121 1202 1276 1377 1544 1834 2242
2770.0 2726 3302 3969 4582 4984 4981 4482 3734 3000 2400
2810.0 1918 1518 1206 975 838 805 861 1016 1237 1487
2850.0 1678 1748 1742 1737 1746 1760 1730 1676 1640 1633
2890.0 1674 1745 1855 2004 2158 2322 2455 2568 2743 3042
2930.0 3560 4375 5494 6988 8590 9185 8514 6919 5235 4297
2970.0 4030 4060 4074 3916 3467 2816 2249 1732 1364 1129
3010.0 912 729 579 458 374 311 265 227 203 181
3050.0 158 147 134 129 124 119 116 113 106 106
3090.0 100 94 93 85 82 76 77 73 64 61
3130.0 58 62 63 55 50 52 51 48 50 52
3170.0 50 49 53 56 60 53 52 53 53 52
3210.0 48 51 47 38 35 33 27 20 18 21
3250.0 11 12 13 15 14 6 10 9 8 7
3290.0 10 8 6 10 15 7 13 13 11 18
3330.0 9 8 19 16 23 14 19 21 19 19
3370.0 10 13 21 17 15 12 13 19 19 16
3410.0 4 0 10 12 19 9 11 9 13 27
3450.0 19 30 38 45 59 73 77 102 97 91
3490.0 82 68 45 49 31 33 21 19 17 14
3530.0 16 14 17 15 13 17 17 17 11 33
3570.0 36 27 25 18 28 16 22 15 16 9
3610.0 21 16 26 18 11 28 25 9 11 28
3650.0 25 36 16 25 16 28 16 42 18 13
3690.0 16 11 24 20 25 29 44 31 18 24
3730.0 13 38 39 24 34 36 36 30 26 31
3770.0 16 27 16 26 16 14 29 31 19 47
3810.0 19 29 16 39 20 33 32 38 31 19
3850.0 32 13 50 39 32 41 25 32 28 45
3890.0 48 66 45 36 37 39 46 48 46 60
3930.0 47 26 31 51 71 45 61 24 70 50
##END=
