##TITLE=Benzene, 1,5-dimethyl-2,4-bis(1-methylethyl)-
##JCAMP-DX=4.24
##DATA TYPE=INFRARED SPECTRUM
##ORIGIN=Sadtler Research Labs Under US-EPA Contract
##OWNER=NIST Standard Reference Data Program
##CAS REGISTRY NO=5186-68-5
##MOLFORM=C 14 H 22
##XUNITS=1/CM
##YUNITS=ABSORBANCE
##XFACTOR=1.0
##YFACTOR=0.000185855
##DELTAX=4.0
##FIRSTX=450.0
##LASTX=3966.0
##FIRSTY=0.007062
##MAXX=3966
##MINX=450
##MAXY=1.85855
##MINY=0
##NPOINTS=880
##XYDATA=(X++(Y..Y))
450.0 38 46 83 95 133 180 226 256 208 180
490.0 146 115 83 44 37 41 35 31 23 26
530.0 26 21 32 32 36 46 43 59 58 63
570.0 51 39 27 27 27 15 16 13 20 24
610.0 19 21 29 36 57 58 45 32 26 29
650.0 27 28 28 26 24 30 11 7 8 7
690.0 0 0 1 2 2 4 8 12 17 29
730.0 41 47 52 28 19 4 12 20 32 59
770.0 105 128 124 91 62 44 39 31 22 24
810.0 35 34 35 23 17 13 17 16 15 20
850.0 28 45 83 161 255 372 325 293 312 365
890.0 466 378 254 148 83 53 50 52 59 56
930.0 47 35 29 24 26 24 24 22 23 26
970.0 31 41 49 59 75 88 103 133 175 226
1010.0 286 338 352 317 252 190 159 140 136 155
1050.0 206 258 268 245 192 166 163 166 169 177
1090.0 198 236 296 354 372 343 325 332 337 323
1130.0 281 227 177 139 119 123 146 175 181 165
1170.0 128 101 87 82 83 90 105 128 170 218
1210.0 231 201 136 90 75 75 82 97 126 181
1250.0 287 418 483 439 309 202 171 165 164 158
1290.0 157 155 160 170 179 184 181 172 162 153
1330.0 151 153 167 198 262 327 378 446 551 728
1370.0 818 661 541 445 402 398 421 437 439 396
1410.0 323 274 255 263 291 325 377 434 522 639
1450.0 784 964 1181 1361 1395 1302 1077 861 681 578
1490.0 557 641 850 1163 1310 1180 807 442 261 190
1530.0 160 138 126 105 113 113 111 96 98 103
1570.0 91 91 74 82 75 70 69 71 75 88
1610.0 95 93 72 66 55 48 40 34 41 30
1650.0 34 9 36 34 38 31 37 37 39 27
1690.0 46 52 68 98 139 188 197 167 117 74
1730.0 73 68 75 69 65 61 64 61 58 63
1770.0 67 70 81 75 76 92 112 125 106 66
1810.0 40 29 24 19 15 12 13 12 14 9
1850.0 15 14 12 13 13 12 15 16 19 21
1890.0 23 29 30 30 29 24 21 14 14 15
1930.0 15 13 11 12 11 9 10 10 8 10
1970.0 10 11 13 13 13 13 13 14 12 13
2010.0 13 11 10 10 9 10 10 10 10 11
2050.0 9 10 10 9 10 10 9 11 10 10
2090.0 9 10 10 10 10 10 10 10 10 11
2130.0 10 9 10 11 9 9 10 10 12 10
2170.0 11 11 11 10 11 11 12 11 13 11
2210.0 13 14 14 15 17 19 19 21 24 24
2250.0 25 23 22 20 19 19 14 11 10 8
2290.0 7 4 4 2 0 1 4 8 13 15
2330.0 17 19 19 15 10 3 25 19 18 17
2370.0 14 13 14 14 18 25 29 31 31 30
2410.0 29 30 28 27 27 25 24 23 23 23
2450.0 25 25 27 30 32 34 35 33 30 28
2490.0 26 25 22 21 18 16 16 15 15 15
2530.0 15 15 15 15 16 16 18 17 19 21
2570.0 21 25 28 31 36 41 44 46 45 43
2610.0 39 36 34 30 28 31 30 32 33 35
2650.0 38 39 42 45 46 46 45 46 46 46
2690.0 46 50 54 58 66 79 94 112 125 132
2730.0 136 136 135 137 133 130 124 120 123 126
2770.0 123 117 111 109 111 114 117 125 137 152
2810.0 169 185 198 208 220 235 258 286 329 386
2850.0 457 538 637 775 1014 1452 2088 2683 2934 2701
2890.0 2294 1999 1882 1857 1871 1908 1976 2064 2238 2601
2930.0 3173 3822 4249 4210 3803 3366 3290 4217 6761 9437
2970.0 10000 8278 5598 3582 2308 1661 1370 1236 1169 1162
3010.0 1231 1334 1351 1214 957 685 497 400 358 335
3050.0 324 314 302 285 265 247 230 219 208 199
3090.0 191 180 175 174 170 167 167 168 168 166
3130.0 158 143 128 114 101 96 94 95 96 100
3170.0 99 100 98 96 93 89 83 80 76 72
3210.0 69 68 63 59 53 49 44 40 35 35
3250.0 30 29 25 20 19 19 15 16 14 15
3290.0 14 13 16 15 16 14 14 15 14 11
3330.0 11 11 12 13 11 14 12 13 13 15
3370.0 15 20 23 23 20 20 25 23 21 19
3410.0 18 17 18 19 20 18 19 19 13 15
3450.0 14 12 15 13 11 11 14 12 12 15
3490.0 11 14 14 15 16 15 14 16 16 19
3530.0 12 12 14 11 19 15 13 15 9 16
3570.0 17 16 15 15 14 15 14 11 10 13
3610.0 14 12 8 11 13 11 14 13 16 14
3650.0 10 12 12 11 8 5 5 0 11 10
3690.0 6 9 13 13 11 6 7 8 13 14
3730.0 9 11 10 9 0 4 5 13 7 8
3770.0 10 16 12 8 9 14 12 13 11 15
3810.0 10 9 14 14 14 17 13 12 12 16
3850.0 17 6 14 14 20 20 16 15 17 14
3890.0 16 17 17 17 16 16 17 10 16 6
3930.0 8 14 7 3 5 11 13 14 16 9
##END=
