##TITLE=Cycloheptane, trans-1,2-dibromo-,
##JCAMP-DX=4.24
##DATA TYPE=INFRARED SPECTRUM
##ORIGIN=Sadtler Research Labs Under US-EPA Contract
##OWNER=NIST Standard Reference Data Program
##CAS REGISTRY NO=52021-35-9
##MOLFORM=C 7 H 12 Br 2
##XUNITS=1/CM
##YUNITS=ABSORBANCE
##XFACTOR=1.0
##YFACTOR=0.000118158
##DELTAX=4.0
##FIRSTX=450.0
##LASTX=3966.0
##FIRSTY=0.000000
##MAXX=3966
##MINX=450
##MAXY=1.18158
##MINY=0
##NPOINTS=880
##XYDATA=(X++(Y..Y))
450.0 0 51 189 161 182 120 193 186 146 163
490.0 219 222 257 189 228 253 315 482 525 727
530.0 1002 1319 1743 1747 1550 1077 641 527 369 304
570.0 306 248 306 233 251 378 463 591 702 755
610.0 623 381 239 126 135 159 135 152 168 241
650.0 276 327 367 367 369 393 425 492 531 568
690.0 611 550 568 582 607 629 598 494 373 362
730.0 396 408 456 321 410 543 482 235 202 182
770.0 157 177 157 171 167 177 166 171 170 148
810.0 212 283 338 339 308 220 166 180 215 246
850.0 286 277 281 230 216 204 243 329 366 393
890.0 368 331 351 403 517 625 702 732 690 612
930.0 539 471 499 527 573 597 557 506 455 387
970.0 327 255 172 131 123 154 232 369 544 636
1010.0 602 464 296 213 173 125 142 124 125 120
1050.0 109 119 189 254 324 359 347 297 205 164
1090.0 139 133 164 204 305 445 562 655 610 470
1130.0 315 306 368 492 644 748 874 1094 1258 1283
1170.0 1106 734 465 321 258 320 394 536 646 754
1210.0 822 936 1018 1047 988 861 725 634 578 574
1250.0 569 520 446 360 285 246 231 239 230 213
1290.0 208 199 194 193 189 191 180 199 231 267
1330.0 307 352 353 346 345 346 345 349 352 365
1370.0 356 310 237 164 130 123 113 111 115 115
1410.0 146 177 231 344 498 760 1045 1304 1478 1509
1450.0 1578 1697 1744 1798 1540 1230 941 634 433 307
1490.0 219 186 154 148 137 113 86 113 92 69
1530.0 68 71 87 86 86 61 78 86 89 68
1570.0 60 66 56 58 46 41 56 41 63 66
1610.0 45 67 55 78 53 71 56 79 60 63
1650.0 100 81 94 39 78 62 78 64 62 85
1690.0 67 61 92 110 71 66 61 80 74 61
1730.0 93 73 104 91 94 101 77 84 98 94
1770.0 94 102 86 72 73 73 83 65 53 67
1810.0 56 52 58 61 55 66 52 75 62 61
1850.0 53 60 65 53 47 54 61 53 59 58
1890.0 47 52 54 60 52 54 55 60 53 57
1930.0 52 47 59 52 63 58 60 59 53 62
1970.0 55 55 55 58 64 52 63 54 63 59
2010.0 68 61 63 58 59 64 64 62 57 62
2050.0 58 62 62 61 58 63 61 58 65 64
2090.0 62 60 60 59 60 63 61 62 64 64
2130.0 61 66 64 67 66 67 72 74 74 69
2170.0 77 70 69 70 71 68 68 67 71 69
2210.0 68 72 72 72 71 72 76 69 74 70
2250.0 76 71 77 75 77 76 72 73 75 74
2290.0 77 62 62 61 61 53 54 54 54 51
2330.0 62 58 61 59 76 64 68 62 48 68
2370.0 74 75 73 69 68 68 69 63 67 68
2410.0 69 70 69 75 75 76 78 81 80 77
2450.0 78 75 73 76 75 73 72 72 68 70
2490.0 70 70 68 65 69 73 70 71 74 78
2530.0 81 80 83 88 88 89 89 91 91 91
2570.0 94 94 97 94 90 88 91 85 85 87
2610.0 87 91 89 92 90 89 93 96 97 100
2650.0 107 109 116 126 136 143 148 156 160 168
2690.0 174 181 188 187 182 172 159 151 143 141
2730.0 134 130 127 119 111 110 110 113 107 111
2770.0 114 117 128 134 141 148 165 177 193 206
2810.0 215 221 231 245 260 283 306 352 424 534
2850.0 683 871 1122 1459 1848 2215 2440 2387 2110 1771
2890.0 1495 1366 1356 1446 1633 1864 2141 2452 2873 3575
2930.0 4742 6496 8402 9562 10000 8965 7306 5409 3623 2289
2970.0 1511 1110 925 874 805 683 555 430 327 268
3010.0 236 226 223 220 215 205 202 187 165 152
3050.0 137 126 121 118 115 112 102 102 101 100
3090.0 99 96 88 90 90 90 93 95 89 89
3130.0 93 93 91 91 90 93 89 87 82 89
3170.0 84 83 80 81 83 77 80 85 80 83
3210.0 80 81 85 92 92 91 94 94 90 87
3250.0 89 94 100 92 100 89 88 86 87 88
3290.0 88 90 88 83 90 84 82 84 90 88
3330.0 83 82 80 76 76 80 80 82 82 79
3370.0 81 83 79 71 76 82 77 79 82 79
3410.0 76 87 85 78 76 86 79 81 87 85
3450.0 81 89 86 81 86 80 78 76 85 77
3490.0 87 82 78 73 70 71 76 77 74 72
3530.0 68 68 73 76 75 75 86 66 71 62
3570.0 74 84 73 77 59 73 68 73 65 67
3610.0 65 62 70 70 69 88 83 83 70 64
3650.0 87 73 91 52 78 52 94 69 77 73
3690.0 57 95 54 72 65 67 77 63 67 59
3730.0 56 79 67 67 85 84 78 72 72 67
3770.0 68 73 73 70 65 68 86 67 74 88
3810.0 93 67 103 83 87 91 93 86 85 95
3850.0 83 109 75 106 98 105 115 110 95 110
3890.0 92 112 89 122 100 113 73 90 77 114
3930.0 121 98 89 105 117 104 89 95 101 127
##END=
