##TITLE=Nonanophenone, 2-phenyl-,
##JCAMP-DX=4.24
##DATA TYPE=INFRARED SPECTRUM
##ORIGIN=Sadtler Research Labs Under US-EPA Contract
##OWNER=NIST Standard Reference Data Program
##CAS REGISTRY NO=52072-38-5
##MOLFORM=C 21 H 26 O
##XUNITS=1/CM
##YUNITS=ABSORBANCE
##XFACTOR=1.0
##YFACTOR=0.000033157
##DELTAX=4.0
##FIRSTX=450.0
##LASTX=3966.0
##FIRSTY=0.006068
##MAXX=3966
##MINX=450
##MAXY=0.33157
##MINY=0
##NPOINTS=880
##XYDATA=(X++(Y..Y))
450.0 183 114 110 68 61 80 6 28 97 148
490.0 185 158 229 253 273 411 361 381 313 304
530.0 326 330 332 306 301 339 357 301 274 318
570.0 390 544 679 832 801 709 621 498 355 244
610.0 197 209 265 232 184 179 220 263 280 390
650.0 546 764 881 926 956 1165 1262 1299 1605 2170
690.0 3213 4897 6695 5655 3432 2098 1584 1412 1330 1234
730.0 1263 1351 1508 1787 2086 2260 2059 1565 1075 822
770.0 723 629 542 441 359 317 258 265 266 312
810.0 329 291 272 308 344 378 395 352 345 330
850.0 291 260 243 229 244 249 252 259 257 264
890.0 271 290 303 343 356 394 433 491 598 696
930.0 744 740 711 692 708 757 858 956 1035 1077
970.0 1067 1022 999 1002 1022 1013 973 993 1093 994
1010.0 724 586 576 620 736 809 682 454 338 301
1050.0 334 366 390 451 525 611 615 532 430 369
1090.0 367 372 387 378 387 373 355 325 285 248
1130.0 228 223 248 266 299 357 459 585 676 841
1170.0 1150 1681 2264 2377 1915 1543 1582 1786 1931 2127
1210.0 2312 2382 2316 2085 1825 1653 1574 1618 1702 1771
1250.0 1817 1871 1910 1892 1790 1659 1556 1477 1424 1354
1290.0 1262 1165 1058 960 877 857 905 954 991 998
1330.0 1030 1122 1250 1410 1478 1407 1266 1085 923 797
1370.0 710 634 604 603 521 416 311 252 225 233
1410.0 208 241 223 280 311 393 500 744 1226 1922
1450.0 2299 2072 1625 1345 1184 1009 781 629 616 701
1490.0 932 1267 1186 802 405 207 163 113 92 112
1530.0 130 146 137 81 99 113 118 71 140 194
1570.0 268 416 620 784 807 841 1021 1262 1226 901
1610.0 556 360 270 232 177 169 157 142 176 202
1650.0 216 288 377 458 513 666 846 1306 1755 2558
1690.0 3739 5617 7034 6203 3891 2382 1515 1068 782 644
1730.0 510 393 378 343 353 330 419 393 377 368
1770.0 364 267 210 165 151 162 203 267 273 287
1810.0 234 182 146 111 78 48 39 35 28 16
1850.0 30 41 44 58 66 82 102 109 109 119
1890.0 124 121 105 99 95 85 70 55 56 61
1930.0 75 97 137 163 170 180 204 203 165 122
1970.0 111 85 52 32 21 8 1 4 7 2
2010.0 4 7 1 1 8 12 14 17 8 3
2050.0 4 9 13 11 2 0 5 0 2 7
2090.0 5 7 6 3 6 6 11 6 0 6
2130.0 1 1 5 8 5 7 7 9 15 19
2170.0 13 19 17 15 20 17 17 9 12 11
2210.0 14 13 11 9 11 12 8 8 9 20
2250.0 20 19 23 25 23 19 33 42 50 55
2290.0 61 79 90 97 98 133 146 140 126 100
2330.0 93 87 95 110 134 123 113 95 108 85
2370.0 97 98 107 110 88 55 51 44 46 50
2410.0 44 45 41 39 36 34 34 37 31 28
2450.0 30 36 31 29 26 28 29 24 26 34
2490.0 34 29 30 31 28 35 35 41 44 43
2530.0 41 37 42 49 50 53 55 52 50 55
2570.0 57 63 64 72 80 81 82 87 88 88
2610.0 95 90 83 86 92 102 96 98 101 107
2650.0 99 103 111 112 125 129 123 128 128 133
2690.0 143 134 140 140 137 146 146 153 148 149
2730.0 153 165 172 171 168 177 167 162 167 181
2770.0 193 204 222 225 251 261 277 304 331 352
2810.0 367 404 441 483 528 589 661 770 913 1159
2850.0 1561 2229 3141 3925 4134 3835 3329 2917 2772 2680
2890.0 2497 2401 2518 2797 3213 3746 4369 5162 6349 7953
2930.0 9459 10000 9369 8216 7000 6030 5350 4983 4903 4991
2970.0 4743 3772 2579 1806 1384 1125 967 861 824 824
3010.0 805 792 871 1098 1490 1896 2016 1772 1449 1208
3050.0 1089 1161 1389 1803 2404 3071 3186 2461 1774 1655
3090.0 1670 1444 1099 859 733 612 476 335 251 208
3130.0 183 163 145 145 132 132 132 152 134 120
3170.0 109 100 86 76 68 73 64 53 52 53
3210.0 49 50 50 41 32 36 38 34 24 32
3250.0 26 26 37 38 36 17 28 34 36 30
3290.0 28 31 29 32 32 19 28 25 32 38
3330.0 31 46 41 26 31 44 47 52 67 60
3370.0 92 94 94 77 58 45 48 40 35 29
3410.0 44 36 25 31 26 29 34 27 24 25
3450.0 36 35 29 24 20 24 33 10 32 34
3490.0 44 42 32 26 18 8 27 27 30 13
3530.0 38 28 27 25 36 16 30 18 22 27
3570.0 49 63 84 80 90 104 81 61 34 37
3610.0 51 28 37 22 27 34 39 62 54 66
3650.0 64 46 76 69 56 51 39 41 30 48
3690.0 43 55 42 60 50 67 52 53 42 55
3730.0 41 32 27 39 43 41 51 27 51 57
3770.0 34 27 14 35 24 34 25 32 43 24
3810.0 56 50 44 6 22 30 39 50 28 45
3850.0 9 39 19 26 50 39 27 22 46 49
3890.0 42 32 33 50 71 11 49 47 23 52
3930.0 64 30 9 53 42 32 62 37 60 47
##END=
