##TITLE=2-Methoxyphenylacetone
##JCAMP-DX=4.24
##DATA TYPE=INFRARED SPECTRUM
##ORIGIN=Sadtler Research Labs Under US-EPA Contract
##OWNER=NIST Standard Reference Data Program
##CAS REGISTRY NO=5211-62-1
##MOLFORM=C 10 H 12 O 2
##XUNITS=1/CM
##YUNITS=ABSORBANCE
##XFACTOR=1.0
##YFACTOR=0.000078784
##DELTAX=4.0
##FIRSTX=450.0
##LASTX=3966.0
##FIRSTY=0.021035
##MAXX=3966
##MINX=450
##MAXY=0.78784
##MINY=0
##NPOINTS=880
##XYDATA=(X++(Y..Y))
450.0 267 264 300 223 257 202 263 145 276 250
490.0 262 280 323 392 446 671 741 881 926 956
530.0 906 935 836 667 613 467 475 319 393 325
570.0 380 306 320 294 203 214 171 177 114 164
610.0 118 151 187 251 264 212 221 109 173 96
650.0 120 91 159 40 89 97 28 84 6 41
690.0 43 39 30 94 195 287 471 606 640 526
730.0 630 790 1292 2147 3190 4401 4358 3487 2553 1605
770.0 978 659 448 369 344 260 196 155 151 149
810.0 140 141 146 165 190 226 265 326 353 362
850.0 318 283 217 159 123 94 93 73 89 64
890.0 62 60 76 79 59 74 68 86 91 125
930.0 121 113 92 71 72 81 105 128 189 238
970.0 314 336 389 421 432 434 451 484 543 625
1010.0 714 849 1051 1342 1714 2131 2511 2734 2861 2901
1050.0 2699 2324 1866 1261 753 476 373 346 313 344
1090.0 374 477 663 1059 1626 2181 2506 2494 2147 1606
1130.0 1224 1042 1055 1264 1673 2200 2654 2837 2714 2455
1170.0 2284 2248 2242 2196 2020 1761 1582 1514 1573 1735
1210.0 2030 2405 2768 3048 3257 3634 4455 6019 8030 9600
1250.0 10000 9023 6731 4389 2920 2184 1893 1887 2062 2254
1290.0 2355 2322 2140 1910 1754 1725 1759 1809 1774 1650
1330.0 1452 1265 1175 1198 1399 1828 2365 2793 2841 2422
1370.0 1792 1289 965 800 749 710 706 705 715 756
1410.0 842 918 1080 1090 1155 1243 1497 1821 2004 1972
1450.0 1981 1898 2181 2656 2998 3027 2892 2765 2755 3507
1490.0 4614 5604 5771 5197 3877 2389 1466 930 721 496
1530.0 444 347 378 349 338 278 326 364 373 371
1570.0 464 569 808 1049 1371 1637 1838 1893 1785 1587
1610.0 1302 996 675 458 326 269 230 258 199 256
1650.0 220 326 251 268 317 369 431 508 617 769
1690.0 854 997 1226 1481 1727 2105 2706 3722 5000 6315
1730.0 7198 7343 6686 5711 4744 3699 2772 2116 1632 1400
1770.0 1268 1194 1034 935 761 652 614 606 556 494
1810.0 438 353 274 216 194 158 143 102 130 127
1850.0 119 108 116 110 119 129 108 121 139 173
1890.0 204 213 191 157 128 108 110 114 153 168
1930.0 173 157 139 112 84 78 63 63 79 72
1970.0 80 71 76 79 97 112 126 146 158 173
2010.0 176 180 168 165 151 151 138 146 146 148
2050.0 157 169 166 160 178 172 171 160 159 142
2090.0 132 121 114 110 102 101 94 101 100 98
2130.0 106 109 112 107 114 114 116 111 116 111
2170.0 100 108 100 98 101 101 97 100 97 101
2210.0 103 104 106 99 101 99 93 93 96 95
2250.0 99 99 97 97 95 100 95 91 84 81
2290.0 75 54 63 36 31 5 19 4 7 34
2330.0 33 43 42 136 4 95 5 9 31 102
2370.0 111 157 142 110 81 71 64 63 69 61
2410.0 67 60 60 58 59 65 54 57 58 63
2450.0 61 61 63 68 68 72 81 87 94 103
2490.0 103 100 92 90 81 82 76 84 91 95
2530.0 98 104 105 102 104 94 85 76 74 74
2570.0 73 81 70 72 73 73 79 81 84 87
2610.0 85 82 86 78 77 67 59 68 66 63
2650.0 55 46 30 20 5 6 7 18 16 23
2690.0 36 54 63 61 75 74 73 66 65 65
2730.0 70 70 70 70 72 74 76 79 76 82
2770.0 85 84 90 86 104 104 108 115 134 156
2810.0 175 200 225 259 305 414 608 951 1312 1505
2850.0 1525 1324 975 711 561 494 474 477 511 559
2890.0 653 755 883 1044 1236 1473 1670 1806 1820 1775
2930.0 1761 1799 1915 2124 2303 2417 2439 2347 2236 2011
2970.0 1691 1423 1172 994 889 876 972 1206 1543 1817
3010.0 1915 1795 1516 1270 1206 1284 1375 1375 1258 1073
3050.0 957 920 962 1040 1116 1220 1339 1456 1483 1390
3090.0 1204 920 680 514 441 409 388 345 302 252
3130.0 211 173 153 132 132 123 118 129 120 128
3170.0 130 129 148 128 126 127 119 112 105 107
3210.0 103 107 94 96 101 86 93 78 97 88
3250.0 91 72 83 76 87 63 79 91 95 82
3290.0 86 83 78 82 76 80 84 80 65 46
3330.0 67 54 76 80 73 74 75 86 71 70
3370.0 63 53 74 68 66 83 76 84 86 95
3410.0 92 96 76 95 132 125 143 147 144 156
3450.0 165 146 146 117 110 81 98 94 50 71
3490.0 73 84 44 34 56 37 57 62 66 50
3530.0 43 39 24 24 46 49 57 44 98 81
3570.0 84 88 87 113 106 59 118 64 93 56
3610.0 52 49 69 53 38 65 30 43 57 26
3650.0 75 71 100 23 49 30 47 66 34 80
3690.0 48 72 52 45 59 55 56 85 59 71
3730.0 48 71 40 111 33 106 55 64 76 42
3770.0 92 70 53 75 70 90 72 49 83 10
3810.0 97 8 73 28 47 76 67 65 21 46
3850.0 80 78 55 65 64 47 98 57 37 50
3890.0 61 44 105 70 64 54 28 8 62 73
3930.0 42 73 53 6 13 0 24 5 4 40
##END=
