##TITLE=Benzene, 1-chloro-4-(trichloromethyl)-
##JCAMP-DX=4.24
##DATA TYPE=INFRARED SPECTRUM
##ORIGIN=Sadtler Research Labs Under US-EPA Contract
##OWNER=NIST Standard Reference Data Program
##CAS REGISTRY NO=5216-25-1
##MOLFORM=C 7 H 4 Cl 4
##XUNITS=1/CM
##YUNITS=ABSORBANCE
##XFACTOR=1.0
##YFACTOR=0.000050717
##DELTAX=4.0
##FIRSTX=450.0
##LASTX=3966.0
##FIRSTY=0.010853
##MAXX=3966
##MINX=450
##MAXY=0.50717
##MINY=0
##NPOINTS=880
##XYDATA=(X++(Y..Y))
450.0 214 185 288 434 654 968 1417 1768 1893 1569
490.0 945 400 111 97 233 328 338 328 331 208
530.0 150 87 76 41 47 90 92 62 118 138
570.0 51 58 32 30 2 22 23 11 17 43
610.0 55 92 143 193 257 321 343 346 305 236
650.0 189 141 129 131 179 271 391 586 801 1079
690.0 1339 1571 1733 1646 1416 1144 923 719 658 753
730.0 1033 1513 2140 2933 3760 4639 5739 7173 8829 10000
770.0 9126 7405 5286 3299 2117 2033 2798 4158 5598 6394
810.0 6084 5004 3857 2658 1702 1194 929 869 912 1100
850.0 1472 2086 2991 4139 5181 6194 5869 4346 2402 1070
890.0 616 412 321 246 201 161 132 119 102 101
930.0 100 110 130 150 160 160 147 138 118 97
970.0 88 84 85 84 84 94 124 176 272 533
1010.0 1165 2352 2479 1907 766 478 351 172 127 135
1050.0 155 175 185 195 205 271 419 644 1013 1545
1090.0 2348 3983 6374 6712 4555 1565 425 234 196 184
1130.0 152 144 133 124 120 130 160 220 313 489
1170.0 775 1317 2386 3533 3516 2470 1182 905 818 671
1210.0 482 293 198 143 134 125 114 123 107 107
1250.0 125 127 136 125 135 135 147 135 116 82
1290.0 79 83 105 125 138 145 153 168 194 208
1330.0 206 185 141 128 145 140 147 151 151 155
1370.0 157 150 206 315 463 670 865 1025 1089 1047
1410.0 902 681 461 304 201 141 108 105 135 171
1450.0 235 380 452 448 324 263 312 590 1291 2826
1490.0 4736 4782 3039 1003 443 272 210 115 64 71
1530.0 68 77 97 83 111 150 143 148 213 299
1570.0 371 462 542 691 999 1598 2304 2347 1741 844
1610.0 394 194 108 108 82 98 76 82 101 126
1650.0 132 140 166 167 142 97 64 50 18 15
1690.0 20 36 13 5 23 48 26 21 53 72
1730.0 77 79 123 165 207 261 342 466 569 614
1770.0 700 632 553 488 466 473 458 438 344 294
1810.0 242 182 128 96 67 42 43 48 36 15
1850.0 24 30 28 28 15 18 38 51 63 86
1890.0 115 145 179 192 184 166 145 104 62 49
1930.0 50 39 33 29 19 34 25 34 34 31
1970.0 34 35 25 25 25 18 11 21 17 16
2010.0 18 16 14 26 27 37 47 57 54 66
2050.0 78 77 60 57 40 39 28 30 20 20
2090.0 19 20 20 20 21 21 11 11 11 11
2130.0 13 13 11 13 13 13 3 8 12 12
2170.0 14 14 14 15 23 14 16 24 15 24
2210.0 14 14 14 15 15 15 15 15 16 15
2250.0 15 15 15 16 14 26 19 23 22 20
2290.0 29 25 32 42 47 42 44 43 29 19
2330.0 13 0 0 6 16 41 36 50 44 34
2370.0 33 39 47 46 43 37 40 31 31 21
2410.0 22 11 15 14 17 24 23 11 16 24
2450.0 23 23 22 33 33 33 31 26 14 15
2490.0 22 20 18 16 15 16 16 26 26 29
2530.0 29 40 38 56 55 48 40 27 27 19
2570.0 19 27 28 29 31 34 29 29 28 30
2610.0 30 19 20 10 10 11 11 11 11 12
2650.0 12 11 11 22 21 41 41 42 22 29
2690.0 25 26 22 28 27 17 25 14 15 24
2730.0 33 14 17 17 24 42 46 36 42 52
2770.0 60 90 108 76 65 39 28 53 48 19
2810.0 13 15 15 49 12 21 21 22 42 39
2850.0 13 4 12 12 24 13 8 12 23 15
2890.0 4 5 6 6 24 6 6 6 5 34
2930.0 12 8 8 7 47 8 9 8 35 35
2970.0 15 15 20 53 11 11 11 49 21 22
3010.0 13 35 28 19 17 46 30 32 51 72
3050.0 54 62 64 73 65 73 88 96 117 138
3090.0 148 115 123 122 123 114 95 64 46 36
3130.0 26 31 28 33 32 42 30 31 22 13
3170.0 13 12 13 5 8 15 13 8 11 26
3210.0 14 25 16 16 26 28 24 22 17 23
3250.0 15 9 19 27 17 19 19 29 18 23
3290.0 30 19 30 28 36 28 20 30 13 31
3330.0 31 34 28 13 24 23 35 21 23 11
3370.0 25 34 34 35 27 25 24 17 16 31
3410.0 43 28 18 15 9 28 37 28 19 19
3450.0 19 40 34 36 32 28 27 22 32 31
3490.0 22 23 30 31 38 40 23 28 41 20
3530.0 35 34 26 34 27 47 16 37 36 44
3570.0 46 74 122 142 136 120 87 50 8 42
3610.0 29 20 20 31 22 12 23 28 33 23
3650.0 26 35 43 19 23 15 29 19 42 33
3690.0 38 24 34 46 35 37 20 38 38 50
3730.0 50 54 30 24 42 34 33 42 52 33
3770.0 43 34 39 46 31 47 43 47 47 48
3810.0 39 38 50 60 41 46 32 21 35 22
3850.0 29 29 33 34 36 25 8 16 27 38
3890.0 38 33 29 30 40 48 55 61 50 49
3930.0 42 42 42 42 39 35 39 42 55 55
##END=
