##TITLE=Benzenemethanol, 2-chloro-4-nitro-
##JCAMP-DX=4.24
##DATA TYPE=INFRARED SPECTRUM
##ORIGIN=Sadtler Research Labs Under US-EPA Contract
##OWNER=NIST Standard Reference Data Program
##CAS REGISTRY NO=52301-88-9
##MOLFORM=C 7 H 6 Cl N O 3
##XUNITS=1/CM
##YUNITS=ABSORBANCE
##XFACTOR=1.0
##YFACTOR=0.000077493
##DELTAX=4.0
##FIRSTX=450.0
##LASTX=3966.0
##FIRSTY=0.000000
##MAXX=3966
##MINX=450
##MAXY=0.77493
##MINY=0
##NPOINTS=880
##XYDATA=(X++(Y..Y))
450.0 0 286 357 478 442 608 563 405 535 379
490.0 418 439 392 398 341 352 328 257 170 225
530.0 184 286 349 433 400 327 520 476 218 160
570.0 278 145 257 349 266 286 283 325 341 298
610.0 335 379 328 346 382 410 343 393 421 403
650.0 386 323 331 397 268 412 294 376 355 450
690.0 505 531 615 695 839 923 1094 1222 1429 1614
730.0 1734 2014 1985 1864 1432 1153 804 602 550 490
770.0 528 519 598 771 1155 1854 2534 2899 2761 2144
810.0 1602 1222 1086 1138 1181 1363 1559 1559 1355 1095
850.0 847 706 618 547 615 646 682 862 1159 1550
890.0 1834 1859 1732 1289 876 606 441 380 280 278
930.0 319 331 361 446 478 562 554 587 636 584
970.0 621 598 586 613 652 741 733 851 937 1077
1010.0 1218 1473 1745 2234 2619 3012 3229 3261 3005 2568
1050.0 2352 2143 2103 1960 1767 1557 1317 1113 907 833
1090.0 738 804 862 1018 1193 1405 1533 1567 1614 1557
1130.0 1648 1768 1646 1329 1043 832 838 916 985 1052
1170.0 1166 1301 1394 1442 1542 1571 1566 1496 1328 1130
1210.0 940 792 685 643 611 615 629 661 707 759
1250.0 805 843 889 932 966 1008 1049 1017 994 980
1290.0 1044 1059 1055 1056 1044 974 1014 1099 1257 1567
1330.0 2013 2892 4408 6817 9127 10000 9513 6975 4516 3259
1370.0 2576 2350 2213 1933 1810 1651 1576 1485 1377 1222
1410.0 1007 1044 822 903 744 771 780 765 942 980
1450.0 1040 1203 1322 1363 1373 1341 1429 1347 1348 1270
1490.0 1300 1458 1522 1904 2134 2652 2840 3115 3524 3760
1530.0 4297 5414 6786 8776 9462 9044 7906 5508 3480 2313
1570.0 1771 1703 1589 1759 1709 1900 1890 1628 1450 1082
1610.0 920 705 669 552 470 544 498 559 549 433
1650.0 592 567 475 331 363 462 341 413 289 477
1690.0 318 361 471 476 416 398 465 522 492 359
1730.0 381 347 330 307 226 293 265 267 271 261
1770.0 299 345 353 282 314 370 320 373 198 263
1810.0 212 202 203 161 246 151 202 194 175 225
1850.0 174 213 176 154 188 176 194 175 189 186
1890.0 197 196 202 201 227 223 245 241 243 231
1930.0 215 200 188 184 169 192 168 188 173 182
1970.0 175 175 180 175 182 164 166 176 183 189
2010.0 191 180 179 173 179 179 181 173 173 182
2050.0 173 171 173 170 167 173 170 172 158 173
2090.0 164 169 174 168 172 163 171 162 154 158
2130.0 163 170 165 154 154 146 156 157 158 173
2170.0 169 162 172 170 175 164 174 176 180 184
2210.0 190 185 191 188 192 196 195 197 204 199
2250.0 192 197 199 195 197 198 201 199 194 194
2290.0 190 174 168 170 168 148 158 147 146 149
2330.0 146 146 151 150 149 176 143 146 146 146
2370.0 146 146 158 179 198 224 226 227 227 226
2410.0 234 227 234 227 231 243 242 245 238 234
2450.0 237 233 242 243 243 238 240 239 237 238
2490.0 225 222 223 223 218 216 213 217 223 219
2530.0 217 219 225 224 218 224 225 229 232 236
2570.0 236 232 239 235 237 234 233 234 238 233
2610.0 224 216 226 218 212 218 207 213 211 207
2650.0 210 206 214 220 223 230 230 239 244 254
2690.0 264 268 266 259 261 257 255 256 256 254
2730.0 248 240 243 241 234 232 233 233 236 232
2770.0 237 239 239 242 253 258 255 269 276 279
2810.0 292 296 310 313 331 346 366 392 444 486
2850.0 545 599 630 626 622 645 664 706 744 786
2890.0 822 831 822 816 800 805 832 873 938 1002
2930.0 1039 1022 976 898 818 726 652 602 549 512
2970.0 487 456 432 387 354 315 292 260 241 224
3010.0 231 228 218 217 229 233 241 244 247 239
3050.0 244 246 253 272 297 316 345 377 400 414
3090.0 408 411 425 444 444 426 382 343 293 267
3130.0 246 249 255 249 245 251 232 235 226 225
3170.0 227 222 209 205 209 198 205 214 206 196
3210.0 198 194 210 205 197 207 200 201 185 201
3250.0 198 203 192 201 187 199 197 200 199 194
3290.0 209 208 202 191 203 200 207 200 207 207
3330.0 195 206 203 216 210 211 203 200 223 222
3370.0 198 196 188 207 213 210 212 196 196 202
3410.0 201 202 203 190 189 191 191 196 193 174
3450.0 188 182 180 165 169 173 174 174 172 180
3490.0 162 179 156 159 154 192 165 186 171 170
3530.0 185 203 179 196 175 198 184 195 160 218
3570.0 171 228 162 196 173 221 220 160 217 180
3610.0 242 220 264 216 317 311 421 340 456 462
3650.0 624 600 677 707 657 855 726 871 546 559
3690.0 459 321 188 176 146 172 160 166 146 146
3730.0 142 195 221 141 383 152 326 146 146 146
3770.0 145 169 146 146 146 146 146 148 212 181
3810.0 141 147 151 226 149 149 189 179 192 140
3850.0 255 192 254 143 186 209 147 210 145 216
3890.0 142 218 137 217 176 144 147 144 206 146
3930.0 146 146 146 154 148 160 177 152 146 145
##END=
