##TITLE=Adamantaneacetic acid, .delta.[2(.alpha.)]-,.alpha.-cyano-, ethyl ester
##JCAMP-DX=4.24
##DATA TYPE=INFRARED SPECTRUM
##ORIGIN=Sadtler Research Labs Under US-EPA Contract
##OWNER=NIST Standard Reference Data Program
##CAS REGISTRY NO=52567-21-2
##MOLFORM=C 15 H 21 N O 2
##XUNITS=1/CM
##YUNITS=ABSORBANCE
##XFACTOR=1.0
##YFACTOR=0.000112207
##DELTAX=4.0
##FIRSTX=450.0
##LASTX=3966.0
##FIRSTY=0.009650
##MAXX=3966
##MINX=450
##MAXY=1.12207
##MINY=0
##NPOINTS=880
##XYDATA=(X++(Y..Y))
450.0 86 132 104 103 38 69 83 38 52 51
490.0 51 58 42 60 37 41 43 38 38 52
530.0 48 27 45 35 29 28 27 30 13 14
570.0 9 25 15 23 4 1 9 18 11 13
610.0 16 16 23 19 10 6 20 23 22 9
650.0 17 20 13 18 19 38 28 25 21 18
690.0 17 12 24 26 45 60 83 97 131 179
730.0 228 232 216 216 217 223 208 175 150 136
770.0 152 172 210 247 272 273 241 203 160 129
810.0 118 108 101 95 111 117 123 144 181 248
850.0 304 322 284 226 180 149 120 95 79 62
890.0 47 41 32 39 45 57 82 130 202 255
930.0 227 158 111 127 199 337 605 925 1019 772
970.0 434 252 189 174 205 244 281 305 357 449
1010.0 578 750 865 866 717 617 843 1295 1561 1447
1050.0 1197 1120 1241 1321 1214 907 635 489 480 560
1090.0 805 1426 2138 2290 1871 1671 2029 2594 3060 3142
1130.0 2691 1964 1286 850 617 527 497 497 526 558
1170.0 583 572 563 554 586 677 848 1139 1558 2279
1210.0 3578 5471 6637 6414 6020 7036 9008 9385 7430 4607
1250.0 2674 1689 1240 1015 909 946 1235 1932 2688 2821
1290.0 2211 1555 1333 1343 1372 1268 1018 765 600 525
1330.0 453 391 346 357 385 459 531 540 528 641
1370.0 878 946 748 491 364 330 300 285 261 252
1410.0 229 230 214 210 218 241 278 358 590 864
1450.0 1171 1303 1197 928 695 594 532 437 316 221
1490.0 162 133 115 99 92 94 90 91 94 86
1530.0 78 72 78 67 80 89 109 115 146 174
1570.0 217 272 353 454 593 804 1098 1494 1965 2402
1610.0 2493 2085 1412 860 560 393 304 227 196 173
1650.0 161 155 154 145 147 159 169 199 228 273
1690.0 318 375 422 479 549 664 852 1124 1532 2115
1730.0 3035 4110 4935 4826 3920 2752 2019 1600 1302 996
1770.0 730 521 389 304 243 193 157 127 102 84
1810.0 62 47 36 28 20 15 10 11 5 6
1850.0 3 4 1 3 3 5 7 9 8 8
1890.0 10 8 12 13 15 17 16 17 15 13
1930.0 11 9 4 1 2 1 1 0 2 5
1970.0 8 12 13 14 12 10 12 13 10 9
2010.0 7 6 6 7 7 8 7 9 7 9
2050.0 12 16 22 23 25 27 29 31 32 32
2090.0 34 33 28 31 34 34 35 35 34 32
2130.0 30 25 21 18 17 16 18 20 18 19
2170.0 19 22 21 21 18 17 19 23 31 44
2210.0 72 119 181 236 254 219 149 88 47 33
2250.0 25 20 19 18 19 20 21 21 20 22
2290.0 20 23 29 33 31 36 42 45 54 58
2330.0 63 62 58 62 59 47 77 55 50 23
2370.0 22 13 18 17 14 15 21 20 24 31
2410.0 35 37 35 30 30 32 29 23 14 9
2450.0 8 6 10 12 15 15 12 9 9 7
2490.0 7 7 8 10 10 9 11 9 11 10
2530.0 7 3 0 0 2 4 12 18 22 29
2570.0 38 36 34 29 24 24 26 28 29 30
2610.0 29 27 26 30 38 47 63 72 75 72
2650.0 67 67 72 80 87 88 82 67 52 45
2690.0 43 46 46 50 49 44 36 32 31 29
2730.0 35 34 37 41 42 41 41 44 45 47
2770.0 47 51 54 57 60 64 69 80 99 114
2810.0 126 129 135 145 154 159 168 187 224 304
2850.0 479 892 1692 2644 3021 2520 1628 986 692 602
2890.0 607 655 809 1143 1935 3407 5294 6820 7684 9039
2930.0 10000 8687 5885 3609 2469 1853 1430 1125 941 876
2970.0 858 877 930 1087 1269 1313 1140 883 720 620
3010.0 540 462 379 303 242 196 163 139 120 107
3050.0 95 89 80 75 66 62 59 55 54 52
3090.0 53 50 50 49 50 48 47 42 37 40
3130.0 39 37 35 36 37 35 38 38 41 41
3170.0 38 34 34 28 26 25 25 27 26 25
3210.0 20 22 28 31 33 34 37 34 28 21
3250.0 21 19 19 18 20 19 22 21 19 27
3290.0 33 35 32 32 25 24 20 23 21 25
3330.0 24 24 25 26 26 23 29 31 35 39
3370.0 42 42 40 28 24 14 16 15 12 12
3410.0 12 12 10 9 15 15 20 21 23 30
3450.0 30 39 44 40 36 25 19 19 16 8
3490.0 12 7 10 13 9 6 6 0 8 5
3530.0 5 12 9 8 13 8 14 13 6 13
3570.0 10 7 9 9 17 18 18 13 15 4
3610.0 13 9 12 10 8 21 10 8 8 12
3650.0 23 12 12 16 9 15 12 18 7 18
3690.0 14 15 14 22 27 21 19 15 20 29
3730.0 28 31 22 29 24 11 17 10 19 19
3770.0 15 7 10 16 11 20 14 21 20 22
3810.0 21 16 25 31 18 19 24 29 19 22
3850.0 21 22 23 11 19 22 12 13 22 30
3890.0 14 23 18 20 17 17 16 14 22 14
3930.0 29 25 16 28 33 27 24 32 25 30
##END=
