##TITLE=Benzene, 1,2,3-trimethyl-
##JCAMP-DX=4.24
##DATA TYPE=INFRARED SPECTRUM
##ORIGIN=Sadtler Research Labs Under US-EPA Contract
##OWNER=NIST Standard Reference Data Program
##CAS REGISTRY NO=526-73-8
##MOLFORM=C 9 H 12
##XUNITS=1/CM
##YUNITS=ABSORBANCE
##XFACTOR=1.0
##YFACTOR=0.000051178
##DELTAX=4.0
##FIRSTX=450.0
##LASTX=3966.0
##FIRSTY=0.000000
##MAXX=3966
##MINX=450
##MAXY=0.51178
##MINY=0
##NPOINTS=880
##XYDATA=(X++(Y..Y))
450.0 0 75 345 68 132 319 149 202 122 274
490.0 153 236 134 96 165 192 157 132 261 368
530.0 451 478 484 479 392 312 178 140 137 198
570.0 108 146 125 156 90 42 20 231 163 87
610.0 144 99 93 83 81 47 24 55 49 88
650.0 70 71 66 81 101 49 112 70 111 135
690.0 355 552 808 724 1654 2016 928 820 760 475
730.0 326 312 548 872 1705 2799 4230 4617 6926 9771
770.0 6034 4820 4219 2556 1530 735 496 307 360 368
810.0 298 242 260 228 205 173 160 142 111 116
850.0 80 96 97 113 134 133 144 143 158 140
890.0 146 140 156 141 151 162 173 175 179 183
930.0 167 164 158 159 178 205 235 296 407 489
970.0 588 685 777 855 911 935 930 956 905 857
1010.0 831 796 680 571 494 420 370 311 300 300
1050.0 312 303 352 408 520 641 777 923 1125 1441
1090.0 1719 1673 1454 1451 1178 743 459 301 249 200
1130.0 204 189 181 177 184 205 233 264 276 280
1170.0 274 277 254 261 269 272 278 263 249 229
1210.0 235 214 219 204 208 220 247 295 326 349
1250.0 361 382 342 308 271 256 233 219 215 200
1290.0 210 211 216 212 230 237 238 253 257 287
1330.0 277 292 293 307 313 334 343 362 402 450
1370.0 561 731 928 1122 1282 1384 1320 1152 985 882
1410.0 736 719 691 796 846 1110 1454 1846 2300 2721
1450.0 3438 3582 3762 4236 4819 5433 5654 5855 5288 4880
1490.0 4089 3110 2216 1654 1435 1232 1146 1064 995 923
1530.0 856 842 829 818 788 789 804 795 811 793
1570.0 861 939 1143 1359 1503 1680 1664 1582 1283 1001
1610.0 799 680 581 473 408 359 351 357 385 411
1650.0 421 378 375 300 239 206 179 179 164 179
1690.0 179 231 305 482 600 739 836 825 660 520
1730.0 373 275 205 188 190 192 224 229 271 311
1770.0 336 323 301 285 237 198 169 159 153 144
1810.0 123 111 106 99 125 149 207 269 305 311
1850.0 284 251 204 140 105 104 98 106 111 121
1890.0 149 192 240 296 371 432 446 416 389 336
1930.0 238 162 110 79 64 54 48 47 44 44
1970.0 37 39 42 42 43 44 49 43 39 37
2010.0 35 35 38 43 43 60 65 67 66 62
2050.0 53 44 35 32 37 35 38 41 37 41
2090.0 41 40 46 42 42 49 48 50 46 51
2130.0 54 49 48 45 45 41 46 39 38 36
2170.0 37 35 41 44 47 50 48 45 39 31
2210.0 29 28 27 29 31 39 38 46 52 52
2250.0 62 63 63 55 55 55 51 44 42 37
2290.0 29 33 34 22 21 27 27 26 50 53
2330.0 63 67 68 48 73 80 59 64 51 45
2370.0 48 59 59 52 59 55 67 72 88 94
2410.0 94 94 88 83 82 83 85 87 86 91
2450.0 94 95 98 97 90 93 98 95 83 85
2490.0 83 79 78 75 68 76 75 72 74 78
2530.0 81 78 81 85 90 91 91 97 94 96
2570.0 104 96 90 80 73 63 64 65 53 55
2610.0 62 69 76 77 85 96 101 104 103 95
2650.0 86 86 92 93 88 88 88 92 99 102
2690.0 97 105 118 121 146 167 214 259 294 347
2730.0 421 482 533 572 579 550 484 396 346 341
2770.0 338 345 341 341 343 337 335 346 370 398
2810.0 442 496 551 619 696 777 870 987 1127 1328
2850.0 1593 1958 2465 3119 3883 4622 5199 5525 5599 5459
2890.0 5200 4927 4795 4864 5103 5560 6195 7037 7943 8850
2930.0 9541 9933 10000 9796 9385 8977 8962 8192 7375 7218
2970.0 7214 7169 6955 6587 6069 5296 4478 3828 3451 3436
3010.0 3731 4261 4909 5488 5931 6138 6150 5955 5663 5454
3050.0 5357 5347 5333 5319 5191 4961 4608 4142 3585 2971
3090.0 2351 1776 1302 991 798 667 593 531 477 435
3130.0 402 372 354 321 289 277 243 238 230 217
3170.0 216 217 215 201 189 175 150 141 126 120
3210.0 109 93 90 78 78 72 72 70 58 63
3250.0 65 57 49 56 58 65 56 61 57 61
3290.0 50 64 65 64 60 58 60 63 60 65
3330.0 60 56 55 61 53 56 66 50 61 63
3370.0 58 43 52 53 73 58 60 65 60 58
3410.0 69 67 79 57 73 64 74 70 64 62
3450.0 72 74 64 71 58 66 64 65 52 48
3490.0 46 42 49 39 36 46 42 56 55 28
3530.0 42 41 48 50 44 46 57 52 68 30
3570.0 58 71 59 63 51 65 59 42 50 39
3610.0 40 44 49 62 44 47 52 35 51 44
3650.0 60 79 78 54 59 31 51 31 45 41
3690.0 65 55 38 41 36 26 27 56 34 43
3730.0 44 20 27 68 30 63 30 38 43 23
3770.0 21 35 38 26 50 32 46 24 35 34
3810.0 55 37 65 76 100 87 90 71 89 88
3850.0 79 90 86 65 51 73 66 57 57 91
3890.0 121 70 98 86 80 87 88 74 64 65
3930.0 49 31 48 57 74 81 75 90 70 80
##END=
