##TITLE=Quinoline, 6-methoxy-
##JCAMP-DX=4.24
##DATA TYPE=INFRARED SPECTRUM
##ORIGIN=Sadtler Research Labs Under US-EPA Contract
##OWNER=NIST Standard Reference Data Program
##CAS REGISTRY NO=5263-87-6
##MOLFORM=C 10 H 9 N O
##XUNITS=1/CM
##YUNITS=ABSORBANCE
##XFACTOR=1.0
##YFACTOR=0.000085251
##DELTAX=4.0
##FIRSTX=450.0
##LASTX=3966.0
##FIRSTY=0.015004
##MAXX=3966
##MINX=450
##MAXY=0.85251
##MINY=0
##NPOINTS=880
##XYDATA=(X++(Y..Y))
450.0 176 88 145 189 334 431 564 431 292 95
490.0 86 71 98 94 75 131 61 103 71 101
530.0 122 172 106 174 152 151 180 56 101 46
570.0 89 79 47 28 50 141 126 162 222 425
610.0 670 849 674 796 426 116 6 42 15 94
650.0 78 56 69 37 39 36 58 49 39 59
690.0 61 112 230 461 737 884 908 698 369 227
730.0 132 92 80 102 144 214 315 455 668 908
770.0 951 1037 1102 1122 1057 794 586 410 271 224
810.0 264 393 657 1114 1850 2430 3367 3944 3681 3078
850.0 2272 1746 1311 1101 998 750 608 429 358 318
890.0 329 366 548 771 818 795 638 340 181 198
930.0 195 219 237 255 294 349 363 366 362 305
970.0 296 280 231 220 196 212 209 236 269 333
1010.0 410 531 723 990 1464 2190 3063 3619 3660 3205
1050.0 2363 1404 832 565 418 372 331 325 276 254
1090.0 230 226 274 517 1372 2035 2387 2348 1694 856
1130.0 616 525 662 1013 1657 2483 3049 3235 2853 2174
1170.0 1477 1090 876 758 691 598 559 538 621 837
1210.0 1434 2841 5358 8268 9569 10000 7670 5150 3913 3420
1250.0 3542 4438 5245 5465 5037 3519 2006 1118 629 435
1290.0 373 345 395 513 801 1269 1733 2037 2148 1957
1330.0 1599 1395 1176 936 766 593 516 610 923 1446
1370.0 2065 2441 2504 2129 1471 929 616 372 259 255
1410.0 305 362 549 731 1041 1508 1888 1979 1809 1384
1450.0 1100 1066 1276 1594 1912 2504 2959 2950 2862 3057
1490.0 4041 6080 7510 7727 6596 3987 2093 1071 648 380
1530.0 331 271 286 311 325 347 456 646 918 1154
1570.0 1310 1285 1116 956 1139 1864 2879 3289 3176 2569
1610.0 1780 1896 2858 3845 4475 4121 3361 2105 1246 853
1650.0 659 553 440 374 341 332 304 283 257 238
1690.0 167 135 149 150 126 105 136 173 146 146
1730.0 172 189 157 121 105 85 77 51 55 44
1770.0 76 81 69 87 81 114 112 104 99 70
1810.0 39 48 46 41 45 43 29 3 23 33
1850.0 31 34 74 111 161 196 173 141 96 68
1890.0 70 90 121 165 186 192 188 181 188 225
1930.0 276 312 323 294 219 145 89 54 42 44
1970.0 43 40 35 23 8 2 0 0 1 5
2010.0 11 19 31 40 41 47 53 68 77 97
2050.0 110 128 134 148 160 151 135 106 84 59
2090.0 38 23 11 11 11 13 17 23 28 35
2130.0 45 53 45 40 33 28 30 30 38 39
2170.0 41 45 42 43 50 44 37 33 28 24
2210.0 22 17 13 9 6 2 0 2 13 21
2250.0 29 32 42 48 50 53 43 38 26 25
2290.0 19 23 25 27 32 30 37 30 32 37
2330.0 61 70 62 88 61 55 44 63 86 98
2370.0 104 131 124 110 94 78 64 51 47 40
2410.0 40 39 41 39 39 31 27 29 30 43
2450.0 43 48 43 33 37 30 35 31 37 39
2490.0 43 35 38 33 35 37 36 40 41 43
2530.0 48 45 50 55 51 45 48 47 46 41
2570.0 43 49 58 67 78 84 93 102 102 92
2610.0 82 67 58 57 52 49 50 53 53 31
2650.0 31 17 14 18 13 15 27 35 43 55
2690.0 64 76 81 79 72 71 61 62 57 63
2730.0 65 71 84 78 84 72 75 72 72 77
2770.0 80 92 97 101 123 136 151 164 180 196
2810.0 208 237 269 302 364 465 624 882 1109 1194
2850.0 1169 967 704 544 454 421 418 431 468 513
2890.0 574 627 696 764 828 918 993 1032 1029 1022
2930.0 1046 1141 1347 1634 1863 2012 2023 1950 1792 1476
2970.0 1247 1057 917 828 788 808 873 1049 1351 1849
3010.0 2153 2098 1865 1480 1255 1360 1504 1570 1567 1515
3050.0 1495 1508 1503 1472 1475 1482 1482 1549 1577 1490
3090.0 1273 933 616 399 281 195 165 122 115 113
3130.0 90 79 75 68 65 55 63 75 79 77
3170.0 63 69 66 82 69 67 66 72 56 50
3210.0 48 44 43 47 35 37 24 42 33 18
3250.0 15 23 19 16 29 23 24 21 11 35
3290.0 23 41 43 46 29 21 21 7 17 20
3330.0 43 38 22 26 34 29 27 41 35 7
3370.0 20 35 15 10 21 10 14 27 26 18
3410.0 16 32 31 21 35 15 2 23 7 17
3450.0 19 14 22 54 7 25 22 34 23 17
3490.0 32 26 31 19 18 28 18 16 26 40
3530.0 32 48 18 5 51 40 25 21 3 32
3570.0 32 20 39 31 43 42 63 42 34 39
3610.0 39 53 65 32 28 56 35 30 48 27
3650.0 34 39 61 77 35 56 20 53 25 42
3690.0 32 67 34 61 52 35 50 71 58 52
3730.0 57 42 47 68 63 50 87 38 36 44
3770.0 87 81 61 68 56 69 49 53 72 29
3810.0 44 41 55 62 37 51 61 58 49 55
3850.0 46 72 82 57 48 21 41 67 58 72
3890.0 61 44 78 78 92 66 76 16 25 61
3930.0 78 63 52 54 87 56 62 61 74 94
##END=
