##TITLE=Acetic acid, cyano-, 1-methylheptyl ester
##JCAMP-DX=4.24
##DATA TYPE=INFRARED SPECTRUM
##ORIGIN=Sadtler Research Labs Under US-EPA Contract
##OWNER=NIST Standard Reference Data Program
##CAS REGISTRY NO=52688-08-1
##MOLFORM=C 11 H 19 N O 2
##XUNITS=1/CM
##YUNITS=ABSORBANCE
##XFACTOR=1.0
##YFACTOR=0.000101068
##DELTAX=4.0
##FIRSTX=450.0
##LASTX=3966.0
##FIRSTY=0.033150
##MAXX=3966
##MINX=450
##MAXY=1.01068
##MINY=0
##NPOINTS=880
##XYDATA=(X++(Y..Y))
450.0 328 215 131 32 144 144 93 125 78 70
490.0 78 76 93 46 69 33 38 15 27 55
530.0 44 20 14 19 6 26 1 49 29 42
570.0 33 65 90 111 139 184 211 175 154 149
610.0 129 77 74 69 55 58 43 60 47 26
650.0 25 22 11 40 13 33 71 65 87 85
690.0 82 69 56 77 72 99 105 134 157 193
730.0 164 164 146 143 126 111 120 107 112 102
770.0 102 97 98 103 118 126 123 141 143 161
810.0 166 189 221 276 354 429 484 520 512 458
850.0 414 360 320 278 264 248 245 237 236 241
890.0 239 234 234 230 236 242 257 283 324 370
930.0 430 500 594 681 726 721 684 644 653 728
970.0 845 954 999 960 860 744 652 582 542 523
1010.0 501 490 507 572 694 838 996 1106 1160 1139
1050.0 1072 983 890 802 744 712 688 675 644 601
1090.0 554 548 595 696 893 1220 1628 2021 2251 2271
1130.0 2105 1865 1704 1662 1694 1765 1914 2200 2611 3069
1170.0 3460 3670 3705 3599 3431 3227 2980 2707 2422 2149
1210.0 1931 1795 1711 1695 1730 1806 1931 2140 2452 2916
1250.0 3600 4512 5662 6811 7557 7414 6451 5158 3975 3126
1290.0 2626 2418 2297 2123 1897 1724 1641 1661 1753 1845
1330.0 1838 1665 1417 1186 1048 1018 1038 1045 991 900
1370.0 819 820 909 1091 1212 1145 915 695 552 522
1410.0 566 618 654 557 462 411 432 460 516 590
1450.0 726 860 1012 1080 1068 973 787 563 372 274
1490.0 216 171 156 134 136 141 109 108 123 100
1530.0 100 82 98 104 94 75 82 92 84 65
1570.0 66 57 67 51 47 52 49 51 50 56
1610.0 53 52 69 51 69 46 76 70 70 72
1650.0 98 94 96 83 97 107 116 114 141 159
1690.0 156 170 210 240 269 314 400 513 600 685
1730.0 820 996 1217 1564 2172 3186 4908 7268 9441 10000
1770.0 8429 5980 3833 2479 1671 1235 979 806 665 546
1810.0 442 362 286 244 205 180 146 132 121 117
1850.0 101 88 85 78 79 80 68 64 60 60
1890.0 63 59 58 53 52 52 48 45 45 35
1930.0 35 30 32 31 28 22 23 22 26 24
1970.0 23 21 17 20 18 22 18 19 16 17
2010.0 16 16 16 15 15 13 15 17 16 18
2050.0 12 14 14 19 16 18 15 18 17 21
2090.0 21 20 21 21 21 21 20 22 19 17
2130.0 19 16 18 16 17 17 17 14 13 16
2170.0 17 18 19 19 16 15 16 19 22 19
2210.0 18 19 18 21 18 17 22 24 29 35
2250.0 43 47 51 58 59 58 46 36 25 18
2290.0 14 12 6 7 5 5 1 3 3 1
2330.0 1 1 11 1 30 1 14 2 0 1
2370.0 3 6 19 16 26 20 25 20 20 20
2410.0 18 18 19 19 20 18 18 18 17 19
2450.0 15 17 19 16 19 17 19 16 17 18
2490.0 20 19 22 24 23 32 32 33 31 33
2530.0 36 34 34 30 27 27 27 29 29 28
2570.0 30 29 34 35 35 37 36 38 41 42
2610.0 40 41 41 43 46 43 42 46 48 45
2650.0 50 55 58 60 59 66 74 75 72 72
2690.0 76 76 75 80 75 75 75 80 83 86
2730.0 93 97 101 109 112 114 103 102 97 96
2770.0 95 94 99 107 116 122 135 146 164 177
2810.0 192 210 232 256 286 326 369 426 507 630
2850.0 826 1119 1536 2005 2388 2567 2488 2311 2174 2054
2890.0 1866 1653 1567 1633 1828 2137 2540 3023 3633 4421
2930.0 5335 6113 6585 6589 6103 5255 4423 3942 3875 4102
2970.0 4229 3849 3199 2760 2662 2602 2246 1652 1084 718
3010.0 528 426 355 308 273 250 225 204 182 163
3050.0 150 137 129 122 115 106 101 100 99 93
3090.0 88 88 87 85 81 78 74 74 72 68
3130.0 66 66 69 60 59 55 59 60 59 59
3170.0 55 54 56 59 55 53 55 53 49 48
3210.0 48 44 45 37 38 36 32 28 27 24
3250.0 26 20 19 15 16 14 12 12 14 18
3290.0 16 13 11 13 9 11 15 11 11 17
3330.0 23 13 12 15 18 17 19 14 13 15
3370.0 16 18 18 21 20 18 19 25 22 16
3410.0 23 21 14 10 16 20 17 20 13 19
3450.0 17 27 13 18 18 22 19 26 26 29
3490.0 34 41 53 60 78 67 67 48 46 35
3530.0 25 17 11 13 13 13 9 9 7 18
3570.0 18 18 6 6 9 4 21 2 12 1
3610.0 20 23 21 9 6 27 18 11 22 7
3650.0 29 21 24 25 8 32 12 32 2 14
3690.0 19 11 11 19 19 24 19 17 23 21
3730.0 20 25 28 14 41 15 32 26 12 17
3770.0 15 17 8 31 14 22 10 36 8 24
3810.0 9 29 12 16 23 12 32 33 18 10
3850.0 23 30 27 28 21 23 26 19 13 26
3890.0 13 23 6 18 20 27 12 30 15 15
3930.0 28 23 11 16 17 12 12 3 6 9
##END=
