##TITLE=2-Hexanol, 5-methyl-, cyanoacetate
##JCAMP-DX=4.24
##DATA TYPE=INFRARED SPECTRUM
##ORIGIN=Sadtler Research Labs Under US-EPA Contract
##OWNER=NIST Standard Reference Data Program
##CAS REGISTRY NO=52688-06-9
##MOLFORM=C 10 H 17 N O 2
##XUNITS=1/CM
##YUNITS=ABSORBANCE
##XFACTOR=1.0
##YFACTOR=0.000070114
##DELTAX=4.0
##FIRSTX=450.0
##LASTX=3966.0
##FIRSTY=0.004417
##MAXX=3966
##MINX=450
##MAXY=0.70114
##MINY=0
##NPOINTS=880
##XYDATA=(X++(Y..Y))
450.0 63 83 184 273 197 110 107 161 137 152
490.0 129 90 71 63 70 64 45 44 46 28
530.0 40 12 0 34 34 27 55 80 48 71
570.0 31 75 89 116 150 167 183 183 181 148
610.0 137 119 96 71 68 56 52 63 34 42
650.0 45 32 32 33 48 60 63 48 80 79
690.0 86 76 55 61 53 51 34 46 52 62
730.0 71 91 72 72 86 89 86 97 83 80
770.0 84 77 81 83 72 80 89 85 111 139
810.0 158 197 214 256 301 373 466 563 611 583
850.0 495 370 290 197 141 133 130 145 148 181
890.0 198 203 216 219 216 227 247 281 329 378
930.0 423 465 539 606 685 718 727 716 707 761
970.0 831 821 713 576 478 416 391 390 401 452
1010.0 567 720 890 1042 1145 1193 1186 1180 1197 1196
1050.0 1093 884 683 574 550 618 680 682 598 458
1090.0 385 374 410 494 649 896 1295 1812 2258 2423
1130.0 2241 1876 1562 1395 1366 1465 1719 2088 2567 3040
1170.0 3396 3536 3489 3352 3200 3025 2824 2551 2235 1947
1210.0 1742 1634 1619 1677 1728 1752 1787 1906 2166 2581
1250.0 3218 4059 5120 6274 7287 7672 7059 5695 4212 3124
1290.0 2541 2322 2204 2030 1793 1606 1532 1571 1687 1810
1330.0 1816 1642 1381 1124 1011 1006 1040 1062 1034 1003
1370.0 1010 1045 1083 1167 1290 1345 1190 904 648 538
1410.0 544 579 604 519 422 354 357 368 397 465
1450.0 594 720 852 932 991 1016 936 739 498 330
1490.0 235 169 144 116 116 115 83 83 84 71
1530.0 70 58 70 74 71 63 62 72 61 46
1570.0 52 48 46 39 36 40 36 40 39 49
1610.0 41 41 49 41 50 38 55 53 54 55
1650.0 79 76 74 68 75 84 96 94 110 124
1690.0 126 137 169 197 227 263 343 444 534 604
1730.0 719 835 999 1248 1765 2688 4381 6754 9054 10000
1770.0 8715 6301 3958 2449 1565 1116 882 745 626 522
1810.0 428 355 275 229 185 151 125 110 110 99
1850.0 90 79 83 76 76 73 65 59 60 55
1890.0 53 56 46 49 48 47 44 41 45 33
1930.0 32 27 21 25 25 20 19 19 20 21
1970.0 18 18 19 20 14 18 13 17 11 10
2010.0 14 9 10 7 2 3 4 4 4 6
2050.0 5 5 5 8 8 8 7 8 10 12
2090.0 17 12 12 15 17 16 17 17 15 15
2130.0 14 8 8 10 8 11 6 8 9 9
2170.0 7 7 9 10 6 10 10 12 9 10
2210.0 7 6 8 7 9 12 10 13 13 21
2250.0 27 34 40 49 52 52 42 33 25 20
2290.0 19 16 19 18 17 24 17 23 23 21
2330.0 12 25 24 9 38 29 24 17 12 19
2370.0 26 23 27 31 25 18 15 14 8 6
2410.0 4 1 0 0 1 3 4 5 4 3
2450.0 4 5 6 5 9 7 10 10 13 7
2490.0 11 14 11 15 18 21 19 21 25 17
2530.0 22 26 20 17 18 18 14 8 16 14
2570.0 17 14 19 22 25 32 34 29 33 37
2610.0 36 37 36 36 40 36 36 32 38 37
2650.0 37 29 31 32 35 33 31 38 34 39
2690.0 43 45 44 51 49 46 56 57 66 71
2730.0 89 93 91 92 82 80 75 70 67 64
2770.0 70 74 74 70 73 74 79 88 95 102
2810.0 115 125 138 154 169 187 208 230 263 318
2850.0 401 531 682 821 929 1051 1294 1616 1834 1835
2890.0 1638 1441 1336 1336 1438 1642 1904 2134 2297 2391
2930.0 2492 2702 3038 3337 3406 3286 3307 3721 4721 5841
2970.0 5949 4894 3400 2504 2328 2310 2038 1491 957 557
3010.0 371 275 214 177 148 131 116 113 102 93
3050.0 88 84 79 76 78 77 77 78 72 70
3090.0 70 71 65 67 62 70 64 64 62 56
3130.0 56 52 56 58 63 55 62 63 56 64
3170.0 62 71 79 74 71 72 66 67 57 64
3210.0 60 62 49 47 40 39 37 31 35 28
3250.0 26 23 17 19 17 14 20 14 14 22
3290.0 16 22 17 15 11 17 20 17 23 22
3330.0 27 27 27 28 27 28 25 28 25 25
3370.0 30 25 23 25 28 27 24 31 21 20
3410.0 30 26 20 18 29 21 22 27 22 26
3450.0 21 29 22 15 28 21 33 27 22 26
3490.0 38 45 55 68 68 68 65 54 44 33
3530.0 32 21 18 22 18 17 15 17 10 21
3570.0 12 14 15 30 24 24 32 12 23 13
3610.0 9 15 14 17 8 28 28 21 30 16
3650.0 23 36 30 26 18 14 4 32 20 29
3690.0 34 22 23 15 23 28 34 30 13 31
3730.0 38 43 39 28 36 25 23 34 28 32
3770.0 22 48 28 39 34 22 16 39 47 31
3810.0 27 49 41 39 19 18 37 38 45 42
3850.0 47 30 22 36 33 35 23 26 33 54
3890.0 21 33 38 52 51 26 36 16 37 44
3930.0 29 49 39 24 13 21 28 21 10 40
##END=
