##TITLE=Acetic acid, cyano-, 1,3-dimethylbutyl ester
##JCAMP-DX=4.24
##DATA TYPE=INFRARED SPECTRUM
##ORIGIN=Sadtler Research Labs Under US-EPA Contract
##OWNER=NIST Standard Reference Data Program
##CAS REGISTRY NO=52688-05-8
##MOLFORM=C 9 H 15 N O 2
##XUNITS=1/CM
##YUNITS=ABSORBANCE
##XFACTOR=1.0
##YFACTOR=0.000095752
##DELTAX=4.0
##FIRSTX=450.0
##LASTX=3966.0
##FIRSTY=0.010245
##MAXX=3966
##MINX=450
##MAXY=0.95752
##MINY=0
##NPOINTS=880
##XYDATA=(X++(Y..Y))
450.0 107 107 186 157 122 118 122 158 154 199
490.0 171 162 180 131 103 70 57 61 41 36
530.0 23 9 0 26 25 8 26 29 29 36
570.0 46 77 85 108 141 171 178 184 154 152
610.0 120 103 92 62 63 42 31 31 30 32
650.0 40 25 28 21 39 61 49 55 78 72
690.0 73 60 46 32 37 30 33 34 40 43
730.0 56 80 74 65 49 53 52 54 44 52
770.0 58 64 62 75 92 99 127 157 217 246
810.0 277 309 342 359 344 286 232 208 189 186
850.0 191 217 262 276 273 257 271 304 332 336
890.0 301 277 271 271 250 236 237 261 325 401
930.0 486 570 673 726 732 670 592 563 612 718
970.0 849 913 865 736 579 456 417 472 632 868
1010.0 1077 1176 1136 1041 966 916 916 901 836 705
1050.0 571 544 593 616 571 474 360 294 280 282
1090.0 303 339 411 526 726 1063 1605 2343 3000 3264
1130.0 3016 2432 1924 1681 1649 1763 2036 2479 3023 3469
1170.0 3690 3670 3540 3401 3274 3133 2941 2659 2305 1985
1210.0 1751 1614 1534 1510 1531 1594 1729 1951 2288 2748
1250.0 3380 4243 5423 6725 7692 7754 6774 5344 4099 3322
1290.0 2898 2666 2436 2178 1877 1620 1490 1487 1596 1733
1330.0 1793 1711 1555 1351 1184 1085 1034 1032 1051 1088
1370.0 1155 1275 1356 1373 1364 1297 1145 931 723 600
1410.0 600 615 623 550 467 410 418 417 422 463
1450.0 557 673 806 897 948 973 928 777 561 376
1490.0 250 171 137 108 105 97 78 76 76 68
1530.0 65 59 63 72 66 56 53 63 55 42
1570.0 47 45 42 39 31 41 32 38 37 45
1610.0 41 40 49 40 50 39 56 58 57 59
1650.0 77 78 75 71 79 85 100 98 114 136
1690.0 138 154 189 223 261 311 398 500 589 653
1730.0 758 880 1075 1382 2035 3161 5023 7307 9309 10000
1770.0 8711 6467 4108 2509 1536 1057 821 706 615 534
1810.0 449 373 293 240 195 163 135 113 108 97
1850.0 87 73 76 70 75 68 62 60 55 52
1890.0 49 52 47 47 42 44 42 40 42 32
1930.0 29 26 25 27 27 23 21 22 21 21
1970.0 19 20 19 19 13 17 17 16 10 7
2010.0 6 4 4 4 0 0 0 1 2 2
2050.0 1 3 4 6 7 7 11 13 14 12
2090.0 13 10 10 9 9 6 8 8 6 8
2130.0 11 6 6 8 7 9 6 7 7 6
2170.0 6 7 5 5 8 8 8 11 8 11
2210.0 10 7 6 5 9 10 12 11 13 21
2250.0 29 36 43 49 52 51 41 32 27 22
2290.0 26 26 38 45 48 57 50 49 51 48
2330.0 39 45 40 47 65 70 59 45 46 46
2370.0 47 47 56 56 37 19 13 11 10 5
2410.0 5 3 1 0 1 0 5 6 3 5
2450.0 7 7 4 4 4 2 6 8 5 4
2490.0 8 11 11 13 15 19 19 18 23 18
2530.0 23 21 15 15 15 14 13 8 12 12
2570.0 11 12 14 18 20 25 23 21 25 27
2610.0 26 28 27 27 27 24 25 22 27 25
2650.0 26 23 21 19 21 24 25 28 26 28
2690.0 36 35 36 42 41 37 43 48 55 65
2730.0 80 92 96 95 88 84 74 66 59 54
2770.0 56 59 64 64 62 70 69 74 76 90
2810.0 98 112 125 139 157 174 200 229 269 313
2850.0 345 362 379 418 497 649 901 1210 1451 1535
2890.0 1459 1340 1259 1291 1432 1631 1830 1956 2066 2187
2930.0 2315 2419 2530 2628 2621 2539 2545 2900 3711 4803
2970.0 5368 4994 3996 3110 2764 2613 2224 1622 1048 666
3010.0 444 322 251 194 161 129 114 103 90 80
3050.0 74 66 65 64 63 63 59 65 60 60
3090.0 57 60 54 56 56 57 59 53 58 49
3130.0 51 48 53 50 54 53 54 58 54 62
3170.0 57 66 68 65 64 68 65 67 58 57
3210.0 59 58 49 43 36 39 33 27 26 22
3250.0 20 17 11 12 15 16 13 11 12 15
3290.0 9 11 10 13 8 11 10 10 8 9
3330.0 17 16 11 19 14 19 14 14 9 10
3370.0 17 24 17 13 16 15 15 15 18 12
3410.0 11 14 7 7 15 19 16 14 8 11
3450.0 11 18 13 13 13 11 16 13 18 19
3490.0 31 40 46 56 65 65 60 45 37 29
3530.0 25 17 7 11 4 12 4 2 6 10
3570.0 8 9 16 12 16 18 16 7 13 2
3610.0 3 6 6 15 4 9 15 11 27 8
3650.0 13 23 19 17 21 11 6 10 14 12
3690.0 17 11 13 6 12 11 21 18 11 4
3730.0 22 21 24 18 33 10 17 13 13 16
3770.0 10 36 17 22 21 15 18 13 26 19
3810.0 16 21 35 20 8 21 21 26 25 22
3850.0 25 22 22 21 32 28 15 13 24 41
3890.0 17 16 22 25 34 26 34 25 23 31
3930.0 12 30 25 25 12 12 29 13 20 23
##END=
