##TITLE=Cyclohexyl cyanoacetate
##JCAMP-DX=4.24
##DATA TYPE=INFRARED SPECTRUM
##ORIGIN=Sadtler Research Labs Under US-EPA Contract
##OWNER=NIST Standard Reference Data Program
##CAS REGISTRY NO=52688-11-6
##MOLFORM=C 9 H 13 N O 2
##XUNITS=1/CM
##YUNITS=ABSORBANCE
##XFACTOR=1.0
##YFACTOR=0.000079303
##DELTAX=4.0
##FIRSTX=450.0
##LASTX=3966.0
##FIRSTY=0.020302
##MAXX=3966
##MINX=450
##MAXY=0.79303
##MINY=0
##NPOINTS=880
##XYDATA=(X++(Y..Y))
450.0 256 170 233 73 159 162 123 111 101 118
490.0 61 62 28 53 59 8 33 12 11 11
530.0 20 26 67 47 34 61 49 74 66 63
570.0 28 36 86 72 97 120 135 115 114 122
610.0 127 102 83 90 75 62 56 68 71 50
650.0 25 36 26 41 6 47 73 57 75 96
690.0 94 84 73 83 62 63 63 76 80 106
730.0 102 108 110 110 91 71 92 70 60 42
770.0 60 48 49 64 56 64 77 111 119 147
810.0 133 158 199 242 260 245 240 269 244 193
850.0 138 106 117 136 172 190 246 272 339 469
890.0 646 810 900 882 750 602 493 447 453 479
930.0 525 557 603 660 778 901 1001 1045 1061 1090
970.0 1151 1219 1201 1048 812 617 582 737 1079 1555
1010.0 1971 2258 2239 1963 1718 1596 1870 2100 1899 1323
1050.0 623 339 256 203 178 159 161 157 176 200
1090.0 211 222 246 256 290 401 631 967 1221 1295
1130.0 1150 916 780 858 1124 1553 2077 2693 3359 3930
1170.0 4434 4659 4626 4446 4205 3942 3610 3185 2742 2379
1210.0 2122 1991 1944 2000 2153 2472 2906 3293 3688 4127
1250.0 4816 5958 7443 8537 8868 8270 6955 5525 4192 3233
1290.0 2671 2411 2256 2089 1899 1763 1757 1843 2006 2162
1330.0 2246 2196 2001 1676 1368 1150 966 836 689 562
1370.0 494 433 381 321 271 248 237 257 283 344
1410.0 431 499 528 479 411 365 392 447 550 696
1450.0 927 1087 1151 1028 798 562 388 253 158 108
1490.0 82 66 60 48 52 56 41 48 64 63
1530.0 75 72 97 102 99 82 72 57 47 30
1570.0 27 18 30 20 17 20 21 23 23 29
1610.0 27 24 32 19 29 11 32 22 28 27
1650.0 42 40 53 40 52 62 69 80 97 119
1690.0 129 152 185 230 276 334 419 513 600 673
1730.0 782 918 1142 1548 2347 3647 5598 7793 9425 10000
1770.0 9107 7095 4887 3245 2136 1475 1081 858 703 602
1810.0 511 445 370 311 259 218 180 167 154 150
1850.0 139 130 126 112 104 89 82 75 65 62
1890.0 58 57 54 55 51 54 52 47 43 34
1930.0 34 24 27 21 22 15 17 13 14 9
1970.0 17 15 15 18 16 21 17 17 19 16
2010.0 15 14 11 12 15 8 10 12 15 16
2050.0 14 17 21 23 18 20 20 25 22 30
2090.0 29 29 30 30 31 28 24 27 26 26
2130.0 25 28 29 29 32 35 34 37 33 32
2170.0 31 32 34 31 29 27 26 28 27 23
2210.0 19 21 19 21 23 23 26 30 37 40
2250.0 47 53 57 63 66 66 54 40 28 22
2290.0 18 12 9 9 5 4 3 4 9 6
2330.0 2 16 21 2 28 8 18 11 0 2
2370.0 13 14 26 20 27 21 26 24 22 21
2410.0 16 13 11 13 15 13 12 14 15 13
2450.0 9 12 14 9 15 17 20 18 24 25
2490.0 24 24 24 27 26 28 26 31 32 32
2530.0 30 27 25 24 17 13 13 14 21 13
2570.0 17 16 23 21 24 31 31 34 38 39
2610.0 34 33 31 31 33 32 31 39 42 44
2650.0 51 59 71 85 93 99 102 93 83 75
2690.0 69 69 66 70 70 73 63 63 59 56
2730.0 52 44 44 36 39 37 33 37 43 41
2770.0 44 47 55 67 75 81 89 98 112 115
2810.0 110 112 113 112 118 133 136 162 194 259
2850.0 380 638 1119 1767 2344 2690 2600 2186 1697 1253
2890.0 924 743 685 715 800 944 1133 1395 1736 2218
2930.0 2864 3751 5026 6933 8946 9609 8946 6862 4597 3079
2970.0 2040 1320 844 545 368 269 216 174 146 129
3010.0 112 100 92 89 83 78 71 63 58 55
3050.0 51 44 41 42 41 34 35 40 34 30
3090.0 31 28 29 29 23 29 23 20 20 21
3130.0 20 23 29 27 30 30 33 35 38 35
3170.0 31 33 35 34 28 27 26 23 26 29
3210.0 32 28 33 22 27 26 23 26 27 21
3250.0 27 22 20 25 21 20 19 24 26 24
3290.0 26 23 20 13 6 13 11 16 12 17
3330.0 22 15 18 19 20 22 18 19 8 14
3370.0 13 18 20 22 17 13 14 23 25 22
3410.0 29 33 27 26 25 25 25 30 15 16
3450.0 13 27 15 27 13 27 29 30 32 37
3490.0 42 39 52 71 81 67 70 62 48 38
3530.0 28 16 6 14 16 12 8 17 9 17
3570.0 18 15 13 17 13 9 26 16 18 3
3610.0 22 22 22 16 5 25 19 11 15 2
3650.0 27 24 25 27 18 40 14 33 6 17
3690.0 31 15 8 24 22 24 33 26 21 25
3730.0 34 30 41 22 49 13 39 30 14 22
3770.0 20 21 3 27 12 34 20 44 4 35
3810.0 8 26 18 31 20 10 23 39 29 18
3850.0 37 32 27 44 24 25 25 35 29 32
3890.0 14 19 23 34 47 32 16 23 26 13
3930.0 17 17 16 13 25 18 28 15 22 32
##END=
