##TITLE=Acetic acid, cyano-, 1-methylbutyl ester
##JCAMP-DX=4.24
##DATA TYPE=INFRARED SPECTRUM
##ORIGIN=Sadtler Research Labs Under US-EPA Contract
##OWNER=NIST Standard Reference Data Program
##CAS REGISTRY NO=52688-04-7
##MOLFORM=C 8 H 13 N O 2
##XUNITS=1/CM
##YUNITS=ABSORBANCE
##XFACTOR=1.0
##YFACTOR=0.000146533
##DELTAX=4.0
##FIRSTX=450.0
##LASTX=3966.0
##FIRSTY=0.022127
##MAXX=3966
##MINX=450
##MAXY=1.46533
##MINY=0
##NPOINTS=880
##XYDATA=(X++(Y..Y))
450.0 151 138 173 182 174 133 153 179 155 163
490.0 139 117 115 82 67 47 41 55 49 47
530.0 26 31 12 15 26 28 24 40 47 53
570.0 61 83 108 134 169 184 209 203 183 161
610.0 144 126 104 87 70 64 54 56 44 41
650.0 42 38 41 38 42 63 66 72 93 90
690.0 86 77 67 60 57 56 56 59 66 70
730.0 91 109 109 118 120 128 117 115 97 85
770.0 95 81 83 88 84 95 107 122 158 201
810.0 263 351 434 490 487 431 375 347 325 304
850.0 276 265 273 274 268 267 265 270 276 269
890.0 235 203 176 177 197 239 281 309 330 343
930.0 371 417 495 593 703 778 794 772 756 772
970.0 793 761 688 610 604 720 915 1083 1167 1118
1010.0 997 899 813 741 702 642 586 515 436 415
1050.0 481 570 610 574 471 364 302 286 308 359
1090.0 455 621 893 1250 1631 1970 2271 2529 2690 2671
1130.0 2373 1904 1585 1464 1468 1590 1822 2142 2545 2980
1170.0 3367 3592 3640 3548 3420 3271 3084 2802 2437 2095
1210.0 1827 1660 1568 1543 1574 1660 1827 2088 2432 2874
1250.0 3511 4406 5612 6793 7600 7645 6914 5804 4607 3651
1290.0 2970 2593 2362 2158 1912 1687 1559 1549 1657 1790
1330.0 1819 1690 1442 1167 1015 963 959 950 911 842
1370.0 770 758 830 956 1059 1066 941 759 602 525
1410.0 535 559 562 496 418 356 356 373 401 454
1450.0 543 633 734 792 805 766 663 504 346 229
1490.0 161 110 88 72 75 73 58 60 67 59
1530.0 57 52 60 64 54 45 45 54 46 36
1570.0 38 36 36 31 23 29 24 28 26 30
1610.0 27 28 36 27 35 27 42 42 43 46
1650.0 65 66 65 62 71 76 90 89 104 119
1690.0 118 132 161 193 226 276 356 452 542 609
1730.0 714 830 1018 1333 1999 3128 4933 7113 9038 10000
1770.0 9100 7293 4816 3055 1871 1228 885 717 599 508
1810.0 427 358 287 238 196 161 135 116 110 96
1850.0 88 75 74 65 65 61 56 54 53 52
1890.0 48 48 43 41 36 38 35 33 33 27
1930.0 26 23 22 21 21 17 17 16 15 14
1970.0 13 12 12 14 9 12 12 11 9 8
2010.0 6 3 4 3 0 0 1 1 1 1
2050.0 2 2 2 5 4 7 7 10 12 14
2090.0 15 13 14 14 13 12 11 12 11 10
2130.0 12 8 6 6 5 5 4 4 6 6
2170.0 7 8 8 7 7 7 6 7 6 8
2210.0 5 7 7 8 11 13 13 15 19 24
2250.0 30 38 44 52 56 51 40 30 22 14
2290.0 12 10 13 13 12 17 9 13 13 15
2330.0 11 18 17 21 28 22 24 16 18 22
2370.0 26 24 26 28 26 22 20 19 18 16
2410.0 15 12 11 11 10 9 11 11 11 10
2450.0 10 14 14 11 13 12 14 16 15 14
2490.0 16 17 17 20 21 25 25 26 29 29
2530.0 30 27 24 20 19 17 17 15 14 17
2570.0 16 17 18 21 23 24 23 22 23 26
2610.0 26 25 27 26 26 26 25 22 25 22
2650.0 24 22 24 26 26 27 29 33 35 36
2690.0 37 37 38 45 45 44 47 49 47 51
2730.0 58 60 65 71 76 80 76 71 63 59
2770.0 53 52 53 54 55 59 64 71 76 85
2810.0 93 102 108 115 122 133 148 166 199 243
2850.0 292 342 380 416 480 594 766 1001 1246 1392
2890.0 1371 1230 1010 866 828 890 1028 1186 1334 1445
2930.0 1587 1813 2143 2503 2692 2638 2445 2280 2418 2855
2970.0 3379 3659 3542 3254 2946 2623 2189 1618 1099 703
3010.0 469 350 283 246 220 203 192 183 165 149
3050.0 130 111 97 88 82 75 71 71 68 65
3090.0 64 65 61 64 61 63 60 55 57 52
3130.0 50 48 49 50 49 46 49 51 51 53
3170.0 49 52 54 51 52 50 48 50 46 47
3210.0 46 45 45 41 39 40 35 32 29 26
3250.0 23 20 19 18 15 15 19 16 17 19
3290.0 14 16 14 12 9 12 16 15 14 14
3330.0 15 16 15 14 16 12 14 13 13 13
3370.0 14 17 15 17 18 17 14 19 18 13
3410.0 17 20 15 17 24 20 17 19 16 21
3450.0 17 21 21 20 22 18 24 26 24 28
3490.0 36 45 55 68 77 77 79 65 54 46
3530.0 39 32 26 18 14 12 12 13 11 9
3570.0 10 10 9 9 10 12 11 8 11 11
3610.0 10 9 7 12 10 12 15 10 16 12
3650.0 15 17 14 17 14 15 14 22 18 18
3690.0 16 13 17 9 11 9 19 23 15 14
3730.0 16 15 21 18 26 15 17 21 16 24
3770.0 10 28 23 21 23 11 14 19 26 25
3810.0 18 23 26 22 8 12 14 16 22 13
3850.0 17 26 22 23 17 15 15 22 20 30
3890.0 10 17 25 24 28 25 26 22 21 20
3930.0 18 23 25 25 14 8 21 19 15 25
##END=
