##TITLE=2,5-Cyclohexadiene-1,4-dione, 2,6-dimethyl-
##JCAMP-DX=4.24
##DATA TYPE=INFRARED SPECTRUM
##ORIGIN=Sadtler Research Labs Under US-EPA Contract
##OWNER=NIST Standard Reference Data Program
##CAS REGISTRY NO=527-61-7
##MOLFORM=C 8 H 8 O 2
##XUNITS=1/CM
##YUNITS=ABSORBANCE
##XFACTOR=1.0
##YFACTOR=0.000100394
##DELTAX=4.0
##FIRSTX=450.0
##LASTX=3966.0
##FIRSTY=0.018472
##MAXX=3966
##MINX=450
##MAXY=1.00394
##MINY=0
##NPOINTS=880
##XYDATA=(X++(Y..Y))
450.0 184 202 276 215 196 127 109 75 52 67
490.0 65 55 64 105 74 52 57 56 29 13
530.0 23 34 5 0 7 17 31 56 60 35
570.0 47 57 31 30 30 40 18 39 31 28
610.0 12 17 19 37 41 61 62 61 114 100
650.0 81 69 61 35 30 15 27 19 23 28
690.0 4 35 26 38 27 46 49 46 44 41
730.0 39 44 53 43 45 48 58 69 86 94
770.0 97 114 140 183 167 246 232 165 144 122
810.0 103 88 85 80 77 70 83 70 92 105
850.0 139 147 144 149 128 125 103 156 155 259
890.0 318 440 591 851 1027 1245 2219 1755 1302 1596
930.0 1199 883 695 510 287 152 120 80 90 84
970.0 93 79 94 91 94 96 106 121 134 184
1010.0 239 317 374 434 469 467 411 347 305 247
1050.0 199 168 153 137 131 118 112 106 108 112
1090.0 113 110 105 97 88 83 68 69 62 58
1130.0 58 61 68 74 84 91 129 204 362 536
1170.0 670 759 856 923 870 788 734 667 523 348
1210.0 237 192 175 160 151 151 160 166 197 243
1250.0 323 439 628 900 1309 1799 2215 2382 2325 2234
1290.0 1912 1540 1435 1544 1635 1651 1576 1330 974 685
1330.0 509 410 382 352 337 345 353 383 430 483
1370.0 538 628 713 728 676 593 486 351 232 178
1410.0 178 186 293 346 417 491 629 655 588 554
1450.0 503 454 384 288 226 211 231 213 185 197
1490.0 200 153 155 129 148 152 123 126 152 120
1530.0 127 124 148 181 176 173 182 230 205 185
1570.0 191 187 195 204 221 266 327 432 615 848
1610.0 1092 1266 1337 1297 1205 956 834 923 1163 1655
1650.0 2371 3625 5681 7980 9613 10000 9824 7978 5348 2743
1690.0 1416 850 655 530 447 378 365 367 335 330
1730.0 383 449 447 453 442 405 332 292 262 237
1770.0 236 226 192 180 166 156 146 121 115 79
1810.0 75 71 64 64 64 66 54 43 45 53
1850.0 34 25 26 27 31 38 25 15 19 19
1890.0 24 21 20 18 20 22 25 24 27 20
1930.0 16 16 14 26 21 17 13 15 12 12
1970.0 10 8 7 6 6 9 8 6 6 7
2010.0 4 7 10 8 6 9 7 12 13 14
2050.0 14 13 14 14 20 18 19 20 21 19
2090.0 20 19 15 17 18 18 16 17 17 17
2130.0 17 18 16 17 16 18 19 18 21 22
2170.0 25 22 21 17 16 14 16 16 14 18
2210.0 18 20 18 18 21 19 18 17 17 14
2250.0 14 12 11 11 12 10 9 9 10 11
2290.0 12 14 16 22 18 24 21 14 16 12
2330.0 3 0 0 0 3 10 0 0 0 0
2370.0 0 0 8 18 21 15 17 17 16 16
2410.0 15 14 15 11 9 5 5 4 6 7
2450.0 6 8 8 13 12 14 11 13 12 10
2490.0 12 9 10 9 10 11 9 10 8 9
2530.0 10 11 11 16 17 23 24 28 28 29
2570.0 28 22 22 19 15 13 9 6 4 2
2610.0 2 2 2 3 2 4 0 3 4 4
2650.0 7 6 8 5 7 5 9 7 9 6
2690.0 9 8 6 8 7 6 4 4 3 7
2730.0 7 6 12 11 16 16 16 14 12 11
2770.0 11 12 14 12 13 17 19 24 27 31
2810.0 37 36 36 38 40 39 44 48 61 78
2850.0 101 118 136 147 153 154 154 156 151 144
2890.0 138 129 125 126 133 140 157 186 255 378
2930.0 537 644 648 646 589 440 323 283 302 330
2970.0 414 468 399 412 440 451 438 419 385 315
3010.0 253 201 177 166 167 182 212 258 303 321
3050.0 314 292 248 188 127 99 83 74 71 69
3090.0 62 56 56 48 48 37 35 31 29 26
3130.0 24 21 13 12 10 8 8 8 10 6
3170.0 5 4 2 5 6 4 6 3 2 3
3210.0 8 8 9 12 8 13 14 20 16 24
3250.0 19 24 29 33 38 42 60 77 102 129
3290.0 165 197 205 196 185 154 128 113 106 115
3330.0 119 116 104 80 59 40 22 17 13 17
3370.0 15 14 12 17 12 16 16 19 16 17
3410.0 15 14 11 11 13 15 9 8 18 7
3450.0 8 10 16 7 8 7 7 10 6 9
3490.0 9 14 4 2 6 9 10 5 10 1
3530.0 10 5 12 14 8 3 7 14 9 1
3570.0 11 11 10 9 7 7 13 2 5 9
3610.0 12 10 8 7 15 12 15 19 25 30
3650.0 40 59 59 56 39 20 20 15 14 4
3690.0 16 8 10 7 12 8 16 17 14 6
3730.0 8 9 18 7 15 0 1 9 9 9
3770.0 7 11 14 13 14 6 2 6 16 14
3810.0 14 7 9 7 4 6 7 7 5 11
3850.0 11 13 10 3 12 5 8 6 0 11
3890.0 17 15 2 10 19 12 3 9 15 15
3930.0 15 8 9 0 17 12 13 2 10 23
##END=
