##TITLE=Benzene, 1,2,3,5-tetramethyl-
##JCAMP-DX=4.24
##DATA TYPE=INFRARED SPECTRUM
##ORIGIN=Sadtler Research Labs Under US-EPA Contract
##OWNER=NIST Standard Reference Data Program
##CAS REGISTRY NO=527-53-7
##MOLFORM=C 10 H 14
##XUNITS=1/CM
##YUNITS=ABSORBANCE
##XFACTOR=1.0
##YFACTOR=0.000066644
##DELTAX=4.0
##FIRSTX=450.0
##LASTX=3966.0
##FIRSTY=0.000000
##MAXX=3966
##MINX=450
##MAXY=0.66644
##MINY=0
##NPOINTS=880
##XYDATA=(X++(Y..Y))
450.0 0 143 186 186 174 175 160 207 181 175
490.0 217 186 189 160 188 205 193 173 235 275
530.0 330 402 497 542 802 533 462 425 314 229
570.0 206 203 225 191 195 209 224 226 208 189
610.0 203 179 178 179 190 186 173 165 182 183
650.0 173 189 194 202 190 248 197 215 231 274
690.0 334 419 449 630 829 472 457 374 309 258
730.0 236 228 208 222 221 189 192 192 186 187
770.0 197 197 203 203 211 223 233 237 308 288
810.0 289 294 298 308 379 609 1008 1409 1630 2864
850.0 2881 1593 1554 1141 812 565 425 382 342 301
890.0 295 282 269 267 272 275 274 283 272 272
930.0 268 264 261 258 262 265 287 304 325 356
970.0 389 441 502 554 621 690 783 886 1001 1088
1010.0 1120 1073 964 830 713 624 574 537 527 491
1050.0 476 462 451 446 463 501 527 522 511 475
1090.0 416 358 319 295 284 273 276 280 280 289
1130.0 313 353 395 398 399 378 341 297 278 276
1170.0 274 276 275 278 284 300 328 361 417 490
1210.0 506 504 477 415 326 278 271 277 281 285
1250.0 289 286 292 280 272 275 271 277 283 288
1290.0 293 291 297 302 307 319 330 342 355 376
1330.0 389 402 417 422 426 437 444 464 482 524
1370.0 595 728 879 982 1124 1125 994 870 772 711
1410.0 709 755 826 905 1008 1132 1299 1510 1735 1990
1450.0 2332 2472 2490 2507 2507 2625 2834 3107 3360 3456
1490.0 3329 3021 2586 2155 1892 1744 1609 1439 1259 1127
1530.0 1054 1000 967 961 993 1034 1071 1116 1145 1173
1570.0 1203 1228 1234 1238 1207 1157 1119 1117 1189 1358
1610.0 1545 1589 1481 1248 940 612 425 342 305 277
1650.0 267 255 247 237 230 224 224 214 224 229
1690.0 229 240 265 295 349 417 495 534 519 500
1730.0 444 378 337 333 336 337 316 290 261 224
1770.0 210 196 191 187 182 182 183 180 180 179
1810.0 174 178 177 177 175 173 175 176 175 179
1850.0 179 178 181 190 200 214 222 236 242 249
1890.0 244 236 221 208 205 198 194 193 193 193
1930.0 183 179 178 181 182 182 184 181 172 170
1970.0 162 163 159 157 158 160 158 155 157 156
2010.0 154 158 160 160 162 158 161 158 157 156
2050.0 155 157 154 157 154 156 154 156 153 157
2090.0 160 160 162 170 169 174 172 164 160 159
2130.0 158 154 154 156 153 156 154 154 159 158
2170.0 160 160 163 163 163 161 158 150 151 149
2210.0 150 152 149 150 149 150 153 153 154 154
2250.0 153 153 159 160 162 162 159 160 157 154
2290.0 150 147 148 147 144 147 147 151 146 153
2330.0 156 174 186 188 198 176 182 177 191 198
2370.0 192 198 191 181 184 190 188 190 192 197
2410.0 198 199 196 194 199 200 197 198 195 199
2450.0 203 206 204 209 207 211 208 209 206 205
2490.0 199 191 186 188 189 190 185 187 184 181
2530.0 179 179 174 169 163 165 160 158 158 159
2570.0 161 159 158 162 160 162 160 164 162 160
2610.0 160 158 154 160 160 163 166 171 171 173
2650.0 174 176 180 187 190 191 196 202 196 194
2690.0 195 205 204 217 223 229 239 259 294 353
2730.0 432 534 605 630 616 547 447 388 368 371
2770.0 363 370 368 371 365 370 380 394 420 446
2810.0 480 521 567 616 680 749 838 950 1093 1291
2850.0 1550 1917 2428 3121 3919 4690 5216 5401 5287 4948
2890.0 4544 4249 4137 4236 4510 4977 5695 6703 7925 9064
2930.0 9791 10000 9602 8722 7700 6947 6355 5654 5155 4956
2970.0 4970 5005 4935 4855 4660 4419 4351 4558 4941 5300
3010.0 5482 5540 5272 4786 4282 3808 3391 3093 2870 2675
3050.0 2456 2212 1955 1704 1489 1316 1181 1063 963 867
3090.0 800 735 680 635 595 558 512 475 437 411
3130.0 391 360 333 313 296 277 262 247 245 234
3170.0 222 220 210 199 198 197 189 179 182 176
3210.0 175 170 168 165 161 167 168 160 158 159
3250.0 160 160 160 169 172 176 185 178 163 161
3290.0 159 156 163 164 154 150 160 160 153 164
3330.0 168 173 155 159 160 160 160 160 159 163
3370.0 166 166 163 152 157 155 154 163 155 159
3410.0 156 163 160 157 160 157 155 165 159 165
3450.0 158 165 155 166 167 178 167 170 166 163
3490.0 157 170 169 172 168 174 165 165 160 155
3530.0 165 161 163 160 164 160 161 159 159 166
3570.0 164 165 163 167 163 159 156 169 157 151
3610.0 145 159 157 158 161 160 150 155 156 156
3650.0 156 160 159 163 163 158 163 158 153 147
3690.0 143 155 148 163 162 160 160 158 158 160
3730.0 160 163 163 163 162 166 152 147 151 163
3770.0 144 148 156 158 148 149 154 145 161 159
3810.0 158 165 149 147 145 153 144 146 160 163
3850.0 164 183 182 171 177 179 159 152 171 160
3890.0 158 169 174 160 195 180 186 190 188 170
3930.0 189 184 171 164 182 166 194 190 181 185
##END=
