##TITLE=Phenol, 2,4,6-trimethyl-
##JCAMP-DX=4.24
##DATA TYPE=INFRARED SPECTRUM
##ORIGIN=Sadtler Research Labs Under US-EPA Contract
##OWNER=NIST Standard Reference Data Program
##CAS REGISTRY NO=527-60-6
##MOLFORM=C 9 H 12 O
##XUNITS=1/CM
##YUNITS=ABSORBANCE
##XFACTOR=1.0
##YFACTOR=0.000090826
##DELTAX=4.0
##FIRSTX=450.0
##LASTX=3966.0
##FIRSTY=0.005359
##MAXX=3966
##MINX=450
##MAXY=0.90826
##MINY=0
##NPOINTS=880
##XYDATA=(X++(Y..Y))
450.0 59 126 228 135 166 19 48 15 20 105
490.0 155 263 241 314 204 161 134 115 71 92
530.0 72 80 99 118 165 226 313 364 541 591
570.0 530 508 446 364 286 200 155 145 98 117
610.0 104 106 99 104 98 103 93 82 79 67
650.0 78 86 66 94 70 120 65 81 68 64
690.0 78 81 101 104 148 192 272 354 484 527
730.0 404 331 289 256 279 515 866 1138 1230 1160
770.0 1023 569 240 155 108 88 87 80 82 89
810.0 86 90 93 111 121 211 390 688 1003 1229
850.0 2013 2206 1160 1003 730 387 235 169 173 126
890.0 163 150 181 202 258 367 468 585 651 660
930.0 602 510 379 310 303 303 299 290 281 261
970.0 256 264 307 348 409 472 566 685 831 985
1010.0 1074 1108 1063 942 766 650 539 437 398 352
1050.0 329 306 287 261 254 242 230 214 183 188
1090.0 159 170 152 162 156 181 214 272 347 422
1130.0 547 722 1026 1557 2293 2807 2877 2715 2271 1497
1170.0 986 1047 1599 2874 5138 7821 9650 10000 9557 7454
1210.0 4671 2809 2259 2169 2339 2707 2887 2765 2547 2172
1250.0 1562 1018 866 918 943 1025 1006 965 1002 1109
1290.0 1347 1607 1901 1993 1973 1820 1544 1182 894 745
1330.0 583 483 435 416 358 352 327 322 326 340
1370.0 381 477 583 607 662 633 548 472 424 471
1410.0 508 565 636 717 763 933 1191 1491 1704 1884
1450.0 1979 1933 1986 1909 2105 2418 3154 4297 5131 6048
1490.0 5894 5639 4578 3192 2411 1694 1384 1157 1112 959
1530.0 865 806 755 721 618 573 537 556 491 438
1570.0 436 403 410 358 371 357 367 370 364 377
1610.0 349 359 319 289 237 207 210 262 221 268
1650.0 262 295 176 137 152 138 158 132 147 176
1690.0 128 144 184 230 215 253 310 416 389 353
1730.0 350 339 249 193 206 218 190 171 162 117
1770.0 124 120 77 87 60 81 64 65 66 44
1810.0 35 43 31 33 47 45 40 16 48 47
1850.0 35 18 28 25 40 59 39 47 49 62
1890.0 64 68 67 70 79 81 87 81 79 54
1930.0 42 35 35 52 58 63 64 68 57 56
1970.0 37 24 20 23 24 38 43 36 38 35
2010.0 30 23 20 15 12 7 4 12 11 14
2050.0 18 25 28 33 36 30 27 21 14 10
2090.0 10 3 5 7 6 8 10 12 9 11
2130.0 9 14 12 15 16 16 16 13 15 14
2170.0 14 17 21 21 25 28 29 29 29 32
2210.0 30 31 26 24 24 29 32 29 36 38
2250.0 37 34 31 20 16 11 6 6 3 4
2290.0 6 9 13 19 20 24 26 23 29 28
2330.0 30 37 46 37 41 34 49 43 32 37
2370.0 36 42 50 53 59 62 63 61 59 50
2410.0 51 50 54 58 70 74 72 70 68 63
2450.0 59 65 66 74 72 68 65 60 58 54
2490.0 56 53 55 54 51 52 45 38 34 33
2530.0 33 37 35 37 30 31 26 30 31 29
2570.0 31 31 31 24 28 26 27 27 26 31
2610.0 35 37 40 48 50 52 56 52 50 47
2650.0 45 40 38 33 36 36 39 45 47 55
2690.0 57 64 69 72 75 79 82 88 98 113
2730.0 143 183 247 289 312 302 260 195 143 123
2770.0 108 109 101 107 108 120 128 146 160 174
2810.0 195 212 238 264 300 336 379 448 544 685
2850.0 883 1168 1516 1916 2298 2607 2755 2739 2607 2372
2890.0 2154 1984 1941 2006 2194 2496 2928 3502 4156 4738
2930.0 5083 5121 4703 4036 3316 2708 2270 2059 1943 1812
2970.0 1803 1913 2048 2087 2075 2013 1878 1781 1815 2016
3010.0 2334 2673 2818 2793 2597 2272 1925 1653 1442 1269
3050.0 1113 971 848 730 630 544 468 404 353 306
3090.0 268 251 227 205 184 165 149 135 113 100
3130.0 94 79 76 65 60 56 54 43 41 42
3170.0 37 39 33 31 33 32 29 36 31 35
3210.0 35 32 29 34 35 29 32 29 27 24
3250.0 26 26 20 30 26 29 22 27 28 19
3290.0 22 23 20 22 31 27 22 27 30 23
3330.0 27 18 18 25 20 25 27 36 34 42
3370.0 44 47 48 52 52 54 54 48 50 43
3410.0 44 44 40 38 38 46 49 44 39 44
3450.0 35 37 37 27 33 31 34 13 19 12
3490.0 8 12 9 22 4 21 22 21 21 19
3530.0 21 28 35 29 21 26 43 15 39 15
3570.0 26 34 28 48 24 40 37 61 60 70
3610.0 77 98 126 172 276 405 677 1058 1653 2352
3650.0 3325 3581 3506 3025 2403 1289 634 284 161 126
3690.0 75 64 41 37 6 20 3 4 2 3
3730.0 3 4 3 24 0 6 3 3 7 4
3770.0 5 10 3 13 15 9 14 5 13 3
3810.0 21 3 5 3 3 15 14 3 8 19
3850.0 17 33 21 19 28 26 25 32 20 11
3890.0 40 0 30 5 14 17 43 15 29 32
3930.0 37 29 23 24 11 23 6 22 10 28
##END=
