##TITLE=2-Furancarbonyl chloride
##JCAMP-DX=4.24
##DATA TYPE=INFRARED SPECTRUM
##ORIGIN=Sadtler Research Labs Under US-EPA Contract
##OWNER=NIST Standard Reference Data Program
##CAS REGISTRY NO=527-69-5
##MOLFORM=C 5 H 3 Cl O 2
##XUNITS=1/CM
##YUNITS=ABSORBANCE
##XFACTOR=1.0
##YFACTOR=0.000098438
##DELTAX=4.0
##FIRSTX=450.0
##LASTX=3966.0
##FIRSTY=0.001083
##MAXX=3966
##MINX=450
##MAXY=0.98438
##MINY=0
##NPOINTS=880
##XYDATA=(X++(Y..Y))
450.0 11 23 28 50 43 19 28 26 42 47
490.0 82 90 168 179 249 256 251 317 386 445
530.0 546 661 847 880 821 852 830 544 442 378
570.0 435 567 582 637 666 798 912 795 596 564
610.0 492 479 369 358 362 369 353 335 329 341
650.0 348 342 293 341 223 456 406 425 483 588
690.0 693 640 680 546 473 415 384 353 374 385
730.0 446 578 829 1287 1746 2139 2585 3704 3655 2262
770.0 2145 1799 1316 948 721 653 692 840 1141 1795
810.0 2954 4998 7652 10000 9867 9176 8379 5863 3240 2559
850.0 2399 2115 1864 1467 1049 825 717 758 955 972
890.0 986 969 925 556 426 395 444 457 517 615
930.0 773 1023 1600 2302 2690 2769 3008 2930 2111 1685
970.0 1394 1199 1069 899 735 617 532 640 896 1416
1010.0 1906 2536 2979 2723 2325 1976 1138 575 443 418
1050.0 407 406 418 439 491 556 740 928 1035 1012
1090.0 1007 895 738 590 501 433 419 379 368 320
1130.0 297 291 347 421 559 805 1156 1547 1699 1775
1170.0 1648 1297 916 603 392 343 323 350 340 381
1210.0 360 424 504 773 1151 1419 1680 2071 2460 2676
1250.0 2844 2987 2892 2367 1855 1497 1116 774 632 536
1290.0 486 457 451 396 389 331 334 315 351 372
1330.0 361 383 358 378 347 371 357 367 375 407
1370.0 428 589 814 1146 1216 1321 1303 1122 758 584
1410.0 433 368 317 316 318 275 326 322 441 545
1450.0 785 1090 1488 2194 2684 2719 2619 2388 1655 1004
1490.0 616 411 291 281 245 267 344 316 279 306
1530.0 275 242 217 173 324 542 771 1035 1314 1523
1570.0 1438 1385 991 880 730 710 653 632 548 479
1610.0 345 276 212 245 252 262 319 299 380 334
1650.0 379 258 425 375 394 329 343 311 324 210
1690.0 269 242 211 197 291 344 382 389 473 518
1730.0 592 668 887 1367 2008 3085 4332 5142 5631 6356
1770.0 6324 5847 5371 4982 5008 5459 5819 5695 5297 4875
1810.0 4359 3099 1905 1184 779 534 425 335 348 268
1850.0 274 237 240 194 184 164 189 167 183 163
1890.0 165 182 147 178 158 171 152 142 153 162
1930.0 167 170 138 177 139 137 120 117 127 156
1970.0 136 127 129 127 137 112 114 96 121 90
2010.0 102 100 112 102 101 100 112 81 122 93
2050.0 107 86 112 93 104 108 106 106 106 111
2090.0 114 132 120 153 121 133 108 125 107 85
2130.0 79 74 65 94 75 81 76 78 56 67
2170.0 79 72 71 88 78 63 81 85 90 50
2210.0 64 48 95 58 59 59 52 58 92 60
2250.0 70 60 56 61 39 67 35 35 32 46
2290.0 44 55 28 36 32 50 58 96 30 58
2330.0 70 76 26 38 37 37 45 24 98 55
2370.0 30 30 39 25 61 54 92 74 89 79
2410.0 97 78 91 65 67 55 60 50 53 62
2450.0 59 66 50 70 64 82 62 91 53 80
2490.0 52 77 46 66 39 52 52 72 58 64
2530.0 63 56 67 68 96 89 92 64 75 54
2570.0 73 43 75 47 66 53 74 47 66 47
2610.0 55 71 86 76 85 85 68 87 82 93
2650.0 67 76 52 59 43 70 49 88 48 80
2690.0 65 103 66 91 75 94 104 125 111 89
2730.0 111 61 90 75 78 55 81 65 79 62
2770.0 88 66 85 73 88 76 92 73 98 94
2810.0 90 104 113 101 89 100 74 90 75 82
2850.0 72 117 81 97 76 80 59 80 72 85
2890.0 72 87 66 66 71 63 73 70 70 65
2930.0 67 46 67 57 84 64 97 61 78 66
2970.0 64 56 70 74 87 66 88 71 96 80
3010.0 72 75 74 76 73 88 65 84 80 89
3050.0 73 109 92 93 61 72 65 82 76 63
3090.0 69 78 66 86 64 65 64 77 78 85
3130.0 118 100 121 113 126 120 118 119 123 91
3170.0 113 76 76 76 69 83 77 78 91 73
3210.0 69 75 83 79 76 94 71 88 93 78
3250.0 89 82 86 108 81 95 81 78 80 73
3290.0 79 64 72 103 68 83 98 76 83 83
3330.0 119 81 92 85 78 91 102 84 96 93
3370.0 70 83 79 64 65 74 63 77 81 90
3410.0 85 85 75 75 86 106 77 92 76 75
3450.0 89 97 83 75 83 86 77 105 85 72
3490.0 93 87 122 120 135 126 123 119 110 119
3530.0 136 121 139 142 137 148 123 136 129 111
3570.0 106 154 215 242 248 252 229 210 161 111
3610.0 78 69 62 55 76 42 50 72 79 75
3650.0 35 40 70 92 90 77 68 49 79 91
3690.0 76 79 95 88 86 81 63 96 88 107
3730.0 106 85 85 96 56 66 76 88 93 110
3770.0 109 131 137 142 131 141 139 128 117 120
3810.0 126 132 111 116 138 148 143 126 132 150
3850.0 153 135 117 147 158 152 149 186 185 183
3890.0 181 173 195 192 199 205 212 206 196 206
3930.0 227 231 231 233 236 252 0 18 19 19
##END=
