##TITLE=Thiophene, 2,3-dihydro-3,3,4-trichloro-, 1,1-dioxide
##JCAMP-DX=4.24
##DATA TYPE=INFRARED SPECTRUM
##ORIGIN=Sadtler Research Labs Under US-EPA Contract
##OWNER=NIST Standard Reference Data Program
##CAS REGISTRY NO=52819-09-7
##MOLFORM=C 4 H 3 Cl 3 O 2 S
##XUNITS=1/CM
##YUNITS=ABSORBANCE
##XFACTOR=1.0
##YFACTOR=0.000087228
##DELTAX=4.0
##FIRSTX=450.0
##LASTX=3966.0
##FIRSTY=0.022941
##MAXX=3966
##MINX=450
##MAXY=0.87228
##MINY=0
##NPOINTS=880
##XYDATA=(X++(Y..Y))
450.0 263 273 107 204 234 209 189 290 483 592
490.0 577 808 1282 1238 1096 1042 1196 1738 2891 3538
530.0 3871 3316 2299 1453 1025 666 377 336 307 328
570.0 193 184 142 110 266 157 161 194 145 213
610.0 230 254 264 454 360 436 254 127 166 125
650.0 212 185 178 164 138 172 7 174 146 214
690.0 151 208 288 391 556 786 1185 1739 2377 2777
730.0 2879 2662 2062 1380 886 636 325 272 253 269
770.0 382 408 527 766 788 1150 1584 2238 2681 2408
810.0 1752 1370 927 637 475 367 360 294 233 221
850.0 254 263 331 428 669 984 1242 1483 1705 1708
890.0 1862 1819 1802 2079 2923 3878 4597 4599 3514 2168
930.0 1154 697 518 414 486 550 640 727 674 729
970.0 658 578 633 840 1422 2193 2859 3005 2761 1925
1010.0 976 471 325 220 240 196 217 311 429 584
1050.0 607 565 431 267 243 284 354 432 483 448
1090.0 406 347 332 293 356 353 377 416 481 585
1130.0 668 884 1179 1602 2088 2708 3644 4974 5698 5568
1170.0 4629 2959 1748 1165 945 905 969 980 906 794
1210.0 641 525 437 427 444 505 650 959 1745 3432
1250.0 5694 7509 7951 6657 4365 2128 965 471 351 330
1290.0 305 277 282 303 364 512 717 1021 1317 1731
1330.0 2180 2685 3291 3976 4671 5353 7126 9183 9595 10000
1370.0 8550 7084 5029 3317 2326 1601 1109 806 619 702
1410.0 769 746 630 348 255 171 114 135 100 93
1450.0 138 127 139 159 141 149 131 110 64 66
1490.0 101 64 70 59 57 101 67 102 134 129
1530.0 186 241 336 377 464 494 508 559 608 607
1570.0 667 729 843 1117 1445 2034 2486 2538 2393 1795
1610.0 1297 999 795 649 502 386 275 220 165 136
1650.0 129 71 113 72 86 68 59 40 55 43
1690.0 52 49 58 54 62 72 58 78 57 60
1730.0 93 55 69 62 101 137 154 175 163 165
1770.0 167 136 101 112 120 126 115 119 97 65
1810.0 62 47 48 38 33 25 13 22 9 20
1850.0 10 0 9 3 11 15 14 17 19 14
1890.0 24 17 29 18 19 19 14 25 14 16
1930.0 14 18 18 12 10 10 9 14 7 17
1970.0 13 18 25 26 26 23 19 18 17 20
2010.0 18 15 17 16 17 13 8 15 12 10
2050.0 14 18 26 29 36 45 47 50 49 47
2090.0 46 50 49 53 54 63 53 57 56 56
2130.0 50 35 34 25 20 31 39 54 64 62
2170.0 68 72 77 74 73 69 61 61 58 52
2210.0 52 43 35 38 25 30 26 27 28 31
2250.0 32 30 31 28 27 37 34 40 41 49
2290.0 54 57 67 73 73 84 93 92 91 81
2330.0 61 46 46 22 53 47 72 37 61 33
2370.0 35 29 40 41 30 25 14 17 25 21
2410.0 29 28 31 29 25 30 26 24 32 37
2450.0 43 44 42 46 46 56 55 64 66 70
2490.0 70 78 74 71 73 110 128 125 108 74
2530.0 45 28 16 15 14 18 8 16 18 10
2570.0 13 19 12 13 10 17 14 21 17 17
2610.0 20 15 14 21 22 18 7 8 6 1
2650.0 28 22 20 14 14 21 20 44 19 16
2690.0 21 11 25 43 51 19 25 35 16 62
2730.0 52 30 9 16 10 39 76 14 24 16
2770.0 20 59 70 31 16 20 20 89 61 30
2810.0 18 31 23 99 27 17 27 19 52 60
2850.0 16 31 11 36 48 25 17 18 21 9
2890.0 11 22 12 30 28 31 16 1 41 53
2930.0 55 8 20 68 81 45 13 34 69 95
2970.0 53 66 107 124 93 13 64 78 53 30
3010.0 32 78 55 46 74 132 131 139 117 113
3050.0 62 34 48 63 52 76 99 122 159 224
3090.0 284 372 468 560 578 478 319 198 150 149
3130.0 144 140 123 104 87 66 57 48 53 52
3170.0 46 64 58 57 55 44 36 28 21 18
3210.0 12 23 13 16 18 17 15 11 18 18
3250.0 23 18 12 20 24 12 14 14 21 27
3290.0 24 17 26 25 31 26 47 59 50 49
3330.0 45 44 32 28 33 29 33 28 30 24
3370.0 28 20 29 36 14 22 38 25 30 28
3410.0 26 37 24 15 30 37 38 35 28 35
3450.0 35 29 29 41 26 30 37 34 29 39
3490.0 37 39 35 26 40 40 49 34 37 41
3530.0 39 36 42 47 46 39 37 45 37 50
3570.0 57 65 85 60 97 65 83 55 60 33
3610.0 35 49 32 48 32 51 38 48 38 76
3650.0 28 71 0 69 45 57 48 47 44 46
3690.0 60 30 76 63 44 59 74 49 80 71
3730.0 71 89 77 91 54 105 15 71 48 65
3770.0 72 63 65 67 39 78 74 83 42 78
3810.0 17 71 66 70 69 53 94 59 41 95
3850.0 54 85 72 45 74 64 77 68 77 48
3890.0 71 90 112 54 71 72 59 73 83 79
3930.0 36 38 77 61 53 75 91 89 104 81
##END=
