##TITLE=Cyclopentanemethanol, .alpha.-methyl-
##JCAMP-DX=4.24
##DATA TYPE=INFRARED SPECTRUM
##ORIGIN=Sadtler Research Labs Under US-EPA Contract
##OWNER=NIST Standard Reference Data Program
##CAS REGISTRY NO=52829-98-8
##MOLFORM=C 7 H 14 O
##XUNITS=1/CM
##YUNITS=ABSORBANCE
##XFACTOR=1.0
##YFACTOR=0.000167859
##DELTAX=4.0
##FIRSTX=450.0
##LASTX=3966.0
##FIRSTY=0.027361
##MAXX=3966
##MINX=450
##MAXY=1.67859
##MINY=0
##NPOINTS=880
##XYDATA=(X++(Y..Y))
450.0 163 152 159 139 135 144 173 191 211 238
490.0 215 207 168 156 110 113 94 80 73 80
530.0 62 61 52 54 47 63 68 59 78 78
570.0 72 71 65 68 63 83 77 83 89 93
610.0 81 87 72 79 67 66 57 49 47 35
650.0 42 32 35 26 21 22 28 26 27 26
690.0 23 19 22 28 26 22 24 23 22 23
730.0 17 8 15 15 15 12 20 26 26 26
770.0 22 24 27 30 30 34 34 46 43 46
810.0 51 58 69 79 87 94 101 114 120 128
850.0 124 146 160 199 268 365 487 625 741 776
890.0 766 715 605 464 358 305 281 288 311 346
930.0 384 435 481 534 589 638 666 685 670 639
970.0 585 515 449 388 340 309 304 315 343 387
1010.0 451 529 629 751 882 1016 1125 1226 1306 1368
1050.0 1394 1398 1379 1349 1301 1240 1196 1161 1152 1150
1090.0 1179 1210 1268 1347 1437 1514 1546 1534 1440 1302
1130.0 1131 962 812 713 660 638 644 656 675 683
1170.0 679 654 614 575 540 511 490 482 479 486
1210.0 504 545 598 672 774 905 1044 1152 1208 1214
1250.0 1181 1070 940 819 729 655 604 564 528 504
1290.0 484 474 467 465 462 462 462 475 497 511
1330.0 523 529 537 537 548 572 615 684 798 959
1370.0 1134 1325 1467 1541 1518 1408 1213 1003 815 654
1410.0 524 425 372 346 336 347 386 439 521 614
1450.0 712 771 770 750 703 610 512 432 355 293
1490.0 237 192 154 120 104 81 69 57 54 48
1530.0 43 38 37 34 24 30 26 28 27 19
1570.0 18 17 18 15 10 12 10 15 13 15
1610.0 13 11 13 8 9 6 12 9 13 7
1650.0 10 14 14 8 10 8 14 8 15 18
1690.0 19 22 34 39 48 60 79 91 113 121
1730.0 122 121 112 96 85 78 79 77 69 65
1770.0 58 49 38 32 28 20 14 11 12 12
1810.0 7 5 9 5 5 2 4 3 5 2
1850.0 4 4 3 3 1 0 2 2 1 1
1890.0 1 0 2 2 4 4 4 5 6 9
1930.0 8 8 8 6 4 5 5 2 2 0
1970.0 1 2 0 0 1 1 1 3 2 4
2010.0 2 2 2 3 3 3 3 4 4 4
2050.0 3 5 4 2 2 4 5 2 3 0
2090.0 4 2 2 3 3 5 3 5 4 6
2130.0 4 7 7 7 6 8 8 8 9 11
2170.0 10 10 12 14 15 15 13 14 17 17
2210.0 15 15 15 17 16 16 18 16 16 16
2250.0 18 16 16 14 13 11 13 12 11 12
2290.0 14 19 21 21 21 23 21 21 23 23
2330.0 31 27 26 29 33 41 42 35 36 39
2370.0 29 34 31 31 32 29 26 26 26 26
2410.0 24 26 24 22 19 15 13 12 9 11
2450.0 9 8 9 12 13 12 13 14 15 16
2490.0 14 15 15 12 13 14 11 11 13 14
2530.0 14 16 15 16 18 20 21 26 28 28
2570.0 36 39 41 43 49 51 58 59 62 66
2610.0 70 74 80 84 86 89 89 90 89 90
2650.0 89 87 87 86 87 87 87 84 84 82
2690.0 82 80 79 82 83 85 87 93 98 101
2730.0 104 109 111 113 115 118 122 128 129 137
2770.0 146 149 157 162 170 178 186 198 212 232
2810.0 251 280 314 352 398 458 539 638 769 942
2850.0 1176 1483 1889 2388 2986 3680 4287 4620 4708 4664
2890.0 4368 3928 3535 3312 3218 3233 3334 3493 3666 3848
2930.0 4089 4335 4736 5294 6118 7051 8099 8966 9941 10000
2970.0 9088 8350 7220 5951 4614 3471 2503 1727 1172 825
3010.0 629 504 415 349 301 260 228 202 180 160
3050.0 145 135 124 113 107 104 96 89 81 74
3090.0 72 65 63 58 59 53 50 49 47 46
3130.0 43 46 40 42 42 43 43 41 42 43
3170.0 45 47 49 47 47 48 47 46 46 47
3210.0 43 39 35 33 27 22 22 20 18 13
3250.0 9 11 11 10 12 8 8 9 9 8
3290.0 11 9 11 10 10 13 16 16 13 17
3330.0 20 20 18 17 11 15 18 14 16 15
3370.0 16 17 20 22 19 26 24 28 30 32
3410.0 32 33 35 34 40 39 42 44 42 41
3450.0 43 41 48 53 49 46 51 49 43 45
3490.0 40 40 42 36 36 39 40 34 36 30
3530.0 37 37 33 32 35 36 35 40 35 37
3570.0 37 39 41 33 39 42 39 42 41 47
3610.0 52 59 75 102 139 174 228 281 370 471
3650.0 588 655 644 633 573 419 285 195 129 95
3690.0 80 67 59 52 55 50 54 51 38 44
3730.0 48 47 41 51 59 47 49 45 39 45
3770.0 43 50 42 49 55 56 52 59 57 63
3810.0 68 62 64 69 64 68 66 66 58 64
3850.0 66 72 71 71 69 61 72 64 58 61
3890.0 62 53 56 56 55 49 53 55 52 45
3930.0 50 47 48 51 42 40 43 40 37 44
##END=
