##TITLE=1(2H)-Naphthalenone, 3,4-dihydro-
##JCAMP-DX=4.24
##DATA TYPE=INFRARED SPECTRUM
##ORIGIN=Sadtler Research Labs Under US-EPA Contract
##OWNER=NIST Standard Reference Data Program
##CAS REGISTRY NO=529-34-0
##MOLFORM=C 10 H 10 O
##XUNITS=1/CM
##YUNITS=ABSORBANCE
##XFACTOR=1.0
##YFACTOR=0.000093707
##DELTAX=4.0
##FIRSTX=450.0
##LASTX=3966.0
##FIRSTY=0.000750
##MAXX=3966
##MINX=450
##MAXY=0.93707
##MINY=0
##NPOINTS=880
##XYDATA=(X++(Y..Y))
450.0 8 23 14 33 69 105 148 205 244 350
490.0 206 147 77 35 19 81 71 99 63 40
530.0 84 125 225 413 762 980 1115 979 765 431
570.0 268 176 145 101 51 125 42 4 25 21
610.0 9 14 8 17 50 78 125 154 220 219
650.0 133 106 73 59 46 77 44 52 40 52
690.0 52 61 63 59 41 35 109 247 537 855
730.0 1107 2105 1816 1381 1495 1549 1551 1943 2591 1424
770.0 1180 799 416 224 180 215 251 303 240 176
810.0 109 62 50 58 8 36 31 14 24 50
850.0 80 122 148 148 136 96 83 98 162 304
890.0 487 702 965 997 931 734 511 262 160 115
930.0 71 38 21 20 34 56 76 116 113 82
970.0 69 60 47 51 49 43 49 59 54 58
1010.0 130 339 708 926 1092 1032 811 402 217 144
1050.0 117 107 102 79 84 85 75 76 76 75
1090.0 86 91 113 173 358 629 736 796 772 597
1130.0 411 353 296 307 292 328 374 374 393 414
1170.0 410 570 864 1332 1609 1509 1092 789 638 501
1210.0 487 687 974 1286 1465 1520 1268 954 720 584
1250.0 552 586 593 586 623 818 1387 2469 3547 3894
1290.0 3822 3184 1774 879 658 656 902 1298 1621 1760
1330.0 1682 1404 1035 906 887 847 716 522 267 124
1370.0 86 71 61 67 65 65 66 67 112 157
1410.0 214 365 488 634 656 672 634 688 824 1056
1450.0 1279 1373 1428 1317 1010 687 540 521 505 447
1490.0 407 294 158 97 66 48 50 46 49 52
1530.0 37 44 22 29 27 43 53 64 111 132
1570.0 171 214 295 376 498 627 826 1081 1372 1561
1610.0 1561 1398 1118 756 456 338 263 254 233 201
1650.0 158 190 190 227 262 319 389 549 749 1142
1690.0 1778 2964 5051 7639 8995 9613 10000 7360 4706 2880
1730.0 1574 879 573 433 347 290 254 223 203 205
1770.0 213 225 232 196 173 126 101 65 57 61
1810.0 64 68 91 105 120 124 127 125 105 104
1850.0 106 105 91 79 58 45 48 45 45 46
1890.0 43 35 37 34 35 39 53 59 65 81
1930.0 97 120 135 132 123 114 97 88 102 104
1970.0 101 91 74 52 50 34 29 27 22 22
2010.0 24 22 21 23 18 14 13 9 3 9
2050.0 4 1 3 13 0 4 3 3 2 3
2090.0 7 10 10 22 16 16 21 17 23 22
2130.0 18 23 17 21 22 23 16 22 15 19
2170.0 20 17 22 22 15 11 15 16 14 14
2210.0 14 14 14 20 15 24 24 31 24 28
2250.0 29 18 24 27 31 29 40 35 33 24
2290.0 22 19 16 9 6 11 9 12 10 9
2330.0 7 20 9 28 45 16 0 3 52 80
2370.0 89 106 91 76 56 43 32 32 20 20
2410.0 20 16 11 14 11 7 14 16 16 18
2450.0 22 22 22 22 22 28 28 33 39 38
2490.0 35 34 36 40 40 41 40 36 36 29
2530.0 31 29 31 28 25 21 26 21 20 22
2570.0 26 27 38 39 40 43 43 43 53 59
2610.0 66 55 56 55 56 66 72 66 74 77
2650.0 72 67 61 68 66 67 83 84 84 73
2690.0 69 72 67 58 55 59 58 55 58 64
2730.0 59 64 55 60 73 64 63 67 63 68
2770.0 76 86 93 99 99 100 104 106 109 121
2810.0 131 147 160 186 215 236 289 360 477 590
2850.0 681 713 696 686 725 848 1007 1152 1180 1135
2890.0 1094 1110 1057 974 924 846 755 701 779 986
2930.0 1353 1947 2609 3204 3961 4138 3752 3401 3026 2187
2970.0 1576 1119 759 378 195 140 117 124 134 157
3010.0 199 261 366 522 668 772 827 826 731 649
3050.0 613 639 727 855 1025 1215 1335 1345 1239 1022
3090.0 737 437 267 199 183 149 127 89 82 76
3130.0 78 79 78 94 99 102 105 100 87 78
3170.0 72 63 62 68 63 66 59 57 60 53
3210.0 58 75 60 54 60 62 60 50 58 47
3250.0 37 44 52 28 35 47 46 52 53 57
3290.0 56 53 52 50 54 53 53 53 49 59
3330.0 50 58 49 44 42 62 67 65 65 61
3370.0 60 71 73 95 112 160 189 198 202 164
3410.0 144 93 75 56 54 44 49 33 34 39
3450.0 39 42 33 57 54 48 54 54 47 61
3490.0 35 38 49 31 29 56 54 32 43 35
3530.0 31 32 42 28 40 41 33 18 38 22
3570.0 33 34 38 34 15 33 23 38 31 29
3610.0 22 28 31 39 39 44 34 32 28 28
3650.0 36 34 21 22 33 22 18 25 19 19
3690.0 1 20 9 0 0 18 12 12 8 21
3730.0 13 26 21 22 31 12 25 20 31 27
3770.0 16 9 5 20 24 31 33 21 18 12
3810.0 15 39 19 16 28 34 44 31 26 22
3850.0 12 28 38 23 22 28 22 14 15 10
3890.0 7 0 0 0 6 6 4 6 0 1
3930.0 7 1 13 6 8 3 4 0 0 1
##END=
