##TITLE=2-Iodoanisole
##JCAMP-DX=4.24
##DATA TYPE=INFRARED SPECTRUM
##ORIGIN=Sadtler Research Labs Under US-EPA Contract
##OWNER=NIST Standard Reference Data Program
##CAS REGISTRY NO=529-28-2
##MOLFORM=C 7 H 7 I O
##XUNITS=1/CM
##YUNITS=ABSORBANCE
##XFACTOR=1.0
##YFACTOR=0.000096603
##DELTAX=4.0
##FIRSTX=450.0
##LASTX=3966.0
##FIRSTY=0.006279
##MAXX=3966
##MINX=450
##MAXY=0.96603
##MINY=0
##NPOINTS=880
##XYDATA=(X++(Y..Y))
450.0 65 36 36 55 68 96 112 110 122 120
490.0 128 38 21 58 54 83 75 87 93 101
530.0 94 94 136 147 192 232 301 314 357 399
570.0 357 323 259 172 78 93 95 55 1 13
610.0 24 43 76 28 96 122 381 721 1148 1369
650.0 1277 908 305 79 12 64 29 60 73 87
690.0 122 167 253 382 529 659 736 662 703 683
730.0 1055 1707 2764 3897 5225 4752 3698 2560 1522 838
770.0 483 345 350 415 538 630 612 512 396 273
810.0 196 135 136 136 142 146 146 139 119 120
850.0 107 105 105 88 115 81 61 35 25 20
890.0 25 25 21 29 39 39 66 91 112 138
930.0 145 110 89 64 57 48 60 76 97 128
970.0 137 163 191 222 181 290 382 537 784 1250
1010.0 2156 3790 5311 5918 5742 4094 2729 2299 2247 2677
1050.0 3408 4056 4107 3493 2552 1337 605 328 224 176
1090.0 159 147 177 229 347 559 819 977 968 869
1130.0 639 410 285 250 252 302 437 532 523 546
1170.0 507 503 554 591 549 509 403 304 273 267
1210.0 303 366 470 633 938 1439 2244 3462 5073 6606
1250.0 7291 7230 6868 5724 5219 5187 5107 4829 4649 4354
1290.0 4088 3622 3090 2140 1144 630 391 300 239 212
1330.0 186 175 171 169 160 161 162 169 193 203
1370.0 216 226 218 199 193 193 202 228 238 254
1410.0 302 385 567 916 1522 2326 2747 2676 2817 2354
1450.0 2100 2237 2719 3611 5310 7661 10000 9639 8501 5863
1490.0 3025 1565 941 658 539 414 306 264 246 220
1530.0 214 216 232 259 251 273 353 557 845 1292
1570.0 1850 2416 3001 3195 2965 2523 1868 1238 763 465
1610.0 294 182 137 97 87 71 64 61 56 63
1650.0 67 83 51 64 103 140 162 146 132 127
1690.0 96 77 90 89 69 62 62 89 63 59
1730.0 67 90 65 66 72 92 112 132 143 137
1770.0 132 116 84 76 71 64 78 80 88 87
1810.0 87 83 68 62 59 54 46 48 64 86
1850.0 93 100 107 91 85 77 68 86 121 165
1890.0 209 208 176 127 90 63 69 84 119 145
1930.0 152 136 99 62 34 18 11 10 16 12
1970.0 18 12 16 17 21 28 26 26 32 35
2010.0 38 48 64 73 99 126 159 178 189 187
2050.0 178 155 145 145 146 141 141 140 140 130
2090.0 119 98 76 61 48 45 43 46 41 29
2130.0 23 20 19 20 24 25 17 15 12 8
2170.0 15 12 16 16 16 10 15 11 12 15
2210.0 18 18 15 16 19 16 26 30 30 30
2250.0 36 47 65 72 92 94 87 86 71 46
2290.0 38 29 26 34 28 14 21 37 22 14
2330.0 27 35 32 30 20 0 0 20 51 68
2370.0 79 89 70 51 42 33 30 25 25 24
2410.0 25 29 29 29 28 24 28 22 25 29
2450.0 36 30 30 30 30 35 38 42 48 45
2490.0 50 55 67 72 68 62 62 73 90 94
2530.0 109 122 128 140 128 115 105 95 88 79
2570.0 73 74 73 73 75 72 70 67 57 43
2610.0 55 38 48 54 54 61 56 59 51 32
2650.0 37 32 32 33 13 14 15 9 5 0
2690.0 9 6 15 15 17 17 12 19 16 26
2730.0 27 27 27 21 33 28 32 37 40 32
2770.0 38 29 23 12 23 29 39 50 63 74
2810.0 103 117 152 190 260 371 577 877 1267 1443
2850.0 1457 1240 882 608 496 439 449 438 472 500
2890.0 532 548 597 655 738 836 941 969 977 988
2930.0 1026 1209 1481 1812 2065 2180 2131 1993 1822 1733
2970.0 1417 1124 902 713 583 532 572 689 937 1267
3010.0 1609 1665 1554 1258 829 576 472 416 389 376
3050.0 376 390 495 710 1086 1557 1932 2057 1856 1459
3090.0 1057 792 607 439 269 156 110 94 76 80
3130.0 84 79 92 93 88 93 69 67 58 36
3170.0 57 42 35 26 35 27 23 22 38 23
3210.0 22 23 34 35 33 45 13 0 27 40
3250.0 34 28 16 10 18 11 24 0 4 12
3290.0 11 12 20 24 23 23 30 17 7 6
3330.0 11 2 8 17 15 5 30 24 43 33
3370.0 20 34 28 13 20 8 20 6 14 4
3410.0 12 2 17 15 12 0 20 20 11 1
3450.0 0 9 8 30 27 11 11 10 31 32
3490.0 37 12 24 8 16 38 15 14 13 5
3530.0 13 14 13 18 42 23 26 14 21 27
3570.0 32 25 20 27 27 29 20 38 36 30
3610.0 43 42 46 36 46 44 40 51 51 39
3650.0 65 52 52 38 32 44 41 48 54 41
3690.0 36 48 39 29 34 23 40 45 47 54
3730.0 49 46 55 43 18 31 40 43 45 35
3770.0 32 44 33 28 19 23 22 17 20 18
3810.0 22 35 19 30 32 36 33 30 36 36
3850.0 43 41 45 45 31 40 39 36 48 48
3890.0 46 42 35 22 30 38 40 40 34 40
3930.0 37 30 29 35 35 36 31 33 32 33
##END=
