##TITLE=1-Naphthalenol, 1,2,3,4-tetrahydro-
##JCAMP-DX=4.24
##DATA TYPE=INFRARED SPECTRUM
##ORIGIN=Sadtler Research Labs Under US-EPA Contract
##OWNER=NIST Standard Reference Data Program
##CAS REGISTRY NO=529-33-9
##MOLFORM=C 10 H 12 O
##XUNITS=1/CM
##YUNITS=ABSORBANCE
##XFACTOR=1.0
##YFACTOR=0.000065341
##DELTAX=4.0
##FIRSTX=450.0
##LASTX=3966.0
##FIRSTY=0.006599
##MAXX=3966
##MINX=450
##MAXY=0.65341
##MINY=0
##NPOINTS=880
##XYDATA=(X++(Y..Y))
450.0 101 282 275 227 342 406 460 437 337 342
490.0 254 285 195 162 202 197 233 282 273 285
530.0 270 287 313 284 287 223 207 147 91 110
570.0 178 224 268 335 423 412 330 331 296 279
610.0 279 273 204 182 160 119 110 92 115 146
650.0 147 168 126 160 77 12 113 0 82 82
690.0 97 110 126 141 143 193 317 563 1116 1943
730.0 2860 4145 5051 4127 3167 2459 1851 1543 1743 1963
770.0 2068 1931 1322 942 604 403 348 382 402 444
810.0 436 366 299 260 248 287 362 457 535 597
850.0 576 523 470 420 421 442 512 599 573 554
890.0 501 448 482 570 672 762 777 708 614 517
930.0 465 470 512 603 731 838 1157 1629 2053 2299
970.0 2174 1768 1320 1033 1039 1249 1509 1796 1868 1610
1010.0 1329 1152 1123 1324 1742 2268 2693 2924 2748 2476
1050.0 2167 1899 1948 2166 2438 2614 2607 2360 2003 1615
1090.0 1240 957 760 632 590 640 699 704 658 593
1130.0 502 455 478 565 713 905 1108 1198 1282 1310
1170.0 1292 1280 1293 1281 1253 1239 1238 1254 1267 1280
1210.0 1287 1283 1282 1271 1242 1186 1128 1079 1057 1073
1250.0 1104 1150 1197 1245 1302 1342 1358 1317 1216 1056
1290.0 901 795 738 717 714 731 773 817 884 944
1330.0 1019 1119 1250 1445 1636 1727 1734 1704 1675 1780
1370.0 1956 2122 2172 2097 1867 1589 1271 999 820 695
1410.0 608 557 515 531 598 735 957 1177 1476 1772
1450.0 1909 1967 1922 1736 1446 1139 896 861 1136 1532
1490.0 1731 1727 1483 1027 551 303 240 181 176 142
1530.0 140 116 137 135 109 128 122 164 153 165
1570.0 193 234 298 332 336 369 377 406 438 454
1610.0 423 354 319 224 215 171 189 161 162 122
1650.0 162 119 135 112 125 119 156 134 173 174
1690.0 168 161 192 186 204 218 220 224 218 207
1730.0 195 214 204 210 196 171 167 156 144 130
1770.0 133 133 139 127 148 151 179 194 212 231
1810.0 246 232 222 202 183 194 192 201 189 179
1850.0 163 145 132 121 122 115 133 141 154 162
1890.0 161 165 167 172 198 236 277 288 286 265
1930.0 230 206 218 242 269 275 244 205 154 121
1970.0 117 113 115 114 109 108 108 109 108 108
2010.0 109 105 103 101 109 112 112 114 111 115
2050.0 117 119 118 117 116 122 119 117 119 113
2090.0 107 109 113 116 111 109 109 109 106 107
2130.0 106 110 110 111 115 115 113 116 118 118
2170.0 118 122 124 121 124 124 127 126 128 126
2210.0 128 131 132 136 138 141 137 142 142 138
2250.0 134 132 137 132 136 129 129 122 119 105
2290.0 94 73 62 56 35 22 27 25 9 12
2330.0 9 9 9 7 11 67 9 9 9 9
2370.0 9 16 37 79 121 145 157 154 160 149
2410.0 157 154 154 141 145 148 144 152 146 146
2450.0 149 149 145 149 141 140 139 138 140 142
2490.0 144 142 149 145 144 145 144 142 148 143
2530.0 143 143 141 138 140 142 142 141 142 146
2570.0 148 150 155 161 160 161 168 168 177 176
2610.0 183 183 184 180 175 181 171 175 176 177
2650.0 189 193 203 209 230 234 246 250 241 230
2690.0 221 211 200 198 193 188 187 186 190 186
2730.0 192 196 195 189 191 194 202 204 213 222
2770.0 239 245 261 269 279 291 304 322 332 348
2810.0 363 374 390 419 460 547 699 948 1309 1718
2850.0 2052 2332 2507 2587 2680 2860 3104 3227 3248 3271
2890.0 3211 3195 3209 3232 3209 3270 3423 3993 4719 5173
2930.0 5773 6390 7273 8185 9281 10000 9842 8710 6370 4063
2970.0 2050 1081 744 573 496 445 438 454 514 614
3010.0 793 1088 1490 1910 2168 2283 2221 1911 1594 1439
3050.0 1424 1522 1678 1862 2038 2204 2382 2456 2240 1842
3090.0 1392 923 600 450 408 367 325 265 216 184
3130.0 154 146 148 146 146 147 149 156 163 166
3170.0 161 140 128 115 113 113 115 110 102 102
3210.0 102 101 95 99 91 89 88 85 80 79
3250.0 82 77 80 78 82 76 82 91 81 77
3290.0 83 80 83 91 86 90 83 89 89 90
3330.0 80 85 81 77 91 84 87 85 89 93
3370.0 92 97 96 101 93 97 91 90 95 95
3410.0 93 95 99 91 92 90 86 81 89 79
3450.0 70 84 83 79 87 82 87 81 76 83
3490.0 90 94 96 81 83 84 93 100 87 47
3530.0 71 83 80 74 42 59 63 72 54 22
3570.0 25 67 65 61 44 17 42 68 74 83
3610.0 76 118 199 266 457 542 737 897 1079 1280
3650.0 1111 886 706 454 328 155 152 83 125 69
3690.0 77 56 76 43 54 57 43 56 46 30
3730.0 31 45 17 56 19 78 40 76 85 91
3770.0 56 77 76 77 93 69 86 87 102 50
3810.0 119 78 86 77 67 84 64 78 69 85
3850.0 68 77 70 80 94 59 63 82 70 52
3890.0 89 46 55 16 39 67 76 41 47 40
3930.0 41 35 49 38 13 26 54 55 47 53
##END=
