##TITLE=Benzonitrile, 2-methyl-
##JCAMP-DX=4.24
##DATA TYPE=INFRARED SPECTRUM
##ORIGIN=Sadtler Research Labs Under US-EPA Contract
##OWNER=NIST Standard Reference Data Program
##CAS REGISTRY NO=529-19-1
##MOLFORM=C 8 H 7 N
##XUNITS=1/CM
##YUNITS=ABSORBANCE
##XFACTOR=1.0
##YFACTOR=0.000066837
##DELTAX=4.0
##FIRSTX=450.0
##LASTX=3966.0
##FIRSTY=0.152187
##MAXX=3966
##MINX=450
##MAXY=0.66837
##MINY=0
##NPOINTS=880
##XYDATA=(X++(Y..Y))
450.0 2277 1864 1628 867 826 661 388 217 139 90
490.0 43 22 21 8 7 36 18 47 11 66
530.0 32 83 134 247 396 427 462 724 680 311
570.0 360 292 321 243 243 179 141 220 166 128
610.0 40 155 68 123 104 125 114 90 124 53
650.0 94 55 134 58 128 121 161 139 187 278
690.0 207 431 504 858 725 1376 2098 1380 1086 1177
730.0 1079 1179 1884 2951 4412 4590 6954 10000 6011 4137
770.0 4251 2499 1372 447 299 116 131 114 140 148
810.0 107 196 137 167 160 232 193 199 200 162
850.0 164 110 127 58 111 110 171 186 196 178
890.0 160 146 97 126 105 151 142 171 186 252
930.0 324 336 358 349 416 329 251 225 204 184
970.0 160 146 135 136 134 136 135 138 161 189
1010.0 189 186 196 179 206 246 364 526 595 595
1050.0 578 518 387 291 237 196 152 140 134 155
1090.0 198 283 398 547 698 671 653 659 518 339
1130.0 239 190 173 185 209 249 323 419 416 409
1170.0 420 374 297 231 195 186 213 251 306 360
1210.0 394 399 392 345 269 197 170 180 197 236
1250.0 264 269 290 308 332 353 423 503 573 592
1290.0 530 530 442 294 229 222 242 264 262 264
1330.0 246 232 195 173 164 180 195 203 232 239
1370.0 261 269 347 426 548 590 621 620 513 397
1410.0 318 315 358 442 499 591 699 799 1003 1129
1450.0 1335 1435 1627 1639 1605 1601 1729 2083 2368 2563
1490.0 2520 2574 2245 1603 1186 843 737 621 571 451
1530.0 399 367 360 346 314 296 267 264 248 241
1570.0 265 263 318 335 388 481 598 734 772 812
1610.0 818 779 698 537 518 395 350 207 150 102
1650.0 101 69 92 60 60 68 46 58 67 92
1690.0 120 181 200 231 201 186 147 128 95 109
1730.0 147 133 133 118 93 68 76 49 65 52
1770.0 61 49 49 46 59 75 122 160 217 244
1810.0 236 234 219 161 121 102 121 148 163 170
1850.0 151 135 94 56 39 51 51 74 103 124
1890.0 139 138 147 134 138 158 205 276 308 303
1930.0 295 279 199 145 129 164 214 239 239 221
1970.0 184 120 55 34 29 26 25 15 17 11
2010.0 19 11 20 18 15 18 18 15 9 12
2050.0 8 7 4 3 2 3 8 5 10 17
2090.0 17 17 22 25 20 18 17 15 7 8
2130.0 3 8 4 0 1 4 9 8 7 9
2170.0 20 22 27 26 29 37 40 59 75 106
2210.0 159 273 483 812 1160 1363 1416 1338 1087 612
2250.0 198 69 49 41 47 53 51 50 49 43
2290.0 39 26 31 33 33 34 44 60 73 92
2330.0 76 71 66 28 7 13 0 6 0 1
2370.0 12 26 32 32 35 40 40 40 41 41
2410.0 39 42 41 44 42 44 44 42 42 39
2450.0 31 27 30 22 19 17 15 13 15 18
2490.0 20 24 25 25 21 21 10 7 6 5
2530.0 2 3 4 5 3 10 11 21 21 26
2570.0 33 28 27 28 27 34 34 39 41 49
2610.0 47 51 38 27 20 21 19 14 14 18
2650.0 15 17 13 18 23 31 41 53 62 62
2690.0 64 63 43 42 42 43 39 40 43 39
2730.0 39 43 51 59 73 84 94 105 111 115
2770.0 102 95 85 78 65 68 62 62 59 58
2810.0 61 63 68 72 78 79 91 106 121 138
2850.0 169 209 263 329 410 498 572 622 645 641
2890.0 611 571 538 512 513 535 583 658 765 934
2930.0 1136 1301 1368 1366 1341 1221 1040 901 842 838
2970.0 829 802 812 826 827 829 826 801 762 717
3010.0 695 702 773 929 1167 1431 1632 1703 1737 1706
3050.0 1543 1382 1354 1461 1687 1985 2279 2429 2429 2274
3090.0 1957 1572 1157 840 668 566 481 384 306 232
3130.0 175 148 130 122 123 116 110 111 104 85
3170.0 78 69 61 51 44 40 37 32 32 30
3210.0 28 23 22 20 15 18 20 13 18 13
3250.0 9 12 13 11 17 18 15 19 21 23
3290.0 22 15 21 25 24 18 22 31 22 28
3330.0 29 28 39 41 39 38 31 35 28 27
3370.0 26 29 24 23 36 35 39 44 55 54
3410.0 60 64 63 73 69 69 69 68 55 51
3450.0 47 59 46 35 33 28 30 30 30 23
3490.0 38 31 38 37 25 37 38 42 39 18
3530.0 33 28 27 32 22 37 46 13 41 10
3570.0 27 36 36 37 7 28 19 24 26 30
3610.0 20 15 31 22 41 61 46 98 118 165
3650.0 172 162 196 149 170 58 67 14 44 19
3690.0 8 27 36 30 40 23 40 41 25 41
3730.0 36 31 24 60 7 64 8 49 45 30
3770.0 35 38 56 27 40 54 49 40 72 38
3810.0 77 40 83 26 70 69 63 53 64 58
3850.0 57 59 51 62 57 46 75 84 92 93
3890.0 136 103 125 88 93 85 81 44 65 47
3930.0 49 45 54 58 45 60 39 64 39 46
##END=
