##TITLE=Pyridine, 3-ethyl-4-methyl-
##JCAMP-DX=4.24
##DATA TYPE=INFRARED SPECTRUM
##ORIGIN=Sadtler Research Labs Under US-EPA Contract
##OWNER=NIST Standard Reference Data Program
##CAS REGISTRY NO=529-21-5
##MOLFORM=C 8 H 11 N
##XUNITS=1/CM
##YUNITS=ABSORBANCE
##XFACTOR=1.0
##YFACTOR=0.000056070
##DELTAX=4.0
##FIRSTX=450.0
##LASTX=3966.0
##FIRSTY=0.046370
##MAXX=3966
##MINX=450
##MAXY=0.5607
##MINY=0
##NPOINTS=880
##XYDATA=(X++(Y..Y))
450.0 827 673 360 330 126 40 54 0 96 168
490.0 340 352 505 526 543 431 379 251 183 118
530.0 50 76 30 107 89 305 341 308 252 249
570.0 200 112 101 74 95 69 94 84 148 160
610.0 160 145 125 101 71 60 18 60 44 52
650.0 52 40 27 25 28 45 84 37 61 31
690.0 65 71 79 107 150 189 265 342 417 559
730.0 725 899 995 1117 1220 1030 780 655 527 389
770.0 362 344 431 440 555 550 592 578 740 1006
810.0 1433 1849 2330 3714 3485 2486 2451 1964 1459 834
850.0 474 265 199 150 127 119 102 99 66 96
890.0 79 87 68 96 107 133 171 204 265 279
930.0 248 233 269 282 364 462 611 715 798 825
970.0 767 681 518 465 420 390 328 307 256 199
1010.0 195 202 232 263 330 359 414 440 503 578
1050.0 695 836 922 979 1020 958 789 685 577 437
1090.0 318 244 199 159 152 134 145 128 143 137
1130.0 144 141 174 189 180 199 210 208 197 217
1170.0 219 268 361 551 767 880 909 908 857 690
1210.0 626 659 659 653 627 537 399 324 262 249
1250.0 235 245 243 255 260 243 248 220 232 222
1290.0 258 263 302 344 396 394 411 437 394 377
1330.0 348 376 366 348 312 317 308 317 374 412
1370.0 517 649 841 958 1028 1129 1219 1488 1873 2267
1410.0 2468 2521 2523 2182 1890 1665 1702 1706 1863 1939
1450.0 2230 2326 2578 2710 2729 2729 2537 2312 2074 2074
1490.0 1980 1860 1704 1494 1199 797 617 504 468 490
1530.0 496 497 550 574 766 834 1080 1117 1458 1596
1570.0 1850 2014 2437 3230 3759 4526 4540 4795 4093 3442
1610.0 2513 1630 1019 664 540 447 404 369 367 344
1650.0 334 272 337 291 246 220 170 144 147 92
1690.0 155 138 149 191 229 258 253 261 264 287
1730.0 262 261 205 224 179 181 166 152 131 137
1770.0 160 152 207 189 219 167 188 175 153 122
1810.0 108 95 71 74 58 75 75 107 97 113
1850.0 110 90 84 82 79 84 113 139 184 196
1890.0 196 193 159 123 91 94 111 132 199 220
1930.0 237 220 193 143 98 64 53 40 48 44
1970.0 35 38 31 30 18 26 16 11 12 15
2010.0 18 13 20 20 23 14 22 22 30 32
2050.0 34 27 29 30 27 26 19 22 10 16
2090.0 19 19 11 16 20 15 18 20 24 24
2130.0 29 27 33 35 43 39 37 45 45 45
2170.0 46 46 47 45 48 46 42 42 52 52
2210.0 55 59 63 56 53 54 53 56 52 55
2250.0 53 54 52 52 51 57 63 63 68 64
2290.0 66 58 52 44 32 19 21 10 10 17
2330.0 17 22 33 46 57 39 10 10 30 75
2370.0 99 121 121 107 96 84 78 75 79 80
2410.0 82 86 92 97 102 111 109 119 119 120
2450.0 123 121 117 116 118 110 107 97 98 87
2490.0 85 82 77 70 71 67 60 63 60 60
2530.0 61 68 70 65 63 62 55 54 56 57
2570.0 58 54 64 63 68 73 72 77 80 89
2610.0 95 99 103 104 104 109 109 110 115 112
2650.0 109 106 110 105 107 107 114 114 112 116
2690.0 112 112 112 114 115 124 122 130 138 152
2730.0 182 200 222 236 243 236 221 201 196 199
2770.0 204 213 223 242 255 264 268 277 281 290
2810.0 295 312 328 356 389 428 480 536 617 704
2850.0 830 977 1186 1450 1781 2177 2649 3174 3615 3950
2890.0 3940 3696 3427 3161 2960 2880 2893 3034 3308 3713
2930.0 4245 4902 5568 6065 6335 6188 5892 5742 5958 7129
2970.0 8662 9837 10000 9769 8390 6298 4731 3961 3537 3391
3010.0 3369 3387 3427 3503 3444 3243 3083 2974 3026 3209
3050.0 3560 3867 3985 3854 3484 2963 2364 1891 1564 1330
3090.0 1157 1038 925 820 706 595 496 418 357 327
3130.0 304 285 270 260 252 249 247 234 234 230
3170.0 217 215 211 196 180 164 145 139 124 123
3210.0 124 118 117 113 113 116 114 107 113 114
3250.0 113 100 104 118 119 124 119 119 123 126
3290.0 133 131 134 124 124 124 125 126 131 125
3330.0 135 140 137 140 137 135 132 137 133 133
3370.0 121 125 115 124 125 134 128 128 142 134
3410.0 137 139 134 137 152 144 142 136 146 131
3450.0 121 130 141 137 139 143 138 130 131 146
3490.0 132 139 136 126 131 130 124 129 128 124
3530.0 121 118 127 124 119 131 121 133 132 112
3570.0 149 132 147 142 120 117 117 132 121 117
3610.0 77 117 91 105 104 69 154 123 121 79
3650.0 31 124 113 128 101 40 77 64 160 81
3690.0 90 111 146 115 114 90 95 134 95 110
3730.0 96 47 99 83 62 100 77 151 116 111
3770.0 114 133 140 128 145 129 118 63 88 80
3810.0 144 81 113 87 123 121 92 79 131 141
3850.0 107 68 166 127 126 107 142 141 149 119
3890.0 153 119 148 74 145 158 167 139 159 148
3930.0 116 141 164 181 141 152 159 169 144 141
##END=
