##TITLE=Cyclohexaneacetic acid
##JCAMP-DX=4.24
##DATA TYPE=INFRARED SPECTRUM
##ORIGIN=Sadtler Research Labs Under US-EPA Contract
##OWNER=NIST Standard Reference Data Program
##CAS REGISTRY NO=5292-21-7
##MOLFORM=C 8 H 14 O 2
##XUNITS=1/CM
##YUNITS=ABSORBANCE
##XFACTOR=1.0
##YFACTOR=0.000052094
##DELTAX=4.0
##FIRSTX=450.0
##LASTX=3966.0
##FIRSTY=0.022244
##MAXX=3966
##MINX=450
##MAXY=0.52094
##MINY=0
##NPOINTS=880
##XYDATA=(X++(Y..Y))
450.0 427 218 372 163 269 80 367 145 405 263
490.0 394 354 422 488 402 709 584 666 548 530
530.0 439 295 455 331 247 325 391 359 575 603
570.0 831 991 1419 1674 1950 2014 1788 2006 1596 1705
610.0 1500 1505 1405 1493 1443 1455 1348 1150 1024 851
650.0 877 673 568 504 465 411 366 412 306 360
690.0 393 418 395 422 379 304 335 257 300 202
730.0 234 203 204 147 149 146 109 174 85 118
770.0 54 77 33 56 64 18 147 78 127 49
810.0 87 61 102 63 72 120 94 139 128 174
850.0 121 168 132 131 128 142 138 116 169 139
890.0 175 186 239 216 227 233 194 187 149 186
930.0 135 184 171 174 180 159 183 165 226 220
970.0 241 180 160 122 113 100 112 120 94 139
1010.0 122 179 196 249 279 314 358 384 470 516
1050.0 639 706 857 1003 1174 1374 1554 1757 1983 2365
1090.0 2804 3387 3995 4516 4631 4355 3862 3176 2643 2289
1130.0 2194 2187 2306 2426 2508 2468 2277 2071 1862 1673
1170.0 1519 1427 1329 1219 1093 942 844 802 852 904
1210.0 999 1010 960 863 785 707 619 587 532 549
1250.0 538 554 534 522 518 532 579 597 671 689
1290.0 704 692 686 646 610 552 509 484 471 488
1330.0 498 549 599 674 749 791 855 895 954 968
1370.0 1031 1025 1024 1007 958 872 738 591 472 418
1410.0 362 359 369 394 410 435 491 567 707 863
1450.0 991 1062 1036 851 639 452 325 233 142 125
1490.0 94 95 68 65 51 47 48 29 27 21
1530.0 30 17 29 16 18 21 12 25 10 17
1570.0 19 17 8 30 21 8 24 31 35 27
1610.0 40 20 32 33 26 24 19 28 20 38
1650.0 27 42 41 54 61 68 80 106 127 150
1690.0 191 197 215 221 251 289 339 410 486 608
1730.0 719 892 1078 1320 1631 2025 2510 3162 4076 5174
1770.0 6357 7270 7619 7159 6021 4665 3434 2533 1895 1466
1810.0 1134 864 652 489 365 286 243 188 176 135
1850.0 117 98 95 90 68 75 70 78 56 57
1890.0 59 63 52 50 49 43 44 40 48 41
1930.0 57 52 49 58 53 46 52 48 52 53
1970.0 46 51 40 44 43 27 35 36 31 31
2010.0 26 28 27 22 28 43 28 14 21 20
2050.0 13 14 14 20 31 26 29 37 44 32
2090.0 24 22 21 20 22 16 19 28 35 33
2130.0 35 39 38 26 36 31 38 34 42 40
2170.0 45 43 52 43 47 51 59 62 44 56
2210.0 46 50 42 40 47 43 52 51 51 46
2250.0 37 35 36 40 33 40 38 46 47 73
2290.0 78 102 108 132 145 176 157 143 152 93
2330.0 119 60 39 100 42 130 157 130 55 18
2370.0 1 1 0 27 37 35 28 25 34 34
2410.0 28 29 25 23 23 16 20 20 3 13
2450.0 11 16 12 6 9 13 17 8 12 1
2490.0 18 19 2 8 6 18 3 19 13 37
2530.0 23 29 31 25 14 9 19 24 31 22
2570.0 34 42 56 53 57 72 59 69 69 83
2610.0 67 90 94 112 134 135 143 156 184 197
2650.0 187 193 187 180 179 202 185 170 150 121
2690.0 90 77 84 53 62 54 53 50 48 48
2730.0 47 41 46 33 17 35 43 48 32 37
2770.0 40 57 67 86 84 102 123 133 146 160
2810.0 166 153 185 196 207 255 317 434 627 973
2850.0 1439 2056 2757 3219 3239 2934 2326 1714 1249 1013
2890.0 957 1041 1213 1543 1906 2480 3133 4015 5192 6641
2930.0 8215 9527 10000 9287 7766 5850 3818 2221 1385 945
2970.0 707 577 447 355 283 254 184 164 160 123
3010.0 106 106 81 63 53 77 62 69 70 58
3050.0 75 67 52 40 30 47 40 16 31 66
3090.0 54 71 41 49 60 38 54 64 46 65
3130.0 25 29 65 80 74 48 45 85 57 49
3170.0 61 69 63 64 54 52 56 32 43 33
3210.0 50 58 64 54 53 75 64 93 76 98
3250.0 78 77 80 71 55 51 59 66 49 45
3290.0 72 54 37 68 40 87 45 28 37 10
3330.0 40 25 42 30 52 82 63 36 39 38
3370.0 31 15 22 63 38 36 36 42 52 52
3410.0 55 13 43 40 78 27 65 57 90 53
3450.0 18 24 41 73 49 44 51 36 31 48
3490.0 26 47 48 63 79 94 107 73 99 116
3530.0 100 112 154 163 143 191 232 396 772 1580
3570.0 2590 2905 2820 2287 1265 550 302 209 166 132
3610.0 129 100 96 74 71 101 57 73 97 99
3650.0 69 94 69 93 109 95 108 96 101 56
3690.0 71 75 90 64 106 95 71 34 117 96
3730.0 71 63 77 53 111 134 106 87 106 141
3770.0 82 58 111 111 67 76 73 115 108 74
3810.0 71 81 108 84 72 101 133 118 47 94
3850.0 99 99 96 19 62 1 117 59 100 103
3890.0 177 116 161 110 73 45 45 42 56 99
3930.0 60 115 151 133 123 86 16 68 104 10
##END=
