##TITLE=Naphthalene, 1,7-dimethoxy-
##JCAMP-DX=4.24
##DATA TYPE=INFRARED SPECTRUM
##ORIGIN=Sadtler Research Labs Under US-EPA Contract
##OWNER=NIST Standard Reference Data Program
##CAS REGISTRY NO=5309-18-2
##MOLFORM=C 12 H 12 O 2
##XUNITS=1/CM
##YUNITS=ABSORBANCE
##XFACTOR=1.0
##YFACTOR=0.000138293
##DELTAX=4.0
##FIRSTX=450.0
##LASTX=3966.0
##FIRSTY=0.035680
##MAXX=3966
##MINX=450
##MAXY=1.38293
##MINY=0
##NPOINTS=880
##XYDATA=(X++(Y..Y))
450.0 258 172 42 277 127 228 326 143 282 188
490.0 102 34 101 113 279 223 296 231 219 306
530.0 348 389 294 292 197 224 192 289 317 402
570.0 470 432 432 359 383 365 442 401 395 257
610.0 199 146 101 76 62 65 24 47 21 60
650.0 30 61 44 55 75 126 87 68 142 206
690.0 440 703 906 854 693 624 859 1057 1278 1573
730.0 1680 2335 2023 1234 788 314 149 91 91 112
770.0 160 232 214 149 139 99 106 130 183 361
810.0 777 1634 2392 3884 3486 2308 1594 809 571 653
850.0 791 1025 973 775 636 509 429 431 386 324
890.0 298 342 498 760 903 850 607 327 202 157
930.0 136 132 141 149 168 189 206 200 192 189
970.0 210 218 258 311 430 682 1059 1289 1267 1018
1010.0 670 566 675 884 1273 1830 2505 3055 3221 2956
1050.0 2375 1772 1441 1350 1354 1358 1362 1489 1819 2374
1090.0 3076 3803 4367 4425 3831 2755 1617 894 562 430
1130.0 410 458 515 573 618 756 1084 1601 2027 2124
1170.0 1988 1795 1848 2058 2135 2112 2069 2206 2505 2843
1210.0 3241 4018 5501 7285 8251 7958 6481 5057 4787 5989
1250.0 8133 9368 10000 9606 9357 8762 7194 4799 2630 1449
1290.0 929 711 606 532 475 426 391 394 453 575
1330.0 737 795 756 634 495 459 519 666 909 1253
1370.0 1651 2041 2375 2618 2625 2352 1815 1221 805 589
1410.0 502 519 605 856 1363 2364 3834 5070 5184 4295
1450.0 3218 2762 3071 3893 4898 6108 6357 5426 3660 2130
1490.0 1363 1303 1689 2453 3341 3817 3647 2769 1758 1013
1530.0 649 485 409 378 362 395 441 514 634 841
1570.0 1207 1711 2283 2751 3052 3256 3584 4163 4731 4723
1610.0 4002 2860 1989 1852 2343 2955 3259 2878 2076 1206
1650.0 718 485 331 269 221 217 215 240 247 230
1690.0 206 185 194 191 207 206 210 202 205 197
1730.0 176 154 123 103 84 90 94 99 98 108
1770.0 105 98 86 70 66 66 82 101 128 140
1810.0 134 111 87 71 59 46 38 34 28 25
1850.0 28 36 44 48 51 50 62 83 118 160
1890.0 204 238 244 222 191 157 138 120 103 99
1930.0 93 91 92 102 111 119 111 98 89 78
1970.0 76 74 75 74 74 70 67 62 49 47
2010.0 38 34 34 37 38 40 52 62 71 83
2050.0 93 101 117 129 144 156 165 167 161 156
2090.0 148 141 127 109 90 76 64 59 59 70
2130.0 74 76 78 77 80 82 92 95 93 78
2170.0 66 55 42 40 39 37 33 34 32 29
2210.0 27 25 24 24 24 20 18 13 15 12
2250.0 13 14 14 15 17 24 32 32 29 30
2290.0 26 31 26 27 23 15 14 11 15 19
2330.0 18 8 5 1 3 0 0 0 0 2
2370.0 2 4 8 15 17 9 4 3 2 1
2410.0 6 7 9 7 11 12 17 19 25 28
2450.0 29 38 41 46 53 64 65 67 63 64
2490.0 64 64 61 60 60 54 48 47 48 47
2530.0 41 42 40 38 31 25 15 21 16 19
2570.0 24 33 38 43 55 57 57 53 58 52
2610.0 53 56 56 51 51 50 54 68 64 68
2650.0 62 52 46 41 34 25 26 26 24 32
2690.0 37 41 45 49 57 58 61 68 72 64
2730.0 55 59 51 51 51 55 59 68 77 83
2770.0 93 91 101 108 114 128 150 165 196 229
2810.0 269 320 378 473 584 771 1061 1434 1827 2031
2850.0 1944 1594 1184 876 720 654 664 695 738 782
2890.0 827 881 973 1096 1226 1381 1565 1684 1693 1626
2930.0 1605 1730 2090 2663 3152 3394 3330 3110 2716 2134
2970.0 1660 1282 1033 921 902 1009 1266 1737 2420 2897
3010.0 2824 2344 1571 1078 913 842 769 687 647 660
3050.0 815 1086 1493 1939 2253 2209 1870 1424 1029 805
3090.0 709 710 673 636 553 456 361 268 201 161
3130.0 139 112 102 95 95 85 84 79 70 72
3170.0 74 68 66 64 56 63 60 59 52 66
3210.0 50 52 69 49 49 36 42 44 37 39
3250.0 38 37 39 43 55 40 20 27 49 37
3290.0 32 22 32 32 34 21 27 29 47 29
3330.0 21 40 39 33 43 31 39 41 40 33
3370.0 22 25 45 37 33 48 39 30 33 28
3410.0 24 37 35 16 40 26 47 44 38 35
3450.0 22 26 51 48 16 22 27 42 35 27
3490.0 45 49 46 34 59 50 45 50 35 29
3530.0 31 43 27 28 11 41 43 37 24 31
3570.0 43 31 35 26 29 34 35 32 24 33
3610.0 31 32 13 28 32 32 25 20 15 20
3650.0 15 54 15 13 20 13 31 9 24 12
3690.0 19 23 44 9 4 33 10 22 28 24
3730.0 33 24 21 32 27 26 19 24 28 39
3770.0 38 28 23 31 46 49 25 20 13 16
3810.0 35 29 25 25 31 39 34 28 52 31
3850.0 42 45 29 52 58 41 35 79 53 52
3890.0 46 83 33 56 31 81 40 62 64 91
3930.0 63 53 39 66 75 57 75 56 44 63
##END=
