##TITLE=Carbamic acid, allyl-, ethyl ester
##JCAMP-DX=4.24
##DATA TYPE=INFRARED SPECTRUM
##ORIGIN=Sadtler Research Labs Under US-EPA Contract
##OWNER=NIST Standard Reference Data Program
##CAS REGISTRY NO=5325-60-0
##MOLFORM=C 6 H 11 N O 2
##XUNITS=1/CM
##YUNITS=ABSORBANCE
##XFACTOR=1.0
##YFACTOR=0.000058350
##DELTAX=4.0
##FIRSTX=450.0
##LASTX=3966.0
##FIRSTY=0.023982
##MAXX=3966
##MINX=450
##MAXY=0.5835
##MINY=0
##NPOINTS=880
##XYDATA=(X++(Y..Y))
450.0 411 428 370 369 374 389 375 368 353 345
490.0 308 311 301 277 268 224 202 173 200 188
530.0 161 176 198 184 224 186 194 150 136 84
570.0 86 129 88 68 29 62 79 90 111 51
610.0 7 48 47 70 89 98 124 88 116 146
650.0 116 77 82 110 100 158 113 111 79 54
690.0 106 153 102 67 67 65 67 27 43 51
730.0 33 85 101 63 71 39 131 192 185 262
770.0 384 385 429 418 392 338 297 251 219 151
810.0 135 133 121 117 113 97 123 103 152 154
850.0 146 156 201 220 233 250 251 236 244 253
890.0 290 320 364 448 519 681 834 1027 1139 1160
930.0 1110 1002 800 650 530 431 363 321 311 319
970.0 338 370 430 503 568 596 622 621 599 628
1010.0 671 767 880 1066 1306 1531 1746 1812 1777 1630
1050.0 1427 1283 1235 1236 1286 1305 1237 1200 1104 1025
1090.0 999 1024 1059 1068 1060 1011 934 917 937 1046
1130.0 1233 1426 1561 1593 1493 1349 1316 1326 1372 1433
1170.0 1467 1516 1559 1631 1774 2024 2422 3034 3837 4912
1210.0 5846 6628 7074 6948 6554 5714 4942 4307 3756 3374
1250.0 3118 2899 2800 2693 2596 2497 2331 2073 1737 1405
1290.0 1150 967 898 913 994 1107 1272 1415 1483 1447
1330.0 1325 1184 1042 922 835 751 667 589 558 604
1370.0 733 909 1022 1064 1082 985 897 857 828 787
1410.0 760 763 762 764 781 799 818 862 924 1013
1450.0 1078 1130 1183 1271 1409 1617 1901 2285 2752 3367
1490.0 4300 5548 6885 7850 7954 7061 5519 3946 2778 1984
1530.0 1475 1180 977 821 718 644 572 494 436 398
1570.0 350 329 286 261 252 234 225 217 209 197
1610.0 189 181 176 172 165 182 215 274 328 363
1650.0 354 327 276 211 182 172 177 192 204 216
1690.0 227 270 314 359 422 475 567 681 862 1140
1730.0 1629 2385 3563 5167 7214 9171 9979 10000 8889 6662
1770.0 4494 2882 1790 1088 706 500 385 322 276 241
1810.0 224 198 200 181 183 170 156 152 150 140
1850.0 140 133 132 123 97 81 73 71 62 53
1890.0 48 47 50 39 47 40 40 48 40 33
1930.0 33 32 32 29 25 30 27 32 26 33
1970.0 33 34 34 34 34 36 33 33 34 34
2010.0 35 35 36 26 27 27 28 19 19 20
2050.0 20 10 20 20 19 20 29 28 28 38
2090.0 29 29 30 30 25 30 21 15 14 14
2130.0 13 14 6 14 16 19 24 23 23 23
2170.0 17 25 15 15 15 15 15 14 16 11
2210.0 5 12 12 15 8 16 7 9 9 17
2250.0 9 18 18 18 14 10 9 9 19 2
2290.0 11 11 19 11 11 10 12 5 12 1
2330.0 4 3 1 1 13 3 1 12 4 1
2370.0 2 5 10 3 14 7 14 14 14 15
2410.0 15 15 14 14 14 25 13 19 16 16
2450.0 16 16 7 8 7 7 8 8 8 8
2490.0 3 9 8 2 1 9 10 10 10 2
2530.0 7 5 9 12 1 2 2 2 11 2
2570.0 3 1 11 6 9 4 9 8 10 10
2610.0 12 12 12 13 4 6 3 15 7 10
2650.0 6 11 13 13 14 15 32 23 23 25
2690.0 22 33 32 41 42 41 41 50 42 51
2730.0 42 42 33 43 47 37 42 43 38 53
2770.0 49 52 51 51 52 53 53 58 59 63
2810.0 67 66 69 80 79 96 104 113 131 141
2850.0 176 198 232 275 310 366 410 473 529 557
2890.0 575 591 592 605 641 702 754 814 872 915
2930.0 966 1024 1115 1188 1182 1146 1056 979 954 1001
2970.0 1093 1222 1418 1616 1743 1788 1702 1504 1258 1055
3010.0 878 735 623 531 449 359 289 226 182 147
3050.0 146 145 146 164 165 212 234 265 304 361
3090.0 438 463 450 400 306 190 129 103 78 70
3130.0 62 49 51 47 46 48 38 47 38 38
3170.0 39 31 38 39 39 40 40 40 31 39
3210.0 32 31 31 23 23 22 26 28 20 21
3250.0 24 24 23 27 25 17 25 17 26 26
3290.0 14 22 12 19 13 17 16 18 18 18
3330.0 27 27 19 29 19 19 19 29 22 20
3370.0 29 21 21 37 30 21 27 31 30 24
3410.0 28 39 39 38 38 47 65 75 84 110
3450.0 140 183 259 360 477 609 718 796 808 741
3490.0 636 513 384 285 198 146 120 94 76 71
3530.0 52 68 59 52 42 43 51 41 45 33
3570.0 45 36 25 36 28 29 35 36 36 19
3610.0 23 25 20 24 24 21 21 21 21 29
3650.0 21 21 21 21 22 22 22 22 7 13
3690.0 23 23 14 6 7 15 14 13 6 20
3730.0 16 2 17 0 8 2 7 7 7 9
3770.0 9 1 8 9 1 4 2 11 1 1
3810.0 1 1 1 1 1 1 1 8 2 7
3850.0 1 1 1 1 2 4 1 1 1 1
3890.0 3 9 14 13 12 7 12 4 1 4
3930.0 5 5 14 17 13 5 1 1 1 1
##END=
