##TITLE=Acetamide, 2-chloro-N-hexyl-,
##JCAMP-DX=4.24
##DATA TYPE=INFRARED SPECTRUM
##ORIGIN=Sadtler Research Labs Under US-EPA Contract
##OWNER=NIST Standard Reference Data Program
##CAS REGISTRY NO=5326-81-8
##MOLFORM=C 8 H 16 Cl N O
##XUNITS=1/CM
##YUNITS=ABSORBANCE
##XFACTOR=1.0
##YFACTOR=0.000102655
##DELTAX=4.0
##FIRSTX=450.0
##LASTX=3966.0
##FIRSTY=0.012524
##MAXX=3966
##MINX=450
##MAXY=1.02655
##MINY=0
##NPOINTS=880
##XYDATA=(X++(Y..Y))
450.0 122 222 387 308 498 512 579 741 658 802
490.0 804 675 699 789 680 615 561 547 513 437
530.0 394 370 326 292 245 142 97 110 55 57
570.0 87 49 56 56 26 92 41 63 59 95
610.0 121 109 85 31 63 100 49 86 77 27
650.0 77 21 87 79 71 133 75 180 129 130
690.0 155 147 157 168 194 199 190 234 234 298
730.0 360 393 518 596 648 748 1049 1223 1396 1455
770.0 1254 1044 825 601 464 357 254 226 208 176
810.0 162 163 148 52 60 90 72 50 54 32
850.0 40 36 102 78 78 76 14 71 94 88
890.0 89 66 102 94 104 141 143 159 161 215
930.0 172 150 131 137 97 105 94 89 118 101
970.0 96 102 106 133 105 120 101 135 143 112
1010.0 135 117 134 146 127 142 167 149 181 170
1050.0 176 163 195 194 196 221 242 259 272 257
1090.0 284 298 309 297 260 271 292 275 294 288
1130.0 294 273 268 280 277 283 260 246 245 243
1170.0 264 275 315 318 306 377 405 430 482 518
1210.0 575 618 731 808 894 1059 1183 1395 1662 1978
1250.0 2273 2407 2238 2027 1774 1567 1415 1285 1161 983
1290.0 911 812 768 742 680 660 591 511 507 443
1330.0 421 418 378 385 440 467 479 486 508 553
1370.0 585 574 606 618 567 508 430 409 447 479
1410.0 541 685 844 1028 996 917 737 846 1013 1101
1450.0 1230 1334 1316 1549 1520 1612 1491 1539 1673 1728
1490.0 2035 2356 2902 3608 4141 5522 6272 7331 7401 6908
1530.0 5982 4533 3519 2423 1903 1499 1165 925 681 677
1570.0 548 408 425 275 328 278 254 247 203 199
1610.0 193 192 167 171 155 204 137 263 213 309
1650.0 348 251 536 469 646 721 835 1071 1303 1754
1690.0 2517 3480 5300 6785 9088 10000 9052 8113 5500 3994
1730.0 2664 1785 1328 957 762 597 532 430 386 351
1770.0 260 270 209 199 178 144 114 104 74 108
1810.0 93 86 103 80 59 53 55 79 30 54
1850.0 40 75 60 43 50 8 52 51 45 48
1890.0 30 39 37 39 37 35 28 33 9 38
1930.0 34 32 40 14 36 29 27 39 26 30
1970.0 21 33 34 31 44 13 27 35 40 40
2010.0 41 46 36 38 48 43 46 40 35 39
2050.0 37 39 39 32 32 38 38 39 31 40
2090.0 32 35 39 34 34 35 36 40 31 37
2130.0 37 37 37 33 36 39 37 41 37 32
2170.0 39 32 37 33 34 33 35 35 29 33
2210.0 32 31 36 27 25 30 28 35 33 28
2250.0 30 29 35 35 38 40 39 47 49 52
2290.0 62 61 81 79 82 92 78 79 74 77
2330.0 65 50 65 23 100 60 102 53 66 48
2370.0 53 42 62 68 56 44 37 35 33 32
2410.0 36 36 34 31 31 33 31 31 30 28
2450.0 26 28 28 29 25 29 24 23 20 23
2490.0 20 22 20 22 25 22 16 22 22 18
2530.0 24 22 22 25 27 29 25 34 29 32
2570.0 38 37 42 40 35 44 45 44 47 46
2610.0 47 46 51 47 51 52 51 52 53 53
2650.0 61 61 65 69 77 82 83 91 89 88
2690.0 88 84 86 88 89 87 88 97 96 104
2730.0 108 104 113 121 124 126 120 114 112 118
2770.0 119 122 126 135 145 154 161 181 196 210
2810.0 234 255 277 309 348 396 444 510 604 748
2850.0 968 1268 1664 2078 2396 2540 2512 2426 2352 2240
2890.0 2119 1979 1921 1994 2168 2435 2835 3357 4037 4857
2930.0 5694 6354 6633 6391 5772 4972 4276 3891 3872 4072
2970.0 4161 3790 3076 2254 1630 1245 975 784 649 543
3010.0 471 407 357 317 283 260 238 219 214 191
3050.0 171 157 152 146 141 135 127 120 121 113
3090.0 105 99 95 97 88 91 88 81 76 72
3130.0 69 71 67 70 69 69 66 69 64 64
3170.0 71 67 66 68 73 66 62 64 64 60
3210.0 62 63 67 54 55 57 59 59 53 56
3250.0 59 52 58 52 41 51 52 52 58 50
3290.0 45 56 48 52 54 51 49 58 51 54
3330.0 50 51 55 66 53 65 75 61 69 69
3370.0 79 79 85 100 106 127 149 162 172 175
3410.0 190 200 206 248 301 394 550 710 923 1149
3450.0 1309 1377 1307 1119 869 625 448 313 234 183
3490.0 148 118 106 95 93 85 84 73 69 62
3530.0 70 57 60 50 56 42 71 40 75 51
3570.0 80 45 74 52 76 38 84 45 71 61
3610.0 67 89 42 97 37 106 55 68 44 97
3650.0 23 135 15 108 39 60 111 37 102 30
3690.0 95 41 77 59 56 70 82 42 102 33
3730.0 66 78 33 119 4 172 0 96 20 75
3770.0 59 48 66 47 69 51 30 83 10 105
3810.0 10 98 24 59 38 57 58 70 46 61
3850.0 33 74 26 54 95 49 63 45 55 17
3890.0 91 29 54 27 45 37 72 56 34 57
3930.0 22 73 54 64 72 19 69 48 41 64
##END=
