##TITLE=2,4,6-Cycloheptatrien-1-one, 2-hydroxy-
##JCAMP-DX=4.24
##DATA TYPE=INFRARED SPECTRUM
##ORIGIN=Sadtler Research Labs Under US-EPA Contract
##OWNER=NIST Standard Reference Data Program
##CAS REGISTRY NO=533-75-5
##MOLFORM=C 7 H 6 O 2
##XUNITS=1/CM
##YUNITS=ABSORBANCE
##XFACTOR=1.0
##YFACTOR=0.000088751
##DELTAX=4.0
##FIRSTX=450.0
##LASTX=3966.0
##FIRSTY=0.010384
##MAXX=3966
##MINX=450
##MAXY=0.88751
##MINY=0
##NPOINTS=880
##XYDATA=(X++(Y..Y))
450.0 117 165 104 118 38 105 61 57 21 61
490.0 44 33 21 75 35 36 24 42 36 26
530.0 64 59 104 120 116 118 110 112 77 78
570.0 34 35 8 10 1 22 6 18 18 20
610.0 31 35 49 34 43 48 87 111 155 247
650.0 327 476 594 757 840 1013 992 986 1027 1088
690.0 1230 1486 1801 2184 2622 3127 3596 3364 3174 3451
730.0 3605 3762 3799 3988 3784 3266 2654 2270 1793 1361
770.0 1067 739 586 470 349 237 170 137 102 90
810.0 78 71 60 50 43 63 81 119 170 199
850.0 250 397 415 352 417 435 441 395 354 302
890.0 269 292 355 422 523 865 790 497 484 448
930.0 437 505 639 751 771 760 663 532 314 133
970.0 51 20 18 19 24 17 34 49 65 68
1010.0 87 92 87 88 76 77 71 73 73 78
1050.0 88 105 121 134 145 153 173 189 206 229
1090.0 257 271 269 267 270 270 272 275 278 275
1130.0 260 243 224 201 182 172 175 185 200 211
1170.0 227 248 295 385 537 762 1046 1350 1596 1760
1210.0 1772 1708 1623 1464 1432 1553 1884 2483 3264 4000
1250.0 4554 5474 7345 9051 9607 9876 9390 8767 7305 4967
1290.0 3474 3002 2930 3046 3084 2919 2592 2105 1596 1045
1330.0 573 363 321 315 307 312 323 340 352 320
1370.0 289 282 275 292 362 475 658 934 1238 1637
1410.0 2103 2629 3238 3702 4188 4716 5285 5698 5904 6057
1450.0 6156 6077 5866 5735 5764 5999 6319 6930 7506 7955
1490.0 7885 7452 6643 5560 4322 3030 2081 1426 1188 1021
1530.0 980 970 1069 1242 1452 1675 1926 2207 2566 3013
1570.0 3495 3642 3513 3399 3346 2918 2382 2298 2723 3463
1610.0 4567 6112 7857 9171 10000 9764 9286 7780 5704 3515
1650.0 2147 1355 852 615 455 374 301 247 253 239
1690.0 204 175 208 184 185 163 185 208 196 194
1730.0 214 254 225 226 235 254 268 271 274 264
1770.0 286 256 223 200 187 153 154 136 146 137
1810.0 140 145 142 140 129 124 96 82 77 84
1850.0 65 55 53 48 50 54 55 60 75 77
1890.0 87 82 82 73 61 53 48 47 44 35
1930.0 38 44 54 75 102 119 136 139 142 138
1970.0 126 109 95 97 99 102 90 77 62 44
2010.0 28 17 11 11 5 7 4 6 6 1
2050.0 1 2 0 0 2 1 1 2 3 6
2090.0 8 12 12 12 15 14 15 16 15 15
2130.0 17 17 22 19 21 23 20 24 22 20
2170.0 17 14 9 10 9 4 3 4 4 2
2210.0 3 5 5 7 7 12 10 11 9 6
2250.0 6 4 0 0 3 4 6 9 16 24
2290.0 34 38 40 43 40 37 33 30 33 26
2330.0 24 26 21 23 24 57 48 45 43 40
2370.0 26 27 29 40 37 32 33 34 40 47
2410.0 54 56 61 59 57 59 56 51 53 60
2450.0 64 72 76 81 78 81 77 78 79 80
2490.0 81 82 84 83 81 76 77 72 67 66
2530.0 65 60 59 58 58 53 53 51 53 56
2570.0 58 56 63 64 61 64 66 68 66 66
2610.0 66 65 60 59 58 54 57 58 60 60
2650.0 64 67 75 78 85 94 99 106 108 113
2690.0 112 111 105 104 98 94 94 91 94 90
2730.0 97 93 94 92 94 102 105 105 110 115
2770.0 117 122 121 122 117 113 105 108 104 94
2810.0 93 93 93 102 98 99 103 99 107 109
2850.0 114 116 117 118 115 118 117 121 124 129
2890.0 134 134 136 136 137 139 138 145 154 165
2930.0 167 165 158 155 162 153 160 171 183 186
2970.0 193 198 201 201 203 216 240 276 318 379
3010.0 458 552 635 695 736 760 760 749 758 804
3050.0 860 920 949 942 912 835 742 667 619 598
3090.0 597 600 612 622 641 651 671 685 695 709
3130.0 718 721 717 717 712 713 707 714 715 715
3170.0 719 719 721 719 713 699 682 657 630 596
3210.0 564 533 511 488 474 461 465 461 458 461
3250.0 447 438 413 392 375 349 327 312 292 277
3290.0 267 252 243 234 223 215 208 206 199 191
3330.0 184 180 176 167 169 164 167 157 149 153
3370.0 150 145 150 140 145 143 144 149 151 148
3410.0 144 146 145 141 143 145 135 138 137 139
3450.0 138 138 136 143 140 138 137 127 132 126
3490.0 127 127 119 123 114 103 114 105 109 102
3530.0 95 96 92 84 92 82 80 82 72 87
3570.0 92 94 94 82 90 70 78 57 57 47
3610.0 53 41 47 44 34 43 39 32 38 24
3650.0 32 37 34 34 0 39 23 38 20 26
3690.0 20 21 31 20 22 19 22 24 21 30
3730.0 22 23 27 16 62 9 29 21 16 26
3770.0 14 25 23 28 19 17 18 18 3 29
3810.0 19 19 14 14 21 3 22 19 23 17
3850.0 24 33 22 32 20 30 32 37 24 48
3890.0 38 39 31 53 41 38 28 48 56 29
3930.0 43 36 14 26 46 43 36 27 30 25
##END=
