##TITLE=Butanoic acid, 2-bromo-, ethyl ester
##JCAMP-DX=4.24
##DATA TYPE=INFRARED SPECTRUM
##ORIGIN=Sadtler Research Labs Under US-EPA Contract
##OWNER=NIST Standard Reference Data Program
##CAS REGISTRY NO=533-68-6
##MOLFORM=C 6 H 11 Br O 2
##XUNITS=1/CM
##YUNITS=ABSORBANCE
##XFACTOR=1.0
##YFACTOR=0.000053271
##DELTAX=4.0
##FIRSTX=450.0
##LASTX=3966.0
##FIRSTY=0.001918
##MAXX=3966
##MINX=450
##MAXY=0.53271
##MINY=0
##NPOINTS=880
##XYDATA=(X++(Y..Y))
450.0 36 14 146 255 384 416 445 555 733 621
490.0 445 641 1020 723 476 541 775 385 144 417
530.0 602 491 181 482 642 584 384 676 738 759
570.0 653 730 623 895 787 701 593 1031 811 630
610.0 530 765 809 492 449 833 807 616 654 990
650.0 838 696 922 1014 1096 1059 1181 977 1046 1027
690.0 949 589 676 859 632 554 740 827 695 570
730.0 761 857 759 608 907 904 751 640 762 745
770.0 754 821 712 734 799 717 783 868 1162 1169
810.0 1125 932 1176 1045 745 623 766 752 562 597
850.0 750 870 857 913 935 865 762 804 756 764
890.0 843 857 752 835 875 783 576 662 749 720
930.0 661 861 916 913 839 835 953 733 765 711
970.0 714 645 646 706 702 708 831 736 854 980
1010.0 1237 1320 1691 2353 2670 2876 2983 2870 2460 1933
1050.0 1564 1351 1316 1258 1470 1754 2025 2208 2356 2317
1090.0 2213 2228 2256 2249 2117 2161 2141 1844 2070 2192
1130.0 2340 2773 3588 4752 6254 7379 8086 7384 6011 4360
1170.0 3273 2717 2487 2467 2556 2689 3116 3733 4309 4949
1210.0 5013 4791 4036 3317 3080 3074 3063 3257 3441 3777
1250.0 4205 4871 5623 5944 5691 5257 4464 3629 3055 2798
1290.0 2857 3063 3308 3326 3150 2812 2426 2121 1915 1815
1330.0 1739 1515 1346 1328 1467 1501 1540 1604 1578 1646
1370.0 1923 2160 2237 2048 1716 1509 1341 1169 1023 881
1410.0 806 814 696 644 729 826 933 918 1126 1322
1450.0 1424 1426 1410 1639 1623 1531 1345 1188 1032 820
1490.0 672 597 497 449 341 380 455 471 360 399
1530.0 444 428 376 232 369 454 373 217 357 428
1570.0 349 367 375 439 440 381 431 424 445 443
1610.0 426 396 400 390 366 370 378 381 363 285
1650.0 383 259 341 322 385 375 321 375 408 378
1690.0 456 467 467 502 611 750 804 837 1074 1208
1730.0 1409 1800 2713 3948 5648 7764 9749 10000 9400 7203
1770.0 5088 3315 2290 1750 1419 1140 914 811 690 572
1810.0 520 457 415 418 407 330 355 392 388 306
1850.0 324 389 366 316 308 330 356 309 326 355
1890.0 315 310 303 328 318 318 317 297 308 317
1930.0 313 308 314 311 303 253 290 307 276 243
1970.0 280 308 266 260 279 297 281 274 293 310
2010.0 300 300 292 289 288 299 264 242 277 285
2050.0 220 229 261 281 231 241 289 290 251 251
2090.0 293 284 270 250 278 259 255 247 246 224
2130.0 242 223 222 216 250 234 195 222 265 231
2170.0 199 229 254 226 177 225 232 211 181 206
2210.0 207 202 189 199 198 216 224 216 196 234
2250.0 253 215 187 228 247 176 185 202 220 155
2290.0 167 196 194 147 147 177 187 149 176 205
2330.0 203 241 218 177 194 205 174 112 142 365
2370.0 228 142 166 220 160 117 146 189 169 139
2410.0 161 184 167 162 148 150 160 166 147 123
2450.0 138 151 141 101 161 167 138 112 165 180
2490.0 145 116 147 181 124 121 140 130 97 112
2530.0 110 105 101 124 90 100 129 136 95 93
2570.0 151 133 80 97 129 127 67 78 125 96
2610.0 55 59 94 74 73 84 89 84 106 88
2650.0 78 99 113 100 59 89 104 54 26 70
2690.0 93 58 15 69 82 60 47 90 95 96
2730.0 96 115 90 133 129 123 118 133 141 87
2770.0 80 128 137 89 109 148 161 104 137 188
2810.0 176 134 175 204 195 171 202 213 213 237
2850.0 268 282 336 417 389 391 492 670 835 1034
2890.0 1212 1262 1103 943 924 966 970 988 1049 1083
2930.0 1054 1150 1407 1713 2038 2136 2049 1812 1728 1791
2970.0 2096 2621 3468 4191 4423 4202 3706 2831 2036 1566
3010.0 1283 997 747 597 527 458 314 300 290 257
3050.0 263 256 219 218 235 237 154 202 244 211
3090.0 118 170 235 159 96 144 229 147 139 180
3130.0 223 160 159 178 193 195 184 153 135 165
3170.0 161 104 102 172 171 121 82 195 188 122
3210.0 100 211 166 116 95 181 157 105 117 128
3250.0 118 110 106 80 107 137 148 89 120 190
3290.0 171 81 152 214 166 53 137 191 125 63
3330.0 103 135 93 68 109 137 120 142 119 174
3370.0 162 199 103 132 172 218 123 108 155 173
3410.0 86 50 146 147 93 74 169 171 123 117
3450.0 159 153 177 180 199 173 198 184 145 139
3490.0 220 200 119 155 222 167 70 149 191 176
3530.0 91 153 180 184 107 137 167 160 140 118
3570.0 124 177 185 172 117 128 184 109 102 158
3610.0 164 76 73 138 187 79 99 148 157 84
3650.0 15 92 91 97 108 39 36 92 113 124
3690.0 71 164 151 111 101 158 131 89 85 145
3730.0 106 25 20 81 25 15 47 102 131 105
3770.0 115 124 126 156 147 130 138 146 107 49
3810.0 92 123 55 15 45 107 36 15 52 109
3850.0 67 32 117 133 114 96 126 124 117 107
3890.0 48 39 54 49 14 16 79 108 41 41
3930.0 124 151 104 106 188 214 0 15 15 15
##END=
