##TITLE=Butane, 1,2-dibromo-
##JCAMP-DX=4.24
##DATA TYPE=INFRARED SPECTRUM
##ORIGIN=Sadtler Research Labs Under US-EPA Contract
##OWNER=NIST Standard Reference Data Program
##CAS REGISTRY NO=533-98-2
##MOLFORM=C 4 H 8 Br 2
##XUNITS=1/CM
##YUNITS=ABSORBANCE
##XFACTOR=1.0
##YFACTOR=0.000040179
##DELTAX=4.0
##FIRSTX=450.0
##LASTX=3966.0
##FIRSTY=0.000000
##MAXX=3966
##MINX=450
##MAXY=0.40179
##MINY=0
##NPOINTS=880
##XYDATA=(X++(Y..Y))
450.0 0 1312 1699 1555 1452 1557 1418 1721 1362 1589
490.0 1501 1671 1488 1778 1994 1779 2004 1695 1852 1764
530.0 2068 2416 3073 4255 5102 5979 6293 7056 6769 6836
570.0 7123 8036 7872 6500 4515 2919 2815 2549 2680 2537
610.0 2740 3127 3409 3676 3438 3287 3182 3742 3937 4709
650.0 4360 4039 3258 2710 2504 2491 2671 2879 3110 2939
690.0 2806 2727 3007 3220 3139 2823 2292 2098 2034 2273
730.0 2213 2006 1746 1555 1523 1457 1509 1400 1455 1415
770.0 1463 1451 1568 1723 1871 2334 2566 3060 3218 3281
810.0 2981 2550 2132 1887 1770 1756 1826 1718 1810 1853
850.0 2003 1941 1898 1780 1752 1877 2026 2343 2436 2492
890.0 2369 2339 2522 2750 2863 2717 2536 2345 2289 2170
930.0 2183 2138 2266 2456 2522 2450 2283 2255 2126 2121
970.0 2018 1886 1783 1785 1789 1698 1681 1659 1820 1883
1010.0 1935 1918 1795 1813 2078 2664 3329 3768 3570 2999
1050.0 2456 2215 2168 2210 2258 2212 2225 2283 2400 2456
1090.0 2582 2954 3327 3476 3333 2839 2342 2242 2229 2353
1130.0 2557 3053 3844 4923 6080 6946 6955 6067 4817 3506
1170.0 2913 2868 3113 3502 3897 4314 4500 4612 4697 4545
1210.0 4125 3895 4148 4826 5742 6375 6204 5361 4169 3235
1250.0 2946 2885 3064 3438 3925 4350 4287 3726 3052 2760
1290.0 2567 2507 2622 2820 2803 2644 2364 2032 1889 1801
1330.0 1807 1766 1750 1744 1744 1772 1770 1808 1796 1910
1370.0 2128 2675 3513 4511 5102 4721 3860 2996 2351 2041
1410.0 2110 2607 3461 4481 5139 5488 5271 5268 5036 5030
1450.0 5026 5123 4956 4577 4053 3401 2862 2361 2011 1739
1490.0 1624 1538 1487 1466 1444 1456 1419 1430 1413 1418
1530.0 1403 1415 1404 1398 1420 1396 1415 1391 1411 1374
1570.0 1373 1369 1369 1381 1360 1387 1371 1393 1388 1415
1610.0 1404 1431 1447 1430 1425 1384 1404 1376 1392 1380
1650.0 1385 1374 1383 1386 1377 1393 1390 1386 1373 1387
1690.0 1380 1381 1383 1380 1388 1374 1397 1382 1394 1390
1730.0 1412 1400 1403 1425 1414 1432 1406 1431 1401 1413
1770.0 1398 1392 1391 1378 1382 1374 1390 1376 1391 1384
1810.0 1385 1387 1383 1385 1378 1384 1367 1383 1373 1387
1850.0 1389 1397 1396 1390 1408 1397 1402 1400 1403 1389
1890.0 1395 1394 1384 1391 1386 1397 1384 1400 1397 1399
1930.0 1398 1395 1404 1390 1407 1397 1412 1404 1417 1402
1970.0 1404 1407 1401 1404 1398 1415 1391 1402 1398 1407
2010.0 1403 1397 1397 1378 1378 1362 1363 1351 1364 1353
2050.0 1348 1355 1364 1379 1350 1352 1337 1353 1355 1383
2090.0 1403 1422 1446 1438 1445 1444 1456 1444 1439 1442
2130.0 1438 1441 1431 1440 1424 1439 1430 1438 1436 1450
2170.0 1449 1442 1452 1450 1451 1442 1465 1442 1449 1439
2210.0 1440 1449 1444 1458 1456 1460 1464 1472 1466 1471
2250.0 1467 1453 1462 1461 1457 1447 1455 1452 1446 1430
2290.0 1441 1449 1422 1434 1411 1419 1402 1411 1434 1461
2330.0 1464 1442 1434 1458 1471 1417 1453 1419 1416 1442
2370.0 1439 1456 1433 1444 1440 1456 1444 1459 1452 1449
2410.0 1456 1449 1452 1446 1452 1439 1440 1438 1434 1440
2450.0 1437 1457 1444 1449 1424 1429 1415 1410 1402 1404
2490.0 1414 1403 1411 1389 1403 1395 1397 1397 1403 1404
2530.0 1401 1395 1372 1390 1386 1383 1376 1365 1365 1355
2570.0 1352 1357 1371 1364 1382 1377 1395 1411 1390 1419
2610.0 1416 1437 1453 1435 1438 1451 1452 1437 1441 1468
2650.0 1485 1473 1480 1465 1460 1419 1402 1395 1368 1357
2690.0 1344 1343 1337 1351 1340 1367 1370 1372 1375 1373
2730.0 1387 1376 1403 1413 1440 1445 1451 1445 1425 1418
2770.0 1396 1401 1377 1398 1403 1400 1395 1414 1433 1416
2810.0 1448 1481 1502 1558 1607 1666 1672 1690 1723 1769
2850.0 1853 1958 2094 2209 2229 2253 2342 2506 2840 3104
2890.0 3334 3325 3231 2944 2775 2671 2652 2804 3107 3546
2930.0 4128 4626 5066 5342 5322 5172 4893 4668 4640 5132
2970.0 5841 6929 8388 9716 10000 9273 7691 5964 4481 3605
3010.0 2926 2548 2204 1979 1797 1714 1677 1628 1607 1572
3050.0 1548 1505 1523 1481 1490 1491 1479 1497 1467 1468
3090.0 1442 1428 1418 1446 1438 1430 1438 1411 1432 1398
3130.0 1423 1411 1444 1436 1432 1442 1428 1450 1403 1433
3170.0 1424 1436 1439 1396 1406 1423 1440 1419 1418 1420
3210.0 1429 1414 1447 1429 1424 1432 1414 1419 1387 1379
3250.0 1404 1415 1407 1431 1429 1453 1452 1440 1445 1422
3290.0 1415 1397 1393 1376 1364 1382 1395 1397 1371 1360
3330.0 1364 1363 1356 1357 1361 1394 1390 1373 1385 1371
3370.0 1381 1393 1382 1370 1351 1378 1391 1415 1364 1394
3410.0 1377 1394 1401 1367 1401 1396 1374 1367 1364 1346
3450.0 1402 1391 1364 1370 1398 1418 1397 1389 1356 1390
3490.0 1398 1397 1377 1397 1364 1345 1387 1352 1394 1366
3530.0 1378 1373 1383 1401 1384 1391 1377 1387 1362 1363
3570.0 1387 1396 1422 1415 1397 1404 1392 1388 1376 1365
3610.0 1385 1374 1409 1387 1399 1407 1404 1448 1421 1398
3650.0 1360 1377 1411 1410 1418 1410 1424 1379 1424 1407
3690.0 1427 1410 1367 1424 1425 1449 1389 1425 1371 1428
3730.0 1402 1424 1427 1381 1390 1386 1387 1408 1394 1363
3770.0 1370 1404 1523 1463 1444 1424 1420 1406 1445 1438
3810.0 1416 1382 1428 1400 1412 1425 1439 1411 1434 1407
3850.0 1424 1428 1405 1417 1373 1378 1387 1459 1428 1410
3890.0 1404 1420 1462 1362 1448 1424 1426 1458 1420 1423
3930.0 1505 1505 1435 1422 1446 1399 1442 1426 1455 1401
##END=
