##TITLE=Benzhydrol, .alpha.-propyl-,
##JCAMP-DX=4.24
##DATA TYPE=INFRARED SPECTRUM
##ORIGIN=Sadtler Research Labs Under US-EPA Contract
##OWNER=NIST Standard Reference Data Program
##CAS REGISTRY NO=5331-17-9
##MOLFORM=C 16 H 18 O
##XUNITS=1/CM
##YUNITS=ABSORBANCE
##XFACTOR=1.0
##YFACTOR=0.000046497
##DELTAX=4.0
##FIRSTX=450.0
##LASTX=3966.0
##FIRSTY=0.000000
##MAXX=3966
##MINX=450
##MAXY=0.46497
##MINY=0
##NPOINTS=880
##XYDATA=(X++(Y..Y))
450.0 0 189 261 312 428 266 220 175 152 203
490.0 186 268 204 260 213 124 169 167 91 83
530.0 145 133 206 202 209 255 283 285 267 330
570.0 335 371 339 449 457 561 725 1058 1313 1405
610.0 1166 868 612 544 583 801 1366 1964 2037 1487
650.0 838 582 565 685 725 1049 1241 1387 1809 2593
690.0 4395 7032 10000 9944 7971 5055 3238 2219 1510 1202
730.0 1098 1190 1503 2177 3045 3858 4163 4094 3798 3407
770.0 2917 2230 1552 1027 723 603 579 598 601 564
810.0 490 446 422 378 351 354 360 402 498 637
850.0 752 806 745 717 764 851 933 947 868 726
890.0 611 603 663 807 871 866 793 718 672 673
930.0 687 645 575 513 491 490 530 649 853 1136
970.0 1463 1727 1739 1583 1408 1316 1318 1388 1452 1501
1010.0 1557 1710 1952 2242 2615 2855 2654 2073 1439 1224
1050.0 1345 1569 1755 1757 1642 1456 1267 1101 994 951
1090.0 985 1075 1186 1282 1264 1144 1057 1095 1229 1330
1130.0 1318 1214 1115 1083 1135 1252 1404 1538 1567 1530
1170.0 1487 1503 1620 1780 1885 1852 1708 1576 1464 1357
1210.0 1243 1157 1084 1039 1011 996 991 993 983 972
1250.0 963 996 1109 1273 1346 1366 1376 1375 1362 1351
1290.0 1349 1374 1435 1529 1632 1729 1791 1835 1832 1831
1330.0 1822 1765 1670 1515 1326 1216 1260 1383 1469 1463
1370.0 1351 1254 1184 1145 1050 906 758 669 610 586
1410.0 571 561 608 630 690 815 1078 1562 2261 2893
1450.0 3140 2652 2084 1738 1556 1447 1317 1215 1281 1687
1490.0 2358 2818 2578 1774 982 547 384 312 298 237
1530.0 215 177 202 229 243 221 233 243 244 235
1570.0 269 310 379 449 558 750 1007 1231 1210 965
1610.0 632 399 310 253 245 199 201 187 167 175
1650.0 195 202 218 217 243 262 286 271 293 275
1690.0 235 207 221 207 185 171 181 216 200 208
1730.0 237 272 270 288 304 310 300 271 254 228
1770.0 248 248 249 258 276 332 453 557 626 567
1810.0 465 368 302 262 222 199 166 160 160 175
1850.0 170 176 197 226 264 315 348 374 403 406
1890.0 396 362 313 258 216 186 167 167 182 197
1930.0 240 315 419 515 569 547 520 482 407 295
1970.0 192 139 124 123 117 114 106 101 97 92
2010.0 90 92 88 87 88 86 84 87 83 83
2050.0 83 82 85 85 84 83 76 78 82 74
2090.0 75 83 75 71 73 78 69 76 73 76
2130.0 76 76 84 84 76 80 78 76 78 80
2170.0 85 89 82 87 85 84 85 88 84 84
2210.0 86 81 87 88 86 85 83 79 86 84
2250.0 89 93 99 95 93 95 99 99 107 111
2290.0 120 136 140 151 164 194 202 212 189 141
2330.0 129 142 143 122 208 165 159 133 127 136
2370.0 153 146 154 150 139 105 96 94 95 95
2410.0 95 92 86 87 88 88 93 88 86 86
2450.0 86 80 78 80 72 82 83 82 79 80
2490.0 78 76 73 81 79 82 79 79 84 86
2530.0 79 80 82 85 86 90 94 90 95 95
2570.0 99 111 112 114 120 115 124 126 124 115
2610.0 111 103 108 114 116 117 123 114 120 113
2650.0 109 109 111 107 100 108 100 101 110 101
2690.0 104 106 110 113 115 115 117 114 126 136
2730.0 147 166 180 190 206 196 194 187 183 186
2770.0 187 195 197 204 201 205 216 220 239 251
2810.0 256 276 301 325 356 382 413 439 492 564
2850.0 695 872 1058 1192 1288 1455 1847 2514 3113 3226
2890.0 2793 2208 1814 1683 1739 1920 2178 2445 2709 2910
2930.0 3126 3403 3835 4245 4357 4123 3895 4288 5624 7586
2970.0 8388 7179 4810 2873 1861 1401 1174 1034 976 982
3010.0 1059 1234 1536 1981 2557 3132 3546 3644 3379 2913
3050.0 2586 2680 3266 4315 5640 6490 6115 4754 3499 3056
3090.0 3030 2865 2431 1895 1485 1186 930 701 523 409
3130.0 347 303 275 248 253 245 246 249 249 232
3170.0 215 196 172 149 129 127 123 112 115 111
3210.0 108 99 92 89 88 89 84 84 81 87
3250.0 81 82 80 87 86 90 89 82 83 90
3290.0 86 91 87 92 83 78 90 79 90 81
3330.0 93 87 88 79 73 92 99 99 97 98
3370.0 96 104 104 98 101 116 101 112 102 104
3410.0 97 91 91 98 95 96 110 103 89 86
3450.0 87 94 80 95 104 106 96 89 100 88
3490.0 95 84 99 108 105 86 92 80 78 101
3530.0 103 93 85 92 98 109 80 93 87 135
3570.0 123 95 95 102 129 142 110 121 130 160
3610.0 215 224 261 353 497 888 1326 1716 1560 1078
3650.0 682 415 311 260 208 208 181 197 139 156
3690.0 163 175 133 135 120 150 167 133 115 121
3730.0 91 164 161 114 131 115 118 107 118 106
3770.0 112 118 109 142 119 109 92 93 115 130
3810.0 94 106 97 140 126 114 120 141 141 94
3850.0 109 156 137 144 138 136 117 112 124 148
3890.0 134 152 126 183 151 131 135 155 140 119
3930.0 118 136 135 102 108 123 124 93 121 116
##END=
