##TITLE=Butanenitrile, 4-bromo-
##JCAMP-DX=4.24
##DATA TYPE=INFRARED SPECTRUM
##ORIGIN=Sadtler Research Labs Under US-EPA Contract
##OWNER=NIST Standard Reference Data Program
##CAS REGISTRY NO=5332-06-9
##MOLFORM=C 4 H 6 Br N
##XUNITS=1/CM
##YUNITS=ABSORBANCE
##XFACTOR=1.0
##YFACTOR=0.000100732
##DELTAX=4.0
##FIRSTX=450.0
##LASTX=3966.0
##FIRSTY=0.071923
##MAXX=3966
##MINX=450
##MAXY=1.00732
##MINY=0
##NPOINTS=880
##XYDATA=(X++(Y..Y))
450.0 714 459 544 366 358 391 462 353 469 464
490.0 619 57 64 322 352 560 683 748 959 934
530.0 667 1060 1216 1241 1036 1190 1034 1157 1052 1804
570.0 2620 2844 3173 3245 3016 2728 2541 2270 1348 571
610.0 397 313 579 679 662 534 757 604 454 699
650.0 959 1338 1750 1980 1835 1593 946 834 889 704
690.0 580 458 456 538 456 459 912 805 736 562
730.0 654 636 819 649 1063 1235 1585 2382 3187 3175
770.0 2737 2496 1635 1128 590 585 603 607 621 661
810.0 621 734 644 683 1032 1206 1717 2205 2376 2286
850.0 2309 1797 1389 1210 1084 1027 1102 1144 1173 1072
890.0 1028 934 675 545 485 550 500 514 501 622
930.0 578 526 611 654 715 703 809 1107 1485 1530
970.0 1718 1879 1649 1430 1404 1327 1281 724 658 703
1010.0 459 483 398 468 500 562 562 761 623 605
1050.0 669 659 702 692 599 647 585 420 450 466
1090.0 579 457 478 463 580 577 531 683 735 837
1130.0 935 1031 1168 1194 1197 1325 1180 1087 1042 1118
1170.0 1231 1277 1268 1494 1603 1484 1503 1670 1789 1798
1210.0 1860 1760 1752 1518 1502 1778 2281 3346 5287 7670
1250.0 9314 10000 9340 8815 7031 6448 6805 6651 6272 5713
1290.0 4415 3197 2503 2168 2033 1873 1789 1677 1706 1826
1330.0 1960 1847 1863 1793 1757 1990 2052 1812 1789 1556
1370.0 1069 920 762 678 664 597 610 611 493 658
1410.0 833 1127 1568 2318 3435 5008 6434 7711 8390 8124
1450.0 7042 5713 4279 3054 2228 1575 1243 906 644 555
1490.0 505 485 446 369 388 399 261 295 314 317
1530.0 298 274 260 315 249 262 333 293 258 190
1570.0 172 210 227 156 247 207 198 189 219 237
1610.0 247 196 229 230 154 131 139 219 205 194
1650.0 168 256 143 133 182 200 170 140 106 181
1690.0 164 106 231 248 216 174 151 199 225 163
1730.0 207 260 226 249 278 369 436 459 418 467
1770.0 388 337 331 353 385 398 433 527 620 655
1810.0 801 852 881 861 776 670 650 454 340 296
1850.0 225 188 148 158 188 195 145 203 131 130
1890.0 96 127 152 184 139 182 171 115 122 116
1930.0 127 123 102 94 125 75 117 145 180 177
1970.0 146 126 170 136 121 182 154 150 113 134
2010.0 164 216 169 221 201 162 136 127 146 161
2050.0 134 130 181 126 145 141 170 175 139 98
2090.0 144 130 103 156 163 167 130 118 111 160
2130.0 108 142 130 110 86 76 94 145 131 128
2170.0 178 134 122 123 158 189 216 182 228 216
2210.0 192 210 237 249 245 231 252 347 403 624
2250.0 814 919 917 827 650 484 313 244 268 216
2290.0 186 113 138 146 187 141 224 208 167 101
2330.0 87 145 184 57 28 60 25 25 25 201
2370.0 240 181 118 163 110 103 131 150 171 165
2410.0 160 208 253 235 291 261 236 184 140 130
2450.0 155 96 83 106 66 65 57 91 120 135
2490.0 84 153 111 104 111 124 139 118 59 69
2530.0 104 48 83 85 100 80 43 27 82 46
2570.0 79 125 125 121 94 111 164 175 121 205
2610.0 165 158 141 162 198 234 164 165 184 126
2650.0 139 131 156 128 113 65 146 111 154 206
2690.0 228 263 232 183 224 236 165 225 186 172
2730.0 133 139 144 198 153 153 160 138 152 149
2770.0 201 244 237 172 258 227 233 234 279 298
2810.0 268 200 234 278 265 384 465 584 679 823
2850.0 1050 1394 1528 1700 1808 1800 1736 1611 1470 1432
2890.0 1296 1129 1138 1097 1217 1450 1866 2477 3144 3487
2930.0 3810 4135 4218 4127 4094 4261 4662 5092 5643 6534
2970.0 7110 7287 7208 6403 5371 4251 3295 2608 2071 1667
3010.0 1638 1581 1620 1508 1393 1281 1105 724 606 443
3050.0 325 267 238 234 260 201 135 214 139 218
3090.0 220 288 286 251 155 229 205 163 208 202
3130.0 231 191 160 194 287 198 259 211 219 188
3170.0 151 163 258 212 194 245 228 272 272 302
3210.0 344 322 141 203 160 164 206 283 343 304
3250.0 213 224 288 165 198 186 212 133 91 55
3290.0 193 164 208 243 211 216 139 155 200 271
3330.0 133 209 131 148 122 152 238 293 197 146
3370.0 176 107 132 133 211 201 140 70 189 168
3410.0 191 236 223 209 143 28 117 197 122 192
3450.0 182 196 146 143 176 287 178 146 188 130
3490.0 159 118 162 259 271 151 226 199 201 201
3530.0 197 242 216 112 174 234 168 258 254 299
3570.0 254 197 185 276 224 226 237 220 221 185
3610.0 228 316 340 249 278 258 236 193 205 223
3650.0 304 226 229 276 252 342 317 388 319 257
3690.0 189 259 251 283 296 317 331 307 278 341
3730.0 394 321 367 261 317 237 254 309 407 374
3770.0 359 380 339 341 343 369 418 397 258 346
3810.0 325 347 408 464 488 465 345 355 367 327
3850.0 384 392 419 380 325 339 537 524 521 494
3890.0 422 367 301 299 415 477 410 460 439 459
3930.0 455 508 547 559 391 324 0 24 25 25
##END=
