##TITLE=Quinoline, 6-bromo-
##JCAMP-DX=4.24
##DATA TYPE=INFRARED SPECTRUM
##ORIGIN=Sadtler Research Labs Under US-EPA Contract
##OWNER=NIST Standard Reference Data Program
##CAS REGISTRY NO=5332-25-2
##MOLFORM=C 9 H 6 Br N
##XUNITS=1/CM
##YUNITS=ABSORBANCE
##XFACTOR=1.0
##YFACTOR=0.000097528
##DELTAX=4.0
##FIRSTX=450.0
##LASTX=3966.0
##FIRSTY=0.068465
##MAXX=3966
##MINX=450
##MAXY=0.97528
##MINY=0
##NPOINTS=880
##XYDATA=(X++(Y..Y))
450.0 702 590 784 999 1122 1288 1060 776 483 277
490.0 126 129 166 265 219 158 84 124 95 118
530.0 123 100 101 32 1 30 77 71 64 45
570.0 191 374 609 920 1315 1741 1637 1243 522 231
610.0 333 535 799 682 718 339 151 91 59 26
650.0 22 22 50 52 65 99 99 84 75 84
690.0 82 84 124 142 146 121 91 83 72 94
730.0 71 72 102 171 312 476 646 861 789 827
770.0 912 1159 1562 1994 2412 2349 1673 1205 768 530
810.0 629 1113 2041 3422 4736 5976 7201 5724 6878 6797
850.0 5699 3901 2377 2352 2546 2765 3030 2038 1638 1020
890.0 490 191 85 47 53 70 128 224 336 410
930.0 541 903 1589 1596 1393 586 243 258 294 307
970.0 350 413 386 283 198 148 116 123 192 303
1010.0 413 508 626 1022 1312 1241 903 391 302 395
1050.0 808 1841 2887 2842 2094 550 218 171 167 140
1090.0 148 185 230 348 571 893 1212 1130 1217 1009
1130.0 675 424 243 194 192 218 203 225 349 697
1170.0 1429 1973 2277 2319 1766 1356 658 244 153 175
1210.0 278 422 564 585 520 549 784 853 877 746
1250.0 663 621 429 277 296 320 361 357 358 377
1290.0 375 368 409 494 705 1073 1313 1281 1173 879
1330.0 893 1036 1110 1140 1091 995 1006 990 1174 1291
1370.0 1182 855 404 258 199 155 104 84 67 94
1410.0 99 138 126 177 249 394 414 541 612 882
1450.0 1146 1049 842 467 492 871 1830 3395 6244 9732
1490.0 10000 7662 3266 1056 520 322 222 177 178 201
1530.0 217 308 328 417 495 623 819 1122 1465 1542
1570.0 1406 1304 1558 2317 3337 4217 4322 3578 2433 1433
1610.0 1007 910 911 820 601 438 277 233 184 192
1650.0 154 226 186 183 156 175 131 167 156 156
1690.0 128 117 116 168 157 182 191 212 246 348
1730.0 436 485 481 435 388 345 253 173 120 91
1770.0 81 67 91 151 248 284 260 173 99 70
1810.0 87 94 109 91 90 64 61 67 55 58
1850.0 51 46 46 53 60 88 111 182 248 285
1890.0 278 220 172 155 206 299 399 478 431 370
1930.0 295 252 246 280 324 314 251 148 67 44
1970.0 35 28 29 17 24 26 27 25 22 29
2010.0 35 30 42 35 49 42 50 58 69 73
2050.0 91 84 92 70 64 62 73 77 78 71
2090.0 65 55 42 39 42 51 49 60 57 47
2130.0 36 31 19 19 22 12 14 17 14 9
2170.0 24 31 35 24 19 28 29 33 33 25
2210.0 29 24 24 22 24 32 42 37 43 42
2250.0 55 70 88 107 109 110 89 69 67 57
2290.0 57 60 73 81 82 74 75 77 58 56
2330.0 44 44 34 40 39 52 60 60 39 45
2370.0 38 53 54 62 55 58 57 47 47 46
2410.0 46 45 53 51 57 53 56 49 49 50
2450.0 60 70 86 91 91 79 79 77 77 77
2490.0 73 70 64 68 63 63 68 63 63 67
2530.0 84 98 108 117 114 119 103 88 76 71
2570.0 60 54 43 43 41 44 43 32 36 30
2610.0 23 22 21 17 21 14 21 10 1 13
2650.0 12 14 23 35 51 57 56 63 63 56
2690.0 62 59 51 54 60 60 59 64 78 68
2730.0 90 84 73 77 69 69 70 82 83 81
2770.0 82 84 75 69 64 64 63 61 51 52
2810.0 43 40 45 58 54 63 61 65 65 65
2850.0 70 63 64 58 68 75 63 75 70 79
2890.0 96 118 134 145 151 138 141 137 143 159
2930.0 166 181 169 175 180 180 177 193 217 260
2970.0 297 322 313 303 278 274 288 344 430 538
3010.0 607 678 750 866 996 1187 1519 1989 2367 2402
3050.0 2111 1831 1752 1842 2016 2192 2337 2459 2401 2024
3090.0 1556 991 613 406 262 181 119 101 81 82
3130.0 91 75 74 65 65 70 61 66 73 63
3170.0 57 62 81 87 83 75 82 75 90 94
3210.0 94 76 72 63 71 50 58 64 58 66
3250.0 66 56 72 60 71 61 61 51 67 65
3290.0 52 38 43 44 36 42 46 26 26 25
3330.0 30 29 33 5 12 14 8 20 8 22
3370.0 10 14 15 0 34 59 43 47 53 78
3410.0 77 82 72 81 78 82 54 42 51 49
3450.0 70 37 61 59 71 44 72 45 76 78
3490.0 76 61 65 71 52 83 67 60 70 74
3530.0 69 43 77 81 87 49 65 57 52 59
3570.0 96 69 84 74 64 99 72 109 93 90
3610.0 125 126 102 110 88 134 105 93 111 116
3650.0 128 121 154 127 137 148 128 155 132 142
3690.0 152 124 145 166 163 159 157 161 167 177
3730.0 154 151 165 147 192 138 165 134 116 125
3770.0 119 143 136 159 136 136 128 128 139 151
3810.0 156 169 157 153 156 148 140 133 154 177
3850.0 168 163 164 162 174 157 155 177 164 174
3890.0 164 188 163 178 160 169 148 145 153 175
3930.0 201 184 189 183 174 170 152 139 136 159
##END=
