##TITLE=Quinoline, 3-bromo-
##JCAMP-DX=4.24
##DATA TYPE=INFRARED SPECTRUM
##ORIGIN=Sadtler Research Labs Under US-EPA Contract
##OWNER=NIST Standard Reference Data Program
##CAS REGISTRY NO=5332-24-1
##MOLFORM=C 9 H 6 Br N
##XUNITS=1/CM
##YUNITS=ABSORBANCE
##XFACTOR=1.0
##YFACTOR=0.000065088
##DELTAX=4.0
##FIRSTX=450.0
##LASTX=3966.0
##FIRSTY=0.063851
##MAXX=3966
##MINX=450
##MAXY=0.65088
##MINY=0
##NPOINTS=880
##XYDATA=(X++(Y..Y))
450.0 981 764 1230 1670 1916 2098 1723 1487 1300 935
490.0 729 709 487 545 590 493 636 821 726 898
530.0 772 596 761 540 463 398 225 399 427 373
570.0 905 1674 2283 3392 2711 1982 709 106 39 216
610.0 163 431 1092 1101 1374 727 310 223 193 99
650.0 204 175 138 351 135 56 255 116 200 239
690.0 130 284 345 248 325 310 138 369 598 1013
730.0 2173 3641 5768 7877 10000 8800 6944 5037 3543 2582
770.0 2224 2447 2889 3333 2459 1983 1452 977 703 561
810.0 443 338 451 552 647 818 1160 2026 4305 6609
850.0 7210 7062 4952 3627 2863 2030 1971 2447 3120 3967
890.0 4469 5512 4119 3354 2353 1604 1063 935 1057 1182
930.0 1709 2917 5235 8742 9712 8282 5121 2262 1541 1324
970.0 1059 865 871 700 619 609 507 586 629 578
1010.0 650 685 667 672 578 472 460 424 368 396
1050.0 457 793 1566 3651 7289 8481 7465 3604 1494 1303
1090.0 1313 1158 1060 1027 990 1202 1645 2261 2747 2599
1130.0 2186 1646 1308 1176 1290 1091 822 546 304 249
1170.0 298 310 386 689 1245 1724 1673 1098 539 499
1210.0 568 780 825 840 876 901 1026 1304 1694 2439
1250.0 2677 2857 2953 2570 2170 1419 984 854 894 913
1290.0 883 835 757 830 1161 1848 2701 2785 2395 1739
1330.0 1318 1088 877 1001 1405 1902 2021 2258 2165 1721
1370.0 1300 757 406 334 359 394 558 687 909 1592
1410.0 2279 2326 1941 726 289 211 177 314 620 936
1450.0 1320 1556 1463 1485 1270 1250 1304 1303 1738 2900
1490.0 4325 4552 3891 2061 863 448 249 278 274 218
1530.0 218 188 161 136 130 146 269 317 527 765
1570.0 911 1330 1937 2781 3193 3027 2247 1556 1071 745
1610.0 681 583 567 496 335 276 230 125 141 98
1650.0 68 81 65 67 91 106 146 169 162 206
1690.0 323 458 546 487 417 337 266 241 282 270
1730.0 300 337 295 275 265 239 297 319 246 237
1770.0 183 183 254 297 314 346 343 355 417 444
1810.0 557 630 629 640 629 633 632 547 481 452
1850.0 496 566 529 384 237 155 106 119 130 128
1890.0 175 161 176 240 274 299 325 249 253 301
1930.0 292 279 302 264 319 438 570 566 387 171
1970.0 107 67 52 67 39 40 53 36 68 60
2010.0 41 87 75 56 107 90 57 67 52 49
2050.0 51 20 36 71 53 87 105 88 96 84
2090.0 42 68 35 35 68 61 67 91 61 77
2130.0 88 63 73 67 29 43 36 36 64 58
2170.0 66 92 57 74 75 58 68 81 58 96
2210.0 84 67 83 72 72 93 77 85 102 86
2250.0 99 109 71 101 100 103 135 137 135 172
2290.0 155 145 146 138 148 156 145 194 215 159
2330.0 262 263 206 223 161 166 242 186 198 242
2370.0 165 190 205 174 196 193 167 184 169 160
2410.0 178 174 192 209 181 176 177 147 157 156
2450.0 144 152 162 161 181 169 155 171 147 127
2490.0 142 116 119 133 133 139 140 90 117 107
2530.0 75 114 104 102 136 145 156 175 151 149
2570.0 142 133 143 124 83 116 111 106 134 122
2610.0 118 135 120 145 146 116 128 120 77 82
2650.0 68 70 98 99 101 120 89 113 139 73
2690.0 66 74 34 58 68 53 77 76 73 108
2730.0 85 87 114 69 65 92 82 90 89 72
2770.0 119 112 102 146 114 125 136 117 110 133
2810.0 114 114 119 91 124 140 125 159 177 113
2850.0 142 138 133 144 109 124 141 137 156 202
2890.0 155 190 213 194 216 210 201 237 237 245
2930.0 307 278 280 333 290 285 281 246 263 265
2970.0 253 317 277 302 319 308 332 393 421 475
3010.0 574 630 768 905 1034 1234 1340 1466 1718 1916
3050.0 2161 2533 2982 3621 4413 5004 5403 4925 4282 3394
3090.0 2582 1826 1191 711 445 377 318 307 316 258
3130.0 257 236 173 204 232 181 227 217 190 250
3170.0 230 231 229 183 175 162 101 141 159 135
3210.0 156 155 136 149 125 123 151 77 63 104
3250.0 60 60 106 72 98 100 83 138 98 66
3290.0 100 64 45 65 40 25 65 56 96 110
3330.0 61 118 98 58 85 51 0 47 31 42
3370.0 67 48 72 107 57 81 94 32 69 55
3410.0 23 39 32 35 71 52 76 112 64 123
3450.0 128 30 69 81 37 57 65 41 98 72
3490.0 90 124 85 88 104 66 45 59 37 99
3530.0 64 34 138 118 104 162 136 102 154 117
3570.0 109 124 86 139 148 95 167 180 140 209
3610.0 202 164 189 162 148 166 136 145 211 183
3650.0 226 227 206 266 283 260 279 217 243 264
3690.0 267 279 297 285 303 354 299 366 418 388
3730.0 403 389 357 394 360 369 404 416 442 494
3770.0 495 499 545 515 523 508 493 525 515 506
3810.0 558 578 564 603 616 611 633 584 590 593
3850.0 549 568 536 510 572 598 612 689 665 650
3890.0 672 621 630 617 580 599 601 565 594 619
3930.0 640 708 695 690 716 715 147 190 193 194
##END=
