##TITLE=1-Propanamine, 3-methoxy-
##JCAMP-DX=4.24
##DATA TYPE=INFRARED SPECTRUM
##ORIGIN=Sadtler Research Labs Under US-EPA Contract
##OWNER=NIST Standard Reference Data Program
##CAS REGISTRY NO=5332-73-0
##MOLFORM=C 4 H 11 N O
##XUNITS=1/CM
##YUNITS=ABSORBANCE
##XFACTOR=1.0
##YFACTOR=0.000099316
##DELTAX=4.0
##FIRSTX=450.0
##LASTX=3966.0
##FIRSTY=0.006257
##MAXX=3966
##MINX=450
##MAXY=0.99316
##MINY=0
##NPOINTS=880
##XYDATA=(X++(Y..Y))
450.0 63 73 46 65 0 46 59 120 166 247
490.0 288 226 245 182 190 199 188 200 203 244
530.0 208 282 267 235 325 280 268 201 249 178
570.0 205 141 180 221 262 275 176 278 251 362
610.0 264 241 272 319 372 268 376 310 414 392
650.0 437 497 445 509 425 643 510 592 581 600
690.0 666 711 729 747 861 916 1078 1152 1372 1516
730.0 1741 2102 2269 2655 2857 3081 3264 3367 3453 3484
770.0 3484 3437 3436 3314 3159 2919 2809 2504 2330 2154
810.0 1826 1716 1456 1371 1227 1145 1086 952 934 829
850.0 866 820 842 819 860 859 867 901 876 926
890.0 931 964 948 917 909 912 909 865 830 760
930.0 752 686 705 673 652 680 669 692 700 760
970.0 737 769 764 782 827 780 796 804 824 843
1010.0 884 936 986 1025 1065 1123 1104 1132 1071 1115
1050.0 1136 1175 1297 1417 1578 1713 1934 2143 2406 2637
1090.0 2945 3415 3916 4608 5369 6367 7648 8545 9536 10000
1130.0 9741 9480 8347 6533 4860 3744 3119 2765 2442 2308
1170.0 2197 2181 2153 2195 2289 2342 2366 2378 2335 2186
1210.0 2021 1762 1527 1352 1158 1022 895 824 730 670
1250.0 593 560 527 525 509 482 490 500 502 488
1290.0 511 510 496 494 472 495 447 441 423 421
1330.0 417 434 491 551 626 665 744 798 923 1001
1370.0 1127 1312 1469 1631 1694 1722 1604 1441 1217 1007
1410.0 796 683 653 643 670 702 755 837 835 931
1450.0 1020 1142 1327 1383 1394 1386 1403 1260 1089 914
1490.0 796 615 556 431 447 372 310 335 334 311
1530.0 267 304 302 358 291 265 289 340 359 291
1570.0 325 317 378 359 388 425 473 555 620 727
1610.0 820 943 1088 1100 1127 1065 1002 897 728 644
1650.0 514 535 341 293 242 257 203 188 170 212
1690.0 135 132 185 194 141 111 124 156 105 99
1730.0 100 161 104 123 95 114 100 95 102 75
1770.0 112 106 84 74 80 71 95 70 70 75
1810.0 65 74 64 73 78 86 77 72 77 89
1850.0 74 56 64 64 66 79 52 61 45 52
1890.0 52 49 44 34 42 34 35 41 41 32
1930.0 38 37 33 49 33 44 35 45 36 49
1970.0 44 45 60 50 67 58 76 69 74 78
2010.0 77 90 84 94 84 96 93 92 97 94
2050.0 96 87 95 82 94 85 89 90 81 85
2090.0 81 91 73 79 71 72 74 60 60 50
2130.0 60 49 50 48 50 48 41 46 34 39
2170.0 33 35 32 29 35 24 35 24 26 24
2210.0 26 27 28 25 21 30 25 34 24 30
2250.0 24 25 32 24 28 17 25 10 13 10
2290.0 14 30 25 41 50 80 85 102 134 136
2330.0 164 149 181 141 156 114 180 234 228 215
2370.0 147 119 77 48 25 14 15 13 15 10
2410.0 20 15 16 17 17 21 11 14 4 10
2450.0 4 9 5 5 13 5 16 5 10 1
2490.0 14 4 8 11 4 21 1 16 10 18
2530.0 22 28 32 30 31 31 41 44 47 50
2570.0 55 66 62 87 82 105 99 118 127 123
2610.0 129 122 139 128 136 130 140 146 149 160
2650.0 159 176 171 184 186 196 209 214 239 241
2690.0 269 268 299 313 351 387 407 464 493 546
2730.0 594 646 682 710 726 731 754 739 748 724
2770.0 734 717 729 747 789 883 1004 1216 1550 2061
2810.0 2613 3045 3489 3939 4339 4498 4667 4854 5068 5238
2850.0 5448 5770 6206 6666 6977 7219 7214 7177 6978 6698
2890.0 6385 6069 5910 5848 5922 5935 5988 6243 6608 7091
2930.0 7502 7836 7955 7897 7530 6993 6308 5627 4976 4385
2970.0 3921 3516 3358 3299 3234 3027 2763 2505 2149 1654
3010.0 1198 924 723 597 508 438 402 358 338 299
3050.0 299 275 256 249 226 226 204 210 183 193
3090.0 167 173 160 147 149 128 129 109 118 105
3130.0 102 103 96 101 78 87 76 88 69 84
3170.0 73 72 81 49 76 61 76 71 70 66
3210.0 70 68 52 53 44 46 51 44 44 28
3250.0 54 28 44 18 50 27 38 43 35 31
3290.0 13 44 18 45 32 38 36 37 62 51
3330.0 73 85 114 130 137 166 139 159 126 106
3370.0 80 73 52 57 61 37 59 44 82 84
3410.0 103 113 118 135 108 107 71 76 41 45
3450.0 36 19 28 31 33 22 29 17 16 16
3490.0 16 30 13 38 7 25 13 4 16 12
3530.0 24 8 28 9 30 29 29 32 23 50
3570.0 29 41 22 32 34 68 58 33 64 51
3610.0 77 53 69 72 66 113 61 73 56 85
3650.0 119 83 78 77 84 106 118 120 99 103
3690.0 145 123 111 136 123 165 142 142 148 167
3730.0 169 186 189 180 237 211 210 177 188 192
3770.0 186 180 172 197 194 203 214 245 251 233
3810.0 251 241 253 235 231 233 234 256 227 233
3850.0 229 272 233 234 246 252 246 233 245 228
3890.0 220 206 230 239 237 239 239 259 251 267
3930.0 251 262 235 230 233 255 61 75 77 79
##END=
