##TITLE=Benzene, 1-(2-bromoethyl)-4-nitro-
##JCAMP-DX=4.24
##DATA TYPE=INFRARED SPECTRUM
##ORIGIN=Sadtler Research Labs Under US-EPA Contract
##OWNER=NIST Standard Reference Data Program
##CAS REGISTRY NO=5339-26-4
##MOLFORM=C 8 H 8 Br N O 2
##XUNITS=1/CM
##YUNITS=ABSORBANCE
##XFACTOR=1.0
##YFACTOR=0.000111945
##DELTAX=4.0
##FIRSTX=450.0
##LASTX=3966.0
##FIRSTY=0.009291
##MAXX=3966
##MINX=450
##MAXY=1.11945
##MINY=0
##NPOINTS=880
##XYDATA=(X++(Y..Y))
450.0 83 67 133 84 133 154 162 158 172 240
490.0 215 222 206 285 288 253 309 348 352 347
530.0 282 223 154 162 203 230 255 304 345 387
570.0 394 378 306 253 237 229 223 248 271 343
610.0 387 428 460 313 181 77 60 148 182 235
650.0 284 325 383 431 432 390 397 413 545 624
690.0 727 793 897 970 914 764 619 529 433 394
730.0 378 422 489 575 615 594 561 525 518 450
770.0 412 389 377 320 206 169 182 224 277 342
810.0 412 461 434 429 427 475 598 789 1034 1503
850.0 2518 3459 3523 2661 1542 893 559 421 371 383
890.0 416 445 434 415 415 457 535 609 696 640
930.0 563 463 362 298 247 229 217 228 231 245
970.0 263 275 297 313 334 316 291 285 308 385
1010.0 560 777 871 704 422 348 295 265 253 232
1050.0 207 202 192 106 13 49 115 152 200 241
1090.0 293 351 435 551 692 791 724 540 346 239
1130.0 197 175 167 158 161 153 155 167 194 213
1170.0 273 406 564 666 681 601 501 431 303 122
1210.0 37 277 464 438 299 267 298 282 276 304
1250.0 391 511 685 886 1008 996 821 649 560 531
1290.0 521 543 559 600 677 756 827 880 951 1118
1330.0 1508 2224 3508 5476 7964 9922 10000 7454 4524 2757
1370.0 1767 1234 923 756 676 582 550 510 455 387
1410.0 358 273 326 324 366 409 503 599 614 606
1450.0 560 521 510 445 421 460 537 560 657 867
1490.0 1147 1383 1495 1442 1374 1445 1604 2150 2839 3812
1530.0 4956 6316 7415 7495 7053 5678 4071 2792 1860 1375
1570.0 1138 1030 1052 1125 1311 1579 1944 2350 2609 2541
1610.0 2045 1535 1117 762 528 372 323 299 237 258
1650.0 236 277 199 161 169 172 164 158 162 194
1690.0 120 108 137 156 111 100 125 164 112 90
1730.0 111 132 110 69 88 98 95 65 70 45
1770.0 64 85 65 113 116 166 138 108 68 34
1810.0 9 16 9 0 17 17 36 27 87 102
1850.0 95 62 54 26 20 30 3 4 0 10
1890.0 17 26 30 45 67 91 120 136 142 122
1930.0 101 75 51 47 35 27 26 35 30 41
1970.0 34 30 25 26 19 29 29 22 22 22
2010.0 23 27 32 30 32 32 32 37 36 38
2050.0 35 37 36 37 39 35 37 34 32 23
2090.0 22 20 20 18 20 20 20 20 18 19
2130.0 14 17 13 9 9 8 11 9 12 10
2170.0 11 11 14 12 13 16 17 18 21 26
2210.0 26 29 27 27 23 20 16 14 14 10
2250.0 11 8 12 14 13 18 22 32 38 47
2290.0 51 64 72 74 79 90 84 76 86 76
2330.0 82 74 56 81 97 75 121 91 119 105
2370.0 91 93 82 79 62 47 51 38 35 29
2410.0 33 41 32 31 30 40 54 50 50 61
2450.0 75 95 81 86 66 76 60 43 41 40
2490.0 55 39 34 34 41 47 35 40 37 55
2530.0 37 37 35 41 35 32 35 31 33 35
2570.0 38 41 46 40 42 54 51 49 56 70
2610.0 68 59 66 82 55 48 61 58 51 52
2650.0 73 54 52 68 59 58 64 75 60 82
2690.0 84 87 96 100 96 99 95 88 86 75
2730.0 73 62 59 58 58 55 63 58 60 66
2770.0 66 73 78 72 68 69 72 78 81 78
2810.0 81 83 88 101 102 111 123 141 161 192
2850.0 211 241 257 282 300 313 324 326 318 303
2890.0 294 279 282 294 321 351 367 374 362 358
2930.0 351 367 373 385 408 421 438 435 440 437
2970.0 484 555 616 576 464 362 301 278 262 254
3010.0 269 362 446 455 388 299 265 268 313 362
3050.0 399 421 439 428 408 390 378 389 419 428
3090.0 388 351 330 293 271 205 123 95 82 73
3130.0 63 59 55 56 50 51 49 48 47 47
3170.0 46 48 49 50 50 54 53 52 55 57
3210.0 56 58 58 54 47 48 45 42 40 39
3250.0 37 39 36 37 29 32 40 37 31 26
3290.0 27 30 30 28 23 22 23 22 19 19
3330.0 20 22 22 21 20 16 19 18 20 16
3370.0 19 19 14 20 15 12 16 20 16 16
3410.0 10 17 15 18 15 14 17 14 22 22
3450.0 18 23 25 23 20 27 21 20 20 22
3490.0 19 23 19 19 27 22 23 15 20 30
3530.0 25 16 26 20 29 20 19 32 15 43
3570.0 31 23 21 21 45 34 38 11 27 15
3610.0 43 25 35 31 14 58 35 15 30 19
3650.0 58 30 29 38 10 60 20 75 14 44
3690.0 27 40 18 29 29 27 41 40 31 38
3730.0 37 60 49 63 76 28 65 17 20 20
3770.0 15 15 11 29 14 13 12 15 31 34
3810.0 5 28 9 47 14 15 35 40 20 25
3850.0 18 53 52 17 35 39 30 18 35 34
3890.0 32 32 15 47 26 31 15 41 38 19
3930.0 34 28 28 19 27 25 35 35 33 44
##END=
