##TITLE=Propionic acid, 2,2-diphenyl-3-mercapto-, .beta.-thiolactone
##JCAMP-DX=4.24
##DATA TYPE=INFRARED SPECTRUM
##ORIGIN=Sadtler Research Labs Under US-EPA Contract
##OWNER=NIST Standard Reference Data Program
##CAS REGISTRY NO=53392-43-1
##MOLFORM=C 15 H 12 O S
##XUNITS=1/CM
##YUNITS=ABSORBANCE
##XFACTOR=1.0
##YFACTOR=0.000062729
##DELTAX=4.0
##FIRSTX=450.0
##LASTX=3966.0
##FIRSTY=0.000000
##MAXX=3966
##MINX=450
##MAXY=0.62729
##MINY=0
##NPOINTS=880
##XYDATA=(X++(Y..Y))
450.0 0 131 169 84 7 19 10 94 154 251
490.0 329 410 572 604 553 476 378 267 235 168
530.0 189 176 193 222 251 247 215 178 179 206
570.0 175 177 233 262 279 302 334 366 398 435
610.0 449 423 411 318 254 214 208 182 203 237
650.0 246 318 364 468 547 866 1151 1274 1472 1687
690.0 2127 2520 2820 2575 2095 1540 1115 893 778 823
730.0 974 1246 1499 1695 1721 1767 1830 1855 1652 1263
770.0 845 607 497 473 475 503 599 728 1006 1531
810.0 2303 3023 3135 2558 1662 1037 665 496 399 318
850.0 291 252 239 250 239 253 256 261 263 274
890.0 259 258 270 290 322 328 316 284 230 215
930.0 201 186 195 219 257 304 330 291 242 227
970.0 230 250 284 330 400 534 732 926 1078 1163
1010.0 1228 1311 1355 1314 1336 1385 1407 1266 1022 779
1050.0 567 444 353 339 336 347 375 410 412 398
1090.0 359 313 285 269 263 252 233 213 193 176
1130.0 158 154 141 137 143 153 160 164 167 174
1170.0 192 232 281 339 392 410 412 423 471 526
1210.0 523 457 377 315 273 256 227 206 191 183
1250.0 171 171 165 164 158 156 155 147 148 141
1290.0 139 133 126 134 137 142 147 159 169 187
1330.0 200 200 193 172 155 142 132 121 128 131
1370.0 133 144 144 144 134 132 135 132 128 130
1410.0 139 145 165 176 202 243 311 425 624 866
1450.0 1045 983 726 484 364 336 388 480 619 818
1490.0 1106 1419 1509 1286 886 502 334 240 222 194
1530.0 192 183 187 185 166 161 155 180 180 196
1570.0 225 266 328 387 460 555 674 765 738 616
1610.0 465 358 307 276 273 255 250 228 206 205
1650.0 199 211 205 194 192 187 182 168 186 184
1690.0 181 189 211 231 248 278 319 382 408 459
1730.0 511 597 660 710 825 1012 1378 1964 3134 4949
1770.0 7420 9676 10000 7888 5068 3105 2004 1518 1271 1132
1810.0 1052 1022 987 965 936 916 863 776 674 569
1850.0 470 396 344 312 298 291 285 277 270 271
1890.0 265 237 201 168 157 152 151 151 150 157
1930.0 168 181 202 215 228 231 238 238 228 195
1970.0 148 115 99 98 98 94 93 93 95 99
2010.0 94 99 101 102 99 100 104 103 110 105
2050.0 103 101 94 87 96 101 100 93 81 75
2090.0 64 70 64 65 64 64 65 62 61 59
2130.0 59 54 50 54 50 50 47 54 59 60
2170.0 56 57 60 58 61 58 62 62 53 56
2210.0 51 55 57 59 54 52 50 52 52 54
2250.0 50 48 55 54 56 56 55 60 62 61
2290.0 65 62 63 67 66 81 93 96 101 91
2330.0 78 83 76 79 88 84 84 77 78 65
2370.0 79 63 71 70 62 49 44 44 39 41
2410.0 37 35 35 32 36 39 39 39 35 31
2450.0 33 37 38 32 32 36 34 36 28 34
2490.0 28 33 34 34 34 37 43 43 42 38
2530.0 39 33 38 34 33 37 32 29 30 25
2570.0 30 31 36 28 26 29 35 30 30 27
2610.0 30 26 28 23 28 27 25 30 20 31
2650.0 25 28 24 22 20 20 19 16 16 13
2690.0 14 9 8 12 16 9 12 13 11 5
2730.0 6 19 13 10 9 14 15 14 21 20
2770.0 22 25 24 28 22 26 25 29 26 22
2810.0 21 22 23 28 29 28 30 25 38 45
2850.0 47 54 60 64 73 87 107 117 113 101
2890.0 80 76 67 73 69 74 91 97 109 124
2930.0 130 135 130 126 120 119 104 116 136 182
2970.0 286 425 532 463 306 202 144 143 160 221
3010.0 310 483 629 699 717 755 874 935 902 769
3050.0 656 642 781 1079 1586 2095 2199 1791 1199 844
3090.0 777 741 660 548 451 364 286 217 155 105
3130.0 79 63 57 63 55 53 55 56 65 59
3170.0 57 39 30 19 22 22 20 24 23 18
3210.0 14 21 16 25 19 19 13 14 17 14
3250.0 12 16 16 8 16 16 19 18 13 13
3290.0 14 16 14 14 19 15 13 7 16 10
3330.0 4 13 11 7 12 11 12 11 16 19
3370.0 18 15 22 20 13 11 15 20 20 24
3410.0 18 10 14 18 13 16 20 10 23 19
3450.0 25 20 17 16 22 16 12 14 31 28
3490.0 21 33 26 32 44 37 32 44 62 80
3530.0 87 97 96 85 61 40 24 21 28 12
3570.0 15 35 41 32 30 39 28 28 20 22
3610.0 26 24 34 33 28 31 35 25 34 35
3650.0 35 31 37 33 34 42 25 38 40 32
3690.0 42 25 28 34 37 31 41 36 38 21
3730.0 47 36 38 20 33 36 40 9 26 30
3770.0 22 24 15 9 8 19 17 33 5 8
3810.0 15 21 24 19 17 3 11 15 4 7
3850.0 6 8 16 5 4 4 14 18 33 40
3890.0 12 24 25 19 6 40 29 25 26 26
3930.0 15 17 48 18 14 38 11 12 28 37
##END=
