##TITLE=Furan, 2-methyl-
##JCAMP-DX=4.24
##DATA TYPE=INFRARED SPECTRUM
##ORIGIN=Sadtler Research Labs Under US-EPA Contract
##OWNER=NIST Standard Reference Data Program
##CAS REGISTRY NO=534-22-5
##MOLFORM=C 5 H 6 O
##XUNITS=1/CM
##YUNITS=ABSORBANCE
##XFACTOR=1.0
##YFACTOR=0.000052753
##DELTAX=4.0
##FIRSTX=450.0
##LASTX=3966.0
##FIRSTY=0.001213
##MAXX=3966
##MINX=450
##MAXY=0.52753
##MINY=0
##NPOINTS=880
##XYDATA=(X++(Y..Y))
450.0 23 51 50 53 49 60 56 41 36 29
490.0 24 11 2 37 84 83 94 91 73 82
530.0 51 20 0 105 92 48 42 108 160 252
570.0 305 416 446 531 592 655 812 1859 638 590
610.0 617 619 572 610 524 328 262 243 280 256
650.0 225 235 157 148 153 134 156 213 341 555
690.0 902 1381 1977 2630 3184 3600 3874 4134 5373 10000
730.0 4121 3945 3997 3711 3199 2595 1962 1416 1085 1000
770.0 1067 1172 1336 1383 1523 2473 3364 1283 1283 1244
810.0 1166 988 779 541 355 237 181 163 191 209
850.0 233 232 227 230 293 393 492 611 672 792
890.0 1224 1352 1870 2171 2283 2174 1944 1747 1881 2136
930.0 1959 1527 1108 801 601 490 407 365 349 384
970.0 417 424 428 562 713 891 1229 1705 2208 2349
1010.0 2029 1683 1867 2310 2062 1514 1048 756 540 403
1050.0 316 277 292 369 508 722 938 1043 981 1008
1090.0 1032 1003 1036 778 489 284 216 203 289 539
1130.0 1051 1756 2346 2321 2037 2856 1852 2350 2198 1409
1170.0 715 360 291 320 392 494 641 825 1049 1243
1210.0 1342 1373 1548 1904 2167 2169 1826 1629 1535 1604
1250.0 1404 1053 757 533 358 263 196 170 151 142
1290.0 130 132 127 117 125 134 143 144 144 163
1330.0 183 210 226 247 254 274 302 376 445 467
1370.0 466 525 620 636 626 544 557 590 559 475
1410.0 383 334 361 424 519 682 890 1136 1451 1684
1450.0 1616 1401 1286 1396 1360 1161 951 828 825 964
1490.0 1236 1641 2084 2344 2437 2570 2531 2311 2280 2053
1530.0 1617 1129 791 604 523 518 586 703 880 1032
1570.0 1149 1152 1163 1342 1503 1716 1790 1694 1510 1383
1610.0 1294 1220 1235 989 651 435 349 282 240 232
1650.0 289 266 215 184 152 149 137 158 193 261
1690.0 310 311 305 294 241 327 293 204 112 72
1730.0 54 54 41 33 31 23 21 21 21 20
1770.0 22 21 21 20 20 20 21 19 21 18
1810.0 19 18 19 27 28 28 27 26 27 29
1850.0 16 16 17 16 18 17 16 16 16 15
1890.0 10 11 7 7 6 5 6 14 16 14
1930.0 14 15 15 15 15 15 13 14 21 13
1970.0 14 14 23 31 31 35 29 41 39 33
2010.0 31 31 30 29 38 39 49 49 64 64
2050.0 56 68 57 47 47 48 56 56 57 57
2090.0 57 48 48 52 36 42 40 20 11 8
2130.0 7 8 8 17 8 18 32 26 31 37
2170.0 32 36 27 16 8 7 8 8 9 27
2210.0 40 43 55 60 62 63 78 91 82 90
2250.0 81 63 56 54 43 46 35 30 40 34
2290.0 34 39 42 54 57 52 36 33 35 26
2330.0 19 13 14 40 44 41 38 67 53 71
2370.0 96 117 109 86 68 62 59 51 50 51
2410.0 41 42 50 51 54 49 54 51 59 51
2450.0 41 40 49 50 39 42 38 39 40 40
2490.0 24 22 11 12 2 12 20 11 23 14
2530.0 20 32 27 23 23 23 23 23 23 24
2570.0 32 41 52 70 70 69 86 78 73 72
2610.0 61 61 53 43 35 34 34 44 44 49
2650.0 53 53 53 53 53 55 55 55 45 44
2690.0 47 46 42 48 52 50 53 55 66 66
2730.0 76 94 106 124 126 132 138 127 126 108
2770.0 88 79 67 59 58 58 51 69 78 91
2810.0 107 111 149 168 188 199 219 238 239 260
2850.0 300 361 444 574 655 713 768 796 879 954
2890.0 969 919 835 757 771 805 878 1057 1389 1800
2930.0 1998 1913 2272 2093 2171 2283 1970 1539 1333 1935
2970.0 1214 1180 1222 1224 1196 1122 1069 1004 869 756
3010.0 693 646 525 443 371 305 272 260 258 264
3050.0 267 277 267 277 276 265 272 260 237 256
3090.0 263 274 303 342 397 485 545 569 562 574
3130.0 503 557 505 425 353 278 230 199 216 169
3170.0 182 148 111 64 43 35 33 33 33 40
3210.0 33 24 32 33 32 7 28 24 21 20
3250.0 25 31 20 14 27 28 36 38 17 28
3290.0 34 10 19 9 12 29 30 37 22 21
3330.0 21 12 33 24 23 29 22 26 23 8
3370.0 4 34 25 25 16 16 16 16 23 26
3410.0 10 31 17 13 16 21 18 18 18 12
3450.0 6 8 6 13 34 17 12 19 21 22
3490.0 21 5 4 22 17 17 20 38 28 21
3530.0 8 25 25 34 17 17 15 36 17 29
3570.0 39 44 26 32 25 27 47 38 38 18
3610.0 22 12 30 32 39 21 27 33 38 35
3650.0 24 32 41 41 41 28 34 27 30 42
3690.0 41 33 22 16 40 49 59 48 40 37
3730.0 23 45 50 38 46 37 56 46 54 55
3770.0 73 61 64 58 53 52 52 51 50 51
3810.0 49 49 48 48 46 46 45 44 49 47
3850.0 50 57 46 45 45 43 50 47 48 34
3890.0 33 45 41 36 39 47 47 42 49 55
3930.0 50 38 52 49 49 38 33 26 32 33
##END=
