##TITLE=Phenol, 2-methyl-4,6-dinitro-
##JCAMP-DX=4.24
##DATA TYPE=INFRARED SPECTRUM
##ORIGIN=Sadtler Research Labs Under US-EPA Contract
##OWNER=NIST Standard Reference Data Program
##CAS REGISTRY NO=534-52-1
##MOLFORM=C 7 H 6 N 2 O 5
##XUNITS=1/CM
##YUNITS=ABSORBANCE
##XFACTOR=1.0
##YFACTOR=0.000119937
##DELTAX=4.0
##FIRSTX=450.0
##LASTX=3966.0
##FIRSTY=0.000000
##MAXX=3966
##MINX=450
##MAXY=1.19937
##MINY=0
##NPOINTS=880
##XYDATA=(X++(Y..Y))
450.0 0 194 521 285 448 494 351 252 175 163
490.0 272 156 229 203 211 227 160 237 230 253
530.0 250 214 305 288 282 292 239 304 215 202
570.0 252 194 229 205 229 256 255 292 292 262
610.0 256 266 390 348 417 572 577 556 455 396
650.0 410 477 510 477 436 543 512 567 710 869
690.0 1016 1074 1302 1775 2143 2500 2324 1987 1396 1163
730.0 1118 1072 1203 1402 1103 672 524 427 477 595
770.0 542 633 594 546 516 519 720 797 816 686
810.0 602 534 528 438 331 226 216 221 215 195
850.0 217 226 239 213 206 220 208 221 209 221
890.0 271 318 386 523 683 866 988 1006 976 971
930.0 879 666 575 616 670 663 514 358 250 233
970.0 229 207 226 238 241 264 276 303 351 401
1010.0 433 399 366 327 296 289 275 264 274 283
1050.0 307 320 362 434 484 621 778 951 1242 1692
1090.0 2183 2287 2057 1465 831 544 438 358 319 299
1130.0 286 305 296 297 326 345 371 414 515 662
1170.0 786 816 718 558 425 372 347 338 366 387
1210.0 395 432 461 507 563 650 775 920 1111 1358
1250.0 1788 2474 3320 4168 4716 4784 4340 3567 2747 2032
1290.0 1532 1247 1125 1104 1145 1331 1714 2264 2827 3242
1330.0 3612 4264 5687 7877 9737 10000 8405 5899 3817 2796
1370.0 2367 2036 1847 1766 1652 1513 1343 1160 1011 926
1410.0 1017 1146 1464 1827 2207 2556 2787 2735 2620 2395
1450.0 2249 2176 2228 2310 2410 2440 2280 1885 1519 1273
1490.0 1176 1145 1156 1176 1156 1192 1178 1068 1123 1049
1530.0 1126 1446 1817 2620 3148 3488 4108 4839 6122 6279
1570.0 5719 4438 2871 1886 1558 1526 1611 1993 2408 3050
1610.0 3791 4651 4619 4270 3073 1950 1259 787 632 516
1650.0 460 430 339 354 318 308 307 272 283 275
1690.0 247 242 268 247 252 229 243 252 209 210
1730.0 202 236 180 190 200 202 183 184 178 176
1770.0 193 185 186 194 199 210 225 245 277 265
1810.0 288 299 296 283 259 229 204 179 184 186
1850.0 183 163 171 173 170 185 169 168 163 162
1890.0 169 166 164 164 161 161 163 161 170 159
1930.0 156 155 157 167 162 162 164 165 166 171
1970.0 167 162 161 157 156 162 157 151 153 149
2010.0 147 150 158 162 155 159 156 158 162 161
2050.0 158 157 162 171 169 163 163 166 166 166
2090.0 167 162 163 161 155 160 157 154 158 157
2130.0 155 158 157 157 158 160 160 159 159 159
2170.0 162 163 166 169 167 170 167 156 158 156
2210.0 157 160 158 160 157 162 162 163 171 170
2250.0 176 173 178 177 181 182 185 185 191 196
2290.0 202 204 211 214 216 219 210 204 210 198
2330.0 196 194 208 208 213 208 201 186 217 222
2370.0 223 223 220 217 200 186 177 178 180 183
2410.0 188 193 194 194 194 196 198 196 196 194
2450.0 197 198 195 199 203 203 208 203 203 205
2490.0 202 195 194 190 195 196 198 199 202 201
2530.0 201 200 198 203 207 212 209 215 225 227
2570.0 226 227 228 229 232 231 232 229 227 222
2610.0 219 223 222 226 226 227 231 235 234 233
2650.0 231 238 234 237 236 236 240 242 244 245
2690.0 249 255 252 250 249 248 246 243 244 243
2730.0 242 245 245 243 245 244 249 252 253 252
2770.0 255 263 267 271 280 282 284 281 287 288
2810.0 289 291 293 296 297 297 297 301 297 307
2850.0 312 318 328 341 352 375 394 406 416 420
2890.0 408 398 384 371 366 369 384 395 400 418
2930.0 447 481 520 552 557 522 475 416 393 396
2970.0 409 426 421 403 391 395 404 410 395 362
3010.0 336 325 314 306 311 307 309 314 311 311
3050.0 307 306 324 330 341 355 373 391 407 421
3090.0 434 460 500 560 677 794 844 814 717 603
3130.0 520 511 519 540 574 610 654 695 750 799
3170.0 851 891 937 956 974 991 1018 1030 1042 1047
3210.0 1043 1040 1024 1005 986 962 938 911 875 859
3250.0 839 816 805 778 768 758 739 719 714 697
3290.0 677 673 654 645 634 615 602 591 580 560
3330.0 544 531 526 514 504 483 468 454 449 451
3370.0 444 430 426 409 412 404 390 392 388 390
3410.0 377 376 371 365 357 353 346 354 337 332
3450.0 332 328 328 321 308 311 313 316 310 307
3490.0 298 293 299 306 303 291 289 282 290 290
3530.0 274 264 273 269 264 276 252 251 245 246
3570.0 249 240 240 218 238 228 230 220 213 219
3610.0 207 205 205 199 193 186 200 193 207 188
3650.0 181 190 188 186 176 184 153 193 185 173
3690.0 178 180 192 178 180 178 178 174 173 182
3730.0 172 161 176 175 185 169 177 178 180 183
3770.0 178 173 185 184 178 173 180 180 162 161
3810.0 168 178 170 178 182 180 157 158 191 179
3850.0 190 162 173 182 167 162 164 178 181 171
3890.0 170 167 180 175 200 190 196 202 172 179
3930.0 166 164 178 191 165 162 188 183 176 190
##END=
