##TITLE=1,2-Benzenediamine, N-phenyl-
##JCAMP-DX=4.24
##DATA TYPE=INFRARED SPECTRUM
##ORIGIN=Sadtler Research Labs Under US-EPA Contract
##OWNER=NIST Standard Reference Data Program
##CAS REGISTRY NO=534-85-0
##MOLFORM=C 12 H 12 N 2
##XUNITS=1/CM
##YUNITS=ABSORBANCE
##XFACTOR=1.0
##YFACTOR=0.000081964
##DELTAX=4.0
##FIRSTX=450.0
##LASTX=3966.0
##FIRSTY=0.008360
##MAXX=3966
##MINX=450
##MAXY=0.81964
##MINY=0
##NPOINTS=880
##XYDATA=(X++(Y..Y))
450.0 102 108 141 127 157 210 187 243 185 257
490.0 278 296 277 223 181 96 180 168 162 219
530.0 239 240 271 253 219 232 184 160 151 180
570.0 171 168 191 253 308 326 333 313 292 293
610.0 298 281 329 352 371 387 404 449 484 544
650.0 567 605 636 649 646 737 758 815 1057 1345
690.0 1745 1800 1553 1128 857 717 699 736 898 1267
730.0 1978 3156 4527 5706 5517 4649 3249 2068 1325 896
770.0 629 497 432 385 359 318 282 252 228 186
810.0 182 172 199 202 186 159 129 96 66 74
850.0 89 113 142 180 201 256 304 371 376 342
890.0 263 170 121 97 68 67 63 69 91 114
930.0 99 75 41 26 18 15 12 16 14 20
970.0 17 22 26 27 44 85 141 127 87 54
1010.0 34 42 104 226 348 385 333 244 163 134
1050.0 124 131 146 164 192 210 218 182 109 53
1090.0 19 2 3 0 3 20 46 79 110 169
1130.0 249 379 477 501 475 490 527 459 339 211
1170.0 201 272 310 299 255 222 228 277 345 429
1210.0 502 558 619 694 817 992 1218 1470 1711 1827
1250.0 1827 1703 1569 1470 1486 1632 1869 2227 2709 3342
1290.0 4057 4712 4933 4616 3862 3029 2342 1830 1435 1107
1330.0 878 724 655 549 430 367 321 322 326 319
1370.0 309 328 313 295 325 358 476 653 929 1208
1410.0 1382 1239 1076 766 599 483 471 483 487 576
1450.0 728 913 1057 1023 1047 1154 1425 1740 2312 3340
1490.0 5202 7844 9615 10000 8540 6005 4075 2502 1717 1149
1530.0 923 730 680 682 637 620 655 769 822 951
1570.0 1173 1504 2002 2677 3466 4406 5208 5783 5675 5235
1610.0 4558 4008 3697 3306 2864 2205 1672 1160 802 581
1650.0 464 369 274 214 196 187 192 154 186 205
1690.0 163 151 188 174 129 86 96 117 59 36
1730.0 61 103 73 70 97 127 129 140 170 166
1770.0 187 173 126 123 105 108 100 92 98 74
1810.0 63 76 76 87 105 119 117 102 129 144
1850.0 121 92 92 81 89 112 100 118 129 130
1890.0 119 109 104 119 149 183 215 220 206 155
1930.0 123 106 89 80 51 36 26 24 16 19
1970.0 15 10 6 7 6 18 16 8 10 11
2010.0 12 18 25 20 19 14 13 15 16 12
2050.0 11 14 12 12 19 15 15 16 22 19
2090.0 22 20 21 18 17 15 13 11 10 9
2130.0 6 9 5 7 6 5 8 3 3 2
2170.0 4 5 8 6 5 5 2 2 1 6
2210.0 6 6 6 7 7 4 5 2 3 3
2250.0 6 3 6 7 5 10 13 21 25 36
2290.0 43 56 65 72 76 91 80 69 60 40
2330.0 35 32 25 26 42 50 42 38 31 15
2370.0 21 32 36 42 40 27 19 19 23 23
2410.0 26 24 27 28 26 27 29 26 29 29
2450.0 32 35 41 40 43 48 54 55 57 58
2490.0 60 62 70 71 76 78 72 78 75 76
2530.0 71 74 72 65 67 63 60 50 46 41
2570.0 37 37 36 30 33 41 41 44 47 50
2610.0 54 51 50 47 43 43 36 28 26 20
2650.0 20 19 18 13 9 7 2 3 2 2
2690.0 0 3 1 4 11 13 17 11 10 11
2730.0 11 11 14 18 12 14 18 17 13 13
2770.0 12 15 14 15 16 21 24 24 16 24
2810.0 25 23 20 24 21 20 23 25 23 26
2850.0 31 31 35 32 41 47 48 50 53 59
2890.0 59 57 66 64 61 58 58 58 53 58
2930.0 57 61 58 60 58 55 51 46 52 57
2970.0 58 66 77 81 93 111 134 179 238 322
3010.0 459 645 846 1047 1218 1362 1461 1525 1571 1604
3050.0 1651 1687 1699 1669 1617 1576 1562 1533 1490 1385
3090.0 1207 992 780 622 479 368 277 208 153 111
3130.0 88 65 62 51 50 49 43 46 48 58
3170.0 54 55 59 62 64 75 78 83 80 82
3210.0 87 81 76 80 76 76 77 78 72 75
3250.0 77 81 77 83 84 83 90 98 101 104
3290.0 109 109 117 127 130 139 150 158 165 173
3330.0 189 203 220 233 251 268 292 314 346 387
3370.0 420 457 495 535 578 642 713 783 822 803
3410.0 723 641 563 509 464 410 362 309 272 264
3450.0 264 268 288 294 319 347 378 413 444 498
3490.0 542 584 558 503 396 281 207 140 102 87
3530.0 56 43 39 32 39 24 21 20 18 27
3570.0 17 14 12 7 17 19 19 6 11 11
3610.0 25 18 23 20 16 21 29 19 20 14
3650.0 23 21 14 13 5 19 7 27 15 4
3690.0 9 2 11 9 0 0 13 6 4 3
3730.0 1 3 2 1 31 3 14 5 0 0
3770.0 0 0 0 0 0 0 0 0 0 0
3810.0 0 0 0 2 0 0 0 0 0 0
3850.0 0 1 0 0 0 0 0 0 0 0
3890.0 0 2 2 19 16 2 0 5 12 0
3930.0 6 20 15 11 13 15 5 0 0 9
##END=
