##TITLE=Ethane, 1,1-dimethoxy-
##JCAMP-DX=4.24
##DATA TYPE=INFRARED SPECTRUM
##ORIGIN=Sadtler Research Labs Under US-EPA Contract
##OWNER=NIST Standard Reference Data Program
##CAS REGISTRY NO=534-15-6
##MOLFORM=C 4 H 10 O 2
##XUNITS=1/CM
##YUNITS=ABSORBANCE
##XFACTOR=1.0
##YFACTOR=0.000161798
##DELTAX=4.0
##FIRSTX=450.0
##LASTX=3966.0
##FIRSTY=0.040773
##MAXX=3966
##MINX=450
##MAXY=1.61798
##MINY=0
##NPOINTS=880
##XYDATA=(X++(Y..Y))
450.0 252 128 68 108 109 78 138 48 132 71
490.0 111 91 98 122 134 165 163 233 225 296
530.0 303 370 377 328 290 245 230 163 172 126
570.0 125 94 90 112 101 95 116 119 107 108
610.0 96 99 92 99 113 117 104 101 162 101
650.0 113 142 130 85 42 54 41 50 41 37
690.0 25 27 12 14 14 6 4 6 8 0
730.0 5 0 7 9 8 11 0 23 5 9
770.0 9 20 31 38 65 74 113 150 224 251
810.0 308 378 433 476 495 551 598 569 548 663
850.0 817 1051 1346 1657 1966 2298 2732 2554 2319 2216
890.0 1827 1400 1015 701 467 330 259 221 203 189
930.0 181 180 175 177 169 181 188 208 240 285
970.0 348 463 613 772 903 1000 1192 1206 1011 1071
1010.0 974 850 798 880 1041 1430 2023 2462 2784 3163
1050.0 3623 3950 3847 3980 3976 3891 3887 4286 4712 5193
1090.0 5691 6216 6345 6659 7490 7144 7417 7570 8183 8564
1130.0 9465 10000 9533 9569 8177 7321 6123 5368 4351 3485
1170.0 2820 2429 2269 2271 2414 2532 2680 2783 2881 2823
1210.0 2749 2639 2363 2138 1966 1799 1598 1439 1266 1128
1250.0 997 896 823 714 607 511 452 403 376 340
1290.0 317 293 276 264 256 253 248 257 276 309
1330.0 343 417 505 623 736 878 1054 1220 1453 1567
1370.0 1681 1918 2409 2801 2848 2704 2520 2518 2082 1658
1410.0 1198 811 560 467 448 515 581 666 761 856
1450.0 969 1035 1026 960 910 844 765 678 587 502
1490.0 429 352 299 241 212 178 154 147 123 127
1530.0 110 113 106 107 98 104 107 103 106 104
1570.0 109 102 104 103 100 101 105 111 109 113
1610.0 107 113 117 108 124 121 130 109 103 89
1650.0 93 82 95 84 78 84 78 79 76 72
1690.0 67 65 58 57 64 61 69 79 103 113
1730.0 145 166 207 247 303 364 450 526 573 599
1770.0 598 693 712 659 531 454 467 503 453 405
1810.0 335 235 151 87 59 32 23 18 17 18
1850.0 20 23 24 26 28 29 25 26 24 23
1890.0 27 29 35 37 43 49 52 60 64 68
1930.0 73 79 83 85 85 85 83 82 81 81
1970.0 80 80 81 80 86 87 91 92 93 91
2010.0 89 90 90 89 85 82 77 73 68 62
2050.0 57 55 52 51 51 53 59 61 67 70
2090.0 72 72 73 75 74 72 68 66 63 60
2130.0 61 61 60 58 57 52 52 48 48 47
2170.0 46 45 43 45 43 39 36 33 30 30
2210.0 28 27 24 21 19 17 16 14 13 11
2250.0 11 10 8 8 10 10 8 8 8 8
2290.0 6 6 3 2 2 1 4 3 5 6
2330.0 5 6 10 11 6 9 3 8 10 2
2370.0 9 8 9 5 5 5 7 6 7 5
2410.0 5 5 3 4 3 3 3 3 1 2
2450.0 0 0 0 1 0 1 2 3 3 6
2490.0 8 8 7 9 8 10 7 10 9 10
2530.0 12 12 16 16 18 22 22 23 27 28
2570.0 29 33 37 41 48 53 59 64 66 65
2610.0 67 66 66 67 72 75 88 106 128 151
2650.0 179 210 247 276 272 259 251 249 246 217
2690.0 184 166 151 143 134 127 122 122 130 131
2730.0 125 125 129 133 139 151 162 176 188 204
2770.0 223 245 261 280 307 343 390 447 531 645
2810.0 812 1055 1372 1753 2133 2488 2779 3066 3018 2693
2850.0 2473 2195 1844 1529 1362 1323 1368 1497 1698 1972
2890.0 2279 2600 2872 3182 3718 3825 3596 3714 3818 3862
2930.0 3875 3927 4005 3984 3965 3866 3780 3537 3306 3054
2970.0 2870 2811 2913 3228 3568 3797 3828 4260 4527 3559
3010.0 3005 2482 1878 1380 1030 815 690 609 561 526
3050.0 492 465 441 416 393 371 348 326 307 288
3090.0 268 251 230 214 196 180 164 147 133 121
3130.0 107 93 89 80 76 68 65 59 53 50
3170.0 47 49 47 48 46 42 38 39 35 32
3210.0 31 29 27 23 20 18 15 11 10 11
3250.0 7 5 8 6 6 6 5 7 5 6
3290.0 6 6 5 2 2 4 3 2 4 2
3330.0 4 4 2 1 6 9 6 2 6 5
3370.0 8 11 12 14 11 13 15 14 10 8
3410.0 9 8 5 6 6 10 3 8 9 8
3450.0 6 11 7 6 6 5 7 4 10 7
3490.0 6 12 8 10 8 7 7 6 9 12
3530.0 16 15 15 18 24 30 38 51 66 77
3570.0 75 65 72 100 76 53 82 74 71 47
3610.0 40 20 23 20 12 24 15 21 14 21
3650.0 28 26 28 22 22 15 17 24 23 21
3690.0 15 21 19 21 20 23 30 20 22 26
3730.0 14 19 10 9 3 11 6 0 0 0
3770.0 0 0 0 0 0 0 0 0 0 0
3810.0 0 0 0 0 0 0 0 0 0 0
3850.0 0 0 0 0 0 0 0 0 0 0
3890.0 0 0 0 0 0 0 0 0 0 0
3930.0 0 0 0 0 0 0 0 0 0 0
##END=
