##TITLE=3,5-Xylenol, 4-nitro-,
##JCAMP-DX=4.24
##DATA TYPE=INFRARED SPECTRUM
##ORIGIN=Sadtler Research Labs Under US-EPA Contract
##OWNER=NIST Standard Reference Data Program
##CAS REGISTRY NO=5344-97-8
##MOLFORM=C 8 H 9 N O 3
##XUNITS=1/CM
##YUNITS=ABSORBANCE
##XFACTOR=1.0
##YFACTOR=0.000076950
##DELTAX=4.0
##FIRSTX=450.0
##LASTX=3966.0
##FIRSTY=0.000000
##MAXX=3966
##MINX=450
##MAXY=0.7695
##MINY=0
##NPOINTS=880
##XYDATA=(X++(Y..Y))
450.0 0 155 189 340 248 360 308 277 329 342
490.0 425 393 436 453 495 366 385 297 229 225
530.0 219 247 234 253 180 240 176 207 183 124
570.0 174 98 162 197 235 243 303 464 932 1449
610.0 1866 1987 1718 1036 459 289 196 194 175 191
650.0 201 224 230 205 265 349 241 307 345 290
690.0 301 318 292 299 277 291 276 276 256 258
730.0 272 264 268 225 211 179 183 157 162 166
770.0 169 173 170 184 150 163 148 165 143 185
810.0 207 261 378 622 1127 1814 2473 2444 2280 1721
850.0 1175 1036 1221 1306 1049 845 637 430 328 245
890.0 232 217 223 225 231 234 254 253 260 270
930.0 293 321 339 358 369 404 434 492 539 564
970.0 545 506 456 398 360 349 352 363 389 409
1010.0 434 477 527 596 696 810 855 839 741 598
1050.0 476 402 361 333 326 318 339 352 406 488
1090.0 654 856 1018 1053 961 756 530 458 472 555
1130.0 661 804 1031 1383 1935 2702 3652 4925 6153 6605
1170.0 6096 5033 3423 2162 1944 2244 2382 2299 1870 1281
1210.0 830 642 565 550 558 630 832 1241 1981 2769
1250.0 3137 3017 2548 1689 1116 970 1005 1116 1182 1258
1290.0 1332 1378 1401 1460 1606 1923 2508 3279 3939 4145
1330.0 3855 3089 2314 1854 1908 2360 3042 3873 4521 4708
1370.0 4374 3606 2694 2019 1581 1288 1082 907 748 661
1410.0 633 661 712 849 953 1178 1400 1704 1953 2210
1450.0 2380 2469 2495 2443 2360 2263 2194 2154 2153 2111
1490.0 2145 2069 2123 2114 2247 2466 2768 3299 4275 5508
1530.0 7310 8522 10000 9330 8253 6450 4533 3538 2535 2375
1570.0 2403 2704 2915 3555 3898 4563 4622 5132 4794 4735
1610.0 4669 4599 4316 3465 2897 1805 1276 793 611 510
1650.0 412 478 428 495 483 511 469 406 377 283
1690.0 266 238 260 245 266 270 295 282 271 264
1730.0 236 223 189 202 190 191 173 166 177 177
1770.0 212 188 214 212 208 177 179 166 161 152
1810.0 145 152 138 152 139 149 136 139 135 152
1850.0 144 126 134 131 137 124 128 123 123 130
1890.0 146 157 153 158 150 158 142 144 149 138
1930.0 145 137 142 132 137 115 120 114 115 107
1970.0 106 104 96 101 92 98 100 96 93 94
2010.0 97 93 100 91 94 92 94 92 97 99
2050.0 96 106 102 108 105 114 105 107 104 102
2090.0 107 102 106 103 106 106 109 113 117 124
2130.0 123 125 125 128 118 122 126 130 134 142
2170.0 149 153 160 170 182 188 197 197 196 189
2210.0 175 168 156 145 136 154 160 170 169 159
2250.0 149 133 127 114 117 117 122 128 141 154
2290.0 172 190 205 220 225 238 223 206 214 188
2330.0 182 189 180 232 258 282 275 243 251 232
2370.0 225 214 234 245 212 168 149 143 138 143
2410.0 148 149 155 154 155 150 150 139 140 139
2450.0 139 145 146 151 146 153 153 155 159 169
2490.0 168 157 150 139 126 115 110 102 103 102
2530.0 98 99 100 103 99 103 103 113 110 111
2570.0 107 110 113 106 108 104 109 105 106 108
2610.0 113 109 107 114 107 110 111 117 113 113
2650.0 109 104 98 97 98 92 92 97 100 101
2690.0 103 108 110 120 126 134 135 142 144 145
2730.0 140 141 142 142 153 161 168 170 173 162
2770.0 153 145 142 138 137 137 133 137 138 141
2810.0 144 149 151 156 160 175 185 193 218 237
2850.0 268 304 347 399 458 515 571 601 621 627
2890.0 616 592 566 541 531 529 554 591 661 762
2930.0 895 1044 1183 1275 1263 1161 1013 841 705 639
2970.0 628 656 703 749 792 814 805 773 725 676
3010.0 651 658 707 795 854 869 827 735 639 558
3050.0 499 463 441 426 409 373 359 346 310 271
3090.0 247 213 202 189 170 166 155 160 143 137
3130.0 132 132 128 119 118 117 118 102 109 104
3170.0 106 101 100 99 103 107 99 102 104 106
3210.0 105 107 111 110 111 121 126 107 108 111
3250.0 113 114 113 114 107 115 109 114 111 109
3290.0 107 116 117 115 126 127 125 128 134 148
3330.0 158 154 165 158 149 148 144 146 150 146
3370.0 144 131 131 136 133 135 132 128 135 127
3410.0 134 131 126 125 128 120 125 132 125 127
3450.0 119 127 126 126 125 121 126 123 137 118
3490.0 121 130 117 122 114 119 119 121 122 126
3530.0 114 120 114 113 124 122 148 142 152 150
3570.0 138 146 133 150 121 130 135 120 142 154
3610.0 130 124 176 200 277 344 795 1374 2782 3910
3650.0 4378 3984 3235 1613 722 243 158 108 144 151
3690.0 89 120 131 145 105 135 96 132 103 104
3730.0 130 105 96 105 120 91 133 90 110 124
3770.0 106 140 115 142 99 133 117 118 96 135
3810.0 119 138 92 116 134 120 123 100 100 133
3850.0 124 104 111 143 100 139 118 151 111 153
3890.0 106 169 126 156 126 133 133 148 145 126
3930.0 168 139 154 158 165 165 170 154 175 167
##END=
