##TITLE=Phenol, 2-allyl-6-chloro-,
##JCAMP-DX=4.24
##DATA TYPE=INFRARED SPECTRUM
##ORIGIN=Sadtler Research Labs Under US-EPA Contract
##OWNER=NIST Standard Reference Data Program
##CAS REGISTRY NO=5348-07-2
##MOLFORM=C 9 H 9 Cl O
##XUNITS=1/CM
##YUNITS=ABSORBANCE
##XFACTOR=1.0
##YFACTOR=0.000079730
##DELTAX=4.0
##FIRSTX=450.0
##LASTX=3966.0
##FIRSTY=0.055891
##MAXX=3966
##MINX=450
##MAXY=0.7973
##MINY=0
##NPOINTS=880
##XYDATA=(X++(Y..Y))
450.0 701 874 121 272 715 1051 489 195 801 1216
490.0 402 533 151 762 483 753 744 746 362 518
530.0 979 932 947 732 1033 1229 1073 730 779 632
570.0 441 724 495 712 578 852 895 1045 1035 1050
610.0 1042 886 778 672 627 582 649 563 596 587
650.0 664 699 744 961 1011 1362 1538 1758 1722 1585
690.0 1350 1113 951 869 843 827 953 1195 1665 2280
730.0 3099 3783 3850 3258 2596 2146 1868 2114 2509 3081
770.0 3232 2973 2322 1759 1254 988 854 684 671 638
810.0 694 734 915 1312 1708 1849 1861 1733 1769 1979
850.0 2215 2415 2288 2112 1781 1490 1282 1108 1061 1058
890.0 1190 1330 1526 1856 2316 2998 3560 3647 3461 2938
930.0 2433 2098 1840 1702 1497 1376 1235 1113 1010 923
970.0 889 917 971 1157 1403 1670 1776 1627 1413 1053
1010.0 847 755 660 640 609 617 603 614 633 664
1050.0 710 852 1027 1255 1384 1414 1377 1233 1176 1134
1090.0 1170 1212 1262 1267 1195 1115 1051 1043 1266 1854
1130.0 2748 3543 3695 3256 2270 1522 1226 1177 1357 1516
1170.0 1642 1707 1708 1812 2030 2308 2753 3223 3693 4042
1210.0 4150 4018 3611 3263 2947 3091 3946 5522 6664 6855
1250.0 6517 4826 3232 2412 2007 1783 1616 1478 1464 1497
1290.0 1568 1662 1669 1645 1536 1505 1560 1876 2542 3564
1330.0 4495 4567 4162 3064 1749 1007 671 521 473 432
1370.0 415 410 408 420 437 448 473 487 547 628
1410.0 707 843 926 1115 1353 1721 2258 2868 3818 5240
1450.0 7347 9330 9728 9490 7638 5318 4138 3499 3083 2567
1490.0 1890 1362 1013 821 679 535 448 369 323 325
1530.0 298 320 292 295 289 290 300 284 321 361
1570.0 438 574 739 899 997 1076 1233 1510 1786 1875
1610.0 1704 1367 923 720 677 801 1068 1397 1565 1476
1650.0 1127 739 522 445 428 407 391 374 326 304
1690.0 263 245 187 181 176 170 183 158 173 183
1730.0 167 155 167 173 181 172 197 185 187 193
1770.0 182 185 197 205 218 208 217 199 194 204
1810.0 187 205 229 260 320 375 454 498 509 481
1850.0 407 336 257 211 189 159 168 153 156 154
1890.0 159 184 206 242 276 262 243 195 142 124
1930.0 97 101 90 82 89 80 84 88 89 97
1970.0 95 106 104 100 103 85 91 82 77 82
2010.0 75 81 78 77 80 73 79 73 65 74
2050.0 75 85 88 86 93 76 83 68 60 60
2090.0 44 50 46 50 55 43 56 56 53 59
2130.0 47 48 49 34 42 30 36 28 30 36
2170.0 19 22 19 13 22 18 19 13 16 21
2210.0 13 19 20 21 29 30 39 43 44 48
2250.0 43 49 50 50 62 60 74 83 86 104
2290.0 104 124 129 131 149 153 146 134 125 138
2330.0 114 111 127 75 123 114 129 107 62 57
2370.0 31 61 67 72 78 56 60 65 63 74
2410.0 71 80 72 70 79 69 76 67 67 75
2450.0 56 66 61 60 71 63 77 78 75 95
2490.0 83 94 86 83 99 84 88 97 96 113
2530.0 107 116 119 106 110 98 85 76 67 72
2570.0 66 54 55 46 63 44 49 47 35 46
2610.0 26 27 39 39 46 38 36 43 46 60
2650.0 58 69 86 78 79 53 38 28 22 30
2690.0 34 49 56 53 70 57 66 73 64 75
2730.0 64 74 74 69 77 71 76 79 70 73
2770.0 65 65 64 65 65 56 55 64 65 80
2810.0 88 95 105 123 154 168 201 253 290 360
2850.0 383 414 426 400 384 329 307 295 288 324
2890.0 346 393 453 533 662 793 961 1105 1192 1227
2930.0 1154 1048 914 788 725 640 588 548 497 493
2970.0 497 549 654 829 1034 1090 1021 855 685 676
3010.0 786 982 1068 1033 947 854 893 983 1022 1000
3050.0 902 837 814 851 972 1152 1412 1728 2066 2436
3090.0 2560 2232 1659 1021 589 367 261 222 156 151
3130.0 127 116 124 112 118 121 133 136 121 120
3170.0 92 94 82 79 98 86 86 94 74 98
3210.0 83 70 80 55 84 52 67 66 57 80
3250.0 72 86 104 79 105 98 97 91 59 79
3290.0 59 60 67 46 76 60 60 79 68 76
3330.0 82 51 79 51 79 54 55 71 61 67
3370.0 62 47 77 72 79 52 44 47 25 59
3410.0 67 51 56 43 55 48 42 58 23 50
3450.0 22 65 64 51 70 67 67 88 63 72
3490.0 64 84 87 67 87 91 114 139 109 135
3530.0 148 177 219 242 305 428 707 1334 3174 6835
3570.0 9330 10000 8555 5090 2598 1274 783 523 392 319
3610.0 208 152 116 90 110 73 70 132 134 193
3650.0 150 141 203 142 153 86 43 37 61 78
3690.0 23 73 62 67 67 41 36 84 25 74
3730.0 61 20 24 21 9 0 57 88 86 102
3770.0 41 78 84 84 114 87 98 88 46 79
3810.0 74 103 57 51 80 83 113 76 104 106
3850.0 141 90 152 202 178 197 132 131 33 110
3890.0 20 108 107 81 59 93 101 111 102 92
3930.0 76 18 106 97 141 36 93 74 79 102
##END=
