##TITLE=Ethanol, 2-[4-(1-methylpropyl)phenoxy]-
##JCAMP-DX=4.24
##DATA TYPE=INFRARED SPECTRUM
##ORIGIN=Sadtler Research Labs Under US-EPA Contract
##OWNER=NIST Standard Reference Data Program
##CAS REGISTRY NO=5349-63-3
##MOLFORM=C 12 H 18 O 2
##XUNITS=1/CM
##YUNITS=ABSORBANCE
##XFACTOR=1.0
##YFACTOR=0.000042596
##DELTAX=4.0
##FIRSTX=450.0
##LASTX=3966.0
##FIRSTY=0.015250
##MAXX=3966
##MINX=450
##MAXY=0.42596
##MINY=0
##NPOINTS=880
##XYDATA=(X++(Y..Y))
450.0 358 352 10 397 62 217 83 196 7 255
490.0 449 358 273 158 378 212 381 187 355 247
530.0 442 450 490 825 758 827 655 768 559 579
570.0 395 376 455 353 387 110 320 237 249 262
610.0 215 112 131 181 120 63 74 217 76 212
650.0 81 167 130 99 126 153 237 197 263 237
690.0 381 429 500 473 355 341 199 255 245 236
730.0 233 217 246 270 307 293 302 269 271 190
770.0 301 299 396 416 399 516 505 585 575 644
810.0 679 754 951 1213 1587 1813 1882 1555 1159 823
850.0 672 536 544 551 529 585 592 663 674 791
890.0 918 1082 1175 1243 1345 1394 1356 1083 824 646
930.0 541 459 413 398 357 350 341 367 357 350
970.0 353 360 343 356 394 476 647 775 881 985
1010.0 1253 1463 1552 1686 1999 2599 3473 4438 5094 5204
1050.0 4608 3727 2868 2393 2241 2239 2363 2470 2519 2385
1090.0 2184 1913 1688 1498 1332 1198 991 843 693 627
1130.0 591 626 640 625 597 563 553 579 742 1053
1170.0 1775 2726 3180 2652 1770 1278 1151 1264 1461 1770
1210.0 2091 2503 2960 3562 4368 5441 6856 8331 9605 10000
1250.0 9172 7316 5319 3965 3203 2767 2508 2389 2343 2303
1290.0 2270 2264 2176 1913 1552 1218 994 830 754 728
1330.0 746 756 815 928 1039 1092 1066 1080 1136 1388
1370.0 1711 1863 1775 1564 1336 1130 1004 899 881 809
1410.0 750 687 610 598 562 532 494 578 683 860
1450.0 1102 1523 2206 2767 2569 1896 1385 1194 1208 1252
1490.0 1362 1508 1875 2859 5134 8272 9387 6756 3091 1299
1530.0 767 504 425 309 292 294 298 258 285 303
1570.0 336 417 565 713 838 877 882 1027 1371 1853
1610.0 2280 2380 1915 1229 663 428 293 233 230 201
1650.0 146 159 149 142 126 120 81 107 69 69
1690.0 79 78 45 50 48 67 60 35 78 87
1730.0 85 48 80 83 88 116 132 123 102 107
1770.0 71 62 72 63 46 41 38 42 37 54
1810.0 53 58 68 63 50 50 55 69 65 63
1850.0 87 93 99 94 116 118 166 178 169 141
1890.0 134 122 112 106 91 84 85 85 79 98
1930.0 96 97 101 90 104 93 97 104 106 89
1970.0 82 93 97 93 85 79 60 77 78 76
2010.0 74 74 68 62 77 64 69 74 83 82
2050.0 71 63 70 67 49 59 69 71 83 96
2090.0 108 98 92 70 71 59 55 52 47 51
2130.0 40 36 43 40 32 26 20 20 23 26
2170.0 19 24 24 25 21 12 21 11 14 5
2210.0 7 8 6 7 17 23 28 12 12 17
2250.0 24 12 21 12 26 17 21 13 20 25
2290.0 33 33 49 51 59 66 76 95 93 84
2330.0 71 52 67 35 3 48 95 102 33 0
2370.0 1 1 1 1 1 27 24 42 42 42
2410.0 46 53 44 43 55 39 27 43 26 36
2450.0 29 42 36 38 36 51 56 61 49 50
2490.0 52 41 52 30 32 31 41 34 37 61
2530.0 62 78 68 71 68 64 58 42 49 54
2570.0 39 41 32 38 40 52 49 37 32 28
2610.0 31 35 43 35 42 41 43 41 18 34
2650.0 53 56 54 48 49 47 63 59 56 58
2690.0 48 57 57 69 76 77 95 127 127 136
2730.0 159 166 191 172 188 157 153 131 128 115
2770.0 129 134 128 158 159 177 204 215 189 207
2810.0 233 244 254 269 324 335 388 435 460 510
2850.0 598 731 938 1306 1826 2323 2754 3212 3768 4030
2890.0 3771 3206 2677 2427 2371 2482 2763 3261 3848 4322
2930.0 4723 5026 5129 4940 4421 3939 3821 4503 5924 7430
2970.0 8339 8198 6725 4342 2429 1499 1110 911 797 691
3010.0 652 611 618 625 678 858 1130 1279 1187 946
3050.0 750 666 595 626 619 669 692 610 528 473
3090.0 384 379 388 393 343 294 257 238 226 193
3130.0 176 213 165 126 116 106 72 69 81 113
3170.0 74 121 101 81 114 92 64 86 85 68
3210.0 98 66 64 42 53 61 60 67 55 20
3250.0 44 49 24 36 37 43 69 57 61 71
3290.0 56 40 24 41 52 60 69 55 34 28
3330.0 48 65 43 67 82 58 44 23 95 89
3370.0 83 63 38 61 38 45 49 43 43 25
3410.0 47 80 5 67 47 31 43 74 29 92
3450.0 67 45 55 0 63 63 31 49 39 43
3490.0 55 58 64 39 49 55 62 47 84 79
3530.0 77 42 37 34 99 67 33 75 71 78
3570.0 82 46 28 22 30 46 112 97 105 80
3610.0 137 156 198 255 335 531 684 940 1021 879
3650.0 683 497 379 405 416 342 361 351 291 246
3690.0 184 160 137 142 117 105 66 88 131 97
3730.0 117 103 57 59 91 80 88 61 74 46
3770.0 57 37 41 71 56 19 73 79 19 86
3810.0 61 90 110 47 46 2 49 27 89 45
3850.0 51 76 21 100 81 93 66 40 28 58
3890.0 94 76 144 87 10 23 102 90 86 60
3930.0 82 49 116 107 120 37 56 59 92 58
##END=
