##TITLE=Benzenemethanol, .alpha.-ethyl-4-methoxy-
##JCAMP-DX=4.24
##DATA TYPE=INFRARED SPECTRUM
##ORIGIN=Sadtler Research Labs Under US-EPA Contract
##OWNER=NIST Standard Reference Data Program
##CAS REGISTRY NO=5349-60-0
##MOLFORM=C 10 H 14 O 2
##XUNITS=1/CM
##YUNITS=ABSORBANCE
##XFACTOR=1.0
##YFACTOR=0.000065085
##DELTAX=4.0
##FIRSTX=450.0
##LASTX=3966.0
##FIRSTY=0.020111
##MAXX=3966
##MINX=450
##MAXY=0.65085
##MINY=0
##NPOINTS=880
##XYDATA=(X++(Y..Y))
450.0 309 153 117 101 131 126 78 134 141 87
490.0 128 119 148 135 146 180 185 212 263 254
530.0 302 366 416 497 519 528 484 478 470 516
570.0 513 509 516 483 466 382 285 169 117 84
610.0 119 136 132 139 124 88 105 144 116 78
650.0 58 15 3 14 9 8 14 13 34 53
690.0 85 103 134 145 125 88 44 40 52 71
730.0 71 115 135 144 170 198 197 194 165 141
770.0 145 169 205 242 283 313 360 432 506 595
810.0 634 704 850 1149 1536 1923 2098 2034 1705 1239
850.0 792 507 351 254 217 193 187 198 188 197
890.0 232 293 333 332 279 222 177 164 170 191
930.0 207 221 226 247 275 334 423 555 725 908
970.0 1077 1160 1127 1032 910 844 846 950 1143 1349
1010.0 1491 1536 1458 1374 1388 1590 1992 2514 3007 3149
1050.0 2838 2194 1512 1077 866 785 780 835 907 975
1090.0 1020 1068 1100 1025 902 769 672 592 529 459
1130.0 385 346 318 330 333 381 431 564 815 1486
1170.0 2560 3201 3198 2383 1516 1103 822 727 716 750
1210.0 839 980 1194 1436 1756 2166 2840 3999 5961 8427
1250.0 10000 9563 7329 4713 3169 2545 2272 2208 2191 2219
1290.0 2270 2365 2497 2433 2144 1728 1363 1132 981 828
1330.0 729 696 693 785 920 1000 1008 1010 1005 1044
1370.0 1079 1069 1047 998 917 828 727 603 541 488
1410.0 448 459 416 462 457 485 481 616 873 1016
1450.0 1071 1080 1108 1348 1621 1714 1556 1281 998 831
1490.0 822 977 1275 1924 3216 5265 6559 6084 4308 2199
1530.0 1236 934 722 527 384 329 264 224 241 280
1570.0 324 413 538 675 823 884 927 1004 1280 1744
1610.0 2253 2557 2431 1913 1243 735 456 330 282 232
1650.0 173 147 150 113 99 83 62 73 49 39
1690.0 58 65 49 62 90 115 107 94 144 172
1730.0 165 153 170 161 138 119 152 153 163 173
1770.0 150 118 113 72 52 27 18 12 0 20
1810.0 10 13 16 15 8 3 11 23 11 5
1850.0 28 39 41 45 42 38 71 88 104 100
1890.0 89 71 56 43 37 34 30 26 20 22
1930.0 28 22 28 18 27 32 34 32 34 26
1970.0 32 33 32 36 37 32 36 47 52 51
2010.0 52 48 48 56 60 65 70 75 79 89
2050.0 97 102 97 94 95 107 109 117 124 123
2090.0 108 88 64 46 35 23 15 13 14 11
2130.0 9 11 10 9 6 6 2 2 1 1
2170.0 2 3 2 4 3 0 3 5 10 8
2210.0 9 13 13 11 12 9 5 6 3 1
2250.0 6 8 8 17 17 20 23 29 31 34
2290.0 38 43 40 40 35 33 34 32 28 31
2330.0 25 10 17 10 21 27 33 36 41 28
2370.0 27 19 21 21 26 29 31 34 38 40
2410.0 40 46 52 51 51 46 44 38 35 32
2450.0 37 38 36 37 36 38 39 41 47 48
2490.0 50 56 57 59 56 53 58 59 61 64
2530.0 68 72 81 87 91 96 99 93 78 70
2570.0 61 60 63 62 64 67 64 67 71 65
2610.0 64 60 54 55 54 54 54 53 55 56
2650.0 61 58 56 56 58 58 56 61 62 64
2690.0 63 64 66 68 66 63 66 68 70 78
2730.0 85 87 96 101 105 111 107 110 116 115
2770.0 119 120 122 125 134 143 155 160 170 186
2810.0 208 228 251 290 348 439 609 927 1261 1410
2850.0 1344 1134 1030 1061 1144 1254 1373 1509 1669 1753
2890.0 1680 1492 1277 1190 1220 1349 1498 1629 1740 1858
2930.0 2024 2272 2573 2861 2977 2828 2580 2381 2341 2472
2970.0 2656 2853 2756 2398 1851 1339 1134 1138 1388 1709
3010.0 1749 1499 1034 722 654 676 732 765 734 643
3050.0 543 464 423 418 437 485 534 545 507 430
3090.0 358 320 306 301 295 268 244 207 173 151
3130.0 144 134 117 106 94 83 68 63 65 63
3170.0 56 53 50 42 40 39 35 29 32 27
3210.0 23 12 16 14 8 5 8 13 7 11
3250.0 16 15 18 17 11 10 13 12 7 5
3290.0 6 9 11 12 9 17 7 12 19 13
3330.0 21 8 20 19 21 23 19 20 27 33
3370.0 34 28 24 42 41 31 38 37 41 29
3410.0 36 39 34 44 39 41 40 36 38 46
3450.0 44 37 48 42 36 47 46 41 50 45
3490.0 50 48 45 42 45 49 45 40 43 32
3530.0 43 53 43 45 47 46 52 44 40 41
3570.0 46 50 46 54 56 54 61 38 47 47
3610.0 62 56 57 68 78 118 171 275 451 573
3650.0 635 603 495 372 245 150 88 75 52 59
3690.0 54 53 46 48 40 21 21 28 27 16
3730.0 33 13 19 23 51 11 25 31 17 29
3770.0 25 17 23 40 25 25 14 17 25 36
3810.0 21 23 25 37 18 17 27 23 25 26
3850.0 29 52 30 22 15 40 50 39 39 52
3890.0 62 53 26 35 29 41 48 35 13 28
3930.0 30 51 51 40 32 22 38 33 36 15
##END=
