##TITLE=Benzoic acid, 3-chloro-
##JCAMP-DX=4.24
##DATA TYPE=INFRARED SPECTRUM
##ORIGIN=Sadtler Research Labs Under US-EPA Contract
##OWNER=NIST Standard Reference Data Program
##CAS REGISTRY NO=535-80-8
##MOLFORM=C 7 H 5 Cl O 2
##XUNITS=1/CM
##YUNITS=ABSORBANCE
##XFACTOR=1.0
##YFACTOR=0.000073138
##DELTAX=4.0
##FIRSTX=450.0
##LASTX=3966.0
##FIRSTY=0.023477
##MAXX=3966
##MINX=450
##MAXY=0.73138
##MINY=0
##NPOINTS=880
##XYDATA=(X++(Y..Y))
450.0 321 119 102 153 218 166 214 199 282 228
490.0 324 271 280 342 349 358 412 405 397 433
530.0 501 585 623 726 759 836 873 881 988 1099
570.0 1289 1369 1600 1714 1539 1272 981 741 516 414
610.0 320 299 371 720 1414 1747 1649 1525 1031 389
650.0 203 139 165 194 235 392 541 919 1470 1898
690.0 2001 1855 1250 522 227 135 139 118 182 220
730.0 429 684 1131 1613 1951 2704 2564 1707 1488 1013
770.0 648 425 328 301 239 229 217 248 251 295
810.0 363 423 552 667 754 745 647 496 293 164
850.0 89 66 30 58 34 47 41 65 76 104
890.0 156 196 253 266 258 210 171 130 96 64
930.0 45 47 32 42 36 55 32 31 19 17
970.0 15 1 14 3 25 27 51 63 86 103
1010.0 132 175 201 240 254 283 275 298 350 456
1050.0 646 955 1333 1655 1892 2106 2168 2083 2120 2177
1090.0 2218 2192 2121 2088 2067 2145 2176 1980 1795 1581
1130.0 1230 940 775 708 757 840 1009 1175 1402 1761
1170.0 2325 3330 4824 5721 5734 5256 3642 1869 1064 717
1210.0 530 446 427 438 477 494 517 520 523 533
1250.0 583 649 697 748 729 653 565 508 481 543
1290.0 672 830 979 1112 1251 1401 1605 1741 1747 1615
1330.0 1342 1026 826 796 888 1159 1503 1721 1736 1576
1370.0 1206 800 613 487 441 398 370 330 346 375
1410.0 458 652 849 1161 1298 1304 1156 841 473 314
1450.0 232 210 233 254 355 449 527 577 545 460
1490.0 341 248 155 103 81 54 26 65 17 58
1530.0 24 56 68 120 145 202 354 447 627 695
1570.0 784 796 782 776 687 615 490 402 320 290
1610.0 252 213 166 117 99 73 70 55 49 38
1650.0 59 47 46 52 73 72 71 65 39 61
1690.0 44 103 123 216 317 393 546 576 599 555
1730.0 568 515 615 825 1376 2452 4582 7775 9764 10000
1770.0 9944 7075 3198 1614 782 545 393 460 398 498
1810.0 525 585 567 459 347 220 154 80 61 25
1850.0 47 34 39 42 45 59 50 73 63 76
1890.0 70 81 68 65 63 52 63 63 77 59
1930.0 63 42 48 44 52 51 41 44 30 29
1970.0 11 20 16 15 17 14 22 15 31 22
2010.0 28 20 23 18 8 10 5 8 3 13
2050.0 1 5 5 8 5 9 11 5 8 3
2090.0 8 2 6 2 4 3 5 13 5 17
2130.0 13 18 18 19 14 14 9 4 8 6
2170.0 16 14 22 25 26 23 18 22 14 16
2210.0 8 13 5 10 10 8 13 11 15 8
2250.0 16 15 15 10 16 16 14 18 18 17
2290.0 20 26 21 28 30 30 31 30 44 32
2330.0 46 29 26 36 33 45 43 38 29 24
2370.0 2 17 18 25 20 22 24 23 25 19
2410.0 21 20 21 21 21 19 18 18 17 24
2450.0 18 21 17 23 18 15 16 15 14 13
2490.0 11 11 16 13 13 13 14 15 15 19
2530.0 17 22 20 22 22 19 16 21 20 15
2570.0 19 18 22 23 21 20 17 24 14 17
2610.0 13 9 4 10 6 3 4 3 6 1
2650.0 5 1 8 10 16 16 10 13 9 13
2690.0 15 10 10 11 8 9 2 6 16 9
2730.0 13 9 16 16 20 18 19 20 22 25
2770.0 24 31 29 29 28 25 19 17 19 16
2810.0 17 14 22 18 22 23 27 28 29 31
2850.0 33 45 53 63 60 61 63 56 59 58
2890.0 52 46 52 53 53 61 71 73 80 103
2930.0 111 122 118 107 98 90 85 85 92 110
2970.0 122 120 105 81 59 51 48 45 49 44
3010.0 48 53 49 51 59 63 65 60 67 60
3050.0 63 64 75 93 123 177 236 282 301 294
3090.0 253 188 127 99 72 56 40 36 27 28
3130.0 24 22 23 18 19 19 28 22 18 18
3170.0 23 25 21 31 21 24 20 20 11 10
3210.0 11 13 8 9 11 10 10 16 17 17
3250.0 10 17 14 24 13 15 13 18 20 20
3290.0 21 14 20 13 19 16 21 15 13 25
3330.0 14 16 22 27 25 27 28 35 39 41
3370.0 32 21 20 27 34 27 36 25 28 24
3410.0 25 24 20 20 25 29 29 29 33 29
3450.0 30 19 22 13 30 17 20 24 26 19
3490.0 14 32 22 53 56 66 68 50 53 36
3530.0 11 11 9 16 22 13 57 91 192 396
3570.0 799 1603 2734 3546 3455 2993 1968 735 215 98
3610.0 51 53 40 36 16 50 18 34 29 26
3650.0 70 31 22 6 14 39 29 39 0 27
3690.0 34 19 17 28 27 34 45 20 38 35
3730.0 46 54 51 45 61 45 46 9 15 17
3770.0 15 16 0 20 5 7 1 13 32 9
3810.0 5 5 15 39 23 25 22 35 11 15
3850.0 14 67 19 11 19 36 7 11 19 17
3890.0 18 23 24 57 22 10 2 11 14 23
3930.0 29 21 6 19 26 39 30 9 38 6
##END=
