##TITLE=Propanoic acid, 2-bromo-, ethyl ester
##JCAMP-DX=4.24
##DATA TYPE=INFRARED SPECTRUM
##ORIGIN=Sadtler Research Labs Under US-EPA Contract
##OWNER=NIST Standard Reference Data Program
##CAS REGISTRY NO=535-11-5
##MOLFORM=C 5 H 9 Br O 2
##XUNITS=1/CM
##YUNITS=ABSORBANCE
##XFACTOR=1.0
##YFACTOR=0.000079813
##DELTAX=4.0
##FIRSTX=450.0
##LASTX=3966.0
##FIRSTY=0.000000
##MAXX=3966
##MINX=450
##MAXY=0.79813
##MINY=0
##NPOINTS=880
##XYDATA=(X++(Y..Y))
450.0 0 300 528 325 293 346 282 235 295 271
490.0 234 226 230 268 305 283 245 297 290 254
530.0 257 263 274 306 291 343 301 276 377 296
570.0 293 288 264 265 266 344 331 264 301 243
610.0 249 264 198 223 222 269 271 304 351 395
650.0 451 504 538 595 558 689 642 601 525 405
690.0 304 245 192 173 160 169 130 119 172 118
730.0 127 135 47 170 201 251 123 222 276 263
770.0 260 280 259 249 266 246 243 225 212 255
810.0 201 207 192 206 185 217 235 242 253 296
850.0 400 482 607 647 629 530 413 329 314 295
890.0 317 336 360 359 283 228 196 191 154 154
930.0 153 141 156 162 167 172 207 196 248 314
970.0 402 485 569 677 692 663 653 568 575 627
1010.0 759 1042 1362 1623 1731 1660 1443 1192 1018 1023
1050.0 1219 1636 2248 2958 3605 3992 3983 3485 2927 2451
1090.0 2295 2236 2218 2229 2104 1778 1591 1409 1390 1449
1130.0 1639 1973 2515 3357 4540 5839 7436 8143 8069 7033
1170.0 5359 3961 3037 2447 2141 1956 1911 2051 2353 2785
1210.0 3418 4231 5017 5641 5863 5439 4839 4072 3516 3311
1250.0 3483 3880 4418 4755 4753 4297 3620 2880 2247 1841
1290.0 1612 1548 1492 1490 1484 1523 1590 1723 2061 2481
1330.0 2864 3107 3018 2566 1987 1412 1025 835 872 1202
1370.0 1545 1814 1969 1803 1479 1243 960 779 669 562
1410.0 543 473 459 412 455 551 586 736 998 1305
1450.0 1636 1740 1568 1395 1209 1042 913 785 715 567
1490.0 464 343 274 243 233 201 215 212 230 220
1530.0 261 179 196 166 183 172 135 137 160 167
1570.0 156 150 134 142 151 116 117 155 133 136
1610.0 116 137 123 118 152 117 135 143 135 148
1650.0 145 142 143 153 181 140 202 186 202 232
1690.0 236 263 318 385 440 516 612 739 859 1046
1730.0 1299 1793 2731 4098 5851 7871 9401 10000 9309 7665
1770.0 5747 3860 2692 1931 1451 1187 949 765 649 497
1810.0 408 343 258 244 214 201 151 176 165 147
1850.0 135 135 140 141 140 133 133 140 145 143
1890.0 153 149 126 139 127 127 137 153 141 126
1930.0 134 127 122 125 118 133 132 124 130 115
1970.0 104 120 112 111 96 106 104 115 112 113
2010.0 134 127 116 117 117 119 116 116 122 112
2050.0 110 106 117 95 118 107 126 115 136 120
2090.0 119 126 133 122 114 107 113 113 108 113
2130.0 93 106 98 91 91 93 101 85 95 91
2170.0 85 95 89 84 87 85 94 85 90 87
2210.0 88 85 82 88 90 92 87 95 93 88
2250.0 90 91 83 85 89 83 86 96 85 84
2290.0 86 84 85 80 81 77 82 81 69 72
2330.0 58 61 80 58 58 70 85 90 79 85
2370.0 73 74 71 81 90 101 100 100 104 103
2410.0 101 96 95 92 94 88 89 93 90 82
2450.0 91 84 90 88 83 86 91 86 86 83
2490.0 85 86 78 79 77 78 78 82 83 82
2530.0 85 84 83 80 83 82 79 81 75 76
2570.0 72 68 71 67 71 73 74 75 73 77
2610.0 77 73 73 72 70 70 65 69 75 73
2650.0 65 73 75 66 76 67 68 61 64 63
2690.0 58 58 62 60 65 62 71 74 71 77
2730.0 81 82 89 92 89 96 101 97 98 95
2770.0 95 98 102 103 115 105 107 102 101 104
2810.0 117 118 120 135 144 154 156 154 158 164
2850.0 162 165 187 214 244 304 378 451 534 569
2890.0 582 562 548 550 575 620 667 692 737 808
2930.0 952 1152 1333 1468 1509 1398 1228 1081 990 1026
2970.0 1166 1358 1746 2314 2837 3114 3105 2673 2175 1806
3010.0 1558 1310 1038 795 604 440 344 277 226 196
3050.0 172 163 146 140 138 135 122 125 123 126
3090.0 116 116 110 116 112 111 108 106 98 94
3130.0 93 96 101 102 98 101 103 115 101 93
3170.0 101 98 102 94 95 96 91 89 100 98
3210.0 98 88 97 100 103 93 100 104 94 88
3250.0 85 97 80 86 79 74 77 81 91 76
3290.0 72 75 78 73 81 82 89 85 71 87
3330.0 71 61 82 88 87 88 81 88 80 66
3370.0 85 83 89 91 82 92 86 84 105 82
3410.0 85 81 86 94 93 102 87 94 92 85
3450.0 96 104 103 112 126 106 115 117 125 152
3490.0 184 176 174 166 148 129 131 126 102 106
3530.0 110 106 116 116 93 79 89 95 109 99
3570.0 95 116 124 113 120 122 111 97 106 116
3610.0 91 102 104 106 98 92 89 86 114 111
3650.0 99 101 95 117 118 112 101 96 111 112
3690.0 124 92 97 105 89 105 106 100 100 108
3730.0 114 102 95 93 65 109 104 119 83 105
3770.0 107 90 93 104 115 127 101 135 110 119
3810.0 92 95 102 105 116 103 99 118 115 106
3850.0 119 121 132 119 103 96 84 85 120 90
3890.0 66 103 110 93 108 114 88 95 119 177
3930.0 135 82 132 109 140 117 108 109 63 90
##END=
