##TITLE=p-Anisidine, 2,6-dinitro-,
##JCAMP-DX=4.24
##DATA TYPE=INFRARED SPECTRUM
##ORIGIN=Sadtler Research Labs Under US-EPA Contract
##OWNER=NIST Standard Reference Data Program
##CAS REGISTRY NO=5350-56-1
##MOLFORM=C 7 H 7 N 3 O 5
##XUNITS=1/CM
##YUNITS=ABSORBANCE
##XFACTOR=1.0
##YFACTOR=0.000136127
##DELTAX=4.0
##FIRSTX=450.0
##LASTX=3966.0
##FIRSTY=0.002586
##MAXX=3966
##MINX=450
##MAXY=1.36127
##MINY=0
##NPOINTS=880
##XYDATA=(X++(Y..Y))
450.0 19 27 50 63 98 93 100 89 74 72
490.0 59 57 37 33 22 51 55 45 33 31
530.0 41 14 27 2 0 19 21 43 25 66
570.0 67 74 72 73 46 61 38 48 46 42
610.0 42 43 42 47 53 54 50 56 61 63
650.0 68 61 53 37 17 50 33 42 44 57
690.0 76 82 102 116 155 163 155 171 235 372
730.0 558 732 716 583 441 342 298 325 403 631
770.0 838 777 795 883 952 973 823 598 395 214
810.0 110 78 56 47 39 35 30 31 41 49
850.0 68 86 115 161 234 318 428 496 533 572
890.0 690 947 1322 1605 1524 1110 644 354 216 152
930.0 131 131 144 144 130 113 95 82 76 74
970.0 69 73 78 85 88 100 117 148 166 165
1010.0 155 163 178 208 256 334 456 654 931 1251
1050.0 1485 1530 1389 1095 751 442 270 209 196 212
1090.0 247 293 315 312 267 206 151 113 89 81
1130.0 80 76 76 64 51 22 27 69 89 110
1170.0 150 199 248 311 362 378 382 397 446 546
1210.0 705 959 1362 1963 2741 3350 3472 3172 2810 2637
1250.0 2662 2699 2787 2975 3298 3660 3897 3936 3714 3321
1290.0 2896 2606 2462 2380 2290 2116 1874 1602 1392 1250
1330.0 1194 1192 1204 1263 1311 1347 1330 1213 980 726
1370.0 516 377 311 282 264 272 303 362 497 713
1410.0 1034 1350 1445 1410 1237 1053 905 861 815 780
1450.0 733 709 687 729 743 710 646 600 623 646
1490.0 726 870 1019 1212 1420 1743 2144 2744 3505 4788
1530.0 6450 8444 9934 10000 8697 6538 4342 3001 2325 1966
1570.0 1660 1419 1196 970 791 607 507 422 394 343
1610.0 322 310 290 312 314 381 411 489 579 656
1650.0 649 571 427 271 140 74 27 45 22 29
1690.0 64 82 55 42 37 38 27 13 46 61
1730.0 49 30 46 48 35 22 37 30 31 35
1770.0 30 20 41 38 47 40 42 41 36 49
1810.0 40 39 40 35 21 19 17 23 9 5
1850.0 11 16 14 14 7 0 16 16 18 14
1890.0 11 12 12 13 9 7 5 6 0 6
1930.0 11 9 10 5 10 13 15 16 20 16
1970.0 22 27 30 34 34 33 32 38 37 34
2010.0 35 32 31 33 37 37 41 38 36 35
2050.0 30 26 26 23 19 23 22 24 25 29
2090.0 26 25 27 30 29 27 29 26 24 21
2130.0 19 16 15 13 10 14 13 15 14 16
2170.0 17 20 21 25 24 24 26 23 21 20
2210.0 15 14 10 7 5 2 1 2 0 4
2250.0 6 4 3 3 5 8 11 14 16 21
2290.0 25 29 34 37 38 43 39 40 37 37
2330.0 35 33 25 32 43 39 47 36 33 29
2370.0 31 26 31 30 25 16 12 13 13 13
2410.0 14 16 15 19 20 23 25 24 24 25
2450.0 25 22 22 19 20 20 21 21 20 19
2490.0 19 20 17 17 17 17 16 18 17 19
2530.0 17 20 23 21 22 22 26 25 24 23
2570.0 24 23 23 25 24 22 23 24 20 18
2610.0 19 19 18 15 19 21 22 23 26 27
2650.0 31 29 33 33 35 34 37 40 38 41
2690.0 40 40 38 39 41 38 40 40 42 41
2730.0 39 46 47 46 43 46 48 47 47 50
2770.0 52 54 54 59 60 62 66 69 74 76
2810.0 80 85 87 93 99 113 139 177 228 271
2850.0 278 261 222 196 186 182 184 184 188 192
2890.0 198 205 207 214 220 229 238 251 252 254
2930.0 259 270 305 361 398 404 381 345 331 321
2970.0 292 250 213 181 163 152 146 147 159 178
3010.0 217 276 307 286 230 155 107 86 76 71
3050.0 69 71 74 80 88 95 104 114 124 135
3090.0 155 175 200 215 212 191 163 129 97 74
3130.0 56 44 39 32 34 35 35 32 32 37
3170.0 39 35 34 36 33 30 25 23 21 20
3210.0 16 17 15 9 10 10 8 10 8 9
3250.0 2 3 0 2 5 7 3 5 3 9
3290.0 10 13 13 21 30 38 49 54 65 75
3330.0 86 103 122 139 167 200 240 297 361 425
3370.0 495 553 620 708 806 848 818 683 516 357
3410.0 241 166 135 119 113 114 113 124 132 149
3450.0 164 192 230 280 348 442 550 671 825 997
3490.0 1206 1422 1569 1570 1402 1121 813 547 353 231
3530.0 153 109 85 70 63 55 48 42 39 38
3570.0 37 31 21 21 23 24 23 17 13 10
3610.0 17 16 15 15 13 20 17 19 11 12
3650.0 22 13 17 14 11 20 10 18 9 19
3690.0 18 21 17 17 19 21 14 20 21 24
3730.0 22 24 25 27 34 17 26 18 17 24
3770.0 16 20 22 26 18 21 19 24 26 23
3810.0 22 32 27 34 20 24 20 21 19 37
3850.0 26 34 23 24 26 34 26 26 33 32
3890.0 42 38 23 33 33 40 29 40 34 26
3930.0 29 32 31 34 34 29 33 32 30 31
##END=
