##TITLE=Propionic acid, 2-(2,4,6-trichlorophenoxy)-,
##JCAMP-DX=4.24
##DATA TYPE=INFRARED SPECTRUM
##ORIGIN=Sadtler Research Labs Under US-EPA Contract
##OWNER=NIST Standard Reference Data Program
##CAS REGISTRY NO=53548-21-3
##MOLFORM=C 9 H 7 Cl 3 O 3
##XUNITS=1/CM
##YUNITS=ABSORBANCE
##XFACTOR=1.0
##YFACTOR=0.000046014
##DELTAX=4.0
##FIRSTX=450.0
##LASTX=3966.0
##FIRSTY=0.000000
##MAXX=3966
##MINX=450
##MAXY=0.46014
##MINY=0
##NPOINTS=880
##XYDATA=(X++(Y..Y))
450.0 0 189 353 409 349 311 238 195 187 290
490.0 276 235 252 284 325 321 356 415 449 546
530.0 564 689 812 935 977 1048 1045 1066 1150 1205
570.0 1289 1268 1339 1497 1541 1423 1349 1274 1162 1112
610.0 1120 1147 1133 1081 1019 901 804 719 629 515
650.0 471 404 366 411 456 743 1230 1878 2107 1406
690.0 725 313 242 328 319 349 357 434 519 668
730.0 896 1088 1235 1367 1503 1678 1750 1682 1467 1168
770.0 916 743 600 495 441 400 368 355 363 388
810.0 380 377 381 404 418 455 482 472 447 371
850.0 344 321 377 476 703 1088 1477 1599 1370 1116
890.0 1007 926 782 574 389 260 190 169 167 174
930.0 194 223 258 308 397 535 743 954 1048 942
970.0 714 503 395 351 353 368 398 438 491 576
1010.0 684 825 1048 1316 1641 1956 2177 2249 2182 2025
1050.0 1883 1842 1997 2334 2909 3878 5516 7527 8698 8895
1090.0 8658 8138 7473 6477 5411 4607 4151 4128 4539 5032
1130.0 5144 4803 4098 3289 2673 2339 2210 2181 2190 2209
1170.0 2192 2117 2015 1904 1800 1680 1588 1489 1422 1416
1210.0 1446 1538 1702 1990 2436 3098 3900 4579 4832 4548
1250.0 3841 3085 2645 2473 2472 2495 2500 2415 2210 1954
1290.0 1762 1664 1599 1564 1586 1722 1915 2158 2414 2636
1330.0 2788 2820 2839 3016 3618 4442 4644 3858 2918 2312
1370.0 2051 1952 1968 1995 1918 1722 1451 1248 1112 1049
1410.0 987 981 979 1008 1061 1189 1460 1866 2697 3844
1450.0 5599 7463 9390 10000 9206 7876 6759 6003 4967 3740
1490.0 2570 1803 1429 1208 1067 921 814 742 699 679
1530.0 666 677 709 727 761 780 797 814 881 949
1570.0 1080 1251 1497 1677 1651 1418 1066 806 651 572
1610.0 511 483 462 463 463 473 490 498 521 517
1650.0 520 514 539 522 533 536 545 567 580 618
1690.0 651 700 745 818 897 992 1083 1191 1321 1440
1730.0 1597 1746 1905 2036 2184 2326 2511 2690 2877 3187
1770.0 3717 4543 5156 5226 4830 4649 4854 5147 5171 4775
1810.0 3953 2907 2054 1516 1197 970 828 725 653 590
1850.0 543 504 464 431 395 375 354 340 324 313
1890.0 304 302 294 292 290 291 291 283 285 283
1930.0 286 275 279 273 275 272 272 269 272 273
1970.0 265 269 266 271 269 267 266 265 259 252
2010.0 246 236 232 226 223 220 215 209 198 202
2050.0 193 193 188 183 182 178 177 173 170 169
2090.0 173 169 168 167 171 166 167 167 168 173
2130.0 175 174 173 170 169 167 168 163 164 167
2170.0 172 169 170 167 173 170 174 182 182 179
2210.0 176 174 176 172 174 175 172 174 172 174
2250.0 172 170 167 168 169 169 172 178 183 189
2290.0 194 203 211 228 228 236 233 237 233 226
2330.0 227 226 220 238 242 249 259 233 246 239
2370.0 226 224 234 245 235 230 228 228 230 232
2410.0 238 234 242 242 245 243 245 244 246 246
2450.0 246 249 254 264 271 280 283 284 293 297
2490.0 299 300 306 306 303 304 307 307 302 304
2530.0 300 291 293 296 294 294 289 295 292 293
2570.0 297 301 305 305 316 316 321 317 319 317
2610.0 316 309 309 314 312 311 315 315 310 316
2650.0 321 324 317 327 329 339 341 347 352 356
2690.0 362 368 377 373 379 381 371 383 377 377
2730.0 382 380 384 386 393 396 398 406 410 420
2770.0 429 440 450 455 476 477 478 484 482 481
2810.0 483 484 493 496 497 502 505 506 513 514
2850.0 516 525 533 539 554 567 589 604 623 641
2890.0 650 648 646 648 658 675 697 711 738 778
2930.0 821 890 940 984 1025 1050 1010 906 804 753
2970.0 743 741 758 799 854 950 1068 1200 1324 1322
3010.0 1142 909 746 673 655 643 628 624 619 606
3050.0 601 600 610 630 641 664 670 679 683 706
3090.0 715 724 718 701 683 659 644 637 623 617
3130.0 617 617 616 611 613 609 610 606 601 604
3170.0 603 607 605 602 605 600 599 595 587 589
3210.0 603 597 593 587 581 572 579 572 570 570
3250.0 565 556 560 551 545 548 541 538 542 535
3290.0 538 538 528 517 512 507 503 503 497 486
3330.0 489 488 477 482 474 466 465 466 455 459
3370.0 451 442 447 437 432 417 424 417 419 426
3410.0 432 422 415 421 420 419 422 433 428 442
3450.0 436 439 442 439 450 449 447 458 467 482
3490.0 492 521 557 640 727 812 902 941 969 953
3530.0 864 778 695 657 632 626 665 779 1108 1899
3570.0 3011 3558 2896 1780 996 647 496 408 352 302
3610.0 307 267 277 260 245 247 226 221 220 210
3650.0 230 210 195 204 184 210 201 212 171 191
3690.0 211 191 173 185 165 170 182 182 181 196
3730.0 163 185 180 174 205 174 188 163 163 163
3770.0 163 163 163 168 163 163 163 163 163 163
3810.0 163 163 163 163 163 163 163 163 163 163
3850.0 163 168 163 163 163 163 163 163 163 163
3890.0 163 163 163 167 171 173 163 163 163 163
3930.0 163 191 162 163 183 162 163 167 164 163
##END=
