##TITLE=Phenylethyne
##JCAMP-DX=4.24
##DATA TYPE=INFRARED SPECTRUM
##ORIGIN=Sadtler Research Labs Under US-EPA Contract
##OWNER=NIST Standard Reference Data Program
##CAS REGISTRY NO=536-74-3
##MOLFORM=C 8 H 6
##XUNITS=1/CM
##YUNITS=ABSORBANCE
##XFACTOR=1.0
##YFACTOR=0.000087988
##DELTAX=4.0
##FIRSTX=450.0
##LASTX=3966.0
##FIRSTY=0.034579
##MAXX=3966
##MINX=450
##MAXY=0.87988
##MINY=0
##NPOINTS=880
##XYDATA=(X++(Y..Y))
450.0 393 199 141 202 195 133 263 113 313 172
490.0 454 422 561 848 793 714 543 829 523 1024
530.0 1197 672 584 661 564 422 337 176 133 94
570.0 108 105 123 271 332 667 979 1660 2300 2905
610.0 5419 8547 6343 7699 5963 4396 3904 5157 7796 8342
650.0 4737 4033 4713 3683 3013 2538 2870 2905 2957 3612
690.0 5441 4101 3202 3246 2364 1842 1227 1015 682 816
730.0 1358 2136 3175 4126 5290 5436 10000 8519 5394 5630
770.0 4290 2983 1825 1031 455 202 255 105 143 75
810.0 107 44 78 36 33 33 8 32 14 37
850.0 19 91 100 126 179 292 329 375 497 491
890.0 417 429 480 437 468 550 737 686 346 433
930.0 314 270 147 134 58 54 54 26 34 14
970.0 39 4 35 18 39 27 31 44 34 114
1010.0 214 435 650 785 694 658 646 470 282 250
1050.0 333 408 535 581 587 548 606 577 434 349
1090.0 282 247 166 184 155 141 107 87 75 47
1130.0 53 37 65 37 74 71 104 128 148 184
1170.0 174 193 165 184 172 187 187 283 490 953
1210.0 2006 3452 4201 3659 4059 4228 2880 1694 1188 944
1250.0 788 910 1067 1093 981 934 790 524 388 375
1290.0 563 691 621 635 673 568 440 330 274 216
1330.0 154 150 161 141 78 79 85 117 140 140
1370.0 142 154 136 105 134 102 112 112 78 65
1410.0 82 78 131 171 237 361 557 751 735 599
1450.0 692 736 577 368 294 314 654 1347 2327 2900
1490.0 2752 2833 2807 1941 1006 508 358 362 336 212
1530.0 174 162 163 160 141 103 121 165 175 193
1570.0 256 305 338 479 633 751 770 893 841 708
1610.0 567 368 235 105 83 42 76 76 64 80
1650.0 127 162 185 244 289 291 274 243 207 137
1690.0 82 60 117 96 99 77 110 142 119 132
1730.0 174 227 218 252 261 251 222 251 227 180
1770.0 184 172 152 171 216 276 350 352 352 317
1810.0 311 237 145 141 142 142 113 93 78 85
1850.0 80 79 112 144 200 241 258 259 313 394
1890.0 396 338 266 239 187 113 81 98 120 154
1930.0 199 264 314 339 332 364 450 430 344 273
1970.0 232 174 78 33 19 28 28 22 25 19
2010.0 24 24 32 25 25 27 25 18 27 26
2050.0 24 26 27 39 27 32 28 41 52 80
2090.0 121 176 267 379 488 574 612 583 508 383
2130.0 239 92 24 11 1 8 7 8 5 11
2170.0 11 3 12 4 8 0 7 5 2 6
2210.0 3 14 12 22 17 22 23 31 32 33
2250.0 44 38 41 36 48 39 32 27 31 22
2290.0 19 11 4 22 29 45 54 57 59 57
2330.0 47 29 43 51 49 18 9 0 8 9
2370.0 8 18 19 24 17 18 14 27 20 23
2410.0 18 18 21 18 27 27 27 24 19 23
2450.0 17 24 20 24 21 24 18 29 26 35
2490.0 36 32 44 31 35 33 36 34 37 37
2530.0 33 35 23 33 29 43 39 36 42 42
2570.0 52 55 56 53 58 55 61 59 48 55
2610.0 48 45 45 43 36 38 37 26 25 29
2650.0 31 28 41 46 52 41 61 61 57 66
2690.0 74 76 61 66 60 72 64 75 75 67
2730.0 67 59 59 47 60 55 60 58 66 71
2770.0 72 73 76 88 84 86 83 85 75 60
2810.0 46 45 45 35 49 44 55 54 59 66
2850.0 72 79 76 94 95 105 104 107 112 107
2890.0 117 119 126 115 124 131 140 137 148 136
2930.0 145 147 127 136 117 110 97 91 92 112
2970.0 119 118 125 102 104 99 115 137 180 259
3010.0 356 497 664 866 1048 1276 1581 1811 1788 1789
3050.0 1904 1982 2103 2536 3076 3438 3617 3702 3747 3295
3090.0 2685 2531 2651 2347 1755 1317 976 702 434 264
3130.0 170 130 131 128 156 155 163 153 138 115
3170.0 92 83 68 90 95 84 77 74 63 51
3210.0 49 54 40 47 58 44 56 65 90 67
3250.0 86 103 106 146 157 255 322 430 564 772
3290.0 1146 1534 1934 2396 3055 3763 4466 5395 6773 8163
3330.0 8903 7987 6741 6502 4005 1639 720 451 306 231
3370.0 158 125 91 59 55 87 78 96 71 76
3410.0 60 85 54 68 65 70 58 64 80 74
3450.0 82 82 80 79 95 113 125 108 81 65
3490.0 58 52 37 33 49 76 66 58 38 61
3530.0 73 20 60 49 73 48 66 32 66 55
3570.0 75 31 65 70 65 62 41 44 54 47
3610.0 33 21 31 22 20 36 40 27 24 3
3650.0 24 61 44 53 45 77 53 75 72 45
3690.0 51 68 53 53 62 74 75 80 65 46
3730.0 53 49 43 56 64 77 72 65 76 48
3770.0 49 32 63 49 77 60 68 29 74 72
3810.0 77 75 90 100 123 107 78 93 79 90
3850.0 87 57 78 57 85 75 55 97 74 86
3890.0 73 80 96 153 118 131 126 120 143 168
3930.0 202 177 193 144 158 165 155 139 112 142
##END=
