##TITLE=Pyridine, 3-ethyl-
##JCAMP-DX=4.24
##DATA TYPE=INFRARED SPECTRUM
##ORIGIN=Sadtler Research Labs Under US-EPA Contract
##OWNER=NIST Standard Reference Data Program
##CAS REGISTRY NO=536-78-7
##MOLFORM=C 7 H 9 N
##XUNITS=1/CM
##YUNITS=ABSORBANCE
##XFACTOR=1.0
##YFACTOR=0.000052258
##DELTAX=4.0
##FIRSTX=450.0
##LASTX=3966.0
##FIRSTY=0.011392
##MAXX=3966
##MINX=450
##MAXY=0.52258
##MINY=0
##NPOINTS=880
##XYDATA=(X++(Y..Y))
450.0 218 101 68 60 76 120 158 152 135 99
490.0 166 114 94 27 66 61 45 48 50 121
530.0 69 53 19 77 70 99 95 159 141 204
570.0 161 150 123 84 73 50 46 92 76 109
610.0 124 278 511 672 636 675 826 659 410 309
650.0 196 131 105 105 58 161 160 221 352 661
690.0 1140 1712 2410 3087 3948 5340 5164 3672 3266 2712
730.0 2133 1475 1092 850 732 673 625 636 628 676
770.0 744 866 1068 1297 1558 1821 2067 2343 2662 2227
810.0 1914 1658 1341 1029 757 559 430 301 228 185
850.0 123 99 89 82 45 50 41 34 47 49
890.0 36 37 54 67 71 102 112 134 173 179
930.0 169 184 201 244 259 315 427 536 603 611
970.0 614 535 426 321 245 212 237 288 404 599
1010.0 945 1503 2002 1918 1832 2008 1780 1159 735 546
1050.0 501 575 725 797 799 774 701 535 381 348
1090.0 400 471 543 560 610 718 775 828 810 693
1130.0 691 688 568 422 310 236 189 163 172 227
1170.0 348 579 866 1055 1136 1142 1106 832 513 374
1210.0 333 341 350 356 360 347 324 297 251 206
1250.0 173 156 158 155 163 166 167 166 169 178
1290.0 196 221 244 279 319 373 442 546 650 684
1330.0 674 637 582 456 364 309 294 295 294 345
1370.0 382 410 472 589 579 603 663 742 917 1232
1410.0 1843 2770 3763 4227 4337 4258 4007 2952 2064 1617
1450.0 1529 1642 1750 1940 2446 3299 3599 3526 3309 3080
1490.0 2291 1226 639 458 321 266 255 217 190 190
1530.0 208 185 215 198 291 403 574 777 1150 1575
1570.0 1859 1962 2030 2259 1976 1465 1101 848 637 493
1610.0 384 299 206 173 139 118 99 86 112 82
1650.0 112 27 113 93 93 52 74 63 78 49
1690.0 84 84 75 62 114 136 148 129 164 166
1730.0 174 149 181 170 166 136 124 97 73 68
1770.0 43 31 46 35 26 25 7 25 19 29
1810.0 27 38 34 56 47 67 92 103 120 133
1850.0 179 200 205 200 198 179 180 177 196 253
1890.0 321 370 380 405 424 389 328 270 263 239
1930.0 179 126 105 107 130 136 138 138 131 99
1970.0 63 48 34 28 24 25 19 25 26 26
2010.0 23 22 19 19 17 19 21 21 24 24
2050.0 26 27 26 24 15 17 16 18 15 17
2090.0 17 12 13 11 11 7 6 6 6 5
2130.0 5 10 12 8 5 10 11 14 18 22
2170.0 20 17 24 19 21 24 21 22 26 25
2210.0 30 37 46 48 54 57 61 68 69 70
2250.0 68 69 64 58 55 49 47 48 42 36
2290.0 33 36 35 36 36 43 35 34 37 25
2330.0 33 37 50 41 61 59 42 39 37 49
2370.0 51 59 56 51 47 39 33 27 31 30
2410.0 27 25 33 32 31 35 47 56 60 63
2450.0 62 63 52 52 47 45 46 37 37 39
2490.0 35 34 31 31 34 38 41 42 40 38
2530.0 35 36 31 29 34 33 34 26 27 24
2570.0 24 18 23 24 28 31 35 45 48 56
2610.0 68 69 70 77 80 87 92 94 89 79
2650.0 77 67 63 57 50 51 50 51 45 46
2690.0 43 39 42 39 35 48 46 52 61 64
2730.0 76 84 95 104 112 122 125 125 131 139
2770.0 151 162 165 171 185 193 204 216 225 234
2810.0 251 260 273 297 329 372 424 472 537 606
2850.0 697 816 995 1237 1547 1903 2296 2760 3065 3251
2890.0 3346 3185 3146 3109 2982 2826 2761 2786 2835 3055
2930.0 3521 4170 4858 5421 5559 5324 5137 4954 5090 6393
2970.0 8758 9623 10000 9843 9264 6903 4987 4205 3907 3834
3010.0 3857 3753 3612 3762 4208 4557 4682 4646 4565 4483
3050.0 4363 4270 3998 3755 3546 3025 2288 2000 2018 2052
3090.0 1967 1818 1593 1270 858 575 403 319 260 246
3130.0 236 245 256 260 261 260 255 242 227 216
3170.0 208 213 216 214 207 183 169 142 116 96
3210.0 78 65 59 58 53 49 47 52 48 47
3250.0 38 46 47 52 46 50 42 43 42 45
3290.0 47 32 39 41 28 33 36 30 28 36
3330.0 36 35 38 34 34 34 37 32 29 46
3370.0 41 28 38 36 29 37 31 33 41 33
3410.0 42 30 35 45 45 50 52 36 36 45
3450.0 49 40 40 42 42 35 30 41 41 52
3490.0 36 48 49 43 47 43 42 39 34 51
3530.0 49 54 40 51 53 59 55 65 33 50
3570.0 46 49 49 48 49 29 38 61 46 48
3610.0 32 48 50 39 66 21 56 66 51 43
3650.0 36 72 53 71 67 39 58 36 70 65
3690.0 46 61 60 53 67 55 50 61 79 62
3730.0 40 39 54 52 0 49 31 64 62 53
3770.0 51 50 53 33 34 40 53 30 43 38
3810.0 55 26 45 7 54 35 32 26 65 51
3850.0 68 12 53 48 54 50 49 34 46 30
3890.0 64 29 47 27 27 36 31 24 52 46
3930.0 64 76 79 87 83 64 58 67 77 49
##END=
