##TITLE=Pyridine, 4-ethyl-
##JCAMP-DX=4.24
##DATA TYPE=INFRARED SPECTRUM
##ORIGIN=Sadtler Research Labs Under US-EPA Contract
##OWNER=NIST Standard Reference Data Program
##CAS REGISTRY NO=536-75-4
##MOLFORM=C 7 H 9 N
##XUNITS=1/CM
##YUNITS=ABSORBANCE
##XFACTOR=1.0
##YFACTOR=0.000039160
##DELTAX=4.0
##FIRSTX=450.0
##LASTX=3966.0
##FIRSTY=0.028234
##MAXX=3966
##MINX=450
##MAXY=0.3916
##MINY=0
##NPOINTS=880
##XYDATA=(X++(Y..Y))
450.0 721 297 162 362 493 648 696 860 1347 1700
490.0 1613 1462 1269 1234 955 726 593 543 546 486
530.0 684 613 647 744 840 962 1125 1358 1426 1685
570.0 1555 1148 993 977 437 425 323 305 154 141
610.0 130 157 129 146 146 47 114 141 22 33
650.0 86 39 73 88 89 78 139 115 114 103
690.0 94 97 126 136 127 169 192 206 216 279
730.0 288 279 285 323 374 438 615 925 1434 2024
770.0 2428 2618 2785 2652 2320 1864 1855 2128 2569 2941
810.0 3513 4151 3911 3763 3327 2755 2133 1587 1139 800
850.0 535 402 250 171 137 160 164 145 128 134
890.0 115 100 102 99 107 71 96 93 105 103
930.0 83 86 89 98 92 116 130 166 184 225
970.0 258 304 394 622 984 1028 1100 966 959 646
1010.0 272 173 133 139 148 159 190 214 246 304
1050.0 405 562 695 804 806 806 695 491 369 270
1090.0 223 231 241 266 258 275 290 281 277 268
1130.0 247 227 217 197 201 181 187 185 191 178
1170.0 160 168 164 184 169 190 189 212 257 458
1210.0 837 1068 1162 1107 1097 906 503 262 186 156
1250.0 170 199 252 259 254 269 217 166 177 198
1290.0 231 276 325 376 401 444 490 568 612 653
1330.0 667 677 669 576 492 413 391 397 421 407
1370.0 416 471 514 609 750 913 1172 1579 2042 2628
1410.0 2898 2791 2942 2999 2695 2176 1785 1506 1316 1291
1450.0 1335 1464 1528 1446 1416 1409 1300 1129 1047 1072
1490.0 1118 1035 952 922 753 574 453 344 310 347
1530.0 404 508 552 789 1110 1456 1756 2001 2027 2320
1570.0 2565 2586 2400 2835 3914 6030 8443 10000 9892 9364
1610.0 7963 5837 2918 1393 931 654 555 386 383 302
1650.0 313 172 284 309 290 330 305 309 345 244
1690.0 282 246 190 188 248 269 279 258 257 226
1730.0 205 182 107 143 132 165 138 174 153 171
1770.0 159 124 150 130 151 114 119 115 156 108
1810.0 105 113 109 143 142 187 208 223 206 213
1850.0 165 122 81 79 74 82 79 79 79 79
1890.0 91 99 120 145 183 235 298 382 459 469
1930.0 450 458 464 394 294 217 177 151 119 119
1970.0 103 91 90 94 101 105 101 99 85 83
2010.0 94 94 106 109 100 93 80 83 71 82
2050.0 66 55 72 60 65 44 28 30 22 24
2090.0 28 38 39 43 49 49 58 57 60 58
2130.0 50 67 64 64 61 70 62 62 65 64
2170.0 71 74 67 60 60 62 61 61 61 59
2210.0 49 48 43 52 47 44 49 50 52 57
2250.0 55 57 67 66 71 75 71 65 55 64
2290.0 64 79 81 81 91 107 83 97 106 78
2330.0 98 81 74 54 71 48 77 36 56 65
2370.0 30 3 18 27 26 46 46 53 69 77
2410.0 78 84 92 99 106 109 127 118 111 113
2450.0 104 93 93 86 92 92 82 79 78 69
2490.0 52 57 64 49 39 35 48 37 36 32
2530.0 36 59 55 48 43 54 52 50 40 48
2570.0 51 41 44 51 45 59 64 59 56 62
2610.0 90 86 75 95 85 83 91 92 80 84
2650.0 77 42 52 40 22 5 9 14 30 31
2690.0 31 51 59 53 40 26 52 71 71 79
2730.0 78 91 124 142 154 163 157 156 154 173
2770.0 168 170 184 181 183 179 183 196 210 209
2810.0 238 251 290 314 344 383 442 476 538 596
2850.0 658 755 869 1041 1228 1513 1778 2148 2493 2763
2890.0 2868 2840 2815 2796 2660 2485 2409 2392 2396 2544
2930.0 2822 3330 3914 4566 4808 4784 4776 4770 4757 5383
2970.0 7275 8832 9076 9382 9035 7917 5614 4217 3644 3276
3010.0 3069 3031 3307 3557 3753 3881 3732 3604 3321 3102
3050.0 3034 3246 3690 4207 4538 4455 4291 4341 3928 3127
3090.0 2299 1623 1166 851 651 537 432 344 296 272
3130.0 222 197 186 177 159 191 159 164 166 161
3170.0 155 155 174 160 171 125 166 131 110 102
3210.0 73 80 88 93 78 80 80 106 114 75
3250.0 92 78 88 91 80 56 91 69 69 45
3290.0 82 115 119 113 42 90 70 62 97 88
3330.0 97 81 86 36 108 80 85 104 67 81
3370.0 92 70 83 56 91 74 97 73 85 84
3410.0 91 101 83 78 108 111 52 77 69 107
3450.0 73 29 30 70 52 12 53 75 67 31
3490.0 34 69 60 74 95 75 70 58 78 109
3530.0 87 93 78 106 147 88 60 82 94 123
3570.0 95 46 67 76 96 61 99 106 58 75
3610.0 97 107 114 114 73 80 66 33 96 70
3650.0 32 95 60 62 70 58 26 39 105 119
3690.0 75 74 32 63 115 120 73 62 101 111
3730.0 73 75 94 144 28 57 57 31 45 74
3770.0 52 0 103 86 32 24 6 41 5 4
3810.0 67 33 65 78 99 82 2 3 53 85
3850.0 25 18 37 117 75 67 81 62 65 89
3890.0 2 75 59 142 134 74 74 48 5 102
3930.0 59 130 60 123 56 62 174 59 37 24
##END=
