##TITLE=2-Propanone, 1-[(4-methylphenyl)sulfonyl]-
##JCAMP-DX=4.24
##DATA TYPE=INFRARED SPECTRUM
##ORIGIN=Sadtler Research Labs Under US-EPA Contract
##OWNER=NIST Standard Reference Data Program
##CAS REGISTRY NO=5366-49-4
##MOLFORM=C 10 H 12 O 3 S
##XUNITS=1/CM
##YUNITS=ABSORBANCE
##XFACTOR=1.0
##YFACTOR=0.000045749
##DELTAX=4.0
##FIRSTX=450.0
##LASTX=3966.0
##FIRSTY=0.015921
##MAXX=3966
##MINX=450
##MAXY=0.45749
##MINY=0
##NPOINTS=880
##XYDATA=(X++(Y..Y))
450.0 348 497 96 643 99 285 563 551 786 671
490.0 737 1170 1047 1119 1673 2817 3724 3401 2729 2363
530.0 2338 2905 3244 2725 1571 1052 587 681 707 303
570.0 430 524 746 978 1316 1533 1741 1695 1489 819
610.0 406 751 458 802 1243 1494 1415 1282 902 510
650.0 471 691 1047 1879 2254 1842 1185 625 428 137
690.0 137 0 237 559 593 692 742 952 813 1388
730.0 2038 2348 3448 3530 2992 2267 1529 842 749 566
770.0 624 722 826 1032 1263 1604 1787 2015 2255 2530
810.0 2861 2901 2363 1601 1084 691 582 430 566 596
850.0 550 552 530 641 589 506 449 186 168 167
890.0 153 157 184 76 175 111 47 143 150 146
930.0 210 213 173 357 238 268 413 363 478 498
970.0 569 761 849 1097 1351 1391 1230 1102 928 804
1010.0 879 982 1030 1058 771 726 651 741 631 639
1050.0 708 561 698 728 790 933 1249 1737 2475 3064
1090.0 2930 2411 1791 1382 1137 1220 1336 1406 1451 1496
1130.0 1608 1742 2060 2481 3153 4080 5607 7644 8992 9013
1170.0 7621 5135 3169 2342 2096 2021 2128 2380 2818 3343
1210.0 3860 4150 4066 3732 3376 3032 2877 2550 2293 1832
1250.0 1389 1110 938 901 931 896 923 939 1048 1108
1290.0 1101 1050 1074 1247 1300 1236 1290 1420 1678 1980
1330.0 2354 3249 4597 6727 8991 10000 9443 7214 4841 3382
1370.0 2503 1969 1546 1257 1281 1335 1298 1336 1275 1264
1410.0 1090 1012 884 951 752 682 691 551 525 509
1450.0 433 411 490 363 410 379 363 371 380 531
1490.0 674 788 752 637 597 452 368 388 350 348
1530.0 234 314 241 426 291 226 265 340 445 253
1570.0 277 381 375 535 537 808 1096 1182 1232 975
1610.0 736 573 559 500 412 444 383 425 393 328
1650.0 459 482 363 295 296 376 349 434 450 651
1690.0 622 662 915 1107 1290 1566 2050 2761 3348 3856
1730.0 4409 4427 4096 3398 2582 2042 1586 1325 1094 860
1770.0 706 575 429 335 310 322 304 339 263 255
1810.0 197 155 121 72 130 96 111 76 72 114
1850.0 75 85 82 48 83 74 90 73 77 80
1890.0 85 105 117 122 158 161 211 202 174 119
1930.0 92 78 62 70 50 56 48 47 57 45
1970.0 62 39 43 57 46 36 48 45 33 37
2010.0 32 36 40 34 45 40 32 39 27 25
2050.0 27 25 25 33 40 37 36 33 47 42
2090.0 35 37 54 46 50 41 50 53 35 35
2130.0 35 38 37 31 34 45 42 52 49 51
2170.0 42 44 47 40 38 36 42 27 25 38
2210.0 23 30 35 39 51 48 45 52 59 57
2250.0 66 59 48 41 42 39 47 45 43 64
2290.0 66 93 105 116 108 116 82 72 69 64
2330.0 27 38 11 55 68 61 54 44 55 55
2370.0 59 38 53 79 69 28 26 27 30 34
2410.0 36 42 42 36 35 41 47 26 35 28
2450.0 29 29 25 31 24 25 36 41 19 31
2490.0 23 34 37 41 49 50 35 43 29 22
2530.0 13 19 18 21 36 33 29 29 24 30
2570.0 34 45 48 46 57 48 54 20 39 38
2610.0 35 35 34 22 15 10 13 15 8 13
2650.0 22 9 13 19 26 10 18 24 43 44
2690.0 31 26 47 25 26 25 23 23 18 34
2730.0 23 27 43 44 44 55 45 33 29 37
2770.0 28 25 30 24 27 33 22 40 39 41
2810.0 33 25 37 36 45 31 44 31 36 36
2850.0 26 36 103 161 226 288 327 344 346 349
2890.0 332 293 283 255 264 269 274 327 388 534
2930.0 735 899 993 916 772 598 488 441 414 394
2970.0 391 390 393 390 398 409 412 442 487 511
3010.0 543 560 586 602 635 670 716 778 798 784
3050.0 779 757 688 627 633 643 560 453 370 343
3090.0 332 305 255 222 192 165 152 143 120 131
3130.0 121 113 118 91 96 104 96 98 100 84
3170.0 93 93 69 65 85 102 82 77 76 88
3210.0 85 80 78 86 89 85 83 96 94 76
3250.0 84 79 85 60 89 85 65 81 106 81
3290.0 89 94 84 108 82 96 87 88 112 83
3330.0 112 73 118 95 116 94 109 94 104 94
3370.0 110 97 96 103 109 104 100 105 99 104
3410.0 108 109 108 130 132 167 155 167 149 152
3450.0 151 136 133 151 157 124 101 148 112 90
3490.0 94 113 85 97 90 106 76 122 85 27
3530.0 55 104 83 103 56 110 99 102 68 98
3570.0 72 75 44 70 59 85 69 41 86 73
3610.0 60 68 64 7 77 91 95 36 61 78
3650.0 120 65 77 71 66 142 76 170 59 104
3690.0 65 53 7 57 62 87 128 81 7 10
3730.0 57 117 130 25 197 65 187 9 114 39
3770.0 42 79 22 103 23 4 42 35 94 91
3810.0 114 69 64 128 39 61 73 162 120 33
3850.0 73 151 267 8 52 176 49 78 49 222
3890.0 30 166 44 112 146 55 132 76 187 80
3930.0 121 7 92 157 126 201 100 177 222 137
##END=
