##TITLE=Benzene, 1-chloro-3-methyl-2-nitro-
##JCAMP-DX=4.24
##DATA TYPE=INFRARED SPECTRUM
##ORIGIN=Sadtler Research Labs Under US-EPA Contract
##OWNER=NIST Standard Reference Data Program
##CAS REGISTRY NO=5367-26-0
##MOLFORM=C 7 H 6 Cl N O 2
##XUNITS=1/CM
##YUNITS=ABSORBANCE
##XFACTOR=1.0
##YFACTOR=0.000150461
##DELTAX=4.0
##FIRSTX=450.0
##LASTX=3966.0
##FIRSTY=0.051157
##MAXX=3966
##MINX=450
##MAXY=1.50461
##MINY=0
##NPOINTS=880
##XYDATA=(X++(Y..Y))
450.0 340 260 252 236 195 89 42 22 31 36
490.0 32 18 18 0 3 9 11 11 17 17
530.0 31 52 128 231 351 400 387 288 140 76
570.0 65 68 65 90 68 60 56 43 32 25
610.0 19 17 20 9 11 14 14 22 30 36
650.0 48 49 48 50 50 95 78 93 101 117
690.0 115 116 122 172 322 626 894 1009 1077 917
730.0 681 615 630 466 317 273 279 501 1031 1520
770.0 2014 3315 1689 1447 836 371 186 134 108 103
810.0 96 98 104 118 137 150 176 292 725 1351
850.0 1504 1523 1265 624 434 719 1126 1311 1294 1085
890.0 626 346 265 218 191 185 179 159 149 138
930.0 124 122 127 143 157 169 175 177 180 187
970.0 199 220 230 247 261 281 311 354 399 420
1010.0 415 390 347 304 277 261 249 241 234 232
1050.0 231 247 275 324 388 451 480 462 408 333
1090.0 272 247 235 233 235 242 286 349 377 377
1130.0 343 250 179 157 151 147 161 181 193 203
1170.0 211 214 234 316 525 831 1017 1073 960 618
1210.0 321 200 134 105 93 91 98 115 123 117
1250.0 112 114 123 150 176 188 204 199 185 163
1290.0 164 178 194 198 198 179 163 141 147 157
1330.0 172 216 252 425 734 1147 1733 2465 3179 3668
1370.0 3713 3194 2342 1504 937 683 537 447 419 386
1410.0 324 318 221 316 356 441 456 525 636 743
1450.0 912 1181 1392 1599 1596 1431 1115 953 883 750
1490.0 659 697 703 804 834 872 959 964 980 1212
1530.0 1584 2268 3171 4370 6044 7689 8721 10000 9913 7155
1570.0 5225 3301 1892 1220 943 847 1022 1343 1657 1714
1610.0 1546 1192 701 424 231 227 153 134 165 150
1650.0 85 83 146 154 133 101 43 89 17 8
1690.0 69 101 37 66 118 182 159 105 197 243
1730.0 236 203 300 325 300 253 254 222 198 210
1770.0 170 169 220 214 220 212 202 235 252 334
1810.0 359 359 342 265 184 115 101 96 63 42
1850.0 85 126 134 137 113 69 78 70 61 53
1890.0 39 42 50 52 53 53 53 54 49 80
1930.0 109 136 155 132 123 101 69 53 53 38
1970.0 41 43 44 44 43 28 30 41 43 41
2010.0 45 39 31 36 39 37 38 35 31 34
2050.0 33 32 34 32 26 34 34 33 31 29
2090.0 25 26 27 25 26 24 24 26 24 24
2130.0 24 24 23 21 21 20 17 15 15 13
2170.0 13 12 13 13 13 13 13 11 8 6
2210.0 5 6 5 2 2 1 0 0 2 1
2250.0 3 5 8 11 13 14 14 12 9 11
2290.0 10 8 10 8 10 12 14 20 27 30
2330.0 31 31 24 21 22 14 20 18 18 23
2370.0 17 20 21 26 29 33 39 42 43 42
2410.0 34 28 23 20 18 15 15 14 12 12
2450.0 12 12 11 11 11 11 13 17 15 18
2490.0 18 19 18 15 13 15 14 13 15 17
2530.0 13 14 15 14 18 13 18 17 14 12
2570.0 11 12 14 13 13 14 12 12 9 10
2610.0 9 11 13 13 14 17 18 19 18 18
2650.0 14 14 12 14 17 21 24 29 29 27
2690.0 25 24 26 32 33 37 44 53 58 62
2730.0 63 54 49 38 31 34 37 35 34 31
2770.0 24 22 20 13 10 11 12 22 20 19
2810.0 21 24 27 36 29 32 35 39 49 59
2850.0 63 73 88 102 126 147 171 190 203 215
2890.0 223 229 239 253 270 281 291 300 305 316
2930.0 322 349 393 440 467 440 390 324 277 246
2970.0 236 248 265 286 299 335 360 367 337 289
3010.0 241 214 195 197 203 215 209 192 171 153
3050.0 147 160 201 268 349 426 481 499 471 411
3090.0 333 251 169 100 60 39 34 28 19 14
3130.0 14 12 12 10 12 12 11 13 14 15
3170.0 18 18 19 17 13 14 10 9 10 6
3210.0 8 6 6 5 5 5 7 6 8 10
3250.0 8 7 6 7 7 8 6 8 9 9
3290.0 9 12 10 12 9 8 10 8 8 11
3330.0 7 9 13 8 10 12 10 9 8 13
3370.0 11 14 17 8 7 9 9 13 13 13
3410.0 11 10 9 10 8 7 8 7 11 9
3450.0 11 10 9 7 10 11 6 5 6 7
3490.0 8 8 8 3 4 9 8 5 6 8
3530.0 8 15 7 5 6 4 2 8 6 9
3570.0 11 10 14 11 11 4 4 8 3 0
3610.0 0 3 6 6 5 7 9 8 6 6
3650.0 8 8 3 5 7 7 5 4 2 6
3690.0 7 4 9 7 6 2 2 7 8 4
3730.0 7 10 10 9 13 19 11 9 13 6
3770.0 10 6 9 8 17 9 15 11 11 5
3810.0 9 10 10 5 5 11 9 2 1 8
3850.0 4 0 0 0 4 0 7 13 2 0
3890.0 12 5 5 1 8 11 0 4 0 7
3930.0 13 2 11 12 11 1 11 2 4 11
##END=
