##TITLE=Benzene, 4-methoxy-2-methyl-1-nitro-
##JCAMP-DX=4.24
##DATA TYPE=INFRARED SPECTRUM
##ORIGIN=Sadtler Research Labs Under US-EPA Contract
##OWNER=NIST Standard Reference Data Program
##CAS REGISTRY NO=5367-32-8
##MOLFORM=C 8 H 9 N O 3
##XUNITS=1/CM
##YUNITS=ABSORBANCE
##XFACTOR=1.0
##YFACTOR=0.000100833
##DELTAX=4.0
##FIRSTX=450.0
##LASTX=3966.0
##FIRSTY=0.006453
##MAXX=3966
##MINX=450
##MAXY=1.00833
##MINY=0
##NPOINTS=880
##XYDATA=(X++(Y..Y))
450.0 64 88 47 81 67 57 55 53 45 33
490.0 9 34 54 36 63 65 69 73 55 3
530.0 33 12 21 32 45 47 16 48 65 77
570.0 76 73 99 136 181 253 321 445 591 831
610.0 1163 1473 1487 1334 961 563 349 271 238 204
650.0 191 175 153 128 121 134 122 148 214 274
690.0 361 370 355 282 234 172 151 144 169 177
730.0 168 155 183 262 360 507 619 558 412 316
770.0 207 136 95 80 94 111 151 211 312 419
810.0 573 736 769 892 1268 1928 2383 2488 2224 1591
850.0 1191 933 860 840 822 921 737 549 417 258
890.0 160 109 95 93 103 121 162 249 370 515
930.0 627 663 581 452 310 195 142 117 117 121
970.0 129 141 159 183 212 256 304 364 409 443
1010.0 449 451 472 533 656 869 1203 1623 2030 2230
1050.0 2189 1878 1484 1181 1078 1251 1734 2401 2946 3105
1090.0 2652 1913 1139 611 372 269 214 187 185 186
1130.0 208 254 340 481 661 922 1294 1724 2079 2152
1170.0 1878 1372 873 575 451 434 428 441 436 439
1210.0 461 520 617 766 992 1289 1751 2554 4126 6327
1250.0 8720 10000 9572 7515 5049 3396 2917 3258 4122 5201
1290.0 5660 5588 4716 3522 2957 2818 2785 2830 2939 3165
1330.0 3535 4071 4998 6353 7874 8795 8478 6973 4670 2864
1370.0 1819 1356 1206 1221 1289 1297 1316 1259 1150 1108
1410.0 1120 1127 1184 1119 1065 1022 1084 1242 1444 1591
1450.0 1690 1772 1863 1980 2194 2252 2423 2729 3325 4343
1490.0 5134 5312 4847 4056 3496 3486 3828 4606 5722 6891
1530.0 7750 7948 7704 6729 5537 4606 3998 3719 3485 3455
1570.0 3630 4179 5050 6022 6567 6705 6197 5653 5412 5338
1610.0 5203 4744 4073 3071 2239 1573 1208 946 743 626
1650.0 559 490 394 334 306 278 276 207 230 207
1690.0 153 119 164 141 117 84 101 137 84 69
1730.0 88 133 93 99 115 131 114 109 122 111
1770.0 145 147 121 113 100 94 101 88 96 75
1810.0 68 67 47 47 42 47 31 23 39 52
1850.0 38 28 40 47 69 94 85 90 100 108
1890.0 114 109 101 93 86 81 71 61 56 35
1930.0 30 29 26 31 31 22 24 29 36 50
1970.0 61 69 68 61 48 49 43 42 52 67
2010.0 79 88 92 76 58 49 45 48 52 51
2050.0 52 51 42 40 40 37 43 51 58 66
2090.0 66 61 56 48 44 36 37 31 29 27
2130.0 26 19 19 15 14 12 12 13 16 22
2170.0 26 34 39 43 45 43 45 47 44 44
2210.0 44 46 44 38 30 22 16 14 9 7
2250.0 8 7 5 5 1 0 3 5 8 13
2290.0 16 25 34 43 47 51 51 49 52 49
2330.0 44 48 47 56 52 48 49 42 41 24
2370.0 42 42 45 40 36 31 34 38 43 52
2410.0 56 65 72 79 82 80 76 71 67 57
2450.0 51 44 38 29 26 26 25 28 28 34
2490.0 42 48 52 60 62 61 56 50 49 51
2530.0 51 53 57 61 60 60 60 62 64 69
2570.0 79 85 94 99 99 98 95 94 91 85
2610.0 80 74 66 58 55 48 47 46 48 49
2650.0 48 52 52 53 56 55 56 57 56 53
2690.0 54 49 48 47 46 44 44 45 45 47
2730.0 50 51 54 59 63 70 74 72 73 70
2770.0 66 64 64 68 72 81 89 98 112 120
2810.0 132 148 168 197 239 295 385 520 707 900
2850.0 1012 1040 975 845 733 656 593 549 517 499
2890.0 491 502 529 575 639 716 803 877 933 964
2930.0 1008 1107 1292 1585 1891 2033 2032 1902 1633 1500
2970.0 1383 1216 1105 1016 973 938 901 865 863 938
3010.0 1158 1329 1293 1120 796 500 374 315 282 266
3050.0 256 249 242 245 248 272 289 321 349 366
3090.0 361 327 264 197 150 117 104 88 80 75
3130.0 68 65 68 59 55 51 50 47 41 43
3170.0 45 41 40 43 44 48 45 47 49 45
3210.0 40 39 30 24 21 18 20 16 16 14
3250.0 12 14 14 14 8 12 12 9 11 9
3290.0 12 11 14 9 9 11 13 9 10 6
3330.0 11 8 7 7 6 9 7 6 12 10
3370.0 6 7 10 7 11 7 7 4 7 5
3410.0 9 6 4 7 7 4 5 8 1 5
3450.0 6 7 8 7 8 3 3 4 9 6
3490.0 4 5 4 6 3 7 7 3 7 1
3530.0 8 6 4 11 8 3 6 8 6 6
3570.0 6 10 12 13 8 12 7 1 12 8
3610.0 14 8 9 5 6 17 13 12 7 7
3650.0 12 5 11 12 8 14 9 13 8 8
3690.0 8 10 9 9 18 15 4 1 11 6
3730.0 6 14 1 4 10 6 9 3 0 1
3770.0 4 8 2 6 3 6 1 5 1 5
3810.0 0 0 1 0 0 2 8 0 0 0
3850.0 2 8 8 0 0 6 0 0 0 5
3890.0 8 0 0 3 12 0 4 2 0 0
3930.0 0 12 5 4 12 5 15 10 13 14
##END=
