##TITLE=5-Chloro-2-nitrotoluene
##JCAMP-DX=4.24
##DATA TYPE=INFRARED SPECTRUM
##ORIGIN=Sadtler Research Labs Under US-EPA Contract
##OWNER=NIST Standard Reference Data Program
##CAS REGISTRY NO=5367-28-2
##MOLFORM=C 7 H 6 Cl N O 2
##XUNITS=1/CM
##YUNITS=ABSORBANCE
##XFACTOR=1.0
##YFACTOR=0.000099359
##DELTAX=4.0
##FIRSTX=450.0
##LASTX=3966.0
##FIRSTY=0.015500
##MAXX=3966
##MINX=450
##MAXY=0.99359
##MINY=0
##NPOINTS=880
##XYDATA=(X++(Y..Y))
450.0 156 124 81 85 107 95 137 228 436 580
490.0 589 481 312 190 147 138 137 152 158 146
530.0 145 142 175 198 353 618 749 739 521 264
570.0 180 181 208 229 218 152 110 82 77 73
610.0 74 62 40 19 5 2 3 7 1 8
650.0 7 13 19 29 43 92 112 183 268 322
690.0 304 265 194 136 88 49 24 12 18 20
730.0 53 123 256 446 628 872 862 604 467 304
770.0 201 203 128 119 91 67 57 58 71 120
810.0 246 526 1090 1976 2741 2911 2162 1262 645 316
850.0 174 150 241 431 705 989 1528 1436 2152 4287
890.0 6361 6477 5258 1978 533 224 120 65 51 41
930.0 28 32 42 60 71 83 90 80 60 51
970.0 42 43 52 65 83 107 135 177 227 256
1010.0 255 224 184 168 172 187 200 211 209 200
1050.0 206 223 236 250 260 270 295 322 328 310
1090.0 291 334 592 1307 2167 2393 2211 1224 575 436
1130.0 386 337 306 343 480 523 548 439 286 224
1170.0 198 197 237 337 524 811 1147 1550 1994 2138
1210.0 1944 1407 713 327 166 92 66 76 92 107
1250.0 134 182 239 256 268 272 280 354 500 701
1290.0 867 932 980 903 776 698 639 603 617 736
1330.0 1033 1615 2617 4235 6521 8835 9874 8998 6402 3839
1370.0 2429 1800 1570 1584 1684 1692 1561 1310 942 671
1410.0 526 459 433 433 473 558 682 824 989 1178
1450.0 1350 1376 1314 1226 1331 1941 2896 3345 3132 2305
1490.0 1410 1092 1100 1246 1494 1857 2359 3069 4079 5480
1530.0 7231 8858 9755 10000 9262 7923 6724 5884 5342 5162
1570.0 5313 5321 4919 4080 2931 2310 2202 2486 3168 4024
1610.0 4243 3746 2776 1481 753 444 317 264 248 243
1650.0 244 244 228 198 151 102 65 48 48 61
1690.0 77 104 137 166 185 198 203 210 220 250
1730.0 293 345 398 430 417 382 312 250 218 210
1770.0 215 229 226 215 197 184 188 205 240 279
1810.0 310 314 276 213 140 85 49 27 13 6
1850.0 2 0 0 2 6 9 18 28 41 58
1890.0 80 105 127 136 133 117 91 61 39 26
1930.0 20 19 18 18 19 16 18 20 19 23
1970.0 27 28 28 25 23 20 24 24 25 23
2010.0 23 23 21 20 22 19 19 20 19 16
2050.0 16 15 17 16 14 15 15 19 20 21
2090.0 19 21 22 18 14 10 8 9 6 5
2130.0 6 6 6 7 5 7 10 10 12 10
2170.0 8 7 7 7 5 5 6 4 0 0
2210.0 0 1 4 6 8 8 9 8 5 2
2250.0 2 4 7 10 10 13 17 19 16 18
2290.0 22 22 22 23 20 14 10 5 5 4
2330.0 2 0 0 2 13 14 14 15 15 25
2370.0 22 22 22 22 22 20 24 27 29 27
2410.0 23 24 29 38 44 48 50 45 39 33
2450.0 30 27 28 26 28 26 24 24 23 19
2490.0 16 17 14 15 16 13 10 12 17 20
2530.0 18 18 18 19 23 19 25 25 24 24
2570.0 21 23 30 38 41 40 35 27 19 16
2610.0 15 15 17 13 17 13 13 12 12 14
2650.0 18 23 26 28 28 32 38 46 46 50
2690.0 48 48 47 49 41 40 35 35 33 33
2730.0 37 36 36 35 35 38 40 39 35 32
2770.0 23 18 17 13 14 11 14 19 19 20
2810.0 25 31 38 53 56 66 77 85 95 112
2850.0 126 151 183 222 269 311 347 366 365 356
2890.0 332 308 286 268 261 253 250 251 264 292
2930.0 335 407 505 626 711 716 685 578 468 382
2970.0 341 347 386 466 569 693 752 711 612 454
3010.0 324 247 197 163 138 127 116 101 95 86
3050.0 85 91 107 128 144 159 166 169 159 149
3090.0 124 93 68 50 43 37 36 34 26 21
3130.0 21 23 24 18 19 21 19 20 19 20
3170.0 21 18 22 21 21 21 11 13 12 7
3210.0 10 11 12 10 9 9 8 7 11 16
3250.0 14 15 12 14 16 17 14 14 13 13
3290.0 15 15 16 15 12 10 17 13 13 14
3330.0 11 13 15 15 14 17 15 15 16 17
3370.0 14 18 15 8 12 8 13 15 18 18
3410.0 15 12 15 14 11 5 9 11 11 8
3450.0 7 10 8 8 4 12 7 6 11 5
3490.0 7 6 4 0 3 6 6 3 6 5
3530.0 10 8 7 4 7 5 6 4 4 10
3570.0 23 28 24 16 14 5 3 5 2 3
3610.0 0 8 8 7 4 3 9 9 13 10
3650.0 12 16 8 3 3 11 11 6 6 16
3690.0 16 7 13 14 7 0 8 15 13 9
3730.0 16 9 9 5 9 8 8 11 14 14
3770.0 13 9 12 8 17 13 12 5 23 14
3810.0 13 19 19 17 8 11 14 11 19 14
3850.0 8 3 6 0 17 6 11 8 0 2
3890.0 22 14 3 2 18 22 1 3 6 13
3930.0 5 7 21 20 20 16 26 14 20 17
##END=
