##TITLE=Di-3,5-xylylamine
##JCAMP-DX=4.24
##DATA TYPE=INFRARED SPECTRUM
##ORIGIN=Sadtler Research Labs Under US-EPA Contract
##OWNER=NIST Standard Reference Data Program
##CAS REGISTRY NO=5369-25-5
##MOLFORM=C 16 H 19 N
##XUNITS=1/CM
##YUNITS=ABSORBANCE
##XFACTOR=1.0
##YFACTOR=0.000109296
##DELTAX=4.0
##FIRSTX=450.0
##LASTX=3966.0
##FIRSTY=0.000000
##MAXX=3966
##MINX=450
##MAXY=1.09296
##MINY=0
##NPOINTS=880
##XYDATA=(X++(Y..Y))
450.0 0 44 123 157 140 163 157 144 123 159
490.0 162 152 137 170 149 145 180 199 197 205
530.0 277 346 261 155 112 114 119 137 197 224
570.0 231 214 167 156 140 126 111 111 90 85
610.0 88 75 66 77 79 68 88 107 104 92
650.0 107 96 111 141 170 300 405 638 855 807
690.0 531 285 177 149 126 137 149 170 193 212
730.0 250 258 276 284 292 295 282 268 245 223
770.0 198 186 178 158 155 146 161 175 206 254
810.0 360 528 798 1269 1852 2240 2091 1603 1047 648
850.0 465 382 309 265 229 201 178 149 131 108
890.0 102 89 78 69 62 55 54 60 57 70
930.0 78 108 134 199 267 307 316 307 261 184
970.0 138 110 108 106 128 178 231 226 190 173
1010.0 167 178 189 237 322 446 559 628 649 625
1050.0 572 497 433 381 336 270 196 132 91 69
1090.0 56 54 46 49 49 58 53 50 46 43
1130.0 54 58 80 90 114 148 197 255 319 411
1170.0 628 1091 1871 2722 2937 2165 1103 481 261 174
1210.0 141 111 96 86 89 96 109 113 108 100
1250.0 94 108 124 158 180 200 205 206 220 251
1290.0 325 431 569 669 770 913 1154 1584 2255 3152
1330.0 3841 3712 2897 1933 1348 1067 939 869 859 884
1370.0 991 1186 1407 1630 1904 2029 1847 1484 1174 985
1410.0 872 865 901 986 1067 1209 1377 1593 1941 2375
1450.0 2944 3264 3329 3009 2719 2417 2284 2199 2216 2231
1490.0 2243 2220 2226 2300 2379 2461 2471 2447 2390 2310
1530.0 2266 2155 2074 1983 1915 1867 1872 1896 1969 2142
1570.0 2488 3101 4111 5599 7097 9183 9835 10000 8589 7501
1610.0 5893 4084 2610 1614 1115 816 657 498 395 318
1650.0 293 248 241 218 214 210 221 202 221 214
1690.0 216 223 239 239 236 233 232 243 222 206
1730.0 203 204 186 176 173 169 168 152 143 123
1770.0 120 106 100 101 97 96 98 97 99 95
1810.0 91 94 91 88 85 83 79 72 71 75
1850.0 65 59 58 67 67 77 76 77 79 81
1890.0 85 82 79 79 77 75 74 74 72 66
1930.0 64 61 59 62 61 57 52 52 48 50
1970.0 48 47 45 45 46 46 49 46 47 50
2010.0 52 54 53 51 49 49 48 49 47 46
2050.0 43 44 43 41 42 43 44 41 47 44
2090.0 47 52 53 58 62 67 67 64 60 55
2130.0 54 57 61 60 61 56 53 51 49 46
2170.0 45 46 48 49 47 50 48 48 49 50
2210.0 47 48 49 51 54 56 59 64 71 69
2250.0 69 66 64 58 54 50 46 44 44 47
2290.0 51 54 65 70 79 81 88 95 104 110
2330.0 111 112 107 119 104 104 86 74 73 66
2370.0 74 84 81 80 74 68 65 63 65 68
2410.0 70 70 72 72 77 81 85 89 91 97
2450.0 97 101 101 100 101 101 106 111 118 119
2490.0 121 119 111 98 94 92 88 84 80 80
2530.0 82 86 95 98 101 101 98 95 94 91
2570.0 87 81 75 68 66 61 63 66 67 69
2610.0 72 69 71 74 75 74 75 74 74 72
2650.0 68 66 69 71 68 72 75 83 86 89
2690.0 89 88 92 93 93 95 98 107 114 133
2730.0 159 187 211 220 198 171 147 134 127 124
2770.0 121 118 118 122 127 134 140 146 151 163
2810.0 175 190 207 225 251 282 316 363 424 506
2850.0 600 720 857 1010 1172 1312 1380 1349 1256 1153
2890.0 1094 1083 1122 1206 1339 1524 1760 2061 2413 2783
2930.0 3011 2931 2537 2080 1696 1427 1251 1114 1009 919
2970.0 859 827 839 875 940 1020 1083 1131 1162 1220
3010.0 1320 1492 1772 2165 2566 2683 2353 1819 1412 1162
3050.0 1001 878 773 671 583 511 449 400 361 326
3090.0 293 256 229 202 183 164 153 143 128 114
3130.0 105 96 89 85 79 72 70 65 63 64
3170.0 63 58 56 58 60 60 61 54 57 61
3210.0 61 58 62 65 64 75 68 70 67 70
3250.0 68 67 61 64 66 72 69 68 67 69
3290.0 76 68 68 71 75 70 72 77 80 81
3330.0 84 89 90 95 96 105 109 123 135 146
3370.0 166 191 211 243 264 288 306 315 318 312
3410.0 310 308 311 310 316 322 331 325 314 283
3450.0 253 222 185 163 134 115 107 96 89 82
3490.0 79 74 70 70 60 63 58 61 64 64
3530.0 66 61 63 66 64 56 59 59 59 62
3570.0 67 59 61 66 59 64 49 57 56 55
3610.0 55 45 55 55 55 51 51 56 48 63
3650.0 46 46 61 53 65 47 55 51 62 50
3690.0 56 52 53 57 53 50 55 48 43 57
3730.0 57 61 48 55 44 51 42 50 50 57
3770.0 52 58 57 46 50 58 53 52 51 52
3810.0 65 55 64 60 55 64 61 59 64 52
3850.0 61 70 56 57 55 56 62 76 60 63
3890.0 58 59 66 60 64 70 74 70 71 74
3930.0 71 73 67 71 66 63 60 63 74 73
##END=
