##TITLE=2-Acetyl-5-bromothiophene
##JCAMP-DX=4.24
##DATA TYPE=INFRARED SPECTRUM
##ORIGIN=Sadtler Research Labs Under US-EPA Contract
##OWNER=NIST Standard Reference Data Program
##CAS REGISTRY NO=5370-25-2
##MOLFORM=C 6 H 5 Br O S
##XUNITS=1/CM
##YUNITS=ABSORBANCE
##XFACTOR=1.0
##YFACTOR=0.000090289
##DELTAX=4.0
##FIRSTX=450.0
##LASTX=3966.0
##FIRSTY=0.017516
##MAXX=3966
##MINX=450
##MAXY=0.90289
##MINY=0
##NPOINTS=880
##XYDATA=(X++(Y..Y))
450.0 194 230 237 261 175 228 359 372 311 205
490.0 78 40 79 38 15 45 63 27 47 85
530.0 76 78 65 95 102 95 73 67 45 58
570.0 63 90 158 319 601 997 1223 1269 953 631
610.0 431 289 217 129 82 40 24 41 16 42
650.0 15 58 46 112 166 482 831 873 797 422
690.0 84 48 18 34 17 16 4 13 14 16
730.0 24 46 109 117 139 70 37 34 44 79
770.0 130 265 461 726 885 1265 1604 1276 1255 1153
810.0 934 642 422 291 154 115 43 56 34 54
850.0 47 52 55 39 48 54 55 44 49 53
890.0 69 74 115 161 236 357 473 545 504 409
930.0 261 199 200 252 332 465 654 830 991 1137
970.0 1307 1565 1909 1959 1801 1278 612 404 379 395
1010.0 415 417 405 393 384 363 359 343 335 307
1050.0 282 260 281 346 429 436 376 257 153 134
1090.0 123 121 111 108 90 71 69 62 57 51
1130.0 62 62 78 74 93 110 120 119 114 110
1170.0 106 131 150 184 213 260 284 299 336 422
1210.0 635 877 1202 1678 2216 2538 2521 2173 1846 2028
1250.0 2623 3409 4207 4626 4336 3401 2175 1166 631 417
1290.0 343 302 305 355 533 938 1543 1834 1759 1289
1330.0 723 598 579 598 639 746 1012 1316 1522 1544
1370.0 1356 1045 820 688 695 857 1227 1924 3265 5361
1410.0 8124 10000 9331 6949 3655 1561 972 709 569 494
1450.0 394 335 230 248 217 194 130 167 219 182
1490.0 159 197 198 228 238 330 623 899 1027 1065
1530.0 863 616 426 221 150 151 124 68 120 161
1570.0 167 178 199 198 209 190 177 145 143 128
1610.0 122 134 109 155 139 195 181 198 255 266
1650.0 261 294 411 504 680 950 1422 2310 3706 5533
1690.0 6630 7293 7441 5709 4335 2570 1121 478 282 223
1730.0 134 89 131 161 153 162 201 192 181 158
1770.0 107 62 86 69 73 54 40 42 22 66
1810.0 70 72 75 68 48 28 37 46 26 14
1850.0 45 60 56 49 33 4 25 22 17 11
1890.0 4 11 14 20 21 23 19 24 15 33
1930.0 39 36 41 26 31 34 35 26 26 13
1970.0 12 12 12 15 15 7 7 18 18 17
2010.0 14 9 0 4 8 8 12 10 9 10
2050.0 13 11 11 10 2 11 9 12 10 15
2090.0 14 16 16 14 15 9 13 9 11 11
2130.0 15 10 10 10 9 7 4 9 8 8
2170.0 9 9 9 8 11 11 11 15 14 10
2210.0 10 7 8 7 6 11 8 10 9 10
2250.0 9 10 10 14 15 21 22 28 32 30
2290.0 31 35 33 33 35 34 30 26 30 34
2330.0 25 34 27 28 40 43 33 32 31 19
2370.0 26 33 37 40 35 26 21 20 21 23
2410.0 25 27 30 34 37 39 41 39 36 36
2450.0 36 35 31 24 24 20 18 21 19 19
2490.0 16 14 11 15 15 15 16 20 19 17
2530.0 20 17 21 18 20 22 22 20 23 25
2570.0 21 27 24 24 24 21 22 28 30 30
2610.0 28 27 33 30 30 33 36 30 34 35
2650.0 35 33 37 39 43 46 49 51 48 43
2690.0 37 33 27 31 27 25 28 28 29 30
2730.0 32 28 24 24 22 19 24 24 23 24
2770.0 26 27 29 29 30 31 30 26 28 25
2810.0 28 33 31 34 38 37 38 40 39 47
2850.0 48 48 47 49 49 47 50 48 51 48
2890.0 53 50 58 60 67 76 86 98 111 130
2930.0 145 155 154 152 141 128 121 121 123 129
2970.0 139 134 130 123 117 107 108 112 127 150
3010.0 184 230 237 225 184 143 118 101 97 95
3050.0 92 90 92 95 99 101 108 117 136 165
3090.0 166 159 140 107 95 89 83 60 46 46
3130.0 39 33 28 27 27 25 26 23 27 19
3170.0 18 18 22 19 19 20 21 14 16 17
3210.0 20 19 17 17 17 17 20 20 19 14
3250.0 13 16 19 15 11 16 11 17 15 17
3290.0 19 14 19 16 20 21 21 18 25 25
3330.0 29 29 38 41 47 65 73 93 105 109
3370.0 110 103 98 87 81 64 43 32 22 25
3410.0 26 20 24 20 33 31 25 28 20 22
3450.0 19 22 29 24 22 23 23 27 28 27
3490.0 24 25 26 20 25 24 26 30 26 32
3530.0 30 22 26 23 23 28 23 21 21 25
3570.0 33 30 31 27 33 23 23 22 17 14
3610.0 21 12 12 12 17 15 20 21 17 9
3650.0 15 19 14 9 14 4 10 16 24 14
3690.0 12 15 14 15 15 8 11 15 10 14
3730.0 4 14 14 14 15 12 20 24 16 14
3770.0 8 26 27 17 10 18 15 19 20 32
3810.0 11 20 32 26 32 35 35 34 36 30
3850.0 35 34 39 30 22 15 23 18 21 14
3890.0 21 32 9 13 28 14 19 30 25 20
3930.0 9 15 25 9 25 28 36 20 18 29
##END=
