##TITLE=Oxadiazole, 1,3,4-, 2-(m-fluorophenyl)-,
##JCAMP-DX=4.24
##DATA TYPE=INFRARED SPECTRUM
##ORIGIN=Sadtler Research Labs Under US-EPA Contract
##OWNER=NIST Standard Reference Data Program
##CAS REGISTRY NO=5378-32-5
##MOLFORM=C 8 H 5 F N 2 O
##XUNITS=1/CM
##YUNITS=ABSORBANCE
##XFACTOR=1.0
##YFACTOR=0.000036859
##DELTAX=4.0
##FIRSTX=450.0
##LASTX=3966.0
##FIRSTY=0.000000
##MAXX=3966
##MINX=450
##MAXY=0.36859
##MINY=0
##NPOINTS=880
##XYDATA=(X++(Y..Y))
450.0 0 194 302 242 299 224 376 362 410 309
490.0 343 301 211 291 315 305 528 810 894 1160
530.0 1007 900 697 467 400 408 393 473 529 594
570.0 625 579 550 525 537 502 432 434 395 328
610.0 317 281 443 545 784 1020 1404 1704 1431 934
650.0 799 518 551 759 1069 1735 1947 2607 3214 2304
690.0 1826 1332 774 563 373 633 922 1623 2330 3094
730.0 4855 3811 2558 2297 1239 732 443 406 419 536
770.0 772 1104 1702 2235 3025 3639 3208 2333 1806 1196
810.0 919 856 1024 1335 1683 1983 1859 1326 1227 969
850.0 1052 1536 3222 6310 8472 9034 8572 5705 3708 2893
890.0 2802 2204 1616 1232 911 690 521 460 454 493
930.0 635 864 1440 2293 3233 3898 3316 2689 2384 1695
970.0 1456 1271 1120 1020 843 674 588 664 660 720
1010.0 739 816 851 900 946 910 944 950 1175 1543
1050.0 1956 2165 2641 2727 2540 2699 2421 2188 2200 2606
1090.0 3345 5642 7162 6896 6086 3047 912 648 466 454
1130.0 411 464 477 497 559 606 727 765 780 744
1170.0 710 815 1158 1767 2724 3980 4903 5165 5444 4516
1210.0 3234 2320 1550 1350 1637 2378 3013 3750 4127 3737
1250.0 3383 2487 1877 2094 2781 3300 3332 3012 2098 1399
1290.0 1205 1176 1311 1434 1581 1804 2101 2430 2647 2700
1330.0 2541 2325 2339 2251 1940 1405 772 579 602 590
1370.0 582 549 516 496 536 534 538 556 626 747
1410.0 876 1010 1072 1169 1289 1408 1628 2093 2801 3667
1450.0 4970 5922 6550 6296 5385 4569 4758 5438 6242 7115
1490.0 6233 5187 3974 2768 2534 3285 4146 3846 4114 3611
1530.0 2493 2276 2306 2909 4271 6047 8115 9185 10000 8694
1570.0 6958 5157 3744 3219 3442 3987 4528 4686 4424 3827
1610.0 2823 2330 2193 2061 1863 1601 1347 1072 1018 1051
1650.0 1141 1276 1259 1093 909 666 520 568 505 525
1690.0 482 461 346 345 281 273 270 246 274 270
1730.0 284 246 298 294 327 353 421 394 403 396
1770.0 370 342 362 400 376 392 361 358 331 327
1810.0 252 243 224 191 210 182 204 185 198 211
1850.0 248 278 341 385 415 432 403 368 330 274
1890.0 236 210 208 194 195 201 214 250 278 327
1930.0 370 408 406 394 350 302 260 223 198 188
1970.0 184 176 179 177 178 180 188 184 185 182
2010.0 189 185 191 194 209 212 216 215 219 216
2050.0 228 235 256 282 300 312 318 293 266 231
2090.0 205 188 194 203 205 198 198 192 186 179
2130.0 184 197 194 193 196 192 195 183 196 201
2170.0 202 201 207 209 211 201 192 198 188 188
2210.0 202 207 205 201 195 190 190 194 198 202
2250.0 206 198 199 203 205 216 228 247 253 255
2290.0 254 251 257 263 270 277 275 280 296 284
2330.0 247 272 252 240 271 262 244 250 199 178
2370.0 206 198 227 241 224 201 209 199 210 216
2410.0 222 217 213 207 209 211 211 212 217 214
2450.0 229 241 260 279 301 303 301 288 280 266
2490.0 255 247 243 237 229 233 236 237 251 244
2530.0 245 250 260 252 237 230 219 228 230 240
2570.0 240 245 244 244 257 252 258 260 264 285
2610.0 311 307 301 299 268 240 237 242 235 245
2650.0 238 235 242 239 234 237 225 231 221 224
2690.0 216 223 216 212 208 210 207 200 213 213
2730.0 209 205 197 195 207 214 218 205 214 210
2770.0 213 207 222 213 226 232 229 222 226 228
2810.0 226 226 222 225 228 236 224 229 236 236
2850.0 239 255 270 307 333 357 382 396 387 395
2890.0 372 355 339 342 342 360 359 373 386 396
2930.0 453 504 533 551 584 600 598 592 614 645
2970.0 671 633 551 468 389 350 330 317 318 333
3010.0 352 352 365 388 391 390 402 402 393 402
3050.0 415 441 447 496 578 670 821 1012 1144 1141
3090.0 1080 866 650 508 430 385 370 340 321 295
3130.0 283 288 274 260 262 264 282 322 366 365
3170.0 359 321 272 238 226 225 250 238 226 221
3210.0 225 223 210 235 220 217 225 213 214 217
3250.0 216 216 210 224 236 221 219 232 220 217
3290.0 218 233 218 213 213 210 233 229 226 231
3330.0 219 221 242 232 217 246 236 227 225 230
3370.0 227 231 232 225 230 227 225 230 233 233
3410.0 216 207 209 216 223 230 230 237 240 230
3450.0 207 204 236 231 212 229 236 211 208 212
3490.0 185 218 227 219 231 218 218 215 210 249
3530.0 223 219 212 218 245 226 208 226 194 259
3570.0 263 230 234 216 265 273 255 191 227 241
3610.0 265 238 237 252 216 241 247 194 227 202
3650.0 229 217 213 237 222 226 199 229 230 232
3690.0 214 239 226 251 253 255 238 236 236 255
3730.0 242 283 248 225 290 197 244 244 207 241
3770.0 208 199 187 226 188 220 234 222 176 191
3810.0 220 227 189 179 180 211 203 214 195 186
3850.0 185 205 194 176 236 251 204 202 217 229
3890.0 224 249 198 267 205 239 255 244 207 219
3930.0 229 234 239 213 207 243 266 223 272 250
##END=
