##TITLE=Oxadiazole, 1,3,4-, 2-(m-butoxyphenyl)-,
##JCAMP-DX=4.24
##DATA TYPE=INFRARED SPECTRUM
##ORIGIN=Sadtler Research Labs Under US-EPA Contract
##OWNER=NIST Standard Reference Data Program
##CAS REGISTRY NO=5378-31-4
##MOLFORM=C 12 H 14 N 2 O 2
##XUNITS=1/CM
##YUNITS=ABSORBANCE
##XFACTOR=1.0
##YFACTOR=0.000045392
##DELTAX=4.0
##FIRSTX=450.0
##LASTX=3966.0
##FIRSTY=0.020426
##MAXX=3966
##MINX=450
##MAXY=0.45392
##MINY=0
##NPOINTS=880
##XYDATA=(X++(Y..Y))
450.0 450 172 124 111 41 37 144 23 158 87
490.0 133 141 121 157 175 118 134 220 222 300
530.0 164 191 200 162 185 234 190 198 250 252
570.0 347 335 363 373 386 382 419 419 414 398
610.0 368 317 324 346 443 658 1063 1395 1145 608
650.0 355 204 216 314 456 684 918 1340 2118 2636
690.0 2327 1457 920 556 383 397 445 603 1132 2053
730.0 3162 3241 1935 1222 672 501 421 421 398 434
770.0 567 734 1112 1490 1897 2071 1897 1347 889 643
810.0 563 663 884 1325 1709 1928 1569 1282 1062 1079
850.0 1234 1395 1554 1621 1675 1755 1841 1930 2062 2183
890.0 2169 1989 1626 1281 1015 805 658 577 532 519
930.0 576 686 1006 1473 2102 2764 3103 2787 2250 2031
970.0 2140 2174 2159 2030 1804 1565 1516 1654 1807 2075
1010.0 2581 3271 3921 4367 4637 4570 4332 3979 3580 3174
1050.0 2949 3038 3382 3801 4070 4190 3917 3378 2999 2938
1090.0 2905 3098 4097 5289 5034 3535 1892 1148 887 746
1130.0 662 595 591 573 606 606 706 906 1076 1034
1170.0 863 795 825 1016 1331 1939 3027 4808 6931 8523
1210.0 8602 7279 5211 3359 2456 2735 3922 6006 8378 10000
1250.0 9616 7549 5176 3688 3109 3036 3180 3400 3666 3836
1290.0 3623 3007 2399 2197 2409 2922 3909 5290 6378 6183
1330.0 4988 4012 3465 2855 2126 1488 1054 837 795 829
1370.0 918 972 1168 1528 1871 1978 1737 1362 1081 963
1410.0 918 1043 1057 1189 1278 1510 1846 2515 3712 4943
1450.0 5667 5567 5604 5847 5837 5951 6532 6993 6606 6187
1490.0 5453 4358 2876 1968 1755 2211 3368 3837 3230 2069
1530.0 1371 1527 1874 2841 4698 7101 9543 9801 7946 4769
1570.0 2768 2306 2620 3403 4451 5368 5680 5323 4556 3926
1610.0 3555 3275 2778 2141 1427 1006 688 565 657 717
1650.0 845 814 691 434 230 186 120 186 117 76
1690.0 131 135 36 28 59 91 65 7 84 102
1730.0 65 0 49 73 62 53 110 126 123 152
1770.0 106 64 115 115 105 82 55 63 36 61
1810.0 28 35 42 25 26 24 49 78 72 65
1850.0 108 137 148 143 120 83 100 100 94 84
1890.0 77 73 76 64 65 67 78 101 125 170
1930.0 192 193 163 113 86 62 44 38 38 32
1970.0 39 39 45 45 51 44 57 64 67 69
2010.0 76 77 77 84 97 100 110 105 119 122
2050.0 127 122 125 123 125 124 137 136 126 116
2090.0 101 96 87 88 82 74 70 57 58 46
2130.0 41 42 45 43 49 45 51 53 54 66
2170.0 67 74 75 75 80 70 61 60 45 45
2210.0 44 43 38 38 33 35 31 35 32 33
2250.0 43 44 45 49 59 68 74 92 97 100
2290.0 96 99 105 106 115 118 99 103 112 91
2330.0 69 67 55 45 86 95 45 45 24 21
2370.0 32 45 65 82 75 45 40 39 48 55
2410.0 64 66 67 69 76 72 78 81 88 89
2450.0 97 103 107 117 122 122 120 120 124 126
2490.0 127 131 125 117 109 107 107 116 139 137
2530.0 140 133 132 117 103 106 101 104 111 111
2570.0 121 123 127 133 134 145 146 136 141 142
2610.0 147 145 152 152 137 116 107 107 107 112
2650.0 109 109 115 112 111 117 123 122 121 122
2690.0 123 133 133 122 120 124 130 135 150 161
2730.0 156 164 176 197 216 229 235 230 226 222
2770.0 217 208 212 207 221 233 232 241 259 283
2810.0 306 323 347 376 411 453 496 553 635 741
2850.0 887 1041 1193 1353 1605 1974 2441 2908 3298 3473
2890.0 3326 2971 2696 2609 2683 2889 3181 3461 3675 3817
2930.0 4040 4426 4975 5612 5950 5854 5551 5426 5782 6464
2970.0 7071 6808 5546 3946 2699 1977 1511 1219 1019 898
3010.0 817 749 714 684 662 635 644 628 614 578
3050.0 557 555 576 629 686 795 938 1027 1065 997
3090.0 866 694 551 429 394 350 321 276 233 210
3130.0 210 192 190 187 178 173 162 155 167 181
3170.0 156 117 109 102 108 96 107 102 92 83
3210.0 85 74 53 67 63 58 64 62 58 40
3250.0 54 57 58 66 63 50 57 64 48 46
3290.0 45 52 65 37 39 52 53 53 44 58
3330.0 58 66 71 55 54 72 50 55 48 68
3370.0 69 54 53 60 66 51 62 67 74 65
3410.0 68 53 58 52 63 65 64 67 76 78
3450.0 63 60 60 69 58 58 62 67 68 55
3490.0 35 49 65 67 68 57 33 54 58 72
3530.0 68 74 54 75 111 79 61 78 30 72
3570.0 85 68 73 69 72 89 60 44 64 69
3610.0 78 88 69 57 58 50 75 71 92 88
3650.0 59 80 65 84 92 53 47 48 102 81
3690.0 41 58 82 92 85 83 91 60 78 101
3730.0 76 64 94 77 76 32 37 105 64 76
3770.0 67 77 54 39 51 51 55 58 15 34
3810.0 72 51 46 6 21 73 65 13 73 50
3850.0 48 29 30 63 63 86 54 82 73 44
3890.0 59 76 73 65 90 121 77 74 69 65
3930.0 47 85 76 58 69 76 85 50 115 77
##END=
