##TITLE=Benzene, pentyl-
##JCAMP-DX=4.24
##DATA TYPE=INFRARED SPECTRUM
##ORIGIN=Sadtler Research Labs Under US-EPA Contract
##OWNER=NIST Standard Reference Data Program
##CAS REGISTRY NO=538-68-1
##MOLFORM=C 11 H 16
##XUNITS=1/CM
##YUNITS=ABSORBANCE
##XFACTOR=1.0
##YFACTOR=0.000097586
##DELTAX=4.0
##FIRSTX=450.0
##LASTX=3966.0
##FIRSTY=0.000000
##MAXX=3966
##MINX=450
##MAXY=0.97586
##MINY=0
##NPOINTS=880
##XYDATA=(X++(Y..Y))
450.0 0 136 238 171 242 288 291 325 375 408
490.0 478 541 515 488 469 426 363 325 283 221
530.0 249 226 223 234 234 240 270 324 357 402
570.0 442 423 356 333 300 268 282 230 218 198
610.0 191 174 170 168 183 162 183 175 178 190
650.0 198 229 252 290 299 360 444 573 849 1298
690.0 2113 2759 3248 2838 2328 1686 1454 1331 1388 1581
730.0 1837 2117 2269 2337 2042 1633 1184 882 635 493
770.0 417 360 330 307 309 224 233 231 225 225
810.0 229 237 216 209 197 202 192 186 189 187
850.0 189 189 185 177 179 180 193 193 200 213
890.0 230 240 264 296 321 332 321 290 255 233
930.0 221 233 229 230 210 199 208 215 223 237
970.0 251 257 263 244 221 204 192 196 193 200
1010.0 206 217 247 331 496 592 573 450 290 237
1050.0 258 284 321 345 354 340 315 298 278 280
1090.0 281 295 309 335 357 361 348 306 256 213
1130.0 194 174 172 166 169 167 168 165 164 173
1170.0 179 195 203 216 224 223 225 233 232 220
1210.0 206 197 198 195 197 206 216 224 218 213
1250.0 197 198 196 204 209 221 226 227 239 253
1290.0 264 273 286 295 302 308 302 301 305 327
1330.0 346 383 433 461 473 482 459 428 422 412
1370.0 433 450 504 523 541 495 411 347 303 294
1410.0 287 286 311 320 341 375 468 571 775 977
1450.0 1238 1373 1508 1506 1419 1264 1104 892 765 759
1490.0 958 1373 1573 1521 1143 546 359 288 286 270
1530.0 265 259 260 260 233 223 216 222 218 222
1570.0 248 250 298 329 370 453 540 687 836 954
1610.0 877 671 432 278 248 201 218 198 205 202
1650.0 222 188 200 173 176 176 174 168 176 173
1690.0 168 169 173 185 172 172 178 199 184 184
1730.0 200 212 208 210 207 199 189 171 175 166
1770.0 181 185 190 203 229 276 332 335 318 254
1810.0 219 201 190 182 177 170 165 167 174 191
1850.0 192 208 224 235 242 259 253 252 236 208
1890.0 187 166 157 151 152 154 158 173 192 214
1930.0 242 274 287 297 297 298 281 251 206 166
1970.0 150 141 143 142 140 144 141 137 137 138
2010.0 141 142 141 143 143 146 145 145 144 141
2050.0 139 137 137 140 139 137 138 137 136 134
2090.0 136 135 136 137 134 134 132 134 133 132
2130.0 134 134 136 135 137 138 138 139 139 140
2170.0 143 143 143 141 142 141 140 137 138 137
2210.0 139 139 137 137 138 138 137 137 139 138
2250.0 138 135 134 136 138 139 136 134 141 136
2290.0 139 132 131 133 132 135 139 142 135 131
2330.0 131 131 140 131 131 136 131 131 131 131
2370.0 131 131 131 133 139 144 147 149 149 149
2410.0 147 148 148 147 147 147 145 146 147 144
2450.0 141 140 143 143 144 143 140 140 142 140
2490.0 139 139 142 141 140 144 150 146 148 152
2530.0 152 157 153 157 158 162 166 163 168 168
2570.0 172 174 174 178 181 179 179 180 185 188
2610.0 187 185 185 187 191 196 201 202 203 206
2650.0 208 209 206 213 213 218 224 223 223 223
2690.0 214 211 205 200 198 198 202 199 203 209
2730.0 216 224 237 246 255 253 246 241 238 239
2770.0 240 252 265 281 302 321 337 349 361 376
2810.0 391 414 436 464 504 557 627 714 853 1067
2850.0 1415 1948 2642 3357 3911 4099 3949 3735 3532 3266
2890.0 2978 2639 2447 2508 2726 3107 3661 4481 5581 6920
2930.0 8301 9418 10000 9568 8472 6895 5597 5046 5262 5959
2970.0 6294 5674 4379 2860 1883 1389 1115 982 943 971
3010.0 1011 1081 1213 1508 2010 2645 3112 3109 2650 1920
3050.0 1395 1186 1212 1430 1912 2379 2483 2310 1812 1489
3090.0 1360 1234 1095 919 788 684 613 529 431 342
3130.0 286 258 234 230 221 219 219 217 217 219
3170.0 220 212 208 193 195 185 188 185 179 174
3210.0 166 166 168 163 161 157 153 156 158 153
3250.0 149 152 150 152 154 151 153 153 156 147
3290.0 148 141 148 144 146 146 147 151 152 146
3330.0 144 145 144 143 147 145 146 152 151 141
3370.0 151 147 156 143 142 147 144 146 146 147
3410.0 141 146 143 142 138 139 145 145 146 137
3450.0 140 145 147 139 137 141 140 140 141 140
3490.0 142 137 145 143 138 139 149 137 142 135
3530.0 133 141 142 147 131 136 140 137 153 134
3570.0 132 148 140 148 131 146 143 140 148 150
3610.0 147 151 153 155 161 163 157 176 155 161
3650.0 162 163 187 149 176 148 162 149 176 158
3690.0 158 170 162 154 156 155 160 159 146 167
3730.0 151 157 151 171 130 179 136 153 164 150
3770.0 158 150 161 152 158 154 155 143 173 134
3810.0 172 137 166 142 155 163 154 140 161 155
3850.0 152 157 172 156 145 143 140 153 154 136
3890.0 160 137 150 134 155 149 165 152 164 148
3930.0 149 149 151 147 148 151 144 165 145 154
##END=
