##TITLE=Cyclohexanamine, N,N'-methanetetraylbis-
##JCAMP-DX=4.24
##DATA TYPE=INFRARED SPECTRUM
##ORIGIN=Sadtler Research Labs Under US-EPA Contract
##OWNER=NIST Standard Reference Data Program
##CAS REGISTRY NO=538-75-0
##MOLFORM=C 13 H 22 N 2
##XUNITS=1/CM
##YUNITS=ABSORBANCE
##XFACTOR=1.0
##YFACTOR=0.000195267
##DELTAX=4.0
##FIRSTX=450.0
##LASTX=3966.0
##FIRSTY=0.001953
##MAXX=3966
##MINX=450
##MAXY=1.95267
##MINY=0
##NPOINTS=880
##XYDATA=(X++(Y..Y))
450.0 10 198 218 239 258 385 301 396 357 265
490.0 261 162 221 192 252 207 226 218 276 263
530.0 179 274 302 224 230 248 303 284 193 223
570.0 272 155 211 277 311 282 269 296 302 346
610.0 322 335 315 390 400 407 376 354 325 335
650.0 259 218 248 168 169 118 171 145 117 134
690.0 151 119 135 101 83 100 99 99 84 88
730.0 82 130 39 50 172 141 123 143 124 126
770.0 148 134 155 153 135 127 115 97 123 139
810.0 119 109 102 65 94 127 118 153 136 96
850.0 106 110 129 105 123 98 78 141 162 220
890.0 267 247 229 206 179 146 137 127 107 134
930.0 138 154 223 234 275 291 266 219 135 120
970.0 111 107 80 85 83 86 115 137 165 194
1010.0 253 265 292 312 323 351 382 435 544 575
1050.0 547 401 239 171 161 145 150 130 146 145
1090.0 135 112 110 88 107 93 112 140 191 234
1130.0 216 181 176 183 190 189 182 170 141 126
1170.0 142 142 139 164 171 194 226 230 214 191
1210.0 158 143 139 125 142 165 195 226 269 262
1250.0 238 250 272 301 329 309 263 229 201 223
1290.0 300 382 512 589 611 642 648 602 513 413
1330.0 333 308 326 428 547 582 599 638 586 463
1370.0 310 207 191 148 130 142 127 136 119 137
1410.0 126 142 122 149 155 181 209 253 331 400
1450.0 492 547 553 499 418 348 298 266 267 280
1490.0 336 390 431 433 395 349 274 233 195 176
1530.0 143 137 121 119 111 94 97 87 96 69
1570.0 65 76 63 68 50 56 62 48 66 53
1610.0 60 61 66 64 63 70 54 69 65 47
1650.0 81 60 88 73 89 93 94 94 91 102
1690.0 103 103 135 191 233 299 309 282 214 146
1730.0 115 83 80 64 55 56 51 44 43 40
1770.0 39 42 33 36 34 37 31 36 26 33
1810.0 32 28 34 29 34 37 32 36 29 38
1850.0 35 38 37 27 35 29 32 29 32 33
1890.0 36 32 35 34 35 38 37 40 39 42
1930.0 42 46 45 46 49 51 50 53 52 57
1970.0 58 63 65 67 72 73 80 90 99 114
2010.0 128 144 166 189 213 241 271 302 335 365
2050.0 397 431 469 510 557 611 665 723 786 860
2090.0 953 1053 1167 1327 1593 2058 2836 4118 6165 8712
2130.0 10000 8941 6599 4319 2799 1926 1410 1111 954 871
2170.0 800 713 619 531 457 405 366 337 316 299
2210.0 286 279 278 284 286 288 297 312 342 381
2250.0 432 490 551 594 602 585 538 465 387 314
2290.0 250 199 162 134 114 108 100 90 84 78
2330.0 72 70 58 63 93 84 71 100 68 53
2370.0 55 48 58 62 54 49 48 44 39 37
2410.0 35 31 29 28 28 25 20 19 19 18
2450.0 15 12 13 12 8 10 9 10 11 12
2490.0 10 8 8 8 5 7 4 6 3 3
2530.0 2 0 0 0 1 3 2 3 3 4
2570.0 5 7 9 10 13 13 18 17 20 17
2610.0 18 19 17 16 18 19 19 21 26 29
2650.0 35 40 43 50 52 49 47 43 36 33
2690.0 31 29 26 29 27 27 25 23 23 22
2730.0 17 19 18 22 25 26 31 37 41 46
2770.0 48 57 61 65 70 74 78 82 79 78
2810.0 76 82 82 89 100 117 138 175 248 362
2850.0 542 795 1124 1421 1525 1377 1138 924 770 665
2890.0 616 631 688 780 903 1058 1252 1486 1823 2326
2930.0 3029 3928 4760 5060 4516 3403 2363 1551 951 555
2970.0 330 204 137 98 80 65 56 54 53 51
3010.0 50 55 54 54 52 49 43 36 28 20
3050.0 21 17 12 10 10 8 8 9 13 10
3090.0 10 13 13 17 13 10 11 10 8 8
3130.0 9 12 12 15 15 19 19 21 22 19
3170.0 14 9 11 7 5 5 4 2 9 10
3210.0 7 6 8 8 6 3 4 6 6 4
3250.0 10 8 7 10 11 13 11 7 5 6
3290.0 7 5 5 9 9 8 6 7 13 12
3330.0 11 14 8 7 7 9 9 12 14 13
3370.0 12 17 18 20 19 19 19 22 18 18
3410.0 21 19 27 27 33 38 36 41 38 38
3450.0 32 34 32 31 32 33 39 38 36 38
3490.0 37 39 40 41 44 39 47 52 49 45
3530.0 49 47 49 43 33 33 32 31 34 15
3570.0 30 23 26 17 18 23 15 19 24 15
3610.0 12 15 11 17 6 16 4 19 15 18
3650.0 12 30 14 23 21 4 36 9 28 6
3690.0 22 20 10 31 23 21 25 18 19 7
3730.0 17 22 18 28 3 34 8 31 23 22
3770.0 31 30 29 22 26 30 16 30 12 32
3810.0 30 32 29 36 33 23 32 15 10 33
3850.0 4 27 26 18 28 24 30 26 25 27
3890.0 29 12 26 1 19 19 9 36 15 18
3930.0 27 24 37 36 30 25 36 35 26 22
##END=
