##TITLE=Benzene, (2-methylpropyl)-
##JCAMP-DX=4.24
##DATA TYPE=INFRARED SPECTRUM
##ORIGIN=Sadtler Research Labs Under US-EPA Contract
##OWNER=NIST Standard Reference Data Program
##CAS REGISTRY NO=538-93-2
##MOLFORM=C 10 H 14
##XUNITS=1/CM
##YUNITS=ABSORBANCE
##XFACTOR=1.0
##YFACTOR=0.000055304
##DELTAX=4.0
##FIRSTX=450.0
##LASTX=3966.0
##FIRSTY=0.014434
##MAXX=3966
##MINX=450
##MAXY=0.55304
##MINY=0
##NPOINTS=880
##XYDATA=(X++(Y..Y))
450.0 261 125 108 60 186 83 198 370 469 639
490.0 770 766 711 531 313 258 155 150 83 88
530.0 26 57 74 47 46 41 63 61 68 53
570.0 75 98 112 111 220 298 314 283 234 207
610.0 180 179 145 127 123 98 107 59 101 107
650.0 134 159 174 163 168 261 321 538 932 1513
690.0 2427 3064 3802 3470 2899 2164 1658 1493 1736 2279
730.0 2953 3515 3336 2706 1903 1222 688 419 261 202
770.0 184 159 186 168 199 151 164 125 145 170
810.0 171 205 201 183 170 152 106 95 83 65
850.0 51 64 64 68 59 63 83 101 114 119
890.0 122 145 188 250 277 283 275 257 241 233
930.0 199 147 122 109 102 111 103 78 68 54
970.0 60 56 62 68 57 63 54 52 50 62
1010.0 64 75 120 247 456 487 451 392 206 158
1050.0 208 264 299 296 273 224 182 171 190 229
1090.0 292 342 378 413 426 397 377 328 253 185
1130.0 148 123 120 129 163 210 287 406 553 647
1170.0 633 571 430 287 208 171 156 152 153 159
1210.0 175 176 184 190 186 174 149 133 113 102
1250.0 88 88 83 84 100 115 148 181 219 234
1290.0 237 212 179 145 135 140 147 167 198 231
1330.0 252 275 304 343 373 385 395 416 500 618
1370.0 776 881 979 1087 1129 1040 925 667 401 284
1410.0 215 196 178 212 225 259 345 464 670 899
1450.0 1215 1377 1567 1669 1659 1585 1428 1168 1018 994
1490.0 1242 1441 1474 1349 1017 519 334 196 165 151
1530.0 132 147 123 144 90 113 83 97 85 117
1570.0 143 154 190 254 323 446 538 709 773 810
1610.0 712 587 393 209 166 112 124 106 127 91
1650.0 114 60 93 68 71 58 75 52 74 58
1690.0 72 74 66 71 86 86 87 90 85 86
1730.0 95 106 102 119 121 108 97 83 64 62
1770.0 72 68 84 88 124 158 224 227 227 189
1810.0 137 99 83 70 55 43 31 42 33 52
1850.0 60 82 101 128 134 151 163 165 161 140
1890.0 117 78 58 38 36 32 34 51 77 110
1930.0 151 189 206 215 226 220 192 158 118 68
1970.0 34 23 25 22 25 19 17 11 11 12
2010.0 11 10 10 8 12 10 12 10 10 4
2050.0 9 2 4 0 1 0 3 5 6 9
2090.0 6 10 9 7 6 8 6 1 3 4
2130.0 2 3 4 4 5 5 13 15 21 15
2170.0 18 14 14 15 15 16 19 18 25 25
2210.0 27 28 24 17 19 16 18 12 16 12
2250.0 15 16 12 20 18 19 22 19 18 22
2290.0 28 27 32 29 37 45 48 45 39 37
2330.0 36 36 43 65 43 53 33 38 45 49
2370.0 46 47 45 41 33 30 28 23 28 24
2410.0 28 28 20 29 23 25 26 25 24 29
2450.0 28 26 26 28 30 25 29 20 24 25
2490.0 30 33 35 37 33 29 30 26 24 29
2530.0 29 35 34 38 44 45 52 53 53 56
2570.0 55 53 59 62 68 76 81 85 90 98
2610.0 99 103 100 93 86 89 92 90 88 82
2650.0 87 84 88 84 83 79 80 68 76 73
2690.0 62 64 65 64 65 69 80 89 108 138
2730.0 162 177 177 164 143 126 114 116 122 131
2770.0 143 154 161 168 181 191 210 217 221 227
2810.0 241 264 285 313 340 391 449 559 704 910
2850.0 1149 1377 1530 1639 1806 2235 2852 3238 3419 3331
2890.0 3051 2856 2873 3083 3430 3940 4522 5074 5330 5414
2930.0 5339 5182 4992 4776 4715 5030 5846 7203 8773 9839
2970.0 10000 8473 6391 4350 2422 1164 761 661 665 710
3010.0 772 898 1114 1525 2207 2949 3366 3408 3071 2309
3050.0 1593 1245 1275 1589 2179 2616 2746 2673 2278 1782
3090.0 1537 1371 1190 982 791 654 531 435 355 276
3130.0 220 175 162 148 143 138 138 140 157 156
3170.0 164 164 150 148 154 145 134 133 123 121
3210.0 116 109 100 84 74 65 59 50 46 46
3250.0 46 45 48 44 65 62 68 60 58 47
3290.0 48 47 48 42 42 34 37 41 48 52
3330.0 50 53 56 60 52 52 46 51 44 52
3370.0 65 68 69 70 61 60 48 49 50 34
3410.0 33 35 20 34 28 31 34 32 24 39
3450.0 41 26 39 37 29 21 30 36 34 36
3490.0 31 28 29 41 43 23 24 20 27 29
3530.0 37 27 36 45 44 36 30 41 33 39
3570.0 38 37 28 22 39 10 46 23 23 23
3610.0 46 41 43 53 43 44 62 40 54 36
3650.0 62 80 56 75 32 71 27 81 29 46
3690.0 48 41 56 48 50 44 61 40 50 32
3730.0 41 42 78 29 73 33 70 38 40 49
3770.0 43 38 47 59 50 32 46 52 46 76
3810.0 29 70 51 50 51 50 54 89 74 50
3850.0 52 63 68 61 41 64 51 49 69 65
3890.0 50 63 33 92 69 53 41 38 49 61
3930.0 52 60 59 60 43 50 39 18 53 50
##END=
