##TITLE=Benzene, (methoxymethyl)-
##JCAMP-DX=4.24
##DATA TYPE=INFRARED SPECTRUM
##ORIGIN=Sadtler Research Labs Under US-EPA Contract
##OWNER=NIST Standard Reference Data Program
##CAS REGISTRY NO=538-86-3
##MOLFORM=C 8 H 10 O
##XUNITS=1/CM
##YUNITS=ABSORBANCE
##XFACTOR=1.0
##YFACTOR=0.000050943
##DELTAX=4.0
##FIRSTX=450.0
##LASTX=3966.0
##FIRSTY=0.008406
##MAXX=3966
##MINX=450
##MAXY=0.50943
##MINY=0
##NPOINTS=880
##XYDATA=(X++(Y..Y))
450.0 165 130 147 243 315 358 363 349 358 253
490.0 216 161 149 92 180 105 60 58 91 90
530.0 139 66 64 122 99 52 84 54 28 1
570.0 218 106 181 180 312 293 621 775 869 849
610.0 793 563 346 258 193 187 194 142 103 88
650.0 91 88 100 157 210 377 661 960 1296 1762
690.0 2252 2834 3010 2750 2512 2246 2003 1987 2238 2729
730.0 3272 3890 4316 3895 3422 2535 1828 1260 813 512
770.0 354 245 204 197 172 200 264 281 376 477
810.0 472 462 444 355 270 266 220 146 149 124
850.0 105 93 119 113 91 148 168 161 250 291
890.0 389 498 592 654 695 723 746 831 940 989
930.0 986 961 841 683 623 581 581 623 689 705
970.0 714 720 705 700 788 756 726 685 631 515
1010.0 484 481 554 776 927 886 860 811 580 507
1050.0 577 678 774 892 1047 1124 1239 1438 1717 2209
1090.0 2955 4012 5379 6947 8265 9294 10000 9801 8796 7394
1130.0 5545 3644 2403 1760 1442 1279 1198 1139 1129 1141
1170.0 1194 1300 1507 1778 2129 2646 3150 3471 3550 3428
1210.0 2933 2273 1660 1236 914 723 631 553 497 450
1250.0 415 411 403 430 461 533 570 576 566 515
1290.0 437 387 375 377 389 426 436 443 434 423
1330.0 374 367 383 391 400 511 731 1098 1387 1551
1370.0 1695 1924 2059 2012 1832 1635 1178 623 385 272
1410.0 252 251 276 282 353 442 572 713 939 1186
1450.0 1444 1605 1662 1680 1554 1334 1076 909 822 856
1490.0 1019 1170 1184 1089 964 577 345 247 221 183
1530.0 190 178 181 161 182 167 153 156 163 190
1570.0 203 242 238 300 316 326 341 377 362 349
1610.0 310 255 203 168 146 106 135 128 137 103
1650.0 111 37 84 85 78 48 81 56 54 39
1690.0 63 53 56 63 93 187 314 387 427 459
1730.0 461 448 322 252 213 201 185 106 71 71
1770.0 61 56 64 68 92 125 154 207 228 230
1810.0 194 153 128 88 55 60 63 53 67 61
1850.0 59 89 122 132 136 149 175 155 150 128
1890.0 98 82 61 43 35 55 37 38 62 66
1930.0 103 134 166 187 208 229 223 195 178 133
1970.0 101 70 53 49 63 60 68 80 92 92
2010.0 90 109 120 110 109 119 116 129 98 98
2050.0 113 119 110 125 129 118 127 117 118 107
2090.0 106 98 80 85 76 71 72 77 75 79
2130.0 67 68 58 68 60 63 72 75 66 69
2170.0 65 48 50 47 47 37 48 32 39 47
2210.0 52 57 52 47 38 50 48 36 37 37
2250.0 37 35 35 40 26 40 33 40 36 39
2290.0 32 44 56 48 47 72 53 56 61 49
2330.0 41 34 31 46 47 43 29 33 31 31
2370.0 17 43 58 44 49 46 33 42 41 32
2410.0 32 30 23 13 24 29 14 19 20 10
2450.0 13 20 20 21 20 21 30 18 19 13
2490.0 15 23 15 15 28 8 18 9 2 5
2530.0 13 11 9 10 27 30 22 32 10 22
2570.0 41 33 42 72 74 90 113 124 107 124
2610.0 113 112 113 104 104 94 110 107 90 87
2650.0 88 85 100 95 77 89 87 107 126 139
2690.0 155 164 205 216 240 268 300 317 362 362
2730.0 362 360 362 344 324 330 322 298 311 328
2770.0 311 346 391 431 512 612 718 889 1148 1517
2810.0 1937 2365 2881 3400 3731 3838 3755 3521 3173 3002
2850.0 3080 3285 3443 3445 3444 3343 3196 3145 3151 3164
2890.0 3233 3352 3382 3376 3313 3201 3133 3134 3251 3460
2930.0 3669 3726 3694 3510 3241 2811 2368 2062 1792 1588
2970.0 1474 1465 1536 1771 2129 2424 2502 2397 2169 1793
3010.0 1478 1366 1438 1697 2026 2369 2649 2811 2772 2565
3050.0 2285 1974 1846 2003 2310 2598 2698 2650 2448 2026
3090.0 1685 1418 1282 1148 967 769 638 504 401 310
3130.0 215 159 137 104 106 98 116 107 78 106
3170.0 98 79 92 78 50 65 36 28 65 57
3210.0 30 35 33 53 38 49 17 0 31 36
3250.0 28 26 36 31 16 34 16 15 33 36
3290.0 34 28 32 35 30 41 32 32 35 37
3330.0 26 36 6 19 30 34 31 30 35 22
3370.0 36 42 27 18 47 11 23 42 47 21
3410.0 57 37 40 46 67 67 50 59 41 30
3450.0 46 58 19 43 35 42 53 88 80 42
3490.0 71 90 45 80 79 54 64 55 34 44
3530.0 71 64 86 72 76 82 96 41 40 70
3570.0 72 51 44 46 39 51 81 74 92 99
3610.0 59 60 78 100 71 120 116 114 105 70
3650.0 94 114 162 116 110 91 114 159 107 134
3690.0 152 148 130 141 123 134 129 162 160 154
3730.0 159 117 144 114 124 138 122 145 151 132
3770.0 132 162 165 140 148 173 162 170 178 181
3810.0 159 153 152 156 136 157 155 181 168 154
3850.0 160 196 178 163 169 182 136 159 164 135
3890.0 170 191 175 173 151 136 143 153 166 177
3930.0 147 122 114 123 122 110 116 117 140 134
##END=
