##TITLE=Propionic acid, 3-(4-chloro-3,5-xylyloxy)-, ethyl ester
##JCAMP-DX=4.24
##DATA TYPE=INFRARED SPECTRUM
##ORIGIN=Sadtler Research Labs Under US-EPA Contract
##OWNER=NIST Standard Reference Data Program
##CAS REGISTRY NO=53830-54-9
##MOLFORM=C 13 H 17 Cl O 3
##XUNITS=1/CM
##YUNITS=ABSORBANCE
##XFACTOR=1.0
##YFACTOR=0.000114200
##DELTAX=4.0
##FIRSTX=450.0
##LASTX=3966.0
##FIRSTY=0.004225
##MAXX=3966
##MINX=450
##MAXY=1.142
##MINY=0
##NPOINTS=880
##XYDATA=(X++(Y..Y))
450.0 37 107 117 100 75 107 67 99 45 91
490.0 72 81 76 69 73 45 75 42 83 59
530.0 61 19 34 31 58 84 61 66 53 82
570.0 71 80 75 75 87 114 145 145 183 198
610.0 253 252 271 316 339 381 398 407 373 368
650.0 350 376 387 433 482 509 477 424 368 325
690.0 316 345 364 341 289 244 206 180 151 122
730.0 117 95 77 65 62 57 53 52 66 58
770.0 64 74 76 90 111 118 122 123 126 130
810.0 133 149 158 193 249 333 375 390 392 447
850.0 576 767 942 921 747 550 413 326 271 235
890.0 225 222 214 212 201 206 222 247 289 317
930.0 309 292 272 237 240 244 253 236 219 215
970.0 225 241 269 295 337 393 471 575 696 815
1010.0 965 1144 1378 1669 2033 2539 3244 4138 4966 4999
1050.0 4002 2878 2298 2149 2200 2328 2418 2425 2335 2083
1090.0 1733 1455 1307 1192 1063 939 854 795 771 782
1130.0 858 1023 1316 1835 2762 4309 6440 8617 10000 9808
1170.0 8400 6780 5912 5684 5573 5200 4523 3765 3079 2563
1210.0 2198 1984 1899 1931 2028 2151 2245 2291 2331 2384
1250.0 2454 2489 2397 2189 1940 1721 1555 1458 1442 1506
1290.0 1645 1838 2118 2551 3214 4133 5173 5914 5796 4711
1330.0 3339 2335 1799 1532 1405 1303 1158 998 935 1019
1370.0 1215 1337 1347 1386 1457 1446 1378 1318 1255 1246
1410.0 1345 1606 1889 1956 1804 1621 1525 1473 1474 1482
1450.0 1543 1657 1911 2317 2837 3278 3171 2596 1817 1240
1490.0 880 665 543 462 420 386 367 362 356 363
1530.0 366 377 398 417 443 480 526 580 671 778
1570.0 966 1217 1560 1980 2362 2723 2794 2634 2183 1683
1610.0 1190 805 539 367 269 206 175 147 131 118
1650.0 119 113 118 119 120 124 133 141 148 175
1690.0 191 225 259 320 391 473 558 651 767 918
1730.0 1183 1520 2025 2665 3528 4344 5161 5637 5384 4306
1770.0 3071 2101 1481 1076 789 595 450 355 273 220
1810.0 175 147 119 103 88 76 70 60 56 43
1850.0 42 35 35 32 35 31 33 37 37 38
1890.0 38 42 34 32 28 31 27 28 27 27
1930.0 31 29 34 30 32 34 33 32 29 25
1970.0 22 20 17 17 13 17 16 15 20 18
2010.0 22 22 26 25 29 34 34 40 40 38
2050.0 37 32 29 29 24 24 25 25 29 30
2090.0 32 31 31 32 34 31 33 32 29 25
2130.0 24 23 18 11 9 12 11 13 11 11
2170.0 10 13 12 10 12 6 5 2 1 0
2210.0 0 3 4 4 5 9 6 7 8 11
2250.0 9 9 9 13 16 16 18 16 18 21
2290.0 22 25 34 39 43 46 48 49 47 49
2330.0 47 45 35 40 41 41 32 24 18 19
2370.0 23 18 30 30 21 15 11 11 9 14
2410.0 17 17 13 11 12 13 16 18 16 17
2450.0 23 22 25 33 35 39 42 39 40 37
2490.0 30 23 17 16 13 11 5 8 6 3
2530.0 3 4 7 8 11 8 9 11 10 8
2570.0 9 6 8 8 9 8 11 9 11 12
2610.0 11 12 12 15 15 16 20 17 18 19
2650.0 20 23 20 18 18 17 24 26 24 29
2690.0 28 30 27 27 24 25 28 26 34 40
2730.0 44 58 68 82 95 107 100 87 73 69
2770.0 68 65 65 60 60 66 71 77 80 88
2810.0 90 100 110 117 127 137 150 163 188 215
2850.0 249 294 346 413 485 542 582 625 692 774
2890.0 832 846 843 847 858 903 967 1039 1139 1278
2930.0 1490 1743 1949 2013 1913 1700 1504 1409 1425 1490
2970.0 1558 1633 1773 2044 2305 2311 2005 1625 1316 1072
3010.0 874 713 582 483 416 366 340 322 324 332
3050.0 350 371 387 381 366 342 314 275 230 187
3090.0 151 129 114 103 101 93 84 81 76 69
3130.0 64 59 60 54 47 46 42 41 38 35
3170.0 32 33 32 30 33 28 27 26 29 23
3210.0 20 20 21 18 15 13 16 14 15 11
3250.0 16 10 12 11 8 9 10 14 10 9
3290.0 11 11 13 11 13 12 12 12 13 7
3330.0 10 13 13 20 14 17 8 13 10 16
3370.0 8 18 15 12 16 16 16 13 17 9
3410.0 15 18 14 24 18 17 14 25 20 23
3450.0 13 19 23 24 23 22 32 39 43 49
3490.0 44 51 46 48 28 33 25 16 14 12
3530.0 20 17 13 11 7 8 17 9 3 6
3570.0 16 20 22 14 17 13 7 7 6 9
3610.0 9 12 9 7 9 20 20 19 12 20
3650.0 23 16 17 18 8 9 10 10 9 26
3690.0 19 12 28 20 16 11 18 7 11 8
3730.0 13 2 10 14 25 11 17 20 14 18
3770.0 18 17 19 20 17 5 0 11 5 21
3810.0 19 24 27 7 10 16 15 21 22 9
3850.0 17 26 21 16 22 4 10 13 7 15
3890.0 10 16 15 18 29 24 17 33 8 16
3930.0 34 24 25 26 20 15 17 19 30 35
##END=
