##TITLE=Propiophenone, 5-bromo-3,4-dimethyl-2-hydroxy-,
##JCAMP-DX=4.24
##DATA TYPE=INFRARED SPECTRUM
##ORIGIN=Sadtler Research Labs Under US-EPA Contract
##OWNER=NIST Standard Reference Data Program
##CAS REGISTRY NO=5384-03-2
##MOLFORM=C 11 H 13 Br O 2
##XUNITS=1/CM
##YUNITS=ABSORBANCE
##XFACTOR=1.0
##YFACTOR=0.000054227
##DELTAX=4.0
##FIRSTX=450.0
##LASTX=3966.0
##FIRSTY=0.004013
##MAXX=3966
##MINX=450
##MAXY=0.54227
##MINY=0
##NPOINTS=880
##XYDATA=(X++(Y..Y))
450.0 74 146 99 72 126 34 136 176 163 183
490.0 253 388 665 859 675 466 228 154 119 135
530.0 94 147 172 123 175 173 289 345 406 375
570.0 308 229 204 206 179 241 258 352 310 360
610.0 391 443 446 423 392 335 291 287 315 345
650.0 395 399 374 353 325 362 353 332 362 423
690.0 491 615 805 1000 1111 1084 1027 995 995 969
730.0 911 865 859 913 1024 1089 1101 1019 929 956
770.0 984 1054 1112 1179 1266 1327 1359 1359 1341 1366
810.0 1410 1467 1428 1238 973 750 608 501 419 422
850.0 473 617 888 1223 1427 1353 1021 626 417 321
890.0 281 292 298 315 397 497 678 884 935 794
930.0 545 365 277 258 253 275 302 331 382 453
970.0 537 620 696 723 727 693 640 555 504 476
1010.0 505 570 655 811 986 1210 1388 1521 1551 1537
1050.0 1515 1455 1324 1126 961 886 896 993 1215 1581
1090.0 2000 2300 2353 2172 1880 1690 1686 1902 2109 2069
1130.0 1745 1356 1157 1055 940 786 607 454 379 355
1170.0 366 398 445 510 573 653 742 885 1091 1440
1210.0 1984 2729 3587 4556 5657 6388 6273 5202 3959 3225
1250.0 3005 3034 3252 3679 4196 4462 4325 4169 4202 4159
1290.0 3778 3275 2819 2431 2116 1980 2072 2369 2894 3524
1330.0 4134 4522 4719 4842 5045 5264 5370 5263 4864 4385
1370.0 3888 3547 3416 3500 3565 3645 3757 3970 4159 4036
1410.0 3641 3143 2760 2557 2364 2153 2029 2118 2376 2650
1450.0 2848 2924 2845 2839 2753 2627 2313 1982 1748 1538
1490.0 1405 1334 1248 1178 1099 1038 1040 1027 982 1023
1530.0 1008 1035 1004 988 1002 1044 1039 1008 1074 1075
1570.0 1076 1056 1116 1163 1366 1584 1933 2339 2803 3150
1610.0 3240 3153 2752 2488 2285 2602 3116 4352 6241 8429
1650.0 10000 9784 7909 5405 3332 2175 1463 1165 879 734
1690.0 694 626 537 479 480 459 427 346 374 375
1730.0 373 362 396 386 317 244 216 199 184 190
1770.0 155 142 159 132 139 111 112 107 97 110
1810.0 87 66 61 51 30 19 22 36 8 6
1850.0 14 25 24 19 17 0 24 21 20 19
1890.0 14 13 27 25 27 28 21 29 11 31
1930.0 33 33 35 24 28 30 38 36 47 36
1970.0 46 39 39 35 34 17 13 22 15 25
2010.0 18 19 13 17 20 23 28 22 22 25
2050.0 29 27 31 25 29 29 24 27 23 27
2090.0 19 30 30 31 28 33 27 22 23 20
2130.0 23 12 17 12 14 14 18 13 12 13
2170.0 8 20 17 18 20 20 22 22 27 24
2210.0 18 22 29 23 23 23 23 28 30 34
2250.0 30 42 40 42 44 49 51 56 57 66
2290.0 72 84 93 97 100 109 106 101 97 91
2330.0 75 72 62 74 93 98 76 76 66 57
2370.0 62 74 96 97 91 72 71 66 72 68
2410.0 69 67 65 71 72 80 84 87 90 96
2450.0 102 99 103 115 124 122 129 139 139 135
2490.0 135 136 143 146 150 153 157 164 158 160
2530.0 159 162 158 157 155 159 158 158 163 161
2570.0 167 169 166 172 177 186 191 197 204 213
2610.0 210 223 224 227 236 231 250 258 272 278
2650.0 291 298 304 298 302 296 290 284 284 279
2690.0 283 291 280 291 297 302 305 310 319 314
2730.0 319 329 339 351 356 355 352 339 338 347
2770.0 344 359 367 371 381 394 410 423 443 453
2810.0 471 484 506 527 540 547 561 580 600 619
2850.0 649 693 730 792 863 966 1052 1151 1244 1360
2890.0 1464 1512 1494 1443 1412 1431 1530 1690 1888 2054
2930.0 2177 2316 2460 2614 2798 2998 2948 2626 2145 1803
2970.0 1673 1655 1780 2082 2538 2859 2829 2381 1860 1569
3010.0 1429 1364 1335 1337 1341 1371 1378 1368 1366 1350
3050.0 1324 1290 1283 1254 1231 1213 1183 1147 1123 1105
3090.0 1078 1071 1056 1045 1022 1005 999 984 984 972
3130.0 981 973 960 956 955 940 932 921 910 893
3170.0 883 870 858 847 826 822 804 790 777 768
3210.0 747 745 733 723 703 702 707 692 669 674
3250.0 656 647 642 626 612 620 612 615 604 607
3290.0 602 585 584 575 562 526 514 495 485 480
3330.0 461 449 443 433 429 406 393 373 357 360
3370.0 351 347 339 332 309 311 306 288 277 275
3410.0 262 259 236 234 237 226 214 213 203 194
3450.0 194 185 177 173 165 151 149 153 147 138
3490.0 142 124 118 122 126 122 111 122 133 144
3530.0 160 170 164 154 133 137 110 90 80 75
3570.0 85 85 70 88 79 80 54 57 56 58
3610.0 60 40 36 38 43 57 45 35 53 57
3650.0 63 47 47 52 38 37 20 34 36 28
3690.0 37 33 25 42 25 43 46 41 21 23
3730.0 41 58 51 45 46 31 39 31 45 50
3770.0 34 18 41 32 28 34 29 45 42 39
3810.0 31 31 46 45 36 32 34 28 27 34
3850.0 46 48 46 45 46 49 53 49 49 45
3890.0 59 60 35 41 48 66 44 29 54 58
3930.0 63 75 55 49 47 51 65 57 63 49
##END=
