##TITLE=Phenalen-1-one, 2,3-dihydro-2,5,8-trimethyl-,
##JCAMP-DX=4.24
##DATA TYPE=INFRARED SPECTRUM
##ORIGIN=Sadtler Research Labs Under US-EPA Contract
##OWNER=NIST Standard Reference Data Program
##CAS REGISTRY NO=53863-86-8
##MOLFORM=C 16 H 16 O
##XUNITS=1/CM
##YUNITS=ABSORBANCE
##XFACTOR=1.0
##YFACTOR=0.000072107
##DELTAX=4.0
##FIRSTX=450.0
##LASTX=3966.0
##FIRSTY=0.049249
##MAXX=3966
##MINX=450
##MAXY=0.72107
##MINY=0
##NPOINTS=880
##XYDATA=(X++(Y..Y))
450.0 683 317 363 285 330 175 111 146 212 110
490.0 61 44 102 172 253 188 258 239 187 238
530.0 348 386 343 387 277 293 257 270 230 193
570.0 172 139 126 114 152 161 111 80 84 104
610.0 169 156 180 162 96 169 208 147 180 121
650.0 103 60 0 111 180 73 139 218 132 197
690.0 132 37 174 174 88 114 80 74 139 134
730.0 118 155 159 169 173 134 88 124 114 121
770.0 155 192 273 346 370 326 369 485 703 890
810.0 732 424 278 163 153 158 243 309 339 391
850.0 420 525 592 640 646 522 433 455 618 859
890.0 1109 1139 866 628 427 376 407 423 404 382
930.0 383 405 476 630 805 866 749 527 337 275
970.0 229 227 215 226 234 237 246 253 260 236
1010.0 216 202 195 199 212 235 259 282 291 328
1050.0 351 349 341 335 318 299 283 293 298 297
1090.0 278 244 225 224 235 244 277 321 419 612
1130.0 807 842 686 467 326 309 368 434 442 400
1170.0 409 524 635 591 420 275 219 208 226 287
1210.0 389 540 645 652 556 507 599 831 1244 1694
1250.0 1811 1461 977 845 955 949 752 517 428 399
1290.0 390 371 347 376 446 499 457 383 299 299
1330.0 347 391 429 406 359 345 364 430 532 599
1370.0 679 800 872 915 991 1005 916 752 548 487
1410.0 497 545 722 854 1111 1471 1812 1819 1573 1377
1450.0 1423 1544 1504 1241 918 663 512 367 266 267
1490.0 330 355 490 579 646 581 451 411 416 341
1530.0 331 283 305 336 302 266 297 375 382 404
1570.0 514 600 630 571 469 434 451 523 577 652
1610.0 696 765 922 1119 1530 1843 2054 1785 1289 867
1650.0 716 640 535 494 454 478 545 596 719 834
1690.0 941 1304 2104 3152 3925 4283 5306 8009 10000 8792
1730.0 4922 2135 1026 651 498 450 390 363 333 275
1770.0 289 295 289 313 289 250 210 178 176 145
1810.0 133 124 102 102 109 120 103 88 109 112
1850.0 83 62 60 51 56 72 54 43 45 54
1890.0 63 65 70 79 79 72 51 43 48 33
1930.0 28 25 22 31 29 19 23 19 14 20
1970.0 14 15 16 18 21 32 30 25 22 23
2010.0 19 25 26 23 23 23 26 26 23 15
2050.0 11 9 14 18 25 25 26 26 18 14
2090.0 16 12 9 10 11 7 9 10 9 9
2130.0 12 13 14 13 15 13 10 9 13 5
2170.0 7 6 9 9 12 13 13 11 8 10
2210.0 14 6 9 9 6 3 4 8 3 2
2250.0 2 6 6 4 7 6 10 9 12 16
2290.0 19 22 30 36 41 47 46 40 46 48
2330.0 34 40 34 30 43 45 67 58 46 28
2370.0 28 30 34 38 33 27 33 33 34 32
2410.0 36 37 32 32 29 27 23 20 19 18
2450.0 28 28 23 25 26 19 22 25 25 21
2490.0 24 24 19 23 23 22 26 30 24 26
2530.0 24 28 25 29 32 40 38 35 33 33
2570.0 30 31 27 32 32 30 36 32 35 35
2610.0 35 31 32 25 24 25 26 24 30 30
2650.0 23 21 15 17 21 25 32 27 24 30
2690.0 27 27 34 37 39 39 41 45 54 63
2730.0 69 72 87 103 105 107 100 88 79 76
2770.0 71 69 70 69 75 69 76 78 83 95
2810.0 102 115 126 142 166 183 226 283 357 424
2850.0 489 552 618 697 802 908 992 1056 1081 1046
2890.0 984 958 961 969 993 1040 1141 1303 1563 1977
2930.0 2524 2937 2901 2395 1710 1186 972 1000 1228 1587
2970.0 1833 1814 1570 1429 1361 1192 955 769 684 666
3010.0 732 830 937 1020 1056 1031 977 895 801 713
3050.0 665 652 658 637 581 480 374 292 232 194
3090.0 155 133 123 111 100 89 85 82 80 78
3130.0 69 66 55 56 57 62 62 51 52 49
3170.0 47 38 44 49 44 37 42 36 40 33
3210.0 32 38 30 22 21 23 18 14 14 13
3250.0 12 12 2 2 13 15 17 15 27 24
3290.0 19 10 17 23 20 15 18 24 30 27
3330.0 21 31 21 24 23 20 23 34 29 29
3370.0 33 27 32 38 41 55 54 56 58 60
3410.0 48 66 74 93 101 92 60 42 30 23
3450.0 20 12 21 27 31 31 23 35 21 22
3490.0 19 19 25 21 18 20 19 21 16 24
3530.0 26 24 19 16 17 15 19 24 33 18
3570.0 24 20 22 19 19 33 22 18 21 27
3610.0 19 23 16 26 20 32 14 24 18 16
3650.0 30 19 20 24 17 25 25 25 14 38
3690.0 17 29 12 18 28 33 20 15 24 35
3730.0 27 24 29 34 32 25 29 30 32 20
3770.0 19 13 33 27 22 28 19 23 26 29
3810.0 24 32 37 47 38 22 39 36 43 19
3850.0 36 31 24 35 24 37 14 16 40 23
3890.0 28 25 24 38 51 49 36 43 44 42
3930.0 42 28 36 47 42 41 29 54 23 24
##END=
