##TITLE=Pyrrole, 1-(.alpha.,.alpha.,.alpha.-trifluoro-m-tolyl)-,
##JCAMP-DX=4.24
##DATA TYPE=INFRARED SPECTRUM
##ORIGIN=Sadtler Research Labs Under US-EPA Contract
##OWNER=NIST Standard Reference Data Program
##CAS REGISTRY NO=53871-26-4
##MOLFORM=C 11 H 8 F 3 N
##XUNITS=1/CM
##YUNITS=ABSORBANCE
##XFACTOR=1.0
##YFACTOR=0.000116895
##DELTAX=4.0
##FIRSTX=450.0
##LASTX=3966.0
##FIRSTY=0.004910
##MAXX=3966
##MINX=450
##MAXY=1.16895
##MINY=0
##NPOINTS=880
##XYDATA=(X++(Y..Y))
450.0 42 64 56 63 60 55 52 18 22 18
490.0 0 15 23 8 30 38 52 74 81 81
530.0 113 90 69 38 33 36 29 33 32 31
570.0 28 43 52 68 72 59 74 117 163 203
610.0 229 190 145 112 91 76 85 114 169 230
650.0 344 400 405 312 198 175 156 202 346 657
690.0 1104 1608 2546 2790 2727 2378 2198 2762 2959 2394
730.0 1634 994 636 468 382 303 230 169 145 126
770.0 123 146 219 372 622 989 1515 1638 1260 723
810.0 282 138 80 70 70 68 75 55 61 46
850.0 53 44 48 55 70 95 129 205 323 477
890.0 636 640 481 342 218 136 111 94 106 112
930.0 171 251 292 284 225 131 88 77 61 74
970.0 71 84 72 78 82 92 105 108 128 108
1010.0 150 229 736 1644 2084 1663 722 229 205 218
1050.0 317 517 1032 2353 4127 4836 4153 2700 1695 1402
1090.0 1491 1611 1390 980 645 539 530 574 667 843
1130.0 1216 1887 3046 4664 6588 8111 7699 5769 3873 2868
1170.0 3067 3984 5185 5877 5122 3694 2124 1154 709 466
1210.0 365 316 312 311 330 344 376 415 498 599
1250.0 622 581 484 495 654 1087 1541 1704 1586 1355
1290.0 1547 2105 2820 3346 3289 2756 2125 1940 2060 2157
1330.0 2106 2161 3110 5486 8824 10000 7827 3904 1586 838
1370.0 560 425 350 296 312 311 376 441 451 437
1410.0 410 360 413 374 376 393 481 565 635 800
1450.0 1058 1233 1239 1056 1094 1266 1696 2276 2673 2747
1490.0 2508 2820 4073 5248 5328 3862 2087 947 597 372
1530.0 334 361 575 932 1147 1118 889 660 385 255
1570.0 229 256 304 418 552 772 1009 1183 1149 1033
1610.0 1016 1178 1396 1256 939 493 319 262 212 196
1650.0 209 193 141 129 132 126 142 96 156 184
1690.0 177 178 239 217 172 113 116 156 119 150
1730.0 205 245 164 122 127 133 103 100 109 98
1770.0 129 137 108 107 94 88 89 79 89 65
1810.0 67 68 51 53 51 54 37 23 40 54
1850.0 36 26 35 41 62 91 89 94 85 65
1890.0 47 38 27 23 20 22 23 27 41 30
1930.0 33 47 61 82 82 66 49 37 29 36
1970.0 30 25 22 21 16 25 22 15 17 16
2010.0 14 15 18 9 7 5 6 9 18 24
2050.0 27 27 19 15 17 14 16 14 14 13
2090.0 18 17 24 24 25 18 16 14 11 11
2130.0 12 12 17 21 23 24 21 15 12 11
2170.0 9 10 12 13 15 18 19 21 19 21
2210.0 24 23 22 21 19 18 18 20 27 29
2250.0 27 23 22 23 26 27 30 30 33 32
2290.0 34 36 37 34 32 33 27 26 32 33
2330.0 32 29 32 36 41 39 31 25 24 23
2370.0 24 27 25 23 19 18 14 14 13 16
2410.0 15 18 18 18 18 15 16 17 19 18
2450.0 17 19 18 22 26 27 29 27 22 23
2490.0 22 23 23 21 15 11 7 4 5 2
2530.0 5 5 5 8 12 12 17 17 17 21
2570.0 22 27 27 28 26 22 23 29 30 27
2610.0 27 25 30 36 41 40 38 36 34 32
2650.0 25 26 24 21 15 15 12 11 11 13
2690.0 15 18 17 14 10 5 3 3 5 5
2730.0 3 2 2 1 1 2 2 4 2 5
2770.0 7 8 11 14 17 18 19 21 23 21
2810.0 20 22 23 25 27 32 33 33 32 30
2850.0 31 28 28 24 18 16 18 17 17 15
2890.0 15 12 16 19 23 24 26 30 29 28
2930.0 30 27 30 30 26 19 21 19 23 24
2970.0 26 30 30 27 22 19 15 13 10 15
3010.0 10 10 11 15 20 27 37 50 60 71
3050.0 86 102 114 120 116 120 141 174 201 208
3090.0 193 161 130 109 104 118 136 153 170 160
3130.0 127 90 68 70 74 67 49 23 13 10
3170.0 5 5 2 2 1 1 2 3 2 3
3210.0 4 6 7 4 4 1 2 0 0 2
3250.0 5 5 4 4 6 2 7 5 4 5
3290.0 4 6 8 7 8 5 9 9 7 11
3330.0 5 9 8 13 13 15 12 13 14 16
3370.0 10 9 9 12 11 11 13 13 12 10
3410.0 10 12 10 13 12 12 8 9 11 14
3450.0 10 10 11 10 9 6 10 13 12 9
3490.0 7 11 11 11 5 8 9 4 12 8
3530.0 8 6 5 6 11 11 7 12 9 5
3570.0 3 5 8 6 3 4 1 6 6 12
3610.0 10 4 8 5 2 4 8 7 4 6
3650.0 5 6 11 5 7 3 3 5 8 9
3690.0 9 12 11 7 3 4 12 10 12 9
3730.0 7 9 8 2 8 3 5 6 6 11
3770.0 13 10 6 10 12 12 12 10 7 9
3810.0 9 6 9 9 4 7 7 5 1 8
3850.0 7 4 3 14 8 6 0 10 8 3
3890.0 8 5 8 2 12 8 1 1 8 7
3930.0 7 13 11 9 7 13 14 13 8 6
##END=
