##TITLE=Benzene, (ethoxymethyl)-
##JCAMP-DX=4.24
##DATA TYPE=INFRARED SPECTRUM
##ORIGIN=Sadtler Research Labs Under US-EPA Contract
##OWNER=NIST Standard Reference Data Program
##CAS REGISTRY NO=539-30-0
##MOLFORM=C 9 H 12 O
##XUNITS=1/CM
##YUNITS=ABSORBANCE
##XFACTOR=1.0
##YFACTOR=0.000079935
##DELTAX=4.0
##FIRSTX=450.0
##LASTX=3966.0
##FIRSTY=0.012630
##MAXX=3966
##MINX=450
##MAXY=0.79935
##MINY=0
##NPOINTS=880
##XYDATA=(X++(Y..Y))
450.0 158 159 164 170 153 124 102 109 90 63
490.0 45 87 102 41 54 93 87 54 72 75
530.0 47 12 143 86 107 82 125 104 168 137
570.0 137 171 222 260 318 370 493 586 626 628
610.0 554 408 310 237 182 113 86 81 79 93
650.0 84 117 136 191 291 522 652 871 1249 1652
690.0 2076 2537 2600 2408 2189 2022 1793 1771 1936 2271
730.0 2752 3138 3201 2738 2099 1521 1047 698 455 300
770.0 211 153 126 108 86 130 153 204 230 251
810.0 272 280 267 244 228 235 254 254 271 313
850.0 326 314 281 240 215 208 236 277 311 337
890.0 381 431 466 482 465 423 358 317 297 267
930.0 254 228 204 178 173 168 194 205 236 280
970.0 314 357 406 470 536 587 651 695 756 812
1010.0 880 923 1004 1203 1364 1306 1232 978 714 677
1050.0 749 904 1133 1453 1821 2099 2293 2434 2575 2853
1090.0 3400 4176 5176 6460 7861 9071 9917 10000 9300 8109
1130.0 6680 5050 3565 2442 1779 1440 1270 1213 1196 1257
1170.0 1350 1419 1402 1316 1231 1246 1399 1602 1709 1713
1210.0 1487 1141 861 667 549 526 534 577 625 679
1250.0 768 901 1066 1325 1684 2034 2164 2029 1611 1083
1290.0 789 691 666 677 680 697 686 666 625 589
1330.0 559 578 666 783 1060 1573 2032 2159 2095 1875
1370.0 1718 1806 1931 1856 1572 1240 1009 864 764 705
1410.0 647 539 516 474 490 507 601 666 816 1006
1450.0 1175 1248 1187 1166 987 815 638 537 467 516
1490.0 662 792 780 741 536 323 202 143 113 102
1530.0 133 99 112 70 113 104 92 63 58 94
1570.0 103 135 124 181 186 222 254 281 289 302
1610.0 271 232 154 133 116 82 86 78 98 67
1650.0 92 1 65 40 53 26 64 37 79 33
1690.0 80 72 92 85 163 257 399 521 609 695
1730.0 852 984 1020 969 962 840 622 423 291 211
1770.0 163 130 120 119 125 140 166 220 240 227
1810.0 185 151 109 98 81 63 70 53 63 67
1850.0 81 77 95 120 133 139 152 144 130 120
1890.0 101 92 65 57 58 67 73 75 100 104
1930.0 127 151 182 206 227 247 257 234 202 168
1970.0 127 87 88 75 66 74 76 74 73 69
2010.0 75 72 74 66 63 58 50 46 48 44
2050.0 41 38 32 31 44 33 40 34 41 34
2090.0 43 47 52 57 56 60 54 59 55 59
2130.0 54 53 42 47 39 35 35 34 36 36
2170.0 33 30 36 30 30 35 35 36 36 36
2210.0 38 41 41 49 47 46 49 49 42 48
2250.0 47 47 47 42 39 36 28 28 23 33
2290.0 25 24 17 21 27 20 30 28 19 11
2330.0 12 19 20 17 39 11 3 25 1 0
2370.0 23 41 43 38 37 42 42 35 35 35
2410.0 35 41 35 46 42 39 39 41 44 42
2450.0 38 32 37 31 32 36 39 43 42 39
2490.0 39 35 34 31 22 28 34 33 28 29
2530.0 30 32 31 34 34 36 34 35 42 49
2570.0 48 62 68 61 70 73 81 91 93 97
2610.0 105 106 112 113 100 107 100 102 104 98
2650.0 95 87 91 90 95 107 114 133 133 154
2690.0 159 180 201 220 237 260 280 312 326 321
2730.0 327 347 350 340 339 336 347 345 353 368
2770.0 391 422 469 507 552 609 661 727 814 903
2810.0 984 1052 1131 1235 1339 1462 1608 1801 2052 2403
2850.0 2834 3274 3651 3932 4074 4090 3981 3808 3590 3392
2890.0 3179 2955 2758 2579 2373 2202 2079 1978 1943 1966
2930.0 2095 2358 2641 2778 2750 2557 2211 1971 1847 1866
2970.0 2073 2443 2874 3274 3346 3066 2562 1970 1544 1260
3010.0 1091 1018 1061 1211 1467 1795 2070 2250 2253 2052
3050.0 1791 1538 1424 1498 1787 2118 2244 2203 1971 1580
3090.0 1321 1148 1031 917 770 629 508 417 335 255
3130.0 183 139 126 106 98 89 99 98 87 88
3170.0 91 99 76 88 84 81 75 66 64 67
3210.0 65 56 64 63 58 63 48 50 54 40
3250.0 44 43 48 42 44 46 39 28 33 32
3290.0 29 35 37 35 45 42 32 33 34 29
3330.0 28 30 41 38 25 37 46 29 46 32
3370.0 32 30 30 35 44 45 55 29 42 22
3410.0 33 22 51 35 38 24 44 25 33 44
3450.0 21 43 53 52 39 37 24 50 31 34
3490.0 44 26 40 31 23 26 43 41 39 56
3530.0 41 48 53 53 47 56 61 54 26 38
3570.0 41 40 41 74 57 62 51 66 55 56
3610.0 49 42 55 51 42 45 82 62 86 68
3650.0 65 81 78 98 95 86 83 75 88 96
3690.0 78 74 99 77 80 66 57 74 69 62
3730.0 50 40 64 58 30 47 53 60 57 49
3770.0 53 80 69 74 63 60 56 46 45 56
3810.0 60 47 48 53 51 48 49 51 57 51
3850.0 48 52 63 62 67 75 65 49 53 66
3890.0 71 68 59 63 56 42 41 56 40 54
3930.0 61 74 68 65 70 69 62 58 59 64
##END=
