##TITLE=Benzenemethanol, 4-bromo-.alpha.-methyl-
##JCAMP-DX=4.24
##DATA TYPE=INFRARED SPECTRUM
##ORIGIN=Sadtler Research Labs Under US-EPA Contract
##OWNER=NIST Standard Reference Data Program
##CAS REGISTRY NO=5391-88-8
##MOLFORM=C 8 H 9 Br O
##XUNITS=1/CM
##YUNITS=ABSORBANCE
##XFACTOR=1.0
##YFACTOR=0.000090369
##DELTAX=4.0
##FIRSTX=450.0
##LASTX=3966.0
##FIRSTY=0.005241
##MAXX=3966
##MINX=450
##MAXY=0.90369
##MINY=0
##NPOINTS=880
##XYDATA=(X++(Y..Y))
450.0 58 73 191 216 154 171 153 102 89 86
490.0 90 182 206 440 654 851 995 1189 1394 1647
530.0 1796 1775 1558 1238 906 623 406 257 171 112
570.0 60 52 51 52 65 65 94 111 126 116
610.0 141 152 165 175 204 192 163 146 156 171
650.0 152 104 52 16 7 43 11 2 3 10
690.0 10 40 72 108 169 237 323 399 398 401
730.0 378 323 284 260 261 305 431 719 1170 1522
770.0 1671 1476 1200 969 804 676 613 680 950 1404
810.0 2053 2862 3743 4509 4766 4614 3659 2714 1866 1191
850.0 734 468 352 326 344 396 480 612 832 1201
890.0 1747 2323 2676 2668 2305 1851 1409 1038 806 630
930.0 494 392 325 283 250 231 222 231 267 324
970.0 403 499 637 816 1073 1387 1817 2525 3870 6441
1010.0 8745 8445 6203 2624 1257 986 958 1053 1270 1604
1050.0 2002 2423 2894 3559 4731 6699 8866 10000 9706 8229
1090.0 7121 5891 4437 3241 2579 2171 1823 1433 1055 788
1130.0 613 507 459 453 477 520 576 650 757 874
1170.0 967 1016 1014 980 944 926 912 894 870 835
1210.0 818 838 899 988 1082 1150 1222 1348 1570 1864
1250.0 2139 2292 2339 2292 2150 1904 1603 1343 1238 1269
1290.0 1441 1581 1579 1407 1179 1056 1051 1096 1199 1340
1330.0 1506 1670 1797 1893 1994 2094 2134 2090 2037 2006
1370.0 2068 2182 2328 2416 2409 2346 2269 2263 2258 2178
1410.0 1988 1732 1428 1197 1006 926 869 936 943 997
1450.0 1069 1154 1288 1321 1440 1557 1854 2528 4043 6388
1490.0 7992 7359 4905 2007 839 485 336 268 242 231
1530.0 198 234 215 231 234 250 267 295 352 367
1570.0 399 425 533 679 1009 1415 1750 1715 1354 825
1610.0 482 364 347 400 477 591 608 626 551 523
1650.0 425 434 323 264 196 172 118 140 114 139
1690.0 141 169 186 237 233 248 244 229 215 224
1730.0 216 234 229 248 245 260 268 267 269 262
1770.0 277 287 303 289 246 163 118 80 82 73
1810.0 78 83 116 120 153 149 144 131 104 90
1850.0 74 74 76 93 104 139 176 229 287 342
1890.0 396 420 426 399 341 277 203 164 115 96
1930.0 81 70 63 60 57 60 64 65 64 62
1970.0 61 59 56 51 47 43 42 35 36 31
2010.0 29 27 30 28 28 26 23 20 19 20
2050.0 18 19 19 17 14 19 20 23 26 24
2090.0 27 24 22 22 19 16 17 12 11 12
2130.0 12 10 16 17 18 19 20 16 15 13
2170.0 13 16 15 13 12 15 13 14 16 14
2210.0 11 15 11 8 10 13 17 19 24 27
2250.0 31 37 45 48 56 62 65 68 74 75
2290.0 82 83 92 91 86 77 59 39 21 17
2330.0 5 8 10 26 49 37 14 25 28 41
2370.0 59 65 67 63 47 28 16 12 10 10
2410.0 8 3 0 2 3 5 12 11 16 17
2450.0 21 22 19 16 15 10 13 12 13 14
2490.0 18 17 17 16 17 15 20 20 22 23
2530.0 25 28 31 33 36 35 40 43 43 48
2570.0 54 60 64 72 81 82 87 93 96 91
2610.0 80 69 58 52 50 44 45 45 42 43
2650.0 40 47 45 50 51 51 54 44 43 41
2690.0 42 40 44 40 39 39 43 43 49 56
2730.0 62 66 72 71 73 78 78 83 89 90
2770.0 93 99 104 110 116 124 132 138 149 163
2810.0 177 194 214 237 260 283 316 341 385 449
2850.0 535 642 755 888 1054 1272 1536 1804 2016 2128
2890.0 2138 2070 1976 1860 1738 1625 1540 1496 1521 1615
2930.0 1742 1845 1842 1686 1450 1234 1134 1169 1379 1800
2970.0 2370 3079 3889 4741 5189 4686 3511 2155 1342 997
3010.0 868 878 925 998 1081 1118 1110 1042 935 850
3050.0 801 749 715 673 644 646 690 777 889 993
3090.0 1094 1217 1144 966 704 392 226 152 115 92
3130.0 78 68 68 61 57 50 45 36 34 33
3170.0 33 36 39 34 29 37 34 39 39 44
3210.0 40 43 45 44 35 32 23 16 15 7
3250.0 5 5 5 2 3 3 4 2 2 4
3290.0 2 0 0 1 1 5 5 11 15 18
3330.0 20 27 29 41 42 47 48 51 54 54
3370.0 49 48 48 42 44 38 44 43 37 38
3410.0 38 51 51 45 42 43 46 47 48 49
3450.0 51 56 51 55 48 46 48 49 48 37
3490.0 44 47 38 45 30 36 33 39 33 35
3530.0 35 29 32 29 41 32 41 29 48 37
3570.0 56 51 50 64 59 77 67 61 83 97
3610.0 139 170 201 276 331 499 636 877 1150 1454
3650.0 1693 1704 1559 1226 873 587 366 283 202 170
3690.0 152 120 104 87 82 66 71 72 60 58
3730.0 49 44 62 32 73 5 48 16 14 15
3770.0 16 16 22 16 18 21 16 18 21 17
3810.0 19 25 17 33 40 41 37 58 47 51
3850.0 48 83 63 60 54 73 62 66 50 72
3890.0 45 73 31 47 46 36 41 54 22 45
3930.0 31 35 50 50 34 48 42 36 40 34
##END=
