##TITLE=1-Naphthalenecarboxaldehyde, 2-methoxy-
##JCAMP-DX=4.24
##DATA TYPE=INFRARED SPECTRUM
##ORIGIN=Sadtler Research Labs Under US-EPA Contract
##OWNER=NIST Standard Reference Data Program
##CAS REGISTRY NO=5392-12-1
##MOLFORM=C 12 H 10 O 2
##XUNITS=1/CM
##YUNITS=ABSORBANCE
##XFACTOR=1.0
##YFACTOR=0.000074072
##DELTAX=4.0
##FIRSTX=450.0
##LASTX=3966.0
##FIRSTY=0.004741
##MAXX=3966
##MINX=450
##MAXY=0.74072
##MINY=0
##NPOINTS=880
##XYDATA=(X++(Y..Y))
450.0 64 73 86 98 137 181 180 188 276 296
490.0 256 331 417 497 580 472 460 367 282 195
530.0 50 26 32 41 53 87 123 134 268 343
570.0 434 375 292 156 170 188 191 205 342 197
610.0 235 264 300 313 454 541 580 524 434 403
650.0 308 234 221 120 190 77 96 97 83 42
690.0 167 362 635 768 970 1020 935 764 551 462
730.0 553 738 1310 1863 2392 2223 1449 944 511 350
770.0 317 398 333 326 326 419 700 1052 1669 2275
810.0 2550 2467 2040 1346 933 582 351 280 187 154
850.0 470 589 741 686 502 263 161 36 50 59
890.0 53 43 52 29 61 77 89 66 67 85
930.0 78 142 145 157 145 182 131 161 131 136
970.0 120 152 154 199 217 200 246 352 420 447
1010.0 713 1033 1451 2009 2099 1783 1419 1147 1256 1578
1050.0 2012 2332 2634 2716 2752 2730 2749 2651 2485 2268
1090.0 1936 1610 1347 974 737 639 498 472 472 563
1130.0 636 1050 1754 2788 3577 4039 3639 2947 2268 1646
1170.0 1293 1114 935 801 723 648 616 684 784 955
1210.0 1109 1218 1327 1483 1820 2491 3563 4958 6255 6855
1250.0 6297 4986 3893 3337 3323 3257 2911 2237 1582 1043
1290.0 711 535 456 405 427 416 453 519 608 853
1330.0 1246 1836 2411 2681 2386 1893 1437 1369 1426 1487
1370.0 1361 1167 804 578 517 553 627 816 980 1175
1410.0 1285 1251 1263 1148 1357 1765 2161 2170 1822 1273
1450.0 1066 1089 1625 1942 2447 2303 2031 1295 813 689
1490.0 844 997 1617 2563 4067 5096 4901 3915 2458 1273
1530.0 657 574 469 721 491 455 596 972 1087 1174
1570.0 1429 1549 1829 1983 2288 2642 2753 2575 2197 1753
1610.0 1570 1639 2071 2067 1965 1595 1249 950 720 755
1650.0 709 924 680 744 900 1163 1376 1527 1924 3119
1690.0 5143 8361 9294 10000 7423 4040 2266 1616 1054 798
1730.0 576 623 355 378 300 437 341 414 383 289
1770.0 283 287 104 128 100 96 177 99 139 66
1810.0 121 57 79 52 110 59 69 66 111 135
1850.0 93 31 41 29 45 99 52 56 83 79
1890.0 107 129 94 109 104 158 109 158 107 114
1930.0 78 108 84 142 108 158 146 166 117 140
1970.0 99 73 65 66 59 56 69 54 79 43
2010.0 62 34 72 22 49 22 42 21 57 19
2050.0 53 22 69 28 56 71 66 82 84 79
2090.0 91 89 63 93 63 87 72 103 37 80
2130.0 66 86 52 100 54 88 68 99 61 88
2170.0 98 91 107 102 105 99 92 66 100 61
2210.0 108 67 104 70 80 62 69 34 81 33
2250.0 60 37 65 54 52 60 58 72 62 86
2290.0 87 125 91 143 145 184 134 194 129 168
2330.0 123 188 124 173 179 158 168 183 217 153
2370.0 137 130 125 120 139 88 121 94 88 75
2410.0 107 75 140 83 105 44 104 84 75 55
2450.0 73 54 73 79 83 71 88 111 72 113
2490.0 95 135 105 131 78 107 79 140 73 108
2530.0 74 103 69 77 73 76 69 75 88 71
2570.0 89 79 110 101 117 77 111 100 120 108
2610.0 113 104 125 105 101 94 105 96 120 94
2650.0 118 115 108 94 106 125 117 164 133 152
2690.0 131 195 138 181 164 178 182 204 182 225
2730.0 219 255 236 308 338 386 426 474 513 575
2770.0 617 632 662 678 719 688 652 558 543 452
2810.0 471 438 480 459 556 571 652 773 1003 1244
2850.0 1468 1596 1631 1630 1689 1717 1663 1529 1267 1055
2890.0 843 750 643 664 648 678 673 739 747 794
2930.0 787 842 964 1185 1477 1626 1661 1507 1306 1137
2970.0 1028 962 841 765 699 639 674 692 874 997
3010.0 1166 1182 1104 912 766 636 637 647 728 813
3050.0 985 1200 1433 1624 1625 1519 1335 1162 1037 994
3090.0 922 822 663 551 378 369 286 295 209 202
3130.0 138 148 118 116 89 96 89 95 116 109
3170.0 106 84 111 73 70 77 93 93 99 63
3210.0 80 52 59 49 58 63 78 59 68 47
3250.0 67 55 62 57 50 92 44 71 63 65
3290.0 47 48 47 64 44 56 48 68 34 64
3330.0 77 49 43 65 59 65 51 67 85 91
3370.0 131 130 159 165 152 94 82 68 65 40
3410.0 47 33 58 18 53 86 75 35 56 70
3450.0 37 65 45 55 44 67 65 59 67 40
3490.0 62 67 12 64 48 42 14 51 49 36
3530.0 93 65 60 47 73 66 63 51 77 88
3570.0 106 51 80 65 55 96 67 94 87 62
3610.0 125 100 82 107 69 173 73 77 46 42
3650.0 180 89 91 59 48 123 129 177 78 27
3690.0 106 59 28 49 15 59 72 20 19 56
3730.0 58 119 174 78 180 118 127 28 41 35
3770.0 20 2 2 2 2 2 1 20 46 6
3810.0 2 2 48 14 0 2 2 17 0 2
3850.0 2 55 6 2 2 2 2 2 2 2
3890.0 2 2 2 2 2 2 2 2 2 2
3930.0 2 2 2 2 2 2 2 2 2 2
##END=
