##TITLE=Benzene, 1,4-dichloro-2-isocyanato-
##JCAMP-DX=4.24
##DATA TYPE=INFRARED SPECTRUM
##ORIGIN=Sadtler Research Labs Under US-EPA Contract
##OWNER=NIST Standard Reference Data Program
##CAS REGISTRY NO=5392-82-5
##MOLFORM=C 7 H 3 Cl 2 N O
##XUNITS=1/CM
##YUNITS=ABSORBANCE
##XFACTOR=1.0
##YFACTOR=0.000037613
##DELTAX=4.0
##FIRSTX=450.0
##LASTX=3966.0
##FIRSTY=0.006545
##MAXX=3966
##MINX=450
##MAXY=0.37613
##MINY=0
##NPOINTS=880
##XYDATA=(X++(Y..Y))
450.0 174 228 70 45 140 77 131 131 161 74
490.0 98 150 126 106 70 115 88 50 102 122
530.0 121 94 107 148 145 158 166 152 197 244
570.0 305 352 515 596 529 447 294 239 239 276
610.0 241 281 280 234 190 197 206 269 271 303
650.0 335 290 298 207 291 414 304 231 281 253
690.0 279 256 258 227 199 185 130 174 187 130
730.0 142 112 122 124 111 127 105 93 92 77
770.0 107 118 153 171 232 328 356 373 424 459
810.0 440 343 211 195 127 129 171 209 296 412
850.0 513 576 578 498 388 332 285 217 148 117
890.0 92 90 150 200 256 260 229 133 65 27
930.0 18 19 16 30 35 14 15 10 23 4
970.0 17 16 34 34 8 26 42 44 57 72
1010.0 90 83 83 96 102 131 166 209 335 473
1050.0 539 506 424 236 156 167 202 304 517 927
1090.0 1258 1377 1267 782 345 213 182 163 177 207
1130.0 239 253 228 179 140 130 119 104 105 111
1170.0 109 90 87 96 77 77 75 59 50 62
1210.0 50 40 40 30 42 51 70 74 94 113
1250.0 137 160 165 184 153 107 80 77 69 62
1290.0 68 71 73 60 42 19 12 9 7 22
1330.0 12 8 15 21 15 37 62 95 127 148
1370.0 148 129 101 86 80 81 82 97 114 155
1410.0 193 223 239 277 293 307 348 369 363 357
1450.0 346 353 351 341 345 371 492 672 779 814
1490.0 749 588 478 488 552 659 713 697 578 402
1530.0 234 136 86 79 83 122 154 221 298 384
1570.0 482 582 722 911 1136 1273 1195 993 729 583
1610.0 587 631 663 640 588 477 370 276 209 148
1650.0 111 79 74 61 40 38 41 41 39 37
1690.0 46 38 34 30 44 32 41 36 40 36
1730.0 39 42 46 59 55 48 39 24 19 22
1770.0 17 14 17 13 18 22 25 27 27 20
1810.0 15 18 13 12 11 21 15 20 19 22
1850.0 26 26 24 32 30 37 39 36 36 26
1890.0 15 11 7 6 6 18 11 8 13 12
1930.0 11 4 5 17 10 10 13 13 13 15
1970.0 20 10 10 17 8 13 8 12 17 19
2010.0 15 18 19 20 20 14 13 24 19 13
2050.0 18 23 18 29 33 30 24 27 28 33
2090.0 36 39 40 42 46 51 49 60 64 74
2130.0 75 84 95 115 139 164 199 240 266 288
2170.0 285 276 269 263 276 312 362 432 517 615
2210.0 718 792 830 827 811 822 852 926 1066 1292
2250.0 1638 2168 3099 4647 6862 8977 10000 9515 7533 5566
2290.0 4141 3147 2519 2091 1867 1796 1611 1487 1431 1312
2330.0 1282 1245 1202 1274 1261 1182 1272 1541 1498 1492
2370.0 1300 1140 987 807 568 320 198 149 130 111
2410.0 95 81 72 69 63 57 54 56 59 60
2450.0 47 49 35 41 34 34 34 28 37 26
2490.0 37 30 24 21 20 27 24 15 24 25
2530.0 24 24 24 17 28 29 29 20 29 37
2570.0 27 15 16 22 10 13 17 18 20 17
2610.0 22 16 22 22 23 19 22 12 24 34
2650.0 24 24 36 25 27 32 29 26 36 33
2690.0 29 46 37 25 23 35 34 27 28 27
2730.0 18 22 20 26 25 31 30 32 28 34
2770.0 27 28 33 22 26 33 36 37 28 22
2810.0 30 35 28 26 32 31 35 32 22 28
2850.0 29 38 39 35 38 34 38 43 37 29
2890.0 39 50 40 50 54 46 48 54 51 45
2930.0 47 51 59 48 53 51 49 40 49 60
2970.0 54 52 48 45 40 35 35 33 28 29
3010.0 37 31 31 19 28 27 32 31 31 36
3050.0 38 46 47 44 45 42 49 54 64 62
3090.0 51 50 51 39 40 47 44 48 63 62
3130.0 74 66 60 47 43 44 32 37 42 36
3170.0 30 26 32 32 35 21 24 31 42 35
3210.0 38 36 33 43 25 32 23 27 31 28
3250.0 28 24 16 19 26 27 32 30 43 29
3290.0 20 28 19 17 23 38 42 40 33 26
3330.0 22 29 35 26 22 27 24 22 21 21
3370.0 33 36 36 37 45 44 52 50 113 121
3410.0 153 167 171 169 161 136 125 111 93 77
3450.0 66 67 42 63 48 43 45 47 39 55
3490.0 80 71 90 114 127 106 108 92 101 93
3530.0 89 76 64 47 46 28 39 30 34 32
3570.0 57 29 35 33 25 35 46 40 44 41
3610.0 29 26 32 23 27 33 40 60 36 38
3650.0 37 35 38 32 32 34 22 43 28 6
3690.0 41 40 24 25 39 33 52 44 60 39
3730.0 64 48 43 26 18 14 44 20 17 30
3770.0 54 21 30 13 30 50 33 15 27 44
3810.0 72 67 31 21 15 33 3 27 37 31
3850.0 48 35 34 39 18 42 28 29 37 44
3890.0 54 19 35 0 52 14 31 16 57 32
3930.0 35 31 1 40 2 9 8 49 71 41
##END=
