##TITLE=Ethane, 1,2-bis(ethylthio)-
##JCAMP-DX=4.24
##DATA TYPE=INFRARED SPECTRUM
##ORIGIN=Sadtler Research Labs Under US-EPA Contract
##OWNER=NIST Standard Reference Data Program
##CAS REGISTRY NO=5395-75-5
##MOLFORM=C 6 H 14 S 2
##SOURCE REFERENCE=No.226611 (NIST/EPA/NIH MS Database)
##XUNITS=1/CM
##YUNITS=ABSORBANCE
##XFACTOR=1.0
##YFACTOR=0.000060364
##DELTAX=4.0
##FIRSTX=450.0
##LASTX=3966.0
##FIRSTY=0.007425
##MAXX=3966
##MINX=450
##MAXY=0.60364
##MINY=0
##NPOINTS=880
##XYDATA=(X++(Y..Y))
450.0 123 161 120 122 125 116 102 117 132 106
490.0 99 125 80 86 70 95 138 126 81 102
530.0 139 141 169 234 172 111 129 113 61 77
570.0 138 137 106 89 84 20 42 159 114 117
610.0 97 138 104 113 130 156 288 190 182 273
650.0 272 224 277 275 178 141 110 140 149 154
690.0 216 275 322 431 627 933 1282 1400 1286 932
730.0 501 293 256 278 297 377 386 421 453 412
770.0 400 383 342 336 310 271 328 248 226 177
810.0 149 140 137 150 163 147 172 195 188 223
850.0 246 215 212 206 166 168 197 169 186 187
890.0 233 230 256 251 239 239 234 198 218 206
930.0 195 204 229 223 248 319 396 504 644 791
970.0 927 971 942 822 669 518 383 348 311 266
1010.0 263 244 236 249 257 266 291 322 373 407
1050.0 457 479 436 389 315 248 186 144 127 148
1090.0 132 149 138 187 254 295 350 394 435 447
1130.0 426 397 346 295 253 220 204 195 196 219
1170.0 231 267 321 419 594 966 1597 2157 2313 2075
1210.0 1391 909 680 607 615 696 818 1047 1373 1901
1250.0 2648 3468 4206 4616 4574 3987 3197 2316 1612 1184
1290.0 931 744 614 560 499 431 392 366 347 323
1330.0 281 267 256 243 236 268 298 334 404 527
1370.0 671 831 992 1103 1107 957 811 708 678 706
1410.0 795 950 1131 1317 1519 1671 1743 1777 1826 1889
1450.0 1957 2020 1935 1791 1550 1293 1072 860 699 590
1490.0 489 422 349 310 274 269 243 221 202 195
1530.0 171 162 162 146 131 131 140 130 116 126
1570.0 115 122 121 121 121 137 162 137 138 139
1610.0 124 139 126 128 127 120 136 123 121 131
1650.0 129 128 133 132 117 102 108 114 111 113
1690.0 120 105 90 82 81 86 90 89 77 85
1730.0 79 76 80 70 89 72 72 73 81 72
1770.0 66 69 75 69 62 61 66 64 63 64
1810.0 48 64 47 62 56 55 70 53 48 52
1850.0 56 64 55 55 64 58 56 54 58 51
1890.0 55 61 63 63 56 72 73 56 81 64
1930.0 73 69 73 82 71 76 73 72 65 65
1970.0 73 65 63 71 77 80 79 98 107 101
2010.0 106 104 105 105 98 97 96 89 89 84
2050.0 92 90 114 95 90 74 56 49 48 39
2090.0 47 47 58 62 56 72 54 65 72 64
2130.0 73 72 82 71 81 82 72 77 80 75
2170.0 95 81 88 89 81 88 74 80 75 88
2210.0 87 83 89 92 105 95 95 88 94 86
2250.0 93 78 70 73 68 70 79 53 55 64
2290.0 41 32 33 36 20 13 40 17 7 26
2330.0 34 1 26 38 42 6 29 55 77 0
2370.0 17 51 33 47 61 74 85 100 93 92
2410.0 108 110 114 123 126 125 115 112 98 98
2450.0 91 75 66 82 90 72 86 81 86 80
2490.0 91 81 82 80 73 73 72 64 62 64
2530.0 84 75 77 75 64 71 77 81 63 71
2570.0 79 86 78 94 96 94 103 97 108 120
2610.0 109 125 117 109 109 102 103 119 90 91
2650.0 111 100 89 81 69 69 83 100 126 151
2690.0 199 222 236 236 237 222 229 223 212 203
2730.0 204 237 237 250 226 225 197 191 158 152
2770.0 178 161 168 185 194 219 233 251 266 313
2810.0 388 442 529 608 732 848 993 1127 1252 1355
2850.0 1445 1574 1729 1901 2076 2334 2722 3150 3569 3837
2890.0 3829 3685 3470 3486 3765 4254 4941 5714 6517 7340
2930.0 8320 9327 10000 9784 8885 7487 6511 6476 7250 8431
2970.0 9330 9638 9331 8479 7200 5742 4160 2954 2116 1631
3010.0 1303 1093 940 814 738 660 619 538 490 434
3050.0 405 355 329 315 288 253 270 252 222 238
3090.0 221 209 218 211 213 215 189 189 186 172
3130.0 188 172 175 149 172 171 171 164 156 173
3170.0 171 185 188 171 175 148 166 167 159 149
3210.0 156 132 141 116 100 106 76 94 61 54
3250.0 52 62 83 64 86 57 56 46 42 39
3290.0 34 91 45 88 74 100 89 99 98 98
3330.0 90 73 57 57 78 54 61 61 35 87
3370.0 78 68 39 63 24 73 61 63 53 51
3410.0 54 62 60 42 20 19 53 36 29 45
3450.0 37 24 46 17 65 40 45 37 19 31
3490.0 47 56 58 52 19 27 56 31 19 32
3530.0 37 37 49 8 18 23 40 52 46 36
3570.0 6 41 41 34 52 44 47 49 36 15
3610.0 46 49 43 45 72 62 63 46 54 70
3650.0 55 43 49 54 68 40 62 36 37 57
3690.0 52 59 49 45 51 59 63 56 65 79
3730.0 55 60 53 59 38 62 64 62 44 49
3770.0 31 34 36 24 6 11 6 11 7 16
3810.0 33 29 41 45 37 5 9 14 25 21
3850.0 8 14 11 35 47 35 50 62 45 40
3890.0 42 57 55 54 63 37 36 54 52 42
3930.0 47 55 69 73 71 63 42 47 37 44
##END=
