##TITLE=t-Pentylferrocene
##JCAMP-DX=4.24
##DATA TYPE=INFRARED SPECTRUM
##ORIGIN=Sadtler Research Labs Under US-EPA Contract
##OWNER=NIST Standard Reference Data Program
##CAS REGISTRY NO=53954-86-2
##MOLFORM=C 15 H 20 Fe
##XUNITS=1/CM
##YUNITS=ABSORBANCE
##XFACTOR=1.0
##YFACTOR=0.000111249
##DELTAX=4.0
##FIRSTX=450.0
##LASTX=3966.0
##FIRSTY=0.059629
##MAXX=3966
##MINX=450
##MAXY=1.11249
##MINY=0
##NPOINTS=880
##XYDATA=(X++(Y..Y))
450.0 536 618 693 792 1049 1397 1821 2008 2024 1898
490.0 1819 1837 2007 1988 1655 1297 975 781 603 450
530.0 273 164 130 75 83 67 76 103 133 173
570.0 154 106 55 26 15 15 11 0 14 28
610.0 21 33 38 28 28 16 12 5 10 19
650.0 25 50 84 168 229 387 454 398 258 133
690.0 78 63 38 53 52 54 52 50 53 56
730.0 61 71 86 85 89 95 122 166 229 319
770.0 424 487 499 478 454 461 539 827 1561 3013
810.0 4876 5849 5380 3814 2406 1774 1334 902 595 423
850.0 374 358 282 183 120 116 136 174 245 393
890.0 555 635 557 386 280 271 345 419 425 358
930.0 252 185 148 124 81 62 52 68 87 130
970.0 180 237 292 347 424 544 727 920 1062 1117
1010.0 1064 958 893 917 1023 1105 1087 1039 942 778
1050.0 602 501 416 301 181 103 73 50 53 61
1090.0 100 201 508 1005 1276 1119 656 224 150 212
1130.0 313 400 421 383 339 312 269 249 242 222
1170.0 186 171 186 211 233 228 202 160 123 99
1210.0 98 103 122 145 173 206 246 315 408 501
1250.0 550 543 479 382 267 178 142 125 128 146
1290.0 197 306 501 684 708 568 375 284 314 392
1330.0 445 428 362 291 267 289 408 638 953 1166
1370.0 1144 1114 1241 1440 1533 1387 1062 686 425 304
1410.0 258 246 245 249 254 261 292 346 448 573
1450.0 730 894 1112 1349 1535 1630 1596 1433 1103 729
1490.0 423 259 192 145 122 99 83 71 62 56
1530.0 48 44 45 46 42 40 42 51 47 43
1570.0 48 49 51 50 52 65 76 106 151 216
1610.0 292 369 438 488 539 556 554 515 466 415
1650.0 382 344 305 284 277 293 332 361 381 371
1690.0 340 320 319 328 342 341 315 279 250 239
1730.0 242 236 198 173 191 269 371 422 382 263
1770.0 147 83 49 33 20 14 9 8 8 6
1810.0 4 2 4 2 2 4 4 1 0 2
1850.0 1 3 1 2 3 8 12 17 22 21
1890.0 18 13 13 15 18 22 21 17 18 18
1930.0 18 20 16 14 10 7 8 4 2 2
1970.0 1 3 5 2 0 1 2 2 4 5
2010.0 3 0 1 2 3 1 6 9 15 28
2050.0 45 57 48 31 18 16 16 18 23 25
2090.0 23 21 17 17 16 16 14 14 8 6
2130.0 3 0 2 0 2 1 2 0 3 5
2170.0 1 4 5 8 9 10 11 11 14 18
2210.0 19 24 30 39 45 52 60 64 60 62
2250.0 58 58 57 55 47 43 35 30 25 18
2290.0 13 8 8 7 3 2 2 1 3 5
2330.0 4 7 15 14 7 15 13 19 12 14
2370.0 10 18 21 22 24 24 27 28 31 29
2410.0 29 22 19 13 13 13 17 20 21 24
2450.0 25 26 28 34 31 26 16 11 8 5
2490.0 3 3 5 5 4 6 10 9 10 8
2530.0 7 6 5 4 3 2 4 4 3 7
2570.0 7 7 9 10 8 9 11 13 15 19
2610.0 24 25 28 31 34 37 39 37 39 39
2650.0 42 46 43 45 44 43 45 43 46 51
2690.0 57 60 71 77 87 95 100 101 97 99
2730.0 102 105 113 120 121 125 127 126 127 124
2770.0 121 118 115 116 121 127 135 145 157 175
2810.0 191 200 215 229 248 271 304 346 418 541
2850.0 758 1048 1306 1481 1603 1776 2010 2279 2573 2873
2890.0 3034 2969 2784 2673 2759 3039 3452 3841 4126 4240
2930.0 4274 4286 4322 4386 4406 4352 4369 4854 6142 8090
2970.0 9650 10000 8915 6953 4677 2803 1688 1116 812 634
3010.0 517 437 378 326 293 263 248 236 229 230
3050.0 232 241 252 265 280 312 364 459 647 984
3090.0 1552 2270 2970 3501 3463 2914 2170 1402 854 517
3130.0 330 235 169 134 111 103 91 87 86 83
3170.0 84 80 81 77 76 75 79 78 76 75
3210.0 70 68 66 60 56 52 48 42 36 35
3250.0 37 33 30 30 27 29 24 27 23 17
3290.0 15 19 14 12 14 18 18 19 17 15
3330.0 17 15 14 14 13 11 8 11 13 12
3370.0 14 17 10 14 12 5 9 12 6 7
3410.0 6 12 9 13 12 11 15 10 13 12
3450.0 10 6 11 10 10 17 15 14 9 3
3490.0 9 6 2 7 10 2 5 8 5 1
3530.0 4 6 5 7 10 7 12 11 15 3
3570.0 3 5 6 10 7 11 17 15 12 11
3610.0 11 5 8 11 12 7 9 5 18 15
3650.0 8 13 12 10 5 12 11 9 8 11
3690.0 14 12 18 14 16 10 10 11 7 8
3730.0 11 10 12 2 8 7 9 5 9 10
3770.0 14 20 11 6 9 5 8 11 9 17
3810.0 6 5 13 7 0 8 5 13 11 11
3850.0 15 13 19 19 16 10 18 19 21 14
3890.0 24 29 36 28 56 74 83 100 128 155
3930.0 175 189 184 157 125 89 58 59 56 51
##END=
