##TITLE=Pyridine, 3-(1-methyl-2-pyrrolidinyl)-, (S)-
##JCAMP-DX=4.24
##DATA TYPE=INFRARED SPECTRUM
##ORIGIN=Sadtler Research Labs Under US-EPA Contract
##OWNER=NIST Standard Reference Data Program
##CAS REGISTRY NO=54-11-5
##MOLFORM=C 10 H 14 N 2
##XUNITS=1/CM
##YUNITS=ABSORBANCE
##XFACTOR=1.0
##YFACTOR=0.000065274
##DELTAX=4.0
##FIRSTX=450.0
##LASTX=3966.0
##FIRSTY=0.007898
##MAXX=3966
##MINX=450
##MAXY=0.65274
##MINY=0
##NPOINTS=880
##XYDATA=(X++(Y..Y))
450.0 121 119 103 82 64 68 69 111 143 148
490.0 180 138 66 104 74 75 95 81 132 62
530.0 49 47 33 28 80 32 83 96 126 96
570.0 84 135 169 187 148 204 339 236 272 357
610.0 411 454 420 376 315 281 303 310 324 304
650.0 304 319 259 240 180 211 212 230 254 300
690.0 422 679 1088 1672 2394 2969 3058 2847 2167 1441
730.0 911 501 380 302 254 329 340 360 399 391
770.0 420 428 393 633 850 1307 1609 1872 1926 1718
810.0 1363 936 669 452 366 357 326 309 283 253
850.0 242 224 243 239 278 322 400 493 586 719
890.0 915 1130 1264 1252 1172 982 779 681 622 548
930.0 482 387 331 291 283 289 291 331 392 408
970.0 420 381 332 288 286 246 270 324 446 652
1010.0 993 1502 2149 2463 2417 2118 1749 1827 2190 2387
1050.0 2182 1719 1117 710 535 499 522 657 819 952
1090.0 1067 1103 1071 1070 1048 1065 1101 1145 1168 1108
1130.0 1008 926 918 1003 1149 1316 1480 1590 1690 1784
1170.0 1874 1991 2091 2236 2319 2331 2236 2085 1953 1946
1210.0 2059 2222 2298 2300 2202 2032 1816 1641 1460 1286
1250.0 1157 1046 962 880 831 767 709 681 685 691
1290.0 729 795 930 1183 1660 2210 2601 2538 2156 1584
1330.0 1153 1024 1110 1253 1376 1502 1602 1678 1588 1352
1370.0 1017 687 526 449 418 412 408 429 501 677
1410.0 965 1503 2139 2881 3266 3076 2522 1803 1262 1189
1450.0 1345 1624 1856 1984 2094 2164 2206 2094 1826 1325
1490.0 806 486 359 300 263 228 224 215 193 187
1530.0 167 173 148 145 185 230 264 337 539 804
1570.0 1117 1367 1480 1366 1110 801 550 347 241 183
1610.0 167 149 135 145 120 137 111 99 107 109
1650.0 65 82 82 88 75 94 55 94 84 99
1690.0 141 164 183 255 257 256 230 209 201 222
1730.0 266 271 264 233 186 141 120 90 70 55
1770.0 51 42 49 46 40 24 26 21 27 25
1810.0 23 22 27 22 35 26 32 38 45 52
1850.0 53 59 63 81 83 101 102 112 104 116
1890.0 137 173 221 247 239 223 177 153 134 147
1930.0 132 115 93 71 78 81 90 80 68 64
1970.0 42 28 22 13 12 9 15 10 7 12
2010.0 5 13 3 6 14 7 8 8 4 6
2050.0 12 5 8 5 12 14 14 21 21 13
2090.0 19 24 21 21 22 22 27 29 22 21
2130.0 28 14 13 7 13 11 13 3 0 10
2170.0 13 11 7 14 13 13 15 16 21 21
2210.0 27 29 33 38 48 52 47 48 57 48
2250.0 50 50 51 49 51 48 55 45 55 57
2290.0 69 82 91 97 117 131 131 117 130 151
2330.0 143 151 164 172 184 195 163 133 124 141
2370.0 131 143 127 134 115 86 78 69 70 64
2410.0 57 63 65 68 67 73 78 77 75 74
2450.0 82 83 91 91 91 75 97 94 97 103
2490.0 107 96 109 109 118 111 118 128 134 133
2530.0 140 147 152 159 182 194 197 214 209 230
2570.0 222 224 217 232 228 251 231 245 248 251
2610.0 256 287 287 296 290 296 298 321 333 361
2650.0 410 454 520 606 726 807 871 849 795 682
2690.0 637 618 635 683 732 752 773 778 780 771
2730.0 818 875 984 1100 1261 1490 1829 2278 2869 3615
2770.0 4512 5591 6843 8200 9315 9914 9668 8765 7292 5940
2810.0 4669 3780 3135 2737 2517 2499 2648 2895 3105 3189
2850.0 3044 2748 2422 2128 1961 1966 2115 2430 2792 3037
2890.0 3105 2998 2828 2761 2886 3154 3500 3752 3919 3870
2930.0 3843 3855 4171 4768 5636 6547 7250 7553 7690 7877
2970.0 8623 9634 10000 8757 6713 4463 2939 2277 2078 1995
3010.0 1909 1790 1724 1741 1922 2163 2357 2399 2341 2232
3050.0 2325 2520 2566 2369 1958 1438 1225 1288 1436 1517
3090.0 1407 1128 773 506 339 267 207 230 203 218
3130.0 205 203 202 225 194 229 206 185 169 153
3170.0 131 136 136 144 140 137 112 121 118 93
3210.0 102 97 89 96 81 71 74 73 87 68
3250.0 65 64 60 57 59 43 58 50 50 43
3290.0 43 37 42 41 55 59 50 49 42 56
3330.0 41 64 43 76 51 58 43 68 53 73
3370.0 47 63 48 78 55 63 56 49 41 55
3410.0 47 43 58 61 55 46 53 38 53 21
3450.0 37 23 53 52 59 48 59 42 49 35
3490.0 65 59 51 50 53 43 58 59 35 66
3530.0 52 63 36 55 51 68 61 54 59 51
3570.0 64 54 52 72 66 78 66 62 67 72
3610.0 74 70 73 64 67 74 58 73 67 69
3650.0 52 67 56 58 67 82 82 81 95 77
3690.0 73 65 76 74 77 88 90 89 81 79
3730.0 86 87 89 90 82 77 84 69 65 57
3770.0 61 53 57 51 43 53 57 63 60 77
3810.0 55 73 76 73 78 83 79 97 85 86
3850.0 75 69 85 80 74 60 69 76 76 67
3890.0 74 89 83 79 78 75 81 76 69 62
3930.0 69 66 71 80 83 84 92 92 91 97
##END=
