##TITLE=Propanoic acid, 2-methylpropyl ester
##JCAMP-DX=4.24
##DATA TYPE=INFRARED SPECTRUM
##ORIGIN=Sadtler Research Labs Under US-EPA Contract
##OWNER=NIST Standard Reference Data Program
##CAS REGISTRY NO=540-42-1
##MOLFORM=C 7 H 14 O 2
##XUNITS=1/CM
##YUNITS=ABSORBANCE
##XFACTOR=1.0
##YFACTOR=0.000095169
##DELTAX=4.0
##FIRSTX=450.0
##LASTX=3966.0
##FIRSTY=0.006662
##MAXX=3966
##MINX=450
##MAXY=0.95169
##MINY=0
##NPOINTS=880
##XYDATA=(X++(Y..Y))
450.0 70 46 55 54 64 57 72 62 48 51
490.0 53 55 56 85 90 73 43 0 62 53
530.0 41 64 19 46 23 33 2 86 134 109
570.0 58 66 106 132 136 125 96 125 147 143
610.0 150 172 136 159 142 130 122 97 80 65
650.0 70 52 63 50 23 82 62 54 50 58
690.0 65 58 59 55 45 46 53 45 56 63
730.0 46 56 52 50 57 51 70 45 68 67
770.0 62 77 93 100 127 177 178 208 237 275
810.0 297 308 333 321 386 369 338 323 308 292
850.0 265 236 214 216 208 193 203 208 223 240
890.0 250 265 271 273 288 296 320 349 361 386
930.0 387 397 398 402 392 399 414 438 470 511
970.0 552 599 627 625 594 547 499 538 664 923
1010.0 1322 1875 2463 2824 2811 2502 1929 1384 1131 1120
1050.0 1233 1444 1724 2011 2275 2483 2643 2752 2746 2652
1090.0 2476 2147 1804 1545 1394 1321 1303 1304 1292 1284
1130.0 1279 1289 1343 1453 1672 2000 2491 3185 4113 5234
1170.0 6465 7663 8712 9480 9759 9539 9018 8154 7171 6257
1210.0 5486 4834 4249 3726 3271 2925 2662 2452 2315 2217
1250.0 2122 2039 1971 1921 1922 1947 1991 1988 1949 1823
1290.0 1611 1365 1125 910 781 743 784 924 1137 1391
1330.0 1638 1836 2022 2162 2284 2318 2211 1980 1677 1461
1370.0 1501 1756 2056 2134 1989 1634 1249 939 780 689
1410.0 622 541 559 532 582 630 718 750 807 856
1450.0 952 1123 1332 1660 1945 2047 1999 1724 1311 987
1490.0 719 515 390 318 288 242 223 200 189 160
1530.0 162 132 138 116 113 107 100 102 70 76
1570.0 68 79 62 74 62 69 65 76 65 72
1610.0 70 70 79 80 92 82 104 91 108 108
1650.0 135 112 126 130 136 139 162 156 202 212
1690.0 237 273 334 384 450 534 636 759 891 1100
1730.0 1437 1965 2824 4082 5777 7727 9375 10000 9772 8463
1770.0 6214 4205 2792 1863 1317 994 765 597 468 366
1810.0 294 241 200 173 149 132 112 105 103 99
1850.0 89 80 85 73 84 80 69 61 56 58
1890.0 55 48 46 46 36 37 38 35 48 37
1930.0 40 39 42 42 29 33 35 40 43 48
1970.0 47 44 48 49 51 54 47 52 53 64
2010.0 58 60 62 56 58 53 48 54 54 48
2050.0 49 43 33 44 42 42 43 37 39 43
2090.0 33 33 34 35 33 36 41 33 32 28
2130.0 27 28 22 18 22 22 21 21 25 24
2170.0 29 21 21 22 22 17 17 5 11 7
2210.0 7 7 7 10 5 8 7 11 6 12
2250.0 8 6 12 10 7 17 16 16 19 28
2290.0 29 32 35 32 29 35 32 28 19 17
2330.0 30 22 14 32 40 33 32 26 24 27
2370.0 16 25 30 26 29 23 21 17 21 16
2410.0 15 16 11 11 5 5 6 9 7 4
2450.0 6 12 11 7 11 11 7 9 6 6
2490.0 7 3 4 7 2 3 2 2 9 9
2530.0 9 9 3 6 5 4 4 4 9 9
2570.0 9 15 22 21 23 24 23 17 27 23
2610.0 21 16 16 21 17 18 22 24 33 33
2650.0 23 30 24 33 33 28 38 44 40 34
2690.0 34 35 31 34 35 39 44 50 60 77
2730.0 88 98 114 119 123 126 129 130 128 127
2770.0 122 119 115 119 130 131 130 126 126 126
2810.0 142 159 174 188 206 214 245 260 288 304
2850.0 333 373 411 477 595 784 1077 1479 1840 2122
2890.0 2342 2380 2338 2266 2156 2080 2037 2033 2063 2162
2930.0 2340 2587 2910 3297 3765 4217 4590 4954 5387 5958
2970.0 6668 6862 6800 6225 5117 3952 2948 2192 1619 1243
3010.0 988 805 662 546 456 378 319 267 227 205
3050.0 192 172 161 151 140 134 130 125 125 115
3090.0 103 97 96 96 97 91 86 83 88 88
3130.0 93 78 87 77 82 78 89 89 89 89
3170.0 89 84 91 88 83 87 89 78 72 71
3210.0 59 60 44 43 36 27 31 12 18 9
3250.0 22 19 8 1 5 11 5 16 17 17
3290.0 12 25 22 20 13 37 19 8 14 28
3330.0 24 24 24 25 19 21 19 21 19 30
3370.0 33 45 35 46 41 33 31 31 20 29
3410.0 22 16 25 24 28 19 23 19 14 16
3450.0 28 22 33 45 40 23 58 54 62 89
3490.0 109 130 120 120 95 79 66 36 44 42
3530.0 20 17 25 33 39 18 29 31 48 35
3570.0 32 57 44 63 42 42 43 43 38 38
3610.0 20 32 32 24 29 14 29 16 22 30
3650.0 16 30 27 31 43 39 54 52 48 33
3690.0 49 57 50 25 33 30 37 36 36 32
3730.0 19 29 24 31 33 39 34 33 26 35
3770.0 27 29 45 34 21 31 33 43 39 44
3810.0 41 34 38 34 31 35 34 28 36 35
3850.0 32 33 39 34 43 69 73 48 43 27
3890.0 40 38 35 42 52 37 42 47 47 41
3930.0 44 51 42 44 40 44 48 52 45 45
##END=
