##TITLE=Benzene, 1,4-difluoro-
##JCAMP-DX=4.24
##DATA TYPE=INFRARED SPECTRUM
##ORIGIN=Sadtler Research Labs Under US-EPA Contract
##OWNER=NIST Standard Reference Data Program
##CAS REGISTRY NO=540-36-3
##MOLFORM=C 6 H 4 F 2
##XUNITS=1/CM
##YUNITS=ABSORBANCE
##XFACTOR=1.0
##YFACTOR=0.000060162
##DELTAX=4.0
##FIRSTX=450.0
##LASTX=3966.0
##FIRSTY=0.003850
##MAXX=3966
##MINX=450
##MAXY=0.60162
##MINY=0
##NPOINTS=880
##XYDATA=(X++(Y..Y))
450.0 64 54 46 48 62 86 145 180 253 291
490.0 405 530 626 681 819 464 408 350 254 163
530.0 98 67 36 30 37 35 69 71 90 93
570.0 67 85 84 42 53 72 41 65 65 61
610.0 57 96 89 67 75 78 58 71 77 96
650.0 78 68 83 85 92 118 74 79 74 54
690.0 86 84 91 78 91 113 155 251 597 1216
730.0 2373 2989 2601 2493 2592 1498 430 121 107 113
770.0 139 165 149 132 159 151 90 139 218 344
810.0 530 823 1159 1447 1737 2019 3101 2484 1750 1624
850.0 1381 1053 666 460 320 286 245 211 202 185
890.0 134 110 103 97 100 106 97 102 104 99
930.0 99 116 109 102 103 102 107 107 107 111
970.0 106 114 104 114 121 115 124 142 160 182
1010.0 171 161 152 138 121 110 109 111 121 120
1050.0 129 146 183 202 266 348 470 554 414 422
1090.0 525 439 311 234 199 158 151 136 135 123
1130.0 129 130 137 123 122 131 140 166 202 325
1170.0 568 967 1320 1461 1629 1779 1790 1571 1654 2172
1210.0 2827 4080 5488 6000 5734 5179 4604 2250 909 410
1250.0 218 180 156 148 154 153 161 159 170 155
1290.0 156 162 169 170 165 152 142 123 140 153
1330.0 149 147 81 103 150 141 148 124 92 111
1370.0 124 89 110 136 116 132 108 90 143 181
1410.0 176 240 158 307 291 316 236 222 191 169
1450.0 129 115 24 128 151 157 57 115 228 262
1490.0 533 1506 3559 7110 10000 9799 9610 9015 6183 2622
1530.0 1045 770 604 278 127 140 102 29 75 144
1570.0 127 141 154 153 197 168 193 168 210 198
1610.0 207 232 200 270 219 285 228 202 218 165
1650.0 64 54 130 145 131 114 67 142 51 23
1690.0 89 114 0 14 64 119 88 22 147 203
1730.0 151 64 141 149 106 63 115 110 101 138
1770.0 73 60 116 92 100 96 73 86 63 117
1810.0 115 102 123 110 102 93 123 162 149 155
1850.0 237 292 291 266 262 243 256 215 179 159
1890.0 128 105 123 116 113 107 103 99 81 107
1930.0 109 102 108 88 97 111 111 106 111 105
1970.0 127 143 161 185 199 174 173 168 142 106
2010.0 97 90 81 96 93 92 96 96 91 95
2050.0 97 105 114 119 107 111 109 110 101 100
2090.0 87 89 94 88 89 82 82 87 79 78
2130.0 78 77 74 83 73 80 83 80 75 71
2170.0 77 75 71 68 68 74 66 75 63 72
2210.0 72 70 78 82 67 69 76 67 65 66
2250.0 57 61 65 53 54 52 55 52 57 54
2290.0 60 48 45 42 38 31 37 28 31 32
2330.0 42 33 55 71 53 41 62 70 63 30
2370.0 53 69 64 56 47 50 60 52 52 52
2410.0 54 53 60 63 61 67 78 70 78 78
2450.0 72 80 96 105 114 114 105 96 95 73
2490.0 61 58 58 59 59 59 60 59 59 67
2530.0 61 60 66 62 68 67 60 70 61 62
2570.0 63 63 63 63 63 63 64 64 64 64
2610.0 65 65 65 65 65 74 66 66 70 74
2650.0 84 79 75 69 68 67 59 68 68 69
2690.0 69 69 69 70 70 70 65 69 63 64
2730.0 63 63 72 63 71 68 73 73 73 73
2770.0 73 75 74 67 59 67 75 68 67 64
2810.0 70 74 68 69 76 77 79 70 69 77
2850.0 81 69 80 80 79 81 80 80 89 88
2890.0 89 90 89 82 82 80 71 80 73 85
2930.0 80 76 84 76 68 77 84 76 85 82
2970.0 71 76 83 79 79 70 78 71 72 87
3010.0 89 89 90 92 88 89 89 83 92 82
3050.0 91 114 157 184 224 219 204 181 148 102
3090.0 103 116 119 107 110 110 103 95 93 96
3130.0 96 90 95 95 110 100 97 80 90 97
3170.0 89 98 88 100 68 86 90 90 87 75
3210.0 78 95 95 86 76 82 84 71 87 82
3250.0 71 66 85 83 68 75 65 66 74 58
3290.0 62 73 71 61 61 60 52 53 67 67
3330.0 58 67 56 51 49 49 52 70 67 53
3370.0 61 64 63 63 63 45 52 66 46 59
3410.0 35 48 62 60 50 53 53 54 56 71
3450.0 62 53 50 52 62 60 68 64 47 50
3490.0 66 66 24 68 61 68 57 28 51 46
3530.0 63 80 56 65 82 82 65 61 71 57
3570.0 75 82 74 66 61 82 76 76 69 78
3610.0 69 48 69 63 91 79 85 87 71 65
3650.0 82 84 76 85 81 80 84 96 90 82
3690.0 77 89 90 91 109 94 105 103 85 95
3730.0 104 92 78 106 93 96 96 97 92 94
3770.0 102 97 86 99 104 95 103 102 111 112
3810.0 115 99 110 103 109 108 109 96 95 93
3850.0 95 97 99 102 104 99 108 111 104 101
3890.0 94 92 98 110 113 106 103 103 107 101
3930.0 103 104 99 96 93 91 95 98 102 95
##END=
