##TITLE=1,2-Ethanedithiol
##JCAMP-DX=4.24
##DATA TYPE=INFRARED SPECTRUM
##ORIGIN=Sadtler Research Labs Under US-EPA Contract
##OWNER=NIST Standard Reference Data Program
##CAS REGISTRY NO=540-63-6
##MOLFORM=C 2 H 6 S 2
##XUNITS=1/CM
##YUNITS=ABSORBANCE
##XFACTOR=1.0
##YFACTOR=0.000041180
##DELTAX=4.0
##FIRSTX=450.0
##LASTX=3966.0
##FIRSTY=0.000000
##MAXX=3966
##MINX=450
##MAXY=0.4118
##MINY=0
##NPOINTS=880
##XYDATA=(X++(Y..Y))
450.0 0 247 907 423 1275 854 1067 772 581 609
490.0 789 516 255 561 763 623 636 713 716 801
530.0 682 656 472 599 833 807 909 571 500 568
570.0 664 637 832 487 366 568 580 661 578 449
610.0 582 629 545 835 684 577 691 673 615 744
650.0 908 800 820 874 914 1278 1395 1874 2264 2641
690.0 3480 4227 4100 4052 4015 3349 2589 1891 1433 1487
730.0 1305 1105 1278 1539 1141 929 1217 1104 1225 1252
770.0 1334 1289 1497 1374 1119 877 834 1038 993 866
810.0 763 801 962 780 723 695 901 938 876 792
850.0 808 802 777 829 873 850 792 955 972 1048
890.0 1062 1063 1185 1142 1118 1174 1106 1135 1125 1132
930.0 1148 1213 1253 1396 1446 1512 1690 1811 1836 1955
970.0 1974 1956 1846 1771 1646 1509 1341 1157 989 890
1010.0 887 731 775 778 798 783 809 859 851 808
1050.0 786 693 687 629 641 649 646 629 636 618
1090.0 672 596 708 768 788 830 1068 1235 1419 1592
1130.0 1898 2162 2470 2493 2626 2729 2700 2567 2436 2293
1170.0 2173 2081 2065 2038 2035 2148 2316 2668 3198 4138
1210.0 5227 5741 5591 5602 5606 4652 3369 2426 2047 1866
1250.0 1931 2176 2726 3674 4921 6163 6779 6908 6793 6687
1290.0 6119 5001 3886 3422 3104 2771 2435 2076 1736 1382
1330.0 1062 844 693 641 605 580 591 602 594 581
1370.0 610 641 671 742 770 847 968 1105 1377 1625
1410.0 2003 2463 2887 3359 3656 3768 3841 3507 3228 2843
1450.0 2400 2099 1787 1445 1249 1059 930 827 735 692
1490.0 616 589 541 537 561 548 510 528 483 510
1530.0 449 481 475 487 474 465 468 457 481 423
1570.0 429 426 435 433 422 417 452 453 487 486
1610.0 508 554 588 609 630 678 682 708 693 619
1650.0 623 545 519 494 524 543 550 570 569 593
1690.0 580 591 636 660 647 677 690 700 683 629
1730.0 604 553 572 581 550 469 362 303 309 353
1770.0 403 424 427 436 438 433 417 422 393 409
1810.0 388 392 395 375 392 383 371 372 372 366
1850.0 342 338 347 341 354 334 349 338 337 331
1890.0 344 341 345 346 345 355 354 365 367 365
1930.0 369 374 377 387 397 392 405 415 410 429
1970.0 440 450 461 460 444 432 425 402 383 374
2010.0 356 348 340 340 325 334 321 325 331 330
2050.0 336 329 337 342 344 337 344 346 340 340
2090.0 339 349 345 348 355 348 342 342 352 342
2130.0 343 342 344 339 344 350 348 348 353 356
2170.0 353 354 353 351 348 345 340 343 337 329
2210.0 330 323 328 335 339 328 333 340 324 330
2250.0 328 332 323 318 323 318 310 303 305 301
2290.0 292 280 280 276 276 276 274 271 270 272
2330.0 287 287 299 329 317 324 288 307 314 345
2370.0 355 325 339 343 341 350 349 360 377 370
2410.0 370 381 377 373 369 377 372 370 364 370
2450.0 378 379 378 382 372 377 374 371 352 351
2490.0 355 347 345 333 332 328 313 320 323 322
2530.0 330 327 337 356 369 405 426 473 537 637
2570.0 770 937 1113 1237 1364 1427 1385 1268 1146 984
2610.0 823 709 625 571 517 467 430 422 404 386
2650.0 380 379 372 368 356 359 347 355 366 376
2690.0 381 412 447 477 493 512 526 545 534 517
2730.0 494 469 445 430 393 381 376 362 349 351
2770.0 358 376 373 365 384 392 413 452 499 545
2810.0 637 708 813 960 1045 1145 1250 1345 1406 1464
2850.0 1514 1532 1507 1490 1443 1344 1238 1150 1088 1043
2890.0 1071 1155 1355 1696 2191 2846 3658 4623 5716 6986
2930.0 8023 8017 7814 8885 10000 9377 8743 8276 7837 7321
2970.0 6653 6248 5834 5131 4426 3904 3246 2618 2147 1773
3010.0 1492 1262 1064 899 795 701 621 553 523 489
3050.0 471 455 448 422 402 401 401 397 379 373
3090.0 377 384 382 357 367 366 351 358 365 360
3130.0 376 370 366 373 371 389 380 388 381 385
3170.0 385 378 380 365 377 356 361 384 373 365
3210.0 373 366 391 371 375 380 362 357 344 351
3250.0 345 333 318 333 331 313 318 314 299 310
3290.0 299 293 294 308 303 333 317 317 308 314
3330.0 332 345 363 377 389 383 391 378 373 368
3370.0 351 329 330 327 308 311 322 317 311 316
3410.0 321 318 289 295 284 310 297 277 280 272
3450.0 268 279 275 293 286 300 297 288 302 299
3490.0 317 332 305 313 318 340 363 354 360 376
3530.0 395 376 383 374 390 396 379 363 377 374
3570.0 407 376 344 362 359 347 362 344 363 368
3610.0 397 397 365 399 338 351 337 350 336 331
3650.0 280 340 288 323 302 284 313 301 307 280
3690.0 330 318 300 321 353 311 335 312 324 344
3730.0 407 356 369 387 332 366 327 345 345 302
3770.0 284 299 308 318 310 292 299 339 335 348
3810.0 293 340 342 334 351 337 297 340 285 299
3850.0 315 385 345 319 384 386 372 392 392 337
3890.0 392 369 404 373 374 378 358 333 321 294
3930.0 363 344 294 338 324 312 351 361 408 406
##END=
