##TITLE=Ethanol, 2-bromo-
##JCAMP-DX=4.24
##DATA TYPE=INFRARED SPECTRUM
##ORIGIN=Sadtler Research Labs Under US-EPA Contract
##OWNER=NIST Standard Reference Data Program
##CAS REGISTRY NO=540-51-2
##MOLFORM=C 2 H 5 Br O
##XUNITS=1/CM
##YUNITS=ABSORBANCE
##XFACTOR=1.0
##YFACTOR=0.000072644
##DELTAX=4.0
##FIRSTX=450.0
##LASTX=3966.0
##FIRSTY=0.122986
##MAXX=3966
##MINX=450
##MAXY=0.72644
##MINY=0
##NPOINTS=880
##XYDATA=(X++(Y..Y))
450.0 1693 1529 1310 1464 1049 835 495 433 314 241
490.0 254 251 218 188 238 158 248 244 240 213
530.0 287 279 330 370 468 658 767 1024 1208 1446
570.0 1575 1780 1802 1752 1457 1173 1164 994 799 445
610.0 298 289 307 289 302 333 376 390 383 404
650.0 412 474 496 605 778 1015 1377 1673 1770 1660
690.0 1682 1501 1020 555 250 177 98 101 53 70
730.0 25 35 33 45 71 48 92 51 88 76
770.0 102 106 128 109 54 95 86 106 71 96
810.0 100 135 177 213 238 230 277 269 307 273
850.0 262 234 240 267 276 317 350 438 474 562
890.0 681 872 1197 1713 2284 2478 2569 2478 2490 2573
930.0 2035 1366 973 749 608 524 475 475 492 535
970.0 602 709 810 923 1049 1174 1320 1486 1761 2052
1010.0 2494 2999 3678 4503 5399 6206 6914 7544 7707 7862
1050.0 7715 7637 7970 8850 9643 10000 9551 8900 9203 9163
1090.0 7745 5774 4489 3458 2764 2344 1854 1768 1526 1492
1130.0 1385 1351 1309 1277 1254 1275 1362 1398 1491 1642
1170.0 1924 2210 2287 2219 2289 2355 2305 2111 2023 2007
1210.0 1925 1921 1925 1868 1739 1672 1705 1845 2161 2615
1250.0 3294 3921 4118 3922 4101 4822 4624 3811 3030 2535
1290.0 2103 1769 1493 1315 1197 1141 1146 1162 1234 1302
1330.0 1402 1494 1688 1854 2015 2107 2156 2233 2337 2672
1370.0 2855 3292 3493 3593 3259 3388 3578 3038 2309 1894
1410.0 1733 1719 1909 2092 2024 1884 1961 2033 2068 1598
1450.0 1327 1212 1162 1057 948 874 798 702 584 551
1490.0 475 424 372 339 296 284 235 190 165 141
1530.0 131 99 69 38 67 58 48 11 22 29
1570.0 14 31 22 39 28 39 42 45 48 46
1610.0 47 38 34 43 30 39 33 33 31 40
1650.0 15 25 40 42 37 46 31 50 21 28
1690.0 28 28 21 40 53 56 79 70 97 106
1730.0 110 106 105 115 117 130 138 163 170 186
1770.0 152 131 113 109 88 83 56 62 66 61
1810.0 49 64 65 61 72 59 69 59 60 47
1850.0 45 36 39 34 34 41 44 49 54 63
1890.0 68 76 78 81 76 80 79 75 61 49
1930.0 38 39 36 31 28 30 34 32 36 36
1970.0 39 43 44 52 45 51 55 57 58 63
2010.0 62 62 63 67 72 76 76 89 94 104
2050.0 103 102 104 109 112 111 105 100 86 84
2090.0 75 63 66 58 58 58 59 66 67 72
2130.0 75 86 95 96 89 88 92 97 87 82
2170.0 80 81 78 75 76 72 69 69 64 63
2210.0 65 64 65 68 73 79 81 81 87 86
2250.0 90 81 84 76 74 67 65 56 60 57
2290.0 52 53 50 48 37 38 22 18 15 2
2330.0 2 2 17 0 46 29 2 2 1 47
2370.0 74 97 104 109 107 85 76 77 84 86
2410.0 94 99 107 112 124 133 135 141 143 150
2450.0 137 139 130 118 116 99 92 87 83 79
2490.0 72 74 76 75 84 79 84 89 96 98
2530.0 94 99 94 89 93 94 81 79 79 71
2570.0 75 75 83 80 79 85 93 93 89 93
2610.0 94 88 86 89 87 91 100 104 113 110
2650.0 106 116 128 143 153 175 187 221 233 247
2690.0 256 269 276 274 267 262 265 264 276 280
2730.0 297 301 313 321 334 330 335 330 320 317
2770.0 305 296 286 286 281 286 302 316 335 352
2810.0 381 408 428 467 529 596 663 758 860 1004
2850.0 1180 1441 1721 2110 2483 2757 3030 3184 3332 3391
2890.0 3206 3023 2919 2788 2740 2815 2917 3070 3247 3488
2930.0 3937 4230 4067 4095 3974 3900 3938 3948 3990 3999
2970.0 3878 3494 3358 3267 2997 2442 1978 1623 1382 1223
3010.0 1080 1023 953 895 920 870 658 638 551 480
3050.0 414 343 305 251 231 189 186 162 139 143
3090.0 129 130 120 114 108 118 105 112 105 107
3130.0 104 104 107 95 98 98 110 114 121 116
3170.0 112 109 133 133 132 149 149 147 133 111
3210.0 114 90 83 72 76 62 80 61 54 51
3250.0 70 61 69 77 96 92 109 109 101 118
3290.0 99 95 86 64 60 75 59 64 54 66
3330.0 58 60 59 56 56 55 48 57 55 42
3370.0 70 57 56 50 30 36 47 36 25 22
3410.0 30 45 19 17 40 36 43 24 43 35
3450.0 33 44 36 55 58 88 110 127 152 152
3490.0 135 113 116 111 99 81 92 76 82 72
3530.0 61 97 115 81 100 107 102 76 100 153
3570.0 162 154 184 251 349 470 577 778 1237 1854
3610.0 2303 2264 2275 2405 2614 2293 1956 1724 1495 1352
3650.0 1344 1529 1775 1849 1844 1894 1902 1573 1202 904
3690.0 684 484 393 312 287 273 246 216 209 224
3730.0 189 195 255 223 284 244 261 281 279 252
3770.0 220 210 130 140 121 125 77 112 89 120
3810.0 146 127 171 142 175 131 160 139 137 128
3850.0 114 130 177 124 167 177 137 163 147 200
3890.0 132 145 165 144 164 158 107 121 124 85
3930.0 108 221 147 166 180 195 186 191 197 138
##END=
