##TITLE=Hexanoic acid, pentyl ester
##JCAMP-DX=4.24
##DATA TYPE=INFRARED SPECTRUM
##ORIGIN=Sadtler Research Labs Under US-EPA Contract
##OWNER=NIST Standard Reference Data Program
##CAS REGISTRY NO=540-07-8
##MOLFORM=C 11 H 22 O 2
##XUNITS=1/CM
##YUNITS=ABSORBANCE
##XFACTOR=1.0
##YFACTOR=0.000083664
##DELTAX=4.0
##FIRSTX=450.0
##LASTX=3966.0
##FIRSTY=0.000000
##MAXX=3966
##MINX=450
##MAXY=0.83664
##MINY=0
##NPOINTS=880
##XYDATA=(X++(Y..Y))
450.0 0 248 337 251 294 313 345 294 326 404
490.0 264 309 310 327 332 336 317 306 344 308
530.0 332 343 352 309 302 299 311 326 283 319
570.0 295 296 351 346 414 382 336 358 355 374
610.0 362 352 367 370 372 344 379 378 338 330
650.0 349 343 323 346 333 342 337 326 323 313
690.0 344 350 360 378 398 402 424 447 506 500
730.0 564 571 577 560 519 487 461 445 430 435
770.0 440 445 440 424 422 411 408 403 389 387
810.0 381 378 395 394 385 409 418 419 426 457
850.0 456 465 474 473 491 499 527 534 544 562
890.0 564 568 551 546 534 527 510 496 476 469
930.0 470 473 482 494 511 522 548 569 620 708
970.0 839 982 1103 1211 1277 1332 1350 1355 1328 1270
1010.0 1179 1090 1046 1036 1086 1143 1222 1280 1355 1410
1050.0 1383 1274 1165 1125 1162 1242 1325 1405 1483 1613
1090.0 1839 2136 2441 2634 2679 2604 2426 2175 1915 1729
1130.0 1655 1661 1746 1948 2273 2785 3532 4629 6007 7324
1170.0 8037 7805 6859 5615 4568 3792 3262 2985 2931 3032
1210.0 3190 3344 3469 3595 3729 3876 4017 4136 4195 4101
1250.0 3830 3446 3028 2631 2361 2191 2089 2001 1942 1935
1290.0 1955 1968 1907 1836 1778 1744 1709 1645 1549 1460
1330.0 1406 1437 1534 1677 1794 1847 1832 1752 1629 1485
1370.0 1335 1216 1199 1299 1425 1434 1291 1086 902 784
1410.0 717 710 724 784 859 957 1039 1100 1150 1205
1450.0 1311 1467 1642 1806 1875 1825 1618 1331 1057 836
1490.0 684 589 525 484 454 426 413 399 389 388
1530.0 379 372 366 354 352 353 347 336 342 338
1570.0 337 335 342 339 342 335 338 339 343 336
1610.0 336 337 326 337 329 336 330 337 337 339
1650.0 337 342 356 356 370 371 380 396 410 426
1690.0 458 495 518 589 665 767 847 955 1100 1310
1730.0 1593 2045 2819 4117 6290 8630 10000 9191 6900 4474
1770.0 2873 1996 1529 1220 1010 845 728 648 584 544
1810.0 514 480 448 425 397 378 366 362 349 341
1850.0 341 342 336 333 331 327 328 326 331 323
1890.0 321 322 319 323 321 317 316 318 313 320
1930.0 320 319 320 320 320 323 323 319 322 319
1970.0 323 319 320 320 323 319 317 316 314 315
2010.0 313 311 310 314 311 312 313 315 324 322
2050.0 326 330 330 324 320 328 322 324 331 330
2090.0 323 323 318 314 314 313 315 307 308 308
2130.0 304 304 304 302 305 300 300 301 297 298
2170.0 303 297 299 300 295 292 293 293 292 291
2210.0 291 290 292 295 289 292 293 295 292 290
2250.0 290 287 285 288 291 289 289 287 289 292
2290.0 293 294 301 304 312 318 324 331 346 339
2330.0 339 327 321 316 285 308 359 355 288 252
2370.0 252 252 252 252 262 275 285 288 285 289
2410.0 284 288 287 282 281 276 274 275 275 270
2450.0 271 272 272 271 267 275 270 265 260 267
2490.0 262 264 262 260 260 258 266 262 263 263
2530.0 257 258 255 252 257 255 254 260 256 262
2570.0 264 269 268 273 280 276 276 277 272 276
2610.0 274 276 275 275 281 274 284 286 287 293
2650.0 299 309 321 321 334 341 343 353 353 358
2690.0 350 352 349 345 339 330 338 337 336 347
2730.0 349 362 376 398 393 397 393 383 372 378
2770.0 381 386 396 406 408 431 441 455 460 477
2810.0 506 531 558 594 634 690 751 825 932 1073
2850.0 1305 1624 2077 2634 3223 3687 3889 3905 3891 3799
2890.0 3499 3098 2882 2920 3128 3446 3864 4426 5111 5926
2930.0 6810 7710 8402 8760 8498 7887 7218 7216 7977 8936
2970.0 9315 8422 6576 4665 3326 2502 1946 1542 1252 1060
3010.0 920 829 730 678 629 589 553 524 498 474
3050.0 442 425 410 394 405 380 377 379 366 367
3090.0 368 361 353 345 332 344 336 326 322 326
3130.0 331 323 314 306 312 316 323 316 326 339
3170.0 332 338 334 353 332 311 327 329 329 338
3210.0 320 325 300 309 323 299 315 313 311 312
3250.0 319 309 306 312 318 302 313 310 311 317
3290.0 308 306 296 287 288 287 283 269 285 282
3330.0 252 264 274 273 270 269 281 263 284 288
3370.0 270 284 289 276 276 270 286 274 283 280
3410.0 285 280 302 281 272 275 287 284 293 290
3450.0 279 289 296 293 307 289 317 332 348 367
3490.0 359 322 354 323 293 278 287 300 281 294
3530.0 262 280 283 299 285 295 295 292 286 297
3570.0 290 285 293 304 307 300 292 312 309 303
3610.0 268 284 306 311 309 299 306 300 318 312
3650.0 301 274 299 302 302 310 312 315 337 327
3690.0 309 292 296 302 326 313 304 307 336 315
3730.0 317 308 295 268 294 303 281 293 311 307
3770.0 302 316 305 316 296 323 312 321 320 330
3810.0 296 295 323 323 275 273 275 324 301 325
3850.0 298 284 285 275 278 318 300 272 265 293
3890.0 287 302 267 327 256 298 277 280 299 260
3930.0 281 282 301 263 253 290 303 275 252 295
##END=
