##TITLE=Ethene, 1,2-dibromo-
##JCAMP-DX=4.24
##DATA TYPE=INFRARED SPECTRUM
##ORIGIN=Sadtler Research Labs Under US-EPA Contract
##OWNER=NIST Standard Reference Data Program
##CAS REGISTRY NO=540-49-8
##MOLFORM=C 2 H 2 Br 2
##XUNITS=1/CM
##YUNITS=ABSORBANCE
##XFACTOR=1.0
##YFACTOR=0.000093555
##DELTAX=4.0
##FIRSTX=450.0
##LASTX=3966.0
##FIRSTY=0.083544
##MAXX=3966
##MINX=450
##MAXY=0.93555
##MINY=0
##NPOINTS=880
##XYDATA=(X++(Y..Y))
450.0 893 699 865 795 618 430 151 20 22 104
490.0 160 223 277 307 231 145 74 89 136 100
530.0 209 258 304 332 310 343 302 387 476 744
570.0 815 946 999 948 830 757 624 407 274 212
610.0 287 291 259 254 271 293 425 658 1178 1894
650.0 2740 3784 4463 4769 5686 10000 6589 8141 9271 8610
690.0 6754 4097 1125 593 394 223 202 224 277 441
730.0 848 1559 2355 3541 6231 8991 7826 6687 6820 3434
770.0 586 92 171 159 157 116 104 78 99 120
810.0 212 225 326 333 366 371 377 376 379 388
850.0 471 558 587 664 698 734 801 845 971 1062
890.0 1160 1336 1488 1407 1087 1012 911 921 1012 1030
930.0 985 908 818 698 595 494 421 360 318 285
970.0 252 231 183 149 127 109 104 110 104 121
1010.0 117 128 121 119 117 117 138 168 190 207
1050.0 217 202 175 156 138 115 97 116 125 135
1090.0 165 151 163 142 152 177 202 222 271 311
1130.0 336 361 364 425 578 887 1860 2943 2878 3168
1170.0 1988 902 478 360 295 287 281 273 255 238
1210.0 232 232 226 237 251 280 301 322 450 783
1250.0 1574 4303 8342 7200 6229 6554 3365 1090 293 132
1290.0 117 120 117 112 117 139 174 207 266 304
1330.0 330 346 321 308 314 242 194 221 274 358
1370.0 389 345 331 269 174 132 102 115 123 120
1410.0 110 101 78 88 93 99 109 103 116 118
1450.0 127 128 127 156 165 208 251 294 332 386
1490.0 421 442 416 373 406 417 363 395 583 953
1530.0 1436 1518 1292 1244 905 483 414 534 749 1029
1570.0 1326 1663 1992 2212 2183 2120 2418 2123 1572 1228
1610.0 952 707 566 523 532 463 401 332 238 184
1650.0 141 127 134 126 112 97 94 100 91 85
1690.0 80 68 67 73 96 116 142 164 190 203
1730.0 203 200 202 206 205 217 238 227 200 196
1770.0 191 161 137 121 108 102 91 91 85 69
1810.0 58 53 44 46 53 56 68 68 62 47
1850.0 41 46 41 41 51 57 60 65 55 56
1890.0 50 42 45 52 54 64 69 69 69 65
1930.0 71 70 74 67 72 57 54 57 58 46
1970.0 36 42 31 36 53 62 62 64 66 67
2010.0 61 55 55 55 70 71 71 57 55 43
2050.0 33 26 39 42 43 59 53 49 47 42
2090.0 31 31 31 39 47 46 49 47 42 35
2130.0 36 31 36 41 51 52 53 48 44 41
2170.0 41 40 38 44 54 60 59 48 46 38
2210.0 34 31 35 36 41 46 43 42 31 26
2250.0 21 21 32 35 41 43 45 42 31 29
2290.0 25 35 35 49 57 43 43 27 17 1
2330.0 1 1 1 21 16 1 1 1 1 1
2370.0 1 4 27 39 46 47 51 57 46 45
2410.0 45 41 51 52 52 58 45 36 24 16
2450.0 18 23 33 38 38 40 26 28 20 11
2490.0 11 20 22 26 26 37 31 15 15 15
2530.0 10 11 23 26 29 30 26 16 14 9
2570.0 9 19 24 30 32 29 26 14 13 11
2610.0 12 22 22 38 37 33 27 26 19 10
2650.0 7 18 27 26 30 25 10 14 14 4
2690.0 11 20 24 39 37 35 25 21 21 25
2730.0 37 47 58 64 62 40 42 34 27 20
2770.0 16 22 26 31 36 37 32 21 16 14
2810.0 27 42 52 77 92 125 142 127 105 110
2850.0 82 63 51 64 71 84 76 69 79 69
2890.0 75 91 107 102 96 101 86 84 86 96
2930.0 111 133 149 154 164 159 155 168 182 192
2970.0 194 197 183 161 140 105 93 78 56 57
3010.0 57 70 76 73 58 56 54 46 53 88
3050.0 112 181 302 540 964 1699 2300 2017 2050 2068
3090.0 997 978 713 863 478 146 90 71 65 61
3130.0 57 78 68 66 52 37 24 22 17 33
3170.0 34 34 37 39 35 20 12 9 13 16
3210.0 33 44 44 45 32 16 2 4 11 12
3250.0 35 42 50 43 30 14 13 25 5 16
3290.0 31 50 49 31 25 16 14 10 14 24
3330.0 25 41 50 29 34 17 15 10 10 28
3370.0 28 52 57 25 26 24 10 7 19 30
3410.0 38 48 48 48 21 16 22 16 33 37
3450.0 40 34 42 33 21 21 19 14 18 38
3490.0 44 48 48 37 31 17 17 18 21 45
3530.0 55 54 60 55 33 30 28 27 27 36
3570.0 44 55 44 29 15 8 19 13 25 35
3610.0 50 46 39 32 20 9 19 19 29 51
3650.0 51 67 36 50 35 27 21 22 30 40
3690.0 41 43 53 21 15 15 11 10 22 31
3730.0 41 45 41 23 9 5 10 22 28 43
3770.0 48 49 42 33 30 24 23 22 50 66
3810.0 79 95 96 90 85 71 63 69 83 90
3850.0 100 97 62 45 29 13 2 16 34 58
3890.0 72 60 51 28 4 1 1 1 14 35
3930.0 56 61 38 21 0 1 1 1 1 1
##END=
