##TITLE=Propane, 1-chloro-
##JCAMP-DX=4.24
##DATA TYPE=INFRARED SPECTRUM
##ORIGIN=Sadtler Research Labs Under US-EPA Contract
##OWNER=NIST Standard Reference Data Program
##CAS REGISTRY NO=540-54-5
##MOLFORM=C 3 H 7 Cl
##XUNITS=1/CM
##YUNITS=ABSORBANCE
##XFACTOR=1.0
##YFACTOR=0.000052563
##DELTAX=4.0
##FIRSTX=450.0
##LASTX=3966.0
##FIRSTY=0.000000
##MAXX=3966
##MINX=450
##MAXY=0.52563
##MINY=0
##NPOINTS=880
##XYDATA=(X++(Y..Y))
450.0 0 55 128 101 82 113 136 139 93 111
490.0 140 162 176 156 131 149 151 100 100 146
530.0 128 144 207 144 151 113 156 122 147 170
570.0 141 148 128 139 128 105 117 177 129 187
610.0 178 186 207 255 311 437 575 722 958 1261
650.0 1500 1572 1555 1631 1577 1759 1580 1032 571 425
690.0 340 296 271 294 324 380 485 631 861 1207
730.0 1600 1884 2015 2009 2134 2168 1990 1370 818 609
770.0 616 708 918 1194 1331 1347 1507 1316 1419 1398
810.0 1152 831 582 450 371 364 412 470 592 686
850.0 684 701 736 731 768 735 658 687 841 1013
890.0 1147 1224 1175 1135 1213 1165 817 500 324 264
930.0 203 188 166 161 156 139 153 143 144 147
970.0 143 139 143 141 144 148 154 152 165 177
1010.0 200 232 272 309 360 397 403 415 422 392
1050.0 397 386 349 306 294 267 254 268 269 260
1090.0 249 245 243 232 226 222 217 207 189 188
1130.0 199 192 183 175 170 167 159 152 149 153
1170.0 142 148 147 154 154 159 163 180 187 186
1210.0 180 204 207 220 235 268 323 433 623 876
1250.0 1128 1242 1337 1435 1459 1417 1303 1190 1142 1293
1290.0 1570 1827 1878 2045 2023 2184 2271 1954 1580 1380
1330.0 1260 1155 966 750 653 621 551 471 394 406
1370.0 470 580 685 715 745 741 792 850 745 574
1410.0 492 437 463 493 605 737 992 1206 1472 1465
1450.0 1758 1770 1789 1875 1769 1557 1365 1230 1114 1001
1490.0 838 711 583 520 425 356 321 269 229 195
1530.0 205 150 165 127 142 135 134 120 114 140
1570.0 129 161 131 171 146 164 150 156 141 145
1610.0 138 138 131 125 141 119 131 118 133 99
1650.0 159 69 134 118 129 97 134 96 131 107
1690.0 119 112 122 81 119 116 119 109 119 114
1730.0 115 99 111 109 125 111 107 104 99 100
1770.0 87 91 98 93 74 88 74 91 80 85
1810.0 84 89 76 95 78 95 96 88 99 84
1850.0 90 86 89 88 95 83 91 92 92 94
1890.0 88 96 91 96 95 89 97 83 98 90
1930.0 92 90 85 84 85 75 78 81 78 80
1970.0 77 74 74 75 73 79 72 76 72 74
2010.0 72 76 74 80 76 78 79 82 84 87
2050.0 82 87 85 83 84 90 83 87 87 85
2090.0 87 84 88 88 85 85 84 87 88 86
2130.0 88 88 88 87 87 84 81 81 82 87
2170.0 88 80 87 87 87 90 86 92 90 88
2210.0 86 88 92 90 91 91 94 97 97 97
2250.0 99 98 94 93 94 91 89 92 96 94
2290.0 94 97 89 88 87 90 88 90 92 84
2330.0 85 82 87 87 98 81 77 72 70 83
2370.0 85 89 89 78 79 79 79 73 81 79
2410.0 78 76 84 82 84 82 86 83 85 81
2450.0 82 83 74 75 74 71 73 75 68 74
2490.0 75 77 76 74 77 77 81 78 80 78
2530.0 78 81 78 75 78 80 77 79 72 68
2570.0 65 58 61 64 72 64 69 66 62 64
2610.0 70 66 64 60 65 72 75 74 79 81
2650.0 84 86 92 98 97 109 112 115 116 119
2690.0 118 124 127 128 128 132 129 132 126 129
2730.0 135 137 146 161 174 178 194 198 196 194
2770.0 191 186 181 180 187 193 202 211 222 230
2810.0 241 255 269 301 335 380 439 516 614 753
2850.0 915 1074 1193 1324 1526 1773 2108 2520 2833 2799
2890.0 2738 2948 3158 3165 3026 2940 2959 2994 3122 3349
2930.0 3686 4118 4526 4867 5302 5822 6319 6897 7232 7835
2970.0 8298 9359 10000 8590 8098 8074 7266 6778 5558 4211
3010.0 3287 2569 2023 1577 1227 949 732 576 459 379
3050.0 329 295 272 260 250 242 236 234 237 238
3090.0 248 252 241 241 235 239 226 216 195 176
3130.0 163 163 151 152 147 148 153 156 161 162
3170.0 164 171 167 168 162 160 162 145 140 133
3210.0 128 122 119 116 108 101 93 88 81 84
3250.0 77 82 77 71 81 79 77 76 70 69
3290.0 72 63 72 76 68 68 68 71 70 75
3330.0 77 78 86 82 84 88 89 83 84 91
3370.0 90 78 91 86 81 94 87 83 94 91
3410.0 93 86 92 92 91 88 93 82 85 89
3450.0 85 84 79 86 80 78 69 87 77 88
3490.0 79 91 90 72 86 82 93 86 72 79
3530.0 83 85 80 85 79 100 86 103 73 89
3570.0 85 84 84 83 93 69 91 108 96 99
3610.0 70 90 90 89 115 72 117 103 89 100
3650.0 86 115 94 108 113 79 98 87 110 112
3690.0 93 105 104 110 112 110 103 108 114 116
3730.0 91 86 97 118 57 113 81 107 111 108
3770.0 106 101 113 106 97 109 121 97 119 126
3810.0 111 101 117 82 121 93 100 80 100 90
3850.0 92 57 94 98 91 91 101 80 82 81
3890.0 111 87 102 52 82 73 89 80 95 85
3930.0 104 96 96 105 92 91 97 112 116 111
##END=
