##TITLE=Pentane, 2,2,4-trimethyl-
##JCAMP-DX=4.24
##DATA TYPE=INFRARED SPECTRUM
##ORIGIN=Sadtler Research Labs Under US-EPA Contract
##OWNER=NIST Standard Reference Data Program
##CAS REGISTRY NO=540-84-1
##MOLFORM=C 8 H 18
##XUNITS=1/CM
##YUNITS=ABSORBANCE
##XFACTOR=1.0
##YFACTOR=0.000190738
##DELTAX=4.0
##FIRSTX=450.0
##LASTX=3966.0
##FIRSTY=0.083543
##MAXX=3966
##MINX=450
##MAXY=1.90738
##MINY=0
##NPOINTS=880
##XYDATA=(X++(Y..Y))
450.0 438 322 105 12 102 201 100 56 243 227
490.0 74 193 111 104 480 135 134 75 179 151
530.0 122 89 120 56 111 368 95 84 38 152
570.0 190 31 248 283 211 133 156 143 175 134
610.0 138 179 139 181 115 138 134 146 139 142
650.0 128 134 139 130 146 137 156 125 154 130
690.0 142 135 142 133 127 138 123 136 111 125
730.0 143 142 133 160 130 139 147 134 130 111
770.0 147 114 119 118 125 110 120 124 118 128
810.0 130 142 140 164 153 129 112 114 119 141
850.0 142 129 137 140 124 121 132 121 126 126
890.0 120 136 127 137 136 146 146 160 166 168
930.0 169 158 153 137 137 132 133 143 161 152
970.0 213 236 237 240 222 188 152 136 123 129
1010.0 149 114 108 107 110 106 113 109 110 104
1050.0 111 107 110 107 105 109 107 112 108 117
1090.0 116 123 123 126 124 126 122 119 120 118
1130.0 124 122 127 126 136 145 170 209 252 292
1170.0 298 305 282 252 233 257 301 354 402 414
1210.0 394 335 273 217 197 208 251 302 349 368
1250.0 352 317 261 207 173 169 175 184 192 196
1290.0 193 187 178 166 157 144 145 139 138 139
1330.0 148 162 187 240 329 455 623 841 1038 1243
1370.0 1372 1272 1167 981 847 774 712 681 574 478
1410.0 347 225 186 174 182 197 221 260 314 376
1450.0 463 582 739 923 1085 1244 1361 1344 1212 1042
1490.0 825 601 406 262 196 146 122 104 92 90
1530.0 78 81 75 76 70 71 70 71 68 70
1570.0 70 68 70 65 71 68 72 67 67 66
1610.0 65 67 61 64 61 65 60 64 63 63
1650.0 61 64 62 62 63 61 62 60 61 59
1690.0 60 59 58 59 59 60 57 58 55 56
1730.0 54 53 50 48 47 46 48 43 45 42
1770.0 42 41 41 41 39 41 38 37 38 40
1810.0 37 40 38 37 37 39 38 34 37 36
1850.0 38 33 36 34 36 31 34 33 31 34
1890.0 31 33 31 32 30 30 30 32 32 32
1930.0 37 30 33 31 32 28 29 25 26 22
1970.0 24 24 22 22 18 18 15 17 17 19
2010.0 18 20 24 22 21 21 23 19 19 19
2050.0 17 16 15 15 13 14 11 14 10 12
2090.0 8 10 10 11 13 11 13 11 12 9
2130.0 10 7 9 11 9 9 7 7 7 9
2170.0 9 8 8 9 10 11 9 10 11 5
2210.0 7 6 8 4 2 1 1 1 2 2
2250.0 3 6 3 6 5 7 8 8 12 14
2290.0 15 14 16 14 13 14 9 9 7 7
2330.0 5 4 3 6 5 8 4 5 5 11
2370.0 12 8 15 16 18 16 17 14 16 18
2410.0 15 16 14 17 14 11 9 10 9 11
2450.0 12 10 12 12 13 13 16 15 15 15
2490.0 15 17 14 12 12 13 11 14 11 11
2530.0 12 15 15 17 21 19 24 26 32 30
2570.0 34 37 40 41 42 44 46 50 50 48
2610.0 46 46 48 49 48 50 51 50 50 49
2650.0 49 48 49 49 49 53 58 62 68 76
2690.0 78 85 85 91 93 100 112 121 135 142
2730.0 149 147 144 132 125 120 116 116 114 112
2770.0 113 113 114 121 128 137 145 158 174 193
2810.0 217 245 279 310 354 404 473 553 659 770
2850.0 894 1025 1183 1433 1797 2247 2691 3006 3162 3228
2890.0 3268 3321 3444 3632 3873 4016 3978 3792 3580 3419
2930.0 3442 3657 4092 4716 5623 6840 8152 9324 10000 9705
2970.0 8774 7136 5228 3626 2396 1604 1139 848 656 516
3010.0 410 324 261 213 183 157 143 132 119 108
3050.0 110 106 100 100 97 99 100 94 94 90
3090.0 89 83 87 86 81 84 79 78 81 85
3130.0 82 87 88 92 93 96 93 102 102 103
3170.0 103 104 109 104 99 102 102 97 107 103
3210.0 99 99 89 86 83 81 70 60 61 58
3250.0 46 46 49 41 34 36 32 33 34 26
3290.0 29 26 25 31 31 34 37 37 37 40
3330.0 34 31 27 37 38 34 32 33 38 36
3370.0 35 39 31 35 36 38 29 28 33 35
3410.0 29 24 19 14 23 25 20 21 19 13
3450.0 28 16 22 24 20 20 19 25 19 17
3490.0 18 15 16 21 7 18 14 14 6 25
3530.0 13 11 17 11 17 6 21 11 26 6
3570.0 18 9 16 10 15 10 0 11 9 10
3610.0 17 4 18 12 21 11 14 16 11 20
3650.0 10 15 20 16 15 24 28 29 20 7
3690.0 17 25 21 25 28 13 26 23 30 31
3730.0 22 8 26 21 18 17 27 30 14 25
3770.0 14 26 32 14 12 8 33 39 27 17
3810.0 26 18 30 12 29 18 23 18 29 27
3850.0 23 35 44 25 28 29 36 35 21 28
3890.0 33 35 10 22 46 26 19 16 18 21
3930.0 25 28 25 12 12 42 2 27 14 45
##END=
