##TITLE=2-Thiopheneethanol
##JCAMP-DX=4.24
##DATA TYPE=INFRARED SPECTRUM
##ORIGIN=Sadtler Research Labs Under US-EPA Contract
##OWNER=NIST Standard Reference Data Program
##CAS REGISTRY NO=5402-55-1
##MOLFORM=C 6 H 8 O S
##XUNITS=1/CM
##YUNITS=ABSORBANCE
##XFACTOR=1.0
##YFACTOR=0.000045984
##DELTAX=4.0
##FIRSTX=450.0
##LASTX=3966.0
##FIRSTY=0.002483
##MAXX=3966
##MINX=450
##MAXY=0.45984
##MINY=0
##NPOINTS=880
##XYDATA=(X++(Y..Y))
450.0 54 44 243 158 95 256 203 246 247 479
490.0 510 668 682 704 499 436 263 147 39 41
530.0 98 58 93 68 52 55 48 38 41 140
570.0 58 84 4 65 64 28 98 172 197 200
610.0 230 145 143 93 33 51 71 102 48 90
650.0 65 216 227 449 597 1138 2118 3169 4844 6135
690.0 9345 10000 8126 6328 4748 2961 1734 874 491 306
730.0 239 198 239 283 252 240 315 366 375 440
770.0 504 512 441 347 286 238 267 372 536 759
810.0 1097 1462 1769 1832 1652 1492 1420 1450 1582 1684
850.0 1610 1505 1272 1012 652 428 251 143 89 59
890.0 76 40 49 53 113 112 183 237 317 325
930.0 330 346 325 322 329 364 371 405 457 501
970.0 556 627 706 785 914 1043 1213 1373 1477 1552
1010.0 1635 1726 1887 2191 2706 3579 4825 6364 7790 8895
1050.0 9332 8859 7903 6753 5503 4323 3373 2655 2178 1811
1090.0 1466 1106 937 839 809 828 890 975 1050 1139
1130.0 1180 1193 1199 1169 1112 1013 946 907 909 919
1170.0 964 1020 1099 1140 1155 1152 1148 1146 1126 1124
1210.0 1128 1117 1074 1051 1085 1126 1174 1212 1246 1264
1250.0 1328 1356 1333 1278 1182 1041 906 827 805 790
1290.0 776 774 757 757 746 752 765 803 854 910
1330.0 948 966 995 1020 1025 1016 1014 1001 1036 1146
1370.0 1392 1765 2136 2382 2463 2348 2040 1630 1294 1044
1410.0 916 851 861 947 1080 1291 1495 1574 1449 1312
1450.0 1059 819 620 541 509 535 522 502 443 386
1490.0 319 286 274 281 328 298 290 259 255 207
1530.0 214 212 196 180 146 148 94 115 126 125
1570.0 158 194 219 236 230 217 162 128 75 45
1610.0 31 38 57 71 92 103 134 130 133 104
1650.0 87 103 71 34 41 19 38 10 14 18
1690.0 38 43 97 110 136 119 111 63 67 46
1730.0 21 40 40 26 28 38 62 79 94 143
1770.0 168 239 262 272 275 238 154 100 65 47
1810.0 35 30 33 29 30 15 31 13 27 20
1850.0 28 34 35 36 35 34 47 52 60 69
1890.0 73 75 84 90 94 87 78 80 74 73
1930.0 76 67 58 58 55 55 55 56 55 51
1970.0 54 68 61 65 62 55 56 58 60 60
2010.0 65 63 61 65 73 75 80 80 86 93
2050.0 102 111 115 120 130 133 133 130 125 119
2090.0 121 121 120 122 121 109 102 96 86 82
2130.0 76 70 66 66 68 73 83 87 96 92
2170.0 87 63 60 53 46 50 51 55 50 58
2210.0 47 49 52 47 54 50 52 50 58 58
2250.0 57 58 56 57 58 60 58 63 69 67
2290.0 62 59 45 46 23 15 10 2 9 16
2330.0 25 36 49 47 71 68 46 69 76 95
2370.0 86 114 107 103 104 106 102 96 90 87
2410.0 82 72 77 70 74 64 64 58 51 53
2450.0 43 46 54 53 43 44 42 44 45 44
2490.0 47 49 42 46 50 43 49 51 53 46
2530.0 52 47 43 43 34 44 40 47 44 49
2570.0 42 40 48 44 39 41 38 41 34 36
2610.0 49 50 54 64 57 60 60 61 58 59
2650.0 62 64 72 64 73 72 77 92 93 99
2690.0 95 90 107 111 108 117 129 134 146 161
2730.0 156 161 177 181 188 197 199 212 200 215
2770.0 219 216 220 223 225 235 237 247 254 264
2810.0 277 293 308 345 395 440 534 620 747 862
2850.0 964 1072 1218 1460 1728 2043 2440 2784 3013 3111
2890.0 3012 2782 2523 2371 2359 2530 2822 3198 3544 3802
2930.0 4005 4116 4184 4203 4209 4103 4019 3933 3775 3481
2970.0 3069 2585 2030 1466 983 683 478 370 282 227
3010.0 200 171 150 132 142 148 169 204 242 299
3050.0 323 348 364 395 449 603 809 969 1086 1117
3090.0 1036 804 663 589 467 369 335 311 276 246
3130.0 200 129 82 54 42 45 33 29 32 34
3170.0 37 34 29 49 38 39 47 43 42 39
3210.0 41 38 40 44 43 52 41 53 49 51
3250.0 54 53 41 48 62 44 45 54 45 43
3290.0 48 44 53 47 52 56 45 52 60 56
3330.0 52 58 54 52 38 41 48 54 48 47
3370.0 62 54 45 46 55 43 47 47 56 60
3410.0 27 38 55 29 17 41 31 21 15 14
3450.0 31 39 24 22 27 30 29 25 21 26
3490.0 13 16 9 23 4 5 5 26 36 19
3530.0 40 31 48 35 9 22 21 24 40 17
3570.0 48 26 34 21 19 53 17 49 103 156
3610.0 302 507 772 946 1062 1077 971 794 645 582
3650.0 566 730 891 979 1110 1158 1088 896 749 555
3690.0 354 213 171 122 95 69 61 43 34 38
3730.0 12 23 6 5 9 2 5 2 2 26
3770.0 2 2 2 2 2 14 10 2 5 2
3810.0 16 9 2 2 27 32 39 33 21 40
3850.0 0 43 5 2 2 31 16 21 10 23
3890.0 10 2 7 17 9 2 22 5 47 40
3930.0 36 64 95 81 51 46 50 44 58 56
##END=
