##TITLE=Benzenemethanamine, N-(2-methylphenyl)-
##JCAMP-DX=4.24
##DATA TYPE=INFRARED SPECTRUM
##ORIGIN=Sadtler Research Labs Under US-EPA Contract
##OWNER=NIST Standard Reference Data Program
##CAS REGISTRY NO=5405-13-0
##MOLFORM=C 14 H 15 N
##XUNITS=1/CM
##YUNITS=ABSORBANCE
##XFACTOR=1.0
##YFACTOR=0.000061197
##DELTAX=4.0
##FIRSTX=450.0
##LASTX=3966.0
##FIRSTY=0.021908
##MAXX=3966
##MINX=450
##MAXY=0.61197
##MINY=0
##NPOINTS=880
##XYDATA=(X++(Y..Y))
450.0 358 413 451 435 357 379 244 217 226 156
490.0 90 78 3 63 161 344 424 493 521 472
530.0 410 343 316 243 271 226 189 241 229 281
570.0 333 347 338 357 403 430 427 492 484 475
610.0 478 451 425 357 292 256 259 243 272 299
650.0 313 341 365 448 472 756 893 1054 1389 1850
690.0 2631 3151 3491 3285 3071 3043 3253 3339 3323 3425
730.0 3755 4583 5815 7222 7352 6305 4717 3343 2274 1503
770.0 979 630 422 310 249 219 222 218 215 243
810.0 273 300 344 352 345 298 263 254 223 226
850.0 219 210 188 183 166 180 225 261 251 205
890.0 174 171 205 235 278 311 313 289 246 188
930.0 133 96 56 48 47 58 71 94 143 211
970.0 289 374 485 558 581 508 398 312 278 273
1010.0 271 321 444 803 1225 1325 1034 707 758 1174
1050.0 1653 1860 1616 1213 948 787 669 570 453 348
1090.0 267 224 219 237 307 423 606 847 1196 1562
1130.0 1729 1548 1144 749 551 469 464 524 568 642
1170.0 701 763 847 875 854 759 714 748 792 829
1210.0 862 911 1001 1141 1327 1574 1893 2283 2774 3467
1250.0 4384 5171 5296 4644 3653 2817 2279 2010 1975 2182
1290.0 2572 3026 3508 4030 4491 4616 4287 3628 2840 2069
1330.0 1448 1069 841 741 704 806 996 1142 1098 945
1370.0 757 753 868 938 871 727 556 485 442 462
1410.0 504 621 759 978 1228 1631 2235 3209 4331 5179
1450.0 5375 4833 3996 3394 3247 3514 3863 3936 3782 3745
1490.0 4328 5481 6640 7775 9036 10000 9595 7355 4896 3035
1530.0 2112 1554 1274 1104 990 914 820 773 801 933
1570.0 1236 1735 2475 3274 3994 4357 4497 4908 5940 6723
1610.0 6010 4180 2334 1381 1086 1062 1189 1247 1133 836
1650.0 571 468 426 360 351 325 280 253 217 191
1690.0 161 154 158 162 142 138 150 165 155 169
1730.0 188 207 197 203 224 234 275 224 215 171
1770.0 189 160 182 191 232 266 343 355 335 274
1810.0 189 165 147 143 126 147 150 166 146 161
1850.0 140 162 185 225 271 334 380 367 333 258
1890.0 216 178 160 158 176 225 247 252 220 191
1930.0 201 207 232 231 246 237 250 227 181 114
1970.0 81 57 50 53 45 48 44 39 32 35
2010.0 27 24 22 24 20 20 16 16 19 17
2050.0 17 19 24 28 24 31 23 25 16 18
2090.0 11 9 7 14 12 15 18 19 25 25
2130.0 32 32 34 30 27 24 22 24 22 20
2170.0 19 22 19 18 15 16 14 17 14 16
2210.0 15 14 9 11 8 4 6 3 6 11
2250.0 10 13 7 12 14 14 20 24 31 41
2290.0 48 62 75 76 89 118 121 130 129 105
2330.0 96 78 49 44 58 68 57 36 18 6
2370.0 3 11 24 37 35 16 10 10 10 17
2410.0 26 37 38 45 42 42 39 30 29 28
2450.0 29 28 30 27 30 32 29 30 23 21
2490.0 25 25 20 21 26 28 28 33 34 40
2530.0 47 54 63 74 91 100 112 118 123 125
2570.0 122 119 112 103 94 100 90 89 86 91
2610.0 89 89 81 72 66 65 65 60 59 61
2650.0 59 59 55 59 63 64 64 73 73 77
2690.0 83 81 90 95 102 99 102 107 115 130
2730.0 150 173 197 207 199 187 164 153 148 158
2770.0 159 174 190 202 223 237 261 288 322 359
2810.0 388 418 465 518 574 649 745 864 1016 1199
2850.0 1408 1641 1914 2174 2370 2458 2444 2371 2286 2186
2890.0 2094 1987 1915 1871 1872 1886 1952 2067 2230 2396
2930.0 2469 2397 2195 1961 1743 1552 1414 1309 1254 1256
2970.0 1316 1464 1622 1602 1408 1131 938 873 920 1103
3010.0 1426 1908 2468 3027 3463 3775 3923 3889 3659 3299
3050.0 3024 2948 3106 3527 4209 4909 5086 4589 3725 3025
3090.0 2570 2154 1773 1425 1172 987 824 666 514 404
3130.0 320 242 192 160 138 128 123 116 113 111
3170.0 110 91 79 66 52 57 49 48 43 34
3210.0 31 35 32 23 22 20 25 27 32 31
3250.0 24 28 26 24 20 16 21 17 17 11
3290.0 16 12 22 17 13 10 7 7 15 7
3330.0 12 8 11 15 10 16 16 16 18 29
3370.0 21 24 27 17 34 38 52 55 68 77
3410.0 101 116 153 192 258 325 397 437 443 437
3450.0 422 410 416 422 417 392 349 290 229 182
3490.0 145 120 90 99 66 62 61 33 46 51
3530.0 41 25 27 27 32 25 32 19 27 30
3570.0 46 27 18 22 24 51 27 5 24 10
3610.0 46 23 32 32 0 74 33 35 23 46
3650.0 64 37 44 28 31 47 26 50 12 42
3690.0 30 32 23 27 24 34 41 37 23 41
3730.0 23 30 31 42 70 18 42 10 30 42
3770.0 9 26 19 54 23 38 29 28 35 50
3810.0 28 47 32 59 50 36 73 69 54 72
3850.0 52 107 68 63 71 108 70 68 93 106
3890.0 78 86 57 118 104 72 60 94 83 63
3930.0 77 59 62 73 65 64 75 46 62 56
##END=
