##TITLE=1(2H)-Naphthalenone, 3,4-dihydro-3,3,6,8-tetramethyl-
##JCAMP-DX=4.24
##DATA TYPE=INFRARED SPECTRUM
##ORIGIN=Sadtler Research Labs Under US-EPA Contract
##OWNER=NIST Standard Reference Data Program
##CAS REGISTRY NO=5409-55-2
##MOLFORM=C 14 H 18 O
##XUNITS=1/CM
##YUNITS=ABSORBANCE
##XFACTOR=1.0
##YFACTOR=0.000097079
##DELTAX=4.0
##FIRSTX=450.0
##LASTX=3966.0
##FIRSTY=0.021746
##MAXX=3966
##MINX=450
##MAXY=0.97079
##MINY=0
##NPOINTS=880
##XYDATA=(X++(Y..Y))
450.0 224 118 42 101 144 223 171 150 87 107
490.0 96 109 99 121 71 50 42 14 49 31
530.0 46 73 137 242 295 289 196 131 103 136
570.0 120 134 167 188 201 223 211 142 141 127
610.0 149 177 216 221 163 94 75 55 44 71
650.0 71 84 109 164 186 232 288 445 698 742
690.0 651 382 180 108 72 55 51 51 76 102
730.0 138 194 171 121 70 37 38 12 11 9
770.0 18 0 11 15 20 19 21 39 36 62
810.0 64 55 42 45 57 90 208 455 736 1125
850.0 996 628 372 148 92 79 89 96 64 69
890.0 38 63 69 84 82 94 91 92 91 93
930.0 119 142 224 335 437 442 361 240 170 170
970.0 171 190 228 324 383 392 319 252 223 213
1010.0 214 208 220 242 311 409 517 556 553 540
1050.0 517 451 347 257 205 174 144 136 119 103
1090.0 91 83 85 87 107 124 165 216 273 295
1130.0 295 294 344 435 494 506 448 414 458 609
1170.0 714 678 517 311 242 245 284 323 376 432
1210.0 530 705 997 1297 1448 1399 1255 1312 1634 2127
1250.0 2588 2848 2827 2591 2266 1867 1454 1048 813 863
1290.0 1144 1529 1883 1931 1691 1237 723 433 300 256
1330.0 248 262 266 261 239 217 229 256 381 522
1370.0 786 976 948 1008 1158 1269 1138 812 552 482
1410.0 581 780 959 1001 961 946 1100 1372 1648 1770
1450.0 1718 1547 1348 1197 1084 994 875 722 572 480
1490.0 412 365 349 334 341 351 335 345 359 349
1530.0 352 349 374 394 438 488 601 732 892 1014
1570.0 1061 1012 895 807 809 982 1331 1998 2945 3805
1610.0 3926 3274 2149 1216 762 516 427 356 356 399
1650.0 481 541 550 560 567 717 992 1772 3243 6087
1690.0 8679 10000 8960 6156 3358 1875 1123 828 661 592
1730.0 540 476 416 340 297 238 221 167 149 122
1770.0 124 111 99 106 101 111 114 111 97 83
1810.0 65 55 45 40 38 33 31 29 30 29
1850.0 26 21 15 19 16 24 20 24 23 26
1890.0 27 26 24 26 34 35 38 38 42 34
1930.0 37 32 29 27 23 17 12 13 12 10
1970.0 10 14 17 21 21 17 15 8 8 2
2010.0 1 3 3 2 1 4 3 2 0 6
2050.0 2 2 0 3 2 5 3 2 2 2
2090.0 8 3 6 8 6 5 7 4 3 5
2130.0 1 4 2 3 6 7 9 4 4 1
2170.0 0 0 2 0 2 1 4 5 3 4
2210.0 1 2 0 1 1 3 4 4 3 3
2250.0 2 4 3 2 5 7 6 12 13 15
2290.0 17 18 23 23 26 29 24 25 18 13
2330.0 8 7 17 10 19 26 23 19 11 11
2370.0 10 19 21 29 26 23 17 18 15 15
2410.0 18 19 19 17 18 15 15 16 15 14
2450.0 12 11 12 15 13 12 15 13 15 16
2490.0 15 16 12 12 14 11 13 15 15 14
2530.0 16 15 13 15 16 17 15 17 17 15
2570.0 9 9 11 11 12 16 20 20 20 21
2610.0 19 18 16 20 19 22 21 21 20 18
2650.0 20 24 23 22 25 27 32 33 36 37
2690.0 44 43 44 48 56 62 68 71 79 88
2730.0 101 112 131 149 163 157 142 120 98 92
2770.0 94 98 102 100 102 108 118 130 151 177
2810.0 206 243 281 321 367 434 530 621 679 691
2850.0 701 760 874 1039 1268 1563 1851 2043 2092 2034
2890.0 2030 2089 2149 2123 2056 2011 2098 2402 2791 3150
2930.0 3447 3605 3635 3595 3416 3296 3463 4173 5135 5456
2970.0 4838 3717 2541 1736 1350 1155 1016 980 995 1029
3010.0 1075 1139 1193 1183 1110 1000 904 828 761 682
3050.0 592 505 422 352 295 257 228 210 188 167
3090.0 148 128 113 100 94 87 81 76 73 70
3130.0 70 72 67 69 66 70 67 71 73 70
3170.0 70 63 60 57 49 41 39 35 36 34
3210.0 35 30 36 27 30 28 27 27 27 28
3250.0 23 22 19 20 24 22 21 17 16 18
3290.0 18 25 26 20 17 19 18 21 19 29
3330.0 29 29 32 31 34 41 58 78 104 131
3370.0 131 111 80 50 35 28 19 22 21 22
3410.0 20 21 14 22 20 22 15 14 16 14
3450.0 14 15 14 11 10 12 13 6 6 9
3490.0 16 11 9 13 20 10 15 10 14 11
3530.0 12 7 5 8 14 16 15 9 12 14
3570.0 14 8 8 14 12 16 6 6 1 7
3610.0 24 8 11 11 9 20 9 9 9 6
3650.0 13 15 14 10 10 15 4 11 5 11
3690.0 12 4 8 16 13 16 18 13 10 6
3730.0 0 6 11 16 17 13 19 2 16 11
3770.0 10 11 4 6 4 4 2 6 10 13
3810.0 6 11 9 28 21 13 21 27 10 12
3850.0 21 24 11 20 16 17 20 14 10 18
3890.0 5 20 10 27 18 31 18 19 12 11
3930.0 14 4 16 12 17 19 12 7 7 17
##END=
