##TITLE=di-tert-Butyl malonate
##JCAMP-DX=4.24
##DATA TYPE=INFRARED SPECTRUM
##ORIGIN=Sadtler Research Labs Under US-EPA Contract
##OWNER=NIST Standard Reference Data Program
##CAS REGISTRY NO=541-16-2
##MOLFORM=C 11 H 20 O 4
##XUNITS=1/CM
##YUNITS=ABSORBANCE
##XFACTOR=1.0
##YFACTOR=0.000131079
##DELTAX=4.0
##FIRSTX=450.0
##LASTX=3966.0
##FIRSTY=0.090182
##MAXX=3966
##MINX=450
##MAXY=1.31079
##MINY=0
##NPOINTS=880
##XYDATA=(X++(Y..Y))
450.0 688 444 430 426 405 312 345 194 219 156
490.0 140 114 162 176 150 134 152 195 138 180
530.0 126 182 127 110 150 137 215 153 172 217
570.0 257 246 262 275 274 285 338 344 324 335
610.0 287 283 318 275 309 259 260 193 273 214
650.0 171 129 107 67 24 109 40 28 30 24
690.0 26 31 16 24 20 0 30 34 70 80
730.0 121 158 148 164 164 206 255 424 593 635
770.0 481 271 148 101 51 75 91 92 122 125
810.0 167 192 243 318 422 592 754 984 1111 1124
850.0 1023 876 717 528 356 236 160 122 109 112
890.0 125 79 85 102 127 160 202 267 280 293
930.0 288 332 399 499 657 827 1033 1223 1423 1537
970.0 1560 1400 1174 891 637 472 347 271 215 197
1010.0 179 177 187 213 263 324 390 423 429 394
1050.0 342 275 249 254 262 297 339 400 468 567
1090.0 692 849 1058 1343 1735 2232 2921 3747 4832 6088
1130.0 7582 8913 9537 9687 9075 8549 7979 7778 7392 7109
1170.0 6829 6518 6150 5616 5028 4200 3392 2701 2272 2069
1210.0 2016 1986 1947 1991 2134 2423 2758 3170 3517 3842
1250.0 4061 4126 3985 3712 3525 3396 3397 3416 3443 3380
1290.0 3275 3165 3081 3089 3176 3373 3572 3794 3956 4135
1330.0 4278 4180 3669 2839 2078 1586 1384 1398 1681 2356
1370.0 3387 4005 3432 2347 1556 1445 1725 1846 1596 1159
1410.0 879 829 760 705 606 505 422 380 401 440
1450.0 525 637 753 806 775 729 708 774 799 733
1490.0 598 491 385 292 200 121 106 74 52 59
1530.0 52 48 37 22 29 46 43 34 43 63
1570.0 64 70 82 80 94 92 109 109 114 96
1610.0 89 81 65 77 66 87 75 87 95 104
1650.0 96 113 134 147 164 167 181 219 243 297
1690.0 406 516 579 669 736 817 887 1031 1254 1649
1730.0 2297 3443 5245 7302 9361 10000 9970 9308 8557 7088
1770.0 5332 3747 2727 2120 1766 1522 1382 1243 1073 909
1810.0 734 568 438 342 274 219 189 168 138 117
1850.0 110 104 98 88 81 72 76 74 72 65
1890.0 58 58 58 58 60 60 53 49 43 42
1930.0 37 39 39 35 39 35 33 29 27 25
1970.0 25 26 28 29 29 23 20 24 23 19
2010.0 17 17 13 12 9 12 15 14 4 1
2050.0 11 10 13 10 11 10 13 12 17 17
2090.0 14 15 13 11 10 11 10 14 11 10
2130.0 13 17 15 9 9 5 6 10 7 6
2170.0 8 6 7 4 2 5 5 5 8 10
2210.0 13 13 14 13 11 9 12 10 14 13
2250.0 15 17 16 18 17 21 20 23 23 27
2290.0 34 43 50 52 52 54 48 32 39 29
2330.0 13 22 18 30 52 55 24 20 41 53
2370.0 68 80 87 78 50 25 16 14 15 14
2410.0 8 8 12 12 6 4 5 3 5 5
2450.0 6 5 7 5 5 7 8 6 6 6
2490.0 7 7 3 8 8 6 1 5 10 4
2530.0 10 6 6 9 11 10 8 6 4 7
2570.0 4 5 3 8 10 6 8 7 5 5
2610.0 10 9 16 11 12 17 19 19 19 8
2650.0 12 18 17 15 8 11 11 10 16 19
2690.0 22 16 15 19 29 30 33 34 48 51
2730.0 61 65 62 52 45 43 38 39 44 42
2770.0 36 37 37 40 48 53 55 56 63 66
2810.0 67 78 84 103 114 117 112 116 124 130
2850.0 137 159 206 245 298 359 438 510 587 639
2890.0 686 714 755 796 832 909 981 1028 1066 1141
2930.0 1303 1535 1794 1941 1905 1711 1520 1419 1435 1619
2970.0 2009 2652 3355 4360 5381 5330 3864 2189 1382 1168
3010.0 1169 1166 994 730 468 305 207 158 135 114
3050.0 108 96 89 82 81 90 85 87 91 104
3090.0 99 97 85 83 86 77 71 62 70 60
3130.0 53 55 54 49 62 54 62 42 49 62
3170.0 55 67 75 73 72 67 79 68 76 72
3210.0 73 64 51 69 59 64 60 63 65 70
3250.0 54 47 49 55 48 47 45 56 61 59
3290.0 62 61 65 64 66 56 41 55 58 42
3330.0 36 41 46 38 34 42 35 21 38 32
3370.0 24 22 25 27 36 26 19 25 20 21
3410.0 17 22 20 12 15 38 18 33 27 31
3450.0 21 37 44 50 50 46 50 79 94 101
3490.0 103 84 74 49 30 27 39 39 15 12
3530.0 4 8 13 15 30 32 41 50 75 102
3570.0 157 214 250 269 229 155 110 88 68 58
3610.0 40 24 29 20 19 35 36 37 45 49
3650.0 18 27 40 28 30 47 40 41 22 20
3690.0 45 49 30 27 36 66 61 35 45 69
3730.0 46 71 63 52 31 50 70 69 47 37
3770.0 44 68 64 75 61 31 51 65 61 51
3810.0 77 54 55 65 44 56 38 58 63 67
3850.0 71 72 67 67 44 52 66 72 53 54
3890.0 59 75 79 75 61 50 71 64 61 68
3930.0 70 42 66 89 81 83 70 81 85 70
##END=
