##TITLE=Carbonochloridic acid, ethyl ester
##JCAMP-DX=4.24
##DATA TYPE=INFRARED SPECTRUM
##ORIGIN=Sadtler Research Labs Under US-EPA Contract
##OWNER=NIST Standard Reference Data Program
##CAS REGISTRY NO=541-41-3
##MOLFORM=C 3 H 5 Cl O 2
##XUNITS=1/CM
##YUNITS=ABSORBANCE
##XFACTOR=1.0
##YFACTOR=0.000050879
##DELTAX=4.0
##FIRSTX=450.0
##LASTX=3966.0
##FIRSTY=0.002849
##MAXX=3966
##MINX=450
##MAXY=0.50879
##MINY=0
##NPOINTS=880
##XYDATA=(X++(Y..Y))
450.0 56 39 40 50 59 65 80 97 97 86
490.0 92 61 38 29 20 20 7 3 13 8
530.0 14 8 11 9 2 8 9 10 1 19
570.0 16 5 27 8 20 13 21 26 21 20
610.0 19 18 18 17 20 19 18 18 29 28
650.0 27 30 29 38 47 68 78 87 99 119
690.0 141 168 123 125 117 87 70 58 47 47
730.0 27 35 29 20 32 36 48 59 87 111
770.0 151 192 212 221 231 231 218 197 185 169
810.0 179 181 217 237 277 348 439 560 688 726
850.0 725 706 652 484 323 210 158 106 86 65
890.0 55 46 55 55 52 46 45 38 39 36
930.0 36 25 36 25 36 36 27 35 35 35
970.0 36 36 42 45 55 64 75 105 134 177
1010.0 216 242 259 253 245 205 158 115 94 83
1050.0 84 92 93 95 102 107 116 132 153 201
1090.0 251 312 381 471 583 703 857 1050 1365 1793
1130.0 2327 3142 3824 4424 5339 6169 10000 6001 5090 4638
1170.0 3911 3236 2376 1593 1242 1026 815 578 420 326
1210.0 275 236 205 186 166 145 137 115 111 110
1250.0 109 120 138 159 170 178 178 177 160 149
1290.0 154 158 169 162 160 139 130 110 109 90
1330.0 89 82 81 78 77 81 80 98 107 119
1370.0 138 169 178 187 188 188 177 164 131 129
1410.0 112 91 89 82 80 81 81 101 91 102
1450.0 111 127 151 136 149 148 167 148 127 117
1490.0 108 87 78 56 67 55 39 39 39 32
1530.0 31 30 31 38 29 21 20 35 30 21
1570.0 28 19 32 20 20 21 21 20 20 20
1610.0 20 20 31 19 24 20 27 31 19 30
1650.0 28 50 27 23 25 31 30 30 35 51
1690.0 38 38 58 78 69 69 70 88 83 77
1730.0 88 104 106 124 143 183 232 325 460 666
1770.0 966 1364 1881 2526 3088 3072 2689 3173 3158 2421
1810.0 1700 1165 771 483 302 209 150 111 86 69
1850.0 59 58 46 47 47 47 36 36 33 28
1890.0 27 21 18 18 18 18 18 17 17 17
1930.0 17 17 17 17 17 17 17 17 17 17
1970.0 17 26 26 26 26 36 36 36 35 35
2010.0 35 27 36 26 27 27 27 27 15 16
2050.0 17 6 6 6 6 6 6 6 7 7
2090.0 7 7 7 7 7 7 7 7 7 7
2130.0 7 6 6 6 6 6 6 6 6 6
2170.0 6 6 6 6 6 5 5 5 5 5
2210.0 5 5 5 5 5 5 15 15 14 15
2250.0 15 15 17 24 24 24 24 24 24 24
2290.0 34 33 34 42 43 45 53 54 54 42
2330.0 42 35 25 24 24 23 14 13 25 27
2370.0 22 24 12 13 7 4 4 4 4 3
2410.0 3 3 3 3 3 3 3 3 3 3
2450.0 3 3 3 4 4 4 4 4 4 4
2490.0 2 2 2 2 2 2 3 3 3 3
2530.0 3 3 3 3 2 3 2 2 2 2
2570.0 3 3 3 3 3 3 3 3 3 1
2610.0 1 1 1 2 2 2 2 2 2 2
2650.0 2 2 2 2 2 2 2 1 1 1
2690.0 1 1 1 1 1 1 1 1 1 1
2730.0 1 1 1 1 1 1 1 1 1 1
2770.0 1 1 1 1 1 1 11 0 10 10
2810.0 0 10 10 10 10 10 10 9 10 10
2850.0 10 10 14 12 19 19 29 36 47 50
2890.0 58 58 69 69 68 78 77 89 88 94
2930.0 97 115 124 145 165 166 166 166 155 145
2970.0 150 174 219 280 346 366 379 378 388 346
3010.0 267 228 188 163 126 103 71 51 40 30
3050.0 29 19 10 9 9 9 9 10 10 10
3090.0 10 1 8 1 1 1 1 8 1 3
3130.0 0 11 1 1 1 1 1 9 1 1
3170.0 1 1 1 1 1 1 1 1 1 1
3210.0 1 1 1 1 1 1 1 1 1 1
3250.0 1 1 1 1 1 1 1 1 1 1
3290.0 1 1 1 1 1 1 1 1 1 1
3330.0 1 1 1 1 1 1 1 1 1 1
3370.0 1 1 1 1 1 1 1 1 1 1
3410.0 1 1 1 1 1 1 1 1 1 1
3450.0 1 1 1 1 1 1 1 1 1 1
3490.0 1 1 1 1 1 1 1 1 1 1
3530.0 1 1 1 9 9 20 21 28 28 29
3570.0 29 29 18 12 10 10 1 1 1 1
3610.0 1 1 1 1 1 11 1 1 1 1
3650.0 9 1 1 1 1 10 10 10 1 1
3690.0 11 1 1 1 1 1 8 1 1 1
3730.0 4 9 9 9 21 18 9 9 1 1
3770.0 1 1 1 1 1 1 0 3 10 9
3810.0 1 1 9 9 9 9 9 9 9 5
3850.0 7 9 2 1 10 9 9 1 10 10
3890.0 1 1 5 9 3 1 1 1 1 1
3930.0 1 1 1 1 1 1 1 1 1 1
##END=
