##TITLE=Benzene, 1,3-dichloro-
##JCAMP-DX=4.24
##DATA TYPE=INFRARED SPECTRUM
##ORIGIN=Sadtler Research Labs Under US-EPA Contract
##OWNER=NIST Standard Reference Data Program
##CAS REGISTRY NO=541-73-1
##MOLFORM=C 6 H 4 Cl 2
##XUNITS=1/CM
##YUNITS=ABSORBANCE
##XFACTOR=1.0
##YFACTOR=0.000183890
##DELTAX=4.0
##FIRSTX=450.0
##LASTX=3966.0
##FIRSTY=0.015815
##MAXX=3966
##MINX=450
##MAXY=1.8389
##MINY=0
##NPOINTS=880
##XYDATA=(X++(Y..Y))
450.0 86 98 51 47 70 58 66 44 51 23
490.0 58 32 48 47 33 43 38 32 25 42
530.0 24 38 32 50 60 57 50 56 64 51
570.0 55 50 67 62 48 46 65 61 53 65
610.0 55 52 71 66 83 78 108 117 145 188
650.0 253 382 550 807 863 1263 2070 1315 992 792
690.0 485 313 149 123 51 65 34 48 51 51
730.0 66 47 88 65 125 192 414 795 1418 2100
770.0 3071 5602 7253 8001 9089 7239 5150 1701 324 196
810.0 225 341 457 492 483 407 368 287 278 219
850.0 239 299 502 715 903 1379 1086 663 653 339
890.0 194 79 50 17 9 17 6 17 8 24
930.0 13 33 24 30 25 37 67 91 116 104
970.0 99 57 55 56 80 127 186 158 155 203
1010.0 119 86 56 55 33 41 52 56 93 144
1050.0 250 355 559 795 1064 1418 2283 3205 2961 2479
1090.0 1729 803 577 710 793 802 1041 1399 1571 1368
1130.0 1435 1361 790 418 231 136 131 113 116 95
1170.0 78 60 57 62 62 75 90 130 140 150
1210.0 165 147 118 95 71 41 37 43 90 163
1250.0 207 224 211 114 42 46 74 140 222 245
1290.0 247 206 128 64 58 47 61 94 173 203
1330.0 187 178 76 29 24 32 29 29 30 43
1370.0 65 74 132 211 318 496 745 1019 1183 1419
1410.0 1471 1118 975 985 571 395 330 320 416 512
1450.0 1066 2141 4084 5006 5213 4906 2851 1341 973 620
1490.0 557 581 666 606 454 307 128 103 1 122
1530.0 75 144 137 198 276 334 672 832 1584 2108
1570.0 3934 5966 7929 10000 6919 3967 1283 288 247 151
1610.0 178 163 147 150 93 131 69 89 67 112
1650.0 64 119 173 197 183 137 98 60 20 11
1690.0 29 29 0 11 10 38 29 37 90 146
1730.0 178 183 203 210 186 113 104 75 74 89
1770.0 99 127 155 154 155 137 85 74 36 44
1810.0 33 36 39 39 43 34 56 65 80 97
1850.0 154 186 180 151 113 61 44 46 38 41
1890.0 32 41 50 65 83 95 111 122 128 141
1930.0 160 146 133 112 76 61 46 42 36 34
1970.0 32 34 32 29 32 25 27 24 25 23
2010.0 23 19 18 18 18 18 19 18 11 17
2050.0 14 17 18 15 14 14 17 14 17 15
2090.0 17 13 17 15 13 15 14 15 15 18
2130.0 18 19 15 15 17 15 20 20 20 15
2170.0 17 17 17 17 18 19 22 22 18 20
2210.0 15 13 11 13 17 15 20 22 24 20
2250.0 19 13 11 8 9 6 6 9 9 9
2290.0 5 4 1 1 1 1 8 8 15 14
2330.0 17 19 22 13 18 17 17 18 24 30
2370.0 25 28 24 18 14 15 19 18 24 28
2410.0 29 25 25 18 14 11 9 13 10 13
2450.0 13 14 14 15 11 10 9 11 11 13
2490.0 18 19 23 24 23 19 15 14 13 11
2530.0 11 15 13 11 13 10 10 13 14 15
2570.0 22 22 23 19 18 14 11 14 10 9
2610.0 8 11 10 13 11 15 17 19 25 25
2650.0 29 30 34 30 29 29 23 24 28 34
2690.0 37 44 47 47 42 34 25 19 17 14
2730.0 15 14 15 14 13 13 9 9 6 9
2770.0 5 9 8 8 9 10 10 13 13 20
2810.0 25 25 30 32 29 27 23 20 15 17
2850.0 19 20 19 22 19 20 20 17 15 13
2890.0 11 6 9 6 13 11 14 13 9 10
2930.0 11 13 6 9 10 6 11 8 10 9
2970.0 11 11 10 11 11 13 13 17 24 33
3010.0 48 64 70 74 75 69 56 44 39 41
3050.0 50 70 109 174 258 363 436 526 586 530
3090.0 463 379 213 127 83 48 28 20 13 9
3130.0 10 10 15 15 19 27 30 29 30 30
3170.0 27 24 18 19 15 17 15 15 14 13
3210.0 13 9 14 11 15 15 15 11 14 13
3250.0 13 14 13 17 14 13 10 15 13 11
3290.0 15 14 17 15 17 15 18 17 15 17
3330.0 14 11 13 17 14 13 15 18 14 14
3370.0 15 13 15 11 14 11 14 13 14 14
3410.0 14 15 11 10 13 13 13 9 10 10
3450.0 11 13 17 10 14 10 13 10 10 10
3490.0 15 14 11 11 10 15 11 17 14 8
3530.0 13 9 8 9 6 3 9 5 5 0
3570.0 4 10 9 11 3 6 4 9 8 10
3610.0 5 5 5 4 8 6 8 11 9 8
3650.0 5 11 10 4 9 4 18 13 20 15
3690.0 15 10 9 6 11 8 6 6 5 11
3730.0 19 17 18 17 17 32 28 34 27 27
3770.0 24 23 18 10 11 9 15 10 10 9
3810.0 9 9 13 11 9 11 10 10 13 10
3850.0 11 15 23 25 30 30 33 22 18 20
3890.0 13 13 17 18 10 15 15 11 8 10
3930.0 4 5 9 15 10 5 13 11 15 8
##END=
