##TITLE=1-Butanethiol, 3-methyl-
##JCAMP-DX=4.24
##DATA TYPE=INFRARED SPECTRUM
##ORIGIN=Sadtler Research Labs Under US-EPA Contract
##OWNER=NIST Standard Reference Data Program
##CAS REGISTRY NO=541-31-1
##MOLFORM=C 5 H 12 S
##XUNITS=1/CM
##YUNITS=ABSORBANCE
##XFACTOR=1.0
##YFACTOR=0.000141306
##DELTAX=4.0
##FIRSTX=450.0
##LASTX=3966.0
##FIRSTY=0.079696
##MAXX=3966
##MINX=450
##MAXY=1.41306
##MINY=0
##NPOINTS=880
##XYDATA=(X++(Y..Y))
450.0 564 214 99 130 82 142 85 225 208 288
490.0 223 131 133 11 113 167 181 175 143 174
530.0 105 102 181 112 91 118 70 167 110 158
570.0 124 78 118 114 149 62 65 129 154 166
610.0 120 104 123 81 146 136 92 178 132 162
650.0 172 176 229 200 221 131 181 170 139 139
690.0 140 162 167 191 192 174 201 198 192 205
730.0 200 256 292 261 275 286 234 233 199 180
770.0 179 169 168 157 164 159 149 169 153 159
810.0 130 113 136 142 144 126 121 149 137 137
850.0 166 168 206 210 233 220 214 213 213 211
890.0 199 163 171 170 174 201 215 246 251 247
930.0 206 189 185 176 178 180 179 182 171 177
970.0 196 188 193 188 189 184 188 177 162 159
1010.0 159 155 161 149 156 150 129 135 116 111
1050.0 109 105 105 103 112 113 114 120 117 135
1090.0 140 138 156 156 171 167 166 172 165 164
1130.0 168 163 171 168 190 215 251 307 370 439
1170.0 464 434 380 323 299 298 299 296 291 279
1210.0 296 332 404 459 472 461 437 426 401 373
1250.0 331 303 310 355 441 547 632 677 667 635
1290.0 578 528 480 435 419 392 350 316 295 288
1330.0 303 329 368 420 491 535 550 549 557 659
1370.0 767 843 913 965 1003 998 865 654 448 324
1410.0 276 288 302 344 373 449 537 638 730 768
1450.0 843 923 1035 1140 1231 1306 1251 1011 792 592
1490.0 426 333 250 199 161 122 99 104 93 87
1530.0 75 75 78 83 65 64 74 71 87 64
1570.0 68 73 67 77 62 68 60 61 69 60
1610.0 64 60 74 64 58 65 55 60 66 58
1650.0 72 64 69 64 63 68 53 64 58 70
1690.0 55 59 65 60 59 53 51 50 53 47
1730.0 49 45 47 47 38 37 36 36 44 39
1770.0 34 36 32 33 26 33 27 32 26 31
1810.0 32 24 28 28 32 28 29 29 30 29
1850.0 28 26 29 27 29 27 28 26 28 26
1890.0 27 25 25 25 27 25 27 22 22 23
1930.0 25 24 23 23 21 24 21 21 20 21
1970.0 22 22 20 20 19 22 20 17 19 19
2010.0 23 21 19 19 20 27 24 21 23 22
2050.0 24 22 20 17 15 18 18 15 15 16
2090.0 15 17 16 16 18 17 17 15 16 16
2130.0 18 17 15 16 14 15 16 16 19 15
2170.0 14 15 14 13 12 13 14 14 15 13
2210.0 12 13 12 10 6 8 10 8 12 8
2250.0 11 10 11 12 11 10 13 11 14 13
2290.0 15 16 13 14 7 3 5 0 0 0
2330.0 0 0 0 0 0 8 0 0 0 0
2370.0 0 0 2 13 17 15 14 14 15 11
2410.0 13 12 13 14 11 10 10 12 11 10
2450.0 9 8 10 14 13 12 13 15 17 14
2490.0 12 12 13 14 15 13 10 10 12 10
2530.0 10 13 11 15 13 13 15 16 22 26
2570.0 33 40 51 69 85 100 105 100 95 89
2610.0 75 63 56 59 59 61 64 66 66 69
2650.0 71 69 65 65 62 61 61 60 61 61
2690.0 60 57 59 61 63 68 71 76 90 106
2730.0 120 131 132 132 129 120 113 108 106 109
2770.0 112 111 111 112 121 135 150 161 173 185
2810.0 204 232 257 289 325 363 423 503 617 752
2850.0 899 1033 1153 1291 1486 1803 2250 2694 2976 3049
2890.0 2895 2708 2642 2732 2985 3316 3593 3799 3985 4146
2930.0 4345 4529 4665 4753 4821 4998 5547 6662 8471 10000
2970.0 9739 8197 6050 3995 2541 1644 1094 742 529 400
3010.0 322 274 236 206 186 166 154 144 133 126
3050.0 120 120 126 124 116 108 114 110 106 102
3090.0 92 88 93 86 84 80 82 82 80 78
3130.0 81 82 84 84 82 82 90 90 94 96
3170.0 95 95 101 101 93 92 94 87 82 76
3210.0 67 67 55 49 46 30 29 28 24 26
3250.0 23 23 22 23 22 18 18 16 21 20
3290.0 14 22 21 22 26 22 21 24 23 21
3330.0 29 25 28 34 37 32 32 31 26 26
3370.0 25 25 22 27 32 28 20 20 23 19
3410.0 23 24 18 14 16 17 12 13 16 20
3450.0 18 20 13 11 10 20 19 12 13 17
3490.0 18 16 16 17 19 18 14 17 10 23
3530.0 25 13 14 14 14 22 16 24 14 16
3570.0 14 21 22 10 27 17 24 12 15 6
3610.0 18 23 17 19 18 26 23 17 12 31
3650.0 19 32 0 22 7 24 24 30 17 9
3690.0 32 8 18 8 11 14 7 9 16 2
3730.0 14 15 14 20 12 33 7 21 3 14
3770.0 6 9 3 8 10 9 17 31 20 26
3810.0 1 33 16 30 11 9 25 32 23 21
3850.0 27 12 24 16 15 25 9 17 13 30
3890.0 31 8 12 26 10 3 18 9 18 32
3930.0 19 8 0 16 14 26 24 17 22 9
##END=
