##TITLE=Acetic acid, chloro-, pentyl ester
##JCAMP-DX=4.24
##DATA TYPE=INFRARED SPECTRUM
##ORIGIN=Sadtler Research Labs Under US-EPA Contract
##OWNER=NIST Standard Reference Data Program
##CAS REGISTRY NO=5411-55-2
##MOLFORM=C 7 H 13 Cl O 2
##XUNITS=1/CM
##YUNITS=ABSORBANCE
##XFACTOR=1.0
##YFACTOR=0.000081650
##DELTAX=4.0
##FIRSTX=450.0
##LASTX=3966.0
##FIRSTY=0.000000
##MAXX=3966
##MINX=450
##MAXY=0.8165
##MINY=0
##NPOINTS=880
##XYDATA=(X++(Y..Y))
450.0 0 36 253 247 140 130 195 164 121 137
490.0 160 151 177 219 128 245 242 149 154 104
530.0 216 102 140 253 184 113 207 197 244 321
570.0 333 470 433 442 439 553 422 370 327 334
610.0 319 166 212 224 156 185 177 181 161 142
650.0 175 226 277 234 243 365 356 444 521 607
690.0 743 852 821 850 789 724 667 658 657 623
730.0 535 634 535 515 495 632 556 566 625 688
770.0 768 751 829 886 941 1028 1125 1172 1122 1019
810.0 781 594 486 411 417 324 300 288 304 329
850.0 308 294 293 314 309 333 350 330 345 354
890.0 354 403 419 425 446 457 474 481 521 522
930.0 534 546 535 557 553 563 573 583 637 764
970.0 994 1376 1866 2432 2902 3122 3134 2991 2685 2283
1010.0 1871 1566 1442 1431 1506 1546 1643 1718 1775 1742
1050.0 1570 1288 1011 852 823 829 863 877 764 660
1090.0 664 658 708 789 899 1145 1414 1776 2274 2836
1130.0 3437 3997 4366 4531 4583 4732 5002 5545 6346 7142
1170.0 7596 7219 6193 4911 3795 3073 2646 2400 2270 2192
1210.0 2192 2252 2333 2444 2632 2909 3274 3789 4472 5271
1250.0 5996 6532 6546 5976 5245 4862 5303 6385 7702 8851
1290.0 9136 8768 7948 7048 6197 5149 4034 3083 2416 1997
1330.0 1652 1335 1134 954 877 822 736 695 664 626
1370.0 613 681 750 837 934 946 876 730 591 522
1410.0 548 607 759 1049 1357 1492 1462 1214 1030 951
1450.0 1015 1076 1273 1375 1513 1471 1392 1156 904 688
1490.0 512 415 331 300 258 215 256 182 176 197
1530.0 171 189 121 149 143 151 142 77 118 128
1570.0 113 135 92 147 111 141 112 132 111 109
1610.0 147 77 133 85 138 102 104 99 125 100
1650.0 111 88 113 152 127 138 148 169 146 207
1690.0 219 249 299 333 464 544 672 806 973 1254
1730.0 1530 2046 2758 3778 5268 7093 8600 9875 10000 9145
1770.0 7922 6656 5999 5393 4701 3919 2883 2139 1542 1115
1810.0 878 668 563 472 394 334 306 261 242 229
1850.0 205 202 178 176 146 153 146 131 140 121
1890.0 131 124 125 116 118 103 115 99 107 96
1930.0 85 92 92 101 85 108 93 99 90 96
1970.0 99 96 98 100 94 104 105 102 99 94
2010.0 99 96 101 106 101 104 96 107 101 99
2050.0 100 95 93 94 91 93 86 87 83 79
2090.0 83 81 79 80 80 80 73 80 82 81
2130.0 80 81 79 82 82 85 83 86 88 81
2170.0 80 81 76 74 71 72 69 65 63 68
2210.0 62 64 63 65 63 65 61 58 53 62
2250.0 53 58 52 45 53 56 53 53 56 56
2290.0 53 55 44 48 44 39 50 43 43 50
2330.0 33 58 45 44 42 57 38 35 33 34
2370.0 37 43 60 59 52 55 57 53 55 59
2410.0 57 59 62 65 61 60 63 63 62 62
2450.0 63 58 60 59 59 61 56 58 61 59
2490.0 57 57 61 62 68 66 63 60 64 70
2530.0 71 70 73 71 69 74 70 74 76 72
2570.0 76 78 77 77 78 80 78 78 76 69
2610.0 74 79 77 78 81 75 84 86 86 88
2650.0 89 92 92 101 105 111 118 128 128 132
2690.0 134 132 131 129 129 130 125 130 129 128
2730.0 129 142 153 166 170 176 182 179 175 173
2770.0 176 170 174 175 174 187 190 203 213 238
2810.0 244 263 296 312 339 384 417 472 552 665
2850.0 812 1025 1302 1636 2029 2370 2585 2694 2748 2708
2890.0 2553 2333 2144 2133 2265 2452 2725 3038 3443 3938
2930.0 4524 5186 5806 6258 6287 5922 5567 5538 6083 7025
2970.0 7620 7390 6301 4704 3404 2540 1988 1572 1266 1011
3010.0 820 678 573 509 455 415 368 342 311 286
3050.0 264 243 225 212 195 189 187 184 173 174
3090.0 164 164 156 150 150 138 150 143 142 143
3130.0 136 138 132 137 138 128 123 133 129 125
3170.0 117 127 125 115 124 132 128 113 114 106
3210.0 110 106 94 103 100 100 104 94 91 92
3250.0 96 99 90 96 85 93 103 89 84 81
3290.0 97 101 98 88 91 98 97 98 93 89
3330.0 95 101 100 103 93 90 92 98 99 107
3370.0 104 91 93 102 101 94 91 99 98 105
3410.0 101 111 103 96 107 95 98 108 104 109
3450.0 109 103 104 125 115 122 131 146 161 161
3490.0 165 178 177 180 173 146 137 132 137 132
3530.0 142 126 132 122 131 119 122 104 121 98
3570.0 114 100 106 82 118 77 113 83 116 79
3610.0 96 93 69 148 64 125 85 121 90 107
3650.0 40 161 70 128 101 102 128 71 165 75
3690.0 107 95 129 119 103 91 117 116 148 71
3730.0 109 107 83 151 22 167 34 192 100 108
3770.0 107 84 145 112 102 106 85 111 48 107
3810.0 89 129 66 140 119 108 88 78 90 144
3850.0 51 106 91 126 89 79 127 82 173 87
3890.0 165 52 99 117 133 131 118 119 118 111
3930.0 62 156 115 97 113 131 136 79 142 149
##END=
