##TITLE=Benzene, 1,2,3-trichloro-4-methoxy-
##JCAMP-DX=4.24
##DATA TYPE=INFRARED SPECTRUM
##ORIGIN=Sadtler Research Labs Under US-EPA Contract
##OWNER=NIST Standard Reference Data Program
##CAS REGISTRY NO=54135-80-7
##MOLFORM=C 7 H 5 Cl 3 O
##XUNITS=1/CM
##YUNITS=ABSORBANCE
##XFACTOR=1.0
##YFACTOR=0.000074216
##DELTAX=4.0
##FIRSTX=450.0
##LASTX=3966.0
##FIRSTY=0.000000
##MAXX=3966
##MINX=450
##MAXY=0.74216
##MINY=0
##NPOINTS=880
##XYDATA=(X++(Y..Y))
450.0 0 398 691 1097 658 589 423 484 695 631
490.0 589 822 817 872 788 791 779 747 734 601
530.0 621 510 521 766 716 683 648 564 582 590
570.0 600 690 726 764 696 652 648 769 845 717
610.0 670 616 611 595 569 614 620 616 663 603
650.0 656 768 1129 1609 1981 2279 2028 1646 1194 856
690.0 724 697 608 603 560 548 544 636 651 582
730.0 601 620 595 664 612 660 680 740 859 1134
770.0 1771 2767 3683 4023 3664 2912 2433 2460 2185 1979
810.0 1817 1540 1325 1108 913 833 782 751 697 639
850.0 632 648 692 742 823 996 1236 1535 1715 1689
890.0 1540 1241 964 806 681 635 644 646 645 611
930.0 597 578 582 586 571 592 591 590 586 552
970.0 568 604 639 659 680 732 811 931 1091 1260
1010.0 1495 1750 2004 2320 2664 3041 3332 3489 3608 3793
1050.0 4201 4626 4558 3933 2847 1780 1286 1258 1439 1740
1090.0 2194 2580 2737 2488 2006 1406 969 802 761 733
1130.0 737 747 759 781 802 835 823 800 799 878
1170.0 1109 1385 1612 1659 1492 1238 990 832 771 762
1210.0 823 864 931 974 1024 1138 1266 1457 1721 2030
1250.0 2384 2694 3042 3540 4278 5201 6068 6738 6987 6702
1290.0 5784 4410 3005 2026 1512 1236 1013 885 819 740
1330.0 712 684 709 775 814 885 980 1154 1417 1744
1370.0 2082 2253 2281 2105 1814 1560 1289 1086 1007 991
1410.0 1205 1536 2316 3846 5884 8540 10000 9350 7269 5079
1450.0 4277 5311 7245 8311 7737 5551 3306 2009 1466 1167
1490.0 1023 964 886 865 787 750 712 683 690 680
1530.0 690 735 747 790 852 985 1187 1439 1964 2350
1570.0 2831 2961 2619 2268 1802 1462 1269 1058 903 804
1610.0 695 659 622 589 579 566 554 555 542 556
1650.0 571 555 555 504 536 522 540 546 534 549
1690.0 542 531 556 561 556 571 548 536 523 512
1730.0 528 507 526 501 488 487 482 468 480 488
1770.0 483 488 462 458 470 474 483 477 462 474
1810.0 471 466 484 495 517 545 553 567 551 566
1850.0 556 547 541 525 518 510 507 502 495 492
1890.0 485 476 476 480 497 511 511 519 512 527
1930.0 542 548 560 557 563 563 545 536 530 524
1970.0 519 503 486 471 471 470 471 471 472 476
2010.0 469 461 461 472 489 494 496 491 483 486
2050.0 489 490 489 480 480 469 462 467 473 485
2090.0 488 487 485 491 504 510 509 503 499 500
2130.0 499 506 510 519 538 549 545 553 548 543
2170.0 528 506 484 464 454 445 442 441 449 460
2210.0 456 445 437 441 451 459 458 456 454 453
2250.0 451 449 451 452 454 442 437 429 430 435
2290.0 434 421 406 407 407 397 406 411 423 440
2330.0 420 443 449 410 503 444 423 425 450 497
2370.0 531 498 490 473 451 433 414 409 419 424
2410.0 427 421 422 424 431 442 444 451 455 456
2450.0 456 445 451 455 460 461 444 432 436 440
2490.0 446 445 448 449 452 454 455 466 486 502
2530.0 505 505 504 505 510 505 494 486 481 470
2570.0 470 462 461 460 455 452 438 433 442 450
2610.0 455 451 446 443 442 440 440 448 451 455
2650.0 449 432 428 431 440 441 437 426 430 424
2690.0 430 431 439 447 446 445 435 438 450 465
2730.0 465 453 454 458 461 460 466 464 465 465
2770.0 450 446 453 475 491 496 493 492 506 514
2810.0 532 545 563 598 630 684 772 917 1085 1207
2850.0 1236 1168 1056 945 878 847 819 800 785 778
2890.0 778 799 851 914 948 956 962 970 965 954
2930.0 987 1063 1282 1673 1986 2097 1986 1722 1522 1476
2970.0 1417 1276 1136 1015 932 886 870 888 932 1026
3010.0 1189 1360 1426 1332 1106 851 707 650 619 606
3050.0 593 571 576 584 604 632 662 687 684 654
3090.0 608 573 548 534 530 524 508 497 492 490
3130.0 490 488 490 498 479 461 452 453 475 474
3170.0 464 455 458 456 457 458 458 464 480 455
3210.0 436 439 457 483 474 462 443 446 449 464
3250.0 459 459 461 453 439 438 442 458 475 460
3290.0 439 431 439 449 454 458 463 460 444 438
3330.0 435 445 467 468 458 449 434 447 456 457
3370.0 457 461 456 460 443 431 452 482 468 457
3410.0 447 439 449 462 466 459 462 451 445 445
3450.0 436 449 468 473 452 440 426 443 464 456
3490.0 458 449 453 442 446 437 452 466 451 438
3530.0 438 420 459 453 447 453 447 446 446 431
3570.0 449 457 465 463 445 433 420 439 476 454
3610.0 453 444 421 460 441 475 455 448 447 436
3650.0 415 462 443 462 450 407 458 432 449 403
3690.0 445 470 421 447 429 397 439 423 438 428
3730.0 401 403 398 443 419 492 436 457 420 406
3770.0 404 399 409 436 414 397 397 401 418 443
3810.0 423 462 421 457 397 397 407 449 449 468
3850.0 395 401 437 416 429 423 436 457 403 397
3890.0 397 408 484 457 445 396 397 428 439 448
3930.0 445 430 442 396 397 397 418 518 498 456
##END=
