##TITLE=Formic acid, 2-methylpropyl ester
##JCAMP-DX=4.24
##DATA TYPE=INFRARED SPECTRUM
##ORIGIN=Sadtler Research Labs Under US-EPA Contract
##OWNER=NIST Standard Reference Data Program
##CAS REGISTRY NO=542-55-2
##MOLFORM=C 5 H 10 O 2
##XUNITS=1/CM
##YUNITS=ABSORBANCE
##XFACTOR=1.0
##YFACTOR=0.000075928
##DELTAX=4.0
##FIRSTX=450.0
##LASTX=3966.0
##FIRSTY=0.003720
##MAXX=3966
##MINX=450
##MAXY=0.75928
##MINY=0
##NPOINTS=880
##XYDATA=(X++(Y..Y))
450.0 49 86 59 40 79 92 117 100 138 91
490.0 85 33 26 13 61 68 78 85 84 72
530.0 28 11 50 27 53 35 91 80 80 79
570.0 121 137 115 135 106 177 158 105 214 182
610.0 203 175 162 193 144 196 240 344 260 209
650.0 169 188 151 167 133 153 162 172 195 137
690.0 163 132 129 140 156 148 119 116 110 126
730.0 133 145 178 204 195 235 197 199 222 212
770.0 188 174 147 153 135 138 130 141 155 158
810.0 189 154 178 204 186 219 170 174 156 174
850.0 155 147 133 160 147 187 199 233 273 281
890.0 364 389 414 438 445 439 428 420 424 457
930.0 508 536 556 563 610 610 632 649 671 672
970.0 645 612 522 429 379 323 322 310 315 331
1010.0 337 375 429 494 597 669 744 774 794 809
1050.0 787 741 674 560 455 419 444 483 531 571
1090.0 586 601 619 642 897 786 923 1083 1230 1381
1130.0 1567 1869 2322 3025 4035 5314 6717 7949 8908 9575
1170.0 9847 9454 8985 8232 7306 6058 4861 3672 2616 1828
1210.0 1329 1064 902 774 682 618 573 533 510 486
1250.0 470 456 449 447 447 455 476 496 522 531
1290.0 514 482 436 389 331 302 287 280 280 287
1330.0 306 313 321 323 322 334 356 391 451 511
1370.0 580 621 658 729 739 706 665 611 516 461
1410.0 359 265 218 184 182 176 190 238 274 345
1450.0 435 535 661 775 874 955 959 937 780 656
1490.0 511 384 284 221 176 148 131 120 106 92
1530.0 91 85 84 85 90 90 88 87 79 77
1570.0 77 75 77 68 76 76 69 74 76 67
1610.0 75 77 80 80 80 87 92 92 98 105
1650.0 105 117 120 112 121 124 131 141 165 188
1690.0 219 266 340 430 533 644 809 1045 1357 1799
1730.0 2533 3874 6227 8968 9847 10000 9699 9766 6537 3869
1770.0 2567 1972 1576 1203 1147 1122 1018 787 569 396
1810.0 280 198 152 127 114 102 92 90 82 83
1850.0 69 63 62 62 54 61 55 46 53 51
1890.0 58 53 54 58 59 66 66 73 73 73
1930.0 64 60 57 58 51 51 38 44 38 38
1970.0 37 31 36 36 36 36 36 35 35 38
2010.0 35 42 42 40 47 48 53 60 67 69
2050.0 73 77 79 79 79 79 79 79 78 85
2090.0 78 84 81 78 77 69 70 67 63 55
2130.0 49 49 42 40 41 35 35 34 34 34
2170.0 29 34 34 34 34 32 32 28 33 25
2210.0 25 28 32 28 25 23 17 17 23 17
2250.0 23 23 22 22 21 31 33 36 40 41
2290.0 48 53 60 67 76 82 86 89 84 89
2330.0 86 85 85 92 92 85 84 90 75 65
2370.0 49 47 40 37 33 22 22 16 22 21
2410.0 21 21 20 22 14 18 13 13 13 9
2450.0 13 6 7 6 7 5 5 6 6 6
2490.0 10 3 11 10 10 11 10 11 10 9
2530.0 7 11 5 9 2 7 2 9 8 2
2570.0 8 8 7 15 15 15 11 14 15 15
2610.0 16 21 15 16 16 16 17 14 23 23
2650.0 23 23 23 31 23 23 25 31 31 23
2690.0 32 32 32 39 40 51 70 76 91 110
2730.0 112 126 117 125 111 104 106 99 96 100
2770.0 92 99 93 93 99 94 99 105 107 117
2810.0 119 139 144 158 178 187 206 220 247 282
2850.0 324 368 436 527 657 828 1051 1302 1503 1653
2890.0 1791 1954 2033 2079 2191 2311 2494 2738 2957 3042
2930.0 3053 3008 2948 2794 2688 2738 2928 3216 3594 4121
2970.0 4517 4465 4298 3881 3201 2381 1662 1057 659 429
3010.0 295 219 168 136 124 109 95 89 88 80
3050.0 82 74 82 76 81 81 79 80 76 76
3090.0 76 74 75 76 83 90 103 102 103 95
3130.0 87 77 66 56 56 45 57 57 57 51
3170.0 51 57 59 64 65 65 58 57 57 51
3210.0 46 45 40 33 39 32 20 35 26 23
3250.0 16 18 20 20 14 20 15 15 2 15
3290.0 15 15 18 14 12 15 16 20 21 21
3330.0 16 22 22 22 31 21 31 22 18 16
3370.0 25 23 25 23 25 17 25 22 19 27
3410.0 26 19 26 26 31 25 25 25 33 31
3450.0 35 41 50 64 80 102 119 116 127 127
3490.0 112 86 65 53 52 43 32 40 48 48
3530.0 46 53 55 67 76 76 68 59 55 48
3570.0 49 45 56 55 68 70 63 55 57 48
3610.0 43 51 42 55 49 56 52 50 62 77
3650.0 91 92 111 119 127 137 135 121 123 107
3690.0 89 74 60 40 34 34 26 33 30 27
3730.0 23 32 27 27 30 28 28 28 28 28
3770.0 28 34 29 31 36 28 31 31 36 36
3810.0 35 42 37 42 42 48 42 48 46 53
3850.0 50 51 38 42 38 44 38 44 46 42
3890.0 39 39 39 32 32 32 33 33 33 32
3930.0 18 27 26 34 34 37 0 2 2 2
##END=
