##TITLE=2-Chloroethyl methyl sulfide
##JCAMP-DX=4.24
##DATA TYPE=INFRARED SPECTRUM
##ORIGIN=Sadtler Research Labs Under US-EPA Contract
##OWNER=NIST Standard Reference Data Program
##CAS REGISTRY NO=542-81-4
##MOLFORM=C 3 H 7 Cl S
##XUNITS=1/CM
##YUNITS=ABSORBANCE
##XFACTOR=1.0
##YFACTOR=0.000087509
##DELTAX=4.0
##FIRSTX=450.0
##LASTX=3966.0
##FIRSTY=0.004375
##MAXX=3966
##MINX=450
##MAXY=0.87509
##MINY=0
##NPOINTS=880
##XYDATA=(X++(Y..Y))
450.0 50 60 46 121 89 82 69 104 142 88
490.0 82 93 104 83 62 56 103 83 67 17
530.0 9 183 135 72 59 80 42 72 73 94
570.0 69 66 96 98 155 84 75 105 123 145
610.0 191 273 372 441 494 518 555 488 552 530
650.0 602 732 825 1135 1389 1970 2523 3259 4192 5285
690.0 5868 5612 5712 5410 5024 5737 8066 9623 10000 9512
730.0 8818 5456 2557 1561 1338 1369 1658 2016 2465 2915
770.0 3135 2830 2025 1165 691 475 327 265 226 248
810.0 253 281 310 352 412 475 610 762 941 1042
850.0 1095 1118 1084 1000 830 703 613 553 455 385
890.0 334 313 306 317 347 374 434 481 538 586
930.0 633 657 686 745 824 961 1092 1202 1241 1289
970.0 1279 1219 1146 1083 1020 983 947 939 923 894
1010.0 919 940 941 959 992 1022 997 965 844 713
1050.0 584 464 393 338 291 246 239 232 224 230
1090.0 238 252 269 295 333 387 449 549 640 701
1130.0 714 709 693 604 513 435 381 340 301 284
1170.0 278 294 333 410 528 672 825 1143 1779 3052
1210.0 4538 5044 4989 5342 4033 2109 1130 797 654 610
1250.0 621 731 938 1323 1945 2677 3108 3266 3593 3922
1290.0 3946 3412 3147 2909 2531 2151 1878 1743 1691 1522
1330.0 1347 1267 987 690 537 466 434 422 405 382
1370.0 380 384 389 386 435 505 575 709 868 1091
1410.0 1335 1644 1960 2406 2878 3441 4133 4687 4785 4616
1450.0 4447 4017 3099 2312 1688 1276 993 747 597 493
1490.0 398 378 355 322 339 349 291 329 309 297
1530.0 272 270 264 270 259 236 261 247 280 224
1570.0 236 229 243 204 207 193 172 177 159 155
1610.0 128 141 116 113 89 91 78 92 68 82
1650.0 63 115 58 51 53 56 57 51 44 76
1690.0 35 34 62 57 41 29 42 47 46 31
1730.0 40 64 53 36 33 42 42 35 40 30
1770.0 31 35 15 20 19 22 17 16 13 11
1810.0 14 9 10 11 10 12 5 5 8 12
1850.0 9 9 8 7 8 7 12 7 9 5
1890.0 14 7 9 8 13 13 7 11 16 11
1930.0 9 6 9 5 13 9 13 14 16 25
1970.0 32 37 45 57 65 70 81 86 102 119
2010.0 131 135 139 139 120 108 110 102 110 118
2050.0 122 126 112 93 77 71 59 54 53 53
2090.0 52 44 43 33 32 33 33 34 34 34
2130.0 36 36 39 42 42 48 50 53 56 58
2170.0 62 67 70 66 67 69 70 65 64 58
2210.0 53 58 53 56 51 56 57 62 64 65
2250.0 70 73 73 71 77 70 72 74 80 81
2290.0 73 71 70 64 52 54 46 43 51 43
2330.0 49 41 63 51 98 53 46 50 85 106
2370.0 138 160 162 153 141 127 122 117 110 97
2410.0 92 89 82 82 72 72 71 70 74 71
2450.0 72 70 73 69 69 65 56 56 57 54
2490.0 54 53 49 47 48 47 36 34 35 38
2530.0 36 29 34 28 27 27 34 39 39 45
2570.0 46 47 46 39 42 33 31 32 20 25
2610.0 18 15 11 14 17 25 35 41 46 37
2650.0 49 55 71 65 64 58 55 41 33 34
2690.0 41 55 62 76 87 92 106 114 129 138
2730.0 157 175 194 214 219 216 207 180 156 143
2770.0 132 135 136 139 148 169 202 235 266 298
2810.0 349 400 472 563 674 824 1031 1275 1593 1871
2850.0 1975 2037 2110 2060 1914 1788 1702 1657 1636 1628
2890.0 1669 1779 2002 2360 2880 3522 4342 5389 6518 7416
2930.0 7573 7578 7885 7338 6477 5842 5444 5199 5055 5225
2970.0 5417 5483 5465 5492 5478 5263 4888 4562 4249 3806
3010.0 3196 2534 2068 1771 1487 1206 995 808 685 592
3050.0 526 469 450 429 411 409 383 378 373 359
3090.0 349 340 329 323 311 305 299 291 281 265
3130.0 253 238 231 218 200 188 180 160 155 141
3170.0 121 114 106 96 91 92 78 85 81 74
3210.0 85 88 95 103 105 106 110 109 102 108
3250.0 110 90 106 96 90 92 96 100 84 94
3290.0 102 106 117 113 118 132 113 98 98 100
3330.0 108 91 91 85 90 81 83 79 86 80
3370.0 79 67 77 78 74 70 74 75 60 73
3410.0 71 81 70 71 85 68 60 55 68 52
3450.0 48 63 63 65 51 53 62 58 37 29
3490.0 53 56 50 44 30 52 46 40 38 43
3530.0 46 52 33 40 35 52 35 29 38 37
3570.0 44 33 44 47 40 33 50 36 50 48
3610.0 30 46 47 39 14 34 55 52 43 63
3650.0 52 54 63 70 40 45 48 69 65 35
3690.0 77 54 71 49 46 47 64 61 47 44
3730.0 72 68 55 45 85 43 87 29 48 32
3770.0 31 21 5 19 4 8 12 13 29 35
3810.0 11 5 25 64 6 13 37 18 0 42
3850.0 7 66 46 25 58 22 33 32 71 66
3890.0 45 44 20 14 9 52 28 10 35 76
3930.0 65 67 58 38 79 36 37 55 31 61
##END=
