##TITLE=Methane, oxybis[chloro-
##JCAMP-DX=4.24
##DATA TYPE=INFRARED SPECTRUM
##ORIGIN=Sadtler Research Labs Under US-EPA Contract
##OWNER=NIST Standard Reference Data Program
##CAS REGISTRY NO=542-88-1
##MOLFORM=C 2 H 4 Cl 2 O
##XUNITS=1/CM
##YUNITS=ABSORBANCE
##XFACTOR=1.0
##YFACTOR=0.000148242
##DELTAX=4.0
##FIRSTX=450.0
##LASTX=3966.0
##FIRSTY=0.000445
##MAXX=3966
##MINX=450
##MAXY=1.48242
##MINY=0
##NPOINTS=880
##XYDATA=(X++(Y..Y))
450.0 3 127 21 100 140 241 147 169 225 169
490.0 164 126 125 133 132 116 153 111 144 95
530.0 140 140 148 153 116 145 150 136 169 143
570.0 132 152 122 143 133 166 144 177 204 216
610.0 233 238 244 280 275 318 315 325 337 352
650.0 392 443 531 659 810 1231 1689 2386 3419 4606
690.0 5635 6131 5987 5676 5332 4263 3044 2275 1755 1345
730.0 1026 794 655 562 493 428 381 347 292 257
770.0 241 222 210 217 183 191 192 206 187 176
810.0 173 171 147 134 117 112 100 89 96 90
850.0 88 94 102 91 99 100 108 108 112 119
890.0 132 148 177 210 243 303 405 534 685 855
930.0 1040 1159 1215 1214 1191 1176 1069 999 874 700
970.0 693 720 602 438 377 342 289 244 218 229
1010.0 250 287 354 417 461 485 519 583 694 915
1050.0 1127 1217 1176 986 782 655 685 846 1114 1636
1090.0 2582 4132 6498 8954 9698 10000 9147 9395 4770 2001
1130.0 992 687 532 437 372 337 342 392 498 554
1170.0 539 513 426 333 293 279 254 207 172 159
1210.0 154 162 199 362 751 1331 1646 1421 1536 1594
1250.0 1195 559 320 269 243 254 251 270 287 287
1290.0 259 278 296 321 405 508 672 870 1007 1125
1330.0 1183 1112 959 744 558 434 317 251 201 164
1370.0 158 136 126 131 118 127 116 110 109 98
1410.0 106 92 105 84 74 83 86 101 124 144
1450.0 211 234 275 285 291 272 240 195 165 129
1490.0 106 91 80 64 68 50 67 48 54 54
1530.0 59 45 50 35 61 54 37 44 52 53
1570.0 63 54 62 51 61 49 39 48 38 49
1610.0 42 49 47 45 51 56 60 49 52 51
1650.0 30 33 34 53 40 40 38 47 51 41
1690.0 55 49 47 55 66 74 59 54 65 55
1730.0 43 46 22 67 84 55 30 51 51 61
1770.0 64 60 73 59 66 55 58 60 58 54
1810.0 49 50 46 51 46 41 47 44 36 25
1850.0 46 42 40 40 37 39 39 45 41 47
1890.0 36 38 50 36 40 39 36 38 34 37
1930.0 31 34 31 27 37 33 30 40 30 39
1970.0 43 45 36 41 40 40 40 46 57 62
2010.0 75 92 105 131 157 196 225 235 229 209
2050.0 186 131 83 60 52 52 55 44 39 38
2090.0 24 30 32 26 34 41 54 53 62 65
2130.0 78 74 79 71 62 48 43 43 54 56
2170.0 65 69 52 54 61 46 38 32 35 36
2210.0 32 37 37 38 29 29 29 23 33 32
2250.0 37 34 32 35 38 33 30 30 32 37
2290.0 37 44 52 41 50 54 52 51 58 61
2330.0 70 75 83 70 92 77 44 47 63 79
2370.0 94 95 81 77 70 60 42 43 44 35
2410.0 30 31 30 33 35 31 25 33 31 33
2450.0 35 26 17 13 14 18 18 15 12 11
2490.0 14 20 18 13 11 14 14 10 3 6
2530.0 10 19 13 3 0 5 9 3 6 16
2570.0 18 11 6 9 18 12 16 21 14 18
2610.0 17 17 12 11 18 13 14 22 21 30
2650.0 21 23 26 12 13 18 30 27 21 20
2690.0 23 35 28 35 35 31 37 38 36 41
2730.0 48 45 52 42 45 55 64 51 50 51
2770.0 46 53 60 65 60 68 65 95 99 76
2810.0 73 69 56 83 66 47 53 45 37 55
2850.0 50 53 50 53 80 63 67 81 104 123
2890.0 138 166 196 192 208 226 200 178 167 171
2930.0 142 133 135 142 168 183 198 286 353 428
2970.0 492 503 579 533 464 427 359 285 235 149
3010.0 140 121 107 112 138 146 179 177 193 189
3050.0 178 147 124 95 82 60 35 27 31 27
3090.0 26 14 10 26 24 9 20 9 23 12
3130.0 9 24 15 9 15 16 22 13 11 15
3170.0 17 16 19 17 2 15 26 9 21 16
3210.0 14 22 19 21 8 14 13 16 12 6
3250.0 6 10 13 23 14 8 13 19 19 18
3290.0 8 6 21 17 16 17 31 15 8 18
3330.0 27 21 20 15 21 14 7 14 20 7
3370.0 17 10 11 19 16 17 22 15 22 25
3410.0 24 34 25 38 33 26 26 12 17 16
3450.0 8 22 18 15 24 26 34 31 30 27
3490.0 17 14 15 5 21 27 9 27 27 19
3530.0 27 22 19 28 18 25 15 22 19 26
3570.0 30 19 9 6 8 17 2 18 12 19
3610.0 17 23 19 0 25 4 24 18 20 19
3650.0 20 34 25 16 3 23 4 18 36 41
3690.0 21 31 36 39 26 7 30 13 3 9
3730.0 20 35 15 19 32 6 27 6 15 15
3770.0 15 9 55 1 21 14 25 0 3 21
3810.0 18 0 0 23 38 13 19 0 3 5
3850.0 10 1 17 32 11 8 21 0 3 7
3890.0 2 1 2 19 29 29 18 23 26 11
3930.0 5 0 7 21 29 48 20 41 13 32
##END=
