##TITLE=Butane, 1-iodo-
##JCAMP-DX=4.24
##DATA TYPE=INFRARED SPECTRUM
##ORIGIN=Sadtler Research Labs Under US-EPA Contract
##OWNER=NIST Standard Reference Data Program
##CAS REGISTRY NO=542-69-8
##MOLFORM=C 4 H 9 I
##XUNITS=1/CM
##YUNITS=ABSORBANCE
##XFACTOR=1.0
##YFACTOR=0.000076953
##DELTAX=4.0
##FIRSTX=450.0
##LASTX=3966.0
##FIRSTY=0.015160
##MAXX=3966
##MINX=450
##MAXY=0.76953
##MINY=0
##NPOINTS=880
##XYDATA=(X++(Y..Y))
450.0 197 222 214 190 171 185 205 209 271 376
490.0 330 290 389 445 469 449 309 323 227 245
530.0 141 161 191 140 104 95 123 21 99 155
570.0 245 324 446 405 603 837 1016 965 769 519
610.0 325 164 119 125 59 72 81 100 29 31
650.0 61 98 98 84 66 198 123 97 126 81
690.0 132 110 150 145 183 219 263 369 470 746
730.0 869 882 853 834 469 384 331 291 299 306
770.0 352 371 418 351 275 228 233 197 126 140
810.0 112 93 45 80 40 100 140 144 107 138
850.0 144 224 308 382 395 421 445 331 321 300
890.0 276 288 274 259 229 175 161 129 95 111
930.0 91 106 99 86 79 72 78 109 143 149
970.0 135 164 148 169 198 157 177 152 171 140
1010.0 123 116 105 121 101 119 123 119 156 183
1050.0 183 179 168 163 121 124 114 144 230 280
1090.0 296 325 322 267 208 160 164 154 149 140
1130.0 165 168 194 227 246 285 376 525 767 1234
1170.0 1865 2613 3569 4473 4942 5129 4522 3577 2830 1826
1210.0 1065 721 594 570 582 678 883 1322 2000 2536
1250.0 2630 2714 2618 1949 1298 978 829 772 813 900
1290.0 919 884 776 644 506 404 335 294 266 242
1330.0 259 305 419 506 531 574 529 508 514 456
1370.0 430 522 607 673 703 720 685 552 425 385
1410.0 361 404 506 628 759 941 1094 1258 1244 1299
1450.0 1399 1445 1683 1633 1623 1438 1367 1118 869 684
1490.0 598 428 397 271 309 287 180 193 244 173
1530.0 122 151 127 271 154 104 111 209 214 87
1570.0 120 74 156 59 61 60 61 52 67 56
1610.0 54 46 127 55 77 61 55 130 41 83
1650.0 81 246 73 54 57 109 80 89 70 180
1690.0 69 50 145 193 82 54 55 146 57 38
1730.0 37 130 76 75 54 72 67 60 62 38
1770.0 65 96 32 45 47 20 78 28 49 14
1810.0 22 25 16 9 24 45 22 16 12 68
1850.0 15 14 21 15 15 42 18 12 15 23
1890.0 30 23 18 28 9 27 22 35 26 27
1930.0 13 18 17 17 20 15 8 8 22 14
1970.0 9 9 9 9 9 9 9 9 9 9
2010.0 9 9 21 14 21 22 28 34 35 35
2050.0 27 31 35 32 29 28 27 21 21 15
2090.0 7 21 12 13 8 21 8 13 10 14
2130.0 8 8 9 10 7 18 21 21 22 22
2170.0 20 27 15 29 22 22 35 30 30 25
2210.0 23 19 27 26 22 29 19 17 25 24
2250.0 24 20 25 13 25 21 19 18 14 13
2290.0 12 13 6 14 7 14 14 16 31 53
2330.0 78 94 89 123 144 14 17 118 251 291
2370.0 300 241 163 101 41 16 15 23 23 16
2410.0 22 17 17 19 24 18 27 27 25 19
2450.0 18 18 17 18 18 19 19 18 18 15
2490.0 19 14 21 19 12 20 20 20 13 18
2530.0 21 21 20 17 21 21 13 10 15 14
2570.0 15 8 17 21 23 26 28 36 37 41
2610.0 46 56 70 72 72 65 59 59 57 58
2650.0 54 56 59 56 67 61 63 70 70 74
2690.0 69 76 65 52 61 58 60 72 78 85
2730.0 99 111 113 143 149 153 154 130 125 116
2770.0 116 120 135 148 162 169 181 201 212 230
2810.0 254 292 327 395 473 600 761 988 1243 1416
2850.0 1571 1732 1835 1934 2153 2445 2851 3445 4075 4305
2890.0 4286 4172 3668 3169 2900 2842 2944 3207 3563 4015
2930.0 4618 5422 6353 7052 7317 7417 7486 7600 8120 8966
2970.0 9962 10000 9088 7914 5783 4095 3037 2288 1782 1437
3010.0 1265 1136 1029 923 824 714 598 512 436 380
3050.0 332 292 279 242 228 219 210 186 186 176
3090.0 171 168 154 154 148 136 121 127 126 114
3130.0 109 98 101 96 86 87 85 88 67 75
3170.0 80 81 89 90 80 72 69 70 65 60
3210.0 63 59 53 52 47 53 53 38 36 24
3250.0 13 25 19 9 11 37 18 11 26 17
3290.0 15 6 9 18 10 18 25 20 14 15
3330.0 28 2 5 15 19 19 26 27 13 30
3370.0 31 24 7 19 8 26 21 10 12 17
3410.0 17 15 1 28 11 22 17 16 24 11
3450.0 30 11 25 18 18 28 12 29 20 26
3490.0 20 9 7 16 27 24 29 23 17 34
3530.0 25 8 18 25 46 31 26 4 21 28
3570.0 67 25 17 16 28 71 35 36 22 18
3610.0 66 63 32 62 30 118 61 22 25 31
3650.0 116 52 61 6 15 73 77 97 39 32
3690.0 88 31 26 37 19 47 74 12 42 47
3730.0 37 78 95 48 124 100 80 29 35 17
3770.0 19 15 9 11 7 6 6 30 51 38
3810.0 35 20 66 55 6 22 21 40 43 19
3850.0 20 86 22 0 18 38 23 4 14 10
3890.0 7 20 22 37 19 0 0 0 0 0
3930.0 0 0 0 0 0 0 0 0 0 0
##END=
