##TITLE=Ethanol, 2-chloro-, acetate
##JCAMP-DX=4.24
##DATA TYPE=INFRARED SPECTRUM
##ORIGIN=Sadtler Research Labs Under US-EPA Contract
##OWNER=NIST Standard Reference Data Program
##CAS REGISTRY NO=542-58-5
##MOLFORM=C 4 H 7 Cl O 2
##XUNITS=1/CM
##YUNITS=ABSORBANCE
##XFACTOR=1.0
##YFACTOR=0.000093478
##DELTAX=4.0
##FIRSTX=450.0
##LASTX=3966.0
##FIRSTY=0.000000
##MAXX=3966
##MINX=450
##MAXY=0.93478
##MINY=0
##NPOINTS=880
##XYDATA=(X++(Y..Y))
450.0 0 662 883 463 772 613 751 576 518 645
490.0 644 552 606 522 611 596 706 612 661 614
530.0 668 681 829 673 660 577 450 541 635 566
570.0 579 514 555 706 650 635 614 659 719 638
610.0 667 623 568 642 691 749 670 641 839 641
650.0 618 690 727 657 579 725 786 759 891 898
690.0 972 847 595 496 413 399 416 374 326 360
730.0 373 410 414 579 527 620 673 719 697 740
770.0 679 666 648 666 618 579 527 537 591 561
810.0 605 569 557 553 579 557 541 579 592 611
850.0 588 601 602 618 587 619 590 606 619 659
890.0 690 687 713 732 743 762 782 799 815 829
930.0 835 852 836 839 801 771 762 786 796 808
970.0 816 854 879 891 904 914 903 926 928 962
1010.0 999 1044 1153 1314 1507 1780 2025 2229 2337 2342
1050.0 2274 2111 1935 1839 1802 1845 1882 1915 1915 1841
1090.0 1690 1437 1167 989 852 770 713 663 639 656
1130.0 668 697 705 739 793 818 857 915 987 1062
1170.0 1116 1205 1245 1322 1410 1520 1670 1925 2340 2940
1210.0 3802 5083 6744 8452 9816 10000 9424 7903 5879 4190
1250.0 2962 2207 1864 1710 1632 1568 1480 1374 1244 1140
1290.0 1070 1043 1055 1076 1069 1022 946 861 763 676
1330.0 617 583 569 571 600 654 776 972 1263 1495
1370.0 1655 1824 1877 1843 1814 1710 1561 1392 1154 948
1410.0 807 718 685 688 736 793 905 992 976 935
1450.0 951 899 856 794 738 667 642 584 566 566
1490.0 542 520 505 500 498 484 507 484 486 499
1530.0 483 486 455 471 475 468 463 444 455 468
1570.0 456 461 452 452 462 462 463 474 453 470
1610.0 472 446 469 451 468 461 465 457 458 454
1650.0 444 451 456 479 474 479 478 498 498 513
1690.0 529 536 546 545 567 579 604 627 668 728
1730.0 772 899 1071 1337 1745 2308 3091 4128 5140 5857
1770.0 6142 6133 5786 4735 3649 2910 2475 2258 1939 1680
1810.0 1453 1145 902 740 627 572 537 515 506 502
1850.0 508 492 470 469 449 451 451 448 445 443
1890.0 445 447 440 436 436 429 430 418 422 417
1930.0 415 416 419 416 411 411 412 410 410 410
1970.0 404 411 411 411 411 409 411 418 419 420
2010.0 422 423 423 430 433 436 433 432 433 428
2050.0 427 422 421 424 423 426 422 417 414 407
2090.0 411 406 402 402 398 402 402 402 407 403
2130.0 400 399 394 399 398 400 396 392 395 388
2170.0 388 392 394 399 392 388 392 386 391 387
2210.0 387 388 387 386 389 384 387 389 390 392
2250.0 384 380 378 376 387 380 379 376 373 370
2290.0 364 360 357 356 349 343 337 329 326 334
2330.0 332 343 341 336 348 344 327 338 342 352
2370.0 370 366 373 362 360 363 363 357 363 359
2410.0 355 356 355 361 357 355 357 360 361 357
2450.0 361 363 357 362 359 352 352 353 356 353
2490.0 349 347 346 348 345 345 346 347 348 345
2530.0 342 340 337 341 343 340 349 342 338 338
2570.0 342 350 343 345 347 348 348 351 349 347
2610.0 346 354 351 349 351 348 351 350 352 352
2650.0 348 346 356 355 349 351 350 358 350 351
2690.0 352 355 358 359 362 362 358 360 361 362
2730.0 366 362 361 363 362 372 366 362 360 360
2770.0 360 352 354 356 353 362 357 357 356 351
2810.0 365 365 370 374 376 382 384 389 395 404
2850.0 419 437 444 463 473 480 503 510 533 547
2890.0 554 564 557 565 560 550 552 556 561 579
2930.0 603 648 687 733 806 860 915 976 1008 1028
2970.0 1020 1039 1053 998 927 854 773 719 679 650
3010.0 640 629 606 578 560 542 523 503 491 471
3050.0 472 455 445 443 438 434 429 429 418 407
3090.0 400 392 401 392 373 375 371 373 368 368
3130.0 366 364 360 363 356 357 352 361 363 353
3170.0 355 343 350 354 350 357 356 343 352 352
3210.0 346 354 351 350 343 355 346 344 345 351
3250.0 353 348 342 346 342 338 353 349 357 346
3290.0 343 351 344 339 347 347 356 350 349 347
3330.0 339 339 350 348 349 345 342 347 345 354
3370.0 349 344 350 342 349 351 341 353 353 353
3410.0 352 341 345 349 354 359 357 344 346 357
3450.0 361 348 352 363 354 359 354 350 362 352
3490.0 362 365 372 369 370 372 376 376 371 369
3530.0 367 358 344 339 342 371 389 420 448 458
3570.0 457 417 470 520 469 400 460 455 433 400
3610.0 364 358 349 352 338 345 352 356 358 364
3650.0 356 367 349 365 364 359 358 365 365 349
3690.0 349 326 339 333 346 341 344 342 342 341
3730.0 350 348 353 347 338 367 351 367 357 351
3770.0 359 356 366 350 342 351 345 354 349 351
3810.0 328 333 348 357 355 354 343 330 352 344
3850.0 341 330 349 346 356 366 344 348 381 352
3890.0 357 365 335 336 338 356 362 348 360 357
3930.0 347 379 344 346 341 329 363 354 326 363
##END=
