##TITLE=Cyclohexane, chloro-
##JCAMP-DX=4.24
##DATA TYPE=INFRARED SPECTRUM
##ORIGIN=Sadtler Research Labs Under US-EPA Contract
##OWNER=NIST Standard Reference Data Program
##CAS REGISTRY NO=542-18-7
##MOLFORM=C 6 H 11 Cl
##XUNITS=1/CM
##YUNITS=ABSORBANCE
##XFACTOR=1.0
##YFACTOR=0.000054776
##DELTAX=4.0
##FIRSTX=450.0
##LASTX=3966.0
##FIRSTY=0.004492
##MAXX=3966
##MINX=450
##MAXY=0.54776
##MINY=0
##NPOINTS=880
##XYDATA=(X++(Y..Y))
450.0 82 66 82 100 74 78 74 49 43 39
490.0 42 52 53 143 126 149 153 101 109 36
530.0 40 34 61 76 99 140 195 205 206 189
570.0 178 139 62 62 21 7 42 38 61 44
610.0 45 36 26 44 29 36 44 33 35 36
650.0 35 42 43 72 88 158 199 257 321 338
690.0 390 291 270 211 98 72 103 138 293 529
730.0 867 1066 1071 1062 996 592 179 40 43 39
770.0 35 41 50 59 56 70 120 150 249 423
810.0 611 713 705 637 630 342 144 112 171 240
850.0 309 390 414 507 433 410 400 399 526 619
890.0 507 501 284 142 84 59 66 70 66 74
930.0 66 74 46 55 57 37 53 49 55 70
970.0 76 132 209 335 457 509 536 534 459 380
1010.0 263 263 260 240 241 193 146 106 83 63
1050.0 53 53 53 60 66 59 81 84 103 120
1090.0 113 142 132 160 132 104 102 88 84 94
1130.0 91 106 101 98 88 60 69 51 50 52
1170.0 43 51 45 46 48 39 60 81 142 293
1210.0 434 479 530 463 449 254 141 93 94 141
1250.0 235 408 584 794 935 982 971 680 587 326
1290.0 147 74 57 61 74 76 97 98 113 140
1330.0 171 243 289 340 366 377 305 243 193 179
1370.0 114 81 61 40 43 30 38 46 42 52
1410.0 53 64 81 105 161 230 376 515 710 967
1450.0 1052 1170 1197 998 826 635 407 275 163 115
1490.0 51 43 30 28 32 26 36 27 13 24
1530.0 24 21 25 1 30 20 27 17 13 24
1570.0 15 27 18 23 18 21 18 21 18 20
1610.0 21 17 17 8 27 14 19 16 22 14
1650.0 27 4 19 10 25 3 18 13 19 12
1690.0 25 22 18 15 28 19 21 21 22 28
1730.0 20 20 40 20 26 29 22 23 21 18
1770.0 17 14 21 16 19 21 12 20 14 17
1810.0 17 18 16 17 19 10 18 14 13 14
1850.0 15 13 14 14 16 13 14 13 14 14
1890.0 16 14 14 13 14 13 14 15 16 13
1930.0 12 13 13 4 14 12 12 12 11 13
1970.0 12 12 12 11 11 14 13 12 11 12
2010.0 10 11 12 12 11 11 10 10 12 10
2050.0 10 10 11 11 11 10 10 10 11 11
2090.0 10 10 10 10 10 9 9 11 11 9
2130.0 9 10 11 9 17 20 19 20 13 13
2170.0 16 12 18 9 19 19 18 26 18 15
2210.0 12 17 18 7 18 18 17 17 9 8
2250.0 18 7 16 8 14 9 8 8 8 8
2290.0 7 6 3 4 2 1 2 1 1 1
2330.0 1 1 8 0 7 8 1 2 5 7
2370.0 21 16 31 22 18 25 10 19 9 9
2410.0 10 8 17 13 18 19 7 13 10 10
2450.0 10 10 9 10 10 12 10 25 23 28
2490.0 28 21 30 18 21 28 20 20 21 18
2530.0 21 21 21 9 14 21 13 21 20 29
2570.0 21 19 29 23 26 35 33 38 44 41
2610.0 38 39 49 40 39 48 39 50 52 57
2650.0 72 75 93 98 95 102 93 93 85 75
2690.0 77 66 65 54 49 57 38 44 40 32
2730.0 32 14 16 16 16 15 15 15 14 19
2770.0 29 32 52 60 78 105 108 114 117 122
2810.0 124 113 120 112 122 147 175 258 369 560
2850.0 899 1368 1826 2343 2689 2805 2635 2262 1814 1397
2890.0 1128 962 946 974 1088 1193 1419 1762 2117 2774
2930.0 3856 5387 7029 8311 9441 10000 9033 7518 6464 4355
2970.0 2897 1819 1141 668 354 191 105 84 67 56
3010.0 58 41 43 38 33 43 36 34 47 40
3050.0 58 31 40 50 49 62 41 53 51 44
3090.0 53 34 29 41 34 43 26 32 38 36
3130.0 43 43 38 57 42 51 44 45 44 27
3170.0 35 26 36 31 25 33 28 30 26 28
3210.0 29 28 20 29 10 27 30 26 31 30
3250.0 30 30 32 29 30 30 31 30 31 31
3290.0 29 26 26 34 12 22 21 16 22 15
3330.0 33 17 21 26 17 31 29 21 37 24
3370.0 36 25 27 27 26 34 23 15 32 16
3410.0 35 28 38 25 38 37 28 37 38 38
3450.0 47 38 38 39 39 33 37 25 23 13
3490.0 31 33 20 25 17 41 37 27 36 36
3530.0 39 41 16 33 19 30 16 35 26 22
3570.0 44 31 21 23 11 31 37 33 37 19
3610.0 24 6 22 23 22 25 24 32 30 16
3650.0 32 44 33 41 30 19 33 25 43 30
3690.0 25 41 33 27 24 27 26 41 39 38
3730.0 27 23 24 15 12 20 26 28 35 25
3770.0 45 35 22 29 23 34 33 29 31 34
3810.0 52 41 41 29 37 32 28 16 44 32
3850.0 41 44 38 35 41 40 39 24 41 30
3890.0 35 31 33 38 48 43 45 37 38 37
3930.0 45 48 45 54 51 47 39 36 36 36
##END=
