##TITLE=Isoamyl mandelate
##JCAMP-DX=4.24
##DATA TYPE=INFRARED SPECTRUM
##ORIGIN=Sadtler Research Labs Under US-EPA Contract
##OWNER=NIST Standard Reference Data Program
##CAS REGISTRY NO=5421-04-5
##MOLFORM=C 13 H 18 O 3
##XUNITS=1/CM
##YUNITS=ABSORBANCE
##XFACTOR=1.0
##YFACTOR=0.000080731
##DELTAX=4.0
##FIRSTX=450.0
##LASTX=3966.0
##FIRSTY=0.000000
##MAXX=3966
##MINX=450
##MAXY=0.80731
##MINY=0
##NPOINTS=880
##XYDATA=(X++(Y..Y))
450.0 0 130 305 260 311 262 255 303 185 261
490.0 256 331 317 417 400 415 427 374 389 351
530.0 330 259 268 205 213 257 193 132 138 123
570.0 89 184 151 205 228 318 337 377 392 364
610.0 346 326 357 329 328 241 220 175 170 174
650.0 145 210 200 327 347 504 589 667 783 1028
690.0 1649 2144 2287 1761 1268 989 1009 981 1024 1193
730.0 1426 1595 1625 1204 895 724 618 573 537 498
770.0 479 470 467 463 464 428 380 334 293 243
810.0 210 197 200 198 195 190 180 180 160 132
850.0 120 129 119 127 126 133 148 164 179 192
890.0 228 247 276 317 357 407 464 538 589 606
930.0 581 577 601 654 723 802 883 947 1064 1192
970.0 1311 1332 1286 1188 1103 1052 1041 1044 1025 986
1010.0 916 900 914 1001 1119 1200 1226 1251 1347 1530
1050.0 1754 2021 2361 2761 3068 3050 2783 2549 2616 2925
1090.0 3289 3465 3312 3013 2855 2833 2643 2207 1729 1399
1130.0 1219 1136 1114 1146 1246 1409 1667 1969 2364 2873
1170.0 3506 4230 5174 6309 7034 6775 5875 5404 5683 6187
1210.0 6206 5685 4905 4320 4004 3889 3915 4111 4501 4986
1250.0 5465 5758 5820 5582 5230 4911 4759 4674 4459 4053
1290.0 3482 2931 2453 2088 1806 1581 1386 1212 1089 1002
1330.0 951 921 885 883 900 898 888 883 912 1003
1370.0 1118 1229 1315 1357 1341 1311 1203 1033 878 736
1410.0 614 525 428 424 415 459 496 551 649 756
1450.0 967 1192 1369 1484 1507 1478 1322 1116 928 773
1490.0 735 828 817 673 432 240 198 149 129 148
1530.0 137 145 126 96 88 125 103 82 101 119
1570.0 122 111 138 144 162 180 219 254 285 291
1610.0 241 180 131 119 107 115 117 106 137 112
1650.0 136 108 181 159 185 167 197 218 236 266
1690.0 338 419 445 554 620 714 742 851 1059 1335
1730.0 1905 2973 5075 7466 10000 9645 7913 5605 4019 2967
1770.0 2202 1561 1178 894 765 647 607 567 500 437
1810.0 358 301 261 232 197 175 159 162 142 128
1850.0 145 151 153 151 160 141 171 170 174 169
1890.0 163 163 159 150 136 128 120 123 113 127
1930.0 139 156 180 187 190 186 178 175 172 145
1970.0 121 104 101 100 96 94 86 93 91 92
2010.0 91 91 89 90 91 93 96 93 94 97
2050.0 101 95 100 101 94 96 99 104 99 100
2090.0 100 103 104 106 109 112 109 110 112 111
2130.0 117 116 116 112 115 115 116 119 114 116
2170.0 113 117 110 109 107 105 104 102 108 107
2210.0 107 106 107 105 102 101 100 100 100 101
2250.0 101 100 100 101 99 102 104 106 105 101
2290.0 100 98 95 94 93 88 98 85 81 81
2330.0 79 79 82 93 81 117 79 79 79 79
2370.0 79 110 117 125 123 123 120 118 120 119
2410.0 120 116 120 117 114 120 122 119 117 120
2450.0 119 120 118 118 120 119 117 118 120 118
2490.0 122 121 125 121 124 121 119 119 120 120
2530.0 118 121 120 120 118 117 117 114 117 116
2570.0 122 119 126 127 131 133 137 139 137 138
2610.0 136 137 133 131 135 136 135 136 137 138
2650.0 137 132 135 134 135 134 137 134 136 134
2690.0 134 137 132 140 139 144 146 152 161 167
2730.0 176 186 194 197 198 198 195 192 188 190
2770.0 195 201 204 206 211 216 221 231 235 247
2810.0 255 272 290 309 339 360 394 437 490 562
2850.0 634 698 775 887 1054 1283 1586 1927 2237 2410
2890.0 2393 2292 2233 2265 2368 2510 2653 2768 2835 2929
2930.0 3077 3223 3352 3398 3382 3349 3506 4008 4902 5970
2970.0 6644 6290 5059 3760 2754 2030 1497 1148 914 739
3010.0 626 562 534 551 625 776 999 1206 1268 1145
3050.0 937 779 735 804 993 1274 1444 1382 1118 873
3090.0 773 734 669 574 481 415 372 319 262 222
3130.0 195 177 166 165 162 157 158 159 157 161
3170.0 165 162 164 158 150 146 144 137 133 131
3210.0 122 124 120 112 115 111 108 105 105 103
3250.0 100 99 99 97 98 94 97 94 90 96
3290.0 93 89 86 92 95 89 95 98 95 92
3330.0 88 90 94 94 96 94 100 94 105 101
3370.0 103 104 98 98 93 98 97 98 95 98
3410.0 99 92 92 95 95 100 96 97 94 99
3450.0 109 115 127 135 148 153 156 152 152 152
3490.0 146 149 153 159 157 178 191 209 221 241
3530.0 292 352 459 623 874 1185 1464 1608 1600 1452
3570.0 1274 1079 894 722 563 472 379 335 293 272
3610.0 249 248 263 307 395 430 425 379 296 260
3650.0 199 207 208 190 207 142 178 123 171 117
3690.0 119 101 112 97 95 79 81 83 78 79
3730.0 79 79 79 94 78 88 79 79 79 79
3770.0 79 79 79 79 79 79 84 79 90 79
3810.0 92 79 79 79 78 92 81 78 79 102
3850.0 76 86 91 89 90 99 83 104 96 83
3890.0 110 94 98 79 86 101 94 96 87 88
3930.0 92 78 94 85 82 84 98 103 98 101
##END=
