##TITLE=Methanone, cyclopentylphenyl-
##JCAMP-DX=4.24
##DATA TYPE=INFRARED SPECTRUM
##ORIGIN=Sadtler Research Labs Under US-EPA Contract
##OWNER=NIST Standard Reference Data Program
##CAS REGISTRY NO=5422-88-8
##MOLFORM=C 12 H 14 O
##XUNITS=1/CM
##YUNITS=ABSORBANCE
##XFACTOR=1.0
##YFACTOR=0.000057941
##DELTAX=4.0
##FIRSTX=450.0
##LASTX=3966.0
##FIRSTY=0.000000
##MAXX=3966
##MINX=450
##MAXY=0.57941
##MINY=0
##NPOINTS=880
##XYDATA=(X++(Y..Y))
450.0 0 272 303 265 260 224 246 244 253 200
490.0 215 222 179 213 218 204 178 182 188 203
530.0 205 212 192 184 182 211 240 261 258 260
570.0 297 281 275 322 308 322 296 343 348 358
610.0 418 463 521 565 605 630 692 776 856 945
650.0 1065 1135 1169 1159 1162 1234 1289 1540 2100 2891
690.0 3863 4663 4973 4596 3700 2746 1958 1452 1104 993
730.0 914 830 785 736 702 679 686 681 722 771
770.0 829 830 828 803 734 660 589 526 471 437
810.0 437 460 492 531 562 608 601 603 593 556
850.0 529 518 539 610 793 1044 1245 1287 1122 825
890.0 639 546 503 506 512 560 583 603 619 624
930.0 610 602 600 616 640 628 589 554 533 555
970.0 625 713 849 1045 1416 2022 2775 3553 3810 3306
1010.0 2507 1525 1014 799 720 685 714 717 690 602
1050.0 495 437 413 407 422 420 406 359 313 263
1090.0 242 247 247 256 243 234 228 235 251 264
1130.0 293 329 374 429 508 601 719 843 997 1197
1170.0 1493 1953 2375 2376 2087 1650 1575 1990 2816 4175
1210.0 6183 8382 9509 8870 6594 4190 2804 2208 1905 1667
1250.0 1471 1369 1394 1473 1553 1581 1575 1523 1457 1393
1290.0 1351 1322 1310 1293 1265 1239 1211 1124 1016 903
1330.0 868 940 1078 1343 1732 2218 2678 2881 2733 2309
1370.0 1789 1347 1059 860 706 584 484 401 362 340
1410.0 327 331 323 355 382 450 547 797 1303 1949
1450.0 2161 2092 1547 1063 836 707 623 584 541 461
1490.0 375 341 304 290 261 247 244 233 219 234
1530.0 235 243 237 222 224 227 222 213 255 321
1570.0 411 563 742 845 892 877 922 1015 1016 879
1610.0 630 468 410 382 342 330 302 315 339 375
1650.0 425 510 610 714 843 1031 1330 1860 2684 4106
1690.0 6242 8690 10000 9853 8078 5314 3228 1963 1328 1017
1730.0 826 682 588 507 444 411 406 396 379 374
1770.0 357 324 298 264 236 223 231 260 309 367
1810.0 386 359 313 251 224 206 199 186 178 170
1850.0 176 177 176 183 183 184 203 218 233 251
1890.0 272 290 298 303 302 288 271 247 220 207
1930.0 200 203 220 239 266 306 330 340 340 332
1970.0 322 301 267 228 208 195 195 200 199 201
2010.0 201 198 198 202 207 209 204 201 201 195
2050.0 195 196 194 192 192 187 188 191 194 193
2090.0 193 192 189 190 191 184 182 184 182 179
2130.0 179 181 179 182 184 185 186 182 188 189
2170.0 187 199 198 198 197 201 197 200 197 193
2210.0 192 193 191 190 190 194 196 197 200 201
2250.0 200 205 206 204 203 203 204 206 208 207
2290.0 204 208 207 211 213 222 250 256 269 266
2330.0 253 247 246 266 263 249 240 226 217 216
2370.0 222 224 217 212 203 205 205 198 193 192
2410.0 189 189 189 192 189 194 198 199 189 191
2450.0 189 188 182 185 182 176 179 177 180 179
2490.0 178 177 170 176 176 171 175 178 177 172
2530.0 176 172 172 175 176 175 176 178 177 176
2570.0 186 194 195 200 206 216 217 224 217 214
2610.0 209 207 198 203 194 197 197 196 197 193
2650.0 189 191 195 189 189 189 187 193 188 192
2690.0 187 193 193 195 194 201 200 202 210 213
2730.0 223 231 235 230 235 235 236 242 245 243
2770.0 256 252 258 259 266 271 285 297 307 318
2810.0 326 339 347 364 384 414 453 492 552 626
2850.0 710 831 1001 1261 1666 2272 3072 3789 4023 3701
2890.0 3030 2409 2080 1976 2038 2229 2527 2876 3252 3595
2930.0 3889 4160 4484 4926 5553 6375 7356 8343 9094 9319
2970.0 8840 7741 6329 4913 3709 2779 2132 1709 1434 1240
3010.0 1087 983 928 933 991 1073 1181 1281 1311 1246
3050.0 1165 1118 1241 1483 1858 2383 2567 2430 2012 1605
3090.0 1550 1488 1336 1086 872 699 542 422 348 305
3130.0 275 261 255 249 248 254 257 266 272 267
3170.0 246 232 219 208 207 203 204 200 209 203
3210.0 200 198 196 193 194 195 191 189 191 188
3250.0 187 185 188 188 195 189 191 189 196 193
3290.0 188 191 191 193 182 180 181 192 185 183
3330.0 184 184 187 192 202 202 198 213 222 243
3370.0 278 300 298 296 271 249 218 197 190 176
3410.0 184 183 175 188 188 188 182 185 191 179
3450.0 191 184 182 200 196 195 192 190 177 186
3490.0 199 203 188 195 200 193 195 191 181 196
3530.0 182 199 194 189 189 196 187 191 191 191
3570.0 178 192 208 198 205 202 194 188 184 170
3610.0 182 177 185 190 187 195 193 191 189 209
3650.0 191 205 207 204 205 202 196 199 204 214
3690.0 209 203 218 198 204 214 214 203 216 223
3730.0 221 200 214 213 204 220 200 208 209 213
3770.0 196 212 198 205 211 213 211 201 207 204
3810.0 209 234 215 206 205 203 198 201 199 188
3850.0 183 203 202 202 219 218 222 207 210 205
3890.0 196 188 187 197 209 200 203 202 212 218
3930.0 190 193 213 226 207 199 206 212 189 188
##END=
