##TITLE=Acetonitrile, (methylimino)di-
##JCAMP-DX=4.24
##DATA TYPE=INFRARED SPECTRUM
##ORIGIN=Sadtler Research Labs Under US-EPA Contract
##OWNER=NIST Standard Reference Data Program
##CAS REGISTRY NO=5423-24-5
##MOLFORM=C 5 H 7 N 3
##XUNITS=1/CM
##YUNITS=ABSORBANCE
##XFACTOR=1.0
##YFACTOR=0.000052554
##DELTAX=4.0
##FIRSTX=450.0
##LASTX=3966.0
##FIRSTY=0.000000
##MAXX=3966
##MINX=450
##MAXY=0.52554
##MINY=0
##NPOINTS=880
##XYDATA=(X++(Y..Y))
450.0 0 1173 874 613 773 487 1381 776 829 882
490.0 774 931 1212 1213 1171 1363 1422 1285 1281 1142
530.0 1074 1201 1278 1300 1155 1134 962 937 1014 1008
570.0 967 877 891 1081 1088 1041 1001 1175 1333 1159
610.0 1053 951 902 961 1015 1034 1119 1140 1042 951
650.0 854 869 993 1047 1057 1085 1197 1091 1168 1159
690.0 1491 1574 1512 1542 1317 1384 2008 1400 1132 1197
730.0 1219 1170 1196 1284 1390 1398 1412 1283 1134 1155
770.0 1091 1103 1158 1178 1215 1292 1404 1495 1714 1868
810.0 2259 2679 3240 3932 4611 4964 4923 4189 3693 3297
850.0 2940 3116 3633 4541 5423 6039 5840 5182 4448 3762
890.0 3036 2516 2129 1920 1867 1826 1843 1888 1967 1999
930.0 1905 1974 2025 2148 2311 2475 2592 2692 2977 3315
970.0 3546 3895 3965 3834 3691 3383 3015 2688 2394 2086
1010.0 1896 1876 1989 2234 2678 3476 4900 6858 8691 10000
1050.0 9913 8976 7312 5412 3907 2995 2367 2005 1789 1669
1090.0 1611 1565 1552 1615 1726 1995 2469 3270 4449 5839
1130.0 6685 6883 6914 6585 5579 4455 3587 2831 2162 1771
1170.0 1590 1512 1516 1646 1943 2452 2986 3366 3372 3187
1210.0 2845 2389 2003 1723 1499 1367 1285 1271 1300 1381
1250.0 1533 1802 2210 2600 2850 2827 2742 2670 2614 2527
1290.0 2410 2302 2380 2612 2952 3354 3658 3925 4296 4602
1330.0 4713 4626 4198 3694 3340 3176 3354 3865 4405 4723
1370.0 4541 3931 3217 2401 1833 1611 1494 1461 1521 1592
1410.0 1863 2371 3196 4229 4699 5076 5252 5605 5866 5764
1450.0 6066 6593 6633 6502 6005 5144 4183 3316 2726 2287
1490.0 1841 1560 1295 1152 1042 971 889 897 844 854
1530.0 777 782 782 783 781 721 758 726 787 703
1570.0 704 736 709 724 707 709 737 678 709 704
1610.0 698 689 718 683 661 698 671 703 692 662
1650.0 746 727 760 700 754 751 766 830 856 952
1690.0 927 902 897 874 824 829 851 889 895 877
1730.0 893 831 807 743 687 655 646 647 656 658
1770.0 656 651 621 612 608 606 586 601 558 587
1810.0 565 539 546 521 536 521 513 515 495 537
1850.0 525 528 539 534 563 570 596 581 556 526
1890.0 511 490 479 466 471 466 464 458 450 455
1930.0 444 448 466 460 478 492 502 518 512 508
1970.0 488 486 464 457 441 413 425 436 433 439
2010.0 445 450 455 473 473 468 453 443 431 426
2050.0 419 404 408 413 423 422 429 431 438 456
2090.0 467 469 475 471 470 467 457 463 457 453
2130.0 463 470 475 472 473 468 466 475 466 465
2170.0 474 482 494 496 488 488 487 480 475 471
2210.0 464 452 467 489 540 611 720 772 768 814
2250.0 864 789 668 594 569 534 507 492 488 476
2290.0 459 453 435 430 414 411 404 395 395 396
2330.0 421 437 456 450 458 461 424 461 448 496
2370.0 579 550 563 552 549 562 553 542 535 529
2410.0 522 511 505 498 476 458 455 457 446 436
2450.0 437 432 428 439 442 441 433 432 437 436
2490.0 430 440 441 446 457 468 460 456 458 441
2530.0 441 427 428 433 444 455 467 473 483 495
2570.0 523 536 541 539 524 517 519 521 519 510
2610.0 526 535 531 523 512 511 516 526 524 525
2650.0 528 526 548 548 544 555 551 559 548 542
2690.0 552 572 582 606 622 647 652 676 696 707
2730.0 727 738 750 771 785 826 862 905 967 1050
2770.0 1149 1262 1396 1559 1729 1966 2275 2678 3213 3865
2810.0 4534 4981 5143 5053 4823 4604 4397 4155 3864 3560
2850.0 3396 3323 3266 3269 3323 3416 3476 3552 3623 3619
2890.0 3577 3489 3371 3243 3029 2850 2694 2586 2530 2526
2930.0 2621 2752 3026 3416 3712 4171 4730 5138 5460 5392
2970.0 5114 4633 4104 3711 3497 3478 3567 3594 2988 2598
3010.0 1987 1445 1048 824 773 727 684 682 660 647
3050.0 648 646 628 615 607 601 599 591 580 581
3090.0 571 579 602 601 580 567 562 561 539 521
3130.0 505 497 495 477 483 461 459 468 490 476
3170.0 490 483 485 492 487 492 480 458 461 457
3210.0 446 448 453 453 448 458 455 440 435 433
3250.0 444 432 421 434 432 440 440 456 460 442
3290.0 437 443 422 415 420 405 419 420 440 453
3330.0 450 460 485 498 483 478 481 474 477 481
3370.0 470 452 451 440 426 434 435 431 429 418
3410.0 403 402 390 393 424 421 419 401 412 420
3450.0 416 416 430 430 429 434 425 415 422 422
3490.0 454 454 458 441 441 424 435 439 432 435
3530.0 432 430 426 415 404 414 453 426 431 395
3570.0 419 411 447 423 427 399 451 403 431 405
3610.0 417 431 414 441 429 489 436 448 460 494
3650.0 470 549 477 509 494 482 537 488 531 453
3690.0 500 461 435 456 464 448 456 412 434 389
3730.0 432 467 408 466 391 510 415 464 435 452
3770.0 457 438 480 457 436 442 427 505 478 497
3810.0 438 463 448 492 471 437 466 467 449 437
3850.0 420 526 472 448 491 492 459 464 474 496
3890.0 502 479 475 462 461 510 452 496 476 504
3930.0 516 502 489 486 486 456 552 523 479 521
##END=
