##TITLE=2-Methyl-5-nitrophenol
##JCAMP-DX=4.24
##DATA TYPE=INFRARED SPECTRUM
##ORIGIN=Sadtler Research Labs Under US-EPA Contract
##OWNER=NIST Standard Reference Data Program
##CAS REGISTRY NO=5428-54-6
##MOLFORM=C 7 H 7 N O 3
##XUNITS=1/CM
##YUNITS=ABSORBANCE
##XFACTOR=1.0
##YFACTOR=0.000111084
##DELTAX=4.0
##FIRSTX=450.0
##LASTX=3966.0
##FIRSTY=0.000000
##MAXX=3966
##MINX=450
##MAXY=1.11084
##MINY=0
##NPOINTS=880
##XYDATA=(X++(Y..Y))
450.0 0 514 533 810 723 864 751 716 692 651
490.0 706 732 701 728 667 792 662 708 715 729
530.0 816 764 844 826 876 821 857 856 705 731
570.0 750 708 748 710 704 708 672 681 741 675
610.0 726 727 729 702 732 771 764 856 889 898
650.0 846 780 737 708 710 685 705 659 657 646
690.0 661 667 704 762 745 731 843 864 978 1278
730.0 1538 1959 2411 2236 1704 1614 1288 1013 907 806
770.0 757 732 739 749 737 792 826 930 1273 2424
810.0 4163 4534 4745 3987 2221 1200 994 868 847 853
850.0 896 976 1106 1291 1442 1526 1488 1371 1313 1239
890.0 1213 1117 969 911 838 791 773 774 860 947
930.0 1056 1094 1114 1111 995 905 830 810 798 801
970.0 811 826 847 886 955 1053 1146 1165 1171 1135
1010.0 1063 987 1003 1002 972 984 939 878 851 820
1050.0 824 809 813 874 958 1101 1230 1405 1496 1495
1090.0 1455 1396 1330 1389 1631 1992 2104 2119 2010 1629
1130.0 1260 1122 1076 1138 1269 1557 2038 2588 3016 3173
1170.0 3064 2679 2134 1729 1495 1441 1566 1877 2347 2884
1210.0 3297 3650 3643 3233 2602 1998 1550 1532 1827 2255
1250.0 2732 2972 3024 2880 2471 2136 1936 1785 1802 1786
1290.0 1653 1494 1305 1225 1237 1428 1783 2187 2644 2990
1330.0 3183 3393 3556 4044 5113 6607 8130 8692 8116 6276
1370.0 3915 2220 1514 1334 1233 1203 1185 1123 1181 1358
1410.0 1627 1887 2036 2087 2012 1866 1744 1586 1475 1345
1450.0 1214 1166 1137 1157 1184 1256 1357 1461 1646 1872
1490.0 2140 2339 2444 2548 2521 2545 2679 2894 3708 4867
1530.0 6442 8369 9491 10000 9610 8740 7079 5661 4828 4158
1570.0 3660 3043 2389 1823 1546 1402 1340 1349 1309 1303
1610.0 1297 1221 1149 1026 955 879 818 790 752 731
1650.0 750 720 715 674 682 690 675 676 694 700
1690.0 672 660 683 660 649 635 640 653 622 613
1730.0 635 645 647 653 663 675 658 678 676 655
1770.0 652 640 615 605 589 581 569 566 570 567
1810.0 555 551 555 545 546 560 541 540 541 547
1850.0 547 539 555 547 561 574 575 586 596 609
1890.0 615 601 596 579 562 549 536 535 540 533
1930.0 534 531 533 525 520 525 526 532 523 537
1970.0 541 536 532 527 526 537 523 529 539 546
2010.0 549 547 543 547 539 539 540 529 524 518
2050.0 526 520 521 529 527 527 527 528 518 517
2090.0 523 522 512 512 511 511 511 507 506 508
2130.0 510 514 518 518 518 526 512 518 518 517
2170.0 522 518 526 526 528 525 520 517 516 512
2210.0 510 510 508 508 506 515 510 510 508 509
2250.0 514 515 513 517 519 520 526 535 534 533
2290.0 535 531 530 525 523 521 524 525 529 523
2330.0 540 542 551 559 559 560 557 542 581 576
2370.0 573 559 556 549 532 529 529 531 534 537
2410.0 541 548 551 560 557 557 556 557 555 552
2450.0 546 539 537 542 547 548 543 543 537 533
2490.0 536 537 543 544 537 544 531 530 533 523
2530.0 529 538 537 537 540 538 536 533 524 528
2570.0 531 523 526 525 525 525 529 532 536 541
2610.0 543 542 538 540 538 543 541 550 551 557
2650.0 569 562 558 556 554 548 540 546 553 548
2690.0 555 562 555 557 553 545 545 540 533 529
2730.0 527 529 537 547 553 555 557 545 538 533
2770.0 529 525 527 530 535 532 533 534 539 542
2810.0 554 555 557 568 569 581 586 594 596 603
2850.0 613 627 662 704 752 793 830 850 850 830
2890.0 806 795 778 779 788 793 805 799 807 833
2930.0 891 977 1060 1084 1056 992 894 839 815 832
2970.0 842 839 838 847 857 846 833 811 768 717
3010.0 678 661 651 649 654 678 720 768 818 852
3050.0 864 862 859 856 859 854 850 815 777 738
3090.0 711 696 674 645 615 597 579 571 570 557
3130.0 546 545 542 535 534 535 533 532 535 533
3170.0 532 533 528 527 533 527 534 530 534 537
3210.0 544 548 546 551 547 551 541 541 537 535
3250.0 537 530 520 525 526 520 520 518 518 523
3290.0 521 529 529 531 537 539 547 545 554 552
3330.0 552 557 554 562 555 551 554 570 570 566
3370.0 566 567 562 566 563 562 566 558 559 557
3410.0 553 557 550 552 557 553 548 540 542 541
3450.0 547 558 556 562 548 540 532 526 511 508
3490.0 528 529 540 535 533 534 547 534 543 529
3530.0 535 539 531 529 538 538 551 538 546 538
3570.0 545 543 535 548 557 550 578 557 589 588
3610.0 592 622 635 693 780 945 1257 1750 2511 3201
3650.0 3349 3300 3024 2157 1377 942 720 639 594 574
3690.0 574 560 562 568 561 555 562 562 561 568
3730.0 565 548 567 563 558 558 537 561 560 547
3770.0 558 565 559 559 550 565 562 581 585 595
3810.0 603 611 619 649 626 611 596 582 551 570
3850.0 571 596 602 599 615 594 598 608 597 610
3890.0 607 581 615 611 601 578 597 615 603 590
3930.0 590 598 573 583 593 604 614 564 591 578
##END=
