##TITLE=2-Heptanol
##JCAMP-DX=4.24
##DATA TYPE=INFRARED SPECTRUM
##ORIGIN=Sadtler Research Labs Under US-EPA Contract
##OWNER=NIST Standard Reference Data Program
##CAS REGISTRY NO=543-49-7
##MOLFORM=C 7 H 16 O
##XUNITS=1/CM
##YUNITS=ABSORBANCE
##XFACTOR=1.0
##YFACTOR=0.000129623
##DELTAX=4.0
##FIRSTX=450.0
##LASTX=3966.0
##FIRSTY=0.067015
##MAXX=3966
##MINX=450
##MAXY=1.29623
##MINY=0
##NPOINTS=880
##XYDATA=(X++(Y..Y))
450.0 517 310 175 212 28 303 126 259 205 270
490.0 188 158 148 115 142 80 140 107 168 199
530.0 131 160 193 93 119 37 70 38 49 18
570.0 38 69 77 127 58 122 79 102 90 114
610.0 74 58 80 83 89 91 72 59 80 64
650.0 91 68 72 70 80 79 63 88 59 88
690.0 85 83 87 92 106 109 125 157 200 188
730.0 220 198 185 145 141 127 123 128 142 143
770.0 196 164 116 102 108 115 111 120 155 159
810.0 192 190 218 210 222 222 237 231 239 252
850.0 265 291 283 299 279 275 257 264 265 285
890.0 306 334 383 423 475 504 531 530 549 588
930.0 659 731 818 916 989 1022 1003 962 851 754
970.0 662 583 514 462 434 424 435 454 495 533
1010.0 603 677 775 874 969 1057 1110 1164 1191 1227
1050.0 1239 1256 1260 1245 1231 1238 1271 1310 1395 1466
1090.0 1527 1526 1483 1383 1282 1214 1199 1227 1282 1366
1130.0 1437 1498 1516 1497 1401 1258 1079 902 741 612
1170.0 532 480 466 463 491 515 561 599 631 654
1210.0 674 696 715 773 829 916 996 1092 1162 1184
1250.0 1160 1094 993 877 790 713 663 620 595 567
1290.0 541 530 510 497 480 483 467 471 468 494
1330.0 519 576 656 727 791 840 885 938 1027 1159
1370.0 1349 1587 1790 1928 1912 1779 1541 1287 1068 878
1410.0 724 599 527 458 462 465 531 572 699 804
1450.0 962 1110 1200 1302 1280 1193 1023 815 633 471
1490.0 359 250 198 171 130 112 123 102 81 77
1530.0 83 81 56 51 48 62 50 39 6 43
1570.0 32 43 13 46 37 39 33 39 33 35
1610.0 38 32 17 27 20 35 20 13 28 25
1650.0 20 10 4 39 26 23 18 34 27 15
1690.0 26 37 11 4 16 30 31 18 25 35
1730.0 36 18 25 25 30 26 17 26 16 21
1770.0 16 10 15 22 18 20 12 18 24 16
1810.0 17 16 19 16 18 12 14 18 16 14
1850.0 11 15 13 15 15 14 11 16 15 17
1890.0 20 16 13 15 16 18 19 9 13 10
1930.0 13 14 14 14 12 13 9 10 3 6
1970.0 4 7 7 8 5 4 8 7 6 6
2010.0 7 9 5 8 8 8 7 12 9 11
2050.0 6 7 5 6 6 8 4 2 0 1
2090.0 4 1 0 1 3 5 5 3 6 5
2130.0 3 5 6 9 8 8 9 8 8 8
2170.0 6 10 10 10 11 8 11 11 10 10
2210.0 8 10 9 7 3 8 6 3 3 4
2250.0 6 6 6 6 8 8 7 10 13 19
2290.0 21 27 33 38 44 52 49 54 46 47
2330.0 47 39 34 40 23 55 78 65 51 30
2370.0 21 15 14 21 27 28 27 32 33 31
2410.0 29 29 29 28 25 26 26 22 23 21
2450.0 19 24 25 24 23 24 26 25 23 28
2490.0 26 27 25 29 28 29 30 33 32 34
2530.0 34 36 36 34 37 37 39 41 42 46
2570.0 50 51 56 60 63 66 70 79 80 84
2610.0 88 91 92 101 107 114 120 120 128 135
2650.0 139 138 142 154 158 162 165 170 166 157
2690.0 150 147 141 140 141 141 144 146 156 168
2730.0 178 189 195 204 207 206 202 195 194 198
2770.0 201 207 220 229 249 262 288 314 342 364
2810.0 396 430 475 527 594 681 806 983 1214 1535
2850.0 1949 2466 3013 3551 4024 4365 4558 4723 4685 4435
2890.0 4209 3884 3681 3738 4052 4585 5305 6179 7205 8240
2930.0 9143 9866 10000 9594 8709 7826 7105 6841 7192 7953
2970.0 8364 8087 7357 5901 4442 3219 2220 1481 1031 780
3010.0 628 523 457 405 366 341 312 290 258 233
3050.0 214 196 183 173 160 154 146 142 134 136
3090.0 130 120 114 114 103 101 96 97 93 96
3130.0 81 78 76 77 70 76 77 72 78 77
3170.0 80 84 80 78 86 83 88 91 77 76
3210.0 74 56 56 49 43 33 36 34 23 21
3250.0 28 24 18 10 18 19 17 13 19 15
3290.0 5 10 7 10 5 2 14 4 11 14
3330.0 19 10 15 20 17 18 22 22 15 17
3370.0 26 28 24 26 28 36 20 20 29 33
3410.0 40 38 34 52 52 53 51 54 58 55
3450.0 46 39 50 45 44 42 39 51 44 43
3490.0 38 41 28 48 46 34 27 38 35 39
3530.0 31 30 38 31 45 37 46 51 48 57
3570.0 44 41 46 35 55 63 47 66 64 79
3610.0 92 107 127 155 197 208 275 349 425 521
3650.0 642 691 752 694 585 441 313 214 170 140
3690.0 111 87 90 62 72 62 52 59 68 93
3730.0 70 71 57 74 58 44 45 48 50 47
3770.0 68 46 65 63 47 38 70 65 67 64
3810.0 66 77 92 95 65 66 76 79 67 57
3850.0 88 78 50 63 68 47 65 72 77 69
3890.0 23 42 47 83 67 56 78 72 52 41
3930.0 51 67 77 57 84 72 74 78 90 77
##END=
