##TITLE=Pentane, 1-chloro-
##JCAMP-DX=4.24
##DATA TYPE=INFRARED SPECTRUM
##ORIGIN=Sadtler Research Labs Under US-EPA Contract
##OWNER=NIST Standard Reference Data Program
##CAS REGISTRY NO=543-59-9
##MOLFORM=C 5 H 11 Cl
##XUNITS=1/CM
##YUNITS=ABSORBANCE
##XFACTOR=1.0
##YFACTOR=0.000096735
##DELTAX=4.0
##FIRSTX=450.0
##LASTX=3966.0
##FIRSTY=0.000000
##MAXX=3966
##MINX=450
##MAXY=0.96735
##MINY=0
##NPOINTS=880
##XYDATA=(X++(Y..Y))
450.0 0 182 286 200 178 171 226 178 133 231
490.0 231 221 308 326 145 174 171 113 162 215
530.0 245 212 259 202 192 175 202 209 240 225
570.0 204 199 157 215 210 209 240 239 254 260
610.0 228 252 277 264 276 295 347 468 501 526
650.0 880 1062 1267 1320 1309 1238 1102 748 632 500
690.0 430 429 416 452 498 608 656 813 983 1225
730.0 1517 1813 2072 2125 2024 1745 1415 1174 995 797
770.0 628 520 479 462 441 453 466 447 400 365
810.0 319 309 305 314 319 328 352 371 406 419
850.0 445 422 392 359 346 334 315 322 310 331
890.0 320 334 341 358 373 393 435 468 519 565
930.0 578 577 553 496 423 372 329 307 284 286
970.0 287 293 294 305 318 307 293 292 296 294
1010.0 323 352 385 418 447 475 471 458 405 366
1050.0 307 267 258 256 266 253 256 247 252 248
1090.0 255 262 271 275 272 269 244 239 217 199
1130.0 188 186 181 180 181 179 180 185 194 193
1170.0 198 210 219 221 223 217 217 222 228 239
1210.0 252 258 273 310 350 375 395 403 387 370
1250.0 383 432 541 663 781 944 1121 1241 1338 1422
1290.0 1448 1479 1502 1436 1395 1390 1344 1231 1106 995
1330.0 892 810 750 707 683 643 591 532 489 480
1370.0 479 515 570 621 624 632 600 495 424 382
1410.0 354 348 358 396 464 563 681 837 1075 1320
1450.0 1508 1658 1757 1726 1610 1461 1305 1115 932 745
1490.0 591 481 394 334 290 265 242 224 218 207
1530.0 201 203 201 194 184 180 175 174 170 162
1570.0 162 160 162 162 157 157 156 161 159 159
1610.0 152 148 154 149 149 150 150 142 148 148
1650.0 146 145 145 148 145 147 150 151 148 146
1690.0 145 143 145 140 142 140 143 136 144 141
1730.0 141 140 142 143 140 141 139 137 133 138
1770.0 138 137 137 138 139 132 128 130 130 128
1810.0 124 128 128 129 128 128 128 132 128 131
1850.0 129 128 130 134 134 131 132 131 130 127
1890.0 131 128 129 129 125 126 129 130 133 130
1930.0 125 126 123 126 130 126 131 128 129 129
1970.0 126 127 125 123 122 119 128 122 126 124
2010.0 123 123 126 127 124 123 124 123 130 126
2050.0 126 124 121 121 116 122 122 125 128 131
2090.0 129 128 130 134 134 134 137 133 135 130
2130.0 128 128 132 135 133 132 134 134 133 137
2170.0 138 137 142 139 138 137 132 134 136 140
2210.0 135 131 137 135 136 135 135 136 133 137
2250.0 137 136 135 140 139 137 138 144 143 145
2290.0 147 148 150 149 139 153 143 139 143 147
2330.0 140 141 152 150 167 154 151 139 145 162
2370.0 155 157 161 155 151 141 139 140 142 141
2410.0 139 141 141 136 140 135 129 136 132 130
2450.0 129 129 124 127 127 129 123 126 125 121
2490.0 122 120 118 120 119 109 114 112 118 120
2530.0 122 124 121 120 118 118 119 128 120 120
2570.0 118 119 118 118 119 121 121 124 129 140
2610.0 142 148 152 158 158 162 175 166 167 174
2650.0 174 179 180 183 193 189 191 200 198 193
2690.0 196 190 181 186 184 181 187 187 194 211
2730.0 228 237 245 259 264 267 266 258 251 244
2770.0 242 250 248 252 271 288 301 324 343 354
2810.0 376 389 419 454 510 583 683 827 1007 1238
2850.0 1505 1837 2228 2660 3093 3506 3862 4236 4465 4325
2890.0 4166 3970 3616 3406 3404 3598 3957 4445 5035 5709
2930.0 6475 7265 8026 8555 8686 8724 8711 8791 9012 9640
2970.0 10000 9390 8464 7055 5278 3979 3248 2734 2282 1936
3010.0 1618 1245 996 813 688 604 538 496 459 417
3050.0 398 364 343 318 315 302 299 275 279 269
3090.0 252 249 252 238 222 245 233 217 208 207
3130.0 208 211 196 193 201 205 205 209 217 215
3170.0 211 213 207 196 206 204 196 217 198 187
3210.0 190 199 197 192 183 183 184 175 171 162
3250.0 162 153 164 163 153 160 165 158 163 146
3290.0 142 135 147 135 139 148 133 122 135 141
3330.0 124 131 124 141 155 134 136 151 120 116
3370.0 133 148 130 127 108 112 121 133 127 140
3410.0 144 116 117 130 129 119 122 123 137 131
3450.0 140 128 130 130 128 134 130 136 128 123
3490.0 133 128 119 130 128 135 136 121 130 148
3530.0 124 126 157 135 131 129 141 137 124 126
3570.0 136 127 119 122 134 156 157 148 139 136
3610.0 114 139 139 122 142 144 149 161 141 160
3650.0 144 154 168 134 160 164 152 166 163 150
3690.0 144 126 139 119 118 125 144 135 141 111
3730.0 125 121 129 121 126 120 113 140 149 129
3770.0 146 127 110 122 118 108 120 136 136 122
3810.0 130 127 125 138 122 167 114 108 108 121
3850.0 114 125 131 148 125 119 119 131 136 135
3890.0 116 132 108 151 109 146 126 173 108 108
3930.0 128 155 155 131 183 195 204 142 110 146
##END=
