##TITLE=Butanedioyl dichloride
##JCAMP-DX=4.24
##DATA TYPE=INFRARED SPECTRUM
##ORIGIN=Sadtler Research Labs Under US-EPA Contract
##OWNER=NIST Standard Reference Data Program
##CAS REGISTRY NO=543-20-4
##MOLFORM=C 4 H 4 Cl 2 O 2
##XUNITS=1/CM
##YUNITS=ABSORBANCE
##XFACTOR=1.0
##YFACTOR=0.000128256
##DELTAX=4.0
##FIRSTX=450.0
##LASTX=3966.0
##FIRSTY=0.103118
##MAXX=3966
##MINX=450
##MAXY=1.28256
##MINY=0
##NPOINTS=880
##XYDATA=(X++(Y..Y))
450.0 804 632 775 590 553 422 209 199 232 204
490.0 130 116 129 3 106 195 131 141 63 246
530.0 235 175 323 216 326 315 365 431 480 631
570.0 656 753 813 888 978 1147 1226 1112 921 665
610.0 489 342 304 253 256 267 242 239 237 285
650.0 262 303 390 465 629 825 1111 1228 1233 1128
690.0 904 795 827 936 1157 1211 1245 974 602 378
730.0 260 253 166 254 369 321 319 415 342 317
770.0 267 229 213 202 233 231 235 238 202 175
810.0 136 130 140 106 83 81 71 64 139 133
850.0 170 222 289 341 385 380 415 404 409 507
890.0 639 773 991 1175 1313 1545 1836 2167 2298 2208
930.0 1914 1615 1357 1341 1411 1697 2212 2838 3529 4085
970.0 4359 4390 4126 3688 3346 2961 2548 2098 1692 1346
1010.0 1045 889 861 775 786 886 1009 1232 1385 1465
1050.0 1538 1573 1555 1486 1313 1034 788 598 460 328
1090.0 243 230 163 134 92 88 21 53 76 71
1130.0 79 63 78 74 91 77 74 77 94 115
1170.0 155 195 237 291 330 365 386 356 323 331
1210.0 286 274 248 239 251 238 220 214 218 230
1250.0 257 316 371 464 518 514 515 494 491 438
1290.0 380 323 270 252 221 216 187 179 191 206
1330.0 278 364 393 393 314 228 195 164 142 121
1370.0 110 103 108 138 147 186 243 318 396 456
1410.0 542 602 673 622 591 519 433 351 253 200
1450.0 167 113 85 48 63 34 44 34 27 26
1490.0 39 16 30 19 28 19 62 25 42 29
1530.0 51 41 28 22 38 53 29 41 0 45
1570.0 34 32 44 31 56 55 39 69 41 66
1610.0 63 45 52 47 71 41 70 54 46 76
1650.0 30 49 30 66 46 43 53 43 63 40
1690.0 54 55 58 40 78 72 81 89 92 124
1730.0 110 144 142 178 230 275 345 443 547 681
1770.0 829 1077 1469 2038 2944 4229 6183 8399 9473 10000
1810.0 9453 8209 7238 5846 4342 3105 2293 1735 1345 1021
1850.0 825 669 582 532 487 478 457 449 405 377
1890.0 374 346 292 247 211 188 167 156 158 150
1930.0 149 148 145 144 136 126 116 105 93 82
1970.0 73 64 57 49 42 47 38 36 39 37
2010.0 40 41 44 46 37 42 35 36 38 33
2050.0 33 34 27 24 24 24 26 20 20 19
2090.0 21 20 20 22 21 23 20 20 21 19
2130.0 20 24 24 26 24 24 25 21 19 18
2170.0 18 19 17 20 16 16 17 13 15 13
2210.0 18 18 14 19 22 24 24 29 31 33
2250.0 33 32 33 38 29 27 23 21 19 15
2290.0 16 12 9 9 8 3 6 6 11 4
2330.0 3 14 3 28 3 22 3 9 3 7
2370.0 12 6 10 12 13 15 19 19 19 20
2410.0 18 18 16 18 16 20 16 14 15 18
2450.0 18 20 16 19 18 19 21 23 23 19
2490.0 17 17 21 22 18 16 18 21 19 21
2530.0 17 20 21 18 18 21 24 21 22 22
2570.0 20 19 21 22 22 23 20 25 26 22
2610.0 22 21 23 26 30 30 24 25 25 19
2650.0 35 29 30 22 21 25 23 47 32 29
2690.0 33 24 38 47 56 28 31 34 25 64
2730.0 59 44 29 42 38 67 90 43 51 43
2770.0 48 72 100 40 47 34 40 94 73 35
2810.0 32 33 39 112 45 29 28 28 61 86
2850.0 21 40 13 51 59 40 24 32 28 38
2890.0 29 37 30 45 68 58 45 35 93 129
2930.0 167 151 194 267 269 242 172 163 180 144
2970.0 92 73 105 140 89 40 79 107 80 33
3010.0 55 71 57 30 31 66 34 26 27 50
3050.0 26 19 30 28 21 29 28 25 18 27
3090.0 22 15 19 18 18 17 18 19 16 21
3130.0 17 15 19 14 21 25 17 18 14 17
3170.0 17 18 11 15 17 20 16 17 15 17
3210.0 14 14 17 17 13 13 16 16 18 16
3250.0 12 10 12 19 15 13 9 20 19 13
3290.0 11 12 19 12 14 15 11 12 17 10
3330.0 14 20 16 9 13 13 11 21 14 8
3370.0 10 12 21 13 14 12 9 16 14 11
3410.0 16 14 18 17 13 14 11 18 15 17
3450.0 16 15 19 13 14 15 18 14 15 15
3490.0 19 19 21 18 21 18 14 29 30 29
3530.0 16 18 21 28 35 31 34 50 53 71
3570.0 81 104 127 154 147 159 138 139 114 97
3610.0 77 67 65 47 52 29 26 44 32 22
3650.0 34 3 38 24 39 35 20 33 38 37
3690.0 22 32 37 31 46 21 11 36 26 47
3730.0 20 19 44 11 13 3 19 19 39 22
3770.0 36 28 35 34 38 32 29 10 24 6
3810.0 51 20 34 3 40 39 18 18 37 37
3850.0 31 2 24 60 27 30 35 30 48 28
3890.0 34 35 41 31 36 47 33 35 37 32
3930.0 31 44 25 49 14 25 34 44 49 23
##END=
