##TITLE=Isobutyl chloroformate
##JCAMP-DX=4.24
##DATA TYPE=INFRARED SPECTRUM
##ORIGIN=Sadtler Research Labs Under US-EPA Contract
##OWNER=NIST Standard Reference Data Program
##CAS REGISTRY NO=543-27-1
##MOLFORM=C 5 H 9 Cl O 2
##XUNITS=1/CM
##YUNITS=ABSORBANCE
##XFACTOR=1.0
##YFACTOR=0.000081543
##DELTAX=4.0
##FIRSTX=450.0
##LASTX=3966.0
##FIRSTY=0.000000
##MAXX=3966
##MINX=450
##MAXY=0.81543
##MINY=0
##NPOINTS=880
##XYDATA=(X++(Y..Y))
450.0 0 14 48 109 141 130 126 107 98 116
490.0 112 75 113 123 123 127 113 128 176 179
530.0 167 165 120 148 115 103 130 138 126 131
570.0 99 76 125 128 115 96 104 135 129 129
610.0 129 128 123 145 138 129 127 146 125 122
650.0 126 124 130 126 144 201 196 237 287 358
690.0 338 359 330 292 230 193 160 152 165 146
730.0 124 134 153 131 147 141 126 153 197 189
770.0 205 243 288 376 456 590 748 1025 1174 1194
810.0 1159 933 674 613 543 522 497 478 469 470
850.0 496 514 527 534 540 485 439 388 320 300
890.0 286 291 293 333 319 334 339 333 303 298
930.0 308 326 339 358 363 377 361 358 389 439
970.0 497 517 505 455 373 277 232 206 175 171
1010.0 154 159 149 142 148 152 156 158 154 174
1050.0 187 194 199 211 220 234 245 279 304 338
1090.0 377 444 506 621 769 998 1353 1878 2658 3743
1130.0 5045 6732 8261 9068 10000 9573 8880 7566 6637 5782
1170.0 4736 3710 2861 2190 1728 1413 1125 877 704 593
1210.0 528 479 460 433 420 401 375 353 354 352
1250.0 360 373 380 373 379 391 419 456 492 484
1290.0 442 381 310 267 225 206 193 180 186 180
1330.0 191 198 198 208 215 219 216 225 242 279
1370.0 335 410 499 543 532 494 423 344 303 276
1410.0 230 196 159 150 155 150 160 156 188 210
1450.0 250 310 343 440 490 527 529 504 435 345
1490.0 257 195 145 126 90 92 93 91 71 83
1530.0 83 83 76 47 78 81 75 51 54 79
1570.0 69 78 64 81 81 80 80 80 80 80
1610.0 80 81 64 81 79 78 75 71 83 77
1650.0 79 47 91 86 92 85 79 75 86 73
1690.0 93 95 75 76 93 106 105 92 130 147
1730.0 159 162 208 257 308 366 454 563 693 899
1770.0 1204 1679 2385 3288 4378 5227 5377 5359 4711 3474
1810.0 2388 1625 1109 790 593 452 346 271 222 181
1850.0 166 148 135 115 109 89 97 90 90 88
1890.0 76 80 78 78 78 77 69 63 64 65
1930.0 62 69 68 73 76 70 68 68 61 61
1970.0 61 60 60 56 60 59 56 59 56 54
2010.0 53 54 58 58 59 59 57 57 57 57
2050.0 57 57 57 57 57 57 57 55 56 55
2090.0 55 55 55 54 54 50 55 53 53 48
2130.0 48 48 47 40 45 48 40 40 43 39
2170.0 39 46 38 39 44 44 39 38 38 39
2210.0 41 38 37 44 41 42 42 49 48 48
2250.0 48 53 60 61 64 71 70 78 77 70
2290.0 69 77 76 77 76 75 71 63 56 46
2330.0 33 27 31 26 30 23 13 13 13 13
2370.0 27 32 38 41 36 30 29 28 28 20
2410.0 27 33 28 27 31 27 27 27 32 26
2450.0 25 25 25 18 26 25 25 25 25 25
2490.0 22 18 16 23 22 16 21 21 22 22
2530.0 17 13 21 21 13 20 20 20 20 19
2570.0 27 26 22 19 26 23 28 25 28 23
2610.0 22 28 22 23 23 22 22 30 30 28
2650.0 28 26 32 27 26 25 26 25 33 26
2690.0 32 27 27 27 28 28 32 34 34 34
2730.0 40 40 41 41 48 40 48 45 43 43
2770.0 42 42 42 44 43 43 49 44 44 52
2810.0 44 47 61 62 69 63 70 77 78 78
2850.0 83 90 94 104 127 162 224 317 421 492
2890.0 545 559 532 508 489 480 466 476 485 506
2930.0 536 568 617 669 726 795 887 1005 1163 1367
2970.0 1613 1863 1940 1865 1617 1212 804 478 299 210
3010.0 161 120 101 88 74 67 58 56 61 62
3050.0 57 56 51 57 57 52 52 44 54 46
3090.0 46 46 46 42 47 42 41 42 36 43
3130.0 40 46 42 49 47 49 44 56 51 45
3170.0 50 50 50 52 52 52 52 45 46 42
3210.0 41 40 46 35 35 35 33 34 37 26
3250.0 28 30 34 31 32 37 25 26 32 31
3290.0 33 30 27 28 25 27 30 20 29 28
3330.0 29 28 34 29 25 29 30 26 32 31
3370.0 31 30 30 31 38 32 31 29 33 25
3410.0 30 21 27 28 20 22 27 27 21 22
3450.0 22 26 18 23 25 21 20 25 16 23
3490.0 18 18 23 30 26 26 21 26 19 17
3530.0 25 27 32 32 33 40 53 64 64 58
3570.0 61 61 55 46 32 21 30 29 23 23
3610.0 22 19 21 17 27 11 30 26 32 27
3650.0 14 33 33 32 40 31 28 22 37 37
3690.0 28 40 40 47 48 41 42 47 42 44
3730.0 46 39 47 54 42 50 54 62 68 69
3770.0 69 71 74 73 73 83 80 75 69 77
3810.0 83 84 84 78 96 91 84 82 79 79
3850.0 86 75 83 85 86 86 93 92 99 91
3890.0 88 90 94 87 88 93 99 95 88 83
3930.0 83 83 83 83 85 99 6 13 13 13
##END=
