##TITLE=Cyclohexanamine, N-(2-ethylhexyl)-
##JCAMP-DX=4.24
##DATA TYPE=INFRARED SPECTRUM
##ORIGIN=Sadtler Research Labs Under US-EPA Contract
##OWNER=NIST Standard Reference Data Program
##CAS REGISTRY NO=5432-61-1
##MOLFORM=C 14 H 29 N
##XUNITS=1/CM
##YUNITS=ABSORBANCE
##XFACTOR=1.0
##YFACTOR=0.000202951
##DELTAX=4.0
##FIRSTX=450.0
##LASTX=3966.0
##FIRSTY=0.000000
##MAXX=3966
##MINX=450
##MAXY=2.02951
##MINY=0
##NPOINTS=880
##XYDATA=(X++(Y..Y))
450.0 0 16 98 159 136 142 166 203 146 137
490.0 170 128 200 133 180 177 139 170 107 100
530.0 121 85 112 95 127 106 109 83 92 68
570.0 125 124 150 151 182 162 148 181 156 166
610.0 198 191 200 177 187 193 163 177 184 169
650.0 179 180 193 186 209 203 245 264 271 292
690.0 333 343 348 352 345 347 349 354 342 345
730.0 338 302 265 170 179 209 166 168 186 183
770.0 183 187 205 195 174 194 157 151 137 128
810.0 133 106 112 119 114 119 134 141 155 179
850.0 138 109 128 118 138 139 130 133 164 218
890.0 235 220 173 155 135 146 131 145 144 156
930.0 161 166 158 164 153 157 156 147 142 145
970.0 147 148 148 135 131 126 129 128 113 109
1010.0 112 118 136 152 158 156 150 150 157 162
1050.0 156 168 169 182 200 220 230 253 268 306
1090.0 330 381 442 505 562 635 718 773 849 932
1130.0 989 960 907 813 727 637 537 463 392 329
1170.0 260 231 190 170 172 151 157 130 131 145
1210.0 138 137 147 160 187 191 203 202 222 251
1250.0 243 271 327 332 322 283 265 231 201 223
1290.0 196 222 239 270 254 284 279 290 299 310
1330.0 316 320 350 402 470 508 475 465 503 536
1370.0 519 494 507 523 488 386 284 214 187 180
1410.0 179 176 184 199 228 284 351 474 640 832
1450.0 1112 1311 1454 1530 1469 1326 1102 834 600 419
1490.0 281 220 173 143 136 113 118 97 93 91
1530.0 86 73 55 57 69 67 56 52 46 49
1570.0 45 40 48 41 50 44 33 47 49 46
1610.0 54 41 35 44 48 40 44 47 52 51
1650.0 26 46 33 39 49 50 38 34 33 27
1690.0 32 32 27 30 39 37 43 35 44 49
1730.0 48 46 51 48 55 50 65 69 78 87
1770.0 95 90 81 66 56 46 41 38 45 37
1810.0 32 35 32 34 35 31 33 32 36 31
1850.0 35 32 34 31 29 33 27 30 29 29
1890.0 28 26 26 26 25 23 23 22 21 21
1930.0 19 21 22 24 22 24 22 25 27 26
1970.0 28 25 27 26 24 24 22 22 22 23
2010.0 22 21 21 20 20 22 19 22 23 21
2050.0 20 23 25 22 23 24 25 28 25 26
2090.0 28 26 26 26 27 25 25 24 24 24
2130.0 23 21 20 21 22 24 22 24 24 24
2170.0 24 25 27 27 27 30 30 28 27 23
2210.0 25 23 25 25 26 28 28 25 22 22
2250.0 22 21 23 23 21 21 21 20 20 21
2290.0 21 21 21 19 18 17 17 16 16 16
2330.0 17 23 18 31 18 24 16 21 28 40
2370.0 51 39 37 32 30 27 27 28 27 31
2410.0 29 30 33 33 33 33 32 32 34 32
2450.0 33 32 29 31 31 31 32 34 36 34
2490.0 33 33 31 30 32 34 34 36 38 42
2530.0 43 44 46 47 49 54 57 61 65 68
2570.0 72 78 83 92 96 103 109 109 110 107
2610.0 109 105 106 107 108 110 117 123 129 137
2650.0 148 159 173 187 195 198 191 183 174 168
2690.0 170 169 170 171 173 173 175 177 179 183
2730.0 192 202 216 227 240 249 256 262 272 287
2770.0 310 338 371 419 474 528 592 655 717 771
2810.0 818 863 894 915 928 939 961 1017 1123 1337
2850.0 1702 2289 3120 3912 4185 3790 3229 2869 2748 2684
2890.0 2543 2415 2463 2694 3093 3655 4305 4977 5741 6790
2930.0 8237 9572 10000 9062 7172 5040 3697 3290 3580 4082
2970.0 4115 3381 2296 1443 966 716 563 465 395 344
3010.0 306 271 248 229 212 195 179 165 150 142
3050.0 131 126 118 113 106 100 97 94 93 91
3090.0 87 87 83 82 81 76 77 76 73 76
3130.0 75 72 71 71 71 72 68 67 65 59
3170.0 55 50 46 46 41 41 39 40 37 36
3210.0 32 30 30 31 33 37 38 36 35 38
3250.0 38 38 35 37 40 36 29 30 27 28
3290.0 24 22 23 25 22 22 23 25 22 25
3330.0 26 34 36 34 36 36 33 38 41 38
3370.0 40 44 44 40 39 34 35 37 33 33
3410.0 29 30 25 28 28 24 25 22 28 24
3450.0 25 30 30 26 29 28 31 37 42 38
3490.0 38 37 34 33 31 35 35 30 33 30
3530.0 28 28 29 23 27 26 21 27 29 38
3570.0 44 44 41 43 36 34 29 38 32 37
3610.0 30 36 32 32 42 31 36 36 30 24
3650.0 37 23 43 26 32 21 20 22 27 27
3690.0 27 36 39 42 47 38 39 41 46 51
3730.0 48 45 52 43 38 26 42 39 45 34
3770.0 39 37 42 39 37 26 28 36 46 17
3810.0 47 33 47 34 53 43 51 49 55 62
3850.0 60 48 47 61 42 32 39 50 52 46
3890.0 41 28 21 31 18 26 34 42 34 35
3930.0 28 38 25 42 61 84 69 75 72 76
##END=
