##TITLE=Acetic acid, phenoxy-, 2-methylpropyl ester
##JCAMP-DX=4.24
##DATA TYPE=INFRARED SPECTRUM
##ORIGIN=Sadtler Research Labs Under US-EPA Contract
##OWNER=NIST Standard Reference Data Program
##CAS REGISTRY NO=5432-66-6
##MOLFORM=C 12 H 16 O 3
##XUNITS=1/CM
##YUNITS=ABSORBANCE
##XFACTOR=1.0
##YFACTOR=0.000063153
##DELTAX=4.0
##FIRSTX=450.0
##LASTX=3966.0
##FIRSTY=0.082352
##MAXX=3966
##MINX=450
##MAXY=0.63153
##MINY=0
##NPOINTS=880
##XYDATA=(X++(Y..Y))
450.0 1304 807 287 56 666 594 874 1095 274 866
490.0 1047 313 68 998 848 335 736 925 554 579
530.0 398 627 443 487 399 596 568 543 686 793
570.0 553 542 579 567 680 548 698 582 600 532
610.0 514 556 579 564 495 472 419 436 423 438
650.0 423 443 460 527 555 647 814 988 1449 1913
690.0 2143 1858 1368 1056 815 795 727 663 655 671
730.0 658 758 999 1580 2336 3163 3283 2587 1686 1310
770.0 1122 999 885 1083 1173 1165 989 836 659 630
810.0 612 611 662 686 661 682 743 764 641 605
850.0 543 535 501 495 502 535 590 693 778 780
890.0 708 645 606 609 629 641 635 636 643 649
930.0 664 660 697 754 841 881 821 760 710 667
970.0 662 690 833 1018 1294 1708 2144 2559 2870 3080
1010.0 3036 2845 2640 2460 2262 2053 1870 1717 1636 1615
1050.0 1657 1748 1918 2188 2527 2873 3148 3401 3653 3792
1090.0 3676 3166 2473 1819 1408 1150 959 820 766 736
1130.0 776 819 917 1087 1361 1850 2524 3347 4565 6469
1170.0 8418 9515 9877 10000 9772 8733 7254 6130 5879 6478
1210.0 7353 7458 6671 5705 5173 5086 5066 4982 4706 4309
1250.0 4062 4064 4316 4744 5213 5553 5762 5935 6085 6056
1290.0 5762 5337 4933 4565 4121 3501 2777 2110 1631 1386
1330.0 1311 1286 1250 1116 983 921 875 893 967 1067
1370.0 1224 1479 1738 1888 1881 1592 1248 1051 907 797
1410.0 712 596 635 554 553 580 691 804 928 1129
1450.0 1330 1428 1508 1465 1560 1688 1869 1844 1888 2415
1490.0 3846 6046 7179 5895 3362 1626 937 681 624 478
1530.0 440 403 419 480 442 403 434 552 539 546
1570.0 632 721 884 1172 1627 2355 3183 4107 4344 3694
1610.0 2368 1312 836 576 496 368 374 358 290 299
1650.0 343 331 263 240 260 265 318 264 361 396
1690.0 370 381 508 529 555 580 667 822 796 871
1730.0 1041 1357 1703 2512 4059 6163 7812 7777 6321 4556
1770.0 3723 3818 4399 4854 4431 3404 2351 1582 1132 802
1810.0 636 530 447 419 407 417 385 334 331 337
1850.0 287 256 252 226 222 226 178 159 150 151
1890.0 160 158 154 149 165 184 201 220 267 240
1930.0 216 194 193 225 205 168 140 136 124 124
1970.0 113 106 103 95 95 114 117 113 121 120
2010.0 108 114 111 103 101 83 82 92 96 91
2050.0 96 94 97 100 104 104 107 114 115 110
2090.0 112 106 102 99 93 89 85 89 90 89
2130.0 90 99 96 95 91 89 84 76 69 68
2170.0 70 64 60 61 50 36 32 28 26 19
2210.0 20 16 14 18 10 10 15 10 19 18
2250.0 22 20 17 20 22 26 35 43 55 71
2290.0 79 83 90 82 105 105 99 84 79 66
2330.0 57 42 32 38 54 46 60 93 15 0
2370.0 0 15 27 45 53 55 56 46 53 53
2410.0 44 41 44 43 41 40 51 49 51 52
2450.0 48 54 55 50 51 43 45 47 48 49
2490.0 56 57 54 52 50 48 44 47 47 43
2530.0 45 49 52 52 61 57 62 62 64 81
2570.0 80 75 72 74 60 56 53 51 46 53
2610.0 40 37 38 29 36 44 44 48 46 41
2650.0 32 46 57 68 74 79 67 69 71 68
2690.0 71 78 73 83 76 69 71 68 75 83
2730.0 107 122 120 107 117 106 101 106 110 116
2770.0 110 108 121 122 127 129 140 134 142 127
2810.0 124 135 150 154 160 178 179 200 228 235
2850.0 269 308 355 432 512 635 804 1072 1443 1679
2890.0 1718 1634 1593 1546 1515 1486 1508 1587 1673 1778
2930.0 1883 2073 2322 2543 2720 2836 2991 3231 3672 4278
2970.0 4889 5199 5049 4343 3123 2000 1209 784 567 452
3010.0 389 370 361 386 432 504 619 738 873 1001
3050.0 1040 976 843 766 794 871 949 1034 1035 935
3090.0 771 633 609 613 579 497 408 302 216 169
3130.0 153 115 109 117 104 98 90 87 98 90
3170.0 82 95 88 81 80 83 87 93 69 66
3210.0 54 69 66 67 50 56 54 44 56 47
3250.0 36 41 23 10 46 34 23 39 21 44
3290.0 22 32 41 53 48 61 39 43 58 56
3330.0 45 49 37 52 41 41 49 61 36 55
3370.0 59 58 76 50 49 18 58 68 55 58
3410.0 67 54 71 54 53 57 82 48 48 34
3450.0 60 76 45 49 63 48 50 76 75 119
3490.0 95 109 103 88 79 56 40 70 65 55
3530.0 62 61 65 65 52 64 42 47 45 45
3570.0 53 61 63 50 58 47 70 42 85 83
3610.0 60 73 56 49 39 73 60 90 71 90
3650.0 85 27 68 97 119 88 82 81 43 62
3690.0 67 87 88 74 107 85 63 50 89 92
3730.0 85 80 74 68 76 92 96 57 66 86
3770.0 87 53 94 42 63 96 145 85 70 104
3810.0 118 50 113 65 11 82 142 151 102 139
3850.0 93 106 78 96 164 118 108 108 127 121
3890.0 97 90 18 120 88 120 158 178 151 114
3930.0 163 128 187 182 139 44 169 161 97 138
##END=
