##TITLE=Benzene, 1,2-dimethoxy-4-propenyl
##JCAMP-DX=4.24
##DATA TYPE=INFRARED SPECTRUM
##ORIGIN=Sadtler Research Labs Under US-EPA Contract
##OWNER=NIST Standard Reference Data Program
##CAS REGISTRY NO=54349-79-0
##MOLFORM=C 11 H 14 O 2
##XUNITS=1/CM
##YUNITS=ABSORBANCE
##XFACTOR=1.0
##YFACTOR=0.000083041
##DELTAX=4.0
##FIRSTX=450.0
##LASTX=3966.0
##FIRSTY=0.017937
##MAXX=3966
##MINX=450
##MAXY=0.83041
##MINY=0
##NPOINTS=880
##XYDATA=(X++(Y..Y))
450.0 216 97 51 111 183 159 104 75 83 25
490.0 5 13 55 28 59 61 68 21 48 42
530.0 47 44 56 39 66 97 91 107 141 159
570.0 169 224 246 299 330 351 368 362 374 395
610.0 388 387 339 271 217 181 180 141 124 114
650.0 131 120 116 75 43 48 34 32 17 22
690.0 24 28 33 49 46 76 108 135 168 235
730.0 353 451 521 574 599 650 716 790 811 828
770.0 855 891 946 955 861 680 527 413 380 423
810.0 503 571 605 620 587 522 444 382 359 389
850.0 472 567 595 555 489 443 427 421 430 422
890.0 418 406 416 442 486 533 574 568 551 485
930.0 432 415 433 541 765 1180 1582 2115 2076 1560
970.0 1118 715 518 489 493 568 641 756 883 1110
1010.0 1437 1939 2608 3337 4015 4500 4694 4543 3956 3085
1050.0 2222 1484 973 672 498 411 368 350 347 361
1090.0 390 441 487 589 746 1004 1430 1993 2550 2960
1130.0 3157 3133 3002 2833 2775 2819 2930 2930 2682 2213
1170.0 1699 1327 1140 1101 1093 1087 1060 1060 1136 1314
1210.0 1624 2097 2730 3460 4179 4715 4975 4935 4733 4585
1250.0 4724 5253 6153 7402 8732 9663 9634 8733 7368 6152
1290.0 5282 4733 4352 3983 3494 2909 2359 1889 1583 1360
1330.0 1166 983 788 680 593 509 450 405 377 408
1370.0 444 463 525 550 568 613 696 922 1339 1798
1410.0 2154 2254 1967 1599 1221 1083 1147 1468 1820 1995
1450.0 2001 1957 2019 2263 2577 2684 2496 2189 1924 1925
1490.0 2317 3205 4625 6649 8722 10000 9868 7880 5492 3458
1530.0 2248 1497 1063 797 689 676 655 660 806 1028
1570.0 1245 1453 1517 1447 1280 1101 1052 1074 1156 1147
1610.0 1053 862 611 454 317 289 216 193 195 175
1650.0 117 120 157 161 134 106 64 91 37 18
1690.0 48 63 11 20 53 101 97 76 136 161
1730.0 135 99 135 129 93 65 80 74 71 84
1770.0 54 36 58 38 37 21 11 16 0 33
1810.0 33 37 53 51 42 34 43 52 36 22
1850.0 45 59 57 59 53 34 54 54 47 37
1890.0 32 30 30 30 24 18 14 12 3 15
1930.0 23 17 19 6 9 19 16 15 24 25
1970.0 33 49 61 75 94 105 120 138 141 138
2010.0 140 140 148 159 176 185 195 189 174 165
2050.0 154 147 147 138 126 124 117 107 96 83
2090.0 64 51 39 24 17 8 6 5 1 3
2130.0 3 2 3 5 10 10 11 13 17 19
2170.0 20 21 23 24 26 23 26 23 23 22
2210.0 20 21 15 13 17 16 18 20 24 28
2250.0 27 36 39 44 45 51 52 52 51 45
2290.0 40 33 27 22 17 13 11 5 9 8
2330.0 4 11 8 4 16 12 13 17 26 32
2370.0 39 37 32 24 24 17 16 14 15 16
2410.0 14 14 18 13 13 14 17 17 19 17
2450.0 21 22 24 27 33 36 41 43 48 48
2490.0 50 49 50 51 54 56 61 67 70 76
2530.0 80 86 90 97 99 105 105 103 102 99
2570.0 93 91 85 90 88 84 82 83 84 83
2610.0 80 73 68 64 61 56 57 54 54 58
2650.0 56 53 49 48 46 44 45 47 51 54
2690.0 53 55 57 56 56 62 63 69 78 85
2730.0 96 112 144 176 186 161 125 109 109 115
2770.0 119 125 136 148 159 175 193 221 250 286
2810.0 340 408 501 631 835 1145 1603 2084 2360 2310
2850.0 2010 1681 1531 1605 1762 1844 1759 1572 1434 1425
2890.0 1508 1650 1773 1882 2001 2177 2433 2713 3105 3540
2930.0 3798 3891 3963 4128 4283 4164 3860 3546 3235 3003
2970.0 2779 2526 2278 2070 1958 2005 2220 2602 3068 3278
3010.0 3087 2646 2295 2300 2371 2250 1929 1573 1387 1286
3050.0 1240 1203 1167 1119 1044 955 857 763 676 602
3090.0 537 476 419 377 343 312 290 270 250 228
3130.0 199 175 149 132 113 109 98 85 78 75
3170.0 70 66 60 62 55 50 44 42 48 42
3210.0 35 37 37 34 33 27 34 30 30 24
3250.0 24 24 25 22 23 24 28 20 22 18
3290.0 24 25 26 21 22 14 17 22 17 20
3330.0 19 19 18 14 17 17 21 13 16 24
3370.0 17 14 23 11 15 16 23 19 20 17
3410.0 21 23 21 19 18 21 17 24 25 22
3450.0 21 20 19 16 16 17 27 24 19 18
3490.0 19 22 20 15 16 21 18 15 17 26
3530.0 25 27 21 14 19 15 14 17 28 20
3570.0 23 24 15 18 19 20 23 22 19 19
3610.0 22 19 27 21 15 19 20 24 25 16
3650.0 20 17 18 25 20 31 27 22 7 16
3690.0 25 5 14 20 19 18 24 18 32 21
3730.0 23 28 16 18 19 16 23 17 16 25
3770.0 21 17 16 25 27 32 24 27 21 34
3810.0 33 34 23 31 22 26 27 36 35 26
3850.0 19 20 17 25 10 27 27 31 31 30
3890.0 33 40 26 39 21 27 18 13 33 19
3930.0 32 25 30 25 34 24 18 46 33 49
##END=
