##TITLE=Benzyl 2-bromoacetate
##JCAMP-DX=4.24
##DATA TYPE=INFRARED SPECTRUM
##ORIGIN=Sadtler Research Labs Under US-EPA Contract
##OWNER=NIST Standard Reference Data Program
##CAS REGISTRY NO=5437-45-6
##MOLFORM=C 9 H 9 Br O 2
##XUNITS=1/CM
##YUNITS=ABSORBANCE
##XFACTOR=1.0
##YFACTOR=0.000118021
##DELTAX=4.0
##FIRSTX=450.0
##LASTX=3966.0
##FIRSTY=0.057122
##MAXX=3966
##MINX=450
##MAXY=1.18021
##MINY=0
##NPOINTS=880
##XYDATA=(X++(Y..Y))
450.0 484 209 215 222 260 270 407 369 541 563
490.0 476 416 385 341 224 187 162 147 110 96
530.0 150 0 116 357 267 364 301 241 241 256
570.0 267 329 461 515 527 564 536 576 536 538
610.0 462 423 356 326 304 269 260 209 238 212
650.0 224 234 282 369 476 724 857 1066 1180 1395
690.0 1648 1929 1951 1756 1582 1390 1319 1298 1321 1395
730.0 1491 1587 1693 1756 1751 1596 1281 948 645 452
770.0 325 256 197 185 201 151 164 155 165 152
810.0 172 194 234 255 257 234 202 203 200 186
850.0 175 189 180 183 201 197 216 223 252 270
890.0 297 314 341 368 410 459 485 485 447 421
930.0 396 407 416 437 462 517 601 739 962 1246
970.0 1594 1900 2154 2262 2325 2338 2286 2201 2050 1819
1010.0 1514 1241 1041 920 837 744 627 492 410 373
1050.0 362 362 388 423 477 550 637 760 907 1110
1090.0 1372 1743 2241 2902 3639 4170 4266 3901 3404 3015
1130.0 2858 2861 3000 3160 3223 3072 2761 2396 2051 1793
1170.0 1621 1538 1493 1483 1476 1496 1589 1769 2078 2511
1210.0 3035 3266 2988 2356 1827 1602 1610 1811 2185 2782
1250.0 3542 4472 5498 6710 8165 9528 10000 8775 6620 4556
1290.0 3226 2432 1962 1637 1399 1222 1072 947 822 730
1330.0 653 595 548 496 454 428 431 451 501 544
1370.0 609 681 704 624 495 372 307 286 283 326
1410.0 400 528 730 960 1061 936 727 574 541 582
1450.0 684 770 817 783 681 547 426 323 255 261
1490.0 327 469 607 610 452 270 173 147 141 128
1530.0 128 124 123 129 125 120 119 125 122 126
1570.0 127 140 143 154 162 172 182 193 206 201
1610.0 196 165 136 104 101 86 93 95 89 97
1650.0 98 106 101 102 109 116 119 128 149 164
1690.0 177 196 243 283 340 406 494 601 701 848
1730.0 1053 1362 1816 2495 3446 4578 5703 6406 6593 6104
1770.0 5206 4249 3468 2884 2367 1924 1563 1273 1015 798
1810.0 643 518 425 345 286 241 204 179 166 157
1850.0 145 141 142 141 141 142 139 139 136 131
1890.0 122 107 90 82 74 68 75 82 88 98
1930.0 116 129 141 155 164 170 179 178 168 143
1970.0 109 91 80 76 71 74 69 70 70 68
2010.0 65 61 60 64 61 62 61 65 68 69
2050.0 65 60 57 62 69 62 60 57 58 50
2090.0 46 45 51 53 56 52 54 48 46 49
2130.0 49 44 47 48 44 42 43 39 44 44
2170.0 43 44 48 47 47 53 49 49 52 51
2210.0 49 50 51 48 48 49 48 50 49 44
2250.0 41 42 43 47 44 48 47 48 47 47
2290.0 47 50 44 44 34 35 40 41 42 35
2330.0 34 50 45 56 68 44 11 24 60 89
2370.0 104 105 92 78 65 46 44 43 42 43
2410.0 44 48 44 44 47 45 44 44 41 40
2450.0 39 37 40 37 42 38 41 36 41 41
2490.0 41 38 37 33 31 36 40 41 44 45
2530.0 45 41 39 38 38 32 29 31 29 30
2570.0 28 34 33 32 31 35 35 37 40 38
2610.0 40 37 36 34 38 39 34 48 57 43
2650.0 31 22 13 9 11 19 27 29 32 26
2690.0 28 30 29 39 30 35 43 35 46 44
2730.0 37 40 38 40 33 35 29 35 35 36
2770.0 27 40 37 38 44 46 47 51 57 61
2810.0 64 70 76 87 96 99 108 105 116 126
2850.0 123 131 141 153 161 168 176 189 195 223
2890.0 261 285 290 301 278 259 257 242 243 246
2930.0 261 279 292 332 380 445 526 635 721 778
2970.0 774 712 619 541 486 440 385 333 286 275
3010.0 283 287 342 421 568 728 925 1102 1186 1145
3050.0 973 800 704 715 843 1088 1275 1250 1041 788
3090.0 664 588 522 472 407 351 286 250 196 147
3130.0 104 75 61 57 42 26 32 32 38 40
3170.0 38 37 48 37 32 28 24 27 32 22
3210.0 24 31 25 25 16 33 21 30 34 28
3250.0 27 37 40 28 39 31 36 33 25 30
3290.0 35 19 19 31 22 21 27 33 16 44
3330.0 35 49 42 45 20 25 25 44 32 40
3370.0 35 30 41 34 34 25 25 38 25 24
3410.0 23 24 18 18 23 15 27 21 19 21
3450.0 9 21 20 29 36 31 32 46 45 58
3490.0 56 62 57 65 69 68 55 39 42 42
3530.0 46 28 44 45 21 34 36 37 57 73
3570.0 107 118 122 132 126 116 83 51 45 37
3610.0 42 40 38 61 51 59 60 60 75 60
3650.0 68 73 57 76 72 88 68 58 46 61
3690.0 66 67 61 54 49 56 63 71 57 73
3730.0 71 71 49 47 72 59 66 55 35 50
3770.0 52 60 56 60 45 58 60 45 54 54
3810.0 53 43 65 73 65 47 72 39 58 30
3850.0 50 59 60 69 56 47 51 62 41 56
3890.0 38 66 36 49 81 47 44 44 44 32
3930.0 10 61 46 32 12 47 22 26 38 67
##END=
