##TITLE=Hexane, 1-chloro-
##JCAMP-DX=4.24
##DATA TYPE=INFRARED SPECTRUM
##ORIGIN=Sadtler Research Labs Under US-EPA Contract
##OWNER=NIST Standard Reference Data Program
##CAS REGISTRY NO=544-10-5
##MOLFORM=C 6 H 13 Cl
##XUNITS=1/CM
##YUNITS=ABSORBANCE
##XFACTOR=1.0
##YFACTOR=0.000084140
##DELTAX=4.0
##FIRSTX=450.0
##LASTX=3966.0
##FIRSTY=0.000000
##MAXX=3966
##MINX=450
##MAXY=0.8414
##MINY=0
##NPOINTS=880
##XYDATA=(X++(Y..Y))
450.0 0 17 22 36 25 40 64 30 61 83
490.0 33 91 28 19 70 34 60 102 50 70
530.0 43 67 97 65 71 72 83 66 44 62
570.0 152 126 56 52 97 121 113 82 129 119
610.0 124 178 168 193 186 225 258 289 346 456
650.0 587 768 904 926 890 775 548 382 297 239
690.0 242 222 239 291 323 416 532 656 834 950
730.0 1124 1259 1322 1270 1153 935 772 628 557 490
770.0 402 342 323 276 292 269 258 262 266 259
810.0 265 255 270 298 255 258 244 230 213 201
850.0 217 253 241 276 277 269 285 276 283 295
890.0 282 277 270 238 233 212 197 218 204 200
930.0 190 177 177 189 184 202 236 258 308 286
970.0 268 250 218 242 235 240 259 283 285 308
1010.0 281 290 308 311 326 348 369 391 404 422
1050.0 428 415 395 362 321 312 267 249 245 222
1090.0 219 212 199 205 190 181 187 172 165 160
1130.0 150 148 146 131 136 130 124 135 130 133
1170.0 139 129 138 132 130 146 139 160 180 182
1210.0 200 212 224 252 249 245 258 252 285 344
1250.0 397 489 582 664 729 729 740 755 801 920
1290.0 1049 1147 1218 1202 1131 1053 974 907 823 726
1330.0 637 561 520 521 503 496 479 429 416 410
1370.0 417 479 548 595 621 602 519 397 320 279
1410.0 241 232 254 284 338 432 529 709 883 1122
1450.0 1357 1513 1620 1571 1497 1380 1191 953 754 559
1490.0 415 312 238 197 172 113 123 121 96 91
1530.0 92 91 87 78 62 75 62 63 51 47
1570.0 60 44 46 51 38 53 50 43 48 48
1610.0 54 52 47 41 37 44 42 49 28 45
1650.0 40 33 28 28 42 43 17 39 37 26
1690.0 29 22 35 42 12 27 22 17 26 25
1730.0 27 33 15 27 27 20 24 15 7 14
1770.0 12 15 20 9 18 11 6 12 4 10
1810.0 15 8 9 15 9 12 7 9 14 7
1850.0 11 10 9 20 8 10 8 11 10 9
1890.0 6 11 14 7 10 7 8 12 6 7
1930.0 13 10 14 11 4 11 7 8 13 7
1970.0 6 8 2 7 6 5 5 5 10 11
2010.0 13 17 21 17 23 29 34 34 29 29
2050.0 33 24 35 26 24 33 23 23 22 16
2090.0 14 10 9 10 8 19 25 20 22 20
2130.0 10 21 9 14 14 14 20 23 19 20
2170.0 17 15 19 14 13 19 18 23 21 17
2210.0 22 23 18 25 21 27 29 20 31 26
2250.0 26 28 29 29 33 36 32 34 34 43
2290.0 46 48 59 62 66 69 61 68 73 57
2330.0 67 60 68 75 73 73 66 53 67 78
2370.0 69 96 73 82 66 48 50 49 44 55
2410.0 44 50 48 47 56 50 49 57 50 48
2450.0 52 51 58 53 47 58 53 50 51 53
2490.0 62 58 58 60 59 54 60 55 60 68
2530.0 56 68 70 72 84 76 68 80 61 57
2570.0 62 62 66 72 70 74 77 76 82 79
2610.0 85 92 87 93 76 86 101 88 100 103
2650.0 91 104 106 102 122 122 124 142 141 147
2690.0 145 147 160 150 155 157 147 157 159 160
2730.0 179 186 190 210 204 216 212 194 195 197
2770.0 187 209 208 209 239 252 285 315 324 359
2810.0 375 397 431 473 541 623 730 899 1118 1429
2850.0 1824 2303 2826 3378 3857 4202 4404 4596 4650 4404
2890.0 4163 3832 3527 3509 3709 4110 4708 5422 6303 7350
2930.0 8313 9161 9813 10000 9736 9175 8640 8405 8471 8914
2970.0 9075 8376 7180 5567 4049 3105 2591 2225 1885 1589
3010.0 1257 976 771 652 559 500 460 419 385 362
3050.0 319 300 287 265 260 250 219 226 211 206
3090.0 201 189 194 188 167 178 166 156 169 154
3130.0 150 160 147 158 151 151 166 143 145 145
3170.0 140 142 137 120 148 122 123 135 107 126
3210.0 104 94 106 94 80 100 68 71 69 61
3250.0 65 61 67 68 57 60 55 49 51 52
3290.0 35 54 39 35 48 38 41 59 44 56
3330.0 39 37 43 43 36 46 36 45 55 41
3370.0 46 31 39 51 27 38 43 33 34 36
3410.0 42 54 47 39 51 40 46 41 44 65
3450.0 56 48 40 24 40 38 28 44 39 18
3490.0 53 30 32 36 29 49 53 34 51 45
3530.0 32 58 33 42 62 36 63 47 49 36
3570.0 57 48 61 43 51 69 59 79 71 68
3610.0 91 43 48 76 61 99 92 100 108 73
3650.0 85 126 135 122 138 115 124 128 137 139
3690.0 112 114 111 116 118 93 104 90 66 83
3730.0 83 74 111 88 99 106 141 133 128 111
3770.0 113 118 108 134 116 110 108 101 111 121
3810.0 110 117 116 127 126 114 115 127 147 153
3850.0 131 136 172 151 159 154 134 136 156 144
3890.0 149 147 133 138 126 120 114 127 145 149
3930.0 141 143 133 121 114 105 131 148 154 158
##END=
