##TITLE=Tetradecanoic acid
##JCAMP-DX=4.24
##DATA TYPE=INFRARED SPECTRUM
##ORIGIN=Sadtler Research Labs Under US-EPA Contract
##OWNER=NIST Standard Reference Data Program
##CAS REGISTRY NO=544-63-8
##MOLFORM=C 14 H 28 O 2
##XUNITS=1/CM
##YUNITS=ABSORBANCE
##XFACTOR=1.0
##YFACTOR=0.000066882
##DELTAX=4.0
##FIRSTX=450.0
##LASTX=3966.0
##FIRSTY=0.034913
##MAXX=3966
##MINX=450
##MAXY=0.66882
##MINY=0
##NPOINTS=880
##XYDATA=(X++(Y..Y))
450.0 522 261 324 61 421 43 376 158 345 155
490.0 261 299 205 332 254 382 268 424 338 425
530.0 398 438 483 454 554 557 651 610 712 640
570.0 696 690 749 752 739 844 739 720 685 769
610.0 695 699 695 671 730 712 704 582 519 371
650.0 330 257 258 241 210 301 235 294 289 356
690.0 350 363 311 266 268 271 323 312 321 289
730.0 318 288 319 341 331 425 385 308 233 191
770.0 164 178 158 143 133 131 134 141 211 263
810.0 322 372 374 349 298 261 220 207 152 143
850.0 135 134 111 114 121 117 114 108 105 86
890.0 100 89 116 113 106 111 96 112 94 92
930.0 78 77 64 70 75 80 83 78 95 84
970.0 98 85 98 100 115 123 152 193 244 336
1010.0 457 611 748 875 929 910 830 707 625 606
1050.0 647 717 835 953 1086 1217 1346 1475 1593 1721
1090.0 1828 1949 2081 2222 2332 2339 2304 2210 2172 2153
1130.0 2165 2111 1984 1816 1629 1486 1376 1306 1247 1239
1170.0 1253 1331 1421 1445 1376 1254 1043 829 715 640
1210.0 597 546 514 479 465 444 439 436 436 451
1250.0 472 512 555 639 689 660 591 521 490 469
1290.0 477 487 508 510 524 533 549 548 542 539
1330.0 526 534 562 621 669 753 824 859 898 891
1370.0 885 839 834 807 769 671 567 457 383 335
1410.0 309 311 324 384 392 404 396 389 421 479
1450.0 611 725 888 976 963 847 673 487 382 270
1490.0 217 149 124 95 74 81 47 53 17 34
1530.0 18 18 12 13 19 16 31 24 74 102
1570.0 150 166 178 193 159 148 113 112 95 105
1610.0 107 98 97 80 88 61 78 58 70 39
1650.0 65 44 60 51 52 64 48 71 61 79
1690.0 81 108 109 141 191 212 268 306 418 453
1730.0 614 694 890 1077 1383 1752 2236 2956 3480 4047
1770.0 4454 4976 4666 4409 3619 2998 2349 2004 1601 1290
1810.0 1014 776 586 431 342 231 196 141 127 89
1850.0 95 78 67 65 54 64 45 55 42 49
1890.0 38 42 38 35 36 29 32 23 30 17
1930.0 25 15 20 13 11 14 18 16 7 6
1970.0 0 8 5 9 14 15 28 16 23 20
2010.0 23 19 22 20 17 21 20 19 17 26
2050.0 18 21 18 17 18 21 14 16 17 9
2090.0 13 14 17 11 11 15 13 13 8 15
2130.0 13 14 11 12 8 10 11 13 9 11
2170.0 16 7 12 12 10 14 7 12 12 13
2210.0 9 11 9 10 10 5 1 5 11 2
2250.0 6 3 7 7 11 10 10 13 14 21
2290.0 25 31 34 43 45 47 42 39 41 32
2330.0 28 23 27 48 41 54 34 30 38 52
2370.0 39 46 56 57 40 26 19 17 13 15
2410.0 16 13 16 18 16 18 19 19 17 21
2450.0 18 23 21 28 27 30 22 22 20 23
2490.0 24 22 26 27 28 30 29 32 37 37
2530.0 39 43 43 45 45 41 42 37 41 35
2570.0 42 39 41 39 42 45 47 48 48 51
2610.0 56 55 54 59 56 62 63 66 71 77
2650.0 78 81 87 89 91 95 99 109 102 105
2690.0 108 114 113 112 105 113 113 118 117 119
2730.0 122 126 132 129 133 134 139 144 145 143
2770.0 143 147 148 152 164 184 202 219 231 259
2810.0 282 313 345 381 427 484 553 655 797 1043
2850.0 1432 2065 2888 3591 3792 3461 2949 2502 2223 2043
2890.0 1905 1866 1965 2218 2605 3116 3760 4659 5939 7643
2930.0 9267 10000 9414 8027 6536 5183 4192 3577 3313 3199
2970.0 3013 2554 1946 1455 1119 894 736 620 523 457
3010.0 408 358 314 296 265 247 226 214 199 186
3050.0 174 160 155 148 145 139 144 140 139 132
3090.0 132 118 113 106 100 99 87 86 82 80
3130.0 74 70 69 71 68 68 70 60 69 62
3170.0 63 61 56 62 52 47 43 49 48 45
3210.0 43 41 38 39 40 33 27 29 30 33
3250.0 26 17 23 17 21 27 17 22 23 32
3290.0 23 14 23 25 25 15 16 7 10 3
3330.0 7 13 0 9 8 14 12 13 23 27
3370.0 31 25 30 38 40 46 49 46 53 25
3410.0 34 43 30 37 29 43 46 46 27 39
3450.0 43 33 31 39 46 31 34 38 47 28
3490.0 36 45 50 56 44 47 66 62 72 84
3530.0 74 86 90 111 149 164 198 269 430 714
3570.0 1235 1922 2229 1800 1199 792 509 288 186 149
3610.0 127 119 114 121 86 119 93 92 82 77
3650.0 113 99 91 81 73 83 88 102 87 89
3690.0 97 105 80 98 74 91 122 86 84 131
3730.0 89 99 136 117 80 125 104 99 96 92
3770.0 88 87 72 74 64 90 72 56 85 66
3810.0 92 69 94 79 75 85 79 85 105 99
3850.0 46 121 117 81 103 93 95 79 95 74
3890.0 104 83 95 116 135 96 93 103 99 93
3930.0 98 110 83 122 123 123 82 85 104 100
##END=
