##TITLE=Hexadecane
##JCAMP-DX=4.24
##DATA TYPE=INFRARED SPECTRUM
##ORIGIN=Sadtler Research Labs Under US-EPA Contract
##OWNER=NIST Standard Reference Data Program
##CAS REGISTRY NO=544-76-3
##MOLFORM=C 16 H 34
##XUNITS=1/CM
##YUNITS=ABSORBANCE
##XFACTOR=1.0
##YFACTOR=0.000185141
##DELTAX=4.0
##FIRSTX=450.0
##LASTX=3966.0
##FIRSTY=0.025920
##MAXX=3966
##MINX=450
##MAXY=1.85141
##MINY=0
##NPOINTS=880
##XYDATA=(X++(Y..Y))
450.0 140 66 51 21 44 19 43 30 56 25
490.0 17 35 37 31 26 61 47 28 26 41
530.0 32 14 36 27 39 14 49 20 48 31
570.0 45 55 27 33 11 57 40 24 20 37
610.0 42 28 29 35 37 4 26 25 12 39
650.0 50 33 35 37 27 63 30 36 23 16
690.0 64 68 80 88 111 129 150 163 163 169
730.0 135 182 142 104 97 96 76 90 68 81
770.0 77 74 72 68 72 81 54 47 50 45
810.0 43 44 55 49 48 44 41 45 38 52
850.0 38 44 48 44 42 40 53 44 52 41
890.0 53 58 51 48 50 52 45 54 49 48
930.0 44 45 42 41 39 41 41 37 43 37
970.0 42 37 39 38 38 39 36 38 39 41
1010.0 34 44 45 42 40 37 42 39 48 49
1050.0 49 45 43 47 49 48 41 51 43 43
1090.0 47 45 42 41 43 38 37 32 39 41
1130.0 54 43 38 37 32 42 33 34 32 33
1170.0 33 27 34 29 37 34 54 45 72 52
1210.0 76 65 68 63 53 60 58 66 57 59
1250.0 63 67 66 66 79 79 82 86 94 97
1290.0 107 118 127 140 145 146 134 127 113 114
1330.0 120 131 158 183 210 228 241 232 219 208
1370.0 203 190 191 209 202 165 126 107 94 91
1410.0 86 87 91 97 106 118 150 189 261 337
1450.0 428 511 615 692 697 629 500 355 243 177
1490.0 133 109 94 78 70 64 57 53 45 40
1530.0 38 35 35 34 31 29 28 26 27 28
1570.0 25 23 25 24 23 22 22 24 23 20
1610.0 21 19 17 20 21 18 18 20 18 18
1650.0 18 19 18 16 17 18 16 14 13 15
1690.0 14 16 15 13 14 13 13 13 13 14
1730.0 10 11 13 10 12 9 10 9 10 9
1770.0 9 9 6 7 8 9 9 10 7 8
1810.0 8 7 8 7 8 6 9 7 8 7
1850.0 6 7 8 5 6 7 6 8 4 6
1890.0 6 6 6 6 7 5 5 6 5 6
1930.0 8 8 6 4 5 8 3 5 5 6
1970.0 6 6 4 4 5 3 7 5 7 6
2010.0 6 10 12 13 11 16 16 18 14 11
2050.0 11 12 11 10 14 11 11 11 12 5
2090.0 9 6 7 7 8 7 8 9 11 11
2130.0 11 11 8 9 12 10 11 10 10 12
2170.0 11 12 9 10 11 11 11 10 9 10
2210.0 13 9 11 10 10 8 9 8 12 11
2250.0 11 9 10 12 9 10 11 14 13 9
2290.0 10 9 8 9 6 1 3 1 0 3
2330.0 7 5 10 11 21 7 0 0 15 33
2370.0 41 45 43 35 26 22 20 18 17 17
2410.0 16 18 17 17 16 19 17 17 18 18
2450.0 19 19 19 16 18 16 17 20 17 18
2490.0 20 21 21 21 19 23 21 26 27 25
2530.0 26 27 31 32 32 31 30 32 34 37
2570.0 36 36 38 40 41 41 42 44 47 48
2610.0 52 51 52 55 58 60 61 70 71 67
2650.0 69 73 72 79 82 86 92 97 98 97
2690.0 95 90 88 83 79 77 78 78 80 82
2730.0 85 94 98 99 103 100 101 100 100 103
2770.0 106 111 116 119 132 145 163 176 191 208
2810.0 229 252 279 305 350 397 457 532 656 863
2850.0 1224 1872 2823 3665 3769 3289 2688 2252 2039 1924
2890.0 1767 1673 1758 1993 2348 2798 3355 4129 5400 7298
2930.0 9514 10000 9057 7281 5534 4085 3190 2809 2857 3093
2970.0 3092 2586 1820 1243 911 712 578 480 412 362
3010.0 321 286 259 233 218 196 175 169 152 149
3050.0 134 124 115 112 111 100 104 98 90 88
3090.0 88 85 81 80 80 73 71 70 67 58
3130.0 57 59 63 58 53 56 54 51 55 55
3170.0 54 56 50 47 49 57 54 45 38 44
3210.0 44 40 34 40 37 35 34 32 25 26
3250.0 24 36 27 30 28 27 23 17 23 21
3290.0 21 19 20 20 17 24 21 21 19 11
3330.0 28 30 23 35 20 20 21 28 26 22
3370.0 18 23 31 21 13 25 32 25 26 16
3410.0 29 23 27 28 18 37 33 22 14 20
3450.0 21 35 22 32 16 24 20 34 15 29
3490.0 17 0 11 10 12 9 4 25 20 15
3530.0 22 15 23 11 28 31 21 14 23 6
3570.0 25 20 29 18 21 28 21 17 27 32
3610.0 38 17 29 28 43 41 42 40 34 28
3650.0 29 45 43 42 36 39 35 33 41 25
3690.0 40 44 36 35 38 43 38 33 34 49
3730.0 34 28 46 43 33 48 35 45 42 39
3770.0 42 42 58 36 33 38 49 43 49 43
3810.0 40 58 42 57 41 38 28 43 47 59
3850.0 23 30 61 83 47 37 66 50 50 51
3890.0 47 60 50 58 43 53 42 52 46 73
3930.0 51 34 49 48 65 70 61 42 58 58
##END=
