##TITLE=2-Propanethiol, 1-(p-chloroanilino)-2-methyl-,
##JCAMP-DX=4.24
##DATA TYPE=INFRARED SPECTRUM
##ORIGIN=Sadtler Research Labs Under US-EPA Contract
##OWNER=NIST Standard Reference Data Program
##CAS REGISTRY NO=54410-28-5
##MOLFORM=C 10 H 14 Cl N S
##XUNITS=1/CM
##YUNITS=ABSORBANCE
##XFACTOR=1.0
##YFACTOR=0.000131653
##DELTAX=4.0
##FIRSTX=450.0
##LASTX=3966.0
##FIRSTY=0.000000
##MAXX=3966
##MINX=450
##MAXY=1.31653
##MINY=0
##NPOINTS=880
##XYDATA=(X++(Y..Y))
450.0 0 16 22 51 20 83 71 116 174 249
490.0 304 352 360 376 325 236 161 89 50 32
530.0 21 23 33 9 57 73 77 101 112 151
570.0 157 175 167 192 197 199 201 195 240 293
610.0 341 435 579 728 854 948 1029 1044 930 747
650.0 670 587 505 507 554 593 587 571 477 371
690.0 296 254 187 160 125 101 69 57 43 39
730.0 28 28 33 25 33 24 39 40 38 42
770.0 59 80 97 130 166 221 331 540 889 1363
810.0 1857 2175 2095 1654 1201 872 640 464 349 261
850.0 196 161 127 109 94 84 75 71 71 108
890.0 117 91 89 97 94 84 74 69 54 52
930.0 38 32 28 34 33 38 39 51 61 69
970.0 81 88 92 87 70 69 73 136 261 377
1010.0 341 206 136 92 51 30 12 15 33 88
1050.0 122 138 179 245 337 456 586 737 948 1317
1090.0 1799 2167 2192 2094 1637 1152 1016 1011 949 880
1130.0 851 866 895 914 895 828 744 674 688 788
1170.0 967 1280 1518 1313 795 479 384 352 370 413
1210.0 458 492 527 567 646 815 1096 1410 1569 1507
1250.0 1420 1494 1712 2039 2460 2782 2855 2737 2550 2257
1290.0 1807 1358 1091 1069 1255 1454 1438 1199 912 716
1330.0 590 485 418 370 350 375 403 451 522 597
1370.0 678 720 693 684 748 904 979 930 787 607
1410.0 456 378 444 448 476 483 536 581 669 788
1450.0 878 1029 1277 1514 1804 2051 2204 2356 2853 4131
1490.0 6050 8241 9732 10000 8156 5313 3431 2217 1570 1116
1530.0 913 739 650 577 499 440 439 491 471 475
1570.0 518 582 663 796 992 1333 1784 2344 2722 2647
1610.0 2114 1565 1353 1230 1236 1107 919 699 515 402
1650.0 381 374 341 308 268 225 215 165 190 183
1690.0 148 124 153 138 122 96 110 137 97 91
1730.0 115 152 108 93 88 92 68 57 50 34
1770.0 48 43 23 26 27 28 39 35 48 31
1810.0 36 37 31 38 44 60 60 68 94 132
1850.0 146 163 177 168 157 141 100 75 61 51
1890.0 48 38 32 30 26 26 27 29 33 26
1930.0 22 21 17 25 24 16 18 16 14 17
1970.0 13 11 12 11 10 18 17 12 11 15
2010.0 12 15 21 20 18 22 22 27 28 28
2050.0 26 28 30 32 33 32 31 30 25 26
2090.0 28 25 24 25 22 21 20 18 16 13
2130.0 13 13 13 11 11 10 9 9 12 13
2170.0 9 12 13 16 16 12 14 13 14 14
2210.0 12 13 13 12 11 10 11 13 12 14
2250.0 13 13 16 18 17 20 20 23 26 27
2290.0 29 30 36 38 37 33 33 32 34 30
2330.0 27 32 28 22 24 23 29 26 24 28
2370.0 28 27 30 32 30 29 32 33 35 34
2410.0 34 35 33 31 32 30 30 29 27 26
2450.0 27 25 25 26 23 26 27 30 33 33
2490.0 31 33 32 31 32 36 37 39 42 43
2530.0 46 49 54 58 63 65 68 70 73 77
2570.0 85 96 113 124 122 110 93 81 68 60
2610.0 54 51 46 43 42 43 43 41 43 41
2650.0 44 46 48 52 54 62 69 73 78 87
2690.0 94 92 91 85 82 80 80 82 86 91
2730.0 92 96 102 100 98 98 98 93 91 93
2770.0 93 99 102 111 115 127 143 163 185 217
2810.0 255 294 333 367 395 433 473 519 573 632
2850.0 691 745 799 861 916 991 1049 1067 1053 1023
2890.0 1002 1000 1012 1046 1085 1132 1204 1270 1358 1422
2930.0 1449 1429 1346 1262 1173 1109 1111 1255 1518 1960
2970.0 2140 2215 2327 2285 2012 1618 1135 808 605 536
3010.0 443 391 373 418 525 629 663 589 512 477
3050.0 457 443 456 448 407 367 356 346 337 349
3090.0 356 366 354 322 275 224 183 141 111 88
3130.0 78 61 56 53 54 53 53 55 53 55
3170.0 53 52 50 51 49 48 49 53 54 53
3210.0 55 56 61 56 54 53 53 52 48 46
3250.0 45 43 37 38 35 37 36 39 36 34
3290.0 36 37 36 34 40 38 41 42 46 50
3330.0 52 55 63 71 75 82 91 101 119 129
3370.0 143 165 186 217 250 278 313 339 362 383
3410.0 391 413 422 397 367 347 303 257 230 215
3450.0 193 174 158 140 124 120 117 117 118 115
3490.0 116 114 114 116 109 87 81 76 65 50
3530.0 45 42 34 27 33 30 31 23 30 25
3570.0 23 14 19 20 21 25 22 12 21 20
3610.0 23 19 18 17 17 21 11 16 17 13
3650.0 15 18 27 22 12 20 16 24 14 24
3690.0 17 21 17 20 15 17 23 23 10 20
3730.0 24 27 23 18 25 14 18 11 15 22
3770.0 17 20 14 15 16 15 10 20 18 22
3810.0 9 21 17 14 20 15 17 22 24 27
3850.0 23 40 39 35 47 44 33 26 22 21
3890.0 17 26 25 25 22 32 24 24 20 21
3930.0 18 20 31 26 17 20 21 29 17 15
##END=
