##TITLE=Cyclohexanone, 4-ethyl-
##JCAMP-DX=4.24
##DATA TYPE=INFRARED SPECTRUM
##ORIGIN=Sadtler Research Labs Under US-EPA Contract
##OWNER=NIST Standard Reference Data Program
##CAS REGISTRY NO=5441-51-0
##MOLFORM=C 8 H 14 O
##XUNITS=1/CM
##YUNITS=ABSORBANCE
##XFACTOR=1.0
##YFACTOR=0.000089142
##DELTAX=4.0
##FIRSTX=450.0
##LASTX=3966.0
##FIRSTY=0.013015
##MAXX=3966
##MINX=450
##MAXY=0.89142
##MINY=0
##NPOINTS=880
##XYDATA=(X++(Y..Y))
450.0 146 119 139 62 66 111 136 105 160 190
490.0 180 192 206 268 273 277 265 243 191 137
530.0 99 72 62 35 24 47 40 49 55 27
570.0 26 39 24 35 31 31 28 26 41 24
610.0 12 30 40 25 5 16 9 18 14 27
650.0 28 16 24 31 47 69 81 76 57 59
690.0 37 37 30 32 27 31 34 49 61 83
730.0 135 198 250 288 296 270 221 187 144 96
770.0 78 58 51 40 37 36 34 28 28 41
810.0 39 56 61 62 76 116 117 129 127 102
850.0 88 71 63 48 43 46 47 54 69 88
890.0 104 127 141 154 166 176 201 245 292 366
930.0 432 407 392 362 265 182 140 109 118 125
970.0 132 130 113 86 62 51 54 62 78 95
1010.0 108 109 106 92 76 70 71 75 96 110
1050.0 134 164 181 186 202 193 176 160 144 136
1090.0 130 135 147 178 218 288 389 492 537 534
1130.0 517 438 340 272 246 273 335 467 634 828
1170.0 884 904 928 797 610 454 340 269 227 210
1210.0 206 217 239 279 318 372 431 480 491 479
1250.0 450 375 296 234 189 162 150 149 153 169
1290.0 188 217 261 296 326 379 432 499 598 673
1330.0 676 667 649 536 406 313 239 198 184 166
1370.0 166 195 236 269 301 309 287 240 197 206
1410.0 255 348 505 649 740 822 965 940 879 875
1450.0 877 879 940 944 848 761 647 492 349 246
1490.0 190 131 109 89 91 86 67 67 69 54
1530.0 47 51 54 70 56 48 50 69 56 44
1570.0 49 52 48 52 43 49 44 51 42 47
1610.0 43 45 52 50 60 57 75 92 97 119
1650.0 160 192 198 215 231 242 265 265 302 356
1690.0 385 419 468 518 580 720 1035 1680 3024 5503
1730.0 8428 9668 10000 9063 5755 3007 1824 1231 844 578
1770.0 406 296 224 199 179 180 177 185 181 170
1810.0 168 160 141 124 105 79 58 40 43 39
1850.0 34 26 26 26 31 32 25 24 19 19
1890.0 18 18 16 17 19 24 28 29 33 31
1930.0 25 21 14 14 8 5 6 8 10 13
1970.0 8 8 7 11 8 14 17 13 12 10
2010.0 6 5 9 9 7 7 5 6 8 9
2050.0 11 12 14 17 18 15 14 15 13 11
2090.0 12 7 5 2 3 0 2 0 0 0
2130.0 1 5 3 3 2 4 6 6 6 6
2170.0 6 7 6 6 7 4 4 4 7 6
2210.0 6 6 10 13 12 12 10 12 13 12
2250.0 10 8 11 10 9 11 15 15 14 20
2290.0 26 31 39 41 47 54 49 50 52 47
2330.0 51 53 46 63 52 53 72 58 71 65
2370.0 47 49 41 40 29 25 20 19 19 22
2410.0 19 19 18 18 16 15 13 15 12 16
2450.0 17 16 18 17 19 14 16 19 13 16
2490.0 14 13 15 16 12 11 15 17 18 16
2530.0 18 19 16 16 18 22 24 22 24 28
2570.0 27 29 29 31 31 31 34 37 41 41
2610.0 45 51 56 55 53 55 57 55 56 54
2650.0 57 64 62 63 68 73 76 79 81 81
2690.0 83 83 83 83 80 78 75 72 74 78
2730.0 80 80 83 89 94 96 95 91 93 90
2770.0 91 91 98 107 115 121 129 142 152 163
2810.0 171 183 203 232 271 331 395 469 550 664
2850.0 873 1187 1660 2159 2576 2935 2903 2727 2564 2354
2890.0 2206 2155 2112 2163 2355 2688 3132 3527 3918 4463
2930.0 5001 5370 5404 5196 4976 4437 3952 3787 3944 4510
2970.0 5076 5095 4570 3633 2353 1380 839 544 386 296
3010.0 245 218 202 188 175 167 157 149 142 141
3050.0 136 137 142 139 133 127 119 109 101 91
3090.0 85 81 82 76 80 73 70 69 74 71
3130.0 72 71 69 66 65 66 60 57 54 55
3170.0 53 49 49 45 47 39 36 33 31 31
3210.0 32 29 26 28 25 26 20 22 21 26
3250.0 24 19 22 23 24 21 22 17 19 22
3290.0 24 26 24 26 23 25 30 25 32 27
3330.0 26 28 24 27 28 29 26 26 28 36
3370.0 34 34 33 34 30 34 37 35 33 37
3410.0 36 31 34 42 40 43 55 72 100 121
3450.0 145 157 155 128 92 55 36 22 19 20
3490.0 18 17 22 15 12 15 11 12 16 16
3530.0 16 21 16 15 12 11 18 12 10 9
3570.0 6 14 18 20 14 21 15 11 9 14
3610.0 18 14 18 17 17 26 16 15 14 18
3650.0 20 17 22 18 27 16 23 27 27 29
3690.0 24 21 16 19 17 21 24 22 12 20
3730.0 20 30 25 26 19 35 13 23 28 27
3770.0 17 18 23 24 17 26 25 16 27 23
3810.0 23 28 16 28 15 24 27 21 24 27
3850.0 29 30 21 17 24 28 12 28 24 20
3890.0 28 18 23 15 17 21 22 17 23 28
3930.0 32 25 29 20 22 32 24 26 17 26
##END=
