##TITLE=2-Propanethiol, 1-anilino-2-methyl-,
##JCAMP-DX=4.24
##DATA TYPE=INFRARED SPECTRUM
##ORIGIN=Sadtler Research Labs Under US-EPA Contract
##OWNER=NIST Standard Reference Data Program
##CAS REGISTRY NO=54410-26-3
##MOLFORM=C 10 H 15 N S
##XUNITS=1/CM
##YUNITS=ABSORBANCE
##XFACTOR=1.0
##YFACTOR=0.000069971
##DELTAX=4.0
##FIRSTX=450.0
##LASTX=3966.0
##FIRSTY=0.002169
##MAXX=3966
##MINX=450
##MAXY=0.69971
##MINY=0
##NPOINTS=880
##XYDATA=(X++(Y..Y))
450.0 31 146 173 215 129 214 129 184 214 258
490.0 312 352 389 381 321 301 262 158 141 118
530.0 106 102 138 88 131 154 165 172 169 232
570.0 218 244 217 256 271 297 279 295 331 330
610.0 284 287 316 278 255 269 290 299 355 456
650.0 558 661 753 843 887 1022 1096 1256 1587 2073
690.0 2402 1984 1638 1278 987 806 723 715 746 862
730.0 1099 1544 2196 2997 3459 3235 2660 1973 1372 1004
770.0 750 620 477 388 305 205 104 37 0 30
810.0 90 159 203 218 203 185 157 117 126 129
850.0 133 165 205 275 338 373 365 319 257 250
890.0 234 209 199 214 212 199 192 181 159 160
930.0 142 145 141 158 161 171 179 203 224 259
970.0 299 339 370 383 372 400 402 352 240 120
1010.0 48 38 100 177 237 241 202 155 137 181
1050.0 219 280 410 577 722 761 703 632 634 725
1090.0 827 903 894 903 921 920 923 928 959 1042
1130.0 1194 1376 1546 1644 1680 1663 1569 1469 1373 1303
1170.0 1312 1438 1523 1473 1289 1002 806 724 703 723
1210.0 759 784 797 810 872 1005 1267 1720 2361 2964
1250.0 3263 3194 2948 2996 3344 3648 3613 3295 2865 2437
1290.0 2080 1834 1793 1892 2053 2222 2298 2189 1895 1513
1330.0 1171 942 780 711 675 676 713 789 905 1045
1370.0 1192 1193 1113 1105 1182 1268 1177 893 608 485
1410.0 459 520 618 854 1187 1557 1710 1623 1390 1220
1450.0 1211 1389 1694 2066 2384 2491 2371 2216 2254 2608
1490.0 3430 4884 6954 9142 10000 8783 6508 3866 2316 1483
1530.0 1105 860 736 658 642 671 684 698 716 764
1570.0 823 972 1224 1654 2349 3439 5007 6853 8170 8144
1610.0 6935 5154 3708 2737 2001 1536 1208 908 700 504
1650.0 376 323 313 303 286 274 266 279 270 268
1690.0 268 242 189 156 151 148 118 74 67 59
1730.0 38 22 36 42 48 66 92 86 77 60
1770.0 37 16 28 16 18 17 19 28 34 61
1810.0 75 84 96 94 89 87 82 76 45 26
1850.0 25 22 16 16 12 2 18 17 22 25
1890.0 39 59 86 117 141 162 165 157 146 154
1930.0 146 121 88 47 34 23 17 14 13 8
1970.0 10 13 14 12 13 11 15 18 17 16
2010.0 12 10 14 16 20 19 23 20 22 28
2050.0 25 27 31 27 20 22 20 18 13 15
2090.0 13 11 10 8 7 4 6 4 2 2
2130.0 2 6 6 6 7 7 7 5 13 15
2170.0 14 18 13 18 15 10 16 11 12 12
2210.0 7 5 3 3 4 1 3 3 2 6
2250.0 5 5 9 11 5 7 13 14 16 13
2290.0 16 10 16 18 23 21 27 28 30 29
2330.0 33 40 41 32 36 28 38 31 30 31
2370.0 30 31 34 33 32 35 46 50 53 51
2410.0 45 42 37 33 31 31 32 27 25 24
2450.0 22 21 21 24 23 19 20 23 25 28
2490.0 30 31 31 33 32 37 44 48 53 55
2530.0 57 62 72 73 80 88 100 114 120 133
2570.0 147 172 203 219 210 182 152 120 98 86
2610.0 79 71 65 60 56 56 55 52 51 53
2650.0 57 62 60 67 70 82 84 95 101 110
2690.0 117 111 107 93 90 86 88 91 97 103
2730.0 105 111 119 121 115 117 117 120 121 129
2770.0 140 149 154 162 167 179 204 229 260 309
2810.0 377 445 532 618 705 782 846 894 949 1009
2850.0 1079 1152 1231 1337 1438 1556 1639 1663 1629 1577
2890.0 1533 1524 1554 1610 1684 1764 1858 1972 2105 2221
2930.0 2285 2270 2139 1965 1796 1703 1752 2044 2548 3210
2970.0 3522 3732 3818 3557 2997 2298 1572 1079 845 844
3010.0 875 972 1131 1314 1481 1544 1467 1333 1298 1373
3050.0 1523 1779 2054 2141 2009 1729 1449 1288 1233 1211
3090.0 1172 1085 935 789 661 546 448 357 274 209
3130.0 155 114 91 73 66 59 56 50 51 51
3170.0 51 48 48 47 44 45 51 53 57 61
3210.0 61 56 63 51 50 51 52 51 48 44
3250.0 48 44 34 36 33 39 27 34 32 29
3290.0 28 31 30 23 30 34 38 46 43 38
3330.0 49 56 64 76 77 85 94 103 117 127
3370.0 146 178 216 268 328 365 401 424 432 438
3410.0 433 427 432 422 418 400 386 341 308 283
3450.0 254 225 206 189 161 151 152 137 121 112
3490.0 111 109 108 102 86 60 70 63 58 43
3530.0 33 29 29 21 22 21 23 13 22 12
3570.0 7 6 5 10 11 10 15 12 13 18
3610.0 17 12 7 21 18 9 8 14 17 23
3650.0 18 14 22 15 7 17 12 14 10 17
3690.0 7 12 9 16 6 12 12 8 4 9
3730.0 15 22 10 1 19 3 15 6 11 6
3770.0 1 9 1 2 1 2 2 16 31 21
3810.0 10 9 15 9 10 7 18 29 30 26
3850.0 23 35 34 13 26 36 33 25 21 8
3890.0 2 31 35 6 16 34 30 23 12 1
3930.0 11 25 34 32 25 10 16 22 28 37
##END=
