##TITLE=Phenol, 2,6-bis(1,1-dimethylethyl)-4-ethoxy-
##JCAMP-DX=4.24
##DATA TYPE=INFRARED SPECTRUM
##ORIGIN=Sadtler Research Labs Under US-EPA Contract
##OWNER=NIST Standard Reference Data Program
##CAS REGISTRY NO=5442-35-3
##MOLFORM=C 16 H 26 O 2
##XUNITS=1/CM
##YUNITS=ABSORBANCE
##XFACTOR=1.0
##YFACTOR=0.000082861
##DELTAX=4.0
##FIRSTX=450.0
##LASTX=3966.0
##FIRSTY=0.024527
##MAXX=3966
##MINX=450
##MAXY=0.82861
##MINY=0
##NPOINTS=880
##XYDATA=(X++(Y..Y))
450.0 296 321 308 279 249 243 214 199 160 172
490.0 177 209 239 191 220 228 209 253 247 230
530.0 218 235 235 219 215 310 243 381 379 345
570.0 250 342 288 265 364 296 198 298 328 310
610.0 315 359 364 360 309 390 454 417 372 388
650.0 388 312 292 307 154 389 256 279 267 238
690.0 231 284 274 272 302 256 251 236 340 276
730.0 373 330 458 663 578 751 1016 1284 1322 1309
770.0 1260 1257 1175 919 432 173 40 0 36 120
810.0 149 136 201 214 294 330 358 368 402 456
850.0 521 541 606 739 864 1005 1103 1110 1117 1080
890.0 996 912 762 658 556 533 515 505 547 574
930.0 563 518 499 468 531 565 679 738 839 845
970.0 882 929 978 925 761 514 438 361 297 257
1010.0 282 302 445 544 675 779 1047 1328 1758 2402
1050.0 3030 3511 3614 3427 2852 2259 1751 1409 1241 1289
1090.0 1495 1621 1570 1410 1230 1237 1345 1363 1274 1121
1130.0 1005 1044 1191 1458 1865 2262 2644 2804 2698 2462
1170.0 2280 2197 2233 2396 2685 3134 3763 4508 5220 5652
1210.0 5363 4580 3630 2853 2480 2389 2488 2734 2885 2764
1250.0 2308 1811 1383 1085 1033 1174 1394 1736 2130 2554
1290.0 2970 3266 3468 3576 3515 3256 2888 2446 2034 1639
1330.0 1356 1128 967 880 843 859 954 1163 1578 2098
1370.0 2342 2116 1833 1820 2102 2562 3024 3154 2755 2135
1410.0 1776 1876 2370 3341 4630 6060 7081 7010 5998 4603
1450.0 3477 2818 2454 2300 2163 2049 1917 1851 1795 1639
1490.0 1347 1022 741 625 493 446 434 399 360 368
1530.0 353 343 328 289 333 374 388 364 394 482
1570.0 554 723 921 1288 1748 2282 2821 3079 2889 2334
1610.0 1685 1158 804 641 543 457 433 372 401 389
1650.0 395 376 523 687 884 960 899 700 523 383
1690.0 355 356 342 332 382 406 396 366 386 387
1730.0 390 358 372 354 360 338 342 341 340 334
1770.0 306 259 279 284 279 283 241 242 222 204
1810.0 185 161 166 157 134 131 135 134 134 110
1850.0 127 120 126 126 119 105 125 119 121 112
1890.0 113 115 114 114 114 113 114 101 114 125
1930.0 118 123 120 121 112 115 110 111 107 114
1970.0 107 112 114 117 116 117 117 116 117 107
2010.0 109 97 90 83 83 82 82 79 76 85
2050.0 83 80 83 81 83 91 79 89 89 82
2090.0 82 80 75 81 81 79 75 68 73 73
2130.0 71 65 65 59 59 64 75 74 81 79
2170.0 91 84 90 90 72 78 70 65 63 57
2210.0 54 50 46 43 42 48 41 47 40 41
2250.0 52 44 49 49 48 48 50 59 66 72
2290.0 84 95 113 131 133 161 143 150 155 152
2330.0 136 140 147 131 163 143 150 200 176 177
2370.0 155 140 131 121 84 68 54 60 52 58
2410.0 65 58 58 53 63 65 43 47 47 37
2450.0 30 30 28 22 22 26 19 18 29 16
2490.0 13 13 17 23 18 11 10 17 9 1
2530.0 4 8 10 6 13 21 27 26 34 29
2570.0 28 30 31 26 32 33 27 20 35 30
2610.0 36 25 32 44 45 46 45 41 49 48
2650.0 50 49 56 58 60 59 60 55 56 55
2690.0 58 64 71 81 88 89 103 138 141 153
2730.0 166 155 156 144 160 166 164 175 174 176
2770.0 175 175 186 206 213 237 233 234 253 256
2810.0 281 295 329 359 388 399 438 462 507 571
2850.0 649 767 934 1182 1564 2061 2675 3262 3664 3758
2890.0 3630 3444 3347 3355 3497 3716 3950 4131 4237 4223
2930.0 4177 4182 4359 4649 5027 5555 6322 7332 8437 9379
2970.0 10000 9813 8428 6591 4907 3789 3000 2409 2046 1793
3010.0 1560 1271 968 751 617 524 455 400 358 311
3050.0 292 286 262 251 264 254 255 244 256 284
3090.0 325 379 395 371 334 254 230 231 196 187
3130.0 162 158 148 145 123 137 140 120 119 120
3170.0 115 123 139 111 113 110 98 98 106 100
3210.0 95 87 70 71 70 72 66 83 62 59
3250.0 63 50 54 43 62 54 55 65 53 44
3290.0 60 53 52 42 52 78 66 50 35 48
3330.0 36 32 43 19 37 31 29 28 26 29
3370.0 34 27 27 40 27 29 41 35 29 51
3410.0 24 43 48 32 52 42 38 32 26 28
3450.0 39 25 31 34 23 37 17 26 9 6
3490.0 6 42 38 34 13 10 8 14 31 20
3530.0 16 33 21 21 33 27 32 45 41 17
3570.0 23 37 43 73 73 58 73 55 93 102
3610.0 111 112 130 157 196 223 271 368 474 615
3650.0 805 1158 1561 1999 2314 2411 2257 1932 1586 1293
3690.0 1000 769 648 512 431 369 320 304 274 262
3730.0 262 233 225 229 185 197 202 218 212 219
3770.0 242 253 251 264 261 258 265 283 292 279
3810.0 286 298 307 307 307 296 296 298 297 308
3850.0 313 290 266 288 296 285 287 294 315 336
3890.0 328 324 330 321 310 311 313 313 319 320
3930.0 316 316 328 315 320 350 43 67 69 69
##END=
