##TITLE=2-Propenal, 2-bromo-3-phenyl-
##JCAMP-DX=4.24
##DATA TYPE=INFRARED SPECTRUM
##ORIGIN=Sadtler Research Labs Under US-EPA Contract
##OWNER=NIST Standard Reference Data Program
##CAS REGISTRY NO=5443-49-2
##MOLFORM=C 9 H 7 Br O
##XUNITS=1/CM
##YUNITS=ABSORBANCE
##XFACTOR=1.0
##YFACTOR=0.000080469
##DELTAX=4.0
##FIRSTX=450.0
##LASTX=3966.0
##FIRSTY=0.009254
##MAXX=3966
##MINX=450
##MAXY=0.80469
##MINY=0
##NPOINTS=880
##XYDATA=(X++(Y..Y))
450.0 115 192 237 122 239 513 736 788 671 515
490.0 638 904 911 661 959 752 305 501 806 709
530.0 739 939 1005 1056 703 678 824 649 64 78
570.0 351 324 177 364 346 180 18 307 512 751
610.0 516 328 291 253 145 288 376 262 103 214
650.0 241 312 398 486 710 1213 1083 1482 2139 2361
690.0 2250 1929 1700 1394 1276 1218 1327 1185 985 755
730.0 813 936 832 1034 1413 1526 1389 1367 1092 840
770.0 612 451 477 629 532 510 725 808 477 665
810.0 706 579 577 464 409 467 475 454 683 661
850.0 460 565 762 796 910 1029 978 776 666 553
890.0 514 539 346 249 356 422 407 547 571 508
930.0 402 385 310 335 320 294 334 294 219 293
970.0 442 455 395 394 496 485 698 860 960 1013
1010.0 690 911 1700 1947 2104 2992 3673 3313 2711 2036
1050.0 1453 1289 1145 1239 1597 1867 1818 2012 2355 2293
1090.0 2299 2584 2762 3083 3288 3000 2395 1533 731 521
1130.0 588 435 315 332 378 366 370 368 262 224
1170.0 195 198 297 420 224 193 214 252 161 273
1210.0 271 172 97 132 177 255 249 206 319 348
1250.0 387 588 875 1106 1082 1111 1133 1194 1173 962
1290.0 765 598 456 444 472 434 384 379 373 360
1330.0 376 387 402 364 264 177 216 222 201 222
1370.0 279 357 463 600 670 606 471 326 251 219
1410.0 158 168 248 202 146 186 281 431 571 723
1450.0 709 697 594 323 315 244 241 256 364 525
1490.0 730 832 810 553 423 259 177 227 202 147
1530.0 145 155 127 292 235 177 212 348 408 462
1570.0 640 733 919 929 990 1354 2090 2922 3705 4123
1610.0 3881 3011 2056 1304 869 614 443 419 384 416
1650.0 395 539 390 385 382 463 495 545 577 681
1690.0 726 962 1409 2268 3458 4995 6420 8499 10000 9489
1730.0 7828 4800 2107 1144 843 810 778 718 602 518
1770.0 529 495 429 437 446 437 445 375 377 302
1810.0 220 165 173 143 154 191 167 150 134 144
1850.0 122 139 107 107 138 146 99 126 172 174
1890.0 177 180 188 185 182 157 144 132 94 92
1930.0 139 148 140 185 193 172 180 176 192 194
1970.0 133 90 72 69 55 65 88 47 31 49
2010.0 55 71 67 49 61 66 41 65 96 90
2050.0 63 74 86 90 97 106 92 93 61 45
2090.0 82 88 59 63 86 68 64 97 106 100
2130.0 87 50 63 80 53 47 70 61 44 72
2170.0 99 95 84 81 76 89 80 76 92 76
2210.0 40 37 67 62 43 50 40 28 27 28
2250.0 41 65 32 14 46 40 32 61 78 66
2290.0 71 96 134 166 181 184 198 208 167 179
2330.0 242 196 118 136 177 208 220 219 216 191
2370.0 109 74 146 151 70 32 25 13 24 31
2410.0 50 49 28 0 27 50 28 21 46 22
2450.0 1 24 44 44 31 13 16 35 25 17
2490.0 46 46 10 5 39 34 47 34 31 35
2530.0 14 21 53 63 29 13 44 48 34 59
2570.0 72 48 28 37 54 78 73 57 59 70
2610.0 38 69 104 92 68 74 83 105 114 106
2650.0 121 127 97 99 149 166 148 161 174 182
2690.0 223 256 297 338 329 337 376 429 454 490
2730.0 574 611 585 559 494 414 327 249 237 246
2770.0 238 244 278 293 263 304 413 527 706 890
2810.0 1046 1100 1040 886 797 824 1069 1649 1904 1770
2850.0 1201 594 333 212 163 138 149 190 158 134
2890.0 154 147 118 124 168 159 120 97 119 137
2930.0 147 131 150 163 131 127 217 267 263 262
2970.0 246 243 237 243 234 257 217 173 249 286
3010.0 286 314 359 387 471 627 752 749 658 499
3050.0 449 518 609 814 1134 1358 1402 1288 1071 866
3090.0 714 662 590 549 450 349 331 275 144 86
3130.0 98 84 91 100 105 109 83 50 85 125
3170.0 78 43 94 74 48 67 112 91 75 55
3210.0 49 94 107 51 80 73 17 17 85 82
3250.0 63 45 34 27 58 59 72 101 36 14
3290.0 56 94 54 66 79 54 39 43 67 97
3330.0 72 21 43 84 39 57 98 62 39 30
3370.0 58 90 99 74 63 82 88 88 168 209
3410.0 151 160 211 202 217 216 186 129 86 48
3450.0 86 129 88 34 70 56 48 71 90 82
3490.0 58 28 6 73 72 43 64 73 5 11
3530.0 84 78 54 41 48 62 75 56 93 157
3570.0 83 39 100 133 147 131 104 79 66 57
3610.0 113 153 130 67 49 155 82 86 127 134
3650.0 146 98 105 121 135 162 163 176 108 101
3690.0 205 199 143 123 136 181 201 182 193 213
3730.0 203 217 241 274 327 263 222 186 180 208
3770.0 244 238 240 196 206 240 278 265 289 266
3810.0 228 225 275 314 279 264 258 300 291 254
3850.0 298 389 267 231 263 295 282 276 283 267
3890.0 233 247 264 325 316 225 249 269 265 252
3930.0 267 269 220 197 193 279 41 60 61 62
##END=
