##TITLE=Cyclohexanol, 1-butyl-
##JCAMP-DX=4.24
##DATA TYPE=INFRARED SPECTRUM
##ORIGIN=Sadtler Research Labs Under US-EPA Contract
##OWNER=NIST Standard Reference Data Program
##CAS REGISTRY NO=5445-30-7
##MOLFORM=C 10 H 20 O
##XUNITS=1/CM
##YUNITS=ABSORBANCE
##XFACTOR=1.0
##YFACTOR=0.000156992
##DELTAX=4.0
##FIRSTX=450.0
##LASTX=3966.0
##FIRSTY=0.123081
##MAXX=3966
##MINX=450
##MAXY=1.56992
##MINY=0
##NPOINTS=880
##XYDATA=(X++(Y..Y))
450.0 784 390 186 0 18 170 213 143 135 104
490.0 164 108 47 165 104 116 109 149 63 74
530.0 80 31 81 125 126 208 27 28 203 209
570.0 96 135 68 65 66 85 88 77 97 82
610.0 120 117 97 131 101 101 116 74 52 48
650.0 51 82 69 67 48 96 49 46 58 46
690.0 42 40 61 62 48 56 97 61 108 143
730.0 142 112 83 113 103 92 112 101 89 97
770.0 93 128 104 110 102 105 105 72 77 52
810.0 74 76 77 114 123 141 193 190 186 229
850.0 230 232 183 155 126 113 120 120 143 167
890.0 206 245 278 316 320 316 318 295 289 277
930.0 244 215 212 231 276 359 476 608 761 874
970.0 949 959 836 663 490 335 238 183 160 149
1010.0 145 172 192 250 304 375 437 434 420 398
1050.0 348 316 281 262 248 243 222 222 239 252
1090.0 275 307 313 354 361 394 417 432 450 463
1130.0 472 478 489 506 524 549 581 582 587 580
1170.0 558 526 461 390 326 286 275 271 281 294
1210.0 308 307 307 307 305 307 321 340 365 397
1250.0 422 449 463 469 451 423 395 371 361 343
1290.0 329 315 302 291 282 277 280 280 288 298
1330.0 318 344 378 409 431 436 413 393 371 369
1370.0 375 399 434 456 455 420 345 271 222 195
1410.0 179 172 166 173 191 229 289 379 498 621
1450.0 764 869 901 894 820 683 545 383 250 170
1490.0 121 97 84 74 72 58 59 56 55 59
1530.0 50 50 44 37 40 39 38 37 31 31
1570.0 30 32 31 27 29 25 32 29 23 27
1610.0 28 28 24 26 22 23 25 19 18 21
1650.0 22 21 21 16 17 16 18 16 16 16
1690.0 16 16 17 14 17 13 13 15 14 13
1730.0 14 17 16 13 12 12 13 13 15 12
1770.0 10 9 9 9 12 9 9 11 10 10
1810.0 8 8 8 7 7 7 5 4 5 4
1850.0 5 3 4 5 8 3 8 8 6 5
1890.0 3 5 7 2 3 5 5 6 3 5
1930.0 7 8 7 5 6 4 6 7 6 8
1970.0 6 5 3 2 4 4 4 7 3 2
2010.0 0 4 7 4 4 1 1 3 5 5
2050.0 5 5 4 2 3 3 5 5 4 4
2090.0 2 2 2 4 2 3 3 3 3 3
2130.0 4 3 5 3 5 3 1 5 4 5
2170.0 7 8 7 8 7 9 7 7 7 10
2210.0 8 8 9 7 6 6 6 5 4 5
2250.0 6 4 5 5 5 8 7 6 5 4
2290.0 5 2 1 3 1 0 4 7 9 11
2330.0 12 13 13 14 9 9 16 22 10 5
2370.0 9 2 3 0 1 5 5 6 6 5
2410.0 7 8 8 6 8 7 6 4 4 3
2450.0 1 1 4 0 0 0 0 3 5 6
2490.0 5 5 7 5 4 6 4 5 7 6
2530.0 6 7 7 5 5 8 7 8 10 8
2570.0 11 9 12 16 19 18 20 23 25 28
2610.0 28 30 31 34 35 36 34 38 39 41
2650.0 49 56 65 74 83 89 88 83 74 67
2690.0 61 54 51 47 45 47 45 47 48 48
2730.0 53 54 57 58 56 58 58 60 59 64
2770.0 66 73 82 93 101 112 124 136 145 151
2810.0 160 172 187 204 230 270 338 444 613 856
2850.0 1162 1560 2011 2409 2712 2807 2709 2518 2239 1963
2890.0 1752 1611 1595 1737 1965 2256 2613 3076 3751 4720
2930.0 6164 7941 9384 10000 9155 7357 5454 3938 3250 3097
2970.0 2915 2487 1788 1089 659 460 358 298 252 220
3010.0 196 177 163 153 142 131 114 101 94 78
3050.0 70 61 61 58 52 50 48 50 49 46
3090.0 44 45 42 38 36 33 28 28 27 28
3130.0 27 29 28 30 30 28 25 27 24 22
3170.0 21 22 24 19 18 20 18 15 12 12
3210.0 11 13 9 9 7 9 4 7 11 10
3250.0 7 8 5 6 5 7 3 5 2 1
3290.0 2 2 5 1 0 3 6 6 7 4
3330.0 6 5 7 7 6 9 9 10 11 9
3370.0 9 12 10 14 12 14 18 20 19 18
3410.0 18 22 24 18 24 30 24 22 21 18
3450.0 13 17 19 13 12 11 17 16 17 17
3490.0 16 16 18 14 20 12 15 9 10 12
3530.0 17 15 11 15 18 16 14 16 18 18
3570.0 17 10 6 15 17 16 20 18 16 18
3610.0 23 36 52 76 121 170 226 252 252 230
3650.0 191 134 91 56 31 30 21 13 9 15
3690.0 7 7 0 1 5 4 0 0 0 9
3730.0 0 0 0 0 0 0 0 0 0 0
3770.0 0 0 0 1 0 0 0 0 0 0
3810.0 0 5 0 0 0 1 3 0 3 1
3850.0 0 0 0 0 0 4 0 0 0 0
3890.0 0 1 0 0 0 0 0 0 0 0
3930.0 0 0 0 0 0 1 0 0 0 0
##END=
