##TITLE=3-Nitro-2-pentanol
##JCAMP-DX=4.24
##DATA TYPE=INFRARED SPECTRUM
##ORIGIN=Sadtler Research Labs Under US-EPA Contract
##OWNER=NIST Standard Reference Data Program
##CAS REGISTRY NO=5447-99-4
##MOLFORM=C 5 H 11 N O 3
##XUNITS=1/CM
##YUNITS=ABSORBANCE
##XFACTOR=1.0
##YFACTOR=0.000149020
##DELTAX=4.0
##FIRSTX=450.0
##LASTX=3966.0
##FIRSTY=0.095224
##MAXX=3966
##MINX=450
##MAXY=1.4902
##MINY=0
##NPOINTS=880
##XYDATA=(X++(Y..Y))
450.0 639 503 499 458 412 409 399 398 372 413
490.0 414 385 361 351 290 269 245 240 225 187
530.0 185 161 186 188 189 168 118 128 88 83
570.0 53 75 75 56 43 25 19 15 14 15
610.0 0 11 16 32 23 39 29 38 29 32
650.0 37 39 23 44 45 43 50 65 66 58
690.0 47 35 20 23 22 37 43 42 42 35
730.0 24 28 14 15 17 16 28 20 28 25
770.0 47 59 81 119 162 226 330 479 660 808
810.0 906 900 787 600 409 289 238 222 240 246
850.0 245 233 196 163 140 128 121 150 180 223
890.0 267 301 310 313 293 296 294 311 324 338
930.0 335 334 328 322 332 349 374 364 338 293
970.0 237 174 129 103 90 98 110 140 182 251
1010.0 335 452 552 619 671 650 653 674 722 788
1050.0 856 889 895 869 813 766 741 747 771 824
1090.0 897 991 1084 1155 1195 1190 1151 1099 1077 1088
1130.0 1134 1205 1281 1325 1290 1223 1155 1001 804 660
1170.0 524 414 341 292 261 244 242 240 252 263
1210.0 292 331 404 507 638 775 905 1011 1127 1198
1250.0 1216 1253 1289 1311 1348 1342 1288 1207 1103 982
1290.0 906 893 914 962 994 978 931 876 834 852
1330.0 930 1055 1208 1350 1456 1538 1604 1667 1778 1912
1370.0 2037 2169 2271 2331 2356 2323 2250 2077 1774 1455
1410.0 1149 887 709 601 547 564 624 716 833 951
1450.0 1047 1134 1233 1215 1168 1098 952 747 612 489
1490.0 429 416 444 488 537 621 662 749 822 968
1530.0 1122 1401 1889 2675 3925 5429 7244 8479 10000 9663
1570.0 8154 6429 4469 2903 1860 1244 949 768 691 600
1610.0 544 473 419 341 277 224 171 133 99 87
1650.0 63 73 53 40 42 37 46 18 24 21
1690.0 15 5 21 13 11 10 17 27 36 41
1730.0 44 56 53 55 61 76 100 129 159 178
1770.0 173 154 113 86 65 57 51 52 44 40
1810.0 28 23 13 8 8 3 5 0 6 1
1850.0 4 1 5 0 0 0 3 2 0 2
1890.0 3 3 4 4 4 6 7 9 8 8
1930.0 8 8 7 8 9 9 8 9 8 10
1970.0 9 11 12 13 12 13 13 15 14 15
2010.0 14 14 14 14 16 15 18 16 16 18
2050.0 17 16 16 14 16 15 15 15 13 10
2090.0 10 8 8 10 8 6 7 6 7 8
2130.0 8 7 10 7 6 9 6 9 9 9
2170.0 9 9 9 12 12 10 12 11 12 9
2210.0 8 11 9 10 9 11 11 12 11 15
2250.0 14 15 13 14 14 14 14 14 14 12
2290.0 10 10 9 9 2 2 1 0 0 4
2330.0 2 9 13 8 16 18 17 20 19 31
2370.0 29 29 29 25 22 20 21 25 23 29
2410.0 30 30 27 27 24 27 27 28 30 30
2450.0 33 31 29 24 23 22 23 21 19 19
2490.0 19 15 15 15 15 13 15 14 13 12
2530.0 13 11 12 9 10 10 12 12 9 10
2570.0 9 10 9 9 10 15 14 15 16 18
2610.0 18 20 22 21 22 20 22 23 22 22
2650.0 23 28 27 27 28 30 33 39 39 41
2690.0 43 47 51 54 52 52 53 51 52 54
2730.0 56 58 61 65 64 68 71 76 82 83
2770.0 83 83 80 76 74 80 77 80 82 85
2810.0 90 93 99 101 112 120 126 141 154 169
2850.0 184 202 230 263 306 362 440 545 694 866
2890.0 997 1105 1119 1096 1057 1010 1012 1049 1112 1171
2930.0 1242 1341 1467 1585 1669 1674 1568 1414 1303 1321
2970.0 1550 2039 2642 3344 3889 3814 3306 2640 1869 1204
3010.0 727 433 282 204 160 129 108 96 82 74
3050.0 74 69 68 68 62 62 59 55 51 46
3090.0 42 41 37 34 33 33 32 31 25 28
3130.0 29 25 22 25 28 25 28 25 33 33
3170.0 39 42 42 40 40 37 31 28 24 23
3210.0 20 16 14 14 14 9 6 5 9 2
3250.0 4 4 1 0 6 1 4 1 5 0
3290.0 1 1 4 1 5 4 1 6 4 8
3330.0 2 3 8 5 3 8 5 6 3 4
3370.0 7 9 8 10 7 1 10 10 10 10
3410.0 7 5 11 2 2 4 6 1 4 2
3450.0 1 5 7 9 14 19 13 17 20 19
3490.0 20 20 29 23 24 23 20 23 24 22
3530.0 29 29 33 37 34 33 40 55 74 101
3570.0 169 261 390 542 689 778 786 751 668 584
3610.0 504 436 399 399 418 441 464 475 464 455
3650.0 433 402 383 331 293 215 153 96 61 42
3690.0 33 21 17 18 21 10 8 10 0 5
3730.0 0 2 1 0 0 0 0 0 0 0
3770.0 0 0 0 0 0 0 0 0 0 0
3810.0 0 0 0 0 0 0 0 0 0 0
3850.0 0 0 0 0 0 0 0 0 0 0
3890.0 0 0 0 0 0 0 0 0 0 0
3930.0 0 0 0 0 0 0 0 0 0 0
##END=
