##TITLE=Tetradecanoic acid, 7-oxo-, methyl ester
##JCAMP-DX=4.24
##DATA TYPE=INFRARED SPECTRUM
##ORIGIN=Sadtler Research Labs Under US-EPA Contract
##OWNER=NIST Standard Reference Data Program
##CAS REGISTRY NO=54527-03-6
##MOLFORM=C 15 H 28 O 3
##XUNITS=1/CM
##YUNITS=ABSORBANCE
##XFACTOR=1.0
##YFACTOR=0.000082339
##DELTAX=4.0
##FIRSTX=450.0
##LASTX=3966.0
##FIRSTY=0.022479
##MAXX=3966
##MINX=450
##MAXY=0.82339
##MINY=0
##NPOINTS=880
##XYDATA=(X++(Y..Y))
450.0 273 181 29 114 71 173 20 100 27 40
490.0 40 3 67 25 41 58 76 72 77 59
530.0 71 51 41 24 36 78 22 61 27 46
570.0 45 22 74 71 56 48 58 55 81 100
610.0 106 104 95 109 101 105 122 118 100 81
650.0 71 52 31 16 30 38 37 25 32 26
690.0 47 58 70 91 114 120 164 186 201 243
730.0 258 296 311 352 361 346 330 304 291 267
770.0 245 241 213 186 187 181 155 151 169 178
810.0 177 201 226 253 265 293 309 316 333 333
850.0 337 311 318 295 294 310 309 295 295 285
890.0 255 233 221 206 205 175 160 164 142 152
930.0 153 149 151 147 164 178 194 215 228 259
970.0 290 328 394 458 524 619 719 835 972 1123
1010.0 1239 1328 1380 1434 1529 1620 1708 1737 1732 1666
1050.0 1566 1490 1426 1382 1347 1328 1310 1330 1391 1497
1090.0 1640 1763 1821 1810 1787 1801 1893 2069 2314 2565
1130.0 2797 3012 3291 3664 4131 4625 5096 5504 5852 6097
1170.0 6215 6187 5994 5714 5451 5300 5285 5327 5302 5201
1210.0 5062 4893 4719 4582 4468 4393 4347 4327 4313 4291
1250.0 4235 4129 3947 3681 3381 3073 2769 2514 2332 2197
1290.0 2102 2028 1970 1928 1907 1908 1892 1895 1887 1917
1330.0 1961 2044 2204 2410 2637 2876 3089 3210 3179 2944
1370.0 2576 2165 1791 1489 1291 1086 934 851 827 890
1410.0 1007 1152 1321 1431 1590 1870 2364 2855 2939 2567
1450.0 2252 2184 2201 2090 1865 1585 1295 994 743 585
1490.0 491 385 336 274 266 250 197 183 184 152
1530.0 135 122 130 147 127 108 113 135 118 92
1570.0 98 90 91 81 68 76 65 72 55 70
1610.0 62 63 79 64 81 57 88 95 95 103
1650.0 154 157 162 173 212 258 319 376 464 584
1690.0 673 849 1088 1472 1971 2727 3798 5136 6474 7352
1730.0 7647 7134 6589 6401 6945 7877 9161 10000 9803 8395
1770.0 6758 5317 4117 3116 2243 1584 1094 776 548 398
1810.0 288 225 155 131 102 86 66 45 51 44
1850.0 38 17 24 14 23 28 13 10 7 7
1890.0 6 7 0 6 0 2 0 5 16 1
1930.0 4 5 14 14 17 16 18 21 22 30
1970.0 28 33 37 39 41 49 50 53 55 58
2010.0 63 67 73 69 74 75 73 73 77 78
2050.0 73 72 70 69 68 63 58 58 49 48
2090.0 44 36 33 24 22 17 16 13 13 12
2130.0 12 8 9 10 8 9 9 9 8 8
2170.0 9 10 11 7 6 3 3 4 6 4
2210.0 3 4 3 3 4 4 2 2 5 7
2250.0 2 5 7 5 6 6 12 9 14 16
2290.0 17 20 22 27 28 30 24 30 37 32
2330.0 28 25 27 35 37 43 39 25 44 56
2370.0 60 43 49 42 32 24 23 19 21 22
2410.0 18 16 17 14 17 16 15 17 12 10
2450.0 14 11 12 12 12 13 13 13 9 10
2490.0 8 14 10 12 9 17 13 17 21 18
2530.0 20 26 23 18 23 22 20 21 21 27
2570.0 28 31 35 35 38 43 46 49 51 54
2610.0 51 54 52 54 54 58 59 61 69 74
2650.0 76 82 89 98 98 98 100 106 107 106
2690.0 109 112 107 101 104 103 103 99 105 106
2730.0 115 119 126 144 153 155 154 157 158 163
2770.0 173 182 188 196 220 241 269 296 328 365
2810.0 405 449 490 533 589 655 747 869 1038 1266
2850.0 1534 1808 2132 2555 3045 3459 3697 3755 3759 3741
2890.0 3653 3586 3631 3735 3884 4142 4524 4971 5496 6070
2930.0 6749 7451 8198 8844 9272 9428 9498 9689 9676 9196
2970.0 8161 6861 5362 4027 3102 2472 2057 1776 1562 1376
3010.0 1219 1096 996 926 867 814 740 666 592 525
3050.0 473 422 385 350 322 309 291 282 272 256
3090.0 244 235 228 215 199 190 178 169 155 142
3130.0 136 129 120 112 106 102 101 95 91 91
3170.0 91 80 79 80 76 73 69 69 63 58
3210.0 51 48 47 41 36 32 29 27 27 29
3250.0 27 19 22 27 26 29 28 25 21 29
3290.0 26 25 20 25 28 22 18 21 27 28
3330.0 27 21 25 30 28 27 35 32 33 33
3370.0 36 33 36 38 44 40 44 42 50 54
3410.0 65 73 75 80 89 103 106 101 91 86
3450.0 71 55 53 47 52 53 50 58 63 74
3490.0 75 83 100 94 77 73 58 43 34 22
3530.0 12 12 13 9 7 1 15 7 5 4
3570.0 18 31 27 16 16 8 18 19 16 6
3610.0 15 23 14 14 11 25 27 14 20 11
3650.0 23 23 32 30 27 23 23 15 19 21
3690.0 28 25 18 5 19 29 34 32 18 23
3730.0 21 24 24 26 26 27 21 19 27 15
3770.0 17 18 17 28 8 18 15 21 22 17
3810.0 26 31 24 6 28 27 15 18 11 10
3850.0 27 25 18 18 18 13 10 15 25 12
3890.0 15 17 21 15 21 27 20 19 0 19
3930.0 29 14 16 22 24 22 9 15 23 26
##END=
