##TITLE=Bicyclo(2.2.1)-5-heptene-2-carboxaldehyde
##JCAMP-DX=4.24
##DATA TYPE=INFRARED SPECTRUM
##ORIGIN=Sadtler Research Labs Under US-EPA Contract
##OWNER=NIST Standard Reference Data Program
##CAS REGISTRY NO=5453-80-5
##MOLFORM=C 8 H 10 O
##XUNITS=1/CM
##YUNITS=ABSORBANCE
##XFACTOR=1.0
##YFACTOR=0.000062692
##DELTAX=4.0
##FIRSTX=450.0
##LASTX=3966.0
##FIRSTY=0.038995
##MAXX=3966
##MINX=450
##MAXY=0.62692
##MINY=0
##NPOINTS=880
##XYDATA=(X++(Y..Y))
450.0 622 271 245 25 99 274 177 268 229 90
490.0 187 37 28 36 49 121 190 152 127 147
530.0 159 91 35 88 78 129 103 170 147 141
570.0 123 67 100 101 84 97 138 134 133 68
610.0 88 144 234 304 224 316 322 423 488 510
650.0 551 547 522 684 511 359 302 349 293 434
690.0 520 749 976 1408 1944 2394 2729 2803 2563 2197
730.0 1701 1056 617 401 303 351 283 309 340 359
770.0 356 351 282 250 232 215 221 188 211 287
810.0 278 390 465 471 498 496 433 359 310 259
850.0 225 214 209 217 192 190 226 288 321 379
890.0 481 542 630 626 680 733 762 847 767 734
930.0 673 531 442 364 296 275 307 341 320 341
970.0 362 374 430 433 427 510 546 583 609 624
1010.0 589 511 406 354 319 298 347 324 326 388
1050.0 441 472 534 639 689 755 750 742 708 639
1090.0 577 486 435 423 400 446 432 474 497 559
1130.0 633 722 735 777 729 702 622 513 458 436
1170.0 397 362 352 287 256 264 224 184 220 188
1210.0 183 231 253 284 313 337 344 417 418 406
1250.0 433 451 449 455 423 425 389 330 290 230
1290.0 204 195 183 219 197 230 308 412 532 661
1330.0 807 920 977 913 732 562 417 288 256 206
1370.0 191 249 267 270 345 359 327 321 270 206
1410.0 155 129 187 172 170 155 196 326 317 446
1450.0 489 547 509 462 375 329 269 182 125 97
1490.0 81 56 72 27 124 109 59 105 127 80
1530.0 79 64 119 125 120 81 84 183 177 181
1570.0 198 188 228 142 124 117 107 103 84 140
1610.0 123 220 218 264 256 240 283 260 266 252
1650.0 245 352 250 237 287 328 342 385 417 542
1690.0 543 525 732 765 837 1006 1370 2267 3899 6094
1730.0 8181 9088 10000 9413 7849 5183 3075 2034 1505 1248
1770.0 1169 1062 889 770 652 575 541 439 419 365
1810.0 308 312 227 215 161 147 147 89 114 87
1850.0 83 81 98 81 78 106 70 66 72 48
1890.0 67 69 58 55 47 57 69 56 70 53
1930.0 45 70 76 72 70 54 51 47 52 56
1970.0 68 54 54 57 35 31 37 49 51 48
2010.0 36 33 30 57 63 47 71 90 94 71
2050.0 85 99 97 80 85 68 71 77 65 31
2090.0 54 53 78 61 70 67 68 50 61 78
2130.0 60 57 54 62 88 90 70 80 68 71
2170.0 77 79 91 80 51 72 87 75 92 81
2210.0 82 66 51 79 43 73 64 61 36 45
2250.0 51 44 29 42 15 50 30 29 36 24
2290.0 48 27 44 67 26 35 91 19 35 84
2330.0 116 143 103 150 61 43 39 46 18 46
2370.0 14 76 59 46 34 20 46 46 46 37
2410.0 48 38 36 39 32 35 21 33 29 19
2450.0 19 29 35 57 47 45 48 40 33 35
2490.0 5 35 40 24 0 21 52 42 28 23
2530.0 28 33 54 48 39 48 26 44 28 52
2570.0 53 58 48 43 40 70 47 61 66 63
2610.0 65 65 79 72 126 134 159 188 212 237
2650.0 257 278 315 333 391 427 510 609 761 987
2690.0 1282 1625 1951 2230 2381 2366 2173 1901 1570 1257
2730.0 1044 898 755 653 620 579 566 557 543 538
2770.0 553 569 600 668 789 1001 1270 1520 1711 1804
2810.0 1713 1469 1187 925 704 546 473 449 409 399
2850.0 413 449 582 754 1004 1294 1613 1891 2038 1984
2890.0 1884 1714 1556 1393 1297 1281 1245 1294 1324 1344
2930.0 1468 1621 1927 2226 2651 3006 3233 3493 3854 4419
2970.0 5002 5675 6504 6818 6967 6155 5019 3887 2648 1493
3010.0 833 510 324 245 169 152 133 117 146 190
3050.0 253 383 579 864 1091 1285 1369 1256 1046 816
3090.0 502 313 239 154 143 131 142 156 161 168
3130.0 175 190 212 212 224 178 173 140 108 82
3170.0 58 61 70 60 61 52 70 61 67 68
3210.0 61 70 80 83 89 101 89 80 67 70
3250.0 90 63 82 84 71 70 68 73 79 91
3290.0 89 64 79 104 97 81 101 92 84 105
3330.0 79 81 90 86 76 94 104 108 93 89
3370.0 95 97 79 103 99 113 96 103 121 89
3410.0 120 116 119 131 137 155 142 161 197 236
3450.0 254 292 284 248 217 150 134 141 144 101
3490.0 114 119 110 69 80 78 81 87 78 46
3530.0 82 95 88 71 74 71 80 52 74 110
3570.0 131 144 173 157 159 102 94 0 69 69
3610.0 38 43 26 103 48 78 97 76 97 88
3650.0 25 107 54 71 45 48 45 69 68 62
3690.0 108 37 37 50 47 83 71 48 66 64
3730.0 53 81 60 77 44 71 54 71 70 82
3770.0 66 66 38 75 89 31 46 78 47 123
3810.0 0 79 45 103 18 8 18 27 50 32
3850.0 30 102 91 54 33 37 67 54 92 100
3890.0 72 3 64 113 160 17 37 93 73 97
3930.0 81 43 135 192 49 50 93 28 19 105
##END=
