##TITLE=Hydantoin, 5-isopropyl-5-methyl-,
##JCAMP-DX=4.24
##DATA TYPE=INFRARED SPECTRUM
##ORIGIN=Sadtler Research Labs Under US-EPA Contract
##OWNER=NIST Standard Reference Data Program
##CAS REGISTRY NO=5455-35-6
##MOLFORM=C 7 H 12 N 2 O 2
##XUNITS=1/CM
##YUNITS=ABSORBANCE
##XFACTOR=1.0
##YFACTOR=0.000228851
##DELTAX=4.0
##FIRSTX=450.0
##LASTX=3966.0
##FIRSTY=0.006866
##MAXX=3966
##MINX=450
##MAXY=2.28851
##MINY=0
##NPOINTS=880
##XYDATA=(X++(Y..Y))
450.0 30 16 18 30 56 50 68 51 80 73
490.0 90 103 88 91 91 100 93 112 123 142
530.0 168 229 302 415 578 779 993 1181 1263 1232
570.0 1168 987 842 682 550 447 364 331 286 278
610.0 243 241 234 249 256 264 261 227 207 167
650.0 148 125 115 112 112 136 134 104 114 110
690.0 116 129 137 157 166 191 208 231 235 239
730.0 240 245 256 280 305 336 362 367 342 302
770.0 262 221 190 158 140 124 116 108 105 100
810.0 99 94 91 90 88 86 92 105 103 117
850.0 120 117 102 88 78 63 63 59 60 51
890.0 57 59 59 61 68 75 86 104 112 123
930.0 121 128 129 142 163 188 207 215 228 246
970.0 294 364 434 474 465 410 319 222 159 129
1010.0 115 118 124 139 158 180 206 234 271 288
1050.0 292 272 244 216 202 207 220 232 241 256
1090.0 266 284 312 345 378 405 419 413 404 391
1130.0 384 374 369 355 325 284 244 214 192 188
1170.0 188 191 190 189 182 178 173 171 167 164
1210.0 165 165 176 194 233 287 364 458 543 601
1250.0 618 586 520 442 380 339 321 325 341 361
1290.0 385 406 431 465 514 576 642 705 749 772
1330.0 752 724 699 662 654 712 862 1092 1328 1552
1370.0 1636 1610 1477 1344 1162 1084 912 762 593 446
1410.0 313 237 200 152 136 129 135 134 173 179
1450.0 226 217 269 283 258 314 263 250 213 195
1490.0 139 131 123 102 108 131 100 109 100 98
1530.0 87 84 90 48 93 56 82 33 86 63
1570.0 75 91 120 96 131 98 82 68 69 66
1610.0 49 82 25 81 16 85 10 76 30 90
1650.0 0 129 32 78 86 79 71 121 86 134
1690.0 136 152 173 206 215 263 276 323 370 453
1730.0 484 612 754 882 1237 1752 2821 4040 6953 7606
1770.0 10000 9238 8442 6389 3873 2652 2257 2770 3429 4016
1810.0 3907 3411 2421 1362 783 504 392 301 271 213
1850.0 197 173 149 142 140 124 121 121 110 106
1890.0 98 93 84 79 82 74 82 81 92 97
1930.0 99 112 111 116 111 112 104 98 94 84
1970.0 74 67 62 51 49 50 44 44 39 41
2010.0 32 37 30 32 25 29 25 25 27 24
2050.0 25 22 25 23 24 24 23 24 22 25
2090.0 22 25 23 24 19 23 22 20 20 19
2130.0 20 16 19 18 19 17 18 18 17 18
2170.0 16 16 14 17 14 16 16 17 14 16
2210.0 18 17 18 19 22 19 20 22 22 22
2250.0 22 24 22 24 24 26 26 31 32 36
2290.0 45 53 61 67 79 87 85 90 98 88
2330.0 96 102 76 109 117 76 137 99 147 120
2370.0 111 86 82 68 50 41 36 37 36 39
2410.0 35 35 32 33 31 31 32 31 31 31
2450.0 31 30 32 29 30 29 32 30 31 31
2490.0 31 33 32 33 33 35 33 32 32 31
2530.0 32 30 30 31 31 31 29 31 29 32
2570.0 31 32 31 35 32 33 35 36 37 36
2610.0 41 39 39 38 38 38 38 37 37 39
2650.0 37 38 38 38 39 39 39 38 38 38
2690.0 39 39 42 41 42 42 43 42 42 43
2730.0 43 47 44 47 47 48 47 47 45 45
2770.0 45 43 45 44 47 44 47 45 47 48
2810.0 49 50 51 55 56 59 60 63 68 71
2850.0 76 81 90 100 124 157 208 265 320 362
2890.0 374 356 327 301 270 264 266 280 300 320
2930.0 349 378 411 441 464 458 446 445 490 608
2970.0 793 1001 1141 1156 1052 831 637 449 311 239
3010.0 179 137 106 91 85 79 79 78 78 75
3050.0 75 76 75 73 71 69 71 68 71 71
3090.0 72 71 73 72 73 72 74 74 75 74
3130.0 78 79 80 80 82 84 80 81 79 79
3170.0 79 76 76 76 76 73 73 75 72 72
3210.0 69 71 67 67 65 66 65 63 65 62
3250.0 65 63 63 63 66 65 63 63 65 63
3290.0 65 62 63 66 65 65 65 63 66 65
3330.0 65 63 67 65 66 63 63 61 60 60
3370.0 61 57 59 60 54 61 60 60 60 60
3410.0 60 61 62 66 63 62 69 74 82 105
3450.0 128 163 244 348 507 716 974 1219 1350 1352
3490.0 1129 847 552 310 191 109 103 76 92 112
3530.0 93 92 88 94 116 99 103 115 99 163
3570.0 130 114 92 86 102 76 103 56 90 61
3610.0 99 76 91 87 47 121 67 67 79 57
3650.0 135 69 81 75 42 120 45 141 25 109
3690.0 55 99 62 79 81 67 99 88 72 111
3730.0 79 114 67 139 67 100 133 54 90 82
3770.0 76 71 71 90 66 71 86 51 124 65
3810.0 84 88 65 135 60 84 94 91 84 118
3850.0 53 124 110 68 112 108 97 65 145 59
3890.0 137 67 116 96 130 67 91 99 93 106
3930.0 82 115 94 99 86 124 74 102 88 105
##END=
