##TITLE=n-Butyl cyanoacetate
##JCAMP-DX=4.24
##DATA TYPE=INFRARED SPECTRUM
##ORIGIN=Sadtler Research Labs Under US-EPA Contract
##OWNER=NIST Standard Reference Data Program
##CAS REGISTRY NO=5459-58-5
##MOLFORM=C 7 H 11 N O 2
##XUNITS=1/CM
##YUNITS=ABSORBANCE
##XFACTOR=1.0
##YFACTOR=0.000106564
##DELTAX=4.0
##FIRSTX=450.0
##LASTX=3966.0
##FIRSTY=0.000000
##MAXX=3966
##MINX=450
##MAXY=1.06564
##MINY=0
##NPOINTS=880
##XYDATA=(X++(Y..Y))
450.0 0 86 156 100 351 247 109 173 73 96
490.0 309 217 282 186 251 238 112 143 110 80
530.0 156 72 120 99 159 248 72 106 99 99
570.0 140 139 199 248 218 304 226 263 307 253
610.0 246 222 190 206 168 188 156 141 142 122
650.0 117 154 131 183 124 175 212 233 279 238
690.0 235 211 209 176 177 186 199 230 231 232
730.0 262 272 221 237 350 331 234 196 167 161
770.0 211 187 203 221 169 181 218 250 219 213
810.0 220 253 302 281 304 301 343 344 347 353
850.0 314 335 299 284 260 254 244 242 228 260
890.0 244 263 291 289 288 314 357 355 355 385
930.0 393 417 453 488 528 575 639 692 793 889
970.0 972 995 974 946 941 959 1017 1091 1205 1332
1010.0 1515 1655 1687 1606 1399 1177 902 710 568 500
1050.0 589 709 870 1006 1056 1010 836 687 529 462
1090.0 447 388 369 373 381 455 494 599 648 716
1130.0 821 985 1215 1526 1940 2458 3092 3759 4482 4861
1170.0 5127 5102 4780 4571 4195 3888 3601 3224 2950 2650
1210.0 2460 2324 2236 2232 2321 2512 2788 3147 3730 4303
1250.0 5061 5769 6210 6697 6590 6232 5820 4917 4120 3390
1290.0 2979 2800 2660 2626 2434 2261 2178 2118 2188 2304
1330.0 2418 2378 2125 1789 1388 1086 868 713 624 597
1370.0 567 550 589 682 775 857 888 790 705 635
1410.0 647 678 647 618 552 494 489 472 508 529
1450.0 589 651 778 874 932 924 888 747 613 495
1490.0 331 289 235 196 176 120 165 128 132 126
1530.0 118 139 100 123 109 99 104 78 77 89
1570.0 81 84 82 104 88 83 88 89 96 78
1610.0 96 89 90 79 94 85 101 83 93 96
1650.0 93 100 95 134 105 108 119 121 132 130
1690.0 144 173 174 206 248 295 370 415 552 659
1730.0 787 989 1177 1587 2031 2898 4084 5679 7570 8635
1770.0 10000 9312 8318 6497 4613 3332 2251 1666 1185 887
1810.0 713 513 468 366 289 284 213 210 188 162
1850.0 161 141 132 128 134 122 117 120 111 105
1890.0 114 91 100 95 91 94 84 80 81 75
1930.0 76 71 71 69 67 65 63 66 64 59
1970.0 70 62 64 63 60 66 60 61 60 58
2010.0 60 59 65 62 60 63 59 65 61 57
2050.0 65 60 59 61 60 62 60 61 58 62
2090.0 66 58 66 61 61 65 57 59 59 51
2130.0 57 50 49 48 43 45 42 47 46 44
2170.0 50 45 46 46 42 42 39 36 35 31
2210.0 36 35 35 38 29 32 35 39 45 47
2250.0 51 54 61 70 70 73 68 63 56 50
2290.0 47 54 55 65 69 71 69 58 80 71
2330.0 72 81 64 84 83 92 84 64 81 72
2370.0 67 70 66 71 58 45 42 40 41 42
2410.0 39 45 38 38 40 38 41 40 41 41
2450.0 41 40 41 37 36 37 37 38 36 42
2490.0 43 39 41 37 40 44 44 44 42 41
2530.0 47 41 42 39 39 40 36 39 41 39
2570.0 43 45 45 47 43 50 46 46 43 42
2610.0 48 44 44 45 42 44 42 47 43 36
2650.0 49 47 50 51 52 56 56 59 60 56
2690.0 61 62 53 61 60 65 65 65 69 65
2730.0 66 72 73 81 84 93 97 89 95 86
2770.0 84 91 86 94 89 91 104 100 107 111
2810.0 119 129 137 142 152 158 186 202 242 291
2850.0 344 425 494 571 661 781 941 1149 1360 1475
2890.0 1471 1395 1255 1157 1159 1205 1304 1428 1531 1651
2930.0 1780 1972 2253 2568 2776 2817 2793 2805 3073 3612
2970.0 4147 4402 4105 3394 2583 1859 1388 1078 839 670
3010.0 535 428 357 304 269 238 222 215 192 179
3050.0 164 139 136 118 109 101 95 97 90 87
3090.0 81 83 86 78 72 80 70 72 68 70
3130.0 73 62 66 63 67 62 65 61 62 63
3170.0 70 64 62 68 62 64 60 66 66 61
3210.0 58 58 53 60 53 56 55 49 49 45
3250.0 45 42 36 43 39 34 45 37 42 35
3290.0 39 40 38 37 34 30 43 32 40 39
3330.0 32 43 32 39 45 33 40 37 38 39
3370.0 32 36 35 34 35 32 38 37 33 43
3410.0 34 37 40 32 35 42 39 43 32 41
3450.0 39 39 39 41 48 42 39 43 47 52
3490.0 56 64 80 73 84 104 115 122 130 121
3530.0 103 97 89 69 80 59 53 53 56 45
3570.0 47 41 54 53 45 39 52 54 60 52
3610.0 47 35 35 71 49 44 38 48 56 43
3650.0 44 55 56 73 64 59 70 52 66 50
3690.0 58 55 49 54 52 49 57 64 67 43
3730.0 51 67 58 55 30 61 37 50 41 47
3770.0 50 56 65 53 58 66 45 40 36 55
3810.0 48 45 48 36 48 32 58 48 39 76
3850.0 31 29 36 60 72 41 53 44 60 69
3890.0 64 46 59 54 61 62 55 86 60 55
3930.0 43 36 76 64 47 73 53 71 63 52
##END=
