##TITLE=2-Methyl-3-nitrophenol
##JCAMP-DX=4.24
##DATA TYPE=INFRARED SPECTRUM
##ORIGIN=Sadtler Research Labs Under US-EPA Contract
##OWNER=NIST Standard Reference Data Program
##CAS REGISTRY NO=5460-31-1
##MOLFORM=C 7 H 7 N O 3
##XUNITS=1/CM
##YUNITS=ABSORBANCE
##XFACTOR=1.0
##YFACTOR=0.000099930
##DELTAX=4.0
##FIRSTX=450.0
##LASTX=3966.0
##FIRSTY=0.000000
##MAXX=3966
##MINX=450
##MAXY=0.9993
##MINY=0
##NPOINTS=880
##XYDATA=(X++(Y..Y))
450.0 0 814 1369 1330 1201 1323 1048 1136 1176 1084
490.0 1245 1066 1087 1130 1082 1309 1151 1305 1343 1312
530.0 1266 1227 1178 1250 1216 1220 1180 1017 1217 1143
570.0 1169 1105 1128 1143 1104 1171 1067 1155 1190 1107
610.0 1231 1192 1234 1205 1183 1182 1140 1107 1115 1079
650.0 1048 1035 1064 1035 1026 1147 1036 1071 1114 1195
690.0 1339 1448 1640 1701 1668 1649 1720 1598 1792 1943
730.0 2219 2321 2048 1866 1721 1585 1445 1460 1535 1695
770.0 1965 2244 2413 2527 2569 2549 2485 2320 2114 1760
810.0 1571 1590 1980 2624 3005 2955 2888 2259 1632 1257
850.0 1166 1132 1101 1094 1078 1067 1072 1060 1073 1063
890.0 1079 1108 1132 1145 1125 1136 1072 1048 1055 1056
930.0 1053 1050 1071 1077 1033 1037 1035 1034 1038 1032
970.0 1044 1035 1049 1073 1080 1081 1095 1105 1147 1170
1010.0 1186 1235 1300 1413 1514 1660 1794 1867 1897 1849
1050.0 1735 1603 1515 1534 1540 1572 1616 1564 1488 1372
1090.0 1276 1208 1157 1164 1160 1150 1167 1197 1284 1371
1130.0 1562 1853 2310 2876 3316 3554 3627 3409 2855 2343
1170.0 2024 1774 1643 1610 1623 1721 1893 2167 2542 2945
1210.0 3364 3629 3561 3306 2882 2312 1827 1621 1584 1565
1250.0 1660 1800 2026 2466 3115 3736 4076 4129 3981 3386
1290.0 2751 2411 2204 2103 2116 2205 2301 2305 2253 2165
1330.0 2100 2125 2252 2624 3225 4049 5005 5630 5815 5460
1370.0 4505 3348 2508 2138 1956 1855 1816 1735 1656 1573
1410.0 1481 1435 1345 1362 1310 1334 1347 1408 1536 1650
1450.0 1854 2137 2305 2628 2641 2644 2516 2296 2167 2010
1490.0 1975 2029 2077 2262 2382 2691 3023 3401 4113 4856
1530.0 5915 7345 8448 9725 10000 9410 8375 6915 5674 4692
1570.0 4103 3718 3450 3235 2963 2709 2433 2128 1930 1750
1610.0 1665 1604 1527 1464 1325 1277 1155 1122 1079 1052
1650.0 1076 1048 1079 1002 1038 1025 1002 1003 985 988
1690.0 982 973 969 985 944 956 946 966 968 948
1730.0 978 940 993 963 977 1022 1085 1137 1140 1131
1770.0 1071 998 966 943 937 933 918 919 899 922
1810.0 923 914 931 931 935 937 935 949 926 940
1850.0 935 941 939 922 918 897 909 904 900 896
1890.0 910 921 936 943 953 955 951 954 934 939
1930.0 924 911 905 883 880 880 871 859 862 857
1970.0 856 862 860 863 858 847 854 858 854 851
2010.0 857 858 861 859 864 865 864 869 866 871
2050.0 873 874 875 873 873 875 871 867 863 862
2090.0 864 866 861 865 861 862 858 857 849 845
2130.0 844 846 838 842 842 837 835 842 841 842
2170.0 843 846 844 843 842 840 842 838 837 843
2210.0 848 847 847 844 844 852 852 853 851 856
2250.0 853 853 853 856 857 860 862 864 867 876
2290.0 880 885 894 899 913 915 914 909 914 907
2330.0 906 907 894 905 938 908 908 885 934 932
2370.0 946 944 937 937 914 897 894 889 887 890
2410.0 891 884 889 887 891 896 896 895 897 899
2450.0 895 897 892 888 888 885 892 901 905 905
2490.0 911 911 916 917 919 922 923 919 913 902
2530.0 899 908 911 910 912 899 898 892 885 890
2570.0 888 891 896 897 899 900 895 899 901 906
2610.0 913 911 909 913 911 917 914 911 903 902
2650.0 895 898 900 896 899 894 893 905 906 904
2690.0 911 912 914 920 919 922 931 929 924 920
2730.0 920 917 907 913 919 920 924 925 922 926
2770.0 919 921 915 912 910 908 918 916 917 922
2810.0 919 923 923 932 938 938 939 952 957 968
2850.0 980 991 1004 1025 1053 1077 1102 1115 1129 1140
2890.0 1160 1163 1155 1151 1149 1135 1134 1144 1160 1177
2930.0 1202 1231 1246 1258 1261 1244 1231 1201 1165 1135
2970.0 1109 1085 1080 1077 1063 1058 1048 1045 1042 1045
3010.0 1057 1080 1087 1112 1126 1134 1148 1146 1140 1125
3050.0 1116 1097 1094 1092 1105 1123 1146 1182 1196 1197
3090.0 1164 1116 1055 1010 975 945 934 922 916 904
3130.0 912 915 914 913 907 899 904 903 904 899
3170.0 899 893 903 899 907 902 889 892 891 899
3210.0 894 888 899 899 899 903 896 888 886 889
3250.0 897 906 885 896 899 898 890 893 886 895
3290.0 889 886 882 887 885 882 889 898 892 894
3330.0 904 904 912 904 904 900 901 912 903 903
3370.0 903 904 905 904 898 898 901 906 911 903
3410.0 900 891 898 892 890 886 884 884 879 874
3450.0 880 883 886 886 863 851 837 838 841 860
3490.0 897 907 913 912 924 956 987 999 991 962
3530.0 922 883 887 896 879 888 907 905 943 923
3570.0 960 963 968 986 957 968 957 910 935 934
3610.0 934 954 986 1033 1112 1264 1502 1879 2524 3226
3650.0 3723 3714 3448 2672 1880 1215 1037 987 933 917
3690.0 904 928 918 919 912 901 913 907 885 887
3730.0 916 914 907 911 911 912 906 923 905 906
3770.0 907 906 890 901 901 898 903 901 899 927
3810.0 946 955 980 1017 1025 1018 978 952 906 901
3850.0 860 905 909 893 894 892 854 891 896 911
3890.0 911 890 913 919 902 949 899 918 950 904
3930.0 930 905 933 904 928 897 917 954 965 959
##END=
