##TITLE=Toluene-2,4,5-triol, triacetate
##JCAMP-DX=4.24
##DATA TYPE=INFRARED SPECTRUM
##ORIGIN=Sadtler Research Labs Under US-EPA Contract
##OWNER=NIST Standard Reference Data Program
##CAS REGISTRY NO=5462-27-1
##MOLFORM=C 13 H 14 O 6
##XUNITS=1/CM
##YUNITS=ABSORBANCE
##XFACTOR=1.0
##YFACTOR=0.000172339
##DELTAX=4.0
##FIRSTX=450.0
##LASTX=3966.0
##FIRSTY=0.004136
##MAXX=3966
##MINX=450
##MAXY=1.72339
##MINY=0
##NPOINTS=880
##XYDATA=(X++(Y..Y))
450.0 24 74 101 110 102 63 36 55 89 116
490.0 103 76 36 30 32 22 28 20 22 22
530.0 15 18 13 11 23 24 37 41 66 87
570.0 114 145 224 326 411 444 432 388 306 243
610.0 203 158 131 109 94 96 90 100 102 105
650.0 106 99 96 85 68 55 37 24 27 30
690.0 34 31 21 21 14 11 5 8 0 4
730.0 4 6 2 8 10 12 19 15 13 11
770.0 15 15 15 19 24 23 26 27 37 47
810.0 63 82 94 91 80 77 78 88 113 139
850.0 161 179 189 207 230 258 296 355 422 509
890.0 631 783 936 1061 1141 1231 1366 1406 1189 812
930.0 484 286 185 120 89 73 67 70 76 91
970.0 113 150 199 271 346 443 579 790 1101 1470
1010.0 1695 1593 1218 822 581 452 386 357 356 368
1050.0 381 395 429 492 588 704 824 977 1197 1499
1090.0 1728 1689 1371 998 727 570 490 458 466 504
1130.0 578 701 895 1212 1761 2731 4305 6145 7202 7002
1170.0 6736 7052 7395 7505 7818 8823 9728 10000 9484 8746
1210.0 7352 5547 3954 2706 1777 1242 983 844 733 623
1250.0 532 468 421 395 377 368 371 373 396 453
1290.0 574 742 879 869 702 486 335 251 212 192
1330.0 178 173 162 179 219 281 392 586 984 1720
1370.0 2539 2819 2237 1411 853 584 476 468 529 556
1410.0 498 408 306 299 296 318 317 334 337 332
1450.0 323 318 307 327 341 335 330 358 444 526
1490.0 716 1094 1702 2477 2857 2367 1520 830 524 385
1530.0 308 248 199 159 148 147 131 103 105 117
1570.0 104 107 104 105 118 113 124 123 132 123
1610.0 131 139 138 149 124 115 76 62 57 50
1650.0 23 30 43 53 54 58 49 78 60 59
1690.0 77 85 68 77 99 121 129 131 175 208
1730.0 229 252 314 372 431 512 611 729 860 1023
1770.0 1226 1577 2176 3033 4119 5045 5487 5162 4174 2958
1810.0 1985 1378 1018 761 587 449 372 311 265 225
1850.0 208 188 157 129 102 78 70 64 54 49
1890.0 42 44 43 41 41 38 34 29 25 25
1930.0 27 22 22 17 19 21 20 19 19 17
1970.0 15 19 17 16 17 14 13 15 16 17
2010.0 20 20 23 27 32 35 36 34 33 35
2050.0 34 35 33 33 30 30 31 30 30 29
2090.0 29 29 31 29 27 26 27 26 25 23
2130.0 20 17 12 10 7 9 6 7 7 7
2170.0 6 4 5 3 3 1 1 0 2 0
2210.0 2 3 4 5 4 5 6 8 11 14
2250.0 16 18 16 15 17 16 17 18 19 20
2290.0 20 24 25 26 29 32 24 20 25 16
2330.0 16 15 14 17 37 23 41 32 41 38
2370.0 45 40 42 38 29 19 14 13 13 13
2410.0 10 8 8 5 5 4 7 7 10 11
2450.0 13 15 17 16 14 13 12 10 11 14
2490.0 16 15 13 11 9 7 4 5 5 2
2530.0 3 3 5 4 4 6 6 6 6 8
2570.0 5 7 9 6 6 7 5 4 2 1
2610.0 1 0 1 1 1 1 1 1 0 0
2650.0 1 0 0 1 0 2 3 4 5 4
2690.0 7 6 7 6 5 6 5 5 2 2
2730.0 1 2 2 4 7 8 7 8 6 7
2770.0 8 10 11 13 14 15 15 14 16 14
2810.0 14 13 14 15 14 17 18 21 25 30
2850.0 36 45 56 64 71 77 86 89 89 84
2890.0 80 75 73 76 79 82 83 88 95 112
2930.0 142 194 259 301 297 264 219 177 150 143
2970.0 143 139 138 142 151 156 146 126 105 92
3010.0 84 83 86 96 111 123 129 125 117 113
3050.0 116 117 113 105 96 90 86 81 76 72
3090.0 68 62 58 54 51 45 43 40 36 32
3130.0 31 28 27 24 26 23 19 20 18 16
3170.0 13 12 11 11 10 11 8 10 11 10
3210.0 9 8 8 7 6 5 6 5 6 5
3250.0 3 5 3 5 6 3 6 6 4 4
3290.0 2 3 5 3 3 3 5 5 2 4
3330.0 4 4 6 4 5 4 3 5 5 7
3370.0 6 6 6 6 7 7 9 8 8 5
3410.0 6 5 7 9 10 8 8 11 13 11
3450.0 8 5 7 9 9 7 7 7 7 7
3490.0 7 10 11 12 8 12 12 12 13 15
3530.0 17 25 26 30 37 40 41 44 49 40
3570.0 38 33 27 23 15 14 3 12 5 3
3610.0 0 6 13 11 8 1 6 9 5 9
3650.0 7 10 13 5 11 2 9 4 6 3
3690.0 0 8 7 8 7 8 9 6 7 4
3730.0 9 11 5 13 0 13 3 10 8 4
3770.0 5 8 12 8 4 5 7 1 12 3
3810.0 4 6 5 11 9 5 11 9 12 11
3850.0 2 2 7 8 8 5 5 5 15 0
3890.0 12 5 10 4 9 7 6 11 3 9
3930.0 10 9 6 11 6 9 15 12 12 10
##END=
