##TITLE=Naphthalene, 1-bromo-4-methoxy-
##JCAMP-DX=4.24
##DATA TYPE=INFRARED SPECTRUM
##ORIGIN=Sadtler Research Labs Under US-EPA Contract
##OWNER=NIST Standard Reference Data Program
##CAS REGISTRY NO=5467-58-3
##MOLFORM=C 11 H 9 Br O
##XUNITS=1/CM
##YUNITS=ABSORBANCE
##XFACTOR=1.0
##YFACTOR=0.000084302
##DELTAX=4.0
##FIRSTX=450.0
##LASTX=3966.0
##FIRSTY=0.000000
##MAXX=3966
##MINX=450
##MAXY=0.84302
##MINY=0
##NPOINTS=880
##XYDATA=(X++(Y..Y))
450.0 0 53 70 79 140 113 113 93 59 81
490.0 135 132 197 255 401 584 615 469 311 136
530.0 118 99 80 81 78 69 108 126 129 140
570.0 132 164 190 259 267 260 236 244 297 424
610.0 649 1076 1682 2141 2117 1612 960 585 441 320
650.0 295 259 257 209 145 136 176 189 185 163
690.0 129 140 183 293 538 798 935 803 504 322
730.0 248 214 303 477 1185 2646 4491 6881 6344 4065
770.0 3005 1741 1076 750 580 652 1016 1590 2318 2738
810.0 2262 1785 1299 885 609 435 351 290 257 217
850.0 215 216 231 215 224 227 231 262 303 384
890.0 506 713 1013 1403 1788 1907 1656 1111 606 363
930.0 272 220 214 211 228 247 291 302 286 275
970.0 276 301 340 434 623 907 1170 1209 1062 770
1010.0 565 649 1024 1626 1877 1831 1414 890 663 589
1050.0 616 720 934 1292 1792 2371 3059 3935 5003 5862
1090.0 5813 4725 3093 1849 1230 1021 1073 1322 1552 1515
1130.0 1261 821 558 516 632 1091 1973 2817 3148 2729
1170.0 1825 1138 821 758 822 880 938 1008 1129 1193
1210.0 1249 1368 1784 2556 3563 5028 7465 9809 10000 7891
1250.0 5197 5753 8549 9616 8144 4417 2077 1162 779 576
1290.0 496 500 570 785 1220 1817 2235 2445 2313 1904
1330.0 1459 1048 880 936 1078 1270 1685 2384 3388 4625
1370.0 6240 8338 8972 7716 4671 2291 1393 1089 936 1044
1410.0 1413 2363 3208 3364 2814 1761 1125 1021 1151 1416
1450.0 2106 3476 4674 4804 3638 2151 1425 943 685 529
1490.0 529 734 1153 1899 2315 2151 1481 743 423 404
1530.0 360 394 385 352 342 358 400 446 707 1059
1570.0 1428 1787 2193 2884 4016 5296 5499 4559 2933 1782
1610.0 1421 1423 1406 1320 1024 740 462 310 245 203
1650.0 140 124 152 164 155 143 116 154 100 100
1690.0 125 164 132 196 272 364 340 290 269 247
1730.0 205 141 167 167 153 134 137 111 97 100
1770.0 81 82 104 98 107 124 150 214 289 444
1810.0 554 575 521 401 318 304 323 317 256 176
1850.0 140 128 121 121 111 95 111 112 109 109
1890.0 101 109 118 135 151 163 162 161 181 246
1930.0 296 302 273 240 262 311 322 298 254 198
1970.0 178 182 180 180 179 165 157 145 132 117
2010.0 114 115 126 138 152 154 152 140 130 132
2050.0 129 134 146 155 161 183 199 210 218 212
2090.0 183 157 136 122 121 124 132 140 145 141
2130.0 138 134 135 143 150 155 159 152 141 135
2170.0 132 124 115 105 98 98 98 98 105 113
2210.0 123 133 139 141 136 140 137 142 135 130
2250.0 122 119 116 107 103 98 104 108 114 107
2290.0 106 96 94 92 80 70 61 52 49 46
2330.0 44 44 47 44 63 44 44 54 63 76
2370.0 89 106 105 96 97 100 111 111 120 136
2410.0 139 143 132 116 108 97 98 100 104 110
2450.0 120 120 127 127 135 138 145 149 151 138
2490.0 133 131 127 129 119 113 106 103 103 105
2530.0 108 107 107 113 122 125 128 133 134 135
2570.0 139 142 143 142 137 138 129 126 130 133
2610.0 131 129 133 134 133 126 126 115 116 116
2650.0 115 116 114 112 115 112 109 112 113 116
2690.0 119 121 115 109 108 104 106 99 106 105
2730.0 108 110 119 122 123 129 122 127 125 128
2770.0 132 141 143 152 161 169 174 183 197 213
2810.0 239 266 307 346 408 486 619 839 1192 1565
2850.0 1728 1621 1294 980 805 713 660 618 591 580
2890.0 602 636 691 763 852 951 1082 1210 1258 1243
2930.0 1201 1269 1574 2157 2656 2834 2691 2396 2254 1905
2970.0 1493 1159 898 773 711 731 804 966 1264 1761
3010.0 2121 2024 1543 998 759 725 717 719 744 842
3050.0 1032 1209 1277 1255 1250 1364 1582 1827 1914 1935
3090.0 1808 1564 1310 988 672 459 318 236 189 164
3130.0 153 146 129 128 117 117 110 113 109 106
3170.0 107 99 98 96 101 101 95 98 101 106
3210.0 104 105 103 89 85 74 76 71 71 64
3250.0 72 63 65 56 62 61 59 60 54 58
3290.0 61 56 61 56 63 56 59 55 58 65
3330.0 65 61 60 56 60 67 55 59 66 63
3370.0 66 68 66 62 61 58 64 60 62 60
3410.0 63 61 59 68 59 58 71 62 61 63
3450.0 62 63 60 64 59 61 64 62 57 54
3490.0 65 65 65 70 58 64 60 63 59 57
3530.0 69 68 68 59 56 57 67 65 71 56
3570.0 55 66 62 59 50 44 61 74 62 56
3610.0 51 62 58 65 52 63 58 67 47 58
3650.0 68 59 64 55 49 54 63 70 51 54
3690.0 56 69 48 58 46 60 54 49 68 53
3730.0 48 48 60 70 43 57 66 58 61 57
3770.0 67 44 54 59 60 62 50 55 58 63
3810.0 44 44 53 61 56 53 67 70 74 73
3850.0 70 44 52 58 71 62 59 44 44 44
3890.0 48 45 44 44 44 51 44 44 44 44
3930.0 49 44 44 44 44 48 44 44 44 45
##END=
