##TITLE=p-Chloro-.alpha.,.alpha.-dimethylphenethyl alcohol
##JCAMP-DX=4.24
##DATA TYPE=INFRARED SPECTRUM
##ORIGIN=Sadtler Research Labs Under US-EPA Contract
##OWNER=NIST Standard Reference Data Program
##CAS REGISTRY NO=5468-97-3
##MOLFORM=C 10 H 13 Cl O
##XUNITS=1/CM
##YUNITS=ABSORBANCE
##XFACTOR=1.0
##YFACTOR=0.000086334
##DELTAX=4.0
##FIRSTX=450.0
##LASTX=3966.0
##FIRSTY=0.054822
##MAXX=3966
##MINX=450
##MAXY=0.86334
##MINY=0
##NPOINTS=880
##XYDATA=(X++(Y..Y))
450.0 635 434 328 334 312 464 591 771 910 855
490.0 650 455 214 114 48 37 48 129 215 429
530.0 676 948 1128 1260 1278 1163 866 578 343 161
570.0 85 31 40 24 21 20 25 12 19 9
610.0 11 16 16 0 0 11 13 25 29 34
650.0 59 127 318 739 1214 1328 1052 468 159 78
690.0 65 66 85 138 316 694 942 927 621 211
730.0 101 121 211 433 782 1250 1682 1990 1857 1485
770.0 1057 689 474 392 394 484 637 890 1216 1596
810.0 1921 2129 2168 2122 2017 2071 2374 2882 3027 2596
850.0 1751 1042 665 507 471 509 567 637 738 921
890.0 1243 1737 2262 2577 2548 2223 1809 1407 1079 848
930.0 730 718 748 704 632 536 544 636 762 873
970.0 921 906 822 673 507 374 311 315 370 581
1010.0 1526 3647 4053 3840 1636 532 356 298 262 267
1050.0 304 367 484 667 883 1151 1529 2252 3506 5067
1090.0 6448 7216 7341 6610 5677 4621 4227 4326 4436 4391
1130.0 4243 3994 3686 3396 3201 3143 3167 3144 2968 2645
1170.0 2290 2041 1927 1889 1910 1957 2071 2233 2365 2448
1210.0 2484 2470 2462 2449 2444 2424 2374 2272 2114 1911
1250.0 1712 1529 1403 1335 1307 1307 1325 1337 1339 1316
1290.0 1276 1247 1253 1284 1322 1331 1296 1259 1243 1282
1330.0 1393 1533 1689 1753 1724 1647 1581 1629 1893 2371
1370.0 2972 3372 3498 3465 3356 2978 2399 1823 1542 1477
1410.0 1423 1309 1221 1040 929 863 886 973 1043 1122
1450.0 1194 1294 1504 1721 2083 2487 2898 3375 4282 5945
1490.0 8144 9185 8075 5444 2766 1464 941 683 528 372
1530.0 300 258 243 257 210 155 146 179 150 124
1570.0 148 163 204 249 336 505 662 722 614 419
1610.0 251 167 165 147 185 190 238 263 252 272
1650.0 297 323 268 249 226 201 170 105 103 103
1690.0 56 50 97 105 79 49 60 93 46 33
1730.0 55 103 62 67 85 115 106 119 133 141
1770.0 209 259 263 243 184 123 92 69 78 49
1810.0 49 43 32 25 27 28 19 12 23 37
1850.0 26 21 31 44 63 99 107 143 190 249
1890.0 312 351 354 318 255 183 123 82 58 31
1930.0 20 16 11 19 12 6 7 10 7 14
1970.0 11 6 4 5 3 11 10 3 8 8
2010.0 11 12 18 13 13 18 20 23 28 24
2050.0 22 23 20 18 23 14 14 13 16 15
2090.0 19 22 19 17 20 18 17 16 17 18
2130.0 14 14 15 14 12 14 11 9 6 7
2170.0 1 4 5 3 4 8 12 9 7 2
2210.0 0 2 2 3 5 4 4 5 8 11
2250.0 13 17 20 27 31 40 49 55 65 73
2290.0 76 86 92 98 100 94 80 64 63 49
2330.0 44 35 23 33 47 52 40 35 33 32
2370.0 38 40 47 49 37 22 19 17 21 19
2410.0 20 17 17 14 10 11 7 8 9 8
2450.0 7 11 7 3 5 5 1 5 5 3
2490.0 5 5 6 9 4 10 14 16 15 17
2530.0 15 15 20 24 26 32 33 34 32 32
2570.0 33 35 43 46 51 51 48 49 46 44
2610.0 45 46 44 36 30 29 29 27 25 26
2650.0 30 28 29 26 25 27 32 33 36 36
2690.0 41 38 43 43 37 44 50 51 63 76
2730.0 85 89 96 95 97 95 95 93 90 88
2770.0 86 88 83 85 92 95 104 118 132 151
2810.0 172 194 219 246 274 310 358 434 547 696
2850.0 863 999 1084 1130 1180 1258 1372 1499 1611 1687
2890.0 1751 1822 1922 2031 2166 2351 2635 3082 3662 4256
2930.0 4708 4973 5060 4971 4608 4057 3548 3414 3921 5119
2970.0 6853 8704 9941 10000 8692 6455 4132 2350 1361 909
3010.0 715 646 657 747 940 1237 1489 1532 1369 1098
3050.0 924 810 696 583 503 483 533 665 828 963
3090.0 1011 966 829 657 492 349 240 159 123 103
3130.0 90 85 72 65 63 61 58 61 63 60
3170.0 69 68 73 75 75 79 84 89 87 87
3210.0 81 74 69 68 64 63 66 60 52 41
3250.0 35 26 23 15 11 12 6 5 6 13
3290.0 17 17 15 25 16 26 23 33 30 26
3330.0 28 27 35 36 35 34 40 46 40 46
3370.0 40 44 42 42 45 50 38 46 47 50
3410.0 50 44 46 47 50 38 45 38 27 30
3450.0 29 21 25 21 24 22 20 9 13 11
3490.0 4 5 5 14 12 10 3 13 3 18
3530.0 8 12 12 0 10 2 5 6 11 34
3570.0 49 48 63 69 87 115 140 158 177 212
3610.0 277 402 578 776 907 998 1101 1219 1177 976
3650.0 671 412 274 202 164 155 124 107 67 47
3690.0 43 23 11 15 13 19 26 25 28 32
3730.0 34 29 27 7 26 24 23 7 8 5
3770.0 13 6 9 8 5 8 16 16 10 18
3810.0 9 5 24 21 20 14 24 48 37 34
3850.0 15 58 47 44 57 52 49 54 47 53
3890.0 37 57 62 56 54 40 40 37 38 40
3930.0 51 51 41 36 14 20 0 3 15 0
##END=
