##TITLE=Propanoic acid, 2-hydroxy-, methyl ester
##JCAMP-DX=4.24
##DATA TYPE=INFRARED SPECTRUM
##ORIGIN=Sadtler Research Labs Under US-EPA Contract
##OWNER=NIST Standard Reference Data Program
##CAS REGISTRY NO=547-64-8
##MOLFORM=C 4 H 8 O 3
##XUNITS=1/CM
##YUNITS=ABSORBANCE
##XFACTOR=1.0
##YFACTOR=0.000093039
##DELTAX=4.0
##FIRSTX=450.0
##LASTX=3966.0
##FIRSTY=0.000000
##MAXX=3966
##MINX=450
##MAXY=0.93039
##MINY=0
##NPOINTS=880
##XYDATA=(X++(Y..Y))
450.0 0 289 398 378 226 133 188 342 258 149
490.0 104 221 312 328 142 192 257 260 281 277
530.0 277 305 423 313 319 280 324 463 453 372
570.0 408 401 345 418 392 404 422 458 441 425
610.0 408 366 374 374 412 402 418 452 467 421
650.0 404 381 293 241 181 149 116 126 89 86
690.0 62 64 37 22 34 24 51 104 57 97
730.0 117 152 153 180 193 182 224 185 149 443
770.0 196 209 151 121 116 89 103 90 121 131
810.0 144 182 252 293 320 353 389 381 358 349
850.0 321 283 203 152 87 71 45 41 32 30
890.0 47 53 89 112 150 182 229 231 242 247
930.0 259 250 219 200 169 157 145 177 216 275
970.0 400 556 750 879 998 1065 1071 1025 904 780
1010.0 720 764 822 965 1055 1495 1869 1882 1943 2217
1050.0 2271 2261 2124 2002 1806 1669 1572 1573 1653 1786
1090.0 1983 2221 2526 2832 3183 3547 3997 4569 5280 6102
1130.0 6830 7235 7088 6629 5905 5054 4025 3132 2526 2273
1170.0 2209 2194 2251 2382 2553 2807 3148 3557 4064 4682
1210.0 5372 5987 6590 7088 7416 7526 7332 6935 6506 6303
1250.0 6189 6154 6218 5962 5593 5169 4752 4318 3820 3309
1290.0 2832 2380 1987 1691 1476 1328 1201 1099 1016 964
1330.0 938 928 933 946 975 1017 1084 1181 1297 1384
1370.0 1476 1573 1599 1593 1573 1373 1146 969 845 756
1410.0 710 675 684 717 782 931 1084 1292 1401 1504
1450.0 1644 1549 1386 1207 1071 939 822 684 533 433
1490.0 371 307 265 230 235 225 189 201 196 184
1530.0 162 175 164 184 159 160 153 172 170 131
1570.0 137 135 134 113 116 103 96 101 89 99
1610.0 84 100 91 91 81 90 82 100 76 100
1650.0 83 136 99 92 120 124 134 153 170 225
1690.0 221 269 328 409 445 532 646 849 1078 1453
1730.0 1997 2837 3946 5194 6588 7751 8788 9481 10000 9340
1770.0 8274 7618 6996 5922 4632 3587 2822 2252 1760 1399
1810.0 1131 884 699 569 525 509 498 466 384 295
1850.0 186 139 109 98 90 94 87 78 82 75
1890.0 77 66 65 62 64 59 57 59 59 52
1930.0 55 58 65 69 77 81 89 92 100 100
1970.0 99 95 93 78 70 63 58 53 52 52
2010.0 47 52 53 60 57 59 65 71 71 79
2050.0 89 97 100 105 111 109 114 110 108 102
2090.0 95 87 74 69 61 57 54 49 45 43
2130.0 35 37 30 32 25 22 27 25 24 18
2170.0 18 20 25 32 35 37 37 37 30 32
2210.0 30 34 27 30 27 27 25 18 22 21
2250.0 22 21 24 25 28 29 29 31 30 39
2290.0 44 46 51 57 62 68 69 74 79 66
2330.0 67 55 38 41 34 64 100 91 73 26
2370.0 18 18 18 21 23 33 37 39 47 46
2410.0 47 51 50 49 52 48 47 45 47 41
2450.0 38 43 41 45 39 49 43 43 42 41
2490.0 40 43 45 37 38 41 47 49 53 49
2530.0 48 48 48 47 46 55 49 55 53 54
2570.0 54 52 52 50 48 50 49 51 51 45
2610.0 49 45 44 43 37 35 31 33 36 32
2650.0 32 34 34 39 43 42 44 41 44 44
2690.0 44 45 45 38 41 40 37 41 35 43
2730.0 41 43 41 46 39 46 44 61 63 57
2770.0 66 68 79 80 91 99 103 117 128 142
2810.0 156 180 195 215 231 256 293 338 404 467
2850.0 490 508 535 548 559 534 528 541 567 610
2890.0 667 728 788 851 896 944 940 948 952 940
2930.0 920 951 1028 1106 1267 1486 1771 1956 2043 2050
2970.0 1969 1924 1751 1580 1584 1774 1946 1923 1920 1782
3010.0 1537 1261 970 825 714 660 607 558 517 467
3050.0 407 347 307 255 248 217 209 197 195 183
3090.0 175 169 162 158 145 147 120 124 114 110
3130.0 108 97 100 83 87 62 74 71 67 58
3170.0 52 48 58 62 53 58 53 52 50 59
3210.0 47 50 44 42 58 48 35 39 42 25
3250.0 24 32 34 34 33 31 25 30 30 18
3290.0 38 38 35 37 29 21 29 43 37 34
3330.0 38 38 32 27 25 28 35 22 25 42
3370.0 37 40 42 51 18 37 42 46 43 30
3410.0 42 29 29 36 42 40 40 32 42 62
3450.0 71 70 65 92 102 94 118 122 135 147
3490.0 168 151 174 158 157 141 139 133 131 116
3530.0 133 144 153 167 209 270 375 521 750 1007
3570.0 1258 1382 1543 1579 1481 1355 1161 921 708 534
3610.0 430 331 278 261 223 276 293 323 330 332
3650.0 296 294 285 182 148 147 108 110 114 86
3690.0 67 66 120 114 84 96 70 66 67 86
3730.0 92 77 84 55 55 67 81 54 57 72
3770.0 51 95 68 85 70 48 86 48 61 73
3810.0 69 113 57 78 95 84 66 59 69 92
3850.0 66 108 81 76 54 80 60 34 80 100
3890.0 90 90 53 110 72 85 107 110 96 60
3930.0 89 149 79 100 113 125 71 46 121 96
##END=
