##TITLE=Propanoic acid, 2-methyl-, methyl ester
##JCAMP-DX=4.24
##DATA TYPE=INFRARED SPECTRUM
##ORIGIN=Sadtler Research Labs Under US-EPA Contract
##OWNER=NIST Standard Reference Data Program
##CAS REGISTRY NO=547-63-7
##MOLFORM=C 5 H 10 O 2
##XUNITS=1/CM
##YUNITS=ABSORBANCE
##XFACTOR=1.0
##YFACTOR=0.000065234
##DELTAX=4.0
##FIRSTX=450.0
##LASTX=3966.0
##FIRSTY=0.001370
##MAXX=3966
##MINX=450
##MAXY=0.65234
##MINY=0
##NPOINTS=880
##XYDATA=(X++(Y..Y))
450.0 21 46 48 48 48 48 52 38 44 34
490.0 69 4 48 40 19 49 56 59 73 30
530.0 49 88 83 29 29 33 47 64 48 50
570.0 24 40 24 57 78 94 108 108 119 121
610.0 138 130 129 128 126 124 126 115 111 95
650.0 83 73 70 70 48 98 61 60 70 52
690.0 56 61 57 67 58 59 61 67 67 83
730.0 106 109 130 163 193 246 274 304 308 301
770.0 284 261 252 248 208 213 231 269 326 410
810.0 473 524 578 617 599 543 474 419 318 228
850.0 181 152 153 165 180 214 252 307 360 407
890.0 437 437 410 386 346 281 226 190 175 172
930.0 166 166 166 149 149 141 135 134 142 153
970.0 172 202 260 347 471 610 711 756 769 717
1010.0 625 473 303 218 195 180 174 176 183 235
1050.0 290 361 477 634 862 1190 1615 2049 2406 2695
1090.0 2794 2769 2577 2243 2028 1930 1902 1972 2125 2325
1130.0 2610 2996 3635 4567 5751 6916 7557 7749 7569 7063
1170.0 6170 5051 4316 4403 4948 6088 6903 7026 6854 6240
1210.0 5594 4637 3764 3198 2859 2623 2525 2499 2559 2674
1250.0 2848 3009 3072 3022 2827 2483 2066 1635 1204 917
1290.0 752 672 637 624 630 647 670 704 763 866
1330.0 1017 1218 1486 1687 1766 1751 1672 1548 1359 1118
1370.0 986 990 1067 1177 1220 1219 1133 1030 898 668
1410.0 515 444 476 566 789 1095 1369 1625 1670 1822
1450.0 1657 1410 1388 1552 1773 1918 1920 1895 1674 1477
1490.0 1138 795 565 445 379 348 321 307 292 270
1530.0 264 243 234 222 215 201 188 183 175 173
1570.0 166 163 153 154 146 143 132 128 125 127
1610.0 119 120 122 118 126 114 120 125 128 121
1650.0 128 110 115 109 117 113 129 129 160 174
1690.0 187 223 277 330 426 546 715 964 1278 1712
1730.0 2332 3211 4412 5831 7172 8275 9292 10000 9906 9196
1770.0 7961 6176 4379 2887 1846 1203 800 545 395 292
1810.0 238 200 175 154 147 127 116 100 93 86
1850.0 74 70 71 62 65 64 62 61 61 64
1890.0 66 71 70 61 61 60 53 54 56 61
1930.0 50 52 54 61 60 71 72 88 93 111
1970.0 118 132 141 149 155 164 156 146 137 134
2010.0 123 116 109 101 99 93 84 76 69 69
2050.0 72 76 75 84 79 82 82 82 90 90
2090.0 89 74 75 63 55 52 51 43 44 42
2130.0 42 43 42 50 45 44 49 50 50 41
2170.0 42 42 34 26 33 26 25 25 25 25
2210.0 25 25 15 20 23 16 16 24 23 23
2250.0 23 23 23 25 26 22 22 22 22 20
2290.0 19 20 25 26 26 31 33 38 38 36
2330.0 44 39 43 35 35 36 43 38 33 21
2370.0 26 13 18 15 21 17 25 25 25 24
2410.0 24 24 24 15 18 19 15 15 15 15
2450.0 15 15 15 14 13 8 6 10 6 5
2490.0 13 12 8 11 5 12 12 5 11 12
2530.0 13 11 13 13 13 12 12 12 20 20
2570.0 28 35 27 34 28 28 20 20 20 20
2610.0 13 14 14 21 14 21 22 12 22 21
2650.0 28 37 37 36 36 30 29 21 30 21
2690.0 29 23 23 13 22 16 23 22 23 37
2730.0 38 38 45 47 52 52 52 48 54 51
2770.0 52 53 61 53 60 62 60 60 69 79
2810.0 92 103 117 143 157 193 239 302 379 439
2850.0 480 503 511 517 498 551 688 870 1025 1150
2890.0 1254 1293 1324 1307 1302 1329 1376 1443 1522 1615
2930.0 1721 1847 2014 2255 2604 3071 3498 3681 3899 4041
2970.0 4448 4724 4780 4848 4746 4601 3902 3145 2467 1919
3010.0 1517 1221 1034 890 775 682 600 533 456 386
3050.0 330 275 244 214 207 191 177 177 175 163
3090.0 163 149 163 149 149 141 132 124 119 114
3130.0 103 95 92 84 82 81 74 74 74 75
3170.0 75 75 76 74 78 78 73 70 62 53
3210.0 53 44 44 45 37 35 14 11 22 13
3250.0 7 8 0 2 1 9 1 1 18 8
3290.0 17 10 15 16 24 19 23 16 24 16
3330.0 16 16 16 15 10 12 8 10 9 24
3370.0 18 9 10 10 9 24 16 13 11 23
3410.0 13 18 10 17 10 10 18 11 17 26
3450.0 32 27 31 39 49 62 56 74 78 93
3490.0 94 124 116 117 109 92 79 55 44 46
3530.0 25 29 26 12 12 5 3 13 21 24
3570.0 22 26 35 29 23 26 34 20 19 27
3610.0 28 30 32 34 28 29 32 28 28 36
3650.0 35 28 36 42 35 36 43 27 44 35
3690.0 38 44 45 51 44 44 36 43 48 45
3730.0 47 45 45 52 43 41 43 48 48 39
3770.0 32 40 38 47 41 50 52 53 43 51
3810.0 42 44 51 57 43 56 43 41 45 46
3850.0 50 52 54 52 52 44 43 52 49 45
3890.0 50 40 44 50 46 38 46 45 44 44
3930.0 43 43 53 57 59 64 55 54 62 68
##END=
