##TITLE=Diethyl 1,4-piperazinedicarboxylate
##JCAMP-DX=4.24
##DATA TYPE=INFRARED SPECTRUM
##ORIGIN=Sadtler Research Labs Under US-EPA Contract
##OWNER=NIST Standard Reference Data Program
##CAS REGISTRY NO=5470-28-0
##MOLFORM=C 10 H 18 N 2 O 4
##XUNITS=1/CM
##YUNITS=ABSORBANCE
##XFACTOR=1.0
##YFACTOR=0.000132083
##DELTAX=4.0
##FIRSTX=450.0
##LASTX=3966.0
##FIRSTY=0.021662
##MAXX=3966
##MINX=450
##MAXY=1.32083
##MINY=0
##NPOINTS=880
##XYDATA=(X++(Y..Y))
450.0 164 87 66 69 70 49 42 50 48 34
490.0 48 54 40 62 59 57 61 72 73 92
530.0 100 99 120 103 117 106 75 64 83 91
570.0 79 59 33 23 23 10 14 9 9 8
610.0 14 10 12 1 7 11 11 20 21 17
650.0 25 15 16 0 10 19 2 10 13 16
690.0 22 12 14 24 32 18 14 18 13 16
730.0 21 34 54 84 86 97 100 133 205 305
770.0 414 466 426 328 235 159 129 108 116 133
810.0 137 112 98 90 78 84 93 108 127 124
850.0 104 99 103 109 145 169 201 211 184 139
890.0 82 47 28 22 14 17 13 16 18 22
930.0 27 36 51 76 94 111 129 125 120 119
970.0 143 177 263 446 829 1448 1911 1723 1071 539
1010.0 341 294 284 297 304 314 310 307 308 323
1050.0 377 440 497 544 595 678 810 985 1194 1436
1090.0 1739 2175 2804 3472 3666 3141 2313 1702 1358 1157
1130.0 1043 972 918 843 776 708 674 672 705 782
1170.0 872 951 978 953 915 901 928 1017 1185 1501
1210.0 2031 3015 4681 6562 7928 8237 7035 4820 3144 2457
1250.0 2212 2047 1835 1505 1145 901 825 879 1029 1152
1290.0 1114 944 742 611 537 488 448 434 433 462
1330.0 518 613 781 947 1093 1258 1352 1255 1010 823
1370.0 895 1175 1477 1771 1999 2036 1892 1830 2011 2409
1410.0 2899 3278 3520 3311 2867 2263 1781 1397 1164 1077
1450.0 1064 1131 1287 1355 1346 1338 1301 1150 927 771
1490.0 646 500 430 367 377 367 305 281 279 217
1530.0 198 172 183 196 166 117 106 125 79 42
1570.0 46 42 37 30 19 33 33 50 48 63
1610.0 74 91 122 106 126 96 133 136 133 146
1650.0 192 199 189 185 209 238 290 321 421 502
1690.0 529 600 762 967 1260 1767 2696 4332 6771 9243
1730.0 10000 7962 5310 3330 2140 1445 1026 759 589 448
1770.0 375 300 229 194 164 149 147 137 142 117
1810.0 110 104 83 81 72 70 52 41 48 53
1850.0 32 18 21 19 25 35 21 16 16 18
1890.0 24 24 21 22 23 22 23 26 29 17
1930.0 16 17 16 24 25 20 20 18 17 24
1970.0 22 18 15 17 15 23 22 18 16 17
2010.0 18 24 26 23 20 17 14 15 20 17
2050.0 15 16 13 18 20 19 19 20 19 19
2090.0 19 15 13 11 10 12 9 7 8 6
2130.0 5 4 3 2 0 1 2 2 1 3
2170.0 3 6 5 5 8 8 9 7 9 6
2210.0 5 5 7 5 7 8 6 9 8 8
2250.0 7 9 9 9 11 10 12 13 16 18
2290.0 21 26 31 36 38 45 35 34 36 32
2330.0 26 23 15 22 39 32 37 24 21 14
2370.0 18 22 31 33 24 14 7 6 5 6
2410.0 3 5 4 5 4 1 1 3 5 3
2450.0 2 0 1 4 4 3 4 6 5 4
2490.0 6 6 8 6 8 7 8 6 8 6
2530.0 7 9 9 8 10 10 8 7 8 9
2570.0 8 5 4 5 5 7 8 10 9 9
2610.0 10 12 10 10 9 8 10 8 12 11
2650.0 9 9 12 13 13 19 22 30 33 33
2690.0 30 26 22 18 22 22 26 29 33 39
2730.0 42 45 40 40 41 39 38 35 34 37
2770.0 36 34 37 40 39 42 45 50 57 61
2810.0 65 70 76 81 87 97 107 119 138 167
2850.0 209 279 377 507 632 702 690 632 584 553
2890.0 533 529 548 575 601 621 621 616 616 621
2930.0 637 667 709 746 730 655 578 540 558 596
2970.0 638 689 801 956 1047 992 851 733 666 599
3010.0 533 463 395 324 246 184 141 110 93 80
3050.0 73 66 61 59 56 53 53 52 51 48
3090.0 47 44 39 39 37 40 36 34 35 35
3130.0 34 36 38 35 36 31 34 30 27 23
3170.0 22 19 20 21 18 16 19 15 17 12
3210.0 14 11 10 10 9 8 11 10 10 7
3250.0 7 6 10 6 5 7 10 5 8 9
3290.0 7 13 11 11 8 10 8 11 13 10
3330.0 19 15 16 13 11 15 15 21 18 16
3370.0 18 11 14 16 17 19 17 18 17 17
3410.0 19 20 19 26 28 38 44 47 40 34
3450.0 27 24 16 20 21 21 13 14 15 10
3490.0 10 14 11 7 13 7 5 4 5 10
3530.0 5 9 7 10 9 3 5 3 10 8
3570.0 6 2 3 0 14 11 12 7 4 7
3610.0 7 5 7 2 1 7 6 7 1 9
3650.0 19 12 8 10 10 10 4 15 0 9
3690.0 17 12 7 10 6 10 14 15 13 17
3730.0 10 12 12 6 22 6 11 6 8 15
3770.0 9 9 7 11 1 5 6 16 11 11
3810.0 10 12 4 7 8 15 10 18 14 7
3850.0 7 9 10 17 11 14 12 12 10 18
3890.0 9 10 9 19 12 16 0 14 6 5
3930.0 11 13 11 16 17 8 10 0 10 19
##END=
