##TITLE=Ethanamine, N-ethyl-N-nitroso-
##JCAMP-DX=4.24
##DATA TYPE=INFRARED SPECTRUM
##ORIGIN=Sadtler Research Labs Under US-EPA Contract
##OWNER=NIST Standard Reference Data Program
##CAS REGISTRY NO=55-18-5
##MOLFORM=C 4 H 10 N 2 O
##XUNITS=1/CM
##YUNITS=ABSORBANCE
##XFACTOR=1.0
##YFACTOR=0.000070557
##DELTAX=4.0
##FIRSTX=450.0
##LASTX=3966.0
##FIRSTY=0.012841
##MAXX=3966
##MINX=450
##MAXY=0.70557
##MINY=0
##NPOINTS=880
##XYDATA=(X++(Y..Y))
450.0 182 189 228 227 196 199 189 220 254 274
490.0 196 212 212 232 231 234 210 169 201 156
530.0 161 105 123 146 62 43 92 120 162 72
570.0 116 130 140 184 105 151 107 61 161 196
610.0 203 217 232 193 187 186 189 164 244 217
650.0 259 200 224 221 142 187 203 135 83 184
690.0 157 137 145 106 135 136 131 93 85 126
730.0 105 146 108 177 73 61 205 187 224 205
770.0 249 328 288 339 392 437 466 568 805 1000
810.0 1320 1559 1778 1859 1789 1646 1341 992 678 517
850.0 395 320 275 260 230 216 199 194 145 152
890.0 211 176 142 163 138 181 250 211 225 265
930.0 320 441 522 551 593 659 706 713 726 735
970.0 863 1040 1278 1482 1726 1857 2007 2099 2133 2265
1010.0 2461 2874 3560 4630 5855 7295 8416 9167 9827 9632
1050.0 8675 7381 5556 3852 2703 2171 1862 1656 1569 1479
1090.0 1358 1269 1246 1131 980 823 716 619 635 548
1130.0 516 503 488 475 477 483 483 526 542 612
1170.0 673 768 925 1112 1514 1948 2723 3655 4499 5381
1210.0 5757 5909 5681 4982 4293 3223 2422 1997 1694 1463
1250.0 1272 1082 885 699 634 668 640 720 728 767
1290.0 870 1005 1182 1411 1777 2269 2706 3115 3454 3744
1330.0 4019 4241 4368 4474 4618 5007 5115 4836 4460 4066
1370.0 3702 3214 2764 2543 2512 2316 2077 1719 1371 1172
1410.0 1113 1106 1194 1329 1515 1689 1922 2130 2323 2433
1450.0 2700 3007 3333 3763 4523 5779 7646 9200 9848 10000
1490.0 9565 8636 6846 4566 2660 1536 1012 688 537 449
1530.0 433 365 327 217 252 262 239 174 160 193
1570.0 179 198 163 202 188 195 181 152 149 168
1610.0 160 192 108 109 123 146 127 104 132 131
1650.0 117 60 117 113 102 96 90 111 130 66
1690.0 158 133 110 62 103 132 108 44 99 78
1730.0 58 25 50 38 46 52 67 38 44 45
1770.0 41 37 56 47 68 79 56 52 64 87
1810.0 72 78 75 80 62 50 69 89 68 53
1850.0 85 86 80 80 85 73 86 70 61 67
1890.0 49 46 44 43 50 49 44 21 35 30
1930.0 35 34 35 30 35 38 35 30 41 42
1970.0 34 48 43 55 50 61 59 55 42 56
2010.0 64 56 68 61 69 60 63 55 62 46
2050.0 51 54 54 54 62 54 54 60 54 54
2090.0 47 51 46 43 44 35 46 34 33 31
2130.0 32 31 40 40 30 37 35 30 40 31
2170.0 31 33 31 45 46 38 45 43 46 38
2210.0 41 36 46 37 37 45 38 44 51 43
2250.0 51 51 51 40 45 35 40 41 39 29
2290.0 37 30 23 21 28 14 15 3 13 9
2330.0 1 2 0 0 3 11 0 0 0 0
2370.0 0 5 21 37 39 28 41 42 43 49
2410.0 50 55 58 60 60 58 57 70 59 71
2450.0 66 60 68 68 59 55 47 48 46 46
2490.0 41 42 42 44 50 51 58 52 53 65
2530.0 73 70 72 60 57 61 53 48 55 47
2570.0 41 42 40 35 36 30 32 30 29 43
2610.0 31 45 30 32 31 39 34 42 36 44
2650.0 46 51 53 62 54 69 77 85 91 106
2690.0 107 118 123 115 110 116 112 115 109 102
2730.0 117 117 117 125 140 136 137 147 155 145
2770.0 154 162 174 183 205 205 214 236 242 265
2810.0 277 276 292 298 325 332 354 382 392 428
2850.0 458 516 572 671 787 935 1129 1362 1549 1704
2890.0 1829 1895 1923 1931 1953 1995 2041 2118 2272 2492
2930.0 2810 3207 3656 3957 4054 3988 3779 3533 3288 3190
2970.0 3511 4138 4771 5380 6285 5659 5282 4662 3645 2725
3010.0 2024 1485 1076 802 625 514 434 393 346 317
3050.0 296 275 260 225 204 196 192 183 165 149
3090.0 145 152 133 137 131 124 138 133 120 118
3130.0 113 116 109 105 113 109 107 108 114 107
3170.0 107 124 106 104 109 110 104 95 106 102
3210.0 91 77 78 77 71 64 62 60 64 50
3250.0 52 59 66 63 59 54 53 55 55 62
3290.0 51 54 49 65 54 63 52 57 50 50
3330.0 56 62 49 73 64 63 64 40 55 56
3370.0 76 66 68 76 76 62 71 50 52 69
3410.0 56 66 44 37 51 65 51 45 73 44
3450.0 45 49 53 38 67 50 54 61 71 55
3490.0 57 49 50 41 51 65 50 47 40 47
3530.0 48 47 53 47 47 54 41 52 62 33
3570.0 52 33 52 55 25 33 45 29 44 34
3610.0 22 25 44 23 59 16 41 50 43 33
3650.0 6 20 33 42 51 21 13 12 34 38
3690.0 27 39 56 46 45 37 32 54 51 47
3730.0 47 36 24 34 9 15 30 56 56 64
3770.0 64 70 76 72 64 53 47 45 44 48
3810.0 31 46 40 40 48 54 47 50 54 63
3850.0 41 28 54 58 36 29 37 44 48 47
3890.0 51 61 69 82 68 67 61 60 68 75
3930.0 82 77 89 84 80 91 16 22 22 23
##END=
