##TITLE=Ethanone, 1-(2-aminophenyl)-
##JCAMP-DX=4.24
##DATA TYPE=INFRARED SPECTRUM
##ORIGIN=Sadtler Research Labs Under US-EPA Contract
##OWNER=NIST Standard Reference Data Program
##CAS REGISTRY NO=551-93-9
##MOLFORM=C 8 H 9 N O
##XUNITS=1/CM
##YUNITS=ABSORBANCE
##XFACTOR=1.0
##YFACTOR=0.000083139
##DELTAX=4.0
##FIRSTX=450.0
##LASTX=3966.0
##FIRSTY=0.003991
##MAXX=3966
##MINX=450
##MAXY=0.83139
##MINY=0
##NPOINTS=880
##XYDATA=(X++(Y..Y))
450.0 48 21 26 16 0 25 27 66 144 204
490.0 253 356 521 652 757 890 972 875 663 563
530.0 531 489 569 653 789 910 930 933 940 814
570.0 761 737 771 709 856 1004 1157 1716 2313 2914
610.0 3132 3004 2624 1921 1324 889 666 612 586 616
650.0 642 686 747 775 787 772 844 822 862 864
690.0 820 778 708 668 642 594 601 665 793 1089
730.0 1631 2260 2724 3502 4783 2907 2200 1659 976 472
770.0 252 163 146 146 155 201 211 222 262 257
810.0 277 320 360 404 456 458 432 407 431 315
850.0 237 187 196 213 232 216 213 225 251 245
890.0 251 233 202 207 204 190 206 223 256 297
930.0 386 608 961 1463 1951 2161 2069 1879 1284 711
970.0 431 306 207 170 140 113 106 109 127 159
1010.0 193 243 286 332 352 326 275 237 188 165
1050.0 147 174 222 249 257 265 248 214 178 177
1090.0 174 183 179 203 194 191 163 157 148 140
1130.0 155 204 296 504 858 1478 2246 2818 2935 2853
1170.0 2388 1533 807 397 212 153 156 172 214 255
1210.0 384 575 941 1565 2583 3941 5288 6352 7060 7260
1250.0 6648 5668 4718 3659 2580 1763 1363 1436 1809 2203
1290.0 2490 2513 2331 1870 1503 1379 1409 1425 1360 1255
1330.0 1046 778 624 586 685 1005 1568 2226 2630 2709
1370.0 2518 1907 1121 634 411 302 270 288 270 283
1410.0 303 318 410 430 500 558 678 894 1190 1563
1450.0 1865 1827 1921 1742 1257 984 1090 1341 1681 1911
1490.0 1902 1691 1405 964 717 590 493 503 557 604
1530.0 716 926 1239 1793 2433 3090 3509 3684 3623 3320
1570.0 3001 3054 3644 4612 5655 6304 6540 6717 6557 6715
1610.0 7239 7939 7841 7354 6284 4534 2961 1886 1440 1452
1650.0 1977 3249 5332 7724 9248 10000 9724 7748 5395 3399
1690.0 2193 1389 954 679 557 441 431 424 391 359
1730.0 429 439 374 322 283 239 188 176 171 157
1770.0 198 204 180 182 161 139 128 131 141 114
1810.0 106 97 75 63 54 59 31 25 40 60
1850.0 51 59 71 94 110 122 90 89 77 81
1890.0 99 114 133 128 128 108 86 93 115 138
1930.0 153 155 142 125 81 51 40 34 21 26
1970.0 18 11 17 18 22 42 34 21 34 30
2010.0 31 40 42 30 21 29 21 30 26 25
2050.0 16 10 12 15 23 20 22 10 5 4
2090.0 5 1 3 11 5 8 16 7 16 15
2130.0 14 21 9 14 20 13 19 22 17 15
2170.0 19 11 25 19 30 30 24 17 18 11
2210.0 5 1 6 10 10 17 12 8 7 2
2250.0 3 8 5 8 12 19 22 28 34 50
2290.0 54 59 72 86 75 93 73 96 88 77
2330.0 80 71 60 57 105 104 89 68 59 70
2370.0 71 64 67 69 51 39 30 28 17 23
2410.0 23 18 30 30 23 26 30 24 25 30
2450.0 24 26 26 25 14 18 19 17 21 21
2490.0 17 20 20 21 28 28 28 35 36 34
2530.0 38 41 31 35 35 30 23 30 24 25
2570.0 31 17 32 24 24 24 21 26 36 44
2610.0 41 49 49 55 62 57 63 80 84 84
2650.0 100 93 85 74 71 64 58 51 59 53
2690.0 52 39 41 43 39 36 37 38 35 41
2730.0 29 30 29 24 20 24 28 31 34 33
2770.0 43 53 48 61 60 60 55 49 56 53
2810.0 50 53 51 56 56 56 49 55 56 68
2850.0 69 65 71 60 67 70 79 67 72 74
2890.0 86 68 69 86 82 95 113 124 139 173
2930.0 212 232 262 281 263 233 201 184 189 203
2970.0 242 275 323 353 322 317 305 309 353 415
3010.0 500 567 642 733 806 855 870 921 923 925
3050.0 979 1064 1076 1036 946 863 827 873 945 955
3090.0 908 820 632 472 383 346 315 283 239 197
3130.0 144 114 107 93 71 76 68 69 68 62
3170.0 70 63 62 59 47 40 42 29 36 31
3210.0 29 23 21 16 23 27 44 40 63 69
3250.0 73 89 81 94 98 87 81 74 76 90
3290.0 82 75 85 92 108 109 130 171 219 286
3330.0 398 599 949 1374 1839 2273 2599 2669 2596 2321
3370.0 2016 1645 1338 1080 795 592 410 295 220 160
3410.0 123 117 73 54 58 40 47 46 40 35
3450.0 54 56 81 100 131 153 162 190 262 331
3490.0 435 570 768 1006 1271 1540 1719 1795 1743 1568
3530.0 1294 966 689 443 244 153 104 74 45 38
3570.0 50 30 17 29 16 39 6 10 15 10
3610.0 2 7 1 17 7 16 12 5 15 9
3650.0 9 19 23 6 2 2 3 12 20 11
3690.0 0 9 16 15 17 19 29 15 18 6
3730.0 9 4 29 17 29 13 30 13 3 8
3770.0 0 5 0 3 1 4 3 3 2 1
3810.0 1 3 13 10 0 12 13 2 5 11
3850.0 11 7 20 16 12 14 7 22 18 22
3890.0 24 32 26 25 20 21 16 12 18 18
3930.0 20 12 16 14 13 11 15 18 13 15
##END=
