##TITLE=Naphthalene, 1-isothiocyanato-
##JCAMP-DX=4.24
##DATA TYPE=INFRARED SPECTRUM
##ORIGIN=Sadtler Research Labs Under US-EPA Contract
##OWNER=NIST Standard Reference Data Program
##CAS REGISTRY NO=551-06-4
##MOLFORM=C 11 H 7 N S
##XUNITS=1/CM
##YUNITS=ABSORBANCE
##XFACTOR=1.0
##YFACTOR=0.000087744
##DELTAX=4.0
##FIRSTX=450.0
##LASTX=3966.0
##FIRSTY=0.001316
##MAXX=3966
##MINX=450
##MAXY=0.87744
##MINY=0
##NPOINTS=880
##XYDATA=(X++(Y..Y))
450.0 15 29 31 43 85 128 145 152 155 165
490.0 219 214 281 298 280 236 225 256 281 304
530.0 314 385 330 309 390 485 524 507 448 378
570.0 316 262 308 259 338 359 399 384 355 256
610.0 201 192 160 143 123 82 118 122 152 132
650.0 198 269 393 420 417 279 188 135 53 27
690.0 42 66 51 50 49 34 53 79 86 89
730.0 67 104 120 73 201 363 686 1137 1612 2170
770.0 1694 1185 984 1140 1538 2086 2469 1612 1174 707
810.0 382 248 196 165 123 127 99 70 77 94
850.0 104 151 191 121 106 89 65 69 42 58
890.0 77 116 197 231 287 343 458 618 737 779
930.0 718 586 405 300 210 169 131 123 132 120
970.0 94 88 66 72 57 57 68 80 110 144
1010.0 175 195 188 151 124 92 76 76 82 110
1050.0 122 117 102 65 53 47 42 55 53 58
1090.0 86 109 109 92 57 49 41 44 54 52
1130.0 56 59 72 70 59 69 74 98 103 121
1170.0 97 79 69 52 39 43 44 45 61 73
1210.0 91 91 101 86 56 49 63 61 69 71
1250.0 67 70 103 155 236 297 292 245 159 104
1290.0 88 57 45 54 60 54 65 60 54 59
1330.0 66 84 89 92 92 93 96 113 108 108
1370.0 131 154 226 323 461 732 1069 1143 961 561
1410.0 264 193 192 191 191 180 186 221 275 276
1450.0 255 215 174 199 185 158 108 90 79 83
1490.0 102 151 227 358 477 547 520 395 233 149
1530.0 123 100 88 67 88 98 115 158 303 516
1570.0 698 793 742 664 614 607 543 418 291 193
1610.0 165 155 149 170 160 145 117 86 92 74
1650.0 80 52 88 83 78 61 62 85 99 109
1690.0 135 119 85 56 73 89 101 85 92 86
1730.0 75 65 82 98 100 89 84 83 83 92
1770.0 93 94 113 125 123 118 104 99 104 110
1810.0 109 104 99 105 116 132 141 141 136 136
1850.0 158 165 165 147 123 108 113 121 129 136
1890.0 144 157 174 199 228 262 308 337 377 399
1930.0 426 467 512 582 660 742 832 934 1055 1193
1970.0 1338 1507 1688 1880 2098 2355 2624 2937 3254 3618
2010.0 4011 4381 4744 5054 5414 5858 6359 6989 7809 8591
2050.0 9349 10000 9795 9472 9267 9164 9342 9320 9214 9092
2090.0 8777 8280 7576 6996 6381 5752 5168 4610 4154 3817
2130.0 3552 3360 3215 3093 2983 2807 2516 2145 1763 1447
2170.0 1198 1016 865 770 734 722 685 605 483 379
2210.0 312 265 229 207 196 186 161 139 121 104
2250.0 99 100 104 106 112 121 124 126 127 121
2290.0 114 121 103 92 74 70 70 72 76 92
2330.0 114 134 136 130 119 102 91 105 114 109
2370.0 98 85 73 64 53 46 44 45 55 62
2410.0 74 90 101 101 101 103 109 108 113 105
2450.0 100 89 83 71 71 78 78 82 85 90
2490.0 90 84 88 88 92 98 93 87 87 87
2530.0 87 86 86 86 89 87 85 86 81 81
2570.0 75 75 67 63 67 70 65 71 73 73
2610.0 69 63 51 50 45 40 40 33 32 29
2650.0 25 28 26 27 23 33 27 28 27 37
2690.0 33 33 32 32 38 42 47 48 48 54
2730.0 60 60 59 47 46 45 36 24 28 26
2770.0 26 24 20 24 24 31 19 24 26 16
2810.0 20 24 23 29 25 27 32 27 32 44
2850.0 39 41 45 39 40 44 40 40 42 40
2890.0 41 42 41 41 37 39 38 40 33 45
2930.0 49 52 54 55 67 72 68 67 61 62
2970.0 60 60 58 51 58 58 63 75 87 99
3010.0 110 120 125 125 133 136 141 163 192 235
3050.0 340 519 752 993 1134 1052 862 600 429 381
3090.0 377 364 318 253 185 120 69 44 28 32
3130.0 28 21 19 20 22 17 28 22 24 23
3170.0 24 13 13 23 13 21 17 12 15 15
3210.0 15 27 20 21 21 22 16 6 17 14
3250.0 15 17 13 7 18 18 19 18 18 18
3290.0 13 23 15 22 13 12 16 16 26 22
3330.0 22 21 17 22 20 23 23 12 25 22
3370.0 22 24 13 24 20 20 23 21 27 29
3410.0 27 15 23 22 32 32 28 27 27 24
3450.0 27 32 22 19 36 35 29 29 29 30
3490.0 25 31 25 32 27 34 31 31 37 18
3530.0 36 39 45 33 34 34 23 36 37 36
3570.0 35 44 41 41 42 36 37 36 36 36
3610.0 35 26 33 29 34 23 43 32 40 34
3650.0 22 35 34 41 35 34 27 22 42 41
3690.0 38 36 32 38 42 31 33 37 42 43
3730.0 39 33 29 35 28 29 39 45 45 36
3770.0 36 44 46 46 51 48 43 41 37 38
3810.0 31 38 44 38 45 45 44 44 52 45
3850.0 51 44 62 58 63 64 64 64 57 54
3890.0 57 50 53 60 64 70 66 61 67 67
3930.0 61 74 78 84 73 87 0 6 6 6
##END=
