##TITLE=Phenol, 2,6-bis(1-methylpropyl)-
##JCAMP-DX=4.24
##DATA TYPE=INFRARED SPECTRUM
##ORIGIN=Sadtler Research Labs Under US-EPA Contract
##OWNER=NIST Standard Reference Data Program
##CAS REGISTRY NO=5510-99-6
##MOLFORM=C 14 H 22 O
##XUNITS=1/CM
##YUNITS=ABSORBANCE
##XFACTOR=1.0
##YFACTOR=0.000113818
##DELTAX=4.0
##FIRSTX=450.0
##LASTX=3966.0
##FIRSTY=0.017187
##MAXX=3966
##MINX=450
##MAXY=1.13818
##MINY=0
##NPOINTS=880
##XYDATA=(X++(Y..Y))
450.0 151 137 123 143 173 152 160 147 151 135
490.0 157 154 148 148 134 125 138 142 137 163
530.0 150 160 176 190 179 197 180 126 96 77
570.0 62 72 66 69 57 66 50 40 23 27
610.0 15 20 12 7 3 7 14 28 30 29
650.0 29 22 33 29 31 55 50 49 70 85
690.0 101 96 95 67 49 34 41 43 48 84
730.0 175 476 1000 1709 2046 1653 1016 537 346 347
770.0 404 478 525 546 541 526 482 420 398 393
810.0 430 506 589 630 589 487 382 282 215 178
850.0 165 152 132 98 73 59 51 58 77 95
890.0 118 139 138 119 105 77 70 61 51 50
930.0 48 38 38 44 61 87 127 168 189 187
970.0 164 140 124 122 126 156 198 270 345 404
1010.0 448 466 442 361 252 172 140 134 151 187
1050.0 245 306 356 387 400 405 425 442 474 509
1090.0 539 567 603 640 657 623 551 485 452 455
1130.0 507 599 738 916 1084 1161 1103 1022 1097 1436
1170.0 1816 2035 2161 2183 2327 2629 2811 2715 2315 1783
1210.0 1318 1003 802 688 625 614 661 769 926 1118
1250.0 1307 1412 1363 1199 1002 853 781 753 740 735
1290.0 755 804 876 980 1085 1142 1110 1006 857 707
1330.0 590 520 488 484 501 513 522 510 489 489
1370.0 561 719 938 1082 1020 777 503 322 255 239
1410.0 241 271 309 396 489 619 796 1078 1546 2159
1450.0 2807 3211 3239 2944 2490 1960 1432 1018 772 643
1490.0 599 616 652 682 710 706 645 552 421 262
1530.0 171 139 110 91 81 86 80 79 94 108
1570.0 127 156 200 257 324 381 400 387 355 332
1610.0 320 308 266 219 169 142 128 132 134 112
1650.0 81 67 61 59 60 57 49 52 46 52
1690.0 56 61 56 47 41 38 30 18 29 27
1730.0 21 19 23 18 17 16 20 20 19 24
1770.0 18 17 20 24 32 39 41 39 30 21
1810.0 12 8 10 7 7 4 14 25 45 79
1850.0 107 112 81 47 23 16 19 19 17 18
1890.0 17 23 37 57 74 80 67 44 24 14
1930.0 9 6 4 0 1 2 0 1 0 0
1970.0 1 2 0 2 1 2 6 6 7 9
2010.0 8 5 4 6 5 6 4 5 5 7
2050.0 7 7 9 9 8 11 11 11 10 7
2090.0 7 6 6 6 7 5 6 8 5 6
2130.0 4 5 5 5 5 6 6 5 7 8
2170.0 5 4 5 5 6 4 6 4 5 4
2210.0 5 3 4 6 6 5 8 12 9 11
2250.0 12 14 16 18 17 20 21 21 22 21
2290.0 21 24 25 30 31 35 36 41 44 46
2330.0 53 56 54 72 66 63 64 58 62 57
2370.0 55 56 57 52 49 52 52 53 52 52
2410.0 53 51 55 58 61 60 63 58 58 57
2450.0 54 50 49 49 47 45 41 42 40 39
2490.0 38 38 38 38 39 38 37 36 38 36
2530.0 36 38 39 42 46 46 48 49 50 52
2570.0 56 58 62 62 61 64 62 64 64 64
2610.0 63 63 63 61 61 62 62 64 63 67
2650.0 68 70 72 79 79 80 84 84 83 83
2690.0 81 79 83 84 90 95 98 106 111 123
2730.0 133 147 159 166 163 151 138 127 123 126
2770.0 126 127 134 140 154 166 183 196 212 229
2810.0 250 272 294 320 346 379 414 447 489 535
2850.0 602 714 916 1267 1763 2284 2754 3231 3637 3741
2890.0 3361 2750 2257 2058 2091 2321 2661 3038 3404 3751
2930.0 4137 4531 4823 4752 4292 3701 3531 4199 5879 8225
2970.0 10000 9923 7786 5110 3015 1834 1248 931 745 654
3010.0 617 613 629 656 704 776 854 908 915 879
3050.0 828 789 783 821 880 941 954 899 785 640
3090.0 508 417 346 293 247 210 186 170 155 148
3130.0 136 133 125 123 123 120 120 119 120 120
3170.0 120 119 116 116 112 107 101 94 89 84
3210.0 77 68 63 57 50 45 44 41 38 36
3250.0 34 38 32 31 30 29 31 28 30 31
3290.0 29 24 24 22 29 24 23 24 23 25
3330.0 25 30 30 31 32 32 38 34 39 42
3370.0 41 47 46 51 51 47 48 51 51 49
3410.0 47 45 45 41 39 38 36 31 35 24
3450.0 25 27 24 20 19 19 23 15 14 16
3490.0 21 19 15 9 12 17 16 16 15 2
3530.0 11 15 12 12 10 11 18 15 19 6
3570.0 23 24 33 37 34 40 43 50 46 63
3610.0 77 96 123 180 274 445 802 1403 2170 2677
3650.0 2620 2134 1640 1213 790 448 255 147 103 82
3690.0 51 48 41 33 38 25 18 33 32 24
3730.0 20 15 12 20 12 9 13 11 17 23
3770.0 14 18 11 15 15 30 29 10 10 19
3810.0 20 27 15 20 32 36 34 29 23 40
3850.0 36 32 41 47 39 34 34 42 42 43
3890.0 48 45 51 48 46 65 52 40 43 50
3930.0 42 38 39 40 40 35 36 36 38 29
##END=
