##TITLE=Ethanol, 2-(4-chlorothymyloxy)-,
##JCAMP-DX=4.24
##DATA TYPE=INFRARED SPECTRUM
##ORIGIN=Sadtler Research Labs Under US-EPA Contract
##OWNER=NIST Standard Reference Data Program
##CAS REGISTRY NO=55129-22-1
##MOLFORM=C 12 H 17 Cl O 2
##XUNITS=1/CM
##YUNITS=ABSORBANCE
##XFACTOR=1.0
##YFACTOR=0.000084421
##DELTAX=4.0
##FIRSTX=450.0
##LASTX=3966.0
##FIRSTY=0.029969
##MAXX=3966
##MINX=450
##MAXY=0.84421
##MINY=0
##NPOINTS=880
##XYDATA=(X++(Y..Y))
450.0 355 254 192 239 205 231 265 221 216 193
490.0 244 223 228 233 210 198 214 213 197 158
530.0 155 128 101 91 95 45 78 47 42 59
570.0 76 98 137 167 206 222 255 298 332 342
610.0 347 352 353 405 485 624 787 846 794 646
650.0 544 390 289 146 107 72 39 41 23 21
690.0 14 46 71 59 81 112 158 273 427 504
730.0 492 478 503 641 784 926 1056 1150 1197 1161
770.0 997 754 513 353 252 197 172 162 169 160
810.0 154 172 177 193 239 341 471 617 722 761
850.0 765 818 880 948 1040 1117 1352 1750 2419 2824
890.0 2726 2455 2223 1980 1646 1242 923 722 616 548
930.0 495 449 403 394 393 399 435 494 580 710
970.0 859 990 1084 1117 1107 1082 1074 1103 1182 1306
1010.0 1430 1540 1679 1930 2342 2976 3810 4782 5652 6104
1050.0 6002 5382 4621 4092 4047 4364 4630 4549 4104 3540
1090.0 3000 2527 2221 2113 2181 2450 2914 3381 3575 3420
1130.0 3063 2722 2445 2211 2063 2217 2923 4318 6202 7774
1170.0 8263 7480 6086 4701 3697 3173 2880 2550 2123 1774
1210.0 1592 1521 1529 1685 2075 2859 4197 5879 7072 6882
1250.0 5553 4170 3328 2848 2562 2390 2263 2154 2030 1882
1290.0 1704 1502 1299 1154 1080 1077 1138 1271 1542 2008
1330.0 2680 3518 4376 4840 4614 3833 3034 2705 2908 3452
1370.0 3911 4073 3877 3464 3350 3964 4561 4324 3299 2315
1410.0 1739 1408 1221 1137 1114 1141 1215 1333 1510 1733
1450.0 2138 2787 3559 3912 3729 3446 3478 3919 4698 5924
1490.0 7105 7700 6719 4803 3045 2121 1836 1547 1241 921
1530.0 742 635 579 538 521 536 547 555 559 521
1570.0 445 366 309 282 299 343 452 614 801 921
1610.0 896 720 505 352 256 205 164 138 125 110
1650.0 95 95 109 108 119 122 121 119 107 95
1690.0 88 87 82 89 93 98 83 71 80 90
1730.0 87 90 96 112 127 146 178 202 213 198
1770.0 158 103 75 55 51 38 33 28 22 28
1810.0 18 15 12 11 7 3 4 5 2 0
1850.0 6 8 12 17 16 20 31 41 53 59
1890.0 66 70 72 73 72 68 66 70 70 74
1930.0 74 71 65 56 59 55 56 54 58 55
1970.0 54 54 56 54 55 56 53 52 51 49
2010.0 50 47 43 42 42 40 41 40 34 36
2050.0 32 32 34 33 29 30 31 36 37 44
2090.0 45 48 52 54 57 58 60 55 52 51
2130.0 44 38 34 31 32 31 31 29 28 26
2170.0 25 20 20 17 17 15 14 12 13 16
2210.0 24 22 28 32 32 38 40 44 42 43
2250.0 40 41 39 37 33 30 27 31 31 30
2290.0 28 31 33 36 35 42 45 44 52 58
2330.0 50 52 49 64 68 65 62 52 60 60
2370.0 62 67 75 69 56 50 47 49 56 62
2410.0 63 61 55 54 50 50 46 48 45 49
2450.0 50 48 48 51 54 52 57 55 51 50
2490.0 51 46 47 50 54 57 61 61 67 67
2530.0 68 72 70 71 69 64 65 64 64 58
2570.0 59 58 62 66 68 68 67 72 68 68
2610.0 69 63 61 56 51 52 49 51 55 56
2650.0 56 56 59 61 62 68 73 75 84 85
2690.0 90 93 105 108 124 138 156 179 205 227
2730.0 242 245 245 248 254 253 249 243 241 241
2770.0 247 246 249 252 258 265 273 294 309 332
2810.0 356 383 405 434 466 502 554 612 690 791
2850.0 920 1077 1276 1544 1933 2482 3172 3889 4341 4326
2890.0 3920 3480 3218 3134 3168 3252 3374 3572 3949 4537
2930.0 5394 6347 6942 6822 6149 5473 5225 5683 7047 8983
2970.0 10000 9366 7391 5421 3951 2846 2058 1486 1130 929
3010.0 796 710 647 603 598 628 681 738 770 748
3050.0 693 619 560 500 451 404 354 320 287 278
3090.0 269 264 262 265 262 252 236 206 185 160
3130.0 139 121 112 101 99 89 92 90 89 89
3170.0 90 92 89 92 95 97 95 87 86 85
3210.0 79 74 73 65 58 54 50 47 44 36
3250.0 38 38 35 30 23 27 19 24 27 24
3290.0 21 20 16 20 22 14 18 19 22 14
3330.0 22 20 21 15 14 17 15 22 24 23
3370.0 19 24 26 16 20 21 22 15 20 24
3410.0 25 21 22 19 19 19 18 24 22 19
3450.0 16 17 22 19 26 26 26 21 25 26
3490.0 27 25 26 25 26 22 24 29 32 30
3530.0 36 39 32 35 35 38 36 53 47 56
3570.0 61 49 41 57 62 71 68 88 97 126
3610.0 150 189 223 279 367 519 749 1013 1153 1056
3650.0 840 666 580 579 603 611 587 533 456 381
3690.0 304 229 172 134 114 100 80 61 65 70
3730.0 62 71 60 56 64 59 66 52 46 49
3770.0 40 29 33 34 22 31 32 25 42 28
3810.0 21 19 26 25 39 22 32 26 21 8
3850.0 27 50 31 15 22 17 12 23 16 15
3890.0 16 23 19 24 24 9 5 23 25 19
3930.0 29 33 17 14 19 24 24 13 14 32
##END=
