##TITLE=Ethanol, 2-thymyloxy-,
##JCAMP-DX=4.24
##DATA TYPE=INFRARED SPECTRUM
##ORIGIN=Sadtler Research Labs Under US-EPA Contract
##OWNER=NIST Standard Reference Data Program
##CAS REGISTRY NO=55129-21-0
##MOLFORM=C 12 H 18 O 2
##XUNITS=1/CM
##YUNITS=ABSORBANCE
##XFACTOR=1.0
##YFACTOR=0.000113333
##DELTAX=4.0
##FIRSTX=450.0
##LASTX=3966.0
##FIRSTY=0.039553
##MAXX=3966
##MINX=450
##MAXY=1.13333
##MINY=0
##NPOINTS=880
##XYDATA=(X++(Y..Y))
450.0 349 297 341 323 246 288 284 308 339 344
490.0 337 330 342 319 297 266 225 195 171 173
530.0 143 156 160 191 170 200 203 207 229 202
570.0 243 243 311 390 485 595 628 606 522 453
610.0 349 286 198 151 107 83 58 47 29 18
650.0 15 11 18 3 17 10 2 4 7 9
690.0 6 15 4 18 19 35 52 86 126 183
730.0 223 272 317 320 295 217 174 123 117 113
770.0 87 102 88 106 110 201 307 763 1441 2395
810.0 3100 2469 1466 813 374 329 302 416 505 591
850.0 655 725 784 814 864 843 843 812 845 877
890.0 942 988 985 903 732 579 462 410 407 453
930.0 523 642 798 969 1124 1265 1340 1278 1111 893
970.0 727 660 667 721 813 924 1038 1151 1245 1336
1010.0 1428 1586 1853 2323 3035 4063 5295 6422 7023 6832
1050.0 6050 5118 4453 4007 3773 3651 3670 3719 3628 3457
1090.0 3388 3573 3869 3981 3687 3043 2338 1825 1531 1396
1130.0 1410 1577 1850 2121 2436 2857 3334 3762 3949 3799
1170.0 3385 2828 2196 1691 1371 1223 1184 1241 1350 1431
1210.0 1433 1354 1286 1294 1444 1753 2281 3078 4185 5532
1250.0 6916 7894 7962 7117 5786 4644 4002 3839 3841 3686
1290.0 3158 2349 1636 1243 1074 993 959 949 999 1104
1330.0 1271 1501 1801 2133 2345 2306 2085 1880 1882 2101
1370.0 2090 1903 1728 1616 1591 1610 1640 1766 2037 2410
1410.0 2844 3295 3611 3639 3323 2793 2266 1876 1648 1578
1450.0 1650 1879 2151 2291 2208 1949 1684 1570 1609 1734
1490.0 2075 2715 3657 4538 4711 3961 2773 1701 1228 1044
1530.0 974 891 813 717 665 664 688 751 910 1146
1570.0 1421 1665 1721 1539 1200 903 822 974 1337 1815
1610.0 2219 2330 2131 1680 1178 763 465 299 230 188
1650.0 153 143 142 123 116 103 99 109 100 95
1690.0 102 101 88 87 90 102 92 84 84 79
1730.0 71 65 89 109 120 107 102 73 58 50
1770.0 43 30 37 33 36 26 25 19 10 20
1810.0 11 10 10 7 6 3 7 17 11 16
1850.0 25 38 49 67 86 118 165 183 180 145
1890.0 109 83 72 68 64 59 55 48 40 35
1930.0 34 28 29 26 28 30 32 33 34 34
1970.0 40 39 40 40 38 33 29 30 25 21
2010.0 17 11 7 7 2 4 3 1 0 0
2050.0 2 3 5 9 14 21 24 31 35 37
2090.0 39 34 34 31 28 25 25 20 19 20
2130.0 19 18 20 17 19 19 18 14 11 8
2170.0 7 7 2 2 0 0 3 1 3 4
2210.0 4 7 11 11 14 14 16 20 22 20
2250.0 17 15 9 9 8 10 7 6 8 7
2290.0 10 15 19 24 29 28 22 19 21 15
2330.0 14 11 9 21 39 25 15 15 17 23
2370.0 30 36 45 45 41 33 32 40 47 52
2410.0 53 57 56 55 51 48 41 38 38 37
2450.0 37 34 35 33 32 30 30 28 24 26
2490.0 28 30 30 31 33 36 43 44 47 52
2530.0 59 63 68 71 66 63 56 53 49 44
2570.0 45 43 41 43 44 50 50 55 57 56
2610.0 51 48 44 38 33 36 34 36 36 39
2650.0 46 50 56 64 69 78 81 88 93 96
2690.0 102 104 112 121 131 149 171 201 226 248
2730.0 271 281 291 291 278 251 228 222 224 228
2770.0 230 226 232 238 252 264 277 295 311 332
2810.0 353 378 406 428 455 493 546 608 703 828
2850.0 981 1181 1447 1841 2405 3184 4067 4831 5167 4955
2890.0 4426 3957 3699 3623 3648 3762 4010 4425 5063 5865
2930.0 6707 7300 7527 7217 6603 6103 6034 6772 8277 9743
2970.0 10000 8876 6734 4925 3651 2777 2237 1848 1607 1456
3010.0 1373 1349 1390 1522 1699 1854 1904 1816 1670 1546
3050.0 1495 1475 1409 1272 1107 967 858 787 713 627
3090.0 529 432 352 301 273 252 240 230 218 199
3130.0 180 157 138 120 110 103 97 89 92 95
3170.0 90 86 89 87 81 80 72 68 67 64
3210.0 59 55 49 42 41 36 37 29 25 26
3250.0 21 20 18 17 15 13 12 12 12 4
3290.0 9 9 11 6 5 5 9 9 7 5
3330.0 11 1 5 7 15 13 17 11 12 21
3370.0 18 18 13 16 15 11 15 19 16 15
3410.0 16 12 22 17 15 10 14 11 10 9
3450.0 10 8 14 14 10 17 20 14 23 23
3490.0 22 22 24 26 21 22 23 18 29 31
3530.0 39 37 36 32 45 49 38 37 36 46
3570.0 45 46 43 53 65 85 75 88 112 137
3610.0 181 216 266 341 480 769 1090 1258 1209 972
3650.0 737 574 526 518 526 520 478 445 378 331
3690.0 276 188 131 114 81 94 80 68 69 65
3730.0 57 71 62 53 73 68 54 27 28 27
3770.0 27 30 46 43 29 32 25 32 27 16
3810.0 9 10 20 15 10 16 16 27 19 12
3850.0 19 36 20 4 8 15 16 3 14 34
3890.0 19 23 9 18 16 12 0 24 20 23
3930.0 22 20 8 8 14 13 4 17 5 27
##END=
