##TITLE=Ethanone, 1,2-di-2-furanyl-2-hydroxy-
##JCAMP-DX=4.24
##DATA TYPE=INFRARED SPECTRUM
##ORIGIN=Sadtler Research Labs Under US-EPA Contract
##OWNER=NIST Standard Reference Data Program
##CAS REGISTRY NO=552-86-3
##MOLFORM=C 10 H 8 O 4
##XUNITS=1/CM
##YUNITS=ABSORBANCE
##XFACTOR=1.0
##YFACTOR=0.000064484
##DELTAX=4.0
##FIRSTX=450.0
##LASTX=3966.0
##FIRSTY=0.014960
##MAXX=3966
##MINX=450
##MAXY=0.64484
##MINY=0
##NPOINTS=880
##XYDATA=(X++(Y..Y))
450.0 232 255 82 121 169 185 177 167 207 390
490.0 403 466 393 348 202 100 102 61 10 31
530.0 46 31 48 24 108 84 92 196 318 450
570.0 559 570 587 685 1022 1577 1894 1716 1215 666
610.0 392 281 200 196 165 135 164 181 187 181
650.0 167 158 167 191 203 284 276 253 320 363
690.0 491 586 748 890 987 1026 1059 1122 1355 2157
730.0 3530 4701 5123 5341 5739 7067 8397 8383 6410 4181
770.0 2566 1690 1373 1352 1554 1711 1777 1735 1709 1675
810.0 1678 1736 1636 1480 1322 1105 953 937 909 782
850.0 525 277 160 141 178 282 635 1365 2247 2572
890.0 2531 1892 1419 1380 1266 1053 816 626 538 600
930.0 797 985 1076 1070 881 653 512 411 433 535
970.0 766 1108 1601 1981 2122 2108 2079 2372 3272 5162
1010.0 7120 8028 7924 6542 4822 3465 2426 1679 1179 920
1050.0 788 754 810 960 1257 1722 2274 2798 2988 2783
1090.0 2334 1843 1563 1368 1108 814 556 386 290 284
1130.0 409 721 1201 1736 2255 2694 2842 2729 2373 1758
1170.0 1226 893 677 564 505 464 430 428 474 579
1210.0 788 1105 1478 1962 2388 2502 2392 2108 1958 2022
1250.0 2184 2373 2455 2444 2414 2592 3033 3510 3760 3694
1290.0 3326 2790 2248 1774 1420 1136 949 805 705 632
1330.0 569 540 496 532 565 626 702 832 1039 1359
1370.0 1745 2232 2743 3266 3582 3622 3170 2417 1672 1217
1410.0 931 761 599 518 426 379 354 390 489 619
1450.0 973 1628 2904 4123 4966 5247 4521 3647 2528 1557
1490.0 996 851 877 890 837 701 554 414 314 241
1530.0 239 246 330 372 564 823 1265 1711 2471 3058
1570.0 3442 3349 2885 2087 1411 1081 977 865 711 543
1610.0 396 321 263 263 266 304 363 365 452 520
1650.0 650 822 1171 1444 1986 2780 4146 5730 7002 7966
1690.0 8542 9267 9978 10000 8535 6577 4450 2997 2039 1519
1730.0 1074 821 658 552 476 407 453 406 426 391
1770.0 379 258 255 218 241 200 200 186 166 185
1810.0 148 134 118 114 77 68 54 70 48 41
1850.0 42 44 27 29 18 5 29 30 40 32
1890.0 41 47 44 49 40 43 37 42 28 36
1930.0 50 43 52 36 55 56 63 65 74 63
1970.0 67 71 67 74 74 74 73 87 89 95
2010.0 100 102 103 113 112 111 108 101 95 98
2050.0 96 93 92 96 94 107 112 122 131 144
2090.0 144 149 148 144 136 125 125 110 96 85
2130.0 76 74 74 75 76 80 77 82 86 89
2170.0 88 94 94 87 84 75 75 71 70 67
2210.0 71 66 69 71 78 86 88 90 88 90
2250.0 81 74 67 63 62 60 63 70 64 67
2290.0 72 85 98 113 115 129 123 114 126 109
2330.0 91 93 86 94 127 119 125 104 112 96
2370.0 82 95 119 122 108 90 88 82 74 63
2410.0 52 46 37 37 27 30 34 37 46 50
2450.0 57 70 72 68 70 67 66 63 57 52
2490.0 40 33 26 17 8 6 5 7 12 8
2530.0 13 21 29 32 41 51 54 57 49 41
2570.0 33 22 22 19 16 18 17 20 23 26
2610.0 27 40 43 52 56 67 62 64 58 54
2650.0 52 46 46 42 39 33 28 30 30 42
2690.0 47 50 55 48 48 45 42 38 38 42
2730.0 42 32 28 27 30 41 39 38 38 45
2770.0 52 51 54 57 62 71 70 67 67 67
2810.0 63 70 74 75 85 79 88 100 109 124
2850.0 146 158 166 170 170 164 167 164 165 172
2890.0 180 199 225 241 257 278 288 299 304 293
2930.0 272 247 222 196 176 160 145 137 130 124
2970.0 122 122 110 100 87 78 73 57 49 40
3010.0 32 36 24 29 30 30 22 27 27 23
3050.0 23 24 32 44 42 41 41 41 38 38
3090.0 40 32 43 42 52 65 98 153 211 267
3130.0 279 243 189 127 121 134 164 163 161 125
3170.0 88 56 42 38 30 33 30 25 30 28
3210.0 28 25 20 22 26 24 25 21 29 21
3250.0 24 21 24 19 24 32 28 28 17 34
3290.0 23 28 24 32 21 19 26 29 26 41
3330.0 46 53 65 67 70 84 86 107 120 129
3370.0 136 150 156 146 130 117 104 96 85 68
3410.0 63 64 67 66 78 74 80 90 83 95
3450.0 91 108 133 147 164 187 217 265 335 402
3490.0 482 578 652 737 802 859 957 998 1028 996
3530.0 919 835 745 690 655 566 529 478 431 446
3570.0 403 358 314 272 264 230 201 134 145 110
3610.0 153 110 114 121 104 188 139 143 151 115
3650.0 131 93 75 65 33 84 29 68 0 42
3690.0 31 29 22 32 25 34 39 29 16 34
3730.0 33 51 57 32 122 6 63 15 22 26
3770.0 15 24 4 19 12 14 12 26 9 39
3810.0 12 45 32 59 54 37 53 72 57 27
3850.0 73 103 67 71 57 84 72 55 40 95
3890.0 29 68 39 77 56 41 22 34 38 21
3930.0 62 36 42 44 73 14 32 3 10 29
##END=
