##TITLE=Ethanone, 1-(2-hydroxy-4-methoxyphenyl)-
##JCAMP-DX=4.24
##DATA TYPE=INFRARED SPECTRUM
##ORIGIN=Sadtler Research Labs Under US-EPA Contract
##OWNER=NIST Standard Reference Data Program
##CAS REGISTRY NO=552-41-0
##MOLFORM=C 9 H 10 O 3
##XUNITS=1/CM
##YUNITS=ABSORBANCE
##XFACTOR=1.0
##YFACTOR=0.000115811
##DELTAX=4.0
##FIRSTX=450.0
##LASTX=3966.0
##FIRSTY=0.000000
##MAXX=3966
##MINX=450
##MAXY=1.15811
##MINY=0
##NPOINTS=880
##XYDATA=(X++(Y..Y))
450.0 0 128 156 172 74 126 104 117 107 113
490.0 104 132 157 159 204 210 236 212 272 271
530.0 288 277 252 283 302 385 512 699 916 1117
570.0 1168 1070 888 752 722 676 663 518 422 430
610.0 523 622 594 557 408 294 255 266 278 298
650.0 330 335 319 266 271 244 262 249 308 338
690.0 426 448 474 475 438 397 380 389 384 391
730.0 347 315 317 308 335 362 406 437 500 573
770.0 674 800 940 1114 1267 1364 1464 1560 1659 1445
810.0 1230 1094 869 714 597 557 578 618 814 795
850.0 714 665 602 577 480 335 249 165 105 66
890.0 55 58 67 73 84 102 131 173 244 337
930.0 448 553 698 751 719 687 602 552 681 967
970.0 1247 1325 1188 859 480 287 218 197 216 250
1010.0 341 469 682 940 1185 1284 1201 979 685 464
1050.0 370 385 498 707 884 936 855 656 452 345
1090.0 307 302 324 355 390 439 512 682 1116 2119
1130.0 3249 3532 3435 2642 2032 2147 2387 2671 2868 2904
1170.0 2912 2627 2136 1780 1736 1791 1993 2364 2796 3038
1210.0 2950 2630 1974 1619 1733 2195 3077 4546 6625 8629
1250.0 10000 9803 8840 7373 6812 6509 5797 4482 2858 1725
1290.0 1247 1127 1160 1274 1389 1524 1701 1934 2239 2511
1330.0 2559 2390 2127 1827 1798 2026 2458 3096 3915 4841
1370.0 5205 5043 4214 3167 2347 1884 1562 1332 1181 1080
1410.0 1024 1035 1051 1111 1170 1216 1248 1341 1556 1661
1450.0 1659 1706 1467 1391 1443 1360 1237 1111 1068 1110
1490.0 1384 1752 2191 2575 2799 2807 2661 2282 1951 1708
1530.0 1538 1432 1360 1370 1431 1547 1723 1931 2332 2659
1570.0 3058 3357 3639 3689 3695 3500 3250 3042 2965 3143
1610.0 3633 4667 5911 7251 7794 7954 7492 7203 7908 8898
1650.0 9939 9478 8690 6405 4213 2707 1721 1189 830 611
1690.0 514 405 349 281 298 271 268 235 236 235
1730.0 217 215 202 185 161 146 111 124 106 108
1770.0 93 92 88 76 75 75 57 66 58 61
1810.0 60 62 56 62 59 62 68 63 70 51
1850.0 73 79 88 97 112 107 125 126 114 120
1890.0 107 120 119 127 122 119 112 97 96 95
1930.0 100 95 105 99 104 104 98 93 87 84
1970.0 81 89 94 107 108 111 109 113 114 114
2010.0 110 107 100 100 95 99 105 115 119 130
2050.0 135 140 140 140 130 124 120 112 109 105
2090.0 105 102 101 97 91 82 75 67 62 58
2130.0 57 58 54 57 55 57 60 60 60 61
2170.0 64 66 68 69 73 73 75 77 73 72
2210.0 68 65 62 62 62 63 61 60 59 58
2250.0 56 55 56 56 58 60 61 64 69 73
2290.0 78 86 95 107 117 136 135 137 153 140
2330.0 150 152 145 159 199 152 224 178 224 187
2370.0 186 165 156 148 120 103 97 93 91 95
2410.0 100 100 103 103 102 104 108 107 107 108
2450.0 111 116 116 121 121 123 125 124 120 115
2490.0 115 113 108 110 111 115 119 122 126 126
2530.0 129 132 137 140 142 147 149 149 157 160
2570.0 171 184 195 200 211 218 225 231 242 252
2610.0 259 264 261 263 255 248 239 230 223 215
2650.0 216 215 216 216 223 229 238 246 245 252
2690.0 254 256 264 265 269 272 270 270 268 264
2730.0 255 247 242 241 235 234 233 228 228 232
2770.0 237 239 242 241 245 247 251 255 258 264
2810.0 274 282 296 315 333 362 413 484 596 738
2850.0 837 867 825 715 601 538 502 488 484 488
2890.0 504 524 561 609 670 742 810 860 890 904
2930.0 899 922 972 1088 1224 1324 1370 1367 1332 1304
2970.0 1299 1224 1121 1029 944 884 859 871 938 1076
3010.0 1310 1447 1417 1287 1028 834 760 709 696 695
3050.0 710 729 745 752 744 728 712 709 714 727
3090.0 736 738 725 700 674 650 626 602 584 570
3130.0 558 544 538 524 517 511 508 503 498 498
3170.0 494 490 482 478 473 471 464 456 448 441
3210.0 431 422 415 406 400 402 398 396 398 403
3250.0 405 404 404 407 414 416 408 401 394 384
3290.0 376 363 354 344 342 322 311 303 302 294
3330.0 283 278 277 269 266 256 249 242 238 231
3370.0 228 219 212 206 197 199 193 190 184 179
3410.0 169 173 169 165 162 152 149 147 147 142
3450.0 142 134 130 125 123 121 121 115 117 118
3490.0 108 109 107 104 109 100 102 94 98 106
3530.0 99 92 89 87 101 90 96 91 81 108
3570.0 82 89 82 91 98 85 99 75 89 80
3610.0 95 84 91 96 74 94 88 77 89 72
3650.0 108 77 66 90 60 105 65 109 52 90
3690.0 67 88 71 75 81 84 79 77 77 85
3730.0 74 87 86 95 84 83 101 58 75 76
3770.0 77 72 69 76 76 74 86 73 91 78
3810.0 69 92 72 96 66 79 87 83 79 92
3850.0 69 90 94 65 96 93 80 73 108 62
3890.0 104 80 94 80 96 80 88 94 92 96
3930.0 77 99 88 79 79 94 81 105 96 100
##END=
