##TITLE=Benzophenone, 2pr-chloro-2-hydroxy
##JCAMP-DX=4.24
##DATA TYPE=INFRARED SPECTRUM
##ORIGIN=Sadtler Research Labs Under US-EPA Contract
##OWNER=NIST Standard Reference Data Program
##CAS REGISTRY NO=55270-71-8
##MOLFORM=C 13 H 9 Cl O 2
##XUNITS=1/CM
##YUNITS=ABSORBANCE
##XFACTOR=1.0
##YFACTOR=0.000048489
##DELTAX=4.0
##FIRSTX=450.0
##LASTX=3966.0
##FIRSTY=0.000000
##MAXX=3966
##MINX=450
##MAXY=0.48489
##MINY=0
##NPOINTS=880
##XYDATA=(X++(Y..Y))
450.0 0 429 477 901 494 969 696 717 570 610
490.0 396 284 356 263 308 189 467 327 533 545
530.0 623 496 427 488 480 643 512 494 297 325
570.0 278 272 277 325 388 334 392 353 397 313
610.0 385 343 365 405 526 917 1835 2956 3117 2417
650.0 1277 776 609 545 564 768 898 1099 1258 1209
690.0 1211 1118 1188 1236 1319 1340 1384 1476 1557 1743
730.0 1969 2647 3536 4523 5021 5757 6126 5729 4236 2573
770.0 1539 986 792 632 532 504 495 509 474 482
810.0 463 574 815 1197 1415 1340 948 585 450 382
850.0 406 413 550 581 526 414 352 332 315 323
890.0 319 348 331 378 364 390 451 534 825 1515
930.0 2951 4117 4211 3390 2362 1832 1146 472 290 295
970.0 285 302 289 307 288 296 309 332 334 329
1010.0 357 377 452 578 831 1116 1289 1146 903 794
1050.0 1010 1412 1642 1562 1129 734 492 438 423 420
1090.0 430 453 534 653 948 1280 1503 1424 1215 1050
1130.0 1070 1172 1714 3092 3967 3748 2475 1547 1315 1147
1170.0 980 1009 1066 1097 1159 1196 1227 1241 1373 1694
1210.0 2274 3124 3999 4553 4498 4302 4293 4877 5568 5773
1250.0 5127 4253 3971 3972 3633 2747 1887 1445 1342 1387
1290.0 1555 1927 2694 4058 5757 7084 6930 5891 4727 4509
1330.0 4587 4471 3954 3039 2311 1872 1641 1397 1264 1136
1370.0 1067 1045 1021 1072 1128 1218 1218 1267 1205 1265
1410.0 1296 1345 1446 1579 1914 2351 2788 2827 2731 2603
1450.0 2949 3336 3704 3720 3460 3398 3427 3857 3952 3964
1490.0 3283 2511 1967 1617 1622 1353 1077 865 852 800
1530.0 721 767 729 825 785 840 941 1098 1487 1847
1570.0 2572 2985 3226 3192 3243 3310 3201 2751 2692 2881
1610.0 3455 4039 4349 4233 3817 4386 5611 8128 9902 10000
1650.0 8463 6596 4213 3306 2373 1988 1286 1227 910 939
1690.0 748 786 791 638 637 495 550 477 504 403
1730.0 424 436 386 352 355 421 318 369 342 359
1770.0 329 347 311 321 324 366 413 441 530 491
1810.0 457 382 322 297 305 338 339 311 308 302
1850.0 252 221 231 231 253 248 249 239 265 279
1890.0 289 280 265 269 282 319 369 417 417 378
1930.0 299 273 278 346 404 423 398 330 270 236
1970.0 238 216 213 211 203 213 203 209 195 204
2010.0 188 202 198 202 199 194 202 197 206 192
2050.0 196 202 201 203 212 205 200 202 196 203
2090.0 200 197 196 193 190 193 196 199 215 211
2130.0 219 222 225 208 200 205 193 195 198 203
2170.0 196 202 197 198 190 196 198 194 195 193
2210.0 190 187 196 192 190 192 195 198 192 203
2250.0 204 215 224 230 226 235 233 234 242 247
2290.0 255 251 259 261 271 277 281 277 280 276
2330.0 275 272 245 262 290 253 299 268 295 275
2370.0 298 265 268 268 256 238 236 234 222 220
2410.0 219 225 220 220 221 223 219 225 226 225
2450.0 236 231 233 231 235 230 237 240 239 238
2490.0 234 237 234 240 237 243 241 246 247 242
2530.0 245 253 264 264 280 283 293 295 295 306
2570.0 299 304 306 298 297 293 290 295 302 305
2610.0 307 313 320 333 331 333 334 316 323 325
2650.0 321 320 305 314 298 290 288 289 290 298
2690.0 302 307 324 327 340 339 338 343 344 337
2730.0 334 339 331 332 341 336 337 342 342 334
2770.0 343 347 351 347 347 344 347 348 342 351
2810.0 363 368 373 383 377 382 373 376 378 370
2850.0 367 365 367 365 367 367 374 364 373 376
2890.0 381 394 391 395 402 409 410 414 414 423
2930.0 425 425 424 424 422 426 431 423 434 436
2970.0 441 464 464 481 476 498 502 508 519 555
3010.0 580 616 650 672 711 735 772 815 892 959
3050.0 1049 1165 1336 1620 1869 2080 2163 2130 1981 1764
3090.0 1552 1383 1224 1089 1001 958 945 932 920 913
3130.0 922 921 918 915 907 901 896 890 897 911
3170.0 919 925 934 928 930 918 933 921 911 900
3210.0 890 873 868 860 856 854 855 848 838 860
3250.0 857 850 846 834 836 838 822 817 813 800
3290.0 812 820 778 764 770 763 722 714 713 710
3330.0 688 687 678 660 657 649 638 629 624 614
3370.0 592 580 578 551 548 534 527 538 516 509
3410.0 492 487 488 479 465 450 461 452 443 414
3450.0 418 424 431 392 385 396 386 381 366 356
3490.0 368 364 346 347 333 336 345 335 314 297
3530.0 317 317 304 312 281 308 299 314 304 273
3570.0 278 292 308 300 290 277 283 297 254 272
3610.0 256 275 244 255 268 222 266 269 277 284
3650.0 239 292 273 274 274 212 256 187 276 210
3690.0 242 246 270 253 241 273 230 237 258 232
3730.0 251 231 293 224 245 224 190 258 249 271
3770.0 255 252 261 250 251 252 257 244 197 251
3810.0 239 231 257 207 256 250 231 205 237 231
3850.0 258 201 230 257 231 221 268 257 197 263
3890.0 232 275 244 240 224 271 226 240 273 242
3930.0 247 236 235 254 270 228 254 240 245 244
##END=
