##TITLE=2-Coumaranone
##JCAMP-DX=4.24
##DATA TYPE=INFRARED SPECTRUM
##ORIGIN=Sadtler Research Labs Under US-EPA Contract
##OWNER=NIST Standard Reference Data Program
##CAS REGISTRY NO=553-86-6
##MOLFORM=C 8 H 6 O 2
##XUNITS=1/CM
##YUNITS=ABSORBANCE
##XFACTOR=1.0
##YFACTOR=0.000145010
##DELTAX=4.0
##FIRSTX=450.0
##LASTX=3966.0
##FIRSTY=0.011601
##MAXX=3966
##MINX=450
##MAXY=1.4501
##MINY=0
##NPOINTS=880
##XYDATA=(X++(Y..Y))
450.0 80 65 30 2 19 49 50 65 58 66
490.0 53 73 70 91 68 112 163 127 100 86
530.0 95 108 140 157 192 182 179 177 163 107
570.0 85 70 69 80 86 94 87 88 79 48
610.0 39 25 30 27 23 16 29 31 38 56
650.0 50 66 78 118 131 173 142 158 154 112
690.0 83 97 107 124 158 179 163 138 173 223
730.0 360 518 736 930 1035 1760 1338 843 854 573
770.0 369 199 119 80 70 97 114 181 253 353
810.0 420 494 522 507 471 392 326 252 213 153
850.0 156 115 104 113 134 236 537 1290 2175 2551
890.0 2468 2416 1874 722 235 164 133 120 98 80
930.0 70 74 79 91 101 121 155 151 123 108
970.0 93 71 58 47 42 44 53 72 128 204
1010.0 265 322 401 510 639 907 1295 1900 2703 3471
1050.0 4090 4201 3781 3050 2110 925 346 206 145 137
1090.0 155 208 296 448 665 879 980 1051 1099 994
1130.0 852 750 646 559 475 374 277 202 155 119
1170.0 113 128 163 231 333 442 484 487 550 601
1210.0 625 687 761 1008 1472 1812 1791 1727 1691 1166
1250.0 501 236 166 134 120 108 128 164 280 422
1290.0 501 499 509 449 320 259 265 262 280 294
1330.0 291 254 175 161 157 136 128 116 103 108
1370.0 109 91 96 111 101 133 162 204 238 231
1410.0 231 236 110 120 95 106 75 99 155 224
1450.0 386 663 1084 1453 1628 1796 1827 1581 1321 1189
1490.0 949 761 444 215 103 44 69 41 16 54
1530.0 47 63 44 3 36 89 82 30 81 108
1570.0 97 105 141 180 278 347 423 462 533 555
1610.0 564 609 602 587 508 456 311 215 210 178
1650.0 114 96 127 123 117 101 66 108 51 38
1690.0 76 92 34 42 71 104 85 47 108 134
1730.0 114 72 120 123 96 82 124 143 171 216
1770.0 220 224 270 262 284 288 314 366 426 516
1810.0 604 776 1168 2074 3962 6987 9105 10000 9895 9473
1850.0 5314 2428 1287 874 602 425 338 280 231 192
1890.0 159 150 151 142 137 134 140 148 156 184
1930.0 210 224 232 196 174 152 119 96 84 71
1970.0 71 72 74 73 75 67 74 84 90 91
2010.0 93 88 77 77 78 76 77 74 72 76
2050.0 76 75 75 77 76 87 95 104 114 123
2090.0 133 144 148 148 148 143 140 129 117 106
2130.0 98 87 77 69 70 75 78 81 86 87
2170.0 89 88 84 81 73 66 63 59 55 52
2210.0 54 54 52 53 55 57 61 63 68 71
2250.0 72 73 75 73 74 76 81 85 87 89
2290.0 90 85 86 81 78 81 84 77 77 72
2330.0 72 69 61 57 75 71 77 69 61 56
2370.0 54 55 55 56 49 42 38 38 35 32
2410.0 30 31 32 30 31 30 32 31 32 30
2450.0 34 34 41 42 44 44 42 41 37 36
2490.0 35 35 31 32 32 32 34 36 36 34
2530.0 34 30 29 26 27 22 23 25 24 21
2570.0 21 20 19 19 18 18 20 19 20 23
2610.0 20 20 17 18 15 15 16 17 18 19
2650.0 21 21 19 21 19 13 11 12 8 11
2690.0 12 11 11 8 9 8 6 7 6 9
2730.0 6 8 4 7 4 0 1 5 6 3
2770.0 3 4 6 6 10 13 11 14 13 14
2810.0 9 6 5 8 8 6 9 6 5 6
2850.0 7 7 10 8 9 13 12 11 7 11
2890.0 9 11 12 11 12 16 14 17 22 34
2930.0 74 113 128 119 128 105 57 33 28 24
2970.0 21 19 19 13 12 8 12 15 9 6
3010.0 8 17 29 36 53 78 110 146 180 199
3050.0 215 274 310 310 312 313 309 292 280 272
3090.0 254 208 160 130 108 77 60 43 33 28
3130.0 23 19 17 14 11 10 6 9 14 9
3170.0 13 13 10 15 8 10 7 16 9 11
3210.0 8 6 6 9 9 8 10 10 7 7
3250.0 9 12 8 6 7 5 12 10 8 7
3290.0 5 5 9 11 11 12 10 8 13 9
3330.0 8 16 13 11 9 9 11 10 7 6
3370.0 14 7 7 5 14 9 9 10 11 10
3410.0 8 2 8 5 10 10 14 12 7 14
3450.0 11 10 14 15 13 10 15 7 12 13
3490.0 9 0 8 14 7 9 16 0 11 14
3530.0 14 14 11 16 11 14 20 18 13 19
3570.0 15 14 7 14 18 9 13 12 10 7
3610.0 13 14 22 20 13 31 17 32 49 63
3650.0 102 112 125 125 109 91 54 36 7 6
3690.0 2 12 8 18 13 18 17 22 9 8
3730.0 14 22 26 17 30 9 24 6 7 14
3770.0 11 9 7 16 7 9 11 9 8 10
3810.0 0 7 14 13 13 14 10 14 20 11
3850.0 8 11 5 13 9 10 17 16 21 32
3890.0 16 10 6 21 14 17 20 27 23 14
3930.0 12 19 18 11 14 14 24 15 19 23
##END=
