##TITLE=Benzene, 2,4-dichloro-1-methoxy-
##JCAMP-DX=4.24
##DATA TYPE=INFRARED SPECTRUM
##ORIGIN=Sadtler Research Labs Under US-EPA Contract
##OWNER=NIST Standard Reference Data Program
##CAS REGISTRY NO=553-82-2
##MOLFORM=C 7 H 6 Cl 2 O
##XUNITS=1/CM
##YUNITS=ABSORBANCE
##XFACTOR=1.0
##YFACTOR=0.000107065
##DELTAX=4.0
##FIRSTX=450.0
##LASTX=3966.0
##FIRSTY=0.002034
##MAXX=3966
##MINX=450
##MAXY=1.07065
##MINY=0
##NPOINTS=880
##XYDATA=(X++(Y..Y))
450.0 19 13 73 41 64 6 53 83 88 71
490.0 68 67 29 50 64 79 22 123 80 87
530.0 57 72 66 81 127 167 243 297 448 360
570.0 323 260 232 198 161 88 64 67 71 82
610.0 77 72 57 70 84 143 281 773 1338 1446
650.0 1323 661 151 68 38 54 66 65 78 123
690.0 165 286 515 830 1316 1776 2104 1943 1590 1016
730.0 638 492 398 303 245 196 149 117 96 104
770.0 87 105 129 169 298 503 778 1122 1513 1353
810.0 1215 1104 939 889 960 1237 1645 1917 1782 1348
850.0 693 347 337 528 718 1034 1213 724 525 283
890.0 121 72 57 58 52 65 49 57 54 61
930.0 50 61 58 51 57 56 67 59 88 93
970.0 115 117 146 165 195 248 304 391 509 702
1010.0 952 1270 1548 1711 1738 1627 1437 1143 852 611
1050.0 626 912 1477 2144 2718 2930 2622 2082 1299 832
1090.0 795 1123 1774 2462 2899 2754 2276 1593 1036 744
1130.0 562 434 404 394 375 336 289 230 190 186
1170.0 190 237 310 375 382 376 318 272 263 252
1210.0 279 305 358 432 564 758 1038 1448 2011 2758
1250.0 3513 4243 4851 5351 5496 5114 4394 3523 3304 3641
1290.0 4140 4072 3387 2234 1065 492 325 245 194 156
1330.0 139 145 167 171 152 182 196 237 275 283
1370.0 311 395 553 696 860 870 825 635 457 345
1410.0 295 319 457 667 1013 1525 1825 2128 2274 2126
1450.0 1966 1700 1670 2255 2928 3716 5125 6901 7585 10000
1490.0 9412 9246 6772 4681 2939 1553 987 604 462 297
1530.0 243 217 203 240 201 185 233 330 403 465
1570.0 616 699 782 824 796 780 688 589 431 307
1610.0 203 140 135 96 105 71 98 99 75 86
1650.0 127 115 91 63 81 86 120 70 117 126
1690.0 80 68 122 132 108 97 129 186 127 116
1730.0 161 205 189 181 186 166 115 84 78 50
1770.0 70 68 37 48 46 63 73 65 72 44
1810.0 39 36 26 31 44 57 69 78 115 129
1850.0 110 86 79 75 86 102 66 57 45 42
1890.0 41 36 30 28 35 39 42 43 51 38
1930.0 40 49 50 64 55 42 36 49 52 70
1970.0 63 62 60 53 53 60 59 51 59 64
2010.0 65 67 69 64 57 58 54 51 46 44
2050.0 44 49 52 57 63 51 46 40 43 48
2090.0 58 64 70 75 71 67 57 50 45 45
2130.0 43 41 36 28 23 16 10 9 9 5
2170.0 8 10 12 19 21 27 26 30 26 31
2210.0 30 28 23 24 23 20 19 13 10 4
2250.0 5 5 4 7 9 9 9 17 21 22
2290.0 21 25 23 26 30 29 31 28 32 32
2330.0 24 14 9 0 0 0 0 0 0 0
2370.0 0 0 0 0 0 0 0 0 2 2
2410.0 6 6 10 9 10 12 9 9 3 5
2450.0 2 0 1 1 2 3 8 4 5 8
2490.0 11 12 16 22 27 33 40 51 61 76
2530.0 82 92 97 94 94 86 74 62 49 34
2570.0 29 20 23 21 21 19 20 20 15 17
2610.0 18 24 17 20 19 19 20 22 25 24
2650.0 27 19 16 17 15 20 19 25 22 21
2690.0 21 23 16 18 20 17 20 22 24 25
2730.0 29 30 33 28 33 34 33 33 34 36
2770.0 34 38 40 42 50 52 58 62 74 84
2810.0 108 128 154 176 211 257 341 472 659 829
2850.0 895 863 704 506 366 286 257 241 248 259
2890.0 289 323 380 446 508 566 589 612 598 544
2930.0 531 597 771 1088 1349 1446 1455 1293 1135 1070
2970.0 939 764 601 466 378 334 326 341 411 551
3010.0 791 1022 1065 923 646 382 258 206 180 166
3050.0 150 148 143 147 155 178 205 241 254 249
3090.0 217 183 150 122 103 85 73 55 50 43
3130.0 44 39 38 38 38 37 34 35 31 31
3170.0 30 27 30 28 27 27 24 24 21 19
3210.0 21 21 18 21 18 22 18 18 17 11
3250.0 16 19 16 18 11 11 10 14 11 11
3290.0 17 10 14 12 11 15 17 11 11 17
3330.0 14 12 12 15 16 12 14 22 20 18
3370.0 16 15 14 7 16 14 14 14 19 16
3410.0 19 17 19 16 13 13 11 21 20 12
3450.0 11 14 14 10 13 17 19 14 15 14
3490.0 18 12 19 12 11 13 17 18 13 9
3530.0 9 15 18 16 6 6 19 19 18 6
3570.0 16 21 19 18 8 16 12 6 18 12
3610.0 14 8 19 12 22 16 12 20 3 11
3650.0 10 13 22 14 27 3 6 7 18 16
3690.0 27 23 19 22 18 16 18 23 16 25
3730.0 16 27 22 27 16 35 18 44 30 29
3770.0 23 19 25 20 19 19 27 22 18 16
3810.0 42 25 37 21 31 32 16 21 26 34
3850.0 26 25 40 28 35 32 40 36 38 33
3890.0 26 27 39 14 26 48 39 43 56 52
3930.0 54 55 40 45 42 45 40 50 44 55
##END=
