##TITLE=Benzenamine, N,N-bis(2-chloroethyl)-
##JCAMP-DX=4.24
##DATA TYPE=INFRARED SPECTRUM
##ORIGIN=Sadtler Research Labs Under US-EPA Contract
##OWNER=NIST Standard Reference Data Program
##CAS REGISTRY NO=553-27-5
##MOLFORM=C 10 H 13 Cl 2 N
##XUNITS=1/CM
##YUNITS=ABSORBANCE
##XFACTOR=1.0
##YFACTOR=0.000044608
##DELTAX=4.0
##FIRSTX=450.0
##LASTX=3966.0
##FIRSTY=0.008832
##MAXX=3966
##MINX=450
##MAXY=0.44608
##MINY=0
##NPOINTS=880
##XYDATA=(X++(Y..Y))
450.0 198 320 253 160 217 259 249 299 312 295
490.0 368 353 393 391 376 293 340 332 288 370
530.0 321 359 466 461 476 557 640 680 625 552
570.0 471 461 335 298 192 162 80 9 14 20
610.0 52 32 54 55 96 61 98 143 166 273
650.0 302 457 611 1068 1327 1836 1903 1787 1866 2233
690.0 2905 3067 2814 2271 1848 1567 1520 1571 1692 1748
730.0 1706 1774 2169 3037 4058 4716 4768 4599 4144 3615
770.0 3050 2451 1946 1527 1178 1001 828 674 559 481
810.0 440 396 351 310 283 260 275 289 285 309
850.0 352 389 405 473 482 485 428 369 305 273
890.0 255 247 269 282 338 416 519 648 794 842
930.0 804 719 659 589 586 612 637 667 677 655
970.0 593 542 520 533 618 784 945 991 921 812
1010.0 753 774 788 843 956 1084 1069 904 656 466
1050.0 352 324 333 347 362 339 316 296 287 265
1090.0 256 288 304 375 435 527 626 751 920 1192
1130.0 1572 1988 2254 2304 2192 2102 2067 2047 2020 2145
1170.0 2556 3194 3733 3793 3355 2768 2457 2454 2476 2418
1210.0 2269 2144 2074 2094 2204 2397 2616 2798 2985 3194
1250.0 3396 3412 3173 2789 2529 2429 2326 2179 1961 1781
1290.0 1688 1703 1748 1786 1770 1738 1692 1623 1602 1657
1330.0 1825 2107 2542 3058 3633 4112 4262 4017 3452 2825
1370.0 2290 1963 1719 1564 1419 1233 1019 800 603 481
1410.0 424 386 437 444 525 694 1034 1445 1815 2108
1450.0 2244 2199 1991 1692 1486 1417 1452 1513 1809 2516
1490.0 3971 6287 8847 10000 8817 5890 3364 1852 1298 906
1530.0 773 614 587 592 580 567 611 696 740 851
1570.0 1064 1360 1758 2214 2783 3763 5153 6661 7112 6252
1610.0 4482 2788 1766 1157 845 589 483 380 290 251
1650.0 230 218 186 146 148 161 165 138 175 176
1690.0 146 150 203 210 205 198 215 256 217 208
1730.0 210 237 184 179 196 212 220 222 230 198
1770.0 206 168 134 113 108 98 101 77 86 72
1810.0 71 77 74 92 90 100 77 79 74 85
1850.0 59 51 52 44 52 55 49 41 49 51
1890.0 68 78 87 109 123 155 176 197 195 166
1930.0 159 163 163 145 121 78 62 38 33 20
1970.0 17 6 0 9 2 13 14 11 3 14
2010.0 6 16 9 15 11 21 18 20 17 22
2050.0 20 17 22 26 30 30 24 22 19 18
2090.0 11 13 11 17 8 4 8 2 7 4
2130.0 3 2 3 2 2 4 5 3 4 11
2170.0 7 5 0 2 7 10 5 8 7 20
2210.0 20 15 16 18 21 10 8 6 8 4
2250.0 3 3 3 1 9 15 13 19 28 42
2290.0 60 81 98 98 111 138 117 119 114 90
2330.0 77 58 65 69 103 102 93 67 69 73
2370.0 83 86 84 92 74 38 18 23 12 17
2410.0 18 23 23 33 24 22 26 29 38 43
2450.0 48 43 41 36 40 26 27 29 28 21
2490.0 28 27 29 25 29 25 40 39 42 50
2530.0 57 56 60 59 61 56 62 61 70 63
2570.0 66 66 67 68 60 69 64 73 61 62
2610.0 57 57 64 67 61 62 58 55 57 64
2650.0 68 60 72 71 81 89 87 98 102 109
2690.0 123 121 145 151 154 159 161 153 156 156
2730.0 159 148 156 158 167 181 179 178 177 193
2770.0 199 210 214 223 243 260 296 351 405 460
2810.0 540 613 675 720 757 803 858 892 958 1016
2850.0 1090 1151 1177 1190 1185 1200 1212 1272 1352 1373
2890.0 1337 1241 1152 1068 1007 991 977 992 1008 1041
2930.0 1075 1111 1114 1140 1208 1331 1610 2052 2584 2839
2970.0 2782 2495 2104 1718 1347 1091 985 1018 1210 1489
3010.0 1691 1624 1359 1124 1091 1223 1385 1533 1615 1609
3050.0 1496 1341 1207 1243 1475 1839 2061 1951 1576 1197
3090.0 1074 1124 1172 1079 897 708 557 432 317 233
3130.0 167 126 90 74 61 60 42 35 36 25
3170.0 30 22 23 13 19 14 25 18 10 20
3210.0 30 26 19 16 14 10 12 17 10 15
3250.0 17 13 27 20 13 25 16 16 19 20
3290.0 13 16 13 15 5 8 24 8 14 18
3330.0 21 16 25 20 5 17 13 24 27 29
3370.0 20 21 10 10 9 24 34 21 34 45
3410.0 31 31 22 35 29 21 35 28 30 31
3450.0 33 35 43 38 26 19 31 16 15 16
3490.0 19 11 24 45 14 13 28 31 45 27
3530.0 14 23 21 0 27 24 24 23 16 53
3570.0 35 26 43 20 35 16 22 15 11 13
3610.0 46 25 39 20 18 70 31 29 27 17
3650.0 72 28 21 32 30 58 23 70 29 41
3690.0 15 13 43 28 18 33 33 47 56 33
3730.0 60 50 29 50 85 36 64 51 24 41
3770.0 35 40 31 54 44 43 11 58 18 21
3810.0 28 59 43 49 37 54 49 27 56 24
3850.0 27 48 54 65 46 64 50 30 24 58
3890.0 34 63 37 79 50 20 41 63 59 10
3930.0 68 34 34 27 47 19 25 9 45 80
##END=
