##TITLE=Benzene, 2-bromo-1,4-dimethyl-
##JCAMP-DX=4.24
##DATA TYPE=INFRARED SPECTRUM
##ORIGIN=Sadtler Research Labs Under US-EPA Contract
##OWNER=NIST Standard Reference Data Program
##CAS REGISTRY NO=553-94-6
##MOLFORM=C 8 H 9 Br
##XUNITS=1/CM
##YUNITS=ABSORBANCE
##XFACTOR=1.0
##YFACTOR=0.000055392
##DELTAX=4.0
##FIRSTX=450.0
##LASTX=3966.0
##FIRSTY=0.017282
##MAXX=3966
##MINX=450
##MAXY=0.55392
##MINY=0
##NPOINTS=880
##XYDATA=(X++(Y..Y))
450.0 312 324 351 320 273 222 141 130 99 145
490.0 121 217 55 72 352 297 378 567 413 838
530.0 1058 1258 1719 714 598 180 120 249 10 405
570.0 359 279 332 332 199 165 198 226 224 304
610.0 211 218 210 192 185 195 183 196 236 214
650.0 274 339 417 646 1215 2433 2483 2344 2047 990
690.0 716 802 559 489 340 290 289 365 523 711
730.0 810 855 836 674 536 450 334 274 221 243
770.0 251 280 337 484 847 1682 3039 4444 5814 8854
810.0 4996 3893 2518 1084 456 328 407 712 1370 2436
850.0 3581 4026 4081 3651 2926 2764 2260 1639 1092 651
890.0 422 329 310 285 306 311 320 331 356 355
930.0 351 372 379 398 444 464 548 671 841 1112
970.0 1479 1850 2026 1902 1617 1170 877 757 715 693
1010.0 689 723 806 952 1282 2036 3753 6100 6943 6835
1050.0 5602 2834 1478 1009 680 603 534 487 444 397
1090.0 364 343 352 342 370 375 356 343 318 299
1130.0 295 322 419 585 666 635 644 512 403 381
1170.0 373 395 395 405 434 483 541 697 989 1486
1210.0 1901 1990 1836 1301 734 431 345 315 328 347
1250.0 377 412 467 561 656 738 827 718 651 566
1290.0 398 316 281 278 281 308 326 347 348 358
1330.0 375 399 477 499 497 506 500 510 569 656
1370.0 843 1169 1599 2009 2365 2499 2340 2107 1811 1592
1410.0 1484 1392 1487 1476 1573 1658 1890 2037 2164 2268
1450.0 2307 2368 2436 2445 2534 2587 2698 3072 3960 5861
1490.0 8424 10000 9841 8196 5227 2680 1760 1505 1441 1299
1530.0 1272 1214 1272 1350 1435 1506 1704 1980 2154 2283
1570.0 2270 2089 1719 1361 1117 1076 1229 1688 2271 2671
1610.0 2703 2330 1663 1059 717 439 406 361 323 305
1650.0 329 290 245 224 238 263 320 251 324 290
1690.0 240 212 288 288 326 330 436 561 532 555
1730.0 613 700 663 679 642 539 372 256 206 159
1770.0 183 178 136 150 146 171 190 196 241 248
1810.0 272 267 241 243 215 204 179 179 206 223
1850.0 206 177 165 155 186 229 254 345 463 518
1890.0 490 428 303 207 185 170 172 173 182 148
1930.0 130 127 117 139 128 113 106 105 94 93
1970.0 87 92 90 102 109 119 115 104 95 95
2010.0 89 100 85 98 84 94 93 95 90 120
2050.0 75 88 94 106 123 133 125 124 115 96
2090.0 87 85 88 79 88 102 119 109 121 128
2130.0 100 91 90 80 82 81 80 76 75 73
2170.0 70 69 76 76 86 95 93 68 81 84
2210.0 80 73 77 83 82 88 97 89 97 98
2250.0 96 94 98 99 100 85 91 93 95 103
2290.0 111 130 140 142 139 149 160 167 164 164
2330.0 151 132 120 121 111 119 107 92 90 69
2370.0 54 55 75 79 79 80 99 98 115 126
2410.0 133 143 170 168 154 139 125 110 110 120
2450.0 111 109 109 127 127 130 133 134 143 138
2490.0 134 124 106 113 103 104 103 110 102 120
2530.0 127 123 128 107 101 89 83 71 62 71
2570.0 69 79 104 107 129 153 162 173 150 132
2610.0 99 66 29 0 0 1 21 39 74 103
2650.0 110 69 79 93 91 91 83 83 80 56
2690.0 45 68 59 65 70 81 56 74 100 119
2730.0 130 185 250 328 391 396 344 258 183 161
2770.0 139 131 129 138 148 139 147 151 170 181
2810.0 212 228 255 290 335 371 418 464 541 637
2850.0 770 968 1212 1552 1953 2316 2601 2777 2757 2630
2890.0 2482 2350 2238 2168 2185 2253 2434 2784 3418 4397
2930.0 5694 6730 6883 6456 5378 4111 3303 2971 2902 2939
2970.0 2747 2712 2815 3056 3152 3168 3048 2751 2507 2427
3010.0 2521 2699 2965 3237 3418 3375 3353 3134 2925 2944
3050.0 3037 3131 3167 3138 2979 2720 2348 1830 1305 935
3090.0 716 631 563 544 525 469 404 349 301 243
3130.0 181 145 119 99 113 91 100 82 83 93
3170.0 92 130 137 130 115 118 107 107 101 95
3210.0 81 77 76 58 93 109 115 147 181 186
3250.0 185 159 137 123 102 131 95 110 113 119
3290.0 120 122 128 110 111 109 105 101 115 113
3330.0 150 158 142 130 107 116 129 147 156 130
3370.0 190 164 160 141 132 141 119 117 118 122
3410.0 110 108 116 104 98 87 83 114 71 78
3450.0 62 76 77 74 53 72 39 39 56 48
3490.0 25 41 30 57 53 35 19 25 42 29
3530.0 47 24 24 28 42 18 23 45 27 39
3570.0 43 42 31 18 8 39 16 28 23 16
3610.0 31 7 29 6 19 41 38 7 10 32
3650.0 2 4 25 36 31 35 53 46 56 64
3690.0 61 91 101 105 82 78 76 100 83 113
3730.0 111 99 76 81 71 76 81 84 70 76
3770.0 100 72 84 92 121 93 85 79 69 90
3810.0 105 81 88 83 90 77 96 94 101 102
3850.0 100 86 91 90 87 82 96 81 87 102
3890.0 99 103 103 114 110 104 114 110 88 93
3930.0 96 113 104 89 79 90 88 84 87 86
##END=
