##TITLE=Acetylsalicyloyl chloride
##JCAMP-DX=4.24
##DATA TYPE=INFRARED SPECTRUM
##ORIGIN=Sadtler Research Labs Under US-EPA Contract
##OWNER=NIST Standard Reference Data Program
##CAS REGISTRY NO=5538-51-2
##MOLFORM=C 9 H 7 Cl O 3
##XUNITS=1/CM
##YUNITS=ABSORBANCE
##XFACTOR=1.0
##YFACTOR=0.000087949
##DELTAX=4.0
##FIRSTX=450.0
##LASTX=3966.0
##FIRSTY=0.061740
##MAXX=3966
##MINX=450
##MAXY=0.87949
##MINY=0
##NPOINTS=880
##XYDATA=(X++(Y..Y))
450.0 702 343 210 263 254 169 144 0 130 84
490.0 102 117 175 134 160 224 160 144 54 141
530.0 86 175 92 91 138 133 212 162 228 215
570.0 227 282 409 607 835 986 903 820 857 829
610.0 711 832 773 615 484 379 406 438 617 782
650.0 926 890 759 583 501 600 662 718 649 540
690.0 439 388 368 333 275 196 176 166 184 201
730.0 278 362 499 565 607 703 804 961 934 739
770.0 541 389 280 291 291 302 375 510 725 877
810.0 906 786 634 534 489 495 533 692 967 1394
850.0 1740 1816 1601 1125 854 897 1108 1304 1370 1233
890.0 1033 874 878 1044 1347 1588 1527 1235 893 685
930.0 599 589 624 683 787 904 993 1006 1059 1127
970.0 1178 1190 1182 1162 1144 1195 1221 1297 1413 1560
1010.0 1611 1539 1363 1175 1051 961 887 816 781 774
1050.0 785 789 788 796 766 729 666 648 680 757
1090.0 896 1044 1154 1287 1660 1777 1758 1751 1583 1199
1130.0 883 683 636 665 767 995 1435 1981 2168 2203
1170.0 2455 3403 5086 7372 9351 10000 9245 7214 5139 3663
1210.0 2786 2257 1981 1788 1553 1319 1128 1011 914 835
1250.0 751 673 602 576 614 757 971 999 865 702
1290.0 589 516 502 521 524 480 410 359 300 273
1330.0 236 221 218 238 267 306 381 493 699 1026
1370.0 1398 1472 1280 960 631 424 297 243 199 188
1410.0 178 208 204 223 252 290 333 364 472 702
1450.0 1016 958 655 510 510 622 813 1035 1133 996
1490.0 694 457 324 238 177 126 134 108 103 102
1530.0 103 108 95 123 110 128 123 162 156 222
1570.0 278 383 452 492 468 470 569 783 1097 1118
1610.0 835 619 451 328 261 197 163 141 143 121
1650.0 150 121 152 167 183 187 229 250 330 369
1690.0 464 510 536 545 563 582 615 725 829 953
1730.0 1050 1121 1143 1209 1341 1520 1789 2088 2411 2613
1770.0 2778 2866 3156 3730 4513 5312 5948 6178 5429 4565
1810.0 3544 2834 2367 2006 2057 1973 1526 1037 633 421
1850.0 274 210 155 135 117 101 101 94 96 96
1890.0 101 96 104 99 98 106 105 116 120 126
1930.0 119 113 90 78 60 56 61 67 70 62
1970.0 53 48 50 49 51 57 63 66 57 59
2010.0 55 55 56 54 61 62 62 67 68 58
2050.0 52 44 45 44 54 51 52 54 45 38
2090.0 35 32 34 35 35 34 39 36 38 41
2130.0 43 40 42 40 39 34 31 37 39 43
2170.0 39 35 24 18 15 16 11 9 14 14
2210.0 9 6 9 13 15 14 19 18 21 23
2250.0 22 24 28 27 27 29 33 36 36 37
2290.0 38 41 46 47 51 54 44 48 51 48
2330.0 41 47 38 44 61 45 44 32 58 55
2370.0 62 57 68 66 56 44 41 42 41 45
2410.0 45 46 42 40 32 28 31 30 34 24
2450.0 28 31 30 32 26 29 29 28 26 27
2490.0 26 28 30 24 27 23 28 29 29 23
2530.0 25 25 24 22 28 19 23 27 25 29
2570.0 29 29 26 35 33 33 34 32 38 29
2610.0 31 24 24 29 36 28 16 28 22 28
2650.0 37 38 18 11 26 19 40 55 55 18
2690.0 33 15 39 53 73 28 37 29 30 67
2730.0 97 31 35 34 44 75 132 29 40 35
2770.0 44 77 146 18 40 42 30 122 115 4
2810.0 48 34 46 177 58 30 60 29 110 111
2850.0 31 66 26 72 110 59 53 49 51 48
2890.0 50 43 43 56 100 82 31 67 59 164
2930.0 78 56 65 121 217 85 102 74 181 150
2970.0 75 70 103 194 102 65 96 188 124 82
3010.0 136 176 146 109 148 186 189 141 182 197
3050.0 137 136 146 163 144 185 226 238 269 290
3090.0 274 229 181 115 98 92 80 71 61 60
3130.0 59 60 41 51 47 41 54 57 62 49
3170.0 48 43 40 43 39 30 38 35 36 42
3210.0 41 38 30 27 42 35 33 35 35 41
3250.0 44 29 46 36 39 47 47 42 47 45
3290.0 38 43 40 49 46 36 47 37 33 36
3330.0 51 41 33 51 40 38 47 50 30 25
3370.0 44 44 44 36 39 31 27 32 39 32
3410.0 34 33 32 16 16 44 53 33 31 43
3450.0 35 45 41 29 26 32 26 38 25 34
3490.0 35 35 33 25 44 43 36 43 31 37
3530.0 38 53 53 66 73 48 61 78 82 119
3570.0 107 141 145 172 176 129 120 101 77 72
3610.0 60 48 39 54 36 19 47 34 40 9
3650.0 43 45 10 43 34 44 37 62 46 34
3690.0 17 39 28 9 51 69 55 43 64 23
3730.0 58 59 9 56 32 47 51 30 60 47
3770.0 40 52 63 73 57 28 57 65 65 30
3810.0 23 25 33 95 83 64 92 77 53 55
3850.0 62 66 63 62 87 77 107 83 95 60
3890.0 100 48 78 66 87 74 89 90 111 35
3930.0 68 111 60 84 65 74 86 49 54 117
##END=
