##TITLE=1,3-Dioxolan-4-one, 2,5-bis-trichloromethyl-,
##JCAMP-DX=4.24
##DATA TYPE=INFRARED SPECTRUM
##ORIGIN=Sadtler Research Labs Under US-EPA Contract
##OWNER=NIST Standard Reference Data Program
##CAS REGISTRY NO=554-21-2
##MOLFORM=C 5 H 2 Cl 6 O 3
##XUNITS=1/CM
##YUNITS=ABSORBANCE
##XFACTOR=1.0
##YFACTOR=0.000074728
##DELTAX=4.0
##FIRSTX=450.0
##LASTX=3966.0
##FIRSTY=0.000000
##MAXX=3966
##MINX=450
##MAXY=0.74728
##MINY=0
##NPOINTS=880
##XYDATA=(X++(Y..Y))
450.0 0 57 101 51 129 113 101 111 103 186
490.0 233 319 392 415 370 262 202 179 135 99
530.0 110 146 103 132 147 146 197 230 308 498
570.0 672 616 440 288 238 211 235 254 241 260
610.0 309 391 691 1328 1922 2013 1390 795 459 305
650.0 240 264 299 356 363 358 311 281 344 438
690.0 656 910 1168 1071 750 452 305 259 254 249
730.0 233 253 288 329 446 665 888 928 758 555
770.0 456 478 621 905 1307 1835 2434 2879 2887 2421
810.0 1838 1726 2043 2559 2885 2910 2707 2490 2333 2427
850.0 3296 4821 5490 4069 2127 1096 926 1038 1070 877
890.0 619 520 642 960 1473 2101 2441 2112 1352 724
930.0 456 385 400 459 580 737 867 827 626 396
970.0 260 221 212 218 244 280 353 460 605 803
1010.0 1036 1260 1383 1339 1204 1124 1093 967 737 525
1050.0 402 355 339 345 349 368 411 516 701 905
1090.0 1041 1025 909 774 718 811 1059 1343 1488 1397
1130.0 1149 883 677 554 545 632 795 1018 1320 1720
1170.0 2271 3006 4123 5850 8178 10000 9721 7306 4623 3067
1210.0 2301 1815 1488 1255 1062 910 867 960 1199 1641
1250.0 2288 2903 3092 2749 2245 1851 1544 1221 952 791
1290.0 718 678 609 506 423 365 330 321 348 451
1330.0 678 890 861 731 743 772 646 459 322 260
1370.0 230 226 216 209 190 166 137 118 101 102
1410.0 106 105 118 103 87 89 94 112 98 99
1450.0 110 119 212 197 132 139 142 123 83 103
1490.0 85 104 105 80 113 118 54 97 114 88
1530.0 71 75 118 118 101 68 93 124 149 66
1570.0 95 95 125 77 97 106 95 106 89 107
1610.0 88 137 125 114 91 98 115 163 148 229
1650.0 216 312 157 108 96 95 103 94 85 152
1690.0 81 81 137 143 99 78 106 120 89 64
1730.0 77 93 93 55 71 77 78 85 118 125
1770.0 159 209 194 235 249 311 341 376 407 447
1810.0 517 625 754 916 1094 1282 1532 1925 2658 3814
1850.0 5279 6199 5767 4169 2702 1949 1576 1312 1006 733
1890.0 510 370 286 236 213 205 208 213 217 209
1930.0 207 195 179 164 147 138 126 123 116 116
1970.0 113 108 103 100 102 102 101 100 105 102
2010.0 102 105 109 113 114 115 108 109 104 99
2050.0 91 86 86 86 85 87 94 90 94 98
2090.0 102 107 111 116 114 113 117 115 116 119
2130.0 114 113 113 108 103 96 93 95 98 95
2170.0 95 100 102 103 106 110 104 108 108 108
2210.0 108 105 102 94 92 89 87 84 82 82
2250.0 80 77 76 77 76 76 78 75 81 81
2290.0 82 83 91 87 86 87 79 76 81 83
2330.0 74 69 75 76 69 91 62 69 74 82
2370.0 79 87 81 82 77 69 59 57 58 56
2410.0 55 53 58 54 55 59 56 55 55 59
2450.0 62 68 67 67 65 64 66 62 62 64
2490.0 64 65 64 64 67 71 69 70 68 71
2530.0 74 72 75 66 71 71 70 69 70 65
2570.0 70 64 63 66 72 67 64 73 63 64
2610.0 69 70 69 73 68 70 68 70 71 69
2650.0 73 74 69 69 70 75 77 81 76 76
2690.0 76 74 72 80 74 66 71 76 73 75
2730.0 78 68 73 74 72 83 82 68 76 76
2770.0 73 82 84 77 76 75 73 91 80 72
2810.0 80 74 78 82 74 76 73 71 80 87
2850.0 79 76 72 81 78 76 73 74 70 74
2890.0 68 73 80 79 84 73 76 70 77 104
2930.0 107 120 113 124 143 199 308 457 589 549
2970.0 350 200 133 117 94 97 105 104 90 84
3010.0 87 89 93 84 94 99 94 90 94 101
3050.0 91 94 103 99 92 101 100 94 96 103
3090.0 89 91 94 87 94 90 95 89 98 85
3130.0 93 91 87 93 90 90 87 86 89 90
3170.0 88 89 90 89 91 82 81 90 94 92
3210.0 87 87 84 90 89 82 88 89 89 86
3250.0 89 86 89 89 87 85 82 78 88 80
3290.0 74 75 73 76 81 83 79 83 78 81
3330.0 84 75 78 84 82 72 77 69 72 73
3370.0 78 74 79 73 85 69 82 80 76 81
3410.0 77 71 72 79 71 73 76 76 79 67
3450.0 71 79 81 73 65 76 79 89 70 69
3490.0 74 72 69 66 63 73 64 71 67 58
3530.0 73 76 71 78 61 69 80 57 88 54
3570.0 69 80 75 82 56 78 87 73 76 79
3610.0 82 56 75 70 76 99 77 94 79 81
3650.0 85 91 116 92 132 87 125 107 113 107
3690.0 106 88 87 83 82 85 73 78 53 53
3730.0 61 75 58 85 103 92 77 62 71 66
3770.0 64 86 86 78 58 71 61 73 81 63
3810.0 92 70 102 84 71 70 65 78 77 63
3850.0 70 109 59 70 84 61 68 82 55 71
3890.0 63 76 66 55 72 65 77 55 73 94
3930.0 69 75 83 69 76 64 95 59 62 105
##END=
