##TITLE=Benzenamine, 2,4-dichloro-
##JCAMP-DX=4.24
##DATA TYPE=INFRARED SPECTRUM
##ORIGIN=Sadtler Research Labs Under US-EPA Contract
##OWNER=NIST Standard Reference Data Program
##CAS REGISTRY NO=554-00-7
##MOLFORM=C 6 H 5 Cl 2 N
##XUNITS=1/CM
##YUNITS=ABSORBANCE
##XFACTOR=1.0
##YFACTOR=0.000154770
##DELTAX=4.0
##FIRSTX=450.0
##LASTX=3966.0
##FIRSTY=0.090076
##MAXX=3966
##MINX=450
##MAXY=1.5477
##MINY=0
##NPOINTS=880
##XYDATA=(X++(Y..Y))
450.0 582 544 422 472 428 421 408 357 350 354
490.0 407 336 361 354 333 302 336 364 405 427
530.0 460 506 589 690 852 959 905 767 705 655
570.0 568 538 493 448 430 350 324 331 326 343
610.0 382 488 557 659 782 948 1171 1439 1867 2140
650.0 2080 1945 1592 1187 1040 990 1024 988 954 945
690.0 952 1064 1290 1559 1863 2232 2583 3010 3343 3188
730.0 2723 2061 1296 791 648 586 515 470 426 404
770.0 385 343 344 388 575 818 1165 1518 1983 2305
810.0 2052 1642 1303 862 604 436 394 537 877 1489
850.0 2008 2232 2330 2007 1823 1801 1309 918 752 440
890.0 266 202 145 141 129 105 118 112 114 117
930.0 120 104 90 91 80 72 79 76 87 91
970.0 89 89 90 89 79 64 48 39 34 27
1010.0 20 31 28 46 87 157 280 443 611 723
1050.0 789 829 800 873 1073 1177 1182 1074 846 666
1090.0 672 751 808 865 915 995 1120 1249 1402 1517
1130.0 1446 1324 1160 965 833 669 539 500 339 201
1170.0 148 115 112 123 125 141 138 120 94 60
1210.0 33 17 25 45 84 170 274 349 394 412
1250.0 347 255 219 212 263 419 707 1195 1770 2250
1290.0 2522 2622 2480 2113 1775 1359 835 388 140 51
1330.0 14 0 27 26 27 50 72 105 125 107
1370.0 103 117 128 190 333 516 760 952 956 972
1410.0 913 760 735 605 523 361 272 265 251 308
1450.0 370 456 698 1115 1881 3406 5143 7217 9082 10000
1490.0 9702 8159 6203 4069 2863 2025 1343 889 647 536
1530.0 488 444 449 441 430 440 527 669 726 759
1570.0 785 800 825 860 886 932 992 1106 1270 1615
1610.0 2139 2992 3842 4710 4602 4385 3409 2163 1558 855
1650.0 596 450 252 250 199 179 217 138 184 170
1690.0 131 117 143 151 134 126 170 234 255 272
1730.0 322 340 273 228 178 135 88 60 55 34
1770.0 51 54 28 39 42 48 67 50 66 35
1810.0 31 31 13 20 25 41 43 47 87 133
1850.0 161 177 182 169 144 113 57 34 24 26
1890.0 25 30 26 25 24 26 29 31 38 27
1930.0 23 27 27 39 40 32 36 38 36 41
1970.0 36 36 38 41 44 55 60 58 54 55
2010.0 47 49 49 39 36 33 34 35 37 36
2050.0 35 35 32 31 31 24 26 26 28 27
2090.0 25 26 21 24 23 23 25 25 25 25
2130.0 28 31 34 36 37 40 42 39 35 37
2170.0 34 33 35 33 34 38 42 40 40 37
2210.0 34 32 32 28 28 26 26 27 26 24
2250.0 26 25 28 27 31 28 31 33 33 34
2290.0 33 37 46 49 52 56 46 42 43 35
2330.0 35 28 39 39 69 57 56 52 52 40
2370.0 25 33 35 39 40 37 36 34 29 29
2410.0 27 28 26 28 31 33 38 40 39 40
2450.0 37 35 35 32 35 41 41 40 39 35
2490.0 31 30 27 21 24 28 32 36 39 44
2530.0 49 51 52 53 50 50 44 43 40 40
2570.0 43 47 58 64 72 76 72 70 60 52
2610.0 45 42 39 38 41 39 38 40 41 42
2650.0 40 40 41 38 36 37 34 33 34 36
2690.0 40 41 45 44 42 42 37 33 31 31
2730.0 30 31 29 29 32 34 34 36 37 37
2770.0 34 36 36 36 37 36 37 37 35 33
2810.0 35 33 33 31 34 36 41 45 53 57
2850.0 67 75 79 77 75 74 71 64 59 48
2890.0 42 40 37 37 38 41 42 44 44 43
2930.0 43 38 34 36 32 31 32 38 42 44
2970.0 47 51 47 48 45 46 41 42 48 57
3010.0 71 91 126 183 258 341 391 392 373 314
3050.0 245 219 233 257 283 284 277 263 231 200
3090.0 173 146 118 90 70 54 46 37 35 35
3130.0 37 39 43 43 45 44 50 52 50 56
3170.0 59 62 72 75 82 88 102 105 106 113
3210.0 107 95 84 78 62 60 62 55 50 48
3250.0 42 38 34 34 33 33 29 32 34 37
3290.0 33 35 35 38 37 31 30 32 36 40
3330.0 42 38 38 34 37 38 46 49 57 61
3370.0 72 82 105 131 168 229 323 510 800 1108
3410.0 1310 1414 1358 1202 1025 800 607 394 236 155
3450.0 139 126 128 142 151 177 214 275 364 483
3490.0 630 787 902 958 988 944 857 804 725 610
3530.0 511 419 285 196 137 104 84 74 69 64
3570.0 53 54 40 40 41 35 33 38 34 43
3610.0 46 34 44 33 31 32 35 41 39 43
3650.0 40 30 37 20 34 35 36 39 36 44
3690.0 48 54 40 38 28 35 27 24 18 24
3730.0 30 28 39 24 26 13 31 9 23 24
3770.0 20 24 26 24 31 30 28 0 8 11
3810.0 40 16 30 31 41 37 35 48 48 61
3850.0 47 95 88 83 55 59 59 57 59 37
3890.0 33 51 35 38 39 44 50 69 84 55
3930.0 63 82 68 61 62 73 75 79 74 91
##END=
