##TITLE=Phenol, 3-nitro-
##JCAMP-DX=4.24
##DATA TYPE=INFRARED SPECTRUM
##ORIGIN=Sadtler Research Labs Under US-EPA Contract
##OWNER=NIST Standard Reference Data Program
##CAS REGISTRY NO=554-84-7
##MOLFORM=C 6 H 5 N O 3
##XUNITS=1/CM
##YUNITS=ABSORBANCE
##XFACTOR=1.0
##YFACTOR=0.000173251
##DELTAX=4.0
##FIRSTX=450.0
##LASTX=3966.0
##FIRSTY=0.000000
##MAXX=3966
##MINX=450
##MAXY=1.73251
##MINY=0
##NPOINTS=880
##XYDATA=(X++(Y..Y))
450.0 0 235 280 284 403 259 393 312 400 325
490.0 402 399 377 460 439 479 414 507 446 469
530.0 479 514 518 461 490 430 438 347 396 314
570.0 286 312 254 316 277 295 411 428 340 363
610.0 289 326 300 290 297 278 302 282 333 358
650.0 432 525 639 785 887 1171 994 880 769 650
690.0 464 412 340 326 312 350 499 637 941 1085
730.0 1494 2148 1792 1219 1229 874 653 442 403 425
770.0 443 565 646 780 881 985 1021 1105 1797 2834
810.0 3231 3065 3141 2271 1113 583 502 400 414 434
850.0 486 557 629 766 812 836 797 788 715 674
890.0 630 591 561 498 501 499 591 704 812 817
930.0 809 786 630 495 393 367 335 340 332 330
970.0 335 326 328 316 349 367 428 433 441 436
1010.0 401 352 313 318 301 320 306 328 340 360
1050.0 393 437 505 557 640 678 745 766 774 736
1090.0 718 699 642 595 534 503 451 442 444 465
1130.0 496 549 656 803 1092 1439 1688 1981 2655 3140
1170.0 3250 3316 3570 3544 3318 3242 3122 2860 2320 1730
1210.0 1222 892 744 667 663 671 782 948 1285 1707
1250.0 2078 2189 2226 2067 1618 1182 924 937 1084 1351
1290.0 1609 1860 2079 2160 2105 2046 2006 1934 1919 1884
1330.0 1980 2074 2203 2540 3246 4383 5483 6027 5803 5507
1370.0 3593 1953 1078 757 577 483 462 432 452 427
1410.0 427 420 399 413 419 486 506 604 738 858
1450.0 991 1048 1171 1187 1203 1206 1307 1331 1456 1469
1490.0 1441 1417 1329 1180 1024 1185 1095 1445 1681 2827
1530.0 3606 5272 8190 7422 10000 8372 9587 6979 5112 4353
1570.0 3653 3117 2567 2464 2331 2079 1939 1779 1659 1436
1610.0 1384 1344 1338 1260 1197 1022 843 640 452 431
1650.0 333 385 385 369 405 389 375 371 359 337
1690.0 332 340 315 326 292 327 292 305 296 330
1730.0 314 309 347 332 348 361 410 399 435 419
1770.0 394 359 335 333 289 308 274 290 266 286
1810.0 269 269 269 256 264 243 275 251 273 253
1850.0 274 269 275 277 278 279 271 280 252 257
1890.0 236 241 234 237 246 240 260 262 276 285
1930.0 299 300 296 285 268 265 243 245 227 235
1970.0 226 233 227 229 233 229 236 234 246 239
2010.0 248 243 242 237 236 234 226 233 227 232
2050.0 228 238 240 243 247 246 249 242 246 236
2090.0 241 235 239 235 236 239 234 238 233 239
2130.0 231 236 232 234 233 232 236 233 241 238
2170.0 245 243 251 248 246 245 238 236 229 233
2210.0 226 230 227 231 230 230 234 229 233 228
2250.0 234 230 232 229 229 231 232 236 233 242
2290.0 238 241 237 243 242 246 253 252 260 246
2330.0 261 252 259 249 276 262 269 268 246 258
2370.0 252 262 258 266 263 260 261 263 268 265
2410.0 274 271 277 278 282 282 280 284 281 284
2450.0 275 276 268 264 261 259 262 261 268 266
2490.0 271 268 276 272 272 271 267 265 257 257
2530.0 250 255 253 258 257 258 260 256 259 255
2570.0 257 250 255 249 251 252 253 256 256 263
2610.0 259 264 263 267 261 264 267 268 272 272
2650.0 278 272 275 271 270 267 266 265 263 269
2690.0 269 273 271 279 277 274 274 267 260 252
2730.0 250 241 245 243 243 238 238 239 238 241
2770.0 237 244 241 249 249 253 252 256 259 258
2810.0 262 262 265 264 268 271 272 279 280 286
2850.0 285 291 291 299 303 310 314 322 337 340
2890.0 349 347 349 338 335 326 317 314 310 311
2930.0 307 309 300 299 291 291 285 278 279 274
2970.0 273 269 269 261 264 260 261 260 262 266
3010.0 270 279 291 310 333 363 389 414 427 422
3050.0 412 392 392 402 438 485 527 557 573 558
3090.0 507 471 441 414 382 357 340 314 286 260
3130.0 250 237 241 235 236 236 239 236 233 234
3170.0 234 235 228 240 234 240 237 241 240 240
3210.0 247 242 250 243 246 245 246 246 243 246
3250.0 238 242 234 236 234 239 232 235 239 237
3290.0 242 240 242 239 246 243 247 251 255 261
3330.0 262 272 270 274 270 273 262 269 269 267
3370.0 269 261 263 259 259 257 265 256 257 256
3410.0 255 263 258 264 259 265 256 256 254 252
3450.0 253 242 250 242 249 240 248 244 240 248
3490.0 251 249 244 243 234 244 234 245 235 236
3530.0 240 237 243 236 247 229 246 244 238 242
3570.0 247 256 264 269 277 267 269 280 248 276
3610.0 262 288 289 370 459 567 968 1360 2105 2640
3650.0 3217 2759 2690 2067 1199 621 373 298 274 257
3690.0 267 244 267 250 255 255 231 255 250 236
3730.0 258 250 245 230 283 218 277 252 234 249
3770.0 245 257 242 253 250 258 238 269 224 295
3810.0 230 280 227 272 250 252 260 276 241 266
3850.0 266 231 261 273 254 281 259 266 242 297
3890.0 238 300 240 295 239 284 260 278 267 269
3930.0 284 244 275 252 272 239 275 254 280 263
##END=
