##TITLE=Propanoic acid, methyl ester
##JCAMP-DX=4.24
##DATA TYPE=INFRARED SPECTRUM
##ORIGIN=Sadtler Research Labs Under US-EPA Contract
##OWNER=NIST Standard Reference Data Program
##CAS REGISTRY NO=554-12-1
##MOLFORM=C 4 H 8 O 2
##XUNITS=1/CM
##YUNITS=ABSORBANCE
##XFACTOR=1.0
##YFACTOR=0.000077783
##DELTAX=4.0
##FIRSTX=450.0
##LASTX=3966.0
##FIRSTY=0.011512
##MAXX=3966
##MINX=450
##MAXY=0.77783
##MINY=0
##NPOINTS=880
##XYDATA=(X++(Y..Y))
450.0 148 163 170 154 143 120 101 63 79 77
490.0 74 49 23 32 45 33 48 72 61 61
530.0 38 42 20 5 58 83 28 58 80 87
570.0 129 123 101 155 136 122 150 156 170 199
610.0 229 182 161 194 179 137 151 127 152 115
650.0 129 95 114 111 135 76 111 118 104 92
690.0 90 124 90 71 87 83 111 96 88 83
730.0 121 110 136 83 98 124 120 107 98 151
770.0 135 153 179 208 197 243 221 267 283 329
810.0 414 442 519 566 705 754 886 893 899 840
850.0 847 811 719 524 378 284 230 162 134 86
890.0 101 78 64 59 72 75 90 78 61 88
930.0 98 124 118 185 218 256 261 295 303 334
970.0 314 320 273 260 218 203 236 292 333 501
1010.0 690 921 1112 1202 1286 1279 1313 1203 1007 868
1050.0 909 973 1127 1271 1490 1662 1891 2049 2221 2261
1090.0 2215 2190 2097 1928 1748 1551 1467 1327 1232 1178
1130.0 1117 1106 1081 1136 1208 1405 1708 2257 2978 4017
1170.0 5013 5925 6832 7634 8846 9325 9679 9295 8854 8927
1210.0 8268 7393 6547 5632 5016 4362 3854 3471 3122 2821
1250.0 2600 2392 2252 2118 2058 2064 2084 2057 1958 1813
1290.0 1645 1480 1257 1062 927 867 861 955 1078 1252
1330.0 1432 1619 1838 2131 2451 2673 2612 2488 2331 2229
1370.0 1838 1282 869 694 599 554 552 527 490 484
1410.0 491 532 643 795 1055 1347 1633 1842 1918 2072
1450.0 2112 1823 1687 1573 1496 1354 1369 1225 1063 832
1490.0 640 511 437 371 381 325 293 301 281 265
1530.0 235 262 236 270 200 200 201 252 214 185
1570.0 182 173 187 159 150 137 141 124 138 146
1610.0 147 140 188 143 156 149 192 164 162 175
1650.0 162 212 158 146 150 159 173 165 184 223
1690.0 196 225 285 336 356 441 543 745 949 1305
1730.0 1816 2549 3456 4769 6263 8046 9195 9437 8926 8760
1770.0 10000 9842 7738 5582 3902 2699 1812 1150 736 474
1810.0 353 234 194 155 137 101 112 98 107 91
1850.0 99 80 92 92 101 111 103 98 98 90
1890.0 85 102 80 91 83 100 85 107 94 100
1930.0 86 112 90 107 89 99 84 83 70 105
1970.0 99 107 104 108 109 102 104 96 110 106
2010.0 115 115 144 137 157 157 183 178 195 171
2050.0 177 152 164 121 120 106 98 91 85 82
2090.0 81 75 66 77 54 71 58 66 41 58
2130.0 50 50 38 57 38 57 46 59 47 48
2170.0 59 54 58 48 50 50 52 39 63 32
2210.0 54 34 45 29 35 24 31 24 37 23
2250.0 32 27 35 25 28 29 28 32 28 37
2290.0 34 43 23 35 30 48 36 64 42 52
2330.0 43 73 48 74 75 61 53 77 78 88
2370.0 84 75 66 62 62 52 62 47 53 35
2410.0 53 28 58 32 38 18 37 26 26 24
2450.0 28 21 20 27 29 26 20 30 20 29
2490.0 17 25 20 22 0 21 6 27 9 24
2530.0 13 24 16 21 20 21 23 22 23 22
2570.0 22 22 33 30 37 29 43 34 49 37
2610.0 44 42 49 30 38 28 39 23 37 38
2650.0 23 31 30 20 23 34 26 44 27 25
2690.0 27 41 21 30 26 32 21 32 22 33
2730.0 27 35 21 40 48 47 55 54 48 62
2770.0 65 58 63 61 74 69 78 61 88 69
2810.0 90 92 110 106 162 171 230 291 385 431
2850.0 472 496 498 501 449 393 363 420 495 632
2890.0 728 809 835 919 977 1017 996 992 987 1048
2930.0 1112 1208 1375 1687 2157 2651 3010 3074 3127 3087
2970.0 3027 2896 2619 2442 2358 2393 2429 2476 2370 2038
3010.0 1774 1576 1431 1296 1138 963 864 766 670 533
3050.0 446 377 318 289 253 234 223 213 195 190
3090.0 180 190 170 184 149 158 124 139 110 124
3130.0 105 114 105 101 86 82 84 81 87 74
3170.0 86 70 77 52 58 50 68 60 68 47
3210.0 55 49 43 36 43 43 31 39 34 35
3250.0 39 33 31 22 31 44 33 32 25 34
3290.0 28 33 29 45 30 25 22 32 22 28
3330.0 40 34 21 42 27 32 23 33 35 34
3370.0 40 28 35 30 29 29 38 26 37 24
3410.0 34 31 37 29 37 50 43 25 36 42
3450.0 33 48 39 37 53 50 49 75 71 77
3490.0 91 111 106 124 138 131 124 125 116 85
3530.0 89 55 54 40 47 35 39 33 39 37
3570.0 34 23 34 34 29 35 37 29 30 29
3610.0 45 30 33 39 32 40 30 25 25 11
3650.0 44 31 32 25 11 27 26 35 5 5
3690.0 26 9 1 1 1 1 1 1 1 1
3730.0 1 1 21 2 22 12 16 1 1 1
3770.0 1 1 1 1 1 1 1 1 1 1
3810.0 1 1 1 1 1 1 1 1 1 1
3850.0 1 1 1 1 1 1 1 1 1 1
3890.0 1 1 1 1 1 1 1 1 1 1
3930.0 1 1 1 1 1 1 1 1 1 1
##END=
