##TITLE=Oxadiazole-5-methanol, 1,2,4-, 3-phenyl-, acetate
##JCAMP-DX=4.24
##DATA TYPE=INFRARED SPECTRUM
##ORIGIN=Sadtler Research Labs Under US-EPA Contract
##OWNER=NIST Standard Reference Data Program
##CAS REGISTRY NO=5543-31-7
##MOLFORM=C 11 H 10 N 2 O 3
##XUNITS=1/CM
##YUNITS=ABSORBANCE
##XFACTOR=1.0
##YFACTOR=0.000168872
##DELTAX=4.0
##FIRSTX=450.0
##LASTX=3966.0
##FIRSTY=0.015198
##MAXX=3966
##MINX=450
##MAXY=1.68872
##MINY=0
##NPOINTS=880
##XYDATA=(X++(Y..Y))
450.0 90 55 92 87 111 97 76 100 126 124
490.0 55 75 49 72 41 32 7 6 61 106
530.0 114 62 73 47 26 8 35 63 60 60
570.0 43 59 46 72 75 119 147 169 149 149
610.0 160 186 224 227 196 118 158 271 227 117
650.0 92 107 78 119 74 251 311 316 513 691
690.0 942 995 972 833 834 809 903 1070 1143 1121
730.0 911 699 502 371 313 292 300 321 358 406
770.0 441 445 438 406 347 290 247 223 209 242
810.0 296 269 245 260 291 324 329 314 276 242
850.0 225 202 200 213 230 262 288 335 385 451
890.0 547 688 895 1086 1101 941 717 552 440 340
930.0 260 190 144 115 103 101 120 189 249 255
970.0 196 177 191 207 222 231 244 262 298 349
1010.0 421 534 696 872 947 905 792 745 796 896
1050.0 1022 1168 1299 1401 1452 1435 1348 1201 1045 913
1090.0 825 809 785 731 761 932 1126 1075 735 401
1130.0 251 193 169 161 168 173 178 205 245 315
1170.0 439 662 971 1202 1362 1588 1916 2506 3573 5257
1210.0 7530 10000 9655 7561 5602 4245 3294 2583 2021 1541
1250.0 1166 905 738 620 548 511 519 578 633 684
1290.0 733 774 750 652 527 427 347 303 293 326
1330.0 386 451 582 854 1465 2298 2666 2234 1550 1197
1370.0 1138 1168 1189 1136 1020 859 731 640 528 425
1410.0 333 266 280 268 307 370 507 685 992 1357
1450.0 1413 1047 625 438 421 455 535 548 494 433
1490.0 354 264 217 158 149 157 141 188 298 397
1530.0 461 372 256 194 160 133 152 196 212 247
1570.0 360 507 678 776 754 724 861 1212 1388 1180
1610.0 715 368 235 143 123 73 85 81 74 79
1650.0 102 97 73 59 62 63 77 57 81 89
1690.0 72 70 110 117 118 113 142 186 184 197
1730.0 249 315 338 398 495 628 784 1020 1340 1803
1770.0 2489 3403 4000 4034 3344 2543 1895 1374 986 695
1810.0 510 382 279 222 191 179 156 145 144 131
1850.0 97 66 58 51 52 56 44 44 49 59
1890.0 69 75 77 81 81 76 63 50 46 36
1930.0 33 35 39 51 63 67 74 77 78 82
1970.0 77 65 51 47 48 53 55 50 51 52
2010.0 53 57 59 61 62 63 63 64 66 65
2050.0 61 59 55 56 56 57 55 53 50 50
2090.0 50 50 50 48 52 51 51 52 51 53
2130.0 55 55 51 49 49 46 43 42 40 41
2170.0 39 38 39 40 41 41 43 45 44 43
2210.0 45 45 43 46 45 47 46 46 44 43
2250.0 44 44 43 41 41 41 39 38 38 34
2290.0 30 23 13 13 6 0 5 8 10 13
2330.0 10 15 22 8 20 0 11 15 23 16
2370.0 10 13 19 23 34 42 45 46 45 48
2410.0 48 50 49 51 50 52 50 51 51 50
2450.0 52 50 50 48 51 50 49 46 48 44
2490.0 42 43 45 44 43 40 40 42 40 38
2530.0 41 37 39 40 41 40 41 41 41 43
2570.0 44 45 46 45 47 46 47 46 48 50
2610.0 49 50 50 49 49 50 50 49 49 48
2650.0 47 44 42 39 38 40 41 38 38 37
2690.0 37 36 36 36 37 38 39 44 43 43
2730.0 43 42 41 41 39 42 42 39 41 39
2770.0 43 41 42 42 44 44 46 46 47 46
2810.0 49 50 47 50 53 55 58 58 61 60
2850.0 62 68 70 73 76 76 73 74 78 79
2890.0 82 83 83 85 85 86 93 94 99 100
2930.0 107 117 133 149 175 216 251 287 301 298
2970.0 275 250 221 194 174 155 144 137 128 124
3010.0 123 128 132 136 148 169 205 242 271 288
3050.0 299 310 331 357 393 450 546 611 557 403
3090.0 286 230 188 158 130 106 93 84 75 71
3130.0 73 70 66 62 53 47 40 39 42 40
3170.0 42 38 37 35 29 27 21 22 22 22
3210.0 22 20 21 21 20 22 21 23 21 20
3250.0 19 17 20 20 20 17 19 20 19 17
3290.0 17 22 22 21 20 15 14 17 21 22
3330.0 20 22 27 21 15 15 17 17 21 17
3370.0 17 21 15 17 19 14 19 15 17 19
3410.0 22 20 22 22 16 16 19 20 24 19
3450.0 15 19 16 10 10 13 17 17 13 14
3490.0 14 19 17 20 17 22 25 24 28 29
3530.0 35 39 40 46 40 35 28 24 20 16
3570.0 5 12 9 9 14 12 10 3 10 13
3610.0 11 5 10 9 14 14 6 4 3 10
3650.0 10 5 8 14 11 19 8 14 2 6
3690.0 16 7 3 11 9 10 2 5 8 5
3730.0 10 14 10 1 17 0 3 0 0 6
3770.0 0 0 0 0 0 5 2 0 0 7
3810.0 0 5 11 0 0 1 8 8 7 1
3850.0 16 14 4 0 5 10 6 0 8 16
3890.0 7 10 14 14 9 5 10 19 14 17
3930.0 4 7 12 19 12 0 6 21 16 15
##END=
