##TITLE=Benzene, 1-methoxy-3-nitro-
##JCAMP-DX=4.24
##DATA TYPE=INFRARED SPECTRUM
##ORIGIN=Sadtler Research Labs Under US-EPA Contract
##OWNER=NIST Standard Reference Data Program
##CAS REGISTRY NO=555-03-3
##MOLFORM=C 7 H 7 N O 3
##XUNITS=1/CM
##YUNITS=ABSORBANCE
##XFACTOR=1.0
##YFACTOR=0.000105325
##DELTAX=4.0
##FIRSTX=450.0
##LASTX=3966.0
##FIRSTY=0.012955
##MAXX=3966
##MINX=450
##MAXY=1.05325
##MINY=0
##NPOINTS=880
##XYDATA=(X++(Y..Y))
450.0 123 115 103 55 190 32 197 68 170 58
490.0 140 122 98 118 98 136 54 117 71 139
530.0 78 108 76 91 103 73 136 79 166 84
570.0 112 80 79 21 30 53 16 14 25 16
610.0 0 4 11 4 12 16 34 22 65 96
650.0 137 191 296 431 518 635 774 796 635 534
690.0 395 301 208 175 131 146 178 283 478 694
730.0 906 1395 1419 1049 863 634 423 292 201 238
770.0 260 383 487 694 941 1487 2408 2949 2975 2717
810.0 1982 1015 474 288 231 182 171 163 162 205
850.0 242 328 392 504 604 609 544 541 520 497
890.0 533 538 544 479 433 332 249 192 146 123
930.0 97 109 97 109 100 110 104 113 123 124
970.0 142 143 171 166 205 227 258 266 312 359
1010.0 420 548 697 925 1160 1472 1751 1963 2100 2119
1050.0 1914 1535 1139 759 587 552 593 662 752 826
1090.0 875 872 830 757 606 491 364 273 205 167
1130.0 142 119 120 109 117 113 139 133 144 151
1170.0 183 230 279 338 344 360 329 308 288 316
1210.0 364 429 533 682 935 1327 1995 2911 3914 4675
1250.0 4974 4554 3673 2651 1754 1375 1488 1868 2157 2274
1290.0 2231 1944 1678 1623 1703 1742 1771 1739 1739 1681
1330.0 1703 1878 2285 3166 4368 5511 5967 5762 4728 3064
1370.0 1933 1320 984 740 567 431 357 281 278 258
1410.0 253 280 277 374 422 591 672 849 942 1026
1450.0 1016 1022 1068 1117 1248 1328 1607 2059 2484 2714
1490.0 2589 2331 1873 1449 1342 1380 1489 1691 1906 2488
1530.0 3059 4123 5599 7481 9239 10000 8976 8522 5350 3673
1570.0 2255 1962 1749 1806 1855 1767 1598 1305 1131 943
1610.0 1032 1076 1157 1070 997 796 605 448 324 292
1650.0 204 239 221 217 198 178 172 122 130 99
1690.0 126 108 118 96 94 98 75 70 67 94
1730.0 68 64 67 79 53 45 69 55 72 66
1770.0 76 55 72 61 63 50 54 56 39 59
1810.0 46 50 43 45 34 35 40 51 44 37
1850.0 51 49 55 56 61 58 65 64 54 46
1890.0 32 34 27 33 34 42 45 53 60 65
1930.0 83 80 88 72 75 63 48 39 30 26
1970.0 19 31 27 31 33 29 28 29 32 24
2010.0 28 22 28 26 34 40 48 52 57 68
2050.0 66 70 62 63 54 59 58 56 57 48
2090.0 46 38 41 29 30 24 22 20 18 26
2130.0 22 27 28 35 32 35 36 34 34 30
2170.0 31 21 21 16 15 10 12 10 6 7
2210.0 5 5 1 5 0 5 4 6 5 3
2250.0 6 5 9 7 13 10 16 15 18 22
2290.0 20 23 18 19 16 20 19 23 31 25
2330.0 24 24 31 30 39 30 15 14 10 22
2370.0 22 32 29 36 31 31 23 21 21 15
2410.0 11 8 12 8 12 11 14 16 20 20
2450.0 14 17 13 16 10 17 13 22 27 31
2490.0 36 41 51 46 53 45 42 36 36 38
2530.0 35 40 34 37 33 36 38 42 43 44
2570.0 45 45 48 42 46 41 48 45 47 48
2610.0 45 43 37 38 32 34 28 30 27 27
2650.0 26 25 27 21 25 20 25 27 30 28
2690.0 32 38 35 45 40 40 32 34 32 30
2730.0 31 31 28 20 27 20 22 21 25 24
2770.0 30 34 37 41 44 56 52 62 63 73
2810.0 79 86 104 116 148 184 244 329 459 537
2850.0 562 559 475 363 292 266 256 265 281 305
2890.0 334 358 380 395 408 423 444 458 474 475
2930.0 485 501 561 659 761 836 867 884 837 812
2970.0 770 650 537 441 358 303 292 300 346 443
3010.0 591 703 707 656 539 372 267 224 203 190
3050.0 181 178 175 171 176 187 216 274 330 361
3090.0 369 355 316 261 211 180 135 115 73 54
3130.0 44 39 34 27 29 31 30 22 25 18
3170.0 22 21 23 27 22 27 21 28 27 24
3210.0 22 24 21 16 17 16 19 9 11 11
3250.0 12 7 12 8 13 17 13 14 7 12
3290.0 10 11 12 11 12 6 11 6 12 16
3330.0 12 5 9 10 6 10 10 13 3 17
3370.0 9 6 7 12 11 13 14 5 12 11
3410.0 14 11 8 13 7 10 9 11 0 10
3450.0 5 13 10 10 10 3 15 10 12 11
3490.0 17 10 8 3 8 7 10 15 13 11
3530.0 10 14 15 16 14 17 13 2 12 13
3570.0 11 8 11 14 18 19 23 10 22 12
3610.0 17 13 21 23 9 38 19 16 22 9
3650.0 42 17 35 26 14 21 17 45 10 32
3690.0 25 37 18 27 24 29 50 30 22 35
3730.0 25 27 30 41 42 40 57 34 38 41
3770.0 37 37 28 36 16 34 29 10 27 27
3810.0 41 27 14 38 28 30 40 41 15 42
3850.0 4 53 38 36 31 35 40 30 52 31
3890.0 35 31 43 33 58 37 35 47 33 41
3930.0 29 37 18 30 30 43 47 40 42 48
##END=
