##TITLE=Valeronitrile, 4-methyl-2-phenyl-,
##JCAMP-DX=4.24
##DATA TYPE=INFRARED SPECTRUM
##ORIGIN=Sadtler Research Labs Under US-EPA Contract
##OWNER=NIST Standard Reference Data Program
##CAS REGISTRY NO=5558-31-6
##MOLFORM=C 12 H 15 N
##XUNITS=1/CM
##YUNITS=ABSORBANCE
##XFACTOR=1.0
##YFACTOR=0.000100992
##DELTAX=4.0
##FIRSTX=450.0
##LASTX=3966.0
##FIRSTY=0.000000
##MAXX=3966
##MINX=450
##MAXY=1.00992
##MINY=0
##NPOINTS=880
##XYDATA=(X++(Y..Y))
450.0 0 255 353 148 322 364 68 138 160 316
490.0 162 158 246 370 350 359 486 577 321 244
530.0 177 127 123 94 66 104 124 200 270 302
570.0 424 473 382 261 189 187 150 97 146 102
610.0 219 129 169 163 184 202 243 296 251 246
650.0 235 237 302 370 530 742 908 1177 1466 2002
690.0 2904 3957 4547 4340 3442 2445 1777 1629 1637 1760
730.0 1883 1974 2051 2314 2487 2444 2086 1795 1335 998
770.0 745 531 357 278 248 161 151 161 160 87
810.0 70 84 134 97 78 134 128 80 50 94
850.0 110 91 109 74 85 129 44 68 66 95
890.0 143 149 212 259 285 269 263 263 226 187
930.0 261 198 196 202 174 179 175 184 149 108
970.0 123 96 112 65 76 83 96 135 142 160
1010.0 153 146 212 344 553 653 654 511 286 144
1050.0 108 99 128 174 253 317 379 357 313 258
1090.0 210 202 223 244 274 297 281 300 296 276
1130.0 256 192 161 135 134 177 232 310 429 531
1170.0 569 521 435 346 286 264 238 188 177 170
1210.0 192 202 204 178 137 162 144 137 122 142
1250.0 151 115 147 178 199 198 234 267 282 279
1290.0 361 399 445 465 458 423 401 386 334 354
1330.0 379 405 467 528 559 594 611 642 710 782
1370.0 922 1043 1078 999 1032 1105 1048 912 659 455
1410.0 388 363 410 476 483 583 658 875 1097 1428
1450.0 1769 1955 1938 1945 1851 1811 1670 1475 1325 1333
1490.0 1601 1908 1947 1736 1410 875 422 233 216 171
1530.0 138 148 162 122 137 96 115 174 136 144
1570.0 160 188 234 275 399 509 724 796 882 806
1610.0 563 463 270 185 153 124 115 119 97 116
1650.0 139 163 124 99 112 112 122 97 115 118
1690.0 137 144 168 177 155 132 119 130 112 113
1730.0 131 144 178 158 154 138 114 98 102 83
1770.0 104 127 129 141 190 241 320 313 288 231
1810.0 162 134 106 94 89 73 64 70 74 91
1850.0 87 96 127 142 164 187 189 185 177 172
1890.0 159 140 113 91 77 76 75 89 100 114
1930.0 142 176 218 258 269 252 250 243 220 192
1970.0 134 92 66 54 49 42 51 42 43 40
2010.0 42 48 47 48 45 40 44 54 40 40
2050.0 38 39 41 32 38 33 41 39 35 42
2090.0 40 41 38 37 39 35 34 39 32 39
2130.0 39 37 39 40 38 38 37 42 37 40
2170.0 40 37 38 40 45 43 46 47 45 47
2210.0 54 55 62 72 92 124 170 207 230 224
2250.0 200 166 135 116 104 93 80 77 70 72
2290.0 68 64 60 66 66 66 76 90 92 85
2330.0 70 77 83 100 88 93 85 91 90 89
2370.0 85 80 81 74 76 75 78 79 78 80
2410.0 81 83 82 82 78 75 73 70 67 65
2450.0 64 63 68 68 71 69 68 71 71 68
2490.0 68 68 67 68 71 70 67 70 70 70
2530.0 72 70 73 72 75 80 82 84 88 86
2570.0 92 89 94 97 103 101 103 108 109 111
2610.0 113 111 106 110 112 112 115 114 111 109
2650.0 108 100 106 102 99 100 100 102 104 105
2690.0 110 109 115 115 116 119 123 134 149 165
2730.0 186 195 199 202 204 200 195 190 186 186
2770.0 192 200 210 214 217 215 222 225 236 249
2810.0 259 278 302 330 353 379 408 432 476 535
2850.0 630 771 942 1130 1359 1674 2143 2665 3009 2979
2890.0 2642 2297 2093 2120 2306 2581 2874 3191 3572 4025
2930.0 4503 5057 5576 5857 5769 5414 5447 6128 7663 9609
2970.0 10000 8719 6180 3844 2493 1876 1485 1192 992 880
3010.0 854 867 932 1085 1352 1739 2108 2280 2190 1911
3050.0 1577 1343 1320 1522 1943 2453 2732 2665 2310 1873
3090.0 1558 1378 1227 1071 926 781 665 550 441 355
3130.0 289 249 221 209 196 203 200 198 203 211
3170.0 206 205 204 201 196 197 185 170 172 162
3210.0 146 137 127 120 105 98 92 88 84 80
3250.0 85 80 83 78 73 81 83 79 83 78
3290.0 71 62 72 71 71 66 71 75 81 78
3330.0 75 63 74 78 72 78 84 73 73 91
3370.0 90 77 76 80 87 77 80 76 71 68
3410.0 65 59 67 68 71 63 76 66 62 68
3450.0 65 54 60 62 66 54 63 59 63 54
3490.0 55 56 47 64 44 56 59 53 56 58
3530.0 55 65 57 64 67 59 60 63 53 78
3570.0 58 66 54 54 50 51 75 47 67 56
3610.0 59 53 63 56 71 80 73 65 67 79
3650.0 88 84 73 72 57 100 75 97 54 79
3690.0 81 86 75 67 51 76 80 68 69 67
3730.0 63 81 64 71 91 82 84 60 53 62
3770.0 51 64 45 64 53 47 75 69 85 92
3810.0 58 80 72 91 47 77 85 106 83 67
3850.0 66 81 99 41 64 86 70 96 54 90
3890.0 67 74 63 83 81 72 80 70 81 67
3930.0 62 87 54 58 103 66 77 94 73 52
##END=
