##TITLE=Benzeneacetonitrile, .alpha.-ethyl-.alpha.-phenyl-
##JCAMP-DX=4.24
##DATA TYPE=INFRARED SPECTRUM
##ORIGIN=Sadtler Research Labs Under US-EPA Contract
##OWNER=NIST Standard Reference Data Program
##CAS REGISTRY NO=5558-68-9
##MOLFORM=C 16 H 15 N
##XUNITS=1/CM
##YUNITS=ABSORBANCE
##XFACTOR=1.0
##YFACTOR=0.000072754
##DELTAX=4.0
##FIRSTX=450.0
##LASTX=3966.0
##FIRSTY=0.000000
##MAXX=3966
##MINX=450
##MAXY=0.72754
##MINY=0
##NPOINTS=880
##XYDATA=(X++(Y..Y))
450.0 0 139 290 343 349 435 403 387 365 347
490.0 400 494 495 569 539 554 582 570 665 810
530.0 984 1134 1182 954 635 457 355 310 275 241
570.0 254 287 274 255 298 347 374 495 604 545
610.0 451 370 373 325 313 353 619 964 1398 1568
650.0 1212 779 575 665 700 1033 1367 1691 2345 3255
690.0 5307 7600 10000 8711 6050 3649 2252 1546 1190 1060
730.0 1101 1316 1804 2703 3956 4950 4997 4447 3258 1991
770.0 1211 893 810 771 765 722 661 568 475 415
810.0 353 302 259 233 226 212 233 242 241 247
850.0 234 226 233 258 281 320 381 448 506 507
890.0 484 489 539 639 707 732 733 679 614 540
930.0 534 635 714 691 546 415 397 444 473 471
970.0 412 359 324 317 322 347 393 519 614 536
1010.0 399 371 420 582 902 1369 1493 1132 695 443
1050.0 369 343 354 393 464 557 675 748 755 747
1090.0 727 670 606 585 580 558 525 473 427 417
1130.0 425 403 363 323 314 310 321 338 340 356
1170.0 428 545 652 744 834 886 837 707 582 501
1210.0 448 412 381 370 366 382 408 427 438 434
1250.0 434 469 560 749 1103 1544 1782 1636 1189 818
1290.0 722 733 741 745 738 765 808 807 771 719
1330.0 674 603 523 449 387 349 322 311 316 332
1370.0 357 409 479 623 789 812 726 593 442 379
1410.0 358 350 382 409 465 566 743 1072 1692 2622
1450.0 3213 2781 2297 1882 1531 1312 1218 1247 1521 2192
1490.0 3190 3859 3437 2511 1639 1052 773 600 523 446
1530.0 415 393 386 373 343 319 313 334 333 347
1570.0 402 497 610 759 938 1200 1552 1806 1669 1287
1610.0 845 512 323 209 142 102 115 209 357 529
1650.0 641 671 682 713 769 862 1080 1257 1362 1326
1690.0 1098 832 691 589 532 481 440 413 376 361
1730.0 367 390 386 392 382 368 342 318 303 298
1770.0 313 338 359 372 399 471 590 663 652 565
1810.0 464 396 349 315 279 259 243 240 248 257
1850.0 264 278 299 327 369 405 418 420 421 417
1890.0 403 369 333 299 282 267 259 261 267 280
1930.0 298 338 410 491 548 547 514 500 489 438
1970.0 348 270 227 210 202 196 184 172 167 166
2010.0 163 161 163 159 159 156 155 151 150 150
2050.0 153 152 150 152 153 153 153 156 152 154
2090.0 154 152 149 149 149 145 147 146 146 143
2130.0 147 144 145 146 145 149 153 152 149 152
2170.0 152 155 160 161 163 161 159 156 158 157
2210.0 161 165 179 197 247 327 366 333 274 231
2250.0 197 181 174 171 168 167 167 167 170 172
2290.0 178 177 183 182 183 195 212 233 236 226
2330.0 192 177 176 195 210 219 214 206 203 186
2370.0 191 186 193 192 183 175 166 162 161 168
2410.0 171 174 174 173 169 169 169 163 160 157
2450.0 156 151 151 149 151 147 149 150 146 144
2490.0 145 146 146 142 142 144 140 142 142 139
2530.0 143 143 140 139 142 146 147 148 149 150
2570.0 151 159 162 161 172 173 176 179 179 177
2610.0 167 161 166 162 166 175 178 178 179 178
2650.0 176 172 172 168 164 160 159 155 157 155
2690.0 160 152 150 152 154 150 154 156 163 164
2730.0 165 167 174 183 193 207 220 227 233 233
2770.0 232 231 230 237 240 233 230 224 226 221
2810.0 220 224 225 231 240 250 267 289 311 340
2850.0 372 397 426 467 531 632 766 933 1112 1238
2890.0 1351 1395 1262 1014 817 735 722 738 783 862
2930.0 1011 1265 1652 2110 2513 2707 2559 2166 1816 1643
2970.0 1757 2179 2886 3519 3522 2883 2015 1307 954 819
3010.0 800 856 1000 1234 1562 1932 2278 2481 2443 2219
3050.0 1941 1882 2152 2699 3473 4289 4510 3966 3007 2309
3090.0 2120 2035 1851 1593 1326 1104 901 712 554 451
3130.0 385 340 318 305 301 300 295 298 296 295
3170.0 274 250 232 217 205 204 194 197 195 191
3210.0 187 188 180 177 174 175 173 169 169 167
3250.0 160 160 160 160 157 160 157 154 151 152
3290.0 156 146 148 144 142 140 148 141 143 149
3330.0 153 148 150 152 155 156 159 169 160 162
3370.0 167 177 179 179 183 183 184 188 187 185
3410.0 185 187 184 181 186 188 188 185 181 179
3450.0 177 181 182 177 167 172 170 150 158 157
3490.0 154 159 155 160 153 153 159 157 156 152
3530.0 147 155 150 150 154 150 154 157 144 140
3570.0 153 152 151 150 153 145 150 141 150 157
3610.0 148 154 158 156 150 169 172 167 175 179
3650.0 189 193 192 195 179 174 173 170 172 183
3690.0 189 173 176 185 184 183 197 184 169 183
3730.0 172 172 172 177 183 172 179 164 165 177
3770.0 172 165 162 157 155 154 145 158 154 162
3810.0 163 147 163 155 159 153 156 162 150 148
3850.0 163 154 155 139 137 154 151 170 145 158
3890.0 153 157 162 161 165 156 151 166 161 168
3930.0 171 163 180 186 173 173 171 154 172 188
##END=
