##TITLE=Thiocyanic acid, methyl ester
##JCAMP-DX=4.24
##DATA TYPE=INFRARED SPECTRUM
##ORIGIN=Sadtler Research Labs Under US-EPA Contract
##OWNER=NIST Standard Reference Data Program
##CAS REGISTRY NO=556-64-9
##MOLFORM=C 2 H 3 N S
##XUNITS=1/CM
##YUNITS=ABSORBANCE
##XFACTOR=1.0
##YFACTOR=0.000038443
##DELTAX=4.0
##FIRSTX=450.0
##LASTX=3966.0
##FIRSTY=0.000000
##MAXX=3966
##MINX=450
##MAXY=0.38443
##MINY=0
##NPOINTS=880
##XYDATA=(X++(Y..Y))
450.0 0 342 438 438 392 579 494 272 480 193
490.0 650 577 487 19 292 338 222 343 219 146
530.0 241 277 300 348 284 448 425 556 524 440
570.0 445 312 270 376 278 379 471 601 831 1011
610.0 1139 1114 1144 1213 1157 1150 1053 888 732 654
650.0 596 648 709 701 690 653 658 748 941 956
690.0 1063 1061 990 929 849 903 1038 916 757 591
730.0 422 346 345 363 199 306 481 583 663 797
770.0 930 972 1020 964 958 967 906 879 774 640
810.0 530 453 402 456 501 600 740 751 684 625
850.0 591 497 477 463 431 417 404 425 518 571
890.0 624 680 738 762 784 808 839 858 905 944
930.0 926 1020 1094 1286 1516 1789 2127 2575 3347 4814
970.0 5181 5487 5980 5834 5025 5179 5303 5227 4653 3659
1010.0 2812 2207 1694 1450 1244 1120 1017 1040 963 901
1050.0 841 844 796 775 724 700 667 641 616 641
1090.0 645 618 560 539 467 428 429 437 453 452
1130.0 440 383 349 385 387 421 439 411 445 475
1170.0 546 676 805 1027 1256 1363 1281 1118 975 914
1210.0 866 883 822 789 722 687 611 576 570 544
1250.0 574 606 595 667 694 731 859 918 1034 1113
1290.0 1316 1541 1795 2291 2960 3706 4553 4905 4700 4645
1330.0 4156 4430 4825 4425 3049 2044 1357 1109 1013 927
1370.0 951 917 1013 1214 1300 1585 1837 2047 2687 3122
1410.0 3735 4523 4920 5737 6036 7048 8927 10000 8080 7221
1450.0 6654 6249 6122 5767 4930 3760 2822 2084 1667 1401
1490.0 1195 1182 1064 960 887 849 865 898 848 940
1530.0 906 1029 1048 1040 1081 1154 1189 1117 1162 1142
1570.0 1137 1146 1099 1065 1025 933 943 866 773 610
1610.0 562 494 439 403 335 326 277 280 278 250
1650.0 176 193 285 191 209 191 92 210 92 114
1690.0 149 151 104 170 156 191 173 160 181 218
1730.0 174 86 176 171 166 158 139 152 102 166
1770.0 177 138 190 120 166 173 134 161 180 251
1810.0 249 269 295 268 256 226 240 246 225 228
1850.0 221 228 234 199 228 202 221 218 222 209
1890.0 218 216 243 227 229 236 211 254 226 244
1930.0 252 243 240 215 224 240 213 218 242 235
1970.0 235 199 204 202 207 215 216 243 220 208
2010.0 221 203 220 228 204 214 204 224 247 227
2050.0 227 214 251 269 275 309 288 319 340 288
2090.0 294 279 264 243 216 265 236 271 275 305
2130.0 476 707 1226 1941 3065 4599 5970 7018 7346 7098
2170.0 7800 7673 7686 7510 5897 2827 988 300 190 174
2210.0 147 171 161 163 152 141 158 159 169 191
2250.0 185 178 175 172 171 158 186 236 297 347
2290.0 370 389 350 330 334 293 276 281 251 278
2330.0 195 170 172 174 219 189 181 205 101 106
2370.0 101 96 133 131 140 144 143 156 163 226
2410.0 236 187 178 196 178 161 140 122 110 91
2450.0 95 48 53 39 37 34 23 14 23 16
2490.0 49 31 42 37 44 49 55 81 78 75
2530.0 111 140 163 195 244 335 369 332 252 277
2570.0 285 252 256 225 215 210 211 233 244 251
2610.0 248 207 191 162 176 176 151 127 101 90
2650.0 94 78 71 53 30 34 27 29 28 23
2690.0 31 27 30 29 25 36 47 48 41 46
2730.0 64 54 75 89 81 109 112 121 123 125
2770.0 136 144 149 157 155 174 181 209 238 275
2810.0 329 411 534 688 879 1126 1340 1529 1639 1788
2850.0 1961 2011 2057 1994 1792 1694 1543 1378 1289 1167
2890.0 1103 969 859 889 890 1013 1161 1391 1848 2586
2930.0 3920 5660 7327 8136 6765 6634 6592 6849 7904 7335
2970.0 5159 3221 2031 1414 1176 1091 1079 1178 1312 1498
3010.0 1732 1770 1735 1687 1612 2492 2468 1910 1381 1339
3050.0 1100 961 844 682 590 463 398 344 284 302
3090.0 268 275 295 276 333 332 337 368 364 365
3130.0 362 360 382 365 376 372 372 382 382 353
3170.0 337 337 346 318 305 273 254 252 212 174
3210.0 156 150 142 120 127 114 136 131 119 134
3250.0 121 105 117 126 137 127 119 108 110 117
3290.0 112 105 96 95 85 90 95 98 109 108
3330.0 105 100 78 69 87 91 72 101 86 79
3370.0 86 75 69 102 87 67 82 84 85 84
3410.0 72 89 98 82 75 80 77 66 73 60
3450.0 64 77 97 125 99 104 119 123 136 126
3490.0 129 125 114 119 152 108 116 102 123 149
3530.0 120 101 145 133 142 119 108 78 84 102
3570.0 155 58 63 70 76 70 44 38 62 41
3610.0 80 48 25 66 76 77 38 60 64 73
3650.0 67 96 28 69 59 44 86 37 45 12
3690.0 77 59 32 57 49 85 69 71 69 57
3730.0 84 66 83 78 39 100 12 46 12 26
3770.0 44 25 30 13 12 12 24 40 14 37
3810.0 12 33 18 12 13 15 12 12 12 12
3850.0 12 12 9 25 19 12 36 12 12 40
3890.0 12 12 27 123 23 14 41 64 117 96
3930.0 74 136 66 68 83 12 12 12 12 12
##END=
