##TITLE=Cyclotetrasiloxane, octamethyl-
##JCAMP-DX=4.24
##DATA TYPE=INFRARED SPECTRUM
##ORIGIN=Sadtler Research Labs Under US-EPA Contract
##OWNER=NIST Standard Reference Data Program
##CAS REGISTRY NO=556-67-2
##MOLFORM=C 8 H 24 O 4 Si 4
##XUNITS=1/CM
##YUNITS=ABSORBANCE
##XFACTOR=1.0
##YFACTOR=0.000090088
##DELTAX=4.0
##FIRSTX=450.0
##LASTX=3966.0
##FIRSTY=0.012883
##MAXX=3966
##MINX=450
##MAXY=0.90088
##MINY=0
##NPOINTS=880
##XYDATA=(X++(Y..Y))
450.0 143 208 148 114 98 141 114 109 185 230
490.0 166 114 141 27 26 49 46 46 65 45
530.0 78 127 86 141 182 138 154 163 110 114
570.0 112 80 92 111 148 155 149 179 142 228
610.0 173 185 201 160 154 210 166 161 181 159
650.0 160 215 163 139 196 245 231 274 295 418
690.0 503 523 391 309 229 189 227 180 220 264
730.0 238 253 295 329 307 357 358 363 340 382
770.0 362 428 464 511 652 787 980 1353 1969 2945
810.0 4088 4776 4241 3174 2313 1743 1419 1157 958 805
850.0 676 575 530 487 430 429 404 367 346 352
890.0 340 338 314 291 292 267 237 243 227 228
930.0 215 197 189 180 189 186 192 198 183 185
970.0 203 195 224 244 238 275 314 350 423 468
1010.0 534 618 688 752 802 890 928 966 1105 1271
1050.0 1567 2004 2590 3459 4495 5847 7341 8710 9878 10000
1090.0 8969 7472 5557 4077 2935 2148 1634 1287 1085 959
1130.0 872 850 840 852 842 835 785 715 624 533
1170.0 471 435 375 321 312 288 253 261 238 218
1210.0 204 224 204 217 246 278 276 302 376 461
1250.0 616 907 1573 2609 3472 3070 1954 995 547 368
1290.0 298 279 224 205 193 177 186 180 157 146
1330.0 169 157 156 163 163 160 150 156 131 153
1370.0 140 129 134 131 138 136 145 158 180 180
1410.0 188 191 167 140 154 125 124 119 135 135
1450.0 133 131 75 126 118 119 117 124 125 125
1490.0 122 134 110 132 65 92 107 98 69 111
1530.0 126 88 104 86 139 167 160 124 144 144
1570.0 141 135 94 137 128 111 137 118 94 142
1610.0 127 122 113 121 122 133 125 116 117 111
1650.0 119 51 120 114 104 93 99 77 92 55
1690.0 99 102 63 51 97 101 92 71 117 97
1730.0 104 58 96 111 79 79 92 114 95 101
1770.0 92 85 103 108 110 116 94 104 102 97
1810.0 92 97 81 85 92 76 83 87 75 67
1850.0 79 75 81 87 86 71 95 79 78 89
1890.0 84 83 88 97 88 105 93 104 92 109
1930.0 111 106 95 98 108 112 105 116 95 95
1970.0 99 99 77 78 75 68 82 77 76 80
2010.0 73 66 68 82 72 73 74 75 85 87
2050.0 75 101 95 84 95 94 79 102 83 79
2090.0 83 89 76 78 74 75 79 67 68 74
2130.0 68 62 62 63 58 67 72 62 60 69
2170.0 62 70 74 63 70 70 69 80 76 78
2210.0 79 76 76 79 75 71 75 75 70 70
2250.0 76 66 74 64 59 57 61 59 56 69
2290.0 59 66 66 61 69 84 72 79 73 79
2330.0 94 93 97 133 132 94 128 166 175 171
2370.0 189 135 126 106 79 70 66 61 56 56
2410.0 56 54 51 46 48 52 48 43 47 44
2450.0 45 45 45 45 40 42 40 49 38 50
2490.0 54 51 52 58 45 52 57 53 52 55
2530.0 54 49 60 58 54 63 53 53 58 47
2570.0 52 48 48 51 52 48 47 45 46 39
2610.0 44 36 43 43 38 42 50 40 39 46
2650.0 46 45 56 42 54 56 48 43 53 51
2690.0 43 47 46 36 45 38 28 39 35 21
2730.0 33 27 26 33 24 24 33 29 26 31
2770.0 33 31 42 47 36 50 55 54 69 72
2810.0 77 80 71 74 80 79 76 88 77 76
2850.0 82 75 81 83 89 74 93 76 76 95
2890.0 94 100 134 148 165 195 190 170 153 120
2930.0 106 124 121 133 162 176 248 392 626 960
2970.0 1168 1057 707 416 256 177 144 135 119 109
3010.0 100 87 88 92 75 85 93 70 86 93
3050.0 76 82 100 88 94 110 90 100 108 86
3090.0 99 99 98 105 94 89 94 90 84 93
3130.0 89 66 67 67 63 67 66 45 51 57
3170.0 37 44 39 45 45 40 25 33 51 39
3210.0 46 31 36 47 56 48 49 54 54 51
3250.0 65 55 69 76 57 43 66 55 47 50
3290.0 40 51 57 46 55 46 21 34 31 21
3330.0 21 46 32 29 36 28 24 26 15 21
3370.0 50 38 35 52 35 49 53 56 53 67
3410.0 55 54 58 53 60 69 63 52 57 41
3450.0 27 25 37 46 28 18 21 33 0 4
3490.0 21 21 20 43 14 15 29 41 28 38
3530.0 35 45 39 38 44 61 48 55 69 54
3570.0 59 74 58 55 73 53 44 57 58 42
3610.0 38 41 25 32 48 19 46 55 36 59
3650.0 23 19 32 55 51 45 33 23 51 77
3690.0 78 80 82 81 99 94 89 109 103 94
3730.0 100 89 92 96 72 65 81 87 82 94
3770.0 109 108 119 106 94 107 90 84 94 103
3810.0 106 123 113 108 124 127 119 136 142 136
3850.0 156 157 154 170 153 136 146 143 144 159
3890.0 173 160 150 143 123 132 134 125 126 121
3930.0 122 121 110 94 94 94 55 58 58 58
##END=
