##TITLE=1,2-Cyclobutanedimethanol, trans-
##JCAMP-DX=4.24
##DATA TYPE=INFRARED SPECTRUM
##ORIGIN=Sadtler Research Labs Under US-EPA Contract
##OWNER=NIST Standard Reference Data Program
##CAS REGISTRY NO=55659-54-6
##MOLFORM=C 6 H 12 O 2
##XUNITS=1/CM
##YUNITS=ABSORBANCE
##XFACTOR=1.0
##YFACTOR=0.000058588
##DELTAX=4.0
##FIRSTX=450.0
##LASTX=3966.0
##FIRSTY=0.098662
##MAXX=3966
##MINX=450
##MAXY=0.58588
##MINY=0
##NPOINTS=880
##XYDATA=(X++(Y..Y))
450.0 1684 1332 1118 0 589 646 322 909 927 889
490.0 1087 595 698 553 457 991 907 726 710 831
530.0 840 457 366 528 625 659 717 536 549 344
570.0 180 470 374 370 685 558 561 528 449 537
610.0 469 594 746 800 712 767 658 832 831 603
650.0 548 616 519 478 370 421 332 445 360 265
690.0 402 402 463 401 350 331 383 362 407 398
730.0 427 350 404 540 550 397 423 473 395 492
770.0 433 380 380 440 447 611 502 636 631 544
810.0 537 518 574 497 509 532 474 577 619 647
850.0 641 684 744 659 646 605 605 625 746 683
890.0 686 617 653 612 665 735 721 875 980 1042
930.0 1106 1199 1309 1387 1624 1737 1904 2008 2235 2305
970.0 2356 2277 2306 2330 2617 2977 3599 4477 5438 6404
1010.0 7245 7825 7997 8021 7816 7528 7465 7431 7383 7328
1050.0 7004 6483 5775 5021 4455 4294 4255 4247 4217 4106
1090.0 3977 3754 3617 3375 3266 3052 2791 2581 2395 2218
1130.0 2052 1890 1727 1579 1489 1462 1425 1439 1442 1402
1170.0 1403 1401 1422 1456 1472 1499 1536 1574 1591 1639
1210.0 1696 1772 1838 1913 2037 2100 2170 2247 2288 2304
1250.0 2300 2268 2209 2096 1979 1881 1731 1538 1438 1347
1290.0 1298 1240 1244 1256 1237 1269 1291 1311 1348 1383
1330.0 1407 1452 1492 1548 1582 1646 1725 1793 1898 1999
1370.0 2135 2303 2435 2572 2642 2652 2603 2535 2428 2326
1410.0 2190 2003 1826 1553 1370 1198 1072 1015 957 976
1450.0 985 995 1034 1102 1141 1212 1203 1088 920 810
1490.0 696 566 517 433 422 378 358 333 314 280
1530.0 304 249 283 226 263 267 244 256 176 228
1570.0 235 197 243 203 254 223 217 223 204 227
1610.0 204 232 186 223 219 208 201 182 177 212
1650.0 163 184 168 188 159 151 157 156 180 143
1690.0 184 179 158 142 171 172 180 185 167 178
1730.0 184 177 194 184 229 213 198 198 194 193
1770.0 199 174 190 192 189 175 207 184 233 199
1810.0 201 204 186 203 175 188 178 173 186 157
1850.0 147 165 173 178 166 166 162 171 159 170
1890.0 168 172 167 165 165 170 168 172 162 160
1930.0 160 161 166 160 159 153 158 157 159 163
1970.0 162 162 171 173 182 194 197 195 206 212
2010.0 217 228 234 234 225 230 225 216 220 218
2050.0 208 202 192 189 186 188 183 176 186 178
2090.0 183 182 180 182 181 168 158 164 163 161
2130.0 164 157 160 160 160 167 169 174 179 179
2170.0 168 166 158 153 151 147 142 137 129 126
2210.0 128 134 129 124 122 124 126 130 129 129
2250.0 128 127 128 130 132 124 128 127 118 126
2290.0 134 146 156 162 168 174 176 192 186 195
2330.0 222 196 206 175 212 168 250 186 240 213
2370.0 152 175 144 143 134 106 110 114 119 119
2410.0 126 127 122 122 120 127 124 116 112 109
2450.0 106 106 106 99 103 89 95 96 85 88
2490.0 84 76 75 71 65 65 71 67 60 67
2530.0 60 71 66 63 75 73 78 74 78 82
2570.0 79 87 87 87 91 93 98 94 105 109
2610.0 103 108 113 111 130 135 144 153 157 159
2650.0 166 195 207 194 212 214 220 234 244 253
2690.0 253 260 267 277 296 309 323 333 340 370
2730.0 377 406 427 438 473 487 504 525 548 576
2770.0 606 639 663 688 727 755 786 820 840 872
2810.0 896 939 1006 1066 1176 1318 1496 1761 2069 2505
2850.0 3066 3771 4630 5674 6779 7655 8156 8302 8029 7610
2890.0 7137 6885 7031 7421 7990 8577 9099 9600 10000 9935
2930.0 9393 9135 9044 8746 8747 8475 8121 8169 8038 8335
2970.0 8308 7979 9515 9204 6292 4891 3897 2555 1636 976
3010.0 697 593 456 463 399 354 367 306 309 280
3050.0 237 235 201 200 182 165 173 147 148 135
3090.0 116 133 106 114 104 94 105 96 103 101
3130.0 93 101 79 84 91 90 106 96 105 91
3170.0 85 97 89 94 94 86 90 89 89 93
3210.0 82 92 73 63 73 75 92 84 85 93
3250.0 65 88 88 81 87 86 77 74 74 82
3290.0 82 84 83 99 86 97 104 89 93 111
3330.0 93 94 104 115 115 108 110 120 110 119
3370.0 117 116 133 143 125 126 143 159 162 183
3410.0 175 199 201 197 219 202 196 206 215 205
3450.0 205 201 223 209 204 210 197 210 201 187
3490.0 198 181 184 184 187 203 196 212 237 258
3530.0 286 359 451 578 759 980 1170 1337 1467 1546
3570.0 1526 1499 1395 1275 1141 1062 922 872 730 687
3610.0 593 540 535 484 529 473 494 564 715 837
3650.0 1164 1365 1789 2053 2300 2353 2229 2020 1649 1376
3690.0 860 631 442 301 250 180 126 129 76 114
3730.0 73 55 88 51 91 60 60 60 60 60
3770.0 60 60 60 60 60 60 60 60 60 60
3810.0 60 60 88 59 60 60 60 60 60 69
3850.0 82 60 61 60 60 60 84 87 60 60
3890.0 60 60 59 66 60 60 60 60 60 60
3930.0 60 60 60 60 60 60 60 60 60 60
##END=
