##TITLE=1-Butene, 3,3-dimethyl-
##JCAMP-DX=4.24
##DATA TYPE=INFRARED SPECTRUM
##ORIGIN=Sadtler Research Labs Under US-EPA Contract
##OWNER=NIST Standard Reference Data Program
##CAS REGISTRY NO=558-37-2
##MOLFORM=C 6 H 12
##XUNITS=1/CM
##YUNITS=ABSORBANCE
##XFACTOR=1.0
##YFACTOR=0.000109479
##DELTAX=4.0
##FIRSTX=450.0
##LASTX=3966.0
##FIRSTY=0.000000
##MAXX=3966
##MINX=450
##MAXY=1.09479
##MINY=0
##NPOINTS=880
##XYDATA=(X++(Y..Y))
450.0 0 75 69 122 108 95 118 121 106 87
490.0 77 88 88 75 80 102 86 97 99 93
530.0 91 87 92 93 80 78 88 81 64 88
570.0 77 75 81 87 86 87 93 80 88 83
610.0 98 93 105 107 120 105 114 102 103 105
650.0 116 147 159 265 308 361 431 503 636 558
690.0 441 411 362 293 206 169 140 116 103 118
730.0 100 96 106 88 84 89 89 82 82 82
770.0 79 79 83 89 77 80 84 88 86 94
810.0 94 90 107 112 124 117 134 135 144 155
850.0 168 172 189 234 270 312 336 398 463 518
890.0 693 931 1121 1299 1446 1744 2227 1887 1439 1391
930.0 1180 878 613 435 357 317 320 306 313 316
970.0 333 352 394 452 529 643 743 865 906 814
1010.0 707 595 474 392 344 299 253 245 238 235
1050.0 235 237 245 238 238 241 227 203 198 180
1090.0 164 148 146 141 136 132 131 130 119 116
1130.0 116 112 114 113 117 119 125 133 137 143
1170.0 151 163 184 216 254 319 413 526 642 736
1210.0 789 789 714 588 454 359 296 258 236 225
1250.0 225 226 231 232 226 230 209 185 173 163
1290.0 142 132 127 126 122 120 119 113 115 113
1330.0 124 136 184 254 381 557 734 839 975 1522
1370.0 1497 1106 1206 1121 924 774 526 489 513 497
1410.0 483 454 494 522 456 443 432 404 422 477
1450.0 573 666 739 827 970 1059 1038 940 1002 902
1490.0 696 656 553 405 291 197 155 128 135 107
1530.0 114 101 113 120 107 106 99 128 120 123
1570.0 133 160 173 197 198 219 211 209 197 189
1610.0 184 184 237 288 434 551 682 703 844 891
1650.0 748 713 629 401 244 167 164 129 145 140
1690.0 124 113 132 119 113 102 108 112 103 96
1730.0 100 119 103 101 102 105 103 106 106 105
1770.0 106 111 100 100 100 103 102 104 112 118
1810.0 141 168 196 219 241 255 254 224 221 192
1850.0 154 124 106 95 92 93 92 91 88 92
1890.0 90 92 92 92 94 96 99 97 99 96
1930.0 95 96 94 93 89 92 91 93 94 95
1970.0 97 99 102 104 103 102 101 100 97 97
2010.0 93 91 88 91 88 88 87 88 86 87
2050.0 85 87 86 88 91 91 94 92 95 91
2090.0 93 90 88 87 87 85 83 86 83 82
2130.0 84 86 84 84 85 86 84 83 86 85
2170.0 85 84 85 84 86 84 84 84 85 83
2210.0 84 85 83 85 83 85 85 84 88 91
2250.0 89 90 89 89 91 90 93 91 93 90
2290.0 89 83 80 79 74 68 70 64 64 64
2330.0 64 64 64 64 65 95 64 65 64 64
2370.0 64 67 72 77 87 94 97 96 101 95
2410.0 94 92 90 86 89 88 88 86 87 89
2450.0 86 90 88 90 88 88 90 90 89 89
2490.0 89 89 91 92 90 91 96 94 94 96
2530.0 94 95 97 96 94 95 98 99 101 101
2570.0 106 106 106 105 106 103 104 103 102 100
2610.0 97 97 98 98 96 98 99 101 104 105
2650.0 107 108 112 112 118 113 118 121 121 122
2690.0 126 126 131 140 145 151 160 168 173 176
2730.0 171 170 166 159 157 150 146 144 145 142
2770.0 141 143 143 147 156 169 175 188 200 212
2810.0 219 228 235 244 260 275 292 312 346 407
2850.0 523 699 956 1252 1538 1847 2212 2403 2394 2381
2890.0 2375 2369 2352 2375 2393 2429 2496 2548 2598 2617
2930.0 2672 2781 3073 3655 4595 5712 6700 7760 9658 10000
2970.0 9690 9282 7791 6405 4788 3244 2167 1599 1278 1095
3010.0 1102 900 757 742 597 476 383 346 314 311
3050.0 310 320 341 382 443 540 702 860 951 941
3090.0 1196 1241 925 827 741 550 382 266 222 189
3130.0 182 171 176 167 168 169 170 171 172 179
3170.0 180 183 185 190 188 193 189 185 177 180
3210.0 177 171 175 178 180 180 177 174 165 166
3250.0 156 153 151 141 134 132 125 120 113 111
3290.0 108 107 107 108 108 110 114 118 118 115
3330.0 117 120 119 120 118 119 125 125 123 122
3370.0 123 115 113 110 109 105 100 100 98 97
3410.0 96 97 94 89 86 88 88 90 89 93
3450.0 88 90 89 88 90 92 91 90 90 89
3490.0 92 88 89 82 81 85 79 86 75 70
3530.0 78 82 79 84 73 74 78 75 79 65
3570.0 75 74 81 73 70 77 68 78 71 79
3610.0 75 74 78 70 82 77 76 87 74 81
3650.0 70 75 85 72 90 64 81 68 79 71
3690.0 72 72 77 71 68 70 72 73 69 74
3730.0 74 79 65 84 64 82 66 71 74 78
3770.0 70 78 80 78 81 78 85 72 86 74
3810.0 87 76 81 85 77 77 77 82 67 77
3850.0 70 81 80 65 74 79 73 84 86 73
3890.0 98 82 85 72 77 78 73 74 64 74
3930.0 82 63 69 73 70 65 66 74 66 68
##END=
