##TITLE=6-Phenylhexanoic acid
##JCAMP-DX=4.24
##DATA TYPE=INFRARED SPECTRUM
##ORIGIN=Sadtler Research Labs Under US-EPA Contract
##OWNER=NIST Standard Reference Data Program
##CAS REGISTRY NO=5581-75-9
##MOLFORM=C 12 H 16 O 2
##XUNITS=1/CM
##YUNITS=ABSORBANCE
##XFACTOR=1.0
##YFACTOR=0.000058701
##DELTAX=4.0
##FIRSTX=450.0
##LASTX=3966.0
##FIRSTY=0.018491
##MAXX=3966
##MINX=450
##MAXY=0.58701
##MINY=0
##NPOINTS=880
##XYDATA=(X++(Y..Y))
450.0 315 248 223 0 240 499 393 729 554 655
490.0 615 367 684 834 417 606 657 693 624 671
530.0 856 790 930 1039 1145 1350 1265 1449 1494 1450
570.0 1564 1382 1479 1641 1601 1672 1752 1800 1675 1638
610.0 1787 1692 1722 1672 1586 1568 1399 1431 1251 979
650.0 944 850 794 721 808 742 714 1075 1050 1337
690.0 1950 2354 2743 2628 2047 1764 1501 1529 1506 1743
730.0 1998 1989 2338 1814 1275 1197 1121 718 659 574
770.0 409 415 254 235 224 202 244 180 171 104
810.0 137 140 203 216 103 152 161 99 196 153
850.0 124 145 68 98 109 198 295 119 154 214
890.0 222 260 228 223 255 269 287 319 251 211
930.0 291 222 256 227 255 218 237 237 265 196
970.0 219 227 242 253 254 276 252 211 292 365
1010.0 368 477 519 649 811 1071 1143 1128 1287 1440
1050.0 1555 1602 1665 1563 1638 1736 1865 2039 2067 2302
1090.0 2338 2530 2716 3164 3705 4394 5305 5989 6164 5796
1130.0 5042 4352 3696 3272 2968 2789 2617 2552 2454 2364
1170.0 2254 2162 2062 2017 1887 1762 1637 1549 1445 1340
1210.0 1241 1146 1055 1012 951 924 854 811 801 738
1250.0 768 804 755 746 692 783 750 708 754 714
1290.0 663 658 653 673 647 649 637 627 672 691
1330.0 707 768 871 993 1042 1129 1195 1232 1256 1313
1370.0 1376 1473 1464 1500 1457 1348 1135 958 793 654
1410.0 617 528 560 573 641 677 717 798 856 964
1450.0 1128 1277 1275 1210 971 769 632 478 413 480
1490.0 650 973 1134 979 583 308 228 141 110 109
1530.0 81 90 87 94 84 57 54 101 105 120
1570.0 116 141 147 193 215 281 380 456 569 611
1610.0 491 379 203 145 132 83 78 82 83 76
1650.0 106 136 78 106 76 89 153 119 143 203
1690.0 217 254 347 402 429 439 545 652 770 929
1730.0 1064 1359 1616 2030 2450 2940 3565 4241 5077 6171
1770.0 7636 9003 10000 9690 8348 6757 5285 4388 3491 2743
1810.0 2126 1545 1186 830 621 504 389 303 267 235
1850.0 223 194 179 187 160 202 169 166 143 110
1890.0 114 92 98 83 60 80 76 95 108 102
1930.0 137 153 170 169 165 168 151 134 88 65
1970.0 63 48 46 35 41 39 39 42 44 24
2010.0 40 32 31 22 21 28 22 23 32 23
2050.0 32 15 18 21 24 16 13 16 19 13
2090.0 27 20 22 19 24 24 25 20 28 21
2130.0 21 36 35 34 35 44 46 40 45 41
2170.0 41 52 50 53 52 58 56 64 58 55
2210.0 53 58 56 50 53 49 60 67 51 55
2250.0 49 55 50 55 48 47 48 49 48 43
2290.0 48 47 40 41 35 41 32 11 11 11
2330.0 11 11 11 11 28 27 11 11 45 81
2370.0 95 97 93 83 70 57 59 52 51 54
2410.0 58 53 44 46 46 47 40 46 50 45
2450.0 46 42 40 46 40 38 45 43 47 52
2490.0 51 56 53 50 56 55 55 52 61 62
2530.0 62 58 59 57 53 58 49 49 55 59
2570.0 56 54 60 60 61 63 69 68 67 73
2610.0 81 84 68 79 78 80 81 78 79 88
2650.0 74 85 85 90 78 85 86 84 88 86
2690.0 90 95 93 85 86 82 81 73 77 78
2730.0 75 81 80 69 77 83 78 83 79 94
2770.0 98 100 100 120 128 125 137 154 146 163
2810.0 180 192 202 226 255 287 332 373 457 565
2850.0 737 1019 1396 1827 2158 2264 2115 1840 1536 1293
2890.0 1149 1090 1104 1197 1382 1611 1955 2400 2946 3596
2930.0 4275 4951 5484 5722 5499 4861 3994 3135 2439 1919
2970.0 1526 1265 1070 909 777 671 601 560 554 596
3010.0 653 707 823 1054 1401 1808 2087 2004 1572 1133
3050.0 895 830 880 1046 1382 1714 1797 1508 1172 1014
3090.0 942 822 685 563 494 438 378 295 219 164
3130.0 135 116 114 93 83 93 84 82 92 76
3170.0 75 79 66 59 60 55 50 56 56 42
3210.0 43 47 41 38 53 54 52 41 50 51
3250.0 40 39 35 24 40 33 30 34 35 33
3290.0 35 27 42 20 14 36 25 42 32 24
3330.0 31 30 24 20 25 43 22 49 36 23
3370.0 27 45 43 40 43 25 33 58 32 27
3410.0 30 22 22 44 46 36 22 35 56 49
3450.0 57 53 32 48 35 58 43 39 62 66
3490.0 88 75 74 89 92 99 85 132 128 170
3530.0 178 159 192 207 257 348 376 573 820 1290
3570.0 2451 3837 4498 3433 1897 1017 628 434 290 244
3610.0 238 214 184 140 151 158 156 104 93 113
3650.0 181 157 108 89 51 100 139 130 84 61
3690.0 134 100 69 52 62 77 137 55 65 89
3730.0 70 127 163 105 134 177 99 85 63 71
3770.0 55 26 25 64 55 46 59 45 58 42
3810.0 57 48 87 112 95 88 96 109 121 70
3850.0 78 172 123 45 118 127 127 79 115 78
3890.0 141 73 83 110 113 43 64 89 86 80
3930.0 67 87 83 69 87 49 41 93 67 60
##END=
