##TITLE=1,3-Hexanedione, 4,4,5,5,6,6,6-heptafluoro-1-(2-thienyl)-
##JCAMP-DX=4.24
##DATA TYPE=INFRARED SPECTRUM
##ORIGIN=Sadtler Research Labs Under US-EPA Contract
##OWNER=NIST Standard Reference Data Program
##CAS REGISTRY NO=559-94-4
##MOLFORM=C 10 H 5 F 7 O 2 S
##XUNITS=1/CM
##YUNITS=ABSORBANCE
##XFACTOR=1.0
##YFACTOR=0.000045526
##DELTAX=4.0
##FIRSTX=450.0
##LASTX=3966.0
##FIRSTY=0.024311
##MAXX=3966
##MINX=450
##MAXY=0.45526
##MINY=0
##NPOINTS=880
##XYDATA=(X++(Y..Y))
450.0 534 822 753 360 782 296 959 259 243 566
490.0 549 0 102 291 422 1022 782 657 878 1042
530.0 951 772 663 546 717 772 604 924 853 724
570.0 542 992 946 1081 944 906 938 998 944 978
610.0 975 875 953 868 792 790 804 760 904 717
650.0 652 910 618 666 562 779 589 900 884 925
690.0 904 962 1024 1073 1329 1828 2497 2479 2037 1655
730.0 1299 1648 1663 1741 1184 1742 1554 1275 988 768
770.0 771 835 850 860 1057 1189 1283 1348 1017 758
810.0 787 630 644 653 564 675 613 656 732 798
850.0 944 1172 1327 1316 1267 1624 1741 1611 1496 1363
890.0 1238 944 816 812 841 757 627 695 726 803
930.0 969 1209 1293 1366 1316 1311 1530 1729 2003 1877
970.0 1398 998 814 767 765 776 865 962 1072 1143
1010.0 1188 1175 1097 1108 1146 1189 1212 1163 1154 1345
1050.0 1529 1845 2086 1936 1584 1364 1408 1595 1724 1827
1090.0 1651 1329 1160 1156 1318 1491 1662 1907 2359 3120
1130.0 3759 3601 2796 2148 1861 1819 1893 1996 2136 2218
1170.0 2323 2522 2824 3128 3323 3451 3606 3776 3899 4241
1210.0 4896 5824 6897 7757 8381 8920 9570 10000 9234 7477
1250.0 5966 5363 5245 5099 4899 4587 4173 3708 3265 2820
1290.0 2404 2020 1767 1601 1503 1482 1526 1592 1717 1860
1330.0 2110 2453 2966 3382 3411 3052 2504 1964 1494 1097
1370.0 939 813 794 802 786 846 863 989 1141 1364
1410.0 1854 2196 2258 1876 1716 1619 1479 1488 1383 1464
1450.0 1450 1538 1524 1612 1543 1644 1554 1601 1566 1615
1490.0 1767 1768 1837 1777 1888 2027 1964 2025 2145 2257
1530.0 2334 1978 1925 1728 1826 1872 1926 2168 2149 2357
1570.0 2534 2704 3086 3315 3686 4030 4506 4689 5028 4953
1610.0 4675 4762 4408 4354 3918 3599 3445 3192 3048 2829
1650.0 2523 2314 1870 1669 1424 1208 1221 1029 1095 932
1690.0 898 812 718 651 515 448 388 380 341 296
1730.0 311 259 285 220 291 248 244 256 279 278
1770.0 306 290 233 226 214 160 233 151 230 190
1810.0 184 218 163 211 169 195 153 154 169 150
1850.0 160 128 131 137 136 143 126 127 113 137
1890.0 112 128 113 112 105 121 103 121 101 105
1930.0 95 100 103 103 115 85 112 87 102 102
1970.0 101 94 103 101 101 98 94 84 87 92
2010.0 84 95 95 92 88 81 82 77 80 86
2050.0 73 78 71 69 79 76 77 81 78 82
2090.0 80 78 72 79 78 68 64 61 59 60
2130.0 62 51 42 42 41 46 44 51 57 66
2170.0 66 70 59 55 48 45 36 41 36 28
2210.0 36 35 26 13 28 32 25 35 27 31
2250.0 35 41 38 43 49 48 54 58 50 51
2290.0 57 65 78 87 104 131 128 184 190 221
2330.0 256 228 278 208 320 144 356 250 387 327
2370.0 249 247 166 141 112 86 103 108 109 104
2410.0 106 112 109 107 108 108 113 104 105 105
2450.0 106 114 108 120 123 114 122 124 121 118
2490.0 119 116 114 118 120 118 126 115 116 125
2530.0 122 129 117 116 128 126 131 117 127 134
2570.0 128 135 138 137 144 143 133 131 146 145
2610.0 153 149 146 149 155 163 161 162 165 166
2650.0 163 178 174 171 172 177 182 184 191 193
2690.0 193 207 207 212 216 224 234 235 236 257
2730.0 260 269 271 271 283 284 296 295 298 304
2770.0 312 321 318 336 347 349 359 368 381 383
2810.0 375 393 405 419 418 424 432 440 437 453
2850.0 464 469 480 489 494 495 507 502 503 512
2890.0 500 504 485 488 510 529 537 558 587 618
2930.0 646 666 679 701 698 679 651 639 633 625
2970.0 598 615 579 520 460 436 434 400 394 375
3010.0 363 364 342 356 350 356 356 349 357 347
3050.0 342 331 322 306 308 302 313 321 320 343
3090.0 381 362 331 301 291 269 283 263 268 251
3130.0 229 232 228 222 227 222 221 216 221 209
3170.0 219 227 202 190 207 204 216 222 206 208
3210.0 202 212 203 197 196 208 229 217 212 227
3250.0 204 202 215 206 206 205 206 201 192 212
3290.0 200 193 183 196 197 202 199 190 178 173
3330.0 171 195 209 183 190 185 191 193 187 201
3370.0 187 176 187 186 175 188 171 172 174 183
3410.0 184 175 198 158 162 170 161 178 191 163
3450.0 179 165 182 164 178 178 163 178 161 170
3490.0 183 151 176 152 158 175 165 171 174 169
3530.0 153 176 174 151 163 151 171 187 176 156
3570.0 139 194 161 207 116 240 147 232 155 214
3610.0 141 158 222 135 245 134 185 208 207 88
3650.0 263 15 301 103 253 176 150 229 128 303
3690.0 101 284 171 270 218 209 172 225 191 269
3730.0 217 211 271 112 342 28 355 124 289 206
3770.0 212 258 219 204 231 237 295 161 346 90
3810.0 328 122 292 192 258 209 223 195 271 266
3850.0 265 181 179 284 196 236 226 237 203 232
3890.0 211 272 169 278 171 259 258 231 209 182
3930.0 298 237 258 234 185 307 271 244 222 271
##END=
