##TITLE=3,3'-Iminobispropylamine
##JCAMP-DX=4.24
##DATA TYPE=INFRARED SPECTRUM
##ORIGIN=Sadtler Research Labs Under US-EPA Contract
##OWNER=NIST Standard Reference Data Program
##CAS REGISTRY NO=56-18-8
##MOLFORM=C 6 H 17 N 3
##XUNITS=1/CM
##YUNITS=ABSORBANCE
##XFACTOR=1.0
##YFACTOR=0.000051291
##DELTAX=4.0
##FIRSTX=450.0
##LASTX=3966.0
##FIRSTY=0.010361
##MAXX=3966
##MINX=450
##MAXY=0.51291
##MINY=0
##NPOINTS=880
##XYDATA=(X++(Y..Y))
450.0 202 327 373 295 0 115 208 128 174 231
490.0 236 262 276 359 197 334 275 213 276 286
530.0 329 276 232 268 313 354 363 242 285 331
570.0 324 288 220 283 251 303 354 326 319 343
610.0 366 374 436 483 518 595 566 593 660 666
650.0 797 812 876 1008 1013 1144 1132 1265 1331 1361
690.0 1477 1505 1620 1777 1924 2021 2165 2264 2508 2670
730.0 2883 3102 3396 3562 3783 4034 4440 4406 4641 4634
770.0 4604 4676 4556 4521 4233 4014 3648 3189 2813 2545
810.0 2272 2146 1871 1686 1580 1398 1386 1175 1082 1011
850.0 1032 979 873 835 851 901 771 726 686 683
890.0 681 659 606 591 590 586 543 538 572 609
930.0 750 652 324 327 291 318 356 329 590 836
970.0 460 309 323 339 350 343 403 334 341 407
1010.0 544 544 539 613 695 796 976 868 804 919
1050.0 887 1051 1065 1168 1287 1423 1504 1514 1592 1575
1090.0 1585 1581 1579 1703 1619 1782 1970 2380 2620 2762
1130.0 2943 2922 2724 2350 1892 1524 1294 1197 1002 890
1170.0 838 765 771 658 594 646 682 622 472 420
1210.0 434 433 484 566 671 844 879 911 854 775
1250.0 682 579 534 435 434 423 391 411 408 383
1290.0 431 481 503 539 495 536 561 573 551 617
1330.0 700 776 921 1070 1189 1223 1262 1273 1298 1277
1370.0 1273 1277 1267 1221 1158 1131 1011 876 746 622
1410.0 564 465 512 559 686 908 1053 1193 1278 1372
1450.0 1554 1715 1797 2012 2077 2027 1820 1574 1323 1072
1490.0 786 668 591 625 849 944 965 887 603 366
1530.0 317 273 233 183 260 240 224 215 216 312
1570.0 332 319 343 381 445 531 585 689 749 966
1610.0 1126 1328 1473 1592 1611 1544 1353 1152 978 831
1650.0 668 530 493 473 411 394 404 368 420 294
1690.0 348 264 174 171 191 220 150 143 149 180
1730.0 162 152 159 156 116 153 171 169 168 145
1770.0 157 145 112 176 155 125 125 144 143 163
1810.0 166 128 187 139 119 168 142 178 189 184
1850.0 154 130 134 186 169 147 113 110 99 94
1890.0 84 85 101 62 75 78 86 112 64 83
1930.0 50 59 62 68 48 60 52 82 68 63
1970.0 66 42 66 50 38 73 63 46 64 35
2010.0 20 49 69 62 49 69 87 48 33 27
2050.0 51 46 48 52 65 57 46 42 41 57
2090.0 40 47 52 41 38 36 43 43 45 25
2130.0 46 27 33 27 36 22 29 33 36 52
2170.0 25 30 49 40 53 38 37 55 45 52
2210.0 23 44 42 39 46 48 41 46 33 42
2250.0 34 41 41 37 24 43 45 37 47 58
2290.0 59 72 86 85 95 93 82 57 59 28
2330.0 23 19 27 18 54 53 46 43 19 22
2370.0 26 43 51 82 80 57 54 53 52 57
2410.0 62 58 54 59 60 56 57 65 52 69
2450.0 61 65 71 67 75 69 76 67 72 85
2490.0 82 81 82 94 100 97 92 97 104 106
2530.0 110 103 115 114 121 127 135 132 139 160
2570.0 147 161 171 171 173 192 202 215 207 230
2610.0 253 236 251 266 282 290 309 322 339 349
2650.0 366 393 431 441 470 489 523 547 572 599
2690.0 621 648 677 707 749 751 790 816 852 902
2730.0 946 979 1042 1108 1161 1226 1283 1353 1410 1472
2770.0 1531 1611 1710 1822 1975 2169 2388 2664 2955 3288
2810.0 3596 3890 4121 4246 4329 4371 4392 4464 4565 4738
2850.0 4905 5077 5226 5286 5286 5183 4994 4815 4622 4504
2890.0 4432 4474 4671 4959 5450 6034 6736 7520 8294 8987
2930.0 9581 9939 10000 9528 8691 7703 6645 5620 4648 3769
2970.0 2994 2436 2006 1637 1356 1129 945 799 673 592
3010.0 528 471 404 370 342 322 322 294 275 268
3050.0 249 234 202 187 190 182 169 162 155 165
3090.0 146 124 138 122 116 114 119 109 109 112
3130.0 116 105 86 97 112 111 99 100 105 97
3170.0 99 99 94 92 88 85 98 79 93 82
3210.0 86 103 104 99 91 107 100 93 87 87
3250.0 76 77 93 113 91 100 100 103 94 78
3290.0 92 114 101 125 125 137 133 189 234 241
3330.0 294 380 412 379 375 362 328 285 230 205
3370.0 199 168 155 155 159 168 163 209 210 225
3410.0 220 199 191 163 123 131 123 125 108 99
3450.0 89 90 102 101 82 111 94 79 95 90
3490.0 85 100 89 106 95 85 84 53 65 97
3530.0 87 83 84 85 94 103 55 72 82 74
3570.0 92 77 74 68 86 75 85 83 87 65
3610.0 80 86 58 83 40 61 81 93 60 74
3650.0 35 56 51 96 59 42 38 41 60 58
3690.0 41 31 82 85 68 58 42 61 88 38
3730.0 31 26 91 63 16 43 18 65 43 82
3770.0 62 33 114 40 47 89 117 63 58 84
3810.0 47 54 51 86 76 88 31 86 46 111
3850.0 81 27 20 69 79 44 39 94 112 20
3890.0 66 23 67 32 29 112 91 72 88 77
3930.0 91 85 76 77 71 79 48 102 28 22
##END=
