##TITLE=Carbon Tetrachloride
##JCAMP-DX=4.24
##DATA TYPE=INFRARED SPECTRUM
##ORIGIN=Sadtler Research Labs Under US-EPA Contract
##OWNER=NIST Standard Reference Data Program
##CAS REGISTRY NO=56-23-5
##MOLFORM=C Cl 4
##XUNITS=1/CM
##YUNITS=ABSORBANCE
##XFACTOR=1.0
##YFACTOR=0.000345309
##DELTAX=4.0
##FIRSTX=450.0
##LASTX=3966.0
##FIRSTY=0.000000
##MAXX=3966
##MINX=450
##MAXY=3.45309
##MINY=0
##NPOINTS=880
##XYDATA=(X++(Y..Y))
450.0 0 19 24 7 25 12 42 24 38 20
490.0 37 45 25 20 22 30 15 24 15 13
530.0 20 24 21 19 32 20 24 16 34 26
570.0 28 28 24 24 20 33 21 20 24 32
610.0 29 30 33 29 37 34 36 28 30 26
650.0 28 28 29 26 21 34 38 29 34 36
690.0 34 33 41 40 42 41 49 52 63 87
730.0 136 219 349 570 833 1217 1621 2163 2579 2974
770.0 3454 3819 3976 4049 5556 6985 10000 7249 4691 2174
810.0 948 416 209 122 79 58 42 37 30 28
850.0 24 25 24 26 26 24 29 26 29 26
890.0 24 22 24 22 24 24 24 21 21 21
930.0 20 21 21 22 22 25 25 28 29 32
970.0 33 36 36 34 34 37 40 42 41 44
1010.0 44 42 42 38 32 26 25 21 22 22
1050.0 22 22 24 22 25 24 24 24 21 22
1090.0 22 24 25 24 24 25 25 25 24 22
1130.0 22 20 19 20 19 19 19 19 19 21
1170.0 21 21 21 21 22 24 24 26 28 29
1210.0 30 33 34 33 33 33 33 34 36 37
1250.0 42 45 42 37 30 26 25 25 25 25
1290.0 22 19 17 19 19 16 16 17 19 16
1330.0 16 17 17 16 17 16 15 15 17 17
1370.0 16 17 15 16 16 16 16 17 17 19
1410.0 19 20 17 19 19 17 19 16 19 19
1450.0 17 17 19 19 19 20 20 20 20 20
1490.0 22 21 21 24 24 28 28 30 32 33
1530.0 37 38 45 46 52 54 57 58 58 59
1570.0 57 53 50 52 49 46 44 42 40 36
1610.0 32 29 24 21 17 17 15 15 15 15
1650.0 12 16 13 15 13 12 13 15 15 15
1690.0 15 15 15 15 13 15 15 16 15 16
1730.0 13 15 13 13 13 15 13 13 13 13
1770.0 13 13 13 13 13 16 13 15 15 15
1810.0 13 13 16 13 15 13 15 15 16 16
1850.0 16 15 15 13 13 13 13 15 15 13
1890.0 13 15 12 15 15 12 15 13 12 13
1930.0 13 12 15 13 13 13 15 13 15 13
1970.0 15 13 13 13 13 13 15 12 12 12
2010.0 12 13 13 13 12 12 12 12 12 13
2050.0 11 12 12 12 12 12 12 12 12 13
2090.0 13 12 13 13 12 12 12 13 11 11
2130.0 11 12 12 11 11 11 11 11 11 12
2170.0 9 11 11 9 9 9 9 11 11 11
2210.0 11 9 9 9 9 11 11 11 9 9
2250.0 11 9 12 11 11 9 12 11 12 12
2290.0 12 12 11 11 11 9 9 12 11 11
2330.0 12 9 11 9 11 8 9 9 12 12
2370.0 8 11 8 9 9 9 9 9 9 8
2410.0 9 9 9 11 11 8 8 8 8 8
2450.0 8 8 8 9 9 9 9 9 9 9
2490.0 8 8 8 8 8 8 8 8 7 9
2530.0 7 8 8 8 8 9 7 8 8 7
2570.0 7 7 7 7 8 7 7 7 7 7
2610.0 7 7 7 7 8 8 8 8 8 9
2650.0 9 8 11 9 9 8 9 8 8 8
2690.0 7 9 7 7 7 7 7 7 7 7
2730.0 7 7 7 7 7 7 7 7 7 9
2770.0 7 7 7 7 8 8 7 8 8 8
2810.0 8 8 8 9 7 7 9 8 8 8
2850.0 8 8 8 8 8 9 9 7 7 9
2890.0 7 8 7 8 8 7 9 7 7 8
2930.0 8 8 8 8 8 8 8 9 8 9
2970.0 7 8 8 8 8 8 8 8 7 7
3010.0 7 8 8 8 7 8 8 8 8 8
3050.0 9 7 9 8 8 9 7 7 9 8
3090.0 7 9 8 8 8 7 8 8 8 7
3130.0 9 7 7 8 8 8 8 7 9 9
3170.0 8 9 8 8 8 8 8 9 7 8
3210.0 8 8 9 9 9 9 9 9 8 8
3250.0 8 8 8 8 8 8 8 8 8 11
3290.0 8 8 9 7 8 7 8 8 11 8
3330.0 7 9 9 8 11 8 9 11 8 9
3370.0 7 9 9 9 9 9 9 8 8 9
3410.0 9 8 9 9 7 8 9 11 7 9
3450.0 11 9 9 11 8 9 9 9 9 11
3490.0 11 9 11 8 9 9 9 8 9 11
3530.0 7 11 7 9 7 8 7 9 11 12
3570.0 12 8 8 8 9 8 7 9 11 9
3610.0 7 11 8 11 9 11 9 8 9 8
3650.0 11 8 8 8 9 8 7 8 7 8
3690.0 9 7 9 8 9 12 9 7 7 8
3730.0 11 8 11 8 11 7 9 9 7 9
3770.0 8 8 8 9 7 9 9 9 9 7
3810.0 8 7 8 9 11 11 7 7 9 11
3850.0 9 7 9 9 8 11 9 9 7 11
3890.0 9 12 8 7 9 7 8 11 9 7
3930.0 7 7 7 7 7 8 8 9 9 8
##END=
