##TITLE=Hexobarbital
##JCAMP-DX=4.24
##DATA TYPE=INFRARED SPECTRUM
##ORIGIN=Sadtler Research Labs Under US-EPA Contract
##OWNER=NIST Standard Reference Data Program
##CAS REGISTRY NO=56-29-1
##MOLFORM=C 12 H 16 N 2 O 3
##XUNITS=1/CM
##YUNITS=ABSORBANCE
##XFACTOR=1.0
##YFACTOR=0.000073447
##DELTAX=4.0
##FIRSTX=450.0
##LASTX=3966.0
##FIRSTY=0.013808
##MAXX=3966
##MINX=450
##MAXY=0.73447
##MINY=0
##NPOINTS=880
##XYDATA=(X++(Y..Y))
450.0 188 170 193 49 71 82 40 23 24 69
490.0 108 151 109 105 81 76 88 116 109 105
530.0 164 183 200 164 106 79 63 120 171 225
570.0 181 181 105 92 67 88 83 132 143 172
610.0 232 302 360 368 347 346 346 369 419 480
650.0 553 540 469 329 270 159 126 69 45 39
690.0 26 21 13 70 62 74 72 62 60 59
730.0 68 94 98 147 242 385 623 759 713 488
770.0 284 165 110 82 74 86 93 102 104 98
810.0 84 85 79 60 37 51 37 28 25 20
850.0 31 34 38 23 22 6 12 33 34 62
890.0 75 81 77 70 45 44 60 80 103 108
930.0 100 83 79 88 80 82 78 71 67 52
970.0 38 30 31 23 25 31 34 46 52 76
1010.0 109 165 236 360 548 801 1065 1165 1001 686
1050.0 416 266 203 177 168 162 165 174 170 158
1090.0 141 139 156 192 232 276 311 337 358 346
1130.0 314 291 294 300 309 298 286 299 330 389
1170.0 478 597 733 853 941 1002 1006 944 817 653
1210.0 510 413 362 325 302 298 305 328 389 476
1250.0 588 712 817 859 818 736 649 591 562 572
1290.0 626 721 886 1108 1403 1729 2108 2557 3022 3308
1330.0 3220 2743 2151 1675 1393 1249 1189 1195 1291 1481
1370.0 1773 2192 2689 3140 3351 3220 2836 2365 1955 1667
1410.0 1496 1405 1419 1523 1765 2187 2714 3148 3201 2860
1450.0 2357 1980 1719 1485 1204 923 687 523 424 369
1490.0 338 310 310 292 310 318 321 310 291 254
1530.0 214 189 169 163 156 157 153 159 160 152
1570.0 171 169 174 179 173 174 172 169 153 159
1610.0 147 152 155 167 177 181 212 228 255 275
1650.0 316 329 356 364 417 469 563 658 784 977
1690.0 1254 1767 2659 4348 6557 8455 8576 6882 4957 4047
1730.0 4358 5797 7936 9683 10000 8497 6380 4769 3890 3336
1770.0 2794 2143 1591 1186 915 698 547 426 345 278
1810.0 238 221 195 197 184 177 166 159 151 144
1850.0 133 115 106 92 86 76 74 67 72 72
1890.0 78 81 81 81 71 65 52 53 42 39
1930.0 37 36 35 33 34 30 32 31 34 30
1970.0 29 27 25 24 19 19 17 16 17 16
2010.0 11 13 16 11 14 11 11 11 11 8
2050.0 10 10 9 12 9 11 10 12 9 15
2090.0 16 18 15 13 12 7 9 7 9 5
2130.0 6 5 7 7 8 5 6 14 8 6
2170.0 7 5 6 7 8 9 9 8 13 11
2210.0 9 10 9 6 7 9 9 10 10 12
2250.0 10 8 9 14 13 16 19 24 28 29
2290.0 33 35 42 38 44 41 37 21 16 3
2330.0 0 0 0 0 0 25 0 0 0 0
2370.0 0 3 16 30 28 15 12 11 7 8
2410.0 9 6 2 2 1 1 1 2 1 3
2450.0 1 5 2 8 9 7 12 12 12 11
2490.0 10 15 11 14 13 15 21 17 17 16
2530.0 13 13 14 12 10 6 10 10 7 6
2570.0 7 5 6 6 4 3 7 4 8 5
2610.0 6 5 5 5 7 7 9 6 13 13
2650.0 17 20 26 29 32 32 29 32 31 31
2690.0 27 25 25 28 28 30 26 24 20 18
2730.0 15 11 12 15 15 18 17 21 20 24
2770.0 27 35 39 41 44 45 47 54 62 65
2810.0 74 78 85 95 115 133 165 225 320 429
2850.0 504 506 470 480 572 677 704 637 557 531
2890.0 551 572 577 576 584 616 683 815 963 1112
2930.0 1247 1408 1645 2043 2544 2743 2334 1589 937 652
2970.0 518 433 366 334 354 404 463 458 379 264
3010.0 190 165 162 158 155 130 108 104 99 111
3050.0 117 130 123 119 114 103 85 69 61 56
3090.0 54 52 52 56 52 52 51 51 40 38
3130.0 45 41 38 36 36 36 38 32 30 31
3170.0 29 25 24 23 25 24 18 16 9 20
3210.0 19 19 17 16 19 19 19 19 18 13
3250.0 15 11 14 15 12 14 16 15 21 20
3290.0 22 18 12 18 12 11 8 10 15 18
3330.0 16 15 14 18 22 26 18 24 23 25
3370.0 22 24 21 25 26 34 40 41 62 84
3410.0 128 208 380 676 1079 1401 1423 1103 656 335
3450.0 183 137 121 122 113 109 84 82 68 69
3490.0 66 62 58 51 52 41 38 26 24 23
3530.0 11 16 23 23 13 17 10 12 4 3
3570.0 14 11 15 16 12 19 11 12 11 8
3610.0 14 10 8 1 6 7 4 11 5 21
3650.0 9 3 11 7 17 15 14 4 12 14
3690.0 18 12 5 6 6 2 13 9 6 10
3730.0 5 11 9 10 12 13 11 7 6 11
3770.0 17 18 22 21 15 21 17 8 15 7
3810.0 19 20 14 15 4 16 17 13 17 22
3850.0 14 28 29 23 22 15 17 21 17 17
3890.0 26 25 30 40 23 17 21 29 33 19
3930.0 25 12 30 33 28 27 26 39 29 25
##END=
