##TITLE=Pentane, 2,3,3-trimethyl-
##JCAMP-DX=4.24
##DATA TYPE=INFRARED SPECTRUM
##ORIGIN=Sadtler Research Labs Under US-EPA Contract
##OWNER=NIST Standard Reference Data Program
##CAS REGISTRY NO=560-21-4
##MOLFORM=C 8 H 18
##XUNITS=1/CM
##YUNITS=ABSORBANCE
##XFACTOR=1.0
##YFACTOR=0.000171478
##DELTAX=4.0
##FIRSTX=450.0
##LASTX=3966.0
##FIRSTY=0.000000
##MAXX=3966
##MINX=450
##MAXY=1.71478
##MINY=0
##NPOINTS=880
##XYDATA=(X++(Y..Y))
450.0 0 52 122 78 85 58 84 109 102 117
490.0 89 87 99 99 93 108 105 126 125 126
530.0 135 142 133 145 128 113 102 97 61 93
570.0 79 72 80 86 101 73 44 117 85 66
610.0 62 70 65 55 58 57 63 59 66 65
650.0 61 60 69 65 68 79 73 65 65 60
690.0 58 62 54 55 54 43 51 51 49 44
730.0 42 49 48 46 49 45 50 68 70 86
770.0 104 120 124 132 128 106 93 81 75 71
810.0 72 68 63 62 59 58 56 54 47 49
850.0 49 46 50 51 53 50 51 55 63 69
890.0 69 71 73 68 69 72 80 90 97 105
930.0 108 104 96 83 80 69 66 60 65 61
970.0 62 66 70 76 86 111 141 187 237 298
1010.0 327 331 321 279 229 189 170 156 147 142
1050.0 127 115 110 101 98 109 135 169 202 240
1090.0 255 265 265 238 217 192 168 145 129 118
1130.0 125 146 190 252 319 374 400 399 364 306
1170.0 252 218 198 204 217 221 224 218 199 179
1210.0 171 166 152 132 120 111 100 94 85 83
1250.0 76 79 79 78 80 83 90 96 114 125
1290.0 135 144 145 139 128 124 120 124 130 139
1330.0 140 145 143 149 166 204 284 405 566 789
1370.0 1130 1375 1482 1621 1599 1342 1128 905 592 419
1410.0 308 231 173 167 163 194 235 283 383 479
1450.0 648 776 1019 1178 1298 1371 1331 1232 994 797
1490.0 581 398 273 185 149 117 107 101 90 92
1530.0 82 91 84 77 80 86 88 75 81 78
1570.0 78 74 77 68 73 68 68 67 64 66
1610.0 61 63 60 65 57 63 62 61 64 64
1650.0 63 59 67 66 67 65 62 68 62 62
1690.0 62 66 59 64 64 71 73 69 75 80
1730.0 79 79 84 74 79 75 75 71 68 67
1770.0 63 56 54 53 53 52 49 52 50 51
1810.0 49 48 51 48 49 47 48 48 48 44
1850.0 46 48 48 49 47 46 48 48 48 47
1890.0 46 48 48 47 46 45 46 45 45 46
1930.0 43 45 43 44 44 45 42 44 45 46
1970.0 43 44 46 45 45 43 46 44 44 45
2010.0 45 45 45 45 45 47 45 46 45 47
2050.0 45 46 45 44 44 46 43 45 44 42
2090.0 44 43 41 43 41 42 41 42 43 41
2130.0 42 43 44 43 43 43 42 43 43 42
2170.0 41 41 43 42 42 42 41 44 42 43
2210.0 43 43 44 44 44 44 45 47 46 47
2250.0 47 47 48 47 49 49 50 48 50 52
2290.0 53 54 55 56 57 56 56 56 54 57
2330.0 56 52 59 56 59 62 58 57 58 62
2370.0 62 64 61 63 63 62 59 61 60 58
2410.0 59 61 58 59 59 58 56 55 57 54
2450.0 54 53 53 56 57 55 57 55 55 58
2490.0 57 55 55 55 55 56 56 52 56 55
2530.0 56 56 58 58 60 59 62 61 62 64
2570.0 65 67 70 70 71 75 82 89 98 106
2610.0 114 119 121 122 120 116 109 105 100 99
2650.0 102 103 106 107 106 104 101 98 96 95
2690.0 95 92 94 96 100 103 108 117 127 138
2730.0 148 161 168 167 167 159 156 154 157 161
2770.0 164 171 175 179 182 187 193 202 214 224
2810.0 234 243 252 263 275 296 318 351 393 451
2850.0 533 658 851 1113 1459 1883 2369 2876 3303 3578
2890.0 3679 3658 3537 3351 3151 3056 3035 3126 3297 3516
2930.0 3793 4089 4410 4682 4959 5280 5801 6558 7642 8971
2970.0 9755 10000 9570 8398 6660 4761 3208 2084 1332 891
3010.0 647 514 436 387 358 331 316 302 289 275
3050.0 264 251 240 233 224 222 213 210 204 198
3090.0 189 180 175 166 161 156 152 147 149 148
3130.0 147 148 149 149 151 154 158 161 164 169
3170.0 169 170 171 164 160 156 153 144 135 128
3210.0 127 116 113 106 103 99 94 89 84 84
3250.0 83 78 75 73 72 70 73 67 67 66
3290.0 68 67 65 62 61 67 62 63 63 67
3330.0 70 66 68 69 69 67 66 63 64 61
3370.0 63 61 63 59 63 64 63 62 62 62
3410.0 60 62 62 61 64 62 60 58 56 58
3450.0 56 55 56 57 53 51 54 52 51 54
3490.0 53 53 50 51 52 51 51 56 50 48
3530.0 47 48 49 45 47 45 43 48 47 48
3570.0 45 45 45 45 42 47 45 49 44 45
3610.0 46 46 50 46 47 48 50 46 45 50
3650.0 47 49 52 53 57 49 55 49 55 52
3690.0 55 48 49 50 56 57 53 54 50 52
3730.0 52 50 52 50 49 53 48 51 57 56
3770.0 51 55 56 50 51 54 55 57 56 57
3810.0 52 52 53 55 54 57 50 45 57 53
3850.0 52 47 48 54 47 52 50 57 49 48
3890.0 55 51 57 51 53 53 52 42 45 56
3930.0 53 41 54 50 49 45 51 53 48 48
##END=
