##TITLE=Valeric acid, 4-hydroxy-3-mercapto-, .gamma.-lactone
##JCAMP-DX=4.24
##DATA TYPE=INFRARED SPECTRUM
##ORIGIN=Sadtler Research Labs Under US-EPA Contract
##OWNER=NIST Standard Reference Data Program
##CAS REGISTRY NO=56078-99-0
##MOLFORM=C 5 H 8 O 2 S
##XUNITS=1/CM
##YUNITS=ABSORBANCE
##XFACTOR=1.0
##YFACTOR=0.000080014
##DELTAX=4.0
##FIRSTX=450.0
##LASTX=3966.0
##FIRSTY=0.005281
##MAXX=3966
##MINX=450
##MAXY=0.80014
##MINY=0
##NPOINTS=880
##XYDATA=(X++(Y..Y))
450.0 66 23 26 38 54 49 42 38 75 72
490.0 89 79 98 149 148 152 155 134 129 127
530.0 79 84 45 42 33 16 5 2 11 7
570.0 21 40 29 41 40 41 36 24 33 40
610.0 30 10 18 0 0 12 13 12 14 26
650.0 38 67 76 74 70 141 87 91 68 83
690.0 87 95 108 189 105 101 99 84 72 77
730.0 185 90 63 93 115 123 112 132 98 118
770.0 95 67 65 109 185 314 488 592 725 790
810.0 1387 1539 962 989 915 801 637 535 433 303
850.0 258 300 365 436 571 680 709 786 744 746
890.0 684 486 287 170 131 136 186 281 411 533
930.0 622 738 917 1104 1276 1198 1128 1186 1132 1137
970.0 903 606 429 321 234 163 122 97 99 111
1010.0 130 175 241 322 360 324 332 385 359 290
1050.0 236 233 280 361 465 573 715 783 952 1150
1090.0 1418 1775 2232 2609 2911 2992 2913 2861 2473 1908
1130.0 1533 1282 1258 1443 1590 1516 1502 1599 1529 1286
1170.0 1025 809 665 566 497 446 406 335 252 187
1210.0 156 142 135 139 140 135 129 120 114 126
1250.0 156 201 228 230 240 242 256 247 246 293
1290.0 376 473 573 672 778 869 917 833 669 617
1330.0 590 505 422 341 272 225 202 181 187 194
1370.0 226 249 292 375 273 279 223 205 158 113
1410.0 79 84 93 106 102 126 137 186 192 216
1450.0 237 262 286 253 249 213 184 137 109 78
1490.0 69 56 58 56 71 70 61 56 56 46
1530.0 15 21 13 24 13 4 0 8 21 12
1570.0 23 22 40 24 37 42 60 66 77 85
1610.0 102 116 131 115 96 113 105 100 83 92
1650.0 76 131 121 138 154 180 185 204 183 193
1690.0 180 174 168 182 187 221 256 284 294 311
1730.0 316 347 383 432 486 548 613 661 720 818
1770.0 963 1241 1683 2376 3560 5317 7095 8373 9208 9527
1810.0 10000 9691 8772 6774 5101 3947 3224 2719 2438 1744
1850.0 1067 688 494 405 342 308 268 228 188 154
1890.0 134 128 141 153 158 168 156 158 132 102
1930.0 68 45 28 23 23 23 27 29 31 34
1970.0 42 45 49 53 54 56 61 61 59 60
2010.0 61 59 65 67 72 76 81 87 91 87
2050.0 83 74 61 53 71 91 96 77 51 27
2090.0 14 15 14 14 13 15 14 13 10 8
2130.0 9 11 11 9 13 15 13 13 14 18
2170.0 19 20 20 22 26 25 28 27 28 28
2210.0 26 28 29 29 33 36 41 51 63 70
2250.0 81 91 97 99 99 92 93 91 85 75
2290.0 72 67 69 72 67 63 57 35 44 38
2330.0 34 40 40 56 80 59 65 43 76 73
2370.0 80 77 75 57 26 7 1 0 3 5
2410.0 6 4 1 0 1 0 4 9 12 20
2450.0 27 30 33 35 33 38 38 33 34 32
2490.0 30 29 22 23 18 18 12 13 13 8
2530.0 8 7 7 5 3 4 7 8 10 6
2570.0 13 14 17 20 20 24 31 30 31 30
2610.0 29 25 19 15 12 13 14 14 15 15
2650.0 18 18 17 15 19 20 19 18 20 17
2690.0 18 12 16 14 17 14 17 19 20 18
2730.0 18 22 25 24 27 28 28 28 30 29
2770.0 30 27 31 28 30 28 26 28 31 32
2810.0 34 35 35 32 32 33 33 37 36 42
2850.0 46 55 64 75 97 119 151 177 203 243
2890.0 282 328 372 410 472 559 495 455 454 466
2930.0 504 529 504 494 473 414 391 310 254 248
2970.0 303 419 521 581 743 741 724 698 566 480
3010.0 375 272 193 140 107 82 73 66 59 57
3050.0 50 50 47 50 49 53 66 78 89 82
3090.0 78 79 84 82 65 64 61 52 49 49
3130.0 46 38 31 29 24 25 28 26 21 21
3170.0 19 20 21 20 22 26 26 28 30 32
3210.0 30 35 30 30 29 27 26 21 19 16
3250.0 11 13 13 10 6 10 12 11 11 16
3290.0 12 12 17 14 11 11 12 16 12 19
3330.0 20 18 20 16 13 11 13 16 10 15
3370.0 15 8 11 13 12 11 10 12 13 9
3410.0 11 11 4 7 5 10 3 11 15 14
3450.0 9 12 8 7 14 18 12 7 2 7
3490.0 16 12 9 13 6 9 10 12 10 5
3530.0 8 6 21 17 23 24 30 22 45 57
3570.0 74 84 90 104 102 104 93 75 69 55
3610.0 55 37 11 6 8 21 22 23 24 26
3650.0 36 32 37 22 25 12 0 5 8 11
3690.0 19 18 8 13 24 29 24 18 14 22
3730.0 10 26 37 17 40 14 28 8 9 15
3770.0 7 14 9 2 9 14 2 8 15 18
3810.0 20 21 21 19 13 21 13 28 24 30
3850.0 11 34 18 30 27 19 19 26 35 31
3890.0 23 19 17 19 20 22 0 22 4 0
3930.0 10 20 22 21 30 23 25 16 29 9
##END=
