##TITLE=2,5-Pyrrolidinedione, 3-methyl-
##JCAMP-DX=4.24
##DATA TYPE=INFRARED SPECTRUM
##ORIGIN=Sadtler Research Labs Under US-EPA Contract
##OWNER=NIST Standard Reference Data Program
##CAS REGISTRY NO=5615-90-7
##MOLFORM=C 5 H 7 N O 2
##XUNITS=1/CM
##YUNITS=ABSORBANCE
##XFACTOR=1.0
##YFACTOR=0.000163718
##DELTAX=4.0
##FIRSTX=450.0
##LASTX=3966.0
##FIRSTY=0.015226
##MAXX=3966
##MINX=450
##MAXY=1.63718
##MINY=0
##NPOINTS=880
##XYDATA=(X++(Y..Y))
450.0 93 40 6 52 13 22 26 32 17 20
490.0 21 30 29 20 41 25 64 63 100 104
530.0 139 155 199 267 314 319 329 352 347 286
570.0 221 191 171 175 179 179 205 228 265 319
610.0 418 528 650 816 963 1048 1144 1219 1254 1130
650.0 977 817 732 571 489 372 288 239 191 164
690.0 133 128 116 116 139 178 206 248 323 344
730.0 286 238 199 154 118 83 64 61 61 65
770.0 75 98 122 144 160 157 147 133 111 82
810.0 61 50 38 27 19 12 13 7 8 16
850.0 29 40 74 101 119 134 157 156 159 144
890.0 125 140 150 166 196 246 290 291 299 290
930.0 278 244 175 113 81 62 52 49 42 41
970.0 38 35 38 43 43 47 57 68 84 119
1010.0 175 264 370 472 534 564 563 525 452 339
1050.0 238 188 166 173 190 212 230 253 260 244
1090.0 236 229 221 216 224 232 250 279 323 397
1130.0 518 714 1028 1455 1901 2198 2329 2370 2265 1938
1170.0 1418 906 627 541 539 547 549 536 521 490
1210.0 443 397 374 375 384 386 382 379 376 371
1250.0 370 381 403 447 511 599 695 781 852 902
1290.0 930 943 918 879 855 886 1043 1294 1609 1910
1330.0 2039 2033 1969 1787 1433 998 657 459 354 298
1370.0 276 276 268 264 247 223 207 155 119 103
1410.0 104 121 143 177 189 195 205 221 213 201
1450.0 194 195 200 197 201 187 155 135 109 86
1490.0 62 53 44 38 35 30 27 20 22 19
1530.0 21 20 24 23 28 36 39 37 41 38
1570.0 35 34 32 29 24 25 21 21 20 22
1610.0 22 20 26 22 27 30 41 40 51 55
1650.0 67 73 86 90 106 119 130 152 162 184
1690.0 207 238 275 324 393 482 615 787 1035 1306
1730.0 1665 2042 2577 3335 4529 5993 7600 8928 9506 10000
1770.0 9745 9357 7482 5707 4358 3630 3148 2778 2358 2043
1810.0 1817 1631 1398 1054 726 495 362 271 217 173
1850.0 152 137 125 116 112 109 108 108 102 97
1890.0 87 80 72 62 56 53 53 57 61 65
1930.0 69 71 77 73 64 56 47 38 32 26
1970.0 20 17 14 13 11 9 10 6 7 5
2010.0 7 4 2 0 2 0 1 0 0 3
2050.0 2 4 4 5 4 5 3 2 5 3
2090.0 3 4 5 6 8 10 10 12 11 9
2130.0 10 7 4 1 2 1 3 4 6 5
2170.0 7 7 8 7 11 12 14 17 15 16
2210.0 14 12 12 11 11 11 8 8 9 11
2250.0 11 12 13 12 11 12 11 13 15 15
2290.0 16 20 19 25 25 24 23 22 22 18
2330.0 11 13 16 24 24 31 29 30 30 33
2370.0 32 34 35 36 31 24 19 19 16 18
2410.0 13 12 12 10 10 10 11 11 12 14
2450.0 14 16 18 21 20 21 23 23 21 21
2490.0 21 19 17 14 12 10 7 6 5 8
2530.0 9 8 9 7 5 9 9 8 6 6
2570.0 8 8 9 11 9 12 11 14 14 16
2610.0 15 16 13 13 17 16 17 19 18 20
2650.0 20 22 25 24 23 20 16 14 12 6
2690.0 7 5 7 5 7 7 2 5 4 4
2730.0 5 4 6 8 7 8 7 8 9 6
2770.0 7 8 7 4 6 9 6 8 8 11
2810.0 12 14 18 19 22 26 31 31 31 32
2850.0 36 34 36 42 49 67 83 104 123 136
2890.0 142 140 135 127 124 126 136 154 176 204
2930.0 232 269 298 331 345 327 302 314 320 354
2970.0 386 427 504 539 513 479 394 337 257 208
3010.0 131 75 52 41 38 31 35 31 35 32
3050.0 31 29 25 25 26 23 20 25 21 27
3090.0 26 25 25 30 28 27 29 30 31 34
3130.0 37 37 36 37 30 31 28 24 19 21
3170.0 18 18 16 16 17 19 17 17 16 21
3210.0 20 17 16 11 11 13 13 12 11 13
3250.0 10 13 8 9 9 6 10 10 13 10
3290.0 11 11 13 11 7 10 11 9 11 8
3330.0 13 11 11 9 13 8 14 8 10 12
3370.0 13 13 10 11 15 15 12 16 16 19
3410.0 22 29 33 60 105 176 280 433 619 809
3450.0 940 975 903 856 763 532 317 168 83 44
3490.0 26 21 21 26 22 29 34 38 47 50
3530.0 63 70 78 83 87 88 97 88 76 71
3570.0 60 47 43 36 32 24 22 19 19 11
3610.0 10 8 9 11 7 8 8 5 7 6
3650.0 9 3 5 11 10 12 2 14 11 9
3690.0 17 13 8 14 7 7 15 6 4 10
3730.0 17 11 12 8 22 11 13 10 5 11
3770.0 10 11 3 6 10 13 3 5 11 7
3810.0 13 15 13 3 13 16 15 9 10 17
3850.0 11 9 12 4 13 10 9 14 16 16
3890.0 8 5 15 20 20 21 14 20 23 11
3930.0 7 11 2 20 6 22 32 21 21 10
##END=
