##TITLE=Pentane, 3,3-dimethyl-
##JCAMP-DX=4.24
##DATA TYPE=INFRARED SPECTRUM
##ORIGIN=Sadtler Research Labs Under US-EPA Contract
##OWNER=NIST Standard Reference Data Program
##CAS REGISTRY NO=562-49-2
##MOLFORM=C 7 H 16
##XUNITS=1/CM
##YUNITS=ABSORBANCE
##XFACTOR=1.0
##YFACTOR=0.000069092
##DELTAX=4.0
##FIRSTX=450.0
##LASTX=3966.0
##FIRSTY=0.000000
##MAXX=3966
##MINX=450
##MAXY=0.69092
##MINY=0
##NPOINTS=880
##XYDATA=(X++(Y..Y))
450.0 0 186 285 246 211 310 221 226 190 220
490.0 187 203 144 263 255 211 212 221 198 184
530.0 194 223 193 189 183 179 191 200 152 183
570.0 181 186 186 192 188 183 163 196 187 173
610.0 187 174 196 194 206 178 165 161 187 182
650.0 201 182 153 170 160 198 198 180 171 182
690.0 174 171 197 194 164 196 166 182 185 181
730.0 183 168 169 187 170 197 197 219 214 239
770.0 252 270 284 290 310 289 291 271 246 220
810.0 214 188 190 182 181 189 176 178 177 187
850.0 178 195 193 175 182 179 170 176 172 178
890.0 183 185 180 195 191 198 201 199 196 197
930.0 188 189 185 169 169 178 178 181 179 182
970.0 185 190 204 225 264 311 382 468 532 556
1010.0 547 512 436 378 314 287 274 258 244 236
1050.0 227 219 215 225 238 243 260 268 261 248
1090.0 240 225 202 195 193 182 179 179 178 180
1130.0 180 179 180 177 177 182 182 189 193 202
1170.0 221 253 289 319 361 397 405 410 397 373
1210.0 348 332 310 278 255 227 212 202 198 192
1250.0 192 188 192 194 190 199 205 218 232 242
1290.0 249 254 247 243 228 218 216 209 211 214
1330.0 224 212 234 260 283 335 406 518 573 788
1370.0 1041 1003 1093 1171 1147 1060 947 764 578 461
1410.0 344 287 247 248 247 265 314 376 482 598
1450.0 761 948 1165 1360 1446 1475 1465 1338 1101 883
1490.0 681 511 371 296 245 215 204 190 192 182
1530.0 183 178 180 182 185 190 186 191 196 193
1570.0 194 193 192 192 188 188 186 179 174 173
1610.0 172 166 170 164 168 169 166 166 167 166
1650.0 170 169 171 167 169 165 170 162 160 157
1690.0 161 162 165 159 157 155 159 152 156 152
1730.0 151 156 157 153 152 150 154 155 151 155
1770.0 152 156 152 151 155 157 151 150 153 149
1810.0 149 145 149 146 150 147 148 146 147 148
1850.0 147 147 149 148 147 145 146 152 153 149
1890.0 149 150 147 146 147 145 146 142 139 143
1930.0 143 141 145 142 144 145 141 143 142 141
1970.0 146 144 147 143 139 141 143 141 143 140
2010.0 139 145 142 138 137 140 142 142 145 144
2050.0 144 143 141 147 144 142 142 143 143 143
2090.0 141 141 141 145 140 143 136 138 138 141
2130.0 137 140 136 137 136 137 140 137 136 141
2170.0 138 140 139 140 133 135 134 136 138 136
2210.0 138 138 138 138 142 142 142 138 145 144
2250.0 143 141 139 140 139 144 146 146 143 141
2290.0 138 146 149 150 151 148 149 140 133 141
2330.0 133 133 133 132 136 158 133 135 133 133
2370.0 146 154 159 162 163 164 157 157 155 159
2410.0 156 155 157 156 151 151 150 147 148 151
2450.0 152 154 156 154 157 155 158 153 155 152
2490.0 153 147 148 144 145 146 146 150 145 150
2530.0 148 155 154 155 157 158 162 162 159 162
2570.0 158 159 162 158 159 160 163 160 164 169
2610.0 172 173 181 184 185 191 189 191 190 194
2650.0 200 206 215 210 216 219 219 215 212 210
2690.0 204 202 206 205 201 209 217 224 229 240
2730.0 247 251 260 268 264 256 258 253 247 254
2770.0 259 264 277 283 290 301 309 319 338 351
2810.0 360 375 386 403 426 456 502 573 687 856
2850.0 1075 1343 1646 1921 2238 2513 2628 2927 3215 3263
2890.0 3416 3533 3608 3790 3881 4054 4289 4449 4525 4618
2930.0 4714 4788 4894 5010 5160 5530 6190 7327 8666 9351
2970.0 9992 10000 8785 6935 5006 3373 2103 1320 892 685
3010.0 568 497 461 431 409 392 386 372 365 354
3050.0 360 363 359 358 356 349 340 336 336 322
3090.0 314 303 292 285 273 261 245 240 241 235
3130.0 237 232 236 238 235 241 238 239 247 251
3170.0 250 249 249 247 241 245 241 239 231 229
3210.0 222 218 213 207 200 196 194 194 194 190
3250.0 187 184 184 182 181 174 175 171 171 173
3290.0 168 162 169 167 166 165 168 179 176 175
3330.0 182 170 174 176 168 165 170 165 168 168
3370.0 160 162 173 167 166 172 168 161 164 167
3410.0 162 160 160 163 164 155 150 158 159 151
3450.0 153 159 154 158 163 150 163 156 143 152
3490.0 160 156 144 150 151 143 152 145 144 146
3530.0 147 142 153 147 143 145 150 154 144 141
3570.0 139 142 144 144 140 144 148 141 144 150
3610.0 158 149 149 150 162 150 150 153 159 150
3650.0 154 153 153 154 158 149 162 155 157 156
3690.0 148 157 152 147 150 159 156 150 153 154
3730.0 157 148 149 156 149 162 159 147 150 164
3770.0 145 157 143 154 148 152 147 142 150 151
3810.0 161 160 153 142 140 157 149 147 153 153
3850.0 140 146 143 145 156 143 144 158 153 141
3890.0 154 161 170 157 160 156 158 153 144 139
3930.0 147 168 166 149 156 164 158 147 154 139
##END=
