##TITLE=1-Propene, 3-chloro-2-methyl-
##JCAMP-DX=4.24
##DATA TYPE=INFRARED SPECTRUM
##ORIGIN=Sadtler Research Labs Under US-EPA Contract
##OWNER=NIST Standard Reference Data Program
##CAS REGISTRY NO=563-47-3
##MOLFORM=C 4 H 7 Cl
##XUNITS=1/CM
##YUNITS=ABSORBANCE
##XFACTOR=1.0
##YFACTOR=0.000051883
##DELTAX=4.0
##FIRSTX=450.0
##LASTX=3966.0
##FIRSTY=0.008820
##MAXX=3966
##MINX=450
##MAXY=0.51883
##MINY=0
##NPOINTS=880
##XYDATA=(X++(Y..Y))
450.0 170 146 170 215 246 359 453 592 690 735
490.0 792 894 893 618 563 383 229 166 171 0
530.0 17 111 129 51 73 238 290 607 228 319
570.0 432 346 331 311 246 71 116 115 159 177
610.0 157 167 214 187 197 282 390 571 885 1431
650.0 2058 2551 2704 3013 2677 2590 2288 1459 796 448
690.0 256 191 213 305 418 529 696 951 1256 1698
730.0 2183 2912 3981 5299 6431 7049 7289 7331 6374 5825
770.0 4023 2395 1551 1338 1208 1021 911 901 1034 1208
810.0 1410 1489 1558 1701 1706 1660 1372 1128 984 904
850.0 903 906 957 1122 1345 1614 1874 2341 2946 3783
890.0 4863 6087 7309 8811 10000 7112 6552 4946 3943 2914
930.0 1971 1262 816 615 549 550 591 668 784 860
970.0 786 718 716 636 642 495 382 335 360 457
1010.0 556 609 630 605 565 561 458 329 268 208
1050.0 198 189 179 172 170 163 156 120 95 97
1090.0 105 110 109 120 119 132 129 104 80 49
1130.0 31 22 17 55 140 223 278 289 329 314
1170.0 363 351 316 293 273 259 230 229 254 324
1210.0 448 611 741 814 903 985 1155 1347 1832 2764
1250.0 3893 4286 4098 4859 3920 4440 3403 2215 1633 1514
1290.0 1543 1579 1598 1563 1435 1204 999 888 754 662
1330.0 573 528 514 488 453 471 531 657 845 1142
1370.0 1563 2068 2529 2863 3264 3066 2578 2041 1640 1388
1410.0 1273 1292 1479 1857 2305 2834 3490 4066 4512 4744
1450.0 4922 4558 4335 4024 3777 3346 2740 2059 1445 1007
1490.0 698 519 381 343 285 255 252 251 237 239
1530.0 230 217 243 245 239 257 286 297 280 280
1570.0 286 291 290 281 286 280 270 284 307 335
1610.0 387 433 514 612 770 991 1254 1626 1892 2059
1650.0 2056 1898 1708 1527 1359 1123 868 618 432 304
1690.0 211 148 112 122 115 119 129 149 154 155
1730.0 150 146 141 130 135 117 131 112 94 103
1770.0 91 110 126 147 189 222 319 406 533 618
1810.0 682 719 702 681 621 520 411 297 207 126
1850.0 110 87 69 68 51 47 61 59 42 39
1890.0 36 36 29 27 20 20 22 22 26 25
1930.0 23 32 30 31 41 46 32 38 38 31
1970.0 32 21 23 32 30 23 34 25 21 19
2010.0 7 21 22 12 11 22 10 13 24 13
2050.0 25 32 40 51 61 61 70 71 81 82
2090.0 91 93 84 104 77 84 81 69 90 79
2130.0 71 51 51 61 59 50 59 50 61 62
2170.0 50 59 49 61 70 61 71 60 69 72
2210.0 67 62 62 50 51 51 40 40 50 40
2250.0 50 41 52 39 55 46 39 54 41 34
2290.0 45 45 46 45 57 62 66 54 72 71
2330.0 71 80 68 77 102 51 42 46 99 58
2370.0 76 77 71 64 55 61 39 51 49 61
2410.0 40 41 33 33 41 31 32 33 36 30
2450.0 31 41 40 41 42 39 49 42 31 31
2490.0 25 21 32 29 32 22 11 1 12 6
2530.0 10 7 9 14 13 14 14 24 24 5
2570.0 15 4 14 17 21 26 34 23 35 28
2610.0 30 37 48 49 40 48 50 47 47 52
2650.0 63 76 94 80 101 93 82 82 83 95
2690.0 112 111 120 126 123 132 134 138 147 166
2730.0 177 206 228 225 235 239 235 198 173 152
2770.0 132 121 139 142 152 162 173 194 226 254
2810.0 281 299 353 398 442 505 595 667 780 924
2850.0 1105 1330 1556 1764 1934 2039 2104 2149 2215 2236
2890.0 2286 2326 2381 2518 2726 2984 3339 3712 4129 4520
2930.0 4903 5230 5549 5796 6089 6370 6412 6765 7500 6439
2970.0 6399 6762 7231 7336 6947 6925 6194 5956 5290 4129
3010.0 3435 3117 2602 2080 1653 1371 1177 1036 940 883
3050.0 863 823 875 981 1150 1447 1901 2656 3328 3476
3090.0 3286 3015 2788 2545 1901 1339 956 743 549 378
3130.0 276 233 217 164 162 144 151 134 133 113
3170.0 113 83 108 95 97 85 77 51 81 63
3210.0 68 58 70 91 87 68 63 67 61 69
3250.0 69 56 63 60 56 73 64 84 84 56
3290.0 76 54 68 96 91 100 64 80 47 68
3330.0 57 50 70 71 65 88 63 61 94 62
3370.0 72 81 101 72 83 83 72 90 106 106
3410.0 78 66 60 58 46 74 66 58 78 75
3450.0 65 66 81 81 87 61 66 62 74 51
3490.0 80 82 74 92 72 48 72 70 59 65
3530.0 66 66 66 48 42 86 68 41 76 63
3570.0 61 57 63 70 74 96 64 73 50 69
3610.0 79 70 56 82 74 87 71 74 75 61
3650.0 71 48 50 64 64 11 46 90 46 31
3690.0 39 38 63 41 55 50 87 78 61 80
3730.0 48 56 54 54 32 54 116 69 101 95
3770.0 90 67 65 96 76 70 69 54 76 60
3810.0 72 25 51 28 41 39 51 48 52 71
3850.0 44 14 55 49 76 77 70 105 75 108
3890.0 72 56 69 73 84 104 107 112 123 136
3930.0 126 130 130 120 135 130 80 77 45 69
##END=
