##TITLE=1-Butene, 3-methyl-
##JCAMP-DX=4.24
##DATA TYPE=INFRARED SPECTRUM
##ORIGIN=Sadtler Research Labs Under US-EPA Contract
##OWNER=NIST Standard Reference Data Program
##CAS REGISTRY NO=563-45-1
##MOLFORM=C 5 H 10
##XUNITS=1/CM
##YUNITS=ABSORBANCE
##XFACTOR=1.0
##YFACTOR=0.000096118
##DELTAX=4.0
##FIRSTX=450.0
##LASTX=3966.0
##FIRSTY=0.007401
##MAXX=3966
##MINX=450
##MAXY=0.96118
##MINY=0
##NPOINTS=880
##XYDATA=(X++(Y..Y))
450.0 77 41 24 58 40 7 34 24 22 36
490.0 9 23 36 65 49 42 73 34 48 30
530.0 70 53 59 51 47 35 53 30 40 46
570.0 39 41 45 46 37 41 51 57 64 74
610.0 65 54 86 80 91 105 125 124 149 204
650.0 244 313 386 516 559 509 518 483 477 494
690.0 424 331 220 169 131 95 83 71 65 56
730.0 58 56 56 45 58 53 44 53 51 61
770.0 69 71 75 84 83 84 90 104 88 83
810.0 93 83 82 81 89 98 96 111 95 109
850.0 107 124 128 112 155 165 215 269 400 564
890.0 805 1114 1452 1829 2056 2533 2601 2492 2412 2102
930.0 1807 1465 1089 805 561 434 350 343 355 389
970.0 453 549 696 843 1008 1054 1134 1314 1249 936
1010.0 811 700 595 467 362 285 217 182 150 133
1050.0 109 111 108 115 128 140 165 178 204 226
1090.0 259 276 267 265 283 300 287 290 285 281
1130.0 262 254 243 214 220 209 187 168 154 144
1170.0 138 129 117 103 91 81 70 67 61 54
1210.0 52 56 57 55 58 56 57 53 58 53
1250.0 52 60 60 70 80 103 122 153 175 230
1290.0 288 326 362 409 444 453 371 310 288 259
1330.0 235 214 228 225 257 313 382 461 537 555
1370.0 571 778 818 841 857 659 558 556 511 509
1410.0 514 519 527 563 550 540 605 605 656 685
1450.0 714 774 843 995 1079 986 901 788 734 668
1490.0 551 449 341 262 196 144 113 87 71 55
1530.0 49 45 45 47 43 48 48 68 71 76
1570.0 87 102 111 108 113 113 107 100 107 109
1610.0 116 151 219 331 479 645 744 781 869 917
1650.0 800 819 711 507 281 175 121 109 98 92
1690.0 77 75 77 65 65 58 57 53 48 42
1730.0 38 40 35 34 28 30 23 24 23 26
1770.0 24 26 26 26 28 31 37 41 54 71
1810.0 110 145 181 211 224 243 225 220 213 175
1850.0 128 84 54 40 31 26 22 24 21 20
1890.0 19 18 19 19 18 19 17 17 14 11
1930.0 9 11 13 13 16 15 15 20 24 28
1970.0 33 34 35 34 33 33 29 24 21 19
2010.0 18 13 9 6 8 6 6 10 8 6
2050.0 7 8 10 11 8 9 11 11 13 14
2090.0 13 13 15 12 9 9 9 7 8 4
2130.0 4 2 3 5 5 5 9 5 6 6
2170.0 6 5 3 5 3 0 2 3 5 3
2210.0 5 3 3 5 5 4 6 5 4 3
2250.0 1 4 7 10 11 14 16 19 24 25
2290.0 28 34 36 32 35 34 28 29 22 21
2330.0 16 17 9 7 14 16 19 20 23 11
2370.0 14 15 20 21 20 17 17 15 16 14
2410.0 11 14 18 17 15 13 14 14 15 13
2450.0 14 15 17 16 18 18 20 20 25 22
2490.0 21 20 21 19 18 16 12 14 14 14
2530.0 11 14 18 17 24 25 30 38 41 46
2570.0 47 53 53 58 52 49 47 47 45 44
2610.0 44 43 39 41 41 37 38 35 36 33
2650.0 30 30 30 30 31 29 30 25 25 24
2690.0 27 25 33 38 44 54 62 74 87 99
2730.0 103 110 116 121 116 111 104 101 94 89
2770.0 89 91 91 83 90 91 103 106 117 126
2810.0 139 150 154 162 169 182 198 231 272 342
2850.0 458 632 887 1223 1628 1988 2358 2612 2625 2688
2890.0 2764 2804 2707 2627 2545 2466 2406 2436 2512 2650
2930.0 2866 3062 3261 3582 4152 4820 5793 6802 8372 10000
2970.0 8826 8395 8192 7698 6892 5192 3663 2692 2086 1645
3010.0 1278 1126 882 752 639 527 427 358 339 325
3050.0 374 391 484 562 691 856 1084 1318 1242 1524
3090.0 1554 1095 1185 1064 896 640 420 290 204 178
3130.0 132 133 121 126 116 120 121 117 125 125
3170.0 134 124 138 135 136 132 141 132 121 124
3210.0 103 98 80 72 59 50 43 41 33 29
3250.0 29 23 23 20 23 22 25 26 22 24
3290.0 20 24 29 31 29 25 34 37 33 36
3330.0 36 35 32 30 32 24 23 19 24 20
3370.0 14 20 10 18 15 23 19 16 22 18
3410.0 13 17 18 14 12 9 14 7 9 16
3450.0 10 11 13 14 9 13 19 24 6 17
3490.0 17 14 10 10 9 10 9 11 7 5
3530.0 10 6 4 9 4 2 8 4 13 8
3570.0 10 3 1 3 10 11 7 6 3 1
3610.0 8 4 2 11 11 6 10 9 14 14
3650.0 10 10 12 3 11 15 19 3 18 9
3690.0 15 8 4 2 5 8 7 17 5 22
3730.0 7 5 17 14 10 16 21 10 12 6
3770.0 22 16 18 13 15 10 17 22 37 38
3810.0 28 12 18 24 24 24 30 21 22 26
3850.0 26 13 22 10 23 15 11 23 21 15
3890.0 21 28 22 14 15 12 12 0 7 14
3930.0 0 0 10 9 0 7 12 13 14 19
##END=
