##TITLE=2-Butanone, 3-methyl-
##JCAMP-DX=4.24
##DATA TYPE=INFRARED SPECTRUM
##ORIGIN=Sadtler Research Labs Under US-EPA Contract
##OWNER=NIST Standard Reference Data Program
##CAS REGISTRY NO=563-80-4
##MOLFORM=C 5 H 10 O
##XUNITS=1/CM
##YUNITS=ABSORBANCE
##XFACTOR=1.0
##YFACTOR=0.000118155
##DELTAX=4.0
##FIRSTX=450.0
##LASTX=3966.0
##FIRSTY=0.002599
##MAXX=3966
##MINX=450
##MAXY=1.18155
##MINY=0
##NPOINTS=880
##XYDATA=(X++(Y..Y))
450.0 22 60 56 65 8 50 12 80 34 77
490.0 98 97 88 79 129 113 152 136 169 151
530.0 142 156 139 156 134 156 163 214 251 272
570.0 338 318 354 361 414 327 464 443 417 406
610.0 340 288 230 174 115 82 59 56 54 38
650.0 51 36 49 35 51 53 44 49 53 63
690.0 76 98 122 169 201 239 263 276 286 255
730.0 233 179 133 79 60 41 40 28 22 23
770.0 16 23 21 22 16 14 18 21 12 14
810.0 27 14 23 15 24 6 26 17 24 29
850.0 25 39 39 55 64 83 87 106 113 122
890.0 142 136 141 140 163 178 221 276 352 441
930.0 540 660 782 875 938 1000 985 945 905 818
970.0 702 588 511 465 443 419 404 384 369 342
1010.0 315 284 251 229 201 193 172 172 164 166
1050.0 177 201 241 287 350 406 503 612 752 949
1090.0 1151 1324 1489 1575 1600 1676 1639 1538 1541 1696
1130.0 1924 2122 2225 2309 2325 2160 1965 1689 1351 1110
1170.0 1057 1206 1464 1705 1795 1959 2023 1817 1765 1525
1210.0 1136 854 699 624 589 573 573 572 570 552
1250.0 554 513 454 424 368 312 281 297 310 327
1290.0 347 370 391 399 417 401 425 456 535 618
1330.0 751 946 1229 1674 2218 2758 3125 3529 3765 3589
1370.0 3597 3278 2676 2153 1866 1855 1419 1274 1196 1027
1410.0 886 845 815 884 928 1009 1067 1145 1246 1352
1450.0 1509 1651 1782 1897 1964 2064 1979 1714 1505 1330
1490.0 1040 786 583 427 357 274 261 244 206 243
1530.0 197 226 194 190 163 192 184 144 163 152
1570.0 163 131 154 137 139 129 131 137 113 141
1610.0 113 134 105 143 117 135 142 132 163 135
1650.0 200 148 242 239 314 337 416 565 621 855
1690.0 1037 1416 1626 2458 3154 4307 5505 7021 8004 8695
1730.0 10000 9781 9166 7965 7111 5134 3608 2164 1391 862
1770.0 653 400 363 254 203 146 121 113 56 96
1810.0 62 69 43 66 41 35 41 43 35 10
1850.0 42 23 34 23 29 11 28 40 32 42
1890.0 33 50 39 56 51 53 46 46 44 33
1930.0 45 30 36 17 33 28 26 29 28 28
1970.0 23 33 22 28 23 23 20 25 31 25
2010.0 33 25 31 20 27 21 18 15 15 19
2050.0 10 24 20 25 19 33 29 27 31 27
2090.0 27 18 23 13 16 10 11 6 5 7
2130.0 1 5 2 8 0 4 4 4 4 5
2170.0 8 3 6 3 8 1 8 6 4 6
2210.0 4 6 3 12 8 14 16 20 20 22
2250.0 27 23 29 24 27 19 23 23 24 25
2290.0 27 31 24 29 28 30 25 30 25 20
2330.0 19 15 20 9 25 16 19 17 17 12
2370.0 6 19 13 20 17 21 18 19 18 16
2410.0 16 17 18 13 18 16 21 18 22 23
2450.0 21 24 24 27 24 31 26 29 27 29
2490.0 32 28 32 27 31 29 35 29 31 32
2530.0 31 35 34 41 36 42 40 43 43 46
2570.0 46 42 42 39 40 33 36 31 33 31
2610.0 32 34 31 36 33 36 35 39 35 35
2650.0 37 37 36 38 42 35 40 39 40 34
2690.0 37 36 34 41 38 42 44 53 58 68
2730.0 75 84 90 93 102 97 100 99 104 101
2770.0 104 107 108 114 114 123 122 137 143 154
2810.0 166 183 197 214 236 251 277 301 330 358
2850.0 396 447 527 662 873 1172 1495 1784 2081 2362
2890.0 2527 2667 2715 2612 2503 2419 2358 2327 2367 2482
2930.0 2674 2891 3098 3282 3391 3504 3698 4143 4898 5839
2970.0 6645 7204 7554 7583 7057 6158 4796 3520 2525 1853
3010.0 1429 1161 968 828 722 624 541 476 426 394
3050.0 373 356 343 333 323 314 305 289 280 269
3090.0 257 246 234 222 211 199 184 179 163 155
3130.0 147 147 136 134 137 139 142 141 147 143
3170.0 150 152 150 148 143 147 129 125 117 106
3210.0 93 86 76 65 58 50 48 43 46 40
3250.0 39 36 36 35 34 41 35 35 26 34
3290.0 25 22 29 24 23 25 26 26 28 23
3330.0 26 25 23 17 19 22 17 21 14 18
3370.0 18 21 19 20 21 27 33 35 45 50
3410.0 67 73 89 106 124 154 171 193 191 201
3450.0 191 177 155 126 98 61 43 27 23 15
3490.0 13 14 16 14 11 5 10 11 6 9
3530.0 14 14 6 12 13 10 14 16 21 16
3570.0 19 14 17 20 15 14 13 11 8 9
3610.0 7 9 4 16 7 11 10 5 16 3
3650.0 19 8 10 10 9 15 7 24 6 17
3690.0 12 13 2 13 3 11 10 6 9 6
3730.0 5 12 9 7 16 15 16 0 10 11
3770.0 9 14 6 20 10 18 15 10 22 14
3810.0 17 20 21 42 30 26 35 34 23 39
3850.0 24 41 20 22 29 33 30 22 16 15
3890.0 21 20 23 26 22 26 25 28 16 8
3930.0 6 10 13 10 3 14 2 8 10 9
##END=
