##TITLE=1-Butene, 2-methyl-
##JCAMP-DX=4.24
##DATA TYPE=INFRARED SPECTRUM
##ORIGIN=Sadtler Research Labs Under US-EPA Contract
##OWNER=NIST Standard Reference Data Program
##CAS REGISTRY NO=563-46-2
##MOLFORM=C 5 H 10
##XUNITS=1/CM
##YUNITS=ABSORBANCE
##XFACTOR=1.0
##YFACTOR=0.000118774
##DELTAX=4.0
##FIRSTX=450.0
##LASTX=3966.0
##FIRSTY=0.000000
##MAXX=3966
##MINX=450
##MAXY=1.18774
##MINY=0
##NPOINTS=880
##XYDATA=(X++(Y..Y))
450.0 0 380 515 635 272 259 393 514 379 314
490.0 405 541 498 425 524 620 680 582 649 791
530.0 847 800 760 768 697 585 543 528 500 430
570.0 427 396 366 403 361 391 421 407 386 347
610.0 367 349 376 365 359 333 325 309 371 379
650.0 357 343 312 328 347 377 374 335 372 322
690.0 343 389 377 343 339 342 351 338 364 369
730.0 391 287 414 455 399 428 487 441 394 445
770.0 463 499 503 531 490 473 478 475 551 485
810.0 541 507 506 398 437 423 389 402 558 598
850.0 631 785 1026 1373 1800 2068 2518 2901 3160 4359
890.0 5825 4650 3443 3177 2959 2584 2106 1584 1218 898
930.0 724 655 616 634 591 601 542 512 481 486
970.0 479 480 488 507 519 519 527 563 577 581
1010.0 583 584 584 580 558 542 552 546 555 561
1050.0 581 577 620 671 695 715 766 761 717 748
1090.0 718 683 676 596 599 522 499 520 489 467
1130.0 460 457 444 426 426 452 444 421 428 402
1170.0 409 413 443 426 426 430 407 398 426 437
1210.0 457 516 579 645 693 724 749 767 771 778
1250.0 765 678 645 645 617 594 612 612 603 590
1290.0 573 568 570 555 552 531 540 525 542 543
1330.0 551 546 565 569 597 636 715 826 975 1152
1370.0 1299 1415 1532 1614 1620 1656 1576 1381 1162 1042
1410.0 1002 1003 1076 1172 1305 1483 1654 1919 2175 2444
1450.0 2655 2677 2729 2661 2428 2292 2100 1827 1547 1275
1490.0 1040 868 732 638 590 542 523 492 480 482
1530.0 476 478 472 459 468 466 459 456 450 461
1570.0 456 468 473 465 480 490 491 515 523 552
1610.0 586 635 709 804 959 1130 1348 1589 1794 1906
1650.0 1938 1891 1814 1841 1727 1448 1117 848 689 583
1690.0 527 488 478 486 488 481 484 471 466 443
1730.0 426 418 400 406 412 411 432 446 473 498
1770.0 537 569 581 587 592 591 584 560 531 480
1810.0 435 392 357 342 326 313 308 300 302 293
1850.0 302 306 302 296 294 293 292 291 295 290
1890.0 287 287 290 288 286 283 284 282 282 278
1930.0 278 279 278 276 277 273 272 271 270 267
1970.0 269 270 267 271 270 270 269 270 273 271
2010.0 276 277 273 275 282 282 282 280 280 282
2050.0 282 281 280 278 276 276 273 271 268 268
2090.0 269 265 267 268 266 263 266 263 267 264
2130.0 265 269 267 265 269 273 274 272 272 273
2170.0 270 267 264 265 265 262 259 259 263 261
2210.0 261 264 263 265 266 263 260 260 267 263
2250.0 264 265 266 266 263 264 264 264 266 265
2290.0 264 268 272 276 272 270 276 275 276 274
2330.0 275 276 273 278 260 271 269 280 269 270
2370.0 273 271 270 275 278 280 285 284 280 275
2410.0 271 278 275 275 274 274 278 279 279 282
2450.0 279 279 279 283 278 276 270 272 272 267
2490.0 267 266 266 265 268 269 266 269 270 269
2530.0 271 270 269 276 276 272 272 278 275 274
2570.0 273 273 275 275 273 271 275 275 278 276
2610.0 280 285 285 289 294 297 301 302 301 298
2650.0 294 297 293 290 289 291 295 304 311 317
2690.0 323 328 338 347 360 371 379 397 413 436
2730.0 450 460 464 475 478 477 463 448 434 432
2770.0 436 443 457 469 493 504 529 556 582 610
2810.0 650 697 757 830 923 1044 1194 1355 1526 1702
2850.0 1899 2135 2406 2733 3015 3226 3524 3881 4111 4416
2890.0 4715 4858 5076 5237 5196 5236 5323 5475 5684 5844
2930.0 6078 6371 6545 6714 6977 7081 7075 7580 8605 9224
2970.0 9578 9937 10000 9322 8683 7937 6520 5055 3874 3011
3010.0 2383 1958 1670 1448 1283 1176 1097 1057 1031 1030
3050.0 1058 1117 1251 1489 1807 2145 2287 2387 2684 2527
3090.0 2408 2456 2090 1646 1344 1054 784 622 531 491
3130.0 460 439 431 413 409 403 391 385 378 377
3170.0 372 371 370 365 365 361 357 349 340 340
3210.0 331 323 323 322 315 306 302 296 293 290
3250.0 283 280 286 283 278 273 275 272 270 272
3290.0 271 273 270 277 278 276 274 283 279 279
3330.0 276 283 286 283 279 277 281 278 277 287
3370.0 285 281 283 279 278 277 268 274 272 268
3410.0 269 266 268 265 269 271 267 270 266 260
3450.0 267 269 264 273 278 270 273 269 273 283
3490.0 278 282 274 272 276 275 280 278 278 267
3530.0 265 271 262 263 268 264 262 262 273 273
3570.0 272 271 271 273 271 268 268 270 269 279
3610.0 273 275 273 273 288 278 279 280 281 282
3650.0 280 275 291 275 274 283 272 270 266 276
3690.0 273 267 277 263 259 268 259 259 260 259
3730.0 271 265 262 262 272 271 279 265 283 277
3770.0 263 276 275 277 272 282 270 259 283 273
3810.0 273 262 265 268 264 264 277 289 277 264
3850.0 270 271 262 273 262 259 278 284 277 273
3890.0 281 273 265 260 267 287 273 265 259 264
3930.0 274 270 276 285 278 265 268 273 284 285
##END=
