##TITLE=2-Butene, 2,3-dimethyl-
##JCAMP-DX=4.24
##DATA TYPE=INFRARED SPECTRUM
##ORIGIN=Sadtler Research Labs Under US-EPA Contract
##OWNER=NIST Standard Reference Data Program
##CAS REGISTRY NO=563-79-1
##MOLFORM=C 6 H 12
##XUNITS=1/CM
##YUNITS=ABSORBANCE
##XFACTOR=1.0
##YFACTOR=0.000050757
##DELTAX=4.0
##FIRSTX=450.0
##LASTX=3966.0
##FIRSTY=0.004061
##MAXX=3966
##MINX=450
##MAXY=0.50757
##MINY=0
##NPOINTS=880
##XYDATA=(X++(Y..Y))
450.0 80 74 64 57 47 51 43 34 32 83
490.0 66 33 0 17 94 87 81 72 65 65
530.0 67 84 87 136 79 73 82 73 113 93
570.0 122 102 88 81 78 55 81 74 70 71
610.0 82 72 64 54 60 43 105 61 68 120
650.0 45 75 52 71 71 12 94 92 94 76
690.0 90 102 79 68 70 70 67 77 78 85
730.0 69 105 63 53 55 58 97 90 69 102
770.0 93 93 94 114 108 219 139 144 162 151
810.0 138 144 140 131 131 130 130 149 149 149
850.0 149 150 149 153 139 131 154 145 147 157
890.0 158 167 175 173 170 175 156 170 178 175
930.0 174 183 193 203 203 230 244 246 255 259
970.0 266 264 261 240 242 238 230 218 199 200
1010.0 187 185 180 170 165 150 159 151 157 169
1050.0 167 166 167 169 171 169 176 175 187 192
1090.0 213 214 234 234 243 254 265 262 295 329
1130.0 373 460 581 736 941 1181 1508 1933 2301 2206
1170.0 1930 1549 1243 1046 781 515 371 284 261 220
1210.0 210 199 186 181 168 177 159 163 162 157
1250.0 161 158 167 167 158 177 168 170 179 185
1290.0 198 201 205 205 222 223 243 263 282 302
1330.0 332 362 385 416 465 532 615 737 904 1105
1370.0 1306 1459 1597 1629 1597 1510 1324 1090 892 747
1410.0 679 646 660 693 745 814 897 996 1077 1166
1450.0 1222 1260 1250 1212 1148 1089 1013 921 847 778
1490.0 710 679 640 620 598 590 586 580 579 575
1530.0 575 584 586 569 565 551 542 520 507 484
1570.0 457 429 397 370 327 297 276 238 206 187
1610.0 170 154 147 141 123 130 121 112 109 101
1650.0 103 91 88 92 79 81 73 65 72 64
1690.0 71 69 72 62 71 78 80 74 87 84
1730.0 87 87 87 76 78 68 56 67 46 37
1770.0 39 36 40 34 35 42 34 35 36 33
1810.0 33 43 32 42 32 33 31 30 36 32
1850.0 39 39 39 38 49 50 48 59 50 46
1890.0 47 48 46 47 46 46 45 46 37 34
1930.0 46 33 34 30 25 24 24 23 23 24
1970.0 22 22 22 22 21 18 23 21 21 21
2010.0 19 21 21 19 18 19 30 19 39 34
2050.0 33 39 30 35 37 36 27 26 27 16
2090.0 15 12 12 16 15 15 13 14 14 12
2130.0 12 12 12 12 20 12 12 12 12 10
2170.0 10 3 10 9 0 9 9 8 2 9
2210.0 4 11 10 10 10 10 10 19 20 19
2250.0 19 22 21 14 22 17 11 12 14 24
2290.0 28 30 24 25 19 21 33 33 27 24
2330.0 24 17 18 28 21 26 21 35 31 9
2370.0 26 30 32 38 39 38 42 43 43 44
2410.0 44 54 45 57 48 55 55 55 55 55
2450.0 44 46 46 45 45 45 46 30 37 36
2490.0 36 36 46 46 46 46 47 57 47 56
2530.0 68 67 67 67 74 65 59 65 68 67
2570.0 58 59 67 71 66 68 68 69 69 68
2610.0 76 77 77 68 68 68 68 68 70 58
2650.0 59 60 68 59 59 59 70 69 80 79
2690.0 93 102 123 145 159 189 231 269 338 409
2730.0 460 511 539 558 552 520 456 411 387 367
2770.0 362 354 344 344 353 365 386 397 438 493
2810.0 553 635 725 827 941 1082 1261 1472 1757 2136
2850.0 2676 3430 4389 5375 6243 6865 7356 7613 7731 7546
2890.0 7218 6945 6801 6920 7348 8016 8779 9486 9866 10000
2930.0 9916 9457 8585 7358 6015 4879 4045 3438 3043 2797
2970.0 2712 2760 2938 3264 3671 4142 4657 5024 5338 5507
3010.0 5506 5363 5074 4650 4188 3676 3219 2814 2425 2096
3050.0 1792 1528 1326 1127 959 821 690 621 545 489
3090.0 466 413 384 344 322 292 273 250 213 206
3130.0 196 170 167 150 141 120 118 101 88 88
3170.0 99 70 79 75 70 60 48 60 72 61
3210.0 52 41 23 51 32 31 39 41 21 35
3250.0 34 21 34 31 32 14 32 32 53 35
3290.0 43 51 20 35 23 38 16 23 25 24
3330.0 24 17 31 24 24 32 38 32 38 24
3370.0 23 26 34 25 34 26 51 53 41 49
3410.0 48 51 72 69 41 47 44 44 37 35
3450.0 56 28 52 33 48 42 28 15 16 17
3490.0 16 25 36 37 15 19 33 14 39 15
3530.0 10 65 37 16 17 27 28 41 37 31
3570.0 18 34 51 27 49 27 37 37 28 38
3610.0 29 32 19 21 33 26 34 38 28 48
3650.0 39 47 37 39 26 37 33 26 39 38
3690.0 31 28 19 19 47 29 29 37 46 40
3730.0 26 34 40 38 37 42 29 39 48 38
3770.0 48 41 48 60 47 50 38 51 60 69
3810.0 69 58 49 60 57 69 69 69 69 69
3850.0 57 78 78 69 70 70 59 57 52 62
3890.0 69 68 70 59 58 69 68 88 79 79
3930.0 79 89 75 70 73 74 70 69 87 96
##END=
