##TITLE=1-Butene, 3-chloro-
##JCAMP-DX=4.24
##DATA TYPE=INFRARED SPECTRUM
##ORIGIN=Sadtler Research Labs Under US-EPA Contract
##OWNER=NIST Standard Reference Data Program
##CAS REGISTRY NO=563-52-0
##MOLFORM=C 4 H 7 Cl
##XUNITS=1/CM
##YUNITS=ABSORBANCE
##XFACTOR=1.0
##YFACTOR=0.000043472
##DELTAX=4.0
##FIRSTX=450.0
##LASTX=3966.0
##FIRSTY=0.040777
##MAXX=3966
##MINX=450
##MAXY=0.43472
##MINY=0
##NPOINTS=880
##XYDATA=(X++(Y..Y))
450.0 938 440 450 500 421 352 293 38 218 0
490.0 157 396 282 281 98 330 159 272 114 176
530.0 86 169 127 118 68 63 210 57 90 118
570.0 176 161 231 425 165 600 714 777 775 1005
610.0 1117 1266 1371 1532 1460 1314 1402 1238 1145 786
650.0 658 535 457 464 336 692 910 1374 1831 2607
690.0 3455 4566 5756 6448 6910 6958 7165 6835 5964 4087
730.0 2861 1693 1092 845 594 395 375 350 347 319
770.0 326 362 342 178 260 303 262 178 195 163
810.0 191 157 175 203 247 317 464 663 890 1185
850.0 1486 1818 1999 2006 2004 1910 1880 1569 1244 905
890.0 843 887 1240 1722 2602 3930 5430 6742 6890 7142
930.0 8643 8102 6619 5269 4141 3444 3045 2957 3113 3335
970.0 3728 4298 4820 5218 4733 4374 4623 4224 3458 3116
1010.0 3020 3449 4095 4501 4531 4363 3990 3923 3651 2617
1050.0 1864 1345 1223 1213 1373 1443 1496 1537 1442 1400
1090.0 1338 1197 1091 1022 923 883 833 782 718 617
1130.0 560 494 531 598 687 760 941 1146 1361 1530
1170.0 1506 1496 1441 1375 1236 981 755 696 798 1071
1210.0 1538 2118 2814 3611 4536 4635 5238 5290 4979 5237
1250.0 4405 3390 2693 2323 2014 1487 1085 853 868 889
1290.0 979 958 924 881 794 772 640 550 479 444
1330.0 401 404 378 357 378 403 513 614 863 1172
1370.0 1518 1769 1908 2003 2402 2477 2193 2071 2035 2230
1410.0 2294 2565 2617 2525 2621 2494 2497 2402 2379 2251
1450.0 2597 2863 2423 1998 1725 1449 1217 911 678 454
1490.0 324 243 184 145 129 99 93 80 85 79
1530.0 71 78 86 81 81 84 79 97 93 92
1570.0 69 68 88 82 84 88 117 128 182 211
1610.0 270 343 436 535 665 834 948 1070 1108 1143
1650.0 1106 973 839 689 506 393 317 277 249 234
1690.0 207 180 197 189 179 179 162 169 171 174
1730.0 182 221 260 275 292 298 300 270 230 188
1770.0 155 127 104 72 56 62 47 48 37 55
1810.0 42 50 55 64 100 142 252 383 571 663
1850.0 726 781 756 719 684 474 322 199 148 112
1890.0 78 77 69 83 83 83 70 67 78 87
1930.0 93 84 95 95 96 105 108 108 110 111
1970.0 103 95 76 75 57 50 56 43 49 43
2010.0 47 31 29 24 25 26 12 7 8 16
2050.0 7 11 10 7 18 20 32 13 14 13
2090.0 21 29 20 25 32 26 19 41 35 28
2130.0 29 31 23 33 34 40 37 33 42 27
2170.0 32 33 35 34 32 40 31 31 23 31
2210.0 36 35 34 37 49 53 59 61 71 80
2250.0 76 75 85 76 74 77 80 73 69 67
2290.0 48 45 34 22 9 9 23 8 20 8
2330.0 33 41 42 98 87 47 6 6 62 137
2370.0 131 165 156 126 102 86 93 88 86 85
2410.0 87 86 90 94 90 94 94 102 109 124
2450.0 131 140 145 147 147 132 130 110 102 98
2490.0 84 66 68 75 73 81 82 89 80 105
2530.0 99 108 119 118 117 108 112 95 111 92
2570.0 89 87 93 98 111 122 105 113 106 103
2610.0 89 100 88 89 89 86 94 83 96 85
2650.0 94 86 88 75 70 81 80 83 71 67
2690.0 62 64 59 57 52 69 86 95 101 111
2730.0 129 138 153 151 166 164 136 119 92 78
2770.0 59 54 53 62 62 58 78 69 101 111
2810.0 138 158 180 211 221 237 232 258 246 299
2850.0 334 411 552 733 955 1129 1310 1440 1535 1514
2890.0 1527 1514 1526 1453 1414 1450 1561 1879 2311 2978
2930.0 3548 3941 4000 3993 4239 3971 3619 3237 3156 3471
2970.0 4303 5335 6075 8614 8718 8134 9206 10000 7608 5900
3010.0 5232 4155 3321 2675 2356 1908 1665 1443 1273 1096
3050.0 982 903 865 884 929 1086 1190 1549 1796 2129
3090.0 2170 2694 3049 2357 1963 2083 1569 1218 777 539
3130.0 337 219 210 186 168 149 166 142 127 112
3170.0 126 144 117 112 142 141 140 127 118 146
3210.0 156 150 143 172 179 167 149 158 145 96
3250.0 116 114 112 87 97 104 96 131 106 127
3290.0 109 114 110 124 109 111 121 112 125 107
3330.0 67 64 63 61 66 63 61 57 39 61
3370.0 42 84 57 80 85 93 75 66 40 65
3410.0 61 71 75 63 56 27 40 56 74 62
3450.0 83 93 77 92 71 103 87 83 151 127
3490.0 129 92 100 115 89 96 63 68 101 107
3530.0 68 14 20 56 63 58 76 58 49 15
3570.0 19 39 56 44 65 57 63 35 47 24
3610.0 65 103 58 71 64 60 83 96 83 47
3650.0 110 71 87 104 60 83 107 99 108 99
3690.0 84 70 88 88 98 105 115 84 70 94
3730.0 84 77 92 90 121 57 104 60 99 70
3770.0 34 71 109 86 36 31 104 54 100 43
3810.0 98 79 131 122 121 77 65 72 94 37
3850.0 10 79 90 88 166 106 104 81 5 71
3890.0 50 95 69 54 47 80 64 131 80 70
3930.0 85 102 109 112 107 117 35 59 67 128
##END=
