##TITLE=Pentane, 2,2,3-trimethyl-
##JCAMP-DX=4.24
##DATA TYPE=INFRARED SPECTRUM
##ORIGIN=Sadtler Research Labs Under US-EPA Contract
##OWNER=NIST Standard Reference Data Program
##CAS REGISTRY NO=564-02-3
##MOLFORM=C 8 H 18
##XUNITS=1/CM
##YUNITS=ABSORBANCE
##XFACTOR=1.0
##YFACTOR=0.000126868
##DELTAX=4.0
##FIRSTX=450.0
##LASTX=3966.0
##FIRSTY=0.000000
##MAXX=3966
##MINX=450
##MAXY=1.26868
##MINY=0
##NPOINTS=880
##XYDATA=(X++(Y..Y))
450.0 0 102 128 108 76 123 64 93 87 49
490.0 68 71 67 59 59 60 61 67 62 68
530.0 49 71 78 55 64 57 70 61 74 46
570.0 69 50 80 91 43 12 31 67 76 43
610.0 58 69 66 72 63 61 61 64 49 59
650.0 56 68 61 59 71 46 61 53 68 65
690.0 75 72 74 78 79 90 90 92 90 83
730.0 74 77 75 66 74 72 76 86 84 104
770.0 108 128 131 135 126 127 108 97 87 85
810.0 78 75 77 76 79 75 70 69 68 63
850.0 68 67 68 67 70 67 66 62 71 71
890.0 76 69 69 71 72 79 78 87 100 99
930.0 98 95 93 80 85 92 108 125 146 163
970.0 175 177 167 156 148 153 169 181 192 195
1010.0 186 187 178 169 165 152 136 117 98 91
1050.0 89 88 97 109 139 182 224 258 269 256
1090.0 228 179 137 115 113 115 115 114 114 114
1130.0 113 125 150 191 228 249 255 243 209 169
1170.0 129 114 115 131 162 202 250 301 339 357
1210.0 358 328 287 260 245 236 228 233 226 210
1250.0 185 165 137 117 105 100 94 89 93 90
1290.0 93 92 101 106 111 107 105 103 101 104
1330.0 100 110 114 125 147 216 333 532 742 990
1370.0 1377 1357 1309 1323 1134 1034 909 756 594 482
1410.0 393 257 192 167 162 179 224 258 345 417
1450.0 558 663 838 996 1116 1204 1233 1194 1031 904
1490.0 707 543 397 260 197 147 128 116 115 105
1530.0 100 94 92 86 79 75 76 71 69 60
1570.0 62 48 60 52 58 56 59 54 57 60
1610.0 51 56 56 57 56 54 60 55 58 59
1650.0 61 53 65 54 55 59 53 58 52 55
1690.0 50 54 47 57 47 49 49 54 46 43
1730.0 49 43 48 44 42 42 42 38 40 39
1770.0 41 37 36 39 35 36 36 34 35 33
1810.0 33 33 34 31 33 31 34 32 31 34
1850.0 31 30 29 30 29 32 27 28 27 28
1890.0 29 26 28 29 29 25 27 30 30 30
1930.0 28 29 26 29 27 27 25 26 25 24
1970.0 21 24 26 26 25 25 25 23 21 22
2010.0 24 23 25 26 26 25 23 25 26 25
2050.0 24 24 25 24 28 24 24 28 26 28
2090.0 27 26 24 27 27 24 24 23 23 23
2130.0 21 21 20 19 22 22 24 21 21 20
2170.0 22 21 21 19 22 22 19 21 22 20
2210.0 16 17 18 16 17 18 16 18 17 18
2250.0 17 15 15 17 15 17 18 21 19 22
2290.0 24 24 23 21 22 19 16 12 13 12
2330.0 12 12 17 12 13 15 12 14 12 12
2370.0 18 15 20 24 24 23 26 26 29 31
2410.0 31 33 31 33 28 28 28 24 24 21
2450.0 23 22 22 21 20 19 19 17 19 19
2490.0 18 19 18 20 17 18 20 17 20 20
2530.0 19 20 20 23 24 24 26 26 30 33
2570.0 35 38 43 50 56 61 63 66 67 65
2610.0 62 60 62 59 58 59 63 66 64 63
2650.0 60 59 56 56 55 57 60 65 63 64
2690.0 68 69 70 71 73 81 90 94 110 117
2730.0 128 136 137 137 130 129 125 122 122 122
2770.0 122 119 121 122 131 136 145 154 169 184
2810.0 197 208 216 229 246 269 296 338 394 482
2850.0 621 824 1102 1482 1979 2423 2890 3354 3554 3565
2890.0 3410 3167 2898 2644 2510 2499 2569 2688 2840 3038
2930.0 3333 3721 4118 4577 5096 5671 6428 7361 8386 9439
2970.0 10000 9843 8943 7443 5721 4126 2775 1809 1157 781
3010.0 579 471 405 363 339 312 292 273 253 231
3050.0 210 191 173 158 146 135 129 121 115 114
3090.0 111 109 108 106 107 106 104 109 108 109
3130.0 111 108 109 113 111 114 116 122 125 124
3170.0 122 120 116 114 112 108 105 97 95 90
3210.0 88 81 78 73 71 68 62 57 58 52
3250.0 48 44 42 42 37 39 39 38 44 41
3290.0 40 36 42 41 41 37 36 36 39 41
3330.0 39 38 38 38 39 38 40 36 42 37
3370.0 36 36 34 35 37 37 35 37 40 34
3410.0 32 36 34 37 40 32 36 27 30 27
3450.0 28 34 30 31 31 22 24 28 26 24
3490.0 30 30 27 22 20 23 27 25 26 18
3530.0 23 20 28 21 21 19 32 21 32 12
3570.0 22 28 24 22 16 30 15 24 24 21
3610.0 19 20 21 25 24 20 25 30 23 30
3650.0 17 24 31 15 37 12 34 11 36 18
3690.0 30 23 26 17 19 18 25 34 23 17
3730.0 20 19 12 22 15 20 12 20 20 30
3770.0 28 24 25 18 20 19 20 15 24 14
3810.0 33 19 26 15 19 28 11 14 29 13
3850.0 23 26 23 33 29 17 25 30 19 35
3890.0 34 29 39 23 32 32 34 20 29 32
3930.0 28 26 25 28 31 32 38 41 35 31
##END=
