##TITLE=Butanoic acid, 2-methyl-, phenylmethyl ester
##JCAMP-DX=4.24
##DATA TYPE=INFRARED SPECTRUM
##ORIGIN=Sadtler Research Labs Under US-EPA Contract
##OWNER=NIST Standard Reference Data Program
##CAS REGISTRY NO=56423-40-6
##MOLFORM=C 12 H 16 O 2
##XUNITS=1/CM
##YUNITS=ABSORBANCE
##XFACTOR=1.0
##YFACTOR=0.000123401
##DELTAX=4.0
##FIRSTX=450.0
##LASTX=3966.0
##FIRSTY=0.000000
##MAXX=3966
##MINX=450
##MAXY=1.23401
##MINY=0
##NPOINTS=880
##XYDATA=(X++(Y..Y))
450.0 0 146 177 162 174 208 187 259 217 275
490.0 294 326 368 390 424 388 446 453 516 579
530.0 706 807 880 798 658 520 409 389 344 305
570.0 325 306 317 376 428 470 468 434 448 394
610.0 397 354 348 340 318 318 278 260 234 212
650.0 220 235 243 270 322 431 474 542 640 866
690.0 1483 2195 2481 2087 1398 894 689 614 573 569
730.0 571 578 651 730 818 1002 1255 1369 1322 1034
770.0 743 578 514 469 410 426 347 327 310 317
810.0 295 285 262 252 243 255 275 282 325 351
850.0 384 405 439 445 445 419 350 337 321 310
890.0 314 336 358 386 417 428 434 439 484 580
930.0 792 1075 1322 1417 1341 1168 978 782 592 469
970.0 400 385 393 437 517 651 877 1033 1112 1135
1010.0 1121 1128 1095 1193 1542 1827 1911 1788 1690 1781
1050.0 1984 2379 3072 4098 5016 5196 4565 3642 3198 3103
1090.0 3108 3028 2848 2595 2328 2079 1838 1637 1481 1376
1130.0 1337 1368 1453 1595 1797 2100 2529 3172 4184 5638
1170.0 7437 8802 9139 8144 6843 5848 5149 4639 4164 3711
1210.0 3200 2775 2467 2346 2375 2508 2691 2864 3070 3321
1250.0 3581 3666 3522 3143 2723 2373 2111 1962 1897 1918
1290.0 1925 1928 1893 1786 1609 1414 1294 1234 1235 1231
1330.0 1230 1246 1295 1377 1494 1646 1797 1921 1986 2010
1370.0 1998 1979 1896 1732 1476 1191 937 744 623 555
1410.0 525 527 550 603 685 772 842 887 922 1015
1450.0 1175 1332 1396 1325 1166 974 802 673 606 600
1490.0 707 821 823 694 500 368 327 302 287 284
1530.0 284 281 266 258 243 243 235 231 224 229
1570.0 234 240 258 274 303 326 352 371 378 370
1610.0 348 313 273 247 233 233 227 227 230 238
1650.0 241 251 268 282 299 306 313 318 329 344
1690.0 373 414 465 543 637 755 858 991 1129 1326
1730.0 1582 2060 2909 4307 6493 8688 10000 8977 6556 4191
1770.0 2634 1857 1531 1360 1241 1112 1007 873 740 597
1810.0 493 419 370 334 297 274 259 256 246 243
1850.0 245 248 257 271 283 288 298 294 299 296
1890.0 288 269 247 234 227 229 220 228 228 240
1930.0 252 268 288 302 306 292 294 293 280 252
1970.0 218 205 200 196 187 191 184 185 181 185
2010.0 182 182 182 180 185 184 190 195 207 209
2050.0 211 209 208 200 187 189 183 189 185 191
2090.0 187 186 187 188 184 182 186 182 184 182
2130.0 177 175 175 177 172 171 169 170 167 167
2170.0 169 165 166 169 171 167 172 168 170 166
2210.0 168 164 164 166 168 174 170 176 179 179
2250.0 180 180 176 174 178 179 183 185 184 184
2290.0 187 192 192 200 202 215 223 235 236 218
2330.0 221 214 204 202 200 200 241 211 207 172
2370.0 144 139 141 160 163 167 167 170 170 167
2410.0 168 166 173 165 166 165 167 165 164 161
2450.0 161 155 159 156 151 154 154 160 158 159
2490.0 154 152 156 153 159 157 159 156 159 155
2530.0 150 152 152 154 150 150 156 156 149 151
2570.0 149 144 146 143 144 139 146 140 154 156
2610.0 153 157 160 161 154 157 153 148 147 149
2650.0 157 160 170 172 178 172 169 172 165 166
2690.0 160 168 173 176 174 176 183 174 164 165
2730.0 166 168 176 173 176 185 185 185 181 171
2770.0 179 180 184 185 184 189 197 208 216 219
2810.0 231 239 247 261 275 277 287 305 308 321
2850.0 346 367 411 461 533 656 812 1032 1265 1407
2890.0 1392 1252 1103 1013 988 995 1036 1092 1198 1324
2930.0 1542 1865 2250 2637 2774 2659 2452 2304 2314 2507
2970.0 2852 3219 3509 3746 3980 3838 3192 2213 1393 967
3010.0 741 673 646 666 753 913 1121 1304 1370 1270
3050.0 1088 919 855 896 1047 1290 1417 1347 1143 934
3090.0 828 763 695 606 532 488 447 393 340 284
3130.0 246 225 213 208 198 199 192 193 194 193
3170.0 203 207 207 198 197 192 192 194 192 187
3210.0 184 185 186 173 177 179 185 179 179 177
3250.0 168 174 167 175 179 175 176 188 190 178
3290.0 183 179 168 150 157 147 156 160 154 147
3330.0 153 161 159 152 155 156 159 146 163 159
3370.0 161 164 165 161 163 164 159 155 163 159
3410.0 146 149 147 158 163 159 139 152 156 147
3450.0 152 152 175 174 184 184 200 207 212 221
3490.0 219 225 200 190 185 176 160 164 171 168
3530.0 171 171 168 163 174 185 171 188 218 240
3570.0 274 257 263 255 270 250 225 190 174 170
3610.0 186 179 189 179 187 167 182 176 185 184
3650.0 186 187 199 201 206 191 191 197 186 190
3690.0 191 191 189 186 192 193 194 198 184 210
3730.0 199 206 190 189 200 183 183 169 188 182
3770.0 174 186 183 195 188 197 195 179 193 175
3810.0 185 209 178 211 196 203 186 174 166 169
3850.0 190 206 191 219 198 182 180 188 184 189
3890.0 174 200 193 204 171 179 202 183 211 189
3930.0 178 197 167 181 231 193 172 196 211 211
##END=
