##TITLE=Butanoic acid, 2-bromo-3-methyl-
##JCAMP-DX=4.24
##DATA TYPE=INFRARED SPECTRUM
##ORIGIN=Sadtler Research Labs Under US-EPA Contract
##OWNER=NIST Standard Reference Data Program
##CAS REGISTRY NO=565-74-2
##MOLFORM=C 5 H 9 Br O 2
##XUNITS=1/CM
##YUNITS=ABSORBANCE
##XFACTOR=1.0
##YFACTOR=0.000094678
##DELTAX=4.0
##FIRSTX=450.0
##LASTX=3966.0
##FIRSTY=0.024900
##MAXX=3966
##MINX=450
##MAXY=0.94678
##MINY=0
##NPOINTS=880
##XYDATA=(X++(Y..Y))
450.0 263 328 188 134 248 321 467 551 454 386
490.0 455 531 598 662 683 553 504 618 885 1089
530.0 1247 1387 1515 1641 1723 1828 1731 1529 1347 1056
570.0 859 801 919 819 798 638 654 861 932 1178
610.0 1412 1769 2021 2346 2634 2745 2833 2786 2771 2749
650.0 2754 2404 2045 1811 1569 1275 1091 995 947 858
690.0 881 724 614 628 631 653 613 484 423 411
730.0 460 539 510 525 485 442 456 457 421 376
770.0 329 294 219 379 451 490 366 469 424 500
810.0 486 533 499 433 304 277 388 374 388 332
850.0 206 260 210 212 241 193 199 146 149 218
890.0 162 170 156 90 10 67 101 202 188 273
930.0 265 340 355 416 460 502 515 499 571 576
970.0 545 503 439 350 333 263 341 427 455 407
1010.0 297 446 593 597 630 678 552 524 509 715
1050.0 799 862 838 944 1176 1655 2120 2488 3237 3912
1090.0 4790 5937 6164 6231 5823 5012 4550 4347 3988 3792
1130.0 3573 3506 3408 3285 3327 3390 3443 3324 3044 2633
1170.0 2300 2010 1798 1686 1696 1756 1765 1816 1726 1644
1210.0 1430 1101 858 717 628 615 638 622 623 694
1250.0 777 859 1011 1095 982 887 827 851 940 1000
1290.0 1075 1132 1210 1331 1410 1476 1577 1633 1687 1676
1330.0 1630 1597 1516 1382 1280 1268 1335 1454 1624 1706
1370.0 1843 1985 2075 1942 1813 1589 1347 1084 779 583
1410.0 418 310 248 183 159 134 163 242 268 352
1450.0 405 519 706 784 890 908 877 781 574 425
1490.0 316 192 139 62 75 62 47 65 78 35
1530.0 6 14 22 93 60 41 30 59 40 26
1570.0 43 42 45 21 16 22 54 65 57 43
1610.0 33 27 50 60 53 42 29 55 48 92
1650.0 118 181 100 90 85 110 106 101 99 122
1690.0 91 127 203 284 308 369 457 610 721 891
1730.0 1107 1352 1597 1897 2302 2846 3550 4521 5737 7111
1770.0 8461 9555 10000 9977 9080 7099 5572 4181 2982 2153
1810.0 1648 1278 1048 885 793 710 591 474 365 283
1850.0 222 184 156 140 102 102 67 57 64 63
1890.0 51 38 25 19 30 46 32 26 21 11
1930.0 20 36 33 41 27 13 20 30 42 42
1970.0 32 29 28 36 46 47 48 27 24 20
2010.0 27 36 40 24 24 14 21 32 37 36
2050.0 22 10 10 15 24 30 21 15 10 11
2090.0 17 22 23 19 15 5 17 24 30 25
2130.0 20 8 10 27 25 31 21 16 19 26
2170.0 40 41 38 31 38 43 42 48 49 41
2210.0 26 23 35 41 48 44 39 23 23 33
2250.0 38 37 35 24 26 25 43 53 59 55
2290.0 65 91 125 147 168 186 166 140 145 157
2330.0 157 139 121 102 142 173 207 242 203 137
2370.0 103 105 124 135 87 42 17 21 26 38
2410.0 43 36 31 14 19 33 38 47 35 22
2450.0 18 27 38 50 37 34 28 30 34 34
2490.0 40 31 26 17 30 34 41 24 24 14
2530.0 7 16 26 22 13 7 7 9 20 30
2570.0 30 16 9 0 14 26 32 30 15 8
2610.0 16 31 37 32 22 11 7 21 27 36
2650.0 31 14 3 10 18 28 29 18 2 2
2690.0 16 18 26 28 10 9 6 24 41 38
2730.0 38 38 34 52 67 83 65 56 49 40
2770.0 63 80 67 68 62 53 64 75 81 82
2810.0 74 72 85 104 125 129 130 141 125 153
2850.0 186 214 234 264 304 400 564 790 1001 1146
2890.0 1185 1148 1060 966 921 913 915 945 989 1068
2930.0 1165 1316 1471 1619 1713 1670 1587 1632 1846 2278
2970.0 2871 3662 3864 3774 3421 2790 2089 1431 999 634
3010.0 434 315 230 189 161 172 168 165 153 139
3050.0 128 122 139 155 148 130 111 93 104 125
3090.0 115 114 93 76 83 84 110 106 80 66
3130.0 63 72 82 90 94 73 59 65 86 98
3170.0 102 86 79 56 85 82 98 95 80 63
3210.0 47 53 64 59 60 32 21 34 49 42
3250.0 50 36 17 11 44 51 63 54 37 18
3290.0 35 54 64 56 43 26 20 41 54 56
3330.0 57 34 3 22 38 57 49 37 21 22
3370.0 35 57 59 54 27 4 24 57 59 69
3410.0 39 33 33 38 70 57 68 31 25 39
3450.0 44 75 77 68 48 50 75 112 133 186
3490.0 209 243 281 331 334 339 308 288 265 249
3530.0 268 259 264 259 276 333 486 861 1661 2842
3570.0 3909 4602 4650 4167 3059 1802 975 484 242 168
3610.0 156 156 134 104 68 104 91 93 96 91
3650.0 114 76 83 91 106 129 106 105 72 93
3690.0 133 130 107 95 95 119 139 144 159 156
3730.0 140 168 179 188 217 205 170 142 159 166
3770.0 177 192 182 164 177 177 214 221 224 197
3810.0 188 198 220 247 236 220 212 215 225 244
3850.0 260 290 236 223 212 234 245 240 234 220
3890.0 192 211 233 265 264 228 221 220 226 226
3930.0 228 219 193 189 208 255 81 94 95 97
##END=
