##TITLE=Pentane, 2,3,4-trimethyl-
##JCAMP-DX=4.24
##DATA TYPE=INFRARED SPECTRUM
##ORIGIN=Sadtler Research Labs Under US-EPA Contract
##OWNER=NIST Standard Reference Data Program
##CAS REGISTRY NO=565-75-3
##MOLFORM=C 8 H 18
##XUNITS=1/CM
##YUNITS=ABSORBANCE
##XFACTOR=1.0
##YFACTOR=0.000196594
##DELTAX=4.0
##FIRSTX=450.0
##LASTX=3966.0
##FIRSTY=0.000000
##MAXX=3966
##MINX=450
##MAXY=1.96594
##MINY=0
##NPOINTS=880
##XYDATA=(X++(Y..Y))
450.0 0 35 26 22 36 50 35 45 17 55
490.0 62 44 51 44 36 38 53 44 42 64
530.0 59 56 45 45 54 46 48 52 68 27
570.0 104 44 47 68 46 50 38 36 34 35
610.0 37 28 34 34 36 27 34 29 39 31
650.0 30 34 37 40 34 50 39 41 41 43
690.0 40 36 34 32 33 39 40 34 44 35
730.0 40 42 45 51 51 52 53 53 46 44
770.0 39 42 38 35 39 42 43 43 49 54
810.0 59 56 49 39 31 35 33 26 30 29
850.0 32 35 36 35 50 48 52 58 62 68
890.0 69 70 71 71 72 83 96 108 115 113
930.0 112 102 91 88 87 88 91 99 105 117
970.0 129 139 148 158 149 151 149 148 150 143
1010.0 133 128 128 146 172 225 263 295 288 273
1050.0 235 186 161 163 181 202 216 217 220 215
1090.0 214 222 249 283 343 427 506 566 595 578
1130.0 511 409 309 253 228 223 223 221 217 205
1170.0 199 192 197 206 209 209 202 192 176 165
1210.0 152 157 148 134 135 140 135 126 110 102
1250.0 97 101 107 110 118 121 129 127 124 121
1290.0 123 126 129 134 147 167 193 222 237 238
1330.0 226 216 214 229 255 309 399 534 725 945
1370.0 1285 1564 1738 1936 1993 1869 1525 1199 805 499
1410.0 338 252 222 218 226 248 291 373 473 607
1450.0 770 964 1187 1368 1516 1596 1546 1394 1166 897
1490.0 639 440 302 213 173 141 116 105 93 88
1530.0 75 78 70 72 64 66 61 62 64 54
1570.0 51 50 51 46 48 46 47 47 47 50
1610.0 47 53 50 52 49 55 52 57 53 60
1650.0 53 66 55 53 56 54 51 58 56 68
1690.0 64 73 87 106 117 139 163 187 200 209
1730.0 219 229 231 212 204 184 173 154 144 127
1770.0 115 100 88 78 68 61 62 60 55 57
1810.0 47 41 34 31 26 27 24 22 22 26
1850.0 21 22 22 22 21 21 22 19 19 19
1890.0 18 17 18 16 17 18 14 18 17 16
1930.0 16 16 19 18 18 15 18 17 18 14
1970.0 14 15 13 15 15 15 14 16 14 16
2010.0 15 13 16 13 13 14 11 11 11 13
2050.0 13 13 14 17 11 9 8 8 11 12
2090.0 14 17 17 15 16 17 18 19 18 21
2130.0 19 21 22 20 20 18 19 19 19 19
2170.0 17 21 20 20 20 20 20 21 20 19
2210.0 19 19 21 18 17 19 18 17 18 19
2250.0 18 19 19 21 24 24 23 26 27 29
2290.0 30 34 36 36 41 42 42 40 43 43
2330.0 46 39 40 39 36 42 48 48 46 37
2370.0 37 38 41 46 46 42 43 45 41 38
2410.0 35 32 33 30 32 34 30 32 32 29
2450.0 29 28 28 28 27 26 27 27 27 25
2490.0 27 27 27 28 29 30 30 30 28 32
2530.0 31 28 34 32 36 37 40 44 51 56
2570.0 66 73 81 83 85 85 90 87 89 97
2610.0 101 104 107 111 114 111 111 104 103 108
2650.0 103 102 104 100 101 93 91 93 93 93
2690.0 95 99 99 102 103 113 123 142 163 183
2730.0 202 220 220 215 208 197 190 185 184 183
2770.0 185 187 187 190 192 190 199 209 227 244
2810.0 267 291 315 341 367 395 431 485 574 698
2850.0 852 1044 1286 1608 1967 2502 3210 3879 4467 4833
2890.0 4920 4669 4142 3788 3519 3418 3449 3608 3850 4123
2930.0 4426 4766 5088 5360 5689 6119 7052 8007 9378 9910
2970.0 10000 9792 9302 8223 6440 4871 3432 2334 1589 1109
3010.0 821 642 542 466 427 386 356 322 299 282
3050.0 268 250 241 227 220 211 204 198 196 200
3090.0 186 189 186 183 179 175 178 175 178 178
3130.0 182 178 185 191 191 196 197 199 200 206
3170.0 202 202 202 191 194 181 181 174 170 158
3210.0 149 145 134 124 115 118 119 114 108 101
3250.0 110 97 101 97 89 88 95 76 86 74
3290.0 74 77 69 65 80 77 73 63 71 61
3330.0 62 65 59 59 61 63 66 72 67 59
3370.0 59 63 66 67 67 68 66 68 62 60
3410.0 61 56 56 45 54 60 62 50 58 50
3450.0 51 62 54 55 48 53 51 47 57 66
3490.0 36 48 60 48 41 41 58 52 48 52
3530.0 62 51 57 59 57 62 41 48 44 46
3570.0 68 36 54 53 62 59 60 49 41 40
3610.0 27 34 38 44 42 37 40 44 33 32
3650.0 42 36 55 27 30 19 36 30 43 37
3690.0 34 33 20 22 29 12 32 26 44 37
3730.0 15 23 27 31 25 22 13 31 28 20
3770.0 31 12 35 20 23 36 45 38 39 41
3810.0 50 29 39 43 52 35 36 41 47 40
3850.0 55 43 31 30 35 20 39 29 35 50
3890.0 23 53 61 57 41 20 35 32 50 39
3930.0 36 33 42 33 22 26 31 33 40 42
##END=
