##TITLE=3-Pentanol, 2-methyl-
##JCAMP-DX=4.24
##DATA TYPE=INFRARED SPECTRUM
##ORIGIN=Sadtler Research Labs Under US-EPA Contract
##OWNER=NIST Standard Reference Data Program
##CAS REGISTRY NO=565-67-3
##MOLFORM=C 6 H 14 O
##XUNITS=1/CM
##YUNITS=ABSORBANCE
##XFACTOR=1.0
##YFACTOR=0.000160437
##DELTAX=4.0
##FIRSTX=450.0
##LASTX=3966.0
##FIRSTY=0.004011
##MAXX=3966
##MINX=450
##MAXY=1.60437
##MINY=0
##NPOINTS=880
##XYDATA=(X++(Y..Y))
450.0 25 52 34 74 85 72 76 40 73 126
490.0 201 110 119 111 125 91 124 100 92 101
530.0 104 44 18 66 46 81 53 77 72 69
570.0 65 89 64 34 37 96 133 99 124 116
610.0 134 122 99 94 65 79 69 63 53 43
650.0 61 62 50 58 50 46 45 24 45 37
690.0 35 33 37 40 45 53 42 46 53 48
730.0 41 45 54 37 47 48 62 57 67 71
770.0 80 82 73 78 78 93 94 105 111 124
810.0 136 140 161 168 163 166 161 142 141 120
850.0 122 112 126 155 179 212 233 265 274 270
890.0 256 229 204 185 181 182 207 248 308 391
930.0 500 643 810 1004 1214 1437 1651 1843 2044 2280
970.0 2511 2671 2681 2628 2517 2220 1808 1400 1074 821
1010.0 664 590 576 605 659 711 752 796 820 839
1050.0 855 871 899 944 996 1049 1111 1163 1187 1188
1090.0 1177 1144 1092 1025 946 882 826 794 774 778
1130.0 801 831 867 885 901 890 866 823 790 752
1170.0 711 672 625 575 526 497 485 500 541 604
1210.0 689 782 873 951 1008 1032 1030 992 943 884
1250.0 826 772 721 683 645 614 594 584 582 590
1290.0 596 597 592 578 554 521 489 462 435 417
1330.0 405 404 411 435 475 536 622 739 882 1024
1370.0 1169 1307 1432 1562 1622 1603 1499 1327 1117 869
1410.0 654 505 406 357 333 347 390 465 585 722
1450.0 913 1101 1330 1486 1571 1651 1577 1423 1188 947
1490.0 695 500 357 257 199 163 135 126 109 103
1530.0 97 96 99 90 88 83 87 80 84 76
1570.0 73 72 71 64 63 62 57 57 54 53
1610.0 49 50 54 52 50 56 56 55 55 59
1650.0 53 61 55 57 52 56 52 53 47 50
1690.0 44 44 45 39 34 31 36 33 32 32
1730.0 33 33 31 30 28 30 25 25 25 25
1770.0 23 21 17 17 16 17 17 16 16 17
1810.0 16 14 15 14 16 14 14 16 16 17
1850.0 18 13 18 16 19 18 20 19 18 21
1890.0 21 22 24 24 24 26 28 28 28 26
1930.0 27 28 28 28 28 27 29 27 28 26
1970.0 24 24 22 22 21 19 18 19 15 18
2010.0 18 15 14 11 11 8 7 4 2 7
2050.0 13 16 10 8 0 1 3 0 7 11
2090.0 17 19 18 13 15 12 9 12 10 9
2130.0 8 11 8 9 11 8 8 6 6 7
2170.0 6 4 7 4 3 2 1 0 0 1
2210.0 2 0 1 3 3 3 3 3 5 6
2250.0 7 3 6 8 5 5 4 6 5 6
2290.0 7 5 8 10 11 12 16 15 19 21
2330.0 19 17 11 9 0 15 23 22 3 0
2370.0 0 0 0 0 9 15 19 23 26 25
2410.0 26 26 27 25 26 23 22 19 14 17
2450.0 14 15 12 13 12 11 11 8 12 8
2490.0 10 11 11 11 12 12 11 10 12 14
2530.0 9 15 11 14 13 15 15 19 23 23
2570.0 26 31 34 35 42 50 54 62 73 85
2610.0 90 95 100 103 103 103 99 95 89 87
2650.0 89 96 96 99 94 88 77 73 72 79
2690.0 86 94 100 111 121 131 140 153 165 182
2730.0 193 206 218 228 226 228 229 224 221 223
2770.0 226 228 234 238 247 250 259 269 283 298
2810.0 319 343 383 428 492 575 688 830 1010 1224
2850.0 1458 1713 1958 2225 2520 2892 3351 3802 4112 4293
2890.0 4364 4318 4106 3802 3572 3468 3454 3520 3693 3985
2930.0 4332 4714 5104 5412 5641 5943 6388 7142 8142 9244
2970.0 10000 9834 9312 7804 6016 4331 2961 1974 1333 924
3010.0 662 506 406 347 307 290 268 258 254 252
3050.0 241 240 233 227 216 209 198 192 182 177
3090.0 174 165 155 149 141 138 136 130 128 130
3130.0 130 133 139 142 148 152 151 162 163 172
3170.0 180 178 179 171 159 147 145 131 120 107
3210.0 93 89 82 74 65 60 62 62 57 53
3250.0 52 55 54 51 62 52 45 44 37 33
3290.0 23 20 15 13 11 15 20 20 13 12
3330.0 20 20 16 7 10 11 23 14 16 9
3370.0 14 8 0 6 9 10 10 15 17 31
3410.0 37 38 32 35 27 29 36 30 40 31
3450.0 38 33 38 41 45 43 28 34 29 36
3490.0 35 27 26 30 22 19 26 21 17 21
3530.0 28 22 15 36 27 25 19 15 21 22
3570.0 29 25 28 26 25 29 33 42 42 35
3610.0 47 79 90 118 147 181 241 287 347 412
3650.0 534 613 676 716 707 635 548 429 296 204
3690.0 144 91 77 73 54 48 44 37 39 25
3730.0 40 37 25 18 47 30 32 37 12 29
3770.0 21 19 28 32 31 32 34 29 45 35
3810.0 51 49 44 35 42 45 42 49 30 55
3850.0 51 49 62 27 34 37 39 39 38 43
3890.0 51 29 33 27 36 32 33 36 9 33
3930.0 59 20 25 46 47 31 26 61 52 15
##END=
