##TITLE=2-Pentanone, 3-methyl-
##JCAMP-DX=4.24
##DATA TYPE=INFRARED SPECTRUM
##ORIGIN=Sadtler Research Labs Under US-EPA Contract
##OWNER=NIST Standard Reference Data Program
##CAS REGISTRY NO=565-61-7
##MOLFORM=C 6 H 12 O
##XUNITS=1/CM
##YUNITS=ABSORBANCE
##XFACTOR=1.0
##YFACTOR=0.000083694
##DELTAX=4.0
##FIRSTX=450.0
##LASTX=3966.0
##FIRSTY=0.009457
##MAXX=3966
##MINX=450
##MAXY=0.83694
##MINY=0
##NPOINTS=880
##XYDATA=(X++(Y..Y))
450.0 113 37 25 33 64 49 119 22 20 64
490.0 188 118 43 62 108 86 106 149 135 178
530.0 183 172 199 169 157 115 150 136 203 227
570.0 279 267 383 406 388 419 495 487 370 385
610.0 292 294 206 215 151 201 128 128 109 58
650.0 67 84 98 65 50 74 82 51 68 87
690.0 150 140 182 246 214 257 187 228 191 164
730.0 129 98 91 72 59 106 97 90 81 88
770.0 90 120 128 159 174 161 160 163 156 139
810.0 111 108 89 68 71 62 65 85 82 100
850.0 92 94 87 87 65 63 69 56 70 52
890.0 64 76 81 84 109 147 187 258 343 440
930.0 558 675 776 873 940 989 984 961 916 845
970.0 765 699 630 575 509 600 491 502 499 504
1010.0 511 532 518 516 490 446 416 361 288 243
1050.0 230 223 241 262 302 360 448 565 702 819
1090.0 880 940 974 975 948 943 1003 1130 1316 1475
1130.0 1654 1785 1800 1760 1640 1437 1268 1150 1167 1386
1170.0 1756 2144 2439 2608 2547 2362 2048 1602 1206 965
1210.0 853 805 793 813 834 854 871 862 848 832
1250.0 790 776 745 693 661 610 555 528 527 524
1290.0 536 541 540 522 498 471 447 457 498 577
1330.0 699 891 1166 1579 2114 2754 3347 3756 3891 3748
1370.0 3458 3004 2486 2064 1818 1684 1487 1275 1083 943
1410.0 849 842 834 886 922 981 1035 1136 1266 1468
1450.0 1727 1968 2167 2269 2307 2159 1817 1547 1236 927
1490.0 662 506 402 335 305 278 258 259 246 259
1530.0 244 259 246 246 237 243 231 214 232 203
1570.0 200 191 187 166 166 150 149 148 143 142
1610.0 136 145 125 149 129 154 140 161 164 177
1650.0 168 212 230 256 315 359 444 551 667 833
1690.0 1030 1305 1638 2211 2981 4121 5457 6959 8072 9005
1730.0 10000 9407 7592 6356 4832 3288 2080 1387 1018 827
1770.0 712 603 535 440 364 292 291 289 263 246
1810.0 204 167 126 103 76 64 64 58 49 40
1850.0 40 38 40 32 39 29 37 36 41 41
1890.0 36 38 38 43 35 36 26 32 32 32
1930.0 29 28 25 17 23 15 19 23 23 19
1970.0 15 20 11 10 3 8 3 4 3 5
2010.0 7 10 17 23 35 42 43 39 45 53
2050.0 55 69 75 89 95 104 89 76 57 38
2090.0 26 11 5 9 10 9 10 6 4 12
2130.0 3 6 4 14 10 4 3 5 4 4
2170.0 10 7 6 4 9 2 6 4 8 6
2210.0 11 6 2 4 3 5 4 4 5 6
2250.0 10 5 11 7 10 10 17 24 32 36
2290.0 47 57 58 63 65 69 52 42 30 25
2330.0 12 20 47 14 56 51 1 8 36 59
2370.0 91 99 97 94 80 54 42 50 39 49
2410.0 51 42 44 43 50 49 48 48 42 55
2450.0 53 55 62 57 52 62 64 66 67 69
2490.0 73 63 69 68 71 62 66 59 61 69
2530.0 67 74 70 80 72 82 82 87 87 95
2570.0 98 99 108 105 107 108 108 107 93 83
2610.0 80 67 49 55 43 44 51 51 57 60
2650.0 71 51 53 61 73 96 122 141 162 172
2690.0 169 162 147 145 141 140 145 148 146 153
2730.0 158 173 187 191 205 203 209 203 200 202
2770.0 190 191 193 212 216 227 231 247 266 271
2810.0 286 301 322 344 377 408 446 482 529 577
2850.0 655 787 967 1199 1488 1897 2402 2953 3378 3649
2890.0 3821 3751 3522 3185 2890 2772 2828 3046 3421 3883
2930.0 4411 4956 5239 5307 5359 5266 5091 5269 5979 6988
2970.0 8281 9122 9151 8475 7360 5809 4219 2919 2060 1581
3010.0 1317 1152 1008 913 796 722 645 581 558 525
3050.0 499 492 480 462 453 430 430 413 386 358
3090.0 342 330 313 296 279 246 250 235 228 206
3130.0 201 195 197 181 178 174 184 158 163 159
3170.0 152 149 149 133 128 108 104 86 71 77
3210.0 68 58 52 45 49 21 43 31 32 38
3250.0 52 57 47 32 18 37 27 34 37 37
3290.0 44 45 41 62 71 77 51 74 108 86
3330.0 99 94 85 100 84 66 42 74 63 74
3370.0 75 97 120 124 126 114 108 107 125 134
3410.0 153 169 173 173 204 218 265 262 268 256
3450.0 229 199 162 148 127 86 82 85 88 65
3490.0 72 62 59 56 55 84 75 81 74 49
3530.0 64 80 56 51 58 68 56 72 86 94
3570.0 74 62 76 74 44 54 59 69 39 26
3610.0 48 44 20 21 33 37 17 22 23 25
3650.0 44 46 27 29 12 17 43 28 32 36
3690.0 31 28 7 15 38 39 35 52 46 31
3730.0 17 54 49 38 56 53 64 49 65 75
3770.0 53 61 36 42 60 54 59 52 51 61
3810.0 45 82 64 74 92 63 61 62 100 56
3850.0 29 89 92 97 42 107 61 84 28 29
3890.0 44 58 72 122 67 20 75 86 38 90
3930.0 0 18 42 25 44 80 120 97 99 60
##END=
