##TITLE=Benzonitrile, 2,3-dimethoxy-
##JCAMP-DX=4.24
##DATA TYPE=INFRARED SPECTRUM
##ORIGIN=Sadtler Research Labs Under US-EPA Contract
##OWNER=NIST Standard Reference Data Program
##CAS REGISTRY NO=5653-62-3
##MOLFORM=C 9 H 9 N O 2
##XUNITS=1/CM
##YUNITS=ABSORBANCE
##XFACTOR=1.0
##YFACTOR=0.000123224
##DELTAX=4.0
##FIRSTX=450.0
##LASTX=3966.0
##FIRSTY=0.001109
##MAXX=3966
##MINX=450
##MAXY=1.23224
##MINY=0
##NPOINTS=880
##XYDATA=(X++(Y..Y))
450.0 9 0 61 77 183 214 265 291 295 295
490.0 237 228 194 201 248 316 301 336 335 361
530.0 376 355 331 318 313 287 320 326 360 349
570.0 357 343 368 359 368 430 444 469 464 475
610.0 474 456 435 411 408 380 400 381 392 395
650.0 460 491 524 571 554 768 745 612 595 546
690.0 485 446 431 420 420 418 425 422 459 562
730.0 778 1114 1518 2127 2517 2359 1971 1556 1136 885
770.0 781 839 993 1235 1530 1653 1625 1573 1450 1275
810.0 1111 939 759 605 517 473 457 438 421 421
850.0 413 415 416 424 410 410 403 409 420 422
890.0 449 466 508 547 605 655 691 717 710 675
930.0 634 596 550 530 526 525 536 559 569 578
970.0 601 633 702 807 991 1266 1692 2289 2969 3562
1010.0 3844 3758 3336 2832 2548 2535 2648 2720 2708 2618
1050.0 2537 2517 2627 2918 3436 4162 4855 5308 5256 4648
1090.0 3635 2535 1684 1150 851 687 590 532 494 470
1130.0 462 449 457 464 481 513 565 662 798 942
1170.0 1054 1139 1169 1146 1100 1039 1029 1059 1085 1152
1210.0 1288 1497 1805 2190 2676 3230 3923 4598 5166 5654
1250.0 6023 6461 7198 8291 9392 10000 9856 8623 6861 5432
1290.0 4409 3687 3177 2809 2475 2116 1718 1330 1015 816
1330.0 695 634 596 573 546 538 523 503 478 444
1370.0 430 422 423 408 426 424 444 491 554 697
1410.0 923 1398 2128 3087 3860 4120 4040 3481 2673 2164
1450.0 2032 2132 2574 3475 4666 6197 7741 9385 8992 8696
1490.0 6571 4553 2887 1856 1339 1018 847 714 642 571
1530.0 525 498 465 487 487 509 566 687 894 1222
1570.0 1736 2269 2638 2634 2298 1727 1159 878 705 566
1610.0 443 351 300 263 248 222 212 205 199 193
1650.0 203 194 190 186 181 175 184 173 191 196
1690.0 193 187 194 180 165 139 129 121 102 91
1730.0 90 103 91 94 108 118 114 116 109 102
1770.0 99 91 84 87 86 89 94 100 110 105
1810.0 106 110 112 120 126 130 121 112 105 99
1850.0 94 89 90 87 82 82 66 62 64 70
1890.0 77 90 107 127 149 162 172 166 160 142
1930.0 129 122 113 115 115 114 119 123 126 130
1970.0 134 138 144 145 149 155 156 153 156 156
2010.0 150 142 131 118 104 101 100 105 107 113
2050.0 118 120 117 110 107 97 91 86 83 79
2090.0 75 71 67 64 60 61 63 63 67 71
2130.0 74 81 88 93 101 109 115 116 116 113
2170.0 109 106 102 103 101 102 98 101 106 111
2210.0 121 133 164 236 367 526 634 651 571 387
2250.0 197 101 76 67 64 68 69 73 79 75
2290.0 68 55 42 33 15 0 8 12 11 29
2330.0 28 47 48 51 37 7 39 52 81 76
2370.0 65 56 60 71 85 92 98 94 89 82
2410.0 77 72 71 70 70 71 71 76 79 80
2450.0 83 87 90 98 105 110 120 124 136 145
2490.0 151 159 164 167 162 159 157 152 150 148
2530.0 149 153 160 170 180 190 201 207 208 207
2570.0 200 196 180 167 152 141 132 127 122 124
2610.0 119 119 117 115 116 118 118 123 121 118
2650.0 118 121 119 114 115 111 110 107 104 105
2690.0 108 110 115 121 123 124 125 123 128 127
2730.0 129 131 131 131 134 132 131 130 130 125
2770.0 127 131 130 139 147 151 163 173 194 216
2810.0 243 278 332 408 518 680 908 1188 1435 1526
2850.0 1440 1244 1002 824 745 738 758 793 835 865
2890.0 888 902 920 942 972 1012 1053 1106 1166 1246
2930.0 1398 1656 2047 2507 2884 3027 2934 2636 2271 1997
2970.0 1791 1617 1485 1375 1294 1243 1241 1307 1449 1636
3010.0 1785 1795 1670 1442 1147 904 737 638 571 525
3050.0 492 470 457 458 479 534 611 711 797 820
3090.0 770 673 515 360 258 204 174 155 142 133
3130.0 128 117 111 110 106 105 104 103 93 89
3170.0 83 77 66 66 62 57 56 45 45 48
3210.0 46 44 40 40 41 42 40 41 33 37
3250.0 38 35 34 35 31 36 31 41 36 39
3290.0 33 32 33 37 34 30 33 31 38 32
3330.0 36 32 29 30 34 32 34 33 33 29
3370.0 27 28 29 30 26 30 25 24 25 27
3410.0 29 28 32 26 28 29 27 22 19 27
3450.0 27 31 33 37 35 36 35 38 31 26
3490.0 28 20 23 23 25 21 26 24 21 23
3530.0 21 16 16 22 18 11 21 16 13 15
3570.0 11 23 16 18 24 20 18 24 14 22
3610.0 13 7 6 21 15 14 5 17 15 10
3650.0 11 0 1 16 10 21 19 11 14 28
3690.0 24 20 20 23 23 15 6 12 23 26
3730.0 22 18 18 19 23 6 2 0 4 4
3770.0 5 2 2 3 0 1 0 11 14 14
3810.0 5 20 6 20 13 18 25 49 18 15
3850.0 36 34 1 16 28 29 39 30 45 43
3890.0 40 39 44 47 21 32 33 43 33 31
3930.0 30 33 24 42 30 39 25 23 22 24
##END=
