##TITLE=Indole-3-carboxylic acid, 1-methyl-, ethyl ester
##JCAMP-DX=4.24
##DATA TYPE=INFRARED SPECTRUM
##ORIGIN=Sadtler Research Labs Under US-EPA Contract
##OWNER=NIST Standard Reference Data Program
##CAS REGISTRY NO=56559-60-5
##MOLFORM=C 12 H 13 N O 2
##XUNITS=1/CM
##YUNITS=ABSORBANCE
##XFACTOR=1.0
##YFACTOR=0.000143530
##DELTAX=4.0
##FIRSTX=450.0
##LASTX=3966.0
##FIRSTY=0.004593
##MAXX=3966
##MINX=450
##MAXY=1.4353
##MINY=0
##NPOINTS=880
##XYDATA=(X++(Y..Y))
450.0 32 66 55 37 64 47 15 0 19 13
490.0 20 6 20 23 45 36 28 39 49 27
530.0 32 55 50 62 73 86 85 126 185 295
570.0 387 398 319 195 105 44 44 28 29 28
610.0 30 12 21 18 4 18 9 7 8 18
650.0 15 20 13 10 14 28 36 27 39 40
690.0 56 67 67 71 65 69 64 122 217 566
730.0 1040 1812 2428 2383 2253 1643 937 604 527 674
770.0 911 977 722 512 338 205 170 131 123 113
810.0 125 130 144 171 188 208 215 226 196 167
850.0 123 102 98 109 122 120 110 91 72 51
890.0 45 46 50 47 40 47 47 58 68 81
930.0 93 92 81 66 70 75 97 125 173 240
970.0 341 464 576 624 592 506 404 332 323 462
1010.0 716 882 965 1022 1190 1454 1561 1477 1282 1136
1050.0 1090 1118 1116 998 815 661 609 650 826 1229
1090.0 2078 3705 6194 8314 8066 5849 3222 1762 1167 942
1130.0 899 1006 1191 1649 2553 3314 3586 3108 2415 2019
1170.0 1770 1696 1579 1341 1128 1028 1056 1224 1658 2561
1210.0 4341 7088 9677 10000 7767 4582 2386 1283 780 585
1250.0 582 867 1360 1881 2271 2179 1763 1113 587 402
1290.0 352 373 429 478 494 466 453 506 669 869
1330.0 953 864 678 553 576 697 911 1106 1200 1303
1370.0 1529 1991 2371 2312 1853 1315 1013 881 803 731
1410.0 679 658 714 842 886 799 653 479 444 498
1450.0 613 806 1173 1695 2176 2381 2116 1570 1084 824
1490.0 639 456 339 277 283 327 365 496 664 1002
1530.0 1595 2630 3615 4138 3961 3058 2085 1282 747 562
1570.0 505 534 537 503 415 331 284 273 303 367
1610.0 473 544 556 476 361 247 203 189 181 194
1650.0 222 263 311 357 400 416 431 455 512 578
1690.0 622 680 770 912 1120 1516 2280 3603 5489 7246
1730.0 8292 7175 5213 2980 1576 852 534 384 328 302
1770.0 305 283 250 216 182 160 151 150 154 151
1810.0 141 125 98 80 66 59 49 44 46 48
1850.0 50 50 54 51 49 44 38 42 55 75
1890.0 93 104 92 75 56 45 44 53 66 71
1930.0 75 67 54 37 24 15 14 16 17 19
1970.0 16 16 12 11 6 6 2 1 0 0
2010.0 1 0 5 4 7 8 10 10 10 12
2050.0 10 12 11 14 13 12 13 12 12 10
2090.0 10 7 7 4 5 5 6 8 10 9
2130.0 11 11 10 11 11 9 8 6 4 4
2170.0 2 0 1 0 3 2 2 4 4 2
2210.0 3 1 1 1 3 5 4 7 8 6
2250.0 6 4 4 4 6 6 5 5 2 2
2290.0 0 2 4 7 7 9 11 13 19 20
2330.0 19 26 23 28 30 17 35 26 40 32
2370.0 37 32 34 27 21 22 19 16 14 15
2410.0 14 16 15 16 15 14 15 15 14 14
2450.0 12 11 11 9 11 11 13 15 17 17
2490.0 17 18 17 17 15 15 16 16 18 15
2530.0 17 16 16 14 18 19 21 23 24 27
2570.0 30 35 34 34 32 35 32 30 31 27
2610.0 23 20 19 15 14 13 14 13 16 18
2650.0 19 20 21 24 27 28 30 36 35 38
2690.0 35 38 37 40 42 43 44 48 48 49
2730.0 50 46 44 44 44 44 44 46 48 50
2770.0 50 54 56 61 65 66 73 82 93 109
2810.0 127 145 164 187 205 217 217 208 189 173
2850.0 162 158 162 179 208 251 307 381 467 523
2890.0 548 542 540 552 590 644 701 754 810 861
2930.0 914 996 1120 1262 1330 1309 1238 1176 1144 1112
2970.0 1081 1099 1204 1338 1370 1253 1049 865 735 621
3010.0 520 432 362 321 296 291 300 310 320 352
3050.0 422 558 720 826 847 790 701 601 462 322
3090.0 261 258 257 239 195 144 106 88 81 84
3130.0 83 77 65 60 56 52 51 46 45 40
3170.0 36 32 25 29 26 26 26 28 27 25
3210.0 25 21 22 22 23 19 20 17 17 17
3250.0 17 19 17 24 29 34 34 32 26 20
3290.0 18 17 16 14 13 10 11 11 10 9
3330.0 6 10 12 10 11 10 8 12 11 12
3370.0 8 7 12 8 13 9 11 10 16 14
3410.0 19 17 21 23 28 34 37 34 36 26
3450.0 22 14 8 7 6 1 3 3 3 0
3490.0 10 6 12 15 10 14 14 13 10 8
3530.0 7 6 5 7 9 7 6 2 8 8
3570.0 8 8 9 12 13 10 9 9 8 10
3610.0 12 14 8 6 8 13 12 14 8 11
3650.0 13 5 11 10 8 10 12 8 5 15
3690.0 12 10 14 13 14 13 14 9 12 13
3730.0 6 8 9 9 9 12 15 11 8 12
3770.0 6 11 5 9 10 12 8 6 18 14
3810.0 11 11 12 11 10 16 15 12 15 20
3850.0 7 12 15 16 19 15 8 14 10 8
3890.0 9 4 6 11 14 11 9 13 5 4
3930.0 4 10 9 11 12 15 8 9 8 12
##END=
