##TITLE=Pentane, 1,5-dichloro-3-methyl-,
##JCAMP-DX=4.24
##DATA TYPE=INFRARED SPECTRUM
##ORIGIN=Sadtler Research Labs Under US-EPA Contract
##OWNER=NIST Standard Reference Data Program
##CAS REGISTRY NO=56702-89-7
##MOLFORM=C 6 H 12 Cl 2
##XUNITS=1/CM
##YUNITS=ABSORBANCE
##XFACTOR=1.0
##YFACTOR=0.000076065
##DELTAX=4.0
##FIRSTX=450.0
##LASTX=3966.0
##FIRSTY=0.022667
##MAXX=3966
##MINX=450
##MAXY=0.76065
##MINY=0
##NPOINTS=880
##XYDATA=(X++(Y..Y))
450.0 298 133 10 151 17 127 125 151 123 151
490.0 131 121 149 101 147 77 113 35 11 32
530.0 41 49 44 49 55 59 46 76 26 63
570.0 16 16 13 45 33 24 20 16 35 21
610.0 77 47 114 111 145 163 229 249 344 461
650.0 674 1033 1469 2127 2633 2949 2828 2262 1661 1091
690.0 691 533 496 516 487 592 678 959 1256 1779
730.0 2366 2694 2713 2464 2193 2127 2259 2232 2098 1701
770.0 1229 784 583 505 510 432 411 356 310 288
810.0 222 208 171 215 227 280 280 317 336 308
850.0 304 351 391 450 460 559 715 876 1006 1021
890.0 944 821 711 618 513 433 351 313 291 302
930.0 312 338 340 306 280 238 230 212 222 218
970.0 202 184 181 201 226 249 284 344 395 454
1010.0 510 557 566 547 503 430 396 351 319 269
1050.0 231 176 157 140 134 139 144 169 178 202
1090.0 194 186 160 151 144 157 202 247 290 294
1130.0 299 273 259 234 219 202 205 224 244 288
1170.0 336 381 380 394 375 373 348 325 289 256
1210.0 229 225 238 242 287 321 388 497 676 874
1250.0 1052 1159 1124 1010 844 740 780 997 1379 1888
1290.0 2442 2864 2993 2930 2683 2330 1999 1680 1462 1362
1330.0 1313 1243 1134 1050 1013 1017 1040 1058 1027 941
1370.0 839 822 940 1104 1192 1171 986 683 455 308
1410.0 250 239 256 328 459 650 849 1060 1322 1699
1450.0 2079 2335 2438 2274 2061 1841 1492 1113 799 531
1490.0 354 240 188 142 124 110 98 90 82 79
1530.0 66 68 56 61 46 54 38 42 40 36
1570.0 38 33 37 33 31 35 38 31 31 33
1610.0 27 34 31 39 32 44 44 48 39 36
1650.0 38 37 40 38 44 40 44 38 41 47
1690.0 47 45 43 47 35 41 33 38 44 41
1730.0 40 47 53 64 67 70 74 75 86 88
1770.0 88 84 81 74 72 67 51 42 30 33
1810.0 31 26 27 26 27 24 24 20 25 24
1850.0 28 25 27 25 30 28 28 28 27 31
1890.0 27 25 15 25 18 17 14 21 25 16
1930.0 11 10 14 10 9 12 22 24 28 27
1970.0 28 33 27 28 27 28 24 29 33 31
2010.0 34 30 31 35 40 45 50 53 55 58
2050.0 61 60 62 60 57 57 46 46 38 43
2090.0 39 36 38 39 38 39 46 40 44 40
2130.0 45 40 41 37 35 40 38 42 41 42
2170.0 37 42 45 47 48 43 47 47 50 49
2210.0 46 45 47 42 46 43 41 43 41 42
2250.0 37 43 45 43 43 40 39 39 46 42
2290.0 40 48 52 48 57 61 55 52 55 50
2330.0 53 38 35 39 30 48 57 49 45 43
2370.0 23 13 20 30 43 46 47 51 47 49
2410.0 41 34 29 36 26 25 26 29 26 30
2450.0 27 25 26 28 28 21 29 27 28 16
2490.0 19 12 4 8 6 5 5 16 15 15
2530.0 13 11 4 6 5 7 15 10 17 19
2570.0 20 20 25 23 26 22 19 21 22 25
2610.0 26 29 27 34 39 39 39 36 60 57
2650.0 63 58 69 64 71 69 65 75 76 96
2690.0 95 109 102 108 119 109 107 106 115 112
2730.0 130 140 156 157 180 171 166 163 158 147
2770.0 134 130 118 134 153 160 156 164 174 175
2810.0 192 212 235 276 325 406 528 691 890 1033
2850.0 1108 1102 1069 1105 1274 1612 2083 2664 3147 3433
2890.0 3535 3403 3221 3038 2950 2914 2925 3013 3260 3702
2930.0 4358 5198 5914 6160 5891 5349 4956 5090 6022 7525
2970.0 9314 10000 8833 6669 4361 3000 2722 2954 3132 2895
3010.0 2254 1535 955 587 382 304 252 221 185 155
3050.0 132 116 102 89 87 68 67 65 69 54
3090.0 50 47 46 33 43 40 22 31 18 35
3130.0 30 30 28 33 32 36 38 31 39 38
3170.0 35 27 38 36 50 37 47 40 30 30
3210.0 26 29 29 30 22 20 23 8 9 14
3250.0 16 4 11 4 17 8 16 13 25 21
3290.0 21 33 32 38 37 39 33 45 40 49
3330.0 56 48 60 49 63 68 61 61 67 52
3370.0 50 57 61 54 59 65 75 77 67 67
3410.0 91 63 56 63 72 47 53 55 48 49
3450.0 38 48 43 45 47 52 29 26 44 54
3490.0 39 37 35 34 51 67 46 48 51 39
3530.0 45 28 45 33 39 39 33 47 45 36
3570.0 60 57 49 36 43 26 33 20 11 19
3610.0 32 43 24 7 42 22 50 40 41 33
3650.0 24 48 52 51 28 33 57 48 12 37
3690.0 39 24 30 22 21 31 55 1 11 71
3730.0 28 48 40 40 47 15 2 9 12 35
3770.0 63 56 0 37 2 31 31 27 4 17
3810.0 29 27 16 59 26 45 58 42 33 22
3850.0 35 4 39 15 54 7 2 20 27 71
3890.0 19 51 48 70 18 32 46 46 99 76
3930.0 65 97 45 71 84 83 70 61 54 16
##END=
