##TITLE=2,6-Dimethoxytoluene
##JCAMP-DX=4.24
##DATA TYPE=INFRARED SPECTRUM
##ORIGIN=Sadtler Research Labs Under US-EPA Contract
##OWNER=NIST Standard Reference Data Program
##CAS REGISTRY NO=5673-07-4
##MOLFORM=C 9 H 12 O 2
##XUNITS=1/CM
##YUNITS=ABSORBANCE
##XFACTOR=1.0
##YFACTOR=0.000165250
##DELTAX=4.0
##FIRSTX=450.0
##LASTX=3966.0
##FIRSTY=0.000000
##MAXX=3966
##MINX=450
##MAXY=1.6525
##MINY=0
##NPOINTS=880
##XYDATA=(X++(Y..Y))
450.0 0 202 388 258 167 300 420 380 394 390
490.0 338 397 337 363 261 267 256 288 296 254
530.0 208 247 278 191 238 224 283 230 290 253
570.0 310 381 374 334 395 380 338 308 228 269
610.0 246 257 250 257 250 221 263 241 247 273
650.0 237 257 278 251 283 304 353 381 459 533
690.0 680 819 966 1182 1424 1394 1138 937 746 539
730.0 449 333 361 376 417 436 596 717 925 1127
770.0 1212 1297 1204 1053 863 685 558 443 350 313
810.0 285 283 294 267 264 241 248 246 248 291
850.0 233 248 263 288 287 331 349 327 309 309
890.0 250 269 248 259 248 246 261 244 259 252
930.0 242 243 267 264 272 265 291 282 296 299
970.0 305 333 350 379 407 449 500 532 579 611
1010.0 642 663 666 666 654 648 691 703 746 778
1050.0 816 889 922 954 983 1013 1070 1151 1249 1376
1090.0 1553 1782 2114 2620 3348 4333 5622 6968 8711 9662
1130.0 10000 9690 8266 6489 4360 2601 1649 1375 1524 1828
1170.0 2087 2206 2173 1844 1447 1166 891 654 547 525
1210.0 542 585 666 808 1028 1381 1948 2847 4052 5322
1250.0 6089 6027 5313 4177 2992 2327 2059 1879 1679 1464
1290.0 1297 1186 1133 1135 1137 1101 1003 858 701 605
1330.0 547 498 497 467 442 426 411 416 413 412
1370.0 412 436 446 437 453 448 442 478 479 519
1410.0 588 653 828 1015 1359 1827 2372 2637 2613 2452
1450.0 2165 2080 2546 3474 4835 5961 6543 6077 4642 3124
1490.0 2008 1434 1060 808 696 619 568 545 547 545
1530.0 549 581 617 659 703 727 794 891 978 1138
1570.0 1361 1752 2288 3033 3897 4553 5123 4533 3715 2725
1610.0 1838 1423 1047 825 721 585 544 498 444 440
1650.0 435 415 398 388 397 391 422 386 397 377
1690.0 328 308 303 286 284 263 273 284 252 239
1730.0 242 257 234 231 245 244 236 235 238 245
1770.0 249 258 249 259 264 270 278 276 279 264
1810.0 263 262 250 252 251 247 233 220 220 224
1850.0 210 212 215 208 229 256 262 272 277 284
1890.0 280 266 253 243 241 243 243 250 250 245
1930.0 241 246 249 250 248 239 229 220 211 213
1970.0 204 201 201 199 202 204 202 201 201 202
2010.0 204 212 219 222 227 235 238 243 245 246
2050.0 238 232 231 220 219 211 205 204 200 203
2090.0 204 205 209 212 217 221 226 237 243 256
2130.0 270 285 301 311 319 320 316 304 295 286
2170.0 277 269 263 252 245 233 220 214 203 199
2210.0 195 190 191 188 188 186 186 186 189 190
2250.0 192 195 197 197 198 205 208 213 212 213
2290.0 213 211 211 207 206 206 200 195 192 193
2330.0 196 201 210 214 232 234 231 230 218 209
2370.0 211 202 200 205 202 196 190 191 191 191
2410.0 191 189 188 186 182 181 179 177 179 176
2450.0 176 176 178 178 182 186 185 195 196 201
2490.0 208 212 216 225 229 236 245 245 250 250
2530.0 248 244 238 229 220 213 208 204 203 205
2570.0 208 207 207 208 207 207 208 211 217 219
2610.0 219 216 213 215 212 209 208 210 209 208
2650.0 208 205 203 197 196 191 194 191 191 192
2690.0 197 198 198 201 205 212 218 222 228 232
2730.0 244 248 251 255 253 254 249 241 244 250
2770.0 253 260 270 280 289 299 316 328 355 380
2810.0 414 456 501 563 663 838 1138 1521 1791 1864
2850.0 1772 1500 1185 993 910 890 904 921 957 992
2890.0 1035 1109 1193 1303 1414 1519 1613 1701 1768 1843
2930.0 1992 2242 2612 3013 3259 3295 3122 2780 2357 1950
2970.0 1640 1414 1261 1188 1214 1342 1591 1909 2082 2022
3010.0 1863 1530 1159 936 833 776 745 715 698 677
3050.0 667 674 690 711 734 750 769 786 815 837
3090.0 842 813 750 650 541 437 360 311 287 268
3130.0 262 255 247 240 237 236 234 228 225 228
3170.0 227 222 221 222 214 210 214 215 207 201
3210.0 200 197 196 193 194 190 190 191 187 190
3250.0 189 187 191 188 186 182 183 185 191 186
3290.0 187 183 180 179 184 180 178 177 188 185
3330.0 176 179 179 185 186 177 186 182 181 190
3370.0 180 184 181 184 187 178 180 186 183 184
3410.0 185 183 184 190 187 180 185 186 180 184
3450.0 185 181 184 179 183 186 190 188 183 190
3490.0 182 182 178 188 184 181 181 189 184 187
3530.0 186 187 185 179 192 186 185 189 189 200
3570.0 196 188 190 195 196 194 189 194 190 195
3610.0 201 195 198 202 205 190 201 194 190 199
3650.0 197 200 192 192 196 196 187 199 185 189
3690.0 195 192 202 195 201 201 197 197 194 209
3730.0 201 191 201 202 193 181 200 195 193 199
3770.0 197 194 187 192 197 188 194 188 186 194
3810.0 187 200 191 198 182 197 177 188 206 192
3850.0 206 190 212 198 191 195 181 209 216 208
3890.0 206 204 213 228 213 184 193 199 191 176
3930.0 195 221 230 204 194 203 212 199 212 188
##END=
