##TITLE=2,4-Pentanediol, 3-methyl-
##JCAMP-DX=4.24
##DATA TYPE=INFRARED SPECTRUM
##ORIGIN=Sadtler Research Labs Under US-EPA Contract
##OWNER=NIST Standard Reference Data Program
##CAS REGISTRY NO=5683-44-3
##MOLFORM=C 6 H 14 O 2
##XUNITS=1/CM
##YUNITS=ABSORBANCE
##XFACTOR=1.0
##YFACTOR=0.000091541
##DELTAX=4.0
##FIRSTX=450.0
##LASTX=3966.0
##FIRSTY=0.030666
##MAXX=3966
##MINX=450
##MAXY=0.91541
##MINY=0
##NPOINTS=880
##XYDATA=(X++(Y..Y))
450.0 335 192 509 128 188 0 73 346 207 257
490.0 357 274 386 361 325 434 344 382 339 375
530.0 261 272 265 228 318 252 94 264 90 222
570.0 256 215 270 250 261 223 221 329 257 304
610.0 262 241 282 226 306 296 280 253 261 239
650.0 237 182 210 179 250 208 202 271 191 215
690.0 171 132 202 166 138 168 168 208 165 197
730.0 229 206 218 208 207 255 197 219 225 238
770.0 252 241 264 246 262 273 281 298 296 326
810.0 300 319 379 397 458 513 500 548 568 543
850.0 523 452 435 419 428 439 477 589 728 984
890.0 1292 1613 1980 2251 2391 2402 2365 2316 2180 2013
930.0 1831 1620 1402 1192 1084 1058 1073 1165 1253 1339
970.0 1434 1500 1636 1755 1902 2062 2183 2289 2341 2388
1010.0 2436 2477 2538 2585 2658 2784 2893 3000 3088 3138
1050.0 3164 3120 3084 3049 3038 3064 3095 3150 3182 3240
1090.0 3284 3346 3466 3566 3673 3791 3879 3985 4039 4032
1130.0 4016 3929 3803 3622 3420 3228 2999 2768 2508 2225
1170.0 1950 1680 1482 1317 1212 1175 1157 1188 1237 1289
1210.0 1359 1431 1524 1607 1720 1832 1931 2044 2119 2184
1250.0 2211 2194 2189 2153 2101 2061 2039 2034 2052 2061
1290.0 2069 2041 1999 1911 1805 1696 1584 1501 1433 1398
1330.0 1390 1390 1422 1463 1534 1630 1749 1926 2137 2468
1370.0 2891 3374 3860 4197 4369 4262 3973 3590 3182 2824
1410.0 2521 2243 1979 1746 1529 1392 1309 1342 1437 1572
1450.0 1752 1894 1967 1970 1842 1661 1432 1165 926 728
1490.0 574 463 386 326 291 265 223 211 195 182
1530.0 171 152 152 141 130 121 114 114 115 105
1570.0 106 102 101 102 99 99 102 95 102 94
1610.0 93 98 97 98 93 106 101 114 124 126
1650.0 144 133 129 108 119 136 170 224 251 235
1690.0 171 114 85 80 59 54 52 58 58 45
1730.0 57 50 61 57 49 60 63 63 59 48
1770.0 45 39 30 27 27 26 27 23 25 29
1810.0 29 26 24 26 27 26 24 22 23 23
1850.0 20 24 24 29 26 23 25 29 32 26
1890.0 31 31 27 30 29 33 30 35 32 33
1930.0 36 32 27 32 30 31 26 22 23 22
1970.0 20 23 17 19 19 17 17 19 19 21
2010.0 21 20 21 23 15 19 22 16 20 20
2050.0 19 17 18 19 17 17 17 15 19 17
2090.0 19 17 15 19 19 17 19 18 22 21
2130.0 20 19 19 24 16 20 22 19 19 19
2170.0 18 22 22 20 17 16 18 18 18 15
2210.0 17 22 18 19 19 16 16 15 21 18
2250.0 19 20 20 23 25 29 32 30 34 32
2290.0 32 29 26 27 24 19 30 30 35 43
2330.0 34 53 51 53 61 46 51 45 65 63
2370.0 66 62 57 50 49 49 49 50 55 52
2410.0 52 60 58 57 61 62 59 55 58 57
2450.0 55 56 50 53 49 47 48 48 44 43
2490.0 42 44 44 43 37 38 42 40 43 43
2530.0 42 44 47 54 55 56 62 65 65 73
2570.0 76 83 91 92 98 103 105 111 115 125
2610.0 126 132 137 146 152 155 163 169 177 180
2650.0 184 191 192 196 203 204 208 211 207 209
2690.0 209 204 208 203 200 201 206 210 221 227
2730.0 240 248 258 260 263 261 265 265 272 279
2770.0 287 296 308 319 336 358 378 405 432 460
2810.0 490 527 558 598 647 701 764 838 924 1030
2850.0 1144 1298 1486 1729 2054 2477 3000 3604 4236 4800
2890.0 5221 5510 5570 5410 5154 4840 4572 4399 4343 4436
2930.0 4606 4807 4950 4974 4844 4608 4507 4662 5257 6326
2970.0 7688 9008 9901 10000 9234 7770 6116 4449 3011 1971
3010.0 1289 879 643 510 428 373 344 313 283 267
3050.0 245 235 220 209 205 195 192 187 184 185
3090.0 165 167 163 149 151 147 141 138 130 126
3130.0 126 121 123 122 130 126 122 126 124 128
3170.0 128 130 128 117 119 118 113 113 105 96
3210.0 86 79 77 56 55 45 39 33 28 27
3250.0 23 23 23 21 17 20 15 26 18 15
3290.0 21 24 25 18 24 26 27 30 25 28
3330.0 35 33 32 40 34 42 38 44 40 43
3370.0 48 50 58 56 49 55 51 61 59 63
3410.0 63 72 79 73 85 84 85 96 95 103
3450.0 101 109 108 127 124 140 137 138 142 135
3490.0 154 149 163 155 159 170 177 191 206 216
3530.0 246 258 286 335 389 502 645 844 1104 1411
3570.0 1768 2096 2423 2653 2754 2718 2526 2271 1904 1571
3610.0 1284 1063 915 818 779 802 867 977 1145 1343
3650.0 1513 1597 1587 1465 1242 965 702 507 333 244
3690.0 184 155 142 109 102 97 81 75 47 50
3730.0 36 40 33 21 27 22 15 15 15 15
3770.0 15 15 15 15 15 19 15 15 15 15
3810.0 17 15 15 15 15 15 15 15 15 15
3850.0 15 15 15 15 15 15 15 15 15 15
3890.0 15 15 15 15 15 15 15 15 15 15
3930.0 15 15 15 15 15 15 15 16 15 15
##END=
