##TITLE=Ethanol, 2-(2,3,5-trimethylphenoxy)-,
##JCAMP-DX=4.24
##DATA TYPE=INFRARED SPECTRUM
##ORIGIN=Sadtler Research Labs Under US-EPA Contract
##OWNER=NIST Standard Reference Data Program
##CAS REGISTRY NO=56949-56-5
##MOLFORM=C 11 H 16 O 2
##XUNITS=1/CM
##YUNITS=ABSORBANCE
##XFACTOR=1.0
##YFACTOR=0.000088919
##DELTAX=4.0
##FIRSTX=450.0
##LASTX=3966.0
##FIRSTY=0.014049
##MAXX=3966
##MINX=450
##MAXY=0.88919
##MINY=0
##NPOINTS=880
##XYDATA=(X++(Y..Y))
450.0 158 170 132 121 186 211 212 227 236 236
490.0 177 128 122 104 126 126 146 161 166 171
530.0 213 214 211 160 153 159 126 144 161 201
570.0 247 296 362 419 392 339 312 285 271 252
610.0 270 288 307 357 391 447 509 563 589 500
650.0 366 199 137 88 72 57 35 28 15 8
690.0 9 11 19 66 110 162 205 226 200 162
730.0 115 93 59 53 70 84 100 79 44 15
770.0 9 3 0 0 16 24 31 68 86 138
810.0 231 389 639 974 1361 1676 1759 1790 1729 1618
850.0 1511 1344 1146 945 820 752 748 775 834 930
890.0 1025 1106 1104 1014 859 748 692 678 645 593
930.0 528 459 421 402 415 465 572 758 1031 1272
970.0 1391 1363 1237 1130 1120 1182 1289 1420 1557 1718
1010.0 1882 2093 2364 2680 3037 3381 3731 4040 4344 4623
1050.0 4871 5112 5452 5910 6407 6671 6485 5891 5143 4638
1090.0 4530 4839 5591 6733 8109 9360 10000 9537 8024 6121
1130.0 4828 4886 5953 6953 7100 6011 4378 2963 2080 1603
1170.0 1312 1131 1020 989 1019 1109 1230 1369 1500 1577
1210.0 1562 1432 1253 1081 1009 1076 1251 1453 1607 1673
1250.0 1660 1677 1801 2108 2661 3422 4207 4734 4897 4911
1290.0 5166 5874 6762 7407 7507 6962 5902 4603 3301 2296
1330.0 1702 1404 1281 1231 1195 1185 1214 1356 1645 1956
1370.0 2122 2121 1976 1847 1828 1855 1904 2012 2194 2453
1410.0 2727 3051 3439 3762 3936 3794 3462 3047 2751 2650
1450.0 2680 2814 2967 2960 2828 2669 2679 3009 3517 4014
1490.0 4082 3710 3010 2317 1841 1546 1380 1287 1257 1225
1530.0 1233 1258 1321 1409 1546 1716 1985 2299 2694 3093
1570.0 3534 3940 4256 4350 4111 3651 3060 2636 2528 2760
1610.0 3154 3294 3020 2368 1593 973 651 478 386 331
1650.0 306 291 273 254 254 248 255 243 255 249
1690.0 233 226 254 270 275 278 271 260 210 181
1730.0 158 154 136 142 162 165 162 145 127 103
1770.0 99 77 59 51 43 34 38 29 28 17
1810.0 12 9 0 3 3 7 4 5 8 15
1850.0 14 13 15 20 24 37 35 37 38 42
1890.0 41 40 31 33 31 32 33 36 38 37
1930.0 42 45 50 57 61 62 64 69 66 66
1970.0 59 56 50 45 38 35 31 30 27 26
2010.0 23 23 23 16 20 21 21 20 25 24
2050.0 25 21 21 24 24 25 24 28 28 26
2090.0 27 30 33 38 44 50 57 67 71 80
2130.0 84 88 86 82 77 70 65 59 56 50
2170.0 48 42 40 35 31 26 22 19 17 13
2210.0 13 14 13 12 13 15 12 14 12 10
2250.0 13 11 12 5 11 6 6 4 5 1
2290.0 1 0 1 8 4 8 13 22 29 41
2330.0 48 43 57 60 81 58 85 68 80 80
2370.0 78 75 74 65 54 50 51 49 51 53
2410.0 54 58 61 61 62 63 63 59 59 60
2450.0 61 58 62 59 54 53 51 52 51 51
2490.0 55 52 53 51 55 58 62 65 65 65
2530.0 60 57 50 42 46 42 41 44 40 42
2570.0 49 49 49 54 56 61 54 49 43 38
2610.0 36 31 26 30 31 32 33 33 33 38
2650.0 42 48 52 60 66 75 84 93 99 111
2690.0 120 127 138 153 169 184 207 233 260 295
2730.0 342 393 438 455 436 387 333 302 289 292
2770.0 293 294 300 300 310 323 338 359 378 402
2810.0 430 461 501 543 595 660 736 843 969 1142
2850.0 1374 1674 2085 2640 3331 4076 4685 5056 5125 4924
2890.0 4547 4209 3995 3905 3974 4237 4745 5533 6602 7795
2930.0 8801 9250 9054 8391 7566 6850 6362 5960 5516 5034
2970.0 4516 4019 3584 3206 2828 2495 2255 2147 2160 2257
3010.0 2402 2551 2644 2605 2439 2226 2012 1834 1709 1654
3050.0 1630 1627 1605 1531 1404 1236 1066 892 741 604
3090.0 501 421 359 315 274 246 213 185 155 138
3130.0 121 103 93 80 70 62 56 49 44 41
3170.0 34 29 27 28 22 26 21 21 18 15
3210.0 12 13 13 11 10 10 6 9 3 8
3250.0 4 14 15 9 9 11 13 14 13 11
3290.0 20 12 15 7 13 15 15 8 17 13
3330.0 15 12 13 24 12 11 16 18 5 13
3370.0 13 6 0 9 12 14 7 10 13 16
3410.0 13 16 11 14 11 10 14 21 17 20
3450.0 26 15 16 25 21 14 21 24 39 38
3490.0 40 40 42 39 43 42 35 40 45 46
3530.0 55 56 62 68 76 65 66 53 65 73
3570.0 71 60 57 60 82 108 112 130 148 177
3610.0 242 297 358 452 600 867 1180 1400 1389 1186
3650.0 897 698 627 603 629 618 577 526 461 380
3690.0 326 237 175 149 111 106 102 73 83 84
3730.0 61 98 84 80 75 81 63 46 64 42
3770.0 41 35 39 41 36 40 30 34 37 21
3810.0 13 13 12 20 19 28 32 36 34 20
3850.0 9 31 13 5 2 8 18 38 20 11
3890.0 21 18 9 20 13 37 0 22 36 33
3930.0 32 44 15 11 32 40 19 21 30 26
##END=
