##TITLE=Ethanol, 2-(4,6-dichloro-o-tolyl)-,
##JCAMP-DX=4.24
##DATA TYPE=INFRARED SPECTRUM
##ORIGIN=Sadtler Research Labs Under US-EPA Contract
##OWNER=NIST Standard Reference Data Program
##CAS REGISTRY NO=56949-53-2
##MOLFORM=C 9 H 10 Cl 2 O 2
##XUNITS=1/CM
##YUNITS=ABSORBANCE
##XFACTOR=1.0
##YFACTOR=0.000039093
##DELTAX=4.0
##FIRSTX=450.0
##LASTX=3966.0
##FIRSTY=0.019625
##MAXX=3966
##MINX=450
##MAXY=0.39093
##MINY=0
##NPOINTS=880
##XYDATA=(X++(Y..Y))
450.0 502 403 183 254 112 184 87 141 162 132
490.0 197 236 330 346 367 378 460 496 496 323
530.0 241 141 102 40 37 99 115 94 118 328
570.0 520 853 1016 869 550 313 141 63 37 30
610.0 26 2 23 49 45 31 37 60 48 50
650.0 86 52 83 52 107 174 220 247 392 537
690.0 774 946 1216 1402 1324 971 620 481 394 329
730.0 335 369 538 867 1328 1906 2347 2549 2354 1845
770.0 1206 717 455 345 300 273 293 324 428 560
810.0 711 1019 1510 2250 3232 4166 4455 4024 3147 2458
850.0 2562 3106 4189 4118 3398 2703 2184 2123 2317 2554
890.0 3051 3572 3850 3655 3189 2584 2040 1501 1000 716
930.0 577 514 464 463 475 487 504 526 578 620
970.0 695 802 895 1046 1268 1566 1965 2503 3145 3853
1010.0 4689 5609 6615 7484 7772 7332 6272 5144 4239 3625
1050.0 3199 2907 2749 2759 2975 3341 3772 4061 4068 3731
1090.0 3180 2613 2200 1864 1540 1209 940 758 657 603
1130.0 579 565 577 615 711 886 1161 1588 2299 3611
1170.0 5919 8548 9531 8053 5048 2887 2308 2493 3259 4652
1210.0 5951 6133 4931 3274 2203 1916 1964 2258 2694 3403
1250.0 4423 5746 6995 7412 6725 5297 3984 3144 2616 2196
1290.0 1831 1489 1247 1078 963 881 839 847 846 893
1330.0 919 972 1003 1055 1130 1250 1542 2169 3161 3843
1370.0 3771 3032 2279 1985 2013 2315 2781 3238 3347 3123
1410.0 2672 2445 2529 3176 4511 6101 7147 7331 7485 8053
1450.0 8915 9256 9389 9685 10000 9787 8239 6110 4226 3070
1490.0 2402 1966 1667 1395 1243 1089 980 878 815 781
1530.0 753 759 775 827 931 1097 1318 1594 1916 2082
1570.0 2119 1990 1832 1630 1364 1059 814 630 486 372
1610.0 286 227 194 168 124 108 81 62 58 43
1650.0 36 30 50 31 41 39 45 45 47 45
1690.0 54 59 84 141 220 329 433 489 505 480
1730.0 428 339 233 145 108 95 108 83 68 57
1770.0 61 42 49 44 50 32 23 25 21 27
1810.0 11 6 6 2 2 8 8 14 14 22
1850.0 32 39 45 45 43 30 31 34 39 38
1890.0 45 52 63 72 85 78 79 68 57 47
1930.0 52 49 54 52 63 77 92 107 110 114
1970.0 109 102 83 72 60 60 53 59 60 73
2010.0 78 80 72 78 69 58 57 46 38 39
2050.0 29 34 31 31 30 34 30 41 38 41
2090.0 38 37 36 36 36 25 22 26 28 19
2130.0 21 15 17 18 27 24 23 30 30 28
2170.0 18 11 17 12 9 3 6 7 9 5
2210.0 2 3 5 9 5 6 4 7 4 7
2250.0 10 11 10 19 23 21 33 29 38 46
2290.0 54 55 59 62 66 76 72 60 64 41
2330.0 36 36 28 55 68 101 67 66 66 51
2370.0 68 75 80 70 50 41 29 23 30 28
2410.0 29 35 41 49 64 60 61 53 50 44
2450.0 44 46 48 53 49 55 64 54 44 39
2490.0 43 41 43 48 48 55 64 66 69 64
2530.0 65 64 53 48 45 37 28 28 25 21
2570.0 18 18 20 17 17 15 16 15 27 29
2610.0 24 21 29 36 36 44 52 60 63 66
2650.0 68 62 56 58 60 66 69 77 73 83
2690.0 80 94 105 110 116 121 137 151 163 171
2730.0 179 190 190 202 199 189 180 161 163 168
2770.0 173 185 195 202 221 228 233 259 270 285
2810.0 312 326 352 366 391 412 438 459 499 560
2850.0 642 752 898 1099 1344 1647 1964 2270 2466 2487
2890.0 2344 2135 1949 1813 1765 1797 1909 2102 2419 2827
2930.0 3311 3837 4364 4717 4834 4722 4483 4226 3885 3457
2970.0 2974 2512 2125 1782 1510 1286 1106 932 790 662
3010.0 575 508 452 413 378 356 348 341 325 329
3050.0 330 322 337 351 374 371 342 280 223 184
3090.0 157 128 117 95 76 72 71 57 54 53
3130.0 45 47 45 36 39 38 45 40 32 29
3170.0 29 35 16 27 15 21 22 28 23 26
3210.0 10 18 21 28 21 16 6 13 6 13
3250.0 17 11 10 18 14 5 12 24 20 18
3290.0 11 13 15 18 21 21 9 22 2 25
3330.0 18 24 20 22 2 3 12 18 25 11
3370.0 2 8 2 5 19 5 15 19 14 11
3410.0 13 15 12 18 23 6 8 4 11 23
3450.0 20 23 9 6 30 14 21 23 31 17
3490.0 28 42 26 46 42 39 49 32 43 44
3530.0 44 54 49 46 51 48 53 40 52 80
3570.0 111 120 120 125 134 127 126 156 169 219
3610.0 249 319 427 591 807 1111 1294 1311 1214 1105
3650.0 982 896 812 796 795 795 729 644 520 431
3690.0 324 256 230 174 129 119 116 107 77 59
3730.0 58 53 44 44 76 21 53 52 63 77
3770.0 53 32 38 28 36 11 15 2 2 18
3810.0 14 2 2 2 2 3 2 2 34 0
3850.0 13 2 2 18 8 2 2 2 3 35
3890.0 2 5 10 32 8 16 23 20 2 16
3930.0 4 4 13 13 49 42 18 24 17 33
##END=
