##TITLE=Allyl Isothiocyanate
##JCAMP-DX=4.24
##DATA TYPE=INFRARED SPECTRUM
##ORIGIN=Sadtler Research Labs Under US-EPA Contract
##OWNER=NIST Standard Reference Data Program
##CAS REGISTRY NO=57-06-7
##MOLFORM=C 4 H 5 N S
##XUNITS=1/CM
##YUNITS=ABSORBANCE
##XFACTOR=1.0
##YFACTOR=0.000061719
##DELTAX=4.0
##FIRSTX=450.0
##LASTX=3966.0
##FIRSTY=0.008147
##MAXX=3966
##MINX=450
##MAXY=0.61719
##MINY=0
##NPOINTS=880
##XYDATA=(X++(Y..Y))
450.0 132 99 133 103 122 115 144 137 189 191
490.0 192 211 248 184 233 267 237 235 266 188
530.0 191 188 209 236 183 217 151 183 191 131
570.0 118 111 119 106 92 89 108 145 127 90
610.0 81 119 135 50 112 64 105 50 99 63
650.0 81 67 83 56 32 118 121 67 66 91
690.0 154 198 179 194 213 267 326 339 358 380
730.0 365 403 332 276 307 222 180 125 87 59
770.0 71 64 25 17 25 37 12 37 38 5
810.0 15 17 8 17 16 57 33 8 21 30
850.0 41 39 26 73 85 79 108 79 99 115
890.0 146 190 209 271 356 404 481 599 691 785
930.0 890 756 690 591 506 416 354 322 302 310
970.0 348 352 414 458 452 453 428 345 289 234
1010.0 216 189 163 141 134 145 119 111 104 96
1050.0 95 82 79 93 91 83 85 70 84 90
1090.0 79 90 89 89 90 89 100 96 106 106
1130.0 120 118 123 109 98 99 83 67 76 74
1170.0 68 68 62 67 66 73 66 68 61 76
1210.0 78 78 85 87 102 102 101 101 95 107
1250.0 87 85 87 94 94 104 119 146 198 266
1290.0 299 305 341 359 334 376 519 779 1082 1215
1330.0 1250 1361 1351 1108 846 678 604 491 313 182
1370.0 138 129 121 130 140 138 145 157 174 203
1410.0 261 336 399 389 369 377 303 316 340 418
1450.0 444 441 479 362 237 120 104 62 53 45
1490.0 55 40 64 42 75 60 38 52 71 48
1530.0 32 40 41 86 46 34 39 70 66 30
1570.0 35 31 43 18 17 18 18 18 18 20
1610.0 27 23 46 43 49 47 69 115 122 180
1650.0 169 219 129 115 66 61 42 34 37 65
1690.0 29 27 52 75 38 27 31 53 30 23
1730.0 16 50 33 40 30 30 30 38 39 24
1770.0 33 43 14 14 19 8 34 15 17 8
1810.0 1 8 8 8 18 20 20 26 34 49
1850.0 49 55 72 81 97 121 104 102 106 96
1890.0 97 102 110 124 135 160 176 201 225 243
1930.0 274 301 334 367 401 442 489 538 595 660
1970.0 735 816 908 1028 1151 1312 1501 1713 1972 2263
2010.0 2613 3022 3515 4073 4709 5454 6246 7081 7919 8671
2050.0 9266 9779 10000 9940 9557 8816 8114 7508 6964 6346
2090.0 5646 4852 4093 3385 2783 2305 1933 1665 1469 1309
2130.0 1192 1125 1077 1072 1091 1143 1209 1261 1318 1360
2170.0 1415 1471 1498 1508 1501 1467 1409 1306 1183 1053
2210.0 917 788 673 576 493 432 382 347 323 298
2250.0 291 274 259 257 236 220 209 191 174 150
2290.0 142 126 109 93 83 76 61 53 53 49
2330.0 54 50 37 28 40 31 22 33 22 30
2370.0 30 36 31 25 17 24 22 15 15 15
2410.0 15 17 7 7 13 8 13 7 7 7
2450.0 7 8 8 7 7 10 11 7 8 7
2490.0 12 8 2 9 9 9 9 9 9 0
2530.0 9 8 7 12 19 24 23 24 25 26
2570.0 25 19 18 23 17 27 30 25 26 32
2610.0 34 42 34 43 50 43 60 52 58 59
2650.0 63 66 66 75 75 75 74 67 60 58
2690.0 52 43 35 35 31 34 27 30 37 37
2730.0 45 37 46 45 52 61 60 65 65 78
2770.0 78 84 85 86 94 78 85 84 78 74
2810.0 70 69 63 65 70 70 62 71 71 71
2850.0 73 88 105 134 167 201 205 229 224 214
2890.0 199 167 158 150 160 172 205 254 299 350
2930.0 392 410 408 392 359 318 276 253 212 182
2970.0 156 139 142 129 141 151 154 162 153 161
3010.0 145 136 146 160 178 173 160 154 136 93
3050.0 67 74 83 75 77 90 109 119 126 143
3090.0 159 199 225 225 212 195 170 127 83 61
3130.0 53 51 41 43 40 36 31 30 29 30
3170.0 29 28 20 19 21 22 17 23 24 20
3210.0 15 31 31 15 16 12 6 13 17 16
3250.0 16 15 15 15 15 24 23 15 24 15
3290.0 16 16 22 22 15 19 17 17 16 16
3330.0 16 16 19 23 15 13 19 22 25 25
3370.0 18 26 25 17 11 18 18 18 18 14
3410.0 25 24 24 24 18 12 27 19 28 28
3450.0 19 20 23 27 27 16 20 26 27 21
3490.0 20 28 30 22 19 27 11 26 20 20
3530.0 21 21 21 21 29 28 24 22 30 20
3570.0 26 22 21 21 21 33 22 22 23 23
3610.0 30 31 27 35 15 51 31 23 23 32
3650.0 47 23 24 13 14 28 26 33 10 14
3690.0 24 8 1 9 1 1 16 1 3 10
3730.0 1 13 20 16 36 32 19 1 1 1
3770.0 1 1 1 1 1 2 2 2 18 10
3810.0 11 3 11 11 3 1 6 11 8 4
3850.0 8 27 2 1 1 5 4 19 13 13
3890.0 4 5 1 5 2 1 6 6 5 6
3930.0 1 1 1 1 5 16 0 1 1 1
##END=
