##TITLE=Hydrazine, 1,1-dimethyl-
##JCAMP-DX=4.24
##DATA TYPE=INFRARED SPECTRUM
##ORIGIN=Sadtler Research Labs Under US-EPA Contract
##OWNER=NIST Standard Reference Data Program
##CAS REGISTRY NO=57-14-7
##MOLFORM=C 2 H 8 N 2
##XUNITS=1/CM
##YUNITS=ABSORBANCE
##XFACTOR=1.0
##YFACTOR=0.000051611
##DELTAX=4.0
##FIRSTX=450.0
##LASTX=3966.0
##FIRSTY=0.051921
##MAXX=3966
##MINX=450
##MAXY=0.51611
##MINY=0
##NPOINTS=880
##XYDATA=(X++(Y..Y))
450.0 1006 959 1024 992 954 948 852 778 662 594
490.0 487 372 365 322 281 316 290 314 204 260
530.0 177 149 292 24 181 130 118 76 26 128
570.0 70 69 4 69 76 146 72 46 45 43
610.0 0 56 58 71 90 91 110 86 97 88
650.0 102 120 102 117 93 208 161 143 170 149
690.0 191 193 162 191 180 178 185 174 207 218
730.0 246 272 321 404 460 555 662 810 1002 1208
770.0 1483 1759 2045 2367 2569 2784 2987 3167 3410 3621
810.0 3416 2675 2518 2450 2272 1941 1565 1310 1106 1003
850.0 993 993 1073 1195 1396 1690 2080 2634 3265 3974
890.0 4630 5061 5332 5372 5682 6271 5572 5029 4884 4721
930.0 4070 3155 2276 1572 1139 855 717 634 600 555
970.0 500 528 574 671 797 961 1165 1343 1515 1691
1010.0 1868 2114 2316 2462 2663 2894 3064 2986 2849 2720
1050.0 2597 2415 2200 2210 2129 1912 1624 1245 1004 851
1090.0 773 814 813 810 812 838 869 858 875 802
1130.0 806 857 1115 1778 1149 733 759 812 842 804
1170.0 737 629 543 485 445 456 461 468 473 483
1210.0 535 586 520 418 418 427 399 383 345 334
1250.0 336 345 392 453 533 619 697 780 844 919
1290.0 1035 1148 1305 1262 1020 987 978 833 709 654
1330.0 577 512 468 404 334 271 248 240 264 239
1370.0 245 269 253 259 273 293 307 331 366 462
1410.0 502 706 924 1294 1693 1968 2170 2502 2598 2852
1450.0 3231 3147 3335 3169 2501 2273 2140 2044 1991 1792
1490.0 1522 1261 1086 940 817 724 563 498 425 405
1530.0 357 425 376 474 523 633 697 817 1003 1101
1570.0 1294 1409 1583 1652 1765 1757 1677 1609 1578 1449
1610.0 1345 1176 1032 878 703 661 505 450 352 339
1650.0 233 305 228 243 216 273 197 271 214 236
1690.0 229 216 197 244 196 191 168 167 129 158
1730.0 129 128 99 101 88 95 74 78 59 64
1770.0 69 49 49 50 80 39 71 44 77 49
1810.0 52 56 68 43 78 44 50 58 42 70
1850.0 46 51 34 55 32 56 41 44 46 34
1890.0 51 34 40 41 37 56 42 70 59 63
1930.0 59 65 56 68 58 65 60 51 54 43
1970.0 58 44 44 46 38 33 46 43 44 48
2010.0 57 49 67 51 55 55 47 44 46 32
2050.0 42 28 40 30 32 38 27 37 26 34
2090.0 27 25 39 37 50 43 47 47 39 48
2130.0 48 48 48 37 38 38 40 45 35 49
2170.0 37 42 39 49 48 48 49 49 54 60
2210.0 47 47 49 48 48 41 39 29 39 29
2250.0 38 41 27 24 30 29 27 26 38 33
2290.0 33 29 18 26 11 8 10 6 2 1
2330.0 6 3 1 18 14 6 0 1 9 51
2370.0 83 74 84 76 66 60 43 53 52 52
2410.0 64 53 63 63 70 68 71 83 83 82
2450.0 82 83 103 94 102 104 113 124 124 130
2490.0 126 154 147 125 134 124 134 135 122 124
2530.0 115 111 105 105 105 97 106 106 106 115
2570.0 105 106 98 104 100 106 101 97 98 94
2610.0 89 95 88 96 98 106 118 131 141 154
2650.0 189 204 218 253 264 286 325 346 377 389
2690.0 426 425 455 486 503 552 565 655 791 965
2730.0 1249 1613 2121 2731 3404 4119 4659 5203 5830 7114
2770.0 8634 8968 10000 7384 6885 7099 7110 6797 6143 5808
2810.0 6316 8178 8052 5669 4935 5237 5754 6084 6177 6281
2850.0 6038 5281 4531 4387 4457 4367 4301 4160 3899 3655
2890.0 3386 3231 3085 2894 2843 2745 2761 2856 3135 3573
2930.0 4148 4748 5244 5657 6053 6591 7418 8113 9081 8174
2970.0 7888 7840 7671 7479 6765 6009 5432 4893 4459 3852
3010.0 3143 2518 2115 1799 1429 1080 770 542 398 310
3050.0 268 236 236 228 218 236 236 233 227 232
3090.0 260 246 259 246 248 258 259 299 323 359
3130.0 410 458 533 585 674 779 864 995 1080 1171
3170.0 1234 1285 1376 1424 1492 1558 1587 1604 1605 1623
3210.0 1576 1521 1459 1347 1242 1114 988 896 767 680
3250.0 563 483 409 316 293 222 201 181 149 135
3290.0 107 112 98 76 71 62 68 54 56 54
3330.0 44 53 35 63 70 54 91 67 86 89
3370.0 118 127 76 84 97 94 110 87 94 68
3410.0 76 66 75 83 66 97 66 74 86 71
3450.0 91 75 67 87 56 69 65 49 70 44
3490.0 56 37 21 38 38 45 13 39 10 55
3530.0 51 8 31 0 49 47 48 15 41 49
3570.0 105 34 38 38 44 101 59 55 55 47
3610.0 59 73 73 94 53 81 59 58 50 41
3650.0 68 52 60 45 29 25 25 51 46 32
3690.0 37 43 26 48 39 23 38 37 39 38
3730.0 43 65 88 48 87 38 78 49 69 55
3770.0 34 37 26 43 17 28 22 39 32 49
3810.0 62 43 16 40 25 41 30 31 30 44
3850.0 31 25 63 47 29 44 37 56 40 57
3890.0 42 55 31 45 62 63 44 54 25 39
3930.0 45 52 62 56 53 53 58 54 42 47
##END=
