##TITLE=Octadecanoic acid
##JCAMP-DX=4.24
##DATA TYPE=INFRARED SPECTRUM
##ORIGIN=Sadtler Research Labs Under US-EPA Contract
##OWNER=NIST Standard Reference Data Program
##CAS REGISTRY NO=57-11-4
##MOLFORM=C 18 H 36 O 2
##XUNITS=1/CM
##YUNITS=ABSORBANCE
##XFACTOR=1.0
##YFACTOR=0.000057867
##DELTAX=4.0
##FIRSTX=450.0
##LASTX=3966.0
##FIRSTY=0.000000
##MAXX=3966
##MINX=450
##MAXY=0.57867
##MINY=0
##NPOINTS=880
##XYDATA=(X++(Y..Y))
450.0 0 226 246 456 558 460 475 456 461 428
490.0 451 447 455 481 523 512 471 449 461 493
530.0 430 456 473 445 462 494 511 513 552 508
570.0 541 528 481 474 461 494 541 517 531 595
610.0 533 546 562 558 551 564 546 535 523 505
650.0 481 511 495 499 485 491 479 477 439 468
690.0 460 481 477 502 521 537 576 566 593 554
730.0 568 546 538 519 486 471 447 456 433 427
770.0 429 423 428 424 398 366 392 377 368 351
810.0 372 357 376 369 370 384 375 382 356 375
850.0 372 391 381 385 416 398 408 394 399 393
890.0 397 389 386 381 389 398 384 380 370 388
930.0 377 383 372 372 385 370 393 383 399 391
970.0 396 401 391 399 394 416 414 430 434 439
1010.0 446 471 475 487 494 523 541 560 599 616
1050.0 662 678 713 765 810 875 947 1022 1106 1197
1090.0 1289 1361 1450 1530 1626 1655 1700 1685 1685 1692
1130.0 1689 1666 1570 1469 1363 1285 1202 1148 1078 1030
1170.0 986 941 902 870 835 795 781 743 720 691
1210.0 677 646 627 606 592 577 567 571 553 558
1250.0 554 568 569 577 588 585 581 574 588 590
1290.0 597 591 598 600 598 595 577 580 564 580
1330.0 578 608 647 694 744 785 825 832 843 840
1370.0 849 855 833 829 793 743 669 616 553 536
1410.0 494 502 501 510 522 545 590 590 677 715
1450.0 831 863 1005 1059 985 910 736 610 510 447
1490.0 417 379 379 355 366 342 329 323 317 316
1530.0 302 315 321 309 305 297 304 291 297 290
1570.0 296 291 293 294 296 293 293 293 288 284
1610.0 283 294 277 293 284 301 276 305 283 298
1650.0 264 324 279 295 304 303 298 307 313 310
1690.0 325 328 350 359 375 395 411 468 488 560
1730.0 580 704 787 898 1058 1227 1445 1623 1972 2264
1770.0 2712 3117 3321 3193 2632 2278 1828 1571 1298 1086
1810.0 913 712 626 518 480 398 388 353 334 324
1850.0 313 315 291 305 292 287 280 292 283 273
1890.0 287 270 274 267 280 266 271 266 271 267
1930.0 264 277 266 270 261 269 261 260 266 263
1970.0 263 258 268 261 264 267 264 264 260 268
2010.0 257 273 262 269 266 268 270 263 265 266
2050.0 276 262 263 263 266 266 263 266 262 265
2090.0 261 260 258 260 255 261 259 258 259 255
2130.0 257 253 259 256 259 258 261 257 259 261
2170.0 258 261 256 260 262 266 262 256 260 257
2210.0 260 258 254 257 255 256 257 254 258 252
2250.0 254 257 252 257 255 255 249 258 258 250
2290.0 263 262 271 264 267 271 276 274 290 275
2330.0 255 262 252 269 266 270 283 273 261 255
2370.0 240 252 261 254 256 254 248 246 251 242
2410.0 244 247 245 244 238 246 237 237 240 243
2450.0 242 238 241 231 231 237 238 231 232 235
2490.0 233 241 237 238 239 240 243 242 242 245
2530.0 248 248 254 252 251 252 251 260 258 260
2570.0 259 263 263 267 266 268 267 267 271 279
2610.0 284 280 286 281 285 284 288 293 294 298
2650.0 299 295 298 310 310 316 317 319 317 312
2690.0 316 318 308 310 307 309 309 305 303 303
2730.0 299 307 309 307 308 310 311 317 320 318
2770.0 329 328 332 340 356 374 388 404 421 440
2810.0 456 477 512 544 581 629 685 776 897 1100
2850.0 1462 2083 2995 3777 3873 3380 2765 2305 2023 1865
2890.0 1765 1757 1880 2132 2516 2988 3571 4356 5566 7345
2930.0 9208 10000 9172 7556 5911 4561 3566 2974 2660 2502
2970.0 2316 1963 1543 1221 1009 862 745 665 609 550
3010.0 521 492 459 437 423 407 389 372 360 346
3050.0 347 335 333 317 315 313 302 304 299 294
3090.0 294 291 285 283 279 276 275 274 266 261
3130.0 273 268 274 272 261 260 270 260 261 257
3170.0 259 261 252 249 252 253 250 255 245 248
3210.0 249 250 252 257 247 250 247 252 252 246
3250.0 244 245 244 238 238 239 243 241 231 248
3290.0 245 244 246 248 235 243 250 244 243 249
3330.0 237 245 261 250 238 242 232 245 241 239
3370.0 247 250 248 263 253 240 241 249 252 261
3410.0 255 252 253 258 239 248 244 252 242 260
3450.0 253 259 258 252 248 234 242 251 252 252
3490.0 246 243 254 244 266 257 264 257 277 268
3530.0 259 280 293 294 318 317 339 411 494 677
3570.0 1001 1405 1562 1145 770 505 419 353 335 295
3610.0 318 300 304 297 270 298 261 283 268 276
3650.0 306 268 264 260 251 285 271 285 240 266
3690.0 255 278 271 256 252 256 281 276 259 272
3730.0 248 293 293 274 256 263 274 254 251 256
3770.0 272 270 261 273 265 288 287 262 267 280
3810.0 265 282 299 291 251 284 311 297 329 311
3850.0 283 338 291 259 292 296 290 263 319 274
3890.0 309 271 272 315 314 259 277 286 281 265
3930.0 279 260 242 256 248 236 242 240 239 283
##END=
