##TITLE=Hexadecanoic acid
##JCAMP-DX=4.24
##DATA TYPE=INFRARED SPECTRUM
##ORIGIN=Sadtler Research Labs Under US-EPA Contract
##OWNER=NIST Standard Reference Data Program
##CAS REGISTRY NO=57-10-3
##MOLFORM=C 16 H 32 O 2
##XUNITS=1/CM
##YUNITS=ABSORBANCE
##XFACTOR=1.0
##YFACTOR=0.000060193
##DELTAX=4.0
##FIRSTX=450.0
##LASTX=3966.0
##FIRSTY=0.013303
##MAXX=3966
##MINX=450
##MAXY=0.60193
##MINY=0
##NPOINTS=880
##XYDATA=(X++(Y..Y))
450.0 221 135 94 216 167 182 272 238 300 296
490.0 308 259 327 386 384 372 379 426 373 378
530.0 358 404 424 422 442 494 534 532 568 534
570.0 490 452 476 441 509 476 526 519 558 553
610.0 525 511 507 489 495 450 425 384 342 289
650.0 235 190 173 157 160 153 118 145 134 181
690.0 161 161 178 184 201 218 257 261 261 266
730.0 259 246 218 221 211 186 171 139 123 122
770.0 82 88 51 65 51 37 41 28 39 2
810.0 25 14 13 9 25 19 22 32 24 49
850.0 47 48 50 47 53 41 54 52 69 46
890.0 60 55 61 46 44 40 43 51 47 50
930.0 29 41 44 42 38 48 49 39 61 48
970.0 61 54 66 70 84 94 91 102 110 124
1010.0 124 145 170 197 220 246 266 280 312 340
1050.0 380 425 486 545 609 701 780 875 967 1058
1090.0 1153 1246 1368 1484 1601 1641 1662 1643 1632 1646
1130.0 1671 1648 1545 1419 1285 1174 1077 1017 945 887
1170.0 834 782 726 686 650 604 573 532 508 469
1210.0 452 419 400 373 359 344 333 331 316 319
1250.0 317 331 329 335 350 344 342 346 351 347
1290.0 362 357 361 356 357 354 341 335 317 327
1330.0 330 367 409 460 506 558 602 618 632 635
1370.0 651 648 643 643 600 537 443 377 298 287
1410.0 236 255 241 263 274 311 354 348 441 483
1450.0 602 636 780 834 779 692 504 385 284 205
1490.0 170 123 107 85 92 74 70 50 34 43
1530.0 41 43 25 21 40 33 31 24 18 33
1570.0 23 38 27 53 49 47 39 46 42 37
1610.0 41 30 25 31 27 39 30 40 36 38
1650.0 7 57 24 52 49 36 51 58 74 41
1690.0 86 80 105 87 159 168 199 238 301 374
1730.0 413 568 637 821 989 1231 1462 1738 2114 2499
1770.0 3024 3488 3745 3580 2932 2459 1915 1620 1279 1020
1810.0 817 569 460 324 273 164 164 126 99 84
1850.0 75 85 46 72 50 46 36 48 39 33
1890.0 41 32 41 23 41 21 30 24 28 21
1930.0 19 35 22 31 19 30 19 20 23 12
1970.0 20 13 22 9 25 15 16 16 15 19
2010.0 9 24 15 23 16 29 19 19 25 22
2050.0 19 16 23 12 26 18 25 18 25 23
2090.0 17 22 17 19 17 26 17 23 17 19
2130.0 26 15 23 22 21 23 26 22 26 29
2170.0 28 29 25 32 27 25 22 25 21 19
2210.0 26 18 24 16 23 21 20 16 21 21
2250.0 15 22 22 25 20 23 23 30 31 36
2290.0 45 49 59 62 76 76 67 48 52 36
2330.0 21 24 18 26 40 52 37 42 36 22
2370.0 34 16 43 45 48 25 18 12 16 12
2410.0 9 14 15 20 8 13 7 10 9 8
2450.0 6 3 4 8 10 2 5 5 4 6
2490.0 6 5 7 7 1 4 5 8 4 9
2530.0 9 12 14 15 16 16 16 16 19 22
2570.0 19 22 25 31 28 37 34 36 39 37
2610.0 38 42 47 43 52 48 60 63 60 64
2650.0 63 69 74 80 84 94 94 100 98 98
2690.0 99 96 91 87 99 89 85 80 84 89
2730.0 87 86 90 93 95 92 95 96 99 98
2770.0 108 105 114 121 134 149 168 185 205 219
2810.0 246 264 298 336 373 431 490 570 711 928
2850.0 1304 1949 2842 3624 3766 3327 2737 2275 1993 1820
2890.0 1696 1674 1785 2039 2426 2918 3535 4383 5659 7414
2930.0 9267 10000 9305 7761 6129 4741 3739 3111 2793 2650
2970.0 2450 2050 1544 1158 896 715 594 502 426 366
3010.0 320 284 252 229 200 182 166 151 137 125
3050.0 117 109 96 103 104 100 94 96 89 75
3090.0 66 64 58 46 40 42 34 25 29 34
3130.0 32 29 29 31 31 25 23 27 33 27
3170.0 30 25 28 22 25 14 28 16 18 15
3210.0 21 22 10 17 10 12 10 10 8 5
3250.0 5 6 12 13 0 10 10 2 3 12
3290.0 3 4 3 13 2 10 11 11 13 9
3330.0 19 9 17 21 17 9 15 22 16 19
3370.0 22 36 17 17 30 24 26 35 23 28
3410.0 19 33 30 33 28 22 31 33 28 23
3450.0 30 30 34 34 35 32 13 25 28 28
3490.0 26 23 32 28 28 12 32 28 40 59
3530.0 37 67 68 84 104 108 145 228 330 540
3570.0 958 1413 1628 1124 651 346 223 148 110 89
3610.0 108 68 72 53 54 70 48 49 46 44
3650.0 56 64 56 51 41 46 80 34 40 56
3690.0 46 28 56 64 60 61 54 49 70 67
3730.0 46 40 57 52 54 37 58 49 51 39
3770.0 68 43 34 32 36 43 37 60 33 25
3810.0 48 40 61 30 37 31 61 28 67 41
3850.0 32 43 32 34 73 35 57 36 51 39
3890.0 47 64 46 22 35 22 60 63 84 32
3930.0 55 74 19 59 46 74 70 102 50 40
##END=
