##TITLE=Propylene Glycol
##JCAMP-DX=4.24
##DATA TYPE=INFRARED SPECTRUM
##ORIGIN=Sadtler Research Labs Under US-EPA Contract
##OWNER=NIST Standard Reference Data Program
##CAS REGISTRY NO=57-55-6
##MOLFORM=C 3 H 8 O 2
##XUNITS=1/CM
##YUNITS=ABSORBANCE
##XFACTOR=1.0
##YFACTOR=0.000099597
##DELTAX=4.0
##FIRSTX=450.0
##LASTX=3966.0
##FIRSTY=0.046711
##MAXX=3966
##MINX=450
##MAXY=0.99597
##MINY=0
##NPOINTS=880
##XYDATA=(X++(Y..Y))
450.0 469 358 395 293 511 406 478 536 591 502
490.0 549 609 678 834 888 932 959 1023 997 987
530.0 908 776 641 474 452 398 402 357 369 373
570.0 340 363 356 355 321 339 286 322 317 328
610.0 307 299 323 314 335 339 377 372 382 394
650.0 402 377 340 324 283 240 170 143 99 97
690.0 73 64 58 42 42 23 34 15 26 14
730.0 13 16 9 4 4 15 19 30 39 48
770.0 95 129 166 132 247 314 381 442 572 555
810.0 632 743 896 1028 1114 1133 1042 1124 1195 1155
850.0 1003 811 623 463 368 308 287 280 328 378
890.0 480 625 811 1030 1263 1575 1803 2003 2133 2250
930.0 2271 2201 2071 1866 1697 1522 1396 1248 1206 1245
970.0 1366 1525 1698 1888 2153 2496 2493 2478 2668 3020
1010.0 3410 3937 4653 5432 6370 7085 8109 8750 9491 9866
1050.0 10000 9848 9385 8992 8211 7651 6916 6515 5920 5468
1090.0 5069 4734 4490 4301 4265 4146 4114 4031 4032 3932
1130.0 3816 3608 3331 3093 2827 2577 2293 2099 1892 1746
1170.0 1638 1595 1599 1612 1656 1699 1762 1789 1857 1892
1210.0 1933 1975 2020 2071 2132 2232 2301 2450 2558 2705
1250.0 2785 2866 2877 2809 2758 2669 2577 2375 2219 2035
1290.0 1916 1828 1788 1786 1808 1885 1940 2032 2098 2224
1330.0 2311 2404 2462 2486 2514 2504 2593 2601 2699 2807
1370.0 3009 3186 3335 3511 3550 3664 3581 3479 3045 2736
1410.0 2369 2089 1784 1553 1368 1232 1169 1150 1157 1178
1450.0 1283 1388 1399 1369 1323 1202 1057 969 824 660
1490.0 510 402 304 225 208 146 114 120 97 105
1530.0 67 94 66 88 56 67 58 75 71 46
1570.0 47 54 43 34 37 30 25 30 23 25
1610.0 18 29 20 31 13 32 18 40 18 34
1650.0 23 57 17 30 31 20 35 20 13 30
1690.0 11 9 22 17 13 8 11 18 25 19
1730.0 22 34 40 33 34 35 38 38 35 34
1770.0 30 33 16 18 11 16 8 10 2 5
1810.0 4 5 6 7 8 11 12 12 19 14
1850.0 16 20 19 15 15 16 16 16 16 15
1890.0 13 13 13 12 13 10 12 12 12 9
1930.0 12 12 12 8 9 10 12 14 14 13
1970.0 19 21 25 22 25 20 24 24 19 15
2010.0 15 12 8 14 11 17 17 22 22 28
2050.0 34 35 39 42 47 50 51 52 52 51
2090.0 52 53 48 43 37 33 32 28 20 21
2130.0 18 13 12 11 11 12 14 13 16 17
2170.0 18 18 20 22 19 20 15 14 13 11
2210.0 12 12 8 7 8 6 4 4 3 2
2250.0 3 4 5 6 8 11 15 18 20 23
2290.0 24 27 29 29 32 28 30 28 30 28
2330.0 35 38 32 29 36 24 42 38 48 49
2370.0 49 43 43 39 38 37 39 38 39 40
2410.0 41 44 45 48 49 48 48 52 50 50
2450.0 49 50 45 43 36 34 33 33 29 28
2490.0 28 28 27 29 29 29 32 34 34 37
2530.0 36 34 34 36 36 38 39 37 42 41
2570.0 48 48 52 52 58 60 65 71 75 81
2610.0 85 93 98 109 119 126 134 137 143 148
2650.0 157 162 162 166 168 170 175 181 177 187
2690.0 192 193 198 206 212 219 225 238 251 258
2730.0 271 288 302 318 334 347 363 380 399 416
2770.0 436 458 477 500 526 548 570 590 613 635
2810.0 665 693 736 795 861 949 1056 1178 1328 1524
2850.0 1734 1984 2281 2645 3061 3481 3900 4257 4572 4807
2890.0 4961 5036 5049 5024 4987 4986 5050 5217 5503 5819
2930.0 6001 6117 6074 5984 5841 5737 5707 5643 5554 5532
2970.0 5699 5933 6502 6211 5233 4898 4220 3565 2921 2166
3010.0 1458 918 576 367 254 190 153 126 114 110
3050.0 102 101 99 101 98 99 103 104 101 102
3090.0 101 98 95 90 85 78 70 68 60 58
3130.0 52 50 49 46 46 44 48 52 57 55
3170.0 63 66 70 72 72 74 71 72 67 63
3210.0 53 45 37 33 24 18 15 17 13 9
3250.0 10 6 8 6 3 5 2 4 4 6
3290.0 2 5 7 10 10 8 12 13 15 12
3330.0 15 13 18 19 20 28 27 34 31 30
3370.0 22 30 30 26 32 26 29 24 25 24
3410.0 27 19 20 22 26 31 27 38 34 42
3450.0 45 47 57 70 77 87 96 100 110 113
3490.0 122 117 120 118 119 124 110 120 110 116
3530.0 112 129 123 126 145 148 169 178 203 207
3570.0 262 289 354 401 486 627 770 987 1203 1478
3610.0 1735 2041 2283 2473 2633 2689 2725 2725 2683 2620
3650.0 2501 2461 2387 2323 2246 2239 2124 2042 1899 1702
3690.0 1571 1300 1145 949 760 608 430 362 298 262
3730.0 236 230 227 179 228 168 184 165 165 156
3770.0 153 133 130 120 115 103 81 110 67 106
3810.0 55 89 75 81 77 60 72 73 78 71
3850.0 83 75 101 84 73 80 96 88 55 95
3890.0 59 78 47 78 50 52 37 31 38 25
3930.0 36 8 21 11 25 0 21 10 13 22
##END=
