##TITLE=2-Methyl-6-nitroaniline
##JCAMP-DX=4.24
##DATA TYPE=INFRARED SPECTRUM
##ORIGIN=Sadtler Research Labs Under US-EPA Contract
##OWNER=NIST Standard Reference Data Program
##CAS REGISTRY NO=570-24-1
##MOLFORM=C 7 H 8 N 2 O 2
##XUNITS=1/CM
##YUNITS=ABSORBANCE
##XFACTOR=1.0
##YFACTOR=0.000142099
##DELTAX=4.0
##FIRSTX=450.0
##LASTX=3966.0
##FIRSTY=0.146220
##MAXX=3966
##MINX=450
##MAXY=1.42099
##MINY=0
##NPOINTS=880
##XYDATA=(X++(Y..Y))
450.0 1029 771 455 644 818 575 898 671 612 676
490.0 694 767 821 811 915 899 926 815 808 985
530.0 687 732 816 751 860 786 811 678 745 733
570.0 717 614 605 584 540 494 583 507 593 598
610.0 525 619 642 667 754 776 813 719 614 546
650.0 533 545 548 588 571 587 571 558 506 540
690.0 596 569 562 551 535 569 613 693 909 1276
730.0 1828 2393 3009 3151 2503 1915 1494 1050 822 683
770.0 663 794 943 1031 1128 1130 1073 805 679 558
810.0 439 432 437 427 487 531 592 668 664 645
850.0 598 591 461 437 429 475 540 633 767 999
890.0 1170 1262 1204 1010 722 479 373 331 306 283
930.0 267 279 280 272 280 267 280 281 274 272
970.0 298 322 352 400 476 536 616 609 559 467
1010.0 333 179 77 18 8 15 64 96 120 147
1050.0 163 166 193 244 293 374 501 587 677 799
1090.0 875 938 898 849 743 561 426 314 220 203
1130.0 181 171 173 182 204 221 278 324 391 435
1170.0 465 518 595 718 970 1221 1414 1422 1350 1110
1210.0 770 550 463 432 453 533 707 1027 1598 2391
1250.0 3261 3972 4217 3872 3232 2450 1955 1736 1628 1512
1290.0 1310 1075 923 988 1350 2011 2855 3529 3751 3690
1330.0 3273 3012 3382 4288 5181 5449 5165 4154 2551 1371
1370.0 842 642 559 503 483 463 428 398 376 370
1410.0 389 427 469 488 545 608 680 835 1011 1228
1450.0 1549 1882 2090 2282 2346 2167 1884 1596 1411 1261
1490.0 1203 1236 1333 1576 2015 2737 3845 5447 7363 8730
1530.0 10000 9545 8851 6923 4840 3204 1994 1514 1273 1280
1570.0 1418 1459 1575 1532 1447 1286 1090 1162 1310 1704
1610.0 2422 3348 4175 4939 4885 4587 3930 2709 1950 1244
1650.0 878 674 476 446 350 287 300 260 266 255
1690.0 247 260 240 236 214 186 188 161 144 135
1730.0 124 119 103 114 111 98 93 90 92 81
1770.0 67 88 84 91 94 86 98 88 107 103
1810.0 103 123 123 132 122 119 107 84 83 77
1850.0 90 98 120 136 137 140 135 115 95 81
1890.0 79 83 85 95 105 111 112 106 107 83
1930.0 66 58 54 52 56 47 47 44 36 39
1970.0 38 43 35 36 36 33 37 33 27 22
2010.0 18 22 22 25 22 16 18 18 23 22
2050.0 25 22 24 26 28 21 23 24 23 25
2090.0 25 19 23 16 22 19 16 18 18 19
2130.0 22 21 22 24 25 23 27 22 27 29
2170.0 25 20 23 29 27 29 32 32 29 32
2210.0 32 30 30 30 28 27 31 32 33 35
2250.0 32 30 31 28 26 30 32 32 36 40
2290.0 40 43 50 58 61 66 68 60 58 55
2330.0 52 60 61 64 64 70 67 61 69 60
2370.0 46 51 45 43 37 28 22 25 24 24
2410.0 31 36 40 36 35 36 33 37 38 40
2450.0 36 39 44 39 41 32 27 28 17 12
2490.0 9 0 1 1 6 10 4 14 16 7
2530.0 14 17 19 25 30 29 29 22 18 17
2570.0 21 25 23 18 23 17 14 20 19 24
2610.0 22 23 20 19 19 19 24 22 16 16
2650.0 20 25 29 38 37 40 42 44 46 51
2690.0 59 55 55 56 44 44 40 38 38 45
2730.0 48 51 62 71 79 84 89 82 78 66
2770.0 60 48 48 45 47 54 56 63 67 72
2810.0 66 70 74 75 78 85 94 103 122 137
2850.0 154 182 226 287 366 444 491 528 540 507
2890.0 464 436 400 373 368 394 440 509 574 607
2930.0 615 612 597 579 578 535 449 374 315 261
2970.0 255 291 366 450 493 494 455 368 274 215
3010.0 194 192 198 229 283 332 360 368 352 316
3050.0 283 258 241 242 254 275 313 377 429 427
3090.0 409 370 271 192 150 114 91 74 54 46
3130.0 49 39 39 45 45 40 40 41 35 37
3170.0 38 32 34 35 31 31 36 34 34 42
3210.0 45 39 44 38 29 32 30 21 12 16
3250.0 15 11 17 10 0 3 11 2 2 4
3290.0 3 0 5 14 3 14 16 19 17 28
3330.0 26 30 42 47 40 47 60 53 64 84
3370.0 112 157 225 323 493 743 1077 1429 1682 1797
3410.0 1698 1437 1063 694 434 266 179 125 105 96
3450.0 82 88 92 89 103 112 134 155 190 224
3490.0 257 309 370 448 563 713 885 1099 1301 1487
3530.0 1513 1453 1287 1039 820 590 431 321 236 187
3570.0 162 152 133 126 105 96 78 77 51 61
3610.0 56 53 46 56 65 42 54 57 65 55
3650.0 70 59 68 76 76 73 79 82 67 98
3690.0 110 109 114 114 114 110 97 89 82 83
3730.0 78 70 85 70 90 71 88 65 82 109
3770.0 84 80 83 87 88 81 95 71 80 95
3810.0 83 88 99 53 66 79 93 68 63 55
3850.0 67 56 93 67 40 88 48 38 71 45
3890.0 31 82 48 48 42 43 74 39 66 46
3930.0 54 36 28 52 58 68 52 48 24 27
##END=
