##TITLE=Naphthalene, 1,5-dimethyl-
##JCAMP-DX=4.24
##DATA TYPE=INFRARED SPECTRUM
##ORIGIN=Sadtler Research Labs Under US-EPA Contract
##OWNER=NIST Standard Reference Data Program
##CAS REGISTRY NO=571-61-9
##MOLFORM=C 12 H 12
##XUNITS=1/CM
##YUNITS=ABSORBANCE
##XFACTOR=1.0
##YFACTOR=0.000101785
##DELTAX=4.0
##FIRSTX=450.0
##LASTX=3966.0
##FIRSTY=0.012621
##MAXX=3966
##MINX=450
##MAXY=1.01785
##MINY=0
##NPOINTS=880
##XYDATA=(X++(Y..Y))
450.0 124 120 264 145 62 111 260 323 295 348
490.0 348 164 195 55 60 140 305 528 538 601
530.0 576 205 39 113 342 394 257 125 292 341
570.0 258 224 231 256 138 141 131 145 184 117
610.0 150 157 119 162 200 180 156 161 161 153
650.0 146 112 142 142 131 221 164 181 188 135
690.0 157 132 146 116 170 253 348 0 84 159
730.0 178 169 230 255 301 401 357 521 847 1637
770.0 3077 4287 6087 10000 5816 4533 3191 1379 661 429
810.0 281 311 257 216 237 214 172 159 153 149
850.0 149 167 195 200 296 385 405 372 349 293
890.0 225 218 178 162 149 135 141 155 148 122
930.0 134 154 123 132 165 171 167 176 224 222
970.0 216 210 231 216 231 202 210 196 212 264
1010.0 280 293 298 320 301 275 272 275 252 243
1050.0 262 388 593 732 734 679 571 368 261 221
1090.0 201 140 152 133 125 137 119 122 122 135
1130.0 146 151 138 148 151 158 160 166 229 283
1170.0 279 282 265 223 197 209 259 314 344 346
1210.0 322 254 199 179 167 155 161 155 165 160
1250.0 193 227 227 227 210 162 142 141 145 159
1290.0 167 173 176 162 159 161 161 177 187 208
1330.0 220 219 218 225 221 209 217 239 257 251
1370.0 288 338 416 492 548 609 724 1019 1481 1697
1410.0 1759 1709 1383 1129 1099 998 931 921 954 1155
1450.0 1297 1253 1175 1051 887 717 601 529 467 441
1490.0 450 491 652 857 998 1055 1028 928 711 525
1530.0 398 330 275 243 203 186 199 197 210 219
1570.0 255 318 358 467 545 699 856 886 897 826
1610.0 629 451 348 268 206 172 166 154 157 152
1650.0 141 157 161 184 246 318 336 373 371 368
1690.0 309 291 262 189 169 176 188 174 169 162
1730.0 167 191 199 221 230 223 217 233 265 329
1770.0 394 415 394 348 272 178 140 115 108 105
1810.0 92 93 105 115 138 150 190 240 295 330
1850.0 331 304 249 197 157 121 97 90 85 93
1890.0 97 105 114 144 190 275 366 453 454 410
1930.0 347 221 141 109 78 80 73 73 68 66
1970.0 73 76 66 65 67 65 59 68 74 82
2010.0 79 70 71 73 69 73 59 65 68 65
2050.0 57 64 67 74 74 61 66 63 60 58
2090.0 60 59 57 61 60 53 54 49 53 54
2130.0 55 58 60 62 67 71 75 74 82 78
2170.0 71 72 75 82 79 70 72 64 60 48
2210.0 39 43 44 46 49 45 50 51 52 58
2250.0 60 63 55 58 49 47 43 44 50 54
2290.0 58 62 78 79 85 83 79 81 73 60
2330.0 69 59 60 75 66 95 89 82 78 66
2370.0 43 46 56 59 58 46 56 62 64 66
2410.0 63 61 51 46 51 49 42 43 42 43
2450.0 41 37 34 37 42 44 41 50 48 46
2490.0 41 37 29 11 15 19 18 24 15 23
2530.0 24 18 4 1 7 16 19 28 38 40
2570.0 37 36 38 34 33 36 34 43 42 45
2610.0 53 51 47 42 38 42 40 41 39 44
2650.0 48 42 37 43 44 52 37 51 51 46
2690.0 50 52 52 50 64 56 65 69 75 82
2730.0 93 119 141 164 170 171 147 115 94 85
2770.0 76 79 84 92 105 106 111 108 119 111
2810.0 119 125 138 151 169 180 197 213 247 298
2850.0 357 410 478 561 684 844 1000 1113 1160 1137
2890.0 1047 989 989 1039 1117 1215 1328 1471 1625 1839
2930.0 2046 2166 2188 2157 2128 2080 2132 2293 2114 1977
2970.0 2041 2181 2282 2256 2047 1686 1315 1059 924 887
3010.0 923 971 1031 1137 1335 1716 2213 2612 2724 2501
3050.0 2058 1641 1474 1534 1783 2091 2326 2540 2535 2248
3090.0 1955 1614 1195 914 761 640 526 409 309 239
3130.0 192 172 153 137 132 116 103 98 90 81
3170.0 82 77 72 69 68 70 64 70 68 79
3210.0 92 82 87 75 70 66 61 56 57 61
3250.0 59 58 50 56 58 56 56 53 63 62
3290.0 65 61 57 64 57 65 61 52 56 58
3330.0 61 64 60 55 58 62 64 56 47 55
3370.0 50 52 58 56 51 60 56 47 46 48
3410.0 54 47 53 47 38 45 45 44 40 34
3450.0 46 47 53 42 36 34 48 38 35 41
3490.0 31 43 43 38 28 43 37 34 31 27
3530.0 29 36 29 42 37 29 26 26 30 27
3570.0 16 35 32 32 39 31 20 25 11 10
3610.0 3 3 13 0 9 20 9 18 18 12
3650.0 9 14 14 25 21 19 21 23 16 30
3690.0 28 24 21 16 30 11 27 31 36 25
3730.0 12 22 25 21 17 5 29 24 6 18
3770.0 4 9 8 12 16 9 31 19 28 28
3810.0 26 30 54 62 9 10 35 57 58 44
3850.0 48 22 36 31 42 42 45 12 14 30
3890.0 37 34 63 35 36 30 12 1 25 38
3930.0 27 35 40 71 61 58 70 79 50 45
##END=
