##TITLE=Naphthalene, 1,4-dimethyl-
##JCAMP-DX=4.24
##DATA TYPE=INFRARED SPECTRUM
##ORIGIN=Sadtler Research Labs Under US-EPA Contract
##OWNER=NIST Standard Reference Data Program
##CAS REGISTRY NO=571-58-4
##MOLFORM=C 12 H 12
##XUNITS=1/CM
##YUNITS=ABSORBANCE
##XFACTOR=1.0
##YFACTOR=0.000050214
##DELTAX=4.0
##FIRSTX=450.0
##LASTX=3966.0
##FIRSTY=0.006478
##MAXX=3966
##MINX=450
##MAXY=0.50214
##MINY=0
##NPOINTS=880
##XYDATA=(X++(Y..Y))
450.0 129 141 102 95 88 126 198 239 242 257
490.0 238 163 116 106 84 36 24 24 28 43
530.0 48 28 38 16 47 82 154 205 301 320
570.0 192 149 97 55 40 68 33 77 69 106
610.0 88 77 99 67 58 79 66 69 93 106
650.0 118 91 79 60 30 102 61 79 153 298
690.0 411 458 472 356 154 110 105 115 157 272
730.0 505 1187 2631 4077 4931 10000 5327 4527 3185 1540
770.0 710 473 433 583 467 516 582 652 914 1472
810.0 2400 3285 4452 6217 3904 2905 1916 921 411 208
850.0 156 128 129 139 149 164 163 172 162 163
890.0 173 161 141 130 98 77 72 83 99 112
930.0 123 131 141 141 173 162 107 98 82 66
970.0 67 71 70 108 156 266 399 468 489 514
1010.0 538 752 1142 1326 1362 1263 837 484 284 220
1050.0 177 138 117 107 98 91 90 90 81 82
1090.0 91 91 89 69 69 60 49 52 70 57
1130.0 84 117 135 157 157 196 246 328 367 361
1170.0 353 232 123 95 84 77 88 106 126 176
1210.0 228 257 256 254 197 150 123 113 109 109
1250.0 108 108 127 167 228 271 288 307 249 198
1290.0 169 136 123 116 117 121 130 141 160 180
1330.0 220 241 252 254 263 280 309 353 370 397
1370.0 445 521 720 1125 1809 2359 2366 2273 1790 1083
1410.0 835 963 1177 1260 1263 1216 1088 1047 1211 1419
1450.0 1861 1668 1618 1708 1620 1486 1284 979 673 506
1490.0 456 493 544 630 696 828 919 891 794 657
1530.0 465 277 218 166 183 184 189 184 224 256
1570.0 253 282 309 420 624 973 1371 1596 1573 1364
1610.0 966 589 391 353 366 401 415 414 401 322
1650.0 248 126 124 85 88 74 91 116 167 226
1690.0 322 343 323 272 213 152 122 94 101 98
1730.0 97 113 162 173 180 164 127 96 75 84
1770.0 84 86 110 126 157 214 225 246 230 215
1810.0 195 218 245 263 254 221 215 232 316 447
1850.0 548 553 494 371 221 125 94 88 113 140
1890.0 157 167 164 167 183 224 255 245 227 194
1930.0 194 223 261 268 252 208 144 103 68 60
1970.0 39 28 19 16 19 21 20 19 19 20
2010.0 18 20 10 11 9 1 1 1 1 2
2050.0 1 1 11 3 12 11 11 21 12 21
2090.0 21 34 32 26 34 33 32 33 25 23
2130.0 12 13 13 23 14 14 14 15 15 15
2170.0 15 23 24 24 26 25 16 27 24 17
2210.0 17 17 24 17 17 17 17 17 18 27
2250.0 30 39 38 34 42 28 28 31 31 31
2290.0 32 43 44 56 67 67 77 90 88 100
2330.0 95 79 80 71 62 50 43 38 64 96
2370.0 90 97 92 89 74 74 63 64 72 74
2410.0 82 83 62 55 45 34 34 38 39 37
2450.0 45 47 46 47 48 58 77 76 72 68
2490.0 58 49 38 38 38 48 59 69 90 86
2530.0 80 68 59 44 39 44 33 32 32 20
2570.0 21 21 21 21 23 26 32 43 42 43
2610.0 54 54 53 53 64 54 53 62 52 44
2650.0 58 52 45 53 56 47 26 16 27 27
2690.0 27 31 38 44 53 58 59 67 77 99
2730.0 128 171 221 263 288 284 228 183 138 110
2770.0 101 102 111 111 122 134 173 195 225 250
2810.0 276 297 300 312 338 360 380 421 463 516
2850.0 589 707 863 1115 1521 2007 2348 2484 2410 2147
2890.0 1846 1722 1800 2088 2433 2672 2800 2846 2910 3119
2930.0 3558 4061 4356 4407 4360 4095 4019 3658 3243 3229
2970.0 3405 3641 3771 3641 3191 2623 2122 1822 1839 2058
3010.0 2333 2500 2497 2477 2588 2968 3568 4079 4104 3740
3050.0 3025 2381 2158 2292 2663 3301 4079 4610 4731 4410
3090.0 3602 2602 1857 1347 1048 884 762 639 527 415
3130.0 347 293 269 230 216 186 166 166 156 157
3170.0 146 135 134 130 133 128 128 117 129 119
3210.0 130 129 120 121 121 113 106 114 91 98
3250.0 110 91 93 95 103 104 105 84 95 93
3290.0 83 62 61 65 74 66 54 69 77 89
3330.0 79 86 73 90 89 58 73 60 80 98
3370.0 118 94 103 93 85 69 66 56 72 61
3410.0 57 62 59 58 57 57 58 58 58 61
3450.0 58 50 55 60 61 50 54 51 64 64
3490.0 63 63 64 66 59 73 66 71 55 54
3530.0 59 61 67 48 44 62 57 50 53 59
3570.0 60 46 54 49 39 57 56 38 45 45
3610.0 42 44 49 33 45 39 55 47 40 42
3650.0 20 44 41 59 27 30 20 26 32 30
3690.0 37 34 46 26 22 25 21 12 32 32
3730.0 28 17 19 33 0 23 24 36 35 35
3770.0 48 45 45 28 33 8 8 1 1 22
3810.0 3 3 15 15 4 1 2 7 28 30
3850.0 9 10 31 16 24 16 19 10 11 11
3890.0 21 14 21 25 43 38 36 33 40 35
3930.0 47 39 36 25 45 48 46 41 49 48
##END=
