##TITLE=Ketone, 4-methyl-2-pyridyl 2-thienyl
##JCAMP-DX=4.24
##DATA TYPE=INFRARED SPECTRUM
##ORIGIN=Sadtler Research Labs Under US-EPA Contract
##OWNER=NIST Standard Reference Data Program
##CAS REGISTRY NO=57261-64-0
##MOLFORM=C 11 H 9 N O S
##XUNITS=1/CM
##YUNITS=ABSORBANCE
##XFACTOR=1.0
##YFACTOR=0.000052267
##DELTAX=4.0
##FIRSTX=450.0
##LASTX=3966.0
##FIRSTY=0.000000
##MAXX=3966
##MINX=450
##MAXY=0.52267
##MINY=0
##NPOINTS=880
##XYDATA=(X++(Y..Y))
450.0 0 132 221 253 290 282 291 352 378 425
490.0 529 655 702 885 932 1074 1376 1554 1428 962
530.0 598 330 248 209 238 204 223 239 292 395
570.0 372 389 287 291 174 258 201 185 237 185
610.0 269 341 668 819 809 472 249 162 127 190
650.0 142 246 379 1141 1461 1666 1092 587 393 478
690.0 576 776 1183 2090 4066 5868 8311 7749 5266 3328
730.0 1722 854 620 501 694 890 1077 1219 1386 1680
770.0 2058 2345 3058 3727 4144 4195 3703 2930 2237 2229
810.0 2982 4283 4841 4257 2873 1609 1373 1077 978 1121
850.0 1393 1783 1818 1727 1403 959 625 507 414 413
890.0 440 478 505 509 562 605 650 669 731 832
930.0 907 882 743 629 605 733 921 1041 983 773
970.0 557 489 486 511 596 738 970 1032 931 667
1010.0 494 465 522 618 695 878 1187 2088 3432 4586
1050.0 4707 3684 2176 1039 659 600 690 787 823 769
1090.0 652 631 647 693 743 716 667 632 593 583
1130.0 569 519 445 384 366 356 354 347 373 411
1170.0 513 646 853 1249 1935 2825 3367 3389 3097 3233
1210.0 3633 3601 2862 2873 4484 5551 4994 2906 1199 816
1250.0 679 691 733 884 1159 1676 2805 4775 7355 9480
1290.0 10000 8516 6345 4445 3039 2216 1814 1441 1127 897
1330.0 753 740 756 1099 2006 4343 6725 7139 5158 2337
1370.0 1210 1081 996 1013 1047 1251 1492 1954 2756 4136
1410.0 6059 7936 8863 7795 5687 3395 2072 1354 940 784
1450.0 738 778 794 885 902 921 784 688 587 572
1490.0 730 1187 1920 2902 3997 4572 4369 3183 2061 1357
1530.0 1022 838 785 772 816 908 1006 1121 1217 1220
1570.0 1102 995 1032 1251 1889 2970 4373 5344 5297 4272
1610.0 2987 2125 1723 1566 1462 1405 1322 1389 1647 2344
1650.0 3417 5071 7206 8991 9703 9008 7350 4835 3150 2091
1690.0 1572 1276 1061 896 799 721 655 556 513 461
1730.0 419 395 385 396 388 403 426 442 437 420
1770.0 380 325 319 301 330 326 347 341 347 355
1810.0 361 370 379 378 352 319 276 256 212 205
1850.0 195 205 212 216 212 207 222 212 208 192
1890.0 192 187 199 213 219 225 237 265 282 315
1930.0 306 286 254 210 196 180 184 176 173 159
1970.0 161 159 163 163 169 177 173 184 186 192
2010.0 187 183 171 166 161 161 163 160 157 156
2050.0 162 157 160 157 161 169 165 168 167 182
2090.0 187 190 186 174 170 172 163 159 159 159
2130.0 163 162 165 158 164 173 183 192 192 185
2170.0 184 176 168 171 162 164 166 170 175 184
2210.0 187 189 182 182 189 182 169 172 172 167
2250.0 168 165 161 163 169 167 171 177 185 192
2290.0 196 203 206 218 226 232 217 203 213 171
2330.0 161 161 167 116 222 201 202 191 131 134
2370.0 164 168 206 210 208 175 176 173 175 177
2410.0 181 196 194 192 191 191 191 191 195 206
2450.0 210 215 225 228 230 227 229 221 225 226
2490.0 225 210 197 183 183 177 172 176 177 181
2530.0 180 181 186 188 191 178 183 163 160 144
2570.0 146 148 139 140 148 150 151 159 162 169
2610.0 173 169 167 182 188 194 192 187 183 175
2650.0 179 163 162 154 158 153 156 157 149 157
2690.0 158 179 177 183 185 171 164 166 162 153
2730.0 154 141 153 159 174 160 152 139 131 132
2770.0 134 125 116 122 123 124 144 161 168 182
2810.0 190 192 197 195 191 193 209 216 238 256
2850.0 269 299 342 384 428 467 485 491 489 483
2890.0 475 476 475 482 506 549 601 669 774 918
2930.0 1099 1261 1285 1184 982 806 714 644 576 533
2970.0 487 442 411 382 400 429 477 551 620 670
3010.0 728 799 879 891 911 920 918 911 924 1017
3050.0 1246 1762 2221 2249 1919 1322 940 884 963 1004
3090.0 910 753 566 508 532 545 507 457 369 312
3130.0 246 191 156 151 145 149 160 149 157 142
3170.0 149 142 145 146 156 166 154 166 167 168
3210.0 166 161 158 158 164 155 155 158 163 167
3250.0 164 168 172 168 174 185 199 202 201 211
3290.0 223 235 254 263 274 283 286 290 277 261
3330.0 230 215 201 192 191 185 187 196 186 191
3370.0 183 177 179 186 190 176 162 170 175 173
3410.0 185 180 172 167 175 178 166 169 159 166
3450.0 160 165 162 166 169 168 169 159 154 154
3490.0 171 165 165 151 143 151 159 158 168 156
3530.0 166 162 152 143 164 157 169 164 136 161
3570.0 167 143 146 141 152 147 140 128 148 147
3610.0 161 151 145 151 134 152 140 146 130 149
3650.0 170 150 157 152 142 196 129 143 117 150
3690.0 156 164 162 161 133 131 145 169 143 162
3730.0 169 181 186 149 231 133 173 152 153 169
3770.0 164 165 146 158 160 180 149 163 133 167
3810.0 115 149 138 152 167 155 189 201 182 148
3850.0 163 187 169 153 143 170 174 167 158 150
3890.0 118 135 141 169 162 139 164 178 161 150
3930.0 163 185 180 204 216 179 202 168 205 199
##END=
