##TITLE=Phenol, 2,6-dinitro-
##JCAMP-DX=4.24
##DATA TYPE=INFRARED SPECTRUM
##ORIGIN=Sadtler Research Labs Under US-EPA Contract
##OWNER=NIST Standard Reference Data Program
##CAS REGISTRY NO=573-56-8
##MOLFORM=C 6 H 4 N 2 O 5
##XUNITS=1/CM
##YUNITS=ABSORBANCE
##XFACTOR=1.0
##YFACTOR=0.000069678
##DELTAX=4.0
##FIRSTX=450.0
##LASTX=3966.0
##FIRSTY=0.002648
##MAXX=3966
##MINX=450
##MAXY=0.69678
##MINY=0
##NPOINTS=880
##XYDATA=(X++(Y..Y))
450.0 38 42 52 49 34 21 33 32 8 5
490.0 23 59 17 41 50 120 164 184 162 184
530.0 235 218 238 197 186 185 176 220 242 317
570.0 308 364 387 397 453 481 474 435 354 314
610.0 257 293 319 333 351 391 441 431 500 502
650.0 524 568 623 673 684 872 869 958 1121 1173
690.0 1402 1621 1811 1906 1859 1826 1735 1674 1571 1651
730.0 1932 2375 3039 3699 2582 1973 1343 840 559 396
770.0 293 293 233 172 173 169 201 275 300 319
810.0 398 341 290 207 163 178 254 324 474 709
850.0 1043 1146 1078 1013 619 360 222 219 256 308
890.0 481 771 1365 2063 2532 2483 1970 1123 558 321
930.0 228 151 143 100 101 92 90 95 91 100
970.0 106 100 108 106 115 108 100 86 72 72
1010.0 79 90 93 103 118 113 128 137 142 163
1050.0 193 255 350 435 545 604 690 763 841 856
1090.0 823 727 574 476 412 369 360 415 451 523
1130.0 661 859 1052 1190 1221 1155 1172 1327 1500 1667
1170.0 1714 1606 1493 1327 1147 982 826 716 679 600
1210.0 562 503 476 497 540 615 715 810 913 1074
1250.0 1305 1692 2292 3136 4080 4812 4914 4573 3801 3019
1290.0 2539 2352 2441 2794 3321 3832 4195 4440 4559 4743
1330.0 5012 5269 5565 5930 6325 6614 6627 6117 5217 4099
1370.0 2979 2289 1929 1703 1532 1371 1199 1047 910 804
1410.0 741 700 697 676 690 756 878 1124 1486 2071
1450.0 2838 3621 4232 4490 4248 3532 2769 2114 1604 1277
1490.0 1135 1046 1029 1023 1078 1187 1339 1588 1942 2347
1530.0 2851 3464 4312 5593 7213 8734 9804 10000 9175 7088
1570.0 5201 3832 3051 2821 2975 3290 3469 3386 2967 2432
1610.0 2307 2532 2967 3566 4177 4482 4330 3729 2908 2004
1650.0 1280 875 595 464 385 350 308 271 244 218
1690.0 193 171 164 156 142 127 123 134 120 129
1730.0 139 166 172 170 165 163 135 136 136 137
1770.0 142 142 139 132 118 94 88 73 71 58
1810.0 51 50 43 36 49 46 50 50 49 65
1850.0 65 65 65 64 58 58 50 50 60 74
1890.0 98 107 116 108 89 72 58 51 57 65
1930.0 66 80 77 75 63 46 31 22 14 15
1970.0 14 8 8 8 8 11 7 8 13 7
2010.0 7 7 8 8 7 15 15 15 17 21
2050.0 22 14 14 9 16 7 15 7 8 8
2090.0 7 7 5 1 1 1 3 6 8 7
2130.0 1 1 1 1 1 1 1 4 11 10
2170.0 8 8 8 8 8 7 1 6 1 9
2210.0 1 1 1 1 1 1 9 8 8 16
2250.0 16 17 19 18 23 24 28 32 37 38
2290.0 46 45 54 67 68 83 73 64 60 53
2330.0 44 30 23 26 49 49 42 44 38 43
2370.0 43 37 49 58 54 30 30 22 29 30
2410.0 30 38 29 36 31 35 34 42 53 58
2450.0 60 67 74 74 74 73 67 70 61 61
2490.0 57 54 50 49 41 41 35 34 42 42
2530.0 45 42 46 50 50 50 50 50 50 51
2570.0 52 52 58 58 58 68 62 62 60 60
2610.0 60 60 61 60 60 68 69 68 66 62
2650.0 62 63 60 63 55 62 56 64 71 79
2690.0 91 93 101 108 112 113 116 128 123 123
2730.0 122 129 122 117 109 102 102 102 104 104
2770.0 104 104 104 104 112 111 119 120 127 129
2810.0 134 134 133 133 128 134 135 134 134 143
2850.0 151 158 170 178 194 200 212 205 220 230
2890.0 236 251 266 281 286 296 284 278 267 251
2930.0 252 241 239 224 210 188 167 160 147 138
2970.0 126 124 117 113 105 107 106 100 100 100
3010.0 107 108 100 104 103 107 116 120 135 137
3050.0 135 137 138 145 158 161 176 194 210 246
3090.0 278 327 363 381 382 359 338 310 304 310
3130.0 331 349 380 406 427 457 487 509 554 590
3170.0 636 687 746 789 825 871 907 942 978 1008
3210.0 1038 1059 1074 1096 1102 1103 1097 1084 1062 1049
3250.0 1019 994 965 944 915 893 864 842 798 791
3290.0 768 746 727 708 700 676 660 639 618 597
3330.0 575 554 545 522 503 480 457 448 434 422
3370.0 396 387 380 364 362 331 308 305 297 289
3410.0 280 277 253 255 248 247 239 224 217 224
3450.0 220 213 205 202 190 185 191 198 192 164
3490.0 178 169 158 164 160 149 148 132 137 138
3530.0 122 116 123 110 96 101 102 86 88 84
3570.0 103 98 82 80 68 63 54 48 55 33
3610.0 49 46 42 43 28 52 22 7 16 0
3650.0 29 7 15 1 10 15 16 16 8 9
3690.0 17 23 9 10 3 4 25 8 13 20
3730.0 14 22 30 17 34 25 20 19 19 13
3770.0 19 18 14 16 16 20 23 29 34 35
3810.0 29 35 35 35 28 39 41 37 33 30
3850.0 34 34 16 23 23 23 17 26 32 24
3890.0 17 17 19 24 18 18 18 18 20 26
3930.0 27 34 40 57 64 60 2 6 7 7
##END=
