##TITLE=Benzaldehyde, 4-(pentyloxy)-
##JCAMP-DX=4.24
##DATA TYPE=INFRARED SPECTRUM
##ORIGIN=Sadtler Research Labs Under US-EPA Contract
##OWNER=NIST Standard Reference Data Program
##CAS REGISTRY NO=5736-91-4
##MOLFORM=C 12 H 16 O 2
##XUNITS=1/CM
##YUNITS=ABSORBANCE
##XFACTOR=1.0
##YFACTOR=0.000154688
##DELTAX=4.0
##FIRSTX=450.0
##LASTX=3966.0
##FIRSTY=0.042384
##MAXX=3966
##MINX=450
##MAXY=1.54688
##MINY=0
##NPOINTS=880
##XYDATA=(X++(Y..Y))
450.0 274 113 4 76 60 74 66 64 62 64
490.0 107 136 195 248 313 363 377 318 304 235
530.0 186 157 140 120 97 95 68 64 67 67
570.0 49 71 84 106 163 225 305 361 423 512
610.0 626 812 867 708 404 209 210 279 374 419
650.0 466 423 331 170 102 63 48 49 49 53
690.0 53 56 51 56 55 63 74 83 82 95
730.0 111 136 139 160 169 196 219 245 237 216
770.0 204 203 199 199 222 249 309 393 502 620
810.0 693 805 1010 1342 1657 1820 1745 1596 1482 1543
850.0 1670 1604 1240 780 478 331 257 210 195 182
890.0 192 204 219 241 258 275 278 266 238 196
930.0 151 130 116 105 103 104 111 121 140 160
970.0 196 241 323 444 595 758 902 1025 1112 1148
1010.0 1101 1030 1005 1078 1188 1292 1310 1250 1178 1134
1050.0 1076 922 721 546 475 494 535 525 459 376
1090.0 319 336 400 564 669 702 628 572 519 473
1130.0 451 433 462 557 835 1407 3230 6440 7813 5037
1170.0 2086 889 624 545 579 671 874 1221 1857 2651
1210.0 3141 3132 3012 3168 3348 3488 3835 4603 5664 6715
1250.0 7670 8217 7897 6350 4398 2850 1977 1542 1355 1335
1290.0 1518 1933 2548 3053 3118 2655 1989 1427 1105 898
1330.0 736 611 464 431 448 427 400 342 291 293
1370.0 322 348 493 769 1071 1240 1063 719 514 403
1410.0 345 405 356 551 658 658 458 355 375 383
1450.0 401 425 444 583 764 1062 1218 1200 930 579
1490.0 428 577 895 1731 2907 3586 2994 1609 736 447
1530.0 296 250 193 124 169 241 249 211 369 580
1570.0 861 1415 2275 2987 3041 3002 3881 6069 8120 8917
1610.0 6943 4133 2316 1379 825 610 417 317 314 272
1650.0 200 190 255 275 290 329 369 535 533 612
1690.0 787 1043 1308 1924 2859 4437 7198 10000 9735 5564
1730.0 2507 1153 657 409 258 164 180 153 148 152
1770.0 112 79 110 79 77 63 49 63 33 76
1810.0 56 51 62 51 38 23 44 60 34 10
1850.0 46 68 65 64 48 18 54 65 67 74
1890.0 79 101 116 117 101 81 65 57 41 58
1930.0 67 62 64 39 44 55 58 58 68 60
1970.0 67 75 77 79 83 74 78 96 109 123
2010.0 141 143 133 116 101 89 91 81 78 81
2050.0 82 82 81 75 64 65 61 59 56 55
2090.0 48 49 48 46 44 37 36 32 26 22
2130.0 22 16 15 16 16 18 13 14 11 9
2170.0 7 6 3 2 1 0 1 0 3 3
2210.0 5 5 5 6 6 6 6 6 9 12
2250.0 10 15 20 24 27 28 26 22 21 16
2290.0 16 12 12 12 13 16 19 23 25 26
2330.0 14 21 13 9 16 15 19 19 31 24
2370.0 30 24 23 19 21 22 25 27 34 43
2410.0 48 57 57 55 49 44 44 43 44 48
2450.0 57 64 68 63 60 55 50 48 50 51
2490.0 55 59 61 67 72 78 83 84 77 66
2530.0 65 66 72 81 94 108 118 125 128 124
2570.0 117 111 107 107 106 107 106 106 102 101
2610.0 98 93 86 80 79 74 72 70 70 70
2650.0 73 75 78 85 100 124 158 203 261 318
2690.0 356 383 423 499 618 777 979 1225 1456 1577
2730.0 1514 1290 1012 771 595 479 409 369 352 349
2770.0 357 385 439 532 663 820 941 983 963 935
2810.0 943 989 1043 1025 901 732 604 535 510 529
2850.0 587 685 819 998 1203 1408 1554 1631 1669 1662
2890.0 1550 1389 1290 1285 1342 1454 1611 1797 2002 2224
2930.0 2515 2852 3179 3399 3421 3242 2964 2824 2893 3111
2970.0 3295 3094 2401 1613 1079 795 620 522 455 409
3010.0 374 352 333 325 326 344 389 424 408 337
3050.0 263 216 193 192 206 245 301 344 335 278
3090.0 231 224 235 240 225 192 163 139 118 101
3130.0 81 67 57 55 48 49 50 50 51 46
3170.0 38 33 31 32 32 32 32 34 35 32
3210.0 30 26 21 15 10 10 13 9 10 9
3250.0 11 10 9 10 10 11 10 7 11 10
3290.0 9 9 12 11 10 12 14 10 15 15
3330.0 12 11 13 11 11 13 9 9 11 19
3370.0 15 15 20 19 24 29 37 46 65 81
3410.0 109 120 111 89 64 43 29 22 12 7
3450.0 4 3 6 5 6 6 4 5 7 5
3490.0 6 3 8 5 2 6 2 2 10 8
3530.0 3 7 6 2 6 5 7 6 10 7
3570.0 6 6 7 10 11 16 13 11 5 8
3610.0 9 10 10 10 10 22 25 34 48 47
3650.0 47 43 39 28 20 23 19 14 10 16
3690.0 20 12 14 15 13 20 14 14 18 16
3730.0 14 19 12 7 16 8 11 12 12 18
3770.0 12 4 4 15 11 15 6 10 8 13
3810.0 12 18 7 15 10 8 10 14 9 13
3850.0 14 10 6 15 8 16 8 15 20 21
3890.0 16 16 12 22 22 19 13 7 15 21
3930.0 16 11 12 11 7 11 20 19 13 23
##END=
