##TITLE=Benz-3,1-oxazine-2,4-dione, 1-pentyl-,
##JCAMP-DX=4.24
##DATA TYPE=INFRARED SPECTRUM
##ORIGIN=Sadtler Research Labs Under US-EPA Contract
##OWNER=NIST Standard Reference Data Program
##CAS REGISTRY NO=57384-48-2
##MOLFORM=C 13 H 15 N O 3
##XUNITS=1/CM
##YUNITS=ABSORBANCE
##XFACTOR=1.0
##YFACTOR=0.000072641
##DELTAX=4.0
##FIRSTX=450.0
##LASTX=3966.0
##FIRSTY=0.018378
##MAXX=3966
##MINX=450
##MAXY=0.72641
##MINY=0
##NPOINTS=880
##XYDATA=(X++(Y..Y))
450.0 253 212 140 147 84 130 76 91 79 87
490.0 102 95 51 75 79 83 94 105 165 179
530.0 175 51 83 44 24 69 101 125 138 87
570.0 105 80 91 51 53 32 48 47 61 78
610.0 57 54 58 73 89 112 137 179 168 159
650.0 158 151 164 254 367 551 560 580 682 511
690.0 322 226 221 237 232 207 176 190 175 203
730.0 210 266 340 591 1068 1766 2203 1656 828 381
770.0 176 125 112 120 105 83 77 54 47 63
810.0 55 68 71 65 74 63 85 85 67 79
850.0 88 74 71 72 59 48 55 56 47 44
890.0 47 54 55 57 65 62 74 70 79 87
930.0 93 88 87 91 97 112 130 143 136 132
970.0 135 136 148 163 176 209 257 300 359 467
1010.0 617 853 1234 1829 2614 3268 3213 2365 1364 836
1050.0 744 738 701 631 579 532 473 395 322 277
1090.0 251 234 214 214 226 251 295 356 410 449
1130.0 497 578 681 745 727 646 573 572 612 618
1170.0 559 530 592 696 773 775 678 514 366 292
1210.0 271 286 328 409 524 647 737 850 1077 1369
1250.0 1508 1332 974 747 718 801 952 1092 1151 1140
1290.0 1108 1122 1179 1252 1357 1584 1953 2311 2483 2371
1330.0 2006 1520 1112 877 801 848 968 1152 1329 1430
1370.0 1424 1339 1154 942 752 562 435 358 294 248
1410.0 226 201 229 217 223 240 293 344 403 492
1450.0 647 831 1098 1354 1755 2344 2960 3055 2510 2155
1490.0 2167 2093 1627 1167 921 790 638 534 502 405
1530.0 336 250 229 228 197 165 189 240 235 248
1570.0 301 385 522 743 995 1337 1592 1840 2039 2137
1610.0 2055 1842 1594 1221 887 539 378 266 211 184
1650.0 209 209 193 210 235 263 304 327 388 450
1690.0 485 548 658 768 936 1159 1451 1651 1721 1741
1730.0 1869 2036 2143 2186 2210 2520 3671 6373 9415 10000
1770.0 7316 4027 2528 2244 2133 2154 2502 3568 4971 5631
1810.0 4974 3364 1910 1062 641 406 288 204 176 139
1850.0 109 77 71 59 60 64 29 32 24 26
1890.0 25 29 22 22 27 31 34 28 47 40
1930.0 47 52 45 38 30 21 20 26 17 18
1970.0 9 10 7 11 11 14 14 7 4 0
2010.0 3 2 11 3 5 3 5 11 13 13
2050.0 8 8 9 13 16 10 15 13 16 16
2090.0 19 14 8 4 3 5 6 5 7 13
2130.0 14 13 14 15 19 21 18 19 25 28
2170.0 32 31 29 25 27 24 27 30 26 28
2210.0 27 23 21 21 23 18 23 28 28 31
2250.0 34 31 42 44 51 60 68 73 75 87
2290.0 92 99 113 126 126 138 129 112 124 107
2330.0 98 91 100 112 147 149 161 131 122 82
2370.0 80 80 106 108 80 50 35 29 26 26
2410.0 27 29 30 28 27 30 28 31 29 33
2450.0 37 32 34 35 32 31 30 35 32 36
2490.0 30 31 31 32 36 30 38 36 38 42
2530.0 40 42 38 37 39 36 38 38 39 40
2570.0 45 39 42 40 43 44 46 45 45 49
2610.0 46 44 47 46 49 50 52 49 51 53
2650.0 57 62 61 60 67 69 68 71 68 68
2690.0 73 69 68 67 68 66 67 71 69 65
2730.0 69 70 72 77 77 81 82 84 79 83
2770.0 87 80 85 88 93 96 107 107 107 115
2810.0 119 124 135 140 150 166 180 199 221 251
2850.0 302 354 438 517 582 635 657 645 639 622
2890.0 584 534 506 510 536 582 639 707 805 928
2930.0 1078 1228 1346 1369 1291 1146 1023 998 1064 1185
2970.0 1268 1195 934 632 422 324 277 257 238 216
3010.0 196 156 139 127 119 124 129 131 129 125
3050.0 129 136 159 169 166 149 138 132 143 179
3090.0 209 223 208 164 116 89 78 66 60 51
3130.0 47 42 34 37 35 32 25 24 29 26
3170.0 26 29 18 22 27 23 30 23 19 22
3210.0 20 18 20 20 18 20 22 25 22 23
3250.0 29 25 31 26 28 24 21 24 26 31
3290.0 30 21 29 27 33 32 31 30 33 38
3330.0 43 34 45 42 39 51 64 78 86 98
3370.0 102 111 103 92 90 77 67 62 62 50
3410.0 44 47 47 47 33 29 33 30 32 30
3450.0 31 34 31 31 35 29 40 30 37 33
3490.0 36 32 50 50 46 43 43 40 44 30
3530.0 34 40 36 53 74 92 91 90 77 62
3570.0 68 89 117 181 201 192 135 72 60 40
3610.0 34 30 19 30 35 29 35 26 27 23
3650.0 29 34 44 33 38 46 33 32 35 49
3690.0 48 40 57 48 54 52 51 43 38 52
3730.0 36 47 57 65 53 42 42 44 52 43
3770.0 43 38 49 39 36 42 47 50 47 44
3810.0 45 30 40 47 52 31 46 53 32 63
3850.0 38 39 38 55 42 46 38 46 59 62
3890.0 43 44 50 40 50 47 44 47 48 57
3930.0 64 45 58 63 62 50 36 34 36 51
##END=
