##TITLE=1-Pentanol, 2-methyl-2-propyl-,
##JCAMP-DX=4.24
##DATA TYPE=INFRARED SPECTRUM
##ORIGIN=Sadtler Research Labs Under US-EPA Contract
##OWNER=NIST Standard Reference Data Program
##CAS REGISTRY NO=57409-52-6
##MOLFORM=C 9 H 20 O
##XUNITS=1/CM
##YUNITS=ABSORBANCE
##XFACTOR=1.0
##YFACTOR=0.000150519
##DELTAX=4.0
##FIRSTX=450.0
##LASTX=3966.0
##FIRSTY=0.012945
##MAXX=3966
##MINX=450
##MAXY=1.50519
##MINY=0
##NPOINTS=880
##XYDATA=(X++(Y..Y))
450.0 86 39 41 36 21 14 56 41 45 30
490.0 38 25 26 29 34 48 22 30 34 34
530.0 39 29 34 24 27 27 46 35 55 50
570.0 64 65 50 60 50 53 58 46 37 29
610.0 32 26 27 22 22 28 26 28 32 32
650.0 35 34 39 37 43 35 47 55 50 51
690.0 58 60 65 70 70 64 68 73 84 111
730.0 156 204 251 289 281 255 208 171 134 118
770.0 106 85 90 61 58 60 75 59 64 44
810.0 56 56 51 55 55 58 62 68 67 78
850.0 86 90 100 100 112 114 121 123 130 135
890.0 141 151 168 195 213 254 285 331 343 352
930.0 334 311 293 279 271 265 260 256 253 251
970.0 249 245 237 242 239 255 281 339 419 556
1010.0 738 963 1218 1475 1733 1986 2301 2649 2958 3029
1050.0 2823 2234 1566 1052 737 592 520 486 453 428
1090.0 392 371 347 319 286 251 226 214 223 231
1130.0 251 272 297 324 351 373 381 395 394 389
1170.0 372 365 351 338 328 315 306 291 288 281
1210.0 284 289 301 315 321 333 327 324 313 311
1250.0 303 304 303 299 297 294 295 288 284 277
1290.0 278 272 277 280 276 276 272 274 269 276
1330.0 270 272 277 290 299 309 343 376 443 502
1370.0 583 664 741 815 826 748 618 495 382 318
1410.0 255 244 196 209 199 224 259 334 423 522
1450.0 689 851 1049 1212 1341 1430 1307 1181 906 644
1490.0 425 268 205 151 136 108 98 102 79 93
1530.0 73 87 59 77 50 62 45 56 42 42
1570.0 40 46 30 39 37 36 33 39 32 33
1610.0 36 38 32 36 31 33 27 33 29 21
1650.0 28 28 18 21 23 16 29 12 22 22
1690.0 18 16 24 13 19 15 16 10 16 11
1730.0 10 16 15 12 14 14 11 15 10 14
1770.0 10 13 10 9 12 10 7 9 9 6
1810.0 7 3 5 3 4 5 1 3 2 3
1850.0 3 2 1 2 2 0 4 1 1 4
1890.0 4 1 1 2 1 1 3 0 4 4
1930.0 4 5 5 4 6 4 4 4 7 5
1970.0 6 4 7 5 2 1 1 3 3 4
2010.0 3 4 3 7 6 11 11 17 18 21
2050.0 26 26 27 25 26 22 19 20 19 17
2090.0 14 13 10 9 7 7 6 8 6 4
2130.0 7 5 6 4 5 4 5 3 5 6
2170.0 4 7 7 8 7 7 5 7 6 7
2210.0 7 7 8 6 7 6 9 8 8 6
2250.0 6 7 7 7 5 7 8 10 10 13
2290.0 15 18 22 25 28 31 35 31 36 38
2330.0 39 37 28 42 34 29 44 37 40 35
2370.0 36 31 28 25 23 18 18 19 23 23
2410.0 24 24 23 23 19 16 13 11 9 9
2450.0 9 7 6 6 5 3 5 3 4 3
2490.0 5 5 6 7 4 6 5 8 6 8
2530.0 8 9 9 10 11 16 17 15 16 18
2570.0 21 23 23 26 26 30 31 37 40 43
2610.0 44 46 49 50 52 54 58 62 65 66
2650.0 73 77 77 77 76 75 72 73 73 77
2690.0 80 81 86 91 94 100 111 120 136 151
2730.0 174 191 214 228 232 221 205 200 195 199
2770.0 205 214 217 222 231 237 247 257 273 290
2810.0 314 341 372 408 448 497 555 648 784 985
2850.0 1239 1524 1791 2021 2270 2674 3332 4137 4727 4795
2890.0 4523 4026 3690 3619 3769 3938 4085 4212 4330 4523
2930.0 4867 5387 5828 6041 5760 5405 5417 6304 8009 9618
2970.0 10000 8581 6236 3951 2380 1503 1050 800 659 565
3010.0 505 463 438 420 405 383 355 323 292 259
3050.0 234 212 194 176 160 149 139 128 123 120
3090.0 113 109 106 101 98 95 91 90 88 87
3130.0 85 83 83 81 78 80 76 77 80 76
3170.0 76 75 72 75 74 77 78 73 72 64
3210.0 58 50 46 42 35 33 34 31 28 27
3250.0 25 28 24 24 25 25 23 25 26 22
3290.0 21 23 23 18 16 19 20 21 15 19
3330.0 18 17 19 20 18 21 18 14 19 14
3370.0 15 17 16 15 14 11 13 15 19 16
3410.0 15 18 16 13 16 23 18 20 19 16
3450.0 22 16 20 17 20 18 22 21 21 19
3490.0 27 26 26 20 13 22 17 21 19 5
3530.0 15 19 20 19 11 17 19 10 22 0
3570.0 14 20 17 20 11 24 15 25 21 28
3610.0 12 24 33 26 43 34 59 75 86 113
3650.0 122 214 315 460 606 679 714 616 513 353
3690.0 241 164 109 92 71 58 43 41 40 31
3730.0 34 25 27 21 21 16 9 30 31 27
3770.0 26 35 33 28 38 42 34 36 32 35
3810.0 45 28 49 24 53 42 29 28 43 34
3850.0 40 32 30 39 30 24 26 41 18 27
3890.0 38 36 37 26 22 38 39 33 30 27
3930.0 26 23 32 40 30 23 33 32 31 35
##END=
