##TITLE=1H-Fluorene, dodecahydro-
##JCAMP-DX=4.24
##DATA TYPE=INFRARED SPECTRUM
##ORIGIN=Sadtler Research Labs Under US-EPA Contract
##OWNER=NIST Standard Reference Data Program
##CAS REGISTRY NO=5744-03-6
##MOLFORM=C 13 H 22
##XUNITS=1/CM
##YUNITS=ABSORBANCE
##XFACTOR=1.0
##YFACTOR=0.000108334
##DELTAX=4.0
##FIRSTX=450.0
##LASTX=3966.0
##FIRSTY=0.009208
##MAXX=3966
##MINX=450
##MAXY=1.08334
##MINY=0
##NPOINTS=880
##XYDATA=(X++(Y..Y))
450.0 85 71 89 79 77 90 0 62 64 42
490.0 52 65 43 36 79 70 58 45 35 53
530.0 40 53 79 89 96 56 38 48 70 64
570.0 47 42 64 75 57 72 66 44 57 60
610.0 77 82 74 67 49 52 44 49 43 53
650.0 56 43 44 28 34 57 57 45 44 48
690.0 52 43 42 28 38 44 38 45 47 43
730.0 43 30 31 37 35 42 48 55 45 60
770.0 78 66 57 51 47 62 58 69 84 91
810.0 90 85 77 66 55 54 63 66 76 85
850.0 100 86 63 57 43 46 39 44 60 70
890.0 72 80 81 79 77 72 70 68 63 59
930.0 57 48 46 47 47 42 45 50 58 55
970.0 50 45 44 44 53 63 58 53 46 50
1010.0 44 52 50 55 55 52 50 45 47 39
1050.0 35 39 45 47 43 47 44 36 36 37
1090.0 36 37 40 47 48 52 50 54 58 59
1130.0 61 56 50 43 38 33 29 30 33 34
1170.0 33 39 43 42 43 42 47 46 52 57
1210.0 62 62 59 55 55 52 47 48 51 57
1250.0 63 64 60 61 58 63 61 59 53 52
1290.0 60 65 73 74 71 71 68 76 75 73
1330.0 70 74 86 95 98 97 110 140 175 183
1370.0 168 126 91 71 57 45 40 40 37 40
1410.0 41 40 43 49 53 64 92 156 276 421
1450.0 562 645 661 627 568 496 391 278 179 107
1490.0 73 52 46 37 31 28 27 25 21 24
1530.0 21 22 17 21 21 18 17 14 18 18
1570.0 21 17 19 16 18 15 21 19 21 21
1610.0 20 18 18 20 17 20 19 18 17 14
1650.0 13 12 14 16 14 16 15 17 15 17
1690.0 17 18 15 18 21 20 20 25 23 26
1730.0 26 23 22 18 16 16 15 16 17 15
1770.0 14 14 15 12 14 13 11 13 14 12
1810.0 15 14 12 14 13 13 11 12 9 11
1850.0 11 10 9 9 9 9 8 8 9 12
1890.0 9 11 10 8 10 8 10 9 9 12
1930.0 9 12 13 9 8 11 6 8 6 6
1970.0 5 6 5 7 9 8 6 10 7 8
2010.0 9 8 8 7 9 8 8 8 8 8
2050.0 10 5 8 7 6 7 8 7 6 7
2090.0 7 8 7 7 7 8 7 6 6 7
2130.0 9 9 9 9 9 9 10 9 9 9
2170.0 11 9 6 8 8 8 8 8 11 10
2210.0 10 9 12 11 11 11 9 9 8 6
2250.0 8 6 7 8 6 5 6 6 7 9
2290.0 12 16 13 16 19 20 15 10 11 8
2330.0 13 13 14 17 25 22 23 19 37 38
2370.0 39 39 37 34 28 20 16 18 17 15
2410.0 15 14 12 9 7 10 9 11 12 13
2450.0 14 12 11 13 14 12 13 15 14 14
2490.0 14 14 10 12 12 12 15 16 15 15
2530.0 15 15 14 16 18 17 20 20 22 22
2570.0 25 24 28 31 35 34 33 36 38 40
2610.0 43 46 51 52 55 57 58 62 73 77
2650.0 85 95 103 114 120 120 122 107 97 85
2690.0 75 73 73 68 66 63 65 68 70 68
2730.0 65 64 60 56 57 57 60 63 63 66
2770.0 69 76 78 86 82 88 91 97 102 114
2810.0 125 136 148 159 171 178 190 209 273 438
2850.0 867 1616 2373 2907 3326 3553 3604 3374 2957 2604
2890.0 2529 2701 2842 2774 2870 3051 3416 4100 5220 6809
2930.0 8481 9702 10000 9315 7842 5849 4026 2504 1470 860
2970.0 539 364 268 219 188 161 141 117 96 83
3010.0 74 74 66 64 66 59 57 51 50 47
3050.0 43 47 47 50 44 42 43 40 41 40
3090.0 38 37 32 32 33 36 29 31 27 30
3130.0 25 20 18 20 17 17 13 10 11 15
3170.0 12 11 11 11 17 16 10 9 10 16
3210.0 16 16 15 16 17 20 18 20 16 17
3250.0 17 19 14 8 9 15 17 15 13 15
3290.0 15 18 17 18 14 13 15 15 14 12
3330.0 14 18 16 20 14 11 13 12 12 12
3370.0 13 13 12 22 17 16 21 19 23 21
3410.0 14 14 13 11 11 15 6 8 6 7
3450.0 9 13 10 12 16 16 15 19 16 14
3490.0 10 9 10 12 15 9 9 13 21 9
3530.0 9 10 15 13 16 14 10 10 8 7
3570.0 10 12 9 7 9 9 13 5 20 13
3610.0 19 12 9 13 15 8 15 8 7 12
3650.0 14 16 10 19 17 20 17 11 13 8
3690.0 16 19 16 13 11 12 18 22 24 13
3730.0 13 13 20 20 17 18 22 18 20 17
3770.0 22 10 19 26 18 21 20 22 19 18
3810.0 19 20 18 16 19 20 18 17 14 10
3850.0 12 15 16 12 25 14 19 24 14 17
3890.0 15 14 14 17 20 16 19 9 16 17
3930.0 9 23 23 29 26 13 23 18 17 19
##END=
