##TITLE=Benzenemethanol, 3-iodo-
##JCAMP-DX=4.24
##DATA TYPE=INFRARED SPECTRUM
##ORIGIN=Sadtler Research Labs Under US-EPA Contract
##OWNER=NIST Standard Reference Data Program
##CAS REGISTRY NO=57455-06-8
##MOLFORM=C 7 H 7 I O
##XUNITS=1/CM
##YUNITS=ABSORBANCE
##XFACTOR=1.0
##YFACTOR=0.000054236
##DELTAX=4.0
##FIRSTX=450.0
##LASTX=3966.0
##FIRSTY=0.006834
##MAXX=3966
##MINX=450
##MAXY=0.54236
##MINY=0
##NPOINTS=880
##XYDATA=(X++(Y..Y))
450.0 126 206 206 171 142 85 30 88 202 233
490.0 168 235 292 355 307 274 248 266 337 317
530.0 180 84 155 131 100 105 125 135 100 86
570.0 127 154 119 228 332 605 998 1482 1616 1544
610.0 1089 580 355 183 135 96 294 512 544 759
650.0 2388 4635 5595 4648 3323 1387 1612 2014 2794 3547
690.0 4346 4095 3450 2750 1996 1382 828 594 421 362
730.0 337 367 451 514 721 1016 1629 2622 4120 5888
770.0 7772 9076 8353 6547 4819 3120 2009 1473 1304 1372
810.0 1501 1630 1915 2326 2535 2446 2022 1513 1111 843
850.0 720 649 653 696 802 993 1178 1390 1485 1423
890.0 1212 1003 813 670 576 528 518 523 550 585
930.0 654 722 798 880 978 1100 1311 1637 2017 2313
970.0 2464 2535 2608 2815 3265 4052 5123 6149 6735 6891
1010.0 6828 7098 7688 8526 9327 10000 9960 9310 8271 7164
1050.0 6458 6475 7274 7800 7455 6035 4119 2914 2417 2179
1090.0 2090 1965 1698 1361 1153 1029 984 970 997 1037
1130.0 1079 1158 1245 1369 1512 1653 1813 2060 2379 2790
1170.0 3293 3904 4648 5412 6203 7044 7715 8142 8005 7004
1210.0 5443 4082 3132 2589 2260 1980 1787 1693 1640 1591
1250.0 1530 1494 1478 1445 1423 1376 1352 1333 1305 1307
1290.0 1357 1416 1435 1412 1351 1291 1267 1295 1337 1410
1330.0 1468 1507 1543 1592 1716 1948 2287 2739 3319 3980
1370.0 4694 5317 5552 5391 4917 4374 3964 3699 3521 3520
1410.0 3747 4280 5099 5499 5342 4551 3379 2363 1798 1554
1450.0 1602 1904 2556 3318 3826 4346 4396 3821 2923 1842
1490.0 1002 731 602 462 364 299 227 190 215 194
1530.0 237 271 414 559 849 1270 2158 3516 5577 7316
1570.0 7902 6963 4890 3298 3026 3194 3048 2474 1614 884
1610.0 461 276 210 142 118 84 86 70 61 61
1650.0 87 103 132 141 215 256 299 245 222 162
1690.0 104 64 81 73 70 83 121 195 247 284
1730.0 296 298 220 208 222 231 233 229 236 223
1770.0 241 211 187 171 187 179 194 178 171 134
1810.0 102 75 44 41 31 42 39 49 71 106
1850.0 138 190 278 383 435 411 324 207 118 63
1890.0 37 24 14 18 11 21 42 84 135 199
1930.0 268 304 305 268 207 129 78 52 37 30
1970.0 31 30 29 36 43 49 50 55 59 59
2010.0 69 77 86 96 98 99 100 102 99 102
2050.0 96 97 92 90 84 81 73 67 51 56
2090.0 48 42 29 19 23 12 3 4 0 1
2130.0 4 2 0 2 10 14 20 20 17 21
2170.0 18 16 17 20 13 10 10 12 10 8
2210.0 8 14 17 23 25 30 32 32 29 24
2250.0 31 27 34 35 39 42 44 50 53 66
2290.0 73 81 97 100 109 113 92 88 92 82
2330.0 93 98 106 96 165 132 156 118 117 91
2370.0 96 97 122 127 122 108 104 100 95 94
2410.0 86 83 73 71 63 57 52 45 50 47
2450.0 50 55 64 65 68 77 74 71 73 79
2490.0 73 78 78 76 75 78 72 75 74 68
2530.0 75 65 72 72 74 70 68 70 71 66
2570.0 67 72 69 69 75 86 80 75 77 75
2610.0 70 76 95 104 104 109 104 102 100 109
2650.0 110 112 116 113 116 130 118 118 118 122
2690.0 127 121 130 135 145 155 177 187 200 199
2730.0 201 200 205 215 222 237 253 260 280 299
2770.0 314 326 349 353 377 399 413 429 448 465
2810.0 505 545 587 643 713 800 907 1029 1176 1339
2850.0 1498 1675 1854 2074 2343 2708 3183 3752 4177 4319
2890.0 4174 3864 3564 3340 3196 3097 3064 3056 3123 3225
2930.0 3332 3356 3282 3139 2991 2863 2732 2583 2365 2090
2970.0 1808 1550 1335 1161 1005 885 800 758 758 800
3010.0 862 914 948 960 975 982 1047 1125 1209 1318
3050.0 1485 1811 2287 2778 3088 3154 2980 2632 2293 1944
3090.0 1577 1207 834 528 325 218 166 143 122 120
3130.0 111 102 95 84 76 65 57 46 57 45
3170.0 47 34 44 40 38 39 40 45 39 43
3210.0 42 33 40 36 29 33 34 37 46 36
3250.0 35 39 39 37 26 27 25 28 14 26
3290.0 28 29 24 32 26 16 13 10 19 16
3330.0 17 15 28 14 9 13 15 21 32 30
3370.0 39 40 36 56 39 36 52 36 41 40
3410.0 63 57 56 55 61 56 62 47 58 48
3450.0 44 47 54 41 57 58 64 59 52 61
3490.0 49 57 47 43 44 36 42 31 39 23
3530.0 16 21 26 37 28 19 37 36 27 15
3570.0 17 49 41 47 74 55 97 95 147 173
3610.0 221 247 321 417 527 680 867 1194 1586 2014
3650.0 2462 2621 2712 2758 2559 2348 2037 1796 1496 1239
3690.0 1032 793 617 478 363 262 204 165 136 99
3730.0 84 90 86 61 87 15 39 21 18 9
3770.0 7 5 6 0 0 31 16 21 1 31
3810.0 15 33 45 19 17 32 52 59 47 50
3850.0 84 63 61 67 71 74 86 74 91 138
3890.0 119 106 126 123 82 94 72 84 65 68
3930.0 72 63 31 48 45 15 23 63 31 49
##END=
