##TITLE=1,6-Dihydroxynaphthalene
##JCAMP-DX=4.24
##DATA TYPE=INFRARED SPECTRUM
##ORIGIN=Sadtler Research Labs Under US-EPA Contract
##OWNER=NIST Standard Reference Data Program
##CAS REGISTRY NO=575-44-0
##MOLFORM=C 10 H 8 O 2
##XUNITS=1/CM
##YUNITS=ABSORBANCE
##XFACTOR=1.0
##YFACTOR=0.000034085
##DELTAX=4.0
##FIRSTX=450.0
##LASTX=3966.0
##FIRSTY=0.095711
##MAXX=3966
##MINX=450
##MAXY=0.34085
##MINY=0
##NPOINTS=880
##XYDATA=(X++(Y..Y))
450.0 2808 1430 887 742 692 1254 797 591 831 735
490.0 229 352 389 990 1122 1085 511 649 687 515
530.0 256 184 68 342 269 29 316 660 445 584
570.0 698 106 562 863 554 269 500 339 715 482
610.0 353 479 419 387 264 468 402 413 434 319
650.0 344 367 107 231 229 516 316 375 288 308
690.0 396 591 863 999 1134 1052 1051 1029 1291 1565
730.0 1884 2581 2870 2219 1671 1360 1057 1178 1590 2033
770.0 2823 3508 2867 2159 1600 1057 880 1006 1139 1408
810.0 1688 2042 2184 2487 2736 2702 2934 3254 3568 3549
850.0 3052 2600 2213 1818 1522 1310 1112 874 762 526
890.0 406 488 422 419 450 438 410 466 577 635
930.0 578 581 690 958 1568 1957 1983 1589 1041 635
970.0 503 423 350 339 381 368 371 404 438 538
1010.0 678 812 971 1154 1449 1879 2441 2629 2583 2343
1050.0 1768 1192 956 1002 1113 1480 1871 1981 1863 1716
1090.0 1289 1058 1061 1006 1101 1118 1392 1606 1948 2543
1130.0 3521 4590 5591 6456 7052 7341 7834 8140 8026 7821
1170.0 7772 8431 9439 9984 10000 9221 7882 7022 6623 6581
1210.0 6535 6124 5457 4780 3903 2958 2545 2308 2065 2009
1250.0 2038 2387 3219 4416 6034 7021 6978 6307 4839 3229
1290.0 2188 1563 1168 901 728 578 518 516 534 579
1330.0 643 718 811 1016 1255 1619 2179 2859 3438 3912
1370.0 3997 4104 4278 4365 4779 4316 3557 2665 1660 1164
1410.0 795 825 779 971 1026 1380 1771 2251 2687 2905
1450.0 2951 3137 2838 2963 2763 2830 2450 1936 1330 794
1490.0 744 717 852 1125 1440 2078 1854 2293 2069 1784
1530.0 1476 1116 1139 962 821 694 840 1158 1522 1537
1570.0 2180 2898 3746 4837 4800 4934 5307 4600 4718 4141
1610.0 3676 3533 2994 3032 3085 3736 4188 4779 5018 4335
1650.0 4045 2914 1715 926 638 426 507 284 466 459
1690.0 366 320 386 583 238 284 244 377 337 131
1730.0 388 209 434 241 275 364 354 394 435 385
1770.0 422 423 235 235 183 193 209 181 111 183
1810.0 127 105 115 90 140 173 66 125 28 176
1850.0 37 94 91 41 146 97 153 99 137 189
1890.0 229 264 278 293 286 269 200 220 111 116
1930.0 65 70 57 35 67 6 42 26 26 35
1970.0 25 37 34 43 49 19 54 24 31 22
2010.0 10 16 16 17 18 9 20 2 13 10
2050.0 5 19 19 18 8 22 27 25 23 39
2090.0 19 36 51 40 49 48 38 45 36 40
2130.0 31 33 25 25 19 23 35 36 30 41
2170.0 39 39 37 39 44 32 26 33 31 32
2210.0 39 38 42 31 42 35 31 30 26 22
2250.0 22 20 19 32 50 43 46 56 56 72
2290.0 95 97 124 159 176 191 186 216 195 207
2330.0 218 215 284 170 395 228 419 286 410 345
2370.0 310 262 226 201 165 126 125 133 140 146
2410.0 152 160 157 167 171 165 169 152 141 134
2450.0 131 124 128 128 128 117 128 119 111 111
2490.0 102 110 105 115 123 120 106 116 128 124
2530.0 123 132 128 126 133 115 129 121 116 126
2570.0 118 115 104 106 103 97 102 95 99 95
2610.0 110 114 115 107 115 115 114 115 107 117
2650.0 123 111 106 105 105 101 104 109 95 101
2690.0 88 94 94 83 84 87 82 98 101 102
2730.0 107 116 104 133 132 126 122 130 119 115
2770.0 123 109 112 103 105 106 105 105 115 112
2810.0 106 90 117 120 109 110 122 136 123 121
2850.0 112 126 131 132 130 148 136 127 143 151
2890.0 144 145 154 146 152 153 162 171 182 198
2930.0 208 223 235 252 242 230 226 246 260 279
2970.0 317 321 344 342 360 365 370 402 444 514
3010.0 616 773 965 1192 1380 1507 1562 1503 1462 1478
3050.0 1584 1726 1878 2003 2057 2019 1867 1650 1383 1143
3090.0 907 739 590 474 414 364 329 295 249 227
3130.0 216 206 216 205 174 192 188 193 200 198
3170.0 195 202 201 204 210 192 210 232 233 211
3210.0 189 195 190 184 164 186 191 160 175 167
3250.0 178 176 168 164 154 147 153 145 152 170
3290.0 157 149 163 144 173 169 176 159 163 176
3330.0 163 181 179 181 169 163 170 190 209 210
3370.0 199 180 207 197 201 214 221 196 216 204
3410.0 212 208 193 167 193 192 225 184 182 220
3450.0 158 217 161 173 186 202 176 164 162 157
3490.0 223 185 205 170 179 168 265 218 248 128
3530.0 213 262 236 241 197 127 272 76 230 21
3570.0 182 138 182 236 154 115 182 49 120 137
3610.0 97 184 220 386 445 863 1278 2457 4752 7090
3650.0 8028 8447 6771 4076 2169 765 598 266 336 145
3690.0 199 299 18 106 53 43 74 0 2 2
3730.0 3 27 2 121 24 272 26 156 53 39
3770.0 124 61 90 97 85 145 36 105 79 133
3810.0 154 95 146 193 204 122 257 212 141 297
3850.0 44 422 256 263 121 236 230 264 269 221
3890.0 203 233 289 237 264 375 203 375 180 200
3930.0 294 246 390 328 308 293 379 300 227 424
##END=
