##TITLE=Naphthalene, 1,3-dimethyl-
##JCAMP-DX=4.24
##DATA TYPE=INFRARED SPECTRUM
##ORIGIN=Sadtler Research Labs Under US-EPA Contract
##OWNER=NIST Standard Reference Data Program
##CAS REGISTRY NO=575-41-7
##MOLFORM=C 12 H 12
##XUNITS=1/CM
##YUNITS=ABSORBANCE
##XFACTOR=1.0
##YFACTOR=0.000068640
##DELTAX=4.0
##FIRSTX=450.0
##LASTX=3966.0
##FIRSTY=0.007962
##MAXX=3966
##MINX=450
##MAXY=0.6864
##MINY=0
##NPOINTS=880
##XYDATA=(X++(Y..Y))
450.0 116 136 200 244 245 252 279 215 149 161
490.0 203 157 164 244 223 300 426 674 980 1382
530.0 1743 2184 2255 1679 1018 650 344 49 35 36
570.0 141 109 131 95 120 137 74 121 118 154
610.0 218 296 362 492 530 482 573 499 504 372
650.0 174 83 86 116 75 174 144 111 96 102
690.0 119 131 138 167 180 207 342 630 1284 2495
730.0 4313 6192 8496 10000 6524 4531 3109 2094 1800 1912
770.0 3231 1908 1367 972 499 233 168 169 181 197
810.0 205 230 315 522 965 1618 2320 3442 4877 4170
850.0 4493 4913 5532 3387 2611 1825 1017 617 423 346
890.0 277 252 241 241 260 292 290 285 266 262
930.0 290 355 438 545 782 722 690 651 562 480
970.0 431 511 604 670 687 649 597 535 493 464
1010.0 474 629 1058 1384 1464 1424 1134 736 514 398
1050.0 329 270 249 234 235 241 223 198 180 170
1090.0 166 168 166 175 190 204 221 264 295 341
1130.0 374 338 335 303 267 301 362 393 420 387
1170.0 345 359 334 344 320 244 201 199 230 311
1210.0 456 522 526 493 330 231 222 219 224 222
1250.0 220 226 246 268 337 391 441 467 422 382
1290.0 307 242 209 195 197 203 218 228 248 269
1330.0 330 377 420 464 510 531 605 684 787 918
1370.0 1105 1338 1554 1706 1812 1847 1791 1812 1881 2028
1410.0 2130 1966 1775 1551 1218 1009 1049 1227 1536 1844
1450.0 2050 1894 1838 1840 1836 1877 1782 1577 1300 1059
1490.0 952 1014 1227 1604 1892 1978 1822 1461 1039 795
1530.0 699 663 654 604 605 569 565 563 620 713
1570.0 837 999 1082 1192 1318 1541 1951 2445 2770 2851
1610.0 2570 2149 1791 1671 1776 1874 1806 1563 1312 986
1650.0 812 654 594 511 447 414 470 543 638 627
1690.0 573 465 335 266 292 332 384 446 495 531
1730.0 614 732 780 730 640 457 274 209 227 267
1770.0 313 337 368 365 342 340 325 344 382 429
1810.0 423 378 316 262 230 213 204 170 133 110
1850.0 105 108 111 95 91 80 106 135 193 287
1890.0 324 350 352 347 375 430 438 432 409 353
1930.0 371 456 495 451 359 221 91 48 38 32
1970.0 32 23 30 30 30 24 23 30 33 35
2010.0 35 42 53 52 51 43 42 40 42 51
2050.0 48 56 49 52 61 57 62 55 48 47
2090.0 39 31 29 25 28 27 24 32 30 24
2130.0 24 24 30 22 24 16 13 14 10 7
2170.0 6 0 6 12 13 28 27 27 21 13
2210.0 29 19 29 28 23 22 29 36 43 44
2250.0 37 38 40 44 52 46 41 43 47 43
2290.0 52 56 56 35 40 47 51 55 47 68
2330.0 82 100 104 105 132 98 58 46 103 135
2370.0 155 150 146 125 111 91 90 89 89 90
2410.0 99 91 101 98 87 83 76 72 77 61
2450.0 70 78 77 79 80 85 94 100 94 104
2490.0 91 87 90 71 74 81 81 73 82 89
2530.0 82 76 81 78 71 81 83 77 77 76
2570.0 77 70 72 80 79 77 83 78 69 65
2610.0 57 58 65 66 65 64 70 78 76 81
2650.0 73 74 74 75 80 82 82 75 77 98
2690.0 104 109 108 122 121 125 127 148 172 208
2730.0 270 354 429 469 466 404 319 259 216 198
2770.0 182 191 199 206 222 252 265 268 283 309
2810.0 339 378 404 446 484 522 567 627 728 868
2850.0 1039 1326 1703 2208 2780 3298 3522 3485 3224 2863
2890.0 2637 2567 2654 2832 3136 3536 4034 4713 5545 6484
2930.0 7080 7136 6733 6008 5288 4936 4948 4701 4256 4010
2970.0 4094 4500 4899 4941 4734 4182 3521 3201 3190 3492
3010.0 4029 4643 5225 5543 5506 5305 4982 4698 4627 4736
3050.0 4906 5190 5510 5868 6210 6332 6240 5885 5345 4638
3090.0 3799 2942 2197 1601 1133 826 667 564 481 417
3130.0 343 288 242 250 216 199 163 171 154 154
3170.0 156 171 158 143 132 130 126 119 91 78
3210.0 69 76 85 92 114 116 107 111 102 97
3250.0 99 109 62 59 57 79 58 65 62 61
3290.0 57 49 43 55 51 52 42 54 53 46
3330.0 38 55 45 45 43 39 28 39 14 33
3370.0 33 39 64 86 88 56 74 66 64 100
3410.0 64 66 48 44 59 59 74 61 88 64
3450.0 66 77 79 91 77 66 62 67 63 71
3490.0 76 78 76 83 81 71 63 56 63 68
3530.0 72 67 45 58 69 62 54 49 65 67
3570.0 39 46 78 62 60 44 38 72 54 28
3610.0 41 16 19 52 31 39 34 42 52 30
3650.0 13 32 37 32 23 22 23 19 22 29
3690.0 40 24 45 32 31 41 53 37 37 31
3730.0 53 35 29 24 26 27 23 47 24 55
3770.0 36 34 44 29 37 39 37 19 26 28
3810.0 34 35 33 37 61 34 8 25 60 58
3850.0 54 33 42 48 67 60 54 62 86 60
3890.0 78 81 63 68 86 87 86 56 56 64
3930.0 76 73 70 54 53 68 57 57 74 72
##END=
