##TITLE=Benzene, 2-bromo-1,3,5-trimethyl-
##JCAMP-DX=4.24
##DATA TYPE=INFRARED SPECTRUM
##ORIGIN=Sadtler Research Labs Under US-EPA Contract
##OWNER=NIST Standard Reference Data Program
##CAS REGISTRY NO=576-83-0
##MOLFORM=C 9 H 11 Br
##XUNITS=1/CM
##YUNITS=ABSORBANCE
##XFACTOR=1.0
##YFACTOR=0.000080389
##DELTAX=4.0
##FIRSTX=450.0
##LASTX=3966.0
##FIRSTY=0.000000
##MAXX=3966
##MINX=450
##MAXY=0.80389
##MINY=0
##NPOINTS=880
##XYDATA=(X++(Y..Y))
450.0 0 226 354 203 298 189 318 245 291 279
490.0 296 211 266 302 193 320 212 305 238 373
530.0 382 567 748 954 1154 960 854 1123 1141 1086
570.0 859 468 338 527 730 880 808 608 322 235
610.0 231 312 330 364 268 215 309 242 271 206
650.0 206 210 191 234 202 314 204 253 312 417
690.0 567 798 1076 888 696 544 433 341 309 273
730.0 307 264 276 274 259 292 233 284 266 340
770.0 361 484 523 450 512 250 115 316 249 299
810.0 286 300 287 316 359 592 1136 2172 3076 4946
850.0 5099 3524 2396 1403 683 496 353 378 331 348
890.0 324 355 375 373 414 412 435 441 498 536
930.0 587 642 750 937 1192 1313 1210 982 652 495
970.0 431 413 417 442 516 602 714 914 1394 2380
1010.0 3755 5125 6263 7629 9145 10000 9625 7340 4389 2518
1050.0 1488 1089 882 751 651 569 525 483 489 525
1090.0 581 564 536 463 403 385 369 362 351 353
1130.0 344 350 344 354 355 355 362 394 457 644
1170.0 1044 1355 1404 1197 740 458 354 326 325 331
1210.0 343 345 342 334 318 310 309 313 335 349
1250.0 368 383 381 362 350 351 343 345 358 376
1290.0 423 514 630 671 640 552 448 412 408 423
1330.0 431 443 454 462 447 457 464 491 524 578
1370.0 707 948 1500 1909 2123 2216 1634 1254 1132 1269
1410.0 1692 2077 2428 2590 2734 2918 3225 3554 3925 4308
1450.0 4582 4856 5255 5888 6476 6755 6356 5335 4204 3096
1490.0 2384 2028 1842 1709 1592 1493 1440 1419 1423 1400
1530.0 1329 1241 1192 1179 1188 1214 1257 1328 1391 1438
1570.0 1505 1539 1605 1668 1725 1738 1689 1532 1242 948
1610.0 705 547 482 428 392 352 322 298 285 270
1650.0 277 270 252 249 262 268 280 278 288 285
1690.0 273 266 281 320 387 506 646 704 666 592
1730.0 455 372 340 368 406 383 335 269 219 199
1770.0 199 195 184 185 182 179 182 176 183 179
1810.0 181 175 168 167 164 165 163 161 163 169
1850.0 169 168 172 181 179 195 209 220 239 252
1890.0 262 255 248 235 236 233 228 218 211 204
1930.0 197 193 193 198 194 192 193 184 173 186
1970.0 192 189 188 176 167 164 153 149 144 145
2010.0 141 146 140 140 142 144 147 149 156 150
2050.0 147 157 147 143 150 139 142 140 139 139
2090.0 144 142 143 143 139 140 141 137 132 137
2130.0 139 137 136 139 138 136 136 137 144 144
2170.0 139 140 137 141 139 140 141 140 135 129
2210.0 130 130 130 135 138 135 144 143 131 129
2250.0 135 139 132 135 136 137 131 137 135 133
2290.0 132 135 141 146 150 163 176 168 173 173
2330.0 160 166 169 154 148 135 126 134 142 151
2370.0 154 157 156 163 176 176 188 192 213 225
2410.0 238 249 253 239 229 213 203 196 185 185
2450.0 188 180 177 178 180 182 189 193 193 194
2490.0 186 178 179 172 166 158 146 147 144 152
2530.0 149 145 145 149 145 149 151 145 145 149
2570.0 143 140 137 136 141 146 153 157 155 154
2610.0 161 166 165 171 183 179 180 170 161 157
2650.0 165 174 168 165 171 165 176 178 188 200
2690.0 190 173 169 162 163 171 179 187 190 215
2730.0 241 296 406 554 644 641 568 429 305 251
2770.0 229 227 220 224 243 261 277 294 312 337
2810.0 356 388 408 452 496 544 617 725 844 1022
2850.0 1229 1545 1967 2500 3051 3538 3711 3516 3090 2643
2890.0 2397 2304 2361 2554 2853 3314 3918 4673 5579 6785
2930.0 8072 9047 9054 8273 7102 5667 4827 4588 4692 4870
2970.0 4625 4606 4832 5232 5543 5571 5290 4707 4162 3782
3010.0 3582 3520 3642 4011 4495 4892 5011 4692 4073 3315
3050.0 2642 2113 1738 1425 1172 985 852 758 702 655
3090.0 610 580 542 528 515 482 470 443 383 365
3130.0 333 315 282 268 233 214 224 224 221 220
3170.0 217 219 202 189 198 188 184 189 176 170
3210.0 164 162 158 162 159 147 162 172 171 157
3250.0 179 167 182 154 154 160 175 158 175 172
3290.0 161 148 156 175 164 149 159 173 178 163
3330.0 177 171 173 166 172 174 185 181 158 142
3370.0 168 148 153 143 165 133 143 137 133 159
3410.0 175 159 171 153 134 167 200 193 162 139
3450.0 147 168 171 174 156 193 163 162 165 179
3490.0 176 181 174 185 164 167 180 185 188 166
3530.0 171 182 170 163 167 177 183 160 158 165
3570.0 158 181 183 183 168 163 166 164 159 170
3610.0 147 157 172 176 176 172 167 154 167 161
3650.0 148 147 140 159 164 157 141 147 134 160
3690.0 149 150 127 161 141 140 161 166 154 141
3730.0 134 137 139 140 138 177 144 183 147 141
3770.0 167 142 140 150 145 136 163 137 176 147
3810.0 159 131 145 165 161 180 175 136 130 139
3850.0 159 144 143 169 168 156 188 168 191 160
3890.0 156 182 190 176 155 177 172 153 162 175
3930.0 194 177 207 179 205 229 251 240 229 209
##END=
