##TITLE=Phenol, 2,3-dichloro-
##JCAMP-DX=4.24
##DATA TYPE=INFRARED SPECTRUM
##ORIGIN=Sadtler Research Labs Under US-EPA Contract
##OWNER=NIST Standard Reference Data Program
##CAS REGISTRY NO=576-24-9
##MOLFORM=C 6 H 4 Cl 2 O
##XUNITS=1/CM
##YUNITS=ABSORBANCE
##XFACTOR=1.0
##YFACTOR=0.000060312
##DELTAX=4.0
##FIRSTX=450.0
##LASTX=3966.0
##FIRSTY=0.000000
##MAXX=3966
##MINX=450
##MAXY=0.60312
##MINY=0
##NPOINTS=880
##XYDATA=(X++(Y..Y))
450.0 0 1473 2920 2233 1473 2425 1318 2054 2211 1466
490.0 2158 1760 1779 2027 1786 2146 2039 2344 2357 2085
530.0 2307 1908 2175 1954 1461 2148 1959 2078 2225 2110
570.0 2642 2855 2970 3124 2949 2653 2114 2067 1977 1728
610.0 1925 1710 1800 1868 1776 1878 1774 1826 1914 1771
650.0 1902 1842 1830 1889 1770 1871 1736 1975 1960 1930
690.0 2298 2195 2643 3384 2558 2422 2414 2150 2010 1970
730.0 1966 2218 2279 2384 2310 2286 2445 2765 3615 4001
770.0 4888 7326 4940 3952 3419 2556 1695 1472 1310 1273
810.0 1381 1324 1378 1437 1334 1416 1414 1464 1531 1513
850.0 1589 1567 1512 1490 1564 1520 1644 1698 1779 1908
890.0 2416 3257 4392 5477 6215 6552 5976 4669 3522 2485
930.0 1902 1665 1602 1600 1574 1594 1587 1594 1656 1676
970.0 1688 1633 1619 1563 1481 1487 1423 1403 1468 1506
1010.0 1521 1514 1542 1704 1914 2273 2932 3620 3929 4116
1050.0 4055 3438 2717 2284 1928 1720 1563 1417 1398 1484
1090.0 1492 1419 1476 1540 1476 1489 1545 1539 1583 1548
1130.0 1541 1530 1600 1718 1894 2036 2223 2536 3252 4718
1170.0 6388 7281 7237 6956 5239 3402 2381 2204 2304 2726
1210.0 3763 5191 6184 6246 6172 5169 3341 2147 1861 1807
1250.0 1919 2047 2222 2485 3172 4178 5046 5656 5792 5345
1290.0 4548 3423 2435 1960 1755 1825 1964 2235 2579 2746
1330.0 2722 2577 2242 1913 1680 1550 1493 1467 1443 1446
1370.0 1478 1474 1482 1497 1488 1495 1481 1454 1498 1509
1410.0 1571 1710 2062 2542 3078 3770 4715 6061 7298 7905
1450.0 8936 10000 9611 8764 7915 6214 4677 3182 2440 2160
1490.0 2120 2062 1923 1788 1720 1771 1746 1765 1799 1822
1530.0 1831 1826 1848 1962 2026 2095 2296 2488 2871 3279
1570.0 3994 5106 6351 7916 8001 7393 5691 3700 2701 2196
1610.0 1927 1869 1790 1712 1640 1617 1574 1570 1553 1558
1650.0 1589 1549 1543 1470 1514 1475 1472 1418 1434 1435
1690.0 1416 1410 1447 1451 1403 1380 1383 1403 1409 1389
1730.0 1426 1467 1512 1500 1513 1526 1508 1464 1428 1399
1770.0 1388 1381 1364 1363 1369 1375 1385 1379 1380 1397
1810.0 1396 1399 1413 1447 1479 1504 1490 1478 1448 1427
1850.0 1400 1409 1401 1378 1380 1364 1383 1372 1375 1374
1890.0 1384 1409 1427 1447 1475 1526 1549 1538 1518 1507
1930.0 1456 1407 1392 1379 1393 1387 1377 1375 1368 1367
1970.0 1368 1358 1364 1368 1362 1361 1365 1347 1339 1337
2010.0 1328 1352 1359 1353 1372 1368 1365 1355 1371 1356
2050.0 1368 1367 1367 1350 1357 1357 1365 1365 1360 1349
2090.0 1362 1357 1357 1354 1349 1363 1364 1379 1387 1387
2130.0 1386 1386 1381 1357 1341 1339 1346 1352 1349 1356
2170.0 1373 1369 1364 1365 1368 1367 1383 1383 1378 1372
2210.0 1372 1366 1360 1357 1351 1352 1355 1366 1372 1360
2250.0 1363 1363 1354 1362 1366 1372 1367 1366 1362 1352
2290.0 1359 1362 1373 1384 1398 1409 1400 1394 1387 1368
2330.0 1391 1391 1391 1407 1431 1418 1386 1392 1432 1426
2370.0 1443 1468 1439 1426 1408 1399 1396 1386 1378 1361
2410.0 1349 1350 1338 1341 1338 1343 1353 1353 1356 1357
2450.0 1362 1372 1371 1363 1361 1372 1378 1384 1398 1413
2490.0 1418 1434 1458 1460 1448 1435 1414 1399 1400 1388
2530.0 1380 1375 1399 1399 1400 1387 1374 1365 1336 1329
2570.0 1331 1330 1330 1339 1342 1350 1351 1371 1372 1378
2610.0 1376 1377 1364 1345 1341 1332 1327 1339 1328 1329
2650.0 1335 1332 1335 1334 1341 1358 1346 1351 1349 1343
2690.0 1342 1325 1309 1310 1311 1304 1307 1303 1323 1336
2730.0 1330 1317 1310 1315 1307 1297 1298 1309 1318 1321
2770.0 1335 1318 1318 1319 1318 1313 1321 1334 1322 1323
2810.0 1318 1317 1319 1309 1313 1323 1329 1316 1317 1334
2850.0 1359 1368 1368 1367 1362 1334 1325 1333 1320 1313
2890.0 1321 1326 1338 1323 1339 1334 1347 1372 1395 1429
2930.0 1433 1421 1419 1387 1341 1334 1300 1267 1230 1221
2970.0 1249 1282 1318 1325 1329 1333 1348 1358 1377 1391
3010.0 1401 1430 1454 1455 1479 1458 1452 1461 1457 1438
3050.0 1447 1443 1465 1501 1563 1649 1765 1864 1925 1917
3090.0 1868 1725 1587 1474 1414 1393 1387 1380 1375 1383
3130.0 1385 1373 1393 1405 1418 1413 1439 1424 1418 1425
3170.0 1424 1418 1411 1410 1410 1406 1395 1400 1372 1381
3210.0 1372 1352 1355 1349 1366 1370 1380 1379 1387 1395
3250.0 1377 1371 1382 1387 1366 1380 1367 1378 1372 1410
3290.0 1397 1426 1428 1403 1385 1372 1395 1373 1380 1372
3330.0 1373 1349 1375 1363 1371 1371 1372 1380 1381 1385
3370.0 1399 1432 1446 1487 1457 1418 1401 1364 1337 1298
3410.0 1335 1343 1389 1410 1393 1399 1403 1429 1413 1405
3450.0 1393 1429 1426 1424 1437 1421 1418 1413 1425 1402
3490.0 1437 1433 1419 1445 1457 1454 1464 1457 1476 1463
3530.0 1480 1500 1526 1572 1619 1797 2146 2917 4385 6079
3570.0 6867 7092 6997 5628 3924 2675 1983 1716 1591 1584
3610.0 1556 1528 1518 1486 1497 1517 1535 1587 1660 1728
3650.0 1758 1759 1715 1623 1558 1481 1484 1464 1467 1468
3690.0 1454 1499 1426 1458 1472 1441 1439 1466 1476 1477
3730.0 1549 1605 1760 1850 1812 1779 1712 1623 1501 1404
3770.0 1409 1469 1472 1462 1456 1475 1477 1456 1428 1455
3810.0 1470 1473 1493 1477 1491 1472 1457 1416 1454 1504
3850.0 1464 1521 1504 1471 1456 1416 1393 1399 1427 1457
3890.0 1366 1486 1429 1433 1392 1439 1399 1324 1263 1222
3930.0 1296 1262 1357 1368 1531 1530 1570 1610 1522 1503
##END=
