##TITLE=Phenol, 2,6-dimethyl-
##JCAMP-DX=4.24
##DATA TYPE=INFRARED SPECTRUM
##ORIGIN=Sadtler Research Labs Under US-EPA Contract
##OWNER=NIST Standard Reference Data Program
##CAS REGISTRY NO=576-26-1
##MOLFORM=C 8 H 10 O
##XUNITS=1/CM
##YUNITS=ABSORBANCE
##XFACTOR=1.0
##YFACTOR=0.000082611
##DELTAX=4.0
##FIRSTX=450.0
##LASTX=3966.0
##FIRSTY=0.000000
##MAXX=3966
##MINX=450
##MAXY=0.82611
##MINY=0
##NPOINTS=880
##XYDATA=(X++(Y..Y))
450.0 0 114 249 194 361 403 432 512 560 558
490.0 472 475 521 470 384 329 303 310 340 326
530.0 350 362 460 524 587 530 538 506 429 368
570.0 260 279 266 310 228 216 225 249 207 160
610.0 178 158 164 153 162 128 147 129 126 133
650.0 139 217 248 300 257 323 284 250 156 134
690.0 142 124 138 144 211 236 387 461 614 826
730.0 1119 953 871 1390 1793 2267 1903 4667 4379 2346
770.0 2273 1928 1178 685 295 262 201 264 268 357
810.0 419 490 607 789 1012 1075 1012 970 900 655
850.0 438 265 193 175 143 123 130 152 138 213
890.0 296 421 594 676 695 709 683 541 403 290
930.0 256 239 243 258 266 288 319 325 334 371
970.0 398 433 459 481 501 526 545 557 611 674
1010.0 723 764 770 740 711 642 548 455 410 360
1050.0 339 335 356 412 515 648 806 981 1145 1351
1090.0 1538 1598 1517 1372 1212 980 716 491 361 292
1130.0 269 273 288 336 423 537 648 733 834 1012
1170.0 1225 1680 2585 4222 6554 8842 9911 9677 10000 9114
1210.0 6656 4286 2993 2492 2108 1627 1206 943 833 897
1250.0 1129 1530 1943 2162 2217 2395 2222 1602 1145 886
1290.0 787 736 825 1007 1260 1551 1730 1753 1643 1519
1330.0 1219 866 597 443 342 295 279 267 294 307
1370.0 367 439 515 551 582 556 515 429 335 313
1410.0 318 392 532 840 1213 1689 2088 2452 2753 2822
1450.0 2772 2700 2819 3013 3532 3989 4226 4479 4302 4087
1490.0 3314 2769 2254 1586 1254 902 759 642 611 574
1530.0 514 507 469 499 421 427 392 416 370 360
1570.0 388 400 476 597 737 916 993 1107 1052 1017
1610.0 810 642 520 443 418 377 378 383 371 361
1650.0 372 352 313 277 265 262 286 250 266 251
1690.0 222 204 219 216 206 187 193 205 184 161
1730.0 169 184 164 165 180 184 185 207 225 238
1770.0 255 267 244 241 218 205 188 178 178 162
1810.0 159 161 172 189 230 263 276 279 278 268
1850.0 228 194 171 163 160 170 165 160 174 191
1890.0 214 237 263 275 277 270 262 229 211 184
1930.0 168 160 151 150 136 132 126 125 120 118
1970.0 119 119 123 120 125 126 128 125 127 131
2010.0 132 136 142 146 147 153 152 157 155 154
2050.0 149 147 145 141 138 127 126 128 127 131
2090.0 137 140 142 145 141 141 135 134 125 128
2130.0 127 130 129 130 133 132 129 125 126 121
2170.0 120 123 118 122 120 125 119 120 119 121
2210.0 118 117 121 120 123 121 119 117 125 124
2250.0 126 129 135 142 139 146 146 146 143 149
2290.0 147 147 154 150 156 155 161 157 161 161
2330.0 162 167 152 170 149 147 145 155 146 152
2370.0 161 165 159 160 155 155 156 159 166 172
2410.0 181 189 192 198 193 186 179 178 168 167
2450.0 168 173 174 187 198 201 203 201 198 183
2490.0 175 158 151 145 142 141 139 144 138 138
2530.0 139 139 130 131 135 132 132 134 133 135
2570.0 140 139 145 142 149 153 151 153 152 147
2610.0 146 150 146 151 151 160 164 167 163 160
2650.0 160 156 151 147 145 146 145 146 142 148
2690.0 148 156 157 166 164 166 173 171 175 181
2730.0 198 220 255 281 296 299 292 270 230 207
2770.0 187 184 178 182 180 186 192 199 211 222
2810.0 237 252 268 286 312 340 371 412 463 550
2850.0 692 918 1198 1459 1661 1795 1850 1792 1675 1551
2890.0 1477 1434 1458 1534 1667 1824 2033 2298 2572 2844
2930.0 3024 3094 2938 2702 2392 2091 1800 1693 1715 1621
2970.0 1627 1752 1856 1856 1784 1657 1448 1203 947 805
3010.0 757 811 969 1220 1552 1850 2055 2186 2257 2250
3050.0 2151 2044 2012 1990 1954 1854 1662 1447 1210 1000
3090.0 815 680 580 517 449 403 353 301 255 221
3130.0 200 182 180 172 170 163 159 156 153 154
3170.0 153 158 151 160 153 156 155 148 148 139
3210.0 139 137 134 132 134 132 129 129 124 129
3250.0 125 128 123 126 124 125 124 120 119 117
3290.0 125 125 123 125 136 127 129 133 138 132
3330.0 135 132 128 133 138 146 146 148 150 161
3370.0 154 152 163 165 165 157 154 150 149 146
3410.0 136 145 141 143 135 149 146 160 149 148
3450.0 144 147 145 145 135 135 139 133 134 136
3490.0 130 133 126 131 128 136 138 133 129 129
3530.0 138 131 140 128 134 127 133 140 142 137
3570.0 151 150 153 160 160 166 162 185 168 195
3610.0 201 219 256 348 474 663 1043 1471 2220 3025
3650.0 3777 3736 3631 3268 2641 1575 825 449 288 233
3690.0 189 170 152 151 128 124 117 117 122 117
3730.0 125 117 117 117 121 115 122 117 117 127
3770.0 127 120 117 118 117 117 117 121 117 125
3810.0 116 120 117 117 117 118 117 117 119 118
3850.0 129 115 128 136 132 135 132 126 118 121
3890.0 116 139 115 120 115 138 131 120 136 123
3930.0 131 130 138 141 138 132 152 141 144 131
##END=
