##TITLE=Benzene, 1-bromo-2,3-dimethyl-
##JCAMP-DX=4.24
##DATA TYPE=INFRARED SPECTRUM
##ORIGIN=Sadtler Research Labs Under US-EPA Contract
##OWNER=NIST Standard Reference Data Program
##CAS REGISTRY NO=576-23-8
##MOLFORM=C 8 H 9 Br
##XUNITS=1/CM
##YUNITS=ABSORBANCE
##XFACTOR=1.0
##YFACTOR=0.000064322
##DELTAX=4.0
##FIRSTX=450.0
##LASTX=3966.0
##FIRSTY=0.171611
##MAXX=3966
##MINX=450
##MAXY=0.64322
##MINY=0
##NPOINTS=880
##XYDATA=(X++(Y..Y))
450.0 2668 1005 97 602 0 536 200 211 427 224
490.0 350 308 337 156 314 238 397 183 236 335
530.0 176 232 292 334 193 326 250 116 106 288
570.0 249 303 302 361 603 711 859 1397 2051 2166
610.0 2112 1646 743 342 195 189 197 191 187 228
650.0 210 222 189 258 211 240 221 325 432 800
690.0 1264 1652 2362 2348 1429 1249 766 492 330 317
730.0 294 304 435 527 983 1780 3383 5268 6793 9995
770.0 10000 7239 7229 5268 3788 2435 1193 687 522 572
810.0 465 560 693 1535 2374 2594 2359 1840 600 314
850.0 265 250 299 282 315 280 296 283 275 279
890.0 299 319 308 322 286 289 243 279 265 291
930.0 305 345 387 435 529 601 707 806 953 1091
970.0 1372 1613 2283 2973 3463 4048 4628 5076 5123 4787
1010.0 3966 2959 2340 2087 1943 1745 1572 1402 1293 1206
1050.0 1130 1004 908 843 794 863 1018 1371 1606 1549
1090.0 1539 1265 829 608 485 459 456 470 512 624
1130.0 917 1501 1949 2008 1886 1385 855 783 825 1092
1170.0 1412 1315 1255 892 405 288 279 279 306 280
1210.0 299 278 290 259 270 263 274 292 354 425
1250.0 462 534 576 586 561 547 500 455 429 401
1290.0 363 307 297 274 277 270 279 278 277 290
1330.0 303 321 325 345 349 361 374 389 400 436
1370.0 503 633 801 1032 1253 1368 1398 1315 1134 948
1410.0 801 804 943 1386 2031 2836 3613 4462 5324 6232
1450.0 6916 6972 6798 6400 6059 5610 5170 4425 3251 2286
1490.0 1787 1484 1295 1133 1009 921 867 869 892 1019
1530.0 1099 1190 1254 1348 1523 1926 2504 3036 3565 3877
1570.0 3885 3548 3103 2383 1804 1600 1552 1382 1182 933
1610.0 656 492 408 357 300 298 272 291 318 420
1650.0 531 602 582 508 387 242 193 181 176 163
1690.0 169 172 161 159 160 183 177 205 207 208
1730.0 198 177 168 162 162 149 162 167 203 235
1770.0 311 364 386 369 335 254 182 156 132 129
1810.0 123 129 120 117 127 144 173 255 371 447
1850.0 446 382 282 169 117 102 100 107 103 125
1890.0 129 156 178 238 303 404 485 510 471 417
1930.0 304 185 150 111 100 87 96 88 82 78
1970.0 83 85 76 83 86 85 74 70 70 68
2010.0 70 60 72 72 86 92 98 96 100 114
2050.0 98 81 97 113 113 107 95 100 88 72
2090.0 53 56 57 54 56 46 51 32 38 31
2130.0 30 35 35 39 38 40 39 52 44 57
2170.0 44 46 40 38 37 39 53 53 61 67
2210.0 77 68 61 53 48 47 52 49 53 57
2250.0 60 60 52 64 54 52 56 58 64 62
2290.0 67 64 80 77 93 111 109 115 107 98
2330.0 66 87 62 72 33 96 139 125 43 27
2370.0 27 27 27 27 41 66 83 93 103 113
2410.0 107 118 111 111 103 112 100 98 96 93
2450.0 101 97 103 110 111 109 116 102 98 99
2490.0 99 105 104 110 121 130 138 144 146 154
2530.0 150 146 146 143 166 166 168 161 158 146
2570.0 138 135 136 136 118 117 104 106 93 97
2610.0 83 91 101 95 100 109 112 117 157 170
2650.0 125 101 114 100 101 119 133 157 160 167
2690.0 164 166 172 177 182 197 201 200 222 221
2730.0 260 285 351 391 414 412 356 294 267 260
2770.0 270 280 261 256 239 248 241 253 251 267
2810.0 282 303 339 350 386 427 466 520 598 685
2850.0 797 936 1098 1363 1689 2056 2341 2528 2518 2361
2890.0 2131 1985 1954 2021 2227 2529 2925 3383 3866 4333
2930.0 4816 5234 5488 5509 5340 5097 4691 4389 4012 3560
2970.0 3313 3269 3439 3571 3467 3128 2614 2112 1825 1786
3010.0 1945 2226 2534 2711 2719 2507 2245 2089 2039 2099
3050.0 2286 2634 3143 3778 4303 4412 4147 3506 2585 1823
3090.0 1375 1068 850 720 634 581 527 522 470 446
3130.0 420 389 337 315 287 262 240 204 198 183
3170.0 176 179 177 166 164 159 156 159 158 135
3210.0 120 132 116 113 86 97 78 85 74 72
3250.0 88 92 100 100 81 76 80 83 100 95
3290.0 100 109 105 120 116 134 117 111 130 102
3330.0 106 102 110 107 111 107 124 111 87 104
3370.0 90 109 95 125 103 130 132 156 153 164
3410.0 149 149 140 120 138 140 127 145 158 146
3450.0 136 150 154 178 172 123 143 162 134 141
3490.0 133 134 118 127 126 106 112 113 149 149
3530.0 135 134 133 111 111 134 109 127 116 116
3570.0 76 132 126 169 119 114 105 97 105 101
3610.0 133 53 95 115 89 92 102 101 106 113
3650.0 72 113 46 85 70 149 85 120 161 111
3690.0 98 75 115 61 107 98 89 117 110 115
3730.0 123 128 86 67 97 101 103 89 84 124
3770.0 91 100 169 171 140 124 154 191 217 171
3810.0 181 153 189 140 162 174 175 164 185 146
3850.0 222 184 226 99 120 164 186 168 184 173
3890.0 210 187 161 201 184 240 279 239 142 91
3930.0 97 89 258 213 135 99 166 150 241 198
##END=
