##TITLE=p-Anisidine, 3-nitro-,
##JCAMP-DX=4.24
##DATA TYPE=INFRARED SPECTRUM
##ORIGIN=Sadtler Research Labs Under US-EPA Contract
##OWNER=NIST Standard Reference Data Program
##CAS REGISTRY NO=577-72-0
##MOLFORM=C 7 H 8 N 2 O 3
##XUNITS=1/CM
##YUNITS=ABSORBANCE
##XFACTOR=1.0
##YFACTOR=0.000077594
##DELTAX=4.0
##FIRSTX=450.0
##LASTX=3966.0
##FIRSTY=0.023744
##MAXX=3966
##MINX=450
##MAXY=0.77594
##MINY=0
##NPOINTS=880
##XYDATA=(X++(Y..Y))
450.0 306 397 321 340 256 323 231 211 167 185
490.0 132 92 51 67 84 102 110 87 106 80
530.0 131 125 199 209 254 269 299 329 316 329
570.0 293 303 294 286 262 271 294 305 329 324
610.0 364 344 394 374 396 428 493 604 746 955
650.0 1142 1357 1484 1522 1482 1440 1457 1417 1328 1195
690.0 1038 967 823 780 732 675 630 598 592 568
730.0 585 604 646 638 623 597 578 585 635 678
770.0 670 585 485 408 375 445 597 886 1376 2106
810.0 2856 3282 3101 2402 1538 921 571 383 306 318
850.0 401 532 708 804 725 567 407 271 175 93
890.0 55 26 18 10 2 5 8 25 48 96
930.0 155 196 194 154 94 50 36 46 63 96
970.0 125 171 234 297 402 526 714 949 1253 1630
1010.0 2020 2361 2487 2372 2050 1675 1307 1005 770 565
1050.0 413 313 275 276 322 417 577 751 825 774
1090.0 658 526 402 322 265 232 218 216 224 261
1130.0 337 470 653 814 926 974 934 781 581 444
1170.0 418 485 586 648 606 556 506 492 540 647
1210.0 833 1129 1594 2270 3105 3814 4114 3872 3315 2807
1250.0 2655 2952 3595 4377 5019 5311 5100 4593 3951 3370
1290.0 2877 2524 2338 2215 2088 1889 1655 1416 1258 1195
1330.0 1234 1380 1634 2087 2702 3450 4132 4546 4449 3946
1370.0 3068 2134 1453 1044 810 675 599 538 521 505
1410.0 492 522 507 618 748 1002 1249 1555 1722 1660
1450.0 1470 1344 1296 1371 1435 1428 1429 1444 1603 1834
1490.0 2383 3344 4638 6100 7178 7860 8030 7924 7885 8062
1530.0 8246 8441 8862 9370 9919 10000 9322 7925 6225 4825
1570.0 3771 3130 2662 2249 1912 1557 1292 1085 1062 1164
1610.0 1495 1854 2096 2193 2152 2024 1855 1622 1342 1025
1650.0 723 531 417 345 301 272 236 237 209 183
1690.0 198 194 173 169 179 199 188 169 193 202
1730.0 175 157 159 148 122 100 117 95 97 90
1770.0 84 58 79 62 72 57 62 55 49 64
1810.0 48 50 53 58 53 54 58 73 61 64
1850.0 74 88 89 92 85 70 83 73 69 58
1890.0 53 50 50 53 47 49 44 48 40 44
1930.0 51 55 60 52 64 68 75 70 77 70
1970.0 76 77 75 79 78 82 85 104 113 126
2010.0 134 145 154 158 165 164 164 156 147 137
2050.0 129 115 105 96 85 86 78 73 64 61
2090.0 53 50 46 43 38 34 32 28 25 19
2130.0 14 9 10 10 8 10 10 11 15 17
2170.0 15 16 15 12 11 5 9 4 3 3
2210.0 5 5 9 10 9 13 12 15 12 16
2250.0 15 16 16 19 21 26 29 29 37 36
2290.0 41 40 45 46 54 56 51 52 48 50
2330.0 46 52 52 53 64 67 61 52 58 52
2370.0 56 52 63 56 42 31 25 19 18 18
2410.0 13 13 14 16 17 24 24 26 24 21
2450.0 17 11 13 5 9 8 10 12 15 18
2490.0 19 23 24 28 32 35 36 41 43 45
2530.0 49 43 45 43 48 49 55 57 58 54
2570.0 48 48 43 45 42 46 43 40 37 38
2610.0 34 32 37 35 34 38 41 40 44 43
2650.0 51 52 45 47 45 44 47 40 41 42
2690.0 38 43 43 46 46 50 51 52 55 52
2730.0 51 48 53 51 50 55 60 60 60 69
2770.0 71 71 73 76 80 84 93 94 108 124
2810.0 146 167 190 226 270 344 472 640 784 835
2850.0 803 710 576 466 410 386 380 379 393 408
2890.0 442 472 514 555 596 629 658 684 700 729
2930.0 803 919 1040 1126 1160 1147 1082 1012 953 880
2970.0 797 711 630 564 507 481 478 498 547 644
3010.0 736 795 784 715 617 538 514 527 561 580
3050.0 564 521 459 400 359 326 318 304 280 246
3090.0 218 183 164 141 122 109 97 88 78 68
3130.0 69 60 59 48 40 43 41 39 40 38
3170.0 36 38 35 38 38 42 51 51 66 73
3210.0 85 94 101 109 104 104 99 92 95 96
3250.0 95 92 82 70 64 62 60 57 46 54
3290.0 59 53 54 61 62 67 70 73 86 88
3330.0 95 111 123 136 165 189 223 251 284 328
3370.0 371 424 478 505 529 532 526 527 577 620
3410.0 680 715 706 636 540 429 334 282 265 266
3450.0 276 286 311 328 344 365 388 398 415 429
3490.0 441 443 429 420 373 306 249 182 141 102
3530.0 74 61 55 54 48 34 34 23 27 37
3570.0 28 20 21 16 21 19 28 9 22 16
3610.0 22 14 15 14 10 33 11 14 13 6
3650.0 24 13 16 7 8 20 7 31 0 18
3690.0 19 18 17 16 16 25 22 20 28 32
3730.0 29 33 37 21 44 17 28 16 15 12
3770.0 15 13 14 23 8 23 4 18 13 26
3810.0 9 17 18 19 22 14 17 25 18 30
3850.0 30 43 33 51 40 64 39 34 47 29
3890.0 33 38 19 34 31 18 32 32 40 9
3930.0 29 26 26 21 38 40 48 38 26 14
##END=
