##TITLE=Benzaldehyde, 2,5-dimethyl-
##JCAMP-DX=4.24
##DATA TYPE=INFRARED SPECTRUM
##ORIGIN=Sadtler Research Labs Under US-EPA Contract
##OWNER=NIST Standard Reference Data Program
##CAS REGISTRY NO=5779-94-2
##MOLFORM=C 9 H 10 O
##XUNITS=1/CM
##YUNITS=ABSORBANCE
##XFACTOR=1.0
##YFACTOR=0.000110104
##DELTAX=4.0
##FIRSTX=450.0
##LASTX=3966.0
##FIRSTY=0.019709
##MAXX=3966
##MINX=450
##MAXY=1.10104
##MINY=0
##NPOINTS=880
##XYDATA=(X++(Y..Y))
450.0 179 177 195 90 52 89 0 69 43 57
490.0 45 88 88 85 159 169 191 193 276 245
530.0 260 274 234 171 139 108 75 65 71 82
570.0 58 74 64 98 72 107 109 101 128 118
610.0 139 153 170 175 231 285 310 329 306 272
650.0 200 176 160 256 374 533 490 501 421 184
690.0 105 77 84 97 132 165 141 159 155 178
730.0 221 255 261 291 251 227 241 316 440 602
770.0 739 812 915 922 889 819 804 813 948 1076
810.0 1295 1807 1518 939 750 432 240 135 78 64
850.0 64 70 42 68 83 104 121 140 188 197
890.0 179 172 188 202 210 226 308 396 455 506
930.0 525 444 336 237 150 107 86 79 69 70
970.0 72 77 96 114 138 162 175 179 168 156
1010.0 127 116 100 95 97 102 118 137 157 181
1050.0 198 197 189 178 153 124 115 106 109 108
1090.0 119 143 206 280 327 364 386 404 409 477
1130.0 608 805 1014 1125 1277 1423 1366 1244 1121 884
1170.0 575 346 219 163 157 204 298 384 422 437
1210.0 416 333 293 352 553 857 1061 1137 1156 920
1250.0 577 386 298 251 238 286 441 700 954 1222
1290.0 1308 1168 919 596 324 193 159 154 143 139
1330.0 143 144 144 152 144 143 141 146 152 169
1370.0 200 282 413 569 701 808 870 830 773 760
1410.0 728 642 576 506 455 415 403 415 448 503
1450.0 546 565 584 563 523 490 465 450 473 565
1490.0 759 1012 1208 1244 1214 1032 732 500 369 293
1530.0 260 242 245 264 300 352 453 569 703 811
1570.0 877 851 772 647 521 446 429 438 460 515
1610.0 554 583 602 589 532 436 349 274 224 189
1650.0 197 190 213 225 245 262 316 388 508 731
1690.0 1095 1776 2823 4174 5292 6969 9038 10000 9263 8306
1730.0 5870 2754 1115 652 454 443 448 460 449 395
1770.0 300 225 200 183 217 221 245 230 200 161
1810.0 133 109 81 78 68 73 66 75 73 80
1850.0 80 74 77 73 78 70 74 70 77 77
1890.0 90 107 124 137 133 132 107 87 70 63
1930.0 54 55 52 49 46 39 36 27 28 26
1970.0 24 23 26 27 28 31 29 32 28 30
2010.0 31 34 31 31 33 32 32 26 26 19
2050.0 23 19 24 24 24 23 22 23 16 20
2090.0 20 19 17 17 18 19 19 17 20 21
2130.0 23 20 22 22 22 24 24 21 18 21
2170.0 20 15 12 11 14 13 16 20 23 21
2210.0 24 21 23 19 20 18 13 15 9 11
2250.0 9 12 12 13 13 14 19 16 17 17
2290.0 23 20 20 18 18 9 9 3 2 2
2330.0 5 9 11 17 20 35 14 21 16 23
2370.0 34 38 41 40 35 30 33 33 31 30
2410.0 30 30 26 28 27 28 26 26 23 24
2450.0 24 21 20 19 18 15 18 20 22 23
2490.0 23 27 27 29 28 28 28 27 28 28
2530.0 25 24 25 21 24 23 24 21 25 26
2570.0 31 31 31 36 38 37 37 39 37 36
2610.0 37 39 45 48 58 66 73 79 88 90
2650.0 88 92 102 123 127 140 151 167 184 218
2690.0 261 317 406 547 815 1224 1834 2106 1918 2068
2730.0 1671 1074 811 726 775 807 793 698 563 437
2770.0 350 329 330 358 380 422 459 501 537 573
2810.0 615 667 718 778 842 904 972 1021 1050 1036
2850.0 987 921 861 829 836 866 894 909 895 860
2890.0 805 756 716 689 685 691 726 793 933 1167
2930.0 1497 1828 1967 1910 1730 1392 1056 855 783 775
2970.0 774 822 886 915 933 954 941 919 922 966
3010.0 1024 1073 1092 1105 1119 1069 991 918 847 832
3050.0 843 857 849 783 658 546 455 372 311 252
3090.0 213 177 160 151 152 150 150 148 133 129
3130.0 113 96 75 67 58 46 37 33 29 30
3170.0 35 34 35 30 35 33 30 27 21 27
3210.0 25 21 17 19 19 17 17 13 16 13
3250.0 14 14 14 13 14 17 19 17 17 17
3290.0 16 13 17 21 16 16 14 15 19 16
3330.0 18 23 25 25 21 18 18 22 22 18
3370.0 22 23 30 47 53 71 86 93 108 110
3410.0 118 117 124 118 102 77 55 32 19 17
3450.0 11 10 9 17 15 18 13 22 16 16
3490.0 13 12 13 11 16 8 8 8 18 8
3530.0 6 8 13 12 8 12 7 15 10 19
3570.0 33 38 45 43 39 31 27 14 15 16
3610.0 19 9 3 5 10 6 13 13 8 10
3650.0 12 22 16 12 14 11 3 4 9 8
3690.0 10 14 14 11 15 9 14 5 13 15
3730.0 16 11 19 17 12 7 3 9 12 5
3770.0 13 5 7 13 12 9 6 8 2 13
3810.0 10 2 2 5 7 7 15 13 12 10
3850.0 10 5 15 8 4 2 8 4 6 4
3890.0 7 2 4 23 8 8 12 3 11 7
3930.0 3 15 24 6 13 12 16 14 11 12
##END=
