##TITLE=Benzene, 1-bromo-2-methoxy-
##JCAMP-DX=4.24
##DATA TYPE=INFRARED SPECTRUM
##ORIGIN=Sadtler Research Labs Under US-EPA Contract
##OWNER=NIST Standard Reference Data Program
##CAS REGISTRY NO=578-57-4
##MOLFORM=C 7 H 7 Br O
##XUNITS=1/CM
##YUNITS=ABSORBANCE
##XFACTOR=1.0
##YFACTOR=0.000119785
##DELTAX=4.0
##FIRSTX=450.0
##LASTX=3966.0
##FIRSTY=0.014614
##MAXX=3966
##MINX=450
##MAXY=1.19785
##MINY=0
##NPOINTS=880
##XYDATA=(X++(Y..Y))
450.0 122 132 102 146 100 115 83 113 61 89
490.0 89 72 27 33 53 41 71 73 103 80
530.0 104 106 123 123 125 140 118 184 253 352
570.0 388 415 373 263 171 105 81 51 47 24
610.0 19 0 25 10 19 38 49 91 129 312
650.0 580 980 1325 1397 1343 867 408 216 108 93
690.0 61 114 141 226 335 488 572 652 716 823
730.0 1179 1878 2682 4013 5187 4913 4077 3022 1931 1148
770.0 645 426 339 382 475 585 625 599 519 388
810.0 261 175 139 115 119 116 131 129 119 105
850.0 88 67 54 56 60 60 62 60 52 39
890.0 30 29 26 24 33 46 74 97 132 177
930.0 179 144 126 96 82 77 88 95 115 137
970.0 158 186 217 254 294 347 417 515 664 892
1010.0 1236 1696 2237 2990 4174 5239 5342 5079 4237 3264
1050.0 3309 4153 4838 4812 4306 3195 1845 983 580 387
1090.0 307 258 238 228 261 365 562 823 971 968
1130.0 883 650 404 284 255 302 411 454 443 458
1170.0 420 401 453 487 487 461 394 305 266 258
1210.0 281 332 419 571 810 1213 1840 2798 4106 5646
1250.0 6817 6930 7199 6827 6097 6067 5977 5542 4977 4441
1290.0 4238 4151 3753 3255 2323 1294 708 442 311 250
1330.0 206 184 171 163 148 148 152 161 177 187
1370.0 214 245 252 248 242 208 198 199 199 221
1410.0 254 322 461 715 1167 1811 2322 2462 2634 2606
1450.0 2345 2306 2535 2862 3427 4487 6431 9392 10000 9977
1490.0 8754 5568 2800 1505 996 744 554 376 301 225
1530.0 211 198 220 250 269 302 384 520 696 956
1570.0 1305 1653 2038 2511 2876 2986 2776 2416 1791 1171
1610.0 751 497 345 217 161 106 99 89 72 69
1650.0 79 80 76 83 110 122 138 111 121 111
1690.0 86 75 95 87 72 57 63 80 59 54
1730.0 67 86 68 71 81 105 123 135 142 129
1770.0 127 111 90 88 84 85 90 85 88 76
1810.0 74 73 69 69 67 63 56 56 73 89
1850.0 90 88 89 80 79 85 87 113 151 173
1890.0 185 178 145 112 90 85 91 114 147 156
1930.0 152 128 86 55 34 17 13 11 10 13
1970.0 10 9 6 7 9 14 18 20 23 29
2010.0 37 47 59 70 88 109 132 153 169 179
2050.0 185 188 191 197 197 188 172 159 151 148
2090.0 144 129 104 79 57 45 41 42 40 36
2130.0 33 28 24 24 20 19 15 15 10 6
2170.0 4 1 1 2 2 0 0 3 0 2
2210.0 4 4 4 5 7 7 7 10 14 19
2250.0 22 27 34 43 57 73 88 94 91 83
2290.0 68 53 43 44 44 52 53 56 57 51
2330.0 46 33 27 19 30 20 26 26 37 42
2370.0 46 45 51 46 42 38 33 31 26 20
2410.0 20 20 18 19 16 16 16 17 17 15
2450.0 18 18 20 23 24 26 25 26 25 29
2490.0 33 39 44 53 55 60 67 71 80 88
2530.0 101 115 129 143 152 153 145 134 121 113
2570.0 104 97 87 78 69 61 58 57 57 54
2610.0 50 44 44 37 33 34 34 32 35 34
2650.0 30 30 24 20 16 14 16 16 18 18
2690.0 22 24 30 30 32 33 34 37 38 39
2730.0 46 45 47 49 49 47 48 48 50 50
2770.0 53 53 58 58 60 61 63 72 80 93
2810.0 112 142 173 223 298 416 623 964 1351 1485
2850.0 1484 1322 917 615 483 445 454 471 506 544
2890.0 584 614 658 723 802 894 979 1070 1118 1101
2930.0 1116 1227 1484 1873 2145 2274 2327 2080 1927 1788
2970.0 1444 1165 918 728 619 587 628 742 978 1331
3010.0 1697 1752 1666 1425 981 686 552 493 472 464
3050.0 473 503 568 710 975 1338 1664 1839 1797 1508
3090.0 1128 812 621 502 381 269 173 121 95 83
3130.0 79 73 71 73 75 73 72 67 58 51
3170.0 50 47 41 40 36 32 28 27 24 23
3210.0 23 23 22 18 22 22 22 17 18 12
3250.0 14 13 11 11 10 13 11 16 13 12
3290.0 14 14 12 10 10 10 10 12 12 14
3330.0 12 8 15 14 15 16 12 9 11 13
3370.0 12 6 4 4 6 7 9 14 6 4
3410.0 8 4 4 6 8 10 7 8 7 4
3450.0 3 8 8 4 4 5 7 7 13 10
3490.0 10 7 8 15 12 9 8 9 10 8
3530.0 10 9 8 7 7 13 12 7 12 7
3570.0 9 10 3 8 7 11 8 5 12 13
3610.0 11 14 6 10 10 13 7 10 9 9
3650.0 19 9 15 6 12 16 14 20 9 9
3690.0 7 16 5 14 13 12 13 11 17 20
3730.0 18 14 22 14 25 13 23 11 15 18
3770.0 14 16 5 11 3 12 15 15 18 20
3810.0 10 22 10 13 18 3 19 17 16 15
3850.0 24 35 34 34 43 37 41 40 34 31
3890.0 23 20 11 19 30 34 16 11 23 10
3930.0 17 8 16 25 18 25 28 20 15 19
##END=
