##TITLE=Benzenamine, 2-ethyl-
##JCAMP-DX=4.24
##DATA TYPE=INFRARED SPECTRUM
##ORIGIN=Sadtler Research Labs Under US-EPA Contract
##OWNER=NIST Standard Reference Data Program
##CAS REGISTRY NO=578-54-1
##MOLFORM=C 8 H 11 N
##XUNITS=1/CM
##YUNITS=ABSORBANCE
##XFACTOR=1.0
##YFACTOR=0.000095605
##DELTAX=4.0
##FIRSTX=450.0
##LASTX=3966.0
##FIRSTY=0.241786
##MAXX=3966
##MINX=450
##MAXY=0.95605
##MINY=0
##NPOINTS=880
##XYDATA=(X++(Y..Y))
450.0 2529 2621 2338 2253 2180 2036 1770 1516 1563 1651
490.0 1544 1324 1281 1271 1365 1303 1227 1153 1159 1218
530.0 1135 1112 1077 1136 1064 1150 907 985 938 1105
570.0 964 963 954 973 1058 1007 1037 1044 1181 1261
610.0 1305 1250 1387 1425 1568 1654 1764 1839 2017 2128
650.0 2137 2165 2129 2135 2025 1825 1656 1661 1575 1555
690.0 1437 1326 1400 1404 1497 1363 1460 1711 2416 3340
730.0 4462 5487 7269 10000 8271 6044 5136 3978 2642 1773
770.0 1234 1114 995 959 851 867 858 918 828 810
810.0 811 737 692 663 755 740 790 676 652 597
850.0 481 344 321 307 217 155 104 174 166 98
890.0 23 120 131 130 54 128 212 279 267 343
930.0 347 265 234 118 176 214 335 297 321 323
970.0 344 274 139 120 123 108 33 65 64 85
1010.0 67 113 163 262 327 418 562 691 694 669
1050.0 786 884 959 863 866 897 896 756 651 585
1090.0 566 461 309 244 276 321 270 223 184 288
1130.0 326 388 497 733 893 872 862 738 598 419
1170.0 239 134 163 129 114 73 92 61 45 41
1210.0 62 94 69 90 160 299 306 393 515 790
1250.0 1122 1531 2158 2936 3782 4237 4146 3877 3467 2623
1290.0 1858 1384 1280 1256 1234 1117 1082 1106 1015 752
1330.0 503 414 320 237 124 145 135 173 181 189
1370.0 235 319 362 416 427 387 343 261 197 199
1410.0 140 114 196 241 249 280 405 799 1165 1823
1450.0 2600 3287 3672 3636 3446 2800 2346 2050 2221 2890
1490.0 4146 5290 5859 5526 5336 4231 2787 1734 1224 842
1530.0 606 505 416 524 390 373 407 609 599 634
1570.0 846 1078 1479 1705 1831 1947 2061 2079 2138 2466
1610.0 3367 4763 6614 7661 7948 7728 7176 5401 3662 2490
1650.0 1649 1369 836 704 581 627 513 430 363 426
1690.0 277 270 317 324 212 156 181 248 132 110
1730.0 164 262 172 151 163 217 182 199 232 227
1770.0 292 322 204 182 143 154 179 132 135 119
1810.0 126 91 49 29 77 86 55 40 96 157
1850.0 131 104 104 100 130 199 199 263 298 319
1890.0 322 254 158 134 144 205 223 262 261 234
1930.0 156 68 38 49 54 16 14 12 28 24
1970.0 20 0 17 26 25 33 30 38 25 34
2010.0 22 34 32 41 43 44 37 37 52 55
2050.0 46 26 41 46 60 28 23 33 61 43
2090.0 35 33 56 81 56 51 63 93 72 56
2130.0 29 52 62 46 20 38 55 46 37 27
2170.0 45 45 41 20 42 37 45 35 40 51
2210.0 42 47 59 78 69 72 69 92 88 62
2250.0 46 60 71 54 31 23 61 61 43 20
2290.0 55 73 89 57 72 107 133 115 67 121
2330.0 161 167 77 118 138 172 122 121 102 160
2370.0 86 51 72 69 75 57 76 78 90 57
2410.0 75 90 106 84 70 96 112 105 66 73
2450.0 94 113 76 71 89 121 95 58 52 77
2490.0 88 51 53 72 114 94 77 74 113 104
2530.0 94 89 98 118 101 88 81 91 71 60
2570.0 54 77 75 67 73 102 119 103 108 137
2610.0 188 168 158 158 213 209 175 135 150 166
2650.0 131 89 87 122 114 87 53 98 107 110
2690.0 86 95 110 118 103 81 94 101 116 99
2730.0 131 137 159 161 166 162 162 138 155 175
2770.0 189 191 190 239 250 250 218 239 266 275
2810.0 246 249 297 319 343 343 428 528 659 731
2850.0 859 1025 1258 1483 1746 2131 2619 3079 3288 3450
2890.0 3292 3051 2671 2353 2121 2077 2072 2153 2249 2384
2930.0 2625 2953 3343 3612 3800 3703 3726 3824 4419 5486
2970.0 6495 7021 6779 6027 4281 2757 1807 1355 1177 1287
3010.0 1541 1966 2479 3024 3359 3509 3513 3255 2790 2333
3050.0 2101 2022 2191 2398 2640 2743 2780 2652 2470 2160
3090.0 1839 1514 1193 914 682 603 500 433 345 324
3130.0 295 267 197 176 203 209 197 191 204 215
3170.0 240 201 200 175 188 177 171 158 159 168
3210.0 171 185 170 164 131 172 141 112 83 124
3250.0 141 110 81 70 128 122 96 38 89 102
3290.0 114 46 39 70 114 73 17 23 60 83
3330.0 25 20 43 95 57 46 47 76 97 77
3370.0 74 88 123 117 174 226 342 440 592 725
3410.0 801 742 662 570 444 307 175 157 174 221
3450.0 149 115 156 275 294 295 382 604 852 1003
3490.0 1130 1171 1228 1024 761 494 398 297 229 155
3530.0 161 177 167 131 115 167 149 130 118 195
3570.0 183 118 92 105 135 173 106 121 143 125
3610.0 135 122 190 186 122 161 146 163 165 144
3650.0 207 198 209 144 101 198 251 262 130 117
3690.0 205 184 116 83 105 184 217 123 155 182
3730.0 228 247 257 239 345 288 235 214 209 187
3770.0 150 147 158 167 106 93 139 188 191 126
3810.0 141 183 242 183 162 194 276 258 214 220
3850.0 317 365 266 234 301 341 270 222 226 267
3890.0 252 234 194 239 258 223 197 224 243 217
3930.0 232 245 273 264 260 284 27 46 48 48
##END=
