##TITLE=Benzenamine, 2,6-diethyl-
##JCAMP-DX=4.24
##DATA TYPE=INFRARED SPECTRUM
##ORIGIN=Sadtler Research Labs Under US-EPA Contract
##OWNER=NIST Standard Reference Data Program
##CAS REGISTRY NO=579-66-8
##MOLFORM=C 10 H 15 N
##XUNITS=1/CM
##YUNITS=ABSORBANCE
##XFACTOR=1.0
##YFACTOR=0.000090839
##DELTAX=4.0
##FIRSTX=450.0
##LASTX=3966.0
##FIRSTY=0.074306
##MAXX=3966
##MINX=450
##MAXY=0.90839
##MINY=0
##NPOINTS=880
##XYDATA=(X++(Y..Y))
450.0 818 833 839 827 807 797 814 788 733 709
490.0 720 682 685 678 657 609 648 664 697 643
530.0 662 636 514 476 448 442 486 517 515 481
570.0 478 472 527 517 522 589 579 582 600 658
610.0 701 689 743 769 781 821 837 867 876 870
650.0 873 852 836 834 834 742 748 772 748 693
690.0 676 655 612 575 573 587 576 668 873 1225
730.0 1851 2538 3316 3932 3701 3158 2628 1979 1466 1203
770.0 1072 1023 990 959 876 770 711 623 569 511
810.0 468 464 442 413 424 441 409 379 358 324
850.0 274 247 220 173 116 83 45 39 19 30
890.0 21 11 9 23 14 8 9 16 13 11
930.0 20 40 52 81 126 198 200 221 232 239
970.0 220 206 195 168 143 133 108 92 81 78
1010.0 83 93 111 145 173 226 314 411 539 707
1050.0 906 1085 1187 1122 928 676 432 307 279 283
1090.0 310 391 511 662 798 800 743 586 402 276
1130.0 203 194 215 206 174 132 104 105 123 147
1170.0 143 111 64 41 47 54 80 138 213 273
1210.0 324 324 305 316 333 374 377 366 329 316
1250.0 381 510 737 1002 1303 1566 1724 1673 1518 1261
1290.0 966 746 638 601 610 632 668 685 663 590
1330.0 499 402 329 310 315 307 298 279 270 273
1370.0 319 405 532 635 582 486 366 262 211 195
1410.0 195 207 231 276 358 512 811 1312 2093 3117
1450.0 4152 4997 5479 5412 5078 4443 3637 2841 2148 1543
1490.0 1034 671 451 344 273 236 220 190 177 170
1530.0 165 157 166 149 141 165 178 182 191 213
1570.0 233 266 281 331 386 458 566 707 924 1233
1610.0 1692 2319 3117 3886 4320 4265 3826 2943 2078 1405
1650.0 939 668 525 419 350 310 292 263 252 214
1690.0 208 190 158 125 112 98 85 66 57 54
1730.0 48 37 36 35 34 27 25 30 31 29
1770.0 31 37 57 68 97 117 104 98 64 44
1810.0 27 22 23 32 40 65 120 191 238 228
1850.0 195 119 58 29 24 18 31 41 61 94
1890.0 150 206 202 201 159 103 64 36 36 28
1930.0 28 32 27 28 25 22 24 17 16 10
1970.0 11 6 11 15 9 6 7 16 9 12
2010.0 17 17 10 13 13 13 12 11 12 4
2050.0 7 8 16 10 9 19 18 13 23 28
2090.0 27 18 23 22 21 31 26 31 25 20
2130.0 26 15 14 9 11 3 3 14 3 11
2170.0 5 7 13 4 5 5 0 0 9 5
2210.0 6 8 13 13 7 14 18 18 14 24
2250.0 31 22 21 25 23 19 23 29 35 33
2290.0 42 51 43 39 58 59 53 55 66 58
2330.0 70 78 81 84 70 70 77 59 50 46
2370.0 47 36 35 42 30 21 19 24 23 29
2410.0 30 27 31 41 54 58 63 69 64 59
2450.0 49 44 37 39 43 43 41 39 36 46
2490.0 43 45 42 45 40 47 47 47 47 57
2530.0 52 60 63 69 69 69 71 76 64 53
2570.0 48 48 45 51 52 56 51 60 73 74
2610.0 77 78 93 99 105 125 132 131 123 117
2650.0 103 91 82 84 79 69 68 80 80 79
2690.0 78 75 74 76 70 63 74 81 91 91
2730.0 103 134 152 163 164 160 142 130 140 148
2770.0 159 170 187 215 221 237 260 260 265 272
2810.0 283 304 312 339 382 435 513 628 775 942
2850.0 1117 1318 1550 1876 2319 2882 3511 4122 4507 4591
2890.0 4284 3757 3188 2728 2452 2386 2459 2607 2846 3184
2930.0 3515 3867 4307 4729 4912 4845 4667 4619 5247 6936
2970.0 9023 10000 9306 7432 4699 2784 1710 1171 934 844
3010.0 889 1060 1346 1676 1888 1960 1884 1696 1582 1597
3050.0 1615 1583 1560 1518 1504 1496 1472 1412 1301 1159
3090.0 975 757 551 387 283 215 177 176 163 146
3130.0 152 163 167 163 156 177 169 161 167 166
3170.0 156 147 153 141 131 128 128 116 118 117
3210.0 110 86 86 83 88 62 60 71 79 57
3250.0 69 60 58 47 52 61 40 33 48 28
3290.0 13 39 40 27 29 37 31 27 23 34
3330.0 33 28 30 35 23 12 18 14 11 14
3370.0 30 29 20 30 47 38 54 99 128 172
3410.0 238 304 349 338 309 261 189 149 120 97
3450.0 100 73 95 97 117 133 197 266 375 556
3490.0 754 922 1058 1046 921 710 504 375 264 205
3530.0 152 119 97 71 77 66 55 73 66 52
3570.0 48 56 52 40 46 59 45 37 28 50
3610.0 47 25 41 42 44 35 49 51 40 32
3650.0 52 55 36 30 38 49 43 53 34 36
3690.0 34 45 42 49 58 54 50 29 51 54
3730.0 52 49 39 43 47 41 42 49 31 24
3770.0 39 45 40 35 46 37 42 42 30 25
3810.0 23 26 17 31 24 32 24 33 35 50
3850.0 44 50 57 45 47 49 41 38 37 39
3890.0 40 40 46 43 42 35 43 41 44 58
3930.0 49 42 27 21 29 28 34 50 49 41
##END=
