##TITLE=2-Indolinone, 1-valeryl-,
##JCAMP-DX=4.24
##DATA TYPE=INFRARED SPECTRUM
##ORIGIN=Sadtler Research Labs Under US-EPA Contract
##OWNER=NIST Standard Reference Data Program
##CAS REGISTRY NO=57989-34-1
##MOLFORM=C 13 H 15 N O 2
##XUNITS=1/CM
##YUNITS=ABSORBANCE
##XFACTOR=1.0
##YFACTOR=0.000151004
##DELTAX=4.0
##FIRSTX=450.0
##LASTX=3966.0
##FIRSTY=0.019933
##MAXX=3966
##MINX=450
##MAXY=1.51004
##MINY=0
##NPOINTS=880
##XYDATA=(X++(Y..Y))
450.0 132 105 70 91 58 46 2 19 12 39
490.0 52 58 52 56 81 75 102 88 81 59
530.0 54 56 48 25 42 47 46 87 117 162
570.0 233 287 282 273 300 310 266 199 198 249
610.0 369 513 642 711 675 559 446 386 336 291
650.0 227 185 162 180 206 272 272 222 168 118
690.0 81 61 44 71 125 206 277 259 195 176
730.0 173 241 388 760 1291 1915 2188 1621 1067 610
770.0 367 235 154 112 78 76 60 64 67 72
810.0 68 86 98 101 96 98 117 141 150 133
850.0 124 128 154 168 168 174 174 161 141 123
890.0 112 119 134 157 163 156 137 116 106 89
930.0 85 85 95 109 148 192 220 182 126 84
970.0 59 58 52 56 52 54 62 76 92 105
1010.0 116 129 186 266 352 384 347 292 268 287
1050.0 339 432 584 834 1212 1664 2046 2135 1864 1375
1090.0 893 619 546 591 652 659 641 644 742 911
1130.0 1180 1521 1855 2022 1984 1873 1889 2038 2172 2253
1170.0 2178 1985 1612 1203 950 1018 1268 1398 1309 963
1210.0 651 512 479 535 631 809 1071 1385 1653 1911
1250.0 2300 2960 3901 4727 5139 4856 4102 3115 2182 1505
1290.0 1163 1050 1135 1358 1438 1345 1125 1068 1395 1951
1330.0 2426 2565 2517 2425 2287 2007 1728 1591 1590 1606
1370.0 1590 1498 1330 1139 976 828 718 684 651 610
1410.0 547 449 415 374 392 458 570 613 607 576
1450.0 634 816 1368 2184 2822 2881 2515 2360 2231 1849
1490.0 1183 747 509 344 285 239 186 164 161 129
1530.0 119 97 105 115 100 80 86 110 91 80
1570.0 93 96 100 111 126 196 296 477 711 945
1610.0 979 798 560 346 266 197 189 161 141 135
1650.0 160 163 161 172 198 226 263 275 312 347
1690.0 353 393 487 612 798 1092 1657 2510 3491 4078
1730.0 4183 3545 2698 2131 1967 2166 2768 4107 6391 9096
1770.0 10000 8739 5602 3463 2244 1689 1326 1081 862 694
1810.0 561 451 352 284 246 221 198 168 157 142
1850.0 129 114 113 113 116 126 115 113 102 93
1890.0 89 93 89 78 62 45 38 35 47 44
1930.0 45 42 46 58 64 57 43 29 17 17
1970.0 10 12 12 14 15 24 28 26 27 22
2010.0 20 16 16 11 8 9 8 6 6 3
2050.0 0 1 0 2 4 3 7 5 8 7
2090.0 10 9 12 13 18 21 24 27 26 28
2130.0 27 27 23 19 15 13 10 10 9 10
2170.0 10 10 11 7 8 3 4 1 0 0
2210.0 1 2 2 5 4 5 6 10 13 17
2250.0 16 19 21 18 15 10 10 10 8 8
2290.0 8 9 11 10 11 19 18 23 27 29
2330.0 24 19 23 19 26 22 19 16 16 14
2370.0 16 16 16 18 17 17 18 23 24 25
2410.0 23 24 21 17 15 14 14 12 12 7
2450.0 6 6 6 7 6 7 7 10 10 11
2490.0 13 12 11 12 13 9 8 6 8 6
2530.0 4 6 10 11 12 16 18 23 27 31
2570.0 32 32 28 26 22 19 19 15 16 13
2610.0 13 11 10 7 6 6 9 10 10 9
2650.0 8 11 8 9 12 11 11 12 11 12
2690.0 11 11 11 10 11 10 12 14 13 16
2730.0 16 20 23 28 31 29 29 30 30 30
2770.0 32 33 33 38 46 55 60 62 57 57
2810.0 58 60 63 72 77 85 98 110 123 140
2850.0 161 191 236 308 408 539 657 750 815 820
2890.0 734 612 522 490 500 531 591 672 788 937
2930.0 1114 1291 1449 1561 1588 1540 1462 1465 1585 1813
2970.0 1979 1829 1386 896 591 445 353 295 250 217
3010.0 190 173 166 163 169 191 234 309 382 408
3050.0 401 399 452 495 472 406 386 433 491 504
3090.0 426 288 160 96 70 60 56 56 62 67
3130.0 72 67 58 45 37 33 32 32 31 31
3170.0 32 27 25 28 24 24 25 22 21 19
3210.0 17 15 19 15 14 13 10 9 9 8
3250.0 7 7 7 5 12 9 10 4 9 9
3290.0 7 7 8 7 6 6 5 8 7 9
3330.0 9 9 13 10 9 8 10 10 11 13
3370.0 10 14 13 13 8 10 11 14 15 15
3410.0 17 20 25 32 36 45 44 46 40 32
3450.0 27 24 18 21 28 27 30 26 33 32
3490.0 30 36 33 40 45 61 76 82 81 72
3530.0 57 42 27 20 15 12 11 8 6 7
3570.0 8 9 11 9 5 6 10 3 4 0
3610.0 4 6 6 6 2 11 6 1 6 0
3650.0 7 5 8 3 0 7 7 11 0 11
3690.0 3 6 15 13 8 7 8 11 7 7
3730.0 2 6 13 9 13 7 13 13 8 6
3770.0 5 6 8 9 4 8 8 11 11 8
3810.0 7 6 8 12 6 15 7 5 15 12
3850.0 10 13 12 10 17 25 12 13 10 9
3890.0 8 7 13 9 10 13 9 17 13 8
3930.0 6 8 7 10 11 14 13 6 3 5
##END=
