##TITLE=Benzoic acid, 4-bromo-, ethyl ester
##JCAMP-DX=4.24
##DATA TYPE=INFRARED SPECTRUM
##ORIGIN=Sadtler Research Labs Under US-EPA Contract
##OWNER=NIST Standard Reference Data Program
##CAS REGISTRY NO=5798-75-4
##MOLFORM=C 9 H 9 Br O 2
##XUNITS=1/CM
##YUNITS=ABSORBANCE
##XFACTOR=1.0
##YFACTOR=0.000142657
##DELTAX=4.0
##FIRSTX=450.0
##LASTX=3966.0
##FIRSTY=0.022112
##MAXX=3966
##MINX=450
##MAXY=1.42657
##MINY=0
##NPOINTS=880
##XYDATA=(X++(Y..Y))
450.0 155 193 231 221 174 261 201 233 225 212
490.0 240 227 224 176 158 123 117 98 116 104
530.0 98 67 31 29 19 25 30 47 38 27
570.0 49 24 27 13 36 24 38 35 24 0
610.0 10 5 8 28 54 55 48 37 32 29
650.0 31 27 22 40 46 93 147 179 232 231
690.0 219 180 174 179 215 208 161 116 126 159
730.0 248 369 494 568 690 869 1121 1363 1305 1042
770.0 808 576 428 333 286 225 172 140 124 133
810.0 134 150 160 159 170 203 287 422 584 763
850.0 841 714 536 331 240 205 199 191 160 161
890.0 144 142 118 107 82 68 60 50 43 32
930.0 37 26 35 38 39 43 46 53 48 53
970.0 48 61 52 75 79 98 104 156 242 484
1010.0 1500 2773 2918 1797 788 447 275 204 166 166
1050.0 185 212 260 434 894 1482 1543 1270 1302 1599
1090.0 1990 2772 4313 5865 6212 5883 5510 4263 2362 1380
1130.0 935 644 496 419 435 454 479 515 590 777
1170.0 1331 1851 1671 915 543 458 393 382 375 384
1210.0 415 479 611 826 1147 1331 1273 1141 1227 1577
1250.0 2178 3095 4491 6424 8439 9921 10000 9266 7343 4827
1290.0 2844 1876 1506 1427 1423 1282 1060 836 682 569
1330.0 502 458 449 481 535 563 557 573 628 880
1370.0 1120 1090 801 597 586 669 889 1112 1095 853
1410.0 565 439 352 330 336 369 401 446 493 524
1450.0 541 554 579 620 685 774 879 1019 1189 1251
1490.0 1052 720 499 379 257 183 179 235 307 406
1530.0 484 525 488 402 321 270 256 260 299 345
1570.0 405 464 561 780 1267 2015 2391 1999 1198 718
1610.0 523 360 253 207 181 178 177 177 185 190
1650.0 198 204 223 248 277 308 338 369 391 416
1690.0 446 494 534 610 689 809 958 1162 1477 1956
1730.0 2760 3843 5354 6484 6696 5308 3508 2116 1256 763
1770.0 521 390 334 294 280 275 276 256 213 182
1810.0 153 138 118 105 86 73 61 54 48 41
1850.0 42 41 43 40 43 42 50 52 56 60
1890.0 60 62 63 66 72 82 91 100 102 99
1930.0 91 79 69 60 57 58 60 62 63 62
1970.0 65 64 60 56 47 43 35 33 30 27
2010.0 28 26 28 27 31 31 32 26 28 28
2050.0 30 30 31 32 31 32 33 36 36 38
2090.0 38 39 40 41 44 47 52 54 53 51
2130.0 48 42 39 36 31 28 27 29 26 26
2170.0 26 27 27 26 30 30 31 30 30 29
2210.0 29 30 31 33 32 31 30 28 29 31
2250.0 28 29 28 30 30 31 33 35 34 34
2290.0 34 28 27 23 18 12 5 0 0 1
2330.0 0 5 7 16 19 16 15 24 33 42
2370.0 50 55 56 53 53 50 47 44 43 44
2410.0 42 41 37 34 32 28 29 29 27 27
2450.0 29 28 31 29 32 31 30 30 30 31
2490.0 30 30 30 32 34 31 32 32 32 35
2530.0 38 43 48 49 52 53 50 44 40 40
2570.0 40 37 38 35 35 34 34 34 31 31
2610.0 25 25 23 19 21 17 17 18 17 15
2650.0 18 17 15 17 14 14 11 13 9 12
2690.0 13 10 13 12 11 12 12 13 14 19
2730.0 27 21 25 24 26 30 33 29 31 33
2770.0 32 36 36 28 27 26 26 29 29 24
2810.0 29 31 34 45 46 55 65 76 95 110
2850.0 124 144 158 168 174 175 183 195 226 257
2890.0 273 268 264 281 314 351 388 408 406 395
2930.0 390 411 471 559 642 632 570 510 512 539
2970.0 584 645 750 990 1259 1296 1065 817 700 622
3010.0 546 471 398 331 277 243 217 202 193 185
3050.0 177 171 165 164 158 153 147 146 154 160
3090.0 158 155 156 148 123 103 83 71 63 61
3130.0 57 53 54 54 49 50 44 38 36 32
3170.0 33 31 31 29 32 31 28 26 24 23
3210.0 24 22 19 21 19 17 17 17 16 17
3250.0 15 16 12 13 12 7 12 7 7 11
3290.0 7 9 4 2 4 2 4 6 3 7
3330.0 11 9 15 13 11 10 9 10 8 11
3370.0 13 10 11 10 14 12 12 9 15 15
3410.0 15 12 13 14 16 15 17 21 29 31
3450.0 35 41 48 55 59 55 45 31 22 15
3490.0 19 10 7 7 1 1 2 13 11 5
3530.0 12 12 6 8 9 10 10 7 13 6
3570.0 11 11 12 8 9 8 9 7 8 10
3610.0 12 7 7 5 8 8 2 3 0 7
3650.0 4 4 8 5 8 8 6 0 5 4
3690.0 9 8 0 1 2 5 6 5 5 10
3730.0 6 4 1 0 0 0 4 4 1 4
3770.0 9 9 3 8 13 13 10 7 0 3
3810.0 9 7 2 0 0 0 0 2 7 3
3850.0 0 0 3 9 12 7 5 6 16 5
3890.0 9 11 2 2 10 12 11 0 6 6
3930.0 8 6 2 0 13 2 8 9 14 24
##END=
