##TITLE=Caffeine
##JCAMP-DX=4.24
##DATA TYPE=INFRARED SPECTRUM
##ORIGIN=Sadtler Research Labs Under US-EPA Contract
##OWNER=NIST Standard Reference Data Program
##CAS REGISTRY NO=58-08-2
##MOLFORM=C 8 H 10 N 4 O 2
##XUNITS=1/CM
##YUNITS=ABSORBANCE
##XFACTOR=1.0
##YFACTOR=0.000149628
##DELTAX=4.0
##FIRSTX=450.0
##LASTX=3966.0
##FIRSTY=0.004489
##MAXX=3966
##MINX=450
##MAXY=1.49628
##MINY=0
##NPOINTS=880
##XYDATA=(X++(Y..Y))
450.0 30 46 38 120 79 193 340 391 388 250
490.0 145 11 40 45 17 45 22 81 7 50
530.0 18 68 11 30 38 26 59 38 48 6
570.0 41 14 30 21 41 39 50 116 118 194
610.0 202 155 88 71 32 33 33 29 46 29
650.0 35 21 33 10 37 40 17 29 27 41
690.0 22 40 26 39 26 33 31 17 32 41
730.0 91 137 209 249 296 304 406 323 280 341
770.0 195 156 98 83 43 39 48 43 59 52
810.0 82 68 112 146 194 248 244 163 116 88
850.0 43 50 24 39 23 26 21 31 29 16
890.0 34 19 34 14 38 29 41 54 70 91
930.0 88 80 35 43 33 45 51 80 121 181
970.0 296 370 411 354 264 147 88 79 113 180
1010.0 298 500 693 828 838 720 504 307 191 131
1050.0 121 111 131 112 118 103 98 82 82 84
1090.0 76 76 67 73 51 66 60 63 66 72
1130.0 82 81 106 95 100 86 92 76 79 97
1170.0 111 144 171 232 277 334 351 362 338 324
1210.0 345 355 393 440 598 847 1067 1105 984 691
1250.0 438 331 276 269 250 276 330 414 455 450
1290.0 405 294 209 145 160 146 191 249 347 446
1330.0 515 540 501 490 515 639 744 806 775 658
1370.0 553 491 484 469 502 493 509 503 541 618
1410.0 754 855 872 791 703 632 623 628 661 701
1450.0 908 1071 1289 1301 1341 1358 1419 1496 1374 1200
1490.0 950 741 606 484 423 406 356 447 485 698
1530.0 722 929 1101 1247 1443 1469 1326 1094 715 545
1570.0 426 369 323 302 324 404 528 758 942 1099
1610.0 1042 836 568 335 233 194 213 209 266 348
1650.0 528 621 896 1002 1308 1864 3319 5240 7104 10000
1690.0 7708 7086 4064 3234 2173 2605 3092 4394 5100 5090
1730.0 4747 2880 1794 976 646 395 403 307 314 270
1770.0 253 195 155 155 91 107 71 95 64 97
1810.0 87 82 84 74 80 47 71 45 54 35
1850.0 51 47 48 59 42 43 23 35 11 22
1890.0 16 21 18 19 27 13 25 14 21 8
1930.0 19 16 14 19 17 27 14 27 14 17
1970.0 10 17 15 11 21 11 19 10 22 9
2010.0 16 14 17 13 13 22 11 18 11 17
2050.0 7 14 9 5 6 5 10 1 11 5
2090.0 9 5 10 7 8 14 5 9 1 11
2130.0 6 8 5 6 6 6 10 3 11 11
2170.0 15 10 13 14 9 13 9 14 7 16
2210.0 10 13 10 11 10 10 16 14 18 16
2250.0 22 14 17 13 14 15 10 13 7 14
2290.0 10 15 7 15 11 5 13 5 10 2
2330.0 10 1 2 0 8 14 0 9 0 0
2370.0 0 1 5 11 17 18 19 17 19 10
2410.0 15 10 14 10 11 10 3 9 5 7
2450.0 5 9 7 9 10 10 13 8 16 13
2490.0 14 10 15 8 8 11 9 10 11 16
2530.0 11 15 13 16 17 17 22 19 19 22
2570.0 27 18 21 21 23 21 19 18 14 21
2610.0 15 18 15 17 13 10 13 11 15 14
2650.0 21 14 17 18 21 21 18 18 15 16
2690.0 13 17 10 17 15 13 16 16 18 16
2730.0 18 16 24 22 27 24 24 27 22 26
2770.0 22 26 25 27 26 26 26 26 34 31
2810.0 41 45 49 48 54 54 49 56 56 62
2850.0 57 65 66 74 79 89 95 99 112 118
2890.0 132 138 161 165 173 179 181 186 188 210
2930.0 224 253 288 338 395 466 536 597 630 617
2970.0 567 484 399 316 256 215 188 156 140 132
3010.0 115 107 92 87 76 70 65 56 58 56
3050.0 56 51 50 51 54 50 50 55 49 50
3090.0 49 49 45 51 45 46 46 50 51 47
3130.0 45 32 32 25 23 23 21 18 16 18
3170.0 16 21 17 16 11 16 14 15 18 16
3210.0 11 9 13 15 18 16 18 15 16 23
3250.0 17 17 11 14 15 21 17 18 19 17
3290.0 19 18 16 13 21 15 10 11 15 21
3330.0 15 13 13 17 10 18 11 10 23 21
3370.0 26 19 26 32 48 58 66 70 68 48
3410.0 39 29 16 23 18 26 22 26 8 14
3450.0 16 3 18 19 21 13 15 18 21 18
3490.0 24 19 16 18 10 22 23 16 18 21
3530.0 17 14 16 8 26 21 23 24 21 22
3570.0 19 29 15 23 24 21 19 26 16 21
3610.0 16 29 27 14 31 21 22 18 22 23
3650.0 8 26 25 26 21 32 14 30 19 23
3690.0 31 21 31 23 35 25 25 25 37 33
3730.0 25 21 30 25 35 24 19 30 25 31
3770.0 24 23 38 30 26 24 35 27 21 32
3810.0 22 29 29 37 29 33 24 27 35 31
3850.0 47 32 26 26 23 17 31 21 18 41
3890.0 32 40 13 38 15 32 33 42 26 35
3930.0 34 30 23 25 39 35 54 31 38 34
##END=
