##TITLE=Menadione
##JCAMP-DX=4.24
##DATA TYPE=INFRARED SPECTRUM
##ORIGIN=Sadtler Research Labs Under US-EPA Contract
##OWNER=NIST Standard Reference Data Program
##CAS REGISTRY NO=58-27-5
##MOLFORM=C 11 H 8 O 2
##XUNITS=1/CM
##YUNITS=ABSORBANCE
##XFACTOR=1.0
##YFACTOR=0.000062024
##DELTAX=4.0
##FIRSTX=450.0
##LASTX=3966.0
##FIRSTY=0.034113
##MAXX=3966
##MINX=450
##MAXY=0.62024
##MINY=0
##NPOINTS=880
##XYDATA=(X++(Y..Y))
450.0 550 782 648 329 418 6 183 356 451 265
490.0 190 481 300 365 555 474 477 557 490 321
530.0 343 515 346 177 300 462 269 250 269 309
570.0 355 338 306 305 409 312 308 332 288 236
610.0 313 377 358 318 289 313 309 335 398 473
650.0 524 458 573 702 761 1062 693 686 641 731
690.0 1045 1054 926 685 572 389 323 374 314 272
730.0 270 250 204 278 286 300 399 686 1022 1276
770.0 1806 2502 1623 1168 917 556 429 420 303 398
810.0 337 298 322 314 229 195 204 244 202 181
850.0 175 219 212 195 243 233 312 288 394 513
890.0 707 796 829 655 473 388 369 341 434 758
930.0 1275 1633 1681 1547 1111 600 422 334 240 308
970.0 258 266 208 226 250 245 267 321 344 464
1010.0 537 607 633 716 741 662 589 479 387 378
1050.0 319 308 294 295 331 325 363 416 432 466
1090.0 433 449 448 400 399 366 350 339 302 275
1130.0 245 231 243 298 407 581 712 764 684 557
1170.0 370 347 332 286 314 291 303 304 276 302
1210.0 331 407 473 616 793 852 923 872 830 937
1250.0 1396 2671 4013 4483 4223 3094 1450 912 1126 1907
1290.0 3133 4252 4827 4687 4052 3260 2841 2591 2095 1525
1330.0 1108 902 1065 1426 1698 1712 1518 1097 685 489
1370.0 411 429 553 569 619 578 454 387 292 277
1410.0 281 256 344 337 390 415 443 532 467 502
1450.0 457 481 444 433 331 369 315 322 255 248
1490.0 280 182 224 168 227 230 152 229 236 240
1530.0 285 214 355 294 380 327 308 469 386 455
1570.0 476 517 668 616 858 1059 1387 1485 1476 1444
1610.0 1189 1144 1198 1522 1702 1663 1518 1185 818 783
1650.0 813 1066 1519 1829 2987 4691 7291 10000 9811 9766
1690.0 6910 3836 1795 1206 799 632 539 426 415 289
1730.0 285 324 299 280 273 225 231 170 166 133
1770.0 152 171 120 140 136 123 197 122 172 127
1810.0 98 140 79 97 79 94 76 56 79 88
1850.0 88 86 109 129 121 148 121 114 105 102
1890.0 90 91 61 70 63 66 55 65 60 70
1930.0 62 71 86 93 113 85 117 110 117 113
1970.0 108 114 107 104 101 96 86 65 66 63
2010.0 56 66 52 52 66 46 60 53 48 46
2050.0 39 52 42 44 47 47 51 45 56 48
2090.0 42 50 44 43 52 42 50 49 43 48
2130.0 52 59 48 54 51 48 43 40 40 38
2170.0 36 39 39 43 48 46 46 43 42 56
2210.0 42 45 41 34 33 40 44 43 47 46
2250.0 44 41 51 54 48 59 61 59 71 92
2290.0 89 118 138 143 170 203 189 182 169 172
2330.0 155 122 124 102 170 131 159 133 188 148
2370.0 103 149 101 107 83 35 30 34 21 38
2410.0 28 30 37 30 31 32 24 31 32 28
2450.0 19 29 20 32 26 15 34 28 32 41
2490.0 33 38 33 27 29 30 26 31 23 34
2530.0 34 36 42 38 37 40 39 35 36 39
2570.0 31 42 37 40 43 49 45 52 56 60
2610.0 64 67 66 59 54 60 52 47 52 53
2650.0 48 53 48 50 55 43 44 55 48 62
2690.0 61 53 60 44 50 55 39 53 49 43
2730.0 60 56 53 56 60 56 68 68 56 54
2770.0 47 55 62 48 55 64 56 56 52 50
2810.0 65 58 64 66 62 78 86 83 88 101
2850.0 119 119 133 136 147 126 129 146 146 148
2890.0 151 156 157 146 133 144 148 149 171 201
2930.0 320 434 452 428 334 228 171 186 205 244
2970.0 273 277 257 235 268 276 296 293 263 243
3010.0 218 206 205 205 207 205 259 303 366 379
3050.0 344 308 262 255 325 474 651 838 872 770
3090.0 554 317 168 130 121 108 95 82 92 90
3130.0 84 82 80 80 89 96 92 102 107 108
3170.0 98 87 82 88 80 100 82 77 82 76
3210.0 73 77 76 79 73 87 83 77 81 96
3250.0 87 100 103 107 98 105 98 115 109 109
3290.0 108 118 136 151 132 151 149 137 144 181
3330.0 195 234 285 292 313 284 219 190 133 114
3370.0 121 108 103 105 114 112 108 105 102 93
3410.0 105 116 97 82 73 82 96 105 80 95
3450.0 104 73 99 67 82 92 108 83 87 81
3490.0 89 94 105 95 84 85 102 78 89 85
3530.0 74 109 100 120 69 109 90 106 67 99
3570.0 74 116 84 133 53 143 61 114 72 114
3610.0 94 69 159 61 155 63 133 67 105 18
3650.0 216 15 186 69 118 107 76 168 51 177
3690.0 66 183 50 121 103 114 125 163 74 173
3730.0 87 107 204 65 244 0 269 44 188 129
3770.0 130 167 114 148 141 125 187 65 185 81
3810.0 207 92 183 127 153 114 147 139 216 139
3850.0 206 98 155 216 139 221 122 146 95 202
3890.0 75 249 71 127 144 171 181 125 105 76
3930.0 134 106 156 195 218 204 169 115 138 168
##END=
