##TITLE=Phenol, 2,3,4,6-tetrachloro-
##JCAMP-DX=4.24
##DATA TYPE=INFRARED SPECTRUM
##ORIGIN=Sadtler Research Labs Under US-EPA Contract
##OWNER=NIST Standard Reference Data Program
##CAS REGISTRY NO=58-90-2
##MOLFORM=C 6 H 2 Cl 4 O
##XUNITS=1/CM
##YUNITS=ABSORBANCE
##XFACTOR=1.0
##YFACTOR=0.000057056
##DELTAX=4.0
##FIRSTX=450.0
##LASTX=3966.0
##FIRSTY=0.216469
##MAXX=3966
##MINX=450
##MAXY=0.57056
##MINY=0
##NPOINTS=880
##XYDATA=(X++(Y..Y))
450.0 3794 1618 78 476 1128 189 1159 78 247 906
490.0 269 707 462 396 534 394 724 377 532 509
530.0 477 445 85 391 751 26 517 622 587 1351
570.0 980 492 433 371 383 308 395 216 353 296
610.0 267 454 561 645 821 1061 1207 1108 908 706
650.0 472 466 336 305 366 389 480 308 360 347
690.0 473 651 697 841 1285 1426 1228 887 665 623
730.0 817 735 1345 2212 3204 3724 3852 3379 3007 2655
770.0 2047 1339 766 651 769 764 786 704 713 880
810.0 1262 1994 2653 2920 2559 1610 796 465 385 377
850.0 521 618 885 1044 1097 1073 815 464 408 331
890.0 297 307 282 278 275 197 239 271 263 316
930.0 359 472 585 619 632 536 421 332 343 393
970.0 403 429 427 494 524 494 374 283 291 297
1010.0 318 320 338 336 347 368 335 355 301 304
1050.0 305 319 311 339 330 351 332 352 349 361
1090.0 393 411 443 450 513 749 1175 1578 1802 1643
1130.0 1228 890 674 674 697 798 987 1298 1660 2050
1170.0 2243 2143 1928 1711 2020 3128 4726 5913 5970 4734
1210.0 3211 2143 1515 1244 983 764 727 681 665 742
1250.0 824 937 1051 1159 1255 1599 2377 3631 4807 5178
1290.0 4418 3001 1648 1211 1679 2169 2208 1765 1000 615
1330.0 608 692 749 743 717 787 860 1098 1492 2130
1370.0 3064 4403 5535 5901 5551 4355 3312 2481 1807 1634
1410.0 1960 2193 2284 2069 2109 2935 4732 7308 9712 10000
1450.0 8011 5368 2981 1678 1250 1003 967 942 896 909
1490.0 845 707 690 623 615 551 450 453 465 471
1530.0 483 538 642 853 1041 1093 1139 1068 824 637
1570.0 546 491 431 385 336 321 310 281 238 230
1610.0 235 246 313 252 260 195 223 216 189 223
1650.0 263 246 210 195 223 224 231 192 235 259
1690.0 242 211 264 270 277 266 305 355 263 262
1730.0 288 302 280 237 234 225 183 190 184 175
1770.0 184 191 146 168 162 139 170 167 175 129
1810.0 144 136 146 134 148 150 144 137 155 151
1850.0 100 112 128 115 134 146 136 115 116 127
1890.0 147 120 102 133 137 132 117 142 136 123
1930.0 122 130 121 127 133 112 122 114 104 99
1970.0 95 101 102 104 109 98 108 97 107 104
2010.0 121 137 126 112 119 125 110 116 104 104
2050.0 98 93 94 98 104 116 110 114 109 106
2090.0 96 97 105 113 99 96 103 106 106 114
2130.0 112 133 121 135 152 157 146 161 164 170
2170.0 144 137 155 160 174 176 155 156 141 109
2210.0 98 96 87 80 90 97 100 106 100 101
2250.0 91 91 104 104 91 114 109 97 88 78
2290.0 99 97 118 106 115 116 123 127 123 134
2330.0 155 95 129 118 102 108 160 145 134 101
2370.0 103 72 114 119 116 127 132 120 121 105
2410.0 102 92 94 99 102 98 106 99 95 94
2450.0 96 95 102 114 101 99 99 87 107 110
2490.0 89 78 55 60 62 35 37 42 27 55
2530.0 54 25 7 30 29 48 79 101 111 107
2570.0 112 107 109 107 90 99 80 88 101 90
2610.0 111 98 101 96 100 97 96 99 92 98
2650.0 91 87 108 90 106 101 114 113 116 122
2690.0 118 127 125 117 133 135 123 131 118 125
2730.0 146 145 141 144 128 144 106 105 118 106
2770.0 99 100 98 113 101 107 91 110 121 128
2810.0 104 98 115 121 122 134 114 122 106 114
2850.0 116 103 138 138 130 120 119 129 117 109
2890.0 116 118 106 111 118 129 142 131 135 157
2930.0 173 172 161 148 127 136 131 126 138 132
2970.0 135 120 129 92 95 112 118 127 141 115
3010.0 116 101 89 115 113 91 98 98 107 98
3050.0 99 88 81 88 104 118 110 118 121 123
3090.0 152 133 135 110 118 106 104 110 115 127
3130.0 142 134 136 144 127 144 159 150 146 122
3170.0 122 138 122 111 120 129 138 117 120 117
3210.0 133 138 152 146 139 154 145 175 199 168
3250.0 174 209 213 219 196 194 190 197 204 201
3290.0 209 184 203 216 199 200 194 174 190 195
3330.0 190 219 226 211 211 204 218 227 204 234
3370.0 220 249 197 121 67 63 21 52 114 136
3410.0 192 186 227 202 154 174 187 190 199 159
3450.0 186 192 148 154 156 168 182 172 125 103
3490.0 131 170 181 136 126 135 157 156 171 146
3530.0 173 229 228 309 482 1071 2380 4274 6078 6747
3570.0 5960 4189 2331 1194 616 291 223 144 166 136
3610.0 55 49 87 100 147 91 116 147 156 61
3650.0 47 43 102 122 143 91 142 108 104 138
3690.0 101 168 156 152 135 125 109 157 212 219
3730.0 405 600 689 778 652 493 327 221 139 150
3770.0 143 175 165 154 170 138 182 151 128 185
3810.0 58 173 143 155 161 175 185 164 170 239
3850.0 168 97 184 191 230 113 240 198 184 243
3890.0 182 213 168 148 123 190 206 264 44 0
3930.0 0 5 147 175 214 78 172 216 254 267
##END=
