##TITLE=[1,1'-Biphenyl]-3-ol
##JCAMP-DX=4.24
##DATA TYPE=INFRARED SPECTRUM
##ORIGIN=Sadtler Research Labs Under US-EPA Contract
##OWNER=NIST Standard Reference Data Program
##CAS REGISTRY NO=580-51-8
##MOLFORM=C 12 H 10 O
##XUNITS=1/CM
##YUNITS=ABSORBANCE
##XFACTOR=1.0
##YFACTOR=0.000040671
##DELTAX=4.0
##FIRSTX=450.0
##LASTX=3966.0
##FIRSTY=0.008622
##MAXX=3966
##MINX=450
##MAXY=0.40671
##MINY=0
##NPOINTS=880
##XYDATA=(X++(Y..Y))
450.0 212 133 14 456 25 151 177 214 217 184
490.0 420 237 414 421 585 545 675 711 747 793
530.0 731 783 604 645 472 516 486 652 626 566
570.0 483 447 508 407 543 436 555 564 612 639
610.0 813 1046 1025 940 511 358 262 269 253 276
650.0 313 323 410 453 575 786 914 1192 1825 2722
690.0 3806 4655 5179 4179 3462 2615 2185 1915 1698 1400
730.0 990 1081 1471 2265 3390 4664 5838 5964 4747 3725
770.0 2738 2073 1768 1605 1439 1130 840 615 439 367
810.0 361 369 410 469 579 716 804 818 849 880
850.0 953 1024 1070 1189 1463 1988 2967 3875 4083 3544
890.0 2248 1103 620 432 415 399 422 410 376 338
930.0 309 283 229 230 236 255 232 231 205 214
970.0 147 124 125 143 212 350 564 625 668 542
1010.0 392 383 401 476 493 498 451 432 492 498
1050.0 475 445 494 586 758 889 1038 1114 1150 1104
1090.0 952 805 678 638 570 534 514 529 580 674
1130.0 818 1011 1281 1673 2434 3710 4921 5649 6263 7047
1170.0 7976 9313 10000 9628 8824 7255 5643 4185 3280 2981
1210.0 2828 2638 2246 1664 1196 935 822 783 841 1019
1250.0 1371 1754 2007 2064 1966 1936 2016 2141 2320 2586
1290.0 3046 3610 4283 4718 4513 3791 2667 1753 1227 930
1330.0 739 613 508 431 335 307 249 246 241 238
1370.0 229 251 269 252 276 268 290 332 420 549
1410.0 731 1032 1384 1837 2198 2411 2352 2176 1774 1527
1450.0 1532 1585 1757 1941 2469 3296 4131 4979 4988 4553
1490.0 3622 2712 1742 1139 1023 1068 1197 1367 1238 1070
1530.0 783 733 690 750 850 948 1350 1555 2097 2311
1570.0 2839 3176 3644 4421 5041 6139 6559 7536 6834 6583
1610.0 5765 5082 4109 3119 2468 1565 1070 686 507 412
1650.0 288 342 234 304 324 334 296 260 226 230
1690.0 222 233 243 247 217 218 241 260 299 354
1730.0 423 450 521 506 515 448 392 351 320 275
1770.0 245 185 161 175 182 241 269 296 258 211
1810.0 159 158 163 181 183 165 152 146 178 159
1850.0 155 132 130 132 163 190 206 234 248 255
1890.0 239 217 181 153 150 169 186 204 233 236
1930.0 245 247 241 241 241 238 223 211 167 109
1970.0 45 34 25 16 19 16 19 11 17 22
2010.0 16 23 31 29 34 34 38 40 45 52
2050.0 54 59 60 58 57 53 58 51 50 53
2090.0 53 53 52 50 35 28 17 16 11 9
2130.0 4 11 11 12 8 11 10 9 19 17
2170.0 35 35 45 49 48 45 40 35 23 21
2210.0 18 16 16 18 20 27 21 22 29 29
2250.0 26 28 35 38 35 41 40 53 64 75
2290.0 82 103 120 141 153 194 205 179 195 158
2330.0 138 116 123 140 169 173 182 154 152 151
2370.0 155 153 166 175 161 127 117 108 96 81
2410.0 74 61 62 67 74 68 66 71 63 56
2450.0 63 63 72 87 87 94 100 102 102 96
2490.0 92 86 93 90 78 79 77 78 59 57
2530.0 43 40 26 29 24 19 14 12 22 23
2570.0 25 24 34 37 38 44 40 53 48 63
2610.0 57 54 52 59 51 46 38 40 39 39
2650.0 33 28 37 35 30 23 22 23 20 17
2690.0 19 21 17 12 14 11 10 11 12 15
2730.0 17 10 22 30 32 31 36 36 35 45
2770.0 53 63 56 61 52 55 54 44 49 50
2810.0 45 41 44 42 47 47 54 62 63 78
2850.0 93 85 101 123 117 119 122 124 129 119
2890.0 131 133 142 151 157 166 193 189 193 189
2930.0 240 289 244 207 214 204 184 152 157 146
2970.0 156 160 165 169 179 216 241 297 379 474
3010.0 627 820 1056 1367 1743 2183 2609 2903 3044 2934
3050.0 2733 2557 2567 2931 3600 4066 4046 3602 2896 2426
3090.0 2089 1766 1486 1226 1009 827 668 562 442 349
3130.0 283 221 206 184 162 160 160 139 132 120
3170.0 110 104 92 95 85 85 88 79 82 78
3210.0 86 80 84 88 86 87 100 96 86 91
3250.0 86 100 105 89 91 97 93 105 93 96
3290.0 107 99 94 80 101 98 116 108 106 105
3330.0 114 141 152 158 160 168 152 162 166 155
3370.0 154 148 156 148 150 144 140 117 117 117
3410.0 132 143 130 114 134 132 113 131 115 112
3450.0 110 121 112 92 91 81 116 83 96 80
3490.0 87 92 92 67 43 105 90 89 75 51
3530.0 67 84 96 96 41 61 112 62 116 32
3570.0 34 108 109 148 69 86 102 124 125 148
3610.0 64 85 156 205 330 329 921 1464 2753 4343
3650.0 6198 6157 5310 3032 1334 471 257 76 186 138
3690.0 68 112 127 123 110 102 19 122 117 51
3730.0 104 54 38 47 49 0 42 54 108 102
3770.0 102 144 102 107 113 135 125 114 31 112
3810.0 112 166 41 66 122 107 70 71 62 108
3850.0 178 8 82 150 87 94 69 152 50 112
3890.0 80 141 95 120 66 172 167 153 155 123
3930.0 183 113 182 133 162 147 215 185 153 174
##END=
