##TITLE=Benzoic acid, 2-(acetyloxy)-, methyl ester
##JCAMP-DX=4.24
##DATA TYPE=INFRARED SPECTRUM
##ORIGIN=Sadtler Research Labs Under US-EPA Contract
##OWNER=NIST Standard Reference Data Program
##CAS REGISTRY NO=580-02-9
##MOLFORM=C 10 H 10 O 4
##XUNITS=1/CM
##YUNITS=ABSORBANCE
##XFACTOR=1.0
##YFACTOR=0.000128381
##DELTAX=4.0
##FIRSTX=450.0
##LASTX=3966.0
##FIRSTY=0.000000
##MAXX=3966
##MINX=450
##MAXY=1.28381
##MINY=0
##NPOINTS=880
##XYDATA=(X++(Y..Y))
450.0 0 25 39 62 60 56 110 111 148 133
490.0 202 212 217 240 267 264 257 295 277 285
530.0 303 352 329 315 309 293 286 253 263 234
570.0 227 216 223 280 300 333 350 329 297 258
610.0 230 235 222 207 208 205 221 243 309 339
650.0 368 371 349 337 356 449 455 439 388 363
690.0 393 515 672 866 929 738 559 402 303 258
730.0 254 317 521 681 1045 1126 848 704 434 341
770.0 295 272 282 287 320 313 345 365 419 443
810.0 441 405 381 403 447 513 513 478 399 331
850.0 292 295 309 345 383 378 359 310 292 309
890.0 374 494 705 964 1153 1178 994 718 471 329
930.0 256 236 239 259 303 336 347 342 370 397
970.0 435 433 410 383 361 384 439 547 693 819
1010.0 857 804 683 557 513 543 649 746 793 772
1050.0 697 620 635 723 922 1312 1911 2666 3245 3370
1090.0 2980 2212 1481 1052 877 836 926 1123 1382 1645
1130.0 1818 1751 1532 1263 1045 1110 1420 1647 1778 1889
1170.0 1939 2345 3250 4691 6643 8530 9961 10000 8855 6908
1210.0 4892 3431 2552 2067 1788 1676 1718 1947 2381 3045
1250.0 3729 4245 4461 4184 3654 3170 2880 2847 3074 3402
1290.0 3871 4293 4297 3753 2751 1875 1314 977 788 699
1330.0 630 573 501 478 476 493 564 702 954 1273
1370.0 1560 1629 1465 1136 806 595 481 434 414 414
1410.0 389 406 380 427 500 716 975 1207 1401 1448
1450.0 1436 1376 1173 908 671 586 653 822 1013 1116
1490.0 1072 943 698 517 384 300 288 255 234 234
1530.0 228 225 218 208 210 235 238 247 276 321
1570.0 366 427 477 503 501 493 519 603 767 905
1610.0 941 851 662 475 352 286 239 222 217 218
1650.0 205 219 234 242 254 267 289 337 398 481
1690.0 621 731 797 826 825 801 759 816 957 1200
1730.0 1499 2221 3452 4893 5822 5531 4318 2826 1893 1667
1770.0 1681 1849 2192 2767 3392 4076 3868 2945 2187 1560
1810.0 1217 996 831 656 504 391 322 288 241 223
1850.0 204 209 189 186 174 159 161 151 154 143
1890.0 147 144 149 146 150 151 160 174 183 197
1930.0 194 190 176 167 163 165 160 147 140 120
1970.0 114 109 113 111 119 117 122 131 130 137
2010.0 136 140 142 146 145 144 141 134 137 134
2050.0 138 133 133 126 121 122 120 123 125 133
2090.0 133 139 135 135 132 126 123 120 118 112
2130.0 110 104 102 99 96 94 97 98 102 101
2170.0 97 92 83 80 75 73 72 71 69 71
2210.0 74 72 75 75 75 73 73 71 69 70
2250.0 69 72 67 71 70 73 75 75 77 75
2290.0 76 75 74 74 79 79 77 75 78 80
2330.0 70 65 65 62 66 78 72 74 67 61
2370.0 65 62 68 71 71 70 70 72 74 78
2410.0 75 75 69 68 64 62 61 58 57 54
2450.0 52 51 50 47 49 47 45 45 43 46
2490.0 46 47 48 47 46 45 47 46 46 45
2530.0 48 45 49 49 48 50 47 48 46 47
2570.0 48 46 44 47 43 45 41 39 39 37
2610.0 38 32 34 33 33 28 29 26 25 29
2650.0 27 29 28 29 28 28 25 29 31 31
2690.0 32 32 28 29 31 28 29 29 28 28
2730.0 29 32 29 33 33 33 34 32 33 35
2770.0 35 35 39 35 37 38 36 38 38 40
2810.0 35 40 42 48 51 59 69 89 127 167
2850.0 190 187 158 115 96 85 82 85 92 102
2890.0 109 125 137 146 158 169 177 180 179 174
2930.0 171 171 188 222 296 423 657 892 963 875
2970.0 646 389 250 204 194 211 238 266 293 303
3010.0 291 279 271 281 299 312 321 312 298 279
3050.0 261 245 237 256 288 336 379 417 452 461
3090.0 427 354 260 187 148 129 118 105 92 84
3130.0 75 69 64 65 62 64 63 64 65 61
3170.0 61 56 57 55 54 53 49 51 50 57
3210.0 57 60 64 70 75 84 87 93 101 105
3250.0 110 117 119 123 119 118 114 106 100 99
3290.0 94 92 84 85 84 80 77 76 72 72
3330.0 71 68 67 66 67 71 66 64 64 62
3370.0 57 59 55 53 54 54 51 51 51 44
3410.0 48 48 49 45 47 47 48 50 50 46
3450.0 48 50 55 61 66 79 75 72 74 69
3490.0 64 60 56 50 48 50 43 46 45 49
3530.0 46 49 50 50 56 62 72 78 87 79
3570.0 79 68 74 78 65 56 57 59 55 51
3610.0 45 38 29 29 31 28 32 35 29 35
3650.0 31 28 35 33 34 24 38 32 32 33
3690.0 39 29 31 34 28 36 35 34 32 25
3730.0 34 35 35 39 39 35 33 36 33 32
3770.0 35 32 28 26 25 32 34 33 35 26
3810.0 29 27 34 28 34 32 28 25 27 28
3850.0 35 36 29 38 33 32 32 35 25 31
3890.0 25 40 45 27 36 33 43 28 28 40
3930.0 33 37 34 36 37 39 42 36 32 40
##END=
