##TITLE=Cyclohexanepropionic acid, 4-oxo-, ethyl ester
##JCAMP-DX=4.24
##DATA TYPE=INFRARED SPECTRUM
##ORIGIN=Sadtler Research Labs Under US-EPA Contract
##OWNER=NIST Standard Reference Data Program
##CAS REGISTRY NO=58012-66-1
##MOLFORM=C 11 H 18 O 3
##XUNITS=1/CM
##YUNITS=ABSORBANCE
##XFACTOR=1.0
##YFACTOR=0.000067264
##DELTAX=4.0
##FIRSTX=450.0
##LASTX=3966.0
##FIRSTY=0.008139
##MAXX=3966
##MINX=450
##MAXY=0.67264
##MINY=0
##NPOINTS=880
##XYDATA=(X++(Y..Y))
450.0 121 97 233 10 131 139 103 146 105 141
490.0 96 139 202 193 184 164 207 205 121 108
530.0 70 37 46 28 16 58 26 15 50 34
570.0 27 1 48 40 14 40 79 41 39 48
610.0 44 23 34 30 53 33 41 64 76 31
650.0 45 49 6 38 12 41 63 40 45 50
690.0 43 20 22 46 15 34 34 39 46 86
730.0 75 118 182 237 259 254 226 164 141 125
770.0 123 109 109 116 116 95 91 95 76 101
810.0 89 95 80 89 103 97 97 146 153 162
850.0 221 235 244 239 211 184 173 154 154 179
890.0 182 195 210 235 207 210 229 271 317 356
930.0 361 339 315 303 283 260 231 204 190 182
970.0 196 203 219 228 237 251 269 295 358 423
1010.0 478 530 607 732 892 1069 1263 1420 1461 1368
1050.0 1190 1020 914 817 754 721 710 738 799 919
1090.0 1070 1298 1559 1747 1780 1689 1541 1394 1287 1238
1130.0 1290 1434 1670 2010 2452 2935 3429 3868 4257 4515
1170.0 4631 4561 4397 4236 4119 3970 3752 3479 3176 2899
1210.0 2676 2506 2377 2298 2284 2336 2430 2524 2575 2587
1250.0 2572 2519 2409 2211 1989 1741 1502 1280 1113 1014
1290.0 975 991 1063 1164 1272 1360 1475 1566 1638 1591
1330.0 1453 1285 1123 1055 1028 990 912 828 775 890
1370.0 1123 1292 1263 1068 831 666 567 511 484 468
1410.0 462 527 591 770 908 1042 1095 1122 1091 1036
1450.0 1036 1026 972 928 841 748 587 465 383 282
1490.0 209 192 155 129 86 56 61 43 30 44
1530.0 39 38 37 5 21 44 45 5 45 56
1570.0 57 50 73 60 69 64 67 59 64 67
1610.0 60 68 54 70 59 76 80 70 103 102
1650.0 106 119 186 185 211 217 223 282 280 335
1690.0 413 506 539 650 768 972 1225 1639 2453 3941
1730.0 6706 9228 10000 8580 7318 7125 7235 6629 5456 4076
1770.0 2915 1999 1443 1044 803 608 487 405 336 321
1810.0 281 256 226 198 151 124 106 112 86 71
1850.0 74 74 72 60 58 40 61 63 63 60
1890.0 58 56 58 62 56 55 48 47 38 43
1930.0 53 43 46 33 40 39 45 42 48 39
1970.0 44 44 43 47 42 40 35 44 45 49
2010.0 45 41 39 43 44 43 45 42 39 42
2050.0 42 44 46 44 38 47 41 46 39 36
2090.0 35 36 33 27 27 22 24 22 24 25
2130.0 19 21 19 14 20 23 22 21 16 19
2170.0 20 21 19 18 18 16 15 12 18 17
2210.0 15 19 17 20 20 19 18 16 16 19
2250.0 23 17 15 18 16 21 16 21 17 15
2290.0 20 18 14 17 14 16 10 12 9 3
2330.0 0 0 0 0 6 0 0 0 0 0
2370.0 0 1 13 6 11 5 12 11 11 12
2410.0 10 9 9 10 8 13 15 10 13 13
2450.0 8 10 13 11 13 10 11 7 8 8
2490.0 3 3 3 3 0 3 5 5 2 4
2530.0 5 10 7 6 8 10 12 13 15 9
2570.0 9 10 11 10 11 13 13 11 18 23
2610.0 22 21 22 28 31 29 30 33 32 25
2650.0 33 35 37 35 38 41 45 44 44 46
2690.0 46 44 43 48 42 48 42 49 48 48
2730.0 51 47 46 49 51 53 47 55 57 58
2770.0 64 65 70 81 79 86 91 95 103 110
2810.0 121 133 150 167 198 243 288 338 384 424
2850.0 506 655 900 1204 1485 1646 1611 1453 1282 1163
2890.0 1102 1105 1178 1323 1519 1716 1907 2086 2332 2701
2930.0 3186 3624 3906 3980 3808 3367 2789 2382 2255 2393
2970.0 2598 2636 2458 2267 2160 1978 1613 1255 1008 828
3010.0 678 547 444 354 290 253 209 173 153 135
3050.0 121 111 100 97 91 86 72 79 70 65
3090.0 63 65 64 64 62 62 53 51 53 49
3130.0 48 47 49 43 39 35 44 37 38 35
3170.0 32 29 31 36 30 27 30 26 25 27
3210.0 31 26 33 21 25 21 15 21 23 21
3250.0 20 18 16 14 16 13 20 20 17 15
3290.0 20 27 19 19 10 14 22 22 23 21
3330.0 27 16 23 19 20 24 30 19 15 29
3370.0 26 23 23 28 27 22 25 25 30 28
3410.0 32 42 24 25 33 51 45 65 67 88
3450.0 108 130 101 79 64 62 56 59 64 68
3490.0 66 57 41 43 38 22 24 16 16 9
3530.0 9 12 7 8 14 13 9 11 11 22
3570.0 44 35 32 31 25 7 21 5 20 0
3610.0 15 28 19 8 11 39 27 3 21 5
3650.0 28 26 29 25 0 26 13 40 5 20
3690.0 19 10 19 19 16 27 17 14 28 30
3730.0 21 24 43 12 55 5 24 21 17 22
3770.0 13 19 2 34 24 34 19 35 3 29
3810.0 18 37 12 22 30 22 44 46 27 28
3850.0 37 36 27 33 29 41 21 21 20 40
3890.0 17 22 15 33 31 38 26 22 20 11
3930.0 40 48 14 42 35 42 21 29 17 45
##END=
