##TITLE=(1,1'-Biphenyl)-2,2'-dicarboxylic acid, dimethyl ester
##JCAMP-DX=4.24
##DATA TYPE=INFRARED SPECTRUM
##ORIGIN=Sadtler Research Labs Under US-EPA Contract
##OWNER=NIST Standard Reference Data Program
##CAS REGISTRY NO=5807-64-7
##MOLFORM=C 16 H 14 O 4
##XUNITS=1/CM
##YUNITS=ABSORBANCE
##XFACTOR=1.0
##YFACTOR=0.000082193
##DELTAX=4.0
##FIRSTX=450.0
##LASTX=3966.0
##FIRSTY=0.011343
##MAXX=3966
##MINX=450
##MAXY=0.82193
##MINY=0
##NPOINTS=880
##XYDATA=(X++(Y..Y))
450.0 138 104 109 88 248 179 151 77 0 257
490.0 51 88 130 64 236 162 134 154 193 166
530.0 118 79 76 81 209 230 162 295 309 440
570.0 350 181 225 156 66 27 178 167 125 203
610.0 155 115 165 152 171 117 70 159 123 41
650.0 174 190 291 200 225 409 434 490 388 340
690.0 284 379 496 705 1073 1330 1212 976 798 587
730.0 493 554 688 698 1127 1743 2469 2874 2403 1572
770.0 964 551 397 307 323 322 303 260 312 352
810.0 415 517 558 540 549 524 469 417 228 203
850.0 204 178 128 117 114 135 123 154 146 153
890.0 119 132 152 147 170 158 125 142 115 117
930.0 163 174 167 179 269 378 356 435 558 577
970.0 554 468 331 230 190 178 234 288 458 504
1010.0 448 317 227 252 276 332 488 732 1130 1497
1050.0 1585 1411 1023 803 821 1084 1517 2171 2772 3012
1090.0 2841 2498 2231 1962 1781 1696 1750 2240 3203 3963
1130.0 4359 3997 3136 2229 1486 1024 828 801 830 800
1170.0 699 650 696 748 924 1032 1105 991 842 750
1210.0 702 791 899 1118 1400 1799 2380 3096 4029 4995
1250.0 5944 6706 6688 6134 5322 4947 5261 6139 7442 8541
1290.0 8587 7440 5392 3609 2401 1697 1291 1016 852 734
1330.0 607 525 449 394 343 315 303 281 250 256
1370.0 258 251 239 230 241 227 239 232 252 279
1410.0 287 318 343 426 665 1120 1767 2267 2350 2059
1450.0 1506 1016 647 536 575 601 667 631 520 394
1490.0 312 304 273 293 242 233 247 209 181 185
1530.0 161 162 113 109 143 172 168 153 228 314
1570.0 377 456 468 466 469 530 625 710 691 558
1610.0 411 283 245 235 249 276 260 257 252 223
1650.0 200 162 204 222 222 227 222 273 259 307
1690.0 428 514 615 715 857 1060 1247 1591 2064 2925
1730.0 4631 7257 9841 10000 8818 7790 5984 4189 2723 1963
1770.0 1488 1076 800 597 444 346 256 239 197 182
1810.0 182 187 194 203 193 170 161 145 123 119
1850.0 124 138 111 109 101 77 90 87 93 86
1890.0 78 93 105 121 132 126 137 150 185 229
1930.0 236 216 176 146 140 146 169 176 162 122
1970.0 82 69 55 56 61 52 56 58 54 61
2010.0 62 76 70 72 66 66 73 74 73 87
2050.0 85 89 92 92 92 95 90 95 90 94
2090.0 95 92 92 89 86 76 72 65 61 55
2130.0 49 46 47 40 34 29 33 33 38 33
2170.0 35 33 28 30 32 31 31 30 28 37
2210.0 35 34 38 35 38 31 39 37 39 42
2250.0 42 46 42 36 34 37 37 35 30 31
2290.0 32 31 31 34 31 32 38 37 44 48
2330.0 50 38 21 29 33 40 28 34 8 10
2370.0 30 24 36 36 30 23 33 34 28 34
2410.0 34 27 29 23 19 13 17 20 20 18
2450.0 19 13 17 12 19 18 9 21 19 20
2490.0 22 16 20 21 21 24 19 22 27 24
2530.0 28 22 28 34 37 37 36 36 38 36
2570.0 39 37 32 35 29 34 29 27 15 36
2610.0 28 29 26 20 15 15 21 15 15 18
2650.0 26 26 24 17 21 21 21 22 12 24
2690.0 20 17 23 12 18 20 17 24 26 23
2730.0 24 25 32 23 20 24 25 29 24 28
2770.0 29 30 27 20 25 31 27 30 33 32
2810.0 46 47 60 67 77 99 126 178 266 354
2850.0 356 284 208 154 139 148 155 166 165 172
2890.0 213 232 267 274 289 302 318 332 327 305
2930.0 306 313 354 426 582 905 1459 1988 1978 1421
2970.0 805 488 390 367 370 411 444 485 503 478
3010.0 464 464 498 556 639 680 625 539 469 430
3050.0 422 475 598 811 1104 1356 1432 1285 964 638
3090.0 424 320 272 248 234 215 176 149 130 115
3130.0 111 120 118 124 110 101 79 66 56 61
3170.0 57 58 58 51 42 36 36 44 39 39
3210.0 36 38 29 26 31 15 22 24 27 30
3250.0 37 24 27 27 24 24 30 18 16 31
3290.0 24 26 21 25 33 23 25 24 22 41
3330.0 24 31 38 48 31 23 25 23 32 34
3370.0 20 17 9 22 27 25 26 20 28 26
3410.0 31 42 33 31 23 39 48 47 49 35
3450.0 52 68 104 108 89 63 72 59 67 59
3490.0 70 60 51 50 35 35 37 25 31 47
3530.0 23 27 32 28 42 46 36 30 38 21
3570.0 46 34 32 42 10 27 19 46 44 50
3610.0 44 55 56 37 44 23 51 41 29 34
3650.0 44 35 66 23 29 29 36 47 59 50
3690.0 41 41 48 45 23 62 34 26 32 38
3730.0 40 13 48 8 15 25 26 38 77 44
3770.0 53 37 46 6 41 42 56 33 60 22
3810.0 54 55 62 8 11 30 36 81 20 18
3850.0 35 9 7 94 48 9 10 39 23 25
3890.0 10 41 32 87 34 50 98 12 9 9
3930.0 9 90 32 45 82 89 41 9 8 82
##END=
