##TITLE=Naphthalene, 2-nitro-
##JCAMP-DX=4.24
##DATA TYPE=INFRARED SPECTRUM
##ORIGIN=Sadtler Research Labs Under US-EPA Contract
##OWNER=NIST Standard Reference Data Program
##CAS REGISTRY NO=581-89-5
##MOLFORM=C 10 H 7 N O 2
##XUNITS=1/CM
##YUNITS=ABSORBANCE
##XFACTOR=1.0
##YFACTOR=0.000075516
##DELTAX=4.0
##FIRSTX=450.0
##LASTX=3966.0
##FIRSTY=0.119390
##MAXX=3966
##MINX=450
##MAXY=0.75516
##MINY=0
##NPOINTS=880
##XYDATA=(X++(Y..Y))
450.0 1581 694 578 661 1089 929 1079 1023 607 731
490.0 419 317 225 83 178 219 111 124 65 228
530.0 89 195 141 3 291 116 105 53 57 232
570.0 167 79 163 62 307 580 824 702 635 401
610.0 37 44 74 28 42 125 76 64 40 59
650.0 38 127 99 95 124 58 45 65 103 92
690.0 83 46 41 67 125 137 120 59 143 180
730.0 189 332 481 1011 1707 2250 3044 3428 3550 2941
770.0 2146 1438 962 623 539 743 1895 3283 3797 3670
810.0 2632 1762 1417 924 682 527 276 219 246 237
850.0 455 598 889 1000 979 638 507 479 674 981
890.0 1025 1106 1082 900 1043 1016 620 453 241 157
930.0 182 149 151 231 283 397 286 252 189 182
970.0 103 128 89 76 135 155 158 190 168 175
1010.0 157 229 276 262 200 143 94 80 91 100
1050.0 97 73 119 136 237 414 707 1152 1339 1280
1090.0 922 497 222 147 114 58 118 134 117 204
1130.0 307 346 417 408 406 462 422 443 296 155
1170.0 93 93 114 118 152 233 245 335 349 337
1210.0 264 179 208 246 316 438 449 457 399 252
1250.0 238 283 334 349 371 386 309 251 201 152
1290.0 161 231 222 265 329 470 743 1109 1685 2423
1330.0 3311 4592 6011 7839 9694 10000 9284 7253 5157 3988
1370.0 3092 2201 1487 1082 806 641 493 423 427 465
1410.0 480 478 468 464 387 429 465 589 653 581
1450.0 559 498 447 443 404 383 396 421 527 623
1490.0 895 1173 1665 2137 2267 2524 2466 2328 2488 2684
1530.0 3106 3730 4508 5765 6850 7386 7101 6355 4512 3003
1570.0 1907 1358 1191 1156 1214 1357 1513 1715 1836 1663
1610.0 1489 1208 919 717 626 611 567 530 378 307
1650.0 174 184 168 155 163 199 225 295 212 225
1690.0 174 175 142 141 147 140 173 115 89 106
1730.0 133 126 104 97 67 83 117 142 144 155
1770.0 179 151 138 92 109 114 131 142 127 166
1810.0 179 178 181 153 126 119 113 95 83 85
1850.0 59 44 56 52 33 52 31 44 47 28
1890.0 33 52 86 116 147 168 171 194 181 159
1930.0 150 118 119 123 126 164 160 134 98 55
1970.0 32 22 24 15 13 18 2 7 14 16
2010.0 15 5 14 13 17 15 24 24 20 17
2050.0 14 9 11 14 6 12 1 12 12 4
2090.0 15 23 14 10 11 9 0 11 4 1
2130.0 5 8 13 1 4 13 9 13 10 11
2170.0 9 6 11 7 2 6 2 2 10 5
2210.0 18 19 17 25 24 19 22 18 15 13
2250.0 15 15 15 10 20 28 37 44 57 65
2290.0 73 70 61 64 58 67 64 51 44 35
2330.0 39 49 51 48 56 65 70 65 63 28
2370.0 33 34 38 28 30 27 29 35 40 36
2410.0 47 48 56 61 67 74 69 67 60 47
2450.0 40 38 29 30 30 33 26 34 41 32
2490.0 37 35 30 34 34 36 44 41 42 36
2530.0 36 33 30 33 36 34 34 32 32 27
2570.0 35 38 34 42 42 42 52 30 36 35
2610.0 36 32 25 34 31 33 33 37 35 40
2650.0 40 44 49 49 48 47 53 61 66 62
2690.0 69 71 70 69 62 60 62 58 60 50
2730.0 47 46 40 45 46 41 46 46 56 50
2770.0 62 62 54 59 56 56 57 60 66 63
2810.0 61 63 64 82 69 82 95 91 107 122
2850.0 123 131 131 142 143 138 150 152 163 167
2890.0 171 182 175 167 149 139 123 115 111 108
2930.0 116 124 120 130 139 140 149 151 153 142
2970.0 145 144 134 141 130 132 132 121 117 131
3010.0 149 167 179 199 245 292 338 380 414 437
3050.0 525 719 1018 1434 1751 1863 1850 1604 1255 977
3090.0 783 615 452 306 180 127 111 85 85 74
3130.0 70 66 59 63 62 47 60 65 63 58
3170.0 57 57 55 65 73 64 56 49 52 65
3210.0 48 62 61 48 74 53 51 32 32 42
3250.0 51 54 41 44 50 37 53 38 42 44
3290.0 40 32 30 39 48 41 51 33 37 32
3330.0 20 39 47 37 27 12 27 25 41 39
3370.0 31 31 34 41 44 24 29 40 40 29
3410.0 29 46 25 16 41 34 44 31 45 44
3450.0 31 33 31 31 24 34 41 41 25 47
3490.0 22 22 28 14 20 26 38 33 40 6
3530.0 34 48 17 31 36 46 35 27 33 33
3570.0 28 10 30 14 40 46 27 4 56 30
3610.0 49 42 46 32 38 41 56 30 30 53
3650.0 46 36 53 58 35 51 54 78 45 58
3690.0 42 51 17 28 41 62 42 52 28 44
3730.0 34 45 48 52 86 35 59 30 11 24
3770.0 40 24 0 49 30 7 14 26 45 56
3810.0 30 36 60 64 35 41 14 56 63 49
3850.0 48 49 58 53 77 74 37 76 76 45
3890.0 2 22 81 28 53 73 82 67 37 54
3930.0 71 23 42 44 55 53 90 48 64 47
##END=
