##TITLE=Benzophenone, 2,3'-difluoro-,
##JCAMP-DX=4.24
##DATA TYPE=INFRARED SPECTRUM
##ORIGIN=Sadtler Research Labs Under US-EPA Contract
##OWNER=NIST Standard Reference Data Program
##CAS REGISTRY NO=58139-11-0
##MOLFORM=C 13 H 8 F 2 O
##XUNITS=1/CM
##YUNITS=ABSORBANCE
##XFACTOR=1.0
##YFACTOR=0.000079443
##DELTAX=4.0
##FIRSTX=450.0
##LASTX=3966.0
##FIRSTY=0.043932
##MAXX=3966
##MINX=450
##MAXY=0.79443
##MINY=0
##NPOINTS=880
##XYDATA=(X++(Y..Y))
450.0 553 488 507 371 187 35 9 107 229 406
490.0 362 378 309 424 514 615 643 707 853 726
530.0 545 535 679 636 525 420 416 230 175 196
570.0 198 241 399 283 397 294 268 288 278 340
610.0 384 484 414 408 697 1334 1836 1748 1203 631
650.0 320 331 297 394 557 785 827 789 758 831
690.0 904 861 763 731 883 955 1031 971 838 762
730.0 743 847 1004 1432 2555 4034 4801 4184 3039 2061
770.0 1432 974 781 649 747 911 1155 1355 1451 1625
810.0 1797 1718 1420 971 726 660 684 793 1357 2374
850.0 3007 2703 2105 2216 2528 2294 1792 1306 1138 1157
890.0 1136 1105 1017 767 587 439 406 392 433 417
930.0 400 371 404 473 507 495 502 661 995 1384
970.0 1445 1234 875 803 777 638 452 367 379 395
1010.0 361 363 365 355 337 347 369 371 339 319
1050.0 305 282 273 299 379 454 511 517 465 452
1090.0 566 676 835 882 823 757 781 1022 1385 1571
1130.0 1367 886 573 505 542 721 883 844 632 435
1170.0 408 408 420 482 579 835 1212 1707 2069 2178
1210.0 2015 1838 1781 2045 2620 3274 3448 2912 2236 1898
1250.0 1939 2343 3080 3809 4341 4737 4712 4379 4086 4919
1290.0 6815 9078 10000 8990 6671 4411 2519 1482 1044 853
1330.0 718 623 537 476 456 426 434 400 370 340
1370.0 321 338 326 355 369 372 362 357 371 423
1410.0 482 574 677 822 1016 1325 1769 2455 3192 3862
1450.0 4419 4683 4179 2788 1751 1605 2005 2593 3334 3657
1490.0 3380 2538 1793 1231 1042 854 711 636 606 531
1530.0 487 478 467 542 459 460 525 667 768 837
1570.0 1025 1262 1728 2348 3223 3926 3951 3375 2750 2777
1610.0 3269 3308 2633 1600 937 666 577 561 504 555
1650.0 560 748 665 744 848 1072 1445 2199 3380 4949
1690.0 5973 5982 4884 3439 2228 1533 1172 1013 819 725
1730.0 631 610 466 403 352 364 357 370 366 346
1770.0 339 325 262 276 287 312 355 335 342 310
1810.0 290 283 265 243 243 233 212 209 208 228
1850.0 206 199 200 194 200 249 230 236 239 228
1890.0 210 172 165 170 181 230 256 275 252 216
1930.0 197 214 237 264 299 282 248 195 166 159
1970.0 165 170 159 155 150 147 148 148 149 156
2010.0 156 143 143 129 136 141 152 154 152 142
2050.0 139 139 147 152 162 174 168 162 148 142
2090.0 136 138 140 144 136 130 123 115 124 131
2130.0 131 130 130 110 117 109 121 118 129 128
2170.0 128 122 108 102 120 126 126 118 118 98
2210.0 99 98 109 114 123 117 111 103 103 109
2250.0 122 126 127 123 110 98 109 106 119 122
2290.0 116 123 116 115 116 130 141 164 164 138
2330.0 123 119 118 146 149 110 122 108 107 119
2370.0 139 141 137 117 109 103 93 94 99 112
2410.0 112 116 115 100 101 105 99 102 105 102
2450.0 102 94 95 101 99 107 105 100 93 76
2490.0 65 72 84 89 89 84 77 52 57 70
2530.0 76 84 86 73 65 54 61 60 78 85
2570.0 89 83 82 77 78 77 91 87 86 82
2610.0 63 55 61 73 73 71 63 58 39 25
2650.0 36 53 68 65 44 38 30 31 43 53
2690.0 64 66 50 48 25 33 50 51 69 63
2730.0 49 43 42 38 49 46 69 53 37 29
2770.0 9 28 28 47 54 36 28 23 26 30
2810.0 37 57 59 49 28 17 22 29 43 66
2850.0 72 62 38 43 57 65 82 88 78 66
2890.0 41 35 55 63 74 87 66 65 36 41
2930.0 46 56 72 72 72 46 36 41 52 63
2970.0 74 80 55 44 39 37 53 77 84 91
3010.0 90 92 92 89 96 135 167 208 264 343
3050.0 384 386 374 389 436 525 615 787 957 1062
3090.0 1015 801 522 296 191 138 115 107 109 99
3130.0 87 69 36 40 37 52 82 87 83 58
3170.0 47 34 41 69 69 70 69 42 30 23
3210.0 38 57 70 77 65 37 14 22 31 54
3250.0 83 60 52 29 8 20 39 66 63 54
3290.0 34 37 33 37 49 68 78 65 52 39
3330.0 32 46 80 92 103 106 97 97 99 104
3370.0 125 131 119 93 75 57 58 64 80 88
3410.0 82 58 44 27 36 53 87 81 70 59
3450.0 35 13 20 63 68 78 77 41 26 24
3490.0 44 62 88 81 69 23 26 30 42 72
3530.0 89 68 50 56 38 39 58 84 87 78
3570.0 80 48 42 44 66 100 97 100 86 55
3610.0 71 71 90 115 107 131 84 55 61 84
3650.0 140 105 104 88 80 101 81 126 99 107
3690.0 150 108 73 54 67 100 127 112 122 119
3730.0 101 123 131 131 180 176 168 123 104 93
3770.0 112 113 135 142 122 115 92 108 149 149
3810.0 179 165 178 160 121 120 148 174 178 169
3850.0 167 189 108 107 152 178 190 178 170 136
3890.0 111 124 154 186 186 176 154 119 84 104
3930.0 149 169 178 177 142 114 0 8 8 8
##END=
