##TITLE=2-(4-Chloro-3,5-xylyloxy)-ethanol
##JCAMP-DX=4.24
##DATA TYPE=INFRARED SPECTRUM
##ORIGIN=Sadtler Research Labs Under US-EPA Contract
##OWNER=NIST Standard Reference Data Program
##CAS REGISTRY NO=5825-79-6
##MOLFORM=C 10 H 13 Cl O 2
##XUNITS=1/CM
##YUNITS=ABSORBANCE
##XFACTOR=1.0
##YFACTOR=0.000092352
##DELTAX=4.0
##FIRSTX=450.0
##LASTX=3966.0
##FIRSTY=0.013299
##MAXX=3966
##MINX=450
##MAXY=0.92352
##MINY=0
##NPOINTS=880
##XYDATA=(X++(Y..Y))
450.0 144 105 19 6 47 67 56 78 28 47
490.0 17 52 73 56 67 61 69 60 56 36
530.0 30 28 48 47 60 80 74 79 35 50
570.0 38 51 50 54 84 106 140 157 183 192
610.0 220 220 269 270 294 304 340 385 413 446
650.0 450 519 595 716 776 958 1018 945 725 485
690.0 358 360 357 350 272 210 135 104 79 53
730.0 37 22 14 0 4 0 10 0 10 16
770.0 16 26 26 41 47 60 66 76 74 79
810.0 117 149 190 263 359 466 537 589 662 804
850.0 1037 1345 1615 1636 1501 1298 1080 911 797 766
890.0 782 820 822 749 621 496 405 348 321 300
930.0 304 296 301 328 366 402 409 407 392 395
970.0 410 434 455 482 516 576 665 762 883 1012
1010.0 1156 1357 1633 1976 2493 3305 4608 6359 7639 7500
1050.0 6018 4360 3567 3421 3451 3377 3139 2858 2681 2552
1090.0 2367 2106 1808 1522 1274 1053 893 773 712 683
1130.0 705 779 917 1176 1684 2692 4472 6860 8993 10000
1170.0 9234 7187 4815 3096 2253 1808 1471 1203 1032 957
1210.0 899 835 754 691 662 678 735 807 861 882
1250.0 872 862 865 898 945 975 999 1024 1087 1224
1290.0 1463 1836 2439 3393 4776 6414 7713 8029 7038 5220
1330.0 3479 2359 1816 1567 1404 1253 1113 1026 1023 1094
1370.0 1197 1250 1252 1201 1126 1102 1043 1042 1128 1339
1410.0 1711 2272 2733 2895 2719 2452 2299 2237 2277 2360
1450.0 2588 3013 3574 3996 4238 4531 4502 3996 2898 1891
1490.0 1269 969 796 702 663 640 629 602 575 589
1530.0 594 620 645 665 721 788 860 922 1083 1272
1570.0 1558 1955 2508 3130 3755 4293 4493 4347 3798 3071
1610.0 2253 1534 986 647 440 339 263 213 194 174
1650.0 145 148 168 159 166 161 148 156 137 132
1690.0 144 152 141 162 182 208 206 191 190 183
1730.0 166 144 144 136 132 128 151 139 137 132
1770.0 122 97 94 70 48 24 19 19 13 24
1810.0 19 20 20 18 11 12 14 23 15 15
1850.0 16 19 15 14 7 8 14 16 20 18
1890.0 18 15 18 19 13 10 12 13 9 16
1930.0 23 29 29 27 30 32 36 39 38 31
1970.0 30 31 27 27 24 21 19 23 19 17
2010.0 15 14 13 13 15 18 18 13 15 13
2050.0 10 7 8 7 6 13 17 21 25 25
2090.0 24 28 31 31 33 35 40 46 46 47
2130.0 48 44 38 33 33 31 30 31 32 34
2170.0 34 33 34 33 30 24 19 14 7 3
2210.0 1 0 0 1 1 3 4 5 6 11
2250.0 13 18 21 19 25 24 27 27 32 33
2290.0 35 35 38 44 42 53 54 58 65 71
2330.0 75 74 70 73 84 59 63 42 63 59
2370.0 62 55 52 48 38 26 23 24 24 28
2410.0 28 29 30 31 30 32 38 38 39 40
2450.0 48 53 58 67 68 71 72 71 67 63
2490.0 62 53 45 38 33 25 25 25 22 26
2530.0 26 25 27 27 34 32 32 34 32 30
2570.0 28 30 27 33 34 34 32 28 29 31
2610.0 29 30 30 37 43 40 43 41 43 44
2650.0 47 47 47 51 55 62 65 72 73 79
2690.0 83 84 84 90 90 92 103 109 117 130
2730.0 146 155 172 182 194 201 191 170 151 137
2770.0 135 140 143 150 161 165 171 184 193 203
2810.0 220 232 252 269 298 330 366 418 478 563
2850.0 677 837 1036 1259 1460 1638 1779 1897 1980 1982
2890.0 1901 1788 1711 1692 1744 1866 2068 2343 2734 3230
2930.0 3746 4155 4315 4164 3811 3387 3096 3004 3031 3030
2970.0 2863 2575 2261 2012 1798 1578 1331 1066 835 669
3010.0 559 490 446 407 385 384 385 393 427 463
3050.0 512 564 601 604 581 543 491 437 364 288
3090.0 226 187 151 136 121 118 108 91 80 76
3130.0 72 64 55 47 38 37 34 31 23 28
3170.0 24 21 18 16 17 18 21 20 16 16
3210.0 14 16 15 13 13 12 6 12 5 8
3250.0 3 11 7 7 6 11 11 13 12 9
3290.0 12 13 9 4 13 12 14 8 13 9
3330.0 14 12 13 11 14 14 10 9 6 11
3370.0 9 9 3 10 5 5 4 0 7 13
3410.0 3 10 4 13 16 17 14 18 16 19
3450.0 14 14 11 13 6 13 19 14 24 24
3490.0 25 24 29 17 17 16 17 15 16 22
3530.0 23 22 20 26 34 24 31 28 35 40
3570.0 40 35 25 25 34 54 49 55 62 75
3610.0 119 135 155 193 231 336 464 654 772 768
3650.0 639 488 436 401 418 414 390 369 315 259
3690.0 204 145 92 81 58 56 48 43 50 40
3730.0 34 54 43 44 40 28 37 24 28 16
3770.0 9 15 4 6 13 20 14 14 19 7
3810.0 0 4 11 7 1 0 16 16 15 8
3850.0 1 0 0 0 0 3 0 15 0 0
3890.0 1 9 0 3 1 12 0 0 17 0
3930.0 6 18 13 0 5 13 3 8 14 13
##END=
