##TITLE=Benzenamine, 2-bromo-4-methyl-
##JCAMP-DX=4.24
##DATA TYPE=INFRARED SPECTRUM
##ORIGIN=Sadtler Research Labs Under US-EPA Contract
##OWNER=NIST Standard Reference Data Program
##CAS REGISTRY NO=583-68-6
##MOLFORM=C 7 H 8 Br N
##XUNITS=1/CM
##YUNITS=ABSORBANCE
##XFACTOR=1.0
##YFACTOR=0.000061313
##DELTAX=4.0
##FIRSTX=450.0
##LASTX=3966.0
##FIRSTY=0.040957
##MAXX=3966
##MINX=450
##MAXY=0.61313
##MINY=0
##NPOINTS=880
##XYDATA=(X++(Y..Y))
450.0 668 735 704 651 591 541 403 360 299 287
490.0 271 251 287 212 300 266 255 277 271 364
530.0 410 589 695 865 1159 970 705 560 448 415
570.0 332 296 262 156 160 175 185 153 215 208
610.0 231 266 318 436 552 775 959 1116 1248 1252
650.0 1281 1318 1459 1707 1991 2397 2458 2310 2047 1595
690.0 1463 1499 1631 1690 1674 1527 1319 1128 962 871
730.0 765 715 675 662 663 675 735 813 926 991
770.0 900 760 553 438 535 817 1320 1866 2504 3050
810.0 2623 2107 1583 1126 778 576 438 366 362 389
850.0 561 757 905 1037 1204 1270 1025 918 684 353
890.0 172 81 57 27 18 17 3 23 19 48
930.0 61 69 80 54 64 63 71 93 123 152
970.0 177 247 344 454 551 580 538 406 266 135
1010.0 85 98 117 181 289 566 1093 1417 1587 1573
1050.0 1018 616 466 422 420 477 546 570 546 476
1090.0 384 299 281 257 241 225 211 215 221 236
1130.0 260 264 317 401 622 989 1057 1000 965 547
1170.0 257 131 83 89 164 215 304 407 574 739
1210.0 776 732 542 310 224 196 206 213 267 349
1250.0 485 675 749 767 708 571 488 620 1088 1859
1290.0 2661 3075 3222 2993 2229 1780 1408 759 353 160
1330.0 92 54 37 56 99 116 113 107 84 94
1370.0 96 92 111 135 157 188 235 299 409 537
1410.0 620 705 630 606 495 418 326 292 249 233
1450.0 244 269 266 332 432 558 691 833 1095 1511
1490.0 2367 3982 6214 8597 10000 9446 7347 4440 2282 1185
1530.0 735 597 518 541 553 609 610 620 690 737
1570.0 800 796 802 764 834 992 1328 1591 1794 2039
1610.0 2348 3038 4007 5104 5731 5649 5048 3651 2415 1613
1650.0 1000 755 511 417 335 260 186 183 110 107
1690.0 99 105 52 76 59 96 100 103 193 254
1730.0 261 236 231 205 137 119 117 111 88 71
1770.0 51 19 32 12 28 27 45 65 52 77
1810.0 54 20 32 9 13 4 9 26 7 22
1850.0 42 96 141 190 204 177 161 98 59 45
1890.0 24 28 25 27 28 31 38 37 36 42
1930.0 49 51 51 52 48 62 59 62 67 50
1970.0 63 57 59 59 47 42 35 43 37 33
2010.0 33 18 23 11 23 21 27 29 27 42
2050.0 48 51 62 46 53 42 41 42 34 41
2090.0 32 35 24 22 25 16 20 15 19 21
2130.0 12 29 20 30 28 33 35 34 37 39
2170.0 39 39 31 40 31 32 24 25 20 15
2210.0 21 17 22 16 17 17 9 25 17 26
2250.0 25 19 26 17 27 22 18 21 18 27
2290.0 28 26 36 36 51 51 59 60 57 63
2330.0 41 67 53 57 61 52 94 64 76 27
2370.0 26 39 25 45 37 38 33 30 32 15
2410.0 24 15 15 13 8 17 8 12 12 6
2450.0 16 9 18 17 18 18 2 20 10 14
2490.0 19 20 26 19 28 21 29 29 21 29
2530.0 22 35 43 45 63 62 79 63 64 56
2570.0 39 48 32 45 56 69 97 94 93 85
2610.0 66 60 42 44 27 36 36 35 45 39
2650.0 53 48 50 53 36 54 38 37 38 32
2690.0 37 33 38 35 41 43 31 47 39 47
2730.0 55 65 98 115 140 129 118 84 60 52
2770.0 44 48 42 49 57 59 70 65 76 76
2810.0 72 77 73 81 85 99 124 132 166 191
2850.0 253 320 422 576 757 942 1074 1119 1096 1021
2890.0 939 855 831 807 804 861 948 1117 1345 1655
2930.0 1949 2072 1997 1724 1366 1001 765 633 549 480
2970.0 418 400 425 483 581 651 732 793 851 934
3010.0 976 1073 1178 1374 1596 1647 1614 1483 1250 1132
3050.0 1184 1229 1170 1060 845 665 582 510 477 399
3090.0 325 247 191 171 137 145 121 114 96 64
3130.0 74 44 58 47 17 33 28 33 26 42
3170.0 34 50 50 42 70 75 64 79 92 105
3210.0 83 90 83 57 63 49 56 36 30 29
3250.0 24 34 21 18 25 17 24 1 19 6
3290.0 13 15 8 22 0 20 5 0 33 1
3330.0 17 16 11 29 21 54 29 41 51 57
3370.0 90 101 142 184 294 474 719 1016 1168 1285
3410.0 1282 1135 919 681 446 207 135 93 79 103
3450.0 89 102 130 159 236 266 384 518 694 912
3490.0 1057 1121 1127 1103 1049 1007 888 724 539 307
3530.0 193 142 77 76 43 53 47 23 42 33
3570.0 32 34 42 32 20 58 21 40 30 38
3610.0 35 27 46 27 27 47 1 30 6 45
3650.0 37 22 33 24 47 55 35 50 15 29
3690.0 16 33 28 22 43 38 48 8 53 46
3730.0 23 49 46 53 67 45 40 21 41 17
3770.0 18 3 3 17 9 32 25 33 42 34
3810.0 50 38 57 69 49 70 92 111 94 122
3850.0 130 108 98 84 75 60 45 60 54 72
3890.0 32 48 59 67 65 64 77 73 96 106
3930.0 99 105 100 119 123 121 115 86 80 62
##END=
