##TITLE=Fenipentol
##JCAMP-DX=4.24
##DATA TYPE=INFRARED SPECTRUM
##ORIGIN=Sadtler Research Labs Under US-EPA Contract
##OWNER=NIST Standard Reference Data Program
##CAS REGISTRY NO=583-03-9
##MOLFORM=C 11 H 16 O
##XUNITS=1/CM
##YUNITS=ABSORBANCE
##XFACTOR=1.0
##YFACTOR=0.000065533
##DELTAX=4.0
##FIRSTX=450.0
##LASTX=3966.0
##FIRSTY=0.019267
##MAXX=3966
##MINX=450
##MAXY=0.65533
##MINY=0
##NPOINTS=880
##XYDATA=(X++(Y..Y))
450.0 294 116 8 31 49 14 54 51 77 55
490.0 106 118 132 162 156 191 231 277 332 399
530.0 472 551 695 870 960 950 811 548 357 227
570.0 129 92 58 67 36 69 91 134 185 225
610.0 204 207 254 358 406 328 201 107 60 70
650.0 129 208 274 379 410 526 580 617 894 1372
690.0 2520 3941 5150 5036 4064 2485 1575 1116 949 990
730.0 1067 1185 1328 1530 1783 2095 2263 2269 2039 1694
770.0 1280 921 641 473 335 244 159 94 79 69
810.0 89 87 83 75 68 42 47 41 42 48
850.0 63 77 100 117 143 161 172 217 257 296
890.0 364 439 527 619 688 692 620 487 354 273
930.0 240 259 308 362 393 408 421 458 518 594
970.0 680 771 877 989 1134 1328 1564 1871 2220 2535
1010.0 2763 2906 3021 3238 3489 3613 3600 3364 3035 2673
1050.0 2290 1938 1676 1534 1451 1379 1276 1104 925 785
1090.0 716 723 776 861 930 963 943 883 778 644
1130.0 529 433 381 362 374 411 468 547 641 746
1170.0 870 1022 1132 1171 1158 1113 1118 1165 1183 1174
1210.0 1125 1075 1025 1001 981 975 966 968 985 1004
1250.0 1057 1127 1203 1280 1379 1456 1488 1496 1491 1460
1290.0 1422 1414 1431 1452 1423 1355 1260 1200 1197 1214
1330.0 1211 1182 1157 1160 1204 1262 1333 1391 1483 1593
1370.0 1704 1814 1904 1923 1821 1609 1315 1039 851 711
1410.0 622 560 531 521 532 575 672 827 1060 1378
1450.0 1728 1993 2053 1926 1695 1441 1182 957 820 858
1490.0 1051 1160 1082 804 467 264 189 148 142 135
1530.0 138 139 139 121 96 78 58 52 51 47
1570.0 52 70 97 125 162 219 290 415 490 483
1610.0 377 228 117 59 45 35 34 21 18 7
1650.0 10 26 35 34 40 36 32 28 43 81
1690.0 144 241 352 409 402 344 247 153 104 74
1730.0 69 93 100 106 107 105 97 75 55 50
1770.0 49 50 43 47 64 99 162 220 243 211
1810.0 152 98 74 49 31 13 7 0 2 6
1850.0 14 31 49 75 101 127 146 157 161 162
1890.0 149 120 83 54 35 27 28 35 43 65
1930.0 92 135 179 218 233 232 222 207 172 124
1970.0 77 45 31 25 26 24 23 23 22 22
2010.0 20 22 22 28 28 31 27 28 27 24
2050.0 19 17 14 14 8 7 11 11 8 6
2090.0 8 5 3 7 5 3 8 2 2 2
2130.0 0 6 7 3 5 4 3 7 9 4
2170.0 7 8 10 9 9 8 9 8 9 8
2210.0 8 9 10 13 14 11 13 18 19 20
2250.0 19 18 20 18 19 20 18 19 22 26
2290.0 27 28 26 29 36 51 62 61 58 50
2330.0 47 52 55 40 53 50 34 28 28 35
2370.0 36 46 56 52 49 43 40 40 39 35
2410.0 36 37 33 33 31 29 31 32 31 38
2450.0 36 32 29 30 32 29 29 28 31 33
2490.0 33 27 29 31 31 33 36 42 44 39
2530.0 40 42 46 50 59 59 62 66 66 71
2570.0 76 78 77 82 86 87 90 95 94 100
2610.0 99 97 102 98 102 109 111 110 111 111
2650.0 110 116 116 121 124 128 133 137 138 140
2690.0 139 136 141 140 140 140 141 147 148 157
2730.0 166 179 194 206 211 210 204 199 194 202
2770.0 208 215 235 239 264 285 312 343 367 399
2810.0 431 460 500 543 594 655 746 856 1017 1231
2850.0 1528 1928 2490 3234 4089 4803 5245 5463 5388 5082
2890.0 4540 3904 3460 3332 3449 3796 4309 4948 5644 6405
2930.0 7348 8434 9520 10000 9582 8361 7095 6568 7047 8155
2970.0 8520 7553 5597 3577 2300 1667 1321 1149 1061 1043
3010.0 1047 1096 1223 1477 1925 2463 2867 2933 2654 2221
3050.0 1839 1591 1563 1792 2342 2934 3124 2906 2377 1927
3090.0 1712 1528 1306 1074 883 730 597 470 364 278
3130.0 211 172 141 124 115 113 109 105 109 110
3170.0 113 105 88 85 78 72 61 60 60 52
3210.0 48 39 31 28 26 25 28 22 17 18
3250.0 19 22 11 12 16 9 11 8 12 13
3290.0 13 6 7 9 11 10 13 14 16 15
3330.0 12 15 19 25 27 26 28 25 29 37
3370.0 36 44 46 41 44 44 44 46 49 42
3410.0 47 40 48 38 41 37 34 39 44 38
3450.0 40 38 43 37 38 28 31 20 25 27
3490.0 36 30 27 19 20 24 30 27 21 7
3530.0 16 16 14 12 15 16 22 18 16 12
3570.0 21 21 33 36 26 40 42 30 33 48
3610.0 73 91 105 148 186 289 490 836 1279 1578
3650.0 1649 1443 1093 755 501 314 206 141 123 112
3690.0 84 76 72 54 52 42 40 42 41 32
3730.0 21 18 20 25 26 11 20 31 41 45
3770.0 27 31 26 25 27 46 37 24 17 24
3810.0 36 47 25 32 53 46 47 31 23 38
3850.0 44 39 54 62 45 43 35 49 50 50
3890.0 48 44 37 43 41 56 51 41 46 34
3930.0 33 29 32 30 24 23 29 27 27 15
##END=
