##TITLE=Benzene, 1-bromo-2-iodo-
##JCAMP-DX=4.24
##DATA TYPE=INFRARED SPECTRUM
##ORIGIN=Sadtler Research Labs Under US-EPA Contract
##OWNER=NIST Standard Reference Data Program
##CAS REGISTRY NO=583-55-1
##MOLFORM=C 6 H 4 Br I
##XUNITS=1/CM
##YUNITS=ABSORBANCE
##XFACTOR=1.0
##YFACTOR=0.000066824
##DELTAX=4.0
##FIRSTX=450.0
##LASTX=3966.0
##FIRSTY=0.032276
##MAXX=3966
##MINX=450
##MAXY=0.66824
##MINY=0
##NPOINTS=880
##XYDATA=(X++(Y..Y))
450.0 483 441 132 435 385 153 286 211 25 2
490.0 200 64 133 84 319 98 111 235 145 365
530.0 333 395 173 466 452 77 128 344 93 209
570.0 346 233 274 320 413 414 366 327 364 172
610.0 299 333 199 319 405 1001 1566 1600 1687 914
650.0 360 327 275 286 328 286 470 546 959 1297
690.0 1677 1946 1938 1586 1099 718 501 328 482 607
730.0 1683 3940 6083 10000 9255 6101 3473 1848 521 419
770.0 500 262 277 196 172 396 287 310 272 333
810.0 193 151 189 249 303 256 207 236 330 301
850.0 225 311 261 154 177 225 105 165 207 231
890.0 269 167 204 157 161 151 196 223 180 164
930.0 163 266 262 343 349 310 212 205 266 351
970.0 418 475 508 377 348 619 1427 3303 5509 6157
1010.0 5612 3328 1212 807 1209 1407 1548 1294 819 536
1050.0 463 406 319 233 214 257 293 390 647 1027
1090.0 1592 2029 2204 1952 1530 1080 675 396 430 398
1130.0 326 310 287 243 249 201 206 227 255 225
1170.0 204 183 188 117 72 241 122 169 142 151
1210.0 240 203 219 230 294 317 257 263 287 548
1250.0 951 1087 1070 784 362 220 187 190 208 200
1290.0 149 174 192 214 169 132 154 150 192 150
1330.0 199 260 334 341 286 254 205 142 207 188
1370.0 249 291 304 341 389 413 443 382 406 412
1410.0 616 1160 1774 2561 3120 3556 3979 4321 4597 4440
1450.0 3788 3067 2606 2136 1641 1293 885 532 324 351
1490.0 312 323 261 254 238 270 204 230 232 237
1530.0 175 232 235 349 380 539 888 1243 1693 1630
1570.0 1448 1095 668 426 422 534 675 608 549 372
1610.0 271 205 230 191 176 189 145 213 199 160
1650.0 231 217 249 179 240 266 263 319 309 365
1690.0 263 213 224 254 223 205 187 206 206 185
1730.0 211 192 227 192 142 146 158 154 146 148
1770.0 174 212 230 284 355 397 360 320 207 203
1810.0 179 187 240 245 279 251 212 174 135 169
1850.0 137 154 159 154 181 191 228 230 236 214
1890.0 191 191 227 280 375 431 437 381 290 227
1930.0 208 237 275 326 358 350 296 236 182 161
1970.0 154 166 163 164 164 157 154 156 163 172
2010.0 183 175 167 158 146 151 143 145 148 150
2050.0 146 144 148 153 146 144 143 146 144 152
2090.0 150 152 150 146 143 141 137 144 145 148
2130.0 143 138 138 135 136 129 121 122 127 130
2170.0 125 128 124 124 122 125 121 125 129 129
2210.0 127 126 133 140 144 137 144 145 153 145
2250.0 151 153 152 152 150 153 144 143 154 137
2290.0 124 100 69 63 34 1 35 21 34 69
2330.0 56 90 61 124 102 87 1 53 72 86
2370.0 148 111 150 118 116 135 142 145 151 146
2410.0 165 167 176 172 153 151 137 149 140 134
2450.0 148 142 137 136 127 128 130 126 132 134
2490.0 135 140 157 159 172 184 183 189 175 157
2530.0 144 133 136 137 136 151 156 172 176 184
2570.0 188 168 143 130 117 127 126 124 109 108
2610.0 112 108 106 112 113 104 106 112 105 102
2650.0 110 109 116 116 125 122 119 127 132 136
2690.0 142 142 137 130 125 121 118 121 125 125
2730.0 124 127 120 117 121 118 101 105 112 119
2770.0 119 111 116 119 118 116 119 116 109 112
2810.0 121 120 112 118 118 111 100 110 113 112
2850.0 124 116 110 108 117 113 104 100 94 100
2890.0 94 97 86 94 86 96 95 103 105 98
2930.0 101 113 111 109 118 121 117 117 151 143
2970.0 144 160 157 145 134 135 119 121 116 106
3010.0 103 111 114 106 108 106 106 121 144 187
3050.0 308 530 944 1548 2084 2208 1938 1498 984 712
3090.0 588 388 237 179 189 214 254 303 364 395
3130.0 370 302 199 122 112 102 89 90 95 96
3170.0 97 94 80 92 90 90 92 90 85 88
3210.0 89 84 82 98 82 74 90 86 82 80
3250.0 86 88 80 80 89 78 76 88 76 84
3290.0 65 66 74 85 74 79 60 60 82 73
3330.0 85 61 68 61 60 63 76 62 84 72
3370.0 69 68 70 65 61 58 63 49 58 68
3410.0 57 55 57 55 78 60 66 79 64 49
3450.0 68 82 60 71 73 82 68 58 54 65
3490.0 66 81 69 65 62 61 71 56 54 43
3530.0 74 56 51 63 45 47 66 48 48 30
3570.0 35 42 57 41 39 43 47 14 68 25
3610.0 51 42 16 71 23 77 56 38 24 42
3650.0 16 100 0 60 24 46 90 56 45 2
3690.0 62 48 33 62 26 46 74 21 57 47
3730.0 66 66 34 56 42 128 31 86 19 31
3770.0 42 29 14 26 29 8 2 33 2 92
3810.0 6 63 1 60 23 13 45 10 14 26
3850.0 2 85 95 9 10 40 58 23 23 48
3890.0 24 10 64 17 61 26 32 54 41 35
3930.0 3 29 22 18 42 1 64 10 9 1
##END=
