##TITLE=Phenol, 2,5-dichloro-
##JCAMP-DX=4.24
##DATA TYPE=INFRARED SPECTRUM
##ORIGIN=Sadtler Research Labs Under US-EPA Contract
##OWNER=NIST Standard Reference Data Program
##CAS REGISTRY NO=583-78-8
##MOLFORM=C 6 H 4 Cl 2 O
##XUNITS=1/CM
##YUNITS=ABSORBANCE
##XFACTOR=1.0
##YFACTOR=0.000022189
##DELTAX=4.0
##FIRSTX=450.0
##LASTX=3966.0
##FIRSTY=0.000000
##MAXX=3966
##MINX=450
##MAXY=0.22189
##MINY=0
##NPOINTS=880
##XYDATA=(X++(Y..Y))
450.0 0 302 340 633 472 180 255 349 343 343
490.0 253 297 233 269 374 310 249 190 160 241
530.0 389 379 403 393 379 494 568 626 652 847
570.0 1448 2406 2901 2975 2802 1729 916 847 712 602
610.0 452 362 298 251 311 255 309 260 344 430
650.0 460 485 485 472 265 854 1030 492 431 463
690.0 469 484 502 664 602 642 610 522 485 424
730.0 404 396 362 420 376 341 355 319 294 357
770.0 442 640 895 1265 1749 1956 2499 2637 1873 1567
810.0 1143 743 544 328 324 291 345 405 542 659
850.0 946 1176 1563 1839 1454 1126 1084 870 848 949
890.0 1252 1940 3180 4640 5092 4915 3951 2067 900 616
930.0 476 342 238 228 166 174 190 197 218 240
970.0 241 238 243 234 281 254 269 278 279 279
1010.0 290 325 367 499 615 717 775 947 1401 2167
1050.0 2545 2681 2392 1374 885 1030 1910 3838 4852 5201
1090.0 5038 3089 1742 1414 1086 881 733 877 1224 1559
1130.0 1584 1535 1172 734 670 623 752 869 1050 1187
1170.0 1457 1780 2382 3407 4861 6469 5894 6188 6278 4082
1210.0 2520 1517 873 686 599 677 761 1008 1225 1589
1250.0 1611 1578 1719 1395 1110 999 1043 1214 1555 1949
1290.0 2698 3814 5037 5696 5469 5077 3777 2140 1261 751
1330.0 484 342 353 312 243 252 267 289 314 332
1370.0 360 399 434 433 464 472 513 576 601 603
1410.0 613 630 695 724 894 1062 1291 1785 2363 2513
1450.0 2491 2395 2184 2410 3816 6425 9072 10000 9566 8021
1490.0 4513 2415 1563 997 766 735 872 762 677 561
1530.0 445 368 259 392 434 561 683 983 1315 1903
1570.0 2532 3298 4081 4825 5338 5406 4905 4151 3086 2210
1610.0 1379 740 542 332 329 233 272 210 267 204
1650.0 306 149 270 274 228 217 233 194 293 194
1690.0 263 243 246 242 306 317 371 404 364 346
1730.0 325 295 195 259 248 275 237 242 213 212
1770.0 212 174 215 215 260 238 252 236 254 208
1810.0 200 205 188 179 170 191 171 199 207 247
1850.0 269 274 302 303 285 272 208 189 177 169
1890.0 169 172 154 157 153 160 162 157 177 164
1930.0 160 161 168 173 174 170 161 165 170 185
1970.0 184 176 180 181 177 194 190 172 169 169
2010.0 170 161 168 147 157 159 162 168 164 154
2050.0 166 166 165 169 172 169 171 166 167 180
2090.0 173 177 182 179 183 184 178 174 182 175
2130.0 175 169 179 176 183 183 177 190 191 196
2170.0 198 204 211 225 212 204 198 191 189 187
2210.0 174 192 176 174 166 166 164 177 179 173
2250.0 168 176 174 182 193 201 204 215 224 223
2290.0 235 245 254 270 263 277 285 290 300 323
2330.0 285 304 324 310 323 295 335 295 282 252
2370.0 228 202 235 252 236 211 199 188 182 182
2410.0 175 175 175 172 178 187 190 189 186 180
2450.0 190 195 214 223 247 266 281 288 266 251
2490.0 254 247 245 237 230 216 219 218 224 224
2530.0 223 227 232 210 219 232 231 220 218 214
2570.0 201 214 206 192 190 199 180 180 180 181
2610.0 181 180 187 191 185 198 206 198 196 178
2650.0 198 208 224 230 214 222 215 213 212 209
2690.0 208 201 197 198 209 213 221 238 223 223
2730.0 243 240 240 241 233 224 220 231 221 218
2770.0 218 219 224 226 198 196 191 200 223 202
2810.0 196 194 215 204 188 205 204 202 209 213
2850.0 221 219 229 233 199 213 205 202 204 203
2890.0 182 212 209 181 190 203 211 216 207 207
2930.0 212 197 211 211 181 165 180 180 190 201
2970.0 193 189 209 204 199 200 199 202 208 216
3010.0 218 231 251 259 267 273 277 295 316 316
3050.0 316 324 317 307 324 354 369 376 412 396
3090.0 375 359 317 322 293 275 266 242 228 222
3130.0 223 191 202 192 209 201 205 217 238 222
3170.0 241 224 213 207 208 225 226 215 224 212
3210.0 188 203 188 206 200 206 212 218 211 211
3250.0 212 183 199 191 205 212 208 174 203 192
3290.0 187 201 258 246 250 258 231 223 220 193
3330.0 172 202 185 185 208 193 202 215 222 213
3370.0 223 194 188 193 193 169 186 211 196 173
3410.0 167 168 186 195 190 188 179 182 204 220
3450.0 171 205 207 193 205 189 211 210 229 240
3490.0 182 182 201 251 235 169 200 210 235 277
3530.0 267 269 267 283 376 372 408 742 1438 3488
3570.0 6092 7609 7783 6256 3914 1572 683 445 314 320
3610.0 375 345 281 277 306 300 367 330 427 492
3650.0 513 486 457 397 332 335 254 217 242 213
3690.0 253 225 218 189 258 232 259 204 226 299
3730.0 208 197 313 183 211 160 187 220 221 164
3770.0 180 195 179 185 200 208 207 251 201 165
3810.0 163 185 216 223 184 197 254 234 293 288
3850.0 293 275 256 246 242 236 257 295 296 235
3890.0 245 239 298 298 327 241 238 245 187 288
3930.0 264 303 213 256 266 232 180 275 280 278
##END=
