##TITLE=Benzene, 1-bromo-2-ethoxy-
##JCAMP-DX=4.24
##DATA TYPE=INFRARED SPECTRUM
##ORIGIN=Sadtler Research Labs Under US-EPA Contract
##OWNER=NIST Standard Reference Data Program
##CAS REGISTRY NO=583-19-7
##MOLFORM=C 8 H 9 Br O
##XUNITS=1/CM
##YUNITS=ABSORBANCE
##XFACTOR=1.0
##YFACTOR=0.000137170
##DELTAX=4.0
##FIRSTX=450.0
##LASTX=3966.0
##FIRSTY=0.023456
##MAXX=3966
##MINX=450
##MAXY=1.3717
##MINY=0
##NPOINTS=880
##XYDATA=(X++(Y..Y))
450.0 171 211 167 176 164 137 89 134 96 92
490.0 87 64 82 80 64 72 84 69 85 104
530.0 120 115 116 106 96 95 79 79 89 89
570.0 81 122 156 180 205 241 266 247 194 116
610.0 48 24 4 0 2 14 19 63 135 284
650.0 536 816 1039 1124 1054 752 586 399 231 137
690.0 111 110 143 198 317 465 620 684 635 644
730.0 876 1554 2613 3909 5685 4906 3604 2273 1208 621
770.0 385 314 281 265 265 273 297 314 325 324
810.0 293 245 187 137 114 95 83 82 85 88
850.0 93 93 88 80 77 87 96 111 126 153
890.0 206 308 452 614 751 855 905 919 941 954
930.0 866 731 519 314 191 131 93 75 68 67
970.0 70 77 88 101 120 148 189 242 312 416
1010.0 574 836 1265 2020 3314 4690 5407 5614 5144 4837
1050.0 5200 5641 5508 4582 3286 2035 1242 933 902 1030
1090.0 1200 1266 1227 1139 1114 1192 1315 1505 1683 1799
1130.0 1711 1397 953 544 373 392 502 572 558 480
1170.0 348 237 178 146 134 133 142 165 203 266
1210.0 374 539 806 1239 1932 2985 4399 5977 7292 8050
1250.0 7960 7287 6571 5849 5650 5852 5881 5627 5151 4579
1290.0 4042 3612 3237 2684 2039 1560 1094 698 438 297
1330.0 222 181 180 160 143 155 185 252 351 431
1370.0 492 600 769 1091 1561 2021 2239 2102 1685 1159
1410.0 784 574 538 480 523 665 1090 1787 2344 2466
1450.0 2326 1852 1740 2406 4162 7007 9337 10000 9307 6603
1490.0 4311 2903 1872 1204 890 655 452 341 293 226
1530.0 217 198 219 252 237 239 309 445 558 752
1570.0 1065 1417 1869 2473 3069 3370 3084 2364 1398 643
1610.0 315 189 167 115 127 83 103 96 72 74
1650.0 105 103 64 66 82 97 121 79 106 103
1690.0 60 42 87 75 60 35 58 99 52 35
1730.0 50 83 43 44 65 89 79 87 90 77
1770.0 88 86 49 52 48 55 64 56 60 39
1810.0 38 36 23 28 30 41 30 28 56 81
1850.0 75 66 64 54 54 62 53 74 115 152
1890.0 171 164 130 99 79 69 77 105 149 163
1930.0 166 148 112 88 64 44 40 40 38 43
1970.0 38 34 31 28 27 35 33 26 25 27
2010.0 31 38 45 43 43 47 50 61 69 79
2050.0 86 92 94 99 105 106 108 107 100 91
2090.0 81 67 56 46 37 30 26 24 22 22
2130.0 21 22 19 18 18 18 17 15 15 17
2170.0 15 12 12 7 7 5 7 8 7 7
2210.0 8 4 2 1 0 2 1 5 11 13
2250.0 16 19 21 18 19 17 16 17 20 25
2290.0 31 34 35 34 35 37 34 37 31 27
2330.0 21 15 6 4 3 8 4 14 5 9
2370.0 10 17 23 34 41 43 45 46 46 47
2410.0 44 43 43 41 40 39 38 37 36 33
2450.0 32 33 36 40 44 49 55 60 63 63
2490.0 67 69 72 74 78 80 86 93 106 115
2530.0 124 136 145 148 147 141 132 120 109 102
2570.0 91 81 72 59 50 43 39 40 39 41
2610.0 44 44 43 40 35 32 28 24 22 20
2650.0 20 20 19 21 21 21 22 21 24 28
2690.0 31 29 31 32 35 40 48 57 74 90
2730.0 102 109 109 109 109 109 105 101 97 98
2770.0 102 106 105 106 103 101 96 95 98 104
2810.0 113 125 140 159 177 188 196 204 220 241
2850.0 274 314 353 408 477 569 707 895 1127 1380
2890.0 1540 1540 1450 1328 1273 1301 1351 1415 1518 1501
2930.0 1537 1577 1674 1779 1803 1698 1483 1253 1098 1049
2970.0 1110 1285 1621 2182 2897 3308 3352 2928 1872 1303
3010.0 904 714 640 612 597 573 535 483 433 395
3050.0 389 421 495 674 1009 1453 1825 1939 1751 1355
3090.0 967 731 591 458 320 202 123 91 77 70
3130.0 68 68 70 68 69 69 65 56 52 46
3170.0 43 41 39 37 34 30 31 29 27 30
3210.0 32 34 32 32 31 26 24 21 18 14
3250.0 11 9 9 8 12 9 8 8 10 9
3290.0 9 9 8 7 9 9 11 9 10 11
3330.0 8 9 11 12 11 14 15 15 14 15
3370.0 10 9 9 9 7 9 7 8 9 9
3410.0 10 4 5 8 7 5 6 9 10 6
3450.0 9 8 8 12 13 10 10 10 9 10
3490.0 9 9 10 6 5 6 12 10 11 5
3530.0 7 7 8 6 5 8 11 9 9 7
3570.0 2 10 7 15 6 3 7 5 7 7
3610.0 6 4 4 4 7 4 9 10 10 12
3650.0 13 10 13 13 12 16 18 18 18 18
3690.0 21 17 10 10 18 15 19 17 12 14
3730.0 12 13 16 25 23 26 23 25 21 17
3770.0 11 13 12 15 13 19 14 14 19 14
3810.0 13 13 16 16 17 7 10 15 13 14
3850.0 18 16 14 13 19 23 14 17 13 11
3890.0 16 7 11 5 3 3 3 2 7 5
3930.0 8 2 3 7 0 3 6 6 6 9
##END=
