##TITLE=Benzene, 1,2-dibromo-
##JCAMP-DX=4.24
##DATA TYPE=INFRARED SPECTRUM
##ORIGIN=Sadtler Research Labs Under US-EPA Contract
##OWNER=NIST Standard Reference Data Program
##CAS REGISTRY NO=583-53-9
##MOLFORM=C 6 H 4 Br 2
##XUNITS=1/CM
##YUNITS=ABSORBANCE
##XFACTOR=1.0
##YFACTOR=0.000080991
##DELTAX=4.0
##FIRSTX=450.0
##LASTX=3966.0
##FIRSTY=0.000000
##MAXX=3966
##MINX=450
##MAXY=0.80991
##MINY=0
##NPOINTS=880
##XYDATA=(X++(Y..Y))
450.0 0 138 239 201 226 214 244 224 171 165
490.0 133 160 153 168 190 139 169 167 156 158
530.0 176 174 164 176 151 154 134 163 130 174
570.0 201 188 189 194 179 168 190 170 193 177
610.0 210 193 198 233 272 405 608 1128 1412 1384
650.0 1282 678 289 225 185 184 210 197 258 320
690.0 547 819 1237 1632 1953 1669 1353 823 441 480
730.0 944 2730 4274 6128 10000 5176 4215 2529 827 428
770.0 261 226 152 179 204 194 226 252 306 284
810.0 315 223 209 199 209 215 206 222 190 205
850.0 214 264 254 266 240 196 182 169 178 171
890.0 193 203 218 195 200 183 181 193 196 211
930.0 222 242 302 342 281 297 254 223 219 192
970.0 206 214 285 328 420 483 593 759 1043 1804
1010.0 3259 4576 4774 4378 2913 1516 1112 1037 832 417
1050.0 247 244 277 299 308 318 326 326 325 339
1090.0 369 559 1186 2368 3053 3239 2922 1539 597 304
1130.0 248 258 261 264 260 248 231 201 181 183
1170.0 182 178 177 177 181 175 169 162 169 158
1210.0 160 155 153 153 170 191 229 272 319 471
1250.0 680 743 723 578 346 229 188 187 191 173
1290.0 165 147 153 141 153 151 156 156 157 162
1330.0 157 179 193 252 289 313 298 256 219 192
1370.0 197 192 235 245 306 356 428 446 442 411
1410.0 347 393 625 1361 2000 2374 2586 2744 3581 5260
1450.0 5596 5358 3862 1622 907 917 985 1019 971 828
1490.0 658 449 337 229 200 183 171 183 147 193
1530.0 149 174 164 194 211 246 435 599 1012 1238
1570.0 1514 1450 1196 830 474 337 375 338 337 265
1610.0 222 213 237 243 234 225 197 181 159 165
1650.0 159 163 181 181 193 198 234 254 298 278
1690.0 268 220 200 196 189 193 176 167 161 163
1730.0 156 155 157 162 166 161 171 160 159 149
1770.0 159 171 216 277 335 341 313 269 206 184
1810.0 190 202 234 258 255 232 196 159 140 137
1850.0 142 147 151 158 168 189 212 218 213 197
1890.0 177 177 203 259 339 385 375 325 248 190
1930.0 182 202 241 292 315 299 260 198 153 145
1970.0 138 142 146 144 145 143 146 140 139 133
2010.0 133 132 133 140 143 147 148 148 140 136
2050.0 136 136 136 134 130 131 131 130 134 135
2090.0 141 141 142 138 136 134 134 138 136 138
2130.0 142 142 139 141 142 139 138 138 135 131
2170.0 131 130 131 131 132 130 129 130 129 128
2210.0 128 130 130 129 133 134 140 139 145 140
2250.0 139 139 142 141 149 150 150 151 156 157
2290.0 158 153 143 133 128 125 130 137 139 141
2330.0 141 130 130 126 125 135 137 142 144 139
2370.0 130 128 125 127 130 137 140 139 140 142
2410.0 147 153 158 159 156 151 148 143 140 140
2450.0 140 138 137 138 140 138 137 132 135 131
2490.0 133 135 138 138 147 156 169 180 188 197
2530.0 191 179 165 152 144 149 151 151 155 156
2570.0 166 169 179 190 191 179 167 153 146 146
2610.0 139 140 140 137 136 135 134 141 134 134
2650.0 134 133 135 133 131 134 134 138 139 141
2690.0 143 149 154 153 147 143 137 134 138 138
2730.0 135 136 139 135 134 131 131 133 132 132
2770.0 129 131 126 130 131 130 131 134 132 136
2810.0 138 137 140 140 138 137 137 130 127 130
2850.0 130 131 135 136 133 133 135 127 125 125
2890.0 125 128 125 126 126 130 131 132 131 136
2930.0 134 137 133 140 138 140 145 141 148 153
2970.0 156 166 175 185 189 191 187 190 182 181
3010.0 177 182 169 165 158 153 156 161 172 183
3050.0 215 282 445 767 1274 1779 1896 1747 1377 876
3090.0 599 491 362 227 178 170 168 182 198 227
3130.0 263 295 295 270 212 163 140 128 131 132
3170.0 136 136 134 134 133 135 130 132 130 132
3210.0 137 136 131 130 129 130 134 137 131 131
3250.0 131 130 133 133 130 133 135 135 140 133
3290.0 131 132 131 131 133 131 132 132 128 136
3330.0 139 132 133 127 125 133 132 132 136 129
3370.0 136 132 130 132 127 130 135 136 135 133
3410.0 134 130 134 138 132 134 134 135 135 130
3450.0 129 136 130 133 130 132 137 130 132 132
3490.0 135 130 136 134 133 140 137 136 133 132
3530.0 136 139 128 132 142 136 131 133 129 141
3570.0 131 131 133 126 129 132 140 125 132 140
3610.0 140 135 139 138 128 148 140 136 135 139
3650.0 146 137 139 140 133 146 142 155 130 142
3690.0 142 147 133 150 156 152 158 153 158 170
3730.0 175 177 169 162 143 146 159 143 157 167
3770.0 170 177 164 161 143 140 146 144 142 141
3810.0 131 131 137 159 143 140 139 137 147 151
3850.0 143 138 147 131 139 136 130 126 129 132
3890.0 137 139 125 145 145 130 135 144 143 138
3930.0 134 137 125 131 128 125 139 125 131 137
##END=
