##TITLE=Benzoic acid, p-benzylthio-, ethyl ester
##JCAMP-DX=4.24
##DATA TYPE=INFRARED SPECTRUM
##ORIGIN=Sadtler Research Labs Under US-EPA Contract
##OWNER=NIST Standard Reference Data Program
##CAS REGISTRY NO=58324-80-4
##MOLFORM=C 16 H 16 O 2 S
##XUNITS=1/CM
##YUNITS=ABSORBANCE
##XFACTOR=1.0
##YFACTOR=0.000041791
##DELTAX=4.0
##FIRSTX=450.0
##LASTX=3966.0
##FIRSTY=0.000000
##MAXX=3966
##MINX=450
##MAXY=0.41791
##MINY=0
##NPOINTS=880
##XYDATA=(X++(Y..Y))
450.0 0 187 366 374 398 442 514 364 449 389
490.0 495 421 376 350 241 308 378 328 309 333
530.0 287 244 262 287 263 233 207 263 307 338
570.0 321 302 303 272 243 251 219 192 235 296
610.0 288 247 294 250 313 326 362 273 290 277
650.0 302 343 346 371 416 605 652 697 732 941
690.0 1298 1557 1669 1446 1155 946 825 719 693 641
730.0 581 540 542 544 618 788 1090 1403 1444 1207
770.0 906 700 575 493 422 422 388 378 418 423
810.0 446 453 452 451 429 462 509 581 698 786
850.0 783 698 560 444 391 373 393 364 326 311
890.0 317 314 308 284 314 325 342 324 293 261
930.0 260 247 247 248 244 259 262 267 266 281
970.0 277 285 300 302 310 339 358 420 491 573
1010.0 756 1314 1874 1812 1380 1032 780 596 491 464
1050.0 463 469 511 575 661 745 866 1056 1358 1709
1090.0 2101 2676 3799 5651 7119 6614 4997 3713 2633 1793
1130.0 1274 966 788 699 644 626 648 700 788 904
1170.0 1152 1638 2099 1996 1440 1023 825 727 680 660
1210.0 674 728 842 1035 1267 1498 1593 1581 1567 1688
1250.0 2055 2809 4146 6317 8724 10000 9848 8942 6457 3569
1290.0 1964 1350 1093 1039 1042 1008 894 763 659 561
1330.0 509 471 461 453 458 470 503 551 652 879
1370.0 1078 993 750 648 641 725 848 938 893 739
1410.0 608 538 516 528 512 502 498 531 579 626
1450.0 679 704 670 626 629 669 679 670 697 813
1490.0 924 972 820 618 445 370 327 286 293 273
1530.0 273 269 277 283 293 322 377 433 493 483
1570.0 458 480 578 778 1083 1565 2008 2044 1574 1070
1610.0 758 563 459 385 344 323 311 297 305 294
1650.0 309 315 343 342 353 359 369 390 399 430
1690.0 463 515 571 641 760 971 1244 1520 1838 2309
1730.0 3269 4730 6141 5885 4279 2694 1716 1130 812 617
1770.0 514 436 413 398 397 398 401 392 362 342
1810.0 312 290 263 252 239 228 220 212 213 212
1850.0 208 215 217 217 221 224 231 239 238 247
1890.0 247 240 241 231 233 235 246 250 263 258
1930.0 260 261 272 259 269 262 261 265 253 239
1970.0 226 223 214 212 210 203 195 197 203 200
2010.0 191 197 206 200 207 192 200 191 197 197
2050.0 191 189 190 192 191 192 187 189 196 204
2090.0 194 196 200 204 204 208 207 211 205 205
2130.0 205 203 197 188 180 191 180 180 179 186
2170.0 184 181 184 179 183 183 182 178 179 182
2210.0 183 185 184 188 190 193 196 196 193 200
2250.0 201 200 193 202 196 202 196 208 214 228
2290.0 221 235 240 244 251 260 260 263 255 247
2330.0 235 260 243 244 245 272 244 255 225 232
2370.0 252 242 257 262 236 222 213 207 204 207
2410.0 200 193 197 194 197 196 193 191 193 197
2450.0 201 199 208 204 195 200 201 209 198 201
2490.0 199 205 195 202 195 196 202 199 203 201
2530.0 214 215 218 223 227 231 215 213 203 220
2570.0 219 206 206 216 214 219 214 208 212 207
2610.0 216 215 206 217 217 202 218 207 207 211
2650.0 214 207 205 212 214 215 228 225 218 212
2690.0 213 208 206 220 233 228 224 244 239 250
2730.0 245 262 255 244 226 233 242 229 231 234
2770.0 239 239 241 245 252 261 263 266 276 281
2810.0 280 293 313 299 292 297 292 299 309 324
2850.0 335 354 358 373 371 375 378 398 407 438
2890.0 445 448 441 472 497 545 604 656 690 721
2930.0 762 774 786 827 855 802 731 708 728 756
2970.0 789 829 916 1093 1284 1223 987 813 742 679
3010.0 646 607 599 604 645 727 822 856 773 642
3050.0 563 535 556 607 704 834 913 849 727 678
3090.0 667 611 537 469 428 393 358 333 304 270
3130.0 261 243 245 240 232 233 223 224 226 231
3170.0 227 224 222 208 212 217 226 216 214 224
3210.0 226 219 222 220 221 211 208 212 218 217
3250.0 222 208 210 205 194 214 221 215 212 203
3290.0 201 203 217 215 226 200 214 207 198 216
3330.0 226 216 233 217 214 215 229 209 213 216
3370.0 209 211 210 211 226 219 213 201 198 194
3410.0 210 211 206 201 202 202 221 207 221 212
3450.0 217 214 220 227 224 208 205 200 212 208
3490.0 203 197 193 199 196 201 232 198 204 196
3530.0 211 208 219 237 230 207 209 217 198 210
3570.0 194 202 201 224 231 247 236 211 207 203
3610.0 211 202 210 187 191 223 233 210 224 236
3650.0 228 233 216 217 198 200 209 231 218 214
3690.0 210 199 214 221 224 227 229 231 226 239
3730.0 221 213 233 225 249 223 215 222 207 194
3770.0 224 243 223 210 195 208 185 222 206 208
3810.0 209 211 178 238 200 207 224 199 210 178
3850.0 203 202 191 200 207 193 219 229 187 225
3890.0 208 211 234 243 260 200 191 193 218 207
3930.0 214 201 198 195 240 220 202 209 225 207
##END=
