##TITLE=3-Pentanol
##JCAMP-DX=4.24
##DATA TYPE=INFRARED SPECTRUM
##ORIGIN=Sadtler Research Labs Under US-EPA Contract
##OWNER=NIST Standard Reference Data Program
##CAS REGISTRY NO=584-02-1
##MOLFORM=C 5 H 12 O
##XUNITS=1/CM
##YUNITS=ABSORBANCE
##XFACTOR=1.0
##YFACTOR=0.000111868
##DELTAX=4.0
##FIRSTX=450.0
##LASTX=3966.0
##FIRSTY=0.007943
##MAXX=3966
##MINX=450
##MAXY=1.11868
##MINY=0
##NPOINTS=880
##XYDATA=(X++(Y..Y))
450.0 71 129 230 160 278 168 288 185 338 317
490.0 233 202 304 183 418 394 185 133 16 84
530.0 63 96 0 120 53 113 169 175 163 90
570.0 233 146 225 150 234 169 215 172 191 160
610.0 131 150 109 142 114 156 95 158 118 146
650.0 99 128 120 130 136 149 125 107 129 109
690.0 94 106 107 120 94 112 86 127 75 124
730.0 105 154 113 154 125 168 150 169 176 267
770.0 265 92 96 195 154 160 144 137 136 143
810.0 142 157 175 153 206 201 232 240 300 289
850.0 350 349 379 323 349 315 304 291 287 295
890.0 316 391 453 559 671 796 867 979 1035 1113
930.0 1200 1315 1498 1758 2140 2566 2972 3323 3589 3751
970.0 3674 3355 3043 2705 2157 1676 1269 1043 899 879
1010.0 884 962 1046 1159 1278 1406 1492 1498 1484 1415
1050.0 1332 1222 1139 1091 1093 1133 1197 1262 1298 1345
1090.0 1383 1384 1374 1377 1430 1475 1554 1613 1697 1739
1130.0 1813 1798 1783 1695 1577 1400 1248 1077 925 788
1170.0 681 622 577 567 576 608 665 742 860 988
1210.0 1130 1274 1411 1498 1559 1573 1548 1494 1398 1291
1250.0 1160 1073 977 930 861 846 809 820 807 830
1290.0 825 832 823 816 781 747 715 683 644 613
1330.0 601 608 628 674 735 819 917 1026 1143 1293
1370.0 1434 1547 1616 1672 1691 1666 1584 1430 1255 1044
1410.0 880 729 628 554 539 564 650 757 955 1146
1450.0 1386 1578 1769 1821 1803 1793 1681 1418 1185 927
1490.0 720 530 421 301 243 204 179 155 128 148
1530.0 122 135 111 121 113 132 119 109 111 126
1570.0 121 113 114 115 109 97 101 94 86 91
1610.0 84 84 67 83 72 82 69 80 72 70
1650.0 74 62 82 69 76 61 70 59 68 42
1690.0 63 47 41 34 47 47 40 43 55 49
1730.0 52 44 49 40 47 34 48 29 41 30
1770.0 33 25 36 27 35 31 30 35 29 38
1810.0 32 36 34 37 27 34 33 31 25 27
1850.0 30 28 22 36 27 30 27 35 27 48
1890.0 35 50 33 55 38 49 41 50 44 47
1930.0 46 44 44 40 42 34 40 37 33 24
1970.0 31 30 23 27 28 29 30 29 34 27
2010.0 31 21 33 18 31 19 34 15 34 21
2050.0 28 24 29 25 26 28 27 23 26 27
2090.0 27 21 25 24 25 22 25 18 21 21
2130.0 25 22 25 31 27 33 30 36 29 42
2170.0 28 39 26 37 29 31 28 37 31 34
2210.0 32 35 33 38 32 36 32 37 30 37
2250.0 27 37 28 30 26 28 25 25 29 23
2290.0 31 28 36 24 29 20 23 12 23 23
2330.0 29 14 23 25 7 7 7 8 31 7
2370.0 23 7 29 14 35 32 52 52 60 62
2410.0 66 61 57 60 52 55 47 48 42 44
2450.0 39 36 37 38 37 39 36 39 33 34
2490.0 30 33 21 28 17 28 9 30 13 25
2530.0 13 29 22 30 31 34 27 41 48 54
2570.0 58 63 66 74 81 89 92 101 102 114
2610.0 119 118 123 123 129 125 127 118 128 121
2650.0 137 122 142 135 145 142 149 144 158 153
2690.0 168 174 181 185 188 187 198 195 205 209
2730.0 229 237 258 269 288 292 308 310 305 310
2770.0 311 327 319 335 340 362 365 386 391 417
2810.0 431 466 501 565 654 778 920 1129 1372 1672
2850.0 2008 2396 2764 3132 3416 3765 4171 4635 4812 4805
2890.0 4771 4654 4466 4224 4028 4064 4355 4853 5574 6366
2930.0 7197 7774 8119 8101 8058 8001 7801 7865 8326 8972
2970.0 9957 10000 9289 8417 7247 5753 4156 2829 1937 1325
3010.0 964 708 585 476 439 389 366 348 341 331
3050.0 323 318 318 325 321 315 317 317 302 288
3090.0 279 263 241 228 205 191 169 166 149 156
3130.0 133 141 128 141 127 149 129 153 140 156
3170.0 141 154 144 139 130 119 111 98 81 85
3210.0 63 66 45 48 37 35 21 26 27 33
3250.0 38 24 28 20 45 26 38 20 43 16
3290.0 35 11 42 24 29 22 31 21 27 9
3330.0 38 26 36 20 28 22 48 16 29 21
3370.0 24 32 37 38 34 40 30 38 41 58
3410.0 40 61 48 63 52 63 56 53 46 72
3450.0 45 52 46 49 57 58 35 46 33 55
3490.0 40 44 19 46 20 29 17 37 26 40
3530.0 36 32 40 37 35 22 40 37 27 15
3570.0 35 32 26 27 34 49 64 28 66 72
3610.0 115 104 160 177 264 284 374 441 594 678
3650.0 845 880 919 895 882 750 612 468 358 230
3690.0 170 124 102 81 71 49 55 37 61 41
3730.0 27 63 23 53 6 55 32 35 29 40
3770.0 38 39 13 39 19 49 33 46 9 13
3810.0 17 39 30 55 22 60 48 61 32 69
3850.0 55 38 22 62 41 58 41 37 57 71
3890.0 46 46 54 27 36 17 34 36 38 23
3930.0 32 7 33 24 30 30 42 37 73 9
##END=
