##TITLE=Benzene, 2,4-diisocyanato-1-methyl-
##JCAMP-DX=4.24
##DATA TYPE=INFRARED SPECTRUM
##ORIGIN=Sadtler Research Labs Under US-EPA Contract
##OWNER=NIST Standard Reference Data Program
##CAS REGISTRY NO=584-84-9
##MOLFORM=C 9 H 6 N 2 O 2
##XUNITS=1/CM
##YUNITS=ABSORBANCE
##XFACTOR=1.0
##YFACTOR=0.000069434
##DELTAX=4.0
##FIRSTX=450.0
##LASTX=3966.0
##FIRSTY=0.005069
##MAXX=3966
##MINX=450
##MAXY=0.69434
##MINY=0
##NPOINTS=880
##XYDATA=(X++(Y..Y))
450.0 73 34 85 89 66 55 38 33 2 28
490.0 31 35 70 59 81 80 91 88 85 97
530.0 81 84 98 72 82 105 148 94 94 169
570.0 176 177 174 164 171 181 254 265 255 222
610.0 234 191 204 197 155 182 162 173 189 189
650.0 213 143 162 141 110 189 154 119 125 138
690.0 112 137 133 141 100 102 106 136 94 103
730.0 118 113 114 132 119 109 116 93 101 93
770.0 94 65 107 127 96 103 154 154 180 231
810.0 268 247 180 142 142 97 75 91 122 127
850.0 131 116 188 211 219 222 216 210 196 232
890.0 268 320 328 329 255 179 124 99 95 87
930.0 99 81 79 86 76 87 80 82 83 79
970.0 77 92 89 91 105 126 141 140 118 95
1010.0 91 91 78 96 94 81 84 90 83 82
1050.0 82 74 99 120 156 250 270 271 210 144
1090.0 112 80 94 73 80 111 132 163 174 179
1130.0 164 141 124 114 115 99 120 136 105 132
1170.0 124 129 112 112 109 111 105 104 98 105
1210.0 83 91 88 69 68 77 71 72 72 82
1250.0 75 81 95 110 110 102 87 83 80 80
1290.0 86 76 82 80 73 78 73 65 73 78
1330.0 70 62 65 64 69 69 65 66 64 70
1370.0 77 77 84 85 92 85 87 91 86 78
1410.0 84 75 70 75 83 82 90 98 113 118
1450.0 123 127 123 146 139 137 131 144 159 151
1490.0 153 190 214 249 269 330 400 477 556 591
1530.0 543 471 374 289 229 197 191 185 209 268
1570.0 302 352 379 371 354 325 289 290 335 418
1610.0 537 639 659 631 503 344 201 120 89 67
1650.0 60 47 62 58 57 49 46 50 47 42
1690.0 46 51 44 37 43 43 43 43 51 50
1730.0 46 43 48 44 42 43 41 41 41 41
1770.0 41 41 41 45 41 41 40 40 40 41
1810.0 39 48 45 48 38 44 48 38 38 38
1850.0 46 38 38 45 52 47 51 51 51 48
1890.0 45 40 44 42 36 37 43 37 36 37
1930.0 43 35 35 35 35 40 40 34 34 35
1970.0 41 41 41 41 32 39 37 33 38 37
2010.0 39 39 33 40 39 38 46 38 46 46
2050.0 45 45 53 53 51 51 52 58 59 59
2090.0 60 64 65 68 66 79 83 92 106 119
2130.0 134 149 164 178 202 224 236 250 266 275
2170.0 287 303 317 338 367 403 441 493 560 645
2210.0 734 845 963 1106 1273 1455 1652 1859 2086 2353
2250.0 2716 3261 4124 5425 7144 8952 10000 9680 8421 6847
2290.0 5442 4265 3233 2405 1832 1471 1238 1084 976 901
2330.0 824 762 720 685 640 617 617 617 606 582
2370.0 557 516 466 413 362 317 264 221 189 159
2410.0 138 116 108 95 93 89 85 73 68 67
2450.0 67 59 51 44 43 45 36 36 37 29
2490.0 24 30 30 28 28 21 22 21 20 20
2530.0 20 20 26 17 20 20 20 19 19 27
2570.0 19 26 19 19 19 19 19 19 19 18
2610.0 18 17 17 10 10 10 11 16 13 14
2650.0 10 14 16 16 22 15 16 22 23 22
2690.0 28 25 21 13 22 17 14 14 13 7
2730.0 13 13 20 12 18 15 15 17 13 13
2770.0 12 19 4 12 12 12 3 12 11 9
2810.0 4 12 12 12 12 4 13 13 12 13
2850.0 13 14 24 27 27 31 37 48 41 35
2890.0 35 34 42 43 34 44 35 36 42 57
2930.0 77 92 98 94 79 64 59 60 63 64
2970.0 59 59 63 66 71 67 67 59 52 45
3010.0 45 47 46 49 45 45 46 47 44 40
3050.0 46 40 46 46 53 47 47 49 36 29
3090.0 27 27 13 26 13 12 12 12 14 14
3130.0 14 13 13 13 13 15 13 22 28 28
3170.0 28 37 28 31 28 28 26 15 15 16
3210.0 16 8 16 15 16 7 12 13 14 17
3250.0 17 17 8 17 17 18 11 17 18 9
3290.0 18 14 19 11 16 13 11 19 19 19
3330.0 18 18 19 20 20 23 21 29 35 21
3370.0 25 27 28 35 28 28 28 29 34 40
3410.0 31 34 46 41 29 43 35 36 36 28
3450.0 28 22 31 22 22 23 23 21 22 24
3490.0 23 23 25 11 21 20 12 14 21 15
3530.0 9 17 18 18 17 19 14 20 18 24
3570.0 18 17 18 19 11 11 20 20 20 19
3610.0 18 21 22 27 19 11 29 28 33 28
3650.0 27 28 28 33 37 27 37 31 38 46
3690.0 29 43 57 51 43 37 43 44 44 35
3730.0 45 27 38 37 32 30 50 45 52 53
3770.0 46 54 58 50 55 60 61 58 53 54
3810.0 60 61 47 46 46 39 45 52 47 48
3850.0 40 35 34 40 41 40 41 40 35 35
3890.0 35 35 35 31 39 47 43 35 35 29
3930.0 35 29 28 36 36 39 0 3 3 3
##END=
