##TITLE=1,2-Butanediol
##JCAMP-DX=4.24
##DATA TYPE=INFRARED SPECTRUM
##ORIGIN=Sadtler Research Labs Under US-EPA Contract
##OWNER=NIST Standard Reference Data Program
##CAS REGISTRY NO=584-03-2
##MOLFORM=C 4 H 10 O 2
##XUNITS=1/CM
##YUNITS=ABSORBANCE
##XFACTOR=1.0
##YFACTOR=0.000076868
##DELTAX=4.0
##FIRSTX=450.0
##LASTX=3966.0
##FIRSTY=0.000000
##MAXX=3966
##MINX=450
##MAXY=0.76868
##MINY=0
##NPOINTS=880
##XYDATA=(X++(Y..Y))
450.0 0 301 491 441 660 580 600 721 352 737
490.0 603 374 243 418 520 577 623 681 779 789
530.0 856 889 854 655 650 605 527 458 426 494
570.0 419 434 498 557 528 530 468 474 507 485
610.0 500 462 457 455 470 529 520 546 617 668
650.0 620 656 667 699 731 722 725 655 614 559
690.0 509 474 473 453 442 440 441 417 378 383
730.0 366 400 402 399 414 465 476 536 566 618
770.0 663 660 698 676 680 638 568 554 544 575
810.0 561 641 720 829 929 1041 1152 1282 1384 1422
850.0 1465 1459 1485 1450 1388 1297 1216 1221 1263 1352
890.0 1472 1609 1755 1882 2015 2114 2135 2056 1985 1939
930.0 1851 1717 1660 1679 1806 1989 2219 2481 2771 3082
970.0 3320 3499 3599 3731 3844 3825 3757 3676 3588 3550
1010.0 3574 3720 3968 4276 4790 5491 6318 7154 7945 8709
1050.0 9368 9875 10000 9715 9203 8439 7451 6364 5362 4657
1090.0 4135 3798 3650 3597 3634 3700 3750 3748 3677 3532
1130.0 3298 3021 2738 2471 2220 2029 1882 1782 1750 1738
1170.0 1775 1830 1895 1944 1994 2032 2068 2102 2143 2193
1210.0 2256 2361 2487 2625 2762 2829 2834 2805 2764 2715
1250.0 2673 2606 2542 2462 2375 2290 2228 2173 2151 2147
1290.0 2177 2218 2281 2308 2310 2266 2236 2233 2254 2308
1330.0 2374 2414 2445 2475 2507 2583 2687 2790 2924 3026
1370.0 3091 3167 3192 3218 3229 3235 3147 3018 2806 2566
1410.0 2293 2055 1836 1670 1511 1491 1559 1864 2315 2904
1450.0 3422 3781 3861 3587 3179 2905 2696 2536 2291 2011
1490.0 1832 1837 1728 1409 1121 999 964 1052 1097 1089
1530.0 965 815 623 531 461 439 412 419 418 362
1570.0 369 365 363 332 338 340 320 329 318 314
1610.0 301 323 305 314 286 302 292 310 283 305
1650.0 292 344 286 284 295 284 291 276 279 302
1690.0 273 266 288 280 268 253 258 265 264 251
1730.0 256 279 272 250 258 263 255 264 262 259
1770.0 262 269 245 255 251 255 248 251 256 241
1810.0 244 245 246 244 252 247 254 250 255 252
1850.0 245 250 248 254 246 251 249 244 248 253
1890.0 257 250 252 245 260 255 251 251 257 255
1930.0 253 252 249 252 252 251 255 257 255 248
1970.0 255 250 255 259 262 259 257 261 260 262
2010.0 264 266 264 271 270 282 288 290 293 298
2050.0 299 303 299 293 293 307 310 314 327 323
2090.0 311 312 297 290 284 280 279 281 273 274
2130.0 269 259 260 258 259 254 260 252 253 251
2170.0 248 252 248 248 249 250 245 255 254 249
2210.0 256 251 258 253 256 253 253 249 248 246
2250.0 245 249 247 255 246 246 251 252 260 266
2290.0 261 270 280 281 290 296 309 309 307 287
2330.0 282 281 292 288 252 296 342 340 284 241
2370.0 241 241 241 241 254 263 280 282 283 296
2410.0 289 294 287 293 294 299 299 294 288 283
2450.0 276 271 273 270 268 263 265 261 259 259
2490.0 251 262 262 264 257 265 260 265 270 266
2530.0 279 268 263 266 273 271 269 266 277 285
2570.0 288 288 296 296 294 296 310 298 297 302
2610.0 309 307 311 312 321 320 329 331 327 325
2650.0 343 365 377 399 411 429 438 438 439 448
2690.0 464 476 478 486 505 511 513 515 534 537
2730.0 543 563 587 598 626 639 653 668 672 688
2770.0 713 730 749 765 788 806 835 859 887 917
2810.0 958 988 1050 1127 1209 1321 1461 1638 1844 2128
2850.0 2406 2760 3172 3616 4140 4730 5379 6008 6568 6855
2890.0 6968 6782 6436 6141 5830 5705 5802 6206 6763 7511
2930.0 8253 8929 9518 9593 9462 9245 9022 8657 8592 8654
2970.0 8918 9080 8448 7435 6483 5317 4045 2901 2087 1513
3010.0 1156 938 779 698 639 594 554 537 520 513
3050.0 488 503 489 489 488 487 475 469 442 435
3090.0 420 421 406 387 385 378 379 352 346 342
3130.0 314 316 317 319 333 320 324 314 322 329
3170.0 339 321 337 345 340 323 318 299 294 299
3210.0 287 274 279 269 268 269 272 286 270 263
3250.0 259 269 264 266 254 266 282 267 288 284
3290.0 271 273 264 273 251 253 249 263 264 258
3330.0 242 250 257 253 250 257 259 253 256 264
3370.0 260 269 256 265 270 268 264 278 269 276
3410.0 275 282 277 289 275 279 279 267 263 282
3450.0 278 280 282 271 294 307 285 295 319 308
3490.0 326 327 325 339 327 336 349 353 361 357
3530.0 354 362 359 378 369 404 403 422 418 460
3570.0 484 531 568 592 693 812 961 1125 1369 1632
3610.0 1903 2208 2532 2740 2875 2946 2875 2785 2673 2520
3650.0 2409 2322 2278 2247 2156 2118 2088 2039 1883 1715
3690.0 1540 1356 1148 950 765 646 587 498 434 423
3730.0 420 406 394 347 422 330 368 311 296 322
3770.0 254 291 273 294 292 284 276 273 261 292
3810.0 274 278 283 294 273 245 244 269 264 255
3850.0 303 308 292 297 280 293 294 308 271 255
3890.0 295 293 254 282 279 240 270 312 314 267
3930.0 268 306 314 279 263 315 283 261 285 268
##END=
