##TITLE=Benzene, 1-bromo-2,4-dinitro-
##JCAMP-DX=4.24
##DATA TYPE=INFRARED SPECTRUM
##ORIGIN=Sadtler Research Labs Under US-EPA Contract
##OWNER=NIST Standard Reference Data Program
##CAS REGISTRY NO=584-48-5
##MOLFORM=C 6 H 3 Br N 2 O 4
##XUNITS=1/CM
##YUNITS=ABSORBANCE
##XFACTOR=1.0
##YFACTOR=0.000092899
##DELTAX=4.0
##FIRSTX=450.0
##LASTX=3966.0
##FIRSTY=0.009290
##MAXX=3966
##MINX=450
##MAXY=0.92899
##MINY=0
##NPOINTS=880
##XYDATA=(X++(Y..Y))
450.0 100 95 141 168 173 248 324 395 491 505
490.0 402 294 180 112 128 92 78 83 85 60
530.0 54 12 36 20 20 30 24 22 35 34
570.0 41 29 30 31 32 32 20 26 19 17
610.0 3 15 21 18 7 0 21 5 33 66
650.0 124 215 318 332 275 175 91 65 73 81
690.0 90 120 109 109 91 98 118 187 403 809
730.0 1474 2179 2270 1948 1253 742 501 339 226 126
770.0 80 63 48 52 32 45 44 48 49 83
810.0 96 123 245 569 1390 2227 2384 1817 870 372
850.0 169 89 86 63 76 83 95 104 136 155
890.0 229 368 609 949 1348 1651 1570 1188 643 248
930.0 105 61 41 33 29 28 23 17 16 16
970.0 14 15 19 21 17 21 24 29 38 53
1010.0 66 95 145 267 502 1020 1749 2155 1962 1225
1050.0 589 334 209 140 106 89 87 95 120 146
1090.0 167 172 154 125 88 57 44 48 71 107
1130.0 131 140 139 150 187 223 224 189 139 101
1170.0 72 57 59 70 79 89 91 88 73 68
1210.0 61 57 56 58 67 91 143 280 496 622
1250.0 573 384 233 188 178 190 205 221 238 259
1290.0 281 305 347 412 510 637 809 1009 1244 1550
1330.0 2023 2819 4212 6290 8624 9905 8875 6161 3485 1920
1370.0 1140 788 659 634 683 725 742 684 579 482
1410.0 397 324 319 302 309 319 339 357 361 393
1450.0 479 615 857 1010 996 809 575 413 381 421
1490.0 524 633 801 956 1074 1108 1036 1104 1235 1524
1530.0 1995 2850 4166 6032 8324 9528 10000 9100 7595 5697
1570.0 4127 3062 2540 2536 2877 3565 4386 4921 4607 3629
1610.0 2509 1539 893 538 400 322 312 310 294 289
1650.0 282 248 196 159 151 141 127 91 105 104
1690.0 91 83 112 103 84 63 65 83 44 31
1730.0 38 65 44 41 47 45 39 25 29 18
1770.0 39 35 31 40 56 68 89 85 88 72
1810.0 66 66 54 51 41 40 26 18 21 30
1850.0 17 7 12 10 16 22 14 10 11 10
1890.0 16 14 9 14 19 30 41 61 77 75
1930.0 68 52 34 21 15 5 6 6 6 4
1970.0 5 4 3 1 0 9 5 5 3 5
2010.0 5 4 3 6 3 3 2 4 4 4
2050.0 6 6 6 8 10 10 8 11 6 9
2090.0 8 8 7 4 5 2 5 4 5 3
2130.0 2 2 3 0 1 1 1 3 1 2
2170.0 1 0 2 3 4 4 6 2 2 0
2210.0 3 1 7 4 5 3 4 6 9 8
2250.0 15 16 20 23 24 25 26 29 32 32
2290.0 35 42 42 43 51 54 49 52 57 56
2330.0 54 45 38 31 46 37 41 34 32 35
2370.0 28 35 43 41 38 23 16 15 10 7
2410.0 5 5 7 10 11 18 20 22 23 22
2450.0 23 25 30 29 29 28 28 29 29 27
2490.0 28 26 30 29 29 27 27 25 21 22
2530.0 20 21 24 20 23 20 19 22 21 24
2570.0 26 29 31 33 35 36 30 30 27 26
2610.0 21 19 19 21 23 25 26 26 26 26
2650.0 29 32 35 39 45 52 61 71 76 86
2690.0 94 98 95 87 77 65 55 50 47 43
2730.0 47 46 47 47 45 44 40 38 34 30
2770.0 28 29 26 26 26 30 28 31 32 34
2810.0 34 38 43 44 49 54 59 65 71 75
2850.0 77 81 86 96 105 118 131 149 172 191
2890.0 208 214 210 198 187 160 136 116 104 102
2930.0 102 102 103 104 100 89 84 73 66 56
2970.0 51 51 46 44 40 41 38 35 34 35
3010.0 33 38 34 40 36 45 44 46 49 41
3050.0 41 35 37 35 34 44 61 98 155 237
3090.0 311 394 459 493 491 409 297 169 84 50
3130.0 37 33 27 30 27 24 26 18 19 15
3170.0 14 14 13 9 6 9 9 12 13 13
3210.0 13 13 11 7 7 10 10 6 10 10
3250.0 6 11 9 8 11 12 8 6 7 6
3290.0 10 6 6 6 2 7 12 5 8 5
3330.0 3 4 9 7 8 4 5 9 6 5
3370.0 6 3 9 4 8 3 6 10 10 17
3410.0 13 10 13 15 12 9 14 6 10 9
3450.0 7 10 6 15 11 9 10 10 17 6
3490.0 10 11 5 15 7 12 8 12 14 7
3530.0 11 14 14 10 12 13 12 8 9 19
3570.0 19 15 14 14 20 16 18 12 12 10
3610.0 15 6 13 17 11 25 10 9 10 8
3650.0 25 9 15 0 13 16 7 23 3 16
3690.0 11 14 8 10 10 13 18 16 10 13
3730.0 14 11 15 15 25 17 26 16 12 19
3770.0 14 16 10 14 11 17 10 8 22 23
3810.0 10 17 11 14 13 8 26 32 17 11
3850.0 5 22 19 10 25 10 13 19 12 20
3890.0 11 13 9 16 10 16 13 33 13 4
3930.0 17 29 27 16 6 5 11 3 18 12
##END=
