##TITLE=Benzene, (1-bromoethyl)-
##JCAMP-DX=4.24
##DATA TYPE=INFRARED SPECTRUM
##ORIGIN=Sadtler Research Labs Under US-EPA Contract
##OWNER=NIST Standard Reference Data Program
##CAS REGISTRY NO=585-71-7
##MOLFORM=C 8 H 9 Br
##XUNITS=1/CM
##YUNITS=ABSORBANCE
##XFACTOR=1.0
##YFACTOR=0.000053271
##DELTAX=4.0
##FIRSTX=450.0
##LASTX=3966.0
##FIRSTY=0.023173
##MAXX=3966
##MINX=450
##MAXY=0.53271
##MINY=0
##NPOINTS=880
##XYDATA=(X++(Y..Y))
450.0 435 580 550 577 614 669 617 641 662 812
490.0 796 895 888 1000 958 858 1024 954 842 554
530.0 415 235 468 362 1026 1030 1525 2352 2761 2433
570.0 2886 1557 1750 2075 2729 4440 5773 6296 6176 4952
610.0 3017 2349 1760 2014 2606 2427 1902 1728 1011 887
650.0 1095 1047 1182 1338 1134 1469 1975 3154 5144 7905
690.0 9171 10000 8188 5915 3886 2583 1590 1428 1031 1085
730.0 1053 1002 1378 1245 1793 3268 4512 5122 5614 4459
770.0 3792 2627 2022 1659 1388 1014 915 560 337 293
810.0 218 295 340 307 287 293 106 83 175 261
850.0 401 253 195 222 133 223 282 67 103 227
890.0 14 318 450 543 637 856 487 598 455 367
930.0 567 381 345 390 477 625 1019 1169 1587 1644
970.0 1618 1433 1177 909 876 714 711 749 703 742
1010.0 846 1056 1469 2173 2751 2851 2640 2221 2899 3710
1050.0 3992 3778 2456 1352 1115 1074 1221 1416 1391 1304
1090.0 1131 1026 898 860 787 906 552 466 398 299
1130.0 270 382 272 511 532 573 816 915 1035 1394
1170.0 1885 2928 4034 4399 4344 3722 3003 2891 3117 3693
1210.0 4368 4592 4420 3691 2585 1475 981 768 715 595
1250.0 613 539 532 357 369 473 616 672 679 695
1290.0 764 950 917 965 785 792 640 699 638 640
1330.0 521 548 463 585 643 581 566 523 385 583
1370.0 807 1203 1853 2124 2046 1672 943 555 368 314
1410.0 343 435 436 482 631 720 996 1324 2070 2777
1450.0 3534 3817 3768 3264 2423 1617 1021 821 935 1274
1490.0 1750 2378 2408 2235 1468 726 420 313 245 371
1530.0 284 220 216 4 197 216 133 68 58 235
1570.0 199 291 318 471 486 681 769 955 1050 1063
1610.0 874 652 323 285 243 261 268 175 256 122
1650.0 209 16 277 311 351 253 312 194 240 70
1690.0 148 220 62 83 223 251 232 157 212 276
1730.0 298 206 409 380 337 274 213 204 169 199
1770.0 161 142 202 290 380 575 594 666 518 429
1810.0 275 303 315 279 193 150 141 144 151 80
1850.0 227 198 261 273 365 346 485 420 491 465
1890.0 368 329 279 171 190 164 123 179 195 235
1930.0 366 398 465 508 519 526 565 534 492 393
1970.0 246 188 147 160 145 158 81 118 79 118
2010.0 98 119 60 90 61 90 93 82 99 65
2050.0 70 50 62 59 89 43 83 52 40 86
2090.0 76 74 113 62 66 91 66 100 124 62
2130.0 90 72 74 107 125 87 114 81 83 103
2170.0 102 93 88 75 45 82 45 85 86 80
2210.0 51 89 18 101 84 85 102 71 44 79
2250.0 64 67 103 52 80 56 57 80 94 86
2290.0 97 38 56 60 51 100 112 77 108 44
2330.0 69 126 190 176 233 88 135 106 304 252
2370.0 260 128 158 141 108 148 113 119 121 120
2410.0 57 167 98 145 134 110 128 152 107 148
2450.0 141 96 134 98 112 155 135 118 139 100
2490.0 122 140 125 148 151 119 110 108 126 138
2530.0 151 124 126 91 114 104 135 103 133 67
2570.0 115 101 127 146 147 144 134 119 139 205
2610.0 146 204 144 145 149 191 170 250 181 179
2650.0 186 144 164 210 163 176 168 122 149 157
2690.0 139 179 137 144 156 165 166 208 164 160
2730.0 200 154 206 212 222 196 234 127 189 165
2770.0 204 213 224 157 213 178 219 272 239 273
2810.0 235 254 271 341 309 351 283 330 286 284
2850.0 319 356 396 511 653 865 1123 1220 1193 1057
2890.0 836 736 703 737 747 793 757 981 1372 1999
2930.0 2644 2933 2815 2354 1667 1072 866 665 795 1051
2970.0 1506 2328 3726 4292 4743 4943 5199 5160 4780 3749
3010.0 2430 1766 1583 1808 2210 3118 4063 4777 4941 4502
3050.0 3708 2975 2619 2756 3412 4593 5454 5593 5106 4090
3090.0 3300 3065 2742 2431 1993 1740 1433 1200 935 654
3130.0 395 324 246 228 289 223 302 240 224 233
3170.0 296 217 328 204 229 211 189 183 277 197
3210.0 264 219 161 206 189 172 230 202 172 186
3250.0 165 169 244 182 186 177 100 113 149 154
3290.0 160 190 60 155 94 146 155 196 93 179
3330.0 77 146 178 160 191 155 95 119 136 77
3370.0 193 98 146 70 111 116 158 107 159 96
3410.0 90 130 92 112 166 83 91 102 94 128
3450.0 174 125 167 131 87 144 176 155 194 135
3490.0 69 182 96 162 188 162 84 166 24 192
3530.0 150 142 157 157 72 147 116 138 170 73
3570.0 105 120 107 128 171 85 171 86 76 77
3610.0 97 106 116 78 94 18 137 150 166 124
3650.0 69 116 117 134 149 84 130 56 83 91
3690.0 40 121 150 78 76 65 5 119 48 82
3730.0 46 3 6 18 5 6 4 7 24 13
3770.0 5 51 78 35 69 14 9 9 15 13
3810.0 56 9 6 18 39 79 110 67 78 88
3850.0 56 42 86 51 86 12 34 57 57 78
3890.0 127 111 119 80 76 140 95 90 72 43
3930.0 6 39 46 104 81 86 0 6 6 6
##END=
