##TITLE=Phenol, m-tert-butyl-
##JCAMP-DX=4.24
##DATA TYPE=INFRARED SPECTRUM
##ORIGIN=Sadtler Research Labs Under US-EPA Contract
##OWNER=NIST Standard Reference Data Program
##CAS REGISTRY NO=585-34-2
##MOLFORM=C 10 H 14 O
##XUNITS=1/CM
##YUNITS=ABSORBANCE
##XFACTOR=1.0
##YFACTOR=0.000119141
##DELTAX=4.0
##FIRSTX=450.0
##LASTX=3966.0
##FIRSTY=0.091619
##MAXX=3966
##MINX=450
##MAXY=1.19141
##MINY=0
##NPOINTS=880
##XYDATA=(X++(Y..Y))
450.0 769 533 525 722 644 664 710 806 666 543
490.0 535 498 346 280 265 230 273 212 157 249
530.0 233 230 98 323 373 308 194 156 154 144
570.0 163 189 197 163 154 142 131 98 73 69
610.0 29 86 61 68 37 43 2 31 29 37
650.0 25 66 92 81 87 181 329 480 774 1202
690.0 1541 2103 2544 2040 1519 1164 756 450 261 124
730.0 70 23 107 100 112 217 359 524 796 1118
770.0 1540 1818 1846 1740 1334 969 690 451 354 369
810.0 353 329 347 280 209 203 237 303 381 463
850.0 565 548 575 563 600 617 637 631 604 576
890.0 598 672 975 1514 2276 2793 3020 2930 2388 1614
930.0 1127 811 587 416 289 213 156 140 140 126
970.0 112 102 125 99 106 135 206 213 220 211
1010.0 187 161 157 165 154 149 130 105 118 144
1050.0 142 166 198 239 294 414 495 576 605 641
1090.0 629 667 676 759 928 958 940 859 739 583
1130.0 535 573 735 1077 1612 2228 2825 3386 3574 3593
1170.0 3662 3894 4376 5260 6289 6726 6689 6123 4887 3553
1210.0 2544 1862 1496 1408 1467 1497 1486 1415 1265 1106
1250.0 994 942 1028 1251 1664 2352 3317 4331 5007 5199
1290.0 4849 3961 3063 2567 2170 1654 1136 758 554 413
1330.0 332 275 275 287 320 441 595 822 1067 1279
1370.0 1391 1322 1104 859 673 631 668 679 690 687
1410.0 677 716 896 1052 1223 1488 1735 2029 2303 2419
1450.0 2448 2362 2211 2027 1934 1984 2151 2387 2630 2774
1490.0 2733 2461 2057 1589 1295 980 688 503 432 390
1530.0 368 358 366 420 437 505 610 790 1047 1245
1570.0 1677 2115 2609 3412 3769 4419 4959 4975 5244 4842
1610.0 4570 4114 3421 2748 1881 1204 731 450 313 234
1650.0 228 211 162 140 141 130 139 117 138 149
1690.0 132 135 165 162 150 138 152 176 154 149
1730.0 176 193 186 174 177 173 152 140 126 105
1770.0 108 94 76 75 67 68 73 71 72 73
1810.0 84 98 103 106 115 116 110 104 102 97
1850.0 63 42 33 25 31 36 27 24 27 35
1890.0 48 58 73 90 117 136 149 155 143 115
1930.0 90 65 45 32 25 17 13 11 13 19
1970.0 14 15 19 19 17 22 19 19 17 20
2010.0 15 18 16 13 11 14 11 14 16 17
2050.0 12 9 11 19 23 23 25 27 27 35
2090.0 33 35 36 35 32 29 25 22 19 22
2130.0 21 23 26 27 33 30 29 32 31 35
2170.0 35 37 40 43 46 48 43 40 34 27
2210.0 22 15 12 9 6 7 1 5 5 7
2250.0 5 9 9 13 19 21 24 26 26 31
2290.0 30 27 31 27 18 26 32 39 46 55
2330.0 61 55 71 59 62 59 78 79 76 59
2370.0 57 49 57 67 70 79 84 81 82 77
2410.0 84 85 89 91 85 80 71 64 61 57
2450.0 62 63 62 68 70 66 68 59 60 53
2490.0 51 53 51 53 55 55 51 48 43 39
2530.0 35 28 29 24 25 24 28 27 33 36
2570.0 35 35 36 34 42 38 46 45 45 41
2610.0 39 41 34 38 35 39 38 42 37 44
2650.0 45 49 50 51 52 52 49 49 45 45
2690.0 44 41 45 44 52 59 61 77 88 92
2730.0 97 97 97 93 93 100 106 103 103 97
2770.0 92 85 86 95 100 101 103 105 101 110
2810.0 118 131 139 148 162 180 195 220 251 293
2850.0 356 452 611 831 1110 1413 1691 1886 1968 1972
2890.0 1942 1897 1904 1984 2145 2329 2475 2541 2516 2451
2930.0 2401 2390 2470 2641 2989 3647 4692 6160 7927 9466
2970.0 10000 9419 7896 5685 3772 2457 1614 1076 761 608
3010.0 565 590 655 719 778 837 896 989 1129 1251
3050.0 1308 1273 1184 1049 954 935 961 967 958 902
3090.0 830 749 662 572 481 393 314 250 199 162
3130.0 138 118 103 92 88 82 81 80 89 92
3170.0 100 101 102 99 105 101 99 97 102 97
3210.0 94 97 99 91 98 104 103 96 91 93
3250.0 82 85 88 81 79 73 77 72 71 76
3290.0 72 68 68 60 62 57 55 46 52 57
3330.0 61 69 76 80 96 104 95 100 98 97
3370.0 101 99 94 100 86 83 81 76 78 68
3410.0 76 63 64 66 74 71 71 62 60 54
3450.0 50 60 53 48 42 45 49 38 37 35
3490.0 44 40 37 37 28 39 35 35 30 9
3530.0 24 37 32 28 13 15 27 24 31 0
3570.0 11 28 24 49 23 18 41 23 57 46
3610.0 46 67 89 149 225 384 677 1133 2002 3048
3650.0 3843 3942 3468 2659 1277 474 205 96 57 50
3690.0 22 48 36 26 43 21 12 33 21 22
3730.0 38 4 5 29 25 5 25 15 33 40
3770.0 40 49 46 51 43 44 47 49 15 53
3810.0 28 45 1 22 30 52 48 38 6 33
3850.0 31 16 35 52 36 19 20 42 0 32
3890.0 34 27 29 8 6 74 55 53 36 54
3930.0 66 29 57 56 23 23 35 41 60 58
##END=
