##TITLE=Ethanone, 1-(3-methylphenyl)-
##JCAMP-DX=4.24
##DATA TYPE=INFRARED SPECTRUM
##ORIGIN=Sadtler Research Labs Under US-EPA Contract
##OWNER=NIST Standard Reference Data Program
##CAS REGISTRY NO=585-74-0
##MOLFORM=C 9 H 10 O
##XUNITS=1/CM
##YUNITS=ABSORBANCE
##XFACTOR=1.0
##YFACTOR=0.000095142
##DELTAX=4.0
##FIRSTX=450.0
##LASTX=3966.0
##FIRSTY=0.006945
##MAXX=3966
##MINX=450
##MAXY=0.95142
##MINY=0
##NPOINTS=880
##XYDATA=(X++(Y..Y))
450.0 73 162 158 242 231 247 173 145 135 88
490.0 77 52 29 43 79 88 146 158 178 157
530.0 104 142 152 40 39 65 58 93 67 137
570.0 157 307 637 1083 1369 1690 1858 1460 1114 912
610.0 638 279 179 79 81 84 84 47 61 107
650.0 62 122 72 89 154 206 340 600 877 1140
690.0 1787 1873 1534 1209 845 445 245 142 86 102
730.0 101 140 180 217 272 229 221 263 378 606
770.0 875 1291 1948 1941 1743 1979 1314 877 597 356
810.0 209 127 112 88 109 92 107 131 202 298
850.0 377 388 398 330 230 196 192 221 197 181
890.0 190 200 204 217 252 274 304 287 261 230
930.0 226 250 326 478 657 813 933 976 856 687
970.0 524 360 270 235 232 221 233 235 233 229
1010.0 228 225 226 243 251 259 270 281 282 298
1050.0 279 267 266 268 308 386 522 669 743 767
1090.0 705 588 537 556 577 563 490 376 273 229
1130.0 200 199 210 224 275 335 412 480 571 671
1170.0 786 959 1273 1948 2900 3547 3733 3643 2770 1583
1210.0 990 701 577 571 618 677 710 747 774 818
1250.0 970 1391 2354 4144 6620 8561 9506 9317 7014 4186
1290.0 2732 2068 1552 1122 818 645 526 453 417 400
1330.0 398 411 469 610 962 1644 2562 3090 3307 3199
1370.0 2422 1564 1082 839 728 667 608 581 595 635
1410.0 698 835 1010 1232 1449 1657 1743 1703 1583 1318
1450.0 993 763 623 581 563 582 596 657 710 699
1490.0 642 573 456 362 308 292 290 276 266 278
1530.0 280 288 289 285 293 313 313 304 333 361
1570.0 423 536 720 930 1124 1190 1193 1130 1009 925
1610.0 895 830 695 561 421 335 268 248 247 283
1650.0 319 413 517 632 713 729 725 783 980 1472
1690.0 2519 4312 6856 9042 10000 9468 7857 4962 2693 1496
1730.0 1016 932 1073 1206 1235 1182 987 737 550 435
1770.0 329 263 231 205 187 179 179 176 169 164
1810.0 152 135 115 99 83 74 66 68 64 63
1850.0 85 108 123 136 140 131 133 124 123 119
1890.0 119 121 113 97 77 65 46 48 47 53
1930.0 67 82 96 101 107 112 105 95 91 83
1970.0 74 65 53 42 36 34 34 37 39 39
2010.0 32 31 28 23 16 17 25 30 38 43
2050.0 41 38 21 10 0 6 11 24 34 37
2090.0 42 31 29 18 13 12 15 7 13 13
2130.0 8 10 15 15 11 14 16 12 15 15
2170.0 15 17 17 11 19 21 21 22 24 28
2210.0 32 31 33 32 35 37 39 41 34 33
2250.0 31 31 37 32 35 32 32 27 31 26
2290.0 28 25 20 24 16 23 24 30 23 29
2330.0 26 31 32 29 47 40 14 21 26 34
2370.0 59 70 62 55 48 44 35 37 39 34
2410.0 35 36 39 34 35 39 37 39 46 48
2450.0 48 47 47 52 51 50 42 42 41 40
2490.0 42 36 43 33 34 37 34 34 42 40
2530.0 42 47 50 61 61 64 63 64 61 59
2570.0 62 54 51 44 41 46 43 43 42 39
2610.0 36 37 35 34 36 35 36 28 25 18
2650.0 28 30 56 71 72 67 61 40 29 14
2690.0 16 17 31 33 33 37 38 37 33 35
2730.0 41 46 57 68 75 75 68 59 50 51
2770.0 44 45 45 47 49 49 55 49 52 61
2810.0 68 71 75 83 101 108 128 146 156 183
2850.0 217 261 301 365 449 544 634 688 702 682
2890.0 628 588 563 573 592 634 703 818 989 1208
2930.0 1405 1493 1501 1405 1229 1057 927 834 779 754
2970.0 742 716 721 713 723 742 781 812 871 1001
3010.0 1108 1166 1198 1238 1238 1268 1287 1318 1313 1280
3050.0 1246 1261 1243 1238 1243 1196 1136 1060 940 793
3090.0 662 574 508 468 413 359 313 255 196 154
3130.0 125 110 98 93 78 89 74 79 65 69
3170.0 74 73 82 77 92 91 86 75 76 69
3210.0 62 70 64 55 62 67 63 53 59 60
3250.0 57 57 55 56 63 61 52 46 50 34
3290.0 64 57 56 61 54 48 48 56 50 64
3330.0 78 67 63 75 74 57 62 70 90 75
3370.0 97 110 133 163 194 223 228 211 194 152
3410.0 121 88 86 77 63 49 68 65 53 53
3450.0 59 43 56 67 60 57 37 56 54 60
3490.0 57 62 54 50 43 68 64 33 45 44
3530.0 39 41 35 34 30 45 29 21 31 39
3570.0 42 32 18 42 29 38 44 23 40 35
3610.0 37 15 28 22 21 43 34 55 45 52
3650.0 63 28 32 37 46 34 69 45 55 39
3690.0 44 52 56 56 65 32 66 62 59 74
3730.0 37 37 63 76 85 70 53 62 57 67
3770.0 68 50 58 57 73 66 43 52 53 58
3810.0 50 91 64 59 43 57 50 61 33 60
3850.0 66 58 55 59 66 71 37 32 66 67
3890.0 36 49 68 79 66 61 72 91 75 75
3930.0 91 64 62 82 60 29 62 47 69 74
##END=
