##TITLE=Pyridine, 2,6-bis(1,1-dimethylethyl)-
##JCAMP-DX=4.24
##DATA TYPE=INFRARED SPECTRUM
##ORIGIN=Sadtler Research Labs Under US-EPA Contract
##OWNER=NIST Standard Reference Data Program
##CAS REGISTRY NO=585-48-8
##MOLFORM=C 13 H 21 N
##XUNITS=1/CM
##YUNITS=ABSORBANCE
##XFACTOR=1.0
##YFACTOR=0.000126288
##DELTAX=4.0
##FIRSTX=450.0
##LASTX=3966.0
##FIRSTY=0.003789
##MAXX=3966
##MINX=450
##MAXY=1.26288
##MINY=0
##NPOINTS=880
##XYDATA=(X++(Y..Y))
450.0 30 50 31 74 93 76 101 123 97 109
490.0 83 61 59 81 88 85 56 44 36 26
530.0 37 45 80 144 217 248 225 149 92 53
570.0 36 19 21 27 21 15 3 11 11 10
610.0 7 13 15 8 7 15 16 21 12 17
650.0 32 50 75 93 100 93 66 30 28 26
690.0 29 28 24 23 26 24 25 20 25 35
730.0 58 168 397 725 1138 1277 886 541 281 131
770.0 83 65 50 53 45 50 61 107 216 410
810.0 659 877 786 537 334 174 93 58 36 19
850.0 21 17 12 22 25 39 89 220 438 582
890.0 555 359 154 75 52 49 52 63 79 99
930.0 118 143 141 108 65 39 24 19 12 11
970.0 12 14 34 63 107 146 159 140 99 59
1010.0 44 41 38 40 38 36 39 37 34 36
1050.0 35 30 29 30 33 40 51 71 98 149
1090.0 234 358 464 485 433 295 169 116 113 147
1130.0 226 353 547 877 1211 1246 1098 863 779 710
1170.0 500 259 161 135 139 173 232 312 398 459
1210.0 479 472 490 535 560 561 612 796 1021 1070
1250.0 875 547 311 219 217 260 287 275 213 140
1290.0 104 83 66 53 43 39 35 35 37 39
1330.0 49 65 97 157 263 449 740 1145 1546 1615
1370.0 1421 1027 700 493 446 585 714 738 614 467
1410.0 396 331 293 313 435 646 919 1225 1595 2050
1450.0 2459 2607 2381 1938 1583 1470 1663 2116 2443 2301
1490.0 1727 1004 557 348 231 151 99 78 74 71
1530.0 82 95 120 149 180 232 336 510 800 1348
1570.0 2444 4157 5540 5447 3812 2348 1573 1036 652 420
1610.0 288 211 162 125 104 87 77 67 58 55
1650.0 58 57 55 56 56 57 59 54 57 54
1690.0 51 55 63 67 67 56 44 38 27 25
1730.0 26 26 19 17 21 24 22 25 24 23
1770.0 29 42 50 56 49 40 24 12 9 4
1810.0 5 8 5 7 6 6 2 1 3 6
1850.0 6 7 15 33 60 74 64 42 19 10
1890.0 6 5 5 6 8 11 11 9 7 7
1930.0 8 9 15 23 38 58 77 82 71 49
1970.0 27 16 7 5 3 3 2 0 0 0
2010.0 0 2 3 4 7 8 8 8 8 7
2050.0 7 7 7 4 4 1 1 1 3 1
2090.0 4 3 2 4 3 3 6 4 6 6
2130.0 7 8 5 6 5 6 7 8 7 7
2170.0 7 9 11 13 15 15 12 10 10 10
2210.0 7 9 9 7 7 5 8 11 17 18
2250.0 19 17 11 7 5 6 4 4 7 9
2290.0 11 14 14 13 11 9 11 12 15 22
2330.0 25 24 29 26 26 26 35 30 27 31
2370.0 26 28 27 26 27 26 22 18 17 16
2410.0 14 14 12 13 12 10 12 14 13 16
2450.0 13 12 13 12 10 12 12 13 10 8
2490.0 9 7 9 8 8 11 10 9 8 10
2530.0 11 11 12 13 19 23 28 35 38 39
2570.0 39 36 30 27 28 25 30 31 33 31
2610.0 31 29 27 29 31 33 36 37 39 40
2650.0 41 45 41 40 43 44 45 45 46 46
2690.0 45 44 49 57 68 81 91 92 91 85
2730.0 79 80 80 82 83 81 77 73 68 67
2770.0 69 76 88 96 100 98 97 100 111 128
2810.0 142 153 158 163 167 176 189 215 251 310
2850.0 397 535 760 1093 1505 1886 2132 2171 2096 2003
2890.0 1915 1872 1947 2217 2637 2975 3070 2958 2831 2802
2930.0 2834 2839 2835 2894 3176 3941 5432 7464 9142 10000
2970.0 9549 8049 6294 5061 4109 3140 2076 1235 807 593
3010.0 468 382 317 264 224 200 187 187 204 234
3050.0 286 362 442 510 560 591 623 677 746 806
3090.0 786 657 463 272 158 109 91 81 73 69
3130.0 67 69 70 78 93 105 112 117 115 110
3170.0 103 104 107 107 104 97 97 94 93 92
3210.0 94 93 95 93 93 91 88 85 80 74
3250.0 69 62 62 63 58 54 50 46 48 44
3290.0 40 37 31 29 29 26 32 29 31 30
3330.0 27 27 22 21 23 21 26 27 24 21
3370.0 24 25 24 20 18 14 16 15 15 12
3410.0 18 19 23 17 22 20 20 19 17 18
3450.0 16 15 20 22 17 19 18 17 20 14
3490.0 18 14 16 14 22 21 20 17 15 18
3530.0 13 16 17 13 10 7 13 14 10 6
3570.0 5 9 8 11 10 10 10 14 9 5
3610.0 8 9 16 16 17 17 20 17 22 22
3650.0 18 10 12 13 15 8 15 10 17 12
3690.0 12 13 15 15 17 19 18 13 15 24
3730.0 17 16 17 11 11 18 16 13 18 20
3770.0 13 17 12 19 17 17 17 20 16 23
3810.0 24 16 23 25 25 16 12 17 22 34
3850.0 30 24 20 23 18 21 10 21 19 23
3890.0 31 31 30 28 26 31 27 16 18 16
3930.0 9 15 13 15 12 22 30 27 9 20
##END=
