##TITLE=Cyclohexanol, 2-propyl-,
##JCAMP-DX=4.24
##DATA TYPE=INFRARED SPECTRUM
##ORIGIN=Sadtler Research Labs Under US-EPA Contract
##OWNER=NIST Standard Reference Data Program
##CAS REGISTRY NO=5857-86-3
##MOLFORM=C 9 H 18 O
##XUNITS=1/CM
##YUNITS=ABSORBANCE
##XFACTOR=1.0
##YFACTOR=0.000079440
##DELTAX=4.0
##FIRSTX=450.0
##LASTX=3966.0
##FIRSTY=0.004131
##MAXX=3966
##MINX=450
##MAXY=0.7944
##MINY=0
##NPOINTS=880
##XYDATA=(X++(Y..Y))
450.0 52 66 72 65 59 56 33 38 33 34
490.0 15 28 44 79 84 72 78 65 60 59
530.0 69 64 26 8 34 45 84 73 79 78
570.0 60 64 47 22 22 3 25 17 16 28
610.0 22 13 6 20 38 8 25 19 44 22
650.0 29 32 30 32 30 45 43 19 20 11
690.0 24 14 22 17 24 22 16 13 33 60
730.0 69 81 99 102 86 71 49 37 29 24
770.0 29 44 43 36 60 53 68 84 99 108
810.0 108 112 94 87 105 118 144 176 181 191
850.0 192 178 167 166 155 163 157 157 169 169
890.0 182 177 185 185 176 169 176 180 195 188
930.0 187 187 187 215 253 303 351 433 549 703
970.0 860 959 939 814 625 441 318 251 245 274
1010.0 312 375 425 476 539 607 678 766 894 1023
1050.0 1139 1206 1186 1096 940 771 624 532 469 414
1090.0 380 359 333 314 302 297 297 318 353 392
1130.0 412 414 410 406 378 354 334 315 303 304
1170.0 311 343 392 444 472 484 473 442 435 421
1210.0 434 454 479 491 482 461 430 418 390 384
1250.0 384 390 403 397 384 363 338 312 288 263
1290.0 247 242 242 235 241 246 265 277 310 323
1330.0 328 323 323 328 330 327 322 334 356 377
1370.0 415 453 497 524 519 477 404 324 256 220
1410.0 182 158 152 148 166 194 265 394 554 730
1450.0 884 1019 1002 937 826 692 544 382 255 171
1490.0 118 91 64 59 61 51 47 52 45 40
1530.0 35 30 34 26 27 26 27 27 26 26
1570.0 25 19 12 14 14 13 14 20 15 22
1610.0 16 16 11 18 15 13 14 7 8 7
1650.0 10 5 5 11 10 10 5 3 7 11
1690.0 7 2 5 6 7 2 15 13 29 24
1730.0 27 19 23 14 14 12 9 8 8 5
1770.0 3 7 5 9 3 2 2 4 2 4
1810.0 9 3 10 3 10 6 6 7 3 8
1850.0 4 4 4 4 4 3 5 5 5 4
1890.0 8 5 5 7 6 5 4 5 4 6
1930.0 6 8 4 13 5 5 5 13 13 5
1970.0 6 6 6 7 7 5 5 7 7 7
2010.0 6 6 6 7 13 14 13 12 7 15
2050.0 7 8 12 7 12 13 8 8 7 7
2090.0 13 9 14 14 14 14 14 14 10 14
2130.0 14 14 14 13 15 22 14 14 14 15
2170.0 15 15 16 16 21 15 22 15 19 14
2210.0 19 15 19 14 14 16 21 14 21 14
2250.0 21 15 17 20 17 16 19 10 16 14
2290.0 11 11 7 5 1 6 9 9 10 24
2330.0 18 15 23 24 18 12 17 20 27 21
2370.0 23 32 29 17 16 23 29 28 28 28
2410.0 28 27 27 25 26 21 21 21 18 20
2450.0 20 20 21 20 27 21 20 27 26 26
2490.0 26 25 27 27 27 27 26 26 32 27
2530.0 26 33 30 27 30 32 33 38 38 38
2570.0 39 39 30 47 46 48 51 58 58 58
2610.0 63 69 63 64 64 64 69 71 78 84
2650.0 97 102 118 132 143 150 150 143 131 117
2690.0 114 91 100 100 100 100 93 93 100 99
2730.0 106 112 117 118 119 125 117 114 115 113
2770.0 124 124 136 149 156 169 180 187 199 209
2810.0 214 227 240 261 288 330 400 503 673 944
2850.0 1370 1947 2647 3290 3814 4031 3935 3741 3400 3057
2890.0 2758 2511 2394 2437 2646 2972 3383 4023 4866 6026
2930.0 7435 8911 9884 10000 8809 7014 5237 3946 3476 3474
2970.0 3329 2838 2102 1320 816 541 390 304 258 222
3010.0 214 195 182 169 166 156 150 136 124 115
3050.0 97 90 78 71 60 68 56 57 56 53
3090.0 53 56 47 47 48 40 40 39 39 37
3130.0 40 45 40 40 40 33 23 28 28 27
3170.0 15 20 21 23 22 30 27 24 31 27
3210.0 20 15 15 20 26 14 12 20 17 20
3250.0 21 14 15 13 13 8 2 2 2 4
3290.0 11 8 5 5 7 8 13 12 13 8
3330.0 2 13 14 6 8 7 5 4 6 7
3370.0 3 8 13 7 8 7 13 17 13 5
3410.0 21 6 11 6 13 18 12 12 19 13
3450.0 26 19 26 19 4 10 13 9 17 19
3490.0 25 11 5 24 21 1 23 11 13 4
3530.0 17 13 5 0 13 7 11 1 6 11
3570.0 15 11 12 15 19 32 30 20 18 22
3610.0 22 31 48 47 60 89 95 138 184 270
3650.0 349 418 427 386 320 236 151 99 74 55
3690.0 34 30 28 30 29 19 20 23 24 25
3730.0 21 22 26 21 17 23 17 17 23 29
3770.0 30 22 24 28 28 32 33 29 30 29
3810.0 28 22 19 17 30 28 30 31 27 24
3850.0 23 20 17 16 17 18 16 16 10 8
3890.0 5 3 4 5 10 8 21 17 10 3
3930.0 0 0 0 3 0 0 2 2 0 0
##END=
