##TITLE=Benzenethiol, 2,5-dichloro-
##JCAMP-DX=4.24
##DATA TYPE=INFRARED SPECTRUM
##ORIGIN=Sadtler Research Labs Under US-EPA Contract
##OWNER=NIST Standard Reference Data Program
##CAS REGISTRY NO=5858-18-4
##MOLFORM=C 6 H 4 Cl 2 S
##XUNITS=1/CM
##YUNITS=ABSORBANCE
##XFACTOR=1.0
##YFACTOR=0.000123743
##DELTAX=4.0
##FIRSTX=450.0
##LASTX=3966.0
##FIRSTY=0.014478
##MAXX=3966
##MINX=450
##MAXY=1.23743
##MINY=0
##NPOINTS=880
##XYDATA=(X++(Y..Y))
450.0 117 95 62 64 38 37 38 21 6 10
490.0 9 30 39 65 79 94 103 90 54 79
530.0 137 261 377 491 658 844 1217 1961 2604 2841
570.0 2408 1502 650 220 151 172 185 190 148 80
610.0 46 26 29 33 16 22 29 39 33 44
650.0 22 29 41 81 171 270 309 319 217 141
690.0 175 108 60 66 70 88 81 77 62 65
730.0 68 75 65 46 51 68 75 85 95 101
770.0 131 184 250 308 389 587 1002 1743 2795 4493
810.0 5102 4307 3293 1741 843 547 391 322 325 383
850.0 472 621 837 888 1012 1125 930 695 493 311
890.0 198 154 135 129 136 142 149 163 170 177
930.0 200 237 291 294 291 269 203 163 154 150
970.0 149 154 160 145 138 135 127 120 121 124
1010.0 131 157 219 390 804 1662 3009 4011 4079 3460
1050.0 1901 700 354 295 321 381 481 680 1098 1849
1090.0 2893 4106 4971 4913 4583 3826 3240 2853 2203 1437
1130.0 991 1107 1311 1299 1198 715 427 293 203 158
1170.0 130 107 90 62 55 62 73 80 84 75
1210.0 66 63 73 94 147 214 289 407 580 800
1250.0 893 850 667 363 203 123 83 60 53 45
1290.0 46 46 55 59 64 56 51 39 59 69
1330.0 84 107 106 189 317 450 624 831 1039 1201
1370.0 1365 1434 1248 1093 812 522 355 363 544 757
1410.0 968 1101 937 825 603 526 534 824 1496 3167
1450.0 6449 9575 10000 8415 4252 1484 696 613 741 746
1490.0 657 555 341 215 105 35 61 40 12 68
1530.0 69 128 154 222 405 669 920 1204 1749 2333
1570.0 2725 2765 2382 1663 1043 602 410 283 249 223
1610.0 222 224 174 175 110 142 86 81 101 102
1650.0 40 71 99 113 102 95 44 94 18 13
1690.0 41 63 8 38 67 114 97 55 119 161
1730.0 156 141 205 200 143 86 78 53 40 55
1770.0 27 16 42 28 31 15 11 15 8 41
1810.0 41 39 55 36 29 8 24 39 19 7
1850.0 32 58 67 100 129 166 224 221 201 142
1890.0 89 55 39 34 28 26 23 20 6 20
1930.0 24 23 23 8 14 28 30 27 29 16
1970.0 19 17 19 17 15 2 4 9 12 11
2010.0 17 11 8 13 17 18 19 13 9 11
2050.0 14 13 13 9 5 12 11 13 9 10
2090.0 7 10 11 10 12 11 15 17 21 24
2130.0 23 22 18 12 11 9 9 10 12 10
2170.0 11 11 11 14 14 11 9 6 6 6
2210.0 5 5 4 3 5 8 8 12 12 13
2250.0 15 15 17 18 21 27 33 42 42 42
2290.0 41 34 29 30 29 27 23 23 22 21
2330.0 25 27 21 29 40 44 41 38 27 30
2370.0 27 30 35 37 30 27 26 25 22 25
2410.0 23 17 13 12 10 10 9 9 6 7
2450.0 10 11 9 12 12 13 11 15 16 19
2490.0 20 25 30 36 38 41 40 38 35 30
2530.0 24 20 16 18 18 18 18 20 22 25
2570.0 34 42 58 77 112 162 233 309 346 312
2610.0 254 154 83 60 50 46 46 43 45 42
2650.0 43 44 41 43 38 40 40 35 34 33
2690.0 36 39 40 42 41 38 34 31 27 21
2730.0 18 19 17 19 18 21 19 24 23 25
2770.0 29 35 41 47 56 66 74 83 85 88
2810.0 82 72 65 60 55 51 50 53 49 49
2850.0 53 61 68 72 75 77 72 67 59 55
2890.0 47 45 43 40 38 38 42 38 36 41
2930.0 41 43 48 48 46 41 38 38 38 35
2970.0 34 33 31 31 30 28 25 26 25 24
3010.0 23 26 29 24 23 24 20 19 21 23
3050.0 25 33 40 47 64 77 89 101 111 112
3090.0 101 92 69 47 34 25 24 21 15 12
3130.0 9 9 8 9 11 11 9 10 15 12
3170.0 14 14 13 10 9 11 11 11 12 11
3210.0 14 14 10 13 12 13 12 14 12 10
3250.0 13 12 14 16 17 11 11 14 13 10
3290.0 10 13 15 12 11 14 15 13 11 13
3330.0 11 12 12 16 10 12 11 15 9 11
3370.0 10 10 9 15 12 13 13 13 9 15
3410.0 12 17 10 7 15 12 12 14 11 10
3450.0 14 10 12 16 15 13 19 23 21 31
3490.0 47 54 90 114 127 123 111 78 51 38
3530.0 30 24 19 12 15 11 13 7 11 9
3570.0 14 13 13 9 9 16 12 5 12 9
3610.0 20 10 12 19 12 27 17 18 20 17
3650.0 23 12 21 13 8 15 13 24 14 13
3690.0 23 14 18 15 13 0 20 14 9 14
3730.0 12 21 24 18 39 15 41 36 38 41
3770.0 33 28 13 24 16 16 17 5 16 21
3810.0 7 9 18 8 12 12 17 22 11 20
3850.0 10 26 19 23 27 25 30 28 32 35
3890.0 28 35 17 40 33 27 28 29 21 22
3930.0 23 20 17 23 24 16 7 14 13 16
##END=
