##TITLE=4-Chloro-meta-benzenedithiol
##JCAMP-DX=4.24
##DATA TYPE=INFRARED SPECTRUM
##ORIGIN=Sadtler Research Labs Under US-EPA Contract
##OWNER=NIST Standard Reference Data Program
##CAS REGISTRY NO=58593-78-5
##MOLFORM=C 6 H 5 Cl S 2
##XUNITS=1/CM
##YUNITS=ABSORBANCE
##XFACTOR=1.0
##YFACTOR=0.000068369
##DELTAX=4.0
##FIRSTX=450.0
##LASTX=3966.0
##FIRSTY=0.012580
##MAXX=3966
##MINX=450
##MAXY=0.68369
##MINY=0
##NPOINTS=880
##XYDATA=(X++(Y..Y))
450.0 184 201 232 126 137 163 130 71 66 79
490.0 85 107 97 132 99 115 137 148 188 248
530.0 319 480 584 748 891 1218 1508 1621 1462 957
570.0 502 257 156 139 164 160 206 184 178 115
610.0 49 12 18 17 15 12 23 22 38 23
650.0 34 42 82 160 385 762 733 699 434 195
690.0 152 163 182 160 131 108 98 90 84 87
730.0 91 98 75 99 116 113 141 145 192 241
770.0 326 429 582 795 1146 1738 2589 3807 5023 5026
810.0 4140 3089 1889 1110 725 514 409 359 341 371
850.0 421 492 577 649 707 729 694 624 502 372
890.0 267 209 173 173 192 238 299 355 384 397
930.0 382 372 373 330 298 237 158 116 98 100
970.0 90 94 97 102 108 101 106 108 119 135
1010.0 175 249 441 890 1809 3251 4466 4720 4318 2965
1050.0 1367 629 423 392 435 494 544 576 613 679
1090.0 787 1007 1432 2125 3152 4317 5058 5014 4202 3026
1130.0 2133 1889 2112 2480 2629 2272 1666 968 474 291
1170.0 218 180 145 127 114 106 100 104 102 108
1210.0 123 154 204 268 324 355 369 380 441 582
1250.0 765 905 922 811 676 520 386 302 259 227
1290.0 208 175 157 138 136 107 102 79 100 113
1330.0 146 198 263 400 585 849 1205 1581 1903 2100
1370.0 2275 2154 1855 1551 1107 771 600 581 670 805
1410.0 873 933 825 798 715 777 852 1260 1989 3698
1450.0 6675 9490 10000 8646 5582 2389 1231 1031 1014 855
1490.0 682 465 293 184 124 83 64 42 33 94
1530.0 116 265 370 569 813 1095 1401 1746 2197 2400
1570.0 2325 1989 1530 989 701 491 383 289 263 218
1610.0 190 167 123 132 72 127 71 79 76 95
1650.0 0 85 51 69 43 64 9 91 26 52
1690.0 80 118 86 140 139 186 174 167 217 271
1730.0 284 314 367 407 380 348 304 230 180 159
1770.0 140 112 138 142 174 144 158 144 154 164
1810.0 154 138 154 104 102 63 67 75 55 54
1850.0 64 85 101 141 166 212 253 272 253 210
1890.0 157 110 81 58 40 38 27 40 19 34
1930.0 38 38 39 30 30 42 42 35 35 27
1970.0 28 29 31 30 28 16 27 24 26 27
2010.0 32 26 25 26 26 26 26 22 24 22
2050.0 23 20 25 22 23 27 23 20 21 17
2090.0 16 17 19 21 21 17 21 20 23 28
2130.0 27 26 21 18 14 13 10 15 17 18
2170.0 19 18 22 18 20 16 14 13 16 12
2210.0 11 12 14 15 16 19 17 23 30 39
2250.0 38 44 50 53 63 76 87 97 100 105
2290.0 114 124 127 126 123 120 109 91 103 86
2330.0 83 80 70 77 113 127 130 122 115 96
2370.0 103 111 118 120 98 73 63 63 62 65
2410.0 61 57 51 44 41 37 37 39 35 37
2450.0 32 41 40 41 46 43 51 53 54 57
2490.0 61 67 74 80 83 84 87 83 77 74
2530.0 66 61 61 59 60 62 63 70 80 87
2570.0 100 118 141 176 219 288 373 429 439 384
2610.0 307 185 114 88 78 70 69 59 61 63
2650.0 63 62 58 60 55 54 55 55 47 49
2690.0 48 51 51 59 59 52 54 54 49 49
2730.0 43 34 31 34 32 39 39 35 39 44
2770.0 46 60 74 73 88 93 96 109 94 75
2810.0 61 49 48 60 46 46 41 31 31 26
2850.0 20 34 40 50 62 62 54 61 64 64
2890.0 60 46 38 35 34 36 42 55 73 106
2930.0 114 124 129 135 148 141 144 146 172 186
2970.0 193 203 196 187 157 140 129 134 118 113
3010.0 102 104 98 93 91 99 105 128 160 211
3050.0 266 316 366 367 333 326 330 364 377 361
3090.0 331 246 177 132 100 80 66 55 55 49
3130.0 43 40 40 37 37 38 36 36 36 32
3170.0 30 31 26 28 26 25 25 26 26 26
3210.0 26 26 26 28 27 28 27 24 28 27
3250.0 28 27 27 31 24 26 25 27 35 29
3290.0 23 23 26 26 16 23 25 24 17 29
3330.0 29 18 20 23 22 16 22 20 13 19
3370.0 14 23 22 23 17 22 24 24 21 19
3410.0 18 17 13 21 18 20 12 20 14 18
3450.0 17 15 20 24 22 25 38 50 65 69
3490.0 100 120 162 184 164 166 128 91 74 74
3530.0 55 40 37 26 60 25 55 27 63 51
3570.0 85 70 55 63 62 83 63 39 58 44
3610.0 78 67 62 75 49 108 58 64 55 57
3650.0 67 53 72 54 49 67 53 82 48 67
3690.0 66 60 79 68 60 55 65 71 70 80
3730.0 89 86 104 75 129 72 114 77 74 80
3770.0 81 79 61 47 42 57 53 63 61 72
3810.0 50 45 57 83 44 53 62 69 57 83
3850.0 58 116 87 79 74 110 77 70 67 101
3890.0 64 71 52 102 86 73 71 107 64 75
3930.0 77 88 83 79 81 84 82 72 77 96
##END=
