##TITLE=Naphthalene, 1-chloro-2-methyl-,
##JCAMP-DX=4.24
##DATA TYPE=INFRARED SPECTRUM
##ORIGIN=Sadtler Research Labs Under US-EPA Contract
##OWNER=NIST Standard Reference Data Program
##CAS REGISTRY NO=5859-45-0
##MOLFORM=C 11 H 9 Cl
##XUNITS=1/CM
##YUNITS=ABSORBANCE
##XFACTOR=1.0
##YFACTOR=0.000047177
##DELTAX=4.0
##FIRSTX=450.0
##LASTX=3966.0
##FIRSTY=0.002359
##MAXX=3966
##MINX=450
##MAXY=0.47177
##MINY=0
##NPOINTS=880
##XYDATA=(X++(Y..Y))
450.0 50 194 810 0 322 168 691 341 458 633
490.0 409 631 1002 986 507 577 505 616 709 1383
530.0 1554 2182 2534 1757 1034 1354 821 581 459 480
570.0 423 529 419 467 431 422 397 294 347 466
610.0 469 449 447 572 745 895 1024 959 1007 1549
650.0 1809 1966 1865 1429 931 609 524 456 391 451
690.0 344 394 519 524 837 910 1076 1041 1072 1839
730.0 2210 3535 4752 3987 2730 2665 2313 2498 2766 4264
770.0 3895 2761 1755 1483 1152 2174 3727 5348 7925 10000
810.0 6645 5197 3983 2520 2065 2043 1566 1460 1063 841
850.0 993 923 1059 1282 863 777 585 645 730 986
890.0 1285 1595 1746 1630 1445 1124 906 874 776 710
930.0 576 600 624 737 815 846 949 981 907 1191
970.0 1665 2205 2493 2552 2374 2045 1764 1618 1564 1529
1010.0 1497 1564 1631 1756 1974 2114 2148 2057 1776 1350
1050.0 1022 826 763 697 638 559 565 455 340 336
1090.0 388 303 379 289 289 370 295 235 446 551
1130.0 652 1026 1400 1719 1799 1410 930 634 538 415
1170.0 472 359 452 426 384 415 462 436 555 560
1210.0 689 1039 1494 1838 1757 1795 1375 843 734 655
1250.0 930 1359 1474 1529 1522 1217 811 719 527 389
1290.0 379 382 411 493 540 615 742 998 1489 2007
1330.0 2335 2498 2655 2551 2424 2462 2363 2128 1896 1801
1370.0 1631 1342 1204 1014 898 865 767 653 570 527
1410.0 534 520 532 602 643 695 793 822 894 933
1450.0 941 876 944 939 891 912 839 734 770 779
1490.0 1056 1390 2262 2864 2918 2597 1945 1088 682 632
1530.0 483 658 639 731 866 950 1211 1376 1657 1680
1570.0 1542 1285 909 842 836 951 1143 1206 1245 1093
1610.0 915 725 704 711 830 882 807 626 496 374
1650.0 355 261 368 351 340 332 310 314 313 415
1690.0 490 499 419 336 315 319 324 296 307 303
1730.0 308 369 469 603 647 591 461 318 241 239
1770.0 245 265 275 279 265 264 240 300 317 363
1810.0 407 385 391 372 397 416 398 382 285 216
1850.0 176 174 186 162 150 123 197 202 268 325
1890.0 387 476 505 486 474 440 425 405 387 372
1930.0 332 329 366 418 441 415 347 243 153 120
1970.0 112 114 112 109 110 111 97 104 109 103
2010.0 87 93 99 93 105 108 102 103 111 105
2050.0 118 111 113 117 111 106 103 103 101 105
2090.0 109 112 107 117 112 111 121 114 111 114
2130.0 105 98 102 101 91 97 90 92 96 89
2170.0 86 89 85 87 90 90 92 86 83 92
2210.0 89 77 82 77 77 87 89 74 87 91
2250.0 82 89 85 93 91 89 99 103 123 130
2290.0 123 116 118 103 98 84 86 64 64 60
2330.0 68 64 71 58 66 59 74 61 58 59
2370.0 59 59 62 71 84 102 117 115 118 115
2410.0 125 118 117 120 115 112 104 110 115 117
2450.0 112 115 120 121 123 120 119 120 127 131
2490.0 141 132 129 119 121 117 123 121 120 118
2530.0 118 112 115 105 106 101 105 94 101 97
2570.0 94 102 104 106 116 124 131 119 131 124
2610.0 118 114 115 102 106 91 98 104 102 90
2650.0 103 101 91 97 98 101 108 96 98 112
2690.0 112 120 119 130 121 119 132 125 126 140
2730.0 154 164 174 197 214 219 218 204 175 159
2770.0 152 138 131 139 132 135 141 146 152 165
2810.0 164 178 182 206 218 223 227 271 293 337
2850.0 399 478 592 730 903 1004 1026 1029 965 912
2890.0 868 854 858 862 874 915 964 1089 1330 1719
2930.0 2269 2768 2900 2710 2210 1693 1413 1346 1369 1383
2970.0 1343 1308 1329 1373 1406 1348 1261 1144 1068 1084
3010.0 1174 1350 1474 1547 1573 1572 1626 1830 2203 2819
3050.0 3738 5150 6327 6568 6419 5567 4413 3713 3318 2786
3090.0 2104 1449 1081 882 745 686 603 536 461 379
3130.0 320 274 233 223 209 191 187 201 182 171
3170.0 194 163 168 177 169 163 148 164 157 152
3210.0 154 164 154 143 150 163 157 142 147 141
3250.0 157 132 113 149 161 160 139 148 138 171
3290.0 139 168 141 126 133 140 131 133 124 127
3330.0 138 162 135 130 139 148 137 107 129 159
3370.0 125 129 149 135 147 142 124 156 143 144
3410.0 154 142 148 159 173 160 144 173 136 159
3450.0 171 172 168 162 141 175 165 173 161 132
3490.0 191 177 173 130 163 154 153 159 150 133
3530.0 144 178 172 160 142 177 194 131 180 133
3570.0 190 186 154 163 171 155 171 163 149 159
3610.0 160 154 143 171 133 180 111 183 108 140
3650.0 111 148 141 141 186 90 219 55 180 162
3690.0 146 175 154 169 138 133 153 151 200 113
3730.0 133 149 139 201 101 163 67 171 148 148
3770.0 174 156 184 132 141 151 177 142 95 134
3810.0 218 110 182 61 174 161 224 127 102 215
3850.0 125 214 65 218 187 119 185 114 165 203
3890.0 203 91 127 155 135 220 218 243 221 277
3930.0 188 169 196 155 193 326 227 187 277 230
##END=
