##TITLE=Benzoic acid, 3-methoxy-
##JCAMP-DX=4.24
##DATA TYPE=INFRARED SPECTRUM
##ORIGIN=Sadtler Research Labs Under US-EPA Contract
##OWNER=NIST Standard Reference Data Program
##CAS REGISTRY NO=586-38-9
##MOLFORM=C 8 H 8 O 3
##XUNITS=1/CM
##YUNITS=ABSORBANCE
##XFACTOR=1.0
##YFACTOR=0.000139542
##DELTAX=4.0
##FIRSTX=450.0
##LASTX=3966.0
##FIRSTY=0.000000
##MAXX=3966
##MINX=450
##MAXY=1.39542
##MINY=0
##NPOINTS=880
##XYDATA=(X++(Y..Y))
450.0 0 1 93 93 92 99 62 98 87 96
490.0 56 78 64 96 121 190 196 255 301 340
530.0 377 381 379 355 346 367 399 421 495 573
570.0 683 809 955 1087 1237 1346 1304 1207 991 834
610.0 651 529 455 733 1278 1653 1790 1549 1146 567
650.0 279 146 92 79 29 203 244 230 335 342
690.0 284 223 202 200 275 527 965 1299 1426 1396
730.0 1017 625 586 781 1136 1533 2091 2598 2196 1680
770.0 1324 871 563 353 260 201 185 183 194 192
810.0 162 145 115 101 87 80 81 86 90 98
850.0 110 124 163 213 293 394 517 649 772 806
890.0 772 675 503 357 260 188 135 102 78 66
930.0 61 59 60 65 66 64 61 58 55 57
970.0 61 72 83 104 132 171 201 218 232 244
1010.0 269 323 415 564 789 1098 1480 1870 2213 2463
1050.0 2643 2703 2711 2535 2273 2123 1910 1855 2069 2395
1090.0 2603 2414 2034 1591 1096 778 639 578 561 596
1130.0 686 853 1116 1520 2059 2617 3055 3335 3422 3269
1170.0 3018 2731 2478 2291 2122 1943 1742 1485 1163 899
1210.0 747 682 677 739 904 1226 1786 2574 3439 4193
1250.0 4576 4245 3656 2868 2062 1644 1552 1613 1756 1861
1290.0 1849 1773 1671 1590 1582 1621 1695 1821 1980 2210
1330.0 2470 2646 2682 2496 2157 1809 1581 1505 1461 1342
1370.0 1156 922 672 494 416 365 347 338 307 304
1410.0 336 385 569 794 1157 1525 1781 1796 1594 1336
1450.0 1247 1344 1471 1541 1494 1334 1343 1454 1578 1741
1490.0 1731 1525 1223 838 552 382 265 230 233 181
1530.0 173 156 179 211 209 200 237 315 345 415
1570.0 577 807 1122 1480 1707 1910 2006 2087 2005 1823
1610.0 1521 1146 806 502 347 220 205 185 162 166
1650.0 199 192 163 150 152 154 177 154 204 233
1690.0 237 276 377 448 518 578 668 714 670 641
1730.0 654 772 995 1528 2619 4416 6963 9192 10000 9256
1770.0 6633 3425 1675 992 666 530 475 451 461 458
1810.0 469 442 354 269 197 138 88 54 56 60
1850.0 47 37 43 46 62 80 66 60 51 44
1890.0 37 28 19 18 22 27 33 39 52 48
1930.0 54 58 59 62 53 38 32 33 31 40
1970.0 36 33 25 18 14 18 14 8 8 9
2010.0 12 18 26 26 31 37 41 45 48 48
2050.0 44 42 39 40 39 37 37 36 33 34
2090.0 33 31 28 30 30 31 31 32 32 35
2130.0 36 38 37 35 32 27 22 19 14 15
2170.0 14 13 15 14 11 13 13 12 11 10
2210.0 13 12 11 10 9 9 9 9 7 6
2250.0 3 3 3 1 1 2 1 1 3 2
2290.0 3 4 3 7 7 1 11 12 11 16
2330.0 14 18 11 16 1 4 21 24 14 1
2370.0 1 1 1 3 10 16 20 21 20 20
2410.0 24 23 23 24 24 24 26 25 25 27
2450.0 27 29 29 31 35 36 40 45 49 52
2490.0 59 57 59 58 54 50 48 46 45 48
2530.0 48 46 48 46 44 45 43 45 45 44
2570.0 46 45 44 45 46 44 44 45 45 44
2610.0 43 43 43 42 42 41 38 37 38 36
2650.0 38 34 32 30 30 28 25 27 27 26
2690.0 28 30 29 29 31 30 29 30 29 30
2730.0 30 31 27 33 35 36 36 38 40 41
2770.0 45 45 46 47 50 53 58 60 67 73
2810.0 79 87 101 121 148 192 264 365 463 503
2850.0 507 455 354 273 236 217 209 213 223 230
2890.0 248 263 278 299 322 352 382 416 443 459
2930.0 475 505 567 654 745 797 828 813 772 695
2970.0 574 474 397 335 304 295 319 377 486 633
3010.0 714 695 626 471 317 250 230 230 241 252
3050.0 250 242 233 231 248 280 324 361 379 374
3090.0 343 287 230 189 159 140 121 108 95 82
3130.0 71 60 58 54 50 50 48 49 42 43
3170.0 45 41 43 43 41 39 36 38 36 35
3210.0 34 35 34 35 29 30 28 28 26 25
3250.0 24 25 27 28 27 24 30 29 24 23
3290.0 19 17 23 21 22 22 22 22 20 20
3330.0 23 18 25 25 18 20 26 24 24 20
3370.0 20 18 19 17 12 12 12 8 12 10
3410.0 8 3 6 3 11 13 12 12 17 11
3450.0 8 6 9 7 9 8 7 8 8 17
3490.0 27 37 41 52 47 39 25 16 7 1
3530.0 2 3 10 7 14 18 27 53 112 236
3570.0 536 1223 2359 3173 3102 2744 1702 578 150 50
3610.0 18 21 20 26 24 30 15 19 13 19
3650.0 11 6 7 3 15 11 15 11 7 18
3690.0 21 10 12 17 20 14 9 13 25 25
3730.0 21 28 22 19 17 22 16 15 10 18
3770.0 13 8 16 19 9 10 14 24 16 13
3810.0 19 13 20 12 11 16 18 19 8 3
3850.0 22 34 3 15 16 19 16 19 25 24
3890.0 20 21 17 15 16 12 21 13 9 15
3930.0 22 15 1 19 11 2 9 9 4 6
##END=
