##TITLE=Cyclohexene, 1-methyl-4-(1-methylethylidene)-
##JCAMP-DX=4.24
##DATA TYPE=INFRARED SPECTRUM
##ORIGIN=Sadtler Research Labs Under US-EPA Contract
##OWNER=NIST Standard Reference Data Program
##CAS REGISTRY NO=586-62-9
##MOLFORM=C 10 H 16
##XUNITS=1/CM
##YUNITS=ABSORBANCE
##XFACTOR=1.0
##YFACTOR=0.000111053
##DELTAX=4.0
##FIRSTX=450.0
##LASTX=3966.0
##FIRSTY=0.021989
##MAXX=3966
##MINX=450
##MAXY=1.11053
##MINY=0
##NPOINTS=880
##XYDATA=(X++(Y..Y))
450.0 198 119 100 54 12 75 37 72 55 82
490.0 60 72 78 94 59 38 66 51 48 44
530.0 51 50 41 67 75 93 92 88 83 67
570.0 52 43 43 39 46 47 38 57 66 70
610.0 57 51 51 43 35 45 39 48 51 57
650.0 60 49 49 36 32 59 36 57 44 59
690.0 49 50 47 55 68 90 125 174 215 228
730.0 243 234 206 185 184 185 193 224 256 295
770.0 300 310 344 418 515 617 712 601 525 470
810.0 360 288 232 210 179 155 135 119 115 100
850.0 100 100 110 121 145 161 189 200 218 234
890.0 251 267 286 319 349 391 422 432 426 429
930.0 428 415 406 397 396 383 368 336 299 257
970.0 222 193 172 169 171 177 175 178 178 187
1010.0 204 217 231 237 243 262 302 363 414 467
1050.0 475 439 395 330 277 245 237 244 252 275
1090.0 297 323 362 430 528 648 729 733 681 552
1130.0 434 378 393 450 507 579 629 626 620 604
1170.0 596 594 584 556 482 413 398 444 576 686
1210.0 707 712 715 727 745 710 615 449 313 271
1250.0 277 339 405 423 428 406 332 274 257 268
1290.0 317 367 395 393 380 351 347 370 391 387
1330.0 364 341 306 287 274 297 335 401 512 671
1370.0 890 1152 1310 1355 1303 1061 757 564 479 462
1410.0 455 529 613 791 931 1151 1366 1550 1649 1759
1450.0 1760 1629 1537 1345 1120 943 749 626 537 456
1490.0 413 374 352 324 343 339 327 340 323 315
1530.0 282 297 278 292 271 266 252 263 250 233
1570.0 225 227 206 197 193 192 183 189 179 178
1610.0 168 169 153 159 140 153 138 156 140 140
1650.0 119 135 87 105 112 114 154 148 164 169
1690.0 151 128 135 119 110 102 107 106 109 97
1730.0 87 92 80 68 73 75 66 66 62 64
1770.0 62 60 43 47 40 50 38 42 34 30
1810.0 27 26 19 22 23 21 22 15 27 21
1850.0 25 20 20 23 28 30 27 27 26 28
1890.0 27 29 28 31 32 29 35 32 35 29
1930.0 31 29 29 27 27 26 21 21 21 19
1970.0 21 21 17 15 14 12 12 9 11 10
2010.0 11 12 12 15 14 12 10 8 6 4
2050.0 3 5 5 6 9 5 3 5 3 4
2090.0 5 7 6 8 6 7 4 4 3 5
2130.0 6 5 9 8 6 7 8 6 7 5
2170.0 6 5 4 6 4 5 4 3 2 6
2210.0 3 3 5 2 7 3 9 9 11 12
2250.0 14 10 9 7 10 6 4 8 7 11
2290.0 13 15 15 21 21 26 28 25 31 25
2330.0 31 29 30 38 44 33 49 44 61 51
2370.0 49 47 45 41 35 29 29 27 29 30
2410.0 31 34 33 32 33 34 36 38 38 41
2450.0 42 42 45 45 49 48 47 44 40 36
2490.0 35 35 32 31 30 34 36 42 45 47
2530.0 52 51 52 51 47 45 42 38 39 39
2570.0 45 48 54 59 65 69 69 66 65 64
2610.0 66 66 70 70 70 66 66 66 69 72
2650.0 75 78 82 80 77 80 80 81 83 89
2690.0 94 104 108 113 122 134 155 182 225 283
2730.0 354 421 467 479 448 392 343 308 290 285
2770.0 288 296 313 330 358 393 440 515 636 827
2810.0 1110 1449 1786 2081 2303 2522 2845 3362 3873 4298
2850.0 4715 4999 5294 5802 6330 6550 6636 6417 6125 5977
2890.0 6110 6433 6776 7290 8018 8753 9269 9953 10000 9630
2930.0 9029 8162 7129 5897 4784 4054 3697 3815 4318 5108
2970.0 5828 6016 5981 5602 4858 4212 3781 3570 3404 3283
3010.0 3185 3111 3042 2895 2707 2459 2160 1865 1652 1479
3050.0 1335 1193 1062 923 789 677 586 518 460 421
3090.0 392 369 347 317 284 251 230 206 181 162
3130.0 152 138 130 117 109 102 93 90 88 82
3170.0 81 76 71 66 64 63 56 52 51 45
3210.0 46 40 39 39 34 34 31 29 32 29
3250.0 27 27 26 24 29 25 25 23 26 24
3290.0 25 23 29 34 34 36 36 36 35 35
3330.0 35 30 30 28 31 31 27 20 20 23
3370.0 17 16 18 17 17 16 11 16 18 20
3410.0 17 12 9 13 11 19 12 13 17 17
3450.0 17 11 14 14 16 17 13 20 11 16
3490.0 9 8 16 8 11 10 7 11 11 8
3530.0 9 7 6 13 18 16 11 19 11 25
3570.0 21 15 17 9 19 12 19 21 20 23
3610.0 22 21 20 20 22 15 33 11 27 22
3650.0 28 39 7 34 9 31 13 29 24 14
3690.0 33 13 20 13 20 21 14 17 21 1
3730.0 19 25 40 3 51 0 17 26 12 28
3770.0 20 24 9 21 14 19 3 29 10 45
3810.0 7 27 6 19 21 10 18 27 27 20
3850.0 30 12 27 26 16 30 19 18 14 45
3890.0 6 39 8 37 21 29 15 30 26 24
3930.0 47 25 42 26 35 24 35 31 31 27
##END=
