##TITLE=3-Methylbenzyl alcohol
##JCAMP-DX=4.24
##DATA TYPE=INFRARED SPECTRUM
##ORIGIN=Sadtler Research Labs Under US-EPA Contract
##OWNER=NIST Standard Reference Data Program
##CAS REGISTRY NO=587-03-1
##MOLFORM=C 8 H 10 O
##XUNITS=1/CM
##YUNITS=ABSORBANCE
##XFACTOR=1.0
##YFACTOR=0.000047946
##DELTAX=4.0
##FIRSTX=450.0
##LASTX=3966.0
##FIRSTY=0.000000
##MAXX=3966
##MINX=450
##MAXY=0.47946
##MINY=0
##NPOINTS=880
##XYDATA=(X++(Y..Y))
450.0 0 970 1064 862 897 1015 1002 1132 627 924
490.0 944 1038 1045 997 1145 1091 1116 1060 1140 985
530.0 1055 1000 800 727 842 845 829 886 823 872
570.0 845 868 829 878 871 888 1158 1204 1505 1640
610.0 1797 1754 1647 1392 1105 957 876 945 780 836
650.0 878 890 898 896 949 939 1144 1438 1849 2347
690.0 2976 3907 4601 3759 3280 2923 2533 2290 2308 2493
730.0 2772 3170 3111 2978 2872 2864 2922 3187 3700 4336
770.0 5058 5709 6390 6390 5432 4351 3447 2587 1884 1474
810.0 1233 1114 1054 991 981 943 964 929 986 994
850.0 1029 1085 1188 1359 1560 1816 2109 2444 2534 2454
890.0 2382 2306 2134 1935 1748 1566 1448 1356 1364 1357
930.0 1413 1444 1482 1550 1636 1745 1898 2137 2377 2670
970.0 2991 3334 3661 4035 4409 4790 5158 5537 6011 6554
1010.0 7248 7994 8794 9460 9898 10000 9694 9044 8135 7202
1050.0 6299 5595 5018 4523 4035 3536 3105 2711 2418 2202
1090.0 2050 1912 1818 1726 1622 1548 1507 1521 1542 1612
1130.0 1654 1772 1945 2239 2768 3298 3580 3600 3602 3260
1170.0 2783 2551 2546 2550 2538 2510 2454 2411 2346 2309
1210.0 2252 2237 2214 2182 2184 2197 2280 2393 2566 2671
1250.0 2720 2704 2608 2395 2199 2072 1949 1872 1821 1818
1290.0 1801 1791 1811 1833 1850 1869 1901 1907 1932 1933
1330.0 1936 1932 1962 1999 2077 2237 2460 2794 3223 3780
1370.0 4460 5206 5837 6203 6228 5927 5274 4467 3836 3414
1410.0 3132 2888 2743 2611 2550 2569 2670 2797 2842 2798
1450.0 2788 2739 2667 2686 2729 2812 2908 3003 3067 3109
1490.0 3097 3027 2831 2487 2144 1869 1682 1608 1572 1522
1530.0 1487 1448 1409 1345 1285 1201 1165 1145 1158 1143
1570.0 1192 1255 1374 1478 1628 1797 1960 2267 2645 3008
1610.0 3193 3143 2856 2398 1845 1324 1059 926 859 855
1650.0 836 854 856 833 861 889 877 870 843 851
1690.0 798 782 774 773 747 733 758 770 760 764
1730.0 791 795 812 826 857 892 904 913 912 923
1770.0 909 919 890 899 874 858 835 804 794 760
1810.0 742 735 727 732 748 747 758 791 832 888
1850.0 939 974 1009 994 970 925 859 793 763 738
1890.0 725 712 705 706 713 724 742 784 826 875
1930.0 931 958 952 934 889 806 748 701 681 674
1970.0 670 674 670 669 675 695 699 706 713 737
2010.0 738 744 754 766 770 766 777 758 755 754
2050.0 755 751 743 744 724 705 700 693 680 675
2090.0 671 667 667 666 667 661 661 659 657 644
2130.0 644 640 642 644 635 639 643 638 636 640
2170.0 639 633 635 635 638 630 650 646 656 647
2210.0 648 649 642 643 639 640 641 639 635 641
2250.0 639 631 649 650 658 662 669 671 673 679
2290.0 682 683 688 682 680 676 669 673 639 656
2330.0 665 669 690 667 720 696 630 663 646 720
2370.0 769 784 776 770 744 720 707 710 710 713
2410.0 721 726 721 712 706 714 709 704 696 704
2450.0 710 712 698 710 714 722 719 726 726 726
2490.0 722 716 716 714 721 724 721 715 711 704
2530.0 710 716 713 715 710 712 706 700 702 698
2570.0 705 694 720 713 723 725 725 736 732 739
2610.0 740 748 745 723 714 729 726 712 699 715
2650.0 734 706 711 705 725 721 707 725 729 752
2690.0 753 776 788 815 834 850 860 887 893 908
2730.0 946 1000 1054 1089 1113 1129 1084 1029 1011 1003
2770.0 994 994 1008 1023 1042 1091 1111 1143 1159 1179
2810.0 1250 1305 1363 1454 1570 1696 1850 2028 2225 2459
2850.0 2741 3070 3451 3949 4572 5294 5985 6575 6943 7008
2890.0 6803 6451 6118 5911 5777 5844 6015 6391 6975 7571
2930.0 7968 8014 7878 7455 6811 6067 5463 5000 4606 4162
2970.0 3713 3341 3112 2993 2946 2937 2991 3110 3293 3507
3010.0 3822 4213 4696 5299 5951 6494 6822 6592 6171 5584
3050.0 5040 4792 4796 4787 4639 4452 4102 3400 2681 2218
3090.0 1883 1714 1605 1547 1509 1457 1375 1285 1170 1036
3130.0 953 854 802 771 767 730 711 720 716 720
3170.0 724 703 703 709 706 716 695 695 695 704
3210.0 670 658 678 658 673 660 667 660 671 686
3250.0 661 654 653 665 659 648 684 651 690 650
3290.0 665 677 690 669 656 676 650 669 629 683
3330.0 685 678 671 710 709 652 675 684 679 683
3370.0 666 686 678 711 713 717 724 693 718 719
3410.0 725 715 736 721 696 709 734 710 735 697
3450.0 699 725 702 726 718 710 698 690 709 700
3490.0 682 680 687 714 651 681 711 720 714 650
3530.0 689 699 691 697 672 666 683 685 661 665
3570.0 649 695 683 670 685 692 706 691 755 755
3610.0 810 834 846 936 1101 1276 1506 1849 2059 2491
3650.0 3010 2800 2682 2603 2438 2153 1935 1727 1508 1385
3690.0 1263 1113 1008 901 881 804 739 760 694 681
3730.0 655 664 649 660 648 646 682 645 635 674
3770.0 676 689 663 671 710 693 699 677 632 649
3810.0 645 671 684 666 683 652 640 699 682 701
3850.0 692 631 695 700 695 720 646 730 716 747
3890.0 718 780 723 731 772 711 730 751 682 714
3930.0 654 672 729 739 647 705 636 653 699 645
##END=
