##TITLE=Phenol, 2,5-bis(1,1-dimethylethyl)-
##JCAMP-DX=4.24
##DATA TYPE=INFRARED SPECTRUM
##ORIGIN=Sadtler Research Labs Under US-EPA Contract
##OWNER=NIST Standard Reference Data Program
##CAS REGISTRY NO=5875-45-6
##MOLFORM=C 14 H 22 O
##XUNITS=1/CM
##YUNITS=ABSORBANCE
##XFACTOR=1.0
##YFACTOR=0.000133716
##DELTAX=4.0
##FIRSTX=450.0
##LASTX=3966.0
##FIRSTY=0.018319
##MAXX=3966
##MINX=450
##MAXY=1.33716
##MINY=0
##NPOINTS=880
##XYDATA=(X++(Y..Y))
450.0 137 126 121 83 83 82 73 77 105 110
490.0 127 140 175 184 176 156 129 110 101 79
530.0 69 85 72 87 101 111 102 96 140 192
570.0 288 307 293 214 145 94 69 37 27 36
610.0 25 24 38 49 64 74 102 167 266 372
650.0 522 549 472 271 189 79 47 29 25 41
690.0 45 41 51 101 135 119 76 26 16 19
730.0 13 11 14 15 10 8 4 4 6 10
770.0 11 13 23 24 45 78 115 178 310 513
810.0 721 843 734 530 391 328 319 327 358 414
850.0 429 361 278 220 194 195 196 184 156 125
890.0 97 82 72 78 96 128 177 294 520 908
930.0 1326 1480 1262 816 462 287 187 141 116 101
970.0 83 74 70 60 63 63 69 70 79 90
1010.0 126 182 238 250 212 157 121 111 111 126
1050.0 147 199 291 430 560 601 540 403 268 191
1090.0 155 145 142 152 173 206 267 381 552 783
1130.0 1017 1254 1487 1773 2005 2024 1819 1520 1296 1218
1170.0 1269 1410 1667 1990 2197 2190 2070 2032 2055 1916
1210.0 1569 1197 983 926 891 842 756 679 647 665
1250.0 740 875 1073 1291 1471 1506 1395 1209 1082 1073
1290.0 1200 1375 1473 1469 1398 1333 1210 992 712 467
1330.0 334 281 275 305 357 437 579 807 1123 1418
1370.0 1499 1364 1153 1053 1155 1523 1942 2164 2139 2042
1410.0 2046 1947 1660 1243 899 670 532 476 463 477
1450.0 506 559 630 717 796 864 934 1045 1150 1206
1490.0 1180 1153 1112 1038 891 757 741 751 711 578
1530.0 405 289 253 271 334 434 544 632 685 672
1570.0 597 502 404 334 295 285 303 347 438 599
1610.0 804 964 986 867 694 531 395 270 184 127
1650.0 92 83 72 74 67 63 64 68 63 68
1690.0 69 69 63 57 51 52 46 32 40 42
1730.0 41 43 61 77 93 102 103 88 68 56
1770.0 42 37 38 37 33 32 26 30 24 26
1810.0 25 24 26 21 21 18 23 22 23 19
1850.0 24 29 32 37 40 48 59 64 64 60
1890.0 49 38 29 25 20 15 13 12 11 13
1930.0 15 16 14 10 11 12 9 8 8 7
1970.0 7 6 7 7 5 5 4 6 7 8
2010.0 10 7 7 6 6 6 5 4 4 2
2050.0 1 0 1 0 0 1 2 2 2 2
2090.0 2 3 5 5 7 4 7 5 6 8
2130.0 7 4 6 8 7 7 9 9 11 9
2170.0 11 14 13 11 12 13 14 15 14 12
2210.0 9 9 10 9 12 9 9 8 4 4
2250.0 3 3 1 3 6 5 8 9 13 17
2290.0 20 22 23 23 25 28 30 32 38 44
2330.0 44 46 35 57 39 46 46 44 57 52
2370.0 52 48 45 47 43 38 36 31 29 27
2410.0 29 27 25 27 24 24 22 21 22 24
2450.0 25 27 26 26 27 24 20 22 19 20
2490.0 19 21 21 19 21 24 22 21 19 19
2530.0 20 15 16 19 20 20 24 26 28 31
2570.0 30 28 24 23 23 21 23 23 24 21
2610.0 22 20 21 22 23 28 28 32 34 35
2650.0 40 38 41 43 42 43 42 36 39 38
2690.0 42 43 42 48 55 64 76 91 102 102
2730.0 92 82 78 73 77 79 82 83 82 78
2770.0 72 70 76 90 104 110 108 109 113 126
2810.0 139 158 173 185 192 201 207 223 246 283
2850.0 342 435 586 821 1148 1557 1952 2231 2321 2296
2890.0 2208 2133 2103 2163 2339 2610 2883 3046 3041 2922
2930.0 2802 2724 2740 2866 3215 3900 5075 6679 8360 9827
2970.0 10000 8770 6345 4168 2734 1878 1395 1170 1073 991
3010.0 883 746 606 513 467 439 420 408 397 393
3050.0 392 387 381 359 327 297 285 296 326 369
3090.0 406 416 392 343 285 227 186 158 135 126
3130.0 121 109 104 97 91 88 88 86 85 78
3170.0 77 74 79 82 84 88 88 83 85 85
3210.0 75 71 70 65 60 60 60 59 57 53
3250.0 52 51 51 51 56 59 58 57 57 52
3290.0 49 45 43 44 37 32 32 31 31 28
3330.0 38 40 43 42 45 42 42 41 40 40
3370.0 41 36 43 43 37 38 35 35 37 39
3410.0 37 35 36 32 36 31 38 34 24 28
3450.0 26 28 27 24 21 26 24 22 18 18
3490.0 15 15 16 10 4 18 15 16 14 1
3530.0 6 11 9 13 5 11 13 16 14 2
3570.0 14 9 11 7 16 19 20 21 22 26
3610.0 23 38 55 85 180 353 655 1063 1330 1314
3650.0 1102 739 547 526 619 710 743 644 487 351
3690.0 259 197 134 101 77 44 34 39 18 17
3730.0 22 20 7 12 5 9 0 3 10 7
3770.0 1 13 9 15 18 16 20 9 22 11
3810.0 34 9 14 5 5 13 7 12 15 32
3850.0 18 14 26 23 16 8 18 24 22 34
3890.0 40 31 42 27 24 28 33 34 23 26
3930.0 24 30 24 17 10 20 23 34 32 21
##END=
