##TITLE=Benzene, 1-bromo-4-ethoxy-
##JCAMP-DX=4.24
##DATA TYPE=INFRARED SPECTRUM
##ORIGIN=Sadtler Research Labs Under US-EPA Contract
##OWNER=NIST Standard Reference Data Program
##CAS REGISTRY NO=588-96-5
##MOLFORM=C 8 H 9 Br O
##XUNITS=1/CM
##YUNITS=ABSORBANCE
##XFACTOR=1.0
##YFACTOR=0.000073975
##DELTAX=4.0
##FIRSTX=450.0
##LASTX=3966.0
##FIRSTY=0.000000
##MAXX=3966
##MINX=450
##MAXY=0.73975
##MINY=0
##NPOINTS=880
##XYDATA=(X++(Y..Y))
450.0 0 52 136 137 178 196 224 190 232 241
490.0 324 264 360 365 418 395 348 339 365 292
530.0 182 171 156 123 41 173 150 115 60 148
570.0 152 190 177 167 286 328 367 423 488 388
610.0 363 350 501 547 544 646 763 848 842 676
650.0 385 203 93 150 112 178 103 150 186 173
690.0 144 136 168 135 121 99 155 144 143 105
730.0 197 128 148 109 143 131 114 99 133 179
770.0 166 194 230 274 290 353 426 513 555 712
810.0 934 1162 1378 1554 1512 1364 1069 768 594 418
850.0 314 225 201 171 147 148 184 185 205 199
890.0 221 266 287 336 341 368 358 407 436 465
930.0 364 292 250 225 185 153 151 145 159 136
970.0 163 155 178 174 233 247 375 574 1051 1309
1010.0 1192 777 483 512 612 801 1043 1385 1671 1870
1050.0 1877 1753 1492 1256 1189 1560 1994 1941 1286 778
1090.0 752 752 800 760 760 748 777 798 700 553
1130.0 414 367 337 305 277 317 357 459 810 1577
1170.0 1912 1701 954 486 379 370 407 472 573 648
1210.0 784 970 1320 1916 3037 4637 6541 8792 10000 8480
1250.0 6067 3582 2324 1910 1815 1908 2228 2716 2858 2497
1290.0 1861 1457 1334 1335 1257 1043 777 552 435 366
1330.0 350 300 278 258 272 257 249 264 280 306
1370.0 306 340 375 444 610 880 1187 1205 950 632
1410.0 446 370 310 316 351 365 370 395 440 461
1450.0 479 484 525 617 755 1076 1995 3718 4984 6460
1490.0 7134 6833 4903 2614 1379 819 590 500 441 399
1530.0 333 277 242 210 202 200 221 216 250 299
1570.0 407 587 838 1063 1244 1308 1390 1348 1082 731
1610.0 406 274 237 235 211 196 185 195 183 162
1650.0 156 137 134 123 134 132 117 119 117 117
1690.0 130 109 115 109 122 115 122 113 129 113
1730.0 119 115 146 153 154 148 140 126 115 132
1770.0 114 100 100 112 101 100 98 111 113 100
1810.0 105 106 119 98 106 110 129 120 130 136
1850.0 150 152 157 178 184 175 172 176 157 145
1890.0 119 124 123 118 106 116 111 104 97 105
1930.0 108 104 104 106 118 105 109 107 122 116
1970.0 110 115 116 106 91 95 101 106 94 114
2010.0 114 122 109 114 114 121 114 124 135 127
2050.0 120 112 123 116 114 113 133 120 114 105
2090.0 101 96 80 81 83 83 81 80 80 87
2130.0 74 80 73 80 72 74 79 79 76 77
2170.0 79 79 79 73 78 72 71 59 74 76
2210.0 74 74 78 78 77 72 70 78 63 63
2250.0 72 78 69 77 84 94 92 89 92 96
2290.0 83 76 77 70 67 47 56 53 49 41
2330.0 41 41 41 41 41 41 41 41 41 72
2370.0 63 68 79 94 88 79 79 93 94 87
2410.0 87 96 99 87 89 88 97 84 82 89
2450.0 97 84 89 103 104 108 103 114 110 112
2490.0 97 110 100 100 92 112 120 120 125 136
2530.0 145 123 121 113 116 91 89 89 90 90
2570.0 90 91 91 95 86 91 92 93 77 91
2610.0 87 92 80 87 93 93 91 84 95 87
2650.0 85 77 91 83 82 75 95 89 90 83
2690.0 97 95 91 91 95 99 83 97 98 118
2730.0 105 119 119 133 114 111 119 124 109 103
2770.0 121 119 129 127 142 135 135 121 139 140
2810.0 136 143 157 179 169 177 182 196 184 199
2850.0 213 233 236 267 310 372 448 532 628 683
2890.0 706 694 727 769 807 805 824 803 761 689
2930.0 679 693 761 856 932 917 772 637 556 578
2970.0 623 724 902 1169 1411 1547 1546 1320 992 696
3010.0 503 372 300 230 226 216 249 260 306 327
3050.0 322 255 223 208 198 201 219 283 299 307
3090.0 287 333 336 338 293 251 189 131 110 104
3130.0 101 87 93 92 111 91 109 90 110 84
3170.0 78 72 86 68 70 85 96 104 70 93
3210.0 94 94 61 81 73 73 59 72 91 78
3250.0 78 75 98 78 64 56 84 55 57 54
3290.0 81 64 66 72 87 92 66 72 59 81
3330.0 41 68 56 80 55 72 80 89 77 64
3370.0 83 70 57 44 83 70 60 50 84 73
3410.0 77 72 76 82 59 46 59 73 46 59
3450.0 76 87 68 68 84 86 60 53 63 69
3490.0 62 44 65 66 81 61 82 76 77 51
3530.0 68 66 66 53 66 79 68 71 70 89
3570.0 73 76 63 88 73 54 56 75 82 63
3610.0 83 90 92 69 74 77 81 61 75 72
3650.0 72 65 82 104 100 97 73 102 93 91
3690.0 68 86 95 81 83 101 108 110 113 120
3730.0 128 96 99 86 112 80 90 105 131 124
3770.0 118 125 132 130 116 130 127 116 93 119
3810.0 127 133 114 130 134 133 116 121 131 112
3850.0 100 105 137 124 130 124 164 163 153 137
3890.0 141 126 98 96 97 114 105 119 140 160
3930.0 147 148 149 153 122 111 36 41 41 41
##END=
