##TITLE=Acetamide, N-(phenylmethyl)-
##JCAMP-DX=4.24
##DATA TYPE=INFRARED SPECTRUM
##ORIGIN=Sadtler Research Labs Under US-EPA Contract
##OWNER=NIST Standard Reference Data Program
##CAS REGISTRY NO=588-46-5
##MOLFORM=C 9 H 11 N O
##XUNITS=1/CM
##YUNITS=ABSORBANCE
##XFACTOR=1.0
##YFACTOR=0.000082117
##DELTAX=4.0
##FIRSTX=450.0
##LASTX=3966.0
##FIRSTY=0.000000
##MAXX=3966
##MINX=450
##MAXY=0.82117
##MINY=0
##NPOINTS=880
##XYDATA=(X++(Y..Y))
450.0 0 487 1169 596 658 730 555 815 896 801
490.0 1040 988 845 721 851 667 633 558 438 471
530.0 389 574 582 468 550 578 448 377 625 606
570.0 556 855 837 974 679 714 567 620 605 604
610.0 701 597 600 592 603 601 553 599 565 549
650.0 519 506 526 551 583 687 785 894 1147 1317
690.0 1445 1737 1915 1937 1808 1514 1337 1209 1164 1279
730.0 1382 1477 2087 2114 1160 1468 1289 951 796 659
770.0 610 587 557 550 541 540 628 564 655 721
810.0 658 679 732 634 752 723 715 611 736 720
850.0 688 640 656 639 609 589 684 610 588 599
890.0 640 543 645 578 549 615 565 527 492 504
930.0 546 514 504 522 539 492 550 586 592 598
970.0 633 612 571 513 464 511 487 498 510 537
1010.0 581 598 661 723 883 919 867 791 674 614
1050.0 632 606 664 674 743 817 873 934 1026 1093
1090.0 1119 1041 996 907 816 744 660 623 566 528
1130.0 487 473 492 469 481 520 452 507 499 535
1170.0 567 602 640 651 669 685 740 785 856 977
1210.0 1163 1348 1675 1986 2409 2787 3261 3732 3918 4005
1250.0 3856 3482 3060 2697 2335 1992 1696 1534 1352 1209
1290.0 1195 1126 1109 1087 1060 1078 1075 1057 1010 969
1330.0 901 854 847 894 984 1149 1308 1482 1660 1808
1370.0 1874 1875 1794 1555 1363 1229 1119 1056 1015 1021
1410.0 1035 1082 1141 1281 1353 1567 1699 1951 2189 2364
1450.0 2677 2872 3024 3390 3491 3952 4375 4976 5700 6351
1490.0 7066 7383 7492 6706 5921 4609 3584 2965 2264 1908
1530.0 1556 1344 1230 1076 967 861 837 807 781 718
1570.0 706 714 719 702 699 721 761 766 824 792
1610.0 771 726 681 644 603 638 600 688 647 692
1650.0 802 751 890 828 927 1050 1099 1286 1449 1719
1690.0 2080 2484 3405 4344 5883 7767 8626 10000 8590 7237
1730.0 5692 4183 3282 2483 1934 1556 1237 1055 916 826
1770.0 764 740 676 653 656 647 660 651 592 598
1810.0 543 510 497 467 479 470 451 463 443 481
1850.0 453 471 454 450 486 462 483 468 467 467
1890.0 454 443 435 431 427 426 428 440 439 452
1930.0 452 472 482 490 501 498 503 494 471 455
1970.0 433 424 416 412 415 405 407 405 404 406
2010.0 397 402 395 395 394 394 395 402 397 398
2050.0 396 399 401 399 403 397 397 402 391 394
2090.0 390 393 391 392 394 390 391 389 383 388
2130.0 388 391 387 383 388 388 387 391 388 394
2170.0 395 393 396 397 394 394 397 397 396 400
2210.0 392 391 394 388 391 389 385 392 388 391
2250.0 387 387 389 390 392 397 396 396 398 403
2290.0 406 406 418 424 433 444 447 451 454 456
2330.0 453 450 444 442 468 446 479 455 467 423
2370.0 427 410 415 415 395 387 381 377 377 374
2410.0 373 380 380 376 375 374 375 375 375 375
2450.0 375 372 374 368 369 369 363 367 364 365
2490.0 368 362 358 356 364 358 366 365 364 363
2530.0 362 363 364 366 369 363 364 371 371 374
2570.0 374 375 374 374 371 375 376 378 379 378
2610.0 378 375 375 371 381 378 373 372 372 375
2650.0 372 374 383 378 379 382 383 385 390 394
2690.0 393 400 397 400 396 407 405 403 399 404
2730.0 395 396 397 398 394 394 390 387 385 386
2770.0 391 393 394 405 414 412 412 407 421 423
2810.0 432 425 427 431 433 434 445 456 468 483
2850.0 505 522 555 582 611 632 651 675 694 705
2890.0 737 751 776 807 839 882 940 997 1060 1131
2930.0 1191 1231 1237 1213 1150 1081 997 921 859 820
2970.0 790 751 717 694 660 656 659 668 682 721
3010.0 782 856 945 1060 1206 1381 1517 1573 1535 1412
3050.0 1257 1141 1122 1197 1376 1558 1623 1561 1393 1180
3090.0 1038 959 895 824 765 696 644 588 534 489
3130.0 452 429 418 413 406 404 406 403 405 408
3170.0 402 403 403 392 396 398 387 389 390 386
3210.0 398 394 392 385 392 384 386 394 387 390
3250.0 395 392 385 391 382 385 392 394 390 389
3290.0 381 390 390 390 396 389 384 378 394 384
3330.0 388 397 389 383 394 385 392 392 394 406
3370.0 397 392 394 410 408 417 434 447 450 471
3410.0 488 516 508 517 537 531 553 530 559 588
3450.0 625 675 715 782 858 883 899 860 801 714
3490.0 643 585 528 470 461 432 409 399 402 389
3530.0 395 398 387 383 393 374 395 369 397 382
3570.0 398 379 387 386 409 393 389 382 391 385
3610.0 377 380 390 403 381 419 373 379 370 384
3650.0 388 433 370 376 388 397 437 394 391 373
3690.0 404 413 371 389 381 386 389 356 394 373
3730.0 408 402 394 423 392 464 393 406 373 375
3770.0 378 377 384 385 364 379 370 382 400 416
3810.0 374 418 367 410 381 369 420 428 390 420
3850.0 379 442 415 394 379 404 423 405 417 419
3890.0 382 404 406 386 406 394 418 404 379 405
3930.0 387 399 421 414 460 373 410 374 387 396
##END=
