##TITLE=Cyclohexanol, 4-methyl-
##JCAMP-DX=4.24
##DATA TYPE=INFRARED SPECTRUM
##ORIGIN=Sadtler Research Labs Under US-EPA Contract
##OWNER=NIST Standard Reference Data Program
##CAS REGISTRY NO=589-91-3
##MOLFORM=C 7 H 14 O
##XUNITS=1/CM
##YUNITS=ABSORBANCE
##XFACTOR=1.0
##YFACTOR=0.000156870
##DELTAX=4.0
##FIRSTX=450.0
##LASTX=3966.0
##FIRSTY=0.022432
##MAXX=3966
##MINX=450
##MAXY=1.5687
##MINY=0
##NPOINTS=880
##XYDATA=(X++(Y..Y))
450.0 143 116 177 104 97 107 150 122 245 132
490.0 119 142 168 64 103 181 73 9 120 123
530.0 51 33 45 147 84 158 166 137 89 62
570.0 144 120 166 132 216 220 268 268 270 233
610.0 187 135 73 79 159 134 97 110 119 130
650.0 96 107 95 73 85 81 83 80 118 73
690.0 87 87 78 61 49 61 53 49 53 81
730.0 49 61 43 62 40 72 80 71 85 136
770.0 155 39 50 93 77 88 87 97 83 96
810.0 94 98 113 103 99 95 102 97 103 89
850.0 91 85 96 98 125 145 174 219 240 227
890.0 230 243 205 196 182 219 250 298 332 376
930.0 423 417 452 495 511 515 515 495 451 432
970.0 480 568 682 808 901 1100 1110 1095 1053 942
1010.0 858 787 701 622 610 745 1011 1533 2339 2996
1050.0 3260 3313 3214 2315 1336 1049 1128 1288 1523 1721
1090.0 1767 1610 1374 1057 718 481 397 406 461 541
1130.0 601 636 640 640 593 501 434 399 355 321
1170.0 297 283 274 278 297 327 370 433 499 557
1210.0 618 676 728 800 851 851 853 837 782 694
1250.0 640 623 611 590 568 543 497 439 385 352
1290.0 330 315 318 334 351 358 357 353 340 335
1330.0 342 354 375 399 430 482 553 637 759 902
1370.0 1031 1101 1121 1100 986 813 653 507 417 339
1410.0 291 260 246 257 283 359 451 617 818 1055
1450.0 1199 1349 1412 1370 1103 885 670 488 345 231
1490.0 160 111 92 69 53 53 52 46 32 38
1530.0 31 37 27 22 24 29 29 12 21 27
1570.0 28 22 26 27 31 26 31 24 29 31
1610.0 32 24 23 24 25 24 23 24 27 22
1650.0 31 15 29 27 28 23 20 24 28 13
1690.0 22 19 17 11 16 19 11 9 10 15
1730.0 13 14 9 12 16 10 12 8 8 13
1770.0 9 9 15 11 15 10 10 14 11 14
1810.0 10 12 11 11 9 8 10 10 12 9
1850.0 13 11 9 9 10 7 9 13 12 12
1890.0 18 20 16 18 19 16 17 19 20 14
1930.0 16 17 16 15 17 13 11 9 12 13
1970.0 8 7 9 13 9 10 11 13 11 11
2010.0 9 9 9 6 5 5 10 13 14 13
2050.0 13 14 15 16 13 14 13 14 12 15
2090.0 14 17 18 16 15 13 10 8 11 13
2130.0 14 17 18 19 17 16 12 11 8 7
2170.0 6 9 10 13 12 13 15 13 13 10
2210.0 11 12 15 16 15 14 17 15 14 10
2250.0 11 13 13 15 16 20 20 15 15 9
2290.0 10 6 7 2 0 1 6 4 3 10
2330.0 7 10 10 4 0 1 0 4 19 27
2370.0 35 20 9 6 6 7 10 13 17 16
2410.0 17 20 22 23 23 27 21 23 22 22
2450.0 24 24 26 24 22 22 22 19 19 14
2490.0 14 12 13 16 15 15 16 20 18 22
2530.0 18 18 19 17 17 18 21 24 27 25
2570.0 31 30 31 34 38 45 50 59 63 70
2610.0 73 81 84 88 91 99 104 113 124 126
2650.0 134 136 141 141 138 140 138 136 133 132
2690.0 131 126 125 126 124 123 118 115 116 121
2730.0 132 132 139 141 146 140 144 147 148 149
2770.0 149 151 148 153 154 159 166 176 191 210
2810.0 228 243 267 292 345 419 536 731 1050 1525
2850.0 2145 2820 3431 3827 4049 4204 4210 3977 3734 3477
2890.0 3292 3121 3074 3330 3745 4321 5152 6099 7383 8841
2930.0 9933 9991 10000 9322 8105 7152 6214 5872 5075 3904
2970.0 3260 2430 1516 873 476 267 156 107 88 68
3010.0 63 55 56 51 48 47 47 41 45 50
3050.0 44 47 47 51 53 56 54 55 46 45
3090.0 49 45 41 39 45 43 45 46 48 51
3130.0 51 55 56 58 58 60 55 54 60 53
3170.0 50 44 44 39 34 28 29 24 16 9
3210.0 7 12 7 0 1 4 0 6 7 13
3250.0 15 16 14 11 11 8 14 12 9 15
3290.0 22 15 13 11 11 13 16 12 16 11
3330.0 15 15 17 17 24 22 14 19 20 11
3370.0 13 15 14 19 24 23 17 21 17 26
3410.0 17 20 25 24 24 32 31 35 39 33
3450.0 40 33 26 25 24 16 21 30 17 18
3490.0 22 15 21 20 16 18 14 20 23 29
3530.0 30 24 28 12 21 20 17 18 13 18
3570.0 14 6 17 15 19 37 29 26 35 34
3610.0 42 32 52 69 110 142 212 307 455 603
3650.0 694 693 667 567 397 228 146 93 60 48
3690.0 38 32 35 25 24 24 25 25 16 39
3730.0 29 32 27 27 35 18 27 14 25 9
3770.0 32 13 24 38 25 20 21 35 52 66
3810.0 55 56 49 50 50 48 39 50 19 47
3850.0 47 42 14 55 53 38 51 57 51 55
3890.0 46 53 48 37 50 44 43 30 38 22
3930.0 24 49 10 19 28 45 66 57 39 51
##END=
