##TITLE=3-Heptanol
##JCAMP-DX=4.24
##DATA TYPE=INFRARED SPECTRUM
##ORIGIN=Sadtler Research Labs Under US-EPA Contract
##OWNER=NIST Standard Reference Data Program
##CAS REGISTRY NO=589-82-2
##MOLFORM=C 7 H 16 O
##XUNITS=1/CM
##YUNITS=ABSORBANCE
##XFACTOR=1.0
##YFACTOR=0.000059750
##DELTAX=4.0
##FIRSTX=450.0
##LASTX=3966.0
##FIRSTY=0.003585
##MAXX=3966
##MINX=450
##MAXY=0.5975
##MINY=0
##NPOINTS=880
##XYDATA=(X++(Y..Y))
450.0 60 52 65 70 82 98 82 78 93 77
490.0 66 75 51 80 33 47 68 48 35 85
530.0 67 70 59 55 53 40 32 9 13 15
570.0 45 38 54 52 73 76 90 73 59 59
610.0 62 54 56 56 51 43 44 46 40 42
650.0 49 49 57 48 49 67 58 64 52 58
690.0 59 62 62 64 67 73 90 91 108 124
730.0 135 134 133 137 133 127 128 133 138 155
770.0 188 214 240 247 247 245 202 184 159 132
810.0 130 125 125 134 133 174 158 175 185 192
850.0 208 219 232 232 243 255 263 279 313 346
890.0 379 415 437 465 475 484 480 472 455 438
930.0 434 444 476 536 615 734 902 1101 1332 1531
970.0 1674 1732 1713 1614 1513 1417 1358 1342 1335 1352
1010.0 1341 1319 1281 1237 1177 1144 1095 1066 1042 1025
1050.0 1016 998 982 967 967 967 976 988 1009 1034
1090.0 1048 1065 1058 1057 1058 1058 1077 1113 1153 1193
1130.0 1205 1212 1165 1085 969 844 717 608 531 484
1170.0 462 455 473 498 528 571 618 668 721 762
1210.0 813 855 889 914 937 953 949 931 914 891
1250.0 866 832 798 764 731 703 681 664 658 648
1290.0 650 640 641 636 628 616 606 596 599 619
1330.0 653 689 732 757 779 812 861 908 986 1057
1370.0 1150 1248 1359 1427 1454 1419 1320 1165 989 832
1410.0 694 595 536 497 511 551 587 681 777 911
1450.0 1077 1264 1449 1549 1581 1496 1301 1053 818 601
1490.0 443 323 254 209 194 170 146 145 127 122
1530.0 104 117 95 93 89 96 83 85 63 70
1570.0 72 63 66 57 63 60 62 60 55 50
1610.0 50 51 48 51 43 48 43 44 41 47
1650.0 33 45 36 42 40 42 30 41 43 37
1690.0 36 39 33 51 57 56 77 94 104 114
1730.0 127 125 120 103 91 78 60 52 51 50
1770.0 47 41 43 33 31 25 28 28 25 25
1810.0 15 13 17 12 15 11 10 13 11 16
1850.0 14 10 9 16 14 18 17 18 17 16
1890.0 15 16 16 17 16 15 15 24 21 17
1930.0 16 16 17 14 15 8 9 7 8 7
1970.0 7 0 8 8 7 5 6 7 8 8
2010.0 7 7 13 7 7 15 15 15 13 14
2050.0 11 6 7 6 13 6 13 6 5 5
2090.0 5 6 6 6 6 6 6 5 5 5
2130.0 5 6 4 5 7 3 7 12 11 12
2170.0 12 12 13 13 11 12 12 12 12 12
2210.0 12 12 12 12 18 11 12 10 10 19
2250.0 17 19 19 18 18 13 19 19 18 20
2290.0 19 21 20 21 21 21 22 22 22 22
2330.0 32 32 32 40 40 31 24 26 50 52
2370.0 52 57 47 46 40 41 37 38 46 46
2410.0 46 46 46 48 48 47 47 47 42 40
2450.0 40 39 39 31 31 31 38 35 36 35
2490.0 35 41 42 39 40 40 40 40 40 50
2530.0 50 50 50 50 50 50 50 57 58 59
2570.0 68 67 74 77 83 87 91 96 101 101
2610.0 100 100 109 109 109 117 116 126 126 129
2650.0 132 143 141 151 158 166 175 176 177 176
2690.0 174 182 175 180 176 176 176 183 192 200
2730.0 209 226 243 250 259 265 266 256 258 254
2770.0 257 257 273 290 307 316 333 358 375 400
2810.0 429 462 512 559 627 724 849 1017 1255 1556
2850.0 1935 2394 2932 3499 4053 4477 4801 5122 5269 5065
2890.0 4795 4391 3989 3807 3923 4280 4876 5623 6540 7540
2930.0 8661 9073 10000 9683 9216 8329 7653 7456 7687 8421
2970.0 9308 8853 7789 6114 4295 2936 2059 1497 1132 897
3010.0 750 643 571 520 479 445 414 380 355 328
3050.0 303 286 269 251 244 236 230 220 217 209
3090.0 207 197 182 172 165 163 156 147 131 129
3130.0 124 124 114 109 111 108 108 108 108 108
3170.0 108 108 108 108 99 99 99 94 87 75
3210.0 66 59 68 51 50 42 41 38 33 30
3250.0 30 28 29 27 34 27 26 27 17 18
3290.0 19 18 18 19 19 8 19 19 9 19
3330.0 18 18 11 18 19 14 13 18 20 15
3370.0 17 18 18 17 27 26 22 27 29 29
3410.0 26 32 33 41 35 43 43 42 43 50
3450.0 50 45 50 50 46 41 45 43 32 42
3490.0 43 33 33 40 47 38 40 34 38 38
3530.0 34 34 41 34 39 46 43 40 44 46
3570.0 58 50 45 49 45 62 56 54 57 65
3610.0 88 106 129 157 177 227 258 304 384 465
3650.0 585 674 711 692 626 530 420 327 236 181
3690.0 135 116 99 87 81 70 75 61 60 67
3730.0 62 58 65 52 64 52 67 60 60 53
3770.0 51 54 46 58 53 53 54 52 54 69
3810.0 68 55 64 65 67 69 73 69 72 78
3850.0 68 64 76 77 73 74 74 77 74 76
3890.0 73 70 60 62 59 65 54 62 60 54
3930.0 55 52 55 47 47 46 49 55 57 58
##END=
