##TITLE=Cyclohexane, 1,4-dimethyl-
##JCAMP-DX=4.24
##DATA TYPE=INFRARED SPECTRUM
##ORIGIN=Sadtler Research Labs Under US-EPA Contract
##OWNER=NIST Standard Reference Data Program
##CAS REGISTRY NO=589-90-2
##MOLFORM=C 8 H 16
##XUNITS=1/CM
##YUNITS=ABSORBANCE
##XFACTOR=1.0
##YFACTOR=0.000166348
##DELTAX=4.0
##FIRSTX=450.0
##LASTX=3966.0
##FIRSTY=0.055228
##MAXX=3966
##MINX=450
##MAXY=1.66348
##MINY=0
##NPOINTS=880
##XYDATA=(X++(Y..Y))
450.0 332 131 32 84 20 112 9 37 44 43
490.0 31 16 49 27 43 33 72 48 32 38
530.0 33 34 5 49 20 39 28 38 34 45
570.0 25 23 37 25 37 17 42 23 36 24
610.0 32 29 31 43 56 71 61 82 65 67
650.0 46 44 33 26 21 34 26 17 38 25
690.0 25 20 29 19 26 29 32 23 19 28
730.0 14 26 27 32 28 36 43 32 46 55
770.0 41 28 41 25 24 14 24 25 18 32
810.0 23 31 13 35 22 34 18 32 26 35
850.0 30 24 42 27 43 38 36 34 34 31
890.0 24 26 24 40 42 55 57 69 72 73
930.0 67 65 68 63 65 61 65 53 59 54
970.0 55 59 70 70 83 112 128 143 144 136
1010.0 125 109 95 80 69 60 58 54 47 37
1050.0 38 31 30 28 26 27 34 48 60 77
1090.0 93 113 118 123 113 98 80 59 46 27
1130.0 30 23 23 21 28 27 40 56 70 85
1170.0 85 88 79 67 46 36 27 23 22 19
1210.0 19 23 29 29 33 34 44 48 60 68
1250.0 78 90 84 82 71 63 47 48 48 52
1290.0 61 76 92 96 89 88 71 52 41 40
1330.0 46 50 60 67 72 82 99 134 198 274
1370.0 376 485 558 635 562 465 361 218 131 81
1410.0 69 58 69 69 104 148 250 380 556 723
1450.0 902 1049 1086 1074 993 841 677 478 357 233
1490.0 151 86 65 47 38 34 26 26 21 21
1530.0 16 17 15 21 17 19 20 22 24 18
1570.0 20 17 20 17 20 17 22 21 23 23
1610.0 23 25 22 26 22 24 20 29 21 23
1650.0 27 23 23 23 29 25 27 19 24 22
1690.0 22 18 18 17 15 16 12 17 12 12
1730.0 9 14 11 11 13 12 13 10 13 10
1770.0 14 10 12 11 9 10 9 11 10 11
1810.0 8 10 8 11 9 9 9 8 10 9
1850.0 11 5 9 6 8 8 8 8 6 9
1890.0 6 10 6 4 6 5 4 5 5 1
1930.0 3 0 3 4 6 4 6 4 5 7
1970.0 1 3 4 5 2 2 1 2 3 4
2010.0 4 2 3 1 4 3 6 1 3 2
2050.0 5 7 9 9 4 8 4 7 8 12
2090.0 11 10 12 8 9 6 10 7 9 6
2130.0 9 6 4 3 4 2 4 3 3 5
2170.0 4 4 1 0 2 1 3 3 2 1
2210.0 5 4 3 5 7 6 3 5 6 5
2250.0 6 10 5 9 10 11 10 8 12 10
2290.0 12 14 17 18 19 20 21 19 22 20
2330.0 18 14 14 20 8 16 25 23 18 11
2370.0 7 0 7 12 12 13 17 13 15 13
2410.0 13 14 12 13 8 12 13 13 13 15
2450.0 15 14 16 14 14 17 13 11 11 7
2490.0 13 9 11 13 13 13 18 16 16 18
2530.0 21 21 22 24 23 27 29 25 28 22
2570.0 20 22 22 22 28 35 39 44 55 65
2610.0 68 69 75 77 78 82 89 94 100 102
2650.0 109 107 109 105 104 103 112 107 105 102
2690.0 95 96 93 90 81 79 80 85 90 101
2730.0 108 109 115 107 107 100 105 105 103 101
2770.0 101 105 103 110 117 129 138 156 164 178
2810.0 192 201 213 240 281 331 444 630 972 1466
2850.0 2019 2499 2949 3161 3195 3397 3190 3039 2906 2889
2890.0 2965 3018 3425 3931 4568 5530 6868 8465 9644 10000
2930.0 8809 8194 6989 5471 4701 4396 4552 5255 4754 4342
2970.0 3827 2929 1937 1225 719 376 221 157 119 110
3010.0 97 91 87 82 75 81 69 75 68 75
3050.0 74 82 81 84 89 92 86 85 83 81
3090.0 81 77 80 72 72 74 70 75 75 80
3130.0 80 81 81 89 89 85 89 84 77 75
3170.0 73 60 62 57 47 43 36 35 33 30
3210.0 20 28 28 21 27 30 27 22 19 19
3250.0 20 23 29 28 35 33 38 36 38 35
3290.0 31 39 38 43 37 32 37 35 25 35
3330.0 40 38 45 44 44 43 38 27 29 30
3370.0 32 36 35 36 33 28 27 31 33 21
3410.0 17 29 28 18 17 25 16 20 22 17
3450.0 21 13 12 15 11 10 12 18 10 23
3490.0 15 13 19 26 16 10 26 12 16 15
3530.0 18 17 22 19 21 18 12 17 20 3
3570.0 8 24 8 21 16 23 12 20 15 8
3610.0 11 4 13 19 19 10 20 18 17 14
3650.0 24 21 18 26 20 9 20 12 15 12
3690.0 10 23 26 20 22 7 25 29 28 15
3730.0 16 34 5 8 23 18 18 22 12 21
3770.0 23 6 29 38 33 41 55 47 52 18
3810.0 30 15 20 45 21 23 22 35 29 27
3850.0 56 45 32 17 35 18 19 26 49 27
3890.0 65 27 28 51 52 34 28 6 20 12
3930.0 47 37 15 51 49 33 43 35 38 5
##END=
