##TITLE=Hexane, 2,4-dimethyl-
##JCAMP-DX=4.24
##DATA TYPE=INFRARED SPECTRUM
##ORIGIN=Sadtler Research Labs Under US-EPA Contract
##OWNER=NIST Standard Reference Data Program
##CAS REGISTRY NO=589-43-5
##MOLFORM=C 8 H 18
##XUNITS=1/CM
##YUNITS=ABSORBANCE
##XFACTOR=1.0
##YFACTOR=0.000137888
##DELTAX=4.0
##FIRSTX=450.0
##LASTX=3966.0
##FIRSTY=0.007446
##MAXX=3966
##MINX=450
##MAXY=1.37888
##MINY=0
##NPOINTS=880
##XYDATA=(X++(Y..Y))
450.0 54 77 338 168 157 152 87 165 13 11
490.0 141 160 100 84 112 101 123 119 106 138
530.0 118 94 138 95 116 133 103 103 87 119
570.0 88 72 147 134 86 65 109 98 101 131
610.0 99 93 127 58 133 120 66 135 86 94
650.0 117 77 124 141 120 101 98 106 84 44
690.0 73 91 114 95 84 106 85 105 78 117
730.0 88 61 230 172 151 52 104 123 99 118
770.0 177 172 183 192 137 126 119 143 121 106
810.0 94 96 110 101 117 81 121 114 100 96
850.0 94 121 124 124 108 117 111 110 107 100
890.0 129 117 96 103 107 111 128 125 122 129
930.0 116 138 135 116 127 141 153 191 212 224
970.0 239 237 232 211 209 221 217 228 188 189
1010.0 160 143 165 144 135 114 132 124 101 102
1050.0 136 121 131 107 81 116 102 98 104 118
1090.0 102 97 99 84 85 98 117 129 127 142
1130.0 152 166 161 198 249 254 273 273 316 334
1170.0 318 301 257 207 168 125 124 113 106 105
1210.0 98 97 112 102 114 112 124 125 114 119
1250.0 109 101 102 112 124 126 128 142 130 140
1290.0 144 148 153 142 146 140 147 172 170 193
1330.0 202 223 239 256 264 309 372 459 567 702
1370.0 806 936 1011 1054 1097 962 801 627 413 299
1410.0 211 189 163 186 177 194 239 288 374 464
1450.0 648 835 1018 1212 1284 1321 1215 999 777 587
1490.0 392 291 194 161 149 109 97 110 96 86
1530.0 67 78 77 84 81 64 86 75 107 66
1570.0 62 76 71 84 56 63 72 58 71 59
1610.0 60 65 76 72 57 77 61 70 69 61
1650.0 86 74 69 61 64 70 66 69 59 70
1690.0 58 59 71 83 67 72 68 77 80 68
1730.0 77 66 72 70 61 63 60 56 52 50
1770.0 59 52 47 42 40 46 39 44 33 43
1810.0 41 31 37 29 36 32 30 29 26 34
1850.0 18 31 33 24 30 23 34 19 20 23
1890.0 27 24 25 24 26 25 23 24 23 22
1930.0 22 22 20 18 21 19 20 19 19 17
1970.0 19 17 16 18 17 15 15 14 17 15
2010.0 14 16 14 13 11 15 16 14 13 12
2050.0 14 12 15 14 12 11 12 12 13 11
2090.0 14 12 11 12 13 13 14 12 13 14
2130.0 13 14 13 16 14 12 12 9 13 13
2170.0 13 13 12 14 13 12 11 11 12 10
2210.0 10 7 6 11 8 7 7 5 6 7
2250.0 9 9 7 6 8 9 7 7 7 8
2290.0 6 7 4 7 6 1 2 5 2 5
2330.0 8 2 5 6 2 6 6 13 3 3
2370.0 5 3 9 11 12 14 16 18 20 19
2410.0 17 18 18 16 15 14 16 13 13 13
2450.0 13 13 12 12 12 13 10 7 9 12
2490.0 11 9 11 13 11 13 13 14 15 12
2530.0 16 16 16 16 19 17 19 21 27 29
2570.0 33 39 44 48 53 54 60 61 61 57
2610.0 58 61 62 62 61 62 64 62 60 60
2650.0 57 57 57 57 55 56 59 61 62 61
2690.0 64 67 73 77 83 89 95 111 123 137
2730.0 143 156 157 152 143 135 129 125 121 123
2770.0 122 129 131 135 144 157 171 186 205 225
2810.0 246 267 295 325 367 424 504 606 737 881
2850.0 1039 1212 1380 1570 1852 2227 2650 3054 3322 3428
2890.0 3424 3418 3500 3753 4173 4626 4949 5080 5056 4943
2930.0 4824 4755 4689 4634 4694 5044 5869 7300 8995 10000
2970.0 9712 8447 6486 4316 2610 1566 1006 711 553 451
3010.0 380 334 293 258 231 210 201 185 185 179
3050.0 171 167 159 153 150 150 148 144 140 135
3090.0 124 124 116 111 106 105 105 106 105 105
3130.0 103 108 103 104 100 96 98 99 101 105
3170.0 104 109 105 101 103 98 93 86 80 70
3210.0 63 53 47 45 43 34 34 28 30 25
3250.0 23 23 26 29 26 19 22 23 21 27
3290.0 23 24 23 21 25 20 21 22 25 27
3330.0 19 21 21 25 22 21 25 23 24 31
3370.0 31 28 27 23 22 27 25 14 18 24
3410.0 23 19 20 20 21 21 19 19 18 17
3450.0 8 16 10 19 15 16 14 20 20 19
3490.0 9 17 11 10 12 16 14 11 19 9
3530.0 17 20 13 16 10 17 29 21 25 19
3570.0 22 25 25 12 25 21 24 13 20 13
3610.0 13 14 24 20 10 29 16 24 13 21
3650.0 21 39 18 30 0 30 24 37 18 16
3690.0 27 12 20 33 30 18 22 21 21 12
3730.0 32 43 37 28 35 39 31 23 18 26
3770.0 25 20 19 37 25 18 13 35 32 37
3810.0 11 36 31 49 36 44 39 44 31 34
3850.0 37 49 41 40 42 48 34 36 16 27
3890.0 23 43 48 37 38 10 30 49 50 36
3930.0 60 28 22 32 40 21 37 48 24 17
##END=
