##TITLE=Butanoic acid, 3-methyl-, 2-methylpropyl ester
##JCAMP-DX=4.24
##DATA TYPE=INFRARED SPECTRUM
##ORIGIN=Sadtler Research Labs Under US-EPA Contract
##OWNER=NIST Standard Reference Data Program
##CAS REGISTRY NO=589-59-3
##MOLFORM=C 9 H 18 O 2
##XUNITS=1/CM
##YUNITS=ABSORBANCE
##XFACTOR=1.0
##YFACTOR=0.000090128
##DELTAX=4.0
##FIRSTX=450.0
##LASTX=3966.0
##FIRSTY=0.000000
##MAXX=3966
##MINX=450
##MAXY=0.90128
##MINY=0
##NPOINTS=880
##XYDATA=(X++(Y..Y))
450.0 0 65 206 132 167 149 132 155 72 137
490.0 193 207 163 167 167 93 116 147 200 129
530.0 179 130 160 92 125 87 71 161 94 178
570.0 133 131 93 121 154 156 161 144 141 154
610.0 194 177 205 136 185 198 160 154 147 159
650.0 126 126 109 117 92 77 106 101 100 95
690.0 120 82 135 135 137 153 177 173 205 223
730.0 175 190 186 165 162 158 171 175 159 145
770.0 165 123 141 144 160 149 169 189 179 195
810.0 194 216 213 264 257 282 276 258 250 222
850.0 237 209 224 230 250 245 253 264 265 291
890.0 283 298 289 316 326 349 365 400 432 444
930.0 466 457 478 480 493 483 484 493 504 502
970.0 468 436 432 477 559 671 730 1109 1559 2115
1010.0 2813 3375 3500 3049 2178 1366 904 682 552 510
1050.0 486 512 550 634 758 946 1173 1441 1721 1998
1090.0 2263 2466 2603 2668 2715 2796 2991 3099 3024 2760
1130.0 2468 2345 2445 2753 3128 3476 3767 4107 4594 5106
1170.0 5539 5912 6306 6781 7030 6667 5827 4761 3943 3423
1210.0 3015 2616 2236 2032 1990 2105 2299 2542 2788 3029
1250.0 3150 3094 2882 2513 2145 1835 1688 1723 2018 2526
1290.0 3070 3336 3148 2637 2008 1577 1274 1059 939 879
1330.0 911 998 1096 1196 1313 1473 1678 1793 1793 1764
1370.0 1854 2166 2549 2669 2375 1887 1417 1128 927 760
1410.0 621 545 535 564 636 696 732 720 738 793
1450.0 920 1113 1359 1641 1869 1999 1892 1639 1277 940
1490.0 673 490 383 304 269 227 218 202 191 179
1530.0 165 167 161 158 148 149 149 152 155 139
1570.0 151 146 155 145 156 145 149 153 147 151
1610.0 142 154 140 151 144 159 153 173 163 169
1650.0 175 185 185 185 197 191 203 211 228 256
1690.0 278 327 370 449 516 625 701 835 985 1215
1730.0 1605 2268 3404 4929 7016 8639 9358 8578 6799 4628
1770.0 2961 1888 1321 991 792 640 523 430 361 302
1810.0 270 236 212 198 181 167 156 148 144 137
1850.0 128 129 127 124 123 116 112 108 105 107
1890.0 107 108 108 109 104 105 106 109 103 109
1930.0 112 110 110 108 102 103 110 112 107 104
1970.0 104 102 98 98 99 96 98 100 109 108
2010.0 119 122 126 135 141 137 133 132 132 127
2050.0 123 124 123 124 122 120 117 111 107 104
2090.0 99 103 94 98 93 103 93 95 92 92
2130.0 90 91 87 86 82 82 84 82 86 77
2170.0 78 80 80 76 77 74 73 79 68 70
2210.0 72 68 73 71 71 70 75 71 71 72
2250.0 75 73 78 77 79 83 83 81 89 96
2290.0 108 113 121 127 128 136 131 133 125 118
2330.0 106 103 90 93 99 126 120 118 77 78
2370.0 78 79 84 85 89 81 71 72 75 80
2410.0 75 74 72 67 71 65 70 73 76 72
2450.0 70 79 77 75 73 76 80 81 70 76
2490.0 65 73 77 79 72 68 72 73 73 71
2530.0 74 77 74 82 73 72 78 76 81 80
2570.0 86 90 79 87 87 90 87 87 89 81
2610.0 84 86 82 85 86 83 80 90 93 93
2650.0 86 86 81 93 86 85 89 96 104 98
2690.0 94 96 103 107 106 110 120 127 150 173
2730.0 185 201 216 216 207 215 199 194 189 167
2770.0 188 185 174 188 184 194 207 200 216 223
2810.0 238 265 268 288 305 324 339 385 403 432
2850.0 455 515 575 676 841 1129 1625 2286 2874 3154
2890.0 3113 2884 2702 2578 2516 2511 2541 2647 2765 2962
2930.0 3230 3591 4033 4472 4813 5067 5345 5937 7040 8556
2970.0 9739 10000 9218 7434 5275 3378 2058 1331 939 696
3010.0 550 460 399 351 323 295 275 256 232 215
3050.0 196 193 197 185 184 174 167 174 168 180
3090.0 183 179 174 173 168 134 155 152 162 168
3130.0 172 171 161 162 150 165 165 162 160 159
3170.0 173 167 185 182 172 178 164 160 161 163
3210.0 157 140 127 125 107 107 109 106 114 100
3250.0 100 113 100 103 96 103 103 93 103 92
3290.0 105 94 100 97 103 113 100 110 113 110
3330.0 124 97 136 114 121 130 122 88 123 120
3370.0 134 111 119 133 127 124 133 143 94 129
3410.0 140 128 114 113 110 111 112 112 130 115
3450.0 108 108 114 127 135 163 155 178 170 183
3490.0 178 167 163 135 126 130 121 113 120 92
3530.0 103 106 98 110 109 105 103 106 126 128
3570.0 120 116 137 125 125 99 115 121 112 105
3610.0 90 87 93 89 94 92 95 97 105 86
3650.0 107 98 115 110 96 70 99 97 103 66
3690.0 97 107 107 111 99 104 96 82 82 89
3730.0 98 122 98 87 87 64 84 99 75 92
3770.0 94 97 93 105 89 97 80 92 119 116
3810.0 93 93 89 94 115 121 121 99 137 112
3850.0 114 105 88 103 93 114 93 105 114 112
3890.0 119 117 74 114 113 100 96 108 80 108
3930.0 109 94 119 123 114 85 120 141 121 114
##END=
