##TITLE=1-Pentanol, 3-methyl-
##JCAMP-DX=4.24
##DATA TYPE=INFRARED SPECTRUM
##ORIGIN=Sadtler Research Labs Under US-EPA Contract
##OWNER=NIST Standard Reference Data Program
##CAS REGISTRY NO=589-35-5
##MOLFORM=C 6 H 14 O
##XUNITS=1/CM
##YUNITS=ABSORBANCE
##XFACTOR=1.0
##YFACTOR=0.000135678
##DELTAX=4.0
##FIRSTX=450.0
##LASTX=3966.0
##FIRSTY=0.006377
##MAXX=3966
##MINX=450
##MAXY=1.35678
##MINY=0
##NPOINTS=880
##XYDATA=(X++(Y..Y))
450.0 47 49 68 44 33 44 49 16 66 39
490.0 0 45 91 62 113 120 132 192 150 166
530.0 150 122 141 124 144 34 118 56 105 71
570.0 89 70 74 97 50 84 85 88 39 67
610.0 54 74 56 87 73 62 99 77 61 72
650.0 78 58 68 85 73 90 72 88 63 94
690.0 75 89 61 77 74 80 76 86 78 83
730.0 105 84 101 76 118 123 121 150 154 184
770.0 179 220 217 220 217 201 208 174 143 134
810.0 129 126 138 142 165 187 218 240 272 292
850.0 284 269 248 229 209 184 171 166 169 166
890.0 176 158 174 179 195 215 242 251 266 292
930.0 309 344 376 424 480 548 619 699 791 894
970.0 991 1051 1108 1138 1166 1183 1229 1272 1351 1474
1010.0 1599 1757 1931 2130 2282 2420 2539 2709 2890 3072
1050.0 3270 3445 3502 3374 3096 2659 2172 1700 1329 1067
1090.0 910 827 783 780 751 732 690 649 596 550
1130.0 520 487 472 467 482 496 511 512 518 515
1170.0 493 499 506 531 549 573 580 585 594 592
1210.0 593 594 593 586 591 582 581 566 562 563
1250.0 567 582 596 615 622 639 639 641 634 624
1290.0 602 577 558 530 520 500 498 490 492 500
1330.0 507 526 548 579 588 613 636 678 748 861
1370.0 1019 1255 1477 1618 1721 1731 1559 1303 1032 830
1410.0 669 573 502 481 454 469 501 582 648 751
1450.0 914 1083 1274 1380 1458 1461 1319 1171 974 777
1490.0 580 435 307 222 183 168 121 122 110 102
1530.0 85 89 94 88 87 80 77 77 90 64
1570.0 63 61 64 50 51 53 48 49 45 47
1610.0 43 55 49 46 38 45 44 48 36 50
1650.0 33 63 39 33 34 40 34 39 27 51
1690.0 28 28 35 35 26 17 26 19 24 15
1730.0 20 24 21 12 12 24 19 18 12 17
1770.0 15 21 9 19 15 19 14 19 18 15
1810.0 9 15 16 13 18 11 19 8 17 12
1850.0 15 10 12 14 15 16 17 12 14 14
1890.0 17 18 18 21 21 21 21 21 20 15
1930.0 14 10 7 10 10 9 8 7 8 10
1970.0 8 11 10 13 15 16 17 19 23 26
2010.0 26 29 30 31 32 36 36 36 36 38
2050.0 38 38 37 36 35 36 31 27 21 22
2090.0 21 18 13 14 15 15 15 14 15 15
2130.0 12 12 12 13 11 13 9 13 9 11
2170.0 6 2 3 3 3 5 7 7 8 7
2210.0 7 9 13 13 14 14 17 18 13 12
2250.0 13 15 16 17 18 16 22 21 21 26
2290.0 28 31 36 36 38 35 36 27 23 33
2330.0 24 25 20 29 42 41 11 17 42 67
2370.0 82 77 74 68 61 54 46 46 48 50
2410.0 51 53 54 54 54 53 52 52 52 48
2450.0 48 45 46 44 43 43 41 42 41 43
2490.0 48 46 43 42 44 47 47 48 50 49
2530.0 49 48 50 48 51 56 62 64 61 64
2570.0 73 78 82 90 96 99 106 111 115 117
2610.0 114 121 124 128 127 128 133 135 137 136
2650.0 137 137 142 144 147 153 161 158 169 173
2690.0 175 177 175 177 187 195 203 214 232 249
2730.0 261 272 288 301 312 315 318 314 316 313
2770.0 325 336 338 353 370 385 401 420 443 459
2810.0 486 509 545 596 646 728 830 940 1092 1296
2850.0 1545 1891 2262 2717 3210 3804 4484 5140 5597 5824
2890.0 5852 5723 5578 5423 5505 5892 6349 6948 7490 8082
2930.0 8326 8327 8220 7903 7536 7089 7081 7560 8556 9524
2970.0 10000 9346 8327 6636 4680 3034 1937 1301 941 731
3010.0 591 518 462 421 382 366 338 314 298 280
3050.0 287 268 253 250 248 232 217 206 207 193
3090.0 187 178 177 159 160 163 152 147 128 138
3130.0 134 140 123 125 110 113 135 130 114 113
3170.0 100 107 108 88 93 88 75 81 68 57
3210.0 53 55 30 36 57 28 43 27 35 19
3250.0 19 17 36 24 13 19 49 31 25 21
3290.0 32 33 35 46 44 60 46 40 57 51
3330.0 54 43 50 33 40 45 47 53 46 52
3370.0 53 47 54 67 55 58 58 44 55 52
3410.0 46 39 47 56 51 60 48 59 63 54
3450.0 58 65 62 62 62 64 57 81 80 52
3490.0 61 79 71 64 45 54 55 51 55 44
3530.0 40 41 34 31 60 46 65 62 50 41
3570.0 43 58 77 76 53 82 89 69 94 84
3610.0 77 70 86 91 127 139 153 198 269 344
3650.0 470 610 759 928 1043 1029 978 874 729 540
3690.0 371 263 198 136 127 94 97 91 78 71
3730.0 85 87 97 94 108 84 76 77 63 76
3770.0 69 65 69 81 76 75 68 80 86 83
3810.0 94 81 93 96 94 81 108 97 110 125
3850.0 111 146 135 97 111 128 126 115 114 111
3890.0 90 115 136 108 106 83 94 105 105 75
3930.0 98 87 96 84 83 75 107 96 81 45
##END=
