##TITLE=Benzenemethanol, 4-methyl-
##JCAMP-DX=4.24
##DATA TYPE=INFRARED SPECTRUM
##ORIGIN=Sadtler Research Labs Under US-EPA Contract
##OWNER=NIST Standard Reference Data Program
##CAS REGISTRY NO=589-18-4
##MOLFORM=C 8 H 10 O
##XUNITS=1/CM
##YUNITS=ABSORBANCE
##XFACTOR=1.0
##YFACTOR=0.000055316
##DELTAX=4.0
##FIRSTX=450.0
##LASTX=3966.0
##FIRSTY=0.074068
##MAXX=3966
##MINX=450
##MAXY=0.55316
##MINY=0
##NPOINTS=880
##XYDATA=(X++(Y..Y))
450.0 1339 1125 1161 1478 1758 1874 1839 1562 1461 1232
490.0 1088 877 799 813 763 764 728 763 767 816
530.0 833 879 957 1103 1259 1470 1590 1655 1565 1312
570.0 1128 893 753 588 503 424 388 325 284 232
610.0 181 166 134 114 92 84 75 71 54 51
650.0 38 48 13 29 26 48 61 43 69 92
690.0 98 110 145 164 187 244 326 417 535 723
730.0 929 1143 1347 1585 1641 1659 1615 1564 1497 1483
770.0 1552 1656 1946 2324 2906 3534 4266 5041 5688 6072
810.0 5798 5146 4264 3515 2758 2169 1734 1449 1206 952
850.0 750 580 425 340 264 251 250 240 225 251
890.0 253 259 277 329 372 429 502 582 698 832
930.0 980 1120 1220 1287 1316 1358 1448 1599 1789 2030
970.0 2335 2697 3115 3594 4112 4681 5282 5949 6746 7704
1010.0 8845 9472 9721 10000 9991 9154 8430 7798 6863 5812
1050.0 4888 4194 3594 3099 2653 2268 1923 1657 1469 1337
1090.0 1252 1201 1170 1173 1189 1221 1201 1147 1128 1081
1130.0 998 933 905 919 963 1039 1168 1346 1594 1840
1170.0 2099 2386 2538 2516 2620 2747 2843 2959 3028 2976
1210.0 2725 2311 1945 1736 1606 1523 1474 1434 1393 1362
1250.0 1321 1278 1242 1207 1204 1195 1184 1179 1168 1160
1290.0 1164 1172 1197 1222 1224 1228 1245 1236 1222 1235
1330.0 1255 1292 1337 1420 1527 1700 1959 2307 2745 3267
1370.0 3819 4350 4782 5018 4962 4732 4280 3773 3389 3106
1410.0 2902 2737 2569 2435 2278 2098 1864 1646 1425 1260
1450.0 1150 1102 1097 1159 1250 1279 1219 1146 1063 953
1490.0 939 1053 1255 1667 2274 3036 3384 3311 2988 2373
1530.0 1457 819 544 435 381 364 322 279 276 288
1570.0 286 294 311 323 359 380 447 518 639 767
1610.0 915 1042 1042 1008 890 751 571 455 405 346
1650.0 270 221 192 149 134 103 83 111 87 86
1690.0 95 124 102 157 258 516 914 1173 1173 1160
1730.0 1144 595 214 138 95 95 101 107 109 133
1770.0 136 161 223 301 347 360 323 283 199 125
1810.0 67 44 45 30 27 14 31 36 40 41
1850.0 59 77 95 121 150 195 261 331 399 464
1890.0 501 506 504 475 413 334 264 209 166 141
1930.0 122 112 102 94 94 98 97 97 97 97
1970.0 101 107 109 107 111 116 123 128 136 146
2010.0 152 155 150 147 141 138 126 126 110 110
2050.0 100 98 93 84 81 79 76 71 68 67
2090.0 56 57 45 40 37 42 38 32 32 22
2130.0 23 22 15 11 9 6 6 8 4 2
2170.0 4 0 0 4 5 7 5 12 17 23
2210.0 24 25 23 22 21 20 18 20 20 20
2250.0 24 28 25 30 27 34 33 42 56 74
2290.0 81 102 119 126 131 133 124 118 115 99
2330.0 95 96 84 91 83 89 89 86 66 48
2370.0 37 57 66 82 77 73 67 70 72 72
2410.0 68 74 75 69 70 68 70 59 56 56
2450.0 48 53 58 57 55 52 56 58 57 60
2490.0 58 60 52 61 61 61 68 59 64 58
2530.0 60 62 53 55 52 64 58 60 69 68
2570.0 78 93 107 116 125 133 127 125 115 111
2610.0 105 97 97 94 95 102 100 105 110 100
2650.0 100 102 111 113 116 129 139 144 153 164
2690.0 172 184 201 217 249 283 324 367 398 435
2730.0 452 493 528 536 537 527 466 421 405 404
2770.0 425 440 464 501 531 564 603 646 677 730
2810.0 789 854 914 985 1081 1191 1322 1485 1690 1940
2850.0 2236 2579 3016 3554 4223 4972 5700 6289 6620 6637
2890.0 6417 6005 5627 5326 5163 5152 5293 5660 6229 6900
2930.0 7443 7669 7502 6989 6186 5274 4549 4035 3638 3280
2970.0 2996 2810 2747 2794 2904 3067 3297 3533 3758 4024
3010.0 4302 4691 5280 5928 6328 6373 6216 5694 4939 4400
3050.0 4165 4009 3814 3573 3254 2841 2418 2053 1774 1573
3090.0 1429 1300 1187 1072 956 829 704 580 496 430
3130.0 402 374 352 323 270 218 165 122 100 80
3170.0 59 59 64 59 49 37 52 43 40 44
3210.0 33 31 43 42 37 45 29 43 37 36
3250.0 34 26 27 21 15 23 28 29 14 18
3290.0 22 32 38 22 31 24 37 28 27 28
3330.0 21 24 28 28 29 35 27 25 30 30
3370.0 32 25 47 59 49 64 57 60 71 73
3410.0 64 70 76 79 83 84 87 84 88 73
3450.0 71 78 68 67 56 64 58 50 61 38
3490.0 56 51 38 45 38 51 57 35 46 34
3530.0 49 53 37 66 65 54 66 64 60 64
3570.0 61 73 79 87 92 93 110 108 139 181
3610.0 223 272 345 421 552 740 928 1163 1350 1685
3650.0 1965 2001 1976 1976 1857 1640 1362 1118 886 734
3690.0 573 466 406 339 263 208 182 160 123 115
3730.0 95 93 72 79 42 58 48 46 67 75
3770.0 67 65 55 40 54 53 70 72 35 48
3810.0 44 78 49 77 67 84 84 98 95 100
3850.0 109 118 109 103 121 157 156 164 161 148
3890.0 155 164 148 140 90 130 111 111 103 104
3930.0 96 123 103 90 70 46 95 83 89 97
##END=
