##TITLE=4-Octanone
##JCAMP-DX=4.24
##DATA TYPE=INFRARED SPECTRUM
##ORIGIN=Sadtler Research Labs Under US-EPA Contract
##OWNER=NIST Standard Reference Data Program
##CAS REGISTRY NO=589-63-9
##MOLFORM=C 8 H 16 O
##XUNITS=1/CM
##YUNITS=ABSORBANCE
##XFACTOR=1.0
##YFACTOR=0.000081369
##DELTAX=4.0
##FIRSTX=450.0
##LASTX=3966.0
##FIRSTY=0.007567
##MAXX=3966
##MINX=450
##MAXY=0.81369
##MINY=0
##NPOINTS=880
##XYDATA=(X++(Y..Y))
450.0 93 66 13 62 26 25 41 67 84 68
490.0 77 59 112 90 116 120 148 136 151 176
530.0 197 221 214 210 202 200 186 170 183 177
570.0 187 184 197 171 231 220 210 214 198 206
610.0 194 245 218 233 235 233 210 194 174 123
650.0 128 99 115 83 89 99 90 69 80 77
690.0 62 84 91 98 111 119 142 154 184 206
730.0 216 225 259 284 287 307 302 302 305 297
770.0 292 273 240 247 187 168 156 79 71 125
810.0 99 100 108 98 100 99 111 98 107 99
850.0 114 112 116 132 134 153 164 200 200 228
890.0 229 232 229 203 200 168 161 148 154 133
930.0 138 139 132 132 122 124 121 135 137 154
970.0 167 187 207 232 273 312 359 382 411 432
1010.0 484 555 666 808 971 1140 1251 1286 1214 1079
1050.0 919 798 714 652 601 559 520 494 498 500
1090.0 521 553 610 668 741 815 904 1036 1209 1423
1130.0 1600 1692 1678 1569 1436 1369 1347 1348 1321 1235
1170.0 1101 923 766 640 553 503 477 485 495 522
1210.0 538 546 542 539 545 557 575 592 604 609
1250.0 633 648 674 713 747 756 746 735 711 718
1290.0 731 742 738 720 686 659 641 643 665 696
1330.0 753 811 916 1054 1229 1435 1666 1874 2007 2013
1370.0 1899 1698 1492 1335 1200 1119 986 860 816 834
1410.0 893 957 1006 1018 1007 972 977 983 1019 1087
1450.0 1228 1361 1478 1548 1501 1433 1226 1008 798 601
1490.0 483 350 318 237 234 201 172 166 138 150
1530.0 104 121 97 125 79 85 89 88 94 64
1570.0 91 61 86 63 73 61 71 78 53 84
1610.0 61 89 64 105 81 88 98 110 107 84
1650.0 167 106 154 125 196 168 237 283 316 426
1690.0 455 671 706 1230 1595 2402 3231 4550 5562 6205
1730.0 6498 5901 4813 3642 2431 1685 1151 895 828 815
1770.0 884 766 696 541 472 387 359 301 234 211
1810.0 155 149 90 114 73 79 57 55 53 39
1850.0 58 26 42 22 47 25 29 26 22 26
1890.0 22 35 13 27 15 23 14 23 21 7
1930.0 18 7 21 5 22 4 11 8 10 11
1970.0 4 15 0 7 1 15 3 6 8 7
2010.0 6 8 17 3 17 12 17 11 17 19
2050.0 10 20 14 23 9 20 15 15 12 16
2090.0 17 8 15 7 14 6 14 8 12 14
2130.0 11 13 10 14 10 15 14 14 11 16
2170.0 17 10 17 14 17 11 24 17 18 16
2210.0 16 15 11 20 14 15 9 17 6 10
2250.0 14 10 12 8 13 6 11 10 11 7
2290.0 13 17 11 18 12 12 6 12 10 7
2330.0 5 4 7 0 16 7 20 7 23 19
2370.0 6 20 14 23 21 21 16 20 19 25
2410.0 20 20 26 19 22 16 20 14 18 16
2450.0 13 15 13 11 11 12 10 16 12 13
2490.0 13 12 15 13 18 16 18 14 19 14
2530.0 15 14 15 19 14 18 17 27 23 26
2570.0 23 23 25 29 28 26 32 27 30 26
2610.0 30 30 31 30 29 35 34 42 40 46
2650.0 50 59 63 70 75 77 84 75 86 81
2690.0 85 79 78 78 76 78 74 82 83 96
2730.0 99 116 131 151 166 170 165 159 159 152
2770.0 157 159 164 176 190 213 231 267 288 327
2810.0 355 388 418 440 467 506 558 621 713 812
2850.0 947 1139 1406 1759 2189 2665 3142 3689 4218 4431
2890.0 4470 4291 3967 3805 3801 3896 4092 4347 4640 4991
2930.0 5463 6060 6741 7272 7466 7435 7380 7532 8199 9249
2970.0 10000 9646 8531 6593 4687 3343 2396 1769 1375 1096
3010.0 903 753 647 562 497 444 400 368 326 301
3050.0 272 254 230 220 208 196 188 182 178 166
3090.0 162 156 147 138 134 126 116 118 111 109
3130.0 106 107 104 103 97 106 105 98 100 90
3170.0 92 88 90 83 86 83 81 83 72 70
3210.0 62 62 52 46 43 36 32 31 30 23
3250.0 28 22 21 17 17 19 19 17 16 15
3290.0 9 13 9 13 17 16 19 15 19 21
3330.0 21 20 23 18 25 18 23 30 25 32
3370.0 21 26 19 32 21 26 25 30 29 31
3410.0 46 44 54 71 96 105 112 107 95 85
3450.0 75 60 43 33 31 21 7 7 10 11
3490.0 24 15 18 13 12 14 23 14 15 25
3530.0 17 21 20 17 20 24 27 48 86 130
3570.0 191 197 194 144 117 78 64 39 39 32
3610.0 21 24 25 24 13 33 27 32 32 34
3650.0 36 29 34 16 20 35 40 47 41 35
3690.0 33 35 23 35 25 37 36 36 33 25
3730.0 33 41 47 27 52 27 39 25 36 32
3770.0 27 49 34 48 38 44 28 38 33 27
3810.0 37 32 43 32 41 38 41 35 29 37
3850.0 28 26 44 52 20 48 42 31 18 27
3890.0 34 31 32 36 33 25 29 22 48 38
3930.0 55 52 33 46 38 36 35 36 46 41
##END=
