##TITLE=Cyclohexanone, 4-methyl-
##JCAMP-DX=4.24
##DATA TYPE=INFRARED SPECTRUM
##ORIGIN=Sadtler Research Labs Under US-EPA Contract
##OWNER=NIST Standard Reference Data Program
##CAS REGISTRY NO=589-92-4
##MOLFORM=C 7 H 12 O
##XUNITS=1/CM
##YUNITS=ABSORBANCE
##XFACTOR=1.0
##YFACTOR=0.000113040
##DELTAX=4.0
##FIRSTX=450.0
##LASTX=3966.0
##FIRSTY=0.016843
##MAXX=3966
##MINX=450
##MAXY=1.1304
##MINY=0
##NPOINTS=880
##XYDATA=(X++(Y..Y))
450.0 149 82 129 80 120 126 180 193 236 285
490.0 261 328 368 338 399 445 246 349 270 276
530.0 163 146 55 131 151 137 127 80 84 123
570.0 156 181 138 139 112 192 89 122 96 105
610.0 96 95 85 95 129 122 88 106 122 97
650.0 100 106 109 97 91 2 135 159 132 137
690.0 124 122 111 95 99 117 117 124 156 182
730.0 210 258 307 366 364 339 308 285 256 193
770.0 146 126 115 95 120 188 135 150 170 178
810.0 179 164 131 108 101 92 95 81 90 83
850.0 83 91 90 108 109 116 145 166 202 228
890.0 253 256 291 295 258 240 220 179 153 141
930.0 133 141 158 170 198 231 239 249 234 224
970.0 208 170 167 186 216 283 364 456 458 461
1010.0 480 427 337 256 190 167 146 143 156 173
1050.0 210 232 273 284 296 311 302 293 275 270
1090.0 263 279 316 393 498 628 772 876 897 882
1130.0 844 738 601 481 384 336 329 375 432 536
1170.0 682 843 965 925 953 953 795 612 471 380
1210.0 307 288 297 316 342 374 424 478 501 486
1250.0 481 466 400 333 265 225 201 207 220 254
1290.0 278 323 396 433 481 549 628 709 781 821
1330.0 796 741 698 595 449 350 284 247 230 220
1370.0 259 354 431 488 533 513 459 355 298 311
1410.0 374 495 670 804 838 961 1104 1116 1078 1079
1450.0 1059 1089 1156 1052 1079 885 710 581 425 330
1490.0 254 187 156 125 132 123 112 104 113 88
1530.0 91 82 92 108 93 93 85 107 88 66
1570.0 70 73 80 79 69 76 79 87 94 99
1610.0 98 95 110 98 113 97 129 139 143 168
1650.0 212 249 272 279 304 320 340 345 397 444
1690.0 480 516 599 665 768 998 1545 2705 4689 7179
1730.0 9002 10000 9955 9196 6963 4072 2365 1563 1126 842
1770.0 629 486 389 342 302 275 267 252 260 255
1810.0 264 254 228 208 179 143 106 81 78 84
1850.0 72 68 68 68 75 81 70 67 66 64
1890.0 65 62 62 63 63 64 65 70 66 64
1930.0 66 62 63 60 57 52 51 51 48 47
1970.0 49 40 43 40 43 45 49 44 44 43
2010.0 41 40 39 38 38 37 37 44 46 47
2050.0 46 47 48 49 53 54 55 56 57 53
2090.0 50 48 44 43 42 42 49 47 43 47
2130.0 47 45 46 41 43 41 41 47 44 43
2170.0 44 46 45 39 41 45 49 47 45 43
2210.0 45 44 44 47 49 49 49 52 51 48
2250.0 47 48 46 36 40 38 40 38 36 38
2290.0 45 44 53 50 50 55 51 59 57 55
2330.0 57 56 60 55 54 52 59 42 64 42
2370.0 33 23 26 32 30 31 32 33 37 39
2410.0 37 35 32 31 35 30 27 28 29 28
2450.0 23 31 35 38 37 38 33 24 26 23
2490.0 21 20 20 19 15 9 17 14 15 16
2530.0 12 11 10 13 12 4 7 7 0 6
2570.0 7 9 15 15 22 20 19 19 22 20
2610.0 25 31 30 42 57 64 76 77 80 76
2650.0 74 68 63 66 68 75 81 76 84 84
2690.0 78 71 70 59 56 57 56 62 63 67
2730.0 77 85 83 89 94 95 86 81 81 78
2770.0 71 67 70 78 82 93 100 109 126 126
2810.0 144 163 188 218 261 301 360 418 495 594
2850.0 763 1068 1456 1821 2082 2438 2873 2827 2650 2467
2890.0 2284 2160 2081 2130 2350 2708 3110 3439 3770 4398
2930.0 5392 5654 5309 5092 4939 4524 4344 4435 5198 5366
2970.0 4640 4565 3827 2754 1734 1022 604 361 236 158
3010.0 123 96 84 82 71 66 79 86 86 72
3050.0 77 74 72 68 70 64 68 61 68 70
3090.0 64 56 65 66 62 49 57 58 38 54
3130.0 56 55 55 50 52 46 57 49 43 41
3170.0 55 60 70 60 55 61 69 47 37 31
3210.0 24 49 29 28 32 32 42 33 43 48
3250.0 39 40 40 43 50 57 49 31 47 47
3290.0 44 26 16 12 8 19 17 12 22 16
3330.0 26 0 32 32 42 32 31 36 37 35
3370.0 19 27 31 9 18 29 39 12 26 39
3410.0 61 43 27 37 60 69 57 91 112 144
3450.0 167 159 180 163 133 94 64 52 37 29
3490.0 26 35 16 40 26 32 0 30 33 30
3530.0 47 35 32 40 33 24 27 40 42 33
3570.0 53 52 43 68 56 72 58 35 53 49
3610.0 49 42 50 40 49 54 61 57 47 58
3650.0 56 45 41 42 66 58 61 73 47 33
3690.0 39 51 50 35 54 46 54 42 41 48
3730.0 24 49 84 50 62 43 42 11 52 56
3770.0 29 45 19 15 30 54 57 42 39 29
3810.0 46 42 22 48 27 36 62 28 50 46
3850.0 70 41 40 40 48 24 27 48 49 70
3890.0 55 28 69 62 67 68 55 29 50 51
3930.0 25 69 68 90 78 7 20 86 81 88
##END=
