##TITLE=4-Octanol
##JCAMP-DX=4.24
##DATA TYPE=INFRARED SPECTRUM
##ORIGIN=Sadtler Research Labs Under US-EPA Contract
##OWNER=NIST Standard Reference Data Program
##CAS REGISTRY NO=589-62-8
##MOLFORM=C 8 H 18 O
##XUNITS=1/CM
##YUNITS=ABSORBANCE
##XFACTOR=1.0
##YFACTOR=0.000087027
##DELTAX=4.0
##FIRSTX=450.0
##LASTX=3966.0
##FIRSTY=0.040555
##MAXX=3966
##MINX=450
##MAXY=0.87027
##MINY=0
##NPOINTS=880
##XYDATA=(X++(Y..Y))
450.0 466 233 60 142 211 59 167 67 170 95
490.0 167 126 149 122 125 114 64 131 76 125
530.0 75 100 88 95 107 106 108 95 137 55
570.0 82 35 48 48 63 83 172 95 84 98
610.0 62 103 80 74 82 90 81 72 90 75
650.0 83 77 87 76 87 88 83 91 78 94
690.0 90 99 91 100 97 106 119 121 144 164
730.0 194 200 221 246 269 267 254 250 213 200
770.0 176 181 175 195 190 197 188 187 184 170
810.0 166 161 174 197 216 259 299 348 373 394
850.0 389 373 344 322 296 279 292 296 318 341
890.0 376 418 444 450 435 404 360 322 287 265
930.0 246 247 259 280 306 346 389 427 464 495
970.0 528 569 614 680 755 876 1023 1193 1377 1572
1010.0 1711 1752 1725 1581 1390 1153 970 829 752 726
1050.0 743 787 829 867 875 885 874 865 842 846
1090.0 850 857 863 864 866 860 891 928 997 1059
1130.0 1120 1149 1126 1056 938 798 651 547 461 417
1170.0 399 403 423 445 489 532 583 629 677 703
1210.0 727 736 730 712 695 693 686 694 704 728
1250.0 742 761 774 769 766 743 713 672 639 598
1290.0 565 538 526 506 483 469 446 442 428 443
1330.0 456 493 537 584 623 649 690 728 799 864
1370.0 970 1072 1194 1285 1296 1249 1104 955 816 701
1410.0 596 515 455 430 425 452 521 576 681 760
1450.0 924 1045 1210 1348 1376 1314 1127 915 685 488
1490.0 359 260 224 181 165 153 145 131 119 121
1530.0 110 103 98 89 84 82 75 58 59 58
1570.0 62 49 54 52 52 52 54 50 48 53
1610.0 45 43 43 42 41 34 40 29 40 30
1650.0 41 17 37 31 33 33 25 34 31 26
1690.0 33 34 20 34 35 40 43 54 61 67
1730.0 71 59 55 50 41 38 33 31 36 31
1770.0 24 19 25 18 22 18 22 18 21 19
1810.0 19 18 19 16 18 18 14 18 12 18
1850.0 11 16 13 12 11 13 11 12 15 9
1890.0 12 11 14 14 13 14 14 14 11 16
1930.0 16 15 11 11 6 10 13 14 9 8
1970.0 12 7 8 6 6 5 7 4 9 8
2010.0 7 11 11 12 11 12 17 15 17 19
2050.0 17 10 13 13 12 9 10 12 8 6
2090.0 7 8 5 6 5 8 7 9 11 10
2130.0 11 9 9 7 9 9 8 10 14 11
2170.0 10 12 10 11 14 13 9 11 9 9
2210.0 10 10 11 11 9 7 9 9 9 9
2250.0 7 8 8 7 8 9 9 6 8 5
2290.0 7 1 4 1 0 3 3 1 0 0
2330.0 0 6 6 12 0 13 1 4 0 13
2370.0 14 10 21 20 19 24 27 26 25 24
2410.0 25 23 26 26 23 24 21 20 22 21
2450.0 23 22 19 17 19 19 19 18 20 18
2490.0 16 20 20 17 19 23 24 31 30 32
2530.0 31 33 31 33 37 37 36 37 45 47
2570.0 52 56 59 62 66 69 67 68 70 75
2610.0 77 77 75 82 85 89 90 93 96 101
2650.0 107 112 116 128 131 137 140 148 151 149
2690.0 146 145 145 144 139 139 141 141 144 150
2730.0 161 175 190 204 211 216 208 191 191 191
2770.0 200 207 221 235 253 273 294 317 339 365
2810.0 390 419 457 505 567 649 761 926 1145 1426
2850.0 1766 2156 2611 3117 3655 4129 4538 4935 5136 4927
2890.0 4560 4006 3552 3494 3748 4244 4892 5687 6532 7495
2930.0 8508 9425 10000 9860 9137 8090 7273 7075 7864 9215
2970.0 9860 8993 7159 4714 2892 1897 1344 1044 866 747
3010.0 654 588 534 488 455 422 392 361 330 297
3050.0 265 238 212 198 185 176 165 156 151 147
3090.0 141 131 128 120 116 112 104 97 97 94
3130.0 96 88 88 78 80 82 83 83 76 78
3170.0 72 70 73 68 71 66 62 61 60 52
3210.0 44 38 35 26 28 26 17 19 16 19
3250.0 18 16 14 6 9 10 7 0 3 7
3290.0 3 0 7 11 7 11 8 10 7 4
3330.0 11 4 3 8 2 6 10 9 4 5
3370.0 16 9 7 14 19 17 19 29 33 34
3410.0 35 40 42 41 45 42 45 40 42 37
3450.0 44 42 40 44 39 38 34 34 40 35
3490.0 34 38 27 29 31 25 30 31 29 28
3530.0 35 34 39 34 30 29 28 22 35 41
3570.0 43 44 30 32 32 40 43 45 50 56
3610.0 68 83 105 126 162 192 220 246 322 415
3650.0 531 598 640 610 509 377 258 181 127 104
3690.0 77 70 54 56 50 54 53 43 35 50
3730.0 25 49 31 50 42 39 46 38 36 42
3770.0 34 35 42 35 38 39 36 28 57 45
3810.0 56 40 38 51 47 52 51 50 56 64
3850.0 45 67 54 39 43 46 45 47 46 44
3890.0 53 41 42 38 58 39 38 39 27 31
3930.0 44 47 33 45 37 48 48 43 43 54
##END=
