##TITLE=3-Octanol
##JCAMP-DX=4.24
##DATA TYPE=INFRARED SPECTRUM
##ORIGIN=Sadtler Research Labs Under US-EPA Contract
##OWNER=NIST Standard Reference Data Program
##CAS REGISTRY NO=589-98-0
##MOLFORM=C 8 H 18 O
##XUNITS=1/CM
##YUNITS=ABSORBANCE
##XFACTOR=1.0
##YFACTOR=0.000138428
##DELTAX=4.0
##FIRSTX=450.0
##LASTX=3966.0
##FIRSTY=0.000000
##MAXX=3966
##MINX=450
##MAXY=1.38428
##MINY=0
##NPOINTS=880
##XYDATA=(X++(Y..Y))
450.0 0 125 145 181 175 145 99 258 130 187
490.0 185 199 67 159 172 107 159 134 203 129
530.0 186 161 194 155 156 155 127 159 123 137
570.0 102 149 136 149 146 157 182 141 146 124
610.0 157 128 140 125 128 137 141 118 127 158
650.0 122 147 130 129 112 137 150 111 125 118
690.0 143 123 147 121 159 168 196 201 228 254
730.0 203 223 207 214 174 190 193 194 223 229
770.0 261 229 245 224 219 195 178 185 159 173
810.0 165 197 194 208 196 204 205 198 208 208
850.0 239 223 242 243 262 260 281 293 288 293
890.0 285 311 308 348 371 418 478 550 642 706
930.0 793 842 867 854 847 843 853 911 975 1056
970.0 1085 1132 1133 1130 1140 1149 1078 1051 1021 1007
1010.0 1008 982 964 908 884 843 831 823 817 811
1050.0 779 777 751 753 750 778 784 809 830 863
1090.0 894 907 936 926 922 912 927 943 971 1013
1130.0 1040 1053 1019 960 847 736 628 543 486 451
1170.0 447 442 464 484 514 539 568 591 612 643
1210.0 674 713 750 800 821 840 840 839 815 784
1250.0 753 710 677 642 627 607 597 592 593 592
1290.0 583 583 575 570 552 543 516 504 487 478
1330.0 487 500 543 587 638 679 723 763 819 878
1370.0 935 1018 1105 1185 1198 1175 1048 918 791 684
1410.0 580 509 458 435 433 457 502 591 682 802
1450.0 940 1105 1285 1421 1454 1410 1208 969 723 539
1490.0 403 322 274 229 219 200 177 177 164 157
1530.0 142 147 135 141 125 129 126 125 129 115
1570.0 120 118 124 111 116 107 111 111 105 105
1610.0 98 107 95 104 93 100 90 101 92 97
1650.0 86 115 89 89 100 93 101 95 90 105
1690.0 94 99 110 116 115 132 147 177 204 219
1730.0 229 226 207 165 146 121 107 96 94 89
1770.0 86 87 78 86 76 82 75 77 78 76
1810.0 73 75 75 71 78 73 76 66 74 73
1850.0 72 75 73 75 74 75 71 74 70 76
1890.0 73 71 72 70 74 72 76 76 76 75
1930.0 77 74 73 70 68 73 74 75 73 71
1970.0 74 70 69 68 69 62 68 65 65 67
2010.0 68 70 70 77 72 77 81 83 75 72
2050.0 75 68 71 80 87 85 83 74 64 60
2090.0 57 58 59 65 71 71 69 75 71 72
2130.0 73 72 73 73 73 70 74 74 74 76
2170.0 78 77 72 73 77 75 72 71 74 75
2210.0 73 76 76 74 76 81 78 77 74 77
2250.0 73 74 73 72 75 80 77 81 83 85
2290.0 84 86 90 86 87 90 93 89 89 95
2330.0 98 95 102 95 96 96 87 80 101 114
2370.0 115 106 107 99 93 90 95 91 93 96
2410.0 94 97 94 101 96 100 93 97 92 90
2450.0 96 93 93 90 89 86 91 88 90 93
2490.0 87 92 89 92 94 95 90 97 93 97
2530.0 101 102 102 97 108 104 111 111 111 120
2570.0 127 131 131 135 134 140 144 151 147 153
2610.0 155 163 159 160 165 165 167 167 188 192
2650.0 188 186 172 180 181 198 210 222 224 223
2690.0 224 211 205 204 214 211 209 210 215 219
2730.0 227 242 258 267 279 275 270 268 268 267
2770.0 277 277 292 296 314 334 358 370 390 410
2810.0 430 457 500 553 608 684 795 953 1174 1482
2850.0 1903 2420 3011 3555 4024 4290 4379 4421 4425 4264
2890.0 4033 3689 3388 3364 3568 4011 4628 5478 6499 7624
2930.0 8795 9665 10000 9638 8835 7663 6738 6252 6476 7360
2970.0 7930 7593 6400 4752 3267 2252 1618 1222 960 797
3010.0 688 605 554 495 463 433 407 383 354 327
3050.0 313 302 283 274 261 265 258 255 255 250
3090.0 245 227 214 207 217 198 177 171 184 178
3130.0 177 180 169 168 166 170 170 166 158 160
3170.0 155 152 149 144 145 144 143 142 136 127
3210.0 122 119 105 107 102 102 102 94 92 94
3250.0 97 94 88 84 87 73 75 88 77 91
3290.0 83 88 93 87 87 88 93 88 97 89
3330.0 97 87 93 87 91 95 103 95 88 97
3370.0 97 96 104 97 103 89 113 112 93 108
3410.0 107 112 110 103 107 113 112 113 125 115
3450.0 111 113 111 112 100 101 99 100 112 109
3490.0 112 105 100 100 103 105 102 101 107 113
3530.0 93 112 104 104 97 120 97 99 112 103
3570.0 121 106 114 117 110 125 128 112 122 141
3610.0 144 146 170 209 234 269 283 317 382 466
3650.0 598 655 677 653 596 455 362 280 232 173
3690.0 170 163 150 132 140 151 130 137 136 140
3730.0 126 131 135 124 157 144 150 115 119 124
3770.0 137 133 144 137 133 155 145 147 140 159
3810.0 137 148 148 130 143 149 139 132 153 161
3850.0 155 140 151 164 135 149 159 172 154 158
3890.0 157 164 138 172 132 125 152 149 139 154
3930.0 129 139 174 142 128 140 139 157 156 115
##END=
