##TITLE=Niacin
##JCAMP-DX=4.24
##DATA TYPE=INFRARED SPECTRUM
##ORIGIN=Sadtler Research Labs Under US-EPA Contract
##OWNER=NIST Standard Reference Data Program
##CAS REGISTRY NO=59-67-6
##MOLFORM=C 6 H 5 N O 2
##XUNITS=1/CM
##YUNITS=ABSORBANCE
##XFACTOR=1.0
##YFACTOR=0.000069781
##DELTAX=4.0
##FIRSTX=450.0
##LASTX=3966.0
##FIRSTY=0.022888
##MAXX=3966
##MINX=450
##MAXY=0.69781
##MINY=0
##NPOINTS=880
##XYDATA=(X++(Y..Y))
450.0 328 290 421 426 515 391 472 466 498 484
490.0 574 662 628 681 694 751 658 676 710 727
530.0 763 808 916 883 1033 1138 1234 1199 1367 1468
570.0 1471 2091 2135 1454 1297 1136 850 646 491 464
610.0 419 389 379 420 376 352 504 1101 1690 1658
650.0 1674 1498 1392 592 253 149 130 155 201 282
690.0 358 413 579 764 600 462 527 555 685 850
730.0 1134 1377 1600 2525 2155 1686 1451 1199 907 689
770.0 591 553 483 453 399 306 176 111 111 86
810.0 99 87 88 88 82 78 63 57 43 40
850.0 25 34 11 38 36 18 36 35 45 17
890.0 53 20 34 14 19 32 2 24 19 25
930.0 12 37 15 36 23 31 39 37 69 75
970.0 101 102 115 110 119 119 118 152 224 392
1010.0 678 994 1092 1097 1167 1064 737 460 375 334
1050.0 367 486 722 1009 1291 1681 2303 3256 4178 4709
1090.0 4883 4789 4607 3776 2605 1714 1329 1176 1076 923
1130.0 816 694 587 496 480 510 579 678 823 1123
1170.0 1573 2135 2640 2918 3272 3455 3362 2785 2120 1714
1210.0 1347 820 470 336 305 286 279 284 279 286
1250.0 282 320 334 396 471 559 636 706 795 882
1290.0 988 1140 1345 1556 1595 1552 1472 1331 1013 740
1330.0 599 609 632 708 910 1252 1640 1917 2029 2018
1370.0 1834 1479 981 635 447 389 355 358 407 532
1410.0 704 895 1029 966 995 799 665 377 223 158
1450.0 115 98 65 126 130 196 183 207 186 196
1490.0 128 101 63 49 29 15 33 20 22 34
1530.0 64 51 90 50 146 171 263 232 415 497
1570.0 620 751 994 1343 1534 1693 1510 1338 991 610
1610.0 298 151 80 81 53 74 32 67 49 82
1650.0 2 88 50 73 70 82 53 98 100 79
1690.0 154 166 209 220 329 381 377 416 419 516
1730.0 466 726 892 1440 2217 3884 6520 8360 9756 9214
1770.0 10000 9117 5995 3574 1844 1197 679 516 399 342
1810.0 366 298 345 327 362 249 225 189 158 119
1850.0 94 114 69 89 71 64 50 64 59 44
1890.0 61 63 80 63 88 81 97 96 97 106
1930.0 90 103 78 92 76 107 103 115 126 111
1970.0 105 94 90 56 51 39 29 18 15 21
2010.0 7 19 6 17 4 13 8 14 15 15
2050.0 18 11 21 12 18 11 23 18 22 27
2090.0 17 23 14 26 15 21 18 21 22 24
2130.0 33 33 37 33 42 37 43 37 36 38
2170.0 40 51 42 51 43 48 40 37 31 32
2210.0 34 29 30 26 33 21 24 23 23 23
2250.0 26 25 21 24 19 29 24 30 34 37
2290.0 52 58 75 74 83 94 86 76 81 59
2330.0 62 58 43 55 94 92 95 70 86 72
2370.0 84 79 105 100 86 51 40 29 26 29
2410.0 22 29 21 24 22 30 26 30 31 33
2450.0 34 27 35 22 25 23 22 18 18 23
2490.0 23 21 24 27 25 22 22 29 18 23
2530.0 23 19 25 24 26 21 24 17 15 16
2570.0 19 15 14 14 17 18 18 20 14 16
2610.0 22 16 15 17 25 15 20 12 11 15
2650.0 11 21 14 21 13 17 12 16 11 7
2690.0 11 7 8 3 11 10 10 5 11 5
2730.0 2 5 6 6 3 11 5 8 11 12
2770.0 18 17 21 14 21 17 16 14 13 15
2810.0 7 7 8 10 4 16 16 21 20 27
2850.0 23 26 32 26 29 32 36 26 33 32
2890.0 26 26 27 33 22 31 30 30 33 38
2930.0 46 44 48 51 60 58 65 58 67 74
2970.0 86 94 98 107 103 110 98 89 87 89
3010.0 91 100 103 117 124 140 182 249 334 423
3050.0 499 537 540 493 401 326 270 256 264 285
3090.0 303 288 270 243 191 118 82 70 65 53
3130.0 60 59 58 56 54 49 42 37 31 26
3170.0 20 27 33 30 25 26 29 21 19 20
3210.0 24 22 23 17 16 22 10 17 15 21
3250.0 19 17 19 20 18 23 15 18 19 18
3290.0 22 21 18 26 23 31 25 19 25 25
3330.0 25 22 33 20 21 32 38 33 32 33
3370.0 34 24 20 27 31 32 27 29 30 27
3410.0 33 35 31 52 53 59 60 58 63 43
3450.0 53 33 42 46 36 29 21 17 30 31
3490.0 27 42 50 60 75 79 72 87 79 90
3530.0 31 30 26 32 63 15 68 147 279 609
3570.0 1308 2231 3047 3191 3134 2871 2216 1051 371 128
3610.0 83 75 55 70 25 79 44 42 35 55
3650.0 57 42 21 33 10 36 74 34 23 25
3690.0 69 39 41 55 32 37 44 40 48 56
3730.0 71 61 94 41 108 21 80 39 25 18
3770.0 40 48 10 50 38 35 10 52 21 65
3810.0 13 40 27 54 43 19 64 54 69 38
3850.0 34 65 40 42 17 81 31 42 39 67
3890.0 20 51 30 69 54 24 35 58 45 42
3930.0 30 32 22 41 55 41 44 35 31 0
##END=
