##TITLE=Butanal, 3-methyl-
##JCAMP-DX=4.24
##DATA TYPE=INFRARED SPECTRUM
##ORIGIN=Sadtler Research Labs Under US-EPA Contract
##OWNER=NIST Standard Reference Data Program
##CAS REGISTRY NO=590-86-3
##MOLFORM=C 5 H 10 O
##XUNITS=1/CM
##YUNITS=ABSORBANCE
##XFACTOR=1.0
##YFACTOR=0.000083133
##DELTAX=4.0
##FIRSTX=450.0
##LASTX=3966.0
##FIRSTY=0.070580
##MAXX=3966
##MINX=450
##MAXY=0.83133
##MINY=0
##NPOINTS=880
##XYDATA=(X++(Y..Y))
450.0 849 301 95 176 150 189 160 75 195 191
490.0 104 177 249 215 298 383 475 569 496 560
530.0 507 485 392 527 252 320 239 170 171 167
570.0 150 77 140 180 152 158 146 94 101 157
610.0 165 109 149 142 171 9 108 132 153 202
650.0 199 179 289 309 328 386 390 400 377 354
690.0 309 259 198 191 159 170 148 137 126 119
730.0 178 111 144 118 133 129 126 117 115 109
770.0 108 130 87 103 100 87 88 97 109 95
810.0 97 83 112 87 116 117 114 115 123 129
850.0 123 140 146 162 172 201 213 264 324 400
890.0 449 470 502 489 498 447 394 372 370 376
930.0 367 351 331 307 266 263 250 257 275 303
970.0 352 403 460 484 566 603 668 757 802 843
1010.0 842 843 793 738 610 508 429 375 336 309
1050.0 303 291 295 288 299 298 299 308 335 341
1090.0 345 361 368 385 403 438 471 536 604 664
1130.0 734 789 832 835 831 821 830 867 914 903
1170.0 864 817 751 675 562 458 378 341 342 346
1210.0 380 395 415 412 413 390 361 321 292 274
1250.0 260 275 277 309 327 361 393 410 417 415
1290.0 417 402 369 339 329 332 348 382 448 525
1330.0 612 757 884 977 1008 1035 1082 1129 1220 1330
1370.0 1417 1411 1462 1607 1593 1516 1405 1278 1206 1098
1410.0 982 928 826 831 792 754 673 676 704 770
1450.0 867 977 1045 1114 1219 1402 1358 1128 966 801
1490.0 629 507 360 258 156 95 84 65 33 60
1530.0 46 58 31 14 22 55 42 12 42 51
1570.0 54 50 58 64 78 67 68 67 75 70
1610.0 75 87 67 91 81 118 97 114 138 145
1650.0 148 175 236 266 308 332 371 442 463 533
1690.0 621 729 786 953 1131 1428 1766 2363 3418 4931
1730.0 6958 8595 9563 9844 10000 9534 8439 5949 3846 2651
1770.0 2032 1618 1404 1202 1083 936 817 705 596 521
1810.0 434 368 300 267 213 185 168 170 142 130
1850.0 143 137 137 131 133 108 128 118 112 98
1890.0 87 83 70 79 63 66 59 64 54 58
1930.0 68 59 64 50 64 62 66 63 66 58
1970.0 54 63 56 64 63 53 54 66 68 65
2010.0 67 66 68 64 74 60 60 47 53 47
2050.0 26 30 42 55 58 64 48 44 39 35
2090.0 32 40 55 46 55 57 60 61 62 64
2130.0 65 63 62 56 51 60 63 65 61 63
2170.0 67 69 72 66 66 72 70 60 64 65
2210.0 61 56 53 56 52 60 50 58 59 60
2250.0 63 59 64 59 65 55 65 59 54 54
2290.0 46 45 37 46 30 30 23 24 17 19
2330.0 20 33 31 36 62 44 0 0 52 85
2370.0 105 105 94 85 69 64 55 56 65 64
2410.0 60 59 59 51 54 59 49 44 54 47
2450.0 40 54 47 49 44 52 52 56 57 59
2490.0 61 63 72 67 72 68 72 67 61 61
2530.0 56 63 57 64 58 68 71 67 70 83
2570.0 86 92 110 110 129 129 142 150 169 169
2610.0 183 199 204 235 255 288 302 346 386 416
2650.0 467 483 499 530 579 648 768 942 1159 1447
2690.0 1764 2170 2629 3283 3648 3641 3643 3459 3248 2819
2730.0 2320 1955 1690 1505 1380 1287 1225 1171 1141 1124
2770.0 1124 1145 1196 1282 1389 1525 1699 1893 2144 2337
2810.0 2385 2372 2369 2237 2056 1857 1599 1384 1245 1148
2850.0 1104 1123 1203 1393 1717 2214 2807 3247 3584 3830
2890.0 4037 4142 4034 3863 3701 3590 3542 3483 3461 3567
2930.0 3761 3984 4300 4584 5004 5476 6076 6990 8258 9524
2970.0 9479 8331 7804 6651 5051 3391 2149 1389 901 609
3010.0 439 351 295 276 236 230 225 231 224 209
3050.0 203 175 182 177 184 170 169 170 167 166
3090.0 167 157 149 156 133 163 147 151 156 163
3130.0 168 160 166 172 157 150 153 156 164 153
3170.0 170 147 150 165 163 159 157 159 138 132
3210.0 137 115 120 104 105 100 85 60 68 71
3250.0 62 64 68 55 28 34 41 16 33 51
3290.0 43 44 77 91 70 69 70 70 77 77
3330.0 73 71 71 65 71 75 79 82 66 72
3370.0 81 84 81 68 86 82 84 86 89 90
3410.0 99 75 75 80 89 99 110 120 129 150
3450.0 182 221 241 238 264 254 231 213 160 157
3490.0 115 100 95 79 65 60 43 66 76 38
3530.0 65 46 63 54 62 60 76 40 59 85
3570.0 92 126 131 107 114 87 71 55 78 53
3610.0 51 44 51 34 43 64 58 48 58 43
3650.0 50 71 31 55 40 50 23 47 49 41
3690.0 45 37 41 36 25 39 51 45 4 31
3730.0 28 45 30 46 46 49 24 46 29 48
3770.0 46 30 31 36 44 47 63 59 46 63
3810.0 57 44 77 49 23 34 30 12 44 59
3850.0 56 86 65 31 62 61 44 51 49 36
3890.0 12 71 45 51 58 77 74 14 48 39
3930.0 46 22 47 59 4 23 39 51 56 65
##END=
