##TITLE=Acetic acid, chloro-, butyl ester
##JCAMP-DX=4.24
##DATA TYPE=INFRARED SPECTRUM
##ORIGIN=Sadtler Research Labs Under US-EPA Contract
##OWNER=NIST Standard Reference Data Program
##CAS REGISTRY NO=590-02-3
##MOLFORM=C 6 H 11 Cl O 2
##XUNITS=1/CM
##YUNITS=ABSORBANCE
##XFACTOR=1.0
##YFACTOR=0.000065479
##DELTAX=4.0
##FIRSTX=450.0
##LASTX=3966.0
##FIRSTY=0.016173
##MAXX=3966
##MINX=450
##MAXY=0.65479
##MINY=0
##NPOINTS=880
##XYDATA=(X++(Y..Y))
450.0 247 242 194 70 24 86 202 281 286 240
490.0 209 136 117 132 275 240 220 96 53 148
530.0 186 181 230 131 139 204 183 195 311 413
570.0 431 516 586 574 532 591 458 641 440 458
610.0 413 535 438 339 370 350 398 404 360 369
650.0 389 365 430 357 425 468 650 572 729 841
690.0 933 996 1003 965 916 810 789 730 684 729
730.0 754 644 741 628 696 607 734 712 677 748
770.0 813 897 916 1053 1174 1367 1399 1422 1280 1073
810.0 884 838 647 640 579 577 520 532 535 482
850.0 512 490 452 447 425 414 437 413 428 413
890.0 488 448 468 490 455 479 500 567 617 643
930.0 712 788 874 969 1112 1282 1390 1521 1698 1766
970.0 1725 1668 1577 1564 1520 1463 1549 1664 1815 2026
1010.0 2303 2545 2606 2502 2205 1894 1534 1241 1022 925
1050.0 981 1213 1492 1715 1773 1680 1457 1240 1036 992
1090.0 970 1027 1083 1222 1339 1551 1817 2208 2633 3148
1130.0 3661 4173 4474 4613 4724 4778 5089 5621 6411 7252
1170.0 7652 7326 6335 4967 3858 3144 2756 2533 2437 2387
1210.0 2379 2397 2537 2697 2935 3249 3638 4175 4804 5540
1250.0 6173 6497 6368 5740 5099 4821 5087 6165 7510 8771
1290.0 9302 8955 7954 6897 5893 4943 3931 2959 2328 1933
1330.0 1683 1466 1271 1095 1005 950 907 861 846 805
1370.0 783 812 860 936 1000 1036 1007 881 745 659
1410.0 641 683 824 1078 1384 1484 1470 1248 1073 1001
1450.0 1018 1126 1188 1363 1396 1421 1271 1138 966 771
1490.0 583 489 393 355 279 262 274 244 203 230
1530.0 239 217 215 142 190 214 208 130 137 196
1570.0 175 172 156 198 197 189 181 189 186 179
1610.0 194 190 142 178 165 180 171 143 185 160
1650.0 147 75 184 185 199 176 198 204 209 183
1690.0 260 300 298 348 463 597 690 788 1012 1238
1730.0 1539 1947 2715 3780 5251 6965 8589 9594 10000 9520
1770.0 8326 7118 6250 5597 4925 4212 3356 2570 1925 1452
1810.0 1102 880 737 626 503 420 365 335 285 232
1850.0 242 233 217 209 207 172 178 176 163 157
1890.0 157 148 154 144 145 143 136 128 128 136
1930.0 134 132 127 123 128 130 123 125 125 131
1970.0 131 122 124 123 120 121 121 120 115 121
2010.0 117 113 117 119 110 126 123 125 125 112
2050.0 116 124 110 114 113 113 106 98 106 114
2090.0 97 97 103 104 98 101 106 102 101 103
2130.0 108 101 100 93 92 88 97 95 92 95
2170.0 83 96 81 96 88 87 96 86 86 84
2210.0 78 86 81 84 68 68 69 68 76 75
2250.0 67 61 57 55 58 53 64 62 63 57
2290.0 49 40 40 38 38 32 20 16 16 16
2330.0 16 16 16 16 16 16 16 16 16 16
2370.0 16 28 44 61 69 61 63 72 78 72
2410.0 72 78 57 64 57 77 73 73 73 64
2450.0 64 81 65 66 65 51 58 66 62 55
2490.0 64 66 67 67 65 67 67 69 73 75
2530.0 67 76 72 63 70 65 69 78 69 77
2570.0 85 70 78 70 74 75 70 69 78 80
2610.0 77 71 71 64 79 76 77 75 88 80
2650.0 74 88 102 88 92 103 103 111 118 119
2690.0 129 126 117 123 109 121 132 119 133 128
2730.0 128 136 142 146 158 170 169 173 174 168
2770.0 157 165 159 167 159 168 178 179 183 194
2810.0 205 229 240 255 273 296 331 364 420 497
2850.0 606 714 820 933 1067 1278 1540 1850 2178 2353
2890.0 2328 2180 1968 1831 1834 1939 2100 2265 2447 2608
2930.0 2818 3115 3548 4003 4299 4415 4430 4550 5136 5992
2970.0 6787 7023 6291 5167 3781 2755 2069 1579 1249 986
3010.0 801 650 536 462 409 378 344 346 311 299
3050.0 268 252 221 190 165 170 156 156 145 128
3090.0 132 132 127 125 125 103 103 92 112 98
3130.0 94 103 110 92 90 83 104 89 90 83
3170.0 89 89 95 75 90 86 96 84 80 84
3210.0 93 68 61 61 54 55 59 63 68 44
3250.0 61 44 61 42 40 41 56 47 51 47
3290.0 56 46 61 58 33 50 44 55 58 64
3330.0 49 29 40 50 48 29 35 61 56 48
3370.0 49 51 45 37 51 50 39 50 41 37
3410.0 46 51 42 27 54 48 46 46 36 47
3450.0 37 47 67 50 53 59 58 71 77 78
3490.0 101 100 94 92 85 79 83 68 89 74
3530.0 68 72 72 80 81 72 74 73 83 96
3570.0 114 150 154 169 146 134 129 82 74 65
3610.0 29 34 44 37 52 17 50 67 60 54
3650.0 46 62 77 92 82 75 70 73 76 90
3690.0 58 73 87 78 79 78 65 86 78 78
3730.0 80 69 55 77 60 74 77 103 118 126
3770.0 140 135 138 149 147 144 136 142 135 137
3810.0 141 149 134 157 149 138 160 168 169 175
3850.0 167 152 178 181 182 189 182 206 222 214
3890.0 191 181 175 162 187 204 204 200 206 214
3930.0 198 206 201 185 190 211 0 15 16 16
##END=
