##TITLE=Propanoic acid, butyl ester
##JCAMP-DX=4.24
##DATA TYPE=INFRARED SPECTRUM
##ORIGIN=Sadtler Research Labs Under US-EPA Contract
##OWNER=NIST Standard Reference Data Program
##CAS REGISTRY NO=590-01-2
##MOLFORM=C 7 H 14 O 2
##XUNITS=1/CM
##YUNITS=ABSORBANCE
##XFACTOR=1.0
##YFACTOR=0.000062207
##DELTAX=4.0
##FIRSTX=450.0
##LASTX=3966.0
##FIRSTY=0.005039
##MAXX=3966
##MINX=450
##MAXY=0.62207
##MINY=0
##NPOINTS=880
##XYDATA=(X++(Y..Y))
450.0 81 53 77 74 58 66 52 41 20 14
490.0 28 20 56 53 108 74 91 59 30 66
530.0 27 36 35 21 61 59 38 67 57 65
570.0 135 148 124 161 115 163 146 126 134 139
610.0 189 190 223 169 188 117 143 129 110 129
650.0 89 107 76 125 25 145 101 159 142 128
690.0 98 89 69 44 105 75 102 100 147 116
730.0 171 190 224 196 215 206 180 200 184 177
770.0 168 192 177 223 229 242 226 277 286 319
810.0 348 339 367 331 339 339 365 372 400 400
850.0 398 380 340 346 314 316 269 310 267 283
890.0 292 263 261 284 248 213 205 212 207 188
930.0 238 302 367 385 438 450 453 437 447 461
970.0 429 449 401 440 490 521 546 617 629 710
1010.0 818 994 1200 1346 1456 1384 1261 1031 931 905
1050.0 1009 1203 1472 1778 2075 2373 2571 2819 2921 2888
1090.0 2701 2419 2034 1701 1493 1369 1341 1373 1387 1371
1130.0 1335 1332 1373 1425 1596 1792 2111 2455 2990 3918
1170.0 5032 6502 8184 9145 10000 9255 8486 7273 6157 5560
1210.0 4929 4319 3848 3413 3071 2756 2552 2458 2349 2256
1250.0 2168 2067 2006 1957 1924 1949 1953 1949 1811 1612
1290.0 1377 1159 1003 896 849 812 823 895 1059 1284
1330.0 1507 1695 1884 2046 2205 2261 2190 1944 1584 1237
1370.0 1023 901 879 957 1036 1074 1036 919 745 600
1410.0 514 480 468 491 546 627 707 756 834 876
1450.0 934 1038 1196 1447 1635 1678 1567 1354 998 754
1490.0 555 431 346 309 259 216 219 182 173 159
1530.0 166 143 158 119 126 126 123 94 95 108
1570.0 98 100 95 103 95 102 94 93 97 106
1610.0 104 106 96 105 106 102 109 99 123 115
1650.0 123 91 132 130 140 145 148 162 174 180
1690.0 207 246 262 319 393 481 566 679 842 1058
1730.0 1406 1920 2779 3947 5530 7309 8639 9034 8674 7238
1770.0 5216 3589 2445 1685 1245 980 772 639 499 416
1810.0 335 279 240 198 168 140 133 119 118 100
1850.0 109 100 101 93 92 86 92 92 92 92
1890.0 83 89 83 84 81 83 82 90 90 81
1930.0 84 83 82 74 79 72 83 72 82 73
1970.0 81 73 73 75 74 80 76 81 75 83
2010.0 77 89 86 95 87 94 94 92 94 90
2050.0 95 85 80 78 78 69 70 61 61 61
2090.0 60 60 60 57 53 54 49 52 52 53
2130.0 51 51 52 43 53 42 53 41 52 41
2170.0 52 48 43 43 41 42 41 50 40 48
2210.0 32 42 37 41 37 43 40 40 39 40
2250.0 40 32 46 40 44 38 34 36 32 38
2290.0 39 38 38 45 38 39 22 36 14 39
2330.0 41 48 49 45 60 28 29 19 63 60
2370.0 77 45 61 42 37 35 35 42 42 43
2410.0 41 34 33 41 28 33 33 29 31 27
2450.0 32 25 25 24 33 23 30 25 24 15
2490.0 16 21 17 22 16 23 15 22 13 22
2530.0 17 19 17 27 18 16 20 14 22 13
2570.0 29 29 30 23 30 24 29 29 30 36
2610.0 37 38 31 39 22 38 32 36 39 36
2650.0 37 36 39 32 40 39 48 48 55 48
2690.0 46 43 45 53 57 63 55 64 66 72
2730.0 65 80 82 98 102 112 115 116 114 105
2770.0 111 105 120 114 128 121 129 131 143 144
2810.0 152 170 175 199 215 238 262 311 345 434
2850.0 519 622 732 836 979 1148 1399 1668 1970 2111
2890.0 2171 2123 1984 1876 1858 1903 2000 2148 2298 2506
2930.0 2756 3080 3461 3928 4272 4524 4634 4824 5140 5488
2970.0 5856 5804 5351 4730 3959 3295 2766 2190 1684 1314
3010.0 1066 878 725 613 499 439 368 333 274 250
3050.0 216 200 184 143 137 132 115 103 109 94
3090.0 99 100 101 89 85 85 75 86 74 80
3130.0 73 74 59 77 66 64 67 62 69 70
3170.0 78 61 71 56 65 58 72 52 67 55
3210.0 49 40 33 25 22 42 25 32 6 24
3250.0 15 9 8 20 24 11 19 10 10 10
3290.0 17 10 20 10 21 17 13 12 12 11
3330.0 11 13 11 19 13 13 13 13 13 13
3370.0 13 6 14 5 14 14 14 7 20 19
3410.0 13 13 12 13 15 14 15 24 15 23
3450.0 9 15 15 16 18 36 43 49 61 63
3490.0 96 80 96 78 79 55 41 29 21 18
3530.0 17 17 18 19 19 19 11 18 20 35
3570.0 38 51 61 60 59 44 51 28 35 19
3610.0 20 20 18 16 21 16 19 38 29 29
3650.0 22 37 30 53 22 26 43 41 45 47
3690.0 43 34 37 31 38 32 39 41 45 37
3730.0 28 24 24 30 32 32 40 56 40 48
3770.0 34 40 43 55 56 61 44 42 42 25
3810.0 57 34 42 42 50 43 43 43 43 48
3850.0 51 56 59 75 59 60 43 53 38 60
3890.0 54 57 53 52 62 45 53 45 69 54
3930.0 61 54 52 48 54 63 0 5 5 5
##END=
