##TITLE=2-Pentanol, 2-methyl-
##JCAMP-DX=4.24
##DATA TYPE=INFRARED SPECTRUM
##ORIGIN=Sadtler Research Labs Under US-EPA Contract
##OWNER=NIST Standard Reference Data Program
##CAS REGISTRY NO=590-36-3
##MOLFORM=C 6 H 14 O
##XUNITS=1/CM
##YUNITS=ABSORBANCE
##XFACTOR=1.0
##YFACTOR=0.000190295
##DELTAX=4.0
##FIRSTX=450.0
##LASTX=3966.0
##FIRSTY=0.035966
##MAXX=3966
##MINX=450
##MAXY=1.90295
##MINY=0
##NPOINTS=880
##XYDATA=(X++(Y..Y))
450.0 189 147 218 169 219 207 186 176 207 119
490.0 13 61 90 96 64 74 58 93 105 101
530.0 131 167 161 133 152 96 119 62 66 62
570.0 62 43 62 51 23 65 64 66 47 61
610.0 51 49 60 45 33 34 73 41 56 40
650.0 57 46 43 54 32 45 40 67 46 66
690.0 57 56 66 65 73 56 73 57 70 72
730.0 87 117 138 163 184 217 223 245 240 227
770.0 195 168 137 111 114 101 111 102 108 94
810.0 89 85 73 77 57 73 62 75 85 121
850.0 148 190 235 287 348 411 506 596 719 807
890.0 859 883 860 831 792 782 833 947 1052 1156
930.0 1194 1180 1099 998 925 847 799 733 686 616
970.0 538 456 377 308 240 200 161 144 132 131
1010.0 126 130 143 155 186 222 271 315 377 437
1050.0 494 542 586 623 632 650 655 662 652 650
1090.0 629 604 585 580 613 674 794 945 1142 1341
1130.0 1541 1695 1793 1822 1800 1756 1721 1747 1798 1893
1170.0 1998 2089 2154 2149 2091 1957 1769 1552 1370 1213
1210.0 1120 1069 1049 1054 1061 1080 1087 1095 1086 1065
1250.0 1025 984 937 888 857 826 819 817 831 834
1290.0 837 830 812 801 782 777 780 806 827 851
1330.0 862 862 853 840 857 914 1044 1250 1531 1842
1370.0 2103 2332 2410 2326 2075 1760 1404 1074 757 545
1410.0 412 345 314 305 315 341 384 448 544 652
1450.0 793 909 1062 1155 1182 1187 1100 994 814 661
1490.0 494 369 271 195 160 129 100 96 86 82
1530.0 69 73 71 68 57 54 51 51 59 39
1570.0 45 42 48 32 40 35 34 38 35 39
1610.0 31 44 33 43 31 40 29 42 27 37
1650.0 24 53 30 30 36 29 32 34 28 42
1690.0 32 31 39 38 29 28 27 22 23 18
1730.0 16 19 21 9 12 9 13 10 11 12
1770.0 9 19 12 17 17 22 20 20 18 19
1810.0 19 21 20 18 20 17 15 15 16 16
1850.0 13 18 16 17 14 15 14 11 12 9
1890.0 10 7 7 2 3 4 3 5 6 4
1930.0 5 3 3 1 0 2 3 5 6 4
1970.0 7 4 7 8 7 6 7 7 6 8
2010.0 9 9 8 10 9 13 13 18 18 20
2050.0 23 18 17 20 24 25 26 23 20 17
2090.0 12 14 12 14 14 19 18 20 21 23
2130.0 28 23 24 20 23 18 18 17 17 18
2170.0 17 21 19 22 20 22 22 21 21 19
2210.0 22 21 21 20 23 22 22 25 26 26
2250.0 23 27 27 29 27 35 32 32 33 32
2290.0 37 35 36 30 33 33 28 26 32 32
2330.0 33 35 31 40 50 30 22 14 39 56
2370.0 70 61 67 57 49 46 41 41 38 38
2410.0 35 40 39 42 38 38 35 34 32 32
2450.0 33 29 32 29 30 29 30 30 29 33
2490.0 31 32 30 33 31 33 33 35 35 31
2530.0 33 31 32 34 35 34 31 37 36 39
2570.0 36 41 42 47 45 48 53 51 55 51
2610.0 56 50 53 57 62 65 65 70 73 74
2650.0 65 62 60 57 62 64 69 70 72 69
2690.0 74 73 75 81 83 88 93 109 116 134
2730.0 149 164 172 180 184 180 175 160 152 142
2770.0 143 141 140 146 153 169 178 195 214 243
2810.0 269 298 333 369 414 468 541 635 753 870
2850.0 996 1105 1219 1349 1538 1820 2258 2725 2996 3187
2890.0 3301 3301 3228 3087 3107 3226 3420 3592 3804 4036
2930.0 4328 4660 4971 5159 5204 5400 5772 6435 7422 8694
2970.0 9573 10000 9767 8786 7265 5490 3897 2585 1661 1090
3010.0 749 563 457 406 366 344 327 317 292 265
3050.0 236 215 195 181 173 165 162 158 162 155
3090.0 145 138 132 125 119 116 111 110 103 102
3130.0 102 99 104 103 113 109 115 112 114 111
3170.0 116 121 121 123 128 128 122 127 125 121
3210.0 118 110 104 101 91 86 82 77 76 71
3250.0 65 64 58 57 51 56 43 51 55 49
3290.0 50 58 58 50 46 47 55 45 48 48
3330.0 49 47 55 41 50 41 38 29 39 37
3370.0 40 41 45 42 48 53 59 61 54 60
3410.0 58 61 60 50 57 57 57 56 57 53
3450.0 51 51 48 39 42 36 32 31 33 28
3490.0 37 30 35 40 28 35 30 30 30 25
3530.0 25 27 29 26 22 25 28 19 19 21
3570.0 21 20 23 28 35 31 32 34 36 53
3610.0 63 80 121 174 249 377 505 563 650 646
3650.0 598 496 377 278 184 140 88 84 63 47
3690.0 48 42 35 32 42 35 42 44 33 39
3730.0 29 45 35 44 47 37 55 37 36 38
3770.0 34 40 42 34 30 43 47 46 38 36
3810.0 45 59 38 42 44 43 30 42 34 40
3850.0 48 47 54 34 41 44 53 44 46 33
3890.0 38 24 37 37 24 17 29 26 21 7
3930.0 35 36 0 1 22 12 11 25 11 37
##END=
