##TITLE=Cyclohexane, 1,1-dimethyl-
##JCAMP-DX=4.24
##DATA TYPE=INFRARED SPECTRUM
##ORIGIN=Sadtler Research Labs Under US-EPA Contract
##OWNER=NIST Standard Reference Data Program
##CAS REGISTRY NO=590-66-9
##MOLFORM=C 8 H 16
##XUNITS=1/CM
##YUNITS=ABSORBANCE
##XFACTOR=1.0
##YFACTOR=0.000165543
##DELTAX=4.0
##FIRSTX=450.0
##LASTX=3966.0
##FIRSTY=0.000000
##MAXX=3966
##MINX=450
##MAXY=1.65543
##MINY=0
##NPOINTS=880
##XYDATA=(X++(Y..Y))
450.0 0 62 91 105 90 92 86 101 91 57
490.0 33 107 52 80 80 79 98 63 68 48
530.0 93 80 45 96 112 119 140 106 94 113
570.0 67 79 60 75 80 82 67 78 87 72
610.0 78 63 78 96 80 91 50 67 60 68
650.0 58 82 78 69 64 90 82 83 92 82
690.0 92 79 94 89 87 89 74 81 78 100
730.0 77 90 73 71 63 77 85 74 81 72
770.0 100 81 64 86 81 73 74 72 74 90
810.0 87 89 78 89 83 87 102 130 136 158
850.0 181 163 173 150 118 102 94 97 85 81
890.0 78 88 87 97 117 125 134 138 148 139
930.0 135 118 124 116 132 141 161 182 198 221
970.0 212 205 193 185 163 153 151 123 112 96
1010.0 90 96 92 80 84 81 78 76 75 78
1050.0 81 78 77 80 74 75 72 77 77 78
1090.0 78 76 83 77 77 77 76 75 73 79
1130.0 83 97 114 132 152 163 180 191 217 231
1170.0 237 252 244 230 207 162 133 113 104 98
1210.0 88 86 86 90 91 94 98 109 115 114
1250.0 112 106 102 98 91 92 94 101 109 122
1290.0 125 129 131 120 116 104 93 88 89 90
1330.0 88 91 107 130 157 223 296 369 388 515
1370.0 595 521 499 531 494 480 370 359 268 188
1410.0 144 129 128 114 140 177 268 389 573 729
1450.0 944 1042 1084 1244 1083 929 860 712 561 428
1490.0 312 219 160 113 94 81 77 73 73 69
1530.0 65 66 61 69 61 61 62 65 59 60
1570.0 61 59 67 64 65 62 63 66 64 68
1610.0 68 66 65 65 66 66 66 68 68 67
1650.0 72 68 71 67 69 66 71 66 66 67
1690.0 65 67 67 68 68 67 68 71 67 63
1730.0 64 67 65 60 65 63 62 61 62 61
1770.0 60 61 60 62 61 62 62 62 65 61
1810.0 61 62 60 58 59 58 57 56 60 61
1850.0 58 62 60 63 61 60 59 63 62 62
1890.0 62 60 62 58 59 58 57 55 55 54
1930.0 54 55 56 59 57 58 58 57 57 56
1970.0 55 49 54 54 56 54 58 54 55 54
2010.0 57 58 56 57 55 54 52 50 45 46
2050.0 49 46 47 50 47 40 41 34 33 32
2090.0 33 42 45 49 49 51 53 55 51 50
2130.0 55 51 51 51 54 51 52 47 49 53
2170.0 54 55 56 59 57 59 54 60 55 54
2210.0 50 51 49 46 44 46 47 47 49 50
2250.0 46 51 50 48 49 49 50 53 51 54
2290.0 53 57 56 50 52 55 51 44 42 35
2330.0 35 44 39 37 44 41 32 32 36 61
2370.0 56 62 56 56 52 48 49 44 45 45
2410.0 40 44 48 46 43 41 44 44 43 45
2450.0 42 39 40 41 40 43 45 46 49 49
2490.0 47 49 43 43 43 42 38 39 41 40
2530.0 45 45 41 45 48 44 41 38 38 36
2570.0 38 40 37 44 47 54 57 65 68 79
2610.0 79 82 90 91 92 96 97 103 119 127
2650.0 129 137 140 141 136 135 134 124 111 106
2690.0 102 89 92 96 100 105 106 105 107 103
2730.0 98 96 92 101 96 92 95 100 102 115
2770.0 120 129 137 143 149 157 168 171 180 188
2810.0 201 227 246 274 321 404 561 805 1134 1521
2850.0 2018 2533 2795 3111 3356 3206 3162 2866 2619 2445
2890.0 2416 2568 3024 3654 4217 4907 5550 6264 7212 7939
2930.0 8429 10000 9592 8706 8414 7537 6326 5979 4904 3800
2970.0 3320 2456 1965 1580 1097 896 593 337 215 136
3010.0 116 98 96 81 85 78 75 74 74 62
3050.0 65 75 72 76 79 88 93 90 96 86
3090.0 99 90 86 79 83 71 76 64 64 71
3130.0 69 81 76 84 82 92 84 88 79 82
3170.0 77 68 68 69 73 68 73 77 79 81
3210.0 80 76 75 71 58 55 59 48 54 54
3250.0 61 43 50 50 49 41 41 48 51 46
3290.0 42 43 45 46 42 54 45 51 51 48
3330.0 58 56 59 52 62 59 58 56 53 60
3370.0 46 60 67 65 56 69 44 46 51 47
3410.0 45 49 45 41 47 45 51 37 41 42
3450.0 46 47 49 53 50 53 54 58 57 62
3490.0 62 53 58 52 53 53 47 47 52 44
3530.0 46 46 49 45 53 60 45 47 50 47
3570.0 51 50 51 45 47 44 53 54 61 46
3610.0 54 63 62 62 44 55 57 60 52 65
3650.0 54 50 57 53 56 52 71 55 41 48
3690.0 54 54 68 78 65 64 58 65 59 53
3730.0 54 56 56 59 55 67 48 49 58 56
3770.0 64 78 62 67 57 53 59 57 52 64
3810.0 62 62 71 60 72 72 58 46 57 54
3850.0 64 54 58 64 55 53 52 52 78 77
3890.0 75 62 69 52 59 67 62 54 56 39
3930.0 43 51 49 44 48 49 60 49 33 32
##END=
