##TITLE=Cyclohexanol, 1-methyl-
##JCAMP-DX=4.24
##DATA TYPE=INFRARED SPECTRUM
##ORIGIN=Sadtler Research Labs Under US-EPA Contract
##OWNER=NIST Standard Reference Data Program
##CAS REGISTRY NO=590-67-0
##MOLFORM=C 7 H 14 O
##XUNITS=1/CM
##YUNITS=ABSORBANCE
##XFACTOR=1.0
##YFACTOR=0.000052551
##DELTAX=4.0
##FIRSTX=450.0
##LASTX=3966.0
##FIRSTY=0.004625
##MAXX=3966
##MINX=450
##MAXY=0.52551
##MINY=0
##NPOINTS=880
##XYDATA=(X++(Y..Y))
450.0 88 116 118 137 139 159 191 213 191 176
490.0 150 77 57 23 33 8 29 48 12 36
530.0 20 9 28 12 81 84 54 62 112 108
570.0 79 78 48 60 59 22 25 28 25 28
610.0 29 32 33 36 25 43 41 47 47 38
650.0 47 43 43 41 25 54 58 41 45 52
690.0 53 51 62 71 85 96 103 117 88 77
730.0 65 49 53 41 28 41 45 50 47 37
770.0 57 57 47 42 54 54 48 38 44 42
810.0 56 71 95 111 150 197 252 215 241 236
850.0 238 197 168 164 142 144 165 175 215 253
890.0 330 429 559 704 869 1108 1047 924 770 638
930.0 443 283 196 205 265 365 494 631 789 945
970.0 852 786 721 592 454 346 278 241 213 203
1010.0 210 246 213 208 238 267 278 314 369 354
1050.0 316 306 295 280 304 333 380 443 518 590
1090.0 682 757 844 977 957 940 929 880 815 773
1130.0 733 725 759 779 806 835 865 884 923 942
1170.0 994 1076 919 762 682 575 451 375 345 344
1210.0 345 354 373 403 423 464 493 525 569 613
1250.0 637 669 689 672 653 607 575 535 508 459
1290.0 422 387 362 336 337 338 349 362 387 404
1330.0 421 442 471 477 472 482 503 538 608 717
1370.0 813 869 959 826 733 613 450 310 241 198
1410.0 197 187 206 204 263 324 452 569 721 861
1450.0 961 1093 1005 934 816 678 495 394 272 197
1490.0 123 103 71 74 50 69 70 60 55 49
1530.0 61 46 53 17 53 51 49 35 22 46
1570.0 43 52 27 47 47 44 40 45 40 43
1610.0 43 54 43 45 55 39 58 34 47 41
1650.0 50 2 45 47 53 33 59 37 50 26
1690.0 53 47 39 21 48 44 53 47 56 63
1730.0 67 69 63 65 72 57 47 46 45 40
1770.0 48 29 40 43 40 44 43 43 48 45
1810.0 37 48 43 46 37 42 35 32 40 40
1850.0 35 29 32 31 35 40 39 39 29 34
1890.0 30 35 39 30 29 30 29 30 33 27
1930.0 26 26 30 28 28 25 25 24 24 26
1970.0 25 23 23 23 23 26 26 22 22 20
2010.0 24 22 23 22 20 30 31 22 28 21
2050.0 19 20 18 19 21 26 18 18 28 28
2090.0 28 26 26 27 27 25 25 26 26 24
2130.0 16 25 24 25 25 14 13 21 15 21
2170.0 12 23 23 22 22 22 32 23 31 32
2210.0 33 25 24 31 24 22 21 21 20 21
2250.0 21 21 10 21 21 21 21 23 22 27
2290.0 37 33 36 27 31 38 36 33 28 30
2330.0 18 12 2 10 10 14 9 16 2 2
2370.0 2 3 7 18 20 16 13 12 13 13
2410.0 22 11 22 19 12 12 12 12 13 8
2450.0 10 11 11 11 11 11 10 10 22 16
2490.0 16 16 9 10 19 9 10 10 10 10
2530.0 13 7 15 21 14 18 17 20 9 9
2570.0 20 8 18 21 19 14 20 29 28 38
2610.0 38 46 37 46 46 46 54 54 57 56
2650.0 55 72 81 82 92 103 103 103 92 83
2690.0 82 64 61 56 62 55 54 57 65 65
2730.0 64 65 56 56 46 46 46 46 55 65
2770.0 65 72 83 93 103 121 131 133 139 140
2810.0 143 159 165 180 202 247 330 474 677 952
2850.0 1327 1727 2029 2412 2534 2575 2463 2199 1939 1742
2890.0 1593 1544 1615 1796 2031 2352 2787 3439 4381 5693
2930.0 7132 8303 9455 10000 8868 7422 5841 4371 3262 2557
2970.0 2176 2055 1916 1545 1246 935 620 396 241 137
3010.0 81 62 42 44 32 34 35 35 27 27
3050.0 27 27 28 19 27 36 40 35 40 46
3090.0 41 38 38 28 38 20 28 19 19 29
3130.0 29 30 23 28 28 39 28 29 37 29
3170.0 29 20 26 23 14 25 25 16 26 21
3210.0 27 28 28 28 20 19 28 12 14 21
3250.0 19 12 20 11 20 11 19 19 21 20
3290.0 13 9 11 0 15 11 10 21 19 19
3330.0 28 29 19 19 35 21 26 26 20 27
3370.0 30 20 30 39 31 20 27 33 39 42
3410.0 37 41 29 36 41 50 40 31 21 13
3450.0 28 14 21 22 27 30 23 28 23 32
3490.0 21 40 40 31 28 32 30 37 41 33
3530.0 15 14 24 3 28 15 11 16 17 21
3570.0 16 22 24 30 20 21 24 29 15 33
3610.0 39 45 74 108 177 218 293 370 381 374
3650.0 316 263 200 148 113 64 51 28 30 25
3690.0 15 23 28 36 33 27 30 28 35 30
3730.0 24 15 13 6 4 7 5 13 20 19
3770.0 21 36 44 37 39 32 30 38 32 33
3810.0 23 38 39 25 33 29 32 30 31 37
3850.0 38 34 20 26 24 40 38 34 39 25
3890.0 27 22 36 28 36 27 29 31 31 29
3930.0 38 49 35 25 27 39 33 33 32 32
##END=
