##TITLE=5-Pyrimidinecarboxylic acid, 2,4-bis(methylthio)-, ethyl ester
##JCAMP-DX=4.24
##DATA TYPE=INFRARED SPECTRUM
##ORIGIN=Sadtler Research Labs Under US-EPA Contract
##OWNER=NIST Standard Reference Data Program
##CAS REGISTRY NO=5909-25-1
##MOLFORM=C 9 H 12 N 2 O 2 S 2
##XUNITS=1/CM
##YUNITS=ABSORBANCE
##XFACTOR=1.0
##YFACTOR=0.000155414
##DELTAX=4.0
##FIRSTX=450.0
##LASTX=3966.0
##FIRSTY=0.017096
##MAXX=3966
##MINX=450
##MAXY=1.55414
##MINY=0
##NPOINTS=880
##XYDATA=(X++(Y..Y))
450.0 110 84 52 107 92 50 34 31 22 24
490.0 24 17 45 37 49 81 112 125 149 153
530.0 193 216 217 227 240 246 208 165 119 87
570.0 66 50 53 42 38 28 18 5 16 18
610.0 14 4 30 45 47 55 44 37 21 30
650.0 21 29 27 33 37 83 154 297 524 576
690.0 469 234 108 72 67 78 99 119 133 121
730.0 82 60 44 48 55 44 57 71 96 118
770.0 145 177 241 355 538 674 652 547 465 440
810.0 461 503 525 538 517 501 469 455 455 489
850.0 556 659 765 817 766 681 684 740 722 572
890.0 370 221 143 115 96 82 78 75 68 70
930.0 75 72 79 88 108 134 175 227 291 338
970.0 349 305 247 205 183 191 217 267 347 439
1010.0 509 515 471 416 367 338 340 364 416 519
1050.0 694 999 1522 2245 2931 3142 2721 2029 1491 1223
1090.0 1130 1123 1104 1004 848 702 619 580 589 635
1130.0 742 905 1144 1484 2049 3014 4368 5592 6033 5672
1170.0 5169 4907 4737 4398 3913 3765 4452 6046 8013 9320
1210.0 9022 7381 4991 2996 1797 1252 1104 1198 1474 1839
1250.0 2071 2030 1807 1719 2003 2752 3894 4874 4844 3744
1290.0 2473 1732 1522 1616 1858 2148 2328 2250 1909 1487
1330.0 1243 1230 1328 1365 1261 1205 1459 2229 3704 5344
1370.0 5776 5113 4596 4824 4681 3851 2734 1793 1272 988
1410.0 892 921 927 988 982 1013 1025 1075 1049 953
1450.0 810 710 648 679 764 866 1015 1279 1790 2597
1490.0 3775 5106 5489 4618 2890 1566 1049 855 825 963
1530.0 1175 1587 2248 3347 5260 7649 10000 9655 7795 4744
1570.0 2608 1501 957 682 572 490 467 412 360 278
1610.0 222 180 141 141 117 139 112 113 123 125
1650.0 100 106 125 130 133 139 143 191 203 251
1690.0 323 381 407 490 620 814 1037 1361 2055 3392
1730.0 5579 7025 7003 4760 2561 1345 885 678 563 467
1770.0 370 285 241 191 156 126 100 92 71 85
1810.0 76 75 77 71 66 60 66 70 59 42
1850.0 51 52 46 39 33 21 33 35 33 30
1890.0 22 23 21 22 20 20 21 27 29 41
1930.0 49 48 47 35 33 33 27 21 16 10
1970.0 7 10 8 9 8 7 7 16 22 27
2010.0 34 35 39 39 44 41 41 37 35 33
2050.0 30 30 31 32 30 34 34 30 25 22
2090.0 16 14 12 10 8 5 5 3 1 2
2130.0 2 0 1 2 2 3 2 3 3 5
2170.0 8 7 7 5 7 2 4 3 5 5
2210.0 7 7 6 10 12 14 13 16 16 18
2250.0 18 20 22 23 25 25 28 27 29 26
2290.0 28 29 29 34 36 40 38 41 46 48
2330.0 41 42 43 45 52 52 58 53 50 50
2370.0 51 55 61 58 54 52 49 50 48 47
2410.0 48 48 48 52 55 62 65 67 67 66
2450.0 65 63 62 57 55 54 54 55 55 55
2490.0 55 57 58 61 61 61 59 52 48 43
2530.0 39 34 27 23 24 23 23 18 14 16
2570.0 12 15 16 16 16 17 13 13 12 10
2610.0 11 14 15 14 14 15 13 15 16 15
2650.0 17 20 18 21 21 24 25 24 23 24
2690.0 25 24 26 24 24 24 22 20 21 20
2730.0 21 21 17 18 21 22 22 24 25 28
2770.0 28 29 30 30 30 32 36 39 44 48
2810.0 53 59 68 80 92 107 115 120 124 128
2850.0 134 138 144 154 160 162 168 181 204 222
2890.0 228 217 215 226 253 283 314 347 383 483
2930.0 704 1179 1660 1789 1415 868 559 429 411 457
2970.0 519 592 690 889 1085 1120 960 783 695 659
3010.0 621 542 445 345 268 220 194 186 183 181
3050.0 173 156 129 106 88 75 68 65 63 59
3090.0 57 58 63 65 71 75 75 72 64 51
3130.0 43 37 36 33 32 28 25 26 24 20
3170.0 20 21 18 17 18 20 16 20 20 17
3210.0 16 15 16 15 16 16 16 14 12 11
3250.0 9 7 7 8 8 11 12 10 10 8
3290.0 15 11 14 9 8 9 10 8 7 11
3330.0 6 6 6 9 10 7 10 9 8 10
3370.0 7 9 10 10 7 10 11 9 12 13
3410.0 10 12 11 14 15 21 22 30 36 41
3450.0 45 41 34 26 17 16 15 11 8 6
3490.0 9 9 9 10 8 5 5 7 5 8
3530.0 7 7 8 8 6 12 16 20 14 12
3570.0 13 14 13 11 12 7 8 10 10 11
3610.0 7 7 4 7 5 6 10 9 8 7
3650.0 11 12 7 10 8 9 14 6 10 12
3690.0 12 13 7 10 12 7 12 9 12 11
3730.0 14 14 11 5 12 8 15 10 4 9
3770.0 9 14 8 11 13 12 13 12 11 6
3810.0 15 11 11 9 12 9 7 13 18 16
3850.0 5 5 8 9 8 2 8 12 8 10
3890.0 8 7 13 20 15 9 9 13 12 11
3930.0 7 8 8 15 23 14 23 20 17 18
##END=
