##TITLE=Phenol, 3-bromo-
##JCAMP-DX=4.24
##DATA TYPE=INFRARED SPECTRUM
##ORIGIN=Sadtler Research Labs Under US-EPA Contract
##OWNER=NIST Standard Reference Data Program
##CAS REGISTRY NO=591-20-8
##MOLFORM=C 6 H 5 Br O
##XUNITS=1/CM
##YUNITS=ABSORBANCE
##XFACTOR=1.0
##YFACTOR=0.000062131
##DELTAX=4.0
##FIRSTX=450.0
##LASTX=3966.0
##FIRSTY=0.010624
##MAXX=3966
##MINX=450
##MAXY=0.62131
##MINY=0
##NPOINTS=880
##XYDATA=(X++(Y..Y))
450.0 171 188 196 201 181 189 210 195 200 186
490.0 211 202 165 212 244 234 266 313 357 399
530.0 331 307 299 230 181 145 50 103 11 43
570.0 104 143 164 220 178 352 354 277 198 164
610.0 118 133 81 71 119 108 75 99 136 153
650.0 258 473 694 1078 1456 1751 2045 1965 1303 974
690.0 715 399 223 125 97 86 94 108 116 134
730.0 156 188 257 393 598 962 1403 1888 2545 2826
770.0 2494 2595 1643 1131 733 380 204 150 123 169
810.0 146 203 266 353 481 609 765 1023 1121 1379
850.0 2215 3760 5515 6406 6660 6046 4132 2781 1953 922
890.0 361 183 157 142 134 126 131 128 130 134
930.0 134 100 84 115 101 100 111 127 127 130
970.0 147 138 159 268 440 851 1213 1170 1113 776
1010.0 241 109 86 98 124 131 137 146 200 281
1050.0 463 794 1211 1397 1475 1436 1192 1287 1336 1213
1090.0 1027 550 284 226 226 242 284 328 371 407
1130.0 482 637 957 1558 2318 2949 3413 3450 3837 3970
1170.0 4598 5571 5918 6369 5700 4873 3903 2553 1621 1073
1210.0 748 594 552 619 780 1127 1600 2252 2927 3225
1250.0 3053 2942 2165 1378 972 848 1001 1394 2030 2930
1290.0 3745 3685 3502 2980 1773 1103 807 595 430 321
1330.0 294 266 242 221 155 109 115 102 156 116
1370.0 130 162 152 194 261 371 460 497 476 491
1410.0 469 604 890 1141 1445 1758 1893 2155 2187 2051
1450.0 1906 1642 1696 1540 2189 3541 4649 5167 5552 4090
1490.0 2911 1672 839 553 546 580 585 705 760 677
1530.0 536 497 393 449 414 389 390 509 635 844
1570.0 1445 2485 4254 6154 8015 9579 10000 9481 8095 6167
1610.0 4635 2689 1483 889 527 314 207 195 102 139
1650.0 106 251 100 125 116 178 160 184 186 214
1690.0 162 126 152 216 151 151 196 281 230 220
1730.0 224 272 174 161 156 183 149 142 129 87
1770.0 127 129 58 68 77 55 93 47 96 72
1810.0 87 98 101 82 131 118 107 107 100 127
1850.0 84 53 49 58 54 62 29 26 30 19
1890.0 41 51 58 70 81 112 120 151 130 109
1930.0 89 67 32 26 17 14 4 18 19 15
1970.0 17 4 20 17 14 13 20 19 17 27
2010.0 25 43 55 56 50 60 64 65 61 73
2050.0 44 44 55 50 55 35 33 27 25 27
2090.0 21 42 65 82 103 110 107 94 91 67
2130.0 43 26 33 32 27 20 28 34 24 20
2170.0 17 19 10 18 25 17 10 16 16 17
2210.0 17 12 16 17 23 22 32 26 32 33
2250.0 33 34 33 30 22 24 28 18 28 26
2290.0 32 24 24 13 30 21 31 17 14 15
2330.0 10 11 13 6 13 4 4 4 4 71
2370.0 148 184 144 108 88 71 70 76 78 85
2410.0 101 111 118 120 124 140 138 149 146 146
2450.0 143 135 120 120 111 125 121 110 124 113
2490.0 124 109 106 96 82 65 80 74 67 67
2530.0 63 82 95 93 98 94 90 81 67 59
2570.0 59 58 60 62 71 70 74 85 82 69
2610.0 54 69 67 61 61 61 66 70 61 68
2650.0 73 57 51 67 48 37 30 30 56 55
2690.0 56 77 69 86 80 84 77 97 87 95
2730.0 96 111 102 109 103 93 88 96 91 89
2770.0 75 67 66 73 74 57 50 51 55 47
2810.0 59 62 59 57 78 58 67 67 75 75
2850.0 70 60 82 66 73 90 75 75 86 78
2890.0 92 76 67 78 73 86 70 77 82 83
2930.0 98 97 95 86 102 102 95 86 90 95
2970.0 101 115 86 96 85 105 80 79 80 120
3010.0 147 179 258 339 372 408 431 433 422 462
3050.0 484 495 511 527 524 511 529 551 597 575
3090.0 524 488 391 338 221 178 136 69 65 48
3130.0 62 61 34 44 45 36 37 31 29 46
3170.0 27 29 47 33 47 37 59 56 44 48
3210.0 55 47 55 49 49 41 18 32 39 36
3250.0 38 40 21 30 39 32 24 41 53 25
3290.0 45 32 47 43 51 44 49 51 58 65
3330.0 75 88 114 108 114 95 102 102 114 91
3370.0 91 77 83 83 60 57 54 86 84 80
3410.0 70 55 50 56 85 52 59 73 72 67
3450.0 46 93 65 82 79 63 84 49 76 88
3490.0 51 58 54 48 84 63 44 61 92 49
3530.0 94 68 74 66 87 69 93 51 102 58
3570.0 102 104 66 105 81 106 133 88 117 148
3610.0 162 173 205 226 330 542 860 1417 2287 3519
3650.0 4640 4551 4269 3354 1754 940 526 330 208 165
3690.0 140 184 145 131 119 116 134 132 104 111
3730.0 135 70 97 105 182 103 176 123 126 110
3770.0 105 124 122 112 89 98 100 68 55 95
3810.0 93 122 45 79 69 85 50 59 39 96
3850.0 83 35 103 122 84 90 76 109 58 86
3890.0 68 110 65 63 46 104 109 93 84 81
3930.0 86 57 82 54 27 0 41 43 57 75
##END=
