##TITLE=Pyridine, 3,5-dimethyl-
##JCAMP-DX=4.24
##DATA TYPE=INFRARED SPECTRUM
##ORIGIN=Sadtler Research Labs Under US-EPA Contract
##OWNER=NIST Standard Reference Data Program
##CAS REGISTRY NO=591-22-0
##MOLFORM=C 7 H 9 N
##XUNITS=1/CM
##YUNITS=ABSORBANCE
##XFACTOR=1.0
##YFACTOR=0.000055423
##DELTAX=4.0
##FIRSTX=450.0
##LASTX=3966.0
##FIRSTY=0.013191
##MAXX=3966
##MINX=450
##MAXY=0.55423
##MINY=0
##NPOINTS=880
##XYDATA=(X++(Y..Y))
450.0 238 336 292 226 228 223 254 174 265 214
490.0 322 229 347 33 155 213 207 364 411 466
530.0 457 556 435 508 355 127 132 39 130 189
570.0 113 200 170 165 60 368 288 226 244 127
610.0 222 151 243 202 247 209 243 192 218 177
650.0 211 146 169 165 163 335 294 406 536 905
690.0 1357 2008 2945 3967 5214 6199 3656 3116 2309 1261
730.0 648 436 368 342 317 269 272 257 234 196
770.0 245 182 198 192 377 243 264 235 255 290
810.0 301 305 286 304 352 518 697 1057 1376 1659
850.0 1829 2887 3661 1683 1535 1364 968 598 344 240
890.0 218 226 258 233 268 255 302 267 290 262
930.0 290 271 296 278 288 273 286 305 314 344
970.0 326 402 491 591 626 757 795 877 825 827
1010.0 769 788 932 1245 1655 1730 1530 1954 1964 1575
1050.0 1322 1081 975 852 769 663 589 484 460 388
1090.0 376 357 349 332 343 368 414 502 575 734
1130.0 829 868 838 931 949 1022 1168 1569 2100 2320
1170.0 1947 2051 1937 1255 779 510 382 303 321 347
1210.0 456 568 757 869 940 940 884 784 519 326
1250.0 261 256 239 259 239 260 235 265 244 252
1290.0 238 254 255 291 369 573 728 711 803 711
1330.0 729 553 429 409 452 473 520 555 656 674
1370.0 768 889 1066 1157 1179 1183 1151 947 877 1080
1410.0 1486 2309 3231 4107 4648 4951 4937 4597 3919 3290
1450.0 2939 2791 2724 2495 2395 2263 2186 2016 1945 1778
1490.0 1704 1570 1549 1432 1404 1280 1187 1115 1095 1067
1530.0 1019 1034 967 950 865 841 859 975 1183 1419
1570.0 1652 1804 1851 1877 1946 1794 1607 1487 1355 1242
1610.0 1113 970 693 422 313 276 226 212 172 164
1650.0 111 198 128 110 104 125 87 116 74 113
1690.0 88 91 93 150 86 120 86 135 84 109
1730.0 87 140 104 142 119 156 203 245 315 353
1770.0 379 366 401 383 353 255 251 179 184 130
1810.0 116 100 129 110 130 132 166 230 278 364
1850.0 381 414 390 389 306 281 219 214 178 172
1890.0 152 129 124 133 135 123 122 120 110 95
1930.0 88 61 71 50 75 57 79 71 98 92
1970.0 104 106 98 104 100 94 83 86 67 85
2010.0 69 74 72 73 57 77 55 59 36 30
2050.0 69 60 44 27 24 0 0 1 17 18
2090.0 55 60 76 67 72 48 48 37 39 43
2130.0 40 58 50 60 48 65 61 68 55 65
2170.0 52 64 48 55 46 46 43 31 43 38
2210.0 51 39 56 44 62 46 56 46 65 65
2250.0 68 63 71 63 57 75 69 69 52 69
2290.0 51 75 61 90 67 83 68 68 68 91
2330.0 79 82 105 111 170 64 42 52 200 208
2370.0 275 256 272 215 193 162 149 140 139 131
2410.0 124 139 134 142 134 162 155 170 160 185
2450.0 171 179 171 189 170 174 169 156 167 154
2490.0 164 145 158 140 139 121 131 112 134 114
2530.0 126 131 141 148 138 153 155 163 160 171
2570.0 145 144 146 164 153 179 166 185 179 199
2610.0 210 220 221 213 219 195 208 177 183 152
2650.0 170 181 189 154 153 119 108 100 102 119
2690.0 132 159 163 193 181 206 200 240 219 282
2730.0 275 350 395 453 476 518 502 473 364 303
2770.0 263 223 237 218 227 218 255 266 298 297
2810.0 328 336 381 397 436 491 515 590 658 769
2850.0 900 1136 1433 1859 2345 2860 3213 3436 3486 3431
2890.0 3185 2925 2804 2779 2879 3095 3479 4071 4896 5686
2930.0 6240 6459 6502 6156 5601 4809 4139 3673 3526 3443
2970.0 3320 3392 3466 3611 3733 3892 3901 3951 4192 4845
3010.0 5800 7072 8439 9437 10000 9997 9180 7730 5939 4237
3050.0 3009 2213 1709 1334 1109 964 908 802 798 727
3090.0 677 582 521 453 410 357 351 317 262 251
3130.0 220 219 196 221 189 212 182 209 192 211
3170.0 181 205 196 190 177 166 181 158 183 144
3210.0 174 120 158 131 132 93 120 104 114 112
3250.0 123 101 109 137 124 128 102 145 105 146
3290.0 104 132 105 125 110 127 113 128 97 114
3330.0 109 83 98 88 104 106 147 98 138 133
3370.0 140 108 138 117 133 113 104 114 102 122
3410.0 117 129 90 135 116 143 93 108 85 118
3450.0 84 90 79 118 85 94 70 102 108 79
3490.0 106 60 107 73 84 65 81 42 97 53
3530.0 82 65 61 65 73 73 60 82 75 109
3570.0 96 96 67 109 62 122 81 77 70 79
3610.0 137 110 96 136 115 152 155 133 163 126
3650.0 191 135 165 127 153 173 155 196 178 161
3690.0 160 163 143 158 154 187 174 187 157 211
3730.0 199 209 200 211 250 202 238 187 212 178
3770.0 199 185 193 154 175 156 183 162 189 175
3810.0 191 183 176 182 180 203 198 195 165 200
3850.0 189 216 202 191 161 191 157 183 170 188
3890.0 181 193 168 182 201 193 180 179 190 184
3930.0 196 180 194 190 201 167 153 128 126 139
##END=
