##TITLE=Cyclohexanol, 3-methyl-
##JCAMP-DX=4.24
##DATA TYPE=INFRARED SPECTRUM
##ORIGIN=Sadtler Research Labs Under US-EPA Contract
##OWNER=NIST Standard Reference Data Program
##CAS REGISTRY NO=591-23-1
##MOLFORM=C 7 H 14 O
##XUNITS=1/CM
##YUNITS=ABSORBANCE
##XFACTOR=1.0
##YFACTOR=0.000072290
##DELTAX=4.0
##FIRSTX=450.0
##LASTX=3966.0
##FIRSTY=0.005855
##MAXX=3966
##MINX=450
##MAXY=0.7229
##MINY=0
##NPOINTS=880
##XYDATA=(X++(Y..Y))
450.0 81 95 110 137 149 158 183 194 204 183
490.0 222 211 160 69 88 39 64 70 53 75
530.0 85 53 15 112 96 82 89 90 47 25
570.0 53 27 34 31 59 84 4 10 17 36
610.0 36 18 38 35 53 40 9 22 29 32
650.0 23 39 39 51 34 52 67 88 86 70
690.0 64 56 30 17 36 10 22 11 10 14
730.0 21 60 15 8 14 9 13 17 38 21
770.0 15 30 24 24 23 69 45 62 77 93
810.0 93 113 110 123 150 159 194 216 200 201
850.0 191 166 151 156 171 178 179 181 186 173
890.0 173 178 152 151 138 148 135 153 190 271
930.0 382 482 561 588 633 545 453 406 379 343
970.0 325 358 394 460 543 627 739 857 895 1013
1010.0 1258 1504 1648 1707 1708 1740 1697 1701 1807 1816
1050.0 1792 1644 1419 978 729 683 719 798 920 1055
1090.0 1164 1232 1222 1131 997 826 664 553 520 538
1130.0 539 550 551 531 487 403 353 325 297 277
1170.0 269 280 290 307 345 379 425 463 501 536
1210.0 564 592 613 663 700 739 779 803 779 750
1250.0 730 702 680 659 645 636 595 565 529 477
1290.0 441 406 376 345 329 304 306 309 319 341
1330.0 369 409 449 511 589 649 739 829 899 972
1370.0 1023 1034 1029 994 910 820 708 558 443 354
1410.0 280 235 209 222 248 308 396 556 740 897
1450.0 1068 1271 1244 1181 1101 896 669 487 340 223
1490.0 138 95 76 65 58 40 46 44 40 35
1530.0 28 31 27 32 23 24 30 35 35 26
1570.0 34 25 35 21 30 21 30 23 24 29
1610.0 21 21 30 25 20 30 23 18 22 27
1650.0 20 39 11 24 20 23 17 18 21 29
1690.0 19 20 25 26 17 14 17 23 12 20
1730.0 20 21 20 21 18 21 19 13 14 16
1770.0 17 16 15 14 15 14 19 14 12 16
1810.0 17 16 19 15 16 14 16 18 15 13
1850.0 16 19 18 19 16 20 18 19 19 18
1890.0 17 17 19 19 19 18 17 17 16 19
1930.0 20 20 20 21 22 20 20 19 19 19
1970.0 20 20 20 20 20 18 19 20 20 19
2010.0 21 19 20 19 20 20 21 21 19 21
2050.0 21 21 21 21 19 20 20 20 21 21
2090.0 21 21 21 21 21 21 21 21 21 21
2130.0 21 22 22 21 21 21 21 21 21 21
2170.0 21 21 21 21 21 22 22 22 22 22
2210.0 22 22 22 22 22 22 27 27 20 28
2250.0 19 19 20 18 18 18 17 15 13 10
2290.0 5 3 4 6 6 1 11 14 16 27
2330.0 31 22 35 17 18 7 32 25 27 18
2370.0 6 0 0 2 5 17 22 28 29 35
2410.0 29 28 37 30 33 31 27 27 22 22
2450.0 24 23 22 29 29 29 29 29 29 29
2490.0 32 25 28 35 29 35 30 30 31 29
2530.0 22 22 22 22 22 23 23 23 23 23
2570.0 30 30 36 38 44 57 56 64 68 70
2610.0 75 76 71 84 77 83 85 98 107 113
2650.0 129 126 139 130 130 124 137 123 123 118
2690.0 118 115 107 112 103 102 105 110 118 118
2730.0 125 131 138 131 130 125 120 121 122 129
2770.0 136 145 151 158 171 180 195 209 215 238
2810.0 243 249 272 302 342 427 579 823 1183 1651
2850.0 2126 2551 2998 3231 3427 3586 3705 3523 3381 3243
2890.0 3139 3082 3135 3349 3796 4356 5026 5894 7019 8134
2930.0 9061 10000 9668 9148 8062 7138 6350 5924 5356 3737
2970.0 3123 2375 1449 751 378 212 136 98 84 65
3010.0 63 58 56 48 54 50 45 41 44 38
3050.0 44 43 50 59 52 59 59 64 73 63
3090.0 68 58 56 51 50 44 58 44 51 42
3130.0 30 27 35 33 26 23 37 44 45 51
3170.0 45 38 53 56 52 48 41 41 35 32
3210.0 31 24 24 24 24 24 23 26 17 21
3250.0 24 24 19 24 25 17 18 24 24 20
3290.0 19 24 21 17 13 17 15 10 12 4
3330.0 18 18 15 24 26 14 18 22 24 19
3370.0 17 25 31 24 11 18 25 22 25 25
3410.0 25 25 25 21 27 31 31 24 24 31
3450.0 25 24 24 28 33 24 25 23 24 24
3490.0 25 18 19 25 25 23 17 20 25 18
3530.0 13 19 25 25 6 17 10 12 11 12
3570.0 5 13 16 10 25 25 25 18 24 19
3610.0 35 35 49 55 85 140 193 289 418 538
3650.0 575 609 587 481 362 242 147 100 59 60
3690.0 34 35 29 30 3 25 17 24 25 15
3730.0 28 28 28 27 27 25 26 26 33 28
3770.0 22 15 11 28 48 48 49 37 45 52
3810.0 54 40 50 52 39 52 49 54 36 39
3850.0 45 56 44 39 41 42 36 45 54 63
3890.0 52 59 58 48 47 40 36 30 19 20
3930.0 16 17 26 36 39 36 42 44 39 29
##END=
