##TITLE=4-Pentenoic acid
##JCAMP-DX=4.24
##DATA TYPE=INFRARED SPECTRUM
##ORIGIN=Sadtler Research Labs Under US-EPA Contract
##OWNER=NIST Standard Reference Data Program
##CAS REGISTRY NO=591-80-0
##MOLFORM=C 5 H 8 O 2
##XUNITS=1/CM
##YUNITS=ABSORBANCE
##XFACTOR=1.0
##YFACTOR=0.000158649
##DELTAX=4.0
##FIRSTX=450.0
##LASTX=3966.0
##FIRSTY=0.037758
##MAXX=3966
##MINX=450
##MAXY=1.58649
##MINY=0
##NPOINTS=880
##XYDATA=(X++(Y..Y))
450.0 238 100 206 126 212 164 282 175 326 285
490.0 329 376 461 534 532 640 598 672 624 711
530.0 646 688 757 825 888 918 1030 1012 1095 1130
570.0 1195 1262 1358 1444 1442 1659 1666 1683 1689 1729
610.0 1721 1752 1761 1844 1943 2073 2072 2063 1995 1801
650.0 1552 1225 1033 874 773 638 577 552 473 447
690.0 408 391 341 312 285 256 206 231 263 214
730.0 189 139 122 104 79 67 49 66 44 51
770.0 50 72 61 80 107 112 134 129 147 115
810.0 109 79 54 43 37 51 56 87 103 128
850.0 120 135 138 134 144 155 195 222 289 320
890.0 379 451 546 681 843 1085 1287 1397 1447 1451
930.0 1296 1124 921 781 694 622 598 549 543 545
970.0 579 618 682 754 804 861 852 841 786 704
1010.0 613 557 523 495 488 475 491 494 533 570
1050.0 635 711 815 946 1086 1260 1446 1677 1940 2286
1090.0 2623 2975 3392 3807 4205 4445 4815 5133 5352 5333
1130.0 5331 5247 4957 4648 4342 4070 3715 3355 3001 2704
1170.0 2417 2147 1880 1641 1476 1342 1261 1200 1166 1118
1210.0 1081 1039 995 955 914 880 838 823 797 772
1250.0 748 737 733 721 728 730 740 733 728 709
1290.0 695 673 657 634 610 591 553 532 516 521
1330.0 525 550 579 612 672 734 805 878 992 1112
1370.0 1254 1397 1513 1551 1503 1412 1237 1021 839 738
1410.0 692 699 740 773 796 812 841 852 830 770
1450.0 704 623 531 425 317 266 202 161 115 97
1490.0 60 52 39 24 24 20 8 6 15 6
1530.0 10 0 13 7 12 13 21 22 33 15
1570.0 21 14 32 14 29 26 35 37 48 56
1610.0 56 83 90 123 152 236 335 466 527 557
1650.0 513 500 334 186 142 115 103 113 105 132
1690.0 133 157 180 229 256 328 401 526 682 881
1730.0 1081 1254 1432 1618 1950 2368 2982 3710 4802 6012
1770.0 7470 8938 9680 10000 9619 9314 7641 6175 4879 3884
1810.0 3112 2571 2142 1802 1424 1020 756 562 454 379
1850.0 318 265 218 179 151 131 114 106 94 91
1890.0 85 81 79 77 74 70 67 65 65 63
1930.0 64 63 61 62 59 60 57 59 60 61
1970.0 64 63 64 65 63 59 59 59 58 58
2010.0 58 57 53 57 55 57 53 52 52 52
2050.0 49 49 53 60 60 53 51 46 41 36
2090.0 36 36 39 45 44 48 45 45 41 39
2130.0 41 39 40 39 40 38 41 40 41 39
2170.0 38 42 40 44 44 49 46 51 52 53
2210.0 52 55 59 57 68 68 75 75 77 73
2250.0 68 70 63 63 59 60 58 57 56 55
2290.0 54 51 53 45 47 41 44 42 40 43
2330.0 42 54 51 63 62 53 33 24 57 90
2370.0 94 87 79 67 63 52 55 51 50 51
2410.0 51 53 49 54 52 55 53 56 54 54
2450.0 57 54 56 56 59 55 60 56 57 57
2490.0 58 59 57 60 60 61 57 62 60 58
2530.0 57 53 55 52 57 54 56 56 57 58
2570.0 55 62 57 63 59 63 57 64 63 62
2610.0 66 59 65 60 58 58 54 52 63 64
2650.0 59 58 44 46 38 35 39 51 54 54
2690.0 56 52 57 54 54 53 52 56 57 57
2730.0 54 59 56 55 56 59 61 62 63 67
2770.0 68 64 68 67 66 66 63 66 68 67
2810.0 72 81 84 92 101 118 133 147 174 193
2850.0 224 240 265 282 296 310 317 322 322 328
2890.0 331 338 360 394 444 524 599 704 813 929
2930.0 1023 1083 1123 1124 1112 1076 1033 969 915 898
2970.0 892 909 951 1012 1047 1038 1022 974 907 834
3010.0 761 695 619 544 464 391 341 309 272 274
3050.0 275 287 293 326 364 418 482 569 719 836
3090.0 880 846 798 669 479 341 265 212 186 167
3130.0 146 145 144 143 138 128 132 130 126 121
3170.0 122 117 121 115 115 106 116 114 117 108
3210.0 102 105 109 108 103 106 98 94 92 91
3250.0 96 87 83 80 85 88 78 72 61 64
3290.0 61 57 53 51 58 52 64 64 66 65
3330.0 65 65 64 58 54 53 54 55 56 59
3370.0 63 60 58 51 61 60 56 55 51 41
3410.0 57 50 42 41 36 49 51 51 43 54
3450.0 34 48 43 36 39 47 45 54 53 51
3490.0 66 58 62 80 73 84 97 102 98 113
3530.0 137 165 164 191 214 268 364 513 899 1699
3570.0 2779 3250 3240 3149 2913 1821 875 451 297 219
3610.0 180 126 114 100 93 90 86 89 83 81
3650.0 83 76 93 78 84 72 81 79 73 84
3690.0 74 80 70 60 70 96 83 83 80 89
3730.0 84 89 92 95 90 90 81 82 78 83
3770.0 78 85 85 86 79 84 84 81 81 78
3810.0 73 66 65 71 64 86 88 93 76 74
3850.0 92 97 119 116 136 126 141 113 92 89
3890.0 76 86 58 73 54 80 61 41 33 45
3930.0 43 25 44 36 47 14 39 39 30 9
##END=
