##TITLE=Cyclohexanone, 3-methyl-
##JCAMP-DX=4.24
##DATA TYPE=INFRARED SPECTRUM
##ORIGIN=Sadtler Research Labs Under US-EPA Contract
##OWNER=NIST Standard Reference Data Program
##CAS REGISTRY NO=591-24-2
##MOLFORM=C 7 H 12 O
##XUNITS=1/CM
##YUNITS=ABSORBANCE
##XFACTOR=1.0
##YFACTOR=0.000081201
##DELTAX=4.0
##FIRSTX=450.0
##LASTX=3966.0
##FIRSTY=0.006577
##MAXX=3966
##MINX=450
##MAXY=0.81201
##MINY=0
##NPOINTS=880
##XYDATA=(X++(Y..Y))
450.0 81 87 159 140 155 163 165 214 321 346
490.0 357 349 463 528 534 529 533 460 344 221
530.0 77 80 33 56 45 44 5 11 78 11
570.0 27 56 44 32 31 33 101 82 87 84
610.0 12 75 29 61 121 22 106 91 87 60
650.0 100 52 55 80 59 94 54 61 119 88
690.0 119 62 62 88 78 96 107 144 99 104
730.0 146 198 186 197 279 247 295 232 152 154
770.0 125 114 103 126 120 108 120 100 142 124
810.0 162 214 202 141 206 134 155 156 141 128
850.0 181 207 261 283 299 323 331 351 309 289
890.0 253 202 194 135 119 126 120 99 104 98
930.0 141 186 195 228 276 291 337 358 369 356
970.0 315 277 227 195 179 139 126 124 130 149
1010.0 149 156 186 186 220 233 256 311 368 498
1050.0 573 594 618 605 605 514 400 358 327 296
1090.0 306 322 420 460 576 653 740 657 613 521
1130.0 470 360 281 235 209 203 188 209 195 223
1170.0 244 283 305 313 352 413 505 601 759 994
1210.0 1365 1727 1943 1911 1886 1744 1350 921 636 474
1250.0 425 422 481 635 805 915 910 911 896 717
1290.0 512 436 443 495 606 720 823 841 913 982
1330.0 975 971 1010 1008 1011 969 882 757 631 594
1370.0 577 577 559 590 582 575 476 374 343 358
1410.0 439 595 750 889 998 1169 1283 1111 1158 1168
1450.0 1289 1385 1215 1341 1180 1019 795 644 475 354
1490.0 239 216 138 177 75 102 139 116 56 106
1530.0 131 96 105 15 102 147 126 45 73 147
1570.0 122 149 104 155 159 159 158 166 170 185
1610.0 180 192 125 182 185 195 186 160 225 181
1650.0 203 79 242 254 260 226 280 309 381 382
1690.0 557 684 788 989 1420 2044 3004 4366 6137 7717
1730.0 9174 10000 9987 8870 7280 5437 3499 2049 1248 900
1770.0 659 496 452 391 357 329 274 297 278 277
1810.0 263 251 228 206 168 138 144 137 128 94
1850.0 121 130 119 118 117 100 130 125 126 121
1890.0 107 106 100 102 92 88 86 80 86 85
1930.0 85 84 86 86 86 83 88 82 80 80
1970.0 79 78 78 78 78 74 73 72 70 72
2010.0 69 74 73 72 73 72 71 70 70 70
2050.0 69 68 68 66 66 65 65 64 63 64
2090.0 63 66 66 62 60 61 59 60 57 59
2130.0 57 51 57 56 56 55 55 57 53 56
2170.0 54 52 57 57 50 49 55 49 48 50
2210.0 46 46 47 40 37 39 43 43 43 42
2250.0 41 42 41 33 40 40 38 39 37 32
2290.0 31 37 36 29 28 26 27 27 29 24
2330.0 27 20 16 22 30 22 5 26 27 22
2370.0 11 14 22 20 26 23 23 16 17 16
2410.0 21 16 13 20 19 19 15 12 7 18
2450.0 10 15 15 15 7 8 0 5 3 10
2490.0 12 13 14 7 14 8 8 9 10 11
2530.0 9 14 19 14 14 17 17 18 14 19
2570.0 26 21 20 22 23 27 31 32 27 29
2610.0 30 43 43 42 44 50 70 57 71 77
2650.0 84 80 81 80 79 84 80 73 80 68
2690.0 70 74 60 57 54 54 57 58 71 78
2730.0 78 79 93 97 98 96 93 94 88 86
2770.0 82 102 101 113 120 128 144 159 157 170
2810.0 188 211 242 295 358 433 535 617 770 945
2850.0 1124 1285 1429 1530 1733 2002 2347 2662 2849 3072
2890.0 3114 2983 2868 2790 2970 3011 3227 3617 4101 4598
2930.0 5177 5818 6832 6410 6481 6126 6020 6366 7018 6805
2970.0 5845 5354 4411 3062 1963 1067 572 357 262 231
3010.0 201 176 169 142 127 119 114 114 111 108
3050.0 98 115 110 98 103 100 80 82 77 86
3090.0 81 82 72 72 72 72 72 68 59 72
3130.0 54 72 77 61 64 73 71 77 78 84
3170.0 78 85 87 93 87 84 88 80 81 76
3210.0 60 58 63 58 47 45 51 40 40 36
3250.0 50 52 52 43 55 56 57 45 45 60
3290.0 50 45 46 45 48 44 39 42 39 50
3330.0 63 47 56 54 43 55 48 65 65 47
3370.0 60 68 61 61 69 56 63 51 69 75
3410.0 79 52 77 94 109 120 121 152 172 170
3450.0 192 176 175 168 135 113 87 94 66 54
3490.0 73 68 41 50 53 32 48 46 53 43
3530.0 44 42 40 53 42 47 47 57 52 44
3570.0 34 52 50 39 42 32 34 35 41 40
3610.0 21 21 34 36 45 5 44 43 61 58
3650.0 4 40 47 70 59 20 20 14 48 54
3690.0 19 65 69 51 62 43 43 81 63 72
3730.0 72 60 54 57 22 35 63 93 99 110
3770.0 100 94 104 111 129 123 114 86 66 108
3810.0 114 92 92 111 116 113 107 96 120 124
3850.0 127 63 110 117 102 103 121 128 130 134
3890.0 148 144 135 125 125 146 148 150 156 138
3930.0 132 152 152 147 150 166 7 20 20 20
##END=
