##TITLE=Acetic acid, 2-propenyl ester
##JCAMP-DX=4.24
##DATA TYPE=INFRARED SPECTRUM
##ORIGIN=Sadtler Research Labs Under US-EPA Contract
##OWNER=NIST Standard Reference Data Program
##CAS REGISTRY NO=591-87-7
##MOLFORM=C 5 H 8 O 2
##XUNITS=1/CM
##YUNITS=ABSORBANCE
##XFACTOR=1.0
##YFACTOR=0.000099997
##DELTAX=4.0
##FIRSTX=450.0
##LASTX=3966.0
##FIRSTY=0.011700
##MAXX=3966
##MINX=450
##MAXY=0.99997
##MINY=0
##NPOINTS=880
##XYDATA=(X++(Y..Y))
450.0 117 110 27 89 84 57 112 29 77 66
490.0 130 0 104 88 99 133 21 117 81 161
530.0 122 158 172 266 180 151 180 218 255 167
570.0 198 194 231 250 235 297 288 320 373 451
610.0 410 496 417 421 396 330 317 247 253 188
650.0 203 140 143 129 155 130 106 156 101 131
690.0 97 144 97 116 99 110 89 80 121 69
730.0 94 91 104 89 86 83 86 94 91 106
770.0 70 99 84 102 83 102 115 131 132 109
810.0 159 167 203 198 248 253 268 285 278 287
850.0 263 269 251 259 241 260 236 257 287 312
890.0 340 341 393 430 475 547 658 807 988 1131
930.0 1126 1111 1038 897 707 597 523 494 512 537
970.0 618 695 832 935 1037 1083 1099 1098 1157 1276
1010.0 1468 1731 2011 2319 2549 2658 2602 2422 2153 1823
1050.0 1498 1198 996 866 814 756 746 740 728 735
1090.0 715 706 660 626 563 511 433 372 322 273
1130.0 249 218 208 196 201 200 206 216 238 259
1170.0 265 302 334 399 471 595 744 990 1339 1856
1210.0 2670 3833 5431 7092 8620 9528 10000 9616 8397 6519
1250.0 4884 3630 2560 1899 1613 1478 1338 1196 1078 959
1290.0 792 625 526 430 364 287 252 212 207 210
1330.0 203 207 216 260 306 403 538 738 1004 1308
1370.0 1588 1806 1873 1818 1633 1300 983 732 571 492
1410.0 436 428 405 449 430 453 453 495 491 501
1450.0 523 513 542 481 423 394 333 298 258 251
1490.0 206 229 212 193 217 215 168 203 208 205
1530.0 178 176 192 183 161 144 162 167 199 135
1570.0 145 138 153 121 123 122 112 131 114 127
1610.0 111 152 142 151 139 168 186 236 238 294
1650.0 277 363 281 263 227 210 198 203 170 228
1690.0 182 199 243 269 259 285 331 387 448 540
1730.0 699 940 1298 1726 2426 3260 4346 5168 5538 5566
1770.0 5713 5377 4274 3174 2256 1581 1073 733 533 407
1810.0 345 299 241 233 213 202 186 177 181 183
1850.0 188 187 192 186 195 184 175 165 153 130
1890.0 133 125 115 117 114 108 97 113 104 108
1930.0 110 101 99 91 91 88 94 96 95 90
1970.0 95 95 85 81 76 77 65 63 63 61
2010.0 57 50 53 49 46 39 42 25 34 53
2050.0 65 78 93 101 94 92 82 84 78 89
2090.0 87 93 95 101 100 95 96 90 95 86
2130.0 89 84 75 76 74 68 62 64 63 61
2170.0 59 69 67 60 63 64 68 64 60 51
2210.0 64 65 59 64 51 57 54 69 52 57
2250.0 56 54 54 53 55 48 51 45 53 57
2290.0 59 53 58 55 51 56 58 59 49 43
2330.0 33 31 8 24 7 37 36 36 53 23
2370.0 7 12 7 27 30 45 45 50 43 45
2410.0 45 43 49 42 47 41 46 42 53 56
2450.0 52 59 54 44 50 49 46 39 40 38
2490.0 30 39 32 30 19 22 21 16 18 21
2530.0 16 14 13 23 17 17 8 7 12 16
2570.0 25 21 25 29 27 26 38 36 33 36
2610.0 37 49 41 43 36 47 36 55 38 57
2650.0 66 77 82 88 63 51 45 46 42 49
2690.0 59 58 54 44 46 22 21 24 10 11
2730.0 19 28 19 14 18 19 22 15 19 10
2770.0 22 20 23 22 16 28 40 32 33 28
2810.0 44 38 32 33 52 50 52 59 67 63
2850.0 64 75 74 98 103 118 132 153 163 179
2890.0 200 196 196 189 183 189 198 199 223 249
2930.0 286 343 414 469 538 583 640 623 594 556
2970.0 497 444 407 380 383 388 395 390 379 363
3010.0 344 317 331 322 316 307 287 281 243 216
3050.0 191 189 203 197 205 213 234 258 277 322
3090.0 382 411 397 388 356 295 232 176 126 95
3130.0 80 83 60 56 51 55 41 45 55 39
3170.0 46 48 37 45 41 53 48 49 47 45
3210.0 46 34 46 41 38 35 42 33 33 35
3250.0 49 43 29 34 30 49 33 34 38 30
3290.0 30 16 28 28 26 31 37 23 27 12
3330.0 17 10 17 17 16 16 16 9 8 29
3370.0 8 22 27 17 18 27 34 17 24 31
3410.0 35 24 19 19 10 31 48 37 12 32
3450.0 32 36 19 26 25 24 47 39 45 43
3490.0 53 64 84 71 58 81 78 86 94 57
3530.0 45 44 45 35 43 29 41 26 64 7
3570.0 41 66 25 62 52 56 32 41 62 38
3610.0 53 57 69 68 68 79 75 77 66 81
3650.0 91 62 77 76 98 76 80 81 64 63
3690.0 77 40 60 53 79 55 56 53 76 45
3730.0 33 50 45 91 79 97 75 96 41 51
3770.0 55 81 55 70 65 47 53 67 54 87
3810.0 88 61 67 83 57 95 80 82 52 33
3850.0 62 85 60 38 70 61 41 45 20 78
3890.0 101 59 41 71 40 90 64 57 70 62
3930.0 44 59 42 49 64 61 89 44 66 69
##END=
