##TITLE=Cyclohexene, 1-methyl-
##JCAMP-DX=4.24
##DATA TYPE=INFRARED SPECTRUM
##ORIGIN=Sadtler Research Labs Under US-EPA Contract
##OWNER=NIST Standard Reference Data Program
##CAS REGISTRY NO=591-49-1
##MOLFORM=C 7 H 12
##XUNITS=1/CM
##YUNITS=ABSORBANCE
##XFACTOR=1.0
##YFACTOR=0.000089355
##DELTAX=4.0
##FIRSTX=450.0
##LASTX=3966.0
##FIRSTY=0.008578
##MAXX=3966
##MINX=450
##MAXY=0.89355
##MINY=0
##NPOINTS=880
##XYDATA=(X++(Y..Y))
450.0 96 112 108 105 76 75 68 69 58 52
490.0 50 72 72 22 45 29 57 98 76 114
530.0 86 85 61 56 75 47 67 2 29 57
570.0 33 87 47 35 36 24 61 67 99 59
610.0 55 45 61 96 76 89 67 38 35 48
650.0 56 49 52 53 32 55 78 78 76 70
690.0 62 57 32 50 68 56 79 57 80 117
730.0 121 93 151 198 143 105 135 159 173 144
770.0 155 208 208 227 256 319 408 499 394 336
810.0 310 283 260 234 162 161 179 159 156 146
850.0 170 154 174 186 163 179 155 173 188 222
890.0 257 265 301 331 343 357 402 429 350 304
930.0 267 254 221 203 209 217 261 245 273 260
970.0 254 273 244 238 210 209 186 180 192 211
1010.0 192 197 202 216 241 257 274 274 274 274
1050.0 279 291 303 281 267 260 294 330 394 390
1090.0 321 330 301 261 231 196 198 197 203 234
1130.0 257 307 332 387 423 401 395 337 322 313
1170.0 244 236 230 219 218 187 159 184 167 137
1210.0 137 149 169 160 158 176 176 167 190 213
1250.0 201 192 196 224 213 214 201 211 189 187
1290.0 165 177 189 191 195 215 223 239 234 234
1330.0 243 254 291 289 292 293 291 270 266 275
1370.0 327 390 415 410 430 397 376 268 180 153
1410.0 146 163 211 300 409 531 682 817 971 1157
1450.0 1158 1184 1107 906 806 657 498 351 230 156
1490.0 107 83 68 80 63 64 47 46 38 54
1530.0 47 41 46 23 36 31 45 40 60 74
1570.0 49 70 79 63 67 61 73 79 75 69
1610.0 72 64 66 66 62 61 61 66 67 67
1650.0 72 71 83 98 109 108 111 117 137 156
1690.0 180 209 231 231 232 219 183 150 132 123
1730.0 117 114 106 110 105 86 74 63 47 47
1770.0 45 42 33 43 28 29 23 24 28 29
1810.0 24 23 22 21 24 19 22 22 22 23
1850.0 23 23 16 27 22 21 21 27 21 22
1890.0 22 15 15 22 15 16 15 10 15 21
1930.0 20 24 26 28 28 26 20 14 9 15
1970.0 14 15 10 8 8 8 8 15 6 14
2010.0 8 8 14 7 7 7 12 8 8 9
2050.0 9 10 10 7 13 13 13 7 18 12
2090.0 12 12 5 9 4 13 9 6 7 5
2130.0 11 10 10 11 11 11 11 11 11 11
2170.0 14 9 15 15 10 14 20 15 15 15
2210.0 15 14 14 14 14 14 9 14 13 13
2250.0 8 13 13 7 11 8 12 7 2 3
2290.0 2 8 8 8 2 7 9 7 7 7
2330.0 8 8 13 1 8 8 7 7 3 2
2370.0 2 2 8 7 13 13 13 18 12 12
2410.0 18 19 13 16 19 15 19 18 14 17
2450.0 18 19 19 24 19 19 19 19 21 15
2490.0 19 19 19 18 18 18 24 24 30 30
2530.0 30 30 24 21 19 19 13 15 13 13
2570.0 14 18 20 17 25 24 28 28 29 30
2610.0 37 36 36 42 42 48 54 67 71 82
2650.0 101 113 118 129 137 137 136 131 125 114
2690.0 101 96 86 84 84 82 87 96 104 109
2730.0 126 131 131 131 120 112 101 92 89 91
2770.0 92 104 114 131 143 165 184 208 230 259
2810.0 278 317 373 478 659 957 1356 1795 2186 2516
2850.0 2798 3119 3369 3491 3479 3512 3336 3264 3152 3215
2890.0 3277 3276 3352 3627 4026 4481 5125 5867 6384 6862
2930.0 7753 10000 9888 8429 7627 7203 6025 5008 3696 2763
2970.0 2240 1795 1798 1707 1400 1134 968 901 861 843
3010.0 828 839 814 725 628 568 543 520 487 469
3050.0 435 395 354 296 246 196 167 144 127 123
3090.0 113 105 107 98 94 87 82 72 64 60
3130.0 59 53 53 52 50 48 45 40 45 40
3170.0 39 39 40 38 36 36 30 28 28 28
3210.0 28 32 28 22 26 33 28 28 15 19
3250.0 12 16 22 12 16 12 23 11 12 11
3290.0 12 21 19 18 24 20 23 27 22 22
3330.0 23 23 16 22 17 17 21 21 17 17
3370.0 13 17 22 17 21 8 13 5 8 15
3410.0 12 12 12 12 6 6 13 13 17 11
3450.0 12 9 13 6 6 6 13 13 7 6
3490.0 2 2 7 11 7 6 14 6 6 14
3530.0 11 16 7 13 13 13 17 18 12 8
3570.0 20 12 6 20 17 20 13 18 13 18
3610.0 24 30 30 35 41 49 58 67 68 75
3650.0 64 63 58 45 35 28 18 18 24 18
3690.0 18 19 19 18 13 13 14 13 19 13
3730.0 20 16 19 13 13 13 13 19 14 14
3770.0 13 12 16 18 18 18 20 19 19 25
3810.0 24 20 20 25 19 19 20 13 14 17
3850.0 19 19 20 20 24 24 24 31 30 29
3890.0 27 23 35 36 32 31 36 37 30 30
3930.0 30 30 24 31 28 31 0 2 2 2
##END=
