##TITLE=Benzene, 1-bromo-3-methyl-
##JCAMP-DX=4.24
##DATA TYPE=INFRARED SPECTRUM
##ORIGIN=Sadtler Research Labs Under US-EPA Contract
##OWNER=NIST Standard Reference Data Program
##CAS REGISTRY NO=591-17-3
##MOLFORM=C 7 H 7 Br
##XUNITS=1/CM
##YUNITS=ABSORBANCE
##XFACTOR=1.0
##YFACTOR=0.000086230
##DELTAX=4.0
##FIRSTX=450.0
##LASTX=3966.0
##FIRSTY=0.011986
##MAXX=3966
##MINX=450
##MAXY=0.8623
##MINY=0
##NPOINTS=880
##XYDATA=(X++(Y..Y))
450.0 139 167 101 25 103 112 190 260 179 160
490.0 211 108 54 152 328 313 447 494 437 281
530.0 152 129 238 203 219 190 350 216 156 195
570.0 319 259 172 151 241 440 300 193 431 291
610.0 367 211 296 440 327 402 369 308 399 484
650.0 625 1008 1714 3311 4014 4290 4809 4253 4137 2539
690.0 2201 1531 1042 652 457 445 328 333 220 261
730.0 424 299 373 972 1165 2006 3188 4725 6155 7801
770.0 10000 6460 5503 4077 2633 1456 875 680 582 517
810.0 462 497 788 1776 4107 6709 7065 6759 5097 1662
850.0 810 876 1159 1290 1440 1705 1211 1079 888 719
890.0 648 567 463 458 448 377 367 311 357 334
930.0 334 347 374 367 415 371 372 360 386 470
970.0 534 668 835 1004 1366 1612 1774 1579 1293 834
1010.0 523 449 535 603 713 710 746 734 712 694
1050.0 769 950 1404 2420 4089 4868 4994 4676 2688 1423
1090.0 1207 1077 961 676 525 488 346 353 341 334
1130.0 332 325 316 303 273 309 378 500 546 546
1170.0 532 446 378 371 406 461 538 729 1258 2089
1210.0 2485 2538 2320 1324 531 338 326 272 282 294
1250.0 290 297 287 300 300 286 289 292 308 383
1290.0 402 450 475 472 441 410 378 396 407 416
1330.0 409 366 322 308 328 351 386 395 419 459
1370.0 518 644 856 1028 1092 1182 1136 1119 1182 1165
1410.0 1236 1350 1495 1906 2230 2346 2371 1955 1636 1357
1450.0 1158 1194 1379 2125 3297 4686 5704 6610 6684 5466
1490.0 4486 3309 2112 1686 1406 1302 1341 1330 1381 1485
1530.0 1531 1443 1364 1193 1266 1400 1672 2126 3182 4631
1570.0 5954 6914 6901 6187 4877 4088 4538 5487 5544 4916
1610.0 4109 2380 1059 635 402 335 287 229 278 235
1650.0 248 188 416 432 426 310 249 186 172 89
1690.0 155 158 80 21 112 161 157 140 284 366
1730.0 422 388 431 424 402 346 390 412 381 410
1770.0 366 293 322 297 271 269 203 209 171 186
1810.0 181 181 203 215 219 262 297 304 310 280
1850.0 349 436 485 428 398 261 199 168 158 143
1890.0 131 133 152 158 171 192 226 267 322 387
1930.0 423 404 390 334 240 192 143 127 102 114
1970.0 108 95 94 100 105 103 91 97 84 100
2010.0 101 104 96 97 85 90 89 91 94 100
2050.0 90 92 87 90 80 80 79 74 67 79
2090.0 57 68 66 70 61 57 65 67 62 53
2130.0 57 63 56 65 65 66 69 74 74 66
2170.0 74 77 74 69 80 85 79 60 70 63
2210.0 73 85 98 92 93 96 86 80 91 84
2250.0 89 76 57 65 57 46 64 52 57 63
2290.0 63 46 35 39 42 40 22 18 29 22
2330.0 27 52 34 37 23 19 19 19 20 27
2370.0 51 57 73 91 111 95 102 102 121 104
2410.0 115 131 127 122 102 110 92 76 78 71
2450.0 81 80 87 87 81 83 72 70 72 73
2490.0 67 79 82 91 86 93 88 82 83 82
2530.0 77 78 78 83 70 78 79 85 97 82
2570.0 88 93 82 104 98 129 128 115 100 83
2610.0 82 80 71 71 77 81 80 106 115 105
2650.0 103 94 89 87 86 88 82 89 88 83
2690.0 91 95 72 82 84 79 101 103 104 110
2730.0 134 156 166 199 234 219 222 220 167 154
2770.0 138 128 128 133 135 134 139 155 154 169
2810.0 173 178 181 217 235 231 259 281 294 369
2850.0 451 544 690 874 1121 1316 1439 1487 1456 1366
2890.0 1323 1295 1320 1405 1518 1636 1789 2045 2385 2849
2930.0 3232 3455 3508 3312 2958 2555 2055 1746 1476 1285
2970.0 1128 978 894 897 1018 1178 1303 1429 1539 1594
3010.0 1657 1766 1891 2020 2180 2357 2498 2493 2401 2261
3050.0 2190 2188 2436 2832 3160 3235 3129 2802 2294 1984
3090.0 1767 1480 1242 1013 747 507 346 225 194 165
3130.0 148 118 120 103 106 121 107 90 114 109
3170.0 116 99 95 107 106 113 104 111 116 103
3210.0 92 80 109 116 114 108 90 119 101 80
3250.0 104 101 86 104 81 96 81 86 65 97
3290.0 96 83 89 92 88 74 91 87 85 74
3330.0 96 82 104 89 92 86 79 92 86 102
3370.0 96 98 121 103 109 103 89 94 96 124
3410.0 119 92 115 95 115 102 98 126 111 80
3450.0 84 112 115 92 82 94 84 103 82 93
3490.0 98 88 50 68 97 71 71 100 88 72
3530.0 74 66 88 104 81 82 83 96 90 49
3570.0 59 111 106 75 81 74 89 82 105 108
3610.0 45 65 76 65 84 19 74 82 75 81
3650.0 27 50 57 94 88 64 49 34 102 113
3690.0 65 103 126 112 106 99 80 116 108 97
3730.0 91 68 42 81 50 48 74 116 135 128
3770.0 129 158 153 139 128 115 122 112 78 113
3810.0 109 135 107 123 125 123 126 98 120 165
3850.0 146 96 91 131 96 101 113 136 145 143
3890.0 159 176 179 180 189 192 187 181 169 179
3930.0 150 140 136 156 160 200 0 15 16 16
##END=
