##TITLE=Benzaldehyde, 3-methoxy-
##JCAMP-DX=4.24
##DATA TYPE=INFRARED SPECTRUM
##ORIGIN=Sadtler Research Labs Under US-EPA Contract
##OWNER=NIST Standard Reference Data Program
##CAS REGISTRY NO=591-31-1
##MOLFORM=C 8 H 8 O 2
##XUNITS=1/CM
##YUNITS=ABSORBANCE
##XFACTOR=1.0
##YFACTOR=0.000152655
##DELTAX=4.0
##FIRSTX=450.0
##LASTX=3966.0
##FIRSTY=0.000000
##MAXX=3966
##MINX=450
##MAXY=1.52655
##MINY=0
##NPOINTS=880
##XYDATA=(X++(Y..Y))
450.0 0 99 170 82 101 111 98 90 97 94
490.0 65 130 86 124 105 128 128 139 135 141
530.0 167 163 226 281 389 444 456 426 346 260
570.0 182 170 166 158 99 96 108 117 108 115
610.0 118 117 127 131 184 257 403 548 627 629
650.0 568 448 309 294 318 464 585 750 1086 1095
690.0 761 642 454 299 187 163 141 160 232 449
730.0 898 1344 1575 1715 1525 1089 791 807 981 1253
770.0 1470 1761 1794 1919 2147 1664 1384 1000 620 384
810.0 225 142 112 88 90 81 102 111 132 170
850.0 212 228 258 317 376 489 533 477 467 439
890.0 457 486 456 391 377 320 243 244 287 344
930.0 342 352 316 215 154 140 129 115 103 102
970.0 109 121 149 176 238 296 311 345 349 286
1010.0 249 244 260 328 454 663 973 1350 1757 2063
1050.0 2218 2148 1746 1263 801 512 431 397 384 361
1090.0 310 271 238 226 217 226 240 262 300 376
1130.0 537 809 1226 1679 1912 1995 2121 1970 1480 1268
1170.0 1121 847 666 628 627 632 601 548 445 363
1210.0 353 384 440 477 523 564 683 952 1501 2356
1250.0 3476 5169 7236 8222 8431 7910 6014 4034 3324 3079
1290.0 2713 2359 1954 1702 1668 1759 1755 1659 1473 1310
1330.0 1154 1068 1039 945 849 710 523 404 366 369
1370.0 477 713 941 1171 1390 1296 1129 911 650 447
1410.0 364 356 434 589 841 1276 1641 1845 1852 1690
1450.0 1603 1603 1847 2084 2330 2270 2346 2785 2957 3107
1490.0 2822 2487 1705 940 627 425 328 311 317 294
1530.0 273 277 286 314 289 268 319 358 419 449
1570.0 621 796 1216 1907 2391 3115 3406 3964 3408 3152
1610.0 2598 1897 1297 768 510 320 303 257 233 224
1650.0 285 260 300 310 383 444 556 616 702 763
1690.0 721 749 759 1069 1587 2921 5637 8778 10000 9596
1730.0 9834 4831 1928 893 561 424 388 318 342 277
1770.0 289 223 198 190 174 181 176 175 168 168
1810.0 157 167 156 175 180 185 175 147 156 153
1850.0 149 132 147 149 159 172 146 152 146 152
1890.0 145 144 126 117 111 104 108 111 129 121
1930.0 143 144 142 149 138 113 100 97 86 92
1970.0 85 89 89 100 109 129 138 133 130 113
2010.0 102 95 103 109 117 128 134 144 145 144
2050.0 134 131 123 123 128 131 134 129 130 125
2090.0 126 124 124 114 108 99 89 84 77 77
2130.0 73 78 77 78 80 83 86 82 85 84
2170.0 88 86 91 91 92 94 97 100 100 101
2210.0 97 98 91 91 86 81 77 73 71 67
2250.0 69 65 67 66 65 66 67 70 70 78
2290.0 78 82 81 86 82 80 82 83 85 78
2330.0 90 85 90 78 82 78 65 65 65 65
2370.0 65 65 66 70 72 72 75 75 75 77
2410.0 81 83 85 83 85 84 83 81 77 78
2450.0 75 74 73 76 74 78 76 76 81 80
2490.0 84 83 87 91 96 99 108 114 119 124
2530.0 121 120 118 116 118 124 126 128 127 123
2570.0 125 126 127 131 134 129 129 133 133 139
2610.0 139 144 140 144 142 145 146 153 158 166
2650.0 169 169 169 163 160 152 149 144 145 146
2690.0 168 214 305 464 724 1056 1364 1692 1895 1791
2730.0 1528 1154 774 514 384 317 284 269 264 284
2770.0 318 387 482 610 745 888 1039 1272 1600 1821
2810.0 1859 1804 1578 1236 1021 919 882 938 1050 1083
2850.0 1048 961 757 559 447 397 383 381 390 402
2890.0 415 439 468 498 534 581 636 697 743 764
2930.0 773 786 832 944 1088 1192 1262 1287 1258 1181
2970.0 1001 793 657 533 448 410 419 472 609 864
3010.0 1107 1141 1113 969 690 516 469 469 481 500
3050.0 520 537 555 567 582 602 619 627 595 562
3090.0 507 428 373 341 309 275 237 194 159 133
3130.0 120 116 110 105 103 102 99 97 100 100
3170.0 97 97 95 97 97 98 91 96 92 91
3210.0 88 87 86 85 88 88 87 85 86 83
3250.0 83 85 83 84 82 83 83 83 78 80
3290.0 83 86 83 83 85 86 87 87 88 89
3330.0 86 86 86 88 81 84 83 82 84 87
3370.0 86 84 89 91 100 108 113 117 127 132
3410.0 144 154 169 192 211 219 209 176 125 96
3450.0 84 81 75 76 78 83 83 82 85 82
3490.0 84 87 78 85 75 82 82 82 81 82
3530.0 77 80 80 81 77 77 77 77 84 70
3570.0 80 85 91 118 112 112 98 87 76 74
3610.0 68 74 72 73 72 75 75 74 76 80
3650.0 65 69 81 67 80 69 84 68 85 77
3690.0 75 77 81 77 83 80 85 81 74 72
3730.0 75 69 74 82 67 94 78 86 77 80
3770.0 77 84 88 81 85 80 80 83 92 78
3810.0 96 80 77 86 84 84 86 80 78 85
3850.0 84 90 78 81 82 77 83 78 71 73
3890.0 86 78 87 73 78 75 85 83 76 77
3930.0 76 89 80 74 78 83 69 80 83 88
##END=
