##TITLE=Benzene, iodo-
##JCAMP-DX=4.24
##DATA TYPE=INFRARED SPECTRUM
##ORIGIN=Sadtler Research Labs Under US-EPA Contract
##OWNER=NIST Standard Reference Data Program
##CAS REGISTRY NO=591-50-4
##MOLFORM=C 6 H 5 I
##XUNITS=1/CM
##YUNITS=ABSORBANCE
##XFACTOR=1.0
##YFACTOR=0.000074512
##DELTAX=4.0
##FIRSTX=450.0
##LASTX=3966.0
##FIRSTY=0.030997
##MAXX=3966
##MINX=450
##MAXY=0.74512
##MINY=0
##NPOINTS=880
##XYDATA=(X++(Y..Y))
450.0 416 518 338 287 188 201 146 230 77 77
490.0 0 105 74 174 94 145 141 117 140 130
530.0 214 103 177 113 100 75 109 139 149 258
570.0 151 247 161 214 126 254 79 232 115 182
610.0 120 225 212 170 198 116 253 158 591 1598
650.0 3744 3907 3647 3825 1657 1370 1691 2082 2610 3116
690.0 1965 2226 1882 1882 2092 2964 4123 5341 6315 7724
730.0 10000 6171 6140 4818 3333 1967 1111 613 371 211
770.0 123 142 134 152 103 161 122 193 153 189
810.0 116 175 132 162 164 153 163 142 184 127
850.0 190 163 190 160 177 291 360 387 380 394
890.0 367 383 303 342 272 327 264 290 245 224
930.0 160 150 147 143 178 158 213 188 226 165
970.0 185 136 153 222 364 1124 2674 2556 2860 3836
1010.0 4509 5463 4784 5305 2420 484 248 234 365 492
1050.0 1037 2132 3149 3248 3170 1477 462 281 324 284
1090.0 276 235 306 207 215 147 166 150 146 157
1130.0 167 187 177 137 171 148 191 142 164 183
1170.0 212 172 196 166 171 140 157 148 145 154
1210.0 161 183 190 284 301 314 309 239 202 200
1250.0 217 214 242 232 238 186 202 188 219 193
1290.0 242 233 257 293 322 348 437 427 380 429
1330.0 421 352 281 280 277 258 251 248 181 216
1370.0 240 200 258 226 193 165 174 140 179 180
1410.0 271 365 485 725 914 1181 1458 1505 1183 1397
1450.0 1301 919 709 1249 2667 5427 6426 5944 5533 2208
1490.0 413 156 128 165 59 121 172 108 73 120
1530.0 169 124 142 132 270 367 444 512 1147 2212
1570.0 3858 5466 5711 5155 2846 907 478 269 212 184
1610.0 189 191 145 209 277 315 253 238 215 97
1650.0 114 10 146 152 179 104 127 161 117 74
1690.0 132 105 86 63 143 195 210 130 254 289
1730.0 274 151 227 230 179 135 159 159 120 205
1770.0 156 169 233 292 374 414 402 422 310 267
1810.0 238 184 183 165 143 117 168 177 179 188
1850.0 250 318 340 354 348 398 436 464 404 352
1890.0 229 168 132 141 144 149 175 156 200 257
1930.0 306 346 359 350 392 436 415 419 349 287
1970.0 188 153 126 151 123 138 127 136 125 124
2010.0 132 126 127 134 127 121 127 122 119 111
2050.0 101 120 109 129 111 139 120 133 119 127
2090.0 96 116 101 112 112 124 123 129 140 118
2130.0 126 104 113 103 113 106 108 105 97 102
2170.0 88 97 90 110 91 98 96 97 86 97
2210.0 91 93 103 92 107 106 124 109 123 115
2250.0 124 108 103 102 110 106 103 103 89 96
2290.0 83 82 74 84 74 110 135 106 139 98
2330.0 118 95 152 120 187 81 103 102 175 181
2370.0 193 175 176 159 131 121 108 101 87 94
2410.0 94 88 97 81 85 58 78 57 80 63
2450.0 78 66 78 57 68 63 67 71 71 75
2490.0 79 87 84 86 72 77 84 73 90 94
2530.0 118 99 103 76 78 54 70 41 77 71
2570.0 92 97 114 113 126 135 127 109 67 57
2610.0 49 68 62 70 75 84 107 76 87 40
2650.0 66 41 56 24 45 28 33 13 28 37
2690.0 24 27 27 32 6 30 20 28 21 25
2730.0 26 25 39 18 35 17 43 16 46 19
2770.0 36 15 23 19 19 28 14 26 14 29
2810.0 19 32 22 37 18 39 26 40 35 30
2850.0 42 39 42 31 49 44 62 54 76 62
2890.0 47 34 39 54 37 66 32 69 45 63
2930.0 50 62 38 81 76 62 54 38 44 47
2970.0 69 63 100 104 153 191 219 289 306 319
3010.0 313 398 425 544 535 563 511 439 424 519
3050.0 655 873 1107 1587 2789 3988 4447 4619 4286 2882
3090.0 2309 1893 1260 823 535 359 216 166 99 117
3130.0 81 120 84 128 122 167 131 160 129 123
3170.0 86 53 68 58 73 62 72 66 70 59
3210.0 63 60 60 90 49 89 45 98 43 92
3250.0 46 86 50 68 62 66 60 79 80 70
3290.0 76 59 84 57 74 68 72 66 59 82
3330.0 48 82 60 93 72 89 60 89 80 90
3370.0 71 81 102 68 87 59 103 75 103 82
3410.0 101 81 86 80 88 109 74 95 77 105
3450.0 96 103 85 110 94 96 109 92 97 85
3490.0 121 89 110 68 119 88 117 92 113 87
3530.0 91 88 104 101 81 111 75 109 88 60
3570.0 91 104 121 105 110 66 115 87 122 87
3610.0 108 50 86 68 101 35 107 130 109 98
3650.0 38 102 106 121 101 41 31 73 121 99
3690.0 105 139 167 126 155 85 148 112 144 102
3730.0 120 75 78 61 61 33 60 100 101 108
3770.0 97 128 110 130 125 113 125 105 79 73
3810.0 124 80 101 61 121 92 98 68 59 91
3850.0 88 107 122 135 112 114 115 143 128 120
3890.0 136 156 179 167 172 173 191 173 174 154
3930.0 171 174 190 179 196 227 54 67 70 70
##END=
