##TITLE=2-Hexanone
##JCAMP-DX=4.24
##DATA TYPE=INFRARED SPECTRUM
##ORIGIN=Sadtler Research Labs Under US-EPA Contract
##OWNER=NIST Standard Reference Data Program
##CAS REGISTRY NO=591-78-6
##MOLFORM=C 6 H 12 O
##XUNITS=1/CM
##YUNITS=ABSORBANCE
##XFACTOR=1.0
##YFACTOR=0.000047729
##DELTAX=4.0
##FIRSTX=450.0
##LASTX=3966.0
##FIRSTY=0.000000
##MAXX=3966
##MINX=450
##MAXY=0.47729
##MINY=0
##NPOINTS=880
##XYDATA=(X++(Y..Y))
450.0 0 144 289 192 118 337 222 220 218 252
490.0 183 277 286 300 224 333 419 460 529 529
530.0 533 511 474 411 335 275 253 228 246 284
570.0 324 373 485 563 586 561 622 560 442 367
610.0 297 224 184 146 147 144 164 95 167 135
650.0 148 156 173 133 112 87 114 143 108 130
690.0 139 132 146 160 226 273 336 360 391 410
730.0 396 328 270 231 199 182 139 149 144 159
770.0 147 148 157 162 147 153 149 128 148 119
810.0 136 127 121 114 115 101 96 108 110 108
850.0 110 120 114 131 138 159 183 202 234 235
890.0 275 270 281 275 267 239 243 238 242 244
930.0 271 326 366 415 468 519 550 578 597 580
970.0 570 569 580 603 634 641 640 623 587 543
1010.0 483 434 388 349 309 286 249 242 230 231
1050.0 234 234 247 253 265 271 295 316 333 374
1090.0 422 481 539 592 630 655 644 639 631 651
1130.0 679 757 895 1104 1457 2001 2710 3488 4047 4284
1170.0 4240 3894 3242 2503 1993 1691 1490 1353 1262 1218
1210.0 1223 1284 1379 1478 1558 1593 1596 1535 1436 1333
1250.0 1258 1199 1123 1052 977 893 822 774 730 718
1290.0 720 755 790 817 846 854 901 936 990 1043
1330.0 1152 1307 1530 1856 2326 3000 3729 4325 4667 4667
1370.0 4279 3617 2919 2341 1926 1702 1568 1410 1313 1336
1410.0 1383 1425 1485 1527 1552 1527 1533 1520 1527 1568
1450.0 1627 1663 1688 1672 1603 1486 1328 1154 990 815
1490.0 702 567 516 445 443 417 377 379 365 373
1530.0 328 349 343 359 310 304 317 304 290 260
1570.0 266 238 253 232 218 218 214 228 191 233
1610.0 202 223 217 229 226 208 260 230 253 230
1650.0 326 243 307 295 371 394 472 588 649 867
1690.0 954 1263 1407 2016 2480 3306 4357 5812 7402 8605
1730.0 10000 9894 9763 8893 7650 5696 4310 3032 2281 1645
1770.0 1404 1096 998 850 726 635 607 615 516 504
1810.0 406 357 250 245 197 168 155 136 149 116
1850.0 139 101 117 110 124 114 103 112 99 106
1890.0 94 108 86 94 87 89 85 92 99 79
1930.0 96 84 94 80 101 83 79 85 88 99
1970.0 82 96 80 80 71 83 75 68 78 70
2010.0 75 69 81 70 75 76 77 79 75 88
2050.0 73 85 78 79 77 89 87 83 87 89
2090.0 95 86 99 91 95 96 97 91 97 108
2130.0 101 105 97 110 98 98 91 95 90 93
2170.0 99 87 94 86 89 78 89 78 78 86
2210.0 78 81 78 86 81 78 83 79 79 75
2250.0 84 75 80 75 80 72 79 83 76 77
2290.0 76 87 83 95 93 99 99 111 110 103
2330.0 101 85 90 62 82 93 125 109 81 61
2370.0 62 62 62 62 62 74 69 79 75 75
2410.0 75 77 80 71 81 75 77 78 77 76
2450.0 71 68 72 72 64 75 62 68 69 71
2490.0 71 68 76 70 75 81 87 79 87 85
2530.0 80 79 74 78 69 80 75 76 75 80
2570.0 85 75 83 83 87 91 88 90 86 94
2610.0 92 94 96 104 95 91 96 103 101 109
2650.0 114 120 133 128 137 138 141 139 149 142
2690.0 141 137 135 137 133 127 124 133 133 142
2730.0 149 155 178 186 203 202 202 196 202 201
2770.0 206 209 219 231 239 257 276 312 342 377
2810.0 404 437 478 513 551 599 662 732 839 970
2850.0 1145 1378 1664 2015 2398 2781 3209 3677 3974 4029
2890.0 4108 4098 3904 3746 3762 3896 4102 4381 4766 5240
2930.0 5755 6369 6937 7324 7536 7605 7657 7797 8158 8675
2970.0 8757 8210 7306 5991 4372 3106 2329 1848 1573 1438
3010.0 1350 1264 1168 1057 921 799 707 656 609 594
3050.0 565 545 522 493 488 461 438 423 407 380
3090.0 359 343 323 304 283 251 244 230 213 200
3130.0 191 186 185 178 168 162 160 160 159 151
3170.0 160 157 149 152 148 155 139 144 137 130
3210.0 124 129 117 122 107 111 107 100 99 97
3250.0 104 95 96 84 93 116 86 99 85 84
3290.0 93 99 97 80 98 97 102 93 95 92
3330.0 97 96 97 103 96 115 105 114 109 127
3370.0 115 116 116 120 106 109 118 112 112 106
3410.0 126 128 127 150 164 177 202 230 226 240
3450.0 245 247 228 202 196 147 127 107 94 70
3490.0 96 82 80 81 67 71 75 84 75 91
3530.0 76 94 74 90 103 88 105 101 141 145
3570.0 135 125 131 156 157 130 139 134 131 111
3610.0 104 101 84 84 83 107 75 95 107 98
3650.0 126 82 104 85 107 120 98 108 68 111
3690.0 95 106 104 101 88 99 101 93 98 97
3730.0 129 109 93 117 108 97 84 75 77 95
3770.0 96 77 103 99 83 106 97 108 108 99
3810.0 115 107 116 103 85 110 132 123 75 90
3850.0 127 135 77 101 84 102 83 80 117 79
3890.0 99 107 130 101 102 116 111 120 86 90
3930.0 115 117 98 119 85 110 123 126 115 80
##END=
