##TITLE=Phenol, 3,5-dichloro-
##JCAMP-DX=4.24
##DATA TYPE=INFRARED SPECTRUM
##ORIGIN=Sadtler Research Labs Under US-EPA Contract
##OWNER=NIST Standard Reference Data Program
##CAS REGISTRY NO=591-35-5
##MOLFORM=C 6 H 4 Cl 2 O
##XUNITS=1/CM
##YUNITS=ABSORBANCE
##XFACTOR=1.0
##YFACTOR=0.000084326
##DELTAX=4.0
##FIRSTX=450.0
##LASTX=3966.0
##FIRSTY=0.016865
##MAXX=3966
##MINX=450
##MAXY=0.84326
##MINY=0
##NPOINTS=880
##XYDATA=(X++(Y..Y))
450.0 200 231 199 286 232 262 314 374 552 618
490.0 566 580 481 298 279 227 239 216 250 254
530.0 296 299 314 249 236 210 205 177 163 186
570.0 131 199 223 159 230 217 232 240 263 215
610.0 220 160 165 161 173 134 176 184 162 262
650.0 383 727 671 1247 1749 926 724 528 316 301
690.0 171 242 174 212 156 193 188 186 201 192
730.0 207 171 214 189 214 202 226 211 214 236
770.0 244 279 298 425 656 1069 1603 2129 2455 2419
810.0 2200 1890 1762 1939 2208 2589 2426 2068 2199 1781
850.0 1388 1229 1100 892 679 557 442 413 385 405
890.0 402 391 395 383 419 466 588 760 1183 1955
930.0 3198 3731 3686 3819 2447 1064 455 254 222 204
970.0 216 222 249 272 332 411 428 388 391 293
1010.0 151 95 39 14 0 31 55 109 153 185
1050.0 226 263 346 404 437 449 481 557 771 1053
1090.0 1315 1739 2027 1943 1908 1655 1031 656 476 403
1130.0 407 485 639 782 891 1034 1279 1582 1905 2140
1170.0 2543 2484 2118 1887 1558 1233 985 851 742 597
1210.0 464 418 409 429 477 536 689 931 1401 2103
1250.0 2985 3260 3062 2813 1770 904 577 510 564 645
1290.0 719 696 634 498 341 221 199 186 198 198
1330.0 206 227 213 231 221 240 229 259 289 373
1370.0 462 526 563 540 535 483 538 631 802 954
1410.0 1217 1604 2069 2593 2778 2800 2728 2283 1924 1793
1450.0 1865 1983 2040 1996 1702 1262 743 491 433 303
1490.0 293 260 287 276 261 315 325 382 363 473
1530.0 473 597 707 859 1001 1006 1060 942 1146 1348
1570.0 2404 3509 5063 7755 8398 10000 8055 7510 5183 4098
1610.0 2974 1946 1183 815 701 712 690 629 591 486
1650.0 310 269 193 185 161 156 145 156 157 148
1690.0 173 171 167 173 187 206 188 164 146 147
1730.0 111 102 106 109 99 89 102 90 93 91
1770.0 92 86 101 99 98 91 86 89 73 84
1810.0 78 82 73 76 72 67 70 71 69 56
1850.0 72 69 65 61 58 53 60 66 61 64
1890.0 60 68 68 74 71 68 68 63 65 70
1930.0 73 68 68 55 53 52 47 48 50 52
1970.0 51 55 53 57 57 57 54 56 58 52
2010.0 52 46 45 47 51 51 51 50 45 46
2050.0 38 35 36 36 31 34 39 36 38 36
2090.0 38 31 36 36 38 38 42 43 40 41
2130.0 38 36 32 31 28 26 29 30 31 32
2170.0 38 41 47 53 60 62 64 62 52 46
2210.0 37 30 22 18 14 15 14 10 14 7
2250.0 9 6 10 8 5 7 5 3 4 5
2290.0 3 7 5 8 8 10 11 12 13 13
2330.0 22 14 29 28 40 39 33 31 44 59
2370.0 65 71 65 59 57 52 53 47 44 41
2410.0 38 39 45 42 46 46 45 48 48 48
2450.0 42 43 38 37 29 31 28 26 24 24
2490.0 25 24 33 35 42 50 60 59 63 61
2530.0 55 47 39 34 28 25 23 26 25 24
2570.0 28 27 26 28 32 33 33 38 38 35
2610.0 35 36 27 29 32 29 28 25 29 29
2650.0 31 33 36 38 41 44 45 51 56 63
2690.0 66 65 67 70 71 69 67 64 60 53
2730.0 48 44 51 42 48 42 39 34 33 29
2770.0 28 27 30 26 24 27 26 26 21 25
2810.0 23 20 23 28 27 26 32 31 31 32
2850.0 34 40 40 43 42 45 44 45 39 36
2890.0 34 34 29 32 31 29 31 26 24 29
2930.0 30 30 27 28 31 27 26 21 18 11
2970.0 9 16 17 23 32 28 35 38 32 37
3010.0 40 44 46 54 57 62 64 64 60 59
3050.0 65 75 82 101 123 122 123 108 84 69
3090.0 63 67 67 66 59 58 46 42 35 36
3130.0 33 36 39 35 34 41 44 40 41 47
3170.0 49 48 47 50 47 47 43 38 36 40
3210.0 39 39 38 44 43 45 51 47 42 44
3250.0 44 41 37 42 38 49 49 44 45 44
3290.0 49 42 51 51 52 53 55 52 59 63
3330.0 69 75 95 93 85 84 80 83 73 86
3370.0 83 78 76 76 75 70 78 72 74 66
3410.0 64 68 73 71 73 70 65 69 58 67
3450.0 67 71 70 62 69 60 65 58 64 57
3490.0 62 67 64 69 48 70 57 65 55 44
3530.0 54 62 60 56 47 47 66 43 57 37
3570.0 31 43 22 32 0 28 56 57 78 76
3610.0 64 73 108 138 215 296 649 1065 1916 2708
3650.0 3202 2865 2586 1582 695 248 130 59 87 77
3690.0 50 88 80 74 55 61 33 68 40 43
3730.0 60 27 41 53 50 13 79 43 77 79
3770.0 64 74 74 83 73 86 85 71 50 72
3810.0 70 81 55 66 81 80 86 70 60 87
3850.0 77 41 77 101 77 96 86 109 71 115
3890.0 86 108 91 81 74 108 94 97 104 73
3930.0 104 82 94 110 81 93 111 94 102 118
##END=
