##TITLE=Benzenamine, 3-bromo-
##JCAMP-DX=4.24
##DATA TYPE=INFRARED SPECTRUM
##ORIGIN=Sadtler Research Labs Under US-EPA Contract
##OWNER=NIST Standard Reference Data Program
##CAS REGISTRY NO=591-19-5
##MOLFORM=C 6 H 6 Br N
##XUNITS=1/CM
##YUNITS=ABSORBANCE
##XFACTOR=1.0
##YFACTOR=0.000098383
##DELTAX=4.0
##FIRSTX=450.0
##LASTX=3966.0
##FIRSTY=0.025383
##MAXX=3966
##MINX=450
##MAXY=0.98383
##MINY=0
##NPOINTS=880
##XYDATA=(X++(Y..Y))
450.0 258 526 494 550 529 567 600 679 673 778
490.0 868 909 987 969 750 784 674 726 722 675
530.0 681 690 639 578 612 507 583 540 547 576
570.0 628 643 662 587 559 589 415 464 421 489
610.0 484 480 537 579 624 568 729 877 1098 1412
650.0 2036 2927 3922 4938 5897 6925 7342 7265 6139 4842
690.0 3703 2838 2172 1804 1522 1375 1196 1080 893 780
730.0 697 632 751 948 1383 1982 2745 3483 4524 4940
770.0 4177 3527 2864 2216 1541 1243 1057 944 855 800
810.0 777 732 720 728 794 928 1149 1434 1825 2461
850.0 3160 3512 3925 4244 4527 4256 3520 2762 1773 810
890.0 343 223 198 194 177 166 151 137 133 126
930.0 128 131 127 130 147 162 175 205 226 254
970.0 295 333 414 591 1275 1743 1713 1715 1234 361
1010.0 111 63 55 49 62 71 82 128 156 225
1050.0 337 557 943 1680 2357 2605 2585 1948 1134 753
1090.0 625 608 636 645 641 620 506 378 286 196
1130.0 138 90 75 68 75 129 313 562 613 576
1170.0 525 236 58 22 20 47 65 69 60 51
1210.0 42 26 29 43 91 160 308 544 891 1389
1250.0 2020 2487 2480 2578 2546 1969 1510 1284 1209 1267
1290.0 1427 1480 1424 1452 1359 1235 1194 1219 1123 866
1330.0 662 456 281 150 59 22 0 6 15 22
1370.0 42 84 113 151 228 305 466 651 754 779
1410.0 751 636 554 504 587 751 1025 1357 1528 1479
1450.0 1554 1500 1288 1351 1871 3180 5310 7410 7755 7325
1490.0 5800 3018 1407 940 880 919 915 937 928 830
1530.0 819 784 750 743 722 709 781 958 1306 2006
1570.0 3303 5101 7012 8681 9639 9351 8645 8554 8251 7750
1610.0 7832 8798 9537 9600 10000 8739 6561 4828 3298 2034
1650.0 1309 932 701 604 583 618 672 699 722 756
1690.0 668 570 536 486 411 352 336 321 269 245
1730.0 244 241 201 176 158 141 108 84 70 69
1770.0 75 91 77 99 96 114 112 115 137 137
1810.0 166 194 188 178 162 138 108 88 106 117
1850.0 114 110 113 108 98 91 68 66 67 81
1890.0 112 140 182 223 265 280 275 275 244 196
1930.0 165 137 117 109 93 82 78 75 70 65
1970.0 57 56 58 60 60 67 70 69 67 70
2010.0 76 81 83 88 99 102 110 109 116 117
2050.0 108 101 93 90 82 68 61 56 52 48
2090.0 47 55 64 73 78 89 94 98 103 105
2130.0 104 99 94 91 95 96 100 96 95 90
2170.0 85 84 79 77 78 73 67 63 60 56
2210.0 53 55 54 54 55 56 58 62 65 67
2250.0 69 70 78 84 86 86 83 82 77 77
2290.0 74 73 67 65 60 54 56 47 51 63
2330.0 70 85 95 91 123 85 36 56 83 132
2370.0 163 172 172 156 134 118 106 95 84 80
2410.0 75 73 72 73 75 79 81 84 86 92
2450.0 98 99 99 101 102 103 102 102 102 102
2490.0 98 96 100 98 96 96 93 93 95 92
2530.0 94 100 103 109 117 129 135 137 138 133
2570.0 125 121 122 117 112 113 109 109 115 116
2610.0 116 116 110 105 93 92 97 96 105 112
2650.0 107 94 92 93 87 91 91 93 102 96
2690.0 97 101 100 102 104 103 117 126 134 147
2730.0 152 158 157 143 142 126 127 115 108 104
2770.0 101 97 96 89 76 75 74 79 80 70
2810.0 71 84 79 77 80 94 96 100 100 102
2850.0 104 119 112 119 126 132 135 138 139 141
2890.0 134 127 119 111 106 103 107 105 100 107
2930.0 99 105 99 109 114 117 120 125 125 113
2970.0 105 102 102 99 116 122 139 172 222 279
3010.0 357 456 552 675 770 839 857 874 925 957
3050.0 1050 1198 1343 1459 1448 1335 1227 1096 951 851
3090.0 773 689 601 491 366 261 188 139 120 106
3130.0 87 88 73 74 76 79 79 81 88 81
3170.0 78 84 77 86 82 93 109 132 151 171
3210.0 192 191 193 213 214 216 199 168 140 129
3250.0 114 118 91 82 79 68 68 72 57 65
3290.0 58 57 56 63 52 57 67 69 58 69
3330.0 83 66 46 54 60 75 63 78 102 91
3370.0 106 123 161 183 232 288 408 563 769 965
3410.0 1073 1095 1158 1207 1158 1043 947 744 451 288
3450.0 200 155 136 149 175 224 286 360 487 595
3490.0 725 776 747 754 661 683 745 698 670 583
3530.0 356 222 140 97 72 66 53 62 68 53
3570.0 55 63 67 51 49 69 61 65 69 47
3610.0 88 75 62 62 54 60 60 57 66 69
3650.0 66 68 83 74 83 87 51 55 112 85
3690.0 70 70 75 68 88 113 131 103 80 99
3730.0 113 99 122 98 103 102 108 100 112 109
3770.0 113 92 91 73 70 98 94 107 104 99
3810.0 78 89 67 85 97 110 128 138 168 213
3850.0 242 230 190 156 147 109 76 88 114 78
3890.0 82 97 65 89 82 116 97 127 95 94
3930.0 99 101 154 135 157 121 148 135 89 52
##END=
