##TITLE=Phenol, 3-amino-
##JCAMP-DX=4.24
##DATA TYPE=INFRARED SPECTRUM
##ORIGIN=Sadtler Research Labs Under US-EPA Contract
##OWNER=NIST Standard Reference Data Program
##CAS REGISTRY NO=591-27-5
##MOLFORM=C 6 H 7 N O
##XUNITS=1/CM
##YUNITS=ABSORBANCE
##XFACTOR=1.0
##YFACTOR=0.000059045
##DELTAX=4.0
##FIRSTX=450.0
##LASTX=3966.0
##FIRSTY=0.056152
##MAXX=3966
##MINX=450
##MAXY=0.59045
##MINY=0
##NPOINTS=880
##XYDATA=(X++(Y..Y))
450.0 951 884 946 815 835 819 529 564 533 613
490.0 493 610 616 709 673 779 774 750 810 766
530.0 880 724 832 848 827 870 789 790 671 698
570.0 659 717 800 752 585 747 782 795 790 769
610.0 795 692 769 746 845 867 977 1109 1271 1672
650.0 2077 2773 3338 4052 4371 4516 4809 5779 4595 3125
690.0 2913 2337 1862 1456 1152 1072 962 961 993 1126
730.0 1257 1559 1857 2154 2528 2950 3384 3192 3100 2668
770.0 2175 1873 1620 1397 1228 1114 1044 1064 1048 1196
810.0 1216 1389 1809 1839 1736 1837 1822 1966 2164 1827
850.0 1546 1345 1159 936 832 731 630 594 552 582
890.0 614 594 580 570 571 575 539 520 559 655
930.0 951 1139 1468 2061 2477 2552 2548 2283 1991 1512
970.0 403 44 56 149 257 346 400 312 358 327
1010.0 346 315 224 245 288 398 446 495 481 670
1050.0 753 907 1000 1042 1230 1237 1349 1305 1279 1304
1090.0 1235 1174 1153 1047 1062 949 1041 1112 1252 1354
1130.0 1535 2170 3210 5034 6629 7829 8944 9885 10000 9414
1170.0 8292 8002 7366 6349 5663 4862 3886 2623 1756 1154
1210.0 736 636 607 546 452 376 324 274 269 289
1250.0 346 389 481 574 670 778 910 1079 1305 1686
1290.0 2218 2878 3453 3909 3995 4370 4825 4799 4169 3627
1330.0 3156 2655 2228 1309 718 341 237 168 154 149
1370.0 153 148 169 197 211 238 241 252 313 359
1410.0 401 457 447 556 607 718 781 907 1018 1096
1450.0 1230 1314 1500 1622 1811 2089 2475 3003 3447 4379
1490.0 4860 5507 5083 4727 4421 3483 3165 2298 1881 1433
1530.0 1408 1212 932 990 949 1031 961 1034 1344 1595
1570.0 2093 2623 3592 4687 5556 6984 7638 8663 8840 9820
1610.0 9892 9648 9752 9486 9841 9095 9455 8030 7169 5707
1650.0 4733 3897 2383 2149 1198 1052 592 746 606 499
1690.0 597 551 534 361 505 377 391 282 338 323
1730.0 264 293 237 257 187 207 158 184 179 177
1770.0 167 137 198 138 176 139 160 142 144 158
1810.0 135 145 142 141 110 135 115 130 105 101
1850.0 111 105 122 109 117 110 154 162 206 229
1890.0 247 267 285 297 253 252 213 198 150 142
1930.0 142 128 144 119 140 123 137 112 112 98
1970.0 94 88 77 86 76 74 63 72 66 75
2010.0 71 62 70 69 85 81 94 93 104 109
2050.0 116 120 114 120 111 112 92 99 90 89
2090.0 85 87 100 100 109 106 112 108 111 103
2130.0 103 104 107 108 110 115 103 105 99 101
2170.0 97 86 82 72 75 61 63 58 60 58
2210.0 62 63 63 70 66 78 80 92 99 110
2250.0 115 122 134 134 130 131 122 111 111 111
2290.0 103 105 105 116 107 114 112 108 113 135
2330.0 120 134 130 129 166 152 161 146 154 166
2370.0 189 204 180 182 144 126 93 80 75 73
2410.0 75 84 86 90 97 104 109 113 122 126
2450.0 135 148 153 162 168 169 162 166 159 157
2490.0 151 143 134 126 121 109 105 92 89 80
2530.0 66 64 64 57 50 52 44 53 42 50
2570.0 44 50 50 52 58 52 62 61 58 60
2610.0 67 66 73 72 78 90 98 108 102 110
2650.0 95 99 103 86 74 64 61 50 52 40
2690.0 43 45 33 39 34 33 31 38 38 40
2730.0 33 44 47 45 45 37 46 44 46 44
2770.0 50 56 55 69 76 78 85 95 91 91
2810.0 90 84 84 73 61 48 48 34 28 32
2850.0 22 17 13 5 3 7 0 2 5 11
2890.0 21 22 33 37 49 55 63 64 69 60
2930.0 51 51 31 55 62 68 66 69 72 78
2970.0 79 82 92 88 85 114 124 155 215 305
3010.0 422 548 644 731 885 1109 1332 1565 1752 1885
3050.0 1897 1866 1806 1550 1209 981 842 710 608 533
3090.0 486 439 401 366 331 298 253 225 183 160
3130.0 128 106 87 77 61 58 44 41 26 24
3170.0 33 35 36 39 41 58 51 66 73 97
3210.0 109 122 142 141 137 134 133 99 91 83
3250.0 65 60 61 44 55 59 35 35 36 45
3290.0 31 46 33 36 52 43 39 41 57 66
3330.0 83 116 126 101 107 107 106 115 114 127
3370.0 140 143 172 190 234 288 374 492 604 668
3410.0 713 765 782 731 623 548 486 391 287 218
3450.0 183 174 165 175 194 241 294 352 440 491
3490.0 544 534 562 590 530 470 417 378 341 281
3530.0 219 162 128 80 82 60 69 50 58 52
3570.0 78 81 54 86 65 98 84 104 90 66
3610.0 98 94 146 168 305 501 966 1626 2624 3498
3650.0 3822 3590 3605 3235 2806 1369 607 319 134 131
3690.0 83 109 30 82 51 36 79 67 68 72
3730.0 60 98 106 49 54 96 92 70 96 64
3770.0 70 74 72 92 66 75 49 38 75 70
3810.0 88 68 83 73 83 82 100 116 140 167
3850.0 129 183 145 149 158 124 112 88 85 75
3890.0 118 84 89 76 116 102 122 106 105 101
3930.0 92 124 125 124 112 120 145 134 127 107
##END=
