##TITLE=Cyclopentanemethanol, 1-phenyl-
##JCAMP-DX=4.24
##DATA TYPE=INFRARED SPECTRUM
##ORIGIN=Sadtler Research Labs Under US-EPA Contract
##OWNER=NIST Standard Reference Data Program
##CAS REGISTRY NO=59115-90-1
##MOLFORM=C 12 H 16 O
##XUNITS=1/CM
##YUNITS=ABSORBANCE
##XFACTOR=1.0
##YFACTOR=0.000073337
##DELTAX=4.0
##FIRSTX=450.0
##LASTX=3966.0
##FIRSTY=0.008654
##MAXX=3966
##MINX=450
##MAXY=0.73337
##MINY=0
##NPOINTS=880
##XYDATA=(X++(Y..Y))
450.0 118 90 14 53 111 97 83 90 99 90
490.0 81 76 93 87 122 134 146 180 226 217
530.0 241 268 258 277 323 365 450 449 470 477
570.0 448 381 362 340 299 283 261 247 243 247
610.0 246 258 252 257 270 256 277 286 290 276
650.0 276 279 267 317 319 444 479 530 714 1066
690.0 1808 2656 3481 3546 3073 2209 1441 949 652 533
730.0 458 438 448 501 608 828 1090 1317 1371 1235
770.0 919 590 358 231 162 150 138 138 132 124
810.0 121 132 127 127 118 116 127 145 143 169
850.0 188 183 186 187 186 182 176 192 191 194
890.0 210 238 273 293 288 264 233 213 210 221
930.0 239 283 339 419 502 557 576 543 493 440
970.0 405 402 446 533 663 826 964 1090 1151 1158
1010.0 1150 1165 1263 1508 1976 2588 3240 3882 4358 4619
1050.0 4660 4337 3782 3096 2388 1788 1378 1113 943 822
1090.0 717 631 561 502 452 415 386 373 367 363
1130.0 358 353 358 359 373 390 421 457 503 554
1170.0 612 656 693 714 712 682 625 556 503 464
1210.0 433 419 424 427 434 446 456 467 467 467
1250.0 470 478 499 521 533 525 508 486 461 445
1290.0 436 444 461 477 491 501 509 529 551 590
1330.0 620 634 640 609 568 518 477 464 511 593
1370.0 726 880 984 1011 948 807 646 509 401 341
1410.0 295 271 272 256 265 301 378 489 635 804
1450.0 964 1072 1199 1223 1194 1158 1101 1071 1089 1214
1490.0 1422 1591 1551 1314 930 531 304 218 184 154
1530.0 147 140 144 130 109 76 78 77 75 81
1570.0 109 139 200 242 330 460 635 772 772 659
1610.0 444 256 146 93 73 48 47 46 33 47
1650.0 48 55 58 59 72 71 65 51 48 47
1690.0 38 41 49 63 57 61 73 105 107 130
1730.0 184 227 243 241 219 171 125 85 71 61
1770.0 65 68 71 85 112 142 178 186 176 140
1810.0 106 82 58 39 31 26 13 13 19 28
1850.0 29 40 65 83 101 118 122 123 122 99
1890.0 77 51 30 20 17 21 18 26 39 53
1930.0 84 112 142 161 161 155 145 118 85 52
1970.0 22 10 5 6 5 10 6 2 5 3
2010.0 7 7 9 7 8 10 11 14 17 16
2050.0 18 19 19 20 25 25 24 30 26 28
2090.0 26 22 20 21 20 18 13 11 12 12
2130.0 8 1 2 5 1 2 8 12 12 15
2170.0 17 17 20 19 21 21 16 20 20 17
2210.0 12 13 12 12 12 14 15 13 13 14
2250.0 15 17 20 20 18 16 16 21 22 27
2290.0 29 38 45 55 61 72 84 83 95 77
2330.0 66 61 57 56 113 59 120 73 98 75
2370.0 68 52 58 50 37 20 15 17 13 19
2410.0 14 15 11 13 14 17 15 13 16 11
2450.0 12 13 13 13 15 15 11 6 10 10
2490.0 12 15 14 10 10 9 11 14 11 13
2530.0 13 12 11 13 12 10 18 13 18 21
2570.0 25 27 33 40 35 39 43 42 40 47
2610.0 33 31 36 36 32 38 41 44 47 50
2650.0 47 55 53 53 59 60 63 70 71 73
2690.0 72 72 81 88 93 100 113 111 121 126
2730.0 131 136 135 142 140 148 150 154 153 156
2770.0 164 172 181 189 198 209 219 225 238 244
2810.0 254 265 276 302 333 374 424 491 573 675
2850.0 805 985 1267 1708 2339 3119 3910 4524 4779 4611
2890.0 4080 3418 2829 2490 2431 2615 2969 3437 3926 4309
2930.0 4540 4638 4716 4896 5286 5940 6916 8225 9479 10000
2970.0 9227 7459 5346 3602 2476 1802 1395 1129 949 850
3010.0 818 843 932 1079 1263 1467 1613 1638 1547 1379
3050.0 1228 1279 1526 1913 2305 2398 2239 1889 1517 1332
3090.0 1313 1213 1032 824 650 513 414 329 247 183
3130.0 138 108 98 88 84 80 79 69 65 61
3170.0 42 27 25 23 30 27 16 22 18 26
3210.0 18 26 18 18 23 16 19 17 14 18
3250.0 15 15 10 13 16 13 15 21 13 18
3290.0 26 20 27 20 21 18 20 14 12 23
3330.0 19 6 14 15 19 22 13 13 14 15
3370.0 17 9 11 4 9 7 11 14 16 11
3410.0 10 21 17 7 23 10 8 8 17 18
3450.0 10 21 15 7 10 13 8 11 16 15
3490.0 13 17 17 22 9 7 14 18 16 17
3530.0 31 37 28 42 38 29 33 37 34 36
3570.0 30 25 30 31 30 50 74 72 88 140
3610.0 228 425 711 918 980 917 684 507 375 329
3650.0 356 350 393 416 478 483 445 357 269 213
3690.0 147 122 89 95 92 96 79 72 63 57
3730.0 67 55 28 52 52 60 51 34 48 27
3770.0 43 38 38 49 38 39 42 27 29 44
3810.0 16 44 24 49 30 25 39 37 43 52
3850.0 23 53 50 44 15 41 35 11 24 17
3890.0 32 29 51 55 51 41 43 35 42 0
3930.0 25 2 22 14 29 44 33 13 43 32
##END=
