##TITLE=Formic acid, butyl ester
##JCAMP-DX=4.24
##DATA TYPE=INFRARED SPECTRUM
##ORIGIN=Sadtler Research Labs Under US-EPA Contract
##OWNER=NIST Standard Reference Data Program
##CAS REGISTRY NO=592-84-7
##MOLFORM=C 5 H 10 O 2
##XUNITS=1/CM
##YUNITS=ABSORBANCE
##XFACTOR=1.0
##YFACTOR=0.000078125
##DELTAX=4.0
##FIRSTX=450.0
##LASTX=3966.0
##FIRSTY=0.004063
##MAXX=3966
##MINX=450
##MAXY=0.78125
##MINY=0
##NPOINTS=880
##XYDATA=(X++(Y..Y))
450.0 52 65 59 24 28 48 42 57 84 100
490.0 75 64 34 57 103 85 103 78 99 80
530.0 29 47 51 33 53 57 99 27 9 46
570.0 62 86 80 82 80 118 103 57 87 109
610.0 97 70 64 129 67 107 102 134 123 121
650.0 103 111 97 96 68 105 120 119 118 94
690.0 102 105 101 128 120 129 118 128 142 158
730.0 170 192 214 220 218 224 198 195 190 187
770.0 180 167 161 166 173 174 161 166 198 193
810.0 200 205 258 257 241 247 228 188 176 185
850.0 181 163 146 150 153 161 160 186 194 201
890.0 233 240 246 259 275 303 324 360 373 374
930.0 381 354 327 306 286 267 247 217 204 206
970.0 185 200 192 190 193 184 191 191 203 199
1010.0 210 222 227 225 231 228 230 228 227 240
1050.0 259 280 305 325 336 331 346 347 347 347
1090.0 354 372 389 417 529 554 650 743 849 973
1130.0 1123 1379 1727 2238 2943 3852 5040 6270 7671 9030
1170.0 9711 9982 10000 8749 7389 5768 4152 2872 1999 1471
1210.0 1100 897 755 666 631 614 610 609 606 597
1250.0 586 550 523 500 481 460 435 400 368 342
1290.0 318 315 307 318 308 303 290 263 243 223
1330.0 210 186 185 175 183 179 181 185 191 209
1370.0 229 268 302 319 308 294 282 224 187 163
1410.0 147 147 122 131 151 165 196 211 272 324
1450.0 367 423 441 539 567 586 527 512 454 375
1490.0 283 234 166 156 83 76 97 72 47 60
1530.0 77 53 58 21 56 64 59 19 33 65
1570.0 53 60 42 63 70 70 70 63 63 62
1610.0 62 66 37 60 53 66 60 47 74 55
1650.0 57 9 87 83 90 79 95 112 135 129
1690.0 196 239 282 363 506 656 840 1089 1462 1905
1730.0 2510 3534 5567 8139 9067 8793 8990 8301 5156 3182
1770.0 2251 1700 1325 994 807 697 596 427 283 209
1810.0 163 131 106 90 75 60 66 61 59 40
1850.0 55 55 61 55 48 36 48 47 55 47
1890.0 51 51 57 54 54 54 60 53 52 54
1930.0 52 55 55 51 51 51 51 51 52 58
1970.0 58 63 63 63 64 64 62 66 63 63
2010.0 55 57 56 56 55 56 56 56 57 61
2050.0 61 61 61 61 61 66 61 67 67 65
2090.0 66 66 59 59 63 60 60 57 52 52
2130.0 46 45 40 39 38 33 35 32 33 29
2170.0 32 32 32 32 32 31 31 31 31 28
2210.0 31 27 27 25 24 23 23 23 22 22
2250.0 29 29 24 28 28 28 33 32 34 40
2290.0 48 46 47 59 70 79 80 78 97 101
2330.0 105 108 107 103 115 97 102 103 101 84
2370.0 72 67 54 45 38 32 23 24 29 24
2410.0 24 31 24 28 23 23 16 16 16 16
2450.0 15 16 16 16 9 8 8 8 13 8
2490.0 15 15 21 14 14 16 15 15 22 17
2530.0 15 15 15 15 15 15 15 15 15 15
2570.0 16 17 16 18 20 24 19 22 22 23
2610.0 23 23 23 24 24 16 19 23 23 24
2650.0 24 28 27 29 29 31 31 37 37 37
2690.0 44 45 40 47 50 56 68 81 81 89
2730.0 88 88 76 82 77 71 76 80 77 77
2770.0 70 70 65 70 71 71 71 77 79 90
2810.0 89 100 110 125 139 153 179 198 232 271
2850.0 325 379 446 525 622 734 882 1058 1237 1334
2890.0 1401 1466 1485 1521 1617 1777 1996 2253 2528 2738
2930.0 2830 2857 2881 2796 2650 2579 2603 2664 2792 2981
2970.0 3171 3103 2923 2636 2147 1623 1209 903 670 507
3010.0 389 309 246 204 180 153 142 133 127 120
3050.0 114 101 95 87 80 81 68 66 63 67
3090.0 63 60 58 68 69 76 89 94 90 83
3130.0 66 57 47 45 44 35 39 32 38 33
3170.0 33 34 32 40 39 43 40 40 40 33
3210.0 34 34 34 21 26 27 21 26 26 23
3250.0 28 25 20 20 20 20 15 22 14 22
3290.0 19 15 19 19 18 23 22 15 22 21
3330.0 22 16 20 18 15 16 20 19 18 24
3370.0 21 17 22 16 16 16 16 15 12 21
3410.0 17 12 17 23 17 23 29 23 24 22
3450.0 34 44 53 55 73 90 98 114 108 115
3490.0 95 69 49 45 37 17 25 21 19 12
3530.0 17 18 26 32 12 26 19 26 26 10
3570.0 13 15 21 18 20 12 20 19 14 19
3610.0 8 14 15 18 14 7 14 25 26 21
3650.0 9 21 21 41 46 22 20 14 36 37
3690.0 15 25 28 16 28 15 16 29 27 20
3730.0 16 9 2 14 2 2 10 22 29 29
3770.0 23 31 35 31 26 23 27 18 11 18
3810.0 17 24 18 18 23 22 18 10 18 25
3850.0 18 6 18 18 18 18 18 25 18 19
3890.0 21 24 21 19 19 23 24 25 19 19
3930.0 19 26 26 25 33 35 0 2 2 2
##END=
