##TITLE=Diisobutyl sulfide
##JCAMP-DX=4.24
##DATA TYPE=INFRARED SPECTRUM
##ORIGIN=Sadtler Research Labs Under US-EPA Contract
##OWNER=NIST Standard Reference Data Program
##CAS REGISTRY NO=592-65-4
##MOLFORM=C 8 H 18 S
##XUNITS=1/CM
##YUNITS=ABSORBANCE
##XFACTOR=1.0
##YFACTOR=0.000129398
##DELTAX=4.0
##FIRSTX=450.0
##LASTX=3966.0
##FIRSTY=0.000000
##MAXX=3966
##MINX=450
##MAXY=1.29398
##MINY=0
##NPOINTS=880
##XYDATA=(X++(Y..Y))
450.0 0 528 714 639 893 975 818 844 802 864
490.0 882 721 784 866 854 869 1006 1023 1034 968
530.0 934 1027 1047 871 918 954 918 864 785 882
570.0 721 681 738 642 741 691 721 713 663 660
610.0 615 578 606 645 603 616 676 608 660 655
650.0 662 667 666 706 728 745 752 786 766 909
690.0 1104 1210 1201 1003 889 919 923 905 845 852
730.0 906 1144 1070 1040 1070 1109 1020 991 859 771
770.0 750 740 682 715 753 814 789 858 856 831
810.0 856 848 826 815 805 810 805 831 829 812
850.0 880 867 893 927 924 930 922 925 911 917
890.0 938 960 997 1022 1053 1105 1130 1223 1257 1304
930.0 1319 1306 1296 1342 1347 1309 1244 1207 1158 1132
970.0 1082 1073 1074 1062 1011 997 946 968 942 909
1010.0 886 861 852 855 876 841 827 840 852 875
1050.0 867 883 917 948 1005 1020 997 1005 980 970
1090.0 954 958 973 970 965 954 984 1018 1027 1054
1130.0 1115 1173 1227 1180 1089 1039 1090 1218 1324 1447
1170.0 1476 1414 1290 1137 1046 1034 1027 1046 1060 1095
1210.0 1163 1208 1220 1221 1217 1305 1519 1728 1787 1657
1250.0 1371 1065 890 790 716 668 624 608 588 578
1290.0 574 567 579 597 628 688 770 869 962 998
1330.0 997 918 822 762 718 721 758 868 1043 1245
1370.0 1423 1539 1685 1836 1879 1768 1495 1147 898 841
1410.0 826 834 882 899 983 1092 1227 1240 1164 1120
1450.0 1222 1384 1559 1765 1879 1935 1804 1585 1329 1087
1490.0 916 798 724 690 676 641 618 620 607 586
1530.0 588 572 598 558 555 553 564 599 572 599
1570.0 626 625 656 662 663 670 686 664 657 662
1610.0 645 667 628 630 608 602 597 579 566 574
1650.0 563 560 558 552 567 559 567 545 563 535
1690.0 543 547 546 533 528 530 528 526 502 504
1730.0 518 502 511 497 515 516 509 515 518 519
1770.0 523 516 514 516 518 515 523 510 520 511
1810.0 519 520 514 522 513 514 506 508 511 510
1850.0 507 511 505 506 507 510 505 512 511 514
1890.0 512 512 508 509 506 507 503 505 501 501
1930.0 506 505 507 506 508 507 514 511 512 510
1970.0 513 511 513 511 510 510 511 514 515 516
2010.0 516 520 522 524 523 523 526 526 526 526
2050.0 527 526 529 530 533 532 531 528 533 532
2090.0 531 531 529 532 535 537 537 536 537 536
2130.0 538 537 540 539 538 535 535 532 534 536
2170.0 539 540 538 542 546 546 548 546 547 545
2210.0 548 545 543 545 546 546 548 548 552 553
2250.0 557 561 561 563 564 567 570 575 576 583
2290.0 588 595 607 610 617 629 628 636 634 639
2330.0 649 649 650 647 647 663 706 679 670 640
2370.0 621 616 608 612 613 609 608 605 606 604
2410.0 608 608 607 608 607 609 613 610 615 613
2450.0 614 615 613 617 621 621 629 629 631 637
2490.0 640 643 648 651 653 653 659 660 660 661
2530.0 666 671 671 672 676 680 686 686 690 687
2570.0 692 695 697 702 703 699 707 710 716 718
2610.0 726 734 745 755 764 766 764 758 754 753
2650.0 755 761 764 772 781 779 782 780 781 776
2690.0 773 773 771 772 773 777 785 797 817 835
2730.0 852 868 864 856 848 841 837 840 846 854
2770.0 856 859 857 858 867 878 897 917 932 954
2810.0 986 1034 1083 1142 1187 1224 1256 1294 1335 1356
2850.0 1362 1368 1409 1544 1813 2303 2990 3575 3852 3817
2890.0 3546 3323 3398 3790 4288 4659 4809 4718 4627 4634
2930.0 4791 5062 5289 5423 5448 5631 6239 7295 8991 10000
2970.0 9871 8952 6815 4927 3411 2276 1708 1429 1254 1160
3010.0 1089 1041 1000 969 959 939 927 930 933 945
3050.0 950 951 944 930 924 911 900 885 865 851
3090.0 839 832 826 815 811 805 804 802 801 802
3130.0 798 798 795 788 794 784 789 791 782 792
3170.0 789 782 784 782 781 765 760 745 729 718
3210.0 707 690 680 661 652 649 637 627 621 617
3250.0 610 600 606 590 589 586 583 580 575 571
3290.0 567 567 571 567 572 568 570 568 567 556
3330.0 563 561 558 562 557 561 559 563 558 563
3370.0 563 567 562 567 564 559 558 562 556 558
3410.0 555 551 552 553 546 542 547 553 546 548
3450.0 548 544 546 548 546 557 549 549 550 551
3490.0 551 547 556 554 552 548 544 551 545 546
3530.0 546 549 550 553 556 549 550 553 552 558
3570.0 546 553 554 564 555 568 552 565 557 566
3610.0 560 562 578 553 570 557 563 563 567 566
3650.0 584 542 572 563 569 575 558 570 562 587
3690.0 563 559 571 565 557 579 561 580 572 576
3730.0 579 571 583 572 588 554 600 570 576 570
3770.0 567 566 568 563 567 568 574 567 581 564
3810.0 583 563 590 576 580 587 589 572 585 574
3850.0 583 569 571 580 580 594 578 567 569 581
3890.0 581 595 567 580 564 585 585 571 568 567
3930.0 566 568 578 585 567 557 553 576 584 573
##END=
