##TITLE=Carbonochloridic acid, butyl ester
##JCAMP-DX=4.24
##DATA TYPE=INFRARED SPECTRUM
##ORIGIN=Sadtler Research Labs Under US-EPA Contract
##OWNER=NIST Standard Reference Data Program
##CAS REGISTRY NO=592-34-7
##MOLFORM=C 5 H 9 Cl O 2
##XUNITS=1/CM
##YUNITS=ABSORBANCE
##XFACTOR=1.0
##YFACTOR=0.000067871
##DELTAX=4.0
##FIRSTX=450.0
##LASTX=3966.0
##FIRSTY=0.000475
##MAXX=3966
##MINX=450
##MAXY=0.67871
##MINY=0
##NPOINTS=880
##XYDATA=(X++(Y..Y))
450.0 7 17 10 59 109 155 122 148 137 178
490.0 156 169 171 190 204 210 183 165 157 99
530.0 125 52 112 85 75 95 158 83 147 107
570.0 144 105 91 115 73 94 105 172 113 142
610.0 86 116 133 153 120 119 133 127 172 120
650.0 165 123 198 112 165 202 220 242 292 336
690.0 324 372 333 327 273 252 169 214 155 190
730.0 174 179 225 246 214 223 232 204 267 227
770.0 272 274 325 365 468 505 552 600 629 609
810.0 625 689 697 838 930 1064 1093 1077 935 859
850.0 777 699 621 542 457 370 315 270 247 211
890.0 239 241 216 206 198 188 208 220 212 266
930.0 333 393 396 416 386 394 358 362 335 327
970.0 298 286 262 254 262 242 263 254 255 248
1010.0 268 270 267 245 243 217 209 214 216 267
1050.0 289 350 376 422 418 428 393 392 373 403
1090.0 438 493 571 675 865 1115 1466 1858 2449 3155
1130.0 4211 5612 7212 8588 9935 9878 10000 9226 8181 7195
1170.0 5572 4002 2614 1811 1344 1107 921 825 744 693
1210.0 639 595 568 542 551 545 598 632 735 820
1250.0 974 1105 1253 1293 1249 1135 992 874 747 623
1290.0 507 444 412 423 392 394 347 332 295 286
1330.0 269 255 240 224 231 220 239 220 249 250
1370.0 286 315 366 390 414 406 383 366 314 290
1410.0 225 201 188 192 182 204 220 260 259 294
1450.0 338 387 493 493 554 525 544 449 381 292
1490.0 269 198 192 152 180 166 132 145 155 134
1530.0 113 133 119 175 122 109 115 152 139 106
1570.0 122 92 127 89 94 87 101 87 100 87
1610.0 99 90 122 98 105 98 95 130 91 113
1650.0 111 186 99 108 102 130 117 120 118 161
1690.0 123 123 160 166 148 131 148 186 176 178
1730.0 214 280 303 365 464 601 757 945 1115 1314
1770.0 1576 2035 2685 3655 4759 5559 5643 5509 4584 3308
1810.0 2296 1564 1092 785 623 473 375 286 247 215
1850.0 179 153 139 124 115 116 97 102 90 90
1890.0 85 94 78 80 78 78 77 84 77 74
1930.0 77 74 81 78 83 74 84 73 82 74
1970.0 88 82 88 82 80 81 72 77 72 73
2010.0 65 72 64 65 57 64 58 62 59 60
2050.0 59 59 60 62 62 55 68 54 61 61
2090.0 67 55 61 54 64 59 55 58 53 58
2130.0 51 52 51 51 51 50 50 50 50 50
2170.0 49 49 49 49 48 49 49 41 47 47
2210.0 48 48 46 46 47 47 47 53 45 60
2250.0 53 59 59 67 65 83 75 82 85 87
2290.0 92 85 93 92 100 93 104 79 86 73
2330.0 61 38 44 47 54 47 32 41 23 62
2370.0 39 59 48 57 40 38 38 37 37 29
2410.0 36 35 37 37 37 31 35 36 37 33
2450.0 35 27 35 27 26 34 25 35 24 34
2490.0 24 35 22 31 24 25 25 22 25 21
2530.0 27 22 32 17 23 17 29 21 29 21
2570.0 28 29 27 28 25 23 22 28 21 27
2610.0 19 27 18 25 25 25 19 22 20 20
2650.0 25 14 26 18 25 17 25 24 25 25
2690.0 25 25 26 26 26 26 26 26 20 34
2730.0 26 34 27 34 29 40 38 39 40 39
2770.0 40 35 35 29 44 36 51 37 50 47
2810.0 47 57 64 63 68 72 81 95 96 141
2850.0 149 186 204 241 281 333 409 502 611 666
2890.0 688 645 592 527 540 544 591 629 684 720
2930.0 777 849 969 1108 1209 1254 1260 1288 1397 1643
2970.0 1873 2039 1916 1667 1286 946 704 545 426 335
3010.0 279 217 186 145 137 103 106 89 99 80
3050.0 77 67 53 54 52 47 39 39 40 40
3090.0 31 42 31 41 33 33 34 39 36 31
3130.0 31 25 40 27 41 40 30 35 43 22
3170.0 27 29 34 31 33 41 32 35 29 35
3210.0 16 31 30 23 9 28 18 26 28 15
3250.0 23 11 30 16 25 17 24 12 24 20
3290.0 29 22 14 24 14 16 16 19 13 26
3330.0 13 27 20 27 15 25 20 16 28 16
3370.0 26 7 29 8 37 22 35 17 29 13
3410.0 21 25 15 22 11 23 3 24 10 24
3450.0 16 29 15 22 14 22 6 14 18 19
3490.0 19 4 35 12 26 14 16 12 16 17
3530.0 23 27 28 34 27 50 43 58 57 68
3570.0 60 54 38 45 28 39 29 23 23 16
3610.0 33 28 34 27 27 35 28 11 25 30
3650.0 60 38 38 26 30 52 37 55 23 38
3690.0 48 38 25 41 19 41 42 33 31 38
3730.0 43 44 66 46 82 70 65 43 50 43
3770.0 50 46 53 49 44 48 47 62 65 66
3810.0 59 60 67 67 66 65 65 118 42 50
3850.0 63 70 69 54 68 69 69 62 66 57
3890.0 54 58 59 60 58 54 50 55 42 41
3930.0 27 35 29 35 38 46 0 3 3 3
##END=
