##TITLE=1-Propene, 3,3'-thiobis-
##JCAMP-DX=4.24
##DATA TYPE=INFRARED SPECTRUM
##ORIGIN=Sadtler Research Labs Under US-EPA Contract
##OWNER=NIST Standard Reference Data Program
##CAS REGISTRY NO=592-88-1
##MOLFORM=C 6 H 10 S
##XUNITS=1/CM
##YUNITS=ABSORBANCE
##XFACTOR=1.0
##YFACTOR=0.000054880
##DELTAX=4.0
##FIRSTX=450.0
##LASTX=3966.0
##FIRSTY=0.000000
##MAXX=3966
##MINX=450
##MAXY=0.5488
##MINY=0
##NPOINTS=880
##XYDATA=(X++(Y..Y))
450.0 0 98 294 102 341 198 239 311 209 62
490.0 121 210 245 281 305 329 266 438 317 435
530.0 351 650 541 515 604 489 517 514 607 611
570.0 689 731 759 1072 1265 1264 1322 1309 1127 976
610.0 775 572 439 390 354 306 298 292 295 263
650.0 326 263 264 294 248 252 218 248 210 252
690.0 239 248 245 283 328 355 432 481 593 742
730.0 866 946 1138 1433 1677 1914 1951 2026 1775 1493
770.0 1118 799 577 476 434 365 370 337 359 338
810.0 384 424 464 528 514 558 558 577 547 563
850.0 556 613 617 676 757 854 954 1112 1251 1433
890.0 1647 1949 2563 3639 5815 7722 9740 10000 9603 8257
930.0 5506 3729 2805 2065 1727 1479 1420 1315 1408 1550
970.0 1876 2408 3170 3996 4374 4607 4122 3524 2606 1815
1010.0 1358 1092 936 793 709 634 623 555 538 525
1050.0 515 510 525 597 656 743 787 809 768 735
1090.0 662 567 506 434 402 340 346 311 306 287
1130.0 290 283 286 298 300 312 333 354 350 387
1170.0 411 452 480 510 573 616 709 816 980 1225
1210.0 1631 2254 2946 3536 3712 3620 3246 2556 1785 1326
1250.0 1046 852 718 613 577 525 501 482 483 480
1290.0 521 553 557 530 505 463 411 387 356 353
1330.0 331 330 322 313 328 320 327 327 344 357
1370.0 377 395 421 486 557 718 875 1098 1338 1564
1410.0 1722 1907 2089 2224 2319 2390 2239 1819 1507 1141
1450.0 847 666 517 437 382 360 336 329 317 320
1490.0 326 317 315 312 319 301 302 284 275 264
1530.0 252 244 217 234 215 243 235 246 235 287
1570.0 300 305 299 321 318 306 320 311 335 374
1610.0 463 573 765 1096 1575 2238 2802 3054 3062 2825
1650.0 2145 1249 728 494 380 311 284 248 258 230
1690.0 243 248 229 231 251 276 281 293 294 305
1730.0 323 314 288 278 272 244 225 217 205 193
1770.0 185 179 182 193 197 196 205 220 233 249
1810.0 285 327 406 522 714 912 1040 1109 1122 1021
1850.0 820 621 458 360 294 266 238 218 215 210
1890.0 207 200 202 195 198 191 192 185 184 192
1930.0 185 186 180 203 202 221 233 249 251 259
1970.0 258 253 236 217 201 194 190 180 175 177
2010.0 169 166 157 153 146 143 126 121 124 125
2050.0 139 130 145 164 138 114 123 135 147 161
2090.0 169 189 176 175 166 161 164 163 166 161
2130.0 169 168 166 162 174 172 169 175 178 179
2170.0 175 172 158 166 168 165 160 157 157 157
2210.0 154 155 152 149 159 151 157 157 155 156
2250.0 150 161 160 157 154 155 151 153 159 162
2290.0 185 183 204 206 221 232 233 247 251 228
2330.0 201 184 154 132 99 176 284 257 138 56
2370.0 59 59 59 58 93 125 128 133 134 132
2410.0 132 129 134 130 121 123 118 115 119 114
2450.0 128 111 114 113 107 111 100 94 93 94
2490.0 96 95 96 97 87 89 84 84 79 80
2530.0 72 71 74 85 85 83 84 79 73 77
2570.0 77 73 59 69 66 63 64 74 80 82
2610.0 98 100 114 132 134 143 137 133 134 170
2650.0 181 213 215 213 193 159 127 122 106 98
2690.0 97 88 92 87 92 85 87 91 84 92
2730.0 78 85 84 87 79 86 83 77 95 92
2770.0 99 96 114 110 124 153 174 206 244 290
2810.0 324 371 402 448 474 478 489 481 522 523
2850.0 546 556 556 528 527 525 524 554 574 653
2890.0 744 921 1167 1533 1997 2576 3175 3521 3936 3855
2930.0 3260 2838 2454 2164 2040 1953 1814 1721 1663 1559
2970.0 1543 1653 1870 2144 2321 2361 2275 2118 1896 1789
3010.0 1867 1958 1983 1831 1631 1325 985 837 829 873
3050.0 932 1026 1120 1245 1386 1639 1950 2452 3106 3795
3090.0 4329 4083 3507 2958 1850 1103 700 509 411 343
3130.0 318 294 277 260 258 234 221 201 179 190
3170.0 175 181 162 165 146 153 160 151 138 147
3210.0 147 134 139 125 130 122 125 113 109 106
3250.0 114 114 113 124 134 137 113 104 111 108
3290.0 83 98 78 87 105 104 87 83 101 116
3330.0 92 78 62 97 80 111 84 88 60 98
3370.0 104 105 113 81 109 133 121 76 74 85
3410.0 82 91 116 91 86 90 99 77 96 87
3450.0 103 111 87 83 111 94 128 104 97 121
3490.0 119 114 148 124 138 139 116 87 118 106
3530.0 114 109 131 122 122 114 128 128 125 94
3570.0 110 149 135 131 134 149 130 140 109 151
3610.0 157 113 181 168 192 168 180 162 145 163
3650.0 169 126 167 151 178 171 147 149 162 206
3690.0 182 147 225 177 178 194 151 131 196 194
3730.0 148 170 143 146 129 114 121 150 147 148
3770.0 143 153 153 186 227 181 142 166 225 184
3810.0 138 130 135 129 161 172 185 131 122 202
3850.0 202 187 114 213 160 151 196 171 135 144
3890.0 197 186 191 235 197 224 185 209 226 250
3930.0 237 182 155 240 205 209 139 243 207 221
##END=
