##TITLE=1-Heptene
##JCAMP-DX=4.24
##DATA TYPE=INFRARED SPECTRUM
##ORIGIN=Sadtler Research Labs Under US-EPA Contract
##OWNER=NIST Standard Reference Data Program
##CAS REGISTRY NO=592-76-7
##MOLFORM=C 7 H 14
##XUNITS=1/CM
##YUNITS=ABSORBANCE
##XFACTOR=1.0
##YFACTOR=0.000106943
##DELTAX=4.0
##FIRSTX=450.0
##LASTX=3966.0
##FIRSTY=0.024597
##MAXX=3966
##MINX=450
##MAXY=1.06943
##MINY=0
##NPOINTS=880
##XYDATA=(X++(Y..Y))
450.0 230 91 154 78 147 55 116 65 64 72
490.0 116 123 55 55 2 73 79 90 53 94
530.0 64 72 106 112 50 73 133 93 158 80
570.0 103 100 102 120 63 80 85 110 109 154
610.0 161 202 257 288 333 402 378 358 347 296
650.0 262 215 193 171 162 170 130 146 113 140
690.0 152 141 151 150 166 167 209 200 234 255
730.0 291 278 272 251 213 211 178 184 173 181
770.0 182 173 167 151 124 76 104 83 98 74
810.0 90 90 96 111 115 137 120 160 168 188
850.0 194 211 226 227 251 264 289 313 362 428
890.0 544 713 919 1277 1681 2008 2102 2051 1800 1369
930.0 998 769 608 503 452 423 424 428 459 473
970.0 499 535 544 695 834 925 989 974 900 777
1010.0 626 513 430 378 346 327 321 317 323 320
1050.0 307 287 275 259 248 250 239 237 231 233
1090.0 233 235 247 254 259 249 254 236 236 237
1130.0 247 253 263 287 298 307 310 318 318 330
1170.0 319 307 276 240 210 183 174 169 177 173
1210.0 176 176 179 175 182 184 185 187 187 186
1250.0 182 185 187 185 194 195 210 220 234 232
1290.0 247 251 256 255 253 255 250 249 256 273
1330.0 292 316 333 347 348 342 336 331 345 355
1370.0 381 434 486 505 497 503 442 364 331 325
1410.0 321 342 364 387 417 474 560 671 797 903
1450.0 1018 1087 1156 1148 1074 1013 871 729 566 445
1490.0 321 252 197 141 125 123 86 92 89 92
1530.0 82 84 90 81 90 79 76 62 89 48
1570.0 61 54 68 54 68 67 71 76 86 102
1610.0 113 150 166 230 292 444 618 841 888 898
1650.0 810 645 356 220 159 117 92 88 59 84
1690.0 62 69 84 108 120 157 170 174 174 136
1730.0 127 150 178 188 208 220 217 194 176 170
1770.0 146 145 116 119 102 96 77 73 74 71
1810.0 78 99 135 172 204 196 200 161 116 73
1850.0 49 36 24 15 12 13 12 7 12 5
1890.0 6 3 8 6 5 5 5 2 1 2
1930.0 2 4 0 2 4 0 3 1 5 8
1970.0 14 16 24 28 22 19 24 18 13 14
2010.0 17 18 15 18 17 24 25 28 28 25
2050.0 25 28 28 20 12 12 10 9 13 18
2090.0 20 21 10 13 10 12 12 11 11 13
2130.0 16 15 19 12 19 18 22 21 19 21
2170.0 22 22 19 21 20 22 18 23 21 22
2210.0 24 25 26 25 31 22 25 26 26 23
2250.0 27 26 28 33 29 32 34 34 33 29
2290.0 32 26 23 20 14 7 10 3 2 9
2330.0 10 24 39 35 80 37 0 3 51 98
2370.0 132 123 128 106 80 64 60 57 56 58
2410.0 55 56 52 58 55 57 58 56 60 55
2450.0 59 56 61 57 58 58 67 63 66 69
2490.0 67 65 64 67 73 75 74 75 80 78
2530.0 82 83 84 87 91 91 92 93 90 92
2570.0 100 100 104 108 112 116 118 118 118 119
2610.0 123 122 120 120 126 131 135 134 128 137
2650.0 143 155 159 166 174 173 165 165 166 167
2690.0 172 173 176 171 176 182 185 190 195 202
2730.0 211 217 234 242 248 242 240 229 233 237
2770.0 243 249 260 282 304 324 351 381 407 434
2810.0 457 494 535 587 656 743 874 1056 1294 1599
2850.0 1992 2450 2923 3351 3687 3886 3998 4120 4009 3743
2890.0 3578 3384 3220 3302 3660 4275 5083 6054 7198 8328
2930.0 9268 9860 10000 9562 8713 7798 6973 6470 6521 6864
2970.0 6785 6307 5671 4559 3444 2713 2256 1925 1700 1525
3010.0 1386 1260 1106 971 844 746 680 629 585 560
3050.0 549 551 579 632 708 814 940 1149 1398 1446
3090.0 1394 1301 1035 702 498 369 304 253 217 212
3130.0 194 179 168 166 160 156 155 150 152 136
3170.0 141 144 132 132 125 122 117 109 114 107
3210.0 103 94 89 84 89 74 69 69 64 60
3250.0 59 48 55 53 49 61 49 47 47 40
3290.0 45 45 38 48 56 49 52 41 47 45
3330.0 44 50 41 38 45 43 40 29 33 36
3370.0 47 44 41 37 42 32 41 31 29 39
3410.0 37 29 27 27 30 35 20 28 18 15
3450.0 23 21 21 25 37 28 22 27 34 27
3490.0 15 20 7 6 15 23 20 12 21 21
3530.0 32 25 29 25 8 25 21 18 42 32
3570.0 60 60 73 63 64 62 47 43 30 43
3610.0 54 56 52 55 66 74 77 62 59 52
3650.0 82 58 68 65 45 64 54 69 68 60
3690.0 61 75 75 64 56 61 66 65 56 65
3730.0 60 85 73 48 79 54 98 65 50 55
3770.0 58 66 43 73 58 60 29 44 39 74
3810.0 66 73 25 70 49 45 58 78 36 52
3850.0 41 63 105 52 73 76 60 50 50 34
3890.0 63 48 77 75 58 48 56 50 65 86
3930.0 49 30 35 28 17 29 24 27 48 74
##END=
