##TITLE=Hexane, 2,5-dimethyl-
##JCAMP-DX=4.24
##DATA TYPE=INFRARED SPECTRUM
##ORIGIN=Sadtler Research Labs Under US-EPA Contract
##OWNER=NIST Standard Reference Data Program
##CAS REGISTRY NO=592-13-2
##MOLFORM=C 8 H 18
##XUNITS=1/CM
##YUNITS=ABSORBANCE
##XFACTOR=1.0
##YFACTOR=0.000096024
##DELTAX=4.0
##FIRSTX=450.0
##LASTX=3966.0
##FIRSTY=0.000000
##MAXX=3966
##MINX=450
##MAXY=0.96024
##MINY=0
##NPOINTS=880
##XYDATA=(X++(Y..Y))
450.0 0 63 51 58 59 50 47 64 50 66
490.0 80 82 92 82 65 61 63 74 74 69
530.0 82 74 77 101 88 78 87 64 78 58
570.0 71 74 77 54 69 75 78 82 72 88
610.0 66 65 56 55 63 73 72 66 63 57
650.0 65 61 63 53 59 62 57 54 59 72
690.0 73 79 85 76 73 74 69 68 63 65
730.0 70 73 77 90 94 102 114 106 88 76
770.0 75 71 72 76 83 93 105 111 121 128
810.0 134 137 141 143 138 128 109 99 93 84
850.0 87 87 95 90 100 109 111 120 124 129
890.0 120 112 108 109 115 132 161 184 201 198
930.0 188 170 161 160 168 171 179 184 189 191
970.0 182 156 129 114 101 96 102 107 116 125
1010.0 141 157 166 160 157 155 155 155 153 148
1050.0 145 145 142 145 149 155 163 173 178 175
1090.0 165 154 145 134 124 118 115 115 119 123
1130.0 123 129 139 151 169 190 230 286 359 407
1170.0 410 380 314 233 177 148 136 135 137 141
1210.0 157 181 210 233 261 281 283 274 254 229
1250.0 202 191 192 196 201 196 185 172 158 150
1290.0 144 142 142 145 150 161 180 200 225 253
1330.0 296 368 455 492 469 426 405 443 551 707
1370.0 830 883 1011 1064 1025 926 793 596 378 260
1410.0 206 174 170 162 173 183 216 247 312 394
1450.0 509 660 829 1008 1130 1227 1186 1056 850 636
1490.0 448 313 229 197 162 182 192 192 180 166
1530.0 147 119 106 87 100 88 81 61 60 77
1570.0 77 94 95 117 103 89 75 73 72 76
1610.0 82 82 64 63 56 49 50 47 59 46
1650.0 63 25 63 58 59 51 60 55 65 48
1690.0 67 62 58 63 84 89 97 93 105 103
1730.0 106 97 107 102 110 104 96 90 80 74
1770.0 72 59 60 57 57 55 50 51 52 49
1810.0 46 45 44 44 43 42 43 41 46 41
1850.0 45 42 41 43 43 40 41 40 39 39
1890.0 39 41 38 37 39 39 40 37 40 37
1930.0 37 38 40 39 38 39 39 38 37 38
1970.0 37 35 35 34 35 36 34 32 33 34
2010.0 34 33 36 34 34 36 35 37 38 35
2050.0 35 37 36 36 35 34 32 33 34 35
2090.0 36 40 38 36 38 38 40 37 38 38
2130.0 41 39 40 38 39 40 38 40 39 39
2170.0 41 38 39 38 39 36 35 36 38 36
2210.0 36 37 38 37 41 40 41 40 42 43
2250.0 45 45 45 47 46 45 49 49 49 49
2290.0 52 55 57 58 59 62 63 65 66 71
2330.0 67 62 57 58 63 63 57 62 64 48
2370.0 50 58 60 60 56 54 54 55 52 49
2410.0 46 47 49 49 49 49 52 50 50 49
2450.0 47 47 49 50 50 51 54 52 53 55
2490.0 52 52 55 55 58 57 59 60 57 57
2530.0 59 61 59 60 61 61 64 67 68 70
2570.0 71 74 78 80 82 84 91 93 97 106
2610.0 109 111 115 111 108 109 110 106 106 105
2650.0 103 102 101 98 97 93 93 92 93 96
2690.0 101 101 104 109 112 118 125 137 152 167
2730.0 176 183 178 168 160 149 144 145 148 156
2770.0 157 162 162 163 172 180 192 206 222 236
2810.0 253 275 296 316 346 381 432 516 642 814
2850.0 1029 1250 1461 1683 1974 2405 2863 3163 3349 3338
2890.0 3092 2878 2797 2909 3215 3667 4135 4541 4896 5111
2930.0 5188 5157 5100 4940 4878 5195 6114 7857 9599 10000
2970.0 9456 7477 5014 2999 1616 966 671 517 429 370
3010.0 326 289 259 237 221 207 199 186 175 169
3050.0 163 156 151 151 151 147 148 147 148 146
3090.0 143 135 132 122 118 115 116 109 105 108
3130.0 108 108 113 111 112 115 117 119 122 124
3170.0 128 129 130 133 129 126 122 118 110 102
3210.0 95 84 73 65 59 55 50 44 46 45
3250.0 41 45 42 41 47 46 50 47 50 46
3290.0 47 46 48 44 48 47 48 52 52 58
3330.0 58 60 61 62 57 58 63 63 61 63
3370.0 57 57 57 53 50 59 54 54 57 56
3410.0 54 50 49 53 51 54 50 49 44 47
3450.0 50 50 53 52 54 48 44 49 55 51
3490.0 46 48 45 48 48 46 49 46 50 56
3530.0 44 51 50 47 56 53 52 47 45 55
3570.0 50 44 55 46 53 55 56 56 52 57
3610.0 57 55 48 63 57 51 54 48 63 65
3650.0 61 61 56 57 61 39 52 48 58 53
3690.0 46 60 60 55 56 58 56 66 67 59
3730.0 56 59 59 53 37 42 41 54 50 54
3770.0 51 56 59 51 66 65 56 70 51 64
3810.0 51 59 56 56 77 66 69 62 68 60
3850.0 72 39 47 52 51 48 52 60 74 60
3890.0 64 50 56 46 54 56 61 65 59 38
3930.0 46 57 53 60 59 60 46 52 62 47
##END=
