##TITLE=2-Hexene
##JCAMP-DX=4.24
##DATA TYPE=INFRARED SPECTRUM
##ORIGIN=Sadtler Research Labs Under US-EPA Contract
##OWNER=NIST Standard Reference Data Program
##CAS REGISTRY NO=592-43-8
##MOLFORM=C 6 H 12
##XUNITS=1/CM
##YUNITS=ABSORBANCE
##XFACTOR=1.0
##YFACTOR=0.000131198
##DELTAX=4.0
##FIRSTX=450.0
##LASTX=3966.0
##FIRSTY=0.008659
##MAXX=3966
##MINX=450
##MAXY=1.31198
##MINY=0
##NPOINTS=880
##XYDATA=(X++(Y..Y))
450.0 66 54 80 51 85 93 70 79 54 25
490.0 101 106 1 33 125 125 141 114 101 93
530.0 129 136 114 138 129 139 93 99 203 197
570.0 193 201 200 215 198 188 138 129 94 96
610.0 101 69 71 56 86 76 89 80 117 106
650.0 144 159 175 248 304 403 464 579 616 696
690.0 685 650 593 539 450 365 316 262 210 156
730.0 134 148 92 107 96 118 107 129 126 153
770.0 129 132 118 122 88 87 59 45 51 45
810.0 45 31 41 39 60 74 79 101 130 154
850.0 180 215 235 263 271 284 289 299 317 334
890.0 349 347 373 377 397 424 469 507 549 587
930.0 612 669 743 874 1029 1245 1489 1739 1864 1900
970.0 1950 1851 1626 1391 1196 1028 901 797 719 655
1010.0 624 609 597 585 585 608 616 649 659 674
1050.0 681 681 671 668 678 693 703 707 711 674
1090.0 635 591 562 519 480 462 453 451 441 439
1130.0 432 425 413 408 399 395 385 371 374 386
1170.0 408 420 429 408 377 335 306 287 282 294
1210.0 300 313 324 358 388 433 476 521 548 551
1250.0 545 535 528 507 493 482 477 455 430 409
1290.0 397 391 385 391 396 404 400 411 433 467
1330.0 517 551 569 576 593 618 642 653 706 774
1370.0 856 970 1076 1123 1122 1134 1077 958 845 770
1410.0 715 688 691 687 712 783 909 1041 1187 1332
1450.0 1481 1579 1661 1670 1582 1452 1284 1101 912 735
1490.0 592 482 399 335 300 245 212 194 183 167
1530.0 150 147 139 145 122 122 104 122 110 89
1570.0 83 85 83 81 74 75 72 86 83 92
1610.0 100 123 143 171 202 252 289 335 335 343
1650.0 325 339 294 279 279 263 258 264 271 337
1690.0 377 447 505 572 632 643 617 601 640 606
1730.0 536 488 465 435 436 427 433 413 387 352
1770.0 303 275 230 211 189 190 179 167 146 135
1810.0 111 96 80 59 56 43 39 25 23 25
1850.0 18 15 13 10 8 10 5 2 3 2
1890.0 4 2 5 0 4 4 0 7 4 7
1930.0 4 5 4 2 4 3 1 2 5 6
1970.0 7 7 12 16 22 25 32 34 39 39
2010.0 33 27 19 21 13 12 11 13 17 12
2050.0 9 14 12 11 12 9 8 10 7 8
2090.0 7 12 12 12 11 8 7 8 7 4
2130.0 5 5 7 7 6 4 8 7 6 5
2170.0 8 11 12 13 11 14 15 12 15 13
2210.0 12 15 13 12 10 11 12 13 13 11
2250.0 10 9 10 9 9 9 12 12 11 11
2290.0 8 10 4 10 10 4 12 11 15 18
2330.0 22 22 25 20 23 15 21 26 26 34
2370.0 37 28 30 35 30 34 34 33 37 32
2410.0 34 31 28 27 27 28 27 25 23 24
2450.0 27 25 25 28 26 28 26 26 27 28
2490.0 25 27 30 30 29 30 31 33 34 35
2530.0 40 36 36 39 36 36 35 39 42 42
2570.0 44 37 41 41 42 45 48 49 54 52
2610.0 51 51 56 53 52 52 55 67 68 71
2650.0 83 90 90 98 105 111 119 127 131 136
2690.0 138 139 148 154 160 167 175 183 195 212
2730.0 237 268 296 304 307 309 290 262 244 233
2770.0 239 247 262 275 294 318 337 365 385 413
2810.0 451 495 555 624 710 836 988 1186 1430 1708
2850.0 2000 2348 2794 3357 3907 4307 4775 5308 5436 5317
2890.0 5271 5187 4964 4887 5027 5311 5750 6430 7231 7955
2930.0 8619 9119 9560 9543 9208 8850 8689 8694 9153 9983
2970.0 10000 9585 9103 8205 6709 5258 4288 3667 3270 3040
3010.0 2956 2973 3004 2995 2912 2811 2614 2304 1981 1669
3050.0 1388 1155 970 828 726 651 595 544 504 466
3090.0 418 387 350 324 305 286 271 260 253 242
3130.0 230 213 203 193 184 165 156 157 144 140
3170.0 136 130 130 131 120 123 113 106 102 98
3210.0 92 85 78 72 67 62 58 58 55 52
3250.0 52 53 45 53 45 41 53 55 46 50
3290.0 47 50 42 40 41 43 42 44 42 36
3330.0 35 43 44 37 37 31 39 39 40 35
3370.0 32 41 41 30 34 28 41 37 39 35
3410.0 37 45 35 39 31 32 34 36 30 36
3450.0 36 34 24 19 25 24 31 28 24 27
3490.0 31 23 25 27 21 29 29 21 20 18
3530.0 20 24 16 25 23 23 24 35 40 46
3570.0 68 57 53 67 64 68 72 58 66 59
3610.0 58 55 58 73 63 93 80 77 104 107
3650.0 132 118 108 109 82 79 62 66 16 19
3690.0 8 20 13 23 22 23 2 9 6 17
3730.0 15 16 26 4 43 18 41 14 19 18
3770.0 22 16 20 25 13 24 26 40 24 26
3810.0 22 36 22 28 30 27 18 29 28 28
3850.0 34 33 32 26 15 26 27 21 6 33
3890.0 41 30 32 31 23 25 28 10 33 21
3930.0 54 33 24 2 41 25 9 64 27 37
##END=
