##TITLE=Ethane, 1-bromo-2-ethoxy-
##JCAMP-DX=4.24
##DATA TYPE=INFRARED SPECTRUM
##ORIGIN=Sadtler Research Labs Under US-EPA Contract
##OWNER=NIST Standard Reference Data Program
##CAS REGISTRY NO=592-55-2
##MOLFORM=C 4 H 9 Br O
##XUNITS=1/CM
##YUNITS=ABSORBANCE
##XFACTOR=1.0
##YFACTOR=0.000117532
##DELTAX=4.0
##FIRSTX=450.0
##LASTX=3966.0
##FIRSTY=0.000000
##MAXX=3966
##MINX=450
##MAXY=1.17532
##MINY=0
##NPOINTS=880
##XYDATA=(X++(Y..Y))
450.0 0 74 121 216 219 257 166 235 113 172
490.0 110 220 95 171 159 119 144 135 173 85
530.0 187 130 157 106 197 250 215 283 311 428
570.0 454 614 688 670 699 692 589 481 459 310
610.0 231 150 198 156 171 210 186 201 256 377
650.0 410 582 788 1093 1348 1635 1584 1399 1010 618
690.0 431 326 300 242 222 203 163 156 126 120
730.0 112 114 111 129 80 114 126 130 148 164
770.0 186 175 199 207 208 226 250 262 223 248
810.0 212 220 186 203 182 195 207 221 247 257
850.0 304 317 364 378 434 453 480 528 541 533
890.0 522 505 443 450 434 420 390 371 358 326
930.0 320 303 310 317 356 372 386 385 381 378
970.0 374 418 450 517 593 694 770 869 981 1050
1010.0 1131 1174 1201 1179 1199 1219 1298 1402 1507 1597
1050.0 1662 1740 1790 1883 2001 2165 2324 2509 2735 3039
1090.0 3549 4335 5563 6803 8046 8916 9616 9718 9867 10000
1130.0 9720 9546 8928 8049 6716 5578 4533 3682 3151 2835
1170.0 2593 2367 2206 2092 2017 1915 1865 1738 1677 1660
1210.0 1696 1703 1606 1568 1420 1273 1193 1145 1075 1009
1250.0 975 935 957 1000 1128 1314 1533 1672 1735 1773
1290.0 1715 1531 1313 1120 912 742 613 550 512 495
1330.0 505 533 599 720 977 1392 1744 1799 1776 1633
1370.0 1487 1662 1822 1921 1923 1644 1344 1216 1153 1142
1410.0 1099 1030 1010 1028 1026 1039 1061 1070 1065 1071
1450.0 1073 1067 990 870 809 779 723 671 634 598
1490.0 531 464 397 325 282 242 202 180 161 152
1530.0 130 133 121 127 106 107 97 105 97 89
1570.0 88 85 87 76 80 77 83 81 78 81
1610.0 78 85 78 87 74 84 84 89 81 86
1650.0 86 100 86 86 92 87 90 91 95 102
1690.0 98 103 112 128 132 139 156 167 180 186
1730.0 196 213 228 229 256 266 282 295 293 276
1770.0 256 233 194 172 152 142 131 130 120 110
1810.0 104 101 99 94 92 85 87 75 82 81
1850.0 80 79 85 89 86 92 90 90 93 101
1890.0 100 107 115 118 127 130 139 138 147 149
1930.0 146 155 157 160 157 165 160 160 153 149
1970.0 149 145 144 144 145 134 136 132 133 128
2010.0 124 124 120 121 115 115 109 109 108 112
2050.0 115 116 115 111 119 114 120 118 119 117
2090.0 116 122 116 124 119 127 124 128 127 131
2130.0 131 129 129 125 128 122 124 119 123 116
2170.0 113 117 117 117 117 123 120 124 122 123
2210.0 123 129 129 122 127 123 127 117 117 114
2250.0 109 113 113 117 111 116 108 110 111 112
2290.0 112 114 123 112 121 122 124 117 111 105
2330.0 92 80 79 86 74 102 102 104 74 74
2370.0 74 74 74 80 93 91 91 96 96 90
2410.0 94 94 94 96 97 97 95 95 91 94
2450.0 94 89 92 87 90 90 93 84 88 87
2490.0 90 88 83 84 81 82 79 84 81 81
2530.0 82 80 77 81 79 74 80 83 84 80
2570.0 85 88 88 93 100 105 104 109 113 122
2610.0 119 128 130 129 133 133 136 138 141 142
2650.0 150 157 164 179 180 182 181 194 191 206
2690.0 213 233 254 266 286 303 319 327 346 361
2730.0 378 392 405 419 416 433 437 439 450 465
2770.0 481 509 543 567 608 649 697 735 785 817
2810.0 859 905 959 1056 1180 1371 1595 1836 2083 2350
2850.0 2619 2894 3191 3499 3852 4209 4524 4721 4842 4725
2890.0 4461 4122 3788 3500 3182 2957 2749 2602 2492 2455
2930.0 2505 2699 2924 3030 3090 3056 2909 2847 2970 3220
2970.0 3614 4125 4532 4892 4924 4478 3778 3094 2453 1955
3010.0 1625 1362 1169 1021 917 806 712 616 536 464
3050.0 411 370 311 281 244 224 199 193 189 181
3090.0 173 165 167 167 170 153 150 132 146 143
3130.0 134 136 135 143 133 128 125 131 127 131
3170.0 123 121 133 132 128 126 138 129 131 131
3210.0 134 133 129 135 119 125 124 113 98 106
3250.0 96 102 96 102 101 104 107 108 116 101
3290.0 97 101 87 104 90 98 92 109 116 90
3330.0 89 104 105 74 97 118 109 93 103 82
3370.0 105 106 83 94 92 106 114 93 85 92
3410.0 101 112 83 81 110 97 99 93 97 98
3450.0 106 125 93 100 105 102 89 99 109 112
3490.0 98 103 94 97 108 96 94 103 99 93
3530.0 98 80 100 85 101 112 108 112 101 103
3570.0 110 99 118 104 116 105 98 121 142 131
3610.0 133 174 166 153 167 188 160 167 151 180
3650.0 148 144 159 193 164 159 171 186 175 144
3690.0 151 139 132 149 125 117 122 135 136 113
3730.0 121 105 110 107 128 111 118 124 141 126
3770.0 126 134 124 142 141 131 114 114 133 122
3810.0 123 133 110 111 139 122 131 94 113 120
3850.0 123 120 116 113 104 137 118 142 157 117
3890.0 129 121 115 143 123 130 146 116 147 106
3930.0 117 117 132 134 130 129 165 129 104 155
##END=
