##TITLE=2,4-Hexadiene
##JCAMP-DX=4.24
##DATA TYPE=INFRARED SPECTRUM
##ORIGIN=Sadtler Research Labs Under US-EPA Contract
##OWNER=NIST Standard Reference Data Program
##CAS REGISTRY NO=592-46-1
##MOLFORM=C 6 H 10
##XUNITS=1/CM
##YUNITS=ABSORBANCE
##XFACTOR=1.0
##YFACTOR=0.000074905
##DELTAX=4.0
##FIRSTX=450.0
##LASTX=3966.0
##FIRSTY=0.022621
##MAXX=3966
##MINX=450
##MAXY=0.74905
##MINY=0
##NPOINTS=880
##XYDATA=(X++(Y..Y))
450.0 302 258 208 144 106 66 0 45 73 27
490.0 43 6 8 20 49 45 74 34 57 106
530.0 120 156 114 106 89 85 84 68 79 48
570.0 56 75 151 237 410 492 500 577 558 424
610.0 282 191 129 120 137 143 154 187 219 263
650.0 309 383 480 603 727 941 1170 1385 1626 1851
690.0 2067 2261 2425 2535 2263 1959 1758 1532 1249 1014
730.0 780 557 444 353 295 236 197 199 197 191
770.0 206 223 247 271 332 425 551 673 818 925
810.0 1016 1173 1512 1199 1047 985 877 758 628 509
850.0 434 377 342 331 335 338 340 346 349 370
890.0 393 466 585 761 1037 1453 2073 2958 3875 4402
930.0 4613 4817 4621 4441 3961 3354 3506 3736 3929 4067
970.0 4196 4419 4765 4599 4037 3630 3274 2899 2482 2065
1010.0 1688 1377 1124 930 779 677 599 519 460 414
1050.0 374 342 311 300 285 276 272 268 253 244
1090.0 248 228 213 205 204 209 215 243 273 307
1130.0 324 325 311 297 270 241 224 222 213 199
1170.0 191 191 193 199 210 220 235 256 276 299
1210.0 333 374 428 451 446 452 459 406 367 344
1250.0 319 297 288 292 297 313 344 358 372 407
1290.0 438 439 439 450 443 433 450 455 437 426
1330.0 428 446 475 520 569 642 755 880 1020 1212
1370.0 1387 1480 1506 1508 1528 1512 1475 1541 1687 1750
1410.0 1709 1761 1903 1890 1817 1843 1944 2105 2391 2767
1450.0 2783 2621 2509 2457 2227 1829 1495 1273 1118 982
1490.0 861 782 723 669 663 626 625 620 617 607
1530.0 586 564 546 529 484 471 461 452 427 390
1570.0 372 349 340 310 303 303 313 328 352 380
1610.0 415 464 533 595 691 786 870 948 993 1060
1650.0 1124 1138 1019 961 919 769 548 421 372 369
1690.0 333 317 321 312 298 299 296 313 319 331
1730.0 327 331 321 311 299 286 277 262 260 271
1770.0 278 319 371 457 542 583 578 541 508 434
1810.0 335 277 241 223 206 200 204 222 260 294
1850.0 303 294 289 265 203 146 121 100 81 76
1890.0 72 75 74 76 79 75 75 71 69 67
1930.0 69 68 70 71 79 92 106 122 145 164
1970.0 184 198 193 185 181 169 159 161 171 178
2010.0 182 172 158 141 120 94 74 60 49 49
2050.0 50 47 45 47 46 47 48 45 40 37
2090.0 36 36 35 35 36 34 36 35 36 37
2130.0 40 39 37 36 41 40 41 38 36 41
2170.0 39 36 37 36 43 44 52 59 67 72
2210.0 69 66 59 53 50 50 47 49 50 46
2250.0 42 41 39 31 27 16 1 1 8 21
2290.0 41 59 71 74 71 72 64 58 44 43
2330.0 49 53 48 46 46 57 45 63 67 89
2370.0 94 108 118 131 134 129 122 117 109 104
2410.0 100 100 97 93 88 88 86 86 92 93
2450.0 94 98 103 111 121 123 124 120 120 105
2490.0 101 90 85 82 80 75 76 78 85 89
2530.0 93 93 95 94 90 85 82 73 71 72
2570.0 65 70 69 69 66 67 66 64 58 62
2610.0 61 62 58 54 53 53 54 53 56 54
2650.0 54 59 59 59 55 59 62 67 72 81
2690.0 92 96 102 109 121 131 147 167 206 269
2730.0 357 455 518 541 552 538 440 347 294 270
2770.0 273 278 284 296 315 332 344 358 381 406
2810.0 434 465 517 575 632 702 800 929 1093 1317
2850.0 1669 2239 3128 4221 5028 5268 5549 5659 5333 4959
2890.0 4883 4946 4866 4967 5192 5561 6329 7630 9115 9934
2930.0 9981 10000 9573 8298 7290 6140 5606 5490 5498 5286
2970.0 4911 4837 4834 4593 4420 4467 4699 5073 5525 6126
3010.0 6976 8032 9079 9757 9729 9526 9772 9576 8390 7035
3050.0 5866 4840 3900 3077 2433 1952 1600 1330 1129 971
3090.0 833 729 656 604 564 532 500 478 459 439
3130.0 418 390 357 324 287 251 219 194 178 161
3170.0 150 135 126 115 103 97 97 91 92 86
3210.0 86 88 83 83 84 78 75 73 70 63
3250.0 59 55 50 52 50 48 38 37 41 34
3290.0 33 34 29 29 29 27 28 24 28 25
3330.0 23 27 29 29 32 31 30 28 30 34
3370.0 37 39 41 40 41 43 38 39 36 35
3410.0 31 24 25 29 34 36 24 34 33 29
3450.0 26 28 24 29 28 30 29 32 26 28
3490.0 26 24 25 19 24 18 28 22 19 4
3530.0 9 10 6 10 3 10 15 15 18 6
3570.0 7 24 19 16 5 4 4 5 12 9
3610.0 5 15 16 16 24 26 18 15 17 19
3650.0 24 15 18 10 7 17 16 19 10 6
3690.0 17 5 5 0 2 2 9 3 0 0
3730.0 0 0 0 3 18 14 12 3 0 3
3770.0 0 3 0 3 6 12 10 4 21 12
3810.0 9 12 17 14 8 5 8 21 13 18
3850.0 22 29 15 4 13 17 10 10 4 9
3890.0 17 14 14 5 11 15 22 20 15 19
3930.0 34 24 23 28 18 20 26 9 5 18
##END=
