##TITLE=Octadecane
##JCAMP-DX=4.24
##DATA TYPE=INFRARED SPECTRUM
##ORIGIN=Sadtler Research Labs Under US-EPA Contract
##OWNER=NIST Standard Reference Data Program
##CAS REGISTRY NO=593-45-3
##MOLFORM=C 18 H 38
##XUNITS=1/CM
##YUNITS=ABSORBANCE
##XFACTOR=1.0
##YFACTOR=0.000174277
##DELTAX=4.0
##FIRSTX=450.0
##LASTX=3966.0
##FIRSTY=0.013245
##MAXX=3966
##MINX=450
##MAXY=1.74277
##MINY=0
##NPOINTS=880
##XYDATA=(X++(Y..Y))
450.0 76 86 57 65 33 93 53 38 9 34
490.0 36 17 51 49 47 31 58 37 43 45
530.0 64 34 37 47 39 59 34 44 31 50
570.0 43 36 42 35 44 45 58 49 54 41
610.0 51 44 49 44 50 49 43 49 44 49
650.0 49 53 48 45 55 48 44 48 53 58
690.0 67 68 87 97 119 142 158 171 174 164
730.0 147 137 124 114 100 99 90 86 80 86
770.0 75 68 68 56 57 51 50 49 51 50
810.0 55 51 47 44 42 46 40 42 45 44
850.0 42 37 44 42 45 44 48 45 44 51
890.0 48 50 47 49 45 45 43 45 46 45
930.0 41 40 41 40 42 42 42 39 39 39
970.0 36 38 35 38 37 36 37 39 38 40
1010.0 41 46 46 48 55 57 60 62 59 58
1050.0 58 55 54 56 55 57 56 57 56 56
1090.0 56 55 56 54 55 51 51 48 46 46
1130.0 46 44 43 41 41 42 40 43 42 44
1170.0 42 43 45 44 47 44 46 45 45 45
1210.0 48 48 48 50 50 53 55 60 59 66
1250.0 69 76 79 84 93 93 99 100 107 111
1290.0 121 129 141 150 154 153 145 136 128 130
1330.0 137 153 171 205 232 254 271 248 242 224
1370.0 217 191 195 199 194 160 126 112 98 98
1410.0 91 99 82 114 114 136 164 222 291 372
1450.0 475 557 653 716 705 626 474 336 249 173
1490.0 141 111 96 79 75 59 52 52 38 46
1530.0 29 38 21 39 15 29 16 34 23 24
1570.0 22 25 18 27 21 24 23 27 22 23
1610.0 24 18 25 16 23 13 18 15 16 8
1650.0 22 9 18 10 16 9 24 5 14 10
1690.0 13 11 17 16 24 21 21 26 31 27
1730.0 26 26 23 27 23 18 20 20 21 16
1770.0 16 16 17 10 16 7 13 8 8 9
1810.0 10 9 7 6 3 10 1 9 0 7
1850.0 4 7 5 6 3 5 6 1 7 3
1890.0 5 2 4 4 3 5 2 5 2 3
1930.0 4 5 4 2 4 2 5 3 4 3
1970.0 4 3 3 5 5 4 5 6 7 8
2010.0 8 11 9 11 13 15 13 13 14 13
2050.0 13 11 12 9 11 9 9 10 8 8
2090.0 7 9 7 8 6 8 7 8 7 6
2130.0 8 6 7 7 9 8 9 9 11 12
2170.0 9 11 10 11 9 8 8 7 9 9
2210.0 7 8 9 7 8 10 9 8 9 8
2250.0 7 7 9 11 10 10 10 12 13 13
2290.0 15 16 22 21 23 23 24 17 17 18
2330.0 17 22 14 26 15 25 14 18 27 28
2370.0 26 22 25 26 21 16 14 14 15 14
2410.0 14 13 14 14 14 12 11 11 11 13
2450.0 12 11 12 11 11 9 10 11 13 12
2490.0 15 14 14 17 15 16 18 21 21 22
2530.0 22 24 25 25 27 26 27 27 30 31
2570.0 32 32 34 37 38 41 42 46 45 46
2610.0 48 50 51 53 57 58 62 64 66 68
2650.0 73 75 78 83 85 90 92 95 94 96
2690.0 95 92 90 85 85 85 85 86 87 90
2730.0 93 94 99 105 107 109 108 110 112 116
2770.0 121 126 134 144 157 172 189 208 225 243
2810.0 267 295 327 366 408 462 529 629 774 1015
2850.0 1424 2111 3044 3812 3871 3357 2782 2353 2135 1999
2890.0 1880 1844 1964 2237 2646 3162 3774 4683 5985 7832
2930.0 9347 10000 9080 7430 5777 4359 3435 2983 2924 2979
2970.0 2878 2392 1757 1267 955 755 617 519 447 388
3010.0 342 306 275 247 228 207 190 175 160 148
3050.0 138 126 116 110 103 99 94 93 89 82
3090.0 80 79 75 73 67 65 63 61 58 56
3130.0 56 54 52 51 49 49 48 48 47 44
3170.0 41 41 43 41 38 38 36 36 33 30
3210.0 30 29 25 23 24 22 21 21 19 20
3250.0 21 21 19 19 19 19 18 18 18 17
3290.0 19 15 15 20 19 19 21 17 20 22
3330.0 20 24 22 21 21 19 21 19 18 20
3370.0 21 20 19 20 20 20 21 19 19 18
3410.0 19 19 19 19 15 18 16 15 13 16
3450.0 18 12 16 10 14 14 12 13 15 15
3490.0 10 12 13 15 11 10 12 11 15 12
3530.0 11 6 8 9 13 14 18 18 7 22
3570.0 22 20 19 16 26 17 29 17 25 16
3610.0 27 26 34 34 19 39 34 16 26 16
3650.0 42 37 18 37 5 42 14 54 13 24
3690.0 32 32 22 26 26 26 32 22 21 21
3730.0 21 33 34 22 51 18 50 23 20 25
3770.0 23 23 15 33 18 20 20 23 17 43
3810.0 9 31 5 31 22 19 23 36 22 28
3850.0 11 36 41 25 24 32 27 20 20 30
3890.0 11 31 11 36 28 29 12 29 25 21
3930.0 32 22 20 23 28 20 27 23 36 28
##END=
