##TITLE=Methane, fluoro-
##JCAMP-DX=4.24
##DATA TYPE=INFRARED SPECTRUM
##ORIGIN=Sadtler Research Labs Under US-EPA Contract
##OWNER=NIST Standard Reference Data Program
##CAS REGISTRY NO=593-53-3
##MOLFORM=C H 3 F
##XUNITS=1/CM
##YUNITS=ABSORBANCE
##XFACTOR=1.0
##YFACTOR=0.000091858
##DELTAX=4.0
##FIRSTX=450.0
##LASTX=3966.0
##FIRSTY=0.000000
##MAXX=3966
##MINX=450
##MAXY=0.91858
##MINY=0
##NPOINTS=880
##XYDATA=(X++(Y..Y))
450.0 0 82 125 131 132 98 157 109 89 131
490.0 91 101 89 124 94 110 102 100 125 131
530.0 120 126 126 91 117 119 106 95 115 116
570.0 133 148 124 109 99 123 109 120 109 117
610.0 110 94 112 126 120 96 113 112 136 115
650.0 106 110 109 100 99 94 109 104 116 106
690.0 78 107 115 110 113 108 121 91 109 108
730.0 103 91 109 119 110 103 107 118 105 116
770.0 103 112 103 113 98 108 121 114 97 91
810.0 107 94 111 102 108 104 109 109 102 116
850.0 102 133 105 119 125 128 112 118 124 112
890.0 127 119 134 123 139 126 147 140 141 146
930.0 162 189 207 257 308 429 489 572 725 859
970.0 1045 1323 1638 1975 2371 2710 3071 3346 4049 4799
1010.0 5321 5502 5183 5148 5220 5868 4757 4943 6350 10000
1050.0 5190 2801 5229 6468 8152 8913 9524 8925 7773 6649
1090.0 5378 4099 2488 1313 547 348 312 386 370 367
1130.0 407 392 416 353 459 387 430 358 457 406
1170.0 418 361 373 439 385 333 292 396 320 325
1210.0 231 309 250 288 158 238 195 226 147 183
1250.0 167 167 152 149 163 137 158 133 150 133
1290.0 149 136 173 166 159 184 180 155 188 198
1330.0 207 239 256 196 309 262 309 317 292 298
1370.0 538 317 384 503 400 440 591 424 542 767
1410.0 438 535 540 477 552 567 490 636 428 350
1450.0 419 299 610 1351 1355 1039 1266 1122 218 508
1490.0 457 428 550 531 519 776 682 549 677 484
1530.0 616 557 498 708 541 479 574 472 467 475
1570.0 387 488 386 353 326 335 330 287 298 269
1610.0 238 228 216 185 194 176 177 150 149 140
1650.0 125 126 136 124 113 114 99 103 99 97
1690.0 97 103 93 76 92 96 91 73 96 103
1730.0 91 87 91 96 81 83 93 96 95 103
1770.0 94 86 101 89 105 91 103 90 91 104
1810.0 96 98 106 104 97 96 99 106 98 97
1850.0 100 109 106 108 100 91 113 107 114 103
1890.0 103 102 108 108 110 105 102 112 102 110
1930.0 111 110 110 105 105 112 116 109 118 107
1970.0 118 115 119 120 129 128 132 149 145 159
2010.0 163 183 184 202 209 226 240 254 272 288
2050.0 312 270 313 295 296 299 340 472 450 138
2090.0 227 338 436 580 618 746 408 139 104 118
2130.0 107 127 102 125 118 125 119 125 127 124
2170.0 123 123 129 121 135 129 132 132 138 133
2210.0 129 129 132 136 121 125 123 131 116 118
2250.0 118 117 113 106 106 105 112 97 97 95
2290.0 99 95 91 89 91 90 86 91 97 91
2330.0 93 98 86 82 99 89 94 85 83 81
2370.0 88 72 88 87 81 79 81 81 77 79
2410.0 77 78 75 77 75 76 78 76 75 73
2450.0 73 76 78 77 76 73 70 73 70 68
2490.0 71 70 72 73 68 70 74 70 74 69
2530.0 72 73 79 74 78 77 83 83 79 82
2570.0 82 89 88 91 92 98 97 102 96 113
2610.0 113 123 129 134 139 147 149 145 153 168
2650.0 178 159 137 123 115 104 99 99 100 100
2690.0 100 93 96 90 88 88 88 90 88 83
2730.0 82 80 78 79 79 82 84 86 90 91
2770.0 95 102 117 120 150 175 214 276 352 468
2810.0 575 760 914 1121 1305 1526 1674 1745 1742 1508
2850.0 1445 1054 1520 2867 1479 987 1418 1814 2362 2534
2890.0 2659 2619 2472 2458 2533 2479 2638 3164 3491 4256
2930.0 4113 4323 4318 5134 4661 4164 4777 3336 5253 6380
2970.0 3067 4156 4774 4952 6976 6412 5929 6745 5281 5519
3010.0 5667 4090 4793 4084 3369 5047 3687 4310 3517 2681
3050.0 2937 2648 2636 2558 2283 2607 2356 2227 2148 1810
3090.0 1694 1714 1640 1483 1210 1128 1011 864 894 704
3130.0 635 537 453 403 320 343 257 236 198 177
3170.0 152 132 143 112 114 98 107 86 93 84
3210.0 90 88 77 95 78 92 76 89 73 82
3250.0 81 77 78 82 91 70 81 76 82 78
3290.0 81 83 78 82 71 86 74 86 77 86
3330.0 84 86 91 85 86 75 85 78 94 83
3370.0 83 82 82 89 86 86 77 85 93 92
3410.0 86 87 81 82 86 91 86 81 96 86
3450.0 86 89 97 83 86 101 87 85 85 98
3490.0 84 98 88 80 83 84 83 89 88 89
3530.0 91 80 83 95 72 80 87 90 74 79
3570.0 72 86 82 86 86 73 80 66 86 64
3610.0 73 66 80 88 81 85 91 91 85 71
3650.0 75 85 63 85 76 92 80 97 69 74
3690.0 93 89 65 69 79 81 64 74 72 77
3730.0 70 88 71 68 103 81 88 76 72 82
3770.0 75 79 77 71 80 72 79 77 87 94
3810.0 64 68 89 64 65 89 82 77 85 72
3850.0 86 81 91 64 88 64 87 82 73 85
3890.0 69 64 66 84 100 84 64 95 108 99
3930.0 94 92 91 98 95 81 98 97 98 109
##END=
