##TITLE=Ethene, bromo-
##JCAMP-DX=4.24
##DATA TYPE=INFRARED SPECTRUM
##ORIGIN=Sadtler Research Labs Under US-EPA Contract
##OWNER=NIST Standard Reference Data Program
##CAS REGISTRY NO=593-60-2
##MOLFORM=C 2 H 3 Br
##XUNITS=1/CM
##YUNITS=ABSORBANCE
##XFACTOR=1.0
##YFACTOR=0.000118970
##DELTAX=4.0
##FIRSTX=450.0
##LASTX=3966.0
##FIRSTY=0.006543
##MAXX=3966
##MINX=450
##MAXY=1.1897
##MINY=0
##NPOINTS=880
##XYDATA=(X++(Y..Y))
450.0 55 36 0 59 26 52 77 100 76 75
490.0 75 104 127 117 133 195 209 246 304 343
530.0 411 492 562 677 837 981 1187 1316 1511 1516
570.0 1657 1671 2396 3945 2929 2950 3816 4598 4910 4931
610.0 4213 4475 5162 5795 4783 3275 1959 1157 720 474
650.0 348 273 256 219 231 158 165 158 138 114
690.0 110 80 71 65 66 43 29 39 30 32
730.0 23 23 26 19 17 19 21 19 25 25
770.0 29 27 26 27 37 58 58 53 62 66
810.0 85 107 122 151 187 247 296 365 452 553
850.0 668 813 977 1128 1351 1543 1772 1918 2172 2285
890.0 2528 2647 3446 5228 4470 3316 4019 3942 4226 4065
930.0 4328 4141 4786 7340 3829 3154 3365 3417 3412 3347
970.0 3160 2930 2676 2547 2568 2926 3359 3602 2878 1813
1010.0 1907 2093 1940 1497 937 574 336 239 179 139
1050.0 89 72 52 49 40 36 36 26 33 22
1090.0 28 16 23 17 22 16 18 18 17 30
1130.0 24 36 40 63 61 71 65 54 59 77
1170.0 103 86 98 81 93 82 101 106 118 118
1210.0 122 153 157 256 334 616 1125 2252 3697 5102
1250.0 5499 3850 3053 3644 4719 6144 4309 2739 1387 710
1290.0 379 264 254 234 260 259 309 308 368 418
1330.0 511 636 796 922 912 806 980 1358 1551 1531
1370.0 1084 846 924 1126 1198 1005 763 542 415 334
1410.0 296 258 230 200 170 156 136 141 122 124
1450.0 135 168 220 280 350 399 398 338 304 367
1490.0 429 416 337 271 238 235 217 218 188 209
1530.0 260 274 265 242 232 250 312 402 608 885
1570.0 1405 2186 3514 5421 7213 8979 8715 7808 6729 7179
1610.0 10000 9468 6585 3369 1495 612 329 186 126 93
1650.0 79 69 63 43 42 28 24 10 18 26
1690.0 15 15 24 17 15 15 15 20 19 14
1730.0 17 29 19 15 17 16 25 29 32 40
1770.0 47 66 87 128 188 250 296 295 260 238
1810.0 344 448 483 476 480 465 434 342 320 452
1850.0 524 445 336 257 214 181 148 140 178 163
1890.0 119 70 43 33 28 30 19 15 15 15
1930.0 19 23 25 24 26 30 28 28 30 27
1970.0 27 27 24 20 20 20 22 28 28 29
2010.0 26 21 20 21 22 19 18 17 16 15
2050.0 15 14 12 10 9 12 11 11 15 16
2090.0 18 20 19 16 16 19 21 20 19 19
2130.0 16 17 16 18 22 18 19 19 20 17
2170.0 20 19 22 25 27 24 27 27 27 26
2210.0 28 27 26 30 30 28 28 29 38 51
2250.0 68 75 59 49 56 66 75 60 48 37
2290.0 26 23 20 16 8 14 7 3 8 4
2330.0 8 3 6 2 14 6 8 6 3 5
2370.0 13 19 18 17 21 23 20 19 19 19
2410.0 16 15 15 12 13 11 12 12 11 14
2450.0 13 12 15 13 12 12 12 18 15 19
2490.0 20 19 19 18 16 16 14 13 18 14
2530.0 17 16 15 14 13 14 20 20 21 24
2570.0 24 26 27 28 31 31 34 26 28 36
2610.0 39 41 43 39 34 26 29 30 31 26
2650.0 18 15 15 15 11 12 11 12 10 12
2690.0 14 15 11 13 11 9 12 16 16 18
2730.0 19 20 20 23 20 21 19 21 14 14
2770.0 14 16 14 14 13 13 15 17 19 19
2810.0 17 16 17 18 20 20 23 24 24 23
2850.0 23 23 23 28 25 19 21 15 16 16
2890.0 16 18 18 16 16 17 15 20 18 22
2930.0 26 28 26 29 31 35 35 25 28 27
2970.0 32 26 28 25 30 41 57 84 133 227
3010.0 304 394 382 360 306 316 419 455 325 200
3050.0 112 96 123 195 324 462 606 668 589 577
3090.0 676 877 1115 1019 773 560 473 464 652 563
3130.0 410 271 170 126 90 94 74 65 56 52
3170.0 48 37 42 32 35 25 32 18 21 26
3210.0 22 18 13 14 5 8 8 10 5 15
3250.0 12 11 10 9 13 11 15 12 12 10
3290.0 10 10 10 11 8 14 12 14 14 12
3330.0 11 14 12 12 18 17 20 25 24 16
3370.0 25 23 33 26 21 24 17 22 21 24
3410.0 18 19 19 22 24 24 29 28 35 31
3450.0 30 26 32 33 37 34 23 18 14 17
3490.0 14 15 12 15 6 12 18 10 10 2
3530.0 15 13 12 12 5 8 10 13 9 11
3570.0 5 13 16 13 10 11 17 7 20 6
3610.0 10 9 10 10 21 19 21 11 17 14
3650.0 23 21 14 26 11 28 22 31 29 35
3690.0 38 30 33 33 41 49 38 34 41 22
3730.0 36 33 40 20 50 15 22 14 19 17
3770.0 14 18 13 15 22 13 11 16 21 27
3810.0 23 20 15 10 13 16 12 19 9 5
3850.0 22 24 12 8 22 23 13 17 9 30
3890.0 20 18 6 18 18 31 20 18 3 21
3930.0 6 20 11 7 17 22 19 19 21 15
##END=
