##TITLE=Butane, 2-chloro-2-methyl-
##JCAMP-DX=4.24
##DATA TYPE=INFRARED SPECTRUM
##ORIGIN=Sadtler Research Labs Under US-EPA Contract
##OWNER=NIST Standard Reference Data Program
##CAS REGISTRY NO=594-36-5
##MOLFORM=C 5 H 11 Cl
##XUNITS=1/CM
##YUNITS=ABSORBANCE
##XFACTOR=1.0
##YFACTOR=0.000116861
##DELTAX=4.0
##FIRSTX=450.0
##LASTX=3966.0
##FIRSTY=0.000000
##MAXX=3966
##MINX=450
##MAXY=1.16861
##MINY=0
##NPOINTS=880
##XYDATA=(X++(Y..Y))
450.0 0 129 78 113 186 71 186 66 174 71
490.0 166 143 166 171 149 182 157 190 107 184
530.0 165 199 243 313 448 611 802 980 1123 1245
570.0 1295 1154 973 764 501 305 248 195 213 246
610.0 277 350 389 421 423 372 333 220 143 104
650.0 93 97 121 133 132 118 117 95 84 81
690.0 93 104 110 102 121 117 115 116 132 150
730.0 192 242 302 392 473 559 616 681 715 721
770.0 721 722 722 772 847 864 934 989 1072 1031
810.0 881 778 606 431 268 200 140 127 114 99
850.0 93 106 125 133 147 149 165 163 167 187
890.0 222 252 283 345 388 423 438 464 413 359
930.0 344 292 246 204 196 178 173 158 147 143
970.0 136 140 143 166 180 223 277 340 373 441
1010.0 483 467 448 397 362 300 268 258 295 346
1050.0 412 466 500 520 459 415 358 316 273 254
1090.0 257 276 314 360 461 603 833 1060 1245 1435
1130.0 1569 1679 1801 1808 1787 1887 1956 1942 1730 1564
1170.0 1275 983 840 797 797 788 787 671 617 559
1210.0 513 543 584 621 634 672 583 524 464 398
1250.0 334 295 285 276 299 333 424 488 584 630
1290.0 684 670 598 537 423 360 288 261 239 257
1330.0 266 273 328 348 412 452 642 786 1079 1209
1370.0 1617 2262 2211 1947 2292 2137 1822 1332 1082 775
1410.0 513 392 308 352 355 486 596 782 1023 1300
1450.0 1602 1805 2023 2110 2230 2096 1797 1551 1268 950
1490.0 686 451 328 230 191 180 143 141 110 137
1530.0 115 123 110 105 117 119 122 102 126 120
1570.0 131 117 123 117 110 105 102 93 88 91
1610.0 87 82 79 83 85 84 97 92 102 88
1650.0 99 81 114 96 98 106 90 99 90 88
1690.0 98 98 87 118 131 142 157 175 211 221
1730.0 246 222 245 251 249 225 223 191 174 147
1770.0 133 102 109 98 103 90 106 104 101 101
1810.0 93 86 83 80 71 75 67 74 57 74
1850.0 63 68 64 64 58 62 60 54 60 51
1890.0 57 48 54 51 50 53 44 54 49 50
1930.0 44 45 49 47 54 49 52 48 49 45
1970.0 53 44 50 49 50 50 51 54 51 51
2010.0 52 52 51 52 51 50 54 51 51 50
2050.0 53 53 52 52 55 55 52 55 55 59
2090.0 56 57 56 58 59 57 59 61 62 60
2130.0 67 65 68 64 69 67 66 68 67 63
2170.0 60 62 56 58 59 56 57 56 56 54
2210.0 55 54 56 54 54 57 56 57 55 57
2250.0 54 55 53 53 57 56 58 58 61 63
2290.0 67 64 63 61 59 55 51 44 44 44
2330.0 44 44 49 53 48 50 44 44 51 57
2370.0 74 70 81 78 79 78 78 75 73 75
2410.0 73 71 67 69 71 76 78 84 82 79
2450.0 81 76 72 67 67 62 58 58 59 56
2490.0 58 61 57 60 61 57 56 61 62 61
2530.0 61 62 61 60 62 63 67 69 72 75
2570.0 76 82 80 82 81 85 81 86 84 85
2610.0 90 92 95 95 99 94 95 94 97 98
2650.0 100 106 104 111 117 122 128 134 126 123
2690.0 117 112 110 116 117 120 130 143 151 181
2730.0 198 203 210 220 215 229 226 209 204 200
2770.0 183 207 206 196 203 215 218 252 256 272
2810.0 287 302 331 369 375 402 458 538 660 802
2850.0 948 1146 1397 1576 1790 1996 2216 2506 2817 3059
2890.0 3220 3399 3456 3490 3565 3639 3754 3941 4223 4616
2930.0 5055 5382 5764 6108 5892 5531 5525 5436 5864 6535
2970.0 7349 8271 9656 10000 8736 9292 7424 5726 4603 3157
3010.0 2281 1593 1050 738 582 525 463 429 409 392
3050.0 361 332 315 307 299 300 307 309 311 309
3090.0 301 290 280 254 233 213 193 182 163 158
3130.0 153 150 144 143 141 144 146 151 154 157
3170.0 161 163 169 165 161 157 158 153 156 156
3210.0 151 155 151 151 146 143 142 143 140 131
3250.0 125 120 117 114 110 107 105 100 102 92
3290.0 90 85 84 83 86 89 88 85 83 83
3330.0 88 81 89 83 87 86 79 79 84 83
3370.0 84 79 80 79 80 81 85 83 73 75
3410.0 70 65 62 62 64 66 64 60 62 60
3450.0 65 60 58 66 64 61 56 58 65 61
3490.0 56 59 55 57 59 50 59 45 58 62
3530.0 54 51 59 56 64 64 61 53 58 78
3570.0 79 63 47 53 58 71 75 53 76 53
3610.0 75 58 70 65 54 80 64 70 57 64
3650.0 81 71 83 67 67 56 67 68 68 66
3690.0 62 78 63 68 72 62 80 65 59 85
3730.0 70 71 68 83 66 78 78 70 78 56
3770.0 62 59 62 63 59 64 62 48 73 57
3810.0 81 50 54 76 56 67 60 43 67 66
3850.0 44 70 83 70 62 64 74 76 82 75
3890.0 79 76 79 69 89 70 76 75 89 92
3930.0 93 92 88 79 96 90 83 93 81 100
##END=
