##TITLE=Propane, 1,2-dichloro-2-methyl-
##JCAMP-DX=4.24
##DATA TYPE=INFRARED SPECTRUM
##ORIGIN=Sadtler Research Labs Under US-EPA Contract
##OWNER=NIST Standard Reference Data Program
##CAS REGISTRY NO=594-37-6
##MOLFORM=C 4 H 8 Cl 2
##XUNITS=1/CM
##YUNITS=ABSORBANCE
##XFACTOR=1.0
##YFACTOR=0.000105106
##DELTAX=4.0
##FIRSTX=450.0
##LASTX=3966.0
##FIRSTY=0.000000
##MAXX=3966
##MINX=450
##MAXY=1.05106
##MINY=0
##NPOINTS=880
##XYDATA=(X++(Y..Y))
450.0 0 269 548 164 346 321 215 347 381 174
490.0 200 275 271 111 131 133 152 188 178 145
530.0 127 156 213 165 247 219 257 363 461 646
570.0 831 1085 1248 1377 1426 1384 1290 1168 1008 1071
610.0 1445 2229 3389 4709 5734 6410 6160 5555 4160 2320
650.0 1069 625 461 381 335 300 252 212 180 184
690.0 189 207 323 414 609 1143 2014 3611 5621 7167
730.0 8177 7567 7993 5087 2263 1248 1617 1727 1877 1932
770.0 1712 1406 950 602 453 384 363 414 495 609
810.0 711 859 995 1029 1013 1015 845 691 589 426
850.0 233 203 234 186 208 238 334 447 545 654
890.0 709 636 624 516 398 293 245 206 196 237
930.0 243 255 299 290 332 386 500 619 749 921
970.0 1189 1530 1751 1782 1670 1558 1225 769 488 417
1010.0 361 329 314 247 247 239 250 267 259 282
1050.0 270 282 289 298 332 340 361 459 557 785
1090.0 1090 1552 2290 3351 5133 7457 9027 9741 9017 8055
1130.0 5286 2778 1474 1010 886 862 894 926 896 840
1170.0 763 704 628 562 561 596 687 858 1088 1319
1210.0 1481 1576 1656 1670 1587 1483 1426 1356 1265 1212
1250.0 1140 1080 1007 943 935 994 1074 1094 1211 1283
1290.0 1342 1140 1009 874 759 598 374 277 213 199
1330.0 209 196 223 242 288 386 597 963 1486 2146
1370.0 2857 3854 4931 4963 5120 4891 4071 3232 2361 1512
1410.0 974 656 567 667 788 1137 1571 1901 2271 2597
1450.0 2998 3417 3310 3396 3349 2879 2516 2004 1509 1106
1490.0 722 504 333 257 204 181 197 187 180 163
1530.0 139 176 166 142 166 143 171 164 173 158
1570.0 147 152 142 152 165 153 133 133 121 130
1610.0 118 115 133 133 145 143 138 138 145 155
1650.0 164 156 162 151 159 153 149 146 138 161
1690.0 157 159 164 167 166 158 163 161 158 152
1730.0 149 146 142 151 156 151 152 160 151 146
1770.0 142 150 144 138 141 136 138 136 138 131
1810.0 128 128 127 133 140 138 136 142 137 134
1850.0 134 132 131 130 127 122 131 131 133 135
1890.0 134 135 136 131 126 131 121 122 114 114
1930.0 117 112 114 112 113 116 120 120 126 121
1970.0 123 124 120 112 125 122 124 131 134 135
2010.0 137 135 133 126 127 121 119 113 113 116
2050.0 112 112 116 113 119 118 117 117 121 122
2090.0 127 130 129 133 129 128 125 123 126 119
2130.0 116 123 122 122 129 130 132 134 134 132
2170.0 122 129 135 140 147 151 154 159 162 159
2210.0 158 151 149 139 139 139 135 134 133 127
2250.0 127 126 125 127 129 134 133 128 126 120
2290.0 120 115 112 118 124 132 140 151 152 154
2330.0 152 145 153 141 146 133 152 145 148 146
2370.0 133 139 142 138 133 140 136 133 134 133
2410.0 133 131 125 126 120 122 120 117 115 121
2450.0 118 116 113 117 116 117 114 116 117 120
2490.0 120 121 122 124 131 128 125 125 127 124
2530.0 127 128 128 131 130 127 128 130 127 127
2570.0 132 134 135 131 137 135 138 137 136 134
2610.0 137 140 139 143 146 150 152 157 161 161
2650.0 158 158 157 158 156 154 152 150 154 156
2690.0 155 157 153 159 166 176 190 193 205 215
2730.0 219 220 215 215 211 206 201 183 175 171
2770.0 164 161 158 157 161 161 163 171 177 193
2810.0 219 247 274 297 320 335 362 381 405 443
2850.0 470 520 607 735 879 1020 1170 1304 1368 1385
2890.0 1392 1389 1367 1342 1328 1323 1362 1451 1638 1953
2930.0 2356 2910 3474 3949 4331 4224 3984 3564 3180 3069
2970.0 3265 3939 5043 6755 8768 9598 10000 9162 8014 5871
3010.0 4025 2582 1908 1368 892 645 464 351 263 204
3050.0 184 171 162 165 156 161 164 168 174 180
3090.0 190 198 214 217 213 202 189 179 172 156
3130.0 155 151 148 151 152 156 152 153 157 158
3170.0 163 163 160 166 163 170 171 177 188 198
3210.0 204 214 227 224 230 231 233 225 220 217
3250.0 217 212 201 199 184 176 172 177 183 170
3290.0 173 167 157 153 146 144 131 140 139 131
3330.0 142 144 155 158 172 171 162 156 163 153
3370.0 151 151 145 153 151 157 154 162 166 162
3410.0 173 178 165 160 150 143 129 136 133 125
3450.0 134 127 126 134 134 133 130 132 132 132
3490.0 138 134 128 128 121 126 123 127 124 134
3530.0 129 131 138 130 128 127 134 136 133 129
3570.0 132 137 136 131 123 143 130 149 144 143
3610.0 151 154 150 132 136 142 136 129 131 128
3650.0 131 133 137 134 128 120 128 137 136 134
3690.0 112 136 137 141 147 153 156 154 147 149
3730.0 151 143 128 128 137 126 134 126 145 144
3770.0 126 119 122 143 139 134 132 126 158 134
3810.0 142 136 138 146 122 118 129 135 140 155
3850.0 149 136 139 153 142 133 119 149 143 126
3890.0 145 156 149 160 185 159 154 138 129 126
3930.0 161 127 125 143 138 136 122 125 140 166
##END=
