##TITLE=Stannane, tetramethyl-
##JCAMP-DX=4.24
##DATA TYPE=INFRARED SPECTRUM
##ORIGIN=Sadtler Research Labs Under US-EPA Contract
##OWNER=NIST Standard Reference Data Program
##CAS REGISTRY NO=594-27-4
##MOLFORM=C 4 H 12 Sn
##XUNITS=1/CM
##YUNITS=ABSORBANCE
##XFACTOR=1.0
##YFACTOR=0.000100751
##DELTAX=4.0
##FIRSTX=450.0
##LASTX=3966.0
##FIRSTY=0.000000
##MAXX=3966
##MINX=450
##MAXY=1.00751
##MINY=0
##NPOINTS=880
##XYDATA=(X++(Y..Y))
450.0 0 34 152 39 80 40 58 73 60 86
490.0 128 168 318 681 1445 2880 4615 6329 7049 10000
530.0 7711 5876 5519 3204 1099 230 83 68 64 82
570.0 75 97 85 91 97 105 95 120 132 135
610.0 148 157 202 221 239 255 295 306 343 367
650.0 379 399 411 433 412 518 542 522 559 595
690.0 627 649 678 715 788 864 1013 1174 1397 1662
730.0 1949 2282 2606 3042 3399 3944 4527 5320 5902 6474
770.0 6991 6883 6403 5888 5301 4597 4133 3716 3427 3093
810.0 2858 2620 2435 2219 1972 1689 1451 1262 1111 966
850.0 810 679 560 475 402 341 286 241 205 166
890.0 149 126 123 106 106 94 92 84 78 70
930.0 69 70 62 61 55 61 52 47 50 49
970.0 49 44 49 43 45 44 47 43 51 55
1010.0 58 63 75 85 80 92 82 79 67 68
1050.0 65 62 69 69 72 57 58 43 43 36
1090.0 41 37 35 41 35 38 31 43 32 37
1130.0 38 43 37 37 46 33 50 43 68 52
1170.0 96 117 197 346 520 601 571 1113 861 544
1210.0 651 433 239 126 72 72 54 74 54 71
1250.0 65 78 67 75 74 74 82 82 90 86
1290.0 100 96 103 105 112 112 114 127 125 132
1330.0 132 143 145 159 170 182 191 183 173 151
1370.0 145 138 142 140 147 152 155 161 165 177
1410.0 181 200 208 230 247 276 301 324 344 358
1450.0 360 351 340 314 292 268 243 220 203 188
1490.0 175 160 148 142 138 133 126 121 121 121
1530.0 116 114 114 109 103 97 94 90 86 78
1570.0 75 75 70 67 61 64 58 58 56 55
1610.0 54 54 52 51 47 47 49 49 47 48
1650.0 48 47 48 50 53 60 66 84 104 136
1690.0 164 199 231 274 301 288 297 310 298 295
1730.0 254 228 216 165 112 86 64 48 46 44
1770.0 44 47 45 45 44 43 46 44 43 42
1810.0 45 45 45 46 47 51 53 53 54 57
1850.0 56 59 58 61 58 57 56 54 53 50
1890.0 50 49 48 48 45 46 48 49 52 52
1930.0 55 56 58 61 63 64 67 71 75 75
1970.0 77 77 77 74 73 70 67 64 63 62
2010.0 59 61 60 57 56 58 58 55 55 55
2050.0 56 54 56 55 59 57 55 57 57 55
2090.0 59 59 56 59 58 59 56 58 59 59
2130.0 60 59 59 59 59 60 57 59 59 58
2170.0 60 59 59 59 59 60 58 61 61 60
2210.0 63 64 65 66 66 67 66 64 65 65
2250.0 65 63 61 60 60 59 59 58 57 59
2290.0 61 65 68 68 73 81 79 83 94 95
2330.0 105 106 107 115 112 103 134 154 199 224
2370.0 253 281 316 377 315 256 246 180 122 92
2410.0 69 60 55 51 39 39 36 38 35 37
2450.0 38 37 35 40 39 35 37 38 36 34
2490.0 36 36 34 35 34 35 37 36 36 38
2530.0 36 37 34 34 37 37 37 38 38 37
2570.0 37 36 37 39 42 41 38 39 39 44
2610.0 42 43 42 43 42 44 42 42 42 41
2650.0 42 43 46 42 42 47 45 45 43 44
2690.0 44 47 47 51 48 52 54 56 57 61
2730.0 67 70 77 83 89 92 100 108 121 135
2770.0 152 168 183 204 224 246 264 281 293 311
2810.0 318 328 342 358 386 416 457 504 555 597
2850.0 647 705 766 834 920 1013 1109 1230 1358 1525
2890.0 1730 1985 2303 2658 2996 3263 3523 3710 3728 3571
2930.0 3377 3037 2598 2138 1754 1436 1222 1170 1275 1636
2970.0 2196 2864 3240 3788 4511 3775 3147 2832 2103 1467
3010.0 1058 901 856 858 940 1018 1102 1225 1321 1394
3050.0 1440 1350 1237 1127 1064 1006 920 850 723 594
3090.0 497 432 387 366 365 338 311 297 282 259
3130.0 251 236 206 162 133 111 93 83 78 73
3170.0 70 71 69 71 68 70 67 67 66 63
3210.0 59 60 58 55 54 44 47 47 42 45
3250.0 38 42 41 41 40 37 36 37 34 38
3290.0 34 33 39 38 38 40 40 38 43 41
3330.0 41 39 40 42 42 44 42 37 38 41
3370.0 42 44 42 43 46 44 44 44 46 46
3410.0 50 48 49 54 55 60 56 60 62 61
3450.0 58 59 57 57 55 52 51 50 58 54
3490.0 55 60 57 59 64 67 70 71 73 78
3530.0 80 88 91 102 100 98 109 98 96 97
3570.0 97 98 104 100 106 107 111 107 106 106
3610.0 106 108 100 104 103 110 106 112 113 118
3650.0 128 129 132 145 139 146 144 152 148 142
3690.0 136 134 135 125 121 115 112 108 112 106
3730.0 99 92 98 93 93 90 86 85 84 80
3770.0 73 71 67 67 67 66 66 69 67 65
3810.0 62 57 55 62 62 57 60 62 60 60
3850.0 64 55 55 54 53 50 53 53 57 52
3890.0 57 58 50 41 44 52 56 49 46 49
3930.0 48 50 50 52 45 51 54 57 53 51
##END=
