##TITLE=Ethane, 1,1-dichloro-1-nitro-
##JCAMP-DX=4.24
##DATA TYPE=INFRARED SPECTRUM
##ORIGIN=Sadtler Research Labs Under US-EPA Contract
##OWNER=NIST Standard Reference Data Program
##CAS REGISTRY NO=594-72-9
##MOLFORM=C 2 H 3 Cl 2 N O 2
##XUNITS=1/CM
##YUNITS=ABSORBANCE
##XFACTOR=1.0
##YFACTOR=0.000092383
##DELTAX=4.0
##FIRSTX=450.0
##LASTX=3966.0
##FIRSTY=0.000277
##MAXX=3966
##MINX=450
##MAXY=0.92383
##MINY=0
##NPOINTS=880
##XYDATA=(X++(Y..Y))
450.0 3 3 35 58 39 26 45 57 80 136
490.0 95 123 102 252 243 211 297 304 322 265
530.0 329 317 298 319 287 286 156 210 201 105
570.0 169 97 177 41 74 134 67 67 116 130
610.0 61 116 127 142 121 208 277 296 375 489
650.0 649 735 1001 1222 1464 1659 1857 2214 2320 2487
690.0 2739 2546 2054 1697 1305 891 669 603 463 377
730.0 323 276 244 137 193 165 128 126 161 221
770.0 228 252 311 452 667 1138 1822 2570 3262 3962
810.0 4048 3664 3298 2653 1957 1477 1377 1534 1607 1806
850.0 1815 1577 1305 946 601 351 246 166 142 73
890.0 104 88 59 50 63 80 51 71 70 84
930.0 73 91 98 74 82 87 95 56 67 81
970.0 67 49 52 59 46 47 76 86 80 97
1010.0 107 101 87 87 101 60 91 91 110 122
1050.0 151 216 252 349 462 670 942 1388 2115 3007
1090.0 4042 5464 6037 6220 5189 4181 3302 2534 2061 1698
1130.0 1324 1090 903 775 646 555 481 400 336 318
1170.0 316 283 260 255 226 174 157 145 146 129
1210.0 118 129 108 102 109 102 100 119 140 136
1250.0 150 151 179 163 163 178 167 177 202 276
1290.0 326 483 703 1069 1555 2222 2928 3370 3740 3706
1330.0 3353 2811 2161 1673 1316 1084 880 776 670 681
1370.0 832 1058 1338 1500 2166 2053 1518 1463 1050 605
1410.0 408 366 358 368 420 499 589 697 775 804
1450.0 825 770 646 519 400 305 219 149 126 113
1490.0 120 110 122 124 151 126 152 185 186 233
1530.0 299 391 514 646 840 1059 1349 1762 2282 2866
1570.0 3611 4514 5642 6979 8551 9704 8976 10000 9971 9008
1610.0 8716 7475 5437 3975 3011 2126 1396 830 516 341
1650.0 208 155 107 108 86 74 77 52 65 33
1690.0 49 55 49 38 49 44 55 63 45 56
1730.0 60 78 65 66 83 90 71 85 94 98
1770.0 98 97 104 94 93 103 109 128 140 156
1810.0 133 124 115 102 109 102 101 66 51 30
1850.0 33 21 18 23 19 10 7 21 14 17
1890.0 26 35 25 23 39 25 29 29 36 28
1930.0 14 27 24 23 9 19 15 7 8 13
1970.0 7 3 14 13 4 3 16 7 8 13
2010.0 9 15 7 14 15 8 9 15 6 4
2050.0 13 12 10 8 15 15 3 9 15 13
2090.0 5 21 14 14 15 18 16 8 15 19
2130.0 20 8 25 24 20 29 28 33 29 39
2170.0 44 35 36 39 36 29 36 35 30 23
2210.0 26 27 18 19 22 20 12 18 17 12
2250.0 18 19 22 18 17 23 19 18 25 23
2290.0 22 22 40 39 39 47 43 54 25 52
2330.0 46 21 23 37 6 39 93 49 8 3
2370.0 3 3 3 3 9 16 10 20 20 15
2410.0 21 21 37 14 28 28 25 31 29 44
2450.0 30 41 47 47 47 50 64 52 54 50
2490.0 47 31 34 36 30 25 25 29 13 21
2530.0 18 16 10 9 19 13 8 17 13 7
2570.0 7 18 13 6 17 17 17 17 30 40
2610.0 39 59 78 85 106 125 141 137 143 138
2650.0 123 91 77 77 55 50 43 60 37 36
2690.0 36 39 27 29 43 14 24 23 31 15
2730.0 15 25 15 10 9 24 16 5 22 10
2770.0 5 7 25 9 9 10 16 12 21 23
2810.0 21 22 23 51 33 34 38 50 50 58
2850.0 73 68 79 104 127 134 153 179 210 218
2890.0 252 298 297 316 327 337 314 300 297 258
2930.0 232 208 210 199 204 215 217 211 172 166
2970.0 128 105 97 102 87 97 132 150 168 196
3010.0 239 264 257 274 240 191 133 102 68 36
3050.0 36 36 24 20 31 24 17 14 33 18
3090.0 15 20 27 20 15 22 15 16 7 30
3130.0 16 7 29 21 16 19 34 17 18 22
3170.0 35 22 15 41 29 31 19 36 17 13
3210.0 24 19 30 8 38 24 15 30 30 34
3250.0 6 37 29 21 15 31 43 16 39 37
3290.0 29 21 40 39 24 28 33 35 18 34
3330.0 40 28 25 35 46 34 35 44 37 35
3370.0 34 43 24 24 54 24 25 25 36 29
3410.0 16 49 40 37 31 43 39 21 45 33
3450.0 39 24 47 42 24 40 40 46 18 49
3490.0 28 35 35 41 41 24 47 42 45 28
3530.0 41 54 25 47 36 59 35 43 59 49
3570.0 35 56 56 50 64 44 54 50 56 62
3610.0 46 46 56 51 44 43 48 46 44 56
3650.0 47 29 40 48 56 44 54 43 42 54
3690.0 51 42 42 47 48 59 35 51 67 43
3730.0 55 48 58 56 47 68 31 44 44 60
3770.0 37 41 56 49 47 54 64 49 35 45
3810.0 50 41 36 45 47 47 57 68 48 46
3850.0 66 57 46 57 70 64 54 60 66 52
3890.0 58 64 74 46 54 65 51 55 60 77
3930.0 66 56 67 60 46 46 0 3 3 3
##END=
