##TITLE=Propane, 2-methyl-2-nitro-
##JCAMP-DX=4.24
##DATA TYPE=INFRARED SPECTRUM
##ORIGIN=Sadtler Research Labs Under US-EPA Contract
##OWNER=NIST Standard Reference Data Program
##CAS REGISTRY NO=594-70-7
##MOLFORM=C 4 H 9 N O 2
##XUNITS=1/CM
##YUNITS=ABSORBANCE
##XFACTOR=1.0
##YFACTOR=0.000158630
##DELTAX=4.0
##FIRSTX=450.0
##LASTX=3966.0
##FIRSTY=0.000317
##MAXX=3966
##MINX=450
##MAXY=1.5863
##MINY=0
##NPOINTS=880
##XYDATA=(X++(Y..Y))
450.0 2 75 32 30 18 47 49 64 12 65
490.0 82 101 114 130 163 177 208 206 191 175
530.0 177 210 215 183 203 259 351 451 491 554
570.0 575 503 441 344 221 129 97 72 54 36
610.0 44 40 36 37 28 24 36 36 28 34
650.0 27 28 31 34 23 26 40 24 34 24
690.0 32 29 31 30 32 31 21 31 48 50
730.0 73 95 70 66 64 76 78 68 70 55
770.0 66 53 94 117 140 181 237 280 320 263
810.0 246 236 161 115 92 104 136 213 372 578
850.0 789 849 1075 1185 929 864 743 417 200 87
890.0 63 53 51 50 55 75 85 98 108 121
930.0 127 144 140 122 103 88 73 59 43 34
970.0 31 31 28 21 17 27 27 28 31 32
1010.0 37 43 53 60 69 75 86 82 83 73
1050.0 63 55 52 49 39 39 41 40 41 43
1090.0 46 41 44 42 46 47 55 61 72 76
1130.0 85 95 106 120 133 147 169 207 251 312
1170.0 397 501 640 804 974 1127 1292 1392 1363 1306
1210.0 1178 972 778 701 735 865 1040 1224 1380 1480
1250.0 1458 1334 1118 832 609 459 358 297 265 262
1290.0 274 301 304 297 260 240 233 283 406 633
1330.0 996 1448 1923 2119 2605 2958 2519 3019 3067 2761
1370.0 2826 3180 3439 2845 2421 2291 1951 1638 1415 1535
1410.0 1517 1200 1281 1118 755 570 521 608 706 862
1450.0 1004 1149 1266 1346 1460 1568 1693 1655 1781 1824
1490.0 1589 1604 1575 1363 1226 1177 1257 1526 1964 2610
1530.0 3415 4554 5998 7634 9369 9653 9617 9302 9928 9960
1570.0 10000 8410 5966 4159 2930 2087 1358 823 486 292
1610.0 213 165 159 144 146 144 146 142 135 132
1650.0 122 110 96 88 79 67 69 58 60 54
1690.0 55 49 55 53 50 48 47 53 46 45
1730.0 42 47 39 40 44 40 40 38 39 35
1770.0 38 36 33 31 27 27 28 29 28 27
1810.0 25 25 22 23 24 23 23 24 27 29
1850.0 32 29 33 33 33 36 31 27 26 25
1890.0 21 19 22 22 20 18 19 19 19 20
1930.0 19 18 17 19 16 15 15 16 16 16
1970.0 13 15 14 13 13 11 11 7 8 8
2010.0 9 8 8 7 6 7 7 10 10 13
2050.0 13 13 10 4 3 3 5 4 7 10
2090.0 10 10 8 7 7 4 3 5 4 5
2130.0 6 6 8 6 9 11 13 16 22 26
2170.0 32 33 30 25 22 17 12 8 8 5
2210.0 7 5 5 2 3 5 6 5 5 4
2250.0 5 5 5 6 4 4 7 8 10 11
2290.0 15 20 23 27 29 32 31 30 27 24
2330.0 18 19 14 9 18 13 8 16 25 28
2370.0 36 36 39 38 39 39 43 48 52 53
2410.0 55 54 48 46 43 38 30 24 17 14
2450.0 12 11 7 9 10 8 9 13 10 13
2490.0 11 12 10 7 9 10 11 10 11 7
2530.0 11 8 9 12 14 13 13 15 17 17
2570.0 19 20 22 21 24 25 29 31 31 32
2610.0 32 35 35 37 33 36 38 36 34 33
2650.0 40 43 42 53 61 66 76 84 95 102
2690.0 102 97 95 85 67 53 50 52 55 61
2730.0 62 67 67 66 69 68 65 62 59 57
2770.0 60 61 65 66 70 77 85 91 91 95
2810.0 102 99 99 101 107 106 119 127 140 162
2850.0 183 214 262 322 406 503 602 699 775 825
2890.0 840 855 883 925 959 972 978 1001 1042 1134
2930.0 1259 1385 1487 1583 1681 1743 1711 1705 1718 1768
2970.0 1852 2030 2313 2730 3144 3311 3700 3715 3368 3218
3010.0 2734 1999 1417 1008 680 415 257 164 115 87
3050.0 70 60 58 49 41 45 43 44 40 40
3090.0 35 38 40 36 35 39 41 37 41 35
3130.0 34 35 37 39 33 35 39 41 45 45
3170.0 48 54 57 53 56 57 60 61 53 55
3210.0 52 60 57 55 61 67 67 64 61 53
3250.0 53 46 41 37 35 30 26 29 30 23
3290.0 25 22 21 21 24 20 18 21 17 17
3330.0 15 19 19 14 11 12 23 26 32 25
3370.0 24 22 31 26 19 19 22 17 18 12
3410.0 11 19 5 10 10 8 7 4 2 3
3450.0 11 3 12 7 4 13 11 2 6 18
3490.0 10 4 8 13 15 10 14 12 14 12
3530.0 20 9 15 20 17 18 15 9 11 14
3570.0 14 11 11 18 16 11 11 16 23 10
3610.0 15 12 16 13 9 13 16 21 11 8
3650.0 13 14 28 12 10 14 13 10 12 18
3690.0 16 14 27 22 21 14 19 16 9 19
3730.0 4 29 19 32 45 21 17 13 30 15
3770.0 21 32 22 14 10 31 23 2 10 29
3810.0 19 18 29 15 9 18 27 21 28 20
3850.0 37 17 17 29 22 17 25 8 28 22
3890.0 19 35 23 30 30 37 34 18 16 46
3930.0 48 10 15 22 0 28 21 21 14 36
##END=
