##TITLE=3-Pentanol, 2,3-dimethyl-
##JCAMP-DX=4.24
##DATA TYPE=INFRARED SPECTRUM
##ORIGIN=Sadtler Research Labs Under US-EPA Contract
##OWNER=NIST Standard Reference Data Program
##CAS REGISTRY NO=595-41-5
##MOLFORM=C 7 H 16 O
##XUNITS=1/CM
##YUNITS=ABSORBANCE
##XFACTOR=1.0
##YFACTOR=0.000069791
##DELTAX=4.0
##FIRSTX=450.0
##LASTX=3966.0
##FIRSTY=0.006560
##MAXX=3966
##MINX=450
##MAXY=0.69791
##MINY=0
##NPOINTS=880
##XYDATA=(X++(Y..Y))
450.0 94 88 101 132 107 171 139 134 105 160
490.0 157 81 145 49 110 66 56 69 21 37
530.0 65 99 91 90 117 113 121 146 109 130
570.0 98 129 44 55 137 80 120 74 113 63
610.0 101 80 95 100 75 97 69 86 78 83
650.0 76 83 78 95 83 149 122 140 147 140
690.0 175 126 159 115 125 103 105 97 69 103
730.0 48 60 36 59 65 95 100 96 102 112
770.0 118 116 123 138 141 133 136 104 123 95
810.0 110 107 105 121 122 137 176 223 232 260
850.0 271 252 241 203 207 206 240 293 402 556
890.0 748 973 1228 1449 1584 1576 1547 1433 1247 1078
930.0 855 693 539 459 396 383 410 465 543 643
970.0 793 944 1103 1257 1366 1379 1320 1230 1107 980
1010.0 877 804 779 788 790 811 780 758 707 713
1050.0 692 709 775 807 858 877 926 949 990 1019
1090.0 1034 1046 1029 1007 987 979 1013 1071 1156 1272
1130.0 1385 1500 1564 1635 1681 1713 1741 1728 1783 1718
1170.0 1775 1583 1545 1224 1174 1106 935 875 750 691
1210.0 630 594 564 547 540 558 564 606 644 707
1250.0 744 780 830 839 882 865 882 869 881 877
1290.0 868 865 841 811 765 706 672 630 599 577
1330.0 580 596 622 658 701 783 890 1044 1290 1540
1370.0 1847 2131 2366 2365 2229 2000 1680 1278 961 728
1410.0 517 441 382 370 381 431 494 647 751 933
1450.0 1129 1331 1554 1611 1680 1599 1474 1268 1056 821
1490.0 631 471 347 278 235 207 173 161 155 146
1530.0 124 139 119 120 121 132 120 111 114 98
1570.0 106 87 111 86 90 90 73 80 73 75
1610.0 66 71 73 73 69 72 73 66 70 86
1650.0 47 105 62 72 67 78 53 77 55 66
1690.0 52 65 43 73 42 53 43 41 42 38
1730.0 43 41 40 31 30 35 36 43 39 37
1770.0 45 30 31 31 39 37 31 36 38 37
1810.0 35 33 41 20 47 21 34 27 28 32
1850.0 26 26 16 23 12 29 22 25 24 21
1890.0 32 24 19 22 16 21 13 25 22 19
1930.0 24 6 19 11 18 15 12 22 7 18
1970.0 6 13 6 14 13 6 13 8 8 9
2010.0 7 10 14 3 12 3 13 8 17 18
2050.0 13 17 9 16 5 24 15 23 22 16
2090.0 13 2 6 3 11 7 6 9 6 0
2130.0 12 5 6 5 12 6 8 12 5 20
2170.0 9 19 10 11 16 9 16 3 14 8
2210.0 15 15 11 15 11 16 13 13 14 5
2250.0 5 12 12 14 7 16 14 17 18 16
2290.0 23 9 22 9 21 14 12 15 16 20
2330.0 8 25 14 20 19 20 18 19 21 45
2370.0 43 40 52 43 46 33 41 27 40 27
2410.0 33 32 26 33 21 31 18 26 27 27
2450.0 26 26 27 20 25 27 27 27 30 22
2490.0 32 21 33 20 27 26 19 27 20 27
2530.0 18 28 18 27 27 27 27 25 33 33
2570.0 33 35 40 48 50 54 58 57 71 70
2610.0 74 69 62 76 61 68 61 70 61 58
2650.0 59 46 60 53 69 60 68 62 62 67
2690.0 65 71 67 72 76 77 82 95 102 124
2730.0 133 154 160 176 175 166 180 166 184 166
2770.0 180 173 181 180 181 195 192 207 209 233
2810.0 247 273 291 310 335 367 384 428 479 552
2850.0 661 761 925 1096 1343 1623 2012 2489 2975 3396
2890.0 3676 3853 3740 3596 3419 3276 3209 3295 3487 3771
2930.0 4114 4515 4924 5264 5588 5781 6080 6539 7305 8309
2970.0 9261 9904 10000 9704 8604 7063 5397 3966 2769 1933
3010.0 1319 922 699 547 478 412 388 362 349 326
3050.0 332 312 305 280 291 259 256 245 229 241
3090.0 201 212 186 193 171 163 162 150 155 136
3130.0 152 141 148 142 151 157 154 156 155 155
3170.0 155 161 161 158 143 153 117 141 114 118
3210.0 105 96 97 68 90 59 65 53 59 55
3250.0 45 52 47 50 45 40 26 40 31 35
3290.0 14 27 22 45 32 29 31 5 37 11
3330.0 31 10 23 19 7 15 5 31 14 41
3370.0 6 25 30 10 22 18 18 30 27 31
3410.0 28 25 39 31 47 11 35 21 42 32
3450.0 20 51 10 57 19 29 20 27 33 16
3490.0 26 14 15 30 25 17 17 15 32 19
3530.0 26 21 15 17 32 32 9 28 11 35
3570.0 27 14 15 12 28 31 35 15 44 33
3610.0 62 72 99 138 196 291 366 449 512 557
3650.0 534 477 393 314 212 163 93 68 62 39
3690.0 51 22 47 36 37 30 29 41 37 59
3730.0 48 39 51 51 64 39 45 40 35 36
3770.0 23 24 30 29 29 7 32 28 42 28
3810.0 26 43 28 57 33 49 44 63 52 62
3850.0 54 51 56 66 60 61 66 52 57 49
3890.0 50 55 61 60 51 56 58 68 51 51
3930.0 44 45 52 49 43 39 57 59 70 52
##END=
