##TITLE=para-Tolyl octanoate
##JCAMP-DX=4.24
##DATA TYPE=INFRARED SPECTRUM
##ORIGIN=Sadtler Research Labs Under US-EPA Contract
##OWNER=NIST Standard Reference Data Program
##CAS REGISTRY NO=59558-23-5
##MOLFORM=C 15 H 22 O 2
##XUNITS=1/CM
##YUNITS=ABSORBANCE
##XFACTOR=1.0
##YFACTOR=0.000102066
##DELTAX=4.0
##FIRSTX=450.0
##LASTX=3966.0
##FIRSTY=0.007247
##MAXX=3966
##MINX=450
##MAXY=1.02066
##MINY=0
##NPOINTS=880
##XYDATA=(X++(Y..Y))
450.0 71 100 150 190 155 184 208 224 288 316
490.0 412 442 515 561 543 489 395 274 194 130
530.0 125 86 93 86 72 49 20 27 3 49
570.0 53 41 72 70 70 63 91 86 104 115
610.0 128 109 107 90 96 103 103 102 88 85
650.0 71 73 70 69 65 92 55 79 76 88
690.0 106 117 133 122 117 132 135 150 162 164
730.0 169 146 141 146 164 184 203 201 197 204
770.0 194 198 196 216 247 288 336 378 436 492
810.0 544 578 596 592 578 565 572 587 600 571
850.0 495 413 351 326 315 319 325 345 362 380
890.0 409 430 483 542 613 678 682 621 526 451
930.0 428 453 486 464 395 335 279 245 226 214
970.0 212 215 221 234 247 267 271 270 264 258
1010.0 305 493 923 936 530 349 316 307 310 329
1050.0 337 351 373 403 462 532 641 790 986 1257
1090.0 1611 2037 2488 2870 3080 3060 2896 2756 2770 3008
1130.0 3494 4194 4914 5297 5105 4518 3873 3514 3924 5244
1170.0 5100 3355 2546 2605 3079 4029 5722 8216 10000 9341
1210.0 7517 5753 4092 3150 2656 2200 1813 1607 1516 1437
1250.0 1330 1220 1131 1063 1006 942 886 835 808 798
1290.0 810 833 868 871 844 804 778 744 724 689
1330.0 679 705 726 802 888 941 991 1008 987 942
1370.0 867 753 684 645 559 450 331 253 249 252
1410.0 248 306 284 400 472 555 538 555 575 570
1450.0 593 641 670 762 763 700 546 456 438 411
1490.0 458 702 1147 2134 3713 4914 3965 1944 855 514
1530.0 324 238 150 66 73 106 87 24 72 104
1570.0 97 108 129 149 194 205 237 246 284 316
1610.0 368 391 291 223 130 147 93 77 103 101
1650.0 60 64 106 100 81 60 26 70 14 5
1690.0 46 65 7 25 62 116 111 89 186 256
1730.0 287 307 434 533 640 797 1085 1490 2131 3075
1770.0 4092 4821 4753 3835 2734 1830 1213 837 590 476
1810.0 368 294 252 204 166 134 131 129 100 77
1850.0 96 111 106 110 103 93 127 140 148 138
1890.0 117 101 88 77 66 59 54 47 37 46
1930.0 53 52 58 47 59 72 73 70 71 57
1970.0 59 58 59 57 57 47 53 66 73 78
2010.0 82 76 68 71 74 76 81 85 87 90
2050.0 87 80 74 65 55 54 52 49 47 44
2090.0 37 40 38 39 38 37 36 38 36 34
2130.0 34 35 32 31 30 24 29 28 25 26
2170.0 24 26 28 28 27 26 28 23 25 27
2210.0 28 27 29 29 32 30 29 31 29 31
2250.0 30 30 32 30 31 31 30 31 26 24
2290.0 21 14 10 12 8 3 17 19 22 28
2330.0 36 44 38 44 46 27 34 33 50 39
2370.0 40 39 32 23 18 23 30 37 41 41
2410.0 38 33 29 24 21 21 19 20 17 17
2450.0 14 16 16 17 16 15 16 14 14 11
2490.0 11 11 13 12 15 12 16 15 16 17
2530.0 20 18 21 17 18 19 22 21 24 24
2570.0 27 28 30 28 31 32 33 32 31 28
2610.0 28 29 28 26 29 29 26 32 35 36
2650.0 39 42 43 47 45 46 54 55 53 55
2690.0 55 57 54 52 55 55 49 50 55 54
2730.0 58 60 77 93 105 99 87 74 69 65
2770.0 69 68 71 75 84 94 104 113 128 135
2810.0 147 166 185 206 238 275 316 369 441 545
2850.0 711 986 1389 1842 2182 2321 2283 2160 2056 1912
2890.0 1688 1501 1442 1517 1688 1957 2308 2770 3367 4135
2930.0 4952 5581 5766 5428 4771 4022 3384 3059 3086 3285
2970.0 3348 2950 2224 1609 1231 1006 866 781 712 666
3010.0 626 593 570 566 590 667 829 1019 1028 808
3050.0 603 501 443 405 381 362 345 310 262 221
3090.0 195 183 176 170 168 165 161 146 141 134
3130.0 122 103 83 68 61 59 53 55 54 51
3170.0 45 41 43 43 43 43 42 41 39 35
3210.0 36 33 34 31 30 30 27 30 30 29
3250.0 26 24 23 27 22 22 21 19 23 26
3290.0 24 29 26 21 22 27 26 23 29 26
3330.0 27 21 23 25 29 29 25 23 26 28
3370.0 28 24 31 20 27 24 21 26 29 23
3410.0 21 20 19 22 21 17 18 19 21 19
3450.0 16 10 20 21 17 13 15 12 12 16
3490.0 20 19 7 17 18 25 20 23 25 32
3530.0 26 34 24 21 9 8 3 5 7 4
3570.0 6 9 12 15 13 8 7 10 7 13
3610.0 9 12 17 18 14 23 23 20 28 21
3650.0 24 15 18 25 18 17 19 14 20 18
3690.0 24 16 17 13 17 17 20 21 17 14
3730.0 15 11 16 12 9 10 10 16 7 13
3770.0 1 14 10 5 14 10 9 13 7 13
3810.0 5 8 5 11 14 17 14 20 12 21
3850.0 17 11 14 0 15 14 14 22 18 20
3890.0 17 10 0 7 11 21 12 22 13 20
3930.0 4 13 17 0 17 22 13 13 5 0
##END=
