##TITLE=Phosphine sulfide, dibutylphenyl-
##JCAMP-DX=4.24
##DATA TYPE=INFRARED SPECTRUM
##ORIGIN=Sadtler Research Labs Under US-EPA Contract
##OWNER=NIST Standard Reference Data Program
##CAS REGISTRY NO=5958-59-8
##MOLFORM=C 14 H 23 S
##XUNITS=1/CM
##YUNITS=ABSORBANCE
##XFACTOR=1.0
##YFACTOR=0.000032117
##DELTAX=4.0
##FIRSTX=450.0
##LASTX=3966.0
##FIRSTY=0.010502
##MAXX=3966
##MINX=450
##MAXY=0.32117
##MINY=0
##NPOINTS=880
##XYDATA=(X++(Y..Y))
450.0 327 228 285 585 543 521 524 473 500 804
490.0 1013 1139 1216 1314 1293 1025 664 411 208 104
530.0 179 166 104 75 85 67 17 18 94 138
570.0 146 220 388 523 745 970 1265 1546 1713 1726
610.0 1604 1356 999 736 521 383 263 203 187 242
650.0 293 373 419 586 678 1044 1209 1381 1607 2177
690.0 3338 3951 3955 3301 3012 2879 2945 3102 3373 3692
730.0 3988 4380 4540 4475 3728 2968 2439 2271 2225 2216
770.0 2259 2298 2333 2401 2551 2630 2618 2369 1911 1505
810.0 1154 892 708 573 459 384 331 291 301 274
850.0 274 296 378 437 499 558 579 610 669 796
890.0 1016 1329 1623 1809 1850 1664 1282 921 629 419
930.0 287 240 220 215 260 287 342 450 604 713
970.0 715 571 389 309 291 359 467 569 542 416
1010.0 301 233 259 394 617 704 575 479 526 651
1050.0 747 802 774 810 888 961 1049 1160 1345 1620
1090.0 2025 2616 3422 4045 4027 3125 2019 1280 894 731
1130.0 623 531 470 376 310 290 276 298 345 411
1170.0 499 666 903 1082 1116 1000 884 832 876 975
1210.0 1062 1027 875 700 547 415 339 290 265 256
1250.0 259 286 315 380 520 611 605 577 528 513
1290.0 535 580 657 755 785 702 567 475 432 445
1330.0 462 479 581 676 710 641 526 477 481 464
1370.0 497 596 783 1012 1113 982 816 837 1015 1245
1410.0 1351 1196 1004 833 856 1192 1891 2375 1965 1466
1450.0 1235 1327 1492 1643 1713 1681 1472 1262 1111 1035
1490.0 895 703 545 456 408 369 314 259 247 223
1530.0 215 197 175 165 164 154 161 141 156 168
1570.0 208 237 255 257 255 269 276 295 322 332
1610.0 316 288 231 201 170 133 119 88 75 74
1650.0 70 75 101 83 102 109 87 117 107 137
1690.0 115 138 136 163 162 159 181 177 184 190
1730.0 208 216 220 218 229 241 270 266 279 266
1770.0 265 242 225 223 188 190 197 229 247 301
1810.0 301 289 215 134 114 87 78 51 49 36
1850.0 25 28 28 21 23 40 55 67 99 126
1890.0 138 130 129 126 119 104 79 58 37 43
1930.0 32 44 54 75 93 120 163 180 164 150
1970.0 135 133 102 67 48 56 43 38 34 39
2010.0 36 41 46 46 45 43 41 40 35 32
2050.0 35 41 45 42 34 34 37 39 41 34
2090.0 34 34 32 31 31 31 28 33 34 34
2130.0 38 37 34 30 35 38 34 42 39 31
2170.0 34 32 39 37 35 31 29 35 40 49
2210.0 37 41 33 32 24 27 31 33 30 32
2250.0 38 38 49 41 43 47 61 70 78 94
2290.0 116 138 159 180 189 223 224 223 242 195
2330.0 139 161 130 140 193 193 212 158 175 124
2370.0 131 125 154 161 110 50 29 26 26 25
2410.0 24 33 32 34 31 30 31 18 15 9
2450.0 13 7 4 1 4 1 1 5 3 6
2490.0 12 8 18 21 17 16 23 31 33 24
2530.0 22 29 27 30 31 30 31 33 28 34
2570.0 41 49 52 54 56 59 59 65 61 64
2610.0 72 84 85 92 87 77 79 73 77 77
2650.0 79 88 80 87 84 100 98 110 124 128
2690.0 119 113 103 98 97 95 95 87 102 110
2730.0 126 141 148 179 199 197 191 163 167 179
2770.0 178 173 184 208 236 271 298 337 356 363
2810.0 370 387 420 452 475 514 558 621 697 797
2850.0 929 1118 1413 1894 2584 3336 3829 4015 4131 4088
2890.0 3714 3295 3277 3577 3865 3934 3918 3966 4106 4453
2930.0 5045 5980 7038 7913 8119 7490 6502 6094 6870 8676
2970.0 10000 9085 6345 3785 2386 1798 1485 1292 1154 1061
3010.0 1014 1008 1012 1005 991 918 844 801 793 806
3050.0 893 1123 1548 2141 2582 2457 2003 1729 1617 1307
3090.0 936 711 563 434 328 274 238 211 191 169
3130.0 169 167 178 185 194 195 183 153 111 97
3170.0 92 92 80 76 89 79 70 62 62 55
3210.0 45 33 35 25 14 14 14 6 2 5
3250.0 5 0 7 4 11 7 8 9 4 4
3290.0 2 9 13 9 11 6 5 10 2 5
3330.0 23 11 15 15 12 28 14 17 26 23
3370.0 25 37 16 26 35 30 16 38 26 12
3410.0 26 19 18 10 27 11 29 38 40 26
3450.0 30 11 20 21 13 30 38 38 27 27
3490.0 23 21 14 45 55 30 14 26 45 51
3530.0 45 34 36 30 64 63 40 63 46 83
3570.0 88 48 45 54 75 70 61 70 67 68
3610.0 78 71 57 71 74 80 75 88 137 133
3650.0 121 134 144 122 112 95 74 75 81 89
3690.0 103 91 95 93 80 68 82 66 60 91
3730.0 90 98 94 88 117 32 69 63 65 56
3770.0 49 46 58 82 59 63 52 60 39 66
3810.0 76 47 39 57 53 64 77 68 61 74
3850.0 32 37 49 74 59 70 66 79 107 97
3890.0 59 61 58 97 59 99 79 98 80 80
3930.0 68 93 108 96 99 94 117 94 127 95
##END=
