##TITLE=Propanedioic acid, dibutyl-, diethyl ester
##JCAMP-DX=4.24
##DATA TYPE=INFRARED SPECTRUM
##ORIGIN=Sadtler Research Labs Under US-EPA Contract
##OWNER=NIST Standard Reference Data Program
##CAS REGISTRY NO=596-75-8
##MOLFORM=C 15 H 28 O 4
##XUNITS=1/CM
##YUNITS=ABSORBANCE
##XFACTOR=1.0
##YFACTOR=0.000091150
##DELTAX=4.0
##FIRSTX=450.0
##LASTX=3966.0
##FIRSTY=0.056422
##MAXX=3966
##MINX=450
##MAXY=0.9115
##MINY=0
##NPOINTS=880
##XYDATA=(X++(Y..Y))
450.0 619 464 223 519 166 76 349 293 195 167
490.0 244 180 188 208 147 222 167 228 332 126
530.0 260 244 177 118 205 283 196 78 145 120
570.0 146 200 215 168 286 241 176 126 150 142
610.0 186 160 131 153 123 20 39 112 67 31
650.0 78 71 56 112 78 182 169 159 132 140
690.0 202 206 142 126 122 126 150 213 232 274
730.0 276 271 262 245 197 215 276 196 188 212
770.0 207 230 217 178 193 194 211 185 207 182
810.0 152 131 126 156 170 117 91 154 214 201
850.0 296 367 464 613 685 565 431 350 299 209
890.0 168 178 149 139 162 186 176 110 152 91
930.0 96 132 145 96 114 124 145 168 144 146
970.0 171 220 212 232 241 245 285 367 400 474
1010.0 659 860 1066 1342 1728 2078 2393 2573 2499 2287
1050.0 2031 1690 1416 1209 1073 988 988 1010 1035 1101
1090.0 1214 1450 1766 1997 2281 2591 3097 3716 4327 4603
1130.0 4565 4456 4395 4337 4171 3647 3054 2575 2286 2222
1170.0 2405 2825 3508 4386 5257 5823 6338 6662 6880 7096
1210.0 6918 6575 5802 5012 4480 4119 4071 4022 3857 3768
1250.0 3717 3710 3508 3149 2778 2472 2270 1992 1704 1450
1290.0 1283 1236 1258 1292 1270 1179 1058 939 788 728
1330.0 639 585 553 532 510 450 383 372 473 705
1370.0 873 906 838 761 774 647 531 470 380 355
1410.0 320 293 297 284 314 392 470 630 763 862
1450.0 983 1122 1197 1412 1415 1449 1269 968 700 487
1490.0 387 269 217 175 165 177 128 135 94 112
1530.0 123 92 146 82 104 80 79 113 122 90
1570.0 76 75 82 81 100 62 104 45 90 90
1610.0 42 92 70 95 79 91 82 88 75 85
1650.0 105 87 177 106 171 141 188 182 268 265
1690.0 317 348 423 543 673 743 860 1061 1355 1885
1730.0 2876 4452 7139 9320 10000 9427 7310 5994 4751 3237
1770.0 2124 1341 976 775 569 533 407 379 341 270
1810.0 263 224 200 195 147 159 102 128 93 92
1850.0 80 47 59 49 53 49 45 45 63 59
1890.0 65 57 55 67 52 64 37 53 42 30
1930.0 31 20 29 27 20 21 26 22 30 31
1970.0 27 32 27 28 36 35 29 23 31 36
2010.0 30 24 24 30 28 15 23 36 46 37
2050.0 44 39 39 36 45 34 33 29 45 34
2090.0 28 31 22 29 18 15 15 26 29 18
2130.0 14 19 15 7 11 10 7 10 10 4
2170.0 3 10 8 10 11 8 10 6 5 5
2210.0 8 6 6 11 4 11 10 12 15 15
2250.0 15 16 18 15 19 19 16 17 19 23
2290.0 25 31 37 38 38 51 45 49 52 46
2330.0 52 46 68 15 99 21 101 31 94 66
2370.0 56 78 67 61 41 38 37 36 38 35
2410.0 41 35 36 36 32 34 31 29 33 28
2450.0 28 23 22 25 25 25 24 23 19 19
2490.0 26 23 23 28 25 25 31 31 30 31
2530.0 32 34 30 33 34 31 34 33 38 39
2570.0 42 39 42 46 47 50 51 49 50 49
2610.0 52 58 56 56 57 56 56 54 53 58
2650.0 61 65 63 62 66 70 72 80 82 79
2690.0 75 74 75 76 80 79 89 95 102 108
2730.0 115 124 128 132 141 140 139 133 136 138
2770.0 146 159 159 163 168 179 192 194 211 224
2810.0 235 261 279 299 320 337 367 410 467 519
2850.0 591 682 812 1068 1482 1979 2324 2474 2626 2601
2890.0 2255 1858 1668 1695 1836 2054 2298 2527 2784 3113
2930.0 3536 4043 4584 4943 4896 4521 4302 4724 5931 7484
2970.0 8002 6822 5136 4202 3873 3410 2772 2212 1810 1489
3010.0 1235 1030 857 732 634 548 478 414 371 328
3050.0 299 282 255 247 236 219 213 200 195 184
3090.0 181 181 170 167 165 161 155 152 146 139
3130.0 137 138 137 142 132 133 137 130 123 132
3170.0 122 114 121 121 122 115 114 111 105 98
3210.0 91 92 78 92 97 82 82 76 71 80
3250.0 66 75 78 70 66 71 79 63 69 71
3290.0 60 68 72 74 66 64 68 75 77 69
3330.0 71 72 69 65 76 65 76 75 75 73
3370.0 76 76 75 72 81 83 68 78 73 71
3410.0 74 83 75 74 93 76 90 75 72 85
3450.0 85 95 100 110 124 121 130 125 137 130
3490.0 135 125 120 87 97 75 85 68 85 73
3530.0 80 75 76 78 80 58 92 64 92 36
3570.0 87 64 84 52 78 50 74 59 64 70
3610.0 66 73 42 79 36 102 42 88 39 80
3650.0 24 113 32 88 84 23 127 13 113 43
3690.0 96 76 61 80 67 49 71 52 116 50
3730.0 92 86 26 148 0 190 4 137 61 91
3770.0 106 58 95 83 61 106 59 109 50 120
3810.0 63 112 104 100 135 78 103 103 84 137
3850.0 28 157 76 92 89 67 94 98 128 81
3890.0 117 46 96 63 101 97 44 114 81 93
3930.0 57 97 73 77 84 84 115 65 84 116
##END=
