##TITLE=Benzenamine, 4-methoxy-N-methyl-
##JCAMP-DX=4.24
##DATA TYPE=INFRARED SPECTRUM
##ORIGIN=Sadtler Research Labs Under US-EPA Contract
##OWNER=NIST Standard Reference Data Program
##CAS REGISTRY NO=5961-59-1
##MOLFORM=C 8 H 11 N O
##XUNITS=1/CM
##YUNITS=ABSORBANCE
##XFACTOR=1.0
##YFACTOR=0.000142218
##DELTAX=4.0
##FIRSTX=450.0
##LASTX=3966.0
##FIRSTY=0.019199
##MAXX=3966
##MINX=450
##MAXY=1.42218
##MINY=0
##NPOINTS=880
##XYDATA=(X++(Y..Y))
450.0 135 182 220 203 213 199 195 190 201 224
490.0 219 224 215 251 248 283 300 326 307 303
530.0 285 277 273 262 269 278 271 257 277 276
570.0 269 288 294 316 326 334 321 325 330 333
610.0 320 320 320 313 316 310 309 320 327 323
650.0 332 322 327 310 313 317 309 308 308 313
690.0 313 308 329 332 351 372 413 444 468 470
730.0 441 382 304 231 163 113 89 71 64 72
770.0 71 82 88 115 146 189 256 355 513 710
810.0 922 1118 1367 1444 1279 1102 896 670 475 318
850.0 208 140 100 70 63 44 39 32 26 26
890.0 20 13 13 7 9 1 0 4 2 3
930.0 6 7 8 18 16 19 18 19 18 28
970.0 42 56 73 87 108 130 162 190 226 269
1010.0 328 406 516 670 843 1032 1195 1308 1354 1338
1050.0 1290 1236 1161 1042 898 735 576 459 385 362
1090.0 365 377 392 391 379 368 337 324 313 319
1130.0 341 383 454 549 630 658 665 636 595 596
1170.0 638 716 770 744 710 639 539 505 515 560
1210.0 642 788 1047 1522 2352 3618 5196 6512 7305 7291
1250.0 6351 4913 3715 2749 1989 1496 1256 1140 1086 1039
1290.0 1007 970 956 925 873 787 688 551 475 404
1330.0 347 298 194 178 180 162 146 124 96 107
1370.0 115 98 119 160 162 205 224 224 274 285
1410.0 260 285 197 311 371 489 514 647 753 761
1450.0 785 791 757 909 1001 1037 973 1016 1082 1036
1490.0 1082 1430 2082 3453 5628 8160 10000 9628 8618 5671
1530.0 3279 1776 1021 577 409 375 284 177 208 239
1570.0 211 209 222 219 260 242 260 244 272 258
1610.0 269 285 249 280 226 263 190 153 170 138
1650.0 56 54 116 105 96 76 34 93 22 6
1690.0 64 79 1 8 45 99 68 7 90 120
1730.0 73 5 63 66 31 3 55 49 53 71
1770.0 40 16 66 49 69 50 43 54 41 91
1810.0 84 85 109 108 98 91 114 138 106 89
1850.0 110 128 113 107 78 47 88 85 82 72
1890.0 63 63 70 73 67 63 56 56 38 58
1930.0 64 61 62 42 52 64 69 70 77 64
1970.0 74 79 80 78 77 58 56 67 66 63
2010.0 62 57 51 60 66 67 74 73 76 87
2050.0 93 98 103 101 94 104 101 98 91 88
2090.0 78 73 68 60 54 45 39 33 28 24
2130.0 20 16 17 11 7 8 6 5 4 3
2170.0 3 5 1 3 4 5 4 2 5 3
2210.0 6 1 3 3 3 2 1 1 5 5
2250.0 5 8 11 9 12 18 20 24 25 27
2290.0 30 27 29 32 34 35 38 34 40 44
2330.0 44 44 46 50 43 53 45 36 31 23
2370.0 19 13 13 16 11 5 4 8 8 11
2410.0 12 13 12 11 9 12 9 6 7 8
2450.0 8 12 12 16 21 24 28 30 30 28
2490.0 24 26 25 23 21 23 25 26 26 28
2530.0 29 34 38 44 47 47 49 47 49 48
2570.0 49 49 47 44 44 43 41 39 39 38
2610.0 36 34 35 33 31 32 31 32 30 31
2650.0 30 32 29 27 31 29 32 33 33 38
2690.0 38 42 46 50 52 56 59 60 63 65
2730.0 72 73 77 82 87 92 101 111 119 130
2770.0 143 157 178 200 224 252 285 340 399 489
2810.0 595 707 798 863 907 973 1070 1106 1094 1033
2850.0 882 740 663 630 622 641 677 733 800 887
2890.0 978 1059 1140 1200 1259 1304 1318 1304 1274 1265
2930.0 1296 1364 1447 1505 1516 1487 1404 1295 1200 1131
2970.0 1090 1092 1137 1177 1191 1194 1235 1262 1223 1125
3010.0 995 805 697 711 767 792 761 686 571 488
3050.0 478 504 526 533 521 484 440 398 350 304
3090.0 272 247 233 220 211 199 188 174 150 131
3130.0 119 106 90 78 68 60 56 50 47 40
3170.0 38 35 34 32 31 28 29 24 22 19
3210.0 22 23 16 16 18 18 18 18 14 13
3250.0 14 13 11 13 12 11 15 14 11 13
3290.0 11 10 11 13 10 9 13 16 13 16
3330.0 10 10 12 12 6 13 8 13 12 19
3370.0 16 14 9 11 17 16 21 21 30 33
3410.0 42 40 59 67 91 112 145 176 194 198
3450.0 186 160 131 100 80 56 46 44 33 33
3490.0 29 31 25 27 20 20 24 19 19 22
3530.0 16 16 13 19 18 14 14 17 10 22
3570.0 26 16 13 11 21 18 26 1 12 8
3610.0 26 9 11 11 14 28 17 6 8 11
3650.0 17 9 18 17 7 25 14 29 10 24
3690.0 18 20 14 20 14 15 11 15 16 23
3730.0 14 16 32 13 47 7 26 14 7 4
3770.0 13 24 5 13 12 11 7 14 16 20
3810.0 4 12 6 15 19 13 9 17 20 20
3850.0 22 35 19 18 26 22 24 21 8 29
3890.0 24 27 19 42 30 18 19 16 21 19
3930.0 25 18 14 11 28 22 28 13 19 22
##END=
