##TITLE=Stannane, tetraethyl-
##JCAMP-DX=4.24
##DATA TYPE=INFRARED SPECTRUM
##ORIGIN=Sadtler Research Labs Under US-EPA Contract
##OWNER=NIST Standard Reference Data Program
##CAS REGISTRY NO=597-64-8
##MOLFORM=C 8 H 20 Sn
##XUNITS=1/CM
##YUNITS=ABSORBANCE
##XFACTOR=1.0
##YFACTOR=0.000071429
##DELTAX=4.0
##FIRSTX=450.0
##LASTX=3966.0
##FIRSTY=0.028643
##MAXX=3966
##MINX=450
##MAXY=0.71429
##MINY=0
##NPOINTS=880
##XYDATA=(X++(Y..Y))
450.0 401 224 214 249 312 463 534 766 924 1117
490.0 1158 1277 1498 1984 2641 3443 3913 3730 2877 1947
530.0 1234 762 508 361 280 247 224 175 163 165
570.0 107 122 108 147 118 149 161 133 205 181
610.0 245 250 371 397 508 589 708 864 1022 1330
650.0 1549 1983 2304 2804 3072 3413 3504 3287 2935 2477
690.0 1944 1615 1231 1008 777 646 505 399 342 265
730.0 247 175 206 141 138 136 136 110 101 107
770.0 81 78 62 77 46 64 37 42 21 27
810.0 20 14 20 20 19 15 23 11 15 26
850.0 12 27 10 12 3 21 18 28 20 36
890.0 51 46 63 66 84 116 138 170 200 246
930.0 323 422 549 684 805 914 986 1038 1051 1021
970.0 949 908 898 939 1041 1184 1400 1660 1985 2321
1010.0 2596 2707 2583 2238 1779 1330 971 727 528 396
1050.0 288 224 168 140 112 95 83 70 73 63
1090.0 63 56 55 54 52 51 41 43 33 37
1130.0 35 40 36 52 60 72 90 114 155 211
1170.0 297 433 651 980 1375 1717 1854 1713 1353 953
1210.0 646 480 406 392 405 438 460 447 412 343
1250.0 283 235 204 182 166 146 134 121 105 93
1290.0 87 81 72 75 71 68 55 56 60 58
1330.0 56 56 60 62 72 81 87 98 115 149
1370.0 195 311 487 692 847 826 665 514 396 387
1410.0 415 519 692 884 1053 1028 910 802 740 768
1450.0 862 983 1105 1190 1225 1222 1136 1005 837 682
1490.0 558 479 421 374 333 280 243 200 173 153
1530.0 133 123 112 102 89 99 98 91 88 91
1570.0 88 90 88 85 83 79 81 92 97 109
1610.0 114 119 117 103 93 85 80 79 77 71
1650.0 71 83 90 96 103 110 125 125 128 126
1690.0 116 110 111 108 101 95 83 66 55 49
1730.0 39 33 26 26 22 14 16 16 13 11
1770.0 6 9 8 4 8 4 0 1 6 2
1810.0 1 2 8 2 3 3 6 7 7 4
1850.0 9 10 11 13 18 20 29 37 44 52
1890.0 55 66 65 66 61 54 50 41 36 39
1930.0 34 30 32 28 26 26 27 22 24 20
1970.0 20 21 15 14 15 16 13 11 14 14
2010.0 12 10 10 12 8 8 8 9 9 9
2050.0 8 10 13 14 15 21 21 19 18 16
2090.0 29 27 28 26 33 32 32 40 46 57
2130.0 67 77 89 108 119 132 142 138 130 119
2170.0 99 90 86 82 76 67 58 53 48 37
2210.0 34 28 19 15 13 6 13 7 6 6
2250.0 6 4 4 0 3 0 2 6 5 6
2290.0 9 14 15 20 19 26 23 16 20 19
2330.0 27 32 38 49 48 58 57 53 58 72
2370.0 61 69 65 60 65 60 56 58 58 55
2410.0 59 55 55 48 42 33 31 29 26 28
2450.0 19 23 24 24 24 21 17 17 13 9
2490.0 6 8 9 8 6 5 4 4 6 4
2530.0 7 9 8 5 8 11 11 13 18 24
2570.0 37 49 50 47 47 47 43 44 51 64
2610.0 74 87 93 89 81 69 60 51 49 45
2650.0 43 48 51 49 50 51 54 54 61 67
2690.0 80 83 95 111 118 116 117 112 110 114
2730.0 123 149 182 235 296 351 371 340 284 232
2770.0 202 187 185 185 196 214 244 282 336 388
2810.0 444 510 599 707 829 923 965 961 939 928
2850.0 966 1020 1126 1289 1563 2104 3105 4451 5656 6247
2890.0 5922 5150 4389 4133 4531 5311 6291 6949 7066 6762
2930.0 6486 6370 6525 6882 7378 8150 8992 9917 10000 9090
2970.0 7827 6311 5030 4039 3200 2581 2116 1777 1486 1238
3010.0 1027 847 705 592 519 456 414 388 374 369
3050.0 379 381 387 387 388 394 389 376 353 316
3090.0 287 256 233 212 197 185 174 168 156 153
3130.0 153 153 151 162 153 155 157 159 151 156
3170.0 149 149 148 136 127 116 112 102 88 82
3210.0 75 63 54 48 48 35 37 31 29 22
3250.0 14 18 18 17 15 17 16 15 25 14
3290.0 15 10 10 15 7 17 15 16 14 23
3330.0 22 14 17 20 10 21 23 22 21 25
3370.0 14 17 17 16 9 12 14 23 27 24
3410.0 19 18 23 24 19 23 20 19 10 8
3450.0 9 12 12 23 19 21 22 27 11 10
3490.0 2 6 11 0 5 15 10 7 6 15
3530.0 17 18 24 9 20 35 35 42 47 32
3570.0 41 33 44 32 34 38 26 30 37 31
3610.0 29 30 26 29 27 23 17 33 36 22
3650.0 9 11 11 13 20 4 6 4 12 3
3690.0 19 4 11 15 4 8 11 7 0 6
3730.0 21 19 5 17 18 2 22 15 2 9
3770.0 5 5 14 18 31 21 11 39 16 15
3810.0 33 29 49 31 33 41 41 43 55 70
3850.0 74 75 69 57 61 61 61 73 60 70
3890.0 66 58 49 49 61 61 61 50 57 49
3930.0 50 52 40 39 16 44 19 41 34 37
##END=
