##TITLE=3-Pentanol, 3-ethyl-
##JCAMP-DX=4.24
##DATA TYPE=INFRARED SPECTRUM
##ORIGIN=Sadtler Research Labs Under US-EPA Contract
##OWNER=NIST Standard Reference Data Program
##CAS REGISTRY NO=597-49-9
##MOLFORM=C 7 H 16 O
##XUNITS=1/CM
##YUNITS=ABSORBANCE
##XFACTOR=1.0
##YFACTOR=0.000147742
##DELTAX=4.0
##FIRSTX=450.0
##LASTX=3966.0
##FIRSTY=0.000000
##MAXX=3966
##MINX=450
##MAXY=1.47742
##MINY=0
##NPOINTS=880
##XYDATA=(X++(Y..Y))
450.0 0 68 135 80 109 128 108 181 90 159
490.0 92 128 46 58 62 39 50 51 87 37
530.0 113 105 151 152 186 124 105 109 96 105
570.0 68 131 90 97 123 99 123 117 124 58
610.0 120 65 116 83 100 103 88 112 81 98
650.0 72 106 97 111 78 106 108 102 134 126
690.0 161 136 141 120 126 100 97 94 73 101
730.0 78 93 84 98 79 113 132 135 160 161
770.0 181 146 169 153 174 167 170 152 136 136
810.0 106 106 78 96 78 90 82 78 86 78
850.0 94 82 99 89 106 104 112 141 160 191
890.0 233 316 404 594 799 1076 1317 1502 1608 1589
930.0 1617 1767 2103 2523 2881 3177 3183 2652 2116 1590
970.0 1062 703 470 369 311 295 279 286 309 330
1010.0 375 409 465 488 528 553 578 586 575 545
1050.0 490 468 453 476 485 510 493 464 431 402
1090.0 384 374 409 441 517 602 717 829 947 1042
1130.0 1095 1134 1150 1190 1244 1362 1491 1625 1703 1685
1170.0 1573 1399 1220 1010 844 702 608 522 466 433
1210.0 408 405 403 437 460 512 565 636 701 761
1250.0 815 840 854 840 825 782 759 732 719 706
1290.0 700 696 684 672 646 634 599 581 559 552
1330.0 542 540 561 579 619 657 706 745 801 851
1370.0 924 1015 1092 1165 1194 1164 1006 831 650 506
1410.0 404 350 314 300 318 356 437 558 755 965
1450.0 1225 1556 1813 1895 1891 1763 1520 1239 948 703
1490.0 498 361 271 217 185 155 146 132 121 121
1530.0 114 116 107 110 107 119 114 116 113 119
1570.0 119 116 118 114 113 104 105 96 96 88
1610.0 86 78 73 77 70 78 66 73 73 72
1650.0 69 64 68 65 69 57 58 54 54 48
1690.0 53 51 39 39 37 46 35 34 39 41
1730.0 37 34 36 35 35 28 32 27 29 27
1770.0 24 24 23 25 24 30 23 27 24 27
1810.0 24 25 31 25 25 21 29 26 27 24
1850.0 23 21 25 25 21 26 26 29 26 29
1890.0 28 30 34 33 32 28 32 26 27 24
1930.0 28 24 24 23 25 27 24 24 22 23
1970.0 24 20 21 20 21 18 22 20 21 20
2010.0 23 23 23 30 30 33 26 30 27 30
2050.0 28 26 32 28 32 26 26 25 23 19
2090.0 21 21 19 23 21 25 20 23 20 20
2130.0 19 21 18 20 22 21 22 21 25 22
2170.0 26 24 25 26 24 25 22 27 22 24
2210.0 25 28 29 28 28 29 33 31 36 31
2250.0 33 32 31 30 29 33 31 36 36 41
2290.0 43 47 50 50 51 47 46 34 32 23
2330.0 25 18 20 34 40 54 22 33 29 61
2370.0 62 68 71 77 69 58 58 58 59 52
2410.0 54 53 51 54 48 47 42 46 41 41
2450.0 42 43 47 44 45 39 43 41 41 39
2490.0 44 42 40 39 37 43 40 44 41 49
2530.0 44 48 45 49 49 49 49 49 51 49
2570.0 58 62 60 68 71 76 72 77 80 81
2610.0 80 83 81 84 83 84 88 84 89 91
2650.0 93 89 85 87 87 88 88 101 95 103
2690.0 103 103 101 102 103 104 107 112 126 133
2730.0 144 161 177 185 193 202 199 190 183 179
2770.0 180 182 187 189 207 207 229 234 243 254
2810.0 275 282 301 327 353 392 432 494 568 687
2850.0 835 1025 1236 1459 1629 1789 2004 2317 2798 3198
2890.0 3555 3708 3549 3365 3158 2988 3064 3334 3818 4441
2930.0 5196 5920 6558 6988 6904 6703 6514 6297 6639 7508
2970.0 8613 9974 10000 9011 7617 5576 3672 2393 1596 1116
3010.0 832 672 563 492 444 404 379 359 349 329
3050.0 327 319 319 304 310 312 300 300 299 304
3090.0 302 277 256 247 237 218 201 194 176 167
3130.0 163 151 152 149 145 151 149 148 135 140
3170.0 136 143 137 122 123 117 97 89 91 70
3210.0 74 47 67 56 49 53 55 48 40 44
3250.0 28 48 46 31 42 28 22 28 41 44
3290.0 41 46 43 41 35 47 45 46 34 26
3330.0 31 41 58 36 47 33 43 39 55 40
3370.0 34 42 46 54 49 54 48 46 45 60
3410.0 53 55 51 64 59 64 65 53 58 58
3450.0 59 54 54 61 45 57 48 48 35 49
3490.0 47 29 53 39 35 26 55 51 73 49
3530.0 57 31 36 52 49 41 32 39 56 43
3570.0 44 55 33 32 48 58 46 45 49 47
3610.0 63 75 110 153 230 320 435 515 583 638
3650.0 539 432 322 221 135 97 86 76 74 50
3690.0 56 50 50 57 48 50 58 51 53 52
3730.0 47 61 42 55 49 52 45 46 41 45
3770.0 52 51 45 22 39 47 39 43 39 59
3810.0 51 41 47 47 69 57 47 40 60 50
3850.0 76 55 46 69 71 67 84 61 55 70
3890.0 57 64 55 58 60 54 31 42 73 68
3930.0 55 66 50 58 43 66 47 54 62 66
##END=
