##TITLE=Propionic acid, 3-(6-hydroxy-m-anisoyl)-, methyl ester
##JCAMP-DX=4.24
##DATA TYPE=INFRARED SPECTRUM
##ORIGIN=Sadtler Research Labs Under US-EPA Contract
##OWNER=NIST Standard Reference Data Program
##CAS REGISTRY NO=59701-66-5
##MOLFORM=C 12 H 14 O 5
##XUNITS=1/CM
##YUNITS=ABSORBANCE
##XFACTOR=1.0
##YFACTOR=0.000051376
##DELTAX=4.0
##FIRSTX=450.0
##LASTX=3966.0
##FIRSTY=0.000000
##MAXX=3966
##MINX=450
##MAXY=0.51376
##MINY=0
##NPOINTS=880
##XYDATA=(X++(Y..Y))
450.0 0 303 426 491 173 237 233 210 136 122
490.0 172 107 142 162 106 187 216 130 124 190
530.0 158 132 165 192 167 143 155 180 188 225
570.0 221 211 239 192 258 285 241 252 294 299
610.0 329 353 402 400 480 585 760 755 746 608
650.0 486 403 384 343 401 502 492 496 495 504
690.0 505 459 484 511 567 643 744 804 819 796
730.0 775 804 834 834 828 838 851 828 829 868
770.0 928 1025 1157 1282 1286 1158 905 591 428 332
810.0 369 415 562 775 1052 1415 1599 1566 1319 1015
850.0 772 611 539 536 575 655 768 846 782 567
890.0 341 218 151 139 140 131 147 139 141 130
930.0 107 89 97 132 144 204 270 380 502 592
970.0 698 904 1202 1457 1506 1302 1032 885 806 809
1010.0 824 913 1069 1299 1588 1973 2375 2641 2809 2806
1050.0 2613 2316 2012 1704 1420 1091 823 615 492 412
1090.0 373 368 393 441 523 620 722 848 999 1213
1130.0 1522 1950 2474 3057 3704 4489 5584 6986 8449 9304
1170.0 9223 8577 7858 7093 6326 5779 5473 5383 5423 5572
1210.0 5741 5860 5910 5942 6006 6135 6223 6198 6172 6218
1250.0 6392 6540 6587 6582 6684 7006 7539 8159 8291 7578
1290.0 6133 4617 3493 2846 2537 2434 2437 2515 2664 2878
1330.0 3115 3310 3471 3497 3517 3585 3688 3721 3509 3065
1370.0 2607 2267 2004 1831 1735 1702 1729 1798 1904 2085
1410.0 2325 2531 2726 2690 2565 2443 2608 2981 3172 2920
1450.0 2474 2267 2274 2465 2885 3517 4461 6012 8026 10000
1490.0 9810 7813 5077 3065 2006 1414 1091 875 790 657
1530.0 606 560 543 568 536 533 558 646 675 753
1570.0 924 1175 1526 1918 2189 2224 1974 1618 1359 1295
1610.0 1451 1750 2090 2247 2191 2008 1874 2043 2442 3233
1650.0 4270 5403 6148 5736 4516 3027 1921 1277 956 792
1690.0 676 622 653 641 691 719 836 971 1094 1219
1730.0 1452 1754 2120 2591 3244 4203 5413 6374 6488 5850
1770.0 4834 3608 2554 1936 1471 1151 892 692 524 375
1810.0 282 214 171 150 137 128 108 90 105 108
1850.0 93 90 103 107 106 116 108 113 110 124
1890.0 140 153 167 177 160 129 124 110 113 107
1930.0 102 109 108 116 118 118 126 128 126 138
1970.0 138 136 139 151 152 162 165 165 176 175
2010.0 170 180 190 186 190 191 195 201 209 214
2050.0 216 213 215 218 222 215 212 216 210 204
2090.0 190 178 168 164 156 149 137 134 122 122
2130.0 120 110 113 111 110 114 114 111 110 110
2170.0 107 104 108 104 98 100 97 104 97 98
2210.0 99 94 95 94 92 90 93 96 102 101
2250.0 96 96 97 98 103 107 114 118 127 151
2290.0 153 171 193 204 215 232 219 201 203 190
2330.0 165 167 154 178 185 231 185 190 183 163
2370.0 172 190 212 225 187 148 142 132 126 124
2410.0 118 121 121 123 125 126 124 129 129 135
2450.0 130 143 148 138 134 139 131 145 141 138
2490.0 130 131 129 136 123 127 126 126 129 134
2530.0 139 139 141 134 144 158 161 156 160 167
2570.0 168 172 175 186 191 187 194 190 191 190
2610.0 191 190 185 180 184 171 182 181 184 186
2650.0 194 196 192 199 193 202 212 198 200 199
2690.0 202 200 203 209 212 208 210 214 219 222
2730.0 227 236 238 238 238 252 262 253 263 266
2770.0 266 274 276 284 288 295 309 322 327 341
2810.0 362 400 431 470 522 620 759 946 1100 1163
2850.0 1111 1015 890 773 700 660 638 641 643 659
2890.0 694 765 829 919 1049 1179 1352 1502 1600 1597
2930.0 1579 1611 1761 1976 2159 2288 2404 2629 2778 2536
2970.0 1937 1458 1258 1169 1156 1181 1267 1424 1665 1868
3010.0 1879 1646 1303 1069 962 929 897 874 857 861
3050.0 881 883 877 846 822 832 885 952 957 904
3090.0 842 779 751 746 742 742 763 768 772 765
3130.0 768 764 763 760 748 750 734 724 724 730
3170.0 743 733 725 722 719 719 734 723 713 723
3210.0 713 706 697 699 680 663 665 659 645 645
3250.0 644 638 629 633 634 637 637 637 621 620
3290.0 606 598 581 584 571 548 557 539 522 525
3330.0 507 505 498 480 473 467 462 445 439 426
3370.0 414 389 407 392 385 382 372 365 361 339
3410.0 338 357 341 327 326 300 319 289 288 294
3450.0 269 283 278 274 272 263 284 258 260 262
3490.0 258 252 253 244 244 236 216 206 211 192
3530.0 192 180 177 180 180 176 186 177 168 158
3570.0 152 159 183 188 179 177 155 143 130 141
3610.0 138 125 130 129 116 140 137 113 129 133
3650.0 129 147 127 115 106 108 98 95 108 108
3690.0 95 98 109 123 98 117 89 107 108 106
3730.0 98 110 129 104 127 93 91 96 92 89
3770.0 89 106 112 88 93 89 89 92 91 98
3810.0 90 89 89 89 94 93 89 89 89 95
3850.0 104 102 88 89 91 89 99 89 88 123
3890.0 89 89 98 108 117 89 89 89 105 95
3930.0 105 89 90 96 102 118 115 88 89 89
##END=
