##TITLE=1H-Cyclopenta[b]benzofuran-3a-ol, 7-methoxy-2,3,3a,8b-tetrahdro-,
##JCAMP-DX=4.24
##DATA TYPE=INFRARED SPECTRUM
##ORIGIN=Sadtler Research Labs Under US-EPA Contract
##OWNER=NIST Standard Reference Data Program
##CAS REGISTRY NO=59701-69-8
##MOLFORM=C 12 H 14 O 3
##XUNITS=1/CM
##YUNITS=ABSORBANCE
##XFACTOR=1.0
##YFACTOR=0.000133923
##DELTAX=4.0
##FIRSTX=450.0
##LASTX=3966.0
##FIRSTY=0.038570
##MAXX=3966
##MINX=450
##MAXY=1.33923
##MINY=0
##NPOINTS=880
##XYDATA=(X++(Y..Y))
450.0 288 185 177 156 141 116 108 56 35 55
490.0 46 20 36 34 29 27 20 34 33 52
530.0 43 61 87 109 79 79 77 77 75 73
570.0 97 95 87 97 87 102 120 118 104 98
610.0 75 60 48 41 22 21 16 16 16 12
650.0 13 10 10 10 7 12 3 0 1 1
690.0 5 33 54 83 210 389 525 533 415 303
730.0 279 276 264 247 213 151 107 90 103 142
770.0 201 277 388 531 726 925 1157 1435 1699 1849
810.0 1771 1526 1188 884 695 608 589 605 623 597
850.0 522 457 468 530 607 612 515 386 283 235
890.0 235 269 313 349 377 444 564 611 547 398
930.0 281 231 201 176 194 272 464 822 1113 1166
970.0 942 600 422 367 372 431 539 705 850 955
1010.0 1041 1172 1419 1790 2299 2835 3138 3051 2592 1989
1050.0 1420 990 724 610 589 636 746 927 1226 1697
1090.0 2347 2963 3169 2884 2219 1581 1178 941 816 805
1130.0 899 1104 1389 1584 1573 1372 1151 1117 1325 1717
1170.0 2180 2638 3075 3448 3915 4638 5338 5521 4975 4031
1210.0 3370 3274 3533 3712 3433 2773 2149 1870 1801 1789
1250.0 1766 1729 1689 1663 1776 1856 1805 1533 1180 975
1290.0 884 868 877 874 854 812 769 726 670 611
1330.0 563 535 540 562 593 599 566 529 531 527
1370.0 543 585 653 755 899 1057 1170 1179 1087 951
1410.0 826 769 809 956 1199 1486 1721 1805 1760 1662
1450.0 1584 1587 1714 1909 2226 2698 3461 4969 7011 10000
1490.0 9851 8139 4656 2302 1215 733 509 370 306 238
1530.0 196 166 139 126 103 99 82 89 85 75
1570.0 79 87 99 115 133 169 206 257 297 326
1610.0 321 283 237 189 159 124 110 88 69 56
1650.0 52 52 41 29 31 29 37 27 40 43
1690.0 40 35 52 45 42 33 43 54 59 65
1730.0 80 97 89 81 76 69 55 50 48 51
1770.0 55 51 33 25 20 16 17 18 28 28
1810.0 32 35 37 33 40 39 49 50 70 78
1850.0 79 74 59 44 29 18 11 8 4 6
1890.0 4 2 4 3 6 6 9 10 9 6
1930.0 4 4 5 2 1 0 2 6 3 7
1970.0 7 11 12 11 11 11 16 15 17 18
2010.0 21 26 27 29 31 35 38 44 49 53
2050.0 54 57 57 59 56 52 50 47 40 33
2090.0 29 26 20 18 18 15 12 12 12 13
2130.0 10 11 8 7 7 10 11 14 22 25
2170.0 32 35 41 43 44 41 36 32 25 22
2210.0 20 16 13 10 10 10 7 4 4 2
2250.0 3 1 2 0 4 2 4 7 11 11
2290.0 14 17 17 21 20 20 21 21 22 17
2330.0 14 18 28 18 28 26 9 15 7 7
2370.0 18 17 27 29 23 18 16 17 16 17
2410.0 17 15 15 15 16 16 16 19 18 19
2450.0 22 25 27 27 29 31 30 31 30 30
2490.0 26 26 33 30 32 28 32 29 26 26
2530.0 21 27 25 27 23 23 22 21 21 22
2570.0 23 20 21 28 28 30 30 33 33 33
2610.0 37 37 33 35 33 31 35 33 33 37
2650.0 38 35 37 40 37 39 37 33 34 34
2690.0 35 31 33 31 29 32 31 34 36 39
2730.0 38 39 39 45 43 43 41 43 52 55
2770.0 59 61 67 70 81 93 99 111 125 142
2810.0 156 180 202 243 302 404 575 737 813 764
2850.0 639 555 536 561 634 762 932 1047 1063 998
2890.0 914 909 1019 1277 1544 1718 1726 1634 1585 1573
2930.0 1635 1802 2165 2695 3243 3599 3727 3704 3706 3537
2970.0 3380 3314 2972 2359 1494 955 853 957 1121 1126
3010.0 938 640 422 326 289 301 315 345 355 344
3050.0 319 281 257 248 253 261 265 260 239 228
3090.0 203 192 183 165 151 135 117 96 78 63
3130.0 47 41 35 33 30 29 28 30 25 27
3170.0 20 21 26 26 19 16 15 17 12 11
3210.0 12 18 13 16 15 16 15 7 13 13
3250.0 16 17 16 15 18 20 20 17 26 21
3290.0 15 20 19 21 18 18 25 22 20 31
3330.0 23 23 19 22 21 16 20 19 16 20
3370.0 18 19 12 13 14 11 20 12 17 10
3410.0 20 16 12 16 22 18 16 22 21 28
3450.0 17 14 17 20 19 22 27 15 29 32
3490.0 22 27 33 38 25 28 32 28 25 31
3530.0 23 33 32 34 39 48 66 93 110 127
3570.0 132 115 104 117 182 297 524 907 1180 1196
3610.0 984 649 400 253 170 134 106 95 79 72
3650.0 70 57 53 44 37 28 27 18 27 0
3690.0 8 3 7 4 12 12 16 29 26 32
3730.0 15 28 25 19 35 23 8 25 18 30
3770.0 19 21 23 29 21 20 25 18 22 14
3810.0 17 26 7 23 29 16 36 41 25 13
3850.0 16 39 39 47 48 42 25 42 43 54
3890.0 61 33 23 28 34 26 48 39 18 37
3930.0 30 36 30 18 31 22 32 37 25 20
##END=
