##TITLE=Propane, 1,1'-sulfonylbis-
##JCAMP-DX=4.24
##DATA TYPE=INFRARED SPECTRUM
##ORIGIN=Sadtler Research Labs Under US-EPA Contract
##OWNER=NIST Standard Reference Data Program
##CAS REGISTRY NO=598-03-8
##MOLFORM=C 6 H 14 O 2 S
##XUNITS=1/CM
##YUNITS=ABSORBANCE
##XFACTOR=1.0
##YFACTOR=0.000107004
##DELTAX=4.0
##FIRSTX=450.0
##LASTX=3966.0
##FIRSTY=0.013803
##MAXX=3966
##MINX=450
##MAXY=1.07004
##MINY=0
##NPOINTS=880
##XYDATA=(X++(Y..Y))
450.0 129 282 409 52 291 461 645 696 878 1183
490.0 1174 1042 1598 1412 1365 1848 1674 1596 1460 1332
530.0 1285 1184 1176 1197 1492 1446 1401 982 985 744
570.0 604 719 636 552 591 510 457 447 358 183
610.0 168 240 309 319 229 297 357 376 346 404
650.0 416 572 527 526 498 601 613 811 1000 1130
690.0 1379 1744 1902 1904 1779 1585 1502 1282 1173 1076
730.0 1154 1323 1474 1576 1354 1236 1130 1127 1237 1410
770.0 1554 1685 1784 1771 1672 1508 1248 1107 953 853
810.0 779 694 663 616 599 662 740 983 1157 1334
850.0 1465 1487 1485 1248 992 766 582 413 401 348
890.0 351 340 384 388 363 368 314 210 161 155
930.0 152 160 127 137 156 132 109 107 104 83
970.0 86 115 91 98 137 148 143 116 141 133
1010.0 156 213 243 302 386 456 608 719 880 1006
1050.0 1134 1201 1215 1148 1059 1056 1074 1099 1110 1074
1090.0 1012 930 874 753 683 677 746 979 1512 2484
1130.0 4030 6081 8060 9323 9658 8744 6796 4626 2907 1766
1170.0 1116 765 595 530 503 518 554 610 653 677
1210.0 702 683 645 638 628 671 771 925 1086 1224
1250.0 1326 1364 1320 1243 1161 1118 1082 1110 1234 1454
1290.0 1751 2048 2307 2523 2740 3096 3701 4639 5900 7437
1330.0 8765 9636 10000 9321 8593 7660 6648 5588 4310 3062
1370.0 2093 1362 964 786 713 728 716 744 799 893
1410.0 1042 1109 1093 926 801 672 588 633 660 796
1450.0 991 1194 1359 1546 1536 1516 1348 1135 895 689
1490.0 537 415 380 348 359 370 315 290 238 190
1530.0 186 144 174 116 138 119 100 130 76 103
1570.0 97 74 109 68 105 71 81 69 68 80
1610.0 47 84 44 72 65 57 69 65 56 85
1650.0 59 81 73 67 85 66 81 55 76 44
1690.0 64 47 49 60 47 54 51 73 79 85
1730.0 92 47 60 27 50 42 34 40 40 33
1770.0 41 32 25 29 31 14 38 20 39 23
1810.0 18 23 8 21 10 21 15 16 23 20
1850.0 23 3 14 14 14 21 10 17 8 17
1890.0 17 20 17 16 11 20 11 21 11 14
1930.0 11 12 14 13 21 16 21 15 21 21
1970.0 22 21 24 24 29 27 27 24 24 23
2010.0 21 24 25 26 26 28 30 28 32 31
2050.0 26 24 23 19 24 26 22 21 28 25
2090.0 30 31 31 34 37 33 33 33 34 31
2130.0 31 24 23 24 21 21 20 25 25 25
2170.0 25 27 28 29 27 29 31 33 30 25
2210.0 27 26 27 25 28 27 28 32 32 33
2250.0 35 39 41 44 47 49 57 58 55 56
2290.0 52 49 45 44 40 49 49 60 67 87
2330.0 90 83 97 74 117 43 125 88 155 122
2370.0 95 82 54 40 31 27 37 40 46 51
2410.0 54 59 58 55 50 46 47 44 41 43
2450.0 46 49 51 57 61 60 66 66 58 52
2490.0 50 46 43 36 30 24 23 16 11 15
2530.0 11 10 5 5 6 7 5 2 0 1
2570.0 0 3 2 4 7 11 9 1 9 11
2610.0 13 13 13 11 17 22 23 25 30 35
2650.0 39 51 57 59 64 65 59 60 56 52
2690.0 46 44 39 40 41 42 45 46 52 57
2730.0 61 67 73 89 113 130 142 143 141 132
2770.0 127 119 116 121 130 137 151 171 188 207
2810.0 223 240 253 257 267 273 293 310 333 369
2850.0 401 443 496 576 694 883 1156 1570 2120 2596
2890.0 2807 2816 2574 2224 1974 1909 2011 2256 2589 2928
2930.0 3258 3571 3885 4169 4248 4114 3870 3579 3578 4155
2970.0 5287 6616 7398 7384 6420 4922 3515 2488 1845 1406
3010.0 1079 860 704 604 540 500 469 441 419 391
3050.0 352 315 275 248 225 204 190 181 167 161
3090.0 161 152 144 145 146 140 135 129 124 125
3130.0 111 110 108 104 102 99 100 89 85 82
3170.0 80 83 74 74 72 72 71 73 69 68
3210.0 65 64 65 59 62 58 62 59 57 61
3250.0 52 57 54 52 53 47 40 38 38 49
3290.0 47 42 41 52 46 44 48 46 46 56
3330.0 55 60 66 59 59 61 59 59 58 56
3370.0 61 50 49 50 48 54 50 48 45 51
3410.0 53 50 63 54 56 54 56 63 63 57
3450.0 65 52 64 56 66 57 54 60 53 49
3490.0 55 37 50 45 49 48 49 45 49 49
3530.0 50 58 63 51 50 50 54 50 62 44
3570.0 50 55 47 63 32 77 43 70 37 66
3610.0 31 29 64 41 76 36 45 59 61 28
3650.0 80 0 95 31 78 46 51 56 41 89
3690.0 16 86 40 80 74 43 47 61 48 90
3730.0 70 63 81 34 106 7 112 36 87 61
3770.0 70 75 64 64 85 62 81 41 85 13
3810.0 111 22 77 37 76 47 61 45 62 61
3850.0 65 60 38 75 53 75 65 76 59 56
3890.0 41 74 8 36 15 36 34 2 25 26
3930.0 65 44 61 49 45 75 58 72 65 95
##END=
