##TITLE=Phosphoric acid, diethyl ester
##JCAMP-DX=4.24
##DATA TYPE=INFRARED SPECTRUM
##ORIGIN=Sadtler Research Labs Under US-EPA Contract
##OWNER=NIST Standard Reference Data Program
##CAS REGISTRY NO=598-02-7
##MOLFORM=C 4 H 11 O 4 P
##XUNITS=1/CM
##YUNITS=ABSORBANCE
##XFACTOR=1.0
##YFACTOR=0.000100168
##DELTAX=4.0
##FIRSTX=450.0
##LASTX=3966.0
##FIRSTY=0.012621
##MAXX=3966
##MINX=450
##MAXY=1.00168
##MINY=0
##NPOINTS=880
##XYDATA=(X++(Y..Y))
450.0 126 273 508 350 256 592 379 551 431 716
490.0 581 703 758 808 801 801 882 745 867 794
530.0 860 743 741 683 585 552 495 459 322 306
570.0 216 197 127 130 131 134 130 91 118 63
610.0 74 49 61 56 65 60 57 67 57 57
650.0 50 69 55 72 67 67 83 74 92 81
690.0 100 91 105 115 121 128 146 171 190 221
730.0 246 311 353 426 468 510 527 522 479 433
770.0 408 390 408 437 521 594 678 767 860 917
810.0 936 961 895 817 701 592 513 462 442 428
850.0 450 454 474 487 519 559 633 755 904 1114
890.0 1298 1518 1665 1734 1677 1599 1444 1263 1136 1071
930.0 1101 1193 1401 1654 1970 2326 2657 2914 3172 3347
970.0 3394 3390 3242 3117 2894 2805 2772 2852 2960 3052
1010.0 3124 3148 3340 3657 4324 5166 6448 7711 8842 9713
1050.0 10000 9824 8795 8006 6824 5955 5045 4352 3697 3184
1090.0 2862 2594 2407 2156 1914 1637 1439 1278 1163 1079
1130.0 1021 999 979 989 1006 1035 1029 1025 1003 989
1170.0 969 943 915 864 820 760 718 683 674 683
1210.0 713 772 852 979 1127 1330 1510 1699 1811 1836
1250.0 1768 1641 1550 1461 1468 1494 1577 1645 1774 1919
1290.0 2051 2186 2242 2252 2098 1953 1701 1458 1184 950
1330.0 732 544 445 345 283 244 235 234 266 294
1370.0 353 408 399 387 408 468 526 554 512 422
1410.0 334 251 226 180 177 160 171 164 174 177
1450.0 180 178 158 157 142 141 138 137 133 137
1490.0 132 100 95 79 79 90 75 57 50 41
1530.0 52 40 45 23 55 36 44 19 32 36
1570.0 42 32 46 45 52 55 58 58 66 67
1610.0 67 69 65 76 73 77 81 77 83 88
1650.0 79 74 89 86 85 96 80 106 96 93
1690.0 95 100 84 94 89 95 93 93 85 91
1730.0 92 85 87 91 99 98 95 96 97 97
1770.0 105 99 103 112 108 112 105 108 106 98
1810.0 89 89 84 80 73 68 73 66 70 74
1850.0 71 68 70 72 69 70 64 64 62 60
1890.0 58 55 47 43 40 36 31 32 27 24
1930.0 18 15 13 15 11 6 6 5 0 3
1970.0 1 2 4 4 1 6 7 5 4 4
2010.0 6 6 10 9 12 11 10 11 13 15
2050.0 13 13 12 12 17 17 18 17 18 20
2090.0 23 22 25 27 29 28 30 33 31 32
2130.0 34 35 36 38 40 41 43 45 47 48
2170.0 47 48 50 52 52 53 52 56 57 57
2210.0 55 59 56 61 61 62 64 67 68 68
2250.0 72 74 79 81 83 85 89 89 91 93
2290.0 94 94 97 103 106 106 112 117 119 127
2330.0 128 138 136 138 150 154 151 154 147 145
2370.0 155 161 167 169 171 171 172 171 171 173
2410.0 176 173 169 169 167 162 157 154 150 144
2450.0 139 132 125 120 116 110 104 100 99 94
2490.0 92 92 92 89 88 89 89 89 91 90
2530.0 92 93 96 97 100 100 103 105 110 113
2570.0 116 118 123 125 128 132 132 137 141 142
2610.0 147 149 155 157 159 161 165 167 173 173
2650.0 174 176 179 181 183 185 188 190 190 193
2690.0 192 194 199 201 204 203 205 209 211 217
2730.0 222 228 228 229 229 229 232 235 239 242
2770.0 244 250 253 255 254 256 256 256 254 258
2810.0 262 267 272 273 281 290 294 300 308 321
2850.0 331 344 354 375 401 431 474 520 558 580
2890.0 586 599 619 655 713 776 832 871 879 883
2930.0 920 1022 1155 1248 1250 1168 1061 990 977 1010
2970.0 1083 1202 1374 1592 1783 1861 1769 1598 1382 1177
3010.0 1003 859 747 648 566 493 429 378 337 307
3050.0 276 259 239 223 212 201 194 187 179 170
3090.0 169 166 158 157 152 151 140 142 139 138
3130.0 136 130 126 127 124 122 119 113 110 108
3170.0 107 104 99 97 98 93 92 87 85 85
3210.0 83 83 79 81 80 79 76 75 71 66
3250.0 67 67 66 66 58 63 62 57 60 56
3290.0 60 62 64 58 58 58 60 62 63 63
3330.0 60 62 63 65 61 60 62 68 69 75
3370.0 68 65 69 74 72 73 77 80 80 75
3410.0 76 81 79 80 84 85 88 86 86 78
3450.0 88 86 91 91 92 91 93 93 99 95
3490.0 102 92 92 108 98 103 106 97 106 109
3530.0 103 104 105 102 109 114 102 100 108 103
3570.0 116 112 112 115 106 123 104 116 112 120
3610.0 112 119 117 119 135 121 143 158 175 211
3650.0 235 364 513 709 891 943 924 830 670 459
3690.0 319 228 186 171 152 141 133 142 142 138
3730.0 129 109 131 104 102 122 94 121 130 113
3770.0 126 118 134 114 134 131 131 127 113 119
3810.0 124 114 124 93 128 128 120 116 130 122
3850.0 134 106 121 135 124 122 123 140 126 140
3890.0 133 132 150 127 129 139 146 138 142 145
3930.0 135 146 151 148 151 143 153 149 142 141
##END=
