##TITLE=2-Bromopropanoic acid
##JCAMP-DX=4.24
##DATA TYPE=INFRARED SPECTRUM
##ORIGIN=Sadtler Research Labs Under US-EPA Contract
##OWNER=NIST Standard Reference Data Program
##CAS REGISTRY NO=598-72-1
##MOLFORM=C 3 H 5 Br O 2
##XUNITS=1/CM
##YUNITS=ABSORBANCE
##XFACTOR=1.0
##YFACTOR=0.000095166
##DELTAX=4.0
##FIRSTX=450.0
##LASTX=3966.0
##FIRSTY=0.029597
##MAXX=3966
##MINX=450
##MAXY=0.95166
##MINY=0
##NPOINTS=880
##XYDATA=(X++(Y..Y))
450.0 311 251 285 290 306 318 315 279 299 334
490.0 404 341 403 454 539 609 628 713 806 850
530.0 861 936 1069 1157 1167 1322 1364 1352 1320 1416
570.0 1490 1611 1803 1977 2303 2567 2641 2583 2516 2385
610.0 2232 2355 2604 2527 2569 2207 2075 1620 1247 998
650.0 830 675 527 489 399 318 250 230 243 209
690.0 136 107 106 90 87 74 132 135 134 111
730.0 180 147 159 123 180 225 273 334 411 477
770.0 393 378 325 274 197 193 185 193 173 203
810.0 217 252 254 254 289 258 204 123 134 92
850.0 68 25 30 42 8 19 39 37 47 37
890.0 44 45 28 20 17 46 21 23 43 90
930.0 60 62 69 63 68 68 99 138 227 280
970.0 404 508 600 617 618 572 498 370 287 263
1010.0 202 236 267 390 513 704 889 1090 1264 1361
1050.0 1457 1598 1743 1994 2279 2595 2823 2838 2821 2642
1090.0 2455 2224 2097 2132 2210 2367 2810 3265 3857 4482
1130.0 4805 4950 4668 4086 3389 2767 2409 2308 2363 2468
1170.0 2482 2406 2313 2189 2093 2022 1964 1907 1904 1839
1210.0 1622 1340 1117 868 683 552 482 432 424 413
1250.0 411 405 375 406 428 448 450 471 493 515
1290.0 531 585 623 687 742 796 853 887 913 953
1330.0 1009 1061 1100 1109 1174 1214 1223 1246 1275 1291
1370.0 1341 1400 1409 1373 1315 1209 1012 800 576 450
1410.0 367 321 287 255 265 293 375 544 685 838
1450.0 959 993 926 676 542 372 272 166 95 70
1490.0 87 67 61 52 86 111 65 80 91 86
1530.0 67 76 66 103 70 47 56 74 62 20
1570.0 37 23 35 5 15 22 37 36 54 58
1610.0 60 50 84 80 80 69 74 111 84 100
1650.0 102 155 91 84 79 111 86 87 99 142
1690.0 121 114 172 214 215 221 287 389 488 637
1730.0 853 1122 1340 1495 1581 1758 2077 2700 3725 5185
1770.0 6858 8374 9535 10000 9309 8217 6630 4971 3736 2793
1810.0 2136 1639 1285 984 774 589 437 319 245 205
1850.0 148 111 89 83 73 77 47 53 46 51
1890.0 47 56 54 59 48 58 54 49 43 38
1930.0 37 34 33 40 52 39 44 38 49 39
1970.0 34 28 35 28 19 30 29 28 12 23
2010.0 24 25 19 24 24 20 8 11 19 15
2050.0 12 13 21 15 16 6 15 6 1 1
2090.0 7 8 1 1 8 13 5 11 10 22
2130.0 6 11 10 16 4 12 15 25 18 19
2170.0 26 27 27 26 36 31 36 27 38 39
2210.0 43 36 39 39 31 28 21 27 15 15
2250.0 22 27 19 22 27 35 28 21 27 21
2290.0 16 1 16 11 15 0 10 14 18 3
2330.0 16 20 11 1 1 22 1 1 2 43
2370.0 41 38 47 55 45 38 34 38 39 38
2410.0 38 46 54 44 46 48 59 46 48 56
2450.0 55 51 50 55 56 60 51 62 62 56
2490.0 51 60 54 56 51 61 67 63 63 65
2530.0 71 62 62 62 69 53 53 53 57 48
2570.0 53 54 59 61 49 61 60 59 48 57
2610.0 54 59 49 55 64 65 58 59 67 66
2650.0 57 52 61 50 57 44 60 60 56 56
2690.0 58 61 51 50 57 63 46 56 56 67
2730.0 57 68 73 79 70 73 73 75 66 60
2770.0 68 67 69 57 84 78 78 68 81 80
2810.0 74 73 85 96 94 101 105 121 105 106
2850.0 106 117 108 119 144 170 194 226 246 260
2890.0 262 241 241 220 215 187 204 214 255 298
2930.0 400 502 560 568 567 534 427 342 268 250
2970.0 236 266 348 482 582 704 740 780 723 637
3010.0 558 504 429 330 286 245 221 173 167 157
3050.0 156 147 147 151 137 133 127 143 139 141
3090.0 128 152 143 143 133 143 137 132 126 135
3130.0 138 126 134 136 150 134 143 134 143 128
3170.0 114 124 129 120 111 126 133 138 122 130
3210.0 130 130 105 120 113 104 95 112 116 107
3250.0 104 106 121 97 90 84 101 78 75 65
3290.0 84 69 64 70 78 76 50 59 44 56
3330.0 24 35 34 51 20 34 45 51 42 28
3370.0 46 30 15 16 36 25 24 11 32 30
3410.0 33 20 34 29 17 7 16 21 7 16
3450.0 15 40 25 25 30 36 25 21 33 43
3490.0 48 50 104 121 159 157 184 190 183 175
3530.0 190 189 189 184 211 236 280 414 724 1373
3570.0 2338 3191 3734 3826 3706 3015 1967 1070 528 250
3610.0 152 100 79 49 33 55 30 14 10 16
3650.0 36 16 17 21 21 30 21 46 15 14
3690.0 10 18 13 17 2 23 37 23 29 41
3730.0 41 33 40 24 71 24 24 23 39 29
3770.0 31 35 36 30 24 33 24 27 22 40
3810.0 37 35 41 59 56 51 44 53 60 41
3850.0 33 47 58 47 51 62 84 76 67 52
3890.0 59 51 36 38 37 34 31 47 52 74
3930.0 63 69 63 63 39 30 1 2 2 3
##END=
