##TITLE=Ethanamine, N,N-dimethyl-
##JCAMP-DX=4.24
##DATA TYPE=INFRARED SPECTRUM
##ORIGIN=Sadtler Research Labs Under US-EPA Contract
##OWNER=NIST Standard Reference Data Program
##CAS REGISTRY NO=598-56-1
##MOLFORM=C 4 H 11 N
##XUNITS=1/CM
##YUNITS=ABSORBANCE
##XFACTOR=1.0
##YFACTOR=0.000124670
##DELTAX=4.0
##FIRSTX=450.0
##LASTX=3966.0
##FIRSTY=0.007480
##MAXX=3966
##MINX=450
##MAXY=1.2467
##MINY=0
##NPOINTS=880
##XYDATA=(X++(Y..Y))
450.0 60 86 73 122 132 151 144 163 183 197
490.0 171 153 142 119 109 87 63 51 48 52
530.0 33 38 43 23 16 24 23 22 29 4
570.0 0 16 27 19 18 21 24 4 21 7
610.0 7 14 14 21 1 17 18 18 23 14
650.0 17 13 12 19 20 23 18 19 20 11
690.0 31 20 15 23 29 30 28 18 27 30
730.0 37 47 63 80 107 158 226 301 408 500
770.0 601 711 804 1017 1358 1110 789 729 678 601
810.0 485 371 277 221 167 112 85 78 63 54
850.0 55 41 33 28 29 30 15 24 25 33
890.0 35 41 50 62 71 82 95 126 175 227
930.0 267 361 481 603 680 756 917 769 708 686
970.0 576 422 292 211 162 138 136 150 178 228
1010.0 295 393 535 721 986 1301 1571 1821 2067 2312
1050.0 2527 2810 2899 2745 2664 2490 2203 2030 1764 1590
1090.0 1566 1373 1245 1185 1256 1103 1052 860 606 428
1130.0 351 353 403 489 594 716 858 1026 1244 1428
1170.0 1448 1219 1043 980 900 804 714 666 672 752
1210.0 876 1006 1048 965 935 1017 1014 921 818 786
1250.0 871 1046 1244 1392 1482 1582 1618 1663 1689 1596
1290.0 1490 1373 1240 1179 1033 892 800 663 534 436
1330.0 378 355 340 367 417 496 557 601 734 944
1370.0 1178 1542 1596 1472 1856 1466 1436 1489 1117 658
1410.0 383 327 314 437 588 848 1134 1459 1823 2176
1450.0 2535 2844 3079 2918 2809 2582 2403 2158 1829 1514
1490.0 1201 944 704 513 368 245 196 147 108 113
1530.0 92 103 81 64 67 89 83 58 84 83
1570.0 80 71 81 61 69 55 55 39 46 36
1610.0 33 36 25 37 19 48 29 35 40 46
1650.0 10 42 40 45 40 47 24 57 23 29
1690.0 41 56 32 51 52 71 63 50 73 84
1730.0 57 35 41 39 22 16 29 23 19 23
1770.0 16 13 26 22 27 16 21 28 25 41
1810.0 39 37 47 40 45 40 53 60 51 47
1850.0 49 53 45 40 27 16 24 26 25 20
1890.0 18 16 21 18 14 11 7 8 0 8
1930.0 12 11 12 10 13 19 20 20 18 14
1970.0 17 18 18 20 20 18 23 28 33 35
2010.0 36 32 30 33 37 39 43 49 57 62
2050.0 66 66 65 61 57 53 45 40 32 28
2090.0 22 20 19 17 16 14 15 15 16 15
2130.0 16 12 9 8 11 11 12 14 17 18
2170.0 15 17 17 19 16 11 8 5 4 4
2210.0 1 1 0 0 1 3 5 7 10 15
2250.0 19 24 26 24 26 27 24 20 16 11
2290.0 6 8 4 7 10 14 19 21 30 36
2330.0 36 39 39 36 36 30 37 31 36 35
2370.0 35 31 30 31 28 30 33 36 38 42
2410.0 43 46 48 55 57 59 60 59 53 52
2450.0 51 48 48 47 49 54 58 67 77 85
2490.0 96 105 116 126 125 130 130 134 134 133
2530.0 133 137 137 139 138 141 144 142 142 148
2570.0 152 157 162 165 171 178 183 187 180 177
2610.0 176 174 177 187 200 218 238 261 288 315
2650.0 347 384 408 420 430 447 479 520 566 591
2690.0 637 708 805 907 1030 1183 1352 1450 1571 1762
2730.0 1992 2199 2461 2822 3342 4065 4996 6027 6823 7450
2770.0 8495 9837 9374 9132 9280 9349 8742 7679 6955 6424
2810.0 5950 5593 5624 6117 5341 4462 4033 3760 3476 3177
2850.0 2901 2729 2766 2944 3066 3066 3184 3320 3341 3358
2890.0 3341 3304 3403 3460 3520 3569 3658 3854 4161 4535
2930.0 5037 5688 6347 6870 7300 7606 8018 8400 9143 9680
2970.0 9946 10000 9516 9463 8995 8015 6660 5333 4045 2828
3010.0 1866 1225 836 610 475 396 344 309 287 274
3050.0 265 256 259 263 272 277 282 288 297 285
3090.0 265 244 226 208 191 175 157 150 143 140
3130.0 141 137 138 137 137 137 141 144 150 148
3170.0 154 159 162 163 162 160 155 151 142 136
3210.0 124 115 104 93 87 76 71 62 58 51
3250.0 48 44 44 42 37 38 32 30 25 25
3290.0 22 22 17 18 16 16 18 18 16 16
3330.0 18 17 19 23 23 19 21 16 19 22
3370.0 20 20 14 20 15 21 28 28 30 26
3410.0 27 23 26 22 22 21 15 20 20 20
3450.0 20 15 18 18 13 13 13 11 6 7
3490.0 9 3 2 4 4 2 2 2 5 9
3530.0 4 6 7 4 9 7 12 9 12 13
3570.0 17 16 15 23 18 28 21 15 16 11
3610.0 19 11 7 4 7 26 10 7 8 2
3650.0 10 8 10 1 5 9 6 15 6 10
3690.0 13 10 7 10 15 12 12 22 15 20
3730.0 30 23 27 17 28 12 19 6 11 7
3770.0 6 8 5 5 11 16 7 13 16 20
3810.0 14 15 24 19 19 26 30 23 21 22
3850.0 18 35 24 18 16 25 19 19 18 30
3890.0 19 25 14 22 29 4 5 11 16 14
3930.0 16 15 22 18 17 15 28 21 28 23
##END=
