##TITLE=3-Buten-2-ol
##JCAMP-DX=4.24
##DATA TYPE=INFRARED SPECTRUM
##ORIGIN=Sadtler Research Labs Under US-EPA Contract
##OWNER=NIST Standard Reference Data Program
##CAS REGISTRY NO=598-32-3
##MOLFORM=C 4 H 8 O
##XUNITS=1/CM
##YUNITS=ABSORBANCE
##XFACTOR=1.0
##YFACTOR=0.000076312
##DELTAX=4.0
##FIRSTX=450.0
##LASTX=3966.0
##FIRSTY=0.002976
##MAXX=3966
##MINX=450
##MAXY=0.76312
##MINY=0
##NPOINTS=880
##XYDATA=(X++(Y..Y))
450.0 39 199 280 204 205 184 117 254 156 198
490.0 72 268 120 175 289 303 297 331 472 427
530.0 462 462 480 382 456 454 375 510 401 377
570.0 323 395 368 417 318 348 354 338 337 247
610.0 260 215 231 139 184 159 191 314 299 422
650.0 450 602 687 881 961 1205 1251 1336 1316 1132
690.0 1150 1104 946 735 551 395 286 191 111 88
730.0 42 36 3 34 7 6 11 10 11 5
770.0 38 32 72 104 147 193 268 364 402 509
810.0 559 625 620 665 628 580 554 537 473 389
850.0 351 272 266 231 259 274 320 414 522 724
890.0 1019 1537 2203 3186 4373 5788 7191 8440 9453 8817
930.0 9031 9060 7852 6284 4832 3655 2853 2405 2258 2350
970.0 2588 2969 3380 3910 4520 4888 4894 5040 5180 5110
1010.0 5108 5120 5249 5426 5662 5997 6328 6387 6150 6199
1050.0 6546 6434 5954 5493 5059 4851 4775 4881 5113 5451
1090.0 5781 5957 5981 5780 5723 5493 5188 4608 4059 3728
1130.0 3540 3495 3474 3450 3393 3453 3379 3214 3061 2954
1170.0 2763 2475 2249 2017 1815 1617 1503 1435 1446 1505
1210.0 1603 1778 1973 2286 2639 3131 3669 4218 4635 4633
1250.0 4692 4517 4496 4245 3636 2959 2452 2067 1848 1730
1290.0 1684 1695 1751 1865 1994 2144 2243 2403 2494 2609
1330.0 2722 2807 2878 2904 2938 2936 3125 3142 3450 3730
1370.0 3899 4038 3924 3993 3902 3663 3296 3077 2798 2755
1410.0 2934 3175 3247 2970 3164 3042 2699 2786 2361 2028
1450.0 1948 1921 1677 1362 1207 1084 939 763 605 482
1490.0 355 311 239 185 168 164 92 121 102 86
1530.0 64 55 76 52 45 28 50 39 81 18
1570.0 42 47 93 52 94 96 111 135 144 164
1610.0 147 198 200 259 287 399 486 580 596 701
1650.0 679 734 646 577 469 359 247 219 156 191
1690.0 134 142 143 160 134 144 166 176 184 204
1730.0 284 360 460 431 496 469 450 395 317 255
1770.0 203 199 159 150 121 126 135 154 147 144
1810.0 114 108 104 101 148 185 279 350 462 523
1850.0 557 552 554 503 447 365 243 154 83 65
1890.0 45 47 50 57 51 58 60 62 53 47
1930.0 54 47 49 49 49 56 56 65 67 75
1970.0 85 86 81 77 72 52 49 42 30 33
2010.0 26 30 24 25 20 19 14 19 3 3
2050.0 3 6 15 18 24 29 36 33 33 33
2090.0 27 12 7 14 8 9 2 3 7 10
2130.0 5 9 17 14 14 14 29 21 22 12
2170.0 17 15 20 16 9 14 12 16 16 16
2210.0 11 8 6 0 2 5 11 7 10 9
2250.0 10 16 21 27 33 32 33 40 46 53
2290.0 56 63 63 63 66 68 72 55 76 66
2330.0 57 35 32 54 11 44 68 71 55 8
2370.0 0 0 0 13 31 45 54 58 60 58
2410.0 63 58 56 62 58 50 55 58 60 61
2450.0 70 60 61 66 61 46 59 49 62 55
2490.0 66 70 61 53 59 57 51 43 41 38
2530.0 41 34 33 40 53 57 60 62 77 98
2570.0 102 116 118 145 151 159 166 158 145 164
2610.0 149 154 146 150 149 144 147 140 135 136
2650.0 130 128 136 128 139 140 139 152 159 169
2690.0 170 157 159 163 149 149 158 169 173 179
2730.0 188 201 223 214 203 230 225 209 209 222
2770.0 240 232 218 228 223 236 257 273 301 322
2810.0 351 368 409 460 515 613 731 901 1103 1366
2850.0 1689 2053 2531 3113 3593 3902 4204 4476 4626 4479
2890.0 4234 4008 3763 3521 3279 3094 2945 2895 2889 2908
2930.0 2949 2974 2982 2946 3010 3183 3442 3814 4330 5201
2970.0 6470 7894 9143 9941 10000 9427 8596 7743 6815 5491
3010.0 4183 3289 2534 2000 1668 1493 1317 1097 920 776
3050.0 699 701 770 885 1039 1287 1602 1955 2244 2507
3090.0 2981 2783 2286 2167 2009 1715 1249 832 551 359
3130.0 248 171 156 120 111 113 98 117 102 100
3170.0 101 99 105 120 120 126 128 137 150 140
3210.0 127 139 146 136 99 87 65 74 55 29
3250.0 21 11 0 22 0 8 8 2 7 5
3290.0 28 18 29 18 12 40 26 22 33 20
3330.0 34 51 39 34 41 57 83 65 93 87
3370.0 101 86 66 83 76 61 83 87 76 85
3410.0 84 96 83 103 87 79 94 68 97 64
3450.0 76 66 79 90 70 84 65 80 60 63
3490.0 68 79 60 62 63 62 61 53 75 73
3530.0 71 42 65 63 81 65 79 81 94 128
3570.0 117 106 111 135 109 160 178 163 208 242
3610.0 356 383 521 700 942 1327 1701 2036 2399 2662
3650.0 2313 2336 2629 2389 1997 1605 1223 894 600 387
3690.0 317 206 117 129 104 94 101 77 49 95
3730.0 58 126 88 108 95 91 53 75 41 31
3770.0 34 48 39 47 25 39 67 52 93 65
3810.0 105 86 84 85 83 88 109 140 131 99
3850.0 145 204 123 66 118 138 121 104 104 124
3890.0 119 132 92 127 135 78 60 98 96 71
3930.0 78 121 92 30 33 75 80 71 67 41
##END=
