##TITLE=Ethanol, 2,2-dichloro-
##JCAMP-DX=4.24
##DATA TYPE=INFRARED SPECTRUM
##ORIGIN=Sadtler Research Labs Under US-EPA Contract
##OWNER=NIST Standard Reference Data Program
##CAS REGISTRY NO=598-38-9
##MOLFORM=C 2 H 4 Cl 2 O
##XUNITS=1/CM
##YUNITS=ABSORBANCE
##XFACTOR=1.0
##YFACTOR=0.000119748
##DELTAX=4.0
##FIRSTX=450.0
##LASTX=3966.0
##FIRSTY=0.000000
##MAXX=3966
##MINX=450
##MAXY=1.19748
##MINY=0
##NPOINTS=880
##XYDATA=(X++(Y..Y))
450.0 0 194 313 283 278 252 276 224 268 269
490.0 196 149 191 171 186 166 177 224 229 257
530.0 264 265 270 288 349 344 417 440 520 576
570.0 665 634 571 561 448 337 275 287 263 256
610.0 248 259 316 336 382 483 647 832 1147 1539
650.0 2168 2845 3346 3595 3767 4113 3896 3226 2530 1983
690.0 1725 1692 1761 1877 2040 2045 1928 1555 798 458
730.0 383 355 325 413 517 672 953 1356 1983 2910
770.0 4079 5333 6325 6933 7294 7226 7227 6141 4871 3591
810.0 2770 2340 1922 1264 777 583 522 464 423 363
850.0 309 265 228 206 188 182 194 184 192 191
890.0 209 229 256 291 335 405 488 568 632 683
930.0 723 714 720 769 861 1044 1327 1613 1758 1806
970.0 1846 1827 1607 1357 1158 1051 987 996 1025 979
1010.0 954 963 952 979 1084 1277 1572 2028 2669 3472
1050.0 4488 5819 7554 9262 10000 9979 9459 8343 7058 5039
1090.0 3274 2435 2115 2116 1561 1157 1025 807 567 401
1130.0 308 289 281 294 307 350 396 528 749 1117
1170.0 1447 1656 1905 1922 1932 1880 1524 1354 1451 1677
1210.0 1707 1702 1790 1862 1771 1460 1262 1083 1035 967
1250.0 1008 1276 1782 2266 2403 2491 2478 2398 2134 1507
1290.0 1084 835 718 649 622 629 650 695 766 883
1330.0 1025 1193 1313 1378 1413 1395 1354 1238 1246 1370
1370.0 1486 1707 1953 2162 2279 2310 2182 1944 1697 1424
1410.0 1079 824 637 509 400 326 299 316 359 427
1450.0 501 545 662 680 620 565 495 410 336 272
1490.0 242 213 205 192 190 185 184 180 175 169
1530.0 162 154 146 141 149 149 149 145 151 151
1570.0 153 153 148 150 153 155 157 154 151 151
1610.0 148 143 138 141 133 138 137 137 139 134
1650.0 132 129 140 132 137 136 131 137 133 133
1690.0 132 133 132 135 137 138 145 144 143 142
1730.0 142 137 136 132 132 131 142 138 141 144
1770.0 152 143 143 145 141 142 142 143 140 141
1810.0 134 136 135 137 141 139 135 137 134 143
1850.0 140 139 139 140 144 139 138 137 139 136
1890.0 139 140 137 142 139 143 141 148 149 151
1930.0 152 153 153 151 148 146 145 146 147 143
1970.0 144 145 147 148 147 148 149 151 154 155
2010.0 152 151 157 153 151 153 152 151 153 148
2050.0 145 145 149 151 155 159 164 170 182 192
2090.0 201 213 228 238 247 257 262 261 261 254
2130.0 246 234 222 217 207 193 177 170 167 163
2170.0 162 162 165 164 166 164 164 163 156 157
2210.0 155 152 150 150 150 153 152 152 151 151
2250.0 155 151 152 150 150 149 152 153 158 157
2290.0 161 161 167 163 168 171 163 158 161 156
2330.0 158 151 152 162 168 157 147 137 168 186
2370.0 182 196 190 184 181 171 174 170 172 175
2410.0 182 187 191 192 193 200 209 210 208 213
2450.0 210 203 194 183 177 176 177 175 177 177
2490.0 175 176 171 173 174 173 172 172 174 169
2530.0 166 169 163 161 161 158 155 153 149 147
2570.0 148 144 149 150 146 146 149 151 155 153
2610.0 153 155 156 155 155 156 161 157 151 161
2650.0 161 156 160 164 172 174 177 180 185 186
2690.0 188 182 181 179 183 187 191 195 194 196
2730.0 203 201 196 195 191 193 192 189 187 185
2770.0 183 180 183 182 179 188 188 197 201 210
2810.0 217 222 235 244 262 268 291 304 322 335
2850.0 363 400 443 507 610 729 860 1150 1238 1232
2890.0 1321 1201 1008 926 803 738 699 765 921 1073
2930.0 1198 1346 1625 1801 1540 1461 1432 1359 1319 1264
2970.0 1274 1218 1172 1211 1026 868 747 757 698 623
3010.0 609 575 468 411 310 252 205 181 173 166
3050.0 163 162 162 158 162 159 167 167 169 166
3090.0 163 162 165 159 152 153 156 157 157 143
3130.0 161 162 147 143 157 149 146 156 152 156
3170.0 149 145 153 148 155 156 144 153 154 161
3210.0 147 154 157 152 158 147 161 167 154 156
3250.0 164 152 159 158 174 175 182 164 183 197
3290.0 207 212 211 199 186 193 181 188 176 169
3330.0 165 175 176 183 183 178 180 195 183 189
3370.0 187 180 184 181 181 184 187 163 167 160
3410.0 177 200 182 190 188 182 189 186 181 168
3450.0 173 155 166 170 171 163 177 185 189 183
3490.0 198 204 197 205 214 196 188 181 179 194
3530.0 190 178 183 189 193 192 165 205 194 205
3570.0 211 200 202 208 205 232 243 290 323 455
3610.0 676 1075 1645 2405 2913 3009 3007 3087 2853 2313
3650.0 1773 1339 1066 969 818 685 565 422 339 284
3690.0 269 242 214 215 205 221 216 196 182 212
3730.0 181 233 241 199 220 239 224 248 241 236
3770.0 247 251 239 224 213 195 185 188 184 177
3810.0 166 177 181 185 186 210 211 204 225 215
3850.0 234 236 175 150 174 164 205 152 179 180
3890.0 176 181 152 208 253 166 193 195 194 189
3930.0 220 221 193 241 237 256 229 244 237 271
##END=
