##TITLE=Propanoic acid, 2-chloro-
##JCAMP-DX=4.24
##DATA TYPE=INFRARED SPECTRUM
##ORIGIN=Sadtler Research Labs Under US-EPA Contract
##OWNER=NIST Standard Reference Data Program
##CAS REGISTRY NO=598-78-7
##MOLFORM=C 3 H 5 Cl O 2
##XUNITS=1/CM
##YUNITS=ABSORBANCE
##XFACTOR=1.0
##YFACTOR=0.000082040
##DELTAX=4.0
##FIRSTX=450.0
##LASTX=3966.0
##FIRSTY=0.011322
##MAXX=3966
##MINX=450
##MAXY=0.8204
##MINY=0
##NPOINTS=880
##XYDATA=(X++(Y..Y))
450.0 138 147 2 45 200 194 103 262 227 160
490.0 175 157 266 94 107 138 125 246 446 587
530.0 733 965 1083 1251 1342 1495 1573 1768 1736 1953
570.0 1887 1835 1897 1870 1724 1806 1790 1802 1778 1777
610.0 1587 1437 1283 1016 923 798 776 862 952 1063
650.0 1173 1284 1286 1230 1298 1216 1222 1201 1176 1163
690.0 1091 1064 990 857 746 624 500 408 351 375
730.0 310 384 258 143 136 271 176 235 234 244
770.0 244 227 261 193 213 197 167 211 184 158
810.0 186 201 236 238 266 270 236 170 129 105
850.0 73 46 55 30 31 28 7 34 34 33
890.0 38 50 73 79 92 102 93 93 88 95
930.0 96 104 100 103 112 135 154 177 237 347
970.0 459 584 732 853 919 922 920 870 783 675
1010.0 598 549 524 548 603 672 804 976 1141 1366
1050.0 1576 1750 1991 2201 2431 2724 2951 3149 3253 3222
1090.0 3094 2886 2764 2672 2631 2666 2798 3013 3283 3591
1130.0 3905 4208 4418 4481 4498 4370 4128 3837 3480 3197
1170.0 3074 2878 2545 2184 1891 1619 1371 1178 1060 981
1210.0 930 916 930 972 1055 1163 1249 1343 1381 1341
1250.0 1283 1151 1060 980 915 848 807 779 736 712
1290.0 722 727 744 786 842 911 979 1058 1124 1216
1330.0 1307 1420 1508 1544 1570 1578 1555 1508 1469 1453
1370.0 1472 1536 1577 1571 1574 1454 1255 1050 807 595
1410.0 458 361 339 327 329 369 428 535 639 727
1450.0 852 927 898 761 631 521 419 288 202 147
1490.0 113 105 100 96 94 90 79 67 64 55
1530.0 57 44 42 36 42 42 35 32 33 48
1570.0 40 46 64 48 55 57 56 63 64 74
1610.0 59 69 69 61 73 63 65 71 73 83
1650.0 75 81 81 83 76 59 65 74 72 83
1690.0 90 90 101 117 131 154 191 244 325 436
1730.0 555 733 963 1175 1459 1802 2264 2978 3886 5054
1770.0 6298 7395 8548 9328 9757 10000 9046 8150 6721 5388
1810.0 4310 3260 2419 1793 1311 975 720 549 427 326
1850.0 270 222 172 153 122 112 99 88 83 66
1890.0 61 56 48 48 45 40 45 41 43 37
1930.0 37 37 42 55 48 56 58 51 60 56
1970.0 53 51 47 50 42 43 35 28 28 19
2010.0 18 17 14 21 21 20 20 19 15 13
2050.0 14 13 21 20 18 20 18 12 14 11
2090.0 12 13 13 12 13 9 8 3 2 3
2130.0 6 5 0 4 5 0 2 2 7 7
2170.0 18 22 23 33 31 30 32 32 36 40
2210.0 35 38 38 35 29 30 24 23 20 24
2250.0 22 17 12 14 15 14 12 16 21 24
2290.0 32 40 51 58 61 66 65 66 69 68
2330.0 61 51 42 31 74 51 38 24 34 28
2370.0 15 45 41 46 33 12 14 18 20 23
2410.0 23 30 29 31 35 34 43 36 43 40
2450.0 33 36 34 32 32 35 34 32 33 24
2490.0 24 23 22 18 22 22 23 28 25 25
2530.0 28 26 29 31 32 31 37 32 33 32
2570.0 28 23 19 23 19 16 15 13 10 8
2610.0 6 14 11 15 22 17 18 17 15 19
2650.0 18 12 11 22 23 19 23 21 19 23
2690.0 22 18 23 21 18 18 11 3 10 4
2730.0 6 11 7 14 19 13 13 14 16 18
2770.0 25 23 32 35 35 31 34 35 42 42
2810.0 43 42 45 47 45 40 44 52 54 62
2850.0 62 81 80 88 118 129 152 186 220 241
2890.0 256 249 245 233 219 205 207 211 238 271
2930.0 324 391 459 507 521 524 508 460 414 362
2970.0 319 323 364 452 574 684 786 914 902 883
3010.0 872 727 558 402 324 257 206 171 139 123
3050.0 95 91 89 76 79 80 84 74 73 72
3090.0 53 65 58 48 58 61 58 54 62 59
3130.0 64 65 57 64 78 67 82 81 70 80
3170.0 72 59 59 62 58 63 54 42 39 40
3210.0 37 40 41 41 55 62 63 68 66 61
3250.0 65 75 67 69 67 68 60 54 52 53
3290.0 47 52 65 59 57 43 36 38 28 26
3330.0 13 10 13 11 20 20 20 25 27 28
3370.0 41 48 51 50 53 44 51 36 33 40
3410.0 35 39 30 23 13 8 10 16 12 22
3450.0 11 13 27 27 25 38 26 43 45 49
3490.0 76 78 78 84 136 183 238 315 357 406
3530.0 419 429 420 390 373 387 444 670 1122 1962
3570.0 2821 3307 3653 3879 3396 3090 2218 1258 622 308
3610.0 176 131 97 74 85 49 66 72 60 27
3650.0 30 25 44 32 47 11 12 37 45 37
3690.0 6 24 20 27 0 4 19 26 13 30
3730.0 39 4 24 33 41 28 65 87 68 70
3770.0 52 63 73 74 48 60 74 49 10 31
3810.0 21 15 25 0 15 38 52 40 42 61
3850.0 35 50 87 109 117 124 102 95 92 74
3890.0 66 78 39 72 66 98 90 67 71 42
3930.0 40 36 69 59 24 9 18 0 20 42
##END=
