##TITLE=Propane, 1,1,2-trichloro-
##JCAMP-DX=4.24
##DATA TYPE=INFRARED SPECTRUM
##ORIGIN=Sadtler Research Labs Under US-EPA Contract
##OWNER=NIST Standard Reference Data Program
##CAS REGISTRY NO=598-77-6
##MOLFORM=C 3 H 5 Cl 3
##XUNITS=1/CM
##YUNITS=ABSORBANCE
##XFACTOR=1.0
##YFACTOR=0.000091211
##DELTAX=4.0
##FIRSTX=450.0
##LASTX=3966.0
##FIRSTY=0.000000
##MAXX=3966
##MINX=450
##MAXY=0.91211
##MINY=0
##NPOINTS=880
##XYDATA=(X++(Y..Y))
450.0 0 73 94 129 85 102 135 78 193 117
490.0 149 59 117 45 113 134 180 191 330 521
530.0 663 869 923 978 896 738 461 298 188 132
570.0 116 107 133 125 141 108 137 138 167 184
610.0 248 329 371 464 470 408 347 335 279 265
650.0 278 353 430 638 913 1523 2312 3659 4796 5786
690.0 6274 5944 5155 3866 3007 2871 2738 2593 2234 1501
730.0 1203 1183 1209 1299 1487 1821 2347 3342 4947 7006
770.0 8691 9910 10000 9025 6923 4868 3077 1567 740 433
810.0 285 242 207 234 198 201 219 218 234 238
850.0 259 234 238 195 276 295 317 383 482 587
890.0 690 816 880 966 949 894 805 780 684 592
930.0 547 460 398 328 261 216 196 172 169 157
970.0 169 186 211 241 311 427 484 565 683 935
1010.0 1273 1593 1825 1798 1589 1278 789 483 430 500
1050.0 866 1058 1326 1268 1220 1014 579 424 407 342
1090.0 316 285 271 270 324 361 377 377 378 328
1130.0 288 235 189 161 147 154 148 155 138 162
1170.0 166 221 286 412 582 808 1085 1427 1891 2165
1210.0 2276 2371 2250 1862 1318 1091 959 952 1013 1044
1250.0 984 922 782 711 692 685 712 684 675 622
1290.0 543 487 416 368 355 363 402 492 603 735
1330.0 777 810 747 594 425 295 204 170 184 230
1370.0 379 596 932 1094 1487 1581 1255 941 629 348
1410.0 231 182 194 237 307 397 531 722 943 1199
1450.0 1357 1365 1322 1156 858 671 438 290 197 140
1490.0 124 107 106 88 96 85 88 83 75 78
1530.0 73 77 77 75 70 84 76 77 81 77
1570.0 76 76 81 74 85 73 80 82 80 85
1610.0 86 86 82 85 70 76 73 74 62 77
1650.0 72 81 81 83 91 85 83 84 86 81
1690.0 81 77 71 68 65 70 62 65 67 67
1730.0 62 66 77 81 82 92 108 103 119 112
1770.0 114 108 113 107 103 99 95 89 82 87
1810.0 76 73 66 66 57 60 57 57 55 53
1850.0 59 53 55 55 52 50 55 58 56 62
1890.0 55 59 58 62 63 70 64 67 62 69
1930.0 72 65 68 61 63 59 61 62 60 58
1970.0 53 59 55 60 61 56 53 57 53 58
2010.0 57 61 61 59 57 57 59 59 61 63
2050.0 61 61 55 56 57 59 57 64 64 66
2090.0 59 62 60 59 59 60 58 50 58 54
2130.0 58 55 59 61 59 63 62 58 54 59
2170.0 57 57 58 58 59 58 58 59 61 56
2210.0 63 60 62 65 66 65 65 64 64 69
2250.0 64 69 68 72 75 78 76 78 84 82
2290.0 90 88 96 93 106 109 106 109 117 109
2330.0 99 87 87 95 84 91 106 90 102 96
2370.0 95 77 85 89 88 80 80 78 82 79
2410.0 81 86 77 80 74 78 79 91 92 101
2450.0 105 102 97 100 97 92 91 89 84 83
2490.0 86 88 95 97 101 104 101 99 89 84
2530.0 78 79 70 67 63 62 65 67 67 66
2570.0 74 72 70 75 70 69 64 68 63 55
2610.0 50 55 54 49 56 57 54 58 61 66
2650.0 61 62 72 64 62 63 63 56 49 54
2690.0 55 63 54 59 53 57 53 60 60 61
2730.0 61 49 63 63 66 65 70 65 55 60
2770.0 57 47 55 52 53 54 44 55 53 56
2810.0 60 60 70 80 82 94 99 101 107 97
2850.0 104 106 112 104 124 145 191 236 278 307
2890.0 310 283 269 232 213 193 176 173 203 224
2930.0 300 380 561 740 827 952 1048 945 939 808
2970.0 741 722 673 704 861 1187 1458 1789 1940 1824
3010.0 1641 1218 896 594 350 191 127 109 88 90
3050.0 72 74 59 67 67 67 85 83 89 75
3090.0 85 75 82 69 74 72 63 65 65 63
3130.0 69 75 63 74 72 71 76 75 68 66
3170.0 60 66 73 77 67 74 82 72 78 87
3210.0 72 80 83 106 79 90 75 73 57 68
3250.0 69 68 67 64 59 56 66 56 61 51
3290.0 56 73 54 70 66 68 66 71 63 60
3330.0 62 55 56 70 63 65 64 70 73 57
3370.0 65 67 67 58 53 66 61 78 45 56
3410.0 53 58 56 80 73 49 54 58 62 57
3450.0 64 55 66 63 58 64 54 66 73 72
3490.0 70 61 65 73 73 75 90 75 66 60
3530.0 66 67 73 77 90 69 70 72 73 71
3570.0 85 108 86 96 79 75 86 73 83 65
3610.0 73 76 76 58 84 74 87 79 62 69
3650.0 75 68 84 68 59 84 72 79 78 67
3690.0 87 88 78 70 97 91 61 69 95 110
3730.0 104 87 96 85 98 103 92 59 75 97
3770.0 64 80 85 80 78 84 98 63 97 78
3810.0 82 55 54 68 93 62 72 88 90 85
3850.0 59 73 84 68 79 71 99 54 82 71
3890.0 82 104 79 48 133 104 114 133 68 83
3930.0 67 113 96 104 144 133 53 107 86 93
##END=
