##TITLE=Cinnamic acid, o-bromo-.alpha.-cyano-, ethyl ester
##JCAMP-DX=4.24
##DATA TYPE=INFRARED SPECTRUM
##ORIGIN=Sadtler Research Labs Under US-EPA Contract
##OWNER=NIST Standard Reference Data Program
##CAS REGISTRY NO=59803-32-6
##MOLFORM=C 12 H 10 Br N O 2
##XUNITS=1/CM
##YUNITS=ABSORBANCE
##XFACTOR=1.0
##YFACTOR=0.000054358
##DELTAX=4.0
##FIRSTX=450.0
##LASTX=3966.0
##FIRSTY=0.003098
##MAXX=3966
##MINX=450
##MAXY=0.54358
##MINY=0
##NPOINTS=880
##XYDATA=(X++(Y..Y))
450.0 57 73 63 54 44 32 25 22 43 41
490.0 52 38 29 38 47 37 62 44 20 0
530.0 24 23 15 35 29 37 73 101 103 80
570.0 100 149 220 355 473 438 282 172 99 75
610.0 74 65 69 65 40 45 65 79 83 131
650.0 141 214 308 452 467 356 208 147 134 116
690.0 106 115 118 136 161 171 184 232 297 399
730.0 545 819 1131 1429 1392 1184 1003 966 1020 1015
770.0 812 559 382 302 267 233 231 223 221 216
810.0 197 195 174 177 170 170 178 210 240 270
850.0 309 306 299 278 245 243 229 240 258 304
890.0 357 355 304 231 191 172 189 209 206 214
930.0 215 178 168 178 208 209 198 158 134 136
970.0 147 155 182 192 228 273 338 422 538 676
1010.0 821 986 1114 1220 1374 1514 1407 1054 750 679
1050.0 641 593 534 585 735 1010 1451 1921 2391 2633
1090.0 2702 2533 2216 1743 1272 976 892 1000 1142 1043
1130.0 754 504 421 376 371 363 380 436 547 589
1170.0 572 564 621 731 908 1217 1756 2733 3886 4315
1210.0 3422 2250 1722 1613 1797 2188 2850 3938 5440 7310
1250.0 9079 10000 9261 7124 5140 4055 3804 3519 2873 2129
1290.0 1757 1533 1322 1166 1049 894 745 612 519 447
1330.0 409 376 355 346 352 356 360 378 447 641
1370.0 868 888 680 464 360 332 333 337 342 331
1410.0 338 347 358 393 456 634 867 1036 987 777
1450.0 611 576 691 919 1112 1093 877 670 529 409
1490.0 306 226 182 154 145 130 116 116 116 106
1530.0 106 98 107 107 115 129 167 208 251 263
1570.0 267 272 324 397 455 464 464 486 595 830
1610.0 1113 1375 1376 1069 688 434 284 208 169 141
1650.0 114 123 105 116 129 140 161 181 209 238
1690.0 248 266 284 321 369 405 440 491 557 678
1730.0 883 1227 1860 3040 4960 6329 5859 3727 2130 1327
1770.0 895 639 505 421 364 330 289 267 248 239
1810.0 219 190 154 130 115 109 102 108 95 98
1850.0 75 76 76 67 67 57 57 58 61 66
1890.0 66 66 66 59 57 58 66 85 103 103
1930.0 91 72 67 66 80 82 93 85 68 48
1970.0 47 39 37 30 30 30 30 20 21 27
2010.0 29 28 28 28 29 29 29 31 26 35
2050.0 29 28 28 39 27 39 37 29 36 37
2090.0 37 36 47 49 54 56 53 47 37 37
2130.0 36 37 27 36 28 25 19 19 19 19
2170.0 19 19 19 18 19 10 17 17 17 17
2210.0 23 28 26 44 48 53 46 36 27 26
2250.0 26 35 27 26 26 26 31 27 35 42
2290.0 52 61 71 71 71 78 76 69 75 71
2330.0 60 61 51 63 69 78 60 70 54 39
2370.0 35 38 46 55 46 26 17 15 25 25
2410.0 25 16 23 23 20 14 24 17 24 25
2450.0 23 14 14 14 14 24 23 20 26 13
2490.0 19 22 22 15 22 13 13 13 13 13
2530.0 13 13 12 18 14 14 12 12 13 5
2570.0 13 13 12 4 14 14 14 19 12 12
2610.0 13 20 13 21 22 13 11 12 12 12
2650.0 8 3 13 13 11 12 12 3 3 10
2690.0 10 13 8 3 14 8 11 11 11 12
2730.0 11 12 22 12 15 12 17 16 21 14
2770.0 22 22 32 22 24 24 24 22 30 34
2810.0 32 42 42 42 43 50 42 43 52 51
2850.0 61 60 70 80 82 96 114 122 148 176
2890.0 188 179 170 170 190 209 228 243 243 226
2930.0 232 257 318 409 493 502 443 360 335 360
2970.0 413 493 581 725 948 1095 1002 771 620 528
3010.0 456 383 315 265 228 190 167 152 157 165
3050.0 174 192 221 296 368 381 357 370 352 286
3090.0 205 163 126 96 77 69 77 78 87 86
3130.0 83 75 59 55 34 44 33 25 33 33
3170.0 25 26 17 31 31 31 26 27 22 18
3210.0 25 18 18 9 9 7 9 9 20 8
3250.0 19 20 17 9 9 10 11 19 11 11
3290.0 14 13 19 20 20 10 29 21 3 11
3330.0 20 23 9 21 21 21 17 18 13 33
3370.0 21 21 22 21 14 12 21 21 14 14
3410.0 14 13 13 13 24 15 32 14 23 13
3450.0 23 16 18 33 44 49 60 52 69 61
3490.0 52 42 35 16 7 11 22 21 21 17
3530.0 35 26 18 26 27 27 20 27 27 27
3570.0 26 32 28 29 25 22 28 29 20 19
3610.0 21 32 17 24 30 36 27 44 28 19
3650.0 21 29 29 31 31 30 38 28 34 30
3690.0 33 30 30 40 40 32 23 21 22 14
3730.0 28 28 30 29 32 34 42 33 33 25
3770.0 42 45 25 33 35 25 24 35 35 43
3810.0 43 43 35 34 35 45 44 55 54 38
3850.0 35 46 34 46 45 36 37 44 37 29
3890.0 37 37 38 38 38 28 28 28 29 28
3930.0 37 30 38 38 38 48 46 50 51 55
##END=
