##TITLE=Hydantoin, 1-ethyl-3-methyl-2-thio-,
##JCAMP-DX=4.24
##DATA TYPE=INFRARED SPECTRUM
##ORIGIN=Sadtler Research Labs Under US-EPA Contract
##OWNER=NIST Standard Reference Data Program
##CAS REGISTRY NO=59865-21-3
##MOLFORM=C 6 H 10 N 2 O S
##XUNITS=1/CM
##YUNITS=ABSORBANCE
##XFACTOR=1.0
##YFACTOR=0.000226193
##DELTAX=4.0
##FIRSTX=450.0
##LASTX=3966.0
##FIRSTY=0.000000
##MAXX=3966
##MINX=450
##MAXY=2.26193
##MINY=0
##NPOINTS=880
##XYDATA=(X++(Y..Y))
450.0 0 46 83 45 71 75 127 158 192 264
490.0 378 409 409 393 298 202 138 114 112 106
530.0 109 115 127 127 131 150 177 223 333 434
570.0 526 559 540 447 323 229 190 154 142 123
610.0 120 112 120 111 108 96 107 109 111 140
650.0 154 223 261 383 477 594 603 604 549 453
690.0 345 287 205 156 119 104 88 80 83 75
730.0 85 83 92 85 93 94 95 94 94 99
770.0 96 92 99 119 133 149 157 157 158 141
810.0 132 123 125 116 114 114 109 108 100 96
850.0 84 71 62 57 54 48 55 50 50 48
890.0 56 53 58 61 67 71 77 93 109 149
930.0 227 373 549 684 723 671 536 338 217 167
970.0 148 145 159 197 251 333 437 559 617 603
1010.0 544 440 314 228 187 170 158 146 138 128
1050.0 138 163 210 266 331 395 439 474 524 609
1090.0 708 819 920 959 904 796 669 534 477 492
1130.0 581 721 899 1071 1201 1270 1267 1201 1087 971
1170.0 851 735 616 524 446 393 369 356 382 458
1210.0 616 868 1232 1627 1942 2084 2023 1723 1304 920
1250.0 631 454 381 362 375 404 452 539 709 987
1290.0 1395 1825 2120 2256 2239 2061 1926 2091 2573 3299
1330.0 4072 4770 5270 5504 5310 4894 4348 3614 2945 2460
1370.0 2179 1980 1850 1703 1533 1320 1160 1104 1179 1446
1410.0 1923 2640 3386 3905 4298 4410 3980 3269 2679 2150
1450.0 1774 1739 1881 2109 2435 2961 3508 4114 4244 4296
1490.0 3749 2983 2056 1327 891 633 529 450 416 380
1530.0 354 328 296 276 252 240 227 219 205 194
1570.0 177 159 145 130 123 104 101 88 86 80
1610.0 80 84 83 91 92 102 96 102 96 99
1650.0 97 100 107 106 107 99 101 99 99 95
1690.0 100 103 104 115 122 148 173 237 295 364
1730.0 416 483 540 625 810 1101 1762 3051 5873 8089
1770.0 10000 9730 9295 5119 2103 963 603 423 318 224
1810.0 175 135 111 95 84 79 75 80 79 83
1850.0 81 81 75 76 76 77 80 83 89 78
1890.0 75 69 68 65 67 69 69 73 69 69
1930.0 63 62 56 52 49 47 48 45 46 47
1970.0 48 47 50 49 48 48 47 50 48 49
2010.0 48 50 48 49 49 52 49 49 52 52
2050.0 53 53 56 58 63 68 67 69 67 65
2090.0 62 60 55 53 49 47 46 45 45 45
2130.0 46 45 46 49 49 53 55 61 62 65
2170.0 65 68 68 67 64 61 61 56 57 55
2210.0 55 55 56 56 55 53 52 53 49 52
2250.0 50 52 55 56 60 62 64 64 65 67
2290.0 72 77 85 92 94 102 97 94 95 91
2330.0 86 80 75 81 92 91 88 78 79 70
2370.0 77 76 84 85 73 60 52 49 47 46
2410.0 45 47 46 49 50 52 55 54 57 56
2450.0 60 57 57 58 58 58 58 57 55 53
2490.0 52 54 53 53 52 53 54 60 58 60
2530.0 62 62 63 58 60 60 57 58 58 60
2570.0 57 60 57 58 57 62 61 62 63 65
2610.0 68 69 68 63 64 61 58 56 58 60
2650.0 62 64 63 64 67 64 68 69 68 65
2690.0 67 67 69 69 71 70 69 69 67 65
2730.0 69 69 70 70 76 78 81 87 89 89
2770.0 91 91 93 94 96 100 99 103 108 112
2810.0 114 115 117 119 122 132 143 157 174 196
2850.0 211 227 240 255 265 284 310 341 377 413
2890.0 444 470 499 533 569 612 658 718 780 838
2930.0 891 943 984 994 963 889 796 688 592 539
2970.0 533 612 720 806 850 817 688 517 377 276
3010.0 214 174 151 134 124 118 112 106 100 101
3050.0 93 92 91 92 91 91 88 89 89 86
3090.0 84 79 76 76 72 75 69 69 69 69
3130.0 65 62 67 69 65 65 65 65 67 65
3170.0 62 62 64 62 61 60 57 60 58 58
3210.0 55 52 53 53 52 52 52 50 50 50
3250.0 57 52 52 49 53 55 50 55 50 52
3290.0 54 55 53 53 47 52 52 49 49 48
3330.0 50 53 52 54 52 53 53 50 49 53
3370.0 54 50 50 52 50 49 53 50 50 48
3410.0 52 50 53 53 50 54 52 55 54 56
3450.0 54 53 52 55 50 49 53 52 55 48
3490.0 56 61 65 68 76 87 112 132 151 161
3530.0 154 134 96 73 61 49 45 46 47 52
3570.0 58 55 55 53 60 47 52 50 47 58
3610.0 52 54 49 47 50 60 56 52 48 47
3650.0 47 50 52 46 47 53 50 54 46 48
3690.0 52 48 52 55 55 52 53 52 47 54
3730.0 53 48 52 46 56 48 53 46 47 53
3770.0 48 49 47 47 48 46 45 45 45 45
3810.0 49 46 45 45 45 47 50 45 45 47
3850.0 45 49 50 48 47 50 50 45 45 54
3890.0 45 46 56 49 57 56 52 58 55 48
3930.0 49 54 56 63 47 53 63 56 55 55
##END=
