##TITLE=Benzenesulfonamide, N,N,4-trimethyl-
##JCAMP-DX=4.24
##DATA TYPE=INFRARED SPECTRUM
##ORIGIN=Sadtler Research Labs Under US-EPA Contract
##OWNER=NIST Standard Reference Data Program
##CAS REGISTRY NO=599-69-9
##MOLFORM=C 9 H 13 N O 2 S
##XUNITS=1/CM
##YUNITS=ABSORBANCE
##XFACTOR=1.0
##YFACTOR=0.000109991
##DELTAX=4.0
##FIRSTX=450.0
##LASTX=3966.0
##FIRSTY=0.000880
##MAXX=3966
##MINX=450
##MAXY=1.09991
##MINY=0
##NPOINTS=880
##XYDATA=(X++(Y..Y))
450.0 8 1 32 71 93 77 53 53 71 57
490.0 64 56 65 89 134 173 296 465 720 1144
530.0 1524 1736 1777 1958 2741 3488 3587 2819 1576 654
570.0 330 177 110 99 59 54 30 38 39 40
610.0 56 57 88 133 255 490 935 1565 2147 2109
650.0 1771 998 528 317 233 251 273 326 476 756
690.0 1432 2280 3047 3213 3260 3573 5208 7005 7339 6442
730.0 3983 2081 1091 599 362 226 163 98 80 51
770.0 58 73 116 193 323 493 641 757 897 1110
810.0 1386 1524 1342 957 552 280 154 99 78 62
850.0 48 33 27 25 27 39 55 64 69 86
890.0 103 124 147 182 229 277 343 433 553 709
930.0 926 1230 1635 2140 2711 3270 3695 3860 3674 3153
970.0 2477 1816 1305 941 705 548 448 376 340 325
1010.0 341 409 463 462 401 319 269 275 304 357
1050.0 412 467 506 521 498 474 475 540 726 1048
1090.0 1439 1678 1656 1375 991 705 541 449 385 340
1130.0 325 351 434 574 798 1206 2011 3545 6045 8788
1170.0 10000 8985 6155 3550 2106 1493 1259 1179 1132 1081
1210.0 995 878 741 626 548 504 482 479 490 518
1250.0 582 675 804 948 1071 1132 1109 1015 890 762
1290.0 657 601 584 597 591 550 495 468 485 560
1330.0 696 908 1225 1684 2332 3181 4168 5107 5755 5954
1370.0 5556 4704 3537 2419 1577 1084 859 783 787 821
1410.0 850 833 772 665 573 514 505 524 557 592
1450.0 651 724 833 924 953 936 863 786 741 741
1490.0 785 841 832 735 579 416 328 274 244 213
1530.0 199 184 180 171 166 157 155 153 155 154
1570.0 167 182 214 248 309 392 485 560 595 571
1610.0 485 376 270 186 146 131 130 133 146 159
1650.0 162 155 137 102 87 73 62 56 50 45
1690.0 36 28 26 18 15 14 16 21 19 20
1730.0 25 30 28 32 32 33 42 41 43 36
1770.0 35 27 25 29 41 56 83 97 99 83
1810.0 54 31 17 12 10 9 3 8 6 12
1850.0 11 12 14 17 16 18 20 25 31 35
1890.0 42 51 65 85 106 125 131 123 97 72
1930.0 52 39 30 25 24 19 21 21 24 24
1970.0 26 26 25 26 24 23 20 20 17 17
2010.0 15 15 11 10 10 8 5 5 5 2
2050.0 3 3 0 3 3 4 3 7 5 11
2090.0 8 10 9 11 12 16 15 16 13 11
2130.0 12 13 12 9 11 14 14 11 11 13
2170.0 14 13 13 15 17 16 16 15 11 12
2210.0 9 7 5 4 6 5 9 11 13 17
2250.0 23 28 33 35 31 28 23 18 16 14
2290.0 17 19 17 19 16 11 8 2 4 2
2330.0 6 15 19 29 34 20 24 21 39 45
2370.0 58 50 44 38 30 25 26 26 28 28
2410.0 27 27 22 18 14 14 12 16 17 18
2450.0 23 22 25 22 23 21 20 19 18 20
2490.0 19 21 23 27 33 35 40 42 44 45
2530.0 41 39 37 36 32 30 26 29 27 29
2570.0 31 31 33 38 39 44 42 37 31 29
2610.0 30 25 27 27 27 21 22 22 19 21
2650.0 21 22 22 22 27 26 26 29 32 33
2690.0 36 38 39 40 38 35 36 36 38 43
2730.0 48 55 62 73 81 83 80 80 83 83
2770.0 88 98 111 122 136 155 185 224 286 367
2810.0 458 530 567 559 512 456 425 433 473 548
2850.0 642 727 792 836 880 927 995 1076 1141 1194
2890.0 1224 1236 1241 1247 1248 1251 1278 1322 1407 1530
2930.0 1699 1863 1954 1951 1887 1825 1800 1794 1754 1621
2970.0 1392 1114 869 716 631 593 574 563 557 558
3010.0 566 581 604 637 697 783 845 848 810 735
3050.0 673 609 531 484 482 481 449 387 323 289
3090.0 285 269 236 197 163 136 120 109 98 85
3130.0 75 65 61 58 53 50 46 41 40 37
3170.0 33 30 27 26 25 24 20 21 15 17
3210.0 17 21 15 17 16 18 12 10 11 12
3250.0 13 16 14 14 6 9 9 7 9 8
3290.0 7 12 9 11 9 11 12 13 12 12
3330.0 9 13 12 12 11 15 12 14 14 19
3370.0 18 16 10 12 14 16 14 15 18 19
3410.0 13 15 11 11 18 15 11 10 12 11
3450.0 13 14 11 12 6 12 13 8 10 11
3490.0 9 8 7 12 5 4 11 10 5 9
3530.0 6 9 9 7 12 11 11 10 5 10
3570.0 11 12 8 4 8 14 9 7 2 4
3610.0 10 12 14 10 10 20 18 14 16 14
3650.0 14 17 14 18 19 24 16 18 7 24
3690.0 15 13 10 11 18 14 20 13 14 25
3730.0 23 23 23 11 27 5 21 17 18 19
3770.0 15 17 7 2 8 16 8 10 5 5
3810.0 5 9 11 15 14 9 13 22 13 21
3850.0 14 20 19 10 17 18 20 11 23 28
3890.0 17 24 20 14 20 23 10 19 11 10
3930.0 16 14 13 17 22 24 28 12 12 19
##END=
