##TITLE=Ethanol, 2-mercapto-
##JCAMP-DX=4.24
##DATA TYPE=INFRARED SPECTRUM
##ORIGIN=Sadtler Research Labs Under US-EPA Contract
##OWNER=NIST Standard Reference Data Program
##CAS REGISTRY NO=60-24-2
##MOLFORM=C 2 H 6 O S
##XUNITS=1/CM
##YUNITS=ABSORBANCE
##XFACTOR=1.0
##YFACTOR=0.000050885
##DELTAX=4.0
##FIRSTX=450.0
##LASTX=3966.0
##FIRSTY=0.014655
##MAXX=3966
##MINX=450
##MAXY=0.50885
##MINY=0
##NPOINTS=880
##XYDATA=(X++(Y..Y))
450.0 288 456 571 500 550 577 598 507 387 367
490.0 309 240 165 190 179 203 124 172 87 104
530.0 92 86 34 45 82 30 87 17 72 17
570.0 51 6 41 56 38 61 45 78 67 59
610.0 45 61 81 73 129 111 123 185 230 265
650.0 294 302 349 364 344 385 344 296 236 150
690.0 102 78 69 90 102 143 168 185 189 213
730.0 254 229 267 276 303 375 416 398 404 415
770.0 400 355 268 187 123 107 91 103 79 68
810.0 70 62 60 45 60 70 65 82 86 101
850.0 109 142 181 220 247 269 292 345 366 403
890.0 451 481 555 610 708 789 883 962 1061 1138
930.0 1196 1216 1178 1136 1098 1046 970 875 793 751
970.0 728 739 786 860 986 1123 1296 1498 1776 2061
1010.0 2346 2708 3197 3868 4661 5556 6360 7120 7893 8693
1050.0 9346 9785 10000 9781 9240 8615 8252 7848 6901 5490
1090.0 4185 3112 2350 1827 1441 1185 1012 919 855 836
1130.0 807 788 783 791 801 831 892 965 1068 1179
1170.0 1314 1381 1414 1463 1449 1495 1510 1463 1376 1303
1210.0 1243 1210 1163 1130 1097 1080 1054 1050 1049 1063
1250.0 1114 1165 1255 1364 1510 1661 1816 1921 1953 1948
1290.0 1973 2020 1946 1843 1674 1526 1389 1317 1308 1330
1330.0 1390 1447 1490 1503 1539 1548 1625 1698 1815 2028
1370.0 2219 2514 2731 2901 2772 2813 2654 2566 2471 2175
1410.0 1908 1713 1594 1500 1445 1376 1389 1332 1153 971
1450.0 846 791 746 692 613 668 600 544 512 469
1490.0 382 321 282 227 213 181 157 125 133 100
1530.0 110 82 99 63 82 83 90 70 95 72
1570.0 83 55 86 61 64 62 64 54 55 54
1610.0 51 40 52 32 47 24 52 20 35 28
1650.0 36 23 64 10 33 35 39 21 39 22
1690.0 36 36 58 65 74 79 92 102 121 122
1730.0 128 151 144 147 128 131 146 132 126 115
1770.0 110 75 70 55 74 37 58 41 48 47
1810.0 45 37 39 36 36 34 27 39 28 40
1850.0 32 39 32 39 31 27 38 27 33 25
1890.0 32 27 31 29 30 27 29 32 33 33
1930.0 42 41 44 45 52 54 57 56 60 58
1970.0 58 56 60 58 53 45 47 46 46 46
2010.0 47 45 38 47 47 55 55 59 61 65
2050.0 68 67 70 65 63 62 61 59 53 50
2090.0 49 52 48 55 56 66 62 63 67 72
2130.0 68 67 66 60 56 46 38 33 31 25
2170.0 26 23 21 23 23 25 26 28 28 29
2210.0 26 28 27 24 26 22 21 20 21 19
2250.0 17 12 17 15 14 14 9 14 10 15
2290.0 15 17 17 15 12 14 1 3 0 0
2330.0 0 0 0 0 0 0 0 0 0 0
2370.0 0 0 13 30 39 29 31 35 33 38
2410.0 40 38 36 42 49 45 45 44 41 54
2450.0 52 50 49 51 53 47 42 38 42 34
2490.0 29 32 29 25 28 32 30 28 29 25
2530.0 26 27 27 31 35 39 44 52 57 70
2570.0 76 96 113 135 179 181 149 163 153 149
2610.0 134 119 97 86 78 70 71 70 71 70
2650.0 84 90 101 107 123 127 140 153 152 168
2690.0 176 183 188 196 204 215 229 232 243 254
2730.0 255 259 271 273 280 279 285 289 285 283
2770.0 277 279 287 286 285 285 296 312 330 351
2810.0 384 424 477 526 597 675 772 887 1039 1214
2850.0 1431 1716 2017 2333 2679 3023 3405 3475 3447 3425
2890.0 3281 3137 3003 2911 2865 2881 3010 3191 3433 3756
2930.0 4184 4497 4698 4939 5056 5065 5011 4788 4539 4282
2970.0 3933 3510 3153 2781 2317 1914 1612 1351 1112 897
3010.0 734 619 462 378 316 264 226 187 154 129
3050.0 108 101 87 79 81 69 67 64 59 64
3090.0 78 57 46 42 40 41 37 40 33 30
3130.0 34 32 25 28 29 33 33 29 32 31
3170.0 33 24 34 36 44 36 50 53 50 48
3210.0 46 44 40 35 36 37 32 30 34 32
3250.0 32 26 24 24 28 24 23 21 16 18
3290.0 14 13 17 20 8 13 8 3 7 7
3330.0 10 18 14 9 15 18 16 16 17 12
3370.0 18 24 14 14 13 16 23 24 18 27
3410.0 26 26 47 54 75 83 92 91 95 108
3450.0 101 95 88 89 78 88 94 89 92 82
3490.0 73 68 65 55 66 48 64 50 58 63
3530.0 69 51 72 74 91 96 127 161 172 272
3570.0 362 548 719 830 946 943 1018 1048 1118 1103
3610.0 1092 992 916 887 870 881 859 825 866 917
3650.0 1058 1241 1353 1462 1428 1559 1482 1379 1148 981
3690.0 790 621 489 390 311 271 232 216 188 170
3730.0 153 168 189 120 232 96 158 120 103 96
3770.0 72 73 46 67 45 30 8 33 4 50
3810.0 10 47 34 21 41 36 32 51 20 16
3850.0 25 65 49 5 21 56 34 46 9 70
3890.0 4 30 27 70 26 34 19 26 31 32
3930.0 31 30 29 31 62 32 15 22 54 41
##END=
