##TITLE=Acetamide
##JCAMP-DX=4.24
##DATA TYPE=INFRARED SPECTRUM
##ORIGIN=Sadtler Research Labs Under US-EPA Contract
##OWNER=NIST Standard Reference Data Program
##CAS REGISTRY NO=60-35-5
##MOLFORM=C 2 H 5 N O
##XUNITS=1/CM
##YUNITS=ABSORBANCE
##XFACTOR=1.0
##YFACTOR=0.000086621
##DELTAX=4.0
##FIRSTX=450.0
##LASTX=3966.0
##FIRSTY=0.021569
##MAXX=3966
##MINX=450
##MAXY=0.86621
##MINY=0
##NPOINTS=880
##XYDATA=(X++(Y..Y))
450.0 249 235 274 290 322 404 418 356 327 381
490.0 496 577 536 545 561 466 404 368 423 602
530.0 583 509 459 408 449 539 544 545 508 643
570.0 631 538 492 567 506 542 576 594 633 549
610.0 679 838 939 1055 1094 880 551 437 434 377
650.0 393 274 242 188 238 225 128 88 152 165
690.0 160 158 235 367 477 569 579 557 569 587
730.0 685 743 795 784 899 859 853 708 658 616
770.0 578 577 582 513 524 489 440 456 347 340
810.0 336 301 345 291 300 308 352 375 366 391
850.0 346 356 374 358 372 389 355 388 396 356
890.0 315 293 256 279 257 220 215 222 191 220
930.0 206 240 273 328 366 408 381 368 365 396
970.0 353 369 387 339 344 249 230 213 138 145
1010.0 130 100 121 163 132 122 154 214 236 177
1050.0 149 127 156 178 142 150 149 118 142 97
1090.0 77 73 67 89 103 118 119 105 125 120
1130.0 128 134 114 110 114 130 109 99 75 57
1170.0 41 35 28 17 9 5 15 0 10 37
1210.0 61 74 114 145 174 209 239 268 305 338
1250.0 369 398 445 526 672 820 1019 1309 1680 2103
1290.0 2524 2876 3119 3179 3174 3201 3220 3343 3423 3588
1330.0 3548 3238 2692 2133 1713 1515 1475 1474 1560 1706
1370.0 1884 1881 1988 2086 2109 2071 1909 1710 1506 1396
1410.0 1305 1154 984 793 628 511 419 383 291 278
1450.0 262 254 276 222 218 197 234 205 211 206
1490.0 234 182 206 171 205 216 152 136 137 150
1530.0 155 207 255 353 389 468 583 802 1065 1308
1570.0 1595 1814 1998 1984 2005 2163 1990 2056 2072 2047
1610.0 1959 1748 1507 1207 971 772 652 585 536 530
1650.0 524 579 545 555 581 621 657 722 793 923
1690.0 1039 1272 1663 2235 2949 3969 5160 6533 7760 8797
1730.0 9461 9436 8585 7793 8148 9545 10000 9566 8628 7118
1770.0 5334 3666 2368 1501 946 612 426 289 246 182
1810.0 153 131 113 102 118 107 101 105 116 132
1850.0 127 132 122 104 107 124 110 106 103 92
1890.0 88 81 82 79 77 90 84 86 81 86
1930.0 81 83 88 91 92 91 80 87 75 70
1970.0 64 71 73 71 68 72 71 63 64 64
2010.0 66 65 66 62 67 63 58 58 66 64
2050.0 63 61 61 63 68 63 64 64 65 65
2090.0 72 68 62 62 69 73 68 74 69 69
2130.0 70 74 75 70 75 77 75 78 81 78
2170.0 80 81 82 88 87 87 87 82 81 92
2210.0 95 87 82 82 83 83 87 94 82 93
2250.0 84 89 86 87 88 88 92 94 92 105
2290.0 106 117 124 123 135 135 126 125 125 125
2330.0 132 151 132 133 152 158 163 156 174 153
2370.0 138 128 125 116 87 76 79 74 74 80
2410.0 75 75 75 76 86 80 77 74 77 75
2450.0 75 75 69 69 69 70 68 66 67 68
2490.0 57 71 60 58 59 70 70 60 74 64
2530.0 61 65 65 75 73 75 66 76 71 77
2570.0 77 72 65 67 63 69 71 69 67 67
2610.0 65 61 61 66 67 61 61 67 63 61
2650.0 60 70 67 69 73 73 73 74 73 80
2690.0 72 68 67 75 71 77 74 75 74 75
2730.0 75 69 61 74 81 81 72 73 68 71
2770.0 76 70 70 70 82 82 83 83 83 83
2810.0 80 85 91 99 100 100 112 106 113 118
2850.0 129 139 148 147 146 154 158 159 169 176
2890.0 177 189 201 212 245 263 283 307 335 347
2930.0 363 358 381 395 382 389 394 377 374 343
2970.0 320 286 285 282 279 226 220 226 239 245
3010.0 272 296 291 295 292 278 302 305 295 292
3050.0 280 275 281 284 252 237 222 215 198 190
3090.0 176 164 166 156 135 134 123 128 121 108
3130.0 110 101 117 105 107 97 97 98 103 108
3170.0 110 109 105 113 99 105 102 100 99 95
3210.0 94 83 82 77 68 82 76 82 85 73
3250.0 82 79 71 80 80 67 67 74 80 72
3290.0 88 81 88 79 78 97 104 103 93 104
3330.0 104 100 98 102 103 107 92 102 110 101
3370.0 111 127 151 169 205 239 283 327 374 424
3410.0 472 553 624 693 802 825 839 845 791 771
3450.0 731 704 717 697 638 532 448 374 322 292
3490.0 293 292 290 317 374 394 399 431 441 476
3530.0 510 596 605 678 790 830 814 752 692 695
3570.0 740 560 601 608 569 504 392 297 227 158
3610.0 125 114 108 90 89 116 89 79 82 94
3650.0 106 95 95 64 73 102 111 117 100 85
3690.0 89 95 62 69 79 91 98 67 81 92
3730.0 80 104 112 94 122 112 112 94 82 89
3770.0 93 75 84 69 85 72 79 89 129 105
3810.0 102 108 118 119 115 111 103 118 131 118
3850.0 124 134 127 115 115 110 115 108 122 118
3890.0 138 131 130 141 133 123 113 123 101 83
3930.0 84 102 119 109 104 117 69 73 73 73
##END=
