##TITLE=Propane, 1-chloro-1-nitro-
##JCAMP-DX=4.24
##DATA TYPE=INFRARED SPECTRUM
##ORIGIN=Sadtler Research Labs Under US-EPA Contract
##OWNER=NIST Standard Reference Data Program
##CAS REGISTRY NO=600-25-9
##MOLFORM=C 3 H 6 Cl N O 2
##XUNITS=1/CM
##YUNITS=ABSORBANCE
##XFACTOR=1.0
##YFACTOR=0.000056937
##DELTAX=4.0
##FIRSTX=450.0
##LASTX=3966.0
##FIRSTY=0.011900
##MAXX=3966
##MINX=450
##MAXY=0.56937
##MINY=0
##NPOINTS=880
##XYDATA=(X++(Y..Y))
450.0 209 201 203 214 248 260 252 248 236 219
490.0 182 186 220 225 210 208 190 204 204 199
530.0 201 213 207 194 200 188 186 159 196 172
570.0 195 191 168 182 157 132 219 207 191 194
610.0 202 213 240 241 238 302 276 272 258 244
650.0 253 263 271 318 350 407 420 445 480 510
690.0 560 567 583 550 548 532 561 597 661 694
730.0 684 624 515 420 295 230 167 145 121 101
770.0 110 126 144 179 174 336 487 671 854 1020
810.0 1106 1144 1108 1059 1001 918 882 813 774 685
850.0 601 521 487 460 495 568 647 696 680 644
890.0 589 526 466 413 364 359 401 455 503 529
930.0 552 509 464 375 277 199 141 94 56 39
970.0 25 20 18 19 9 9 9 9 3 9
1010.0 19 30 55 71 92 111 122 122 122 114
1050.0 105 96 99 117 134 161 191 228 244 260
1090.0 263 245 244 218 218 238 256 272 259 241
1130.0 221 179 147 111 84 73 65 56 56 56
1170.0 56 64 54 52 52 49 48 48 57 74
1210.0 92 136 200 304 424 560 697 825 917 913
1250.0 903 810 692 637 541 465 408 395 410 492
1290.0 599 716 806 831 852 832 824 873 981 1142
1330.0 1345 1528 1669 1767 1794 1794 1764 1719 1667 1577
1370.0 1405 1186 948 767 671 619 611 607 482 405
1410.0 320 232 233 214 244 285 378 451 529 611
1450.0 658 728 788 750 702 663 648 483 357 305
1490.0 243 170 155 145 171 201 191 248 316 372
1530.0 487 628 820 1049 1250 1477 1797 2223 2880 3734
1570.0 4908 6170 7382 8679 10000 9176 7213 6211 4814 3404
1610.0 2352 1718 1390 1137 928 701 565 406 285 219
1650.0 185 152 98 86 79 71 85 49 85 69
1690.0 44 46 71 49 46 19 41 64 19 6
1730.0 24 61 27 26 35 52 27 35 35 25
1770.0 42 35 24 24 20 25 29 25 33 15
1810.0 17 19 12 17 21 27 19 2 19 24
1850.0 20 2 5 4 11 20 5 2 3 6
1890.0 9 7 5 3 5 5 7 8 12 4
1930.0 2 3 2 10 7 2 2 4 2 6
1970.0 4 1 2 1 1 8 6 2 2 3
2010.0 1 3 6 3 2 2 1 3 3 2
2050.0 1 1 1 2 4 1 1 1 1 1
2090.0 3 2 5 1 1 11 0 3 10 1
2130.0 10 9 9 18 10 10 12 18 19 9
2170.0 10 10 1 1 9 9 2 8 12 1
2210.0 2 5 5 7 10 9 8 9 10 10
2250.0 10 10 11 11 15 19 19 21 20 22
2290.0 23 25 28 29 21 24 30 26 17 17
2330.0 22 29 19 20 29 18 22 23 38 43
2370.0 43 54 48 46 32 29 22 28 20 28
2410.0 21 28 28 28 29 29 29 29 36 35
2450.0 37 38 46 47 47 47 47 47 47 37
2490.0 42 39 39 39 37 30 29 30 22 30
2530.0 23 31 20 21 31 31 21 21 13 12
2570.0 21 22 23 30 30 31 35 33 33 40
2610.0 40 39 31 40 40 40 41 47 48 48
2650.0 53 46 57 64 72 73 83 83 83 90
2690.0 93 82 82 83 74 74 74 67 74 65
2730.0 65 58 57 51 47 52 58 52 56 66
2770.0 60 65 58 58 57 57 58 58 58 49
2810.0 49 58 57 57 67 66 75 84 93 93
2850.0 112 120 138 156 174 197 225 250 326 398
2890.0 469 532 575 565 544 505 471 437 417 438
2930.0 474 531 625 750 866 902 953 883 804 713
2970.0 677 728 872 1070 1399 1576 1398 1309 1159 889
3010.0 624 427 296 226 167 127 105 88 77 67
3050.0 60 60 60 67 61 60 65 64 58 68
3090.0 67 61 68 59 51 50 50 50 40 40
3130.0 40 34 39 33 34 40 42 34 43 42
3170.0 43 44 51 42 43 31 38 36 22 26
3210.0 24 26 16 17 17 17 17 10 16 16
3250.0 16 10 17 16 16 17 17 17 17 17
3290.0 17 7 22 15 27 17 8 8 9 9
3330.0 17 16 9 8 17 16 12 8 18 8
3370.0 8 8 9 8 8 18 8 8 8 8
3410.0 8 8 8 8 8 9 9 8 8 8
3450.0 8 8 8 8 8 2 9 8 1 9
3490.0 8 9 8 9 9 3 8 9 1 1
3530.0 9 9 9 9 2 8 8 8 8 4
3570.0 9 4 9 8 7 1 9 8 17 8
3610.0 8 7 4 8 9 12 14 16 7 9
3650.0 8 17 16 7 10 1 10 14 7 8
3690.0 8 24 26 9 8 9 15 9 8 11
3730.0 6 15 25 18 14 22 32 22 31 30
3770.0 30 30 19 32 16 19 13 23 20 32
3810.0 21 22 19 26 33 17 28 38 37 17
3850.0 15 20 32 28 19 16 15 15 2 2
3890.0 1 8 8 25 25 17 14 12 17 15
3930.0 12 20 27 13 21 18 15 13 17 23
##END=
