##TITLE=3-Pentanol, 2,4-dimethyl-
##JCAMP-DX=4.24
##DATA TYPE=INFRARED SPECTRUM
##ORIGIN=Sadtler Research Labs Under US-EPA Contract
##OWNER=NIST Standard Reference Data Program
##CAS REGISTRY NO=600-36-2
##MOLFORM=C 7 H 16 O
##XUNITS=1/CM
##YUNITS=ABSORBANCE
##XFACTOR=1.0
##YFACTOR=0.000165918
##DELTAX=4.0
##FIRSTX=450.0
##LASTX=3966.0
##FIRSTY=0.016094
##MAXX=3966
##MINX=450
##MAXY=1.65918
##MINY=0
##NPOINTS=880
##XYDATA=(X++(Y..Y))
450.0 97 78 77 74 57 57 72 96 132 177
490.0 152 129 111 102 95 71 49 61 58 56
530.0 78 48 117 137 124 71 100 78 67 87
570.0 80 50 60 93 86 84 104 78 77 110
610.0 126 137 147 171 185 145 124 124 100 95
650.0 77 74 69 67 66 63 54 54 45 34
690.0 53 56 55 45 60 59 66 72 78 52
730.0 44 44 11 58 62 41 67 58 74 65
770.0 85 78 97 121 136 134 120 120 122 97
810.0 81 83 73 83 91 103 111 129 151 159
850.0 154 150 129 98 94 87 87 87 96 105
890.0 127 151 179 206 216 228 237 249 258 275
930.0 280 289 300 344 406 486 584 698 849 1037
970.0 1268 1521 1829 2152 2434 2652 2736 2610 2416 2067
1010.0 1664 1269 953 715 560 449 368 310 278 263
1050.0 270 283 311 349 383 427 483 555 647 747
1090.0 846 907 940 912 853 771 689 610 560 530
1130.0 515 531 566 628 697 772 832 864 879 864
1170.0 827 769 692 601 511 438 394 379 397 434
1210.0 491 539 594 639 678 707 725 730 716 691
1250.0 643 593 539 492 460 434 425 421 427 426
1290.0 423 410 396 385 370 364 353 343 331 316
1330.0 309 308 317 337 370 426 519 646 809 967
1370.0 1174 1321 1425 1561 1638 1643 1511 1302 1038 723
1410.0 502 368 295 255 238 234 256 294 368 471
1450.0 619 801 1018 1243 1425 1539 1548 1446 1235 975
1490.0 695 469 321 224 168 139 125 112 100 95
1530.0 88 83 70 68 67 67 64 58 51 58
1570.0 53 47 46 50 53 50 49 48 51 52
1610.0 51 49 47 51 51 48 47 44 50 46
1650.0 47 35 48 45 45 46 44 44 47 42
1690.0 48 50 47 52 62 72 84 97 107 116
1730.0 110 93 78 64 47 43 33 34 30 28
1770.0 27 23 25 21 24 22 16 17 17 14
1810.0 13 12 16 11 10 13 12 11 8 10
1850.0 11 14 13 11 12 14 14 14 15 16
1890.0 17 13 16 15 14 14 11 12 11 14
1930.0 13 11 12 9 10 12 11 12 12 16
1970.0 17 18 19 17 20 17 15 16 13 13
2010.0 10 8 9 9 4 9 4 6 6 0
2050.0 5 1 0 2 7 7 11 14 14 9
2090.0 9 12 9 13 15 12 13 12 12 11
2130.0 8 11 10 12 14 13 15 17 18 17
2170.0 17 15 14 14 13 12 10 11 16 12
2210.0 13 14 13 21 22 21 17 17 18 16
2250.0 15 15 15 17 19 20 18 25 27 27
2290.0 27 32 31 33 33 38 39 36 40 33
2330.0 39 38 34 35 32 41 53 39 37 49
2370.0 29 28 39 42 40 42 47 41 44 39
2410.0 41 40 40 39 39 37 44 43 42 48
2450.0 45 47 49 43 38 45 44 42 40 38
2490.0 42 39 38 37 38 42 44 44 49 46
2530.0 46 50 47 48 51 51 55 52 56 58
2570.0 67 73 78 84 92 100 108 114 121 122
2610.0 126 126 125 128 132 128 131 126 128 127
2650.0 122 116 109 111 121 125 124 136 136 138
2690.0 142 145 145 142 142 147 152 165 185 203
2730.0 217 225 226 234 221 208 201 205 205 214
2770.0 216 212 224 219 227 219 223 228 247 263
2810.0 297 329 376 439 521 625 745 885 1037 1174
2850.0 1284 1372 1435 1533 1720 2078 2563 3003 3369 3518
2890.0 3455 3235 2995 2857 2882 3051 3255 3475 3649 3809
2930.0 3942 4083 4233 4453 4647 4871 5465 6437 7837 9222
2970.0 10000 9358 8433 6686 4908 3371 2244 1532 1063 755
3010.0 569 435 353 308 275 256 240 228 204 196
3050.0 185 185 181 179 161 170 162 153 153 156
3090.0 144 135 136 129 130 129 128 123 123 121
3130.0 127 125 131 134 128 132 138 135 142 142
3170.0 142 140 140 143 136 130 125 114 108 97
3210.0 82 69 59 48 49 40 36 36 39 33
3250.0 32 23 15 27 22 27 21 26 26 18
3290.0 28 23 27 31 29 11 22 18 17 10
3330.0 27 26 23 24 19 28 28 25 25 33
3370.0 39 28 23 22 29 34 37 36 31 25
3410.0 23 23 22 27 26 27 33 33 27 39
3450.0 35 35 44 35 33 41 40 33 33 33
3490.0 33 30 32 33 33 23 26 21 29 26
3530.0 21 23 22 33 30 38 29 28 30 28
3570.0 36 39 40 27 24 42 33 37 27 44
3610.0 55 53 69 80 105 130 168 203 250 247
3650.0 300 375 447 503 551 558 517 451 363 264
3690.0 168 116 78 77 49 44 47 43 49 38
3730.0 29 28 34 45 40 36 30 34 36 40
3770.0 35 49 47 46 55 50 63 47 36 51
3810.0 54 48 55 60 62 55 66 59 65 73
3850.0 61 76 67 80 70 53 49 72 78 52
3890.0 64 59 64 42 44 36 32 10 35 30
3930.0 39 24 28 26 41 25 15 17 17 44
##END=
