##TITLE=Spiro[5.7]tridec-1-ene-3-one
##JCAMP-DX=4.24
##DATA TYPE=INFRARED SPECTRUM
##ORIGIN=Sadtler Research Labs Under US-EPA Contract
##OWNER=NIST Standard Reference Data Program
##CAS REGISTRY NO=60033-39-8
##MOLFORM=C 13 H 20 O
##XUNITS=1/CM
##YUNITS=ABSORBANCE
##XFACTOR=1.0
##YFACTOR=0.000088141
##DELTAX=4.0
##FIRSTX=450.0
##LASTX=3966.0
##FIRSTY=0.033317
##MAXX=3966
##MINX=450
##MAXY=0.88141
##MINY=0
##NPOINTS=880
##XYDATA=(X++(Y..Y))
450.0 378 205 94 0 115 152 138 129 111 133
490.0 78 66 108 104 115 107 140 126 100 101
530.0 96 100 76 75 58 57 50 48 57 81
570.0 56 53 51 48 55 68 75 48 44 54
610.0 60 40 58 50 50 47 54 69 73 68
650.0 69 72 81 97 84 67 59 48 46 37
690.0 44 40 58 85 85 114 110 106 108 117
730.0 102 128 174 248 297 319 301 297 296 298
770.0 346 375 393 354 287 231 215 244 307 415
810.0 516 579 573 521 478 461 441 444 387 294
850.0 222 158 135 129 142 154 172 159 142 136
890.0 112 94 81 78 67 67 65 75 85 99
930.0 128 145 146 144 145 150 159 168 163 165
970.0 182 215 270 297 308 290 265 242 221 193
1010.0 163 136 129 124 129 110 106 91 93 97
1050.0 97 92 99 115 136 155 157 153 137 143
1090.0 143 159 187 218 281 370 472 542 544 474
1130.0 370 269 201 176 162 161 167 180 202 235
1170.0 276 307 336 365 388 387 384 407 504 639
1210.0 736 712 592 468 411 441 518 599 618 570
1250.0 487 398 337 300 275 247 213 173 146 131
1290.0 127 128 145 153 154 145 153 185 222 264
1330.0 289 294 292 289 285 275 269 282 301 324
1370.0 324 319 335 385 452 452 384 287 198 168
1410.0 165 200 277 346 391 408 420 490 677 943
1450.0 1199 1256 1144 931 822 827 870 840 680 494
1490.0 331 213 155 117 101 90 71 71 69 60
1530.0 53 46 55 59 53 50 55 54 56 49
1570.0 54 48 57 57 55 68 76 93 100 124
1610.0 145 173 196 190 176 143 162 169 192 221
1650.0 278 332 418 488 560 623 707 862 1074 1440
1690.0 2022 3144 5023 7297 8347 7580 5190 2950 1636 1092
1730.0 803 683 564 504 455 421 386 316 268 211
1770.0 194 157 136 111 98 81 82 74 71 65
1810.0 56 52 45 49 43 44 34 36 35 36
1850.0 34 31 36 26 31 29 25 24 19 20
1890.0 19 18 18 15 15 15 13 16 16 12
1930.0 16 13 18 17 18 11 15 16 21 20
1970.0 23 23 16 17 13 17 11 9 7 9
2010.0 7 5 6 6 12 7 8 6 10 12
2050.0 9 7 12 11 8 11 10 12 9 12
2090.0 15 14 15 14 12 11 12 11 14 12
2130.0 11 15 13 11 13 13 12 12 13 14
2170.0 12 14 13 10 12 13 12 9 12 10
2210.0 9 10 7 11 11 8 9 5 8 10
2250.0 8 10 8 6 6 10 11 10 9 9
2290.0 9 8 6 6 3 4 0 3 3 0
2330.0 0 0 0 0 0 0 0 0 0 0
2370.0 0 5 7 6 8 6 10 7 8 10
2410.0 5 8 10 10 11 11 13 13 17 15
2450.0 15 15 17 13 10 12 14 9 10 7
2490.0 8 10 10 10 9 8 11 12 12 9
2530.0 10 12 13 16 17 21 24 22 26 23
2570.0 24 23 26 27 27 33 35 30 31 35
2610.0 32 36 36 40 42 44 45 48 45 46
2650.0 47 53 60 69 75 83 91 101 109 116
2690.0 124 132 138 140 130 124 112 103 94 85
2730.0 78 75 69 62 63 62 57 60 64 69
2770.0 72 74 84 90 98 109 121 137 149 158
2810.0 167 176 185 198 215 239 257 290 351 477
2850.0 720 1152 1699 2150 2359 2276 2027 1736 1479 1299
2890.0 1200 1208 1357 1673 2131 2741 3524 4609 6170 7963
2930.0 9504 10000 9217 7596 5760 4299 3364 2857 2519 2125
2970.0 1617 1130 778 556 417 327 266 226 204 199
3010.0 212 245 308 389 460 477 423 339 274 245
3050.0 266 274 254 199 132 92 73 66 62 55
3090.0 51 56 55 49 42 36 28 28 29 26
3130.0 27 26 31 25 24 22 29 29 27 25
3170.0 23 17 21 22 22 20 17 17 21 24
3210.0 26 23 28 22 28 20 17 15 17 14
3250.0 21 13 13 12 16 18 21 19 23 22
3290.0 29 26 24 23 18 25 29 31 31 32
3330.0 34 28 25 30 37 25 32 31 36 49
3370.0 53 65 77 97 113 126 119 105 85 59
3410.0 54 42 31 25 25 33 31 32 21 21
3450.0 22 29 13 22 16 21 19 15 19 9
3490.0 10 3 8 10 18 11 15 11 9 9
3530.0 9 11 7 10 15 5 13 10 14 19
3570.0 26 33 31 23 21 8 21 7 8 1
3610.0 16 22 23 12 12 27 20 17 24 18
3650.0 29 19 27 21 15 18 24 23 14 18
3690.0 20 10 15 25 20 24 16 15 20 25
3730.0 20 22 28 14 28 17 22 20 10 22
3770.0 31 20 6 22 23 22 22 34 13 23
3810.0 15 26 16 19 13 16 20 33 24 18
3850.0 21 16 9 39 27 22 25 23 13 21
3890.0 15 14 13 15 17 43 19 22 24 9
3930.0 24 33 24 26 11 19 21 20 13 22
##END=
