##TITLE=Maleic acid, 2-acetyl-1,2-di-methyl hydrazino-, dimethyl ester
##JCAMP-DX=4.24
##DATA TYPE=INFRARED SPECTRUM
##ORIGIN=Sadtler Research Labs Under US-EPA Contract
##OWNER=NIST Standard Reference Data Program
##CAS REGISTRY NO=60051-16-3
##MOLFORM=C 10 H 16 N 2 O 5
##XUNITS=1/CM
##YUNITS=ABSORBANCE
##XFACTOR=1.0
##YFACTOR=0.000070026
##DELTAX=4.0
##FIRSTX=450.0
##LASTX=3966.0
##FIRSTY=0.000000
##MAXX=3966
##MINX=450
##MAXY=0.70026
##MINY=0
##NPOINTS=880
##XYDATA=(X++(Y..Y))
450.0 0 141 219 216 169 206 143 225 335 310
490.0 322 417 485 509 510 415 353 320 260 246
530.0 206 210 227 205 228 306 315 306 264 266
570.0 216 244 280 284 331 363 387 350 310 300
610.0 257 229 213 213 225 216 212 205 173 174
650.0 179 168 175 168 189 271 229 202 233 241
690.0 258 234 207 192 183 156 156 148 150 150
730.0 179 205 207 219 251 338 374 374 358 400
770.0 528 694 810 833 752 629 561 596 748 885
810.0 933 864 804 791 755 690 626 567 473 378
850.0 338 317 301 280 267 252 237 225 227 227
890.0 238 284 348 467 559 592 547 430 321 271
930.0 247 261 297 367 453 508 485 435 426 443
970.0 453 451 482 548 664 781 839 795 678 588
1010.0 548 599 686 840 1034 1299 1525 1523 1422 1282
1050.0 1155 1042 948 933 980 1061 1150 1230 1291 1315
1090.0 1282 1226 1200 1266 1410 1617 1825 1982 2098 2218
1130.0 2385 2652 3091 3856 5072 6725 8392 9193 8649 7051
1170.0 5308 4051 3395 3139 3086 3118 3106 2995 2855 2819
1210.0 2950 3211 3503 3768 3903 3834 3606 3295 3037 2887
1250.0 2860 2912 3048 3229 3417 3491 3370 3049 2600 2135
1290.0 1739 1456 1290 1208 1190 1207 1265 1349 1442 1565
1330.0 1672 1763 1805 1802 1778 1818 1984 2283 2720 3253
1370.0 3732 4018 3912 3550 3057 2556 2071 1648 1369 1257
1410.0 1249 1312 1366 1356 1367 1549 2044 2593 2637 2059
1450.0 1401 1156 1048 995 934 906 844 778 700 643
1490.0 609 567 548 520 524 520 488 479 488 480
1530.0 490 496 521 512 531 533 570 595 654 686
1570.0 773 870 1049 1275 1563 2010 2665 3740 5132 6817
1610.0 7841 7467 5890 3980 2692 1894 1490 1194 1054 933
1650.0 878 795 758 722 738 769 792 825 895 1036
1690.0 1190 1438 1857 2959 5356 8501 10000 8479 6027 5310
1730.0 5812 5820 5091 3882 2989 2791 3338 4307 5204 4958
1770.0 3612 2144 1240 827 674 583 545 510 481 463
1810.0 420 384 337 316 289 275 256 245 233 224
1850.0 216 204 206 197 197 189 191 187 186 183
1890.0 185 188 182 186 184 184 184 193 195 189
1930.0 197 194 191 188 186 181 178 172 173 170
1970.0 171 176 178 179 178 180 176 176 173 174
2010.0 173 178 178 175 179 183 180 183 188 191
2050.0 196 206 211 215 216 217 209 204 192 190
2090.0 187 188 182 183 184 183 183 179 173 171
2130.0 169 165 163 158 158 154 156 153 152 152
2170.0 155 155 157 159 159 156 154 155 154 150
2210.0 152 154 151 153 153 162 164 167 168 168
2250.0 172 177 177 177 184 187 197 203 210 220
2290.0 227 247 263 293 296 311 292 272 282 244
2330.0 231 222 227 224 323 316 300 261 221 218
2370.0 237 245 271 280 242 187 166 156 154 157
2410.0 152 148 144 147 141 145 146 148 151 152
2450.0 152 151 150 145 144 151 150 143 143 147
2490.0 146 143 146 145 138 147 148 145 145 146
2530.0 152 151 151 148 149 146 148 153 150 153
2570.0 152 158 153 159 163 162 166 169 165 166
2610.0 164 161 163 159 159 161 160 161 165 166
2650.0 165 169 170 168 164 165 169 164 167 166
2690.0 163 164 168 164 164 166 165 160 161 160
2730.0 160 162 165 167 168 165 174 176 180 184
2770.0 184 187 191 198 203 211 220 230 240 251
2810.0 270 279 290 307 321 336 367 387 427 481
2850.0 516 502 469 425 408 406 425 458 502 547
2890.0 597 649 690 725 744 763 781 784 775 789
2930.0 837 914 1029 1150 1294 1505 1912 2398 2516 2107
2970.0 1455 1026 863 789 765 761 779 792 801 792
3010.0 755 716 674 642 638 628 597 555 498 450
3050.0 416 389 371 357 349 339 335 332 340 350
3090.0 350 350 344 316 293 267 255 242 238 231
3130.0 217 216 210 200 196 196 191 182 187 182
3170.0 178 174 174 173 166 161 162 161 161 165
3210.0 152 152 156 150 150 153 148 152 153 157
3250.0 155 153 157 162 156 158 153 152 155 157
3290.0 152 162 151 152 161 170 167 161 163 167
3330.0 159 170 173 173 167 166 162 163 165 162
3370.0 166 159 157 163 165 175 173 191 196 207
3410.0 202 186 170 172 170 160 168 174 177 175
3450.0 168 164 162 150 155 150 149 155 163 152
3490.0 158 165 167 175 167 158 159 147 149 138
3530.0 142 148 151 141 157 160 162 162 142 152
3570.0 168 159 166 156 165 163 165 152 155 158
3610.0 164 155 156 154 165 178 163 151 166 144
3650.0 157 170 147 152 140 165 148 170 146 171
3690.0 162 160 154 154 153 152 172 162 161 148
3730.0 178 191 186 162 194 146 164 149 155 155
3770.0 138 141 144 171 140 153 144 154 144 159
3810.0 159 157 139 153 150 143 156 167 161 144
3850.0 168 172 169 150 161 162 148 159 167 184
3890.0 152 167 164 182 158 151 158 167 180 152
3930.0 169 169 177 163 170 146 162 165 157 177
##END=
