##TITLE=Benzene, 1,3-dichloro-2-nitro-
##JCAMP-DX=4.24
##DATA TYPE=INFRARED SPECTRUM
##ORIGIN=Sadtler Research Labs Under US-EPA Contract
##OWNER=NIST Standard Reference Data Program
##CAS REGISTRY NO=601-88-7
##MOLFORM=C 6 H 3 Cl 2 N O 2
##XUNITS=1/CM
##YUNITS=ABSORBANCE
##XFACTOR=1.0
##YFACTOR=0.000120407
##DELTAX=4.0
##FIRSTX=450.0
##LASTX=3966.0
##FIRSTY=0.000000
##MAXX=3966
##MINX=450
##MAXY=1.20407
##MINY=0
##NPOINTS=880
##XYDATA=(X++(Y..Y))
450.0 0 1056 1542 1206 1419 2041 1566 1828 1771 1293
490.0 1496 1309 1359 1455 1320 1365 1356 1350 1347 1315
530.0 1435 1245 1343 1396 1379 1346 1163 1394 1370 1312
570.0 1408 1493 1471 1418 1362 1375 1365 1418 1377 1302
610.0 1394 1318 1317 1299 1278 1301 1288 1294 1282 1258
650.0 1284 1261 1252 1254 1252 1284 1271 1253 1258 1268
690.0 1276 1316 1390 1549 1634 1753 1783 1709 1877 1912
730.0 1912 1843 1677 1464 1476 1365 1315 1399 1568 1859
770.0 2236 2663 3100 2654 2201 1850 1525 1460 1740 2457
810.0 3516 4026 4029 3435 2197 1499 1377 1515 1797 2104
850.0 2156 2142 1940 1568 1330 1285 1202 1197 1230 1204
890.0 1220 1205 1212 1232 1212 1233 1232 1227 1219 1240
930.0 1226 1228 1219 1211 1208 1219 1210 1221 1227 1227
970.0 1225 1236 1231 1221 1203 1195 1202 1187 1182 1170
1010.0 1180 1186 1183 1184 1174 1191 1173 1166 1201 1190
1050.0 1179 1192 1190 1201 1170 1186 1183 1214 1234 1274
1090.0 1373 1464 1505 1480 1409 1326 1228 1201 1199 1179
1130.0 1189 1182 1185 1187 1198 1226 1246 1301 1362 1429
1170.0 1485 1509 1514 1480 1429 1436 1555 1810 1983 2002
1210.0 1877 1568 1307 1216 1197 1202 1186 1188 1196 1192
1250.0 1200 1195 1183 1188 1200 1209 1209 1195 1194 1193
1290.0 1187 1188 1201 1219 1239 1291 1356 1416 1473 1479
1330.0 1462 1471 1569 1782 2139 2641 3201 3678 3806 3576
1370.0 3043 2345 1779 1560 1503 1505 1491 1433 1386 1320
1410.0 1308 1283 1366 1389 1450 1613 1903 2309 2727 2928
1450.0 2787 2498 1974 1542 1350 1312 1367 1393 1426 1468
1490.0 1530 1520 1561 1608 1653 1721 1709 1666 1727 1689
1530.0 1751 1835 1879 2094 2432 3194 4600 6263 8381 10000
1570.0 9900 7973 6021 4366 2926 2160 1691 1523 1461 1547
1610.0 1678 1792 1855 1776 1662 1467 1368 1313 1254 1251
1650.0 1252 1238 1215 1225 1227 1236 1245 1213 1215 1215
1690.0 1180 1163 1200 1188 1178 1158 1170 1200 1170 1162
1730.0 1180 1213 1197 1207 1210 1223 1193 1181 1180 1173
1770.0 1195 1198 1197 1206 1206 1208 1193 1182 1187 1156
1810.0 1144 1149 1142 1147 1151 1163 1154 1143 1165 1184
1850.0 1181 1180 1208 1198 1199 1197 1163 1147 1143 1145
1890.0 1152 1150 1148 1144 1145 1152 1158 1160 1178 1181
1930.0 1191 1204 1198 1197 1180 1155 1149 1146 1144 1145
1970.0 1144 1137 1135 1143 1141 1150 1144 1139 1135 1134
2010.0 1128 1126 1136 1131 1124 1125 1119 1126 1131 1129
2050.0 1125 1126 1124 1124 1129 1126 1121 1122 1124 1124
2090.0 1119 1117 1123 1122 1125 1117 1116 1116 1121 1117
2130.0 1117 1122 1117 1123 1121 1115 1115 1115 1115 1110
2170.0 1113 1117 1114 1115 1108 1109 1112 1109 1110 1112
2210.0 1113 1114 1119 1113 1114 1113 1117 1116 1116 1112
2250.0 1117 1121 1120 1117 1112 1121 1119 1113 1111 1109
2290.0 1111 1109 1113 1110 1110 1112 1122 1109 1108 1111
2330.0 1125 1114 1123 1117 1141 1120 1094 1089 1117 1139
2370.0 1142 1141 1135 1129 1115 1112 1108 1111 1124 1126
2410.0 1125 1125 1116 1117 1110 1105 1099 1102 1103 1102
2450.0 1099 1103 1107 1108 1102 1104 1107 1102 1105 1102
2490.0 1106 1103 1107 1102 1107 1100 1101 1101 1100 1106
2530.0 1103 1100 1100 1098 1100 1094 1087 1087 1087 1089
2570.0 1097 1094 1099 1097 1100 1095 1100 1097 1100 1100
2610.0 1100 1093 1099 1103 1102 1102 1100 1095 1100 1100
2650.0 1104 1105 1110 1113 1113 1114 1117 1119 1114 1113
2690.0 1113 1110 1111 1113 1119 1123 1129 1123 1126 1120
2730.0 1117 1110 1101 1106 1099 1101 1104 1099 1103 1095
2770.0 1098 1100 1099 1100 1098 1098 1100 1102 1103 1107
2810.0 1104 1104 1101 1103 1104 1111 1109 1109 1113 1120
2850.0 1117 1124 1124 1128 1130 1135 1145 1147 1153 1158
2890.0 1153 1155 1166 1176 1195 1215 1228 1227 1223 1203
2930.0 1173 1154 1140 1135 1129 1119 1125 1122 1114 1117
2970.0 1114 1111 1112 1115 1113 1120 1127 1126 1126 1129
3010.0 1128 1124 1117 1114 1111 1109 1112 1109 1104 1107
3050.0 1109 1112 1115 1125 1135 1152 1179 1200 1218 1220
3090.0 1201 1179 1147 1124 1115 1114 1113 1115 1108 1099
3130.0 1107 1106 1108 1109 1111 1106 1116 1109 1110 1104
3170.0 1101 1096 1099 1099 1097 1096 1098 1100 1096 1098
3210.0 1098 1099 1093 1094 1092 1099 1097 1094 1092 1097
3250.0 1100 1095 1094 1091 1093 1091 1091 1097 1096 1091
3290.0 1088 1096 1097 1092 1088 1090 1093 1096 1090 1089
3330.0 1091 1093 1094 1092 1091 1097 1100 1095 1095 1099
3370.0 1097 1092 1097 1100 1096 1091 1091 1097 1096 1096
3410.0 1094 1096 1100 1093 1099 1095 1099 1099 1101 1097
3450.0 1099 1095 1093 1100 1103 1099 1103 1098 1104 1091
3490.0 1096 1100 1098 1100 1105 1101 1100 1104 1102 1104
3530.0 1101 1095 1103 1094 1098 1109 1100 1100 1103 1103
3570.0 1096 1092 1097 1097 1094 1095 1102 1098 1102 1096
3610.0 1101 1099 1101 1101 1113 1112 1112 1113 1113 1104
3650.0 1105 1108 1112 1113 1107 1096 1094 1100 1109 1105
3690.0 1095 1115 1111 1100 1105 1106 1110 1108 1100 1102
3730.0 1091 1100 1108 1092 1087 1087 1113 1108 1115 1107
3770.0 1100 1105 1113 1114 1118 1116 1098 1093 1097 1100
3810.0 1122 1087 1087 1104 1106 1098 1089 1099 1109 1099
3850.0 1087 1090 1097 1091 1087 1115 1099 1104 1093 1097
3890.0 1095 1087 1087 1108 1118 1110 1092 1102 1127 1088
3930.0 1118 1091 1104 1106 1103 1118 1105 1100 1090 1113
##END=
