##TITLE=Benzene, 1-methyl-2,3-dinitro-
##JCAMP-DX=4.24
##DATA TYPE=INFRARED SPECTRUM
##ORIGIN=Sadtler Research Labs Under US-EPA Contract
##OWNER=NIST Standard Reference Data Program
##CAS REGISTRY NO=602-01-7
##MOLFORM=C 7 H 6 N 2 O 4
##XUNITS=1/CM
##YUNITS=ABSORBANCE
##XFACTOR=1.0
##YFACTOR=0.000108865
##DELTAX=4.0
##FIRSTX=450.0
##LASTX=3966.0
##FIRSTY=0.013499
##MAXX=3966
##MINX=450
##MAXY=1.08865
##MINY=0
##NPOINTS=880
##XYDATA=(X++(Y..Y))
450.0 124 76 61 87 8 101 80 71 41 56
490.0 43 36 37 17 29 29 58 61 62 55
530.0 61 47 65 62 53 86 80 107 78 88
570.0 86 98 92 100 103 93 92 85 66 47
610.0 57 52 34 43 30 37 32 49 33 35
650.0 38 32 37 36 42 60 67 64 76 89
690.0 150 244 432 576 643 613 483 393 371 421
730.0 483 536 577 656 697 737 754 613 475 348
770.0 257 200 196 228 352 600 1038 1690 1821 1560
810.0 1181 644 275 169 143 151 172 256 438 638
850.0 708 686 541 263 113 58 37 40 30 37
890.0 31 39 46 68 98 139 198 249 281 256
930.0 201 118 66 36 21 22 25 26 27 31
970.0 33 40 38 34 29 28 38 36 40 45
1010.0 48 51 65 69 70 77 75 76 64 68
1050.0 64 70 74 96 130 168 202 210 204 164
1090.0 131 95 82 68 60 57 56 62 57 62
1130.0 62 61 54 52 56 58 64 72 89 88
1170.0 92 82 71 62 74 87 101 105 96 78
1210.0 55 50 48 50 57 64 67 77 92 102
1250.0 123 132 147 154 167 178 187 213 255 315
1290.0 369 413 424 409 376 358 369 419 524 696
1330.0 982 1401 1982 2563 3081 3535 3832 3906 3724 3301
1370.0 2519 1715 1097 776 650 603 590 556 482 396
1410.0 340 293 319 310 324 337 372 404 400 422
1450.0 432 449 480 486 483 488 480 432 384 372
1490.0 396 382 410 430 502 599 649 811 961 1187
1530.0 1433 1800 2184 2740 3630 4857 6750 8299 10000 9918
1570.0 8793 6811 5027 3856 2935 2352 1778 1329 976 732
1610.0 581 450 390 302 256 205 204 197 167 184
1650.0 174 190 149 148 136 125 115 86 88 87
1690.0 69 57 87 89 84 66 80 91 59 46
1730.0 56 76 49 42 43 47 32 35 35 28
1770.0 40 44 30 34 28 35 30 32 37 33
1810.0 34 45 40 39 37 32 25 12 25 26
1850.0 19 8 11 9 17 30 27 38 44 50
1890.0 45 39 22 14 9 11 13 12 17 13
1930.0 13 17 25 37 45 52 53 48 33 22
1970.0 10 6 4 4 3 5 4 1 3 1
2010.0 2 4 6 3 3 2 2 6 6 6
2050.0 3 6 2 5 8 8 7 5 7 2
2090.0 3 1 3 1 2 2 2 0 1 1
2130.0 0 3 1 3 2 5 2 3 6 4
2170.0 6 6 4 7 8 10 11 11 11 10
2210.0 7 7 5 4 3 1 4 4 5 0
2250.0 3 2 3 3 4 6 5 8 8 12
2290.0 12 19 25 26 25 34 28 26 35 35
2330.0 39 29 39 39 32 39 39 37 32 34
2370.0 34 37 38 44 37 32 30 30 31 35
2410.0 31 29 28 27 21 18 16 13 8 11
2450.0 8 12 13 13 11 13 16 19 20 17
2490.0 18 16 15 18 16 17 18 18 18 14
2530.0 16 18 15 17 18 18 20 17 18 17
2570.0 18 17 14 16 18 20 20 22 20 18
2610.0 23 22 19 19 21 21 25 26 30 30
2650.0 33 30 31 31 36 37 40 49 52 56
2690.0 59 63 64 68 65 69 68 62 57 53
2730.0 47 49 42 41 42 40 42 44 43 43
2770.0 40 40 42 41 36 35 38 35 39 38
2810.0 40 39 43 45 47 47 49 57 54 62
2850.0 70 79 93 104 117 128 142 157 172 183
2890.0 192 200 213 219 229 232 232 230 226 228
2930.0 233 250 254 257 266 252 227 191 158 130
2970.0 124 124 127 137 142 155 158 161 158 149
3010.0 139 130 117 119 117 117 126 127 129 126
3050.0 116 104 102 101 113 134 162 190 208 214
3090.0 198 173 148 117 93 69 53 45 45 34
3130.0 32 28 29 30 27 23 28 19 22 22
3170.0 21 25 25 28 26 32 29 30 29 26
3210.0 28 19 21 27 16 21 19 19 19 21
3250.0 18 14 13 19 18 16 21 15 17 16
3290.0 15 12 11 9 10 15 11 16 18 14
3330.0 9 11 15 6 10 8 12 12 13 13
3370.0 9 10 12 15 14 11 17 17 14 15
3410.0 16 15 13 14 14 14 19 15 17 8
3450.0 19 16 11 18 21 15 15 17 22 12
3490.0 12 18 19 7 19 20 19 14 18 16
3530.0 10 18 18 17 19 20 22 6 17 14
3570.0 23 9 11 20 9 14 8 13 14 16
3610.0 19 10 9 14 9 19 12 11 8 21
3650.0 9 15 18 12 9 11 15 9 16 12
3690.0 2 5 7 5 5 6 0 6 8 17
3730.0 7 12 14 16 3 11 7 13 5 11
3770.0 11 15 23 16 12 20 17 15 0 1
3810.0 19 10 4 9 18 10 10 23 22 22
3850.0 8 22 10 18 15 9 12 16 21 31
3890.0 16 17 12 37 18 27 26 29 16 10
3930.0 19 29 17 19 27 31 30 9 22 21
##END=
