##TITLE=Ethyl N,N-diphenylcarbamate
##JCAMP-DX=4.24
##DATA TYPE=INFRARED SPECTRUM
##ORIGIN=Sadtler Research Labs Under US-EPA Contract
##OWNER=NIST Standard Reference Data Program
##CAS REGISTRY NO=603-52-1
##MOLFORM=C 15 H 15 N O 2
##XUNITS=1/CM
##YUNITS=ABSORBANCE
##XFACTOR=1.0
##YFACTOR=0.000060547
##DELTAX=4.0
##FIRSTX=450.0
##LASTX=3966.0
##FIRSTY=0.014047
##MAXX=3966
##MINX=450
##MAXY=0.60547
##MINY=0
##NPOINTS=880
##XYDATA=(X++(Y..Y))
450.0 232 174 218 141 135 179 179 165 301 290
490.0 348 239 207 526 547 538 545 554 526 416
530.0 349 411 286 321 102 0 516 298 109 425
570.0 183 125 289 205 346 441 236 104 259 377
610.0 198 252 351 247 488 693 776 774 440 191
650.0 261 383 567 460 619 670 557 666 971 1434
690.0 2238 2177 1996 1406 766 612 471 385 471 337
730.0 416 512 650 887 899 1188 1116 1093 893 824
770.0 930 656 315 499 644 314 425 223 210 585
810.0 464 445 341 431 169 83 422 381 274 347
850.0 233 289 396 289 311 357 245 192 277 354
890.0 328 257 257 265 307 287 283 309 286 232
930.0 236 273 348 345 260 323 287 269 302 277
970.0 317 273 275 277 298 429 282 205 513 374
1010.0 311 748 585 703 906 943 1018 1182 715 599
1050.0 1019 1650 2012 3147 3264 2797 2539 1819 1249 1476
1090.0 1430 1197 1169 1178 1052 568 586 437 381 383
1130.0 226 326 513 345 306 370 349 417 374 431
1170.0 582 621 603 643 714 837 1176 1734 2392 3257
1210.0 3513 2990 2259 1538 1098 1070 1094 1075 1109 1082
1250.0 1189 1428 1783 2221 2851 3662 4133 4480 4862 4915
1290.0 5141 5581 5738 5704 5528 5197 5127 4940 4114 3343
1330.0 2754 2250 1807 1455 1136 903 830 800 967 1499
1370.0 2077 2184 1752 1122 855 788 811 891 900 853
1410.0 716 608 618 528 491 456 454 538 530 567
1450.0 677 680 670 669 670 757 885 992 1294 1891
1490.0 2471 2756 2709 2213 1573 992 621 465 476 390
1530.0 321 352 352 334 274 280 282 287 325 342
1570.0 394 518 556 754 1109 1356 1533 1540 1325 1105
1610.0 834 598 494 410 330 282 290 311 292 299
1650.0 297 350 304 291 327 366 327 336 341 383
1690.0 448 486 536 579 588 627 752 1032 1397 2122
1730.0 3749 6474 9455 10000 6471 3054 1411 797 568 493
1770.0 447 417 381 372 354 363 342 294 314 299
1810.0 248 259 252 245 227 204 199 202 201 205
1850.0 192 226 210 199 235 225 224 210 174 199
1890.0 190 162 179 172 161 180 160 203 228 217
1930.0 212 241 256 223 226 237 202 206 168 139
1970.0 173 162 128 132 145 146 134 155 143 126
2010.0 145 118 123 166 131 116 151 129 140 144
2050.0 141 156 146 128 147 159 162 136 119 132
2090.0 124 128 127 129 132 100 106 131 131 138
2130.0 115 104 122 109 112 123 124 117 90 116
2170.0 125 106 134 91 90 132 96 100 134 115
2210.0 102 101 104 112 117 112 87 109 126 92
2250.0 113 130 107 92 104 117 123 118 105 105
2290.0 113 112 104 140 144 124 140 121 179 193
2330.0 111 148 146 107 149 141 184 247 136 108
2370.0 152 135 120 108 111 100 90 102 93 102
2410.0 98 59 80 105 97 84 94 86 72 82
2450.0 87 78 113 77 52 101 87 76 101 68
2490.0 75 84 68 88 89 82 64 59 97 77
2530.0 73 85 70 73 77 73 99 88 68 68
2570.0 67 93 88 74 88 91 83 67 91 114
2610.0 74 77 71 62 104 74 43 88 58 32
2650.0 61 65 71 56 39 39 47 80 37 43
2690.0 77 34 28 69 53 58 55 36 45 73
2730.0 65 55 75 64 36 60 77 74 78 52
2770.0 55 84 69 76 77 77 77 52 72 111
2810.0 80 75 72 75 92 77 107 115 90 115
2850.0 89 148 196 152 139 173 173 189 227 234
2890.0 228 236 229 229 328 334 292 364 363 361
2930.0 427 441 504 574 535 491 454 466 449 444
2970.0 528 566 650 828 874 854 738 558 488 452
3010.0 387 345 293 315 355 413 508 621 725 738
3050.0 714 645 551 583 655 767 984 989 829 675
3090.0 523 463 435 390 364 311 241 173 139 156
3130.0 99 84 165 107 65 100 88 119 131 64
3170.0 75 115 99 69 116 127 62 66 78 81
3210.0 131 71 68 87 75 78 94 90 123 58
3250.0 62 93 92 109 73 72 88 65 83 101
3290.0 96 123 52 56 120 102 87 110 83 85
3330.0 93 96 102 131 96 22 108 137 72 111
3370.0 94 81 112 88 91 126 118 80 69 131
3410.0 121 79 127 87 80 138 84 120 177 101
3450.0 90 126 146 166 139 137 128 96 98 106
3490.0 141 137 89 94 94 125 130 98 138 122
3530.0 72 102 128 136 127 91 109 109 150 127
3570.0 104 163 111 71 162 143 112 149 99 100
3610.0 173 125 120 148 148 105 114 160 131 149
3650.0 154 102 149 156 127 154 173 157 114 124
3690.0 192 166 165 140 130 174 156 142 181 155
3730.0 150 155 155 220 184 131 171 161 153 168
3770.0 154 159 155 139 127 154 209 165 143 180
3810.0 157 155 190 174 176 183 147 175 216 198
3850.0 139 169 179 151 200 186 153 188 143 122
3890.0 195 209 188 182 173 175 172 163 190 174
3930.0 189 138 151 202 217 202 6 21 21 21
##END=
