##TITLE=2-Methyl-3-nitroaniline
##JCAMP-DX=4.24
##DATA TYPE=INFRARED SPECTRUM
##ORIGIN=Sadtler Research Labs Under US-EPA Contract
##OWNER=NIST Standard Reference Data Program
##CAS REGISTRY NO=603-83-8
##MOLFORM=C 7 H 8 N 2 O 2
##XUNITS=1/CM
##YUNITS=ABSORBANCE
##XFACTOR=1.0
##YFACTOR=0.000064215
##DELTAX=4.0
##FIRSTX=450.0
##LASTX=3966.0
##FIRSTY=0.016118
##MAXX=3966
##MINX=450
##MAXY=0.64215
##MINY=0
##NPOINTS=880
##XYDATA=(X++(Y..Y))
450.0 251 245 199 244 163 266 302 277 225 254
490.0 227 210 263 248 242 205 209 214 179 213
530.0 132 117 121 99 82 115 134 121 105 112
570.0 114 138 138 155 142 137 169 179 180 188
610.0 225 262 269 333 379 399 421 427 387 375
650.0 384 371 385 407 400 422 449 468 520 615
690.0 758 880 1068 1278 1315 1316 1334 1355 1387 1473
730.0 1653 1590 1297 1183 1010 860 781 761 829 971
770.0 1174 1357 1514 1570 1599 1625 1643 1378 1071 879
810.0 714 643 723 974 1192 1233 1121 844 503 202
850.0 106 75 58 53 48 62 70 86 73 93
890.0 102 111 138 150 130 108 62 28 14 2
930.0 0 10 15 23 33 44 55 51 53 55
970.0 61 60 64 69 68 68 78 79 97 111
1010.0 134 170 217 293 367 462 503 540 513 483
1050.0 434 407 367 333 299 243 198 166 169 166
1090.0 179 200 239 304 357 389 392 376 335 292
1130.0 266 247 223 199 198 203 236 274 278 274
1170.0 266 232 212 233 249 255 242 238 241 272
1210.0 328 429 539 580 573 528 428 325 292 285
1250.0 286 282 297 339 409 524 700 983 1385 1875
1290.0 2279 2481 2543 2411 2001 1621 1388 1165 983 865
1330.0 857 949 1164 1574 2223 3113 4101 4908 5200 4959
1370.0 4103 2883 1877 1370 1143 996 932 828 734 650
1410.0 586 541 468 466 434 455 463 541 625 733
1450.0 865 1005 1159 1318 1463 1551 1586 1631 1656 1615
1490.0 1579 1555 1518 1620 1820 2204 2607 3225 3891 4889
1530.0 6018 7446 8910 9764 10000 8737 7227 5568 4255 3539
1570.0 3078 2856 2605 2339 2016 1691 1428 1184 1128 1146
1610.0 1354 1676 2270 2986 3559 3793 3624 3056 2283 1558
1650.0 1042 761 612 519 436 376 318 294 239 206
1690.0 200 188 142 140 143 156 145 126 149 161
1730.0 152 134 155 168 165 159 167 162 152 158
1770.0 145 140 151 144 132 119 96 97 86 92
1810.0 84 87 100 105 117 107 112 101 78 53
1850.0 55 48 46 46 38 36 42 46 50 56
1890.0 61 81 106 128 142 143 133 111 83 65
1930.0 52 43 37 27 23 26 20 21 18 15
1970.0 14 18 15 15 12 7 11 11 13 9
2010.0 10 11 8 12 12 13 15 10 11 10
2050.0 10 16 17 15 17 22 21 20 22 18
2090.0 14 16 15 12 9 10 12 9 6 8
2130.0 5 7 8 5 7 4 7 11 6 9
2170.0 5 8 5 7 9 10 6 13 9 8
2210.0 8 11 9 9 6 6 4 1 4 1
2250.0 0 3 6 4 5 8 8 12 16 22
2290.0 22 25 31 32 38 48 51 47 52 41
2330.0 39 32 24 40 25 52 41 35 16 25
2370.0 18 32 39 49 43 30 31 28 27 30
2410.0 28 19 22 20 23 22 21 21 14 17
2450.0 17 10 18 15 20 23 21 21 18 15
2490.0 16 11 10 12 11 9 10 10 10 17
2530.0 11 9 7 5 8 5 10 9 10 14
2570.0 20 29 37 47 52 60 56 55 59 61
2610.0 62 65 62 55 51 46 41 36 35 34
2650.0 31 37 34 33 31 34 35 32 35 36
2690.0 36 35 38 38 36 42 41 45 43 38
2730.0 42 40 34 39 51 54 67 70 73 68
2770.0 65 58 47 51 48 50 53 53 51 58
2810.0 55 63 74 79 78 83 94 104 115 123
2850.0 136 152 171 204 244 280 319 346 365 377
2890.0 384 390 381 374 369 375 378 406 445 495
2930.0 539 576 585 575 549 506 469 427 368 322
2970.0 282 246 219 197 179 178 178 189 194 208
3010.0 227 254 284 326 378 417 457 487 483 457
3050.0 415 357 330 323 342 379 421 445 433 405
3090.0 338 261 186 139 105 91 82 69 52 46
3130.0 50 43 48 40 38 33 35 34 41 40
3170.0 41 33 43 32 38 44 62 60 67 71
3210.0 78 75 71 76 65 56 58 52 48 38
3250.0 39 38 38 35 30 30 29 22 22 17
3290.0 20 22 27 22 14 21 23 22 25 37
3330.0 31 33 32 34 45 50 44 50 55 54
3370.0 67 78 84 106 115 122 137 173 206 303
3410.0 421 559 690 733 693 584 412 251 154 117
3450.0 97 81 84 97 97 103 119 138 180 211
3490.0 291 380 494 605 647 618 548 423 295 198
3530.0 119 96 75 63 65 50 40 44 53 37
3570.0 64 72 66 45 28 46 23 25 33 22
3610.0 27 18 17 10 13 32 32 40 13 26
3650.0 24 29 18 0 33 24 14 6 15 11
3690.0 20 33 11 4 0 9 12 2 23 16
3730.0 23 17 13 24 13 9 1 21 23 17
3770.0 19 18 17 18 22 12 37 42 22 21
3810.0 6 0 4 0 21 31 17 21 23 42
3850.0 24 24 9 45 17 40 26 26 47 23
3890.0 34 39 37 39 36 63 40 25 38 60
3930.0 31 15 33 44 35 31 8 10 12 15
##END=
