##TITLE=Benzene, 1,3,5-trimethyl-2-nitro-
##JCAMP-DX=4.24
##DATA TYPE=INFRARED SPECTRUM
##ORIGIN=Sadtler Research Labs Under US-EPA Contract
##OWNER=NIST Standard Reference Data Program
##CAS REGISTRY NO=603-71-4
##MOLFORM=C 9 H 11 N O 2
##XUNITS=1/CM
##YUNITS=ABSORBANCE
##XFACTOR=1.0
##YFACTOR=0.000176828
##DELTAX=4.0
##FIRSTX=450.0
##LASTX=3966.0
##FIRSTY=0.000177
##MAXX=3966
##MINX=450
##MAXY=1.76828
##MINY=0
##NPOINTS=880
##XYDATA=(X++(Y..Y))
450.0 1 1 22 65 63 74 69 96 100 111
490.0 111 117 121 140 145 134 148 140 126 142
530.0 138 138 143 151 141 150 145 164 181 212
570.0 220 208 221 208 247 295 490 665 667 617
610.0 479 287 193 175 168 163 158 162 157 158
650.0 168 169 175 171 169 168 170 167 186 186
690.0 199 200 203 203 197 190 186 192 200 217
730.0 232 264 273 258 225 191 160 151 154 155
770.0 166 171 167 166 163 158 147 150 154 181
810.0 204 291 389 714 1416 2301 2477 2631 2316 1592
850.0 1581 1475 878 747 429 255 178 155 145 132
890.0 146 123 142 130 143 132 143 145 149 162
930.0 167 181 173 184 177 183 181 178 169 158
970.0 159 155 162 159 175 178 193 201 214 226
1010.0 240 258 264 276 278 285 285 292 295 282
1050.0 265 238 226 206 202 190 188 190 211 253
1090.0 308 353 363 339 275 224 186 168 153 147
1130.0 142 138 141 134 135 130 136 135 144 155
1170.0 182 238 273 295 286 248 196 174 156 149
1210.0 144 138 139 133 136 130 139 136 144 150
1250.0 162 176 190 214 227 256 289 330 354 376
1290.0 388 387 376 345 317 273 258 247 266 288
1330.0 324 388 473 670 984 1478 2153 2934 3592 4110
1370.0 4123 3740 3087 2428 1778 1302 1029 788 656 568
1410.0 535 564 563 662 728 846 902 1024 1139 1235
1450.0 1324 1371 1361 1332 1323 1281 1290 1308 1393 1362
1490.0 1372 1400 1429 1516 1605 1938 2211 2986 3838 5412
1530.0 6634 8183 10000 8576 7953 6025 4549 3226 2287 1952
1570.0 1677 1534 1395 1322 1303 1324 1507 1781 2109 2253
1610.0 1963 1440 861 540 364 303 229 206 182 170
1650.0 128 127 120 113 111 93 82 95 84 77
1690.0 96 103 77 83 94 133 141 175 230 248
1730.0 217 165 138 98 83 81 112 116 124 119
1770.0 95 77 78 70 62 60 43 48 35 48
1810.0 41 41 45 39 37 29 38 34 33 23
1850.0 34 37 35 37 30 26 37 43 41 47
1890.0 45 48 50 49 47 43 46 40 38 39
1930.0 42 35 35 32 34 41 41 44 39 35
1970.0 30 30 29 29 30 22 23 22 21 19
2010.0 20 19 15 17 18 18 17 18 15 18
2050.0 16 17 15 15 14 15 16 15 18 14
2090.0 13 12 13 12 12 13 11 14 13 14
2130.0 13 14 12 11 11 10 13 12 15 16
2170.0 22 24 25 22 19 18 15 13 10 9
2210.0 6 8 6 6 7 5 9 5 6 6
2250.0 6 3 4 2 1 4 3 3 3 5
2290.0 3 4 5 7 8 9 15 9 17 14
2330.0 19 17 20 25 27 28 38 36 37 39
2370.0 37 34 34 33 29 24 25 24 28 31
2410.0 37 39 41 41 43 43 40 40 37 37
2450.0 36 38 37 36 36 34 33 30 29 26
2490.0 26 23 21 20 19 19 17 19 19 19
2530.0 18 20 19 18 20 20 21 19 20 18
2570.0 17 15 13 11 8 9 9 11 10 13
2610.0 15 16 17 20 23 25 24 25 23 20
2650.0 17 16 18 16 17 19 23 28 29 36
2690.0 38 41 45 50 53 57 62 67 72 75
2730.0 77 80 88 99 110 116 112 103 89 78
2770.0 64 57 52 52 51 53 57 60 66 72
2810.0 80 87 97 103 114 126 139 157 181 212
2850.0 256 314 388 485 599 713 806 854 856 823
2890.0 788 756 739 731 738 758 809 908 1076 1321
2930.0 1577 1795 1900 1863 1704 1490 1235 1019 872 795
2970.0 779 795 834 873 923 953 959 941 906 878
3010.0 862 869 874 902 943 997 1055 1093 1087 1009
3050.0 886 721 561 433 350 293 258 234 208 189
3090.0 173 155 138 122 108 96 87 74 65 55
3130.0 52 44 44 35 33 29 27 23 19 21
3170.0 17 14 11 12 11 12 9 9 9 13
3210.0 13 9 8 7 7 10 9 7 5 8
3250.0 6 8 6 7 9 7 6 9 8 6
3290.0 6 4 6 5 7 2 4 3 3 6
3330.0 2 4 5 3 5 7 6 5 2 3
3370.0 5 5 3 1 5 3 6 3 4 6
3410.0 4 5 3 6 7 7 5 3 6 4
3450.0 7 4 8 4 6 4 6 8 6 7
3490.0 4 7 3 5 6 4 3 3 4 6
3530.0 8 1 4 7 10 7 8 7 5 9
3570.0 6 8 6 6 8 6 8 2 6 3
3610.0 8 6 7 9 7 12 8 9 10 7
3650.0 16 13 11 11 6 13 5 17 4 7
3690.0 4 7 6 4 6 4 6 5 4 6
3730.0 2 7 1 10 0 6 6 1 2 3
3770.0 4 4 1 3 4 3 1 1 7 1
3810.0 1 2 1 7 1 5 4 2 1 2
3850.0 1 3 5 1 1 4 4 1 7 2
3890.0 3 1 4 3 1 1 2 1 1 2
3930.0 1 1 1 1 1 4 6 1 1 5
##END=
