##TITLE=2-Pentanol
##JCAMP-DX=4.24
##DATA TYPE=INFRARED SPECTRUM
##ORIGIN=Sadtler Research Labs Under US-EPA Contract
##OWNER=NIST Standard Reference Data Program
##CAS REGISTRY NO=6032-29-7
##MOLFORM=C 5 H 12 O
##XUNITS=1/CM
##YUNITS=ABSORBANCE
##XFACTOR=1.0
##YFACTOR=0.000088220
##DELTAX=4.0
##FIRSTX=450.0
##LASTX=3966.0
##FIRSTY=0.017556
##MAXX=3966
##MINX=450
##MAXY=0.8822
##MINY=0
##NPOINTS=880
##XYDATA=(X++(Y..Y))
450.0 199 284 325 89 392 378 466 437 513 496
490.0 476 542 464 599 397 465 221 309 72 32
530.0 365 144 240 122 119 91 215 118 189 138
570.0 119 175 144 154 120 175 133 166 131 136
610.0 128 119 123 101 130 125 122 98 104 128
650.0 138 113 125 131 114 121 121 148 102 130
690.0 117 116 93 136 117 111 117 119 82 104
730.0 196 211 209 220 218 191 169 151 110 75
770.0 142 233 152 95 139 127 168 158 180 231
810.0 278 289 392 447 534 557 505 555 551 530
850.0 460 424 381 351 355 369 408 473 555 620
890.0 683 725 752 733 684 625 597 565 592 694
930.0 824 968 1072 1160 1161 1111 1044 946 811 677
970.0 597 557 571 624 730 845 977 1103 1254 1392
1010.0 1524 1612 1663 1679 1624 1548 1472 1410 1288 1223
1050.0 1218 1265 1323 1394 1498 1622 1763 1832 1893 1914
1090.0 1938 1891 1821 1728 1674 1680 1734 1830 1926 2075
1130.0 2216 2343 2394 2403 2314 2154 1928 1652 1388 1132
1170.0 937 766 666 593 571 567 593 644 696 772
1210.0 838 927 1014 1122 1222 1309 1390 1463 1515 1510
1250.0 1482 1424 1369 1277 1190 1082 997 919 849 778
1290.0 718 671 618 582 555 549 542 563 583 620
1330.0 663 713 783 837 919 1003 1107 1235 1435 1682
1370.0 1947 2201 2358 2477 2456 2339 2108 1834 1514 1268
1410.0 1024 856 724 639 624 645 706 773 904 1023
1450.0 1181 1278 1341 1359 1320 1231 1104 963 809 657
1490.0 507 393 305 233 177 158 140 117 100 93
1530.0 96 79 85 51 82 72 76 44 49 65
1570.0 54 51 52 50 50 50 53 41 56 46
1610.0 52 33 42 31 46 29 36 16 44 30
1650.0 45 2 43 43 33 38 41 32 52 19
1690.0 45 35 33 18 38 33 35 26 35 38
1730.0 31 35 16 34 29 27 14 27 19 25
1770.0 24 12 28 26 35 18 15 22 25 16
1810.0 25 21 17 27 26 18 16 20 23 20
1850.0 23 24 23 24 25 22 26 22 19 25
1890.0 18 22 14 7 13 17 12 9 14 13
1930.0 7 11 6 14 8 18 15 15 15 16
1970.0 12 12 15 5 12 6 13 7 8 5
2010.0 6 9 5 7 7 12 7 13 10 13
2050.0 14 12 11 13 14 12 15 11 13 8
2090.0 12 14 11 15 18 14 12 14 11 15
2130.0 11 10 11 11 15 13 15 16 19 17
2170.0 19 18 22 22 23 25 26 26 22 22
2210.0 24 22 22 21 18 12 13 10 7 13
2250.0 17 14 19 16 15 17 15 14 15 17
2290.0 15 21 22 24 32 29 36 35 43 45
2330.0 48 45 42 37 32 31 47 39 44 31
2370.0 27 25 14 16 13 23 25 29 35 34
2410.0 32 31 27 26 30 21 21 15 18 17
2450.0 14 21 19 18 16 16 15 20 18 16
2490.0 17 20 16 14 11 12 14 13 16 15
2530.0 14 9 14 14 13 14 15 23 22 32
2570.0 33 41 41 44 50 52 55 58 63 68
2610.0 74 72 77 84 91 94 97 106 111 118
2650.0 122 132 128 138 140 141 133 141 138 137
2690.0 133 131 131 124 128 131 138 146 153 160
2730.0 176 188 202 217 215 220 221 216 207 209
2770.0 212 213 228 236 255 272 290 305 330 364
2810.0 396 433 471 533 604 695 805 965 1135 1330
2850.0 1562 1796 2092 2403 2793 3266 3847 4418 4643 4699
2890.0 4755 4696 4583 4430 4478 4708 5071 5486 5946 6341
2930.0 6713 6964 7108 7010 6922 7020 7328 7899 8691 9608
2970.0 9925 10000 9405 8242 6659 5028 3641 2483 1610 1052
3010.0 726 555 445 390 357 335 319 295 287 274
3050.0 253 233 219 203 188 177 174 165 168 156
3090.0 150 145 130 126 119 112 108 95 87 81
3130.0 85 80 87 96 100 92 109 110 103 95
3170.0 96 102 96 101 98 107 100 100 84 92
3210.0 78 74 64 53 56 44 38 30 34 32
3250.0 20 18 25 27 29 29 17 25 17 24
3290.0 23 31 33 28 32 25 30 14 29 17
3330.0 7 10 31 15 21 20 20 17 18 34
3370.0 30 26 35 35 22 30 44 45 43 46
3410.0 57 44 57 59 56 62 59 59 57 67
3450.0 58 55 70 66 52 51 52 44 39 45
3490.0 50 50 52 44 53 31 28 29 36 42
3530.0 36 34 35 24 40 58 31 42 29 51
3570.0 46 38 16 32 62 63 47 62 66 69
3610.0 95 131 155 188 230 315 369 476 587 744
3650.0 856 891 882 840 819 680 486 338 228 157
3690.0 109 99 61 74 56 40 41 53 37 50
3730.0 18 11 8 24 36 35 18 22 8 21
3770.0 48 55 41 37 63 54 52 73 6 44
3810.0 63 66 13 3 23 56 47 32 7 18
3850.0 37 68 56 65 62 58 49 38 50 22
3890.0 40 46 23 60 41 12 65 13 47 69
3930.0 35 11 3 23 50 11 9 0 24 1
##END=
