##TITLE=2-Propenenitrile, 3-(2-thienyl)-
##JCAMP-DX=4.24
##DATA TYPE=INFRARED SPECTRUM
##ORIGIN=Sadtler Research Labs Under US-EPA Contract
##OWNER=NIST Standard Reference Data Program
##CAS REGISTRY NO=6041-28-7
##MOLFORM=C 7 H 5 N S
##XUNITS=1/CM
##YUNITS=ABSORBANCE
##XFACTOR=1.0
##YFACTOR=0.000081775
##DELTAX=4.0
##FIRSTX=450.0
##LASTX=3966.0
##FIRSTY=0.008995
##MAXX=3966
##MINX=450
##MAXY=0.81775
##MINY=0
##NPOINTS=880
##XYDATA=(X++(Y..Y))
450.0 110 269 321 202 136 182 154 218 252 291
490.0 228 135 104 67 65 71 84 129 166 271
530.0 299 309 299 178 36 5 10 6 41 59
570.0 97 102 147 187 239 258 322 351 310 282
610.0 270 245 229 228 293 307 261 224 114 75
650.0 80 133 145 182 176 335 433 750 1365 2449
690.0 3938 5356 6430 10000 9370 7330 5923 4450 2899 1783
730.0 1192 1112 1344 1118 1032 1042 953 755 653 507
770.0 392 364 366 447 636 822 991 1147 1180 1524
810.0 1209 1075 994 902 853 1089 870 919 1124 1113
850.0 1531 1938 1782 1746 1659 954 528 355 246 195
890.0 180 190 207 221 244 260 266 271 309 396
930.0 595 910 1337 1758 2107 2649 2712 1874 1591 1143
970.0 718 412 232 155 130 128 134 149 157 165
1010.0 166 179 196 216 260 333 457 724 1161 1365
1050.0 1334 1257 893 494 299 236 210 191 165 161
1090.0 155 134 119 122 129 152 219 304 354 366
1130.0 380 344 250 210 192 187 189 207 197 178
1170.0 160 131 115 133 182 290 452 669 972 1234
1210.0 1410 1464 1280 1081 906 628 511 602 713 745
1250.0 823 797 859 972 1001 1012 949 755 612 514
1290.0 404 315 268 247 227 209 187 163 127 92
1330.0 79 79 64 86 139 242 467 793 946 896
1370.0 798 563 326 292 355 454 572 766 978 1149
1410.0 1415 1855 2283 2702 2710 2389 1938 1314 731 408
1450.0 238 167 157 177 244 282 288 269 256 187
1490.0 149 143 147 167 200 244 364 434 462 528
1530.0 529 511 478 432 364 291 203 167 216 246
1570.0 296 353 434 552 843 1343 2096 2893 3646 4347
1610.0 4954 5336 4975 4045 2953 1411 575 433 372 364
1650.0 294 285 248 239 237 246 252 339 395 452
1690.0 455 463 450 443 428 445 407 377 336 272
1730.0 241 230 222 197 167 171 172 167 142 109
1770.0 87 97 143 198 283 374 416 366 337 243
1810.0 143 96 81 58 42 25 22 21 11 6
1850.0 11 15 9 10 3 3 14 21 31 42
1890.0 67 87 104 119 116 107 92 77 54 45
1930.0 34 25 19 14 14 15 11 11 14 9
1970.0 10 12 11 12 14 13 15 21 18 17
2010.0 15 11 5 5 10 5 5 6 6 7
2050.0 13 14 17 17 22 26 28 30 33 34
2090.0 39 47 50 51 51 48 46 45 45 49
2130.0 52 50 47 43 37 37 52 70 92 102
2170.0 107 97 77 63 53 52 64 94 162 315
2210.0 597 1008 1481 1895 1996 1778 1228 499 163 96
2250.0 77 70 70 68 73 79 85 95 97 92
2290.0 82 66 59 53 49 49 48 46 46 43
2330.0 39 42 49 60 63 38 21 17 34 43
2370.0 51 48 41 29 17 5 1 0 1 5
2410.0 6 3 6 12 16 25 32 42 51 50
2450.0 48 52 59 66 73 77 75 68 63 54
2490.0 43 32 27 19 22 18 12 16 14 11
2530.0 13 13 14 18 21 22 27 19 22 18
2570.0 20 17 20 17 16 17 14 19 21 23
2610.0 30 30 28 28 26 26 33 35 36 37
2650.0 32 35 28 23 20 15 14 11 6 5
2690.0 10 7 15 13 15 13 9 12 18 26
2730.0 25 31 28 23 21 21 21 22 22 18
2770.0 17 16 19 17 18 17 20 28 29 38
2810.0 42 48 52 58 63 73 80 91 95 103
2850.0 95 92 90 93 98 100 93 98 95 84
2890.0 73 61 48 42 34 34 31 31 36 47
2930.0 67 95 122 145 155 170 163 155 144 134
2970.0 119 104 89 78 68 60 61 65 68 73
3010.0 81 106 128 149 202 254 288 340 383 404
3050.0 504 661 700 684 634 508 497 584 666 758
3090.0 838 737 610 556 409 239 190 159 114 98
3130.0 79 58 41 31 34 29 29 29 28 28
3170.0 28 27 17 14 11 4 6 4 0 7
3210.0 11 19 28 36 47 48 57 49 46 36
3250.0 31 20 17 15 18 19 23 19 15 16
3290.0 7 13 13 4 5 11 11 10 16 12
3330.0 5 10 13 13 14 12 14 14 12 17
3370.0 7 14 11 11 13 11 7 6 2 15
3410.0 16 6 11 13 11 15 11 10 10 7
3450.0 14 10 13 7 6 7 6 4 3 10
3490.0 11 17 19 17 14 20 21 16 16 17
3530.0 9 15 14 13 16 15 13 10 10 5
3570.0 18 12 9 7 4 13 10 4 23 18
3610.0 25 15 16 20 18 28 16 17 13 14
3650.0 28 19 23 16 12 19 11 20 10 13
3690.0 20 23 18 20 21 25 20 27 16 29
3730.0 28 35 51 33 46 26 41 21 21 17
3770.0 19 15 12 13 18 13 26 20 27 21
3810.0 35 32 66 77 79 98 101 123 113 109
3850.0 99 84 58 31 30 36 26 15 16 29
3890.0 14 16 13 21 7 20 9 31 26 17
3930.0 32 49 49 73 67 78 102 80 62 62
##END=
