##TITLE=1,2-Benzenedicarboxylic acid, bis(2-ethoxyethyl) ester
##JCAMP-DX=4.24
##DATA TYPE=INFRARED SPECTRUM
##ORIGIN=Sadtler Research Labs Under US-EPA Contract
##OWNER=NIST Standard Reference Data Program
##CAS REGISTRY NO=605-54-9
##MOLFORM=C 16 H 22 O 6
##XUNITS=1/CM
##YUNITS=ABSORBANCE
##XFACTOR=1.0
##YFACTOR=0.000114005
##DELTAX=4.0
##FIRSTX=450.0
##LASTX=3966.0
##FIRSTY=0.007182
##MAXX=3966
##MINX=450
##MAXY=1.14005
##MINY=0
##NPOINTS=880
##XYDATA=(X++(Y..Y))
450.0 63 203 312 127 69 248 86 161 43 187
490.0 70 172 169 144 183 204 241 143 202 149
530.0 184 113 122 116 89 99 92 122 98 146
570.0 114 110 86 72 39 12 40 12 23 5
610.0 14 0 11 21 23 14 22 43 48 102
650.0 162 175 118 81 79 69 101 98 133 167
690.0 254 356 497 522 519 461 445 450 488 547
730.0 659 851 1040 1215 1184 1026 792 630 536 471
770.0 446 440 436 431 434 395 353 301 278 261
810.0 261 258 259 275 290 319 352 383 414 448
850.0 479 494 494 459 437 406 384 364 359 345
890.0 325 305 291 286 294 313 337 375 408 435
930.0 446 439 433 414 402 388 400 407 403 425
970.0 467 498 481 433 376 348 343 363 402 444
1010.0 506 580 666 760 872 1010 1262 1637 1966 2001
1050.0 1845 1850 2164 2857 3781 4642 4695 4042 3137 2579
1090.0 2433 2577 2984 3581 4496 5552 6970 8172 9048 9038
1130.0 8596 7879 6741 5711 4639 3754 2951 2398 1992 1693
1170.0 1447 1285 1171 1066 957 853 782 742 726 723
1210.0 752 805 890 1018 1198 1469 1848 2416 3082 3856
1250.0 4636 5447 6376 7229 8522 9242 10000 9452 9394 8405
1290.0 6955 5334 3906 2866 2096 1613 1277 1069 944 897
1330.0 903 922 898 841 813 821 886 927 945 946
1370.0 993 1029 1084 1220 1369 1368 1153 864 687 568
1410.0 488 441 387 394 381 420 461 550 678 796
1450.0 852 823 751 670 589 499 461 443 480 497
1490.0 461 390 309 252 213 176 162 155 133 140
1530.0 129 119 122 110 97 104 121 109 143 155
1570.0 219 270 357 387 311 255 247 290 308 288
1610.0 214 164 153 134 149 122 149 117 133 119
1650.0 149 112 160 144 157 177 171 208 199 240
1690.0 261 324 343 453 531 606 720 886 1195 1516
1730.0 2209 2950 4637 6369 8893 8503 7946 5800 3953 2635
1770.0 1855 1306 956 769 590 513 434 413 361 364
1810.0 325 288 254 217 199 165 164 150 133 114
1850.0 112 114 113 121 111 109 96 93 78 73
1890.0 71 73 76 76 84 87 86 89 92 101
1930.0 124 143 152 136 121 111 105 118 130 135
1970.0 120 107 95 87 83 71 72 65 66 55
2010.0 54 46 44 39 37 37 34 32 29 33
2050.0 30 35 34 37 35 41 46 45 52 53
2090.0 57 56 61 60 59 58 57 57 54 55
2130.0 49 50 48 49 48 43 46 40 39 35
2170.0 37 31 31 28 28 26 24 25 19 20
2210.0 19 21 19 22 24 24 26 25 28 27
2250.0 32 30 30 29 31 30 31 31 29 31
2290.0 25 27 24 25 23 19 19 16 21 28
2330.0 19 15 19 10 8 25 1 14 0 0
2370.0 0 13 17 23 25 22 22 22 24 21
2410.0 21 18 15 14 12 12 12 11 6 5
2450.0 4 6 4 3 0 2 1 1 3 3
2490.0 5 5 8 7 8 9 9 11 11 13
2530.0 11 12 12 15 12 13 14 16 16 15
2570.0 16 16 18 17 18 20 23 27 28 30
2610.0 29 27 28 33 32 33 31 31 31 29
2650.0 32 31 32 31 33 36 36 44 46 47
2690.0 55 65 73 82 94 104 107 116 130 136
2730.0 144 153 162 167 172 168 169 174 180 186
2770.0 193 206 218 231 246 263 275 293 309 339
2810.0 370 403 439 469 497 527 569 633 721 844
2850.0 1004 1197 1420 1642 1853 2003 2094 2128 2099 2002
2890.0 1870 1747 1635 1539 1445 1362 1288 1227 1197 1208
2930.0 1260 1369 1518 1643 1703 1746 1834 1921 1941 1904
2970.0 1903 1992 2120 2190 2127 1882 1528 1209 964 776
3010.0 626 513 424 367 324 304 291 270 247 218
3050.0 200 195 203 231 272 355 483 590 573 424
3090.0 244 154 118 111 104 94 78 68 57 52
3130.0 51 50 46 45 48 51 52 51 46 43
3170.0 37 37 37 36 35 34 34 28 27 30
3210.0 29 27 28 26 22 24 24 19 21 17
3250.0 19 20 17 19 16 15 16 19 14 18
3290.0 20 17 18 17 20 19 22 19 19 19
3330.0 22 26 22 25 23 28 26 23 22 23
3370.0 20 18 23 18 19 23 23 22 25 17
3410.0 22 23 22 19 27 26 28 24 22 23
3450.0 26 38 37 43 60 59 58 57 59 55
3490.0 50 41 32 28 17 19 23 16 17 10
3530.0 13 17 16 21 9 7 19 5 22 6
3570.0 12 28 21 28 7 24 15 12 22 13
3610.0 14 16 23 14 19 37 15 36 18 30
3650.0 44 21 48 10 39 16 39 25 32 36
3690.0 32 36 26 38 35 33 41 30 19 43
3730.0 26 34 22 55 4 60 23 37 46 39
3770.0 36 41 39 32 28 25 44 24 52 12
3810.0 55 22 37 39 26 37 42 32 33 38
3850.0 23 44 29 29 34 32 35 33 37 27
3890.0 44 25 49 20 43 34 39 30 28 38
3930.0 31 39 39 40 23 35 38 38 41 46
##END=
