##TITLE=1,2-Benzenedicarboxylic acid, bis(1-methylethyl) ester
##JCAMP-DX=4.24
##DATA TYPE=INFRARED SPECTRUM
##ORIGIN=Sadtler Research Labs Under US-EPA Contract
##OWNER=NIST Standard Reference Data Program
##CAS REGISTRY NO=605-45-8
##MOLFORM=C 14 H 18 O 4
##XUNITS=1/CM
##YUNITS=ABSORBANCE
##XFACTOR=1.0
##YFACTOR=0.000053293
##DELTAX=4.0
##FIRSTX=450.0
##LASTX=3966.0
##FIRSTY=0.005116
##MAXX=3966
##MINX=450
##MAXY=0.53293
##MINY=0
##NPOINTS=880
##XYDATA=(X++(Y..Y))
450.0 96 118 116 129 117 121 120 95 74 59
490.0 57 37 28 37 37 55 74 56 67 62
530.0 75 71 85 98 128 133 149 135 160 124
570.0 135 92 87 48 54 32 27 139 100 84
610.0 97 105 95 71 72 89 81 103 147 202
650.0 229 214 120 115 93 137 129 182 203 316
690.0 382 425 450 471 498 500 500 539 587 655
730.0 784 999 1199 1276 1155 919 739 597 505 447
770.0 429 438 446 428 423 355 285 264 240 230
810.0 243 275 307 369 424 463 500 529 584 598
850.0 506 440 390 367 302 245 199 185 185 195
890.0 231 251 284 356 497 673 838 933 844 638
930.0 434 287 230 210 220 227 250 227 205 174
970.0 183 172 180 171 179 172 190 199 216 241
1010.0 263 282 312 353 437 590 819 1003 1051 1032
1050.0 1092 1460 2239 3411 4426 4487 3546 2285 1549 1344
1090.0 1454 1821 2517 3616 5140 6423 7323 6927 6157 5343
1130.0 4764 4243 3772 3205 2488 1808 1335 1098 1014 1012
1170.0 1056 1198 1341 1330 1136 859 658 570 539 555
1210.0 593 640 717 815 967 1198 1532 1996 2592 3272
1250.0 4039 4899 5991 7238 8764 9651 10000 9423 8703 7780
1290.0 6974 5675 4304 3055 2182 1590 1250 1028 924 845
1330.0 833 831 850 879 974 1085 1156 1122 1001 933
1370.0 1005 1173 1333 1392 1323 1160 918 652 459 356
1410.0 292 286 266 261 251 272 298 337 412 491
1450.0 546 593 597 607 647 687 662 589 507 456
1490.0 417 353 296 247 231 191 200 187 186 179
1530.0 170 172 161 156 148 157 165 170 182 220
1570.0 272 345 417 422 380 320 303 331 338 316
1610.0 252 220 192 192 177 183 179 177 179 188
1650.0 184 202 206 219 238 250 265 290 309 344
1690.0 385 442 502 560 639 753 928 1225 1747 2586
1730.0 3955 5666 7860 9041 8869 7202 5108 3403 2200 1413
1770.0 952 682 540 432 366 324 288 266 247 239
1810.0 220 210 200 193 181 180 179 160 140 120
1850.0 99 110 100 110 98 69 62 61 57 62
1890.0 62 62 63 68 70 72 79 79 78 91
1930.0 111 116 128 98 93 78 85 87 106 95
1970.0 87 78 69 59 60 55 46 42 31 38
2010.0 41 38 31 30 32 31 32 30 31 32
2050.0 26 20 22 20 21 28 29 29 29 29
2090.0 39 39 41 47 47 46 58 46 47 54
2130.0 46 46 45 45 43 34 28 28 26 21
2170.0 25 24 19 17 26 17 26 25 25 14
2210.0 25 20 16 22 24 24 25 25 24 23
2250.0 23 34 22 30 27 32 27 25 29 30
2290.0 39 37 44 54 45 59 70 68 79 73
2330.0 66 66 59 38 56 58 75 69 68 49
2370.0 47 37 41 38 37 28 28 20 30 20
2410.0 19 19 19 19 16 10 15 7 4 10
2450.0 9 8 0 9 0 11 2 9 9 9
2490.0 9 9 10 10 10 10 19 10 19 20
2530.0 20 9 9 15 12 9 8 2 20 12
2570.0 11 11 11 11 11 6 13 10 15 11
2610.0 13 12 11 12 4 12 12 10 3 14
2650.0 14 9 13 13 13 14 14 13 22 14
2690.0 14 14 13 12 18 14 13 25 22 23
2730.0 23 33 42 50 59 53 42 43 32 43
2770.0 36 34 42 33 33 34 43 35 37 43
2810.0 48 51 64 69 72 80 81 81 82 82
2850.0 92 101 122 141 164 207 264 338 416 466
2890.0 477 430 392 366 351 379 406 422 459 540
2930.0 675 833 1017 1162 1204 1089 895 693 587 587
2970.0 710 1035 1681 2633 3261 3106 2305 1596 1109 770
3010.0 539 392 306 251 235 220 220 208 190 169
3050.0 160 160 188 219 285 388 520 603 567 426
3090.0 269 167 127 116 107 96 78 77 68 62
3130.0 58 52 52 51 51 62 62 61 61 53
3170.0 62 62 56 63 53 53 48 44 38 36
3210.0 35 27 27 26 18 18 18 17 17 17
3250.0 17 10 19 8 7 8 8 8 7 9
3290.0 19 8 9 15 13 10 18 18 8 18
3330.0 8 18 18 18 18 18 8 7 12 18
3370.0 18 17 17 18 20 18 9 17 18 15
3410.0 14 12 16 17 18 10 19 18 20 19
3450.0 28 17 52 56 62 59 47 37 30 19
3490.0 18 19 18 19 14 0 1 1 11 3
3530.0 3 11 11 10 2 10 10 20 21 5
3570.0 1 2 6 12 11 4 1 20 10 2
3610.0 3 7 13 12 4 10 10 1 10 11
3650.0 21 12 11 2 10 13 11 7 19 21
3690.0 14 5 12 12 4 4 0 0 3 0
3730.0 2 14 11 12 13 11 12 12 13 13
3770.0 13 2 10 11 5 9 14 21 13 13
3810.0 23 13 14 4 6 13 15 9 4 10
3850.0 14 6 15 7 13 13 15 15 16 13
3890.0 15 5 5 4 9 14 23 14 15 14
3930.0 6 6 5 1 6 7 12 15 16 15
##END=
