##TITLE=Benzoic acid, 2-methoxy-, methyl ester
##JCAMP-DX=4.24
##DATA TYPE=INFRARED SPECTRUM
##ORIGIN=Sadtler Research Labs Under US-EPA Contract
##OWNER=NIST Standard Reference Data Program
##CAS REGISTRY NO=606-45-1
##MOLFORM=C 9 H 10 O 3
##XUNITS=1/CM
##YUNITS=ABSORBANCE
##XFACTOR=1.0
##YFACTOR=0.000096088
##DELTAX=4.0
##FIRSTX=450.0
##LASTX=3966.0
##FIRSTY=0.004132
##MAXX=3966
##MINX=450
##MAXY=0.96088
##MINY=0
##NPOINTS=880
##XYDATA=(X++(Y..Y))
450.0 43 55 48 32 8 10 0 0 38 14
490.0 47 68 89 161 199 161 146 162 150 109
530.0 112 102 54 73 85 64 109 135 122 172
570.0 231 171 197 224 142 167 94 75 49 34
610.0 30 21 42 31 12 47 48 59 95 178
650.0 322 456 537 538 425 300 195 150 144 171
690.0 247 336 472 636 828 929 821 725 607 512
730.0 479 564 775 1109 1496 1964 2315 2177 1855 1436
770.0 1046 789 614 525 469 393 344 262 238 232
810.0 243 268 346 438 526 559 521 426 301 210
850.0 176 149 151 140 139 119 118 117 102 102
890.0 77 75 67 61 58 65 59 71 80 87
930.0 112 128 149 181 191 195 209 240 291 345
970.0 377 371 344 298 269 283 320 379 470 612
1010.0 801 1042 1304 1528 1677 1762 1845 1966 2125 2118
1050.0 1995 1758 1479 1309 1398 1803 2534 3519 4478 5088
1090.0 5163 4601 3645 2754 2106 1724 1709 2037 2646 3289
1130.0 3633 3528 2962 2191 1593 1360 1428 1496 1450 1359
1170.0 1208 1083 1108 1195 1317 1368 1352 1283 1222 1191
1210.0 1255 1401 1659 2034 2588 3365 4427 5869 7513 9049
1250.0 10000 9987 9088 7671 6325 5334 4805 4765 5166 5891
1290.0 6770 7576 7926 7549 6410 4798 3272 2143 1444 1049
1330.0 816 658 571 493 437 405 382 377 386 367
1370.0 350 362 340 328 323 308 306 318 320 349
1410.0 387 448 562 750 1127 1776 2490 2975 2968 2624
1450.0 2108 1903 2057 2183 2281 2143 2079 2171 2503 3053
1490.0 3480 3477 3132 2374 1596 956 618 470 415 345
1530.0 308 304 293 334 300 308 348 426 461 530
1570.0 663 818 1035 1195 1385 1611 1878 2152 2304 2206
1610.0 1877 1377 932 611 446 357 320 303 252 269
1650.0 259 300 221 219 222 250 255 268 307 377
1690.0 402 490 633 771 886 1061 1300 1667 2143 2933
1730.0 3999 5093 5905 6571 6803 6662 6321 5862 4965 3707
1770.0 2653 1939 1414 1033 745 551 434 330 272 236
1810.0 210 194 171 156 163 146 127 124 120 128
1850.0 109 96 101 90 92 102 85 87 91 83
1890.0 103 104 116 135 157 179 184 191 174 167
1930.0 169 168 174 167 148 124 97 82 72 60
1970.0 65 50 50 55 44 53 54 53 57 70
2010.0 81 89 111 122 138 154 169 174 182 179
2050.0 177 174 171 168 173 173 169 164 153 142
2090.0 121 112 94 87 80 73 64 62 46 46
2130.0 50 45 45 37 41 33 36 37 27 25
2170.0 23 24 20 16 15 15 14 20 17 20
2210.0 23 28 30 27 30 25 26 26 32 38
2250.0 38 41 41 46 53 52 62 62 57 57
2290.0 54 55 52 43 45 53 54 49 57 56
2330.0 62 54 49 46 46 52 51 46 54 55
2370.0 58 47 55 46 48 40 44 43 38 38
2410.0 39 28 22 27 27 25 22 23 17 21
2450.0 23 18 22 22 17 23 30 30 39 42
2490.0 41 47 55 54 54 55 54 54 45 44
2530.0 41 45 38 42 43 49 44 40 45 39
2570.0 45 39 39 38 33 38 41 41 30 34
2610.0 34 23 20 18 8 13 15 31 19 24
2650.0 23 18 11 6 5 4 9 4 16 17
2690.0 17 25 21 26 23 22 22 33 34 28
2730.0 29 40 37 30 37 43 36 40 45 38
2770.0 43 44 50 49 55 60 62 64 78 87
2810.0 102 134 155 196 262 354 501 720 933 1030
2850.0 1022 885 658 490 403 372 392 414 445 494
2890.0 534 597 634 671 713 773 832 877 893 910
2930.0 967 1062 1211 1383 1602 1919 2361 2606 2601 2345
2970.0 1819 1299 1024 911 861 863 902 989 1107 1192
3010.0 1215 1164 1071 948 835 761 726 674 633 597
3050.0 574 554 580 608 640 696 787 875 919 890
3090.0 797 635 465 360 295 264 237 235 196 166
3130.0 139 137 116 118 108 99 108 102 102 92
3170.0 97 96 91 78 74 77 75 84 55 57
3210.0 45 60 66 46 58 67 65 73 68 61
3250.0 59 56 64 66 64 59 65 66 66 53
3290.0 62 66 48 56 49 61 79 57 41 49
3330.0 50 51 45 66 57 67 68 61 49 53
3370.0 48 54 64 49 50 55 34 41 49 59
3410.0 49 58 39 41 39 33 44 69 59 48
3450.0 75 59 61 67 69 47 63 79 67 75
3490.0 64 68 71 44 65 27 46 31 37 44
3530.0 21 24 16 15 24 31 19 18 25 49
3570.0 45 26 30 50 26 34 39 26 40 46
3610.0 36 37 24 45 24 49 37 40 22 21
3650.0 37 16 17 1 26 6 43 27 4 10
3690.0 12 13 23 5 15 9 14 0 0 0
3730.0 3 1 12 19 34 34 42 31 19 0
3770.0 0 6 10 12 3 0 6 19 10 8
3810.0 14 16 13 19 12 23 14 23 16 27
3850.0 49 40 23 42 38 37 24 43 32 41
3890.0 57 54 59 52 29 47 50 42 44 43
3930.0 37 32 51 41 28 19 21 17 27 31
##END=
