##TITLE=Benzoic acid, 2-nitro-, methyl ester
##JCAMP-DX=4.24
##DATA TYPE=INFRARED SPECTRUM
##ORIGIN=Sadtler Research Labs Under US-EPA Contract
##OWNER=NIST Standard Reference Data Program
##CAS REGISTRY NO=606-27-9
##MOLFORM=C 8 H 7 N O 4
##XUNITS=1/CM
##YUNITS=ABSORBANCE
##XFACTOR=1.0
##YFACTOR=0.000163651
##DELTAX=4.0
##FIRSTX=450.0
##LASTX=3966.0
##FIRSTY=0.000982
##MAXX=3966
##MINX=450
##MAXY=1.63651
##MINY=0
##NPOINTS=880
##XYDATA=(X++(Y..Y))
450.0 6 0 51 91 177 120 54 124 80 47
490.0 175 87 64 91 87 38 62 32 49 77
530.0 43 87 139 130 110 128 116 123 141 194
570.0 168 211 187 152 102 59 38 51 29 17
610.0 48 28 14 55 61 43 52 106 251 317
650.0 378 430 356 177 175 192 230 231 236 362
690.0 555 820 1129 1306 1265 1299 1107 1103 1211 1361
730.0 1622 1789 1856 1584 1291 997 812 701 689 747
770.0 942 1169 1427 1449 1125 781 518 326 256 273
810.0 397 612 820 880 836 644 420 314 333 489
850.0 929 1343 1406 1387 939 468 245 152 146 102
890.0 82 58 42 45 53 69 63 60 44 51
930.0 65 88 111 157 215 305 435 565 639 652
970.0 610 454 297 179 123 98 74 58 54 47
1010.0 69 111 141 197 316 498 718 740 709 573
1050.0 465 498 692 1052 1596 2185 2522 2408 1962 1306
1090.0 849 782 859 1030 1231 1564 2140 3033 3999 4764
1130.0 4817 4299 3140 2076 1407 1033 863 795 737 703
1170.0 659 628 590 640 706 770 825 797 745 649
1210.0 558 535 527 579 672 813 1024 1305 1799 2563
1250.0 3602 4783 5291 5624 5298 4920 5049 5480 6561 7701
1290.0 8792 10000 9208 8122 5856 3789 2423 1667 1384 1279
1330.0 1282 1441 1674 2130 2851 3789 4908 5396 5384 4452
1370.0 3284 2208 1522 1231 991 844 730 594 560 504
1410.0 460 450 431 467 594 905 1475 1825 2160 2001
1450.0 1459 1203 875 723 718 689 772 751 734 713
1490.0 618 598 561 597 672 761 969 1099 1476 1914
1530.0 2429 3371 4145 5760 7334 8055 9547 7910 6832 5361
1570.0 4249 3419 2714 2207 1728 1351 1021 824 715 668
1610.0 700 685 661 594 531 475 437 402 367 332
1650.0 318 283 277 261 235 216 203 186 192 183
1690.0 187 202 217 241 285 331 399 503 641 855
1730.0 1160 1581 2226 3065 4233 6450 7365 9766 9757 7417
1770.0 6100 3842 2679 1828 1185 811 499 358 249 192
1810.0 184 152 179 190 202 240 227 222 188 156
1850.0 143 129 126 118 111 87 64 54 46 44
1890.0 57 53 65 75 80 93 99 102 112 124
1930.0 142 158 164 159 134 112 93 88 98 100
1970.0 96 78 54 40 26 27 24 20 25 27
2010.0 29 29 33 35 30 36 34 34 35 29
2050.0 28 26 25 30 35 43 49 60 67 71
2090.0 75 71 65 62 53 53 51 50 48 38
2130.0 30 24 20 16 14 15 13 11 12 9
2170.0 5 5 1 2 0 2 3 1 5 6
2210.0 8 11 10 14 14 14 14 12 14 11
2250.0 15 18 16 20 17 13 10 9 7 5
2290.0 3 5 5 7 4 8 12 14 25 30
2330.0 28 35 24 22 13 10 16 15 27 34
2370.0 33 31 26 24 26 32 39 40 43 45
2410.0 39 36 27 25 22 17 16 12 9 7
2450.0 3 3 2 3 1 0 3 2 4 5
2490.0 3 5 3 9 10 7 5 4 4 2
2530.0 4 7 7 11 9 7 10 13 12 13
2570.0 17 22 24 27 31 29 25 26 23 20
2610.0 15 21 16 12 16 13 13 9 12 14
2650.0 14 15 15 15 16 14 16 21 24 28
2690.0 31 37 38 41 41 38 41 38 36 33
2730.0 30 29 28 26 23 16 14 15 10 11
2770.0 11 8 11 9 11 12 10 14 14 18
2810.0 22 25 29 34 41 51 67 93 136 208
2850.0 264 283 266 208 156 143 148 160 188 219
2890.0 248 281 312 336 343 329 312 289 260 243
2930.0 226 221 236 256 325 453 757 1245 1582 1637
2970.0 1398 927 477 291 243 233 251 276 317 351
3010.0 370 373 356 338 319 316 318 313 303 279
3050.0 251 229 217 219 263 337 439 547 608 610
3090.0 539 422 307 212 150 118 97 81 69 57
3130.0 51 46 39 43 38 35 36 36 35 37
3170.0 33 29 25 24 26 29 21 28 22 21
3210.0 16 14 12 11 7 13 8 6 4 7
3250.0 8 3 8 2 2 2 7 5 6 5
3290.0 4 6 6 1 7 8 10 6 10 9
3330.0 9 5 10 8 11 9 9 15 13 15
3370.0 9 11 8 13 14 12 12 12 9 7
3410.0 12 15 18 13 14 22 11 18 14 15
3450.0 21 23 22 23 31 29 36 38 52 65
3490.0 81 87 103 108 98 83 66 53 41 33
3530.0 33 22 20 20 20 10 10 17 22 11
3570.0 23 18 27 23 14 21 12 29 24 21
3610.0 14 24 29 12 12 8 21 22 24 16
3650.0 27 12 27 17 26 16 25 12 25 28
3690.0 15 28 25 33 25 23 17 26 27 33
3730.0 36 22 36 35 28 26 25 20 33 21
3770.0 25 32 29 20 24 30 30 25 17 15
3810.0 22 11 17 3 17 15 6 13 6 20
3850.0 15 22 9 20 9 16 15 25 22 14
3890.0 7 8 10 3 27 24 21 30 46 37
3930.0 41 40 52 31 23 30 22 30 16 16
##END=
