##TITLE=Benzenepropanoic acid, .beta.-phenyl-
##JCAMP-DX=4.24
##DATA TYPE=INFRARED SPECTRUM
##ORIGIN=Sadtler Research Labs Under US-EPA Contract
##OWNER=NIST Standard Reference Data Program
##CAS REGISTRY NO=606-83-7
##MOLFORM=C 15 H 14 O 2
##XUNITS=1/CM
##YUNITS=ABSORBANCE
##XFACTOR=1.0
##YFACTOR=0.000036502
##DELTAX=4.0
##FIRSTX=450.0
##LASTX=3966.0
##FIRSTY=0.016097
##MAXX=3966
##MINX=450
##MAXY=0.36502
##MINY=0
##NPOINTS=880
##XYDATA=(X++(Y..Y))
450.0 441 220 233 246 362 393 276 180 183 100
490.0 26 140 64 108 274 273 349 397 322 366
530.0 433 484 495 605 788 1008 1295 1810 2400 3071
570.0 3722 4272 4629 4260 3657 3313 3384 3605 3536 3194
610.0 2692 2009 1471 1387 1344 1203 1146 1036 899 848
650.0 785 839 893 1131 1278 1664 1976 2132 2492 3078
690.0 4771 7098 9055 7677 4878 2677 1568 1118 940 916
730.0 1083 1513 2254 3100 3233 2961 2360 1482 795 472
770.0 315 275 277 331 501 663 618 406 253 217
810.0 166 136 105 96 138 151 204 210 178 82
850.0 36 24 13 29 76 100 159 198 204 215
890.0 206 245 296 349 385 381 347 286 224 148
930.0 107 58 48 50 102 206 401 574 582 422
970.0 214 79 40 53 62 98 139 273 372 319
1010.0 227 265 358 498 707 1086 1042 675 414 323
1050.0 326 365 488 692 1059 1600 2264 2845 2879 2462
1090.0 2177 2302 2825 3640 4534 5360 6239 7210 7627 7059
1130.0 5865 4771 3962 3429 3068 2809 2590 2410 2159 1906
1170.0 1732 1661 1723 1884 2023 2067 2058 2037 2023 1973
1210.0 1853 1679 1511 1398 1388 1437 1549 1662 1770 1842
1250.0 1853 1811 1743 1663 1554 1454 1368 1301 1267 1234
1290.0 1206 1174 1157 1135 1114 1090 1080 1069 1034 1033
1330.0 1059 1130 1217 1280 1292 1318 1318 1355 1431 1584
1370.0 1805 2097 2298 2352 2192 1916 1642 1446 1298 1223
1410.0 1138 1066 1087 1080 1143 1236 1342 1374 1420 1729
1450.0 2106 1741 955 532 359 305 357 427 664 1199
1490.0 2221 3273 2746 1576 831 333 174 119 155 133
1530.0 183 184 216 202 191 161 160 181 208 208
1570.0 292 370 543 698 809 1022 1334 1614 1470 1113
1610.0 758 514 391 326 338 326 414 436 507 551
1650.0 648 695 748 750 822 881 963 1068 1220 1429
1690.0 1654 1986 2418 2950 3552 4169 4629 4691 4391 4055
1730.0 3930 3997 4141 4305 4410 4418 4395 4401 4580 5353
1770.0 6965 9148 10000 8772 6289 4151 2871 2266 1901 1666
1810.0 1438 1223 937 702 508 368 267 201 175 147
1850.0 135 130 157 180 215 216 218 207 194 183
1890.0 153 112 70 46 30 38 33 48 76 98
1930.0 154 234 315 345 334 296 295 277 218 153
1970.0 83 69 53 60 53 56 50 45 54 49
2010.0 45 45 49 40 31 31 34 25 19 19
2050.0 15 18 11 16 18 19 14 19 18 21
2090.0 13 11 13 16 13 7 17 15 13 14
2130.0 12 6 4 0 7 2 5 10 6 13
2170.0 10 11 15 16 16 14 19 12 15 16
2210.0 21 27 33 35 34 38 35 42 38 44
2250.0 39 47 49 56 53 53 60 65 73 72
2290.0 78 81 78 100 108 126 149 139 155 145
2330.0 136 146 162 153 155 130 184 144 105 101
2370.0 106 115 133 149 144 134 135 143 147 155
2410.0 162 171 179 185 180 186 188 190 188 190
2450.0 200 209 211 215 223 227 236 237 249 250
2490.0 253 257 266 264 270 291 290 292 297 312
2530.0 311 314 323 320 327 330 331 332 339 338
2570.0 340 347 355 356 360 360 367 375 369 373
2610.0 370 369 370 371 374 375 376 382 380 384
2650.0 374 374 374 367 366 372 373 365 352 359
2690.0 356 350 347 363 357 356 356 358 373 361
2730.0 365 372 383 377 372 383 400 401 393 411
2770.0 422 423 431 443 448 455 452 468 472 475
2810.0 483 484 497 513 529 537 565 582 597 626
2850.0 641 681 715 752 770 794 817 839 852 884
2890.0 911 957 1005 1058 1115 1187 1263 1329 1407 1475
2930.0 1547 1572 1550 1469 1378 1294 1237 1230 1234 1268
2970.0 1296 1343 1370 1352 1325 1315 1338 1382 1460 1556
3010.0 1659 1827 2136 2592 3158 3611 3790 3682 3337 2914
3050.0 2669 2659 2845 3185 3660 4087 4092 3630 3053 2731
3090.0 2560 2349 2114 1910 1753 1628 1506 1369 1243 1148
3130.0 1084 1078 1056 1041 1039 1041 1041 1029 1034 1016
3170.0 1020 1000 989 979 968 964 956 955 952 955
3210.0 957 949 937 923 909 921 914 907 897 880
3250.0 872 864 852 845 844 843 846 833 814 807
3290.0 797 785 786 774 758 745 743 730 721 714
3330.0 700 706 709 685 688 671 653 646 639 635
3370.0 618 606 593 586 579 568 562 550 540 545
3410.0 551 526 536 539 559 545 549 571 577 591
3450.0 571 579 593 607 582 584 559 544 540 518
3490.0 506 498 497 475 464 412 405 402 417 419
3530.0 382 368 354 340 325 284 234 314 458 1463
3570.0 3180 4241 3898 2204 840 316 170 132 106 112
3610.0 129 106 100 77 83 128 106 39 70 65
3650.0 116 69 44 55 18 85 67 80 41 54
3690.0 66 43 45 55 38 72 81 46 69 87
3730.0 41 79 99 76 171 77 68 53 38 49
3770.0 68 59 26 65 50 54 58 72 54 74
3810.0 46 69 90 75 85 53 94 107 94 46
3850.0 100 152 106 100 122 110 78 91 127 148
3890.0 129 111 126 166 155 96 133 116 141 110
3930.0 129 167 129 140 141 160 89 123 132 93
##END=
