##TITLE=Benzene, 2-methyl-1,3-dinitro-
##JCAMP-DX=4.24
##DATA TYPE=INFRARED SPECTRUM
##ORIGIN=Sadtler Research Labs Under US-EPA Contract
##OWNER=NIST Standard Reference Data Program
##CAS REGISTRY NO=606-20-2
##MOLFORM=C 7 H 6 N 2 O 4
##XUNITS=1/CM
##YUNITS=ABSORBANCE
##XFACTOR=1.0
##YFACTOR=0.000087085
##DELTAX=4.0
##FIRSTX=450.0
##LASTX=3966.0
##FIRSTY=0.003048
##MAXX=3966
##MINX=450
##MAXY=0.87085
##MINY=0
##NPOINTS=880
##XYDATA=(X++(Y..Y))
450.0 35 17 35 37 35 42 37 44 49 53
490.0 50 39 50 34 39 50 62 48 58 44
530.0 61 66 64 62 85 92 101 105 112 131
570.0 142 167 133 122 92 109 97 101 105 106
610.0 99 84 88 103 97 102 108 113 98 105
650.0 78 96 94 99 84 124 124 157 196 297
690.0 465 753 1214 1802 2221 2390 2168 1725 1314 1095
730.0 895 775 672 602 515 471 417 377 319 296
770.0 276 243 237 230 261 284 338 432 546 657
810.0 791 657 455 340 260 276 365 462 423 432
850.0 319 218 168 166 184 240 352 592 911 1225
890.0 1311 1156 793 388 196 136 122 114 114 103
930.0 102 97 91 96 91 91 86 92 96 106
970.0 107 108 105 91 85 85 85 61 55 48
1010.0 42 16 13 3 2 12 36 51 79 90
1050.0 89 94 100 100 125 154 197 240 245 234
1090.0 201 147 98 86 81 80 73 83 81 93
1130.0 98 105 106 102 107 101 112 131 147 152
1170.0 153 137 139 135 134 134 140 144 151 156
1210.0 162 161 168 173 166 160 144 133 125 136
1250.0 132 138 132 120 120 144 199 268 355 427
1290.0 453 441 386 350 340 380 425 497 580 719
1330.0 922 1249 1746 2516 3521 4682 5621 6017 5443 4263
1370.0 2933 1937 1311 992 838 780 740 704 636 558
1410.0 488 441 426 428 441 445 441 427 416 416
1450.0 445 472 501 534 538 532 517 508 523 556
1490.0 611 702 826 997 1202 1502 1838 2202 2587 3072
1530.0 3691 4524 5729 7207 8680 9780 10000 8642 6983 5584
1570.0 4278 3392 2733 2342 1966 1643 1352 1150 1010 952
1610.0 892 836 719 627 501 396 322 251 213 190
1650.0 148 117 112 111 106 97 94 84 84 60
1690.0 73 73 64 52 63 73 79 82 98 104
1730.0 110 87 67 49 50 39 42 42 41 42
1770.0 43 36 41 41 41 42 30 29 31 27
1810.0 28 34 39 51 51 51 52 49 45 28
1850.0 30 31 32 37 38 38 55 72 84 88
1890.0 82 68 53 42 34 35 34 28 35 40
1930.0 52 64 69 67 65 58 46 33 27 20
1970.0 19 15 13 15 19 13 13 12 19 19
2010.0 12 12 13 17 12 12 11 10 13 7
2050.0 7 11 11 9 6 10 10 9 9 9
2090.0 5 8 10 9 9 9 9 9 3 7
2130.0 7 8 2 6 9 2 6 7 11 9
2170.0 11 11 12 12 12 12 5 5 5 6
2210.0 6 2 0 3 4 4 4 4 5 10
2250.0 10 10 10 8 9 6 6 6 6 6
2290.0 6 12 8 9 9 15 15 21 21 22
2330.0 18 14 11 17 17 16 23 20 15 28
2370.0 32 27 33 32 30 36 35 30 30 30
2410.0 23 23 29 24 23 28 28 24 29 30
2450.0 24 24 24 23 23 19 18 18 24 18
2490.0 18 18 18 20 19 18 13 12 7 18
2530.0 14 9 13 14 11 14 12 13 14 14
2570.0 20 19 20 21 20 24 24 27 27 27
2610.0 19 19 14 14 13 14 14 15 15 17
2650.0 13 20 19 19 27 32 32 33 44 45
2690.0 51 56 63 70 71 80 71 67 67 67
2730.0 55 50 49 45 45 45 44 44 44 39
2770.0 40 40 33 34 33 38 34 34 33 33
2810.0 41 36 39 41 45 50 56 62 67 68
2850.0 80 88 93 105 117 130 145 152 171 188
2890.0 200 212 212 217 198 192 176 161 139 129
2930.0 116 115 108 103 104 108 109 107 106 97
2970.0 80 74 75 72 74 82 93 92 99 98
3010.0 103 97 93 85 80 69 70 65 58 48
3050.0 47 41 36 37 49 46 58 80 98 102
3090.0 111 106 95 78 54 48 37 32 18 19
3130.0 27 22 22 26 18 27 27 26 14 13
3170.0 13 19 15 15 17 17 12 10 7 15
3210.0 10 14 9 14 10 9 13 16 10 6
3250.0 9 17 8 11 10 9 15 9 16 9
3290.0 7 6 16 13 10 15 11 5 6 6
3330.0 5 6 6 7 10 12 8 11 11 13
3370.0 6 12 11 12 17 12 13 7 12 8
3410.0 12 6 13 13 11 12 12 17 17 12
3450.0 6 13 15 14 14 12 19 19 12 13
3490.0 13 18 18 19 19 14 13 19 16 15
3530.0 22 13 14 14 14 14 10 8 10 13
3570.0 10 5 4 3 4 3 10 15 14 10
3610.0 11 9 11 21 16 10 24 13 15 10
3650.0 12 11 15 9 10 10 11 11 16 17
3690.0 17 16 15 11 22 12 12 18 14 12
3730.0 12 14 17 20 18 17 17 12 18 23
3770.0 29 23 22 23 21 27 30 19 19 23
3810.0 17 17 19 13 13 20 18 19 20 19
3850.0 12 14 24 24 26 20 26 24 33 24
3890.0 21 20 20 21 20 17 19 19 27 32
3930.0 26 33 31 27 27 30 32 32 32 27
##END=
