##TITLE=Benzenamine, N,N-diethyl-2-methyl-
##JCAMP-DX=4.24
##DATA TYPE=INFRARED SPECTRUM
##ORIGIN=Sadtler Research Labs Under US-EPA Contract
##OWNER=NIST Standard Reference Data Program
##CAS REGISTRY NO=606-46-2
##MOLFORM=C 11 H 17 N
##XUNITS=1/CM
##YUNITS=ABSORBANCE
##XFACTOR=1.0
##YFACTOR=0.000061972
##DELTAX=4.0
##FIRSTX=450.0
##LASTX=3966.0
##FIRSTY=0.006259
##MAXX=3966
##MINX=450
##MAXY=0.61972
##MINY=0
##NPOINTS=880
##XYDATA=(X++(Y..Y))
450.0 101 136 123 111 86 73 23 28 41 103
490.0 113 149 58 54 83 101 130 208 197 131
530.0 123 103 86 80 152 180 273 331 281 474
570.0 554 465 398 365 288 260 279 245 186 168
610.0 142 141 122 110 136 117 110 102 91 96
650.0 92 77 76 49 63 123 94 89 102 114
690.0 145 253 376 445 551 740 1294 2129 2908 3616
730.0 2900 2012 1181 704 750 1160 1777 2407 2672 2151
770.0 1508 933 579 535 585 568 517 475 466 431
810.0 408 377 328 248 160 144 150 143 162 137
850.0 156 150 137 139 111 111 101 106 132 173
890.0 221 249 267 266 242 204 206 204 215 209
930.0 203 196 170 171 168 147 127 141 154 171
970.0 187 208 234 289 280 311 321 387 472 572
1010.0 678 754 808 854 877 945 984 1038 1176 1409
1050.0 1507 1524 1446 1288 1200 1151 1121 1116 1200 1373
1090.0 1588 1848 2125 2479 2871 3080 2967 2517 1930 1479
1130.0 1229 1094 971 952 966 975 999 1033 1136 1332
1170.0 1640 1923 2099 2063 1839 1545 1326 1172 1031 892
1210.0 767 711 758 950 1384 2143 3143 4012 4323 3917
1250.0 2976 1954 1244 867 759 724 729 765 843 982
1290.0 1162 1337 1448 1449 1341 1174 1043 950 948 1020
1330.0 1120 1206 1222 1190 1158 1131 1119 1139 1260 1432
1370.0 1803 2397 3028 3421 3349 2862 2155 1437 941 692
1410.0 585 496 529 492 546 628 824 1096 1466 1849
1450.0 2125 2237 2132 1908 1743 1710 1754 2066 2753 3882
1490.0 4967 5289 4631 3359 2138 1109 809 655 547 457
1530.0 424 394 413 350 292 267 274 328 262 358
1570.0 489 687 839 973 1013 1107 1258 1375 1324 1111
1610.0 800 529 379 278 230 176 203 159 164 180
1650.0 179 180 144 138 132 137 171 134 246 280
1690.0 317 325 318 235 188 153 167 174 130 125
1730.0 136 176 123 100 119 133 125 130 134 145
1770.0 167 183 182 194 203 203 184 176 162 147
1810.0 142 161 177 189 171 152 111 100 103 102
1850.0 97 104 117 101 118 120 121 121 133 160
1890.0 184 213 226 227 204 182 167 144 153 164
1930.0 199 239 242 231 193 140 118 82 87 78
1970.0 83 80 70 88 70 74 68 72 66 64
2010.0 53 56 53 40 38 30 34 22 21 15
2050.0 30 19 4 0 1 19 14 20 37 37
2090.0 46 53 44 40 43 47 49 42 51 59
2130.0 59 61 60 53 66 47 47 43 47 59
2170.0 69 66 81 75 76 83 68 67 59 51
2210.0 52 47 47 33 43 51 50 51 59 58
2250.0 51 53 56 54 59 60 50 61 61 69
2290.0 62 72 75 75 69 78 69 80 68 85
2330.0 66 68 53 60 46 42 44 48 39 22
2370.0 6 32 25 54 66 71 71 72 64 64
2410.0 57 57 61 65 67 58 61 52 56 53
2450.0 48 64 55 48 62 66 61 68 76 67
2490.0 60 54 55 38 37 30 22 29 29 23
2530.0 29 38 46 65 64 74 85 94 111 111
2570.0 111 112 114 116 125 133 141 145 160 155
2610.0 163 155 155 171 171 164 170 167 169 171
2650.0 169 209 226 231 245 238 238 237 231 233
2690.0 265 284 322 340 370 390 413 430 460 493
2730.0 520 536 551 534 530 539 563 598 630 662
2770.0 687 708 742 793 859 967 1115 1366 1761 2299
2810.0 3001 3724 4272 4508 4326 3925 3419 2941 2552 2228
2850.0 1989 1832 1772 1776 1860 2043 2329 2670 2924 2964
2890.0 2842 2694 2639 2726 2925 3160 3409 3648 3949 4329
2930.0 4839 5418 5877 6001 5714 5038 4382 4037 4240 5102
2970.0 6698 8585 10000 9800 8217 5845 3738 2361 1687 1405
3010.0 1370 1513 1838 2227 2510 2521 2275 1899 1570 1411
3050.0 1442 1619 1868 2158 2461 2640 2608 2351 1917 1425
3090.0 1066 836 730 673 592 525 436 385 328 288
3130.0 270 257 242 253 241 233 233 235 226 217
3170.0 201 201 178 160 168 136 149 134 148 142
3210.0 125 118 142 133 125 127 134 144 144 131
3250.0 120 105 104 96 129 112 138 139 137 129
3290.0 106 87 75 87 98 78 83 97 76 92
3330.0 83 80 92 93 116 59 58 105 81 108
3370.0 112 113 72 96 106 61 43 110 91 81
3410.0 81 48 109 82 94 97 108 43 110 48
3450.0 56 27 96 90 89 61 94 89 88 103
3490.0 87 105 118 86 85 75 109 92 79 97
3530.0 103 98 70 67 80 114 60 50 90 89
3570.0 102 83 114 86 90 87 72 109 117 91
3610.0 142 133 121 113 108 111 89 111 112 132
3650.0 129 121 110 124 117 94 103 95 75 98
3690.0 106 79 99 104 90 87 95 96 110 93
3730.0 102 107 117 102 91 95 71 96 73 99
3770.0 96 91 89 74 92 88 111 75 87 83
3810.0 84 94 76 65 103 100 81 62 55 67
3850.0 59 72 101 116 126 96 78 107 91 99
3890.0 114 92 109 85 112 127 150 167 149 152
3930.0 160 120 129 127 133 124 97 101 103 119
##END=
