##TITLE=1-Chloro-2,6-dinitrobenzene
##JCAMP-DX=4.24
##DATA TYPE=INFRARED SPECTRUM
##ORIGIN=Sadtler Research Labs Under US-EPA Contract
##OWNER=NIST Standard Reference Data Program
##CAS REGISTRY NO=606-21-3
##MOLFORM=C 6 H 3 Cl N 2 O 4
##XUNITS=1/CM
##YUNITS=ABSORBANCE
##XFACTOR=1.0
##YFACTOR=0.000092432
##DELTAX=4.0
##FIRSTX=450.0
##LASTX=3966.0
##FIRSTY=0.016823
##MAXX=3966
##MINX=450
##MAXY=0.92432
##MINY=0
##NPOINTS=880
##XYDATA=(X++(Y..Y))
450.0 182 168 241 278 266 253 205 175 147 116
490.0 79 79 64 59 107 76 69 84 75 92
530.0 46 124 84 53 65 64 62 11 76 40
570.0 48 97 31 81 72 62 19 49 93 40
610.0 54 76 31 65 30 68 53 52 4 45
650.0 68 31 69 75 55 110 97 166 179 238
690.0 421 802 1406 1921 2280 2163 1799 1560 1499 1448
730.0 1200 1028 813 718 701 746 698 595 442 347
770.0 282 251 234 180 178 163 246 427 612 808
810.0 935 628 439 347 381 572 664 640 537 301
850.0 160 112 84 79 110 105 111 117 123 161
890.0 192 316 481 702 892 907 742 456 184 83
930.0 55 54 59 54 48 39 60 57 67 74
970.0 82 91 75 69 65 48 59 64 61 46
1010.0 68 53 57 55 72 65 87 110 153 239
1050.0 372 574 759 783 742 544 325 197 124 99
1090.0 85 80 90 91 133 162 170 170 144 117
1130.0 88 85 75 80 83 96 116 139 171 193
1170.0 206 197 177 154 130 130 130 145 151 153
1210.0 160 153 164 158 139 120 106 103 106 109
1250.0 117 121 126 143 159 199 242 290 323 330
1290.0 318 291 282 291 312 337 391 473 613 851
1330.0 1268 1961 2967 4323 5600 6355 6104 4965 3509 2370
1370.0 1724 1308 1011 799 627 511 418 368 353 333
1410.0 322 308 303 352 440 563 699 788 795 701
1450.0 525 363 252 230 211 211 206 233 266 310
1490.0 357 431 490 577 648 804 990 1205 1477 1837
1530.0 2246 2706 3231 3994 5044 6349 7858 9070 10000 9645
1570.0 8064 6409 4845 3927 3413 3144 2894 2598 2217 1818
1610.0 1437 1096 803 603 466 381 300 235 196 152
1650.0 124 71 100 79 77 61 53 57 39 36
1690.0 45 37 31 21 41 59 73 69 102 94
1730.0 77 45 41 41 40 36 57 57 62 77
1770.0 76 73 80 78 69 64 64 78 72 68
1810.0 62 56 56 45 38 36 36 26 17 18
1850.0 19 14 20 20 24 31 52 65 78 78
1890.0 63 50 40 31 24 19 19 19 24 30
1930.0 46 57 64 67 61 49 36 19 20 9
1970.0 13 14 9 9 3 10 5 8 8 5
2010.0 7 6 7 2 2 8 8 8 3 6
2050.0 6 5 4 2 8 3 8 2 7 8
2090.0 2 2 2 2 2 2 2 2 2 2
2130.0 3 2 2 2 2 2 2 2 2 2
2170.0 8 8 8 7 2 3 3 3 3 3
2210.0 3 2 2 2 2 2 2 2 3 8
2250.0 3 7 9 12 18 17 25 21 19 17
2290.0 24 17 17 23 19 16 23 12 10 10
2330.0 9 8 2 2 7 2 2 2 2 2
2370.0 2 2 11 15 18 22 17 23 17 17
2410.0 17 6 7 2 3 6 6 6 6 6
2450.0 6 6 13 12 12 13 13 13 6 6
2490.0 3 7 7 7 6 6 7 2 2 2
2530.0 5 2 2 2 2 7 2 6 6 6
2570.0 7 2 2 2 2 2 2 2 2 2
2610.0 5 2 7 2 7 2 6 14 6 13
2650.0 13 16 18 18 29 25 29 41 46 52
2690.0 54 65 64 72 72 72 63 60 54 48
2730.0 43 44 38 39 34 38 28 28 29 25
2770.0 30 24 25 19 19 20 14 21 15 19
2810.0 15 18 22 22 22 26 28 32 34 44
2850.0 45 56 57 69 77 85 97 102 120 125
2890.0 147 164 169 187 186 185 180 159 146 128
2930.0 117 102 87 81 66 54 44 44 35 32
2970.0 27 18 19 19 19 20 20 20 20 25
3010.0 26 25 21 21 21 22 22 22 22 22
3050.0 23 23 24 24 24 28 40 53 77 100
3090.0 115 127 97 81 47 36 31 26 27 22
3130.0 27 23 24 28 23 24 17 23 28 23
3170.0 19 12 19 14 16 21 10 14 10 15
3210.0 13 15 15 11 16 10 12 16 14 15
3250.0 15 17 13 17 17 13 18 12 19 18
3290.0 17 16 12 17 15 14 14 15 20 20
3330.0 21 16 19 19 22 16 19 19 21 18
3370.0 28 13 29 28 24 19 24 24 17 16
3410.0 14 20 24 20 21 25 21 27 22 28
3450.0 24 20 19 26 26 22 22 24 30 24
3490.0 28 30 25 27 21 30 30 27 31 27
3530.0 22 25 27 26 26 31 34 36 39 24
3570.0 32 26 37 35 26 27 29 34 34 29
3610.0 25 19 14 14 19 10 17 20 26 22
3650.0 5 21 18 32 21 7 7 10 21 14
3690.0 12 19 23 23 24 19 20 20 13 11
3730.0 15 3 10 4 9 2 6 5 17 16
3770.0 18 16 18 24 24 23 20 19 23 28
3810.0 25 20 20 20 21 18 15 3 10 9
3850.0 9 4 3 6 2 2 7 6 13 12
3890.0 15 15 15 19 23 34 29 25 29 30
3930.0 36 36 36 26 30 25 0 2 2 2
##END=
