##TITLE=Vanillin, 6-bromo-,
##JCAMP-DX=4.24
##DATA TYPE=INFRARED SPECTRUM
##ORIGIN=Sadtler Research Labs Under US-EPA Contract
##OWNER=NIST Standard Reference Data Program
##CAS REGISTRY NO=60632-40-8
##MOLFORM=C 8 H 7 Br O 3
##XUNITS=1/CM
##YUNITS=ABSORBANCE
##XFACTOR=1.0
##YFACTOR=0.000083005
##DELTAX=4.0
##FIRSTX=450.0
##LASTX=3966.0
##FIRSTY=0.064329
##MAXX=3966
##MINX=450
##MAXY=0.83005
##MINY=0
##NPOINTS=880
##XYDATA=(X++(Y..Y))
450.0 775 628 636 619 604 843 1019 1113 1134 1026
490.0 875 684 527 384 313 258 204 156 145 118
530.0 88 71 86 101 89 132 185 268 431 563
570.0 605 494 332 279 292 282 258 217 150 151
610.0 187 295 546 1059 1335 1303 963 443 170 76
650.0 52 42 27 42 43 19 45 0 28 6
690.0 12 11 34 25 37 68 124 252 448 721
730.0 936 1019 909 688 467 315 202 152 137 135
770.0 147 151 153 156 154 129 117 112 133 141
810.0 166 210 262 367 511 694 832 900 835 662
850.0 510 397 419 486 555 695 914 1127 1146 911
890.0 645 423 286 233 206 188 169 170 165 168
930.0 171 170 180 192 215 253 328 436 616 854
970.0 1130 1351 1371 1161 803 516 384 330 291 268
1010.0 252 253 271 313 404 539 723 917 1061 1057
1050.0 913 668 425 280 218 191 175 163 159 166
1090.0 173 179 196 215 252 288 338 397 513 697
1130.0 1057 1662 2591 3599 4197 4231 3616 2717 2059 1711
1170.0 1639 1798 2034 2189 2228 2318 2774 3897 5301 6037
1210.0 5740 4360 2794 1775 1226 983 926 1000 1212 1579
1250.0 2106 2795 3718 5032 6890 9029 10000 9128 6546 3645
1290.0 1864 1081 715 528 429 365 323 303 299 312
1330.0 355 436 546 706 871 978 977 876 732 614
1370.0 584 678 984 1609 2589 3467 3615 2976 2100 1731
1410.0 2030 2488 2620 2296 1646 1104 870 803 822 885
1450.0 923 964 1030 1213 1561 1916 2249 2623 3031 3614
1490.0 4349 5538 6766 7391 6579 4682 2795 1487 821 533
1530.0 387 336 313 324 383 496 625 778 1019 1280
1570.0 1597 1906 2200 2394 2454 2486 2555 2739 2826 2678
1610.0 2216 1586 1015 674 486 388 310 248 227 201
1650.0 204 226 284 318 367 403 471 615 888 1468
1690.0 2536 4174 5849 6722 6582 5158 3513 2269 1547 1110
1730.0 777 541 357 280 196 168 147 136 119 119
1770.0 112 107 123 126 145 145 148 144 120 109
1810.0 87 74 58 50 40 27 29 32 28 23
1850.0 32 38 42 38 36 28 39 34 32 24
1890.0 14 8 7 8 3 2 3 7 8 19
1930.0 24 31 33 25 25 22 23 20 20 24
1970.0 27 29 35 41 46 46 50 57 58 61
2010.0 57 56 52 47 46 36 32 28 23 22
2050.0 22 20 22 23 23 27 32 40 42 47
2090.0 46 47 46 49 51 53 52 53 51 46
2130.0 42 32 25 24 19 18 19 24 25 24
2170.0 30 37 37 38 38 34 28 23 16 12
2210.0 12 10 13 16 20 25 26 24 23 19
2250.0 16 13 8 5 2 5 6 7 12 19
2290.0 24 26 34 37 39 36 36 26 26 21
2330.0 1 1 1 0 2 53 1 1 1 1
2370.0 1 5 17 35 36 28 25 27 30 35
2410.0 38 36 34 27 24 21 22 20 18 22
2450.0 21 21 22 25 28 27 28 29 32 24
2490.0 20 18 18 21 25 29 37 46 51 59
2530.0 66 72 74 76 69 66 58 51 46 43
2570.0 39 42 40 40 39 41 42 46 51 57
2610.0 60 65 73 71 66 61 56 48 41 39
2650.0 35 34 36 36 40 38 41 44 54 62
2690.0 72 83 97 118 149 166 164 158 140 140
2730.0 147 157 162 162 158 153 158 168 182 189
2770.0 185 175 159 146 141 140 142 152 168 179
2810.0 176 177 175 171 179 194 223 269 338 430
2850.0 597 901 1418 1860 1839 1390 756 375 253 204
2890.0 188 177 185 193 217 246 281 325 350 352
2930.0 327 315 333 409 547 717 834 863 801 709
2970.0 650 653 610 499 387 299 252 238 264 324
3010.0 429 596 702 657 493 296 195 151 129 119
3050.0 115 113 114 113 121 136 155 193 212 200
3090.0 162 111 82 65 57 51 46 40 35 30
3130.0 30 31 29 25 26 23 26 29 26 29
3170.0 33 37 35 30 29 29 24 21 18 20
3210.0 13 17 14 13 11 12 10 9 14 15
3250.0 13 7 18 16 19 25 24 22 20 16
3290.0 19 20 17 12 10 12 12 12 17 16
3330.0 20 19 22 25 26 25 24 31 37 49
3370.0 64 86 118 136 133 117 79 61 46 28
3410.0 27 22 27 14 16 26 17 18 11 16
3450.0 11 9 13 11 18 19 9 6 15 13
3490.0 15 8 20 18 15 27 31 40 41 53
3530.0 62 79 100 135 191 321 575 1105 2106 3409
3570.0 4511 4700 3830 2448 1276 601 310 194 137 98
3610.0 80 64 58 44 38 34 44 88 94 94
3650.0 74 54 34 13 26 1 16 9 14 11
3690.0 14 5 20 1 4 11 3 6 7 11
3730.0 12 14 5 19 1 29 10 8 11 11
3770.0 1 8 16 15 2 9 13 13 13 10
3810.0 18 16 15 17 11 14 5 10 10 16
3850.0 9 19 34 30 26 26 16 20 27 20
3890.0 14 12 7 32 12 24 32 37 24 13
3930.0 33 13 21 18 9 16 9 11 15 27
##END=
