##TITLE=Propionic acid, 3-tetradecyloxy-, methyl ester
##JCAMP-DX=4.24
##DATA TYPE=INFRARED SPECTRUM
##ORIGIN=Sadtler Research Labs Under US-EPA Contract
##OWNER=NIST Standard Reference Data Program
##CAS REGISTRY NO=6064-97-7
##MOLFORM=C 18 H 36 O 3
##XUNITS=1/CM
##YUNITS=ABSORBANCE
##XFACTOR=1.0
##YFACTOR=0.000126443
##DELTAX=4.0
##FIRSTX=450.0
##LASTX=3966.0
##FIRSTY=0.031232
##MAXX=3966
##MINX=450
##MAXY=1.26443
##MINY=0
##NPOINTS=880
##XYDATA=(X++(Y..Y))
450.0 247 271 26 212 108 233 180 9 211 36
490.0 56 198 172 122 122 108 168 73 143 105
530.0 109 155 82 168 42 63 136 98 145 106
570.0 150 156 15 190 56 36 161 112 129 139
610.0 96 85 11 110 83 136 103 86 94 105
650.0 73 76 68 110 80 91 79 74 98 80
690.0 97 89 146 212 197 236 281 281 279 274
730.0 251 193 167 242 295 61 150 80 103 85
770.0 71 77 67 85 81 67 67 51 119 121
810.0 132 145 113 170 219 253 279 279 313 306
850.0 270 236 191 170 175 163 159 132 125 121
890.0 115 134 109 109 118 101 109 122 126 144
930.0 142 158 168 197 216 221 244 252 283 308
970.0 333 358 366 399 444 469 515 552 586 619
1010.0 650 709 752 783 776 754 738 733 760 809
1050.0 875 973 1093 1234 1387 1505 1572 1579 1573 1604
1090.0 1719 1952 2277 2742 3215 3655 3888 3823 3544 3128
1130.0 2611 2141 1764 1520 1400 1383 1459 1606 1843 2147
1170.0 2460 2735 2861 2831 2763 2678 2631 2475 2244 1978
1210.0 1746 1585 1492 1450 1452 1487 1527 1558 1593 1618
1250.0 1643 1674 1668 1614 1488 1318 1178 1065 993 944
1290.0 916 897 877 879 878 879 882 887 888 881
1330.0 850 850 860 906 1009 1137 1271 1332 1353 1367
1370.0 1361 1319 1184 964 727 562 475 441 447 457
1410.0 486 519 548 588 665 861 1223 1496 1422 1274
1450.0 1219 1258 1353 1416 1359 1135 864 656 523 414
1490.0 292 219 172 149 123 100 96 79 65 62
1530.0 54 56 48 43 47 43 43 39 38 38
1570.0 38 40 38 33 40 30 36 32 25 28
1610.0 18 23 21 22 21 21 24 22 20 32
1650.0 28 37 43 50 61 62 73 92 102 127
1690.0 153 178 224 271 335 394 475 585 719 927
1730.0 1185 1559 2114 2728 3351 3737 3706 3525 3253 2845
1770.0 2260 1666 1222 898 664 491 359 254 179 130
1810.0 86 60 42 31 17 14 12 3 1 2
1850.0 2 1 4 3 3 1 2 2 0 1
1890.0 1 3 6 3 4 4 8 10 10 9
1930.0 11 11 14 13 17 14 19 19 21 20
1970.0 22 20 23 21 24 25 26 27 29 31
2010.0 35 37 40 43 47 47 47 48 49 54
2050.0 48 45 48 41 42 40 41 42 37 38
2090.0 35 31 28 24 24 22 16 19 19 20
2130.0 16 15 19 16 19 15 15 17 15 13
2170.0 12 12 14 14 13 11 9 9 11 8
2210.0 8 7 6 4 5 1 0 2 5 3
2250.0 4 7 6 6 11 12 12 15 17 19
2290.0 21 21 23 24 27 34 30 27 27 27
2330.0 25 26 21 28 34 33 27 32 22 23
2370.0 24 29 24 23 22 18 15 18 14 19
2410.0 18 16 18 17 19 18 17 19 19 20
2450.0 19 19 18 18 20 19 23 22 24 24
2490.0 28 25 29 30 33 35 34 37 40 45
2530.0 46 45 49 52 50 51 52 53 55 57
2570.0 60 63 71 73 75 80 81 89 95 96
2610.0 94 96 96 107 108 110 112 119 123 125
2650.0 128 135 143 149 157 163 170 175 179 185
2690.0 188 192 193 195 199 206 214 224 228 239
2730.0 250 258 265 267 269 273 275 280 290 295
2770.0 308 326 349 382 414 453 494 535 568 602
2810.0 635 676 735 812 905 1040 1217 1487 1888 2465
2850.0 3269 4191 4996 5434 5322 4852 4314 3831 3452 3206
2890.0 3093 3136 3351 3679 4128 4682 5338 6194 7332 8652
2930.0 9760 10000 9139 7776 6435 5346 4574 4076 3764 3409
2970.0 2921 2338 1787 1400 1160 1000 879 784 701 620
3010.0 552 497 455 415 388 357 324 277 242 215
3050.0 194 168 152 139 127 120 113 105 93 95
3090.0 90 79 77 78 72 68 67 57 57 53
3130.0 53 51 42 42 38 42 41 40 38 32
3170.0 32 32 33 29 27 28 26 22 24 19
3210.0 19 19 14 9 13 12 9 5 5 4
3250.0 5 6 12 10 8 9 4 8 11 11
3290.0 10 11 8 8 7 9 10 11 14 8
3330.0 7 19 16 13 11 11 14 10 16 16
3370.0 10 13 17 13 17 17 18 16 18 19
3410.0 20 19 16 16 15 11 15 15 20 15
3450.0 26 20 26 37 33 33 35 41 38 38
3490.0 36 45 38 34 39 29 32 21 13 22
3530.0 13 12 18 15 17 21 12 19 14 20
3570.0 14 19 9 9 5 3 0 8 23 13
3610.0 1 12 14 5 15 1 20 5 8 12
3650.0 8 8 4 10 23 23 11 11 20 29
3690.0 4 11 19 30 24 17 25 16 12 23
3730.0 22 22 29 14 24 13 21 10 12 27
3770.0 18 18 8 19 21 24 32 22 13 11
3810.0 9 18 18 29 33 25 24 25 35 12
3850.0 27 4 8 14 27 11 27 12 18 9
3890.0 2 16 34 32 12 4 25 24 4 0
3930.0 0 1 30 20 14 28 45 32 22 28
##END=
