##TITLE=Benzoic acid, 2-hydroxy-, 1-methylethyl ester
##JCAMP-DX=4.24
##DATA TYPE=INFRARED SPECTRUM
##ORIGIN=Sadtler Research Labs Under US-EPA Contract
##OWNER=NIST Standard Reference Data Program
##CAS REGISTRY NO=607-85-2
##MOLFORM=C 10 H 12 O 3
##XUNITS=1/CM
##YUNITS=ABSORBANCE
##XFACTOR=1.0
##YFACTOR=0.000085596
##DELTAX=4.0
##FIRSTX=450.0
##LASTX=3966.0
##FIRSTY=0.000000
##MAXX=3966
##MINX=450
##MAXY=0.85596
##MINY=0
##NPOINTS=880
##XYDATA=(X++(Y..Y))
450.0 0 23 84 157 224 245 294 281 229 162
490.0 109 53 20 57 74 178 264 461 523 504
530.0 501 352 237 194 177 110 187 170 221 247
570.0 239 211 151 123 162 185 218 199 195 184
610.0 271 295 183 180 233 203 244 276 218 249
650.0 288 404 481 708 887 931 820 644 631 852
690.0 1064 1354 1761 1983 1779 1703 1470 1335 1154 887
730.0 731 613 756 1247 1892 2539 3339 2626 1828 1153
770.0 633 386 303 295 322 315 425 578 580 546
810.0 462 315 289 228 303 371 453 466 390 374
850.0 348 481 668 880 851 771 545 336 209 179
890.0 169 193 233 285 423 595 803 955 937 732
930.0 452 250 201 217 227 239 229 198 179 170
970.0 165 186 184 131 147 153 200 225 241 230
1010.0 225 260 347 498 752 897 887 874 634 525
1050.0 489 484 552 661 810 1063 1566 2375 3446 3964
1090.0 3959 3393 2964 3811 5524 6805 6879 5519 3705 2697
1130.0 2557 2761 2826 2805 2774 3358 5565 6388 6322 4680
1170.0 2789 2362 2523 2725 2801 2680 2591 2858 3569 4941
1210.0 6412 7019 6820 5443 4081 3309 3102 3353 4005 5373
1250.0 6877 7110 6265 4328 2823 2400 2414 2604 2859 3348
1290.0 4423 6253 8515 10000 9436 7319 5179 4058 3623 3210
1330.0 2689 2266 2098 2077 2084 2213 2473 2943 3426 3469
1370.0 3256 2969 2801 2856 2721 2532 2284 2137 2093 2113
1410.0 2099 2040 1887 1646 1455 1194 1030 863 759 761
1450.0 861 997 1239 1606 2002 2412 2849 3346 3707 3550
1490.0 3142 2533 1758 1289 1096 941 801 608 486 386
1530.0 343 322 287 299 299 334 376 440 467 508
1570.0 624 819 1136 1471 1725 1799 1755 1619 1598 1803
1610.0 2162 2517 2581 2247 1667 1069 744 631 624 723
1650.0 839 998 1170 1431 1817 2430 3462 5011 6805 8260
1690.0 8618 7836 6020 4077 2645 1679 1135 847 691 636
1730.0 624 699 827 950 965 907 688 498 353 268
1770.0 224 201 177 159 159 149 155 147 165 194
1810.0 200 187 150 123 117 124 115 116 109 92
1850.0 79 71 66 71 72 76 59 59 59 73
1890.0 69 86 91 82 88 98 117 153 191 187
1930.0 165 124 122 134 145 150 130 90 70 58
1970.0 57 58 57 61 55 58 53 50 44 45
2010.0 50 44 45 45 45 45 33 33 38 38
2050.0 39 37 37 44 43 32 44 38 49 43
2090.0 43 44 46 42 48 47 50 48 42 41
2130.0 35 31 35 42 42 32 42 43 43 44
2170.0 52 47 40 40 35 34 28 35 27 25
2210.0 31 25 35 35 38 39 46 46 46 45
2250.0 41 41 41 35 35 34 48 44 53 47
2290.0 47 47 53 53 48 50 59 57 64 44
2330.0 59 63 66 72 43 49 51 55 74 70
2370.0 58 58 63 64 69 63 62 56 57 50
2410.0 52 45 47 48 58 50 64 60 57 59
2450.0 57 64 63 63 64 64 52 63 65 65
2490.0 64 65 76 76 72 71 71 66 71 77
2530.0 73 74 84 78 84 84 90 79 85 78
2570.0 79 74 72 67 74 72 72 74 81 84
2610.0 85 91 97 97 98 103 99 98 90 88
2650.0 88 81 78 76 77 77 82 94 100 100
2690.0 95 105 117 112 109 108 112 113 119 113
2730.0 119 113 127 132 144 149 140 144 146 149
2770.0 145 148 156 149 156 144 149 146 143 147
2810.0 136 140 146 153 166 163 168 180 180 170
2850.0 167 174 172 196 206 231 270 327 396 443
2890.0 474 463 445 427 420 420 426 441 459 509
2930.0 590 690 821 971 1057 1008 899 726 610 564
2970.0 616 794 1169 1925 2730 3098 2980 2096 1377 928
3010.0 652 526 467 444 419 413 407 392 414 437
3050.0 483 548 625 690 759 839 863 856 799 721
3090.0 678 654 633 595 546 475 416 400 374 363
3130.0 355 357 349 360 360 367 378 397 414 461
3170.0 474 522 565 603 649 676 738 798 887 975
3210.0 1080 1210 1342 1509 1646 1748 1845 1855 1842 1797
3250.0 1719 1652 1540 1459 1349 1259 1181 1117 1066 1036
3290.0 998 963 951 930 898 885 867 841 822 806
3330.0 799 781 778 751 721 703 682 668 634 618
3370.0 579 542 520 484 449 427 394 380 363 337
3410.0 312 301 293 288 267 267 268 256 269 282
3450.0 304 365 429 539 635 675 638 562 464 393
3490.0 344 319 301 274 260 242 229 213 191 162
3530.0 153 146 116 122 109 111 102 91 82 100
3570.0 75 72 72 57 60 70 60 43 49 55
3610.0 73 63 42 43 45 63 42 38 44 43
3650.0 44 32 39 38 34 35 33 47 34 23
3690.0 34 34 38 28 23 34 40 41 39 43
3730.0 56 42 55 48 43 46 58 52 53 48
3770.0 42 58 44 47 52 52 56 64 61 67
3810.0 55 61 61 66 68 66 68 75 55 49
3850.0 66 69 67 74 74 74 68 56 50 42
3890.0 64 62 54 61 63 63 64 64 53 47
3930.0 47 42 53 61 58 56 21 23 23 23
##END=
