##TITLE=Propanedioic acid, (phenylmethyl)-, diethyl ester
##JCAMP-DX=4.24
##DATA TYPE=INFRARED SPECTRUM
##ORIGIN=Sadtler Research Labs Under US-EPA Contract
##OWNER=NIST Standard Reference Data Program
##CAS REGISTRY NO=607-81-8
##MOLFORM=C 14 H 18 O 4
##XUNITS=1/CM
##YUNITS=ABSORBANCE
##XFACTOR=1.0
##YFACTOR=0.000088760
##DELTAX=4.0
##FIRSTX=450.0
##LASTX=3966.0
##FIRSTY=0.000000
##MAXX=3966
##MINX=450
##MAXY=0.8876
##MINY=0
##NPOINTS=880
##XYDATA=(X++(Y..Y))
450.0 0 209 222 340 169 260 151 349 244 332
490.0 210 327 190 217 357 265 501 492 652 526
530.0 611 494 413 457 349 424 334 473 351 391
570.0 270 392 300 231 297 280 326 291 366 260
610.0 312 305 330 275 288 308 246 282 248 257
650.0 228 297 289 306 352 471 532 547 707 821
690.0 1214 1666 1972 1728 1273 940 708 655 560 656
730.0 653 739 882 1055 1111 985 829 588 505 423
770.0 412 371 397 383 366 333 351 372 323 373
810.0 318 337 319 338 347 346 400 396 444 484
850.0 609 694 802 846 837 771 668 574 434 393
890.0 342 327 305 317 342 331 340 313 320 292
930.0 320 322 339 346 360 383 376 416 410 444
970.0 445 480 485 491 528 541 582 643 779 899
1010.0 1107 1307 1548 1793 2147 2616 3041 3337 3368 3253
1050.0 2999 2805 2609 2386 2150 1932 1804 1727 1706 1698
1090.0 1809 1986 2195 2277 2248 2180 2148 2240 2468 2925
1130.0 3573 4468 5416 6306 6831 6986 6843 6587 6349 6002
1170.0 5610 5204 4959 4784 4677 4635 4622 4673 4745 4875
1210.0 5038 5296 5558 5806 5895 5845 5651 5348 5085 4848
1250.0 4708 4602 4599 4585 4549 4435 4235 3967 3633 3339
1290.0 3044 2850 2714 2669 2617 2558 2469 2360 2342 2390
1330.0 2479 2461 2344 2128 1859 1561 1301 1189 1274 1682
1370.0 2083 2121 1742 1325 1072 951 901 847 813 750
1410.0 707 662 646 623 649 689 757 891 1071 1223
1450.0 1274 1248 1145 1063 1030 1040 1012 923 818 734
1490.0 782 938 1038 886 610 413 340 296 278 285
1530.0 268 276 263 242 257 242 250 209 239 241
1570.0 249 250 277 291 322 346 379 439 508 539
1610.0 477 373 276 263 234 250 226 244 250 257
1650.0 247 261 274 299 294 312 315 359 358 401
1690.0 439 480 537 620 735 862 991 1132 1349 1679
1730.0 2172 2995 4311 6100 8192 9709 10000 9426 8851 8290
1770.0 6982 5177 3485 2404 1746 1358 1120 953 818 677
1810.0 602 517 472 421 384 343 311 305 280 263
1850.0 244 254 238 247 255 250 257 254 262 248
1890.0 251 235 227 213 211 212 200 199 199 207
1930.0 205 227 238 240 236 237 243 218 212 175
1970.0 173 166 175 169 174 179 180 187 186 202
2010.0 197 210 214 223 224 230 235 225 229 217
2050.0 223 211 214 206 210 207 195 186 169 168
2090.0 148 152 157 171 183 188 209 221 253 257
2130.0 272 255 246 218 192 169 159 149 138 149
2170.0 142 144 142 141 148 135 143 138 145 137
2210.0 149 142 151 151 150 150 151 155 148 153
2250.0 154 156 157 153 161 164 173 177 188 189
2290.0 199 204 214 214 206 212 187 172 153 156
2330.0 164 197 183 245 304 232 135 134 230 348
2370.0 418 432 413 358 286 227 196 184 181 187
2410.0 178 192 189 190 196 189 198 189 196 190
2450.0 192 186 192 194 187 192 192 199 194 196
2490.0 188 192 195 191 193 189 198 191 201 199
2530.0 204 200 199 201 198 198 193 198 197 205
2570.0 204 207 212 205 218 210 218 212 224 216
2610.0 218 197 195 189 177 178 168 187 182 173
2650.0 158 146 142 136 146 149 169 176 183 186
2690.0 205 205 202 214 207 215 210 217 219 235
2730.0 239 244 244 241 234 229 244 242 261 259
2770.0 270 276 274 277 276 273 274 288 274 279
2810.0 287 294 297 297 308 320 327 322 344 348
2850.0 369 393 424 461 500 544 588 643 698 751
2890.0 755 749 764 790 869 939 1018 1017 1036 1068
2930.0 1171 1345 1598 1842 1943 1844 1614 1481 1495 1610
2970.0 1792 1999 2311 2788 3212 3178 2712 2195 1880 1648
3010.0 1446 1274 1140 1093 1161 1340 1443 1467 1266 1029
3050.0 839 763 775 844 1071 1319 1396 1145 878 762
3090.0 751 705 617 533 483 459 426 399 339 298
3130.0 272 255 251 244 249 235 225 243 226 234
3170.0 228 233 213 228 210 219 195 203 184 207
3210.0 208 198 192 187 208 199 186 209 202 194
3250.0 189 196 205 208 207 207 195 215 198 190
3290.0 192 180 195 190 198 190 198 205 206 202
3330.0 205 205 208 214 195 204 194 212 202 195
3370.0 199 197 198 202 203 204 203 201 193 205
3410.0 186 208 207 212 195 192 197 204 199 194
3450.0 201 193 198 190 210 220 225 233 262 267
3490.0 246 272 239 240 227 226 225 214 187 197
3530.0 203 174 179 171 171 177 171 158 151 176
3570.0 167 180 179 182 172 164 185 161 147 160
3610.0 160 171 141 159 142 192 183 162 176 152
3650.0 185 200 186 198 177 173 163 203 181 161
3690.0 162 226 206 188 197 153 194 199 173 205
3730.0 200 207 202 211 156 202 207 206 198 191
3770.0 187 182 203 201 217 188 201 170 201 177
3810.0 210 205 202 187 172 210 179 167 205 207
3850.0 148 199 193 195 209 170 174 197 165 169
3890.0 167 138 163 158 207 197 159 135 135 135
3930.0 135 137 182 157 139 145 159 134 160 132
##END=
