##TITLE=Benzene, 1,3,5-tribromo-2-methoxy-
##JCAMP-DX=4.24
##DATA TYPE=INFRARED SPECTRUM
##ORIGIN=Sadtler Research Labs Under US-EPA Contract
##OWNER=NIST Standard Reference Data Program
##CAS REGISTRY NO=607-99-8
##MOLFORM=C 7 H 5 Br 3 O
##XUNITS=1/CM
##YUNITS=ABSORBANCE
##XFACTOR=1.0
##YFACTOR=0.000067188
##DELTAX=4.0
##FIRSTX=450.0
##LASTX=3966.0
##FIRSTY=0.002352
##MAXX=3966
##MINX=450
##MAXY=0.67188
##MINY=0
##NPOINTS=880
##XYDATA=(X++(Y..Y))
450.0 35 17 15 27 25 40 99 116 149 196
490.0 178 247 303 262 229 295 268 241 248 251
530.0 278 343 348 426 396 209 412 559 635 762
570.0 826 457 274 269 282 286 286 267 227 276
610.0 117 223 379 268 367 348 318 511 718 1385
650.0 1967 2418 1992 1257 525 384 375 416 499 415
690.0 444 249 277 406 434 395 399 521 626 1076
730.0 2068 3804 5087 4998 3127 1631 822 476 332 291
770.0 295 328 354 302 265 309 296 337 315 387
810.0 493 833 1269 1387 1151 629 312 281 223 357
850.0 641 1287 1995 2289 1245 596 316 203 241 225
890.0 236 228 245 241 215 154 242 239 227 273
930.0 271 235 211 187 214 226 232 240 195 226
970.0 323 425 588 837 1193 1696 2453 3264 4165 4421
1010.0 3472 1946 872 456 321 298 271 262 281 315
1050.0 358 483 607 855 1107 1095 844 582 502 425
1090.0 396 381 398 431 496 594 602 485 396 340
1130.0 260 264 267 254 243 251 258 274 295 299
1170.0 295 303 337 379 460 575 661 633 526 435
1210.0 435 475 566 708 860 1002 1156 1395 1807 2571
1250.0 3692 4681 4857 3973 2663 1675 1255 1129 982 805
1290.0 642 513 475 457 471 543 601 516 427 334
1330.0 298 311 351 462 597 806 1024 1158 1282 1657
1370.0 2379 2725 2233 1328 840 788 1077 1845 3620 6647
1410.0 9964 10000 6513 3026 1836 1461 1199 992 944 1118
1450.0 1586 2829 5368 8455 8589 5779 3167 2023 1379 920
1490.0 606 457 346 339 291 294 369 480 681 1047
1530.0 1539 2082 2469 2224 1568 1104 1179 1536 1967 1822
1570.0 1153 561 338 296 271 238 206 188 169 160
1610.0 171 169 159 154 156 141 124 121 137 136
1650.0 146 122 139 122 123 95 105 94 97 79
1690.0 105 99 105 114 138 165 214 263 365 466
1730.0 481 387 280 253 221 173 141 140 124 125
1770.0 118 89 102 108 97 78 84 94 101 102
1810.0 108 118 123 123 126 115 96 102 87 69
1850.0 101 79 77 68 84 71 86 94 99 99
1890.0 98 114 132 136 137 131 145 137 121 113
1930.0 106 107 92 98 94 91 92 87 98 97
1970.0 104 105 121 131 136 161 183 176 168 129
2010.0 138 115 97 88 88 80 74 73 76 77
2050.0 84 86 101 107 109 124 125 118 109 101
2090.0 77 77 64 62 71 84 73 75 77 78
2130.0 62 61 61 59 64 56 53 51 46 46
2170.0 45 44 54 60 60 45 61 60 71 69
2210.0 75 76 71 83 88 89 89 91 89 75
2250.0 57 58 77 64 74 74 79 86 103 118
2290.0 104 96 103 111 112 112 102 65 69 47
2330.0 45 49 31 39 69 56 43 52 100 123
2370.0 89 93 101 102 84 62 62 64 55 39
2410.0 38 38 48 38 38 38 38 39 39 38
2450.0 36 38 38 46 53 66 68 64 77 72
2490.0 68 73 75 89 82 83 82 74 59 42
2530.0 44 35 35 31 36 36 36 36 49 42
2570.0 43 57 51 51 49 49 36 49 58 55
2610.0 36 40 34 34 34 33 41 41 43 40
2650.0 31 51 40 37 61 47 32 32 31 38
2690.0 39 38 28 22 33 32 32 33 35 34
2730.0 33 43 34 42 52 51 59 63 74 76
2770.0 79 77 60 69 78 62 72 73 91 97
2810.0 135 166 199 226 252 226 237 277 294 335
2850.0 382 436 434 378 322 300 313 366 439 487
2890.0 512 489 464 437 384 353 355 377 388 412
2930.0 440 498 662 956 1386 1764 1657 1228 846 692
2970.0 699 698 624 502 394 343 316 308 347 405
3010.0 504 628 685 605 476 360 316 306 284 267
3050.0 238 229 237 207 221 216 217 226 202 185
3090.0 179 154 159 146 151 134 125 102 88 68
3130.0 79 62 64 59 56 53 57 41 47 63
3170.0 41 28 49 41 32 31 43 20 21 27
3210.0 28 31 31 16 29 28 40 36 32 36
3250.0 34 45 40 51 35 21 21 20 32 33
3290.0 0 26 5 12 25 31 27 33 25 57
3330.0 41 49 52 51 41 56 34 43 31 42
3370.0 23 21 25 47 33 48 13 28 8 28
3410.0 44 47 41 53 63 60 53 37 65 35
3450.0 43 47 35 40 41 13 29 2 2 12
3490.0 27 35 43 28 54 38 35 44 45 47
3530.0 58 61 88 79 103 108 95 59 44 25
3570.0 35 27 54 38 21 53 38 47 56 39
3610.0 51 43 26 55 49 60 41 57 45 37
3650.0 36 45 27 45 37 21 26 63 48 55
3690.0 40 54 47 56 74 65 58 82 65 64
3730.0 40 74 40 25 46 32 46 56 41 41
3770.0 60 73 48 42 76 88 80 52 60 80
3810.0 99 108 85 84 84 67 74 31 28 52
3850.0 29 18 22 9 28 37 44 78 108 104
3890.0 109 119 111 136 113 109 91 57 57 80
3930.0 74 57 57 46 34 31 13 14 16 16
##END=
