##TITLE=Butanoic acid, 2-ethyl-3-oxo-, ethyl ester
##JCAMP-DX=4.24
##DATA TYPE=INFRARED SPECTRUM
##ORIGIN=Sadtler Research Labs Under US-EPA Contract
##OWNER=NIST Standard Reference Data Program
##CAS REGISTRY NO=607-97-6
##MOLFORM=C 8 H 14 O 3
##XUNITS=1/CM
##YUNITS=ABSORBANCE
##XFACTOR=1.0
##YFACTOR=0.000095447
##DELTAX=4.0
##FIRSTX=450.0
##LASTX=3966.0
##FIRSTY=0.000477
##MAXX=3966
##MINX=450
##MAXY=0.95447
##MINY=0
##NPOINTS=880
##XYDATA=(X++(Y..Y))
450.0 5 11 41 44 46 51 56 75 100 157
490.0 138 123 28 61 67 74 82 93 92 101
530.0 129 114 72 168 148 145 93 156 135 120
570.0 115 147 185 223 245 283 253 311 248 202
610.0 153 60 114 49 65 87 70 51 44 30
650.0 43 55 38 47 0 78 32 47 47 59
690.0 48 36 32 18 11 45 56 64 33 72
730.0 93 134 92 134 139 129 135 159 173 160
770.0 191 198 229 218 223 226 231 234 237 256
810.0 280 275 279 268 255 238 218 205 208 210
850.0 239 278 304 317 284 258 190 152 130 113
890.0 114 125 141 167 191 219 233 272 303 332
930.0 358 380 375 359 348 335 351 372 395 416
970.0 414 393 372 354 363 368 395 439 488 581
1010.0 706 893 1173 1489 1752 1903 1917 1825 1714 1674
1050.0 1700 1699 1611 1454 1290 1188 1224 1389 1635 1894
1090.0 2123 2288 2331 2373 2442 2530 2637 2726 2771 2848
1130.0 3112 3604 4215 4805 5173 5312 5293 5283 5390 5551
1170.0 5734 5862 5960 5962 5824 5578 5203 4804 4450 4212
1210.0 4140 4216 4332 4368 4263 4058 3871 3764 3764 3831
1250.0 3913 3993 4022 4020 3914 3709 3402 3051 2733 2437
1290.0 2225 2078 1977 1925 1890 1843 1797 1759 1734 1774
1330.0 1877 1978 2062 2145 2212 2316 2471 2645 2811 2911
1370.0 2753 2395 2022 1647 1401 1283 1185 1057 944 851
1410.0 787 753 738 742 752 801 852 923 995 1083
1450.0 1149 1229 1292 1338 1343 1290 1146 955 762 586
1490.0 457 371 312 265 246 222 202 199 195 187
1530.0 187 183 181 177 168 179 177 179 173 168
1570.0 168 162 165 163 159 164 175 184 202 223
1610.0 258 296 354 421 493 569 600 600 554 494
1650.0 439 418 396 397 409 425 444 476 534 620
1690.0 721 863 1055 1304 1680 2260 3149 4450 6119 7901
1730.0 9312 10000 9613 8736 7990 7590 7414 7010 6285 5312
1770.0 4170 3099 2213 1547 1119 840 658 532 433 365
1810.0 307 258 217 186 158 136 118 113 101 94
1850.0 90 85 76 76 80 70 65 72 75 67
1890.0 73 71 60 59 54 53 48 49 44 50
1930.0 46 45 52 50 46 46 42 54 48 52
1970.0 54 54 54 49 51 48 50 44 58 49
2010.0 50 47 46 46 52 47 58 55 57 50
2050.0 43 31 36 39 45 45 50 51 46 41
2090.0 33 40 39 40 46 46 48 43 41 39
2130.0 35 30 34 35 31 31 28 28 32 27
2170.0 21 28 23 23 28 23 23 24 17 22
2210.0 17 16 16 22 21 25 25 20 19 25
2250.0 24 26 27 20 31 30 24 23 28 30
2290.0 32 35 41 51 51 52 70 59 72 63
2330.0 69 39 41 36 30 42 76 62 43 17
2370.0 0 0 4 18 20 24 32 34 35 29
2410.0 28 24 37 29 32 28 29 32 26 23
2450.0 22 18 22 17 29 32 22 27 26 21
2490.0 23 20 17 14 16 16 11 12 16 14
2530.0 10 19 18 16 15 16 13 15 16 16
2570.0 10 11 6 8 6 8 9 7 13 7
2610.0 14 9 14 15 15 25 18 14 28 34
2650.0 28 15 12 12 12 14 13 24 28 18
2690.0 15 3 4 3 3 14 20 15 20 20
2730.0 31 26 41 52 49 70 70 70 77 85
2770.0 84 92 89 89 99 88 95 99 103 107
2810.0 112 108 124 136 149 155 160 192 204 235
2850.0 255 275 294 334 378 464 590 796 1039 1259
2890.0 1370 1355 1253 1152 1111 1141 1195 1258 1282 1321
2930.0 1440 1633 1928 2206 2364 2389 2297 2210 2250 2529
2970.0 3039 3668 4254 4488 4340 3860 3190 2518 1966 1605
3010.0 1340 1114 930 763 617 515 449 384 322 280
3050.0 269 237 215 220 191 188 193 190 188 176
3090.0 185 159 156 143 135 129 113 119 113 114
3130.0 106 100 116 108 100 95 89 100 83 94
3170.0 90 89 86 83 72 71 86 72 69 78
3210.0 69 50 54 54 60 70 61 60 60 66
3250.0 58 64 77 61 75 70 70 51 59 52
3290.0 64 33 53 49 68 32 31 26 39 31
3330.0 36 26 30 35 36 25 29 30 29 27
3370.0 36 43 26 37 36 34 46 53 43 34
3410.0 44 47 43 53 62 82 88 95 95 103
3450.0 127 134 142 156 151 138 139 119 90 80
3490.0 74 54 70 73 62 44 35 44 27 24
3530.0 27 34 22 34 22 28 24 32 38 26
3570.0 25 25 31 11 31 27 33 27 34 9
3610.0 41 3 14 27 28 36 36 25 38 40
3650.0 37 34 32 32 36 34 44 21 49 55
3690.0 44 33 35 32 35 51 39 34 39 27
3730.0 34 41 36 27 43 42 37 32 36 42
3770.0 22 23 33 25 30 51 42 47 27 45
3810.0 48 51 51 47 58 51 52 52 40 32
3850.0 38 47 30 39 50 38 43 47 44 51
3890.0 51 48 58 58 53 50 52 49 54 47
3930.0 55 48 43 40 37 41 32 33 29 31
##END=
