##TITLE=Carbamic acid, diallyl-, ethyl ester
##JCAMP-DX=4.24
##DATA TYPE=INFRARED SPECTRUM
##ORIGIN=Sadtler Research Labs Under US-EPA Contract
##OWNER=NIST Standard Reference Data Program
##CAS REGISTRY NO=60728-51-0
##MOLFORM=C 9 H 15 N O 2
##XUNITS=1/CM
##YUNITS=ABSORBANCE
##XFACTOR=1.0
##YFACTOR=0.000091257
##DELTAX=4.0
##FIRSTX=450.0
##LASTX=3966.0
##FIRSTY=0.000000
##MAXX=3966
##MINX=450
##MAXY=0.91257
##MINY=0
##NPOINTS=880
##XYDATA=(X++(Y..Y))
450.0 0 307 324 315 219 440 497 396 509 443
490.0 403 380 407 461 423 365 407 423 450 497
530.0 462 440 421 447 472 490 449 388 493 483
570.0 460 432 399 326 354 351 384 405 385 358
610.0 418 370 355 397 372 398 394 295 444 460
650.0 417 375 439 486 462 560 508 486 509 569
690.0 556 557 588 545 497 388 450 382 367 423
730.0 396 428 543 408 269 466 371 463 515 620
770.0 758 813 804 691 616 540 477 485 421 446
810.0 411 393 365 414 407 412 422 459 473 467
850.0 529 548 544 557 515 502 569 622 686 664
890.0 588 547 567 664 782 1045 1393 1715 1922 1885
930.0 1620 1360 1188 1101 1033 960 931 866 858 794
970.0 755 692 685 764 872 991 1030 1005 902 802
1010.0 744 797 899 965 924 941 841 791 723 718
1050.0 765 775 814 794 752 838 882 949 1068 1145
1090.0 1268 1468 1668 1865 1890 1905 1714 1527 1365 1259
1130.0 1221 1294 1448 1656 1838 2049 2185 2257 2112 1900
1170.0 1623 1461 1359 1329 1296 1313 1351 1407 1424 1405
1210.0 1326 1355 1485 1829 2395 3381 5058 6923 8072 8133
1250.0 6720 4673 3047 2027 1486 1214 1076 1052 1111 1205
1290.0 1319 1361 1346 1303 1229 1113 996 890 799 766
1330.0 812 850 945 975 1009 1082 1116 1165 1122 1046
1370.0 1071 1122 1384 1753 2041 2134 2067 1990 2185 2630
1410.0 3153 3392 3264 2747 2336 1934 1745 1622 1507 1588
1450.0 1829 2190 2430 2513 2346 2119 1954 1703 1423 1219
1490.0 1007 814 723 622 598 573 518 503 515 498
1530.0 493 463 517 498 511 491 473 489 435 427
1570.0 416 398 402 375 382 385 386 372 371 384
1610.0 395 389 417 408 444 460 506 608 659 687
1650.0 708 594 527 474 477 496 547 562 670 679
1690.0 744 759 933 1123 1482 2371 3618 6344 8537 9713
1730.0 10000 7085 4540 2634 1651 1208 931 802 696 612
1770.0 567 544 487 465 453 437 438 431 426 404
1810.0 404 404 388 394 392 396 384 403 415 446
1850.0 418 409 387 364 360 344 322 316 316 318
1890.0 318 307 303 314 309 306 302 311 308 308
1930.0 296 299 305 305 309 298 304 307 299 313
1970.0 310 313 315 309 312 310 307 296 289 291
2010.0 293 293 294 290 290 285 284 287 290 289
2050.0 280 279 282 282 277 277 280 282 283 287
2090.0 284 285 286 280 277 273 269 274 268 266
2130.0 266 268 270 269 264 258 259 268 264 262
2170.0 264 262 264 260 260 254 259 262 257 255
2210.0 252 251 257 256 255 256 255 253 253 255
2250.0 258 257 264 259 259 256 253 255 252 250
2290.0 250 250 252 248 251 256 258 264 256 266
2330.0 265 255 269 238 275 255 286 266 298 266
2370.0 271 253 253 253 245 248 247 243 247 250
2410.0 249 245 247 243 245 244 240 235 238 237
2450.0 238 235 236 231 230 233 235 238 237 240
2490.0 240 232 233 234 229 226 228 231 225 230
2530.0 232 230 231 229 228 229 222 230 231 226
2570.0 232 231 228 231 230 233 219 224 224 221
2610.0 221 223 229 231 228 230 229 231 224 232
2650.0 233 234 235 233 233 232 234 233 234 233
2690.0 232 234 235 234 237 238 237 241 240 238
2730.0 240 240 240 244 247 251 250 252 257 261
2770.0 263 264 272 269 266 268 273 273 273 272
2810.0 279 280 283 290 293 299 308 319 337 347
2850.0 370 387 409 438 460 490 516 556 603 625
2890.0 641 645 649 676 714 773 826 871 908 941
2930.0 972 1011 1053 1098 1082 1029 951 916 939 994
2970.0 1046 1147 1303 1496 1654 1710 1594 1365 1119 939
3010.0 814 752 723 689 618 534 458 402 382 356
3050.0 368 363 383 398 422 462 508 588 694 822
3090.0 952 909 771 593 441 345 312 302 303 302
3130.0 293 287 276 279 277 280 276 262 268 267
3170.0 264 257 253 257 261 262 254 253 252 250
3210.0 247 253 247 245 249 251 250 250 244 241
3250.0 238 237 245 242 236 244 249 245 243 241
3290.0 250 248 235 243 244 243 253 241 249 244
3330.0 247 244 237 237 243 246 244 249 251 246
3370.0 244 249 245 244 245 244 246 251 251 247
3410.0 253 255 254 269 280 287 296 282 272 279
3450.0 266 259 254 251 245 255 253 247 259 239
3490.0 264 251 252 246 253 259 260 252 261 268
3530.0 261 264 252 246 261 241 264 244 252 249
3570.0 271 253 258 245 265 254 267 266 270 248
3610.0 259 262 247 270 236 268 241 280 252 270
3650.0 220 287 245 250 267 228 268 221 288 253
3690.0 260 250 258 254 247 246 271 239 262 233
3730.0 261 256 232 282 216 300 218 266 233 240
3770.0 251 245 265 270 236 266 247 253 244 262
3810.0 248 258 248 264 259 255 244 255 223 249
3850.0 244 283 235 262 260 258 274 249 279 262
3890.0 279 245 281 263 258 276 275 257 218 258
3930.0 259 285 284 276 296 258 277 267 238 253
##END=
