##TITLE=Phenol, 2,6-dibromo-
##JCAMP-DX=4.24
##DATA TYPE=INFRARED SPECTRUM
##ORIGIN=Sadtler Research Labs Under US-EPA Contract
##OWNER=NIST Standard Reference Data Program
##CAS REGISTRY NO=608-33-3
##MOLFORM=C 6 H 4 Br 2 O
##XUNITS=1/CM
##YUNITS=ABSORBANCE
##XFACTOR=1.0
##YFACTOR=0.000082959
##DELTAX=4.0
##FIRSTX=450.0
##LASTX=3966.0
##FIRSTY=0.001659
##MAXX=3966
##MINX=450
##MAXY=0.82959
##MINY=0
##NPOINTS=880
##XYDATA=(X++(Y..Y))
450.0 20 13 50 154 136 98 172 52 120 140
490.0 94 179 300 401 708 744 908 1078 898 812
530.0 513 166 303 223 160 262 17 241 133 177
570.0 624 531 603 566 224 234 180 188 315 67
610.0 210 355 230 414 379 151 304 155 332 324
650.0 363 533 279 308 288 299 567 677 541 607
690.0 357 564 1011 1559 2779 4154 5416 6097 5582 4074
730.0 2481 1643 1248 1787 2564 3447 4117 4969 4117 2705
770.0 2244 1363 1134 1163 1005 886 637 424 310 243
810.0 249 386 396 705 1141 1294 1302 1254 752 490
850.0 299 358 358 265 210 194 141 185 110 124
890.0 197 154 195 170 123 145 116 123 172 100
930.0 100 148 190 290 318 315 251 138 178 163
970.0 177 266 210 276 209 134 163 126 135 195
1010.0 251 376 477 530 693 816 800 814 760 792
1050.0 874 1042 1388 1648 1758 1823 1510 1294 1128 939
1090.0 797 671 589 596 656 813 1056 1123 1176 1208
1130.0 1573 2448 3741 5047 4652 3598 1883 1210 1443 2247
1170.0 3598 4601 4434 3712 2229 1659 1616 1680 1773 1798
1210.0 1481 1166 1250 1671 2498 3281 3502 3449 3127 2883
1250.0 2857 2926 2886 2802 2770 2620 2312 1608 1033 719
1290.0 642 682 709 809 1065 1634 2621 4017 5584 6098
1330.0 5509 4747 2531 1227 625 349 261 221 187 202
1370.0 216 235 314 353 392 372 320 325 299 380
1410.0 486 593 789 1056 1564 2426 3555 5055 6913 8487
1450.0 8889 8767 7779 6465 5439 4799 3938 2444 1626 1142
1490.0 821 647 494 415 368 292 308 246 205 211
1530.0 158 146 216 220 380 492 663 915 1216 1788
1570.0 2291 2425 2115 1509 1069 857 663 513 389 278
1610.0 259 158 117 123 93 99 113 103 207 283
1650.0 329 337 233 158 121 116 118 79 101 88
1690.0 60 103 97 84 111 121 142 148 96 124
1730.0 100 81 89 55 55 95 48 75 68 81
1770.0 123 121 182 191 164 167 97 68 93 58
1810.0 74 104 79 94 118 160 254 284 320 276
1850.0 196 132 86 55 74 33 72 66 84 129
1890.0 123 167 213 186 201 175 115 120 85 77
1930.0 80 54 85 75 55 72 57 74 61 34
1970.0 51 34 45 47 24 44 56 18 63 38
2010.0 31 62 56 57 45 42 62 51 46 71
2050.0 43 55 57 37 77 65 51 66 50 70
2090.0 61 63 79 52 66 80 56 46 48 26
2130.0 58 41 44 48 35 51 42 51 58 42
2170.0 47 61 45 76 57 31 63 48 53 61
2210.0 50 77 69 45 63 47 50 66 55 65
2250.0 61 42 71 55 87 90 93 115 120 110
2290.0 143 113 150 144 135 174 140 139 142 100
2330.0 153 127 39 97 70 117 155 114 136 90
2370.0 29 80 39 67 99 80 106 126 93 98
2410.0 104 119 100 86 103 76 64 85 65 64
2450.0 83 60 72 79 85 114 79 89 88 93
2490.0 128 134 170 188 144 144 137 104 131 115
2530.0 120 119 96 88 106 90 116 76 78 80
2570.0 31 52 46 27 67 48 60 64 29 76
2610.0 57 40 63 70 62 91 72 125 121 112
2650.0 122 90 73 84 53 68 65 58 91 40
2690.0 72 50 41 75 52 73 99 47 73 77
2730.0 55 90 66 85 72 66 114 81 77 136
2770.0 88 89 117 101 136 98 96 94 55 96
2810.0 91 44 87 64 76 85 47 79 93 54
2850.0 96 80 61 134 66 102 113 69 122 109
2890.0 89 149 106 106 117 86 118 102 87 139
2930.0 55 92 90 71 114 61 51 76 40 73
2970.0 91 74 92 114 105 133 99 118 153 141
3010.0 202 172 151 224 170 206 194 164 208 176
3050.0 172 184 136 258 295 342 554 668 801 816
3090.0 653 496 333 198 189 133 150 211 117 216
3130.0 177 122 157 130 153 130 90 132 92 73
3170.0 137 88 114 108 96 107 65 90 132 68
3210.0 151 84 88 117 116 115 178 93 154 144
3250.0 80 173 88 126 142 101 127 130 60 167
3290.0 169 175 208 112 111 99 77 112 29 124
3330.0 138 86 98 111 10 170 99 132 132 139
3370.0 97 115 90 120 106 32 155 49 158 82
3410.0 103 107 51 54 116 14 103 33 54 107
3450.0 46 61 83 90 142 71 132 153 89 118
3490.0 83 89 170 123 101 183 184 206 226 329
3530.0 728 1306 3393 7434 9257 10000 7590 5270 3652 2246
3570.0 1373 850 483 359 327 263 183 160 180 129
3610.0 120 193 107 91 124 39 109 78 63 160
3650.0 83 107 49 46 77 97 18 87 59 90
3690.0 103 97 115 70 62 105 104 108 113 111
3730.0 163 143 81 84 22 94 103 29 76 80
3770.0 46 63 27 127 128 139 187 177 157 187
3810.0 143 170 177 136 176 136 151 148 131 118
3850.0 104 113 153 100 109 63 27 73 69 0
3890.0 60 42 73 117 130 167 91 159 227 205
3930.0 293 263 201 222 167 187 0 11 11 11
##END=
