##TITLE=Benzene, pentachloro-
##JCAMP-DX=4.24
##DATA TYPE=INFRARED SPECTRUM
##ORIGIN=Sadtler Research Labs Under US-EPA Contract
##OWNER=NIST Standard Reference Data Program
##CAS REGISTRY NO=608-93-5
##MOLFORM=C 6 H Cl 5
##XUNITS=1/CM
##YUNITS=ABSORBANCE
##XFACTOR=1.0
##YFACTOR=0.000086914
##DELTAX=4.0
##FIRSTX=450.0
##LASTX=3966.0
##FIRSTY=0.016601
##MAXX=3966
##MINX=450
##MAXY=0.86914
##MINY=0
##NPOINTS=880
##XYDATA=(X++(Y..Y))
450.0 191 207 266 270 285 331 355 337 355 328
490.0 288 207 264 320 316 339 414 467 512 516
530.0 300 317 285 332 502 764 1080 1293 1204 874
570.0 508 248 167 184 208 171 109 143 284 249
610.0 208 113 140 168 137 181 224 135 152 175
650.0 193 190 322 392 863 2006 3123 4429 4886 3934
690.0 2603 1393 775 592 463 209 178 149 143 123
730.0 178 138 219 235 168 181 146 159 187 279
770.0 279 310 278 396 333 416 440 484 565 740
810.0 1211 2296 3427 3864 3453 2011 802 361 245 193
850.0 348 658 1137 1539 1908 935 584 246 194 154
890.0 122 135 105 73 77 58 52 31 6 55
930.0 55 153 162 179 141 155 78 106 60 91
970.0 68 106 80 97 94 96 107 142 233 223
1010.0 210 218 145 121 99 59 89 120 158 213
1050.0 243 156 189 127 223 222 380 735 1243 1669
1090.0 1683 1284 654 239 155 152 147 160 215 257
1130.0 168 141 57 55 18 101 274 883 2185 3198
1170.0 3107 2029 668 233 141 179 316 600 788 748
1210.0 477 191 162 277 446 518 457 258 115 84
1250.0 105 115 209 214 156 77 63 13 41 58
1290.0 84 208 419 651 880 1054 1381 2036 3113 4579
1330.0 5761 5973 5017 3283 1735 981 652 553 527 566
1370.0 622 861 1304 2279 4030 6775 9287 10000 7799 4546
1410.0 2240 1309 1062 879 778 726 748 793 616 415
1450.0 339 238 412 193 230 140 263 122 92 99
1490.0 202 130 220 181 435 528 646 994 1284 1386
1530.0 1320 1272 1064 1115 856 892 1130 1375 1011 569
1570.0 338 213 304 243 214 213 231 253 280 261
1610.0 265 219 370 231 252 176 229 222 123 189
1650.0 144 314 49 46 54 130 119 91 123 229
1690.0 76 90 212 281 132 103 146 344 217 224
1730.0 182 312 102 120 59 144 47 85 86 39
1770.0 91 152 33 73 53 32 108 30 71 4
1810.0 63 8 29 12 70 37 45 28 57 84
1850.0 58 23 33 29 45 85 38 39 53 35
1890.0 57 63 40 51 44 90 50 85 39 49
1930.0 21 54 30 74 41 68 44 54 30 56
1970.0 52 44 44 50 50 49 61 41 60 35
2010.0 51 29 67 31 55 38 62 46 69 44
2050.0 70 27 69 20 39 48 38 45 46 37
2090.0 47 47 29 58 35 62 46 71 15 51
2130.0 38 46 27 69 28 54 39 61 33 51
2170.0 51 40 47 44 52 59 59 32 85 52
2210.0 86 56 90 55 70 51 53 34 70 38
2250.0 52 34 62 53 48 57 44 60 49 55
2290.0 56 70 36 68 61 82 31 76 6 34
2330.0 0 51 4 34 34 11 3 3 3 11
2370.0 20 38 44 64 71 40 63 40 48 25
2410.0 54 29 82 39 59 11 68 51 52 25
2450.0 48 31 48 47 51 44 44 59 26 60
2490.0 35 59 40 55 16 36 7 66 22 49
2530.0 31 57 29 44 45 55 48 54 69 60
2570.0 64 45 64 48 57 27 57 46 64 55
2610.0 55 42 66 45 52 36 45 36 56 46
2650.0 51 56 44 28 31 57 38 67 47 68
2690.0 39 83 30 59 49 56 42 71 44 67
2730.0 57 75 53 102 98 83 74 74 54 65
2770.0 63 50 50 64 64 53 70 19 57 21
2810.0 57 31 55 0 65 48 49 31 51 28
2850.0 47 66 61 50 54 50 45 68 47 81
2890.0 49 67 30 55 45 62 36 47 45 61
2930.0 46 51 61 64 64 66 86 73 101 83
2970.0 67 62 55 48 77 40 65 35 83 40
3010.0 52 26 51 48 64 17 59 48 52 32
3050.0 58 73 72 83 80 92 101 110 93 79
3090.0 65 83 79 103 55 80 57 89 65 79
3130.0 39 55 39 37 38 44 47 46 64 47
3170.0 56 38 57 27 27 35 51 57 63 42
3210.0 52 35 48 34 58 46 44 48 49 31
3250.0 38 33 55 24 35 72 62 49 49 53
3290.0 44 48 40 65 32 47 49 41 23 46
3330.0 68 38 16 39 41 41 46 53 46 47
3370.0 69 30 70 46 47 23 50 58 56 33
3410.0 54 36 51 21 45 72 59 24 41 59
3450.0 50 58 47 44 49 59 60 62 61 37
3490.0 37 33 15 60 53 54 10 28 41 44
3530.0 94 50 51 39 68 52 54 40 75 68
3570.0 102 33 54 31 52 83 69 59 71 46
3610.0 96 92 75 92 39 150 81 66 34 50
3650.0 174 86 75 36 34 128 125 161 51 15
3690.0 93 57 44 60 15 58 81 36 37 57
3730.0 50 108 182 94 202 168 156 57 74 51
3770.0 39 12 5 16 24 19 32 63 83 36
3810.0 61 40 92 94 67 45 49 83 51 22
3850.0 28 109 57 19 31 42 41 17 32 30
3890.0 20 30 20 23 14 3 3 3 3 3
3930.0 3 3 3 3 8 7 3 3 3 3
##END=
