##TITLE=Benzene, 1,3,5-trimethyl-2,4-dinitro-
##JCAMP-DX=4.24
##DATA TYPE=INFRARED SPECTRUM
##ORIGIN=Sadtler Research Labs Under US-EPA Contract
##OWNER=NIST Standard Reference Data Program
##CAS REGISTRY NO=608-50-4
##MOLFORM=C 9 H 10 N 2 O 4
##XUNITS=1/CM
##YUNITS=ABSORBANCE
##XFACTOR=1.0
##YFACTOR=0.000184152
##DELTAX=4.0
##FIRSTX=450.0
##LASTX=3966.0
##FIRSTY=0.000000
##MAXX=3966
##MINX=450
##MAXY=1.84152
##MINY=0
##NPOINTS=880
##XYDATA=(X++(Y..Y))
450.0 0 57 63 55 79 73 77 60 69 51
490.0 58 54 61 59 58 63 65 48 65 73
530.0 71 78 76 67 79 91 85 94 91 76
570.0 72 71 72 82 93 80 72 70 77 75
610.0 97 116 132 185 269 427 595 681 655 494
650.0 351 246 198 160 142 128 126 119 107 118
690.0 124 127 136 128 130 124 120 117 118 130
730.0 138 151 160 165 150 143 130 158 235 305
770.0 321 268 190 138 128 112 104 98 100 104
810.0 117 158 263 513 732 725 651 374 216 212
850.0 365 761 1228 1418 1382 964 524 305 156 105
890.0 91 85 82 85 87 85 82 80 79 80
930.0 75 77 76 82 82 81 78 75 72 75
970.0 73 75 75 79 81 82 86 89 91 102
1010.0 111 119 132 145 166 176 187 181 170 156
1050.0 144 139 135 130 127 121 116 112 108 107
1090.0 100 99 95 90 91 89 89 88 94 102
1130.0 118 141 168 188 190 176 142 115 98 93
1170.0 88 86 84 83 83 87 91 92 92 89
1210.0 85 85 92 106 126 134 130 115 99 101
1250.0 99 104 108 119 126 133 141 143 144 142
1290.0 143 146 154 160 170 180 198 229 274 329
1330.0 399 509 683 976 1393 1913 2461 2963 3337 3522
1370.0 3353 2800 2011 1360 1027 907 876 820 749 672
1410.0 614 570 516 500 486 499 515 558 601 641
1450.0 671 696 717 745 766 750 718 694 709 723
1490.0 778 862 942 1008 1039 1081 1115 1229 1444 1959
1530.0 2774 4187 6132 8128 10000 9944 8309 6095 3849 2445
1570.0 1641 1273 1096 1040 1046 1064 1119 1166 1155 1003
1610.0 771 535 396 327 292 272 229 199 170 146
1650.0 115 106 96 94 89 86 84 85 81 79
1690.0 83 80 74 69 71 76 75 72 86 102
1730.0 101 93 89 78 60 57 60 61 65 72
1770.0 74 73 78 72 68 61 58 58 53 57
1810.0 55 53 53 54 52 49 50 54 51 47
1850.0 52 52 54 51 51 48 53 56 55 56
1890.0 54 58 59 61 61 60 57 56 53 54
1930.0 53 53 54 50 53 55 54 55 56 56
1970.0 57 56 55 54 53 53 53 57 57 57
2010.0 56 55 55 54 54 54 54 53 52 51
2050.0 51 53 53 52 50 53 52 53 51 53
2090.0 52 51 53 51 51 50 50 48 49 49
2130.0 49 50 51 53 53 55 55 54 54 57
2170.0 55 55 53 54 51 50 50 49 48 48
2210.0 48 47 47 48 48 49 47 50 52 53
2250.0 52 54 52 53 51 53 53 51 52 54
2290.0 57 60 64 68 69 72 74 72 73 71
2330.0 65 64 65 70 76 81 81 78 86 83
2370.0 88 86 85 81 77 73 73 76 77 83
2410.0 82 82 79 77 76 73 71 68 65 63
2450.0 67 63 64 61 61 59 60 61 60 61
2490.0 60 60 60 62 62 61 61 61 59 58
2530.0 59 60 60 58 60 58 60 60 62 61
2570.0 63 61 60 60 59 58 58 58 56 55
2610.0 57 57 57 58 56 55 59 57 57 56
2650.0 57 59 61 60 60 65 69 73 78 82
2690.0 85 89 92 94 96 98 101 104 105 107
2730.0 106 102 99 96 93 93 92 95 94 91
2770.0 87 82 78 76 75 74 75 74 76 78
2810.0 80 82 86 86 89 93 98 105 112 120
2850.0 129 144 158 176 199 223 251 274 295 307
2890.0 316 321 323 318 310 295 278 267 265 276
2930.0 307 359 434 501 526 505 439 364 313 289
2970.0 286 291 304 318 330 339 344 332 313 290
3010.0 261 239 225 220 214 218 222 227 226 220
3050.0 210 196 181 168 151 140 132 125 117 106
3090.0 99 93 89 85 80 80 76 75 72 65
3130.0 68 65 65 62 62 58 61 59 58 58
3170.0 55 57 54 56 54 52 53 53 53 55
3210.0 55 54 53 53 54 53 52 52 52 52
3250.0 48 50 52 52 52 53 50 53 53 53
3290.0 54 53 50 51 49 51 53 50 53 53
3330.0 54 51 50 50 50 53 52 48 49 51
3370.0 49 49 53 55 53 50 50 51 52 50
3410.0 52 49 49 51 51 52 57 50 51 51
3450.0 53 57 51 52 50 51 51 48 50 53
3490.0 51 47 51 51 50 52 52 53 47 52
3530.0 49 52 49 51 48 50 53 52 52 47
3570.0 55 53 51 49 47 50 49 49 51 52
3610.0 49 48 51 54 54 50 50 48 49 54
3650.0 52 47 54 47 55 50 51 47 48 53
3690.0 56 51 47 50 51 48 47 47 52 51
3730.0 48 52 52 52 47 50 47 52 51 56
3770.0 54 49 55 47 51 52 47 47 50 53
3810.0 52 50 53 47 51 49 49 52 51 49
3850.0 50 50 55 49 53 48 51 49 47 47
3890.0 53 48 52 51 47 54 57 49 53 51
3930.0 56 49 50 50 58 49 50 54 55 60
##END=
