##TITLE=Benzenamine, 2,6-dibromo-
##JCAMP-DX=4.24
##DATA TYPE=INFRARED SPECTRUM
##ORIGIN=Sadtler Research Labs Under US-EPA Contract
##OWNER=NIST Standard Reference Data Program
##CAS REGISTRY NO=608-30-0
##MOLFORM=C 6 H 5 Br 2 N
##XUNITS=1/CM
##YUNITS=ABSORBANCE
##XFACTOR=1.0
##YFACTOR=0.000053906
##DELTAX=4.0
##FIRSTX=450.0
##LASTX=3966.0
##FIRSTY=0.037950
##MAXX=3966
##MINX=450
##MAXY=0.53906
##MINY=0
##NPOINTS=880
##XYDATA=(X++(Y..Y))
450.0 704 581 766 883 879 912 913 833 706 603
490.0 619 394 330 438 188 215 229 200 62 169
530.0 202 43 185 162 102 192 134 122 235 404
570.0 280 383 267 205 227 269 127 213 212 169
610.0 210 155 227 366 271 308 295 246 526 477
650.0 448 528 560 609 991 1422 1413 1413 1388 1337
690.0 1408 1577 2230 3067 4145 5036 4803 4078 3008 2324
730.0 2269 2271 2742 3522 3764 3912 4189 3516 2739 2193
770.0 1577 1134 890 750 685 536 575 576 620 538
810.0 470 506 457 370 317 334 318 377 428 446
850.0 409 471 481 549 339 253 187 167 230 168
890.0 166 184 202 178 138 140 126 95 136 128
930.0 149 202 255 283 258 194 151 197 193 183
970.0 232 203 152 108 99 96 107 101 113 143
1010.0 178 288 403 604 751 838 892 948 1091 1534
1050.0 2340 3509 4375 4483 3623 2241 1593 1452 1653 2000
1090.0 2273 2209 1709 1070 552 294 328 244 199 127
1130.0 118 73 78 111 115 116 80 53 17 9
1170.0 0 23 39 46 60 88 81 68 50 52
1210.0 60 88 161 303 542 638 600 524 391 315
1250.0 224 168 155 165 229 300 343 430 541 734
1290.0 988 1148 1107 806 395 162 80 62 62 63
1330.0 36 40 53 46 14 42 35 56 140 80
1370.0 96 190 262 286 289 230 182 246 205 271
1410.0 284 348 528 616 692 836 1054 1754 2722 4769
1450.0 6817 8826 10000 8709 6845 3890 2196 1121 689 544
1490.0 609 399 470 296 533 479 282 404 521 406
1530.0 390 648 820 1457 1469 1702 2153 2821 2802 2114
1570.0 1591 990 974 769 869 1104 1484 2092 3071 4438
1610.0 5909 6769 7192 6203 4828 3463 2392 1724 1097 993
1650.0 771 1013 347 297 203 359 268 234 217 460
1690.0 177 175 405 533 253 158 220 472 215 186
1730.0 224 476 250 255 209 291 201 203 212 139
1770.0 247 327 174 193 181 165 264 100 128 55
1810.0 56 52 50 59 182 276 252 233 182 218
1850.0 62 34 33 53 74 163 94 104 129 144
1890.0 183 144 109 67 48 67 40 95 60 44
1930.0 43 43 42 66 54 44 44 37 29 44
1970.0 37 29 9 13 27 34 47 30 27 18
2010.0 33 33 43 35 34 43 45 45 32 33
2050.0 35 29 37 17 41 30 39 31 31 42
2090.0 51 51 45 45 48 52 56 58 60 54
2130.0 56 47 47 49 41 41 44 41 38 45
2170.0 41 33 33 35 35 36 36 36 36 36
2210.0 36 36 48 36 48 38 46 39 47 39
2250.0 39 39 39 46 50 59 57 69 84 93
2290.0 113 132 151 161 172 181 169 170 199 190
2330.0 199 178 182 197 227 173 211 261 242 228
2370.0 190 147 119 85 55 48 48 49 49 30
2410.0 49 51 50 40 40 40 51 51 51 51
2450.0 52 52 52 52 44 43 52 37 40 36
2490.0 41 51 55 61 81 81 110 119 118 113
2530.0 107 86 84 76 62 66 57 58 58 69
2570.0 69 77 88 95 95 110 120 109 96 90
2610.0 98 69 72 63 62 61 64 55 60 43
2650.0 62 41 46 54 55 47 56 47 39 57
2690.0 47 41 55 48 55 55 58 51 69 68
2730.0 70 60 61 61 71 55 56 70 41 47
2770.0 51 54 54 54 36 46 46 48 55 44
2810.0 51 45 50 63 66 64 55 56 57 67
2850.0 64 65 76 75 71 72 76 74 76 76
2890.0 76 85 103 94 88 84 86 80 81 83
2930.0 92 80 88 77 77 78 78 77 72 78
2970.0 78 74 71 76 60 68 63 72 63 71
3010.0 73 81 74 80 76 73 74 70 79 81
3050.0 89 127 202 281 386 493 550 562 518 398
3090.0 279 180 154 114 110 129 131 127 119 105
3130.0 105 108 103 98 88 86 86 86 94 87
3170.0 86 87 88 92 95 78 68 59 71 79
3210.0 62 70 61 73 71 69 65 61 61 67
3250.0 76 49 63 50 42 46 63 80 66 62
3290.0 76 56 49 73 70 87 69 63 82 75
3330.0 82 64 64 83 80 73 83 81 90 120
3370.0 137 172 210 285 388 525 740 1000 1266 1441
3410.0 1529 1442 1249 1014 701 470 298 205 204 175
3450.0 189 188 233 260 302 370 465 551 662 820
3490.0 1064 1406 1920 2346 2535 2505 2211 1769 1317 967
3530.0 674 474 288 201 192 163 172 125 125 164
3570.0 221 106 104 126 136 211 110 130 111 95
3610.0 172 179 156 189 108 313 159 110 104 143
3650.0 330 175 194 103 104 257 270 334 158 121
3690.0 276 135 108 159 116 156 208 107 161 165
3730.0 166 295 318 226 384 324 267 171 163 138
3770.0 154 105 115 131 110 119 130 182 265 201
3810.0 188 173 255 285 217 196 264 310 285 257
3850.0 276 438 334 302 333 350 311 254 277 281
3890.0 238 267 261 307 290 224 233 233 207 216
3930.0 214 194 180 179 177 187 51 62 62 62
##END=
