##TITLE=Benzenamine, 2,3-dichloro-
##JCAMP-DX=4.24
##DATA TYPE=INFRARED SPECTRUM
##ORIGIN=Sadtler Research Labs Under US-EPA Contract
##OWNER=NIST Standard Reference Data Program
##CAS REGISTRY NO=608-27-5
##MOLFORM=C 6 H 5 Cl 2 N
##XUNITS=1/CM
##YUNITS=ABSORBANCE
##XFACTOR=1.0
##YFACTOR=0.000113181
##DELTAX=4.0
##FIRSTX=450.0
##LASTX=3966.0
##FIRSTY=0.115897
##MAXX=3966
##MINX=450
##MAXY=1.13181
##MINY=0
##NPOINTS=880
##XYDATA=(X++(Y..Y))
450.0 1024 1147 879 886 618 588 472 508 323 387
490.0 376 384 319 477 517 345 386 342 364 301
530.0 366 319 465 491 469 534 463 566 581 729
570.0 918 1147 1238 1291 1241 978 795 651 686 728
610.0 763 759 787 771 771 781 739 747 753 814
650.0 827 928 982 1061 1174 1405 1593 1763 2050 2266
690.0 2590 2657 3078 3308 2652 2233 2009 1709 1543 1494
730.0 1594 1854 2071 2263 2632 3039 3497 3929 4747 5739
770.0 4617 3661 3082 2263 1751 1332 1121 1001 862 810
810.0 738 692 643 641 615 594 584 540 544 498
850.0 499 449 453 445 453 456 511 597 689 842
890.0 1083 1547 2290 3107 3561 3545 3141 2186 1103 468
930.0 263 176 153 146 167 172 174 181 151 149
970.0 115 116 107 144 180 226 271 294 317 313
1010.0 325 336 429 639 996 1382 1594 1657 1584 1247
1050.0 801 535 409 384 406 476 604 770 1040 1374
1090.0 1773 2063 2227 2248 2065 1759 1465 1271 1127 1009
1130.0 869 724 540 402 321 291 294 281 294 279
1170.0 277 266 279 300 365 509 699 886 990 988
1210.0 808 585 314 123 59 50 59 66 82 104
1250.0 141 186 249 312 399 510 659 808 930 1054
1290.0 1225 1501 1912 2354 2520 2449 2199 1577 921 518
1330.0 319 191 93 54 59 70 84 91 77 73
1370.0 55 31 14 13 11 13 21 40 100 172
1410.0 254 325 353 484 763 1377 2316 3204 3709 4202
1450.0 4812 5735 7213 8215 8041 7538 5425 2821 1438 881
1490.0 627 509 451 441 442 451 466 454 418 441
1530.0 475 553 611 680 817 986 1131 1233 1375 1483
1570.0 1648 2033 2726 3383 3699 3773 3814 3982 4507 5685
1610.0 7259 8817 9876 10000 9257 7414 5494 3675 2384 1528
1650.0 1036 761 612 526 454 398 338 315 255 222
1690.0 212 204 176 197 233 271 288 271 286 254
1730.0 204 149 140 119 104 89 89 80 66 65
1770.0 43 37 43 40 47 47 56 79 106 140
1810.0 146 136 120 92 59 38 35 40 34 33
1850.0 40 50 45 50 46 49 67 79 101 124
1890.0 166 215 264 283 271 238 185 123 75 61
1930.0 49 49 44 39 36 43 46 41 50 42
1970.0 45 48 52 51 55 53 59 68 66 73
2010.0 72 70 64 64 63 59 52 45 42 38
2050.0 37 27 30 28 20 13 11 12 8 12
2090.0 11 19 19 23 22 26 32 32 35 36
2130.0 39 41 40 40 38 41 36 43 41 43
2170.0 41 47 44 56 63 69 78 74 81 76
2210.0 77 66 54 51 39 34 28 28 25 26
2250.0 23 27 27 26 27 30 31 29 32 30
2290.0 38 45 50 63 68 76 81 87 86 84
2330.0 70 71 62 66 51 41 71 60 81 60
2370.0 62 57 55 49 41 47 44 47 52 52
2410.0 44 38 33 29 24 23 23 23 22 20
2450.0 17 16 15 17 16 20 17 22 24 27
2490.0 28 28 32 35 36 32 38 34 36 40
2530.0 38 42 38 39 39 51 52 69 72 78
2570.0 86 83 76 69 67 57 60 64 75 77
2610.0 83 84 70 69 57 49 43 33 25 39
2650.0 42 44 49 44 42 28 23 15 16 16
2690.0 15 20 21 27 30 27 29 32 33 36
2730.0 35 41 36 39 44 44 43 33 29 31
2770.0 24 20 17 15 11 11 4 8 0 8
2810.0 13 8 13 11 15 10 12 11 18 21
2850.0 18 25 23 23 29 28 17 19 19 15
2890.0 16 24 27 21 24 30 41 36 49 47
2930.0 55 47 38 35 25 21 12 17 21 23
2970.0 12 28 31 19 35 49 45 68 104 127
3010.0 164 222 297 362 408 409 368 325 296 341
3050.0 468 631 793 921 1020 1057 1007 899 818 657
3090.0 457 311 200 108 63 36 24 14 12 21
3130.0 17 20 30 38 46 46 55 58 70 82
3170.0 84 93 106 105 111 116 116 104 93 79
3210.0 57 38 32 38 29 18 21 12 17 19
3250.0 18 28 33 31 28 32 19 20 9 21
3290.0 17 10 4 28 19 26 26 20 50 51
3330.0 26 32 28 26 30 45 50 55 51 66
3370.0 79 93 103 128 175 223 347 504 785 1154
3410.0 1521 1694 1774 1767 1566 1257 968 768 522 294
3450.0 199 165 162 152 165 172 216 257 329 445
3490.0 585 788 1077 1347 1495 1514 1449 1283 1114 1041
3530.0 949 801 658 461 269 184 138 100 99 92
3570.0 71 78 72 86 68 56 62 68 55 70
3610.0 55 47 54 64 67 49 65 55 54 51
3650.0 52 74 70 67 63 72 70 63 61 55
3690.0 63 76 100 84 105 106 118 95 95 84
3730.0 71 67 74 77 58 71 52 51 66 67
3770.0 80 55 48 60 74 71 93 114 121 90
3810.0 88 92 93 96 84 94 109 87 85 108
3850.0 91 98 100 138 109 101 123 111 86 32
3890.0 35 45 85 90 41 42 59 65 61 76
3930.0 94 90 100 84 91 106 70 121 99 76
##END=
