##TITLE=Furamide
##JCAMP-DX=4.24
##DATA TYPE=INFRARED SPECTRUM
##ORIGIN=Sadtler Research Labs Under US-EPA Contract
##OWNER=NIST Standard Reference Data Program
##CAS REGISTRY NO=609-38-1
##MOLFORM=C 5 H 5 N O 2
##XUNITS=1/CM
##YUNITS=ABSORBANCE
##XFACTOR=1.0
##YFACTOR=0.000126669
##DELTAX=4.0
##FIRSTX=450.0
##LASTX=3966.0
##FIRSTY=0.041294
##MAXX=3966
##MINX=450
##MAXY=1.26669
##MINY=0
##NPOINTS=880
##XYDATA=(X++(Y..Y))
450.0 326 282 181 225 245 276 287 334 342 383
490.0 338 310 280 205 194 150 149 86 98 55
530.0 75 68 75 81 67 97 77 97 87 147
570.0 130 180 196 211 219 329 472 354 313 364
610.0 388 395 501 591 531 500 501 551 599 831
650.0 1150 1281 1335 1430 1425 1241 1054 795 548 394
690.0 280 228 148 161 159 221 259 400 553 763
730.0 973 1259 1838 2372 2169 2197 2925 2841 1710 1778
770.0 1475 1303 1127 1075 1027 941 910 920 872 715
810.0 603 516 499 496 523 623 641 604 575 609
850.0 610 621 601 564 536 554 629 725 711 719
890.0 770 916 887 764 781 837 907 947 801 724
930.0 761 654 474 361 274 220 185 162 153 159
970.0 171 188 231 301 420 638 982 1320 1318 1213
1010.0 1182 1227 921 552 335 227 162 135 132 147
1050.0 167 221 307 425 521 513 498 577 600 493
1090.0 380 308 260 221 179 164 145 131 129 145
1130.0 175 198 209 216 234 238 263 354 533 742
1170.0 833 872 868 867 715 422 253 201 172 169
1210.0 201 296 440 491 512 536 577 548 423 362
1250.0 344 319 316 311 304 262 245 226 209 183
1290.0 173 192 238 322 451 633 899 1293 1894 2672
1330.0 3638 4595 5212 5396 5408 5265 4485 3374 2270 1497
1370.0 1133 1014 965 924 897 892 733 482 342 262
1410.0 182 153 49 74 54 65 15 13 32 32
1450.0 30 29 25 120 212 319 422 642 877 985
1490.0 939 931 880 815 525 264 215 160 104 121
1530.0 118 143 150 152 254 414 592 752 1022 1234
1570.0 1434 1686 1922 2278 2822 3682 4437 4719 4648 4669
1610.0 4586 3529 2078 1291 910 720 528 401 360 336
1650.0 284 262 315 340 352 373 383 471 457 555
1690.0 766 1057 1396 2127 3251 4973 7191 9136 9356 8792
1730.0 9809 10000 7709 4962 3228 2007 1236 739 461 295
1770.0 178 138 171 162 177 177 168 190 187 214
1810.0 171 132 118 93 64 35 39 41 19 0
1850.0 20 34 31 32 24 9 40 49 45 43
1890.0 37 44 45 52 56 60 60 56 45 54
1930.0 54 40 35 18 24 31 33 32 37 32
1970.0 38 44 47 52 58 54 57 68 73 71
2010.0 70 59 49 49 45 39 40 36 36 39
2050.0 42 43 44 45 44 55 57 55 54 49
2090.0 43 39 36 33 32 28 28 27 33 30
2130.0 34 33 37 35 35 35 32 31 29 25
2170.0 25 25 25 25 25 24 27 26 29 29
2210.0 32 33 36 34 33 37 38 41 42 45
2250.0 46 50 49 45 42 36 34 30 29 26
2290.0 25 27 28 30 30 35 28 27 22 22
2330.0 20 18 21 29 25 39 23 29 33 26
2370.0 29 30 35 37 38 36 36 34 32 33
2410.0 35 31 33 31 30 26 28 27 29 30
2450.0 32 30 31 29 27 23 23 24 22 22
2490.0 20 21 17 17 15 13 13 11 11 11
2530.0 11 8 10 9 13 14 17 18 22 24
2570.0 23 20 20 19 16 13 12 12 10 12
2610.0 10 12 13 12 15 15 19 20 23 27
2650.0 29 33 35 36 35 39 36 34 30 26
2690.0 23 21 19 14 18 18 19 17 19 16
2730.0 16 13 13 15 15 16 15 20 22 25
2770.0 30 33 38 46 50 52 53 55 55 55
2810.0 50 45 40 36 36 33 26 25 21 23
2850.0 18 20 23 23 23 23 22 21 19 14
2890.0 17 16 21 21 24 24 23 26 19 17
2930.0 12 11 9 15 17 17 17 18 17 16
2970.0 19 18 19 13 13 13 13 13 10 11
3010.0 10 10 10 12 16 18 23 27 33 33
3050.0 34 33 29 28 29 26 26 20 21 19
3090.0 17 20 19 24 26 30 39 57 70 82
3130.0 94 98 101 98 91 89 88 84 75 66
3170.0 61 47 41 35 36 34 32 32 34 34
3210.0 35 33 35 29 28 33 30 30 27 31
3250.0 31 33 30 33 33 34 39 38 34 39
3290.0 46 49 47 47 49 53 51 51 52 56
3330.0 49 57 54 53 55 57 56 56 63 59
3370.0 64 68 73 79 90 111 135 180 224 285
3410.0 355 453 563 634 716 856 999 1078 1046 924
3450.0 841 804 646 420 261 178 130 111 101 106
3490.0 113 131 151 184 215 234 264 321 430 494
3530.0 498 516 560 601 626 691 901 1125 1140 1098
3570.0 979 925 680 323 131 73 46 44 30 28
3610.0 27 31 27 29 26 23 29 33 30 26
3650.0 29 17 19 22 23 23 26 16 22 19
3690.0 20 26 23 22 27 24 31 30 30 29
3730.0 25 28 29 23 27 27 21 19 23 27
3770.0 20 25 19 25 27 21 27 19 15 19
3810.0 24 16 25 25 26 16 14 24 23 16
3850.0 29 36 22 22 21 25 13 24 29 20
3890.0 25 16 14 18 26 22 24 26 29 35
3930.0 29 29 14 16 25 29 31 11 16 31
##END=
