##TITLE=3-Ethyl-2-pentanol
##JCAMP-DX=4.24
##DATA TYPE=INFRARED SPECTRUM
##ORIGIN=Sadtler Research Labs Under US-EPA Contract
##OWNER=NIST Standard Reference Data Program
##CAS REGISTRY NO=609-27-8
##MOLFORM=C 7 H 16 O
##XUNITS=1/CM
##YUNITS=ABSORBANCE
##XFACTOR=1.0
##YFACTOR=0.000131570
##DELTAX=4.0
##FIRSTX=450.0
##LASTX=3966.0
##FIRSTY=0.032366
##MAXX=3966
##MINX=450
##MAXY=1.3157
##MINY=0
##NPOINTS=880
##XYDATA=(X++(Y..Y))
450.0 246 131 46 121 103 125 50 119 105 111
490.0 141 117 140 113 145 104 108 71 96 96
530.0 63 41 31 57 72 68 63 69 70 89
570.0 54 61 83 74 91 77 106 91 94 95
610.0 97 93 92 90 79 88 79 79 66 83
650.0 80 86 79 87 85 70 83 78 87 76
690.0 83 87 81 71 89 95 100 122 133 137
730.0 143 194 197 225 187 175 176 179 187 191
770.0 206 208 211 204 187 164 144 141 152 158
810.0 166 196 218 242 264 286 283 273 261 249
850.0 257 290 372 479 593 666 705 686 570 457
890.0 350 290 281 302 329 379 427 492 589 710
930.0 834 937 1018 986 844 680 510 382 299 261
970.0 240 241 253 276 326 403 519 660 829 998
1010.0 1148 1255 1303 1291 1242 1187 1122 1075 1025 987
1050.0 942 936 954 1030 1158 1324 1491 1614 1700 1697
1090.0 1655 1536 1408 1282 1178 1116 1081 1065 1038 1019
1130.0 992 977 976 1007 1038 1071 1070 1016 939 843
1170.0 742 642 571 511 472 449 456 473 503 546
1210.0 596 662 712 768 829 910 975 1039 1089 1108
1250.0 1116 1072 1011 917 839 761 698 650 618 589
1290.0 567 548 529 518 505 503 489 498 491 503
1330.0 522 551 594 611 634 647 677 711 807 953
1370.0 1164 1450 1704 1949 2013 1937 1662 1368 1050 828
1410.0 648 544 468 410 390 393 437 467 600 702
1450.0 928 1079 1331 1463 1497 1494 1345 1138 856 655
1490.0 489 340 274 226 221 192 179 159 135 133
1530.0 113 126 96 97 98 102 90 81 72 78
1570.0 75 79 69 69 73 70 67 67 64 64
1610.0 62 64 49 63 47 62 46 53 59 57
1650.0 51 51 50 61 58 51 47 63 53 54
1690.0 59 67 57 78 91 126 153 174 197 223
1730.0 227 206 206 186 171 151 126 112 96 87
1770.0 77 64 59 58 49 48 39 45 44 37
1810.0 35 34 31 26 26 18 23 21 23 18
1850.0 20 18 19 19 23 25 19 24 22 21
1890.0 18 19 18 16 16 17 20 16 16 14
1930.0 16 15 14 14 10 11 8 8 5 6
1970.0 1 5 4 1 1 3 2 0 4 5
2010.0 9 9 14 11 15 13 12 13 14 16
2050.0 12 13 15 14 13 15 15 13 12 12
2090.0 15 11 12 12 11 12 10 10 8 11
2130.0 9 14 8 10 13 11 12 10 12 12
2170.0 12 8 10 10 14 12 13 14 14 14
2210.0 10 13 12 13 12 15 15 16 15 16
2250.0 16 16 17 16 17 15 17 17 19 22
2290.0 23 25 29 28 27 29 30 30 32 28
2330.0 26 28 25 25 24 35 41 43 32 29
2370.0 27 26 27 32 35 37 39 41 40 40
2410.0 40 37 34 33 31 29 28 27 27 26
2450.0 25 27 26 30 29 31 31 31 30 29
2490.0 30 30 29 27 27 23 28 24 26 25
2530.0 26 24 26 28 30 35 37 42 43 48
2570.0 49 53 58 63 66 71 79 81 88 91
2610.0 95 97 101 103 106 109 111 112 114 115
2650.0 117 121 122 123 126 125 128 132 135 135
2690.0 139 141 146 146 150 154 162 164 172 185
2730.0 197 209 223 234 238 236 231 222 218 209
2770.0 213 217 221 227 242 252 263 281 295 314
2810.0 335 361 385 419 459 511 576 647 743 851
2850.0 993 1181 1462 1852 2347 2980 3759 4578 5065 5400
2890.0 5278 4953 4478 4026 3707 3615 3711 3916 4253 4658
2930.0 5186 5600 5934 6015 5951 5766 5782 6345 7251 8686
2970.0 9806 10000 9136 8056 6232 4502 3168 2215 1539 1085
3010.0 818 652 551 478 431 389 361 336 315 292
3050.0 277 264 248 238 223 212 208 200 191 186
3090.0 175 164 157 147 143 137 130 125 123 119
3130.0 118 114 116 113 115 117 120 122 121 120
3170.0 115 110 106 100 92 84 73 66 63 58
3210.0 54 46 41 40 36 34 31 28 29 25
3250.0 24 25 19 24 19 20 15 14 18 16
3290.0 23 18 16 17 14 15 13 14 14 18
3330.0 17 18 13 16 12 14 11 13 11 11
3370.0 22 14 19 15 23 23 25 26 28 30
3410.0 29 34 32 41 34 37 35 38 40 39
3450.0 42 38 41 39 39 36 39 37 35 32
3490.0 39 33 34 38 36 35 25 28 28 39
3530.0 29 26 31 24 30 30 27 29 30 36
3570.0 39 30 30 37 33 45 36 44 39 52
3610.0 48 61 69 87 119 137 210 264 364 465
3650.0 602 674 735 682 600 437 316 185 143 98
3690.0 72 56 62 59 52 39 45 50 41 51
3730.0 36 28 32 39 4 22 11 20 36 24
3770.0 34 31 36 26 30 22 33 21 37 15
3810.0 35 32 22 23 21 37 30 23 21 42
3850.0 38 19 44 46 37 38 41 38 51 32
3890.0 36 35 47 36 44 30 32 41 33 41
3930.0 35 42 31 27 26 35 19 23 34 29
##END=
