##TITLE=Butanoic acid, 2-bromo-3-methyl-, ethyl ester
##JCAMP-DX=4.24
##DATA TYPE=INFRARED SPECTRUM
##ORIGIN=Sadtler Research Labs Under US-EPA Contract
##OWNER=NIST Standard Reference Data Program
##CAS REGISTRY NO=609-12-1
##MOLFORM=C 7 H 13 Br O 2
##XUNITS=1/CM
##YUNITS=ABSORBANCE
##XFACTOR=1.0
##YFACTOR=0.000052005
##DELTAX=4.0
##FIRSTX=450.0
##LASTX=3966.0
##FIRSTY=0.000000
##MAXX=3966
##MINX=450
##MAXY=0.52005
##MINY=0
##NPOINTS=880
##XYDATA=(X++(Y..Y))
450.0 0 477 661 388 610 454 569 611 413 42
490.0 719 521 578 483 433 539 447 537 433 647
530.0 479 637 578 400 498 450 550 462 559 493
570.0 592 383 401 433 477 494 394 489 392 484
610.0 460 525 487 549 530 712 655 562 562 536
650.0 652 559 529 470 443 423 373 431 398 479
690.0 502 503 418 430 451 489 532 525 553 464
730.0 445 351 347 286 276 267 251 244 211 244
770.0 253 296 215 190 167 258 220 182 230 194
810.0 239 189 237 219 249 278 316 320 333 351
850.0 284 306 313 404 443 478 426 303 245 167
890.0 149 112 163 183 267 348 435 466 450 449
930.0 400 395 323 298 255 315 368 420 486 506
970.0 528 464 433 373 356 344 346 377 416 517
1010.0 641 873 1203 1755 2425 3108 3634 3784 3502 2887
1050.0 2203 1592 1208 994 967 988 1033 1055 1071 1171
1090.0 1366 1655 1897 2174 2421 2748 3094 3331 3386 3349
1130.0 3491 3999 5082 6445 7638 7941 7215 5806 4417 3535
1170.0 3070 2833 2614 2369 2129 2041 2108 2389 2896 3491
1210.0 3890 3960 3649 3097 2755 2642 2832 3316 4052 4880
1250.0 5567 6031 6124 5868 5259 4479 3761 3377 3460 3833
1290.0 4194 4251 4056 3548 3059 2619 2253 1908 1623 1393
1330.0 1247 1196 1132 1123 1117 1178 1193 1179 1228 1535
1370.0 2075 2512 2554 2150 1657 1445 1415 1301 1066 815
1410.0 614 521 436 444 417 449 476 536 617 750
1450.0 919 1056 1221 1353 1527 1626 1620 1477 1140 823
1490.0 545 376 276 216 166 161 130 135 127 126
1530.0 126 129 137 127 120 109 123 108 118 115
1570.0 101 114 108 104 115 118 112 119 108 119
1610.0 108 113 115 110 113 117 131 122 120 123
1650.0 124 146 142 145 147 155 154 169 189 215
1690.0 248 285 340 401 479 544 647 755 935 1193
1730.0 1672 2451 3651 5211 6824 8689 10000 9844 9306 6570
1770.0 4505 2936 1862 1329 990 767 613 515 408 339
1810.0 289 249 220 199 175 159 154 140 135 131
1850.0 135 121 125 122 129 120 121 124 139 146
1890.0 144 146 142 144 124 118 113 110 108 96
1930.0 102 92 99 87 93 80 100 82 93 94
1970.0 91 89 78 85 93 96 90 100 93 97
2010.0 97 90 93 91 85 84 88 68 76 82
2050.0 72 80 66 68 63 69 64 75 91 100
2090.0 98 104 108 98 104 107 104 98 100 96
2130.0 90 95 87 83 72 81 83 79 82 78
2170.0 76 67 83 73 69 74 76 73 73 71
2210.0 79 80 73 86 72 79 82 77 73 85
2250.0 80 76 79 82 84 76 86 77 76 76
2290.0 66 76 66 71 67 62 52 63 66 61
2330.0 79 78 66 75 80 50 50 50 99 95
2370.0 113 109 98 85 74 72 72 82 85 81
2410.0 76 80 78 72 77 75 85 72 78 74
2450.0 74 74 77 81 72 76 74 82 76 80
2490.0 88 90 92 77 83 91 92 75 74 75
2530.0 85 88 83 77 78 80 79 68 77 73
2570.0 69 61 61 58 56 53 54 67 63 73
2610.0 80 85 81 98 83 93 88 102 86 77
2650.0 98 98 106 112 95 93 89 76 60 53
2690.0 55 58 51 63 57 78 76 78 87 97
2730.0 120 122 124 130 142 125 125 115 123 130
2770.0 125 125 139 148 141 132 123 126 125 130
2810.0 136 163 177 202 208 214 222 229 232 250
2850.0 250 281 312 370 431 562 775 1118 1481 1722
2890.0 1749 1600 1393 1274 1279 1367 1457 1501 1508 1495
2930.0 1566 1842 2230 2616 2849 2767 2481 2229 2411 3126
2970.0 4201 5235 5728 5907 5799 5234 4346 3295 2416 1853
3010.0 1410 1119 869 676 536 432 357 320 283 279
3050.0 248 232 206 180 201 200 173 174 162 174
3090.0 157 170 162 156 138 137 161 152 140 138
3130.0 160 170 148 118 145 150 141 154 162 165
3170.0 137 152 150 158 155 147 134 159 134 159
3210.0 113 118 120 95 127 105 75 101 105 86
3250.0 112 78 52 83 71 79 89 93 88 100
3290.0 109 80 86 94 59 91 85 56 75 76
3330.0 77 106 99 89 90 76 59 56 71 86
3370.0 88 68 87 84 98 63 82 77 89 61
3410.0 76 86 59 65 84 78 97 102 75 61
3450.0 88 85 90 97 118 124 146 144 153 157
3490.0 149 167 140 155 138 124 123 90 132 116
3530.0 101 79 80 53 99 82 116 82 129 108
3570.0 150 201 211 187 127 101 105 111 125 135
3610.0 120 107 131 118 153 110 136 102 129 135
3650.0 181 142 115 172 118 98 116 169 131 119
3690.0 127 149 178 151 91 158 144 113 141 113
3730.0 109 190 167 158 179 96 108 137 123 129
3770.0 161 192 117 149 119 147 165 158 155 155
3810.0 129 146 114 105 140 136 133 148 143 129
3850.0 165 145 197 152 146 107 127 101 139 96
3890.0 60 123 178 153 153 144 133 133 56 129
3930.0 124 120 136 135 90 64 112 95 110 83
##END=
