##TITLE=Phenol, 3,4,5-trichloro-
##JCAMP-DX=4.24
##DATA TYPE=INFRARED SPECTRUM
##ORIGIN=Sadtler Research Labs Under US-EPA Contract
##OWNER=NIST Standard Reference Data Program
##CAS REGISTRY NO=609-19-8
##MOLFORM=C 6 H 3 Cl 3 O
##XUNITS=1/CM
##YUNITS=ABSORBANCE
##XFACTOR=1.0
##YFACTOR=0.000045004
##DELTAX=4.0
##FIRSTX=450.0
##LASTX=3966.0
##FIRSTY=0.029253
##MAXX=3966
##MINX=450
##MAXY=0.45004
##MINY=0
##NPOINTS=880
##XYDATA=(X++(Y..Y))
450.0 650 196 52 934 209 131 411 159 198 238
490.0 236 319 246 148 100 303 166 219 252 377
530.0 397 390 450 854 728 258 553 584 325 259
570.0 229 297 440 608 661 718 770 618 560 337
610.0 349 302 194 112 93 117 140 319 669 1306
650.0 2239 2775 2647 2250 1490 363 372 429 482 706
690.0 568 495 204 289 141 115 266 0 188 183
730.0 112 107 70 32 125 180 144 148 198 219
770.0 264 381 464 497 517 503 539 801 1833 3789
810.0 5753 6577 6634 4842 2752 2167 2220 1889 1607 1779
850.0 1757 1952 2158 2004 1276 975 642 426 457 486
890.0 528 528 463 445 330 252 239 283 325 364
930.0 486 722 1243 2258 3370 3899 3706 2778 1307 417
970.0 273 215 220 224 209 240 255 150 163 182
1010.0 136 95 177 156 130 147 113 165 149 199
1050.0 251 214 187 216 202 235 215 211 285 315
1090.0 364 474 533 646 749 781 796 907 1198 2023
1130.0 3776 6316 7840 7989 6786 4351 2773 2438 2587 2770
1170.0 2890 2946 3371 4338 6111 7738 7985 7254 5309 3293
1210.0 2675 2784 2893 2966 2669 2191 1636 1270 1242 1326
1250.0 1614 2088 2791 3760 4352 4422 3742 2561 1409 849
1290.0 636 490 434 419 340 357 364 375 413 389
1330.0 381 371 328 301 239 260 280 311 419 522
1370.0 715 977 1203 1492 1598 1791 2044 2614 3944 5949
1410.0 8171 9591 10000 8929 7010 5491 4746 4541 4848 4888
1450.0 4196 3063 1781 1024 763 559 604 572 501 522
1490.0 456 379 380 360 415 410 465 512 734 894
1530.0 1156 1477 1689 1843 1745 1621 1639 2095 3163 4652
1570.0 6445 7576 7572 7090 5823 5992 7558 8154 8210 6687
1610.0 4495 2582 1429 903 748 619 581 479 404 334
1650.0 334 329 265 269 288 244 227 182 256 253
1690.0 221 221 280 246 284 315 329 303 193 146
1730.0 123 139 70 79 143 129 109 124 118 98
1770.0 117 107 85 66 65 41 56 57 74 42
1810.0 18 35 36 32 29 63 46 58 43 43
1850.0 57 29 43 29 45 70 44 34 30 27
1890.0 22 30 28 20 34 33 40 34 75 43
1930.0 34 42 56 35 40 42 38 45 21 62
1970.0 37 34 34 35 40 79 45 31 51 59
2010.0 55 37 35 55 28 42 64 47 52 40
2050.0 47 33 36 28 34 37 51 54 47 56
2090.0 65 71 57 54 32 33 23 21 21 28
2130.0 25 24 39 33 49 38 16 23 39 29
2170.0 49 40 58 47 52 49 56 58 70 70
2210.0 69 87 72 89 88 88 56 48 37 42
2250.0 56 51 32 25 22 26 29 35 37 47
2290.0 71 73 97 113 118 151 150 155 168 111
2330.0 126 110 148 137 145 139 164 114 144 168
2370.0 144 126 125 118 94 87 72 76 61 71
2410.0 68 71 79 76 72 71 75 76 77 91
2450.0 98 101 87 81 84 80 70 61 57 52
2490.0 73 61 67 63 48 54 63 72 88 70
2530.0 79 88 83 82 96 103 106 91 71 63
2570.0 63 32 39 32 37 30 29 38 45 33
2610.0 42 33 33 31 30 29 30 27 33 32
2650.0 53 41 53 47 57 57 47 83 85 80
2690.0 90 106 76 73 65 55 68 70 59 45
2730.0 44 55 53 67 58 44 50 35 28 30
2770.0 36 24 19 27 38 22 19 10 17 9
2810.0 28 25 19 28 19 42 62 68 61 65
2850.0 63 44 40 35 40 35 45 41 30 26
2890.0 22 28 28 25 50 37 46 19 23 33
2930.0 27 41 57 58 59 71 60 52 55 51
2970.0 65 68 74 80 61 54 58 70 63 59
3010.0 52 66 66 52 63 61 67 76 94 106
3050.0 118 123 172 233 260 271 269 203 154 151
3090.0 118 132 120 113 99 84 80 84 101 92
3130.0 88 97 106 112 110 108 107 96 87 98
3170.0 93 88 104 90 95 90 96 90 87 95
3210.0 89 103 93 90 79 83 98 89 95 93
3250.0 97 95 91 86 95 89 89 90 108 85
3290.0 85 100 99 106 116 99 98 108 102 128
3330.0 116 131 123 152 167 198 180 185 193 169
3370.0 178 181 187 182 153 153 160 136 146 172
3410.0 147 155 143 127 131 133 108 104 111 106
3450.0 102 134 107 118 75 66 39 27 13 30
3490.0 89 89 115 106 70 84 98 91 83 25
3530.0 78 88 70 80 36 67 116 88 173 118
3570.0 168 186 134 159 101 60 135 113 172 158
3610.0 112 153 220 276 447 519 1017 1875 3414 5626
3650.0 7180 7204 5996 3586 1360 399 178 142 124 177
3690.0 61 142 185 157 180 103 84 168 160 123
3730.0 168 96 106 139 140 44 119 134 175 215
3770.0 169 236 214 172 198 249 259 221 214 225
3810.0 281 356 279 385 419 377 328 218 97 170
3850.0 220 127 179 234 178 186 183 275 174 264
3890.0 206 230 157 171 101 259 250 189 192 171
3930.0 134 103 88 157 140 213 252 216 181 103
##END=
