##TITLE=Benzene, 1-iodo-2-nitro-
##JCAMP-DX=4.24
##DATA TYPE=INFRARED SPECTRUM
##ORIGIN=Sadtler Research Labs Under US-EPA Contract
##OWNER=NIST Standard Reference Data Program
##CAS REGISTRY NO=609-73-4
##MOLFORM=C 6 H 4 I N O 2
##XUNITS=1/CM
##YUNITS=ABSORBANCE
##XFACTOR=1.0
##YFACTOR=0.000080225
##DELTAX=4.0
##FIRSTX=450.0
##LASTX=3966.0
##FIRSTY=0.042519
##MAXX=3966
##MINX=450
##MAXY=0.80225
##MINY=0
##NPOINTS=880
##XYDATA=(X++(Y..Y))
450.0 530 362 351 303 389 187 27 213 205 181
490.0 84 0 248 162 209 246 105 267 183 143
530.0 185 101 168 207 202 193 197 248 160 201
570.0 162 259 343 175 181 308 253 175 150 198
610.0 179 229 203 210 238 447 721 777 887 736
650.0 359 302 264 279 260 234 349 406 435 870
690.0 1320 1485 1528 1389 1054 837 1121 1576 2238 2847
730.0 3162 2458 1988 1527 1250 1224 1037 1193 1339 1452
770.0 1702 1915 1666 1194 790 511 264 328 271 276
810.0 289 246 212 216 305 362 442 760 1359 2052
850.0 2276 2335 1892 1004 559 301 184 224 180 203
890.0 210 202 177 153 170 184 162 175 172 160
930.0 202 169 216 216 223 282 254 267 168 142
970.0 177 124 146 160 175 206 198 186 277 397
1010.0 510 905 1611 2124 2282 2195 1614 979 715 550
1050.0 367 297 199 251 205 202 198 222 207 199
1090.0 224 189 182 195 196 205 270 238 195 198
1130.0 192 193 155 154 151 195 195 222 232 228
1170.0 220 196 176 168 168 123 91 129 156 131
1210.0 158 164 161 175 178 200 221 295 410 591
1250.0 737 745 667 481 313 282 310 399 485 531
1290.0 545 494 455 472 490 554 636 689 757 847
1330.0 1037 1377 1974 2974 4242 5580 6510 6416 5679 3942
1370.0 2300 1411 1045 913 807 699 616 517 432 377
1410.0 356 369 422 474 528 582 650 605 611 645
1450.0 847 1153 1482 1580 1467 1096 724 505 443 519
1490.0 610 700 808 1000 1191 1531 1943 2390 2962 3546
1530.0 4152 4852 5743 7284 8786 10000 9857 8350 6378 4977
1570.0 4253 4051 4355 4911 5284 4956 4142 2886 1765 1006
1610.0 715 565 477 410 389 344 314 282 267 228
1650.0 221 124 169 162 166 145 169 133 161 109
1690.0 119 120 92 102 125 153 164 167 177 169
1730.0 163 133 102 109 103 118 113 93 92 88
1770.0 77 83 66 97 96 108 132 155 192 200
1810.0 193 161 133 109 88 105 109 132 125 134
1850.0 106 86 77 72 74 66 72 67 80 84
1890.0 90 94 86 89 88 99 126 153 190 194
1930.0 170 141 111 100 105 123 154 152 144 124
1970.0 89 69 46 46 44 46 47 42 44 43
2010.0 42 42 45 44 43 39 45 36 48 44
2050.0 43 40 40 41 43 30 33 33 28 30
2090.0 31 31 28 32 30 36 30 29 26 36
2130.0 37 37 28 23 31 29 26 26 32 32
2170.0 31 36 33 37 32 29 32 28 24 24
2210.0 17 25 23 17 23 21 26 25 29 32
2250.0 31 37 29 37 38 40 44 45 42 55
2290.0 51 58 62 62 66 76 68 61 69 63
2330.0 56 58 42 17 48 49 56 54 52 69
2370.0 50 57 65 81 81 76 76 67 62 62
2410.0 51 48 50 49 45 47 45 45 27 32
2450.0 42 38 41 32 41 31 38 34 31 38
2490.0 37 41 42 34 40 32 33 32 36 32
2530.0 34 39 40 39 44 30 32 45 36 47
2570.0 47 44 50 54 62 61 62 75 69 70
2610.0 68 62 56 46 37 41 28 36 37 40
2650.0 43 38 48 44 48 58 56 61 64 74
2690.0 84 89 94 94 97 96 89 89 74 63
2730.0 66 65 58 58 54 54 47 47 41 36
2770.0 49 47 55 45 45 49 53 53 55 55
2810.0 50 53 58 59 62 63 68 80 76 84
2850.0 99 108 118 133 146 146 167 177 183 203
2890.0 206 219 231 218 208 181 161 144 141 134
2930.0 138 120 110 112 87 80 68 70 66 72
2970.0 68 50 54 63 65 76 73 72 67 69
3010.0 66 68 66 72 68 65 67 84 80 81
3050.0 84 107 136 209 356 569 797 911 867 687
3090.0 453 246 161 105 68 62 49 60 57 53
3130.0 67 72 79 78 78 72 47 57 54 50
3170.0 40 46 46 45 28 32 30 38 27 33
3210.0 34 30 36 29 22 39 33 23 25 23
3250.0 26 29 45 37 37 39 19 24 31 39
3290.0 52 48 21 41 48 45 44 42 46 45
3330.0 36 17 40 36 37 52 37 37 53 33
3370.0 52 46 39 64 44 63 31 42 40 43
3410.0 51 50 52 59 58 52 63 39 48 37
3450.0 55 47 26 53 68 54 40 64 60 69
3490.0 45 59 54 78 48 57 49 39 79 61
3530.0 52 60 58 76 82 79 61 69 58 68
3570.0 56 46 42 43 36 49 48 63 54 55
3610.0 85 65 55 53 52 61 58 63 58 44
3650.0 58 58 72 64 36 64 36 48 47 78
3690.0 43 62 83 64 90 75 88 75 76 114
3730.0 92 55 82 88 90 33 70 94 87 90
3770.0 82 102 88 62 83 94 87 57 53 84
3810.0 70 68 45 38 74 79 91 53 71 68
3850.0 63 46 72 78 17 17 90 67 84 46
3890.0 37 79 110 77 131 99 126 36 54 131
3930.0 24 107 64 71 95 83 114 58 27 68
##END=
