##TITLE=Phenol, 2,4-dichloro-6-nitro-
##JCAMP-DX=4.24
##DATA TYPE=INFRARED SPECTRUM
##ORIGIN=Sadtler Research Labs Under US-EPA Contract
##OWNER=NIST Standard Reference Data Program
##CAS REGISTRY NO=609-89-2
##MOLFORM=C 6 H 3 Cl 2 N O 3
##XUNITS=1/CM
##YUNITS=ABSORBANCE
##XFACTOR=1.0
##YFACTOR=0.000051514
##DELTAX=4.0
##FIRSTX=450.0
##LASTX=3966.0
##FIRSTY=0.005254
##MAXX=3966
##MINX=450
##MAXY=0.51514
##MINY=0
##NPOINTS=880
##XYDATA=(X++(Y..Y))
450.0 102 129 124 206 195 77 103 40 2 72
490.0 96 59 49 149 99 143 234 146 108 183
530.0 181 147 204 332 313 397 673 656 937 758
570.0 513 269 248 259 136 276 295 139 381 463
610.0 411 586 928 832 712 612 574 520 709 861
650.0 878 852 989 1044 1032 1226 1294 1325 1475 1617
690.0 1483 1494 1386 1127 1116 1107 1202 1639 2338 2956
730.0 3070 2813 2031 1192 924 1034 1394 2026 2977 3581
770.0 3282 2916 2012 998 604 405 323 336 352 276
810.0 294 277 214 204 203 146 165 221 241 297
850.0 583 882 1034 1158 1204 1201 1477 1741 1221 861
890.0 795 865 1123 1414 1386 1058 651 346 192 148
930.0 164 114 124 124 102 112 140 139 144 157
970.0 147 128 132 161 133 129 178 177 171 187
1010.0 211 199 230 228 187 202 233 226 214 252
1050.0 214 224 279 292 330 465 623 818 1085 1190
1090.0 1132 990 791 682 645 654 646 725 994 1251
1130.0 1439 1739 2140 2779 3810 4735 4988 4727 3851 2925
1170.0 2247 1757 1417 1103 903 745 596 535 534 534
1210.0 669 998 1452 2141 3207 4319 5229 6108 6719 6917
1250.0 6596 5807 4270 2936 2179 1724 1492 1346 1171 1047
1290.0 1040 1166 1489 1930 2332 2602 2925 3506 4178 4908
1330.0 5785 6326 6426 6180 5447 4469 3718 3042 2407 2001
1370.0 1750 1463 1229 1128 1133 1375 2006 3062 4410 5804
1410.0 6405 5914 4871 3673 2906 2670 2674 2590 2432 2458
1450.0 2667 3214 4104 4678 4643 4067 3022 1993 1344 1065
1490.0 997 966 1013 1001 1079 1228 1426 1672 1985 2276
1530.0 2618 3266 4520 6475 8552 10000 9423 7296 4544 2777
1570.0 1776 1336 1100 933 810 739 712 820 1111 1494
1610.0 1848 2047 1851 1399 878 498 317 213 202 210
1650.0 186 227 199 228 255 282 238 206 200 143
1690.0 111 151 123 111 133 114 126 160 128 150
1730.0 191 238 187 222 272 292 312 361 399 423
1770.0 446 402 302 253 214 173 170 178 148 129
1810.0 138 116 96 89 75 54 60 53 43 58
1850.0 52 31 39 48 48 40 41 35 29 43
1890.0 60 37 38 58 36 46 57 56 46 54
1930.0 35 24 32 38 10 13 27 19 15 26
1970.0 16 17 25 14 9 24 32 15 14 36
2010.0 24 23 43 34 23 33 22 13 24 23
2050.0 8 14 23 6 18 21 14 12 13 11
2090.0 3 13 18 5 16 21 10 10 21 10
2130.0 1 19 10 0 20 19 8 24 23 13
2170.0 14 28 20 16 28 26 19 18 24 17
2210.0 20 23 13 4 28 15 14 34 34 25
2250.0 37 31 24 34 40 28 41 43 35 50
2290.0 80 90 121 149 168 181 189 196 187 175
2330.0 189 144 134 174 139 177 254 217 147 132
2370.0 83 44 50 71 47 30 30 23 21 30
2410.0 30 20 41 40 29 33 50 39 39 49
2450.0 40 30 47 38 27 49 48 34 48 46
2490.0 42 44 46 40 26 47 46 47 48 67
2530.0 47 68 92 75 71 75 57 56 64 55
2570.0 35 56 44 42 49 55 45 44 55 50
2610.0 44 63 54 44 53 60 44 45 60 37
2650.0 43 55 32 33 50 44 34 52 51 41
2690.0 65 70 66 76 85 84 77 79 72 60
2730.0 61 59 32 40 49 30 39 56 43 49
2770.0 77 70 68 87 97 88 107 135 123 130
2810.0 141 130 125 143 127 106 125 135 127 138
2850.0 163 157 173 199 181 185 213 191 188 218
2890.0 210 190 220 227 217 225 238 223 218 235
2930.0 207 183 179 162 121 132 138 112 113 128
2970.0 91 90 115 84 88 101 92 82 111 100
3010.0 89 104 108 88 79 90 85 76 90 85
3050.0 70 80 99 81 91 107 98 115 163 186
3090.0 230 325 407 495 566 510 390 281 219 180
3130.0 193 211 211 223 257 265 274 296 317 317
3170.0 369 437 447 502 595 637 698 822 858 930
3210.0 1057 1109 1168 1238 1284 1310 1358 1394 1365 1356
3250.0 1361 1303 1264 1256 1193 1139 1100 1077 1010 984
3290.0 977 927 877 882 836 812 832 805 765 781
3330.0 772 722 726 700 646 640 642 597 584 571
3370.0 549 512 504 503 436 437 440 394 390 416
3410.0 367 339 354 334 292 327 320 270 274 279
3450.0 247 239 262 233 221 235 223 209 230 235
3490.0 194 205 230 188 191 215 200 182 201 202
3530.0 164 192 185 165 202 203 220 258 288 269
3570.0 251 225 200 154 163 159 104 104 113 86
3610.0 91 113 75 59 82 81 48 62 45 38
3650.0 55 55 34 28 28 30 24 40 24 23
3690.0 24 29 7 25 16 1 1 34 13 5
3730.0 20 26 1 23 8 1 1 1 1 1
3770.0 1 1 1 1 1 1 1 2 1 1
3810.0 1 1 1 1 1 1 7 1 1 2
3850.0 1 1 1 1 1 1 1 1 1 1
3890.0 1 1 1 1 1 1 1 1 1 1
3930.0 1 1 1 1 1 1 1 1 1 1
##END=
