##TITLE=Propanedioic acid, methyl-, diethyl ester
##JCAMP-DX=4.24
##DATA TYPE=INFRARED SPECTRUM
##ORIGIN=Sadtler Research Labs Under US-EPA Contract
##OWNER=NIST Standard Reference Data Program
##CAS REGISTRY NO=609-08-5
##MOLFORM=C 8 H 14 O 4
##XUNITS=1/CM
##YUNITS=ABSORBANCE
##XFACTOR=1.0
##YFACTOR=0.000056836
##DELTAX=4.0
##FIRSTX=450.0
##LASTX=3966.0
##FIRSTY=0.004263
##MAXX=3966
##MINX=450
##MAXY=0.56836
##MINY=0
##NPOINTS=880
##XYDATA=(X++(Y..Y))
450.0 75 115 110 118 123 112 73 67 53 36
490.0 136 109 81 58 11 25 24 54 83 17
530.0 32 12 116 68 61 94 56 79 104 193
570.0 180 202 188 192 230 243 173 185 179 139
610.0 157 191 189 149 141 159 187 132 191 193
650.0 233 173 184 197 142 398 282 311 324 340
690.0 289 248 298 225 234 214 254 206 191 146
730.0 210 213 197 184 161 187 174 246 267 266
770.0 242 258 284 290 269 285 270 272 325 268
810.0 291 239 279 263 245 272 282 304 321 398
850.0 453 582 730 753 814 726 570 455 349 319
890.0 282 218 278 221 232 244 250 282 249 321
930.0 271 243 238 256 278 209 237 227 247 249
970.0 205 249 269 225 291 304 356 367 460 564
1010.0 626 807 1040 1320 1570 1840 2052 2245 2279 2277
1050.0 2097 1861 1689 1572 1558 1823 2237 2663 3126 3320
1090.0 3489 3731 3799 3591 3261 2800 2596 2379 2475 2664
1130.0 2909 3266 3609 4203 4926 5468 5799 5745 5365 5076
1170.0 4798 4718 4703 4734 4730 4610 4497 4318 4151 4198
1210.0 4251 4344 4296 4102 3974 3742 3639 3755 3949 4160
1250.0 4277 4296 4167 3868 3543 3245 2814 2509 2256 2015
1290.0 1942 1995 2145 2391 2634 2925 3184 3403 3474 3382
1330.0 3102 2628 2119 1601 1223 973 834 813 962 1246
1370.0 1515 1625 1629 1477 1331 1225 1099 902 767 661
1410.0 609 567 556 522 501 511 528 566 643 761
1450.0 887 1049 1232 1373 1438 1367 1214 992 811 623
1490.0 523 404 336 305 304 252 234 237 223 216
1530.0 214 223 204 187 176 169 182 200 191 165
1570.0 189 164 172 159 149 159 159 148 149 155
1610.0 147 157 150 161 175 157 146 155 164 172
1650.0 163 197 179 185 195 219 221 236 261 289
1690.0 306 332 378 440 513 607 726 865 1015 1253
1730.0 1633 2285 3366 4974 6961 8869 10000 9939 9448 8687
1770.0 7784 6415 4773 3261 2209 1566 1190 956 788 659
1810.0 560 478 416 362 320 287 253 231 214 195
1850.0 176 167 158 156 147 146 140 146 145 157
1890.0 145 151 143 147 144 136 136 135 126 124
1930.0 127 123 117 119 118 125 118 115 115 114
1970.0 113 114 104 103 106 104 104 95 94 103
2010.0 103 94 102 101 101 101 101 101 101 94
2050.0 99 100 90 100 98 99 99 99 106 98
2090.0 98 88 88 89 87 87 88 88 77 77
2130.0 77 76 77 67 67 68 66 66 66 61
2170.0 58 56 66 66 64 55 55 56 47 54
2210.0 54 54 54 54 54 60 61 61 60 60
2250.0 61 61 59 59 60 60 58 58 58 58
2290.0 66 66 74 83 94 99 102 106 115 127
2330.0 126 109 114 123 124 115 132 148 138 126
2370.0 107 92 83 63 54 50 50 49 49 49
2410.0 48 48 49 47 47 47 47 41 36 40
2450.0 37 37 36 37 43 36 36 35 38 37
2490.0 39 34 35 31 25 33 23 33 23 26
2530.0 25 21 22 22 32 21 21 21 21 20
2570.0 21 19 20 20 13 12 17 22 27 19
2610.0 27 19 25 26 16 17 22 23 16 15
2650.0 15 6 13 4 6 6 5 12 5 12
2690.0 10 14 13 11 17 12 14 21 21 29
2730.0 30 30 30 31 38 35 40 39 39 39
2770.0 46 56 57 48 58 48 55 57 47 58
2810.0 57 67 75 81 83 93 92 93 100 110
2850.0 119 120 146 147 181 211 267 349 450 535
2890.0 590 609 608 609 630 676 718 729 709 696
2930.0 728 842 1053 1323 1560 1659 1599 1458 1331 1289
2970.0 1364 1523 1851 2360 2862 3126 3088 2755 2365 1963
3010.0 1520 1136 824 594 449 345 273 222 176 149
3050.0 122 121 102 94 86 83 78 57 65 61
3090.0 56 59 53 52 52 60 52 50 40 53
3130.0 41 45 46 42 49 41 52 43 42 43
3170.0 33 35 43 36 32 32 38 34 33 27
3210.0 26 26 25 26 26 16 14 11 13 13
3250.0 17 8 15 17 15 18 9 9 1 4
3290.0 18 7 15 16 0 1 1 17 9 9
3330.0 17 17 16 17 2 14 14 3 4 16
3370.0 18 1 1 10 2 17 10 9 17 1
3410.0 6 15 19 2 10 11 11 2 9 11
3450.0 18 14 13 9 19 19 25 45 35 63
3490.0 64 81 99 106 79 79 58 47 45 27
3530.0 21 20 20 2 12 2 2 3 5 11
3570.0 11 20 20 20 11 11 3 3 2 2
3610.0 11 3 3 3 3 3 4 4 4 4
3650.0 11 12 11 4 3 14 7 2 8 11
3690.0 15 5 13 20 13 3 13 3 3 13
3730.0 13 12 12 22 22 22 12 13 12 21
3770.0 13 11 11 14 23 13 13 22 22 21
3810.0 14 21 21 13 15 19 23 21 17 21
3850.0 31 31 22 14 23 14 14 13 13 15
3890.0 9 8 9 6 6 6 6 6 6 15
3930.0 15 15 7 14 15 16 0 1 1 1
##END=
