##TITLE=Hexyl chloroformate
##JCAMP-DX=4.24
##DATA TYPE=INFRARED SPECTRUM
##ORIGIN=Sadtler Research Labs Under US-EPA Contract
##OWNER=NIST Standard Reference Data Program
##CAS REGISTRY NO=6092-54-2
##MOLFORM=C 7 H 13 Cl O 2
##XUNITS=1/CM
##YUNITS=ABSORBANCE
##XFACTOR=1.0
##YFACTOR=0.000072571
##DELTAX=4.0
##FIRSTX=450.0
##LASTX=3966.0
##FIRSTY=0.009216
##MAXX=3966
##MINX=450
##MAXY=0.72571
##MINY=0
##NPOINTS=880
##XYDATA=(X++(Y..Y))
450.0 127 104 82 96 109 90 184 185 243 212
490.0 155 98 78 99 97 81 72 114 105 90
530.0 110 79 93 81 71 80 60 71 1 39
570.0 39 26 41 40 21 8 39 13 5 41
610.0 57 25 30 42 37 27 36 52 44 55
650.0 62 53 71 57 63 71 81 134 166 204
690.0 269 285 268 219 174 151 124 104 124 129
730.0 143 134 110 98 96 101 86 107 129 125
770.0 135 144 151 169 207 264 326 387 430 485
810.0 541 584 630 712 800 873 883 835 747 630
850.0 512 419 348 282 255 234 229 226 216 215
890.0 235 233 234 236 228 218 198 194 170 162
930.0 151 145 156 156 159 163 168 170 175 181
970.0 180 196 206 228 244 247 241 222 209 193
1010.0 191 177 174 171 172 182 204 214 212 212
1050.0 205 211 219 223 220 227 233 246 255 267
1090.0 283 320 368 442 538 683 889 1190 1584 2122
1130.0 2851 3957 5543 7511 9235 10000 9756 8958 8097 6882
1170.0 5314 3641 2406 1664 1242 991 829 728 651 602
1210.0 561 529 497 470 449 446 445 456 467 486
1250.0 526 606 710 784 777 698 617 549 490 440
1290.0 393 354 333 321 311 287 251 220 195 184
1330.0 168 159 141 135 146 145 147 148 158 173
1370.0 199 236 298 359 365 330 257 202 172 142
1410.0 109 96 74 79 79 98 123 148 187 212
1450.0 256 310 389 470 537 548 487 390 283 186
1490.0 114 89 63 46 32 21 26 16 15 22
1530.0 10 14 9 1 0 11 12 3 10 15
1570.0 11 8 15 10 15 11 9 8 12 9
1610.0 12 13 11 15 10 17 12 9 14 13
1650.0 9 10 23 22 24 21 24 31 29 30
1690.0 37 43 41 42 53 65 71 72 92 109
1730.0 128 148 192 249 317 407 536 688 830 956
1770.0 1120 1442 2012 2889 4192 5560 6066 5482 3962 2530
1810.0 1651 1117 844 637 502 366 280 209 159 117
1850.0 94 83 62 61 47 42 45 38 37 36
1890.0 33 30 32 25 29 22 25 22 23 27
1930.0 28 32 27 31 30 30 33 35 33 35
1970.0 32 32 32 33 31 25 20 27 24 24
2010.0 26 23 23 23 23 27 26 25 25 22
2050.0 23 26 27 26 24 25 25 23 24 25
2090.0 24 19 19 17 15 19 20 17 14 17
2130.0 16 18 17 16 14 14 13 14 15 13
2170.0 15 15 15 13 11 15 12 12 11 10
2210.0 11 15 13 11 16 13 14 14 17 13
2250.0 18 22 28 30 31 35 39 46 46 49
2290.0 48 57 59 62 72 71 69 60 63 52
2330.0 52 41 35 33 40 50 52 41 20 34
2370.0 40 42 42 39 29 20 21 17 11 18
2410.0 19 17 12 13 14 12 8 15 8 9
2450.0 6 9 10 4 7 7 5 9 8 10
2490.0 7 4 4 9 11 4 7 11 8 8
2530.0 12 13 13 11 10 11 8 6 12 9
2570.0 10 11 15 13 17 16 15 21 19 14
2610.0 18 20 16 18 18 20 19 15 19 21
2650.0 21 18 17 16 23 26 29 27 30 31
2690.0 34 30 27 31 29 32 29 29 29 35
2730.0 32 35 38 44 43 43 41 41 43 40
2770.0 38 39 47 45 46 47 51 61 60 63
2810.0 68 74 90 99 104 118 135 157 179 216
2850.0 290 400 555 737 901 1015 1040 1016 990 956
2890.0 876 763 688 699 765 872 1008 1158 1352 1585
2930.0 1874 2148 2365 2461 2377 2135 1843 1700 1806 2091
2970.0 2392 2387 1978 1415 942 698 562 467 386 319
3010.0 253 202 166 145 124 102 97 86 76 68
3050.0 65 59 54 58 52 52 50 46 45 42
3090.0 45 38 37 33 33 34 38 32 29 34
3130.0 31 26 30 31 27 34 31 30 33 29
3170.0 29 24 28 34 26 26 25 23 27 27
3210.0 24 25 25 21 23 22 19 17 14 22
3250.0 19 15 11 20 18 15 18 17 18 13
3290.0 11 18 8 16 20 10 10 6 10 10
3330.0 17 18 13 7 14 16 12 21 17 12
3370.0 15 16 12 20 13 16 14 12 19 20
3410.0 21 20 26 20 20 22 28 11 13 21
3450.0 18 11 12 19 17 23 10 18 9 16
3490.0 18 13 18 11 12 11 16 20 13 11
3530.0 14 18 20 24 24 26 35 38 41 50
3570.0 37 33 15 8 6 3 10 15 8 22
3610.0 14 22 17 15 16 26 28 22 25 25
3650.0 19 25 19 34 30 28 22 32 31 28
3690.0 24 15 24 33 28 18 19 30 17 29
3730.0 23 33 30 29 40 32 47 35 12 34
3770.0 31 22 25 30 24 21 26 32 25 41
3810.0 29 26 37 24 38 11 28 42 29 19
3850.0 37 33 36 38 36 35 43 38 33 22
3890.0 40 24 20 26 35 25 31 27 13 14
3930.0 28 18 41 39 26 17 35 26 25 13
##END=
