##TITLE=Trihexyl phosphite
##JCAMP-DX=4.24
##DATA TYPE=INFRARED SPECTRUM
##ORIGIN=Sadtler Research Labs Under US-EPA Contract
##OWNER=NIST Standard Reference Data Program
##CAS REGISTRY NO=6095-42-7
##MOLFORM=C 18 H 39 O 3 P
##XUNITS=1/CM
##YUNITS=ABSORBANCE
##XFACTOR=1.0
##YFACTOR=0.000122916
##DELTAX=4.0
##FIRSTX=450.0
##LASTX=3966.0
##FIRSTY=0.003319
##MAXX=3966
##MINX=450
##MAXY=1.22916
##MINY=0
##NPOINTS=880
##XYDATA=(X++(Y..Y))
450.0 27 0 187 381 19 305 56 248 247 245
490.0 158 233 315 196 256 212 255 362 234 219
530.0 213 223 283 202 171 262 190 303 246 146
570.0 164 187 129 74 55 92 134 35 44 127
610.0 123 94 59 56 117 110 69 87 36 72
650.0 86 161 128 151 228 256 336 312 366 526
690.0 575 780 920 1118 1480 1824 2086 2024 2097 2047
730.0 1933 1985 1993 1998 1964 1979 1999 1962 2036 2010
770.0 2260 2386 2450 2411 2233 2137 1925 1808 1572 1475
810.0 1350 1218 1123 1125 1119 1119 1167 1184 1147 1174
850.0 1204 1148 1200 1083 1055 1033 955 925 942 929
890.0 997 899 965 949 935 958 1030 1174 1469 1820
930.0 2403 3050 3544 3705 3726 3545 3383 3281 3240 3309
970.0 3240 3258 3367 3424 3741 4200 4974 5832 6995 7778
1010.0 8071 7979 7484 6539 5801 5307 5157 5181 5116 5130
1050.0 5130 4965 4565 3938 3377 2967 2684 2454 2145 1906
1090.0 1624 1323 1104 999 870 826 823 831 771 735
1130.0 663 638 584 549 520 441 444 372 354 336
1170.0 303 298 294 240 333 343 360 430 380 437
1210.0 433 428 475 457 414 495 514 444 460 441
1250.0 458 489 514 546 583 674 726 750 777 732
1290.0 687 700 687 662 620 546 464 407 369 333
1330.0 332 339 371 364 393 411 423 451 457 492
1370.0 590 737 991 1234 1297 1062 758 537 396 323
1410.0 296 278 287 293 327 389 457 579 646 691
1450.0 807 922 1067 1189 1239 1275 1179 967 738 503
1490.0 415 327 268 237 208 188 176 152 155 141
1530.0 153 142 151 132 146 140 138 134 126 141
1570.0 122 130 127 124 152 131 129 143 112 128
1610.0 119 99 95 97 103 102 100 100 96 106
1650.0 95 108 100 109 95 90 96 79 91 76
1690.0 85 88 92 91 103 102 110 120 120 119
1730.0 118 114 111 107 112 115 124 120 112 104
1770.0 102 86 82 80 75 70 72 69 77 71
1810.0 68 69 62 62 58 53 49 43 41 35
1850.0 38 31 47 35 37 40 33 34 27 26
1890.0 26 22 18 17 17 20 20 22 23 26
1930.0 22 23 23 18 18 17 20 20 19 22
1970.0 22 25 25 21 23 24 26 24 23 20
2010.0 24 28 26 32 31 32 34 32 31 29
2050.0 28 23 25 22 20 20 17 16 17 17
2090.0 16 17 13 14 8 8 3 4 1 6
2130.0 7 5 4 7 10 11 8 8 10 8
2170.0 6 7 5 6 6 10 7 10 9 10
2210.0 9 7 1 3 3 5 3 3 1 6
2250.0 6 7 8 8 5 1 5 10 5 5
2290.0 8 8 14 20 25 31 32 37 41 34
2330.0 35 29 39 31 36 43 54 45 71 55
2370.0 57 46 34 34 27 24 22 22 23 25
2410.0 30 31 34 37 34 34 35 31 29 23
2450.0 14 12 7 9 10 8 9 8 9 8
2490.0 9 2 4 4 3 3 5 7 11 14
2530.0 17 18 21 18 18 20 21 20 26 27
2570.0 34 35 42 47 49 51 49 50 54 47
2610.0 51 50 52 51 57 59 66 75 76 76
2650.0 76 83 89 93 103 101 109 110 121 118
2690.0 123 129 130 129 130 130 133 139 152 167
2730.0 190 206 221 232 233 230 228 219 206 198
2770.0 193 197 201 208 221 240 256 276 303 324
2810.0 359 392 437 489 555 634 736 877 1080 1357
2850.0 1732 2209 2784 3395 3915 4335 4625 4740 4729 4488
2890.0 4056 3744 3637 3793 4174 4718 5345 5988 6813 7756
2930.0 8782 9659 9893 10000 9524 8676 8121 7702 7906 8113
2970.0 7707 6506 4741 3341 2413 1806 1416 1135 928 773
3010.0 667 592 526 465 428 382 353 325 292 273
3050.0 245 232 219 199 188 177 175 174 166 163
3090.0 147 142 132 127 126 110 110 102 93 94
3130.0 101 101 92 84 92 83 77 72 76 75
3170.0 67 65 68 70 67 73 71 66 60 52
3210.0 49 40 32 33 34 32 33 27 33 27
3250.0 30 26 24 19 9 6 11 7 3 9
3290.0 13 14 16 15 17 23 18 21 11 8
3330.0 9 2 12 18 20 22 24 25 26 25
3370.0 17 21 20 14 20 17 19 18 20 24
3410.0 23 22 28 29 24 21 17 17 17 11
3450.0 19 24 19 26 21 24 22 20 17 17
3490.0 10 7 5 14 21 21 17 18 22 26
3530.0 22 14 17 14 10 17 17 14 17 18
3570.0 20 22 14 18 24 27 22 23 18 16
3610.0 13 15 25 19 25 26 45 44 47 44
3650.0 52 45 56 47 58 61 61 60 50 60
3690.0 42 57 33 27 37 18 18 28 12 25
3730.0 17 26 29 28 33 16 46 30 19 17
3770.0 22 16 16 27 34 18 25 25 25 23
3810.0 36 24 44 18 25 5 12 24 33 27
3850.0 32 12 41 50 33 41 32 14 22 17
3890.0 18 31 36 38 39 42 37 51 59 46
3930.0 35 37 39 19 10 6 9 37 36 44
##END=
