##TITLE=Benzene, 1-ethoxy-2-nitro-
##JCAMP-DX=4.24
##DATA TYPE=INFRARED SPECTRUM
##ORIGIN=Sadtler Research Labs Under US-EPA Contract
##OWNER=NIST Standard Reference Data Program
##CAS REGISTRY NO=610-67-3
##MOLFORM=C 8 H 9 N O 3
##XUNITS=1/CM
##YUNITS=ABSORBANCE
##XFACTOR=1.0
##YFACTOR=0.000177100
##DELTAX=4.0
##FIRSTX=450.0
##LASTX=3966.0
##FIRSTY=0.001948
##MAXX=3966
##MINX=450
##MAXY=1.771
##MINY=0
##NPOINTS=880
##XYDATA=(X++(Y..Y))
450.0 11 111 147 105 74 108 161 87 75 67
490.0 0 152 120 201 272 237 261 377 255 252
530.0 202 163 142 146 102 103 81 177 89 151
570.0 141 158 159 206 224 234 223 233 210 166
610.0 152 125 93 80 99 83 81 97 131 202
650.0 351 583 818 982 1042 955 744 531 427 331
690.0 368 394 459 533 590 592 559 550 536 605
730.0 838 1223 1770 2386 2947 2808 2486 2111 1805 1584
770.0 1309 1044 783 586 471 404 373 366 364 354
810.0 279 261 224 208 245 246 325 586 1096 1704
850.0 2013 2128 1850 1166 664 372 283 242 214 246
890.0 281 373 503 651 859 946 982 953 909 848
930.0 713 632 521 416 340 247 224 182 158 175
970.0 135 147 156 170 211 230 275 355 432 540
1010.0 694 939 1248 1623 2076 2602 3142 3467 3513 3285
1050.0 2637 1903 1334 998 830 728 758 878 1087 1369
1090.0 1563 1757 1716 1591 1452 1302 1197 1061 891 727
1130.0 631 654 776 874 936 967 1086 1143 1076 993
1170.0 792 537 379 306 302 306 331 363 398 456
1210.0 533 658 821 1053 1407 1897 2575 3399 4347 5197
1250.0 5666 5757 5369 5135 4908 4776 5011 5310 5375 4895
1290.0 4318 3818 3072 2626 2375 2044 1729 1453 1237 1143
1330.0 1121 1230 1479 1922 2693 3717 5019 5893 6260 5745
1370.0 4522 2947 1828 1447 1401 1596 1771 1793 1662 1366
1410.0 1060 824 701 637 581 579 602 671 783 943
1450.0 1118 1219 1310 1401 1658 2164 2774 3252 3656 4008
1490.0 4004 3942 3614 3214 2833 2619 2855 3034 3566 4044
1530.0 4655 6085 6890 8861 10000 9336 8683 6592 4862 3611
1570.0 3026 2639 2577 2694 2928 3303 3893 4210 5190 5681
1610.0 4901 5086 3265 2250 1524 909 744 550 450 402
1650.0 347 306 257 252 213 197 224 197 211 181
1690.0 172 178 169 136 144 132 136 129 118 123
1730.0 112 130 106 102 106 82 85 89 86 98
1770.0 87 105 101 112 109 114 110 107 107 99
1810.0 100 100 98 98 95 82 84 77 74 72
1850.0 67 65 68 66 68 80 81 80 85 85
1890.0 94 107 121 137 152 153 145 128 117 114
1930.0 120 141 154 160 146 127 101 78 64 58
1970.0 44 41 39 31 27 30 28 30 24 27
2010.0 36 43 45 49 59 55 60 57 64 68
2050.0 72 71 75 84 86 87 87 91 87 80
2090.0 67 56 47 37 34 27 27 25 21 26
2130.0 25 25 28 27 27 24 21 21 19 21
2170.0 16 17 16 13 16 13 16 12 12 15
2210.0 14 10 10 9 10 11 13 13 14 15
2250.0 14 15 21 21 24 27 26 32 33 35
2290.0 37 41 42 44 41 39 40 41 48 46
2330.0 37 42 41 30 31 38 38 48 48 45
2370.0 44 43 45 54 62 65 71 70 68 66
2410.0 61 57 57 49 49 40 42 43 44 44
2450.0 44 45 45 44 43 45 47 50 54 58
2490.0 62 65 67 70 71 73 72 74 70 71
2530.0 75 76 78 81 83 84 84 88 90 92
2570.0 87 78 72 62 55 52 50 49 48 46
2610.0 44 39 41 39 39 39 37 42 39 40
2650.0 40 39 42 41 42 42 46 44 48 50
2690.0 55 58 71 70 75 80 83 89 95 96
2730.0 99 105 109 108 109 110 111 111 104 106
2770.0 103 105 106 105 107 102 99 100 98 105
2810.0 108 116 129 142 152 166 178 193 209 223
2850.0 247 272 308 347 394 458 536 638 758 886
2890.0 1004 1081 1111 1094 1051 987 931 890 880 911
2930.0 998 1144 1297 1395 1418 1350 1212 1044 908 866
2970.0 883 959 1117 1338 1641 1875 1931 1892 1532 1152
3010.0 846 638 490 412 363 344 341 346 366 370
3050.0 363 356 351 361 404 490 627 777 883 898
3090.0 805 631 427 274 189 143 118 100 83 71
3130.0 66 58 53 49 49 46 43 41 37 36
3170.0 41 37 32 38 43 40 40 39 38 40
3210.0 38 41 36 30 34 33 33 23 22 24
3250.0 24 21 26 21 15 16 15 19 19 13
3290.0 21 19 18 21 22 23 14 17 23 20
3330.0 21 21 21 20 14 18 20 22 24 22
3370.0 21 21 18 25 15 18 22 25 26 24
3410.0 27 24 26 20 20 23 24 18 20 25
3450.0 21 20 21 19 23 17 17 21 25 24
3490.0 23 31 20 22 19 23 22 21 20 30
3530.0 25 23 22 24 24 25 24 28 21 19
3570.0 20 20 25 24 19 15 23 18 20 18
3610.0 16 25 13 12 23 14 20 17 25 26
3650.0 18 23 20 16 23 22 27 20 26 17
3690.0 24 24 26 29 29 21 20 25 34 27
3730.0 25 15 24 33 25 32 37 33 35 35
3770.0 20 17 26 22 36 32 16 23 29 27
3810.0 36 19 32 15 27 29 28 26 12 30
3850.0 29 36 33 25 34 10 33 21 37 36
3890.0 35 30 24 30 28 22 31 38 28 36
3930.0 19 25 37 30 36 32 35 49 38 36
##END=
