##TITLE=Benzene, 4-methyl-1,2-dinitro-
##JCAMP-DX=4.24
##DATA TYPE=INFRARED SPECTRUM
##ORIGIN=Sadtler Research Labs Under US-EPA Contract
##OWNER=NIST Standard Reference Data Program
##CAS REGISTRY NO=610-39-9
##MOLFORM=C 7 H 6 N 2 O 4
##XUNITS=1/CM
##YUNITS=ABSORBANCE
##XFACTOR=1.0
##YFACTOR=0.000289490
##DELTAX=4.0
##FIRSTX=450.0
##LASTX=3966.0
##FIRSTY=0.000000
##MAXX=3966
##MINX=450
##MAXY=2.8949
##MINY=0
##NPOINTS=880
##XYDATA=(X++(Y..Y))
450.0 0 164 180 192 280 169 255 208 257 213
490.0 257 228 208 237 220 246 201 247 208 229
530.0 232 236 235 225 250 241 259 264 308 284
570.0 292 301 305 293 194 244 256 266 234 253
610.0 234 284 290 321 312 284 254 207 205 187
650.0 192 195 218 265 322 363 364 357 291 277
690.0 225 225 200 205 199 223 235 222 236 239
730.0 275 278 350 370 365 376 385 369 335 293
770.0 250 248 261 330 474 768 987 986 988 705
810.0 467 385 474 650 841 1152 1345 1481 1747 1692
850.0 1451 975 447 261 202 200 204 229 259 296
890.0 308 258 240 207 216 232 265 289 285 269
930.0 222 197 166 172 169 178 180 197 200 184
970.0 180 171 172 164 176 169 172 171 170 172
1010.0 164 172 163 168 163 176 177 191 204 214
1050.0 221 215 223 211 222 218 220 212 207 201
1090.0 192 197 190 195 184 194 186 190 192 205
1130.0 229 258 286 276 266 227 214 200 207 214
1170.0 215 221 209 209 192 198 192 199 199 218
1210.0 246 269 300 296 291 253 247 239 246 251
1250.0 253 250 250 264 259 287 268 291 304 355
1290.0 401 436 463 482 515 567 648 740 783 868
1330.0 1040 1323 1878 2551 3367 4224 4970 5069 4407 3493
1370.0 2413 1815 1317 1031 924 846 856 839 691 582
1410.0 571 440 655 491 499 434 521 503 401 413
1450.0 442 513 666 515 496 502 719 632 562 700
1490.0 830 703 758 697 799 1050 859 1087 1263 1509
1530.0 1699 2127 2964 3466 5038 5145 10000 5457 9613 9131
1570.0 7210 6118 4553 3997 2997 2494 1955 1602 1306 1114
1610.0 986 826 824 640 677 499 562 569 442 469
1650.0 577 571 401 346 358 361 440 262 446 454
1690.0 328 279 490 468 385 286 353 513 294 230
1730.0 301 460 306 287 348 396 311 296 316 257
1770.0 357 376 271 298 265 297 313 280 307 215
1810.0 221 230 192 215 242 270 233 190 266 311
1850.0 244 179 197 189 221 279 186 178 171 192
1890.0 209 205 186 185 200 211 236 243 273 214
1930.0 194 187 178 219 201 173 171 184 164 194
1970.0 178 172 166 168 166 201 199 171 173 169
2010.0 169 179 194 176 169 170 158 172 176 171
2050.0 162 166 161 169 183 164 165 162 168 163
2090.0 175 164 166 164 163 168 164 166 165 170
2130.0 164 170 168 169 168 169 169 163 166 163
2170.0 165 164 168 165 166 169 168 166 163 168
2210.0 164 169 166 168 164 165 169 162 163 161
2250.0 165 159 163 162 162 164 165 166 163 169
2290.0 165 165 162 168 163 161 163 158 162 158
2330.0 162 158 162 158 169 166 166 173 158 164
2370.0 161 171 169 173 176 178 183 184 186 186
2410.0 189 185 186 182 182 179 175 173 170 171
2450.0 168 170 166 170 169 171 171 172 177 173
2490.0 176 175 177 175 175 175 173 175 172 173
2530.0 171 172 171 172 170 171 171 169 172 170
2570.0 173 170 175 176 176 179 179 183 183 187
2610.0 184 186 183 184 182 184 184 183 185 184
2650.0 189 187 193 192 197 198 200 205 204 212
2690.0 211 216 216 220 215 213 211 206 205 199
2730.0 197 192 192 189 193 193 192 192 187 187
2770.0 184 185 182 185 182 184 182 184 186 185
2810.0 189 187 193 192 195 197 200 206 209 219
2850.0 225 239 247 266 284 308 325 337 348 351
2890.0 358 364 377 380 390 396 394 393 392 403
2930.0 419 449 470 475 453 420 374 340 313 291
2970.0 280 268 263 250 247 244 249 256 268 283
3010.0 285 290 287 283 271 269 272 283 305 325
3050.0 341 337 327 300 279 259 255 255 249 244
3090.0 234 222 213 213 206 206 202 201 192 186
3130.0 184 177 180 172 172 171 172 171 169 169
3170.0 169 173 169 172 170 172 171 176 178 175
3210.0 178 175 178 171 176 170 172 170 169 169
3250.0 166 171 165 169 168 170 166 166 169 168
3290.0 169 169 170 168 170 170 171 169 170 171
3330.0 168 173 168 173 168 172 168 168 171 171
3370.0 171 169 173 171 176 170 173 172 175 175
3410.0 171 175 172 176 168 175 170 171 172 172
3450.0 173 168 172 168 172 168 171 168 166 168
3490.0 166 165 165 170 163 172 168 171 164 165
3530.0 169 165 171 166 171 165 170 169 169 166
3570.0 165 169 168 176 171 171 162 170 170 168
3610.0 168 166 169 164 178 165 175 170 175 171
3650.0 178 187 173 182 166 177 161 175 176 173
3690.0 180 165 176 169 179 173 176 173 177 175
3730.0 177 177 176 177 183 180 177 182 175 178
3770.0 177 180 178 175 183 177 177 175 175 185
3810.0 171 178 179 180 175 180 171 179 177 171
3850.0 178 171 180 172 177 170 182 176 168 180
3890.0 171 184 166 192 172 186 168 182 179 178
3930.0 184 171 184 175 185 164 185 171 182 172
##END=
