##TITLE=Benzene, 1-ethoxy-2,4-dinitro-
##JCAMP-DX=4.24
##DATA TYPE=INFRARED SPECTRUM
##ORIGIN=Sadtler Research Labs Under US-EPA Contract
##OWNER=NIST Standard Reference Data Program
##CAS REGISTRY NO=610-54-8
##MOLFORM=C 8 H 8 N 2 O 5
##XUNITS=1/CM
##YUNITS=ABSORBANCE
##XFACTOR=1.0
##YFACTOR=0.000085605
##DELTAX=4.0
##FIRSTX=450.0
##LASTX=3966.0
##FIRSTY=0.009759
##MAXX=3966
##MINX=450
##MAXY=0.85605
##MINY=0
##NPOINTS=880
##XYDATA=(X++(Y..Y))
450.0 114 97 92 132 40 61 1 23 21 39
490.0 59 62 49 89 82 91 81 108 96 95
530.0 55 44 37 19 30 9 5 2 27 21
570.0 17 13 13 34 18 15 24 13 18 13
610.0 40 44 87 129 216 317 390 438 471 426
650.0 340 228 176 204 233 418 577 684 803 818
690.0 828 762 700 654 643 672 719 743 735 663
730.0 641 726 870 1068 979 738 534 400 330 272
770.0 244 253 241 227 196 175 162 146 140 172
810.0 261 408 641 862 1237 1705 1764 1391 807 372
850.0 237 149 131 116 109 114 122 123 145 177
890.0 240 329 442 606 755 887 950 1023 1190 1330
930.0 1279 990 632 374 219 161 132 125 130 127
970.0 121 127 132 138 173 202 235 301 379 490
1010.0 649 885 1205 1563 1875 2025 1963 1709 1402 1126
1050.0 954 918 1068 1460 1940 2107 1787 1259 879 766
1090.0 761 737 671 608 579 573 541 513 525 613
1130.0 769 962 1163 1381 1544 1458 1075 612 348 248
1170.0 196 177 165 172 177 200 221 254 281 298
1210.0 327 352 394 461 557 690 880 1130 1428 1762
1250.0 2137 2604 3167 3743 4147 4431 4744 5356 6001 6122
1290.0 5386 4119 3048 2469 2199 2021 1873 1735 1754 1997
1330.0 2572 3577 5115 7114 9017 10000 9150 6981 4631 3071
1370.0 2111 1484 1143 988 1010 1143 1325 1405 1311 1099
1410.0 910 816 798 762 692 635 588 593 612 648
1450.0 701 747 830 930 1149 1558 2035 2302 2412 2621
1490.0 3044 3374 3128 2533 2000 1788 1777 1944 2253 2709
1530.0 3345 4328 5824 7459 8803 9121 8740 7338 5581 4046
1570.0 2938 2369 2173 2180 2352 2753 3432 4451 5775 7034
1610.0 7150 5757 3799 2302 1448 1003 764 597 491 415
1650.0 363 314 266 206 170 139 122 99 100 101
1690.0 92 85 89 78 55 41 35 42 30 34
1730.0 34 39 26 19 20 19 20 18 29 27
1770.0 35 35 31 28 27 29 33 35 41 48
1810.0 56 60 61 61 49 44 30 20 16 17
1850.0 10 5 7 3 8 11 9 10 13 20
1890.0 32 43 57 67 72 76 68 60 55 49
1930.0 44 40 37 30 30 24 23 20 18 18
1970.0 14 13 11 9 9 8 5 5 3 1
2010.0 1 0 2 5 9 13 17 19 25 27
2050.0 30 33 34 39 44 53 54 59 57 52
2090.0 43 34 25 18 16 15 16 11 9 12
2130.0 9 5 5 6 5 7 5 6 5 7
2170.0 6 6 7 11 10 9 9 9 11 6
2210.0 12 10 9 5 5 4 2 2 2 1
2250.0 1 7 9 9 17 22 25 23 25 22
2290.0 24 20 22 26 21 25 21 20 30 29
2330.0 31 34 37 34 34 18 17 13 30 31
2370.0 41 48 46 47 36 32 32 31 27 31
2410.0 31 31 32 29 31 30 32 33 31 30
2450.0 29 27 30 31 34 37 41 44 45 49
2490.0 49 50 47 43 41 41 43 44 43 48
2530.0 52 57 61 69 72 74 86 88 86 87
2570.0 80 74 66 66 67 71 71 73 71 69
2610.0 68 62 61 57 54 52 48 43 42 42
2650.0 39 40 38 38 36 39 36 41 44 52
2690.0 54 58 59 59 63 62 59 63 61 65
2730.0 66 75 79 80 83 87 89 85 79 71
2770.0 73 71 74 75 76 75 73 71 70 70
2810.0 73 78 84 89 95 107 113 122 132 138
2850.0 134 140 160 197 231 267 309 354 399 446
2890.0 488 520 543 544 530 495 453 408 364 346
2930.0 381 456 569 692 787 795 716 591 488 450
2970.0 439 448 480 555 684 850 965 1007 942 727
3010.0 513 358 254 205 169 145 134 122 112 100
3050.0 100 96 97 95 91 96 110 140 186 269
3090.0 380 469 489 431 327 232 172 133 102 74
3130.0 54 43 40 36 31 32 31 24 16 14
3170.0 16 13 13 15 12 12 15 21 18 18
3210.0 27 34 36 34 37 32 32 27 28 27
3250.0 24 26 25 19 20 25 21 21 18 16
3290.0 16 18 13 16 14 5 13 13 8 9
3330.0 14 17 19 15 8 8 14 12 15 18
3370.0 9 14 10 17 18 26 23 17 22 24
3410.0 16 12 17 10 15 8 13 12 8 5
3450.0 8 9 7 11 18 6 5 14 14 10
3490.0 13 11 15 16 13 15 13 7 11 10
3530.0 10 10 10 13 11 13 12 6 6 5
3570.0 6 11 4 16 8 3 0 2 7 24
3610.0 5 4 0 8 6 10 6 11 10 9
3650.0 10 9 15 5 3 7 11 11 9 9
3690.0 10 6 9 17 19 17 20 13 17 17
3730.0 5 18 15 8 9 13 16 9 14 13
3770.0 5 21 9 7 11 6 9 20 5 7
3810.0 6 4 2 1 3 4 20 0 1 18
3850.0 2 0 3 4 9 9 1 8 19 10
3890.0 10 4 15 2 5 4 13 25 11 0
3930.0 6 7 12 0 3 0 2 6 2 10
##END=
