##TITLE=2',4'-Dinitroacetanilide
##JCAMP-DX=4.24
##DATA TYPE=INFRARED SPECTRUM
##ORIGIN=Sadtler Research Labs Under US-EPA Contract
##OWNER=NIST Standard Reference Data Program
##CAS REGISTRY NO=610-53-7
##MOLFORM=C 8 H 7 N 3 O 5
##XUNITS=1/CM
##YUNITS=ABSORBANCE
##XFACTOR=1.0
##YFACTOR=0.000134833
##DELTAX=4.0
##FIRSTX=450.0
##LASTX=3966.0
##FIRSTY=0.021708
##MAXX=3966
##MINX=450
##MAXY=1.34833
##MINY=0
##NPOINTS=880
##XYDATA=(X++(Y..Y))
450.0 161 196 3 94 64 146 54 6 109 205
490.0 75 17 66 104 215 340 375 400 380 223
530.0 200 183 275 308 314 455 105 140 197 158
570.0 122 211 203 236 274 308 372 262 176 204
610.0 203 235 236 163 244 278 245 251 310 334
650.0 337 359 465 543 480 563 628 595 623 548
690.0 515 465 444 487 542 712 943 1196 1228 1073
730.0 834 789 931 979 811 519 324 202 177 162
770.0 140 154 136 95 124 110 110 108 98 127
810.0 166 150 249 408 614 898 1178 1295 1258 1066
850.0 741 442 252 147 69 104 79 83 105 104
890.0 129 176 269 403 590 709 684 585 425 291
930.0 168 144 134 146 207 210 184 163 150 189
970.0 211 261 322 382 495 611 694 661 568 395
1010.0 343 263 247 212 208 211 252 255 276 292
1050.0 326 398 502 655 800 836 744 564 450 353
1090.0 322 269 251 277 229 248 310 418 445 549
1130.0 628 732 963 1419 1665 1444 936 537 388 363
1170.0 368 408 478 594 753 937 1232 1624 2255 3052
1210.0 3790 4141 3767 2976 2092 1482 1149 972 921 952
1250.0 1038 1193 1420 1738 2103 2412 2652 2761 2754 2603
1290.0 2360 2128 2013 1970 1845 1632 1530 1656 2115 2964
1330.0 4434 6498 8837 9774 8852 6774 4745 3425 2622 2360
1370.0 2373 2355 2258 2123 2058 2153 2259 2288 2133 1804
1410.0 1433 1204 964 970 987 1107 1156 1327 1543 1718
1450.0 2081 2354 2527 2653 2363 2015 1743 1777 2209 2823
1490.0 3817 5077 6820 8536 9665 10000 8096 6215 4389 3492
1530.0 2938 2839 2938 3130 3180 2743 2132 1705 1689 1687
1570.0 1635 1611 1663 1942 2381 3068 4101 4648 5791 5678
1610.0 5219 4822 3448 2514 1552 1086 827 655 592 463
1650.0 342 297 303 287 264 227 212 270 206 207
1690.0 232 250 209 265 366 469 539 548 675 871
1730.0 1094 1640 2698 3297 3310 2607 1538 860 575 445
1770.0 377 317 296 222 171 154 134 163 157 188
1810.0 173 141 147 125 105 77 82 77 46 21
1850.0 30 44 36 36 25 3 29 25 29 21
1890.0 17 24 28 30 24 18 12 8 2 18
1930.0 25 29 37 31 37 45 38 32 26 16
1970.0 15 17 14 13 12 0 0 7 9 6
2010.0 9 7 1 7 6 8 11 8 9 13
2050.0 13 12 16 10 6 7 11 11 13 18
2090.0 16 20 18 22 23 27 30 28 31 27
2130.0 25 21 18 20 19 21 25 27 31 28
2170.0 23 24 17 19 18 13 15 15 15 19
2210.0 19 14 18 13 14 10 6 11 12 14
2250.0 16 15 12 9 9 8 12 9 8 7
2290.0 8 10 8 11 8 0 10 14 14 19
2330.0 18 9 11 11 28 22 15 17 38 13
2370.0 15 18 16 20 16 18 20 25 29 27
2410.0 28 29 30 31 29 27 28 28 30 33
2450.0 35 35 38 37 40 43 41 35 33 37
2490.0 32 28 31 28 28 27 24 27 29 31
2530.0 34 36 33 40 35 40 40 45 44 43
2570.0 49 43 46 46 42 43 48 48 53 52
2610.0 50 44 36 36 35 34 34 35 38 36
2650.0 33 35 36 33 34 44 44 46 45 43
2690.0 43 46 45 41 38 37 40 40 42 47
2730.0 49 51 47 50 53 52 53 55 55 52
2770.0 50 49 48 49 50 50 57 51 57 60
2810.0 59 61 58 65 73 74 80 81 87 88
2850.0 94 94 95 102 99 104 116 122 135 129
2890.0 125 113 103 104 97 94 98 94 96 102
2930.0 102 114 128 134 127 124 113 105 99 87
2970.0 90 83 82 75 70 68 70 75 78 77
3010.0 85 90 85 87 93 100 101 100 102 103
3050.0 110 110 113 118 122 131 142 151 165 177
3090.0 186 213 244 284 326 345 338 319 296 285
3130.0 281 259 207 155 116 83 73 61 59 56
3170.0 44 56 53 62 53 48 53 58 56 60
3210.0 63 63 58 70 61 61 62 61 62 67
3250.0 71 64 58 66 65 64 70 80 81 83
3290.0 83 92 98 112 124 129 138 158 173 188
3330.0 208 233 257 291 338 413 513 619 760 888
3370.0 996 1095 1146 1156 1121 1040 949 849 716 595
3410.0 495 409 328 249 207 171 148 133 106 91
3450.0 76 90 86 73 85 69 66 69 62 60
3490.0 40 36 39 42 43 34 45 28 31 42
3530.0 27 34 37 29 40 26 30 30 23 26
3570.0 33 15 37 21 30 37 30 23 32 22
3610.0 25 27 24 29 18 13 24 24 20 23
3650.0 9 43 17 24 9 17 26 20 27 1
3690.0 20 22 18 27 20 25 34 6 7 5
3730.0 30 19 32 29 0 29 5 20 19 15
3770.0 14 25 28 29 4 12 10 22 19 19
3810.0 18 16 18 33 35 29 24 17 18 28
3850.0 13 35 14 6 24 17 25 48 50 35
3890.0 10 30 46 43 42 4 33 40 53 46
3930.0 29 71 13 21 25 5 33 28 28 41
##END=
