##TITLE=Ethyl 2-nitrobenzoate
##JCAMP-DX=4.24
##DATA TYPE=INFRARED SPECTRUM
##ORIGIN=Sadtler Research Labs Under US-EPA Contract
##OWNER=NIST Standard Reference Data Program
##CAS REGISTRY NO=610-34-4
##MOLFORM=C 9 H 9 N O 4
##XUNITS=1/CM
##YUNITS=ABSORBANCE
##XFACTOR=1.0
##YFACTOR=0.000069189
##DELTAX=4.0
##FIRSTX=450.0
##LASTX=3966.0
##FIRSTY=0.012523
##MAXX=3966
##MINX=450
##MAXY=0.69189
##MINY=0
##NPOINTS=880
##XYDATA=(X++(Y..Y))
450.0 181 184 152 139 101 89 74 75 93 108
490.0 158 152 127 168 126 188 177 176 184 179
530.0 213 181 234 215 245 293 219 229 274 299
570.0 315 335 349 288 229 247 206 235 226 215
610.0 243 196 225 198 228 255 281 337 444 527
650.0 597 554 410 341 348 374 431 487 517 695
690.0 912 1207 1422 1451 1459 1217 1118 1180 1299 1525
730.0 1780 1970 1900 1592 1320 1081 911 817 855 1000
770.0 1203 1484 1659 1639 1260 871 636 459 428 407
810.0 381 413 419 435 497 563 740 992 1206 1423
850.0 1464 1476 1338 1289 1160 1014 853 668 540 423
890.0 392 346 291 317 291 278 279 250 280 264
930.0 260 272 279 295 300 346 371 365 348 319
970.0 317 319 334 364 374 422 466 555 677 849
1010.0 1006 1080 1051 928 861 1044 1373 1518 1405 1103
1050.0 821 785 997 1456 2244 3112 3518 3211 2457 1744
1090.0 1462 1488 1636 1819 2068 2466 3372 4707 5926 6655
1130.0 6060 4699 3337 2287 1690 1349 1192 1177 1156 1170
1170.0 1125 1056 972 880 799 707 643 607 561 570
1210.0 586 629 674 762 904 1065 1330 1819 2570 3882
1250.0 5495 6751 7127 6454 5567 5214 5485 6421 7608 8920
1290.0 10000 9704 8162 6243 4419 3201 2454 1944 1615 1420
1330.0 1373 1455 1651 2028 2590 3501 4574 5421 5720 5363
1370.0 4436 3422 2601 1905 1498 1262 1118 1009 901 844
1410.0 775 721 706 664 654 691 736 875 966 1091
1450.0 1129 1051 989 865 933 1017 1143 1162 1125 1049
1490.0 991 846 835 791 901 944 1010 1198 1472 1816
1530.0 2307 3089 4139 5712 7276 8612 9354 8801 6860 5193
1570.0 3951 2989 2385 1922 1589 1322 1103 960 879 882
1610.0 870 876 860 744 674 591 564 560 478 507
1650.0 473 545 409 402 394 418 405 400 413 494
1690.0 435 477 557 633 634 683 794 950 1065 1312
1730.0 1709 2339 3201 4583 6325 8079 9149 8802 7284 5301
1770.0 3651 2430 1573 1077 761 581 500 405 382 331
1810.0 331 332 336 360 372 381 340 316 308 299
1850.0 258 248 236 242 234 248 203 196 194 186
1890.0 200 181 194 194 198 203 196 203 196 203
1930.0 226 249 266 260 241 210 194 200 225 241
1970.0 242 226 211 182 177 172 168 165 152 158
2010.0 150 147 152 145 151 138 143 145 136 137
2050.0 132 136 132 130 135 128 135 134 133 141
2090.0 142 139 142 143 143 145 154 150 154 151
2130.0 145 151 144 149 144 134 144 134 140 127
2170.0 123 127 119 119 119 119 119 111 117 119
2210.0 118 117 117 124 124 124 122 116 130 116
2250.0 121 121 121 126 121 126 121 121 119 113
2290.0 127 125 125 126 124 133 126 131 149 149
2330.0 172 153 157 136 130 128 137 161 146 153
2370.0 150 139 146 132 135 140 133 147 140 146
2410.0 139 131 132 125 123 120 110 117 103 102
2450.0 99 101 92 92 92 91 91 92 92 90
2490.0 91 91 96 98 103 89 88 88 88 95
2530.0 81 92 88 82 92 86 86 78 86 85
2570.0 84 92 85 89 86 90 91 86 93 88
2610.0 89 89 82 88 89 88 81 80 80 75
2650.0 79 79 79 79 71 78 77 77 93 85
2690.0 99 97 100 102 100 109 100 100 100 94
2730.0 108 102 108 96 93 92 87 94 89 91
2770.0 101 87 97 102 97 97 90 97 91 93
2810.0 101 96 106 107 106 104 105 98 77 60
2850.0 33 10 16 44 88 133 176 242 305 367
2890.0 383 383 370 354 363 360 347 291 214 178
2930.0 177 272 412 598 738 737 662 546 482 535
2970.0 641 801 995 1289 1616 1738 1658 1364 1085 914
3010.0 780 672 547 462 378 306 283 247 245 227
3050.0 219 219 213 242 290 364 484 587 661 647
3090.0 576 449 332 241 173 149 129 120 122 108
3130.0 109 103 109 102 101 118 100 110 116 102
3170.0 116 102 102 99 93 109 91 106 102 91
3210.0 97 76 91 84 83 85 70 77 71 78
3250.0 76 70 76 64 71 71 72 72 72 72
3290.0 72 72 72 72 73 73 74 70 73 81
3330.0 67 73 74 68 73 72 82 75 75 81
3370.0 74 75 74 68 76 75 82 75 69 77
3410.0 72 88 72 78 76 70 83 71 77 79
3450.0 78 92 92 92 100 105 114 106 135 142
3490.0 135 143 121 135 113 110 103 78 84 82
3530.0 84 78 80 80 80 81 83 79 83 88
3570.0 110 77 76 78 74 105 75 83 83 83
3610.0 98 93 91 111 88 131 82 88 82 84
3650.0 126 91 99 71 80 113 102 142 83 81
3690.0 121 89 87 86 87 95 112 94 94 110
3730.0 100 123 147 114 175 131 136 95 95 96
3770.0 98 93 94 93 90 90 93 104 121 105
3810.0 99 97 111 112 97 97 115 110 112 106
3850.0 104 141 102 100 106 107 114 99 113 110
3890.0 96 102 96 109 92 88 94 87 95 95
3930.0 101 95 95 95 96 104 0 8 8 8
##END=
