##TITLE=Benzoic acid, 2-chloro-, methyl ester
##JCAMP-DX=4.24
##DATA TYPE=INFRARED SPECTRUM
##ORIGIN=Sadtler Research Labs Under US-EPA Contract
##OWNER=NIST Standard Reference Data Program
##CAS REGISTRY NO=610-96-8
##MOLFORM=C 8 H 7 Cl O 2
##XUNITS=1/CM
##YUNITS=ABSORBANCE
##XFACTOR=1.0
##YFACTOR=0.000129037
##DELTAX=4.0
##FIRSTX=450.0
##LASTX=3966.0
##FIRSTY=0.045292
##MAXX=3966
##MINX=450
##MAXY=1.29037
##MINY=0
##NPOINTS=880
##XYDATA=(X++(Y..Y))
450.0 351 326 305 345 283 331 366 257 201 126
490.0 89 79 48 35 55 47 47 76 87 91
530.0 81 92 81 80 43 52 25 28 32 43
570.0 32 41 43 18 11 10 25 6 1 14
610.0 33 114 168 117 85 54 59 76 178 324
650.0 468 477 442 213 124 94 108 118 156 206
690.0 293 370 446 395 351 360 453 661 796 959
730.0 1139 1538 2126 2904 4337 3524 2379 1761 969 561
770.0 377 292 257 238 252 240 229 222 230 233
810.0 266 340 465 588 640 606 461 324 221 167
850.0 146 118 90 81 81 81 82 80 79 61
890.0 53 47 43 43 44 43 46 43 45 49
930.0 55 68 99 139 192 246 266 302 377 461
970.0 495 455 351 217 121 90 82 87 105 135
1010.0 184 292 362 419 486 680 1060 1302 1549 2126
1050.0 2910 3421 3478 3085 1957 1003 631 533 562 668
1090.0 886 1162 1481 1860 2336 3125 4149 5157 5914 6111
1130.0 5738 5036 4023 2989 2156 1543 1284 1218 1155 1107
1170.0 1003 874 853 892 982 1093 1113 1025 846 633
1210.0 500 454 475 550 724 1040 1576 2535 4101 5861
1250.0 6783 6543 5305 3647 3069 3483 4126 4895 5872 7398
1290.0 8976 10000 9906 8407 6116 3824 2237 1402 986 760
1330.0 619 518 451 384 326 291 268 259 257 244
1370.0 238 242 237 227 238 236 242 255 253 269
1410.0 300 341 443 586 916 1591 2520 3219 3403 2948
1450.0 1984 1242 904 810 896 1112 1230 1183 1042 808
1490.0 573 410 319 231 209 195 156 158 170 151
1530.0 154 153 171 192 181 178 207 275 315 372
1570.0 470 533 578 616 673 906 1175 1310 1198 937
1610.0 585 365 294 215 184 132 148 150 146 158
1650.0 197 200 179 168 165 163 178 167 205 247
1690.0 263 310 394 471 571 705 898 1134 1387 1704
1730.0 2345 3351 4810 6185 7416 7802 7651 6866 6085 5470
1770.0 4139 3005 2253 1650 1123 762 520 389 307 260
1810.0 238 222 185 158 129 110 102 101 120 122
1850.0 112 89 75 62 61 64 53 53 56 61
1890.0 64 65 59 59 67 79 103 138 175 189
1930.0 192 179 154 137 128 123 129 122 104 81
1970.0 49 29 20 18 14 18 19 18 22 27
2010.0 32 41 51 54 52 46 36 29 23 21
2050.0 20 23 26 37 50 63 71 78 81 81
2090.0 80 75 69 62 56 49 50 47 47 45
2130.0 39 30 23 17 12 9 6 9 10 9
2170.0 10 9 9 5 7 6 6 7 8 9
2210.0 10 13 14 13 12 10 6 6 8 10
2250.0 10 15 16 18 16 16 13 10 12 12
2290.0 13 14 13 10 10 7 10 16 22 27
2330.0 23 18 14 16 7 12 8 17 15 9
2370.0 13 16 14 15 14 18 15 18 20 22
2410.0 19 18 16 12 13 9 9 6 8 5
2450.0 4 3 0 2 0 2 0 3 1 3
2490.0 3 2 4 6 3 2 5 2 4 8
2530.0 8 9 12 11 16 18 19 23 23 26
2570.0 29 29 27 27 25 25 24 21 23 19
2610.0 16 13 13 12 10 11 13 14 17 17
2650.0 17 17 16 13 10 8 10 7 8 8
2690.0 8 8 9 9 10 12 12 16 16 17
2730.0 17 13 11 11 11 11 11 11 11 11
2770.0 10 9 12 10 11 10 13 15 15 19
2810.0 19 24 25 31 40 52 71 105 189 288
2850.0 338 334 265 162 110 104 104 105 114 129
2890.0 159 192 223 249 265 277 282 280 276 260
2930.0 240 234 252 281 364 549 1017 1637 1940 1850
2970.0 1468 786 431 342 330 353 399 445 497 518
3010.0 496 473 459 448 461 468 454 420 368 314
3050.0 284 263 283 367 504 623 766 874 839 765
3090.0 661 444 299 235 191 147 109 95 86 85
3130.0 80 81 84 89 89 86 75 60 45 34
3170.0 31 26 30 27 23 22 22 19 18 15
3210.0 15 14 13 12 10 12 15 15 13 14
3250.0 16 15 11 12 12 9 12 10 12 13
3290.0 13 9 11 11 11 10 11 11 12 13
3330.0 8 12 13 14 16 18 15 16 15 15
3370.0 16 13 14 11 9 14 14 15 11 12
3410.0 13 9 13 12 9 13 17 16 17 15
3450.0 18 21 27 30 38 44 47 51 37 36
3490.0 36 37 44 46 44 39 28 18 13 6
3530.0 2 6 2 8 3 2 10 13 22 37
3570.0 57 68 64 51 40 29 13 10 8 8
3610.0 10 10 9 13 10 6 9 8 12 8
3650.0 7 13 11 10 15 10 12 11 18 22
3690.0 20 21 27 19 20 19 16 13 21 13
3730.0 13 18 18 20 24 23 23 15 17 13
3770.0 14 18 13 19 21 27 22 17 29 23
3810.0 21 19 17 17 13 16 15 18 14 9
3850.0 14 9 15 16 20 20 20 12 14 11
3890.0 20 16 22 25 16 25 14 16 20 10
3930.0 19 25 18 18 15 17 23 15 14 20
##END=
