##TITLE=Quinoline, 8-methyl-
##JCAMP-DX=4.24
##DATA TYPE=INFRARED SPECTRUM
##ORIGIN=Sadtler Research Labs Under US-EPA Contract
##OWNER=NIST Standard Reference Data Program
##CAS REGISTRY NO=611-32-5
##MOLFORM=C 10 H 9 N
##XUNITS=1/CM
##YUNITS=ABSORBANCE
##XFACTOR=1.0
##YFACTOR=0.000054156
##DELTAX=4.0
##FIRSTX=450.0
##LASTX=3966.0
##FIRSTY=0.001895
##MAXX=3966
##MINX=450
##MAXY=0.54156
##MINY=0
##NPOINTS=880
##XYDATA=(X++(Y..Y))
450.0 35 90 65 75 116 170 244 257 273 327
490.0 193 44 3 30 37 83 149 128 234 327
530.0 276 288 400 240 281 284 438 662 858 887
570.0 791 610 331 120 55 90 86 108 134 167
610.0 182 190 207 193 191 129 109 101 86 59
650.0 59 63 72 76 86 160 160 272 487 653
690.0 677 690 649 359 169 136 112 112 151 179
730.0 278 452 661 769 1121 1611 790 1000 1152 1623
770.0 2671 4235 6003 7866 10000 9887 5895 5055 4085 3460
810.0 3264 3473 6123 3255 2601 2249 1401 757 450 325
850.0 285 326 452 531 679 656 684 538 320 180
890.0 132 132 128 138 157 173 177 175 167 136
930.0 117 114 123 134 153 183 214 263 337 409
970.0 508 617 483 444 359 258 198 171 161 195
1010.0 258 352 436 506 550 531 516 442 374 323
1050.0 323 396 575 916 1321 1569 1764 1636 1331 924
1090.0 583 404 324 245 216 228 316 499 694 758
1130.0 796 779 597 430 334 339 378 456 490 381
1170.0 414 337 220 177 157 167 182 213 244 226
1210.0 225 235 256 266 295 336 378 387 382 409
1250.0 395 326 281 262 231 208 204 185 186 183
1290.0 213 218 305 475 699 790 795 811 668 459
1330.0 393 438 599 811 935 1040 1181 1454 1797 1975
1370.0 2139 2177 2083 1840 1921 1831 1598 1425 1007 605
1410.0 456 526 640 786 879 952 1014 1078 893 904
1450.0 991 1103 1297 1469 1670 1627 1566 1703 1966 2571
1490.0 3610 4409 4803 4759 4047 2808 1726 1107 827 718
1530.0 628 597 564 539 556 604 705 850 1005 1147
1570.0 1377 1517 1562 1544 1578 1589 1694 1751 1796 1813
1610.0 1653 1462 1273 1160 1024 843 646 548 480 453
1650.0 315 268 169 154 142 169 169 196 208 215
1690.0 202 218 241 322 339 368 394 371 312 276
1730.0 254 247 223 260 270 301 317 299 272 257
1770.0 295 315 341 347 343 295 228 144 124 96
1810.0 92 91 108 103 142 147 177 214 264 316
1850.0 331 330 318 289 234 235 274 328 353 345
1890.0 340 298 266 269 330 428 497 555 588 622
1930.0 602 557 521 462 379 289 215 155 97 70
1970.0 53 56 54 46 49 59 71 69 70 64
2010.0 59 47 43 37 38 27 39 38 56 58
2050.0 73 66 67 67 54 49 58 57 66 67
2090.0 75 76 77 77 77 72 69 69 67 67
2130.0 59 58 59 59 61 58 63 63 63 63
2170.0 52 53 51 50 59 51 60 61 61 51
2210.0 51 52 58 49 53 61 72 80 91 100
2250.0 121 129 142 146 140 140 130 132 122 124
2290.0 119 112 105 104 110 109 105 123 133 133
2330.0 131 110 101 86 76 82 124 123 92 28
2370.0 35 32 40 55 70 69 65 65 65 66
2410.0 76 84 85 94 86 82 83 75 86 85
2450.0 88 88 78 69 58 58 58 58 58 60
2490.0 60 60 60 60 60 61 51 52 52 40
2530.0 49 49 42 42 41 42 35 25 15 15
2570.0 16 7 6 4 16 11 17 21 26 33
2610.0 35 44 55 55 64 45 46 34 16 27
2650.0 26 47 64 65 66 57 47 28 18 7
2690.0 1 1 1 1 6 11 1 12 12 20
2730.0 31 50 61 57 56 44 18 2 2 2
2770.0 3 3 11 13 32 32 53 52 70 91
2810.0 99 109 124 152 170 201 231 279 359 439
2850.0 541 647 714 743 758 720 672 646 633 641
2890.0 680 740 800 900 976 1053 1159 1328 1611 2089
2930.0 2645 2979 3056 2939 2592 2098 1733 1571 1567 1679
2970.0 1842 1887 1995 2003 1949 1819 1695 1608 1754 2053
3010.0 2418 2768 3007 3223 3441 3647 3802 4311 4957 5357
3050.0 5605 5620 5599 5438 5020 4549 4180 3776 3196 2644
3090.0 2184 1773 1424 1168 971 784 605 409 265 180
3130.0 147 121 131 120 109 120 120 129 130 129
3170.0 140 147 162 182 177 188 210 205 191 186
3210.0 180 160 159 152 148 160 162 151 142 133
3250.0 134 115 117 99 113 115 105 107 108 103
3290.0 88 99 104 113 122 133 135 136 127 156
3330.0 147 168 166 177 181 180 175 152 175 169
3370.0 158 159 139 149 129 129 123 93 96 76
3410.0 72 76 83 72 64 65 65 65 85 74
3450.0 73 71 80 64 78 74 70 85 67 47
3490.0 59 86 67 67 57 64 60 61 42 77
3530.0 66 51 60 61 75 46 51 40 62 81
3570.0 94 56 71 59 88 88 60 76 63 81
3610.0 93 61 69 62 66 107 76 56 73 80
3650.0 80 69 83 75 64 58 28 5 2 11
3690.0 16 1 22 8 1 7 1 8 21 7
3730.0 25 19 23 22 16 1 1 1 15 25
3770.0 1 2 22 11 9 5 19 22 18 27
3810.0 30 45 35 51 34 13 27 4 1 7
3850.0 9 20 39 37 44 46 31 60 36 36
3890.0 23 23 21 26 7 12 9 31 34 58
3930.0 63 52 61 42 26 0 1 1 11 15
##END=
