##TITLE=Benzamide, N,N-dimethyl-
##JCAMP-DX=4.24
##DATA TYPE=INFRARED SPECTRUM
##ORIGIN=Sadtler Research Labs Under US-EPA Contract
##OWNER=NIST Standard Reference Data Program
##CAS REGISTRY NO=611-74-5
##MOLFORM=C 9 H 11 N O
##XUNITS=1/CM
##YUNITS=ABSORBANCE
##XFACTOR=1.0
##YFACTOR=0.000212189
##DELTAX=4.0
##FIRSTX=450.0
##LASTX=3966.0
##FIRSTY=0.068749
##MAXX=3966
##MINX=450
##MAXY=2.12189
##MINY=0
##NPOINTS=880
##XYDATA=(X++(Y..Y))
450.0 324 159 77 46 18 89 80 52 70 58
490.0 67 45 171 85 32 72 68 55 42 64
530.0 112 127 165 224 312 370 372 346 224 151
570.0 115 90 93 70 78 78 93 77 85 93
610.0 94 105 112 147 241 494 622 666 621 444
650.0 243 177 153 185 215 276 358 405 560 826
690.0 1091 1475 1831 2095 2191 2169 1955 1554 1192 901
730.0 792 770 753 705 606 603 600 525 503 505
770.0 528 557 629 703 710 641 534 403 246 202
810.0 158 97 108 98 108 86 82 90 103 92
850.0 84 84 81 75 92 85 97 97 87 102
890.0 100 113 122 137 164 196 224 234 238 253
930.0 240 205 174 139 119 116 118 122 127 143
970.0 137 141 162 159 168 180 187 205 233 266
1010.0 333 471 763 1028 1170 1184 1094 854 746 847
1050.0 1016 1327 1790 2326 2952 3350 3479 3342 2756 2011
1090.0 1325 921 689 562 443 381 332 314 261 284
1130.0 282 305 291 284 306 304 327 320 317 334
1170.0 349 383 390 392 401 380 409 504 635 814
1210.0 1004 1120 1181 1126 997 837 737 697 686 746
1250.0 871 1126 1464 1758 1935 1940 1766 1421 1053 793
1290.0 577 468 422 402 400 410 420 439 467 506
1330.0 568 632 725 824 964 1159 1452 1844 2400 3219
1370.0 3941 5024 6193 6205 7256 5948 4918 3929 2721 2088
1410.0 1582 1267 1116 872 831 902 1088 1420 1754 1994
1450.0 2164 2112 1936 1675 1539 1412 1413 1417 1409 1466
1490.0 1501 1549 1580 1454 1445 1178 993 878 722 694
1530.0 645 627 650 634 668 652 671 698 651 691
1570.0 654 693 694 616 618 558 534 615 577 651
1610.0 658 635 690 641 773 779 932 1137 1197 1637
1650.0 1984 2713 4311 5182 8049 9016 9227 10000 8776 6748
1690.0 4678 3103 1853 1316 925 741 651 491 437 335
1730.0 300 339 227 236 241 229 221 203 218 203
1770.0 224 225 197 201 191 177 192 173 206 189
1810.0 159 135 96 104 89 78 79 53 62 56
1850.0 46 38 41 55 58 73 77 79 93 99
1890.0 103 102 84 77 63 61 59 52 55 37
1930.0 55 80 80 101 107 116 118 113 90 81
1970.0 61 48 30 28 24 32 30 24 24 20
2010.0 18 21 20 23 17 15 19 16 18 18
2050.0 18 19 16 23 21 23 29 27 33 37
2090.0 45 45 42 44 43 35 34 31 30 26
2130.0 27 26 24 26 24 17 15 17 18 15
2170.0 12 17 14 10 9 15 8 3 11 12
2210.0 9 8 5 4 6 2 2 4 6 6
2250.0 4 9 6 2 4 1 4 6 2 8
2290.0 8 9 11 15 17 23 33 29 32 34
2330.0 23 25 12 18 14 15 16 12 5 13
2370.0 13 11 15 17 16 16 18 18 17 16
2410.0 16 18 16 18 18 16 16 16 13 15
2450.0 15 15 14 14 12 12 10 8 7 6
2490.0 7 5 6 8 8 8 10 11 10 13
2530.0 13 13 12 13 14 12 15 12 14 14
2570.0 13 16 16 12 13 13 14 14 15 17
2610.0 16 15 17 19 17 21 20 16 18 19
2650.0 16 17 18 17 18 19 18 24 21 25
2690.0 24 26 27 30 33 35 37 38 42 46
2730.0 49 54 59 64 72 76 81 90 99 104
2770.0 115 124 137 151 171 193 224 263 306 351
2810.0 392 412 425 431 442 456 472 494 521 564
2850.0 634 712 799 876 934 975 987 1017 1048 1101
2890.0 1161 1229 1302 1389 1487 1593 1730 1873 2032 2184
2930.0 2282 2334 2289 2166 1971 1735 1488 1258 1050 883
2970.0 743 632 545 478 425 394 369 356 358 381
3010.0 426 488 573 662 756 842 898 891 846 779
3050.0 707 685 752 914 1129 1253 1254 1213 1045 863
3090.0 748 656 548 447 360 289 227 177 134 100
3130.0 87 70 67 59 55 54 53 55 46 37
3170.0 36 24 20 17 13 7 6 7 8 6
3210.0 2 2 2 4 6 0 1 4 4 4
3250.0 4 6 6 5 10 8 8 10 11 13
3290.0 17 21 25 27 40 42 53 74 81 90
3330.0 103 103 92 79 63 46 34 28 24 15
3370.0 16 8 10 13 9 13 7 5 6 4
3410.0 6 5 7 8 8 6 6 5 5 4
3450.0 10 8 2 5 9 8 6 6 4 9
3490.0 11 5 2 8 3 7 2 7 8 0
3530.0 3 1 0 4 7 5 3 12 7 4
3570.0 8 8 3 9 8 13 3 10 7 10
3610.0 9 3 10 9 8 7 11 1 14 8
3650.0 16 8 19 8 15 11 1 4 7 10
3690.0 7 17 15 16 10 16 16 12 10 7
3730.0 7 4 0 0 5 0 3 0 5 5
3770.0 1 2 1 3 6 7 10 15 1 0
3810.0 11 7 0 1 5 1 0 0 0 2
3850.0 3 0 0 0 0 3 0 4 17 0
3890.0 2 1 0 0 0 0 8 7 15 2
3930.0 0 15 13 6 5 11 16 4 4 16
##END=
