##TITLE=N-Methyl-O-toluidine
##JCAMP-DX=4.24
##DATA TYPE=INFRARED SPECTRUM
##ORIGIN=Sadtler Research Labs Under US-EPA Contract
##OWNER=NIST Standard Reference Data Program
##CAS REGISTRY NO=611-21-2
##MOLFORM=C 8 H 11 N
##XUNITS=1/CM
##YUNITS=ABSORBANCE
##XFACTOR=1.0
##YFACTOR=0.000083804
##DELTAX=4.0
##FIRSTX=450.0
##LASTX=3966.0
##FIRSTY=0.000000
##MAXX=3966
##MINX=450
##MAXY=0.83804
##MINY=0
##NPOINTS=880
##XYDATA=(X++(Y..Y))
450.0 0 1064 1973 1173 947 2043 2157 1926 2299 1961
490.0 1370 2259 1460 1555 1134 1171 1103 1316 1188 1132
530.0 1199 1014 1270 1484 1164 1330 1131 1470 1669 1586
570.0 1508 1522 1397 1366 1277 1246 1161 1181 1161 1204
610.0 1281 1327 1437 1458 1396 1411 1421 1397 1386 1367
650.0 1368 1356 1333 1329 1292 1309 1301 1318 1291 1314
690.0 1301 1390 1539 1741 1985 2040 3037 2781 2530 3147
730.0 3612 4303 4731 6195 7804 5268 4211 3831 2757 2020
770.0 1544 1303 1150 1127 1085 1085 1050 1054 1053 1064
810.0 1098 1108 1179 1195 1206 1130 1111 1085 1039 978
850.0 956 942 932 937 919 926 918 921 912 913
890.0 894 897 905 910 937 973 964 1064 1084 989
930.0 991 961 932 929 907 927 928 949 922 1002
970.0 1082 1197 1282 1308 1334 1308 1266 1147 1060 984
1010.0 953 975 992 1033 1087 1211 1412 1644 1763 1802
1050.0 1830 1843 1752 1660 1606 1565 1496 1353 1186 1094
1090.0 1085 1127 1241 1302 1354 1359 1359 1284 1197 1140
1130.0 1115 1135 1172 1264 1414 1642 1983 2491 2839 2811
1170.0 2781 2639 2205 1658 1415 1305 1264 1225 1206 1189
1210.0 1164 1164 1137 1157 1171 1225 1296 1456 1719 2193
1250.0 2954 3753 4347 4595 4605 4199 3416 2670 2379 2403
1290.0 2736 3336 3969 4554 5052 5239 5063 4554 3840 3109
1330.0 2482 1950 1497 1272 1193 1147 1130 1116 1128 1189
1370.0 1298 1384 1476 1474 1491 1465 1339 1231 1199 1210
1410.0 1215 1344 1461 1879 2174 2428 2473 2623 2715 2628
1450.0 2701 2886 2937 3089 3517 4034 4401 4673 4692 4536
1490.0 4318 4372 4734 5886 7400 9132 10000 9909 9047 7356
1530.0 5197 3214 2221 1745 1598 1530 1446 1351 1380 1460
1570.0 1662 1984 2462 3028 3603 4028 4403 4995 5624 6115
1610.0 5978 5623 4882 3898 2562 1721 1416 1267 1262 1196
1650.0 1128 1118 1162 1156 1143 1145 1077 1115 1075 1141
1690.0 1273 1358 1315 1295 1220 1172 1141 1053 1023 996
1730.0 981 939 1010 1047 1058 1059 1076 1072 1045 1024
1770.0 961 937 964 973 997 995 999 997 971 971
1810.0 945 922 929 923 939 940 961 978 950 923
1850.0 923 935 945 985 1034 1069 1110 1107 1107 1047
1890.0 981 951 954 977 1015 1045 1052 1040 1023 998
1930.0 940 919 909 899 892 900 894 887 884 875
1970.0 882 878 888 887 887 875 882 886 893 889
2010.0 891 882 864 869 867 865 864 862 857 867
2050.0 872 875 877 877 877 883 888 879 890 887
2090.0 888 890 898 900 898 898 892 899 897 902
2130.0 900 906 903 904 894 882 880 868 868 866
2170.0 866 857 866 859 866 869 872 878 878 884
2210.0 878 884 886 886 890 885 885 878 876 879
2250.0 881 876 883 886 894 885 884 882 882 879
2290.0 885 878 877 885 893 900 898 898 905 903
2330.0 917 889 882 903 882 904 919 912 912 860
2370.0 857 857 857 857 857 857 857 860 862 876
2410.0 881 888 898 886 897 896 895 882 878 868
2450.0 865 867 861 872 868 877 877 877 871 877
2490.0 867 867 868 861 860 857 867 865 874 877
2530.0 877 877 889 898 909 931 945 964 979 994
2570.0 998 1005 999 996 985 971 969 962 951 951
2610.0 955 951 948 937 925 919 911 899 898 898
2650.0 903 899 889 897 904 902 909 915 919 918
2690.0 918 914 921 919 929 927 947 954 978 1007
2730.0 1043 1105 1129 1147 1156 1151 1125 1102 1085 1085
2770.0 1098 1109 1128 1142 1185 1228 1300 1384 1514 1706
2810.0 1955 2313 2685 2953 3049 3014 2819 2467 2137 1959
2850.0 1958 2121 2388 2698 2972 3213 3440 3603 3737 3870
2890.0 3999 4131 4279 4370 4418 4559 4720 4848 4924 4896
2930.0 4749 4593 4379 4167 3907 3625 3422 3310 3304 3365
2970.0 3581 3904 4182 4247 4107 3771 3263 2715 2240 2047
3010.0 2124 2354 2650 2864 3002 3029 2904 2720 2612 2614
3050.0 2721 2853 3029 3181 3269 3288 3251 3148 2956 2760
3090.0 2487 2215 1945 1735 1580 1454 1368 1301 1240 1206
3130.0 1168 1144 1100 1059 1039 1009 998 969 963 966
3170.0 961 951 936 950 950 945 939 951 929 941
3210.0 919 919 918 914 910 891 909 897 898 877
3250.0 882 903 893 878 885 901 869 883 876 892
3290.0 884 891 881 876 886 893 898 878 888 892
3330.0 899 863 872 887 901 891 881 897 889 896
3370.0 881 890 885 895 879 908 906 877 899 888
3410.0 906 913 919 926 930 936 976 992 1051 1168
3450.0 1282 1458 1635 1778 1799 1802 1709 1575 1352 1200
3490.0 1083 1023 1004 987 960 934 938 907 913 925
3530.0 906 936 908 895 913 912 924 915 912 931
3570.0 943 919 923 940 935 922 936 912 919 908
3610.0 919 942 936 944 926 952 919 930 909 924
3650.0 930 950 958 921 930 904 927 930 948 927
3690.0 903 924 916 910 934 920 955 940 931 938
3730.0 919 940 888 933 936 921 933 950 952 936
3770.0 919 912 947 913 925 931 914 972 924 929
3810.0 915 926 939 918 928 952 907 945 959 932
3850.0 967 932 949 863 919 1007 907 942 920 943
3890.0 926 914 945 964 958 1018 974 907 907 954
3930.0 902 940 938 928 924 1070 963 941 880 989
##END=
