##TITLE=Benzene, 1-ethyl-2-methyl-
##JCAMP-DX=4.24
##DATA TYPE=INFRARED SPECTRUM
##ORIGIN=Sadtler Research Labs Under US-EPA Contract
##OWNER=NIST Standard Reference Data Program
##CAS REGISTRY NO=611-14-3
##MOLFORM=C 9 H 12
##XUNITS=1/CM
##YUNITS=ABSORBANCE
##XFACTOR=1.0
##YFACTOR=0.000060776
##DELTAX=4.0
##FIRSTX=450.0
##LASTX=3966.0
##FIRSTY=0.015680
##MAXX=3966
##MINX=450
##MAXY=0.60776
##MINY=0
##NPOINTS=880
##XYDATA=(X++(Y..Y))
450.0 258 630 492 403 291 208 136 153 105 137
490.0 150 175 184 179 110 68 60 71 87 90
530.0 101 116 147 170 210 220 177 130 116 86
570.0 117 125 133 125 169 134 139 124 110 97
610.0 62 80 77 64 62 83 77 71 61 56
650.0 49 38 43 34 6 67 64 58 54 72
690.0 88 99 110 145 250 485 929 1493 2025 3046
730.0 4246 4130 4374 4249 4280 4580 4916 3283 2554 1920
770.0 1236 743 494 403 369 352 358 366 290 256
810.0 219 186 175 151 133 123 101 94 85 82
850.0 77 77 99 87 86 98 98 92 74 62
890.0 56 51 43 43 52 60 61 75 103 120
930.0 139 213 205 160 182 213 271 312 343 342
970.0 344 293 240 216 200 190 176 157 137 121
1010.0 117 137 188 252 318 376 442 497 555 681
1050.0 854 989 1051 996 889 663 430 265 172 126
1090.0 99 89 83 85 98 129 172 231 292 325
1130.0 311 300 260 192 139 98 83 72 80 86
1170.0 90 93 91 85 85 70 63 59 63 65
1210.0 76 78 80 89 88 90 99 111 115 122
1250.0 125 111 101 94 91 89 99 103 109 117
1290.0 119 124 134 151 163 199 249 308 344 361
1330.0 353 333 295 243 207 186 176 188 227 278
1370.0 367 490 650 693 670 660 559 432 325 281
1410.0 281 287 322 348 398 457 575 731 969 1291
1450.0 1695 2074 2377 2526 2548 2462 2324 2130 2136 2390
1490.0 2547 2506 2334 2065 1466 829 519 390 325 274
1530.0 246 211 193 180 163 143 139 135 132 136
1570.0 163 205 246 295 328 375 426 492 555 556
1610.0 519 479 374 240 149 96 78 69 62 58
1650.0 73 71 81 85 94 94 105 106 122 123
1690.0 116 107 101 84 81 83 90 97 86 72
1730.0 63 51 37 27 36 36 35 37 35 37
1770.0 52 71 99 144 185 200 194 178 137 86
1810.0 64 70 89 125 139 137 121 92 58 33
1850.0 23 27 52 76 91 101 100 95 84 98
1890.0 144 212 269 285 274 260 200 119 82 82
1930.0 124 177 205 208 184 154 84 34 15 11
1970.0 10 7 12 7 8 11 10 7 11 12
2010.0 13 13 19 18 22 22 23 24 21 17
2050.0 16 16 14 18 19 17 18 18 18 20
2090.0 18 21 17 13 9 7 5 1 0 0
2130.0 3 2 0 0 5 6 6 6 5 5
2170.0 8 2 4 4 7 8 9 11 16 13
2210.0 16 15 16 11 11 7 8 4 8 8
2250.0 9 13 7 8 8 8 13 15 20 15
2290.0 20 21 20 18 16 23 37 38 45 38
2330.0 42 34 28 29 39 25 10 9 13 5
2370.0 4 9 7 11 12 14 14 19 18 26
2410.0 29 32 38 41 44 45 47 46 42 38
2450.0 32 25 26 24 23 18 22 21 20 26
2490.0 19 25 26 23 27 25 28 30 29 25
2530.0 30 30 30 29 29 25 28 31 33 35
2570.0 37 44 43 40 45 47 53 47 43 46
2610.0 44 41 44 41 50 54 61 59 60 52
2650.0 50 46 39 36 34 31 32 37 34 33
2690.0 41 42 42 51 54 58 64 70 79 102
2730.0 126 155 186 205 212 206 191 167 154 151
2770.0 155 163 173 182 189 192 194 191 198 200
2810.0 214 228 254 285 324 370 425 488 571 662
2850.0 767 891 1066 1318 1682 2185 2819 3485 4044 4442
2890.0 4298 4041 3680 3365 3154 3042 3042 3131 3302 3610
2930.0 4095 4722 5356 5843 5978 5904 5755 5731 6361 7876
2970.0 9224 10000 9537 8620 6286 4124 2832 2167 1914 1973
3010.0 2311 2902 3523 3944 4152 4141 3738 3173 2718 2434
3050.0 2362 2502 2799 3133 3405 3556 3576 3392 2967 2386
3090.0 1823 1348 1035 872 803 738 664 568 461 363
3130.0 296 255 236 222 213 221 215 219 222 211
3170.0 202 179 154 130 107 89 74 70 55 50
3210.0 46 42 34 30 24 21 22 17 27 29
3250.0 23 29 25 20 25 29 34 29 29 26
3290.0 29 31 30 26 23 27 27 17 22 23
3330.0 23 22 14 21 18 15 27 27 23 33
3370.0 20 27 20 30 23 28 24 34 27 34
3410.0 27 25 27 31 25 35 29 28 19 20
3450.0 28 26 21 34 33 31 24 29 36 34
3490.0 26 30 28 23 26 25 26 28 24 34
3530.0 27 21 25 25 24 23 23 27 30 25
3570.0 29 30 30 13 34 22 34 33 44 44
3610.0 36 30 28 40 40 33 16 9 32 35
3650.0 46 31 34 30 35 15 21 36 24 24
3690.0 19 41 45 31 26 42 35 37 44 23
3730.0 34 36 40 29 42 45 34 28 35 38
3770.0 28 29 26 26 29 31 27 25 24 29
3810.0 18 42 28 32 49 40 38 36 39 32
3850.0 47 37 49 45 42 33 40 61 69 59
3890.0 69 40 47 40 27 36 41 58 32 23
3930.0 29 51 50 60 38 56 16 35 27 21
##END=
