##TITLE=Methanone, (4-methoxyphenyl)phenyl-
##JCAMP-DX=4.24
##DATA TYPE=INFRARED SPECTRUM
##ORIGIN=Sadtler Research Labs Under US-EPA Contract
##OWNER=NIST Standard Reference Data Program
##CAS REGISTRY NO=611-94-9
##MOLFORM=C 14 H 12 O 2
##XUNITS=1/CM
##YUNITS=ABSORBANCE
##XFACTOR=1.0
##YFACTOR=0.000120523
##DELTAX=4.0
##FIRSTX=450.0
##LASTX=3966.0
##FIRSTY=0.015547
##MAXX=3966
##MINX=450
##MAXY=1.20523
##MINY=0
##NPOINTS=880
##XYDATA=(X++(Y..Y))
450.0 129 104 60 116 86 85 52 68 82 110
490.0 113 132 129 155 152 120 99 59 37 8
530.0 16 20 11 18 30 85 101 138 125 126
570.0 68 42 31 45 110 247 603 1117 1568 1646
610.0 1206 666 278 145 123 180 241 201 93 34
650.0 13 29 39 92 122 230 334 465 657 836
690.0 1234 1696 2149 1910 1281 718 401 252 215 243
730.0 336 524 742 812 617 376 207 111 75 67
770.0 66 92 153 261 375 423 370 241 141 105
810.0 93 100 88 94 124 238 449 751 1003 1053
850.0 829 519 281 128 73 46 44 43 53 79
890.0 92 122 155 224 351 638 1109 1466 1483 1382
930.0 1588 1910 1749 1105 604 404 245 146 125 126
970.0 109 66 46 41 59 71 110 175 227 214
1010.0 202 251 356 532 766 1009 1234 1393 1367 1090
1050.0 710 422 281 236 220 211 181 156 131 116
1090.0 107 114 150 196 251 303 323 313 288 267
1130.0 280 360 559 977 1502 1728 1427 1090 1343 2538
1170.0 4116 4521 3171 1681 970 636 440 402 386 417
1210.0 460 532 621 760 988 1353 1936 2805 4136 6032
1250.0 8508 10000 9279 6764 5044 4972 5521 5331 4171 3104
1290.0 2871 3114 3344 3431 3224 2891 2501 2040 1558 1046
1330.0 640 394 259 199 167 144 128 118 106 95
1370.0 89 80 80 75 58 55 57 74 131 230
1410.0 366 496 485 384 250 211 245 373 597 771
1450.0 764 630 500 546 643 684 608 488 429 420
1490.0 483 679 1043 1659 2224 2171 1523 754 368 230
1530.0 174 167 175 182 224 274 322 372 488 624
1570.0 807 1058 1378 1694 2016 2465 3108 3956 4668 4941
1610.0 4283 2995 1779 1044 667 494 407 367 375 408
1650.0 455 535 688 986 1709 2845 4044 4297 3898 2664
1690.0 1637 956 566 372 262 227 184 172 184 194
1730.0 164 119 95 74 59 53 75 75 90 104
1770.0 116 110 117 92 82 71 69 79 89 114
1810.0 112 102 81 64 49 42 44 49 46 48
1850.0 60 73 76 79 73 67 82 88 95 102
1890.0 110 118 127 135 136 131 117 107 90 83
1930.0 79 75 82 84 99 110 119 124 130 127
1970.0 120 101 76 65 54 48 45 48 46 46
2010.0 46 48 55 62 67 67 79 95 113 130
2050.0 135 136 128 123 118 118 114 105 93 83
2090.0 73 64 60 53 47 40 35 30 26 23
2130.0 19 18 16 14 13 16 16 18 20 22
2170.0 25 25 27 30 35 37 37 34 35 36
2210.0 35 31 32 29 27 24 23 21 24 24
2250.0 25 25 27 26 26 29 32 40 45 49
2290.0 55 56 57 59 56 52 43 35 32 19
2330.0 12 11 22 35 19 33 57 49 57 52
2370.0 54 52 51 49 53 55 56 61 66 69
2410.0 66 67 65 60 55 47 38 31 30 29
2450.0 31 30 29 26 26 27 28 28 28 28
2490.0 27 30 34 34 37 41 46 46 48 47
2530.0 48 49 57 64 74 91 99 98 95 83
2570.0 68 61 57 51 48 46 47 44 46 41
2610.0 40 35 33 30 28 27 23 22 18 15
2650.0 16 12 9 7 5 3 3 3 4 4
2690.0 0 0 1 2 2 4 9 9 8 11
2730.0 16 16 21 31 34 37 39 40 33 29
2770.0 30 28 26 25 25 26 26 35 42 47
2810.0 54 59 71 83 99 121 163 234 374 538
2850.0 595 499 332 224 166 141 132 123 124 128
2890.0 137 149 160 182 222 275 317 344 343 335
2930.0 337 373 450 563 656 697 704 686 675 631
2970.0 547 449 361 299 264 257 270 318 393 549
3010.0 758 845 743 537 432 450 493 542 546 506
3050.0 450 444 493 585 781 1004 1064 951 796 723
3090.0 662 570 478 400 332 253 189 146 119 97
3130.0 87 74 61 57 53 56 59 54 53 40
3170.0 32 27 21 17 15 15 17 10 5 7
3210.0 7 11 4 6 5 5 8 4 3 6
3250.0 4 9 4 3 4 5 7 3 3 7
3290.0 13 2 6 7 4 0 6 11 20 38
3330.0 48 57 61 53 38 23 10 13 18 11
3370.0 12 14 13 17 16 13 15 11 12 16
3410.0 18 16 12 7 18 19 18 22 22 26
3450.0 22 18 24 22 28 26 20 25 22 22
3490.0 22 27 18 20 22 22 21 19 25 22
3530.0 24 19 20 28 31 25 30 32 24 21
3570.0 26 32 26 25 28 27 29 20 28 20
3610.0 33 19 25 22 22 26 22 19 19 26
3650.0 30 21 35 30 24 34 25 36 17 32
3690.0 24 27 26 27 15 27 17 18 29 35
3730.0 17 17 29 31 42 24 39 23 17 22
3770.0 32 34 17 19 35 25 10 14 17 20
3810.0 12 22 22 19 24 9 13 30 22 24
3850.0 24 39 28 25 35 27 29 30 25 32
3890.0 22 25 27 37 40 35 21 18 16 21
3930.0 31 16 21 21 35 18 32 11 21 23
##END=
