##TITLE=1-Propanone, 2-methyl-1-phenyl-
##JCAMP-DX=4.24
##DATA TYPE=INFRARED SPECTRUM
##ORIGIN=Sadtler Research Labs Under US-EPA Contract
##OWNER=NIST Standard Reference Data Program
##CAS REGISTRY NO=611-70-1
##MOLFORM=C 10 H 12 O
##XUNITS=1/CM
##YUNITS=ABSORBANCE
##XFACTOR=1.0
##YFACTOR=0.000045819
##DELTAX=4.0
##FIRSTX=450.0
##LASTX=3966.0
##FIRSTY=0.000000
##MAXX=3966
##MINX=450
##MAXY=0.45819
##MINY=0
##NPOINTS=880
##XYDATA=(X++(Y..Y))
450.0 0 447 565 512 493 471 548 316 498 555
490.0 527 453 620 587 432 504 439 508 406 523
530.0 433 552 540 561 547 490 530 403 490 440
570.0 450 407 434 472 440 466 406 442 397 436
610.0 389 444 445 466 610 774 884 1122 1226 1202
650.0 1054 779 752 724 845 974 1004 1320 1715 2465
690.0 3348 4311 4970 5059 4533 3826 2936 2158 1713 1295
730.0 1058 848 756 721 623 603 551 550 515 563
770.0 485 651 785 924 1127 1029 846 838 638 528
810.0 451 410 409 373 415 397 403 374 401 401
850.0 397 447 525 649 689 717 652 535 444 405
890.0 438 419 442 447 478 521 573 634 686 733
930.0 716 717 698 739 770 862 1003 1274 1718 2533
970.0 3984 5657 6482 6226 4951 2826 1684 1432 1249 1123
1010.0 976 641 529 543 529 508 478 449 420 405
1050.0 421 424 444 474 510 524 567 606 683 777
1090.0 828 898 926 925 882 820 714 640 615 597
1130.0 619 629 677 743 887 1146 1585 2027 2275 2225
1170.0 1890 1448 1136 1007 956 957 1005 1201 1687 2541
1210.0 4017 6040 7912 8574 7882 5771 3405 2177 1695 1362
1250.0 1106 910 836 856 884 919 931 945 977 1030
1290.0 1058 1039 977 894 787 742 731 747 798 876
1330.0 981 1141 1339 1645 1974 2143 2098 1861 1548 1398
1370.0 1396 1473 1611 1995 2211 2159 1922 1312 796 668
1410.0 598 587 555 573 567 625 733 974 1392 1775
1450.0 1944 2041 1875 1720 1869 1934 1813 1620 1284 947
1490.0 754 675 602 566 539 539 517 528 508 508
1530.0 486 494 495 487 487 480 483 489 524 563
1570.0 674 821 961 1038 1074 1089 1095 1171 1170 1083
1610.0 901 747 687 666 641 624 603 598 596 618
1650.0 622 688 738 801 888 1004 1139 1391 1841 2688
1690.0 4181 6497 9094 9916 10000 8392 5470 3329 2094 1475
1730.0 1145 973 825 726 622 575 533 526 514 503
1770.0 509 472 460 432 416 401 439 447 498 535
1810.0 556 548 505 465 424 411 397 395 404 393
1850.0 396 388 386 374 372 380 393 401 422 442
1890.0 465 481 483 501 497 488 465 443 407 394
1930.0 388 391 403 420 464 480 525 519 526 519
1970.0 501 477 448 417 376 378 360 364 369 363
2010.0 357 364 357 359 361 359 363 361 359 358
2050.0 351 358 349 343 343 359 351 357 350 350
2090.0 345 338 342 328 327 337 337 339 339 338
2130.0 325 339 328 334 336 337 332 331 329 331
2170.0 339 335 337 336 341 338 345 333 332 331
2210.0 330 334 333 347 350 359 349 343 342 352
2250.0 360 344 355 361 350 354 343 349 343 345
2290.0 346 358 359 369 368 389 400 419 421 419
2330.0 425 416 440 409 456 465 478 442 456 418
2370.0 416 401 401 386 370 367 352 346 336 334
2410.0 347 350 354 360 379 374 375 379 387 371
2450.0 358 369 365 371 363 373 362 358 365 363
2490.0 359 361 368 355 359 360 361 363 363 361
2530.0 358 369 369 378 366 378 384 376 379 391
2570.0 382 368 380 371 383 387 394 383 384 388
2610.0 367 374 373 378 376 374 380 369 369 367
2650.0 369 363 375 376 371 378 381 379 372 369
2690.0 385 386 382 383 372 391 381 398 393 402
2730.0 413 428 442 430 431 426 434 420 430 421
2770.0 432 430 448 435 428 440 437 444 462 475
2810.0 484 501 527 527 547 533 519 529 555 563
2850.0 572 608 651 694 785 959 1233 1582 1895 2038
2890.0 1962 1770 1572 1443 1393 1446 1599 1785 2006 2238
2930.0 2447 2612 2812 2981 3010 2804 2561 2324 2301 2729
2970.0 3830 5325 6189 6375 5614 4095 2845 1984 1422 1115
3010.0 946 854 863 922 996 1099 1210 1333 1368 1345
3050.0 1337 1278 1334 1518 1846 2258 2423 2378 2224 1816
3090.0 1670 1637 1515 1337 1126 953 794 687 590 557
3130.0 533 518 514 500 495 469 504 507 518 528
3170.0 506 475 475 465 470 488 454 465 439 454
3210.0 452 454 443 429 434 416 411 433 431 420
3250.0 428 436 428 413 411 433 431 416 402 415
3290.0 442 449 404 437 418 419 413 394 422 441
3330.0 418 374 419 402 404 447 463 438 402 427
3370.0 461 496 561 556 548 560 560 482 470 427
3410.0 411 375 397 390 409 436 390 407 431 381
3450.0 378 322 378 379 427 446 453 399 359 369
3490.0 370 381 381 361 357 387 375 382 375 394
3530.0 418 360 394 396 399 384 391 402 407 385
3570.0 382 405 426 395 398 398 396 406 408 348
3610.0 441 402 398 403 413 410 439 404 442 409
3650.0 443 457 404 416 449 413 417 452 453 404
3690.0 382 449 388 383 437 437 448 433 445 434
3730.0 448 423 442 402 365 431 398 428 428 397
3770.0 396 385 419 438 424 449 422 387 412 417
3810.0 363 429 424 433 446 448 436 427 503 437
3850.0 410 457 477 429 424 455 463 483 463 441
3890.0 411 512 420 455 434 483 465 401 441 412
3930.0 457 516 445 413 465 407 401 418 483 432
##END=
