##TITLE=Benzenamine, 3-methyl-4-nitro-
##JCAMP-DX=4.24
##DATA TYPE=INFRARED SPECTRUM
##ORIGIN=Sadtler Research Labs Under US-EPA Contract
##OWNER=NIST Standard Reference Data Program
##CAS REGISTRY NO=611-05-2
##MOLFORM=C 7 H 8 N 2 O 2
##XUNITS=1/CM
##YUNITS=ABSORBANCE
##XFACTOR=1.0
##YFACTOR=0.000046524
##DELTAX=4.0
##FIRSTX=450.0
##LASTX=3966.0
##FIRSTY=0.000000
##MAXX=3966
##MINX=450
##MAXY=0.46524
##MINY=0
##NPOINTS=880
##XYDATA=(X++(Y..Y))
450.0 0 681 427 511 411 735 691 743 737 581
490.0 555 567 785 544 761 582 491 409 533 640
530.0 540 523 346 1034 522 781 614 761 663 735
570.0 806 1030 965 881 878 1161 1193 1354 1466 1487
610.0 1905 2104 1953 1926 1442 913 689 744 935 839
650.0 915 1010 1233 1328 1593 1897 2283 2306 2444 2505
690.0 2006 1595 1221 1234 1048 1155 1150 1065 1067 998
730.0 1096 926 1074 1229 1305 1592 1570 1379 1304 1248
770.0 1053 881 789 784 795 701 799 900 953 1009
810.0 1229 1377 1495 1480 1478 1893 2510 2826 2946 2961
850.0 2644 2179 1552 1285 1044 799 639 568 394 458
890.0 372 318 388 431 326 405 445 400 428 463
930.0 477 596 632 761 851 819 769 635 546 416
970.0 398 363 371 356 371 380 375 402 418 425
1010.0 504 523 470 490 464 466 461 461 480 451
1050.0 462 493 512 578 701 873 990 1057 1071 1003
1090.0 920 825 673 571 489 454 406 364 400 403
1130.0 383 350 365 438 483 608 726 778 785 750
1170.0 599 492 457 452 424 403 384 371 339 369
1210.0 351 368 377 427 405 447 562 572 616 727
1250.0 844 1196 1955 3002 3577 3627 3300 2405 1587 1472
1290.0 1783 2301 2858 3293 3690 3895 3921 3794 3487 3268
1330.0 3429 4332 6182 8356 9737 10000 8854 6254 3828 2426
1370.0 1707 1357 1252 1143 1122 1040 1035 993 837 802
1410.0 841 875 997 1033 1101 1156 1247 1233 1200 1170
1450.0 1157 1246 1272 1269 1257 1193 1296 1470 1819 2428
1490.0 2979 3266 3411 3404 3370 3514 4185 5126 6493 7646
1530.0 8155 7882 7420 6076 4554 3747 3105 2909 2840 2767
1570.0 2843 2903 3321 3940 4582 5284 5522 5346 4939 4347
1610.0 4361 4912 5878 7175 7790 7944 7337 5647 4333 2755
1650.0 1878 1340 943 910 777 687 696 553 632 593
1690.0 542 575 554 542 506 500 473 454 451 417
1730.0 436 483 394 404 397 403 391 387 390 403
1770.0 426 374 373 396 392 408 422 409 424 391
1810.0 402 403 373 383 404 397 378 382 388 417
1850.0 380 391 408 403 421 410 403 415 437 452
1890.0 457 446 436 422 419 398 376 392 397 373
1930.0 369 370 364 375 364 361 382 380 369 393
1970.0 399 392 402 396 390 412 412 403 403 417
2010.0 422 426 417 409 408 418 431 438 439 422
2050.0 435 425 425 411 408 412 397 401 407 394
2090.0 395 411 385 382 387 400 392 373 387 387
2130.0 391 383 381 401 394 415 416 419 412 417
2170.0 396 411 410 424 400 410 399 394 376 370
2210.0 358 369 373 359 372 363 381 370 390 384
2250.0 385 396 390 380 383 388 391 380 365 386
2290.0 379 372 391 403 405 414 400 432 431 458
2330.0 393 387 408 435 418 400 456 420 404 359
2370.0 356 323 328 354 359 376 381 385 391 398
2410.0 417 432 440 452 450 426 423 425 421 416
2450.0 399 377 379 401 378 376 363 363 377 356
2490.0 358 342 352 356 357 350 343 344 334 355
2530.0 352 319 329 330 329 347 367 385 394 405
2570.0 402 403 406 403 412 414 403 407 408 424
2610.0 424 429 450 446 459 446 438 437 424 410
2650.0 404 402 378 385 397 402 383 403 410 417
2690.0 417 413 414 412 399 403 424 416 422 421
2730.0 436 416 428 427 432 446 435 439 429 429
2770.0 419 422 413 420 416 416 417 417 428 417
2810.0 418 429 428 445 448 455 456 480 493 524
2850.0 524 542 591 602 633 627 633 639 605 586
2890.0 558 552 550 541 568 586 596 612 637 688
2930.0 747 845 946 1004 1039 1016 978 881 789 742
2970.0 717 735 769 817 889 909 881 835 769 722
3010.0 705 729 796 903 997 1028 997 940 832 760
3050.0 753 769 787 783 781 745 723 690 640 585
3090.0 518 450 436 398 402 407 415 406 407 393
3130.0 378 379 376 370 384 382 376 380 401 383
3170.0 395 388 396 409 410 433 426 435 446 464
3210.0 470 481 483 482 462 440 431 407 385 382
3250.0 391 381 376 351 349 346 359 333 346 347
3290.0 347 336 363 336 349 329 321 332 355 331
3330.0 335 362 340 333 347 339 347 353 360 357
3370.0 390 368 383 358 424 420 462 529 611 702
3410.0 885 1102 1184 1251 1297 1246 1237 1201 1095 975
3450.0 790 598 450 398 404 417 413 433 447 464
3490.0 517 594 673 705 727 726 739 679 652 678
3530.0 706 689 651 566 535 443 445 408 392 388
3570.0 395 389 400 404 388 412 436 397 442 414
3610.0 420 380 397 389 395 425 331 410 431 387
3650.0 404 383 377 430 410 385 431 402 401 409
3690.0 381 412 436 422 423 417 465 402 408 396
3730.0 433 398 418 467 423 473 372 398 392 369
3770.0 382 389 390 421 378 380 358 369 397 392
3810.0 316 409 406 424 366 389 526 501 416 461
3850.0 418 438 393 440 463 428 403 350 477 373
3890.0 398 411 376 312 365 380 319 368 383 429
3930.0 446 420 349 393 488 475 470 389 358 435
##END=
