##TITLE=Methyl 2-furoate
##JCAMP-DX=4.24
##DATA TYPE=INFRARED SPECTRUM
##ORIGIN=Sadtler Research Labs Under US-EPA Contract
##OWNER=NIST Standard Reference Data Program
##CAS REGISTRY NO=611-13-2
##MOLFORM=C 6 H 6 O 3
##XUNITS=1/CM
##YUNITS=ABSORBANCE
##XFACTOR=1.0
##YFACTOR=0.000092090
##DELTAX=4.0
##FIRSTX=450.0
##LASTX=3966.0
##FIRSTY=0.000000
##MAXX=3966
##MINX=450
##MAXY=0.9209
##MINY=0
##NPOINTS=880
##XYDATA=(X++(Y..Y))
450.0 0 24 46 70 96 145 182 216 289 252
490.0 185 163 161 166 117 118 151 144 184 143
530.0 109 149 177 190 170 165 186 134 159 236
570.0 216 257 276 321 399 394 556 507 464 495
610.0 481 509 554 509 468 442 396 406 339 309
650.0 303 303 313 303 295 313 289 326 373 357
690.0 390 348 345 325 329 347 319 347 418 483
730.0 695 978 1316 1731 1981 2952 2901 2365 2696 2392
770.0 1861 1517 1270 1147 1123 1056 957 918 848 692
810.0 532 488 490 472 499 495 546 481 447 431
850.0 404 401 437 449 509 557 622 728 863 830
890.0 888 1009 912 829 871 788 808 876 714 576
930.0 495 442 419 429 434 479 514 586 667 783
970.0 899 1014 1091 1156 1213 1189 1099 1049 1115 1227
1010.0 1274 1174 1094 1103 832 636 582 482 459 462
1050.0 457 497 515 551 668 851 1067 1095 1135 1239
1090.0 1113 1001 1128 1430 2010 2865 4001 5097 5685 5654
1130.0 5031 3845 2550 1641 1174 929 931 1341 2180 2985
1170.0 3618 4319 4506 4004 3861 3692 3345 2937 2667 2252
1210.0 1614 1167 1062 1292 1727 1864 1877 1854 1508 958
1250.0 722 680 752 925 1179 1480 1876 2485 3483 5070
1290.0 7229 9128 9976 10000 8617 6353 3910 2173 1268 857
1330.0 653 555 516 474 475 461 457 468 480 499
1370.0 523 574 689 820 984 1121 1106 1049 921 705
1410.0 536 471 460 459 559 798 1159 1369 1466 1509
1450.0 1163 862 811 949 1063 1294 1720 2200 2350 2279
1490.0 2234 1848 1223 782 592 515 434 361 327 331
1530.0 327 332 319 288 344 360 402 453 618 883
1570.0 1151 1487 1811 1966 1886 1728 1400 929 586 440
1610.0 388 377 374 384 368 367 359 326 315 287
1650.0 300 283 348 369 390 413 427 442 474 459
1690.0 521 536 543 554 583 646 711 825 1106 1535
1730.0 2249 3315 4835 5881 6009 6971 7707 6977 5939 5385
1770.0 5288 4051 2719 1904 1382 1012 769 635 557 528
1810.0 527 523 540 545 514 443 393 324 265 236
1850.0 226 214 208 213 223 219 222 230 236 231
1890.0 234 224 228 228 222 223 211 215 211 201
1930.0 195 186 177 176 168 173 174 176 182 186
1970.0 185 192 184 190 184 180 175 162 155 141
2010.0 133 136 140 141 140 139 144 143 143 141
2050.0 134 135 136 135 139 143 148 158 175 203
2090.0 211 216 221 208 194 172 158 149 131 127
2130.0 125 114 119 118 117 122 118 118 110 111
2170.0 116 107 108 110 110 116 116 120 128 125
2210.0 131 132 123 123 116 111 108 108 114 108
2250.0 105 107 99 100 101 104 104 102 108 105
2290.0 101 111 117 116 124 126 126 128 121 127
2330.0 115 125 126 122 121 131 119 115 120 140
2370.0 130 102 107 107 99 98 96 114 106 106
2410.0 110 98 98 94 92 90 83 85 84 84
2450.0 88 88 93 104 103 103 96 94 99 91
2490.0 93 99 94 92 91 86 84 78 83 84
2530.0 80 90 79 85 90 84 90 88 89 93
2570.0 82 86 81 72 75 75 78 86 80 78
2610.0 77 71 69 64 63 64 62 67 68 74
2650.0 77 73 81 79 69 68 57 50 51 44
2690.0 49 42 40 46 35 43 40 33 39 39
2730.0 36 31 24 28 32 35 41 36 39 47
2770.0 45 52 48 58 58 52 57 53 47 50
2810.0 51 54 61 61 80 75 91 119 159 227
2850.0 278 299 317 297 243 186 146 138 137 142
2890.0 153 165 198 211 226 254 264 264 257 250
2930.0 241 223 240 273 351 545 881 1226 1313 1282
2970.0 1183 818 472 337 301 308 346 363 407 413
3010.0 378 373 353 343 339 323 307 286 268 238
3050.0 197 163 140 129 125 108 102 103 96 101
3090.0 95 96 94 86 98 88 92 104 101 117
3130.0 123 117 115 91 87 79 72 84 83 77
3170.0 67 63 66 57 59 60 60 57 59 51
3210.0 59 62 63 68 70 72 85 67 83 77
3250.0 72 64 57 66 62 54 70 57 64 66
3290.0 62 69 62 68 70 71 75 74 66 75
3330.0 82 82 77 81 78 68 68 72 64 67
3370.0 65 67 72 72 71 63 64 72 72 62
3410.0 71 67 71 68 63 79 67 72 73 78
3450.0 79 74 82 101 107 110 99 91 99 96
3490.0 85 91 86 96 88 93 103 81 78 81
3530.0 67 65 64 60 60 54 60 55 50 63
3570.0 64 59 64 65 61 60 67 61 50 55
3610.0 50 44 44 39 52 39 40 45 39 42
3650.0 24 34 33 42 52 27 24 26 30 26
3690.0 24 34 35 34 35 29 31 40 36 33
3730.0 32 25 26 24 24 24 24 26 25 26
3770.0 24 26 25 27 25 26 27 24 24 24
3810.0 24 24 24 24 24 24 24 24 24 24
3850.0 24 24 24 24 24 24 24 24 24 24
3890.0 24 24 24 24 24 24 24 24 24 24
3930.0 24 24 24 24 24 24 24 24 24 24
##END=
