##TITLE=Benzene, 2,4-dichloro-1-nitro-
##JCAMP-DX=4.24
##DATA TYPE=INFRARED SPECTRUM
##ORIGIN=Sadtler Research Labs Under US-EPA Contract
##OWNER=NIST Standard Reference Data Program
##CAS REGISTRY NO=611-06-3
##MOLFORM=C 6 H 3 Cl 2 N O 2
##XUNITS=1/CM
##YUNITS=ABSORBANCE
##XFACTOR=1.0
##YFACTOR=0.000053467
##DELTAX=4.0
##FIRSTX=450.0
##LASTX=3966.0
##FIRSTY=0.001337
##MAXX=3966
##MINX=450
##MAXY=0.53467
##MINY=0
##NPOINTS=880
##XYDATA=(X++(Y..Y))
450.0 25 12 53 68 130 179 151 201 181 181
490.0 234 182 157 200 72 248 166 283 657 861
530.0 1314 1765 1989 1812 1138 494 243 115 232 327
570.0 361 499 456 562 377 335 238 104 288 199
610.0 259 249 124 180 173 147 177 224 288 207
650.0 168 242 307 266 290 492 435 397 321 416
690.0 336 343 328 171 170 144 184 213 212 224
730.0 274 321 471 577 669 604 491 408 367 322
770.0 412 449 581 811 1110 1348 1360 1329 869 706
810.0 775 1007 1507 1840 2314 1978 1376 1044 901 930
850.0 1284 2343 4718 7053 7721 6822 4190 1697 1001 593
890.0 400 218 205 276 182 275 185 172 197 255
930.0 200 95 104 151 206 158 166 176 148 157
970.0 187 126 166 183 123 164 137 176 179 155
1010.0 179 174 200 111 139 238 266 396 661 981
1050.0 1074 990 957 721 512 476 546 515 624 596
1090.0 790 892 1354 1935 2403 2480 2209 1469 940 777
1130.0 840 1160 1494 1569 1537 1138 664 510 397 348
1170.0 334 343 317 280 264 243 263 236 206 204
1210.0 175 186 177 184 210 166 188 237 266 327
1250.0 327 289 248 229 267 336 408 492 501 501
1290.0 502 475 503 548 606 700 767 861 1014 1263
1330.0 1731 2492 3654 4977 6063 6765 6777 5884 4798 3589
1370.0 2576 2119 1843 1595 1339 1109 958 907 905 895
1410.0 846 711 578 478 483 550 699 1036 1328 1681
1450.0 1905 2051 2378 2788 3241 3085 2549 1526 847 672
1490.0 705 713 869 980 1229 1482 1686 2007 2393 2798
1530.0 3346 4129 5155 6473 7497 8083 8007 7313 6423 6067
1570.0 6335 7136 8394 9566 10000 8958 6871 4619 2804 1676
1610.0 1078 776 706 577 555 513 493 493 457 515
1650.0 491 541 334 307 253 254 205 204 189 238
1690.0 168 165 204 229 157 144 153 213 160 163
1730.0 197 281 250 269 247 247 180 180 192 178
1770.0 230 239 177 164 139 138 153 113 140 114
1810.0 132 131 133 120 150 151 108 107 119 147
1850.0 117 109 109 118 109 145 116 132 152 172
1890.0 202 209 195 173 153 133 124 132 113 110
1930.0 105 107 101 102 91 77 78 82 74 83
1970.0 92 91 83 89 76 90 84 90 77 82
2010.0 90 70 79 79 60 69 69 75 82 70
2050.0 72 70 76 65 76 66 75 74 74 74
2090.0 64 66 65 72 72 62 68 64 69 70
2130.0 62 70 69 70 71 67 67 74 68 69
2170.0 59 62 59 66 57 66 65 67 60 65
2210.0 74 68 75 52 55 56 54 53 61 61
2250.0 72 80 72 68 65 70 84 70 92 86
2290.0 113 113 123 142 131 167 151 164 190 188
2330.0 185 188 208 210 229 202 239 266 259 230
2370.0 237 169 144 132 103 81 67 70 68 68
2410.0 67 74 76 60 66 67 56 57 58 46
2450.0 55 45 55 63 45 44 45 45 44 48
2490.0 52 53 61 59 60 60 59 69 69 69
2530.0 47 60 50 45 44 40 48 48 48 56
2570.0 56 45 34 46 40 33 40 57 51 43
2610.0 44 54 70 70 61 61 49 44 59 77
2650.0 63 67 74 77 67 74 85 84 93 96
2690.0 101 102 102 91 92 92 75 73 72 62
2730.0 62 53 53 42 43 28 30 30 20 32
2770.0 33 30 12 22 22 21 17 40 34 28
2810.0 34 39 39 50 46 60 66 67 59 65
2850.0 70 87 86 93 97 109 122 151 151 150
2890.0 151 161 152 170 141 123 132 110 123 92
2930.0 99 88 88 88 80 51 52 39 54 56
2970.0 37 18 29 26 30 43 8 16 53 35
3010.0 35 30 57 42 24 40 45 25 33 29
3050.0 36 35 46 25 46 18 30 33 36 54
3090.0 63 92 106 113 103 74 47 18 34 19
3130.0 20 19 34 23 19 38 21 30 20 29
3170.0 29 15 16 5 6 15 13 19 18 29
3210.0 9 22 13 30 13 16 7 10 15 7
3250.0 11 28 36 14 13 4 13 32 33 28
3290.0 36 30 40 5 38 20 21 35 23 42
3330.0 34 25 35 25 28 20 40 29 25 41
3370.0 46 8 35 26 52 35 29 19 26 43
3410.0 36 31 59 45 38 27 36 27 19 37
3450.0 32 42 33 31 32 23 50 39 48 54
3490.0 38 28 36 49 63 29 46 37 57 57
3530.0 39 47 48 30 39 47 35 35 60 76
3570.0 81 43 57 44 62 90 30 67 58 50
3610.0 96 86 59 75 50 107 64 45 48 66
3650.0 105 68 68 47 44 85 79 83 46 65
3690.0 97 72 53 97 52 43 50 63 63 78
3730.0 71 95 97 77 111 104 77 34 34 74
3770.0 54 49 60 50 30 16 7 17 24 8
3810.0 2 8 35 27 18 24 31 63 72 36
3850.0 41 68 12 27 55 47 45 9 22 16
3890.0 0 18 20 45 31 12 3 2 2 2
3930.0 3 4 4 14 35 26 1 2 2 2
##END=
