##TITLE=Benzonitrile, 2-hydroxy-
##JCAMP-DX=4.24
##DATA TYPE=INFRARED SPECTRUM
##ORIGIN=Sadtler Research Labs Under US-EPA Contract
##OWNER=NIST Standard Reference Data Program
##CAS REGISTRY NO=611-20-1
##MOLFORM=C 7 H 5 N O
##XUNITS=1/CM
##YUNITS=ABSORBANCE
##XFACTOR=1.0
##YFACTOR=0.000040585
##DELTAX=4.0
##FIRSTX=450.0
##LASTX=3966.0
##FIRSTY=0.077843
##MAXX=3966
##MINX=450
##MAXY=0.40585
##MINY=0
##NPOINTS=880
##XYDATA=(X++(Y..Y))
450.0 1918 1106 0 942 1674 702 2073 1100 1021 2789
490.0 2036 1920 1132 1248 1228 525 678 590 707 594
530.0 840 1687 1563 252 1115 490 662 967 1139 1055
570.0 431 536 326 513 557 559 761 593 679 671
610.0 528 792 572 597 732 577 688 643 502 500
650.0 429 456 312 430 348 635 550 458 525 774
690.0 723 826 762 919 937 937 1558 1339 1467 1799
730.0 2040 2505 3341 4237 4933 6758 10000 7556 4865 4409
770.0 3625 2347 1551 882 640 550 623 479 510 528
810.0 376 433 394 432 631 850 1210 1757 1519 1343
850.0 1648 1550 1237 921 692 572 510 474 540 480
890.0 458 355 303 252 394 337 343 339 394 503
930.0 481 548 560 716 818 654 648 569 494 517
970.0 360 404 373 301 329 308 289 247 256 285
1010.0 358 512 688 1020 1124 1034 1031 1046 799 541
1050.0 364 296 366 245 320 350 488 621 709 972
1090.0 980 863 897 950 924 638 681 760 830 1037
1130.0 1098 1231 1617 2084 2723 2569 2265 2811 3321 2832
1170.0 2811 2843 2969 3326 3368 3447 3873 4285 5174 6408
1210.0 7357 8014 9119 9960 8914 7679 7199 6139 4893 4404
1250.0 4074 3302 3048 2845 2248 1624 1395 1409 1881 2436
1290.0 3039 3574 3783 3785 3580 3154 2597 2174 1957 2067
1330.0 2310 2510 2521 2520 2719 2522 1936 1464 1147 885
1370.0 753 757 732 722 694 690 716 707 635 598
1410.0 648 541 726 633 722 731 772 920 1140 1469
1450.0 1882 2298 2740 3017 3443 4028 5026 6357 7706 7947
1490.0 7533 7695 7049 4714 2941 1927 1377 924 767 635
1530.0 638 659 627 745 822 897 1082 1517 1869 2368
1570.0 2814 3128 3314 3679 3762 3356 2909 2967 3142 3384
1610.0 3612 3664 3433 3169 2742 2042 1411 914 665 648
1650.0 541 559 545 606 648 791 985 1048 1155 1178
1690.0 1140 999 892 725 688 576 610 621 621 675
1730.0 682 782 616 534 528 503 445 421 439 436
1770.0 472 446 418 448 481 505 534 517 561 488
1810.0 455 428 350 385 393 367 379 346 379 366
1850.0 344 305 301 320 314 376 351 347 344 346
1890.0 363 373 364 374 392 446 449 439 451 405
1930.0 381 362 382 427 442 409 381 362 310 282
1970.0 217 198 197 237 227 210 183 184 193 212
2010.0 209 228 253 258 250 239 250 260 225 231
2050.0 222 207 196 212 275 259 233 249 241 256
2090.0 267 254 247 225 246 223 218 215 210 205
2130.0 214 221 242 222 198 187 178 204 189 184
2170.0 184 204 212 209 217 221 260 314 414 589
2210.0 842 1185 1504 1698 1788 1720 1523 1150 721 426
2250.0 337 293 282 260 235 249 255 246 237 229
2290.0 227 231 252 253 282 302 316 337 329 339
2330.0 395 396 432 402 489 324 289 224 366 387
2370.0 366 404 389 315 275 215 194 225 245 242
2410.0 223 229 213 216 213 219 224 231 223 232
2450.0 215 240 231 233 254 246 225 235 236 221
2490.0 220 216 236 249 262 289 284 274 273 260
2530.0 270 288 259 260 232 243 240 201 192 188
2570.0 185 178 183 183 177 184 196 189 171 167
2610.0 183 166 170 173 168 159 167 163 167 152
2650.0 156 167 157 162 148 177 199 211 217 224
2690.0 240 245 242 245 247 249 230 235 238 270
2730.0 259 240 236 205 164 166 153 151 161 179
2770.0 184 190 167 181 167 148 153 145 139 142
2810.0 144 148 154 149 155 157 143 137 127 129
2850.0 129 122 133 123 129 140 131 107 93 106
2890.0 103 122 110 93 114 107 125 135 136 155
2930.0 195 188 188 196 191 158 160 142 130 153
2970.0 155 146 163 186 175 197 213 216 237 236
3010.0 260 313 334 378 423 462 466 523 589 651
3050.0 728 806 908 965 1007 1071 1083 1083 1131 1145
3090.0 1136 1067 964 884 810 687 532 443 371 342
3130.0 354 330 320 315 323 342 354 344 341 361
3170.0 369 393 378 378 371 393 415 394 410 358
3210.0 361 348 366 339 343 372 367 335 362 378
3250.0 371 388 369 356 365 363 346 334 342 331
3290.0 344 347 349 322 358 354 366 337 358 360
3330.0 388 396 371 351 362 376 403 367 372 375
3370.0 370 403 376 378 443 506 539 407 341 277
3410.0 237 176 132 181 268 432 489 534 553 592
3450.0 573 556 523 510 389 389 366 378 385 343
3490.0 372 385 366 435 418 408 425 412 424 452
3530.0 425 450 459 481 494 546 619 643 763 1053
3570.0 1864 3806 5649 6594 7193 7554 6660 5114 2851 1476
3610.0 963 690 655 570 601 619 749 843 1076 1152
3650.0 1106 1002 1211 987 767 681 478 481 466 496
3690.0 496 534 527 589 595 597 604 696 667 708
3730.0 625 617 667 708 876 1143 1499 1588 1612 1477
3770.0 1398 1165 824 571 601 656 746 745 680 615
3810.0 741 735 900 826 858 816 799 763 732 665
3850.0 622 625 669 803 780 692 802 736 757 732
3890.0 747 749 799 710 781 848 702 729 758 704
3930.0 768 574 647 748 685 728 742 864 964 812
##END=
