##TITLE=Benzene, 1-chloro-2-(chloromethyl)-
##JCAMP-DX=4.24
##DATA TYPE=INFRARED SPECTRUM
##ORIGIN=Sadtler Research Labs Under US-EPA Contract
##OWNER=NIST Standard Reference Data Program
##CAS REGISTRY NO=611-19-8
##MOLFORM=C 7 H 6 Cl 2
##XUNITS=1/CM
##YUNITS=ABSORBANCE
##XFACTOR=1.0
##YFACTOR=0.000073953
##DELTAX=4.0
##FIRSTX=450.0
##LASTX=3966.0
##FIRSTY=0.011980
##MAXX=3966
##MINX=450
##MAXY=0.73953
##MINY=0
##NPOINTS=880
##XYDATA=(X++(Y..Y))
450.0 162 246 192 106 87 40 26 79 88 132
490.0 95 170 99 187 139 125 93 36 87 28
530.0 25 1 33 44 89 180 122 184 392 573
570.0 941 1088 992 838 459 152 117 66 79 64
610.0 87 93 98 116 87 99 137 98 118 144
650.0 201 323 561 933 1587 2424 2853 3200 3331 3477
690.0 3472 3477 3002 2353 1685 1258 1106 1257 1955 3284
730.0 5230 7283 10000 9044 8119 6725 4701 3401 2386 1498
770.0 796 533 327 228 200 198 355 175 251 337
810.0 624 1214 2011 2268 2173 1806 1037 425 261 243
850.0 244 253 249 239 302 137 132 108 112 125
890.0 141 221 251 306 296 277 210 164 115 95
930.0 101 126 173 218 248 230 197 144 95 80
970.0 45 63 55 71 70 112 148 204 265 303
1010.0 354 381 442 562 816 1309 1994 2567 2924 3701
1050.0 4079 4057 3928 3433 2353 1239 537 225 146 124
1090.0 150 181 203 239 276 418 663 1058 1410 1552
1130.0 1557 1322 916 563 375 275 268 240 244 236
1170.0 215 206 201 235 251 287 309 353 416 447
1210.0 475 438 390 304 263 249 247 292 346 459
1250.0 607 876 1259 1698 2064 2314 2547 2558 2424 2146
1290.0 1805 1245 963 810 642 469 257 161 102 92
1330.0 81 73 92 72 77 69 94 101 124 117
1370.0 99 119 91 96 99 121 128 166 200 242
1410.0 319 352 466 496 656 866 1399 2258 3197 3706
1450.0 3843 3587 2601 2006 2038 2415 2754 2942 2817 2334
1490.0 1865 1376 936 577 366 237 171 145 130 97
1530.0 96 72 108 97 115 108 158 202 288 439
1570.0 661 876 989 1094 1045 989 935 880 750 584
1610.0 370 239 204 158 165 118 136 85 92 71
1650.0 79 74 53 59 68 75 110 83 137 131
1690.0 142 121 182 179 203 207 219 228 182 152
1730.0 123 133 94 81 90 79 75 67 80 64
1770.0 90 71 61 77 93 151 201 263 258 240
1810.0 194 146 113 122 148 143 156 123 120 83
1850.0 58 47 44 56 50 70 60 76 90 91
1890.0 101 91 90 99 144 193 239 262 244 211
1930.0 147 129 128 164 205 212 201 158 101 47
1970.0 29 14 20 16 4 21 16 11 4 22
2010.0 11 18 23 23 34 20 31 21 34 17
2050.0 18 15 16 24 11 28 15 21 15 13
2090.0 10 3 8 0 4 0 8 0 7 11
2130.0 7 14 0 15 7 7 9 7 17 8
2170.0 19 9 23 6 15 7 5 8 11 9
2210.0 3 13 5 13 6 9 16 9 24 18
2250.0 24 26 27 31 24 34 26 39 31 41
2290.0 40 48 42 34 45 44 80 77 105 88
2330.0 93 88 67 85 66 73 59 56 35 27
2370.0 26 14 27 14 20 9 27 17 25 26
2410.0 19 27 22 34 28 34 28 28 32 23
2450.0 28 14 36 22 20 19 11 28 20 34
2490.0 22 32 22 26 29 18 25 18 31 20
2530.0 24 13 31 23 14 26 18 43 25 42
2570.0 42 40 48 40 44 27 38 28 33 40
2610.0 41 42 30 44 36 52 40 47 48 49
2650.0 50 40 47 30 34 25 26 20 18 27
2690.0 20 42 34 52 55 66 65 64 75 56
2730.0 56 49 54 46 40 34 40 38 32 39
2770.0 30 38 36 18 31 30 32 30 34 25
2810.0 33 26 28 31 28 52 41 61 56 68
2850.0 72 81 80 84 118 112 153 154 181 189
2890.0 147 140 104 90 65 76 59 63 71 79
2930.0 100 84 127 133 163 206 240 316 383 506
2970.0 642 819 935 1050 898 701 545 396 303 240
3010.0 257 284 368 468 600 674 668 617 489 416
3050.0 373 437 566 828 1230 1696 2116 2373 2293 1957
3090.0 1544 1054 682 484 341 225 126 119 90 81
3130.0 82 88 109 104 137 133 136 117 104 82
3170.0 60 65 32 65 39 48 61 43 42 38
3210.0 56 38 36 38 43 46 48 44 29 45
3250.0 26 52 36 34 38 40 53 32 46 44
3290.0 45 27 57 46 40 50 55 64 41 49
3330.0 42 60 46 46 48 36 64 39 43 43
3370.0 36 50 44 57 36 71 44 42 50 52
3410.0 54 35 50 40 52 45 67 46 38 46
3450.0 39 53 49 57 48 43 51 47 54 43
3490.0 69 48 45 55 64 49 44 53 47 71
3530.0 56 56 50 44 53 38 40 50 64 33
3570.0 69 61 58 66 53 50 38 76 54 78
3610.0 56 7 30 48 48 51 64 51 64 47
3650.0 41 58 53 61 35 44 20 61 48 49
3690.0 59 31 60 30 50 59 51 59 65 70
3730.0 53 71 31 46 42 59 67 54 53 59
3770.0 74 60 67 74 65 56 64 56 42 58
3810.0 68 67 65 55 63 46 49 39 50 35
3850.0 53 32 43 61 51 57 58 63 67 83
3890.0 73 82 78 72 74 61 63 64 73 66
3930.0 70 81 75 63 43 49 43 51 52 39
##END=
