##TITLE=1-Propanol, 2-diethylamino-,
##JCAMP-DX=4.24
##DATA TYPE=INFRARED SPECTRUM
##ORIGIN=Sadtler Research Labs Under US-EPA Contract
##OWNER=NIST Standard Reference Data Program
##CAS REGISTRY NO=611-12-1
##MOLFORM=C 7 H 17 N O
##XUNITS=1/CM
##YUNITS=ABSORBANCE
##XFACTOR=1.0
##YFACTOR=0.000116812
##DELTAX=4.0
##FIRSTX=450.0
##LASTX=3966.0
##FIRSTY=0.035978
##MAXX=3966
##MINX=450
##MAXY=1.16812
##MINY=0
##NPOINTS=880
##XYDATA=(X++(Y..Y))
450.0 308 399 491 443 482 487 530 557 534 575
490.0 540 544 482 472 439 410 415 437 419 409
530.0 355 320 289 252 228 185 168 133 129 116
570.0 88 83 60 53 34 27 22 10 14 17
610.0 25 20 18 26 43 35 45 63 87 95
650.0 115 152 165 199 228 282 324 350 373 412
690.0 426 447 460 462 452 443 437 427 399 368
730.0 331 300 280 249 229 224 256 302 354 398
770.0 420 420 370 321 259 229 201 203 194 187
810.0 183 165 149 130 147 190 269 346 434 466
850.0 402 322 226 158 101 82 75 85 90 111
890.0 127 151 179 185 208 208 233 263 322 382
930.0 438 444 433 407 366 353 271 199 218 239
970.0 294 353 441 494 558 588 620 631 605 558
1010.0 508 477 465 492 556 676 838 1050 1301 1621
1050.0 1969 2335 2663 2887 3009 3000 2917 2785 2649 2494
1090.0 2335 2118 1878 1636 1443 1323 1280 1315 1404 1539
1130.0 1665 1762 1812 1839 1783 1579 1295 1062 905 801
1170.0 732 692 708 768 877 1045 1297 1588 1749 1730
1210.0 1532 1234 907 684 584 558 579 632 717 833
1250.0 1007 1216 1439 1628 1762 1805 1817 1819 1791 1730
1290.0 1631 1525 1407 1311 1227 1186 1193 1267 1385 1492
1330.0 1588 1636 1636 1560 1470 1380 1327 1308 1357 1548
1370.0 1868 2271 2610 2892 2916 2821 2526 2176 1887 1677
1410.0 1514 1309 1113 915 781 741 809 893 1033 1190
1450.0 1397 1549 1635 1619 1574 1515 1359 1197 938 715
1490.0 513 368 274 199 176 129 112 86 78 59
1530.0 55 44 46 26 24 31 24 16 28 13
1570.0 16 7 21 14 16 22 22 22 21 20
1610.0 14 15 19 13 17 11 28 16 25 23
1650.0 29 32 57 38 53 57 64 57 65 64
1690.0 86 102 136 153 170 185 178 169 152 118
1730.0 89 70 48 33 15 6 23 21 29 34
1770.0 37 31 32 29 37 28 39 38 35 34
1810.0 26 16 18 13 12 11 11 19 14 17
1850.0 16 19 16 18 11 7 11 8 8 7
1890.0 8 1 3 4 4 1 1 3 0 0
1930.0 2 3 6 2 5 9 11 12 17 15
1970.0 19 19 21 18 20 15 15 15 15 14
2010.0 11 12 8 8 5 5 3 5 4 7
2050.0 5 8 8 7 7 9 10 10 10 7
2090.0 7 7 7 9 8 10 7 9 8 8
2130.0 9 9 6 9 9 8 10 9 12 12
2170.0 12 14 14 17 18 16 18 19 17 17
2210.0 15 13 14 12 12 13 15 14 16 19
2250.0 22 20 25 28 32 32 34 34 34 35
2290.0 35 38 36 39 44 49 50 48 53 46
2330.0 44 28 30 21 28 24 29 21 10 8
2370.0 7 11 16 24 20 19 21 22 23 23
2410.0 23 23 26 27 32 36 35 36 34 32
2450.0 31 29 26 26 26 24 23 23 22 22
2490.0 23 24 27 25 30 33 35 39 44 49
2530.0 50 54 59 66 67 74 78 83 87 94
2570.0 101 107 116 118 123 124 128 131 135 141
2610.0 146 154 163 176 185 206 224 241 261 279
2650.0 294 307 319 324 333 334 341 344 352 362
2690.0 375 388 405 428 452 483 512 551 584 621
2730.0 653 684 709 728 753 787 839 898 970 1043
2770.0 1121 1210 1317 1457 1641 1888 2196 2588 3047 3562
2810.0 4039 4453 4740 4828 4745 4503 4179 3787 3406 3035
2850.0 2732 2485 2350 2331 2445 2711 3067 3423 3693 3873
2890.0 3879 3754 3571 3434 3380 3361 3410 3487 3645 3872
2930.0 4258 4714 5179 5475 5504 5330 5161 5199 5599 6587
2970.0 7883 9276 10000 9700 8504 6503 4576 2999 1931 1338
3010.0 1003 782 644 542 477 424 387 358 335 315
3050.0 297 284 270 256 245 233 220 210 204 194
3090.0 187 178 175 165 157 151 148 145 144 141
3130.0 138 133 129 129 120 118 118 114 114 112
3170.0 110 113 115 112 114 112 112 107 103 97
3210.0 93 87 82 74 69 63 62 58 58 57
3250.0 54 58 60 58 59 56 58 61 66 61
3290.0 63 63 62 63 65 69 69 72 77 79
3330.0 87 91 92 96 97 101 106 109 115 121
3370.0 128 128 132 137 143 155 154 170 176 190
3410.0 201 222 242 263 282 289 294 291 286 284
3450.0 281 291 294 292 286 282 279 287 302 353
3490.0 426 538 638 762 877 946 956 896 829 725
3530.0 637 564 506 464 425 394 369 353 325 328
3570.0 306 283 269 241 231 198 200 158 157 141
3610.0 142 122 121 118 120 133 135 124 141 135
3650.0 152 156 140 135 100 99 60 53 26 31
3690.0 24 18 15 17 20 18 17 14 11 13
3730.0 16 29 18 7 62 9 24 13 0 10
3770.0 13 8 5 16 11 10 5 18 0 22
3810.0 11 14 3 20 17 11 8 12 9 5
3850.0 11 28 16 5 13 6 13 18 16 41
3890.0 18 27 19 35 31 22 16 31 33 20
3930.0 23 25 24 30 36 29 30 40 35 27
##END=
