##TITLE=2-Buten-1-ol
##JCAMP-DX=4.24
##DATA TYPE=INFRARED SPECTRUM
##ORIGIN=Sadtler Research Labs Under US-EPA Contract
##OWNER=NIST Standard Reference Data Program
##CAS REGISTRY NO=6117-91-5
##MOLFORM=C 4 H 8 O
##XUNITS=1/CM
##YUNITS=ABSORBANCE
##XFACTOR=1.0
##YFACTOR=0.000066681
##DELTAX=4.0
##FIRSTX=450.0
##LASTX=3966.0
##FIRSTY=0.070882
##MAXX=3966
##MINX=450
##MAXY=0.66681
##MINY=0
##NPOINTS=880
##XYDATA=(X++(Y..Y))
450.0 1063 425 35 306 46 325 135 318 131 403
490.0 212 454 720 313 636 265 289 297 368 143
530.0 339 318 277 206 189 282 378 190 51 204
570.0 66 144 274 176 226 206 206 172 179 150
610.0 171 152 158 215 182 201 217 243 249 255
650.0 247 265 276 322 371 462 515 478 439 384
690.0 363 351 343 316 265 240 209 176 107 143
730.0 143 127 124 106 105 106 99 130 126 278
770.0 227 126 186 145 133 112 110 116 100 107
810.0 110 74 99 131 150 204 223 249 277 306
850.0 356 392 436 420 489 540 615 711 831 961
890.0 1083 1178 1267 1412 1472 1434 1399 1463 1578 1801
930.0 2095 2471 2911 3475 4130 4938 5903 6958 7898 8499
970.0 8697 8495 8402 8373 8599 8949 9423 9776 10000 9878
1010.0 9455 8703 7692 6573 5363 4445 3882 3531 3295 3165
1050.0 3130 3199 3402 3719 4056 4317 4513 4603 4487 4119
1090.0 3622 3181 2894 2722 2604 2480 2343 2258 2185 2080
1130.0 1943 1823 1692 1578 1491 1436 1435 1472 1512 1566
1170.0 1629 1687 1723 1723 1725 1709 1701 1670 1646 1616
1210.0 1620 1637 1655 1683 1704 1718 1768 1856 1959 2049
1250.0 2104 2040 1951 1888 1876 1878 1895 1929 2051 2288
1290.0 2497 2542 2490 2478 2575 2751 3039 3517 4296 5433
1330.0 6977 8528 9095 8284 6982 5807 5001 4464 4266 4238
1370.0 4296 4447 4714 4989 5041 4855 4675 4658 4727 5038
1410.0 5817 6342 5781 4494 3725 3622 3695 3495 3011 2750
1450.0 2620 2564 2489 2426 2500 2734 3079 3283 2952 2438
1490.0 1851 1489 1210 969 860 634 539 536 506 502
1530.0 413 438 351 396 247 288 229 306 307 206
1570.0 213 229 213 173 180 168 142 170 146 168
1610.0 135 203 165 224 159 251 214 309 245 371
1650.0 333 621 587 722 920 1010 1003 1040 934 969
1690.0 626 473 382 467 421 486 479 510 598 665
1730.0 673 634 746 689 681 580 577 436 380 295
1770.0 269 259 184 181 131 148 142 125 108 139
1810.0 99 100 102 80 78 60 61 50 43 64
1850.0 49 56 50 52 42 51 51 43 48 37
1890.0 46 35 37 40 29 44 29 50 42 44
1930.0 57 53 64 51 71 69 80 77 85 88
1970.0 94 108 117 132 141 148 160 180 182 183
2010.0 179 165 147 133 125 106 110 96 95 103
2050.0 99 107 111 113 112 121 114 116 104 108
2090.0 92 90 88 76 72 66 74 68 73 71
2130.0 76 79 79 84 76 78 66 62 59 66
2170.0 61 58 47 56 46 46 44 37 54 45
2210.0 52 54 47 48 50 46 49 51 50 50
2250.0 42 48 52 59 64 62 62 62 58 43
2290.0 41 22 16 19 14 0 13 18 37 44
2330.0 45 77 78 66 61 58 38 55 64 115
2370.0 123 116 116 103 103 97 109 100 100 89
2410.0 90 92 84 92 81 80 80 90 84 88
2450.0 88 93 95 90 94 95 96 86 93 91
2490.0 90 77 76 72 69 76 62 68 67 68
2530.0 67 70 67 71 77 70 70 74 83 73
2570.0 84 89 88 83 90 94 90 98 96 111
2610.0 100 104 108 120 121 121 137 135 135 139
2650.0 156 155 161 169 181 184 195 206 211 230
2690.0 237 251 255 268 283 310 321 335 355 393
2730.0 442 496 542 567 592 586 598 576 531 512
2770.0 508 518 529 560 586 610 627 660 692 735
2810.0 782 857 954 1052 1176 1328 1511 1723 2005 2337
2850.0 2747 3266 3940 4729 5468 5961 6233 6512 6636 6598
2890.0 6428 6299 6182 6052 5948 5958 6116 6492 7122 7738
2930.0 7999 8109 8120 8064 7715 7256 6823 6423 6253 6081
2970.0 5819 5457 5078 4651 4237 3874 3608 3410 3291 3245
3010.0 3251 3289 3357 3372 3376 3328 3228 3026 2784 2539
3050.0 2238 1934 1650 1424 1218 1033 899 780 692 611
3090.0 531 476 451 409 386 342 317 310 309 291
3130.0 287 278 268 256 223 217 202 179 169 150
3170.0 136 120 112 111 100 114 98 99 86 86
3210.0 93 92 76 73 78 86 68 71 63 59
3250.0 62 53 57 70 59 38 72 66 66 79
3290.0 53 45 55 67 53 64 72 57 60 59
3330.0 68 71 72 78 64 72 82 87 90 81
3370.0 94 83 91 100 96 93 86 102 87 84
3410.0 100 94 104 90 110 86 95 92 110 93
3450.0 92 92 101 77 96 103 100 77 79 91
3490.0 76 100 66 39 51 50 54 72 64 7
3530.0 33 32 38 38 15 25 62 56 60 27
3570.0 45 60 78 80 80 78 91 96 149 144
3610.0 205 269 331 447 528 640 767 849 1030 1106
3650.0 1324 1406 1520 1560 1574 1527 1389 1259 1098 828
3690.0 653 572 392 287 190 148 152 118 93 85
3730.0 42 45 32 61 120 98 136 90 96 77
3770.0 72 80 73 36 27 30 56 57 74 59
3810.0 102 74 101 110 63 76 126 118 60 75
3850.0 95 138 141 148 141 98 136 140 153 162
3890.0 112 116 173 95 25 192 158 87 43 198
3930.0 194 125 152 149 130 152 120 97 91 79
##END=
