##TITLE=2-Methoxybenzyl alcohol
##JCAMP-DX=4.24
##DATA TYPE=INFRARED SPECTRUM
##ORIGIN=Sadtler Research Labs Under US-EPA Contract
##OWNER=NIST Standard Reference Data Program
##CAS REGISTRY NO=612-16-8
##MOLFORM=C 8 H 10 O 2
##XUNITS=1/CM
##YUNITS=ABSORBANCE
##XFACTOR=1.0
##YFACTOR=0.000094769
##DELTAX=4.0
##FIRSTX=450.0
##LASTX=3966.0
##FIRSTY=0.000000
##MAXX=3966
##MINX=450
##MAXY=0.94769
##MINY=0
##NPOINTS=880
##XYDATA=(X++(Y..Y))
450.0 0 168 262 219 179 236 258 217 256 284
490.0 193 225 259 239 220 295 293 346 359 396
530.0 409 385 404 352 366 372 419 430 467 503
570.0 509 512 488 465 429 465 502 510 541 567
610.0 547 464 392 347 290 261 259 242 239 227
650.0 236 223 233 213 221 245 253 265 299 337
690.0 404 429 462 488 563 644 821 934 1107 1305
730.0 1560 1811 2295 2875 3434 4904 4530 3667 3186 2261
770.0 1564 989 864 670 566 547 479 435 406 386
810.0 435 473 543 616 651 657 637 585 535 506
850.0 497 504 484 472 438 399 385 368 362 349
890.0 350 344 349 352 368 385 416 459 512 589
930.0 656 704 754 823 906 993 1092 1145 1161 1165
970.0 1154 1145 1194 1265 1371 1551 1781 2117 2525 3068
1010.0 3678 4351 5066 5680 6233 6445 6552 6309 6042 5569
1050.0 4923 4090 3281 2462 1720 1263 1039 945 894 882
1090.0 872 896 972 1152 1438 1729 1901 1917 1843 1586
1130.0 1268 1021 921 926 1043 1236 1444 1600 1718 1919
1170.0 2148 2426 2658 2842 2915 2795 2589 2350 2192 2038
1210.0 1974 2036 2297 2852 3837 5402 7197 8935 9771 10000
1250.0 8977 7250 5388 4053 3374 3074 3008 3038 3131 3067
1290.0 2919 2631 2271 1895 1652 1543 1456 1380 1273 1197
1330.0 1095 1031 1019 988 922 927 940 968 1078 1145
1370.0 1290 1447 1660 1815 2005 2082 2078 1971 1736 1497
1410.0 1245 1074 1002 1004 1043 1327 1757 2187 2386 2460
1450.0 2699 2754 3073 3527 3885 3856 3883 3997 4186 4932
1490.0 5486 5873 5355 4659 3572 2113 1288 849 668 542
1530.0 450 445 399 418 390 391 405 429 494 544
1570.0 749 927 1296 1773 2098 2623 2902 3402 3096 2883
1610.0 2439 1932 1370 876 612 401 348 293 261 243
1650.0 264 235 234 219 236 249 272 255 293 281
1690.0 278 286 338 428 436 443 457 456 336 289
1730.0 280 283 251 265 289 292 285 262 252 232
1770.0 255 239 225 229 222 208 209 205 212 192
1810.0 186 187 175 173 171 169 154 152 163 185
1850.0 171 164 163 168 168 185 171 187 218 240
1890.0 265 263 257 229 207 194 188 200 232 239
1930.0 241 238 219 203 174 148 141 144 144 153
1970.0 158 161 171 177 185 204 218 214 217 221
2010.0 216 214 216 216 210 218 224 235 247 255
2050.0 259 265 267 266 272 261 252 239 221 203
2090.0 188 171 157 151 140 134 128 125 119 115
2130.0 117 116 119 122 125 123 122 122 123 119
2170.0 118 117 114 114 111 119 116 119 120 125
2210.0 128 129 132 131 133 134 134 130 135 134
2250.0 136 137 137 133 132 135 131 134 134 135
2290.0 133 134 134 132 135 136 137 137 142 144
2330.0 132 127 128 129 121 134 111 116 114 128
2370.0 124 123 128 127 126 124 128 127 131 136
2410.0 139 138 138 140 136 136 132 132 128 129
2450.0 131 134 139 146 155 160 171 175 177 173
2490.0 170 161 155 154 153 158 164 171 176 184
2530.0 187 188 185 181 174 171 168 164 162 160
2570.0 158 156 154 153 154 155 155 161 161 160
2610.0 162 163 159 159 161 160 163 162 166 165
2650.0 165 162 162 162 159 157 153 153 150 157
2690.0 159 166 168 172 177 180 185 185 194 191
2730.0 197 196 201 205 207 212 218 228 232 240
2770.0 246 254 264 272 284 297 308 322 345 367
2810.0 402 436 485 549 655 822 1087 1449 1760 1930
2850.0 1983 1925 1714 1506 1433 1476 1593 1742 1865 1910
2890.0 1921 1884 1842 1825 1824 1873 1966 2079 2144 2184
2930.0 2228 2333 2524 2809 3068 3237 3317 3261 3137 2817
2970.0 2382 2045 1747 1484 1301 1254 1336 1549 1815 1952
3010.0 1913 1813 1583 1336 1237 1283 1355 1404 1406 1345
3050.0 1279 1255 1276 1332 1418 1521 1619 1688 1669 1561
3090.0 1359 1102 829 651 549 498 462 417 364 308
3130.0 261 224 208 189 184 186 183 177 181 180
3170.0 180 177 176 173 167 160 157 150 149 145
3210.0 144 138 139 136 134 135 140 134 133 138
3250.0 134 135 138 139 131 133 131 132 135 131
3290.0 130 128 124 121 128 124 122 123 122 125
3330.0 123 126 123 120 119 127 124 125 128 127
3370.0 135 126 127 134 129 131 134 129 136 129
3410.0 134 138 132 133 139 142 139 148 142 142
3450.0 138 139 144 147 148 144 148 142 152 151
3490.0 150 156 144 157 161 153 156 148 150 165
3530.0 161 160 168 158 188 183 194 192 199 228
3570.0 223 217 218 227 240 258 263 254 275 285
3610.0 315 348 412 499 618 792 916 982 1016 981
3650.0 919 819 756 696 666 622 582 544 490 443
3690.0 398 357 308 285 259 234 227 215 195 211
3730.0 174 182 173 177 151 162 159 153 161 149
3770.0 159 155 153 157 154 150 159 149 160 138
3810.0 155 148 152 170 155 157 166 160 170 184
3850.0 157 175 188 176 180 184 188 185 190 200
3890.0 195 194 191 211 196 181 173 181 171 163
3930.0 172 171 165 156 164 165 157 156 160 162
##END=
