##TITLE=Benzenemethanol, 2-nitro-
##JCAMP-DX=4.24
##DATA TYPE=INFRARED SPECTRUM
##ORIGIN=Sadtler Research Labs Under US-EPA Contract
##OWNER=NIST Standard Reference Data Program
##CAS REGISTRY NO=612-25-9
##MOLFORM=C 7 H 7 N O 3
##XUNITS=1/CM
##YUNITS=ABSORBANCE
##XFACTOR=1.0
##YFACTOR=0.000143939
##DELTAX=4.0
##FIRSTX=450.0
##LASTX=3966.0
##FIRSTY=0.024901
##MAXX=3966
##MINX=450
##MAXY=1.43939
##MINY=0
##NPOINTS=880
##XYDATA=(X++(Y..Y))
450.0 173 251 206 225 184 200 150 165 130 130
490.0 117 136 124 100 103 73 78 48 47 28
530.0 30 23 28 33 41 64 67 78 61 82
570.0 44 56 63 88 157 241 303 398 421 327
610.0 242 142 88 55 24 16 8 16 1 42
650.0 49 149 239 394 474 622 626 526 447 346
690.0 327 355 424 605 638 608 805 1032 1208 1872
730.0 2136 1821 2032 1884 1617 1245 899 682 529 550
770.0 677 872 1101 1406 1332 995 841 699 594 522
810.0 470 389 291 186 128 97 94 144 264 600
850.0 1050 1372 1432 1405 1108 615 277 162 109 88
890.0 64 53 52 53 57 66 77 93 114 141
930.0 188 254 364 497 649 783 863 818 678 539
970.0 411 309 276 262 281 307 352 411 506 639
1010.0 838 1135 1546 2115 2776 3394 3749 3865 3592 3035
1050.0 2343 1740 1296 916 653 513 461 451 450 435
1090.0 400 338 261 195 163 147 139 140 151 178
1130.0 229 302 380 431 462 467 459 447 461 501
1170.0 558 636 729 853 972 1082 1157 1167 1104 983
1210.0 802 602 444 347 296 260 239 233 233 237
1250.0 246 263 286 325 375 442 522 619 739 878
1290.0 1016 1130 1191 1188 1119 1007 904 841 864 990
1330.0 1268 1764 2546 3616 4816 5931 6598 6616 5813 4602
1370.0 3270 2355 1860 1670 1625 1602 1557 1419 1220 982
1410.0 772 605 508 434 387 369 379 433 488 541
1450.0 583 616 648 649 680 723 780 796 816 821
1490.0 860 929 1049 1225 1478 1842 2201 2706 3364 4439
1530.0 5988 7861 9552 10000 9803 8674 6542 4829 3602 3001
1570.0 2525 2159 1779 1497 1266 1074 930 836 841 856
1610.0 886 830 743 585 441 301 220 176 148 137
1650.0 124 123 98 73 62 56 63 67 101 99
1690.0 108 96 110 90 82 98 125 154 168 165
1730.0 138 132 102 83 55 49 43 37 32 21
1770.0 23 9 5 1 9 3 12 14 25 37
1810.0 48 59 62 66 61 55 44 41 41 44
1850.0 42 36 33 22 14 6 3 0 2 6
1890.0 13 20 23 30 29 32 38 52 66 82
1930.0 95 98 93 79 70 67 77 90 101 99
1970.0 89 71 52 35 26 26 24 25 24 24
2010.0 23 24 26 26 29 30 34 35 37 41
2050.0 43 45 49 51 48 45 38 33 24 21
2090.0 15 13 12 11 10 9 10 9 9 8
2130.0 9 5 7 6 5 4 5 7 6 9
2170.0 7 6 6 5 4 1 2 1 3 3
2210.0 5 7 9 11 13 12 12 15 12 11
2250.0 8 7 5 5 7 8 11 13 16 21
2290.0 23 27 33 36 40 44 44 46 54 53
2330.0 50 51 47 43 44 42 41 37 40 35
2370.0 33 36 49 53 50 47 44 43 41 38
2410.0 34 32 30 32 35 36 37 34 32 28
2450.0 27 22 18 14 13 11 12 14 17 21
2490.0 23 25 24 24 23 20 15 14 14 14
2530.0 13 12 12 12 14 9 12 12 14 12
2570.0 13 14 16 18 19 20 19 21 18 17
2610.0 19 18 21 21 22 24 26 24 25 27
2650.0 28 33 35 39 41 46 47 51 55 57
2690.0 57 60 61 59 57 51 52 50 51 55
2730.0 58 62 62 65 67 66 63 60 58 58
2770.0 57 57 61 63 64 68 73 76 80 86
2810.0 92 99 110 119 128 140 151 161 173 190
2850.0 205 225 249 280 314 355 400 450 503 557
2890.0 611 645 662 649 595 542 497 467 459 473
2930.0 512 565 626 687 737 775 783 770 748 708
2970.0 648 571 476 375 292 229 184 157 141 133
3010.0 130 128 128 133 141 154 171 190 207 217
3050.0 224 238 271 339 449 597 752 854 887 821
3090.0 671 479 301 178 101 67 51 42 31 29
3130.0 26 24 25 22 23 24 26 25 24 23
3170.0 20 18 15 14 14 14 15 13 13 10
3210.0 12 9 9 10 14 7 8 5 5 6
3250.0 6 4 5 2 3 4 2 2 4 5
3290.0 4 5 6 4 3 5 9 5 5 4
3330.0 5 3 3 4 2 6 8 10 12 22
3370.0 17 22 19 20 16 14 14 13 14 14
3410.0 12 13 12 7 10 9 10 13 11 11
3450.0 9 14 10 8 9 9 9 9 14 10
3490.0 18 23 28 25 33 33 43 41 37 38
3530.0 33 33 32 29 25 24 30 30 26 32
3570.0 40 42 54 52 68 77 92 97 128 179
3610.0 266 401 552 703 798 829 788 710 639 581
3650.0 545 542 554 596 616 653 653 645 580 496
3690.0 403 297 207 148 117 95 77 75 67 69
3730.0 66 64 59 49 63 34 40 32 28 24
3770.0 16 18 14 16 15 15 10 15 10 21
3810.0 7 13 11 9 11 3 7 1 8 11
3850.0 14 17 8 15 12 17 10 11 5 20
3890.0 15 20 9 12 13 14 13 11 20 10
3930.0 20 17 19 18 21 17 11 1 7 12
##END=
