##TITLE=Quinoline, 2-chloro-
##JCAMP-DX=4.24
##DATA TYPE=INFRARED SPECTRUM
##ORIGIN=Sadtler Research Labs Under US-EPA Contract
##OWNER=NIST Standard Reference Data Program
##CAS REGISTRY NO=612-62-4
##MOLFORM=C 9 H 6 Cl N
##XUNITS=1/CM
##YUNITS=ABSORBANCE
##XFACTOR=1.0
##YFACTOR=0.000070215
##DELTAX=4.0
##FIRSTX=450.0
##LASTX=3966.0
##FIRSTY=0.026331
##MAXX=3966
##MINX=450
##MAXY=0.70215
##MINY=0
##NPOINTS=880
##XYDATA=(X++(Y..Y))
450.0 375 307 395 481 566 626 672 530 469 292
490.0 209 107 87 79 102 92 180 196 211 204
530.0 196 131 158 209 63 309 213 123 348 105
570.0 74 219 250 365 766 1416 2314 2227 2107 1321
610.0 345 292 390 569 835 1016 767 793 452 281
650.0 137 137 103 192 209 344 225 161 243 218
690.0 270 209 182 179 223 166 229 234 342 588
730.0 1055 1690 2355 2979 4165 3332 2426 2048 1485 1243
770.0 1233 1288 1625 1332 1073 1053 1091 1446 2168 3211
810.0 4077 5289 5514 4486 3376 2351 1449 942 864 1596
850.0 2805 3408 3255 2756 1172 554 406 302 242 191
890.0 193 205 168 228 262 365 398 452 580 616
930.0 821 1350 2249 2312 2278 1919 969 563 418 376
970.0 321 299 290 303 203 215 237 230 202 224
1010.0 281 260 240 207 123 135 160 212 238 244
1050.0 281 288 303 378 456 640 941 1613 3079 5987
1090.0 9638 10000 8751 5366 1375 524 532 787 1217 2255
1130.0 4714 8857 9983 9841 7688 3138 1392 804 540 473
1170.0 457 461 452 409 434 495 574 643 675 708
1210.0 670 664 678 674 654 653 681 701 656 610
1250.0 569 552 634 671 700 704 632 713 1102 1779
1290.0 2457 2674 2668 2092 1354 1049 838 722 737 842
1330.0 919 985 1004 814 661 587 568 536 512 498
1370.0 424 371 395 417 423 442 460 490 581 828
1410.0 1600 3001 3838 3820 3486 2000 948 700 967 1260
1450.0 1570 1843 1730 1889 1681 1407 1136 998 1165 1991
1490.0 3283 4316 4485 4208 2772 1591 1093 641 377 403
1530.0 472 474 536 503 896 1429 2263 3249 4121 4487
1570.0 4295 3728 3527 4074 4545 4866 5142 5010 4697 4331
1610.0 3610 2957 2594 2448 2009 1602 1020 573 535 387
1650.0 362 116 326 294 310 243 300 328 383 316
1690.0 507 621 727 995 1384 1523 1493 1226 942 647
1730.0 509 333 361 338 365 335 407 412 392 420
1770.0 392 319 363 308 262 238 164 202 212 241
1810.0 254 254 247 232 192 171 210 242 247 179
1850.0 197 154 99 77 75 42 69 75 87 105
1890.0 108 143 175 187 214 229 250 272 317 328
1930.0 319 289 278 250 257 291 305 279 220 147
1970.0 86 64 56 41 50 40 36 43 51 46
2010.0 36 46 45 52 58 58 66 65 72 74
2050.0 77 76 83 78 75 61 61 58 65 66
2090.0 72 69 70 56 52 53 47 54 46 46
2130.0 38 31 44 45 49 51 49 63 50 40
2170.0 31 33 34 33 39 38 39 50 40 36
2210.0 45 44 56 58 72 73 86 88 80 74
2250.0 67 67 58 66 63 79 80 98 102 104
2290.0 111 111 112 118 127 144 142 147 165 167
2330.0 196 182 206 205 235 198 243 267 314 257
2370.0 226 186 148 130 107 87 86 84 79 85
2410.0 79 94 103 93 96 98 85 95 90 102
2450.0 89 94 103 103 109 118 133 128 119 120
2490.0 114 103 109 117 116 124 117 117 118 109
2530.0 113 104 111 107 108 114 118 118 127 126
2570.0 119 134 132 128 133 133 134 130 122 123
2610.0 114 114 128 120 128 121 128 114 119 120
2650.0 130 124 135 142 142 138 130 136 130 130
2690.0 132 131 145 152 157 155 151 150 137 124
2730.0 138 124 132 115 118 120 124 125 125 132
2770.0 116 133 133 132 126 132 131 136 142 136
2810.0 120 134 149 153 149 142 156 157 158 147
2850.0 148 160 150 153 156 155 167 162 178 184
2890.0 201 200 210 225 223 245 253 251 245 262
2930.0 264 257 263 260 239 224 201 178 166 159
2970.0 154 177 189 201 220 233 247 269 276 284
3010.0 307 337 339 389 437 512 616 777 993 1236
3050.0 1514 1745 2006 2318 2529 2618 2577 2295 2004 1662
3090.0 1267 994 754 562 448 344 277 232 211 177
3130.0 178 164 170 172 172 160 195 166 167 173
3170.0 189 180 175 202 182 171 160 150 152 146
3210.0 147 153 138 130 138 139 148 118 132 120
3250.0 140 132 139 133 132 140 133 135 126 118
3290.0 122 132 147 135 149 112 123 122 127 128
3330.0 129 132 147 127 146 140 125 142 143 133
3370.0 133 128 109 122 145 131 133 145 142 140
3410.0 144 147 165 174 194 202 189 189 182 145
3450.0 140 128 138 131 122 131 130 138 152 156
3490.0 133 118 134 164 129 134 106 116 134 138
3530.0 140 139 157 135 135 135 120 135 146 127
3570.0 115 171 168 177 163 132 159 151 150 136
3610.0 90 113 119 108 125 42 140 173 140 127
3650.0 59 124 138 171 158 112 118 96 177 189
3690.0 127 174 197 192 196 160 142 191 186 193
3730.0 200 136 130 148 83 123 128 177 192 197
3770.0 199 217 228 209 219 249 226 215 180 207
3810.0 205 223 194 187 217 236 212 194 233 242
3850.0 227 176 218 251 252 239 268 279 263 256
3890.0 267 267 287 271 269 289 305 324 339 347
3930.0 324 333 343 322 330 360 0 27 28 28
##END=
