##TITLE=3,3'-Dimethylbiphenyl
##JCAMP-DX=4.24
##DATA TYPE=INFRARED SPECTRUM
##ORIGIN=Sadtler Research Labs Under US-EPA Contract
##OWNER=NIST Standard Reference Data Program
##CAS REGISTRY NO=612-75-9
##MOLFORM=C 14 H 14
##XUNITS=1/CM
##YUNITS=ABSORBANCE
##XFACTOR=1.0
##YFACTOR=0.000100928
##DELTAX=4.0
##FIRSTX=450.0
##LASTX=3966.0
##FIRSTY=0.065401
##MAXX=3966
##MINX=450
##MAXY=1.00928
##MINY=0
##NPOINTS=880
##XYDATA=(X++(Y..Y))
450.0 648 806 1052 494 209 894 423 546 260 159
490.0 222 559 725 692 771 787 593 935 928 916
530.0 823 851 783 758 774 762 728 719 764 678
570.0 668 695 525 812 782 808 784 830 784 761
610.0 761 762 949 1435 1650 1638 1243 818 775 741
650.0 760 733 739 753 745 879 852 1034 1361 2128
690.0 3232 4585 5572 4913 3901 2762 1974 1380 1093 949
730.0 918 935 975 1023 1104 1332 1815 2921 4628 6822
770.0 9416 10000 7331 5792 4120 3010 2326 2106 2157 2065
810.0 1716 1186 818 694 695 654 674 659 636 634
850.0 630 687 752 878 1052 1295 1571 1755 1658 1439
890.0 1255 1087 997 894 823 731 688 637 602 592
930.0 587 597 599 617 604 606 594 627 637 653
970.0 665 670 653 659 690 699 737 737 713 644
1010.0 619 607 600 590 599 627 670 749 821 889
1050.0 904 932 918 893 864 845 860 934 1149 1408
1090.0 1606 1685 1595 1377 1150 904 722 610 558 543
1130.0 531 537 530 530 512 505 500 495 500 507
1170.0 520 523 531 519 505 479 482 472 483 520
1210.0 537 547 534 517 495 481 473 473 471 477
1250.0 489 503 522 527 536 525 528 524 529 519
1290.0 524 530 538 565 596 620 613 594 555 532
1330.0 519 520 540 540 547 577 624 677 742 753
1370.0 759 789 858 935 1039 1110 1178 1246 1290 1323
1410.0 1307 1291 1336 1383 1428 1472 1517 1543 1535 1517
1450.0 1512 1560 1768 2070 2495 2882 3297 3655 3837 3686
1490.0 3057 2321 1785 1551 1471 1397 1318 1296 1308 1310
1530.0 1313 1300 1263 1239 1197 1183 1240 1344 1456 1583
1570.0 1864 2226 2685 3104 3408 3690 4075 5145 6275 6798
1610.0 5756 4058 2374 1402 964 711 593 506 452 441
1650.0 436 442 403 403 419 460 527 596 658 651
1690.0 534 444 411 385 343 311 311 318 289 282
1730.0 309 335 335 351 396 449 484 506 512 512
1770.0 537 551 542 542 528 520 497 458 422 368
1810.0 335 304 280 274 283 307 336 391 461 523
1850.0 528 528 541 547 528 477 403 358 320 272
1890.0 241 213 210 213 222 245 270 327 418 513
1930.0 595 608 540 426 300 221 186 169 163 156
1970.0 151 139 138 128 122 119 120 109 108 106
2010.0 107 103 101 103 93 90 86 90 84 84
2050.0 81 83 84 87 87 86 90 85 82 79
2090.0 73 69 63 61 58 59 60 60 57 57
2130.0 49 50 48 43 45 48 40 44 48 42
2170.0 45 46 47 50 55 54 51 39 31 31
2210.0 21 24 22 19 16 17 15 12 14 9
2250.0 8 3 12 9 17 17 21 22 26 30
2290.0 39 45 45 51 48 46 44 39 40 47
2330.0 43 57 70 73 89 90 47 52 43 55
2370.0 63 75 69 79 71 59 55 59 59 60
2410.0 56 55 54 46 45 33 34 30 32 32
2450.0 32 33 28 32 32 40 37 45 40 40
2490.0 40 33 37 35 33 33 28 27 30 25
2530.0 25 22 22 31 36 34 34 35 21 27
2570.0 28 34 45 49 55 51 56 47 47 42
2610.0 40 28 26 25 20 25 26 27 32 30
2650.0 31 36 36 31 34 40 40 40 42 37
2690.0 33 34 36 35 42 46 47 57 70 89
2730.0 114 152 218 271 284 248 187 142 110 91
2770.0 84 86 92 89 102 108 116 131 144 161
2810.0 178 197 219 238 261 296 327 376 436 527
2850.0 648 815 1051 1348 1714 2073 2363 2447 2355 2161
2890.0 2016 1960 1986 2077 2208 2372 2615 3045 3676 4439
2930.0 4985 5079 4669 3976 3304 2708 2256 1902 1643 1465
2970.0 1290 1166 1171 1285 1482 1685 1825 1909 1986 2071
3010.0 2194 2476 2974 3708 4633 5551 6269 6502 6298 5842
3050.0 5423 5288 5394 5400 5035 4366 3508 2707 2124 1752
3090.0 1520 1396 1312 1214 1101 940 751 562 419 309
3130.0 245 191 163 142 125 113 115 102 102 96
3170.0 95 87 70 77 74 69 69 61 43 40
3210.0 48 42 36 33 47 50 52 43 65 46
3250.0 39 40 54 39 44 50 38 50 39 56
3290.0 46 39 46 33 48 38 35 39 44 26
3330.0 36 57 45 47 35 47 57 66 61 59
3370.0 52 55 49 62 54 45 50 63 57 60
3410.0 55 62 57 43 47 61 54 36 50 50
3450.0 56 54 38 51 42 39 31 35 58 34
3490.0 61 44 12 36 12 27 33 19 32 23
3530.0 36 5 34 31 27 54 10 42 47 50
3570.0 33 61 55 34 44 40 40 32 32 31
3610.0 14 35 44 36 13 27 33 16 61 39
3650.0 35 51 34 55 65 43 66 45 50 31
3690.0 43 15 24 42 12 11 57 86 60 34
3730.0 24 54 52 28 58 3 3 39 32 30
3770.0 13 46 27 40 37 22 30 11 19 13
3810.0 37 31 78 46 31 25 21 26 65 46
3850.0 87 46 40 48 48 60 35 42 56 74
3890.0 36 82 66 60 58 61 87 101 66 91
3930.0 73 91 0 84 118 81 77 108 77 109
##END=
