##TITLE=Benzene, 1-ethyl-2-nitro-
##JCAMP-DX=4.24
##DATA TYPE=INFRARED SPECTRUM
##ORIGIN=Sadtler Research Labs Under US-EPA Contract
##OWNER=NIST Standard Reference Data Program
##CAS REGISTRY NO=612-22-6
##MOLFORM=C 8 H 9 N O 2
##XUNITS=1/CM
##YUNITS=ABSORBANCE
##XFACTOR=1.0
##YFACTOR=0.000092529
##DELTAX=4.0
##FIRSTX=450.0
##LASTX=3966.0
##FIRSTY=0.005182
##MAXX=3966
##MINX=450
##MAXY=0.92529
##MINY=0
##NPOINTS=880
##XYDATA=(X++(Y..Y))
450.0 56 60 19 4 60 103 62 7 88 193
490.0 170 103 113 178 167 92 49 68 47 38
530.0 77 77 33 13 95 152 62 77 100 189
570.0 176 73 75 91 112 6 10 23 57 63
610.0 28 33 40 22 11 60 26 10 56 109
650.0 179 313 524 685 708 553 370 218 246 240
690.0 260 364 513 691 704 633 673 728 794 942
730.0 1218 1515 1731 1941 1954 1327 1037 799 746 882
770.0 1080 1324 1562 1483 1056 779 622 482 352 236
810.0 185 156 120 90 108 97 104 188 398 863
850.0 1385 1598 1641 1374 774 252 104 90 83 54
890.0 62 79 67 40 42 62 53 40 44 26
930.0 46 66 76 92 133 173 151 123 114 96
970.0 95 112 92 65 47 54 65 52 18 36
1010.0 69 68 63 92 172 204 223 226 231 246
1050.0 303 390 452 418 354 295 218 140 93 108
1090.0 140 125 98 77 93 86 75 68 68 74
1130.0 68 91 111 132 166 193 241 241 192 197
1170.0 169 110 66 66 88 96 105 111 132 152
1210.0 129 96 83 95 120 147 169 188 188 172
1250.0 152 140 130 118 157 161 173 199 247 323
1290.0 381 436 523 570 587 570 558 590 634 655
1330.0 702 858 1128 1667 2582 3853 5159 5958 5975 5154
1370.0 3594 2150 1303 979 773 623 512 456 427 392
1410.0 367 371 361 345 349 372 426 484 558 659
1450.0 760 869 951 1039 1066 1052 1036 1038 1055 1015
1490.0 974 992 1037 1131 1283 1551 1908 2356 2900 3718
1530.0 4987 6697 8376 9524 10000 8828 6861 4832 3270 2512
1570.0 2038 1767 1539 1360 1169 1007 923 890 945 1057
1610.0 1133 1096 911 672 442 302 236 174 183 183
1650.0 168 140 120 116 85 73 71 75 62 39
1690.0 64 87 66 32 44 67 76 48 59 89
1730.0 93 68 49 43 44 39 32 39 31 33
1770.0 33 27 28 19 20 37 34 38 53 92
1810.0 114 113 92 85 71 48 36 41 59 61
1850.0 55 44 28 22 18 12 11 11 20 33
1890.0 47 40 31 38 49 43 48 77 115 129
1930.0 111 88 72 58 52 66 84 94 87 71
1970.0 43 17 5 7 12 6 1 1 10 11
2010.0 4 2 11 17 11 1 3 11 10 5
2050.0 2 4 3 6 1 2 2 2 7 6
2090.0 6 1 7 15 9 1 1 11 12 2
2130.0 2 7 12 6 1 1 7 9 6 7
2170.0 10 11 11 11 18 7 6 13 11 4
2210.0 1 9 21 13 2 11 21 18 11 11
2250.0 19 18 9 7 6 3 4 2 1 3
2290.0 7 11 18 17 17 14 31 45 30 24
2330.0 48 62 38 12 16 55 59 4 1 9
2370.0 20 11 17 27 37 42 48 44 33 23
2410.0 28 32 20 12 14 25 24 19 17 32
2450.0 33 23 18 17 18 11 9 8 4 1
2490.0 6 9 7 6 11 22 17 5 7 13
2530.0 19 13 4 8 17 15 4 6 12 13
2570.0 12 8 13 17 15 20 18 17 15 21
2610.0 31 16 14 16 31 46 36 34 47 56
2650.0 38 26 36 44 40 28 33 44 38 45
2690.0 49 49 49 54 71 66 51 40 53 52
2730.0 40 36 47 65 62 51 51 56 62 49
2770.0 54 53 66 66 71 72 71 77 78 89
2810.0 77 72 81 93 100 99 109 131 159 154
2850.0 157 181 211 238 264 345 479 655 859 1039
2890.0 1167 1118 1013 872 756 679 641 640 649 646
2930.0 684 809 990 1194 1335 1324 1261 1117 979 1011
2970.0 1255 1630 1989 2220 2194 1939 1522 1118 801 549
3010.0 381 305 273 268 281 340 395 417 402 375
3050.0 367 363 373 442 571 725 877 961 957 867
3090.0 692 472 299 192 140 123 117 106 83 71
3130.0 74 85 68 56 65 88 85 66 62 79
3170.0 88 66 46 53 61 53 41 41 41 37
3210.0 37 36 32 31 32 44 36 18 20 38
3250.0 43 28 12 33 44 34 13 23 36 35
3290.0 26 16 22 24 29 29 20 11 16 36
3330.0 37 16 8 24 37 32 11 8 36 39
3370.0 15 1 23 33 28 14 10 32 29 21
3410.0 24 29 23 25 30 27 16 21 33 42
3450.0 18 0 21 45 33 4 16 39 32 18
3490.0 17 39 45 24 25 24 30 30 37 34
3530.0 27 20 35 46 26 20 26 44 48 25
3570.0 19 35 48 35 24 36 48 49 38 39
3610.0 37 39 46 38 46 29 31 47 53 47
3650.0 31 41 58 49 40 34 54 54 47 44
3690.0 46 55 55 38 48 55 56 61 55 56
3730.0 52 56 64 60 53 55 67 78 57 52
3770.0 58 77 64 43 53 64 59 57 54 59
3810.0 59 60 60 60 61 61 62 67 58 59
3850.0 65 64 64 52 56 68 78 61 47 62
3890.0 77 70 56 56 67 71 64 64 64 65
3930.0 66 70 76 66 62 70 20 23 23 23
##END=
