##TITLE=.alpha.-Phenyl-o-toluic acid
##JCAMP-DX=4.24
##DATA TYPE=INFRARED SPECTRUM
##ORIGIN=Sadtler Research Labs Under US-EPA Contract
##OWNER=NIST Standard Reference Data Program
##CAS REGISTRY NO=612-35-1
##MOLFORM=C 14 H 12 O 2
##XUNITS=1/CM
##YUNITS=ABSORBANCE
##XFACTOR=1.0
##YFACTOR=0.000063254
##DELTAX=4.0
##FIRSTX=450.0
##LASTX=3966.0
##FIRSTY=0.007527
##MAXX=3966
##MINX=450
##MAXY=0.63254
##MINY=0
##NPOINTS=880
##XYDATA=(X++(Y..Y))
450.0 119 145 253 238 261 327 208 201 149 78
490.0 63 98 134 110 172 219 305 364 431 481
530.0 506 539 535 558 541 598 650 711 837 970
570.0 1154 1281 1306 1181 916 704 605 546 532 619
610.0 659 643 572 617 827 1281 1731 1805 1518 914
650.0 492 354 276 274 244 309 379 420 509 675
690.0 1032 1411 1645 1551 1492 1519 1764 2150 2644 3211
730.0 3576 3727 3438 2935 2257 1789 1411 1122 852 605
770.0 472 348 276 215 187 169 152 160 156 149
810.0 148 163 167 127 87 67 73 78 97 58
850.0 35 11 15 4 13 2 29 29 26 5
890.0 7 11 27 28 35 42 30 39 37 47
930.0 67 54 51 31 37 53 72 64 43 29
970.0 22 18 23 31 43 54 68 89 112 137
1010.0 160 209 274 388 609 851 1035 1257 1634 2153
1050.0 2800 3440 3627 3220 2349 1676 1437 1283 1161 1057
1090.0 1016 1097 1262 1467 1594 1658 1777 2058 2291 2233
1130.0 1817 1269 908 754 707 755 856 1042 1281 1568
1170.0 2030 2727 3457 3899 3815 3257 2535 1880 1396 1098
1210.0 907 779 683 620 575 549 537 534 537 543
1250.0 557 585 615 664 724 791 846 894 921 913
1290.0 906 906 922 945 949 922 891 862 858 896
1330.0 1004 1181 1393 1514 1462 1235 921 674 524 448
1370.0 397 376 344 312 277 232 205 176 153 135
1410.0 140 134 177 199 240 301 406 535 692 849
1450.0 943 867 638 400 265 217 264 341 557 892
1490.0 1200 1409 1141 723 391 182 127 119 158 149
1530.0 167 143 143 133 128 118 147 184 226 294
1570.0 417 498 518 488 470 519 677 869 924 811
1610.0 590 369 239 153 139 98 119 107 109 110
1650.0 140 139 157 150 186 224 278 321 421 520
1690.0 614 712 819 894 960 1043 1160 1293 1388 1520
1730.0 1726 1942 2213 2827 4332 6962 9595 10000 7765 4465
1770.0 2500 1707 1441 1320 1212 1070 930 772 619 491
1810.0 393 306 235 197 165 142 101 86 73 76
1850.0 74 68 65 57 59 56 49 41 44 47
1890.0 49 54 54 58 61 66 62 70 87 103
1930.0 134 157 167 161 144 130 135 130 108 80
1970.0 50 33 27 25 19 22 15 16 15 15
2010.0 10 12 12 12 13 10 11 12 11 6
2050.0 6 2 3 8 7 10 5 5 4 12
2090.0 12 9 12 18 19 21 21 15 14 15
2130.0 12 9 7 10 10 12 11 9 15 14
2170.0 14 16 16 14 12 6 7 7 2 3
2210.0 8 5 5 7 7 10 11 6 2 4
2250.0 2 7 2 3 7 4 5 8 15 15
2290.0 5 12 6 9 11 11 6 15 17 17
2330.0 4 7 26 0 39 14 23 3 2 2
2370.0 2 6 31 31 33 28 36 36 39 28
2410.0 26 29 26 28 25 31 26 33 33 33
2450.0 30 31 33 33 40 40 37 39 39 40
2490.0 36 33 39 35 39 45 40 37 37 35
2530.0 41 35 36 35 35 30 29 32 31 32
2570.0 40 35 41 37 36 35 37 43 37 39
2610.0 35 40 41 36 40 41 43 41 36 35
2650.0 34 26 27 25 29 28 21 22 18 16
2690.0 17 11 13 18 17 14 17 19 26 21
2730.0 25 24 29 30 31 33 40 41 45 49
2770.0 47 50 53 52 51 53 54 53 50 49
2810.0 55 56 60 61 67 74 78 85 96 109
2850.0 125 147 160 184 190 189 178 176 176 171
2890.0 177 186 201 218 243 277 326 384 435 464
2930.0 454 417 365 305 250 219 189 178 170 179
2970.0 184 193 198 194 197 206 224 244 272 302
3010.0 346 416 524 705 942 1181 1329 1301 1111 904
3050.0 766 758 871 1072 1384 1656 1760 1643 1369 1110
3090.0 863 656 533 438 396 350 295 232 175 134
3130.0 116 106 106 110 103 110 102 94 88 78
3170.0 80 75 71 61 50 52 49 51 47 46
3210.0 47 44 37 31 26 33 32 25 23 19
3250.0 18 23 22 17 16 24 17 19 19 23
3290.0 28 24 18 19 18 15 17 18 20 18
3330.0 23 24 30 25 21 21 20 21 21 18
3370.0 13 13 6 12 11 9 9 11 5 14
3410.0 13 8 11 13 14 10 11 15 22 36
3450.0 30 28 28 28 21 28 30 39 35 55
3490.0 58 65 46 33 27 22 18 23 33 39
3530.0 40 57 57 74 95 149 257 502 941 1443
3570.0 1892 2339 2473 2235 1663 869 366 166 108 72
3610.0 71 55 47 52 46 56 43 23 17 11
3650.0 36 26 19 27 5 31 15 25 9 29
3690.0 32 11 26 21 12 30 22 15 27 28
3730.0 32 36 41 13 58 29 21 10 2 15
3770.0 23 8 3 9 15 11 3 10 0 20
3810.0 6 24 32 19 29 22 23 23 25 2
3850.0 13 34 5 24 27 10 26 17 42 21
3890.0 13 6 17 52 45 13 29 15 20 2
3930.0 15 6 15 25 4 17 5 13 30 12
##END=
