##TITLE=Anthracene, 2-methyl-
##JCAMP-DX=4.24
##DATA TYPE=INFRARED SPECTRUM
##ORIGIN=Sadtler Research Labs Under US-EPA Contract
##OWNER=NIST Standard Reference Data Program
##CAS REGISTRY NO=613-12-7
##MOLFORM=C 15 H 12
##XUNITS=1/CM
##YUNITS=ABSORBANCE
##XFACTOR=1.0
##YFACTOR=0.000023837
##DELTAX=4.0
##FIRSTX=450.0
##LASTX=3966.0
##FIRSTY=0.067412
##MAXX=3966
##MINX=450
##MAXY=0.23837
##MINY=0
##NPOINTS=880
##XYDATA=(X++(Y..Y))
450.0 2828 2184 2892 4434 5220 3980 2436 1542 607 300
490.0 248 196 190 190 281 289 327 327 265 184
530.0 179 173 191 175 168 193 167 261 270 283
570.0 476 873 1373 1410 1307 995 588 380 323 170
610.0 170 393 634 732 610 253 172 232 387 582
650.0 682 577 398 207 122 193 175 166 210 220
690.0 254 194 259 226 259 256 591 1177 2697 4802
730.0 7090 10000 8912 6109 4154 2010 999 491 383 268
770.0 235 303 401 616 763 1050 828 583 405 227
810.0 120 80 142 92 173 183 227 230 388 621
850.0 854 1221 1278 1624 2253 3631 5265 7208 8958 7747
890.0 7005 5219 3119 1956 1127 736 499 395 336 335
930.0 375 478 685 887 1051 1114 967 803 558 410
970.0 366 339 328 296 268 296 410 607 867 1094
1010.0 1096 846 514 236 164 118 191 188 175 151
1050.0 133 98 74 64 59 54 20 0 6 10
1090.0 18 49 74 92 138 138 151 179 317 482
1130.0 541 478 322 255 331 532 694 711 836 841
1170.0 791 651 379 155 90 79 97 149 189 180
1210.0 140 118 87 87 91 67 46 38 43 63
1250.0 103 188 273 370 456 502 463 346 188 94
1290.0 73 109 217 375 495 489 510 500 520 627
1330.0 696 648 531 444 426 467 467 456 476 432
1370.0 352 277 232 252 302 369 380 365 308 268
1410.0 225 199 221 257 317 390 473 542 606 718
1450.0 917 1174 1277 1179 976 800 747 732 694 560
1490.0 358 236 184 157 153 164 164 261 394 613
1530.0 898 1155 1229 1067 808 625 546 552 532 530
1570.0 524 532 551 549 505 431 332 229 154 182
1610.0 276 405 619 908 1305 1844 2481 2824 2590 1927
1650.0 1108 614 437 338 311 363 511 737 788 699
1690.0 497 351 293 325 339 335 304 231 186 192
1730.0 212 272 376 462 471 420 351 346 379 422
1770.0 450 477 492 501 531 591 600 550 419 298
1810.0 235 238 246 261 267 256 262 243 237 211
1850.0 178 147 106 77 51 58 63 75 104 156
1890.0 238 382 500 581 595 578 510 428 370 392
1930.0 502 545 453 276 99 55 50 36 23 33
1970.0 22 8 1 3 10 21 25 36 30 37
2010.0 45 42 38 33 29 34 26 31 30 26
2050.0 26 32 30 30 38 27 27 16 15 29
2090.0 28 38 36 47 41 40 23 16 16 14
2130.0 19 22 28 31 27 19 16 21 15 27
2170.0 32 32 20 12 11 25 21 14 24 32
2210.0 34 35 34 21 19 12 9 7 9 1
2250.0 7 15 24 27 34 40 60 79 70 79
2290.0 97 103 103 110 143 152 160 153 175 166
2330.0 156 166 165 187 145 142 188 145 155 131
2370.0 116 98 104 117 97 81 77 84 84 81
2410.0 81 87 102 88 112 119 113 100 94 77
2450.0 74 79 75 72 72 58 58 50 45 46
2490.0 36 21 24 38 33 48 57 64 72 70
2530.0 84 105 96 94 105 82 71 72 52 57
2570.0 55 60 65 46 53 48 49 53 45 43
2610.0 41 41 42 39 33 40 42 41 67 66
2650.0 58 76 73 75 73 74 71 59 59 55
2690.0 58 61 81 76 72 81 92 92 111 129
2730.0 136 159 200 222 248 218 169 121 105 113
2770.0 104 104 113 116 118 143 144 138 133 154
2810.0 141 155 168 200 216 253 266 318 365 457
2850.0 551 691 893 1167 1471 1703 1837 1775 1634 1522
2890.0 1447 1429 1421 1439 1495 1619 1804 2059 2494 3165
2930.0 3852 4037 3538 2728 2124 1914 1882 1792 1626 1510
2970.0 1483 1588 1745 1852 1976 2020 2081 2221 2454 2825
3010.0 3262 3731 4163 4527 4815 5110 5446 5785 6217 6889
3050.0 7828 8921 9524 9225 8126 6441 4856 3633 2726 2120
3090.0 1746 1506 1290 1070 846 710 627 543 485 408
3130.0 342 295 214 166 139 107 121 107 119 98
3170.0 101 100 93 71 89 69 81 69 60 76
3210.0 77 83 77 62 57 55 40 30 49 44
3250.0 53 53 46 32 33 38 29 22 0 42
3290.0 39 21 26 15 4 25 23 18 21 9
3330.0 24 23 31 29 27 4 9 5 12 9
3370.0 33 47 31 26 27 30 7 26 18 44
3410.0 63 34 43 46 60 30 11 11 30 46
3450.0 34 41 42 29 41 65 51 60 53 37
3490.0 50 42 33 32 32 33 59 58 56 69
3530.0 41 67 60 78 71 73 69 52 65 52
3570.0 54 74 47 90 74 85 77 73 71 121
3610.0 101 75 54 55 83 89 74 113 151 148
3650.0 111 126 114 91 91 79 78 81 100 104
3690.0 106 62 100 92 75 70 50 54 47 41
3730.0 39 73 73 21 100 32 28 36 42 12
3770.0 53 54 49 55 47 45 104 74 88 90
3810.0 45 39 33 13 30 53 29 53 12 9
3850.0 14 31 0 53 81 12 37 86 102 56
3890.0 9 22 96 59 72 58 55 63 131 115
3930.0 81 188 131 78 188 107 106 98 121 137
##END=
