##TITLE=Benzaldehyde, 2,4-dimethoxy-
##JCAMP-DX=4.24
##DATA TYPE=INFRARED SPECTRUM
##ORIGIN=Sadtler Research Labs Under US-EPA Contract
##OWNER=NIST Standard Reference Data Program
##CAS REGISTRY NO=613-45-6
##MOLFORM=C 9 H 10 O 3
##XUNITS=1/CM
##YUNITS=ABSORBANCE
##XFACTOR=1.0
##YFACTOR=0.000095752
##DELTAX=4.0
##FIRSTX=450.0
##LASTX=3966.0
##FIRSTY=0.029970
##MAXX=3966
##MINX=450
##MAXY=0.95752
##MINY=0
##NPOINTS=880
##XYDATA=(X++(Y..Y))
450.0 313 261 292 277 232 154 94 50 53 80
490.0 133 227 261 304 262 232 164 106 74 34
530.0 50 6 8 18 20 61 129 155 170 197
570.0 213 196 163 108 53 36 49 45 46 55
610.0 31 62 110 113 156 186 227 236 257 226
650.0 252 211 224 214 112 164 93 37 56 35
690.0 60 46 58 58 60 63 59 67 90 37
730.0 9 12 15 59 21 31 33 46 53 80
770.0 78 132 154 243 337 503 725 1025 1248 1381
810.0 1458 1335 1133 922 948 997 1067 1123 983 835
850.0 642 504 360 277 191 166 129 104 89 67
890.0 83 81 91 104 148 209 322 456 584 677
930.0 702 649 542 423 319 212 161 125 116 121
970.0 126 134 161 176 208 210 231 259 277 321
1010.0 414 568 789 1124 1548 2040 2501 2796 2788 2445
1050.0 1867 1226 768 494 411 373 387 412 504 665
1090.0 937 1350 1837 2325 2773 3090 3146 2808 2260 1617
1130.0 1235 1138 1185 1399 1823 2558 3571 4315 4465 4067
1170.0 3163 2311 1832 1684 1769 1964 2317 2843 3693 4862
1210.0 5419 5387 4695 3469 2388 1790 1561 1597 1861 2469
1250.0 3334 4353 5404 5976 6013 5773 5025 4585 4245 4142
1290.0 4246 4211 3991 3603 3105 2656 2286 2011 1805 1544
1330.0 1211 866 622 474 408 368 346 348 339 352
1370.0 367 410 502 684 997 1404 1608 1644 1629 1432
1410.0 1372 1491 1625 1631 1509 1348 1268 1337 1421 1468
1450.0 1532 1607 1928 2422 2773 2671 2397 2090 1841 1848
1490.0 2112 2461 2669 2535 2105 1456 912 573 426 357
1530.0 330 334 351 394 446 536 666 861 1174 1574
1570.0 2110 2782 3533 4257 4972 5634 6496 7665 8905 10000
1610.0 9645 8309 6003 3900 2431 1623 1177 895 719 606
1650.0 537 512 510 524 535 560 586 653 846 1301
1690.0 2299 4367 7425 8672 8436 6517 3676 2396 1879 1561
1730.0 1170 752 498 382 317 278 250 257 274 294
1770.0 297 273 239 195 161 144 134 118 102 91
1810.0 79 69 64 58 53 52 55 52 55 59
1850.0 60 60 61 61 65 66 70 70 71 71
1890.0 65 62 67 67 67 71 71 72 66 66
1930.0 62 56 50 55 52 51 57 57 56 53
1970.0 46 52 41 41 37 38 41 48 51 52
2010.0 52 53 54 47 47 53 53 58 54 55
2050.0 58 61 69 78 90 96 101 97 86 74
2090.0 58 46 36 24 18 13 10 9 8 14
2130.0 9 14 15 21 15 15 15 14 12 12
2170.0 16 17 23 22 33 39 45 49 52 61
2210.0 55 54 45 38 31 22 16 11 11 6
2250.0 7 7 6 3 3 3 3 9 8 19
2290.0 31 36 47 53 53 53 41 26 17 13
2330.0 4 0 0 0 4 10 1 0 6 2
2370.0 9 19 42 53 56 51 45 41 41 42
2410.0 42 47 47 52 49 44 39 39 39 35
2450.0 35 36 35 36 32 36 36 38 38 38
2490.0 38 39 41 39 40 46 47 41 48 47
2530.0 44 47 38 42 38 40 40 45 45 51
2570.0 57 63 73 74 84 91 87 92 92 93
2610.0 88 82 76 71 66 57 56 53 54 54
2650.0 53 55 58 70 70 81 82 99 116 137
2690.0 171 200 236 264 289 291 276 261 224 202
2730.0 181 165 167 192 241 325 432 519 546 511
2770.0 432 334 256 212 196 187 188 189 205 216
2810.0 235 258 287 338 408 527 718 1012 1439 1941
2850.0 2366 2568 2475 2081 1595 1142 827 656 592 590
2890.0 607 649 682 714 732 772 817 870 889 893
2930.0 914 984 1137 1384 1666 1833 1909 1848 1693 1553
2970.0 1411 1170 952 771 637 587 592 671 843 1126
3010.0 1415 1472 1343 1043 659 431 322 260 224 202
3050.0 186 175 159 155 160 163 175 197 226 263
3090.0 280 294 281 256 208 164 134 107 97 87
3130.0 75 74 67 68 64 66 64 60 60 55
3170.0 50 50 46 47 43 39 40 39 33 39
3210.0 34 28 23 20 24 24 16 15 11 13
3250.0 7 5 7 3 8 9 4 3 0 14
3290.0 10 7 4 14 18 16 11 12 8 14
3330.0 8 4 9 9 10 8 5 18 14 32
3370.0 33 53 75 108 133 135 118 90 52 34
3410.0 32 30 26 29 32 39 33 29 23 24
3450.0 32 28 23 25 20 16 12 22 18 12
3490.0 8 8 4 6 8 6 10 8 15 12
3530.0 6 7 13 13 3 9 9 13 22 27
3570.0 36 36 36 44 32 23 27 22 22 14
3610.0 24 25 24 29 25 36 21 21 32 22
3650.0 34 29 33 24 40 40 39 38 42 39
3690.0 41 42 38 43 44 44 54 44 52 51
3730.0 55 65 62 60 74 77 73 74 80 74
3770.0 81 80 76 77 77 80 79 77 84 84
3810.0 84 90 90 87 92 103 97 96 88 89
3850.0 95 91 83 94 95 90 86 86 86 96
3890.0 91 88 88 82 88 94 100 95 101 96
3930.0 97 97 98 104 108 112 35 41 41 42
##END=
