##TITLE=4,4'-Dimethylbiphenyl
##JCAMP-DX=4.24
##DATA TYPE=INFRARED SPECTRUM
##ORIGIN=Sadtler Research Labs Under US-EPA Contract
##OWNER=NIST Standard Reference Data Program
##CAS REGISTRY NO=613-33-2
##MOLFORM=C 14 H 14
##XUNITS=1/CM
##YUNITS=ABSORBANCE
##XFACTOR=1.0
##YFACTOR=0.000065158
##DELTAX=4.0
##FIRSTX=450.0
##LASTX=3966.0
##FIRSTY=0.000000
##MAXX=3966
##MINX=450
##MAXY=0.65158
##MINY=0
##NPOINTS=880
##XYDATA=(X++(Y..Y))
450.0 0 91 122 145 107 235 159 242 253 384
490.0 611 906 1330 1748 2068 1912 1661 1400 1067 809
530.0 585 611 641 679 649 573 414 340 250 191
570.0 184 158 125 130 85 102 112 74 76 67
610.0 83 69 87 100 105 112 118 149 136 127
650.0 133 116 118 116 125 99 90 74 74 53
690.0 59 74 111 128 161 185 207 269 267 281
730.0 234 195 171 162 169 213 282 300 342 373
770.0 498 677 894 1311 2036 3352 4789 6461 7851 6464
810.0 5304 3757 2347 1631 1297 1199 1047 943 739 496
850.0 348 259 194 171 163 168 170 212 295 329
890.0 267 211 117 103 94 98 89 89 99 105
930.0 125 127 145 141 142 137 155 195 180 185
970.0 122 135 125 143 116 151 237 463 1347 2116
1010.0 1972 1261 450 386 449 472 453 415 444 471
1050.0 488 467 420 370 340 308 291 292 287 310
1090.0 355 421 519 612 707 800 847 843 812 740
1130.0 641 557 457 395 311 273 256 269 266 274
1170.0 292 303 588 968 950 674 288 222 305 467
1210.0 588 559 434 337 382 440 443 374 292 234
1250.0 211 212 214 214 196 191 168 167 154 166
1290.0 176 192 217 247 275 274 278 258 227 219
1330.0 228 251 311 334 302 303 305 349 398 425
1370.0 427 466 471 486 531 540 581 620 617 619
1410.0 651 627 716 688 692 654 646 644 619 652
1450.0 685 717 772 738 813 1019 1303 1378 1343 1429
1490.0 2089 4128 7920 10000 8308 4012 1464 853 819 639
1530.0 592 485 522 528 478 421 459 547 518 445
1570.0 448 416 387 318 273 266 254 275 293 339
1610.0 345 363 393 381 422 406 438 431 338 354
1650.0 367 439 349 341 345 324 306 228 238 267
1690.0 167 145 219 223 178 155 261 422 383 279
1730.0 200 222 188 166 208 223 206 220 263 253
1770.0 299 343 354 480 513 490 336 201 164 125
1810.0 112 116 93 91 101 105 96 80 120 132
1850.0 110 96 111 112 147 192 207 267 351 461
1890.0 561 610 601 538 437 325 238 177 146 109
1930.0 89 82 81 87 80 72 76 80 72 84
1970.0 78 74 70 73 69 79 82 71 63 63
2010.0 62 66 69 66 65 69 68 73 66 58
2050.0 54 52 47 48 52 44 48 49 46 52
2090.0 52 50 56 54 57 55 46 44 44 48
2130.0 46 47 50 49 53 46 49 49 62 64
2170.0 66 62 56 58 52 57 53 61 61 64
2210.0 61 56 59 60 57 52 60 61 58 57
2250.0 61 59 64 62 65 58 62 68 71 81
2290.0 93 100 110 122 134 137 135 128 137 128
2330.0 120 118 110 115 112 111 113 93 88 95
2370.0 91 79 81 86 78 75 80 76 88 88
2410.0 89 86 89 89 84 81 81 78 76 74
2450.0 73 77 79 77 80 85 81 77 76 76
2490.0 78 76 79 75 77 77 75 79 79 77
2530.0 76 77 68 67 70 71 70 71 75 80
2570.0 90 98 110 120 136 145 145 138 115 104
2610.0 99 103 111 115 113 101 91 75 77 71
2650.0 69 69 76 73 80 78 86 93 98 102
2690.0 99 102 109 119 129 142 149 162 170 174
2730.0 184 217 294 354 365 292 215 170 144 132
2770.0 134 137 136 147 159 165 181 187 210 227
2810.0 251 271 296 315 335 358 382 416 476 557
2850.0 667 808 1000 1264 1607 2050 2515 2796 2819 2599
2890.0 2340 2139 2008 1949 1947 2042 2239 2582 3112 3928
2930.0 4873 5450 5153 4136 3003 2209 1813 1591 1495 1443
2970.0 1472 1536 1651 1754 1895 2083 2271 2477 2650 2806
3010.0 2961 3240 3810 5222 7222 7963 6811 4495 3100 2928
3050.0 2946 3042 3087 3010 2812 2534 2306 2122 1978 1829
3090.0 1645 1411 1172 940 764 640 560 527 506 478
3130.0 427 377 344 302 258 215 185 157 145 134
3170.0 121 112 104 94 90 90 80 79 81 79
3210.0 78 75 75 76 78 61 68 71 72 66
3250.0 81 69 64 71 65 65 69 72 68 85
3290.0 70 73 76 65 77 78 81 69 75 83
3330.0 77 80 80 76 89 75 74 68 74 71
3370.0 74 68 74 71 71 78 79 87 82 83
3410.0 79 72 78 85 76 74 81 67 76 75
3450.0 71 72 69 71 68 70 67 59 54 72
3490.0 74 71 63 61 63 79 86 70 77 60
3530.0 70 54 67 76 69 77 76 65 89 75
3570.0 78 92 81 81 92 85 80 76 84 95
3610.0 89 71 75 75 91 103 83 76 80 87
3650.0 93 94 122 105 124 127 136 126 103 107
3690.0 112 109 89 83 98 108 97 96 67 62
3730.0 70 77 53 84 72 83 83 69 67 73
3770.0 76 58 74 59 64 59 80 62 77 73
3810.0 84 82 70 82 84 104 96 109 114 84
3850.0 74 142 123 88 119 112 88 96 88 90
3890.0 92 113 106 114 99 115 104 113 119 104
3930.0 116 83 72 75 73 68 90 92 78 83
##END=
