##TITLE=Benzaldehyde, 2-ethoxy-
##JCAMP-DX=4.24
##DATA TYPE=INFRARED SPECTRUM
##ORIGIN=Sadtler Research Labs Under US-EPA Contract
##OWNER=NIST Standard Reference Data Program
##CAS REGISTRY NO=613-69-4
##MOLFORM=C 9 H 10 O 2
##XUNITS=1/CM
##YUNITS=ABSORBANCE
##XFACTOR=1.0
##YFACTOR=0.000086572
##DELTAX=4.0
##FIRSTX=450.0
##LASTX=3966.0
##FIRSTY=0.005627
##MAXX=3966
##MINX=450
##MAXY=0.86572
##MINY=0
##NPOINTS=880
##XYDATA=(X++(Y..Y))
450.0 65 76 62 38 38 100 112 192 300 295
490.0 384 335 227 277 175 206 181 125 214 198
530.0 255 188 91 132 51 4 31 86 129 192
570.0 161 153 172 257 198 262 243 336 335 251
610.0 317 204 218 402 273 444 497 487 745 674
650.0 668 673 518 482 259 248 270 158 226 252
690.0 222 186 194 273 316 413 420 532 624 611
730.0 704 749 1100 1559 2020 2600 3302 3039 2383 1818
770.0 1328 915 666 643 493 501 535 489 478 527
810.0 584 750 954 1193 1475 1541 1464 1278 999 673
850.0 605 392 395 365 287 339 293 317 380 319
890.0 335 438 492 671 686 742 783 741 773 714
930.0 630 558 441 389 331 293 267 239 244 201
970.0 202 189 218 247 235 275 283 316 391 430
1010.0 556 698 865 1133 1419 1850 2347 2779 3114 3059
1050.0 2701 2133 1533 1118 871 710 601 642 725 863
1090.0 1122 1332 1542 1737 1809 1838 1845 1753 1564 1273
1130.0 981 730 617 717 961 1462 2008 2165 2092 1837
1170.0 1425 1216 1285 1422 1543 1556 1437 1267 1160 1188
1210.0 1453 1955 2820 3999 5236 6369 7077 7515 7095 6159
1250.0 5027 3741 2870 2510 2495 2885 3319 3788 4074 4093
1290.0 3876 3552 3076 2581 2043 1466 983 685 531 440
1330.0 404 357 332 328 347 410 453 557 680 762
1370.0 927 1141 1578 2230 2830 3166 3048 2485 1782 1155
1410.0 813 667 554 518 499 542 638 768 1061 1579
1450.0 2404 3038 3324 3367 3226 3089 3458 3928 4099 3784
1490.0 2988 2179 1547 1104 816 660 496 357 324 252
1530.0 198 175 193 227 220 233 256 271 374 492
1570.0 657 932 1275 1732 2330 3131 3982 4522 4492 4037
1610.0 3139 1964 1133 729 509 440 376 343 341 336
1650.0 388 433 467 518 565 633 683 715 812 1012
1690.0 1456 2397 4432 7399 9574 9997 10000 7347 4282 2752
1730.0 2085 1624 1140 733 531 469 425 387 375 370
1770.0 433 462 430 416 353 308 269 246 233 214
1810.0 197 184 184 156 132 127 116 115 111 94
1850.0 98 83 86 90 72 91 99 93 112 99
1890.0 107 103 102 128 120 145 161 173 195 172
1930.0 170 160 162 158 165 172 154 134 126 107
1970.0 106 95 87 88 86 98 94 97 107 83
2010.0 102 96 97 113 102 106 104 98 106 93
2050.0 96 97 87 83 82 88 88 76 64 46
2090.0 52 36 40 36 27 45 35 36 35 26
2130.0 37 26 29 37 15 30 28 14 30 17
2170.0 21 17 17 28 21 28 22 20 16 22
2210.0 29 15 27 23 15 30 18 25 36 29
2250.0 37 26 32 43 38 55 37 42 45 33
2290.0 38 31 21 32 19 19 19 14 8 8
2330.0 8 8 9 8 8 8 8 26 20 8
2370.0 58 39 51 61 45 60 47 39 37 22
2410.0 31 30 32 40 23 43 47 35 43 44
2450.0 64 57 63 58 63 65 65 72 68 54
2490.0 67 39 48 52 30 60 43 52 62 54
2530.0 60 46 42 47 37 35 40 37 56 43
2570.0 43 50 54 55 51 49 44 44 31 43
2610.0 49 32 40 40 38 57 43 60 64 56
2650.0 85 69 80 98 86 104 104 111 128 129
2690.0 147 173 204 236 277 335 364 371 352 309
2730.0 290 261 294 363 449 544 566 575 522 429
2770.0 365 294 266 246 217 228 217 214 223 217
2810.0 246 269 302 337 379 410 452 575 745 1028
2850.0 1417 1809 2071 2095 1928 1640 1314 1143 1054 1022
2890.0 1055 1021 1005 987 953 959 944 955 1000 1023
2930.0 1074 1117 1172 1221 1230 1175 1051 929 833 794
2970.0 853 967 1214 1552 1911 2048 2119 1795 1257 934
3010.0 715 558 492 438 394 431 427 468 521 523
3050.0 538 496 454 436 489 613 825 1019 1121 1071
3090.0 925 682 458 328 282 250 196 171 122 87
3130.0 86 60 79 71 50 89 66 70 90 74
3170.0 79 65 63 50 43 48 37 46 46 40
3210.0 40 34 53 30 45 29 23 42 31 37
3250.0 39 7 36 26 29 54 8 24 21 18
3290.0 51 34 34 40 29 50 43 36 33 27
3330.0 50 45 54 28 36 56 48 74 62 72
3370.0 92 65 121 98 117 165 137 192 185 165
3410.0 183 105 109 91 65 81 82 87 66 61
3450.0 58 39 63 35 53 36 22 51 34 39
3490.0 50 19 49 19 24 33 19 43 25 23
3530.0 36 9 22 33 16 35 24 30 43 58
3570.0 78 89 95 104 102 90 60 58 47 50
3610.0 44 31 38 18 18 35 20 48 51 39
3650.0 66 43 36 35 50 65 53 59 52 43
3690.0 61 65 50 50 45 51 56 57 31 68
3730.0 54 52 67 50 66 65 76 92 53 75
3770.0 89 65 92 70 79 81 67 88 95 80
3810.0 88 65 82 76 78 80 81 101 93 93
3850.0 72 98 94 101 113 90 82 83 77 100
3890.0 91 87 109 94 102 99 85 97 96 85
3930.0 99 103 113 100 97 110 0 8 8 8
##END=
