##TITLE=Benzenamine, N,N-diethyl-4-methyl-
##JCAMP-DX=4.24
##DATA TYPE=INFRARED SPECTRUM
##ORIGIN=Sadtler Research Labs Under US-EPA Contract
##OWNER=NIST Standard Reference Data Program
##CAS REGISTRY NO=613-48-9
##MOLFORM=C 11 H 17 N
##XUNITS=1/CM
##YUNITS=ABSORBANCE
##XFACTOR=1.0
##YFACTOR=0.000063028
##DELTAX=4.0
##FIRSTX=450.0
##LASTX=3966.0
##FIRSTY=0.007815
##MAXX=3966
##MINX=450
##MAXY=0.63028
##MINY=0
##NPOINTS=880
##XYDATA=(X++(Y..Y))
450.0 124 128 137 135 145 157 171 169 187 195
490.0 220 280 278 325 287 280 235 240 228 267
530.0 244 258 266 277 296 303 281 349 335 203
570.0 173 137 124 111 44 41 77 80 97 100
610.0 89 92 80 94 96 95 102 101 122 106
650.0 142 183 221 283 322 427 356 324 248 223
690.0 196 206 217 225 233 256 257 263 262 242
730.0 225 207 184 174 185 184 194 207 250 288
770.0 387 550 744 915 1050 1201 1423 1775 2137 2264
810.0 2070 1696 1295 964 681 506 409 334 258 221
850.0 206 189 178 164 174 183 171 178 187 211
890.0 251 282 270 263 221 201 193 191 201 197
930.0 191 184 175 183 173 182 175 181 184 200
970.0 203 215 273 257 286 311 351 416 507 613
1010.0 714 773 791 760 707 625 573 551 558 574
1050.0 599 638 697 775 889 1010 1089 1085 1040 996
1090.0 1000 1033 1034 1008 950 869 804 748 724 741
1130.0 817 998 1331 1727 1988 1982 1671 1265 960 835
1170.0 873 1019 1248 1544 1827 1987 1993 1822 1540 1276
1210.0 1062 900 788 735 728 798 963 1245 1709 2370
1250.0 3197 3966 4353 4220 3607 2817 2092 1581 1286 1150
1290.0 1095 1072 1042 990 947 926 935 948 1013 1094
1330.0 1220 1391 1572 1830 2092 2367 2623 2754 2690 2552
1370.0 2551 2796 3135 3285 3096 2615 2114 1649 1308 1064
1410.0 870 769 629 630 575 559 504 556 604 684
1450.0 789 869 922 941 982 973 915 866 867 816
1490.0 871 1044 1383 2022 3132 5619 8225 10000 9208 6832
1530.0 4037 2179 1240 780 616 567 504 460 492 539
1570.0 589 610 629 576 569 552 609 697 891 1156
1610.0 1575 2067 2408 2422 2004 1470 937 598 454 376
1650.0 267 264 228 230 219 239 214 328 448 866
1690.0 1118 1138 795 369 195 147 93 51 88 110
1730.0 87 56 96 106 86 77 101 96 95 94
1770.0 71 65 71 69 74 54 64 57 50 74
1810.0 85 90 109 92 92 66 70 84 75 93
1850.0 118 159 176 185 155 145 130 116 106 99
1890.0 98 90 90 99 87 92 82 87 85 101
1930.0 96 85 82 59 49 46 46 44 46 37
1970.0 40 45 52 54 53 40 48 45 50 49
2010.0 51 46 49 54 56 64 66 62 59 62
2050.0 63 62 63 55 38 37 36 36 28 27
2090.0 18 25 26 29 28 33 33 32 26 31
2130.0 23 22 21 22 23 29 28 29 32 34
2170.0 35 34 41 50 48 48 48 38 31 22
2210.0 22 19 15 14 13 13 12 20 20 19
2250.0 19 18 17 22 26 28 26 29 36 34
2290.0 40 37 33 24 22 9 9 3 14 14
2330.0 14 20 12 24 40 0 0 8 15 18
2370.0 30 47 53 45 40 46 45 45 47 45
2410.0 45 46 46 46 41 43 44 38 37 40
2450.0 46 46 46 47 47 47 47 47 47 47
2490.0 53 45 55 62 64 71 72 79 81 87
2530.0 88 88 88 87 89 80 74 80 72 73
2570.0 81 82 82 89 89 89 92 95 105 105
2610.0 104 106 106 98 97 97 90 90 89 91
2650.0 90 98 99 104 105 115 114 122 130 138
2690.0 139 145 158 165 183 184 195 201 215 225
2730.0 233 257 290 314 324 317 301 288 289 293
2770.0 310 327 342 367 400 442 483 551 645 763
2810.0 892 1045 1196 1317 1386 1408 1401 1354 1320 1281
2850.0 1259 1286 1354 1478 1698 2035 2463 2815 2972 2898
2890.0 2667 2430 2246 2158 2150 2184 2294 2477 2777 3243
2930.0 3791 4286 4531 4393 3948 3353 2800 2524 2612 3062
2970.0 3831 4729 5639 5954 5509 4474 3247 2366 1897 1689
3010.0 1623 1636 1711 1849 1984 2047 1956 1722 1395 1088
3050.0 876 759 703 673 683 696 697 684 674 647
3090.0 636 641 640 613 558 476 378 308 252 219
3130.0 205 195 182 178 165 140 131 117 100 92
3170.0 83 85 76 67 65 52 55 50 45 46
3210.0 44 44 54 53 52 54 52 36 51 37
3250.0 31 27 39 29 39 46 47 46 47 37
3290.0 45 33 28 37 26 35 37 24 32 31
3330.0 39 40 31 30 31 26 37 23 27 46
3370.0 48 38 33 18 26 33 46 25 33 36
3410.0 36 33 35 33 31 34 27 41 24 24
3450.0 30 37 15 28 38 26 26 19 23 32
3490.0 34 33 34 31 41 27 42 39 24 25
3530.0 30 27 40 27 34 33 37 30 17 4
3570.0 36 40 35 31 16 37 16 25 27 39
3610.0 31 27 29 62 15 35 38 39 34 15
3650.0 36 40 57 59 44 31 35 73 51 37
3690.0 56 68 52 32 37 30 61 51 53 58
3730.0 57 43 82 26 54 40 89 51 53 48
3770.0 50 50 35 44 46 42 40 29 41 49
3810.0 38 26 48 71 43 40 46 43 63 61
3850.0 39 49 62 58 65 57 55 55 42 49
3890.0 49 65 61 54 52 50 46 46 44 34
3930.0 28 21 31 24 26 29 42 43 40 44
##END=
