##TITLE=1,1-Dichloro-3,3-dimethylbutane
##JCAMP-DX=4.24
##DATA TYPE=INFRARED SPECTRUM
##ORIGIN=Sadtler Research Labs Under US-EPA Contract
##OWNER=NIST Standard Reference Data Program
##CAS REGISTRY NO=6130-96-7
##MOLFORM=C 6 H 12 Cl 2
##XUNITS=1/CM
##YUNITS=ABSORBANCE
##XFACTOR=1.0
##YFACTOR=0.000120990
##DELTAX=4.0
##FIRSTX=450.0
##LASTX=3966.0
##FIRSTY=0.000000
##MAXX=3966
##MINX=450
##MAXY=1.2099
##MINY=0
##NPOINTS=880
##XYDATA=(X++(Y..Y))
450.0 0 291 430 380 385 364 305 309 304 384
490.0 336 275 263 317 262 281 301 288 309 284
530.0 348 379 372 311 329 322 342 345 344 348
570.0 361 375 355 372 343 402 343 354 355 342
610.0 379 359 384 363 391 385 412 385 468 477
650.0 528 671 806 1240 1711 2514 3046 3497 3465 3098
690.0 2366 1648 1253 1099 1099 1288 1718 2317 2694 2689
730.0 2393 1803 1111 759 692 701 864 1121 1690 2394
770.0 2940 3056 2857 2155 1317 878 669 571 491 456
810.0 409 372 357 343 356 326 341 328 332 322
850.0 333 338 352 388 440 551 717 997 1326 1628
890.0 1734 1714 1496 1132 819 610 498 419 400 389
930.0 390 383 370 361 337 325 307 306 299 303
970.0 305 301 301 301 312 318 341 363 416 471
1010.0 520 544 539 529 513 533 568 592 593 575
1050.0 532 506 496 495 482 448 410 360 338 317
1090.0 315 314 312 308 302 304 299 304 307 314
1130.0 316 319 327 328 341 351 366 376 392 396
1170.0 395 401 416 443 482 535 584 632 687 755
1210.0 884 1118 1441 1750 1962 2119 2177 2178 2220 2219
1250.0 2044 1657 1181 819 599 486 421 390 370 364
1290.0 363 374 408 445 489 510 527 523 507 517
1330.0 563 688 841 965 1002 967 876 854 1042 1348
1370.0 1824 2138 1874 1627 1152 839 777 838 865 818
1410.0 714 552 446 449 478 533 593 607 609 647
1450.0 678 745 862 1067 1332 1644 1884 1986 1868 1599
1490.0 1253 892 633 487 412 379 342 331 315 307
1530.0 298 293 291 287 285 282 281 285 283 281
1570.0 283 282 283 283 277 283 280 283 279 281
1610.0 279 278 281 273 275 274 277 275 275 271
1650.0 278 275 276 277 276 280 278 276 277 282
1690.0 275 274 278 279 282 277 280 282 280 280
1730.0 282 281 279 276 277 277 274 276 273 275
1770.0 275 275 277 275 272 269 275 271 273 271
1810.0 272 272 273 274 271 275 271 272 269 274
1850.0 272 271 271 272 273 271 273 268 270 271
1890.0 274 275 272 271 272 275 269 276 275 275
1930.0 273 271 270 273 273 273 274 270 273 275
1970.0 275 273 275 275 271 272 270 275 271 274
2010.0 275 274 277 275 274 272 272 273 274 273
2050.0 274 275 276 282 275 275 273 270 269 272
2090.0 273 276 283 279 284 277 278 275 277 279
2130.0 276 278 275 275 273 273 272 271 268 269
2170.0 267 266 268 268 268 268 270 270 269 270
2210.0 270 265 266 267 265 270 269 270 267 267
2250.0 270 268 269 266 270 274 275 275 277 280
2290.0 282 288 293 296 296 299 293 293 287 280
2330.0 281 280 295 277 293 284 287 280 289 299
2370.0 291 294 288 293 293 287 282 289 292 296
2410.0 298 295 290 285 280 277 276 275 275 274
2450.0 272 273 269 274 274 274 276 278 279 277
2490.0 278 277 277 277 279 275 276 271 267 271
2530.0 268 268 265 268 267 269 270 273 275 275
2570.0 276 272 274 268 266 269 271 270 273 278
2610.0 279 282 282 284 280 280 281 278 280 283
2650.0 288 287 283 278 275 272 273 263 262 267
2690.0 266 274 278 289 294 296 304 307 317 329
2730.0 345 351 357 354 349 335 336 343 351 358
2770.0 362 354 346 340 329 331 335 347 357 367
2810.0 379 397 422 433 457 470 495 522 562 601
2850.0 642 687 759 895 1124 1458 1830 2158 2349 2344
2890.0 2253 2127 2053 2072 2178 2344 2515 2624 2641 2629
2930.0 2639 2767 3045 3490 4053 4715 5577 6891 8636 10000
2970.0 9958 8626 6265 4019 2685 1983 1529 1208 972 845
3010.0 767 720 637 533 456 398 370 348 336 331
3050.0 323 326 329 327 318 323 325 319 317 321
3090.0 315 311 307 313 305 306 305 311 324 312
3130.0 321 313 315 314 313 320 320 335 345 347
3170.0 346 355 353 363 356 351 348 359 354 348
3210.0 356 359 363 351 364 360 360 364 353 355
3250.0 341 346 333 331 322 306 313 301 298 290
3290.0 289 278 289 298 303 295 290 296 299 298
3330.0 288 307 302 295 286 288 292 303 287 293
3370.0 291 277 305 309 301 295 304 290 282 288
3410.0 292 308 295 293 298 295 300 293 283 279
3450.0 297 288 281 275 281 281 284 284 278 287
3490.0 275 284 276 283 272 288 278 263 285 282
3530.0 286 285 273 266 276 275 278 287 283 283
3570.0 275 277 281 274 284 294 288 283 280 283
3610.0 292 285 288 279 280 277 299 295 287 289
3650.0 288 283 290 278 282 288 282 291 294 291
3690.0 285 279 281 295 281 296 290 297 281 300
3730.0 288 287 290 282 290 299 296 282 298 288
3770.0 291 287 298 308 294 288 324 305 310 318
3810.0 303 307 276 294 304 311 296 296 308 307
3850.0 300 300 267 278 287 300 314 284 282 308
3890.0 284 302 297 275 317 307 300 298 286 307
3930.0 280 273 289 279 315 288 296 279 270 301
##END=
