##TITLE=4-Dodecanone
##JCAMP-DX=4.24
##DATA TYPE=INFRARED SPECTRUM
##ORIGIN=Sadtler Research Labs Under US-EPA Contract
##OWNER=NIST Standard Reference Data Program
##CAS REGISTRY NO=6137-26-4
##MOLFORM=C 12 H 24 O
##XUNITS=1/CM
##YUNITS=ABSORBANCE
##XFACTOR=1.0
##YFACTOR=0.000095706
##DELTAX=4.0
##FIRSTX=450.0
##LASTX=3966.0
##FIRSTY=0.045939
##MAXX=3966
##MINX=450
##MAXY=0.95706
##MINY=0
##NPOINTS=880
##XYDATA=(X++(Y..Y))
450.0 480 226 48 106 80 86 65 70 33 92
490.0 107 0 285 152 78 138 147 136 120 171
530.0 65 124 52 216 168 134 213 118 156 89
570.0 128 78 98 45 122 77 145 81 79 87
610.0 110 97 105 171 110 120 138 123 99 83
650.0 129 84 103 77 86 93 90 104 80 110
690.0 83 109 99 140 153 183 233 255 237 222
730.0 233 276 265 208 228 218 206 225 214 219
770.0 216 219 194 195 161 189 194 167 160 137
810.0 165 149 159 134 148 144 142 133 126 149
850.0 129 142 143 154 139 168 176 173 187 202
890.0 221 223 231 207 202 178 165 146 132 138
930.0 119 128 132 142 131 144 143 139 147 149
970.0 157 166 192 197 255 268 301 346 390 442
1010.0 477 517 522 540 517 494 449 429 433 440
1050.0 474 492 521 535 534 512 478 440 379 359
1090.0 329 320 307 335 362 423 500 598 703 806
1130.0 881 896 852 778 720 681 658 636 609 568
1170.0 525 513 500 506 499 496 484 459 431 397
1210.0 374 354 356 351 361 355 359 359 362 371
1250.0 381 401 415 449 479 523 532 534 542 555
1290.0 569 573 574 558 540 518 502 475 462 480
1330.0 493 538 612 717 838 996 1160 1291 1363 1358
1370.0 1258 1106 958 852 768 661 555 493 475 493
1410.0 554 625 677 676 654 635 645 672 723 809
1450.0 936 1083 1235 1328 1308 1191 985 740 529 394
1490.0 312 252 211 189 167 157 136 130 118 101
1530.0 96 90 93 96 88 79 75 85 74 72
1570.0 69 67 69 68 61 66 58 67 60 68
1610.0 65 66 77 76 83 79 83 84 80 86
1650.0 93 98 101 107 124 136 171 190 239 289
1690.0 326 403 506 673 898 1265 1800 2552 3356 3967
1730.0 4034 3437 2486 1672 1066 744 523 398 304 244
1770.0 214 174 157 129 125 103 107 89 78 73
1810.0 68 65 53 56 46 49 42 44 39 38
1850.0 40 33 33 26 31 27 27 27 28 27
1890.0 24 28 22 28 21 23 24 24 20 16
1930.0 18 17 23 18 25 20 21 20 22 21
1970.0 26 23 18 21 18 29 23 26 26 26
2010.0 29 30 38 35 41 47 49 48 47 45
2050.0 50 53 48 59 55 61 55 44 33 33
2090.0 27 25 30 30 31 33 35 29 33 32
2130.0 35 36 33 36 33 38 40 39 40 44
2170.0 43 37 44 42 47 40 45 43 45 44
2210.0 47 49 43 45 45 48 42 42 41 39
2250.0 41 42 42 40 43 41 51 44 46 41
2290.0 37 36 31 26 21 13 10 14 10 13
2330.0 12 16 29 27 47 21 10 10 46 79
2370.0 95 110 99 78 65 64 61 60 64 61
2410.0 61 58 60 54 56 50 54 51 52 51
2450.0 52 54 49 52 51 53 52 50 49 57
2490.0 46 55 61 50 48 50 63 53 65 67
2530.0 65 70 73 73 75 84 81 89 90 99
2570.0 103 98 100 103 103 101 107 101 105 108
2610.0 111 109 109 114 111 117 114 130 134 129
2650.0 124 129 126 120 128 143 156 173 174 173
2690.0 171 163 156 152 149 148 142 153 148 153
2730.0 160 169 183 192 202 200 199 195 195 192
2770.0 198 201 197 220 228 261 275 301 330 347
2810.0 383 427 446 477 508 552 624 705 820 1017
2850.0 1354 1923 2701 3458 3917 3934 3735 3535 3540 3562
2890.0 3444 3236 3201 3333 3591 3952 4461 5133 6164 7482
2930.0 8925 9907 10000 9291 8196 7055 6207 5819 5997 6460
2970.0 6821 6291 4922 3504 2549 1868 1427 1116 904 754
3010.0 646 553 482 437 378 360 321 291 265 256
3050.0 232 214 207 193 175 170 165 165 162 140
3090.0 148 147 125 127 124 128 100 113 115 117
3130.0 115 96 105 114 103 81 82 78 77 83
3170.0 74 68 74 59 60 49 48 57 63 77
3210.0 54 32 29 23 25 26 35 32 39 30
3250.0 29 22 32 27 18 32 26 30 26 24
3290.0 35 39 37 38 40 40 36 48 55 69
3330.0 64 55 32 45 48 55 43 54 54 64
3370.0 45 45 61 45 53 51 61 65 73 77
3410.0 72 67 79 70 87 92 85 102 77 68
3450.0 63 50 30 29 25 17 28 27 34 18
3490.0 31 22 40 29 31 42 33 31 23 32
3530.0 29 32 29 23 30 30 26 27 19 32
3570.0 37 23 29 27 28 28 10 24 28 18
3610.0 31 23 22 19 27 33 27 26 38 16
3650.0 40 42 30 53 34 31 33 47 35 49
3690.0 14 33 44 32 51 43 25 42 40 46
3730.0 47 58 52 78 55 20 60 49 36 29
3770.0 43 39 23 40 21 29 39 45 83 44
3810.0 40 13 25 66 52 25 24 37 49 64
3850.0 27 33 47 47 38 41 42 36 38 24
3890.0 24 10 26 24 14 43 36 10 10 10
3930.0 21 64 24 30 64 7 33 35 31 32
##END=
