##TITLE=Benzene, 1-ethoxy-2-methyl-
##JCAMP-DX=4.24
##DATA TYPE=INFRARED SPECTRUM
##ORIGIN=Sadtler Research Labs Under US-EPA Contract
##OWNER=NIST Standard Reference Data Program
##CAS REGISTRY NO=614-71-1
##MOLFORM=C 9 H 12 O
##XUNITS=1/CM
##YUNITS=ABSORBANCE
##XFACTOR=1.0
##YFACTOR=0.000065723
##DELTAX=4.0
##FIRSTX=450.0
##LASTX=3966.0
##FIRSTY=0.009924
##MAXX=3966
##MINX=450
##MAXY=0.65723
##MINY=0
##NPOINTS=880
##XYDATA=(X++(Y..Y))
450.0 151 216 127 22 44 174 234 224 132 123
490.0 127 182 311 355 309 76 97 84 189 232
530.0 292 335 155 208 266 274 193 268 253 163
570.0 182 141 261 89 208 258 379 380 316 413
610.0 209 174 139 213 173 165 213 185 166 98
650.0 214 181 226 263 234 150 94 150 177 246
690.0 277 309 371 445 593 931 1157 998 883 977
730.0 1171 1553 2030 2552 3142 2970 2475 2042 1559 1081
770.0 732 546 400 381 362 326 230 209 304 331
810.0 409 410 464 338 337 314 312 302 240 275
850.0 230 266 199 250 255 252 301 284 308 232
890.0 312 401 501 552 610 673 637 697 771 762
930.0 673 573 480 379 342 282 287 234 248 307
970.0 339 359 338 364 374 368 407 421 393 338
1010.0 355 456 573 700 910 1241 1527 1961 2622 3127
1050.0 3206 2964 2483 1692 1087 791 641 614 621 722
1090.0 771 817 758 834 984 1278 1883 2533 3156 3336
1130.0 3055 2477 1783 1089 719 686 663 700 654 658
1170.0 595 657 871 1133 1475 1671 1734 1569 1336 1091
1210.0 917 1024 1361 2156 3395 5086 6915 8993 10000 9144
1250.0 7771 5381 2927 1656 1212 1064 1036 1077 1172 1285
1290.0 1316 1353 1414 1448 1403 1276 1071 796 567 444
1330.0 375 356 339 330 335 331 340 372 441 457
1370.0 534 656 826 1018 1216 1462 1505 1455 1241 1000
1410.0 771 581 499 461 514 585 812 1034 1246 1479
1450.0 1592 1667 1632 1637 1529 1561 1767 2185 2631 3285
1490.0 4220 4407 4389 3890 3057 1925 1312 938 642 523
1530.0 402 384 384 358 353 343 373 382 307 349
1570.0 433 547 722 989 1313 1568 1758 1894 1827 1535
1610.0 1248 949 606 391 291 274 267 212 193 229
1650.0 225 199 187 187 188 182 220 226 250 179
1690.0 143 181 142 142 165 178 155 133 152 164
1730.0 189 176 175 162 157 189 189 202 162 202
1770.0 185 172 163 173 150 140 145 153 168 146
1810.0 145 137 113 123 133 157 140 154 170 152
1850.0 135 118 146 161 171 182 195 202 190 223
1890.0 227 204 164 141 138 133 163 208 200 190
1930.0 179 182 167 162 148 155 138 142 164 158
1970.0 157 126 135 134 151 164 144 149 118 130
2010.0 120 138 115 107 106 82 93 91 129 116
2050.0 135 146 147 142 119 138 116 107 100 99
2090.0 99 74 99 100 104 96 100 96 82 87
2130.0 88 79 63 74 85 87 89 84 79 72
2170.0 83 97 105 91 59 60 71 76 100 96
2210.0 95 69 69 82 98 92 82 83 68 81
2250.0 83 89 77 71 98 85 90 72 78 64
2290.0 56 76 76 90 76 99 87 104 79 79
2330.0 98 36 72 17 11 11 26 25 10 15
2370.0 10 11 11 11 56 86 81 74 79 86
2410.0 96 108 124 110 88 87 94 90 75 65
2450.0 68 66 80 96 102 89 83 112 115 119
2490.0 116 103 67 37 53 67 81 68 80 77
2530.0 73 88 90 104 83 103 84 77 56 54
2570.0 76 67 91 75 88 63 59 74 74 79
2610.0 44 63 49 49 56 54 53 27 57 64
2650.0 69 43 29 23 21 40 65 65 23 21
2690.0 35 45 57 78 83 50 39 57 92 102
2730.0 102 134 139 128 145 142 150 121 114 118
2770.0 108 108 95 111 89 111 122 147 137 132
2810.0 158 151 176 165 214 217 223 253 277 331
2850.0 344 466 567 679 762 891 1038 1150 1320 1400
2890.0 1460 1394 1388 1437 1499 1623 1730 1838 1766 1796
2930.0 1885 2016 2075 2073 2058 1895 1738 1594 1547 1501
2970.0 1549 1799 2180 2572 2722 2742 2567 1805 1334 998
3010.0 817 757 803 976 1152 1285 1340 1385 1268 1065
3050.0 973 915 944 981 1119 1203 1244 1267 1179 1075
3090.0 836 680 518 417 353 323 321 267 267 206
3130.0 186 129 114 141 122 121 57 77 57 85
3170.0 109 121 112 56 68 69 105 102 94 75
3210.0 38 26 58 96 69 75 93 84 60 65
3250.0 82 50 48 74 72 53 29 54 59 57
3290.0 80 86 78 53 61 70 40 40 51 76
3330.0 62 83 77 63 51 41 97 108 93 41
3370.0 29 26 31 77 101 103 21 53 59 74
3410.0 76 85 81 14 53 64 78 34 59 76
3450.0 53 86 82 103 41 40 46 73 80 73
3490.0 81 33 47 73 94 101 85 84 72 54
3530.0 55 47 63 67 81 74 77 53 44 87
3570.0 89 99 78 62 65 38 83 83 91 62
3610.0 76 84 86 100 103 77 45 83 96 100
3650.0 65 49 70 65 106 127 141 68 61 80
3690.0 80 99 94 111 72 59 59 99 120 111
3730.0 118 102 82 75 67 66 52 80 89 112
3770.0 85 76 107 111 119 115 134 120 75 91
3810.0 82 91 68 77 106 106 128 117 95 67
3850.0 99 125 127 117 56 47 27 79 145 175
3890.0 150 78 87 80 106 107 108 74 35 50
3930.0 73 94 76 100 123 152 0 11 11 11
##END=
