##TITLE=Benzenemethanol, .alpha.-propyl-
##JCAMP-DX=4.24
##DATA TYPE=INFRARED SPECTRUM
##ORIGIN=Sadtler Research Labs Under US-EPA Contract
##OWNER=NIST Standard Reference Data Program
##CAS REGISTRY NO=614-14-2
##MOLFORM=C 10 H 14 O
##XUNITS=1/CM
##YUNITS=ABSORBANCE
##XFACTOR=1.0
##YFACTOR=0.000087280
##DELTAX=4.0
##FIRSTX=450.0
##LASTX=3966.0
##FIRSTY=0.000000
##MAXX=3966
##MINX=450
##MAXY=0.8728
##MINY=0
##NPOINTS=880
##XYDATA=(X++(Y..Y))
450.0 0 144 130 216 125 438 350 327 486 531
490.0 666 831 702 381 596 524 568 588 705 697
530.0 854 1161 1328 1276 1257 1288 1170 946 713 611
570.0 493 383 331 270 336 381 395 469 566 648
610.0 665 647 763 844 848 719 590 417 353 423
650.0 422 496 602 736 865 1007 1038 1242 1677 2545
690.0 4020 5492 6483 6419 5301 3840 2595 1912 1618 1585
730.0 1762 2054 2299 2427 2781 3533 3397 3443 3165 2575
770.0 2062 1466 1025 808 693 628 575 512 456 461
810.0 461 554 643 679 685 649 599 536 481 528
850.0 635 714 720 779 756 675 578 589 587 652
890.0 722 845 954 936 1059 982 825 731 624 546
930.0 520 495 573 654 804 932 1091 1185 1246 1228
970.0 1252 1256 1298 1388 1519 1701 1993 2366 2817 3364
1010.0 3984 4563 5028 5273 5075 4561 3814 3068 2500 2256
1050.0 2248 2326 2447 2475 2437 2287 2051 1830 1629 1544
1090.0 1581 1689 1881 2013 2053 2003 1810 1625 1418 1191
1130.0 993 845 742 689 707 748 808 893 999 1120
1170.0 1265 1430 1554 1590 1587 1569 1567 1647 1754 1824
1210.0 1826 1809 1717 1605 1510 1448 1432 1401 1412 1448
1250.0 1464 1491 1576 1630 1754 1922 2059 2185 2257 2232
1290.0 2210 2112 2059 1982 1893 1773 1713 1662 1611 1595
1330.0 1570 1528 1519 1504 1548 1624 1727 1843 2005 2164
1370.0 2301 2423 2470 2412 2273 2053 1770 1475 1253 1033
1410.0 925 839 793 802 817 910 1019 1241 1509 1835
1450.0 2223 2474 2470 2390 2154 1800 1637 1426 1378 1480
1490.0 1602 1662 1435 1166 822 487 416 332 292 308
1530.0 296 330 311 295 277 260 243 214 189 233
1570.0 226 253 269 316 359 450 594 703 778 762
1610.0 571 451 314 186 193 160 179 169 149 153
1650.0 162 161 161 215 199 195 211 213 241 245
1690.0 294 371 460 484 478 434 354 257 204 197
1730.0 166 197 189 225 230 233 230 226 196 197
1770.0 183 185 193 208 236 285 359 422 438 397
1810.0 328 258 219 190 165 140 133 131 137 146
1850.0 152 164 184 214 242 275 293 315 318 308
1890.0 302 273 241 200 168 147 142 145 164 190
1930.0 233 281 345 383 402 395 391 369 309 265
1970.0 201 149 141 131 131 136 125 115 110 114
2010.0 111 107 117 118 116 120 122 130 116 124
2050.0 129 123 114 110 108 101 100 100 104 106
2090.0 100 100 103 101 105 100 105 100 104 104
2130.0 95 93 93 92 95 94 97 96 103 102
2170.0 102 106 106 106 111 107 105 100 100 98
2210.0 97 99 101 98 98 102 105 108 113 117
2250.0 115 116 115 111 111 107 107 107 104 104
2290.0 109 110 108 111 126 139 151 157 147 148
2330.0 148 147 153 147 139 131 134 144 132 122
2370.0 129 131 126 126 129 135 138 135 135 135
2410.0 133 131 127 131 131 130 130 130 132 128
2450.0 130 126 127 127 125 121 125 123 120 118
2490.0 117 121 118 120 125 129 129 132 129 134
2530.0 136 135 136 139 145 149 154 160 159 163
2570.0 175 178 184 184 188 189 193 193 196 191
2610.0 191 190 181 188 194 196 200 197 204 203
2650.0 202 207 204 210 213 219 224 229 227 225
2690.0 229 230 233 229 232 239 244 248 252 258
2730.0 267 283 301 321 329 325 316 304 307 309
2770.0 320 330 346 360 384 408 428 454 476 506
2810.0 520 551 585 622 669 742 827 954 1123 1329
2850.0 1582 1871 2219 2646 3205 3860 4610 5378 5867 5851
2890.0 5447 4800 4125 3770 3729 3931 4347 4814 5301 5864
2930.0 6465 7229 8009 8369 8142 7463 6847 6784 7744 9289
2970.0 10000 9287 7327 4925 3158 2183 1698 1426 1314 1283
3010.0 1325 1431 1646 2018 2590 3208 3686 3819 3569 3109
3050.0 2632 2335 2300 2622 3319 3934 4133 3924 3341 2695
3090.0 2315 2052 1776 1501 1242 1038 866 693 558 436
3130.0 360 312 273 255 249 241 239 238 240 244
3170.0 232 214 215 194 184 180 180 177 164 159
3210.0 155 152 141 131 127 125 120 120 116 121
3250.0 119 120 119 124 130 129 120 126 128 103
3290.0 107 127 97 105 112 108 126 114 128 128
3330.0 126 130 131 136 136 143 138 121 154 143
3370.0 151 145 149 157 153 151 162 160 164 153
3410.0 157 154 160 155 146 161 147 145 150 156
3450.0 141 148 155 167 165 155 155 153 159 156
3490.0 142 140 138 145 135 124 124 142 150 149
3530.0 130 136 147 156 148 143 137 146 136 142
3570.0 121 123 114 133 144 145 153 158 185 199
3610.0 207 218 248 332 367 530 798 1137 1667 1876
3650.0 2015 1871 1506 1131 806 558 390 302 269 272
3690.0 213 188 199 173 167 153 133 150 127 127
3730.0 143 131 125 143 97 141 93 143 142 133
3770.0 139 134 140 122 129 147 129 148 127 156
3810.0 153 139 144 151 168 166 151 138 141 151
3850.0 151 93 136 152 149 137 160 151 167 131
3890.0 153 168 179 172 136 174 154 143 152 108
3930.0 125 114 143 194 149 136 132 150 169 137
##END=
