##TITLE=5-Norbornen-2-yl acetate
##JCAMP-DX=4.24
##DATA TYPE=INFRARED SPECTRUM
##ORIGIN=Sadtler Research Labs Under US-EPA Contract
##OWNER=NIST Standard Reference Data Program
##CAS REGISTRY NO=6143-29-9
##MOLFORM=C 9 H 12 O 2
##XUNITS=1/CM
##YUNITS=ABSORBANCE
##XFACTOR=1.0
##YFACTOR=0.000110889
##DELTAX=4.0
##FIRSTX=450.0
##LASTX=3966.0
##FIRSTY=0.035928
##MAXX=3966
##MINX=450
##MAXY=1.10889
##MINY=0
##NPOINTS=880
##XYDATA=(X++(Y..Y))
450.0 324 322 223 69 101 211 225 150 177 157
490.0 198 142 108 186 229 257 353 323 266 217
530.0 266 293 284 167 137 164 137 167 178 254
570.0 229 154 169 253 177 168 232 216 265 239
610.0 231 212 230 291 270 263 245 189 293 170
650.0 187 242 259 145 113 100 105 150 134 108
690.0 68 129 115 217 382 569 1025 1319 1437 1213
730.0 902 397 214 168 125 138 93 79 89 93
770.0 101 94 45 37 34 21 33 10 20 42
810.0 16 25 73 83 134 180 238 246 297 395
850.0 436 452 400 269 146 133 140 169 218 256
890.0 300 313 335 329 318 330 294 243 167 131
930.0 122 122 142 160 173 195 226 249 250 297
970.0 340 392 406 382 397 459 547 679 832 913
1010.0 858 713 565 502 610 935 1502 2140 2616 2750
1050.0 2447 1869 1271 952 771 720 694 644 570 497
1090.0 429 414 378 383 520 772 1011 1079 1064 782
1130.0 491 351 359 503 637 799 948 1007 986 966
1170.0 1015 984 973 959 905 872 846 858 932 975
1210.0 1083 1241 1557 2121 3094 4677 6762 8651 10000 9333
1250.0 7728 5347 3268 2157 1574 1217 1005 800 679 560
1290.0 465 412 415 440 429 405 363 290 258 279
1330.0 326 358 393 427 442 592 864 1129 1334 1448
1370.0 1509 1565 1501 1388 1128 804 589 446 395 301
1410.0 262 227 204 191 200 214 248 268 294 341
1450.0 348 338 284 270 245 207 166 115 107 91
1490.0 62 64 59 59 67 78 87 77 74 92
1530.0 81 86 65 70 59 68 45 23 59 67
1570.0 77 91 65 57 58 57 43 33 33 31
1610.0 40 57 58 80 96 90 90 81 91 67
1650.0 59 60 64 57 70 75 82 79 93 94
1690.0 100 118 120 153 196 223 256 279 357 475
1730.0 644 960 1450 2079 2733 3476 3949 4312 4333 4011
1770.0 3629 2947 2337 1803 1315 1084 1052 1092 992 901
1810.0 759 558 400 269 182 154 102 106 74 59
1850.0 64 49 53 44 42 44 40 40 44 25
1890.0 29 30 28 23 21 30 18 21 29 31
1930.0 25 24 34 26 22 21 22 26 20 24
1970.0 21 18 17 17 3 19 6 22 26 19
2010.0 22 12 18 26 15 8 10 27 24 16
2050.0 28 33 34 37 43 32 35 43 39 33
2090.0 34 32 42 47 44 47 50 38 58 53
2130.0 51 63 51 47 42 45 40 28 32 31
2170.0 35 37 36 35 35 36 38 34 41 33
2210.0 37 28 20 35 29 39 40 36 32 43
2250.0 45 32 29 31 33 49 43 28 25 17
2290.0 15 18 15 24 17 13 16 4 2 28
2330.0 4 12 8 47 15 16 3 25 0 3
2370.0 3 36 22 20 25 31 29 39 42 29
2410.0 30 25 32 43 23 26 20 18 31 30
2450.0 41 40 36 39 47 46 58 49 47 36
2490.0 26 31 32 31 21 33 34 21 28 20
2530.0 32 29 24 28 38 29 14 28 30 21
2570.0 30 21 18 24 19 39 29 21 29 33
2610.0 34 30 15 7 24 25 18 21 27 20
2650.0 21 23 29 28 25 25 28 21 24 42
2690.0 33 30 36 27 28 27 37 44 33 22
2730.0 29 37 33 27 36 35 33 33 36 27
2770.0 34 38 24 26 31 33 32 34 35 46
2810.0 50 42 38 43 43 56 54 58 61 62
2850.0 74 100 130 187 259 358 438 512 535 483
2890.0 416 353 311 293 286 300 294 325 331 324
2930.0 367 453 580 788 985 1145 1213 1196 1188 1306
2970.0 1602 2054 2511 3002 3186 2860 2359 1684 1013 681
3010.0 505 392 327 264 212 194 214 230 259 244
3050.0 226 250 288 369 477 548 592 560 458 351
3090.0 259 171 139 85 91 78 79 66 66 59
3130.0 61 69 78 96 106 96 85 71 62 54
3170.0 41 35 42 35 34 36 31 29 36 25
3210.0 33 42 38 33 34 35 31 28 25 11
3250.0 30 24 22 21 25 19 23 26 19 30
3290.0 28 25 25 20 29 19 24 7 13 9
3330.0 8 12 13 17 9 15 29 28 27 14
3370.0 8 19 15 17 21 18 15 20 18 18
3410.0 24 22 14 9 19 9 7 14 9 21
3450.0 26 25 25 18 28 23 39 43 63 55
3490.0 63 41 40 40 42 35 45 32 34 18
3530.0 15 41 47 37 28 45 79 107 130 147
3570.0 158 115 154 193 159 95 148 145 138 142
3610.0 89 64 39 58 41 29 34 45 57 41
3650.0 16 17 40 49 69 27 37 48 41 46
3690.0 26 33 27 53 54 63 37 47 48 56
3730.0 39 24 33 40 25 43 37 45 48 53
3770.0 64 27 45 54 90 41 54 30 7 34
3810.0 43 37 82 27 18 33 37 53 54 42
3850.0 42 58 29 54 33 25 47 17 40 58
3890.0 69 59 46 55 82 21 20 40 44 43
3930.0 30 3 24 67 74 47 40 56 49 59
##END=
