##TITLE=Ethyl 2-bromovalerate
##JCAMP-DX=4.24
##DATA TYPE=INFRARED SPECTRUM
##ORIGIN=Sadtler Research Labs Under US-EPA Contract
##OWNER=NIST Standard Reference Data Program
##CAS REGISTRY NO=615-83-8
##MOLFORM=C 7 H 13 Br O 2
##XUNITS=1/CM
##YUNITS=ABSORBANCE
##XFACTOR=1.0
##YFACTOR=0.000073691
##DELTAX=4.0
##FIRSTX=450.0
##LASTX=3966.0
##FIRSTY=0.000000
##MAXX=3966
##MINX=450
##MAXY=0.73691
##MINY=0
##NPOINTS=880
##XYDATA=(X++(Y..Y))
450.0 0 410 426 647 531 723 551 518 630 605
490.0 703 555 675 654 666 695 626 560 605 588
530.0 603 588 570 687 620 574 662 537 614 577
570.0 557 589 614 616 630 700 730 705 750 706
610.0 685 722 624 716 649 642 662 633 685 635
650.0 702 778 705 915 759 1034 994 1044 988 893
690.0 825 810 787 761 723 686 685 667 746 686
730.0 693 806 639 976 1075 1100 801 862 814 704
770.0 695 722 710 712 752 721 732 749 762 751
810.0 690 631 655 647 635 660 663 674 701 769
850.0 813 871 1000 954 870 858 799 824 789 735
890.0 749 704 744 773 736 734 714 700 778 826
930.0 931 927 922 860 810 768 720 685 653 638
970.0 674 657 677 727 773 778 848 874 986 1075
1010.0 1170 1274 1418 1721 2180 2724 3101 3182 2897 2477
1050.0 2212 2038 1873 1645 1402 1271 1195 1211 1381 1617
1090.0 1920 2279 2632 2772 2870 2833 2756 2565 2368 2363
1130.0 2582 2986 3817 5037 6357 7538 7804 7133 5776 4392
1170.0 3582 3241 3131 3233 3534 3858 4165 4243 4155 3740
1210.0 3317 2961 2781 2715 2839 3046 3538 4003 4311 4481
1250.0 4658 4993 5211 5484 5664 5847 5561 5002 3988 3234
1290.0 2771 2660 2599 2573 2481 2384 2221 1999 1923 1845
1330.0 1920 2019 2077 2030 1919 1760 1565 1397 1341 1587
1370.0 1951 2237 2293 2042 1742 1535 1385 1268 1150 1051
1410.0 993 928 906 889 930 1012 1092 1179 1322 1393
1450.0 1470 1536 1501 1679 1751 1833 1739 1504 1270 1003
1490.0 887 773 712 696 640 678 588 639 568 592
1530.0 616 604 612 600 599 580 559 547 622 582
1570.0 589 598 581 585 570 564 594 558 625 594
1610.0 584 592 599 555 598 593 577 591 597 574
1650.0 619 555 641 570 610 573 630 611 625 669
1690.0 673 693 738 814 841 958 1013 1175 1283 1446
1730.0 1731 2113 2972 4230 5970 8244 9933 10000 9152 6628
1770.0 4585 3126 2290 1855 1540 1333 1131 985 866 804
1810.0 751 696 667 637 619 614 575 598 565 590
1850.0 569 573 580 570 576 549 565 559 566 566
1890.0 574 573 559 558 540 537 542 550 528 521
1930.0 535 538 529 521 523 550 518 547 527 538
1970.0 524 547 538 531 538 531 542 545 545 545
2010.0 561 542 524 526 534 526 535 531 536 538
2050.0 534 536 544 520 534 530 536 523 542 527
2090.0 521 527 540 533 533 521 530 532 523 533
2130.0 510 525 525 514 514 516 522 516 520 522
2170.0 510 523 516 509 520 514 524 518 520 513
2210.0 518 513 515 513 517 522 512 513 518 518
2250.0 510 519 510 516 519 507 509 509 505 500
2290.0 495 487 480 482 474 446 451 432 418 420
2330.0 418 413 426 412 422 418 413 421 415 418
2370.0 422 415 460 485 500 526 519 524 528 526
2410.0 525 523 526 524 529 524 522 522 517 510
2450.0 518 504 513 515 503 512 512 509 509 509
2490.0 510 512 508 510 506 505 505 512 511 506
2530.0 509 509 507 509 512 514 511 518 514 516
2570.0 509 505 513 507 504 510 509 509 507 506
2610.0 509 512 513 519 517 512 509 508 506 512
2650.0 507 503 506 504 514 509 511 508 509 515
2690.0 517 517 515 511 516 512 516 519 521 528
2730.0 530 533 541 555 559 569 569 563 560 553
2770.0 557 558 566 562 579 580 579 577 587 605
2810.0 620 622 627 636 652 666 681 702 742 790
2850.0 835 862 901 947 1033 1199 1432 1750 2109 2314
2890.0 2313 2108 1848 1683 1658 1718 1772 1818 1821 1863
2930.0 1989 2259 2725 3257 3576 3524 3233 3066 3329 4173
2970.0 5264 5884 5609 4879 4183 3692 3260 2717 2250 1943
3010.0 1680 1443 1241 1069 949 860 803 761 730 700
3050.0 680 657 636 622 610 606 592 581 570 573
3090.0 563 555 545 541 538 539 535 524 523 524
3130.0 517 520 515 515 514 520 509 517 517 506
3170.0 519 510 516 517 509 505 512 514 498 489
3210.0 495 488 494 485 486 481 479 480 480 476
3250.0 473 480 469 463 468 470 466 457 467 458
3290.0 470 464 463 455 457 466 459 462 463 468
3330.0 463 445 472 472 470 471 474 469 461 457
3370.0 472 483 478 482 478 484 483 470 480 471
3410.0 471 479 477 481 485 485 476 480 475 477
3450.0 493 493 483 500 489 486 491 508 509 535
3490.0 553 545 542 526 512 498 488 494 484 483
3530.0 494 484 480 494 474 479 468 486 493 498
3570.0 496 512 541 495 544 482 524 475 520 476
3610.0 508 495 484 508 487 495 477 440 479 512
3650.0 474 531 427 515 432 537 463 523 453 446
3690.0 552 424 481 462 455 489 483 464 462 471
3730.0 490 500 506 466 508 550 531 508 471 509
3770.0 497 500 487 518 521 499 493 543 507 586
3810.0 427 550 481 572 514 510 509 549 520 455
3850.0 552 493 615 510 535 532 501 501 484 503
3890.0 447 527 499 498 516 458 511 487 493 535
3930.0 505 504 501 513 513 495 475 502 481 496
##END=
