##TITLE=Benzene, 1,2,4-tribromo-
##JCAMP-DX=4.24
##DATA TYPE=INFRARED SPECTRUM
##ORIGIN=Sadtler Research Labs Under US-EPA Contract
##OWNER=NIST Standard Reference Data Program
##CAS REGISTRY NO=615-54-3
##MOLFORM=C 6 H 3 Br 3
##XUNITS=1/CM
##YUNITS=ABSORBANCE
##XFACTOR=1.0
##YFACTOR=0.000051758
##DELTAX=4.0
##FIRSTX=450.0
##LASTX=3966.0
##FIRSTY=0.054760
##MAXX=3966
##MINX=450
##MAXY=0.51758
##MINY=0
##NPOINTS=880
##XYDATA=(X++(Y..Y))
450.0 1058 905 1137 1277 1144 596 243 25 58 106
490.0 156 152 126 163 137 340 459 502 730 668
530.0 657 504 331 177 173 149 220 204 330 116
570.0 175 111 85 194 58 76 133 108 438 315
610.0 318 200 231 168 223 173 163 103 236 470
650.0 464 671 502 452 239 76 373 248 304 348
690.0 368 200 296 112 219 218 155 152 242 236
730.0 268 411 650 1012 1827 2508 2830 2193 1019 595
770.0 540 614 621 462 359 399 845 1609 2587 3312
810.0 2766 1745 920 483 310 278 275 218 201 181
850.0 215 252 424 753 1184 1586 1403 1076 633 296
890.0 225 199 162 183 204 160 156 163 168 180
930.0 211 181 211 188 196 243 241 207 275 284
970.0 268 239 251 250 229 247 368 662 1402 3148
1010.0 6446 8637 7706 4173 1928 1016 464 292 337 452
1050.0 670 1080 1277 1086 713 637 955 1741 2978 3496
1090.0 2918 1744 1871 2832 3219 2753 1800 1122 653 483
1130.0 438 512 632 655 436 292 209 187 218 185
1170.0 165 126 106 126 178 244 240 222 266 268
1210.0 247 253 195 189 196 222 250 312 465 600
1250.0 718 608 368 190 127 128 158 196 233 291
1290.0 341 378 400 364 269 202 178 166 204 223
1330.0 286 386 500 682 954 1311 1713 1973 1930 1565
1370.0 1142 833 610 451 382 539 899 1217 1208 983
1410.0 767 892 1065 1252 1387 1357 1641 2907 5680 9544
1450.0 10000 6125 1799 599 478 649 920 889 615 373
1490.0 284 269 258 222 131 83 63 114 145 185
1530.0 271 398 602 912 1374 1884 2483 2795 2264 1334
1570.0 634 407 279 216 179 144 96 90 106 130
1610.0 151 205 189 187 186 148 167 136 115 143
1650.0 107 93 108 88 91 112 111 105 116 99
1690.0 89 95 64 62 84 77 122 165 192 287
1730.0 371 456 489 473 414 343 279 209 196 180
1770.0 165 141 117 111 113 110 87 105 93 83
1810.0 92 82 89 70 69 67 53 46 47 53
1850.0 47 44 53 52 63 84 103 155 199 225
1890.0 228 181 102 72 31 34 34 33 29 50
1930.0 32 22 28 32 26 30 26 45 32 25
1970.0 33 32 9 10 12 20 46 27 18 27
2010.0 32 25 43 41 31 31 21 29 40 31
2050.0 32 28 20 28 33 22 24 21 31 30
2090.0 30 32 30 24 28 41 35 25 34 21
2130.0 12 21 12 16 29 30 33 31 16 30
2170.0 32 28 16 20 11 40 31 27 28 31
2210.0 29 30 43 21 27 29 20 30 39 28
2250.0 20 20 27 26 36 46 51 43 42 41
2290.0 42 41 61 58 80 95 100 95 125 119
2330.0 154 159 150 162 122 112 130 134 171 173
2370.0 92 53 46 13 9 17 12 16 13 3
2410.0 23 14 10 22 21 18 25 25 11 30
2450.0 15 16 25 26 11 26 24 10 33 31
2490.0 32 34 21 18 26 8 26 28 4 18
2530.0 8 5 33 17 20 25 28 41 48 38
2570.0 28 48 27 33 26 24 26 27 13 34
2610.0 32 20 21 29 20 46 38 33 38 29
2650.0 29 31 2 17 21 22 22 30 32 39
2690.0 53 34 41 34 13 29 21 23 23 24
2730.0 23 30 26 29 35 23 38 43 42 41
2770.0 66 63 54 64 74 72 69 60 61 30
2810.0 23 40 46 26 38 28 27 45 45 44
2850.0 70 70 70 67 66 55 67 45 39 56
2890.0 47 46 66 56 72 85 101 119 112 138
2930.0 128 111 87 90 68 67 74 61 64 63
2970.0 49 21 46 39 47 73 48 31 60 28
3010.0 15 31 20 25 18 12 18 33 30 35
3050.0 39 32 50 92 129 116 136 107 103 92
3090.0 77 77 70 53 53 43 41 69 63 34
3130.0 68 38 47 58 23 34 41 44 26 44
3170.0 33 41 43 29 51 28 20 63 29 20
3210.0 39 35 54 43 27 49 56 33 46 66
3250.0 43 47 47 28 41 37 28 55 27 36
3290.0 51 60 40 44 37 43 53 45 31 68
3330.0 48 54 66 17 34 64 56 66 51 61
3370.0 56 69 49 99 42 40 77 75 70 93
3410.0 70 39 52 80 43 50 61 80 62 49
3450.0 70 53 79 55 68 59 68 61 76 82
3490.0 63 72 97 86 67 98 89 76 75 78
3530.0 65 75 53 75 91 37 82 85 75 80
3570.0 99 96 95 77 86 103 104 84 115 116
3610.0 85 90 95 83 97 98 103 75 68 79
3650.0 69 78 95 86 83 80 86 65 77 89
3690.0 43 104 67 62 68 59 39 92 58 62
3730.0 54 69 76 115 72 56 48 52 60 60
3770.0 48 34 59 27 45 27 39 74 51 56
3810.0 50 41 32 78 70 42 66 56 13 47
3850.0 37 36 65 35 14 13 3 11 13 32
3890.0 31 38 31 39 45 28 46 27 6 35
3930.0 54 9 13 12 15 40 0 3 3 3
##END=
