##TITLE=Benzene, 4-chloro-1,2-dimethyl-
##JCAMP-DX=4.24
##DATA TYPE=INFRARED SPECTRUM
##ORIGIN=Sadtler Research Labs Under US-EPA Contract
##OWNER=NIST Standard Reference Data Program
##CAS REGISTRY NO=615-60-1
##MOLFORM=C 8 H 9 Cl
##XUNITS=1/CM
##YUNITS=ABSORBANCE
##XFACTOR=1.0
##YFACTOR=0.000070999
##DELTAX=4.0
##FIRSTX=450.0
##LASTX=3966.0
##FIRSTY=0.012851
##MAXX=3966
##MINX=450
##MAXY=0.70999
##MINY=0
##NPOINTS=880
##XYDATA=(X++(Y..Y))
450.0 181 311 132 121 0 91 75 87 78 72
490.0 105 37 139 54 84 87 163 145 239 421
530.0 657 774 953 1060 650 500 357 273 156 90
570.0 112 111 147 130 211 137 169 111 181 267
610.0 660 944 1048 1079 949 692 233 375 784 1464
650.0 1537 1615 1454 594 210 68 136 67 309 419
690.0 781 823 1437 1730 1212 733 713 393 313 221
730.0 255 262 323 482 415 864 1487 2433 3039 4498
770.0 6404 4558 3124 2872 2128 2164 2621 3703 3960 5632
810.0 5841 3242 3017 1964 1462 1511 1758 1758 1882 1654
850.0 1175 956 1166 1404 2133 3633 4436 5426 6177 5580
890.0 4384 2555 1098 505 397 348 319 263 237 208
930.0 215 223 246 281 304 356 402 484 584 699
970.0 864 1098 1425 1971 2700 3282 3656 3861 3736 3328
1010.0 3137 3021 2844 2644 2470 2172 1854 1589 1379 1249
1050.0 1143 1087 982 917 859 952 1156 1462 1662 1625
1090.0 1759 2083 2313 2215 2238 2024 1467 1463 1690 1767
1130.0 1954 2222 2221 2155 2079 1702 1361 1057 957 1301
1170.0 2023 3055 3631 3649 3245 2140 998 604 558 578
1210.0 595 592 534 479 456 419 361 355 369 374
1250.0 372 371 376 405 438 494 554 583 508 462
1290.0 378 272 230 211 204 213 228 249 264 277
1330.0 296 320 370 380 373 384 384 406 428 480
1370.0 579 752 896 1091 1366 1482 1666 1750 1734 1757
1410.0 1621 1470 1486 1511 1749 2226 2809 3484 4213 5019
1450.0 5849 6565 6837 6775 6798 6563 6474 6680 7650 9389
1490.0 10000 9409 8414 5579 3090 1994 1512 1264 1157 1083
1530.0 1092 1159 1205 1288 1302 1359 1528 1836 2208 2583
1570.0 2955 3074 2984 2780 2584 2749 3276 3786 3727 3306
1610.0 2544 1630 959 682 548 459 436 415 357 361
1650.0 378 418 352 308 283 231 206 163 180 200
1690.0 162 167 237 287 376 482 658 880 863 823
1730.0 787 664 579 550 505 420 344 277 277 259
1770.0 294 291 256 239 197 165 151 126 127 111
1810.0 98 100 92 104 116 138 161 199 261 293
1850.0 276 264 251 261 308 373 356 345 326 262
1890.0 201 171 154 168 197 242 274 287 277 232
1930.0 172 108 68 51 45 29 33 33 26 32
1970.0 35 32 28 34 34 36 34 30 25 29
2010.0 25 29 29 23 19 16 13 12 21 17
2050.0 18 15 15 8 11 5 7 8 6 16
2090.0 15 19 17 15 14 19 18 22 26 30
2130.0 28 25 26 17 8 14 13 8 9 9
2170.0 8 15 9 11 13 8 9 16 19 17
2210.0 25 28 28 27 28 28 25 22 19 24
2250.0 33 39 42 43 48 50 49 51 50 46
2290.0 34 28 24 24 25 24 31 41 46 41
2330.0 21 11 5 5 5 31 45 63 22 5
2370.0 5 5 11 35 45 59 60 53 58 54
2410.0 54 56 46 49 47 43 43 44 49 52
2450.0 54 56 56 52 54 56 62 55 57 51
2490.0 56 43 35 32 35 29 30 39 32 42
2530.0 42 50 51 49 57 61 62 66 65 52
2570.0 40 38 29 20 14 18 7 12 15 19
2610.0 24 19 22 21 16 14 26 29 33 37
2650.0 38 26 28 20 29 26 34 39 34 32
2690.0 28 37 39 59 63 86 111 147 188 213
2730.0 263 301 361 405 422 414 366 291 244 238
2770.0 242 243 226 213 188 193 194 197 192 217
2810.0 242 272 306 346 400 467 531 606 715 841
2850.0 1008 1220 1488 1855 2322 2856 3343 3695 3803 3741
2890.0 3545 3336 3191 3136 3174 3302 3544 3912 4519 5493
2930.0 6696 7691 8169 8187 7665 6894 6393 5924 5363 4955
2970.0 4794 4837 4916 4874 4663 4229 3562 2920 2426 2169
3010.0 2154 2371 2778 3263 3660 3735 3611 3298 2802 2434
3050.0 2342 2387 2573 2835 3106 3280 3319 3216 2862 2408
3090.0 2023 1641 1318 1099 922 763 626 529 436 373
3130.0 307 283 257 226 201 177 158 143 138 107
3170.0 107 77 82 82 88 68 71 66 68 60
3210.0 49 52 33 17 33 53 34 35 34 27
3250.0 34 42 40 34 32 32 48 34 46 36
3290.0 37 35 39 36 23 46 35 36 23 41
3330.0 26 25 34 43 35 22 24 46 33 47
3370.0 42 20 30 41 29 39 33 30 25 24
3410.0 39 34 28 41 25 43 40 36 34 19
3450.0 18 29 29 23 31 37 39 15 45 54
3490.0 29 44 42 33 40 22 38 47 25 17
3530.0 38 27 24 18 8 18 8 13 15 17
3570.0 17 33 45 60 45 53 24 21 47 8
3610.0 15 35 43 19 46 29 39 28 28 15
3650.0 37 37 23 13 26 47 54 47 40 70
3690.0 48 33 34 26 19 5 21 21 18 22
3730.0 10 11 8 19 5 12 50 18 15 38
3770.0 30 10 27 4 4 21 6 14 14 31
3810.0 64 20 17 22 69 8 65 60 57 84
3850.0 16 46 19 20 55 19 48 70 43 11
3890.0 17 61 15 87 127 126 81 124 73 108
3930.0 102 107 70 79 75 61 163 110 112 82
##END=
