##TITLE=Benzothiazole, 2-chloro-
##JCAMP-DX=4.24
##DATA TYPE=INFRARED SPECTRUM
##ORIGIN=Sadtler Research Labs Under US-EPA Contract
##OWNER=NIST Standard Reference Data Program
##CAS REGISTRY NO=615-20-3
##MOLFORM=C 7 H 4 Cl N S
##XUNITS=1/CM
##YUNITS=ABSORBANCE
##XFACTOR=1.0
##YFACTOR=0.000110605
##DELTAX=4.0
##FIRSTX=450.0
##LASTX=3966.0
##FIRSTY=0.000000
##MAXX=3966
##MINX=450
##MAXY=1.10605
##MINY=0
##NPOINTS=880
##XYDATA=(X++(Y..Y))
450.0 0 120 136 240 188 210 187 212 185 197
490.0 150 176 186 153 209 188 187 142 188 155
530.0 177 180 171 170 135 184 131 159 116 173
570.0 126 154 184 240 283 338 487 416 422 304
610.0 208 140 165 157 156 156 145 163 137 183
650.0 156 191 125 236 303 470 553 487 394 152
690.0 235 220 415 482 675 739 854 1153 1189 1846
730.0 1698 1076 1395 1466 1999 2470 3479 3696 2255 2022
770.0 1135 607 274 237 170 169 167 163 168 165
810.0 189 158 174 147 162 145 178 222 263 290
850.0 297 291 234 233 214 218 256 288 282 257
890.0 197 166 164 162 183 201 221 216 225 217
930.0 215 247 293 239 242 241 261 322 408 504
970.0 530 530 527 527 575 742 1145 2395 5044 7823
1010.0 8583 10000 8098 5803 5335 3340 1664 1238 961 672
1050.0 478 443 392 384 519 806 1347 1646 1698 1750
1090.0 1282 829 680 489 354 252 201 234 335 387
1130.0 365 346 213 175 186 185 206 220 263 280
1170.0 281 256 212 182 179 174 169 174 176 206
1210.0 238 313 384 507 629 812 1129 1199 1122 912
1250.0 419 239 208 202 242 260 356 392 421 414
1290.0 404 477 661 796 771 778 677 429 283 210
1330.0 189 217 233 261 273 245 221 194 205 224
1370.0 228 213 211 209 223 228 224 227 254 291
1410.0 339 532 1030 2241 3482 3956 4401 3364 2281 1705
1450.0 1005 853 853 809 919 927 939 1420 2707 5243
1490.0 7214 7305 6633 3320 1250 685 530 385 272 206
1530.0 182 165 162 156 161 210 240 291 347 369
1570.0 365 346 285 268 281 320 364 390 399 336
1610.0 269 238 191 167 147 150 143 139 142 133
1650.0 134 156 176 183 186 167 157 165 192 246
1690.0 274 282 264 209 183 166 147 130 149 152
1730.0 144 144 154 156 151 146 153 148 147 158
1770.0 169 206 248 270 270 271 232 194 166 170
1810.0 183 208 238 236 217 178 152 139 137 126
1850.0 136 150 162 187 213 221 220 199 166 155
1890.0 163 188 222 249 253 248 232 193 159 158
1930.0 176 216 266 288 275 243 186 147 141 133
1970.0 136 135 138 139 138 134 131 135 137 139
2010.0 142 142 145 147 147 144 141 139 138 139
2050.0 139 137 137 136 135 137 141 143 148 152
2090.0 151 154 152 149 145 141 140 140 139 138
2130.0 143 146 143 142 142 140 141 143 149 151
2170.0 150 146 139 136 135 136 137 137 136 137
2210.0 137 137 136 135 134 136 136 138 142 148
2250.0 149 150 148 149 146 144 147 144 145 143
2290.0 140 134 126 128 125 119 133 139 144 157
2330.0 135 125 127 137 117 159 116 129 116 116
2370.0 116 121 122 120 124 131 137 137 139 135
2410.0 135 132 128 129 133 138 140 140 144 145
2450.0 143 144 144 146 141 143 143 140 138 139
2490.0 136 137 143 146 143 142 145 142 139 139
2530.0 135 136 138 137 138 145 145 147 147 149
2570.0 148 154 160 161 161 154 147 145 150 156
2610.0 163 165 158 150 139 136 135 136 137 137
2650.0 140 139 142 144 147 147 152 152 148 143
2690.0 140 135 139 138 140 141 143 142 147 149
2730.0 155 156 151 145 140 138 136 140 142 138
2770.0 138 138 137 139 139 145 145 144 145 141
2810.0 134 133 134 133 129 129 128 131 132 131
2850.0 136 137 143 147 149 149 150 154 152 150
2890.0 154 160 163 172 183 197 215 221 223 199
2930.0 177 166 159 159 159 169 175 195 226 255
2970.0 274 265 236 194 169 166 173 188 199 209
3010.0 216 212 206 204 200 222 262 319 360 367
3050.0 356 331 355 464 660 972 1382 1563 1472 1216
3090.0 802 539 445 365 292 244 226 222 229 230
3130.0 221 198 174 153 144 142 138 138 135 139
3170.0 135 132 133 137 133 135 134 133 127 131
3210.0 133 128 131 131 132 131 130 131 127 131
3250.0 131 133 133 133 130 131 132 130 129 131
3290.0 132 130 128 129 129 130 131 135 131 130
3330.0 129 129 132 130 131 128 128 134 136 132
3370.0 129 128 128 131 127 128 124 129 127 131
3410.0 130 131 128 129 127 123 126 130 130 131
3450.0 133 130 134 136 132 134 127 126 123 128
3490.0 127 127 129 123 121 126 132 131 124 122
3530.0 130 127 128 131 119 123 129 124 129 120
3570.0 126 128 133 131 125 130 121 131 130 133
3610.0 130 126 127 121 131 134 125 130 117 130
3650.0 124 129 131 121 145 125 144 135 139 131
3690.0 133 127 135 131 130 127 125 121 122 131
3730.0 130 137 118 141 121 138 126 123 133 139
3770.0 128 134 136 141 130 130 127 121 138 127
3810.0 136 119 122 126 121 122 120 126 121 123
3850.0 118 137 132 117 131 134 118 128 127 120
3890.0 133 128 123 128 139 138 131 145 131 149
3930.0 144 131 132 125 120 123 121 120 116 122
##END=
