##TITLE=Benzothiazole, 2-(methylthio)-
##JCAMP-DX=4.24
##DATA TYPE=INFRARED SPECTRUM
##ORIGIN=Sadtler Research Labs Under US-EPA Contract
##OWNER=NIST Standard Reference Data Program
##CAS REGISTRY NO=615-22-5
##MOLFORM=C 8 H 7 N S 2
##XUNITS=1/CM
##YUNITS=ABSORBANCE
##XFACTOR=1.0
##YFACTOR=0.000052805
##DELTAX=4.0
##FIRSTX=450.0
##LASTX=3966.0
##FIRSTY=0.020963
##MAXX=3966
##MINX=450
##MAXY=0.52805
##MINY=0
##NPOINTS=880
##XYDATA=(X++(Y..Y))
450.0 397 361 664 811 296 556 661 544 395 513
490.0 696 581 331 422 436 612 468 682 787 479
530.0 598 444 445 376 577 64 482 601 652 530
570.0 550 531 604 422 530 649 677 668 641 677
610.0 517 494 634 578 624 534 489 593 655 633
650.0 717 786 899 1035 1391 1778 1615 1275 1032 642
690.0 603 765 1044 1078 1280 1488 1710 2407 2919 3936
730.0 3102 2393 2717 3426 3930 5555 6291 5314 3477 2743
770.0 1587 911 655 494 539 554 520 540 434 483
810.0 549 505 450 433 429 448 460 523 600 601
850.0 637 682 702 628 619 605 637 612 610 603
890.0 588 555 550 556 591 643 682 691 847 771
930.0 866 998 1003 1036 1187 1400 1742 2118 2373 2508
970.0 2486 2418 2554 2810 3432 4525 6014 7987 9748 10000
1010.0 9248 7502 5150 3976 3260 2201 1472 1255 1133 1055
1050.0 1012 957 890 941 1131 1309 1616 1850 1764 1675
1090.0 1340 910 800 736 688 696 671 781 985 984
1130.0 950 818 531 466 494 521 528 540 580 577
1170.0 580 586 565 553 510 478 457 491 534 544
1210.0 569 623 714 845 1082 1740 2628 3065 3129 2291
1250.0 1207 635 625 572 749 1014 1238 1333 1265 1048
1290.0 919 1135 1364 1515 1648 1766 1898 1966 1825 1628
1330.0 1155 763 638 638 591 565 538 527 558 596
1370.0 624 644 608 615 532 615 636 720 904 1115
1410.0 1500 2139 3321 5387 7546 8834 9322 8148 6312 5003
1450.0 4053 3700 4626 6918 9264 9983 9043 6181 3006 1543
1490.0 1015 757 697 644 609 567 605 512 480 478
1530.0 472 483 431 429 458 540 563 561 591 678
1570.0 639 600 571 529 544 542 511 609 535 514
1610.0 489 421 364 332 314 306 319 303 322 366
1650.0 337 338 364 398 341 349 340 438 473 483
1690.0 514 465 361 292 349 288 313 299 305 337
1730.0 278 281 256 301 281 293 295 299 326 388
1770.0 426 452 477 455 445 381 307 315 346 357
1810.0 407 423 410 372 328 292 298 294 287 228
1850.0 274 319 371 420 393 354 296 284 294 321
1890.0 385 427 439 418 379 313 288 281 325 397
1930.0 461 493 470 390 319 261 221 240 221 219
1970.0 225 229 223 211 210 217 223 229 212 207
2010.0 235 225 226 233 227 239 214 195 211 222
2050.0 205 192 210 210 213 223 208 221 205 198
2090.0 208 197 198 211 187 190 195 187 186 195
2130.0 187 197 201 187 191 196 178 162 177 178
2170.0 175 160 171 168 166 168 164 161 172 177
2210.0 161 156 157 158 145 150 156 153 153 169
2250.0 162 170 174 178 159 189 207 213 232 264
2290.0 286 296 302 315 361 354 336 303 312 278
2330.0 244 200 169 203 209 287 268 258 192 165
2370.0 227 181 204 242 211 151 131 131 120 116
2410.0 116 123 127 133 121 122 134 126 123 127
2450.0 130 126 125 135 130 128 132 115 125 108
2490.0 101 92 94 106 122 97 94 69 86 82
2530.0 73 83 89 91 98 101 101 94 84 91
2570.0 98 106 106 106 103 105 95 93 114 101
2610.0 103 107 92 85 53 53 62 42 58 42
2650.0 55 82 69 73 55 67 58 67 39 58
2690.0 38 65 55 56 47 48 69 53 62 68
2730.0 64 63 88 67 50 46 62 38 27 11
2770.0 15 35 24 40 57 57 65 38 46 67
2810.0 56 73 88 93 105 149 182 200 213 237
2850.0 230 232 241 217 260 250 245 248 242 237
2890.0 216 215 217 205 220 230 268 286 366 542
2930.0 822 1436 2041 2187 1974 1432 713 318 281 191
2970.0 205 193 213 211 242 274 311 378 426 443
3010.0 491 481 462 457 432 462 496 507 528 480
3050.0 452 512 715 1074 1640 2356 2801 2789 2356 1623
3090.0 1088 859 549 389 305 244 278 258 257 226
3130.0 163 142 105 102 74 80 76 73 53 73
3170.0 56 71 67 39 59 59 59 47 45 61
3210.0 49 39 29 25 45 21 36 36 64 47
3250.0 70 80 57 51 53 30 32 26 25 40
3290.0 40 46 18 26 28 27 28 10 33 23
3330.0 22 12 21 27 34 50 45 18 20 31
3370.0 17 26 12 25 46 37 43 27 59 55
3410.0 45 30 34 42 40 43 65 43 41 29
3450.0 36 49 41 49 47 37 63 50 62 61
3490.0 33 28 52 86 78 40 58 52 63 57
3530.0 56 43 53 36 57 63 45 79 31 101
3570.0 67 61 87 49 99 50 56 71 54 64
3610.0 77 100 74 59 89 58 73 62 105 130
3650.0 101 116 105 98 96 130 91 123 116 101
3690.0 114 93 145 125 145 109 79 119 107 135
3730.0 142 91 136 86 80 52 101 89 102 80
3770.0 92 113 102 95 111 76 96 124 73 29
3810.0 36 82 31 8 19 61 7 42 21 23
3850.0 36 6 56 26 43 46 8 8 21 40
3890.0 21 20 18 73 115 53 42 7 79 49
3930.0 135 149 103 0 28 95 96 82 30 8
##END=
