##TITLE=Diallyl oxalate
##JCAMP-DX=4.24
##DATA TYPE=INFRARED SPECTRUM
##ORIGIN=Sadtler Research Labs Under US-EPA Contract
##OWNER=NIST Standard Reference Data Program
##CAS REGISTRY NO=615-99-6
##MOLFORM=C 8 H 10 O 4
##XUNITS=1/CM
##YUNITS=ABSORBANCE
##XFACTOR=1.0
##YFACTOR=0.000141565
##DELTAX=4.0
##FIRSTX=450.0
##LASTX=3966.0
##FIRSTY=0.022509
##MAXX=3966
##MINX=450
##MAXY=1.41565
##MINY=0
##NPOINTS=880
##XYDATA=(X++(Y..Y))
450.0 159 115 5 83 10 50 50 46 68 54
490.0 39 37 45 53 81 51 74 67 101 67
530.0 107 132 152 173 156 214 137 65 90 64
570.0 33 100 75 71 61 59 74 46 67 104
610.0 108 144 147 151 166 173 150 174 160 158
650.0 145 120 96 96 114 135 88 81 88 79
690.0 63 67 74 71 59 61 57 50 53 52
730.0 73 72 67 82 93 116 160 212 324 459
770.0 552 546 452 314 214 143 102 99 77 75
810.0 70 52 51 64 62 51 56 56 79 81
850.0 90 95 93 102 137 135 150 178 184 208
890.0 242 279 348 424 519 637 770 926 1080 1312
930.0 1626 1878 1894 1659 1348 1228 1357 1555 1665 1608
970.0 1438 1263 1152 1117 1140 1182 1163 1051 880 728
1010.0 625 550 487 444 409 379 362 333 307 296
1050.0 269 265 256 248 248 250 267 284 304 335
1090.0 377 413 489 582 698 872 1118 1483 2008 2787
1130.0 3843 5168 6746 8214 9406 9834 10000 9575 8848 8411
1170.0 7571 6516 5251 3907 2888 2166 1654 1328 1103 935
1210.0 796 686 604 532 498 470 448 449 454 459
1250.0 480 513 566 662 819 1034 1270 1473 1601 1718
1290.0 1851 2051 2213 2264 2204 2024 1739 1403 1048 752
1330.0 538 417 342 297 283 287 315 336 365 394
1370.0 389 388 373 341 311 263 239 216 216 216
1410.0 228 268 290 334 362 368 348 303 306 315
1450.0 348 398 408 389 327 249 207 143 106 89
1490.0 68 64 51 52 49 47 29 47 40 52
1530.0 36 35 46 49 36 16 35 33 43 28
1570.0 21 38 38 36 27 25 42 31 36 51
1610.0 43 50 64 58 63 81 93 118 145 173
1650.0 220 216 190 140 118 79 82 72 74 90
1690.0 88 89 118 156 169 194 261 338 425 543
1730.0 677 899 1272 1664 2269 2984 3814 4805 5213 5173
1770.0 4752 4077 3689 3481 3513 3609 3444 3150 2466 1686
1810.0 1144 761 557 436 346 298 239 194 175 157
1850.0 149 138 138 146 145 150 148 135 130 105
1890.0 88 76 64 63 52 52 46 49 49 37
1930.0 36 35 46 38 33 33 27 29 34 21
1970.0 29 24 28 23 22 22 26 18 21 17
2010.0 20 18 11 19 10 9 7 7 4 5
2050.0 11 9 4 4 3 6 12 11 14 13
2090.0 15 13 10 3 11 13 16 13 18 15
2130.0 15 15 10 17 19 22 16 12 16 10
2170.0 13 11 10 10 5 10 7 6 7 7
2210.0 2 9 13 5 2 1 6 3 12 4
2250.0 5 6 10 12 15 18 16 21 15 19
2290.0 34 34 49 56 62 69 74 68 82 58
2330.0 53 46 29 51 74 53 38 11 46 11
2370.0 24 53 46 42 31 6 18 14 11 16
2410.0 17 18 19 18 22 20 25 36 30 33
2450.0 34 37 40 33 34 25 36 23 28 18
2490.0 13 14 11 12 5 13 8 12 10 20
2530.0 19 23 12 7 10 15 8 9 5 19
2570.0 9 10 15 14 15 8 13 17 15 23
2610.0 16 15 20 15 16 19 21 13 14 23
2650.0 17 25 19 23 20 27 26 17 14 15
2690.0 12 16 15 18 25 20 20 21 14 23
2730.0 29 24 25 19 15 20 29 31 26 31
2770.0 39 41 29 44 43 27 32 20 22 34
2810.0 44 57 52 46 52 41 46 58 50 47
2850.0 54 67 72 81 90 85 104 127 155 180
2890.0 191 220 224 228 222 213 210 205 210 230
2930.0 240 267 299 338 418 481 571 625 665 634
2970.0 540 439 384 362 343 339 377 383 377 344
3010.0 317 275 261 262 270 293 276 226 182 161
3050.0 126 125 122 107 116 117 155 179 214 264
3090.0 305 348 400 438 398 316 236 146 126 100
3130.0 75 62 61 56 61 41 29 43 45 34
3170.0 29 34 47 40 31 45 43 23 29 34
3210.0 31 30 29 30 18 47 34 35 30 38
3250.0 34 25 37 26 27 9 32 26 26 38
3290.0 25 29 27 37 28 10 28 40 23 30
3330.0 45 34 35 33 39 33 34 30 31 42
3370.0 29 22 17 14 24 25 16 34 12 39
3410.0 47 37 25 41 17 35 39 26 30 21
3450.0 23 44 36 28 41 27 40 41 28 29
3490.0 62 76 85 82 83 89 87 90 80 67
3530.0 79 54 47 58 43 41 31 37 47 30
3570.0 43 51 44 43 50 35 22 12 18 17
3610.0 39 32 23 16 16 13 35 23 0 27
3650.0 16 43 33 38 31 51 49 44 45 26
3690.0 38 27 22 11 26 37 32 30 17 44
3730.0 41 43 25 38 38 41 13 16 13 29
3770.0 50 31 21 43 48 32 44 43 47 43
3810.0 33 49 27 56 15 38 45 79 61 44
3850.0 65 87 67 23 51 81 65 71 93 75
3890.0 69 52 49 51 63 82 55 66 79 94
3930.0 63 67 114 113 86 55 58 90 98 117
##END=
