##TITLE=Phenol, 2,4-dibromo-
##JCAMP-DX=4.24
##DATA TYPE=INFRARED SPECTRUM
##ORIGIN=Sadtler Research Labs Under US-EPA Contract
##OWNER=NIST Standard Reference Data Program
##CAS REGISTRY NO=615-58-7
##MOLFORM=C 6 H 4 Br 2 O
##XUNITS=1/CM
##YUNITS=ABSORBANCE
##XFACTOR=1.0
##YFACTOR=0.000054248
##DELTAX=4.0
##FIRSTX=450.0
##LASTX=3966.0
##FIRSTY=0.000922
##MAXX=3966
##MINX=450
##MAXY=0.54248
##MINY=0
##NPOINTS=880
##XYDATA=(X++(Y..Y))
450.0 17 70 37 33 112 296 441 630 892 844
490.0 564 258 161 214 203 142 90 87 154 208
530.0 170 383 401 461 343 426 243 287 164 126
570.0 95 0 185 109 136 67 58 113 315 222
610.0 532 903 1420 1432 1331 723 126 184 212 187
650.0 161 131 101 88 28 524 960 2223 2837 2866
690.0 1629 630 554 323 364 237 170 57 63 67
730.0 145 98 173 156 124 255 324 287 214 263
770.0 229 193 162 116 123 146 276 405 671 954
810.0 1454 1805 1727 1170 853 687 519 450 322 213
850.0 218 341 527 739 888 663 516 304 129 61
890.0 103 78 69 95 119 88 92 88 92 102
930.0 107 100 79 144 111 66 103 79 71 76
970.0 84 103 62 41 80 88 52 136 144 120
1010.0 163 224 186 215 337 484 772 940 985 900
1050.0 532 354 274 329 433 538 632 649 588 533
1090.0 548 505 402 269 197 193 242 307 330 307
1130.0 322 322 327 291 263 314 380 474 644 962
1170.0 1421 2056 3201 5072 6284 6250 5420 3542 2402 1565
1210.0 848 546 479 413 411 476 669 1029 1364 1453
1250.0 1379 1179 1392 1812 2462 3511 4692 5023 3882 1986
1290.0 681 432 431 445 476 528 674 909 1184 1231
1330.0 1100 776 498 338 280 322 365 369 359 284
1370.0 239 258 269 285 361 449 526 600 629 658
1410.0 562 435 317 179 138 165 226 377 545 929
1450.0 1365 1820 2289 3010 4794 7633 10000 9754 7501 4490
1490.0 2740 1411 608 356 372 362 273 248 252 200
1530.0 156 155 117 174 165 203 257 322 333 349
1570.0 554 763 957 958 848 687 489 342 196 122
1610.0 102 101 137 116 136 130 132 130 80 81
1650.0 97 154 91 137 149 160 130 144 144 157
1690.0 126 114 152 160 114 104 137 191 192 203
1730.0 218 235 223 248 277 316 326 297 233 155
1770.0 152 130 73 70 77 60 80 70 105 79
1810.0 69 78 88 60 76 68 54 58 42 65
1850.0 50 48 49 77 97 136 133 161 162 135
1890.0 107 78 63 48 34 49 31 40 38 37
1930.0 35 32 32 71 58 46 61 67 64 66
1970.0 57 48 39 31 31 27 44 22 36 38
2010.0 31 39 47 38 39 38 35 31 29 40
2050.0 26 20 29 30 37 30 56 48 47 47
2090.0 38 46 57 45 56 68 57 49 42 37
2130.0 46 38 37 37 37 37 37 34 34 24
2170.0 31 36 27 17 28 36 29 36 36 36
2210.0 36 31 39 32 46 38 46 45 46 43
2250.0 45 55 44 44 59 52 53 64 53 61
2290.0 62 63 72 92 112 116 129 122 131 139
2330.0 120 112 83 102 126 89 126 177 184 151
2370.0 130 142 112 89 54 48 39 35 35 35
2410.0 34 42 50 57 40 42 53 42 48 35
2450.0 60 68 70 79 80 79 50 38 35 27
2490.0 41 47 47 47 51 68 69 60 67 66
2530.0 52 40 36 55 43 40 51 51 51 51
2570.0 50 41 42 49 46 52 45 39 29 30
2610.0 20 31 41 31 23 19 40 44 49 48
2650.0 55 40 46 31 41 30 31 30 40 31
2690.0 19 27 38 36 22 24 48 35 12 32
2730.0 31 31 18 36 44 44 51 59 51 60
2770.0 39 40 38 29 29 37 22 32 24 31
2810.0 33 31 50 57 52 47 40 56 48 47
2850.0 55 61 61 66 71 70 63 56 64 57
2890.0 47 65 65 49 47 74 70 74 73 66
2930.0 102 101 103 130 131 104 100 90 89 86
2970.0 89 97 81 69 77 70 73 66 48 83
3010.0 56 61 65 69 65 53 59 80 53 39
3050.0 41 74 58 94 113 146 165 181 169 139
3090.0 101 89 66 47 30 47 36 23 40 40
3130.0 55 39 31 43 46 44 47 78 30 20
3170.0 29 45 41 31 38 38 53 54 64 64
3210.0 38 39 29 28 32 31 39 32 38 15
3250.0 30 50 43 51 49 56 39 28 39 49
3290.0 26 43 40 29 30 54 74 81 85 111
3330.0 102 86 74 60 56 40 23 45 56 33
3370.0 46 39 47 57 29 82 58 51 59 37
3410.0 49 41 61 65 46 48 85 85 47 69
3450.0 77 66 61 57 57 49 38 29 40 56
3490.0 48 67 99 61 66 80 89 78 81 142
3530.0 163 187 235 365 736 1381 2658 4272 4845 4367
3570.0 2517 1304 694 378 208 202 148 103 94 83
3610.0 106 61 78 84 65 140 106 147 177 245
3650.0 332 266 191 90 72 83 71 86 52 76
3690.0 79 58 68 65 47 76 73 28 36 55
3730.0 50 42 66 43 77 59 42 38 47 22
3770.0 15 19 11 14 9 32 24 27 50 12
3810.0 11 11 30 37 20 10 17 26 19 11
3850.0 11 37 10 11 11 11 20 10 18 41
3890.0 29 17 27 33 30 10 11 19 19 11
3930.0 30 40 29 28 46 42 9 11 11 11
##END=
