##TITLE=2,5-Cyclohexadiene-1,4-dione, 2,5-dihydroxy-
##JCAMP-DX=4.24
##DATA TYPE=INFRARED SPECTRUM
##ORIGIN=Sadtler Research Labs Under US-EPA Contract
##OWNER=NIST Standard Reference Data Program
##CAS REGISTRY NO=615-94-1
##MOLFORM=C 6 H 4 O 4
##XUNITS=1/CM
##YUNITS=ABSORBANCE
##XFACTOR=1.0
##YFACTOR=0.000094061
##DELTAX=4.0
##FIRSTX=450.0
##LASTX=3966.0
##FIRSTY=0.097447
##MAXX=3966
##MINX=450
##MAXY=0.94061
##MINY=0
##NPOINTS=880
##XYDATA=(X++(Y..Y))
450.0 1036 558 164 92 389 247 419 305 166 316
490.0 171 259 383 309 252 249 371 352 144 416
530.0 231 320 467 499 313 620 505 317 321 322
570.0 299 340 391 323 305 286 315 367 401 412
610.0 416 519 581 604 698 852 1032 1416 1713 2041
650.0 2248 2400 2368 2047 1658 1107 839 568 339 293
690.0 245 200 185 137 182 129 0 48 178 177
730.0 187 211 211 289 349 334 333 275 255 312
770.0 232 213 199 163 183 214 315 551 738 924
810.0 862 929 800 497 421 307 255 332 408 714
850.0 872 1079 1650 1856 930 903 678 362 284 165
890.0 97 153 90 120 103 124 135 131 138 136
930.0 142 136 127 135 165 174 187 183 204 184
970.0 178 188 149 147 131 130 132 120 138 132
1010.0 136 149 131 131 136 127 145 140 136 163
1050.0 167 206 235 257 280 302 306 304 310 307
1090.0 300 348 340 357 365 414 400 384 369 386
1130.0 357 351 312 289 279 259 308 344 408 483
1170.0 490 533 549 513 536 590 700 946 1651 3371
1210.0 5984 8213 8138 8290 6957 3655 1253 565 445 342
1250.0 356 377 388 442 490 560 613 625 613 580
1290.0 567 526 525 570 622 714 848 1057 1295 1562
1330.0 1843 1979 1980 1953 1846 1561 1222 1041 933 880
1370.0 978 1466 2546 4437 7142 9217 10000 9593 8310 5907
1410.0 3445 2570 2143 1847 1546 1185 898 643 399 299
1450.0 206 195 191 201 206 244 224 285 328 329
1490.0 317 343 314 279 265 232 214 222 154 206
1530.0 175 195 183 159 200 229 222 177 227 272
1570.0 272 291 304 292 366 340 351 351 333 352
1610.0 379 437 483 551 627 815 1055 1718 2600 4011
1650.0 5288 6195 6780 7355 7678 7430 6933 6315 5346 3193
1690.0 1484 812 553 603 621 725 733 681 694 595
1730.0 495 371 298 232 173 189 233 281 297 307
1770.0 261 193 177 152 114 111 84 81 68 86
1810.0 72 72 68 65 82 54 65 65 46 54
1850.0 55 69 61 54 53 24 59 37 41 41
1890.0 38 46 26 29 37 35 21 27 22 29
1930.0 27 27 28 22 32 25 41 40 54 53
1970.0 69 74 83 77 85 66 68 57 58 48
2010.0 32 32 20 30 26 28 24 34 36 41
2050.0 46 52 52 47 35 29 23 26 27 29
2090.0 21 26 15 21 23 20 20 17 12 10
2130.0 23 31 32 40 42 51 38 39 35 50
2170.0 37 30 36 31 39 35 33 28 18 15
2210.0 2 7 4 9 16 9 3 13 5 13
2250.0 13 14 15 8 18 11 24 32 44 56
2290.0 71 100 122 142 167 192 180 166 172 142
2330.0 133 99 92 88 158 158 165 136 139 83
2370.0 88 101 117 126 85 34 21 19 19 22
2410.0 22 33 34 34 34 33 35 36 36 45
2450.0 40 48 45 40 41 34 34 26 34 31
2490.0 31 25 27 23 20 20 20 21 20 36
2530.0 18 21 22 23 31 36 46 53 68 68
2570.0 68 70 71 69 78 72 75 70 63 62
2610.0 65 67 71 76 78 82 83 83 85 80
2650.0 69 65 56 52 52 53 50 53 47 54
2690.0 52 51 60 56 51 62 57 49 48 52
2730.0 46 45 52 50 55 57 57 60 49 56
2770.0 49 59 61 57 57 60 67 70 61 65
2810.0 69 70 67 73 73 70 75 80 83 88
2850.0 98 91 92 95 97 87 98 101 103 102
2890.0 100 93 88 78 78 79 84 87 92 92
2930.0 92 94 96 97 101 97 97 99 96 100
2970.0 95 98 103 104 104 109 119 124 128 132
3010.0 141 146 151 150 162 175 181 193 203 205
3050.0 214 219 217 216 201 177 168 147 135 121
3090.0 113 111 108 99 102 101 94 96 94 95
3130.0 89 96 87 95 95 94 92 93 96 101
3170.0 98 98 96 103 99 99 94 96 97 97
3210.0 98 103 108 109 117 113 111 117 118 124
3250.0 130 123 134 137 148 159 158 158 166 174
3290.0 183 195 214 235 261 279 294 317 328 345
3330.0 370 418 474 559 701 925 1234 1681 2126 2471
3370.0 2678 2718 2558 2199 1824 1460 1159 934 799 721
3410.0 671 644 595 543 475 395 319 268 211 181
3450.0 164 141 137 118 104 98 97 96 92 72
3490.0 61 64 70 55 56 48 56 38 39 46
3530.0 47 56 54 39 48 33 54 34 54 45
3570.0 99 77 122 111 141 117 76 31 28 15
3610.0 19 27 2 17 10 41 24 40 38 37
3650.0 40 69 65 96 106 107 144 122 144 127
3690.0 135 132 94 113 78 87 84 73 90 82
3730.0 91 85 58 71 52 89 41 54 44 36
3770.0 47 59 64 43 41 45 57 61 26 57
3810.0 64 87 76 96 56 74 81 89 85 92
3850.0 60 107 110 78 73 112 99 69 76 73
3890.0 63 88 92 50 92 55 47 118 68 106
3930.0 96 116 100 136 139 49 119 105 144 123
##END=
