##TITLE=Benzenamine, 2,4-dibromo-
##JCAMP-DX=4.24
##DATA TYPE=INFRARED SPECTRUM
##ORIGIN=Sadtler Research Labs Under US-EPA Contract
##OWNER=NIST Standard Reference Data Program
##CAS REGISTRY NO=615-57-6
##MOLFORM=C 6 H 5 Br 2 N
##XUNITS=1/CM
##YUNITS=ABSORBANCE
##XFACTOR=1.0
##YFACTOR=0.000072656
##DELTAX=4.0
##FIRSTX=450.0
##LASTX=3966.0
##FIRSTY=0.040833
##MAXX=3966
##MINX=450
##MAXY=0.72656
##MINY=0
##NPOINTS=880
##XYDATA=(X++(Y..Y))
450.0 562 579 674 557 545 636 645 423 413 433
490.0 539 470 352 337 638 358 270 421 555 536
530.0 680 682 932 873 464 431 644 425 302 515
570.0 421 597 475 320 531 718 313 593 832 1021
610.0 880 1051 1145 1653 1583 1271 1032 574 342 620
650.0 795 935 1076 1035 992 1368 1626 2276 3180 3330
690.0 2557 1607 1218 974 1012 800 723 815 851 604
730.0 798 819 656 570 487 390 476 273 266 276
770.0 348 176 405 348 570 788 1047 1562 2036 2080
810.0 1708 1425 911 655 752 1044 1353 1323 800 564
850.0 398 406 555 770 892 1145 740 515 378 255
890.0 107 113 123 119 113 81 143 164 132 83
930.0 120 167 109 94 139 111 140 66 97 159
970.0 162 48 87 100 44 64 81 73 193 113
1010.0 138 313 296 279 500 783 938 993 825 639
1050.0 539 479 578 911 1033 1052 861 697 667 651
1090.0 615 792 844 783 608 519 418 307 198 154
1130.0 177 202 203 396 615 773 769 739 604 414
1170.0 279 212 255 241 152 102 165 59 81 54
1210.0 103 106 104 44 170 215 242 342 481 540
1250.0 576 500 347 342 329 389 684 1039 1408 1832
1290.0 2105 2363 2408 2200 1620 1051 424 186 95 78
1330.0 67 81 60 128 132 126 113 165 152 167
1370.0 176 221 355 559 730 959 1030 933 760 646
1410.0 564 399 245 130 206 220 213 196 324 331
1450.0 482 737 1118 1892 2825 4024 6067 8818 10000 8941
1490.0 5845 2843 1505 904 519 420 326 232 293 308
1530.0 276 228 203 142 233 265 355 488 588 691
1570.0 648 601 486 546 557 641 700 815 1085 1633
1610.0 2427 3592 4656 5059 4527 3330 2258 1422 978 545
1650.0 344 184 241 161 173 86 119 109 80 31
1690.0 153 87 49 39 94 126 143 69 238 265
1730.0 256 234 263 155 136 77 71 100 77 77
1770.0 95 63 76 72 56 72 34 53 48 83
1810.0 35 24 39 54 24 13 29 60 50 37
1850.0 87 164 186 166 153 107 77 63 53 44
1890.0 59 39 30 72 64 28 63 36 59 57
1930.0 37 46 89 25 32 66 71 57 69 47
1970.0 96 75 39 59 95 41 48 60 52 67
2010.0 48 47 76 71 43 59 63 60 47 52
2050.0 54 75 41 46 50 75 31 47 47 60
2090.0 47 50 45 67 66 44 58 72 50 63
2130.0 62 55 77 53 40 74 63 35 67 61
2170.0 63 59 51 51 79 51 46 60 56 40
2210.0 54 36 55 55 34 48 69 41 41 55
2250.0 54 56 50 59 70 84 53 64 79 77
2290.0 64 91 112 148 141 157 178 204 132 185
2330.0 235 257 182 244 220 198 207 180 296 385
2370.0 217 189 180 104 74 41 31 62 63 21
2410.0 64 53 44 45 37 37 62 22 39 70
2450.0 74 37 65 52 52 42 35 44 61 33
2490.0 35 48 50 39 40 46 53 60 45 60
2530.0 69 61 54 67 63 61 43 48 42 78
2570.0 42 59 75 86 61 83 69 75 63 39
2610.0 47 76 39 39 74 55 65 57 42 76
2650.0 74 20 60 61 54 33 54 62 78 32
2690.0 44 78 68 16 60 50 57 40 32 50
2730.0 70 30 29 61 55 31 43 57 62 57
2770.0 44 62 74 60 18 77 72 55 40 72
2810.0 60 86 43 64 93 82 50 105 93 92
2850.0 100 89 100 138 68 77 113 65 72 92
2890.0 74 90 96 40 97 104 71 74 111 90
2930.0 110 68 90 99 122 68 104 104 104 78
2970.0 95 86 111 87 70 94 108 78 93 123
3010.0 145 176 201 261 327 336 274 295 275 245
3050.0 257 351 359 430 338 301 293 233 153 226
3090.0 173 126 113 99 98 122 61 68 125 92
3130.0 66 93 98 109 100 52 128 122 85 86
3170.0 136 113 137 111 143 147 155 101 150 154
3210.0 135 96 139 119 116 104 100 126 115 76
3250.0 91 129 83 84 102 94 88 100 51 130
3290.0 112 72 81 124 70 109 95 99 127 113
3330.0 47 132 123 96 111 108 120 161 98 125
3370.0 170 159 156 201 238 322 457 629 1056 1314
3410.0 1309 1146 1072 954 801 594 400 251 209 139
3450.0 196 208 198 143 227 245 281 305 413 547
3490.0 706 784 896 993 888 783 772 745 701 620
3530.0 467 424 311 167 132 208 150 146 142 147
3570.0 162 147 87 156 151 89 114 143 112 132
3610.0 77 84 146 99 81 103 136 115 103 89
3650.0 64 121 107 100 114 56 53 31 95 58
3690.0 51 52 81 62 84 15 69 87 38 31
3730.0 53 3 22 7 7 16 8 7 34 40
3770.0 17 57 18 37 61 24 6 47 6 7
3810.0 7 7 7 9 7 27 34 7 12 68
3850.0 44 21 19 30 54 42 7 23 33 11
3890.0 7 8 25 33 25 11 55 55 27 20
3930.0 85 64 63 59 81 87 0 7 7 7
##END=
