##TITLE=Phenol, 2-chloro-5-methyl-
##JCAMP-DX=4.24
##DATA TYPE=INFRARED SPECTRUM
##ORIGIN=Sadtler Research Labs Under US-EPA Contract
##OWNER=NIST Standard Reference Data Program
##CAS REGISTRY NO=615-74-7
##MOLFORM=C 7 H 7 Cl O
##XUNITS=1/CM
##YUNITS=ABSORBANCE
##XFACTOR=1.0
##YFACTOR=0.000045569
##DELTAX=4.0
##FIRSTX=450.0
##LASTX=3966.0
##FIRSTY=0.000000
##MAXX=3966
##MINX=450
##MAXY=0.45569
##MINY=0
##NPOINTS=880
##XYDATA=(X++(Y..Y))
450.0 0 546 661 1059 1185 465 687 875 1073 1568
490.0 1225 1347 1361 1115 703 582 560 702 524 681
530.0 751 724 659 433 1003 508 611 919 1019 916
570.0 788 1076 1039 1474 1372 1111 1282 1057 1005 1033
610.0 1063 1252 1520 1875 2284 2467 2566 2582 1972 1427
650.0 1186 1258 1211 1190 1186 1356 1213 1229 1053 1172
690.0 1249 1211 1187 1366 1424 1370 1546 1845 2328 2701
730.0 2625 2789 2537 2291 1773 1531 1385 1297 1226 1192
770.0 1440 1701 2238 2705 3199 3853 4755 4115 2866 2520
810.0 1960 1456 1162 822 918 947 931 970 888 942
850.0 1275 1451 1702 2000 2106 1480 1169 942 877 818
890.0 752 741 745 695 826 824 857 990 1089 1375
930.0 1715 2233 2448 2314 2331 2340 1719 1320 1197 1141
970.0 1145 1247 1349 1439 1544 1667 1746 1699 1605 1448
1010.0 1254 963 785 720 772 1000 1266 2012 3041 3794
1050.0 4267 4335 3868 2675 1807 1300 967 823 704 705
1090.0 741 713 763 869 990 1004 1001 1136 1279 1553
1130.0 1861 1944 2074 2369 2777 3782 5046 5623 6008 6306
1170.0 5324 3948 3243 2832 2914 3543 4731 6323 7042 6487
1210.0 7273 6821 4964 3779 3043 2607 2461 2434 2600 2976
1250.0 3445 3668 3430 3478 3430 3122 2995 3207 3737 4409
1290.0 5070 5791 6264 6460 7040 7261 6583 6320 6156 4920
1330.0 3422 2481 1984 1723 1554 1510 1501 1520 1567 1574
1370.0 1585 1647 1620 1626 1568 1643 1671 1672 1673 1706
1410.0 1798 1780 2008 2084 2318 2599 3015 3436 3713 3719
1450.0 3680 3515 3174 2908 3010 3480 4411 5967 7998 9622
1490.0 10000 9833 8818 6776 5209 4485 4006 3592 3262 2827
1530.0 2575 2383 2212 2106 2003 2002 2105 2338 2528 2987
1570.0 3638 4331 5011 5620 5524 5333 4833 3947 3217 2898
1610.0 2874 2779 2508 2168 1708 1132 918 800 737 851
1650.0 835 854 869 948 939 943 965 951 961 903
1690.0 878 867 898 838 915 939 1010 1085 1038 1014
1730.0 948 918 749 677 680 640 583 569 555 561
1770.0 588 566 565 574 588 586 607 567 630 563
1810.0 536 554 512 533 517 536 568 550 604 630
1850.0 660 653 706 729 717 741 692 657 614 607
1890.0 605 582 582 554 529 521 504 516 522 489
1930.0 477 480 486 487 490 463 455 461 452 454
1970.0 442 431 454 476 451 461 444 448 469 475
2010.0 468 492 533 509 514 512 513 516 503 480
2050.0 468 471 463 470 477 478 458 465 456 475
2090.0 496 492 492 477 472 465 459 453 441 435
2130.0 444 443 444 444 440 434 436 477 461 464
2170.0 444 437 448 450 454 466 474 449 455 470
2210.0 441 456 483 468 482 472 468 482 486 462
2250.0 472 469 463 462 470 468 467 456 456 466
2290.0 493 488 521 525 538 551 542 540 501 516
2330.0 530 503 507 477 506 481 497 490 459 462
2370.0 412 437 474 478 480 458 442 462 493 505
2410.0 518 520 511 490 478 496 490 502 492 507
2450.0 508 507 512 506 501 479 471 489 489 455
2490.0 457 440 456 456 462 468 477 466 462 457
2530.0 453 452 459 459 437 459 469 462 473 460
2570.0 450 458 456 453 455 449 449 445 432 443
2610.0 447 431 456 452 446 428 420 430 414 420
2650.0 398 412 403 404 397 396 406 413 436 431
2690.0 438 444 429 440 450 463 472 482 486 518
2730.0 533 551 576 573 569 556 516 506 457 442
2770.0 455 446 433 461 457 456 482 471 492 465
2810.0 479 489 506 496 538 537 545 545 570 604
2850.0 623 711 753 831 947 1091 1252 1317 1344 1308
2890.0 1234 1150 1087 1026 1029 1045 1127 1277 1574 1975
2930.0 2349 2559 2570 2407 2049 1644 1337 1081 881 803
2970.0 766 778 769 834 888 939 987 1092 1139 1209
3010.0 1250 1275 1225 1233 1288 1367 1482 1628 1703 1741
3050.0 1743 1673 1562 1431 1328 1291 1239 1198 1156 1098
3090.0 1019 935 851 758 754 705 672 635 588 521
3130.0 532 509 491 498 492 489 512 504 486 495
3170.0 532 540 526 524 534 512 550 501 518 488
3210.0 509 507 507 511 506 541 541 526 558 567
3250.0 567 582 563 582 586 608 580 614 612 625
3290.0 611 629 617 625 623 620 612 608 629 687
3330.0 671 702 683 666 702 693 705 711 680 670
3370.0 683 696 671 714 830 814 690 581 524 428
3410.0 394 463 564 631 633 654 655 651 655 648
3450.0 690 654 666 667 614 618 639 618 639 639
3490.0 613 597 611 654 651 617 624 630 631 671
3530.0 635 633 651 644 693 765 778 961 1252 2647
3570.0 5670 8706 9036 9843 8792 5489 2631 1522 998 810
3610.0 749 706 683 604 603 613 620 623 733 838
3650.0 866 773 836 746 655 656 614 609 549 573
3690.0 643 637 625 668 636 645 664 670 685 748
3730.0 617 734 864 978 1359 1644 1628 1482 1391 1004
3770.0 717 586 598 611 713 712 752 696 707 610
3810.0 755 742 809 827 760 764 731 798 759 651
3850.0 716 699 715 819 783 713 757 652 793 721
3890.0 746 731 792 737 812 659 699 785 809 905
3930.0 744 453 399 538 561 630 733 806 1007 862
##END=
