##TITLE=Benzene, 1,4-dibromo-2-methyl-
##JCAMP-DX=4.24
##DATA TYPE=INFRARED SPECTRUM
##ORIGIN=Sadtler Research Labs Under US-EPA Contract
##OWNER=NIST Standard Reference Data Program
##CAS REGISTRY NO=615-59-8
##MOLFORM=C 7 H 6 Br 2
##XUNITS=1/CM
##YUNITS=ABSORBANCE
##XFACTOR=1.0
##YFACTOR=0.000092725
##DELTAX=4.0
##FIRSTX=450.0
##LASTX=3966.0
##FIRSTY=0.032361
##MAXX=3966
##MINX=450
##MAXY=0.92725
##MINY=0
##NPOINTS=880
##XYDATA=(X++(Y..Y))
450.0 349 324 327 292 215 124 81 52 58 46
490.0 39 40 61 97 97 105 129 204 258 323
530.0 380 400 400 313 221 118 103 111 122 102
570.0 68 51 99 70 82 77 72 94 94 111
610.0 144 172 157 118 107 81 82 79 97 88
650.0 69 71 70 84 56 93 101 127 135 152
690.0 146 130 132 124 130 101 124 133 96 107
730.0 92 124 92 63 104 102 147 186 178 148
770.0 138 120 121 148 207 384 717 1186 1613 2107
810.0 1778 1364 881 488 295 281 338 534 809 924
850.0 907 874 1010 1123 1060 1001 695 509 338 209
890.0 158 158 160 141 133 119 135 133 161 158
930.0 158 135 131 130 145 138 137 136 148 156
970.0 152 166 181 195 227 233 276 324 379 459
1010.0 577 745 1172 2575 6040 10000 7075 2801 995 708
1050.0 704 898 1379 1836 1677 1065 612 529 683 1424
1090.0 2482 2505 1463 504 322 343 383 375 287 195
1130.0 208 269 329 354 288 210 150 123 122 121
1170.0 122 116 118 136 170 309 569 769 691 394
1210.0 199 169 169 173 154 142 142 131 127 132
1250.0 154 189 222 275 356 342 270 135 101 90
1290.0 93 95 107 102 108 108 107 102 107 108
1330.0 102 113 120 122 130 143 170 223 317 448
1370.0 549 608 668 710 728 677 672 718 686 578
1410.0 423 357 371 392 412 467 561 698 789 947
1450.0 1266 1996 3313 4041 3624 2560 2245 2156 1828 1266
1490.0 826 575 478 350 334 284 239 246 272 247
1530.0 233 251 259 323 292 288 328 412 426 409
1570.0 461 525 653 669 609 464 318 241 206 207
1610.0 208 201 226 171 150 121 118 132 97 123
1650.0 111 192 93 93 84 107 97 97 92 134
1690.0 79 82 115 130 90 78 92 148 123 140
1730.0 176 238 216 222 179 152 103 82 78 71
1770.0 90 104 75 72 68 66 83 70 81 64
1810.0 70 69 65 60 68 71 62 60 59 77
1850.0 63 63 73 84 106 139 148 170 171 156
1890.0 141 109 88 78 67 67 63 63 61 56
1930.0 51 51 51 53 53 51 51 51 49 49
1970.0 50 50 49 49 49 49 49 49 49 48
2010.0 48 48 48 48 47 47 47 47 47 47
2050.0 47 47 47 51 46 46 46 46 45 45
2090.0 45 45 44 42 42 46 45 43 44 44
2130.0 44 45 45 43 43 43 43 41 44 44
2170.0 43 43 43 43 42 43 43 43 41 41
2210.0 41 41 41 41 41 40 47 40 41 41
2250.0 40 40 40 46 46 45 45 44 41 40
2290.0 39 39 38 38 39 39 39 39 37 37
2330.0 38 38 38 42 37 31 32 32 36 38
2370.0 36 36 37 35 32 34 35 35 35 36
2410.0 34 35 39 35 35 35 35 35 33 33
2450.0 33 33 33 44 38 39 32 32 32 33
2490.0 33 26 26 26 26 27 26 26 25 31
2530.0 28 25 25 26 20 19 25 25 29 29
2570.0 30 30 35 39 44 44 40 37 28 28
2610.0 28 29 29 28 28 27 27 27 31 28
2650.0 27 27 27 27 21 21 21 20 20 20
2690.0 17 21 14 21 20 20 26 21 27 27
2730.0 27 27 32 38 43 37 47 43 38 35
2770.0 28 30 29 28 28 28 35 35 36 46
2810.0 44 54 54 56 56 57 61 67 77 88
2850.0 94 107 131 152 183 199 199 190 175 158
2890.0 148 143 148 154 172 188 203 238 289 375
2930.0 479 564 613 590 516 429 361 347 362 386
2970.0 410 395 389 403 457 504 498 420 322 243
3010.0 201 176 162 149 139 134 129 117 106 106
3050.0 106 111 111 112 111 130 131 150 160 170
3090.0 182 161 136 104 76 65 56 50 45 41
3130.0 35 33 30 30 27 29 32 26 27 26
3170.0 27 26 22 21 28 25 26 21 24 22
3210.0 18 17 18 29 29 22 20 24 16 16
3250.0 22 14 24 14 15 19 14 20 5 16
3290.0 18 19 19 16 13 15 15 15 22 16
3330.0 11 17 22 15 14 18 15 18 12 18
3370.0 17 18 23 14 19 17 14 13 24 20
3410.0 17 16 20 16 14 15 26 20 17 16
3450.0 19 14 10 20 15 18 23 20 12 18
3490.0 18 22 22 19 21 18 18 15 16 24
3530.0 20 13 18 19 25 19 24 20 22 22
3570.0 29 18 13 21 23 32 26 26 36 26
3610.0 43 41 41 44 30 60 35 29 31 43
3650.0 63 44 44 33 34 63 59 63 33 41
3690.0 61 42 34 40 36 52 56 36 47 55
3730.0 54 64 71 63 92 81 74 63 63 69
3770.0 69 63 63 64 64 59 62 70 84 70
3810.0 65 64 75 75 64 66 76 79 70 68
3850.0 72 106 68 67 71 78 66 66 66 68
3890.0 68 67 67 73 67 67 69 68 64 68
3930.0 68 68 64 61 64 70 0 5 5 5
##END=
