##TITLE=Benzenamine, 2-chloro-4-methyl-
##JCAMP-DX=4.24
##DATA TYPE=INFRARED SPECTRUM
##ORIGIN=Sadtler Research Labs Under US-EPA Contract
##OWNER=NIST Standard Reference Data Program
##CAS REGISTRY NO=615-65-6
##MOLFORM=C 7 H 8 Cl N
##XUNITS=1/CM
##YUNITS=ABSORBANCE
##XFACTOR=1.0
##YFACTOR=0.000116855
##DELTAX=4.0
##FIRSTX=450.0
##LASTX=3966.0
##FIRSTY=0.059596
##MAXX=3966
##MINX=450
##MAXY=1.16855
##MINY=0
##NPOINTS=880
##XYDATA=(X++(Y..Y))
450.0 510 449 321 343 378 354 244 231 133 122
490.0 127 171 168 136 97 82 84 80 84 86
530.0 145 199 307 495 599 782 1093 763 640 539
570.0 314 232 117 63 19 13 43 25 59 67
610.0 115 95 205 254 397 576 868 1103 1245 1394
650.0 1320 1285 1268 1454 1558 1646 1708 1714 1678 1557
690.0 1527 1513 1403 1375 1470 1468 1408 1282 1064 873
730.0 738 649 588 542 517 496 508 540 579 679
770.0 764 758 695 647 694 880 1296 1716 2449 2836
810.0 2232 1767 1396 948 657 458 370 307 252 236
850.0 267 391 567 732 1000 1102 868 919 984 1002
890.0 929 863 612 296 111 39 9 1 17 20
930.0 46 77 62 39 41 51 57 75 100 134
970.0 160 210 275 346 446 502 492 437 349 228
1010.0 118 61 32 30 49 103 228 475 860 1160
1050.0 1275 1396 1207 858 676 645 714 809 849 834
1090.0 779 678 560 476 431 379 325 262 245 225
1130.0 235 258 345 470 746 1028 852 926 877 490
1170.0 285 159 115 116 146 193 244 332 492 763
1210.0 933 900 911 711 342 174 143 167 254 363
1250.0 513 657 782 785 745 686 669 842 1348 2182
1290.0 2979 3420 3538 3423 2732 1895 1597 1173 605 300
1330.0 175 123 78 77 101 111 129 133 135 150
1370.0 151 143 148 161 163 181 204 247 352 439
1410.0 535 650 666 697 653 576 449 382 359 321
1450.0 309 327 302 349 417 507 560 659 844 1053
1490.0 1456 2425 4233 7112 9376 10000 9480 7379 3986 1812
1530.0 1186 995 881 808 757 716 662 658 691 734
1570.0 744 773 807 865 983 1162 1510 1857 2061 2169
1610.0 2216 2310 2787 3697 4685 5183 5079 4371 3199 1921
1650.0 1133 740 525 411 321 261 183 187 136 126
1690.0 134 141 98 89 99 118 120 119 203 263
1730.0 274 241 259 221 151 113 112 104 100 104
1770.0 78 63 68 57 66 75 92 102 87 101
1810.0 77 46 36 25 18 12 25 37 33 41
1850.0 80 130 173 201 191 166 141 88 56 37
1890.0 25 29 32 35 38 41 39 43 41 49
1930.0 54 55 59 49 52 53 51 47 52 48
1970.0 54 60 60 55 50 39 33 35 34 33
2010.0 30 26 20 22 21 19 20 21 25 26
2050.0 35 39 46 52 50 52 51 48 38 33
2090.0 24 21 19 14 8 7 6 9 5 7
2130.0 11 11 12 12 15 14 15 20 19 19
2170.0 21 22 18 21 21 23 24 24 21 17
2210.0 12 5 3 0 3 2 0 3 2 2
2250.0 1 5 7 9 11 11 14 16 15 14
2290.0 18 18 22 25 31 33 29 24 24 23
2330.0 25 29 31 39 43 47 46 41 35 39
2370.0 39 41 42 42 41 42 42 44 36 32
2410.0 23 13 6 5 0 0 1 2 2 3
2450.0 9 7 9 7 6 8 7 5 3 5
2490.0 3 3 6 9 10 13 14 14 10 7
2530.0 11 17 19 25 38 44 50 52 51 44
2570.0 33 22 20 23 30 41 51 69 76 72
2610.0 66 53 35 25 20 17 15 17 16 18
2650.0 16 17 15 16 12 13 17 16 13 18
2690.0 15 16 17 18 21 21 21 19 23 26
2730.0 31 44 67 90 106 107 94 70 48 33
2770.0 29 25 24 29 28 33 37 43 45 50
2810.0 52 56 57 61 64 70 88 104 130 163
2850.0 202 263 352 486 673 871 1018 1079 1051 956
2890.0 858 793 776 780 792 820 889 1028 1268 1575
2930.0 1851 1978 1934 1721 1391 1060 806 653 568 484
2970.0 418 389 399 447 511 577 658 742 825 879
3010.0 912 955 1024 1182 1441 1608 1631 1612 1452 1188
3050.0 1083 1086 1070 1007 882 723 579 483 410 348
3090.0 294 249 214 188 163 146 131 116 100 81
3130.0 62 46 38 33 29 23 19 26 26 24
3170.0 31 35 40 48 53 56 61 69 75 81
3210.0 74 73 68 57 57 50 38 34 23 21
3250.0 13 9 7 6 4 5 6 11 9 14
3290.0 7 12 10 9 7 7 8 7 9 10
3330.0 4 5 4 11 10 13 13 17 23 31
3370.0 41 57 68 93 136 206 378 641 893 1059
3410.0 1233 1287 1193 995 801 561 313 145 93 74
3450.0 71 65 78 97 124 160 220 312 460 655
3490.0 838 931 998 1043 1007 993 947 813 700 530
3530.0 303 176 102 68 45 34 31 19 16 6
3570.0 9 9 7 3 5 0 2 7 5 3
3610.0 9 7 6 5 4 3 3 2 6 3
3650.0 4 6 6 4 0 9 1 8 5 2
3690.0 6 8 12 12 20 28 20 24 29 34
3730.0 16 11 8 15 14 12 11 13 14 16
3770.0 13 13 1 13 12 13 8 12 15 11
3810.0 10 11 15 23 19 28 30 30 54 66
3850.0 77 84 99 82 59 44 39 29 14 28
3890.0 27 33 24 29 34 34 30 22 25 34
3930.0 31 38 43 51 58 60 58 55 34 35
##END=
