##TITLE=2-Furancarboxylic acid, 3-methylbutyl ester
##JCAMP-DX=4.24
##DATA TYPE=INFRARED SPECTRUM
##ORIGIN=Sadtler Research Labs Under US-EPA Contract
##OWNER=NIST Standard Reference Data Program
##CAS REGISTRY NO=615-12-3
##MOLFORM=C 10 H 14 O 3
##XUNITS=1/CM
##YUNITS=ABSORBANCE
##XFACTOR=1.0
##YFACTOR=0.000130774
##DELTAX=4.0
##FIRSTX=450.0
##LASTX=3966.0
##FIRSTY=0.000000
##MAXX=3966
##MINX=450
##MAXY=1.30774
##MINY=0
##NPOINTS=880
##XYDATA=(X++(Y..Y))
450.0 0 162 213 209 215 264 201 270 214 299
490.0 229 230 213 183 188 173 196 208 185 171
530.0 180 157 200 203 183 199 177 198 179 183
570.0 182 200 159 197 243 274 348 381 357 327
610.0 331 341 334 339 288 248 218 210 173 158
650.0 147 143 149 149 159 169 149 166 173 158
690.0 160 161 153 159 159 172 174 202 197 251
730.0 319 390 593 966 1387 1892 2083 1992 1799 1466
770.0 1110 825 578 488 407 356 336 359 371 397
810.0 399 384 368 341 344 334 325 298 256 228
850.0 207 202 187 186 200 218 243 282 469 623
890.0 686 511 306 295 315 339 386 400 422 423
930.0 437 433 439 473 540 649 754 829 848 847
970.0 805 746 661 557 478 412 406 449 624 977
1010.0 1254 1226 935 619 467 397 358 371 363 375
1050.0 364 361 350 365 409 539 907 1262 1299 974
1090.0 632 587 719 1004 1598 2734 4548 6533 7430 6406
1130.0 4243 2405 1392 916 694 595 600 803 1566 3084
1170.0 4365 4927 4727 4036 3118 1739 894 601 446 434
1210.0 431 452 505 646 1209 1856 1957 1474 923 745
1250.0 717 694 735 795 954 1209 1687 2482 3860 6004
1290.0 8466 10000 8681 5911 3363 2003 1365 975 734 614
1330.0 572 566 585 598 598 578 538 507 517 561
1370.0 614 671 712 800 949 1144 1310 1374 1241 931
1410.0 599 408 375 346 347 351 380 394 397 409
1450.0 457 534 660 807 1001 1210 1485 1869 2075 2022
1490.0 1527 1001 726 585 498 382 319 277 272 244
1530.0 239 226 218 239 232 232 251 306 370 523
1570.0 801 1077 1415 1643 1676 1343 787 453 359 325
1610.0 305 291 290 283 283 264 250 247 225 226
1650.0 244 260 275 285 313 303 308 292 319 329
1690.0 342 373 410 464 488 569 657 900 1195 1741
1730.0 2575 3634 4405 4608 4509 4178 4206 4117 3774 2959
1770.0 2008 1285 871 635 513 416 381 329 314 291
1810.0 279 274 254 269 265 260 227 215 204 207
1850.0 195 189 195 191 206 201 200 193 194 188
1890.0 184 188 180 180 175 181 180 186 185 183
1930.0 181 185 184 182 188 181 182 176 178 176
1970.0 173 173 171 174 173 180 172 172 171 173
2010.0 170 169 175 170 171 171 170 167 171 168
2050.0 166 164 159 166 155 150 150 157 170 186
2090.0 200 208 208 201 193 188 188 178 178 176
2130.0 173 171 172 169 163 168 165 166 167 169
2170.0 169 165 171 166 169 170 177 175 177 182
2210.0 181 181 181 179 176 174 174 180 178 177
2250.0 177 174 170 170 169 167 168 169 171 172
2290.0 175 174 171 170 166 164 160 163 159 165
2330.0 178 173 177 182 181 170 166 172 180 176
2370.0 177 180 171 168 168 179 180 187 188 188
2410.0 187 183 182 176 170 167 163 159 161 165
2450.0 163 171 176 178 178 178 172 172 170 163
2490.0 162 165 171 170 166 165 161 159 159 155
2530.0 152 156 153 154 157 158 162 167 169 168
2570.0 164 159 164 160 162 164 170 173 175 179
2610.0 180 186 184 188 184 187 182 178 191 194
2650.0 202 207 208 199 182 166 151 144 143 146
2690.0 146 155 155 163 166 173 174 178 182 185
2730.0 196 194 198 199 198 196 198 201 202 206
2770.0 216 219 216 211 201 198 205 207 208 210
2810.0 215 217 226 232 241 244 257 279 309 356
2850.0 398 430 439 464 522 625 807 1018 1154 1167
2890.0 1081 998 957 983 1065 1200 1322 1400 1419 1429
2930.0 1495 1593 1680 1710 1694 1702 1859 2261 2903 3599
2970.0 3854 3342 2402 1569 1134 907 752 623 506 416
3010.0 338 286 249 227 206 200 199 191 191 185
3050.0 189 186 187 182 176 178 172 172 168 171
3090.0 170 171 168 169 170 167 173 177 186 198
3130.0 215 213 206 186 175 188 195 191 190 188
3170.0 180 180 186 184 182 175 175 178 183 180
3210.0 182 178 177 186 179 185 180 179 171 180
3250.0 170 173 175 175 172 170 167 157 151 145
3290.0 150 152 154 146 146 143 154 164 154 169
3330.0 171 158 163 160 163 161 166 165 156 161
3370.0 157 157 168 157 155 158 165 168 158 158
3410.0 164 161 159 167 166 169 156 164 164 175
3450.0 175 184 191 185 176 179 168 169 173 169
3490.0 181 179 185 179 183 178 171 169 175 171
3530.0 172 171 163 157 160 173 165 165 170 157
3570.0 163 180 172 172 168 174 163 171 183 164
3610.0 177 154 152 156 175 179 176 181 173 177
3650.0 169 170 178 166 173 170 181 179 170 174
3690.0 169 162 156 157 160 157 151 169 151 158
3730.0 172 164 148 167 163 183 164 156 143 151
3770.0 157 176 156 142 161 153 162 148 151 147
3810.0 159 157 170 152 146 157 154 164 160 145
3850.0 157 175 143 149 173 152 153 156 155 156
3890.0 173 165 174 165 182 172 160 176 159 158
3930.0 185 153 163 166 169 141 161 155 165 168
##END=
