##TITLE=Nonanoic acid, pentyl ester
##JCAMP-DX=4.24
##DATA TYPE=INFRARED SPECTRUM
##ORIGIN=Sadtler Research Labs Under US-EPA Contract
##OWNER=NIST Standard Reference Data Program
##CAS REGISTRY NO=61531-45-1
##MOLFORM=C 14 H 28 O 2
##XUNITS=1/CM
##YUNITS=ABSORBANCE
##XFACTOR=1.0
##YFACTOR=0.000110977
##DELTAX=4.0
##FIRSTX=450.0
##LASTX=3966.0
##FIRSTY=0.000000
##MAXX=3966
##MINX=450
##MAXY=1.10977
##MINY=0
##NPOINTS=880
##XYDATA=(X++(Y..Y))
450.0 0 180 313 306 308 300 422 360 332 343
490.0 240 416 435 282 439 371 516 326 244 395
530.0 282 336 343 206 267 437 282 253 361 353
570.0 329 350 362 419 359 406 363 339 359 346
610.0 360 415 377 397 411 396 360 339 392 370
650.0 377 367 346 374 338 336 320 353 377 416
690.0 398 401 407 427 424 475 512 529 529 533
730.0 531 468 450 442 444 391 414 416 464 464
770.0 436 488 480 456 465 439 423 390 413 386
810.0 372 406 406 412 427 436 406 404 422 430
850.0 417 439 459 477 488 481 517 491 497 509
890.0 506 507 507 510 501 487 478 500 487 473
930.0 469 482 480 490 496 510 530 533 575 642
970.0 711 804 899 983 1051 1078 1075 1020 994 936
1010.0 916 899 894 913 954 1000 1034 1073 1099 1121
1050.0 1163 1176 1158 1118 1076 1072 1088 1090 1095 1107
1090.0 1173 1298 1473 1711 1946 2079 2076 1954 1796 1683
1130.0 1624 1689 1852 2131 2601 3218 3901 4457 4739 4698
1170.0 4390 4020 3694 3425 3251 3089 2965 2837 2761 2696
1210.0 2619 2631 2642 2686 2715 2756 2826 2903 2955 2965
1250.0 2884 2720 2497 2244 2006 1840 1719 1656 1619 1598
1290.0 1572 1525 1479 1440 1414 1375 1341 1297 1258 1230
1330.0 1213 1244 1307 1392 1484 1524 1526 1468 1370 1265
1370.0 1171 1101 1097 1148 1200 1160 1032 868 733 648
1410.0 614 605 615 667 738 828 889 959 1012 1085
1450.0 1207 1360 1533 1681 1682 1587 1376 1091 869 696
1490.0 568 499 441 409 387 351 350 329 319 315
1530.0 304 302 300 279 288 288 287 285 289 292
1570.0 282 283 280 279 288 285 289 276 267 274
1610.0 263 271 261 266 266 270 266 261 264 272
1650.0 259 270 277 280 290 285 294 306 310 334
1690.0 356 382 421 472 545 626 708 806 938 1145
1730.0 1385 1755 2407 3383 5006 6770 7360 6563 4709 3090
1770.0 2112 1551 1227 992 821 695 589 517 463 425
1810.0 401 368 338 318 293 279 266 257 252 243
1850.0 247 243 236 236 228 229 231 230 225 223
1890.0 220 222 217 220 218 219 217 217 216 218
1930.0 220 217 219 219 220 220 223 219 223 218
1970.0 223 220 216 220 221 219 219 219 217 216
2010.0 217 220 221 221 223 226 228 225 228 228
2050.0 223 225 220 219 219 219 216 214 216 215
2090.0 210 211 209 206 206 203 203 202 203 202
2130.0 203 197 198 196 196 198 198 193 194 195
2170.0 193 194 194 195 195 194 193 188 188 190
2210.0 189 186 187 187 186 187 185 186 188 186
2250.0 186 187 189 189 192 190 192 194 194 196
2290.0 198 197 202 203 206 212 209 213 216 216
2330.0 206 214 214 214 227 217 219 215 227 219
2370.0 216 210 212 206 207 206 208 202 203 203
2410.0 206 203 202 203 207 201 199 201 201 201
2450.0 198 200 196 201 201 197 197 202 196 200
2490.0 199 199 200 201 203 198 203 203 206 205
2530.0 207 207 208 211 211 211 212 214 215 221
2570.0 223 226 227 228 228 230 232 231 236 238
2610.0 237 236 242 243 246 248 255 256 259 262
2650.0 264 268 270 276 285 287 293 299 300 305
2690.0 307 303 297 299 297 296 293 296 300 305
2730.0 309 317 330 339 345 347 343 340 338 344
2770.0 345 349 354 365 374 389 406 424 442 462
2810.0 483 515 549 588 639 700 771 866 1001 1201
2850.0 1520 2013 2713 3460 3966 4098 3946 3714 3568 3448
2890.0 3185 2944 2879 3042 3358 3813 4413 5202 6238 7505
2930.0 8847 9796 10000 9565 8663 7548 6734 6444 6825 7434
2970.0 7510 6678 5145 3774 2808 2143 1685 1352 1115 954
3010.0 834 748 677 619 580 546 510 482 461 434
3050.0 405 393 384 374 365 352 348 341 333 330
3090.0 323 316 313 307 303 295 293 289 290 283
3130.0 285 279 282 276 279 274 277 277 277 274
3170.0 269 273 265 270 267 265 262 260 250 250
3210.0 246 240 242 234 232 233 231 229 221 228
3250.0 222 212 216 217 219 221 213 212 215 203
3290.0 212 210 205 213 212 206 209 209 209 209
3330.0 208 201 215 209 208 203 201 200 207 206
3370.0 201 202 206 203 209 198 206 201 199 196
3410.0 196 196 199 201 198 205 195 200 198 204
3450.0 197 204 201 199 217 223 215 230 241 255
3490.0 251 233 232 217 199 201 198 204 193 192
3530.0 193 201 190 191 202 192 193 199 193 192
3570.0 202 211 220 208 209 199 184 201 204 201
3610.0 199 198 198 194 202 198 207 203 206 206
3650.0 216 200 217 209 206 212 201 199 210 218
3690.0 196 205 207 202 191 193 195 201 189 192
3730.0 202 202 213 197 209 190 214 209 197 215
3770.0 200 197 206 199 199 205 214 194 214 201
3810.0 195 211 212 199 211 217 219 208 232 213
3850.0 218 234 209 219 222 231 196 229 229 226
3890.0 211 219 229 235 248 234 230 212 214 228
3930.0 239 217 249 229 229 236 224 229 232 237
##END=
