##TITLE=Carbonic acid, dimethyl ester
##JCAMP-DX=4.24
##DATA TYPE=INFRARED SPECTRUM
##ORIGIN=Sadtler Research Labs Under US-EPA Contract
##OWNER=NIST Standard Reference Data Program
##CAS REGISTRY NO=616-38-6
##MOLFORM=C 3 H 6 O 3
##XUNITS=1/CM
##YUNITS=ABSORBANCE
##XFACTOR=1.0
##YFACTOR=0.000078568
##DELTAX=4.0
##FIRSTX=450.0
##LASTX=3966.0
##FIRSTY=0.026084
##MAXX=3966
##MINX=450
##MAXY=0.78568
##MINY=0
##NPOINTS=880
##XYDATA=(X++(Y..Y))
450.0 332 108 197 224 141 219 212 128 57 57
490.0 157 322 322 97 187 194 143 317 193 176
530.0 121 147 228 137 200 140 3 90 166 212
570.0 221 224 208 44 24 191 166 224 145 178
610.0 89 130 197 176 168 187 82 148 82 74
650.0 158 235 194 212 89 254 127 139 111 100
690.0 263 137 139 202 113 123 93 160 154 114
730.0 78 134 168 64 169 122 181 137 161 165
770.0 149 259 279 242 307 357 471 342 279 353
810.0 433 361 313 263 256 262 168 202 172 147
850.0 127 128 181 153 162 183 172 223 188 223
890.0 249 290 377 396 395 408 414 458 413 443
930.0 389 367 336 276 256 283 320 395 461 590
970.0 744 929 1108 1213 1195 1150 1042 979 700 452
1010.0 291 223 250 206 218 242 240 225 185 234
1050.0 198 215 244 188 196 190 192 183 147 141
1090.0 152 211 208 182 187 235 171 134 158 145
1130.0 139 143 158 166 146 158 159 186 203 205
1170.0 223 238 262 286 289 307 324 348 365 387
1210.0 414 459 506 539 577 653 715 812 917 1049
1250.0 1225 1463 1826 2345 3149 4243 5682 7291 8750 9759
1290.0 10000 9779 9201 7926 5838 3540 1812 874 488 349
1330.0 295 265 261 245 209 202 201 203 203 195
1370.0 184 192 193 173 201 206 219 234 225 219
1410.0 249 243 304 321 377 428 484 677 987 1328
1450.0 1626 1744 1711 1781 1590 1141 730 469 339 299
1490.0 299 257 249 227 242 258 208 215 211 191
1530.0 183 162 191 201 195 156 167 213 182 160
1570.0 169 167 177 174 170 173 191 193 204 209
1610.0 189 198 196 178 157 125 139 147 127 143
1650.0 170 170 157 115 136 137 157 119 153 151
1690.0 130 121 169 174 161 155 189 253 236 281
1730.0 364 479 641 781 1068 1409 1820 2411 2954 3317
1770.0 3073 2644 3079 3737 3283 2566 1906 1394 1118 860
1810.0 660 447 280 222 168 146 117 97 97 97
1850.0 86 68 63 70 71 84 72 67 75 80
1890.0 83 90 85 86 86 86 78 79 77 59
1930.0 59 57 56 69 64 61 63 61 68 62
1970.0 62 60 59 61 61 62 61 54 59 53
2010.0 49 52 50 51 51 46 47 44 50 51
2050.0 46 49 50 51 53 56 60 58 67 66
2090.0 70 75 71 75 76 72 74 65 62 60
2130.0 53 51 55 59 53 52 51 55 56 55
2170.0 55 62 71 79 84 94 106 105 107 107
2210.0 100 94 77 61 48 42 37 32 32 30
2250.0 29 35 32 32 31 31 35 35 41 44
2290.0 50 52 63 67 71 80 63 52 48 30
2330.0 28 23 10 16 38 37 44 30 33 33
2370.0 22 38 38 52 52 33 30 27 23 23
2410.0 19 24 28 28 24 24 26 19 20 19
2450.0 17 19 14 15 23 19 19 21 17 23
2490.0 19 22 17 24 22 21 21 21 19 17
2530.0 17 18 11 13 14 15 19 14 14 18
2570.0 12 14 10 16 12 9 7 9 7 7
2610.0 3 11 3 5 13 8 9 13 9 11
2650.0 11 12 18 19 16 20 25 26 23 22
2690.0 21 20 15 16 14 12 10 13 9 12
2730.0 9 11 12 7 14 8 11 16 10 13
2770.0 10 11 11 14 17 14 16 16 24 20
2810.0 24 30 25 29 37 32 44 54 76 116
2850.0 167 196 210 206 220 212 193 136 92 93
2890.0 80 93 99 114 142 152 166 178 192 190
2930.0 183 199 201 228 294 394 598 762 791 812
2970.0 778 831 773 600 414 338 312 308 331 368
3010.0 372 343 347 352 337 332 308 287 276 264
3050.0 221 194 169 143 137 120 116 110 95 87
3090.0 87 85 77 74 68 68 73 64 65 53
3130.0 52 49 50 45 42 36 37 32 33 35
3170.0 28 29 33 25 34 35 25 31 26 18
3210.0 26 21 25 27 22 23 30 30 20 22
3250.0 17 19 23 18 26 27 26 16 18 16
3290.0 15 17 21 24 21 12 16 25 16 20
3330.0 18 18 22 15 14 20 17 24 21 23
3370.0 16 16 23 14 18 22 36 27 23 8
3410.0 21 24 25 16 21 25 18 26 24 15
3450.0 19 23 19 14 27 24 28 34 13 11
3490.0 30 23 33 21 26 26 37 33 26 28
3530.0 34 37 41 29 40 27 19 14 25 22
3570.0 22 35 13 18 26 32 19 19 11 20
3610.0 39 19 17 13 17 9 19 30 25 12
3650.0 32 16 50 4 26 12 43 24 26 31
3690.0 18 29 20 16 3 36 20 16 0 12
3730.0 11 13 7 15 31 9 18 12 20 11
3770.0 28 15 13 12 12 19 32 16 22 22
3810.0 40 0 27 12 22 17 33 24 22 14
3850.0 17 15 0 30 20 26 19 27 28 6
3890.0 4 18 0 26 24 22 12 18 14 25
3930.0 23 28 23 16 8 15 46 14 50 37
##END=
