##TITLE=Hexanoic acid, 2-bromo-
##JCAMP-DX=4.24
##DATA TYPE=INFRARED SPECTRUM
##ORIGIN=Sadtler Research Labs Under US-EPA Contract
##OWNER=NIST Standard Reference Data Program
##CAS REGISTRY NO=616-05-7
##MOLFORM=C 6 H 11 Br O 2
##XUNITS=1/CM
##YUNITS=ABSORBANCE
##XFACTOR=1.0
##YFACTOR=0.000157962
##DELTAX=4.0
##FIRSTX=450.0
##LASTX=3966.0
##FIRSTY=0.000000
##MAXX=3966
##MINX=450
##MAXY=1.57962
##MINY=0
##NPOINTS=880
##XYDATA=(X++(Y..Y))
450.0 0 121 156 158 203 245 277 339 275 366
490.0 312 328 315 447 426 520 526 559 655 720
530.0 833 917 1109 1225 1302 1441 1533 1610 1547 1458
570.0 1381 1382 1394 1455 1563 1613 1699 1658 1712 1721
610.0 1796 1824 1854 1890 1938 1974 1933 1986 1864 1695
650.0 1473 1238 1128 1043 1054 942 824 685 595 497
690.0 394 372 328 330 317 343 362 422 524 582
730.0 663 671 702 641 569 485 458 424 408 385
770.0 364 366 341 370 307 261 280 272 259 256
810.0 230 238 220 215 210 212 212 207 198 214
850.0 210 195 201 191 188 191 189 196 203 215
890.0 224 231 234 238 237 242 240 249 280 325
930.0 375 412 435 440 428 405 388 366 345 338
970.0 322 311 292 280 271 268 274 289 295 300
1010.0 304 310 337 381 424 475 514 534 543 548
1050.0 566 597 637 706 782 882 1023 1251 1619 2194
1090.0 3004 3912 4650 4877 4566 3979 3538 3431 3577 3831
1130.0 3906 3757 3388 3030 2811 2771 2831 2856 2741 2443
1170.0 2141 1883 1692 1520 1354 1184 1036 934 893 905
1210.0 938 982 1025 1055 1059 1035 988 943 908 862
1250.0 825 784 743 715 700 712 732 771 812 860
1290.0 905 941 971 998 1017 1044 1069 1104 1149 1212
1330.0 1285 1333 1337 1290 1222 1163 1130 1121 1129 1141
1370.0 1146 1165 1218 1297 1342 1309 1159 943 740 590
1410.0 498 432 406 388 383 415 477 551 606 630
1450.0 669 723 800 860 865 831 728 568 421 319
1490.0 248 215 202 186 184 180 169 164 167 156
1530.0 155 151 157 150 146 138 140 141 149 133
1570.0 140 132 145 128 135 131 131 126 128 129
1610.0 127 134 136 138 131 139 135 142 132 145
1650.0 136 159 151 146 157 163 165 179 182 205
1690.0 211 226 252 284 298 346 398 494 618 784
1730.0 972 1166 1335 1416 1515 1643 1949 2479 3475 4857
1770.0 6711 8641 9677 10000 8193 6312 4464 3189 2390 1906
1810.0 1576 1346 1153 980 811 643 509 404 336 284
1850.0 250 227 211 195 188 175 171 163 159 157
1890.0 153 152 147 144 142 142 137 142 138 137
1930.0 138 139 138 136 138 136 136 134 134 133
1970.0 136 135 131 133 131 133 132 134 134 137
2010.0 138 138 139 135 138 138 140 139 141 141
2050.0 139 137 134 135 129 127 124 124 126 123
2090.0 122 124 121 124 123 123 124 124 121 124
2130.0 124 125 125 124 126 128 128 129 131 134
2170.0 134 137 141 141 143 148 148 146 149 149
2210.0 148 148 148 148 148 145 141 135 134 135
2250.0 133 132 132 131 130 129 129 129 129 129
2290.0 129 127 128 129 128 127 128 122 121 119
2330.0 118 129 126 124 130 127 120 126 124 136
2370.0 137 142 144 146 144 144 144 143 145 145
2410.0 144 143 146 146 145 145 146 145 147 144
2450.0 145 146 145 146 146 147 149 151 147 146
2490.0 149 149 151 146 147 146 149 146 150 151
2530.0 153 155 153 151 152 152 154 155 159 157
2570.0 158 154 157 152 154 155 157 155 159 158
2610.0 159 158 156 162 158 158 163 166 167 168
2650.0 168 167 170 166 168 170 177 177 179 177
2690.0 176 178 180 177 178 179 182 178 176 182
2730.0 187 189 200 200 212 212 212 209 204 200
2770.0 197 197 205 208 215 221 228 238 245 253
2810.0 265 274 287 296 306 330 351 378 418 467
2850.0 536 629 771 989 1270 1572 1787 1913 1967 1901
2890.0 1740 1511 1286 1193 1210 1284 1411 1575 1808 2111
2930.0 2483 2895 3284 3542 3525 3302 3024 2943 3239 3896
2970.0 4553 4465 3754 2635 1653 1106 867 730 646 577
3010.0 520 472 432 412 395 376 363 352 330 312
3050.0 301 281 272 266 266 262 260 257 257 245
3090.0 244 243 239 237 232 234 235 229 228 227
3130.0 232 223 220 220 222 219 213 216 209 212
3170.0 208 209 208 207 213 212 207 209 204 202
3210.0 195 193 191 188 182 174 179 179 180 177
3250.0 176 174 167 166 163 168 169 168 164 170
3290.0 163 166 159 157 156 159 157 155 161 156
3330.0 154 152 143 149 153 148 149 134 142 140
3370.0 147 143 146 146 143 143 145 131 139 123
3410.0 134 137 134 150 137 132 132 138 145 141
3450.0 134 128 134 134 141 146 143 161 169 179
3490.0 201 230 258 295 317 297 283 268 292 326
3530.0 304 304 311 309 329 300 303 396 655 1335
3570.0 2620 4066 4779 4617 3436 1880 883 457 293 235
3610.0 230 212 211 182 166 199 152 134 130 150
3650.0 197 161 154 128 134 152 196 162 139 138
3690.0 188 150 128 143 136 152 168 135 146 173
3730.0 116 177 175 153 179 204 163 144 131 130
3770.0 126 116 116 139 118 116 114 130 131 121
3810.0 119 116 172 144 124 116 132 142 145 121
3850.0 139 166 115 121 153 124 126 116 116 120
3890.0 131 125 115 163 146 116 116 116 116 123
3930.0 116 136 116 116 123 132 117 116 119 117
##END=
