##TITLE=Thiophene, 3-methyl-
##JCAMP-DX=4.24
##DATA TYPE=INFRARED SPECTRUM
##ORIGIN=Sadtler Research Labs Under US-EPA Contract
##OWNER=NIST Standard Reference Data Program
##CAS REGISTRY NO=616-44-4
##MOLFORM=C 5 H 6 S
##XUNITS=1/CM
##YUNITS=ABSORBANCE
##XFACTOR=1.0
##YFACTOR=0.000129294
##DELTAX=4.0
##FIRSTX=450.0
##LASTX=3966.0
##FIRSTY=0.002974
##MAXX=3966
##MINX=450
##MAXY=1.29294
##MINY=0
##NPOINTS=880
##XYDATA=(X++(Y..Y))
450.0 23 59 48 59 63 47 55 1 25 24
490.0 26 49 25 14 32 56 34 47 46 51
530.0 98 96 99 91 71 115 80 111 195 301
570.0 471 661 831 951 977 1199 3133 1166 1037 1046
610.0 919 740 517 328 174 115 83 77 91 127
650.0 177 242 329 425 487 558 601 1461 847 582
690.0 726 564 486 381 298 223 183 206 308 556
730.0 1030 1732 2629 3620 4430 4836 5400 10000 8935 5716
770.0 5843 5459 4498 3370 2200 1301 707 381 229 178
810.0 201 319 533 898 1186 1186 1395 1246 1780 2073
850.0 2153 2108 1919 2086 2019 2078 1499 684 266 143
890.0 114 99 109 122 134 156 240 400 517 425
930.0 486 393 460 420 230 109 81 84 97 126
970.0 162 216 291 393 456 437 468 412 425 346
1010.0 219 134 96 95 99 110 131 169 178 156
1050.0 164 196 228 262 332 447 532 430 302 444
1090.0 495 383 256 174 119 95 75 69 75 87
1130.0 109 138 181 248 311 315 229 219 319 292
1170.0 206 139 99 79 71 67 67 61 59 72
1210.0 91 110 144 206 289 365 323 237 351 412
1250.0 333 242 187 159 132 105 93 93 91 74
1290.0 68 67 67 62 68 72 79 90 105 116
1330.0 128 153 189 228 257 283 320 382 461 541
1370.0 581 659 832 950 987 1041 1065 1145 1087 855
1410.0 786 782 914 987 1048 1089 986 1004 1315 1457
1450.0 1375 1304 1086 919 921 921 813 683 528 418
1490.0 345 292 266 281 304 347 386 442 566 744
1530.0 911 1057 1184 1224 1194 1096 952 794 558 349
1570.0 217 164 134 122 113 102 95 90 83 80
1610.0 89 102 123 154 172 165 163 150 160 126
1650.0 90 60 68 56 54 40 38 25 16 11
1690.0 16 16 16 20 36 46 53 61 89 114
1730.0 144 181 219 214 178 182 226 192 143 101
1770.0 77 56 46 38 30 30 26 30 31 35
1810.0 29 26 23 22 16 12 12 10 8 7
1850.0 8 10 7 6 7 6 6 7 7 10
1890.0 11 14 13 16 20 20 23 24 28 31
1930.0 34 36 35 31 30 25 23 17 12 11
1970.0 12 12 16 19 19 20 26 37 44 46
2010.0 43 44 41 46 38 30 26 24 23 25
2050.0 28 30 34 36 35 36 37 40 36 34
2090.0 31 25 22 19 18 13 12 11 13 13
2130.0 13 20 25 29 38 48 61 61 54 56
2170.0 61 56 44 32 25 19 17 17 17 17
2210.0 22 24 28 31 37 40 40 41 42 42
2250.0 42 42 37 36 35 34 31 34 32 29
2290.0 25 34 38 43 48 49 54 47 42 41
2330.0 37 34 36 37 51 46 34 31 59 73
2370.0 78 79 75 62 49 41 32 32 30 28
2410.0 25 24 18 16 16 18 22 24 29 31
2450.0 31 35 36 42 40 36 36 32 30 28
2490.0 25 20 19 14 10 11 11 13 18 22
2530.0 23 23 19 23 19 16 10 8 7 5
2570.0 4 6 4 2 2 4 1 4 4 5
2610.0 4 6 7 7 7 8 7 7 4 1
2650.0 1 1 0 1 1 1 0 2 2 5
2690.0 4 6 6 11 11 12 17 23 34 48
2730.0 71 97 113 129 134 137 129 108 91 80
2770.0 74 72 72 69 73 74 85 97 108 115
2810.0 122 129 135 146 159 172 187 213 240 269
2850.0 320 389 497 668 911 1199 1399 1483 1594 1679
2890.0 1720 1641 1535 1466 1416 1359 1372 1486 1789 2304
2930.0 2789 2866 3013 2956 2950 2714 2143 2010 1866 1572
2970.0 1584 1653 1594 1404 1240 1256 1125 929 750 643
3010.0 576 540 529 551 581 642 671 675 674 707
3050.0 751 793 829 848 847 840 830 805 713 623
3090.0 583 527 459 400 349 331 316 284 235 204
3130.0 180 127 81 53 38 26 19 13 8 11
3170.0 11 18 17 17 17 14 14 14 11 10
3210.0 7 5 5 1 2 2 4 1 2 0
3250.0 5 1 0 5 6 6 5 5 6 11
3290.0 12 17 16 17 14 17 14 16 10 5
3330.0 4 6 4 5 8 10 12 11 13 11
3370.0 10 7 10 11 8 8 11 12 11 10
3410.0 12 11 12 8 8 13 5 8 10 10
3450.0 7 7 8 7 6 11 12 13 12 5
3490.0 11 11 8 10 8 8 10 16 10 16
3530.0 13 18 10 12 13 17 12 13 10 16
3570.0 14 16 14 14 16 16 19 18 12 14
3610.0 16 19 18 24 22 20 35 37 41 40
3650.0 38 42 42 41 40 25 25 18 20 17
3690.0 22 20 14 18 26 25 30 34 38 38
3730.0 44 42 48 43 31 41 50 49 46 53
3770.0 44 50 55 46 48 41 31 22 19 25
3810.0 23 19 24 18 18 22 19 23 30 23
3850.0 24 24 28 17 25 23 28 25 20 22
3890.0 28 28 20 20 22 26 23 25 20 35
3930.0 23 30 31 38 37 43 44 46 46 47
##END=
