##TITLE=2-Pyrrolidinone
##JCAMP-DX=4.24
##DATA TYPE=INFRARED SPECTRUM
##ORIGIN=Sadtler Research Labs Under US-EPA Contract
##OWNER=NIST Standard Reference Data Program
##CAS REGISTRY NO=616-45-5
##MOLFORM=C 4 H 7 N O
##XUNITS=1/CM
##YUNITS=ABSORBANCE
##XFACTOR=1.0
##YFACTOR=0.000143039
##DELTAX=4.0
##FIRSTX=450.0
##LASTX=3966.0
##FIRSTY=0.132454
##MAXX=3966
##MINX=450
##MAXY=1.43039
##MINY=0
##NPOINTS=880
##XYDATA=(X++(Y..Y))
450.0 926 835 1125 1109 1060 1060 994 911 835 553
490.0 414 464 365 233 101 113 90 138 170 52
530.0 174 246 263 191 435 369 397 455 406 384
570.0 337 358 302 379 387 369 368 365 416 427
610.0 416 396 419 382 424 531 386 276 236 228
650.0 208 180 125 179 62 170 87 147 124 150
690.0 134 144 141 117 127 123 140 117 60 45
730.0 55 45 111 65 53 40 18 51 46 22
770.0 30 44 66 48 84 78 80 84 90 90
810.0 127 89 114 117 96 82 90 152 120 122
850.0 141 204 229 236 312 297 275 301 335 260
890.0 250 270 258 280 221 282 240 244 230 212
930.0 192 158 132 96 95 80 79 77 91 112
970.0 146 190 245 289 280 261 294 320 283 251
1010.0 204 177 159 133 150 139 141 171 197 245
1050.0 310 375 376 422 422 448 457 394 295 243
1090.0 172 144 113 92 91 119 62 68 81 74
1130.0 82 84 89 101 88 113 127 145 145 166
1170.0 175 178 200 200 203 226 263 287 345 424
1210.0 535 654 782 929 1167 1476 1814 1972 1931 1899
1250.0 1889 1977 1878 1589 1247 1021 901 835 748 728
1290.0 747 746 698 607 515 463 410 367 351 320
1330.0 291 261 249 232 230 238 213 201 167 147
1370.0 143 133 168 197 268 351 486 643 809 918
1410.0 925 926 939 1005 955 752 556 428 329 307
1450.0 245 296 235 305 214 257 239 221 217 162
1490.0 175 146 123 120 92 123 38 101 39 63
1530.0 59 35 96 32 67 44 59 55 83 55
1570.0 69 63 78 67 79 56 110 57 115 104
1610.0 85 135 101 130 94 127 94 117 104 96
1650.0 150 102 203 114 226 198 253 261 308 334
1690.0 398 463 527 650 715 832 946 1185 1479 1902
1730.0 2578 3290 4646 6084 7665 9133 9404 10000 9977 8965
1770.0 8334 7142 4766 2654 1436 960 689 536 424 361
1810.0 319 251 217 190 158 156 111 132 85 99
1850.0 87 105 104 92 108 89 111 100 100 90
1890.0 88 86 85 82 74 77 63 75 58 67
1930.0 65 61 65 54 57 58 57 65 50 61
1970.0 49 58 55 48 54 39 40 40 41 37
2010.0 38 37 35 35 44 36 45 39 40 39
2050.0 46 44 47 44 41 48 45 47 48 46
2090.0 47 51 50 51 52 51 49 51 50 50
2130.0 47 44 44 38 38 40 38 33 36 34
2170.0 35 36 34 35 34 33 31 34 32 32
2210.0 34 32 33 36 30 30 33 32 32 35
2250.0 31 36 36 36 38 38 39 41 41 36
2290.0 43 40 46 46 44 48 45 51 45 57
2330.0 49 25 99 9 136 17 132 30 107 64
2370.0 61 55 44 45 37 39 40 40 43 37
2410.0 38 39 33 38 38 39 37 33 37 35
2450.0 37 36 36 41 34 38 36 36 39 34
2490.0 31 32 29 29 27 27 25 23 23 23
2530.0 23 21 21 22 17 19 17 17 20 20
2570.0 18 23 23 24 22 22 28 29 32 30
2610.0 32 31 35 37 38 36 37 37 35 36
2650.0 36 37 34 37 33 35 33 33 37 36
2690.0 44 41 47 51 49 52 56 58 61 62
2730.0 65 69 72 72 73 71 72 68 66 63
2770.0 62 63 59 64 73 78 87 101 113 132
2810.0 147 151 165 159 165 169 166 168 174 194
2850.0 221 272 373 478 648 809 909 1171 1218 1180
2890.0 1162 1181 1071 961 847 753 705 666 667 691
2930.0 727 780 805 859 922 957 996 1115 1137 1106
2970.0 1118 1161 1119 1151 1176 1098 1044 961 806 658
3010.0 578 470 365 285 204 157 124 102 92 81
3050.0 80 69 67 69 61 61 63 57 62 52
3090.0 56 53 50 52 46 50 51 50 56 51
3130.0 49 56 54 59 56 54 61 55 60 65
3170.0 59 63 58 57 53 52 49 45 48 45
3210.0 50 58 50 60 68 63 71 67 72 69
3250.0 67 74 63 69 69 60 65 60 61 57
3290.0 49 59 58 56 57 56 58 51 59 62
3330.0 60 62 66 64 65 69 69 67 66 72
3370.0 65 69 59 62 58 57 54 55 61 57
3410.0 62 65 60 65 75 74 95 112 141 197
3450.0 250 340 426 541 648 730 766 709 676 713
3490.0 700 582 449 333 258 175 152 105 90 72
3530.0 69 61 76 63 74 57 82 49 87 53
3570.0 90 59 89 53 91 60 88 53 68 69
3610.0 75 81 61 99 37 122 55 86 41 111
3650.0 34 158 28 100 86 64 164 44 127 43
3690.0 131 72 75 86 87 81 113 46 114 39
3730.0 100 115 39 181 0 243 17 164 61 111
3770.0 117 83 123 109 103 137 86 162 87 170
3810.0 57 148 88 136 108 93 116 129 59 118
3850.0 54 177 114 97 116 97 128 103 118 122
3890.0 146 82 181 106 138 125 91 144 93 133
3930.0 89 128 81 65 104 73 129 111 100 129
##END=
