##TITLE=Ethanol, 2-(2,4,6-trichlorophenoxy)-,
##JCAMP-DX=4.24
##DATA TYPE=INFRARED SPECTRUM
##ORIGIN=Sadtler Research Labs Under US-EPA Contract
##OWNER=NIST Standard Reference Data Program
##CAS REGISTRY NO=6161-87-1
##MOLFORM=C 8 H 7 Cl 3 O 2
##XUNITS=1/CM
##YUNITS=ABSORBANCE
##XFACTOR=1.0
##YFACTOR=0.000067288
##DELTAX=4.0
##FIRSTX=450.0
##LASTX=3966.0
##FIRSTY=0.008142
##MAXX=3966
##MINX=450
##MAXY=0.67288
##MINY=0
##NPOINTS=880
##XYDATA=(X++(Y..Y))
450.0 121 110 135 138 73 51 1 34 84 102
490.0 61 110 110 137 157 160 151 114 81 72
530.0 39 51 39 78 57 95 110 142 237 454
570.0 743 1085 1214 905 638 350 170 44 31 17
610.0 17 39 34 43 25 12 25 43 43 34
650.0 53 54 25 54 51 105 156 209 413 566
690.0 806 968 1079 955 740 501 375 352 322 317
730.0 315 401 568 946 1381 1776 1987 2031 1915 1582
770.0 1194 828 733 909 1413 2156 2894 3278 3307 3375
810.0 3786 4268 4224 3739 3393 3885 4503 4376 3318 2289
850.0 2322 3025 4083 4030 3013 1995 1363 1167 1227 1250
890.0 1210 1082 1030 1085 1106 996 781 574 450 361
930.0 328 326 330 355 381 421 449 483 502 530
970.0 568 623 724 887 1157 1547 2127 2908 3832 4824
1010.0 5664 6079 5872 5149 4286 3580 3095 2719 2428 2240
1050.0 2119 2009 1970 2058 2248 2531 2826 3068 3231 3220
1090.0 2978 2494 1939 1475 1149 901 762 720 785 988
1130.0 1383 1939 2403 2394 1838 1183 815 672 575 514
1170.0 504 539 605 717 854 953 999 995 1021 1090
1210.0 1141 1188 1239 1365 1592 1929 2362 2911 3653 4624
1250.0 5787 6739 6986 6259 5013 3893 3203 2792 2425 2081
1290.0 1750 1487 1316 1212 1100 1028 975 962 886 839
1330.0 814 846 945 1033 1140 1370 1873 2871 4204 4955
1370.0 4790 4106 3667 3641 3565 3221 2683 2222 1828 1649
1410.0 1605 1913 2800 4389 6657 8407 8843 8409 8686 9610
1450.0 9969 9120 8417 9092 10000 9485 6606 3507 1764 1103
1490.0 863 657 605 520 545 554 443 454 474 448
1530.0 529 733 1175 1936 2924 3620 3738 3073 2127 1647
1570.0 1601 1571 1527 1278 931 623 430 304 224 201
1610.0 179 172 187 151 178 128 154 141 90 100
1650.0 132 129 91 50 71 80 96 38 94 103
1690.0 54 47 129 157 166 203 349 546 535 500
1730.0 449 386 226 138 111 108 80 64 67 37
1770.0 81 73 40 43 39 37 52 28 41 2
1810.0 8 11 1 20 26 51 38 38 61 92
1850.0 59 36 33 27 30 47 12 7 12 9
1890.0 22 20 18 21 29 38 40 54 73 58
1930.0 57 62 71 87 89 81 93 92 94 98
1970.0 90 78 73 64 62 73 67 64 61 69
2010.0 67 74 85 75 69 61 47 46 40 35
2050.0 27 25 19 21 23 17 13 16 22 25
2090.0 31 24 23 22 16 17 18 18 14 16
2130.0 15 13 15 17 20 25 30 29 29 25
2170.0 23 18 17 10 9 12 8 8 14 15
2210.0 14 25 37 38 33 20 12 7 1 5
2250.0 4 8 16 19 26 27 30 34 31 31
2290.0 34 37 40 49 44 58 52 57 68 61
2330.0 62 70 72 46 118 28 105 56 68 51
2370.0 63 37 52 38 25 13 13 11 8 8
2410.0 8 6 8 12 10 13 21 26 24 22
2450.0 28 30 31 38 33 39 42 45 46 49
2490.0 59 59 62 70 75 89 83 78 75 62
2530.0 54 52 46 45 38 34 34 24 22 23
2570.0 20 22 24 22 21 22 20 23 25 32
2610.0 31 29 31 29 26 25 22 19 21 17
2650.0 19 22 22 30 35 42 47 57 67 75
2690.0 75 78 84 85 96 103 103 115 113 123
2730.0 114 107 104 105 101 103 102 108 117 131
2770.0 138 152 160 177 180 183 171 168 165 177
2810.0 193 203 218 226 239 242 248 263 271 294
2850.0 329 382 448 538 660 830 1029 1237 1388 1410
2890.0 1322 1193 1093 1019 976 974 1012 1107 1237 1372
2930.0 1488 1578 1702 1917 2221 2545 2812 2925 2804 2431
2970.0 1924 1502 1246 1094 982 833 664 501 383 297
3010.0 245 204 169 144 120 110 88 79 63 64
3050.0 61 52 49 41 50 49 52 74 107 120
3090.0 115 90 47 43 30 30 36 35 38 42
3130.0 38 32 28 22 14 6 7 6 11 4
3170.0 9 5 6 2 8 10 10 5 14 5
3210.0 9 7 12 11 4 9 12 15 10 10
3250.0 11 1 4 4 1 1 7 6 12 10
3290.0 15 13 14 18 14 16 21 19 18 10
3330.0 13 7 13 13 18 18 17 21 19 18
3370.0 11 9 10 8 1 3 2 7 11 6
3410.0 7 3 8 9 17 7 4 10 9 12
3450.0 4 5 8 17 8 17 11 12 24 20
3490.0 19 23 24 36 39 42 40 30 52 63
3530.0 40 30 33 35 46 42 48 45 63 113
3570.0 123 107 103 97 108 115 102 115 143 190
3610.0 276 330 439 557 795 1213 1548 1669 1425 1068
3650.0 802 610 543 518 529 539 483 458 331 297
3690.0 249 185 134 113 97 92 90 79 65 82
3730.0 38 68 47 58 64 56 84 43 62 53
3770.0 45 17 3 23 14 3 1 3 16 17
3810.0 2 1 7 27 17 1 22 22 25 16
3850.0 9 25 19 8 6 15 9 2 27 33
3890.0 7 20 9 28 31 10 0 17 11 2
3930.0 14 14 25 21 40 22 5 26 26 38
##END=
