##TITLE=Benzoic acid, 4-hydroxy-3-methoxy-, ethyl ester
##JCAMP-DX=4.24
##DATA TYPE=INFRARED SPECTRUM
##ORIGIN=Sadtler Research Labs Under US-EPA Contract
##OWNER=NIST Standard Reference Data Program
##CAS REGISTRY NO=617-05-0
##MOLFORM=C 10 H 12 O 4
##XUNITS=1/CM
##YUNITS=ABSORBANCE
##XFACTOR=1.0
##YFACTOR=0.000093115
##DELTAX=4.0
##FIRSTX=450.0
##LASTX=3966.0
##FIRSTY=0.042647
##MAXX=3966
##MINX=450
##MAXY=0.93115
##MINY=0
##NPOINTS=880
##XYDATA=(X++(Y..Y))
450.0 458 418 408 450 456 406 395 362 317 329
490.0 198 216 149 105 68 85 22 97 64 63
530.0 44 83 53 134 90 130 172 159 200 185
570.0 86 150 58 5 104 3 122 52 37 99
610.0 72 69 106 33 204 248 269 299 210 139
650.0 103 26 91 30 18 115 17 70 34 95
690.0 105 91 80 117 68 107 81 144 162 192
730.0 108 176 165 54 210 367 555 839 1113 1364
770.0 1254 1042 885 709 599 536 396 326 262 149
810.0 230 128 178 227 233 317 322 230 256 163
850.0 159 175 146 230 246 280 336 309 334 340
890.0 280 286 216 226 218 282 355 451 450 426
930.0 335 269 201 184 154 161 140 140 147 138
970.0 151 171 161 185 213 181 245 234 310 408
1010.0 518 704 907 1090 1284 1335 1348 1246 1034 831
1050.0 586 394 355 292 328 369 458 711 971 1444
1090.0 1913 2444 2875 3124 2792 2248 1729 1456 1251 1009
1130.0 757 571 458 422 411 469 533 615 720 876
1170.0 1036 1209 1403 1532 1728 1967 2354 2944 3686 4586
1210.0 5578 6210 6429 5554 4141 2588 1618 1158 1005 972
1250.0 1104 1251 1468 1850 2515 3813 5717 8115 10000 9425
1290.0 7132 4769 2987 1922 1302 959 746 603 500 442
1330.0 394 378 350 336 327 359 420 547 766 1055
1370.0 1309 1365 1193 957 747 593 534 465 456 418
1410.0 427 482 579 803 1133 1389 1494 1231 875 636
1450.0 568 656 757 872 987 1015 934 818 629 559
1490.0 524 632 877 1348 2015 2665 2673 2098 1266 708
1530.0 441 292 220 168 160 168 165 159 175 207
1570.0 228 273 326 402 524 691 921 1163 1331 1370
1610.0 1281 1052 839 604 411 275 190 152 155 122
1650.0 146 95 141 149 129 143 139 147 179 175
1690.0 220 260 243 294 314 404 555 853 1430 2322
1730.0 3305 4168 4379 3590 2348 1180 604 369 279 261
1770.0 249 227 220 194 175 149 128 108 111 91
1810.0 95 89 73 72 63 45 61 42 53 51
1850.0 35 50 47 41 50 29 52 63 60 81
1890.0 67 76 73 58 58 54 36 48 25 42
1930.0 40 41 38 38 30 49 44 45 49 40
1970.0 45 42 39 38 38 31 41 30 32 37
2010.0 38 28 42 31 46 46 46 57 62 59
2050.0 69 56 65 66 59 68 55 62 62 43
2090.0 52 39 27 40 20 34 34 28 33 35
2130.0 28 49 33 40 33 26 33 28 24 24
2170.0 15 21 19 11 20 15 20 19 25 15
2210.0 26 16 12 18 14 16 23 2 23 16
2250.0 11 18 8 11 17 6 28 21 19 35
2290.0 16 36 41 26 41 28 19 33 0 14
2330.0 2 2 14 2 2 2 2 2 2 2
2370.0 13 9 13 24 23 19 21 17 26 26
2410.0 27 22 31 26 36 26 29 32 22 23
2450.0 27 14 31 24 26 30 21 34 36 28
2490.0 47 36 42 51 29 44 33 35 44 38
2530.0 43 53 34 47 32 38 38 34 26 38
2570.0 27 36 28 24 22 21 18 23 25 19
2610.0 19 20 24 24 25 21 35 23 53 39
2650.0 45 49 48 53 51 28 45 22 28 27
2690.0 13 28 15 13 27 13 24 37 15 36
2730.0 26 38 41 31 34 43 32 51 40 47
2770.0 50 47 50 51 51 50 47 50 58 60
2810.0 68 68 85 85 109 102 122 138 155 193
2850.0 233 246 274 240 220 201 183 208 226 233
2890.0 262 240 253 262 259 309 320 339 358 348
2930.0 376 423 482 623 695 760 736 697 700 713
2970.0 715 744 772 863 909 866 752 628 583 583
3010.0 606 571 506 364 252 185 160 125 130 104
3050.0 109 109 114 122 124 119 158 149 185 168
3090.0 135 131 89 73 77 51 60 54 35 65
3130.0 32 49 46 29 35 33 24 49 12 38
3170.0 30 22 36 28 28 31 22 38 32 32
3210.0 40 31 36 30 32 19 29 21 27 30
3250.0 29 15 41 12 39 24 34 34 20 22
3290.0 37 8 39 20 9 44 16 33 23 11
3330.0 32 25 23 53 6 47 29 23 30 31
3370.0 14 37 14 45 25 20 32 23 29 33
3410.0 23 28 28 20 38 33 39 32 56 38
3450.0 64 45 60 45 41 29 44 17 43 16
3490.0 16 37 18 33 42 21 50 36 29 55
3530.0 31 63 62 65 98 108 142 237 354 650
3570.0 1044 1485 1811 1785 1467 1012 564 316 166 102
3610.0 73 48 48 45 38 27 45 41 60 59
3650.0 58 57 46 19 30 1 25 28 18 20
3690.0 29 11 35 14 13 24 12 12 17 5
3730.0 18 12 14 23 2 14 2 6 16 11
3770.0 7 32 13 33 23 21 20 18 11 17
3810.0 4 20 15 10 15 7 9 15 14 15
3850.0 23 8 33 25 28 29 44 28 40 19
3890.0 29 17 12 11 21 11 31 17 21 37
3930.0 26 39 27 18 34 22 1 2 2 2
##END=
