##TITLE=Pentane, 3-ethyl-
##JCAMP-DX=4.24
##DATA TYPE=INFRARED SPECTRUM
##ORIGIN=Sadtler Research Labs Under US-EPA Contract
##OWNER=NIST Standard Reference Data Program
##CAS REGISTRY NO=617-78-7
##MOLFORM=C 7 H 16
##XUNITS=1/CM
##YUNITS=ABSORBANCE
##XFACTOR=1.0
##YFACTOR=0.000095313
##DELTAX=4.0
##FIRSTX=450.0
##LASTX=3966.0
##FIRSTY=0.016489
##MAXX=3966
##MINX=450
##MAXY=0.95313
##MINY=0
##NPOINTS=880
##XYDATA=(X++(Y..Y))
450.0 173 148 172 143 94 59 31 28 21 22
490.0 42 52 87 135 125 125 97 36 71 63
530.0 82 86 118 133 133 117 124 76 69 69
570.0 48 66 124 99 127 120 137 122 88 65
610.0 78 88 84 81 119 124 131 111 111 73
650.0 60 72 85 91 95 141 126 134 122 106
690.0 96 88 99 113 122 116 135 170 154 171
730.0 163 157 149 162 174 213 219 238 256 261
770.0 262 245 224 186 187 163 156 149 162 144
810.0 140 122 133 139 132 159 158 170 187 183
850.0 181 161 144 132 132 110 128 139 187 235
890.0 278 365 430 440 446 402 343 269 222 187
930.0 164 148 133 126 125 111 107 106 117 139
970.0 126 139 140 137 144 134 156 181 193 214
1010.0 228 234 233 221 208 207 200 199 193 193
1050.0 198 181 172 160 134 126 103 98 100 101
1090.0 108 108 123 112 118 130 128 135 146 150
1130.0 162 157 164 174 172 172 163 161 149 139
1170.0 124 119 119 126 113 113 106 102 97 87
1210.0 92 102 97 113 116 125 136 142 144 157
1250.0 160 162 166 181 197 208 219 216 216 215
1290.0 214 219 230 244 255 262 267 252 240 224
1330.0 209 210 212 201 200 210 231 249 300 369
1370.0 483 638 761 903 1030 985 843 673 469 328
1410.0 236 202 201 211 214 246 291 404 480 663
1450.0 903 1166 1472 1579 1666 1622 1535 1271 987 751
1490.0 566 398 330 238 252 214 177 183 209 184
1530.0 162 176 173 221 162 140 154 200 192 138
1570.0 158 139 160 119 113 101 101 101 102 105
1610.0 108 108 152 119 119 108 114 138 104 136
1650.0 124 219 115 117 107 120 108 99 93 144
1690.0 92 93 136 151 101 82 87 130 79 73
1730.0 77 132 107 110 97 108 92 87 83 70
1770.0 85 100 68 76 76 71 93 70 70 54
1810.0 54 58 53 53 69 72 61 57 57 70
1850.0 51 46 46 50 51 66 49 49 49 46
1890.0 51 43 50 47 48 48 48 58 47 46
1930.0 47 41 41 43 43 44 45 45 45 45
1970.0 44 39 33 34 39 39 43 43 43 42
2010.0 42 42 41 37 35 42 41 40 46 44
2050.0 42 42 40 40 40 38 38 39 38 38
2090.0 42 38 38 30 34 32 31 31 36 35
2130.0 35 36 36 34 35 29 35 31 34 33
2170.0 43 38 37 33 38 33 33 31 31 32
2210.0 34 36 36 36 30 30 30 30 30 30
2250.0 30 33 35 38 39 38 36 32 32 33
2290.0 31 36 42 46 47 47 45 44 43 42
2330.0 44 56 59 70 76 49 60 59 68 70
2370.0 63 52 53 49 43 46 41 41 37 35
2410.0 35 30 30 29 29 33 29 28 25 24
2450.0 18 17 18 23 22 28 27 28 29 27
2490.0 20 21 20 19 20 19 24 20 24 24
2530.0 18 12 17 12 19 22 29 29 39 45
2570.0 46 50 57 59 67 77 92 97 102 104
2610.0 99 90 90 83 73 74 74 74 80 80
2650.0 83 89 91 92 86 92 97 98 108 109
2690.0 115 118 125 125 122 118 130 130 140 156
2730.0 173 188 199 211 213 208 203 187 179 183
2770.0 183 196 206 221 227 233 244 259 277 297
2810.0 316 344 369 392 423 460 502 566 665 837
2850.0 1135 1610 2201 2818 3461 4314 4971 5352 5215 5081
2890.0 4721 4377 4051 3746 3773 4160 4800 5577 6282 6963
2930.0 7352 7563 7538 7243 6937 6844 7065 7835 8698 9570
2970.0 10000 9293 8661 7578 5306 3355 2078 1385 1013 807
3010.0 681 603 538 498 462 442 426 411 387 371
3050.0 352 336 324 304 288 283 276 271 258 245
3090.0 235 219 207 192 187 181 183 182 172 167
3130.0 160 155 150 151 147 149 158 163 169 158
3170.0 159 143 127 117 104 91 85 80 82 78
3210.0 74 69 64 59 53 49 50 50 45 49
3250.0 49 51 50 42 30 29 30 36 21 32
3290.0 39 45 45 40 33 26 20 23 27 28
3330.0 34 38 38 34 28 23 23 25 23 25
3370.0 33 36 40 35 42 30 25 14 19 22
3410.0 24 26 33 36 38 33 33 23 19 18
3450.0 17 20 19 27 29 32 32 20 16 15
3490.0 11 15 17 26 36 29 27 25 17 19
3530.0 18 12 18 23 24 29 34 31 33 28
3570.0 31 19 20 22 32 47 46 47 52 42
3610.0 53 45 43 51 43 78 61 60 58 70
3650.0 96 70 65 55 58 84 83 97 74 74
3690.0 100 74 63 68 68 79 88 75 86 96
3730.0 97 107 115 93 126 110 98 87 91 98
3770.0 103 96 93 91 85 83 89 101 125 113
3810.0 115 120 136 132 109 105 112 118 111 113
3850.0 132 175 142 138 139 133 118 113 119 120
3890.0 129 141 151 158 141 126 110 106 100 106
3930.0 112 127 134 143 147 153 0 11 11 11
##END=
