##TITLE=Butanedioic acid, methylene-, dimethyl ester
##JCAMP-DX=4.24
##DATA TYPE=INFRARED SPECTRUM
##ORIGIN=Sadtler Research Labs Under US-EPA Contract
##OWNER=NIST Standard Reference Data Program
##CAS REGISTRY NO=617-52-7
##MOLFORM=C 7 H 10 O 4
##XUNITS=1/CM
##YUNITS=ABSORBANCE
##XFACTOR=1.0
##YFACTOR=0.000080469
##DELTAX=4.0
##FIRSTX=450.0
##LASTX=3966.0
##FIRSTY=0.009495
##MAXX=3966
##MINX=450
##MAXY=0.80469
##MINY=0
##NPOINTS=880
##XYDATA=(X++(Y..Y))
450.0 118 135 49 15 7 67 55 155 200 176
490.0 249 287 279 189 132 248 157 230 329 273
530.0 304 292 346 401 271 386 328 312 429 266
570.0 339 357 390 432 249 390 314 317 387 336
610.0 373 394 401 477 481 546 593 488 573 498
650.0 541 487 409 471 386 401 406 364 395 371
690.0 396 414 375 421 365 343 380 397 356 363
730.0 458 471 454 667 634 570 642 575 451 501
770.0 465 429 428 468 489 407 468 506 642 808
810.0 902 1135 1101 1065 1003 1020 1104 1069 951 874
850.0 758 672 613 477 507 423 487 414 485 441
890.0 408 515 528 433 501 440 440 504 525 667
930.0 818 983 1304 1402 1580 1523 1287 1046 786 668
970.0 544 526 497 444 525 610 702 977 1178 1411
1010.0 1574 1752 2015 2177 2244 2106 1712 1275 903 689
1050.0 610 517 496 462 469 465 451 508 509 511
1090.0 604 619 719 841 956 1209 1457 1844 2239 2791
1130.0 3734 5055 6596 8022 8828 8540 7854 6776 6050 5714
1170.0 5628 5675 5806 5918 6073 6326 6685 6861 6805 6548
1210.0 6026 5347 4628 3984 3517 3277 3164 3222 3396 3640
1250.0 4005 4263 4513 4486 4114 3810 3489 3293 3400 3611
1290.0 3920 4050 3997 3898 3894 4076 4271 4355 4161 3614
1330.0 3045 2751 2598 2517 2373 2109 1819 1572 1379 1184
1370.0 1030 983 871 865 841 827 863 880 990 1043
1410.0 1111 1193 1179 1238 1398 1654 2289 2842 3199 3070
1450.0 2329 1743 1236 1122 1002 897 789 710 625 583
1490.0 464 470 400 421 345 296 389 332 272 332
1530.0 344 295 310 224 308 334 322 252 258 357
1570.0 305 325 306 333 346 327 340 335 323 369
1610.0 359 396 417 494 579 683 815 909 1005 927
1650.0 808 532 532 425 386 329 325 353 370 375
1690.0 486 551 612 667 846 975 1076 1243 1679 2319
1730.0 3337 4759 6527 8078 9405 9837 9958 10000 9550 8830
1770.0 7592 5881 4269 3086 2325 1836 1400 1152 895 705
1810.0 586 472 404 348 301 276 256 252 238 196
1850.0 231 226 217 230 202 204 226 237 248 246
1890.0 261 263 261 272 254 250 244 205 216 203
1930.0 202 201 196 202 185 205 211 188 209 203
1970.0 196 212 211 217 209 220 226 215 236 234
2010.0 227 239 224 234 227 233 252 236 235 246
2050.0 214 219 204 199 190 180 193 180 179 188
2090.0 176 192 178 173 186 162 173 167 155 157
2130.0 157 169 143 148 165 144 149 147 130 134
2170.0 129 123 123 121 138 105 119 122 101 112
2210.0 103 100 109 97 108 89 96 109 83 95
2250.0 98 94 98 95 103 98 93 104 81 92
2290.0 86 66 77 45 46 34 14 14 20 32
2330.0 30 24 78 34 40 65 7 44 129 174
2370.0 205 179 173 119 103 104 78 86 93 87
2410.0 86 87 91 84 83 100 79 81 101 86
2450.0 95 89 94 101 85 102 85 82 98 86
2490.0 93 80 86 98 78 84 83 79 90 67
2530.0 89 76 68 92 75 81 89 84 93 93
2570.0 99 99 89 120 94 92 115 97 105 102
2610.0 104 101 90 107 94 75 98 91 92 99
2650.0 94 104 83 102 92 84 109 90 79 93
2690.0 84 98 79 91 108 79 103 84 90 100
2730.0 68 104 86 86 99 89 86 88 92 100
2770.0 69 104 89 69 112 88 90 99 103 115
2810.0 98 117 130 109 154 152 188 252 318 450
2850.0 514 568 544 418 340 276 224 242 228 252
2890.0 287 318 394 407 470 500 528 585 572 597
2930.0 637 651 720 802 949 1241 1779 2594 2911 2821
2970.0 2296 1407 938 744 688 737 828 955 1040 1065
3010.0 1023 901 860 820 809 811 774 687 571 494
3050.0 443 374 335 323 275 288 251 247 249 230
3090.0 247 218 226 237 220 269 261 230 232 176
3130.0 162 137 123 134 117 117 102 103 128 90
3170.0 95 106 88 91 87 85 87 82 99 64
3210.0 95 92 60 78 81 71 81 77 91 63
3250.0 75 96 66 90 83 73 93 62 87 68
3290.0 63 103 68 75 99 68 97 65 81 96
3330.0 71 82 65 78 92 74 99 75 57 105
3370.0 66 84 87 73 84 67 100 66 84 115
3410.0 68 64 109 66 93 86 105 86 79 122
3450.0 73 114 137 102 157 164 121 145 119 169
3490.0 121 108 167 135 132 161 130 133 127 115
3530.0 104 75 104 79 85 73 59 86 63 52
3570.0 65 57 62 78 69 49 64 80 67 53
3610.0 61 40 49 58 75 36 59 87 59 47
3650.0 34 39 38 85 49 11 24 30 59 45
3690.0 49 38 34 56 28 47 22 42 34 5
3730.0 28 12 8 34 7 7 29 31 56 42
3770.0 44 57 45 48 43 51 59 13 37 28
3810.0 25 64 14 23 64 60 65 29 55 33
3850.0 30 42 37 53 61 60 66 76 71 57
3890.0 45 83 59 65 102 89 99 76 86 93
3930.0 92 106 110 108 103 91 0 7 7 7
##END=
