##TITLE=Formamide, N,N-diethyl-
##JCAMP-DX=4.24
##DATA TYPE=INFRARED SPECTRUM
##ORIGIN=Sadtler Research Labs Under US-EPA Contract
##OWNER=NIST Standard Reference Data Program
##CAS REGISTRY NO=617-84-5
##MOLFORM=C 5 H 11 N O
##XUNITS=1/CM
##YUNITS=ABSORBANCE
##XFACTOR=1.0
##YFACTOR=0.000176956
##DELTAX=4.0
##FIRSTX=450.0
##LASTX=3966.0
##FIRSTY=0.000885
##MAXX=3966
##MINX=450
##MAXY=1.76956
##MINY=0
##NPOINTS=880
##XYDATA=(X++(Y..Y))
450.0 5 47 52 80 76 81 91 187 123 181
490.0 356 256 98 126 116 113 90 82 66 57
530.0 46 75 104 43 3 53 36 53 47 38
570.0 45 44 61 41 40 44 38 48 45 49
610.0 49 57 75 60 107 114 109 125 145 130
650.0 128 117 96 72 71 61 55 66 53 47
690.0 53 39 38 49 47 37 45 46 55 54
730.0 69 62 38 36 47 42 51 56 57 59
770.0 63 82 94 100 113 116 114 122 149 192
810.0 261 324 367 384 378 362 303 216 157 114
850.0 93 81 70 70 63 66 59 63 62 58
890.0 61 59 63 61 63 62 59 62 71 84
930.0 96 102 109 109 104 105 96 87 76 76
970.0 77 78 80 81 84 92 102 100 109 110
1010.0 109 109 109 109 109 116 125 131 143 157
1050.0 172 207 245 288 333 384 425 489 588 723
1090.0 937 1182 1392 1486 1556 1535 1380 1129 804 531
1130.0 365 272 228 198 182 174 171 166 165 163
1170.0 165 167 170 171 178 189 211 246 305 397
1210.0 517 637 734 799 824 809 792 759 796 937
1250.0 1101 1209 1236 1208 1118 937 737 556 440 381
1290.0 375 410 466 513 546 535 513 464 430 377
1330.0 335 322 294 349 424 481 552 625 678 777
1370.0 886 1011 1233 1473 1649 1720 1658 1555 1443 1309
1410.0 1158 1126 1049 1140 1142 1126 1012 926 833 743
1450.0 671 622 557 581 580 542 378 328 326 231
1490.0 144 168 120 118 60 14 64 48 7 75
1530.0 66 88 58 8 37 97 81 18 63 99
1570.0 91 93 108 108 147 129 141 126 140 132
1610.0 120 132 84 130 89 158 115 120 151 149
1650.0 110 144 235 267 300 324 348 504 635 1073
1690.0 2154 4020 6508 8019 8644 10000 8902 8070 5064 2377
1730.0 1017 495 361 295 214 175 185 169 152 165
1770.0 123 100 137 117 119 98 84 95 70 107
1810.0 97 91 99 89 73 55 75 88 62 42
1850.0 73 89 81 83 70 46 85 87 85 79
1890.0 66 72 78 82 80 78 74 73 58 78
1930.0 83 78 83 57 67 69 70 63 68 55
1970.0 62 71 71 70 75 62 63 78 79 77
2010.0 78 74 67 62 69 66 68 62 58 63
2050.0 62 60 62 57 46 55 58 60 60 62
2090.0 58 63 63 61 60 56 56 55 51 49
2130.0 47 50 48 48 45 46 49 47 46 49
2170.0 49 48 48 49 51 51 52 54 53 50
2210.0 51 54 54 52 48 48 46 46 44 43
2250.0 44 41 43 42 40 40 41 38 35 36
2290.0 36 36 35 34 33 34 38 37 39 32
2330.0 35 34 38 35 40 45 37 40 43 40
2370.0 43 44 36 36 32 32 29 29 32 31
2410.0 32 30 32 32 31 28 30 32 31 30
2450.0 27 26 24 22 20 21 20 17 21 23
2490.0 21 19 22 20 26 24 25 27 28 28
2530.0 27 24 23 21 17 16 17 14 11 13
2570.0 8 7 6 4 1 5 6 4 8 4
2610.0 8 11 11 12 15 19 16 14 15 21
2650.0 19 18 24 26 25 25 26 32 38 42
2690.0 49 59 72 78 82 86 79 77 81 77
2730.0 79 88 100 126 163 213 267 327 373 399
2770.0 403 383 353 316 284 267 257 257 271 287
2810.0 305 321 355 399 466 546 629 719 785 834
2850.0 848 831 787 741 693 674 677 694 723 743
2890.0 759 758 745 704 679 662 645 643 661 719
2930.0 800 935 1070 1179 1223 1197 1169 1108 1072 1123
2970.0 1333 1493 1763 2059 1845 1722 1484 1113 800 547
3010.0 376 270 208 166 141 126 115 106 101 94
3050.0 81 83 74 69 60 64 59 63 62 56
3090.0 59 57 64 64 69 63 62 57 56 57
3130.0 56 57 53 49 49 40 42 40 42 40
3170.0 39 42 38 42 36 37 32 35 24 21
3210.0 29 28 22 21 21 22 21 18 15 24
3250.0 16 16 20 24 24 24 12 25 30 21
3290.0 16 16 14 18 19 25 19 15 18 16
3330.0 12 19 18 23 21 26 22 21 21 17
3370.0 22 34 40 53 71 73 94 93 103 94
3410.0 90 66 38 31 15 17 15 12 16 4
3450.0 7 12 20 23 12 17 15 16 10 18
3490.0 13 7 13 12 7 12 6 17 16 14
3530.0 8 7 13 13 0 8 4 14 14 13
3570.0 13 8 10 10 12 19 21 17 22 17
3610.0 13 12 25 22 26 20 25 16 19 22
3650.0 18 26 27 19 21 18 20 21 22 13
3690.0 22 22 29 21 15 13 18 28 16 20
3730.0 25 40 21 24 26 32 28 16 20 33
3770.0 14 29 26 23 26 26 23 27 18 23
3810.0 20 29 28 15 17 21 10 28 10 20
3850.0 17 23 19 4 12 26 48 17 23 18
3890.0 13 34 32 28 23 19 23 22 28 27
3930.0 18 26 44 29 19 38 46 44 51 41
##END=
