##TITLE=Ethyl dibromoacetate
##JCAMP-DX=4.24
##DATA TYPE=INFRARED SPECTRUM
##ORIGIN=Sadtler Research Labs Under US-EPA Contract
##OWNER=NIST Standard Reference Data Program
##CAS REGISTRY NO=617-33-4
##MOLFORM=C 4 H 6 Br 2 O 2
##XUNITS=1/CM
##YUNITS=ABSORBANCE
##XFACTOR=1.0
##YFACTOR=0.000140863
##DELTAX=4.0
##FIRSTX=450.0
##LASTX=3966.0
##FIRSTY=0.009297
##MAXX=3966
##MINX=450
##MAXY=1.40863
##MINY=0
##NPOINTS=880
##XYDATA=(X++(Y..Y))
450.0 66 47 37 69 56 32 20 41 27 10
490.0 28 1 3 11 10 50 26 6 34 40
530.0 48 28 75 89 120 129 172 225 271 330
570.0 409 447 519 609 662 702 762 835 851 892
610.0 938 1007 963 864 701 559 479 420 385 361
650.0 347 340 351 379 390 409 416 455 487 560
690.0 697 875 1084 1177 1202 1072 879 658 489 370
730.0 308 272 249 224 207 191 189 205 213 241
770.0 283 346 433 537 603 605 536 409 295 222
810.0 187 155 144 126 116 114 111 130 152 189
850.0 229 311 435 540 571 511 366 230 146 95
890.0 69 58 52 54 68 68 82 111 164 215
930.0 273 303 303 284 248 223 188 150 117 102
970.0 90 86 87 99 120 144 176 226 306 418
1010.0 595 873 1261 1748 2284 2766 2978 2825 2310 1650
1050.0 1116 816 671 593 539 480 448 446 484 565
1090.0 705 880 1047 1172 1236 1289 1404 1636 2015 2641
1130.0 3542 4717 5787 6446 6228 5044 3842 2958 2291 1724
1170.0 1329 1111 1007 918 871 881 973 1117 1239 1296
1210.0 1218 1074 954 889 888 956 1103 1357 1790 2509
1250.0 3677 5334 7366 9006 10000 9796 8707 7189 5568 4242
1290.0 3279 2804 2627 2525 2286 1899 1427 1031 756 594
1330.0 493 414 376 323 278 259 257 291 400 651
1370.0 905 1040 944 691 484 450 464 479 440 388
1410.0 343 273 291 246 242 223 256 267 288 333
1450.0 389 422 453 430 458 512 567 523 408 329
1490.0 258 172 148 116 139 143 106 102 117 76
1530.0 76 62 79 106 84 61 69 117 88 64
1570.0 66 66 60 57 34 41 30 40 30 40
1610.0 41 36 65 42 62 32 54 61 42 50
1650.0 80 83 54 48 56 65 94 63 106 121
1690.0 104 109 175 209 236 275 350 409 407 438
1730.0 527 715 1043 1893 3602 5395 7873 7582 5447 4216
1770.0 3362 3734 4804 4145 2956 2021 1124 754 575 431
1810.0 353 286 236 187 166 144 122 100 103 107
1850.0 90 81 83 79 84 96 77 79 82 90
1890.0 96 88 80 65 57 46 41 36 35 26
1930.0 16 13 13 21 17 13 11 13 12 18
1970.0 14 10 14 16 15 23 27 29 30 27
2010.0 25 22 19 14 8 7 2 5 9 7
2050.0 7 6 9 11 13 9 6 7 8 7
2090.0 13 14 19 24 27 30 30 33 32 34
2130.0 33 34 30 24 24 20 17 13 12 8
2170.0 6 6 7 8 7 9 10 10 10 12
2210.0 9 11 10 12 11 12 11 13 13 11
2250.0 11 9 13 15 16 20 19 21 24 27
2290.0 29 30 33 34 31 28 30 28 36 32
2330.0 30 27 19 24 18 23 15 18 13 3
2370.0 11 13 14 12 12 15 14 18 22 24
2410.0 23 23 22 23 23 21 17 14 14 13
2450.0 11 9 12 12 14 15 13 12 9 9
2490.0 9 9 12 11 9 12 13 16 14 17
2530.0 15 11 11 13 11 8 8 6 6 4
2570.0 7 2 0 4 0 3 1 1 3 4
2610.0 5 2 2 4 5 4 3 6 3 3
2650.0 3 2 2 3 3 3 2 3 4 5
2690.0 4 6 5 6 7 8 8 9 7 8
2730.0 16 14 16 16 12 15 17 18 17 17
2770.0 20 22 30 32 34 31 27 26 23 24
2810.0 27 31 36 42 52 53 54 54 58 60
2850.0 66 73 81 90 102 118 134 167 211 250
2890.0 266 270 269 281 312 353 388 401 397 374
2930.0 374 411 491 610 717 736 683 582 518 546
2970.0 635 760 915 1183 1537 1790 1818 1553 1228 1001
3010.0 867 735 595 477 384 317 278 254 236 225
3050.0 191 146 105 75 63 58 54 53 49 47
3090.0 40 36 34 33 32 34 32 30 32 36
3130.0 35 33 33 32 31 32 31 31 28 25
3170.0 29 27 23 25 22 20 21 16 18 18
3210.0 18 14 18 18 17 16 10 10 9 10
3250.0 8 8 8 5 8 6 2 4 5 7
3290.0 8 4 10 7 8 9 7 1 7 6
3330.0 7 8 11 13 10 11 6 11 7 12
3370.0 11 10 11 11 14 12 19 13 15 13
3410.0 14 15 14 11 15 13 17 16 13 16
3450.0 12 19 17 22 13 17 23 40 53 65
3490.0 74 77 64 39 26 20 17 17 18 27
3530.0 39 48 50 44 25 18 14 10 13 26
3570.0 45 65 82 85 81 66 36 16 5 4
3610.0 4 3 0 5 7 8 11 6 6 7
3650.0 10 10 13 9 11 8 17 16 10 9
3690.0 11 10 7 10 12 17 7 8 14 9
3730.0 4 5 0 11 11 10 17 10 5 10
3770.0 10 16 10 12 8 8 20 25 14 14
3810.0 19 11 19 18 11 20 18 20 18 17
3850.0 11 17 21 20 18 16 14 13 9 18
3890.0 19 12 17 7 15 11 11 15 11 8
3930.0 7 15 16 11 0 0 9 12 12 10
##END=
