##TITLE=Pentanedioic acid, 2-methyl-
##JCAMP-DX=4.24
##DATA TYPE=INFRARED SPECTRUM
##ORIGIN=Sadtler Research Labs Under US-EPA Contract
##OWNER=NIST Standard Reference Data Program
##CAS REGISTRY NO=617-62-9
##MOLFORM=C 6 H 10 O 4
##XUNITS=1/CM
##YUNITS=ABSORBANCE
##XFACTOR=1.0
##YFACTOR=0.000102029
##DELTAX=4.0
##FIRSTX=450.0
##LASTX=3966.0
##FIRSTY=0.000000
##MAXX=3966
##MINX=450
##MAXY=1.02029
##MINY=0
##NPOINTS=880
##XYDATA=(X++(Y..Y))
450.0 0 60 138 105 335 217 287 260 283 295
490.0 364 472 505 516 538 607 653 697 797 801
530.0 933 990 1092 1110 1190 1389 1404 1634 1682 1831
570.0 1888 1915 1838 1867 1827 1733 1667 1569 1499 1399
610.0 1334 1289 1174 1108 1015 895 782 752 682 634
650.0 553 496 434 357 382 384 468 467 688 620
690.0 334 247 226 253 264 228 255 325 337 355
730.0 357 382 398 351 471 610 608 622 620 601
770.0 664 667 647 609 547 536 480 412 392 321
810.0 295 283 299 252 294 286 194 248 241 184
850.0 196 222 245 216 213 218 234 279 273 244
890.0 220 209 241 201 235 265 292 324 315 298
930.0 291 291 229 221 213 208 225 233 231 256
970.0 280 295 338 350 395 456 537 679 890 1248
1010.0 1466 1339 1225 1365 1448 1623 1791 1708 1621 1734
1050.0 1871 1999 2131 2277 2481 2735 2975 3186 3363 3584
1090.0 3788 4018 4246 4443 4761 5032 5036 5132 5240 5081
1130.0 4945 4999 4990 4919 4935 4719 4635 4397 4153 3846
1170.0 3423 2806 2352 1760 1286 991 742 683 598 834
1210.0 874 1018 1060 1096 1133 1271 1368 1359 1369 1362
1250.0 1320 1296 1252 1198 1047 1030 927 920 856 890
1290.0 802 818 805 833 835 766 772 831 927 887
1330.0 975 958 1017 1048 1072 1068 1079 1096 1071 1195
1370.0 1205 1288 1452 1533 1579 1500 1438 1271 1107 921
1410.0 711 581 532 484 490 526 518 604 612 679
1450.0 787 853 913 983 940 816 635 451 391 320
1490.0 237 218 186 169 197 145 229 166 183 198
1530.0 176 187 223 185 248 195 183 157 172 205
1570.0 237 227 206 231 206 202 284 243 320 278
1610.0 257 286 306 265 332 337 374 385 392 446
1650.0 469 558 551 565 636 616 743 765 806 902
1690.0 1015 1095 1185 1273 1266 1202 1290 1282 1332 1476
1730.0 1630 2017 2317 2816 3333 3746 4367 5073 6095 7490
1770.0 8670 9705 10000 9559 8469 7235 5865 4716 3752 2884
1810.0 2238 1746 1403 1178 982 866 716 562 440 312
1850.0 268 185 157 178 130 140 135 120 112 91
1890.0 99 99 114 101 101 86 81 73 88 100
1930.0 76 83 66 69 82 80 76 79 54 77
1970.0 71 64 85 82 75 93 81 75 65 69
2010.0 75 63 89 91 68 78 79 80 86 87
2050.0 72 101 85 93 82 67 63 76 86 76
2090.0 83 84 85 86 83 89 85 95 97 92
2130.0 101 100 86 74 99 97 77 77 83 93
2170.0 80 92 103 92 98 100 85 85 96 100
2210.0 84 87 96 88 86 85 82 91 75 86
2250.0 66 78 73 74 75 57 71 79 79 91
2290.0 102 112 121 137 146 137 137 129 142 126
2330.0 134 121 114 132 171 143 152 127 161 124
2370.0 113 112 136 134 110 80 70 64 70 73
2410.0 65 64 68 69 69 67 73 76 81 76
2450.0 75 72 77 79 85 86 78 80 78 80
2490.0 81 88 87 87 94 87 84 87 84 80
2530.0 82 77 82 82 80 82 79 82 79 85
2570.0 80 75 70 80 83 76 72 80 86 89
2610.0 73 79 78 80 88 79 77 85 80 79
2650.0 85 82 82 74 85 83 84 84 83 87
2690.0 84 81 89 94 92 94 93 99 96 97
2730.0 99 98 111 112 113 113 117 130 124 128
2770.0 125 135 120 131 135 132 131 130 134 146
2810.0 139 139 152 160 159 172 187 206 202 213
2850.0 232 251 266 295 324 367 407 455 497 529
2890.0 561 575 576 584 570 573 602 645 714 776
2930.0 851 929 1029 1105 1149 1140 1121 1097 1042 1015
2970.0 1023 1098 1199 1289 1363 1298 1124 880 646 450
3010.0 329 237 189 146 129 108 90 86 85 91
3050.0 91 87 94 93 77 83 94 100 108 114
3090.0 114 119 106 94 99 105 102 110 115 97
3130.0 99 98 114 118 121 115 118 101 114 117
3170.0 122 114 115 105 117 118 116 112 123 106
3210.0 101 99 85 89 97 94 90 99 88 88
3250.0 89 74 88 95 80 72 90 96 100 70
3290.0 69 74 74 80 88 82 100 87 90 91
3330.0 95 88 102 91 93 105 94 98 99 83
3370.0 86 102 104 92 96 108 107 100 84 93
3410.0 112 117 101 93 106 114 108 114 124 122
3450.0 114 123 131 141 144 150 142 147 173 156
3490.0 167 163 148 183 148 157 149 153 175 195
3530.0 204 216 236 259 282 355 444 664 1110 1986
3570.0 3139 3722 3741 3251 2194 1116 572 340 230 182
3610.0 167 163 150 114 120 126 94 92 75 79
3650.0 120 107 86 75 74 76 89 71 83 79
3690.0 86 91 57 82 77 82 93 92 106 122
3730.0 94 76 88 94 131 124 67 73 72 74
3770.0 94 82 117 84 72 71 52 71 97 96
3810.0 112 95 104 108 98 72 90 84 81 136
3850.0 104 125 74 69 128 96 101 91 84 61
3890.0 83 105 73 77 87 83 104 123 54 115
3930.0 152 107 96 59 119 119 72 52 96 101
##END=
