##TITLE=Benzenemethanol, .alpha.,.alpha.-dimethyl-
##JCAMP-DX=4.24
##DATA TYPE=INFRARED SPECTRUM
##ORIGIN=Sadtler Research Labs Under US-EPA Contract
##OWNER=NIST Standard Reference Data Program
##CAS REGISTRY NO=617-94-7
##MOLFORM=C 9 H 12 O
##XUNITS=1/CM
##YUNITS=ABSORBANCE
##XFACTOR=1.0
##YFACTOR=0.000073917
##DELTAX=4.0
##FIRSTX=450.0
##LASTX=3966.0
##FIRSTY=0.020549
##MAXX=3966
##MINX=450
##MAXY=0.73917
##MINY=0
##NPOINTS=880
##XYDATA=(X++(Y..Y))
450.0 278 261 121 296 250 114 403 328 260 239
490.0 160 257 179 119 139 149 226 200 156 324
530.0 425 542 815 1248 1845 2322 2775 2658 2324 2149
570.0 1557 1193 837 624 378 443 305 175 87 179
610.0 121 42 63 51 11 0 79 104 97 88
650.0 143 157 135 242 446 731 926 1223 1951 2783
690.0 3761 4822 6228 5608 4549 3591 2659 1811 1280 879
730.0 670 589 665 802 1215 1813 2407 3138 3842 3294
770.0 2508 1916 1261 785 475 235 226 107 44 5
810.0 29 16 65 69 76 129 165 229 374 566
850.0 832 1094 1242 1277 1173 941 690 613 504 481
890.0 417 475 496 496 575 643 696 665 733 889
930.0 1102 1442 1915 2490 3099 3341 3225 2879 2278 1555
970.0 1025 691 447 318 306 199 263 248 297 253
1010.0 334 454 721 1154 1550 1598 1581 1329 902 524
1050.0 484 607 780 1032 1253 1461 1624 1800 1938 2146
1090.0 2438 2791 3254 3604 3761 3666 3357 2913 2449 2086
1130.0 1903 1822 1864 2015 2268 2599 3014 3539 4126 4647
1170.0 4935 4897 4489 3791 3044 2335 1792 1370 1144 995
1210.0 971 959 1014 1105 1234 1378 1526 1713 1942 2268
1250.0 2647 2984 3150 3151 2923 2583 2244 2089 2043 2040
1290.0 2085 2159 2315 2524 2815 3138 3346 3416 3314 3065
1330.0 2724 2343 2080 1879 1791 1812 1999 2280 2582 2982
1370.0 3302 3193 3135 3016 2594 2190 1736 1224 855 669
1410.0 616 612 658 716 792 972 1225 1534 1860 1974
1450.0 2032 2031 1823 1538 1307 1119 1004 915 975 1290
1490.0 1717 1821 1814 1591 1178 564 296 242 228 235
1530.0 236 224 215 187 173 138 121 127 115 105
1570.0 113 134 150 191 254 377 548 666 739 718
1610.0 598 437 260 153 110 84 73 69 53 58
1650.0 75 83 102 113 146 169 180 166 166 167
1690.0 175 207 302 337 327 329 335 293 203 161
1730.0 166 188 194 186 199 204 173 158 121 98
1770.0 115 109 109 138 197 260 339 374 386 350
1810.0 290 223 157 127 107 86 62 48 48 59
1850.0 70 82 104 147 187 218 240 257 273 277
1890.0 254 215 182 135 100 87 77 83 93 117
1930.0 149 200 248 282 304 319 320 284 220 170
1970.0 124 70 43 40 37 33 33 21 18 23
2010.0 22 22 24 20 26 26 26 26 23 22
2050.0 20 19 19 20 18 18 17 18 14 16
2090.0 24 23 20 22 27 22 17 18 19 21
2130.0 17 19 17 9 13 11 9 13 12 16
2170.0 18 16 23 21 18 19 19 17 11 11
2210.0 22 19 22 21 29 35 31 24 24 20
2250.0 21 22 24 21 25 21 28 28 25 28
2290.0 29 29 31 35 44 48 60 60 67 57
2330.0 49 41 49 44 53 50 50 44 51 36
2370.0 24 22 23 18 21 14 12 16 20 21
2410.0 21 26 26 20 21 22 21 17 12 14
2450.0 11 8 8 1 11 8 8 15 11 9
2490.0 11 13 8 13 9 13 13 14 15 10
2530.0 11 17 12 10 15 16 14 13 21 19
2570.0 19 19 21 22 24 24 27 31 41 32
2610.0 23 27 32 35 33 38 42 44 38 36
2650.0 32 29 22 22 29 24 17 15 19 17
2690.0 23 23 24 26 30 36 39 38 46 51
2730.0 55 61 58 53 58 61 61 61 64 71
2770.0 72 72 69 61 68 64 76 82 105 127
2810.0 132 136 144 153 167 177 205 233 274 317
2850.0 378 452 549 688 852 1016 1158 1255 1313 1326
2890.0 1327 1344 1374 1442 1517 1614 1723 1848 2025 2259
2930.0 2557 2868 3066 3053 2876 2634 2420 2376 2768 3660
2970.0 5073 7039 8963 10000 9742 8423 6527 4311 2662 1750
3010.0 1322 1155 1209 1400 1703 2055 2377 2607 2655 2564
3050.0 2415 2294 2403 2868 3441 3774 3787 3574 3197 2637
3090.0 2242 2073 1901 1654 1338 1058 821 631 460 329
3130.0 231 176 141 121 119 113 106 114 111 118
3170.0 113 106 103 101 105 94 102 110 107 109
3210.0 93 93 95 89 80 73 74 66 70 66
3250.0 69 57 54 59 57 48 49 57 32 38
3290.0 44 43 45 42 43 39 32 38 40 44
3330.0 36 33 43 31 41 43 41 35 30 38
3370.0 39 46 38 51 33 42 49 37 46 36
3410.0 47 42 44 43 55 43 41 53 36 45
3450.0 30 28 45 37 28 24 19 25 20 16
3490.0 18 27 11 14 18 13 24 15 30 25
3530.0 18 18 34 29 21 19 2 31 22 27
3570.0 20 18 22 9 28 44 29 68 98 124
3610.0 164 252 358 514 717 970 1214 1317 1349 1270
3650.0 1111 861 648 430 285 212 141 112 103 77
3690.0 54 50 39 42 41 47 59 51 44 52
3730.0 38 25 50 41 56 46 34 12 18 24
3770.0 39 22 42 38 57 27 37 61 28 26
3810.0 56 37 34 7 10 29 47 43 41 40
3850.0 80 43 93 81 50 49 42 84 44 49
3890.0 61 59 47 52 47 87 76 35 44 37
3930.0 53 1 38 16 17 30 56 64 37 52
##END=
