##TITLE=2-Furancarbonitrile
##JCAMP-DX=4.24
##DATA TYPE=INFRARED SPECTRUM
##ORIGIN=Sadtler Research Labs Under US-EPA Contract
##OWNER=NIST Standard Reference Data Program
##CAS REGISTRY NO=617-90-3
##MOLFORM=C 5 H 3 N O
##XUNITS=1/CM
##YUNITS=ABSORBANCE
##XFACTOR=1.0
##YFACTOR=0.000118036
##DELTAX=4.0
##FIRSTX=450.0
##LASTX=3966.0
##FIRSTY=0.257200
##MAXX=3966
##MINX=450
##MAXY=1.18036
##MINY=0
##NPOINTS=880
##XYDATA=(X++(Y..Y))
450.0 2179 1312 1250 685 825 726 647 493 277 115
490.0 60 96 34 71 50 113 158 288 357 494
530.0 459 225 208 298 281 153 190 162 276 297
570.0 534 577 733 751 927 1558 1483 666 985 877
610.0 781 524 433 297 211 126 93 70 58 76
650.0 35 42 40 46 0 70 65 59 74 89
690.0 98 90 147 208 288 341 608 921 1465 2198
730.0 3118 3989 4582 4961 5255 10000 6139 5231 5758 4923
770.0 4337 3179 2219 1369 851 573 472 495 519 612
810.0 697 778 697 1033 1672 656 722 686 582 463
850.0 334 236 165 150 146 223 403 653 805 833
890.0 983 1102 1544 1341 961 880 1115 1327 1616 2032
930.0 2328 1662 1447 2262 2246 1603 1075 738 552 401
970.0 340 311 338 366 518 725 1014 1600 2581 3613
1010.0 3122 2334 2861 3525 2556 1647 956 762 668 494
1050.0 463 495 615 732 865 986 1081 830 817 1022
1090.0 902 650 449 358 292 233 191 202 191 220
1130.0 261 364 615 1081 1727 1622 1483 1395 1720 1577
1170.0 822 437 294 228 243 272 356 435 623 892
1210.0 1360 1980 2672 3129 3056 2900 3030 3298 2450 1581
1250.0 1013 646 418 278 189 121 116 115 166 168
1290.0 177 140 166 168 120 68 53 48 64 70
1330.0 57 64 37 41 57 59 62 59 64 74
1370.0 95 97 111 124 155 183 155 125 143 151
1410.0 101 89 32 56 50 72 78 120 212 301
1450.0 466 644 913 1216 1609 2152 2591 2532 1953 2345
1490.0 3115 2773 1998 1499 1283 1018 620 316 153 139
1530.0 114 110 103 86 135 221 308 423 659 806
1570.0 760 650 767 899 758 544 418 343 299 280
1610.0 313 345 312 264 293 419 438 418 400 331
1650.0 280 297 297 191 145 143 156 217 258 345
1690.0 402 376 336 461 559 531 445 385 420 432
1730.0 369 332 402 406 344 324 389 344 233 156
1770.0 98 77 75 59 52 39 26 32 27 48
1810.0 47 46 55 48 45 34 33 31 17 2
1850.0 15 25 23 23 14 2 19 23 22 18
1890.0 15 17 20 17 20 23 21 17 11 22
1930.0 24 25 30 25 27 35 39 38 33 22
1970.0 22 23 24 20 17 10 10 16 20 26
2010.0 35 38 42 50 46 49 57 53 44 40
2050.0 41 42 39 39 45 66 92 117 147 157
2090.0 142 139 144 127 88 57 43 44 44 48
2130.0 48 50 52 53 55 54 50 48 48 46
2170.0 44 38 36 37 34 34 38 44 55 79
2210.0 121 200 324 495 737 1063 1422 1713 1745 1673
2250.0 1613 1451 999 403 110 52 39 34 24 18
2290.0 16 19 25 25 28 28 24 23 19 14
2330.0 14 13 19 34 28 39 26 60 80 105
2370.0 97 118 114 122 127 132 132 131 126 105
2410.0 85 68 51 39 37 38 44 55 68 80
2450.0 84 91 91 77 62 47 29 12 5 5
2490.0 5 3 4 3 5 0 2 3 8 12
2530.0 16 21 31 46 58 63 67 66 56 60
2570.0 53 39 26 22 26 32 39 41 41 42
2610.0 44 53 60 65 73 77 73 74 75 70
2650.0 47 36 35 30 28 21 22 25 34 47
2690.0 65 85 106 125 127 119 108 101 82 46
2730.0 23 16 15 18 19 22 28 33 41 44
2770.0 44 45 54 68 88 111 130 146 153 159
2810.0 157 133 107 87 59 43 40 46 51 58
2850.0 69 72 71 67 67 61 45 35 28 25
2890.0 25 19 16 19 19 23 24 30 37 46
2930.0 52 62 69 71 71 66 60 55 56 54
2970.0 47 38 29 18 13 12 10 6 6 5
3010.0 7 6 9 6 5 9 9 9 8 11
3050.0 7 7 6 7 1 4 5 5 4 3
3090.0 6 7 8 13 21 35 51 69 100 134
3130.0 174 179 192 185 195 166 106 97 107 95
3170.0 79 64 58 45 35 26 18 7 4 3
3210.0 7 8 8 7 6 6 4 8 9 14
3250.0 11 11 12 11 13 9 9 9 9 12
3290.0 14 14 11 14 23 27 29 33 37 30
3330.0 26 18 15 12 9 8 8 8 9 10
3370.0 9 9 7 8 10 12 8 14 12 12
3410.0 8 13 11 13 13 14 10 10 17 21
3450.0 23 28 33 36 37 36 43 33 30 23
3490.0 12 8 1 6 0 2 7 8 19 14
3530.0 20 19 19 19 10 8 13 13 9 12
3570.0 19 21 25 20 20 19 24 10 18 28
3610.0 29 21 32 29 41 39 38 28 31 24
3650.0 16 21 15 19 25 22 26 31 27 39
3690.0 43 49 59 67 83 95 103 120 127 104
3730.0 100 93 81 49 48 33 32 26 27 34
3770.0 24 18 20 24 25 28 35 39 47 52
3810.0 44 40 60 52 46 45 37 28 27 31
3850.0 29 30 24 16 23 20 19 23 28 32
3890.0 32 25 17 17 27 29 29 13 16 26
3930.0 18 23 28 24 28 25 30 25 15 18
##END=
