##TITLE=3,5-Dichloronitrobenzene
##JCAMP-DX=4.24
##DATA TYPE=INFRARED SPECTRUM
##ORIGIN=Sadtler Research Labs Under US-EPA Contract
##OWNER=NIST Standard Reference Data Program
##CAS REGISTRY NO=618-62-2
##MOLFORM=C 6 H 3 Cl 2 N O 2
##XUNITS=1/CM
##YUNITS=ABSORBANCE
##XFACTOR=1.0
##YFACTOR=0.000142047
##DELTAX=4.0
##FIRSTX=450.0
##LASTX=3966.0
##FIRSTY=0.000000
##MAXX=3966
##MINX=450
##MAXY=1.42047
##MINY=0
##NPOINTS=880
##XYDATA=(X++(Y..Y))
450.0 0 14 32 81 65 55 52 49 23 74
490.0 44 44 27 38 46 47 53 39 37 26
530.0 35 14 34 17 48 42 36 51 44 64
570.0 61 57 42 32 31 17 45 25 28 19
610.0 36 28 50 46 43 39 58 72 118 221
650.0 304 476 561 330 274 137 75 56 47 41
690.0 26 47 48 71 70 79 78 93 146 236
730.0 471 792 1511 2193 2239 1989 1364 664 356 293
770.0 315 370 436 447 441 375 343 402 672 1273
810.0 2035 2541 2553 1931 981 448 275 228 224 223
850.0 230 264 328 442 642 853 1040 968 649 438
890.0 380 353 393 363 235 139 99 67 63 62
930.0 62 52 47 41 39 34 33 31 30 33
970.0 33 33 34 37 50 59 67 76 83 85
1010.0 89 105 119 133 134 131 121 105 90 90
1050.0 102 107 116 128 146 172 223 308 382 427
1090.0 462 480 465 430 336 212 144 110 101 101
1130.0 124 167 239 352 507 664 760 759 657 521
1170.0 427 392 372 321 252 176 124 109 112 120
1210.0 121 126 129 125 117 109 102 99 110 125
1250.0 127 125 129 152 171 179 198 240 313 375
1290.0 373 320 231 159 155 174 214 249 315 407
1330.0 619 1133 2116 3618 5053 5608 4950 3218 1516 628
1370.0 312 189 194 257 382 583 776 867 855 746
1410.0 602 531 456 508 572 688 736 726 647 499
1450.0 386 352 296 283 254 226 193 191 221 191
1490.0 218 339 513 751 944 1061 984 767 569 535
1530.0 583 881 1516 2848 5274 8205 10000 9213 7035 3615
1570.0 1969 1363 1062 838 719 709 782 781 669 466
1610.0 331 238 182 186 158 185 163 176 194 187
1650.0 131 99 88 70 55 41 19 39 13 5
1690.0 32 42 14 25 46 71 53 27 57 64
1730.0 45 27 63 76 82 90 130 147 165 185
1770.0 179 163 167 136 110 73 46 35 17 35
1810.0 28 27 32 27 20 13 19 29 17 9
1850.0 22 31 24 25 17 5 22 25 24 20
1890.0 19 22 25 32 32 34 31 26 18 24
1930.0 26 24 24 17 20 27 26 28 29 23
1970.0 26 29 28 28 27 23 22 25 23 19
2010.0 21 17 12 12 15 13 16 13 10 14
2050.0 16 14 14 12 9 12 14 13 13 13
2090.0 13 12 14 13 11 11 12 10 9 10
2130.0 10 9 7 9 9 9 7 9 8 9
2170.0 9 14 14 16 17 13 13 12 10 9
2210.0 11 9 8 9 8 8 6 6 6 7
2250.0 5 6 3 5 6 7 8 13 11 11
2290.0 11 15 19 25 24 28 26 23 27 25
2330.0 23 20 22 25 25 33 27 24 25 22
2370.0 15 18 27 25 20 15 12 9 7 7
2410.0 7 7 6 7 6 8 13 18 23 23
2450.0 22 22 16 9 8 9 12 8 7 10
2490.0 11 13 16 17 16 17 19 20 18 13
2530.0 12 10 10 8 10 11 12 14 15 15
2570.0 19 20 20 19 18 17 15 14 11 11
2610.0 11 12 10 14 14 14 17 16 16 18
2650.0 18 18 20 21 21 23 23 30 35 41
2690.0 44 40 38 28 26 22 19 23 25 28
2730.0 31 27 27 25 25 26 24 23 20 19
2770.0 21 18 21 19 20 18 18 18 19 23
2810.0 24 27 32 33 40 39 45 52 60 63
2850.0 70 70 67 61 53 52 55 64 76 94
2890.0 114 129 126 103 72 51 40 37 41 38
2930.0 41 47 47 52 53 50 42 43 44 44
2970.0 50 50 41 35 32 28 28 28 25 24
3010.0 23 23 19 20 15 15 16 16 15 15
3050.0 10 10 16 16 16 23 25 39 64 105
3090.0 179 287 402 465 433 328 197 99 64 56
3130.0 55 51 49 43 44 41 34 30 32 32
3170.0 30 28 30 29 27 23 19 15 17 14
3210.0 14 12 11 10 12 12 13 9 10 8
3250.0 7 6 13 13 13 16 11 11 8 12
3290.0 4 11 8 11 9 7 8 10 11 9
3330.0 10 15 11 7 8 6 7 10 11 6
3370.0 8 10 9 11 11 6 8 7 9 8
3410.0 13 11 13 18 12 13 12 11 7 9
3450.0 5 2 12 11 15 10 6 9 14 8
3490.0 5 11 8 8 8 13 16 14 9 10
3530.0 9 13 9 11 17 7 11 12 12 10
3570.0 10 11 9 9 10 8 10 9 11 10
3610.0 10 5 11 4 7 13 6 8 14 9
3650.0 8 13 12 10 12 11 2 8 7 7
3690.0 16 10 10 8 5 14 11 12 9 9
3730.0 16 21 12 10 21 6 8 9 6 3
3770.0 10 15 9 6 9 7 6 11 4 11
3810.0 9 10 8 8 10 15 14 20 15 7
3850.0 9 13 8 7 12 11 11 4 8 16
3890.0 10 11 9 9 15 10 10 9 4 13
3930.0 14 11 11 10 12 3 8 9 4 9
##END=
