##TITLE=Benzene, (dibromomethyl)-
##JCAMP-DX=4.24
##DATA TYPE=INFRARED SPECTRUM
##ORIGIN=Sadtler Research Labs Under US-EPA Contract
##OWNER=NIST Standard Reference Data Program
##CAS REGISTRY NO=618-31-5
##MOLFORM=C 7 H 6 Br 2
##XUNITS=1/CM
##YUNITS=ABSORBANCE
##XFACTOR=1.0
##YFACTOR=0.000062650
##DELTAX=4.0
##FIRSTX=450.0
##LASTX=3966.0
##FIRSTY=0.044231
##MAXX=3966
##MINX=450
##MAXY=0.6265
##MINY=0
##NPOINTS=880
##XYDATA=(X++(Y..Y))
450.0 706 790 814 798 835 849 793 695 744 716
490.0 674 655 672 709 717 685 575 202 40 360
530.0 255 334 553 673 745 762 737 749 879 1752
570.0 2402 2595 2179 1042 606 594 682 845 1286 1857
610.0 2376 2859 3195 3800 4427 4556 4363 4273 5060 6888
650.0 9081 9475 7260 4888 3514 3285 3968 5194 7035 9344
690.0 10000 9440 7167 4809 3545 2710 2076 1763 1380 1074
730.0 920 851 968 903 825 760 728 701 683 615
770.0 490 375 295 302 369 416 420 349 300 306
810.0 410 841 1737 2380 2416 1892 929 463 335 290
850.0 255 220 189 171 159 148 126 131 138 137
890.0 141 112 109 96 88 81 73 73 55 41
930.0 63 105 162 207 226 241 258 281 322 396
970.0 505 617 749 868 976 1097 1214 1206 1160 1187
1010.0 1133 1056 1037 1069 1234 1343 1347 1221 970 874
1050.0 838 793 853 981 1176 1339 1428 1317 1185 1102
1090.0 1089 1122 1161 1109 1001 912 846 833 857 954
1130.0 1143 1528 2518 4212 5537 5684 4727 2656 1530 1201
1170.0 1182 1213 1264 1292 1191 1099 1059 1059 1127 1323
1210.0 1688 2247 2873 3267 3439 3467 3087 2519 2110 1682
1250.0 1398 1298 1250 1224 1206 1196 1188 1200 1209 1177
1290.0 1106 998 913 855 852 879 920 953 971 983
1330.0 1026 1059 1101 988 889 802 751 725 710 710
1370.0 742 772 787 777 755 741 727 706 684 676
1410.0 667 689 735 821 897 925 847 920 1279 1627
1450.0 2097 2532 2356 1679 1180 803 671 641 656 783
1490.0 1118 1426 1436 1168 660 312 198 160 143 139
1530.0 90 72 41 17 21 18 12 1 19 32
1570.0 53 80 126 182 252 313 354 335 300 240
1610.0 180 127 76 51 27 36 29 42 62 70
1650.0 60 60 63 64 73 102 141 186 169 124
1690.0 80 50 43 78 132 239 384 503 549 590
1730.0 645 652 540 482 472 457 449 425 374 359
1770.0 371 268 183 183 251 330 369 342 261 178
1810.0 135 120 116 97 88 70 58 49 43 47
1850.0 50 57 70 102 144 200 240 242 205 205
1890.0 233 242 216 155 90 67 62 68 82 96
1930.0 118 161 229 291 322 275 239 253 284 277
1970.0 220 134 81 69 67 62 64 62 59 53
2010.0 48 44 41 41 41 44 45 50 56 62
2050.0 65 62 58 50 49 38 30 32 27 29
2090.0 26 27 26 23 24 27 24 25 27 25
2130.0 26 30 28 33 36 31 40 39 39 42
2170.0 41 42 42 41 40 34 38 39 41 45
2210.0 46 47 51 50 51 46 47 46 43 51
2250.0 57 61 65 63 65 67 73 89 89 88
2290.0 72 48 40 41 45 68 98 103 122 115
2330.0 103 96 83 97 103 94 84 69 84 68
2370.0 66 55 51 48 41 45 47 52 48 51
2410.0 51 52 50 54 58 65 71 72 76 82
2450.0 79 86 78 72 63 54 49 43 39 33
2490.0 38 33 38 40 45 43 45 47 48 44
2530.0 45 45 45 40 43 43 50 44 43 41
2570.0 39 36 36 31 33 36 41 39 42 46
2610.0 42 39 36 31 33 34 34 39 39 30
2650.0 28 22 17 24 27 21 31 38 31 27
2690.0 25 21 18 23 25 33 44 66 89 87
2730.0 81 83 79 53 25 10 4 1 3 4
2770.0 11 8 20 15 19 20 29 38 53 59
2810.0 62 67 72 69 67 60 58 45 39 26
2850.0 24 26 27 34 44 53 56 56 57 56
2890.0 55 58 67 76 80 84 86 90 86 93
2930.0 92 98 101 114 119 126 131 137 155 183
2970.0 204 213 215 218 200 183 165 159 164 198
3010.0 254 338 444 584 836 1245 1743 2157 2174 1825
3050.0 1427 1136 1138 1336 1746 2387 2970 3064 2761 2177
3090.0 1692 1588 1448 1175 988 857 746 589 399 225
3130.0 134 82 71 61 62 58 66 72 80 82
3170.0 83 86 74 69 56 51 45 41 43 43
3210.0 39 44 40 40 38 34 30 39 36 32
3250.0 36 34 32 40 43 36 39 38 33 30
3290.0 32 43 39 34 33 39 36 37 43 42
3330.0 34 33 30 31 27 34 32 27 33 30
3370.0 29 34 34 36 39 27 28 28 32 32
3410.0 27 32 29 29 23 22 25 25 23 19
3450.0 15 7 17 10 22 9 11 9 19 23
3490.0 18 10 6 15 17 29 27 17 13 11
3530.0 1 8 21 10 27 22 15 15 25 18
3570.0 30 53 66 85 89 97 78 54 27 20
3610.0 36 28 46 38 29 51 41 39 52 51
3650.0 57 34 38 36 21 27 24 20 47 41
3690.0 19 21 31 34 32 18 39 22 27 19
3730.0 10 7 17 1 7 1 5 11 5 3
3770.0 7 1 1 1 1 3 9 1 1 1
3810.0 1 1 1 1 1 4 1 1 3 1
3850.0 1 1 17 13 9 6 13 1 8 17
3890.0 9 28 18 28 2 1 1 12 22 18
3930.0 1 1 13 0 2 12 5 3 1 1
##END=
