##TITLE=Ethyl 3-nitrobenzoate
##JCAMP-DX=4.24
##DATA TYPE=INFRARED SPECTRUM
##ORIGIN=Sadtler Research Labs Under US-EPA Contract
##OWNER=NIST Standard Reference Data Program
##CAS REGISTRY NO=618-98-4
##MOLFORM=C 9 H 9 N O 4
##XUNITS=1/CM
##YUNITS=ABSORBANCE
##XFACTOR=1.0
##YFACTOR=0.000136765
##DELTAX=4.0
##FIRSTX=450.0
##LASTX=3966.0
##FIRSTY=0.000000
##MAXX=3966
##MINX=450
##MAXY=1.36765
##MINY=0
##NPOINTS=880
##XYDATA=(X++(Y..Y))
450.0 0 22 27 79 51 86 98 92 95 103
490.0 106 123 136 133 112 107 123 116 103 99
530.0 103 97 104 110 113 129 124 124 113 121
570.0 116 102 106 113 107 114 110 96 110 120
610.0 105 115 114 118 109 109 111 119 130 177
650.0 228 223 236 203 206 231 234 200 203 195
690.0 202 221 267 394 767 1556 2465 3421 3199 2286
730.0 1446 790 431 288 216 201 196 213 242 307
770.0 387 444 422 372 318 262 226 219 232 271
810.0 329 376 375 326 304 322 382 427 439 419
850.0 381 389 429 466 466 402 298 221 163 154
890.0 150 172 213 267 307 313 306 294 305 308
930.0 276 234 188 156 130 112 105 106 113 119
970.0 125 130 134 143 161 181 229 312 408 516
1010.0 657 812 937 938 814 641 494 382 304 278
1050.0 301 383 553 805 1051 1192 1230 1191 1180 1218
1090.0 1286 1328 1337 1306 1256 1268 1436 1849 2555 3454
1130.0 4198 4486 4133 3389 2529 1750 1212 939 818 750
1170.0 710 669 616 535 443 369 321 309 318 355
1210.0 408 487 576 676 792 900 1028 1200 1546 2189
1250.0 3470 5597 8411 10000 9349 6450 3526 2595 2993 3787
1290.0 4375 4328 4076 3203 2446 2139 1741 1301 930 745
1330.0 701 785 1054 1611 2590 3716 4336 4062 3018 2095
1370.0 1592 1263 963 687 550 493 441 405 367 341
1410.0 300 294 267 291 332 425 541 668 720 653
1450.0 528 437 406 427 482 569 638 724 733 676
1490.0 564 483 467 503 535 549 540 524 523 647
1530.0 846 1318 2025 3051 4345 4854 4624 3432 2116 1316
1570.0 886 749 722 756 778 740 684 592 558 564
1610.0 692 838 911 854 628 418 249 193 158 150
1650.0 130 146 154 155 136 103 99 109 118 118
1690.0 178 220 262 316 366 416 399 438 505 693
1730.0 1007 1844 3375 5327 6806 6630 5007 2808 1362 727
1770.0 425 340 323 321 315 275 246 205 171 136
1810.0 117 95 86 78 72 70 71 81 76 75
1850.0 77 81 76 74 71 62 68 63 59 48
1890.0 45 40 40 44 51 63 74 83 85 84
1930.0 76 63 53 45 46 49 55 58 64 65
1970.0 70 66 62 56 51 47 45 47 44 44
2010.0 39 38 36 34 33 33 33 32 33 33
2050.0 32 33 34 33 32 36 34 34 35 38
2090.0 36 36 36 36 34 33 35 33 36 38
2130.0 40 36 33 30 31 31 33 34 34 35
2170.0 33 31 26 24 22 22 22 24 23 22
2210.0 21 19 18 19 18 18 18 20 19 21
2250.0 21 23 23 26 25 24 26 26 24 25
2290.0 30 35 39 40 46 49 48 48 56 56
2330.0 61 69 62 82 73 66 81 68 86 81
2370.0 82 72 69 62 53 44 40 37 36 35
2410.0 35 37 36 36 35 34 34 34 36 34
2450.0 35 35 35 31 31 30 30 31 29 30
2490.0 30 29 27 26 26 23 26 25 23 24
2530.0 24 25 23 24 28 28 24 26 25 25
2570.0 26 26 27 27 28 27 27 27 27 27
2610.0 28 30 33 30 28 27 28 28 28 29
2650.0 27 28 28 26 27 26 29 31 33 34
2690.0 37 43 46 46 43 38 38 37 37 38
2730.0 43 41 46 45 44 46 45 45 45 46
2770.0 49 52 54 53 54 54 51 50 49 52
2810.0 51 55 59 67 72 74 78 80 82 86
2850.0 88 95 104 117 132 148 170 199 237 275
2890.0 293 292 283 279 284 293 300 301 295 286
2930.0 290 319 377 455 515 514 465 407 389 426
2970.0 490 565 664 854 1064 1139 1037 826 658 555
3010.0 464 389 317 260 210 173 146 131 119 112
3050.0 105 100 94 95 103 116 149 208 287 365
3090.0 398 389 320 230 162 114 91 75 66 55
3130.0 48 45 46 45 43 44 43 42 40 43
3170.0 44 45 45 46 45 41 43 41 40 38
3210.0 35 34 34 31 31 31 35 32 31 28
3250.0 25 26 27 26 27 27 25 25 23 24
3290.0 25 23 26 26 25 23 24 25 23 24
3330.0 27 25 28 25 26 24 27 27 23 27
3370.0 27 29 28 28 23 28 27 28 29 28
3410.0 28 26 25 22 30 28 24 26 30 30
3450.0 34 32 39 51 61 71 76 68 59 44
3490.0 34 29 29 24 21 23 27 26 30 28
3530.0 27 26 28 29 33 31 25 23 27 31
3570.0 28 30 28 29 34 33 34 29 31 31
3610.0 31 26 29 31 30 34 27 36 25 30
3650.0 27 23 31 24 31 26 27 22 29 35
3690.0 25 33 28 35 35 29 30 37 28 42
3730.0 28 33 32 38 19 40 26 32 37 32
3770.0 31 29 30 35 31 23 32 24 36 18
3810.0 35 20 21 18 24 29 21 18 23 31
3850.0 19 24 18 22 28 26 22 25 23 19
3890.0 30 24 31 23 33 18 29 18 18 18
3930.0 29 34 30 21 20 31 23 29 25 28
##END=
