##TITLE=3-Pyridineacrylic acid, methyl ester
##JCAMP-DX=4.24
##DATA TYPE=INFRARED SPECTRUM
##ORIGIN=Sadtler Research Labs Under US-EPA Contract
##OWNER=NIST Standard Reference Data Program
##CAS REGISTRY NO=61859-84-5
##MOLFORM=C 9 H 9 N O 2
##XUNITS=1/CM
##YUNITS=ABSORBANCE
##XFACTOR=1.0
##YFACTOR=0.000111560
##DELTAX=4.0
##FIRSTX=450.0
##LASTX=3966.0
##FIRSTY=0.029117
##MAXX=3966
##MINX=450
##MAXY=1.1156
##MINY=0
##NPOINTS=880
##XYDATA=(X++(Y..Y))
450.0 261 289 385 250 391 370 327 392 408 438
490.0 326 418 334 362 341 389 353 332 369 309
530.0 377 250 323 71 145 326 626 137 225 270
570.0 237 330 391 504 497 512 411 319 282 205
610.0 209 238 297 411 643 694 673 477 321 289
650.0 257 266 250 284 289 394 386 427 544 706
690.0 947 1044 1259 1207 1120 945 853 752 570 651
730.0 566 584 434 399 283 253 274 265 265 288
770.0 303 344 393 490 635 784 929 1106 1153 1056
810.0 947 817 669 601 557 588 634 676 681 652
850.0 631 628 615 569 566 530 499 451 441 405
890.0 399 396 361 361 349 341 338 366 407 468
930.0 508 523 511 456 450 451 496 574 716 903
970.0 1121 1345 1466 1450 1260 1038 841 720 710 871
1010.0 1155 1464 1731 1642 1507 1421 1459 1657 1778 1731
1050.0 1448 1084 803 635 539 486 463 460 473 487
1090.0 494 485 488 503 546 588 667 746 785 785
1130.0 747 704 711 809 1002 1401 2150 3591 5696 7611
1170.0 8668 8257 7126 6097 5252 4542 4197 3901 3709 3533
1210.0 3438 3450 3255 2931 2484 1994 1697 1691 1864 2276
1250.0 3025 4082 5212 5878 6200 5708 4796 3770 2865 2459
1290.0 2759 3539 4403 5138 5475 5580 5150 4288 3130 2160
1330.0 1666 1410 1207 1033 905 812 726 632 610 590
1370.0 565 528 497 477 451 465 473 543 688 992
1410.0 1419 1703 1710 1413 1096 1136 1543 2026 2165 1784
1450.0 1065 711 605 627 723 964 1145 1233 1056 750
1490.0 486 336 287 258 244 222 236 229 207 228
1530.0 220 237 218 230 271 341 407 483 644 752
1570.0 789 762 696 625 596 494 413 331 303 291
1610.0 312 374 416 571 733 1101 1539 2140 2473 2431
1650.0 1937 1409 1099 989 879 725 576 450 392 343
1690.0 403 457 525 632 754 939 1054 1338 1667 2309
1730.0 3168 4783 7099 9168 10000 9040 6595 4361 2872 2001
1770.0 1383 1039 833 661 528 383 314 242 218 187
1810.0 191 177 175 187 186 190 177 189 165 159
1850.0 159 160 155 156 160 134 146 137 151 154
1890.0 181 208 219 209 182 162 145 154 155 157
1930.0 144 133 122 108 117 123 134 118 113 89
1970.0 77 70 66 67 67 75 76 93 96 108
2010.0 108 112 113 116 118 106 98 78 74 68
2050.0 68 67 71 74 70 77 75 82 78 88
2090.0 86 93 100 106 106 98 95 80 71 62
2130.0 59 47 44 39 32 33 23 22 13 15
2170.0 12 10 7 4 3 1 2 1 7 8
2210.0 15 16 18 22 24 29 32 36 32 34
2250.0 31 28 24 23 22 21 22 24 31 35
2290.0 42 48 53 57 63 73 62 62 61 60
2330.0 57 57 47 67 71 73 83 67 97 73
2370.0 67 66 68 61 44 31 17 16 11 16
2410.0 10 9 10 9 8 8 10 6 10 10
2450.0 14 15 17 19 19 21 23 24 23 24
2490.0 24 26 25 28 28 31 32 30 32 28
2530.0 33 27 29 27 26 22 20 22 13 18
2570.0 21 24 26 30 35 38 41 38 41 38
2610.0 41 36 34 31 32 29 26 26 25 28
2650.0 30 36 33 33 29 28 27 23 25 20
2690.0 18 12 12 13 11 12 10 16 10 9
2730.0 5 12 8 10 14 16 15 14 18 13
2770.0 18 16 16 19 23 27 31 38 38 43
2810.0 42 48 51 53 59 70 94 116 178 256
2850.0 313 314 259 181 134 117 107 115 128 149
2890.0 172 205 231 253 273 292 312 313 308 294
2930.0 285 282 311 352 447 625 1006 1587 1889 1750
2970.0 1210 661 448 382 376 404 448 510 567 598
3010.0 610 623 625 655 728 868 1010 1063 1015 908
3050.0 911 1003 1015 911 714 550 509 548 616 650
3090.0 608 489 342 239 186 156 135 126 119 112
3130.0 113 109 101 87 73 62 58 50 47 43
3170.0 44 40 36 34 33 30 27 24 23 23
3210.0 23 22 21 25 24 23 21 22 23 24
3250.0 19 20 20 17 19 13 15 15 15 16
3290.0 15 21 18 21 19 21 23 21 21 19
3330.0 15 10 13 16 22 27 23 25 27 28
3370.0 29 34 34 37 38 29 28 29 28 25
3410.0 26 23 24 22 18 21 28 30 31 36
3450.0 36 51 58 70 85 86 90 87 79 55
3490.0 47 38 33 32 30 23 21 22 22 26
3530.0 20 23 20 22 33 26 23 23 26 23
3570.0 28 41 60 77 73 69 52 32 30 21
3610.0 28 24 21 22 24 31 25 32 21 25
3650.0 27 13 29 17 28 14 18 14 24 24
3690.0 8 22 13 24 20 12 24 23 17 25
3730.0 20 13 8 28 0 19 10 12 6 10
3770.0 9 14 14 17 9 8 14 3 8 1
3810.0 18 1 8 7 6 9 1 1 15 15
3850.0 6 8 9 10 15 10 5 10 18 8
3890.0 25 13 28 1 19 20 23 19 33 21
3930.0 22 28 0 12 13 20 15 21 20 9
##END=
