##TITLE=Benzenemethanol, 3-nitro-
##JCAMP-DX=4.24
##DATA TYPE=INFRARED SPECTRUM
##ORIGIN=Sadtler Research Labs Under US-EPA Contract
##OWNER=NIST Standard Reference Data Program
##CAS REGISTRY NO=619-25-0
##MOLFORM=C 7 H 7 N O 3
##XUNITS=1/CM
##YUNITS=ABSORBANCE
##XFACTOR=1.0
##YFACTOR=0.000050574
##DELTAX=4.0
##FIRSTX=450.0
##LASTX=3966.0
##FIRSTY=0.030395
##MAXX=3966
##MINX=450
##MAXY=0.50574
##MINY=0
##NPOINTS=880
##XYDATA=(X++(Y..Y))
450.0 601 472 217 317 344 262 195 194 192 150
490.0 207 153 152 169 160 114 99 94 82 117
530.0 82 69 80 45 0 46 51 37 62 66
570.0 71 92 106 124 131 177 221 238 220 208
610.0 120 114 93 41 28 10 17 22 21 42
650.0 45 91 136 355 582 989 1095 1179 1202 1092
690.0 970 872 766 688 636 651 773 982 1225 1575
730.0 2020 1880 1313 1034 710 406 260 179 134 118
770.0 103 107 134 206 327 577 996 1576 2002 1966
810.0 1649 1108 606 303 167 102 79 69 65 65
850.0 76 64 75 77 99 140 183 274 379 471
890.0 557 603 623 607 581 524 468 438 424 426
930.0 412 360 330 311 305 291 310 347 390 437
970.0 472 493 507 519 527 566 612 678 757 838
1010.0 909 1003 1122 1286 1502 1734 1957 2095 2176 2107
1050.0 1936 1701 1491 1290 1115 946 820 732 706 761
1090.0 854 925 923 815 627 435 315 255 221 214
1130.0 231 251 280 316 346 374 410 456 504 546
1170.0 588 627 656 703 752 802 857 913 963 982
1210.0 956 897 794 678 580 511 464 432 414 393
1250.0 365 333 229 172 295 470 584 671 768 845
1290.0 914 977 1012 1024 1038 1032 1032 1050 1120 1270
1330.0 1551 2066 2882 4123 5739 7338 8298 8306 7294 5464
1370.0 3768 2691 2064 1669 1371 1137 971 818 730 642
1410.0 581 525 460 464 468 520 564 644 664 649
1450.0 594 551 510 557 621 677 715 785 857 898
1490.0 943 1004 1055 1128 1175 1222 1336 1516 1831 2404
1530.0 3206 4436 6096 8002 9570 10000 9385 7927 5596 3610
1570.0 2386 1804 1560 1485 1472 1415 1329 1184 1011 825
1610.0 712 628 543 494 425 402 319 263 238 207
1650.0 154 164 168 160 137 106 60 64 20 7
1690.0 35 58 56 86 128 176 204 216 292 321
1730.0 307 275 247 191 136 129 136 138 127 147
1770.0 131 121 131 128 136 123 113 121 124 139
1810.0 136 137 142 125 112 96 99 92 83 76
1850.0 86 96 98 98 91 81 92 92 92 91
1890.0 100 115 131 136 122 109 93 79 61 66
1930.0 65 66 78 83 98 110 113 110 101 83
1970.0 71 69 60 56 53 47 50 55 53 56
2010.0 49 46 44 49 49 51 51 51 50 48
2050.0 47 48 48 49 43 50 52 51 47 44
2090.0 45 43 41 38 39 34 34 27 27 24
2130.0 17 20 18 12 17 20 16 15 19 17
2170.0 14 13 13 16 18 15 16 9 11 7
2210.0 9 3 6 4 2 1 3 7 12 8
2250.0 11 14 18 15 14 13 9 11 3 8
2290.0 6 6 2 13 8 9 23 22 33 43
2330.0 51 60 58 82 60 66 62 59 73 70
2370.0 58 57 63 52 38 34 32 32 28 28
2410.0 27 22 21 22 24 28 28 35 40 46
2450.0 48 41 37 35 33 25 25 22 22 21
2490.0 18 18 20 17 20 17 19 22 24 22
2530.0 17 15 19 18 30 25 22 21 25 26
2570.0 28 29 28 30 26 31 29 25 18 16
2610.0 17 18 22 22 24 30 28 32 34 32
2650.0 29 35 32 37 33 33 36 41 42 44
2690.0 51 52 56 57 63 62 62 65 63 69
2730.0 69 59 57 57 59 54 61 55 62 69
2770.0 73 72 83 81 94 101 118 126 129 133
2810.0 149 160 169 181 190 200 228 247 271 300
2850.0 333 372 416 472 539 611 705 815 907 963
2890.0 978 959 913 860 809 774 737 717 704 701
2930.0 712 709 702 680 658 614 559 493 424 367
2970.0 338 310 279 242 203 179 154 137 124 122
3010.0 122 129 143 154 166 182 189 198 199 205
3050.0 198 189 197 231 295 377 442 472 472 440
3090.0 368 297 243 192 151 98 55 45 25 30
3130.0 22 20 10 18 12 12 14 11 19 9
3170.0 8 5 8 11 11 16 13 24 24 28
3210.0 28 16 16 16 14 16 23 16 16 14
3250.0 18 26 17 20 16 11 21 12 13 20
3290.0 15 11 16 7 17 14 16 16 16 13
3330.0 9 12 11 11 18 16 20 18 18 19
3370.0 17 26 22 17 22 17 17 21 24 19
3410.0 23 21 30 17 24 14 17 22 19 18
3450.0 33 34 22 13 16 22 21 20 17 19
3490.0 20 19 19 12 23 15 12 17 14 6
3530.0 9 2 14 13 16 22 3 14 12 18
3570.0 37 14 27 30 30 47 26 37 30 54
3610.0 82 79 97 122 149 181 226 293 349 431
3650.0 549 632 726 770 787 733 669 572 474 403
3690.0 302 249 189 154 117 73 75 62 62 60
3730.0 32 38 38 26 21 15 8 4 10 26
3770.0 11 12 1 9 6 15 10 1 1 1
3810.0 12 1 1 5 10 20 7 4 1 4
3850.0 3 7 17 7 12 2 1 5 32 22
3890.0 6 5 17 21 22 24 29 18 22 12
3930.0 1 4 8 17 40 23 10 24 30 10
##END=
