##TITLE=Ethanone, 2-bromo-1-(4-methylphenyl)-
##JCAMP-DX=4.24
##DATA TYPE=INFRARED SPECTRUM
##ORIGIN=Sadtler Research Labs Under US-EPA Contract
##OWNER=NIST Standard Reference Data Program
##CAS REGISTRY NO=619-41-0
##MOLFORM=C 9 H 9 Br O
##XUNITS=1/CM
##YUNITS=ABSORBANCE
##XFACTOR=1.0
##YFACTOR=0.000036169
##DELTAX=4.0
##FIRSTX=450.0
##LASTX=3966.0
##FIRSTY=0.011213
##MAXX=3966
##MINX=450
##MAXY=0.36169
##MINY=0
##NPOINTS=880
##XYDATA=(X++(Y..Y))
450.0 310 327 478 513 404 419 362 197 196 162
490.0 144 149 206 286 221 256 344 375 349 386
530.0 330 293 253 175 217 288 376 500 764 894
570.0 982 1086 921 910 1206 1367 1319 1120 772 648
610.0 543 485 472 380 368 284 228 196 133 184
650.0 162 241 329 522 696 957 1079 1096 1015 832
690.0 663 525 386 253 203 178 186 177 153 124
730.0 137 155 212 265 285 275 271 222 184 209
770.0 155 191 162 225 298 438 615 861 1083 1273
810.0 1672 1802 1548 1515 1346 1079 846 700 575 436
850.0 326 250 160 111 78 62 27 13 7 13
890.0 7 14 18 38 39 38 40 25 49 95
930.0 146 218 399 605 835 974 1008 910 718 565
970.0 527 553 564 570 568 578 611 718 916 1276
1010.0 1699 1819 1552 1123 864 651 470 340 310 287
1050.0 280 274 283 330 382 467 486 509 456 396
1090.0 338 288 298 340 405 459 508 508 468 425
1130.0 359 288 228 214 210 226 271 325 429 584
1170.0 875 1466 2355 2862 2907 2425 1633 1256 1290 1305
1210.0 1299 1288 1359 1496 1674 1815 1914 2035 2236 2713
1250.0 3738 5338 6975 7927 8263 7496 6149 5274 4478 3443
1290.0 2391 1526 1072 884 845 894 916 853 620 459
1330.0 429 452 535 634 807 1146 1631 1980 2128 2011
1370.0 1540 1053 793 689 680 711 790 948 1110 1287
1410.0 1372 1364 1351 1403 1618 1671 1480 1138 796 614
1450.0 532 475 445 410 341 355 322 308 272 321
1490.0 322 355 366 378 392 415 378 345 349 324
1530.0 322 317 370 374 408 421 444 472 563 657
1570.0 753 817 836 818 863 1029 1385 1864 2452 2954
1610.0 3141 2953 2423 1773 1231 897 703 593 499 499
1650.0 455 552 568 598 689 804 1000 1432 2126 3344
1690.0 5189 7302 9352 10000 9719 8067 6055 3747 2590 1741
1730.0 1272 840 656 562 493 538 552 580 530 524
1770.0 412 301 207 195 163 168 171 174 197 173
1810.0 142 113 88 46 51 17 24 11 12 16
1850.0 7 6 12 10 19 22 33 37 63 75
1890.0 94 104 118 110 109 113 109 124 112 117
1930.0 104 110 99 89 82 72 56 41 38 29
1970.0 19 14 19 12 11 22 27 34 29 37
2010.0 34 35 46 48 59 57 71 72 90 92
2050.0 90 89 83 82 70 73 62 50 42 38
2090.0 25 33 23 27 26 21 26 17 20 21
2130.0 15 9 9 11 10 6 8 17 8 16
2170.0 21 25 20 19 18 18 19 18 15 11
2210.0 10 2 7 6 1 4 10 18 14 26
2250.0 26 37 38 45 57 57 71 76 91 98
2290.0 112 129 155 166 172 192 175 160 165 154
2330.0 122 126 112 124 143 142 152 123 162 106
2370.0 113 93 112 120 82 52 43 41 39 43
2410.0 36 45 37 34 35 32 47 30 32 29
2450.0 36 45 29 38 26 45 36 37 35 44
2490.0 38 40 37 39 42 52 49 51 54 61
2530.0 50 55 61 55 58 59 58 67 69 77
2570.0 78 80 90 101 92 101 97 97 89 84
2610.0 81 69 80 95 79 72 78 82 70 75
2650.0 93 78 71 69 72 62 68 79 79 76
2690.0 82 80 78 91 91 83 90 98 97 101
2730.0 103 112 125 125 137 136 123 109 114 105
2770.0 108 114 118 113 118 119 117 132 129 136
2810.0 144 141 158 157 173 167 183 192 209 225
2850.0 237 255 304 366 444 505 562 611 636 619
2890.0 600 563 530 511 520 527 557 626 742 916
2930.0 1121 1264 1312 1225 1064 882 768 694 671 679
2970.0 699 756 818 838 837 819 830 844 898 973
3010.0 1048 1090 1101 1128 1208 1377 1563 1664 1624 1428
3050.0 1195 1067 973 898 862 835 808 771 741 722
3090.0 728 692 636 533 429 359 319 288 263 241
3130.0 223 196 171 151 127 116 106 93 100 79
3170.0 77 76 74 67 61 58 48 52 51 51
3210.0 54 56 49 52 55 61 56 50 43 48
3250.0 57 51 60 56 50 38 33 48 41 38
3290.0 29 38 21 26 33 25 24 23 9 24
3330.0 38 27 22 21 23 25 34 43 54 83
3370.0 95 101 128 141 138 148 120 112 83 46
3410.0 46 30 32 14 21 36 31 28 15 12
3450.0 15 16 14 20 20 9 16 17 39 24
3490.0 16 19 7 30 44 14 40 17 36 46
3530.0 32 19 26 31 42 45 54 37 20 68
3570.0 76 64 91 114 135 120 82 22 41 36
3610.0 45 22 29 27 36 67 36 4 20 24
3650.0 48 20 24 6 0 51 8 78 19 39
3690.0 10 29 29 8 27 25 42 26 41 52
3730.0 61 52 61 54 91 25 39 2 19 25
3770.0 26 36 18 46 11 9 24 13 18 45
3810.0 16 34 29 43 24 40 48 56 43 34
3850.0 45 60 53 66 72 67 26 6 57 47
3890.0 33 32 28 49 65 18 41 48 19 30
3930.0 20 29 22 22 9 53 38 16 36 3
##END=
