##TITLE=Benzenamine, N,N-dimethyl-3-nitro-
##JCAMP-DX=4.24
##DATA TYPE=INFRARED SPECTRUM
##ORIGIN=Sadtler Research Labs Under US-EPA Contract
##OWNER=NIST Standard Reference Data Program
##CAS REGISTRY NO=619-31-8
##MOLFORM=C 8 H 10 N 2 O 2
##XUNITS=1/CM
##YUNITS=ABSORBANCE
##XFACTOR=1.0
##YFACTOR=0.000137543
##DELTAX=4.0
##FIRSTX=450.0
##LASTX=3966.0
##FIRSTY=0.018843
##MAXX=3966
##MINX=450
##MAXY=1.37543
##MINY=0
##NPOINTS=880
##XYDATA=(X++(Y..Y))
450.0 137 75 54 55 43 54 23 53 20 43
490.0 42 47 27 54 57 51 66 54 61 41
530.0 30 57 48 69 84 101 92 85 82 64
570.0 37 41 19 20 9 33 31 12 22 15
610.0 26 4 10 15 24 12 10 31 38 64
650.0 84 145 211 329 359 486 607 586 505 401
690.0 294 211 147 120 106 122 145 239 392 607
730.0 808 1121 1200 902 665 455 289 317 528 901
770.0 1180 1338 1284 1057 795 536 344 229 157 127
810.0 122 121 107 94 82 76 87 111 156 221
850.0 306 410 497 574 746 999 1068 1051 836 445
890.0 226 151 109 85 63 56 50 53 48 58
930.0 63 72 86 104 138 183 274 392 524 586
970.0 556 464 337 287 394 671 897 951 883 602
1010.0 346 253 224 218 216 208 204 193 201 231
1050.0 283 341 395 430 447 431 400 356 320 297
1090.0 278 270 259 254 242 225 209 196 198 201
1130.0 214 226 240 253 277 311 369 456 569 651
1170.0 694 736 781 826 846 820 742 655 638 682
1210.0 777 889 996 1058 1051 973 842 687 553 453
1250.0 385 347 328 327 329 332 342 356 379 403
1290.0 434 465 503 548 595 649 719 804 913 1078
1330.0 1327 1730 2392 3408 4739 6011 6698 6475 5308 3724
1370.0 2404 1581 1119 881 756 671 604 530 468 418
1410.0 398 392 398 416 434 484 573 742 919 1026
1450.0 1015 930 802 726 717 749 818 933 1149 1456
1490.0 1848 2248 2532 2646 2528 2282 2031 1843 1805 2066
1530.0 2755 4159 6324 8706 10000 9830 8204 5633 3467 2525
1570.0 2259 2284 2187 1958 1558 1144 938 850 892 1024
1610.0 1292 1618 1903 1977 1846 1491 1103 782 587 466
1650.0 386 347 310 280 246 213 175 146 126 111
1690.0 106 101 104 101 102 100 100 93 94 93
1730.0 88 91 90 91 85 83 79 79 75 75
1770.0 69 63 59 52 49 42 38 33 27 22
1810.0 20 24 26 30 31 34 39 47 49 50
1850.0 48 40 34 30 30 29 33 29 27 24
1890.0 23 24 22 26 29 36 44 57 61 60
1930.0 56 44 30 21 16 12 12 12 12 10
1970.0 8 6 6 6 3 2 1 2 3 5
2010.0 5 8 10 8 7 5 4 1 0 0
2050.0 1 1 1 2 2 3 2 4 4 4
2090.0 5 8 8 9 13 13 16 17 21 20
2130.0 19 15 13 10 9 7 8 6 5 6
2170.0 6 4 5 3 4 3 4 2 4 3
2210.0 3 4 4 5 8 9 7 7 8 10
2250.0 10 12 16 17 21 20 22 23 23 24
2290.0 24 22 28 30 30 34 30 24 28 25
2330.0 18 14 16 15 30 35 23 24 11 9
2370.0 15 17 30 33 28 22 20 18 17 17
2410.0 15 17 18 19 17 18 18 21 24 27
2450.0 29 30 31 29 26 24 23 23 20 18
2490.0 18 19 20 22 21 24 25 29 29 32
2530.0 36 37 37 37 36 35 36 35 35 36
2570.0 38 39 41 42 43 44 44 49 51 54
2610.0 57 62 63 64 64 64 62 62 62 60
2650.0 60 61 62 63 64 68 70 74 77 79
2690.0 81 85 87 88 89 86 87 86 84 87
2730.0 86 88 90 96 106 116 129 144 162 184
2770.0 212 238 274 310 360 423 501 596 707 824
2810.0 925 979 979 932 847 767 707 677 681 709
2850.0 754 805 850 890 917 933 947 958 972 987
2890.0 995 996 988 972 957 932 913 902 898 903
2930.0 910 922 935 947 954 957 948 931 900 864
2970.0 825 787 756 734 714 704 686 656 613 555
3010.0 495 434 384 340 305 282 268 263 267 275
3050.0 280 284 278 267 252 244 242 255 271 297
3090.0 320 329 313 274 225 169 133 109 93 80
3130.0 71 59 47 41 40 35 36 32 34 28
3170.0 28 28 27 28 27 27 25 27 24 23
3210.0 24 21 19 19 16 17 17 18 16 17
3250.0 15 15 14 14 14 13 16 14 12 11
3290.0 12 15 12 7 12 11 14 10 10 12
3330.0 14 12 10 12 14 12 11 10 10 11
3370.0 12 14 8 12 8 11 16 10 11 14
3410.0 15 13 11 13 13 13 11 12 16 15
3450.0 18 22 24 21 21 23 18 17 17 16
3490.0 16 16 13 12 16 18 11 10 14 15
3530.0 8 7 11 16 11 10 10 15 13 9
3570.0 13 10 11 10 8 12 9 4 4 8
3610.0 10 13 7 6 17 17 15 13 14 11
3650.0 9 14 10 17 16 5 10 9 14 10
3690.0 15 9 12 11 12 11 10 13 12 14
3730.0 14 14 20 10 15 6 4 14 10 8
3770.0 7 13 12 15 17 12 3 9 11 11
3810.0 6 7 4 6 14 8 9 8 4 7
3850.0 8 12 17 8 15 9 20 18 0 4
3890.0 13 15 11 10 11 12 17 16 9 14
3930.0 8 7 15 7 11 13 13 10 6 15
##END=
