##TITLE=Benzonitrile, 4-nitro-
##JCAMP-DX=4.24
##DATA TYPE=INFRARED SPECTRUM
##ORIGIN=Sadtler Research Labs Under US-EPA Contract
##OWNER=NIST Standard Reference Data Program
##CAS REGISTRY NO=619-72-7
##MOLFORM=C 7 H 4 N 2 O 2
##XUNITS=1/CM
##YUNITS=ABSORBANCE
##XFACTOR=1.0
##YFACTOR=0.000082022
##DELTAX=4.0
##FIRSTX=450.0
##LASTX=3966.0
##FIRSTY=0.005003
##MAXX=3966
##MINX=450
##MAXY=0.82022
##MINY=0
##NPOINTS=880
##XYDATA=(X++(Y..Y))
450.0 61 105 95 98 86 46 7 6 40 45
490.0 70 64 82 103 139 149 240 335 423 506
530.0 743 928 795 773 645 444 417 599 731 700
570.0 655 383 179 142 136 128 128 146 125 119
610.0 96 92 51 58 56 72 78 88 82 95
650.0 103 114 140 255 343 506 597 703 850 631
690.0 619 520 392 307 222 202 139 126 128 172
730.0 275 430 685 773 1102 1397 950 1038 949 794
770.0 666 513 395 296 279 233 255 292 341 339
810.0 313 286 255 302 372 527 689 997 1547 2688
850.0 4315 5285 5749 4899 2942 1726 1072 619 337 200
890.0 142 101 91 87 98 91 100 102 109 106
930.0 91 69 55 35 24 31 29 25 30 25
970.0 12 6 7 4 8 9 17 15 75 212
1010.0 557 822 798 758 450 147 83 59 51 47
1050.0 54 61 79 112 157 200 226 235 242 286
1090.0 393 537 689 827 754 656 538 313 171 106
1130.0 81 74 78 83 76 72 55 50 53 92
1170.0 143 200 245 238 196 153 111 96 93 108
1210.0 124 137 153 158 164 164 159 139 123 112
1250.0 123 161 221 314 455 645 868 1050 1112 1119
1290.0 1074 930 785 707 613 546 602 650 806 1211
1330.0 2047 3600 5963 8513 9872 10000 8477 6044 4101 2990
1370.0 2163 1369 898 679 546 445 395 379 378 396
1410.0 428 466 525 584 612 600 531 454 361 274
1450.0 204 189 202 218 282 400 621 892 1208 1519
1490.0 1630 1650 1485 1206 1015 960 1095 1489 2146 3171
1530.0 4485 6193 7950 9088 9179 9118 8233 6232 4273 2913
1570.0 2033 1618 1476 1578 1848 2226 2698 3165 3380 3214
1610.0 2816 2255 1672 1151 774 514 367 293 260 258
1650.0 257 267 257 248 241 231 229 217 225 210
1690.0 191 175 156 106 80 61 50 50 38 37
1730.0 34 46 36 32 31 35 30 28 28 29
1770.0 36 41 54 74 108 152 193 212 197 154
1810.0 102 61 42 41 40 36 34 31 29 22
1850.0 16 13 16 19 21 15 13 12 16 16
1890.0 20 26 35 53 70 95 124 156 174 186
1930.0 189 176 148 112 83 51 33 20 14 11
1970.0 11 10 7 5 4 7 4 1 2 1
2010.0 0 3 4 1 0 2 4 1 3 6
2050.0 3 6 8 4 3 3 6 3 5 6
2090.0 5 8 8 8 11 9 10 14 10 12
2130.0 8 7 6 7 5 3 2 2 2 1
2170.0 1 3 4 6 5 9 7 9 14 16
2210.0 16 18 20 30 47 76 96 105 100 72
2250.0 42 24 20 22 27 31 40 52 62 67
2290.0 72 68 66 61 63 63 60 56 68 55
2330.0 50 44 40 53 49 62 69 59 57 44
2370.0 46 42 45 48 43 40 35 35 33 28
2410.0 24 18 21 19 18 19 26 31 42 49
2450.0 54 55 54 47 42 35 27 25 20 18
2490.0 19 14 12 11 10 13 11 13 10 10
2530.0 9 6 5 3 3 4 7 7 11 12
2570.0 17 14 13 15 16 18 21 20 23 19
2610.0 20 21 24 18 15 12 14 15 14 15
2650.0 20 23 26 29 40 49 60 74 88 97
2690.0 99 100 100 97 89 81 70 55 47 40
2730.0 33 32 33 32 32 33 36 38 43 45
2770.0 51 55 60 60 58 54 53 53 45 41
2810.0 42 41 38 37 44 46 49 56 59 60
2850.0 70 82 97 120 150 177 203 229 235 232
2890.0 218 191 158 130 109 95 86 81 76 78
2930.0 80 90 96 98 106 99 93 88 81 74
2970.0 66 60 47 41 36 36 35 35 33 35
3010.0 29 28 27 24 20 22 27 20 25 32
3050.0 40 46 49 55 56 68 89 115 162 227
3090.0 290 296 277 221 143 109 101 87 68 52
3130.0 38 24 20 17 9 6 11 13 12 7
3170.0 5 11 8 8 7 9 15 20 18 18
3210.0 14 11 15 12 12 14 8 5 9 10
3250.0 6 8 10 9 8 7 5 7 5 8
3290.0 12 7 7 7 11 4 10 11 14 9
3330.0 7 9 4 8 8 5 5 7 8 11
3370.0 8 12 15 5 8 13 16 12 16 21
3410.0 22 25 25 30 34 35 35 27 21 12
3450.0 11 12 13 10 7 9 5 7 11 6
3490.0 13 15 17 11 6 3 10 15 8 3
3530.0 11 13 18 15 11 13 13 8 9 8
3570.0 15 11 10 7 14 20 15 6 6 13
3610.0 12 9 12 11 14 21 20 14 18 23
3650.0 16 19 11 13 17 12 26 10 7 11
3690.0 14 16 14 18 17 19 19 24 24 21
3730.0 25 29 30 23 25 19 21 28 14 26
3770.0 16 8 13 8 9 9 17 13 17 13
3810.0 11 11 12 18 14 22 9 14 11 18
3850.0 23 27 15 17 19 20 20 25 14 15
3890.0 24 17 19 25 22 14 14 25 14 8
3930.0 14 13 14 16 3 7 25 20 5 5
##END=
