##TITLE=Ethane, 1,1-dichloro-2,2-diethoxy-
##JCAMP-DX=4.24
##DATA TYPE=INFRARED SPECTRUM
##ORIGIN=Sadtler Research Labs Under US-EPA Contract
##OWNER=NIST Standard Reference Data Program
##CAS REGISTRY NO=619-33-0
##MOLFORM=C 6 H 12 Cl 2 O 2
##XUNITS=1/CM
##YUNITS=ABSORBANCE
##XFACTOR=1.0
##YFACTOR=0.000062134
##DELTAX=4.0
##FIRSTX=450.0
##LASTX=3966.0
##FIRSTY=0.004784
##MAXX=3966
##MINX=450
##MAXY=0.62134
##MINY=0
##NPOINTS=880
##XYDATA=(X++(Y..Y))
450.0 77 85 62 36 33 38 47 43 42 52
490.0 35 56 63 39 95 103 68 62 52 25
530.0 41 13 70 14 15 0 46 65 64 48
570.0 57 55 107 71 106 144 140 145 121 135
610.0 80 69 75 69 91 109 183 246 330 322
650.0 332 300 266 220 194 223 163 137 117 126
690.0 137 147 185 223 257 332 384 400 399 313
730.0 279 251 309 312 389 501 690 987 1333 1651
770.0 2018 2414 2898 3423 3653 3538 3245 2781 2263 1818
810.0 1418 982 630 458 373 357 388 412 416 363
850.0 300 242 197 194 179 183 199 266 339 436
890.0 518 589 608 557 497 410 359 311 258 219
930.0 187 168 160 160 153 170 188 227 265 326
970.0 386 440 458 453 427 435 476 551 677 809
1010.0 951 1090 1197 1266 1315 1378 1471 1610 1820 2151
1050.0 2579 3172 3928 4925 6213 7617 8966 9834 10000 9650
1090.0 8757 7820 6954 6346 5992 5855 5980 6317 6674 6905
1130.0 6928 6600 5971 5168 4362 3703 3234 2898 2631 2413
1170.0 2227 2061 1891 1704 1513 1360 1235 1207 1251 1332
1210.0 1350 1243 1052 852 740 666 625 601 541 530
1250.0 534 515 524 523 490 482 461 444 451 458
1290.0 469 504 533 561 577 591 629 692 827 1000
1330.0 1244 1502 1708 1781 1634 1322 1014 770 676 732
1370.0 911 1053 1104 1065 942 887 875 862 827 768
1410.0 659 567 468 394 344 332 335 370 421 494
1450.0 526 514 461 393 367 331 313 326 350 342
1490.0 292 237 193 146 130 102 93 90 94 73
1530.0 69 82 69 75 58 61 51 62 59 50
1570.0 54 44 49 40 43 42 42 40 52 43
1610.0 48 43 62 38 44 46 41 52 48 62
1650.0 44 92 51 64 53 67 55 64 59 77
1690.0 60 54 51 59 49 56 52 71 66 89
1730.0 105 130 160 208 245 291 321 362 358 340
1770.0 320 265 198 159 140 125 116 102 91 81
1810.0 64 63 57 51 50 44 48 51 41 45
1850.0 49 51 51 51 48 54 51 56 54 58
1890.0 56 56 61 68 73 66 66 73 64 67
1930.0 68 61 67 63 68 70 70 66 68 74
1970.0 74 82 84 83 81 73 70 67 67 68
2010.0 68 65 66 66 59 59 66 61 59 51
2050.0 56 51 51 51 51 52 60 68 68 68
2090.0 76 69 66 67 68 68 59 66 62 68
2130.0 61 61 60 67 67 76 76 67 67 68
2170.0 68 60 60 61 59 60 60 59 60 60
2210.0 51 50 56 52 52 52 51 52 52 51
2250.0 59 49 56 59 54 50 44 42 39 36
2290.0 26 28 24 23 10 10 7 11 10 18
2330.0 29 19 30 14 32 13 25 35 57 48
2370.0 40 45 38 33 38 39 42 45 52 44
2410.0 51 50 44 44 43 39 46 41 40 37
2450.0 35 44 35 43 43 44 44 35 35 30
2490.0 30 30 36 36 35 28 35 27 21 21
2530.0 22 18 24 18 28 29 25 27 20 28
2570.0 27 27 27 37 30 26 27 36 35 35
2610.0 43 43 50 50 60 52 59 59 50 55
2650.0 44 50 58 61 59 59 59 59 59 68
2690.0 66 63 68 67 71 75 80 82 89 97
2730.0 114 122 121 130 130 129 142 144 160 172
2770.0 176 185 186 192 209 224 234 255 251 253
2810.0 253 247 260 271 278 310 341 366 414 489
2850.0 557 663 785 897 1034 1224 1446 1694 1908 2072
2890.0 2109 2060 1928 1790 1700 1707 1787 1886 1974 2024
2930.0 2062 2142 2258 2305 2267 2039 1751 1505 1383 1405
2970.0 1556 1907 2483 3192 3960 4017 3442 2551 1693 1195
3010.0 967 824 683 537 433 365 308 262 227 210
3050.0 186 161 151 128 112 111 107 85 81 76
3090.0 78 65 65 67 66 50 42 58 47 48
3130.0 50 56 46 41 41 34 42 34 41 43
3170.0 42 41 34 39 34 38 41 36 43 40
3210.0 41 41 41 41 34 42 28 28 22 22
3250.0 17 14 7 19 10 19 18 20 17 16
3290.0 3 18 18 18 15 23 14 9 18 10
3330.0 2 2 15 2 13 14 15 9 1 9
3370.0 19 17 9 18 2 10 16 21 13 5
3410.0 12 6 19 21 12 18 1 1 2 17
3450.0 10 13 8 8 13 19 25 30 18 10
3490.0 10 1 18 24 18 14 24 22 8 6
3530.0 19 11 23 18 23 16 10 1 24 11
3570.0 29 25 27 24 32 24 0 24 17 3
3610.0 8 13 0 13 0 25 16 32 24 22
3650.0 36 29 31 16 6 22 20 14 9 33
3690.0 24 19 31 14 22 14 12 30 36 43
3730.0 11 16 16 12 37 4 10 44 36 21
3770.0 18 22 23 19 20 15 22 16 20 35
3810.0 21 21 18 27 9 11 10 10 4 13
3850.0 1 16 18 18 17 24 17 2 1 4
3890.0 9 9 18 16 16 18 11 10 9 24
3930.0 34 24 24 18 8 8 10 9 9 9
##END=
