##TITLE=Benzoic acid, 3,4-dimethyl-
##JCAMP-DX=4.24
##DATA TYPE=INFRARED SPECTRUM
##ORIGIN=Sadtler Research Labs Under US-EPA Contract
##OWNER=NIST Standard Reference Data Program
##CAS REGISTRY NO=619-04-5
##MOLFORM=C 9 H 10 O 2
##XUNITS=1/CM
##YUNITS=ABSORBANCE
##XFACTOR=1.0
##YFACTOR=0.000095462
##DELTAX=4.0
##FIRSTX=450.0
##LASTX=3966.0
##FIRSTY=0.000000
##MAXX=3966
##MINX=450
##MAXY=0.95462
##MINY=0
##NPOINTS=880
##XYDATA=(X++(Y..Y))
450.0 0 92 122 81 108 98 112 128 160 208
490.0 296 415 525 665 788 720 608 499 400 310
530.0 301 308 303 329 354 422 508 598 691 791
570.0 907 975 1071 1136 964 765 613 486 547 788
610.0 978 1179 1000 766 467 210 125 109 75 79
650.0 54 60 68 40 58 92 49 70 90 96
690.0 186 184 310 468 796 1083 1158 1114 823 380
730.0 171 149 170 329 520 849 1060 1666 1773 1371
770.0 1083 801 515 352 217 190 156 155 143 170
810.0 172 185 192 185 197 212 222 193 151 114
850.0 97 78 70 55 54 56 68 85 101 126
890.0 161 201 253 287 282 259 209 148 115 87
930.0 77 70 68 74 78 78 81 93 95 101
970.0 111 140 175 232 312 408 450 460 428 355
1010.0 303 295 315 344 371 375 364 340 312 290
1050.0 285 307 339 430 591 890 1377 2062 2562 2905
1090.0 3185 2743 2215 1777 1383 1354 1648 2058 2486 2850
1130.0 3020 2948 2706 2350 1950 1788 2103 2748 3045 2922
1170.0 2526 1587 841 669 873 1399 1825 1888 1831 1362
1210.0 743 511 478 481 484 458 403 347 338 362
1250.0 432 543 688 825 927 993 960 868 782 673
1290.0 548 489 485 515 582 715 920 1187 1430 1600
1330.0 1636 1502 1282 1031 830 779 927 1266 1529 1534
1370.0 1412 1074 663 497 464 444 473 530 579 684
1410.0 783 778 785 614 481 379 373 372 386 447
1450.0 524 599 646 586 522 448 408 332 265 282
1490.0 330 350 409 407 410 367 253 205 187 128
1530.0 115 108 144 183 179 160 177 238 241 260
1570.0 322 364 388 394 352 334 310 356 441 599
1610.0 721 754 721 556 400 237 201 168 132 126
1650.0 166 168 149 148 156 167 186 165 203 232
1690.0 228 276 378 461 542 564 577 602 561 525
1730.0 608 822 1215 1993 3542 5924 8809 10000 9968 8794
1770.0 5214 2421 1190 697 492 432 420 427 451 467
1810.0 490 501 412 321 248 188 132 100 104 104
1850.0 90 72 76 73 83 92 73 69 66 69
1890.0 72 79 86 100 113 123 118 114 113 97
1930.0 93 87 81 77 63 49 47 42 40 48
1970.0 44 46 43 46 43 57 55 49 46 41
2010.0 39 40 44 43 43 47 48 52 52 47
2050.0 43 44 39 44 43 45 45 45 45 45
2090.0 47 47 49 49 52 50 50 46 46 46
2130.0 45 42 39 39 40 41 41 45 50 50
2170.0 49 48 46 48 46 44 43 40 43 44
2210.0 43 42 44 40 41 42 43 44 41 43
2250.0 44 43 44 40 39 42 50 52 58 64
2290.0 71 77 86 91 89 95 93 86 91 79
2330.0 74 69 65 82 96 106 105 92 77 71
2370.0 66 71 85 91 75 63 56 55 49 52
2410.0 51 52 51 53 50 49 52 51 53 53
2450.0 54 52 55 50 53 54 55 50 51 51
2490.0 51 49 49 48 47 50 49 50 48 52
2530.0 51 47 43 42 43 42 44 44 45 48
2570.0 52 56 56 61 58 59 61 59 56 53
2610.0 50 49 48 47 44 45 48 49 50 52
2650.0 51 51 49 52 52 53 52 54 52 55
2690.0 54 53 55 48 49 53 56 56 62 65
2730.0 72 77 81 86 90 88 79 73 67 71
2770.0 73 71 73 72 68 72 74 75 82 87
2810.0 86 90 93 94 104 111 119 130 144 156
2850.0 172 197 228 269 316 366 418 460 485 486
2890.0 473 452 435 417 408 406 426 468 558 701
2930.0 867 983 1020 972 863 759 712 671 626 600
2970.0 596 610 632 635 616 576 504 426 366 324
3010.0 296 287 292 317 358 417 456 468 465 432
3050.0 380 333 305 286 272 257 253 257 257 250
3090.0 231 211 192 170 153 141 137 133 129 118
3130.0 108 93 87 80 75 72 67 67 66 65
3170.0 62 61 59 61 58 56 53 51 53 50
3210.0 52 54 50 53 50 54 53 49 50 55
3250.0 49 49 49 48 46 46 47 47 47 42
3290.0 42 43 47 43 44 44 42 43 43 44
3330.0 46 42 42 43 42 47 44 51 48 47
3370.0 47 48 49 44 45 44 46 45 42 49
3410.0 47 46 47 39 42 44 44 43 44 41
3450.0 48 52 49 47 51 55 57 59 67 70
3490.0 83 84 90 88 77 71 54 43 43 41
3530.0 43 49 56 53 63 64 68 80 104 178
3570.0 383 919 1961 2962 3114 2845 1981 747 210 114
3610.0 73 62 58 55 58 63 59 60 55 56
3650.0 54 51 50 48 57 49 48 50 55 58
3690.0 53 57 56 50 45 49 47 42 42 56
3730.0 44 46 51 51 49 50 47 58 52 50
3770.0 53 52 51 53 52 48 44 49 46 50
3810.0 43 50 40 46 40 42 46 42 42 48
3850.0 45 45 46 49 45 46 44 51 46 55
3890.0 50 45 39 46 50 49 51 44 47 52
3930.0 51 41 48 53 55 52 52 48 57 64
##END=
