##TITLE=Ethanol, 2-phenoxy-, acetate
##JCAMP-DX=4.24
##DATA TYPE=INFRARED SPECTRUM
##ORIGIN=Sadtler Research Labs Under US-EPA Contract
##OWNER=NIST Standard Reference Data Program
##CAS REGISTRY NO=6192-44-5
##MOLFORM=C 10 H 12 O 3
##XUNITS=1/CM
##YUNITS=ABSORBANCE
##XFACTOR=1.0
##YFACTOR=0.000180447
##DELTAX=4.0
##FIRSTX=450.0
##LASTX=3966.0
##FIRSTY=0.049082
##MAXX=3966
##MINX=450
##MAXY=1.80447
##MINY=0
##NPOINTS=880
##XYDATA=(X++(Y..Y))
450.0 272 109 200 50 133 198 64 159 71 89
490.0 153 167 207 155 151 167 124 91 112 71
530.0 95 29 31 57 78 50 17 5 43 70
570.0 50 62 90 19 80 135 150 174 175 168
610.0 150 191 176 65 87 100 102 161 147 123
650.0 156 146 128 117 141 128 177 248 428 561
690.0 633 612 482 352 221 170 131 106 130 125
730.0 173 198 328 560 900 1014 1060 886 716 556
770.0 451 391 341 283 281 231 201 196 167 188
810.0 184 178 203 212 223 217 235 212 190 171
850.0 177 163 152 164 157 161 188 191 253 277
890.0 289 291 268 282 275 270 293 313 323 365
930.0 393 437 448 548 576 581 588 554 510 442
970.0 373 310 273 280 286 312 318 402 421 441
1010.0 421 420 467 557 704 828 1001 1215 1418 1643
1050.0 1808 1924 1963 1894 1817 1696 1569 1480 1341 1194
1090.0 1038 868 714 593 489 452 401 362 320 294
1130.0 284 284 302 316 349 375 414 433 511 665
1170.0 785 787 682 585 602 729 959 1346 1971 3035
1210.0 4623 6588 8024 8750 10000 8982 7985 6489 5199 4343
1250.0 3604 2984 2505 2088 1816 1624 1486 1427 1374 1351
1290.0 1325 1262 1204 1041 852 662 526 441 380 383
1330.0 397 381 382 346 315 345 405 570 784 1013
1370.0 1145 1208 1189 1015 901 766 683 652 600 571
1410.0 484 382 336 282 263 260 297 339 357 372
1450.0 475 545 729 818 809 747 756 790 905 1140
1490.0 1735 2448 2791 2428 1617 795 506 362 291 262
1530.0 194 197 164 208 197 162 184 204 262 247
1570.0 299 403 477 722 905 1260 1702 1820 2007 1576
1610.0 1038 596 369 242 210 158 149 151 133 117
1650.0 158 149 131 115 127 129 141 139 148 189
1690.0 158 154 199 219 219 212 260 323 345 392
1730.0 459 579 714 908 1218 1663 2242 3080 3890 4313
1770.0 4132 3280 2436 1818 1356 1049 781 622 491 377
1810.0 308 246 206 181 175 165 153 139 136 147
1850.0 122 110 109 98 99 97 89 74 77 72
1890.0 82 78 80 82 88 96 103 111 124 117
1930.0 110 110 103 112 102 88 73 70 69 74
1970.0 67 69 67 73 74 84 86 78 85 83
2010.0 82 89 92 95 96 99 98 101 102 96
2050.0 96 99 94 97 97 93 95 95 92 88
2090.0 87 85 79 77 74 69 69 64 61 60
2130.0 59 56 53 52 47 48 48 46 47 47
2170.0 44 46 46 47 45 45 46 44 46 40
2210.0 44 43 41 41 42 42 42 41 39 40
2250.0 38 40 40 43 44 42 41 41 40 34
2290.0 29 26 16 18 12 2 12 3 5 16
2330.0 9 26 19 37 14 8 2 3 9 28
2370.0 60 56 62 52 45 50 48 50 51 51
2410.0 55 53 55 58 59 59 58 60 60 62
2450.0 63 59 61 59 59 57 58 60 58 58
2490.0 58 55 56 52 52 52 54 52 51 53
2530.0 53 52 55 54 53 53 53 52 52 51
2570.0 47 48 44 43 45 40 39 38 41 39
2610.0 37 40 37 39 39 39 37 35 37 35
2650.0 34 35 35 35 37 38 35 34 34 37
2690.0 37 39 41 41 46 47 48 50 54 57
2730.0 60 60 62 62 59 59 57 55 53 56
2770.0 53 56 58 59 57 55 57 57 58 60
2810.0 56 59 60 63 67 69 76 80 85 92
2850.0 100 117 143 164 198 238 280 317 349 364
2890.0 369 361 343 326 314 316 326 344 369 400
2930.0 426 447 470 502 551 601 650 668 656 629
2970.0 585 544 508 470 441 405 375 343 312 280
3010.0 253 234 229 236 255 286 332 388 456 512
3050.0 520 474 409 388 421 465 512 546 539 476
3090.0 392 332 313 302 274 237 192 145 108 83
3130.0 62 54 46 43 38 38 33 32 31 31
3170.0 28 26 26 25 26 21 26 25 24 23
3210.0 21 25 22 23 23 23 23 23 19 24
3250.0 22 22 23 18 22 23 21 25 24 21
3290.0 23 20 19 20 22 20 22 24 26 23
3330.0 24 18 24 26 27 18 23 22 21 21
3370.0 20 20 24 25 23 21 22 26 26 27
3410.0 24 23 23 23 21 18 25 22 21 28
3450.0 27 28 28 24 28 31 22 26 34 34
3490.0 33 35 40 49 57 62 59 54 49 47
3530.0 42 34 29 21 27 21 22 11 25 22
3570.0 34 14 23 13 25 13 31 18 31 13
3610.0 29 31 8 32 15 43 28 24 10 30
3650.0 15 67 2 44 9 20 34 30 46 0
3690.0 45 22 18 18 25 19 36 15 33 15
3730.0 23 25 22 34 18 51 0 41 13 22
3770.0 16 11 14 24 22 23 13 36 2 39
3810.0 3 43 9 49 20 27 21 19 22 38
3850.0 21 31 47 21 47 43 25 28 28 33
3890.0 30 12 34 14 45 24 20 33 34 36
3930.0 22 48 28 34 36 26 32 28 38 47
##END=
