##TITLE=Benzoic acid, 4-nitro-
##JCAMP-DX=4.24
##DATA TYPE=INFRARED SPECTRUM
##ORIGIN=Sadtler Research Labs Under US-EPA Contract
##OWNER=NIST Standard Reference Data Program
##CAS REGISTRY NO=62-23-7
##MOLFORM=C 7 H 5 N O 4
##XUNITS=1/CM
##YUNITS=ABSORBANCE
##XFACTOR=1.0
##YFACTOR=0.000087469
##DELTAX=4.0
##FIRSTX=450.0
##LASTX=3966.0
##FIRSTY=0.001574
##MAXX=3966
##MINX=450
##MAXY=0.87469
##MINY=0
##NPOINTS=880
##XYDATA=(X++(Y..Y))
450.0 18 38 0 91 14 208 161 355 524 752
490.0 888 1018 1034 937 771 644 544 498 447 432
530.0 444 496 593 647 756 854 941 1046 1176 1255
570.0 1292 1318 1062 835 733 623 557 463 389 394
610.0 386 371 351 348 337 317 311 310 277 341
650.0 431 843 1260 1276 1399 728 391 358 311 349
690.0 287 363 407 611 899 1357 1778 2346 2816 2526
730.0 2042 1593 1088 701 476 414 634 1326 1938 2099
770.0 1936 1152 700 698 649 596 504 464 399 381
810.0 362 360 355 330 327 306 342 352 456 753
850.0 1271 1583 1654 1496 1088 949 901 755 574 445
890.0 327 238 212 180 189 166 194 172 179 179
930.0 180 187 155 168 151 161 155 164 148 149
970.0 157 152 151 141 165 142 164 168 221 301
1010.0 677 1040 1047 1003 612 337 305 284 292 301
1050.0 327 391 546 829 1353 2186 3305 4515 5246 4968
1090.0 4152 2711 1614 1146 902 786 697 649 632 603
1130.0 584 548 544 556 619 730 926 1288 1872 2667
1170.0 3441 4174 4968 4785 4402 3447 2057 1241 865 712
1210.0 673 667 717 741 790 806 878 918 950 938
1250.0 885 832 791 811 806 853 917 1050 1201 1365
1290.0 1442 1449 1402 1343 1355 1275 1295 1356 1516 1885
1330.0 2640 3690 4583 4867 4668 4014 3715 3575 3338 3017
1370.0 2447 1988 1524 1176 880 766 704 648 665 628
1410.0 687 653 551 429 287 246 156 198 187 203
1450.0 157 166 109 158 209 202 211 198 370 326
1490.0 410 511 600 677 643 828 790 943 924 1544
1530.0 1788 2734 3689 4311 4848 4738 4337 3429 1946 1529
1570.0 1070 959 840 896 987 1024 1154 1219 1336 1304
1610.0 1363 1166 1013 760 543 420 257 241 199 206
1650.0 97 170 163 170 157 140 95 154 140 101
1690.0 204 216 212 218 305 384 367 404 487 576
1730.0 483 492 535 735 991 1666 2872 4582 8150 9602
1770.0 10000 8770 5280 2865 1468 881 484 417 362 432
1810.0 451 409 383 307 282 211 231 203 164 116
1850.0 115 115 76 74 42 34 44 65 53 49
1890.0 45 45 57 53 61 38 53 56 64 98
1930.0 130 150 155 144 130 131 99 84 56 35
1970.0 25 29 28 20 29 5 21 19 29 21
2010.0 27 22 15 21 24 32 26 26 20 22
2050.0 20 22 20 17 13 13 16 6 12 9
2090.0 8 12 11 16 11 17 12 9 2 14
2130.0 7 11 12 12 19 19 33 30 34 29
2170.0 32 18 17 14 5 7 3 11 1 8
2210.0 8 5 6 9 7 2 8 7 15 7
2250.0 18 17 17 15 17 19 19 26 22 25
2290.0 24 23 18 18 18 17 19 8 14 1
2330.0 1 1 1 9 36 35 19 17 11 37
2370.0 27 29 34 40 37 37 37 37 40 33
2410.0 37 36 40 37 36 41 41 43 41 45
2450.0 40 45 42 40 39 37 30 32 32 25
2490.0 30 27 26 25 25 26 25 26 24 30
2530.0 28 27 27 28 22 22 22 19 23 22
2570.0 27 25 30 23 25 27 25 27 24 28
2610.0 24 29 29 30 26 24 21 19 21 20
2650.0 26 20 25 29 32 35 39 47 39 40
2690.0 41 45 45 54 44 46 44 40 39 34
2730.0 32 27 23 22 26 22 22 27 26 26
2770.0 25 35 28 35 36 36 33 32 32 24
2810.0 33 25 29 35 36 46 45 57 60 69
2850.0 73 82 82 83 90 107 116 125 126 122
2890.0 124 109 108 87 82 77 70 67 68 69
2930.0 69 75 75 77 70 78 73 69 70 74
2970.0 88 97 103 79 67 52 52 42 47 54
3010.0 52 52 50 55 54 57 55 55 56 55
3050.0 60 61 83 84 88 74 65 77 74 62
3090.0 62 63 57 60 55 50 54 53 44 33
3130.0 35 24 25 21 24 22 21 20 16 16
3170.0 16 17 11 15 16 16 7 13 11 11
3210.0 11 12 16 3 15 19 19 7 8 15
3250.0 11 15 11 18 21 20 14 19 9 8
3290.0 14 15 16 13 23 20 18 8 17 22
3330.0 18 22 24 24 24 29 29 27 25 36
3370.0 32 28 42 25 41 33 32 36 26 27
3410.0 22 33 28 36 28 37 34 26 18 27
3450.0 34 18 25 25 40 20 35 25 32 30
3490.0 23 38 42 63 54 84 94 106 86 80
3530.0 63 43 29 30 38 12 72 99 178 326
3570.0 834 1816 3466 4291 4020 2789 1127 271 172 91
3610.0 60 44 45 47 50 77 38 45 48 74
3650.0 111 108 109 63 46 36 67 30 50 23
3690.0 56 44 48 46 38 47 43 56 45 59
3730.0 41 40 65 72 56 78 66 34 41 40
3770.0 49 46 44 42 37 35 37 27 32 44
3810.0 47 14 64 56 44 25 23 27 57 18
3850.0 43 60 40 29 56 23 50 49 39 28
3890.0 24 47 16 57 55 28 56 56 62 18
3930.0 39 30 34 7 55 20 60 47 34 35
##END=
