##TITLE=Aniline
##JCAMP-DX=4.24
##DATA TYPE=INFRARED SPECTRUM
##ORIGIN=Sadtler Research Labs Under US-EPA Contract
##OWNER=NIST Standard Reference Data Program
##CAS REGISTRY NO=62-53-3
##MOLFORM=C 6 H 7 N
##XUNITS=1/CM
##YUNITS=ABSORBANCE
##XFACTOR=1.0
##YFACTOR=0.000096567
##DELTAX=4.0
##FIRSTX=450.0
##LASTX=3966.0
##FIRSTY=0.105547
##MAXX=3966
##MINX=450
##MAXY=0.96567
##MINY=0
##NPOINTS=880
##XYDATA=(X++(Y..Y))
450.0 1093 1063 1202 1356 1517 1725 1889 2041 2034 2048
490.0 2105 2211 1925 1303 1189 1132 929 839 684 577
530.0 487 501 458 461 449 467 492 411 358 361
570.0 462 521 578 657 743 795 716 723 728 676
610.0 622 624 641 674 782 970 1288 1813 2692 3890
650.0 4944 5424 6011 5791 6232 5600 5007 4107 3555 4436
690.0 4397 2394 2377 2384 2266 2084 2086 2183 2613 3053
730.0 3463 3934 4814 6310 6511 5111 5021 3824 3313 2844
770.0 2377 1897 1478 1165 933 751 693 598 527 513
810.0 542 529 430 399 325 287 209 152 131 161
850.0 202 249 310 359 437 535 696 577 445 420
890.0 388 342 272 217 174 146 112 78 59 39
930.0 27 27 32 49 61 83 104 138 162 179
970.0 195 218 258 263 277 247 247 216 187 155
1010.0 185 227 290 284 242 336 302 392 432 495
1050.0 512 515 623 771 906 1014 1076 1126 1041 1115
1090.0 983 905 721 522 439 363 212 190 233 185
1130.0 128 101 106 119 126 133 162 306 519 601
1170.0 563 710 621 716 635 422 302 211 137 70
1210.0 22 8 0 16 44 82 164 296 497 843
1250.0 1379 2139 3124 4161 4969 5303 5573 5043 4721 3699
1290.0 2499 1228 556 372 397 476 507 464 422 443
1330.0 427 334 295 191 93 75 63 89 122 93
1370.0 74 106 76 41 49 35 36 63 26 37
1410.0 73 75 240 180 206 208 274 285 284 329
1450.0 433 568 701 669 612 621 828 1052 1540 2663
1490.0 4320 5612 5582 5988 5571 5456 4717 2769 1357 662
1530.0 512 433 502 576 630 620 680 834 739 785
1570.0 774 764 807 1078 1478 2292 3378 4532 5550 6869
1610.0 8044 9367 9636 10000 8607 8701 7452 5603 4051 2497
1650.0 1473 954 730 619 587 622 687 584 736 724
1690.0 705 708 736 613 560 432 422 351 161 100
1730.0 133 203 102 107 169 219 172 200 198 175
1770.0 225 196 140 139 127 146 141 147 182 154
1810.0 195 211 215 233 251 268 245 213 229 215
1850.0 157 111 101 90 95 103 49 46 55 82
1890.0 111 131 165 219 278 323 343 368 443 432
1930.0 379 327 272 241 174 101 56 42 22 36
1970.0 30 39 45 52 66 92 96 84 79 75
2010.0 69 71 89 77 72 74 76 93 98 105
2050.0 114 115 112 116 128 116 111 101 97 96
2090.0 96 79 71 64 56 47 37 27 32 28
2130.0 38 40 50 52 56 69 68 77 76 82
2170.0 83 82 74 59 54 44 40 36 41 32
2210.0 35 33 35 30 31 28 32 27 33 34
2250.0 45 51 50 63 65 74 74 78 87 92
2290.0 95 99 113 109 123 125 133 141 133 126
2330.0 118 96 96 89 79 95 110 93 63 49
2370.0 15 39 33 46 56 59 67 77 78 84
2410.0 89 89 88 96 97 100 98 96 90 87
2450.0 76 76 71 66 56 51 48 45 39 38
2490.0 35 33 34 33 32 39 44 49 60 71
2530.0 80 90 95 98 99 81 76 73 71 71
2570.0 66 72 79 84 87 89 89 95 107 104
2610.0 108 110 106 116 110 105 98 90 80 74
2650.0 57 50 50 61 61 67 66 67 62 67
2690.0 63 63 56 65 57 59 69 74 69 70
2730.0 80 90 91 90 92 95 101 99 105 99
2770.0 102 102 92 81 82 76 76 78 71 68
2810.0 70 73 61 69 73 68 73 79 79 86
2850.0 79 76 75 82 93 96 115 122 136 156
2890.0 177 177 178 183 178 179 176 159 155 150
2930.0 150 128 120 114 99 99 92 99 104 110
2970.0 108 125 132 137 153 174 218 320 496 751
3010.0 1023 1253 1602 2033 2544 3114 3274 3256 3562 3903
3050.0 3689 3275 3129 2590 2097 1876 1895 1997 2076 2064
3090.0 2006 1929 1672 1422 1268 1065 814 645 535 412
3130.0 297 209 157 116 89 70 76 69 73 73
3170.0 70 78 69 73 80 84 95 113 117 132
3210.0 155 165 176 172 188 182 199 154 147 126
3250.0 112 118 95 87 81 81 80 85 71 66
3290.0 74 67 65 65 58 62 44 67 47 51
3330.0 47 58 69 62 54 55 79 87 82 104
3370.0 95 106 147 215 253 356 498 636 698 790
3410.0 902 889 889 845 661 639 535 410 300 235
3450.0 225 228 236 244 304 369 466 544 653 717
3490.0 640 722 827 802 642 533 550 497 406 322
3530.0 234 194 156 144 111 104 73 102 99 108
3570.0 77 68 68 79 79 65 58 62 53 67
3610.0 68 61 65 47 67 44 34 45 67 77
3650.0 77 37 50 64 73 57 47 39 37 56
3690.0 44 34 47 47 64 80 54 67 72 87
3730.0 81 91 64 79 82 64 48 52 47 52
3770.0 65 56 55 58 51 56 59 56 59 43
3810.0 41 70 64 62 62 100 110 104 131 156
3850.0 192 199 185 174 153 153 124 121 107 95
3890.0 97 83 89 84 70 69 77 90 94 93
3930.0 95 102 104 93 93 99 106 97 88 79
##END=
