##TITLE=Methanesulfonic acid, ethyl ester
##JCAMP-DX=4.24
##DATA TYPE=INFRARED SPECTRUM
##ORIGIN=Sadtler Research Labs Under US-EPA Contract
##OWNER=NIST Standard Reference Data Program
##CAS REGISTRY NO=62-50-0
##MOLFORM=C 3 H 8 O 3 S
##XUNITS=1/CM
##YUNITS=ABSORBANCE
##XFACTOR=1.0
##YFACTOR=0.000108871
##DELTAX=4.0
##FIRSTX=450.0
##LASTX=3966.0
##FIRSTY=0.034512
##MAXX=3966
##MINX=450
##MAXY=1.08871
##MINY=0
##NPOINTS=880
##XYDATA=(X++(Y..Y))
450.0 317 252 285 371 365 382 394 356 337 331
490.0 374 406 455 577 696 903 1094 1356 1524 1818
530.0 1991 2088 2134 1978 1791 1533 1360 1113 873 535
570.0 296 174 131 99 76 48 36 30 30 18
610.0 17 26 15 8 1 3 10 8 10 14
650.0 20 29 29 50 44 88 114 137 186 247
690.0 359 483 685 888 1150 1353 1541 1615 1623 1554
730.0 1409 1235 1070 983 895 825 802 815 903 1111
770.0 1458 1966 2615 3282 3814 4000 4052 3685 3231 2505
810.0 1787 1248 883 642 489 387 335 304 285 271
850.0 269 270 286 319 359 417 510 647 876 1232
890.0 1826 2751 4033 5504 6959 8197 8987 9280 8849 7872
930.0 6414 4965 3529 2408 1809 1751 2166 3110 4323 5008
970.0 5165 5159 4658 3718 2401 1674 1607 1971 2671 3598
1010.0 4655 5560 6170 6384 6113 5471 4319 3093 2204 1789
1050.0 1556 1315 1051 817 683 625 597 599 638 692
1090.0 749 797 831 863 841 774 667 579 509 461
1130.0 430 417 414 429 456 523 645 866 1262 1913
1170.0 2953 4394 6180 7860 9083 9660 9100 7955 6194 4271
1210.0 2700 1648 1037 721 554 452 379 328 287 255
1250.0 242 237 239 250 262 269 275 281 289 293
1290.0 304 320 341 380 438 535 667 840 1058 1290
1330.0 1540 1786 2033 2293 2673 3245 4064 5064 6246 7547
1370.0 8693 9609 9846 10000 9505 8840 7735 6450 5175 3970
1410.0 2918 2058 1515 1190 1007 871 754 642 552 484
1450.0 436 394 351 322 295 276 266 259 242 231
1490.0 211 192 174 148 128 111 99 82 73 66
1530.0 57 50 50 42 39 38 34 35 39 39
1570.0 39 42 46 47 53 58 62 68 76 89
1610.0 94 105 111 112 109 103 102 98 93 87
1650.0 87 88 90 84 87 84 82 76 75 74
1690.0 70 67 70 70 74 77 76 76 80 75
1730.0 72 70 61 53 40 28 17 10 15 18
1770.0 21 18 17 14 14 14 15 19 21 24
1810.0 23 24 23 21 19 18 16 14 14 11
1850.0 12 12 12 14 12 11 12 11 13 12
1890.0 12 10 12 15 17 16 20 22 25 25
1930.0 27 28 26 21 15 13 9 5 3 2
1970.0 3 3 3 2 1 2 2 1 2 2
2010.0 1 1 2 4 6 7 7 6 9 11
2050.0 11 13 13 15 15 16 16 17 19 18
2090.0 22 24 25 29 32 37 38 37 37 37
2130.0 33 28 25 20 18 16 15 13 14 13
2170.0 11 11 11 10 8 9 9 9 10 11
2210.0 10 10 9 9 8 8 10 7 9 13
2250.0 11 12 12 14 16 17 21 27 33 37
2290.0 42 48 52 53 52 46 38 29 24 21
2330.0 22 20 22 24 34 28 20 25 36 44
2370.0 55 61 61 57 44 34 27 23 22 19
2410.0 19 18 17 17 17 15 13 13 14 14
2450.0 15 14 14 13 13 15 14 15 16 12
2490.0 14 13 11 12 13 15 17 19 23 26
2530.0 30 38 42 49 53 60 61 62 61 58
2570.0 51 46 42 33 25 22 18 14 13 12
2610.0 15 13 15 12 13 11 10 13 12 12
2650.0 12 12 9 7 4 3 2 1 5 2
2690.0 2 3 4 4 7 8 10 10 13 16
2730.0 20 22 23 22 24 26 28 27 31 30
2770.0 31 37 34 38 39 39 37 38 37 41
2810.0 45 48 55 61 64 69 75 78 81 85
2850.0 88 95 102 110 132 158 203 244 275 301
2890.0 327 353 369 388 409 432 466 488 510 539
2930.0 593 686 803 888 940 965 954 923 856 814
2970.0 844 938 1087 1272 1423 1541 1592 1590 1534 1367
3010.0 1186 1015 859 729 606 507 423 351 285 239
3050.0 194 157 128 106 87 78 69 59 56 48
3090.0 49 45 41 38 36 38 35 32 33 32
3130.0 31 29 28 28 26 29 28 30 32 30
3170.0 33 30 27 32 29 29 27 27 28 26
3210.0 26 23 25 25 23 21 20 17 19 20
3250.0 20 15 14 18 18 15 14 13 14 8
3290.0 10 12 10 10 8 11 9 10 15 13
3330.0 12 11 13 14 10 12 13 18 16 12
3370.0 9 12 13 9 6 8 9 9 12 3
3410.0 5 11 9 10 6 8 4 6 8 7
3450.0 8 5 8 7 4 2 12 4 10 8
3490.0 4 5 8 7 8 7 11 10 5 1
3530.0 4 5 1 6 4 4 4 9 6 13
3570.0 4 3 5 7 6 5 14 9 8 4
3610.0 4 5 4 1 4 4 7 4 2 3
3650.0 1 10 10 6 8 8 12 9 15 12
3690.0 15 4 2 2 6 2 2 1 1 6
3730.0 2 5 5 4 2 1 1 6 6 8
3770.0 1 1 1 1 7 3 1 4 1 8
3810.0 9 7 12 12 16 4 9 9 5 0
3850.0 9 5 1 1 1 4 6 7 1 3
3890.0 10 17 11 14 19 19 21 25 14 21
3930.0 22 10 9 16 17 8 1 9 2 7
##END=
