##TITLE=N-Nitrosodimethylamine
##JCAMP-DX=4.24
##DATA TYPE=INFRARED SPECTRUM
##ORIGIN=Sadtler Research Labs Under US-EPA Contract
##OWNER=NIST Standard Reference Data Program
##CAS REGISTRY NO=62-75-9
##MOLFORM=C 2 H 6 N 2 O
##XUNITS=1/CM
##YUNITS=ABSORBANCE
##XFACTOR=1.0
##YFACTOR=0.000073877
##DELTAX=4.0
##FIRSTX=450.0
##LASTX=3966.0
##FIRSTY=0.004433
##MAXX=3966
##MINX=450
##MAXY=0.73877
##MINY=0
##NPOINTS=880
##XYDATA=(X++(Y..Y))
450.0 60 74 69 57 53 72 61 47 42 59
490.0 45 31 40 80 74 69 73 75 82 134
530.0 119 88 79 93 64 80 53 60 75 38
570.0 59 80 73 52 50 47 37 0 44 77
610.0 26 66 42 27 47 47 47 40 62 75
650.0 66 84 139 161 146 246 195 179 197 231
690.0 246 178 172 141 141 99 93 81 75 87
730.0 73 77 60 104 60 21 67 65 73 62
770.0 52 66 52 60 52 74 76 74 90 91
810.0 106 122 199 302 446 606 688 684 707 821
850.0 621 689 731 594 337 178 139 107 92 92
890.0 118 103 103 113 115 133 177 184 188 221
930.0 268 294 323 386 468 558 639 749 923 1151
970.0 1454 1893 2447 3141 4024 5218 6211 6915 7599 7919
1010.0 8423 8275 7724 7334 6522 5152 3772 2686 1936 1393
1050.0 1056 871 715 631 511 449 429 421 371 362
1090.0 340 334 355 347 341 349 340 355 398 388
1130.0 390 409 423 444 406 407 420 413 399 408
1170.0 402 382 371 372 376 360 395 404 400 424
1210.0 452 480 513 530 599 654 767 907 1093 1362
1250.0 1703 2089 2626 3200 3749 4503 4988 5501 5790 5837
1290.0 5916 5692 5216 4581 3646 2672 1964 1599 1351 1201
1330.0 1096 1018 933 863 819 780 752 733 721 689
1370.0 651 636 567 544 592 660 756 855 986 1097
1410.0 1148 1110 1128 1052 1015 1056 1035 1006 949 1059
1450.0 1359 1471 2022 2916 4459 6280 8128 8776 8629 8800
1490.0 10000 8708 8740 7651 5575 3416 2103 1411 1097 865
1530.0 730 674 593 563 422 341 327 366 336 271
1570.0 294 261 280 232 218 218 212 195 186 179
1610.0 177 172 188 152 164 155 164 186 145 185
1650.0 182 281 174 175 177 226 227 236 246 274
1690.0 211 200 230 220 149 106 105 136 78 55
1730.0 63 110 74 72 62 81 61 55 56 42
1770.0 66 69 33 31 32 37 72 41 61 48
1810.0 40 47 50 47 71 85 76 89 95 111
1850.0 89 81 74 74 74 73 43 38 33 26
1890.0 27 24 20 11 20 19 20 26 32 26
1930.0 25 40 42 48 52 57 55 61 58 64
1970.0 58 52 52 52 44 39 47 44 44 45
2010.0 43 44 50 43 43 43 37 30 31 20
2050.0 16 13 10 17 17 9 17 17 16 17
2090.0 17 11 16 15 15 19 16 16 15 15
2130.0 15 21 29 21 23 26 25 21 21 22
2170.0 14 14 15 15 15 8 8 8 8 8
2210.0 8 15 15 15 15 15 15 20 21 20
2250.0 20 28 28 28 28 28 28 32 29 21
2290.0 34 35 42 42 49 56 69 71 85 100
2330.0 106 102 109 115 103 83 104 136 135 134
2370.0 111 76 52 36 22 15 22 22 23 28
2410.0 30 30 30 30 32 29 29 32 30 30
2450.0 22 22 22 23 22 23 24 32 36 40
2490.0 47 50 48 50 56 51 50 44 37 36
2530.0 36 37 32 34 30 38 38 38 37 37
2570.0 38 44 44 45 45 36 42 38 37 37
2610.0 32 38 25 24 24 24 24 24 24 24
2650.0 20 22 23 24 25 31 31 32 39 45
2690.0 45 52 52 55 62 61 59 59 65 58
2730.0 66 73 80 95 108 122 135 145 164 176
2770.0 193 204 219 226 226 234 242 259 269 291
2810.0 296 310 320 319 314 319 326 347 361 382
2850.0 405 449 509 584 671 748 812 908 999 1096
2890.0 1179 1289 1441 1596 1730 1820 1881 1934 1998 2142
2930.0 2284 2366 2449 2517 2581 2629 2681 2816 2950 2535
2970.0 2154 1872 1609 1347 1103 898 749 663 601 574
3010.0 540 490 462 475 473 448 399 361 319 292
3050.0 276 256 235 215 202 201 188 187 173 162
3090.0 158 151 139 131 124 109 109 96 82 76
3130.0 75 67 63 58 64 63 64 57 56 50
3170.0 56 51 43 43 41 37 33 27 25 29
3210.0 25 25 25 25 24 19 16 22 20 11
3250.0 18 18 18 18 18 25 19 18 25 31
3290.0 25 26 26 25 25 27 20 25 25 26
3330.0 26 26 25 24 14 21 26 18 19 22
3370.0 25 25 19 25 25 13 33 17 15 27
3410.0 27 27 13 21 19 26 26 19 26 14
3450.0 14 19 20 21 21 13 13 14 20 20
3490.0 13 14 20 15 26 30 12 14 7 26
3530.0 28 15 21 21 34 19 20 19 31 35
3570.0 51 20 25 23 19 49 34 35 29 22
3610.0 42 49 43 45 41 65 39 31 28 27
3650.0 61 41 35 22 26 48 54 58 24 21
3690.0 48 32 22 30 23 36 41 30 36 36
3730.0 31 46 57 40 71 55 45 29 29 24
3770.0 25 13 15 10 11 11 14 21 42 31
3810.0 17 16 30 32 10 19 26 33 34 23
3850.0 22 48 33 30 31 25 25 18 30 28
3890.0 18 24 28 36 27 17 17 25 18 18
3930.0 25 24 23 19 19 20 7 8 8 8
##END=
