##TITLE=Benzonitrile, 3-methyl-
##JCAMP-DX=4.24
##DATA TYPE=INFRARED SPECTRUM
##ORIGIN=Sadtler Research Labs Under US-EPA Contract
##OWNER=NIST Standard Reference Data Program
##CAS REGISTRY NO=620-22-4
##MOLFORM=C 8 H 7 N
##XUNITS=1/CM
##YUNITS=ABSORBANCE
##XFACTOR=1.0
##YFACTOR=0.000061005
##DELTAX=4.0
##FIRSTX=450.0
##LASTX=3966.0
##FIRSTY=0.076439
##MAXX=3966
##MINX=450
##MAXY=0.61005
##MINY=0
##NPOINTS=880
##XYDATA=(X++(Y..Y))
450.0 1253 1164 835 464 324 159 140 89 85 76
490.0 34 29 60 66 101 136 177 231 238 236
530.0 215 157 154 158 170 156 132 200 246 258
570.0 340 321 444 226 190 179 116 77 20 55
610.0 20 58 37 36 53 22 78 61 142 147
650.0 190 233 259 456 708 1477 2245 2847 3603 6220
690.0 5593 3459 3219 2504 1619 866 530 417 324 240
730.0 223 159 176 160 233 282 423 715 1079 1985
770.0 3182 4523 5461 7852 10000 6619 5046 4167 2750 1624
810.0 796 622 545 430 366 340 252 183 153 120
850.0 146 156 218 278 437 609 774 933 1424 1484
890.0 1346 1508 1503 1490 1337 1306 1224 802 614 507
930.0 358 241 165 152 169 184 179 195 176 159
970.0 174 203 240 268 312 347 396 419 372 346
1010.0 295 223 173 169 181 226 255 318 386 520
1050.0 582 609 638 574 523 468 405 401 502 712
1090.0 1027 1096 972 1064 925 573 365 253 213 215
1130.0 231 232 287 336 343 354 398 388 341 306
1170.0 281 259 228 217 190 170 142 121 116 113
1210.0 118 125 141 145 156 166 188 246 323 391
1250.0 457 517 495 505 538 590 670 669 662 706
1290.0 621 463 373 317 351 399 400 393 407 336
1330.0 246 218 196 217 227 288 315 352 397 409
1370.0 422 455 565 616 664 673 702 589 551 576
1410.0 637 717 798 969 1084 1204 1266 1307 1315 1303
1450.0 1278 1231 1283 1327 1491 1593 1927 2684 3129 3590
1490.0 3451 3369 2531 1796 1491 1151 1042 1019 987 879
1530.0 867 849 793 783 748 700 674 690 776 823
1570.0 998 1223 1571 1963 2052 2418 2628 2783 2443 2284
1610.0 2082 1788 1460 1086 893 616 501 338 245 194
1650.0 190 187 189 179 182 173 169 167 208 328
1690.0 436 480 491 450 334 203 107 100 73 83
1730.0 74 95 101 117 147 180 241 270 300 298
1770.0 318 331 316 353 414 454 434 416 399 317
1810.0 235 189 176 168 170 170 162 141 144 154
1850.0 180 211 213 217 215 218 237 324 406 409
1890.0 399 352 259 145 103 83 77 76 84 98
1930.0 128 188 260 333 384 362 353 335 233 144
1970.0 92 62 43 30 27 23 24 11 14 10
2010.0 4 9 9 13 9 15 8 6 6 11
2050.0 7 9 13 15 18 21 25 20 28 26
2090.0 29 29 27 22 14 4 0 4 2 8
2130.0 11 13 17 19 24 22 20 15 9 4
2170.0 10 16 21 27 30 37 32 32 30 42
2210.0 71 126 271 563 1062 1679 2149 2312 2229 1835
2250.0 1055 396 159 107 79 75 71 80 69 63
2290.0 64 64 54 53 55 52 58 52 52 53
2330.0 61 68 66 81 65 70 61 70 46 66
2370.0 73 95 98 87 76 66 57 54 61 65
2410.0 64 67 64 64 58 58 47 48 44 48
2450.0 45 45 49 46 44 46 45 44 49 45
2490.0 49 50 50 39 34 31 29 26 23 30
2530.0 31 36 30 32 34 34 38 43 42 38
2570.0 39 39 45 46 48 54 53 59 64 67
2610.0 64 59 52 40 37 36 38 37 31 25
2650.0 25 16 17 17 20 22 31 44 55 75
2690.0 86 89 85 79 54 32 30 34 38 42
2730.0 52 74 106 143 175 180 191 174 126 95
2770.0 66 65 58 59 64 73 88 92 101 110
2810.0 132 142 157 169 185 206 220 234 264 308
2850.0 357 438 544 705 906 1146 1362 1508 1568 1538
2890.0 1434 1299 1211 1198 1247 1352 1532 1768 2124 2626
2930.0 3110 3387 3505 3475 3193 2796 2382 1961 1671 1409
2970.0 1247 1108 988 952 1004 1105 1208 1319 1401 1482
3010.0 1559 1612 1629 1688 1881 2171 2494 2714 2956 3118
3050.0 3066 2885 2811 2749 2594 2447 2322 2267 2053 1729
3090.0 1513 1346 1184 1070 971 864 736 597 446 309
3130.0 213 151 117 97 81 69 55 44 39 42
3170.0 50 61 65 66 67 63 63 61 58 42
3210.0 37 29 22 19 25 28 23 15 18 18
3250.0 12 13 15 15 14 12 10 10 13 10
3290.0 6 15 14 17 18 11 13 18 20 23
3330.0 18 38 36 35 36 31 36 27 34 35
3370.0 48 51 54 59 70 79 80 66 51 42
3410.0 50 41 30 23 33 22 26 25 28 28
3450.0 25 27 39 43 59 56 73 72 83 87
3490.0 73 67 59 53 44 34 31 22 31 18
3530.0 18 24 20 21 20 21 11 13 14 19
3570.0 40 38 33 30 27 29 24 16 20 21
3610.0 27 26 28 29 32 38 40 43 50 59
3650.0 72 87 75 77 59 50 41 49 27 20
3690.0 31 24 15 24 20 13 45 30 31 34
3730.0 47 64 46 73 49 57 60 70 51 38
3770.0 24 32 35 42 36 32 42 36 40 57
3810.0 61 56 30 50 62 56 51 83 85 73
3850.0 62 68 65 37 27 40 46 36 37 46
3890.0 47 67 51 58 68 66 65 61 66 80
3930.0 64 72 78 70 54 74 60 56 55 89
##END=
