##TITLE=Benzenemethanol, 3-hydroxy-
##JCAMP-DX=4.24
##DATA TYPE=INFRARED SPECTRUM
##ORIGIN=Sadtler Research Labs Under US-EPA Contract
##OWNER=NIST Standard Reference Data Program
##CAS REGISTRY NO=620-24-6
##MOLFORM=C 7 H 8 O 2
##XUNITS=1/CM
##YUNITS=ABSORBANCE
##XFACTOR=1.0
##YFACTOR=0.000032220
##DELTAX=4.0
##FIRSTX=450.0
##LASTX=3966.0
##FIRSTY=0.074945
##MAXX=3966
##MINX=450
##MAXY=0.3222
##MINY=0
##NPOINTS=880
##XYDATA=(X++(Y..Y))
450.0 2326 2423 1709 1209 798 516 454 526 166 74
490.0 496 1065 449 438 672 797 1361 1525 1526 1563
530.0 1391 1309 1235 1019 1379 938 97 614 525 134
570.0 1001 310 978 437 789 19 869 34 423 62
610.0 370 581 339 426 367 401 392 158 272 145
650.0 146 155 129 154 352 700 1153 1613 1800 2445
690.0 3069 2828 2222 1842 1706 989 849 759 1051 1245
730.0 1397 1877 2199 2320 2710 3158 2754 2736 2971 3071
770.0 3764 4356 4060 3981 3465 2520 1934 1391 1090 447
810.0 353 358 228 218 355 347 553 636 933 1379
850.0 1329 1432 1283 1506 1554 1538 1472 1492 1382 1272
890.0 1107 1082 1104 1319 1469 1779 2380 2566 2709 2646
930.0 3055 2620 2301 1745 1483 1408 1416 1497 1682 1727
970.0 1978 2032 2089 1996 2155 2459 2862 3195 3557 3974
1010.0 4422 4669 5085 5628 5862 5891 5725 5295 4850 4230
1050.0 3673 3205 2857 2656 2430 2208 2023 1789 1488 1339
1090.0 1196 1031 946 879 888 931 977 1199 1547 1980
1130.0 2734 3853 5288 6746 7968 8719 8999 8882 8353 7770
1170.0 7670 7980 8529 9235 9887 10000 9756 9060 8138 7061
1210.0 5741 4369 3443 2844 2516 2363 2269 2353 2448 2749
1250.0 3172 3803 4695 5791 6952 7814 8360 8527 8063 7334
1290.0 6390 5580 4965 4483 4092 3748 3369 2978 2493 2185
1330.0 1947 1715 1705 1544 1421 1418 1430 1573 1828 2172
1370.0 2486 2906 3226 3213 3298 2974 2681 2354 1965 1778
1410.0 1538 1440 1400 1329 1301 1451 1821 2473 3278 4115
1450.0 5014 5564 5783 5876 5225 4602 4213 4069 3941 3618
1490.0 3351 3027 2586 2039 1571 1280 844 734 697 649
1530.0 561 607 569 618 560 480 554 718 941 1012
1570.0 1496 2146 2960 4370 5348 6614 7901 7891 8899 8311
1610.0 7371 6576 5083 4111 2865 2041 1351 822 562 299
1650.0 375 302 243 103 222 205 233 209 270 293
1690.0 209 185 298 431 307 338 448 621 613 555
1730.0 677 651 603 486 451 555 593 679 658 528
1770.0 425 254 163 155 137 134 124 163 119 150
1810.0 102 137 148 144 205 198 179 177 173 250
1850.0 134 98 87 28 97 64 81 50 54 76
1890.0 100 142 140 158 184 237 238 292 272 265
1930.0 207 191 146 105 92 43 48 45 30 45
1970.0 44 31 33 37 46 59 83 66 79 78
2010.0 80 96 105 110 110 97 104 88 87 86
2050.0 71 73 84 83 81 81 70 84 73 72
2090.0 69 62 48 35 38 36 32 24 27 13
2130.0 6 11 17 5 9 2 10 14 20 30
2170.0 18 15 23 26 26 40 37 39 42 37
2210.0 22 27 22 18 20 8 6 11 12 14
2250.0 7 14 6 7 16 13 21 26 34 39
2290.0 51 71 86 95 115 127 119 157 161 158
2330.0 190 183 197 196 216 213 226 181 148 150
2370.0 148 159 161 148 134 104 90 111 113 120
2410.0 123 119 130 133 141 136 121 121 109 128
2450.0 133 127 137 124 116 117 118 122 106 104
2490.0 104 108 86 76 74 80 58 68 62 60
2530.0 55 53 66 64 75 75 62 64 59 44
2570.0 57 48 51 39 50 57 58 62 68 66
2610.0 66 76 75 88 67 69 66 70 77 49
2650.0 63 71 61 87 71 61 75 81 67 82
2690.0 80 77 82 102 97 99 131 160 162 197
2730.0 209 212 218 199 207 205 191 201 210 203
2770.0 207 226 231 238 250 270 285 308 340 368
2810.0 413 425 473 500 535 601 649 738 842 944
2850.0 1033 1163 1315 1472 1652 1880 2134 2386 2577 2670
2890.0 2691 2609 2471 2353 2241 2203 2185 2203 2229 2277
2930.0 2274 2256 2209 2121 2037 1941 1816 1702 1570 1418
2970.0 1262 1112 946 829 728 665 613 614 649 733
3010.0 865 1023 1218 1381 1546 1742 1919 2099 2239 2321
3050.0 2325 2283 2151 1969 1810 1699 1580 1428 1291 1131
3090.0 981 832 712 613 479 408 366 302 237 194
3130.0 159 123 81 47 42 44 32 21 17 12
3170.0 24 36 51 39 18 27 19 10 33 36
3210.0 42 27 23 18 35 36 29 24 16 35
3250.0 29 27 16 14 46 36 37 29 50 44
3290.0 38 44 29 44 38 60 56 43 63 92
3330.0 74 94 76 102 88 82 77 89 94 60
3370.0 104 79 78 110 64 73 99 79 108 58
3410.0 61 80 89 109 90 81 87 83 99 65
3450.0 63 68 64 91 73 47 60 49 99 68
3490.0 88 59 38 82 71 38 95 33 95 70
3530.0 55 53 38 14 96 45 95 6 129 80
3570.0 250 155 156 200 230 225 200 94 194 145
3610.0 297 406 430 719 857 1530 2350 3613 5737 7859
3650.0 8927 8637 8323 7062 4824 2558 1659 1115 751 624
3690.0 479 374 310 256 191 110 157 64 50 65
3730.0 96 36 56 32 11 57 3 91 2 5
3770.0 15 2 2 2 2 23 12 21 5 68
3810.0 49 2 3 33 26 6 109 45 61 36
3850.0 47 128 84 39 0 103 151 138 37 85
3890.0 63 61 138 113 98 84 19 190 29 149
3930.0 99 132 35 49 115 102 64 201 151 160
##END=
