##TITLE=Phenol, 3-ethyl-
##JCAMP-DX=4.24
##DATA TYPE=INFRARED SPECTRUM
##ORIGIN=Sadtler Research Labs Under US-EPA Contract
##OWNER=NIST Standard Reference Data Program
##CAS REGISTRY NO=620-17-7
##MOLFORM=C 8 H 10 O
##XUNITS=1/CM
##YUNITS=ABSORBANCE
##XFACTOR=1.0
##YFACTOR=0.000082581
##DELTAX=4.0
##FIRSTX=450.0
##LASTX=3966.0
##FIRSTY=0.054338
##MAXX=3966
##MINX=450
##MAXY=0.82581
##MINY=0
##NPOINTS=880
##XYDATA=(X++(Y..Y))
450.0 658 1086 737 434 280 187 43 68 107 60
490.0 117 162 143 214 245 230 298 369 427 507
530.0 534 472 486 399 274 208 125 90 86 80
570.0 158 236 321 376 371 373 338 236 162 93
610.0 66 60 38 30 39 9 21 22 24 36
650.0 29 52 36 149 201 523 910 1431 1903 2524
690.0 3616 3150 2228 1747 1273 825 624 641 724 796
730.0 817 771 716 702 766 923 1146 1432 1801 2168
770.0 2773 3253 3204 3059 2480 1845 1327 835 525 313
810.0 244 170 163 168 233 319 466 655 806 1147
850.0 1305 1129 1149 1179 1206 1323 1463 1209 1121 1205
890.0 1397 2016 2997 3886 4058 4102 3629 2348 1146 611
930.0 383 257 188 136 118 108 132 147 200 279
970.0 398 532 637 695 715 707 659 569 469 441
1010.0 372 301 256 269 287 332 404 511 701 911
1050.0 1089 1223 1344 1322 1176 1049 949 868 858 868
1090.0 846 828 757 680 607 583 638 755 953 1223
1130.0 1671 2447 3816 6056 8236 9248 9419 9564 7682 5757
1170.0 5180 5532 5931 6532 7654 7951 7600 6814 6109 4793
1210.0 3289 2176 1568 1278 1209 1306 1523 1852 2097 2318
1250.0 2559 2832 3140 3751 4714 5480 5872 5812 5691 4662
1290.0 3538 2835 2506 2436 2635 3142 3584 3738 3629 3388
1330.0 2721 2012 1483 1065 809 674 602 515 508 448
1370.0 454 406 496 487 470 451 440 437 452 505
1410.0 490 553 501 619 624 832 1091 1600 2492 3552
1450.0 4743 5142 5571 5463 4801 3889 3456 3362 3412 3589
1490.0 3609 3565 3231 2791 2235 1555 1190 912 731 719
1530.0 598 601 507 510 505 534 593 590 852 1015
1570.0 1434 1875 2795 4376 5438 7319 7944 10000 9054 9529
1610.0 8756 7388 6374 4970 4170 2740 2073 1302 924 580
1650.0 385 310 217 241 197 204 179 223 219 214
1690.0 249 235 183 151 141 146 135 121 179 215
1730.0 223 196 229 216 205 158 167 131 107 91
1770.0 71 35 47 36 35 21 18 35 37 77
1810.0 94 113 136 137 129 132 141 155 121 102
1850.0 82 55 32 34 27 34 53 56 67 61
1890.0 71 84 121 153 180 199 221 227 184 153
1930.0 126 84 46 16 8 4 7 3 9 5
1970.0 16 14 26 28 33 30 41 41 40 36
2010.0 34 21 17 21 21 28 34 36 36 44
2050.0 47 53 56 54 48 42 31 22 14 10
2090.0 7 7 4 9 6 3 3 10 9 14
2130.0 20 24 26 29 32 30 34 39 45 51
2170.0 58 67 67 66 59 50 34 21 15 10
2210.0 7 7 8 8 13 14 16 19 19 17
2250.0 16 13 14 14 11 12 9 12 13 17
2290.0 20 20 23 34 49 53 74 81 84 82
2330.0 83 88 84 86 86 89 75 74 85 92
2370.0 84 81 76 73 72 72 75 74 78 82
2410.0 85 101 113 122 127 134 127 116 108 107
2450.0 107 104 105 111 109 104 102 95 90 85
2490.0 86 83 79 85 78 75 67 59 50 49
2530.0 44 41 44 48 53 49 48 45 40 32
2570.0 28 28 26 27 30 38 40 51 54 62
2610.0 62 64 61 62 63 66 67 64 68 65
2650.0 64 62 57 52 49 45 43 39 35 39
2690.0 38 39 44 48 57 57 66 69 79 86
2730.0 100 116 127 141 144 143 140 138 144 155
2770.0 163 172 180 187 189 191 193 194 193 194
2810.0 196 209 221 245 279 322 366 421 470 533
2850.0 619 732 909 1125 1403 1690 2020 2336 2563 2749
2890.0 2764 2621 2545 2458 2366 2297 2258 2229 2248 2450
2930.0 2847 3394 4077 4501 4517 4311 4016 3689 3887 5169
2970.0 6944 7826 7497 7106 5285 3168 2092 1692 1558 1617
3010.0 1719 1791 1796 1850 1880 1977 2238 2559 2854 2933
3050.0 2874 2663 2318 2004 1805 1640 1492 1380 1253 1126
3090.0 1009 900 761 659 574 509 450 396 344 288
3130.0 241 193 167 141 121 119 110 108 110 111
3170.0 110 121 115 107 89 78 58 51 45 42
3210.0 39 43 49 35 35 36 41 26 24 33
3250.0 16 23 17 26 25 36 35 34 37 30
3290.0 39 35 36 27 36 35 34 33 36 45
3330.0 56 74 89 107 122 118 107 100 102 102
3370.0 102 92 106 91 82 75 65 61 54 49
3410.0 54 63 53 61 63 69 54 58 50 43
3450.0 42 35 34 24 37 28 38 36 28 34
3490.0 31 40 17 27 23 32 28 19 28 11
3530.0 27 13 28 7 25 17 40 20 31 36
3570.0 34 60 35 62 39 65 65 35 78 68
3610.0 86 68 163 164 316 456 981 1661 3305 5432
3650.0 6928 6816 6710 5717 3383 1325 515 260 133 84
3690.0 36 85 24 46 19 24 3 22 3 3
3730.0 15 4 19 4 35 2 45 8 33 22
3770.0 21 43 22 48 13 38 16 18 8 32
3810.0 3 31 3 15 3 13 22 4 6 35
3850.0 14 0 38 46 17 44 29 53 33 47
3890.0 12 41 6 23 15 47 53 72 67 71
3930.0 60 55 76 60 72 68 75 93 96 82
##END=
