##TITLE=Benzene, 1-(chloromethyl)-3-methyl-
##JCAMP-DX=4.24
##DATA TYPE=INFRARED SPECTRUM
##ORIGIN=Sadtler Research Labs Under US-EPA Contract
##OWNER=NIST Standard Reference Data Program
##CAS REGISTRY NO=620-19-9
##MOLFORM=C 8 H 9 Cl
##XUNITS=1/CM
##YUNITS=ABSORBANCE
##XFACTOR=1.0
##YFACTOR=0.000064941
##DELTAX=4.0
##FIRSTX=450.0
##LASTX=3966.0
##FIRSTY=0.000065
##MAXX=3966
##MINX=450
##MAXY=0.64941
##MINY=0
##NPOINTS=880
##XYDATA=(X++(Y..Y))
450.0 1 8 49 84 117 111 20 23 148 145
490.0 195 250 306 336 296 360 445 400 393 296
530.0 291 192 103 142 119 186 206 135 370 596
570.0 1141 1868 2186 1776 1537 789 263 234 326 263
610.0 149 127 88 155 251 140 191 210 241 172
650.0 302 353 344 456 590 925 1116 1488 1910 2137
690.0 2444 2761 3294 4589 6414 8428 10000 9785 8238 6905
730.0 6683 6705 6290 6193 5079 4049 3135 2689 2516 2534
770.0 2667 3013 3203 3151 2776 2166 1643 1202 809 568
810.0 427 401 313 213 220 125 135 154 131 136
850.0 142 167 153 249 341 418 504 572 553 522
890.0 499 420 386 327 322 358 338 356 396 416
930.0 430 416 377 322 250 197 191 236 186 177
970.0 164 177 187 207 197 232 269 238 236 220
1010.0 167 141 143 136 151 184 218 262 380 474
1050.0 529 562 491 414 358 326 331 449 611 761
1090.0 814 759 726 571 417 324 332 295 298 283
1130.0 289 293 320 368 464 713 921 991 895 773
1170.0 481 384 368 342 339 287 277 256 287 335
1210.0 374 437 440 437 440 512 661 863 1083 1359
1250.0 1680 2003 2469 3062 3912 4655 5129 4914 4309 3174
1290.0 2113 1449 1057 827 721 621 551 473 401 346
1330.0 294 247 251 239 237 232 278 292 325 346
1370.0 401 465 559 659 691 735 670 604 585 579
1410.0 590 632 704 787 911 1093 1332 1618 1835 2001
1450.0 2075 1991 1780 1557 1470 1470 1569 1712 1980 2301
1490.0 2537 2508 2350 1959 1552 1136 962 883 848 791
1530.0 754 721 691 662 552 485 460 471 456 446
1570.0 485 555 668 765 913 1071 1222 1473 1822 2294
1610.0 2671 2691 2366 1790 1065 527 301 232 173 180
1650.0 163 222 151 165 165 199 189 199 211 258
1690.0 225 231 233 230 163 132 147 175 147 139
1730.0 169 205 186 216 230 240 247 247 241 223
1770.0 234 266 246 250 259 238 250 211 203 171
1810.0 155 139 114 126 136 142 150 180 215 262
1850.0 259 284 285 284 261 251 224 185 149 116
1890.0 105 99 84 80 77 87 86 117 158 204
1930.0 269 294 299 284 232 160 103 64 48 32
1970.0 32 25 24 22 32 25 25 17 17 21
2010.0 26 24 40 39 32 32 33 39 38 42
2050.0 33 27 26 23 32 25 31 31 32 32
2090.0 24 32 25 24 25 15 24 24 24 24
2130.0 23 15 23 16 9 13 9 8 16 16
2170.0 15 9 14 8 16 15 15 8 8 19
2210.0 15 8 12 10 8 8 16 8 16 15
2250.0 16 17 23 14 21 25 31 30 32 47
2290.0 47 54 63 70 71 98 109 118 147 177
2330.0 182 191 178 176 188 140 150 210 210 166
2370.0 123 106 84 68 51 43 41 36 43 50
2410.0 52 52 58 61 68 59 60 60 52 52
2450.0 45 45 53 61 60 62 55 55 53 54
2490.0 45 61 55 45 47 40 47 47 56 42
2530.0 41 52 57 48 48 49 49 28 34 33
2570.0 41 27 36 40 37 50 50 51 54 68
2610.0 58 59 59 65 43 45 42 39 32 34
2650.0 29 43 45 31 45 44 53 45 54 55
2690.0 76 81 95 106 112 95 117 115 138 138
2730.0 147 164 194 234 230 242 206 158 130 96
2770.0 89 96 82 88 81 81 98 111 106 122
2810.0 138 150 159 197 223 254 300 356 412 489
2850.0 567 677 827 1022 1287 1579 1863 1996 2054 1980
2890.0 1823 1682 1623 1631 1701 1799 1954 2221 2689 3235
2930.0 3759 4013 4093 3822 3453 3098 2852 2792 2863 3013
2970.0 2957 2716 2390 2158 2028 2000 2083 2245 2418 2568
3010.0 2709 2908 3194 3624 4142 4615 4944 4979 4609 4166
3050.0 3709 3448 3417 3457 3386 3205 2950 2451 1885 1443
3090.0 1124 935 809 747 724 715 660 591 472 358
3130.0 236 173 130 99 64 96 69 74 72 72
3170.0 41 70 61 74 68 68 83 62 76 64
3210.0 63 58 64 65 50 42 45 39 48 37
3250.0 49 51 29 23 50 36 44 38 33 57
3290.0 38 14 42 31 35 36 40 28 18 31
3330.0 31 48 38 39 36 43 23 36 29 31
3370.0 44 64 49 49 49 33 42 44 39 46
3410.0 43 25 42 34 37 37 27 27 36 29
3450.0 53 22 48 64 49 51 36 50 58 30
3490.0 37 38 29 31 35 33 34 34 42 26
3530.0 36 37 31 53 47 55 59 58 44 59
3570.0 47 36 52 58 69 64 71 72 57 42
3610.0 58 79 69 94 44 84 74 51 56 87
3650.0 90 65 75 56 52 60 78 66 60 55
3690.0 82 80 43 68 69 45 76 53 71 78
3730.0 89 92 100 82 104 105 95 78 77 94
3770.0 102 76 102 93 78 61 75 85 107 100
3810.0 94 95 110 103 96 94 79 102 90 95
3850.0 117 128 111 105 111 112 105 96 119 130
3890.0 121 112 108 115 87 89 99 99 106 83
3930.0 77 101 97 91 99 110 0 8 8 8
##END=
