##TITLE=Benzaldehyde, 3-methyl-
##JCAMP-DX=4.24
##DATA TYPE=INFRARED SPECTRUM
##ORIGIN=Sadtler Research Labs Under US-EPA Contract
##OWNER=NIST Standard Reference Data Program
##CAS REGISTRY NO=620-23-5
##MOLFORM=C 8 H 8 O
##XUNITS=1/CM
##YUNITS=ABSORBANCE
##XFACTOR=1.0
##YFACTOR=0.000122824
##DELTAX=4.0
##FIRSTX=450.0
##LASTX=3966.0
##FIRSTY=0.009580
##MAXX=3966
##MINX=450
##MAXY=1.22824
##MINY=0
##NPOINTS=880
##XYDATA=(X++(Y..Y))
450.0 78 90 19 0 18 26 53 21 34 35
490.0 71 24 21 34 35 30 76 85 81 72
530.0 45 34 33 26 31 14 18 19 24 27
570.0 23 40 39 41 34 56 49 56 69 51
610.0 61 70 65 58 75 83 135 223 430 638
650.0 775 809 781 647 515 406 452 510 624 1044
690.0 700 602 505 382 241 148 102 111 147 217
730.0 317 461 581 671 689 683 633 714 1007 1364
770.0 1639 1970 2387 1952 1717 1106 792 506 306 185
810.0 121 78 62 53 49 48 46 52 48 52
850.0 48 52 54 60 78 101 120 146 177 193
890.0 199 249 304 314 310 361 339 290 282 310
930.0 325 328 301 257 188 125 79 63 55 58
970.0 59 71 87 112 136 161 180 203 207 169
1010.0 144 116 94 83 84 88 110 122 139 157
1050.0 162 151 147 142 132 139 169 211 250 259
1090.0 257 246 211 166 136 128 129 139 160 234
1130.0 458 875 1181 1400 1636 1777 1305 995 907 539
1170.0 314 229 154 113 103 101 105 115 110 102
1210.0 98 95 95 115 184 347 653 1061 1410 1586
1250.0 1562 1357 912 443 285 283 342 435 537 617
1290.0 678 660 598 500 386 271 212 165 125 104
1330.0 97 98 95 96 105 119 134 155 185 237
1370.0 339 471 554 672 745 691 597 469 352 272
1410.0 235 228 227 249 267 298 329 382 397 409
1450.0 416 418 411 374 385 402 439 460 485 477
1490.0 447 393 331 243 219 173 148 144 149 140
1530.0 129 140 135 151 124 115 113 136 143 141
1570.0 188 258 400 566 772 891 941 982 946 834
1610.0 750 717 651 463 295 199 147 129 110 137
1650.0 164 261 277 337 395 444 477 534 556 558
1690.0 501 507 576 810 1486 3314 6565 9104 9552 10000
1730.0 9116 4831 1866 878 501 314 226 187 161 142
1770.0 132 113 89 86 91 100 119 125 131 138
1810.0 146 142 135 127 123 111 84 68 55 51
1850.0 45 49 59 69 78 87 89 93 90 94
1890.0 103 99 94 87 75 65 56 54 50 52
1930.0 53 56 62 63 64 65 64 51 44 37
1970.0 29 26 23 20 18 15 14 12 10 10
2010.0 13 12 13 13 12 9 8 7 7 8
2050.0 12 17 20 21 22 22 21 17 13 9
2090.0 7 3 2 0 0 0 1 1 1 3
2130.0 6 6 6 9 10 12 15 22 24 22
2170.0 20 15 10 7 6 4 3 4 3 3
2210.0 1 3 2 2 0 2 1 3 6 6
2250.0 6 6 6 3 6 6 9 8 11 12
2290.0 12 13 9 12 14 13 17 17 18 18
2330.0 21 22 22 22 21 13 15 14 17 18
2370.0 21 21 24 23 22 19 18 19 16 15
2410.0 15 15 14 14 16 16 16 16 14 14
2450.0 11 10 10 8 10 8 8 11 15 16
2490.0 18 20 19 17 18 17 15 18 19 21
2530.0 21 23 26 24 21 20 19 20 20 19
2570.0 23 25 26 25 29 32 34 34 41 46
2610.0 49 62 63 66 69 67 65 58 54 53
2650.0 54 60 71 86 97 107 112 118 118 125
2690.0 144 192 288 463 770 1217 1616 1868 2000 1871
2730.0 1568 1070 641 410 301 254 249 255 291 363
2770.0 466 587 717 830 924 1027 1156 1300 1434 1502
2810.0 1513 1466 1344 1168 997 840 705 582 477 408
2850.0 361 337 333 345 373 410 449 479 493 493
2890.0 483 469 459 458 463 480 512 563 641 751
2930.0 852 908 918 893 822 734 616 527 458 416
2970.0 371 345 338 346 353 360 380 397 433 483
3010.0 558 621 658 702 782 854 901 898 853 791
3050.0 716 669 669 693 711 710 671 595 505 398
3090.0 320 283 257 241 224 200 165 130 93 65
3130.0 48 39 31 28 27 22 21 22 22 21
3170.0 23 24 24 24 24 26 27 32 31 30
3210.0 26 22 18 15 15 16 14 13 12 15
3250.0 12 11 14 12 15 14 13 12 12 14
3290.0 15 12 15 16 16 20 16 17 17 15
3330.0 14 15 15 12 16 11 11 13 15 15
3370.0 16 18 20 26 31 37 44 50 56 61
3410.0 63 82 106 130 149 151 146 98 52 22
3450.0 13 8 7 5 12 17 14 13 11 13
3490.0 9 8 10 5 7 5 7 12 9 2
3530.0 8 10 4 9 7 7 12 12 8 5
3570.0 11 12 16 21 13 17 19 8 12 6
3610.0 9 6 5 14 8 15 6 7 10 11
3650.0 18 5 12 11 11 20 18 27 10 15
3690.0 16 14 12 14 11 15 14 11 9 9
3730.0 9 15 16 11 34 21 25 5 17 8
3770.0 13 14 9 17 13 13 15 13 20 15
3810.0 18 21 20 19 13 15 17 18 14 18
3850.0 15 31 16 15 12 22 12 15 11 13
3890.0 12 17 3 9 10 12 7 4 10 10
3930.0 11 9 15 19 12 9 17 14 7 12
##END=
