##TITLE=Benzene, 1-nitro-4-phenoxy-
##JCAMP-DX=4.24
##DATA TYPE=INFRARED SPECTRUM
##ORIGIN=Sadtler Research Labs Under US-EPA Contract
##OWNER=NIST Standard Reference Data Program
##CAS REGISTRY NO=620-88-2
##MOLFORM=C 12 H 9 N O 3
##XUNITS=1/CM
##YUNITS=ABSORBANCE
##XFACTOR=1.0
##YFACTOR=0.000145065
##DELTAX=4.0
##FIRSTX=450.0
##LASTX=3966.0
##FIRSTY=0.011895
##MAXX=3966
##MINX=450
##MAXY=1.45065
##MINY=0
##NPOINTS=880
##XYDATA=(X++(Y..Y))
450.0 82 107 49 152 96 114 146 184 273 356
490.0 483 440 334 237 192 129 100 111 68 66
530.0 57 61 50 67 40 37 53 37 38 26
570.0 20 43 55 65 45 84 97 83 50 55
610.0 50 58 62 68 85 94 98 113 166 201
650.0 207 132 114 98 111 194 210 290 385 560
690.0 709 711 581 383 240 171 116 105 99 121
730.0 164 238 402 657 970 1239 1172 852 473 291
770.0 205 168 152 175 194 207 218 169 131 97
810.0 92 81 107 131 181 203 243 323 498 723
850.0 851 861 804 850 1096 1715 2169 1773 964 387
890.0 218 147 150 153 174 138 96 50 30 19
930.0 4 8 2 10 9 25 25 28 30 20
970.0 31 23 38 36 38 34 38 38 76 164
1010.0 187 183 178 240 198 119 42 26 17 18
1050.0 29 31 62 85 122 133 138 125 118 133
1090.0 162 212 258 356 484 635 639 467 237 117
1130.0 80 63 79 93 141 213 433 889 1305 1323
1170.0 922 570 452 440 469 579 711 765 629 462
1210.0 431 538 756 1083 1521 2095 3118 4908 7494 10000
1250.0 9919 7585 4476 2517 1562 1126 864 728 624 596
1290.0 600 608 601 565 549 525 575 654 754 793
1330.0 924 1260 1839 2610 3364 4031 3983 3212 2140 1353
1370.0 947 713 535 382 298 235 210 199 177 167
1410.0 156 162 187 221 189 216 204 254 227 272
1450.0 280 283 407 457 612 713 1031 1724 2989 5191
1490.0 5862 5433 3305 1680 1297 965 964 1044 1374 1682
1530.0 2166 2528 2851 2705 2495 2070 1592 1290 1002 879
1570.0 1112 1515 2342 3621 3945 3642 2318 1778 1437 1284
1610.0 1157 1058 888 651 468 290 211 182 118 159
1650.0 127 187 111 112 103 93 102 65 77 101
1690.0 61 51 99 97 70 50 68 96 61 53
1730.0 67 92 71 57 66 69 61 62 76 74
1770.0 107 123 82 78 44 52 38 40 34 23
1810.0 18 25 7 14 23 26 20 9 37 34
1850.0 34 25 36 32 51 61 47 48 46 49
1890.0 48 54 55 67 80 86 90 84 81 60
1930.0 55 52 53 53 49 48 44 40 26 26
1970.0 19 24 24 30 31 45 51 48 50 47
2010.0 45 41 47 49 52 65 74 79 77 70
2050.0 50 42 32 32 34 34 34 26 20 14
2090.0 13 13 14 13 18 16 22 18 13 15
2130.0 7 9 5 5 3 3 1 2 4 4
2170.0 5 1 2 1 1 1 0 2 1 3
2210.0 3 10 11 7 12 11 9 10 12 11
2250.0 11 12 12 10 12 15 19 22 23 25
2290.0 23 30 33 40 41 46 50 47 52 45
2330.0 47 39 35 38 56 48 58 49 48 51
2370.0 46 50 53 61 52 41 42 43 45 49
2410.0 55 51 53 53 53 61 72 83 89 88
2450.0 84 76 67 65 58 61 55 53 49 44
2490.0 41 37 33 25 22 18 20 17 17 19
2530.0 22 20 20 22 20 23 24 24 25 25
2570.0 30 31 30 28 30 31 32 34 37 40
2610.0 40 36 29 32 26 27 27 27 26 27
2650.0 26 18 16 13 14 17 17 19 17 25
2690.0 25 24 24 25 22 22 20 19 20 19
2730.0 18 18 22 19 18 15 14 15 16 15
2770.0 18 20 18 20 16 15 16 18 17 16
2810.0 15 16 22 24 25 30 33 37 42 42
2850.0 45 50 56 55 57 61 61 66 63 57
2890.0 56 56 51 47 48 39 38 36 38 37
2930.0 37 37 40 40 40 35 31 32 33 28
2970.0 29 25 19 20 18 16 22 22 20 28
3010.0 37 48 63 80 89 104 129 156 201 245
3050.0 254 236 212 201 214 240 287 367 443 470
3090.0 406 305 240 192 155 121 87 61 42 30
3130.0 28 18 16 14 14 12 13 8 11 10
3170.0 9 18 19 11 16 16 13 22 20 18
3210.0 23 19 26 31 25 23 19 18 16 15
3250.0 20 22 15 14 12 11 17 17 17 22
3290.0 12 18 15 15 23 23 17 12 20 15
3330.0 17 18 16 26 19 19 22 14 17 19
3370.0 23 22 19 19 23 13 23 19 19 17
3410.0 27 17 25 19 24 24 23 16 18 18
3450.0 18 25 12 14 12 24 15 22 30 16
3490.0 18 20 17 25 23 25 14 22 9 2
3530.0 14 25 18 28 17 30 22 16 27 0
3570.0 18 18 19 30 10 27 17 25 20 24
3610.0 10 19 19 16 25 27 27 32 20 22
3650.0 25 19 27 15 30 11 35 25 30 24
3690.0 18 36 28 44 44 30 25 22 22 28
3730.0 24 33 13 37 10 35 29 33 29 33
3770.0 41 33 33 29 28 26 34 22 27 2
3810.0 35 14 27 20 28 38 37 19 29 25
3850.0 20 39 31 38 33 44 31 35 16 17
3890.0 28 26 27 16 32 27 40 26 43 36
3930.0 35 47 34 32 39 25 32 32 29 20
##END=
