##TITLE=Benzene, 1-nitro-3-phenoxy-
##JCAMP-DX=4.24
##DATA TYPE=INFRARED SPECTRUM
##ORIGIN=Sadtler Research Labs Under US-EPA Contract
##OWNER=NIST Standard Reference Data Program
##CAS REGISTRY NO=620-55-3
##MOLFORM=C 12 H 9 N O 3
##XUNITS=1/CM
##YUNITS=ABSORBANCE
##XFACTOR=1.0
##YFACTOR=0.000137970
##DELTAX=4.0
##FIRSTX=450.0
##LASTX=3966.0
##FIRSTY=0.000000
##MAXX=3966
##MINX=450
##MAXY=1.3797
##MINY=0
##NPOINTS=880
##XYDATA=(X++(Y..Y))
450.0 0 72 123 128 73 73 177 141 239 120
490.0 181 93 142 107 115 124 120 175 88 148
530.0 110 131 83 109 117 97 105 78 125 59
570.0 59 137 138 133 89 81 64 168 131 138
610.0 124 141 127 138 132 138 136 141 156 155
650.0 206 251 311 414 523 683 788 804 869 1074
690.0 1338 1311 1083 725 478 393 353 382 457 632
730.0 922 1295 1415 1249 1087 1030 1009 895 696 536
770.0 440 446 485 585 730 968 1231 1381 1303 1095
810.0 889 776 715 627 599 929 1765 2438 2191 1255
850.0 592 346 233 236 211 247 291 391 462 515
890.0 565 558 554 495 440 355 312 299 331 434
930.0 662 1040 1245 1104 678 382 270 236 208 191
970.0 180 177 180 160 165 155 165 183 197 198
1010.0 194 226 310 434 412 320 193 168 171 166
1050.0 179 196 251 310 420 504 554 546 525 484
1090.0 419 350 281 242 202 190 161 147 133 132
1130.0 138 141 172 196 248 298 404 562 714 737
1170.0 610 484 443 459 494 612 808 1013 1060 946
1210.0 864 983 1331 1909 2841 4294 6282 8333 9294 8218
1250.0 5850 3642 2261 1600 1423 1866 2705 3115 2622 1820
1290.0 1415 1355 1413 1522 1603 1616 1564 1458 1352 1280
1330.0 1313 1449 1690 2032 2591 3516 4396 4491 3608 2309
1370.0 1481 1116 940 766 601 431 361 321 302 286
1410.0 283 276 308 301 293 332 400 529 703 878
1450.0 999 1032 1165 1287 1640 2234 3237 4228 4285 4559
1490.0 4544 4329 3117 1838 1335 1243 1174 1331 1555 1928
1530.0 2099 2416 3058 4562 7024 10000 9311 7534 3720 2286
1570.0 1732 1711 1938 2481 2891 3153 2819 2350 1745 1186
1610.0 850 683 638 557 526 432 366 324 266 266
1650.0 258 255 216 195 197 190 212 161 206 197
1690.0 185 176 220 217 192 180 179 213 165 161
1730.0 163 188 156 147 153 159 162 156 171 159
1770.0 187 197 191 193 173 164 159 151 144 132
1810.0 124 124 111 114 115 116 114 107 126 141
1850.0 140 134 144 147 159 176 164 162 146 133
1890.0 117 110 96 98 106 113 122 131 149 154
1930.0 175 193 203 206 189 174 156 138 113 106
1970.0 92 93 85 86 91 101 109 112 119 115
2010.0 117 118 128 130 141 152 157 165 158 147
2050.0 121 110 97 94 93 89 89 86 89 84
2090.0 85 83 82 80 78 78 76 78 73 79
2130.0 79 83 85 88 85 84 85 84 85 86
2170.0 91 86 88 86 81 75 72 72 70 72
2210.0 71 75 72 73 73 73 72 72 76 72
2250.0 75 73 73 73 78 76 76 79 80 81
2290.0 76 78 74 75 80 84 89 94 96 91
2330.0 90 87 89 78 87 85 74 80 83 97
2370.0 89 103 100 104 105 109 110 112 115 111
2410.0 115 118 121 126 138 152 163 164 161 147
2450.0 125 111 101 97 94 96 96 97 97 89
2490.0 89 84 84 84 89 90 94 95 92 94
2530.0 89 87 87 88 90 92 96 93 95 92
2570.0 96 87 91 90 90 87 89 89 86 87
2610.0 84 83 81 76 73 75 74 76 74 74
2650.0 75 73 75 74 76 75 82 90 87 90
2690.0 89 89 84 84 83 81 74 71 71 66
2730.0 66 65 63 60 66 63 63 59 61 59
2770.0 58 64 66 69 72 74 73 74 79 75
2810.0 74 74 79 78 84 86 86 89 90 94
2850.0 96 98 104 114 117 126 127 135 142 145
2890.0 150 152 156 147 137 127 115 110 104 104
2930.0 100 100 99 102 99 95 93 85 83 81
2970.0 81 82 80 80 78 79 79 82 87 92
3010.0 102 124 150 183 214 241 278 326 393 468
3050.0 505 481 421 391 410 451 520 652 795 855
3090.0 777 642 532 467 397 308 218 155 116 95
3130.0 90 81 74 72 68 69 63 60 61 61
3170.0 65 66 67 72 71 73 72 73 78 71
3210.0 75 72 71 67 72 67 71 65 64 66
3250.0 65 66 64 60 66 66 63 62 63 64
3290.0 63 63 66 65 67 63 64 65 66 63
3330.0 63 66 69 68 67 63 67 67 67 67
3370.0 68 70 69 65 65 63 68 67 67 66
3410.0 72 66 64 66 67 67 66 68 65 65
3450.0 69 69 68 63 67 65 68 67 62 61
3490.0 67 63 64 69 58 71 65 73 68 70
3530.0 68 69 73 65 59 64 72 58 71 58
3570.0 64 65 67 68 59 68 69 61 66 69
3610.0 64 64 66 68 68 75 73 84 95 102
3650.0 119 111 118 103 95 76 81 80 74 73
3690.0 79 82 74 80 76 72 79 72 69 75
3730.0 78 87 74 83 71 81 80 82 80 78
3770.0 75 83 86 82 85 79 85 75 81 80
3810.0 92 81 88 98 86 82 86 87 88 92
3850.0 82 90 89 89 90 84 89 90 86 81
3890.0 85 84 94 81 92 93 86 90 93 92
3930.0 87 85 89 82 81 75 89 86 86 85
##END=
