##TITLE=Benzene, 1-ethyl-3-methyl-
##JCAMP-DX=4.24
##DATA TYPE=INFRARED SPECTRUM
##ORIGIN=Sadtler Research Labs Under US-EPA Contract
##OWNER=NIST Standard Reference Data Program
##CAS REGISTRY NO=620-14-4
##MOLFORM=C 9 H 12
##XUNITS=1/CM
##YUNITS=ABSORBANCE
##XFACTOR=1.0
##YFACTOR=0.000062671
##DELTAX=4.0
##FIRSTX=450.0
##LASTX=3966.0
##FIRSTY=0.002570
##MAXX=3966
##MINX=450
##MAXY=0.62671
##MINY=0
##NPOINTS=880
##XYDATA=(X++(Y..Y))
450.0 41 202 163 69 62 77 60 69 47 0
490.0 60 65 95 103 86 78 109 71 75 85
530.0 78 106 54 92 42 35 25 56 60 104
570.0 56 52 52 58 69 59 31 72 52 54
610.0 28 31 28 15 25 42 39 37 57 44
650.0 67 72 95 122 136 252 338 561 901 1313
690.0 1820 2516 3050 2609 1999 1659 1241 911 735 574
730.0 575 554 610 682 807 961 1072 1243 1543 1990
770.0 2492 3028 3929 3756 2919 2374 1741 1152 781 548
810.0 426 314 251 220 169 133 123 89 96 92
850.0 95 138 183 292 429 620 883 1329 1235 1127
890.0 1010 846 509 297 214 161 115 89 67 75
930.0 63 66 61 65 73 75 90 107 131 157
970.0 181 191 195 193 202 204 216 202 187 176
1010.0 173 179 187 194 204 236 269 333 422 514
1050.0 591 672 736 750 704 610 500 403 347 333
1090.0 375 434 472 446 430 367 265 190 144 121
1130.0 118 113 106 103 112 146 164 185 188 200
1170.0 157 136 120 97 82 75 73 72 67 73
1210.0 63 74 75 81 86 102 124 139 151 163
1250.0 165 159 159 143 141 146 146 150 161 165
1290.0 171 186 204 238 290 348 424 534 620 657
1330.0 647 596 497 375 288 253 243 268 309 366
1370.0 440 553 713 784 752 724 619 529 483 478
1410.0 500 508 559 594 695 828 1036 1235 1412 1560
1450.0 1767 1933 1955 1929 2002 1967 1868 1889 2049 2242
1490.0 2332 2300 2168 1842 1474 1182 1008 894 797 716
1530.0 692 649 617 567 525 462 430 416 418 449
1570.0 500 589 703 869 1040 1254 1505 1927 2453 2993
1610.0 3263 3110 2673 2038 1208 602 347 231 183 155
1650.0 171 144 164 168 198 202 213 177 173 130
1690.0 111 93 99 84 85 69 71 66 62 63
1730.0 74 93 114 148 193 219 223 244 250 241
1770.0 230 224 226 197 158 129 107 83 66 51
1810.0 45 48 47 60 68 94 122 149 183 214
1850.0 260 293 286 260 228 167 99 67 52 45
1890.0 40 38 38 44 51 69 103 142 201 241
1930.0 250 240 229 178 111 66 42 37 28 24
1970.0 24 16 14 11 10 12 10 5 6 7
2010.0 10 15 20 24 29 29 29 25 24 21
2050.0 16 17 16 11 8 5 5 3 2 6
2090.0 5 8 8 8 10 9 8 4 4 4
2130.0 8 8 12 10 6 6 5 9 12 11
2170.0 13 8 7 7 8 10 8 9 11 7
2210.0 6 10 11 12 14 11 14 17 17 19
2250.0 20 24 28 34 34 36 33 31 28 27
2290.0 24 26 30 33 34 40 38 42 52 43
2330.0 45 57 65 66 76 67 57 50 39 32
2370.0 37 41 38 34 31 27 25 24 32 35
2410.0 33 36 44 44 41 43 50 51 48 43
2450.0 38 39 34 37 35 37 44 43 39 43
2490.0 39 37 37 30 34 33 35 33 33 34
2530.0 38 38 37 36 37 32 28 28 21 21
2570.0 23 21 26 27 35 34 39 45 45 49
2610.0 54 57 50 51 54 60 58 60 62 55
2650.0 50 45 39 41 33 32 31 32 32 37
2690.0 37 45 54 62 67 72 72 81 91 112
2730.0 154 198 240 256 264 244 193 165 154 155
2770.0 166 177 189 191 199 199 205 208 213 220
2810.0 237 264 302 351 412 482 554 646 755 878
2850.0 1047 1287 1634 2100 2671 3269 3828 4198 4466 4624
2890.0 4393 4206 4072 3954 3882 3919 4064 4348 4884 5601
2930.0 6347 7095 7707 7894 7398 6625 5898 5393 5744 7576
2970.0 9523 10000 9534 8759 5978 4002 3214 2986 3041 3292
3010.0 3621 4028 4393 4745 5194 5483 5358 4991 4514 4002
3050.0 3609 3538 3536 3369 3207 2982 2420 1837 1396 1105
3090.0 924 837 792 780 766 733 658 571 459 356
3130.0 268 215 182 163 153 146 149 156 162 169
3170.0 168 171 158 133 113 89 70 54 46 44
3210.0 42 36 37 36 28 37 35 33 30 33
3250.0 30 32 31 32 27 27 23 32 25 21
3290.0 28 20 24 21 16 13 16 24 15 23
3330.0 23 20 29 24 31 30 26 23 22 23
3370.0 29 24 23 23 25 29 24 27 29 25
3410.0 33 28 21 26 29 29 36 32 33 31
3450.0 32 31 30 36 31 35 22 30 23 29
3490.0 18 30 29 16 19 22 19 20 15 31
3530.0 25 30 33 33 41 45 48 43 34 40
3570.0 36 28 29 23 28 25 27 40 30 31
3610.0 26 23 21 22 29 16 27 23 23 17
3650.0 27 38 26 34 23 11 17 19 25 28
3690.0 18 33 33 25 37 34 28 33 47 45
3730.0 40 35 43 42 35 39 38 54 46 49
3770.0 36 42 37 32 19 16 33 7 14 31
3810.0 23 15 17 5 33 22 4 1 13 8
3850.0 7 1 12 10 13 15 28 15 29 38
3890.0 38 37 28 18 22 17 19 29 33 29
3930.0 34 43 51 74 60 32 27 30 35 17
##END=
