##TITLE=1-Propanamine, N-nitroso-N-propyl-
##JCAMP-DX=4.24
##DATA TYPE=INFRARED SPECTRUM
##ORIGIN=Sadtler Research Labs Under US-EPA Contract
##OWNER=NIST Standard Reference Data Program
##CAS REGISTRY NO=621-64-7
##MOLFORM=C 6 H 14 N 2 O
##XUNITS=1/CM
##YUNITS=ABSORBANCE
##XFACTOR=1.0
##YFACTOR=0.000084515
##DELTAX=4.0
##FIRSTX=450.0
##LASTX=3966.0
##FIRSTY=0.008198
##MAXX=3966
##MINX=450
##MAXY=0.84515
##MINY=0
##NPOINTS=880
##XYDATA=(X++(Y..Y))
450.0 97 21 19 40 134 228 108 91 126 131
490.0 170 144 155 151 161 155 238 247 244 228
530.0 175 199 149 127 141 133 122 114 131 77
570.0 137 136 123 118 97 63 124 147 114 110
610.0 92 105 93 106 79 111 98 97 134 119
650.0 133 135 153 134 99 99 100 79 91 89
690.0 90 96 117 140 137 155 166 152 163 152
730.0 166 191 235 306 348 372 353 324 266 223
770.0 185 179 187 238 286 311 338 308 260 199
810.0 166 122 140 161 232 275 305 328 329 346
850.0 334 364 369 419 460 529 654 782 918 1033
890.0 1147 1217 1260 1344 1440 1519 1479 1394 1195 882
930.0 581 383 260 177 111 77 56 35 28 18
970.0 45 55 101 132 186 247 323 428 580 795
1010.0 1092 1508 2037 2651 3426 4233 5141 5920 6575 6954
1050.0 6876 6334 5401 4328 3234 2420 1861 1517 1285 1138
1090.0 1030 948 875 803 718 631 538 459 395 338
1130.0 309 276 264 247 256 267 293 353 440 611
1170.0 879 1276 1785 2344 2830 3060 3016 2667 2161 1636
1210.0 1272 1048 910 781 645 498 377 294 254 267
1250.0 298 378 458 579 719 877 1069 1248 1398 1510
1290.0 1642 1747 1897 2062 2226 2373 2432 2476 2479 2505
1330.0 2510 2541 2587 2664 2762 2863 3007 3011 2941 2670
1370.0 2363 1997 1706 1529 1435 1385 1291 1127 949 827
1410.0 764 824 913 1052 1159 1292 1411 1478 1618 1698
1450.0 1947 2108 2583 3109 3947 5238 7029 9225 9139 10000
1490.0 8459 6721 4332 2734 1791 1013 764 571 492 405
1530.0 353 329 284 258 221 220 184 176 151 141
1570.0 144 116 124 95 105 90 93 77 84 80
1610.0 65 71 64 63 50 59 51 49 52 53
1650.0 49 40 57 44 54 49 48 55 53 59
1690.0 51 55 40 56 38 47 46 50 36 40
1730.0 45 38 45 39 47 43 48 48 42 45
1770.0 43 39 29 35 29 30 27 33 31 31
1810.0 29 27 28 25 30 28 30 24 23 23
1850.0 21 23 19 19 17 20 14 24 21 19
1890.0 21 24 28 22 26 22 27 25 30 32
1930.0 30 34 30 37 28 34 29 30 26 24
1970.0 22 20 19 14 16 15 14 12 15 15
2010.0 10 11 15 20 16 18 15 18 22 23
2050.0 27 26 30 29 32 31 31 31 30 26
2090.0 25 26 23 24 20 18 16 17 11 13
2130.0 16 13 15 11 10 7 9 8 9 9
2170.0 14 14 15 18 22 19 24 27 25 26
2210.0 29 26 27 28 31 23 25 25 24 18
2250.0 20 21 16 17 17 15 12 14 15 14
2290.0 13 12 12 4 4 10 9 3 4 0
2330.0 0 4 8 4 8 8 0 12 0 0
2370.0 15 14 19 21 18 25 30 32 30 33
2410.0 34 35 26 24 15 15 7 6 2 5
2450.0 3 6 7 12 14 15 16 20 20 24
2490.0 24 28 28 28 28 28 29 36 37 41
2530.0 42 42 42 41 37 36 33 27 26 26
2570.0 21 23 21 19 19 20 20 20 16 15
2610.0 17 15 17 11 19 21 24 24 27 38
2650.0 43 43 47 53 58 58 56 61 58 64
2690.0 64 67 60 63 70 75 75 81 92 96
2730.0 110 120 134 150 163 171 174 170 167 168
2770.0 161 167 168 166 178 184 196 207 218 230
2810.0 241 256 277 294 319 346 385 423 468 523
2850.0 579 667 790 969 1218 1525 1892 2368 2935 3281
2890.0 3390 3268 2944 2618 2430 2461 2647 2950 3345 3854
2930.0 4386 4928 5439 5609 5455 5078 4687 4415 4610 5525
2970.0 6990 8390 9047 8581 6855 4829 3017 1848 1233 908
3010.0 747 641 574 517 478 435 393 360 327 298
3050.0 274 253 221 204 183 168 153 149 137 134
3090.0 126 131 118 112 113 109 102 99 98 100
3130.0 92 88 84 87 86 83 80 86 74 85
3170.0 83 83 82 86 79 78 76 66 68 63
3210.0 59 58 59 49 42 41 39 40 39 36
3250.0 30 32 38 36 36 31 35 29 29 33
3290.0 37 33 39 37 28 33 33 34 33 37
3330.0 32 40 42 42 34 36 46 35 37 33
3370.0 39 33 38 40 40 43 39 38 29 36
3410.0 41 36 34 29 32 27 37 28 30 34
3450.0 36 30 35 30 28 31 27 31 25 29
3490.0 34 37 15 24 28 29 20 23 26 21
3530.0 15 22 27 21 27 26 18 13 26 15
3570.0 26 21 22 18 19 25 24 23 16 21
3610.0 18 27 21 10 29 0 23 32 26 19
3650.0 2 19 22 18 16 3 13 4 34 24
3690.0 26 25 34 30 38 23 20 33 23 16
3730.0 26 28 30 32 24 37 8 47 35 20
3770.0 38 37 44 39 33 35 42 45 38 20
3810.0 34 26 15 33 37 28 29 25 31 24
3850.0 33 21 10 24 4 13 20 20 17 20
3890.0 25 6 28 22 22 22 28 28 28 23
3930.0 7 4 21 17 24 25 20 19 22 35
##END=
