##TITLE=Phenol, 3-ethoxy-
##JCAMP-DX=4.24
##DATA TYPE=INFRARED SPECTRUM
##ORIGIN=Sadtler Research Labs Under US-EPA Contract
##OWNER=NIST Standard Reference Data Program
##CAS REGISTRY NO=621-34-1
##MOLFORM=C 8 H 10 O 2
##XUNITS=1/CM
##YUNITS=ABSORBANCE
##XFACTOR=1.0
##YFACTOR=0.000052148
##DELTAX=4.0
##FIRSTX=450.0
##LASTX=3966.0
##FIRSTY=0.032801
##MAXX=3966
##MINX=450
##MAXY=0.52148
##MINY=0
##NPOINTS=880
##XYDATA=(X++(Y..Y))
450.0 629 532 860 986 857 655 476 302 384 366
490.0 341 327 212 263 129 204 226 361 393 411
530.0 400 339 215 259 407 642 522 279 101 50
570.0 50 195 286 530 509 362 411 358 288 394
610.0 524 543 332 309 177 169 251 314 348 427
650.0 421 264 194 337 655 964 1121 1418 1493 1142
690.0 893 802 644 557 486 347 314 262 328 414
730.0 481 632 749 831 1058 1217 1393 1600 1484 1348
770.0 1127 852 562 467 343 380 464 388 436 386
810.0 526 592 669 852 887 953 951 956 924 932
850.0 878 924 877 823 646 591 568 537 577 671
890.0 591 538 435 514 446 474 488 485 372 420
930.0 373 424 473 580 739 1052 1224 1396 1597 1764
970.0 1823 1750 1515 1256 910 612 531 474 505 511
1010.0 554 531 594 623 863 1146 1579 1994 2352 2548
1050.0 2491 2295 1976 1667 1449 1227 1165 1118 1063 1096
1090.0 1077 1112 1063 1052 1082 1229 1475 1780 2129 2815
1130.0 3851 5605 7613 9356 10000 9155 7763 5960 4855 4648
1170.0 4895 5229 5495 5753 5816 5261 4614 3746 2789 2232
1210.0 2089 1890 1560 1222 917 695 616 552 545 631
1250.0 719 865 1061 1358 1789 2419 3126 3824 4322 4527
1290.0 4581 4458 4238 3985 3624 3189 2740 2358 2063 1817
1330.0 1489 1197 912 653 475 420 417 371 446 477
1370.0 518 547 585 682 874 1121 1349 1448 1368 1136
1410.0 830 590 475 451 538 577 694 758 993 1172
1450.0 1380 1578 1638 1939 2077 2363 2634 3109 3511 3982
1490.0 4373 4418 4214 3753 2763 1946 1349 951 757 702
1530.0 667 551 517 394 600 701 760 715 811 1021
1570.0 1164 1508 1967 2742 3709 4869 5924 6808 7218 6987
1610.0 6356 5670 4897 4266 3476 2670 1953 1303 1038 752
1650.0 622 340 480 425 418 351 347 306 277 120
1690.0 205 200 137 102 201 207 163 63 147 176
1730.0 174 75 123 84 113 73 91 109 117 134
1770.0 109 27 94 101 126 134 106 151 103 111
1810.0 91 101 109 137 107 82 93 74 62 52
1850.0 92 121 131 121 100 81 134 141 179 197
1890.0 195 202 213 210 206 227 216 196 175 148
1930.0 143 125 132 127 134 125 108 88 77 85
1970.0 85 93 101 81 82 52 44 71 84 110
2010.0 89 87 77 67 76 94 95 99 111 89
2050.0 62 55 63 71 77 88 59 49 39 37
2090.0 65 76 85 65 67 56 46 41 60 68
2130.0 78 67 56 38 42 58 78 94 81 69
2170.0 57 50 51 69 78 87 67 48 44 48
2210.0 45 71 72 78 63 52 52 52 51 59
2250.0 68 66 55 38 23 18 38 46 67 43
2290.0 34 15 33 34 56 62 56 43 12 15
2330.0 14 41 60 109 63 62 15 15 14 62
2370.0 74 73 60 39 32 33 51 72 100 92
2410.0 109 102 110 116 139 157 152 156 131 130
2450.0 111 110 119 129 120 98 76 76 55 78
2490.0 87 102 96 84 63 55 54 75 76 61
2530.0 61 40 32 32 40 62 63 66 55 46
2570.0 46 54 55 98 95 88 72 68 71 74
2610.0 91 112 102 83 63 57 67 77 73 78
2650.0 78 64 39 37 45 64 85 74 47 34
2690.0 34 37 50 77 75 62 69 54 64 56
2730.0 95 114 132 118 120 88 103 121 133 164
2770.0 161 133 133 122 114 141 155 151 152 132
2810.0 114 111 121 159 181 177 172 171 153 189
2850.0 214 269 329 344 396 441 532 654 762 846
2890.0 896 935 935 947 965 1032 1064 1099 1057 1000
2930.0 973 1016 1099 1184 1218 1159 1059 910 805 810
2970.0 922 1093 1377 1660 1857 1865 1894 1513 1150 876
3010.0 676 522 460 444 482 536 580 625 655 669
3050.0 700 682 681 670 627 583 557 517 466 429
3090.0 411 381 400 372 326 257 192 170 154 157
3130.0 148 134 113 89 58 61 76 90 107 89
3170.0 58 44 44 69 96 90 105 99 62 54
3210.0 50 70 89 90 127 89 60 12 46 51
3250.0 87 101 82 39 33 53 72 73 93 118
3290.0 79 82 36 29 82 99 127 113 91 43
3330.0 53 71 121 113 143 123 81 58 85 99
3370.0 129 136 119 100 71 81 60 94 112 140
3410.0 116 82 53 53 84 118 138 148 100 57
3450.0 75 61 82 118 106 86 111 69 35 82
3490.0 83 131 139 111 74 59 70 84 116 127
3530.0 124 79 46 64 75 112 134 130 102 57
3570.0 28 61 68 113 123 100 113 94 75 83
3610.0 86 124 146 158 207 198 425 710 1214 1874
3650.0 2480 2628 2390 1986 1163 526 286 135 131 106
3690.0 30 26 75 57 94 83 53 53 12 15
3730.0 17 17 17 53 14 15 15 20 20 57
3770.0 69 99 66 38 27 26 31 32 29 60
3810.0 30 15 15 15 23 73 57 21 43 13
3850.0 15 15 39 97 87 29 29 21 17 41
3890.0 83 106 91 41 38 60 111 152 172 172
3930.0 140 83 66 74 128 196 0 15 15 15
##END=
