##TITLE=Ethane, 2-chloro-1,1-diethoxy-
##JCAMP-DX=4.24
##DATA TYPE=INFRARED SPECTRUM
##ORIGIN=Sadtler Research Labs Under US-EPA Contract
##OWNER=NIST Standard Reference Data Program
##CAS REGISTRY NO=621-62-5
##MOLFORM=C 6 H 13 Cl O 2
##XUNITS=1/CM
##YUNITS=ABSORBANCE
##XFACTOR=1.0
##YFACTOR=0.000052795
##DELTAX=4.0
##FIRSTX=450.0
##LASTX=3966.0
##FIRSTY=0.017634
##MAXX=3966
##MINX=450
##MAXY=0.52795
##MINY=0
##NPOINTS=880
##XYDATA=(X++(Y..Y))
450.0 334 185 235 176 194 122 51 4 215 283
490.0 255 48 108 146 164 256 131 244 192 254
530.0 66 407 254 200 208 242 389 169 214 129
570.0 211 158 115 199 113 139 135 155 107 155
610.0 125 90 132 94 105 142 147 193 150 164
650.0 226 180 193 203 185 179 157 146 145 174
690.0 123 115 128 155 161 150 184 183 208 221
730.0 257 253 227 298 355 481 665 1071 1518 1945
770.0 2142 2042 1585 1073 810 657 602 527 463 401
810.0 428 431 456 457 396 380 337 314 287 295
850.0 246 239 210 218 226 228 256 276 365 416
890.0 471 505 497 456 404 372 331 358 353 348
930.0 321 288 283 242 251 239 271 259 294 321
970.0 361 416 501 633 770 966 1152 1369 1572 1811
1010.0 2041 2275 2502 2615 2676 2673 2714 2884 3280 3866
1050.0 4707 5831 7094 8397 9435 10000 9903 9258 8293 7295
1090.0 6451 5754 5316 4993 4848 4851 5044 5370 5757 6125
1130.0 6378 6454 6298 5979 5442 4825 4175 3590 3082 2677
1170.0 2343 2072 1820 1617 1477 1430 1492 1587 1692 1725
1210.0 1685 1569 1377 1198 1022 888 768 715 690 731
1250.0 796 871 876 837 742 600 532 486 495 491
1290.0 508 539 562 584 587 591 573 581 601 684
1330.0 843 1055 1309 1519 1657 1658 1565 1390 1219 1123
1370.0 1267 1488 1598 1651 1520 1321 1188 1080 1011 921
1410.0 811 708 641 621 714 876 1031 1115 1140 1069
1450.0 950 848 711 599 513 459 445 437 446 440
1490.0 399 332 299 241 218 193 200 185 165 164
1530.0 156 156 135 142 136 145 133 135 109 135
1570.0 132 129 107 122 128 131 127 122 128 120
1610.0 138 134 120 130 136 141 144 160 162 147
1650.0 162 140 150 160 156 145 150 136 154 136
1690.0 140 143 136 143 155 158 161 167 163 186
1730.0 224 277 325 377 389 384 407 449 439 357
1770.0 290 246 224 214 193 175 167 168 162 142
1810.0 146 144 148 141 141 139 135 142 149 154
1850.0 146 147 153 164 155 160 154 164 168 175
1890.0 172 174 182 175 186 183 188 184 182 185
1930.0 184 183 187 195 203 204 202 209 205 204
1970.0 198 194 184 174 166 160 154 147 142 139
2010.0 124 117 117 112 117 112 100 100 105 89
2050.0 82 74 82 97 109 98 110 109 109 119
2090.0 122 121 124 142 138 133 137 135 128 127
2130.0 131 137 138 142 146 141 134 143 137 144
2170.0 138 149 141 141 130 136 129 127 120 119
2210.0 119 114 110 106 108 102 110 113 117 115
2250.0 107 109 112 116 111 106 109 110 107 110
2290.0 115 115 133 128 135 141 150 162 166 136
2330.0 111 107 97 83 43 102 172 155 73 2
2370.0 3 3 3 3 18 44 64 68 67 69
2410.0 68 68 60 69 60 60 60 57 60 47
2450.0 49 48 44 50 54 40 39 41 36 37
2490.0 35 35 35 29 31 25 21 26 22 13
2530.0 18 13 9 24 17 17 11 22 18 19
2570.0 16 12 17 30 15 19 27 42 43 47
2610.0 57 59 75 67 73 85 78 90 99 123
2650.0 107 115 110 102 107 101 91 91 89 88
2690.0 92 88 89 85 94 85 98 108 105 123
2730.0 134 144 159 166 178 196 206 200 208 212
2770.0 225 245 257 263 282 307 317 325 348 363
2810.0 372 378 387 396 409 444 470 504 573 647
2850.0 760 897 1053 1251 1480 1761 2058 2357 2576 2697
2890.0 2664 2523 2328 2228 2237 2359 2543 2669 2708 2627
2930.0 2555 2549 2621 2667 2589 2398 2103 1911 1839 2026
2970.0 2465 3121 3876 4725 5188 4775 3784 2757 1767 1225
3010.0 994 903 837 801 728 625 499 379 299 237
3050.0 208 186 167 163 151 123 115 117 99 83
3090.0 84 78 96 71 70 76 72 86 69 80
3130.0 91 73 66 67 56 84 83 60 74 84
3170.0 82 91 90 85 88 64 87 82 85 72
3210.0 83 71 77 92 80 59 79 79 65 55
3250.0 66 51 49 39 44 37 69 52 59 59
3290.0 55 34 15 24 51 61 38 41 34 12
3330.0 45 65 46 25 19 23 38 33 44 27
3370.0 35 30 25 44 27 25 35 49 20 40
3410.0 41 50 48 41 50 42 56 55 49 44
3450.0 43 55 33 52 44 50 53 41 57 53
3490.0 64 84 77 75 73 50 50 36 47 53
3530.0 58 52 22 66 77 76 99 89 63 71
3570.0 41 57 66 81 68 42 39 57 54 51
3610.0 83 54 71 39 65 65 9 69 34 62
3650.0 56 65 67 69 63 111 80 61 13 94
3690.0 110 11 60 29 65 2 19 28 26 47
3730.0 28 4 2 52 2 33 19 6 9 21
3770.0 52 52 43 21 11 12 63 51 8 3
3810.0 20 42 12 50 15 20 46 3 14 22
3850.0 12 3 7 76 57 20 16 3 3 3
3890.0 37 16 54 26 44 22 60 103 14 17
3930.0 26 10 91 94 62 53 0 15 27 3
##END=
