##TITLE=m-Tolylacetic acid
##JCAMP-DX=4.24
##DATA TYPE=INFRARED SPECTRUM
##ORIGIN=Sadtler Research Labs Under US-EPA Contract
##OWNER=NIST Standard Reference Data Program
##CAS REGISTRY NO=621-36-3
##MOLFORM=C 9 H 10 O 2
##XUNITS=1/CM
##YUNITS=ABSORBANCE
##XFACTOR=1.0
##YFACTOR=0.000086847
##DELTAX=4.0
##FIRSTX=450.0
##LASTX=3966.0
##FIRSTY=0.016067
##MAXX=3966
##MINX=450
##MAXY=0.86847
##MINY=0
##NPOINTS=880
##XYDATA=(X++(Y..Y))
450.0 185 120 95 149 121 147 190 230 311 347
490.0 383 344 319 302 348 398 461 571 625 599
530.0 489 374 258 202 140 174 180 275 386 514
570.0 729 1061 1723 2748 3819 4268 4246 3815 2933 2606
610.0 2457 2370 2096 1901 1677 1474 1320 1137 1001 837
650.0 728 598 535 481 458 493 555 703 932 1190
690.0 1575 1834 1988 1872 1595 1171 788 501 353 274
730.0 257 292 371 509 693 963 1247 1485 1561 1435
770.0 1197 946 777 661 558 429 306 199 113 60
810.0 26 16 11 0 6 2 14 21 32 52
850.0 70 93 120 154 179 195 211 219 213 200
890.0 188 194 206 210 217 220 210 194 181 172
930.0 179 190 210 218 216 195 171 149 117 101
970.0 85 81 72 75 77 83 96 102 94 76
1010.0 57 42 46 52 63 75 103 131 171 213
1050.0 268 335 411 515 652 843 1094 1454 1937 2522
1090.0 3243 4117 5185 6484 7897 8978 9427 9020 7785 6147
1130.0 4838 3971 3355 2848 2397 2013 1700 1475 1335 1247
1170.0 1194 1168 1165 1171 1203 1255 1331 1430 1549 1659
1210.0 1750 1794 1754 1638 1460 1258 1073 927 841 793
1250.0 750 715 674 645 632 632 646 670 706 740
1290.0 785 817 836 844 832 805 766 735 721 748
1330.0 825 957 1143 1362 1561 1697 1741 1691 1582 1453
1370.0 1311 1182 1046 911 784 674 573 497 447 431
1410.0 426 447 488 535 589 658 729 785 794 755
1450.0 690 610 529 466 427 436 479 557 676 830
1490.0 933 969 899 763 596 445 353 308 306 280
1530.0 279 254 240 211 179 151 141 136 142 158
1570.0 188 234 297 368 441 527 624 787 1035 1327
1610.0 1467 1349 1086 672 341 170 113 78 63 59
1650.0 60 72 73 74 88 104 113 127 148 171
1690.0 189 213 256 291 339 393 486 590 711 863
1730.0 1071 1329 1656 2096 2636 3291 4017 4861 5771 6832
1770.0 7976 9128 9772 10000 9550 8608 7392 6297 5184 4104
1810.0 3112 2257 1614 1153 850 624 487 390 336 293
1850.0 259 229 195 172 153 144 125 120 108 102
1890.0 92 86 79 71 71 64 69 72 92 101
1930.0 115 118 114 96 76 59 48 42 41 45
1970.0 44 44 45 42 39 36 38 32 30 31
2010.0 32 31 32 29 28 27 22 24 18 17
2050.0 13 13 8 11 5 4 7 5 5 5
2090.0 6 4 6 6 7 12 15 26 30 33
2130.0 30 24 18 13 12 12 10 10 10 11
2170.0 12 11 16 15 19 20 24 28 31 32
2210.0 35 39 39 36 34 31 28 25 21 19
2250.0 16 16 15 11 16 17 17 16 18 23
2290.0 31 39 46 58 58 66 66 65 72 69
2330.0 72 66 68 66 78 72 79 59 68 58
2370.0 56 52 62 58 44 29 22 20 17 21
2410.0 20 22 19 19 17 19 19 18 17 19
2450.0 18 20 17 22 18 19 18 19 15 16
2490.0 13 10 8 5 6 3 3 2 4 5
2530.0 6 6 5 3 5 4 2 0 0 1
2570.0 0 0 1 2 5 4 6 6 7 8
2610.0 6 7 9 7 9 10 9 6 11 9
2650.0 6 9 10 6 9 9 10 11 11 10
2690.0 14 11 13 12 13 20 21 26 30 35
2730.0 40 47 58 62 67 63 50 36 26 19
2770.0 21 18 21 22 23 27 31 34 38 43
2810.0 49 58 66 76 87 102 117 135 157 185
2850.0 219 257 305 370 443 518 581 618 618 602
2890.0 570 560 574 612 669 744 847 996 1182 1389
2930.0 1539 1601 1576 1451 1292 1116 960 834 733 664
2970.0 602 557 544 566 598 633 666 682 710 751
3010.0 818 913 1063 1258 1470 1669 1787 1778 1639 1471
3050.0 1318 1241 1245 1251 1209 1128 987 797 620 494
3090.0 408 351 318 298 289 266 239 201 164 121
3130.0 95 75 58 48 42 38 32 33 28 27
3170.0 27 27 24 20 21 20 22 21 18 20
3210.0 15 17 16 14 13 18 11 14 9 12
3250.0 13 9 10 9 14 10 11 6 10 8
3290.0 1 5 4 6 9 11 10 10 11 12
3330.0 14 10 12 12 11 7 9 8 10 10
3370.0 9 8 11 12 15 8 14 13 10 13
3410.0 14 12 13 18 17 14 13 15 17 18
3450.0 16 11 26 28 27 20 21 34 39 34
3490.0 34 32 44 58 60 64 76 83 105 136
3530.0 145 169 214 277 372 466 587 796 1208 2175
3570.0 3518 4320 4445 3746 2378 1216 719 474 325 241
3610.0 199 140 100 82 59 87 58 36 32 36
3650.0 81 46 35 25 22 37 44 39 18 12
3690.0 35 23 15 27 19 30 36 13 31 50
3730.0 27 47 47 35 53 62 37 24 25 22
3770.0 24 14 13 21 19 22 16 33 49 45
3810.0 23 20 54 42 30 24 42 50 43 24
3850.0 32 76 53 38 57 53 51 34 52 42
3890.0 35 27 34 58 63 22 20 37 30 34
3930.0 33 42 18 22 22 25 20 15 23 20
##END=
