##TITLE=2-Propenoic acid, 3-phenyl-
##JCAMP-DX=4.24
##DATA TYPE=INFRARED SPECTRUM
##ORIGIN=Sadtler Research Labs Under US-EPA Contract
##OWNER=NIST Standard Reference Data Program
##CAS REGISTRY NO=621-82-9
##MOLFORM=C 9 H 8 O 2
##XUNITS=1/CM
##YUNITS=ABSORBANCE
##XFACTOR=1.0
##YFACTOR=0.000090918
##DELTAX=4.0
##FIRSTX=450.0
##LASTX=3966.0
##FIRSTY=0.010001
##MAXX=3966
##MINX=450
##MAXY=0.90918
##MINY=0
##NPOINTS=880
##XYDATA=(X++(Y..Y))
450.0 110 113 119 132 165 203 203 207 218 247
490.0 270 324 387 468 557 664 743 883 964 1044
530.0 1123 1157 1216 1348 1514 1849 2312 3015 3198 3171
570.0 2766 2216 1893 1408 1025 757 623 545 439 415
610.0 404 384 351 355 346 386 457 598 717 762
650.0 892 1026 1031 1079 1035 917 984 1152 1288 1402
690.0 1248 1147 983 803 676 537 414 364 327 329
730.0 372 430 502 680 868 1083 1362 1539 1691 1661
770.0 1349 1072 823 599 406 298 203 147 114 171
810.0 184 202 251 286 311 363 379 397 397 369
850.0 401 438 498 573 613 602 571 539 520 520
890.0 550 552 527 519 503 424 388 350 366 386
930.0 423 468 527 557 571 592 607 630 726 871
970.0 1051 1211 1359 1276 1258 1030 838 724 581 467
1010.0 351 280 254 239 260 233 230 244 247 282
1050.0 318 381 438 502 570 623 669 718 775 878
1090.0 1065 1328 1724 2376 3425 5235 8414 9197 8340 6810
1130.0 4585 3764 3298 3075 3256 3715 4153 4151 3428 2630
1170.0 1765 1264 1108 1042 1028 1039 1043 1028 983 884
1210.0 748 650 646 662 698 753 779 815 819 806
1250.0 841 921 1016 1048 1113 1160 1119 1123 1140 1164
1290.0 1140 1049 949 871 851 912 987 1050 1093 1113
1330.0 1171 1243 1327 1382 1531 1840 2203 2494 2672 2483
1370.0 2086 1642 1089 747 600 510 466 439 411 395
1410.0 375 370 352 338 325 343 378 433 506 633
1450.0 715 688 645 470 382 340 336 322 335 383
1490.0 536 675 699 636 494 342 284 270 270 256
1530.0 257 262 256 268 254 247 244 259 283 287
1570.0 330 409 503 499 479 408 356 349 352 370
1610.0 392 456 556 690 949 1343 1939 2712 3103 2942
1650.0 2306 1436 897 776 693 638 606 577 534 509
1690.0 489 505 556 622 715 825 967 1116 1276 1492
1730.0 1804 2266 3004 4211 6168 8585 10000 9917 8359 6170
1770.0 4266 3179 2521 2127 1891 1722 1570 1341 1111 862
1810.0 656 532 448 402 373 357 336 320 318 320
1850.0 320 326 326 319 308 309 302 307 307 307
1890.0 301 286 269 257 238 238 231 232 232 236
1930.0 237 256 267 281 292 302 302 305 292 281
1970.0 262 251 244 234 229 227 218 215 205 204
2010.0 197 193 198 198 197 203 208 213 222 224
2050.0 231 237 229 225 224 212 201 200 199 182
2090.0 181 189 186 192 181 180 180 175 176 180
2130.0 168 169 173 173 173 174 174 172 172 172
2170.0 172 172 172 172 176 177 177 181 182 184
2210.0 182 190 190 193 193 197 192 191 185 184
2250.0 185 179 178 176 174 178 179 182 189 188
2290.0 195 199 212 223 230 234 242 237 235 219
2330.0 214 206 205 218 226 226 225 226 229 224
2370.0 210 203 193 189 180 166 155 161 154 160
2410.0 154 154 154 154 154 152 153 156 156 157
2450.0 158 157 157 164 163 163 162 162 162 158
2490.0 156 149 149 155 154 149 149 148 148 148
2530.0 142 144 141 141 142 142 140 140 147 146
2570.0 152 151 151 151 153 150 146 149 146 144
2610.0 138 133 138 126 131 132 133 131 133 126
2650.0 124 123 123 118 124 122 123 128 123 124
2690.0 126 134 132 127 127 125 120 120 115 121
2730.0 120 120 120 120 120 114 115 119 123 119
2770.0 125 124 121 126 126 126 126 128 121 116
2810.0 116 114 112 111 107 108 113 108 102 83
2850.0 73 66 66 86 99 104 106 104 111 111
2890.0 110 105 99 88 76 66 57 35 27 11
2930.0 26 49 73 96 109 120 109 95 82 77
2970.0 92 116 138 150 151 162 169 180 188 199
3010.0 217 243 282 343 433 543 660 710 710 639
3050.0 548 498 530 604 785 1007 1078 1045 874 700
3090.0 630 597 554 491 430 366 307 249 202 170
3130.0 150 145 145 146 143 146 140 146 136 135
3170.0 131 129 119 126 126 119 131 117 122 121
3210.0 121 122 127 121 115 123 117 123 126 120
3250.0 114 115 118 119 113 113 115 114 108 114
3290.0 111 116 112 112 118 118 123 116 123 123
3330.0 117 118 118 127 124 118 128 126 122 128
3370.0 137 139 133 127 128 134 133 131 134 131
3410.0 129 129 129 129 126 129 124 124 133 123
3450.0 127 136 134 151 150 149 151 164 172 179
3490.0 198 209 184 195 191 169 167 145 137 146
3530.0 143 143 139 138 162 161 164 175 201 298
3570.0 506 1042 2222 3419 3884 3448 2145 1053 451 250
3610.0 207 163 158 153 144 152 136 133 134 139
3650.0 150 145 145 142 135 150 157 156 141 136
3690.0 144 141 138 143 144 138 143 126 128 129
3730.0 134 136 140 133 133 136 123 124 129 118
3770.0 121 123 121 123 127 120 120 120 133 127
3810.0 127 127 127 129 123 135 126 126 133 129
3850.0 129 141 144 148 148 149 154 143 143 140
3890.0 148 160 158 166 147 151 146 147 147 142
3930.0 142 136 137 138 150 160 0 11 11 11
##END=
