##TITLE=Butane, 2,2,3-tribromo-
##JCAMP-DX=4.24
##DATA TYPE=INFRARED SPECTRUM
##ORIGIN=Sadtler Research Labs Under US-EPA Contract
##OWNER=NIST Standard Reference Data Program
##CAS REGISTRY NO=62127-47-3
##MOLFORM=C 4 H 7 Br 3
##XUNITS=1/CM
##YUNITS=ABSORBANCE
##XFACTOR=1.0
##YFACTOR=0.000072311
##DELTAX=4.0
##FIRSTX=450.0
##LASTX=3966.0
##FIRSTY=0.003182
##MAXX=3966
##MINX=450
##MAXY=0.72311
##MINY=0
##NPOINTS=880
##XYDATA=(X++(Y..Y))
450.0 44 325 542 566 943 1230 1493 1610 1261 930
490.0 756 945 988 1113 970 893 680 589 698 717
530.0 809 824 936 910 1170 1611 2560 3743 4892 5757
570.0 6879 8794 10000 8559 4458 1688 945 974 1165 1562
610.0 1826 1736 1399 910 675 510 550 515 593 624
650.0 690 802 925 1901 3132 5725 7200 8205 6565 3838
690.0 1828 1044 703 530 327 277 178 188 141 139
730.0 145 88 105 82 92 64 79 74 71 84
770.0 60 69 35 32 0 37 46 51 63 71
810.0 69 109 142 197 279 352 483 665 820 814
850.0 746 548 362 275 190 144 86 77 68 62
890.0 52 59 71 78 87 83 89 75 90 98
930.0 92 73 83 101 150 186 240 323 464 661
970.0 812 965 1186 1604 1896 1972 1713 1344 1213 1676
1010.0 2576 3058 2705 1767 792 484 493 709 1175 2090
1050.0 3653 5582 6876 7150 6515 6321 6241 5553 4234 3050
1090.0 2958 3226 3135 2689 2018 1581 1390 1190 898 616
1130.0 439 360 326 363 455 638 928 1274 1596 1669
1170.0 1531 1226 1018 1099 1642 2560 3176 3202 2593 2021
1210.0 1817 1649 1302 882 585 395 269 222 189 163
1250.0 147 145 158 153 133 126 108 112 115 137
1290.0 172 262 381 576 860 1106 1182 1009 673 362
1330.0 208 127 128 107 109 124 143 199 255 469
1370.0 892 2163 3957 6390 7482 5663 3265 1408 470 262
1410.0 150 205 257 371 507 833 1474 2372 3252 3715
1450.0 3746 3239 2581 1800 1175 716 447 238 128 110
1490.0 102 92 80 80 77 81 62 70 83 75
1530.0 73 57 67 65 61 38 49 60 50 37
1570.0 46 47 33 30 20 32 15 29 24 41
1610.0 48 49 62 60 86 80 97 72 62 53
1650.0 68 69 66 61 59 66 67 56 60 65
1690.0 39 30 44 37 37 27 43 55 39 36
1730.0 48 66 59 63 64 60 42 36 28 26
1770.0 34 30 14 10 11 9 13 5 15 7
1810.0 13 10 7 4 5 14 3 5 10 10
1850.0 9 9 16 17 13 24 8 6 20 12
1890.0 21 14 13 6 5 5 6 5 18 12
1930.0 7 8 9 15 8 6 5 8 7 12
1970.0 14 8 15 17 20 20 21 15 15 13
2010.0 14 13 11 15 12 11 11 14 8 8
2050.0 8 17 16 22 23 21 24 22 25 23
2090.0 26 27 33 37 38 34 38 36 36 39
2130.0 27 26 20 17 21 25 25 26 26 25
2170.0 35 34 38 35 28 23 20 20 12 20
2210.0 17 22 28 27 25 33 28 18 15 13
2250.0 12 13 17 11 11 11 14 12 12 13
2290.0 10 10 4 4 0 4 8 19 28 28
2330.0 42 47 41 49 43 42 57 49 72 95
2370.0 103 98 79 73 67 69 73 81 68 54
2410.0 42 34 42 35 42 49 55 54 63 58
2450.0 64 69 71 65 53 46 39 39 41 50
2490.0 44 61 68 66 60 58 58 47 44 39
2530.0 44 48 60 59 57 58 53 47 38 36
2570.0 32 30 27 30 28 24 32 33 42 52
2610.0 61 65 61 52 35 37 36 34 28 39
2650.0 41 46 38 39 41 38 33 36 35 39
2690.0 40 45 46 42 41 37 41 44 37 47
2730.0 46 54 63 83 95 109 106 79 53 49
2770.0 44 44 36 40 47 39 47 40 37 57
2810.0 63 82 105 146 165 183 163 152 136 126
2850.0 122 143 206 294 383 463 512 566 597 574
2890.0 525 444 369 320 288 281 285 325 396 587
2930.0 965 1506 2115 2543 2724 2730 2262 1735 1220 820
2970.0 579 477 553 871 1523 2505 3413 4067 3884 3470
3010.0 2952 2338 1565 716 274 177 143 118 114 94
3050.0 103 87 102 87 88 88 78 72 64 71
3090.0 72 67 56 67 72 64 70 59 74 51
3130.0 69 55 54 63 64 56 51 48 56 56
3170.0 52 60 54 84 75 55 59 67 70 80
3210.0 74 71 76 79 97 79 88 68 64 72
3250.0 65 73 75 74 75 85 92 90 94 76
3290.0 79 70 75 76 68 56 42 54 53 49
3330.0 37 53 62 55 46 51 37 31 28 29
3370.0 25 32 34 34 33 19 36 33 31 17
3410.0 22 42 47 40 46 25 26 49 23 25
3450.0 38 44 38 22 45 40 55 44 56 61
3490.0 43 22 53 31 51 63 47 51 50 40
3530.0 40 36 13 25 39 63 63 55 52 50
3570.0 58 54 50 70 53 75 53 34 33 76
3610.0 66 32 15 63 73 64 57 55 71 30
3650.0 59 47 45 30 18 50 54 45 72 58
3690.0 0 48 55 67 45 47 58 47 24 74
3730.0 59 39 67 53 65 57 64 47 44 19
3770.0 55 56 73 60 62 61 59 64 73 74
3810.0 74 81 88 79 39 38 56 96 55 78
3850.0 50 39 130 114 105 80 47 0 52 60
3890.0 88 82 114 46 83 52 52 90 143 76
3930.0 94 71 63 117 7 82 95 37 28 36
##END=
