##TITLE=Acetic acid, cyclohexyl ester
##JCAMP-DX=4.24
##DATA TYPE=INFRARED SPECTRUM
##ORIGIN=Sadtler Research Labs Under US-EPA Contract
##OWNER=NIST Standard Reference Data Program
##CAS REGISTRY NO=622-45-7
##MOLFORM=C 8 H 14 O 2
##XUNITS=1/CM
##YUNITS=ABSORBANCE
##XFACTOR=1.0
##YFACTOR=0.000158466
##DELTAX=4.0
##FIRSTX=450.0
##LASTX=3966.0
##FIRSTY=0.018382
##MAXX=3966
##MINX=450
##MAXY=1.58466
##MINY=0
##NPOINTS=880
##XYDATA=(X++(Y..Y))
450.0 116 127 128 141 120 154 125 103 133 129
490.0 113 100 86 87 109 76 115 108 106 92
530.0 114 130 133 162 169 197 186 154 133 123
570.0 130 102 99 95 122 73 135 179 192 204
610.0 209 211 201 179 156 137 102 90 115 148
650.0 164 155 143 75 47 31 30 12 12 11
690.0 3 5 2 12 7 3 4 6 3 11
730.0 8 3 17 5 18 10 15 16 11 13
770.0 18 1 15 35 5 23 37 39 24 39
810.0 37 46 52 51 68 81 92 99 94 91
850.0 78 80 80 96 102 121 134 156 173 206
890.0 248 298 349 361 354 306 253 202 173 157
930.0 159 172 199 247 334 440 531 606 658 632
970.0 552 462 369 313 287 290 327 391 488 628
1010.0 825 1094 1445 1643 1685 1604 1400 1476 1957 2402
1050.0 2643 2538 1901 1247 949 860 819 778 689 582
1090.0 474 400 341 296 256 240 266 351 471 525
1130.0 544 496 373 265 229 218 220 225 221 209
1170.0 194 188 188 201 222 265 329 413 528 673
1210.0 883 1209 1755 2696 4146 6230 8205 9943 10000 9460
1250.0 7070 5012 3626 2474 1716 1258 925 676 507 399
1290.0 322 275 247 230 223 225 242 253 258 246
1330.0 237 230 243 263 294 374 552 965 1433 1670
1370.0 1785 1705 1405 1211 1054 819 567 393 284 227
1410.0 190 175 178 182 198 233 297 362 474 593
1450.0 731 796 839 737 596 471 348 238 183 137
1490.0 127 98 102 84 83 94 86 96 99 110
1530.0 110 106 100 86 81 65 71 56 59 51
1570.0 53 44 46 45 46 50 52 60 55 67
1610.0 61 70 66 66 59 47 47 44 49 50
1650.0 68 70 74 77 80 83 79 94 89 109
1690.0 106 128 137 183 225 262 317 351 391 412
1730.0 546 749 1245 1962 3184 4223 5277 5537 4851 3658
1770.0 2488 1543 952 697 545 501 423 385 297 239
1810.0 186 155 124 110 102 85 90 80 92 83
1850.0 86 73 66 57 50 46 33 37 29 34
1890.0 29 33 28 28 31 27 32 30 38 31
1930.0 34 28 26 23 19 19 16 18 14 17
1970.0 10 11 8 9 8 10 8 6 9 6
2010.0 7 7 8 7 7 7 6 6 5 7
2050.0 5 8 7 10 12 12 16 12 15 11
2090.0 14 10 12 15 18 26 30 32 32 33
2130.0 29 30 29 32 34 34 31 26 22 16
2170.0 15 13 13 14 13 12 15 15 13 13
2210.0 11 10 8 5 5 8 8 11 12 14
2250.0 16 15 18 14 15 13 11 11 8 10
2290.0 8 8 7 6 6 7 6 9 11 10
2330.0 13 12 13 11 14 10 9 10 14 11
2370.0 11 12 12 14 11 9 9 9 11 9
2410.0 8 5 5 6 5 3 4 4 5 7
2450.0 7 10 12 16 19 25 27 28 28 25
2490.0 20 15 13 11 9 7 8 5 5 6
2530.0 4 4 2 3 0 0 0 0 3 3
2570.0 8 10 11 13 16 20 23 26 25 28
2610.0 28 27 23 24 25 25 25 26 30 34
2650.0 39 47 56 68 75 80 79 70 60 54
2690.0 49 49 46 47 50 51 48 47 42 39
2730.0 33 31 27 25 26 26 26 31 34 35
2770.0 37 43 46 51 59 67 72 75 80 80
2810.0 82 83 86 87 94 106 123 150 206 301
2850.0 471 774 1221 1682 2052 2182 2025 1659 1282 961
2890.0 738 614 593 647 750 918 1148 1459 1875 2451
2930.0 3236 4232 5445 6518 6876 6594 5806 4248 2869 1874
2970.0 1185 720 442 288 205 163 138 123 110 106
3010.0 98 96 98 102 107 112 112 109 108 98
3050.0 93 85 79 74 70 67 66 63 59 56
3090.0 49 47 43 39 36 32 27 25 22 19
3130.0 16 16 18 20 20 23 20 22 22 22
3170.0 18 16 11 8 8 9 5 4 7 6
3210.0 5 5 6 4 6 5 1 1 6 6
3250.0 4 7 6 7 7 5 8 7 7 8
3290.0 8 6 8 5 7 6 5 5 4 6
3330.0 7 5 5 8 6 9 5 4 2 5
3370.0 7 7 9 7 9 10 10 12 13 12
3410.0 13 15 15 15 17 16 12 12 8 9
3450.0 11 9 11 13 16 13 18 29 36 43
3490.0 52 55 51 44 27 15 12 5 7 5
3530.0 0 4 4 5 10 1 3 6 6 5
3570.0 5 4 4 5 6 6 1 7 7 8
3610.0 6 8 7 9 16 13 29 34 47 55
3650.0 57 69 60 57 48 31 22 10 11 4
3690.0 7 7 9 8 10 12 14 15 12 5
3730.0 7 8 12 3 9 4 6 11 9 13
3770.0 17 9 10 10 7 16 7 8 6 5
3810.0 5 11 10 4 13 9 7 13 15 11
3850.0 12 0 4 9 6 5 10 3 6 8
3890.0 3 6 10 2 4 10 7 4 7 3
3930.0 0 8 10 3 14 9 9 12 11 3
##END=
