##TITLE=4-Chlorobenzyl bromide
##JCAMP-DX=4.24
##DATA TYPE=INFRARED SPECTRUM
##ORIGIN=Sadtler Research Labs Under US-EPA Contract
##OWNER=NIST Standard Reference Data Program
##CAS REGISTRY NO=622-95-7
##MOLFORM=C 7 H 6 Br Cl
##XUNITS=1/CM
##YUNITS=ABSORBANCE
##XFACTOR=1.0
##YFACTOR=0.000041257
##DELTAX=4.0
##FIRSTX=450.0
##LASTX=3966.0
##FIRSTY=0.004910
##MAXX=3966
##MINX=450
##MAXY=0.41257
##MINY=0
##NPOINTS=880
##XYDATA=(X++(Y..Y))
450.0 119 171 218 289 371 516 671 790 1140 1255
490.0 1133 909 572 473 268 206 152 169 95 54
530.0 41 54 70 58 40 46 92 117 90 98
570.0 132 204 280 435 579 901 1296 1823 2115 2427
610.0 2605 2861 2674 2342 1843 1438 1145 899 755 580
650.0 569 562 573 520 505 451 345 343 331 340
690.0 268 358 383 421 521 692 849 840 721 563
730.0 471 379 498 454 340 316 306 304 301 318
770.0 396 536 736 931 1121 1314 1577 1893 2202 2571
810.0 2940 3255 3636 3916 3990 3620 2822 2032 1482 1148
850.0 919 743 611 553 483 468 404 390 364 324
890.0 305 244 221 188 156 107 110 91 85 59
930.0 62 52 30 44 37 67 55 84 94 140
970.0 151 161 117 64 65 51 89 95 293 571
1010.0 1835 3550 3703 2952 1158 362 375 311 394 434
1050.0 502 478 508 572 700 853 1062 1376 2004 3244
1090.0 5726 8744 10000 8284 4465 2055 1240 877 680 486
1130.0 406 348 327 298 308 333 348 394 415 427
1170.0 455 581 694 746 830 1080 1364 1587 1667 1795
1210.0 2242 2915 3352 3380 3161 2793 2416 1963 1488 1173
1250.0 953 791 723 724 701 619 492 401 335 301
1290.0 293 270 257 218 206 167 161 150 151 140
1330.0 138 141 158 174 132 146 143 175 173 191
1370.0 186 242 244 293 349 465 589 722 838 897
1410.0 895 812 795 722 666 596 556 554 543 554
1450.0 548 530 512 471 484 672 983 1521 2521 4356
1490.0 6288 7342 6596 4613 2608 1235 586 217 198 121
1530.0 170 132 177 176 192 172 190 214 225 222
1570.0 299 346 469 580 796 1167 1624 1960 1813 1294
1610.0 644 270 163 99 122 129 213 231 255 283
1650.0 327 341 354 289 302 296 261 219 208 176
1690.0 128 99 123 141 149 194 359 569 597 611
1730.0 615 479 319 301 313 360 443 474 481 443
1770.0 489 356 240 156 119 77 84 51 54 37
1810.0 22 23 11 20 13 26 0 8 3 39
1850.0 15 16 27 41 63 97 133 162 237 280
1890.0 335 340 328 279 209 150 95 77 54 29
1930.0 26 21 24 23 29 13 21 18 27 20
1970.0 21 15 18 14 16 24 21 25 22 24
2010.0 14 15 9 11 12 20 23 24 24 20
2050.0 15 15 12 12 13 16 11 16 14 20
2090.0 13 11 8 11 7 9 7 10 13 10
2130.0 7 9 13 8 15 15 15 12 15 17
2170.0 15 15 11 15 11 23 26 26 24 31
2210.0 35 37 40 37 36 42 48 48 52 58
2250.0 63 68 68 82 90 98 108 113 119 128
2290.0 135 141 145 155 163 174 164 157 163 164
2330.0 154 143 135 146 155 145 152 135 161 143
2370.0 148 166 141 138 125 124 167 129 142 133
2410.0 151 190 138 140 113 142 164 116 112 98
2450.0 138 154 107 105 114 144 155 88 128 106
2490.0 200 112 136 105 171 150 134 128 157 177
2530.0 166 144 164 182 185 148 182 158 164 155
2570.0 168 179 178 179 175 201 199 162 167 223
2610.0 179 159 191 209 191 136 207 216 149 202
2650.0 232 205 182 223 216 159 224 212 177 185
2690.0 209 169 197 204 189 192 193 197 208 224
2730.0 225 191 188 185 160 197 191 156 154 157
2770.0 141 190 177 158 156 150 154 203 181 164
2810.0 187 184 219 256 231 220 210 203 224 216
2850.0 200 202 210 229 259 263 266 262 253 241
2890.0 221 212 201 201 221 222 222 251 276 342
2930.0 343 363 363 396 427 384 405 445 578 672
2970.0 778 879 978 1014 915 797 685 620 523 474
3010.0 487 518 550 608 724 884 1071 1168 1160 1053
3050.0 869 785 717 633 577 550 549 580 637 707
3090.0 736 734 732 686 592 487 360 264 218 188
3130.0 166 152 148 145 146 144 137 133 132 127
3170.0 134 125 125 122 121 119 116 111 107 109
3210.0 112 114 107 109 106 105 108 104 96 100
3250.0 96 97 102 103 101 95 103 86 86 96
3290.0 94 93 86 86 78 70 72 70 84 57
3330.0 63 63 56 59 56 52 52 42 42 44
3370.0 43 31 25 29 37 37 40 40 51 42
3410.0 44 55 51 50 53 55 57 58 62 40
3450.0 39 45 57 68 60 61 64 65 63 67
3490.0 62 60 49 71 63 56 73 43 79 77
3530.0 69 74 65 62 81 78 79 76 66 99
3570.0 104 89 100 128 148 153 135 64 84 70
3610.0 105 69 88 82 76 141 76 85 82 85
3650.0 120 79 87 89 68 104 99 119 64 110
3690.0 91 81 82 89 88 96 113 97 92 113
3730.0 104 138 117 106 161 64 112 52 59 78
3770.0 47 48 54 87 55 53 60 80 52 76
3810.0 29 60 57 70 65 51 94 88 81 67
3850.0 84 111 71 63 89 110 57 62 79 108
3890.0 67 117 66 134 79 96 75 115 103 55
3930.0 71 76 81 63 78 67 69 40 61 62
##END=
