##TITLE=Benzene, 1-ethoxy-4-methyl-
##JCAMP-DX=4.24
##DATA TYPE=INFRARED SPECTRUM
##ORIGIN=Sadtler Research Labs Under US-EPA Contract
##OWNER=NIST Standard Reference Data Program
##CAS REGISTRY NO=622-60-6
##MOLFORM=C 9 H 12 O
##XUNITS=1/CM
##YUNITS=ABSORBANCE
##XFACTOR=1.0
##YFACTOR=0.000128513
##DELTAX=4.0
##FIRSTX=450.0
##LASTX=3966.0
##FIRSTY=0.047036
##MAXX=3966
##MINX=450
##MAXY=1.28513
##MINY=0
##NPOINTS=880
##XYDATA=(X++(Y..Y))
450.0 366 137 91 152 65 163 80 207 283 209
490.0 246 463 487 559 480 563 462 465 430 343
530.0 424 429 353 250 313 339 293 241 208 199
570.0 165 167 123 165 141 88 87 166 141 135
610.0 92 77 80 94 103 142 114 78 75 47
650.0 72 75 50 134 64 153 58 52 133 142
690.0 133 121 189 202 264 278 331 338 290 244
730.0 250 392 438 390 320 159 73 113 102 57
770.0 98 138 125 205 363 472 639 896 1072 1209
810.0 1384 1513 1691 1621 1377 1124 913 714 447 335
850.0 232 191 158 130 126 138 108 119 157 143
890.0 181 289 359 468 441 490 498 554 554 530
930.0 487 383 262 166 156 119 112 102 99 100
970.0 91 100 90 122 116 118 141 154 173 233
1010.0 334 403 465 511 618 838 1142 1526 1936 2268
1050.0 2417 2358 2038 1597 1160 882 772 677 677 700
1090.0 796 908 952 986 977 1086 1170 1164 1061 910
1130.0 668 476 398 358 326 372 408 523 700 1072
1170.0 1473 1597 1515 1168 705 460 396 424 529 717
1210.0 997 1436 2097 3052 4373 5894 7561 9003 10000 9492
1250.0 8083 5833 3529 2325 1809 1655 1715 1854 1993 2082
1290.0 1996 1845 1685 1478 1322 1130 898 648 516 440
1330.0 390 333 264 246 258 262 257 278 280 329
1370.0 378 381 495 660 827 1074 1294 1347 1286 1081
1410.0 719 512 340 355 374 401 361 415 436 469
1450.0 455 436 368 463 473 532 598 997 1349 1297
1490.0 1301 1177 1451 2649 4715 7703 7808 7772 4978 2390
1530.0 1072 573 390 226 269 308 290 211 289 354
1570.0 381 428 526 622 726 744 814 771 867 1024
1610.0 1278 1551 1567 1529 1151 868 526 349 305 244
1650.0 150 99 177 153 159 112 85 125 65 29
1690.0 96 113 13 27 53 118 73 17 99 124
1730.0 102 10 109 105 102 89 132 137 131 144
1770.0 87 65 91 80 82 72 57 68 47 91
1810.0 87 78 100 93 85 83 102 137 104 106
1850.0 136 172 173 194 193 164 207 201 178 154
1890.0 130 124 121 116 108 102 96 98 80 110
1930.0 118 122 141 124 137 145 138 134 125 124
1970.0 124 140 145 142 144 113 105 104 101 98
2010.0 97 89 81 84 88 84 85 80 74 81
2050.0 92 95 97 91 89 94 91 89 83 77
2090.0 66 64 62 56 55 51 46 47 44 42
2130.0 41 37 37 33 35 33 30 26 27 27
2170.0 25 26 20 20 16 14 14 14 13 18
2210.0 18 19 20 22 22 21 19 20 16 20
2250.0 19 20 21 19 19 18 22 25 26 25
2290.0 29 25 27 26 27 28 28 40 37 35
2330.0 26 24 50 4 62 10 53 14 34 21
2370.0 27 19 19 21 23 25 27 35 43 49
2410.0 57 59 61 65 62 63 57 54 57 61
2450.0 66 68 71 76 73 80 75 77 77 74
2490.0 68 63 58 55 53 60 65 71 80 84
2530.0 95 89 89 82 71 63 53 45 43 40
2570.0 37 39 44 44 46 49 50 47 51 45
2610.0 43 41 41 42 42 37 38 36 34 30
2650.0 34 31 32 36 31 33 34 34 34 31
2690.0 36 37 43 45 47 54 60 67 79 84
2730.0 99 112 137 158 165 162 146 127 116 108
2770.0 109 109 108 109 112 114 113 115 125 130
2810.0 139 147 161 170 189 202 216 234 269 305
2850.0 359 421 516 645 815 1042 1309 1535 1661 1667
2890.0 1594 1511 1491 1526 1567 1635 1702 1710 1717 1831
2930.0 2023 2212 2325 2266 2055 1758 1465 1256 1148 1140
2970.0 1241 1436 1732 2073 2289 2450 2409 2164 1800 1551
3010.0 1344 1203 1122 1103 1182 1359 1530 1553 1427 1147
3050.0 831 658 586 555 568 565 565 546 487 418
3090.0 372 338 328 315 302 281 251 210 175 148
3130.0 134 126 115 108 85 69 59 51 50 47
3170.0 48 44 44 42 35 37 35 35 35 34
3210.0 34 37 36 31 35 33 36 34 33 29
3250.0 29 28 25 29 25 29 28 29 31 18
3290.0 24 37 31 30 29 34 34 29 29 33
3330.0 28 31 30 28 35 34 32 30 33 34
3370.0 32 33 27 34 31 30 29 34 35 34
3410.0 41 40 40 41 40 32 34 32 31 40
3450.0 41 40 37 38 27 23 31 27 32 30
3490.0 28 32 33 33 35 27 34 26 33 32
3530.0 39 34 38 31 35 39 35 27 38 29
3570.0 33 24 49 32 47 32 41 24 32 37
3610.0 38 38 29 53 23 53 27 43 26 56
3650.0 14 63 16 46 40 33 61 20 55 20
3690.0 56 33 39 43 42 39 54 26 51 20
3730.0 44 45 34 76 0 88 4 74 23 60
3770.0 45 27 49 41 42 61 38 69 23 58
3810.0 17 70 30 64 57 42 46 50 30 56
3850.0 29 65 45 40 51 31 56 34 49 46
3890.0 49 13 72 22 48 38 46 69 28 37
3930.0 41 56 28 16 39 15 49 31 45 58
##END=
