##TITLE=Benzene, (2-chloroethoxy)-
##JCAMP-DX=4.24
##DATA TYPE=INFRARED SPECTRUM
##ORIGIN=Sadtler Research Labs Under US-EPA Contract
##OWNER=NIST Standard Reference Data Program
##CAS REGISTRY NO=622-86-6
##MOLFORM=C 8 H 9 Cl O
##XUNITS=1/CM
##YUNITS=ABSORBANCE
##XFACTOR=1.0
##YFACTOR=0.000070215
##DELTAX=4.0
##FIRSTX=450.0
##LASTX=3966.0
##FIRSTY=0.000000
##MAXX=3966
##MINX=450
##MAXY=0.70215
##MINY=0
##NPOINTS=880
##XYDATA=(X++(Y..Y))
450.0 0 46 29 85 126 106 98 127 167 193
490.0 278 329 317 304 328 402 290 186 174 143
530.0 136 132 131 96 25 125 199 132 97 116
570.0 189 178 132 164 76 50 143 208 165 20
610.0 19 132 89 70 84 49 32 65 144 134
650.0 78 186 305 410 520 688 967 1269 1582 1886
690.0 1869 1543 1262 1025 811 570 459 445 418 504
730.0 664 936 1272 1788 2390 2785 2814 2557 2244 1937
770.0 1613 1341 1180 939 805 724 577 462 410 426
810.0 441 418 445 474 533 627 676 624 467 323
850.0 281 241 215 259 290 343 400 517 619 606
890.0 618 561 483 311 166 143 132 111 117 110
930.0 81 82 110 160 148 152 186 185 195 212
970.0 221 235 217 275 310 312 355 399 440 456
1010.0 498 633 781 997 1365 1785 2278 2714 3040 3116
1050.0 2739 2141 1541 1156 1086 1148 1205 1149 992 846
1090.0 676 498 364 277 241 208 190 177 132 114
1130.0 133 156 167 166 230 347 457 660 991 1351
1170.0 1527 1476 1229 925 893 1103 1334 1545 1694 1899
1210.0 2334 2969 3848 4903 6074 7335 8409 9550 10000 8783
1250.0 6819 4641 2936 2051 1640 1455 1409 1474 1570 1611
1290.0 1653 1749 1831 1877 1710 1452 1160 878 721 661
1330.0 621 580 512 454 368 304 291 265 245 255
1370.0 304 369 451 548 623 555 428 264 160 115
1410.0 103 123 145 146 208 331 441 492 506 500
1450.0 596 830 1110 1228 1270 1344 1536 1845 2155 2844
1490.0 4091 5482 5868 5086 3301 1642 902 623 467 356
1530.0 280 236 221 209 215 238 246 286 389 503
1570.0 648 822 1115 1531 2075 2789 3600 4264 4286 3583
1610.0 2452 1336 669 424 304 242 188 155 132 110
1650.0 104 119 100 87 80 83 83 83 92 88
1690.0 98 116 118 116 90 91 106 98 79 76
1730.0 72 76 64 78 77 61 98 126 139 139
1770.0 137 127 108 89 85 62 52 53 61 69
1810.0 49 56 71 78 91 93 102 102 103 124
1850.0 117 99 91 91 96 76 54 54 43 49
1890.0 55 58 57 57 89 116 124 140 154 153
1930.0 165 173 168 153 142 135 107 81 69 61
1970.0 76 77 83 91 82 99 103 109 112 90
2010.0 96 97 98 117 111 110 112 111 116 96
2050.0 94 99 107 119 115 119 118 104 105 111
2090.0 88 66 77 81 73 58 60 49 56 61
2130.0 56 48 35 35 57 38 32 39 30 32
2170.0 34 42 29 14 27 35 33 22 29 27
2210.0 24 41 41 33 28 39 47 55 33 41
2250.0 56 53 61 58 52 48 51 69 65 49
2290.0 53 46 74 47 52 56 60 59 80 68
2330.0 70 19 52 80 34 17 14 13 36 45
2370.0 73 21 21 67 46 48 52 52 66 59
2410.0 65 66 56 60 66 72 62 58 71 78
2450.0 73 79 80 65 66 73 102 85 81 71
2490.0 86 82 64 59 64 51 71 86 69 66
2530.0 66 79 79 69 75 67 68 68 64 64
2570.0 35 42 59 54 40 36 36 36 31 46
2610.0 35 23 42 50 61 34 33 39 46 33
2650.0 47 22 29 25 41 48 14 27 29 42
2690.0 40 47 43 31 36 60 61 56 67 61
2730.0 82 69 84 98 81 90 104 84 66 43
2770.0 62 65 48 47 40 46 55 55 67 46
2810.0 38 62 74 82 87 101 116 130 165 196
2850.0 200 243 318 388 433 441 488 508 528 538
2890.0 554 561 534 563 574 526 509 516 543 557
2930.0 570 587 600 603 630 646 651 680 740 828
2970.0 874 872 884 822 712 597 490 415 380 429
3010.0 481 506 527 538 568 596 666 801 921 1016
3050.0 1056 993 855 761 786 916 1037 1138 1118 1018
3090.0 858 700 669 637 548 481 389 292 194 130
3130.0 95 62 58 89 62 39 39 50 63 42
3170.0 50 42 34 51 58 60 42 26 73 63
3210.0 43 49 43 48 51 54 62 13 18 62
3250.0 66 53 18 41 55 42 63 56 29 31
3290.0 46 75 38 21 53 51 58 52 48 48
3330.0 20 63 90 33 30 41 70 59 38 62
3370.0 39 20 60 68 37 20 35 80 55 37
3410.0 57 40 47 61 72 54 19 54 83 63
3450.0 55 47 61 52 55 96 59 22 63 94
3490.0 94 39 38 69 59 55 95 57 44 44
3530.0 89 90 46 52 66 79 75 63 81 59
3570.0 73 102 76 56 48 79 86 66 72 74
3610.0 55 91 95 97 66 52 102 111 102 92
3650.0 87 99 93 99 111 75 68 97 111 79
3690.0 55 85 93 72 78 85 70 73 89 103
3730.0 66 47 69 64 74 74 86 71 49 64
3770.0 78 53 33 42 77 68 46 50 50 37
3810.0 53 63 41 15 28 52 56 39 37 31
3850.0 41 35 64 36 14 28 43 46 35 29
3890.0 35 26 38 53 25 16 24 54 77 40
3930.0 40 34 26 26 37 35 14 14 14 14
##END=
