##TITLE=Benzene, propoxy-
##JCAMP-DX=4.24
##DATA TYPE=INFRARED SPECTRUM
##ORIGIN=Sadtler Research Labs Under US-EPA Contract
##OWNER=NIST Standard Reference Data Program
##CAS REGISTRY NO=622-85-5
##MOLFORM=C 9 H 12 O
##XUNITS=1/CM
##YUNITS=ABSORBANCE
##XFACTOR=1.0
##YFACTOR=0.000161923
##DELTAX=4.0
##FIRSTX=450.0
##LASTX=3966.0
##FIRSTY=0.000000
##MAXX=3966
##MINX=450
##MAXY=1.61923
##MINY=0
##NPOINTS=880
##XYDATA=(X++(Y..Y))
450.0 0 33 70 54 56 55 57 79 112 139
490.0 175 222 268 321 369 362 323 272 217 176
530.0 139 101 90 84 75 70 75 83 69 80
570.0 92 103 116 131 142 157 147 119 87 53
610.0 32 28 32 33 24 25 25 26 32 36
650.0 59 79 101 140 177 319 474 707 964 1223
690.0 1576 1344 1118 856 605 404 290 235 229 278
730.0 413 650 1038 1523 2026 2587 2700 2291 1846 1335
770.0 893 601 436 338 278 250 234 238 250 276
810.0 295 302 326 355 383 390 348 279 196 124
850.0 99 101 107 127 157 191 233 287 312 306
890.0 293 272 244 233 233 225 228 218 204 196
930.0 184 175 167 164 177 205 248 324 454 691
970.0 1041 1432 1671 1649 1441 1099 888 868 837 852
1010.0 821 788 867 1032 1115 1096 1087 1042 1096 1304
1050.0 1559 1705 1771 1737 1636 1590 1463 1188 942 738
1090.0 549 450 415 413 423 428 423 415 399 376
1130.0 344 311 278 279 356 467 535 689 945 1246
1170.0 1370 1302 1059 666 487 483 549 648 812 1095
1210.0 1571 2251 2978 3706 4396 5016 6009 7546 9154 10000
1250.0 9478 7393 4596 2827 2104 1839 1848 1977 2030 2019
1290.0 1988 1962 1892 1731 1441 1083 820 683 594 564
1330.0 560 539 542 471 370 326 304 298 293 290
1370.0 311 387 469 620 884 1075 1131 1067 760 458
1410.0 294 193 238 185 196 188 261 307 355 434
1450.0 548 712 910 1091 1561 2133 2524 2748 2564 2754
1490.0 3896 5493 6085 5673 4143 1883 863 581 486 365
1530.0 321 270 279 312 284 245 276 372 398 450
1570.0 581 759 1027 1434 1935 2653 3603 4537 4938 4419
1610.0 3306 1995 1023 539 390 255 238 203 156 151
1650.0 190 180 134 116 115 115 142 99 158 177
1690.0 140 126 185 167 139 97 114 152 89 64
1730.0 86 132 85 82 102 125 116 136 155 139
1770.0 154 139 88 83 69 72 77 66 79 51
1810.0 63 71 69 91 109 129 118 108 125 135
1850.0 106 82 74 60 62 71 42 34 35 39
1890.0 46 50 56 68 87 110 135 152 167 158
1930.0 158 155 151 153 135 106 84 76 70 76
1970.0 68 62 63 65 66 83 85 85 87 89
2010.0 81 81 78 75 74 78 79 88 95 99
2050.0 103 112 112 113 114 107 104 94 84 73
2090.0 66 58 52 49 45 44 43 39 37 35
2130.0 33 30 28 26 24 23 23 22 23 23
2170.0 27 29 28 30 28 27 27 26 26 24
2210.0 25 24 26 26 26 26 26 27 28 28
2250.0 28 28 29 27 28 27 29 31 31 29
2290.0 29 29 33 39 42 42 41 34 33 34
2330.0 32 38 39 42 47 45 40 43 54 57
2370.0 59 60 57 58 55 55 54 58 62 67
2410.0 67 68 70 68 67 67 69 69 70 70
2450.0 69 68 68 65 66 64 69 74 82 88
2490.0 87 83 74 64 59 60 64 69 74 82
2530.0 87 93 96 97 96 92 81 71 64 56
2570.0 54 55 53 53 53 53 55 56 55 56
2610.0 57 57 57 56 55 52 51 48 43 43
2650.0 40 40 38 39 40 42 45 47 51 53
2690.0 55 56 57 57 59 60 65 69 76 86
2730.0 100 111 129 141 151 153 154 149 143 140
2770.0 137 136 132 130 125 122 119 116 118 122
2810.0 128 137 149 163 180 202 226 254 293 347
2850.0 422 520 648 794 930 1067 1192 1330 1525 1735
2890.0 1861 1898 1861 1772 1720 1701 1671 1651 1664 1716
2930.0 1805 1921 2068 2271 2473 2563 2547 2495 2537 2782
2970.0 3103 3302 3318 3061 2598 2019 1475 947 630 491
3010.0 430 420 439 484 554 645 770 929 1120 1250
3050.0 1246 1157 999 904 952 1069 1214 1296 1227 1122
3090.0 948 773 719 706 672 597 488 373 265 183
3130.0 133 104 85 72 67 62 58 54 51 50
3170.0 50 48 48 48 48 45 43 45 42 39
3210.0 38 36 35 31 32 35 36 34 34 33
3250.0 31 30 29 28 28 31 30 29 29 27
3290.0 27 28 28 27 27 29 30 30 28 29
3330.0 29 30 30 31 32 32 31 30 34 33
3370.0 31 31 30 33 30 31 30 29 27 31
3410.0 31 30 31 29 30 33 32 29 33 31
3450.0 34 30 32 30 34 28 34 30 30 31
3490.0 29 28 31 31 29 27 26 29 32 28
3530.0 31 27 26 27 30 29 27 33 28 29
3570.0 27 27 29 26 29 29 27 26 29 29
3610.0 30 30 29 28 28 29 35 36 36 37
3650.0 37 42 45 42 35 37 36 39 40 37
3690.0 36 36 38 34 34 32 37 36 33 29
3730.0 35 33 37 39 27 35 33 31 35 28
3770.0 34 32 35 36 28 29 33 35 36 33
3810.0 34 36 45 36 34 31 37 33 37 37
3850.0 35 27 45 38 44 40 38 33 28 31
3890.0 36 37 33 32 31 34 30 28 29 25
3930.0 28 27 22 23 30 31 34 32 22 27
##END=
