##TITLE=N-Ethyl-p-toluidine
##JCAMP-DX=4.24
##DATA TYPE=INFRARED SPECTRUM
##ORIGIN=Sadtler Research Labs Under US-EPA Contract
##OWNER=NIST Standard Reference Data Program
##CAS REGISTRY NO=622-57-1
##MOLFORM=C 9 H 13 N
##XUNITS=1/CM
##YUNITS=ABSORBANCE
##XFACTOR=1.0
##YFACTOR=0.000161182
##DELTAX=4.0
##FIRSTX=450.0
##LASTX=3966.0
##FIRSTY=0.096225
##MAXX=3966
##MINX=450
##MAXY=1.61182
##MINY=0
##NPOINTS=880
##XYDATA=(X++(Y..Y))
450.0 597 446 389 488 435 486 481 514 589 534
490.0 626 691 785 806 834 837 804 740 667 624
530.0 499 487 425 379 365 379 367 373 417 380
570.0 397 366 402 374 403 382 417 440 396 422
610.0 390 397 391 417 357 448 334 310 350 331
650.0 348 333 311 288 296 285 251 274 244 260
690.0 252 270 243 270 284 268 270 227 239 174
730.0 161 110 118 125 139 97 115 106 111 125
770.0 134 170 228 350 548 856 1219 1651 2043 2405
810.0 2274 1849 1519 1084 728 484 331 232 182 147
850.0 94 80 56 55 32 25 15 14 12 13
890.0 13 3 14 12 21 19 24 32 44 65
930.0 55 67 51 38 18 12 11 9 11 8
970.0 18 14 31 21 36 40 56 18 18 15
1010.0 22 40 42 54 55 76 98 130 170 211
1050.0 265 286 301 287 264 224 206 193 196 226
1090.0 272 349 404 455 479 506 547 552 568 587
1130.0 605 686 839 996 1085 1057 943 750 558 436
1170.0 383 500 777 859 837 738 422 273 266 271
1210.0 294 299 320 325 371 455 657 1044 1699 2431
1250.0 2810 2891 2532 2038 1896 2042 2172 2220 2204 2202
1290.0 2302 2395 2394 2264 2108 2031 2067 2025 1896 1539
1330.0 1141 856 604 502 467 466 469 452 422 423
1370.0 467 558 703 789 828 785 720 711 759 769
1410.0 715 640 470 439 406 429 415 460 528 610
1450.0 720 823 905 985 1055 1099 1137 1307 1580 1725
1490.0 1677 1650 1528 1749 2399 3918 6451 9558 10000 8728
1530.0 6009 2792 1273 738 530 448 371 283 287 296
1570.0 294 307 345 379 444 499 616 763 993 1298
1610.0 1698 2226 2746 3081 2958 2468 1690 937 539 328
1650.0 205 151 145 131 108 92 57 92 59 72
1690.0 105 115 57 39 45 65 47 5 43 53
1730.0 38 8 55 74 67 57 62 48 31 41
1770.0 12 5 27 19 18 16 10 15 12 34
1810.0 33 30 40 37 38 37 54 79 91 116
1850.0 165 204 204 199 173 125 109 85 69 56
1890.0 48 46 43 45 40 37 32 35 29 39
1930.0 41 38 40 28 31 35 35 36 39 31
1970.0 33 36 32 30 31 22 18 22 18 12
2010.0 12 13 8 9 12 14 15 5 7 7
2050.0 6 4 11 9 6 12 15 20 22 27
2090.0 22 24 21 24 23 24 24 20 22 23
2130.0 19 19 21 21 18 19 14 16 13 9
2170.0 10 8 9 11 9 10 16 13 7 10
2210.0 10 11 8 6 7 7 6 8 4 9
2250.0 7 8 7 6 7 6 9 7 11 15
2290.0 22 18 28 32 38 41 48 51 47 56
2330.0 47 37 34 28 5 25 62 53 27 0
2370.0 1 1 1 1 1 2 2 8 8 11
2410.0 10 15 16 18 19 15 22 21 21 18
2450.0 21 22 19 18 14 15 12 9 13 14
2490.0 13 13 13 21 25 22 23 23 32 45
2530.0 45 46 58 55 59 62 60 57 55 60
2570.0 59 58 58 56 57 56 59 58 58 54
2610.0 44 40 35 36 37 37 38 40 29 37
2650.0 40 42 44 44 47 49 57 58 69 70
2690.0 79 76 83 87 84 85 85 85 83 87
2730.0 102 129 157 178 193 181 152 123 114 109
2770.0 125 121 126 138 160 174 186 208 234 268
2810.0 299 337 370 413 459 508 558 609 679 754
2850.0 850 954 1083 1255 1474 1769 2098 2395 2538 2507
2890.0 2312 2047 1798 1622 1528 1490 1518 1640 1885 2236
2930.0 2616 2824 2806 2579 2240 1985 1823 1782 1829 1996
2970.0 2296 2718 3094 3079 2851 2452 1970 1639 1476 1419
3010.0 1462 1634 1921 2157 2153 2043 1706 1371 1276 1279
3050.0 1243 1152 1062 986 870 755 646 550 447 358
3090.0 300 287 269 270 273 262 234 226 172 144
3130.0 123 110 106 82 96 80 72 61 57 37
3170.0 41 42 32 26 32 28 20 27 25 22
3210.0 28 23 26 23 23 20 23 19 22 21
3250.0 10 13 12 11 12 16 10 8 9 15
3290.0 7 6 16 9 19 11 9 15 18 16
3330.0 18 10 16 16 12 20 19 19 9 20
3370.0 28 24 25 23 38 30 44 49 69 99
3410.0 129 148 199 235 269 255 234 216 193 174
3450.0 157 150 134 123 110 95 87 76 63 61
3490.0 42 42 45 44 39 33 40 38 37 42
3530.0 41 32 32 36 35 23 39 36 38 38
3570.0 43 33 36 37 36 28 37 37 40 40
3610.0 33 34 36 31 37 28 36 24 41 40
3650.0 37 35 44 38 59 55 38 29 37 42
3690.0 47 38 25 38 26 29 27 27 46 27
3730.0 20 40 20 27 36 31 38 34 38 35
3770.0 32 36 25 27 27 29 29 41 36 32
3810.0 18 22 35 42 26 42 23 23 25 31
3850.0 19 46 16 30 30 27 35 35 31 36
3890.0 38 38 40 24 26 33 27 33 32 54
3930.0 43 27 49 28 37 36 39 48 54 29
##END=
