##TITLE=Benzene, (2-chloroethyl)-
##JCAMP-DX=4.24
##DATA TYPE=INFRARED SPECTRUM
##ORIGIN=Sadtler Research Labs Under US-EPA Contract
##OWNER=NIST Standard Reference Data Program
##CAS REGISTRY NO=622-24-2
##MOLFORM=C 8 H 9 Cl
##XUNITS=1/CM
##YUNITS=ABSORBANCE
##XFACTOR=1.0
##YFACTOR=0.000079279
##DELTAX=4.0
##FIRSTX=450.0
##LASTX=3966.0
##FIRSTY=0.013398
##MAXX=3966
##MINX=450
##MAXY=0.79279
##MINY=0
##NPOINTS=880
##XYDATA=(X++(Y..Y))
450.0 169 164 280 419 563 735 1047 1445 1656 1843
490.0 1975 1628 1202 803 517 293 138 22 74 12
530.0 91 195 205 268 389 658 956 1360 1892 2200
570.0 1986 1708 974 375 200 54 85 81 82 98
610.0 149 112 156 135 160 218 254 320 421 599
650.0 851 1291 1919 2646 3283 3837 4183 4270 4439 5224
690.0 6471 7774 8580 7966 7258 6808 7040 8437 9797 10000
730.0 9064 6980 5611 5205 5042 4905 4744 4455 3828 2900
770.0 1931 1274 928 679 491 473 478 489 490 504
810.0 541 679 819 921 857 755 590 518 438 379
850.0 267 226 162 224 171 211 278 373 446 485
890.0 514 532 540 549 627 724 832 937 938 925
930.0 844 717 709 683 650 584 526 447 378 324
970.0 291 238 255 241 220 213 245 330 378 461
1010.0 580 559 659 973 1599 2087 2054 1929 1236 603
1050.0 373 329 382 496 618 725 785 753 691 556
1090.0 452 381 310 291 276 267 268 276 274 297
1130.0 338 353 362 367 334 312 284 247 249 219
1170.0 242 269 222 429 398 373 473 532 470 429
1210.0 328 284 250 251 278 399 578 808 1238 1742
1250.0 1954 1941 1534 976 669 578 611 736 968 1336
1290.0 1751 2054 2238 2230 1972 1728 1575 1554 1772 2064
1330.0 2207 2076 1735 1268 869 613 444 347 286 262
1370.0 234 250 247 228 243 223 225 211 213 227
1410.0 234 270 342 438 566 781 1092 1553 2194 2666
1450.0 2988 3016 2726 2471 1924 1502 1130 807 687 871
1490.0 1547 2762 3463 3432 3054 1635 710 418 332 282
1530.0 258 262 266 271 232 229 235 272 281 315
1570.0 342 365 419 428 480 623 827 1131 1462 1643
1610.0 1497 1204 789 416 281 215 183 177 154 156
1650.0 137 163 143 144 169 161 161 140 115 142
1690.0 96 109 140 145 130 137 167 198 170 166
1730.0 199 232 219 232 226 242 231 201 174 175
1770.0 163 180 191 215 297 410 542 590 576 490
1810.0 332 265 204 183 172 157 147 145 162 188
1850.0 205 231 271 303 330 345 348 357 338 325
1890.0 289 232 170 133 126 112 125 132 173 234
1930.0 304 374 431 468 484 509 522 490 403 314
1970.0 192 97 82 72 72 57 52 45 33 28
2010.0 35 31 39 44 50 57 64 56 51 54
2050.0 49 52 54 36 52 63 63 63 70 68
2090.0 53 52 53 46 41 47 37 41 39 38
2130.0 46 39 34 47 41 45 36 29 33 32
2170.0 35 35 46 39 45 41 47 45 62 65
2210.0 56 48 52 45 51 45 40 46 53 53
2250.0 52 60 47 52 52 53 49 51 53 56
2290.0 68 59 65 76 94 99 131 154 163 146
2330.0 108 114 79 65 82 107 147 96 44 5
2370.0 0 1 1 6 33 41 36 42 36 37
2410.0 36 36 41 43 44 43 38 39 48 42
2450.0 43 42 49 36 36 31 31 32 25 26
2490.0 21 18 30 25 18 18 31 24 27 25
2530.0 14 12 12 14 3 6 13 1 7 20
2570.0 6 8 16 25 31 26 35 28 33 37
2610.0 38 38 27 26 35 45 65 74 69 73
2650.0 74 77 80 86 69 88 82 88 88 90
2690.0 96 90 83 60 65 37 29 19 12 34
2730.0 34 41 66 72 56 63 68 59 67 82
2770.0 96 103 152 171 185 205 190 155 150 134
2810.0 136 136 141 174 208 254 299 389 484 565
2850.0 664 735 779 868 951 1063 1198 1359 1392 1311
2890.0 1203 1108 1156 1312 1532 1746 1863 1876 1780 1646
2930.0 1559 1630 1807 2113 2511 2885 3294 3712 4276 4504
2970.0 4352 3947 3094 2347 1889 1777 2106 2564 2839 2852
3010.0 2863 2602 2702 3194 4122 5376 6472 6784 6501 5365
3050.0 3939 3099 2876 3189 4098 5283 5691 5640 4983 3792
3090.0 3120 2758 2488 2218 1842 1531 1250 984 719 495
3130.0 282 186 113 107 106 110 95 96 95 103
3170.0 130 98 93 55 33 18 29 38 42 35
3210.0 17 11 41 11 27 43 29 33 29 13
3250.0 32 33 43 27 35 68 42 23 55 22
3290.0 27 33 30 35 36 57 20 15 17 18
3330.0 13 22 35 35 40 43 51 12 24 7
3370.0 15 39 19 56 26 61 49 74 45 61
3410.0 55 26 33 37 48 61 25 57 61 36
3450.0 53 62 41 73 48 78 73 45 54 50
3490.0 14 32 18 45 64 48 55 54 21 52
3530.0 10 70 49 52 18 54 8 46 55 62
3570.0 30 49 27 16 21 17 19 20 28 53
3610.0 47 26 56 83 42 75 33 35 63 93
3650.0 79 70 66 73 81 95 63 56 46 73
3690.0 54 32 44 34 53 33 44 54 39 5
3730.0 30 38 12 38 14 59 47 16 17 19
3770.0 10 27 52 38 51 33 45 48 60 50
3810.0 73 63 65 70 83 86 66 50 55 61
3850.0 33 56 76 76 80 75 56 52 41 59
3890.0 45 30 60 58 31 48 64 65 64 115
3930.0 116 105 99 73 64 54 89 93 63 62
##END=
