##TITLE=Cyclohexyl propionate
##JCAMP-DX=4.24
##DATA TYPE=INFRARED SPECTRUM
##ORIGIN=Sadtler Research Labs Under US-EPA Contract
##OWNER=NIST Standard Reference Data Program
##CAS REGISTRY NO=6222-35-1
##MOLFORM=C 9 H 16 O 2
##XUNITS=1/CM
##YUNITS=ABSORBANCE
##XFACTOR=1.0
##YFACTOR=0.000078622
##DELTAX=4.0
##FIRSTX=450.0
##LASTX=3966.0
##FIRSTY=0.100637
##MAXX=3966
##MINX=450
##MAXY=0.78622
##MINY=0
##NPOINTS=880
##XYDATA=(X++(Y..Y))
450.0 1280 538 0 256 135 123 63 64 107 282
490.0 226 142 123 93 171 148 85 96 136 109
530.0 33 102 192 226 141 160 94 114 135 94
570.0 100 99 174 147 267 66 73 125 115 123
610.0 162 133 172 162 155 174 212 134 100 128
650.0 138 125 113 110 118 152 135 133 109 138
690.0 129 119 115 142 126 150 71 191 154 49
730.0 114 57 132 153 138 145 115 152 144 163
770.0 125 162 150 180 198 192 187 205 245 237
810.0 254 263 258 266 282 287 301 319 324 315
850.0 297 296 307 319 323 320 294 275 294 321
890.0 387 469 545 580 553 537 521 554 643 733
930.0 759 703 626 558 533 489 415 299 246 234
970.0 232 252 287 326 381 498 628 764 869 986
1010.0 1134 1355 1714 1841 1888 1793 1704 2005 2185 2160
1050.0 1912 1567 1631 1841 2036 2169 2192 2207 2162 2071
1090.0 1830 1506 1233 1052 941 914 994 1173 1419 1538
1130.0 1519 1329 1080 940 984 1145 1348 1556 1756 2043
1170.0 2529 3395 4716 6447 8163 9118 9033 7880 6367 5299
1210.0 4756 4302 3823 3305 2833 2523 2314 2188 2080 2017
1250.0 1961 1945 1947 1941 1918 1884 1852 1788 1623 1387
1290.0 1130 901 749 656 613 615 663 791 982 1252
1330.0 1509 1690 1791 1856 1872 1908 1901 1788 1608 1270
1370.0 983 850 845 848 776 657 501 392 343 314
1410.0 295 310 313 345 401 476 575 682 826 983
1450.0 1156 1292 1359 1408 1365 1227 1008 747 499 360
1490.0 283 243 205 178 153 131 131 111 108 105
1530.0 111 108 99 97 90 98 89 76 73 81
1570.0 72 69 68 67 72 66 78 64 76 70
1610.0 79 79 80 85 85 94 86 96 106 102
1650.0 111 114 130 127 132 130 131 144 148 147
1690.0 182 226 254 322 388 471 518 591 700 902
1730.0 1240 1873 2955 4443 6257 7558 7972 7005 5242 3462
1770.0 2106 1256 816 581 470 389 346 287 248 216
1810.0 188 162 139 124 111 105 102 104 89 86
1850.0 86 79 74 60 59 45 49 42 44 42
1890.0 39 43 46 43 46 39 39 35 39 45
1930.0 46 47 42 41 39 38 35 28 31 33
1970.0 23 27 20 31 28 22 29 31 27 32
2010.0 37 39 53 62 64 67 73 74 77 59
2050.0 60 76 85 87 74 71 67 56 39 33
2090.0 26 33 29 27 25 28 23 23 20 17
2130.0 11 10 15 10 7 9 6 9 6 7
2170.0 8 11 14 14 16 15 18 16 22 23
2210.0 22 19 19 20 14 15 18 19 20 29
2250.0 29 22 26 21 25 28 21 22 25 29
2290.0 26 32 27 34 26 21 17 19 21 20
2330.0 32 32 31 82 82 55 32 27 66 108
2370.0 125 134 123 103 80 57 56 54 48 41
2410.0 40 40 39 39 38 41 44 40 40 42
2450.0 44 40 37 36 38 40 47 46 49 51
2490.0 48 51 46 53 51 54 52 47 56 53
2530.0 60 58 52 53 52 49 52 51 64 59
2570.0 56 46 40 45 46 57 63 62 63 55
2610.0 52 44 47 35 38 34 36 38 36 52
2650.0 60 67 58 62 80 92 101 101 116 130
2690.0 121 114 105 113 108 104 103 98 95 90
2730.0 80 78 80 82 81 89 85 89 92 86
2770.0 91 91 101 112 115 126 135 134 149 155
2810.0 162 177 183 183 192 200 211 245 276 345
2850.0 528 858 1443 2140 2679 2912 2663 2156 1671 1296
2890.0 1103 1020 1025 1082 1164 1298 1525 1860 2340 3023
2930.0 3975 5261 7053 9065 10000 9775 8181 5905 4112 2872
2970.0 2013 1528 1348 1416 1534 1554 1405 1106 866 690
3010.0 576 491 415 364 307 235 205 166 139 119
3050.0 106 107 103 91 83 86 83 72 68 54
3090.0 69 57 56 59 50 59 55 29 39 41
3130.0 55 51 51 52 45 70 60 58 46 33
3170.0 42 34 36 60 33 43 24 25 27 34
3210.0 31 29 47 42 42 41 49 50 42 28
3250.0 31 27 12 31 34 31 34 48 52 45
3290.0 44 38 31 54 44 50 51 39 40 56
3330.0 55 56 52 47 57 45 32 32 36 38
3370.0 39 33 36 40 25 51 37 59 44 55
3410.0 47 68 55 46 64 64 74 58 39 64
3450.0 63 63 46 50 63 88 93 86 116 99
3490.0 97 110 68 59 46 27 29 18 28 49
3530.0 41 45 30 40 19 41 58 43 23 16
3570.0 32 17 41 27 35 28 42 41 35 36
3610.0 21 31 30 38 44 69 17 24 30 44
3650.0 39 31 39 40 20 40 21 46 45 39
3690.0 40 66 94 64 34 64 56 68 40 58
3730.0 73 76 103 54 61 52 66 82 47 60
3770.0 55 54 44 43 79 52 57 52 47 35
3810.0 44 77 23 15 26 45 55 44 51 32
3850.0 47 58 66 46 53 10 37 57 49 45
3890.0 44 51 67 15 5 70 51 46 59 12
3930.0 69 72 66 33 49 37 50 78 85 133
##END=
