##TITLE=1-Tetradecanol, methanesulfonate
##JCAMP-DX=4.24
##DATA TYPE=INFRARED SPECTRUM
##ORIGIN=Sadtler Research Labs Under US-EPA Contract
##OWNER=NIST Standard Reference Data Program
##CAS REGISTRY NO=6222-16-8
##MOLFORM=C 15 H 32 O 3 S
##XUNITS=1/CM
##YUNITS=ABSORBANCE
##XFACTOR=1.0
##YFACTOR=0.000101346
##DELTAX=4.0
##FIRSTX=450.0
##LASTX=3966.0
##FIRSTY=0.001115
##MAXX=3966
##MINX=450
##MAXY=1.01346
##MINY=0
##NPOINTS=880
##XYDATA=(X++(Y..Y))
450.0 11 8 43 67 26 40 50 84 91 73
490.0 110 100 132 192 192 227 300 363 415 607
530.0 638 721 689 473 394 368 453 561 502 307
570.0 144 130 84 63 39 47 54 40 29 25
610.0 27 14 16 17 14 20 20 32 37 49
650.0 45 44 57 38 47 53 60 62 81 102
690.0 131 156 210 254 283 314 351 366 364 352
730.0 319 303 268 255 242 247 249 266 310 369
770.0 480 540 632 682 631 583 608 664 711 736
810.0 724 671 590 509 444 381 333 301 272 255
850.0 236 227 214 216 221 234 248 274 306 334
890.0 373 415 468 537 612 690 755 796 849 911
930.0 1013 1123 1254 1393 1549 1708 1895 2039 2068 1921
970.0 1617 1263 996 879 848 830 785 706 627 554
1010.0 511 475 458 444 435 425 431 455 545 790
1050.0 1033 1040 774 417 287 251 224 208 193 184
1090.0 172 169 167 162 163 166 169 176 181 181
1130.0 176 180 191 206 233 273 330 418 548 747
1170.0 1037 1443 1991 2634 3289 3645 3442 2925 2420 1998
1210.0 1678 1411 1171 983 815 683 599 513 413 341
1250.0 303 278 269 257 255 244 233 224 221 223
1290.0 226 234 246 264 276 295 313 336 378 438
1330.0 509 570 625 690 785 904 1064 1247 1438 1641
1370.0 1793 1845 1793 1734 1652 1564 1413 1159 859 606
1410.0 447 364 330 312 295 287 306 345 413 478
1450.0 558 631 729 781 751 676 539 396 271 194
1490.0 143 112 91 73 64 62 45 42 42 37
1530.0 31 28 32 25 26 23 24 19 23 14
1570.0 18 8 20 9 13 14 12 11 12 13
1610.0 10 16 15 19 20 26 39 45 48 53
1650.0 32 36 28 18 20 20 13 24 13 20
1690.0 14 22 19 26 23 28 32 33 39 40
1730.0 50 50 56 52 48 48 49 39 38 36
1770.0 30 30 25 27 20 26 22 19 20 20
1810.0 17 19 19 13 17 10 15 9 10 5
1850.0 7 5 7 5 3 4 0 3 3 3
1890.0 3 3 1 3 1 2 3 6 3 3
1930.0 2 5 2 4 4 2 2 2 0 3
1970.0 2 2 2 4 3 6 5 2 2 6
2010.0 4 6 9 8 9 10 13 13 13 13
2050.0 11 10 9 11 10 10 12 11 13 13
2090.0 13 14 12 14 12 16 11 12 14 13
2130.0 12 14 12 8 12 14 13 13 13 13
2170.0 16 16 16 14 17 15 14 15 15 15
2210.0 16 17 15 15 15 19 16 18 20 20
2250.0 20 20 19 21 20 21 22 23 30 30
2290.0 35 42 46 49 55 57 52 49 49 40
2330.0 35 24 23 28 36 40 36 32 19 6
2370.0 9 17 26 32 24 16 14 11 10 14
2410.0 10 10 10 10 8 10 11 12 10 9
2450.0 11 9 10 8 10 9 13 12 12 14
2490.0 15 15 15 18 18 20 24 26 27 29
2530.0 34 34 37 36 39 40 41 41 39 39
2570.0 40 40 41 41 39 43 45 46 46 48
2610.0 51 52 55 55 56 59 62 64 67 71
2650.0 75 73 77 83 83 89 92 96 98 100
2690.0 99 97 97 92 93 90 91 92 92 93
2730.0 98 103 108 109 111 114 115 114 116 121
2770.0 123 131 140 145 156 171 189 208 227 244
2810.0 266 296 327 365 409 461 529 631 778 1020
2850.0 1414 2053 2919 3676 3819 3407 2829 2363 2106 1954
2890.0 1844 1827 1952 2219 2609 3099 3705 4526 5752 7480
2930.0 9224 10000 9253 7783 6134 4693 3672 3105 2931 2934
2970.0 2850 2448 1898 1456 1165 953 792 670 586 533
3010.0 504 485 458 418 378 337 296 261 234 209
3050.0 190 174 159 149 150 143 142 142 152 155
3090.0 146 128 106 94 90 82 77 75 69 67
3130.0 63 61 60 57 56 53 52 54 53 49
3170.0 46 44 46 43 42 43 37 38 35 30
3210.0 32 31 31 27 29 24 20 20 21 20
3250.0 20 22 22 21 19 20 19 21 19 22
3290.0 19 18 21 20 19 15 20 16 15 19
3330.0 19 18 17 16 19 14 17 22 19 17
3370.0 18 15 19 20 13 21 17 16 19 15
3410.0 17 19 14 19 13 14 13 9 13 11
3450.0 12 13 16 16 16 12 9 17 15 18
3490.0 16 13 11 10 9 9 13 13 18 18
3530.0 9 15 14 14 14 14 16 14 20 30
3570.0 26 30 24 28 33 29 34 32 29 31
3610.0 39 30 33 27 33 41 30 18 30 29
3650.0 35 29 26 27 25 36 29 34 21 31
3690.0 26 23 26 20 21 21 31 25 24 28
3730.0 26 37 31 31 42 24 28 20 23 30
3770.0 25 29 27 30 23 30 24 37 35 41
3810.0 32 33 34 34 30 31 45 51 34 42
3850.0 39 44 44 43 34 39 33 28 43 40
3890.0 38 49 39 60 47 45 48 44 49 44
3930.0 35 37 43 48 49 35 45 34 40 46
##END=
