##TITLE=Acetic acid, hydroxy-, ethyl ester
##JCAMP-DX=4.24
##DATA TYPE=INFRARED SPECTRUM
##ORIGIN=Sadtler Research Labs Under US-EPA Contract
##OWNER=NIST Standard Reference Data Program
##CAS REGISTRY NO=623-50-7
##MOLFORM=C 4 H 8 O 3
##XUNITS=1/CM
##YUNITS=ABSORBANCE
##XFACTOR=1.0
##YFACTOR=0.000129416
##DELTAX=4.0
##FIRSTX=450.0
##LASTX=3966.0
##FIRSTY=0.013330
##MAXX=3966
##MINX=450
##MAXY=1.29416
##MINY=0
##NPOINTS=880
##XYDATA=(X++(Y..Y))
450.0 103 140 119 134 97 102 111 73 61 69
490.0 45 68 52 56 52 23 27 51 21 23
530.0 4 36 4 45 62 63 88 108 128 161
570.0 206 241 259 254 262 245 234 233 196 180
610.0 169 148 139 156 148 133 135 136 112 109
650.0 113 105 117 114 113 134 123 125 127 138
690.0 155 165 183 184 205 213 208 214 206 183
730.0 175 150 126 104 83 60 47 39 19 11
770.0 16 5 14 17 20 22 22 25 17 9
810.0 13 9 13 12 26 33 50 76 104 146
850.0 198 251 315 353 355 328 278 212 148 106
890.0 78 84 84 110 125 137 156 178 199 214
930.0 210 217 218 207 195 183 175 174 179 185
970.0 202 233 266 308 346 388 453 519 622 767
1010.0 961 1212 1490 1749 1971 2148 2234 2243 2168 2138
1050.0 2125 2183 2342 2583 2986 3430 3970 4605 5273 5980
1090.0 6670 7304 7671 7518 6838 5899 4597 3239 2308 1857
1130.0 1694 1669 1687 1719 1761 1803 1864 1945 2064 2202
1170.0 2423 2692 3063 3522 3987 4335 4502 4679 4986 5711
1210.0 6773 8185 9286 10000 9991 9332 7947 6129 4694 3892
1250.0 3644 3684 3924 4245 4657 5009 5218 5235 4984 4599
1290.0 4092 3602 3241 3127 3071 2985 2803 2536 2184 1784
1330.0 1431 1138 937 780 679 626 639 734 900 1026
1370.0 1108 1196 1316 1297 1158 1011 916 796 744 706
1410.0 664 599 584 578 584 602 660 718 758 809
1450.0 863 881 860 850 805 734 658 589 493 404
1490.0 328 272 212 155 129 84 68 59 54 42
1530.0 34 31 31 33 22 35 29 42 46 35
1570.0 47 49 59 64 62 70 60 68 51 56
1610.0 47 49 50 38 40 30 44 36 44 29
1650.0 47 59 59 46 67 67 90 95 115 150
1690.0 168 214 257 331 393 480 593 760 1021 1297
1730.0 1790 2371 3253 4188 5669 6777 7783 8411 9083 8981
1770.0 7984 6902 5580 4474 3372 2553 1859 1398 1048 810
1810.0 626 509 413 347 297 246 209 169 149 113
1850.0 102 84 77 60 62 50 56 60 60 65
1890.0 64 62 55 50 46 42 38 40 32 32
1930.0 34 32 36 28 25 21 18 14 14 10
1970.0 6 6 3 4 1 0 1 1 0 4
2010.0 4 4 4 2 8 6 8 8 8 11
2050.0 11 13 18 20 22 28 34 43 49 54
2090.0 58 56 54 47 43 37 37 32 30 30
2130.0 30 30 27 25 24 20 22 19 18 16
2170.0 17 19 20 18 18 18 17 14 10 5
2210.0 4 1 1 1 1 0 1 2 2 3
2250.0 3 2 1 1 1 1 2 4 2 8
2290.0 13 19 21 28 34 36 33 27 29 24
2330.0 15 8 17 13 21 27 16 11 13 5
2370.0 7 13 19 24 19 13 11 11 15 15
2410.0 18 25 27 32 36 40 43 45 45 44
2450.0 43 43 37 35 35 32 30 30 30 26
2490.0 25 23 23 24 26 26 24 23 27 26
2530.0 26 26 23 25 26 26 25 23 24 24
2570.0 21 21 18 20 17 19 22 23 21 23
2610.0 22 26 24 28 29 27 28 30 31 32
2650.0 32 38 39 37 39 41 46 45 44 41
2690.0 40 41 40 38 39 40 37 39 47 49
2730.0 59 59 62 67 73 79 81 87 92 100
2770.0 106 113 120 126 139 148 157 170 187 204
2810.0 225 253 283 316 343 376 409 425 441 454
2850.0 469 494 525 564 613 666 728 802 893 945
2890.0 975 1005 1039 1086 1137 1217 1324 1428 1561 1705
2930.0 1815 1866 1935 1970 1905 1790 1695 1613 1541 1519
2970.0 1577 1691 1902 2199 2422 2460 2463 2441 2156 1759
3010.0 1483 1246 1034 812 634 496 389 304 244 201
3050.0 169 143 125 109 94 88 82 77 71 67
3090.0 62 61 60 53 51 51 52 49 54 52
3130.0 52 48 47 43 41 38 36 36 38 37
3170.0 30 31 33 29 29 29 27 26 27 26
3210.0 27 28 22 22 23 25 24 24 22 20
3250.0 24 18 20 21 13 15 13 12 9 9
3290.0 8 6 9 9 11 12 7 10 6 12
3330.0 10 12 18 12 12 14 10 13 15 18
3370.0 14 14 16 14 13 20 17 23 15 19
3410.0 14 9 9 8 8 9 7 0 9 4
3450.0 0 5 2 11 12 21 26 32 37 46
3490.0 62 70 76 74 68 66 65 55 56 41
3530.0 46 53 68 85 109 170 252 367 526 689
3570.0 858 973 1059 1117 1114 1067 972 866 746 617
3610.0 512 405 330 265 229 204 190 207 238 271
3650.0 262 252 263 220 167 109 113 87 76 61
3690.0 62 41 38 19 13 0 0 0 0 0
3730.0 0 0 0 0 0 0 0 0 0 0
3770.0 0 0 0 0 0 0 0 0 0 0
3810.0 0 0 0 0 0 0 0 0 0 0
3850.0 0 9 0 0 0 0 0 0 0 0
3890.0 1 0 0 1 0 0 0 2 0 0
3930.0 0 0 0 0 0 0 0 0 0 0
##END=
