##TITLE=5-Nonanol
##JCAMP-DX=4.24
##DATA TYPE=INFRARED SPECTRUM
##ORIGIN=Sadtler Research Labs Under US-EPA Contract
##OWNER=NIST Standard Reference Data Program
##CAS REGISTRY NO=623-93-8
##MOLFORM=C 9 H 20 O
##XUNITS=1/CM
##YUNITS=ABSORBANCE
##XFACTOR=1.0
##YFACTOR=0.000071371
##DELTAX=4.0
##FIRSTX=450.0
##LASTX=3966.0
##FIRSTY=0.003212
##MAXX=3966
##MINX=450
##MAXY=0.71371
##MINY=0
##NPOINTS=880
##XYDATA=(X++(Y..Y))
450.0 45 62 63 58 55 75 78 74 92 84
490.0 74 68 74 96 91 80 80 81 68 68
530.0 81 91 60 50 79 85 65 81 55 68
570.0 62 26 18 41 29 42 44 53 45 52
610.0 48 56 58 54 62 50 53 37 39 50
650.0 55 48 48 55 48 55 61 56 60 56
690.0 59 54 59 57 58 75 75 102 124 153
730.0 181 207 227 214 215 201 187 161 139 132
770.0 125 145 160 186 197 199 209 196 162 144
810.0 122 105 91 90 90 97 104 119 131 147
850.0 148 161 175 191 198 212 234 248 269 291
890.0 307 318 318 317 305 309 300 286 263 237
930.0 209 189 181 188 194 202 227 257 294 339
970.0 386 436 487 536 598 690 784 884 983 1062
1010.0 1147 1230 1328 1413 1439 1410 1296 1161 1025 915
1050.0 814 737 689 663 649 659 659 650 646 640
1090.0 624 617 624 624 630 637 647 670 715 750
1130.0 792 797 775 716 623 525 445 373 338 326
1170.0 321 342 367 398 437 479 508 532 555 547
1210.0 547 533 526 528 534 558 575 595 619 644
1250.0 671 683 686 679 643 607 563 521 495 466
1290.0 463 463 464 465 445 423 401 386 379 381
1330.0 392 420 469 526 568 593 606 632 670 717
1370.0 779 878 994 1120 1156 1115 979 828 699 599
1410.0 502 428 375 358 349 373 422 503 577 657
1450.0 764 903 1054 1188 1233 1168 1024 811 587 413
1490.0 297 227 184 156 141 131 120 116 112 106
1530.0 91 93 77 79 73 65 58 52 51 47
1570.0 46 37 47 40 34 39 41 39 34 32
1610.0 32 33 30 32 30 26 23 22 26 24
1650.0 20 28 16 18 17 25 17 25 21 19
1690.0 24 24 18 19 21 19 16 17 21 19
1730.0 16 25 16 16 14 12 15 9 9 10
1770.0 8 7 10 9 10 9 11 10 9 12
1810.0 4 10 11 4 11 10 3 5 3 8
1850.0 5 5 0 4 4 8 12 7 7 12
1890.0 8 2 12 12 10 4 4 10 10 11
1930.0 7 3 9 11 3 5 5 4 4 4
1970.0 5 4 4 11 5 3 8 9 7 6
2010.0 10 10 10 11 19 18 19 17 17 17
2050.0 18 18 10 10 11 11 11 10 3 3
2090.0 10 6 10 10 10 10 10 11 11 11
2130.0 11 10 16 9 17 16 13 17 16 17
2170.0 17 16 16 16 10 10 16 11 15 14
2210.0 12 15 15 15 15 15 15 15 16 16
2250.0 16 17 15 15 15 16 16 16 14 15
2290.0 15 21 14 15 20 20 20 28 20 20
2330.0 20 19 20 13 20 20 26 24 19 19
2370.0 13 19 19 21 20 22 22 22 22 21
2410.0 21 21 21 21 17 17 17 14 14 13
2450.0 13 7 14 13 14 14 8 8 13 9
2490.0 14 9 7 12 13 14 13 20 14 20
2530.0 20 20 20 20 24 26 27 28 34 34
2570.0 35 41 41 50 57 56 63 63 68 69
2610.0 69 70 70 77 77 84 83 91 95 99
2650.0 101 112 112 117 124 119 132 133 132 133
2690.0 133 133 133 133 128 134 134 139 146 153
2730.0 154 168 182 201 205 200 199 196 188 189
2770.0 193 202 215 230 245 260 286 311 329 354
2810.0 375 407 446 486 549 638 752 916 1132 1408
2850.0 1773 2239 2804 3448 4083 4508 4658 4648 4511 4157
2890.0 3731 3243 3004 3098 3440 3965 4638 5447 6374 7411
2930.0 8609 9590 10000 9924 8878 7590 6585 6247 6777 7732
2970.0 7953 6888 5130 3243 2059 1417 1072 866 736 643
3010.0 568 508 462 424 387 361 316 285 256 220
3050.0 205 184 170 156 157 139 136 127 127 125
3090.0 114 114 109 107 101 101 94 87 88 86
3130.0 81 77 74 73 69 67 67 66 66 67
3170.0 67 60 56 67 64 63 62 56 54 46
3210.0 46 39 32 25 33 25 25 22 22 17
3250.0 26 18 19 19 18 12 4 12 11 4
3290.0 12 8 12 7 12 12 12 18 11 11
3330.0 12 12 13 20 18 18 15 8 17 18
3370.0 19 17 25 18 18 26 26 25 31 26
3410.0 25 26 28 25 28 27 32 26 25 33
3450.0 31 29 33 25 21 27 11 19 26 18
3490.0 19 34 32 13 18 19 9 9 15 11
3530.0 25 20 17 19 17 17 15 10 12 19
3570.0 29 25 23 20 17 24 18 32 19 40
3610.0 46 70 74 108 136 177 188 234 279 338
3650.0 436 496 496 441 366 260 177 124 87 59
3690.0 46 38 33 32 26 26 27 33 21 21
3730.0 16 26 25 20 23 23 40 35 28 23
3770.0 22 33 24 26 26 35 35 34 40 51
3810.0 51 39 30 46 39 47 39 36 37 40
3850.0 39 37 38 33 38 33 26 28 44 50
3890.0 59 52 44 49 33 22 20 22 21 22
3930.0 16 18 18 18 20 19 25 24 23 24
##END=
