##TITLE=2-Pentanone oxime
##JCAMP-DX=4.24
##DATA TYPE=INFRARED SPECTRUM
##ORIGIN=Sadtler Research Labs Under US-EPA Contract
##OWNER=NIST Standard Reference Data Program
##CAS REGISTRY NO=623-40-5
##MOLFORM=C 5 H 11 N O
##XUNITS=1/CM
##YUNITS=ABSORBANCE
##XFACTOR=1.0
##YFACTOR=0.000087253
##DELTAX=4.0
##FIRSTX=450.0
##LASTX=3966.0
##FIRSTY=0.000000
##MAXX=3966
##MINX=450
##MAXY=0.87253
##MINY=0
##NPOINTS=880
##XYDATA=(X++(Y..Y))
450.0 0 189 231 173 92 135 126 104 107 137
490.0 157 165 167 217 221 290 339 424 406 390
530.0 341 246 209 152 151 131 153 214 251 276
570.0 354 408 471 543 629 768 830 885 841 821
610.0 721 628 627 713 907 1058 1110 1104 1057 831
650.0 642 514 477 468 460 493 486 505 515 538
690.0 564 608 631 652 674 697 702 702 715 721
730.0 725 712 706 710 742 787 837 842 802 737
770.0 596 450 344 268 227 235 239 265 307 341
810.0 381 384 389 378 345 294 300 334 396 474
850.0 577 715 856 1034 1249 1535 1797 2057 2208 2219
890.0 2164 2027 1873 1835 2147 2682 3306 3956 4755 5800
930.0 6571 6789 6575 6135 5243 3849 2532 1756 1397 1254
970.0 1195 1194 1225 1278 1356 1413 1468 1460 1402 1300
1010.0 1150 960 757 589 476 417 385 369 349 335
1050.0 321 316 317 327 365 435 547 694 928 1245
1090.0 1632 1920 2092 2132 1990 1687 1297 929 635 443
1130.0 329 273 242 247 267 300 340 356 339 305
1170.0 285 286 324 390 500 684 1005 1430 1801 2102
1210.0 2313 2401 2215 1857 1632 1527 1492 1605 1884 2086
1250.0 2160 2140 2014 1700 1281 976 892 905 923 967
1290.0 997 952 873 880 967 1177 1392 1660 1967 2268
1330.0 2642 2958 3188 3334 3395 3284 3062 2880 2760 2709
1370.0 2597 2500 2411 2273 1946 1645 1361 1080 857 713
1410.0 631 607 645 727 841 980 1143 1340 1521 1639
1450.0 1785 1855 1894 1895 1750 1653 1428 1221 1021 849
1490.0 688 588 520 456 436 391 356 326 324 283
1530.0 274 243 251 217 203 197 185 176 181 145
1570.0 151 126 147 117 115 109 108 104 112 113
1610.0 111 119 137 124 142 147 199 220 278 346
1650.0 424 482 532 478 473 407 335 240 195 156
1690.0 136 125 146 157 170 180 196 201 213 202
1730.0 188 179 152 138 122 108 121 104 113 101
1770.0 109 100 107 116 165 202 275 255 207 171
1810.0 154 145 150 152 147 148 134 139 125 126
1850.0 113 121 116 117 113 110 118 104 107 100
1890.0 102 93 99 95 98 97 100 102 101 101
1930.0 105 102 104 100 104 101 108 106 112 110
1970.0 117 113 111 113 114 108 111 116 114 114
2010.0 114 114 109 116 115 118 119 118 116 114
2050.0 115 113 114 110 109 110 110 112 107 105
2090.0 102 102 99 100 96 97 100 99 97 101
2130.0 103 104 105 102 105 108 104 103 108 109
2170.0 110 113 111 114 110 110 103 103 101 99
2210.0 96 93 96 94 95 95 95 96 96 98
2250.0 100 98 100 100 100 103 100 102 103 104
2290.0 105 109 105 107 106 110 110 107 105 101
2330.0 104 100 99 93 108 99 105 98 100 107
2370.0 103 106 107 110 105 99 98 99 101 101
2410.0 104 105 107 109 110 108 109 108 105 105
2450.0 102 104 103 101 100 101 99 100 102 100
2490.0 101 101 104 104 103 107 106 108 113 117
2530.0 122 126 129 134 139 145 153 165 169 177
2570.0 182 185 187 182 182 179 176 172 173 171
2610.0 173 170 173 182 189 192 190 194 197 199
2650.0 200 199 205 212 224 228 229 233 232 228
2690.0 221 219 212 214 213 214 215 214 219 220
2730.0 223 235 240 252 261 266 259 247 243 232
2770.0 228 228 227 236 248 266 284 300 319 340
2810.0 364 391 416 458 513 588 685 797 919 1065
2850.0 1235 1406 1589 1764 2049 2461 3058 3754 4199 4362
2890.0 4444 4358 4046 3778 3728 3862 4128 4429 4777 5128
2930.0 5558 6114 6722 7040 7219 7387 7586 7946 8563 9498
2970.0 10000 9922 9177 7898 6284 4574 3325 2529 2028 1674
3010.0 1440 1241 1081 978 906 858 811 779 738 705
3050.0 663 625 587 542 506 468 438 405 381 351
3090.0 325 308 295 284 271 255 251 249 248 243
3130.0 240 237 230 224 218 211 205 197 189 177
3170.0 175 171 172 169 167 165 163 161 159 153
3210.0 154 149 146 143 136 136 135 134 131 129
3250.0 136 143 151 156 163 169 186 206 221 227
3290.0 223 210 202 190 185 167 159 156 148 147
3330.0 139 144 136 139 140 145 146 140 138 137
3370.0 136 138 132 135 133 132 132 133 128 125
3410.0 126 119 121 119 124 122 112 119 125 114
3450.0 111 106 115 121 119 113 114 113 115 109
3490.0 106 110 104 105 102 103 105 94 110 103
3530.0 104 98 104 107 112 98 113 107 104 132
3570.0 132 129 127 132 153 157 156 139 170 204
3610.0 273 331 479 698 1081 1775 2874 4504 6879 8556
3650.0 8792 8213 7972 6494 3791 1956 1043 608 363 264
3690.0 233 203 190 189 176 185 168 142 130 131
3730.0 119 137 137 104 188 99 142 102 107 116
3770.0 112 113 94 112 97 108 97 125 100 132
3810.0 92 109 115 116 108 95 114 129 112 97
3850.0 114 149 116 103 106 118 114 116 106 133
3890.0 106 125 99 147 115 117 102 118 129 108
3930.0 135 137 122 128 135 129 144 136 158 150
##END=
