##TITLE=3-Hexanone, 5-methyl-
##JCAMP-DX=4.24
##DATA TYPE=INFRARED SPECTRUM
##ORIGIN=Sadtler Research Labs Under US-EPA Contract
##OWNER=NIST Standard Reference Data Program
##CAS REGISTRY NO=623-56-3
##MOLFORM=C 7 H 14 O
##XUNITS=1/CM
##YUNITS=ABSORBANCE
##XFACTOR=1.0
##YFACTOR=0.000056982
##DELTAX=4.0
##FIRSTX=450.0
##LASTX=3966.0
##FIRSTY=0.007636
##MAXX=3966
##MINX=450
##MAXY=0.56982
##MINY=0
##NPOINTS=880
##XYDATA=(X++(Y..Y))
450.0 134 136 132 145 134 127 134 102 126 113
490.0 129 145 127 85 69 140 177 154 281 158
530.0 202 245 186 195 200 162 183 142 126 253
570.0 24 144 175 145 141 91 263 183 140 132
610.0 136 142 149 183 201 175 195 254 222 192
650.0 191 189 121 95 42 69 52 64 39 50
690.0 41 37 45 59 42 58 11 18 25 10
730.0 27 32 77 67 79 78 95 92 105 95
770.0 94 67 67 95 67 175 174 161 224 276
810.0 299 309 275 248 249 153 136 145 141 150
850.0 143 143 159 183 198 197 187 196 170 161
890.0 144 127 152 147 167 202 277 336 420 523
930.0 681 826 934 941 896 778 607 427 358 333
970.0 336 339 348 359 408 392 410 438 464 548
1010.0 650 801 1002 1167 1260 1275 1182 992 829 669
1050.0 535 466 423 398 380 381 417 473 544 662
1090.0 844 1088 1364 1526 1586 1563 1437 1231 1088 1068
1130.0 1124 1246 1420 1568 1672 1754 1800 1862 1970 2064
1170.0 2053 1923 1690 1346 1028 793 632 524 464 426
1210.0 400 427 490 533 560 559 543 492 426 381
1250.0 376 365 356 364 425 506 625 749 843 879
1290.0 857 784 688 634 643 692 753 839 941 1044
1330.0 1197 1380 1592 1818 2067 2370 2699 2986 3139 3121
1370.0 2952 2644 2273 1979 1734 1540 1344 1148 1072 1037
1410.0 1042 1132 1161 1189 1197 1186 1131 1131 1147 1198
1450.0 1331 1520 1828 2000 2090 2099 1928 1604 1281 968
1490.0 735 523 395 312 262 222 179 180 147 148
1530.0 123 134 111 129 109 99 94 92 120 91
1570.0 103 86 112 82 74 87 107 109 114 103
1610.0 112 115 130 111 127 140 125 145 143 158
1650.0 148 192 178 209 223 257 302 377 438 552
1690.0 657 829 1151 1644 2224 3172 4352 5752 7035 7794
1730.0 8013 7486 6221 4739 3382 2296 1522 1074 818 680
1770.0 595 528 470 409 367 330 305 279 229 205
1810.0 177 131 120 89 82 79 60 56 51 53
1850.0 41 46 27 27 22 33 25 20 19 16
1890.0 29 24 21 26 17 18 16 6 11 17
1930.0 10 13 15 11 12 18 8 0 1 8
1970.0 0 2 1 3 7 8 4 11 4 1
2010.0 11 9 0 9 11 18 9 21 30 19
2050.0 23 25 24 21 17 10 1 10 9 9
2090.0 17 10 9 11 0 5 10 10 17 18
2130.0 19 27 36 26 24 29 28 27 31 35
2170.0 36 36 27 26 26 26 19 20 26 23
2210.0 28 17 22 19 19 17 17 10 9 18
2250.0 9 20 10 11 14 18 13 20 13 30
2290.0 29 22 24 32 32 27 19 23 19 15
2330.0 24 26 34 30 63 29 5 18 61 87
2370.0 98 121 109 91 72 59 50 51 50 42
2410.0 42 43 34 34 34 45 29 43 41 45
2450.0 35 45 44 45 46 38 45 48 51 48
2490.0 49 35 57 47 39 48 40 39 31 31
2530.0 22 22 32 30 35 33 40 42 41 42
2570.0 33 42 50 44 60 60 59 74 77 71
2610.0 85 88 87 88 95 88 81 78 79 78
2650.0 98 103 95 89 89 89 98 98 107 116
2690.0 125 138 133 138 147 158 156 176 193 212
2730.0 230 232 238 264 257 256 250 231 222 229
2770.0 230 233 231 241 258 276 295 322 342 371
2810.0 409 441 478 513 543 576 602 637 698 739
2850.0 801 886 1000 1208 1530 2037 2721 3345 3843 4215
2890.0 4377 4317 4300 4293 4308 4310 4343 4361 4387 4458
2930.0 4639 4875 5270 5815 6334 6851 7478 8464 9497 10000
2970.0 9987 9626 8694 7263 5992 4874 3812 2801 2050 1513
3010.0 1172 908 749 647 551 486 438 415 370 349
3050.0 324 297 263 270 243 238 212 213 218 201
3090.0 208 182 177 205 186 178 188 178 169 160
3130.0 164 163 172 159 177 159 161 156 148 173
3170.0 164 168 192 194 197 191 182 173 184 161
3210.0 150 132 133 107 125 122 93 78 81 68
3250.0 85 90 89 76 80 84 93 92 103 95
3290.0 105 94 104 84 85 86 74 86 61 61
3330.0 70 69 61 58 95 81 59 72 71 85
3370.0 92 90 63 71 91 97 83 94 107 95
3410.0 79 103 101 121 137 168 195 178 168 170
3450.0 156 133 67 60 73 63 48 45 47 40
3490.0 25 26 26 41 36 18 52 40 39 33
3530.0 33 45 25 28 34 35 56 53 84 53
3570.0 130 114 73 64 49 71 55 61 55 29
3610.0 54 17 23 26 22 42 61 42 56 49
3650.0 49 63 74 39 26 32 35 83 52 46
3690.0 59 67 61 67 87 32 51 50 61 49
3730.0 21 51 63 68 112 100 105 67 85 67
3770.0 64 50 55 64 62 59 37 52 65 73
3810.0 61 70 43 63 66 70 86 105 113 80
3850.0 71 73 74 69 89 88 83 79 91 74
3890.0 59 71 58 84 105 80 67 68 53 50
3930.0 37 51 53 61 60 54 66 53 62 68
##END=
