##TITLE=Sulfurous acid, diethyl ester
##JCAMP-DX=4.24
##DATA TYPE=INFRARED SPECTRUM
##ORIGIN=Sadtler Research Labs Under US-EPA Contract
##OWNER=NIST Standard Reference Data Program
##CAS REGISTRY NO=623-81-4
##MOLFORM=C 4 H 10 O 3 S
##XUNITS=1/CM
##YUNITS=ABSORBANCE
##XFACTOR=1.0
##YFACTOR=0.000110822
##DELTAX=4.0
##FIRSTX=450.0
##LASTX=3966.0
##FIRSTY=0.012855
##MAXX=3966
##MINX=450
##MAXY=1.10822
##MINY=0
##NPOINTS=880
##XYDATA=(X++(Y..Y))
450.0 116 186 162 250 195 192 187 182 147 145
490.0 115 114 96 92 76 45 21 0 35 8
530.0 44 35 47 43 44 45 21 49 52 92
570.0 130 217 280 336 374 367 345 265 239 173
610.0 179 145 162 154 182 190 226 277 314 430
650.0 497 690 819 1132 1288 1826 2339 2820 3629 4322
690.0 5248 5651 6272 6300 6308 5970 5739 5352 4904 4449
730.0 3989 3551 3145 2758 2356 1965 1581 1214 909 708
770.0 573 498 433 408 387 388 376 369 349 325
810.0 291 260 245 222 207 184 200 207 249 300
850.0 381 510 703 1040 1618 2638 4282 6379 8328 9489
890.0 10000 9401 8141 6706 5645 4846 4158 3460 2762 2103
930.0 1540 1132 845 665 547 481 434 422 418 445
970.0 502 593 737 955 1322 1907 2782 3927 5172 6164
1010.0 6800 7026 6739 6137 5551 5061 4480 3850 3087 2396
1050.0 1875 1546 1336 1191 1120 1054 1013 1008 1025 1075
1090.0 1140 1171 1155 1099 971 807 656 550 482 434
1130.0 405 389 381 379 381 392 415 447 476 497
1170.0 525 554 611 716 899 1210 1683 2303 2984 3640
1210.0 4152 4331 4155 4011 3887 3772 3478 3122 2665 1941
1250.0 1271 810 526 384 302 254 224 203 187 174
1290.0 162 151 145 138 137 135 146 163 202 256
1330.0 323 407 481 565 594 617 654 822 784 678
1370.0 887 1106 1194 1355 1455 1506 1448 1306 1022 723
1410.0 533 437 387 361 350 346 364 392 429 448
1450.0 455 444 415 395 374 381 379 389 364 329
1490.0 275 230 177 133 106 73 55 41 39 24
1530.0 19 14 19 11 1 9 12 16 22 18
1570.0 26 29 40 42 47 54 59 66 76 81
1610.0 85 89 95 84 90 80 81 70 66 57
1650.0 51 49 45 29 28 22 22 14 18 21
1690.0 20 19 28 27 31 33 41 47 58 62
1730.0 69 77 79 81 77 76 78 71 69 64
1770.0 61 55 50 39 40 28 29 20 15 14
1810.0 9 7 6 5 2 1 2 5 1 4
1850.0 1 6 6 8 10 11 20 24 33 40
1890.0 49 52 63 65 67 68 62 57 48 41
1930.0 36 29 26 19 21 16 17 15 15 14
1970.0 14 12 14 13 16 12 12 14 13 15
2010.0 14 13 11 12 15 16 14 13 11 13
2050.0 11 13 12 9 9 9 8 8 11 10
2090.0 13 15 17 18 18 17 17 17 17 14
2130.0 13 12 10 8 9 7 9 8 8 8
2170.0 8 9 11 7 10 7 6 5 9 6
2210.0 5 1 1 2 3 1 4 2 4 6
2250.0 8 12 13 13 13 16 17 15 14 12
2290.0 11 6 4 4 2 1 1 1 4 7
2330.0 9 13 12 16 12 12 13 12 24 32
2370.0 25 24 22 24 24 29 34 36 39 40
2410.0 39 38 34 28 24 21 23 25 27 31
2450.0 35 41 43 39 36 33 29 28 25 23
2490.0 22 24 19 11 13 17 15 12 9 4
2530.0 2 1 2 1 3 3 3 2 4 3
2570.0 2 2 5 2 5 6 6 6 10 9
2610.0 10 11 13 9 9 10 10 7 4 6
2650.0 6 4 4 5 5 3 5 5 6 7
2690.0 8 10 10 12 16 19 28 34 41 45
2730.0 46 47 48 48 49 50 54 57 64 68
2770.0 69 70 71 70 68 67 66 69 76 83
2810.0 94 103 113 127 142 151 164 177 192 209
2850.0 228 261 295 347 409 487 591 710 824 928
2890.0 1033 1107 1161 1216 1214 1203 1178 1147 1131 1161
2930.0 1283 1497 1740 1933 2011 2002 1910 1775 1675 1700
2970.0 1837 2059 2385 2725 3045 3174 3078 2816 2397 1993
3010.0 1613 1271 1011 816 672 551 449 368 300 244
3050.0 201 166 140 120 104 89 81 75 65 57
3090.0 56 49 44 38 42 38 35 33 35 34
3130.0 31 31 31 29 30 33 33 36 35 39
3170.0 37 39 41 37 40 40 38 37 37 37
3210.0 34 34 33 27 30 28 26 24 23 21
3250.0 21 25 19 20 17 16 17 19 21 20
3290.0 16 19 17 11 13 12 16 21 17 18
3330.0 20 22 23 20 24 23 19 21 26 29
3370.0 27 27 21 25 27 29 30 29 28 28
3410.0 29 29 31 28 27 27 29 25 22 24
3450.0 19 26 23 24 22 28 25 26 23 27
3490.0 18 18 16 17 17 17 18 8 8 10
3530.0 12 10 11 15 10 3 11 10 3 4
3570.0 14 9 5 9 10 1 10 2 4 5
3610.0 12 5 9 9 16 26 28 23 36 40
3650.0 45 40 45 53 38 57 51 63 48 48
3690.0 49 38 37 37 25 18 15 15 12 4
3730.0 1 7 8 1 28 5 10 4 3 5
3770.0 8 11 4 8 11 15 15 21 17 18
3810.0 8 10 8 11 10 5 18 21 21 10
3850.0 18 18 10 14 16 20 12 11 4 17
3890.0 14 17 7 4 7 14 15 13 11 1
3930.0 2 1 15 12 3 6 2 5 4 15
##END=
