##TITLE=2-Cyclopentene-1-tridecanoic acid, ethyl ester, (S)-
##JCAMP-DX=4.24
##DATA TYPE=INFRARED SPECTRUM
##ORIGIN=Sadtler Research Labs Under US-EPA Contract
##OWNER=NIST Standard Reference Data Program
##CAS REGISTRY NO=623-32-5
##MOLFORM=C 20 H 36 O 2
##XUNITS=1/CM
##YUNITS=ABSORBANCE
##XFACTOR=1.0
##YFACTOR=0.000073779
##DELTAX=4.0
##FIRSTX=450.0
##LASTX=3966.0
##FIRSTY=0.010846
##MAXX=3966
##MINX=450
##MAXY=0.73779
##MINY=0
##NPOINTS=880
##XYDATA=(X++(Y..Y))
450.0 147 178 140 80 123 101 100 44 24 99
490.0 16 27 39 122 129 146 142 195 134 194
530.0 234 252 242 96 229 286 364 371 219 345
570.0 239 142 182 225 182 209 284 325 394 488
610.0 373 545 469 405 439 412 385 458 394 393
650.0 434 420 335 420 444 498 526 649 597 627
690.0 689 711 878 1009 1189 1264 1417 1446 1284 1201
730.0 944 905 776 683 648 618 583 567 554 509
770.0 568 525 560 575 565 528 535 514 560 536
810.0 523 486 491 525 523 545 541 531 504 556
850.0 594 595 563 575 498 520 539 519 483 517
890.0 490 550 528 560 612 631 660 625 572 593
930.0 579 619 620 550 555 518 508 534 544 539
970.0 552 583 579 600 592 599 634 680 688 721
1010.0 826 860 981 1118 1301 1454 1596 1616 1554 1486
1050.0 1357 1369 1277 1228 1213 1167 1134 1133 1166 1227
1090.0 1352 1474 1656 1674 1670 1657 1659 1614 1624 1644
1130.0 1753 1833 2004 2208 2421 2705 2955 3163 3324 3398
1170.0 3416 3379 3343 3176 3034 2810 2630 2491 2396 2318
1210.0 2240 2195 2154 2160 2194 2220 2259 2267 2243 2216
1250.0 2132 2042 1848 1694 1548 1444 1370 1297 1294 1235
1290.0 1199 1219 1263 1276 1291 1280 1246 1212 1156 1066
1330.0 1054 1091 1161 1208 1262 1306 1280 1221 1246 1351
1370.0 1537 1523 1300 1037 907 828 778 766 677 694
1410.0 656 681 766 810 820 909 956 1120 1111 1226
1450.0 1331 1456 1758 1623 1516 1239 1051 786 595 536
1490.0 539 426 467 376 516 475 366 414 481 380
1530.0 326 380 354 500 353 300 336 481 420 312
1570.0 358 299 369 288 265 285 298 287 312 335
1610.0 364 358 441 357 370 343 367 435 358 447
1650.0 453 624 373 403 389 485 452 454 485 621
1690.0 519 578 728 855 828 867 1048 1317 1384 1635
1730.0 2122 2919 3610 4087 4183 4311 4274 3782 3002 2225
1770.0 1697 1312 916 723 573 450 433 331 306 237
1810.0 227 193 172 156 193 199 142 148 144 190
1850.0 142 124 122 112 127 181 123 112 112 112
1890.0 134 113 112 105 105 122 108 128 119 121
1930.0 105 115 112 125 123 109 103 99 96 109
1970.0 106 91 88 94 91 91 103 88 88 84
2010.0 86 93 103 102 93 90 95 86 84 78
2050.0 73 76 77 71 65 61 68 73 56 68
2090.0 62 50 54 51 64 47 54 45 51 45
2130.0 46 35 33 39 37 34 35 29 28 30
2170.0 26 27 35 31 22 28 33 22 19 24
2210.0 27 31 27 27 25 28 23 25 16 23
2250.0 23 22 28 25 28 27 31 27 35 33
2290.0 41 47 54 60 54 88 87 99 94 107
2330.0 108 103 100 120 115 114 128 172 149 142
2370.0 123 99 79 47 39 40 37 43 49 43
2410.0 42 48 47 36 32 37 37 38 44 46
2450.0 37 45 51 43 50 51 41 50 49 35
2490.0 44 48 47 45 47 45 46 45 59 60
2530.0 61 64 68 75 78 70 70 75 77 83
2570.0 83 82 75 87 93 91 77 97 91 99
2610.0 100 107 100 114 121 127 122 122 132 132
2650.0 145 137 146 153 153 152 158 158 165 166
2690.0 163 158 157 167 159 157 171 168 182 181
2730.0 188 190 194 189 202 208 220 219 226 243
2770.0 237 271 270 292 314 336 365 398 431 481
2810.0 524 580 658 737 819 940 1106 1323 1664 2162
2850.0 2807 3606 4385 4855 4615 3928 3216 2701 2425 2327
2890.0 2390 2568 2895 3304 3806 4403 5052 5851 6878 8228
2930.0 9586 10000 9188 7812 6422 5290 4448 3799 3108 2502
2970.0 2147 1913 1824 1803 1733 1563 1311 1085 927 808
3010.0 743 668 560 460 361 322 301 321 385 473
3050.0 598 689 808 821 684 454 265 185 131 101
3090.0 76 72 62 54 38 46 46 37 36 20
3130.0 20 30 23 26 21 28 19 26 41 33
3170.0 40 46 43 43 47 29 34 33 26 31
3210.0 41 36 19 42 33 36 15 20 30 39
3250.0 24 21 25 15 28 36 35 50 35 33
3290.0 28 25 34 13 35 16 22 24 21 30
3330.0 37 44 42 30 43 38 31 49 44 49
3370.0 50 9 38 37 54 34 28 16 38 35
3410.0 45 34 39 50 33 33 61 54 61 53
3450.0 66 62 35 44 46 47 30 47 62 42
3490.0 33 25 19 13 33 36 16 27 25 32
3530.0 37 16 22 42 65 46 27 26 19 50
3570.0 88 65 83 78 70 77 50 44 44 66
3610.0 101 101 104 107 69 150 52 48 37 64
3650.0 148 73 71 30 16 96 89 91 16 47
3690.0 105 32 20 38 18 84 85 16 55 67
3730.0 45 122 100 63 139 119 76 33 25 41
3770.0 49 23 42 25 52 36 43 98 150 101
3810.0 81 85 100 114 82 69 98 128 103 91
3850.0 101 168 103 100 109 124 108 87 116 104
3890.0 89 104 99 94 78 37 30 38 31 30
3930.0 30 44 35 24 32 42 0 3 3 3
##END=
