##TITLE=Propanoic acid, 3-chloro-, ethyl ester
##JCAMP-DX=4.24
##DATA TYPE=INFRARED SPECTRUM
##ORIGIN=Sadtler Research Labs Under US-EPA Contract
##OWNER=NIST Standard Reference Data Program
##CAS REGISTRY NO=623-71-2
##MOLFORM=C 5 H 9 Cl O 2
##XUNITS=1/CM
##YUNITS=ABSORBANCE
##XFACTOR=1.0
##YFACTOR=0.000127112
##DELTAX=4.0
##FIRSTX=450.0
##LASTX=3966.0
##FIRSTY=0.025677
##MAXX=3966
##MINX=450
##MAXY=1.27112
##MINY=0
##NPOINTS=880
##XYDATA=(X++(Y..Y))
450.0 202 125 163 142 126 122 76 63 82 91
490.0 35 19 51 49 53 9 8 9 5 15
530.0 0 15 6 21 17 41 21 36 38 75
570.0 117 151 171 182 157 162 167 163 144 120
610.0 124 114 97 96 112 121 135 175 193 241
650.0 265 318 342 425 503 718 968 1147 1238 1138
690.0 925 628 399 264 177 139 124 107 93 88
730.0 100 104 110 112 141 188 259 332 403 448
770.0 453 462 461 454 431 393 349 316 300 275
810.0 281 283 261 234 203 180 185 210 255 322
850.0 405 498 584 639 630 579 459 334 253 194
890.0 159 142 126 133 136 163 192 232 299 394
930.0 521 637 676 668 607 498 398 349 321 306
970.0 285 267 245 226 227 237 260 319 413 565
1010.0 808 1113 1407 1650 1813 1907 2004 2119 2212 2196
1050.0 2064 1803 1466 1198 970 783 655 587 569 629
1090.0 767 954 1110 1199 1226 1206 1203 1259 1357 1479
1130.0 1660 1957 2446 3187 4217 4966 5059 5035 4870 4817
1170.0 5074 5364 5522 5479 5371 5204 5137 5215 5447 5724
1210.0 5770 5814 5718 5400 5066 4865 4817 4814 4710 4496
1250.0 4173 3794 3487 3369 3302 3062 2755 2218 1706 1461
1290.0 1368 1389 1501 1639 1778 1839 1731 1593 1463 1413
1330.0 1536 1765 2060 2426 2870 3145 3008 2651 2180 2006
1370.0 2449 2889 2941 2686 1888 1226 978 878 815 773
1410.0 774 811 882 917 947 955 982 1035 1063 1070
1450.0 1057 1032 1034 990 967 883 780 681 541 435
1490.0 353 278 228 178 157 133 107 97 101 85
1530.0 83 73 75 76 67 63 69 83 79 76
1570.0 82 83 81 74 61 66 63 66 64 69
1610.0 69 71 85 75 88 75 88 84 75 73
1650.0 82 81 75 71 80 89 103 107 134 159
1690.0 174 202 254 301 360 426 535 677 841 1073
1730.0 1460 2023 2866 4012 5545 7150 8541 9649 10000 9398
1770.0 7804 5770 3808 2389 1482 1036 821 717 606 487
1810.0 382 313 258 225 201 178 157 139 123 107
1850.0 95 82 75 71 70 72 65 69 71 71
1890.0 70 70 64 62 58 55 52 49 51 46
1930.0 48 47 45 45 43 37 35 34 30 33
1970.0 31 31 31 36 38 43 47 48 51 49
2010.0 50 46 44 42 40 40 41 43 42 45
2050.0 41 43 45 44 43 43 41 43 41 42
2090.0 41 40 38 36 32 27 23 23 21 20
2130.0 18 17 15 14 11 11 9 7 8 6
2170.0 6 6 7 7 8 7 9 9 7 7
2210.0 10 9 8 12 11 11 12 14 12 12
2250.0 9 6 8 10 8 9 13 12 14 14
2290.0 16 13 19 18 22 20 19 16 15 21
2330.0 22 18 18 22 25 33 23 23 21 27
2370.0 29 31 32 27 23 20 18 18 17 18
2410.0 16 16 16 16 15 13 14 12 12 12
2450.0 14 13 15 15 13 14 14 11 13 9
2490.0 8 7 6 4 5 2 4 2 0 1
2530.0 4 2 3 3 3 3 3 6 2 4
2570.0 3 2 0 2 3 3 4 3 5 3
2610.0 4 4 6 7 7 7 5 6 3 4
2650.0 3 1 2 2 4 4 4 6 5 5
2690.0 4 6 8 7 8 10 12 13 18 20
2730.0 25 25 29 31 30 31 30 33 33 37
2770.0 37 41 47 49 48 46 46 47 50 50
2810.0 56 60 67 76 82 88 92 96 97 103
2850.0 112 121 141 164 196 224 268 326 397 447
2890.0 478 497 500 519 561 619 679 720 740 752
2930.0 770 825 940 1084 1180 1214 1194 1155 1183 1335
2970.0 1587 1887 2260 2694 2946 2943 2754 2331 1862 1549
3010.0 1309 1096 909 742 600 480 378 302 246 204
3050.0 171 147 125 108 94 87 80 71 68 63
3090.0 60 54 51 48 50 48 47 45 47 47
3130.0 48 46 42 39 37 38 35 38 35 33
3170.0 33 32 29 31 28 27 25 27 27 25
3210.0 26 24 21 21 24 19 18 17 15 11
3250.0 13 9 8 10 10 8 9 6 7 10
3290.0 11 6 9 6 8 7 8 10 10 9
3330.0 9 13 12 15 15 10 11 8 10 8
3370.0 13 11 11 11 12 12 10 13 10 11
3410.0 8 15 8 7 8 6 7 8 6 9
3450.0 13 12 18 17 19 23 36 40 46 59
3490.0 67 75 82 83 75 67 56 35 26 16
3530.0 14 6 6 1 3 6 6 11 20 45
3570.0 57 66 68 63 57 39 34 15 13 13
3610.0 9 1 11 7 6 13 11 11 14 15
3650.0 20 9 8 18 13 17 20 15 11 23
3690.0 20 16 16 10 5 13 19 9 3 8
3730.0 2 8 16 11 28 5 24 15 9 7
3770.0 14 15 10 22 12 6 14 14 8 15
3810.0 11 13 17 13 10 10 7 14 15 13
3850.0 16 17 15 15 15 13 15 17 8 10
3890.0 14 13 1 12 13 11 22 24 15 5
3930.0 9 16 11 3 10 19 19 7 10 7
##END=
