##TITLE=2-Furanmethanol, acetate
##JCAMP-DX=4.24
##DATA TYPE=INFRARED SPECTRUM
##ORIGIN=Sadtler Research Labs Under US-EPA Contract
##OWNER=NIST Standard Reference Data Program
##CAS REGISTRY NO=623-17-6
##MOLFORM=C 7 H 8 O 3
##XUNITS=1/CM
##YUNITS=ABSORBANCE
##XFACTOR=1.0
##YFACTOR=0.000161728
##DELTAX=4.0
##FIRSTX=450.0
##LASTX=3966.0
##FIRSTY=0.063883
##MAXX=3966
##MINX=450
##MAXY=1.61728
##MINY=0
##NPOINTS=880
##XYDATA=(X++(Y..Y))
450.0 395 190 229 282 328 317 277 230 227 114
490.0 148 96 69 57 43 72 37 44 38 48
530.0 29 10 29 88 54 54 62 24 60 53
570.0 85 58 94 118 176 294 356 415 464 474
610.0 445 424 369 296 228 176 134 85 102 102
650.0 102 101 94 73 55 2 33 22 26 47
690.0 57 74 90 109 146 189 294 441 686 1051
730.0 1602 1962 2046 1974 1572 1233 931 677 467 332
770.0 235 190 158 159 150 167 224 281 389 482
810.0 534 534 464 374 284 225 185 175 152 142
850.0 127 126 133 139 150 168 186 252 364 417
890.0 459 499 419 429 512 632 740 828 849 816
930.0 728 611 495 400 355 359 406 504 629 718
970.0 786 846 890 939 1004 1061 1131 1255 1465 1828
1010.0 2297 2573 2748 2857 2712 2496 2286 1927 1532 1224
1050.0 1032 910 828 779 736 711 698 706 684 647
1090.0 570 465 370 299 247 200 174 149 136 127
1130.0 141 170 247 401 679 980 1049 1024 835 525
1170.0 391 388 424 502 619 798 1072 1471 2077 2921
1210.0 3984 5160 6383 7665 8826 9891 10000 9742 8147 6011
1250.0 4047 2553 1630 1200 1016 903 834 780 759 738
1290.0 670 586 481 369 285 235 196 176 163 156
1330.0 154 161 179 214 296 449 724 1007 1178 1356
1370.0 1499 1555 1583 1518 1276 965 729 581 474 390
1410.0 319 280 264 265 287 323 379 431 481 499
1450.0 501 481 450 414 381 350 316 293 268 273
1490.0 295 344 403 440 447 427 366 298 251 211
1530.0 197 188 197 203 204 201 190 177 152 137
1570.0 121 115 121 121 136 152 176 199 216 215
1610.0 210 190 160 136 113 97 87 88 89 95
1650.0 95 105 109 114 124 130 137 140 147 155
1690.0 165 179 194 220 242 283 324 381 417 460
1730.0 507 588 747 1003 1463 2130 3177 4509 5873 6364
1770.0 6391 5463 4063 2925 2059 1465 1064 786 587 454
1810.0 363 293 240 200 170 154 144 133 123 109
1850.0 97 83 74 57 52 44 38 31 30 27
1890.0 27 26 23 23 23 24 24 26 24 24
1930.0 23 26 27 27 30 33 34 32 31 32
1970.0 34 32 32 30 32 33 34 34 33 32
2010.0 32 32 34 39 43 44 46 50 53 49
2050.0 48 50 51 50 51 54 52 51 47 44
2090.0 43 41 43 40 40 35 31 32 30 32
2130.0 30 27 27 27 28 26 28 25 26 21
2170.0 21 21 18 21 18 20 19 19 18 20
2210.0 23 24 23 23 22 23 24 24 24 22
2250.0 19 18 16 12 14 12 11 14 11 10
2290.0 12 12 15 16 18 21 19 15 18 14
2330.0 12 8 7 8 7 16 16 14 23 22
2370.0 18 23 21 18 22 19 18 21 21 22
2410.0 24 26 25 27 27 29 31 30 32 33
2450.0 32 33 30 31 31 28 27 28 23 20
2490.0 16 16 15 14 15 10 11 14 12 13
2530.0 13 11 14 12 13 14 15 18 14 15
2570.0 19 23 25 30 27 30 29 25 22 15
2610.0 14 10 12 5 9 2 4 5 4 8
2650.0 11 14 17 17 21 22 22 26 28 30
2690.0 26 23 23 19 15 19 22 23 26 30
2730.0 31 35 32 33 34 32 31 28 30 33
2770.0 32 35 31 30 35 35 38 40 44 43
2810.0 43 42 43 40 43 37 36 39 39 34
2850.0 42 51 56 61 70 74 84 88 88 96
2890.0 100 95 91 87 80 80 77 79 96 101
2930.0 120 153 176 232 292 349 401 432 457 463
2970.0 453 439 394 348 300 263 237 206 180 163
3010.0 146 133 123 119 116 108 107 104 102 100
3050.0 96 89 90 86 84 85 79 75 72 63
3090.0 57 54 55 51 54 58 68 86 111 122
3130.0 123 118 81 51 45 47 61 63 67 50
3170.0 33 23 15 14 4 11 8 11 5 14
3210.0 21 12 3 17 17 9 11 2 12 10
3250.0 5 6 11 19 19 12 11 16 13 11
3290.0 16 10 13 15 10 11 15 11 15 19
3330.0 20 15 16 18 21 17 16 14 7 12
3370.0 14 9 8 16 8 12 15 11 11 13
3410.0 11 9 9 14 10 13 17 21 19 22
3450.0 18 22 15 16 18 17 8 19 15 22
3490.0 35 33 32 44 53 66 75 64 62 40
3530.0 41 37 16 12 21 28 25 22 25 18
3570.0 39 25 27 33 25 20 35 40 35 20
3610.0 19 20 12 2 17 17 14 16 11 14
3650.0 20 25 29 23 17 24 21 20 13 20
3690.0 18 30 27 26 36 23 19 21 19 26
3730.0 32 29 28 22 20 36 35 29 22 31
3770.0 29 43 30 29 33 0 17 21 25 28
3810.0 30 43 28 18 31 14 25 20 15 11
3850.0 33 25 25 15 27 37 38 24 30 46
3890.0 6 16 25 11 25 22 25 23 27 13
3930.0 29 18 27 19 27 18 30 21 24 20
##END=
