##TITLE=3-Hexanol
##JCAMP-DX=4.24
##DATA TYPE=INFRARED SPECTRUM
##ORIGIN=Sadtler Research Labs Under US-EPA Contract
##OWNER=NIST Standard Reference Data Program
##CAS REGISTRY NO=623-37-0
##MOLFORM=C 6 H 14 O
##XUNITS=1/CM
##YUNITS=ABSORBANCE
##XFACTOR=1.0
##YFACTOR=0.000144852
##DELTAX=4.0
##FIRSTX=450.0
##LASTX=3966.0
##FIRSTY=0.016513
##MAXX=3966
##MINX=450
##MAXY=1.44852
##MINY=0
##NPOINTS=880
##XYDATA=(X++(Y..Y))
450.0 114 113 101 143 163 110 131 121 0 210
490.0 167 90 140 135 118 109 134 135 135 122
530.0 113 147 99 64 50 88 60 70 55 79
570.0 90 124 103 86 119 116 106 108 114 91
610.0 94 96 105 99 79 96 115 109 89 82
650.0 104 97 82 94 95 92 104 87 124 98
690.0 90 76 87 90 100 92 101 96 90 85
730.0 117 161 148 156 163 153 154 131 148 154
770.0 165 194 211 206 246 112 137 162 152 160
810.0 177 195 228 254 291 343 395 435 450 452
850.0 471 435 410 380 373 386 405 429 454 481
890.0 503 517 520 491 458 421 384 343 320 332
930.0 375 453 567 716 915 1126 1323 1487 1631 1722
970.0 1741 1751 1737 1738 1750 1786 1811 1790 1696 1570
1010.0 1433 1243 1070 938 877 871 876 899 914 919
1050.0 921 926 943 960 982 1003 1037 1068 1096 1125
1090.0 1144 1161 1166 1166 1177 1207 1258 1320 1382 1455
1130.0 1519 1556 1545 1474 1341 1181 1002 829 687 588
1170.0 531 500 490 503 526 569 634 709 787 868
1210.0 944 1007 1063 1093 1103 1093 1069 1030 990 947
1250.0 907 881 860 834 816 799 781 767 748 729
1290.0 704 678 654 625 600 574 548 535 521 509
1330.0 514 536 557 599 641 700 770 857 955 1076
1370.0 1201 1328 1416 1468 1472 1437 1331 1183 1013 855
1410.0 705 598 518 487 472 509 559 674 787 932
1450.0 1097 1277 1458 1540 1543 1508 1348 1144 908 696
1490.0 512 393 298 229 197 178 142 145 129 128
1530.0 109 116 112 113 105 100 99 98 105 83
1570.0 82 84 83 72 75 70 65 68 62 64
1610.0 60 64 56 64 50 57 56 58 48 55
1650.0 46 73 47 43 44 44 46 45 39 51
1690.0 37 40 48 46 37 38 44 44 48 46
1730.0 49 60 58 48 52 50 48 45 43 37
1770.0 32 32 24 24 21 26 24 24 26 24
1810.0 20 23 22 18 20 18 19 18 21 22
1850.0 20 20 18 17 14 17 16 16 15 14
1890.0 15 17 17 19 19 18 18 22 25 21
1930.0 20 20 20 22 20 18 13 13 20 17
1970.0 17 16 16 16 19 12 17 13 14 12
2010.0 10 7 8 12 7 8 12 9 11 14
2050.0 9 6 5 4 6 4 7 9 10 10
2090.0 7 7 8 11 8 10 13 8 6 7
2130.0 10 7 12 9 13 12 12 13 13 13
2170.0 18 19 16 16 16 14 18 16 17 17
2210.0 19 18 17 15 15 13 12 13 13 16
2250.0 15 14 14 17 16 20 19 17 19 18
2290.0 17 15 18 21 18 19 22 23 28 27
2330.0 32 39 48 42 47 31 30 36 42 59
2370.0 71 67 62 57 49 41 42 43 42 44
2410.0 44 45 48 43 43 41 34 35 33 32
2450.0 30 29 33 29 28 30 30 29 32 30
2490.0 30 32 29 31 34 34 33 32 34 30
2530.0 33 33 39 35 35 37 38 45 44 47
2570.0 49 53 60 63 69 72 77 86 94 94
2610.0 98 97 101 104 106 107 103 113 118 116
2650.0 118 120 129 128 131 140 145 141 145 141
2690.0 144 147 150 155 161 164 167 175 176 185
2730.0 198 215 228 243 255 255 256 253 251 245
2770.0 252 259 268 282 292 305 319 334 354 375
2810.0 403 437 473 532 598 698 827 992 1208 1468
2850.0 1769 2083 2437 2779 3146 3524 3989 4548 4872 4921
2890.0 4796 4570 4214 3921 3881 4122 4548 5134 5815 6585
2930.0 7335 7900 8339 8320 7988 7643 7480 7576 8211 9234
2970.0 10000 9686 8791 7291 5321 3646 2469 1708 1235 927
3010.0 738 629 564 510 475 457 433 411 389 373
3050.0 349 330 313 301 284 271 265 259 251 234
3090.0 213 215 206 195 190 181 178 167 163 168
3130.0 157 160 152 155 154 154 144 151 159 150
3170.0 150 146 137 137 140 133 131 122 113 105
3210.0 95 104 94 90 76 74 66 66 53 64
3250.0 57 55 52 53 57 56 49 41 34 32
3290.0 39 29 30 31 32 32 24 28 24 31
3330.0 27 18 32 34 23 27 15 22 16 16
3370.0 13 17 25 29 22 29 42 33 40 34
3410.0 36 49 45 47 50 48 32 39 54 54
3450.0 38 23 39 32 26 42 37 41 42 33
3490.0 37 29 36 42 27 32 35 33 28 21
3530.0 22 34 26 37 32 30 35 40 41 40
3570.0 49 36 36 40 42 55 36 57 67 76
3610.0 95 109 149 185 203 267 313 370 468 573
3650.0 694 756 787 780 728 613 468 354 252 206
3690.0 161 117 108 89 96 84 98 76 65 80
3730.0 94 78 92 86 115 81 102 84 87 94
3770.0 105 65 74 103 91 90 88 94 115 109
3810.0 86 74 76 108 115 119 111 110 112 113
3850.0 103 109 118 99 106 102 111 114 112 103
3890.0 117 112 96 115 111 88 92 113 85 99
3930.0 98 124 108 64 114 99 99 91 89 92
##END=
