##TITLE=Benzonitrile, 4-bromo-
##JCAMP-DX=4.24
##DATA TYPE=INFRARED SPECTRUM
##ORIGIN=Sadtler Research Labs Under US-EPA Contract
##OWNER=NIST Standard Reference Data Program
##CAS REGISTRY NO=623-00-7
##MOLFORM=C 7 H 4 Br N
##XUNITS=1/CM
##YUNITS=ABSORBANCE
##XFACTOR=1.0
##YFACTOR=0.000042700
##DELTAX=4.0
##FIRSTX=450.0
##LASTX=3966.0
##FIRSTY=0.022076
##MAXX=3966
##MINX=450
##MAXY=0.427
##MINY=0
##NPOINTS=880
##XYDATA=(X++(Y..Y))
450.0 517 643 666 785 549 7 412 361 598 540
490.0 778 681 662 1189 768 960 1140 1297 1701 2422
530.0 3176 4429 5342 5089 3650 2654 2119 1123 736 962
570.0 675 497 414 437 263 701 571 506 373 382
610.0 472 386 258 625 717 654 581 675 335 287
650.0 363 474 262 408 475 423 432 237 577 381
690.0 422 484 376 450 302 358 311 332 335 333
730.0 235 385 432 706 584 756 911 1089 1555 1901
770.0 2153 1978 1355 889 770 766 912 1056 1823 2391
810.0 3378 4550 4806 6092 7619 6583 5494 5198 4188 2900
850.0 1972 1177 672 516 456 502 438 444 444 433
890.0 399 367 273 315 353 273 307 335 414 387
930.0 291 260 346 318 278 335 263 306 332 317
970.0 317 394 383 415 382 356 378 514 832 2101
1010.0 4695 6314 6345 4999 2237 505 404 301 357 624
1050.0 624 1016 1710 3248 5634 7334 7885 6741 4254 2648
1090.0 2001 1530 1072 848 592 701 617 490 448 445
1130.0 357 331 264 289 264 337 377 445 625 720
1170.0 809 829 732 653 564 444 312 263 225 240
1210.0 264 364 478 572 658 680 705 658 756 840
1250.0 879 949 909 865 844 792 661 611 562 467
1290.0 466 514 583 644 669 595 577 498 465 390
1330.0 324 291 300 312 316 367 463 604 781 746
1370.0 701 664 628 652 802 929 1145 1225 1083 1123
1410.0 1036 764 656 422 374 345 328 317 304 408
1450.0 508 684 847 1251 1818 2937 4454 6459 8721 10000
1490.0 9091 6968 3972 2096 1773 1799 1637 1396 899 608
1530.0 496 375 383 289 327 307 272 333 252 391
1570.0 487 761 1364 2527 3895 4836 4932 3611 2178 1219
1610.0 984 930 645 459 339 223 279 272 290 360
1650.0 257 330 297 313 241 168 205 163 236 166
1690.0 185 159 183 148 189 185 216 260 219 260
1730.0 255 294 297 321 493 606 816 1222 1433 1477
1770.0 1334 889 687 584 451 342 290 184 223 161
1810.0 157 182 141 173 149 149 143 123 166 150
1850.0 148 123 124 142 142 173 160 190 224 301
1890.0 364 447 491 532 534 536 491 432 343 254
1930.0 192 161 126 113 115 91 96 87 79 85
1970.0 77 73 67 67 64 74 67 58 56 66
2010.0 60 67 72 70 73 69 76 66 67 58
2050.0 49 56 46 40 56 50 39 36 43 47
2090.0 47 47 46 47 49 45 39 48 24 28
2130.0 34 36 32 29 36 33 24 24 16 25
2170.0 35 30 31 41 40 41 37 39 36 53
2210.0 87 113 228 461 851 1346 1662 1676 1323 763
2250.0 328 162 122 104 91 94 97 111 115 135
2290.0 137 151 160 157 165 168 128 140 114 107
2330.0 111 72 106 87 161 107 196 158 196 198
2370.0 153 158 150 132 114 95 73 69 62 66
2410.0 70 73 71 67 60 61 59 60 58 55
2450.0 58 61 59 67 70 74 81 81 84 91
2490.0 107 123 144 157 179 174 169 163 156 151
2530.0 169 177 178 173 147 129 121 113 111 106
2570.0 104 108 116 127 126 112 104 134 133 124
2610.0 117 107 93 80 83 86 83 88 93 97
2650.0 99 100 116 115 110 117 114 112 105 102
2690.0 83 85 105 101 96 96 103 106 105 104
2730.0 116 124 128 140 142 170 188 214 242 274
2770.0 294 314 298 297 294 292 281 295 320 339
2810.0 369 357 323 298 278 283 284 280 273 286
2850.0 285 287 286 305 331 358 370 390 401 400
2890.0 395 401 392 389 380 358 355 344 332 309
2930.0 293 290 264 242 226 208 176 174 181 173
2970.0 179 198 202 210 202 224 212 213 230 229
3010.0 220 201 200 190 192 199 198 209 213 206
3050.0 195 175 176 182 190 210 225 262 285 298
3090.0 322 320 329 330 260 218 174 142 117 89
3130.0 99 64 72 69 75 83 69 63 87 84
3170.0 94 101 101 103 107 99 105 86 76 94
3210.0 90 90 75 85 86 89 90 84 99 90
3250.0 90 86 92 93 106 76 87 104 110 78
3290.0 101 111 113 128 101 119 90 111 109 134
3330.0 125 133 133 132 149 165 161 173 152 170
3370.0 186 195 202 220 238 244 263 267 334 365
3410.0 377 413 437 433 413 364 303 243 225 160
3450.0 149 137 119 148 143 110 122 122 129 118
3490.0 135 119 117 115 136 117 135 118 118 122
3530.0 115 141 129 120 154 147 137 159 149 168
3570.0 200 277 402 534 535 488 294 210 139 181
3610.0 139 143 143 137 184 67 159 137 171 141
3650.0 175 39 175 106 185 114 94 140 128 169
3690.0 73 146 120 181 159 166 161 188 167 232
3730.0 170 148 163 96 162 0 175 86 176 137
3770.0 137 155 135 167 179 145 153 68 178 89
3810.0 246 87 187 72 217 161 173 128 124 143
3850.0 147 83 62 191 130 99 144 119 139 141
3890.0 148 203 117 200 176 137 157 149 169 185
3930.0 167 134 145 116 99 193 185 194 199 197
##END=
