##TITLE=Ethyl propiolate
##JCAMP-DX=4.24
##DATA TYPE=INFRARED SPECTRUM
##ORIGIN=Sadtler Research Labs Under US-EPA Contract
##OWNER=NIST Standard Reference Data Program
##CAS REGISTRY NO=623-47-2
##MOLFORM=C 5 H 6 O 2
##XUNITS=1/CM
##YUNITS=ABSORBANCE
##XFACTOR=1.0
##YFACTOR=0.000064249
##DELTAX=4.0
##FIRSTX=450.0
##LASTX=3966.0
##FIRSTY=0.000514
##MAXX=3966
##MINX=450
##MAXY=0.64249
##MINY=0
##NPOINTS=880
##XYDATA=(X++(Y..Y))
450.0 8 39 30 29 28 26 22 16 12 2
490.0 15 32 26 24 32 60 35 52 50 45
530.0 63 61 66 54 42 57 40 47 46 45
570.0 38 55 66 69 100 103 90 87 95 87
610.0 79 54 76 107 155 227 343 447 511 563
650.0 800 920 679 522 433 445 476 526 503 498
690.0 377 248 165 129 93 66 57 48 70 77
730.0 108 153 214 268 331 390 481 438 376 342
770.0 293 244 190 148 109 106 72 60 52 45
810.0 37 33 25 27 34 35 43 60 75 107
850.0 130 154 163 169 166 154 118 86 62 39
890.0 33 39 42 43 48 56 67 58 51 45
930.0 37 37 15 14 7 0 1 1 1 5
970.0 7 12 17 31 26 40 57 73 103 140
1010.0 204 305 438 576 672 709 705 679 561 380
1050.0 262 194 156 133 112 99 99 113 132 184
1090.0 240 273 298 330 337 329 304 275 256 242
1130.0 222 202 192 190 190 189 205 229 262 318
1170.0 383 452 540 647 768 926 1132 1419 1865 2540
1210.0 3632 5249 7173 9060 10000 9375 8777 7562 5481 3691
1250.0 2322 1360 830 579 476 428 427 435 447 440
1290.0 432 436 438 415 394 359 333 282 248 215
1330.0 184 161 120 112 127 135 165 213 276 323
1370.0 345 342 363 321 249 216 190 155 165 162
1410.0 136 135 95 114 110 123 113 140 156 166
1450.0 181 197 186 213 244 247 223 227 229 188
1490.0 156 155 128 109 82 51 64 51 33 46
1530.0 37 46 27 5 11 36 28 6 27 38
1570.0 38 32 46 38 41 41 46 40 46 40
1610.0 40 44 36 53 31 55 33 31 43 37
1650.0 13 29 34 43 47 54 46 79 70 90
1690.0 128 159 172 240 358 538 788 1148 1689 2407
1730.0 3233 3890 3762 3307 4159 3761 2758 1903 1304 856
1770.0 496 280 181 122 97 79 73 63 55 64
1810.0 54 51 51 44 41 30 28 35 24 19
1850.0 28 36 34 34 27 19 33 35 37 40
1890.0 31 30 32 33 24 23 22 20 16 24
1930.0 17 17 18 12 13 17 17 17 17 13
1970.0 15 17 16 16 16 9 20 19 23 23
2010.0 23 20 19 20 22 22 23 22 19 24
2050.0 24 28 30 33 33 42 42 58 66 81
2090.0 104 130 173 246 337 447 561 651 724 759
2130.0 752 683 571 471 377 280 182 124 83 66
2170.0 47 33 17 17 7 7 7 7 7 7
2210.0 7 5 5 6 6 6 4 5 12 5
2250.0 6 4 4 4 4 3 11 6 10 8
2290.0 9 8 0 6 6 4 6 4 4 3
2330.0 12 2 12 18 10 0 3 6 10 0
2370.0 3 7 0 5 11 4 4 5 13 11
2410.0 11 20 20 20 20 20 25 24 27 27
2450.0 27 28 28 27 21 21 21 12 13 13
2490.0 9 6 6 13 5 5 5 5 5 13
2530.0 6 8 10 6 6 5 7 7 7 7
2570.0 6 6 6 6 6 14 15 15 15 15
2610.0 15 15 15 8 7 7 15 14 11 15
2650.0 15 15 15 14 14 14 14 14 9 7
2690.0 8 16 16 16 16 15 15 15 15 16
2730.0 15 15 15 25 16 16 16 20 16 25
2770.0 25 25 25 25 24 24 26 18 24 24
2810.0 24 24 24 24 33 32 33 34 33 33
2850.0 34 40 40 48 52 60 67 83 107 115
2890.0 115 131 146 146 147 153 162 162 161 175
2930.0 181 205 242 275 298 314 313 314 305 305
2970.0 331 385 471 578 650 662 660 699 638 498
3010.0 399 330 283 221 175 131 99 81 66 59
3050.0 49 50 43 42 35 35 35 26 31 22
3090.0 37 27 27 28 35 28 28 28 22 20
3130.0 20 17 17 20 21 11 21 14 21 22
3170.0 20 21 21 13 14 17 21 21 16 13
3210.0 22 14 21 14 15 14 19 14 14 13
3250.0 13 15 15 15 21 22 30 30 45 45
3290.0 70 109 173 216 239 307 493 727 775 732
3330.0 702 778 563 240 99 52 34 21 17 15
3370.0 14 7 15 14 23 16 16 16 15 15
3410.0 15 10 16 16 16 23 15 22 31 40
3450.0 53 50 44 46 50 48 46 26 24 15
3490.0 16 7 8 7 8 5 13 17 2 8
3530.0 14 16 16 16 7 8 8 8 9 8
3570.0 3 8 18 8 11 15 17 9 2 10
3610.0 9 10 4 19 5 16 10 13 13 4
3650.0 18 12 12 14 12 8 6 12 13 18
3690.0 19 20 15 5 21 20 19 21 21 20
3730.0 20 24 19 20 19 18 19 18 19 19
3770.0 19 20 18 18 17 17 18 17 21 22
3810.0 15 14 12 13 12 12 14 18 21 21
3850.0 18 20 22 23 21 13 19 20 25 26
3890.0 19 16 19 21 20 22 21 19 25 25
3930.0 24 22 22 21 22 24 34 32 31 36
##END=
