##TITLE=Butanoic acid, methyl ester
##JCAMP-DX=4.24
##DATA TYPE=INFRARED SPECTRUM
##ORIGIN=Sadtler Research Labs Under US-EPA Contract
##OWNER=NIST Standard Reference Data Program
##CAS REGISTRY NO=623-42-7
##MOLFORM=C 5 H 10 O 2
##XUNITS=1/CM
##YUNITS=ABSORBANCE
##XFACTOR=1.0
##YFACTOR=0.000057559
##DELTAX=4.0
##FIRSTX=450.0
##LASTX=3966.0
##FIRSTY=0.003281
##MAXX=3966
##MINX=450
##MAXY=0.57559
##MINY=0
##NPOINTS=880
##XYDATA=(X++(Y..Y))
450.0 57 61 65 65 60 56 55 29 41 26
490.0 7 28 27 46 6 37 52 39 2 44
530.0 38 40 0 49 57 43 53 35 68 88
570.0 77 88 128 116 133 149 148 153 156 153
610.0 142 146 124 119 127 117 132 108 100 83
650.0 60 38 53 33 8 40 29 38 53 36
690.0 57 67 72 65 66 75 91 92 84 83
730.0 93 95 98 117 116 136 149 151 167 176
770.0 200 227 271 315 339 359 361 358 325 302
810.0 289 280 295 320 354 372 383 400 409 421
850.0 405 429 431 433 457 446 442 425 425 406
890.0 370 324 277 236 207 176 142 106 80 53
930.0 34 34 25 16 25 15 33 25 34 48
970.0 64 97 153 250 396 613 876 1079 1288 1391
1010.0 1399 1235 1010 772 555 468 475 552 657 755
1050.0 817 869 909 928 922 958 1017 1122 1292 1543
1090.0 1839 2116 2338 2463 2416 2233 1974 1719 1469 1267
1130.0 1141 1110 1135 1224 1401 1664 2107 2796 3820 5169
1170.0 6567 7670 8431 8918 8913 8434 7736 7156 6695 6205
1210.0 5461 4643 3978 3536 3279 3154 3144 3192 3289 3444
1250.0 3635 3789 3840 3773 3561 3258 2853 2483 2245 2116
1290.0 2069 2097 2144 2140 2036 1866 1632 1357 1166 1065
1330.0 1045 1099 1207 1353 1568 1798 1994 2105 2110 2011
1370.0 1848 1624 1372 1137 966 810 719 624 546 515
1410.0 518 561 671 779 1046 1481 1930 2191 2293 2414
1450.0 2138 1699 1459 1365 1288 1179 1040 891 763 629
1490.0 519 434 374 327 316 245 236 215 207 180
1530.0 173 183 181 175 155 174 168 185 139 147
1570.0 149 142 145 142 136 136 127 117 117 110
1610.0 113 107 107 105 111 100 106 108 99 116
1650.0 112 119 116 117 116 131 126 133 152 172
1690.0 181 217 263 326 400 493 621 814 1079 1445
1730.0 1965 2683 3683 4918 6328 7800 9089 9830 10000 9791
1770.0 9179 7779 6037 4337 2967 1943 1225 797 525 357
1810.0 259 182 142 114 97 81 80 67 65 58
1850.0 58 52 50 50 58 57 43 50 57 50
1890.0 55 49 50 50 51 50 50 51 50 50
1930.0 52 56 57 54 54 52 48 50 50 59
1970.0 58 68 77 78 84 93 92 104 98 101
2010.0 95 93 93 92 94 93 101 103 110 119
2050.0 124 117 123 118 113 102 101 94 93 85
2090.0 82 83 74 69 60 52 43 35 36 34
2130.0 27 25 26 25 23 27 17 18 16 16
2170.0 18 18 18 18 16 16 17 16 14 8
2210.0 8 7 3 5 7 7 8 9 8 9
2250.0 16 16 14 22 15 16 17 23 16 13
2290.0 15 14 22 21 19 21 21 17 17 19
2330.0 20 16 17 31 33 26 24 27 43 22
2370.0 25 31 28 31 24 25 27 26 19 18
2410.0 17 27 27 27 20 22 27 27 18 26
2450.0 18 18 19 18 18 11 16 13 18 18
2490.0 18 18 19 19 18 11 19 19 10 19
2530.0 18 25 20 14 19 16 19 12 11 10
2570.0 19 20 20 20 22 27 27 27 27 37
2610.0 36 36 35 37 26 28 45 37 40 36
2650.0 41 45 41 37 45 45 44 44 45 45
2690.0 43 37 37 37 37 37 27 30 37 36
2730.0 45 54 55 64 71 72 75 80 71 71
2770.0 71 71 71 80 89 97 98 99 108 117
2810.0 122 142 152 181 203 238 290 378 474 561
2850.0 620 645 684 695 692 770 938 1185 1424 1537
2890.0 1610 1627 1572 1476 1430 1456 1517 1606 1716 1846
2930.0 2046 2296 2634 2996 3373 3879 4489 4822 4990 5172
2970.0 5420 5159 4644 4235 3802 3231 2680 2206 1863 1574
3010.0 1349 1183 1066 962 878 788 715 645 559 478
3050.0 408 362 318 292 267 250 235 220 222 209
3090.0 199 194 186 182 176 166 151 141 131 123
3130.0 123 118 103 95 91 85 83 83 75 67
3170.0 57 57 57 57 53 53 59 57 52 50
3210.0 50 50 32 41 23 16 26 22 23 19
3250.0 16 15 31 9 15 17 16 24 27 21
3290.0 26 17 34 24 7 30 22 17 15 8
3330.0 0 18 17 6 18 8 3 6 10 10
3370.0 18 7 0 24 8 9 16 14 9 9
3410.0 9 9 14 24 7 18 16 17 7 25
3450.0 18 7 22 33 37 28 34 68 74 67
3490.0 94 103 111 116 131 113 104 84 75 67
3530.0 50 35 26 27 16 15 18 17 11 7
3570.0 20 24 10 32 23 22 18 24 27 32
3610.0 23 26 26 44 28 40 26 28 17 33
3650.0 20 24 25 27 29 31 39 37 29 47
3690.0 40 45 44 26 34 50 39 34 31 49
3730.0 44 39 48 51 54 40 46 27 44 36
3770.0 43 44 39 44 36 41 42 40 42 44
3810.0 44 45 46 47 48 47 42 40 45 32
3850.0 53 45 46 39 33 41 31 35 36 39
3890.0 34 39 40 41 34 32 37 41 40 39
3930.0 38 43 43 50 56 53 49 48 49 47
##END=
