##TITLE=Benzene, 1-chloro-4-methoxy-
##JCAMP-DX=4.24
##DATA TYPE=INFRARED SPECTRUM
##ORIGIN=Sadtler Research Labs Under US-EPA Contract
##OWNER=NIST Standard Reference Data Program
##CAS REGISTRY NO=623-12-1
##MOLFORM=C 7 H 7 Cl O
##XUNITS=1/CM
##YUNITS=ABSORBANCE
##XFACTOR=1.0
##YFACTOR=0.000057422
##DELTAX=4.0
##FIRSTX=450.0
##LASTX=3966.0
##FIRSTY=0.002010
##MAXX=3966
##MINX=450
##MAXY=0.57422
##MINY=0
##NPOINTS=880
##XYDATA=(X++(Y..Y))
450.0 35 32 14 9 72 124 158 203 266 272
490.0 355 398 443 479 496 423 388 332 257 254
530.0 195 146 186 107 136 109 157 115 116 128
570.0 94 112 89 110 110 153 120 96 201 222
610.0 274 381 639 1072 1320 1687 1989 1751 1522 1156
650.0 581 262 149 128 126 126 127 99 160 136
690.0 169 158 164 169 158 123 124 158 150 141
730.0 161 127 181 75 132 110 98 137 128 119
770.0 148 165 174 202 237 302 311 426 557 722
810.0 1040 1339 1643 1952 2446 1991 1715 1370 1006 684
850.0 474 291 209 198 168 154 135 150 142 107
890.0 142 114 115 117 128 114 136 104 126 124
930.0 115 114 114 122 140 123 140 122 138 168
970.0 168 208 214 246 300 326 405 499 704 860
1010.0 834 851 779 774 1016 1357 1775 2169 2444 2346
1050.0 2006 1541 897 535 380 324 319 366 554 1010
1090.0 1792 2377 2478 2329 1368 698 480 414 362 301
1130.0 265 232 216 218 214 256 335 542 1006 1444
1170.0 1494 1626 1443 1057 935 802 536 399 396 378
1210.0 396 476 579 813 1250 2110 3622 5814 7471 7710
1250.0 7055 4714 2843 2185 2041 2210 2580 3113 3568 3613
1290.0 3211 2590 1749 1128 788 584 413 321 285 258
1330.0 240 213 182 166 168 159 149 157 138 146
1370.0 146 137 137 136 134 142 153 157 184 207
1410.0 252 309 355 417 462 481 526 655 912 984
1450.0 1051 1076 1052 1353 1612 1497 1502 1568 2184 4164
1490.0 7575 10000 9711 8096 4323 1601 822 565 403 342
1530.0 303 225 188 137 156 154 145 123 139 217
1570.0 281 447 668 904 1129 1292 1298 1280 1185 965
1610.0 734 543 400 359 316 287 229 160 168 141
1650.0 124 72 119 105 98 73 76 71 77 48
1690.0 71 71 44 36 62 81 84 68 95 103
1730.0 104 88 107 120 120 87 86 67 57 66
1770.0 56 47 64 58 57 68 63 75 82 82
1810.0 82 82 74 74 66 71 90 99 99 104
1850.0 121 130 149 175 191 183 192 190 171 153
1890.0 135 112 103 97 88 87 87 85 86 85
1930.0 83 77 77 62 54 51 48 59 58 67
1970.0 58 57 58 47 47 44 50 48 37 47
2010.0 47 54 63 73 82 99 125 143 149 150
2050.0 134 126 123 129 137 154 156 165 156 154
2090.0 118 99 75 60 45 41 36 40 31 34
2130.0 33 33 24 23 23 23 23 23 23 23
2170.0 23 21 21 22 22 21 29 22 29 29
2210.0 27 34 33 36 36 36 36 28 35 28
2250.0 28 33 26 35 35 40 48 57 68 77
2290.0 86 78 59 51 31 25 15 9 10 9
2330.0 5 4 4 4 4 4 4 4 4 4
2370.0 4 8 19 28 34 34 44 44 44 44
2410.0 44 44 42 36 27 27 27 21 22 19
2450.0 29 29 29 28 28 28 38 38 41 42
2490.0 38 37 37 38 47 47 57 66 75 82
2530.0 82 89 84 85 66 58 50 39 40 40
2570.0 41 41 41 41 41 41 32 32 32 32
2610.0 35 33 24 24 33 26 27 33 35 35
2650.0 25 25 26 26 26 26 27 26 26 26
2690.0 36 36 27 31 30 31 38 27 35 36
2730.0 37 37 29 37 38 27 38 38 43 47
2770.0 54 56 57 57 65 57 66 73 83 95
2810.0 113 121 155 191 232 292 406 592 778 855
2850.0 865 741 534 381 307 264 243 238 230 249
2890.0 267 293 338 412 505 618 701 750 705 663
2930.0 648 671 791 959 1131 1210 1245 1192 1087 902
2970.0 732 613 507 425 367 349 362 439 608 906
3010.0 1105 1071 952 662 363 260 240 226 243 261
3050.0 280 272 254 236 218 203 202 217 230 243
3090.0 262 264 281 290 273 256 210 158 123 86
3130.0 71 55 51 46 41 40 43 42 42 42
3170.0 42 42 35 42 42 42 37 44 34 34
3210.0 27 27 26 19 26 25 20 33 27 22
3250.0 29 20 9 19 20 20 29 28 18 21
3290.0 31 13 24 28 30 19 23 22 29 29
3330.0 29 30 28 32 31 31 30 30 25 30
3370.0 29 14 32 23 32 15 23 24 17 22
3410.0 29 26 21 24 24 25 25 24 33 14
3450.0 29 31 25 20 22 29 28 26 18 27
3490.0 27 17 19 18 19 12 22 27 22 20
3530.0 16 19 20 27 19 29 19 20 23 17
3570.0 10 23 26 18 21 12 21 29 29 21
3610.0 13 20 24 17 18 4 13 23 22 24
3650.0 6 15 15 23 24 11 17 4 24 34
3690.0 11 20 25 16 25 16 8 25 24 23
3730.0 8 9 4 22 4 4 16 26 27 26
3770.0 26 38 42 29 36 25 37 20 12 21
3810.0 18 20 10 29 37 38 21 24 29 44
3850.0 32 16 17 28 29 29 30 45 47 52
3890.0 50 47 44 30 29 33 30 23 22 31
3930.0 24 34 40 40 51 55 0 4 4 4
##END=
