##TITLE=3-Buten-2-one, 4-(2-furanyl)-
##JCAMP-DX=4.24
##DATA TYPE=INFRARED SPECTRUM
##ORIGIN=Sadtler Research Labs Under US-EPA Contract
##OWNER=NIST Standard Reference Data Program
##CAS REGISTRY NO=623-15-4
##MOLFORM=C 8 H 8 O 2
##XUNITS=1/CM
##YUNITS=ABSORBANCE
##XFACTOR=1.0
##YFACTOR=0.000098721
##DELTAX=4.0
##FIRSTX=450.0
##LASTX=3966.0
##FIRSTY=0.008984
##MAXX=3966
##MINX=450
##MAXY=0.98721
##MINY=0
##NPOINTS=880
##XYDATA=(X++(Y..Y))
450.0 91 345 433 333 407 529 528 433 242 317
490.0 281 38 281 145 182 344 300 180 23 91
530.0 34 51 138 196 355 577 688 890 956 930
570.0 1194 1777 2571 2481 2177 1439 937 415 383 378
610.0 277 214 117 68 75 92 80 149 161 188
650.0 72 99 80 85 167 176 162 114 96 172
690.0 258 213 143 75 119 197 259 642 946 1675
730.0 2338 3014 4454 5017 3384 2838 2050 1257 653 371
770.0 335 292 308 294 422 631 767 905 959 829
810.0 715 627 449 352 210 221 193 216 89 103
850.0 152 157 217 127 219 231 295 895 1405 1673
890.0 1597 1340 731 602 467 263 455 550 874 958
930.0 1002 1114 1207 1272 1263 1437 1766 2373 2952 3334
970.0 3442 3119 2610 2035 1604 1232 1038 1061 1136 1646
1010.0 2672 3499 3314 3002 1824 886 687 512 406 373
1050.0 311 314 273 269 292 298 358 416 440 477
1090.0 441 336 275 216 248 230 270 329 335 378
1130.0 435 513 573 734 1073 1671 2338 2867 3370 3598
1170.0 3202 2821 2310 1612 1296 1293 1625 2548 3518 3381
1210.0 2912 1773 734 597 693 820 1368 2317 4058 5470
1250.0 5616 5106 3598 2767 2878 2972 3367 3477 3039 2882
1290.0 2306 1946 2202 2400 2338 1928 1268 778 481 465
1330.0 455 471 581 688 921 1324 2014 2733 3054 3149
1370.0 2649 2029 1790 1534 1436 1353 1185 1003 740 584
1410.0 490 458 535 549 590 599 611 621 521 500
1450.0 475 463 524 582 715 1115 1459 1874 1955 1744
1490.0 1547 1120 763 550 459 479 398 392 448 465
1530.0 575 652 732 862 1023 1465 2158 2548 2347 1960
1570.0 883 486 655 487 793 1048 1403 2048 2543 3334
1610.0 4371 6036 7783 10000 9510 8827 6607 4129 3260 2183
1650.0 1586 1236 1051 1068 1211 1374 1678 2506 3750 5416
1690.0 6594 6737 6444 5399 4823 4497 4081 3581 2868 2156
1730.0 1589 1157 736 566 532 451 447 407 377 356
1770.0 343 340 297 303 304 284 319 289 283 254
1810.0 196 196 137 113 110 89 83 65 65 88
1850.0 66 64 61 58 68 53 60 40 45 60
1890.0 49 61 53 44 49 48 50 64 61 72
1930.0 62 81 77 86 108 79 92 81 75 77
1970.0 52 52 47 46 49 52 64 53 54 54
2010.0 46 60 59 55 61 55 60 61 61 62
2050.0 56 51 45 42 45 43 49 55 57 75
2090.0 96 118 119 107 83 48 36 32 30 29
2130.0 19 26 22 22 22 18 32 37 37 48
2170.0 49 55 62 52 58 58 58 55 53 48
2210.0 36 32 30 33 42 38 38 43 34 38
2250.0 29 35 35 27 34 26 25 23 16 16
2290.0 15 11 14 5 8 6 1 7 2 1
2330.0 10 22 18 18 38 7 5 0 19 47
2370.0 33 28 24 18 18 14 14 25 24 32
2410.0 30 23 19 17 22 19 20 22 28 29
2450.0 32 37 43 46 53 52 40 40 35 33
2490.0 42 44 49 50 54 52 53 54 52 49
2530.0 36 31 41 39 47 52 57 65 69 76
2570.0 71 57 50 33 27 17 12 17 17 8
2610.0 23 17 23 30 34 49 57 72 69 69
2650.0 61 48 54 52 40 43 31 30 29 27
2690.0 28 29 34 36 43 44 40 37 33 36
2730.0 40 40 47 55 58 59 57 57 53 52
2770.0 54 64 77 80 81 84 74 74 69 72
2810.0 74 71 76 87 81 90 95 108 116 128
2850.0 132 140 152 161 178 184 181 178 177 176
2890.0 180 178 184 186 200 215 246 275 305 328
2930.0 346 345 347 330 299 292 296 310 337 364
2970.0 373 370 369 345 317 295 282 296 328 403
3010.0 543 623 628 558 430 334 315 309 323 353
3050.0 389 417 426 418 376 321 266 234 213 197
3090.0 187 189 178 184 181 179 199 214 275 353
3130.0 354 318 249 131 96 98 86 87 84 77
3170.0 65 48 49 49 47 46 37 48 38 37
3210.0 41 35 33 32 38 50 41 35 40 49
3250.0 42 35 34 38 37 47 39 40 47 49
3290.0 46 46 47 49 50 51 60 52 69 69
3330.0 67 69 65 77 71 83 95 107 127 125
3370.0 126 118 83 89 86 102 103 127 136 140
3410.0 139 114 92 75 62 58 44 27 36 44
3450.0 40 43 39 37 40 36 28 37 33 28
3490.0 45 34 29 35 32 31 46 28 40 37
3530.0 24 27 22 33 38 30 52 44 61 52
3570.0 70 48 45 53 28 64 35 35 20 32
3610.0 23 24 29 11 18 28 50 34 22 18
3650.0 55 18 40 3 22 16 36 35 31 28
3690.0 3 45 15 37 26 35 47 33 34 41
3730.0 40 42 45 16 42 23 64 20 44 36
3770.0 30 38 34 38 32 24 35 13 45 34
3810.0 41 29 26 29 41 20 24 44 35 36
3850.0 19 56 62 45 38 59 50 48 37 50
3890.0 18 54 43 54 67 47 25 62 44 34
3930.0 39 40 75 57 65 14 48 62 41 64
##END=
