##TITLE=Pyridine, 2,6-dimethoxy-
##JCAMP-DX=4.24
##DATA TYPE=INFRARED SPECTRUM
##ORIGIN=Sadtler Research Labs Under US-EPA Contract
##OWNER=NIST Standard Reference Data Program
##CAS REGISTRY NO=6231-18-1
##MOLFORM=C 7 H 9 N O 2
##XUNITS=1/CM
##YUNITS=ABSORBANCE
##XFACTOR=1.0
##YFACTOR=0.000180038
##DELTAX=4.0
##FIRSTX=450.0
##LASTX=3966.0
##FIRSTY=0.038528
##MAXX=3966
##MINX=450
##MAXY=1.80038
##MINY=0
##NPOINTS=880
##XYDATA=(X++(Y..Y))
450.0 214 146 155 182 181 148 77 81 32 13
490.0 53 90 79 32 41 29 57 8 34 53
530.0 23 90 36 11 43 59 52 101 91 111
570.0 82 100 97 62 46 78 72 57 65 71
610.0 56 61 109 184 228 326 312 309 186 102
650.0 50 35 45 26 25 8 50 27 44 22
690.0 42 28 50 91 110 205 274 515 485 832
730.0 1194 624 517 397 226 147 86 103 81 111
770.0 186 409 756 1234 1559 2395 2823 1558 1366 942
810.0 473 238 147 126 87 92 68 79 65 58
850.0 49 50 50 54 66 76 103 110 120 112
890.0 107 91 86 78 71 76 87 107 122 169
930.0 216 314 500 792 1078 1220 1214 1035 682 311
970.0 152 118 126 123 138 150 157 187 246 375
1010.0 615 1059 1793 2743 3634 3977 4051 3866 3129 2585
1050.0 2386 2197 1912 1655 1455 1477 1347 1412 1406 1002
1090.0 699 595 542 526 437 330 252 295 351 600
1130.0 1139 1471 1474 1438 1158 716 346 264 199 166
1170.0 162 185 216 233 259 275 303 303 311 298
1210.0 294 305 368 524 803 1396 2648 4941 7268 8889
1250.0 8881 7967 5100 2379 1293 1051 990 995 990 949
1290.0 889 902 1091 1448 2041 3065 4768 7259 9495 10000
1330.0 9393 8107 5208 2727 1292 662 416 313 282 262
1370.0 257 274 276 274 341 463 806 1513 2903 5265
1410.0 7434 8131 7803 6400 3721 1942 1309 1120 1169 1382
1450.0 2022 3372 5430 7822 9155 9530 8760 6639 4550 2998
1490.0 1759 1004 724 589 595 632 649 697 754 765
1530.0 809 828 853 899 882 895 1017 1268 1668 2316
1570.0 3152 4087 5543 7310 8238 8599 8179 6988 5924 6258
1610.0 6582 5961 5355 4178 2430 1161 598 373 284 251
1650.0 252 223 166 152 149 156 177 151 196 211
1690.0 195 201 254 246 228 191 184 176 110 83
1730.0 95 132 97 93 103 109 79 72 66 52
1770.0 73 78 55 56 47 53 56 51 62 46
1810.0 59 72 74 80 79 82 60 48 62 69
1850.0 54 33 28 22 29 41 25 30 38 52
1890.0 60 68 65 65 62 58 56 56 66 70
1930.0 90 117 132 139 137 133 117 113 105 107
1970.0 97 83 78 78 81 92 97 96 94 89
2010.0 79 68 63 59 68 89 106 130 141 144
2050.0 135 121 106 93 89 68 59 49 41 41
2090.0 46 45 46 48 42 41 36 36 35 40
2130.0 40 35 29 22 20 18 18 19 18 24
2170.0 34 47 62 75 88 101 97 86 74 56
2210.0 33 17 8 4 2 0 2 6 13 18
2250.0 21 35 45 58 72 86 92 88 82 72
2290.0 66 65 74 79 92 108 100 102 108 85
2330.0 78 52 37 26 14 47 103 82 25 0
2370.0 0 0 0 0 0 5 16 25 36 49
2410.0 56 62 63 61 55 40 24 14 8 6
2450.0 9 14 12 15 20 16 14 9 8 11
2490.0 16 16 15 23 30 39 51 61 69 72
2530.0 65 56 48 47 49 53 65 79 90 97
2570.0 98 92 75 55 41 31 30 32 39 40
2610.0 41 34 26 19 18 16 19 23 27 34
2650.0 41 40 44 48 53 51 58 62 64 66
2690.0 62 55 51 40 41 46 56 58 63 60
2730.0 53 50 43 42 42 42 34 32 32 29
2770.0 31 31 34 37 41 43 45 51 59 68
2810.0 87 119 159 189 208 222 216 232 266 336
2850.0 443 587 726 786 776 732 610 490 447 461
2890.0 507 556 620 692 742 771 778 776 726 690
2930.0 688 737 831 986 1261 1685 2111 2186 2206 2161
2970.0 1871 1529 1517 1665 1374 1145 1002 861 834 974
3010.0 1267 1401 1409 1284 1012 661 428 347 310 283
3050.0 264 257 265 289 324 369 380 371 344 295
3090.0 290 316 338 328 306 233 136 94 75 72
3130.0 63 62 61 50 46 51 47 48 53 60
3170.0 58 53 53 49 38 38 38 30 27 26
3210.0 21 25 28 13 15 16 14 10 3 1
3250.0 2 5 7 10 10 10 21 12 14 8
3290.0 25 25 14 20 9 7 10 12 22 21
3330.0 22 30 24 28 28 29 21 17 15 18
3370.0 18 30 22 17 21 24 20 13 22 23
3410.0 23 25 26 28 22 32 29 37 27 26
3450.0 32 23 21 28 23 21 25 28 27 23
3490.0 27 26 32 29 26 28 26 25 25 32
3530.0 29 29 28 25 27 24 29 27 27 22
3570.0 28 23 23 29 36 28 24 13 18 22
3610.0 36 21 19 17 17 15 19 7 6 15
3650.0 0 12 12 14 21 20 25 29 26 21
3690.0 21 15 11 17 10 19 27 28 26 26
3730.0 25 27 9 15 15 3 20 13 14 15
3770.0 23 22 27 36 27 32 22 26 15 31
3810.0 17 17 35 23 19 34 31 21 33 21
3850.0 28 30 12 28 24 46 32 45 42 39
3890.0 35 37 32 44 31 26 25 37 58 29
3930.0 34 42 46 65 44 40 53 55 74 55
##END=
