##TITLE=4-Pentene-2-ol, 2-methyl
##JCAMP-DX=4.24
##DATA TYPE=INFRARED SPECTRUM
##ORIGIN=Sadtler Research Labs Under US-EPA Contract
##OWNER=NIST Standard Reference Data Program
##CAS REGISTRY NO=624-97-5
##MOLFORM=C 6 H 12 O
##XUNITS=1/CM
##YUNITS=ABSORBANCE
##XFACTOR=1.0
##YFACTOR=0.000123697
##DELTAX=4.0
##FIRSTX=450.0
##LASTX=3966.0
##FIRSTY=0.027213
##MAXX=3966
##MINX=450
##MAXY=1.23697
##MINY=0
##NPOINTS=880
##XYDATA=(X++(Y..Y))
450.0 220 106 25 5 90 41 75 52 93 22
490.0 45 29 17 47 12 69 60 104 83 108
530.0 93 90 78 59 61 37 52 26 51 37
570.0 15 30 25 21 27 37 1 20 14 31
610.0 19 30 50 57 68 57 44 29 27 26
650.0 23 13 16 19 11 11 15 18 11 14
690.0 17 13 14 16 22 25 30 39 56 60
730.0 81 86 73 64 44 59 35 40 60 62
770.0 40 42 34 55 41 26 31 47 69 57
810.0 85 89 86 76 77 80 74 90 111 151
850.0 204 249 256 241 210 204 195 181 164 138
890.0 144 151 164 177 177 166 146 140 128 130
930.0 122 107 98 81 76 74 81 84 88 84
970.0 85 84 91 99 110 140 180 226 247 236
1010.0 207 180 165 168 176 181 180 175 182 202
1050.0 222 227 201 166 129 111 100 93 84 76
1090.0 70 69 70 72 78 81 86 86 88 86
1130.0 95 104 124 169 228 275 279 241 190 165
1170.0 157 156 165 189 237 310 405 487 521 488
1210.0 430 410 448 524 611 674 672 599 487 380
1250.0 311 295 286 258 216 164 131 115 109 105
1290.0 104 94 84 83 84 90 99 111 121 124
1330.0 128 130 142 161 199 268 401 641 998 1404
1370.0 1594 1432 1100 835 727 775 794 743 586 423
1410.0 288 239 204 220 216 243 274 318 376 408
1450.0 486 538 662 801 973 1135 1261 1426 1301 1099
1490.0 728 449 293 191 163 125 106 94 83 83
1530.0 68 74 63 69 58 57 53 53 54 47
1570.0 51 47 48 42 45 42 40 42 42 43
1610.0 41 45 43 55 54 66 71 85 91 97
1650.0 100 99 79 66 58 50 47 52 48 65
1690.0 67 75 79 92 94 97 98 99 94 86
1730.0 77 70 71 71 73 73 66 64 61 59
1770.0 59 60 54 52 43 40 34 32 29 28
1810.0 27 25 23 21 20 21 20 18 19 18
1850.0 17 18 17 20 19 20 23 20 20 20
1890.0 17 19 17 14 15 15 14 15 17 19
1930.0 17 15 16 14 13 12 13 14 12 13
1970.0 12 11 11 10 10 11 9 12 12 14
2010.0 12 14 14 15 15 16 15 15 15 13
2050.0 14 12 15 13 12 9 8 11 9 10
2090.0 11 13 11 12 10 12 11 13 12 13
2130.0 15 13 14 10 10 10 10 11 9 12
2170.0 10 10 10 10 8 8 10 8 8 10
2210.0 7 9 9 10 9 7 8 9 5 7
2250.0 10 8 7 7 9 10 10 14 14 14
2290.0 16 13 12 10 8 7 3 0 3 11
2330.0 9 8 6 11 15 6 2 6 16 21
2370.0 23 25 24 21 20 17 19 19 18 14
2410.0 16 12 12 13 11 10 10 8 7 8
2450.0 7 6 11 6 9 10 9 11 11 11
2490.0 12 13 9 13 15 15 13 15 13 12
2530.0 11 13 14 12 15 18 19 21 21 20
2570.0 16 16 18 19 18 23 24 26 26 25
2610.0 26 28 28 34 37 37 36 31 31 29
2650.0 31 29 31 32 36 38 42 43 44 46
2690.0 51 54 53 56 64 73 89 102 113 112
2730.0 102 91 85 87 95 101 107 108 97 94
2770.0 84 83 84 93 101 108 116 125 140 160
2810.0 179 198 215 236 262 305 365 439 543 675
2850.0 813 934 1062 1267 1627 2087 2480 2661 2622 2464
2890.0 2347 2325 2429 2661 2987 3307 3491 3496 3313 3107
2930.0 2991 3051 3286 3698 4379 5467 7128 8757 10000 9710
2970.0 8342 6472 4792 3519 2564 1891 1429 1109 892 741
3010.0 640 551 481 420 376 337 307 282 265 251
3050.0 234 222 203 190 170 156 144 141 138 129
3090.0 118 107 96 90 86 82 79 75 73 72
3130.0 71 72 69 71 72 72 70 71 71 72
3170.0 71 72 69 75 75 75 75 78 70 72
3210.0 69 65 62 60 55 59 58 57 52 46
3250.0 42 39 35 31 32 32 26 26 24 21
3290.0 20 21 18 20 20 21 23 25 24 24
3330.0 25 25 25 25 29 24 23 27 28 31
3370.0 35 33 33 32 24 25 25 25 17 15
3410.0 20 16 14 16 13 18 19 17 15 17
3450.0 13 14 16 14 13 16 12 19 14 15
3490.0 11 14 5 3 9 3 8 7 12 10
3530.0 9 5 8 9 4 8 5 4 5 6
3570.0 19 18 19 18 12 10 16 12 8 7
3610.0 10 5 10 15 5 13 14 12 12 11
3650.0 17 24 13 14 10 13 16 20 11 1
3690.0 1 9 4 7 9 11 9 6 10 10
3730.0 5 3 15 8 13 13 14 9 2 8
3770.0 10 6 2 9 2 4 10 17 8 11
3810.0 12 14 8 7 9 7 8 21 13 4
3850.0 6 0 8 5 11 11 24 27 12 19
3890.0 13 23 11 22 22 19 15 13 19 8
3930.0 15 13 9 16 17 1 6 11 14 15
##END=
