##TITLE=4-Decanone
##JCAMP-DX=4.24
##DATA TYPE=INFRARED SPECTRUM
##ORIGIN=Sadtler Research Labs Under US-EPA Contract
##OWNER=NIST Standard Reference Data Program
##CAS REGISTRY NO=624-16-8
##MOLFORM=C 10 H 20 O
##XUNITS=1/CM
##YUNITS=ABSORBANCE
##XFACTOR=1.0
##YFACTOR=0.000071741
##DELTAX=4.0
##FIRSTX=450.0
##LASTX=3966.0
##FIRSTY=0.010976
##MAXX=3966
##MINX=450
##MAXY=0.71741
##MINY=0
##NPOINTS=880
##XYDATA=(X++(Y..Y))
450.0 153 142 73 120 27 108 81 92 130 123
490.0 83 0 93 138 51 76 117 82 121 160
530.0 120 122 84 121 140 103 80 98 99 87
570.0 72 127 70 53 81 0 44 80 99 92
610.0 84 118 110 127 164 187 116 80 59 158
650.0 65 30 64 12 42 85 66 47 68 62
690.0 63 59 66 112 129 155 189 189 231 294
730.0 284 269 261 240 224 203 198 201 222 205
770.0 209 196 199 190 159 153 134 139 129 137
810.0 128 143 137 141 131 126 146 127 122 120
850.0 120 120 128 132 151 159 185 201 212 250
890.0 253 259 267 233 209 169 147 107 109 86
930.0 88 76 84 77 85 91 104 121 139 166
970.0 177 208 249 312 377 423 470 485 491 469
1010.0 461 466 483 529 574 616 636 666 713 792
1050.0 857 916 909 848 748 631 539 477 443 416
1090.0 402 405 424 456 514 597 717 859 1026 1201
1130.0 1333 1386 1352 1248 1148 1092 1068 1039 985 890
1170.0 769 670 616 589 576 602 628 643 635 610
1210.0 557 515 490 480 478 482 482 462 445 437
1250.0 442 467 514 573 649 719 759 779 776 785
1290.0 781 773 756 727 708 682 660 639 624 641
1330.0 673 749 835 969 1129 1346 1599 1821 1971 1976
1370.0 1840 1612 1389 1218 1084 947 799 699 670 702
1410.0 788 876 960 956 928 895 898 914 974 1072
1450.0 1228 1409 1595 1687 1658 1515 1278 991 729 540
1490.0 415 318 263 220 203 174 151 143 129 112
1530.0 102 89 95 89 86 72 75 77 74 61
1570.0 69 59 54 54 56 55 55 56 55 67
1610.0 67 67 71 74 73 75 85 90 89 98
1650.0 111 125 120 132 159 186 229 265 335 402
1690.0 476 588 762 1023 1425 2069 2972 4161 5338 6164
1730.0 6239 5436 4097 2816 1794 1193 835 654 519 452
1770.0 399 369 332 307 283 241 217 179 152 121
1810.0 109 94 79 71 53 54 40 39 38 37
1850.0 32 26 22 23 29 24 24 21 18 17
1890.0 18 23 11 18 19 18 13 20 17 17
1930.0 18 19 22 12 18 16 10 16 13 8
1970.0 6 9 9 14 6 10 4 6 6 7
2010.0 6 7 8 5 18 14 22 31 24 16
2050.0 17 16 10 23 22 34 37 39 32 28
2090.0 28 17 21 14 14 14 16 17 15 13
2130.0 16 15 21 21 21 22 27 26 21 25
2170.0 29 28 32 28 30 30 32 27 30 29
2210.0 33 27 32 28 25 29 21 20 21 25
2250.0 21 19 25 20 29 27 23 19 20 26
2290.0 31 29 33 44 43 54 44 48 34 14
2330.0 1 0 0 0 0 18 32 34 0 0
2370.0 0 0 0 0 12 22 19 26 27 23
2410.0 25 22 20 16 16 14 16 11 9 9
2450.0 13 20 10 8 11 2 1 5 4 6
2490.0 6 10 7 5 6 0 4 5 4 13
2530.0 9 15 12 14 11 16 15 20 24 20
2570.0 24 21 26 22 18 17 26 21 14 10
2610.0 18 20 19 30 23 39 44 35 46 43
2650.0 52 59 63 70 90 109 124 125 118 118
2690.0 113 106 100 98 90 100 87 97 110 104
2730.0 116 128 142 161 165 173 173 161 156 162
2770.0 161 167 182 204 223 250 278 304 338 386
2810.0 419 452 486 511 554 612 680 798 939 1166
2850.0 1506 2003 2623 3275 3767 4097 4264 4449 4650 4753
2890.0 4641 4380 4205 4287 4495 4872 5368 6005 6844 7813
2930.0 8816 9561 10000 9950 9439 8761 8085 7989 8401 9198
2970.0 9722 9044 7392 5328 3751 2693 1972 1524 1208 994
3010.0 819 700 601 511 457 409 365 322 297 265
3050.0 246 221 211 182 171 170 153 145 146 129
3090.0 140 126 128 124 131 104 108 91 88 82
3130.0 96 88 98 92 97 94 98 108 89 90
3170.0 101 106 108 108 93 84 97 107 82 107
3210.0 76 79 69 64 66 74 47 48 43 61
3250.0 65 63 66 56 61 52 52 53 59 32
3290.0 38 39 51 57 47 29 51 46 40 32
3330.0 42 43 58 37 54 50 37 32 48 38
3370.0 46 39 52 65 31 54 67 60 47 85
3410.0 91 95 83 70 114 116 139 126 113 112
3450.0 104 78 71 58 49 59 6 48 29 37
3490.0 21 25 19 32 16 48 46 19 23 51
3530.0 41 37 39 23 61 28 33 56 59 56
3570.0 87 90 65 88 74 72 36 65 36 53
3610.0 73 56 61 31 38 30 43 56 63 64
3650.0 42 32 44 36 35 56 70 74 83 42
3690.0 53 77 59 20 59 22 58 84 63 61
3730.0 39 34 30 38 73 53 61 62 51 74
3770.0 58 49 85 69 45 66 41 48 69 74
3810.0 65 61 81 59 76 66 71 86 75 68
3850.0 78 53 63 43 57 68 93 87 86 67
3890.0 53 79 32 41 62 50 62 77 50 66
3930.0 86 24 73 42 75 77 22 44 75 86
##END=
