##TITLE=Benzene, 1-iodo-4-methyl-
##JCAMP-DX=4.24
##DATA TYPE=INFRARED SPECTRUM
##ORIGIN=Sadtler Research Labs Under US-EPA Contract
##OWNER=NIST Standard Reference Data Program
##CAS REGISTRY NO=624-31-7
##MOLFORM=C 7 H 7 I
##XUNITS=1/CM
##YUNITS=ABSORBANCE
##XFACTOR=1.0
##YFACTOR=0.000055371
##DELTAX=4.0
##FIRSTX=450.0
##LASTX=3966.0
##FIRSTY=0.108140
##MAXX=3966
##MINX=450
##MAXY=0.55371
##MINY=0
##NPOINTS=880
##XYDATA=(X++(Y..Y))
450.0 1953 1700 2118 2435 2959 3132 2999 2370 1960 1519
490.0 1260 888 648 450 158 76 259 292 144 425
530.0 301 699 295 306 308 426 225 512 715 447
570.0 970 1157 1400 1366 743 674 652 780 474 592
610.0 360 544 379 346 368 256 301 255 377 574
650.0 531 513 569 285 384 456 424 445 585 444
690.0 433 425 414 395 536 514 450 389 371 303
730.0 474 671 660 1031 798 707 825 752 678 917
770.0 1353 2385 3814 5253 6329 6657 6933 8691 6254 5791
810.0 4655 3260 2156 1450 1131 664 528 693 551 507
850.0 466 401 500 444 424 495 435 495 300 453
890.0 615 530 425 500 608 381 474 382 501 406
930.0 468 496 494 655 708 639 601 475 537 572
970.0 498 531 470 472 503 642 973 2165 5471 9548
1010.0 9221 9236 4419 1211 923 905 941 848 804 978
1050.0 1326 2300 3354 3678 3825 2582 1372 1110 953 798
1090.0 874 887 971 1047 1067 1097 1084 1085 865 794
1130.0 773 668 632 606 500 505 641 598 635 605
1170.0 563 666 858 873 917 989 1033 1351 1756 1934
1210.0 1783 1603 1421 1375 1377 1195 889 599 527 477
1250.0 578 590 580 524 577 606 557 545 534 508
1290.0 582 726 700 660 750 783 776 670 578 602
1330.0 615 592 580 560 628 630 614 569 560 655
1370.0 700 763 878 1111 1225 1329 1430 1415 1562 1545
1410.0 1466 1385 1098 970 996 932 910 779 884 877
1450.0 887 941 934 1397 2087 2807 3883 6025 8318 9427
1490.0 10000 7860 5008 3122 1326 744 726 596 476 610
1530.0 583 472 456 306 436 535 478 336 386 530
1570.0 488 566 536 665 710 749 711 689 697 733
1610.0 735 734 595 692 639 677 598 422 469 311
1650.0 253 0 297 249 280 192 199 213 245 81
1690.0 234 245 107 56 194 229 169 169 352 386
1730.0 366 180 247 228 229 176 218 208 230 277
1770.0 333 361 542 465 393 233 88 125 104 122
1810.0 112 96 98 143 107 70 121 138 157 137
1850.0 197 191 205 242 276 274 401 475 575 595
1890.0 559 551 531 420 307 256 201 146 136 124
1930.0 159 145 138 153 151 157 127 157 169 168
1970.0 142 139 166 122 130 132 139 130 104 108
2010.0 97 121 91 119 92 91 90 89 80 91
2050.0 94 87 102 119 111 105 115 96 101 96
2090.0 89 90 94 104 85 101 89 109 125 120
2130.0 100 90 92 95 90 78 111 99 130 138
2170.0 110 112 104 111 103 121 102 115 108 100
2210.0 91 101 91 68 71 94 89 93 85 85
2250.0 112 103 77 86 120 106 143 133 179 185
2290.0 216 261 254 323 342 340 326 325 305 319
2330.0 253 277 302 360 351 377 430 459 487 473
2370.0 401 343 270 261 213 154 140 154 136 146
2410.0 155 163 170 149 140 118 141 133 144 142
2450.0 144 133 144 162 126 146 145 152 138 149
2490.0 163 176 144 136 141 160 152 144 162 153
2530.0 160 164 189 188 199 186 218 185 174 168
2570.0 205 214 219 237 263 265 260 260 244 230
2610.0 181 186 141 159 165 172 176 172 160 172
2650.0 189 183 195 189 186 165 157 175 176 182
2690.0 163 207 203 188 165 181 192 210 198 210
2730.0 220 265 277 327 321 341 338 320 284 255
2770.0 260 231 241 244 245 254 275 285 265 272
2810.0 316 332 343 367 377 392 423 458 470 536
2850.0 565 684 829 1010 1278 1523 1771 1909 1971 1950
2890.0 1893 1791 1690 1566 1511 1509 1608 1787 2093 2667
2930.0 3428 4061 4198 3787 3044 2281 1791 1548 1432 1353
2970.0 1306 1257 1259 1266 1306 1388 1468 1547 1632 1697
3010.0 1825 1983 2306 2929 3525 3708 3665 3132 2621 2487
3050.0 2412 2379 2298 2234 2046 1922 1806 1767 1700 1729
3090.0 1676 1458 1175 938 702 508 436 388 336 316
3130.0 291 325 294 284 295 259 317 282 239 257
3170.0 256 290 268 244 232 256 262 260 271 252
3210.0 276 223 265 230 240 264 240 239 232 194
3250.0 240 199 270 183 220 219 212 235 236 230
3290.0 247 229 229 236 243 228 267 284 196 264
3330.0 281 277 204 208 242 232 212 242 282 260
3370.0 274 229 176 264 225 209 292 204 205 211
3410.0 173 159 221 235 227 265 199 229 222 200
3450.0 223 206 205 196 191 211 219 212 168 210
3490.0 200 153 171 230 169 249 162 224 204 244
3530.0 217 196 178 208 146 212 195 199 200 190
3570.0 114 206 228 205 166 189 187 225 198 176
3610.0 156 187 166 154 238 123 191 190 228 200
3650.0 65 180 168 214 280 217 154 152 209 195
3690.0 208 180 235 185 186 230 179 272 218 210
3730.0 199 164 157 224 170 159 234 239 231 286
3770.0 289 273 300 301 296 292 280 331 249 328
3810.0 288 292 264 250 319 284 273 294 276 302
3850.0 306 248 284 349 326 300 323 356 338 319
3890.0 351 361 354 320 313 385 375 291 273 291
3930.0 280 255 229 286 347 354 89 107 110 110
##END=
