##TITLE=Pentanoic acid, 4-oxo-, methyl ester
##JCAMP-DX=4.24
##DATA TYPE=INFRARED SPECTRUM
##ORIGIN=Sadtler Research Labs Under US-EPA Contract
##OWNER=NIST Standard Reference Data Program
##CAS REGISTRY NO=624-45-3
##MOLFORM=C 6 H 10 O 3
##XUNITS=1/CM
##YUNITS=ABSORBANCE
##XFACTOR=1.0
##YFACTOR=0.000114618
##DELTAX=4.0
##FIRSTX=450.0
##LASTX=3966.0
##FIRSTY=0.185337
##MAXX=3966
##MINX=450
##MAXY=1.14618
##MINY=0
##NPOINTS=880
##XYDATA=(X++(Y..Y))
450.0 1617 744 816 155 16 483 356 277 329 191
490.0 338 244 250 318 178 106 349 361 193 251
530.0 301 145 166 136 171 92 254 385 477 395
570.0 494 433 529 453 311 327 236 215 209 168
610.0 128 119 101 186 148 198 163 219 102 122
650.0 96 110 1 121 187 77 54 67 97 152
690.0 70 27 22 88 43 57 61 35 76 93
730.0 64 143 132 161 145 264 239 265 288 264
770.0 239 164 145 154 127 163 161 190 205 264
810.0 314 354 366 416 404 378 343 312 254 244
850.0 215 233 161 162 141 163 119 178 241 241
890.0 266 281 308 296 280 282 284 280 282 309
930.0 328 363 379 373 373 399 418 447 595 633
970.0 692 675 692 629 616 629 699 784 885 944
1010.0 1015 1021 1010 1063 1001 1235 1339 1187 985 1069
1050.0 1027 1025 1065 1068 1073 1014 968 832 708 617
1090.0 538 507 497 514 555 594 691 799 948 1141
1130.0 1350 1653 2076 2730 3844 5416 7220 8146 8240 7795
1170.0 6540 5534 5083 4872 4715 4554 4550 4803 5191 5616
1210.0 5863 5837 5532 5073 4720 4487 4318 4155 3916 3640
1250.0 3340 3110 2931 2781 2647 2534 2472 2469 2471 2428
1290.0 2291 2185 2069 2017 2036 2116 2230 2268 2177 2034
1330.0 1860 1812 1941 2129 2458 2958 3670 4251 4534 4502
1370.0 3862 3091 2363 1804 1468 1241 1125 1067 1091 1200
1410.0 1317 1487 1632 1747 1805 1989 2392 2667 2789 2638
1450.0 2039 1493 1163 932 803 721 664 590 470 432
1490.0 427 363 342 318 345 398 318 326 326 298
1530.0 277 296 269 293 287 259 255 275 259 219
1570.0 217 216 199 195 176 164 179 155 163 153
1610.0 145 145 155 157 158 175 164 208 192 192
1650.0 232 217 245 204 274 295 343 401 485 581
1690.0 674 761 969 1205 1429 1786 2276 3165 4062 5275
1730.0 6821 7473 8944 9343 9288 10000 9605 9860 9519 8578
1770.0 7380 5638 4238 2961 2104 1622 1199 966 753 584
1810.0 500 429 381 349 319 273 205 165 139 149
1850.0 108 86 87 78 91 93 80 63 70 63
1890.0 73 65 57 60 48 58 47 60 55 48
1930.0 43 43 46 56 57 46 59 65 61 73
1970.0 75 79 74 81 80 90 99 83 92 90
2010.0 89 92 94 98 86 86 88 84 85 77
2050.0 78 79 72 75 79 81 79 80 84 76
2090.0 75 69 66 69 63 61 60 56 52 48
2130.0 44 39 34 32 24 26 22 22 24 19
2170.0 21 21 24 27 25 22 19 16 15 8
2210.0 8 5 5 6 3 4 5 7 7 8
2250.0 7 9 9 12 9 9 8 9 11 9
2290.0 10 16 13 19 20 19 25 20 23 19
2330.0 15 19 14 19 15 30 21 23 21 15
2370.0 17 19 19 28 26 21 21 22 23 22
2410.0 22 22 19 19 19 17 19 17 19 19
2450.0 20 16 15 10 13 15 16 18 18 18
2490.0 20 20 18 20 22 21 26 20 21 19
2530.0 14 13 12 14 9 14 13 17 16 17
2570.0 18 19 20 21 23 26 25 28 28 25
2610.0 23 25 25 23 23 24 24 24 21 24
2650.0 30 31 31 30 31 23 27 26 33 28
2690.0 27 23 23 33 32 29 26 30 30 31
2730.0 30 32 34 38 37 37 43 44 46 49
2770.0 55 59 63 68 74 81 92 98 106 121
2810.0 136 157 173 191 208 218 242 281 344 441
2850.0 489 513 531 503 436 380 366 363 368 389
2890.0 422 485 558 664 817 1008 1212 1383 1523 1560
2930.0 1506 1473 1458 1462 1523 1658 2016 2430 2552 2479
2970.0 2232 1701 1263 1103 1027 998 1013 1035 1066 1082
3010.0 1076 1038 973 905 844 771 703 624 538 466
3050.0 398 358 330 303 286 266 251 244 228 220
3090.0 206 193 179 164 160 144 135 132 115 105
3130.0 96 89 78 73 68 60 55 57 52 47
3170.0 48 46 49 42 40 38 40 37 37 37
3210.0 34 26 22 27 26 25 25 25 19 20
3250.0 16 21 19 16 14 13 12 14 15 19
3290.0 17 12 11 6 9 9 7 7 15 19
3330.0 12 15 17 16 9 11 12 17 15 19
3370.0 19 21 17 19 22 20 27 42 32 24
3410.0 29 36 41 48 58 68 88 109 127 175
3450.0 200 223 235 224 228 197 164 120 110 92
3490.0 94 97 96 97 108 74 82 50 58 67
3530.0 41 24 33 14 49 21 26 1 41 35
3570.0 86 38 62 52 69 63 35 21 20 18
3610.0 27 38 34 33 13 56 17 19 23 50
3650.0 38 63 29 43 36 35 54 37 62 25
3690.0 29 39 25 55 48 51 59 42 61 45
3730.0 51 42 55 52 19 42 0 29 1 1
3770.0 1 7 1 1 1 2 1 19 1 9
3810.0 1 6 1 27 1 1 8 1 0 5
3850.0 6 8 8 2 1 20 11 5 17 15
3890.0 0 1 3 20 26 1 0 40 1 1
3930.0 1 11 1 1 12 2 3 1 1 1
##END=
