##TITLE=5-Methyl-2-hexanone oxime
##JCAMP-DX=4.24
##DATA TYPE=INFRARED SPECTRUM
##ORIGIN=Sadtler Research Labs Under US-EPA Contract
##OWNER=NIST Standard Reference Data Program
##CAS REGISTRY NO=624-44-2
##MOLFORM=C 7 H 15 N O
##XUNITS=1/CM
##YUNITS=ABSORBANCE
##XFACTOR=1.0
##YFACTOR=0.000090598
##DELTAX=4.0
##FIRSTX=450.0
##LASTX=3966.0
##FIRSTY=0.017667
##MAXX=3966
##MINX=450
##MAXY=0.90598
##MINY=0
##NPOINTS=880
##XYDATA=(X++(Y..Y))
450.0 195 122 58 91 43 66 99 118 130 131
490.0 91 90 37 34 11 6 3 15 51 61
530.0 102 160 165 170 130 122 100 82 90 117
570.0 138 177 231 217 227 242 278 310 347 371
610.0 381 390 435 599 768 832 817 709 469 328
650.0 241 212 194 185 189 186 202 206 221 238
690.0 253 278 279 289 293 300 295 292 265 257
730.0 216 192 162 157 142 164 190 189 185 169
770.0 132 124 113 102 85 54 46 46 48 52
810.0 61 69 66 80 107 138 165 191 196 185
850.0 202 218 261 342 441 532 593 655 681 735
890.0 817 972 1225 1636 2257 3013 3616 3932 3934 3624
930.0 3116 2645 2203 1799 1461 1159 917 752 635 566
970.0 531 539 574 622 677 744 805 873 946 1030
1010.0 1083 1102 1064 967 822 650 486 347 248 191
1050.0 148 123 97 85 68 56 51 47 57 72
1090.0 113 171 270 405 578 709 737 698 559 392
1130.0 282 203 152 124 121 136 174 240 326 394
1170.0 425 408 376 353 421 590 841 1076 1170 1122
1210.0 936 681 517 471 503 610 785 1012 1227 1335
1250.0 1338 1243 1112 1005 938 869 771 645 532 454
1290.0 410 386 401 454 586 801 1069 1279 1432 1485
1330.0 1483 1543 1640 1739 1788 1744 1687 1665 1719 1845
1370.0 1947 1953 1922 1794 1610 1388 1150 890 599 439
1410.0 364 342 340 376 428 522 623 776 882 995
1450.0 1093 1165 1265 1302 1333 1321 1229 1025 812 593
1490.0 430 313 242 190 169 145 128 118 106 98
1530.0 78 85 72 77 71 66 62 60 59 46
1570.0 43 32 36 21 25 19 19 14 15 15
1610.0 17 21 27 32 32 53 60 91 122 175
1650.0 203 264 256 245 203 153 90 60 20 13
1690.0 3 11 13 19 14 25 31 41 45 53
1730.0 52 57 46 40 30 24 21 14 12 10
1770.0 15 12 13 13 21 14 22 19 21 19
1810.0 19 16 24 23 28 24 23 25 19 18
1850.0 12 13 7 8 4 5 4 8 4 4
1890.0 5 2 4 3 1 3 2 9 5 7
1930.0 6 7 8 8 9 8 4 4 8 11
1970.0 11 8 9 9 10 9 11 11 10 10
2010.0 10 7 7 7 6 9 9 8 10 10
2050.0 12 10 9 6 6 5 6 4 4 4
2090.0 3 5 6 3 5 6 5 7 8 8
2130.0 10 7 8 10 9 10 9 12 9 11
2170.0 10 12 11 11 10 10 8 6 4 4
2210.0 2 4 1 2 2 1 1 5 6 6
2250.0 3 5 5 5 4 4 6 8 11 12
2290.0 12 17 21 17 17 20 22 26 33 31
2330.0 38 32 31 24 17 27 36 27 18 15
2370.0 7 15 22 20 20 17 17 18 14 13
2410.0 17 16 20 18 18 16 13 12 12 14
2450.0 11 12 16 14 14 16 15 16 17 17
2490.0 19 18 18 18 20 16 21 23 22 25
2530.0 25 28 32 38 39 42 49 53 55 59
2570.0 61 65 72 76 76 80 82 83 85 85
2610.0 83 84 87 90 92 93 97 96 99 101
2650.0 103 106 106 108 105 104 104 105 104 104
2690.0 106 107 107 108 107 111 117 123 134 144
2730.0 152 160 155 152 147 140 136 134 135 136
2770.0 141 147 145 147 151 158 176 188 208 228
2810.0 247 270 294 324 358 400 458 538 651 806
2850.0 1010 1256 1527 1809 2119 2509 2930 3216 3361 3345
2890.0 3163 2999 2969 3099 3401 3844 4331 4794 5174 5435
2930.0 5584 5682 5716 5682 5699 5939 6563 7768 9325 10000
2970.0 9418 7904 5581 3582 2363 1712 1360 1140 980 840
3010.0 698 579 499 444 404 376 356 335 319 308
3050.0 305 294 284 276 263 249 237 229 214 200
3090.0 188 175 161 150 142 134 126 126 124 117
3130.0 117 115 114 113 112 109 111 113 113 118
3170.0 118 121 120 120 116 109 107 96 89 86
3210.0 79 73 66 54 50 40 46 43 44 42
3250.0 49 42 49 52 55 65 72 79 90 94
3290.0 101 93 92 80 70 69 64 56 61 57
3330.0 56 60 54 52 58 58 52 56 55 53
3370.0 56 56 52 52 52 49 50 44 40 40
3410.0 40 38 35 34 35 41 32 34 33 32
3450.0 31 36 34 32 26 33 31 30 25 20
3490.0 32 32 29 25 21 26 29 29 25 11
3530.0 24 19 30 39 15 18 38 14 37 0
3570.0 11 39 42 49 38 47 75 71 110 126
3610.0 154 199 274 408 620 953 1534 2443 3731 5007
3650.0 5339 4967 4203 2586 1323 703 369 231 174 147
3690.0 105 104 98 85 81 54 29 43 28 15
3730.0 35 14 5 8 9 0 21 17 23 26
3770.0 17 41 31 19 33 40 39 28 19 38
3810.0 31 49 10 28 24 53 33 21 1 38
3850.0 34 2 18 37 21 15 16 28 1 30
3890.0 23 42 22 21 19 43 32 31 30 20
3930.0 30 19 41 34 32 40 37 34 31 40
##END=
