##TITLE=2-Butenedioic acid (Z)-, dimethyl ester
##JCAMP-DX=4.24
##DATA TYPE=INFRARED SPECTRUM
##ORIGIN=Sadtler Research Labs Under US-EPA Contract
##OWNER=NIST Standard Reference Data Program
##CAS REGISTRY NO=624-48-6
##MOLFORM=C 6 H 8 O 4
##XUNITS=1/CM
##YUNITS=ABSORBANCE
##XFACTOR=1.0
##YFACTOR=0.000063379
##DELTAX=4.0
##FIRSTX=450.0
##LASTX=3966.0
##FIRSTY=0.008683
##MAXX=3966
##MINX=450
##MAXY=0.63379
##MINY=0
##NPOINTS=880
##XYDATA=(X++(Y..Y))
450.0 137 128 107 28 6 42 88 113 109 58
490.0 58 43 60 63 94 100 98 39 90 117
530.0 96 111 92 77 70 33 61 67 102 156
570.0 141 117 100 132 164 197 203 260 217 216
610.0 241 259 199 174 167 143 139 156 162 172
650.0 163 125 202 179 177 187 227 126 160 174
690.0 161 165 180 164 166 149 195 198 190 240
730.0 206 156 211 200 211 195 217 231 209 221
770.0 244 234 226 257 264 338 359 428 490 554
810.0 604 713 704 772 773 836 869 916 895 873
850.0 852 819 794 732 635 551 490 393 383 359
890.0 365 300 294 260 224 207 224 236 246 255
930.0 291 339 341 339 331 283 258 256 267 266
970.0 264 279 330 419 510 643 829 1046 1245 1419
1010.0 1592 1653 1624 1520 1347 1189 1072 927 790 638
1050.0 509 393 332 285 265 248 246 239 229 241
1090.0 248 245 268 285 316 342 381 434 505 608
1130.0 725 897 1168 1576 2208 3094 4376 5617 6415 6595
1170.0 6215 5529 4848 4283 3995 3935 4098 4438 4944 5634
1210.0 6102 6279 6202 5742 5233 4639 4235 4035 3861 3765
1250.0 3646 3548 3458 3291 3107 2976 2817 2746 2762 2802
1290.0 2857 2848 2713 2472 2123 1688 1265 925 693 567
1330.0 506 455 430 406 390 382 378 385 399 421
1370.0 483 619 915 1428 1980 2177 2084 1797 1291 857
1410.0 632 529 484 511 644 913 1467 2029 2269 2222
1450.0 1709 1037 705 629 579 540 476 427 378 323
1490.0 280 252 230 225 201 204 206 198 184 189
1530.0 181 182 180 158 174 180 178 158 169 184
1570.0 173 180 176 187 193 194 194 209 223 244
1610.0 275 308 341 404 472 544 615 690 771 795
1650.0 794 727 694 594 502 427 391 353 342 317
1690.0 335 358 366 399 478 559 635 738 930 1198
1730.0 1665 2394 3587 5216 7106 8719 9728 10000 9394 7836
1770.0 5951 4278 2931 1931 1289 885 652 524 447 391
1810.0 351 319 285 253 220 200 184 167 151 125
1850.0 133 123 116 115 122 100 115 115 106 107
1890.0 98 99 90 90 89 89 82 82 79 96
1930.0 96 87 93 88 87 87 85 88 87 87
1970.0 86 94 101 102 115 125 127 134 138 139
2010.0 145 138 136 129 129 130 121 112 113 107
2050.0 103 104 99 104 104 95 95 96 95 94
2090.0 87 86 95 94 84 88 89 85 76 77
2130.0 77 68 61 61 61 54 54 56 52 52
2170.0 51 50 43 51 51 50 49 48 42 42
2210.0 40 40 36 33 32 39 31 31 31 31
2250.0 31 31 31 29 30 21 28 27 26 21
2290.0 21 21 21 19 20 21 5 6 3 4
2330.0 4 4 4 4 4 12 4 4 4 5
2370.0 20 19 32 36 40 42 42 42 42 43
2410.0 50 50 37 42 42 42 42 44 43 37
2450.0 35 36 35 28 27 27 34 30 32 24
2490.0 23 30 28 28 28 28 28 28 28 28
2530.0 22 27 27 23 29 25 26 30 28 37
2570.0 37 37 37 37 39 43 43 43 44 44
2610.0 44 44 36 37 36 35 36 31 33 38
2650.0 37 37 37 28 35 36 36 28 36 36
2690.0 38 28 23 28 24 29 35 22 28 29
2730.0 22 28 29 29 27 22 25 29 30 37
2770.0 20 30 22 29 29 29 38 38 38 37
2810.0 37 45 54 66 76 91 115 122 155 211
2850.0 271 298 301 277 216 160 128 115 114 138
2890.0 154 178 218 242 264 281 301 305 297 295
2930.0 286 286 306 361 502 731 1140 1601 1742 1702
2970.0 1500 1004 628 447 392 392 438 487 544 574
3010.0 565 538 508 477 474 466 444 419 372 323
3050.0 281 241 209 209 192 196 183 176 159 147
3090.0 143 132 126 125 110 101 93 85 78 76
3130.0 58 64 54 54 49 47 56 40 39 32
3170.0 24 31 32 23 27 23 28 32 23 24
3210.0 24 24 24 16 25 17 22 26 25 25
3250.0 24 24 24 17 17 9 16 17 18 15
3290.0 26 19 24 20 16 18 26 16 17 24
3330.0 24 18 15 19 20 12 14 23 24 25
3370.0 23 24 24 18 18 24 25 25 25 25
3410.0 20 26 20 24 25 26 17 25 25 26
3450.0 26 26 29 23 29 40 46 64 79 95
3490.0 96 111 110 95 77 70 57 43 46 28
3530.0 26 25 25 19 26 19 23 18 22 14
3570.0 15 20 20 16 13 8 19 10 18 18
3610.0 4 8 11 15 20 6 9 11 19 11
3650.0 12 19 19 20 16 3 12 11 19 15
3690.0 9 18 19 12 20 11 5 13 19 20
3730.0 20 6 17 20 10 21 26 28 28 28
3770.0 28 28 28 31 27 27 28 28 18 20
3810.0 28 28 27 27 27 27 27 27 27 27
3850.0 27 27 27 27 35 27 35 44 45 49
3890.0 44 44 44 34 49 45 43 36 51 52
3930.0 52 52 52 52 52 56 0 4 4 4
##END=
