##TITLE=Benzene, 1,4-diiodo-
##JCAMP-DX=4.24
##DATA TYPE=INFRARED SPECTRUM
##ORIGIN=Sadtler Research Labs Under US-EPA Contract
##OWNER=NIST Standard Reference Data Program
##CAS REGISTRY NO=624-38-4
##MOLFORM=C 6 H 4 I 2
##XUNITS=1/CM
##YUNITS=ABSORBANCE
##XFACTOR=1.0
##YFACTOR=0.000076758
##DELTAX=4.0
##FIRSTX=450.0
##LASTX=3966.0
##FIRSTY=0.049816
##MAXX=3966
##MINX=450
##MAXY=0.76758
##MINY=0
##NPOINTS=880
##XYDATA=(X++(Y..Y))
450.0 649 608 636 618 593 530 424 318 240 135
490.0 97 13 24 80 75 12 48 77 54 60
530.0 61 41 54 126 97 154 68 89 171 73
570.0 160 86 214 178 183 214 186 164 71 150
610.0 95 235 188 200 170 132 68 93 170 207
650.0 213 139 145 47 144 239 124 196 223 172
690.0 199 288 295 225 171 159 145 70 140 198
730.0 126 236 269 252 251 241 236 130 161 179
770.0 240 297 364 519 702 1006 1299 1503 1768 1565
810.0 1347 1080 764 534 355 255 209 254 178 152
850.0 155 134 151 171 124 131 152 177 115 159
890.0 174 180 161 175 187 153 147 143 144 137
930.0 135 164 134 160 160 159 198 276 279 264
970.0 195 202 282 588 1560 3936 7899 10000 6811 2194
1010.0 518 238 136 157 243 226 243 212 166 190
1050.0 263 317 491 1230 2942 4004 2582 471 227 224
1090.0 225 267 270 294 324 227 185 216 138 160
1130.0 173 186 185 183 169 159 178 178 159 155
1170.0 156 154 148 164 153 171 169 135 177 187
1210.0 300 368 277 206 171 193 207 191 213 198
1250.0 188 192 179 160 166 160 169 165 160 129
1290.0 146 167 164 156 162 164 185 190 165 192
1330.0 195 202 191 181 207 238 272 338 418 546
1370.0 648 727 712 732 620 511 461 410 352 230
1410.0 170 163 144 114 108 121 133 99 153 163
1450.0 190 265 493 1447 3332 4473 2894 675 293 269
1490.0 236 197 129 143 81 82 134 115 85 135
1530.0 145 101 100 53 93 121 109 50 81 124
1570.0 111 117 103 129 146 140 160 168 174 206
1610.0 212 229 183 218 208 211 166 100 128 81
1650.0 83 0 101 87 105 75 89 87 103 35
1690.0 95 95 53 36 85 94 64 41 98 122
1730.0 117 68 96 81 84 64 82 82 99 149
1770.0 153 147 143 86 75 65 51 58 51 57
1810.0 57 59 51 61 50 47 53 55 52 33
1850.0 55 54 67 73 79 86 119 137 150 166
1890.0 161 155 153 137 109 88 82 68 68 55
1930.0 78 70 65 70 70 71 61 71 73 51
1970.0 52 63 63 50 55 60 55 56 48 49
2010.0 54 54 52 60 41 46 67 58 67 60
2050.0 62 54 51 44 43 43 49 43 48 48
2090.0 50 41 43 61 52 60 54 60 51 46
2130.0 52 45 51 50 51 39 53 46 54 56
2170.0 43 45 47 47 41 46 47 52 51 50
2210.0 45 40 43 42 43 50 49 43 48 48
2250.0 50 46 36 42 53 53 62 61 71 71
2290.0 76 88 102 100 109 109 107 112 116 116
2330.0 122 132 152 160 136 136 149 188 196 169
2370.0 147 114 91 80 63 39 36 56 43 35
2410.0 35 41 32 31 32 28 26 30 37 25
2450.0 33 26 31 37 25 29 23 30 26 30
2490.0 33 30 22 27 34 39 47 45 45 32
2530.0 35 35 51 53 67 71 84 69 49 29
2570.0 36 29 33 27 25 31 35 22 30 30
2610.0 24 31 26 44 49 37 27 24 15 14
2650.0 16 21 22 19 28 15 14 20 13 15
2690.0 1 20 26 20 16 14 17 20 16 15
2730.0 15 28 17 30 23 33 37 37 38 38
2770.0 52 52 50 70 64 52 53 44 35 17
2810.0 36 36 25 32 35 41 48 37 36 38
2850.0 23 27 45 41 38 39 40 39 47 46
2890.0 41 41 35 49 46 33 31 44 36 47
2930.0 49 40 51 43 51 58 44 54 48 48
2970.0 49 66 50 46 59 59 55 61 62 67
3010.0 63 62 71 73 71 72 82 70 68 78
3050.0 64 77 85 111 125 162 189 221 208 203
3090.0 180 166 128 104 94 81 82 69 56 54
3130.0 49 59 60 54 54 59 78 53 47 61
3170.0 60 61 56 56 41 59 60 54 53 55
3210.0 71 58 57 59 67 52 52 55 59 47
3250.0 59 55 59 57 49 56 49 48 51 37
3290.0 55 55 50 54 59 46 69 68 52 66
3330.0 66 69 45 43 57 43 65 57 63 46
3370.0 46 58 37 64 50 54 58 42 59 50
3410.0 36 35 62 29 33 61 42 49 61 42
3450.0 48 34 46 56 42 42 42 43 57 45
3490.0 53 44 41 35 33 42 30 62 57 44
3530.0 44 45 42 37 25 54 48 54 43 42
3570.0 15 30 50 59 31 24 41 41 36 66
3610.0 26 36 47 31 70 12 34 39 37 40
3650.0 1 51 27 52 53 35 27 25 54 54
3690.0 54 64 68 80 62 74 49 56 58 53
3730.0 62 37 31 66 31 40 69 91 92 111
3770.0 115 104 117 95 92 87 88 105 84 109
3810.0 87 95 88 70 97 103 103 94 92 87
3850.0 101 75 74 111 99 99 113 132 127 117
3890.0 120 132 132 115 105 128 135 103 97 103
3930.0 104 104 105 111 134 145 0 9 10 10
##END=
