##TITLE=Disulfide, dimethyl
##JCAMP-DX=4.24
##DATA TYPE=INFRARED SPECTRUM
##ORIGIN=Sadtler Research Labs Under US-EPA Contract
##OWNER=NIST Standard Reference Data Program
##CAS REGISTRY NO=624-92-0
##MOLFORM=C 2 H 6 S 2
##XUNITS=1/CM
##YUNITS=ABSORBANCE
##XFACTOR=1.0
##YFACTOR=0.000044913
##DELTAX=4.0
##FIRSTX=450.0
##LASTX=3966.0
##FIRSTY=0.089646
##MAXX=3966
##MINX=450
##MAXY=0.44913
##MINY=0
##NPOINTS=880
##XYDATA=(X++(Y..Y))
450.0 1996 840 133 350 150 457 224 377 455 352
490.0 434 255 502 316 480 290 337 379 95 351
530.0 248 35 313 144 152 260 25 159 184 206
570.0 310 324 0 278 79 247 140 108 168 145
610.0 219 178 188 179 219 180 195 199 180 136
650.0 172 205 153 246 253 392 444 544 593 634
690.0 656 662 590 594 505 307 217 121 185 177
730.0 133 178 186 178 171 202 196 233 221 417
770.0 125 118 211 207 244 181 160 148 179 169
810.0 173 39 214 168 163 226 183 217 221 258
850.0 244 234 251 284 255 264 284 299 293 308
890.0 322 308 336 339 369 387 408 460 527 675
930.0 860 1223 1683 2335 2937 3281 3302 3255 3173 2881
970.0 2050 1387 920 682 524 443 415 398 390 349
1010.0 353 381 371 361 350 344 327 315 314 316
1050.0 301 306 295 295 279 264 256 267 254 253
1090.0 245 226 217 187 212 186 180 178 181 175
1130.0 162 185 176 183 155 160 163 154 151 169
1170.0 165 173 189 191 219 205 235 230 217 226
1210.0 231 204 202 211 196 199 185 207 198 229
1250.0 222 255 260 280 332 374 463 544 718 936
1290.0 1295 1667 2035 2201 2224 2216 2047 1998 1874 1323
1330.0 903 643 532 483 423 399 363 364 360 341
1370.0 343 359 374 389 482 562 753 1009 1390 1814
1410.0 2303 2736 3100 3758 4182 4486 4402 4080 3776 3339
1450.0 3458 2890 2057 1419 978 771 613 563 451 412
1490.0 386 363 362 376 398 418 456 467 521 512
1530.0 552 546 583 583 591 585 564 556 523 517
1570.0 471 449 411 397 352 326 302 262 256 214
1610.0 217 175 205 172 182 165 167 155 155 152
1650.0 156 136 148 154 111 122 132 115 127 115
1690.0 124 101 126 121 115 102 119 105 99 88
1730.0 92 103 73 85 90 103 73 90 71 85
1770.0 83 83 80 84 78 82 80 75 84 81
1810.0 93 74 79 85 79 88 75 70 72 83
1850.0 74 70 74 74 65 70 76 80 85 89
1890.0 89 101 98 89 76 96 88 81 93 114
1930.0 93 90 77 66 65 59 59 70 79 90
1970.0 112 111 131 154 169 180 183 174 169 166
2010.0 150 132 95 93 88 93 94 100 93 93
2050.0 98 91 80 84 91 79 75 59 53 56
2090.0 56 66 67 69 74 72 78 88 86 101
2130.0 94 94 101 90 97 84 87 77 84 82
2170.0 82 79 80 82 71 76 65 64 70 75
2210.0 72 82 85 93 100 105 119 132 158 173
2250.0 203 213 230 234 230 217 194 166 149 136
2290.0 113 104 89 87 79 75 66 62 38 40
2330.0 45 49 84 45 143 90 52 96 119 180
2370.0 260 280 269 256 230 203 179 164 145 124
2410.0 107 86 85 81 77 72 64 70 67 70
2450.0 60 68 65 68 70 77 76 82 79 78
2490.0 66 70 60 61 54 44 37 26 39 46
2530.0 47 41 48 57 37 41 51 62 53 59
2570.0 62 63 67 78 77 84 91 93 93 94
2610.0 100 91 91 81 86 86 91 88 76 78
2650.0 81 77 66 82 84 92 74 89 96 95
2690.0 97 94 105 102 125 121 134 137 144 153
2730.0 143 169 153 170 166 166 150 144 132 134
2770.0 127 115 135 149 156 142 166 171 243 326
2810.0 457 657 943 1254 1477 1631 1738 1893 1889 1885
2850.0 1726 1586 1421 1259 1198 1093 1084 942 912 846
2890.0 936 1041 1353 1911 2846 4559 6853 9470 8982 9668
2930.0 10000 8963 9876 7715 5067 3184 1983 1503 1228 1288
2970.0 1407 1879 2424 3050 3484 3902 4197 4242 4371 3997
3010.0 3299 2739 2246 1777 1407 1054 831 651 544 475
3050.0 437 416 410 455 446 475 491 512 525 532
3090.0 531 530 530 509 514 502 499 468 463 467
3130.0 442 436 413 393 375 343 291 274 248 221
3170.0 156 161 147 143 132 137 126 146 146 133
3210.0 175 199 190 193 176 189 209 203 210 204
3250.0 192 201 186 179 177 168 144 128 125 98
3290.0 101 73 88 80 90 78 88 91 86 83
3330.0 72 88 92 83 101 89 83 76 77 51
3370.0 62 27 56 32 81 52 63 68 71 82
3410.0 51 52 69 89 77 63 64 67 57 51
3450.0 66 45 63 67 64 74 62 29 66 56
3490.0 51 64 75 92 63 95 90 43 65 67
3530.0 65 61 102 74 85 72 75 56 60 81
3570.0 83 47 56 33 71 79 71 76 105 117
3610.0 90 96 62 71 47 65 114 89 67 79
3650.0 92 117 118 106 100 123 99 132 131 122
3690.0 121 105 112 70 63 74 125 101 105 110
3730.0 87 72 107 68 46 38 47 87 64 26
3770.0 68 91 44 84 49 70 26 69 64 86
3810.0 26 41 132 67 94 41 79 87 39 86
3850.0 90 51 128 154 181 154 145 212 212 207
3890.0 114 155 134 71 164 115 26 27 98 77
3930.0 121 145 67 176 139 69 68 66 45 25
##END=
