##TITLE=2-Butene, (E)-
##JCAMP-DX=4.24
##DATA TYPE=INFRARED SPECTRUM
##ORIGIN=Sadtler Research Labs Under US-EPA Contract
##OWNER=NIST Standard Reference Data Program
##CAS REGISTRY NO=624-64-6
##MOLFORM=C 4 H 8
##XUNITS=1/CM
##YUNITS=ABSORBANCE
##XFACTOR=1.0
##YFACTOR=0.000049878
##DELTAX=4.0
##FIRSTX=450.0
##LASTX=3966.0
##FIRSTY=0.003392
##MAXX=3966
##MINX=450
##MAXY=0.49878
##MINY=0
##NPOINTS=880
##XYDATA=(X++(Y..Y))
450.0 68 94 128 296 0 94 130 142 139 134
490.0 83 160 121 162 180 114 115 88 152 140
530.0 86 140 114 77 88 116 118 138 122 125
570.0 75 105 55 64 105 86 125 100 108 94
610.0 128 137 89 122 93 90 98 120 87 66
650.0 85 130 108 105 82 95 101 94 94 82
690.0 76 114 98 104 101 79 102 101 96 86
730.0 84 95 105 94 103 107 93 90 87 104
770.0 109 103 107 96 101 110 107 118 115 114
810.0 106 119 131 139 122 139 144 151 153 146
850.0 153 170 189 213 211 216 252 275 282 321
890.0 368 401 462 531 648 766 913 1086 1300 1546
930.0 1810 2114 2377 2687 2916 3187 3438 4108 5567 4903
970.0 4601 4579 4157 3964 3665 3229 2622 2106 1668 1364
1010.0 1134 917 785 666 613 563 567 585 657 699
1050.0 754 807 768 687 679 750 738 639 452 317
1090.0 229 196 160 140 139 126 124 110 122 105
1130.0 105 111 112 128 133 134 119 145 154 162
1170.0 162 179 187 191 203 205 215 208 220 218
1210.0 219 221 223 228 226 228 228 246 243 246
1250.0 250 255 252 259 253 243 251 267 328 407
1290.0 508 540 495 510 525 613 653 563 442 354
1330.0 306 290 304 318 336 361 396 427 478 535
1370.0 623 703 774 806 879 1035 1198 1193 1162 1149
1410.0 1202 1233 1279 1354 1423 1464 1496 1570 1664 2104
1450.0 2137 1775 1639 1492 1646 1793 1772 1626 1489 1381
1490.0 1276 1192 1086 990 891 796 726 645 571 512
1530.0 445 429 369 354 320 296 278 273 249 259
1570.0 247 252 238 228 224 216 210 207 206 200
1610.0 204 202 196 191 174 186 167 177 167 172
1650.0 163 168 146 179 174 192 205 242 275 329
1690.0 335 343 324 308 321 343 296 252 190 156
1730.0 142 124 124 118 123 127 109 129 138 167
1770.0 190 219 210 203 177 213 211 191 146 107
1810.0 93 86 77 71 72 67 72 70 71 59
1850.0 65 63 69 64 69 65 57 73 61 72
1890.0 68 78 70 69 71 76 76 78 85 85
1930.0 81 84 88 85 77 79 74 74 72 77
1970.0 85 89 107 114 129 136 142 137 133 138
2010.0 139 119 105 86 77 62 60 55 50 44
2050.0 40 31 33 35 37 39 31 35 40 34
2090.0 38 36 36 36 33 33 35 38 39 36
2130.0 33 31 31 34 31 31 28 32 36 37
2170.0 36 38 37 36 34 34 29 32 30 29
2210.0 29 33 27 36 40 40 35 40 38 37
2250.0 40 42 49 46 38 36 33 40 51 59
2290.0 55 67 70 72 80 86 72 60 62 45
2330.0 57 61 47 33 76 66 102 79 56 75
2370.0 73 71 80 89 78 68 60 61 68 73
2410.0 82 89 93 103 110 111 114 117 118 111
2450.0 106 109 100 90 74 66 58 55 59 58
2490.0 60 53 46 43 47 42 47 39 39 42
2530.0 45 44 42 34 28 27 25 25 20 17
2570.0 24 28 26 36 35 45 45 44 42 37
2610.0 50 48 48 52 39 39 39 47 45 37
2650.0 35 37 46 43 58 48 60 65 64 66
2690.0 67 82 90 89 97 104 124 160 204 274
2730.0 341 388 430 428 475 510 522 447 385 329
2770.0 266 216 195 199 211 229 240 260 276 309
2810.0 331 379 431 476 545 579 619 664 821 1011
2850.0 1326 1916 2895 3856 4165 4090 4119 4918 5542 5549
2890.0 5500 5423 5279 5070 5199 5711 6783 7931 8706 8526
2930.0 8546 9000 9501 9717 9534 10000 8429 7544 7601 7294
2970.0 6663 6243 6698 6752 6408 5996 5569 5247 5024 4935
3010.0 4853 4777 4534 4174 3895 3991 4139 3957 3661 3270
3050.0 2925 2614 2330 2076 1841 1645 1466 1310 1160 1033
3090.0 897 800 704 667 602 550 511 472 424 392
3130.0 372 344 319 289 282 255 237 228 210 200
3170.0 189 184 164 164 154 140 130 134 127 105
3210.0 91 88 81 79 83 71 71 72 75 78
3250.0 76 80 64 77 77 66 56 60 50 50
3290.0 44 45 48 45 47 40 31 30 43 35
3330.0 42 29 31 44 45 36 31 35 42 47
3370.0 44 41 32 41 42 36 42 37 49 55
3410.0 50 49 51 56 57 49 60 67 62 65
3450.0 64 66 58 62 71 62 68 51 55 57
3490.0 58 49 51 50 59 53 46 58 40 44
3530.0 45 52 40 37 42 46 41 57 50 31
3570.0 43 47 45 44 20 30 16 49 30 50
3610.0 14 46 37 28 45 29 42 30 39 45
3650.0 47 47 52 44 63 46 67 44 78 70
3690.0 47 59 42 56 62 49 68 60 52 76
3730.0 51 47 31 84 9 72 48 84 74 53
3770.0 70 54 75 77 66 67 77 45 82 47
3810.0 77 76 52 58 42 66 54 79 62 68
3850.0 86 41 57 65 76 65 71 67 116 73
3890.0 104 91 72 57 89 114 86 73 76 109
3930.0 71 75 88 95 71 99 49 67 41 64
##END=
