##TITLE=1-Butanol, 3,3-dimethyl-
##JCAMP-DX=4.24
##DATA TYPE=INFRARED SPECTRUM
##ORIGIN=Sadtler Research Labs Under US-EPA Contract
##OWNER=NIST Standard Reference Data Program
##CAS REGISTRY NO=624-95-3
##MOLFORM=C 6 H 14 O
##XUNITS=1/CM
##YUNITS=ABSORBANCE
##XFACTOR=1.0
##YFACTOR=0.000172845
##DELTAX=4.0
##FIRSTX=450.0
##LASTX=3966.0
##FIRSTY=0.000000
##MAXX=3966
##MINX=450
##MAXY=1.72845
##MINY=0
##NPOINTS=880
##XYDATA=(X++(Y..Y))
450.0 0 165 188 193 136 214 155 205 106 197
490.0 204 203 174 184 240 220 254 228 244 208
530.0 254 199 194 226 214 230 158 187 192 188
570.0 175 230 182 171 220 176 186 179 193 171
610.0 190 196 187 194 195 208 178 209 176 204
650.0 180 191 196 189 208 197 192 185 214 199
690.0 195 193 195 199 190 200 187 188 180 202
730.0 182 183 190 202 209 214 222 210 214 206
770.0 207 203 209 206 192 199 193 203 187 198
810.0 196 204 210 216 259 262 299 297 312 310
850.0 318 302 294 295 280 284 267 274 253 266
890.0 264 272 286 313 356 386 437 465 491 492
930.0 477 455 436 433 429 451 499 581 671 788
970.0 878 968 1056 1142 1217 1213 1184 1126 1057 948
1010.0 862 883 1044 1357 1822 2339 2708 2959 3001 2927
1050.0 2558 2073 1825 1740 1691 1619 1487 1325 1145 955
1090.0 789 656 565 517 496 494 496 516 539 566
1130.0 580 587 586 571 552 525 512 500 506 510
1170.0 524 540 562 584 606 629 651 676 701 727
1210.0 755 789 833 884 944 1000 1054 1078 1085 1057
1250.0 993 899 800 704 616 558 506 480 465 471
1290.0 472 480 487 490 494 491 492 486 486 481
1330.0 480 480 494 525 574 676 835 1062 1300 1546
1370.0 1762 1786 1649 1496 1351 1229 1143 1076 967 884
1410.0 749 581 491 432 408 399 401 411 431 471
1450.0 534 626 759 904 1073 1263 1372 1389 1328 1218
1490.0 1012 802 599 433 324 261 227 205 191 183
1530.0 182 178 171 165 169 170 164 155 152 157
1570.0 156 150 152 155 148 155 149 147 147 147
1610.0 145 141 147 139 147 139 144 136 144 142
1650.0 138 127 139 140 137 137 136 138 138 136
1690.0 140 139 137 134 141 141 141 136 138 138
1730.0 138 135 134 140 135 139 135 137 132 134
1770.0 131 128 128 131 131 131 132 128 134 134
1810.0 136 136 133 133 133 132 132 133 132 130
1850.0 128 126 130 126 132 129 131 130 134 131
1890.0 134 135 132 135 135 138 135 134 132 131
1930.0 131 128 130 131 132 129 132 129 131 129
1970.0 128 129 129 131 128 130 131 136 136 137
2010.0 139 143 151 150 158 163 170 164 161 158
2050.0 160 156 149 151 156 162 161 156 150 144
2090.0 137 132 130 126 128 128 129 127 126 128
2130.0 125 123 124 123 119 121 119 120 116 118
2170.0 118 117 120 118 117 117 119 116 118 121
2210.0 121 122 119 121 121 125 123 120 120 119
2250.0 120 118 122 117 123 122 124 124 125 126
2290.0 126 123 122 121 121 112 112 114 113 112
2330.0 115 117 115 115 119 113 113 121 120 133
2370.0 142 141 137 137 132 133 135 134 137 137
2410.0 138 137 137 137 136 136 135 133 132 134
2450.0 132 135 133 133 132 133 133 133 131 130
2490.0 131 131 133 131 132 133 136 136 136 137
2530.0 134 141 138 140 140 142 144 141 144 143
2570.0 146 144 149 150 152 153 156 153 152 154
2610.0 155 156 155 161 160 164 167 174 180 175
2650.0 174 174 176 179 189 198 211 222 227 229
2690.0 227 226 221 227 228 232 242 253 262 272
2730.0 285 285 292 289 294 293 298 302 300 303
2770.0 303 303 307 310 316 323 342 359 382 401
2810.0 427 452 485 524 574 626 693 773 854 960
2850.0 1073 1236 1451 1745 2108 2497 2889 3254 3506 3675
2890.0 3832 3964 4073 4192 4334 4440 4482 4495 4502 4529
2930.0 4616 4793 5078 5568 6229 7096 8122 9204 10000 9588
2970.0 8740 7420 5569 3752 2445 1610 1105 790 587 467
3010.0 385 341 312 292 281 265 249 240 234 225
3050.0 219 214 208 205 202 198 198 197 193 195
3090.0 187 188 177 177 179 173 174 173 176 174
3130.0 177 173 173 175 175 173 173 176 176 183
3170.0 180 183 190 192 194 187 193 188 191 185
3210.0 184 188 196 187 186 186 176 173 164 151
3250.0 145 145 137 135 126 118 120 124 130 137
3290.0 141 141 146 141 143 139 134 143 139 138
3330.0 141 140 137 136 142 131 139 140 142 147
3370.0 142 147 148 149 142 144 139 141 129 137
3410.0 131 130 126 129 128 125 133 134 138 137
3450.0 143 147 143 149 138 144 138 134 132 138
3490.0 142 138 133 130 133 132 135 116 137 136
3530.0 123 132 130 112 125 133 119 121 129 132
3570.0 129 129 128 134 129 143 131 141 147 141
3610.0 154 146 141 153 162 169 193 222 277 342
3650.0 428 556 701 824 898 886 825 720 600 446
3690.0 307 247 206 186 171 152 143 146 143 158
3730.0 155 135 143 126 139 146 133 133 133 135
3770.0 135 137 143 131 137 140 145 143 136 141
3810.0 163 147 162 171 163 164 156 147 154 171
3850.0 159 175 160 167 178 179 177 166 167 141
3890.0 160 158 159 172 164 171 147 148 145 170
3930.0 157 164 185 158 129 148 138 144 119 111
##END=
