##TITLE=1-Adamantaneethanol
##JCAMP-DX=4.24
##DATA TYPE=INFRARED SPECTRUM
##ORIGIN=Sadtler Research Labs Under US-EPA Contract
##OWNER=NIST Standard Reference Data Program
##CAS REGISTRY NO=6240-11-5
##MOLFORM=C 12 H 20 O
##XUNITS=1/CM
##YUNITS=ABSORBANCE
##XFACTOR=1.0
##YFACTOR=0.000132086
##DELTAX=4.0
##FIRSTX=450.0
##LASTX=3966.0
##FIRSTY=0.033022
##MAXX=3966
##MINX=450
##MAXY=1.32086
##MINY=0
##NPOINTS=880
##XYDATA=(X++(Y..Y))
450.0 250 185 81 170 42 100 84 60 81 81
490.0 55 160 85 65 35 29 97 71 136 60
530.0 24 91 13 31 69 46 116 66 59 70
570.0 123 39 92 67 45 40 67 62 41 22
610.0 117 111 88 77 77 63 66 54 61 39
650.0 67 36 46 65 25 40 78 73 93 78
690.0 56 47 72 66 58 55 51 52 79 82
730.0 82 86 81 71 113 107 97 70 94 99
770.0 45 34 49 103 88 72 53 132 151 130
810.0 153 128 124 153 98 107 90 59 85 91
850.0 116 87 93 70 47 80 87 96 145 86
890.0 90 88 66 96 89 129 96 91 134 130
930.0 163 189 173 142 170 193 252 250 259 296
970.0 277 312 336 328 328 342 336 321 345 463
1010.0 615 676 667 685 675 717 725 765 772 799
1050.0 785 734 614 570 485 399 375 305 254 250
1090.0 236 371 421 445 406 341 271 226 189 188
1130.0 191 192 182 162 167 163 128 65 70 97
1170.0 107 135 133 166 164 157 159 130 124 119
1210.0 105 129 108 127 122 98 148 110 137 146
1250.0 155 149 162 149 189 222 180 168 171 179
1290.0 134 139 167 174 136 221 279 252 227 183
1330.0 180 195 235 244 269 272 281 266 261 244
1370.0 225 207 212 227 225 228 228 236 205 212
1410.0 192 163 186 161 181 217 227 261 351 498
1450.0 656 728 649 555 439 309 237 206 173 140
1490.0 112 100 86 67 55 55 128 89 104 127
1530.0 138 101 71 34 66 67 27 38 31 42
1570.0 42 29 29 34 55 32 32 22 4 37
1610.0 43 36 36 45 73 29 40 20 38 64
1650.0 23 25 18 56 28 31 34 32 38 26
1690.0 26 47 26 31 33 53 71 29 42 55
1730.0 41 37 20 19 38 35 16 23 33 12
1770.0 19 18 32 33 41 22 44 38 61 38
1810.0 61 70 50 50 52 52 43 41 47 49
1850.0 55 52 55 60 53 49 49 44 48 46
1890.0 46 51 48 49 47 49 53 49 50 56
1930.0 51 51 48 52 47 47 40 42 45 43
1970.0 41 44 42 44 44 52 51 49 46 48
2010.0 46 46 47 52 52 52 46 54 56 56
2050.0 54 55 51 47 53 54 54 50 51 54
2090.0 51 49 48 54 52 46 48 48 46 50
2130.0 48 45 42 47 42 37 41 42 42 46
2170.0 42 43 42 42 38 40 47 43 43 41
2210.0 36 38 42 42 37 35 32 29 33 34
2250.0 34 35 35 37 31 30 33 28 26 21
2290.0 21 15 14 14 14 8 17 11 15 25
2330.0 29 35 26 39 17 34 39 53 41 39
2370.0 34 22 22 17 23 26 33 29 30 35
2410.0 32 34 34 34 36 35 38 30 31 24
2450.0 22 25 27 24 24 20 27 24 24 26
2490.0 21 24 24 22 25 21 22 22 23 25
2530.0 22 24 27 28 34 34 37 36 34 38
2570.0 34 38 41 39 40 36 36 40 43 48
2610.0 41 46 44 44 57 64 67 73 75 89
2650.0 99 110 121 133 144 141 135 131 124 112
2690.0 93 80 70 57 60 58 60 62 59 59
2730.0 63 64 65 69 73 75 78 77 75 77
2770.0 79 79 85 88 99 108 120 134 142 160
2810.0 174 192 222 249 287 341 438 600 885 1324
2850.0 1877 2352 2519 2293 1826 1349 1069 980 1032 1192
2890.0 1525 2209 3390 5081 6971 8745 10000 9519 8259 6387
2930.0 4476 3245 2616 2082 1566 1136 813 607 490 423
2970.0 372 320 264 205 161 126 104 87 82 74
3010.0 71 68 70 58 54 57 49 46 52 47
3050.0 55 59 70 72 63 62 42 38 33 29
3090.0 29 22 26 17 16 15 12 20 13 14
3130.0 21 22 14 16 12 20 16 20 20 22
3170.0 18 19 24 18 22 18 24 21 22 30
3210.0 25 25 28 34 32 27 16 20 19 17
3250.0 19 19 27 18 15 25 26 26 20 14
3290.0 18 23 17 10 17 21 28 27 15 19
3330.0 23 9 21 17 22 22 31 26 35 38
3370.0 31 29 24 22 29 18 9 22 23 22
3410.0 22 12 15 22 19 13 10 21 25 26
3450.0 22 29 33 34 30 28 28 35 32 15
3490.0 21 27 22 37 32 27 24 22 27 31
3530.0 34 38 36 31 28 40 39 31 25 31
3570.0 41 34 37 31 28 29 18 43 22 49
3610.0 33 31 41 35 37 39 47 66 79 83
3650.0 114 137 212 231 271 228 212 131 102 63
3690.0 23 37 42 28 24 19 11 29 47 40
3730.0 24 16 15 14 5 5 3 20 20 15
3770.0 27 15 28 16 33 57 32 24 23 0
3810.0 34 11 36 1 51 35 31 14 13 38
3850.0 42 32 0 60 29 35 51 51 39 25
3890.0 28 35 30 36 20 44 13 39 48 7
3930.0 66 10 23 46 3 0 17 35 14 25
##END=
