##TITLE=Hexanoic acid, cyclohexyl ester
##JCAMP-DX=4.24
##DATA TYPE=INFRARED SPECTRUM
##ORIGIN=Sadtler Research Labs Under US-EPA Contract
##OWNER=NIST Standard Reference Data Program
##CAS REGISTRY NO=6243-10-3
##MOLFORM=C 12 H 22 O 2
##XUNITS=1/CM
##YUNITS=ABSORBANCE
##XFACTOR=1.0
##YFACTOR=0.000103464
##DELTAX=4.0
##FIRSTX=450.0
##LASTX=3966.0
##FIRSTY=0.000000
##MAXX=3966
##MINX=450
##MAXY=1.03464
##MINY=0
##NPOINTS=880
##XYDATA=(X++(Y..Y))
450.0 0 214 501 638 609 652 889 843 318 828
490.0 905 246 708 611 513 530 368 471 470 574
530.0 492 525 526 446 436 492 260 418 459 568
570.0 614 394 457 527 519 510 500 517 506 511
610.0 500 505 514 502 540 544 508 525 501 498
650.0 509 502 498 504 491 482 506 477 497 481
690.0 468 493 480 518 500 532 493 514 507 565
730.0 568 563 592 566 541 533 572 567 509 479
770.0 531 530 501 491 506 513 513 513 517 548
810.0 557 511 587 541 538 603 531 560 589 571
850.0 535 542 569 575 582 587 573 563 575 600
890.0 647 708 773 809 856 863 870 848 812 811
930.0 795 778 740 720 728 761 827 922 1059 1152
970.0 1182 1150 1064 982 850 805 754 746 805 896
1010.0 1069 1280 1500 1639 1588 1439 1459 1756 2130 2213
1050.0 1796 1286 1046 981 967 975 996 1042 1123 1273
1090.0 1486 1716 1883 1937 1907 1846 1772 1737 1801 1894
1130.0 1785 1509 1293 1283 1446 1756 2164 2658 3312 4164
1170.0 5044 5469 5294 4567 3762 3089 2624 2352 2249 2288
1210.0 2396 2527 2649 2801 2947 3151 3332 3441 3428 3316
1250.0 3103 2803 2489 2210 1989 1805 1668 1558 1484 1437
1290.0 1428 1416 1382 1336 1306 1290 1268 1252 1244 1237
1330.0 1251 1284 1330 1406 1457 1451 1466 1502 1475 1334
1370.0 1159 1057 1081 1093 1020 892 754 659 616 589
1410.0 580 607 607 668 723 801 848 907 983 1113
1450.0 1316 1496 1551 1466 1293 1111 912 740 638 542
1490.0 491 478 452 438 420 395 403 395 379 396
1530.0 385 390 375 359 361 381 376 352 373 384
1570.0 382 380 386 380 390 383 390 381 384 380
1610.0 377 383 369 379 367 387 376 381 389 393
1650.0 372 379 393 395 400 395 394 417 413 426
1690.0 462 501 517 569 620 678 704 751 850 1039
1730.0 1335 1951 3105 4681 6235 6743 5925 4236 2675 1699
1770.0 1155 896 765 684 626 578 532 503 471 457
1810.0 436 418 411 398 385 377 379 379 364 359
1850.0 361 365 356 350 343 331 337 336 336 338
1890.0 332 329 332 326 322 321 320 318 316 329
1930.0 319 322 321 316 320 318 323 323 317 313
1970.0 319 315 318 315 314 311 315 320 320 322
2010.0 323 324 322 322 320 318 319 319 320 324
2050.0 322 318 318 309 307 306 305 304 305 307
2090.0 304 300 306 303 299 302 299 300 296 295
2130.0 294 294 292 290 293 293 291 292 289 288
2170.0 290 288 288 289 289 287 289 288 285 284
2210.0 283 282 281 275 275 277 280 280 279 284
2250.0 280 281 276 278 277 273 275 276 276 276
2290.0 278 274 282 284 285 292 299 301 307 293
2330.0 290 302 272 265 263 275 309 290 246 219
2370.0 217 217 217 217 225 238 248 253 253 250
2410.0 251 246 248 243 239 245 239 233 236 233
2450.0 232 226 226 228 229 225 226 230 230 228
2490.0 226 229 224 222 223 219 218 225 221 225
2530.0 226 223 226 222 223 229 225 229 235 230
2570.0 232 233 232 229 229 228 238 242 243 244
2610.0 246 248 248 245 244 245 245 244 243 247
2650.0 253 258 268 286 295 295 288 287 282 281
2690.0 280 286 287 288 288 287 283 277 270 266
2730.0 269 272 269 273 276 271 270 273 282 286
2770.0 283 285 291 298 311 319 329 342 345 355
2810.0 365 373 381 403 414 444 473 514 574 672
2850.0 837 1152 1737 2511 3201 3487 3250 2760 2334 1983
2890.0 1699 1490 1422 1492 1662 1893 2226 2663 3273 4050
2930.0 4989 6083 7548 9325 10000 8935 6940 5395 4551 4122
2970.0 3790 3234 2470 1752 1277 971 773 650 567 505
3010.0 465 437 409 383 373 352 336 321 313 308
3050.0 290 291 295 281 287 286 279 278 276 263
3090.0 265 263 261 260 252 255 254 251 246 247
3130.0 247 248 248 249 260 261 263 259 257 258
3170.0 256 246 252 251 234 252 250 238 242 236
3210.0 238 240 242 240 243 238 243 243 239 232
3250.0 239 228 237 231 239 235 240 237 239 242
3290.0 233 243 242 253 241 233 241 247 253 242
3330.0 236 242 237 249 252 246 245 241 249 240
3370.0 244 239 242 253 247 259 253 252 246 245
3410.0 253 255 258 250 255 249 243 247 244 244
3450.0 232 227 246 252 259 259 286 285 280 260
3490.0 258 248 233 235 221 241 241 224 248 238
3530.0 251 240 232 229 231 236 234 230 245 230
3570.0 217 238 235 236 227 227 239 240 249 239
3610.0 242 243 224 228 229 244 243 241 241 239
3650.0 241 239 250 236 256 237 244 240 230 245
3690.0 234 257 229 247 263 252 254 246 263 254
3730.0 256 255 236 231 229 242 229 274 252 239
3770.0 244 236 260 243 249 256 261 261 249 241
3810.0 230 266 255 257 235 269 258 232 246 257
3850.0 284 270 246 273 290 263 274 259 268 275
3890.0 258 256 311 284 242 267 278 281 273 241
3930.0 259 216 284 254 245 290 290 229 285 307
##END=
