##TITLE=Aniline, N,N-diallyl-
##JCAMP-DX=4.24
##DATA TYPE=INFRARED SPECTRUM
##ORIGIN=Sadtler Research Labs Under US-EPA Contract
##OWNER=NIST Standard Reference Data Program
##CAS REGISTRY NO=6247-00-3
##MOLFORM=C 12 H 15 N
##XUNITS=1/CM
##YUNITS=ABSORBANCE
##XFACTOR=1.0
##YFACTOR=0.000058572
##DELTAX=4.0
##FIRSTX=450.0
##LASTX=3966.0
##FIRSTY=0.019622
##MAXX=3966
##MINX=450
##MAXY=0.58572
##MINY=0
##NPOINTS=880
##XYDATA=(X++(Y..Y))
450.0 335 238 214 192 269 240 414 106 294 284
490.0 388 193 368 459 624 712 558 662 489 722
530.0 411 469 613 642 648 521 639 509 457 270
570.0 297 108 218 168 217 197 31 154 176 239
610.0 190 236 243 245 261 160 188 258 307 326
650.0 419 362 471 495 604 716 832 1089 1442 1976
690.0 2441 2462 1975 1499 996 730 535 485 486 469
730.0 705 1043 1727 2598 3500 3540 2818 2043 1278 845
770.0 531 445 305 246 180 184 112 72 137 88
810.0 108 77 131 69 112 116 130 147 157 209
850.0 159 277 301 373 404 461 479 466 512 548
890.0 640 671 833 968 1272 1870 2927 4095 4598 4211
930.0 3192 2362 1977 1958 1872 1866 1813 1686 1519 1263
970.0 1081 987 1118 1433 1904 2238 2277 1911 1373 984
1010.0 746 679 592 624 672 820 993 1086 1014 817
1050.0 648 526 510 503 542 503 510 493 472 463
1090.0 447 507 508 601 652 740 779 828 848 850
1130.0 886 890 916 907 974 1047 1162 1287 1442 1616
1170.0 1805 2044 2185 2249 2180 2003 1742 1515 1397 1426
1210.0 1645 2035 2719 3637 4752 5478 5466 4645 3445 2487
1250.0 1959 1774 1623 1478 1230 1068 922 879 905 958
1290.0 1025 1046 1090 1096 1204 1329 1521 1681 1844 2021
1330.0 2174 2366 2548 2759 2874 2979 3009 2973 2826 2604
1370.0 2408 2298 2381 2445 2406 2147 1820 1478 1261 1243
1410.0 1281 1471 1662 1752 1611 1373 1147 1160 1207 1241
1450.0 1245 1197 1182 1143 1134 1113 1139 1199 1379 1708
1490.0 2491 4131 6611 9297 10000 8676 5754 3035 1629 1080
1530.0 799 658 583 541 542 562 570 576 628 726
1570.0 876 1124 1453 1868 2489 3555 5181 7053 7920 7480
1610.0 5857 4075 2695 1810 1285 1060 1078 1218 1348 1323
1650.0 1052 719 490 366 312 294 250 257 226 233
1690.0 269 275 254 227 210 199 186 148 145 145
1730.0 129 117 135 156 160 175 182 178 155 139
1770.0 121 90 97 78 76 67 76 87 93 118
1810.0 134 145 156 181 201 241 294 366 417 444
1850.0 419 338 251 175 141 100 101 91 85 75
1890.0 88 108 120 151 182 215 215 204 182 173
1930.0 171 156 133 95 79 63 60 62 67 66
1970.0 79 84 93 100 93 93 70 64 58 47
2010.0 33 31 29 15 16 18 25 12 12 18
2050.0 25 26 4 3 2 21 17 18 19 24
2090.0 12 3 8 6 20 16 23 14 20 24
2130.0 25 27 31 39 30 28 17 22 8 16
2170.0 20 15 14 14 17 15 22 13 19 14
2210.0 6 11 9 19 16 21 20 26 20 23
2250.0 27 33 35 42 49 40 40 42 43 42
2290.0 52 63 61 72 69 92 68 68 58 50
2330.0 43 24 39 1 59 82 72 76 52 13
2370.0 37 49 56 65 66 57 39 40 33 44
2410.0 45 40 45 36 40 36 43 39 47 42
2450.0 47 50 50 45 45 47 41 39 31 35
2490.0 29 38 47 34 51 57 62 57 62 74
2530.0 67 62 66 76 74 92 86 94 99 100
2570.0 102 97 97 96 102 100 105 108 98 103
2610.0 101 104 86 86 77 81 72 93 86 70
2650.0 69 65 87 73 86 92 110 105 99 96
2690.0 97 110 104 106 99 104 98 101 110 107
2730.0 114 119 119 136 143 145 158 172 179 187
2770.0 198 223 242 264 290 321 347 407 472 548
2810.0 666 772 904 1009 1091 1131 1172 1187 1190 1216
2850.0 1215 1224 1222 1234 1243 1207 1153 1115 1081 1063
2890.0 1082 1107 1155 1220 1287 1344 1401 1443 1490 1525
2930.0 1508 1519 1467 1398 1286 1140 1019 912 825 767
2970.0 778 860 1057 1368 1683 1823 1603 1243 1030 1042
3010.0 1280 1530 1619 1625 1505 1490 1562 1695 1763 1821
3050.0 1765 1670 1610 1748 2154 2597 2793 2785 2690 2719
3090.0 2942 2824 2439 1957 1394 964 691 507 419 318
3130.0 250 194 147 136 120 95 110 91 90 73
3170.0 65 87 45 59 49 53 55 70 58 62
3210.0 42 62 62 35 55 52 42 38 24 36
3250.0 44 34 29 37 50 48 56 76 48 48
3290.0 32 35 40 15 51 50 68 49 39 42
3330.0 32 51 41 53 33 69 51 40 43 44
3370.0 37 41 54 60 76 58 76 60 51 47
3410.0 65 79 68 85 88 90 93 102 82 79
3450.0 69 91 98 76 64 60 69 37 50 55
3490.0 59 42 57 52 60 66 44 45 26 52
3530.0 18 27 35 45 44 45 63 37 57 44
3570.0 46 20 42 33 48 45 72 59 44 37
3610.0 25 39 45 56 36 17 45 35 44 39
3650.0 54 40 26 59 26 50 42 44 37 38
3690.0 12 14 4 16 29 14 35 42 53 2
3730.0 2 27 27 20 39 15 2 5 2 70
3770.0 24 81 82 11 40 24 39 22 10 34
3810.0 55 46 52 51 29 42 43 32 0 11
3850.0 3 23 41 47 79 38 50 36 67 76
3890.0 11 34 38 31 14 64 80 33 76 112
3930.0 68 43 61 15 105 99 22 2 37 103
##END=
