##TITLE=Benzene, 1-chloro-3-fluoro-
##JCAMP-DX=4.24
##DATA TYPE=INFRARED SPECTRUM
##ORIGIN=Sadtler Research Labs Under US-EPA Contract
##OWNER=NIST Standard Reference Data Program
##CAS REGISTRY NO=625-98-9
##MOLFORM=C 6 H 4 Cl F
##XUNITS=1/CM
##YUNITS=ABSORBANCE
##XFACTOR=1.0
##YFACTOR=0.000109174
##DELTAX=4.0
##FIRSTX=450.0
##LASTX=3966.0
##FIRSTY=0.020088
##MAXX=3966
##MINX=450
##MAXY=1.09174
##MINY=0
##NPOINTS=880
##XYDATA=(X++(Y..Y))
450.0 184 316 248 173 111 89 76 29 13 9
490.0 21 60 67 58 145 318 417 351 443 414
530.0 230 110 59 38 17 25 10 17 23 20
570.0 25 7 21 26 0 24 17 18 21 24
610.0 21 26 38 47 26 35 47 51 59 80
650.0 153 285 480 691 800 1096 1904 1103 948 769
690.0 675 564 308 144 87 58 46 30 23 24
730.0 16 23 36 48 82 197 436 802 1220 1617
770.0 2133 3563 1949 1642 1363 877 457 196 82 53
810.0 51 53 57 54 52 47 56 144 313 579
850.0 844 1046 1393 2345 1344 1777 2674 3714 5084 6103
890.0 5766 4831 3792 1456 308 109 89 81 66 55
930.0 37 31 25 21 19 16 18 28 30 30
970.0 19 18 22 24 30 48 91 169 197 207
1010.0 222 173 94 45 33 28 25 30 61 146
1050.0 372 743 983 1037 1140 1193 973 941 970 1072
1090.0 1104 830 587 450 300 136 63 53 69 74
1130.0 71 61 67 72 104 159 138 124 150 97
1170.0 41 24 26 40 61 85 140 221 329 511
1210.0 783 1162 1818 2469 2126 2068 2663 1661 893 682
1250.0 673 1044 1770 1980 1814 2207 1783 774 412 323
1290.0 268 234 237 181 114 75 59 69 96 111
1330.0 119 125 96 65 54 43 33 22 13 12
1370.0 9 4 10 15 28 52 87 125 145 165
1410.0 248 405 678 975 1296 1541 1269 1199 1222 724
1450.0 456 449 630 1041 1623 2674 4485 5662 5294 4815
1490.0 4508 2000 632 343 255 264 354 407 477 548
1530.0 555 481 398 261 224 229 259 306 444 649
1570.0 957 1320 1710 2294 3233 4714 6901 9412 10000 7877
1610.0 4725 1968 702 323 178 130 94 75 74 66
1650.0 52 39 56 61 67 52 48 47 33 18
1690.0 19 22 24 40 71 107 134 123 133 155
1730.0 129 97 98 95 85 83 97 96 94 94
1770.0 93 76 56 33 21 13 3 1 1 7
1810.0 6 11 14 16 17 33 63 95 109 102
1850.0 97 75 33 12 3 2 9 12 17 20
1890.0 23 22 24 27 36 55 79 105 111 101
1930.0 104 93 55 33 28 22 21 19 13 10
1970.0 8 6 4 4 4 1 3 5 10 12
2010.0 15 14 8 7 5 6 8 7 9 9
2050.0 9 8 6 7 5 6 7 10 8 12
2090.0 16 23 33 46 58 69 74 68 53 36
2130.0 22 13 16 18 21 25 27 26 25 20
2170.0 13 9 7 5 4 1 2 3 3 1
2210.0 5 3 5 6 5 7 6 6 5 5
2250.0 3 4 4 7 8 12 14 18 20 22
2290.0 19 19 16 17 24 29 30 37 39 32
2330.0 25 23 24 24 41 41 36 30 38 42
2370.0 44 50 46 38 26 19 14 13 9 12
2410.0 14 15 12 15 16 16 16 22 26 34
2450.0 34 36 35 34 31 35 46 60 74 86
2490.0 82 72 59 36 16 10 6 5 10 12
2530.0 12 10 7 11 16 23 26 26 25 27
2570.0 21 21 20 23 26 28 27 24 16 13
2610.0 11 12 12 11 10 12 14 15 13 16
2650.0 19 19 20 23 22 19 17 23 25 34
2690.0 38 44 49 48 43 34 32 28 28 25
2730.0 26 24 21 22 19 18 15 10 12 12
2770.0 9 8 10 10 10 9 11 13 13 14
2810.0 16 17 18 20 20 19 18 15 11 14
2850.0 12 13 16 19 18 18 18 12 14 13
2890.0 12 13 12 9 10 6 4 6 5 4
2930.0 7 6 6 7 11 9 11 11 8 6
2970.0 6 6 5 8 9 13 15 15 17 17
3010.0 18 21 23 31 42 57 76 98 108 115
3050.0 117 117 110 114 134 172 224 300 350 362
3090.0 397 350 297 223 125 75 55 36 20 14
3130.0 9 8 8 6 7 7 4 4 1 2
3170.0 1 6 2 2 5 8 4 6 6 6
3210.0 4 7 6 4 9 7 10 7 10 9
3250.0 10 8 7 12 13 11 10 10 11 12
3290.0 8 7 10 9 9 12 10 13 11 7
3330.0 13 8 10 10 12 10 7 15 11 12
3370.0 9 11 10 9 8 6 11 10 7 8
3410.0 8 10 10 8 7 11 6 9 10 9
3450.0 11 10 9 5 6 13 12 11 9 10
3490.0 13 9 13 11 9 8 11 16 12 11
3530.0 12 14 9 13 10 14 13 14 11 11
3570.0 14 15 9 8 17 19 16 15 11 15
3610.0 19 18 15 21 16 11 17 16 11 9
3650.0 10 11 8 10 13 7 7 8 8 13
3690.0 15 15 16 18 21 12 16 19 23 21
3730.0 23 15 23 21 10 15 17 25 23 19
3770.0 7 20 24 26 23 16 17 17 13 24
3810.0 17 8 15 6 9 16 10 5 13 16
3850.0 13 18 14 7 12 18 18 18 9 11
3890.0 20 18 6 14 13 22 11 19 10 22
3930.0 10 12 17 17 22 20 12 15 19 25
##END=
