##TITLE=Furan, 2,5-dimethyl-
##JCAMP-DX=4.24
##DATA TYPE=INFRARED SPECTRUM
##ORIGIN=Sadtler Research Labs Under US-EPA Contract
##OWNER=NIST Standard Reference Data Program
##CAS REGISTRY NO=625-86-5
##MOLFORM=C 6 H 8 O
##XUNITS=1/CM
##YUNITS=ABSORBANCE
##XFACTOR=1.0
##YFACTOR=0.000065637
##DELTAX=4.0
##FIRSTX=450.0
##LASTX=3966.0
##FIRSTY=0.003151
##MAXX=3966
##MINX=450
##MAXY=0.65637
##MINY=0
##NPOINTS=880
##XYDATA=(X++(Y..Y))
450.0 48 97 90 95 104 37 22 64 84 60
490.0 67 80 41 87 64 56 91 69 144 92
530.0 134 136 137 82 112 128 138 103 131 123
570.0 122 117 113 148 125 171 167 221 219 228
610.0 204 181 210 202 186 165 108 112 139 116
650.0 129 129 146 111 101 141 137 147 176 186
690.0 195 172 161 160 126 114 110 101 115 124
730.0 125 151 205 325 570 985 1629 2439 3186 3757
770.0 4357 5596 10000 4659 4350 4112 3460 2524 1582 890
810.0 461 242 164 135 123 110 110 112 104 105
850.0 104 101 102 110 115 119 129 162 197 244
890.0 313 424 566 713 909 1117 1301 1458 1490 1445
930.0 1557 1571 1433 1194 1048 1047 1011 916 906 835
970.0 859 730 606 604 696 867 1165 1636 2114 2753
1010.0 3482 4416 4632 3406 2921 3733 3075 2076 1395 939
1050.0 619 412 295 224 190 166 146 131 121 109
1090.0 105 98 99 103 101 102 102 105 101 101
1130.0 107 111 117 128 141 163 184 208 232 243
1170.0 260 277 293 331 400 541 765 1116 1606 2233
1210.0 2835 3390 3908 4517 4944 5132 5392 5149 4930 4001
1250.0 3313 2744 1798 1086 752 610 518 467 436 425
1290.0 423 422 390 378 372 400 413 433 437 467
1330.0 516 580 692 750 788 793 763 840 858 782
1370.0 714 713 757 798 842 700 709 755 610 479
1410.0 487 466 570 603 783 869 998 967 1139 1330
1450.0 1617 1659 1383 1270 1301 1425 1157 927 663 555
1490.0 430 349 259 300 193 329 366 381 413 520
1530.0 705 773 997 1181 1587 1821 2110 2468 2856 3197
1570.0 3195 3063 2805 2818 2484 1969 1415 1097 944 987
1610.0 1116 1291 1442 1625 1702 1721 1593 1245 1022 888
1650.0 902 451 509 349 294 168 207 130 201 91
1690.0 219 205 210 174 282 267 252 171 202 172
1730.0 183 100 129 108 152 129 128 141 148 184
1770.0 202 186 235 229 194 193 186 260 258 229
1810.0 207 176 125 114 80 71 72 45 64 40
1850.0 58 37 48 43 48 32 37 29 30 34
1890.0 29 38 32 28 31 31 47 25 52 38
1930.0 38 38 39 51 53 44 47 56 57 69
1970.0 69 78 89 92 95 115 111 98 87 83
2010.0 76 60 57 58 51 46 42 46 47 44
2050.0 42 43 40 42 53 45 44 48 45 35
2090.0 36 31 24 21 17 17 14 14 18 19
2130.0 23 21 23 29 29 29 31 34 36 34
2170.0 39 41 40 43 47 54 56 57 61 61
2210.0 62 67 81 101 121 130 144 142 137 114
2250.0 100 94 94 90 81 74 63 55 42 38
2290.0 44 55 65 72 79 80 78 78 72 72
2330.0 63 59 47 44 57 82 63 79 81 66
2370.0 64 79 83 83 84 78 74 74 78 83
2410.0 90 98 99 101 109 103 95 96 96 98
2450.0 98 99 105 99 94 85 80 76 65 58
2490.0 53 47 43 39 35 33 34 36 37 40
2530.0 37 42 41 40 42 47 43 46 45 47
2570.0 49 50 50 56 63 80 93 100 106 109
2610.0 95 81 67 50 38 32 27 24 23 27
2650.0 24 22 18 23 29 31 36 47 51 47
2690.0 45 51 56 51 47 50 54 62 59 71
2730.0 92 122 168 219 268 281 298 296 303 246
2770.0 187 160 166 163 164 179 192 206 225 240
2810.0 254 267 284 295 318 349 377 415 479 552
2850.0 650 779 965 1191 1380 1497 1632 1784 1941 2084
2890.0 2232 2316 2289 2230 2221 2170 2083 2200 2794 3874
2930.0 4762 4764 5149 5076 5521 4559 3472 3232 4239 2876
2970.0 2529 2473 2437 2439 2386 2166 1968 1935 1864 1592
3010.0 1225 936 752 639 560 518 496 496 519 542
3050.0 566 583 596 593 580 557 541 525 509 511
3090.0 542 625 783 1030 1281 1336 1346 1310 1222 1034
3130.0 668 396 269 208 167 141 128 107 103 94
3170.0 86 88 82 83 85 84 65 64 65 60
3210.0 59 50 51 56 59 61 62 69 69 68
3250.0 69 57 58 45 47 58 58 50 49 49
3290.0 56 50 49 58 60 58 54 58 53 48
3330.0 59 57 58 70 60 64 59 60 64 69
3370.0 75 75 69 68 78 78 82 78 79 79
3410.0 74 86 77 82 69 69 77 81 83 87
3450.0 95 66 76 79 93 79 78 85 81 89
3490.0 81 85 86 107 114 90 81 93 94 119
3530.0 101 91 107 100 136 131 85 155 111 184
3570.0 155 124 126 138 155 138 138 175 116 128
3610.0 136 125 118 104 139 41 128 110 117 130
3650.0 73 130 90 118 108 67 115 32 129 130
3690.0 60 103 123 99 128 109 101 116 144 170
3730.0 119 98 115 157 0 119 30 159 119 118
3770.0 129 121 130 145 147 136 150 144 78 133
3810.0 158 160 134 97 178 138 129 64 169 145
3850.0 155 20 139 141 153 103 144 134 170 111
3890.0 188 122 176 128 159 150 184 155 184 164
3930.0 145 150 144 163 170 192 177 185 179 177
##END=
