##TITLE=2-Heptanol, 2-methyl-
##JCAMP-DX=4.24
##DATA TYPE=INFRARED SPECTRUM
##ORIGIN=Sadtler Research Labs Under US-EPA Contract
##OWNER=NIST Standard Reference Data Program
##CAS REGISTRY NO=625-25-2
##MOLFORM=C 8 H 18 O
##XUNITS=1/CM
##YUNITS=ABSORBANCE
##XFACTOR=1.0
##YFACTOR=0.000057840
##DELTAX=4.0
##FIRSTX=450.0
##LASTX=3966.0
##FIRSTY=0.002256
##MAXX=3966
##MINX=450
##MAXY=0.5784
##MINY=0
##NPOINTS=880
##XYDATA=(X++(Y..Y))
450.0 39 37 47 57 54 50 46 37 45 53
490.0 56 36 20 60 25 42 40 24 4 20
530.0 81 2 48 21 69 63 76 74 36 24
570.0 45 34 15 32 43 20 30 50 31 38
610.0 20 48 47 50 48 52 59 61 51 50
650.0 55 50 47 46 47 73 55 63 53 54
690.0 77 74 83 89 103 113 123 138 156 183
730.0 190 181 179 184 202 218 246 268 276 283
770.0 251 215 172 119 113 86 84 76 72 63
810.0 65 62 61 63 78 78 88 105 114 127
850.0 141 150 159 178 190 221 253 290 333 376
890.0 438 527 647 822 1018 1215 1350 1421 1430 1412
930.0 1373 1270 1096 886 685 524 433 373 360 354
970.0 348 344 326 302 283 256 222 212 205 186
1010.0 180 176 171 180 185 202 226 255 280 306
1050.0 332 368 421 484 548 609 666 715 749 794
1090.0 835 873 899 891 874 866 896 976 1117 1291
1130.0 1444 1562 1620 1620 1612 1628 1662 1715 1776 1786
1170.0 1738 1632 1482 1332 1200 1109 1062 1050 1082 1151
1210.0 1239 1317 1368 1373 1334 1285 1211 1140 1088 1021
1250.0 949 880 833 798 779 778 781 790 799 813
1290.0 813 812 822 837 855 878 886 891 905 908
1330.0 933 961 967 955 936 936 983 1121 1391 1728
1370.0 2067 2307 2438 2402 2153 1770 1323 869 585 451
1410.0 365 347 326 315 329 371 398 476 547 662
1450.0 812 990 1193 1346 1447 1438 1298 1078 837 608
1490.0 441 314 238 191 184 138 118 112 98 93
1530.0 75 97 81 75 48 60 65 73 34 35
1570.0 43 39 40 27 36 39 42 37 43 39
1610.0 39 38 40 45 32 37 45 40 44 51
1650.0 36 59 24 41 33 56 40 47 43 50
1690.0 40 51 41 44 34 34 33 37 23 26
1730.0 29 38 31 27 28 30 23 23 24 31
1770.0 28 34 27 25 28 30 33 25 30 30
1810.0 29 27 31 20 28 24 20 23 16 26
1850.0 28 16 23 14 20 14 13 16 15 14
1890.0 12 11 17 15 7 14 14 12 10 12
1930.0 17 5 13 13 9 8 8 6 7 5
1970.0 7 8 7 1 7 7 9 7 8 7
2010.0 17 15 14 14 15 15 15 15 24 21
2050.0 20 24 25 24 13 15 15 16 15 24
2090.0 12 16 15 10 17 17 12 15 16 6
2130.0 15 16 14 15 15 15 12 7 7 7
2170.0 13 15 15 24 14 14 16 15 15 22
2210.0 15 20 16 16 16 16 16 16 24 16
2250.0 23 22 15 21 15 24 23 17 24 33
2290.0 33 33 33 42 42 45 44 44 45 29
2330.0 38 29 26 19 19 36 45 45 23 4
2370.0 0 1 1 5 6 15 15 23 22 15
2410.0 14 14 14 14 14 14 15 15 15 15
2450.0 15 14 14 15 14 14 12 7 7 7
2490.0 7 7 7 7 4 6 6 14 16 22
2530.0 22 23 27 20 15 22 21 31 30 30
2570.0 38 29 32 31 20 28 22 26 29 30
2610.0 37 38 38 39 39 37 38 41 36 41
2650.0 47 53 51 54 63 62 62 62 70 74
2690.0 73 69 71 61 71 71 77 87 95 105
2730.0 114 122 140 138 148 138 130 122 117 120
2770.0 113 120 129 137 155 172 192 217 240 277
2810.0 306 345 371 417 477 538 632 772 957 1216
2850.0 1542 1966 2443 2886 3274 3553 3714 3870 3941 3797
2890.0 3650 3431 3324 3425 3682 4066 4561 5136 5847 6700
2930.0 7616 8507 9100 9217 8735 8023 7386 7215 7818 8947
2970.0 9823 10000 9414 7925 6185 4455 3002 1945 1300 910
3010.0 678 537 445 388 341 321 291 264 237 220
3050.0 195 177 167 160 158 142 140 134 134 124
3090.0 129 119 117 117 108 99 99 100 91 92
3130.0 85 81 92 82 82 82 82 82 82 91
3170.0 107 98 105 115 108 109 103 109 95 99
3210.0 81 81 81 72 64 55 52 54 42 34
3250.0 26 29 24 29 21 12 12 22 12 12
3290.0 13 6 12 7 13 12 6 11 13 20
3330.0 13 12 10 13 9 13 13 7 6 10
3370.0 12 9 20 28 38 19 31 27 28 28
3410.0 38 32 37 20 34 36 28 28 33 34
3450.0 27 17 32 37 26 22 19 8 18 16
3490.0 26 10 19 16 13 16 4 16 12 12
3530.0 10 7 7 1 13 4 17 7 27 24
3570.0 21 20 18 21 32 45 30 20 33 51
3610.0 62 98 109 138 194 304 413 523 612 615
3650.0 523 389 280 196 127 110 77 56 32 42
3690.0 24 28 31 20 22 35 28 16 18 35
3730.0 25 33 26 17 25 5 1 0 0 9
3770.0 0 3 21 5 10 22 21 28 34 20
3810.0 21 25 15 28 15 35 31 46 28 31
3850.0 43 45 22 31 26 31 40 45 41 46
3890.0 32 39 32 31 15 20 7 7 0 1
3930.0 14 13 18 29 29 17 10 11 13 16
##END=
