##TITLE=2-Pentanol, 2,4-dimethyl-
##JCAMP-DX=4.24
##DATA TYPE=INFRARED SPECTRUM
##ORIGIN=Sadtler Research Labs Under US-EPA Contract
##OWNER=NIST Standard Reference Data Program
##CAS REGISTRY NO=625-06-9
##MOLFORM=C 7 H 16 O
##XUNITS=1/CM
##YUNITS=ABSORBANCE
##XFACTOR=1.0
##YFACTOR=0.000054935
##DELTAX=4.0
##FIRSTX=450.0
##LASTX=3966.0
##FIRSTY=0.026753
##MAXX=3966
##MINX=450
##MAXY=0.54935
##MINY=0
##NPOINTS=880
##XYDATA=(X++(Y..Y))
450.0 487 158 82 162 125 112 116 158 171 133
490.0 91 46 119 62 70 63 78 118 124 153
530.0 72 126 152 282 133 276 236 162 122 136
570.0 73 62 81 69 63 78 60 60 83 84
610.0 87 60 77 79 72 78 78 90 61 77
650.0 78 98 98 73 70 69 102 71 104 76
690.0 112 92 60 90 18 138 148 110 133 102
730.0 93 102 136 208 138 216 244 280 301 276
770.0 238 180 153 123 110 99 102 86 88 90
810.0 89 105 110 130 123 144 149 162 167 183
850.0 193 240 279 328 331 342 337 356 405 503
890.0 646 825 950 1017 1010 896 748 642 577 582
930.0 653 720 817 908 957 931 872 730 596 474
970.0 403 369 358 360 358 347 302 275 233 201
1010.0 200 186 190 192 214 220 236 258 284 318
1050.0 357 418 472 543 611 679 738 787 808 826
1090.0 834 827 833 809 805 786 805 863 961 1109
1130.0 1252 1401 1495 1553 1567 1570 1596 1672 1822 1996
1170.0 2209 2320 2369 2273 2079 1839 1577 1337 1129 1007
1210.0 932 905 883 889 896 917 931 950 968 965
1250.0 961 938 911 864 840 799 784 770 763 751
1290.0 741 740 729 744 758 801 819 860 874 869
1330.0 861 835 844 835 918 1039 1287 1577 1956 2314
1370.0 2547 2657 2590 2460 2164 1909 1553 1222 899 649
1410.0 493 434 381 362 367 400 445 468 579 649
1450.0 809 897 1118 1238 1350 1440 1388 1289 1009 815
1490.0 613 424 306 221 198 120 131 111 77 90
1530.0 63 93 32 69 40 73 36 51 19 47
1570.0 41 62 29 58 55 62 54 68 60 68
1610.0 77 88 79 102 76 96 52 59 64 56
1650.0 34 60 38 72 63 44 69 71 64 85
1690.0 102 125 127 143 168 200 211 190 186 177
1730.0 151 143 132 108 123 118 102 114 102 108
1770.0 97 99 86 94 77 98 61 91 78 70
1810.0 61 59 51 38 38 17 39 17 39 19
1850.0 34 27 32 25 24 18 14 30 16 25
1890.0 17 17 18 17 16 11 17 13 12 16
1930.0 11 17 11 16 6 15 10 15 11 16
1970.0 11 15 12 15 15 17 15 9 17 10
2010.0 11 11 16 6 12 12 14 12 8 14
2050.0 10 13 11 11 14 11 11 12 12 5
2090.0 15 11 18 18 18 18 18 23 23 26
2130.0 25 29 24 24 24 22 20 21 22 19
2170.0 19 15 19 19 22 25 23 23 26 25
2210.0 24 25 17 24 18 20 19 17 16 19
2250.0 21 20 23 23 27 26 29 30 32 37
2290.0 35 38 40 38 40 38 37 37 28 32
2330.0 35 25 34 40 21 38 34 51 40 40
2370.0 41 49 38 35 37 38 32 30 29 34
2410.0 30 28 30 26 26 23 30 26 32 32
2450.0 36 34 34 35 32 34 32 33 31 31
2490.0 31 30 32 29 32 33 29 30 32 24
2530.0 35 31 30 31 37 38 35 40 36 44
2570.0 48 49 50 54 60 58 67 63 63 62
2610.0 68 65 67 68 71 73 72 75 70 68
2650.0 67 71 68 73 72 66 70 72 76 76
2690.0 77 76 81 87 97 107 115 137 154 171
2730.0 180 189 183 176 165 153 146 152 153 158
2770.0 162 164 171 178 183 191 203 219 237 262
2810.0 287 324 352 393 429 478 544 613 698 790
2850.0 880 958 1074 1249 1535 1978 2451 2861 3109 3247
2890.0 3222 3163 3172 3344 3633 3997 4362 4592 4739 4771
2930.0 4834 4860 4950 5009 5169 5547 6275 7490 8719 9710
2970.0 10000 9877 8903 7609 6193 4752 3420 2382 1641 1132
3010.0 817 595 451 355 288 253 221 193 176 172
3050.0 160 151 146 146 145 144 142 139 136 133
3090.0 135 127 127 119 120 118 115 113 117 112
3130.0 115 110 118 120 124 129 122 120 125 133
3170.0 129 132 139 142 146 145 149 142 146 141
3210.0 140 124 122 113 101 95 88 88 85 78
3250.0 73 73 63 60 54 60 61 54 48 51
3290.0 53 43 52 45 45 41 42 47 45 45
3330.0 43 42 48 44 50 64 62 60 62 65
3370.0 72 60 71 70 73 74 76 78 77 77
3410.0 82 75 78 71 68 81 72 71 66 67
3450.0 73 62 67 67 68 63 65 61 51 53
3490.0 65 64 63 55 55 66 58 76 63 62
3530.0 67 77 80 88 90 97 90 86 109 66
3570.0 88 93 87 96 73 78 48 97 56 87
3610.0 41 87 92 145 241 300 451 529 580 576
3650.0 437 361 307 211 203 79 116 20 93 65
3690.0 50 29 53 51 44 32 30 33 29 38
3730.0 23 4 13 61 11 49 0 33 40 49
3770.0 47 41 71 39 53 61 90 31 57 3
3810.0 90 43 60 42 32 69 38 37 61 63
3850.0 49 35 52 67 58 48 62 65 78 32
3890.0 90 35 71 16 30 66 77 64 29 59
3930.0 48 37 60 45 46 79 60 66 52 47
##END=
