##TITLE=2-Pentene, 2-methyl-
##JCAMP-DX=4.24
##DATA TYPE=INFRARED SPECTRUM
##ORIGIN=Sadtler Research Labs Under US-EPA Contract
##OWNER=NIST Standard Reference Data Program
##CAS REGISTRY NO=625-27-4
##MOLFORM=C 6 H 12
##XUNITS=1/CM
##YUNITS=ABSORBANCE
##XFACTOR=1.0
##YFACTOR=0.000059134
##DELTAX=4.0
##FIRSTX=450.0
##LASTX=3966.0
##FIRSTY=0.006919
##MAXX=3966
##MINX=450
##MAXY=0.59134
##MINY=0
##NPOINTS=880
##XYDATA=(X++(Y..Y))
450.0 117 137 137 143 124 115 94 101 86 67
490.0 69 79 88 96 120 125 149 120 130 126
530.0 100 80 54 103 60 77 43 15 25 25
570.0 42 30 31 6 21 21 20 15 13 15
610.0 32 25 31 33 43 47 20 18 11 16
650.0 14 17 23 26 2 71 47 50 64 77
690.0 87 94 78 83 77 92 93 100 117 135
730.0 162 199 215 238 236 220 208 180 170 156
770.0 152 143 160 169 189 202 228 269 327 375
810.0 431 502 545 607 667 762 770 739 644 564
850.0 484 411 340 292 264 245 249 260 293 336
890.0 380 422 447 477 458 427 408 368 309 278
930.0 261 269 286 312 348 390 422 462 472 496
970.0 509 497 475 453 437 411 394 370 353 344
1010.0 333 338 338 331 344 352 367 384 417 469
1050.0 521 571 606 629 638 632 605 529 479 432
1090.0 405 380 378 403 466 542 599 626 627 610
1130.0 565 489 394 323 286 278 269 268 269 269
1170.0 260 260 271 274 280 308 346 389 418 435
1210.0 444 453 442 398 364 345 340 335 345 343
1250.0 344 344 345 328 310 304 302 300 303 320
1290.0 372 452 529 591 610 605 597 565 484 407
1330.0 358 345 352 369 381 426 492 583 707 879
1370.0 1083 1286 1435 1455 1525 1519 1340 1078 864 713
1410.0 632 587 611 669 765 875 1010 1151 1317 1477
1450.0 1592 1628 1646 1657 1528 1380 1255 1106 935 768
1490.0 636 520 434 370 294 291 251 234 210 211
1530.0 211 200 193 186 206 196 189 174 187 180
1570.0 171 177 176 171 160 162 160 162 160 164
1610.0 169 174 187 195 220 227 234 248 255 257
1650.0 271 259 298 304 323 310 302 288 271 251
1690.0 225 206 214 230 226 239 230 204 194 172
1730.0 170 153 158 146 152 136 148 140 131 118
1770.0 112 95 93 85 88 78 81 84 83 79
1810.0 71 70 61 60 55 45 56 43 41 46
1850.0 45 43 43 43 45 41 44 36 44 44
1890.0 45 44 54 43 36 45 45 37 37 36
1930.0 35 29 25 28 42 34 41 43 43 45
1970.0 44 44 35 42 35 37 36 30 36 36
2010.0 34 36 36 36 35 35 35 34 34 43
2050.0 43 43 42 44 43 43 43 43 44 44
2090.0 35 35 35 35 35 34 34 36 35 27
2130.0 35 35 35 36 34 34 34 34 34 34
2170.0 35 35 35 35 35 34 44 42 40 41
2210.0 35 35 25 30 27 27 26 26 27 26
2250.0 27 27 24 25 29 33 32 33 32 31
2290.0 36 25 24 14 12 7 5 1 10 18
2330.0 18 27 37 26 43 1 1 12 53 56
2370.0 84 87 63 60 45 57 58 58 57 58
2410.0 58 64 57 64 58 57 52 60 55 57
2450.0 56 56 56 57 57 57 48 49 52 47
2490.0 47 48 55 54 55 55 56 56 62 56
2530.0 56 56 60 55 56 61 64 71 72 72
2570.0 80 80 80 73 73 77 75 79 73 81
2610.0 71 71 71 62 61 61 62 64 61 65
2650.0 70 71 76 78 78 88 95 87 94 94
2690.0 104 106 111 121 125 131 152 176 209 251
2730.0 294 337 363 379 386 378 350 300 280 262
2770.0 253 254 260 268 277 303 320 356 391 424
2810.0 468 511 559 609 679 760 864 976 1158 1397
2850.0 1717 2159 2682 3229 3697 4188 4719 5264 5460 5480
2890.0 5482 5464 5383 5212 5164 5318 5631 6007 6388 6786
2930.0 7149 7507 7753 7443 7068 6935 7059 7463 8286 9318
2970.0 10000 9975 9744 9486 8245 6751 5536 4617 3897 3243
3010.0 2692 2267 1950 1715 1531 1386 1287 1177 1092 1013
3050.0 927 831 763 693 640 591 555 518 488 453
3090.0 419 383 358 332 313 287 278 261 261 255
3130.0 242 226 212 192 187 187 179 162 153 152
3170.0 145 125 118 100 87 68 54 52 43 36
3210.0 37 27 26 19 18 18 19 9 9 5
3250.0 16 12 9 19 10 9 17 17 16 9
3290.0 4 13 23 17 13 14 28 25 33 42
3330.0 34 32 36 41 29 24 32 37 40 23
3370.0 24 25 32 40 32 33 29 35 37 23
3410.0 22 26 20 32 30 24 32 32 31 15
3450.0 22 30 36 26 27 30 32 30 29 14
3490.0 22 22 13 21 31 21 21 18 22 22
3530.0 23 22 12 21 28 18 21 19 16 15
3570.0 27 24 20 36 27 43 29 28 29 29
3610.0 26 29 25 30 34 52 62 71 69 67
3650.0 75 68 52 60 47 28 29 21 22 23
3690.0 7 33 35 42 25 31 45 27 27 31
3730.0 18 15 11 12 16 0 21 10 26 16
3770.0 15 32 27 22 25 29 26 12 13 17
3810.0 22 22 18 16 25 29 21 7 12 8
3850.0 6 7 3 8 14 5 3 2 8 9
3890.0 13 12 9 16 13 8 1 1 8 16
3930.0 23 36 27 28 30 38 31 21 16 8
##END=
