##TITLE=2-Pentanamine
##JCAMP-DX=4.24
##DATA TYPE=INFRARED SPECTRUM
##ORIGIN=Sadtler Research Labs Under US-EPA Contract
##OWNER=NIST Standard Reference Data Program
##CAS REGISTRY NO=625-30-9
##MOLFORM=C 5 H 13 N
##XUNITS=1/CM
##YUNITS=ABSORBANCE
##XFACTOR=1.0
##YFACTOR=0.000104501
##DELTAX=4.0
##FIRSTX=450.0
##LASTX=3966.0
##FIRSTY=0.000000
##MAXX=3966
##MINX=450
##MAXY=1.04501
##MINY=0
##NPOINTS=880
##XYDATA=(X++(Y..Y))
450.0 0 41 202 79 181 181 205 222 245 238
490.0 218 249 120 139 135 91 81 100 62 91
530.0 50 48 92 52 90 92 133 85 128 161
570.0 166 175 176 209 170 167 152 145 126 127
610.0 124 111 115 119 151 145 144 188 173 129
650.0 147 140 148 173 178 196 204 231 225 267
690.0 273 279 324 344 376 393 445 522 594 682
730.0 767 853 942 1098 1191 1343 1458 1700 1921 2264
770.0 2599 3012 3358 3680 3951 3856 3672 3348 2948 2446
810.0 2001 1633 1316 1101 947 857 785 751 677 625
850.0 565 507 443 389 375 335 319 304 312 314
890.0 300 292 284 272 231 203 159 134 105 97
930.0 89 87 106 103 117 115 125 120 121 117
970.0 98 95 102 106 92 116 132 159 168 205
1010.0 236 257 267 281 293 290 296 285 283 288
1050.0 288 295 292 299 295 288 278 272 249 237
1090.0 231 232 249 280 325 372 438 489 546 587
1130.0 631 675 722 804 881 931 928 899 828 730
1170.0 596 455 345 268 224 190 186 185 189 195
1210.0 198 199 199 198 197 205 208 219 226 229
1250.0 228 219 213 207 209 196 196 188 189 183
1290.0 178 175 173 184 195 242 275 328 379 443
1330.0 508 566 662 708 750 788 834 925 1069 1200
1370.0 1328 1459 1485 1505 1425 1262 1081 882 659 511
1410.0 399 324 336 309 339 379 483 593 721 843
1450.0 1010 1131 1265 1280 1213 1172 1070 950 789 680
1490.0 554 437 357 298 269 292 254 211 207 189
1530.0 188 179 156 160 192 201 189 162 186 208
1570.0 210 228 251 301 339 404 489 581 710 840
1610.0 987 1099 1172 1209 1169 1094 962 798 651 526
1650.0 390 318 284 229 198 183 136 151 107 109
1690.0 89 91 72 97 83 84 91 71 88 80
1730.0 93 84 79 83 70 97 75 75 52 79
1770.0 61 63 55 76 70 84 61 67 86 70
1810.0 58 70 69 61 86 60 75 56 75 75
1850.0 73 57 62 60 57 66 56 53 51 52
1890.0 54 55 49 47 49 48 54 51 62 47
1930.0 47 47 52 54 55 52 55 55 50 52
1970.0 59 50 51 55 55 61 66 61 59 66
2010.0 66 70 72 79 67 71 70 73 68 76
2050.0 69 71 63 62 69 60 50 49 47 49
2090.0 46 49 55 62 64 65 65 69 69 67
2130.0 68 68 69 67 68 70 73 73 77 77
2170.0 78 81 76 80 76 81 78 76 77 80
2210.0 75 79 81 79 77 79 77 76 82 82
2250.0 82 81 83 85 85 89 88 88 81 74
2290.0 69 65 59 52 46 40 44 41 45 53
2330.0 54 69 82 76 91 66 40 51 63 103
2370.0 119 134 131 124 113 109 115 110 109 111
2410.0 112 113 107 112 106 109 110 108 108 108
2450.0 111 110 107 108 109 109 111 106 111 113
2490.0 113 113 117 118 120 119 122 119 123 123
2530.0 125 123 126 132 135 136 144 141 149 152
2570.0 160 167 176 181 188 195 196 206 210 219
2610.0 221 220 228 231 239 231 234 247 256 259
2650.0 261 255 258 258 250 244 241 238 232 227
2690.0 229 230 238 252 261 269 288 297 310 325
2730.0 336 351 360 368 369 373 362 356 347 339
2770.0 345 346 357 365 380 404 435 467 513 557
2810.0 611 681 764 869 995 1158 1337 1541 1763 1987
2850.0 2184 2364 2558 2749 3004 3313 3737 4077 4220 4318
2890.0 4403 4466 4485 4548 4779 5096 5503 5864 6144 6372
2930.0 6554 6688 6719 6621 6662 6983 7688 8510 9353 10000
2970.0 9707 9248 8161 6612 4873 3427 2410 1666 1163 847
3010.0 669 568 503 470 441 428 415 402 382 364
3050.0 345 326 313 299 291 280 275 270 260 260
3090.0 257 245 239 231 232 214 212 204 201 199
3130.0 190 197 203 197 196 194 202 192 204 197
3170.0 199 193 190 192 179 180 185 180 173 167
3210.0 162 155 147 138 128 124 124 106 107 104
3250.0 96 99 83 89 85 101 88 77 79 85
3290.0 87 95 106 107 118 126 149 166 175 187
3330.0 214 229 219 213 177 174 157 137 126 117
3370.0 114 108 115 110 95 101 109 103 107 110
3410.0 86 94 79 93 96 95 82 93 83 89
3450.0 79 68 76 71 73 60 69 55 74 66
3490.0 66 51 50 78 70 85 78 72 66 70
3530.0 66 63 66 62 95 85 67 58 72 81
3570.0 103 55 56 61 64 106 57 55 55 57
3610.0 90 63 78 73 77 107 87 68 67 69
3650.0 73 67 60 96 72 63 49 70 77 57
3690.0 40 79 76 77 61 50 81 73 58 103
3730.0 64 89 125 55 101 38 70 82 64 85
3770.0 54 69 59 73 62 43 53 91 54 56
3810.0 44 53 40 67 49 39 42 40 50 77
3850.0 42 64 65 51 54 59 46 78 60 64
3890.0 38 68 55 69 95 46 48 40 40 40
3930.0 41 40 41 40 48 49 54 62 46 44
##END=
