##TITLE=2,4-Pentanediol
##JCAMP-DX=4.24
##DATA TYPE=INFRARED SPECTRUM
##ORIGIN=Sadtler Research Labs Under US-EPA Contract
##OWNER=NIST Standard Reference Data Program
##CAS REGISTRY NO=625-69-4
##MOLFORM=C 5 H 12 O 2
##XUNITS=1/CM
##YUNITS=ABSORBANCE
##XFACTOR=1.0
##YFACTOR=0.000095401
##DELTAX=4.0
##FIRSTX=450.0
##LASTX=3966.0
##FIRSTY=0.001622
##MAXX=3966
##MINX=450
##MAXY=0.95401
##MINY=0
##NPOINTS=880
##XYDATA=(X++(Y..Y))
450.0 17 170 44 281 45 223 111 333 125 223
490.0 240 189 212 179 254 129 255 174 227 126
530.0 167 173 145 175 178 271 182 243 186 219
570.0 192 215 230 137 276 223 271 220 282 217
610.0 259 256 235 232 236 306 161 225 179 199
650.0 151 192 160 144 169 115 120 102 188 117
690.0 150 128 104 126 102 127 70 130 102 136
730.0 85 102 123 99 107 101 130 91 153 132
770.0 184 211 278 344 333 357 358 399 412 495
810.0 583 737 902 1069 1218 1317 1345 1218 1113 980
850.0 881 749 672 618 555 562 573 642 667 711
890.0 735 789 847 970 1190 1488 1882 2158 2291 2305
930.0 2310 2109 1820 1580 1432 1397 1377 1401 1375 1301
970.0 1165 1032 936 868 872 914 1026 1139 1274 1353
1010.0 1432 1468 1499 1561 1655 1819 1992 2215 2362 2488
1050.0 2580 2648 2684 2757 2928 3096 3336 3560 3831 4051
1090.0 4297 4510 4693 4865 5018 5210 5336 5530 5603 5659
1130.0 5554 5422 5199 4878 4581 4253 3936 3506 3115 2711
1170.0 2331 1985 1721 1555 1488 1528 1568 1653 1708 1779
1210.0 1797 1798 1805 1798 1833 1884 1988 2081 2207 2309
1250.0 2392 2429 2445 2449 2414 2407 2392 2422 2460 2507
1290.0 2513 2470 2372 2245 2083 1864 1679 1515 1412 1359
1330.0 1363 1390 1460 1562 1660 1816 1997 2239 2545 2973
1370.0 3485 4043 4496 4845 4997 4852 4542 4119 3754 3414
1410.0 3154 2871 2599 2330 2093 1871 1706 1616 1592 1615
1450.0 1648 1702 1639 1536 1434 1219 1053 862 711 539
1490.0 475 354 288 271 221 217 238 197 163 173
1530.0 168 167 104 118 133 148 118 97 57 137
1570.0 106 121 77 146 113 127 124 123 122 114
1610.0 137 91 115 98 134 103 117 71 132 80
1650.0 121 8 113 127 98 115 110 109 143 78
1690.0 139 125 93 82 126 125 126 107 121 134
1730.0 125 116 99 156 146 169 165 181 152 163
1770.0 150 114 147 126 144 110 131 128 140 121
1810.0 114 106 93 100 83 84 77 96 76 86
1850.0 89 85 83 82 84 75 82 80 82 83
1890.0 80 79 75 75 71 78 63 68 73 67
1930.0 65 69 63 65 65 58 68 65 68 67
1970.0 70 73 65 67 60 66 52 57 52 44
2010.0 43 34 34 27 29 22 25 23 28 23
2050.0 19 16 16 18 13 23 17 28 34 39
2090.0 47 46 53 46 51 53 55 54 57 59
2130.0 55 59 59 66 54 64 60 62 68 66
2170.0 68 65 68 59 56 54 57 57 58 59
2210.0 58 61 56 62 56 59 59 62 58 53
2250.0 60 56 58 54 59 55 56 55 60 60
2290.0 61 68 64 71 64 69 66 59 54 46
2330.0 52 29 50 46 75 50 41 39 55 83
2370.0 82 98 93 98 84 77 73 71 74 66
2410.0 71 73 71 72 79 73 68 71 66 70
2450.0 67 68 66 67 62 65 60 56 63 53
2490.0 53 51 48 39 42 36 38 35 36 40
2530.0 38 49 43 54 57 48 49 54 65 62
2570.0 70 71 80 82 84 93 92 100 101 119
2610.0 125 134 146 163 170 187 210 210 225 231
2650.0 249 256 273 276 276 272 262 248 234 228
2690.0 213 209 202 204 207 210 211 222 233 238
2730.0 248 253 269 271 279 274 277 275 280 294
2770.0 300 315 323 351 363 387 416 441 473 510
2810.0 557 602 650 709 777 840 909 987 1050 1133
2850.0 1213 1326 1456 1639 1894 2205 2574 2940 3307 3610
2890.0 3848 4060 4238 4411 4622 4817 5024 5250 5456 5709
2930.0 5961 6116 6006 5639 5238 4859 4695 4957 5699 6811
2970.0 8170 9392 10000 9185 8023 6497 4757 3111 1827 1075
3010.0 669 469 354 288 253 213 197 180 166 138
3050.0 131 115 117 107 107 116 108 115 114 119
3090.0 110 109 100 98 104 95 103 82 91 77
3130.0 85 82 84 93 93 93 84 87 82 95
3170.0 95 106 104 110 114 127 139 137 143 144
3210.0 139 139 125 114 93 95 80 76 60 65
3250.0 63 53 59 59 69 64 75 65 71 62
3290.0 59 53 54 36 41 41 38 45 38 42
3330.0 48 65 53 48 61 53 57 53 78 73
3370.0 86 96 93 118 132 153 162 171 171 185
3410.0 176 169 179 158 177 155 174 189 194 194
3450.0 209 197 216 234 214 211 193 214 199 196
3490.0 188 188 184 178 207 197 209 202 225 256
3530.0 279 281 299 306 346 360 373 467 554 774
3570.0 1032 1468 2090 2765 3279 3527 3613 3465 3056 2523
3610.0 1961 1609 1331 1181 1098 1079 1145 1256 1422 1638
3650.0 1856 1896 1919 1800 1580 1229 906 665 498 374
3690.0 260 233 205 176 163 142 167 140 158 182
3730.0 150 121 161 154 57 91 71 121 91 78
3770.0 83 82 68 63 69 57 60 40 61 10
3810.0 88 37 56 7 58 40 35 0 32 44
3850.0 16 4 6 50 58 18 31 75 98 74
3890.0 97 76 99 54 90 99 95 100 42 106
3930.0 91 33 38 72 14 30 82 37 41 27
##END=
