##TITLE=Acetamide, N-ethyl-
##JCAMP-DX=4.24
##DATA TYPE=INFRARED SPECTRUM
##ORIGIN=Sadtler Research Labs Under US-EPA Contract
##OWNER=NIST Standard Reference Data Program
##CAS REGISTRY NO=625-50-3
##MOLFORM=C 4 H 9 N O
##XUNITS=1/CM
##YUNITS=ABSORBANCE
##XFACTOR=1.0
##YFACTOR=0.000088867
##DELTAX=4.0
##FIRSTX=450.0
##LASTX=3966.0
##FIRSTY=0.071538
##MAXX=3966
##MINX=450
##MAXY=0.88867
##MINY=0
##NPOINTS=880
##XYDATA=(X++(Y..Y))
450.0 805 828 788 729 681 609 561 498 480 458
490.0 401 355 339 425 348 312 307 288 236 245
530.0 208 214 188 163 158 155 147 121 137 101
570.0 107 75 93 121 88 130 149 160 207 231
610.0 269 321 322 358 309 282 257 206 159 109
650.0 94 93 66 39 33 22 23 32 41 54
690.0 45 20 26 23 9 0 23 42 22 49
730.0 71 84 96 130 139 144 184 226 281 290
770.0 322 334 357 337 348 324 347 376 373 381
810.0 401 385 407 381 370 358 358 340 298 279
850.0 243 235 191 179 154 141 125 111 106 77
890.0 94 100 105 109 121 140 150 193 237 248
930.0 260 272 279 267 272 258 253 250 261 291
970.0 327 356 352 348 343 310 291 256 207 180
1010.0 146 130 134 128 146 158 180 210 210 249
1050.0 272 273 294 322 340 348 357 361 351 332
1090.0 315 291 302 314 359 375 401 422 411 400
1130.0 398 376 376 374 408 418 437 426 432 418
1170.0 394 369 357 367 376 413 476 561 663 794
1210.0 944 1116 1331 1603 2052 2624 3242 3821 3995 4087
1250.0 3950 3716 3285 2539 1844 1387 1112 978 946 998
1290.0 1152 1267 1349 1368 1345 1288 1224 1036 819 667
1330.0 556 496 583 654 734 923 1130 1367 1644 1766
1370.0 1889 1943 1951 1830 1650 1461 1376 1310 1089 991
1410.0 935 956 1100 1172 1298 1467 1689 2011 2085 2318
1450.0 2531 2709 3031 3077 3377 3705 4208 4805 5252 5960
1490.0 6494 6638 6888 6732 6477 5843 4959 4139 3408 2680
1530.0 2148 1839 1523 1410 1194 1006 870 851 694 520
1570.0 481 375 366 275 249 236 231 219 218 208
1610.0 209 197 238 202 214 194 216 270 216 302
1650.0 326 487 393 471 556 747 895 1151 1561 2151
1690.0 2788 3723 5177 6846 8445 9675 10000 9492 9746 9789
1730.0 8754 6936 4951 3570 2508 1764 1145 812 614 470
1770.0 473 420 344 317 293 253 310 273 305 223
1810.0 206 163 128 87 124 103 72 60 72 127
1850.0 72 41 47 58 54 103 43 37 35 31
1890.0 50 37 37 27 21 37 22 50 39 30
1930.0 17 16 16 41 29 14 16 19 23 33
1970.0 34 30 29 35 31 44 55 30 25 25
2010.0 25 20 37 21 20 15 10 5 14 4
2050.0 5 5 3 4 17 6 6 10 10 6
2090.0 13 6 9 12 12 11 11 13 12 6
2130.0 12 7 12 12 8 8 8 8 8 8
2170.0 8 8 8 13 14 9 9 8 8 15
2210.0 10 11 12 14 15 20 21 15 20 21
2250.0 15 16 20 20 27 26 33 30 32 33
2290.0 33 37 32 32 31 33 31 28 23 15
2330.0 20 11 11 23 17 23 22 22 23 16
2370.0 14 21 23 23 23 20 19 19 19 18
2410.0 14 14 15 18 18 18 25 21 20 20
2450.0 19 20 19 20 15 12 14 9 12 15
2490.0 12 10 9 5 5 5 4 4 4 3
2530.0 6 1 5 5 5 5 11 5 6 10
2570.0 10 11 11 10 17 17 17 20 22 22
2610.0 29 29 22 23 23 29 23 28 28 28
2650.0 28 28 28 28 24 24 29 35 35 35
2690.0 40 46 52 54 57 60 73 66 68 74
2730.0 78 74 74 79 85 87 81 87 79 80
2770.0 75 68 75 75 80 80 85 92 98 109
2810.0 122 126 140 152 167 180 197 219 237 265
2850.0 294 333 373 434 505 595 715 832 928 983
2890.0 1033 1079 1113 1143 1162 1201 1269 1363 1474 1617
2930.0 1775 1920 2001 2032 2049 2055 2042 2019 2017 2082
2970.0 2220 2352 2423 2462 2411 2259 2009 1693 1389 1120
3010.0 904 749 621 536 475 432 397 364 337 314
3050.0 283 262 250 232 206 197 195 182 174 159
3090.0 151 143 136 125 119 107 101 89 78 72
3130.0 69 62 61 55 51 51 58 47 52 52
3170.0 47 46 54 40 43 36 31 24 30 18
3210.0 27 19 14 19 15 13 16 8 5 11
3250.0 7 14 9 10 9 10 5 10 5 8
3290.0 5 5 5 2 5 9 4 5 0 4
3330.0 4 9 14 9 11 14 2 17 13 18
3370.0 10 16 22 28 44 55 72 81 106 121
3410.0 147 165 175 204 200 199 210 222 230 265
3450.0 294 332 391 458 508 548 563 567 573 514
3490.0 460 391 312 266 203 149 95 65 55 91
3530.0 55 24 41 18 81 63 58 33 66 116
3570.0 147 49 38 60 67 137 73 75 57 48
3610.0 103 79 61 65 22 115 44 15 19 38
3650.0 114 52 51 14 16 66 60 86 29 21
3690.0 58 35 24 42 32 66 89 53 67 97
3730.0 80 115 140 83 138 106 92 54 48 49
3770.0 44 28 20 36 30 21 30 48 64 55
3810.0 40 43 60 72 55 50 62 80 78 57
3850.0 70 121 82 77 89 89 77 62 82 80
3890.0 77 85 83 101 85 57 50 61 51 51
3930.0 46 44 34 45 51 52 4 7 7 7
##END=
