##TITLE=Formic acid, 1-methylethyl ester
##JCAMP-DX=4.24
##DATA TYPE=INFRARED SPECTRUM
##ORIGIN=Sadtler Research Labs Under US-EPA Contract
##OWNER=NIST Standard Reference Data Program
##CAS REGISTRY NO=625-55-8
##MOLFORM=C 4 H 8 O 2
##XUNITS=1/CM
##YUNITS=ABSORBANCE
##XFACTOR=1.0
##YFACTOR=0.000186642
##DELTAX=4.0
##FIRSTX=450.0
##LASTX=3966.0
##FIRSTY=0.000000
##MAXX=3966
##MINX=450
##MAXY=1.86642
##MINY=0
##NPOINTS=880
##XYDATA=(X++(Y..Y))
450.0 0 113 182 156 170 156 162 244 214 166
490.0 115 186 266 174 164 146 116 120 119 97
530.0 115 96 57 93 94 111 102 95 91 90
570.0 106 100 99 116 107 119 108 113 125 120
610.0 133 106 125 113 125 136 118 147 126 119
650.0 119 112 113 105 111 106 96 91 82 89
690.0 93 112 97 92 87 94 94 76 88 81
730.0 85 75 88 116 91 118 109 111 107 113
770.0 111 109 138 127 191 155 125 211 231 290
810.0 346 399 474 484 431 395 365 299 246 186
850.0 152 119 108 100 109 104 108 124 144 179
890.0 215 266 306 338 363 366 350 333 302 259
930.0 236 224 219 213 217 212 210 202 192 189
970.0 178 166 143 132 119 122 115 111 116 110
1010.0 115 112 119 116 120 128 135 140 150 160
1050.0 170 187 199 222 244 285 333 406 519 693
1090.0 952 1263 1577 1837 2088 2178 2233 2247 2105 1812
1130.0 1573 1472 1449 1449 1518 1683 1983 2509 3392 4772
1170.0 6634 8600 9705 10000 9924 9613 8547 7055 4251 1959
1210.0 906 560 438 392 355 340 323 312 303 288
1250.0 285 267 259 236 224 212 198 186 172 166
1290.0 153 151 143 144 142 155 164 186 196 215
1330.0 250 286 343 367 384 410 438 468 524 583
1370.0 661 805 855 933 1048 1009 941 811 632 471
1410.0 326 231 227 191 192 189 227 249 264 293
1450.0 329 375 441 434 409 417 452 449 382 345
1490.0 329 278 261 224 223 217 173 170 178 150
1530.0 148 140 152 176 156 135 143 173 152 131
1570.0 136 132 130 124 108 106 99 106 97 105
1610.0 107 107 126 117 134 121 146 161 153 174
1650.0 203 213 189 183 194 197 212 195 237 268
1690.0 283 321 399 430 503 575 774 1145 1640 2624
1730.0 4227 6496 7033 7931 7540 6573 7292 6702 3978 2250
1770.0 1320 977 689 566 549 543 525 424 316 238
1810.0 199 174 147 138 134 133 125 112 124 124
1850.0 110 101 102 102 110 114 97 98 95 99
1890.0 104 101 102 101 102 110 115 117 125 121
1930.0 119 119 120 125 122 116 116 118 120 124
1970.0 131 134 140 150 164 182 189 192 190 185
2010.0 172 158 138 115 97 88 88 88 88 86
2050.0 88 86 85 82 87 86 89 94 100 100
2090.0 101 100 97 95 91 87 84 86 84 83
2130.0 86 86 83 82 83 81 81 80 80 84
2170.0 80 82 82 85 81 83 83 82 83 83
2210.0 82 83 85 82 81 80 82 77 80 79
2250.0 82 82 84 84 86 88 88 91 93 94
2290.0 97 98 101 104 105 106 109 120 121 117
2330.0 129 134 134 148 148 171 204 178 147 106
2370.0 83 62 63 65 69 73 75 77 76 81
2410.0 77 77 76 78 75 74 74 73 71 71
2450.0 71 71 70 69 70 73 70 74 74 73
2490.0 74 74 73 73 73 75 78 78 79 81
2530.0 79 79 79 81 82 83 82 83 80 84
2570.0 77 77 74 71 65 66 64 60 63 65
2610.0 68 67 68 69 74 76 80 81 81 80
2650.0 82 84 88 89 89 87 86 85 84 77
2690.0 78 77 79 83 87 95 101 112 116 125
2730.0 122 123 122 113 109 107 106 102 101 99
2770.0 96 99 94 94 92 91 90 92 93 93
2810.0 96 97 104 107 115 116 127 129 136 141
2850.0 159 168 185 207 229 265 318 385 462 556
2890.0 663 792 946 1128 1313 1448 1673 1740 1657 1697
2930.0 1597 1486 1354 1241 1117 1001 915 866 870 925
2970.0 1065 1239 1508 1733 2068 2316 1919 1833 1576 1275
3010.0 1002 671 428 274 200 145 128 109 103 101
3050.0 95 96 87 86 84 84 78 83 86 84
3090.0 86 90 102 107 124 122 127 131 123 119
3130.0 118 108 100 97 94 94 93 97 99 99
3170.0 101 99 108 100 111 106 112 99 103 108
3210.0 95 97 94 97 88 87 85 84 89 82
3250.0 75 71 65 69 73 72 69 63 69 76
3290.0 78 77 71 77 71 71 67 73 69 70
3330.0 73 73 70 73 71 73 70 68 72 66
3370.0 75 71 67 73 67 72 75 71 69 73
3410.0 72 74 73 71 76 79 85 83 88 91
3450.0 94 116 127 145 146 174 163 155 155 128
3490.0 111 95 80 77 84 72 71 70 72 61
3530.0 72 83 68 78 83 83 81 84 77 75
3570.0 62 66 71 66 76 86 83 77 68 76
3610.0 74 73 76 83 81 80 82 90 92 101
3650.0 99 89 86 91 93 95 78 86 85 78
3690.0 73 74 63 63 64 79 60 60 64 66
3730.0 66 60 62 59 70 60 60 60 60 73
3770.0 74 63 69 59 68 59 65 69 63 60
3810.0 66 63 60 63 70 60 60 70 61 62
3850.0 60 60 59 61 63 67 64 63 60 64
3890.0 64 64 68 67 59 72 61 60 68 68
3930.0 75 66 63 71 78 63 68 72 62 60
##END=
