##TITLE=Ethanol, 2-nitro-
##JCAMP-DX=4.24
##DATA TYPE=INFRARED SPECTRUM
##ORIGIN=Sadtler Research Labs Under US-EPA Contract
##OWNER=NIST Standard Reference Data Program
##CAS REGISTRY NO=625-48-9
##MOLFORM=C 2 H 5 N O 3
##XUNITS=1/CM
##YUNITS=ABSORBANCE
##XFACTOR=1.0
##YFACTOR=0.000059180
##DELTAX=4.0
##FIRSTX=450.0
##LASTX=3966.0
##FIRSTY=0.014558
##MAXX=3966
##MINX=450
##MAXY=0.5918
##MINY=0
##NPOINTS=880
##XYDATA=(X++(Y..Y))
450.0 246 307 280 282 239 256 278 280 280 287
490.0 279 243 252 225 208 191 185 208 188 254
530.0 224 289 243 263 259 239 255 234 257 204
570.0 241 276 253 319 327 394 394 478 485 468
610.0 492 433 442 372 350 326 291 281 244 252
650.0 231 235 225 237 157 149 156 105 71 48
690.0 51 40 6 62 27 63 91 93 119 134
730.0 159 119 155 107 84 59 34 21 17 33
770.0 26 39 74 71 83 41 56 73 102 46
810.0 41 77 63 94 82 133 145 202 283 391
850.0 557 638 701 725 760 762 751 689 522 462
890.0 420 425 444 370 330 230 212 166 142 158
930.0 139 192 200 242 278 295 354 383 437 372
970.0 306 294 274 252 230 228 211 221 224 244
1010.0 290 337 426 499 614 743 889 1069 1267 1455
1050.0 1623 1870 2060 2318 2494 2626 2868 2959 2860 2590
1090.0 2278 1926 1613 1284 934 685 499 375 296 245
1130.0 227 198 208 185 208 220 248 256 273 329
1170.0 370 419 480 577 693 793 918 952 993 1008
1210.0 1044 1087 1056 1042 1027 1005 990 973 951 905
1250.0 859 779 720 639 579 521 502 489 455 442
1290.0 426 423 422 418 431 441 474 500 534 581
1330.0 650 759 902 1107 1298 1618 2031 2392 2807 3108
1370.0 3279 3255 3181 2937 2688 2312 1968 1717 1504 1441
1410.0 1413 1433 1502 1386 1291 1220 1142 1109 930 772
1450.0 716 699 732 677 674 645 654 558 461 393
1490.0 420 357 372 385 455 540 556 762 964 1248
1530.0 1624 2158 2791 3559 4363 5072 6225 7620 9187 10000
1570.0 9977 9944 9742 9802 8876 7136 5391 3998 2980 2117
1610.0 1489 1008 741 503 361 278 219 204 131 139
1650.0 130 198 105 96 87 98 77 56 48 92
1690.0 34 39 67 90 44 30 61 94 43 30
1730.0 49 89 41 54 63 53 29 45 43 43
1770.0 90 75 51 46 49 38 63 40 41 33
1810.0 10 23 11 8 21 26 24 16 13 38
1850.0 20 11 11 12 5 25 0 3 11 20
1890.0 37 20 32 29 31 40 32 50 39 40
1930.0 26 40 37 46 49 59 65 49 61 51
1970.0 51 53 25 31 25 27 21 15 23 11
2010.0 32 20 31 23 15 15 14 23 6 13
2050.0 12 11 17 16 31 26 32 32 32 33
2090.0 33 33 24 25 20 19 25 25 30 33
2130.0 49 50 57 58 55 59 49 54 48 54
2170.0 41 34 33 33 41 33 33 33 33 33
2210.0 24 25 15 21 14 16 17 17 25 24
2250.0 33 25 30 38 32 38 31 43 31 43
2290.0 40 42 50 57 67 66 76 92 71 95
2330.0 87 95 73 86 83 57 84 77 137 123
2370.0 147 108 81 66 45 45 33 41 32 32
2410.0 42 42 51 59 77 70 69 76 77 75
2450.0 57 58 49 49 42 41 51 43 49 48
2490.0 53 58 52 57 49 50 49 49 43 40
2530.0 50 49 59 47 64 55 58 57 49 57
2570.0 41 42 34 31 32 33 38 25 44 39
2610.0 42 40 42 42 24 41 33 33 32 28
2650.0 39 32 33 39 50 49 58 58 57 67
2690.0 67 66 66 76 90 81 101 114 124 132
2730.0 141 142 142 142 134 136 119 120 118 108
2770.0 109 99 116 108 99 100 107 110 98 107
2810.0 90 96 97 94 106 99 124 124 142 159
2850.0 167 192 203 246 272 333 384 445 530 598
2890.0 657 668 674 662 666 679 684 723 735 801
2930.0 848 903 982 1032 1091 1100 1142 1115 1081 1019
2970.0 928 852 743 663 543 460 385 326 282 223
3010.0 214 184 170 152 141 140 109 119 107 85
3050.0 83 67 76 50 58 41 65 72 61 68
3090.0 45 61 40 61 40 41 42 31 50 31
3130.0 43 48 52 66 48 67 49 43 32 24
3170.0 25 14 25 7 27 32 31 43 52 57
3210.0 41 58 32 49 35 28 44 22 34 32
3250.0 51 51 53 65 50 76 58 73 51 53
3290.0 62 36 44 35 61 53 70 82 75 92
3330.0 76 73 52 54 50 36 58 28 48 36
3370.0 49 41 42 67 33 66 41 54 32 25
3410.0 27 9 37 23 26 31 50 76 57 75
3450.0 69 76 70 56 65 51 59 48 76 66
3490.0 83 78 89 101 87 107 78 81 81 80
3530.0 77 35 67 49 83 94 81 101 99 128
3570.0 137 119 135 164 208 258 264 300 369 451
3610.0 567 689 797 912 933 1033 1041 1030 985 898
3650.0 860 766 739 692 678 678 643 623 511 464
3690.0 400 311 238 194 158 142 138 110 119 134
3730.0 125 164 164 157 173 175 151 125 116 108
3770.0 118 100 103 95 96 101 103 107 106 101
3810.0 92 76 84 74 55 26 59 65 71 70
3850.0 91 143 133 149 149 149 133 106 100 90
3890.0 86 64 85 103 93 97 114 149 157 166
3930.0 157 139 117 95 91 55 5 8 8 8
##END=
