##TITLE=Acetic acid, methoxy-
##JCAMP-DX=4.24
##DATA TYPE=INFRARED SPECTRUM
##ORIGIN=Sadtler Research Labs Under US-EPA Contract
##OWNER=NIST Standard Reference Data Program
##CAS REGISTRY NO=625-45-6
##MOLFORM=C 3 H 6 O 3
##XUNITS=1/CM
##YUNITS=ABSORBANCE
##XFACTOR=1.0
##YFACTOR=0.000106918
##DELTAX=4.0
##FIRSTX=450.0
##LASTX=3966.0
##FIRSTY=0.120283
##MAXX=3966
##MINX=450
##MAXY=1.06918
##MINY=0
##NPOINTS=880
##XYDATA=(X++(Y..Y))
450.0 1125 1199 1328 1253 1233 1467 1400 1453 1440 1466
490.0 1483 1423 1379 1392 1322 1149 1258 1167 1117 1084
530.0 1065 1030 1073 1054 1054 1128 1087 1110 1120 1184
570.0 1191 1272 1340 1438 1557 1652 1755 1904 2042 2122
610.0 2236 2302 2377 2482 2451 2494 2462 2499 2426 2272
650.0 2119 1939 1783 1571 1421 1237 1103 985 895 787
690.0 692 644 573 505 448 420 353 346 303 278
730.0 258 232 200 183 152 124 116 71 82 49
770.0 37 0 55 29 54 58 30 36 65 32
810.0 64 54 88 111 171 197 251 307 365 411
850.0 450 498 504 514 493 467 425 390 338 296
890.0 268 243 236 250 290 347 422 499 595 680
930.0 773 862 945 997 956 859 814 784 751 737
970.0 724 717 729 748 764 781 772 751 726 706
1010.0 686 667 660 656 653 664 677 688 729 791
1050.0 875 996 1142 1325 1532 1757 2003 2307 2698 3294
1090.0 4133 5196 6405 7483 8597 9166 9860 10000 9901 8992
1130.0 8012 7005 6069 5403 4806 4394 4046 3870 3675 3481
1170.0 3295 3130 2999 2912 2945 2995 3121 3196 3202 3103
1210.0 2986 2789 2547 2248 1888 1609 1378 1241 1152 1095
1250.0 1045 1008 997 986 999 1007 1020 1033 1053 1083
1290.0 1155 1182 1263 1343 1460 1626 1861 2107 2369 2679
1330.0 2954 3132 3358 3434 3467 3536 3526 3302 3274 3048
1370.0 2956 2776 2617 2447 2347 2118 1776 1496 1248 1040
1410.0 860 745 634 662 567 615 600 710 671 768
1450.0 822 846 891 842 834 695 534 468 437 316
1490.0 332 208 169 135 163 242 114 156 27 86
1530.0 61 101 34 7 92 77 40 12 36 51
1570.0 55 45 33 59 55 58 55 68 54 61
1610.0 59 48 27 48 57 36 43 34 52 31
1650.0 39 19 65 68 63 110 62 122 122 96
1690.0 150 145 130 189 247 245 296 303 441 471
1730.0 609 636 822 989 1217 1486 1812 2379 3019 3999
1770.0 4753 5763 6204 7079 7807 8673 8848 8732 8999 8687
1810.0 8971 8187 7545 6391 5532 4237 3034 2036 1383 978
1850.0 714 557 421 380 290 279 202 180 155 117
1890.0 109 86 85 53 51 57 31 36 47 26
1930.0 25 20 24 20 40 11 26 21 26 23
1970.0 39 17 27 20 23 22 42 20 22 26
2010.0 28 25 38 42 24 38 35 39 39 48
2050.0 37 43 45 45 56 55 52 61 64 67
2090.0 72 68 62 63 57 54 48 50 37 45
2130.0 42 43 47 43 43 38 39 35 38 34
2170.0 32 30 27 31 32 33 29 35 32 35
2210.0 32 33 31 26 28 24 25 20 19 14
2250.0 16 13 12 9 8 8 7 6 4 7
2290.0 7 6 6 7 9 3 9 4 5 0
2330.0 0 0 0 3 0 14 0 7 0 0
2370.0 0 4 5 10 11 13 16 16 21 17
2410.0 22 18 20 17 12 11 7 10 6 9
2450.0 5 8 11 11 14 14 16 14 14 15
2490.0 15 16 14 16 11 12 9 7 5 4
2530.0 2 3 2 2 2 0 1 0 3 2
2570.0 4 3 5 7 11 11 14 17 15 22
2610.0 21 22 18 14 18 12 16 16 17 16
2650.0 21 22 25 27 30 34 30 35 35 35
2690.0 35 36 33 34 35 36 39 40 43 47
2730.0 48 54 59 66 75 83 90 102 112 122
2770.0 132 150 160 173 192 211 239 276 327 394
2810.0 485 604 746 900 1055 1221 1351 1423 1410 1382
2850.0 1338 1272 1172 1093 1059 1052 1098 1157 1240 1324
2890.0 1404 1477 1547 1614 1665 1715 1747 1834 1942 2055
2930.0 2129 2188 2218 2196 2157 2074 1929 1773 1634 1480
2970.0 1335 1214 1115 1042 1025 1060 1136 1203 1201 1186
3010.0 1125 1048 966 805 622 486 406 349 310 283
3050.0 264 247 236 223 217 210 200 196 193 185
3090.0 174 172 163 157 147 142 134 128 124 116
3130.0 106 103 99 93 90 83 81 83 75 78
3170.0 77 74 68 70 66 69 68 72 74 76
3210.0 73 71 75 71 71 74 72 66 67 66
3250.0 62 61 63 67 57 57 63 69 68 68
3290.0 68 63 67 63 65 64 66 56 52 58
3330.0 59 55 65 57 54 56 52 70 55 66
3370.0 62 63 64 63 64 61 69 72 69 66
3410.0 66 64 67 82 72 76 78 90 94 111
3450.0 117 116 144 171 214 255 345 472 681 860
3490.0 1025 1291 1489 1691 1712 1589 1500 1293 1142 957
3530.0 714 557 469 397 473 471 644 912 1385 2044
3570.0 2343 2624 2583 2581 2587 2102 1732 1048 656 328
3610.0 285 202 190 163 93 166 72 80 56 61
3650.0 119 55 60 33 38 53 23 109 34 56
3690.0 33 71 41 81 60 58 118 80 78 137
3730.0 98 121 114 112 102 47 107 56 69 78
3770.0 55 63 42 93 57 61 54 65 57 61
3810.0 45 57 25 110 41 80 58 77 61 89
3850.0 42 94 74 91 50 90 89 96 110 118
3890.0 59 114 68 165 126 73 57 132 76 77
3930.0 105 96 85 81 115 114 93 52 102 84
##END=
