##TITLE=Piperidine, 4-methyl-
##JCAMP-DX=4.24
##DATA TYPE=INFRARED SPECTRUM
##ORIGIN=Sadtler Research Labs Under US-EPA Contract
##OWNER=NIST Standard Reference Data Program
##CAS REGISTRY NO=626-58-4
##MOLFORM=C 6 H 13 N
##XUNITS=1/CM
##YUNITS=ABSORBANCE
##XFACTOR=1.0
##YFACTOR=0.000154727
##DELTAX=4.0
##FIRSTX=450.0
##LASTX=3966.0
##FIRSTY=0.024447
##MAXX=3966
##MINX=450
##MAXY=1.54727
##MINY=0
##NPOINTS=880
##XYDATA=(X++(Y..Y))
450.0 158 57 34 28 47 19 17 13 11 15
490.0 32 23 14 16 46 37 27 29 39 69
530.0 72 165 210 382 544 777 882 1166 1365 1128
570.0 877 827 587 399 282 199 125 115 95 98
610.0 95 95 101 75 82 67 57 39 41 41
650.0 49 51 69 98 103 141 181 187 208 241
690.0 280 316 387 474 597 720 937 1177 1496 1846
730.0 2118 2450 2614 2779 2794 2621 2545 2342 1702 1341
770.0 1116 878 702 563 608 446 362 305 245 220
810.0 142 138 96 82 49 53 37 38 39 38
850.0 47 49 74 74 100 105 114 101 93 75
890.0 48 39 31 29 12 22 17 15 16 33
930.0 53 75 116 119 136 184 246 283 309 344
970.0 349 340 344 320 282 241 241 258 244 266
1010.0 238 224 210 142 87 75 77 84 109 117
1050.0 96 105 83 84 91 103 127 165 213 279
1090.0 382 390 402 467 518 533 546 533 494 493
1130.0 490 520 592 743 839 927 1065 1096 999 913
1170.0 768 628 482 419 309 205 145 106 95 70
1210.0 67 59 65 64 82 89 82 119 160 205
1250.0 255 280 317 388 313 312 255 194 180 152
1290.0 174 194 287 365 528 767 991 1067 878 955
1330.0 1101 855 671 519 456 441 481 478 461 437
1370.0 475 459 511 559 499 498 428 309 257 162
1410.0 149 187 276 405 530 651 818 1088 1210 1358
1450.0 1493 1405 1350 1381 1094 888 734 575 429 295
1490.0 201 115 81 41 34 31 19 18 9 15
1530.0 7 13 7 7 11 13 14 8 15 14
1570.0 20 17 19 18 21 23 28 33 34 38
1610.0 38 41 36 40 35 33 32 30 28 27
1650.0 27 30 30 32 32 32 29 28 23 24
1690.0 20 19 18 23 25 27 25 23 19 14
1730.0 12 10 10 8 11 13 8 12 9 9
1770.0 10 13 13 16 14 14 11 13 14 8
1810.0 8 9 7 7 9 8 10 10 13 14
1850.0 14 16 15 18 16 16 14 15 15 17
1890.0 18 19 21 22 22 21 20 15 15 12
1930.0 7 6 5 4 3 0 2 1 0 0
1970.0 1 2 2 2 1 3 2 3 4 4
2010.0 8 10 13 17 15 15 13 11 8 6
2050.0 4 1 0 0 0 2 3 3 2 5
2090.0 4 6 8 7 9 7 8 7 8 7
2130.0 7 4 6 4 5 3 3 3 3 4
2170.0 6 8 7 10 11 9 9 7 7 7
2210.0 6 5 6 6 6 8 11 12 15 15
2250.0 16 15 15 14 16 14 14 14 14 13
2290.0 15 15 18 20 23 23 23 23 21 20
2330.0 22 16 17 14 19 18 13 11 8 13
2370.0 14 13 14 13 10 7 9 13 13 19
2410.0 23 29 32 35 36 40 37 34 36 33
2450.0 35 35 37 39 42 40 38 37 35 29
2490.0 26 22 21 19 19 21 23 23 27 28
2530.0 30 29 31 33 33 33 34 36 40 46
2570.0 51 61 70 82 93 107 119 129 143 162
2610.0 180 189 208 227 237 237 264 284 247 225
2650.0 229 219 214 214 223 243 276 307 331 344
2690.0 363 381 386 385 388 427 520 642 805 981
2730.0 1181 1347 1526 1480 1272 1119 1041 939 886 920
2770.0 1008 1088 1258 1409 1592 1872 2128 2341 2558 3075
2810.0 3465 3026 2647 2446 2170 1922 1803 1812 1955 2128
2850.0 2324 2445 2623 2799 2958 3333 3296 3144 3211 3131
2890.0 3154 3230 3536 4170 5067 6234 7457 8443 9301 9851
2930.0 9413 10000 9696 9057 9149 8660 8196 8859 7458 5646
2970.0 4799 3490 2191 1224 664 368 216 155 118 106
3010.0 91 92 80 79 80 77 77 75 78 72
3050.0 76 75 76 78 82 83 81 82 80 79
3090.0 73 72 66 66 67 67 70 69 72 76
3130.0 76 73 76 76 77 82 83 84 88 96
3170.0 90 93 91 87 79 70 62 51 44 36
3210.0 34 29 31 25 23 22 22 25 22 27
3250.0 28 34 40 48 47 47 47 44 42 34
3290.0 30 27 27 23 25 25 28 34 37 44
3330.0 50 60 46 47 45 39 37 34 35 36
3370.0 39 38 40 37 36 33 31 27 25 23
3410.0 20 21 18 18 15 16 17 12 9 7
3450.0 10 7 10 11 8 12 11 15 14 21
3490.0 20 20 17 18 17 14 14 12 14 12
3530.0 15 12 13 9 12 10 12 11 10 9
3570.0 10 11 10 12 12 11 11 11 10 11
3610.0 7 5 9 7 10 6 11 14 11 10
3650.0 6 14 15 15 14 13 8 10 9 15
3690.0 18 15 16 16 20 14 19 21 18 19
3730.0 13 19 17 20 13 15 10 15 9 15
3770.0 11 14 19 12 17 16 21 11 15 14
3810.0 13 17 19 19 23 21 20 14 15 19
3850.0 15 12 18 10 16 14 17 15 12 20
3890.0 13 18 19 21 14 22 20 16 21 22
3930.0 20 22 19 15 26 15 17 14 13 14
##END=
