##TITLE=1,3-Benzenedicarbonitrile
##JCAMP-DX=4.24
##DATA TYPE=INFRARED SPECTRUM
##ORIGIN=Sadtler Research Labs Under US-EPA Contract
##OWNER=NIST Standard Reference Data Program
##CAS REGISTRY NO=626-17-5
##MOLFORM=C 8 H 4 N 2
##XUNITS=1/CM
##YUNITS=ABSORBANCE
##XFACTOR=1.0
##YFACTOR=0.000052374
##DELTAX=4.0
##FIRSTX=450.0
##LASTX=3966.0
##FIRSTY=0.019064
##MAXX=3966
##MINX=450
##MAXY=0.52374
##MINY=0
##NPOINTS=880
##XYDATA=(X++(Y..Y))
450.0 364 365 389 393 500 611 819 1159 1714 2262
490.0 3720 4400 3533 2284 1800 737 432 205 278 269
530.0 232 247 195 129 61 143 56 104 46 135
570.0 25 104 140 80 104 59 97 4 88 59
610.0 113 59 137 122 102 125 158 287 268 413
650.0 311 517 591 1546 2247 3828 4804 6734 9492 4961
690.0 4301 3493 1998 1285 831 741 522 538 546 562
730.0 585 662 670 560 578 418 384 279 453 391
770.0 537 741 1367 2327 3780 5296 6217 10000 9902 5475
810.0 5285 3435 1888 830 395 218 227 322 482 741
850.0 918 936 936 830 584 461 442 669 1006 1784
890.0 2498 3147 3508 4107 4443 3074 2103 1743 1018 562
930.0 230 178 108 186 269 348 297 261 224 134
970.0 109 113 193 207 222 209 220 190 165 180
1010.0 169 149 119 113 105 124 135 196 251 328
1050.0 341 322 332 291 246 215 230 236 359 533
1090.0 847 942 815 904 810 475 295 182 162 156
1130.0 189 246 310 342 336 306 213 143 142 305
1170.0 460 467 428 425 213 90 66 66 61 61
1210.0 63 66 67 76 92 93 112 112 129 155
1250.0 210 301 367 389 368 316 222 164 142 146
1290.0 139 139 120 114 129 205 339 462 471 476
1330.0 436 330 324 372 407 408 374 317 262 207
1370.0 161 139 123 124 117 129 156 238 392 618
1410.0 932 1239 1278 1193 1239 960 567 334 208 169
1450.0 183 219 256 471 898 2060 3706 4534 4219 4203
1490.0 2619 904 271 187 114 106 69 64 58 90
1530.0 97 113 119 110 133 166 209 265 424 639
1570.0 914 1162 1290 1452 1587 1377 1140 976 847 799
1610.0 638 487 361 258 160 126 95 68 66 51
1650.0 40 46 77 81 88 80 67 92 85 104
1690.0 110 128 115 151 242 415 664 934 1099 1067
1730.0 950 701 432 305 251 220 220 219 236 259
1770.0 274 275 268 247 275 311 374 465 545 544
1810.0 475 454 361 243 194 190 235 293 336 345
1850.0 331 326 274 195 141 113 109 120 139 178
1890.0 252 388 549 632 617 522 386 222 106 82
1930.0 77 80 94 121 182 276 365 426 427 401
1970.0 372 273 152 80 52 28 24 26 22 17
2010.0 15 11 9 11 14 13 17 22 30 41
2050.0 46 50 55 56 44 44 44 40 41 35
2090.0 24 23 19 13 12 22 24 28 36 36
2130.0 25 15 12 12 14 16 13 15 20 19
2170.0 24 19 20 28 35 36 35 33 31 28
2210.0 29 46 76 163 345 659 1013 1261 1315 1186
2250.0 844 379 106 64 81 101 99 99 82 59
2290.0 39 37 35 36 35 22 25 26 26 4
2330.0 13 8 36 80 152 155 163 158 105 64
2370.0 39 47 67 73 78 74 77 82 83 92
2410.0 94 98 104 106 93 83 66 52 45 39
2450.0 42 51 47 47 51 57 44 39 26 18
2490.0 16 12 11 11 4 6 9 6 10 10
2530.0 10 3 1 9 10 14 14 13 23 30
2570.0 40 43 47 57 55 59 68 70 76 67
2610.0 51 37 35 27 17 16 12 8 10 15
2650.0 14 16 12 14 17 16 27 37 64 91
2690.0 105 113 111 96 70 44 39 41 46 63
2730.0 77 80 77 78 64 50 39 30 25 14
2770.0 15 19 18 20 36 38 46 53 65 79
2810.0 90 100 111 129 127 126 124 120 108 98
2850.0 88 71 47 37 26 25 30 27 22 30
2890.0 28 26 35 32 26 27 25 26 30 36
2930.0 41 51 58 66 80 78 66 70 56 47
2970.0 37 24 27 24 23 28 25 26 23 28
3010.0 25 29 33 36 46 58 78 99 117 124
3050.0 136 145 152 192 256 402 631 861 875 854
3090.0 905 701 464 359 298 261 227 186 141 111
3130.0 98 87 76 66 43 37 28 31 36 33
3170.0 33 51 58 58 47 50 45 43 37 25
3210.0 17 13 8 6 5 11 15 13 11 5
3250.0 1 3 2 3 1 9 12 5 0 5
3290.0 8 9 2 10 9 10 2 8 17 8
3330.0 9 15 15 14 10 15 13 13 24 36
3370.0 49 53 72 74 74 59 61 41 42 32
3410.0 22 35 24 32 47 47 52 60 65 55
3450.0 49 52 71 104 120 147 161 165 149 124
3490.0 84 43 38 25 38 31 30 44 53 39
3530.0 64 71 66 59 61 61 56 49 47 42
3570.0 35 41 43 35 32 37 31 41 20 25
3610.0 25 18 14 11 19 20 22 22 24 28
3650.0 30 37 45 29 31 27 29 26 4 9
3690.0 26 28 32 25 36 47 43 43 70 59
3730.0 52 55 54 50 56 36 54 61 42 40
3770.0 60 49 67 59 64 58 69 60 59 90
3810.0 83 88 86 84 84 93 65 90 113 76
3850.0 56 56 64 42 36 27 32 35 32 42
3890.0 24 26 25 32 30 36 23 27 38 38
3930.0 51 37 60 78 61 33 56 55 71 73
##END=
