##TITLE=Benzene, 1,3-diiodo-
##JCAMP-DX=4.24
##DATA TYPE=INFRARED SPECTRUM
##ORIGIN=Sadtler Research Labs Under US-EPA Contract
##OWNER=NIST Standard Reference Data Program
##CAS REGISTRY NO=626-00-6
##MOLFORM=C 6 H 4 I 2
##XUNITS=1/CM
##YUNITS=ABSORBANCE
##XFACTOR=1.0
##YFACTOR=0.000092798
##DELTAX=4.0
##FIRSTX=450.0
##LASTX=3966.0
##FIRSTY=0.000000
##MAXX=3966
##MINX=450
##MAXY=0.92798
##MINY=0
##NPOINTS=880
##XYDATA=(X++(Y..Y))
450.0 0 79 114 133 127 135 107 175 83 118
490.0 115 147 103 136 145 130 102 99 146 98
530.0 115 104 130 117 157 144 106 137 85 106
570.0 83 124 94 112 86 137 143 146 196 134
610.0 152 112 178 139 215 253 309 282 209 237
650.0 161 358 490 947 1080 1584 1431 1226 1063 1807
690.0 4640 7365 7823 2123 137 232 81 131 159 156
730.0 223 197 243 214 331 495 883 1597 2377 3437
770.0 3689 2837 1925 981 419 242 142 157 133 141
810.0 121 136 145 130 139 152 198 190 178 144
850.0 141 136 175 242 353 475 556 543 394 305
890.0 212 177 180 177 156 139 131 128 128 126
930.0 161 160 151 131 130 143 174 195 218 233
970.0 243 260 346 520 790 1167 1308 1247 1023 592
1010.0 356 224 183 167 199 285 471 794 1222 1489
1050.0 1551 1373 948 664 775 1388 2024 1772 836 355
1090.0 238 150 147 133 132 137 135 141 141 169
1130.0 174 183 160 153 138 138 139 140 147 159
1170.0 192 209 228 211 199 182 172 161 144 142
1210.0 135 141 136 145 147 148 149 156 159 150
1250.0 149 151 151 154 167 149 177 235 396 594
1290.0 655 470 273 232 297 401 512 532 459 333
1330.0 249 218 128 133 187 198 245 332 467 610
1370.0 671 681 789 907 938 1044 1167 1238 1187 1032
1410.0 664 422 144 170 182 259 335 661 1584 3154
1450.0 4519 4326 3624 3051 2199 1115 453 213 251 143
1490.0 86 200 174 219 110 75 154 156 102 292
1530.0 398 713 1163 1866 3356 5695 8711 10000 8434 3877
1570.0 1615 802 392 238 271 209 238 199 229 184
1610.0 195 204 141 195 137 232 156 158 209 199
1650.0 107 132 260 356 386 311 174 209 98 74
1690.0 152 177 52 58 113 190 143 51 177 232
1730.0 190 123 248 281 247 192 220 188 172 209
1770.0 174 169 234 218 242 247 237 246 191 225
1810.0 190 173 186 170 158 146 187 218 187 160
1850.0 225 290 339 386 352 234 222 197 187 173
1890.0 153 158 167 172 173 177 184 198 205 259
1930.0 284 276 260 208 194 191 185 173 177 161
1970.0 164 172 169 167 165 140 142 158 159 159
2010.0 159 151 142 151 158 156 161 153 150 154
2050.0 156 151 152 151 143 155 153 153 150 149
2090.0 139 143 143 144 144 141 144 144 145 142
2130.0 141 141 142 146 150 155 152 149 144 143
2170.0 142 145 151 155 150 139 134 128 125 126
2210.0 129 126 125 125 126 130 127 129 130 135
2250.0 132 132 125 118 120 121 125 125 127 126
2290.0 130 125 123 126 132 128 130 131 134 130
2330.0 129 142 140 161 152 171 156 157 143 127
2370.0 125 127 125 120 123 131 134 128 115 105
2410.0 93 94 98 92 92 93 97 95 94 96
2450.0 99 104 105 101 104 98 103 101 97 94
2490.0 95 100 99 99 98 93 89 86 85 85
2530.0 88 86 88 90 98 94 95 89 94 93
2570.0 91 89 86 84 89 106 113 128 134 127
2610.0 102 86 83 81 83 80 79 72 65 63
2650.0 60 66 59 60 60 58 54 54 45 48
2690.0 51 50 53 49 54 55 57 56 60 67
2730.0 61 64 61 63 56 57 56 60 56 59
2770.0 58 63 64 69 76 76 78 74 70 71
2810.0 64 67 71 67 73 70 68 72 75 68
2850.0 65 58 59 56 58 56 51 49 55 52
2890.0 55 53 65 66 66 59 59 55 52 53
2930.0 48 47 49 55 57 56 59 57 56 59
2970.0 64 72 80 89 89 86 85 76 66 68
3010.0 71 68 67 73 71 77 86 111 157 239
3050.0 346 479 565 619 630 585 523 444 324 248
3090.0 194 155 137 146 162 191 192 186 167 131
3130.0 101 78 62 59 58 56 57 58 54 54
3170.0 57 57 55 55 50 56 55 53 56 60
3210.0 57 58 58 54 59 55 55 50 56 54
3250.0 56 53 52 54 59 57 48 58 56 60
3290.0 61 59 61 50 54 52 49 50 60 53
3330.0 58 57 51 58 55 59 58 55 53 55
3370.0 54 51 56 49 53 46 57 59 58 65
3410.0 59 50 58 58 52 58 51 58 56 46
3450.0 48 54 51 57 55 49 56 55 53 48
3490.0 48 56 58 58 48 59 51 59 58 60
3530.0 59 50 49 51 52 56 64 59 59 46
3570.0 52 62 60 52 56 57 55 50 55 51
3610.0 53 59 65 55 61 58 56 61 57 60
3650.0 56 57 60 53 53 53 71 63 59 63
3690.0 54 66 65 71 62 72 79 108 105 72
3730.0 72 64 71 69 63 74 87 76 69 76
3770.0 76 62 60 54 62 74 71 64 70 74
3810.0 67 61 71 64 65 57 46 57 63 54
3850.0 62 71 53 52 59 57 45 49 50 61
3890.0 62 69 59 57 68 56 66 82 73 58
3930.0 57 63 54 70 60 63 80 71 68 62
##END=
