##TITLE=1-Pentanol, 4-methyl-
##JCAMP-DX=4.24
##DATA TYPE=INFRARED SPECTRUM
##ORIGIN=Sadtler Research Labs Under US-EPA Contract
##OWNER=NIST Standard Reference Data Program
##CAS REGISTRY NO=626-89-1
##MOLFORM=C 6 H 14 O
##XUNITS=1/CM
##YUNITS=ABSORBANCE
##XFACTOR=1.0
##YFACTOR=0.000136441
##DELTAX=4.0
##FIRSTX=450.0
##LASTX=3966.0
##FIRSTY=0.000000
##MAXX=3966
##MINX=450
##MAXY=1.36441
##MINY=0
##NPOINTS=880
##XYDATA=(X++(Y..Y))
450.0 0 144 141 176 160 163 105 158 127 176
490.0 141 193 250 257 274 216 271 184 232 133
530.0 160 147 179 169 147 104 179 149 154 149
570.0 157 136 142 69 81 127 133 123 124 113
610.0 126 131 143 138 146 141 131 146 137 154
650.0 146 130 141 145 138 154 158 152 153 152
690.0 153 128 155 143 148 143 143 164 136 156
730.0 155 178 149 151 169 204 180 176 169 174
770.0 158 145 150 150 154 134 127 135 179 170
810.0 177 180 183 183 179 186 190 196 202 214
850.0 217 232 253 258 270 287 321 349 397 456
890.0 505 537 555 557 528 479 446 425 401 398
930.0 404 418 436 448 460 461 439 431 432 434
970.0 451 490 535 602 690 790 901 1044 1198 1352
1010.0 1522 1715 1911 2097 2301 2497 2643 2765 2894 3005
1050.0 3104 3249 3319 3269 3007 2630 2200 1796 1440 1148
1090.0 935 798 725 674 645 614 584 550 519 498
1130.0 480 467 448 439 435 444 466 515 569 623
1170.0 654 662 662 624 590 570 563 561 568 572
1210.0 581 581 589 594 601 598 601 605 602 609
1250.0 616 620 625 634 639 634 629 613 596 578
1290.0 563 555 548 543 542 544 543 547 563 585
1330.0 616 648 664 664 666 682 723 809 944 1133
1370.0 1274 1410 1626 1753 1760 1693 1548 1333 1053 815
1410.0 654 548 475 436 415 430 460 513 590 681
1450.0 802 933 1066 1149 1227 1316 1312 1182 1012 845
1490.0 649 482 359 268 224 188 168 158 147 141
1530.0 129 129 117 120 119 117 116 112 110 102
1570.0 107 102 105 95 99 98 94 94 94 94
1610.0 92 95 91 94 87 91 84 87 91 93
1650.0 89 90 87 88 90 88 87 92 86 85
1690.0 83 85 87 84 85 85 82 78 80 75
1730.0 75 76 76 70 74 75 73 74 71 75
1770.0 72 72 71 73 72 72 70 69 71 72
1810.0 71 70 73 71 72 69 72 70 67 69
1850.0 69 71 70 69 70 68 73 74 72 73
1890.0 72 71 71 68 76 73 73 74 76 73
1930.0 76 79 78 78 79 80 77 77 77 76
1970.0 76 71 71 70 72 68 70 70 70 72
2010.0 71 74 71 74 77 79 76 86 86 85
2050.0 88 89 90 89 85 80 79 76 75 74
2090.0 72 70 69 71 69 70 66 65 69 66
2130.0 66 62 62 65 63 61 63 63 65 66
2170.0 63 68 65 69 72 71 70 76 71 68
2210.0 71 71 70 70 69 67 67 63 62 64
2250.0 64 64 67 67 67 71 68 71 71 74
2290.0 75 80 83 79 82 79 82 72 77 76
2330.0 75 72 70 80 69 85 60 67 73 95
2370.0 93 100 97 97 97 95 87 84 83 86
2410.0 84 81 83 85 85 86 84 84 84 87
2450.0 86 82 82 81 83 82 80 84 83 82
2490.0 83 82 85 88 82 88 85 92 90 94
2530.0 89 96 98 97 98 101 106 105 108 110
2570.0 112 113 115 119 120 125 135 141 143 147
2610.0 149 159 158 164 164 166 170 165 173 178
2650.0 172 172 170 176 172 168 169 177 176 182
2690.0 183 188 195 201 205 216 235 251 269 285
2730.0 302 315 324 324 323 322 323 322 326 337
2770.0 347 351 371 379 386 414 424 436 458 482
2810.0 497 533 564 602 641 714 821 959 1146 1383
2850.0 1669 1999 2374 2794 3272 3844 4468 4828 5078 5192
2890.0 5135 4913 4804 4838 5002 5227 5465 5713 6060 6453
2930.0 6820 7245 7495 7680 7813 7809 8127 8878 9993 10000
2970.0 9331 8038 6148 4102 2484 1534 1031 747 593 500
3010.0 438 394 361 327 302 286 271 251 247 234
3050.0 225 226 215 210 212 207 187 200 196 194
3090.0 190 177 170 184 177 181 156 163 174 175
3130.0 158 158 177 179 174 163 169 172 166 175
3170.0 176 184 174 176 187 172 166 163 160 148
3210.0 140 133 126 119 119 105 91 97 104 98
3250.0 87 88 71 82 87 86 89 106 87 87
3290.0 61 83 92 86 90 99 101 84 99 111
3330.0 114 101 124 101 110 112 109 107 112 107
3370.0 112 118 112 102 104 115 117 106 114 112
3410.0 120 112 107 112 110 121 116 108 112 117
3450.0 124 116 123 119 117 114 102 117 124 117
3490.0 121 125 125 104 108 108 130 108 118 109
3530.0 100 116 113 109 110 99 125 124 107 110
3570.0 92 98 114 145 133 130 119 124 134 121
3610.0 146 138 145 161 170 202 221 244 299 373
3650.0 484 614 712 829 923 971 941 855 746 587
3690.0 440 306 250 192 177 157 158 157 131 127
3730.0 143 134 152 114 146 130 117 111 119 129
3770.0 120 129 116 112 133 134 123 144 137 130
3810.0 139 148 132 135 148 159 139 148 158 155
3850.0 155 132 146 148 163 135 149 146 143 175
3890.0 156 164 123 157 153 128 119 126 133 147
3930.0 164 152 143 116 146 115 122 128 151 130
##END=
