##TITLE=Benzenamine, 3,5-dichloro-
##JCAMP-DX=4.24
##DATA TYPE=INFRARED SPECTRUM
##ORIGIN=Sadtler Research Labs Under US-EPA Contract
##OWNER=NIST Standard Reference Data Program
##CAS REGISTRY NO=626-43-7
##MOLFORM=C 6 H 5 Cl 2 N
##XUNITS=1/CM
##YUNITS=ABSORBANCE
##XFACTOR=1.0
##YFACTOR=0.000147736
##DELTAX=4.0
##FIRSTX=450.0
##LASTX=3966.0
##FIRSTY=0.112427
##MAXX=3966
##MINX=450
##MAXY=1.47736
##MINY=0
##NPOINTS=880
##XYDATA=(X++(Y..Y))
450.0 761 450 115 129 85 7 70 63 278 202
490.0 134 256 198 283 325 361 374 324 233 270
530.0 202 224 147 182 243 164 174 147 209 179
570.0 201 212 215 243 185 142 176 124 118 124
610.0 110 95 40 118 132 87 142 174 272 407
650.0 637 1234 1724 2949 4117 4635 3777 3816 2554 1732
690.0 1370 1042 1042 964 958 936 814 729 643 540
730.0 488 418 422 287 227 221 183 202 204 245
770.0 345 403 538 779 1350 2208 3215 4092 4266 4149
810.0 3307 2629 2739 3022 3528 4313 3832 3522 2873 2200
850.0 1545 1053 728 530 397 331 260 236 192 174
890.0 170 170 144 188 225 277 377 515 773 1195
930.0 1802 2296 2418 2346 1931 1108 508 278 177 145
970.0 127 131 180 266 464 586 522 567 388 160
1010.0 85 55 57 74 62 84 87 93 129 182
1050.0 261 351 468 583 704 818 817 730 630 542
1090.0 551 760 1080 1575 2024 2047 2051 1668 1023 510
1130.0 286 183 137 93 59 57 30 26 11 0
1170.0 13 9 14 20 15 32 40 58 67 66
1210.0 83 78 85 86 74 88 96 132 171 183
1250.0 200 205 205 236 301 434 582 742 909 1109
1290.0 1238 1186 1027 733 370 159 94 89 82 80
1330.0 100 113 176 204 211 255 292 365 429 452
1370.0 455 403 342 297 285 307 400 581 849 1143
1410.0 1346 1373 1383 1247 1260 1668 2399 3335 4070 4559
1450.0 4668 3999 3340 2280 1333 838 713 588 508 471
1490.0 475 501 535 557 558 524 440 430 537 596
1530.0 744 943 1105 1247 1262 1292 1369 1776 2847 4176
1570.0 6589 8129 8517 10000 7797 8062 8871 8148 8062 6539
1610.0 5315 5093 5774 6508 6254 6442 5093 3711 2955 2154
1650.0 1702 1285 881 677 550 529 534 487 501 479
1690.0 433 420 464 437 377 308 260 228 162 116
1730.0 121 135 95 85 90 100 76 73 74 67
1770.0 91 102 75 83 79 86 85 79 83 71
1810.0 71 70 61 57 63 62 54 42 52 71
1850.0 58 48 50 47 60 69 50 40 39 42
1890.0 45 45 44 47 55 59 63 65 77 74
1930.0 77 87 90 103 102 94 90 82 69 68
1970.0 62 60 62 66 66 73 73 65 59 61
2010.0 56 55 55 46 39 36 33 38 42 44
2050.0 49 51 53 52 51 44 42 42 35 34
2090.0 38 36 43 41 45 48 51 50 49 44
2130.0 40 37 37 31 28 29 35 37 37 38
2170.0 38 41 43 39 40 38 43 42 43 49
2210.0 53 56 55 49 42 32 27 25 22 21
2250.0 22 23 28 27 33 37 41 41 40 38
2290.0 33 28 27 26 21 19 16 11 5 9
2330.0 0 8 13 7 33 23 23 28 36 53
2370.0 62 61 64 58 50 45 46 49 47 45
2410.0 36 27 21 18 18 18 13 16 15 13
2450.0 8 7 5 6 7 5 4 9 9 9
2490.0 7 7 10 16 15 16 19 21 26 27
2530.0 27 31 36 42 45 47 49 53 51 47
2570.0 40 32 33 32 33 27 24 23 18 15
2610.0 10 11 13 8 11 13 15 17 18 22
2650.0 26 23 29 35 40 54 61 78 89 99
2690.0 106 106 100 94 85 75 68 68 73 80
2730.0 77 78 74 68 58 53 44 34 28 24
2770.0 23 23 18 15 13 18 11 12 9 12
2810.0 12 13 10 13 17 17 23 23 30 38
2850.0 46 51 49 52 49 46 37 28 26 32
2890.0 37 37 37 39 39 36 27 19 17 19
2930.0 18 12 13 14 15 16 11 12 18 20
2970.0 19 17 18 18 19 16 18 25 31 38
3010.0 45 52 61 60 58 55 56 55 52 58
3050.0 69 104 149 223 289 315 307 256 168 91
3090.0 56 51 50 42 34 28 21 23 16 21
3130.0 20 29 37 41 45 49 47 39 28 20
3170.0 16 18 20 21 23 28 35 44 53 65
3210.0 87 103 123 125 118 114 94 81 61 49
3250.0 43 41 35 27 27 27 22 20 18 11
3290.0 15 15 16 12 6 8 11 18 10 13
3330.0 9 4 15 15 15 16 12 23 27 34
3370.0 49 46 65 79 100 135 186 288 397 540
3410.0 694 749 821 829 868 932 840 756 624 387
3450.0 173 94 65 64 68 79 113 154 216 282
3490.0 339 435 484 459 456 391 363 437 546 533
3530.0 450 350 164 58 36 30 29 48 40 42
3570.0 31 28 23 23 31 21 24 19 32 15
3610.0 15 19 14 22 19 21 21 25 17 26
3650.0 19 26 11 16 6 11 13 27 19 12
3690.0 22 22 24 22 27 26 31 25 30 34
3730.0 23 29 33 37 42 40 31 36 28 40
3770.0 33 30 32 27 37 37 31 30 17 43
3810.0 31 56 39 46 42 60 67 74 88 104
3850.0 124 132 114 91 93 78 51 40 39 44
3890.0 46 50 21 44 52 21 29 28 40 71
3930.0 67 66 73 65 103 68 59 28 50 58
##END=
