##TITLE=Benzene, 1,3,5-tribromo-
##JCAMP-DX=4.24
##DATA TYPE=INFRARED SPECTRUM
##ORIGIN=Sadtler Research Labs Under US-EPA Contract
##OWNER=NIST Standard Reference Data Program
##CAS REGISTRY NO=626-39-1
##MOLFORM=C 6 H 3 Br 3
##XUNITS=1/CM
##YUNITS=ABSORBANCE
##XFACTOR=1.0
##YFACTOR=0.000074658
##DELTAX=4.0
##FIRSTX=450.0
##LASTX=3966.0
##FIRSTY=0.001792
##MAXX=3966
##MINX=450
##MAXY=0.74658
##MINY=0
##NPOINTS=880
##XYDATA=(X++(Y..Y))
450.0 24 14 22 71 107 133 101 139 125 152
490.0 148 119 113 109 0 0 71 47 124 89
530.0 125 60 78 157 65 60 131 37 69 105
570.0 86 140 60 93 155 112 201 83 94 112
610.0 155 177 161 126 175 22 113 141 116 147
650.0 421 867 1252 1004 449 143 64 85 114 162
690.0 186 214 217 194 225 243 246 254 392 684
730.0 1373 2459 3687 4517 4363 3045 1317 597 361 293
770.0 254 265 263 212 129 103 151 134 83 115
810.0 91 119 140 104 92 133 203 387 884 1553
850.0 2049 1453 620 210 127 81 116 121 205 110
890.0 84 109 122 138 91 132 126 122 108 114
930.0 96 72 67 101 131 60 99 99 58 96
970.0 99 80 123 108 104 112 91 133 125 143
1010.0 127 180 125 62 55 129 128 99 82 127
1050.0 68 109 114 81 83 103 135 168 292 431
1090.0 760 922 960 727 385 166 138 117 120 135
1130.0 100 97 89 71 95 84 95 96 88 86
1170.0 75 90 99 95 92 61 71 69 68 66
1210.0 72 93 99 86 91 92 77 69 41 86
1250.0 76 75 97 64 77 89 89 77 61 81
1290.0 95 84 91 76 76 86 86 106 106 100
1330.0 132 153 199 223 331 584 808 780 636 485
1370.0 649 977 1130 947 618 455 674 1519 2920 3748
1410.0 3146 1735 550 223 179 158 147 197 138 145
1450.0 126 96 157 112 139 139 189 163 136 150
1490.0 184 153 154 133 180 243 287 497 664 568
1530.0 474 534 791 1485 2797 5011 8036 10000 7440 3377
1570.0 1097 478 371 281 173 123 91 71 73 71
1610.0 71 70 105 77 69 73 64 72 62 83
1650.0 87 134 62 72 70 104 107 102 92 112
1690.0 67 72 105 130 112 142 194 288 246 186
1730.0 151 186 199 232 227 194 107 82 74 65
1770.0 92 86 59 76 75 75 102 86 94 68
1810.0 66 61 60 59 68 69 58 59 65 71
1850.0 59 45 50 58 50 72 47 48 46 42
1890.0 50 46 44 47 43 46 47 55 41 37
1930.0 40 30 37 43 35 32 34 39 33 40
1970.0 44 45 33 26 29 32 41 38 34 32
2010.0 30 37 48 37 30 30 35 28 42 36
2050.0 31 34 35 27 40 28 34 33 39 33
2090.0 31 35 31 37 24 33 29 31 25 31
2130.0 25 36 32 31 28 41 35 40 29 29
2170.0 33 28 40 40 40 34 34 33 24 27
2210.0 28 37 33 25 25 26 26 24 24 31
2250.0 25 38 31 31 31 33 36 36 36 34
2290.0 40 41 54 67 66 81 75 79 87 87
2330.0 91 98 102 114 110 97 135 176 165 163
2370.0 155 109 83 65 38 25 16 18 16 15
2410.0 16 20 21 9 19 18 10 15 14 1
2450.0 7 13 19 19 13 15 11 6 14 9
2490.0 14 13 21 11 7 14 14 14 14 20
2530.0 4 17 17 14 10 13 10 14 13 19
2570.0 13 19 12 19 19 11 16 24 18 24
2610.0 25 26 25 31 32 40 38 49 35 34
2650.0 25 25 25 23 25 24 31 24 24 25
2690.0 17 11 12 15 10 17 7 12 12 18
2730.0 25 18 18 11 9 9 13 14 13 13
2770.0 18 18 18 18 18 18 17 22 24 31
2810.0 33 48 34 55 38 25 23 17 16 16
2850.0 11 11 11 11 13 20 12 23 11 10
2890.0 9 16 9 23 16 21 26 18 24 16
2930.0 21 14 23 23 22 23 23 29 28 23
2970.0 19 12 20 24 13 23 3 15 23 16
3010.0 22 15 13 15 11 11 7 18 10 3
3050.0 21 21 15 21 22 16 24 31 50 64
3090.0 63 50 33 41 40 46 60 67 69 44
3130.0 34 21 21 21 13 21 15 21 15 8
3170.0 14 15 21 15 17 21 16 22 19 19
3210.0 13 14 21 20 20 20 20 18 14 18
3250.0 10 13 14 20 19 14 13 19 27 20
3290.0 19 19 24 20 20 20 20 20 12 20
3330.0 20 12 20 11 20 18 34 16 19 22
3370.0 36 19 19 13 18 19 21 13 11 19
3410.0 19 18 37 25 18 26 26 19 19 25
3450.0 29 14 16 22 18 23 17 25 23 37
3490.0 6 17 16 32 37 27 24 26 43 40
3530.0 32 27 38 25 25 28 24 23 30 51
3570.0 63 27 35 41 40 59 17 37 37 37
3610.0 62 47 35 40 34 66 24 16 22 40
3650.0 62 41 40 30 17 44 37 41 16 35
3690.0 48 39 17 41 23 17 34 35 33 42
3730.0 32 42 33 24 52 45 39 15 15 16
3770.0 15 13 12 10 15 12 2 9 15 0
3810.0 4 2 22 21 16 15 15 25 22 15
3850.0 22 33 9 13 22 9 8 8 15 15
3890.0 8 11 10 16 2 1 1 1 1 2
3930.0 2 7 6 2 1 1 1 1 1 1
##END=
