##TITLE=Cyclohexane, iodo-
##JCAMP-DX=4.24
##DATA TYPE=INFRARED SPECTRUM
##ORIGIN=Sadtler Research Labs Under US-EPA Contract
##OWNER=NIST Standard Reference Data Program
##CAS REGISTRY NO=626-62-0
##MOLFORM=C 6 H 11 I
##XUNITS=1/CM
##YUNITS=ABSORBANCE
##XFACTOR=1.0
##YFACTOR=0.000070816
##DELTAX=4.0
##FIRSTX=450.0
##LASTX=3966.0
##FIRSTY=0.010764
##MAXX=3966
##MINX=450
##MAXY=0.70816
##MINY=0
##NPOINTS=880
##XYDATA=(X++(Y..Y))
450.0 152 173 139 105 105 93 75 96 88 150
490.0 164 177 179 115 86 50 43 45 43 37
530.0 25 58 45 38 52 40 58 53 15 74
570.0 39 13 48 17 78 109 33 48 49 47
610.0 55 56 56 71 84 141 218 240 267 359
650.0 471 763 1055 1157 1167 684 267 126 78 72
690.0 61 58 58 58 52 51 50 86 79 72
730.0 72 71 65 62 63 80 67 65 62 65
770.0 65 65 73 73 90 103 146 238 329 338
810.0 324 223 106 85 66 66 95 128 207 275
850.0 304 306 273 221 192 209 256 333 374 344
890.0 263 173 119 104 94 98 102 102 102 90
930.0 81 75 60 59 59 61 74 89 115 137
970.0 188 270 431 656 770 772 680 534 395 343
1010.0 308 287 202 165 148 132 112 98 90 76
1050.0 75 76 68 66 73 88 117 146 205 352
1090.0 627 812 849 793 473 261 166 113 87 87
1130.0 87 83 96 105 118 137 209 375 721 1210
1170.0 1830 1957 1788 1374 592 301 179 130 101 99
1210.0 114 128 141 134 120 123 191 393 785 1109
1250.0 1408 1514 1364 952 562 337 257 207 168 136
1290.0 119 111 121 122 135 151 138 131 138 169
1330.0 256 335 408 435 413 380 320 271 211 123
1370.0 77 48 42 41 42 42 43 46 56 67
1410.0 77 89 108 145 211 275 386 539 750 1001
1450.0 1242 1379 1282 1073 812 566 386 245 147 100
1490.0 66 52 49 38 15 35 39 35 30 27
1530.0 40 26 20 18 31 25 25 9 41 47
1570.0 44 50 45 52 46 39 31 26 30 26
1610.0 28 25 23 22 25 24 22 19 33 19
1650.0 23 16 28 18 28 20 19 17 24 26
1690.0 34 41 44 58 57 62 54 44 47 29
1730.0 22 20 23 21 22 23 35 20 21 20
1770.0 22 23 20 21 20 24 28 21 23 28
1810.0 21 21 21 21 14 23 21 20 22 22
1850.0 23 21 20 20 22 22 21 31 24 22
1890.0 25 28 24 22 22 28 30 23 22 29
1930.0 33 22 22 23 23 23 22 22 22 23
1970.0 22 22 22 22 22 21 16 20 17 22
2010.0 21 16 17 17 16 17 9 17 15 13
2050.0 16 24 23 25 24 24 24 24 25 24
2090.0 24 32 32 34 38 37 40 47 46 46
2130.0 38 39 39 33 34 25 38 51 37 27
2170.0 14 8 0 0 6 20 26 35 35 35
2210.0 38 33 43 41 42 42 42 42 35 35
2250.0 35 28 37 37 32 36 32 38 38 31
2290.0 32 33 35 35 29 17 18 8 9 20
2330.0 24 42 41 55 71 41 2 16 50 98
2370.0 125 139 124 107 83 64 62 55 49 48
2410.0 48 50 49 57 64 64 61 58 57 59
2450.0 59 58 58 58 60 61 60 66 75 84
2490.0 74 83 82 90 97 104 105 106 105 104
2530.0 99 91 89 74 87 107 101 80 65 45
2570.0 44 24 33 45 63 78 93 100 100 102
2610.0 97 97 98 104 104 103 107 113 127 132
2650.0 152 160 168 176 176 163 163 148 142 136
2690.0 129 124 122 126 129 133 131 132 124 124
2730.0 117 119 119 124 111 105 95 84 84 80
2770.0 85 98 112 134 156 170 185 199 199 199
2810.0 206 218 218 237 285 359 490 647 806 974
2850.0 1216 1613 2186 2726 3028 2993 2550 1975 1550 1303
2890.0 1134 1004 897 830 851 1002 1277 1708 2361 3273
2930.0 4472 6019 8206 9917 10000 9589 7085 5200 4055 2556
2970.0 1782 1238 862 564 382 264 193 151 108 108
3010.0 109 115 124 132 126 130 135 134 135 146
3050.0 133 140 126 97 83 70 59 57 57 65
3090.0 71 79 80 81 87 96 95 101 95 98
3130.0 86 80 63 66 63 55 57 56 49 50
3170.0 56 65 66 81 74 88 88 93 86 90
3210.0 89 89 89 90 95 97 93 98 95 100
3250.0 92 84 93 79 79 80 73 73 72 67
3290.0 64 65 63 62 70 55 55 62 54 61
3330.0 62 57 56 63 54 67 64 64 59 65
3370.0 76 58 60 59 68 75 57 70 70 60
3410.0 75 68 62 70 63 85 50 58 66 65
3450.0 73 64 41 57 44 64 85 59 35 41
3490.0 77 62 49 50 72 66 81 42 58 70
3530.0 67 75 77 39 58 53 47 14 39 35
3570.0 57 72 63 67 54 61 72 90 86 63
3610.0 75 55 59 59 43 54 90 84 59 25
3650.0 35 102 84 40 42 9 52 71 73 47
3690.0 53 79 68 61 55 37 74 65 61 38
3730.0 54 44 85 56 56 72 112 102 122 93
3770.0 105 108 116 114 100 99 79 78 92 104
3810.0 116 93 87 82 98 45 35 50 79 71
3850.0 24 29 72 63 83 60 50 22 42 35
3890.0 18 18 19 33 73 55 67 70 90 98
3930.0 102 81 75 48 11 0 0 0 16 31
##END=
