##TITLE=Benzenamine, 3-iodo-
##JCAMP-DX=4.24
##DATA TYPE=INFRARED SPECTRUM
##ORIGIN=Sadtler Research Labs Under US-EPA Contract
##OWNER=NIST Standard Reference Data Program
##CAS REGISTRY NO=626-01-7
##MOLFORM=C 6 H 6 I N
##XUNITS=1/CM
##YUNITS=ABSORBANCE
##XFACTOR=1.0
##YFACTOR=0.000092691
##DELTAX=4.0
##FIRSTX=450.0
##LASTX=3966.0
##FIRSTY=0.086852
##MAXX=3966
##MINX=450
##MAXY=0.92691
##MINY=0
##NPOINTS=880
##XYDATA=(X++(Y..Y))
450.0 937 614 549 494 592 579 729 659 816 889
490.0 862 886 885 786 636 725 571 637 620 700
530.0 710 628 564 524 530 423 470 453 528 486
570.0 570 558 498 539 559 606 361 470 360 437
610.0 428 379 459 438 578 557 829 876 1253 1558
650.0 2292 3199 4190 5835 7054 7406 7514 6571 5005 4057
690.0 3299 2695 2105 1632 1357 1260 1144 1053 938 790
730.0 728 651 729 909 1304 1932 2727 3545 4614 4959
770.0 4245 3693 2992 2209 1669 1323 1121 988 945 875
810.0 858 789 758 758 840 993 1276 1849 2690 3745
850.0 4324 4598 4185 3244 2489 1498 738 442 319 275
890.0 249 215 195 186 181 185 173 165 134 110
930.0 91 98 94 100 120 152 196 255 298 341
970.0 393 475 599 1169 2280 2650 2656 2067 695 138
1010.0 59 19 29 30 53 48 96 125 195 298
1050.0 556 1002 1408 1681 1644 1190 749 565 526 549
1090.0 575 631 722 763 720 662 525 344 263 181
1130.0 142 104 88 87 73 91 136 350 540 620
1170.0 614 424 201 120 79 88 100 83 65 44
1210.0 52 46 66 88 132 210 365 605 969 1494
1250.0 2108 2534 2644 2748 2484 2000 1756 1623 1568 1564
1290.0 1483 1268 1199 1133 1103 1245 1409 1397 1236 1127
1330.0 812 480 297 201 210 223 204 130 72 46
1370.0 58 87 149 244 385 578 681 696 635 514
1410.0 419 423 496 630 830 1127 1482 1610 1615 1696
1450.0 1506 1294 1352 1680 2512 4137 6390 7349 6932 5679
1490.0 2964 1519 1190 1055 957 833 776 751 794 833
1530.0 835 830 854 912 943 972 1074 1422 2340 3945
1570.0 6075 7943 9172 9102 8427 8893 10000 9683 8736 7673
1610.0 6766 7493 8411 8701 9102 7088 5446 4084 2597 1691
1650.0 1219 966 802 689 644 624 647 684 700 709
1690.0 642 570 503 448 375 322 303 283 275 265
1730.0 252 237 215 174 150 123 116 97 97 93
1770.0 91 98 95 107 104 118 105 113 122 143
1810.0 159 197 221 218 213 180 168 153 164 157
1850.0 151 133 111 93 73 65 63 67 78 98
1890.0 121 153 190 239 283 308 314 299 277 229
1930.0 193 166 136 120 104 107 96 92 85 77
1970.0 76 75 83 82 85 82 83 85 82 87
2010.0 88 86 82 84 78 81 74 75 72 65
2050.0 61 48 42 39 35 28 34 40 53 60
2090.0 71 87 91 108 110 108 109 108 104 99
2130.0 96 94 91 89 95 91 96 96 98 92
2170.0 87 89 79 83 79 83 75 70 63 56
2210.0 59 59 63 65 71 66 72 66 70 66
2250.0 72 77 73 80 77 80 75 73 62 61
2290.0 59 52 45 46 45 37 56 55 75 105
2330.0 104 125 134 145 99 103 81 93 91 93
2370.0 104 101 101 87 91 89 82 75 70 66
2410.0 69 69 70 83 87 86 94 94 92 92
2450.0 94 88 91 88 85 84 78 77 67 69
2490.0 64 70 64 66 66 72 72 72 73 78
2530.0 89 93 103 110 117 116 117 115 106 105
2570.0 93 85 76 76 69 67 69 82 90 98
2610.0 108 104 117 117 132 135 135 127 114 113
2650.0 112 117 121 121 114 102 90 78 73 63
2690.0 67 60 63 63 61 67 80 80 90 96
2730.0 94 96 79 79 63 62 61 53 54 44
2770.0 39 34 28 22 20 18 22 27 20 25
2810.0 28 33 27 40 51 60 51 56 55 63
2850.0 66 67 70 69 73 81 86 86 84 88
2890.0 66 65 51 62 57 54 45 54 55 44
2930.0 40 47 57 64 72 69 70 69 48 42
2970.0 44 51 53 63 77 101 131 174 249 325
3010.0 421 514 613 673 704 696 707 750 875 1080
3050.0 1267 1503 1680 1727 1657 1470 1214 984 875 826
3090.0 759 667 493 329 215 126 64 63 33 35
3130.0 30 28 30 34 24 33 17 23 24 22
3170.0 30 29 31 28 37 43 52 76 95 114
3210.0 120 131 152 160 155 160 158 116 114 75
3250.0 70 53 60 47 30 48 18 12 30 30
3290.0 30 35 26 15 21 12 29 21 22 37
3330.0 23 24 32 20 31 54 46 61 48 85
3370.0 88 109 122 160 217 292 411 594 772 976
3410.0 1075 1091 1092 1185 1140 1017 949 604 348 206
3450.0 136 131 110 116 149 193 249 335 475 575
3490.0 720 759 710 673 576 627 726 695 656 465
3530.0 256 133 74 45 21 30 40 2 25 13
3570.0 20 13 11 27 36 34 20 28 30 22
3610.0 16 21 13 3 26 44 40 17 30 14
3650.0 4 5 55 12 34 24 22 29 40 22
3690.0 35 33 39 29 19 39 42 33 27 48
3730.0 54 41 60 64 22 28 22 16 14 21
3770.0 10 0 3 6 0 0 6 16 21 15
3810.0 9 5 31 0 3 33 57 71 78 134
3850.0 148 156 119 49 81 13 13 18 26 32
3890.0 6 10 12 0 9 2 17 2 16 49
3930.0 59 61 96 85 107 31 26 0 0 0
##END=
