##TITLE=Pyridine, 3-chloro-
##JCAMP-DX=4.24
##DATA TYPE=INFRARED SPECTRUM
##ORIGIN=Sadtler Research Labs Under US-EPA Contract
##OWNER=NIST Standard Reference Data Program
##CAS REGISTRY NO=626-60-8
##MOLFORM=C 5 H 4 Cl N
##XUNITS=1/CM
##YUNITS=ABSORBANCE
##XFACTOR=1.0
##YFACTOR=0.000072787
##DELTAX=4.0
##FIRSTX=450.0
##LASTX=3966.0
##FIRSTY=0.000000
##MAXX=3966
##MINX=450
##MAXY=0.72787
##MINY=0
##NPOINTS=880
##XYDATA=(X++(Y..Y))
450.0 0 619 558 603 905 492 870 549 748 504
490.0 679 583 619 584 583 648 503 648 559 636
530.0 561 641 576 581 646 578 638 569 651 588
570.0 651 674 699 711 673 782 797 921 1093 1427
610.0 1437 1224 1514 1768 1443 1139 997 872 789 698
650.0 690 645 641 710 756 1074 1365 1923 2481 3030
690.0 3865 3896 4723 6215 3342 3607 3201 3198 3410 3272
730.0 3032 3073 3448 2699 1502 876 821 812 981 1272
770.0 1627 2216 2757 3494 3528 4974 6232 3847 3460 3074
810.0 2548 1946 1380 1058 802 730 646 665 617 618
850.0 603 613 590 583 602 596 593 587 605 595
890.0 619 630 665 718 797 828 903 895 848 843
930.0 759 758 761 819 705 692 706 691 733 732
970.0 761 736 763 736 767 815 970 1425 2559 4807
1010.0 6237 5645 5900 6184 5788 2774 1423 1029 873 781
1050.0 684 686 623 670 685 820 1036 1468 1966 2458
1090.0 3196 4680 7115 8700 9652 9354 10000 8399 4651 3094
1130.0 2035 1153 1063 1125 1416 1612 1762 1752 1624 1564
1170.0 1285 1103 1078 1099 1093 1056 907 787 729 677
1210.0 675 670 656 644 662 650 630 606 610 627
1250.0 622 614 612 614 588 572 566 567 583 574
1290.0 595 624 689 767 900 1018 1022 945 977 1008
1330.0 864 762 676 654 637 644 665 687 817 949
1370.0 1026 988 1125 1334 1608 1895 2064 2512 3393 4901
1410.0 6314 5628 5307 5554 5195 2902 1489 1093 1081 1115
1450.0 1633 2372 4036 5389 5069 5267 4792 4366 2178 932
1490.0 665 570 612 591 562 600 589 636 562 689
1530.0 636 698 716 814 983 1218 1694 1969 2430 2575
1570.0 2746 2622 2446 2290 1807 1367 1064 817 747 662
1610.0 644 636 622 625 576 606 575 595 578 575
1650.0 537 542 567 548 544 528 526 542 526 545
1690.0 577 606 603 642 633 661 660 665 701 729
1730.0 713 673 692 667 605 558 564 556 557 546
1770.0 528 517 525 514 511 508 509 521 517 550
1810.0 563 584 615 632 646 666 703 734 748 756
1850.0 743 723 717 714 671 647 688 746 806 839
1890.0 838 832 833 807 788 781 754 740 768 738
1930.0 662 624 629 649 665 668 658 655 624 565
1970.0 525 509 502 499 503 495 503 505 504 505
2010.0 509 512 516 525 528 530 528 525 519 510
2050.0 505 500 501 501 495 492 488 489 491 484
2090.0 485 487 486 481 484 489 494 494 493 499
2130.0 503 505 500 496 495 495 495 493 494 492
2170.0 488 488 491 489 493 494 496 499 494 500
2210.0 500 504 510 520 525 527 521 521 519 514
2250.0 501 494 493 486 486 482 480 484 479 481
2290.0 475 473 471 469 465 458 456 454 456 465
2330.0 471 482 485 499 498 487 454 464 481 515
2370.0 519 527 525 516 507 507 513 518 521 527
2410.0 531 534 538 542 548 564 574 568 564 557
2450.0 541 519 503 495 498 493 495 496 496 495
2490.0 493 497 501 501 502 505 508 506 498 493
2530.0 496 493 490 490 489 486 485 487 486 488
2570.0 490 493 498 504 504 507 519 524 526 523
2610.0 516 505 487 486 485 482 487 488 492 493
2650.0 496 499 499 502 501 505 501 500 497 491
2690.0 490 478 478 473 478 475 473 473 474 474
2730.0 478 478 479 478 477 484 486 484 479 476
2770.0 474 477 481 491 498 496 492 487 477 467
2810.0 468 466 470 476 479 479 476 477 471 465
2850.0 464 475 484 495 506 514 521 517 519 506
2890.0 496 488 475 479 479 486 486 486 488 495
2930.0 497 495 493 495 503 505 520 542 591 628
2970.0 674 705 708 702 676 656 660 691 724 753
3010.0 794 854 940 961 983 987 1066 1232 1675 2272
3050.0 2700 3153 3565 3787 3690 3406 3295 2994 2641 2247
3090.0 2116 1813 1266 896 720 645 592 581 580 587
3130.0 603 621 635 628 621 585 550 511 501 489
3170.0 480 486 481 475 475 481 471 478 474 480
3210.0 474 477 482 472 481 487 481 489 486 492
3250.0 481 475 481 476 480 479 475 480 472 481
3290.0 477 479 476 472 477 477 477 476 480 485
3330.0 483 481 475 476 476 473 470 476 472 472
3370.0 477 474 476 474 481 475 476 479 481 474
3410.0 476 480 473 469 471 472 471 476 481 478
3450.0 483 486 470 462 462 463 458 454 469 470
3490.0 475 468 465 466 470 479 481 483 481 472
3530.0 475 478 471 474 480 478 480 474 469 464
3570.0 485 479 472 475 471 473 481 476 480 469
3610.0 475 483 482 488 467 480 494 478 487 474
3650.0 482 484 483 482 475 472 486 516 504 493
3690.0 501 511 490 499 488 475 498 487 474 487
3730.0 494 491 492 488 494 499 517 494 487 478
3770.0 489 483 486 503 505 510 509 507 530 529
3810.0 521 517 517 527 505 483 483 495 493 494
3850.0 465 485 498 479 482 486 491 488 483 466
3890.0 474 484 478 494 492 496 487 476 488 489
3930.0 472 481 495 489 489 484 510 483 488 476
##END=
