##TITLE=Phenol, 3-iodo-
##JCAMP-DX=4.24
##DATA TYPE=INFRARED SPECTRUM
##ORIGIN=Sadtler Research Labs Under US-EPA Contract
##OWNER=NIST Standard Reference Data Program
##CAS REGISTRY NO=626-02-8
##MOLFORM=C 6 H 5 I O
##XUNITS=1/CM
##YUNITS=ABSORBANCE
##XFACTOR=1.0
##YFACTOR=0.000153305
##DELTAX=4.0
##FIRSTX=450.0
##LASTX=3966.0
##FIRSTY=0.000000
##MAXX=3966
##MINX=450
##MAXY=1.53305
##MINY=0
##NPOINTS=880
##XYDATA=(X++(Y..Y))
450.0 0 373 449 292 243 427 225 362 259 400
490.0 261 371 409 366 357 359 412 357 491 437
530.0 508 471 477 393 332 297 279 270 232 278
570.0 238 303 315 371 418 442 482 342 319 277
610.0 281 249 278 259 282 268 299 329 371 507
650.0 673 878 993 1123 1244 1306 1561 1692 1257 1146
690.0 870 672 490 401 321 318 301 294 305 312
730.0 332 345 409 479 664 934 1312 1715 2297 2578
770.0 2546 2550 1915 1435 1095 716 523 423 394 376
810.0 402 412 507 648 856 1100 1388 2070 3350 4863
850.0 5414 5707 4662 2915 2084 1625 1187 856 647 503
890.0 439 384 374 357 368 358 346 337 317 308
930.0 285 294 286 294 294 300 294 291 297 291
970.0 304 330 400 550 991 1614 1739 1717 1325 613
1010.0 310 303 283 298 286 310 319 360 451 616
1050.0 869 1034 1116 1085 882 764 844 887 867 809
1090.0 676 575 535 540 538 550 537 537 545 575
1130.0 635 771 1041 1510 2211 2946 3510 3612 3818 4042
1170.0 4288 5234 5800 6030 5780 4952 3994 2887 2102 1553
1210.0 1247 1069 1034 1129 1357 1712 2182 2695 2928 2938
1250.0 2749 2248 1641 1264 1107 1177 1419 1847 2444 3025
1290.0 3224 3100 2769 2032 1503 1194 976 785 680 615
1330.0 522 473 361 329 310 302 279 266 257 263
1370.0 291 292 384 449 546 574 613 608 711 846
1410.0 968 1175 1325 1633 1827 2119 2260 2141 2082 1858
1450.0 1517 1391 1612 2281 3354 4089 4308 4439 3218 2345
1490.0 1500 1031 766 688 681 698 701 660 547 571
1530.0 531 532 552 553 629 660 895 958 1702 2480
1570.0 4178 5628 6877 10000 8148 9332 7274 6758 4735 3101
1610.0 1666 994 649 470 342 341 290 295 306 328
1650.0 296 277 317 284 286 268 269 272 251 235
1690.0 256 272 234 269 278 336 327 329 353 368
1730.0 328 279 296 282 257 232 273 253 265 266
1770.0 249 231 236 222 213 203 200 210 201 240
1810.0 244 250 267 265 269 264 293 312 299 274
1850.0 268 251 221 212 196 185 194 206 203 209
1890.0 210 225 244 263 284 290 298 298 283 273
1930.0 262 240 219 196 193 202 195 197 196 193
1970.0 190 195 195 195 200 190 196 202 212 212
2010.0 218 214 215 216 221 224 225 223 218 221
2050.0 216 213 211 210 208 216 225 229 242 248
2090.0 255 260 263 256 245 233 220 216 209 212
2130.0 212 211 210 211 208 205 207 204 206 203
2170.0 203 199 197 196 193 192 193 194 192 194
2210.0 194 197 197 199 200 198 199 198 202 198
2250.0 201 198 197 197 198 199 198 199 198 197
2290.0 193 193 192 196 201 206 221 224 235 236
2330.0 238 240 244 234 224 227 199 205 213 231
2370.0 224 234 232 230 231 237 247 253 266 273
2410.0 281 291 302 309 320 323 313 307 292 279
2450.0 264 254 246 241 240 242 247 248 251 250
2490.0 246 237 230 220 213 208 202 205 205 211
2530.0 214 219 219 220 219 213 211 208 209 206
2570.0 211 210 213 213 211 211 210 209 202 202
2610.0 202 203 203 209 211 210 211 209 208 202
2650.0 202 199 198 196 198 195 193 195 194 193
2690.0 192 193 193 195 201 204 208 212 215 217
2730.0 213 210 209 205 202 202 201 200 198 196
2770.0 190 190 184 183 181 181 181 178 178 177
2810.0 179 178 183 182 184 184 184 187 186 187
2850.0 188 192 193 197 197 200 202 199 198 194
2890.0 196 194 194 195 195 196 199 198 196 199
2930.0 203 205 206 210 209 207 205 204 207 206
2970.0 207 208 208 210 215 223 233 248 270 308
3010.0 353 403 445 477 492 494 509 531 566 621
3050.0 677 719 752 737 739 781 808 842 829 759
3090.0 669 577 479 388 317 271 241 228 218 210
3130.0 212 208 211 210 208 213 215 212 217 222
3170.0 218 220 221 221 218 220 215 214 218 216
3210.0 219 220 223 224 228 226 227 223 223 223
3250.0 219 222 222 224 222 223 224 226 225 229
3290.0 230 227 230 232 234 230 237 239 240 248
3330.0 258 266 274 288 285 282 280 278 277 278
3370.0 282 282 282 272 271 265 266 264 263 263
3410.0 263 264 261 259 264 271 263 257 253 251
3450.0 251 259 249 242 252 252 257 252 245 238
3490.0 248 254 247 236 226 247 245 250 239 199
3530.0 231 240 240 240 206 218 252 222 257 181
3570.0 196 263 246 269 214 230 255 239 283 276
3610.0 255 271 327 396 540 711 1168 1791 2856 4101
3650.0 4868 4467 4035 2415 1187 616 414 298 293 285
3690.0 229 276 256 257 257 231 197 253 219 212
3730.0 246 214 193 243 201 196 236 231 252 245
3770.0 235 268 263 255 255 267 274 237 236 252
3810.0 276 265 225 244 255 271 256 236 234 275
3850.0 261 217 270 274 251 254 257 286 241 252
3890.0 253 266 262 220 236 300 301 272 286 286
3930.0 289 270 297 286 268 254 291 307 291 291
##END=
