##TITLE=Benzene, 1,3-bis(chloromethyl)-
##JCAMP-DX=4.24
##DATA TYPE=INFRARED SPECTRUM
##ORIGIN=Sadtler Research Labs Under US-EPA Contract
##OWNER=NIST Standard Reference Data Program
##CAS REGISTRY NO=626-16-4
##MOLFORM=C 8 H 8 Cl 2
##XUNITS=1/CM
##YUNITS=ABSORBANCE
##XFACTOR=1.0
##YFACTOR=0.000091367
##DELTAX=4.0
##FIRSTX=450.0
##LASTX=3966.0
##FIRSTY=0.000000
##MAXX=3966
##MINX=450
##MAXY=0.91367
##MINY=0
##NPOINTS=880
##XYDATA=(X++(Y..Y))
450.0 0 121 220 171 168 115 84 123 133 144
490.0 169 160 189 179 214 266 247 210 195 231
530.0 255 405 712 888 948 853 678 642 679 701
570.0 700 692 778 877 1003 1088 1069 933 711 537
610.0 417 346 295 274 287 304 274 272 290 306
650.0 337 408 469 573 636 982 1177 1605 2006 2252
690.0 2471 2765 3626 5278 7398 9285 10000 9134 7380 5855
730.0 4776 3976 3330 2858 2591 2497 2470 2380 2189 1994
770.0 1853 1742 1671 1616 1594 1540 1389 1140 871 620
810.0 454 360 319 282 262 240 218 203 190 192
850.0 197 190 197 198 223 239 265 295 340 396
890.0 487 547 584 599 574 556 539 542 542 539
930.0 546 554 557 556 567 579 579 519 429 319
970.0 271 263 246 238 238 233 237 226 216 220
1010.0 216 198 184 171 156 160 167 163 156 147
1050.0 137 128 135 138 152 193 258 359 495 580
1090.0 579 542 410 294 240 230 247 262 273 295
1130.0 316 336 364 434 571 834 1190 1381 1258 917
1170.0 578 432 394 346 300 269 246 232 231 243
1210.0 266 288 306 321 362 436 541 692 904 1223
1250.0 1778 2848 4538 6002 6328 5651 4261 3206 2650 2269
1290.0 1921 1599 1300 1033 818 686 603 521 444 364
1330.0 301 262 232 204 180 166 157 153 150 150
1370.0 154 157 160 166 178 197 218 246 266 291
1410.0 314 340 388 447 549 708 961 1299 1581 1758
1450.0 1783 1550 1164 854 682 595 549 548 652 923
1490.0 1165 1167 968 599 364 260 204 181 163 152
1530.0 146 143 150 154 161 160 164 173 183 194
1570.0 211 236 267 320 380 449 517 582 671 800
1610.0 932 928 767 505 298 209 180 163 153 142
1650.0 147 141 142 139 140 142 150 155 168 182
1690.0 192 209 233 245 253 247 234 223 204 184
1730.0 170 164 153 151 154 163 172 183 194 198
1770.0 203 197 191 192 188 183 183 179 176 173
1810.0 174 176 178 179 180 182 179 179 176 174
1850.0 171 170 170 177 194 215 233 242 228 200
1890.0 174 153 135 121 114 107 103 110 119 139
1930.0 165 200 238 256 245 208 154 114 94 92
1970.0 87 87 84 83 82 82 82 80 81 80
2010.0 82 81 84 87 92 94 101 108 116 120
2050.0 118 120 111 106 101 101 97 97 94 96
2090.0 95 93 95 100 99 103 102 102 98 97
2130.0 96 91 92 91 89 89 88 92 96 94
2170.0 99 98 101 101 99 98 100 101 101 99
2210.0 102 99 101 100 99 100 102 102 102 100
2250.0 102 104 108 110 111 107 106 107 106 107
2290.0 110 110 115 117 114 112 110 114 116 119
2330.0 129 140 153 162 169 150 132 125 126 138
2370.0 141 147 142 127 121 120 119 119 117 119
2410.0 111 108 103 96 96 97 96 98 96 99
2450.0 102 101 97 99 98 99 100 99 99 98
2490.0 93 93 89 90 90 88 87 85 85 88
2530.0 85 91 91 88 86 87 88 88 88 89
2570.0 91 93 94 93 99 100 105 108 113 115
2610.0 118 112 107 105 98 95 94 95 93 96
2650.0 96 100 102 101 103 106 113 127 129 135
2690.0 144 150 155 166 171 172 175 177 171 167
2730.0 162 151 145 139 133 134 137 122 119 119
2770.0 113 121 121 112 110 109 112 124 121 114
2810.0 112 115 123 140 131 144 156 170 193 220
2850.0 232 251 260 274 302 327 379 425 465 469
2890.0 438 392 340 298 276 251 237 237 259 311
2930.0 361 458 576 691 789 860 998 1253 1632 2006
2970.0 2176 2001 1654 1332 1048 900 865 917 1015 1107
3010.0 1100 1051 943 946 1088 1318 1496 1600 1574 1437
3050.0 1293 1239 1311 1436 1561 1612 1571 1431 1145 823
3090.0 594 463 405 393 408 421 403 361 302 238
3130.0 186 153 133 122 113 111 113 109 109 109
3170.0 109 110 105 105 106 111 107 108 112 111
3210.0 110 108 101 94 92 97 94 95 91 98
3250.0 94 93 91 91 92 95 101 96 91 90
3290.0 84 88 93 97 84 86 93 93 87 91
3330.0 98 90 90 96 93 87 90 92 89 91
3370.0 95 93 91 91 94 93 96 96 95 96
3410.0 90 93 87 91 85 94 91 94 90 94
3450.0 93 98 92 93 94 99 93 96 97 94
3490.0 91 93 102 95 93 98 95 96 89 87
3530.0 94 100 95 91 87 97 94 100 94 100
3570.0 101 103 100 100 99 104 101 111 104 101
3610.0 92 104 106 105 105 107 107 107 105 97
3650.0 97 101 98 99 97 97 97 97 95 99
3690.0 90 97 98 106 109 100 105 104 108 101
3730.0 108 108 105 105 105 105 105 100 104 110
3770.0 98 97 105 105 109 112 106 105 109 124
3810.0 119 107 110 115 103 96 103 100 110 107
3850.0 106 107 107 119 126 123 110 104 121 103
3890.0 102 103 112 96 126 111 113 107 114 107
3930.0 112 110 108 112 124 104 118 122 107 109
##END=
