##TITLE=Pentanamide
##JCAMP-DX=4.24
##DATA TYPE=INFRARED SPECTRUM
##ORIGIN=Sadtler Research Labs Under US-EPA Contract
##OWNER=NIST Standard Reference Data Program
##CAS REGISTRY NO=626-97-1
##MOLFORM=C 5 H 11 N O
##XUNITS=1/CM
##YUNITS=ABSORBANCE
##XFACTOR=1.0
##YFACTOR=0.000140985
##DELTAX=4.0
##FIRSTX=450.0
##LASTX=3966.0
##FIRSTY=0.010292
##MAXX=3966
##MINX=450
##MAXY=1.40985
##MINY=0
##NPOINTS=880
##XYDATA=(X++(Y..Y))
450.0 73 62 69 76 73 104 104 143 170 181
490.0 207 236 249 300 312 325 333 364 359 355
530.0 325 293 271 245 228 230 245 259 282 315
570.0 338 371 424 447 470 504 521 549 541 554
610.0 530 527 483 431 352 281 225 165 127 84
650.0 54 29 16 2 3 5 10 4 16 27
690.0 54 84 130 168 229 282 351 428 505 596
730.0 661 731 756 793 770 753 719 689 655 621
770.0 590 552 526 496 467 426 395 365 348 322
810.0 303 294 280 280 272 262 257 258 249 247
850.0 240 233 219 210 200 189 187 185 181 175
890.0 173 171 176 175 169 168 164 161 155 152
930.0 160 151 146 137 120 104 90 79 73 73
970.0 67 64 66 62 60 55 47 47 45 50
1010.0 56 71 88 107 135 162 201 239 281 325
1050.0 358 370 374 360 336 299 260 231 201 183
1090.0 164 151 144 145 141 145 146 143 141 133
1130.0 128 122 121 121 126 133 143 162 186 218
1170.0 249 279 303 323 346 369 399 432 465 498
1210.0 525 554 587 633 686 744 793 842 894 952
1250.0 1034 1142 1288 1451 1605 1733 1821 1873 1868 1791
1290.0 1667 1556 1462 1384 1308 1247 1218 1228 1277 1393
1330.0 1547 1714 1882 2016 2109 2175 2205 2245 2298 2342
1370.0 2358 2353 2262 2128 1900 1624 1345 1081 834 673
1410.0 568 498 488 470 486 510 569 613 653 699
1450.0 762 800 832 815 771 712 634 540 438 362
1490.0 289 221 178 141 136 133 101 101 120 112
1530.0 129 140 184 225 285 346 469 611 811 1049
1570.0 1435 1962 2566 3029 3258 3430 3310 2952 2412 1925
1610.0 1502 1182 950 756 638 520 482 427 401 379
1650.0 389 383 391 411 476 572 690 855 1068 1347
1690.0 1643 2039 2540 3189 3944 4851 5936 7104 8251 9165
1730.0 9985 9957 10000 9340 8534 7073 5739 4385 3289 2405
1770.0 1777 1299 951 718 545 423 336 276 226 187
1810.0 156 137 116 106 93 84 74 67 70 70
1850.0 62 55 54 51 47 48 33 29 23 21
1890.0 22 18 17 14 12 12 13 11 14 6
1930.0 9 9 13 12 15 12 14 13 12 14
1970.0 16 13 13 12 11 13 15 13 11 11
2010.0 11 12 10 10 10 10 9 10 10 9
2050.0 8 9 7 8 7 7 8 7 8 9
2090.0 7 8 8 9 9 8 9 9 9 9
2130.0 11 12 11 11 12 11 11 14 15 15
2170.0 17 16 19 18 21 17 18 19 20 18
2210.0 20 19 18 19 20 22 22 22 24 27
2250.0 27 27 27 27 27 25 24 25 28 28
2290.0 30 33 35 35 36 38 34 30 30 26
2330.0 21 25 23 24 36 30 34 28 34 31
2370.0 30 29 36 35 26 20 15 14 14 15
2410.0 10 10 8 8 8 7 7 7 9 6
2450.0 7 4 4 3 2 4 1 1 1 1
2490.0 4 3 3 2 4 3 4 3 4 3
2530.0 5 3 6 4 5 6 6 6 6 7
2570.0 9 10 10 10 11 13 10 10 14 14
2610.0 16 19 19 21 25 29 31 32 34 36
2650.0 39 38 41 45 46 52 50 52 53 50
2690.0 49 54 51 52 53 51 53 56 60 64
2730.0 70 74 83 90 93 97 98 95 94 92
2770.0 94 98 100 105 115 127 138 146 156 167
2810.0 182 202 225 251 283 323 372 427 501 590
2850.0 703 844 1010 1190 1369 1558 1770 1957 2028 2014
2890.0 1997 1968 1895 1852 1925 2094 2326 2585 2879 3164
2930.0 3452 3722 3953 4093 4172 4247 4302 4365 4483 4629
2970.0 4546 4224 3761 3143 2386 1735 1288 973 748 591
3010.0 477 397 340 301 269 251 232 219 197 188
3050.0 176 164 152 143 134 123 121 114 107 101
3090.0 99 91 89 86 79 77 73 70 69 66
3130.0 67 68 70 71 70 75 77 76 75 80
3170.0 75 77 73 70 68 65 61 58 50 49
3210.0 39 34 31 28 28 24 19 19 17 17
3250.0 17 13 12 16 15 17 14 15 19 19
3290.0 16 19 27 30 28 31 38 39 43 48
3330.0 46 37 33 35 36 37 38 44 41 39
3370.0 55 63 71 88 115 147 184 233 301 376
3410.0 465 546 613 681 766 866 951 965 921 865
3450.0 783 614 426 318 250 202 172 161 147 141
3490.0 150 166 182 211 246 271 321 370 426 455
3530.0 475 501 525 550 603 700 832 891 861 823
3570.0 760 604 412 279 198 129 91 58 52 34
3610.0 35 25 28 24 6 21 8 5 6 1
3650.0 13 4 7 5 4 15 6 19 1 9
3690.0 5 12 3 8 2 3 6 4 7 6
3730.0 3 6 8 7 21 1 15 10 2 3
3770.0 1 1 1 14 7 12 5 5 2 8
3810.0 1 13 2 11 7 8 16 9 17 5
3850.0 10 16 14 11 13 3 8 3 12 23
3890.0 10 15 0 12 9 13 23 13 1 1
3930.0 16 15 18 2 10 7 18 4 16 11
##END=
