##TITLE=2-Hexanol
##JCAMP-DX=4.24
##DATA TYPE=INFRARED SPECTRUM
##ORIGIN=Sadtler Research Labs Under US-EPA Contract
##OWNER=NIST Standard Reference Data Program
##CAS REGISTRY NO=626-93-7
##MOLFORM=C 6 H 14 O
##XUNITS=1/CM
##YUNITS=ABSORBANCE
##XFACTOR=1.0
##YFACTOR=0.000112363
##DELTAX=4.0
##FIRSTX=450.0
##LASTX=3966.0
##FIRSTY=0.035394
##MAXX=3966
##MINX=450
##MAXY=1.12363
##MINY=0
##NPOINTS=880
##XYDATA=(X++(Y..Y))
450.0 315 103 94 57 73 89 178 32 155 127
490.0 225 87 177 148 66 135 85 121 53 143
530.0 22 51 37 103 55 75 84 9 61 25
570.0 115 17 110 79 52 79 59 111 57 113
610.0 86 114 79 122 101 90 148 97 90 104
650.0 157 90 116 106 118 84 106 144 98 112
690.0 89 120 96 120 124 136 150 146 188 184
730.0 206 208 223 193 214 203 174 169 147 170
770.0 147 193 176 209 205 245 219 203 223 207
810.0 225 218 248 246 287 337 389 422 431 452
850.0 402 377 317 303 291 313 329 355 372 377
890.0 388 363 378 402 450 520 644 763 894 1037
930.0 1133 1222 1220 1156 1019 869 691 556 487 452
970.0 473 483 533 563 618 675 750 831 927 1054
1010.0 1180 1318 1401 1510 1572 1624 1647 1661 1667 1666
1050.0 1667 1646 1633 1599 1601 1605 1669 1752 1837 1897
1090.0 1890 1864 1760 1646 1519 1484 1485 1540 1605 1675
1130.0 1759 1810 1845 1812 1762 1618 1441 1235 1030 862
1170.0 714 632 564 555 548 586 613 670 736 799
1210.0 867 929 989 1028 1099 1168 1255 1351 1435 1475
1250.0 1462 1422 1310 1199 1068 960 854 783 719 680
1290.0 656 636 635 615 610 588 583 576 588 613
1330.0 657 718 779 862 931 1016 1105 1207 1344 1525
1370.0 1753 2013 2247 2381 2404 2266 2017 1692 1396 1151
1410.0 943 787 667 602 573 595 637 729 837 968
1450.0 1139 1275 1396 1440 1422 1328 1163 982 782 601
1490.0 451 352 266 215 182 167 132 132 122 110
1530.0 107 100 101 93 95 79 82 73 81 59
1570.0 56 63 57 50 47 54 45 51 50 52
1610.0 45 47 51 48 49 43 42 39 35 41
1650.0 31 49 37 43 35 45 39 44 36 52
1690.0 38 35 43 43 38 28 37 39 41 39
1730.0 40 42 41 34 27 33 27 33 26 28
1770.0 24 27 23 26 26 23 25 23 23 17
1810.0 18 19 18 18 21 21 18 17 21 19
1850.0 19 21 22 19 23 18 21 20 21 18
1890.0 21 18 16 14 14 14 8 13 10 11
1930.0 11 7 9 11 16 14 13 7 11 5
1970.0 10 11 10 12 7 14 12 13 12 11
2010.0 9 9 17 11 13 17 15 17 20 18
2050.0 16 9 12 11 5 14 4 8 5 8
2090.0 5 5 7 3 8 6 8 6 11 7
2130.0 9 8 9 12 9 22 15 18 11 17
2170.0 14 17 19 16 21 14 21 11 16 15
2210.0 15 18 11 19 14 15 8 10 4 12
2250.0 9 7 11 14 13 10 12 11 14 10
2290.0 11 4 2 9 7 6 9 18 22 23
2330.0 24 36 26 29 36 19 39 36 47 27
2370.0 43 32 27 26 24 29 30 29 29 29
2410.0 29 23 27 22 23 22 19 15 18 15
2450.0 17 17 16 19 14 18 13 21 16 21
2490.0 17 12 23 13 19 17 21 17 19 24
2530.0 28 26 29 33 25 35 35 42 42 47
2570.0 56 55 61 66 74 73 82 79 90 96
2610.0 102 105 107 117 119 123 129 141 137 147
2650.0 149 154 157 166 168 169 173 172 165 155
2690.0 161 157 154 151 148 151 154 164 165 178
2730.0 191 203 211 226 236 233 246 234 233 226
2770.0 234 243 253 259 280 300 327 353 377 404
2810.0 436 476 523 568 642 732 846 1011 1236 1500
2850.0 1852 2271 2740 3274 3806 4309 4750 5147 5251 5107
2890.0 4876 4617 4292 4161 4344 4748 5430 6190 7079 7924
2930.0 8700 9359 9611 9416 8954 8438 8042 8031 8646 9567
2970.0 10000 9819 9172 7587 5773 4241 2989 1981 1318 924
3010.0 716 595 509 451 412 383 371 341 299 283
3050.0 259 231 205 191 181 177 174 152 157 154
3090.0 143 142 141 127 132 134 113 117 122 118
3130.0 87 107 99 90 83 89 75 78 85 92
3170.0 94 100 74 113 97 93 84 90 82 75
3210.0 53 62 37 45 57 29 8 3 8 9
3250.0 10 13 5 8 22 11 6 7 14 32
3290.0 6 3 28 37 21 14 30 49 6 16
3330.0 24 0 24 35 37 39 46 54 45 37
3370.0 43 28 47 32 46 39 36 60 55 41
3410.0 67 53 52 60 64 63 53 43 45 64
3450.0 59 53 61 45 37 29 48 53 44 44
3490.0 30 31 31 42 41 30 31 46 28 29
3530.0 42 51 20 29 24 19 26 16 28 37
3570.0 43 25 37 48 47 59 36 62 27 88
3610.0 91 100 110 178 196 267 326 418 528 653
3650.0 759 840 888 841 766 567 400 279 213 147
3690.0 116 96 76 83 80 54 52 52 56 45
3730.0 48 60 46 49 41 22 33 46 43 50
3770.0 33 51 65 64 62 57 27 36 47 53
3810.0 60 51 69 51 66 76 60 80 61 64
3850.0 83 52 69 58 54 55 57 48 53 63
3890.0 59 46 63 57 47 80 48 41 48 30
3930.0 30 18 64 24 17 45 78 72 39 10
##END=
