##TITLE=4-Heptanone, 2-methyl-
##JCAMP-DX=4.24
##DATA TYPE=INFRARED SPECTRUM
##ORIGIN=Sadtler Research Labs Under US-EPA Contract
##OWNER=NIST Standard Reference Data Program
##CAS REGISTRY NO=626-33-5
##MOLFORM=C 8 H 16 O
##XUNITS=1/CM
##YUNITS=ABSORBANCE
##XFACTOR=1.0
##YFACTOR=0.000113718
##DELTAX=4.0
##FIRSTX=450.0
##LASTX=3966.0
##FIRSTY=0.011372
##MAXX=3966
##MINX=450
##MAXY=1.13718
##MINY=0
##NPOINTS=880
##XYDATA=(X++(Y..Y))
450.0 100 193 28 107 110 153 133 0 170 91
490.0 86 76 139 89 77 84 87 219 183 171
530.0 190 179 195 202 235 169 96 95 111 178
570.0 148 166 148 101 74 115 185 205 191 151
610.0 135 186 204 204 211 215 198 208 202 199
650.0 214 196 127 190 140 142 107 59 87 94
690.0 125 130 37 78 108 79 108 94 101 151
730.0 134 175 125 141 207 206 174 156 160 203
770.0 222 239 207 180 164 171 146 143 112 111
810.0 130 131 123 93 122 142 121 105 117 113
850.0 84 109 112 117 134 145 163 171 198 227
890.0 229 250 282 272 262 226 215 220 215 205
930.0 204 193 191 204 231 268 286 277 264 224
970.0 192 174 148 142 159 165 223 262 308 345
1010.0 423 520 626 781 983 1138 1266 1295 1211 1038
1050.0 900 783 667 605 548 478 441 456 461 470
1090.0 480 494 542 602 678 765 861 935 1010 1034
1130.0 1071 1138 1258 1379 1479 1520 1519 1555 1617 1671
1170.0 1656 1538 1331 1035 826 681 589 520 486 477
1210.0 482 499 513 538 548 544 527 503 460 443
1250.0 430 427 436 461 511 562 653 785 893 1001
1290.0 1059 1068 1011 927 827 738 657 622 615 665
1330.0 745 876 1024 1168 1359 1615 1973 2331 2631 2746
1370.0 2646 2372 1987 1684 1436 1271 1148 1007 923 878
1410.0 881 901 925 909 888 847 833 830 847 901
1450.0 1029 1167 1326 1444 1485 1478 1396 1176 935 756
1490.0 540 415 326 260 251 229 179 171 182 133
1530.0 119 111 125 131 133 96 109 136 107 94
1570.0 99 89 96 80 81 74 88 87 91 102
1610.0 90 107 112 113 121 115 132 152 139 147
1650.0 175 185 177 165 205 228 274 315 387 468
1690.0 563 666 945 1321 1788 2588 3511 4563 5493 5751
1730.0 5788 4806 3811 2712 1834 1317 978 784 734 650
1770.0 637 629 560 532 486 432 392 324 283 231
1810.0 199 180 140 133 109 103 89 74 82 79
1850.0 69 64 67 50 59 66 55 53 52 54
1890.0 52 53 44 48 46 46 49 48 45 42
1930.0 37 40 35 36 38 33 34 31 32 35
1970.0 31 29 30 31 30 31 30 26 28 28
2010.0 29 30 32 28 25 25 29 27 27 27
2050.0 27 30 32 29 35 29 32 31 32 28
2090.0 29 31 29 31 29 28 30 29 28 26
2130.0 25 24 27 26 27 27 29 30 31 31
2170.0 30 33 35 32 32 33 33 30 29 28
2210.0 26 28 26 26 24 21 25 25 24 22
2250.0 22 24 22 22 20 23 22 24 17 17
2290.0 13 9 10 13 11 11 17 15 17 28
2330.0 31 36 32 31 31 18 29 33 29 31
2370.0 22 27 21 20 22 28 29 29 31 32
2410.0 29 33 32 30 30 32 29 29 28 27
2450.0 28 26 27 27 29 28 29 26 29 30
2490.0 28 29 30 32 30 29 28 26 27 25
2530.0 28 28 28 28 26 27 26 27 29 30
2570.0 33 32 37 35 36 37 36 43 46 46
2610.0 45 45 51 53 53 55 55 60 58 63
2650.0 66 66 67 67 71 72 74 76 78 76
2690.0 78 78 83 82 87 88 96 107 113 134
2730.0 150 161 173 179 182 179 169 165 160 162
2770.0 166 169 178 181 196 209 221 242 267 291
2810.0 320 337 365 386 411 442 478 520 573 637
2850.0 713 803 928 1122 1430 1906 2577 3301 3860 4157
2890.0 4154 3939 3729 3588 3550 3549 3552 3601 3688 3884
2930.0 4216 4600 5087 5488 5771 6083 6549 7401 8681 9821
2970.0 10000 9339 7887 6057 4482 3211 2242 1586 1178 915
3010.0 734 604 501 425 367 325 290 260 243 224
3050.0 208 198 184 180 169 167 161 153 152 147
3090.0 146 141 132 129 125 121 124 118 118 110
3130.0 111 115 121 111 113 110 113 113 117 119
3170.0 118 118 118 120 116 117 109 105 99 96
3210.0 89 74 66 56 52 48 41 37 39 36
3250.0 35 30 36 34 29 27 28 22 24 26
3290.0 29 32 29 27 31 27 30 24 35 34
3330.0 35 28 33 32 28 32 42 29 33 35
3370.0 32 29 35 38 38 37 44 52 53 51
3410.0 55 59 77 89 97 113 113 111 97 79
3450.0 72 52 37 37 27 29 17 20 20 14
3490.0 11 12 11 17 16 13 12 17 14 13
3530.0 22 21 24 31 23 19 44 54 58 111
3570.0 129 136 142 131 112 81 65 37 41 29
3610.0 27 30 22 23 22 25 34 17 18 35
3650.0 46 42 34 41 32 42 26 59 30 34
3690.0 41 25 32 23 29 21 34 32 21 29
3730.0 30 40 35 18 43 33 43 20 29 24
3770.0 29 34 32 29 34 30 34 49 40 42
3810.0 47 51 32 50 26 40 64 71 54 20
3850.0 46 21 46 19 49 41 22 40 25 44
3890.0 32 39 50 42 49 33 31 37 55 28
3930.0 45 56 29 46 71 60 69 8 43 41
##END=
