##TITLE=Sulfurous acid, dibutyl ester
##JCAMP-DX=4.24
##DATA TYPE=INFRARED SPECTRUM
##ORIGIN=Sadtler Research Labs Under US-EPA Contract
##OWNER=NIST Standard Reference Data Program
##CAS REGISTRY NO=626-85-7
##MOLFORM=C 8 H 18 O 3 S
##XUNITS=1/CM
##YUNITS=ABSORBANCE
##XFACTOR=1.0
##YFACTOR=0.000061978
##DELTAX=4.0
##FIRSTX=450.0
##LASTX=3966.0
##FIRSTY=0.000000
##MAXX=3966
##MINX=450
##MAXY=0.61978
##MINY=0
##NPOINTS=880
##XYDATA=(X++(Y..Y))
450.0 0 920 606 773 1111 1084 1045 999 921 1138
490.0 1327 976 1193 1399 1441 1419 1627 1468 1552 1490
530.0 1317 1548 1356 1125 1089 1107 1356 1300 1052 1103
570.0 858 722 981 874 1172 1012 982 989 836 762
610.0 687 614 695 701 602 750 841 697 797 865
650.0 1045 1135 1281 1608 1798 2320 2896 3308 3948 4597
690.0 5745 6551 6888 6907 6604 6502 5975 5568 5150 4721
730.0 4436 4259 4175 4021 3928 3900 3903 3621 3249 2894
770.0 2519 2257 1940 1716 1581 1505 1386 1317 1293 1247
810.0 1305 1371 1370 1316 1320 1280 1393 1558 1824 2355
850.0 3194 4125 4708 4826 4553 4052 3653 3160 2789 2502
890.0 2328 2320 2450 2670 2914 3059 3211 3702 4662 6212
930.0 8070 9415 9571 9100 8322 7384 6722 6156 5548 5124
970.0 4577 4245 4031 3842 3805 3899 3965 4041 4019 3981
1010.0 3893 3863 3736 3629 3431 3009 2648 2409 2355 2403
1050.0 2628 2902 3188 3289 3238 2998 2730 2419 2106 1847
1090.0 1686 1524 1392 1307 1337 1301 1305 1406 1511 1615
1130.0 1767 1910 2081 2038 1696 1423 1341 1313 1301 1360
1170.0 1408 1516 1614 1783 2022 2335 2800 3475 4215 4903
1210.0 5177 5051 4596 4302 4373 4493 4435 3912 3053 2247
1250.0 1692 1352 1152 1028 906 828 752 683 627 611
1290.0 568 576 601 615 619 619 618 635 681 753
1330.0 853 934 1031 1098 1127 1090 1068 1138 1149 1061
1370.0 1390 1763 1973 2054 1979 1713 1433 1170 995 886
1410.0 833 790 796 785 877 1045 1340 1392 1278 1144
1450.0 1262 1362 1513 1690 1822 1897 1856 1714 1532 1244
1490.0 1038 897 808 755 730 669 673 662 646 607
1530.0 623 597 582 558 557 558 572 580 568 625
1570.0 660 680 725 762 773 795 814 796 768 765
1610.0 773 763 727 717 682 658 651 601 599 595
1650.0 563 571 567 587 575 578 581 566 576 553
1690.0 558 574 555 532 559 552 567 549 528 548
1730.0 536 545 545 550 571 576 579 588 590 609
1770.0 609 607 608 613 615 615 612 608 619 608
1810.0 613 613 605 605 596 591 596 588 589 586
1850.0 589 585 583 591 588 597 592 601 599 600
1890.0 599 607 595 600 601 589 592 580 582 577
1930.0 583 587 582 591 590 592 597 591 590 588
1970.0 590 589 584 577 573 575 571 575 572 573
2010.0 580 586 583 581 577 575 587 581 581 582
2050.0 582 584 586 583 592 584 581 573 578 582
2090.0 580 576 576 570 573 574 570 566 564 561
2130.0 558 558 558 557 556 553 553 543 549 548
2170.0 542 546 539 539 545 541 541 542 537 539
2210.0 549 534 537 537 540 539 551 546 552 555
2250.0 557 571 569 571 585 583 590 591 595 602
2290.0 602 609 615 622 630 629 651 667 657 682
2330.0 705 696 714 697 674 710 735 732 745 722
2370.0 699 690 679 694 694 696 694 696 700 697
2410.0 704 703 706 703 699 709 710 710 723 731
2450.0 732 739 744 742 749 749 755 764 768 774
2490.0 781 788 791 801 805 812 828 829 829 828
2530.0 827 832 829 835 845 858 862 871 882 879
2570.0 891 893 903 911 913 918 929 930 919 934
2610.0 936 930 931 921 934 940 941 945 955 957
2650.0 963 970 978 989 1003 1005 1017 1032 1035 1041
2690.0 1041 1048 1056 1070 1075 1080 1091 1096 1106 1119
2730.0 1124 1146 1162 1174 1194 1200 1206 1199 1192 1192
2770.0 1185 1197 1199 1207 1214 1225 1244 1265 1268 1299
2810.0 1311 1331 1365 1397 1442 1496 1559 1654 1766 1898
2850.0 2065 2252 2422 2623 2877 3247 3731 4296 4853 5213
2890.0 5262 4982 4637 4403 4373 4516 4767 4992 5178 5341
2930.0 5627 6133 6729 7393 7892 8004 7970 8036 8463 9314
2970.0 10000 9855 8771 7101 5453 4244 3403 2792 2374 2086
3010.0 1897 1758 1650 1569 1522 1492 1463 1448 1434 1447
3050.0 1440 1433 1394 1362 1334 1296 1275 1234 1188 1158
3090.0 1128 1103 1103 1074 1054 1044 1034 1030 1015 1000
3130.0 990 987 968 955 950 937 936 927 903 905
3170.0 897 875 874 870 853 838 835 817 809 797
3210.0 775 763 761 732 733 722 701 701 686 667
3250.0 669 650 652 637 624 617 610 598 596 588
3290.0 567 569 572 549 566 552 552 552 549 534
3330.0 550 556 538 553 548 544 545 554 541 554
3370.0 559 563 564 562 550 559 562 554 567 559
3410.0 563 565 578 587 579 570 588 592 581 580
3450.0 593 575 576 585 587 598 589 597 590 590
3490.0 584 579 597 586 584 582 568 586 584 578
3530.0 578 583 574 585 599 587 581 594 579 599
3570.0 585 581 586 597 597 601 596 600 608 592
3610.0 589 602 614 612 617 638 626 640 662 693
3650.0 733 730 773 814 815 847 794 806 771 779
3690.0 716 665 692 627 623 634 590 605 599 599
3730.0 607 592 594 620 610 562 620 595 593 571
3770.0 585 577 574 590 557 574 594 578 582 569
3810.0 565 586 603 573 593 588 596 593 579 574
3850.0 616 583 588 596 622 592 585 574 602 599
3890.0 596 613 564 581 576 586 629 565 616 584
3930.0 610 588 563 601 562 525 529 551 585 596
##END=
