##TITLE=Hexanoic acid, propyl ester
##JCAMP-DX=4.24
##DATA TYPE=INFRARED SPECTRUM
##ORIGIN=Sadtler Research Labs Under US-EPA Contract
##OWNER=NIST Standard Reference Data Program
##CAS REGISTRY NO=626-77-7
##MOLFORM=C 9 H 18 O 2
##XUNITS=1/CM
##YUNITS=ABSORBANCE
##XFACTOR=1.0
##YFACTOR=0.000065982
##DELTAX=4.0
##FIRSTX=450.0
##LASTX=3966.0
##FIRSTY=0.066840
##MAXX=3966
##MINX=450
##MAXY=0.65982
##MINY=0
##NPOINTS=880
##XYDATA=(X++(Y..Y))
450.0 1013 386 100 451 545 97 231 243 335 498
490.0 220 320 174 112 257 175 219 196 274 200
530.0 44 175 123 58 334 215 156 73 154 135
570.0 145 145 186 208 255 111 229 320 232 293
610.0 260 203 301 265 271 287 240 178 275 322
650.0 155 184 204 220 293 196 204 170 253 219
690.0 195 286 316 279 235 240 313 324 359 294
730.0 358 469 317 480 455 318 319 285 316 317
770.0 316 270 251 293 275 290 234 205 187 238
810.0 223 239 202 215 237 279 265 304 308 350
850.0 326 376 338 409 386 404 419 384 408 437
890.0 488 528 574 639 699 672 684 653 647 603
930.0 575 585 588 585 587 613 684 800 955 1174
970.0 1302 1382 1461 1465 1438 1349 1268 1236 1241 1153
1010.0 1032 929 746 657 637 656 759 838 932 891
1050.0 947 1023 1176 1421 1516 1480 1375 1328 1421 1595
1090.0 1843 2122 2404 2550 2658 2603 2497 2300 2070 1825
1130.0 1717 1757 1900 2148 2588 3202 4043 5117 6453 7771
1170.0 8540 8579 7942 6710 5405 4350 3605 3152 2997 3057
1210.0 3203 3323 3485 3635 3806 3989 4161 4270 4306 4183
1250.0 3850 3419 3003 2719 2532 2408 2330 2196 2086 2051
1290.0 2036 2037 1927 1816 1735 1734 1767 1731 1602 1463
1330.0 1352 1351 1453 1578 1670 1713 1756 1729 1632 1452
1370.0 1292 1224 1275 1344 1373 1345 1245 1119 940 765
1410.0 662 619 648 700 785 860 912 952 1017 1091
1450.0 1217 1374 1560 1730 1786 1713 1506 1239 975 768
1490.0 601 479 393 341 312 266 265 235 225 217
1530.0 207 204 204 177 193 194 187 189 183 210
1570.0 202 193 178 179 210 207 211 199 174 176
1610.0 163 160 163 163 160 148 165 147 160 176
1650.0 148 170 166 181 192 183 190 212 233 248
1690.0 276 318 369 429 532 622 743 853 993 1249
1730.0 1571 2167 3226 4768 6900 8890 10000 9860 8323 6054
1770.0 3958 2484 1647 1177 890 705 571 475 412 343
1810.0 312 278 243 229 202 186 168 154 151 137
1850.0 133 123 121 120 106 112 114 108 105 96
1890.0 103 94 88 94 91 92 88 90 96 98
1930.0 94 91 90 90 84 81 86 80 73 65
1970.0 70 68 66 69 65 65 67 68 74 78
2010.0 80 81 93 93 90 83 85 92 87 85
2050.0 83 84 83 79 78 83 76 74 78 76
2090.0 71 67 73 71 73 68 67 62 56 55
2130.0 57 63 54 49 50 51 43 44 40 41
2170.0 42 34 36 41 35 29 31 34 36 31
2210.0 36 34 36 31 31 33 32 27 29 34
2250.0 34 32 29 39 37 36 36 44 41 46
2290.0 51 59 61 62 59 76 53 49 48 48
2330.0 47 24 21 25 65 36 50 32 41 49
2370.0 40 56 43 47 47 34 25 15 20 27
2410.0 25 20 21 23 24 15 16 17 16 10
2450.0 13 10 14 4 6 9 5 4 8 8
2490.0 11 3 9 14 8 6 7 10 15 9
2530.0 7 12 11 8 11 14 12 7 12 21
2570.0 22 18 18 21 25 25 21 25 35 33
2610.0 35 44 51 52 43 51 56 52 50 54
2650.0 58 57 58 66 71 74 80 93 97 95
2690.0 88 96 98 94 81 93 97 98 96 111
2730.0 124 131 144 152 161 155 142 137 131 122
2770.0 112 108 122 127 130 132 146 158 166 186
2810.0 208 230 241 268 302 342 394 452 537 638
2850.0 784 1001 1319 1710 2127 2479 2674 2800 2953 3108
2890.0 3126 2948 2712 2573 2571 2696 2909 3249 3741 4393
2930.0 5117 5816 6331 6684 6762 6596 6386 6348 6729 7509
2970.0 8045 8039 7464 6341 5048 3695 2508 1767 1320 1013
3010.0 808 669 565 493 428 391 359 310 286 271
3050.0 237 231 205 188 181 177 159 151 145 141
3090.0 128 121 112 116 97 85 90 86 73 82
3130.0 74 80 68 63 69 62 58 60 62 67
3170.0 59 62 50 50 51 44 36 34 47 24
3210.0 22 30 16 17 18 19 19 20 21 29
3250.0 19 16 16 28 17 3 9 22 20 9
3290.0 15 26 19 13 18 22 20 16 17 23
3330.0 14 8 12 28 32 16 20 15 10 9
3370.0 11 24 16 29 12 27 23 16 12 16
3410.0 25 14 11 27 23 19 10 18 31 14
3450.0 14 30 26 26 35 53 57 62 80 101
3490.0 113 94 94 85 62 41 31 40 37 19
3530.0 24 33 33 6 28 42 42 26 9 35
3570.0 36 40 40 36 44 28 22 53 40 39
3610.0 25 39 40 17 29 0 39 29 34 31
3650.0 46 16 54 23 31 15 20 11 27 31
3690.0 9 50 29 36 31 26 42 36 2 35
3730.0 43 36 14 25 61 40 34 48 60 43
3770.0 54 59 55 66 41 57 73 33 45 22
3810.0 63 39 64 48 97 33 39 81 86 69
3850.0 62 68 71 107 27 54 59 50 54 102
3890.0 56 68 82 42 74 79 58 86 82 26
3930.0 71 106 72 70 4 27 61 65 79 71
##END=
