##TITLE=Benzenethiol, o-isopropyl-,
##JCAMP-DX=4.24
##DATA TYPE=INFRARED SPECTRUM
##ORIGIN=Sadtler Research Labs Under US-EPA Contract
##OWNER=NIST Standard Reference Data Program
##CAS REGISTRY NO=6262-87-9
##MOLFORM=C 9 H 12 S
##XUNITS=1/CM
##YUNITS=ABSORBANCE
##XFACTOR=1.0
##YFACTOR=0.000097339
##DELTAX=4.0
##FIRSTX=450.0
##LASTX=3966.0
##FIRSTY=0.073296
##MAXX=3966
##MINX=450
##MAXY=0.97339
##MINY=0
##NPOINTS=880
##XYDATA=(X++(Y..Y))
450.0 753 869 372 461 280 232 272 43 256 102
490.0 37 204 145 98 42 3 46 141 146 63
530.0 107 154 181 292 282 311 317 186 208 167
570.0 141 162 122 124 77 39 111 94 115 42
610.0 43 63 52 52 48 34 40 35 73 69
650.0 118 140 85 161 239 406 421 398 525 392
690.0 236 235 152 231 286 359 685 1022 1398 1988
730.0 2487 2439 2708 3392 4251 5679 5223 3463 2473 1354
770.0 554 305 177 141 116 102 81 80 73 82
810.0 99 106 72 74 120 104 92 70 94 102
850.0 106 159 148 127 131 108 137 164 229 251
890.0 218 226 183 141 177 167 189 233 300 374
930.0 410 388 375 288 184 137 115 79 84 80
970.0 70 73 65 61 81 78 111 115 114 136
1010.0 160 221 333 622 957 1153 1278 1310 1309 1420
1050.0 1694 1849 1794 1548 1076 637 476 406 399 386
1090.0 373 334 317 376 446 496 567 567 519 455
1130.0 339 233 193 144 149 180 193 194 171 162
1170.0 128 125 118 94 112 141 165 246 282 360
1210.0 391 385 321 238 165 136 135 149 153 187
1250.0 219 263 314 395 482 545 555 524 411 295
1290.0 187 157 174 180 204 197 188 190 163 189
1330.0 197 207 273 316 391 452 532 658 729 851
1370.0 1140 862 723 761 724 675 680 559 416 360
1410.0 377 423 497 555 667 867 1274 1637 1746 1785
1450.0 1628 1457 1498 1803 2384 2978 3380 3270 2791 2121
1490.0 1297 789 504 387 343 252 192 152 145 108
1530.0 74 87 85 90 91 70 121 159 180 227
1570.0 271 337 403 515 660 732 738 620 477 304
1610.0 187 157 127 101 95 65 79 71 55 63
1650.0 72 77 60 63 87 86 102 98 133 152
1690.0 140 152 160 133 117 89 98 101 71 62
1730.0 68 77 46 48 56 53 49 42 43 49
1770.0 62 79 86 106 136 148 149 133 120 98
1810.0 89 95 97 112 122 117 102 75 65 56
1850.0 42 42 52 54 65 76 79 77 76 85
1890.0 98 123 152 183 206 202 175 147 112 100
1930.0 113 145 167 172 160 123 82 49 32 28
1970.0 19 11 13 8 9 9 7 7 9 10
2010.0 9 11 15 13 15 11 13 12 9 8
2050.0 6 1 6 4 3 1 1 3 4 2
2090.0 3 3 6 5 7 4 3 8 5 4
2130.0 5 4 9 3 7 7 6 10 6 5
2170.0 6 3 3 0 3 4 2 3 2 4
2210.0 5 4 8 12 11 15 18 22 19 22
2250.0 25 29 27 28 24 27 25 27 25 25
2290.0 22 19 24 27 32 41 46 57 64 72
2330.0 78 67 64 61 68 87 98 90 67 40
2370.0 30 29 25 33 37 40 33 29 29 25
2410.0 28 28 26 33 32 37 34 30 26 22
2450.0 26 26 28 28 30 33 34 34 33 34
2490.0 32 35 34 35 37 35 40 40 40 41
2530.0 46 48 53 57 57 58 57 61 57 56
2570.0 65 71 96 122 151 173 186 187 169 152
2610.0 123 98 80 77 68 70 62 62 58 59
2650.0 61 58 55 53 55 54 56 54 60 57
2690.0 58 56 56 61 64 65 74 85 96 114
2730.0 126 127 123 115 108 105 99 100 105 112
2770.0 115 116 114 114 112 113 120 123 135 154
2810.0 167 177 185 193 193 199 209 226 248 290
2850.0 346 416 502 646 888 1273 1736 2168 2455 2410
2890.0 2165 1936 1780 1737 1794 1889 1982 2061 2155 2352
2930.0 2624 2931 3291 3374 3217 3092 3214 4000 5820 8046
2970.0 9588 10000 8526 5918 3639 2110 1297 937 791 788
3010.0 857 996 1132 1189 1135 977 766 580 504 524
3050.0 617 859 1336 2073 2815 3219 3242 2881 2244 1612
3090.0 1204 927 676 461 312 241 215 193 197 198
3130.0 216 244 264 258 245 205 183 144 128 124
3170.0 120 119 119 122 123 116 115 110 105 101
3210.0 98 98 85 82 87 77 76 63 61 62
3250.0 42 44 43 40 34 33 26 28 29 29
3290.0 30 27 25 26 37 16 21 20 26 32
3330.0 36 28 26 28 21 21 28 20 18 22
3370.0 17 13 25 16 20 9 16 20 17 14
3410.0 13 11 12 16 12 21 19 26 18 26
3450.0 24 27 23 27 23 30 29 25 24 40
3490.0 24 34 33 39 32 31 41 44 30 34
3530.0 34 25 37 26 29 17 25 23 12 18
3570.0 27 21 21 17 26 16 22 19 13 21
3610.0 15 30 30 20 19 5 30 27 25 29
3650.0 38 22 42 16 18 15 17 41 24 25
3690.0 30 34 39 14 24 19 19 33 18 28
3730.0 21 36 40 25 43 44 54 29 27 18
3770.0 43 21 34 23 17 12 19 39 25 39
3810.0 56 53 67 61 62 73 75 71 39 20
3850.0 29 16 57 47 46 39 16 33 34 16
3890.0 17 21 38 40 21 36 30 22 52 28
3930.0 35 34 17 20 62 50 55 25 40 14
##END=
