##TITLE=Isonicotinaldehyde, O-propyloxime
##JCAMP-DX=4.24
##DATA TYPE=INFRARED SPECTRUM
##ORIGIN=Sadtler Research Labs Under US-EPA Contract
##OWNER=NIST Standard Reference Data Program
##CAS REGISTRY NO=6267-21-6
##MOLFORM=C 9 H 12 N 2 O
##XUNITS=1/CM
##YUNITS=ABSORBANCE
##XFACTOR=1.0
##YFACTOR=0.000076233
##DELTAX=4.0
##FIRSTX=450.0
##LASTX=3966.0
##FIRSTY=0.001830
##MAXX=3966
##MINX=450
##MAXY=0.76233
##MINY=0
##NPOINTS=880
##XYDATA=(X++(Y..Y))
450.0 24 0 147 178 428 369 218 422 328 74
490.0 283 199 602 337 503 586 941 1290 1449 1850
530.0 2269 2262 2121 1772 1413 1201 908 881 930 960
570.0 1058 1101 1179 967 619 596 532 417 466 618
610.0 765 1317 1964 2451 2881 2786 2737 2448 1767 1172
650.0 715 587 399 251 308 243 239 228 169 233
690.0 142 155 220 220 232 230 186 112 141 161
730.0 177 146 158 174 194 112 244 213 294 388
770.0 422 546 624 632 700 654 888 1311 1746 2311
810.0 2581 2513 2082 1570 1148 958 771 831 774 698
850.0 630 568 561 391 560 475 390 392 567 752
890.0 859 954 1094 1175 1270 1329 1386 1771 2304 2937
930.0 3878 4940 5912 7252 7877 7656 6345 5035 4036 3239
970.0 2852 2926 3568 5050 7196 9080 10000 9722 9002 7400
1010.0 5641 4571 4460 4443 4525 4180 3772 3647 4185 5521
1050.0 7421 9199 9674 9272 8510 7608 6210 4626 3459 2681
1090.0 2343 2232 2246 2091 1813 1497 1262 1100 947 813
1130.0 718 639 577 561 565 557 531 495 438 389
1170.0 370 352 365 360 336 335 404 574 698 744
1210.0 776 916 1157 1531 1753 1666 1341 944 679 556
1250.0 557 651 803 901 844 777 657 550 480 436
1290.0 472 475 509 566 641 659 756 916 1125 1302
1330.0 1528 1796 2176 2415 2192 1628 1083 904 965 1180
1370.0 1527 1929 2254 2569 2787 2620 2174 1737 1578 1740
1410.0 1837 1783 1626 1250 933 720 614 627 684 740
1450.0 837 892 1011 1089 1143 1123 1204 1212 1185 1062
1490.0 829 589 475 427 389 386 416 408 430 480
1530.0 511 665 754 966 1187 1239 1208 1112 886 762
1570.0 728 776 1072 1679 2730 4428 6645 6157 5345 3639
1610.0 2459 2301 1392 811 646 377 311 209 192 202
1650.0 192 203 196 248 267 264 289 244 245 232
1690.0 198 161 142 142 153 129 134 184 149 159
1730.0 153 177 122 128 143 141 133 147 145 163
1770.0 162 165 143 131 127 116 117 131 123 110
1810.0 114 138 139 137 162 175 226 264 307 319
1850.0 311 302 310 301 277 253 229 236 245 256
1890.0 264 259 263 263 280 297 303 308 319 316
1930.0 336 359 361 348 312 262 214 193 154 140
1970.0 126 112 102 91 82 95 94 70 71 75
2010.0 67 64 65 64 58 57 43 48 41 56
2050.0 42 48 50 45 48 45 39 37 41 28
2090.0 34 32 32 34 24 31 24 31 24 20
2130.0 26 38 36 49 44 56 53 57 51 46
2170.0 43 47 56 53 52 59 59 64 59 60
2210.0 57 55 53 44 36 34 33 26 25 22
2250.0 23 26 23 24 20 26 26 36 42 38
2290.0 43 40 45 33 37 33 36 41 47 44
2330.0 43 49 37 28 22 33 44 39 55 38
2370.0 34 21 20 17 16 22 28 43 46 47
2410.0 44 43 40 39 39 41 44 46 52 44
2450.0 38 29 32 17 13 8 2 2 5 10
2490.0 11 11 11 18 12 7 8 10 10 14
2530.0 19 20 23 32 44 49 56 55 47 47
2570.0 38 35 27 31 34 32 44 49 47 48
2610.0 51 52 49 46 40 35 33 34 31 33
2650.0 32 37 50 53 63 65 70 75 77 73
2690.0 66 61 62 69 74 84 95 110 120 135
2730.0 144 154 165 176 179 172 165 153 152 144
2770.0 135 134 130 131 135 153 158 163 174 191
2810.0 221 240 263 285 316 330 363 391 442 514
2850.0 584 691 834 1024 1240 1528 1920 2433 2995 3430
2890.0 3484 3167 2662 2254 2121 2136 2302 2581 2969 3484
2930.0 4019 4564 5049 5449 5696 5528 5128 4790 4821 5318
2970.0 5923 6533 6765 6473 5736 4622 3537 2749 2221 1822
3010.0 1507 1339 1289 1361 1546 1793 2002 2033 1908 1746
3050.0 1717 1847 2038 2094 2033 1847 1756 1711 1608 1428
3090.0 1153 871 646 491 379 311 259 214 185 149
3130.0 140 125 117 109 114 115 107 98 97 90
3170.0 74 86 84 78 83 76 77 73 75 70
3210.0 70 65 59 50 41 42 41 33 38 53
3250.0 36 31 31 36 38 33 36 39 45 29
3290.0 29 34 25 27 31 39 31 32 22 32
3330.0 37 36 33 25 37 32 37 32 33 21
3370.0 30 35 30 34 32 36 31 46 36 49
3410.0 42 43 39 48 53 39 41 38 49 45
3450.0 41 52 47 49 53 39 30 45 48 32
3490.0 40 40 31 55 50 30 45 36 42 51
3530.0 32 27 35 47 47 45 35 50 51 60
3570.0 63 47 52 59 56 44 41 35 31 50
3610.0 51 36 44 45 49 34 41 66 57 38
3650.0 43 43 53 48 64 34 25 5 66 62
3690.0 28 42 69 88 60 73 40 46 61 81
3730.0 79 42 75 46 32 22 28 51 53 36
3770.0 45 55 56 48 47 51 32 43 49 35
3810.0 50 42 56 12 66 48 22 53 60 56
3850.0 33 66 23 75 49 23 36 58 60 60
3890.0 73 48 48 34 48 46 63 33 78 70
3930.0 39 66 48 87 54 73 75 57 97 76
##END=
