##TITLE=Propane, 1,3-diiodo-
##JCAMP-DX=4.24
##DATA TYPE=INFRARED SPECTRUM
##ORIGIN=Sadtler Research Labs Under US-EPA Contract
##OWNER=NIST Standard Reference Data Program
##CAS REGISTRY NO=627-31-6
##MOLFORM=C 3 H 6 I 2
##XUNITS=1/CM
##YUNITS=ABSORBANCE
##XFACTOR=1.0
##YFACTOR=0.000114496
##DELTAX=4.0
##FIRSTX=450.0
##LASTX=3966.0
##FIRSTY=0.028853
##MAXX=3966
##MINX=450
##MAXY=1.14496
##MINY=0
##NPOINTS=880
##XYDATA=(X++(Y..Y))
450.0 252 112 46 125 85 72 82 129 98 94
490.0 279 387 447 439 372 336 251 213 280 375
530.0 415 284 128 145 72 70 51 66 54 35
570.0 62 50 58 93 81 77 233 358 444 510
610.0 370 191 82 79 43 0 25 48 56 73
650.0 83 94 81 94 69 96 114 80 116 118
690.0 123 131 142 187 250 294 247 231 262 361
730.0 582 1148 1732 1568 1115 695 403 262 200 213
770.0 237 243 238 278 308 403 506 515 407 287
810.0 278 315 336 348 332 290 236 186 151 129
850.0 110 105 109 109 109 130 145 184 218 242
890.0 228 193 203 239 339 494 690 805 680 382
930.0 193 179 150 153 151 153 147 141 136 127
970.0 116 107 97 88 86 85 84 84 93 102
1010.0 105 114 113 127 124 137 148 171 185 187
1050.0 174 160 157 151 162 192 250 303 337 353
1090.0 345 279 227 182 151 150 142 157 169 198
1130.0 232 266 310 348 412 591 895 928 751 615
1170.0 647 750 935 1381 2595 4942 7456 10000 9623 9819
1210.0 5652 2709 1850 1526 1128 908 673 586 461 408
1250.0 373 388 438 541 727 949 1238 1531 1826 1887
1290.0 1596 1074 773 597 478 430 429 443 349 285
1330.0 278 334 450 883 1270 1116 789 320 194 164
1370.0 137 135 129 132 123 143 143 165 181 250
1410.0 351 532 791 1145 1675 2088 2052 1603 1130 860
1450.0 632 463 350 276 216 181 157 140 116 105
1490.0 94 72 61 53 59 61 60 57 63 55
1530.0 59 54 52 58 55 51 51 60 57 52
1570.0 51 47 43 44 44 46 49 54 51 49
1610.0 51 46 51 53 55 49 49 51 47 50
1650.0 53 50 47 40 44 40 41 31 42 42
1690.0 37 38 41 42 41 40 40 41 36 34
1730.0 30 40 37 37 35 37 36 36 38 37
1770.0 37 41 41 40 38 36 37 37 35 34
1810.0 30 33 34 40 48 47 47 48 50 51
1850.0 42 33 29 28 26 29 27 27 25 24
1890.0 21 18 22 19 23 20 27 31 27 25
1930.0 21 26 32 37 38 42 37 36 33 33
1970.0 29 32 31 34 35 42 48 49 54 58
2010.0 59 63 74 82 89 95 84 75 68 66
2050.0 62 63 62 64 75 76 64 50 38 28
2090.0 18 19 23 32 35 42 50 56 59 62
2130.0 68 69 59 53 51 48 51 53 55 57
2170.0 61 57 53 49 48 47 48 49 49 52
2210.0 50 46 46 46 46 51 55 49 52 54
2250.0 55 52 48 46 47 52 54 63 64 62
2290.0 63 66 74 71 61 54 28 4 1 5
2330.0 5 29 58 57 122 50 1 1 44 179
2370.0 243 258 233 188 143 106 92 83 83 84
2410.0 89 85 79 72 70 70 62 61 63 63
2450.0 66 60 67 64 70 69 71 78 77 75
2490.0 75 70 71 72 71 73 69 74 75 79
2530.0 81 81 82 77 74 71 72 67 72 73
2570.0 76 80 83 81 79 82 84 83 83 83
2610.0 88 82 82 85 83 92 99 104 111 87
2650.0 66 59 44 41 45 51 63 85 89 93
2690.0 87 84 85 80 79 82 88 86 84 86
2730.0 87 84 84 88 90 89 98 99 108 108
2770.0 122 116 127 115 109 103 98 108 104 113
2810.0 119 121 136 163 198 226 255 277 303 317
2850.0 329 349 350 335 310 282 261 243 236 264
2890.0 311 384 488 621 729 805 833 899 940 828
2930.0 649 448 362 353 361 430 539 673 836 1076
2970.0 1269 1398 1366 1141 924 722 549 425 360 346
3010.0 369 424 486 521 451 387 297 227 167 150
3050.0 106 100 90 96 93 75 69 83 85 80
3090.0 83 82 78 76 78 73 59 67 74 73
3130.0 79 64 59 59 62 69 58 59 54 62
3170.0 64 59 64 64 64 68 66 71 62 64
3210.0 59 62 54 42 52 56 50 57 67 73
3250.0 63 51 57 53 36 35 36 26 27 28
3290.0 43 54 48 52 55 62 49 48 42 41
3330.0 44 43 60 42 53 44 40 47 54 46
3370.0 48 51 51 42 61 26 26 32 54 41
3410.0 43 51 38 46 31 43 53 36 42 34
3450.0 40 33 31 15 25 37 33 20 9 18
3490.0 28 24 35 35 32 19 30 23 20 25
3530.0 9 22 6 19 34 28 17 22 17 9
3570.0 30 24 9 1 2 10 19 22 6 27
3610.0 9 14 7 17 24 12 18 28 45 31
3650.0 31 24 36 35 18 31 42 25 28 5
3690.0 34 22 37 26 53 51 42 45 11 18
3730.0 35 63 74 79 75 63 53 56 55 40
3770.0 47 52 53 47 52 70 71 48 50 56
3810.0 66 52 31 54 48 61 44 74 41 53
3850.0 53 43 73 22 47 43 54 70 50 31
3890.0 45 55 38 35 60 67 28 24 1 31
3930.0 16 7 23 48 18 14 25 20 0 37
##END=
