##TITLE=Acetic acid, ethoxy-
##JCAMP-DX=4.24
##DATA TYPE=INFRARED SPECTRUM
##ORIGIN=Sadtler Research Labs Under US-EPA Contract
##OWNER=NIST Standard Reference Data Program
##CAS REGISTRY NO=627-03-2
##MOLFORM=C 4 H 8 O 3
##XUNITS=1/CM
##YUNITS=ABSORBANCE
##XFACTOR=1.0
##YFACTOR=0.000058896
##DELTAX=4.0
##FIRSTX=450.0
##LASTX=3966.0
##FIRSTY=0.002945
##MAXX=3966
##MINX=450
##MAXY=0.58896
##MINY=0
##NPOINTS=880
##XYDATA=(X++(Y..Y))
450.0 50 224 361 320 430 399 309 430 445 568
490.0 502 563 466 563 497 441 438 494 464 466
530.0 529 587 623 631 642 663 672 722 665 679
570.0 725 747 747 819 902 998 1143 1290 1397 1523
610.0 1591 1681 1726 1772 1782 1756 1673 1644 1591 1519
650.0 1457 1375 1254 1173 1123 968 871 806 671 589
690.0 483 442 375 382 282 282 229 215 182 192
730.0 171 146 114 86 91 86 65 58 43 43
770.0 25 18 10 20 27 7 1 29 23 26
810.0 61 52 99 117 158 203 278 346 425 541
850.0 615 707 757 755 726 656 548 459 395 346
890.0 302 296 270 248 210 193 165 130 109 99
930.0 86 75 72 69 55 76 88 90 102 131
970.0 147 178 212 253 304 349 403 469 523 577
1010.0 622 669 699 741 758 769 779 770 780 790
1050.0 821 874 951 1065 1192 1359 1561 1771 2037 2431
1090.0 3065 4034 5410 7014 8355 9218 9822 10000 9248 8129
1130.0 7271 6582 5784 5041 4515 4197 3997 3832 3679 3491
1170.0 3263 3001 2699 2329 2005 1758 1547 1381 1240 1137
1210.0 1068 1009 975 949 937 905 877 856 842 836
1250.0 857 896 957 1039 1095 1129 1123 1095 1049 994
1290.0 981 1007 1043 1082 1139 1229 1335 1515 1766 2005
1330.0 2185 2482 2789 2927 3038 3172 3285 3326 3298 3196
1370.0 3091 2949 2700 2439 2196 1969 1760 1585 1420 1269
1410.0 1131 1000 901 812 744 683 658 662 652 634
1450.0 596 563 514 446 383 338 312 301 283 265
1490.0 239 212 182 147 122 101 82 69 54 40
1530.0 33 26 21 31 18 22 11 18 17 11
1570.0 7 13 8 4 5 9 8 7 6 10
1610.0 7 10 18 13 15 12 21 23 22 27
1650.0 35 42 36 44 52 53 68 64 81 96
1690.0 107 125 153 169 184 201 236 267 312 352
1730.0 424 512 629 752 928 1096 1296 1563 1945 2532
1770.0 3316 4152 4665 5223 5873 6450 6414 6497 6909 7616
1810.0 7754 7296 6634 5717 4609 3264 2158 1406 981 716
1850.0 547 431 352 290 243 206 175 157 136 114
1890.0 98 90 75 63 54 48 45 43 34 33
1930.0 32 28 32 33 31 32 28 33 32 29
1970.0 32 34 35 33 31 35 40 37 40 40
2010.0 42 43 41 39 34 33 27 25 19 16
2050.0 12 16 4 8 7 6 1 2 2 5
2090.0 2 5 9 6 10 11 9 13 13 16
2130.0 17 20 18 20 22 22 25 24 26 26
2170.0 24 32 37 32 30 34 31 28 32 28
2210.0 29 30 27 25 22 25 30 26 23 26
2250.0 26 32 32 33 30 36 34 36 35 32
2290.0 30 33 44 39 45 50 39 31 26 18
2330.0 13 15 12 0 17 24 13 7 0 8
2370.0 16 23 26 32 25 26 18 19 19 22
2410.0 16 17 15 11 1 5 10 8 7 9
2450.0 8 10 16 9 16 15 20 16 20 15
2490.0 22 18 17 14 13 12 12 15 10 7
2530.0 8 8 8 5 5 5 7 7 1 9
2570.0 3 8 8 6 7 8 12 10 17 15
2610.0 19 21 22 25 22 26 26 25 24 23
2650.0 26 24 29 23 23 26 33 32 40 38
2690.0 37 40 48 45 45 45 52 64 68 70
2730.0 82 86 95 106 108 117 128 138 145 151
2770.0 156 164 174 186 184 196 198 203 220 230
2810.0 243 262 281 304 335 372 415 475 554 635
2850.0 723 819 945 1067 1201 1345 1485 1630 1736 1790
2890.0 1798 1783 1750 1710 1664 1619 1578 1529 1469 1432
2930.0 1419 1433 1459 1450 1449 1457 1423 1364 1326 1344
2970.0 1430 1613 1808 2006 2135 2126 1966 1696 1332 1030
3010.0 772 588 451 357 285 240 215 187 167 146
3050.0 136 128 116 104 92 79 73 69 76 66
3090.0 65 65 62 60 62 54 49 45 45 44
3130.0 48 37 48 43 45 47 36 35 45 41
3170.0 40 42 45 40 36 45 44 46 49 51
3210.0 41 49 42 38 34 36 34 36 36 24
3250.0 23 23 30 29 22 18 23 21 21 17
3290.0 17 14 20 12 17 18 8 26 18 15
3330.0 24 13 15 25 22 24 24 25 30 37
3370.0 40 34 40 35 38 47 47 46 48 51
3410.0 55 54 50 59 62 75 67 85 93 101
3450.0 113 145 178 236 321 437 624 830 1066 1304
3490.0 1537 1694 1717 1622 1444 1199 922 660 467 346
3530.0 268 219 206 196 211 239 293 418 683 1109
3570.0 1576 1944 2162 2147 1866 1487 999 521 279 194
3610.0 146 102 78 66 55 59 39 34 20 29
3650.0 31 15 24 27 28 7 22 15 11 6
3690.0 0 12 12 2 0 4 10 18 14 11
3730.0 13 10 24 28 26 29 11 2 19 36
3770.0 11 17 18 17 18 19 16 9 32 20
3810.0 12 22 9 12 6 17 20 12 24 28
3850.0 13 23 20 14 23 0 6 18 9 25
3890.0 18 10 11 16 23 19 9 5 15 15
3930.0 26 33 31 19 7 22 21 9 28 11
##END=
