##TITLE=N-Ethylformamide
##JCAMP-DX=4.24
##DATA TYPE=INFRARED SPECTRUM
##ORIGIN=Sadtler Research Labs Under US-EPA Contract
##OWNER=NIST Standard Reference Data Program
##CAS REGISTRY NO=627-45-2
##MOLFORM=C 3 H 7 N O
##XUNITS=1/CM
##YUNITS=ABSORBANCE
##XFACTOR=1.0
##YFACTOR=0.000173926
##DELTAX=4.0
##FIRSTX=450.0
##LASTX=3966.0
##FIRSTY=0.041394
##MAXX=3966
##MINX=450
##MAXY=1.73926
##MINY=0
##NPOINTS=880
##XYDATA=(X++(Y..Y))
450.0 238 274 302 282 261 234 231 229 231 217
490.0 256 290 301 300 301 308 306 304 298 263
530.0 242 222 210 217 209 190 201 209 217 212
570.0 235 230 246 242 264 277 260 231 210 206
610.0 157 113 71 47 27 21 18 28 11 12
650.0 9 13 13 10 10 12 7 1 5 4
690.0 1 4 12 8 10 30 40 45 51 65
730.0 63 67 74 82 72 72 65 83 79 88
770.0 88 92 99 106 119 138 152 158 175 194
810.0 204 214 224 207 194 189 163 132 117 97
850.0 88 82 65 57 51 44 35 34 31 22
890.0 22 26 35 42 50 65 72 82 89 99
930.0 109 108 114 114 118 118 118 120 120 125
970.0 124 128 128 139 144 151 162 170 176 180
1010.0 181 180 182 178 170 156 141 129 118 103
1050.0 92 86 74 78 83 97 109 122 139 150
1090.0 158 163 156 149 156 143 141 138 146 150
1130.0 160 179 196 233 268 315 353 398 441 524
1170.0 696 996 1485 2032 2474 2478 2509 2410 2413 2484
1210.0 2074 1386 873 578 488 462 491 526 579 610
1250.0 616 605 571 529 472 416 366 362 402 466
1290.0 512 532 552 565 527 483 420 327 247 189
1330.0 153 132 131 140 150 173 190 228 263 334
1370.0 433 538 605 649 659 647 672 686 584 470
1410.0 402 382 409 445 513 599 717 836 947 1034
1450.0 1130 1225 1369 1506 1716 2024 2377 2723 2980 3208
1490.0 3235 3183 3057 2838 2457 1973 1550 1141 828 568
1530.0 423 311 250 206 161 127 110 113 90 70
1570.0 63 56 53 46 38 40 36 39 35 40
1610.0 40 41 52 45 56 44 64 67 70 83
1650.0 110 127 142 156 199 250 321 400 513 662
1690.0 831 1081 1443 1920 2582 3747 5446 7426 8378 8976
1730.0 9379 8942 10000 9618 8406 6371 4170 2457 1496 963
1770.0 654 448 308 226 178 146 121 99 81 64
1810.0 50 44 36 34 31 31 27 24 27 27
1850.0 20 16 15 13 17 17 11 12 11 11
1890.0 11 11 8 8 6 7 7 7 10 9
1930.0 10 12 13 14 14 14 16 13 13 12
1970.0 11 11 11 13 12 17 18 17 19 19
2010.0 20 20 20 20 18 16 17 15 17 17
2050.0 16 19 18 20 21 21 19 17 13 12
2090.0 11 7 5 3 1 2 2 1 0 0
2130.0 0 1 1 1 2 4 4 4 5 7
2170.0 8 8 9 11 13 13 15 16 17 15
2210.0 15 14 13 11 9 8 4 3 1 0
2250.0 1 2 1 2 3 3 5 7 6 6
2290.0 5 5 6 6 7 9 10 10 12 18
2330.0 19 19 16 21 16 16 18 13 16 16
2370.0 19 17 19 17 15 13 11 11 8 7
2410.0 6 6 5 7 6 9 8 8 10 9
2450.0 10 11 11 12 13 11 13 14 14 15
2490.0 17 19 17 19 19 21 19 18 18 17
2530.0 17 16 13 13 14 12 13 13 13 12
2570.0 14 17 17 19 21 24 26 27 27 29
2610.0 31 33 32 33 35 34 36 35 37 39
2650.0 40 43 45 48 50 54 57 64 69 75
2690.0 80 86 90 94 100 108 121 142 168 205
2730.0 262 341 424 496 529 520 545 574 545 487
2770.0 407 326 265 229 215 214 225 255 304 372
2810.0 470 599 768 999 1286 1596 1813 1889 1938 1971
2850.0 1968 1908 1702 1424 1177 1018 943 910 877 837
2890.0 811 793 792 789 771 754 748 755 779 821
2930.0 882 954 1006 1028 1053 1084 1127 1166 1205 1246
2970.0 1302 1368 1441 1466 1442 1384 1300 1164 975 800
3010.0 639 496 376 289 221 171 140 114 99 86
3050.0 78 72 67 63 61 55 55 58 54 53
3090.0 54 54 64 72 78 78 74 71 72 74
3130.0 66 57 46 39 37 39 36 39 37 41
3170.0 45 45 47 47 47 48 45 41 40 37
3210.0 34 35 32 28 24 21 20 19 19 19
3250.0 19 19 18 17 17 17 15 15 15 15
3290.0 17 15 15 13 16 13 12 12 12 11
3330.0 11 11 15 15 15 13 13 15 20 22
3370.0 20 21 19 24 27 32 39 43 54 62
3410.0 77 93 111 136 163 199 226 258 295 336
3450.0 392 438 467 486 492 487 469 442 400 347
3490.0 294 226 170 125 94 66 54 39 30 23
3530.0 16 16 8 9 11 11 11 5 5 7
3570.0 9 7 7 6 7 6 10 6 6 5
3610.0 8 3 9 4 2 10 2 5 4 7
3650.0 13 8 4 5 5 13 7 14 7 15
3690.0 12 7 0 5 10 14 11 7 11 8
3730.0 13 13 17 9 17 7 17 12 7 16
3770.0 12 8 7 9 6 9 7 10 9 12
3810.0 5 13 10 7 5 6 8 16 5 7
3850.0 11 15 14 4 9 13 9 3 5 12
3890.0 2 9 10 11 11 16 14 6 9 7
3930.0 14 9 7 15 6 16 17 10 8 12
##END=
