##TITLE=1-Propanol, 3-chloro-
##JCAMP-DX=4.24
##DATA TYPE=INFRARED SPECTRUM
##ORIGIN=Sadtler Research Labs Under US-EPA Contract
##OWNER=NIST Standard Reference Data Program
##CAS REGISTRY NO=627-30-5
##MOLFORM=C 3 H 7 Cl O
##XUNITS=1/CM
##YUNITS=ABSORBANCE
##XFACTOR=1.0
##YFACTOR=0.000074084
##DELTAX=4.0
##FIRSTX=450.0
##LASTX=3966.0
##FIRSTY=0.028745
##MAXX=3966
##MINX=450
##MAXY=0.74084
##MINY=0
##NPOINTS=880
##XYDATA=(X++(Y..Y))
450.0 388 371 414 480 574 686 792 855 895 884
490.0 799 700 539 404 280 230 166 181 158 142
530.0 139 93 103 6 160 170 154 125 130 130
570.0 111 84 120 136 81 87 156 100 109 139
610.0 134 192 186 204 263 302 388 529 747 1029
650.0 1376 1853 2129 2272 2236 2210 2080 1755 1082 638
690.0 501 366 333 318 334 369 443 625 894 1113
730.0 1231 1299 1485 1490 1153 842 731 702 632 639
770.0 668 791 963 979 826 718 656 557 405 283
810.0 224 204 192 210 245 267 336 378 461 536
850.0 646 789 853 887 929 959 946 921 863 816
890.0 796 798 852 904 988 1163 1324 1457 1583 1658
930.0 1667 1654 1573 1477 1330 1123 993 908 892 895
970.0 944 1042 1138 1257 1375 1507 1666 1825 1981 2159
1010.0 2341 2586 3030 3462 3993 4661 5519 6575 7739 8726
1050.0 9476 10000 9927 9148 8070 6904 5677 4481 3445 2692
1090.0 2161 1756 1433 1231 1082 1021 999 1009 1021 1020
1130.0 1020 1006 980 963 956 970 965 957 952 960
1170.0 980 1012 1031 1063 1089 1132 1175 1186 1213 1248
1210.0 1254 1263 1287 1310 1359 1420 1506 1602 1713 1825
1250.0 1925 2076 2237 2425 2548 2651 2746 2824 2871 2894
1290.0 3001 3084 3084 3002 2893 2749 2563 2252 1977 1802
1330.0 1667 1597 1546 1517 1487 1452 1417 1387 1376 1284
1370.0 1273 1280 1313 1362 1408 1447 1463 1449 1414 1400
1410.0 1321 1319 1279 1286 1257 1287 1298 1467 1465 1515
1450.0 1493 1448 1420 1285 1233 1088 990 859 810 741
1490.0 650 491 394 273 273 224 170 159 158 133
1530.0 93 141 99 126 91 108 110 97 109 68
1570.0 84 42 95 33 55 45 48 36 50 34
1610.0 42 41 56 44 24 69 27 55 34 71
1650.0 2 123 21 45 29 72 21 51 17 75
1690.0 41 56 44 103 50 56 64 85 57 82
1730.0 74 109 71 72 57 65 69 59 57 46
1770.0 65 27 31 27 50 15 45 21 46 19
1810.0 27 29 52 23 47 24 25 44 26 51
1850.0 31 39 38 32 21 42 22 28 27 25
1890.0 35 18 28 25 30 34 32 42 26 31
1930.0 31 36 34 38 44 45 43 45 56 47
1970.0 50 48 55 61 50 30 43 30 29 25
2010.0 27 14 31 28 31 32 39 41 41 48
2050.0 57 51 56 57 75 66 60 73 66 80
2090.0 68 64 63 58 59 59 52 41 45 36
2130.0 29 29 22 22 16 13 20 7 7 10
2170.0 13 11 6 0 18 10 6 15 17 14
2210.0 27 19 22 23 27 30 26 19 25 19
2250.0 11 10 3 14 17 21 15 21 13 22
2290.0 21 16 11 17 15 18 26 21 22 35
2330.0 32 57 46 56 56 37 36 43 99 68
2370.0 118 82 79 54 41 38 46 50 48 41
2410.0 49 56 59 53 52 54 62 66 64 56
2450.0 59 58 45 45 52 47 59 62 62 62
2490.0 57 63 59 42 56 49 43 36 38 38
2530.0 36 49 41 39 34 45 39 39 32 26
2570.0 39 34 27 43 54 52 56 51 45 57
2610.0 55 54 62 57 63 71 64 78 92 93
2650.0 98 100 110 117 121 126 140 141 160 176
2690.0 176 190 194 205 212 225 237 242 263 271
2730.0 278 284 299 335 344 358 377 381 391 409
2770.0 422 430 444 466 454 461 476 494 496 510
2810.0 532 556 589 613 690 739 818 876 979 1118
2850.0 1264 1444 1644 1850 2112 2393 2757 3137 3532 3867
2890.0 4133 4355 4518 4437 4294 4198 4183 4238 4356 4594
2930.0 4849 5135 5499 5821 6030 6304 6312 6273 6140 5913
2970.0 5641 5225 4838 4281 3660 3137 2686 2314 1981 1723
3010.0 1454 1272 1088 905 738 581 447 354 283 236
3050.0 206 163 148 132 136 130 116 128 106 82
3090.0 112 95 101 82 88 66 66 92 78 67
3130.0 56 56 61 47 61 73 41 69 62 43
3170.0 43 36 42 48 40 39 45 28 15 43
3210.0 44 39 51 38 22 23 39 17 40 31
3250.0 45 28 36 24 29 3 15 44 47 44
3290.0 43 74 58 72 46 43 34 55 84 57
3330.0 51 61 60 57 88 49 52 53 67 57
3370.0 48 79 53 53 58 98 104 52 67 33
3410.0 103 94 66 75 113 80 74 73 82 94
3450.0 107 145 97 98 66 83 111 128 119 126
3490.0 109 64 93 124 102 97 99 112 75 97
3530.0 103 107 102 91 137 129 133 115 157 143
3570.0 186 121 143 153 183 212 205 221 277 264
3610.0 320 364 428 534 621 738 839 893 1004 1098
3650.0 1287 1462 1698 2009 2300 2567 2576 2532 2303 2038
3690.0 1678 1312 959 707 568 432 373 312 266 265
3730.0 252 251 282 235 269 195 217 153 158 165
3770.0 167 166 147 168 164 149 168 154 177 155
3810.0 148 158 160 157 153 193 172 174 167 180
3850.0 172 187 203 207 197 202 197 223 190 204
3890.0 177 184 181 177 171 166 144 141 147 142
3930.0 154 143 154 136 135 126 121 127 137 140
##END=
