##TITLE=1,5-Hexadiene, 2,5-dimethyl-
##JCAMP-DX=4.24
##DATA TYPE=INFRARED SPECTRUM
##ORIGIN=Sadtler Research Labs Under US-EPA Contract
##OWNER=NIST Standard Reference Data Program
##CAS REGISTRY NO=627-58-7
##MOLFORM=C 8 H 14
##XUNITS=1/CM
##YUNITS=ABSORBANCE
##XFACTOR=1.0
##YFACTOR=0.000049121
##DELTAX=4.0
##FIRSTX=450.0
##LASTX=3966.0
##FIRSTY=0.000000
##MAXX=3966
##MINX=450
##MAXY=0.49121
##MINY=0
##NPOINTS=880
##XYDATA=(X++(Y..Y))
450.0 0 585 740 728 625 644 675 770 798 780
490.0 711 814 844 923 1052 1096 1228 1325 1374 1403
530.0 1363 1258 1080 1017 885 979 1009 1090 1063 1069
570.0 978 1064 957 813 790 767 733 703 733 692
610.0 685 702 678 670 714 686 703 608 669 681
650.0 665 685 695 727 731 647 699 697 725 693
690.0 705 728 717 727 738 750 750 756 715 720
730.0 724 730 700 730 719 728 726 750 777 775
770.0 792 773 786 813 800 773 766 785 786 798
810.0 809 794 824 812 844 851 880 937 981 1054
850.0 1167 1260 1388 1623 2016 2696 3755 5365 7207 8813
890.0 10000 9752 8288 6421 4604 3293 2380 1823 1514 1334
930.0 1230 1136 1048 997 965 939 932 939 947 949
970.0 974 1010 1062 1112 1156 1186 1196 1188 1131 1071
1010.0 1032 966 953 919 913 907 906 905 901 919
1050.0 955 954 954 950 930 927 894 879 855 855
1090.0 834 833 820 842 868 883 894 914 923 933
1130.0 961 1007 1070 1113 1189 1249 1279 1274 1252 1213
1170.0 1153 1096 1044 1013 997 988 997 1032 1072 1103
1210.0 1148 1179 1186 1169 1165 1169 1161 1145 1143 1161
1250.0 1174 1182 1220 1255 1260 1280 1294 1321 1361 1373
1290.0 1415 1441 1435 1402 1340 1276 1186 1121 1081 1032
1330.0 1004 1002 984 994 1033 1100 1205 1363 1610 1972
1370.0 2493 3025 3323 3416 3274 2785 2139 1752 1550 1506
1410.0 1500 1591 1674 1822 1994 2245 2571 2970 3424 3776
1450.0 4060 4161 4100 3819 3389 2916 2412 1938 1589 1340
1490.0 1191 1089 1011 960 920 886 863 854 838 838
1530.0 839 834 829 832 848 847 854 853 879 887
1570.0 901 913 922 947 943 961 969 1010 1040 1065
1610.0 1117 1180 1269 1419 1612 1926 2376 3000 3692 4299
1650.0 4568 4543 4163 3447 2618 2007 1532 1251 1051 952
1690.0 880 865 850 826 834 834 827 792 785 781
1730.0 771 773 791 825 841 848 852 846 833 879
1770.0 913 1011 1108 1196 1255 1264 1218 1129 1007 902
1810.0 830 770 738 710 686 674 662 657 649 643
1850.0 641 635 633 635 624 616 633 628 625 616
1890.0 614 613 616 618 608 617 613 621 604 604
1930.0 609 599 600 602 598 605 607 605 609 608
1970.0 601 601 603 611 612 608 609 610 617 625
2010.0 628 630 630 634 643 644 646 646 656 656
2050.0 658 656 667 663 664 651 635 637 625 619
2090.0 618 617 623 617 618 616 611 610 611 608
2130.0 610 606 611 606 605 604 608 609 613 606
2170.0 609 611 614 609 618 622 615 619 620 618
2210.0 613 611 624 623 621 615 617 614 615 618
2250.0 621 609 615 610 616 616 615 611 612 614
2290.0 612 605 601 607 593 599 595 597 589 620
2330.0 614 640 645 635 667 628 610 608 635 659
2370.0 678 673 683 645 628 630 627 624 619 626
2410.0 626 635 623 622 627 629 625 623 627 630
2450.0 634 636 631 636 639 636 636 630 635 634
2490.0 632 629 640 633 643 637 637 646 636 648
2530.0 646 643 641 651 643 644 652 651 656 652
2570.0 651 658 665 671 670 664 656 669 669 660
2610.0 669 666 671 659 646 652 651 654 665 669
2650.0 676 688 684 664 675 674 682 699 719 738
2690.0 755 760 766 771 773 772 794 799 825 854
2730.0 873 902 916 922 913 882 845 822 821 823
2770.0 827 838 858 876 891 927 966 985 1017 1051
2810.0 1083 1137 1185 1270 1379 1519 1702 1951 2242 2583
2850.0 2952 3323 3673 3932 4086 4148 4133 4111 4124 4216
2890.0 4443 4778 5221 5697 6218 6743 7232 7677 8018 8305
2930.0 8613 8947 9328 9518 9441 8974 8140 7345 6673 6688
2970.0 7621 8763 9143 9114 8509 6869 5243 4380 3732 3131
3010.0 2671 2352 2097 1888 1759 1649 1594 1534 1497 1512
3050.0 1528 1619 1786 2086 2499 3324 4650 5594 5962 5994
3090.0 5461 4089 2910 2210 1614 1281 1132 1050 994 920
3130.0 886 845 825 794 777 746 745 714 703 715
3170.0 686 677 670 665 664 648 660 641 650 626
3210.0 640 628 623 638 626 647 613 621 625 629
3250.0 634 619 629 609 622 627 621 621 631 648
3290.0 649 664 672 667 661 680 680 674 665 685
3330.0 686 689 691 700 676 687 686 703 671 653
3370.0 663 670 649 662 639 691 678 671 699 680
3410.0 687 680 663 692 709 704 682 647 665 668
3450.0 688 670 675 700 686 694 672 671 654 675
3490.0 675 663 679 657 680 660 683 683 672 656
3530.0 643 691 664 678 654 654 656 680 665 639
3570.0 652 693 668 662 682 646 649 635 665 644
3610.0 686 641 660 674 648 683 662 617 660 629
3650.0 680 611 621 632 607 669 644 674 663 601
3690.0 596 643 670 631 640 669 644 607 586 638
3730.0 630 636 671 602 648 661 664 665 641 642
3770.0 612 684 655 649 657 684 631 634 621 654
3810.0 643 624 657 686 681 694 655 677 703 675
3850.0 605 601 675 638 602 680 727 700 689 712
3890.0 750 691 696 713 722 699 696 710 740 683
3930.0 686 698 675 678 736 715 767 776 760 677
##END=
