##TITLE=Mercury, diethyl-
##JCAMP-DX=4.24
##DATA TYPE=INFRARED SPECTRUM
##ORIGIN=Sadtler Research Labs Under US-EPA Contract
##OWNER=NIST Standard Reference Data Program
##CAS REGISTRY NO=627-44-1
##MOLFORM=C 4 H 10 Hg
##XUNITS=1/CM
##YUNITS=ABSORBANCE
##XFACTOR=1.0
##YFACTOR=0.000178516
##DELTAX=4.0
##FIRSTX=450.0
##LASTX=3966.0
##FIRSTY=0.000000
##MAXX=3966
##MINX=450
##MAXY=1.78516
##MINY=0
##NPOINTS=880
##XYDATA=(X++(Y..Y))
450.0 0 73 183 190 300 397 369 404 483 625
490.0 784 1115 1684 2448 3722 4535 4986 5039 4764 3760
530.0 2142 1276 984 790 547 367 276 210 194 174
570.0 181 134 150 107 149 149 148 144 123 165
610.0 196 201 233 249 271 322 352 452 525 611
650.0 689 761 866 952 1028 1081 1036 978 861 770
690.0 688 567 486 378 349 287 249 232 194 199
730.0 200 153 212 175 94 101 177 138 132 169
770.0 124 115 98 107 91 84 50 77 62 63
810.0 71 44 39 46 56 63 46 55 61 37
850.0 55 55 28 23 26 24 49 21 41 22
890.0 26 45 64 29 57 55 84 75 83 90
930.0 110 138 149 170 201 238 236 254 257 254
970.0 252 248 253 283 337 399 484 596 742 928
1010.0 1057 1086 1052 1006 846 583 388 290 220 174
1050.0 145 128 119 107 103 92 83 75 70 64
1090.0 66 61 54 53 52 55 56 53 58 63
1130.0 74 90 105 125 149 176 220 276 345 474
1170.0 680 987 1453 2072 2751 3248 3392 3177 2869 2268
1210.0 1488 888 573 431 366 331 292 278 246 222
1250.0 204 174 160 149 116 96 74 63 50 49
1290.0 56 61 58 56 66 59 47 52 42 44
1330.0 54 49 51 56 70 92 120 166 265 484
1370.0 861 1277 1337 1239 1337 1197 721 400 308 263
1410.0 252 243 263 312 338 354 375 431 451 468
1450.0 500 526 511 532 584 663 682 624 596 545
1490.0 503 461 384 335 308 277 210 185 168 144
1530.0 105 115 103 92 85 83 87 102 86 107
1570.0 94 102 125 143 150 183 182 166 180 149
1610.0 114 112 82 75 81 75 85 69 77 89
1650.0 93 94 106 105 119 122 134 123 125 117
1690.0 122 101 86 68 71 64 57 51 51 51
1730.0 49 39 47 46 44 33 36 45 47 53
1770.0 51 48 49 46 48 41 47 39 37 39
1810.0 35 32 29 29 24 23 27 26 29 31
1850.0 37 50 51 58 70 90 97 102 106 104
1890.0 93 87 80 78 71 70 64 56 54 48
1930.0 48 45 45 40 46 46 40 36 38 39
1970.0 34 37 39 31 39 33 39 38 32 36
2010.0 34 34 31 31 29 27 33 28 29 30
2050.0 31 33 36 34 34 34 36 37 40 40
2090.0 44 46 50 54 62 66 75 88 99 116
2130.0 134 154 172 190 195 195 193 179 170 161
2170.0 152 143 133 123 115 104 97 90 80 73
2210.0 62 54 48 41 34 33 33 30 27 27
2250.0 26 24 26 25 25 23 22 26 23 24
2290.0 24 23 22 22 25 21 25 21 29 33
2330.0 31 41 45 44 47 54 52 63 60 62
2370.0 70 78 83 80 78 79 80 82 84 85
2410.0 82 78 75 68 66 63 59 56 53 53
2450.0 53 53 52 53 50 46 42 41 32 29
2490.0 26 23 23 23 22 24 21 21 21 23
2530.0 25 24 27 32 40 50 56 67 76 81
2570.0 83 79 74 64 62 60 61 69 79 93
2610.0 106 109 111 111 107 95 86 81 73 68
2650.0 69 68 70 74 77 79 83 90 99 112
2690.0 131 153 174 185 193 203 202 198 208 239
2730.0 294 356 388 393 416 401 329 269 241 226
2770.0 217 219 228 248 286 332 394 464 546 638
2810.0 742 869 1025 1228 1494 1721 1850 1920 1966 1906
2850.0 1768 1746 2016 2665 3986 6140 8008 7817 8169 8903
2890.0 7604 6640 6207 6716 8156 8721 10000 9489 9075 9947
2930.0 8316 8942 9218 9292 9944 9590 9668 8887 8405 7373
2970.0 6254 5539 4878 4213 3558 2892 2309 1837 1470 1188
3010.0 995 862 755 683 631 609 600 586 585 577
3050.0 562 547 534 509 489 467 437 409 378 353
3090.0 329 309 302 287 274 264 259 253 248 245
3130.0 240 240 241 242 239 243 235 230 219 209
3170.0 195 179 169 156 141 132 122 113 103 95
3210.0 83 73 71 65 62 58 55 51 50 50
3250.0 48 50 47 42 38 44 46 40 42 49
3290.0 44 48 48 48 46 50 50 55 50 52
3330.0 53 51 53 56 50 49 46 51 49 47
3370.0 40 49 52 45 49 49 53 51 52 50
3410.0 46 44 44 47 40 40 46 46 44 41
3450.0 48 50 44 42 50 49 47 44 45 41
3490.0 40 47 47 47 41 45 46 53 50 54
3530.0 64 63 66 66 67 74 68 61 59 64
3570.0 65 66 74 74 64 64 62 63 64 63
3610.0 57 55 56 51 40 45 50 42 44 41
3650.0 38 35 32 36 35 31 38 27 29 24
3690.0 22 21 21 23 21 28 25 28 23 21
3730.0 21 21 22 21 29 21 26 24 26 25
3770.0 25 29 35 39 31 28 33 38 39 56
3810.0 40 42 39 53 62 53 73 76 80 75
3850.0 83 71 56 62 47 69 68 47 60 68
3890.0 62 58 48 50 51 52 56 57 50 57
3930.0 47 37 62 38 57 45 24 34 41 37
##END=
