##TITLE=Hexanedioic acid, dimethyl ester
##JCAMP-DX=4.24
##DATA TYPE=INFRARED SPECTRUM
##ORIGIN=Sadtler Research Labs Under US-EPA Contract
##OWNER=NIST Standard Reference Data Program
##CAS REGISTRY NO=627-93-0
##MOLFORM=C 8 H 14 O 4
##XUNITS=1/CM
##YUNITS=ABSORBANCE
##XFACTOR=1.0
##YFACTOR=0.000167584
##DELTAX=4.0
##FIRSTX=450.0
##LASTX=3966.0
##FIRSTY=0.009385
##MAXX=3966
##MINX=450
##MAXY=1.67584
##MINY=0
##NPOINTS=880
##XYDATA=(X++(Y..Y))
450.0 56 34 22 62 36 50 19 61 51 44
490.0 9 62 85 36 28 11 55 25 68 47
530.0 87 50 30 45 94 104 63 82 79 90
570.0 70 98 116 101 125 131 151 155 147 138
610.0 153 136 126 106 131 92 98 139 82 104
650.0 78 55 56 41 38 41 33 31 57 44
690.0 55 56 72 68 76 80 70 80 81 80
730.0 71 85 118 131 114 131 165 168 187 174
770.0 181 168 181 193 188 176 178 177 169 194
810.0 199 247 265 309 328 334 338 338 329 318
850.0 311 291 292 282 291 287 279 268 253 240
890.0 218 209 181 178 165 151 145 122 107 81
930.0 86 80 89 85 93 89 90 105 117 157
970.0 182 240 270 311 321 364 456 553 628 722
1010.0 801 873 911 900 855 787 742 693 688 702
1050.0 726 766 813 889 943 978 977 975 962 938
1090.0 886 807 745 704 700 735 823 946 1132 1382
1130.0 1710 2140 2662 3248 3760 4135 4400 4603 4800 4996
1170.0 5150 5189 5094 4810 4543 4336 4345 4424 4434 4362
1210.0 4269 4158 4027 3926 3830 3802 3775 3784 3762 3743
1250.0 3664 3510 3314 3049 2761 2445 2185 1999 1872 1771
1290.0 1664 1563 1456 1367 1299 1272 1255 1224 1161 1092
1330.0 1048 1042 1111 1187 1285 1397 1525 1662 1760 1728
1370.0 1580 1358 1101 878 691 552 442 390 340 333
1410.0 351 392 486 575 743 1003 1538 2117 2340 1967
1450.0 1447 1204 1112 1010 889 754 643 503 391 329
1490.0 290 235 217 187 186 184 164 159 162 146
1530.0 142 136 136 156 145 132 132 147 130 122
1570.0 124 119 114 110 107 100 94 94 87 84
1610.0 85 74 84 77 83 70 80 87 79 78
1650.0 98 90 90 84 95 94 120 109 142 155
1690.0 163 189 237 293 343 425 534 704 873 1120
1730.0 1471 1968 2611 3401 4616 5948 7744 9089 10000 8919
1770.0 7285 5637 4161 3035 2141 1472 1007 694 499 351
1810.0 266 208 155 132 110 98 76 67 66 68
1850.0 62 52 54 50 57 60 49 45 44 42
1890.0 42 43 40 40 37 40 39 39 43 39
1930.0 37 41 41 45 50 44 48 50 52 57
1970.0 56 61 62 68 70 80 85 86 86 93
2010.0 96 102 104 109 110 109 107 105 108 105
2050.0 98 94 93 94 91 83 72 64 58 58
2090.0 56 47 48 49 43 39 36 35 31 28
2130.0 24 22 22 22 21 22 17 14 16 16
2170.0 15 16 17 14 16 11 13 13 11 8
2210.0 6 7 7 5 5 6 5 4 2 7
2250.0 8 7 6 5 8 9 8 10 15 12
2290.0 9 8 11 8 9 5 5 2 0 6
2330.0 3 9 4 26 23 19 0 0 22 44
2370.0 78 85 64 46 33 26 22 17 16 12
2410.0 11 17 16 8 15 10 12 12 13 11
2450.0 9 10 10 11 9 11 10 11 11 10
2490.0 10 13 12 12 17 12 10 12 9 11
2530.0 11 12 8 8 13 9 7 7 9 7
2570.0 10 11 11 20 21 20 27 29 30 28
2610.0 32 34 26 21 25 27 21 17 12 26
2650.0 22 17 15 14 5 5 0 1 0 5
2690.0 13 8 17 16 31 27 26 27 25 22
2730.0 22 16 24 25 23 23 21 27 29 33
2770.0 27 34 35 41 41 43 47 50 52 53
2810.0 61 69 79 89 104 128 159 204 269 377
2850.0 485 532 495 434 435 476 528 564 577 550
2890.0 526 515 522 546 586 639 734 848 963 1084
2930.0 1205 1329 1447 1589 1791 2068 2469 3059 3350 3085
2970.0 2395 1726 1379 1150 1017 918 875 856 825 768
3010.0 692 639 602 579 573 551 504 438 373 314
3050.0 261 227 202 185 167 159 148 139 134 135
3090.0 129 122 115 114 109 99 92 87 78 76
3130.0 66 53 57 54 48 49 41 35 37 36
3170.0 31 33 34 27 29 21 31 26 24 32
3210.0 35 25 22 23 22 26 19 22 33 24
3250.0 25 9 10 17 19 21 15 11 24 26
3290.0 30 22 27 20 27 31 8 21 21 27
3330.0 18 15 8 7 21 17 22 20 21 18
3370.0 14 14 16 25 24 12 19 27 17 18
3410.0 21 21 21 25 19 14 19 26 19 18
3450.0 17 20 30 30 29 35 38 44 59 74
3490.0 81 95 109 121 102 91 71 63 56 47
3530.0 35 26 18 29 27 5 7 23 21 23
3570.0 33 40 56 26 30 25 32 15 34 23
3610.0 31 18 20 18 4 3 24 21 17 18
3650.0 25 15 20 25 28 23 19 17 32 33
3690.0 33 23 20 10 30 26 29 26 28 29
3730.0 22 5 34 34 23 24 20 27 25 24
3770.0 27 33 35 37 36 37 16 16 21 34
3810.0 22 30 25 30 52 46 34 24 41 31
3850.0 25 31 28 29 41 28 35 41 30 36
3890.0 53 20 46 30 24 9 40 29 39 15
3930.0 33 21 21 33 28 14 38 33 37 24
##END=
