##TITLE=1-Hexanol, 5-methyl-
##JCAMP-DX=4.24
##DATA TYPE=INFRARED SPECTRUM
##ORIGIN=Sadtler Research Labs Under US-EPA Contract
##OWNER=NIST Standard Reference Data Program
##CAS REGISTRY NO=627-98-5
##MOLFORM=C 7 H 16 O
##XUNITS=1/CM
##YUNITS=ABSORBANCE
##XFACTOR=1.0
##YFACTOR=0.000152408
##DELTAX=4.0
##FIRSTX=450.0
##LASTX=3966.0
##FIRSTY=0.034292
##MAXX=3966
##MINX=450
##MAXY=1.52408
##MINY=0
##NPOINTS=880
##XYDATA=(X++(Y..Y))
450.0 225 87 88 95 28 79 56 47 60 64
490.0 50 24 69 51 69 89 92 132 80 117
530.0 65 73 48 3 30 41 53 56 47 43
570.0 40 48 49 57 42 26 69 77 26 66
610.0 30 59 52 72 41 39 66 43 43 2
650.0 60 59 70 58 80 129 103 95 61 86
690.0 65 72 52 61 64 60 62 70 74 98
730.0 140 129 129 72 101 75 79 85 74 77
770.0 72 97 75 83 79 95 124 117 123 122
810.0 133 129 144 132 137 151 147 137 141 162
850.0 151 166 157 178 169 174 184 197 222 238
890.0 261 267 292 301 327 352 381 410 435 461
930.0 468 498 509 541 541 547 544 534 513 504
970.0 507 506 521 557 609 652 722 768 830 903
1010.0 1001 1139 1303 1509 1754 2024 2285 2499 2642 2706
1050.0 2703 2618 2477 2262 2073 1888 1727 1554 1359 1162
1090.0 986 863 762 710 667 632 608 582 556 533
1130.0 515 489 476 452 458 452 466 502 554 603
1170.0 622 619 570 517 471 453 443 444 461 471
1210.0 484 488 502 498 508 515 526 532 533 528
1250.0 517 518 506 509 512 523 525 522 514 518
1290.0 525 526 547 549 568 575 611 666 762 911
1330.0 1080 1267 1351 1331 1256 1196 1155 1164 1212 1295
1370.0 1363 1422 1509 1589 1637 1595 1441 1204 928 770
1410.0 706 766 846 828 661 620 647 722 731 767
1450.0 843 956 1125 1231 1319 1382 1328 1200 1028 869
1490.0 659 484 325 230 186 157 110 117 95 92
1530.0 71 75 74 66 63 61 57 58 76 53
1570.0 55 60 62 47 57 55 47 50 47 48
1610.0 41 52 43 54 35 51 39 48 37 52
1650.0 25 72 42 42 40 43 37 43 30 53
1690.0 36 38 45 46 39 35 41 34 41 35
1730.0 37 40 46 36 33 41 40 40 32 36
1770.0 28 31 26 32 28 30 25 29 25 28
1810.0 24 25 24 25 29 25 27 26 29 29
1850.0 33 27 29 28 32 28 30 30 31 29
1890.0 30 30 27 27 25 29 25 29 25 26
1930.0 28 25 28 26 26 27 27 27 30 31
1970.0 32 34 32 35 38 40 40 44 44 48
2010.0 47 50 52 52 56 56 64 64 68 71
2050.0 65 59 59 60 53 56 51 52 47 43
2090.0 41 41 43 39 36 36 37 30 34 36
2130.0 35 32 33 36 36 38 39 36 38 40
2170.0 38 38 39 38 40 40 41 37 38 39
2210.0 45 44 38 41 38 40 41 42 40 42
2250.0 41 43 44 45 47 45 48 46 47 45
2290.0 44 41 34 30 23 14 6 3 2 3
2330.0 2 8 24 17 49 22 2 2 32 80
2370.0 96 114 116 99 85 74 65 65 64 64
2410.0 66 63 66 66 69 68 66 63 63 62
2450.0 65 70 66 65 65 70 69 68 71 74
2490.0 73 72 76 74 73 69 76 78 79 74
2530.0 77 80 81 85 81 83 85 87 88 87
2570.0 94 97 106 106 112 118 120 125 130 129
2610.0 137 138 133 137 140 141 140 143 143 148
2650.0 140 140 141 143 150 143 147 150 158 158
2690.0 164 169 179 191 198 207 212 231 244 258
2730.0 275 285 293 286 285 282 287 287 288 304
2770.0 320 323 331 342 355 368 386 402 422 446
2810.0 463 494 542 584 643 718 829 987 1211 1515
2850.0 1882 2277 2664 3060 3508 4040 4630 5041 5232 5209
2890.0 4991 4770 4783 4973 5305 5710 6153 6514 6889 7386
2930.0 7930 8587 8884 8920 8622 8417 8333 8781 9870 10000
2970.0 9407 7747 5586 3604 2244 1467 1036 770 612 507
3010.0 434 383 339 301 272 254 228 220 206 197
3050.0 183 179 170 158 161 160 156 139 144 142
3090.0 129 119 129 118 117 109 97 108 98 102
3130.0 96 101 98 96 98 97 105 99 103 102
3170.0 106 105 102 94 94 93 88 79 71 67
3210.0 60 52 51 36 33 25 27 24 20 18
3250.0 15 11 10 8 11 7 2 4 12 18
3290.0 10 14 12 13 27 18 18 16 19 21
3330.0 22 39 39 34 29 35 27 30 33 27
3370.0 24 24 32 29 34 16 21 17 13 31
3410.0 23 30 28 19 26 27 34 34 32 29
3450.0 22 26 31 28 24 28 37 25 28 31
3490.0 31 23 25 25 23 16 19 25 21 26
3530.0 25 13 22 12 19 9 7 18 23 10
3570.0 21 22 17 22 6 38 19 21 23 37
3610.0 49 52 42 45 77 94 120 139 193 263
3650.0 355 471 570 655 730 747 716 638 529 382
3690.0 270 194 129 118 77 65 70 50 54 42
3730.0 35 45 53 38 62 45 40 29 18 6
3770.0 10 9 1 8 25 10 16 10 2 39
3810.0 12 15 8 25 10 12 11 27 15 19
3850.0 6 26 18 20 4 13 21 11 2 4
3890.0 9 30 0 42 28 5 2 9 15 2
3930.0 2 3 28 2 2 2 4 2 15 25
##END=
