##TITLE=Undecanoic acid, ethyl ester
##JCAMP-DX=4.24
##DATA TYPE=INFRARED SPECTRUM
##ORIGIN=Sadtler Research Labs Under US-EPA Contract
##OWNER=NIST Standard Reference Data Program
##CAS REGISTRY NO=627-90-7
##MOLFORM=C 13 H 26 O 2
##XUNITS=1/CM
##YUNITS=ABSORBANCE
##XFACTOR=1.0
##YFACTOR=0.000058398
##DELTAX=4.0
##FIRSTX=450.0
##LASTX=3966.0
##FIRSTY=0.009227
##MAXX=3966
##MINX=450
##MAXY=0.58398
##MINY=0
##NPOINTS=880
##XYDATA=(X++(Y..Y))
450.0 158 184 198 184 146 41 49 63 73 83
490.0 150 137 118 181 164 184 199 136 136 200
530.0 114 138 120 143 103 107 161 118 253 195
570.0 191 213 234 212 226 215 242 170 202 230
610.0 229 224 250 308 279 265 220 175 261 166
650.0 286 274 231 320 128 277 199 285 282 285
690.0 255 253 304 287 288 450 402 393 367 373
730.0 363 325 270 476 401 376 347 328 317 322
770.0 320 229 406 396 367 296 356 337 313 298
810.0 309 358 260 314 319 317 292 399 360 352
850.0 329 390 412 389 354 333 304 330 298 299
890.0 352 302 311 320 339 334 368 367 368 351
930.0 403 403 368 344 357 326 328 277 292 333
970.0 293 321 305 323 339 316 314 354 386 399
1010.0 446 550 687 833 1026 1197 1371 1473 1491 1442
1050.0 1381 1281 1214 1160 1096 1022 960 982 974 975
1090.0 1094 1262 1439 1597 1710 1807 1814 1847 1716 1574
1130.0 1537 1583 1766 2030 2427 2929 3408 3749 3918 3981
1170.0 3892 3893 3821 3700 3617 3419 3228 2968 2787 2661
1210.0 2524 2412 2392 2402 2450 2493 2528 2588 2595 2561
1250.0 2404 2275 2085 1892 1734 1551 1429 1339 1280 1230
1290.0 1226 1225 1231 1270 1287 1285 1237 1193 1115 1060
1330.0 1028 1033 1092 1150 1213 1221 1174 1089 1045 1135
1370.0 1351 1500 1423 1205 972 773 669 590 544 508
1410.0 515 507 489 520 627 687 748 720 847 933
1450.0 1006 1143 1156 1344 1344 1285 1018 832 673 541
1490.0 394 372 268 286 171 157 202 181 128 146
1530.0 179 130 143 42 142 177 136 61 73 153
1570.0 137 177 109 188 175 184 174 179 167 162
1610.0 174 157 103 152 138 147 147 108 172 111
1650.0 130 8 157 150 170 132 166 175 199 123
1690.0 244 256 218 223 373 471 553 581 789 1008
1730.0 1315 1661 2383 3230 4362 5580 6335 5950 4783 3543
1770.0 2498 1665 1209 866 651 521 390 351 297 287
1810.0 261 233 224 209 168 162 166 166 158 110
1850.0 140 156 157 139 139 112 147 154 140 143
1890.0 132 143 136 135 138 135 135 109 134 136
1930.0 132 134 133 118 126 125 130 142 131 123
1970.0 140 121 130 130 123 119 121 125 128 127
2010.0 127 127 127 127 136 127 133 125 132 121
2050.0 131 124 125 121 106 125 122 115 130 123
2090.0 113 103 114 103 104 104 93 104 93 102
2130.0 94 93 94 85 94 100 96 96 96 98
2170.0 79 89 91 98 107 89 89 88 85 89
2210.0 88 87 92 89 87 85 86 86 77 84
2250.0 94 86 80 85 84 81 86 76 90 88
2290.0 81 82 90 96 97 100 104 114 113 102
2330.0 108 95 106 117 118 119 127 123 132 111
2370.0 103 109 83 93 82 83 73 73 82 72
2410.0 80 82 73 70 75 80 71 67 64 68
2450.0 70 69 60 61 59 61 56 60 59 59
2490.0 59 59 55 65 59 58 76 75 66 70
2530.0 61 82 67 68 73 70 71 68 79 80
2570.0 80 80 80 93 81 99 84 95 92 92
2610.0 100 100 99 118 100 110 119 116 114 118
2650.0 117 128 127 135 129 137 147 155 139 146
2690.0 162 147 154 149 135 139 137 141 134 148
2730.0 158 168 160 169 164 170 172 171 172 195
2770.0 183 188 205 212 222 239 266 264 286 292
2810.0 319 341 380 426 464 517 577 681 805 1003
2850.0 1346 1956 2808 3590 3921 3724 3255 2822 2571 2408
2890.0 2224 2110 2159 2393 2810 3296 3968 4813 6013 7610
2930.0 9194 10000 9731 8723 7415 6104 5014 4458 4324 4441
2970.0 4408 3974 3320 2925 2715 2414 1993 1619 1349 1140
3010.0 959 795 667 572 488 416 393 342 319 286
3050.0 266 257 215 225 213 205 177 163 181 178
3090.0 169 170 153 159 177 152 152 149 137 146
3130.0 139 151 121 124 137 111 148 130 121 114
3170.0 116 139 129 120 131 112 104 114 113 117
3210.0 109 91 101 102 101 98 97 102 103 93
3250.0 104 88 86 85 87 105 105 96 82 101
3290.0 88 96 98 106 109 89 107 98 100 108
3330.0 101 101 108 101 95 95 93 108 99 103
3370.0 104 103 112 96 104 106 108 103 104 103
3410.0 93 95 127 82 106 115 100 90 111 109
3450.0 112 119 107 114 110 104 117 133 136 136
3490.0 128 155 145 121 96 99 117 116 104 106
3530.0 101 89 115 91 90 91 93 115 99 88
3570.0 75 102 103 89 79 88 104 103 112 118
3610.0 82 68 84 82 99 56 112 119 115 108
3650.0 65 82 81 111 109 77 69 57 106 115
3690.0 91 116 124 110 119 118 104 105 112 118
3730.0 101 72 87 105 32 75 100 122 106 132
3770.0 141 140 138 136 142 147 143 125 109 118
3810.0 117 119 111 111 129 124 116 87 104 108
3850.0 129 80 125 139 137 147 148 148 148 138
3890.0 135 127 132 127 144 160 151 150 151 151
3930.0 153 162 152 152 150 153 0 11 11 11
##END=
