##TITLE=Butanoic acid, 4-chloro-
##JCAMP-DX=4.24
##DATA TYPE=INFRARED SPECTRUM
##ORIGIN=Sadtler Research Labs Under US-EPA Contract
##OWNER=NIST Standard Reference Data Program
##CAS REGISTRY NO=627-00-9
##MOLFORM=C 4 H 7 Cl O 2
##XUNITS=1/CM
##YUNITS=ABSORBANCE
##XFACTOR=1.0
##YFACTOR=0.000071469
##DELTAX=4.0
##FIRSTX=450.0
##LASTX=3966.0
##FIRSTY=0.004074
##MAXX=3966
##MINX=450
##MAXY=0.71469
##MINY=0
##NPOINTS=880
##XYDATA=(X++(Y..Y))
450.0 57 104 116 124 53 47 70 91 203 137
490.0 83 126 1 106 47 93 81 46 73 68
530.0 46 24 107 50 67 95 108 110 157 175
570.0 210 113 140 184 186 234 215 237 224 223
610.0 245 249 280 283 317 318 363 364 405 433
650.0 487 523 565 622 583 526 451 351 291 200
690.0 178 184 167 163 154 138 138 143 156 188
730.0 263 314 371 423 431 388 283 259 241 245
770.0 220 238 264 310 340 392 444 557 646 617
810.0 609 523 481 434 415 448 468 496 512 545
850.0 583 661 747 889 996 1112 1202 1222 1149 1021
890.0 856 696 583 478 417 363 341 339 335 338
930.0 341 361 383 396 398 408 425 454 492 548
970.0 621 727 827 921 1043 1124 1201 1273 1327 1377
1010.0 1346 1282 1224 1217 1217 1330 1389 1367 1318 1376
1050.0 1378 1302 1334 1239 993 786 627 546 503 470
1090.0 455 436 433 466 583 799 1098 1447 1800 2203
1130.0 2668 3237 3893 4651 5308 5647 5807 5921 5945 5867
1170.0 5878 5864 5809 5567 5299 5133 5138 5369 5784 6241
1210.0 6546 6564 6223 5674 5031 4526 4218 4046 3935 3785
1250.0 3557 3249 2971 2706 2572 2445 2327 2195 2087 2025
1290.0 2056 2153 2268 2363 2460 2560 2591 2538 2396 2151
1330.0 1854 1604 1449 1373 1406 1522 1691 1915 2168 2333
1370.0 2340 2241 1988 1612 1294 1008 778 637 563 547
1410.0 584 634 780 923 1120 1462 2060 2646 2926 2992
1450.0 2455 1903 1602 1282 1056 884 766 632 498 415
1490.0 370 309 275 242 259 247 211 219 210 194
1530.0 174 187 175 205 178 179 177 207 199 171
1570.0 171 174 169 155 155 150 138 144 131 133
1610.0 114 128 125 127 112 116 111 125 97 123
1650.0 111 173 151 150 183 197 219 212 221 253
1690.0 240 265 329 399 447 530 638 819 991 1270
1730.0 1663 2276 3096 4160 5541 7013 8544 9532 10000 9682
1770.0 8749 7331 5850 4603 3575 2856 2464 2254 2295 2417
1810.0 2557 2587 2534 2567 2355 1977 1848 1289 772 457
1850.0 314 258 210 174 147 147 113 107 97 85
1890.0 85 76 65 49 56 50 50 52 59 53
1930.0 50 48 52 59 53 59 58 56 60 69
1970.0 68 73 82 79 86 90 97 95 98 107
2010.0 108 114 110 109 103 94 84 87 88 91
2050.0 91 100 97 93 92 88 92 91 97 96
2090.0 92 84 79 69 68 61 50 47 39 42
2130.0 34 34 29 30 27 29 28 25 28 31
2170.0 27 27 29 23 32 33 31 31 29 30
2210.0 30 35 29 30 30 39 40 40 39 32
2250.0 31 28 30 25 35 34 38 38 42 48
2290.0 51 51 54 66 60 55 45 42 37 31
2330.0 27 22 17 8 23 17 7 14 0 3
2370.0 12 16 28 26 27 30 28 33 32 26
2410.0 28 25 27 31 36 27 28 18 27 21
2450.0 15 17 10 12 5 12 9 8 3 9
2490.0 14 14 11 7 12 20 22 13 12 15
2530.0 17 7 6 4 6 14 15 7 6 10
2570.0 2 6 4 13 12 14 25 34 23 29
2610.0 39 37 44 51 46 46 40 44 37 31
2650.0 44 61 55 58 58 59 36 23 25 27
2690.0 27 33 38 31 36 28 37 47 41 31
2730.0 43 51 38 47 46 52 53 43 49 50
2770.0 51 59 63 53 70 61 71 63 76 69
2810.0 83 89 102 114 116 132 163 210 272 377
2850.0 475 522 545 502 438 404 426 454 500 547
2890.0 584 648 689 741 806 884 930 1003 1111 1205
2930.0 1276 1338 1435 1501 1646 1951 2504 3202 3575 3559
2970.0 3365 2762 2298 2057 1895 1824 1780 1720 1646 1571
3010.0 1435 1263 1101 973 831 736 649 574 472 410
3050.0 356 289 259 235 226 206 197 177 170 164
3090.0 156 146 136 119 122 121 115 136 96 101
3130.0 84 61 82 59 69 44 49 53 50 50
3170.0 44 38 33 40 38 40 68 22 48 68
3210.0 4 29 49 64 58 61 92 87 43 44
3250.0 35 54 65 82 50 48 66 61 73 97
3290.0 87 70 82 74 72 89 101 102 104 106
3330.0 124 118 128 113 125 114 103 146 157 152
3370.0 140 165 155 150 151 164 173 146 164 179
3410.0 184 180 181 159 173 165 203 186 157 187
3450.0 179 186 169 200 219 181 220 212 220 276
3490.0 248 243 273 282 266 258 254 255 215 211
3530.0 221 245 186 204 186 187 212 239 258 332
3570.0 421 468 486 467 434 313 258 254 244 238
3610.0 214 223 197 256 200 204 220 213 200 173
3650.0 229 216 208 213 195 198 222 213 179 196
3690.0 201 190 233 222 219 186 225 231 189 213
3730.0 205 217 254 211 267 200 239 258 228 240
3770.0 190 264 245 269 266 287 273 256 288 189
3810.0 290 272 242 232 254 225 253 234 267 254
3850.0 273 300 280 335 285 319 306 276 300 327
3890.0 341 332 281 293 350 320 360 308 327 269
3930.0 358 379 313 300 356 341 246 236 300 313
##END=
