##TITLE=Phenol, 2-(phenylmethoxy)-
##JCAMP-DX=4.24
##DATA TYPE=INFRARED SPECTRUM
##ORIGIN=Sadtler Research Labs Under US-EPA Contract
##OWNER=NIST Standard Reference Data Program
##CAS REGISTRY NO=6272-38-4
##MOLFORM=C 13 H 12 O 2
##XUNITS=1/CM
##YUNITS=ABSORBANCE
##XFACTOR=1.0
##YFACTOR=0.000058435
##DELTAX=4.0
##FIRSTX=450.0
##LASTX=3966.0
##FIRSTY=0.044878
##MAXX=3966
##MINX=450
##MAXY=0.58435
##MINY=0
##NPOINTS=880
##XYDATA=(X++(Y..Y))
450.0 768 677 670 659 731 692 637 456 629 461
490.0 498 407 227 391 411 314 187 103 76 486
530.0 401 446 309 404 378 258 450 423 475 325
570.0 351 293 277 400 362 341 328 335 506 380
610.0 376 487 515 519 420 397 415 288 238 258
650.0 214 244 196 338 301 590 528 665 871 1125
690.0 1579 1906 1858 1806 1539 1409 1511 1628 2116 2692
730.0 3339 4170 4959 5327 4642 4049 3419 2803 2362 1908
770.0 1525 1365 1240 990 664 603 543 529 489 459
810.0 540 491 494 649 643 637 761 708 746 738
850.0 701 708 658 703 669 588 600 524 500 490
890.0 515 557 573 688 808 872 794 705 548 457
930.0 399 405 393 448 414 460 540 560 705 788
970.0 902 1158 1301 1488 1584 1680 1809 1933 2102 2239
1010.0 2398 2489 2605 2675 2715 2701 2590 2290 1851 1375
1050.0 1034 822 650 572 582 538 555 636 729 846
1090.0 937 1259 1693 2166 2413 2135 1629 1031 751 594
1130.0 555 557 602 678 819 969 1135 1304 1483 1807
1170.0 2189 2737 3385 3966 4400 4572 4669 4757 4782 4997
1210.0 5221 5992 6780 7061 6567 5339 4187 3522 3430 3886
1250.0 4971 6849 8999 10000 9075 6687 4427 3122 2344 1828
1290.0 1544 1339 1241 1173 1086 1049 985 928 885 855
1330.0 896 933 1072 1347 1745 2139 2462 2580 2401 2061
1370.0 1732 1521 1421 1292 1188 919 733 618 502 452
1410.0 401 347 404 380 365 404 481 569 677 772
1450.0 954 1168 1250 1484 1513 1800 1875 1960 2387 3376
1490.0 5274 7526 9621 9637 7763 4904 3043 2329 1786 1364
1530.0 987 652 590 491 465 316 364 499 505 485
1570.0 593 702 799 952 1063 1298 1656 1720 1948 1863
1610.0 1669 1480 1091 787 528 399 342 315 248 234
1650.0 331 285 278 115 217 178 244 145 238 232
1690.0 193 171 250 322 232 275 322 478 405 367
1730.0 519 501 509 394 428 441 390 385 359 326
1770.0 335 326 227 222 211 237 271 283 253 213
1810.0 169 144 131 144 130 160 109 124 110 167
1850.0 119 133 159 161 223 222 217 188 172 164
1890.0 144 131 118 121 144 169 173 182 145 123
1930.0 119 126 146 156 178 157 166 172 147 145
1970.0 99 87 75 66 75 72 85 81 84 89
2010.0 86 89 92 97 112 104 112 101 112 107
2050.0 102 100 86 82 90 78 82 82 68 70
2090.0 69 67 62 56 48 39 45 36 32 38
2130.0 40 30 32 18 19 24 22 22 18 19
2170.0 20 26 24 27 18 28 27 28 25 31
2210.0 31 29 39 32 37 44 39 44 38 45
2250.0 46 51 61 55 57 62 64 75 77 84
2290.0 103 118 146 146 165 207 169 184 167 148
2330.0 129 112 168 44 253 74 222 92 207 173
2370.0 140 159 143 142 114 78 61 64 63 66
2410.0 77 78 79 80 77 75 77 81 78 79
2450.0 77 69 75 80 77 80 82 81 78 82
2490.0 90 89 91 102 105 121 127 134 129 117
2530.0 103 86 79 73 69 72 70 77 76 64
2570.0 66 62 61 54 53 58 52 54 56 47
2610.0 58 69 64 60 59 60 64 59 59 62
2650.0 59 54 52 57 61 62 64 67 66 76
2690.0 79 80 85 86 86 97 100 111 115 117
2730.0 119 120 118 107 104 97 99 95 89 88
2770.0 81 74 91 85 89 103 102 120 124 127
2810.0 136 141 142 144 150 152 159 171 184 199
2850.0 217 240 261 296 344 405 475 563 629 655
2890.0 658 625 569 535 506 510 524 551 576 605
2930.0 646 683 692 714 738 745 737 697 636 565
2970.0 502 446 380 309 254 219 205 194 207 236
3010.0 287 344 423 572 749 995 1265 1477 1598 1624
3050.0 1630 1668 1767 1867 1977 2095 2162 2067 1804 1471
3090.0 1227 1063 911 783 650 550 459 374 297 210
3130.0 162 120 100 84 69 77 73 72 67 75
3170.0 73 76 75 67 60 54 59 45 65 65
3210.0 61 46 53 57 57 62 63 51 71 56
3250.0 51 50 69 58 64 58 57 53 61 46
3290.0 58 59 55 63 59 66 62 41 53 56
3330.0 49 50 46 55 60 59 43 51 33 43
3370.0 52 59 51 65 64 54 36 53 56 70
3410.0 65 76 64 62 51 54 78 54 61 48
3450.0 42 51 49 64 55 54 56 44 61 48
3490.0 74 71 55 51 61 43 82 98 118 117
3530.0 157 188 240 270 350 420 600 748 1145 1548
3570.0 2345 3059 3619 3715 3575 3010 2339 1683 1148 854
3610.0 650 502 415 327 182 239 148 215 174 274
3650.0 256 402 319 309 316 174 339 113 205 77
3690.0 98 112 42 89 58 52 100 48 96 15
3730.0 85 113 18 179 25 234 26 136 32 40
3770.0 113 67 111 124 75 117 85 144 109 88
3810.0 98 97 122 120 106 45 117 132 44 140
3850.0 0 210 38 111 63 53 124 80 144 97
3890.0 156 88 146 87 136 119 128 184 49 138
3930.0 97 127 87 97 116 69 137 100 135 137
##END=
