##TITLE=Acetic acid, pentyl ester
##JCAMP-DX=4.24
##DATA TYPE=INFRARED SPECTRUM
##ORIGIN=Sadtler Research Labs Under US-EPA Contract
##OWNER=NIST Standard Reference Data Program
##CAS REGISTRY NO=628-63-7
##MOLFORM=C 7 H 14 O 2
##XUNITS=1/CM
##YUNITS=ABSORBANCE
##XFACTOR=1.0
##YFACTOR=0.000205179
##DELTAX=4.0
##FIRSTX=450.0
##LASTX=3966.0
##FIRSTY=0.000000
##MAXX=3966
##MINX=450
##MAXY=2.05179
##MINY=0
##NPOINTS=880
##XYDATA=(X++(Y..Y))
450.0 0 104 138 127 123 127 135 134 143 155
490.0 151 167 118 122 138 122 142 120 144 117
530.0 135 152 166 123 124 119 124 142 123 133
570.0 134 153 138 155 173 211 210 219 277 272
610.0 307 286 283 274 320 366 333 319 275 310
650.0 252 207 182 166 145 144 137 147 148 124
690.0 127 131 143 131 137 151 148 164 173 186
730.0 190 206 202 195 187 180 177 168 173 174
770.0 182 178 182 167 162 184 173 171 169 177
810.0 187 202 216 229 238 243 253 237 253 250
850.0 245 248 254 261 267 269 269 267 257 253
890.0 255 257 260 263 264 257 251 248 244 242
930.0 247 254 261 261 253 248 244 258 289 341
970.0 393 425 430 417 404 415 454 518 602 704
1010.0 818 930 1049 1173 1299 1435 1578 1716 1841 1926
1050.0 1925 1834 1670 1455 1273 1173 1143 1116 1062 952
1090.0 821 691 586 506 445 404 367 344 322 306
1130.0 283 267 249 242 238 243 246 247 253 265
1170.0 276 293 322 359 404 472 572 718 932 1233
1210.0 1663 2307 3264 4677 6469 8404 9620 10000 9346 7484
1250.0 5577 4123 3159 2484 2018 1658 1362 1126 973 873
1290.0 791 724 654 591 532 481 437 405 382 363
1330.0 344 329 329 340 372 438 569 846 1306 1708
1370.0 1890 1870 1531 1235 1136 1107 1045 930 746 574
1410.0 461 393 372 363 367 381 411 442 475 518
1450.0 575 633 693 739 759 752 715 633 541 457
1490.0 390 335 299 277 264 259 244 240 237 227
1530.0 222 214 213 210 203 193 191 190 186 176
1570.0 175 170 168 164 158 159 159 159 157 161
1610.0 160 160 163 157 160 157 163 167 166 173
1650.0 182 188 189 187 192 195 201 201 208 219
1690.0 224 238 261 288 317 361 417 497 574 684
1730.0 824 1038 1338 1754 2387 3224 4444 5602 6112 6002
1770.0 5183 3799 2701 1916 1345 972 741 586 486 408
1810.0 353 310 273 251 225 212 196 186 176 173
1850.0 168 162 161 161 166 161 159 155 155 153
1890.0 151 149 145 144 139 141 138 140 137 134
1930.0 133 132 132 133 132 127 131 128 129 129
1970.0 127 126 125 128 128 132 132 134 136 137
2010.0 136 136 135 130 131 128 126 127 129 128
2050.0 129 131 133 135 130 133 136 140 140 144
2090.0 146 146 147 147 146 146 146 142 139 137
2130.0 133 132 129 128 125 125 124 124 124 124
2170.0 123 123 124 124 124 124 123 123 124 122
2210.0 121 123 124 122 120 118 118 119 117 117
2250.0 119 117 117 118 120 118 119 119 117 118
2290.0 117 120 119 117 121 121 119 123 124 121
2330.0 121 125 124 124 125 115 121 114 117 120
2370.0 119 117 116 117 117 115 113 113 114 115
2410.0 115 113 116 113 114 114 116 116 119 119
2450.0 118 120 122 124 124 124 122 121 118 118
2490.0 116 111 109 108 108 106 109 105 104 105
2530.0 103 106 107 105 102 105 105 106 110 108
2570.0 110 110 115 115 112 116 116 120 121 123
2610.0 124 124 124 124 123 127 126 124 126 129
2650.0 130 131 132 134 138 139 138 136 136 137
2690.0 136 134 132 134 133 128 129 128 131 135
2730.0 137 142 151 153 158 158 154 152 149 145
2770.0 148 147 149 151 155 157 162 167 176 182
2810.0 189 193 201 211 226 239 261 289 324 389
2850.0 462 574 711 867 1033 1172 1261 1336 1374 1324
2890.0 1270 1181 1094 1083 1130 1226 1341 1508 1719 1971
2930.0 2260 2552 2827 2999 3002 2926 2835 2842 3008 3278
2970.0 3414 3182 2730 2090 1511 1125 868 693 567 477
3010.0 412 370 340 325 309 303 289 277 265 251
3050.0 241 234 227 220 213 208 207 200 190 184
3090.0 177 174 165 160 158 160 147 140 148 142
3130.0 146 134 134 130 134 127 127 128 123 124
3170.0 123 128 130 125 126 124 128 124 125 122
3210.0 121 116 114 112 113 110 112 111 111 110
3250.0 114 112 106 112 114 108 109 109 110 108
3290.0 112 108 106 106 109 111 109 107 106 107
3330.0 106 110 105 102 107 103 105 110 108 111
3370.0 110 112 108 113 109 106 114 109 108 108
3410.0 105 103 109 114 109 110 111 107 114 107
3450.0 113 117 111 119 121 114 121 123 129 131
3490.0 136 153 155 164 166 168 157 144 138 123
3530.0 119 111 115 119 113 112 107 112 120 120
3570.0 110 115 117 115 118 117 118 119 120 118
3610.0 120 113 116 115 117 124 119 123 119 125
3650.0 124 125 124 124 120 117 119 128 119 113
3690.0 109 120 124 121 120 126 119 125 122 119
3730.0 118 121 118 132 125 124 124 134 124 123
3770.0 120 126 126 116 125 120 123 131 128 118
3810.0 116 112 133 124 124 123 126 121 123 132
3850.0 123 119 118 122 129 134 125 132 134 124
3890.0 130 120 126 133 128 112 125 124 131 134
3930.0 147 128 113 118 118 139 113 124 129 117
##END=
