##TITLE=1,4-Butanediol, diacetate
##JCAMP-DX=4.24
##DATA TYPE=INFRARED SPECTRUM
##ORIGIN=Sadtler Research Labs Under US-EPA Contract
##OWNER=NIST Standard Reference Data Program
##CAS REGISTRY NO=628-67-1
##MOLFORM=C 8 H 14 O 4
##XUNITS=1/CM
##YUNITS=ABSORBANCE
##XFACTOR=1.0
##YFACTOR=0.000163208
##DELTAX=4.0
##FIRSTX=450.0
##LASTX=3966.0
##FIRSTY=0.019422
##MAXX=3966
##MINX=450
##MAXY=1.63208
##MINY=0
##NPOINTS=880
##XYDATA=(X++(Y..Y))
450.0 119 51 20 66 22 67 18 81 32 0
490.0 40 39 15 60 69 43 83 36 53 71
530.0 88 90 91 68 34 56 52 87 85 86
570.0 90 70 95 125 105 120 184 201 265 275
610.0 269 245 215 257 295 320 293 296 346 256
650.0 192 250 217 130 102 67 88 75 90 71
690.0 53 45 40 47 24 39 25 38 38 47
730.0 24 28 50 62 63 53 59 51 54 46
770.0 42 46 30 31 75 103 74 96 105 125
810.0 114 116 116 114 114 119 131 132 141 137
850.0 142 133 146 139 131 133 127 130 128 135
890.0 133 137 139 143 152 158 168 169 174 172
930.0 178 185 204 236 274 309 320 328 332 348
970.0 359 372 373 368 369 378 413 467 546 639
1010.0 756 882 1027 1198 1374 1532 1655 1798 1949 2079
1050.0 2077 1919 1651 1395 1220 1122 1068 1003 930 833
1090.0 735 634 540 456 383 323 280 245 217 198
1130.0 187 189 199 210 234 257 286 323 370 407
1170.0 447 483 530 572 627 703 807 997 1270 1657
1210.0 2248 3219 4760 6896 8862 10000 9447 8235 6794 5515
1250.0 4417 3531 2864 2325 1906 1552 1258 1032 870 751
1290.0 655 578 513 454 407 361 331 306 287 264
1330.0 237 215 217 221 245 309 433 660 1111 1667
1370.0 1968 1835 1373 1071 997 991 971 865 681 498
1410.0 379 304 286 263 264 277 309 337 361 391
1450.0 420 431 435 415 402 394 383 350 299 256
1490.0 222 183 164 154 152 150 137 135 134 120
1530.0 111 109 104 106 103 96 89 93 83 76
1570.0 77 72 68 69 66 64 62 65 60 62
1610.0 61 60 62 62 64 60 64 70 69 70
1650.0 84 84 86 87 94 94 107 105 124 131
1690.0 136 148 170 198 223 264 313 403 472 568
1730.0 695 884 1143 1469 2042 2751 3923 5365 6879 6874
1770.0 5890 4371 3180 2360 1757 1340 1175 1058 910 779
1810.0 640 484 346 256 195 162 128 115 102 95
1850.0 88 77 76 71 74 67 64 58 59 53
1890.0 52 53 47 47 43 46 41 43 42 34
1930.0 35 35 36 35 36 30 31 30 29 30
1970.0 28 30 30 31 31 37 34 39 39 38
2010.0 38 42 42 42 46 45 48 47 46 47
2050.0 48 47 43 42 44 51 54 57 56 55
2090.0 52 45 41 36 36 34 34 30 30 31
2130.0 28 29 30 29 26 29 24 25 24 22
2170.0 24 21 22 20 18 14 18 14 16 15
2210.0 13 11 12 13 9 12 12 13 13 12
2250.0 13 16 16 11 15 12 15 14 14 16
2290.0 15 18 19 23 18 23 21 21 18 14
2330.0 14 9 15 6 21 11 8 5 3 2
2370.0 14 13 14 19 16 15 12 13 14 14
2410.0 15 13 16 17 17 16 16 20 22 24
2450.0 25 29 29 33 29 33 30 29 26 23
2490.0 21 18 23 18 19 15 13 10 10 11
2530.0 10 10 9 12 8 11 13 14 13 12
2570.0 15 13 15 15 14 14 15 11 9 10
2610.0 7 7 5 9 6 6 11 10 7 6
2650.0 4 2 7 11 21 28 29 29 27 27
2690.0 25 28 30 31 31 28 28 27 26 26
2730.0 31 28 33 31 36 34 31 33 29 33
2770.0 30 29 28 32 32 33 32 33 35 36
2810.0 36 33 40 45 48 48 51 61 68 84
2850.0 104 139 163 195 206 205 208 210 226 239
2890.0 264 285 312 344 375 398 419 449 486 527
2930.0 551 572 617 689 790 897 991 1068 1135 1168
2970.0 1153 1065 944 797 660 537 425 339 268 216
3010.0 180 158 143 135 131 132 130 124 123 110
3050.0 106 107 105 97 95 92 89 86 80 77
3090.0 69 64 62 58 54 49 45 39 39 35
3130.0 33 32 33 25 27 27 26 30 19 25
3170.0 19 14 20 17 16 19 20 19 20 19
3210.0 16 15 18 16 19 13 14 20 15 14
3250.0 19 12 13 21 14 18 20 16 16 13
3290.0 19 20 15 17 19 18 17 20 11 16
3330.0 13 18 15 15 18 20 15 17 16 16
3370.0 9 13 13 14 16 16 14 9 15 14
3410.0 19 16 16 13 14 8 18 20 12 11
3450.0 15 19 24 20 19 20 26 26 27 29
3490.0 34 40 58 66 70 75 71 60 42 28
3530.0 25 18 19 21 27 49 53 73 85 94
3570.0 98 78 80 136 89 75 89 98 70 58
3610.0 35 28 22 16 14 34 21 9 15 12
3650.0 14 26 14 16 21 15 9 14 17 9
3690.0 14 21 12 7 17 11 11 5 2 10
3730.0 12 2 13 1 30 2 2 20 13 4
3770.0 16 14 19 18 16 5 13 11 5 5
3810.0 2 13 19 17 8 14 2 6 21 5
3850.0 14 11 11 14 11 7 2 16 3 7
3890.0 11 2 3 33 20 10 7 11 11 31
3930.0 30 36 16 20 18 48 19 11 35 28
##END=
