##TITLE=1-Chloro-2-ethoxyethane
##JCAMP-DX=4.24
##DATA TYPE=INFRARED SPECTRUM
##ORIGIN=Sadtler Research Labs Under US-EPA Contract
##OWNER=NIST Standard Reference Data Program
##CAS REGISTRY NO=628-34-2
##MOLFORM=C 4 H 9 Cl O
##XUNITS=1/CM
##YUNITS=ABSORBANCE
##XFACTOR=1.0
##YFACTOR=0.000101883
##DELTAX=4.0
##FIRSTX=450.0
##LASTX=3966.0
##FIRSTY=0.000000
##MAXX=3966
##MINX=450
##MAXY=1.01883
##MINY=0
##NPOINTS=880
##XYDATA=(X++(Y..Y))
450.0 0 174 340 67 354 234 236 417 290 326
490.0 281 234 280 241 287 170 168 128 169 154
530.0 128 141 191 124 133 178 75 141 121 133
570.0 162 152 125 98 105 142 121 144 92 148
610.0 116 102 150 103 152 128 173 199 205 202
650.0 253 338 419 535 578 879 919 1070 1041 1008
690.0 924 718 541 370 318 259 247 275 284 335
730.0 331 376 515 709 1041 1465 1866 2080 2057 1943
770.0 1441 814 498 405 334 344 326 344 310 315
810.0 328 310 328 299 283 279 277 272 262 255
850.0 285 301 330 345 375 408 433 489 508 544
890.0 539 521 514 476 433 418 398 380 354 346
930.0 327 306 297 294 302 321 329 352 378 387
970.0 397 404 428 442 464 499 522 571 623 689
1010.0 751 799 856 902 925 962 996 1042 1112 1198
1050.0 1268 1336 1388 1413 1431 1453 1486 1575 1692 1894
1090.0 2198 2654 3323 4185 5246 6430 7559 8523 9252 9768
1130.0 10000 9640 8996 8170 7045 5727 4570 3698 3013 2577
1170.0 2326 2086 1868 1635 1441 1313 1246 1227 1224 1201
1210.0 1179 1117 1035 930 836 770 707 700 735 839
1250.0 998 1065 1068 1055 925 759 691 721 794 914
1290.0 1098 1308 1445 1458 1424 1355 1154 918 730 604
1330.0 538 512 537 619 793 1081 1317 1373 1419 1445
1370.0 1458 1526 1600 1644 1708 1579 1240 1023 915 874
1410.0 859 788 771 743 775 830 851 946 957 1007
1450.0 973 980 943 919 796 773 705 655 610 572
1490.0 524 441 401 324 298 269 208 203 196 158
1530.0 166 122 170 128 147 126 105 156 102 118
1570.0 107 90 124 79 107 89 100 92 93 109
1610.0 78 127 83 120 104 98 119 115 95 124
1650.0 98 134 107 92 106 96 111 88 123 98
1690.0 114 98 119 136 111 118 111 137 122 126
1730.0 161 167 213 197 245 262 276 310 325 305
1770.0 311 293 265 224 214 187 202 178 181 157
1810.0 134 127 99 107 87 100 90 84 90 87
1850.0 91 82 86 91 89 104 92 96 96 97
1890.0 102 104 103 112 107 122 118 132 135 140
1930.0 144 151 155 158 164 152 170 156 167 150
1970.0 154 144 141 136 134 133 131 128 127 123
2010.0 121 118 121 116 109 104 103 95 97 95
2050.0 95 94 96 97 100 99 100 103 101 98
2090.0 101 98 100 107 109 111 109 113 116 115
2130.0 117 119 119 122 122 122 121 119 118 114
2170.0 113 108 106 105 103 99 97 96 97 98
2210.0 102 102 105 107 108 111 113 113 118 113
2250.0 119 115 118 116 114 114 115 114 112 111
2290.0 121 125 139 146 153 175 158 176 182 179
2330.0 193 182 180 179 212 151 234 194 243 216
2370.0 173 188 143 131 112 93 92 90 89 93
2410.0 90 94 87 88 88 82 86 83 84 84
2450.0 76 82 79 81 79 79 80 83 87 88
2490.0 85 86 81 85 84 80 83 74 76 79
2530.0 74 76 72 74 75 71 78 76 76 78
2570.0 79 85 81 86 90 92 103 106 109 117
2610.0 114 120 121 122 123 124 123 123 125 126
2650.0 124 130 127 123 136 136 148 153 158 170
2690.0 181 198 215 236 257 277 295 304 315 328
2730.0 337 354 362 374 383 384 390 393 402 413
2770.0 427 449 469 505 537 576 614 651 687 721
2810.0 755 797 833 887 974 1095 1270 1488 1745 2033
2850.0 2338 2648 2986 3321 3652 3968 4244 4379 4444 4385
2890.0 4160 3877 3583 3282 3014 2775 2565 2408 2290 2227
2930.0 2254 2396 2570 2673 2778 2860 2874 2887 2994 3200
2970.0 3565 4007 4263 4337 4301 3953 3450 2945 2473 2075
3010.0 1744 1455 1198 996 822 690 589 499 436 385
3050.0 332 297 267 236 218 199 187 173 164 161
3090.0 157 149 143 138 140 131 130 127 125 124
3130.0 121 123 115 118 116 115 111 115 110 118
3170.0 109 116 115 118 119 112 112 118 117 120
3210.0 115 114 120 115 117 110 112 110 102 101
3250.0 100 105 103 99 103 102 104 102 102 101
3290.0 97 102 102 101 105 98 103 102 99 102
3330.0 104 104 107 99 101 103 101 107 105 109
3370.0 108 110 107 110 113 108 102 105 100 113
3410.0 108 102 116 113 108 108 109 107 108 105
3450.0 104 114 117 94 106 115 109 118 102 104
3490.0 118 111 109 107 105 111 102 111 101 105
3530.0 105 108 104 115 102 107 92 119 102 112
3570.0 97 117 102 131 91 135 93 131 106 115
3610.0 104 102 128 82 139 99 130 107 135 96
3650.0 163 70 159 91 130 126 93 160 97 157
3690.0 92 148 114 134 129 112 110 146 94 139
3730.0 115 113 150 68 216 60 179 73 141 115
3770.0 122 142 118 134 123 117 155 99 162 101
3810.0 151 106 146 120 126 123 124 112 152 107
3850.0 142 103 146 129 99 132 118 131 112 142
3890.0 86 137 104 145 106 104 139 113 161 125
3930.0 167 115 135 125 118 143 123 139 141 105
##END=
