##TITLE=Butane, 1,4-diiodo-
##JCAMP-DX=4.24
##DATA TYPE=INFRARED SPECTRUM
##ORIGIN=Sadtler Research Labs Under US-EPA Contract
##OWNER=NIST Standard Reference Data Program
##CAS REGISTRY NO=628-21-7
##MOLFORM=C 4 H 8 I 2
##XUNITS=1/CM
##YUNITS=ABSORBANCE
##XFACTOR=1.0
##YFACTOR=0.000055594
##DELTAX=4.0
##FIRSTX=450.0
##LASTX=3966.0
##FIRSTY=0.031021
##MAXX=3966
##MINX=450
##MAXY=0.55594
##MINY=0
##NPOINTS=880
##XYDATA=(X++(Y..Y))
450.0 558 262 124 156 176 139 147 262 320 312
490.0 419 425 703 784 1016 1123 1062 836 748 587
530.0 321 415 248 8 185 116 207 187 174 307
570.0 471 488 534 614 685 813 934 1003 1093 919
610.0 716 621 558 494 409 303 177 128 77 23
650.0 206 143 188 186 187 141 113 90 193 324
690.0 358 407 314 356 427 523 751 944 1200 1531
730.0 1745 1586 1210 1159 1261 1403 1305 1048 801 754
770.0 795 775 648 495 440 346 422 451 426 369
810.0 339 342 352 361 363 349 338 328 294 251
850.0 264 274 314 321 332 389 436 461 439 412
890.0 377 299 258 230 212 212 213 219 198 219
930.0 219 253 325 437 595 763 817 705 567 485
970.0 420 388 358 354 344 364 383 408 400 381
1010.0 376 343 280 274 216 213 248 232 167 136
1050.0 196 192 207 214 233 251 268 281 311 344
1090.0 341 354 366 414 429 498 571 735 1001 1151
1130.0 1161 1214 1564 1908 1793 1423 1545 2066 2386 2253
1170.0 2282 2803 3856 5505 7259 7406 6629 5996 5558 4418
1210.0 3222 2466 2299 2276 2508 3217 4969 7700 10000 9069
1250.0 5967 4308 3831 3427 2915 2362 1985 1793 1825 2072
1290.0 2194 1828 1395 1318 1343 1149 797 554 451 416
1330.0 445 511 624 706 818 925 994 991 897 733
1370.0 536 402 335 295 265 245 249 256 282 328
1410.0 383 522 717 1068 1583 2280 2946 3102 2729 2388
1450.0 2153 1915 1564 1213 894 648 482 363 285 219
1490.0 198 166 148 134 133 105 109 101 88 86
1530.0 81 95 73 63 57 64 64 54 41 53
1570.0 46 44 39 54 56 53 62 59 56 54
1610.0 48 51 39 41 46 52 46 41 48 28
1650.0 39 25 45 51 41 39 45 36 44 24
1690.0 40 40 31 30 31 40 39 43 45 45
1730.0 38 34 34 37 47 39 37 48 38 55
1770.0 51 36 45 36 47 34 35 34 44 32
1810.0 36 39 39 34 28 33 38 38 28 36
1850.0 28 25 27 27 25 20 29 28 29 23
1890.0 33 25 39 39 48 43 37 47 35 47
1930.0 47 52 46 51 50 49 53 52 51 49
1970.0 41 39 44 37 40 36 36 41 40 45
2010.0 41 50 54 51 49 51 54 59 64 65
2050.0 69 61 59 52 59 62 57 69 66 64
2090.0 53 43 38 38 29 32 46 39 39 48
2130.0 51 49 53 55 74 72 73 80 79 77
2170.0 79 77 88 85 88 84 91 83 81 82
2210.0 84 85 84 72 63 57 52 52 53 53
2250.0 53 48 54 50 53 47 46 49 48 43
2290.0 45 40 44 47 52 54 72 75 66 79
2330.0 93 91 83 87 82 101 116 93 96 110
2370.0 93 79 77 66 68 66 63 60 52 43
2410.0 47 40 41 45 35 43 51 49 51 50
2450.0 39 37 37 34 30 24 24 18 11 12
2490.0 14 17 23 23 24 20 22 13 13 28
2530.0 28 29 36 28 20 23 25 22 29 29
2570.0 35 38 29 39 39 32 46 41 37 38
2610.0 46 60 64 86 95 99 100 100 78 55
2650.0 60 55 49 58 70 74 69 74 82 84
2690.0 72 71 68 52 53 46 50 47 56 56
2730.0 61 58 62 57 59 57 50 46 41 45
2770.0 64 68 78 90 115 115 114 114 109 135
2810.0 158 172 188 221 281 383 572 800 1088 1368
2850.0 1587 1632 1501 1322 1156 1072 1052 1079 1172 1296
2890.0 1476 1656 1788 1819 1798 1733 1661 1549 1463 1528
2930.0 1771 2130 2694 3366 3752 3832 3821 3781 3768 3911
2970.0 4140 3986 3485 2742 2060 1467 1078 889 859 981
3010.0 1214 1478 1508 1290 891 605 425 307 202 160
3050.0 127 106 92 92 96 86 78 75 72 56
3090.0 57 74 68 64 64 72 53 61 57 45
3130.0 54 60 72 76 72 66 69 52 63 67
3170.0 60 49 66 56 63 34 53 54 29 61
3210.0 47 32 52 44 57 67 63 35 54 35
3250.0 40 41 51 21 25 67 24 58 67 59
3290.0 39 58 46 31 0 30 29 24 58 57
3330.0 28 16 32 74 45 38 48 50 18 40
3370.0 5 45 40 47 51 56 53 57 32 47
3410.0 94 57 59 81 61 48 67 55 50 58
3450.0 61 71 73 80 77 58 12 73 75 100
3490.0 14 72 56 76 66 30 89 30 25 61
3530.0 66 84 103 41 11 87 44 57 106 102
3570.0 77 34 76 103 97 29 56 50 65 40
3610.0 97 75 47 35 38 90 49 29 71 67
3650.0 48 47 31 69 106 105 84 109 66 92
3690.0 95 54 109 129 72 91 97 79 87 113
3730.0 127 111 166 138 111 79 67 95 159 151
3770.0 123 78 92 105 132 121 108 100 81 123
3810.0 117 170 112 175 48 117 118 90 114 126
3850.0 131 100 103 135 180 120 71 110 63 144
3890.0 172 113 140 82 126 138 112 103 137 161
3930.0 47 100 105 115 107 54 88 186 190 174
##END=
