##TITLE=2-Octanol, 2-methyl-
##JCAMP-DX=4.24
##DATA TYPE=INFRARED SPECTRUM
##ORIGIN=Sadtler Research Labs Under US-EPA Contract
##OWNER=NIST Standard Reference Data Program
##CAS REGISTRY NO=628-44-4
##MOLFORM=C 9 H 20 O
##XUNITS=1/CM
##YUNITS=ABSORBANCE
##XFACTOR=1.0
##YFACTOR=0.000135843
##DELTAX=4.0
##FIRSTX=450.0
##LASTX=3966.0
##FIRSTY=0.023501
##MAXX=3966
##MINX=450
##MAXY=1.35843
##MINY=0
##NPOINTS=880
##XYDATA=(X++(Y..Y))
450.0 173 98 127 102 81 128 93 57 69 17
490.0 44 63 40 38 39 94 66 65 43 99
530.0 88 96 49 54 86 114 68 80 61 69
570.0 51 67 48 46 45 22 97 68 57 56
610.0 44 55 56 46 57 66 53 45 54 54
650.0 42 48 39 37 2 38 63 74 48 56
690.0 61 72 77 73 94 88 135 156 179 193
730.0 180 174 160 163 162 181 192 195 212 190
770.0 176 164 148 119 92 115 75 77 79 77
810.0 69 64 64 61 63 64 65 70 79 81
850.0 95 101 113 123 137 164 195 242 308 387
890.0 488 611 755 900 1005 1038 996 883 800 761
930.0 741 759 770 763 717 635 534 424 346 285
970.0 261 246 233 231 217 200 187 176 173 173
1010.0 173 182 180 180 179 179 174 174 186 202
1050.0 228 251 295 340 404 477 544 613 665 694
1090.0 724 752 788 819 825 820 810 842 920 1040
1130.0 1167 1261 1298 1307 1307 1322 1350 1390 1406 1375
1170.0 1284 1166 1056 963 905 884 892 937 993 1066
1210.0 1135 1173 1181 1160 1114 1066 1005 932 860 790
1250.0 749 724 714 709 704 706 701 697 693 693
1290.0 695 695 689 700 706 719 730 738 754 768
1330.0 788 814 819 812 789 785 825 941 1164 1469
1370.0 1776 1967 2036 1997 1816 1504 1086 710 492 387
1410.0 317 299 274 287 277 306 341 415 475 578
1450.0 714 878 1077 1225 1323 1328 1186 969 720 514
1490.0 363 270 200 161 141 126 93 95 84 81
1530.0 61 64 55 54 41 42 36 46 48 28
1570.0 30 29 28 28 28 26 25 30 21 23
1610.0 25 34 30 33 26 38 35 44 40 41
1650.0 29 51 29 26 26 26 34 29 28 33
1690.0 23 22 30 25 21 19 18 17 17 10
1730.0 10 20 15 6 6 11 10 11 10 9
1770.0 8 10 5 8 13 12 13 12 17 16
1810.0 14 15 14 11 15 12 10 11 12 14
1850.0 11 11 10 13 10 10 10 6 9 6
1890.0 7 5 5 5 4 1 6 2 2 1
1930.0 2 0 2 4 0 1 0 4 3 2
1970.0 6 0 3 2 5 5 9 12 9 13
2010.0 9 11 12 13 14 11 8 14 15 12
2050.0 9 12 13 6 7 1 3 6 6 6
2090.0 9 16 10 10 10 13 15 15 14 12
2130.0 13 12 15 14 15 12 12 10 14 14
2170.0 12 11 9 11 12 12 12 12 12 10
2210.0 10 10 11 7 12 10 13 12 12 12
2250.0 12 14 13 15 13 15 16 18 18 18
2290.0 18 19 20 16 13 14 10 4 0 0
2330.0 0 1 10 15 22 10 0 0 2 22
2370.0 33 39 35 32 21 18 16 15 18 12
2410.0 12 14 8 16 14 18 15 14 19 14
2450.0 14 14 14 14 11 14 14 15 11 19
2490.0 19 19 17 18 17 21 19 22 26 30
2530.0 32 30 36 34 35 32 35 35 33 35
2570.0 35 35 43 47 49 47 55 57 59 61
2610.0 67 67 71 73 75 79 80 78 85 87
2650.0 88 93 88 95 102 99 96 95 99 97
2690.0 91 89 90 87 90 91 101 107 119 124
2730.0 134 146 160 161 167 162 151 147 144 149
2770.0 150 154 158 160 179 194 212 238 254 286
2810.0 322 353 386 426 476 541 628 744 924 1184
2850.0 1567 2073 2657 3209 3627 3824 3806 3757 3666 3502
2890.0 3308 3088 3033 3201 3551 3991 4533 5226 6170 7305
2930.0 8510 9557 10000 9907 8954 7836 6723 6302 6722 7770
2970.0 8768 9072 8421 6997 5410 3840 2559 1681 1157 857
3010.0 663 547 464 413 362 313 294 274 245 222
3050.0 206 190 178 160 163 163 145 151 149 154
3090.0 130 133 125 130 113 112 114 117 107 98
3130.0 99 98 95 93 93 94 94 93 92 93
3170.0 81 83 93 91 85 89 85 87 92 82
3210.0 78 77 72 67 73 65 52 47 45 38
3250.0 34 34 34 28 29 19 34 13 15 4
3290.0 20 14 28 12 22 25 19 33 24 36
3330.0 27 35 39 33 19 32 45 30 40 42
3370.0 43 37 39 43 47 53 44 67 57 41
3410.0 60 54 65 51 59 48 56 56 48 40
3450.0 48 62 52 33 46 41 48 47 46 41
3490.0 35 36 34 39 49 53 32 33 26 47
3530.0 42 38 40 38 41 43 46 38 36 43
3570.0 54 57 42 40 57 69 53 65 61 67
3610.0 90 93 97 133 207 282 404 527 603 590
3650.0 479 377 268 196 140 98 109 96 79 59
3690.0 75 66 66 63 79 63 91 67 72 60
3730.0 74 68 69 59 71 46 65 44 39 54
3770.0 53 49 39 61 51 64 56 59 61 70
3810.0 57 64 67 62 66 62 52 68 59 53
3850.0 69 91 83 74 53 67 73 76 65 52
3890.0 69 92 54 61 63 65 62 56 55 60
3930.0 40 53 36 51 11 58 20 28 46 56
##END=
