##TITLE=Pentane, 1-iodo-
##JCAMP-DX=4.24
##DATA TYPE=INFRARED SPECTRUM
##ORIGIN=Sadtler Research Labs Under US-EPA Contract
##OWNER=NIST Standard Reference Data Program
##CAS REGISTRY NO=628-17-1
##MOLFORM=C 5 H 11 I
##XUNITS=1/CM
##YUNITS=ABSORBANCE
##XFACTOR=1.0
##YFACTOR=0.000070947
##DELTAX=4.0
##FIRSTX=450.0
##LASTX=3966.0
##FIRSTY=0.008088
##MAXX=3966
##MINX=450
##MAXY=0.70947
##MINY=0
##NPOINTS=880
##XYDATA=(X++(Y..Y))
450.0 114 108 232 354 323 193 153 122 101 35
490.0 265 602 454 490 390 334 641 540 342 286
530.0 172 340 457 89 245 223 370 412 18 355
570.0 474 436 494 479 422 833 1056 1095 807 514
610.0 535 408 218 241 400 384 432 204 87 387
650.0 140 319 386 105 336 222 293 333 123 380
690.0 428 137 317 175 477 643 453 630 680 728
730.0 730 621 619 361 465 533 510 339 484 516
770.0 504 303 349 425 473 506 245 368 334 290
810.0 381 399 422 306 237 402 230 305 570 378
850.0 394 232 288 437 310 365 329 298 371 301
890.0 293 335 285 415 418 282 479 533 597 506
930.0 384 376 334 335 370 313 262 363 320 268
970.0 272 315 383 294 207 229 314 299 366 323
1010.0 357 327 304 512 349 371 485 458 371 273
1050.0 331 464 340 339 386 322 386 387 444 465
1090.0 402 509 522 455 371 425 497 384 301 369
1130.0 440 441 483 512 489 471 599 700 897 1282
1170.0 1991 2897 3304 3563 3348 2762 2221 1677 1248 1082
1210.0 846 884 1078 1240 1870 2390 2538 2562 2141 1774
1250.0 1411 1166 1163 1108 1073 1075 956 867 737 758
1290.0 877 872 882 847 800 629 488 477 515 556
1330.0 536 597 668 665 749 818 714 668 638 683
1370.0 729 656 857 932 905 872 712 671 576 447
1410.0 473 481 471 647 789 962 1102 1157 1307 1269
1450.0 1300 1490 1638 1716 1701 1537 1409 1198 933 781
1490.0 597 464 406 345 355 271 274 330 304 178
1530.0 242 214 307 298 194 209 193 268 200 185
1570.0 213 224 175 204 144 156 220 179 188 148
1610.0 164 196 204 230 160 165 197 184 174 194
1650.0 208 240 163 153 150 203 220 156 205 153
1690.0 137 190 212 246 145 163 237 163 132 182
1730.0 222 260 146 163 243 183 231 230 229 215
1770.0 162 205 197 141 167 217 157 134 126 191
1810.0 177 110 141 128 143 137 155 156 141 135
1850.0 124 144 114 141 190 154 93 112 127 154
1890.0 134 138 163 86 143 145 110 150 137 155
1930.0 127 72 125 162 118 139 118 128 120 104
1970.0 154 125 93 141 149 90 101 144 158 125
2010.0 65 128 130 118 146 143 116 111 109 147
2050.0 131 80 161 147 95 93 107 176 125 100
2090.0 144 113 96 138 128 127 112 119 152 82
2130.0 95 118 148 117 75 106 137 135 123 117
2170.0 116 98 109 137 113 119 137 119 116 66
2210.0 135 150 128 136 89 110 127 103 145 116
2250.0 96 134 95 97 110 126 165 91 97 116
2290.0 106 121 113 103 102 93 121 144 78 117
2330.0 119 136 79 31 122 223 189 44 147 100
2370.0 89 169 154 127 123 123 117 79 79 136
2410.0 121 92 61 70 132 95 91 116 78 73
2450.0 76 96 99 56 101 116 43 67 81 113
2490.0 104 42 69 89 81 89 96 85 80 66
2530.0 94 85 56 110 111 53 33 69 99 106
2570.0 69 72 94 53 108 97 92 122 124 133
2610.0 112 73 156 173 125 121 114 135 117 127
2650.0 149 109 119 161 149 124 132 190 178 114
2690.0 115 160 185 136 135 174 124 128 161 183
2730.0 189 134 238 234 142 206 264 245 217 144
2770.0 223 221 169 286 246 267 273 260 350 296
2810.0 311 447 445 418 507 647 868 999 1217 1494
2850.0 1706 2013 2359 2684 3004 3378 3679 4003 4249 4194
2890.0 4181 3832 3331 3149 3191 3381 3801 4303 5092 5905
2930.0 6799 7887 8257 8463 8325 7679 7302 7124 7788 9321
2970.0 10000 9709 8399 6181 4240 2923 2153 1658 1287 1207
3010.0 1177 1081 947 936 900 730 533 516 482 391
3050.0 376 349 304 255 257 268 274 231 247 310
3090.0 215 168 175 258 285 184 191 193 170 190
3130.0 216 189 203 181 219 167 113 202 208 235
3170.0 151 124 194 199 185 156 185 165 155 167
3210.0 165 130 167 162 145 93 86 205 143 152
3250.0 103 63 155 105 135 175 78 142 140 60
3290.0 118 105 200 177 0 131 93 108 176 114
3330.0 143 110 70 173 112 99 194 135 153 48
3370.0 85 216 143 93 111 139 122 136 165 140
3410.0 89 108 162 126 65 148 221 121 76 48
3450.0 172 188 63 184 152 72 97 118 151 128
3490.0 110 220 126 15 153 143 192 102 72 167
3530.0 105 104 148 152 118 126 136 141 114 150
3570.0 208 126 61 115 191 142 184 155 141 126
3610.0 109 181 144 132 211 187 91 99 145 252
3650.0 192 122 182 114 141 175 206 168 151 204
3690.0 208 120 117 218 212 166 104 150 210 174
3730.0 161 204 182 155 214 214 182 156 172 236
3770.0 102 77 188 205 194 162 126 201 167 184
3810.0 246 181 196 158 163 179 140 235 286 201
3850.0 172 151 183 244 196 209 168 167 200 145
3890.0 172 163 206 187 132 134 171 239 212 141
3930.0 140 153 186 241 198 203 29 41 43 43
##END=
