##TITLE=Butanenitrile, 4-chloro-
##JCAMP-DX=4.24
##DATA TYPE=INFRARED SPECTRUM
##ORIGIN=Sadtler Research Labs Under US-EPA Contract
##OWNER=NIST Standard Reference Data Program
##CAS REGISTRY NO=628-20-6
##MOLFORM=C 4 H 6 Cl N
##XUNITS=1/CM
##YUNITS=ABSORBANCE
##XFACTOR=1.0
##YFACTOR=0.000078223
##DELTAX=4.0
##FIRSTX=450.0
##LASTX=3966.0
##FIRSTY=0.002581
##MAXX=3966
##MINX=450
##MAXY=0.78223
##MINY=0
##NPOINTS=880
##XYDATA=(X++(Y..Y))
450.0 33 24 102 198 247 229 161 217 321 338
490.0 248 252 399 285 249 210 257 447 466 480
530.0 536 504 468 540 393 578 289 218 566 441
570.0 437 449 335 310 293 233 301 392 251 332
610.0 309 331 334 334 408 492 567 648 939 1284
650.0 1685 2612 3800 5150 5902 6412 6261 5610 4758 2928
690.0 1702 1125 1019 913 920 1055 1009 1130 1414 1613
730.0 1995 2310 2349 2526 3042 2411 2200 2445 3277 3869
770.0 4308 4728 4554 3625 3059 2237 1590 927 686 776
810.0 630 645 693 746 1087 1348 1890 2495 3045 3428
850.0 3513 3329 3061 2391 1624 1201 1025 909 703 815
890.0 1004 1005 867 873 845 808 554 570 545 533
930.0 593 481 585 600 623 684 759 733 927 1119
970.0 1435 2028 2250 2378 2760 2544 2096 1706 1666 1228
1010.0 620 487 438 362 370 386 484 445 523 537
1050.0 521 694 711 585 654 545 510 535 426 304
1090.0 362 416 282 347 443 439 742 683 774 937
1130.0 1037 988 902 750 742 620 534 472 542 522
1170.0 529 589 591 446 589 611 611 599 785 743
1210.0 651 810 824 717 675 778 845 920 1055 1246
1250.0 1293 1441 1721 2014 2423 3041 3817 4691 5733 6579
1290.0 7300 7451 7310 6735 6860 5627 4366 3738 3507 3054
1330.0 2852 2732 2688 2592 2505 2392 2195 1899 1679 1455
1370.0 1205 944 793 692 676 609 529 562 573 656
1410.0 797 1137 1724 2421 3468 4800 6110 7375 7668 8214
1450.0 7855 6984 6140 4943 3726 2695 1947 1357 981 700
1490.0 659 427 441 316 414 355 276 333 375 311
1530.0 242 250 200 341 214 190 248 328 330 154
1570.0 149 82 170 150 153 116 132 104 117 115
1610.0 165 84 219 161 157 104 121 151 94 154
1650.0 133 309 85 83 77 113 144 98 138 206
1690.0 110 104 186 233 129 96 105 213 124 109
1730.0 113 219 141 151 180 215 228 242 240 237
1770.0 250 261 169 146 140 136 194 118 123 77
1810.0 102 75 63 74 90 114 62 44 70 120
1850.0 61 60 86 59 100 97 50 72 58 55
1890.0 79 78 85 82 72 63 57 76 58 48
1930.0 41 35 45 64 40 34 45 36 29 53
1970.0 46 40 48 46 47 56 64 66 67 52
2010.0 63 62 64 70 69 83 75 93 101 87
2050.0 101 98 102 89 77 86 75 59 66 74
2090.0 79 94 79 83 95 94 92 83 85 90
2130.0 70 76 69 63 45 42 40 40 46 43
2170.0 71 66 77 80 85 86 118 125 130 139
2210.0 145 140 158 144 160 183 214 294 427 588
2250.0 767 884 905 884 756 543 339 237 225 200
2290.0 189 175 169 163 167 151 185 175 162 177
2330.0 178 153 149 130 146 140 127 144 161 146
2370.0 93 84 77 70 67 66 68 90 91 97
2410.0 118 138 143 167 189 187 192 159 161 144
2450.0 127 121 109 86 75 74 73 70 74 75
2490.0 101 98 87 113 98 92 103 92 87 66
2530.0 64 47 39 41 35 28 34 44 51 57
2570.0 52 70 56 78 64 82 109 116 130 125
2610.0 161 139 138 132 113 127 112 98 97 102
2650.0 106 105 126 114 104 97 103 103 97 93
2690.0 97 120 117 128 126 146 153 176 171 190
2730.0 190 192 192 171 185 191 190 181 179 201
2770.0 185 181 192 182 187 208 221 214 247 225
2810.0 260 254 259 268 285 311 358 450 566 743
2850.0 968 1245 1516 1715 1861 2062 2189 2288 2315 2299
2890.0 2224 2024 1802 1589 1458 1484 1694 2052 2562 3255
2930.0 3951 4549 5038 5668 5983 6457 6858 7728 8434 9127
2970.0 9788 9958 10000 8346 7400 6189 5202 4622 4133 3750
3010.0 3313 2898 2456 1834 1229 879 626 442 344 280
3050.0 225 192 173 140 155 153 141 142 147 144
3090.0 164 124 147 148 170 132 130 127 126 112
3130.0 117 121 138 142 172 187 153 173 167 160
3170.0 149 138 105 120 100 131 134 165 149 146
3210.0 170 149 151 144 115 115 121 134 137 132
3250.0 148 169 155 159 140 135 102 107 83 82
3290.0 80 92 86 79 86 92 96 72 88 74
3330.0 86 81 97 89 74 82 42 79 103 82
3370.0 92 83 84 83 67 99 78 73 50 58
3410.0 34 25 63 94 47 41 67 40 46 51
3450.0 54 44 29 38 55 23 85 66 83 62
3490.0 63 53 90 89 63 95 84 92 87 127
3530.0 99 79 102 61 101 93 98 73 68 113
3570.0 135 99 93 88 98 150 118 137 123 96
3610.0 141 170 153 159 151 213 135 158 149 182
3650.0 223 166 177 159 161 184 194 231 169 162
3690.0 215 145 137 161 157 190 186 170 155 196
3730.0 182 208 262 232 306 258 251 199 191 179
3770.0 201 182 193 196 198 164 214 244 254 181
3810.0 176 194 241 262 255 241 253 265 247 232
3850.0 262 318 275 243 270 270 263 225 253 262
3890.0 257 260 256 280 280 259 251 280 255 247
3930.0 241 237 250 277 289 318 0 23 24 24
##END=
