##TITLE=2-Nonanol
##JCAMP-DX=4.24
##DATA TYPE=INFRARED SPECTRUM
##ORIGIN=Sadtler Research Labs Under US-EPA Contract
##OWNER=NIST Standard Reference Data Program
##CAS REGISTRY NO=628-99-9
##MOLFORM=C 9 H 20 O
##XUNITS=1/CM
##YUNITS=ABSORBANCE
##XFACTOR=1.0
##YFACTOR=0.000083160
##DELTAX=4.0
##FIRSTX=450.0
##LASTX=3966.0
##FIRSTY=0.009979
##MAXX=3966
##MINX=450
##MAXY=0.8316
##MINY=0
##NPOINTS=880
##XYDATA=(X++(Y..Y))
450.0 120 116 116 130 123 139 119 137 142 146
490.0 125 106 112 77 96 77 117 76 85 59
530.0 64 83 67 70 46 67 36 78 47 58
570.0 37 51 46 40 91 52 66 57 71 57
610.0 77 66 87 86 0 52 48 68 45 70
650.0 56 69 57 67 59 84 73 59 74 70
690.0 87 84 105 104 130 147 165 193 188 199
730.0 175 170 145 143 121 124 115 110 101 113
770.0 122 123 128 58 104 96 109 116 125 145
810.0 143 173 171 180 186 199 199 217 227 250
850.0 247 229 216 192 186 172 186 184 205 211
890.0 233 249 263 271 286 331 363 421 447 504
930.0 525 545 550 531 513 457 416 373 361 340
970.0 350 367 399 438 483 525 550 574 567 561
1010.0 543 534 531 531 539 555 585 623 683 726
1050.0 781 799 828 834 854 863 869 892 916 964
1090.0 1005 1044 1028 996 906 856 824 810 847 879
1130.0 929 939 948 884 811 694 595 504 424 403
1170.0 379 381 382 403 400 418 407 415 421 434
1210.0 451 469 500 525 575 615 693 746 798 809
1250.0 787 739 668 610 544 513 465 446 419 413
1290.0 398 395 396 387 390 386 386 375 374 378
1330.0 402 438 490 541 590 640 673 723 770 853
1370.0 959 1109 1254 1323 1285 1151 980 815 685 562
1410.0 486 408 380 343 345 353 396 460 535 640
1450.0 759 899 1001 1083 1057 971 792 617 450 333
1490.0 255 195 163 140 130 125 120 106 97 91
1530.0 86 77 74 64 67 68 60 56 46 51
1570.0 54 52 47 42 51 47 50 47 49 47
1610.0 49 52 39 47 44 43 44 31 40 35
1650.0 50 24 49 41 44 34 46 35 50 38
1690.0 48 44 43 30 41 40 40 42 40 43
1730.0 39 30 38 33 41 39 40 32 38 30
1770.0 37 24 37 34 33 36 27 36 33 33
1810.0 22 28 21 33 30 30 31 25 33 24
1850.0 32 25 31 24 31 29 29 26 23 27
1890.0 21 29 22 30 23 23 23 23 25 27
1930.0 28 21 29 22 29 20 20 20 20 21
1970.0 20 25 19 25 14 25 20 26 17 21
2010.0 18 25 24 25 24 23 28 26 29 30
2050.0 22 26 24 26 24 22 16 22 22 22
2090.0 16 20 17 18 18 15 20 15 20 20
2130.0 25 20 24 20 23 25 22 29 24 29
2170.0 20 30 23 30 23 22 22 22 22 22
2210.0 27 22 25 19 22 20 22 21 14 21
2250.0 20 22 14 21 20 20 17 20 17 20
2290.0 19 20 26 20 26 26 31 21 27 16
2330.0 23 23 9 19 13 24 4 14 4 4
2370.0 5 8 9 12 20 13 20 14 26 19
2410.0 24 20 19 21 15 20 11 20 12 17
2450.0 11 16 11 11 17 10 12 10 10 9
2490.0 17 8 12 8 10 9 9 16 14 16
2530.0 13 23 14 25 22 22 26 22 27 28
2570.0 34 28 40 34 44 42 43 47 51 56
2610.0 58 63 63 76 76 87 84 92 89 98
2650.0 100 101 110 111 123 117 128 123 129 124
2690.0 122 120 110 111 108 116 105 113 111 123
2730.0 130 135 149 147 149 151 148 140 149 145
2770.0 152 152 166 177 184 204 221 247 263 297
2810.0 312 351 377 426 477 545 623 751 948 1229
2850.0 1666 2251 2970 3606 4029 4085 3909 3685 3478 3247
2890.0 2996 2764 2692 2845 3189 3711 4385 5307 6530 7977
2930.0 9402 10000 9618 8875 7480 6105 5104 4693 4839 5361
2970.0 5680 5392 4601 3603 2719 1951 1327 932 697 552
3010.0 469 396 358 311 282 239 221 198 182 166
3050.0 156 144 137 132 119 116 100 109 98 100
3090.0 89 87 83 80 78 72 73 66 68 59
3130.0 65 61 64 62 57 60 62 60 56 61
3170.0 56 66 60 66 56 65 64 52 66 57
3210.0 55 44 49 26 36 31 33 29 27 17
3250.0 21 25 14 26 8 20 9 19 10 17
3290.0 27 16 25 10 20 13 22 7 21 19
3330.0 13 21 17 29 16 21 12 27 18 21
3370.0 24 21 25 25 32 25 44 22 27 27
3410.0 35 31 33 37 40 36 37 55 25 49
3450.0 39 42 32 38 30 32 29 27 37 15
3490.0 31 16 29 22 34 22 32 28 19 29
3530.0 25 27 19 32 22 27 24 33 37 31
3570.0 39 19 33 28 42 20 32 38 42 51
3610.0 50 73 84 100 119 158 183 221 267 319
3650.0 389 465 480 447 375 261 209 136 120 91
3690.0 67 59 56 54 48 49 46 46 39 50
3730.0 41 39 37 43 39 37 43 43 43 29
3770.0 48 41 34 44 49 62 54 58 55 65
3810.0 52 57 56 59 55 62 63 69 75 63
3850.0 65 64 76 69 72 72 77 75 77 70
3890.0 68 70 67 72 77 74 68 70 64 63
3930.0 63 64 69 68 76 79 83 85 81 80
##END=
