##TITLE=Ethanol, 2,2'-oxybis-, diacetate
##JCAMP-DX=4.24
##DATA TYPE=INFRARED SPECTRUM
##ORIGIN=Sadtler Research Labs Under US-EPA Contract
##OWNER=NIST Standard Reference Data Program
##CAS REGISTRY NO=628-68-2
##MOLFORM=C 8 H 14 O 5
##XUNITS=1/CM
##YUNITS=ABSORBANCE
##XFACTOR=1.0
##YFACTOR=0.000085938
##DELTAX=4.0
##FIRSTX=450.0
##LASTX=3966.0
##FIRSTY=0.000344
##MAXX=3966
##MINX=450
##MAXY=0.85938
##MINY=0
##NPOINTS=880
##XYDATA=(X++(Y..Y))
450.0 4 18 23 35 37 55 85 108 108 100
490.0 88 67 65 18 23 10 8 16 39 44
530.0 77 87 97 104 91 89 62 58 45 37
570.0 41 25 47 68 107 137 182 252 309 318
610.0 307 251 208 188 208 238 257 273 265 209
650.0 176 151 121 115 68 68 59 42 38 46
690.0 39 23 36 39 46 39 53 54 59 55
730.0 55 56 67 35 39 38 46 47 70 64
770.0 77 77 102 113 122 136 131 144 157 158
810.0 177 196 201 224 231 255 266 299 315 336
850.0 347 353 339 327 302 286 267 247 231 231
890.0 230 248 252 265 278 298 324 338 365 401
930.0 421 464 489 520 562 588 612 611 615 583
970.0 542 508 475 448 464 487 536 579 594 581
1010.0 567 562 603 672 794 954 1121 1313 1512 1690
1050.0 1936 2214 2484 2675 2656 2485 2192 1884 1617 1408
1090.0 1254 1094 1000 919 858 835 851 900 1007 1198
1130.0 1466 1854 2286 2728 2906 2693 2173 1631 1189 924
1170.0 745 640 613 604 622 667 769 931 1180 1566
1210.0 2110 2966 4296 6285 8466 9903 10000 9474 7901 6541
1250.0 5138 3987 3174 2558 2199 1900 1712 1515 1355 1180
1290.0 1063 941 832 708 602 484 414 352 321 303
1330.0 304 297 287 311 360 476 689 949 1200 1498
1370.0 1815 1983 1916 1746 1560 1445 1254 1026 777 582
1410.0 469 397 364 355 367 403 428 450 515 547
1450.0 563 593 561 565 500 428 351 315 277 252
1490.0 230 223 185 166 164 137 130 127 127 123
1530.0 133 135 145 128 130 116 105 92 96 95
1570.0 83 88 92 99 98 98 86 91 79 86
1610.0 88 88 74 83 80 84 91 73 90 90
1650.0 86 96 113 116 119 117 110 111 109 111
1690.0 136 155 160 180 222 267 322 387 475 574
1730.0 692 842 1092 1454 1985 2754 3900 5397 7085 7637
1770.0 6826 5191 3856 2837 2091 1547 1135 860 641 503
1810.0 381 315 242 219 163 154 135 123 103 94
1850.0 86 87 75 80 75 54 71 73 73 73
1890.0 78 75 67 65 73 69 61 55 55 51
1930.0 49 50 45 49 59 60 56 50 50 49
1970.0 49 44 42 38 42 41 33 38 49 51
2010.0 59 67 59 59 60 60 60 60 53 53
2050.0 53 53 53 53 57 65 71 71 71 69
2090.0 65 63 58 52 52 50 39 39 39 34
2130.0 39 39 34 33 32 28 28 21 21 22
2170.0 26 20 22 28 27 32 33 33 26 24
2210.0 19 16 16 15 15 15 15 8 9 14
2250.0 14 14 15 15 15 7 7 7 8 8
2290.0 8 7 1 1 2 2 3 7 0 0
2330.0 0 0 0 0 0 1 0 0 5 6
2370.0 6 8 11 18 17 12 6 6 6 5
2410.0 5 6 6 6 6 6 6 14 14 14
2450.0 14 14 14 7 9 10 15 15 16 19
2490.0 16 16 16 16 10 11 10 12 12 12
2530.0 12 12 12 14 14 18 20 14 14 15
2570.0 16 16 16 16 16 16 16 19 23 23
2610.0 23 24 24 24 19 19 19 19 19 19
2650.0 20 20 20 24 26 27 32 27 28 28
2690.0 29 33 34 37 44 50 52 69 77 77
2730.0 84 89 84 85 85 78 79 76 74 74
2770.0 72 81 80 80 87 92 101 105 105 112
2810.0 112 114 124 135 148 159 172 190 216 246
2850.0 305 379 479 574 675 732 765 766 768 752
2890.0 746 733 720 697 672 640 612 587 557 535
2930.0 530 527 566 644 766 920 1071 1158 1152 1061
2970.0 936 830 745 677 621 573 523 469 396 328
3010.0 267 227 191 161 165 151 152 145 134 119
3050.0 109 97 97 91 102 98 106 98 91 92
3090.0 88 83 71 64 58 52 47 47 47 48
3130.0 48 49 45 49 46 49 44 38 31 32
3170.0 26 25 23 17 21 22 24 28 35 35
3210.0 28 30 24 11 11 11 12 5 8 14
3250.0 20 23 29 29 33 38 38 38 33 22
3290.0 16 12 17 19 25 29 41 47 42 47
3330.0 42 43 25 30 22 3 6 18 19 19
3370.0 25 27 39 22 22 27 20 28 15 8
3410.0 6 0 11 6 6 14 24 24 25 25
3450.0 31 21 30 33 26 24 14 33 32 41
3490.0 52 58 77 81 88 98 97 88 75 56
3530.0 31 26 30 30 25 33 25 45 28 26
3570.0 20 24 18 26 25 11 10 4 0 12
3610.0 19 15 20 23 30 25 34 24 31 27
3650.0 8 15 20 27 38 31 50 53 57 61
3690.0 52 52 57 47 41 42 35 48 47 54
3730.0 60 54 61 73 67 69 67 67 61 61
3770.0 61 69 60 59 61 83 87 83 88 88
3810.0 87 88 77 71 67 70 69 75 81 90
3850.0 89 103 118 126 127 133 127 108 97 94
3890.0 92 92 99 106 109 117 135 148 155 154
3930.0 142 130 130 118 100 94 15 20 20 21
##END=
