##TITLE=Hexadecanoic acid, ethyl ester
##JCAMP-DX=4.24
##DATA TYPE=INFRARED SPECTRUM
##ORIGIN=Sadtler Research Labs Under US-EPA Contract
##OWNER=NIST Standard Reference Data Program
##CAS REGISTRY NO=628-97-7
##MOLFORM=C 18 H 36 O 2
##XUNITS=1/CM
##YUNITS=ABSORBANCE
##XFACTOR=1.0
##YFACTOR=0.000070370
##DELTAX=4.0
##FIRSTX=450.0
##LASTX=3966.0
##FIRSTY=0.014989
##MAXX=3966
##MINX=450
##MAXY=0.7037
##MINY=0
##NPOINTS=880
##XYDATA=(X++(Y..Y))
450.0 213 111 285 157 297 139 272 75 242 157
490.0 189 76 76 123 77 185 71 165 98 154
530.0 104 97 146 80 167 85 185 4 104 133
570.0 103 118 125 187 99 114 97 118 94 148
610.0 123 116 165 62 103 103 180 112 133 109
650.0 123 122 103 152 96 128 68 134 66 135
690.0 140 130 138 173 220 190 262 234 265 234
730.0 244 211 190 219 194 204 160 210 170 185
770.0 190 205 213 232 189 114 194 137 160 134
810.0 153 153 140 153 144 174 132 187 167 180
850.0 186 212 215 186 213 188 185 151 174 158
890.0 160 174 166 179 169 201 180 201 194 207
930.0 199 204 198 177 184 166 176 146 160 155
970.0 149 157 163 158 133 179 165 193 201 249
1010.0 273 320 399 480 595 677 813 841 877 835
1050.0 777 717 659 634 570 590 574 601 573 656
1090.0 688 736 903 905 1059 932 1107 1015 1029 976
1130.0 1009 1064 1159 1362 1512 1733 1887 2095 2169 2262
1170.0 2298 2261 2208 2098 1995 1841 1741 1629 1557 1477
1210.0 1439 1419 1394 1412 1408 1430 1423 1476 1459 1438
1250.0 1381 1284 1182 1058 977 881 830 773 754 712
1290.0 723 729 734 752 760 771 729 695 658 633
1330.0 614 629 661 699 754 759 751 694 684 724
1370.0 826 880 790 660 526 449 381 355 313 297
1410.0 284 288 305 317 373 412 459 493 567 630
1450.0 726 817 920 993 940 879 686 522 392 319
1490.0 248 207 191 158 154 125 119 117 112 99
1530.0 96 97 98 101 73 87 93 88 91 75
1570.0 91 68 91 62 87 68 81 76 73 76
1610.0 60 82 58 77 52 77 58 82 59 80
1650.0 67 102 76 68 93 77 99 101 99 124
1690.0 119 155 164 214 228 295 323 414 502 630
1730.0 846 1131 1556 2001 2694 3196 3542 3199 2577 1924
1770.0 1398 972 680 493 365 283 220 188 150 134
1810.0 116 104 96 86 76 71 62 63 65 55
1850.0 63 60 60 57 58 52 46 55 47 57
1890.0 58 47 52 50 48 44 47 47 52 42
1930.0 45 41 48 49 47 49 53 55 54 48
1970.0 54 50 54 48 51 44 45 49 52 52
2010.0 49 49 45 47 43 40 37 42 41 43
2050.0 43 37 38 31 25 17 24 23 27 40
2090.0 40 50 46 47 39 40 39 40 36 33
2130.0 40 29 36 30 35 31 33 33 30 38
2170.0 32 35 30 36 33 34 33 30 30 30
2210.0 31 29 33 32 40 31 34 31 30 28
2250.0 26 32 30 25 31 36 37 33 38 37
2290.0 41 45 49 47 58 66 61 69 65 68
2330.0 50 54 33 39 31 66 91 88 79 12
2370.0 13 3 19 20 26 28 23 26 22 21
2410.0 13 19 19 24 18 20 18 9 9 8
2450.0 12 7 6 10 11 8 11 15 9 17
2490.0 8 13 11 10 10 11 16 11 16 14
2530.0 25 23 25 25 26 24 21 25 20 21
2570.0 16 22 21 25 30 24 31 35 36 37
2610.0 52 54 60 55 65 58 55 54 59 69
2650.0 72 82 86 95 85 80 81 77 80 67
2690.0 77 77 76 66 76 72 70 69 68 78
2730.0 79 79 79 82 92 93 97 95 102 107
2770.0 112 119 134 131 143 161 165 191 209 228
2810.0 239 271 295 328 371 417 486 560 689 901
2850.0 1276 1902 2804 3586 3681 3218 2656 2228 1975 1840
2890.0 1725 1711 1823 2097 2505 3012 3648 4445 5673 7424
2930.0 9269 10000 9280 7760 6172 4801 3783 3197 2935 2867
2970.0 2726 2397 2029 1784 1655 1422 1181 970 806 684
3010.0 575 490 402 342 292 258 217 199 168 155
3050.0 146 128 120 112 102 80 83 77 79 68
3090.0 72 63 44 66 69 58 54 55 48 45
3130.0 49 42 52 40 51 47 58 56 53 45
3170.0 38 36 32 34 39 33 32 30 35 43
3210.0 36 43 32 30 40 34 27 26 22 28
3250.0 27 10 29 28 30 34 7 27 26 27
3290.0 15 9 19 23 30 7 20 15 13 23
3330.0 23 30 16 23 18 42 35 29 5 17
3370.0 32 20 24 15 42 42 41 19 23 24
3410.0 26 30 29 32 23 27 23 28 24 28
3450.0 42 17 45 22 30 41 60 43 56 55
3490.0 53 34 47 52 33 37 7 21 17 31
3530.0 32 12 17 16 28 16 34 41 33 36
3570.0 42 41 41 44 28 59 42 25 15 27
3610.0 55 44 63 50 50 42 38 36 28 36
3650.0 54 41 44 56 40 57 34 28 38 37
3690.0 65 35 60 66 71 49 60 47 52 46
3730.0 37 55 37 59 45 32 44 50 43 85
3770.0 29 41 57 73 57 48 50 41 32 35
3810.0 37 54 41 64 32 53 61 29 59 65
3850.0 42 36 26 106 80 20 52 67 45 48
3890.0 0 109 46 98 52 62 53 54 39 107
3930.0 62 62 87 20 48 81 52 54 45 53
##END=
