##TITLE=1-Eicosanol
##JCAMP-DX=4.24
##DATA TYPE=INFRARED SPECTRUM
##ORIGIN=Sadtler Research Labs Under US-EPA Contract
##OWNER=NIST Standard Reference Data Program
##CAS REGISTRY NO=629-96-9
##MOLFORM=C 20 H 42 O
##XUNITS=1/CM
##YUNITS=ABSORBANCE
##XFACTOR=1.0
##YFACTOR=0.000115079
##DELTAX=4.0
##FIRSTX=450.0
##LASTX=3966.0
##FIRSTY=0.007250
##MAXX=3966
##MINX=450
##MAXY=1.15079
##MINY=0
##NPOINTS=880
##XYDATA=(X++(Y..Y))
450.0 63 81 79 5 39 5 69 40 52 52
490.0 35 49 52 47 38 31 37 27 53 61
530.0 65 41 54 47 43 66 53 33 33 32
570.0 64 30 40 53 34 26 53 51 26 44
610.0 43 47 56 46 40 48 55 59 53 43
650.0 49 59 58 48 60 82 66 54 56 64
690.0 88 89 98 109 127 159 200 225 222 203
730.0 176 164 148 133 120 113 113 111 104 98
770.0 102 93 93 85 80 81 69 51 36 21
810.0 19 34 44 50 57 65 74 73 74 75
850.0 76 79 80 81 85 85 85 99 99 98
890.0 96 100 106 110 106 106 107 119 121 123
930.0 124 126 132 134 130 139 148 154 163 170
970.0 176 185 193 206 218 231 257 278 293 323
1010.0 347 370 393 419 448 474 499 514 529 534
1050.0 527 503 458 409 356 315 278 248 224 208
1090.0 186 169 156 137 130 129 129 128 133 130
1130.0 133 130 135 129 134 131 135 137 141 143
1170.0 146 148 149 147 149 151 152 152 152 154
1210.0 157 160 159 161 160 162 162 166 172 170
1250.0 168 169 172 153 112 113 152 170 186 193
1290.0 202 212 226 238 243 245 238 227 221 219
1330.0 230 242 271 305 338 368 386 377 364 359
1370.0 351 337 338 342 328 301 266 235 211 194
1410.0 182 172 174 180 187 213 258 311 393 473
1450.0 580 665 777 829 777 660 496 361 266 204
1490.0 158 135 115 96 92 82 60 57 58 47
1530.0 43 36 50 45 38 34 41 44 52 37
1570.0 47 40 56 33 40 36 38 36 38 40
1610.0 29 36 37 31 29 23 29 19 8 13
1650.0 5 22 14 0 10 18 15 24 23 42
1690.0 32 42 53 72 67 74 85 95 93 90
1730.0 92 86 89 74 70 60 62 53 57 51
1770.0 48 50 40 41 31 34 28 24 23 23
1810.0 18 17 15 14 15 13 14 7 10 12
1850.0 10 10 10 9 6 9 6 7 5 9
1890.0 9 5 6 6 9 6 4 7 3 6
1930.0 6 6 6 6 7 9 7 8 8 9
1970.0 8 8 9 8 9 7 10 11 9 8
2010.0 12 12 16 18 17 19 19 18 20 21
2050.0 19 17 19 18 18 20 18 18 17 17
2090.0 15 16 13 15 14 14 14 13 10 10
2130.0 16 12 11 14 13 13 13 15 14 14
2170.0 17 16 16 15 16 13 14 14 13 13
2210.0 14 15 12 12 10 12 12 12 13 11
2250.0 15 15 13 15 15 17 18 24 34 42
2290.0 50 63 74 84 93 108 96 85 85 69
2330.0 59 47 33 35 78 70 73 56 53 52
2370.0 55 57 69 71 53 31 19 16 17 20
2410.0 16 18 17 18 20 19 20 17 19 17
2450.0 18 18 21 18 20 18 20 21 19 22
2490.0 22 23 24 27 28 27 29 33 35 35
2530.0 37 39 42 41 43 42 43 44 44 45
2570.0 48 47 49 54 56 57 58 63 66 64
2610.0 68 70 75 76 77 80 83 86 89 92
2650.0 95 99 105 111 115 118 123 129 132 133
2690.0 130 132 128 127 129 131 129 130 131 130
2730.0 132 137 142 148 151 152 154 157 160 167
2770.0 172 182 192 205 219 235 251 270 292 317
2810.0 344 377 418 464 517 587 675 811 1020 1352
2850.0 1863 2590 3446 4035 3925 3375 2812 2416 2200 2077
2890.0 2020 2067 2250 2557 2984 3500 4125 4974 6206 7906
2930.0 9525 10000 8967 7300 5605 4223 3291 2754 2494 2309
2970.0 2081 1702 1290 978 771 634 532 457 401 352
3010.0 314 282 257 236 212 198 181 164 153 146
3050.0 132 123 118 107 103 98 91 88 82 80
3090.0 74 73 70 66 67 63 59 59 56 56
3130.0 54 53 48 45 48 47 48 45 45 39
3170.0 37 38 37 34 34 34 33 29 32 28
3210.0 25 24 25 27 18 19 18 19 13 14
3250.0 15 16 12 13 17 11 13 14 12 12
3290.0 11 12 14 12 15 16 15 13 15 18
3330.0 19 19 18 17 21 27 22 25 25 27
3370.0 26 26 25 30 35 33 30 28 32 37
3410.0 40 39 40 38 31 37 42 37 43 42
3450.0 46 47 50 50 47 53 53 51 56 53
3490.0 61 56 65 65 62 62 64 68 68 67
3530.0 71 73 74 75 78 79 78 78 70 75
3570.0 68 73 78 66 73 65 66 67 66 67
3610.0 68 71 75 73 85 91 112 108 121 120
3650.0 137 151 152 167 152 178 156 144 100 88
3690.0 81 67 52 43 38 40 38 38 31 25
3730.0 25 32 33 22 52 23 42 22 25 30
3770.0 27 30 26 32 22 27 26 37 37 46
3810.0 20 36 29 33 30 23 35 42 37 36
3850.0 39 39 33 35 43 38 38 31 37 42
3890.0 34 48 35 36 31 45 28 45 41 41
3930.0 38 30 41 47 43 38 46 37 46 47
##END=
