##TITLE=Octadecane, 1-iodo-
##JCAMP-DX=4.24
##DATA TYPE=INFRARED SPECTRUM
##ORIGIN=Sadtler Research Labs Under US-EPA Contract
##OWNER=NIST Standard Reference Data Program
##CAS REGISTRY NO=629-93-6
##MOLFORM=C 18 H 37 I
##XUNITS=1/CM
##YUNITS=ABSORBANCE
##XFACTOR=1.0
##YFACTOR=0.000137085
##DELTAX=4.0
##FIRSTX=450.0
##LASTX=3966.0
##FIRSTY=0.006717
##MAXX=3966
##MINX=450
##MAXY=1.37085
##MINY=0
##NPOINTS=880
##XYDATA=(X++(Y..Y))
450.0 49 29 27 70 54 74 78 67 46 71
490.0 58 55 59 63 70 60 76 57 75 49
530.0 48 43 47 43 58 50 59 54 58 52
570.0 54 48 52 51 83 66 85 78 67 56
610.0 49 46 31 27 37 33 37 37 35 43
650.0 34 35 42 36 41 51 58 54 69 54
690.0 58 67 80 99 121 146 168 175 187 181
730.0 165 152 149 143 127 107 106 106 103 98
770.0 93 95 94 86 80 79 73 67 69 69
810.0 70 69 74 72 73 62 60 60 60 65
850.0 65 66 66 63 62 59 68 62 66 71
890.0 73 77 72 68 63 64 64 63 64 59
930.0 62 58 62 67 69 74 87 103 118 131
970.0 127 103 86 75 67 57 59 59 56 58
1010.0 58 58 62 67 63 67 65 65 56 47
1050.0 44 49 52 56 56 56 57 64 59 60
1090.0 63 58 52 39 33 28 25 26 28 32
1130.0 46 55 65 69 80 90 98 114 130 152
1170.0 172 181 182 182 186 189 195 194 194 189
1210.0 179 173 164 157 151 146 141 136 135 133
1250.0 132 132 130 135 136 141 138 140 139 147
1290.0 148 159 167 176 177 172 166 162 160 168
1330.0 177 199 228 260 288 311 324 322 310 308
1370.0 320 339 361 380 341 266 197 149 122 115
1410.0 112 112 120 135 160 201 257 325 412 502
1450.0 613 722 838 899 861 742 558 389 268 192
1490.0 140 109 92 76 71 55 47 36 35 31
1530.0 29 24 23 21 16 22 18 15 16 18
1570.0 16 15 13 13 13 18 20 20 24 29
1610.0 28 28 31 32 32 36 41 39 43 41
1650.0 45 40 42 31 27 19 14 8 5 1
1690.0 0 1 3 3 3 9 10 14 18 18
1730.0 21 25 26 28 31 31 38 38 40 38
1770.0 39 32 32 29 27 22 21 18 18 20
1810.0 15 15 14 15 13 12 10 12 10 10
1850.0 8 10 10 9 8 8 8 9 9 8
1890.0 9 7 9 9 7 8 6 5 3 5
1930.0 8 6 4 5 4 7 4 5 6 6
1970.0 7 7 5 5 5 4 7 7 5 7
2010.0 8 8 8 10 13 14 11 14 12 14
2050.0 14 13 13 14 13 13 13 11 12 9
2090.0 8 12 10 9 9 10 9 12 10 11
2130.0 10 10 10 9 10 11 13 14 16 14
2170.0 16 17 16 15 16 12 14 17 13 14
2210.0 15 14 16 16 17 17 16 14 18 17
2250.0 19 19 22 22 20 24 24 25 29 30
2290.0 30 36 39 42 44 41 42 41 47 39
2330.0 36 28 28 31 25 39 38 38 32 31
2370.0 33 32 36 41 37 33 29 29 31 31
2410.0 28 31 30 28 28 29 33 30 33 32
2450.0 33 33 32 36 35 35 37 36 36 35
2490.0 40 40 42 36 41 45 44 45 45 50
2530.0 49 51 52 54 55 55 58 58 56 58
2570.0 60 65 68 69 71 75 76 78 79 86
2610.0 87 87 88 90 95 94 98 100 101 104
2650.0 108 109 115 116 119 121 128 133 130 132
2690.0 132 129 133 129 129 128 127 130 132 141
2730.0 146 148 156 162 160 165 164 163 166 168
2770.0 176 189 196 199 217 241 251 277 296 319
2810.0 344 373 415 465 515 584 679 811 1011 1308
2850.0 1771 2427 3257 3881 3898 3487 3038 2737 2583 2475
2890.0 2353 2339 2475 2785 3216 3763 4427 5252 6472 8067
2930.0 9741 10000 9222 7600 5950 4649 3909 3729 3892 4093
2970.0 3911 3195 2310 1644 1218 951 768 649 566 506
3010.0 476 455 419 371 331 302 271 247 228 209
3050.0 192 177 166 154 146 140 135 133 125 123
3090.0 114 109 105 97 93 86 84 84 79 77
3130.0 73 71 71 72 69 67 68 68 63 65
3170.0 63 60 57 56 57 55 49 48 45 48
3210.0 44 37 35 35 32 31 29 28 28 29
3250.0 28 24 24 24 23 20 24 26 28 22
3290.0 21 26 26 24 19 23 26 24 25 21
3330.0 24 25 27 20 22 22 22 22 22 28
3370.0 23 21 18 21 23 20 20 20 24 25
3410.0 26 27 19 19 20 17 15 19 22 21
3450.0 18 20 19 18 24 16 26 22 22 22
3490.0 18 14 17 19 17 17 19 22 20 17
3530.0 19 17 13 14 18 19 26 23 14 23
3570.0 17 17 19 23 25 25 22 24 24 20
3610.0 32 26 26 28 31 27 23 31 34 22
3650.0 27 29 26 34 31 41 28 34 31 27
3690.0 34 28 31 34 34 25 30 33 27 31
3730.0 28 27 26 29 43 28 30 25 31 32
3770.0 30 30 32 36 24 34 30 31 31 32
3810.0 28 31 33 27 33 36 28 28 28 30
3850.0 20 28 27 32 33 24 32 35 33 38
3890.0 32 19 28 25 32 23 23 28 36 19
3930.0 21 29 28 34 28 27 44 30 34 27
##END=
