##TITLE=Pentacosane
##JCAMP-DX=4.24
##DATA TYPE=INFRARED SPECTRUM
##ORIGIN=Sadtler Research Labs Under US-EPA Contract
##OWNER=NIST Standard Reference Data Program
##CAS REGISTRY NO=629-99-2
##MOLFORM=C 25 H 52
##XUNITS=1/CM
##YUNITS=ABSORBANCE
##XFACTOR=1.0
##YFACTOR=0.000080606
##DELTAX=4.0
##FIRSTX=450.0
##LASTX=3966.0
##FIRSTY=0.034419
##MAXX=3966
##MINX=450
##MAXY=0.80606
##MINY=0
##NPOINTS=880
##XYDATA=(X++(Y..Y))
450.0 427 405 426 395 352 321 306 312 293 264
490.0 229 245 311 338 358 296 321 292 286 345
530.0 266 386 320 165 212 697 486 416 261 233
570.0 231 321 286 290 319 340 325 333 314 249
610.0 319 261 259 380 367 267 274 255 340 327
650.0 248 322 289 354 265 258 346 343 316 330
690.0 325 425 401 382 415 457 537 476 471 388
730.0 356 382 377 364 345 338 322 313 314 316
770.0 338 246 220 174 158 30 0 82 318 478
810.0 626 637 539 574 500 373 374 375 436 377
850.0 446 424 376 394 406 373 393 383 349 395
890.0 391 411 365 377 365 346 367 367 402 351
930.0 367 401 337 392 364 335 344 345 338 353
970.0 347 332 340 318 298 308 320 334 360 375
1010.0 433 402 455 447 428 323 314 280 282 279
1050.0 296 332 276 315 346 319 370 354 374 380
1090.0 439 539 505 517 501 453 362 322 305 308
1130.0 290 299 293 277 284 297 297 323 314 315
1170.0 327 328 320 318 324 324 321 338 353 334
1210.0 333 332 332 340 333 334 346 332 342 348
1250.0 338 343 418 451 278 202 266 331 341 378
1290.0 391 374 412 405 436 427 428 410 386 404
1330.0 380 419 443 478 504 526 544 518 493 486
1370.0 481 450 465 450 438 391 347 357 348 356
1410.0 335 339 339 378 408 431 473 546 646 742
1450.0 835 959 1136 1170 1111 898 671 514 422 371
1490.0 321 314 302 286 262 267 257 234 244 259
1530.0 248 215 224 236 217 222 206 189 225 224
1570.0 220 197 218 211 221 205 199 197 200 206
1610.0 200 205 196 204 196 203 165 192 169 179
1650.0 156 194 179 181 188 176 166 158 162 187
1690.0 173 177 180 194 175 195 202 212 224 194
1730.0 191 208 211 182 179 180 171 162 158 148
1770.0 154 146 142 135 141 133 120 140 138 128
1810.0 145 132 117 117 128 120 119 110 111 116
1850.0 120 110 108 106 97 106 103 102 99 91
1890.0 92 87 88 94 91 86 91 77 86 86
1930.0 87 86 89 97 92 87 85 67 85 69
1970.0 81 79 67 90 84 75 80 70 53 49
2010.0 43 54 53 65 65 70 54 56 53 58
2050.0 57 63 58 51 52 57 57 61 53 47
2090.0 52 46 45 56 43 40 50 43 49 35
2130.0 47 39 37 29 16 22 22 33 20 11
2170.0 15 21 20 12 4 10 14 21 12 24
2210.0 22 25 26 26 15 18 2 16 14 16
2250.0 10 13 21 23 18 19 11 22 35 17
2290.0 24 19 17 28 25 34 31 32 40 33
2330.0 40 73 78 80 97 61 6 7 104 91
2370.0 144 146 128 85 67 50 44 51 33 26
2410.0 33 44 39 27 42 42 44 41 41 41
2450.0 40 42 29 41 30 37 36 55 46 46
2490.0 50 41 51 63 71 71 77 65 73 82
2530.0 72 94 85 86 80 66 70 53 42 42
2570.0 54 56 63 68 76 76 80 80 89 86
2610.0 87 97 91 84 91 109 103 111 115 120
2650.0 125 115 127 130 144 156 145 131 125 113
2690.0 116 111 100 111 119 111 118 114 128 128
2730.0 122 117 102 111 110 82 82 93 95 112
2770.0 127 151 169 196 210 212 261 282 311 329
2810.0 379 436 477 528 597 689 807 977 1262 1751
2850.0 2536 3481 4161 4263 3827 3123 2610 2253 2039 1999
2890.0 2042 2200 2476 2876 3318 3895 4670 5761 7263 8825
2930.0 10000 9839 8459 6537 4861 3691 2978 2621 2426 2231
2970.0 1961 1605 1208 917 722 586 483 427 368 325
3010.0 283 267 235 214 219 198 183 151 134 106
3050.0 91 85 99 78 77 85 88 89 71 82
3090.0 83 82 80 84 71 63 44 35 12 33
3130.0 25 30 36 46 35 34 30 15 11 17
3170.0 35 23 20 14 13 21 22 14 13 13
3210.0 25 13 14 14 18 33 17 19 16 15
3250.0 13 3 25 10 17 17 18 11 0 6
3290.0 19 18 36 26 23 24 23 21 20 21
3330.0 25 13 17 22 24 21 23 23 36 23
3370.0 28 35 41 29 25 41 25 44 40 49
3410.0 63 40 60 54 40 40 65 71 79 57
3450.0 70 72 68 83 76 73 68 74 92 73
3490.0 87 93 82 97 106 120 87 101 105 108
3530.0 115 129 121 115 119 125 145 137 118 120
3570.0 130 130 131 130 136 158 150 140 163 138
3610.0 160 162 149 176 142 172 172 156 162 151
3650.0 139 156 158 142 130 138 137 136 131 132
3690.0 136 135 123 137 132 122 115 114 119 106
3730.0 103 114 111 108 123 104 131 107 114 116
3770.0 125 116 126 109 119 139 143 116 126 160
3810.0 169 164 158 166 191 172 164 158 182 191
3850.0 198 225 245 247 257 260 272 262 283 312
3890.0 299 300 316 342 368 377 387 391 404 411
3930.0 385 373 394 391 388 396 400 382 368 384
##END=
