##TITLE=Hexane, 1,6-dibromo-
##JCAMP-DX=4.24
##DATA TYPE=INFRARED SPECTRUM
##ORIGIN=Sadtler Research Labs Under US-EPA Contract
##OWNER=NIST Standard Reference Data Program
##CAS REGISTRY NO=629-03-8
##MOLFORM=C 6 H 12 Br 2
##XUNITS=1/CM
##YUNITS=ABSORBANCE
##XFACTOR=1.0
##YFACTOR=0.000060376
##DELTAX=4.0
##FIRSTX=450.0
##LASTX=3966.0
##FIRSTY=0.001992
##MAXX=3966
##MINX=450
##MAXY=0.60376
##MINY=0
##NPOINTS=880
##XYDATA=(X++(Y..Y))
450.0 33 33 27 13 77 70 40 54 72 46
490.0 78 144 62 106 61 70 58 49 77 58
530.0 92 75 136 205 193 324 446 676 1045 1529
570.0 2048 1945 1326 906 515 282 164 103 64 54
610.0 95 74 105 119 167 230 349 508 777 1136
650.0 1555 1891 1985 1387 888 549 398 190 127 109
690.0 73 76 77 108 145 217 333 506 691 847
730.0 935 890 771 606 494 395 324 287 242 200
770.0 187 248 219 225 213 199 224 231 282 337
810.0 288 215 258 207 214 158 108 160 167 141
850.0 168 204 128 161 211 166 153 158 165 173
890.0 219 257 326 337 324 278 262 228 214 207
930.0 186 175 155 149 126 138 132 134 139 134
970.0 127 110 93 58 76 67 50 53 45 24
1010.0 104 120 127 144 214 278 328 327 293 289
1050.0 254 255 248 237 236 223 208 187 184 179
1090.0 173 159 170 175 185 198 211 219 225 226
1130.0 183 166 149 154 149 148 148 157 179 196
1170.0 223 237 243 260 305 364 470 590 756 1062
1210.0 1462 1933 2328 2366 1964 1609 1563 1902 2565 3645
1250.0 4807 5293 5019 4458 3816 2960 2329 2029 1977 2001
1290.0 1955 1827 1680 1551 1457 1354 1170 938 736 589
1330.0 487 448 493 565 641 727 807 777 671 565
1370.0 495 446 393 308 229 177 155 149 134 153
1410.0 160 190 253 352 525 821 1234 1689 2181 2398
1450.0 2200 1910 1852 1754 1466 1140 805 545 357 246
1490.0 176 137 107 91 88 73 68 55 46 43
1530.0 41 34 36 35 35 28 29 41 33 22
1570.0 24 20 31 12 21 20 20 12 15 26
1610.0 21 24 30 22 27 19 33 28 27 28
1650.0 31 29 24 24 9 8 10 5 14 22
1690.0 16 13 31 24 25 24 30 34 24 20
1730.0 27 31 22 28 31 44 45 58 45 35
1770.0 36 26 27 31 27 13 16 16 23 16
1810.0 18 14 11 14 13 18 12 10 14 7
1850.0 12 5 6 1 5 9 5 2 7 7
1890.0 7 9 5 5 6 5 7 10 10 4
1930.0 0 2 4 10 9 11 5 6 1 3
1970.0 4 8 9 8 5 5 11 12 16 18
2010.0 23 32 36 45 44 50 60 60 72 66
2050.0 62 70 64 59 65 66 72 70 61 45
2090.0 37 28 22 17 14 9 7 7 4 4
2130.0 0 5 2 1 4 11 11 12 15 13
2170.0 11 13 15 12 19 19 19 18 12 22
2210.0 19 16 18 17 16 25 25 19 26 28
2250.0 29 24 22 22 24 25 25 23 31 35
2290.0 41 47 50 59 63 70 63 55 55 52
2330.0 48 29 23 28 42 48 86 72 66 25
2370.0 13 20 26 36 41 46 45 46 47 46
2410.0 51 47 46 47 39 38 46 45 46 47
2450.0 45 43 40 39 42 48 48 47 52 44
2490.0 52 58 56 50 49 56 51 58 58 55
2530.0 60 69 65 59 60 66 70 78 79 83
2570.0 84 78 84 85 83 80 73 64 63 62
2610.0 62 64 66 62 79 69 80 94 101 98
2650.0 111 140 145 167 174 176 190 197 204 224
2690.0 235 233 232 227 207 201 182 176 176 174
2730.0 171 170 164 168 158 165 161 162 164 163
2770.0 165 164 185 180 203 223 243 250 265 271
2810.0 288 320 343 389 443 527 653 850 1157 1542
2850.0 1942 2322 2726 3156 3624 3860 3716 3344 2929 2588
2890.0 2460 2561 2782 3001 3164 3229 3288 3495 3932 4579
2930.0 5428 6567 7949 9242 10000 9428 7788 6164 5194 5052
2970.0 5293 5176 4396 3323 2388 1693 1297 1168 1242 1491
3010.0 1909 2316 2294 1665 1016 656 475 381 352 311
3050.0 279 261 233 213 218 200 185 164 145 154
3090.0 169 166 135 143 126 141 121 137 114 121
3130.0 92 85 118 94 95 83 94 87 96 105
3170.0 102 118 81 78 84 103 70 80 73 80
3210.0 53 49 31 32 1 8 6 38 42 25
3250.0 20 41 37 41 27 62 60 87 95 102
3290.0 80 77 63 73 105 115 102 88 99 99
3330.0 113 117 107 129 73 71 108 112 115 92
3370.0 127 127 109 109 95 105 92 108 84 149
3410.0 124 96 94 135 140 114 117 111 58 91
3450.0 96 91 141 88 101 103 75 96 128 75
3490.0 120 88 46 84 135 80 55 75 70 83
3530.0 62 69 77 94 70 87 71 41 27 73
3570.0 89 93 47 91 68 62 78 92 32 68
3610.0 41 14 57 8 72 104 93 64 89 85
3650.0 89 90 66 131 141 105 113 86 143 154
3690.0 67 107 69 135 68 4 104 91 85 118
3730.0 144 161 171 175 162 44 51 38 160 98
3770.0 152 163 132 136 111 82 75 183 61 137
3810.0 127 110 131 162 82 96 125 80 104 82
3850.0 165 163 108 122 150 165 53 141 215 82
3890.0 82 117 145 136 117 75 66 182 123 60
3930.0 87 134 118 101 133 206 122 173 101 98
##END=
