##TITLE=Heptane, 1-bromo-
##JCAMP-DX=4.24
##DATA TYPE=INFRARED SPECTRUM
##ORIGIN=Sadtler Research Labs Under US-EPA Contract
##OWNER=NIST Standard Reference Data Program
##CAS REGISTRY NO=629-04-9
##MOLFORM=C 7 H 15 Br
##XUNITS=1/CM
##YUNITS=ABSORBANCE
##XFACTOR=1.0
##YFACTOR=0.000053955
##DELTAX=4.0
##FIRSTX=450.0
##LASTX=3966.0
##FIRSTY=0.000000
##MAXX=3966
##MINX=450
##MAXY=0.53955
##MINY=0
##NPOINTS=880
##XYDATA=(X++(Y..Y))
450.0 0 81 63 82 139 200 179 161 82 100
490.0 199 191 187 181 101 82 130 225 209 200
530.0 134 166 167 228 270 277 260 336 470 750
570.0 799 686 403 240 186 266 205 204 97 85
610.0 129 265 174 193 141 191 228 476 504 690
650.0 653 706 622 528 294 278 59 159 217 229
690.0 209 239 163 191 230 326 370 457 338 438
730.0 375 460 457 357 252 295 276 340 340 284
770.0 253 230 257 302 281 266 211 194 223 256
810.0 239 191 191 148 190 219 240 188 135 173
850.0 207 181 210 195 148 130 215 201 247 192
890.0 200 194 242 232 232 144 157 146 156 198
930.0 251 183 183 164 192 185 208 191 202 157
970.0 199 206 216 200 221 155 219 195 210 167
1010.0 177 150 195 183 203 165 138 137 198 200
1050.0 226 204 180 192 189 189 200 158 171 147
1090.0 165 218 201 164 162 160 153 176 158 126
1130.0 124 117 144 169 156 156 145 156 181 199
1170.0 187 209 200 218 262 307 327 390 418 491
1210.0 483 512 596 751 853 984 974 1013 1077 1117
1250.0 1091 1104 1072 1134 1146 1180 1100 1009 869 818
1290.0 735 693 658 646 604 589 475 410 362 337
1330.0 331 367 391 422 412 435 444 455 426 408
1370.0 371 383 421 474 485 432 335 303 257 249
1410.0 245 235 269 321 371 476 608 787 912 1023
1450.0 1124 1159 1293 1277 1274 1143 1032 807 599 421
1490.0 367 250 274 228 277 217 188 184 234 173
1530.0 159 165 139 187 171 136 150 185 149 99
1570.0 143 122 163 82 103 102 112 108 135 87
1610.0 87 99 141 120 135 96 106 119 111 138
1650.0 126 182 101 94 120 146 123 120 121 166
1690.0 138 142 183 172 118 111 140 165 117 102
1730.0 93 151 130 133 129 136 110 119 128 128
1770.0 128 115 81 107 97 106 124 91 94 92
1810.0 92 111 82 81 74 92 87 112 87 111
1850.0 82 73 84 102 84 101 73 84 86 103
1890.0 87 91 72 85 74 92 84 93 75 90
1930.0 86 100 83 84 74 81 71 97 90 84
1970.0 74 83 77 91 87 72 74 73 82 98
2010.0 90 86 83 84 93 102 93 97 90 90
2050.0 101 112 95 87 82 84 91 93 93 83
2090.0 73 82 91 87 94 77 75 74 91 93
2130.0 92 74 74 74 86 89 94 78 86 78
2170.0 92 95 92 76 84 74 103 85 90 85
2210.0 82 70 95 88 103 84 75 74 93 93
2250.0 101 85 91 80 96 96 106 78 79 83
2290.0 83 92 92 75 71 69 75 79 74 58
2330.0 79 67 106 109 94 66 57 58 133 198
2370.0 218 178 138 114 118 101 88 85 78 78
2410.0 96 97 92 98 76 80 92 104 90 77
2450.0 80 96 87 97 105 89 78 90 82 98
2490.0 92 90 79 87 89 107 89 90 80 82
2530.0 88 115 102 104 89 100 99 110 101 110
2570.0 82 100 105 117 116 116 92 116 113 125
2610.0 120 119 111 120 120 145 134 126 124 142
2650.0 130 161 163 159 155 166 166 202 185 182
2690.0 169 172 177 182 174 170 156 150 166 186
2730.0 168 176 171 184 202 210 206 192 166 173
2770.0 189 190 214 205 206 233 265 288 312 304
2810.0 331 353 390 450 498 541 647 770 997 1290
2850.0 1688 2184 2852 3446 3973 4135 4013 3783 3623 3337
2890.0 3175 2847 2739 2785 3032 3400 4062 4878 6049 7238
2930.0 8495 9337 10000 9601 8887 7296 6205 5719 5944 6463
2970.0 7022 6294 5077 3457 2400 1743 1336 1079 1011 979
3010.0 1048 1084 994 810 640 500 427 392 348 298
3050.0 271 242 268 236 218 213 185 179 199 203
3090.0 191 188 144 149 162 170 151 143 127 150
3130.0 138 150 149 131 113 132 123 154 144 144
3170.0 115 121 124 158 123 128 104 111 113 146
3210.0 124 103 92 101 101 113 113 118 79 96
3250.0 102 117 106 105 66 94 103 103 102 108
3290.0 77 103 91 114 101 87 78 95 74 114
3330.0 114 94 70 92 83 107 105 94 82 82
3370.0 106 123 96 96 80 70 100 104 101 95
3410.0 79 75 102 110 115 90 62 89 111 98
3450.0 114 96 83 79 103 108 109 85 91 71
3490.0 110 109 119 88 97 79 101 101 113 85
3530.0 85 82 101 101 118 99 105 55 112 108
3570.0 120 102 94 75 111 111 113 94 93 78
3610.0 115 111 122 111 108 120 113 114 115 93
3650.0 122 87 113 97 121 117 114 100 92 105
3690.0 114 97 100 77 88 115 113 88 76 70
3730.0 80 101 124 115 118 114 119 107 98 81
3770.0 62 62 70 76 88 72 63 75 70 90
3810.0 94 73 72 74 58 95 98 93 63 57
3850.0 56 89 67 76 57 57 56 94 75 70
3890.0 57 57 56 89 78 59 57 57 57 57
3930.0 57 57 57 57 57 63 56 57 57 57
##END=
