##TITLE=Tetradecane
##JCAMP-DX=4.24
##DATA TYPE=INFRARED SPECTRUM
##ORIGIN=Sadtler Research Labs Under US-EPA Contract
##OWNER=NIST Standard Reference Data Program
##CAS REGISTRY NO=629-59-4
##MOLFORM=C 14 H 30
##XUNITS=1/CM
##YUNITS=ABSORBANCE
##XFACTOR=1.0
##YFACTOR=0.000180118
##DELTAX=4.0
##FIRSTX=450.0
##LASTX=3966.0
##FIRSTY=0.003782
##MAXX=3966
##MINX=450
##MAXY=1.80118
##MINY=0
##NPOINTS=880
##XYDATA=(X++(Y..Y))
450.0 21 76 34 25 117 1 94 21 94 23
490.0 71 69 38 56 44 68 15 65 38 46
530.0 26 58 55 32 61 39 75 40 75 39
570.0 51 29 45 29 54 4 16 60 39 57
610.0 48 45 42 30 42 36 49 34 43 27
650.0 43 33 38 37 29 36 38 48 38 49
690.0 51 57 68 85 111 118 160 168 173 155
730.0 152 138 122 117 108 101 86 93 82 86
770.0 77 74 77 63 71 58 59 51 57 47
810.0 47 44 46 45 48 45 43 49 47 53
850.0 49 53 49 48 53 52 53 52 59 55
890.0 64 65 66 66 61 62 57 58 46 51
930.0 48 53 53 52 50 52 49 46 50 48
970.0 47 46 49 50 48 51 51 53 46 49
1010.0 46 48 48 51 52 50 55 53 59 55
1050.0 58 54 57 59 58 58 59 60 55 62
1090.0 56 56 54 53 52 47 47 46 50 48
1130.0 51 50 49 46 48 46 44 47 47 50
1170.0 49 52 49 50 49 48 50 49 51 46
1210.0 51 49 51 51 55 56 55 59 60 64
1250.0 64 70 71 75 78 82 85 89 98 101
1290.0 109 118 132 140 149 147 136 125 114 115
1330.0 116 133 152 185 214 230 246 241 229 220
1370.0 227 212 224 254 258 200 150 117 102 97
1410.0 92 90 90 100 109 119 157 190 274 344
1450.0 456 534 647 761 788 736 593 420 292 197
1490.0 150 115 103 87 70 58 61 48 46 46
1530.0 44 36 36 37 32 34 32 28 28 32
1570.0 29 24 30 29 27 27 28 24 24 25
1610.0 28 20 27 17 26 16 25 17 23 15
1650.0 29 7 27 18 19 20 17 17 18 13
1690.0 19 17 14 14 17 18 13 15 16 21
1730.0 19 17 19 24 18 18 24 21 23 23
1770.0 21 20 23 17 21 12 19 12 13 14
1810.0 12 11 12 11 8 11 10 14 7 12
1850.0 10 12 12 12 10 11 10 12 12 10
1890.0 11 10 11 12 12 10 8 11 8 11
1930.0 10 8 8 8 8 8 10 9 10 8
1970.0 10 9 9 9 9 9 10 10 12 12
2010.0 14 14 15 15 18 18 19 19 20 18
2050.0 19 17 15 15 15 15 14 15 14 11
2090.0 11 12 12 12 12 11 11 11 11 11
2130.0 11 11 9 12 11 14 12 13 12 14
2170.0 13 12 13 12 14 11 12 12 12 11
2210.0 12 9 11 11 11 12 12 11 10 11
2250.0 11 11 10 10 11 9 11 10 12 10
2290.0 8 7 8 8 6 5 5 3 2 5
2330.0 4 7 8 8 2 7 0 1 3 6
2370.0 7 12 12 12 11 13 13 13 13 14
2410.0 14 14 14 12 14 13 12 14 13 14
2450.0 14 12 12 14 13 12 10 12 12 12
2490.0 12 12 13 13 15 13 16 19 19 21
2530.0 22 21 25 24 25 26 24 24 26 27
2570.0 29 29 30 33 33 36 38 39 40 42
2610.0 44 44 46 50 50 52 53 57 59 62
2650.0 63 67 68 72 75 80 85 87 91 92
2690.0 91 86 83 79 75 73 73 75 75 78
2730.0 81 85 92 99 102 101 96 96 96 95
2770.0 98 101 106 113 126 141 156 174 188 203
2810.0 221 241 267 300 339 385 445 525 638 838
2850.0 1216 1910 2949 3899 4143 3667 3013 2486 2262 2151
2890.0 1947 1791 1831 2066 2427 2877 3398 4203 5502 7446
2930.0 9262 10000 9189 7589 5943 4418 3432 3071 3282 3723
2970.0 3886 3292 2226 1438 1010 767 617 515 437 379
3010.0 331 296 263 240 217 197 181 166 152 141
3050.0 130 119 110 105 97 91 87 84 85 81
3090.0 77 71 69 66 64 60 57 56 54 51
3130.0 48 50 49 50 47 49 46 46 45 45
3170.0 45 42 43 40 42 38 37 35 34 32
3210.0 29 26 26 21 23 20 19 19 19 19
3250.0 19 14 16 14 14 14 12 8 10 13
3290.0 13 12 11 13 12 11 11 8 10 9
3330.0 9 11 7 8 7 12 11 7 11 11
3370.0 11 8 8 10 10 10 12 14 12 11
3410.0 14 15 13 13 11 11 10 11 10 12
3450.0 11 12 11 11 9 8 7 7 9 6
3490.0 8 7 5 2 6 8 7 8 9 5
3530.0 6 8 4 8 6 3 9 7 8 13
3570.0 13 10 10 12 10 12 14 6 19 14
3610.0 21 17 20 21 14 29 20 21 21 18
3650.0 30 19 24 18 16 23 21 30 15 23
3690.0 13 20 12 18 17 16 20 15 6 20
3730.0 14 23 20 27 9 27 26 11 16 13
3770.0 12 14 13 12 7 11 11 4 25 15
3810.0 17 14 9 17 10 19 15 15 11 23
3850.0 3 26 29 6 19 21 14 7 11 1
3890.0 24 12 16 12 17 5 10 10 12 18
3930.0 7 14 10 14 9 22 12 15 8 15
##END=
