##TITLE=Heptadecane
##JCAMP-DX=4.24
##DATA TYPE=INFRARED SPECTRUM
##ORIGIN=Sadtler Research Labs Under US-EPA Contract
##OWNER=NIST Standard Reference Data Program
##CAS REGISTRY NO=629-78-7
##MOLFORM=C 17 H 36
##XUNITS=1/CM
##YUNITS=ABSORBANCE
##XFACTOR=1.0
##YFACTOR=0.000188483
##DELTAX=4.0
##FIRSTX=450.0
##LASTX=3966.0
##FIRSTY=0.000000
##MAXX=3966
##MINX=450
##MAXY=1.88483
##MINY=0
##NPOINTS=880
##XYDATA=(X++(Y..Y))
450.0 0 190 274 240 240 261 226 243 212 273
490.0 214 258 265 245 207 195 267 262 250 205
530.0 223 217 252 262 248 243 248 247 247 227
570.0 231 220 215 229 260 223 260 233 246 238
610.0 248 247 255 248 250 269 255 248 251 220
650.0 231 246 244 242 250 282 258 268 291 272
690.0 269 276 293 317 315 346 362 380 369 367
730.0 346 338 335 325 320 314 298 297 294 296
770.0 284 279 288 279 275 284 274 267 257 265
810.0 265 259 261 261 260 261 262 258 259 255
850.0 257 259 259 263 261 258 260 259 260 264
890.0 263 264 262 266 267 258 261 251 262 257
930.0 255 258 253 253 253 255 251 253 254 250
970.0 254 252 249 252 255 249 248 251 251 253
1010.0 253 252 252 254 253 252 247 254 253 253
1050.0 253 254 257 257 262 259 260 260 261 254
1090.0 255 252 248 250 250 247 246 248 246 250
1130.0 246 245 246 244 245 246 247 248 248 249
1170.0 250 249 252 253 248 254 253 255 255 257
1210.0 254 256 256 255 258 260 264 260 268 268
1250.0 272 277 276 281 283 290 293 296 301 310
1290.0 317 328 337 347 355 352 347 339 332 331
1330.0 335 352 378 407 432 451 457 448 430 421
1370.0 408 395 392 403 399 365 336 316 304 301
1410.0 299 301 305 312 319 338 365 413 483 563
1450.0 654 738 834 891 877 802 673 542 443 380
1490.0 344 314 297 283 276 267 256 256 245 245
1530.0 242 240 239 236 234 234 232 232 233 229
1570.0 230 226 229 228 225 227 226 231 230 229
1610.0 221 222 220 220 218 218 219 218 216 217
1650.0 215 218 214 214 212 214 210 212 210 214
1690.0 211 211 213 212 211 208 211 210 208 207
1730.0 207 207 207 205 206 208 208 208 205 207
1770.0 209 207 208 208 208 207 207 207 206 205
1810.0 205 203 204 202 202 202 203 200 202 200
1850.0 201 202 200 200 199 198 198 195 198 195
1890.0 195 198 197 196 194 194 194 196 195 194
1930.0 194 191 192 193 195 194 195 194 196 194
1970.0 193 192 192 192 193 194 196 196 197 198
2010.0 199 204 206 211 213 215 218 217 221 223
2050.0 224 222 221 220 221 223 219 218 211 207
2090.0 200 195 196 193 194 194 193 195 195 196
2130.0 193 193 193 195 195 196 195 193 194 194
2170.0 191 191 192 192 195 193 194 194 196 196
2210.0 191 192 193 195 195 197 194 196 197 196
2250.0 198 199 198 197 200 198 203 207 208 209
2290.0 210 212 214 217 216 215 212 208 203 201
2330.0 201 203 212 210 227 218 199 193 199 233
2370.0 244 252 246 243 231 219 211 208 206 205
2410.0 205 207 206 205 206 209 205 208 209 209
2450.0 210 210 209 211 209 212 211 213 210 210
2490.0 215 214 214 217 219 215 221 222 223 227
2530.0 226 228 230 234 232 235 238 233 235 237
2570.0 237 239 245 243 243 243 243 246 247 245
2610.0 242 239 238 243 246 246 246 254 258 256
2650.0 258 260 264 269 272 283 293 298 301 302
2690.0 299 298 296 292 290 291 287 286 285 284
2730.0 293 292 299 302 306 306 308 305 310 314
2770.0 320 324 331 340 353 367 383 400 417 434
2810.0 454 481 515 550 588 642 709 799 946 1175
2850.0 1569 2218 3076 3767 3804 3354 2834 2442 2248 2119
2890.0 2005 1965 2073 2324 2719 3198 3807 4650 5956 7886
2930.0 9701 10000 8954 7280 5683 4324 3471 3075 3037 3116
2970.0 3009 2527 1898 1415 1120 932 798 706 636 578
3010.0 537 504 473 451 430 412 397 386 372 360
3050.0 344 342 331 319 314 305 305 305 301 296
3090.0 289 286 289 283 283 272 270 262 266 265
3130.0 261 253 249 253 243 244 247 249 248 245
3170.0 240 239 240 244 236 236 235 234 227 229
3210.0 220 219 221 215 219 213 216 214 215 208
3250.0 212 216 213 212 214 214 217 222 225 223
3290.0 221 223 227 220 225 225 215 211 222 222
3330.0 219 220 210 218 219 216 220 217 221 214
3370.0 216 215 218 208 221 219 217 218 216 219
3410.0 209 214 208 206 204 212 212 208 215 207
3450.0 209 215 206 205 212 208 201 206 196 201
3490.0 203 201 203 203 204 200 200 205 204 202
3530.0 200 202 207 209 196 200 204 209 209 206
3570.0 200 191 194 198 211 208 206 209 210 211
3610.0 203 211 208 200 217 208 212 214 207 218
3650.0 215 222 224 208 212 213 212 215 209 212
3690.0 212 218 218 215 219 224 229 224 217 223
3730.0 209 221 226 226 221 217 238 217 215 226
3770.0 222 224 217 210 214 220 226 222 216 219
3810.0 215 222 239 228 230 224 227 231 218 221
3850.0 223 228 230 229 208 211 223 220 231 226
3890.0 216 223 227 224 222 222 224 217 204 222
3930.0 213 236 219 213 217 203 216 219 219 216
##END=
