##TITLE=Tridecane
##JCAMP-DX=4.24
##DATA TYPE=INFRARED SPECTRUM
##ORIGIN=Sadtler Research Labs Under US-EPA Contract
##OWNER=NIST Standard Reference Data Program
##CAS REGISTRY NO=629-50-5
##MOLFORM=C 13 H 28
##XUNITS=1/CM
##YUNITS=ABSORBANCE
##XFACTOR=1.0
##YFACTOR=0.000064493
##DELTAX=4.0
##FIRSTX=450.0
##LASTX=3966.0
##FIRSTY=0.002773
##MAXX=3966
##MINX=450
##MAXY=0.64493
##MINY=0
##NPOINTS=880
##XYDATA=(X++(Y..Y))
450.0 43 42 38 39 35 40 38 52 32 10
490.0 44 52 36 44 52 32 75 33 78 70
530.0 64 52 49 46 53 55 67 62 24 4
570.0 19 82 136 97 94 61 41 49 59 58
610.0 58 57 62 61 61 66 38 49 50 42
650.0 45 43 40 38 31 46 37 46 60 41
690.0 60 67 73 95 110 146 157 172 165 142
730.0 127 167 123 109 95 88 84 90 80 89
770.0 96 81 74 57 89 63 58 58 58 53
810.0 46 50 50 57 34 56 57 46 37 48
850.0 51 55 61 61 53 56 48 56 55 56
890.0 70 72 63 63 59 63 58 55 61 60
930.0 63 54 55 54 48 47 52 47 51 45
970.0 46 46 39 67 54 54 47 45 46 39
1010.0 45 45 55 45 50 52 52 52 52 52
1050.0 53 51 51 51 51 51 51 51 51 51
1090.0 60 58 51 51 44 43 43 43 43 48
1130.0 49 47 51 42 49 42 43 50 41 43
1170.0 49 49 49 54 50 50 50 48 42 49
1210.0 48 57 57 56 56 62 59 62 67 69
1250.0 68 71 78 78 79 86 87 92 101 101
1290.0 113 120 136 137 145 147 141 127 117 115
1330.0 123 134 161 196 210 221 228 233 225 216
1370.0 214 217 225 261 266 199 155 125 108 104
1410.0 99 97 103 101 110 128 161 202 268 343
1450.0 432 529 628 729 753 708 575 420 285 205
1490.0 142 114 94 82 65 60 59 47 40 38
1530.0 45 35 39 24 36 33 26 29 18 20
1570.0 27 23 21 30 24 27 24 27 18 27
1610.0 18 19 20 18 24 16 24 16 20 21
1650.0 23 1 22 19 20 9 17 8 24 12
1690.0 21 20 16 7 17 19 22 14 21 16
1730.0 16 18 17 12 16 10 20 20 12 17
1770.0 11 7 18 18 17 14 11 17 13 15
1810.0 15 15 13 15 10 8 15 13 12 9
1850.0 6 12 12 13 6 9 6 11 12 12
1890.0 13 12 11 11 11 12 12 5 13 11
1930.0 9 10 9 8 9 6 9 9 8 4
1970.0 10 2 8 8 7 3 6 9 8 9
2010.0 7 9 9 24 16 16 21 21 24 17
2050.0 21 22 22 19 23 13 15 5 7 7
2090.0 7 7 0 6 6 6 5 5 5 6
2130.0 4 13 13 7 11 7 12 12 12 6
2170.0 6 12 5 5 3 3 11 5 11 5
2210.0 10 10 10 10 4 11 3 11 11 3
2250.0 3 9 1 10 6 2 6 9 9 9
2290.0 9 9 9 10 10 8 8 8 8 18
2330.0 13 9 11 15 24 16 9 8 20 27
2370.0 35 34 35 36 35 25 26 26 18 18
2410.0 26 18 18 18 18 19 19 19 25 18
2450.0 26 19 20 26 20 25 20 20 23 27
2490.0 23 27 18 27 27 27 28 28 27 27
2530.0 36 35 35 44 40 48 43 51 51 51
2570.0 51 51 50 59 56 63 61 65 65 65
2610.0 65 74 74 73 74 74 74 76 81 81
2650.0 81 76 82 82 88 90 104 105 120 112
2690.0 114 107 113 105 106 104 104 104 104 105
2730.0 112 112 121 128 128 122 124 121 127 126
2770.0 120 121 128 128 143 161 176 192 208 218
2810.0 242 261 284 316 353 400 445 516 633 829
2850.0 1195 1851 2761 3578 3820 3508 2957 2497 2300 2140
2890.0 1954 1782 1803 1993 2312 2724 3245 4050 5344 7235
2930.0 9157 10000 9208 7615 5834 4377 3445 3106 3324 3740
2970.0 3905 3343 2318 1510 1051 801 639 528 449 387
3010.0 333 295 264 247 226 215 200 187 164 156
3050.0 139 123 116 108 100 92 89 82 79 79
3090.0 74 72 72 71 71 64 64 64 48 51
3130.0 57 58 49 49 45 42 36 41 33 42
3170.0 27 34 35 37 33 34 43 43 43 35
3210.0 27 28 13 12 12 13 13 12 12 17
3250.0 13 13 13 13 13 13 20 12 20 13
3290.0 15 17 16 16 14 18 14 20 15 21
3330.0 28 23 21 19 14 18 17 16 25 12
3370.0 24 22 21 21 29 14 13 15 28 13
3410.0 18 17 15 15 14 14 22 14 15 16
3450.0 20 21 15 14 6 16 16 14 15 16
3490.0 16 15 10 11 16 16 16 15 15 17
3530.0 16 15 15 16 4 17 15 16 3 14
3570.0 4 18 13 15 6 17 17 19 25 24
3610.0 13 18 18 26 21 18 33 35 25 18
3650.0 20 42 40 31 25 17 30 31 32 37
3690.0 32 48 40 48 34 43 52 48 41 35
3730.0 42 43 47 52 42 50 45 61 59 58
3770.0 66 63 63 56 59 62 51 63 61 70
3810.0 65 55 56 63 65 49 62 59 54 51
3850.0 50 65 79 72 80 77 65 69 60 53
3890.0 45 49 54 59 70 63 67 71 68 64
3930.0 66 72 59 61 65 60 58 63 66 63
##END=
