##TITLE=2-Nonadecanone
##JCAMP-DX=4.24
##DATA TYPE=INFRARED SPECTRUM
##ORIGIN=Sadtler Research Labs Under US-EPA Contract
##OWNER=NIST Standard Reference Data Program
##CAS REGISTRY NO=629-66-3
##MOLFORM=C 19 H 38 O
##XUNITS=1/CM
##YUNITS=ABSORBANCE
##XFACTOR=1.0
##YFACTOR=0.000156158
##DELTAX=4.0
##FIRSTX=450.0
##LASTX=3966.0
##FIRSTY=0.000000
##MAXX=3966
##MINX=450
##MAXY=1.56158
##MINY=0
##NPOINTS=880
##XYDATA=(X++(Y..Y))
450.0 0 67 97 105 110 106 87 81 117 111
490.0 106 108 109 145 119 133 146 160 160 139
530.0 150 134 146 123 131 124 108 103 97 91
570.0 95 106 109 123 130 136 147 135 120 120
610.0 100 87 82 76 72 72 73 76 78 76
650.0 72 77 69 69 77 79 78 72 80 82
690.0 94 100 126 149 181 208 242 257 248 235
730.0 214 189 171 155 147 136 134 125 120 119
770.0 119 117 122 117 116 109 110 109 112 104
810.0 99 92 90 99 101 97 94 95 97 101
850.0 103 104 105 105 107 108 109 114 116 121
890.0 117 122 123 125 129 133 135 139 142 148
930.0 155 162 167 175 177 183 184 181 179 175
970.0 175 170 170 165 161 157 151 150 149 147
1010.0 144 147 152 152 149 150 147 146 149 155
1050.0 160 167 173 179 183 185 186 189 191 197
1090.0 197 197 196 197 198 199 200 208 213 225
1130.0 240 268 301 351 413 489 573 641 672 651
1170.0 594 521 456 402 368 347 331 331 330 334
1210.0 343 356 362 362 357 341 328 311 299 287
1250.0 280 277 277 279 285 283 285 289 295 304
1290.0 309 318 329 340 346 347 347 341 346 359
1330.0 380 422 481 565 672 807 959 1084 1114 1036
1370.0 889 730 601 512 441 378 339 313 314 325
1410.0 350 366 384 392 392 397 423 471 531 608
1450.0 693 788 878 920 868 732 549 398 301 238
1490.0 199 180 167 146 148 133 131 120 125 121
1530.0 116 118 117 110 110 121 110 114 116 112
1570.0 112 114 118 120 119 123 124 132 130 134
1610.0 132 131 129 127 123 120 124 115 122 113
1650.0 117 127 132 129 146 152 174 195 217 259
1690.0 300 366 437 540 669 849 1056 1293 1534 1720
1730.0 1843 1835 1610 1289 994 785 624 507 414 349
1770.0 295 250 220 195 177 156 141 133 128 122
1810.0 112 107 101 90 87 76 77 73 74 71
1850.0 72 72 72 68 67 64 69 68 69 67
1890.0 65 65 67 65 65 62 64 64 60 64
1930.0 63 65 64 62 62 63 64 62 62 59
1970.0 60 60 62 61 61 59 61 61 63 64
2010.0 64 67 66 68 72 73 74 72 72 73
2050.0 74 72 72 71 72 74 74 73 73 72
2090.0 70 72 72 71 71 72 72 73 72 72
2130.0 70 71 70 70 69 70 72 72 72 72
2170.0 73 72 72 72 71 72 70 72 69 69
2210.0 69 68 66 68 67 67 67 67 67 67
2250.0 66 67 67 68 68 69 70 71 73 74
2290.0 78 81 85 86 87 87 81 75 74 66
2330.0 60 59 59 58 69 84 61 64 59 59
2370.0 59 64 75 84 80 72 72 70 71 69
2410.0 71 70 72 71 71 71 71 72 70 71
2450.0 69 71 69 72 71 71 71 71 73 73
2490.0 72 72 75 77 77 78 81 80 83 84
2530.0 83 85 87 87 88 89 89 88 90 88
2570.0 91 90 93 94 97 96 100 102 103 105
2610.0 108 109 112 114 117 120 122 123 126 132
2650.0 134 137 141 145 148 154 158 162 167 167
2690.0 168 168 164 164 161 164 163 163 162 159
2730.0 162 165 167 168 171 173 174 175 179 183
2770.0 189 194 204 215 227 242 262 283 305 329
2810.0 356 385 420 459 504 560 633 736 907 1182
2850.0 1635 2345 3282 4000 3953 3368 2731 2272 2026 1917
2890.0 1875 1947 2147 2453 2855 3351 3955 4780 6020 7717
2930.0 9535 10000 9154 7514 5862 4488 3538 2962 2670 2514
2970.0 2291 1892 1428 1086 867 724 624 555 506 474
3010.0 451 421 385 345 313 289 270 250 238 226
3050.0 216 208 198 192 188 181 174 171 163 156
3090.0 150 148 144 139 136 129 127 123 122 118
3130.0 116 114 108 107 106 105 103 101 101 102
3170.0 99 96 98 96 95 91 91 92 90 90
3210.0 87 85 86 84 82 81 82 79 82 79
3250.0 79 78 79 77 78 78 79 77 79 77
3290.0 77 77 76 79 79 80 79 77 77 76
3330.0 78 79 77 78 80 78 78 79 79 82
3370.0 82 83 84 83 80 82 85 85 85 87
3410.0 87 87 90 95 94 96 101 100 100 96
3450.0 96 97 92 86 83 83 78 76 76 75
3490.0 72 71 72 72 70 72 73 72 72 66
3530.0 72 69 72 73 70 72 72 75 73 74
3570.0 82 79 86 80 80 83 79 78 79 76
3610.0 83 77 78 79 82 86 81 81 77 81
3650.0 76 79 84 78 87 75 79 74 81 76
3690.0 77 76 86 79 77 77 75 81 74 81
3730.0 76 80 76 79 84 74 74 75 74 78
3770.0 72 82 78 78 81 84 82 75 79 80
3810.0 78 76 76 76 72 82 80 77 75 77
3850.0 77 90 77 80 78 78 76 84 81 77
3890.0 86 80 83 83 80 78 88 84 82 83
3930.0 81 78 82 83 81 75 86 85 85 84
##END=
