##TITLE=Hexane, 1,6-diiodo-
##JCAMP-DX=4.24
##DATA TYPE=INFRARED SPECTRUM
##ORIGIN=Sadtler Research Labs Under US-EPA Contract
##OWNER=NIST Standard Reference Data Program
##CAS REGISTRY NO=629-09-4
##MOLFORM=C 6 H 12 I 2
##XUNITS=1/CM
##YUNITS=ABSORBANCE
##XFACTOR=1.0
##YFACTOR=0.000060229
##DELTAX=4.0
##FIRSTX=450.0
##LASTX=3966.0
##FIRSTY=0.000000
##MAXX=3966
##MINX=450
##MAXY=0.60229
##MINY=0
##NPOINTS=880
##XYDATA=(X++(Y..Y))
450.0 0 805 927 1067 913 1081 967 1166 881 1160
490.0 1119 1197 1172 1310 1538 1466 1550 1258 1246 1085
530.0 1132 1105 980 1011 946 985 958 1084 967 1036
570.0 1037 1111 1123 1210 1342 1405 1722 1815 1972 1784
610.0 1590 1395 1123 1143 1030 1030 954 970 987 1032
650.0 961 1009 989 948 994 927 980 896 995 984
690.0 1002 1028 1081 1173 1224 1418 1466 1633 1693 1674
730.0 1542 1457 1445 1397 1348 1292 1282 1229 1274 1247
770.0 1274 1260 1353 1331 1224 1235 1194 1195 1126 1136
810.0 1110 1104 1119 1112 1131 1108 1146 1104 1129 1129
850.0 1125 1099 1085 1099 1069 1093 1079 1123 1122 1182
890.0 1213 1225 1198 1199 1208 1159 1168 1119 1109 1075
930.0 1076 1064 1055 1055 1035 1047 1033 1056 1032 1032
970.0 1027 1022 1012 1005 1045 1022 1041 1044 1063 1066
1010.0 1092 1105 1096 1106 1096 1091 1044 1053 1039 1054
1050.0 1074 1070 1074 1072 1093 1069 1080 1068 1095 1075
1090.0 1081 1082 1061 1118 1101 1228 1104 1274 1277 1337
1130.0 1364 1380 1453 1481 1568 1659 1798 1949 2226 2547
1170.0 3014 3757 4655 5160 4900 4286 3519 2930 2683 2816
1210.0 3273 4134 5151 5608 5331 4791 4223 3634 3269 3034
1250.0 2831 2602 2370 2193 2060 2015 2044 2163 2209 2187
1290.0 2102 2014 1931 1870 1839 1723 1581 1438 1348 1288
1330.0 1268 1302 1381 1494 1623 1821 1837 1695 1548 1482
1370.0 1433 1370 1294 1160 1099 1057 1053 1046 1049 1073
1410.0 1102 1183 1237 1405 1659 2064 2455 2596 2511 2342
1450.0 2286 2406 2457 2307 2033 1707 1464 1254 1150 1047
1490.0 1036 975 947 951 920 925 921 913 885 891
1530.0 891 902 871 870 879 886 877 856 845 875
1570.0 862 873 848 874 861 866 858 862 862 861
1610.0 869 846 861 850 871 859 870 839 875 848
1650.0 868 805 860 872 850 858 852 859 860 832
1690.0 857 861 846 826 863 862 862 850 853 867
1730.0 865 850 847 877 870 884 885 895 872 873
1770.0 864 850 869 862 876 855 864 858 864 847
1810.0 853 861 854 855 844 853 844 859 843 842
1850.0 848 850 856 849 852 845 851 850 852 852
1890.0 853 858 848 856 857 857 850 857 860 854
1930.0 848 848 853 850 853 848 855 854 850 849
1970.0 850 857 853 854 857 863 863 862 859 860
2010.0 862 867 873 865 880 879 890 883 881 893
2050.0 895 891 889 884 864 875 870 874 884 884
2090.0 886 874 876 861 861 853 860 857 858 862
2130.0 859 877 873 876 870 883 873 874 876 884
2170.0 885 878 886 876 881 879 873 883 876 877
2210.0 870 875 870 873 863 867 863 868 864 863
2250.0 866 860 873 859 866 863 862 868 861 867
2290.0 871 873 873 883 876 888 879 889 887 867
2330.0 884 853 868 858 878 863 873 867 842 845
2370.0 849 859 856 866 865 863 861 859 863 860
2410.0 866 858 858 851 855 854 845 843 839 841
2450.0 838 848 836 838 835 846 848 842 849 840
2490.0 843 838 845 833 836 834 830 830 831 835
2530.0 824 833 829 833 829 830 834 837 853 844
2570.0 861 863 869 865 865 861 866 871 863 869
2610.0 868 881 883 891 886 883 887 865 863 873
2650.0 882 891 914 919 918 912 909 917 914 922
2690.0 924 933 935 922 915 908 913 906 911 915
2730.0 918 914 915 922 912 921 919 923 917 931
2770.0 928 942 946 961 976 984 1001 1000 1014 1030
2810.0 1049 1069 1107 1145 1201 1297 1456 1707 2037 2412
2850.0 2759 3033 3302 3612 3819 3762 3496 3176 2934 2832
2890.0 2880 2972 3034 3045 3029 3052 3208 3644 4291 5186
2930.0 6284 7639 9078 10000 9355 7632 5847 4628 4098 4089
2970.0 4293 4079 3450 2790 2224 1831 1585 1489 1509 1625
3010.0 1834 2145 2252 1912 1493 1242 1127 1063 1027 1005
3050.0 968 946 952 939 916 924 917 918 891 895
3090.0 885 889 892 884 876 889 885 865 882 867
3130.0 856 868 857 865 846 854 858 862 852 853
3170.0 860 855 851 847 853 858 860 839 860 848
3210.0 837 838 834 837 839 841 824 850 858 852
3250.0 864 855 838 850 865 862 867 867 887 887
3290.0 862 856 854 865 852 864 862 869 875 883
3330.0 874 861 863 863 889 874 877 872 880 883
3370.0 863 881 850 848 847 871 864 879 875 871
3410.0 863 851 874 861 877 851 859 876 901 857
3450.0 873 857 869 874 855 880 862 874 850 850
3490.0 871 856 861 869 877 849 868 876 859 883
3530.0 869 881 865 851 851 842 847 901 861 839
3570.0 860 846 871 848 842 848 844 850 870 839
3610.0 825 832 842 852 845 838 882 885 859 861
3650.0 876 824 855 891 870 873 880 856 840 890
3690.0 843 890 850 869 879 842 826 828 866 880
3730.0 868 838 874 861 855 867 855 850 836 879
3770.0 831 870 840 872 843 839 880 884 887 834
3810.0 896 836 840 865 846 861 863 814 810 875
3850.0 873 854 844 816 873 890 850 862 870 838
3890.0 842 857 924 835 849 841 803 864 896 888
3930.0 839 857 816 868 838 846 929 813 840 908
##END=
