##TITLE=Ethane, 1,2-diethoxy-
##JCAMP-DX=4.24
##DATA TYPE=INFRARED SPECTRUM
##ORIGIN=Sadtler Research Labs Under US-EPA Contract
##OWNER=NIST Standard Reference Data Program
##CAS REGISTRY NO=629-14-1
##MOLFORM=C 6 H 14 O 2
##XUNITS=1/CM
##YUNITS=ABSORBANCE
##XFACTOR=1.0
##YFACTOR=0.000075873
##DELTAX=4.0
##FIRSTX=450.0
##LASTX=3966.0
##FIRSTY=0.004780
##MAXX=3966
##MINX=450
##MAXY=0.75873
##MINY=0
##NPOINTS=880
##XYDATA=(X++(Y..Y))
450.0 63 56 50 51 49 36 33 35 13 12
490.0 27 12 11 34 41 60 90 101 108 135
530.0 135 84 39 106 84 64 57 57 32 9
570.0 39 5 32 42 43 44 30 35 19 14
610.0 15 14 15 24 24 43 23 30 25 28
650.0 25 26 34 29 15 84 81 19 35 39
690.0 45 48 37 33 29 23 22 21 28 34
730.0 33 22 29 31 26 38 45 41 46 59
770.0 71 72 92 107 113 139 151 161 183 182
810.0 188 194 202 219 233 273 313 346 386 413
850.0 421 407 384 365 310 287 248 227 219 212
890.0 220 227 251 272 298 322 345 370 396 430
930.0 457 490 516 511 488 448 386 323 275 246
970.0 236 247 267 292 326 359 393 426 461 514
1010.0 560 618 688 765 843 926 988 1031 1057 1066
1050.0 1053 1058 1095 1165 1275 1399 1509 1603 1709 1838
1090.0 2058 2408 2912 3588 4500 5701 7059 8479 9494 10000
1130.0 9768 9250 8128 6856 5724 4647 3787 3203 2764 2419
1170.0 2153 1935 1740 1523 1304 1092 883 737 640 584
1210.0 542 510 511 513 526 555 584 608 623 634
1250.0 628 621 608 593 594 608 642 684 738 792
1290.0 834 840 812 756 685 629 605 626 638 659
1330.0 661 653 715 875 1105 1219 1231 1185 1053 990
1370.0 1069 1156 1250 1336 1307 1277 1252 1158 1036 898
1410.0 759 634 553 469 435 427 444 478 527 586
1450.0 653 702 692 640 597 542 492 455 438 413
1490.0 371 311 257 214 192 143 118 109 103 76
1530.0 64 71 65 57 50 43 48 54 36 36
1570.0 41 36 36 36 35 34 35 35 35 34
1610.0 34 34 39 31 36 27 33 35 28 34
1650.0 35 48 27 30 26 27 27 29 28 35
1690.0 26 26 34 41 33 39 40 51 54 61
1730.0 71 95 109 127 147 156 162 174 165 139
1770.0 120 100 85 68 59 48 52 43 38 30
1810.0 29 23 22 20 22 17 15 12 13 17
1850.0 15 15 21 15 21 21 21 24 27 26
1890.0 34 32 40 40 44 46 51 59 65 71
1930.0 70 77 84 91 94 96 103 110 108 116
1970.0 116 116 122 114 115 106 102 91 85 75
2010.0 63 62 56 49 41 42 34 34 34 29
2050.0 29 22 22 27 29 21 28 27 27 33
2090.0 33 33 34 34 32 32 32 33 40 33
2130.0 32 38 39 38 45 45 45 44 44 40
2170.0 38 38 37 37 31 30 31 29 29 27
2210.0 30 30 30 30 30 34 35 35 36 34
2250.0 34 34 34 34 36 40 33 32 33 31
2290.0 30 28 19 19 10 6 8 6 5 5
2330.0 0 0 0 0 0 0 0 0 2 7
2370.0 5 0 0 0 0 4 5 11 11 17
2410.0 17 18 16 22 17 16 16 12 9 4
2450.0 10 3 3 3 3 4 1 7 6 4
2490.0 8 3 9 9 9 9 8 14 9 8
2530.0 8 14 13 12 11 16 16 15 15 16
2570.0 17 17 22 22 33 31 46 49 49 56
2610.0 61 62 62 63 62 68 63 63 63 63
2650.0 63 67 69 69 76 82 90 104 117 131
2690.0 146 163 184 200 217 230 251 257 272 285
2730.0 299 312 319 332 344 354 359 374 387 405
2770.0 425 453 486 519 552 593 635 681 736 790
2810.0 844 898 943 998 1075 1180 1330 1532 1814 2167
2850.0 2610 3124 3685 4247 4759 5130 5335 5365 5116 4737
2890.0 4340 3951 3624 3387 3220 3103 3002 2933 2895 2903
2930.0 2995 3183 3324 3343 3270 3082 2808 2631 2593 2681
2970.0 2953 3345 3738 4020 3958 3535 2880 2192 1654 1248
3010.0 958 743 610 509 434 384 341 303 276 242
3050.0 215 189 169 148 136 117 109 98 87 85
3090.0 85 78 73 66 73 65 65 59 55 59
3130.0 54 50 47 47 42 42 42 48 47 49
3170.0 48 42 40 46 45 41 41 41 37 48
3210.0 41 36 43 42 31 29 22 29 16 18
3250.0 14 13 12 17 11 11 12 17 18 4
3290.0 4 12 9 6 10 5 5 5 6 0
3330.0 6 6 1 4 9 8 13 1 6 1
3370.0 7 7 13 14 13 11 14 12 10 6
3410.0 10 14 14 20 8 21 20 7 14 20
3450.0 15 6 4 8 11 10 9 9 15 1
3490.0 3 2 14 22 15 13 12 13 11 8
3530.0 2 13 10 16 22 14 22 10 16 20
3570.0 20 23 14 31 21 28 28 22 24 29
3610.0 42 27 45 41 44 54 42 44 34 43
3650.0 40 42 32 23 31 45 48 47 35 51
3690.0 42 43 55 37 45 42 48 37 37 48
3730.0 40 44 40 45 55 38 34 40 47 40
3770.0 38 39 38 31 39 37 37 38 42 48
3810.0 35 41 46 38 40 40 30 36 32 33
3850.0 41 45 39 45 45 43 43 37 39 35
3890.0 33 33 35 33 35 36 42 40 44 44
3930.0 43 35 34 29 38 47 57 55 54 58
##END=
