##TITLE=Pentadecane
##JCAMP-DX=4.24
##DATA TYPE=INFRARED SPECTRUM
##ORIGIN=Sadtler Research Labs Under US-EPA Contract
##OWNER=NIST Standard Reference Data Program
##CAS REGISTRY NO=629-62-9
##MOLFORM=C 15 H 32
##XUNITS=1/CM
##YUNITS=ABSORBANCE
##XFACTOR=1.0
##YFACTOR=0.000238678
##DELTAX=4.0
##FIRSTX=450.0
##LASTX=3966.0
##FIRSTY=0.000000
##MAXX=3966
##MINX=450
##MAXY=2.38678
##MINY=0
##NPOINTS=880
##XYDATA=(X++(Y..Y))
450.0 0 33 46 58 54 42 55 41 54 42
490.0 57 58 50 37 42 39 50 59 62 32
530.0 65 54 53 35 47 71 52 67 37 68
570.0 31 52 42 53 43 37 58 55 44 53
610.0 56 47 52 50 52 52 56 47 48 43
650.0 34 42 62 54 52 42 64 66 83 65
690.0 64 74 87 105 129 150 178 192 204 182
730.0 183 156 160 128 129 118 116 105 105 101
770.0 108 91 86 91 85 79 78 68 68 70
810.0 70 67 65 68 68 63 64 67 69 65
850.0 62 72 69 68 66 65 65 67 68 74
890.0 76 76 80 72 71 71 71 71 71 70
930.0 68 67 64 65 68 68 67 70 63 64
970.0 63 60 61 64 60 60 66 62 63 66
1010.0 66 65 61 61 63 62 61 66 63 65
1050.0 68 66 67 68 70 68 70 69 69 65
1090.0 70 63 64 63 62 63 58 59 61 59
1130.0 54 59 59 56 58 53 55 56 58 61
1170.0 60 63 67 64 68 60 52 73 74 55
1210.0 65 60 65 63 66 72 72 76 81 80
1250.0 83 89 91 96 96 98 105 114 118 124
1290.0 135 144 157 166 172 172 164 153 145 144
1330.0 152 167 193 223 246 265 278 267 255 249
1370.0 242 232 236 259 256 209 166 141 126 123
1410.0 120 118 120 128 137 155 187 236 310 394
1450.0 493 586 697 779 786 720 582 421 298 222
1490.0 174 146 124 111 101 93 83 80 75 70
1530.0 67 64 63 60 58 55 57 56 57 51
1570.0 51 49 52 49 47 48 46 46 45 47
1610.0 46 45 47 47 41 43 45 43 43 43
1650.0 42 46 42 40 42 43 42 40 40 41
1690.0 37 39 41 42 38 37 38 38 38 35
1730.0 39 37 38 36 37 36 37 35 35 36
1770.0 35 36 34 35 34 35 35 35 35 34
1810.0 32 34 34 36 32 32 34 33 33 33
1850.0 35 33 34 32 33 34 33 32 31 32
1890.0 35 34 32 32 32 32 34 34 32 31
1930.0 31 32 33 31 32 32 30 31 32 31
1970.0 31 31 31 32 32 30 30 29 31 30
2010.0 33 33 33 36 37 40 38 39 37 39
2050.0 39 37 38 38 37 37 37 37 38 38
2090.0 37 38 36 34 34 33 34 35 34 35
2130.0 35 34 36 35 34 36 35 36 37 34
2170.0 34 36 36 37 37 35 34 34 35 35
2210.0 35 35 34 35 32 34 34 32 32 33
2250.0 34 35 34 34 35 34 32 33 35 36
2290.0 39 41 42 44 48 49 48 46 49 47
2330.0 51 45 39 36 33 46 63 56 45 40
2370.0 35 27 27 31 32 34 34 32 35 34
2410.0 35 33 33 31 32 30 31 31 29 30
2450.0 30 28 30 27 28 28 27 27 27 28
2490.0 30 29 30 31 31 32 33 33 33 35
2530.0 38 38 42 44 45 43 43 44 46 47
2570.0 51 51 53 55 56 58 59 58 59 61
2610.0 64 65 66 70 72 74 79 81 84 86
2650.0 92 95 100 105 110 115 115 117 122 124
2690.0 119 115 111 105 102 95 96 99 102 106
2730.0 108 111 121 123 124 125 121 123 126 129
2770.0 131 136 142 152 162 177 194 210 224 242
2810.0 264 288 320 356 398 448 515 610 749 982
2850.0 1401 2109 3122 3967 4073 3562 2957 2497 2286 2162
2890.0 1985 1894 1979 2247 2647 3155 3772 4652 6035 7958
2930.0 9719 10000 8949 7413 5828 4441 3526 3194 3289 3557
2970.0 3526 2902 2035 1394 1021 797 646 543 463 404
3010.0 362 321 294 264 240 225 208 189 179 165
3050.0 151 139 129 126 119 116 110 107 104 101
3090.0 98 95 92 86 86 81 80 80 77 74
3130.0 72 67 70 65 63 67 68 65 65 64
3170.0 61 58 66 63 65 61 55 58 56 53
3210.0 51 48 50 43 45 39 40 47 39 44
3250.0 36 41 39 37 37 42 45 48 40 41
3290.0 40 40 39 39 43 37 39 43 42 35
3330.0 44 44 44 42 45 46 42 41 43 43
3370.0 41 39 44 40 41 44 44 42 43 42
3410.0 43 46 48 51 47 36 29 44 46 51
3450.0 43 38 39 39 30 35 48 33 34 39
3490.0 32 30 44 37 33 34 42 31 46 30
3530.0 48 34 33 38 38 37 42 42 31 31
3570.0 34 47 44 40 30 42 45 51 49 43
3610.0 47 42 45 49 57 40 39 53 46 49
3650.0 46 45 51 64 56 58 52 62 60 52
3690.0 54 53 55 48 51 51 52 56 62 56
3730.0 44 56 38 43 49 56 43 49 39 45
3770.0 55 59 60 53 52 62 47 50 56 57
3810.0 48 45 61 59 48 56 50 59 56 53
3850.0 56 60 53 52 48 47 54 51 51 43
3890.0 52 44 62 52 43 65 58 44 71 59
3930.0 50 44 59 52 57 51 67 50 87 65
##END=
