##TITLE=3-Tetradecanone
##JCAMP-DX=4.24
##DATA TYPE=INFRARED SPECTRUM
##ORIGIN=Sadtler Research Labs Under US-EPA Contract
##OWNER=NIST Standard Reference Data Program
##CAS REGISTRY NO=629-23-2
##MOLFORM=C 14 H 28 O
##XUNITS=1/CM
##YUNITS=ABSORBANCE
##XFACTOR=1.0
##YFACTOR=0.000141907
##DELTAX=4.0
##FIRSTX=450.0
##LASTX=3966.0
##FIRSTY=0.000000
##MAXX=3966
##MINX=450
##MAXY=1.41907
##MINY=0
##NPOINTS=880
##XYDATA=(X++(Y..Y))
450.0 0 38 46 47 92 86 78 82 78 73
490.0 63 78 52 77 77 82 92 90 94 89
530.0 96 98 85 80 72 81 75 55 67 67
570.0 43 67 57 47 47 57 45 40 49 47
610.0 55 61 64 71 56 63 55 65 46 44
650.0 49 38 37 34 33 53 45 48 55 52
690.0 55 64 79 98 116 136 165 184 187 176
730.0 167 156 142 143 124 118 105 109 112 114
770.0 109 108 105 102 111 97 113 98 103 107
810.0 110 117 109 102 94 92 100 102 92 95
850.0 92 90 91 89 92 89 93 97 95 102
890.0 103 110 110 111 117 125 130 140 146 159
930.0 179 196 217 241 260 274 279 277 274 265
970.0 258 252 240 230 223 209 195 193 195 206
1010.0 226 252 276 298 315 317 311 302 288 275
1050.0 264 259 256 252 252 252 256 263 277 295
1090.0 319 362 425 500 564 594 577 544 511 499
1130.0 493 492 484 475 472 465 464 459 454 444
1170.0 430 415 400 381 362 345 329 312 299 287
1210.0 270 252 234 220 213 207 203 207 215 225
1250.0 236 246 255 262 269 273 278 279 284 286
1290.0 288 296 306 323 341 358 374 387 401 423
1330.0 464 533 622 716 804 874 913 901 848 772
1370.0 693 623 576 555 518 444 381 349 337 346
1410.0 372 406 451 480 487 489 514 553 610 688
1450.0 791 905 1036 1111 1093 959 745 537 380 281
1490.0 222 181 155 133 129 117 104 96 90 81
1530.0 70 67 63 62 57 57 54 55 54 43
1570.0 41 33 30 30 28 38 44 49 48 55
1610.0 53 54 57 59 59 57 61 61 64 62
1650.0 73 76 83 86 104 119 144 171 209 264
1690.0 315 402 508 671 865 1132 1464 1888 2344 2709
1730.0 2809 2519 1991 1486 1082 808 606 465 365 295
1770.0 249 207 177 150 133 114 102 92 82 74
1810.0 65 62 55 52 46 44 40 38 37 35
1850.0 35 32 32 29 30 28 28 26 27 27
1890.0 27 27 25 26 24 25 25 26 25 24
1930.0 23 24 23 23 25 25 25 23 25 25
1970.0 24 23 25 24 23 26 24 24 25 27
2010.0 27 28 29 31 33 33 35 34 37 33
2050.0 33 33 35 33 32 33 32 34 32 33
2090.0 31 30 31 31 31 32 32 31 32 32
2130.0 32 31 32 30 31 32 33 36 34 36
2170.0 36 37 36 38 38 35 35 35 35 32
2210.0 32 30 30 29 29 29 27 27 28 28
2250.0 26 26 27 28 28 30 30 33 34 34
2290.0 35 36 40 39 44 44 45 42 46 47
2330.0 45 42 40 45 46 49 51 46 48 43
2370.0 43 41 46 44 39 37 38 36 36 37
2410.0 36 36 34 35 35 35 35 36 36 34
2450.0 36 34 37 35 35 34 36 36 37 34
2490.0 35 37 36 40 38 39 41 44 44 46
2530.0 45 49 48 47 48 48 50 47 51 51
2570.0 51 54 54 57 57 59 62 62 64 67
2610.0 68 71 71 76 79 82 84 84 88 92
2650.0 94 99 102 107 110 114 121 125 129 129
2690.0 129 129 128 127 126 125 126 126 130 130
2730.0 137 138 145 151 155 159 157 157 161 164
2770.0 167 173 183 195 210 231 247 271 294 321
2810.0 351 384 421 461 507 562 632 729 878 1112
2850.0 1514 2155 3004 3721 3933 3653 3186 2797 2594 2514
2890.0 2460 2500 2663 2952 3342 3836 4450 5272 6463 7969
2930.0 9483 10000 9650 8491 7221 5990 5018 4348 4038 3943
2970.0 3780 3318 2727 2302 1998 1679 1360 1099 903 755
3010.0 644 559 492 435 386 349 315 286 260 239
3050.0 217 200 188 176 165 157 150 146 138 134
3090.0 130 125 122 117 115 111 109 101 99 98
3130.0 94 92 90 86 85 83 83 82 81 79
3170.0 79 77 74 71 70 68 63 62 59 56
3210.0 52 50 51 47 46 44 42 38 40 41
3250.0 39 36 36 34 35 35 32 34 35 34
3290.0 36 34 31 31 33 35 35 33 35 34
3330.0 36 38 39 40 37 39 39 41 41 38
3370.0 41 42 42 46 47 50 49 47 50 52
3410.0 57 60 64 69 73 75 77 77 77 74
3450.0 65 60 51 52 43 41 36 38 35 36
3490.0 33 32 33 36 31 31 33 34 34 30
3530.0 26 32 37 36 34 35 33 35 35 33
3570.0 39 40 43 41 34 45 40 41 38 30
3610.0 41 36 35 40 42 48 42 47 42 39
3650.0 39 38 42 41 40 41 42 43 39 39
3690.0 40 39 40 36 41 33 36 38 31 44
3730.0 37 39 34 39 37 36 38 34 34 39
3770.0 26 41 42 45 34 45 36 31 38 37
3810.0 36 37 33 34 40 39 42 35 38 36
3850.0 32 38 39 34 32 36 39 33 33 30
3890.0 37 31 38 36 34 33 41 41 43 34
3930.0 41 41 48 41 40 40 38 43 44 45
##END=
