##TITLE=1-Hexadecene
##JCAMP-DX=4.24
##DATA TYPE=INFRARED SPECTRUM
##ORIGIN=Sadtler Research Labs Under US-EPA Contract
##OWNER=NIST Standard Reference Data Program
##CAS REGISTRY NO=629-73-2
##MOLFORM=C 16 H 32
##XUNITS=1/CM
##YUNITS=ABSORBANCE
##XFACTOR=1.0
##YFACTOR=0.000209763
##DELTAX=4.0
##FIRSTX=450.0
##LASTX=3966.0
##FIRSTY=0.000000
##MAXX=3966
##MINX=450
##MAXY=2.09763
##MINY=0
##NPOINTS=880
##XYDATA=(X++(Y..Y))
450.0 0 178 175 271 172 231 177 264 159 218
490.0 209 222 162 204 268 155 234 199 248 148
530.0 227 207 205 224 211 243 161 279 150 204
570.0 186 238 188 185 227 183 204 184 231 183
610.0 223 218 221 230 254 262 211 247 194 242
650.0 191 193 204 185 196 180 183 159 182 161
690.0 204 190 207 222 220 282 269 301 273 302
730.0 269 245 270 253 232 223 239 202 226 212
770.0 222 209 207 190 204 207 180 194 172 199
810.0 183 196 200 200 202 189 209 192 200 200
850.0 217 201 210 218 229 253 233 273 266 311
890.0 337 369 394 442 560 689 781 664 519 400
930.0 357 312 286 280 265 264 252 265 252 259
970.0 256 269 280 300 348 385 409 378 344 296
1010.0 279 255 244 238 227 229 207 218 205 208
1050.0 200 207 207 199 205 200 207 193 202 187
1090.0 194 192 188 185 182 197 179 187 174 191
1130.0 180 186 187 181 188 181 187 174 186 180
1170.0 182 178 179 184 154 209 150 194 144 224
1210.0 190 189 203 190 199 190 209 191 208 202
1250.0 211 207 212 221 215 230 229 238 237 253
1290.0 259 266 280 289 299 287 287 274 271 265
1330.0 273 283 303 333 355 385 395 390 363 356
1370.0 345 325 310 307 305 272 256 239 241 239
1410.0 250 257 269 277 282 300 330 394 471 561
1450.0 634 695 763 811 796 706 576 440 349 287
1490.0 254 235 220 212 204 204 188 191 185 185
1530.0 179 180 182 178 180 174 178 171 175 166
1570.0 170 169 169 167 167 172 170 177 175 183
1610.0 182 194 205 210 232 256 305 367 425 407
1650.0 327 259 218 200 184 182 173 171 161 169
1690.0 164 161 164 160 161 154 163 155 158 153
1730.0 158 161 155 156 154 157 151 155 151 156
1770.0 156 154 155 154 159 155 161 158 160 159
1810.0 164 167 174 188 198 203 194 187 169 167
1850.0 161 156 155 153 157 148 151 149 151 148
1890.0 149 151 147 146 144 150 147 150 147 148
1930.0 147 148 150 146 149 147 150 148 151 149
1970.0 151 154 152 153 151 154 149 153 153 152
2010.0 153 155 157 157 160 160 162 158 161 158
2050.0 157 159 158 159 154 160 155 157 154 155
2090.0 152 151 152 147 152 148 150 148 150 150
2130.0 148 148 145 150 146 149 149 148 146 147
2170.0 146 146 150 146 149 143 150 146 147 148
2210.0 146 146 145 149 145 149 148 149 149 152
2250.0 152 150 151 151 152 150 152 151 151 150
2290.0 150 148 148 151 144 144 142 144 142 143
2330.0 145 145 149 142 156 141 140 140 142 150
2370.0 154 164 156 160 156 154 151 154 153 153
2410.0 154 152 153 153 155 154 157 154 153 155
2450.0 156 159 156 158 156 157 156 158 161 161
2490.0 162 161 164 161 166 165 166 167 169 168
2530.0 169 172 171 172 170 171 170 170 172 169
2570.0 173 171 176 174 179 180 182 180 181 182
2610.0 182 184 183 189 187 193 193 194 196 197
2650.0 201 201 207 210 213 220 222 225 227 235
2690.0 232 227 219 219 210 209 209 212 214 217
2730.0 219 220 227 226 229 231 233 232 232 239
2770.0 240 244 244 256 263 275 289 304 320 336
2810.0 357 374 407 437 479 525 585 676 806 1027
2850.0 1388 2014 2904 3690 3767 3250 2609 2129 1883 1751
2890.0 1663 1642 1774 2030 2410 2868 3427 4204 5358 7182
2930.0 8868 10000 8536 7163 5360 3908 2965 2474 2352 2373
2970.0 2320 1995 1545 1206 1016 873 769 691 651 623
3010.0 584 530 468 422 392 369 356 335 329 321
3050.0 318 313 323 331 349 377 410 453 515 584
3090.0 559 443 346 295 262 248 237 225 221 215
3130.0 208 206 206 204 199 198 198 198 197 196
3170.0 192 196 186 182 181 178 179 174 176 181
3210.0 177 172 171 172 171 170 164 174 165 169
3250.0 169 161 164 167 160 160 163 160 169 162
3290.0 165 160 161 162 161 160 160 164 166 163
3330.0 159 168 165 154 163 166 160 157 166 165
3370.0 166 162 167 166 168 165 159 166 164 167
3410.0 161 164 169 155 165 162 162 160 163 154
3450.0 156 159 163 168 161 168 155 168 157 156
3490.0 156 161 164 152 161 164 163 150 165 169
3530.0 157 150 161 161 161 163 155 159 163 173
3570.0 153 167 157 149 179 168 172 159 147 145
3610.0 176 165 154 167 179 184 175 195 171 179
3650.0 171 178 176 185 165 175 180 167 162 168
3690.0 184 169 180 186 175 190 175 170 158 168
3730.0 178 187 190 185 175 178 190 178 185 186
3770.0 192 191 186 188 178 186 186 208 181 190
3810.0 190 175 179 192 198 196 185 178 183 177
3850.0 194 197 187 192 193 185 174 180 179 188
3890.0 180 191 180 190 203 179 172 169 197 192
3930.0 185 199 181 193 177 203 180 197 169 195
##END=
