##TITLE=Disulfide, dipropyl
##JCAMP-DX=4.24
##DATA TYPE=INFRARED SPECTRUM
##ORIGIN=Sadtler Research Labs Under US-EPA Contract
##OWNER=NIST Standard Reference Data Program
##CAS REGISTRY NO=629-19-6
##MOLFORM=C 6 H 14 S 2
##XUNITS=1/CM
##YUNITS=ABSORBANCE
##XFACTOR=1.0
##YFACTOR=0.000074332
##DELTAX=4.0
##FIRSTX=450.0
##LASTX=3966.0
##FIRSTY=0.010778
##MAXX=3966
##MINX=450
##MAXY=0.74332
##MINY=0
##NPOINTS=880
##XYDATA=(X++(Y..Y))
450.0 145 160 147 157 166 161 172 148 152 126
490.0 146 91 83 131 161 171 155 184 132 134
530.0 174 155 90 140 143 144 162 104 223 0
570.0 87 98 157 100 56 143 208 143 143 136
610.0 135 127 145 151 164 158 164 142 117 134
650.0 115 141 130 136 122 129 133 145 145 148
690.0 139 177 181 182 206 209 228 252 259 293
730.0 317 371 306 253 247 199 206 185 221 242
770.0 300 415 566 671 670 597 476 387 310 251
810.0 217 222 235 247 293 294 268 283 234 233
850.0 204 190 173 190 163 169 206 257 311 392
890.0 442 472 423 346 277 198 160 142 123 121
930.0 119 119 124 118 116 125 121 107 123 120
970.0 115 104 114 129 96 102 108 115 115 128
1010.0 129 137 148 164 194 232 247 270 304 337
1050.0 371 378 361 346 314 302 313 341 372 404
1090.0 386 351 297 221 180 155 129 136 125 129
1130.0 129 113 120 134 127 127 140 134 134 134
1170.0 129 144 156 168 180 213 239 280 313 361
1210.0 443 561 826 1258 1697 1940 1891 1540 1070 723
1250.0 508 418 360 339 345 385 490 683 1002 1398
1290.0 1650 1627 1400 994 627 428 338 303 331 378
1330.0 450 546 606 572 513 397 302 272 282 313
1370.0 411 570 804 1006 1072 1017 803 599 531 538
1410.0 577 675 713 729 725 786 849 973 1058 1188
1450.0 1331 1481 1623 1632 1609 1443 1221 944 763 586
1490.0 471 374 321 280 295 197 204 217 182 167
1530.0 158 193 168 162 113 142 147 173 108 120
1570.0 136 121 145 111 126 125 129 120 129 123
1610.0 124 136 131 121 104 126 126 115 115 151
1650.0 105 172 82 117 107 150 96 115 105 120
1690.0 100 123 128 137 107 110 117 105 65 89
1730.0 92 95 75 87 72 77 66 81 76 73
1770.0 82 74 63 71 67 71 73 60 62 65
1810.0 75 60 69 61 82 74 54 68 63 67
1850.0 62 68 59 65 65 67 55 69 65 63
1890.0 64 57 64 57 54 62 60 72 60 66
1930.0 69 70 61 63 61 64 59 68 63 57
1970.0 53 54 53 55 49 49 60 52 58 58
2010.0 68 62 68 83 78 84 86 84 82 81
2050.0 67 67 71 68 65 63 69 68 68 61
2090.0 65 69 63 70 74 71 74 79 67 59
2130.0 66 66 51 51 51 50 59 47 44 43
2170.0 50 55 50 49 49 48 48 49 52 49
2210.0 53 57 52 60 59 64 59 65 64 57
2250.0 63 57 50 55 56 60 58 60 54 52
2290.0 50 40 50 42 47 46 49 47 60 56
2330.0 60 59 54 51 42 38 62 57 49 26
2370.0 19 10 24 19 35 43 42 48 63 62
2410.0 61 67 53 59 54 47 38 41 34 31
2450.0 39 38 37 44 32 37 37 37 32 35
2490.0 39 36 40 41 54 47 47 54 60 52
2530.0 47 54 54 47 39 38 39 32 24 25
2570.0 17 12 10 22 17 13 16 20 20 23
2610.0 23 30 29 29 23 37 40 46 57 70
2650.0 82 77 86 83 96 79 86 78 66 51
2690.0 47 37 43 44 46 53 53 59 58 72
2730.0 67 87 115 128 142 146 133 132 120 121
2770.0 125 134 152 173 187 216 248 262 287 329
2810.0 364 423 454 476 488 493 513 540 589 666
2850.0 782 947 1147 1449 1782 2102 2497 2980 3466 3652
2890.0 3606 3373 3137 3175 3452 3770 4045 4227 4413 4652
2930.0 4944 5336 5784 6177 6248 6143 5938 6028 6750 7961
2970.0 9401 10000 9230 7593 5487 3528 2311 1646 1252 1013
3010.0 845 726 639 569 521 490 449 408 383 348
3050.0 320 287 273 258 245 225 213 213 218 207
3090.0 208 200 188 181 169 174 168 166 159 163
3130.0 164 151 149 147 145 152 165 157 149 163
3170.0 170 143 143 132 142 124 122 128 121 108
3210.0 104 105 91 83 72 64 65 72 69 63
3250.0 63 66 65 52 46 39 66 65 55 53
3290.0 51 41 46 53 41 44 42 39 40 41
3330.0 48 42 44 54 34 55 51 51 41 31
3370.0 49 41 42 35 48 48 43 38 18 22
3410.0 44 22 21 23 49 37 36 36 21 28
3450.0 31 43 37 20 26 36 27 29 33 52
3490.0 56 16 22 21 20 35 16 29 32 23
3530.0 32 13 54 37 32 10 46 16 23 30
3570.0 36 27 36 30 48 58 53 33 57 40
3610.0 55 34 45 40 32 54 27 53 51 34
3650.0 66 32 58 46 52 90 52 62 45 58
3690.0 71 46 54 59 66 51 65 67 71 73
3730.0 74 111 91 86 114 71 76 75 88 84
3770.0 68 77 66 71 79 72 93 104 120 119
3810.0 111 102 103 112 101 113 117 123 104 119
3850.0 116 122 102 100 98 109 89 96 96 129
3890.0 118 112 109 116 101 86 91 104 133 130
3930.0 126 113 119 106 109 96 103 106 120 123
##END=
