##TITLE=Heptane, 1-chloro-
##JCAMP-DX=4.24
##DATA TYPE=INFRARED SPECTRUM
##ORIGIN=Sadtler Research Labs Under US-EPA Contract
##OWNER=NIST Standard Reference Data Program
##CAS REGISTRY NO=629-06-1
##MOLFORM=C 7 H 15 Cl
##XUNITS=1/CM
##YUNITS=ABSORBANCE
##XFACTOR=1.0
##YFACTOR=0.000122528
##DELTAX=4.0
##FIRSTX=450.0
##LASTX=3966.0
##FIRSTY=0.000000
##MAXX=3966
##MINX=450
##MAXY=1.22528
##MINY=0
##NPOINTS=880
##XYDATA=(X++(Y..Y))
450.0 0 321 613 246 299 616 432 351 432 438
490.0 378 471 363 460 421 422 428 406 411 395
530.0 432 420 445 406 425 459 448 479 428 306
570.0 452 422 219 377 398 420 405 402 422 404
610.0 401 415 422 435 488 438 473 485 545 602
650.0 682 781 908 992 978 930 760 622 545 530
690.0 502 523 513 551 621 650 739 827 921 988
730.0 1088 1159 1218 1223 1167 1058 935 871 790 754
770.0 766 614 662 613 619 578 548 564 552 534
810.0 617 668 575 506 578 553 552 524 521 510
850.0 499 502 479 475 493 501 500 498 499 512
890.0 519 519 529 530 526 515 500 494 487 483
930.0 486 489 497 485 496 496 519 546 547 488
970.0 496 515 526 515 542 543 547 545 548 529
1010.0 562 563 577 588 609 637 646 672 687 705
1050.0 719 742 737 722 707 685 677 674 689 687
1090.0 693 698 716 734 763 797 795 795 779 776
1130.0 741 693 629 577 533 506 486 475 475 471
1170.0 473 460 464 453 465 464 469 467 463 471
1210.0 469 477 475 494 488 490 502 534 558 595
1250.0 648 695 736 752 776 772 804 871 971 1070
1290.0 1136 1164 1145 1130 1102 1076 1013 960 898 836
1330.0 781 731 705 710 725 733 737 723 725 717
1370.0 711 718 751 768 762 725 644 576 530 509
1410.0 492 488 493 515 545 604 690 785 937 1109
1450.0 1309 1437 1546 1538 1496 1392 1220 1033 836 682
1490.0 576 506 460 423 409 387 376 373 366 363
1530.0 351 349 340 345 335 332 326 331 325 323
1570.0 322 325 322 317 320 321 317 310 312 317
1610.0 310 315 313 317 311 316 310 315 303 314
1650.0 301 323 312 309 309 311 305 310 302 313
1690.0 310 310 309 310 304 302 300 306 309 311
1730.0 313 314 329 327 337 345 348 338 333 322
1770.0 318 312 306 306 300 295 293 290 288 286
1810.0 282 278 272 277 278 281 274 277 270 274
1850.0 274 277 273 280 276 279 280 279 282 277
1890.0 282 279 281 282 282 280 279 280 277 277
1930.0 277 278 274 280 276 272 276 274 274 273
1970.0 272 270 271 274 269 270 271 271 270 271
2010.0 271 272 270 275 274 277 277 276 277 278
2050.0 277 278 276 275 271 267 263 264 264 261
2090.0 262 263 260 261 262 260 260 263 261 260
2130.0 262 259 261 260 262 262 265 261 266 267
2170.0 268 269 267 262 262 267 262 261 262 262
2210.0 262 263 258 254 256 256 257 257 253 252
2250.0 253 249 252 252 252 252 252 251 248 246
2290.0 246 240 239 237 234 227 226 223 223 223
2330.0 229 226 239 254 246 238 227 234 261 279
2370.0 298 291 285 277 265 257 252 252 250 253
2410.0 252 249 250 248 248 247 251 249 250 248
2450.0 251 249 251 253 249 253 251 253 252 253
2490.0 248 249 249 248 249 248 249 246 251 250
2530.0 248 251 254 260 259 257 258 261 263 263
2570.0 265 267 265 270 275 272 276 275 280 281
2610.0 284 284 287 290 291 295 291 295 296 302
2650.0 305 313 314 321 330 333 335 340 340 347
2690.0 354 356 356 350 349 346 344 348 351 355
2730.0 363 372 381 390 392 388 384 382 376 375
2770.0 376 379 392 402 419 440 460 480 492 512
2810.0 526 551 585 629 678 741 836 975 1190 1496
2850.0 1939 2524 3221 3885 4370 4554 4452 4289 4091 3790
2890.0 3460 3125 2967 3087 3388 3873 4526 5372 6439 7632
2930.0 8793 9638 10000 9692 8898 7941 7056 6618 6665 7021
2970.0 7041 6253 4988 3565 2583 2095 1870 1745 1583 1366
3010.0 1098 886 748 662 606 560 527 500 475 450
3050.0 426 412 392 390 380 367 352 350 345 338
3090.0 330 330 316 317 308 307 301 298 297 296
3130.0 295 291 291 291 290 285 290 290 290 291
3170.0 284 290 284 289 288 283 282 281 280 279
3210.0 272 267 271 259 263 262 259 260 250 254
3250.0 254 253 256 258 250 250 251 252 245 246
3290.0 240 247 249 244 242 238 239 232 241 236
3330.0 235 246 244 234 240 243 232 238 234 240
3370.0 244 237 236 234 234 234 235 233 235 236
3410.0 233 231 236 235 249 238 242 244 239 246
3450.0 238 242 244 246 245 239 245 247 245 242
3490.0 249 245 246 244 249 237 243 245 234 225
3530.0 237 231 223 233 234 234 236 234 239 223
3570.0 231 237 240 229 243 241 230 239 238 237
3610.0 230 231 234 247 245 258 257 257 259 249
3650.0 261 279 290 289 294 277 304 306 302 282
3690.0 270 249 250 271 259 262 246 264 252 246
3730.0 252 281 277 255 263 252 256 265 264 260
3770.0 260 264 267 268 252 249 242 265 265 249
3810.0 262 260 248 265 251 251 264 260 237 254
3850.0 241 252 264 266 265 268 261 250 245 233
3890.0 242 250 273 245 264 267 231 229 242 241
3930.0 261 236 249 250 266 255 246 276 250 274
##END=
