##TITLE=1-Hexadecanol, acetate
##JCAMP-DX=4.24
##DATA TYPE=INFRARED SPECTRUM
##ORIGIN=Sadtler Research Labs Under US-EPA Contract
##OWNER=NIST Standard Reference Data Program
##CAS REGISTRY NO=629-70-9
##MOLFORM=C 18 H 36 O 2
##XUNITS=1/CM
##YUNITS=ABSORBANCE
##XFACTOR=1.0
##YFACTOR=0.000080826
##DELTAX=4.0
##FIRSTX=450.0
##LASTX=3966.0
##FIRSTY=0.010022
##MAXX=3966
##MINX=450
##MAXY=0.80826
##MINY=0
##NPOINTS=880
##XYDATA=(X++(Y..Y))
450.0 124 441 568 279 438 85 47 714 477 627
490.0 726 227 637 294 360 518 568 707 819 340
530.0 320 116 531 236 109 267 0 209 135 176
570.0 338 347 386 383 450 320 279 469 372 366
610.0 376 279 385 259 367 381 378 471 410 283
650.0 315 296 376 397 343 254 315 342 287 382
690.0 353 229 305 291 367 377 399 397 404 431
730.0 471 341 389 400 444 187 283 313 245 233
770.0 209 211 221 138 313 172 102 161 147 149
810.0 176 113 177 258 258 202 179 279 218 245
850.0 237 210 270 201 308 257 359 379 401 372
890.0 410 333 350 513 432 659 669 584 547 568
930.0 632 493 552 549 546 525 510 498 450 461
970.0 414 456 416 363 307 309 250 264 276 303
1010.0 300 351 404 407 526 534 544 651 649 679
1050.0 644 539 474 456 560 521 534 623 543 570
1090.0 493 412 394 321 378 304 287 300 339 223
1130.0 221 376 604 539 477 362 279 357 289 283
1170.0 384 284 236 350 391 441 478 601 830 1103
1210.0 1470 1973 2731 3397 4493 5492 5726 5497 4602 3532
1250.0 2813 2187 1819 1587 1343 1189 1028 918 792 690
1290.0 602 494 510 474 475 529 506 499 466 429
1330.0 453 422 471 453 503 589 674 785 938 1188
1370.0 1262 1119 892 799 731 770 687 607 512 406
1410.0 412 373 404 347 370 382 373 443 532 589
1450.0 715 712 867 882 932 814 673 555 493 384
1490.0 344 292 245 217 187 148 234 164 184 181
1530.0 241 281 204 242 263 315 300 266 235 302
1570.0 304 316 328 255 286 296 156 262 159 149
1610.0 211 141 225 224 313 256 271 204 212 243
1650.0 148 182 153 234 146 163 120 135 133 143
1690.0 216 240 223 151 219 179 194 196 260 408
1730.0 454 626 778 1069 1399 1809 2392 3075 3419 3039
1770.0 2316 1715 1356 1039 785 621 483 406 381 288
1810.0 265 222 184 169 128 111 134 107 133 85
1850.0 123 107 90 121 86 109 92 89 97 85
1890.0 89 85 83 85 85 82 90 73 90 77
1930.0 85 83 78 85 74 80 76 71 75 72
1970.0 74 73 69 74 72 80 72 77 78 74
2010.0 76 81 76 83 84 80 80 84 84 78
2050.0 75 75 73 78 75 74 72 72 77 71
2090.0 65 71 65 69 70 70 67 60 62 66
2130.0 61 58 57 56 53 57 54 48 54 47
2170.0 55 51 48 52 50 49 49 50 48 44
2210.0 48 43 43 53 45 36 42 35 32 32
2250.0 30 34 30 31 29 30 34 23 38 35
2290.0 32 31 33 36 35 27 30 22 17 10
2330.0 1 6 1 2 5 17 21 10 6 1
2370.0 1 4 4 9 13 9 12 5 10 11
2410.0 4 5 2 4 5 4 6 8 11 6
2450.0 7 11 12 4 14 14 13 7 6 12
2490.0 3 8 8 4 5 5 5 5 4 13
2530.0 11 17 9 18 10 14 19 12 6 10
2570.0 7 17 9 11 13 9 21 14 14 16
2610.0 15 15 20 17 26 25 23 23 21 33
2650.0 31 28 28 33 42 35 40 38 38 41
2690.0 38 34 40 36 32 23 27 24 24 33
2730.0 34 37 33 28 34 38 40 30 23 36
2770.0 34 40 50 48 63 64 82 96 101 112
2810.0 128 153 180 210 260 302 359 447 563 784
2850.0 1162 1796 2717 3566 3650 3100 2467 1957 1674 1532
2890.0 1455 1470 1624 1909 2313 2778 3394 4166 5409 7172
2930.0 9099 10000 9117 7508 5766 4291 3308 2746 2543 2485
2970.0 2310 1930 1465 1101 856 679 539 432 344 282
3010.0 248 207 173 142 135 104 93 87 70 64
3050.0 50 31 49 39 30 19 28 39 29 49
3090.0 30 34 40 38 34 27 16 27 22 22
3130.0 30 17 25 31 41 22 27 40 26 42
3170.0 51 34 38 48 37 45 40 32 26 22
3210.0 19 11 17 18 19 17 12 25 14 11
3250.0 19 4 12 8 11 16 19 13 14 15
3290.0 3 11 2 6 7 26 17 28 20 14
3330.0 33 21 18 30 29 29 34 36 46 44
3370.0 47 31 36 30 35 37 33 31 37 41
3410.0 41 53 53 55 39 47 56 62 59 60
3450.0 69 34 47 45 42 43 19 25 31 39
3490.0 37 42 40 67 64 60 43 49 43 54
3530.0 43 44 42 49 46 68 30 63 48 83
3570.0 59 48 55 67 83 65 64 69 64 75
3610.0 87 76 60 71 76 41 66 75 92 84
3650.0 52 45 68 106 86 96 15 66 69 94
3690.0 86 52 122 61 82 70 58 92 85 113
3730.0 76 53 77 44 26 17 51 66 83 65
3770.0 61 74 70 65 88 82 80 74 48 32
3810.0 47 54 64 24 18 70 39 27 58 52
3850.0 86 5 40 68 74 54 59 61 75 61
3890.0 63 55 67 39 37 70 80 55 48 34
3930.0 43 81 26 61 43 97 44 61 90 50
##END=
