##TITLE=Docosane
##JCAMP-DX=4.24
##DATA TYPE=INFRARED SPECTRUM
##ORIGIN=Sadtler Research Labs Under US-EPA Contract
##OWNER=NIST Standard Reference Data Program
##CAS REGISTRY NO=629-97-0
##MOLFORM=C 22 H 46
##XUNITS=1/CM
##YUNITS=ABSORBANCE
##XFACTOR=1.0
##YFACTOR=0.000071744
##DELTAX=4.0
##FIRSTX=450.0
##LASTX=3966.0
##FIRSTY=0.000574
##MAXX=3966
##MINX=450
##MAXY=0.71744
##MINY=0
##NPOINTS=880
##XYDATA=(X++(Y..Y))
450.0 8 6 9 97 45 51 59 71 52 60
490.0 69 31 38 44 32 43 45 22 46 80
530.0 60 56 36 41 25 28 47 70 42 9
570.0 38 44 38 21 28 51 45 44 60 48
610.0 32 42 48 28 35 48 43 49 46 40
650.0 39 38 35 42 43 50 53 61 52 70
690.0 65 65 88 103 134 144 159 175 163 158
730.0 146 133 125 115 97 106 93 83 83 83
770.0 75 70 74 68 65 64 52 72 79 75
810.0 67 72 62 58 62 62 56 63 61 56
850.0 60 55 54 49 55 53 61 57 64 64
890.0 67 61 52 52 52 58 60 51 54 50
930.0 51 55 53 52 46 49 48 54 48 44
970.0 52 51 55 54 48 46 56 52 52 60
1010.0 59 60 65 59 62 58 59 58 59 61
1050.0 62 63 71 64 65 71 70 70 75 69
1090.0 72 76 71 74 79 71 66 65 62 66
1130.0 61 62 56 54 59 59 57 60 58 63
1170.0 58 60 58 53 60 56 54 58 54 56
1210.0 54 60 59 56 61 63 64 65 66 71
1250.0 73 81 90 100 87 88 93 100 106 108
1290.0 118 126 141 152 157 156 153 142 133 133
1330.0 133 152 173 204 226 251 265 260 245 232
1370.0 217 197 181 188 177 147 123 113 97 99
1410.0 99 104 104 108 123 136 164 201 272 350
1450.0 438 514 607 660 651 560 431 301 215 159
1490.0 133 103 86 73 66 61 68 57 47 50
1530.0 42 47 28 33 31 41 34 30 18 32
1570.0 25 30 20 29 27 27 29 30 24 22
1610.0 29 23 23 25 25 25 20 19 27 17
1650.0 22 2 22 27 21 21 23 21 30 17
1690.0 28 26 25 22 41 45 43 47 59 69
1730.0 73 76 73 85 78 77 66 61 55 55
1770.0 54 49 50 43 48 36 33 35 35 29
1810.0 27 26 24 21 19 20 20 20 16 16
1850.0 15 16 14 16 16 15 15 14 11 16
1890.0 16 12 13 15 11 16 15 13 13 16
1930.0 13 12 10 12 14 10 15 15 16 13
1970.0 10 12 13 9 10 13 14 12 15 18
2010.0 15 14 18 20 23 24 19 21 24 23
2050.0 21 16 18 20 22 21 20 20 17 18
2090.0 19 18 18 17 16 19 15 16 15 14
2130.0 18 16 16 16 12 16 16 19 18 18
2170.0 19 20 19 20 21 19 20 20 16 19
2210.0 19 17 17 14 14 12 15 17 17 11
2250.0 11 16 15 17 17 15 17 20 21 21
2290.0 28 30 35 39 41 41 37 34 39 43
2330.0 40 33 31 40 43 47 37 34 39 36
2370.0 46 37 42 43 31 19 17 12 15 14
2410.0 15 12 13 8 11 10 13 7 8 8
2450.0 13 11 11 16 10 12 15 16 10 8
2490.0 11 14 12 14 17 17 20 22 24 23
2530.0 24 28 30 27 29 30 27 32 31 35
2570.0 32 34 35 40 35 37 41 40 42 48
2610.0 46 45 52 48 54 56 59 57 64 65
2650.0 66 67 71 75 80 81 87 89 96 94
2690.0 95 92 90 91 92 92 92 88 87 92
2730.0 91 90 92 104 96 99 103 101 99 102
2770.0 110 114 124 129 142 153 171 190 206 217
2810.0 238 260 288 323 361 406 461 550 677 895
2850.0 1270 1941 2910 3680 3636 3051 2433 2007 1794 1677
2890.0 1584 1570 1704 1976 2361 2836 3404 4200 5484 7399
2930.0 9376 10000 8830 6985 5199 3803 2907 2469 2374 2409
2970.0 2321 1918 1404 1014 775 616 503 426 367 320
3010.0 288 256 230 205 184 177 163 153 140 125
3050.0 118 110 95 87 87 87 84 75 79 73
3090.0 69 66 58 57 49 54 52 54 43 45
3130.0 42 45 45 39 34 40 41 37 36 36
3170.0 37 38 33 27 28 27 29 29 31 24
3210.0 26 22 25 19 16 16 22 20 21 16
3250.0 19 12 17 17 14 13 15 15 15 16
3290.0 14 16 14 18 18 17 15 11 15 18
3330.0 19 26 22 14 15 13 20 14 10 19
3370.0 19 15 17 22 23 17 18 15 21 20
3410.0 23 28 20 17 12 13 15 24 17 21
3450.0 21 18 17 20 18 12 22 31 18 15
3490.0 14 9 11 11 14 19 21 13 8 11
3530.0 12 13 17 15 20 18 13 19 22 29
3570.0 33 23 20 22 21 24 23 21 20 23
3610.0 22 29 26 11 14 13 30 14 26 30
3650.0 21 36 27 22 19 20 8 13 20 14
3690.0 17 16 26 23 16 12 23 13 27 27
3730.0 17 10 35 20 10 13 0 24 23 21
3770.0 18 23 22 29 24 15 17 14 14 26
3810.0 17 18 28 16 14 20 14 20 15 22
3850.0 25 1 20 35 15 8 12 17 26 35
3890.0 12 23 24 29 31 16 19 28 25 23
3930.0 15 13 9 29 40 28 26 11 18 31
##END=
