##TITLE=Octane, 1,1'-oxybis-
##JCAMP-DX=4.24
##DATA TYPE=INFRARED SPECTRUM
##ORIGIN=Sadtler Research Labs Under US-EPA Contract
##OWNER=NIST Standard Reference Data Program
##CAS REGISTRY NO=629-82-3
##MOLFORM=C 16 H 34 O
##XUNITS=1/CM
##YUNITS=ABSORBANCE
##XFACTOR=1.0
##YFACTOR=0.000114987
##DELTAX=4.0
##FIRSTX=450.0
##LASTX=3966.0
##FIRSTY=0.003680
##MAXX=3966
##MINX=450
##MAXY=1.14987
##MINY=0
##NPOINTS=880
##XYDATA=(X++(Y..Y))
450.0 32 110 161 230 170 186 148 164 131 14
490.0 132 218 96 95 137 150 141 97 92 135
530.0 151 126 117 108 116 124 147 160 192 110
570.0 83 63 127 94 103 76 66 58 83 80
610.0 143 84 80 97 61 75 93 77 85 72
650.0 57 67 100 138 89 91 56 105 121 128
690.0 129 107 93 113 163 193 185 261 250 196
730.0 230 149 77 78 260 147 151 165 135 147
770.0 140 91 107 140 129 98 72 126 62 53
810.0 65 115 127 61 86 98 86 96 92 112
850.0 90 92 154 93 117 141 143 128 128 151
890.0 151 136 151 128 132 116 128 89 126 97
930.0 101 119 116 145 138 156 162 177 210 217
970.0 214 200 203 213 205 217 233 225 224 237
1010.0 238 246 256 268 297 317 326 347 364 374
1050.0 377 399 435 475 482 500 537 605 681 783
1090.0 934 1157 1509 1855 2163 2440 2609 2629 2538 2502
1130.0 2320 1980 1602 1257 1018 825 766 734 703 667
1170.0 622 576 531 494 484 418 430 419 397 383
1210.0 385 388 356 389 366 361 370 408 423 416
1250.0 414 414 391 376 374 373 340 373 357 345
1290.0 374 373 374 365 357 344 343 312 293 301
1330.0 293 340 399 472 551 623 677 749 781 797
1370.0 830 799 734 653 530 440 342 310 286 252
1410.0 276 223 270 237 286 323 362 453 516 611
1450.0 705 781 889 958 986 931 785 658 500 398
1490.0 312 235 216 161 137 105 167 114 101 118
1530.0 122 81 101 73 105 111 81 69 0 95
1570.0 101 53 120 73 119 86 74 126 91 105
1610.0 114 98 84 82 117 87 132 107 112 150
1650.0 71 75 59 113 61 62 85 66 97 46
1690.0 97 89 66 55 102 106 112 99 115 154
1730.0 132 180 215 299 454 569 610 529 410 337
1770.0 300 266 284 265 245 196 174 128 151 104
1810.0 105 100 76 86 57 63 65 66 75 56
1850.0 77 60 65 73 55 69 52 68 60 60
1890.0 61 61 56 62 55 66 59 59 60 62
1930.0 57 58 60 63 64 63 62 63 64 60
1970.0 56 61 57 56 61 65 61 65 62 65
2010.0 61 65 68 67 69 66 64 67 72 67
2050.0 64 64 63 62 66 60 59 57 60 58
2090.0 61 57 55 53 56 51 51 53 49 48
2130.0 49 50 50 47 46 48 48 49 50 47
2170.0 45 45 44 44 46 44 46 42 40 38
2210.0 37 38 39 36 35 36 35 36 36 37
2250.0 36 36 34 29 34 32 30 29 27 26
2290.0 23 24 29 24 24 29 34 44 47 51
2330.0 53 41 67 34 72 27 76 44 78 62
2370.0 48 40 29 30 22 20 22 22 22 18
2410.0 23 23 19 21 20 20 20 15 16 15
2450.0 10 9 8 11 14 10 12 11 9 11
2490.0 16 15 15 18 16 19 22 22 25 24
2530.0 27 29 29 28 34 36 33 33 36 40
2570.0 38 40 42 44 47 47 53 56 57 55
2610.0 56 58 61 60 67 65 71 74 75 80
2650.0 85 88 93 101 105 112 119 120 125 135
2690.0 141 141 150 154 156 159 161 167 172 178
2730.0 193 197 207 215 215 210 209 208 209 219
2770.0 230 245 266 300 341 379 415 436 443 442
2810.0 448 468 501 556 628 725 855 1041 1313 1712
2850.0 2299 3129 4173 5159 5627 5390 4744 4059 3574 3203
2890.0 2839 2597 2593 2825 3243 3802 4452 5236 6285 7629
2930.0 9092 10000 9942 9262 8058 6707 5517 4792 4622 4732
2970.0 4566 3786 2706 1871 1364 1045 833 685 579 500
3010.0 441 383 342 307 283 262 236 218 196 185
3050.0 171 166 149 142 128 126 118 114 112 106
3090.0 108 103 97 92 87 85 81 74 78 78
3130.0 78 78 72 75 76 70 76 74 73 71
3170.0 69 68 69 67 71 72 66 59 61 59
3210.0 58 61 55 50 51 50 47 50 50 50
3250.0 46 48 49 53 45 49 46 48 51 50
3290.0 46 50 54 48 50 51 51 52 50 55
3330.0 58 55 56 54 50 56 57 61 60 54
3370.0 57 56 67 58 59 55 59 62 63 62
3410.0 63 63 61 65 61 59 55 62 65 55
3450.0 53 59 57 59 59 60 58 59 61 59
3490.0 64 46 58 60 59 54 57 58 57 57
3530.0 56 54 58 63 66 72 54 68 70 76
3570.0 108 116 125 131 93 82 63 78 54 85
3610.0 54 59 59 71 68 41 62 90 77 53
3650.0 50 24 92 55 100 39 47 29 70 83
3690.0 29 76 85 84 78 57 49 81 85 96
3730.0 78 55 51 57 17 35 42 72 85 66
3770.0 97 84 107 85 85 98 85 75 75 35
3810.0 114 34 93 22 99 88 67 43 59 96
3850.0 55 40 15 101 62 48 77 56 93 51
3890.0 86 64 74 63 65 86 93 80 73 78
3930.0 67 65 85 101 63 73 42 66 61 41
##END=
