##TITLE=Tetradecanenitrile
##JCAMP-DX=4.24
##DATA TYPE=INFRARED SPECTRUM
##ORIGIN=Sadtler Research Labs Under US-EPA Contract
##OWNER=NIST Standard Reference Data Program
##CAS REGISTRY NO=629-63-0
##MOLFORM=C 14 H 27 N
##XUNITS=1/CM
##YUNITS=ABSORBANCE
##XFACTOR=1.0
##YFACTOR=0.000137924
##DELTAX=4.0
##FIRSTX=450.0
##LASTX=3966.0
##FIRSTY=0.020413
##MAXX=3966
##MINX=450
##MAXY=1.37924
##MINY=0
##NPOINTS=880
##XYDATA=(X++(Y..Y))
450.0 148 64 59 27 139 16 207 87 67 85
490.0 51 68 232 143 69 109 106 60 42 95
530.0 94 21 141 93 59 35 13 113 55 53
570.0 94 101 103 50 86 79 0 49 85 85
610.0 81 50 49 39 38 67 49 39 52 21
650.0 55 43 49 45 41 42 36 73 84 92
690.0 89 81 105 130 133 193 190 210 232 227
730.0 203 197 196 140 208 286 128 111 120 115
770.0 133 97 71 114 116 80 87 57 85 82
810.0 27 73 107 85 61 80 59 71 82 90
850.0 34 35 131 100 81 69 78 92 48 80
890.0 69 32 64 87 87 96 95 42 56 74
930.0 97 75 70 67 68 74 63 60 58 80
970.0 64 69 64 84 60 53 72 52 59 54
1010.0 55 56 60 70 78 59 46 61 71 68
1050.0 75 63 69 65 81 67 76 66 61 75
1090.0 70 54 55 52 61 66 57 43 54 65
1130.0 57 52 52 57 55 50 57 62 57 56
1170.0 69 57 71 67 56 69 63 74 67 60
1210.0 51 65 64 64 88 61 71 96 99 85
1250.0 77 69 95 104 105 107 129 134 119 143
1290.0 160 165 175 180 195 218 202 185 188 202
1330.0 212 222 248 268 295 333 351 332 320 281
1370.0 272 258 244 221 209 197 171 138 129 130
1410.0 142 151 152 182 236 311 401 476 526 564
1450.0 661 739 834 901 861 722 592 428 304 238
1490.0 176 147 116 102 84 77 88 68 60 56
1530.0 46 47 43 55 50 43 46 32 49 49
1570.0 34 51 53 45 37 24 36 36 34 42
1610.0 52 40 37 32 26 16 28 23 27 27
1650.0 15 22 20 39 26 39 22 40 33 24
1690.0 27 34 20 14 33 39 31 26 43 58
1730.0 27 51 35 40 40 30 30 32 17 26
1770.0 22 22 20 31 19 26 19 21 25 14
1810.0 19 15 19 21 19 18 15 18 19 22
1850.0 17 18 21 20 21 25 19 19 20 18
1890.0 17 16 18 18 20 17 19 16 19 13
1930.0 13 15 18 16 17 20 14 20 16 21
1970.0 16 10 18 22 18 14 15 19 20 28
2010.0 25 18 21 26 24 23 22 23 20 23
2050.0 26 21 23 18 19 22 21 18 15 19
2090.0 15 18 16 12 16 17 18 18 19 16
2130.0 15 16 17 18 17 20 21 19 19 16
2170.0 15 15 18 17 16 19 21 20 15 16
2210.0 20 21 20 17 22 26 31 38 52 66
2250.0 79 81 73 55 41 31 25 22 21 19
2290.0 17 13 13 13 11 6 13 13 13 9
2330.0 12 11 4 14 7 5 7 7 4 12
2370.0 9 4 9 11 10 11 17 16 18 17
2410.0 15 16 15 19 20 18 20 15 13 16
2450.0 15 14 11 14 15 16 13 14 17 15
2490.0 13 15 19 18 18 19 18 22 24 25
2530.0 30 26 26 28 29 27 26 28 29 31
2570.0 31 36 36 36 37 39 41 48 46 51
2610.0 52 54 51 55 59 61 62 63 64 68
2650.0 71 70 75 77 77 82 89 93 95 94
2690.0 92 95 90 85 79 81 80 76 81 85
2730.0 84 86 92 99 98 105 103 104 110 113
2770.0 118 123 127 134 148 162 181 199 213 235
2810.0 254 283 322 358 400 452 522 619 758 987
2850.0 1358 1959 2767 3515 3788 3534 3049 2593 2274 2055
2890.0 1885 1817 1888 2110 2466 2938 3574 4429 5685 7367
2930.0 9043 10000 9560 8383 6945 5574 4561 3911 3591 3379
2970.0 3014 2439 1794 1292 972 759 617 517 437 379
3010.0 333 296 269 242 219 199 183 168 155 141
3050.0 130 118 112 106 98 91 89 82 74 73
3090.0 72 72 71 67 62 61 61 51 57 53
3130.0 50 54 54 55 49 48 50 49 46 42
3170.0 45 45 44 43 37 41 38 38 36 35
3210.0 36 31 31 27 27 24 23 22 20 26
3250.0 22 20 20 23 19 22 17 14 18 13
3290.0 21 17 14 13 13 19 15 22 13 19
3330.0 17 20 14 19 11 11 18 21 17 22
3370.0 19 10 18 16 15 13 16 20 13 15
3410.0 16 27 16 18 19 18 16 20 16 19
3450.0 30 22 9 12 18 19 11 19 17 13
3490.0 19 18 21 18 15 15 13 10 19 18
3530.0 11 12 18 19 6 9 11 15 17 12
3570.0 17 21 28 26 16 20 23 20 17 25
3610.0 26 27 22 21 24 30 23 26 28 30
3650.0 25 30 28 24 29 27 32 23 25 31
3690.0 17 18 22 28 32 12 25 28 30 14
3730.0 12 22 19 24 7 9 18 20 9 22
3770.0 12 18 27 21 18 25 18 26 17 18
3810.0 22 26 13 13 26 8 4 10 11 30
3850.0 22 33 19 18 7 4 6 14 26 2
3890.0 20 25 23 3 4 11 30 4 21 20
3930.0 16 9 18 27 39 17 9 26 10 4
##END=
