##TITLE=Nonadecane
##JCAMP-DX=4.24
##DATA TYPE=INFRARED SPECTRUM
##ORIGIN=Sadtler Research Labs Under US-EPA Contract
##OWNER=NIST Standard Reference Data Program
##CAS REGISTRY NO=629-92-5
##MOLFORM=C 19 H 40
##XUNITS=1/CM
##YUNITS=ABSORBANCE
##XFACTOR=1.0
##YFACTOR=0.000144046
##DELTAX=4.0
##FIRSTX=450.0
##LASTX=3966.0
##FIRSTY=0.014117
##MAXX=3966
##MINX=450
##MAXY=1.44046
##MINY=0
##NPOINTS=880
##XYDATA=(X++(Y..Y))
450.0 98 82 34 279 334 170 251 173 137 172
490.0 113 158 108 221 214 146 140 87 79 141
530.0 152 51 20 144 143 94 63 84 97 187
570.0 100 98 124 128 103 77 155 115 131 104
610.0 87 121 120 96 88 101 106 96 62 85
650.0 92 69 81 82 101 130 97 89 85 120
690.0 150 116 139 156 158 164 185 212 198 205
730.0 162 217 146 171 162 117 153 132 147 129
770.0 146 159 169 162 186 206 266 249 282 260
810.0 257 259 205 177 179 153 133 149 97 89
850.0 101 103 101 112 115 100 98 79 104 117
890.0 96 94 101 71 100 101 83 78 61 88
930.0 77 94 72 86 88 99 96 98 103 100
970.0 86 97 108 105 116 124 143 153 190 204
1010.0 228 251 249 288 260 260 246 245 243 233
1050.0 226 231 230 207 218 230 237 255 233 242
1090.0 274 239 227 247 254 194 179 156 153 141
1130.0 139 123 112 107 104 94 94 87 94 93
1170.0 88 90 83 82 92 79 83 82 78 76
1210.0 82 77 77 98 92 91 91 92 103 107
1250.0 121 161 211 261 232 178 145 128 139 134
1290.0 142 145 166 172 177 178 181 177 160 155
1330.0 155 172 198 227 254 279 287 287 271 260
1370.0 238 230 233 228 213 183 161 143 137 135
1410.0 134 117 127 140 151 163 183 239 304 392
1450.0 479 561 660 722 705 631 504 358 263 217
1490.0 162 131 129 118 101 103 94 88 82 86
1530.0 66 71 69 72 62 63 65 61 58 61
1570.0 55 60 71 56 55 54 55 58 52 53
1610.0 58 53 53 64 56 59 58 61 64 65
1650.0 65 43 56 54 57 48 55 51 54 53
1690.0 57 58 59 60 65 64 67 70 79 80
1730.0 83 86 86 81 87 81 70 65 69 69
1770.0 71 71 59 61 65 60 53 54 58 53
1810.0 50 59 45 48 44 38 42 44 44 47
1850.0 42 41 46 43 44 38 43 41 43 41
1890.0 37 41 46 44 36 46 43 37 38 36
1930.0 39 36 37 41 39 37 35 34 36 37
1970.0 31 33 32 38 37 32 30 31 36 39
2010.0 32 38 47 44 42 43 50 50 38 40
2050.0 45 39 39 40 44 44 36 37 38 40
2090.0 39 36 45 40 37 32 37 35 33 31
2130.0 28 29 32 35 30 28 26 34 27 31
2170.0 33 28 32 32 27 33 36 34 34 36
2210.0 29 30 37 34 34 31 30 31 32 30
2250.0 30 26 29 32 28 33 29 25 28 31
2290.0 30 35 36 37 37 39 40 46 40 37
2330.0 45 45 40 31 42 39 43 35 32 30
2370.0 18 13 31 24 28 21 16 20 22 18
2410.0 20 24 24 18 17 19 20 18 19 16
2450.0 13 17 16 15 18 18 15 17 18 13
2490.0 11 13 15 18 15 24 24 24 25 26
2530.0 23 29 32 32 29 36 32 28 28 25
2570.0 28 31 36 30 32 32 36 39 36 33
2610.0 42 39 41 47 47 43 44 49 50 51
2650.0 52 55 58 57 57 59 59 43 29 24
2690.0 24 29 31 34 39 41 46 44 42 45
2730.0 40 39 42 28 19 17 5 2 6 15
2770.0 23 40 49 74 84 94 110 128 156 181
2810.0 206 236 269 309 352 402 468 549 679 884
2850.0 1244 1868 2776 3613 3726 3239 2658 2201 1956 1830
2890.0 1707 1671 1767 2005 2377 2833 3404 4162 5343 7115
2930.0 9056 10000 9226 7499 5694 4222 3257 2754 2659 2722
2970.0 2672 2257 1657 1186 881 693 564 468 399 344
3010.0 307 277 255 237 235 224 219 205 189 159
3050.0 143 131 129 114 107 113 108 105 106 111
3090.0 120 120 128 131 124 123 117 109 97 87
3130.0 90 84 77 85 80 78 68 55 42 41
3170.0 44 45 36 36 33 34 37 24 29 27
3210.0 24 27 23 23 19 17 14 7 14 18
3250.0 15 14 11 14 11 14 6 12 14 13
3290.0 16 14 20 12 15 13 10 13 15 18
3330.0 18 16 15 8 14 17 19 13 15 20
3370.0 18 20 16 15 18 18 25 13 18 14
3410.0 13 17 15 17 15 18 11 12 15 15
3450.0 23 25 23 22 13 14 17 15 20 12
3490.0 20 15 11 19 17 18 13 12 15 18
3530.0 14 11 14 13 7 11 12 3 21 9
3570.0 23 22 15 12 16 14 15 19 17 10
3610.0 4 22 19 18 13 14 9 9 18 20
3650.0 18 18 17 16 14 22 3 12 21 12
3690.0 23 20 21 24 17 23 23 28 35 41
3730.0 25 33 29 26 24 13 17 14 31 17
3770.0 12 20 17 13 13 29 41 35 16 9
3810.0 20 35 40 31 22 24 28 32 22 27
3850.0 11 15 28 42 42 27 30 9 24 21
3890.0 12 29 12 4 30 24 11 3 2 31
3930.0 43 22 0 34 8 14 5 2 30 71
##END=
