##TITLE=2-Penten-4-one, 2-hydroxy-5-methoxy-,
##JCAMP-DX=4.24
##DATA TYPE=INFRARED SPECTRUM
##ORIGIN=Sadtler Research Labs Under US-EPA Contract
##OWNER=NIST Standard Reference Data Program
##CAS REGISTRY NO=6290-50-2
##MOLFORM=C 6 H 10 O 3
##XUNITS=1/CM
##YUNITS=ABSORBANCE
##XFACTOR=1.0
##YFACTOR=0.000128433
##DELTAX=4.0
##FIRSTX=450.0
##LASTX=3966.0
##FIRSTY=0.013357
##MAXX=3966
##MINX=450
##MAXY=1.28433
##MINY=0
##NPOINTS=880
##XYDATA=(X++(Y..Y))
450.0 104 178 35 52 193 178 258 228 235 354
490.0 399 557 554 561 661 602 743 851 732 696
530.0 731 649 507 476 427 346 276 224 198 227
570.0 182 134 97 108 98 63 94 54 99 138
610.0 82 99 113 92 122 100 83 122 111 133
650.0 147 139 147 126 165 56 59 34 33 73
690.0 29 0 15 1 28 13 27 44 35 60
730.0 30 65 75 115 168 186 208 278 329 453
770.0 536 684 877 1017 1182 1328 1259 1011 755 536
810.0 330 220 123 62 90 61 73 97 54 103
850.0 130 160 206 226 263 257 328 413 477 532
890.0 599 685 739 839 978 1092 1256 1374 1512 1625
930.0 1694 1697 1638 1502 1409 1225 1096 995 934 933
970.0 933 972 1059 1087 1122 1153 1110 1046 987 894
1010.0 797 722 667 608 569 549 544 549 506 542
1050.0 533 547 607 638 688 762 861 990 1112 1313
1090.0 1608 1966 2446 3088 3881 4754 5539 6200 6471 6274
1130.0 5663 4819 3903 3262 2979 2876 2860 2831 2738 2619
1170.0 2443 2311 2312 2417 2696 3085 3562 3947 4109 4082
1210.0 3875 3539 3242 3116 3158 3227 3284 3285 3243 3134
1250.0 2958 2769 2558 2376 2240 2162 2104 2116 2100 2130
1290.0 2151 2170 2207 2207 2203 2173 2122 2054 1958 1922
1330.0 1915 1954 2091 2235 2399 2605 2800 2962 3045 3030
1370.0 2878 2614 2331 2122 1966 1903 1877 1911 1953 2011
1410.0 2099 2179 2279 2402 2537 2658 2708 2722 2695 2679
1450.0 2645 2633 2559 2403 2233 2033 1876 1754 1629 1524
1490.0 1423 1355 1326 1299 1269 1280 1291 1304 1303 1365
1530.0 1408 1438 1514 1576 1680 1851 1919 2102 2351 2575
1570.0 2870 3182 3601 4049 4575 5246 5912 6865 7608 8505
1610.0 9298 9549 10000 9678 9482 8921 8213 7534 6811 6243
1650.0 5548 4905 4416 3884 3472 2981 2681 2361 2124 1977
1690.0 1800 1778 1725 1728 1913 2132 2458 2823 3210 3508
1730.0 3700 3699 3591 3314 3047 2692 2268 1900 1515 1261
1770.0 1038 907 810 713 644 569 519 482 422 386
1810.0 324 285 238 199 184 143 134 125 94 97
1850.0 82 80 78 67 68 56 66 63 59 64
1890.0 50 53 56 47 56 44 44 46 33 47
1930.0 41 38 39 32 36 27 29 28 20 27
1970.0 18 20 24 13 20 16 17 22 17 21
2010.0 18 18 21 18 24 20 23 28 24 32
2050.0 26 30 36 28 37 37 36 46 43 49
2090.0 52 55 57 49 58 54 53 58 46 47
2130.0 44 34 41 32 34 34 30 32 30 29
2170.0 27 24 24 17 19 18 13 15 8 11
2210.0 10 7 12 10 14 15 13 18 18 23
2250.0 22 21 24 21 28 29 28 35 40 43
2290.0 50 47 55 54 58 55 53 53 56 60
2330.0 64 55 60 48 57 81 69 79 74 66
2370.0 76 69 78 76 74 73 68 71 68 67
2410.0 68 62 65 65 62 65 61 64 61 64
2450.0 66 64 66 69 70 71 68 77 77 76
2490.0 82 79 87 90 92 99 102 105 108 113
2530.0 122 118 121 121 122 121 115 122 120 119
2570.0 121 123 121 127 127 134 139 143 147 147
2610.0 150 147 149 150 153 160 157 164 168 167
2650.0 177 180 184 194 192 202 204 209 217 218
2690.0 224 223 232 239 242 249 250 247 256 254
2730.0 262 263 268 274 275 289 293 303 315 327
2770.0 346 357 375 404 428 463 498 541 602 672
2810.0 776 914 1121 1423 1782 2095 2254 2239 2075 1806
2850.0 1598 1465 1392 1366 1370 1417 1497 1619 1757 1867
2890.0 1960 2037 2078 2106 2121 2158 2241 2341 2455 2558
2930.0 2689 2806 2863 2826 2636 2330 2005 1718 1503 1352
2970.0 1258 1212 1184 1208 1280 1428 1605 1699 1689 1601
3010.0 1419 1165 947 810 705 640 591 550 524 497
3050.0 479 460 444 435 415 406 400 382 377 356
3090.0 345 334 317 306 293 279 272 260 242 224
3130.0 213 197 184 179 172 161 158 152 147 141
3170.0 135 133 133 136 128 122 122 122 124 117
3210.0 120 119 114 117 116 111 115 115 113 112
3250.0 110 103 104 106 99 94 91 87 94 91
3290.0 79 87 79 83 85 63 60 72 68 61
3330.0 59 59 62 55 53 40 48 46 48 47
3370.0 39 40 38 44 45 50 46 45 40 35
3410.0 46 53 45 50 60 62 73 78 84 87
3450.0 88 99 97 90 91 77 67 60 61 61
3490.0 60 51 48 51 56 36 45 38 39 48
3530.0 30 34 32 36 43 34 46 48 54 69
3570.0 73 67 71 78 79 65 60 56 46 49
3610.0 39 42 39 32 33 32 33 33 29 28
3650.0 20 27 38 23 36 17 22 32 44 44
3690.0 15 30 36 28 38 32 35 51 35 37
3730.0 43 47 50 35 32 42 41 53 48 48
3770.0 49 36 53 40 36 45 45 37 52 51
3810.0 56 27 54 43 53 68 63 62 64 65
3850.0 64 56 60 77 58 59 69 52 65 65
3890.0 76 71 73 79 63 54 57 69 73 95
3930.0 56 71 66 65 93 98 46 74 76 82
##END=
