##TITLE=1-Propanamine, 3-ethoxy-
##JCAMP-DX=4.24
##DATA TYPE=INFRARED SPECTRUM
##ORIGIN=Sadtler Research Labs Under US-EPA Contract
##OWNER=NIST Standard Reference Data Program
##CAS REGISTRY NO=6291-85-6
##MOLFORM=C 5 H 13 N O
##XUNITS=1/CM
##YUNITS=ABSORBANCE
##XFACTOR=1.0
##YFACTOR=0.000096439
##DELTAX=4.0
##FIRSTX=450.0
##LASTX=3966.0
##FIRSTY=0.000000
##MAXX=3966
##MINX=450
##MAXY=0.96439
##MINY=0
##NPOINTS=880
##XYDATA=(X++(Y..Y))
450.0 0 20 298 80 297 273 150 239 26 110
490.0 98 264 189 169 181 211 220 258 213 278
530.0 214 192 262 203 240 201 231 228 123 106
570.0 167 140 117 120 203 100 131 114 123 171
610.0 128 138 209 151 126 179 173 197 202 245
650.0 234 244 230 224 295 303 314 342 342 344
690.0 370 391 457 428 521 562 656 748 860 986
730.0 1152 1336 1572 1768 1970 2105 2342 2376 2479 2504
770.0 2477 2484 2421 2423 2277 2099 1956 1765 1579 1441
810.0 1235 1083 942 833 777 711 656 615 586 606
850.0 631 646 668 668 696 698 689 667 615 576
890.0 528 467 413 376 334 324 336 369 377 379
930.0 390 404 388 371 339 335 308 297 273 276
970.0 275 276 314 338 374 364 397 471 472 499
1010.0 564 611 698 732 822 902 943 1034 1063 1128
1050.0 1200 1282 1369 1526 1719 1876 2079 2332 2444 2697
1090.0 2975 3398 3889 4490 5311 6133 7346 8251 9367 9949
1130.0 10000 9554 8332 6683 5166 3790 2960 2455 2131 1917
1170.0 1746 1581 1427 1269 1137 997 857 730 638 570
1210.0 513 488 469 467 460 460 444 440 430 419
1250.0 395 392 389 404 420 425 442 465 484 533
1290.0 551 568 602 575 545 519 479 437 410 380
1330.0 413 495 683 894 1098 1346 1563 1613 1583 1618
1370.0 1678 1935 2125 2148 2241 1962 1529 1178 959 857
1410.0 734 713 675 651 685 644 709 723 696 694
1450.0 688 715 734 727 805 822 834 805 732 694
1490.0 585 519 428 409 381 355 291 277 232 192
1530.0 186 167 158 136 153 149 149 145 131 132
1570.0 142 151 165 193 217 245 265 316 384 473
1610.0 569 656 740 787 787 784 689 602 508 429
1650.0 342 324 250 243 192 195 173 175 167 143
1690.0 164 176 204 227 254 261 271 282 285 281
1730.0 304 274 241 210 200 177 137 119 122 114
1770.0 118 118 111 132 138 112 95 128 144 124
1810.0 110 117 108 114 122 125 118 121 124 129
1850.0 141 87 110 109 124 105 115 107 105 102
1890.0 114 112 108 118 111 109 121 107 112 109
1930.0 110 119 113 123 116 119 116 121 120 132
1970.0 137 126 134 133 135 148 142 139 130 124
2010.0 120 107 107 94 84 84 76 74 76 70
2050.0 71 70 64 65 66 67 61 72 66 69
2090.0 67 65 69 67 71 75 76 80 75 77
2130.0 79 76 77 73 73 74 69 69 67 73
2170.0 66 62 66 60 62 62 60 58 55 62
2210.0 58 53 55 59 56 60 55 63 62 62
2250.0 61 68 67 64 68 69 63 65 66 69
2290.0 80 88 109 122 141 146 166 153 179 162
2330.0 150 146 120 146 151 207 218 189 169 132
2370.0 116 109 106 112 80 51 39 35 37 31
2410.0 33 36 38 44 46 40 41 37 38 32
2450.0 33 33 36 31 36 34 36 31 32 30
2490.0 28 28 26 32 25 32 32 32 34 32
2530.0 31 33 35 40 39 45 47 49 59 54
2570.0 63 62 66 70 80 83 96 93 109 114
2610.0 125 124 127 130 136 132 134 132 135 140
2650.0 140 150 151 162 174 185 201 216 238 259
2690.0 280 311 333 355 377 392 408 421 443 459
2730.0 489 507 537 558 581 603 634 653 675 701
2770.0 732 769 803 858 909 971 1033 1098 1168 1244
2810.0 1304 1377 1450 1559 1720 1946 2275 2692 3199 3822
2850.0 4505 5259 6063 6800 7391 7667 7698 7416 6865 6154
2890.0 5431 4795 4317 4018 3922 3930 4076 4346 4672 5075
2930.0 5524 6047 6394 6494 6357 6069 5527 4953 4488 4223
2970.0 4130 4233 4312 4232 4025 3539 2860 2171 1660 1278
3010.0 983 777 629 518 457 400 371 333 302 273
3050.0 249 232 202 186 164 156 141 133 117 119
3090.0 113 114 107 104 100 97 92 94 84 90
3130.0 89 83 86 75 85 74 80 73 74 70
3170.0 76 67 81 69 71 68 71 64 70 66
3210.0 75 74 60 61 55 53 55 52 47 47
3250.0 34 37 39 34 33 34 37 35 31 24
3290.0 30 32 42 31 31 26 44 39 41 54
3330.0 70 89 102 122 145 143 130 132 100 96
3370.0 69 74 58 65 51 63 62 79 83 109
3410.0 123 145 142 131 130 112 87 82 93 88
3450.0 78 50 74 72 53 43 51 61 62 51
3490.0 52 38 34 61 52 61 46 40 46 75
3530.0 45 47 37 47 58 68 55 51 30 80
3570.0 81 51 35 54 70 77 42 62 62 59
3610.0 74 54 64 51 55 69 47 67 72 77
3650.0 55 48 52 47 69 58 66 61 63 56
3690.0 56 71 83 64 80 73 64 47 75 61
3730.0 94 64 67 79 40 50 24 48 37 41
3770.0 44 24 42 27 41 42 24 56 27 35
3810.0 47 42 24 29 37 46 44 36 64 98
3850.0 37 24 50 81 46 31 72 44 104 20
3890.0 56 34 48 52 46 55 39 51 41 84
3930.0 44 70 56 66 75 31 65 24 76 76
##END=
