##TITLE=Cyclohexanol, 4-sec-butyl-
##JCAMP-DX=4.24
##DATA TYPE=INFRARED SPECTRUM
##ORIGIN=Sadtler Research Labs Under US-EPA Contract
##OWNER=NIST Standard Reference Data Program
##CAS REGISTRY NO=6292-20-2
##MOLFORM=C 10 H 20 O
##XUNITS=1/CM
##YUNITS=ABSORBANCE
##XFACTOR=1.0
##YFACTOR=0.000087549
##DELTAX=4.0
##FIRSTX=450.0
##LASTX=3966.0
##FIRSTY=0.004027
##MAXX=3966
##MINX=450
##MAXY=0.87549
##MINY=0
##NPOINTS=880
##XYDATA=(X++(Y..Y))
450.0 46 45 90 133 123 116 55 41 86 127
490.0 121 121 102 114 67 62 62 146 158 143
530.0 93 73 33 79 27 152 182 111 39 59
570.0 106 0 110 62 129 71 190 163 187 84
610.0 30 81 31 104 30 41 127 141 92 45
650.0 25 95 101 57 63 142 90 135 91 105
690.0 35 81 118 90 121 71 60 18 61 78
730.0 82 57 97 134 48 73 52 87 93 67
770.0 117 160 155 188 158 153 110 161 133 126
810.0 124 120 119 141 119 123 124 135 111 133
850.0 145 106 124 131 141 154 143 143 128 162
890.0 236 288 305 337 267 264 237 224 230 229
930.0 260 294 289 359 488 657 812 887 862 803
970.0 703 629 537 512 506 462 494 534 587 626
1010.0 667 675 689 694 805 942 1108 1265 1541 1900
1050.0 2298 2721 2979 3004 2756 2317 1825 1438 1188 1011
1090.0 854 751 583 518 449 403 399 411 449 488
1130.0 534 569 568 554 494 441 399 376 363 356
1170.0 343 336 349 362 399 454 500 522 509 503
1210.0 485 510 580 646 687 691 664 625 598 593
1250.0 588 593 601 597 573 538 479 440 416 386
1290.0 375 356 333 345 339 337 348 370 359 357
1330.0 377 399 419 446 458 511 585 678 796 881
1370.0 977 1077 1209 1304 1315 1168 933 694 494 386
1410.0 307 267 277 273 286 323 404 571 699 941
1450.0 1157 1329 1480 1370 1263 1078 902 656 452 325
1490.0 270 181 179 140 177 169 122 136 147 116
1530.0 86 113 92 155 108 68 89 134 113 58
1570.0 82 50 89 49 44 50 38 49 51 41
1610.0 53 47 78 61 64 50 47 86 47 70
1650.0 68 152 49 52 51 80 55 55 57 113
1690.0 56 54 96 128 79 62 86 154 129 172
1730.0 219 293 243 201 127 110 77 59 56 43
1770.0 57 68 35 43 47 39 48 32 41 25
1810.0 31 24 19 18 33 32 20 18 23 43
1850.0 19 18 22 18 17 38 11 9 15 7
1890.0 21 19 17 11 14 26 15 26 25 19
1930.0 19 18 14 26 18 12 14 18 13 13
1970.0 13 7 8 7 7 16 13 9 11 12
2010.0 10 12 22 12 16 11 16 10 16 11
2050.0 5 12 12 14 4 14 9 9 4 8
2090.0 14 8 9 11 13 10 18 17 13 12
2130.0 6 12 18 11 18 11 11 12 12 10
2170.0 10 12 6 16 15 10 10 8 10 13
2210.0 19 8 16 16 16 20 15 16 21 21
2250.0 16 19 28 23 22 29 27 30 27 27
2290.0 27 31 31 26 38 51 57 51 66 77
2330.0 66 71 82 86 82 48 50 65 83 99
2370.0 77 73 55 37 28 24 28 26 26 20
2410.0 31 31 28 33 35 35 37 38 38 36
2450.0 32 38 27 26 32 38 43 34 33 38
2490.0 31 32 36 32 32 31 44 37 39 37
2530.0 37 37 46 42 44 48 60 59 60 61
2570.0 66 77 72 76 86 84 94 97 99 99
2610.0 109 117 116 121 122 127 127 133 135 135
2650.0 146 137 145 155 160 166 155 166 167 164
2690.0 172 165 160 168 157 161 161 161 159 161
2730.0 166 173 178 185 190 183 184 174 183 182
2770.0 181 190 194 200 216 224 235 242 257 283
2810.0 293 319 359 380 427 481 568 700 912 1251
2850.0 1746 2426 3239 4095 4735 5060 5034 4830 4671 4411
2890.0 4068 3580 3190 3108 3319 3791 4495 5372 6385 7514
2930.0 8595 9497 10000 9847 8995 7784 6479 5724 5729 6234
2970.0 6527 6198 5122 3716 2458 1569 992 650 491 400
3010.0 344 298 270 243 226 205 204 192 186 173
3050.0 162 145 132 138 128 122 126 105 115 109
3090.0 104 105 94 94 94 82 88 90 86 85
3130.0 88 89 89 93 81 102 79 93 89 77
3170.0 66 77 64 75 60 58 56 50 49 36
3210.0 45 37 48 31 25 40 21 41 29 22
3250.0 28 20 21 36 31 20 20 27 26 26
3290.0 29 23 30 27 28 11 19 19 20 21
3330.0 28 25 39 27 19 20 25 11 24 24
3370.0 15 17 26 16 44 31 35 38 22 22
3410.0 21 33 18 28 15 31 26 27 33 37
3450.0 29 35 29 25 21 16 23 32 16 20
3490.0 9 10 20 19 16 19 2 20 7 28
3530.0 21 15 10 15 21 15 21 14 11 28
3570.0 55 21 19 22 16 40 36 32 16 40
3610.0 60 65 57 72 83 145 182 239 326 498
3650.0 681 700 638 459 299 209 153 129 69 67
3690.0 87 58 47 54 44 61 70 59 58 70
3730.0 63 83 93 74 121 114 96 61 65 55
3770.0 60 57 60 52 47 66 69 80 104 88
3810.0 100 89 104 100 88 90 109 112 99 90
3850.0 107 145 108 99 99 110 103 83 93 84
3890.0 81 86 97 102 88 70 70 72 61 43
3930.0 43 38 31 32 33 57 0 4 4 4
##END=
