##TITLE=Hexane, 1-bromo-6-chloro-
##JCAMP-DX=4.24
##DATA TYPE=INFRARED SPECTRUM
##ORIGIN=Sadtler Research Labs Under US-EPA Contract
##OWNER=NIST Standard Reference Data Program
##CAS REGISTRY NO=6294-17-3
##MOLFORM=C 6 H 12 Br Cl
##XUNITS=1/CM
##YUNITS=ABSORBANCE
##XFACTOR=1.0
##YFACTOR=0.000060620
##DELTAX=4.0
##FIRSTX=450.0
##LASTX=3966.0
##FIRSTY=0.003637
##MAXX=3966
##MINX=450
##MAXY=0.6062
##MINY=0
##NPOINTS=880
##XYDATA=(X++(Y..Y))
450.0 60 59 51 86 128 118 124 127 123 120
490.0 113 189 32 29 12 123 131 101 118 92
530.0 83 114 137 185 215 157 324 556 447 798
570.0 989 956 586 341 216 144 61 71 58 61
610.0 96 104 125 193 218 351 452 590 854 1171
650.0 1513 1877 2122 2093 1747 1181 831 529 346 289
690.0 276 279 320 383 457 583 765 964 1242 1513
730.0 1806 2064 2233 2249 2061 1697 1338 1091 883 703
770.0 551 455 406 406 382 378 352 374 399 398
810.0 424 394 401 403 353 335 309 307 306 321
850.0 305 321 334 344 318 314 314 306 296 322
890.0 324 381 411 433 479 471 455 429 409 390
930.0 373 365 357 363 333 341 351 346 350 352
970.0 324 358 333 328 332 332 351 351 343 377
1010.0 395 403 440 469 530 611 674 715 732 718
1050.0 700 673 649 597 537 496 463 414 403 362
1090.0 324 273 271 264 288 323 360 398 403 380
1130.0 337 291 246 225 208 209 216 217 210 226
1170.0 251 266 265 277 290 318 351 428 511 636
1210.0 787 971 1145 1252 1293 1274 1266 1293 1411 1652
1250.0 2015 2388 2692 2840 2799 2535 2306 2220 2199 2217
1290.0 2268 2280 2249 2177 2086 2017 1883 1683 1456 1261
1330.0 1021 858 738 719 754 803 861 848 785 683
1370.0 590 547 480 412 357 290 275 243 226 217
1410.0 245 258 311 373 523 750 1057 1395 1757 2068
1450.0 2269 2275 2145 1883 1591 1300 937 646 467 360
1490.0 258 200 163 143 149 87 102 95 85 70
1530.0 62 72 97 60 40 74 76 102 8 36
1570.0 45 44 20 29 39 32 32 32 30 51
1610.0 40 44 40 43 28 32 71 18 41 57
1650.0 43 39 21 34 29 37 43 28 54 36
1690.0 39 62 55 37 41 41 56 48 40 62
1730.0 65 68 48 61 78 84 60 67 59 47
1770.0 50 37 27 33 23 42 12 25 25 25
1810.0 33 26 27 34 23 21 15 27 21 7
1850.0 24 23 23 23 25 22 23 12 25 26
1890.0 27 17 9 20 29 21 28 20 28 21
1930.0 27 27 21 27 17 27 26 25 33 34
1970.0 33 26 31 31 34 26 26 27 29 22
2010.0 31 37 38 39 46 54 46 44 52 45
2050.0 52 58 42 52 51 45 43 51 51 59
2090.0 57 51 43 41 44 42 34 32 25 40
2130.0 31 32 32 33 37 24 30 34 39 43
2170.0 37 36 45 45 45 44 44 45 43 41
2210.0 39 45 45 41 36 33 42 41 34 33
2250.0 32 41 41 30 27 33 37 33 34 31
2290.0 40 39 40 48 65 59 55 55 58 46
2330.0 43 37 21 24 16 32 63 50 25 0
2370.0 0 0 0 1 9 21 25 39 37 31
2410.0 31 28 27 30 28 25 26 18 29 19
2450.0 20 26 19 18 10 19 24 11 12 18
2490.0 22 21 23 17 22 22 22 22 21 29
2530.0 22 16 17 15 25 17 20 10 10 10
2570.0 10 9 15 11 3 7 7 9 14 9
2610.0 10 9 16 25 33 42 42 42 44 41
2650.0 49 71 74 87 89 90 97 98 106 125
2690.0 123 133 123 123 124 113 124 115 115 133
2730.0 107 123 125 122 125 128 123 126 120 131
2770.0 129 126 141 140 173 190 196 212 227 246
2810.0 256 286 313 336 419 472 598 764 1034 1376
2850.0 1795 2240 2700 3214 3690 3997 4029 3829 3509 3123
2890.0 2840 2738 2801 3010 3248 3484 3732 4035 4460 5056
2930.0 5898 6953 8210 9368 10000 9827 8818 7678 6908 6423
2970.0 5929 5100 4102 3203 2524 2216 2237 2468 2461 2185
3010.0 1821 1587 1349 1024 676 464 350 273 236 189
3050.0 182 173 140 134 114 104 87 78 76 66
3090.0 82 60 44 51 34 51 50 33 29 39
3130.0 36 41 38 32 45 35 17 41 26 34
3170.0 18 16 33 24 25 23 34 29 24 24
3210.0 17 24 10 24 28 12 30 27 40 15
3250.0 12 16 4 18 26 16 16 17 10 17
3290.0 24 14 14 2 22 21 13 16 16 31
3330.0 32 25 40 22 32 34 32 20 1 26
3370.0 47 25 39 8 32 29 23 27 37 45
3410.0 33 33 31 30 31 46 37 38 31 36
3450.0 15 23 43 40 51 42 59 53 28 20
3490.0 36 37 52 35 22 39 35 32 42 36
3530.0 53 48 36 37 48 23 68 26 61 63
3570.0 16 27 62 71 71 47 79 61 89 88
3610.0 73 77 95 66 90 86 46 71 103 121
3650.0 154 125 160 183 224 244 214 183 178 172
3690.0 149 124 143 126 109 145 111 121 128 142
3730.0 137 156 111 145 155 113 103 92 82 89
3770.0 91 101 107 122 100 90 122 136 146 136
3810.0 126 133 121 128 123 133 134 137 133 125
3850.0 129 157 129 132 134 113 78 102 112 141
3890.0 121 127 129 128 132 135 152 156 144 149
3930.0 145 154 163 175 174 169 158 150 132 135
##END=
