##TITLE=3-Amino-2-chloropyridine
##JCAMP-DX=4.24
##DATA TYPE=INFRARED SPECTRUM
##ORIGIN=Sadtler Research Labs Under US-EPA Contract
##OWNER=NIST Standard Reference Data Program
##CAS REGISTRY NO=6298-19-7
##MOLFORM=C 5 H 5 Cl N 2
##XUNITS=1/CM
##YUNITS=ABSORBANCE
##XFACTOR=1.0
##YFACTOR=0.000119220
##DELTAX=4.0
##FIRSTX=450.0
##LASTX=3966.0
##FIRSTY=0.042323
##MAXX=3966
##MINX=450
##MAXY=1.1922
##MINY=0
##NPOINTS=880
##XYDATA=(X++(Y..Y))
450.0 355 335 437 573 571 557 579 514 441 322
490.0 273 249 205 195 141 179 142 139 138 178
530.0 210 221 295 334 452 548 633 618 593 537
570.0 454 365 251 211 154 161 157 174 180 183
610.0 210 225 305 315 360 386 443 474 494 572
650.0 605 700 753 1043 1206 1864 2303 2522 2691 2646
690.0 2618 2106 1602 1401 1358 1476 1573 1670 1726 1893
730.0 2264 1945 1506 1459 1251 1079 908 831 862 1042
770.0 1358 1705 2093 2530 3450 3487 2669 2231 1906 1438
810.0 1075 737 533 400 378 406 500 550 580 610
850.0 576 494 355 266 203 159 137 118 93 78
890.0 81 66 68 80 71 61 68 69 57 66
930.0 59 71 62 70 67 64 84 102 73 53
970.0 64 58 59 56 75 84 83 78 66 57
1010.0 34 37 46 91 185 354 605 900 1170 1346
1050.0 1442 1430 1336 1148 966 941 1035 1219 1502 1941
1090.0 2513 3230 4206 5307 6220 6577 6529 6160 5312 4048
1130.0 2816 2048 1788 1591 1341 1067 785 551 392 349
1170.0 353 351 326 304 257 215 154 122 153 232
1210.0 411 682 1058 1400 1622 1702 1639 1463 1117 719
1250.0 461 374 317 291 271 259 217 178 201 298
1290.0 521 863 1376 1955 2389 2501 2442 2370 1973 1284
1330.0 684 366 210 140 92 68 47 39 46 17
1370.0 23 10 18 0 45 76 132 223 328 600
1410.0 1089 2239 4167 6902 9071 9827 10000 9585 8899 6475
1450.0 4877 4555 4200 3973 3674 2874 1748 957 575 404
1490.0 381 328 351 339 369 369 331 320 302 280
1530.0 281 306 351 465 641 901 1315 1746 2148 2254
1570.0 2380 2427 2148 1731 1570 1683 1915 2439 3255 4404
1610.0 5369 5812 6072 6044 5470 4311 3285 2201 1501 1024
1650.0 751 563 439 354 308 294 286 279 284 298
1690.0 256 247 236 212 171 137 134 137 116 99
1730.0 115 121 112 99 103 107 98 97 96 91
1770.0 100 114 116 152 170 202 214 209 198 159
1810.0 126 94 73 62 64 69 76 92 122 152
1850.0 154 150 147 141 120 95 62 47 43 44
1890.0 60 84 124 166 191 197 182 160 120 61
1930.0 23 14 8 15 15 14 17 21 24 30
1970.0 33 33 37 35 36 38 37 32 28 27
2010.0 23 25 24 22 17 20 17 18 20 18
2050.0 19 18 20 17 20 18 17 17 16 18
2090.0 21 28 35 47 55 63 67 67 65 58
2130.0 54 48 50 46 44 44 41 34 29 29
2170.0 23 22 18 18 18 15 14 11 8 6
2210.0 5 1 3 2 3 7 11 18 26 36
2250.0 49 66 84 109 130 140 147 142 123 110
2290.0 103 101 107 107 109 118 99 88 89 78
2330.0 61 63 56 71 97 98 108 99 122 104
2370.0 101 99 113 116 106 90 84 80 77 70
2410.0 55 44 31 24 20 17 15 15 16 19
2450.0 25 24 27 25 24 25 30 35 45 54
2490.0 60 66 72 80 84 91 102 110 115 120
2530.0 121 116 105 90 78 64 51 43 35 35
2570.0 32 30 25 23 16 15 14 16 18 22
2610.0 27 30 33 32 30 25 21 17 14 16
2650.0 15 21 22 25 25 28 29 32 35 32
2690.0 34 29 28 28 26 22 22 20 18 19
2730.0 18 18 16 17 17 23 20 21 20 20
2770.0 19 20 22 15 18 18 18 18 19 22
2810.0 20 20 18 20 18 22 22 23 22 24
2850.0 23 25 28 27 25 25 25 17 17 14
2890.0 11 12 10 11 12 18 19 22 24 24
2930.0 24 22 22 18 16 14 15 12 14 16
2970.0 17 21 31 40 52 68 86 108 128 148
3010.0 173 203 240 283 338 412 515 635 740 815
3050.0 942 1153 1374 1566 1675 1770 1817 1692 1387 1043
3090.0 743 471 264 153 106 84 79 85 90 93
3130.0 100 102 100 98 93 87 81 75 67 65
3170.0 71 78 90 96 100 103 104 98 87 78
3210.0 67 62 59 54 48 42 38 35 26 23
3250.0 19 15 16 11 11 6 6 2 4 7
3290.0 7 10 11 11 11 13 13 10 14 14
3330.0 16 21 21 22 25 25 36 42 48 60
3370.0 71 94 124 176 249 384 595 903 1202 1410
3410.0 1512 1608 1649 1476 1167 916 748 583 361 207
3450.0 144 125 123 137 161 203 269 364 504 693
3490.0 950 1184 1292 1361 1384 1336 1194 1087 978 822
3530.0 702 610 464 270 150 88 60 45 37 37
3570.0 31 27 19 12 15 16 12 6 12 7
3610.0 16 9 12 16 6 15 9 5 3 3
3650.0 11 1 9 9 5 14 18 22 7 13
3690.0 13 14 5 11 4 6 2 2 7 4
3730.0 13 13 14 14 24 6 11 1 8 10
3770.0 2 4 3 12 4 7 6 5 9 1
3810.0 1 1 1 4 1 3 8 18 26 33
3850.0 42 59 55 54 41 41 27 18 30 26
3890.0 26 18 13 33 27 28 24 23 23 21
3930.0 24 20 24 24 31 32 29 30 16 20
##END=
