##TITLE=Hexacosane
##JCAMP-DX=4.24
##DATA TYPE=INFRARED SPECTRUM
##ORIGIN=Sadtler Research Labs Under US-EPA Contract
##OWNER=NIST Standard Reference Data Program
##CAS REGISTRY NO=630-01-3
##MOLFORM=C 26 H 54
##XUNITS=1/CM
##YUNITS=ABSORBANCE
##XFACTOR=1.0
##YFACTOR=0.000077817
##DELTAX=4.0
##FIRSTX=450.0
##LASTX=3966.0
##FIRSTY=0.000000
##MAXX=3966
##MINX=450
##MAXY=0.77817
##MINY=0
##NPOINTS=880
##XYDATA=(X++(Y..Y))
450.0 0 462 508 955 848 476 817 523 688 771
490.0 510 781 598 787 612 581 603 639 655 625
530.0 761 653 669 682 911 686 499 657 770 580
570.0 495 588 597 667 660 607 678 630 601 612
610.0 592 690 716 647 668 624 682 738 761 631
650.0 607 616 579 620 600 756 649 635 582 702
690.0 752 767 743 766 783 814 885 814 909 921
730.0 803 933 821 952 1022 1038 1057 920 799 698
770.0 641 633 588 522 489 486 528 583 754 863
810.0 1023 1047 988 978 902 886 868 838 722 667
850.0 658 685 717 741 712 700 681 617 649 634
890.0 614 626 591 561 615 580 550 570 554 583
930.0 554 525 518 557 565 575 562 554 569 572
970.0 540 561 580 552 560 571 614 618 673 707
1010.0 749 805 827 857 830 864 872 888 885 885
1050.0 867 845 865 804 833 858 885 932 929 1003
1090.0 1078 1130 1146 1220 1208 1120 1060 1003 1010 980
1130.0 953 918 896 929 926 882 886 879 924 948
1170.0 945 948 939 951 983 987 1004 1022 1029 1042
1210.0 1065 1101 1100 1164 1221 1205 1219 1241 1243 1202
1250.0 1166 1152 1233 1345 1187 1039 1034 1051 1115 1137
1290.0 1189 1224 1266 1312 1332 1328 1299 1249 1194 1164
1330.0 1148 1166 1227 1290 1319 1373 1408 1418 1421 1423
1370.0 1398 1414 1451 1437 1392 1348 1330 1303 1271 1258
1410.0 1256 1194 1221 1220 1248 1292 1368 1498 1660 1783
1450.0 1962 2151 2379 2498 2480 2268 2001 1806 1733 1639
1490.0 1567 1490 1468 1453 1442 1481 1571 1624 1768 1921
1530.0 1941 1745 1476 1253 1110 1042 1001 990 966 1034
1570.0 1079 1140 1240 1285 1300 1321 1285 1204 1128 1080
1610.0 1053 1033 1036 1027 922 805 774 763 764 801
1650.0 775 792 835 872 875 904 922 931 935 918
1690.0 920 915 909 874 907 904 906 883 890 888
1730.0 847 843 803 780 753 707 670 633 597 594
1770.0 587 575 565 558 550 540 534 532 553 542
1810.0 533 536 518 525 517 513 525 518 525 519
1850.0 526 523 528 518 511 522 519 516 518 517
1890.0 524 526 517 510 504 513 504 510 503 489
1930.0 493 486 496 497 500 483 480 489 483 482
1970.0 479 475 471 486 482 471 467 480 481 482
2010.0 485 489 500 493 496 488 492 494 489 484
2050.0 485 485 478 479 491 487 475 479 474 478
2090.0 482 476 483 474 475 471 475 472 477 476
2130.0 492 500 506 515 513 506 517 533 524 519
2170.0 505 517 532 533 532 531 519 496 474 471
2210.0 456 453 465 461 467 467 463 461 468 462
2250.0 466 472 479 472 483 488 482 484 487 494
2290.0 505 513 519 520 531 538 525 526 501 517
2330.0 523 531 525 519 580 531 484 478 487 532
2370.0 544 566 573 540 514 486 465 471 468 470
2410.0 470 484 479 478 478 487 487 490 492 491
2450.0 481 487 494 491 496 498 490 496 494 484
2490.0 481 468 470 460 459 461 460 454 445 469
2530.0 475 471 458 451 449 458 474 490 524 542
2570.0 549 549 557 560 562 553 568 570 567 569
2610.0 579 580 580 583 585 591 589 595 604 600
2650.0 600 617 623 634 637 636 635 623 616 610
2690.0 613 618 621 621 629 642 636 645 654 653
2730.0 654 649 653 630 626 621 607 611 617 626
2770.0 650 676 685 723 744 765 804 821 863 901
2810.0 949 1003 1073 1144 1229 1354 1506 1726 2089 2661
2850.0 3518 4445 5044 5079 4618 3969 3450 3086 2862 2814
2890.0 2866 3096 3407 3790 4267 4850 5556 6481 7646 8927
2930.0 9952 10000 8862 7210 5710 4558 3887 3521 3291 3078
2970.0 2754 2328 1938 1641 1419 1270 1170 1091 1020 963
3010.0 923 886 875 855 848 835 786 746 729 696
3050.0 695 692 701 694 691 697 685 662 652 663
3090.0 650 643 645 642 630 609 587 571 560 547
3130.0 561 560 562 557 545 557 548 546 537 535
3170.0 546 554 545 539 531 539 549 520 525 525
3210.0 534 535 526 535 527 534 522 516 520 535
3250.0 528 529 525 533 532 539 532 528 529 539
3290.0 539 531 541 541 542 527 544 527 535 529
3330.0 527 536 533 514 525 519 538 521 512 520
3370.0 521 512 512 498 526 508 511 481 512 493
3410.0 513 494 506 497 497 512 498 490 481 497
3450.0 519 508 495 506 483 510 498 502 510 495
3490.0 492 504 517 497 497 513 507 503 499 502
3530.0 509 508 491 495 486 484 506 518 495 505
3570.0 506 521 472 477 454 478 470 480 490 462
3610.0 446 462 482 492 484 466 475 503 517 469
3650.0 490 474 508 498 478 503 496 492 471 487
3690.0 493 520 469 494 494 464 503 536 517 513
3730.0 470 489 521 516 492 462 516 508 536 485
3770.0 501 518 488 477 517 492 514 460 463 446
3810.0 470 457 497 500 492 472 468 532 534 559
3850.0 453 452 509 597 547 469 541 497 508 488
3890.0 468 481 506 486 496 464 444 444 469 497
3930.0 482 483 444 481 480 484 475 507 528 547
##END=
