##TITLE=Carbon monoxide
##JCAMP-DX=4.24
##DATA TYPE=INFRARED SPECTRUM
##ORIGIN=Sadtler Research Labs Under US-EPA Contract
##OWNER=NIST Standard Reference Data Program
##CAS REGISTRY NO=630-08-0
##MOLFORM=C O
##XUNITS=1/CM
##YUNITS=ABSORBANCE
##XFACTOR=1.0
##YFACTOR=0.000027206
##DELTAX=4.0
##FIRSTX=450.0
##LASTX=3966.0
##FIRSTY=0.008924
##MAXX=3966
##MINX=450
##MAXY=0.27206
##MINY=0
##NPOINTS=880
##XYDATA=(X++(Y..Y))
450.0 328 200 11 263 120 153 174 315 134 200
490.0 222 224 229 317 302 167 233 187 229 281
530.0 261 278 206 240 116 165 191 173 151 215
570.0 204 142 171 271 160 151 240 185 168 277
610.0 209 258 167 281 204 147 179 187 191 212
650.0 208 258 261 238 320 266 189 238 271 219
690.0 177 197 260 234 198 163 146 254 153 210
730.0 165 206 168 227 212 155 168 175 227 151
770.0 159 171 162 166 206 219 151 232 192 194
810.0 177 186 213 183 208 200 215 190 176 191
850.0 194 181 165 153 144 175 155 169 183 185
890.0 181 198 173 188 173 159 181 175 191 162
930.0 192 218 181 161 176 186 182 182 178 157
970.0 172 195 179 183 159 162 154 158 161 159
1010.0 158 150 164 166 173 161 183 162 151 167
1050.0 177 159 150 168 162 157 150 162 168 172
1090.0 162 170 175 158 168 149 164 137 154 147
1130.0 151 147 148 157 157 150 146 141 131 147
1170.0 160 146 154 147 151 144 148 143 154 132
1210.0 145 160 150 162 160 143 136 137 143 166
1250.0 151 159 138 140 136 127 140 143 128 131
1290.0 122 129 127 111 133 120 117 132 134 148
1330.0 145 151 123 123 132 130 136 130 119 142
1370.0 134 126 131 128 119 123 111 99 114 124
1410.0 120 120 115 141 126 110 93 100 119 104
1450.0 115 98 142 104 86 107 112 108 100 121
1490.0 84 132 118 114 93 88 95 86 104 101
1530.0 113 77 128 103 99 108 109 128 122 105
1570.0 98 102 115 103 90 99 96 106 95 104
1610.0 117 109 107 86 99 96 119 99 121 113
1650.0 109 121 122 93 100 100 97 89 102 119
1690.0 96 97 114 69 81 78 84 90 105 73
1730.0 69 117 87 85 55 88 81 93 84 98
1770.0 95 79 89 74 101 79 96 72 76 97
1810.0 86 83 81 76 61 82 78 84 56 78
1850.0 63 62 55 54 55 33 92 64 77 60
1890.0 90 69 65 71 58 85 66 100 86 92
1930.0 83 90 86 86 88 75 107 101 128 85
1970.0 138 119 136 131 170 257 290 372 378 496
2010.0 658 935 1051 1046 1155 1468 2010 2238 2303 2487
2050.0 2874 3007 3422 3744 4430 5061 5341 5769 6062 6171
2090.0 6005 6325 6497 7073 7152 7874 7923 7844 7734 7050
2130.0 6812 5876 6025 2373 2798 5076 6477 7655 8514 8689
2170.0 9613 9625 10000 9660 9799 9289 8841 8313 7691 7034
2210.0 6261 5676 4867 4250 3532 3023 2398 1957 1548 1172
2250.0 843 539 409 223 170 117 112 56 75 83
2290.0 88 96 88 132 67 133 98 114 126 146
2330.0 149 72 91 63 117 72 142 113 68 86
2370.0 76 98 69 93 22 34 6 42 32 41
2410.0 29 41 35 16 25 8 36 31 44 34
2450.0 37 35 24 33 21 41 22 32 15 31
2490.0 16 26 27 13 15 18 22 15 41 32
2530.0 44 29 32 36 13 37 44 54 32 52
2570.0 38 46 48 51 48 53 52 33 49 27
2610.0 47 28 30 34 33 30 24 45 33 57
2650.0 30 48 29 40 29 33 39 17 31 33
2690.0 53 48 35 36 34 42 46 44 40 53
2730.0 38 46 33 39 46 20 20 24 36 38
2770.0 35 27 25 23 38 14 13 25 45 28
2810.0 31 33 25 22 16 29 33 34 55 40
2850.0 49 39 36 26 30 41 29 23 38 43
2890.0 26 33 25 39 34 38 22 28 25 33
2930.0 25 33 47 49 56 38 57 46 31 39
2970.0 36 53 45 39 52 60 47 59 69 37
3010.0 28 50 40 42 36 29 32 45 47 54
3050.0 48 51 43 41 47 47 29 55 43 44
3090.0 64 45 48 29 36 20 34 45 55 48
3130.0 51 44 37 55 31 48 51 47 47 52
3170.0 35 18 43 34 61 48 65 21 35 42
3210.0 34 61 44 25 24 37 36 74 52 49
3250.0 11 39 30 37 47 37 62 34 47 39
3290.0 57 44 35 56 43 41 23 58 55 56
3330.0 51 41 69 75 38 50 54 32 46 70
3370.0 66 44 45 60 74 77 43 65 74 60
3410.0 53 39 58 43 71 84 44 39 51 35
3450.0 68 62 60 30 45 67 25 28 15 59
3490.0 47 68 23 15 41 77 66 64 47 0
3530.0 7 41 62 61 66 41 72 50 52 34
3570.0 37 64 34 70 67 27 43 35 50 40
3610.0 76 19 40 25 36 77 58 35 77 60
3650.0 44 51 62 57 56 58 17 58 49 54
3690.0 66 59 99 76 91 64 58 44 59 63
3730.0 49 8 108 62 109 62 102 55 91 68
3770.0 38 65 91 78 87 50 53 60 85 58
3810.0 107 96 117 75 74 111 68 77 94 19
3850.0 25 124 84 68 65 53 73 41 45 78
3890.0 22 78 29 76 96 93 24 73 30 74
3930.0 57 56 44 14 36 57 128 40 46 1
##END=
