##TITLE=N-Phthaloyl-L-valine
##JCAMP-DX=4.24
##DATA TYPE=INFRARED SPECTRUM
##ORIGIN=Sadtler Research Labs Under US-EPA Contract
##OWNER=NIST Standard Reference Data Program
##CAS REGISTRY NO=6306-54-3
##MOLFORM=C 13 H 13 N O 4
##XUNITS=1/CM
##YUNITS=ABSORBANCE
##XFACTOR=1.0
##YFACTOR=0.000055997
##DELTAX=4.0
##FIRSTX=450.0
##LASTX=3966.0
##FIRSTY=0.000000
##MAXX=3966
##MINX=450
##MAXY=0.55997
##MINY=0
##NPOINTS=880
##XYDATA=(X++(Y..Y))
450.0 0 53 64 155 151 183 166 132 111 115
490.0 171 173 179 190 244 295 324 411 494 682
530.0 778 604 449 395 361 401 380 392 488 534
570.0 532 438 306 256 241 269 323 364 425 462
610.0 493 520 610 725 903 1101 1239 1236 1123 907
650.0 762 610 532 430 366 353 288 288 307 330
690.0 407 462 594 615 830 1422 2727 4397 4592 3048
730.0 1530 749 435 360 355 368 401 378 364 320
770.0 276 226 209 239 294 361 310 224 179 162
810.0 183 209 212 190 205 225 213 159 130 96
850.0 92 94 138 156 180 217 244 254 287 352
890.0 458 631 844 1024 998 779 500 325 271 277
930.0 300 301 295 305 340 374 419 410 383 365
970.0 338 304 276 274 307 365 433 471 435 369
1010.0 402 513 518 430 368 351 354 367 392 441
1050.0 550 724 1002 1408 1829 2081 2133 2029 1866 1666
1090.0 1461 1319 1292 1379 1536 1690 1755 1754 1714 1680
1130.0 1646 1629 1597 1529 1454 1405 1418 1461 1490 1505
1170.0 1518 1461 1377 1314 1279 1274 1253 1178 1094 1007
1210.0 935 867 804 747 691 636 588 557 533 523
1250.0 526 557 604 663 711 748 768 783 816 872
1290.0 932 947 977 1038 1146 1291 1476 1689 1868 1998
1330.0 2045 2048 2138 2361 2707 3064 3290 3466 3732 4203
1370.0 4936 6072 7267 7780 6865 5237 3760 2640 1836 1330
1410.0 1039 881 864 779 684 539 448 401 373 369
1450.0 414 478 636 753 1068 1129 789 520 297 217
1490.0 182 131 134 111 144 163 143 155 194 164
1530.0 180 175 212 235 237 222 232 265 261 251
1570.0 274 300 341 385 414 490 522 556 589 676
1610.0 731 688 624 529 509 454 485 472 476 493
1650.0 544 572 606 639 713 804 916 1052 1247 1528
1690.0 1848 2299 2906 3749 4813 5953 6990 7609 7568 7086
1730.0 7095 8148 9765 10000 8096 5414 3744 3082 2918 3003
1770.0 3374 3850 4389 4893 4896 4214 3125 2167 1482 1066
1810.0 810 647 522 442 371 324 281 246 238 215
1850.0 184 147 131 121 118 126 108 103 94 86
1890.0 86 81 78 89 92 99 98 96 96 72
1930.0 77 79 92 97 93 71 64 58 54 68
1970.0 72 73 65 55 49 49 47 36 32 32
2010.0 27 27 32 27 23 23 22 22 20 23
2050.0 22 23 23 27 26 27 25 26 25 26
2090.0 25 22 20 23 20 20 25 26 26 24
2130.0 24 33 31 32 30 36 36 36 34 39
2170.0 38 41 39 38 44 43 40 42 43 43
2210.0 46 50 49 53 51 59 61 64 67 72
2250.0 76 77 83 88 86 91 96 108 121 128
2290.0 138 154 168 180 184 197 175 164 164 139
2330.0 113 101 104 115 131 167 123 137 133 112
2370.0 124 152 168 183 165 135 118 116 121 122
2410.0 125 126 132 136 140 150 151 153 160 162
2450.0 164 162 165 166 166 163 163 164 162 162
2490.0 164 159 163 163 166 165 166 166 163 165
2530.0 162 164 172 168 173 170 167 170 168 163
2570.0 163 165 168 169 168 165 167 170 167 170
2610.0 170 171 174 176 175 179 181 174 178 181
2650.0 183 180 173 176 181 181 188 187 188 186
2690.0 188 190 190 188 187 186 182 187 182 192
2730.0 194 198 196 201 198 205 210 211 209 217
2770.0 221 227 230 238 245 245 243 243 247 245
2810.0 249 257 259 266 271 281 286 292 306 313
2850.0 333 347 372 408 458 532 610 679 718 741
2890.0 735 721 717 742 777 814 834 834 857 903
2930.0 951 993 1009 996 982 964 987 1067 1226 1457
2970.0 1692 1827 1753 1470 1145 892 743 656 589 536
3010.0 487 440 411 404 399 403 410 410 425 433
3050.0 452 473 510 551 558 542 522 533 567 591
3090.0 606 574 528 473 435 422 408 402 405 404
3130.0 401 394 395 401 404 410 407 408 412 417
3170.0 418 419 426 422 433 438 435 439 448 457
3210.0 456 456 457 454 461 456 462 463 459 462
3250.0 463 463 473 465 470 484 478 483 485 488
3290.0 489 481 484 495 486 488 490 497 494 479
3330.0 477 473 468 460 458 458 453 453 440 433
3370.0 423 418 404 395 390 382 369 354 346 329
3410.0 319 321 305 291 288 277 271 272 263 256
3450.0 248 252 256 257 252 251 251 254 241 228
3490.0 232 231 223 233 219 220 207 188 181 173
3530.0 161 155 146 140 149 121 124 154 224 460
3570.0 796 1090 1191 1011 673 343 169 92 80 68
3610.0 85 78 66 59 47 72 51 46 59 51
3650.0 73 58 59 57 54 67 47 72 43 57
3690.0 66 58 52 43 55 64 63 65 69 69
3730.0 68 86 84 61 99 62 88 69 68 83
3770.0 70 68 62 81 67 67 57 70 63 70
3810.0 61 78 86 81 80 64 69 86 102 92
3850.0 85 98 79 83 100 99 93 74 96 85
3890.0 83 74 84 95 99 86 81 91 108 92
3930.0 109 99 97 90 90 80 96 86 103 70
##END=
