##TITLE=Benzene, 1,4-dibromo-2,6-dinitro-
##JCAMP-DX=4.24
##DATA TYPE=INFRARED SPECTRUM
##ORIGIN=Sadtler Research Labs Under US-EPA Contract
##OWNER=NIST Standard Reference Data Program
##CAS REGISTRY NO=6310-99-2
##MOLFORM=C 6 H 2 Br 2 N 2 O 4
##XUNITS=1/CM
##YUNITS=ABSORBANCE
##XFACTOR=1.0
##YFACTOR=0.000082123
##DELTAX=4.0
##FIRSTX=450.0
##LASTX=3966.0
##FIRSTY=0.078920
##MAXX=3966
##MINX=450
##MAXY=0.82123
##MINY=0
##NPOINTS=880
##XYDATA=(X++(Y..Y))
450.0 961 348 29 378 324 228 396 354 468 215
490.0 39 374 72 111 316 307 421 451 616 661
530.0 797 662 508 548 366 278 525 548 519 381
570.0 380 284 217 281 309 225 166 301 312 177
610.0 174 245 118 212 175 162 182 200 323 238
650.0 244 261 305 255 185 262 302 151 142 220
690.0 258 154 222 255 230 227 214 206 340 319
730.0 351 335 459 408 388 232 343 305 274 271
770.0 237 308 300 262 282 295 381 396 404 370
810.0 400 446 506 627 821 1176 2063 2996 3431 2666
850.0 1445 765 465 289 248 242 287 322 376 542
890.0 791 1118 1239 984 577 400 287 221 163 200
930.0 194 178 172 149 164 146 165 153 143 217
970.0 162 162 211 150 135 148 155 150 162 186
1010.0 144 190 180 171 224 254 245 305 392 555
1050.0 748 1013 1404 2008 2584 2800 2439 1661 1045 663
1090.0 482 360 342 353 275 372 314 291 212 304
1130.0 226 254 225 213 206 209 216 221 221 229
1170.0 249 247 257 248 269 284 355 371 367 368
1210.0 321 297 261 273 264 262 293 344 397 581
1250.0 868 1255 1428 1184 760 459 363 368 377 411
1290.0 454 467 538 580 658 745 891 1097 1448 2093
1330.0 3254 4784 5745 5477 4245 3436 3510 3980 4122 3332
1370.0 2095 1229 884 806 761 761 784 792 775 760
1410.0 716 664 554 548 533 585 652 761 1018 1319
1450.0 1669 1842 1549 1096 776 505 442 427 449 450
1490.0 459 523 550 650 664 791 993 1111 1306 1705
1530.0 2095 2610 3016 3664 4569 5751 7270 8697 9947 10000
1570.0 8533 6880 5565 4788 4090 3367 2770 2204 1710 1262
1610.0 945 661 516 413 363 336 241 226 223 183
1650.0 144 14 140 127 111 74 67 113 83 50
1690.0 101 125 17 16 62 112 84 29 101 139
1730.0 125 76 100 124 113 102 132 134 145 188
1770.0 142 129 143 131 109 102 57 92 89 97
1810.0 99 88 113 104 85 77 77 109 69 64
1850.0 73 99 79 82 76 46 72 79 79 72
1890.0 79 84 91 85 91 88 85 85 75 89
1930.0 86 80 74 66 65 73 62 64 56 57
1970.0 56 54 55 52 60 53 47 51 50 49
2010.0 50 52 47 47 48 51 49 57 48 45
2050.0 48 45 50 44 46 49 40 45 48 43
2090.0 48 47 52 49 45 48 47 44 47 42
2130.0 40 40 40 39 35 35 43 43 42 39
2170.0 38 43 45 42 41 42 47 42 44 37
2210.0 44 42 41 38 35 44 39 40 33 36
2250.0 30 28 30 28 31 35 37 47 54 52
2290.0 62 75 86 92 102 106 96 73 87 61
2330.0 54 66 42 50 63 105 81 80 65 67
2370.0 82 75 83 94 77 60 52 48 52 51
2410.0 55 52 47 44 43 46 43 38 40 40
2450.0 36 41 42 47 50 46 50 42 42 44
2490.0 45 46 46 42 36 37 40 34 37 38
2530.0 40 37 40 38 43 41 41 40 38 41
2570.0 43 51 45 44 47 46 44 43 52 50
2610.0 53 57 54 61 60 58 62 59 63 69
2650.0 68 69 80 83 89 107 121 129 133 139
2690.0 139 129 119 115 97 97 105 88 88 86
2730.0 85 81 69 75 69 69 73 63 63 66
2770.0 59 66 63 74 74 71 73 77 81 90
2810.0 84 85 83 81 90 91 91 94 102 115
2850.0 131 141 138 157 157 158 163 186 191 211
2890.0 228 241 249 247 246 249 244 232 225 224
2930.0 208 196 167 156 146 127 115 97 94 93
2970.0 89 83 91 93 88 95 101 107 107 106
3010.0 99 110 114 111 120 110 119 123 117 115
3050.0 98 105 107 111 113 108 121 131 147 174
3090.0 235 352 462 471 390 223 132 96 91 75
3130.0 76 74 68 68 65 56 58 65 51 51
3170.0 41 44 42 42 33 46 44 51 38 35
3210.0 43 41 46 53 56 57 40 47 47 29
3250.0 48 54 50 31 46 46 49 47 43 39
3290.0 44 50 48 61 53 59 36 41 44 53
3330.0 63 56 75 56 48 42 52 61 61 50
3370.0 40 59 48 63 60 58 54 71 73 66
3410.0 58 55 61 65 65 70 63 58 64 62
3450.0 66 39 69 77 59 40 58 49 88 80
3490.0 68 66 49 82 88 65 83 64 62 84
3530.0 79 82 83 73 79 79 77 91 79 88
3570.0 87 75 66 67 69 96 75 81 55 73
3610.0 66 93 89 58 49 61 41 59 77 62
3650.0 74 24 79 64 66 57 43 55 65 90
3690.0 32 88 105 57 56 56 50 70 101 124
3730.0 83 57 76 34 34 2 86 85 113 70
3770.0 90 92 80 101 82 64 103 81 56 10
3810.0 64 51 82 46 86 94 53 31 42 53
3850.0 55 0 111 96 99 93 91 71 65 76
3890.0 112 87 79 120 103 94 76 25 100 46
3930.0 89 68 107 122 68 100 95 111 111 104
##END=
