##TITLE=1,1,2,2-Ethanetetracarboxylic acid, tetraethyl ester
##JCAMP-DX=4.24
##DATA TYPE=INFRARED SPECTRUM
##ORIGIN=Sadtler Research Labs Under US-EPA Contract
##OWNER=NIST Standard Reference Data Program
##CAS REGISTRY NO=632-56-4
##MOLFORM=C 14 H 22 O 8
##XUNITS=1/CM
##YUNITS=ABSORBANCE
##XFACTOR=1.0
##YFACTOR=0.000083789
##DELTAX=4.0
##FIRSTX=450.0
##LASTX=3966.0
##FIRSTY=0.007709
##MAXX=3966
##MINX=450
##MAXY=0.83789
##MINY=0
##NPOINTS=880
##XYDATA=(X++(Y..Y))
450.0 92 76 31 128 68 51 72 32 31 43
490.0 15 10 1 45 30 20 31 52 94 75
530.0 45 78 116 92 136 147 134 145 133 167
570.0 181 249 288 308 362 334 332 269 226 207
610.0 179 178 166 154 135 133 126 112 87 87
650.0 85 63 80 74 84 116 101 84 97 104
690.0 107 126 123 122 123 99 59 70 73 56
730.0 69 76 49 58 57 58 73 81 91 95
770.0 109 102 102 113 119 114 123 127 116 134
810.0 135 138 134 137 134 155 160 189 220 264
850.0 340 467 593 669 656 531 402 278 202 164
890.0 150 133 112 95 106 109 115 130 146 184
930.0 233 276 328 340 327 296 250 219 197 191
970.0 195 206 224 249 265 300 322 362 420 509
1010.0 653 896 1252 1768 2465 3235 3759 3844 3499 2869
1050.0 2183 1621 1242 1013 874 791 768 777 834 950
1090.0 1122 1357 1586 1699 1621 1491 1388 1339 1364 1491
1130.0 1746 2153 2729 3432 4167 4846 5449 5898 6071 5880
1170.0 5506 5108 4730 4335 3985 3769 3692 3664 3609 3576
1210.0 3584 3691 3872 4102 4301 4420 4424 4336 4210 4080
1250.0 4021 4058 4177 4287 4380 4455 4563 4725 4834 4817
1290.0 4605 4343 4121 4007 3861 3539 3026 2473 2013 1669
1330.0 1438 1282 1189 1126 1042 897 726 635 722 1160
1370.0 1760 1894 1419 949 735 671 659 647 595 521
1410.0 456 408 374 349 335 328 335 366 408 458
1450.0 518 536 533 566 649 739 757 672 535 393
1490.0 288 228 196 162 137 128 120 112 109 103
1530.0 95 86 81 69 65 57 56 51 54 56
1570.0 61 53 53 53 53 53 57 52 49 51
1610.0 49 48 46 41 36 25 32 44 63 80
1650.0 105 103 127 128 147 156 176 191 213 234
1690.0 259 304 337 404 475 573 672 787 915 1065
1730.0 1343 1752 2466 3546 5492 7840 9808 10000 9580 8764
1770.0 7327 5606 3925 2640 1819 1319 1006 794 631 524
1810.0 436 374 314 278 235 210 180 163 144 128
1850.0 120 109 107 95 98 93 97 97 100 99
1890.0 100 98 91 88 77 74 62 57 50 48
1930.0 46 40 42 35 40 35 38 39 42 39
1970.0 40 44 40 41 40 46 41 45 41 44
2010.0 43 42 43 43 42 38 39 35 34 31
2050.0 32 34 36 37 37 39 40 44 36 40
2090.0 37 37 36 35 37 35 40 34 36 32
2130.0 33 32 30 30 32 28 25 28 25 22
2170.0 20 22 19 21 19 19 20 20 16 14
2210.0 17 17 20 20 20 25 24 25 23 24
2250.0 25 25 25 25 24 28 30 28 32 34
2290.0 37 40 45 48 56 58 54 44 51 44
2330.0 39 25 18 19 40 60 22 29 3 0
2370.0 9 24 40 40 36 17 21 20 22 22
2410.0 27 27 27 28 23 24 22 24 22 21
2450.0 19 21 21 20 19 15 19 17 18 14
2490.0 15 13 13 12 11 12 14 12 11 11
2530.0 11 7 10 11 11 7 10 7 5 4
2570.0 6 4 4 4 2 6 4 6 2 2
2610.0 4 10 12 9 5 6 6 6 9 3
2650.0 2 3 2 3 2 2 4 6 5 10
2690.0 8 8 10 11 15 15 14 17 19 21
2730.0 31 28 29 30 29 29 30 29 33 37
2770.0 42 47 50 49 52 46 44 42 45 48
2810.0 54 56 62 72 81 80 82 81 88 94
2850.0 102 110 126 144 161 187 223 285 365 428
2890.0 435 402 404 443 506 575 622 621 579 553
2930.0 591 697 893 1157 1336 1246 998 850 869 994
2970.0 1165 1342 1575 2057 2674 2750 2211 1719 1444 1214
3010.0 994 797 617 474 362 290 236 203 169 156
3050.0 130 119 106 96 87 83 71 69 64 60
3090.0 60 56 57 56 55 53 58 55 55 50
3130.0 51 53 50 47 52 50 45 43 44 38
3170.0 43 40 34 33 27 32 35 27 25 29
3210.0 29 24 28 24 17 17 16 12 17 12
3250.0 13 10 8 9 5 2 6 9 1 4
3290.0 3 4 6 6 2 12 8 15 16 19
3330.0 17 15 27 27 27 29 30 34 32 33
3370.0 36 35 31 31 28 31 34 30 37 37
3410.0 35 34 29 30 35 23 31 28 25 30
3450.0 30 32 32 36 42 50 48 56 61 63
3490.0 67 71 82 77 73 57 56 50 44 41
3530.0 29 28 23 23 16 21 22 22 23 18
3570.0 24 21 19 22 18 21 22 11 17 29
3610.0 18 12 22 30 29 20 17 21 19 16
3650.0 15 20 14 5 22 31 31 25 32 18
3690.0 27 19 19 15 13 28 20 20 13 5
3730.0 16 17 30 24 27 19 11 15 20 20
3770.0 14 25 21 29 29 21 15 33 22 19
3810.0 32 29 20 17 20 29 16 27 31 20
3850.0 27 15 10 29 34 18 14 27 17 18
3890.0 21 15 23 7 9 36 34 29 18 19
3930.0 23 16 13 18 23 24 30 23 21 25
##END=
