##TITLE=2-Propanone, 1,1,3,3-tetrachloro-
##JCAMP-DX=4.24
##DATA TYPE=INFRARED SPECTRUM
##ORIGIN=Sadtler Research Labs Under US-EPA Contract
##OWNER=NIST Standard Reference Data Program
##CAS REGISTRY NO=632-21-3
##MOLFORM=C 3 H 2 Cl 4 O
##XUNITS=1/CM
##YUNITS=ABSORBANCE
##XFACTOR=1.0
##YFACTOR=0.000091031
##DELTAX=4.0
##FIRSTX=450.0
##LASTX=3966.0
##FIRSTY=0.055529
##MAXX=3966
##MINX=450
##MAXY=0.91031
##MINY=0
##NPOINTS=880
##XYDATA=(X++(Y..Y))
450.0 610 410 356 292 351 329 419 368 437 385
490.0 465 525 567 671 746 948 1127 1638 2385 3034
530.0 3196 2825 1820 917 633 593 633 595 603 550
570.0 511 484 419 436 411 501 537 553 565 602
610.0 619 610 689 700 811 977 1348 1778 2363 2934
650.0 3373 3522 3405 2943 2616 2624 3259 4431 4996 4806
690.0 3877 2304 1449 1303 1279 1341 1324 1268 1191 1124
730.0 1131 1212 1403 1533 1609 1593 1564 1601 1728 1943
770.0 2140 2270 2269 2339 2403 2579 2729 2855 3051 3424
810.0 3851 4246 4642 5337 6362 7919 9191 10000 9433 7750
850.0 5409 3523 2421 1806 1462 1243 1050 839 606 433
890.0 316 241 202 165 150 131 124 110 101 87
930.0 68 64 44 45 35 47 57 76 98 114
970.0 133 142 134 107 106 89 93 95 115 144
1010.0 183 246 303 368 429 523 611 718 797 841
1050.0 813 726 612 516 469 454 462 474 522 612
1090.0 785 1077 1501 1987 2385 2544 2364 1848 1273 793
1130.0 432 269 245 238 259 277 333 370 420 481
1170.0 540 559 567 555 572 657 859 1250 1818 2464
1210.0 3027 3642 3721 2715 1729 1168 938 882 873 858
1250.0 797 733 680 665 690 749 863 1040 1299 1600
1290.0 1840 1866 1634 1213 777 502 376 300 256 229
1330.0 222 224 217 218 207 200 172 149 142 124
1370.0 117 93 89 70 71 66 67 66 92 103
1410.0 120 139 125 158 145 155 126 127 103 101
1450.0 68 52 39 40 50 37 33 32 50 31
1490.0 31 30 21 27 11 13 18 29 8 34
1530.0 26 31 16 8 10 20 11 0 11 20
1570.0 26 25 31 43 51 66 76 116 133 175
1610.0 189 180 156 114 107 85 103 80 95 60
1650.0 67 37 60 49 56 70 56 91 75 98
1690.0 111 141 138 177 233 248 289 321 455 501
1730.0 667 783 1041 1261 1571 1990 2680 3847 5154 6662
1770.0 7515 7173 5374 4508 3349 2721 2007 1527 1061 824
1810.0 668 558 467 382 324 233 199 153 125 92
1850.0 97 93 78 78 64 63 52 59 52 54
1890.0 49 57 61 60 67 60 56 51 53 45
1930.0 51 44 47 38 42 46 42 44 42 40
1970.0 37 42 40 39 41 34 44 36 45 42
2010.0 45 40 43 40 41 45 44 44 41 45
2050.0 43 48 44 49 47 50 55 50 52 46
2090.0 47 39 42 40 41 41 39 43 38 44
2130.0 40 44 41 44 45 42 43 42 41 39
2170.0 42 38 37 38 39 38 37 40 40 41
2210.0 42 42 42 42 42 42 43 42 43 40
2250.0 44 43 42 43 43 44 45 46 47 46
2290.0 48 49 48 50 49 47 49 45 49 47
2330.0 44 43 52 43 42 49 32 44 51 63
2370.0 61 74 83 87 88 88 87 85 87 87
2410.0 90 80 78 69 67 67 67 71 70 72
2450.0 71 68 62 64 62 61 60 60 67 65
2490.0 67 69 72 72 70 67 66 62 57 53
2530.0 48 47 48 49 48 47 48 45 44 43
2570.0 43 40 40 39 37 37 38 39 39 38
2610.0 38 40 38 41 41 40 40 41 40 34
2650.0 36 35 35 34 36 34 34 36 36 38
2690.0 34 37 38 41 34 37 40 38 35 36
2730.0 36 37 37 36 36 40 38 36 39 39
2770.0 34 41 40 43 42 42 44 47 49 50
2810.0 54 55 61 65 65 67 76 77 80 83
2850.0 85 86 90 89 92 97 102 100 96 87
2890.0 81 70 66 60 61 63 62 65 65 70
2930.0 75 80 87 103 120 143 174 217 250 264
2970.0 254 223 189 171 163 182 240 330 391 412
3010.0 400 378 379 364 330 254 179 110 89 88
3050.0 82 77 74 73 66 65 62 55 53 55
3090.0 52 48 47 47 45 45 48 45 44 47
3130.0 43 40 41 43 45 43 46 43 45 37
3170.0 46 42 42 41 43 43 42 39 41 41
3210.0 41 43 44 38 45 40 45 42 42 42
3250.0 45 45 37 43 41 38 44 40 43 45
3290.0 46 44 43 43 40 41 42 40 39 46
3330.0 40 44 37 44 41 43 46 45 44 42
3370.0 40 44 47 44 43 41 46 50 45 44
3410.0 44 43 47 45 45 44 46 51 50 53
3450.0 54 56 62 64 73 68 65 72 81 79
3490.0 82 99 114 138 159 180 201 199 204 191
3530.0 163 134 116 112 102 96 98 93 96 125
3570.0 139 138 143 151 141 128 115 71 74 53
3610.0 67 45 63 64 45 72 54 51 49 38
3650.0 74 60 63 57 42 62 53 82 42 64
3690.0 52 65 46 61 61 54 66 58 57 62
3730.0 56 65 59 82 58 76 72 70 70 71
3770.0 64 73 67 79 61 58 58 50 79 68
3810.0 71 74 70 99 67 73 71 80 70 83
3850.0 59 93 78 56 78 81 70 72 81 65
3890.0 66 62 56 65 72 66 57 73 64 62
3930.0 66 65 60 58 62 63 72 50 55 50
##END=
