##TITLE=Urea, tetramethyl-
##JCAMP-DX=4.24
##DATA TYPE=INFRARED SPECTRUM
##ORIGIN=Sadtler Research Labs Under US-EPA Contract
##OWNER=NIST Standard Reference Data Program
##CAS REGISTRY NO=632-22-4
##MOLFORM=C 5 H 12 N 2 O
##XUNITS=1/CM
##YUNITS=ABSORBANCE
##XFACTOR=1.0
##YFACTOR=0.000181006
##DELTAX=4.0
##FIRSTX=450.0
##LASTX=3966.0
##FIRSTY=0.054483
##MAXX=3966
##MINX=450
##MAXY=1.81006
##MINY=0
##NPOINTS=880
##XYDATA=(X++(Y..Y))
450.0 301 207 180 43 183 166 160 119 6 150
490.0 102 60 57 94 57 0 142 179 92 164
530.0 139 171 217 285 273 271 262 307 231 220
570.0 226 237 279 288 251 189 207 171 121 88
610.0 50 51 89 67 95 55 48 51 50 69
650.0 62 68 70 39 45 55 62 86 64 44
690.0 35 55 61 50 58 32 19 70 57 89
730.0 41 49 30 32 60 48 35 64 31 50
770.0 67 87 160 198 269 365 419 303 277 226
810.0 127 113 95 30 57 35 63 25 62 47
850.0 41 49 23 56 74 47 49 102 103 74
890.0 114 201 267 409 530 644 663 633 524 384
930.0 216 124 103 64 77 65 70 80 77 91
970.0 89 101 109 117 139 165 198 238 280 343
1010.0 368 389 414 410 418 380 377 401 448 546
1050.0 660 786 871 909 899 827 726 616 515 517
1090.0 498 519 592 679 848 1086 1435 1965 2584 3307
1130.0 3832 4125 4235 3901 3361 2669 2039 1581 1237 996
1170.0 824 703 602 553 530 498 495 492 496 536
1210.0 566 639 740 841 981 1067 1138 1201 1167 1139
1250.0 1045 924 842 734 659 574 506 472 456 473
1290.0 510 556 619 687 785 911 1013 1134 1138 1223
1330.0 1312 1453 1793 2173 2713 3458 4379 5292 5670 6377
1370.0 5712 5302 4682 3474 2891 2238 1791 1577 1265 1128
1410.0 1025 922 975 903 877 877 969 1208 1444 1688
1450.0 2109 2379 2626 2768 2627 2638 2666 2777 2936 3212
1490.0 3443 3407 3349 2940 2766 2200 1702 1391 1086 914
1530.0 745 662 617 584 578 494 498 528 520 525
1570.0 557 607 614 651 666 689 696 677 663 642
1610.0 586 514 502 438 454 404 415 553 494 660
1650.0 807 937 1515 1872 3155 4671 5948 9070 8572 10000
1690.0 9353 8595 6580 4428 3015 1920 1455 1078 888 712
1730.0 618 612 443 436 424 411 367 347 339 306
1770.0 318 270 207 208 156 141 142 128 135 103
1810.0 86 99 78 69 105 97 86 73 85 133
1850.0 90 79 82 88 119 117 115 72 79 84
1890.0 85 93 79 63 61 74 60 65 71 59
1930.0 31 45 29 46 47 13 29 17 16 31
1970.0 27 19 11 9 12 21 36 8 1 16
2010.0 4 24 29 28 21 26 32 36 46 40
2050.0 36 41 34 38 35 26 29 29 28 35
2090.0 41 48 50 54 51 45 45 42 33 32
2130.0 26 30 30 28 25 24 23 21 19 14
2170.0 6 8 9 8 11 11 11 16 18 18
2210.0 13 14 18 19 20 18 20 21 18 19
2250.0 14 17 21 25 29 30 31 28 26 21
2290.0 15 13 12 11 11 9 3 1 0 10
2330.0 2 0 0 0 5 1 0 0 0 14
2370.0 13 4 4 5 11 9 6 6 8 18
2410.0 20 20 23 23 28 24 20 17 15 16
2450.0 17 15 15 16 18 18 19 17 16 18
2490.0 20 17 15 16 19 20 20 19 16 17
2530.0 17 18 17 15 18 20 21 21 21 19
2570.0 24 26 25 19 23 25 25 26 24 23
2610.0 27 27 26 26 25 26 27 30 29 31
2650.0 30 31 36 40 40 40 43 47 47 51
2690.0 53 59 60 62 65 65 68 73 73 76
2730.0 82 84 91 99 106 114 123 138 153 173
2770.0 192 223 257 299 363 439 543 666 775 863
2810.0 922 959 970 931 889 884 897 941 1028 1158
2850.0 1338 1558 1779 1970 2120 2219 2271 2323 2394 2486
2890.0 2595 2680 2741 2756 2733 2698 2663 2661 2711 2800
2930.0 2900 2993 3065 3120 3128 3069 2950 2749 2422 2045
2970.0 1669 1319 1034 848 736 690 683 718 791 871
3010.0 934 961 934 858 761 652 543 450 389 339
3050.0 308 282 259 246 233 219 206 196 183 173
3090.0 166 158 148 135 128 124 118 107 95 90
3130.0 89 83 75 67 68 67 67 64 58 51
3170.0 48 47 44 41 36 36 35 30 27 26
3210.0 27 26 26 16 21 24 24 24 23 21
3250.0 18 21 15 18 16 14 21 23 18 14
3290.0 16 20 20 23 14 17 17 27 28 27
3330.0 31 42 57 63 70 78 82 89 78 77
3370.0 56 44 35 32 24 18 29 31 30 12
3410.0 11 16 24 30 24 12 14 20 19 25
3450.0 13 20 17 33 20 6 15 14 35 26
3490.0 21 19 21 36 50 15 32 5 32 62
3530.0 40 20 34 16 59 40 38 9 41 51
3570.0 93 15 38 14 64 38 56 10 41 30
3610.0 45 46 26 43 13 47 28 19 26 42
3650.0 39 50 6 19 17 32 24 26 25 15
3690.0 24 38 23 34 20 41 58 29 45 61
3730.0 49 62 53 58 25 34 30 41 25 28
3770.0 16 36 32 34 26 31 34 34 29 15
3810.0 18 30 17 54 32 34 40 34 41 35
3850.0 21 15 53 41 33 44 28 70 48 73
3890.0 34 49 61 68 77 14 31 71 48 65
3930.0 44 71 44 53 88 38 61 30 76 69
##END=
