##TITLE=Butane, 1,1'-oxybis[4-chloro-
##JCAMP-DX=4.24
##DATA TYPE=INFRARED SPECTRUM
##ORIGIN=Sadtler Research Labs Under US-EPA Contract
##OWNER=NIST Standard Reference Data Program
##CAS REGISTRY NO=6334-96-9
##MOLFORM=C 8 H 16 Cl 2 O
##XUNITS=1/CM
##YUNITS=ABSORBANCE
##XFACTOR=1.0
##YFACTOR=0.000055273
##DELTAX=4.0
##FIRSTX=450.0
##LASTX=3966.0
##FIRSTY=0.004864
##MAXX=3966
##MINX=450
##MAXY=0.55273
##MINY=0
##NPOINTS=880
##XYDATA=(X++(Y..Y))
450.0 88 109 67 69 86 115 206 230 251 241
490.0 226 251 242 215 215 205 209 195 236 226
530.0 199 179 193 159 76 319 249 216 254 206
570.0 166 246 322 176 151 231 195 218 261 270
610.0 156 199 266 297 344 363 410 424 602 754
650.0 1034 1252 1617 1817 1632 1275 880 745 509 425
690.0 631 436 450 414 419 545 627 693 865 1132
730.0 1141 1360 1446 1434 1532 1569 1584 1444 1225 1059
770.0 969 771 652 599 598 590 598 564 610 504
810.0 584 549 560 507 448 477 487 458 518 436
850.0 448 439 491 488 541 602 666 725 779 799
890.0 875 810 778 769 703 707 686 677 702 719
930.0 660 667 677 703 761 827 832 846 902 899
970.0 872 861 830 855 837 785 819 850 803 780
1010.0 731 723 733 772 788 832 883 891 980 1013
1050.0 1059 1135 1242 1312 1409 1484 1541 1670 1842 2076
1090.0 2363 2717 3154 3872 4921 6325 8001 9442 10000 9226
1130.0 7293 5152 3458 2432 1871 1532 1372 1254 1248 1193
1170.0 1118 1009 934 854 817 784 747 737 728 746
1210.0 736 735 709 693 687 645 626 619 658 722
1250.0 810 927 1075 1222 1376 1486 1683 1934 2187 2251
1290.0 2127 1952 1904 1866 1783 1616 1469 1376 1211 1037
1330.0 858 781 752 827 1031 1269 1470 1628 1781 1881
1370.0 1846 1808 1621 1291 941 649 502 437 435 443
1410.0 462 464 447 451 512 650 862 1096 1366 1637
1450.0 1857 1762 1355 1118 968 921 817 775 709 591
1490.0 490 418 308 269 169 181 199 171 133 154
1530.0 154 139 135 71 122 148 142 71 80 140
1570.0 108 147 98 149 150 148 155 147 138 142
1610.0 149 132 91 122 134 132 121 94 123 104
1650.0 105 8 137 115 125 94 105 115 113 65
1690.0 109 118 81 46 107 115 118 67 130 120
1730.0 122 60 114 98 118 101 118 116 122 128
1770.0 106 100 147 150 133 126 92 132 110 129
1810.0 118 119 127 127 118 116 127 124 127 100
1850.0 122 123 130 138 128 101 139 134 132 130
1890.0 125 124 128 125 131 124 123 122 132 120
1930.0 133 124 135 112 125 132 130 124 126 133
1970.0 124 123 140 132 130 137 143 142 148 143
2010.0 143 144 153 151 152 151 148 150 147 146
2050.0 152 148 147 153 155 144 146 144 136 135
2090.0 126 125 121 130 122 134 123 112 122 113
2130.0 121 111 112 118 118 114 119 116 116 115
2170.0 108 115 114 113 112 121 105 109 120 101
2210.0 106 99 100 101 96 98 97 89 97 97
2250.0 94 89 94 97 103 86 92 95 100 90
2290.0 98 108 115 108 114 127 124 133 148 146
2330.0 158 161 166 145 171 152 144 190 195 145
2370.0 117 106 103 83 68 61 68 76 76 58
2410.0 65 74 86 67 67 69 76 75 75 89
2450.0 93 83 66 75 74 74 74 82 83 83
2490.0 79 83 84 93 82 92 93 93 100 85
2530.0 95 97 103 103 92 91 95 92 93 101
2570.0 93 93 99 105 97 93 98 113 100 107
2610.0 111 119 118 119 127 127 138 129 136 136
2650.0 150 145 151 163 169 171 171 172 189 200
2690.0 209 220 244 273 285 306 310 329 322 347
2730.0 358 392 403 407 398 381 376 365 365 376
2770.0 388 409 450 496 561 673 763 839 878 852
2810.0 774 728 691 702 758 852 994 1195 1536 1979
2850.0 2581 3327 4112 4856 5482 5909 6057 5798 5130 4291
2890.0 3446 2813 2444 2284 2300 2453 2721 3081 3464 3702
2930.0 3819 3934 4213 4795 5490 5959 5970 5652 5308 5086
2970.0 4596 3651 2729 2083 1695 1632 1776 1952 1856 1419
3010.0 988 695 520 454 385 314 279 244 221 190
3050.0 182 171 162 161 145 138 132 137 133 125
3090.0 114 111 111 111 119 128 117 102 112 117
3130.0 105 103 115 110 103 112 94 117 110 118
3170.0 118 94 109 120 109 115 104 105 119 109
3210.0 100 110 119 100 94 107 116 117 113 100
3250.0 106 97 102 94 92 110 127 92 78 100
3290.0 95 112 94 103 92 100 98 104 100 111
3330.0 100 110 119 111 97 103 110 109 98 100
3370.0 111 101 102 110 129 112 109 120 106 102
3410.0 110 107 116 130 111 100 119 118 118 118
3450.0 99 98 116 102 89 122 116 112 110 102
3490.0 110 120 109 113 96 112 106 112 88 116
3530.0 111 100 103 110 101 113 118 117 114 92
3570.0 101 114 111 117 94 85 118 101 110 110
3610.0 88 93 75 110 116 62 111 101 110 103
3650.0 58 75 93 117 117 78 96 77 87 104
3690.0 80 103 110 101 101 100 76 91 81 90
3730.0 111 49 48 39 8 33 57 56 57 67
3770.0 64 85 85 63 76 79 79 61 31 40
3810.0 29 58 40 30 40 62 63 46 63 73
3850.0 38 22 62 66 64 74 74 50 64 72
3890.0 89 85 81 79 81 96 101 83 93 93
3930.0 110 110 103 120 110 115 0 8 8 8
##END=
