##TITLE=Malonic acid, 2-methoxyethyl-, diethyl ester
##JCAMP-DX=4.24
##DATA TYPE=INFRARED SPECTRUM
##ORIGIN=Sadtler Research Labs Under US-EPA Contract
##OWNER=NIST Standard Reference Data Program
##CAS REGISTRY NO=6335-02-0
##MOLFORM=C 10 H 18 O 5
##XUNITS=1/CM
##YUNITS=ABSORBANCE
##XFACTOR=1.0
##YFACTOR=0.000095676
##DELTAX=4.0
##FIRSTX=450.0
##LASTX=3966.0
##FIRSTY=0.004592
##MAXX=3966
##MINX=450
##MAXY=0.95676
##MINY=0
##NPOINTS=880
##XYDATA=(X++(Y..Y))
450.0 48 136 238 127 165 50 218 179 141 115
490.0 139 123 43 77 83 43 74 135 89 113
530.0 50 77 70 72 48 14 48 130 19 33
570.0 80 15 90 102 90 116 90 144 129 123
610.0 117 81 104 95 104 72 63 76 103 52
650.0 51 112 77 117 119 129 96 170 168 139
690.0 131 140 149 170 184 141 104 122 102 111
730.0 94 54 134 133 138 56 172 137 125 154
770.0 164 151 134 154 165 212 130 132 162 174
810.0 188 200 172 148 118 172 166 211 226 222
850.0 318 376 470 534 581 549 438 397 341 371
890.0 331 327 270 309 289 251 250 236 246 264
930.0 268 324 329 340 358 362 331 332 363 341
970.0 364 343 348 328 331 352 387 461 565 712
1010.0 889 1134 1441 1858 2280 2627 2851 2844 2673 2387
1050.0 2159 2033 1962 1890 1899 1898 2033 2149 2354 2607
1090.0 2855 3197 3567 3839 4038 4133 4412 4895 5456 5983
1130.0 6187 6241 6081 6267 6568 6791 7008 6928 6608 6451
1170.0 6117 5947 5596 5380 5229 4923 4811 4744 4513 4375
1210.0 4161 4101 4043 4050 4204 4299 4515 4646 4611 4656
1250.0 4693 4779 4730 4556 4272 3798 3440 3097 2880 2748
1290.0 2656 2636 2620 2606 2595 2412 2212 2064 1982 2060
1330.0 2147 2237 2149 1932 1664 1336 1131 1020 1102 1481
1370.0 1811 1929 1753 1370 1209 1065 980 858 729 667
1410.0 566 526 468 473 486 592 692 815 875 894
1450.0 851 910 844 969 1013 1052 989 874 765 606
1490.0 463 329 251 205 138 157 95 136 55 113
1530.0 120 57 111 39 71 66 67 37 80 66
1570.0 64 55 69 63 68 45 98 32 81 59
1610.0 50 60 42 57 46 68 48 86 65 41
1650.0 90 23 147 38 144 81 148 127 179 190
1690.0 225 283 314 424 493 610 733 863 1062 1338
1730.0 1796 2460 3851 5635 7832 9887 10000 9525 8674 7851
1770.0 6781 4618 3173 2118 1393 1120 791 644 536 423
1810.0 388 304 272 230 179 189 117 150 84 92
1850.0 84 75 83 72 63 62 78 59 80 73
1890.0 81 71 73 72 55 70 43 60 42 42
1930.0 54 41 44 42 33 46 47 53 42 55
1970.0 49 48 50 50 49 48 46 51 59 49
2010.0 59 59 54 69 65 65 62 59 62 61
2050.0 65 63 64 61 55 69 59 61 62 60
2090.0 59 59 58 59 53 58 56 53 54 45
2130.0 53 47 46 46 37 43 37 31 33 28
2170.0 28 29 28 25 23 30 20 26 26 21
2210.0 28 24 23 28 22 30 26 24 29 30
2250.0 27 27 30 30 31 30 30 26 31 27
2290.0 27 30 37 39 35 39 42 34 37 37
2330.0 35 25 48 8 62 25 55 3 59 27
2370.0 46 42 48 44 30 31 24 23 27 23
2410.0 29 26 24 28 21 23 19 19 20 14
2450.0 14 18 16 20 14 16 14 13 13 9
2490.0 11 14 4 10 9 7 7 4 8 6
2530.0 8 3 8 14 10 14 12 9 14 14
2570.0 16 12 11 18 18 23 26 21 31 30
2610.0 31 34 34 30 30 32 32 24 28 28
2650.0 31 30 26 31 31 33 34 34 39 39
2690.0 45 48 52 59 64 71 77 81 93 106
2730.0 124 143 156 163 163 164 170 166 174 174
2770.0 183 191 192 204 213 229 257 281 327 394
2810.0 512 707 894 1012 1061 1098 1164 1172 1093 969
2850.0 910 936 1033 1211 1424 1627 1789 1889 1937 1898
2890.0 1800 1690 1634 1664 1721 1713 1672 1617 1619 1690
2930.0 1866 2081 2312 2497 2527 2365 2094 1885 1842 1932
2970.0 2109 2339 2701 3221 3684 3756 3364 2707 2130 1675
3010.0 1322 1053 830 668 544 456 392 334 294 266
3050.0 242 219 199 189 177 167 162 148 142 138
3090.0 127 127 117 110 112 113 99 101 101 99
3130.0 91 91 79 83 77 78 83 75 71 73
3170.0 73 68 65 66 64 66 56 62 60 57
3210.0 53 57 53 52 55 50 48 46 50 52
3250.0 37 43 41 38 38 32 45 47 46 37
3290.0 40 44 49 50 39 43 47 41 41 42
3330.0 45 50 52 52 52 48 49 43 51 53
3370.0 50 54 52 59 59 58 65 51 57 61
3410.0 47 65 58 63 73 52 56 71 65 74
3450.0 51 54 66 76 83 85 92 102 119 136
3490.0 125 142 136 131 128 98 96 77 88 85
3530.0 87 70 70 52 80 53 78 51 76 76
3570.0 96 53 79 30 114 46 104 56 83 41
3610.0 88 91 51 113 30 123 66 66 45 116
3650.0 10 169 0 125 32 90 111 55 104 32
3690.0 146 40 120 77 89 113 119 63 118 83
3730.0 106 116 99 165 45 234 47 192 67 123
3770.0 105 97 104 118 89 113 89 152 71 210
3810.0 39 177 50 153 115 132 115 142 112 118
3850.0 85 132 151 78 153 142 136 125 91 111
3890.0 133 75 118 86 166 80 114 99 101 108
3930.0 84 127 103 119 127 98 91 130 137 135
##END=
