##TITLE=Benzofuran, 2,3-dihydro-2,2-dimethyl-
##JCAMP-DX=4.24
##DATA TYPE=INFRARED SPECTRUM
##ORIGIN=Sadtler Research Labs Under US-EPA Contract
##OWNER=NIST Standard Reference Data Program
##CAS REGISTRY NO=6337-33-3
##MOLFORM=C 10 H 12 O
##XUNITS=1/CM
##YUNITS=ABSORBANCE
##XFACTOR=1.0
##YFACTOR=0.000084735
##DELTAX=4.0
##FIRSTX=450.0
##LASTX=3966.0
##FIRSTY=0.029488
##MAXX=3966
##MINX=450
##MAXY=0.84735
##MINY=0
##NPOINTS=880
##XYDATA=(X++(Y..Y))
450.0 348 287 274 271 217 191 160 111 122 94
490.0 57 34 58 45 40 43 41 51 25 46
530.0 33 21 47 20 34 31 17 33 21 29
570.0 31 30 32 35 51 94 140 150 143 116
610.0 70 30 14 7 22 50 84 89 90 78
650.0 45 25 7 10 6 57 15 24 21 33
690.0 73 170 326 515 685 938 695 554 446 472
730.0 828 1571 2515 3520 4822 4370 3443 2539 1562 923
770.0 713 789 901 952 906 727 509 369 267 162
810.0 99 57 37 44 50 74 114 156 214 287
850.0 373 515 714 875 1112 1485 2100 3159 4395 4977
890.0 4667 3699 2218 969 504 378 337 300 325 352
930.0 355 363 339 302 272 241 241 276 347 425
970.0 458 437 377 285 209 168 148 138 165 297
1010.0 606 755 735 643 368 86 15 8 12 19
1050.0 25 37 45 59 95 183 385 811 1321 1641
1090.0 1769 1594 1145 795 590 519 596 826 1210 1694
1130.0 2192 2682 3039 3077 2894 2466 1899 1363 937 635
1170.0 468 475 619 732 798 807 667 557 579 775
1210.0 1216 1905 2452 2652 2527 2009 1482 1470 1981 2951
1250.0 4590 6741 8777 10000 9626 7861 5395 3174 1834 1129
1290.0 857 738 680 667 709 838 1059 1241 1314 1265
1330.0 1093 802 530 367 289 253 294 448 721 1040
1370.0 1340 1947 1797 1915 1787 1406 1067 533 237 158
1410.0 135 132 129 142 156 200 272 420 649 932
1450.0 1311 1963 2849 3362 3705 4332 5448 7303 8126 7851
1490.0 6465 3402 1566 979 734 583 453 236 126 102
1530.0 90 89 82 79 90 106 114 117 117 127
1570.0 152 223 371 592 918 1396 2019 2481 2631 2606
1610.0 2267 1725 1414 1135 750 413 231 150 115 99
1650.0 82 89 95 118 154 212 251 269 261 247
1690.0 198 124 70 56 51 59 62 66 76 101
1730.0 137 197 249 277 282 251 217 198 186 183
1770.0 171 151 121 91 74 68 78 94 101 95
1810.0 77 44 22 10 6 6 8 12 16 18
1850.0 19 21 23 33 42 59 83 105 108 101
1890.0 89 65 40 21 17 32 75 127 140 133
1930.0 106 44 6 0 3 4 5 4 1 1
1970.0 2 1 0 3 1 3 6 15 19 21
2010.0 25 25 20 16 12 6 7 7 12 14
2050.0 16 20 22 20 14 11 8 6 1 2
2090.0 1 1 6 4 12 17 25 35 38 39
2130.0 41 41 39 37 33 30 26 25 22 18
2170.0 13 8 5 3 0 1 3 4 3 5
2210.0 5 5 5 2 3 4 0 1 0 2
2250.0 4 7 8 13 15 17 24 24 16 11
2290.0 7 9 11 15 15 10 12 16 22 25
2330.0 30 38 38 36 44 32 40 29 32 39
2370.0 40 38 37 31 27 29 33 34 34 27
2410.0 20 14 7 6 3 3 2 2 5 9
2450.0 17 23 28 35 42 52 54 60 61 58
2490.0 50 45 38 36 39 41 41 40 43 44
2530.0 40 45 46 52 52 53 62 66 76 86
2570.0 88 88 81 73 61 49 39 32 26 24
2610.0 25 28 36 42 48 53 54 54 49 47
2650.0 42 38 33 30 26 24 23 21 18 22
2690.0 25 27 27 30 29 29 30 38 45 58
2730.0 72 79 81 76 68 68 62 57 51 47
2770.0 44 43 42 38 37 43 48 59 70 82
2810.0 95 112 127 149 166 193 217 235 270 329
2850.0 424 596 830 1031 1134 1171 1095 962 877 849
2890.0 841 852 884 942 1038 1173 1342 1531 1742 1979
2930.0 2242 2489 2744 2856 2685 2391 2007 1619 1398 1581
2970.0 2349 3676 5186 6054 5674 4609 2891 1408 676 354
3010.0 238 230 290 402 575 816 1056 1170 1195 1230
3050.0 1204 1302 1401 1442 1431 1322 1232 1276 1303 1248
3090.0 1076 876 690 510 381 299 236 175 124 87
3130.0 64 56 46 37 34 34 27 29 33 38
3170.0 39 38 50 58 63 73 78 86 88 85
3210.0 85 78 70 64 63 56 45 37 30 25
3250.0 20 19 19 23 22 24 19 19 15 19
3290.0 24 28 30 34 27 21 21 16 16 15
3330.0 14 16 20 12 10 12 14 12 11 13
3370.0 8 9 15 13 10 6 12 10 16 17
3410.0 17 10 14 14 14 20 22 24 18 20
3450.0 22 25 25 26 16 19 7 12 9 8
3490.0 11 12 10 4 7 8 10 1 6 9
3530.0 0 12 5 5 11 8 11 8 9 9
3570.0 8 9 10 7 8 2 6 5 7 4
3610.0 6 7 8 14 9 15 11 12 11 5
3650.0 12 9 8 11 9 15 14 15 9 15
3690.0 24 13 15 24 12 5 11 14 5 8
3730.0 16 12 11 5 13 12 13 4 8 4
3770.0 7 0 11 2 5 3 6 4 11 0
3810.0 2 15 22 15 4 11 22 4 6 18
3850.0 16 6 6 9 26 13 22 29 22 33
3890.0 45 32 22 29 35 39 34 40 29 33
3930.0 32 32 27 32 13 11 21 12 12 19
##END=
