##TITLE=Quinoline, 2-chloro-4-methyl-
##JCAMP-DX=4.24
##DATA TYPE=INFRARED SPECTRUM
##ORIGIN=Sadtler Research Labs Under US-EPA Contract
##OWNER=NIST Standard Reference Data Program
##CAS REGISTRY NO=634-47-9
##MOLFORM=C 10 H 8 Cl N
##XUNITS=1/CM
##YUNITS=ABSORBANCE
##XFACTOR=1.0
##YFACTOR=0.000049020
##DELTAX=4.0
##FIRSTX=450.0
##LASTX=3966.0
##FIRSTY=0.000000
##MAXX=3966
##MINX=450
##MAXY=0.4902
##MINY=0
##NPOINTS=880
##XYDATA=(X++(Y..Y))
450.0 0 231 416 656 423 371 476 388 302 233
490.0 370 420 585 561 524 495 414 326 512 508
530.0 394 464 261 177 109 100 87 212 234 183
570.0 210 233 453 402 548 809 1702 2278 2390 2146
610.0 1127 558 340 296 214 173 156 124 154 57
650.0 150 105 245 84 109 288 254 146 169 195
690.0 189 181 178 210 192 241 245 260 300 335
730.0 361 455 920 2063 3780 5532 8593 9106 5767 4144
770.0 2303 1084 539 394 332 279 311 281 299 287
810.0 314 252 264 261 294 319 439 754 1372 2473
850.0 3837 4896 4623 3304 2358 1439 986 852 915 1248
890.0 2342 4692 7866 8655 8578 5802 2125 791 512 406
930.0 400 391 468 575 656 709 664 498 433 376
970.0 335 324 358 422 523 587 578 534 434 407
1010.0 395 466 508 520 527 506 456 451 452 447
1050.0 451 408 421 436 514 632 832 1049 1327 1854
1090.0 2971 4834 6179 6470 5654 3425 1877 1149 802 648
1130.0 590 636 1178 3027 4790 5039 5349 3703 2230 1858
1170.0 1236 599 401 350 315 308 295 309 305 320
1210.0 370 439 612 737 810 807 691 554 506 510
1250.0 622 909 1151 1237 1165 1028 930 1364 2564 4681
1290.0 7011 8219 8975 7885 5833 4480 2826 1589 1145 822
1330.0 724 691 578 575 547 566 522 556 599 662
1370.0 718 769 923 991 1121 1232 1375 1554 1912 2095
1410.0 2219 2346 1960 1761 1451 1254 1061 1283 1526 1999
1450.0 2365 2624 2809 2537 2164 1625 1246 864 981 950
1490.0 1271 1657 2016 2748 2909 3117 2756 2433 1482 1329
1530.0 997 1114 1172 1775 2611 3965 6178 7625 8004 7334
1570.0 5505 4558 4658 5626 6712 8537 9021 10000 8012 5971
1610.0 3954 2622 1944 1504 1165 930 667 532 418 420
1650.0 323 361 344 317 307 274 322 270 293 264
1690.0 332 401 486 617 634 683 604 537 483 482
1730.0 362 299 287 294 287 270 366 324 323 272
1770.0 268 211 244 217 244 241 279 320 312 395
1810.0 397 407 395 393 380 353 348 367 334 292
1850.0 296 258 228 227 213 208 229 246 260 280
1890.0 301 345 372 375 356 330 308 335 381 400
1930.0 400 365 342 315 390 452 472 450 392 303
1970.0 245 242 228 223 222 211 227 232 248 235
2010.0 240 220 220 217 212 216 217 219 218 241
2050.0 241 246 244 248 235 249 250 239 243 237
2090.0 234 227 232 229 236 238 238 245 235 229
2130.0 218 216 209 205 207 207 210 205 210 204
2170.0 208 206 209 206 216 216 222 227 218 218
2210.0 221 226 214 222 218 211 210 214 224 218
2250.0 223 218 207 193 191 190 184 181 168 159
2290.0 137 119 93 89 78 60 94 113 137 152
2330.0 158 164 168 184 90 86 164 185 237 195
2370.0 151 136 112 122 139 187 200 210 218 211
2410.0 212 206 206 196 188 181 184 180 180 184
2450.0 176 184 184 193 195 199 206 205 205 190
2490.0 190 175 172 167 167 167 174 171 170 176
2530.0 171 175 177 186 182 185 186 186 181 174
2570.0 177 175 188 188 195 192 196 200 191 190
2610.0 190 191 184 190 194 187 187 188 173 172
2650.0 173 179 175 176 183 189 192 197 200 199
2690.0 198 200 201 206 195 189 184 184 180 186
2730.0 195 183 201 203 205 210 211 191 186 188
2770.0 179 203 205 194 197 207 200 223 214 221
2810.0 240 244 266 280 272 273 281 277 283 308
2850.0 319 343 384 438 497 556 599 621 616 601
2890.0 565 548 543 540 569 573 601 650 727 915
2930.0 1120 1289 1343 1317 1179 1001 923 946 1019 1126
2970.0 1125 1058 1052 1105 1193 1284 1276 1198 999 810
3010.0 718 679 635 603 612 654 712 804 898 947
3050.0 970 969 1023 1216 1655 2408 3162 3548 3524 3055
3090.0 2286 1677 1198 865 669 575 515 476 438 403
3130.0 391 375 368 354 351 349 345 324 331 326
3170.0 324 328 324 323 307 296 290 297 292 289
3210.0 293 290 303 293 298 299 290 277 271 280
3250.0 274 265 265 267 263 268 268 269 253 255
3290.0 256 256 256 243 255 252 252 247 248 260
3330.0 244 239 249 238 240 247 235 236 222 221
3370.0 225 217 220 216 227 209 210 206 200 206
3410.0 192 191 197 201 194 205 177 197 204 177
3450.0 180 187 173 181 184 181 184 175 170 151
3490.0 178 181 179 163 141 164 147 163 170 120
3530.0 148 151 154 164 137 136 152 150 179 147
3570.0 124 147 166 181 185 145 143 126 154 167
3610.0 152 119 145 133 175 146 90 129 152 194
3650.0 192 124 109 146 174 265 188 156 86 175
3690.0 185 106 145 175 175 209 126 111 209 142
3730.0 219 270 161 132 296 112 109 75 89 142
3770.0 139 128 157 171 145 173 172 299 192 236
3810.0 114 233 240 182 158 138 220 240 155 86
3850.0 289 338 61 178 162 197 114 173 161 223
3890.0 141 211 168 303 85 128 161 210 169 148
3930.0 193 136 139 164 149 106 162 123 152 151
##END=
