##TITLE=Benzenamine, 2,4,6-trichloro-
##JCAMP-DX=4.24
##DATA TYPE=INFRARED SPECTRUM
##ORIGIN=Sadtler Research Labs Under US-EPA Contract
##OWNER=NIST Standard Reference Data Program
##CAS REGISTRY NO=634-93-5
##MOLFORM=C 6 H 4 Cl 3 N
##XUNITS=1/CM
##YUNITS=ABSORBANCE
##XFACTOR=1.0
##YFACTOR=0.000131494
##DELTAX=4.0
##FIRSTX=450.0
##LASTX=3966.0
##FIRSTY=0.000000
##MAXX=3966
##MINX=450
##MAXY=1.31494
##MINY=0
##NPOINTS=880
##XYDATA=(X++(Y..Y))
450.0 0 228 235 502 434 569 603 530 486 440
490.0 457 415 374 389 343 282 318 328 320 368
530.0 333 284 309 341 279 441 505 700 708 549
570.0 460 416 362 375 321 350 359 347 383 400
610.0 367 417 402 406 448 468 521 530 544 578
650.0 599 647 708 782 834 933 951 946 945 943
690.0 1017 1088 1259 1418 1576 1780 1918 2012 2206 2277
730.0 2161 1897 1449 1016 718 566 483 437 417 461
770.0 614 962 1561 2206 2582 2548 2184 1730 1512 1494
810.0 1313 977 657 437 386 364 366 395 394 593
850.0 1009 1590 2389 3388 2669 2557 1961 1187 738 525
890.0 455 412 360 344 326 306 311 297 296 286
930.0 279 279 260 267 263 258 272 259 264 253
970.0 250 255 240 238 233 223 230 226 236 238
1010.0 243 251 245 258 258 265 286 304 353 406
1050.0 488 600 764 969 1180 1275 1242 1102 940 920
1090.0 1092 1350 1539 1542 1327 984 672 472 377 321
1130.0 299 296 302 319 315 299 271 250 247 247
1170.0 243 250 270 312 383 488 578 613 591 539
1210.0 525 614 697 694 617 472 316 270 264 260
1250.0 278 276 289 304 328 387 479 607 726 802
1290.0 824 754 635 474 322 251 221 207 203 194
1330.0 197 194 192 202 206 225 253 293 344 389
1370.0 434 467 554 686 909 1224 1382 1332 1144 901
1410.0 856 1078 1245 1234 1088 899 880 1144 1391 1617
1450.0 1878 2261 3366 5655 7922 10000 9373 6977 4100 2255
1490.0 1313 864 641 559 454 429 378 352 377 351
1530.0 357 397 438 615 858 1282 1913 2510 3134 3182
1570.0 2771 2277 1986 1843 1745 1609 1362 1196 1285 1568
1610.0 1994 2520 2794 2891 2447 1927 1402 984 802 657
1650.0 618 566 493 423 386 335 319 281 270 269
1690.0 250 251 270 297 298 347 409 503 539 504
1730.0 470 391 342 303 282 271 263 259 251 245
1770.0 246 245 231 228 226 223 226 226 216 225
1810.0 216 215 220 215 220 222 220 224 218 233
1850.0 224 227 226 221 229 222 229 226 224 227
1890.0 225 223 223 221 220 221 218 224 223 230
1930.0 229 232 233 227 230 226 223 221 218 219
1970.0 215 218 218 220 221 221 225 223 222 222
2010.0 222 218 219 212 213 209 208 207 206 206
2050.0 206 206 208 207 207 211 211 214 214 212
2090.0 210 212 212 210 211 209 207 207 210 210
2130.0 211 209 212 212 214 214 213 210 210 212
2170.0 212 210 213 214 212 210 209 208 207 210
2210.0 208 206 206 207 206 207 204 206 204 208
2250.0 207 207 210 210 212 214 217 220 220 223
2290.0 225 222 222 219 217 216 219 222 222 227
2330.0 218 219 222 220 229 212 206 205 217 213
2370.0 210 204 207 203 198 198 195 196 196 197
2410.0 195 199 200 198 197 199 198 197 195 196
2450.0 196 196 198 200 204 210 209 210 214 216
2490.0 219 218 222 222 219 223 221 218 213 206
2530.0 205 203 206 207 206 209 209 210 215 216
2570.0 223 229 227 230 228 228 223 215 212 209
2610.0 209 207 206 204 204 205 206 210 206 205
2650.0 209 208 209 211 210 209 211 214 214 213
2690.0 213 211 207 208 207 205 202 201 201 197
2730.0 196 196 198 201 200 202 202 202 200 199
2770.0 198 195 194 194 194 195 195 195 192 192
2810.0 195 197 197 202 205 213 221 226 233 234
2850.0 240 231 226 222 214 212 212 206 208 216
2890.0 217 219 224 221 220 218 213 207 204 207
2930.0 206 206 207 207 204 202 198 197 196 198
2970.0 199 199 201 197 200 199 202 198 202 200
3010.0 202 205 206 206 206 209 207 204 200 200
3050.0 201 206 205 206 206 206 209 211 224 228
3090.0 231 234 226 221 218 221 219 213 211 212
3130.0 215 215 228 234 234 238 237 230 229 233
3170.0 233 240 243 240 235 229 217 215 215 211
3210.0 208 209 205 210 203 203 203 200 201 204
3250.0 200 201 203 200 202 202 205 198 201 206
3290.0 201 203 200 206 207 204 202 201 204 198
3330.0 196 196 199 198 199 204 202 206 207 213
3370.0 227 236 248 273 310 357 434 529 683 901
3410.0 1161 1463 1631 1549 1314 954 642 495 396 323
3450.0 308 291 290 296 299 319 338 370 409 461
3490.0 537 631 764 922 1109 1334 1561 1589 1443 1172
3530.0 842 642 537 448 370 310 300 276 262 244
3570.0 249 236 233 228 220 217 221 204 209 210
3610.0 206 202 197 205 203 213 211 211 199 195
3650.0 200 215 203 207 202 197 230 206 220 211
3690.0 206 226 208 225 224 220 237 226 233 229
3730.0 238 246 232 243 232 249 226 220 223 228
3770.0 223 225 222 221 226 233 229 239 233 244
3810.0 238 230 250 253 258 232 248 257 243 253
3850.0 240 280 257 260 267 265 269 272 278 279
3890.0 274 258 258 258 272 272 247 260 256 239
3930.0 240 247 239 234 265 261 272 257 253 285
##END=
