##TITLE=Benzenamine, 2,3,4-trichloro-
##JCAMP-DX=4.24
##DATA TYPE=INFRARED SPECTRUM
##ORIGIN=Sadtler Research Labs Under US-EPA Contract
##OWNER=NIST Standard Reference Data Program
##CAS REGISTRY NO=634-67-3
##MOLFORM=C 6 H 4 Cl 3 N
##XUNITS=1/CM
##YUNITS=ABSORBANCE
##XFACTOR=1.0
##YFACTOR=0.000073984
##DELTAX=4.0
##FIRSTX=450.0
##LASTX=3966.0
##FIRSTY=0.000000
##MAXX=3966
##MINX=450
##MAXY=0.73984
##MINY=0
##NPOINTS=880
##XYDATA=(X++(Y..Y))
450.0 0 1252 2251 1588 1266 1780 795 1538 1357 989
490.0 1639 1392 1642 1577 1459 1563 1251 1306 1210 1105
530.0 1339 1028 1311 1168 975 1519 1229 1269 1361 1073
570.0 1452 1432 1549 1462 1435 1463 1208 1209 1214 1002
610.0 1136 1056 1059 1136 1123 1213 1138 1201 1269 1259
650.0 1413 1457 1570 1844 1915 2260 2426 2662 2464 2123
690.0 1764 1254 1201 1247 1214 1253 1277 1286 1284 1234
730.0 1290 1288 1395 1488 1437 1475 1465 1446 1484 1604
770.0 2119 2917 3827 4229 4080 3444 2643 2471 2621 2216
810.0 2047 1671 1376 1266 1112 1157 1109 1170 1146 1093
850.0 1167 1166 1110 1090 1140 1103 1105 1128 1185 1162
890.0 1240 1272 1299 1458 1548 1813 2135 2366 2377 2206
930.0 1890 1495 1297 1196 1146 1126 1093 1069 1047 1031
970.0 1063 1081 1123 1168 1171 1228 1207 1217 1191 1097
1010.0 1080 993 952 999 1011 1030 1100 1165 1199 1215
1050.0 1239 1238 1230 1223 1233 1198 1126 1077 1096 1104
1090.0 1067 1085 1115 1170 1275 1370 1469 1470 1472 1462
1130.0 1401 1357 1343 1431 1690 1963 2110 2067 1821 1517
1170.0 1560 1767 1951 1976 1810 1539 1297 1231 1191 1127
1210.0 1116 1061 1040 1004 978 989 972 989 1012 1012
1250.0 1042 1032 975 918 1026 1256 1382 1448 1409 1488
1290.0 1696 2037 2539 2942 3010 2761 2171 1560 1215 1097
1330.0 1052 995 968 970 981 984 1004 1016 1045 1119
1370.0 1237 1361 1641 2058 2591 3059 3143 2982 2451 1770
1410.0 1335 1162 1128 1158 1206 1294 1438 1877 2593 3793
1450.0 5871 8233 9698 10000 8470 5918 3954 2856 2310 1800
1490.0 1437 1335 1264 1253 1204 1151 1108 1039 993 1038
1530.0 1023 1058 1078 1100 1174 1242 1259 1253 1284 1318
1570.0 1333 1418 1570 1739 1899 2008 2123 2271 2665 3331
1610.0 4379 5638 6165 6279 5427 4301 3367 2718 2392 2017
1650.0 1728 1514 1315 1242 1155 1075 1064 1035 1034 1016
1690.0 995 997 944 959 958 965 963 943 986 970
1730.0 942 941 951 937 940 905 936 916 911 917
1770.0 892 901 907 903 916 904 911 900 896 907
1810.0 897 906 904 903 903 903 913 949 973 1005
1850.0 1060 1079 1056 1009 939 901 925 908 914 908
1890.0 896 910 915 915 911 913 906 903 904 915
1930.0 914 916 919 921 929 930 940 938 942 948
1970.0 946 953 954 942 951 941 934 928 909 903
2010.0 888 902 899 912 926 915 920 900 920 918
2050.0 917 920 922 906 916 912 926 925 922 908
2090.0 903 911 915 910 905 901 908 907 905 901
2130.0 913 916 917 906 904 901 918 912 909 905
2170.0 910 916 923 916 918 911 927 927 922 936
2210.0 939 942 946 941 940 939 938 938 926 917
2250.0 916 926 931 923 929 926 925 922 928 927
2290.0 932 937 952 956 968 964 955 949 950 949
2330.0 961 986 968 982 1017 984 946 951 1011 1026
2370.0 1056 1058 1035 1010 973 944 939 937 930 932
2410.0 938 935 929 928 936 926 928 932 939 927
2450.0 925 936 929 930 933 934 945 942 948 947
2490.0 944 942 941 947 956 955 957 958 964 976
2530.0 970 979 988 993 988 970 971 964 950 951
2570.0 952 957 953 957 953 955 961 962 961 968
2610.0 964 962 961 955 958 951 950 957 946 947
2650.0 950 938 955 949 954 961 955 959 953 945
2690.0 948 940 938 937 935 925 933 938 954 946
2730.0 942 932 924 930 935 929 936 946 951 951
2770.0 960 947 943 942 952 948 951 960 955 958
2810.0 962 967 974 973 975 973 969 968 960 961
2850.0 973 980 983 981 970 948 951 961 942 942
2890.0 950 946 955 954 964 973 981 1005 1029 1052
2930.0 1050 1054 1035 1013 974 953 929 894 851 854
2970.0 874 897 918 926 929 938 937 936 955 951
3010.0 961 983 994 1005 1028 1025 1016 1024 1050 1075
3050.0 1136 1192 1242 1255 1221 1156 1086 1037 1012 982
3090.0 993 957 942 937 932 933 948 955 942 934
3130.0 929 925 941 940 931 929 938 923 929 942
3170.0 944 955 959 966 982 979 984 977 962 969
3210.0 975 966 968 953 974 975 969 956 940 932
3250.0 916 916 926 930 920 922 916 925 917 937
3290.0 927 934 936 942 937 947 955 954 957 958
3330.0 946 916 940 944 953 955 947 955 960 968
3370.0 978 992 1006 1029 1058 1086 1145 1254 1420 1700
3410.0 2049 2249 2324 2206 1994 1802 1606 1432 1283 1154
3450.0 1091 1081 1060 1040 1053 1073 1093 1092 1160 1196
3490.0 1319 1471 1611 1763 1861 1873 1807 1702 1643 1578
3530.0 1515 1434 1332 1219 1121 1081 1064 1073 1020 1001
3570.0 1003 1039 1030 1040 1059 1081 1057 1050 1040 1026
3610.0 1002 994 974 964 976 979 976 969 994 962
3650.0 966 1003 991 982 998 974 1034 1039 994 988
3690.0 1006 1032 955 973 970 948 955 938 948 944
3730.0 926 920 934 950 917 916 938 916 914 908
3770.0 908 924 884 885 899 900 934 903 912 937
3810.0 955 916 953 973 964 950 947 966 994 992
3850.0 978 987 1005 976 989 975 966 945 993 993
3890.0 937 1013 1004 1011 1023 997 960 1015 1041 1021
3930.0 1065 1024 1024 1016 1025 1051 1039 1045 981 978
##END=
