##TITLE=Benzenamine, 2,3,4,5-tetrachloro-
##JCAMP-DX=4.24
##DATA TYPE=INFRARED SPECTRUM
##ORIGIN=Sadtler Research Labs Under US-EPA Contract
##OWNER=NIST Standard Reference Data Program
##CAS REGISTRY NO=634-83-3
##MOLFORM=C 6 H 3 Cl 4 N
##XUNITS=1/CM
##YUNITS=ABSORBANCE
##XFACTOR=1.0
##YFACTOR=0.000064127
##DELTAX=4.0
##FIRSTX=450.0
##LASTX=3966.0
##FIRSTY=0.053674
##MAXX=3966
##MINX=450
##MAXY=0.64127
##MINY=0
##NPOINTS=880
##XYDATA=(X++(Y..Y))
450.0 837 998 1025 1021 1114 861 645 894 635 473
490.0 684 522 560 676 535 579 646 647 650 807
530.0 751 839 784 645 727 775 752 1042 1109 1327
570.0 1468 1472 1415 1189 969 736 664 716 710 667
610.0 728 720 745 702 679 549 566 635 584 671
650.0 790 944 1072 1132 1367 1531 1338 1311 1401 1415
690.0 1457 1559 1732 1894 1842 1995 2545 3559 4727 5207
730.0 4737 2978 1374 608 795 813 835 885 792 660
770.0 633 653 567 480 437 427 482 472 410 510
810.0 406 424 543 734 1227 2207 3512 4487 4185 2820
850.0 1401 667 451 271 276 268 255 315 267 282
890.0 246 190 231 203 215 210 227 219 195 229
930.0 201 159 156 117 152 155 155 185 200 258
970.0 323 342 353 309 228 128 64 48 28 23
1010.0 18 24 53 27 45 43 1 57 89 120
1050.0 138 153 173 166 134 151 174 272 365 375
1090.0 345 288 360 492 815 1443 2187 2556 2403 1781
1130.0 1115 778 633 568 645 696 734 778 904 1243
1170.0 1825 2344 2567 2418 2015 1543 1098 761 486 316
1210.0 242 189 163 174 248 334 345 343 349 393
1250.0 597 798 890 796 531 308 246 309 346 360
1290.0 320 219 160 100 66 86 96 133 175 177
1330.0 169 125 98 101 113 178 242 431 699 1137
1370.0 1840 2954 4559 5614 5702 4543 2742 1448 936 843
1410.0 922 1190 1930 3547 6014 8823 10000 8393 5055 2261
1450.0 874 715 657 639 677 689 658 536 379 251
1490.0 168 167 146 173 198 221 213 301 425 629
1530.0 930 1349 1805 2100 2183 2000 1716 1424 1270 1269
1570.0 1650 2127 2380 2318 1919 1566 1520 1813 2527 3762
1610.0 5704 7702 8373 8013 5859 3973 2501 1636 1238 906
1650.0 795 642 527 426 423 411 447 470 515 505
1690.0 426 342 290 259 178 154 133 127 108 75
1730.0 112 84 94 64 49 52 39 35 36 30
1770.0 33 47 27 31 28 29 24 20 13 15
1810.0 15 16 31 23 27 36 21 29 16 29
1850.0 5 11 20 5 25 14 23 20 22 17
1890.0 15 12 6 13 16 12 0 16 12 4
1930.0 4 5 6 6 13 12 18 17 17 25
1970.0 19 27 28 35 34 37 43 48 47 54
2010.0 55 51 51 46 51 43 37 35 30 30
2050.0 35 36 31 29 27 30 22 24 18 8
2090.0 11 15 19 22 22 24 27 28 27 28
2130.0 27 23 24 21 14 20 12 14 13 13
2170.0 13 14 19 18 16 19 16 19 14 17
2210.0 14 18 17 16 25 34 30 28 33 31
2250.0 37 40 41 38 43 45 43 41 30 30
2290.0 41 37 43 52 51 57 67 72 76 78
2330.0 76 78 91 51 115 53 128 66 116 83
2370.0 74 58 52 49 27 21 15 16 18 15
2410.0 22 18 15 16 9 11 4 10 10 3
2450.0 4 14 6 9 4 5 7 2 5 2
2490.0 9 17 17 13 14 15 22 16 12 11
2530.0 13 9 10 16 16 26 26 22 24 24
2570.0 24 22 20 26 25 28 37 31 31 32
2610.0 24 14 22 19 16 22 23 23 31 29
2650.0 31 35 38 48 49 43 47 48 48 52
2690.0 49 33 36 33 33 36 43 39 42 41
2730.0 37 36 31 31 19 27 23 18 23 24
2770.0 22 25 27 29 38 45 53 49 55 50
2810.0 39 43 35 28 19 11 11 5 7 11
2850.0 11 9 8 10 8 6 7 9 9 15
2890.0 19 20 12 22 19 19 19 13 23 22
2930.0 20 22 18 21 20 18 18 22 21 22
2970.0 23 17 20 24 26 22 22 18 23 22
3010.0 9 18 9 15 16 18 20 34 31 37
3050.0 50 66 69 87 104 103 98 69 48 29
3090.0 32 25 20 22 26 21 29 26 18 23
3130.0 18 12 12 12 17 29 39 39 43 49
3170.0 49 64 63 85 87 86 88 82 70 71
3210.0 55 49 38 37 31 33 27 28 26 22
3250.0 21 17 9 21 12 10 6 12 13 8
3290.0 1 10 2 8 12 9 9 12 25 17
3330.0 8 16 28 20 26 20 25 20 27 54
3370.0 58 64 77 104 148 199 261 384 542 815
3410.0 1188 1606 1952 2059 1864 1405 968 614 411 296
3450.0 231 188 151 152 123 126 150 173 205 273
3490.0 366 488 632 759 911 1040 1167 1194 1086 911
3530.0 695 497 379 278 237 193 154 103 110 66
3570.0 64 63 50 34 49 40 31 21 35 31
3610.0 43 19 24 33 41 50 14 43 27 37
3650.0 9 55 35 26 42 14 46 14 37 14
3690.0 49 22 31 49 39 33 47 34 66 37
3730.0 47 51 11 61 11 110 22 59 39 22
3770.0 18 47 52 48 47 42 12 52 29 70
3810.0 66 77 72 57 52 52 74 54 65 107
3850.0 58 140 106 54 82 85 79 87 81 38
3890.0 64 43 72 100 41 19 97 62 27 15
3930.0 33 80 52 76 40 80 36 52 55 74
##END=
