##TITLE=Benzene, 1,2,3,4-tetrachloro-
##JCAMP-DX=4.24
##DATA TYPE=INFRARED SPECTRUM
##ORIGIN=Sadtler Research Labs Under US-EPA Contract
##OWNER=NIST Standard Reference Data Program
##CAS REGISTRY NO=634-66-2
##MOLFORM=C 6 H 2 Cl 4
##XUNITS=1/CM
##YUNITS=ABSORBANCE
##XFACTOR=1.0
##YFACTOR=0.000061850
##DELTAX=4.0
##FIRSTX=450.0
##LASTX=3966.0
##FIRSTY=0.015401
##MAXX=3966
##MINX=450
##MAXY=0.6185
##MINY=0
##NPOINTS=880
##XYDATA=(X++(Y..Y))
450.0 249 446 514 326 202 105 800 656 800 757
490.0 452 555 619 781 1031 995 969 846 826 608
530.0 353 501 283 361 553 602 699 647 853 521
570.0 399 356 365 336 365 487 634 979 1571 2239
610.0 2540 2188 1217 574 372 370 360 306 261 277
650.0 145 6 135 139 183 197 80 67 121 137
690.0 51 100 103 91 75 69 113 131 142 124
730.0 154 171 183 270 306 228 275 474 841 1925
770.0 3361 4321 4163 2910 1097 587 1043 1666 2964 3848
810.0 3649 1993 1671 1169 1298 2080 2587 2825 2505 1828
850.0 1323 860 640 447 343 266 197 155 114 58
890.0 131 108 104 128 41 61 105 91 94 110
930.0 133 148 103 136 66 112 104 123 62 87
970.0 87 87 78 104 103 125 150 145 133 139
1010.0 171 143 125 153 137 149 101 80 109 102
1050.0 108 118 164 264 391 673 1086 1316 1234 801
1090.0 302 112 128 124 116 126 130 154 221 253
1130.0 291 274 277 226 201 290 435 675 1097 1766
1170.0 3168 5063 6125 5882 4332 2395 1338 926 588 399
1210.0 356 330 329 283 221 210 185 175 174 139
1250.0 128 99 107 167 179 188 175 123 101 77
1290.0 85 87 84 103 95 118 124 133 200 293
1330.0 476 766 1141 1540 1981 2556 3248 3846 3954 3458
1370.0 2580 1591 916 769 597 584 563 432 553 659
1410.0 1161 2211 4365 7943 10000 9627 7494 4200 2678 2523
1450.0 1740 1065 643 204 204 133 111 139 82 151
1490.0 200 216 230 166 183 135 104 136 114 135
1530.0 129 150 187 249 315 358 449 470 425 368
1570.0 289 230 201 138 129 115 95 154 155 226
1610.0 281 252 245 147 116 80 72 92 98 107
1650.0 138 118 106 82 90 100 89 84 100 119
1690.0 110 105 113 103 90 75 90 101 82 93
1730.0 121 175 185 186 145 115 73 72 65 67
1770.0 82 76 81 82 76 79 67 74 68 69
1810.0 70 66 74 62 68 77 70 74 81 96
1850.0 90 89 120 153 207 278 305 298 244 160
1890.0 115 83 75 70 76 71 66 66 73 72
1930.0 68 76 83 89 86 80 67 63 62 57
1970.0 60 57 57 53 53 58 60 63 61 67
2010.0 76 72 77 66 64 48 50 51 49 43
2050.0 47 56 48 49 51 54 51 50 52 45
2090.0 47 37 41 41 44 46 48 51 47 42
2130.0 50 48 50 49 41 48 40 47 53 46
2170.0 50 43 49 47 50 50 50 52 52 57
2210.0 52 43 38 35 33 45 34 32 35 35
2250.0 41 39 53 58 51 48 45 46 37 42
2290.0 36 34 36 46 47 50 66 49 49 65
2330.0 64 55 49 44 61 73 94 92 87 20
2370.0 19 23 24 19 23 27 40 35 32 31
2410.0 27 30 35 29 28 30 27 35 37 34
2450.0 35 40 30 41 45 47 59 48 51 54
2490.0 39 39 34 33 26 27 33 34 24 31
2530.0 28 33 21 26 21 23 27 30 26 26
2570.0 17 22 21 26 23 25 29 26 41 30
2610.0 32 39 31 34 27 27 29 20 22 17
2650.0 17 22 21 22 21 20 17 18 18 23
2690.0 24 22 17 15 11 16 11 21 17 21
2730.0 24 15 13 16 17 17 26 32 34 39
2770.0 42 51 55 55 37 28 21 14 9 9
2810.0 5 8 10 3 8 15 12 11 5 14
2850.0 17 4 10 13 10 5 6 15 9 8
2890.0 10 16 12 5 19 12 11 7 3 6
2930.0 15 23 16 15 11 21 12 10 14 23
2970.0 16 18 13 18 19 16 25 6 11 23
3010.0 19 11 18 20 17 8 18 9 27 27
3050.0 18 12 18 29 29 39 31 36 36 24
3090.0 15 15 26 30 31 42 33 27 23 27
3130.0 24 11 18 17 24 20 8 21 28 17
3170.0 24 11 17 17 28 29 30 18 18 23
3210.0 13 14 12 13 27 34 15 37 12 24
3250.0 22 27 23 22 13 34 28 38 33 31
3290.0 10 8 20 41 25 12 24 22 17 31
3330.0 29 22 30 24 26 33 51 43 43 25
3370.0 18 25 31 32 34 29 35 30 28 33
3410.0 42 38 34 37 19 32 35 34 32 43
3450.0 36 45 45 22 28 36 48 36 19 36
3490.0 25 22 33 33 48 42 34 53 53 36
3530.0 32 31 28 58 40 67 60 38 48 43
3570.0 41 51 71 20 55 73 54 48 42 62
3610.0 71 64 62 73 60 29 47 48 61 70
3650.0 53 64 78 71 74 54 81 58 55 69
3690.0 86 36 69 47 47 47 84 37 84 89
3730.0 38 59 43 76 25 68 27 73 47 51
3770.0 103 71 61 49 61 81 52 31 48 87
3810.0 66 102 96 48 64 56 80 63 97 99
3850.0 83 8 62 82 70 124 82 75 101 93
3890.0 96 71 27 52 84 112 118 120 79 60
3930.0 31 56 39 113 196 122 132 82 52 0
##END=
