##TITLE=Benzene, 1,2,3,5-tetrachloro-
##JCAMP-DX=4.24
##DATA TYPE=INFRARED SPECTRUM
##ORIGIN=Sadtler Research Labs Under US-EPA Contract
##OWNER=NIST Standard Reference Data Program
##CAS REGISTRY NO=634-90-2
##MOLFORM=C 6 H 2 Cl 4
##XUNITS=1/CM
##YUNITS=ABSORBANCE
##XFACTOR=1.0
##YFACTOR=0.000064438
##DELTAX=4.0
##FIRSTX=450.0
##LASTX=3966.0
##FIRSTY=0.000000
##MAXX=3966
##MINX=450
##MAXY=0.64438
##MINY=0
##NPOINTS=880
##XYDATA=(X++(Y..Y))
450.0 0 345 810 436 321 667 606 747 875 741
490.0 965 921 909 891 801 810 675 682 711 677
530.0 698 432 528 500 603 982 1094 1563 1416 1233
570.0 1180 1186 1377 1676 2138 3453 4379 4567 3947 2436
610.0 1574 1386 1399 1255 1043 877 750 692 759 684
650.0 710 702 688 613 640 734 652 748 984 1033
690.0 1457 1534 1245 956 816 724 715 736 647 618
730.0 615 651 598 626 637 688 699 754 790 831
770.0 890 889 999 1309 1915 2998 4102 4908 5264 5060
810.0 4888 4972 5339 5587 5758 6324 6490 6228 5103 3670
850.0 3526 4136 4927 5817 3961 2914 1824 1110 861 792
890.0 810 829 800 774 703 679 658 642 630 625
930.0 617 600 615 608 592 601 605 596 616 609
970.0 644 669 655 667 654 667 677 675 682 662
1010.0 679 670 681 754 792 944 1092 1250 1511 1687
1050.0 1682 1465 1099 803 695 690 689 700 727 717
1090.0 768 843 1131 1956 3350 4604 4863 4183 3819 3880
1130.0 4094 3520 2170 1225 986 1027 1027 1067 1130 1237
1170.0 1440 1612 1914 2394 2576 2494 2097 1482 1065 899
1210.0 834 798 806 825 843 965 1099 1231 1299 1197
1250.0 1008 806 711 707 681 684 686 684 711 699
1290.0 735 726 711 753 730 752 760 739 788 787
1330.0 838 948 1092 1343 1643 2145 2813 3616 4759 5621
1370.0 5984 6029 5794 5766 5842 5940 6198 6948 8763 9920
1410.0 9188 7124 4901 4501 5298 5441 4822 3282 1967 1400
1450.0 1094 1014 1050 879 865 817 906 921 899 920
1490.0 934 929 903 979 991 1063 1131 1108 1454 1725
1530.0 2368 3713 5323 7803 9550 10000 9345 7977 7587 7043
1570.0 6035 4512 3133 2198 1779 1458 1148 1119 922 883
1610.0 851 735 812 709 766 738 766 806 747 740
1650.0 761 688 650 586 572 604 562 550 541 575
1690.0 522 503 588 586 639 678 809 1043 1055 1029
1730.0 986 892 737 641 570 577 517 510 493 484
1770.0 508 500 491 478 487 507 493 514 507 488
1810.0 492 464 471 448 457 451 438 429 445 457
1850.0 435 416 432 424 443 473 445 457 450 449
1890.0 472 462 459 450 448 450 448 457 463 453
1930.0 457 454 466 480 479 482 472 483 483 479
1970.0 475 454 457 452 440 450 452 452 447 446
2010.0 447 438 452 443 436 441 422 423 412 404
2050.0 398 389 386 382 394 394 389 400 405 403
2090.0 412 407 410 411 407 406 400 397 385 377
2130.0 374 366 362 364 362 376 372 377 381 384
2170.0 401 400 400 405 404 401 390 392 391 387
2210.0 391 385 390 392 383 390 387 393 395 386
2250.0 385 383 380 379 373 380 375 378 377 378
2290.0 389 389 395 407 412 419 426 406 412 410
2330.0 413 401 391 440 376 381 316 316 316 316
2370.0 324 336 353 349 341 350 356 366 367 369
2410.0 368 361 361 350 341 338 326 321 331 325
2450.0 327 325 324 331 332 341 348 351 354 352
2490.0 350 352 350 349 337 341 346 350 352 344
2530.0 354 360 358 362 364 355 358 345 346 346
2570.0 350 344 340 350 351 358 362 374 386 391
2610.0 394 395 397 389 378 374 364 354 352 340
2650.0 341 337 335 334 339 341 350 352 358 351
2690.0 362 369 360 362 367 370 367 362 364 360
2730.0 358 358 357 374 363 363 364 369 378 383
2770.0 392 411 413 419 410 402 381 371 360 354
2810.0 361 362 356 367 366 373 376 371 363 360
2850.0 352 341 339 341 334 329 327 331 341 350
2890.0 351 355 369 386 395 406 419 415 419 417
2930.0 413 411 395 391 382 376 372 371 377 398
2970.0 404 404 407 410 400 396 384 370 370 362
3010.0 345 349 351 348 346 333 343 347 345 351
3050.0 348 359 350 359 369 380 415 439 458 460
3090.0 447 412 394 408 432 434 448 467 469 453
3130.0 451 434 416 406 386 359 356 339 331 318
3170.0 319 317 325 336 345 344 360 369 376 384
3210.0 402 399 395 386 400 380 372 356 373 368
3250.0 357 348 374 382 380 371 378 379 390 400
3290.0 384 387 388 379 371 372 374 384 380 382
3330.0 394 401 402 387 411 407 394 387 381 377
3370.0 362 349 349 334 336 325 334 350 355 371
3410.0 384 388 408 411 419 405 418 405 385 393
3450.0 371 359 345 327 327 336 323 328 337 353
3490.0 348 357 361 391 371 384 379 376 368 378
3530.0 373 363 357 367 354 344 360 365 363 374
3570.0 378 387 373 354 352 345 370 352 365 346
3610.0 363 354 355 360 379 389 418 394 406 419
3650.0 434 432 380 405 362 389 363 411 350 325
3690.0 363 316 368 349 361 378 414 412 411 438
3730.0 445 448 470 431 433 440 437 397 363 349
3770.0 347 371 354 356 379 381 396 397 375 429
3810.0 376 422 393 444 397 412 347 368 400 382
3850.0 422 433 532 440 450 484 483 475 432 473
3890.0 468 412 329 333 338 316 340 332 372 318
3930.0 392 420 473 526 560 524 558 559 567 495
##END=
