##TITLE=Benzenamine, 3,4,5-trichloro-
##JCAMP-DX=4.24
##DATA TYPE=INFRARED SPECTRUM
##ORIGIN=Sadtler Research Labs Under US-EPA Contract
##OWNER=NIST Standard Reference Data Program
##CAS REGISTRY NO=634-91-3
##MOLFORM=C 6 H 4 Cl 3 N
##XUNITS=1/CM
##YUNITS=ABSORBANCE
##XFACTOR=1.0
##YFACTOR=0.000042819
##DELTAX=4.0
##FIRSTX=450.0
##LASTX=3966.0
##FIRSTY=0.158174
##MAXX=3966
##MINX=450
##MAXY=0.42819
##MINY=0
##NPOINTS=880
##XYDATA=(X++(Y..Y))
450.0 3694 2371 646 1677 1255 120 1030 512 786 861
490.0 318 947 662 873 997 755 863 704 992 905
530.0 874 857 1204 1537 899 32 874 760 758 608
570.0 506 702 708 953 944 1004 1219 1016 848 653
610.0 609 760 815 929 1059 1296 2113 3044 4164 4984
650.0 5275 4703 3756 3002 2394 2120 2459 2731 3228 3325
690.0 2954 2510 2086 1844 1766 1773 1665 1707 1401 1166
730.0 1033 803 750 744 777 627 679 632 562 659
770.0 751 910 1049 1082 1191 1369 2010 3006 5021 7323
810.0 8241 8156 5866 3199 2379 2877 3446 3925 4260 3723
850.0 2914 2195 1567 1070 816 627 602 566 597 540
890.0 511 520 321 292 334 338 381 398 480 579
930.0 717 875 1079 1424 1601 1627 1449 1027 646 332
970.0 196 221 187 196 232 340 353 383 355 283
1010.0 330 293 286 309 296 302 304 351 366 306
1050.0 337 323 334 431 490 508 597 603 644 617
1090.0 572 663 650 778 852 972 1008 1044 1160 1235
1130.0 1385 1554 1854 2555 3734 4871 5323 4771 3366 1792
1170.0 813 458 623 1066 1452 1597 1446 1070 515 267
1210.0 210 164 175 134 109 111 181 264 389 545
1250.0 864 1347 1999 2535 2646 2374 1776 1296 1179 1170
1290.0 1056 885 675 545 341 244 177 118 198 210
1330.0 263 253 266 249 249 273 331 402 544 545
1370.0 584 545 500 467 444 528 687 1017 1754 2878
1410.0 4353 5389 6164 6642 6986 7331 7618 7757 7577 6885
1450.0 5957 4608 2961 1672 1148 804 750 717 657 645
1490.0 600 526 486 470 502 642 774 1060 1435 1613
1530.0 1711 1547 1450 1497 1824 2639 3859 5285 6178 6191
1570.0 5232 3949 3588 4624 6270 8063 8946 8516 7509 6202
1610.0 5963 6680 7696 9228 10000 9737 8542 6506 4617 2982
1650.0 2021 1458 971 780 713 727 769 769 810 774
1690.0 694 651 619 585 522 444 380 337 276 238
1730.0 232 277 198 189 189 165 150 158 176 167
1770.0 186 182 157 147 129 147 170 151 169 128
1810.0 115 108 91 87 64 55 53 22 35 71
1850.0 75 56 46 45 64 60 40 30 25 43
1890.0 47 43 36 39 54 56 53 79 92 94
1930.0 83 83 79 87 93 80 93 71 76 75
1970.0 56 55 72 76 74 87 68 62 61 58
2010.0 62 57 64 57 61 64 62 51 41 49
2050.0 49 51 49 67 56 60 47 42 13 27
2090.0 34 31 20 30 33 16 19 14 6 1
2130.0 17 12 4 22 22 39 30 37 51 36
2170.0 32 30 51 53 60 62 52 32 36 33
2210.0 33 60 77 50 68 70 78 69 62 65
2250.0 56 40 32 31 42 48 64 52 61 76
2290.0 77 73 93 95 81 84 76 67 76 72
2330.0 78 49 79 64 119 109 67 86 79 109
2370.0 127 115 141 125 98 58 50 42 57 64
2410.0 41 53 44 44 41 49 37 52 57 47
2450.0 52 38 42 40 46 31 37 33 25 24
2490.0 33 35 27 10 19 6 15 0 12 17
2530.0 58 57 34 34 35 50 66 98 105 99
2570.0 108 122 126 111 96 89 74 60 56 65
2610.0 59 58 56 48 55 59 61 64 62 51
2650.0 66 59 55 80 90 98 96 108 135 133
2690.0 150 147 139 164 143 150 137 111 128 131
2730.0 123 124 103 94 67 61 53 68 55 57
2770.0 44 36 52 45 59 57 50 53 59 78
2810.0 77 98 111 123 114 93 80 63 60 33
2850.0 25 31 45 40 33 33 27 17 6 35
2890.0 22 24 29 41 38 44 47 54 58 31
2930.0 54 68 45 36 25 35 53 30 55 49
2970.0 42 51 47 41 49 44 31 34 56 48
3010.0 58 48 25 43 38 47 65 48 76 83
3050.0 105 160 206 367 446 503 463 365 227 102
3090.0 57 51 84 86 79 83 93 90 84 81
3130.0 58 64 47 56 49 43 51 49 42 20
3170.0 57 38 55 64 51 70 77 95 119 149
3210.0 159 175 201 200 238 238 211 217 178 149
3250.0 132 124 65 46 72 84 73 57 64 90
3290.0 109 96 96 75 82 97 83 62 76 85
3330.0 96 70 94 80 92 119 105 126 152 186
3370.0 217 218 237 282 307 407 451 619 768 1011
3410.0 1293 1498 1647 1630 1676 1740 1629 1449 1122 669
3450.0 337 237 216 221 232 225 281 341 409 531
3490.0 628 741 844 875 807 733 661 792 854 821
3530.0 694 508 270 136 115 106 98 88 86 106
3570.0 114 127 134 173 163 207 248 233 212 275
3610.0 241 232 143 121 62 77 61 82 52 1
3650.0 32 45 43 134 124 143 178 140 128 153
3690.0 140 199 155 155 166 159 61 56 46 50
3730.0 47 53 119 58 65 101 127 117 89 86
3770.0 85 150 120 143 126 139 154 66 116 91
3810.0 62 53 110 65 106 8 83 121 208 192
3850.0 253 235 238 245 202 118 210 220 204 144
3890.0 139 173 13 101 72 113 72 40 78 94
3930.0 58 152 219 85 41 58 161 164 117 123
##END=
