##TITLE=Benzoic acid, 2-amino-5-chloro-
##JCAMP-DX=4.24
##DATA TYPE=INFRARED SPECTRUM
##ORIGIN=Sadtler Research Labs Under US-EPA Contract
##OWNER=NIST Standard Reference Data Program
##CAS REGISTRY NO=635-21-2
##MOLFORM=C 7 H 6 Cl N O 2
##XUNITS=1/CM
##YUNITS=ABSORBANCE
##XFACTOR=1.0
##YFACTOR=0.000048059
##DELTAX=4.0
##FIRSTX=450.0
##LASTX=3966.0
##FIRSTY=0.048972
##MAXX=3966
##MINX=450
##MAXY=0.48059
##MINY=0
##NPOINTS=880
##XYDATA=(X++(Y..Y))
450.0 1019 1273 1800 1536 1276 1126 1459 1540 1578 1239
490.0 1370 1360 1406 1545 1639 1500 1684 1920 1780 1993
530.0 1827 1774 1953 1912 2199 1501 2171 2624 2870 2668
570.0 3165 2660 2098 1723 1684 1464 1273 1115 1113 1101
610.0 1079 1027 1105 1001 1103 1343 1525 1830 2088 2030
650.0 1932 1831 1595 1879 2038 2861 2861 2729 2213 1498
690.0 1016 1056 1122 903 873 852 708 1033 547 463
730.0 407 447 601 544 588 723 811 616 765 787
770.0 693 627 562 575 642 687 629 587 746 1068
810.0 1340 1933 2126 1714 1312 1146 867 552 453 503
850.0 578 426 483 267 454 640 728 849 782 744
890.0 639 567 708 668 575 394 316 353 365 311
930.0 353 328 300 267 279 279 253 270 269 231
970.0 244 185 204 223 229 223 193 193 164 148
1010.0 153 85 44 11 116 199 246 407 632 940
1050.0 1200 1470 1775 1952 2034 2105 2104 2042 1902 1728
1090.0 1584 1408 1378 1687 2022 2899 3653 3853 3936 3321
1130.0 2368 1801 1491 1317 1384 1875 2509 3012 3594 4471
1170.0 5289 6069 6337 5696 4332 2813 1772 1290 1077 1014
1210.0 996 959 936 854 848 837 903 991 1021 1119
1250.0 1181 1182 1062 947 890 926 894 899 926 1034
1290.0 1173 1341 1575 1752 1773 1694 1548 1486 1378 1350
1330.0 1368 1451 1679 1854 1900 1803 1596 1276 1044 998
1370.0 1131 1383 1491 1411 1274 917 726 657 617 737
1410.0 857 1032 1020 952 813 700 641 513 460 430
1450.0 474 594 739 957 1087 1438 1921 2553 3276 3822
1490.0 3882 3421 2531 1796 1349 1037 707 716 676 654
1530.0 560 588 688 825 952 1155 1583 1974 2204 2028
1570.0 1935 1793 1786 2118 2425 2813 2937 2665 2586 2396
1610.0 2595 3148 3843 4087 3735 3262 2293 1464 1030 656
1650.0 644 483 506 386 560 662 701 715 868 982
1690.0 974 1001 1079 1192 1237 1546 1982 3167 5172 7579
1730.0 10000 9809 8235 5060 2750 1965 1566 1453 1259 907
1770.0 717 562 429 429 436 522 530 530 411 307
1810.0 226 140 130 62 129 124 86 96 77 165
1850.0 101 85 80 68 97 83 91 58 100 120
1890.0 130 126 133 114 96 95 83 106 109 77
1930.0 77 62 43 66 58 62 50 53 20 40
1970.0 25 0 25 15 31 30 13 17 40 20
2010.0 37 47 13 18 20 22 26 6 43 48
2050.0 28 59 58 25 25 36 63 48 58 29
2090.0 27 24 22 18 65 59 30 55 18 46
2130.0 47 26 44 40 39 58 77 65 54 64
2170.0 64 48 51 76 68 55 46 36 46 27
2210.0 36 25 39 33 28 27 27 28 25 49
2250.0 30 31 40 30 22 46 47 62 46 72
2290.0 95 112 145 165 192 228 219 214 220 200
2330.0 155 145 182 127 259 225 323 207 241 143
2370.0 142 119 165 161 104 80 59 57 54 53
2410.0 57 46 42 39 62 44 38 49 51 58
2450.0 50 55 52 58 58 66 63 54 48 59
2490.0 58 59 44 36 36 29 28 38 16 39
2530.0 35 43 33 22 20 27 29 33 53 64
2570.0 62 69 69 65 56 61 72 60 75 71
2610.0 79 90 76 84 85 84 68 74 69 65
2650.0 85 74 73 70 74 88 83 78 76 57
2690.0 48 80 65 72 82 83 90 83 97 73
2730.0 73 75 86 104 92 110 85 79 79 63
2770.0 86 96 81 86 80 98 86 91 80 90
2810.0 93 84 101 85 72 74 96 93 91 82
2850.0 74 96 90 91 97 94 108 100 119 108
2890.0 107 96 82 85 70 95 71 50 44 60
2930.0 85 89 89 108 102 68 82 61 63 62
2970.0 89 93 114 121 125 120 118 129 128 157
3010.0 159 150 179 170 223 279 311 317 331 336
3050.0 341 301 249 272 264 307 318 319 310 298
3090.0 237 203 196 193 170 164 160 148 137 125
3130.0 100 131 141 112 102 125 120 134 129 127
3170.0 141 154 146 125 131 106 117 114 113 117
3210.0 96 110 113 117 112 110 95 108 95 98
3250.0 106 124 119 117 105 115 127 153 143 141
3290.0 158 195 185 235 269 265 267 291 281 258
3330.0 260 247 246 261 290 310 324 359 373 389
3370.0 441 567 800 1211 1698 2143 2222 1935 1397 910
3410.0 556 380 336 319 296 312 349 350 336 323
3450.0 297 267 222 208 237 238 244 245 302 333
3490.0 374 418 505 580 655 748 884 985 1060 1041
3530.0 958 830 667 492 349 257 193 164 257 359
3570.0 702 1085 1914 2983 3399 3173 2585 1247 421 152
3610.0 100 90 71 92 88 103 78 55 29 122
3650.0 63 176 21 141 76 116 168 144 114 78
3690.0 219 113 194 141 165 164 193 145 174 191
3730.0 167 204 155 221 206 339 200 249 204 263
3770.0 225 211 201 136 172 180 117 219 155 204
3810.0 68 249 135 286 149 181 230 276 189 204
3850.0 277 270 262 92 262 169 204 246 131 163
3890.0 199 150 217 214 238 152 124 267 215 181
3930.0 160 164 149 109 142 57 166 248 189 192
##END=
