##TITLE=Quinoline, 1,2,3,4-tetrahydro-
##JCAMP-DX=4.24
##DATA TYPE=INFRARED SPECTRUM
##ORIGIN=Sadtler Research Labs Under US-EPA Contract
##OWNER=NIST Standard Reference Data Program
##CAS REGISTRY NO=635-46-1
##MOLFORM=C 9 H 11 N
##XUNITS=1/CM
##YUNITS=ABSORBANCE
##XFACTOR=1.0
##YFACTOR=0.000096518
##DELTAX=4.0
##FIRSTX=450.0
##LASTX=3966.0
##FIRSTY=0.029728
##MAXX=3966
##MINX=450
##MAXY=0.96518
##MINY=0
##NPOINTS=880
##XYDATA=(X++(Y..Y))
450.0 308 760 905 627 605 568 618 616 560 688
490.0 600 723 677 732 775 785 843 810 837 811
530.0 888 790 842 816 737 724 663 678 615 598
570.0 499 553 480 448 401 429 483 404 402 370
610.0 310 287 274 242 251 297 334 439 516 604
650.0 705 757 739 733 717 712 707 649 621 590
690.0 606 649 715 827 972 1228 1568 1718 2089 2737
730.0 3490 4303 5057 6549 6488 4513 3701 2789 1832 1151
770.0 754 613 527 570 465 411 487 540 549 513
810.0 467 530 497 487 446 365 319 283 236 166
850.0 157 135 155 204 263 252 264 301 241 186
890.0 117 70 44 24 36 45 91 113 166 264
930.0 284 163 167 140 112 79 59 49 27 26
970.0 22 24 26 34 57 107 210 408 587 635
1010.0 629 627 461 286 266 290 259 234 193 98
1050.0 17 0 25 66 149 244 338 454 625 847
1090.0 1028 1090 1115 1060 894 754 770 778 753 720
1130.0 624 444 356 370 482 573 519 538 644 561
1170.0 569 678 858 1007 1055 1077 1029 892 716 629
1210.0 529 417 314 275 311 383 542 770 1115 1562
1250.0 2359 3363 4084 4280 4186 3885 2976 2167 1871 1996
1290.0 2462 3283 4338 5207 5399 5073 4254 2729 1450 970
1330.0 931 980 1175 1433 1902 2621 3160 3336 3224 2816
1370.0 1993 1142 627 382 308 252 243 249 238 244
1410.0 268 291 393 446 545 659 879 1102 1477 1766
1450.0 1987 2203 2432 2788 3216 3630 4492 5513 6248 6630
1490.0 7092 8097 8613 8113 7246 6430 4914 2703 1421 827
1530.0 601 473 428 431 398 367 404 503 580 727
1570.0 1019 1437 1994 2542 2892 3169 3502 3906 4136 4423
1610.0 4409 4028 3359 2360 1489 836 539 367 285 252
1650.0 281 291 289 283 308 308 286 218 206 195
1690.0 121 106 140 143 112 78 96 126 81 61
1730.0 97 145 131 139 183 208 221 229 223 209
1770.0 221 215 170 177 171 181 176 163 159 110
1810.0 91 78 64 66 73 80 71 66 97 122
1850.0 105 94 102 106 126 174 205 231 227 226
1890.0 224 173 154 179 223 247 244 230 196 114
1930.0 59 42 32 35 35 24 26 29 37 36
1970.0 37 36 32 29 25 33 26 25 24 26
2010.0 22 29 34 33 39 40 33 33 29 19
2050.0 8 0 3 9 6 7 8 17 18 24
2090.0 24 28 21 13 10 2 7 4 6 10
2130.0 15 17 20 16 15 12 11 9 10 11
2170.0 14 13 20 20 21 23 24 24 24 25
2210.0 33 32 25 29 23 26 17 21 13 11
2250.0 11 6 3 0 10 9 10 17 16 16
2290.0 20 19 26 37 53 69 69 79 77 76
2330.0 68 57 68 55 57 44 60 42 46 5
2370.0 6 0 0 6 4 3 5 15 17 25
2410.0 29 33 39 42 44 45 39 38 40 43
2450.0 45 44 47 49 39 31 22 23 18 19
2490.0 25 26 25 28 27 32 42 43 44 42
2530.0 41 48 54 66 81 103 121 137 153 166
2570.0 146 130 105 92 81 73 73 78 84 94
2610.0 105 106 118 127 127 146 141 143 137 145
2650.0 153 168 183 197 208 201 198 197 188 183
2690.0 200 204 209 231 242 246 236 216 206 188
2730.0 182 181 195 209 224 238 277 313 361 427
2770.0 497 587 656 712 749 750 734 729 762 837
2810.0 987 1208 1506 1838 2226 2627 3032 3401 3766 4163
2850.0 4404 4469 4370 4224 3776 3300 2843 2443 2160 1994
2890.0 1958 2026 2168 2323 2440 2455 2617 3037 3781 4800
2930.0 5842 6824 7724 8817 9462 10000 9595 8467 7088 5210
2970.0 3408 2238 1536 1141 924 808 772 831 988 1239
3010.0 1622 2076 2438 2586 2637 2698 2447 2058 1842 1819
3050.0 1992 2299 2652 2866 2858 2658 2334 1917 1580 1379
3090.0 1203 1028 834 654 500 372 282 215 180 156
3130.0 115 91 81 50 56 57 53 46 62 71
3170.0 69 57 65 69 56 53 49 45 36 35
3210.0 48 29 33 31 32 29 34 51 38 41
3250.0 48 49 54 43 34 36 36 25 24 17
3290.0 12 12 5 2 6 15 18 22 18 25
3330.0 28 19 14 24 18 24 34 39 43 29
3370.0 33 36 49 45 41 42 51 59 58 67
3410.0 87 112 178 228 323 464 599 745 828 825
3450.0 792 705 531 366 252 190 145 123 100 102
3490.0 91 95 80 71 80 94 77 108 109 96
3530.0 93 101 101 68 73 75 83 79 74 69
3570.0 74 83 76 58 57 78 91 82 91 78
3610.0 91 82 94 95 80 81 70 67 83 72
3650.0 71 96 89 90 84 84 100 70 81 76
3690.0 95 104 87 95 101 107 99 83 85 102
3730.0 99 81 81 127 93 111 146 99 142 95
3770.0 81 81 112 89 75 100 118 121 143 112
3810.0 115 119 118 146 112 121 124 127 126 101
3850.0 129 149 136 117 116 127 102 155 146 152
3890.0 153 139 125 128 111 110 132 97 132 121
3930.0 162 128 109 106 122 116 101 111 117 117
##END=
