##TITLE=Benzene, 1,2,4,5-tetrabromo-
##JCAMP-DX=4.24
##DATA TYPE=INFRARED SPECTRUM
##ORIGIN=Sadtler Research Labs Under US-EPA Contract
##OWNER=NIST Standard Reference Data Program
##CAS REGISTRY NO=636-28-2
##MOLFORM=C 6 H 2 Br 4
##XUNITS=1/CM
##YUNITS=ABSORBANCE
##XFACTOR=1.0
##YFACTOR=0.000035730
##DELTAX=4.0
##FIRSTX=450.0
##LASTX=3966.0
##FIRSTY=0.027905
##MAXX=3966
##MINX=450
##MAXY=0.3573
##MINY=0
##NPOINTS=880
##XYDATA=(X++(Y..Y))
450.0 781 590 116 174 104 498 305 0 771 340
490.0 133 230 305 493 423 843 1230 1984 2895 2234
530.0 1180 701 436 408 357 427 396 486 345 393
570.0 359 228 320 164 357 469 301 266 423 266
610.0 298 167 423 584 323 325 527 485 378 302
650.0 319 195 277 372 299 172 464 344 503 291
690.0 280 469 212 307 318 462 541 446 449 351
730.0 249 530 371 235 249 397 358 416 442 597
770.0 593 482 325 242 287 360 345 349 306 266
810.0 329 387 290 244 278 366 314 356 284 302
850.0 211 283 288 255 337 692 1345 2468 2740 1612
890.0 627 400 270 293 250 274 276 259 359 280
930.0 287 332 276 280 292 242 292 280 262 218
970.0 289 304 314 258 310 392 341 350 362 503
1010.0 931 2135 4660 8023 10000 7174 3005 750 449 369
1050.0 375 336 363 469 442 396 336 351 415 439
1090.0 529 803 1574 2675 3269 3015 2421 2015 1451 780
1130.0 393 315 278 276 285 259 257 246 285 263
1170.0 237 270 297 386 510 638 647 444 279 224
1210.0 248 265 274 317 324 338 337 312 322 345
1250.0 386 462 437 399 354 334 374 516 829 1413
1290.0 2100 2667 2992 2954 2219 1447 1055 940 789 582
1330.0 405 323 329 328 254 250 240 243 278 258
1370.0 294 317 263 336 306 381 489 579 1020 1753
1410.0 2936 4026 5137 6415 6425 4077 2047 1402 2028 3183
1450.0 3841 2806 1464 541 525 240 296 294 224 273
1490.0 234 235 251 270 304 227 389 229 235 258
1530.0 231 274 110 203 217 270 238 151 137 205
1570.0 170 201 165 236 253 282 200 294 180 207
1610.0 250 109 224 129 236 154 201 170 231 244
1650.0 169 183 123 277 162 204 169 246 204 237
1690.0 208 235 176 83 186 162 218 168 181 296
1730.0 261 419 268 384 310 245 215 193 171 194
1770.0 187 149 197 201 197 196 144 185 200 183
1810.0 173 169 184 166 183 142 180 154 184 155
1850.0 178 163 157 172 153 162 162 161 164 159
1890.0 157 158 161 149 162 150 175 136 174 161
1930.0 152 165 153 168 157 162 145 159 148 161
1970.0 143 149 148 143 146 158 159 145 134 146
2010.0 131 141 153 146 138 135 126 147 142 140
2050.0 141 142 138 140 153 145 142 145 145 153
2090.0 159 162 155 140 146 139 140 146 137 145
2130.0 136 144 144 138 141 138 132 124 134 133
2170.0 131 127 136 135 129 131 131 124 128 125
2210.0 122 124 128 132 127 124 126 125 115 122
2250.0 120 111 112 107 107 106 109 105 113 129
2290.0 124 121 127 140 133 111 122 119 107 85
2330.0 74 91 80 101 63 142 36 75 20 46
2370.0 81 58 118 118 117 129 110 124 113 129
2410.0 121 118 123 109 112 105 96 101 93 84
2450.0 92 76 83 92 85 78 80 88 81 84
2490.0 85 84 74 80 87 86 70 81 83 85
2530.0 85 79 84 88 92 85 84 82 88 84
2570.0 87 90 80 68 63 48 46 59 60 60
2610.0 62 57 66 65 67 74 65 76 82 81
2650.0 88 77 87 89 91 90 81 72 81 76
2690.0 80 71 75 89 77 79 73 74 85 90
2730.0 95 92 116 140 150 154 140 130 109 94
2770.0 93 99 84 80 80 73 59 74 78 76
2810.0 68 64 63 75 67 80 81 70 66 73
2850.0 60 71 68 77 70 82 71 73 78 68
2890.0 74 70 78 81 60 73 84 86 88 90
2930.0 85 96 96 94 106 121 94 94 104 90
2970.0 90 92 86 91 91 103 80 76 101 102
3010.0 112 96 71 100 96 112 92 106 107 105
3050.0 117 121 124 128 131 141 149 158 184 252
3090.0 316 283 186 117 74 85 86 92 78 61
3130.0 71 67 91 83 83 107 85 83 80 87
3170.0 70 69 76 99 64 88 90 98 110 80
3210.0 78 80 77 82 75 90 85 94 101 84
3250.0 82 101 86 63 80 107 98 79 101 88
3290.0 92 74 78 99 88 96 82 109 112 85
3330.0 76 89 84 96 99 80 91 122 92 71
3370.0 98 85 81 103 90 93 86 91 90 93
3410.0 93 100 102 101 106 107 112 102 100 99
3450.0 111 88 112 147 109 94 101 96 121 136
3490.0 115 119 118 150 146 168 111 96 132 160
3530.0 147 125 113 122 170 163 90 128 96 176
3570.0 183 137 125 94 148 105 133 114 162 64
3610.0 176 165 63 143 89 114 110 86 133 135
3650.0 49 190 63 182 129 149 92 112 113 106
3690.0 119 41 176 150 168 99 143 134 172 174
3730.0 135 78 144 174 52 54 37 171 141 151
3770.0 116 140 142 136 161 149 111 159 17 138
3810.0 24 156 63 130 66 89 38 33 66 59
3850.0 83 37 125 62 92 106 19 154 153 99
3890.0 134 96 113 77 165 33 129 95 113 122
3930.0 169 124 76 145 168 81 112 116 113 108
##END=
