##TITLE=2-Pyridinealdoxime O-benzyl ether
##JCAMP-DX=4.24
##DATA TYPE=INFRARED SPECTRUM
##ORIGIN=Sadtler Research Labs Under US-EPA Contract
##OWNER=NIST Standard Reference Data Program
##CAS REGISTRY NO=63680-93-3
##MOLFORM=C 13 H 12 N 2 O
##XUNITS=1/CM
##YUNITS=ABSORBANCE
##XFACTOR=1.0
##YFACTOR=0.000064761
##DELTAX=4.0
##FIRSTX=450.0
##LASTX=3966.0
##FIRSTY=0.000000
##MAXX=3966
##MINX=450
##MAXY=0.64761
##MINY=0
##NPOINTS=880
##XYDATA=(X++(Y..Y))
450.0 0 147 120 122 169 223 187 254 277 263
490.0 299 319 374 477 603 861 1100 1239 1273 1157
530.0 1061 894 875 775 654 554 439 347 303 270
570.0 217 221 264 304 392 523 728 966 1275 1408
610.0 1383 1223 1077 979 793 637 519 396 338 401
650.0 481 728 1048 1260 1288 1189 1191 1304 1543 1872
690.0 2431 2926 3072 2548 2088 1817 1736 1834 1963 2148
730.0 2435 2939 3512 4053 3938 3405 2724 2160 1935 2006
770.0 2258 2353 1998 1384 969 769 690 635 522 443
810.0 427 451 495 472 447 438 440 428 459 545
850.0 717 975 1215 1256 1011 722 546 490 500 555
890.0 653 814 1061 1454 2089 2984 3888 4319 4117 3640
930.0 3426 3598 3922 4096 4107 4007 3809 3475 3042 2635
970.0 2400 2426 2695 3102 3584 4037 4316 4621 5062 5415
1010.0 5801 6523 7788 9203 9598 9017 9042 9738 10000 8964
1050.0 7281 5655 4374 3516 2908 2441 2107 1875 1732 1804
1090.0 1872 1610 1045 686 519 408 351 313 297 258
1130.0 230 235 306 586 873 839 441 236 217 214
1170.0 241 286 321 338 343 401 525 741 983 1104
1210.0 1037 840 627 452 364 337 363 408 504 565
1250.0 596 602 555 503 426 365 332 353 399 509
1290.0 667 725 642 572 585 643 748 915 1072 1270
1330.0 1418 1425 1277 1095 1004 1120 1500 2282 3070 3181
1370.0 2560 1702 996 594 448 354 307 276 238 242
1410.0 248 302 374 544 884 1764 2973 2979 1891 1300
1450.0 1266 1448 1704 2416 3430 3842 2721 1292 670 520
1490.0 572 743 856 737 560 423 346 308 279 254
1530.0 246 274 297 360 412 488 636 907 1381 1805
1570.0 2135 2277 2706 3535 4149 3722 2455 1543 1173 1070
1610.0 925 747 559 428 346 279 247 215 186 197
1650.0 198 228 232 250 231 209 226 295 386 422
1690.0 379 353 343 328 321 348 427 483 495 495
1730.0 518 507 388 285 232 228 212 212 210 214
1770.0 228 238 223 220 214 240 285 327 333 293
1810.0 260 246 241 239 242 243 245 248 278 300
1850.0 314 314 328 354 401 476 521 508 441 371
1890.0 324 296 277 261 258 270 288 320 353 347
1930.0 328 320 337 365 387 401 395 356 307 263
1970.0 248 240 229 203 170 151 139 129 122 120
2010.0 119 118 119 120 116 114 112 114 115 114
2050.0 113 111 115 113 118 117 119 117 111 108
2090.0 106 98 99 94 95 94 89 88 92 89
2130.0 93 90 94 91 94 95 96 96 100 99
2170.0 105 110 120 120 119 112 112 107 106 103
2210.0 103 93 96 96 101 100 105 105 107 107
2250.0 108 106 112 112 119 122 130 135 145 155
2290.0 169 180 197 196 188 202 195 183 171 158
2330.0 148 137 130 146 155 159 168 157 144 127
2370.0 122 124 129 137 118 102 94 90 87 90
2410.0 97 97 97 107 106 106 110 111 110 117
2450.0 106 110 110 105 110 106 102 107 108 106
2490.0 106 106 111 111 112 115 111 117 129 125
2530.0 125 123 124 116 118 120 122 120 115 116
2570.0 116 118 119 123 122 121 125 125 135 133
2610.0 132 132 127 128 125 124 125 125 127 124
2650.0 121 123 125 127 130 130 133 134 141 137
2690.0 142 140 148 148 152 155 164 176 177 174
2730.0 174 175 171 158 141 140 142 140 144 145
2770.0 146 161 165 179 195 211 232 252 276 284
2810.0 286 285 284 276 271 283 289 302 316 338
2850.0 373 434 534 664 814 947 1019 1037 1028 984
2890.0 900 817 757 746 768 815 900 1062 1306 1618
2930.0 1934 2129 2099 1864 1588 1357 1235 1160 1109 1017
2970.0 899 778 662 571 520 504 525 595 714 900
3010.0 1172 1475 1718 1852 1902 1951 2094 2281 2371 2285
3050.0 2236 2373 2649 2855 3083 3576 3986 3641 2746 2054
3090.0 1850 1674 1383 1076 864 737 620 531 456 383
3130.0 325 295 271 243 207 186 167 158 155 162
3170.0 163 158 151 143 127 119 112 114 110 113
3210.0 113 110 112 108 110 108 109 98 102 108
3250.0 104 100 95 98 98 97 98 106 95 105
3290.0 100 103 105 102 95 97 101 107 100 93
3330.0 99 98 91 103 99 94 102 96 101 97
3370.0 93 96 94 93 95 89 95 98 94 98
3410.0 88 95 101 110 107 106 115 107 109 116
3450.0 115 106 98 102 97 101 103 101 98 110
3490.0 100 108 96 99 100 106 96 92 106 94
3530.0 99 113 104 99 110 107 110 100 104 90
3570.0 104 121 111 107 117 118 109 104 111 114
3610.0 108 115 107 110 106 127 138 141 136 157
3650.0 158 154 157 155 138 142 150 166 133 147
3690.0 133 116 122 120 125 126 129 132 126 114
3730.0 112 128 123 120 125 139 120 91 105 110
3770.0 98 97 95 102 111 119 117 116 102 108
3810.0 111 109 95 113 112 120 102 118 104 100
3850.0 104 129 123 133 122 124 100 111 126 133
3890.0 129 147 123 132 142 133 136 131 141 132
3930.0 123 158 149 139 153 145 126 126 140 126
##END=
