##TITLE=Aniline, m-chloro-N,N-diethyl-,
##JCAMP-DX=4.24
##DATA TYPE=INFRARED SPECTRUM
##ORIGIN=Sadtler Research Labs Under US-EPA Contract
##OWNER=NIST Standard Reference Data Program
##CAS REGISTRY NO=6375-75-3
##MOLFORM=C 10 H 14 Cl N
##XUNITS=1/CM
##YUNITS=ABSORBANCE
##XFACTOR=1.0
##YFACTOR=0.000089703
##DELTAX=4.0
##FIRSTX=450.0
##LASTX=3966.0
##FIRSTY=0.015070
##MAXX=3966
##MINX=450
##MAXY=0.89703
##MINY=0
##NPOINTS=880
##XYDATA=(X++(Y..Y))
450.0 168 212 194 134 112 150 149 137 111 93
490.0 75 69 52 51 67 50 57 90 68 90
530.0 79 72 69 73 61 52 43 45 46 37
570.0 30 43 35 43 42 40 34 27 33 35
610.0 24 30 20 1 18 21 19 29 31 47
650.0 53 78 102 176 294 519 602 806 982 1010
690.0 802 591 406 304 226 173 115 78 55 55
730.0 58 73 106 203 403 745 1235 1838 2090 1994
770.0 1694 1267 890 695 687 819 1047 1272 1323 1154
810.0 866 611 472 437 470 573 696 706 659 551
850.0 414 298 206 148 111 94 94 89 84 77
890.0 90 101 125 183 283 491 765 1005 1105 1008
930.0 786 558 376 270 207 168 150 143 148 161
970.0 186 244 429 825 1154 1261 1094 791 747 908
1010.0 1165 1411 1525 1467 1247 981 742 571 479 436
1050.0 438 467 543 656 825 1042 1227 1282 1223 1179
1090.0 1313 1709 2222 2424 2168 1568 965 638 492 412
1130.0 378 375 408 490 607 728 803 800 757 727
1170.0 768 876 1020 1215 1438 1655 1765 1686 1447 1117
1210.0 808 572 437 374 366 405 484 610 806 1104
1250.0 1549 2104 2604 2844 2766 2398 1900 1419 1009 763
1290.0 644 600 587 601 641 700 751 788 794 808
1330.0 877 1020 1277 1572 1885 2219 2526 2712 2662 2354
1370.0 2063 2084 2400 2642 2568 2067 1515 1108 830 683
1410.0 628 589 639 622 654 696 796 861 880 924
1450.0 1003 1092 1235 1366 1659 2154 2843 3535 4275 5178
1490.0 5996 6180 5490 4070 2681 1695 1155 916 829 758
1530.0 761 768 797 849 876 989 1299 1813 2313 2609
1570.0 2709 2582 2732 3678 5606 8197 10000 9790 7825 5285
1610.0 3483 2415 1671 1089 762 525 426 355 284 261
1650.0 271 279 233 215 197 182 177 132 150 150
1690.0 110 100 140 137 114 78 83 106 54 29
1730.0 45 87 66 87 124 144 118 98 83 68
1770.0 85 93 71 74 71 72 85 80 92 68
1810.0 65 63 45 46 48 50 36 21 31 46
1850.0 28 17 20 18 25 39 19 16 19 29
1890.0 47 65 86 113 126 122 104 85 77 57
1930.0 50 48 46 53 45 36 35 33 26 30
1970.0 28 22 24 19 18 29 26 19 18 19
2010.0 17 20 25 25 24 27 24 26 26 22
2050.0 18 18 19 21 22 18 14 13 13 13
2090.0 13 13 14 14 12 14 12 13 16 14
2130.0 12 11 13 15 18 19 21 26 26 29
2170.0 26 25 24 23 23 23 21 21 19 16
2210.0 16 15 12 11 13 15 16 17 21 21
2250.0 27 31 36 41 41 41 38 33 29 28
2290.0 25 21 20 24 14 5 10 1 0 6
2330.0 10 18 35 45 51 28 38 37 73 73
2370.0 75 72 63 47 37 42 43 43 46 48
2410.0 43 38 36 34 33 36 39 47 49 52
2450.0 52 55 55 54 53 52 52 53 52 53
2490.0 54 55 61 65 71 79 85 92 101 103
2530.0 108 109 107 104 95 90 84 78 78 77
2570.0 78 85 85 85 88 84 83 82 83 82
2610.0 82 86 87 83 84 85 87 87 89 89
2650.0 91 93 95 95 95 98 103 109 116 120
2690.0 122 129 130 128 124 125 123 125 129 135
2730.0 142 146 152 163 159 165 171 173 176 180
2770.0 185 188 199 209 223 238 259 295 331 384
2810.0 451 527 620 706 778 830 863 878 886 901
2850.0 914 934 952 975 1027 1134 1310 1538 1736 1826
2890.0 1783 1668 1564 1483 1436 1415 1408 1421 1479 1597
2930.0 1796 2101 2457 2695 2680 2407 2034 1781 1785 2121
2970.0 2812 3677 4476 4903 4570 3713 2598 1675 1120 814
3010.0 642 542 488 465 468 472 484 487 476 456
3050.0 429 406 385 375 376 400 456 529 605 656
3090.0 677 642 570 482 386 314 250 203 159 132
3130.0 116 104 97 87 77 73 64 66 60 55
3170.0 52 49 48 48 46 43 38 33 30 31
3210.0 22 20 24 22 20 18 18 15 18 18
3250.0 20 22 19 20 19 20 18 17 17 15
3290.0 18 13 18 11 9 11 9 8 9 10
3330.0 15 10 6 8 10 10 10 13 15 10
3370.0 9 4 4 8 5 1 8 6 7 9
3410.0 6 10 11 6 8 13 12 17 17 19
3450.0 13 14 17 15 11 14 9 9 10 5
3490.0 16 10 10 9 10 11 6 8 14 7
3530.0 10 5 11 4 2 11 13 7 13 9
3570.0 9 7 12 3 1 5 7 3 9 6
3610.0 2 6 10 6 2 21 14 8 6 1
3650.0 11 9 11 4 0 8 7 8 6 14
3690.0 7 7 13 14 16 13 3 14 11 18
3730.0 10 13 16 9 16 12 3 1 7 19
3770.0 16 0 10 12 4 0 0 2 11 1
3810.0 0 14 2 0 0 0 12 14 18 8
3850.0 16 9 9 6 11 12 0 5 2 2
3890.0 6 1 0 5 2 7 0 0 0 7
3930.0 11 0 0 1 9 2 0 10 0 1
##END=
