##TITLE=Butanoic acid, 1-methylethyl ester
##JCAMP-DX=4.24
##DATA TYPE=INFRARED SPECTRUM
##ORIGIN=Sadtler Research Labs Under US-EPA Contract
##OWNER=NIST Standard Reference Data Program
##CAS REGISTRY NO=638-11-9
##MOLFORM=C 7 H 14 O 2
##XUNITS=1/CM
##YUNITS=ABSORBANCE
##XFACTOR=1.0
##YFACTOR=0.000093054
##DELTAX=4.0
##FIRSTX=450.0
##LASTX=3966.0
##FIRSTY=0.001396
##MAXX=3966
##MINX=450
##MAXY=0.93054
##MINY=0
##NPOINTS=880
##XYDATA=(X++(Y..Y))
450.0 15 44 52 57 54 60 55 87 49 96
490.0 89 80 107 44 42 51 66 57 73 57
530.0 78 211 114 23 53 89 90 110 149 129
570.0 150 145 149 175 203 228 198 204 178 161
610.0 147 157 159 170 145 157 126 117 109 71
650.0 79 73 52 38 17 83 70 52 52 60
690.0 76 61 70 69 76 79 79 85 95 89
730.0 93 114 117 124 112 120 125 125 121 134
770.0 141 126 136 168 183 208 237 255 270 293
810.0 332 386 447 474 473 404 332 244 192 152
850.0 144 135 156 177 184 203 233 249 270 286
890.0 306 308 289 284 254 231 207 208 211 250
930.0 302 406 574 810 1131 1425 1630 1726 1664 1398
970.0 1128 841 590 410 312 262 234 212 191 192
1010.0 192 188 228 264 328 413 526 649 727 772
1050.0 772 749 728 777 870 1013 1190 1432 1713 2029
1090.0 2323 2673 3122 3769 4722 5712 6329 6304 5694 4733
1130.0 3823 3318 3083 2907 2659 2403 2213 2209 2511 3156
1170.0 4202 5628 7209 8420 8863 8429 7261 5925 4779 3972
1210.0 3355 2820 2440 2263 2216 2274 2389 2543 2754 3072
1250.0 3447 3804 3952 3840 3497 3003 2471 2117 1941 1903
1290.0 1947 1983 1956 1835 1637 1435 1247 1137 1114 1150
1330.0 1227 1313 1386 1398 1394 1409 1506 1725 2009 2330
1370.0 2596 2790 2851 2779 2508 2038 1559 1076 740 562
1410.0 507 483 516 512 610 672 737 710 779 829
1450.0 911 1036 1084 1219 1236 1236 1094 951 754 588
1490.0 405 320 230 220 158 135 146 115 87 88
1530.0 115 80 109 36 83 93 100 52 46 76
1570.0 63 88 52 95 87 96 84 97 87 90
1610.0 98 103 85 90 105 98 107 86 120 88
1650.0 130 30 134 124 148 113 157 152 196 173
1690.0 241 284 331 358 454 539 642 768 1062 1550
1730.0 2397 3632 5439 7402 9098 10000 9645 8175 6170 4142
1770.0 2536 1470 958 671 518 430 341 309 262 221
1810.0 185 168 147 142 112 103 109 105 104 74
1850.0 86 81 79 73 75 54 59 50 54 47
1890.0 41 51 48 49 50 52 63 54 59 51
1930.0 60 63 59 48 48 46 37 39 31 35
1970.0 32 31 35 41 39 44 43 51 56 56
2010.0 55 57 45 41 38 40 40 33 37 39
2050.0 43 49 43 39 50 60 59 59 54 46
2090.0 37 30 19 17 10 16 9 10 12 9
2130.0 9 9 10 9 8 10 10 6 9 0
2170.0 5 8 2 9 8 2 7 13 9 9
2210.0 11 7 13 9 12 7 9 7 14 13
2250.0 14 21 27 25 28 32 30 32 39 39
2290.0 43 40 58 51 59 61 53 48 52 40
2330.0 43 45 38 44 43 39 45 40 38 32
2370.0 25 25 35 29 36 32 26 26 21 16
2410.0 17 21 22 16 14 14 20 13 19 13
2450.0 13 13 14 19 25 20 26 26 20 22
2490.0 19 21 21 21 28 28 27 28 28 33
2530.0 29 28 30 22 31 28 29 30 30 31
2570.0 30 36 32 21 30 27 22 23 20 19
2610.0 18 18 23 19 23 24 25 34 24 24
2650.0 32 24 26 37 45 52 52 59 63 65
2690.0 66 70 63 67 74 72 71 69 72 71
2730.0 77 88 99 115 123 122 125 121 114 110
2770.0 105 113 105 107 112 123 123 131 134 138
2810.0 150 166 177 194 211 215 241 257 268 290
2850.0 308 331 381 441 537 697 922 1212 1534 1717
2890.0 1772 1691 1508 1361 1288 1288 1337 1426 1557 1746
2930.0 2006 2333 2734 3128 3364 3384 3232 3043 2997 3249
2970.0 3855 4666 5592 6304 6406 5872 4815 3484 2456 1663
3010.0 1119 765 552 432 347 300 260 243 223 212
3050.0 185 185 163 153 151 139 133 133 138 129
3090.0 123 130 124 129 125 114 109 108 109 104
3130.0 107 97 103 100 95 99 105 95 102 107
3170.0 106 120 112 117 120 114 115 104 107 96
3210.0 89 89 99 84 77 73 81 63 66 62
3250.0 67 53 47 54 49 55 50 55 49 44
3290.0 55 45 48 44 55 51 50 57 58 57
3330.0 48 61 54 67 50 48 52 46 59 50
3370.0 54 49 49 50 67 56 49 54 53 51
3410.0 51 57 56 55 63 53 64 64 61 70
3450.0 62 63 78 88 102 105 113 137 139 140
3490.0 110 82 84 72 60 43 60 31 60 39
3530.0 53 52 52 50 54 53 51 46 43 59
3570.0 51 62 64 63 57 48 53 54 40 59
3610.0 46 31 32 38 53 37 59 47 40 36
3650.0 2 38 36 60 51 29 43 36 56 57
3690.0 55 46 60 55 72 46 50 57 73 68
3730.0 60 34 52 43 11 41 26 38 43 50
3770.0 65 54 59 58 70 76 73 66 52 52
3810.0 71 58 64 46 56 56 48 43 63 52
3850.0 56 43 46 36 49 50 47 23 39 26
3890.0 40 45 42 46 51 55 64 60 58 53
3930.0 57 67 50 47 59 74 73 68 61 57
##END=
