##TITLE=Butane, 1-(ethylthio)-
##JCAMP-DX=4.24
##DATA TYPE=INFRARED SPECTRUM
##ORIGIN=Sadtler Research Labs Under US-EPA Contract
##OWNER=NIST Standard Reference Data Program
##CAS REGISTRY NO=638-46-0
##MOLFORM=C 6 H 14 S
##XUNITS=1/CM
##YUNITS=ABSORBANCE
##XFACTOR=1.0
##YFACTOR=0.000100491
##DELTAX=4.0
##FIRSTX=450.0
##LASTX=3966.0
##FIRSTY=0.052657
##MAXX=3966
##MINX=450
##MAXY=1.00491
##MINY=0
##NPOINTS=880
##XYDATA=(X++(Y..Y))
450.0 524 425 0 161 356 571 355 326 292 229
490.0 371 268 279 158 309 208 184 255 269 263
530.0 243 167 311 310 239 227 239 288 260 200
570.0 205 194 217 220 226 190 185 204 194 222
610.0 213 211 225 201 184 244 215 255 249 243
650.0 252 243 316 247 219 219 212 218 248 243
690.0 266 237 266 231 212 256 263 266 279 335
730.0 409 435 530 539 499 556 570 493 455 437
770.0 384 384 391 350 385 378 371 308 302 248
810.0 176 192 170 180 157 155 179 172 141 142
850.0 157 166 158 145 220 199 203 216 215 236
890.0 231 223 250 249 251 271 275 278 267 238
930.0 224 220 191 204 216 248 247 316 354 425
970.0 480 495 503 428 383 331 266 244 235 223
1010.0 182 185 174 181 195 202 186 223 233 262
1050.0 269 277 268 221 234 227 227 262 244 246
1090.0 258 255 275 237 232 196 157 140 156 132
1130.0 146 122 117 119 143 138 142 139 160 153
1170.0 155 171 192 181 215 228 226 235 248 302
1210.0 371 483 678 819 905 917 869 776 748 817
1250.0 1023 1391 1820 2131 2236 2140 1805 1354 1025 846
1290.0 765 728 686 613 546 488 412 371 322 296
1330.0 302 322 358 379 389 409 395 413 408 463
1370.0 496 600 729 792 824 777 696 555 489 475
1410.0 466 513 528 633 714 833 1006 1077 1266 1344
1450.0 1478 1552 1594 1573 1536 1300 1194 956 801 637
1490.0 486 428 320 304 199 200 243 175 136 189
1530.0 122 170 113 135 128 123 144 31 106 87
1570.0 104 132 69 180 117 126 128 128 130 113
1610.0 163 80 146 86 127 145 87 120 133 85
1650.0 124 38 137 116 99 118 115 108 92 93
1690.0 118 144 88 70 97 122 119 92 137 132
1730.0 128 118 92 125 100 110 98 88 83 107
1770.0 74 86 84 108 91 106 53 115 81 91
1810.0 100 75 103 77 77 75 70 97 59 83
1850.0 56 84 73 66 72 63 76 70 76 72
1890.0 80 71 73 68 77 64 73 68 68 64
1930.0 67 69 68 76 70 69 63 74 55 70
1970.0 52 72 66 62 68 61 70 62 71 71
2010.0 70 69 67 78 68 57 60 66 66 62
2050.0 63 59 59 65 63 54 52 55 54 54
2090.0 56 54 55 50 51 56 51 56 48 52
2130.0 52 51 49 46 50 48 53 54 52 53
2170.0 52 57 58 55 55 52 50 52 50 49
2210.0 46 49 51 49 50 51 52 52 50 48
2250.0 42 45 46 40 39 37 35 38 33 29
2290.0 26 31 26 26 22 19 18 22 15 15
2330.0 15 13 29 11 59 15 51 21 43 23
2370.0 30 29 37 44 42 52 50 47 51 53
2410.0 54 59 57 63 61 60 55 50 48 44
2450.0 43 44 44 44 42 46 43 43 46 45
2490.0 46 43 44 48 46 45 49 48 45 48
2530.0 46 44 48 47 44 47 46 52 49 47
2570.0 52 51 53 52 50 56 54 57 58 59
2610.0 67 68 68 70 74 81 85 86 96 100
2650.0 108 111 120 121 118 122 122 126 135 130
2690.0 141 142 144 149 145 143 147 148 159 167
2730.0 181 197 210 225 234 222 207 195 179 178
2770.0 181 185 192 209 223 245 263 286 311 343
2810.0 383 429 489 564 653 768 899 1049 1229 1446
2850.0 1697 1968 2255 2554 2857 3170 3547 4016 4351 4374
2890.0 4290 4068 3740 3671 3904 4364 4996 5700 6455 7305
2930.0 8200 9160 9746 10000 9801 9183 8656 8332 8740 9553
2970.0 9762 9505 8606 6999 5281 3958 2961 2203 1676 1328
3010.0 1080 922 800 726 655 602 561 525 476 445
3050.0 401 372 341 320 309 297 279 269 266 259
3090.0 257 249 238 229 226 218 213 211 204 203
3130.0 198 199 202 199 194 199 195 183 191 194
3170.0 192 189 188 181 183 188 181 178 175 169
3210.0 158 156 144 146 133 123 114 117 114 118
3250.0 118 112 109 108 109 111 108 110 107 116
3290.0 105 118 108 110 107 107 107 110 109 114
3330.0 120 112 104 108 99 108 103 105 108 109
3370.0 108 107 106 101 111 105 115 113 110 113
3410.0 115 114 110 113 109 106 113 110 107 104
3450.0 104 110 98 117 121 110 114 104 124 111
3490.0 117 115 117 107 114 99 123 114 119 130
3530.0 120 134 122 116 130 113 133 121 150 95
3570.0 134 100 137 121 129 113 128 152 118 143
3610.0 93 114 111 133 106 131 87 166 135 123
3650.0 83 110 148 141 196 57 156 21 184 139
3690.0 106 141 128 148 137 108 123 134 156 114
3730.0 156 113 62 167 51 151 39 155 135 123
3770.0 149 125 162 142 133 160 120 126 113 97
3810.0 181 78 151 46 159 103 114 105 91 181
3850.0 66 146 30 164 105 97 141 108 160 84
3890.0 116 118 143 80 109 176 124 162 123 152
3930.0 141 139 151 151 143 105 140 157 150 163
##END=
