##TITLE=Cyclohexane, 1,3-dimethyl-, cis-
##JCAMP-DX=4.24
##DATA TYPE=INFRARED SPECTRUM
##ORIGIN=Sadtler Research Labs Under US-EPA Contract
##OWNER=NIST Standard Reference Data Program
##CAS REGISTRY NO=638-04-0
##MOLFORM=C 8 H 16
##XUNITS=1/CM
##YUNITS=ABSORBANCE
##XFACTOR=1.0
##YFACTOR=0.000097592
##DELTAX=4.0
##FIRSTX=450.0
##LASTX=3966.0
##FIRSTY=0.004392
##MAXX=3966
##MINX=450
##MAXY=0.97592
##MINY=0
##NPOINTS=880
##XYDATA=(X++(Y..Y))
450.0 45 45 40 30 30 30 30 30 33 64
490.0 28 33 21 26 31 33 26 31 34 23
530.0 27 14 32 54 50 14 30 7 19 49
570.0 20 33 48 45 38 43 6 28 33 32
610.0 32 33 34 32 32 15 36 36 30 34
650.0 34 32 33 32 24 47 39 33 38 41
690.0 34 33 38 33 33 31 36 36 32 30
730.0 31 30 38 36 36 29 32 34 29 34
770.0 39 30 35 30 28 28 34 35 38 39
810.0 47 57 71 79 79 78 82 84 99 100
850.0 107 100 93 85 67 73 65 62 67 67
890.0 56 51 48 47 52 53 55 60 70 81
930.0 89 110 130 156 180 183 186 171 137 109
970.0 91 80 81 79 90 84 79 73 63 64
1010.0 56 59 59 58 61 66 68 62 67 67
1050.0 68 72 74 76 72 69 64 58 63 59
1090.0 66 76 91 96 106 111 105 90 83 73
1130.0 65 57 56 55 55 60 59 70 75 79
1170.0 85 85 80 73 62 56 48 49 43 49
1210.0 49 53 59 59 57 63 65 67 75 91
1250.0 110 140 171 197 198 203 189 148 123 103
1290.0 90 78 82 94 87 83 83 78 77 77
1330.0 87 109 153 193 227 281 317 356 372 392
1370.0 435 474 489 508 417 358 258 162 104 79
1410.0 78 73 89 91 122 177 287 453 639 824
1450.0 1106 1276 1239 1257 1181 934 692 499 337 217
1490.0 136 87 61 49 42 47 37 31 31 29
1530.0 29 22 24 25 22 19 23 21 21 21
1570.0 17 24 21 21 18 25 25 25 30 28
1610.0 31 30 28 30 28 23 24 29 20 21
1650.0 28 17 26 22 29 27 33 27 37 30
1690.0 32 30 32 37 38 39 47 61 74 82
1730.0 93 107 96 85 82 68 59 44 39 37
1770.0 35 38 31 33 29 29 28 23 24 21
1810.0 15 16 14 14 11 12 10 8 17 12
1850.0 11 3 3 3 10 7 7 9 2 5
1890.0 2 9 3 1 8 7 8 8 8 7
1930.0 1 2 0 3 2 0 0 0 0 0
1970.0 0 0 0 0 0 0 6 5 4 4
2010.0 5 5 5 5 4 4 4 8 9 9
2050.0 2 2 2 2 3 8 8 8 8 8
2090.0 8 2 6 12 8 12 11 7 12 10
2130.0 10 6 5 5 6 6 7 10 11 11
2170.0 5 4 5 9 9 14 15 14 14 14
2210.0 12 10 10 4 3 4 8 3 4 4
2250.0 4 4 5 2 9 8 9 15 15 15
2290.0 17 18 20 24 21 24 21 19 15 25
2330.0 22 23 21 30 36 24 7 12 33 35
2370.0 49 52 51 47 31 26 24 25 29 30
2410.0 34 34 35 35 29 29 30 24 24 24
2450.0 24 24 25 24 24 24 24 30 30 23
2490.0 26 26 30 29 29 30 30 34 34 30
2530.0 30 30 24 25 22 30 29 35 35 35
2570.0 34 40 40 50 56 65 73 80 84 94
2610.0 94 95 105 100 100 100 101 105 115 114
2650.0 120 111 106 104 100 99 94 94 94 84
2690.0 84 89 95 105 111 119 120 134 145 150
2730.0 161 161 155 145 139 123 113 108 106 110
2770.0 109 114 125 140 166 197 229 259 279 285
2810.0 299 309 316 352 438 581 834 1211 1685 2198
2850.0 2598 3089 3184 3184 3286 3616 3665 3541 3619 3733
2890.0 3754 3793 4084 4484 4747 5630 6608 7763 8948 10000
2930.0 9656 8275 7555 6360 5788 5496 5682 7153 5921 5139
2970.0 4452 3021 1645 829 455 282 195 151 120 106
3010.0 99 96 95 95 93 94 93 94 95 105
3050.0 111 106 112 121 130 132 127 135 124 122
3090.0 115 108 107 110 112 111 117 100 92 88
3130.0 86 82 81 87 83 89 87 87 91 86
3170.0 92 86 86 92 86 86 84 74 67 58
3210.0 46 47 51 31 20 21 17 17 10 14
3250.0 17 13 16 6 17 17 16 17 11 17
3290.0 18 19 23 19 24 35 33 32 28 26
3330.0 22 26 30 33 30 33 38 26 29 34
3370.0 26 14 23 33 23 22 12 18 18 12
3410.0 21 20 22 15 14 4 12 3 14 22
3450.0 23 26 19 11 20 26 24 22 18 12
3490.0 18 17 8 18 17 21 18 16 16 17
3530.0 19 22 13 12 23 21 17 7 7 16
3570.0 18 18 15 19 17 23 12 18 17 17
3610.0 14 19 20 23 15 15 10 23 14 4
3650.0 17 17 23 17 22 17 24 19 34 25
3690.0 19 27 23 18 38 13 24 24 35 40
3730.0 28 33 46 34 26 33 53 47 47 36
3770.0 36 46 44 51 51 48 38 46 38 39
3810.0 37 36 39 49 51 50 48 54 63 62
3850.0 49 48 51 46 49 43 46 36 42 37
3890.0 32 36 32 38 43 40 43 54 48 34
3930.0 32 33 30 23 22 17 29 34 40 43
##END=
