##TITLE=Tridecanoic acid
##JCAMP-DX=4.24
##DATA TYPE=INFRARED SPECTRUM
##ORIGIN=Sadtler Research Labs Under US-EPA Contract
##OWNER=NIST Standard Reference Data Program
##CAS REGISTRY NO=638-53-9
##MOLFORM=C 13 H 26 O 2
##XUNITS=1/CM
##YUNITS=ABSORBANCE
##XFACTOR=1.0
##YFACTOR=0.000116733
##DELTAX=4.0
##FIRSTX=450.0
##LASTX=3966.0
##FIRSTY=0.000000
##MAXX=3966
##MINX=450
##MAXY=1.16733
##MINY=0
##NPOINTS=880
##XYDATA=(X++(Y..Y))
450.0 0 39 8 233 155 153 316 221 310 233
490.0 269 277 356 305 382 324 332 343 338 494
530.0 334 309 203 749 627 723 722 747 879 802
570.0 746 768 780 818 793 910 888 839 920 922
610.0 987 981 845 904 834 781 771 674 632 495
650.0 447 438 393 381 401 335 353 268 303 358
690.0 293 277 250 316 295 262 288 480 404 317
730.0 460 343 353 291 241 248 232 267 237 239
770.0 208 148 155 167 169 149 133 155 136 126
810.0 131 139 113 111 101 99 98 91 108 137
850.0 126 98 104 126 135 130 112 125 89 151
890.0 131 86 67 116 101 125 115 102 103 112
930.0 95 112 111 113 121 113 116 114 122 111
970.0 129 136 132 150 162 179 185 206 231 239
1010.0 265 304 305 321 353 369 373 408 453 516
1050.0 590 643 707 794 855 928 1036 1137 1237 1399
1090.0 1536 1753 1960 2142 2267 2311 2250 2194 2194 2228
1130.0 2300 2276 2165 1994 1778 1594 1423 1321 1251 1172
1170.0 1110 1056 999 949 883 836 768 714 690 651
1210.0 622 591 550 520 479 449 451 418 428 404
1250.0 419 433 452 469 494 473 455 449 441 434
1290.0 444 440 446 441 444 439 424 421 413 408
1330.0 433 477 530 588 650 702 743 763 793 795
1370.0 812 852 869 875 841 755 646 548 459 400
1410.0 373 348 369 357 391 427 436 484 539 600
1450.0 701 778 900 940 930 793 643 472 346 280
1490.0 230 193 171 146 140 111 141 101 112 116
1530.0 106 107 79 82 91 99 83 56 47 80
1570.0 78 78 79 76 82 82 62 91 65 73
1610.0 79 64 70 58 77 64 80 70 61 70
1650.0 29 41 50 80 69 67 61 73 89 96
1690.0 97 117 111 109 169 217 262 300 357 462
1730.0 536 680 831 1023 1268 1549 1844 2208 2640 3232
1770.0 3939 4581 5058 4787 4078 3332 2654 2191 1782 1390
1810.0 1096 821 612 468 362 278 231 182 171 139
1850.0 133 124 109 112 91 84 81 86 80 72
1890.0 71 64 66 63 62 59 60 59 70 57
1930.0 62 62 55 62 61 63 66 58 67 63
1970.0 57 41 58 50 47 53 41 42 44 46
2010.0 49 49 42 40 42 41 47 46 48 39
2050.0 50 45 45 46 37 37 30 42 36 32
2090.0 38 33 33 29 34 41 25 27 27 28
2130.0 28 32 26 30 23 35 30 32 29 32
2170.0 34 33 29 35 33 33 31 34 33 32
2210.0 35 34 33 33 33 29 28 24 34 33
2250.0 36 30 30 29 32 28 31 34 30 36
2290.0 40 37 52 54 54 62 51 45 49 52
2330.0 15 5 35 52 42 28 51 37 16 6
2370.0 6 6 7 21 18 22 19 20 12 13
2410.0 18 20 21 19 17 17 14 16 19 12
2450.0 12 10 9 23 17 12 10 12 16 12
2490.0 15 14 21 18 22 20 21 26 23 26
2530.0 26 22 24 22 27 28 27 23 30 28
2570.0 22 21 29 32 36 33 35 38 40 41
2610.0 41 42 46 43 49 51 54 62 64 56
2650.0 62 65 63 71 77 79 77 76 79 76
2690.0 66 74 71 71 75 67 79 72 74 76
2730.0 81 80 88 80 81 82 75 77 71 78
2770.0 79 89 98 114 130 137 152 169 195 212
2810.0 232 262 296 339 380 435 494 601 735 950
2850.0 1305 1911 2753 3515 3798 3545 3056 2592 2285 2084
2890.0 1908 1837 1915 2136 2509 3000 3647 4492 5750 7451
2930.0 9157 10000 9562 8319 6822 5427 4400 3746 3442 3323
2970.0 3118 2642 1999 1461 1120 892 727 601 509 438
3010.0 379 335 296 264 248 235 205 191 171 150
3050.0 134 129 120 112 108 98 98 94 92 100
3090.0 90 80 84 76 79 77 76 66 64 56
3130.0 51 56 55 53 52 58 45 45 50 44
3170.0 46 44 47 50 45 50 43 39 35 36
3210.0 36 32 32 34 35 32 35 25 28 29
3250.0 34 21 28 24 25 30 27 22 24 30
3290.0 31 25 26 21 22 21 23 21 32 22
3330.0 17 30 30 28 33 21 28 26 36 34
3370.0 42 34 39 39 56 51 57 41 18 6
3410.0 12 27 26 26 34 36 51 35 42 48
3450.0 50 36 52 50 44 44 46 48 61 62
3490.0 46 59 57 68 79 76 80 74 87 112
3530.0 113 109 130 140 176 198 232 309 436 738
3570.0 1200 1914 2243 1714 980 570 343 238 176 146
3610.0 138 103 107 86 79 94 75 73 89 82
3650.0 95 65 56 68 61 84 71 66 52 61
3690.0 74 54 86 76 56 65 98 58 78 99
3730.0 74 72 119 117 152 177 123 88 37 37
3770.0 37 44 52 54 53 63 44 58 60 55
3810.0 32 48 79 49 44 59 107 71 71 47
3850.0 85 77 44 64 72 77 95 63 103 51
3890.0 68 76 94 104 75 50 39 31 37 44
3930.0 55 97 92 87 132 141 89 59 54 33
##END=
