##TITLE=Tricosane
##JCAMP-DX=4.24
##DATA TYPE=INFRARED SPECTRUM
##ORIGIN=Sadtler Research Labs Under US-EPA Contract
##OWNER=NIST Standard Reference Data Program
##CAS REGISTRY NO=638-67-5
##MOLFORM=C 23 H 48
##XUNITS=1/CM
##YUNITS=ABSORBANCE
##XFACTOR=1.0
##YFACTOR=0.000182990
##DELTAX=4.0
##FIRSTX=450.0
##LASTX=3966.0
##FIRSTY=0.122603
##MAXX=3966
##MINX=450
##MAXY=1.8299
##MINY=0
##NPOINTS=880
##XYDATA=(X++(Y..Y))
450.0 670 362 232 331 275 131 364 257 157 330
490.0 227 223 233 225 255 141 253 252 414 168
530.0 165 309 379 337 275 9 76 301 169 344
570.0 272 272 219 166 243 253 279 259 244 221
610.0 205 241 252 220 241 241 201 228 243 248
650.0 219 241 190 214 289 281 253 246 209 294
690.0 277 272 368 272 333 381 297 417 402 353
730.0 319 380 332 300 327 278 260 291 278 264
770.0 272 256 230 227 211 191 193 215 184 224
810.0 228 218 216 212 227 205 188 203 189 187
850.0 176 184 181 195 208 162 185 193 184 168
890.0 181 206 220 179 188 187 190 180 158 184
930.0 190 190 181 182 180 178 184 179 180 183
970.0 172 174 176 177 181 179 179 185 188 197
1010.0 208 212 217 211 222 205 201 198 191 191
1050.0 179 198 178 179 192 219 193 223 204 216
1090.0 204 219 210 217 196 193 189 189 185 174
1130.0 176 172 170 172 173 182 167 176 173 178
1170.0 176 172 182 171 182 176 181 184 179 181
1210.0 179 183 196 195 189 200 201 211 209 205
1250.0 217 227 249 249 243 239 252 258 255 259
1290.0 272 280 301 303 308 297 286 285 276 273
1330.0 282 298 334 364 394 412 420 410 412 398
1370.0 376 367 372 359 321 292 259 244 230 237
1410.0 250 240 263 264 291 337 380 464 552 651
1450.0 766 875 977 1041 989 802 597 412 326 278
1490.0 233 219 189 179 171 171 165 155 147 148
1530.0 141 140 134 129 124 117 111 108 101 109
1570.0 103 115 118 115 123 120 112 116 118 109
1610.0 116 106 116 101 104 101 102 103 102 109
1650.0 93 96 97 99 101 107 99 99 102 104
1690.0 101 115 111 112 127 145 153 162 168 169
1730.0 153 149 138 140 151 140 131 121 118 119
1770.0 119 108 116 113 106 103 103 106 101 101
1810.0 95 92 91 88 85 86 86 80 85 79
1850.0 79 78 73 75 77 76 72 66 71 68
1890.0 64 63 66 62 63 60 63 62 63 58
1930.0 60 57 61 53 56 55 53 52 51 53
1970.0 55 45 47 54 52 50 54 50 48 51
2010.0 55 58 58 60 58 57 59 56 60 60
2050.0 56 56 54 52 52 52 53 48 48 48
2090.0 50 47 45 44 43 42 43 41 47 44
2130.0 42 43 44 44 48 50 49 52 53 56
2170.0 48 49 49 51 52 52 48 46 43 37
2210.0 37 38 31 36 33 36 32 29 32 33
2250.0 32 29 28 30 32 30 31 31 33 37
2290.0 40 44 47 51 50 50 49 50 44 44
2330.0 40 44 42 30 41 48 39 45 46 32
2370.0 28 37 33 32 28 20 21 17 14 19
2410.0 17 18 19 18 18 15 13 13 15 12
2450.0 11 13 12 11 12 12 9 10 6 8
2490.0 7 4 3 0 5 6 7 4 10 15
2530.0 15 10 14 17 17 21 24 30 33 39
2570.0 41 43 42 44 49 51 55 58 59 64
2610.0 66 68 72 74 77 81 84 86 91 95
2650.0 99 107 113 118 123 131 136 143 145 142
2690.0 135 134 132 127 129 129 128 132 136 141
2730.0 148 153 153 156 156 159 162 168 172 177
2770.0 182 195 210 223 244 265 284 307 339 370
2810.0 408 449 504 559 630 721 843 1015 1271 1680
2850.0 2272 3023 3712 4077 3839 3259 2729 2372 2155 2076
2890.0 2084 2189 2408 2743 3169 3685 4338 5201 6362 7947
2930.0 9649 10000 8467 6621 5004 3825 3111 2749 2589 2453
2970.0 2202 1784 1322 981 760 610 502 421 362 313
3010.0 274 243 213 192 171 151 133 118 101 91
3050.0 81 74 69 60 58 55 54 49 44 38
3090.0 34 31 28 23 28 28 26 22 15 18
3130.0 18 18 16 22 19 19 20 20 19 22
3170.0 24 23 23 23 22 24 26 20 16 17
3210.0 19 19 19 16 17 11 10 12 11 15
3250.0 19 20 17 19 16 20 14 19 19 22
3290.0 25 27 27 22 20 21 27 34 27 25
3330.0 31 31 28 27 31 36 34 34 37 29
3370.0 34 34 34 31 31 40 38 39 36 36
3410.0 42 39 39 41 39 43 41 36 33 37
3450.0 33 39 38 34 26 29 31 37 30 15
3490.0 19 28 27 27 19 23 31 21 26 25
3530.0 17 17 19 22 22 23 21 28 11 25
3570.0 26 28 22 20 18 27 29 20 25 22
3610.0 20 24 18 26 18 27 18 16 26 17
3650.0 9 8 15 17 16 6 1 17 4 7
3690.0 18 15 16 14 9 10 7 11 15 9
3730.0 11 13 23 10 8 7 20 11 24 16
3770.0 14 18 17 13 11 27 14 14 25 24
3810.0 8 34 37 42 26 30 30 41 57 33
3850.0 43 19 43 37 33 30 56 36 30 30
3890.0 32 31 42 29 33 15 18 44 20 15
3930.0 41 54 55 19 32 11 34 49 22 34
##END=
