##TITLE=Benzene, 4-ethenyl-1,2-dimethoxy-
##JCAMP-DX=4.24
##DATA TYPE=INFRARED SPECTRUM
##ORIGIN=Sadtler Research Labs Under US-EPA Contract
##OWNER=NIST Standard Reference Data Program
##CAS REGISTRY NO=6380-23-0
##MOLFORM=C 10 H 12 O 2
##XUNITS=1/CM
##YUNITS=ABSORBANCE
##XFACTOR=1.0
##YFACTOR=0.000092499
##DELTAX=4.0
##FIRSTX=450.0
##LASTX=3966.0
##FIRSTY=0.009250
##MAXX=3966
##MINX=450
##MAXY=0.92499
##MINY=0
##NPOINTS=880
##XYDATA=(X++(Y..Y))
450.0 100 123 153 154 113 115 107 131 127 116
490.0 117 105 134 98 101 109 113 110 138 145
530.0 171 194 212 229 265 283 301 342 353 360
570.0 286 230 214 187 149 124 133 108 118 112
610.0 126 129 109 85 68 57 55 56 46 32
650.0 28 17 4 32 17 25 42 37 58 77
690.0 116 125 146 155 166 167 130 111 117 126
730.0 152 203 251 301 365 472 569 692 746 723
770.0 622 454 314 229 207 212 280 415 599 848
810.0 938 872 824 787 737 654 527 442 441 510
850.0 658 831 800 644 552 447 430 449 510 608
890.0 757 1037 1386 1773 1847 1546 1232 932 673 505
930.0 369 295 259 251 246 256 260 279 303 334
970.0 408 537 705 875 1066 1019 889 841 852 1040
1010.0 1422 2008 2688 3287 3689 3842 3777 3510 3046 2429
1050.0 1861 1394 1036 768 578 445 359 316 283 283
1090.0 289 314 352 424 541 750 1068 1501 1956 2332
1130.0 2580 2692 2659 2545 2495 2566 2739 2811 2631 2191
1170.0 1585 1124 893 802 764 729 675 637 657 747
1210.0 933 1226 1667 2246 2925 3592 4168 4534 4582 4407
1250.0 4273 4414 5177 6536 7967 8965 9167 8652 7706 6605
1290.0 5450 4414 3547 2857 2322 1871 1549 1307 1149 1025
1330.0 915 797 627 550 526 479 420 371 328 328
1370.0 341 336 401 510 634 765 851 941 1116 1370
1410.0 1691 1948 1879 1705 1335 1065 934 1071 1285 1417
1450.0 1506 1546 1658 2018 2290 2272 2038 1691 1339 1161
1490.0 1318 1906 3044 5045 7584 9537 10000 8169 5501 3206
1530.0 1928 1273 910 647 529 509 482 488 679 954
1570.0 1230 1472 1580 1515 1372 1211 1213 1308 1466 1502
1610.0 1416 1201 906 759 684 784 790 734 618 385
1650.0 177 118 124 108 90 83 56 107 60 49
1690.0 89 113 73 95 150 219 215 182 230 222
1730.0 155 82 111 106 76 51 82 80 84 104
1770.0 74 49 72 48 50 41 51 87 115 200
1810.0 229 243 231 181 124 80 72 76 46 24
1850.0 46 59 56 57 47 25 53 46 40 26
1890.0 11 11 10 10 7 5 2 8 4 28
1930.0 44 46 55 40 46 52 51 52 57 46
1970.0 52 50 49 50 48 38 42 59 68 77
2010.0 90 97 112 134 156 168 174 164 151 142
2050.0 134 126 120 114 108 110 104 97 87 74
2090.0 58 49 37 27 18 11 7 4 4 1
2130.0 0 2 3 7 9 9 10 12 12 16
2170.0 18 21 23 28 31 31 32 29 28 21
2210.0 16 12 12 10 9 10 9 14 15 12
2250.0 18 21 26 32 38 41 45 49 51 48
2290.0 47 48 43 42 46 49 42 33 26 19
2330.0 19 10 13 4 25 23 26 19 19 25
2370.0 25 20 25 23 20 11 7 5 3 6
2410.0 5 7 9 9 11 14 14 15 13 12
2450.0 14 15 15 17 17 19 19 22 27 30
2490.0 33 37 39 43 40 42 48 54 56 59
2530.0 62 65 69 73 77 80 88 91 95 97
2570.0 99 98 99 96 95 90 84 81 76 66
2610.0 60 53 49 44 42 44 41 40 41 42
2650.0 46 42 39 37 36 38 32 35 37 37
2690.0 37 41 41 44 47 52 55 58 64 65
2730.0 68 64 64 61 62 63 64 65 68 70
2770.0 75 80 84 89 98 111 117 133 149 177
2810.0 211 258 322 420 574 814 1152 1553 1835 1859
2850.0 1669 1316 987 796 693 659 663 685 702 730
2890.0 760 808 871 969 1114 1286 1468 1582 1605 1599
2930.0 1672 1888 2248 2569 2720 2732 2602 2446 2233 1989
2970.0 1780 1593 1458 1373 1363 1420 1593 1868 2277 2611
3010.0 2690 2450 1899 1358 977 770 729 740 776 815
3050.0 845 868 868 858 823 770 715 662 640 671
3090.0 942 1174 1163 1016 613 299 228 191 178 145
3130.0 144 121 111 94 89 81 62 59 57 56
3170.0 50 50 49 47 39 41 41 33 37 38
3210.0 37 30 32 26 25 20 19 22 19 22
3250.0 19 17 20 20 14 13 17 16 8 9
3290.0 12 12 12 8 9 9 7 7 11 7
3330.0 13 6 8 11 6 15 9 13 5 11
3370.0 12 7 9 12 10 6 14 9 10 11
3410.0 11 15 10 17 14 12 13 9 7 10
3450.0 10 9 14 7 7 8 9 10 14 11
3490.0 11 13 15 12 16 18 12 14 15 17
3530.0 14 15 14 16 17 18 18 21 13 14
3570.0 17 15 16 25 26 25 24 13 20 20
3610.0 21 19 11 7 3 15 15 18 31 26
3650.0 37 29 30 32 26 36 24 31 15 24
3690.0 21 28 16 15 6 11 8 15 11 10
3730.0 22 15 15 13 30 15 19 20 6 20
3770.0 23 16 14 25 19 19 15 12 17 18
3810.0 8 20 18 12 7 7 27 18 16 22
3850.0 10 18 21 15 9 15 19 7 24 19
3890.0 23 15 3 14 19 26 23 13 4 12
3930.0 7 24 36 15 13 16 8 14 19 13
##END=
