##TITLE=Benzo[b]thiophene-6-carboxaldehyde
##JCAMP-DX=4.24
##DATA TYPE=INFRARED SPECTRUM
##ORIGIN=Sadtler Research Labs Under US-EPA Contract
##OWNER=NIST Standard Reference Data Program
##CAS REGISTRY NO=6386-80-7
##MOLFORM=C 9 H 6 O S
##XUNITS=1/CM
##YUNITS=ABSORBANCE
##XFACTOR=1.0
##YFACTOR=0.000109131
##DELTAX=4.0
##FIRSTX=450.0
##LASTX=3966.0
##FIRSTY=0.001528
##MAXX=3966
##MINX=450
##MAXY=1.09131
##MINY=0
##NPOINTS=880
##XYDATA=(X++(Y..Y))
450.0 14 19 0 18 22 44 83 49 91 145
490.0 137 120 130 148 137 120 101 75 62 60
530.0 58 82 79 63 63 84 142 221 305 405
570.0 544 483 396 356 314 338 347 309 332 231
610.0 197 128 75 40 18 20 27 30 5 36
650.0 40 86 95 147 189 211 299 344 572 675
690.0 1117 1579 1385 1215 1013 578 281 170 186 201
730.0 282 447 667 841 836 809 676 491 355 346
770.0 385 473 594 611 676 697 590 617 732 884
810.0 1209 1633 1749 1800 1706 1556 1308 1108 871 668
850.0 482 308 241 208 209 227 222 225 279 324
890.0 338 378 373 291 274 245 207 228 218 203
930.0 155 62 29 21 19 26 27 29 33 33
970.0 33 45 48 67 74 81 89 110 95 78
1010.0 79 62 69 78 98 121 164 226 246 246
1050.0 247 197 132 119 116 125 144 165 162 166
1090.0 167 147 148 134 132 111 102 99 111 169
1130.0 179 189 181 149 145 185 248 387 580 767
1170.0 949 1158 1533 2124 2956 3438 3275 2826 2232 1728
1210.0 1649 1546 1053 536 288 195 126 118 103 128
1250.0 192 446 791 833 844 549 154 41 18 23
1290.0 59 96 156 255 451 687 815 824 708 436
1330.0 282 294 335 382 397 403 423 461 594 743
1370.0 866 998 1027 947 847 675 537 453 378 334
1410.0 303 204 152 106 80 67 84 101 126 148
1450.0 191 231 312 308 266 244 188 163 195 249
1490.0 222 198 141 109 127 129 86 85 96 60
1530.0 67 56 131 180 239 294 376 431 459 413
1570.0 444 453 531 581 763 1024 1223 1250 1068 764
1610.0 389 198 160 134 164 163 211 227 196 218
1650.0 194 225 163 129 162 215 288 383 477 573
1690.0 611 736 1084 1848 3478 6113 9067 10000 9847 7117
1730.0 4151 2159 1207 600 338 352 434 480 496 434
1770.0 325 264 182 173 149 145 147 124 121 96
1810.0 83 58 43 34 37 32 29 22 29 34
1850.0 17 19 19 23 40 55 62 68 78 82
1890.0 92 83 76 60 45 39 33 45 40 42
1930.0 32 27 17 17 15 14 19 16 18 14
1970.0 17 16 20 16 17 18 16 16 16 18
2010.0 17 18 16 18 21 24 31 33 34 27
2050.0 22 13 10 6 4 6 7 12 16 22
2090.0 27 33 32 34 34 36 35 28 23 19
2130.0 20 17 14 10 5 5 6 11 12 18
2170.0 16 17 13 10 6 1 3 0 1 0
2210.0 3 2 5 5 5 8 8 11 12 13
2250.0 13 16 17 19 23 24 23 26 24 23
2290.0 28 33 40 44 46 54 48 45 49 50
2330.0 45 49 41 46 55 56 74 63 67 52
2370.0 59 50 53 51 40 32 25 23 20 20
2410.0 17 16 15 17 17 17 14 12 12 12
2450.0 13 10 15 11 9 9 11 12 11 16
2490.0 18 23 28 33 36 35 34 32 25 22
2530.0 21 19 21 21 23 24 24 28 25 31
2570.0 33 32 26 27 26 25 24 25 30 32
2610.0 38 40 52 64 76 83 84 85 79 82
2650.0 84 94 102 107 110 110 119 137 162 194
2690.0 235 290 366 479 629 788 932 1091 1205 1186
2730.0 1115 969 744 569 471 422 389 367 351 345
2770.0 353 380 420 473 540 608 661 704 769 904
2810.0 1104 1268 1329 1242 987 668 413 256 176 132
2850.0 108 97 93 92 94 91 90 88 88 93
2890.0 91 94 93 84 76 69 66 60 59 58
2930.0 60 57 57 57 55 61 60 66 69 77
2970.0 76 73 67 62 59 57 60 65 70 71
3010.0 75 85 100 115 132 142 150 153 157 177
3050.0 212 262 318 339 365 381 344 329 332 283
3090.0 242 198 141 114 108 101 93 87 83 65
3130.0 46 31 23 22 20 22 19 18 24 14
3170.0 18 18 21 26 26 24 25 25 25 19
3210.0 20 19 15 19 18 15 17 13 14 17
3250.0 16 15 18 11 13 21 14 17 14 14
3290.0 18 16 17 18 14 21 22 25 23 21
3330.0 24 18 21 21 25 20 19 19 24 24
3370.0 21 25 28 24 31 35 48 60 75 104
3410.0 128 148 154 133 102 64 37 22 20 16
3450.0 17 12 12 17 22 17 20 18 14 12
3490.0 17 19 7 6 9 15 15 18 12 4
3530.0 14 22 19 11 6 4 16 14 13 13
3570.0 12 31 55 75 91 79 54 21 22 19
3610.0 22 21 21 23 18 23 29 11 16 13
3650.0 33 25 16 22 1 31 26 45 7 23
3690.0 39 24 14 18 15 24 22 14 22 8
3730.0 24 23 27 19 69 34 64 23 19 21
3770.0 9 21 8 27 9 18 9 13 14 40
3810.0 4 26 26 41 27 11 21 36 11 20
3850.0 25 50 25 15 18 32 11 13 13 17
3890.0 22 39 22 42 29 32 22 25 11 17
3930.0 20 27 18 12 31 27 28 25 26 24
##END=
