##TITLE=Formic acid
##JCAMP-DX=4.24
##DATA TYPE=INFRARED SPECTRUM
##ORIGIN=Sadtler Research Labs Under US-EPA Contract
##OWNER=NIST Standard Reference Data Program
##CAS REGISTRY NO=64-18-6
##MOLFORM=C H 2 O 2
##XUNITS=1/CM
##YUNITS=ABSORBANCE
##XFACTOR=1.0
##YFACTOR=0.000123196
##DELTAX=4.0
##FIRSTX=450.0
##LASTX=3966.0
##FIRSTY=0.003573
##MAXX=3966
##MINX=450
##MAXY=1.23196
##MINY=0
##NPOINTS=880
##XYDATA=(X++(Y..Y))
450.0 29 19 41 3 156 42 94 75 104 96
490.0 91 160 89 133 110 164 126 154 174 186
530.0 217 221 273 272 338 325 417 406 498 530
570.0 725 840 1040 1297 1037 1226 1461 1700 1925 2150
610.0 2437 2592 2666 2444 2321 2363 3637 4735 4931 3355
650.0 2664 2148 2241 2055 2186 1883 1709 1629 1495 1345
690.0 1219 1139 951 859 733 642 563 446 419 331
730.0 314 233 264 207 183 153 148 133 118 125
770.0 84 99 97 107 60 95 96 84 88 76
810.0 95 71 88 75 86 75 77 90 77 89
850.0 70 98 70 92 89 89 90 81 102 78
890.0 106 83 99 85 97 102 87 102 89 106
930.0 80 110 88 96 90 101 103 85 115 91
970.0 117 103 132 113 126 143 141 157 151 197
1010.0 167 212 198 241 245 339 389 333 416 499
1050.0 681 819 1166 1580 2132 2917 3757 4976 5373 6451
1090.0 5939 5858 3878 3980 4699 4836 4936 7894 7586 7631
1130.0 5392 4018 2426 1434 899 628 566 530 582 562
1170.0 521 446 464 445 443 474 480 505 508 544
1210.0 517 482 478 399 411 563 615 596 524 410
1250.0 335 278 252 237 237 232 214 200 189 198
1290.0 194 193 180 153 173 175 175 187 221 216
1330.0 218 189 165 151 155 157 153 163 150 151
1370.0 139 118 105 105 114 120 128 117 136 120
1410.0 119 115 86 91 90 98 77 78 89 89
1450.0 76 70 41 63 68 64 48 45 76 58
1490.0 46 54 51 56 22 28 44 36 12 46
1530.0 44 47 42 2 38 50 56 1 39 54
1570.0 57 47 64 66 68 70 69 71 67 72
1610.0 68 68 54 67 63 69 68 48 76 59
1650.0 51 39 75 81 72 90 44 114 67 85
1690.0 111 142 114 150 225 257 332 374 605 793
1730.0 1227 1753 2694 3645 4997 6263 7651 8546 7915 6815
1770.0 6043 7619 4048 3936 7043 10000 9732 8800 6690 4417
1810.0 2763 1490 818 401 303 227 250 214 184 135
1850.0 133 118 106 123 97 89 65 78 54 51
1890.0 46 52 55 43 54 44 49 43 49 39
1930.0 44 45 42 43 40 53 37 40 35 34
1970.0 28 30 34 25 32 21 30 20 33 24
2010.0 26 25 23 28 20 26 20 22 17 22
2050.0 18 17 17 16 17 14 22 13 18 16
2090.0 16 13 15 18 14 17 15 18 13 18
2130.0 18 18 18 22 31 33 47 50 67 74
2170.0 92 104 117 128 118 113 83 118 132 111
2210.0 138 164 159 120 73 28 10 2 5 2
2250.0 3 5 6 10 11 16 14 22 20 26
2290.0 22 28 26 17 28 41 51 41 36 23
2330.0 11 8 12 6 21 35 15 19 6 21
2370.0 21 30 39 38 35 31 25 21 33 29
2410.0 34 43 41 39 24 18 11 11 8 11
2450.0 9 9 11 9 11 8 11 9 11 12
2490.0 13 12 12 10 9 12 9 14 11 12
2530.0 12 12 12 13 12 11 15 12 13 12
2570.0 15 14 13 14 12 16 12 16 12 12
2610.0 9 11 13 14 14 10 11 8 9 5
2650.0 6 6 9 9 7 8 7 11 9 11
2690.0 7 12 13 12 15 14 16 14 19 15
2730.0 20 16 18 17 13 18 17 22 19 25
2770.0 21 22 23 23 24 24 32 25 34 31
2810.0 30 29 33 38 40 50 54 67 74 94
2850.0 104 118 133 143 163 150 187 211 222 256
2890.0 294 314 344 367 403 450 494 546 600 628
2930.0 635 579 466 367 391 521 678 730 717 654
2970.0 587 512 452 397 361 317 290 270 246 234
3010.0 209 188 166 150 131 113 104 91 86 73
3050.0 67 64 65 58 57 55 51 52 51 52
3090.0 57 65 69 69 71 65 62 65 63 61
3130.0 67 65 66 64 60 59 55 56 55 61
3170.0 56 61 57 54 58 51 52 51 53 49
3210.0 48 46 48 45 44 45 44 44 40 42
3250.0 39 38 37 40 38 37 39 35 38 34
3290.0 35 35 38 32 36 31 32 34 24 26
3330.0 24 28 23 20 24 23 24 18 22 20
3370.0 23 19 21 20 18 17 17 20 14 16
3410.0 12 20 14 15 18 18 13 15 22 15
3450.0 20 26 32 35 48 57 60 85 103 126
3490.0 153 189 217 264 297 349 402 446 496 534
3530.0 609 719 795 934 1054 1127 1074 964 744 587
3570.0 510 576 798 1008 1034 1020 932 809 705 589
3610.0 510 445 406 362 322 278 246 231 177 150
3650.0 130 108 99 67 69 38 51 15 33 22
3690.0 18 8 18 13 17 8 10 13 10 18
3730.0 8 14 8 20 3 15 0 15 12 7
3770.0 16 7 24 6 13 13 8 7 17 0
3810.0 24 3 15 6 17 14 14 6 15 11
3850.0 4 3 2 4 12 4 14 15 13 10
3890.0 14 3 16 0 14 7 8 8 14 8
3930.0 17 19 12 11 8 10 9 11 5 17
##END=
