##TITLE=Ethanol
##JCAMP-DX=4.24
##DATA TYPE=INFRARED SPECTRUM
##ORIGIN=Sadtler Research Labs Under US-EPA Contract
##OWNER=NIST Standard Reference Data Program
##CAS REGISTRY NO=64-17-5
##MOLFORM=C 2 H 6 O
##XUNITS=1/CM
##YUNITS=ABSORBANCE
##XFACTOR=1.0
##YFACTOR=0.000112097
##DELTAX=4.0
##FIRSTX=450.0
##LASTX=3966.0
##FIRSTY=0.016702
##MAXX=3966
##MINX=450
##MAXY=1.12097
##MINY=0
##NPOINTS=880
##XYDATA=(X++(Y..Y))
450.0 149 402 451 319 274 248 174 256 130 148
490.0 135 190 143 195 108 29 114 109 56 74
530.0 83 41 96 109 73 92 66 120 56 103
570.0 85 123 119 80 141 126 69 81 134 78
610.0 144 125 128 107 171 175 102 133 121 55
650.0 100 125 134 115 120 3 14 104 60 89
690.0 101 89 92 82 68 72 72 88 24 50
730.0 47 21 49 84 82 91 86 97 99 113
770.0 122 117 143 184 155 217 236 264 284 284
810.0 285 299 300 310 308 342 365 390 447 529
850.0 663 847 1030 1202 1307 1254 1198 1275 1421 1279
890.0 1371 1496 1519 1525 1355 1152 940 775 706 672
930.0 707 735 771 779 815 850 877 879 901 946
970.0 1002 1026 1062 1152 1285 1514 1826 2161 2569 2998
1010.0 3367 3767 4141 4631 5223 6079 6764 7700 8042 9076
1050.0 9385 9991 9600 9650 10000 9377 9201 8882 8098 7140
1090.0 6101 5026 4454 4007 3649 3184 2748 2366 2038 1809
1130.0 1635 1523 1436 1386 1333 1306 1254 1218 1190 1145
1170.0 1125 1099 1109 1103 1120 1131 1182 1258 1354 1489
1210.0 1653 1881 2076 2291 2380 2412 2292 2191 2434 2346
1250.0 2496 2478 2377 2277 2090 1844 1607 1428 1272 1150
1290.0 1066 997 947 913 898 887 885 887 919 938
1330.0 972 1017 1107 1193 1330 1470 1675 1937 2233 2563
1370.0 2874 3166 3319 3421 3313 3365 3994 3288 3238 3438
1410.0 3380 3008 2577 2071 1694 1412 1305 1237 1186 1156
1450.0 1304 1309 1117 970 896 885 909 821 737 687
1490.0 630 595 543 474 441 412 310 272 271 204
1530.0 175 128 165 125 122 85 103 88 119 47
1570.0 63 37 85 25 33 39 31 30 25 37
1610.0 14 43 45 38 25 20 44 38 18 62
1650.0 16 97 52 4 32 44 13 53 5 82
1690.0 14 36 56 85 43 37 89 102 109 106
1730.0 141 135 156 96 86 78 88 53 57 61
1770.0 52 61 24 54 27 61 35 40 41 47
1810.0 26 44 52 39 64 44 65 48 79 70
1850.0 78 76 89 85 99 109 111 125 129 147
1890.0 158 171 179 190 200 207 220 229 228 232
1930.0 234 240 230 216 209 192 177 156 148 141
1970.0 125 125 116 112 105 103 96 96 89 84
2010.0 81 72 68 69 61 61 56 55 49 50
2050.0 47 46 27 23 23 29 30 36 35 32
2090.0 25 27 33 31 37 42 44 39 38 43
2130.0 43 39 36 29 27 26 27 27 27 29
2170.0 28 32 31 34 34 36 33 28 27 24
2210.0 20 22 22 22 23 21 23 24 22 23
2250.0 27 27 27 27 35 34 35 36 35 30
2290.0 30 29 24 13 12 14 10 5 5 7
2330.0 10 6 19 16 40 15 4 4 29 51
2370.0 65 66 64 56 50 41 37 46 44 45
2410.0 55 55 54 48 48 43 45 43 42 42
2450.0 37 34 40 37 42 37 36 33 39 35
2490.0 40 35 39 34 32 34 27 24 24 24
2530.0 24 26 21 24 27 26 25 21 26 28
2570.0 38 36 47 49 51 52 55 65 64 71
2610.0 75 85 86 95 102 112 115 118 125 123
2650.0 123 122 134 143 143 150 153 155 162 167
2690.0 173 183 194 209 224 242 258 279 296 314
2730.0 330 354 377 405 430 445 455 468 482 503
2770.0 513 538 555 585 622 667 702 752 798 856
2810.0 928 1008 1102 1211 1316 1440 1585 1779 2009 2282
2850.0 2517 2851 3262 3682 4111 4459 4683 4936 5426 5772
2890.0 5834 5996 6256 6685 6732 6762 6884 6786 6860 6838
2930.0 6721 6796 6946 7158 7248 7500 7824 8109 8337 8560
2970.0 8869 8893 8918 8731 8520 7796 6909 6510 5960 5291
3010.0 4575 3894 3268 2737 2292 1880 1534 1218 964 753
3050.0 575 442 342 276 225 185 153 142 122 106
3090.0 108 106 96 91 85 85 80 77 73 69
3130.0 62 65 65 65 73 66 52 41 56 59
3170.0 75 67 88 87 86 81 94 87 88 62
3210.0 64 84 85 70 65 75 66 73 62 70
3250.0 56 56 64 59 59 48 48 53 54 48
3290.0 52 40 55 54 45 42 52 54 47 44
3330.0 56 44 55 38 54 51 46 36 49 43
3370.0 44 45 45 47 47 49 45 37 35 44
3410.0 35 37 33 39 21 31 40 26 47 36
3450.0 20 48 46 58 47 69 81 80 67 41
3490.0 33 49 43 38 43 11 30 20 26 8
3530.0 25 14 13 26 19 4 22 9 12 48
3570.0 55 43 34 53 64 90 124 111 153 170
3610.0 241 251 325 375 473 642 749 976 1145 1364
3650.0 1540 1634 1835 1808 1719 1641 1926 1893 1543 1566
3690.0 1456 1394 1235 971 762 531 413 303 217 190
3730.0 147 99 85 99 100 101 93 20 21 25
3770.0 3 29 52 60 29 62 63 37 56 48
3810.0 77 66 57 68 46 57 92 80 53 65
3850.0 75 105 113 47 82 53 84 56 27 89
3890.0 44 27 33 73 51 18 9 6 18 19
3930.0 6 8 21 2 35 0 23 49 46 38
##END=
