##TITLE=Acetic acid
##JCAMP-DX=4.24
##DATA TYPE=INFRARED SPECTRUM
##ORIGIN=Sadtler Research Labs Under US-EPA Contract
##OWNER=NIST Standard Reference Data Program
##CAS REGISTRY NO=64-19-7
##MOLFORM=C 2 H 4 O 2
##XUNITS=1/CM
##YUNITS=ABSORBANCE
##XFACTOR=1.0
##YFACTOR=0.000139697
##DELTAX=4.0
##FIRSTX=450.0
##LASTX=3966.0
##FIRSTY=0.252992
##MAXX=3966
##MINX=450
##MAXY=1.39697
##MINY=0
##NPOINTS=880
##XYDATA=(X++(Y..Y))
450.0 1811 1597 1541 1481 1457 1388 1448 1369 1459 1409
490.0 1449 1444 1542 1532 1646 1835 1854 1754 1546 1680
530.0 1702 2994 2794 1627 1417 1478 1685 1838 2059 2112
570.0 2084 1625 1849 2231 1931 1770 2296 2248 2331 1937
610.0 1776 1582 1512 1679 1887 1702 1459 1346 2176 1643
650.0 1788 3132 2876 1717 1253 1047 1113 1202 1196 1002
690.0 732 554 429 313 240 220 165 138 94 102
730.0 89 76 83 74 63 60 63 47 53 47
770.0 42 32 43 9 0 56 54 56 48 49
810.0 62 65 86 97 120 139 172 177 181 165
850.0 162 174 200 216 199 169 139 109 86 72
890.0 47 43 43 43 44 43 54 60 71 90
930.0 106 127 161 218 283 382 512 684 882 1084
970.0 1276 1415 1506 1528 1506 1503 1511 1514 1526 1462
1010.0 1318 1113 905 679 516 418 368 356 380 441
1050.0 593 567 594 618 627 657 678 671 680 670
1090.0 658 627 597 563 519 488 469 483 519 593
1130.0 727 922 1186 1566 2006 2518 3039 3631 4317 4733
1170.0 5171 5423 5629 5540 5371 5145 4666 4519 4276 3691
1210.0 2900 2114 1474 1058 838 730 724 747 815 917
1250.0 1042 1162 1270 1431 1524 1546 1573 1537 1481 1401
1290.0 1293 1233 1133 1004 834 660 515 405 345 305
1330.0 292 294 338 383 457 536 647 793 947 1124
1370.0 1246 1342 1349 1477 1623 1534 1499 1621 1598 1415
1410.0 1153 896 784 697 660 631 656 611 523 490
1450.0 496 444 381 298 226 193 171 166 136 133
1490.0 117 122 129 121 129 144 126 133 156 141
1530.0 130 120 134 122 120 108 112 119 130 110
1570.0 111 111 120 102 100 99 98 95 86 84
1610.0 72 79 74 67 56 54 54 56 44 61
1650.0 58 96 89 90 119 137 154 174 178 206
1690.0 184 195 208 232 233 248 280 327 370 435
1730.0 523 636 754 910 1212 1675 2405 3360 4736 6122
1770.0 7637 8771 9099 8598 7405 6773 8244 10000 9446 8848
1810.0 7195 5073 3216 1884 1131 685 435 280 199 154
1850.0 127 112 96 85 78 70 64 58 56 54
1890.0 53 48 47 47 48 47 49 52 44 50
1930.0 48 47 44 45 46 46 46 46 47 48
1970.0 49 52 54 60 62 66 67 67 67 72
2010.0 73 72 73 73 70 68 61 50 43 40
2050.0 37 36 28 22 19 11 8 9 8 15
2090.0 22 28 34 34 35 33 32 30 28 29
2130.0 29 35 38 38 40 46 45 49 49 49
2170.0 49 47 46 49 48 47 52 49 48 45
2210.0 44 47 48 47 52 52 49 48 42 45
2250.0 40 37 33 30 31 29 30 29 25 25
2290.0 21 18 11 10 5 2 9 12 11 13
2330.0 11 19 12 9 12 15 19 22 7 12
2370.0 11 20 17 18 22 25 23 21 21 24
2410.0 23 22 20 23 29 29 29 26 26 27
2450.0 32 33 34 37 34 38 34 35 35 34
2490.0 34 32 32 27 27 26 27 20 21 19
2530.0 18 18 16 17 15 15 17 16 11 8
2570.0 8 7 6 7 6 12 16 18 20 24
2610.0 29 33 41 44 47 47 39 45 44 48
2650.0 48 49 47 41 25 10 9 2 8 2
2690.0 10 4 3 5 4 5 1 4 2 4
2730.0 5 4 3 2 9 8 11 13 13 10
2770.0 15 13 10 10 8 15 10 13 14 17
2810.0 14 3 9 14 10 14 10 16 13 13
2850.0 20 15 16 16 23 19 20 29 25 28
2890.0 25 28 33 31 32 43 45 53 64 80
2930.0 89 107 107 120 133 137 146 147 157 162
2970.0 165 151 144 121 112 110 115 190 123 105
3010.0 116 123 134 136 143 137 132 141 145 164
3050.0 165 153 148 131 126 133 126 126 126 126
3090.0 125 125 105 112 95 83 79 80 70 70
3130.0 79 80 73 68 61 65 70 60 49 53
3170.0 57 49 39 53 52 54 57 52 43 44
3210.0 50 44 46 45 53 41 36 42 44 45
3250.0 44 34 34 32 24 17 24 18 21 13
3290.0 17 28 27 10 22 19 22 23 25 27
3330.0 33 29 25 25 31 19 22 27 30 27
3370.0 21 29 29 16 29 24 32 15 29 31
3410.0 18 11 32 33 16 16 2 17 23 39
3450.0 25 28 22 29 28 28 32 35 40 32
3490.0 35 26 44 61 50 34 48 57 57 95
3530.0 100 135 157 227 395 585 890 1226 1557 1710
3570.0 1689 1434 1559 2376 1570 1306 1646 1677 1439 1057
3610.0 687 406 219 134 52 79 46 30 49 49
3650.0 67 53 56 29 34 51 58 43 53 29
3690.0 54 37 7 44 16 21 42 41 37 44
3730.0 32 46 57 56 70 61 41 31 11 12
3770.0 34 31 15 37 23 15 12 22 42 27
3810.0 21 9 52 34 21 12 15 36 46 20
3850.0 54 100 69 55 57 68 65 60 81 95
3890.0 81 83 72 62 80 39 5 34 50 28
3930.0 31 31 38 61 27 44 16 31 16 12
##END=
