##TITLE=Benzenesulfonamide, N,4-dimethyl-
##JCAMP-DX=4.24
##DATA TYPE=INFRARED SPECTRUM
##ORIGIN=Sadtler Research Labs Under US-EPA Contract
##OWNER=NIST Standard Reference Data Program
##CAS REGISTRY NO=640-61-9
##MOLFORM=C 8 H 11 N O 2 S
##XUNITS=1/CM
##YUNITS=ABSORBANCE
##XFACTOR=1.0
##YFACTOR=0.000088644
##DELTAX=4.0
##FIRSTX=450.0
##LASTX=3966.0
##FIRSTY=0.000000
##MAXX=3966
##MINX=450
##MAXY=0.88644
##MINY=0
##NPOINTS=880
##XYDATA=(X++(Y..Y))
450.0 0 175 116 333 276 462 414 539 435 532
490.0 482 454 514 487 488 480 554 543 611 645
530.0 791 913 1182 1708 2468 3306 3578 3363 2595 2079
570.0 1751 1628 1522 1349 1281 1191 1116 978 923 858
610.0 850 764 760 730 765 800 949 1155 1508 2114
650.0 2814 3448 3775 3391 3000 2213 1793 1429 1268 1105
690.0 977 942 879 896 843 860 788 756 713 697
730.0 672 670 694 684 714 729 784 832 912 1005
770.0 1125 1290 1460 1595 1707 1810 1952 2193 2472 2771
810.0 2984 3234 3412 3586 3574 3347 2794 2140 1588 1171
850.0 904 697 555 468 383 334 290 284 247 238
890.0 214 198 187 171 167 149 154 141 139 142
930.0 156 155 145 143 142 140 135 141 135 145
970.0 139 143 147 144 149 149 156 168 189 219
1010.0 294 443 545 581 559 478 448 505 581 694
1050.0 842 1035 1265 1553 1839 2103 2249 2304 2311 2396
1090.0 2601 2733 2667 2321 1826 1367 1075 893 786 717
1130.0 673 658 668 734 878 1197 1849 3180 5460 8404
1170.0 10000 9702 7433 4325 2369 1397 906 657 542 489
1210.0 456 423 383 343 311 286 269 256 250 235
1250.0 226 229 235 258 287 320 352 375 389 391
1290.0 403 430 477 542 591 614 629 674 794 1012
1330.0 1340 1818 2383 2997 3503 3735 3709 3305 2835 2325
1370.0 2036 1869 1903 2100 2359 2772 3099 3471 3500 3379
1410.0 3013 2524 2049 1616 1377 1163 1014 868 738 647
1450.0 597 579 566 559 575 584 588 585 598 654
1490.0 739 828 811 725 611 425 367 326 315 289
1530.0 273 267 262 266 243 248 238 243 241 247
1570.0 268 273 307 346 391 487 564 676 665 651
1610.0 561 462 367 282 246 215 222 215 221 214
1650.0 213 182 159 137 120 112 100 90 90 83
1690.0 81 82 75 71 74 72 73 78 73 71
1730.0 80 85 76 90 100 107 115 113 110 99
1770.0 97 86 86 92 105 123 142 149 144 120
1810.0 97 76 71 64 65 65 61 62 65 71
1850.0 68 74 75 81 81 86 84 90 91 94
1890.0 104 115 129 140 163 176 176 165 146 126
1930.0 103 90 79 75 68 67 67 66 66 65
1970.0 65 60 60 56 56 53 52 50 50 50
2010.0 50 52 53 51 48 48 49 53 49 49
2050.0 48 50 49 50 51 46 50 47 48 49
2090.0 51 49 48 53 54 58 55 55 55 53
2130.0 54 54 51 50 52 54 55 56 55 57
2170.0 57 60 60 63 65 68 68 68 64 63
2210.0 63 61 60 58 60 61 58 59 64 66
2250.0 67 71 75 82 80 82 78 72 70 67
2290.0 67 67 69 68 68 66 65 52 56 52
2330.0 50 59 59 63 54 58 46 50 46 60
2370.0 68 64 66 66 63 60 65 63 61 65
2410.0 64 63 64 66 63 58 60 60 58 58
2450.0 59 58 60 60 61 63 65 64 69 68
2490.0 73 74 75 80 82 85 84 82 79 77
2530.0 78 75 71 66 70 73 72 73 74 76
2570.0 78 78 80 77 80 81 78 78 72 66
2610.0 61 62 62 57 58 58 54 49 51 48
2650.0 47 49 48 48 50 55 56 56 58 63
2690.0 62 67 63 64 58 60 60 57 61 66
2730.0 68 71 79 85 94 96 83 81 77 79
2770.0 79 83 83 87 99 100 108 117 125 138
2810.0 157 181 210 246 280 308 320 319 297 280
2850.0 265 267 280 312 360 409 466 506 544 558
2890.0 577 602 626 663 687 718 746 792 861 964
2930.0 1104 1231 1291 1278 1212 1133 1082 1045 1010 959
2970.0 907 851 798 744 689 650 615 594 583 575
3010.0 567 566 560 578 635 724 807 832 829 769
3050.0 707 656 599 565 561 549 505 445 372 339
3090.0 322 303 269 238 204 178 162 148 135 119
3130.0 108 103 97 91 87 84 83 77 80 74
3170.0 69 69 61 60 63 68 58 60 61 60
3210.0 60 60 59 61 62 63 63 63 61 61
3250.0 65 66 63 59 62 61 62 59 59 61
3290.0 63 62 63 59 66 62 67 66 63 68
3330.0 65 72 70 74 79 79 80 83 84 86
3370.0 96 107 113 121 139 162 187 235 301 398
3410.0 525 690 878 1037 1116 1056 901 694 507 367
3450.0 270 201 173 137 119 109 106 92 81 83
3490.0 76 74 71 68 65 62 55 61 54 56
3530.0 60 55 63 57 61 62 56 55 50 50
3570.0 54 49 57 60 51 60 63 46 60 53
3610.0 63 49 57 61 52 69 56 53 50 52
3650.0 66 61 56 55 52 71 54 81 49 65
3690.0 59 57 49 48 54 48 61 60 60 56
3730.0 60 61 53 70 59 58 64 48 57 61
3770.0 66 57 55 47 49 53 57 50 48 64
3810.0 53 58 63 67 58 55 72 68 63 62
3850.0 54 76 78 55 67 77 69 62 72 62
3890.0 73 71 58 67 81 64 72 68 56 59
3930.0 72 57 62 50 59 64 46 52 65 55
##END=
