##TITLE=Hydantoin, 1-acetyl-3,5-dimethyl-2-thio-,
##JCAMP-DX=4.24
##DATA TYPE=INFRARED SPECTRUM
##ORIGIN=Sadtler Research Labs Under US-EPA Contract
##OWNER=NIST Standard Reference Data Program
##CAS REGISTRY NO=64143-07-3
##MOLFORM=C 7 H 10 N 2 O 2 S
##XUNITS=1/CM
##YUNITS=ABSORBANCE
##XFACTOR=1.0
##YFACTOR=0.000113623
##DELTAX=4.0
##FIRSTX=450.0
##LASTX=3966.0
##FIRSTY=0.013067
##MAXX=3966
##MINX=450
##MAXY=1.13623
##MINY=0
##NPOINTS=880
##XYDATA=(X++(Y..Y))
450.0 115 251 250 128 110 108 60 81 56 101
490.0 144 255 343 357 322 231 134 71 14 31
530.0 9 16 42 45 42 55 69 99 131 163
570.0 267 378 557 771 1050 1365 1507 1399 1133 779
610.0 480 339 261 208 170 138 89 92 117 149
650.0 183 177 141 85 74 52 73 72 46 37
690.0 22 27 17 16 33 33 36 34 28 31
730.0 30 64 112 199 250 247 188 111 59 27
770.0 7 1 12 3 5 2 6 18 29 27
810.0 51 88 117 116 115 89 57 32 14 12
850.0 16 17 19 13 17 15 30 29 41 51
890.0 63 88 92 95 85 63 52 47 45 61
930.0 85 119 188 319 556 847 1041 1050 905 616
970.0 364 282 270 314 408 586 877 1291 1766 2118
1010.0 2244 2130 1740 1292 923 650 496 425 394 336
1050.0 280 233 193 174 171 185 212 255 291 314
1090.0 331 361 412 496 608 719 828 924 1054 1223
1130.0 1394 1498 1488 1378 1185 1010 896 839 809 800
1170.0 802 808 820 849 937 1125 1495 2128 3060 4112
1210.0 4886 5099 4616 3597 2539 1836 1521 1541 1829 2353
1250.0 3054 3742 4209 4299 3991 3417 2800 2305 1954 1698
1290.0 1583 1643 1867 2194 2585 3120 3920 5146 6703 7952
1330.0 8372 7893 6948 6143 5972 6026 5765 5143 4485 4407
1370.0 4865 5586 6583 7767 8534 8863 8284 6838 4979 3614
1410.0 3021 2992 3283 3657 4189 4453 4209 3599 2687 1978
1450.0 1649 1555 1543 1514 1516 1565 1544 1402 1147 919
1490.0 737 567 491 424 422 414 367 366 383 348
1530.0 348 334 340 358 332 294 294 321 284 245
1570.0 237 221 210 200 175 180 175 188 187 200
1610.0 204 201 221 204 223 198 226 229 209 209
1650.0 237 231 198 197 209 243 298 320 382 414
1690.0 395 426 537 717 1071 1794 3224 5029 6157 6239
1730.0 5393 3528 1920 1219 1066 1209 1480 1943 2636 3874
1770.0 6024 8677 10000 9880 7850 4359 1898 993 665 503
1810.0 426 366 317 297 292 270 245 207 193 172
1850.0 145 124 121 112 118 135 117 125 119 112
1890.0 99 89 72 62 59 58 57 53 56 42
1930.0 40 38 35 36 33 22 20 21 17 19
1970.0 13 12 8 10 7 19 17 14 21 24
2010.0 31 33 43 41 39 42 36 35 31 25
2050.0 22 20 19 21 23 22 20 18 17 12
2090.0 15 14 14 12 16 16 16 20 23 27
2130.0 26 26 22 22 19 20 19 20 22 20
2170.0 17 9 5 1 0 1 0 1 0 3
2210.0 2 3 4 3 1 3 2 2 8 11
2250.0 7 14 15 16 25 26 32 33 36 34
2290.0 32 30 32 32 33 38 37 36 33 32
2330.0 24 33 34 42 51 37 34 29 17 24
2370.0 31 35 39 45 38 29 23 20 17 12
2410.0 10 6 1 2 9 10 17 23 25 23
2450.0 27 23 22 18 17 17 17 16 15 14
2490.0 15 17 17 17 20 24 25 26 30 31
2530.0 32 32 31 34 35 30 32 30 35 37
2570.0 35 39 37 37 41 47 44 48 45 39
2610.0 35 30 25 17 19 18 20 21 22 23
2650.0 18 19 22 23 22 29 32 34 31 27
2690.0 25 22 19 16 19 19 18 20 21 23
2730.0 20 18 17 19 16 13 12 14 14 12
2770.0 13 12 14 16 14 13 14 19 18 22
2810.0 25 27 29 33 30 29 32 33 34 45
2850.0 50 57 63 61 66 68 84 98 122 134
2890.0 133 132 130 124 129 146 157 171 183 210
2930.0 241 295 380 480 585 650 658 585 467 361
2970.0 263 207 220 298 393 472 478 428 322 244
3010.0 223 244 262 254 230 172 112 76 59 55
3050.0 51 45 37 40 37 35 34 38 36 37
3090.0 38 35 30 30 29 25 29 25 25 25
3130.0 22 19 20 18 17 21 18 25 20 16
3170.0 15 20 15 21 18 15 19 13 15 13
3210.0 12 13 12 10 11 9 14 11 7 11
3250.0 3 7 5 8 6 5 3 2 8 11
3290.0 6 6 4 10 4 3 4 0 4 6
3330.0 9 5 4 7 17 14 8 12 6 8
3370.0 3 7 11 8 9 17 21 15 21 24
3410.0 30 42 59 72 79 73 67 47 29 21
3450.0 14 13 18 16 26 34 37 39 44 47
3490.0 38 40 36 33 23 23 30 38 47 63
3530.0 85 102 103 91 77 56 30 18 11 12
3570.0 10 8 13 13 20 13 13 11 18 16
3610.0 8 11 5 5 5 11 9 8 12 11
3650.0 7 6 7 12 12 0 9 5 1 6
3690.0 4 7 8 7 9 7 8 12 5 12
3730.0 9 7 12 4 0 12 12 5 8 3
3770.0 8 5 0 11 10 8 7 10 11 6
3810.0 3 8 0 12 17 9 7 14 11 7
3850.0 7 8 12 10 11 5 0 9 7 7
3890.0 8 0 5 5 18 5 7 7 3 9
3930.0 1 9 19 17 13 20 7 0 5 17
##END=
