##TITLE=2,5-Difluorobenzonitrile
##JCAMP-DX=4.24
##DATA TYPE=INFRARED SPECTRUM
##ORIGIN=Sadtler Research Labs Under US-EPA Contract
##OWNER=NIST Standard Reference Data Program
##CAS REGISTRY NO=64248-64-2
##MOLFORM=C 7 H 3 F 2 N
##XUNITS=1/CM
##YUNITS=ABSORBANCE
##XFACTOR=1.0
##YFACTOR=0.000050781
##DELTAX=4.0
##FIRSTX=450.0
##LASTX=3966.0
##FIRSTY=0.009902
##MAXX=3966
##MINX=450
##MAXY=0.50781
##MINY=0
##NPOINTS=880
##XYDATA=(X++(Y..Y))
450.0 195 151 189 254 335 402 461 536 475 402
490.0 321 224 198 140 100 101 41 52 70 36
530.0 55 72 47 49 59 20 50 61 24 72
570.0 37 28 93 72 121 188 142 212 171 116
610.0 110 71 50 73 38 38 88 17 54 67
650.0 19 37 62 43 41 11 33 64 78 47
690.0 139 244 317 372 386 441 469 333 273 253
730.0 234 221 223 228 197 223 269 426 714 1283
770.0 1829 1963 2031 1907 1355 801 521 425 422 566
810.0 830 1112 1404 1746 1674 1088 938 717 426 273
850.0 211 185 276 433 647 862 1039 1649 1324 814
890.0 680 477 248 140 104 77 83 85 104 173
930.0 299 487 592 601 593 528 354 230 165 130
970.0 105 82 62 69 68 56 76 67 67 67
1010.0 71 53 51 46 56 55 49 54 56 55
1050.0 56 36 47 67 61 71 78 105 141 214
1090.0 262 299 288 297 217 149 101 159 233 434
1130.0 709 801 745 831 645 376 212 132 133 156
1170.0 277 483 708 888 963 1016 1083 1067 1228 1641
1210.0 1987 2210 2110 1880 1560 1081 791 715 827 1216
1250.0 2007 2793 3031 2982 2774 1834 1009 658 526 496
1290.0 461 435 417 362 294 232 189 159 119 90
1330.0 82 68 62 67 54 64 61 54 52 52
1370.0 52 51 61 62 73 91 108 157 300 535
1410.0 875 1146 1278 1296 1123 730 383 155 128 128
1450.0 137 189 237 418 694 1023 1227 1402 1693 2175
1490.0 3209 5448 8464 10000 9432 7782 5282 2132 769 438
1530.0 378 398 389 319 287 203 131 96 65 114
1570.0 132 169 209 260 281 311 320 320 318 276
1610.0 229 184 127 133 140 153 175 164 173 154
1650.0 134 92 98 78 51 42 38 37 49 25
1690.0 56 68 38 47 56 58 65 32 46 55
1730.0 55 55 81 103 151 171 181 172 168 130
1770.0 89 50 47 41 46 36 37 36 35 45
1810.0 35 46 46 44 44 36 37 42 35 35
1850.0 45 44 64 85 104 134 172 168 150 144
1890.0 98 66 43 34 35 35 34 35 24 26
1930.0 32 25 29 23 24 24 25 25 32 33
1970.0 33 43 33 35 42 40 38 43 32 43
2010.0 43 33 32 43 43 52 52 54 61 62
2050.0 51 52 41 40 44 42 42 42 33 33
2090.0 32 21 33 21 32 31 24 32 32 32
2130.0 31 32 21 33 21 24 31 27 21 32
2170.0 21 21 31 21 21 30 30 30 41 29
2210.0 40 40 40 46 48 57 88 117 137 147
2250.0 125 123 94 54 38 38 38 37 41 39
2290.0 39 39 30 29 30 20 25 20 18 24
2330.0 20 19 19 2 19 18 19 19 10 9
2370.0 29 24 36 33 37 37 29 28 27 28
2410.0 17 28 28 28 27 27 37 37 37 36
2450.0 36 28 26 36 26 37 37 36 36 36
2490.0 35 35 28 36 36 36 46 35 35 35
2530.0 33 26 30 29 37 36 36 34 34 26
2570.0 25 25 25 26 26 26 31 24 26 25
2610.0 25 15 15 15 15 25 13 26 13 14
2650.0 14 14 14 14 14 15 15 14 14 14
2690.0 14 14 25 13 19 17 13 24 32 23
2730.0 24 24 24 24 16 15 22 17 25 19
2770.0 15 14 12 12 13 12 12 12 12 13
2810.0 13 13 13 13 13 13 14 14 13 14
2850.0 15 20 22 19 24 13 24 25 13 15
2890.0 15 14 14 15 15 15 15 16 16 17
2930.0 12 15 16 15 15 6 17 15 6 18
2970.0 18 10 16 10 7 18 16 16 18 7
3010.0 18 18 18 18 19 12 17 17 17 17
3050.0 19 18 19 19 30 40 47 51 57 58
3090.0 59 47 39 40 20 19 20 8 20 20
3130.0 20 14 20 9 21 21 2 22 10 11
3170.0 21 11 11 22 11 11 11 11 12 12
3210.0 12 21 13 13 21 20 4 20 13 18
3250.0 23 12 12 24 13 13 14 3 23 14
3290.0 14 13 8 15 21 6 22 24 14 24
3330.0 15 14 16 22 14 25 20 21 24 18
3370.0 15 26 15 26 26 15 15 25 10 20
3410.0 26 15 26 19 16 27 17 26 28 16
3450.0 27 27 16 27 21 22 25 29 26 27
3490.0 27 28 28 28 27 29 28 27 33 29
3530.0 28 28 19 29 28 28 28 30 30 30
3570.0 17 30 29 21 30 22 20 30 30 21
3610.0 21 12 23 25 34 9 28 23 31 31
3650.0 12 32 32 31 29 19 16 21 26 33
3690.0 22 14 32 33 23 23 23 23 23 23
3730.0 28 22 16 24 16 14 22 34 34 34
3770.0 34 34 34 34 28 34 28 25 25 24
3810.0 24 35 15 26 34 15 19 25 26 31
3850.0 29 26 34 27 16 26 26 27 26 24
3890.0 16 24 18 23 26 18 28 27 18 27
3930.0 27 27 27 25 22 30 0 2 2 2
##END=
