##TITLE=1,1'-Biphenyl, 3-methyl-
##JCAMP-DX=4.24
##DATA TYPE=INFRARED SPECTRUM
##ORIGIN=Sadtler Research Labs Under US-EPA Contract
##OWNER=NIST Standard Reference Data Program
##CAS REGISTRY NO=643-93-6
##MOLFORM=C 13 H 12
##XUNITS=1/CM
##YUNITS=ABSORBANCE
##XFACTOR=1.0
##YFACTOR=0.000059152
##DELTAX=4.0
##FIRSTX=450.0
##LASTX=3966.0
##FIRSTY=0.000000
##MAXX=3966
##MINX=450
##MAXY=0.59152
##MINY=0
##NPOINTS=880
##XYDATA=(X++(Y..Y))
450.0 0 712 878 787 698 745 712 852 659 801
490.0 808 935 958 1102 1200 1181 1226 1092 1102 1100
530.0 1052 919 812 961 960 937 895 953 950 1061
570.0 1141 1098 1133 980 947 757 734 712 815 747
610.0 1119 1592 1907 1888 1460 1012 777 762 789 728
650.0 809 917 955 1075 1157 1401 1427 1640 2158 3110
690.0 4735 6264 7700 7575 6205 4743 3498 2644 2138 1889
730.0 1883 2350 3370 5080 7058 9387 10000 8089 6060 4218
770.0 2895 2356 2369 2661 2866 2920 2500 1956 1480 1200
810.0 1025 968 944 937 920 902 991 974 992 1027
850.0 1277 1451 1491 1391 1186 1273 1318 1476 1489 1354
890.0 1250 1151 1121 1056 994 961 895 855 817 775
930.0 770 761 760 781 783 783 783 820 835 851
970.0 844 841 813 847 892 911 1034 1065 1072 1000
1010.0 941 981 1064 1372 1567 1594 1427 1162 1097 1156
1050.0 1182 1200 1193 1231 1303 1355 1366 1324 1300 1271
1090.0 1311 1391 1418 1340 1194 999 884 817 777 769
1130.0 759 755 758 765 765 765 770 753 774 766
1170.0 791 838 900 912 892 834 782 774 760 757
1210.0 767 761 772 782 797 808 810 794 794 784
1250.0 779 788 821 850 847 855 824 824 810 819
1290.0 835 858 881 896 909 901 926 940 952 949
1330.0 952 921 905 885 876 897 911 951 995 1044
1370.0 1085 1136 1164 1186 1205 1175 1169 1172 1215 1292
1410.0 1400 1527 1676 1776 1822 1781 1699 1675 1706 1868
1450.0 2116 2274 2289 2124 2146 2500 3419 4715 5345 5331
1490.0 4285 3180 2608 2218 1933 1627 1385 1324 1336 1360
1530.0 1409 1449 1501 1487 1412 1323 1298 1340 1436 1536
1570.0 1739 1954 2207 2446 2753 3189 3843 4715 5256 5276
1610.0 4505 3417 2451 1724 1341 1107 1018 944 895 874
1650.0 882 916 914 935 991 1002 994 993 1025 1080
1690.0 1005 931 879 845 814 798 821 839 824 825
1730.0 860 876 903 911 948 987 1009 1010 1003 993
1770.0 1002 1032 1020 1042 1059 1120 1193 1209 1149 1044
1810.0 950 913 890 853 837 838 845 857 903 948
1850.0 967 989 1025 1063 1100 1105 1076 1045 1043 1029
1890.0 1008 970 922 870 837 839 845 888 947 1036
1930.0 1128 1212 1236 1214 1146 1098 1069 1018 942 843
1970.0 762 746 735 730 730 725 719 708 703 706
2010.0 706 706 702 696 692 694 690 690 690 685
2050.0 686 685 698 693 692 700 697 704 708 715
2090.0 707 711 710 709 709 706 704 695 707 700
2130.0 704 701 704 711 715 715 710 715 712 714
2170.0 714 710 719 718 713 707 718 710 714 706
2210.0 706 713 702 718 715 721 714 730 730 734
2250.0 740 725 727 726 725 722 724 719 722 724
2290.0 721 728 716 722 722 752 759 770 763 741
2330.0 768 772 779 791 791 770 767 742 773 740
2370.0 750 745 735 731 725 721 728 735 724 734
2410.0 729 725 725 726 720 717 729 720 726 723
2450.0 715 732 721 729 717 724 725 728 724 720
2490.0 723 722 722 723 733 717 711 700 692 699
2530.0 695 701 692 698 694 711 694 713 698 705
2570.0 715 710 726 713 734 733 725 732 735 729
2610.0 716 733 730 728 737 739 748 743 743 740
2650.0 747 749 754 747 746 727 734 724 722 719
2690.0 701 701 703 689 687 702 691 696 713 724
2730.0 734 755 795 812 821 800 783 742 722 728
2770.0 731 736 724 739 750 765 774 790 758 778
2810.0 812 797 838 861 877 927 950 1018 1091 1157
2850.0 1304 1487 1750 2047 2305 2529 2697 2751 2715 2563
2890.0 2428 2353 2360 2416 2524 2700 2910 3279 3858 4605
2930.0 5212 5420 5153 4597 3955 3417 3035 2778 2654 2566
2970.0 2444 2260 2075 1973 1949 1992 2039 2084 2157 2252
3010.0 2392 2664 3129 3835 4800 5914 6900 7339 7195 6568
3050.0 5863 5537 5747 6555 7565 7904 7284 5968 4683 3970
3090.0 3619 3254 2922 2584 2275 2040 1771 1514 1304 1132
3130.0 995 926 876 850 865 863 858 819 827 826
3170.0 793 797 774 772 779 761 754 739 754 726
3210.0 743 723 727 726 736 748 742 743 740 721
3250.0 740 743 732 723 732 714 738 724 727 723
3290.0 707 735 713 701 710 704 716 717 697 747
3330.0 748 740 733 727 725 717 744 732 740 736
3370.0 723 736 755 749 723 737 740 736 734 749
3410.0 749 744 751 731 730 710 718 711 704 721
3450.0 733 739 737 715 730 720 716 723 721 697
3490.0 689 705 705 716 723 714 709 714 733 711
3530.0 701 690 715 703 715 752 757 723 746 750
3570.0 733 713 723 754 724 747 719 732 728 729
3610.0 718 744 727 727 754 782 757 761 781 757
3650.0 787 772 814 769 772 750 716 762 750 761
3690.0 799 827 767 759 733 748 741 714 742 738
3730.0 724 736 691 738 780 791 808 774 772 713
3770.0 734 729 757 729 713 735 728 732 741 749
3810.0 774 743 752 727 712 748 715 680 739 730
3850.0 715 732 752 789 760 711 741 751 730 775
3890.0 768 764 763 793 769 739 726 809 835 823
3930.0 761 791 774 830 758 805 732 724 729 798
##END=
