##TITLE=2-Propanone, 1-(o-methoxyphenoxy)-,
##JCAMP-DX=4.24
##DATA TYPE=INFRARED SPECTRUM
##ORIGIN=Sadtler Research Labs Under US-EPA Contract
##OWNER=NIST Standard Reference Data Program
##CAS REGISTRY NO=6437-46-3
##MOLFORM=C 10 H 12 O 3
##XUNITS=1/CM
##YUNITS=ABSORBANCE
##XFACTOR=1.0
##YFACTOR=0.000064340
##DELTAX=4.0
##FIRSTX=450.0
##LASTX=3966.0
##FIRSTY=0.019624
##MAXX=3966
##MINX=450
##MAXY=0.6434
##MINY=0
##NPOINTS=880
##XYDATA=(X++(Y..Y))
450.0 305 158 483 176 119 507 379 406 562 439
490.0 483 407 456 654 639 731 573 570 393 526
530.0 441 462 408 238 272 325 251 320 235 298
570.0 280 235 366 392 313 389 339 369 328 336
610.0 368 190 130 127 120 119 76 111 90 101
650.0 107 59 79 8 3 84 120 52 61 86
690.0 117 99 85 134 109 223 252 323 433 798
730.0 1467 2139 3410 4324 4675 4054 3453 2534 1864 1270
770.0 982 732 687 581 403 343 457 447 456 389
810.0 373 375 403 371 356 417 425 476 464 402
850.0 450 410 412 310 384 341 341 292 281 229
890.0 243 200 228 244 247 288 307 306 344 389
930.0 329 290 251 287 305 390 402 470 464 491
970.0 421 426 460 489 540 608 731 881 1004 1172
1010.0 1404 1700 1992 2312 2593 2864 3302 3828 4273 4508
1050.0 4335 3850 3163 2405 1908 1535 1241 1076 956 860
1090.0 751 798 939 1274 1851 2677 3279 3572 3388 2864
1130.0 2166 1550 1130 894 817 932 1144 1401 1751 2131
1170.0 2632 3087 3395 3419 3354 3362 3611 4115 4608 5066
1210.0 5299 5529 5588 5504 5518 5431 5432 5593 5772 6259
1250.0 6831 7448 7954 8068 7905 7382 6657 5943 5078 4336
1290.0 3596 2950 2501 2123 1810 1574 1342 1227 1122 1031
1330.0 961 917 926 1006 1172 1437 1750 2125 2284 2266
1370.0 1899 1455 1189 978 846 811 781 754 732 758
1410.0 830 887 980 1134 1223 1549 1761 2040 2254 2185
1450.0 2216 2248 2456 2671 2437 2123 1896 1865 2093 2776
1490.0 4461 6656 9213 10000 9567 6748 4336 2631 1652 1321
1530.0 949 837 679 611 518 432 439 447 551 521
1570.0 617 816 1005 1370 1538 1872 2151 2004 1895 1464
1610.0 1016 687 481 384 321 285 254 261 246 236
1650.0 252 286 267 242 276 302 315 369 379 512
1690.0 547 621 763 894 1024 1206 1497 1983 2596 3347
1730.0 4449 5164 5917 5870 5125 4370 3329 2686 2164 1737
1770.0 1432 1087 922 739 620 587 483 456 355 294
1810.0 271 219 186 144 158 134 118 108 105 125
1850.0 123 101 115 109 114 124 141 133 130 126
1890.0 117 94 87 84 93 104 117 131 125 110
1930.0 91 73 60 56 52 45 42 46 52 51
1970.0 58 57 65 64 77 85 96 98 111 115
2010.0 129 131 134 139 146 149 145 144 139 140
2050.0 133 133 139 139 134 137 126 128 112 110
2090.0 114 111 109 105 98 96 88 86 75 69
2130.0 65 55 52 44 32 40 36 37 32 30
2170.0 29 26 23 22 16 25 22 24 21 20
2210.0 22 20 24 27 22 32 35 29 34 37
2250.0 43 45 43 42 44 45 38 35 32 23
2290.0 21 16 8 9 7 2 21 26 25 30
2330.0 33 28 12 37 2 2 2 2 2 9
2370.0 39 18 13 2 2 2 9 5 13 20
2410.0 22 28 29 43 36 40 38 30 33 29
2450.0 28 29 29 34 32 28 24 24 30 26
2490.0 33 33 35 37 44 46 49 53 56 59
2530.0 65 68 72 80 86 85 82 89 89 89
2570.0 96 90 86 75 69 65 58 57 57 51
2610.0 42 42 33 30 25 26 21 28 29 26
2650.0 28 25 24 23 22 24 25 27 23 24
2690.0 31 38 33 30 36 37 36 39 42 50
2730.0 44 51 54 46 58 54 61 61 61 65
2770.0 71 74 79 87 89 98 101 118 125 145
2810.0 154 184 222 275 349 470 665 912 1140 1255
2850.0 1235 1071 854 703 600 550 547 559 610 679
2890.0 768 855 950 1064 1191 1330 1480 1569 1603 1638
2930.0 1706 1810 1923 2039 2079 2058 1985 1849 1707 1542
2970.0 1343 1187 1052 963 904 894 943 1030 1181 1300
3010.0 1327 1270 1095 899 765 691 683 702 739 784
3050.0 802 813 825 867 957 1084 1185 1223 1140 991
3090.0 806 601 466 356 310 271 248 219 184 157
3130.0 116 95 79 80 69 60 66 50 56 61
3170.0 53 55 54 52 38 32 36 32 36 27
3210.0 29 23 22 21 34 23 23 21 21 24
3250.0 25 18 23 21 15 28 29 30 21 27
3290.0 23 32 28 27 32 29 26 30 23 34
3330.0 20 26 21 39 37 19 15 21 34 23
3370.0 28 28 30 33 30 29 41 38 35 23
3410.0 30 33 43 55 50 55 75 74 78 102
3450.0 106 128 116 110 103 102 76 65 62 56
3490.0 51 58 38 34 31 43 30 40 27 22
3530.0 22 20 30 40 18 25 22 39 21 41
3570.0 56 58 48 80 66 71 69 26 59 43
3610.0 52 29 24 5 39 30 57 13 18 28
3650.0 38 43 37 40 24 63 24 91 0 39
3690.0 44 53 28 28 16 44 45 13 9 14
3730.0 23 44 44 24 104 28 70 29 46 23
3770.0 28 33 3 32 14 18 35 25 36 67
3810.0 41 55 44 115 37 27 81 83 73 29
3850.0 79 70 87 14 74 93 57 63 79 82
3890.0 72 120 102 96 72 99 43 42 93 21
3930.0 72 38 97 77 52 78 45 63 49 97
##END=
