##TITLE=1,1'-Biphenyl, 4-methyl-
##JCAMP-DX=4.24
##DATA TYPE=INFRARED SPECTRUM
##ORIGIN=Sadtler Research Labs Under US-EPA Contract
##OWNER=NIST Standard Reference Data Program
##CAS REGISTRY NO=644-08-6
##MOLFORM=C 13 H 12
##XUNITS=1/CM
##YUNITS=ABSORBANCE
##XFACTOR=1.0
##YFACTOR=0.000048904
##DELTAX=4.0
##FIRSTX=450.0
##LASTX=3966.0
##FIRSTY=0.018144
##MAXX=3966
##MINX=450
##MAXY=0.48904
##MINY=0
##NPOINTS=880
##XYDATA=(X++(Y..Y))
450.0 371 120 0 167 122 149 211 332 568 855
490.0 1325 1601 2149 2148 1913 1558 1212 869 632 590
530.0 623 843 983 1074 1107 1195 1286 1163 895 443
570.0 139 122 59 73 44 70 4 38 41 43
610.0 58 32 25 16 15 35 88 108 126 195
650.0 252 298 321 477 527 852 1144 1505 2318 3323
690.0 4748 5746 6797 6264 5328 4237 2851 1776 1246 1035
730.0 1122 1496 2282 3597 5331 7152 8752 9443 7749 5974
770.0 4149 2536 1507 918 631 494 541 719 1146 1823
810.0 2787 3692 4668 4795 3900 2934 1898 1121 612 341
850.0 211 166 158 139 136 118 126 167 237 282
890.0 258 214 195 214 244 228 177 119 71 34
930.0 16 16 14 37 32 39 59 108 113 106
970.0 80 54 90 106 186 323 538 748 1452 2417
1010.0 2681 2369 1274 470 410 539 707 727 686 564
1050.0 512 513 559 639 728 769 730 653 536 429
1090.0 369 380 447 539 612 661 679 657 611 532
1130.0 456 338 238 136 91 63 56 52 48 80
1170.0 105 367 616 733 761 493 315 198 199 288
1210.0 325 320 238 207 242 279 289 255 203 139
1250.0 123 133 167 190 168 120 81 54 49 64
1290.0 101 151 205 227 235 219 204 201 210 209
1330.0 206 208 177 180 178 195 212 257 300 337
1370.0 379 404 430 449 465 460 468 510 572 647
1410.0 686 731 727 777 791 805 821 946 1061 1116
1450.0 1129 1057 961 865 1018 1430 2181 3384 5268 8161
1490.0 8667 7864 4819 2011 1396 1832 2579 3060 2824 2018
1530.0 1174 821 677 626 585 596 616 628 709 721
1570.0 785 776 765 715 790 952 1361 1903 2131 2004
1610.0 1460 1013 711 617 495 406 343 364 407 457
1650.0 437 465 452 419 387 317 219 166 102 102
1690.0 81 93 84 95 95 120 190 296 376 361
1730.0 291 222 240 229 240 243 259 252 230 220
1770.0 211 263 343 486 590 693 673 568 424 292
1810.0 206 192 190 140 99 42 39 35 49 65
1850.0 89 129 179 244 310 368 427 529 643 723
1890.0 740 694 607 523 435 327 253 212 207 240
1930.0 284 336 374 404 436 478 479 407 279 141
1970.0 74 53 46 42 47 47 44 45 41 42
2010.0 43 44 39 32 31 27 25 22 11 8
2050.0 11 12 7 7 13 9 10 17 24 27
2090.0 32 25 19 15 12 7 4 2 4 0
2130.0 2 0 2 5 3 4 0 1 9 12
2170.0 15 19 17 21 17 16 13 13 10 6
2210.0 2 10 7 8 11 9 17 14 15 14
2250.0 17 15 12 17 14 18 14 32 39 63
2290.0 73 94 113 120 139 173 173 147 123 89
2330.0 77 59 67 64 69 97 58 54 17 43
2370.0 69 79 81 88 71 45 36 34 36 45
2410.0 47 56 59 66 61 57 52 45 32 34
2450.0 29 24 33 27 28 28 30 31 29 27
2490.0 26 23 24 32 32 39 36 41 37 34
2530.0 29 27 24 22 20 30 36 34 38 37
2570.0 41 51 62 81 92 112 116 117 94 90
2610.0 102 94 91 85 80 70 62 48 41 38
2650.0 35 34 31 31 24 29 25 35 34 39
2690.0 39 46 53 61 74 81 95 105 104 114
2730.0 130 169 206 244 255 226 181 153 128 114
2770.0 104 103 105 113 102 110 120 128 145 164
2810.0 180 195 210 239 269 281 304 340 381 448
2850.0 555 691 876 1122 1456 1843 2218 2463 2510 2386
2890.0 2177 1982 1838 1752 1731 1789 1951 2283 2800 3531
2930.0 4306 4755 4570 3843 2903 2132 1712 1485 1385 1322
2970.0 1302 1349 1448 1595 1789 2033 2260 2471 2638 2800
3010.0 3009 3378 4204 5799 8094 9785 10000 8620 6576 5386
3050.0 4986 5113 5671 6634 7955 8389 7968 6696 5317 4715
3090.0 4274 3740 3149 2561 2040 1593 1232 986 862 736
3130.0 645 571 513 442 380 308 248 207 172 141
3170.0 126 107 88 83 70 53 56 48 47 42
3210.0 44 40 33 38 28 39 35 27 22 27
3250.0 24 28 15 22 33 20 33 26 25 18
3290.0 25 28 27 26 15 18 15 30 40 23
3330.0 28 38 42 26 21 21 24 21 19 30
3370.0 28 16 23 31 30 26 32 34 35 25
3410.0 21 26 28 29 23 32 28 26 40 34
3450.0 44 36 22 21 26 29 16 20 37 14
3490.0 12 13 14 2 28 25 39 18 21 25
3530.0 31 25 14 16 35 42 33 25 42 35
3570.0 41 10 35 44 25 33 38 36 32 35
3610.0 60 38 45 52 23 53 67 63 76 68
3650.0 71 82 81 86 81 66 81 77 68 58
3690.0 56 42 65 56 59 43 28 26 35 28
3730.0 19 13 13 19 38 36 47 33 36 46
3770.0 57 61 77 27 14 34 38 13 17 27
3810.0 6 1 19 2 26 20 0 20 30 34
3850.0 73 67 28 45 38 24 0 21 27 68
3890.0 35 56 49 54 55 34 22 18 38 45
3930.0 25 47 35 25 16 29 11 7 30 24
##END=
