##TITLE=Phenol, 2-propyl-
##JCAMP-DX=4.24
##DATA TYPE=INFRARED SPECTRUM
##ORIGIN=Sadtler Research Labs Under US-EPA Contract
##OWNER=NIST Standard Reference Data Program
##CAS REGISTRY NO=644-35-9
##MOLFORM=C 9 H 12 O
##XUNITS=1/CM
##YUNITS=ABSORBANCE
##XFACTOR=1.0
##YFACTOR=0.000063074
##DELTAX=4.0
##FIRSTX=450.0
##LASTX=3966.0
##FIRSTY=0.056577
##MAXX=3966
##MINX=450
##MAXY=0.63074
##MINY=0
##NPOINTS=880
##XYDATA=(X++(Y..Y))
450.0 897 551 259 719 753 741 920 759 755 619
490.0 567 442 463 359 407 387 393 466 471 581
530.0 526 592 421 368 340 292 245 201 223 204
570.0 120 206 256 206 246 282 251 271 201 189
610.0 137 151 75 56 65 69 40 21 58 24
650.0 48 28 43 38 11 70 90 69 62 119
690.0 130 180 231 332 499 755 1070 1325 1606 1875
730.0 2185 3122 4578 6140 8749 10000 7156 5561 3822 2137
770.0 1223 791 584 423 372 389 471 494 506 480
810.0 458 442 475 591 752 953 1058 1143 1202 1180
850.0 1085 967 886 792 749 721 664 616 551 475
890.0 457 429 388 327 243 178 162 174 222 276
930.0 307 299 261 202 169 129 112 87 74 72
970.0 85 81 99 111 123 122 143 162 184 213
1010.0 242 293 364 489 647 831 973 1031 1039 1009
1050.0 987 986 1012 1014 954 889 817 788 805 918
1090.0 1104 1438 2063 2984 4066 4493 4504 4218 3218 2131
1130.0 1440 1151 1187 1460 1877 2229 2744 3562 4300 4744
1170.0 4811 4996 4538 4031 4149 4673 5508 6168 6719 6848
1210.0 6549 5828 4931 4075 3257 2651 2433 2872 3909 5355
1250.0 6297 6635 6487 5188 3470 2151 1421 1092 1004 1000
1290.0 1060 1126 1246 1402 1696 2268 3084 4008 4305 4237
1330.0 3928 2978 1995 1314 922 672 493 329 273 248
1370.0 312 400 566 665 766 749 641 490 369 344
1410.0 285 314 326 412 437 590 837 1177 1860 2696
1450.0 3943 4587 5088 5135 4654 3789 3376 3252 3646 4377
1490.0 4868 5486 5395 5000 4180 3155 2286 1440 955 632
1530.0 457 365 290 295 250 258 294 338 452 589
1570.0 899 1214 1719 2278 2530 2864 2745 2629 2183 1916
1610.0 1628 1319 1087 802 570 345 255 189 144 147
1650.0 160 140 135 129 181 211 260 231 258 223
1690.0 176 151 142 150 120 101 105 124 96 97
1730.0 114 113 97 89 101 104 135 143 164 168
1770.0 196 193 176 196 186 176 173 145 133 107
1810.0 105 87 88 75 68 52 39 31 36 63
1850.0 68 77 74 78 74 87 100 141 213 252
1890.0 289 286 249 183 150 125 132 174 213 227
1930.0 217 174 115 66 30 12 5 13 8 9
1970.0 16 11 6 2 3 0 8 1 7 13
2010.0 13 23 32 34 39 39 34 37 40 38
2050.0 42 38 40 37 40 35 32 31 38 37
2090.0 40 42 33 32 26 26 24 16 17 18
2130.0 15 14 13 10 11 8 8 11 11 8
2170.0 11 11 15 14 14 25 14 20 19 26
2210.0 22 24 24 13 14 10 7 14 12 9
2250.0 17 21 24 27 29 39 38 33 28 27
2290.0 24 28 28 28 46 48 60 66 57 59
2330.0 51 41 35 36 34 43 19 27 14 41
2370.0 27 31 34 31 39 41 46 57 71 77
2410.0 94 107 115 118 107 107 101 99 98 104
2450.0 102 101 101 93 91 87 89 87 98 101
2490.0 105 112 115 115 108 104 94 84 76 72
2530.0 79 73 76 71 71 66 62 61 70 69
2570.0 68 65 66 63 52 52 50 53 57 68
2610.0 79 88 98 101 115 114 125 125 123 115
2650.0 104 99 96 90 101 104 110 117 111 106
2690.0 95 84 76 67 71 70 81 90 103 105
2730.0 120 130 139 151 151 159 141 129 118 115
2770.0 110 125 132 152 172 197 219 240 255 271
2810.0 289 305 325 349 381 431 500 600 737 940
2850.0 1204 1529 1903 2312 2715 3159 3751 4479 4787 4686
2890.0 4267 3550 2870 2589 2607 2811 3131 3574 4110 4734
2930.0 5461 6247 6942 7270 7102 6638 6259 6408 7232 8541
2970.0 9713 9383 7939 5926 3846 2349 1561 1216 1079 1077
3010.0 1195 1387 1629 1969 2387 2757 2977 3037 2944 2648
3050.0 2307 2048 1934 2017 2238 2511 2699 2704 2523 2132
3090.0 1723 1399 1140 919 729 583 481 403 347 289
3130.0 239 194 167 145 134 131 126 135 132 141
3170.0 141 140 137 138 128 126 118 122 120 109
3210.0 100 105 94 81 67 63 69 74 69 75
3250.0 67 62 55 55 53 48 46 44 39 42
3290.0 41 52 41 38 39 45 44 46 53 56
3330.0 66 70 69 84 88 92 100 93 96 101
3370.0 107 94 87 92 93 102 96 100 90 90
3410.0 89 80 68 70 71 69 68 61 58 53
3450.0 60 59 42 41 47 54 52 46 30 23
3490.0 44 47 36 32 20 30 40 45 45 8
3530.0 37 46 47 41 14 26 59 28 69 12
3570.0 16 75 78 99 37 73 88 59 103 108
3610.0 102 114 204 243 417 612 1207 2239 4082 6219
3650.0 7431 6861 6560 4475 2334 1028 435 206 161 142
3690.0 88 119 94 98 89 68 0 55 39 45
3730.0 63 26 14 52 38 0 58 33 63 62
3770.0 59 78 84 78 78 96 92 88 58 74
3810.0 98 105 62 94 85 111 85 84 77 125
3850.0 117 63 102 122 89 98 136 156 95 129
3890.0 123 138 157 111 118 171 181 188 179 176
3930.0 173 162 165 181 159 120 150 160 160 179
##END=
